# vtk DataFile Version 2.0
Calculation C:\Users\NickSteudtner\Documents\GitHub\TOCHNOG\standsicherheit_phiC at time 8.000000000000e+00 
ASCII
DATASET UNSTRUCTURED_GRID
Field FieldData 1
Time 1 1 double
8.000000000000e+00

POINTS 1089 float
0.0 0.0 0.0 
5.000000000000e+01 -1.000000000000e+01 0.0 
0.0 -2.000000000000e+01 0.0 
5.000000000000e+01 -2.000000000000e+01 0.0 
0.0 -9.999999999991e-01 0.0 
0.0 -1.999999999998e+00 0.0 
0.0 -2.999999999997e+00 0.0 
0.0 -3.999999999994e+00 0.0 
0.0 -4.999999999991e+00 0.0 
0.0 -5.999999999988e+00 0.0 
0.0 -6.999999999985e+00 0.0 
0.0 -7.999999999982e+00 0.0 
0.0 -8.999999999983e+00 0.0 
0.0 -9.999999999985e+00 0.0 
0.0 -1.099999999999e+01 0.0 
0.0 -1.199999999999e+01 0.0 
0.0 -1.299999999999e+01 0.0 
0.0 -1.399999999999e+01 0.0 
0.0 -1.499999999999e+01 0.0 
0.0 -1.599999999999e+01 0.0 
0.0 -1.700000000000e+01 0.0 
0.0 -1.800000000000e+01 0.0 
0.0 -1.900000000000e+01 0.0 
4.900000000001e+01 -2.000000000000e+01 0.0 
4.800000000001e+01 -2.000000000000e+01 0.0 
4.700000000002e+01 -2.000000000000e+01 0.0 
4.600000000003e+01 -2.000000000000e+01 0.0 
4.500000000004e+01 -2.000000000000e+01 0.0 
4.400000000004e+01 -2.000000000000e+01 0.0 
4.300000000005e+01 -2.000000000000e+01 0.0 
4.200000000006e+01 -2.000000000000e+01 0.0 
4.100000000006e+01 -2.000000000000e+01 0.0 
4.000000000007e+01 -2.000000000000e+01 0.0 
3.900000000008e+01 -2.000000000000e+01 0.0 
3.800000000009e+01 -2.000000000000e+01 0.0 
3.700000000009e+01 -2.000000000000e+01 0.0 
3.600000000010e+01 -2.000000000000e+01 0.0 
3.500000000011e+01 -2.000000000000e+01 0.0 
3.400000000011e+01 -2.000000000000e+01 0.0 
3.300000000012e+01 -2.000000000000e+01 0.0 
3.200000000013e+01 -2.000000000000e+01 0.0 
3.100000000013e+01 -2.000000000000e+01 0.0 
3.000000000013e+01 -2.000000000000e+01 0.0 
2.900000000013e+01 -2.000000000000e+01 0.0 
2.800000000013e+01 -2.000000000000e+01 0.0 
2.700000000013e+01 -2.000000000000e+01 0.0 
2.600000000013e+01 -2.000000000000e+01 0.0 
2.500000000013e+01 -2.000000000000e+01 0.0 
2.400000000013e+01 -2.000000000000e+01 0.0 
2.300000000013e+01 -2.000000000000e+01 0.0 
2.200000000013e+01 -2.000000000000e+01 0.0 
2.100000000013e+01 -2.000000000000e+01 0.0 
2.000000000013e+01 -2.000000000000e+01 0.0 
1.900000000013e+01 -2.000000000000e+01 0.0 
1.800000000013e+01 -2.000000000000e+01 0.0 
1.700000000012e+01 -2.000000000000e+01 0.0 
1.600000000011e+01 -2.000000000000e+01 0.0 
1.500000000011e+01 -2.000000000000e+01 0.0 
1.400000000010e+01 -2.000000000000e+01 0.0 
1.300000000009e+01 -2.000000000000e+01 0.0 
1.200000000009e+01 -2.000000000000e+01 0.0 
1.100000000008e+01 -2.000000000000e+01 0.0 
1.000000000007e+01 -2.000000000000e+01 0.0 
9.000000000064e+00 -2.000000000000e+01 0.0 
8.000000000057e+00 -2.000000000000e+01 0.0 
7.000000000050e+00 -2.000000000000e+01 0.0 
6.000000000043e+00 -2.000000000000e+01 0.0 
5.000000000036e+00 -2.000000000000e+01 0.0 
4.000000000028e+00 -2.000000000000e+01 0.0 
3.000000000021e+00 -2.000000000000e+01 0.0 
2.000000000014e+00 -2.000000000000e+01 0.0 
1.000000000007e+00 -2.000000000000e+01 0.0 
5.000000000000e+01 -1.100000000000e+01 0.0 
5.000000000000e+01 -1.200000000000e+01 0.0 
5.000000000000e+01 -1.300000000000e+01 0.0 
5.000000000000e+01 -1.400000000000e+01 0.0 
5.000000000000e+01 -1.500000000000e+01 0.0 
5.000000000000e+01 -1.600000000000e+01 0.0 
5.000000000000e+01 -1.700000000000e+01 0.0 
5.000000000000e+01 -1.800000000000e+01 0.0 
5.000000000000e+01 -1.900000000000e+01 0.0 
2.000000000000e+01 0.0 0.0 
3.500000000000e+01 -1.000000000000e+01 0.0 
2.150000000000e+01 -1.000000000000e+00 0.0 
2.300000000000e+01 -2.000000000000e+00 0.0 
2.450000000000e+01 -3.000000000000e+00 0.0 
2.600000000000e+01 -4.000000000000e+00 0.0 
2.750000000000e+01 -5.000000000000e+00 0.0 
2.900000000000e+01 -6.000000000000e+00 0.0 
3.050000000000e+01 -7.000000000000e+00 0.0 
3.200000000000e+01 -8.000000000000e+00 0.0 
3.350000000000e+01 -9.000000000000e+00 0.0 
5.000000000000e+01 -7.000000000000e+00 0.0 
5.000000000000e+01 -8.000000000000e+00 0.0 
5.000000000000e+01 -9.000000000000e+00 0.0 
4.900000000000e+01 -1.000000000000e+01 0.0 
4.800000000000e+01 -1.000000000000e+01 0.0 
4.700000000000e+01 -1.000000000000e+01 0.0 
4.600000000000e+01 -1.000000000000e+01 0.0 
4.500000000000e+01 -1.000000000000e+01 0.0 
4.400000000000e+01 -1.000000000000e+01 0.0 
4.300000000000e+01 -1.000000000000e+01 0.0 
4.200000000000e+01 -1.000000000000e+01 0.0 
4.100000000000e+01 -1.000000000000e+01 0.0 
4.000000000000e+01 -1.000000000000e+01 0.0 
3.900000000000e+01 -1.000000000000e+01 0.0 
3.800000000000e+01 -1.000000000000e+01 0.0 
3.700000000000e+01 -1.000000000000e+01 0.0 
3.600000000000e+01 -1.000000000000e+01 0.0 
1.900000000000e+01 0.0 0.0 
1.800000000000e+01 0.0 0.0 
1.700000000000e+01 0.0 0.0 
1.600000000000e+01 0.0 0.0 
1.500000000000e+01 0.0 0.0 
1.400000000000e+01 0.0 0.0 
1.300000000000e+01 0.0 0.0 
1.200000000000e+01 0.0 0.0 
1.100000000000e+01 0.0 0.0 
1.000000000000e+01 0.0 0.0 
9.000000000000e+00 0.0 0.0 
8.000000000000e+00 0.0 0.0 
7.000000000000e+00 0.0 0.0 
6.000000000000e+00 0.0 0.0 
5.000000000000e+00 0.0 0.0 
4.000000000000e+00 0.0 0.0 
3.000000000000e+00 0.0 0.0 
2.000000000000e+00 0.0 0.0 
1.000000000000e+00 0.0 0.0 
3.147499999998e+01 -7.000000000000e+00 0.0 
3.244999999998e+01 -7.000000000000e+00 0.0 
3.342499999998e+01 -7.000000000000e+00 0.0 
3.439999999998e+01 -7.000000000000e+00 0.0 
3.537499999998e+01 -7.000000000000e+00 0.0 
3.634999999998e+01 -7.000000000000e+00 0.0 
3.732499999998e+01 -7.000000000000e+00 0.0 
3.829999999998e+01 -7.000000000000e+00 0.0 
3.927499999999e+01 -7.000000000000e+00 0.0 
4.024999999999e+01 -7.000000000000e+00 0.0 
4.122499999999e+01 -7.000000000000e+00 0.0 
4.219999999999e+01 -7.000000000000e+00 0.0 
4.317499999999e+01 -7.000000000000e+00 0.0 
4.414999999999e+01 -7.000000000000e+00 0.0 
4.512499999999e+01 -7.000000000000e+00 0.0 
4.609999999999e+01 -7.000000000000e+00 0.0 
4.707500000000e+01 -7.000000000000e+00 0.0 
4.805000000000e+01 -7.000000000000e+00 0.0 
4.902500000000e+01 -7.000000000000e+00 0.0 
4.900000000000e+01 -8.000000000000e+00 0.0 
4.800000000000e+01 -8.000000000000e+00 0.0 
4.700000000000e+01 -8.000000000000e+00 0.0 
4.600000000000e+01 -8.000000000000e+00 0.0 
4.500000000000e+01 -8.000000000000e+00 0.0 
4.400000000000e+01 -8.000000000000e+00 0.0 
4.300000000000e+01 -8.000000000000e+00 0.0 
4.200000000000e+01 -8.000000000000e+00 0.0 
4.100000000000e+01 -8.000000000000e+00 0.0 
4.000000000000e+01 -8.000000000000e+00 0.0 
3.900000000000e+01 -8.000000000000e+00 0.0 
3.800000000000e+01 -8.000000000000e+00 0.0 
3.700000000000e+01 -8.000000000000e+00 0.0 
3.600000000000e+01 -8.000000000000e+00 0.0 
3.500000000000e+01 -8.000000000000e+00 0.0 
3.400000000000e+01 -8.000000000000e+00 0.0 
3.300000000000e+01 -8.000000000000e+00 0.0 
3.447058823527e+01 -9.000000000000e+00 0.0 
3.544117647055e+01 -9.000000000000e+00 0.0 
3.641176470582e+01 -9.000000000000e+00 0.0 
3.738235294109e+01 -9.000000000000e+00 0.0 
3.835294117637e+01 -9.000000000000e+00 0.0 
3.932352941164e+01 -9.000000000000e+00 0.0 
4.029411764691e+01 -9.000000000000e+00 0.0 
4.126470588219e+01 -9.000000000000e+00 0.0 
4.223529411748e+01 -9.000000000000e+00 0.0 
4.320588235279e+01 -9.000000000000e+00 0.0 
4.417647058811e+01 -9.000000000000e+00 0.0 
4.514705882342e+01 -9.000000000000e+00 0.0 
4.611764705874e+01 -9.000000000000e+00 0.0 
4.708823529405e+01 -9.000000000000e+00 0.0 
4.805882352937e+01 -9.000000000000e+00 0.0 
4.902941176468e+01 -9.000000000000e+00 0.0 
2.075000000000e+01 -5.000000000006e-01 0.0 
2.225000000000e+01 -1.500000000000e+00 0.0 
2.375000000000e+01 -2.500000000000e+00 0.0 
2.525000000000e+01 -3.500000000000e+00 0.0 
2.675000000000e+01 -4.500000000000e+00 0.0 
2.825000000000e+01 -5.500000000000e+00 0.0 
2.975000000000e+01 -6.500000000000e+00 0.0 
3.125000000000e+01 -7.500000000000e+00 0.0 
3.275000000000e+01 -8.500000000000e+00 0.0 
3.425000000000e+01 -9.500000000000e+00 0.0 
2.226951693683e+01 -2.403913980114e+00 0.0 
1.650149491944e+01 -1.913490915758e+01 0.0 
1.050042386896e+01 -8.504605092970e-01 0.0 
1.553146524712e+01 -8.281255032105e-01 0.0 
1.150000000008e+01 -1.913397459621e+01 0.0 
2.530060260647e+01 -4.428336431260e+00 0.0 
8.651114563942e-01 -1.052096295641e+01 0.0 
2.050000000013e+01 -1.913397459622e+01 0.0 
2.819198729811e+01 -6.399519052838e+00 0.0 
2.445670302931e+01 -1.915649188023e+01 0.0 
3.117591465718e+01 -8.394293040695e+00 0.0 
7.465053044742e+00 -1.920411160581e+01 0.0 
6.398295709691e+00 -8.230098819370e-01 0.0 
2.849659607461e+01 -1.914296187762e+01 0.0 
3.418732642882e+01 -1.040265792588e+01 0.0 
8.386450935063e-01 -6.533605142809e+00 0.0 
9.178661865596e-01 -1.329769195597e+01 0.0 
3.149448624493e+01 -1.910466733764e+01 0.0 
3.552916747426e+01 -1.914628590759e+01 0.0 
4.449210346537e+01 -1.914359085008e+01 0.0 
4.140975975145e+01 -1.906941860733e+01 0.0 
3.847475958753e+01 -1.916622382724e+01 0.0 
3.653774794640e+01 -1.088712800241e+01 0.0 
4.047886341787e+01 -1.090139014048e+01 0.0 
4.348006339825e+01 -1.092792621489e+01 0.0 
4.919519968029e+01 -1.451526755068e+01 0.0 
4.500000000032e+00 -1.913397459621e+01 0.0 
1.856136921614e+01 -8.212235170404e-01 0.0 
3.499895312306e+00 -8.661165539723e-01 0.0 
9.076088696565e-01 -1.642306201891e+01 0.0 
4.655174095477e+01 -1.086183387525e+01 0.0 
9.430688970604e-01 -3.496112672958e+00 0.0 
3.353992337063e+01 -1.901202090820e+01 0.0 
2.249746016977e+01 -1.921262287282e+01 0.0 
2.650122741777e+01 -1.916123026018e+01 0.0 
1.863571384842e+01 -1.908325534840e+01 0.0 
1.450089971693e+01 -1.917691901860e+01 0.0 
1.350044695317e+01 -8.659695299584e-01 0.0 
3.849987469880e+01 -1.084154983397e+01 0.0 
9.454419857884e+00 -1.900818879936e+01 0.0 
4.917398660523e+01 -1.645692866081e+01 0.0 
8.500000000000e+00 -8.660254037844e-01 0.0 
8.660319230785e-01 -8.500111697188e+00 0.0 
4.649022621545e+01 -1.930506220113e+01 0.0 
2.667688107845e+01 -5.420288124331e+00 0.0 
2.379251615665e+01 -3.412225477429e+00 0.0 
2.966631491830e+01 -7.389030232731e+00 0.0 
3.267915035995e+01 -9.396934932445e+00 0.0 
2.074836922338e+01 -1.320054020319e+00 0.0 
4.915985743621e+01 -1.261973384855e+01 0.0 
2.527129768623e+00 -1.931592414663e+01 0.0 
1.538676247410e+00 -8.436956619311e-01 0.0 
4.908096641539e+01 -1.842484004551e+01 0.0 
3.478612492673e+01 -1.090889364140e+01 0.0 
3.409757055860e+01 -1.131991530427e+01 0.0 
3.501895309466e+01 -1.177687842717e+01 0.0 
3.407758073088e+01 -1.224293381580e+01 0.0 
3.484541875390e+01 -1.277051428430e+01 0.0 
3.400322025842e+01 -1.319022775640e+01 0.0 
3.321672625034e+01 -1.266779191233e+01 0.0 
3.315244139236e+01 -1.360984106532e+01 0.0 
3.236335186892e+01 -1.308463225210e+01 0.0 
3.478337442841e+01 -1.372341158982e+01 0.0 
3.230105923633e+01 -1.403023731610e+01 0.0 
3.150954055289e+01 -1.350301767700e+01 0.0 
3.144604792090e+01 -1.444931742516e+01 0.0 
3.065653897123e+01 -1.392357262981e+01 0.0 
3.071897610812e+01 -1.297447031198e+01 0.0 
2.986790411740e+01 -1.339226181535e+01 0.0 
2.993181466745e+01 -1.244703272398e+01 0.0 
2.908023061869e+01 -1.286254537734e+01 0.0 
2.901619051372e+01 -1.380881655279e+01 0.0 
2.822986160390e+01 -1.327695262116e+01 0.0 
2.829453476870e+01 -1.233265343811e+01 0.0 
2.744542905518e+01 -1.274510491105e+01 0.0 
2.751120089246e+01 -1.180368086886e+01 0.0 
2.666218649885e+01 -1.221619339205e+01 0.0 
2.672371209234e+01 -1.127125228527e+01 0.0 
2.587763216302e+01 -1.168539979114e+01 0.0 
2.581165585299e+01 -1.262994410089e+01 0.0 
2.502890882577e+01 -1.209827323619e+01 0.0 
2.509631327757e+01 -1.115492410304e+01 0.0 
2.424662989877e+01 -1.156630981079e+01 0.0 
2.431704046904e+01 -1.062389179334e+01 0.0 
2.346445438728e+01 -1.103427680694e+01 0.0 
2.339382552877e+01 -1.197964871788e+01 0.0 
2.260936050780e+01 -1.144513277642e+01 0.0 
2.268075012022e+01 -1.049911928216e+01 0.0 
2.182525737661e+01 -1.090920811464e+01 0.0 
2.189682319817e+01 -9.961716944568e+00 0.0 
2.104174127792e+01 -1.037266986667e+01 0.0 
2.111304367575e+01 -9.424179358711e+00 0.0 
2.025306185381e+01 -9.832727364719e+00 0.0 
2.018141124247e+01 -1.079140628871e+01 0.0 
1.938594498257e+01 -1.025147354112e+01 0.0 
1.946106490453e+01 -9.288010758448e+00 0.0 
1.858929958352e+01 -9.706319802516e+00 0.0 
1.851540991219e+01 -1.067205988724e+01 0.0 
1.771485303178e+01 -1.012504443115e+01 0.0 
1.764134552256e+01 -1.109360378538e+01 0.0 
1.683745148095e+01 -1.054496365337e+01 0.0 
1.691852964353e+01 -9.582555261178e+00 0.0 
1.603603813062e+01 -1.000160132379e+01 0.0 
1.595824239350e+01 -1.096750698862e+01 0.0 
1.515080624291e+01 -1.041639501931e+01 0.0 
1.523171602559e+01 -9.451711491453e+00 0.0 
1.434621060709e+01 -9.871956467464e+00 0.0 
1.426777178765e+01 -1.083749501371e+01 0.0 
1.345775282374e+01 -1.028803175500e+01 0.0 
1.354103873368e+01 -9.324918457162e+00 0.0 
1.265072018622e+01 -9.742612837270e+00 0.0 
1.257285762070e+01 -1.071557782384e+01 0.0 
1.175874815690e+01 -1.015972324288e+01 0.0 
1.184203019714e+01 -9.193604071377e+00 0.0 
1.094927709905e+01 -9.612103238656e+00 0.0 
1.086938022910e+01 -1.058685085646e+01 0.0 
1.005424098961e+01 -1.002939116380e+01 0.0 
9.977974613295e+00 -1.101324897989e+01 0.0 
1.012915646404e+01 -9.051815821181e+00 0.0 
9.237127782494e+00 -9.471239055559e+00 0.0 
9.308426593771e+00 -8.483376461131e+00 0.0 
8.418806073345e+00 -8.910712374517e+00 0.0 
2.253688464062e+01 -1.239459402279e+01 0.0 
8.495126726666e+00 -7.921646665254e+00 0.0 
9.389727383206e+00 -7.512103628377e+00 0.0 
7.601560812974e+00 -8.349460349344e+00 0.0 
7.525680547759e+00 -9.339736686940e+00 0.0 
7.677888324502e+00 -7.359727833346e+00 0.0 
6.782001206724e+00 -7.788454494773e+00 0.0 
6.858778622885e+00 -6.797338062822e+00 0.0 
2.196596590865e+01 -8.979025665442e+00 0.0 
2.816540108272e+01 -1.422634142353e+01 0.0 
5.961601194403e+00 -7.226824010712e+00 0.0 
6.038171749656e+00 -6.234825887079e+00 0.0 
6.936257279557e+00 -5.805287640737e+00 0.0 
6.115068918323e+00 -5.242109758768e+00 0.0 
3.564391741903e+01 -1.329240553876e+01 0.0 
3.558115605778e+01 -1.425902892003e+01 0.0 
3.645445282201e+01 -1.381970786460e+01 0.0 
3.639744204358e+01 -1.479198128612e+01 0.0 
3.727266909778e+01 -1.435399586226e+01 0.0 
5.216667013081e+00 -5.671788584287e+00 0.0 
3.220697293295e+01 -1.499594545107e+01 0.0 
3.551112158269e+01 -1.523479869250e+01 0.0 
2.836056961467e+01 -1.139032434851e+01 0.0 
2.516730388602e+01 -1.021382726837e+01 0.0 
1.844436907403e+01 -1.164097215196e+01 0.0 
5.885434318740e+00 -8.218694781467e+00 0.0 
5.064071066867e+00 -7.656614643901e+00 0.0 
4.988089103470e+00 -8.649722082718e+00 0.0 
1.079421050408e+01 -1.157014985435e+01 0.0 
9.902420005256e+00 -1.199903342656e+01 0.0 
1.071994252214e+01 -1.255727909771e+01 0.0 
9.826974788171e+00 -1.298659581767e+01 0.0 
1.064607883789e+01 -1.354595476388e+01 0.0 
9.751541265343e+00 -1.397556905071e+01 0.0 
8.932296185869e+00 -1.341553353988e+01 0.0 
8.856399248106e+00 -1.440570715508e+01 0.0 
8.036186803543e+00 -1.384470558472e+01 0.0 
1.057112875118e+01 -1.453516759081e+01 0.0 
1.146582585687e+01 -1.410539926903e+01 0.0 
7.959894480382e+00 -1.483563350928e+01 0.0 
7.138792279156e+00 -1.427465094140e+01 0.0 
7.062506792418e+00 -1.526615385482e+01 0.0 
6.240693558277e+00 -1.470508863040e+01 0.0 
6.316957575451e+00 -1.371212581281e+01 0.0 
5.418183007107e+00 -1.414253605022e+01 0.0 
5.494748364428e+00 -1.314886770603e+01 0.0 
1.756825565873e+01 -1.206433872514e+01 0.0 
1.837565773345e+01 -1.261356468266e+01 0.0 
1.749574831391e+01 -1.303769280014e+01 0.0 
1.830539187332e+01 -1.358828364284e+01 0.0 
1.742278925170e+01 -1.401367746928e+01 0.0 
1.823303007798e+01 -1.456432294258e+01 0.0 
1.734941694138e+01 -1.499213734361e+01 0.0 
1.653760041637e+01 -1.443920312098e+01 0.0 
3.056237977307e+01 -1.487132260174e+01 0.0 
1.866469084762e+01 -8.742953000418e+00 0.0 
1.953669694916e+01 -8.326038909849e+00 0.0 
1.874194303780e+01 -7.780688158966e+00 0.0 
1.961032016741e+01 -7.366854697285e+00 0.0 
1.881715755159e+01 -6.821102209649e+00 0.0 
1.968369797150e+01 -6.407747217358e+00 0.0 
1.889237123259e+01 -5.858375520026e+00 0.0 
1.802038875366e+01 -6.276202618170e+00 0.0 
1.809793837984e+01 -5.307629520489e+00 0.0 
1.721985207997e+01 -5.728242054488e+00 0.0 
1.729850893523e+01 -4.756990819347e+00 0.0 
1.641745664240e+01 -5.174636548624e+00 0.0 
2.495978509456e+01 -1.304406404294e+01 0.0 
1.911567814831e+01 -1.413854250293e+01 0.0 
1.904387332608e+01 -1.511463127723e+01 0.0 
1.992115934240e+01 -1.468788025898e+01 0.0 
7.013706899628e+00 -4.812582868662e+00 0.0 
5.342091874585e+00 -1.513658157269e+01 0.0 
1.139098043784e+01 -1.509488509480e+01 0.0 
1.228151810610e+01 -1.465617481983e+01 0.0 
1.646373110164e+01 -1.541993323337e+01 0.0 
5.293328636712e+00 -4.678385108584e+00 0.0 
1.975965862987e+01 -5.448124345648e+00 0.0 
2.054318374236e+01 -5.992561293251e+00 0.0 
3.721453439063e+01 -1.533216152738e+01 0.0 
3.809302733893e+01 -1.489235527381e+01 0.0 
1.220852788900e+01 -1.565304565230e+01 0.0 
4.394120899730e+00 -5.108397613210e+00 0.0 
8.779354620288e+00 -1.539524721159e+01 0.0 
1.817791047702e+01 -4.338570146253e+00 0.0 
4.518860013839e+00 -1.457343189307e+01 0.0 
4.442712140414e+00 -1.556841391069e+01 0.0 
8.115343466391e+00 -1.285760324283e+01 0.0 
1.985334703171e+01 -1.566478400426e+01 0.0 
2.071953850276e+01 -1.522074243119e+01 0.0 
1.634012953883e+01 -6.154777738301e+00 0.0 
1.553479994708e+01 -5.593730508879e+00 0.0 
1.561265946942e+01 -4.617761762647e+00 0.0 
1.470674212978e+01 -5.064576488228e+00 0.0 
1.464498299883e+01 -6.026514471420e+00 0.0 
1.383271561817e+01 -5.467796261169e+00 0.0 
1.389241253067e+01 -4.504338666645e+00 0.0 
1.301868735463e+01 -4.907185188626e+00 0.0 
1.294514184846e+01 -5.888160903592e+00 0.0 
1.212955968622e+01 -5.328262335277e+00 0.0 
1.220721122383e+01 -4.341264976687e+00 0.0 
1.131324345897e+01 -4.766773516508e+00 0.0 
5.266597955397e+00 -1.613148974258e+01 0.0 
1.737805990867e+01 -3.786677807525e+00 0.0 
3.078438094513e+01 -1.203225297748e+01 0.0 
1.131569882285e+01 -1.608511932110e+01 0.0 
1.728478341782e+01 -1.596017432313e+01 0.0 
3.803465906019e+01 -1.587509751228e+01 0.0 
3.891681276677e+01 -1.543395196905e+01 0.0 
3.897340985302e+01 -1.444710288980e+01 0.0 
3.980095968193e+01 -1.499059496613e+01 0.0 
3.974334598189e+01 -1.597921884150e+01 0.0 
4.062964983717e+01 -1.553518690417e+01 0.0 
4.068729602479e+01 -1.454434445295e+01 0.0 
4.151772679790e+01 -1.508974196007e+01 0.0 
4.157505195739e+01 -1.409694289912e+01 0.0 
4.240699932656e+01 -1.464347955968e+01 0.0 
4.234898051011e+01 -1.563721375790e+01 0.0 
4.323934606035e+01 -1.519082036405e+01 0.0 
4.329740528208e+01 -1.419587509788e+01 0.0 
4.413056841369e+01 -1.474359631875e+01 0.0 
4.418850110108e+01 -1.374786684042e+01 0.0 
4.502219770667e+01 -1.429605103525e+01 0.0 
4.496411937907e+01 -1.529215882720e+01 0.0 
4.490027319897e+00 -4.154167794594e+00 0.0 
1.565080385988e+01 -1.486411982419e+01 0.0 
1.557610691279e+01 -1.584855627870e+01 0.0 
4.195350646612e+00 -8.089117689096e+00 0.0 
4.124027797830e+00 -9.082831955007e+00 0.0 
4.917944318925e+00 -9.643530901533e+00 0.0 
4.020105689502e+00 -1.007439673661e+01 0.0 
4.587185899277e+01 -1.484039992728e+01 0.0 
4.580078661551e+01 -1.584043391042e+01 0.0 
2.061956522375e+01 -5.046701343981e+00 0.0 
2.139572955529e+01 -5.579553449826e+00 0.0 
3.715344357292e+01 -1.631485124583e+01 0.0 
3.618886196443e+00 -1.500471207167e+01 0.0 
3.695606940204e+00 -1.400939692294e+01 0.0 
2.438890661143e+01 -9.686110599723e+00 0.0 
2.523267572778e+01 -9.276766000622e+00 0.0 
2.446094171539e+01 -8.751904591412e+00 0.0 
2.529089822738e+01 -8.321495612547e+00 0.0 
2.606882688827e+01 -8.864724051119e+00 0.0 
2.452116646430e+01 -7.792756462004e+00 0.0 
1.235543269617e+01 -1.365845617339e+01 0.0 
4.318116874181e+01 -1.618567469992e+01 0.0 
7.835066111909e+00 -5.376366223896e+00 0.0 
7.905687335704e+00 -4.382539065697e+00 0.0 
3.542640009567e+00 -1.600035116542e+01 0.0 
1.572431503071e+01 -1.388358386695e+01 0.0 
2.574684696680e+01 -1.357896141127e+01 0.0 
2.488842657651e+01 -1.399674354505e+01 0.0 
2.568301775611e+01 -1.453552048595e+01 0.0 
2.481535572009e+01 -1.495542756508e+01 0.0 
2.561729699688e+01 -1.549784648532e+01 0.0 
2.474623061296e+01 -1.592058894178e+01 0.0 
2.394234041695e+01 -1.537572575827e+01 0.0 
2.065825452567e+01 -1.621899055217e+01 0.0 
2.387180528935e+01 -1.634552264687e+01 0.0 
4.585364400844e+01 -1.383912334080e+01 0.0 
1.998744432052e+01 -1.370317155541e+01 0.0 
1.205356951443e+01 -6.313580285498e+00 0.0 
5.396543905849e+00 -3.731818611283e+00 0.0 
1.139652573295e+01 -3.745819399350e+00 0.0 
3.574124306703e+00 -4.551456826011e+00 0.0 
3.494140761930e+00 -5.539787055649e+00 0.0 
1.213651452413e+01 -1.664505033022e+01 0.0 
2.555045568519e+01 -1.646529356744e+01 0.0 
2.641671114986e+01 -1.603899382371e+01 0.0 
2.612920721894e+01 -7.906435260873e+00 0.0 
2.690339829698e+01 -8.456969591431e+00 0.0 
1.978024383368e+01 -1.664410216353e+01 0.0 
3.732829979082e+01 -1.336926601859e+01 0.0 
4.074336584605e+01 -1.355133328401e+01 0.0 
4.163204691081e+01 -1.310280943992e+01 0.0 
3.773826114429e+00 -3.493444309145e+00 0.0 
1.228783001032e+01 -3.374822835872e+00 0.0 
4.057110462520e+01 -1.652588478000e+01 0.0 
2.132535497898e+01 -6.523623360525e+00 0.0 
2.216932532211e+01 -6.110044769206e+00 0.0 
1.825781152128e+01 -3.370146817147e+00 0.0 
1.745679445888e+01 -2.812942552063e+00 0.0 
4.666517057280e+01 -1.539981381543e+01 0.0 
4.660575894464e+01 -1.639014410186e+01 0.0 
4.838230979954e+00 -1.063643436446e+01 0.0 
3.938942630206e+00 -1.106778981745e+01 0.0 
1.302967218620e+01 -1.621373452436e+01 0.0 
1.049548003190e+01 -4.204825123240e+00 0.0 
4.573571907195e+01 -1.683820511148e+01 0.0 
1.483686335807e+01 -1.430849689310e+01 0.0 
1.490982658890e+01 -1.332679386284e+01 0.0 
3.190805600162e+00 -9.510968358545e+00 0.0 
2.146625721848e+01 -4.642437303115e+00 0.0 
2.069866208266e+01 -4.111852942193e+00 0.0 
1.286859345584e+01 -6.873252723348e+00 0.0 
1.041794493184e+01 -5.194814260291e+00 0.0 
2.671081808965e+00 -4.976806516331e+00 0.0 
1.295786792925e+01 -1.720506531799e+01 0.0 
3.968438206511e+01 -1.696869067241e+01 0.0 
2.308550456051e+01 -1.579963151273e+01 0.0 
2.315593682844e+01 -1.482967445235e+01 0.0 
2.299471449450e+01 -1.677069968132e+01 0.0 
1.057344714696e+01 -3.214252277840e+00 0.0 
1.124057603753e+01 -1.707713739755e+01 0.0 
2.718402535754e+00 -1.543629882103e+01 0.0 
2.638549692805e+01 -1.696744916809e+01 0.0 
2.723416349007e+01 -1.658104204545e+01 0.0 
2.210193351704e+01 -7.046769643417e+00 0.0 
2.295180925161e+01 -6.657397605239e+00 0.0 
2.301355235833e+01 -5.709111896800e+00 0.0 
2.379052718281e+01 -6.254965406962e+00 0.0 
3.243528601237e+01 -1.214181853533e+01 0.0 
2.287977995457e+01 -7.583722368300e+00 0.0 
2.999876029544e+01 -1.150837653096e+01 0.0 
3.084435366963e+01 -1.109693775882e+01 0.0 
3.006650579669e+01 -1.057778994262e+01 0.0 
2.683802665066e+01 -9.386863216633e+00 0.0 
2.768641973621e+01 -8.988883915666e+00 0.0 
2.040296980397e+01 -7.903629133404e+00 0.0 
1.925235024054e+01 -1.218872783130e+01 0.0 
5.735667000424e+00 -1.020577277283e+01 0.0 
6.396559909872e+00 -1.272326295703e+01 0.0 
1.161199420714e+01 -1.212812778229e+01 0.0 
4.229046132615e+01 -1.663084237572e+01 0.0 
4.312275399692e+01 -1.718087491556e+01 0.0 
4.335502068163e+01 -1.320039231514e+01 0.0 
4.424630298089e+01 -1.275160688731e+01 0.0 
7.090116643816e+00 -3.818998061530e+00 0.0 
7.989472176569e+00 -3.389238711200e+00 0.0 
9.085824861778e+00 -1.144036167408e+01 0.0 
1.041972423731e+01 -1.651614080893e+01 0.0 
3.797525112640e+01 -1.686052038746e+01 0.0 
3.709114253394e+01 -1.730125999865e+01 0.0 
3.626966748340e+01 -1.675477052919e+01 0.0 
1.385164591440e+01 -1.677597757552e+01 0.0 
1.787152588784e+01 -8.198993896093e+00 0.0 
1.668849729812e+01 -1.248560611628e+01 0.0 
1.659546177905e+01 -3.232482605530e+00 0.0 
2.332214717345e+01 -1.292598167641e+01 0.0 
7.168238450786e+00 -2.824711686516e+00 0.0 
2.894878403906e+01 -1.475427524446e+01 0.0 
2.646763248247e+00 -1.643270107952e+01 0.0 
3.467431944285e+00 -1.699648837348e+01 0.0 
2.059475877282e+01 -1.719473628526e+01 0.0 
3.333868355437e+01 -1.080596971682e+01 0.0 
2.246451062637e+01 -1.334557761546e+01 0.0 
2.167821896388e+01 -1.280847834858e+01 0.0 
3.089653185767e+01 -1.017198487212e+01 0.0 
3.012604365669e+01 -9.657298805968e+00 0.0 
2.929627299435e+01 -1.006100135274e+01 0.0 
2.936201435219e+01 -9.136748899251e+00 0.0 
1.198219052702e+01 -7.291887238230e+00 0.0 
1.116702076035e+01 -6.731976101053e+00 0.0 
2.551388807505e+01 -1.746927036981e+01 0.0 
2.378639090370e+01 -1.728678807149e+01 0.0 
2.718543627188e+01 -1.748668016909e+01 0.0 
2.804681050301e+01 -1.712626668293e+01 0.0 
1.970737034667e+01 -1.762317646822e+01 0.0 
1.889535776135e+01 -1.707158098231e+01 0.0 
2.593777711283e+00 -5.971157087874e+00 0.0 
2.773468281110e+01 -8.067164273938e+00 0.0 
4.051205884347e+01 -1.751819982458e+01 0.0 
3.166903145421e+01 -1.068032992414e+01 0.0 
1.033042452886e+01 -1.748285844336e+01 0.0 
9.519274604626e+00 -1.694349240233e+01 0.0 
1.668308673328e+01 -2.255861778986e+00 0.0 
1.570531902832e+01 -2.676795860126e+00 0.0 
4.655826903379e+01 -1.736656245706e+01 0.0 
2.384148070773e+01 -5.328744256413e+00 0.0 
2.460255123641e+01 -5.852182672816e+00 0.0 
2.306638135119e+01 -4.798935440613e+00 0.0 
8.467720450578e-01 -1.849576263072e+01 0.0 
4.849657322345e+01 -1.084860705506e+01 0.0 
2.565860899507e+00 -1.742859793981e+01 0.0 
2.764418872564e+01 -9.927142821799e+00 0.0 
4.565165880064e+01 -1.785336695404e+01 0.0 
2.162231831329e+01 -1.376528337468e+01 0.0 
2.360646352969e+01 -9.136041963102e+00 0.0 
1.392738739903e+01 -1.578285505772e+01 0.0 
4.756405947478e+01 -1.683706841809e+01 0.0 
4.740895034054e+01 -1.793766756892e+01 0.0 
4.080779328826e+01 -1.257387192544e+01 0.0 
4.168907939671e+01 -1.210739129181e+01 0.0 
3.991197722154e+01 -1.300815793917e+01 0.0 
1.905536506762e+01 -3.940076697685e+00 0.0 
1.923879596617e+01 -2.875000734166e+00 0.0 
4.401386745746e+01 -1.673483229438e+01 0.0 
4.247233362525e+00 -7.094581653070e+00 0.0 
3.286051630211e+00 -7.635300020553e+00 0.0 
9.609533347623e+00 -4.594311677967e+00 0.0 
9.523554636369e+00 -5.595597029530e+00 0.0 
5.660336628893e+00 -1.119290329628e+01 0.0 
6.558070063295e+00 -1.076385809362e+01 0.0 
2.809866407414e+01 -1.518037766799e+01 0.0 
2.888868674504e+01 -1.570360690070e+01 0.0 
2.654431550819e+01 -1.411217777162e+01 0.0 
1.402158265969e+01 -1.375404617952e+01 0.0 
1.409592494026e+01 -1.277071998942e+01 0.0 
1.499355196178e+01 -1.235270737023e+01 0.0 
4.221535326155e+01 -1.759335617494e+01 0.0 
4.305583287033e+01 -1.822663146802e+01 0.0 
1.280748808359e+01 -7.834332838285e+00 0.0 
1.368988389326e+01 -7.420529606172e+00 0.0 
1.110091796060e+01 -7.683966794328e+00 0.0 
3.963446145980e+01 -1.794331310122e+01 0.0 
3.423932362213e+00 -1.796415590455e+01 0.0 
4.280814572302e+00 -1.752272834860e+01 0.0 
8.050136380041e+00 -2.421582378631e+00 0.0 
8.888674091650e+00 -2.984264211327e+00 0.0 
2.152839430898e+01 -3.732609965436e+00 0.0 
2.077799585292e+01 -3.183896021866e+00 0.0 
3.618719395821e+01 -1.770276572576e+01 0.0 
3.538165138340e+01 -1.718709995539e+01 0.0 
3.702925326420e+01 -1.828844288807e+01 0.0 
1.756739438711e+00 -5.353284859169e+00 0.0 
2.233710191104e+01 -1.527265621324e+01 0.0 
1.389483555057e+01 -1.771797164730e+01 0.0 
1.475634224300e+01 -1.728357428390e+01 0.0 
1.298797563052e+01 -1.825968924755e+01 0.0 
2.145331271866e+01 -1.673705379077e+01 0.0 
2.133282821169e+01 -1.769400773673e+01 0.0 
2.292139194136e+01 -1.774915400288e+01 0.0 
1.750750053243e+01 -1.861475593469e+00 0.0 
4.830478841772e+01 -1.752611802221e+01 0.0 
4.341203507805e+01 -1.220326745522e+01 0.0 
1.685254151866e+01 -1.443085301632e+00 0.0 
4.431538535165e+01 -1.171841387375e+01 0.0 
4.511308610496e+01 -1.229557320599e+01 0.0 
4.510133242889e+01 -1.123680627466e+01 0.0 
1.846818030617e+00 -4.410877617069e+00 0.0 
3.995468694584e+01 -1.186571542989e+01 0.0 
3.901387459804e+01 -1.242507616755e+01 0.0 
8.966735877533e+00 -1.837818700423e+00 0.0 
4.049310011091e+01 -1.848269508791e+01 0.0 
7.278862053803e+00 -1.918523922691e+00 0.0 
6.429715522129e+00 -2.316676521184e+00 0.0 
9.443505505022e+00 -1.792198868094e+01 0.0 
8.620386951051e+00 -1.737590365556e+01 0.0 
8.571868171503e+00 -1.834436667826e+01 0.0 
7.758629848526e+00 -1.775677907213e+01 0.0 
7.806648388584e+00 -1.680761266021e+01 0.0 
6.908555145436e+00 -1.723746463044e+01 0.0 
4.251709122090e+01 -1.156937480156e+01 0.0 
6.931136405615e+00 -1.832465719263e+01 0.0 
6.015545461353e+00 -1.768865355295e+01 0.0 
5.960535926343e+00 -1.872011001764e+01 0.0 
3.023253444786e+01 -8.761960642196e+00 0.0 
2.454622702599e+01 -6.749421992767e+00 0.0 
2.537499741604e+01 -6.347634963783e+00 0.0 
2.544077378460e+01 -5.431358513649e+00 0.0 
2.801367161747e+01 -1.820907270221e+01 0.0 
2.884507806914e+01 -1.762032095326e+01 0.0 
1.821474531936e+00 -1.588901260460e+01 0.0 
1.821006262604e+00 -1.489370287756e+01 0.0 
4.599962488908e+01 -1.176478780598e+01 0.0 
4.705457470007e+01 -1.172182804229e+01 0.0 
4.667668314802e+01 -1.263464558483e+01 0.0 
4.759648056504e+01 -1.252380987933e+01 0.0 
4.728041618103e+01 -1.341928568376e+01 0.0 
4.825209352360e+01 -1.330491640804e+01 0.0 
4.778118233428e+01 -1.420151961695e+01 0.0 
2.388192727579e+01 -1.826934810142e+01 0.0 
2.381714684947e+01 -4.385917965223e+00 0.0 
3.172733219247e+01 -9.758744265248e+00 0.0 
1.882012070658e+01 -1.805540597212e+01 0.0 
1.805667505243e+01 -1.742221226236e+01 0.0 
2.852599958080e+01 -8.597196079481e+00 0.0 
2.856486123437e+01 -7.661382718527e+00 0.0 
1.111792842875e+01 -1.818223852980e+01 0.0 
2.203322722466e+01 -7.986646678802e+00 0.0 
3.955703676900e+01 -1.903246763601e+01 0.0 
1.944842206513e+01 -8.038750575182e-01 0.0 
1.909882767783e+01 -1.746322740933e+00 0.0 
2.281147422941e+01 -8.525912918334e+00 0.0 
2.850633001468e+01 -9.533271335986e+00 0.0 
2.532883344309e+01 -7.308951659710e+00 0.0 
2.620475466461e+01 -6.979208585400e+00 0.0 
1.396278270396e+01 -1.475095389807e+01 0.0 
9.791001166724e+00 -2.554159793552e+00 0.0 
2.229293380421e+01 -4.269762271052e+00 0.0 
4.677238984118e+01 -1.430071795514e+01 0.0 
2.228658385918e+01 -3.344747535984e+00 0.0 
8.940223674553e-01 -1.543595733415e+01 0.0 
2.118566862474e+01 -8.435876987696e+00 0.0 
2.678325936437e+01 -1.032621195706e+01 0.0 
2.223400220487e+01 -5.179046761770e+00 0.0 
2.375370625384e+01 -7.251580562134e+00 0.0 
3.156971327386e+01 -1.255534750737e+01 0.0 
3.328226391312e+01 -1.172914813316e+01 0.0 
3.250948774219e+01 -1.120157009348e+01 0.0 
2.032993445717e+01 -8.867880112202e+00 0.0 
2.697226974856e+01 -7.536633082045e+00 0.0 
2.707377810386e+01 -6.590835263295e+00 0.0 
2.914099246827e+01 -1.191678458549e+01 0.0 
3.544824072239e+01 -1.621126558525e+01 0.0 
3.456511855436e+01 -1.665054783843e+01 0.0 
3.448395810225e+01 -1.759117813016e+01 0.0 
3.368378673938e+01 -1.708037781328e+01 0.0 
3.375560452567e+01 -1.610973066913e+01 0.0 
3.288001547988e+01 -1.654324255651e+01 0.0 
3.282475929147e+01 -1.749725654692e+01 0.0 
3.199880906313e+01 -1.697294088625e+01 0.0 
3.197001272932e+01 -1.811667776864e+01 0.0 
3.111884713021e+01 -1.742166785755e+01 0.0 
3.120418962865e+01 -1.642155709385e+01 0.0 
3.034666704371e+01 -1.683123833816e+01 0.0 
3.026224379976e+01 -1.772592851714e+01 0.0 
3.046632362943e+01 -1.582232843075e+01 0.0 
1.961344017324e+01 -1.857459447985e+01 0.0 
2.274975894774e+01 -9.532738811922e+00 0.0 
1.833923246887e+01 -2.396746883672e+00 0.0 
1.988859500848e+01 -2.249244376594e+00 0.0 
2.758045562861e+01 -1.086434261689e+01 0.0 
3.247300178163e+01 -1.909930104252e+01 0.0 
3.461947482503e+01 -1.911879848019e+01 0.0 
2.047161538662e+01 -6.941478180358e+00 0.0 
2.750230940214e+01 -1.915490590764e+01 0.0 
3.165081350803e+01 -1.161860780120e+01 0.0 
1.897456727641e+01 -4.889634688522e+00 0.0 
2.549338539756e+01 -1.914858252089e+01 0.0 
3.462873135081e+01 -1.567482276144e+01 0.0 
3.384432415243e+01 -1.512280684518e+01 0.0 
3.471433767690e+01 -1.469086942990e+01 0.0 
3.651470373046e+01 -1.918207952149e+01 0.0 
3.901742690249e+01 -1.345028556517e+01 0.0 
2.153224102692e+01 -1.920169709333e+01 0.0 
1.918382939341e+01 -1.316226275662e+01 0.0 
2.005389162382e+01 -1.271962165174e+01 0.0 
2.011472087878e+01 -1.175029352900e+01 0.0 
3.210679478412e+01 -1.598038618242e+01 0.0 
1.752175226543e+01 -1.914713022656e+01 0.0 
1.696897240059e+01 -1.832772588765e+01 0.0 
1.599682523337e+01 -1.832599992024e+01 0.0 
1.644507199462e+01 -1.743697981535e+01 0.0 
1.549987712903e+01 -1.915192375101e+01 0.0 
3.050250861901e+01 -1.918943550234e+01 0.0 
2.949944061527e+01 -1.922950455235e+01 0.0 
1.375892575273e+01 -6.447160534926e+00 0.0 
1.457223670180e+01 -7.006709243857e+00 0.0 
1.450818793236e+01 -7.965943451779e+00 0.0 
1.538804712402e+01 -7.553409623699e+00 0.0 
1.545817644768e+01 -6.580929593419e+00 0.0 
1.626506893751e+01 -7.129032608911e+00 0.0 
1.619833811522e+01 -8.086588580887e+00 0.0 
1.714448609609e+01 -6.697429609777e+00 0.0 
2.887616543568e+01 -1.668015232137e+01 0.0 
1.349814589130e+01 -1.918225301544e+01 0.0 
1.153887772210e+01 -1.311384581217e+01 0.0 
1.242708159886e+01 -1.267046795531e+01 0.0 
1.249799674267e+01 -1.169005616014e+01 0.0 
6.631723893693e+00 -9.774184881867e+00 0.0 
7.451471631867e+00 -1.033148796006e+01 0.0 
7.377795355458e+00 -1.132196345268e+01 0.0 
5.810931797536e+00 -9.211654212252e+00 0.0 
2.402683899133e+01 -1.441378562320e+01 0.0 
1.249768692036e+01 -1.917388426624e+01 0.0 
1.580373499437e+01 -1.290751860664e+01 0.0 
8.344650507834e+00 -9.898403995170e+00 0.0 
3.750622115305e+01 -1.086526401533e+01 0.0 
3.699391251667e+01 -1.171695900794e+01 0.0 
3.606517829518e+01 -1.173717504500e+01 0.0 
3.650257641795e+01 -1.270047380221e+01 0.0 
3.808951488918e+01 -1.183518714175e+01 0.0 
4.760380962420e+00 -1.162484888315e+01 0.0 
3.861210370848e+00 -1.205657631736e+01 0.0 
3.038284309476e+00 -1.149851280664e+01 0.0 
2.961598794889e+00 -1.248856794980e+01 0.0 
2.138953225512e+00 -1.193212674534e+01 0.0 
2.227383593457e+00 -1.096258903918e+01 0.0 
2.043265419276e+00 -1.292158472959e+01 0.0 
1.252449446028e+00 -1.225502002753e+01 0.0 
3.949985210740e+01 -1.086594001795e+01 0.0 
1.453499444792e+01 -8.768805922472e-01 0.0 
1.403518950933e+01 -1.749965556633e+00 0.0 
1.300715031023e+01 -1.714737233040e+00 0.0 
1.350929389899e+01 -2.527443911291e+00 0.0 
1.449600910711e+01 -2.595486162864e+00 0.0 
1.395693872901e+01 -3.484211041558e+00 0.0 
1.495105865208e+01 -3.364609636216e+00 0.0 
1.508822528740e+01 -1.766586020494e+00 0.0 
1.250223858430e+01 -8.634590186802e-01 0.0 
1.200279523409e+01 -1.709044504992e+00 0.0 
1.150086239419e+01 -8.592789190668e-01 0.0 
1.101482754194e+01 -1.677730591922e+00 0.0 
1.148018564526e+01 -2.659323866909e+00 0.0 
8.800552119754e+00 -3.989875954728e+00 0.0 
3.452790439430e+00 -1.901136170646e+01 0.0 
8.658451825200e-01 -9.503462241795e+00 0.0 
1.694787786797e+00 -9.000589234502e+00 0.0 
1.703436717094e+00 -8.038819004041e+00 0.0 
2.594197971110e+00 -8.563955242845e+00 0.0 
1.630513735412e+00 -9.907244747511e+00 0.0 
8.566859292791e-01 -7.512203837972e+00 0.0 
1.685461277022e+00 -7.164280248030e+00 0.0 
2.506394468801e+00 -8.623386730818e-01 0.0 
2.007475081581e+00 -1.727729545205e+00 0.0 
9.211534699767e-01 -1.628791366312e+00 0.0 
1.500000000020e+00 -2.598063549486e+00 0.0 
2.482078929963e+00 -2.553580088725e+00 0.0 
2.999795253092e+00 -1.732169015019e+00 0.0 
3.999712607169e+00 -1.728832897453e+00 0.0 
4.499752199340e+00 -8.656478679175e-01 0.0 
4.964377774841e+00 -1.730129617941e+00 0.0 
4.425017908337e+00 -2.597541756243e+00 0.0 
5.446573195014e+00 -8.410144840023e-01 0.0 
4.915722346614e+01 -1.550640962770e+01 0.0 
4.826794919243e+01 -1.600000000000e+01 0.0 
1.053139533193e+01 -1.911782884365e+01 0.0 
4.156049861949e+01 -1.095160998589e+01 0.0 
9.494526624416e+00 -8.650570090219e-01 0.0 
4.555762166964e+01 -1.897098103585e+01 0.0 
4.250656411371e+01 -1.914387356218e+01 0.0 
4.350906466345e+01 -1.917234727395e+01 0.0 
8.759665722424e-01 -1.746422130609e+01 0.0 
1.698936011838e+00 -1.795012186674e+01 0.0 
4.742476811029e+01 -1.900090177972e+01 0.0 
7.749196752349e+00 -6.368049313489e+00 0.0 
3.361572113416e+01 -1.798765193915e+01 0.0 
4.484660149212e+01 -1.728661231383e+01 0.0 
1.984038172228e+01 -4.502575320116e+00 0.0 
1.035080352627e+01 -6.166639575753e+00 0.0 
2.753558010652e+00 -1.444909521181e+01 0.0 
7.217069543032e+00 -1.328635391078e+01 0.0 
4.364336727739e+00 -1.655585677381e+01 0.0 
4.595208426108e+00 -1.357919665443e+01 0.0 
6.164967006980e+00 -1.569873454630e+01 0.0 
1.487855768353e+01 -1.826523774028e+01 0.0 
2.791876456372e+00 -4.019632415181e+00 0.0 
4.246464893515e+01 -1.364898659620e+01 0.0 
4.503855590351e+01 -1.329552780944e+01 0.0 
4.407239109604e+01 -1.573900004093e+01 0.0 
5.141054449252e+00 -6.664290382472e+00 0.0 
3.141083947149e+00 -1.055790764912e+01 0.0 
6.196463198741e+00 -4.256497932609e+00 0.0 
2.599618716181e+01 -1.836893455464e+01 0.0 
2.923057372337e+01 -1.098461757645e+01 0.0 
1.168343877486e+01 -1.114079645041e+01 0.0 
6.706222096238e+00 -8.780364234441e+00 0.0 
8.567858614669e+00 -6.943121440850e+00 0.0 
1.123755132901e+01 -5.753525820030e+00 0.0 
2.353456234423e+01 -1.008536320953e+01 0.0 
9.162073319168e+00 -1.045593739109e+01 0.0 
9.676343469685e+00 -1.496493008366e+01 0.0 
4.490637882905e+01 -1.628778970202e+01 0.0 
7.398129387772e+00 -9.639977982323e-01 0.0 
1.049641705805e+01 -1.552503975272e+01 0.0 
9.010356286268e+00 -1.242805042052e+01 0.0 
3.985573925497e+01 -1.399863651620e+01 0.0 
1.816196318262e+01 -1.554066497931e+01 0.0 
1.306332244168e+01 -3.963646550326e+00 0.0 
4.145850903932e+01 -1.608094559275e+01 0.0 
3.794664933633e+01 -1.779020121986e+01 0.0 
3.819614412903e+01 -1.290749321016e+01 0.0 
6.270014188119e+00 -3.255093186826e+00 0.0 
4.251165370388e+01 -1.263870364997e+01 0.0 
1.207347709171e+01 -1.763942826023e+01 0.0 
3.633240829927e+01 -1.577330481104e+01 0.0 
4.319052668832e+00 -6.101812561904e+00 0.0 
1.676492415806e+01 -1.151547901392e+01 0.0 
2.594059220037e+01 -1.074225223009e+01 0.0 
3.340750911501e+01 -9.898764354137e+00 0.0 
4.397619591281e+01 -1.769773736461e+01 0.0 
2.175611595028e+01 -1.185718747128e+01 0.0 
1.641818733106e+01 -1.640685203215e+01 0.0 
1.661211421753e+01 -1.346121366338e+01 0.0 
3.428853504935e+00 -6.551993389271e+00 0.0 
8.700728832502e+00 -1.638460872825e+01 0.0 
1.931369795309e+01 -1.121629383702e+01 0.0 
4.139798872363e+01 -1.706922153459e+01 0.0 
2.647837478700e+01 -1.507353829290e+01 0.0 
1.779469616424e+01 -9.161615782908e+00 0.0 
3.885879219319e+01 -1.642026488918e+01 0.0 
1.338194936770e+01 -1.125916521471e+01 0.0 
1.897071181111e+01 -1.609204322578e+01 0.0 
2.844308548793e+01 -1.046221003096e+01 0.0 
2.659854702194e+01 -1.316109415760e+01 0.0 
2.979604503271e+01 -1.433296157755e+01 0.0 
2.417694041347e+01 -1.251231397779e+01 0.0 
1.807401327411e+00 -1.388891148480e+01 0.0 
9.599810618782e+00 -1.595439365034e+01 0.0 
1.652144692160e+01 -4.205392788472e+00 0.0 
2.367839450246e+01 -8.188385218643e+00 0.0 
3.814894930468e+01 -1.390748338767e+01 0.0 
2.466448215774e+01 -1.685878545680e+01 0.0 
4.134044524611e+01 -1.806610045954e+01 0.0 
2.600511411958e+01 -9.801774120648e+00 0.0 
7.882158050716e+00 -1.582364037353e+01 0.0 
3.881607873422e+01 -1.737970515013e+01 0.0 
8.270182347708e+00 -1.088622154920e+01 0.0 
8.672520392520e-01 -4.532984309881e+00 0.0 
1.993447205337e+01 -3.579061902667e+00 0.0 
1.794616079549e+01 -7.238038888498e+00 0.0 
2.097277068165e+01 -1.132450168636e+01 0.0 
8.194803300681e+00 -1.187214224265e+01 0.0 
3.522279404911e+01 -1.823342818178e+01 0.0 
6.984481050295e+00 -1.625271465557e+01 0.0 
1.309433007797e+01 -1.521718594215e+01 0.0 
2.150246167611e+01 -1.885399038185e+00 0.0 
3.250689370209e+01 -1.028789870535e+01 0.0 
6.085886272238e+00 -1.668342132851e+01 0.0 
1.588455661727e+01 -1.193498985921e+01 0.0 
1.809323400821e+01 -1.651110084195e+01 0.0 
1.348885082381e+00 -1.136065576512e+01 0.0 
2.497670221995e+01 -1.834631276173e+01 0.0 
2.937062818424e+01 -8.233711194470e+00 0.0 
5.185823744469e+00 -1.711566910207e+01 0.0 
1.477497877209e+01 -1.530177014512e+01 0.0 
2.125346158933e+01 -7.473003997367e+00 0.0 
4.751561118290e+01 -1.084897772632e+01 0.0 
5.056026576843e+00 -1.825750475525e+01 0.0 
1.473948554523e+01 -1.634577436309e+01 0.0 
2.410566630936e+01 -1.345970002612e+01 0.0 
1.507337507513e+01 -1.138527895328e+01 0.0 
3.189857338687e+01 -8.887781229006e+00 0.0 
7.298712468334e+00 -1.230231046246e+01 0.0 
2.738235495295e+01 -1.368931690364e+01 0.0 
3.750141041969e+01 -1.920449893070e+01 0.0 
1.557271965640e+01 -1.683317951731e+01 0.0 
3.393731848929e+01 -1.413034777044e+01 0.0 
6.482156824153e+00 -1.174575135362e+01 0.0 
2.077971718439e+01 -1.421279621836e+01 0.0 
3.455084320178e+00 -2.562590040585e+00 0.0 
3.099056096250e+01 -9.270280416035e+00 0.0 
5.580176125418e+00 -1.217387969259e+01 0.0 
1.707247630389e+01 -7.660651981710e+00 0.0 
1.418658814174e+01 -1.180390575393e+01 0.0 
2.049103025389e+01 -1.811296706038e+01 0.0 
4.680386172316e+00 -1.260396879301e+01 0.0 
1.699679896554e+01 -8.624561788199e+00 0.0 
3.779470168555e+00 -1.303424899720e+01 0.0 
3.036589870126e+01 -7.879832518349e+00 0.0 
3.306993001774e+01 -1.457671062095e+01 0.0 
2.840150110165e+00 -1.346530088269e+01 0.0 
2.732011135052e+01 -1.464591214560e+01 0.0 
5.423639259568e+00 -2.659711955016e+00 0.0 
2.324455961696e+01 -1.387269388211e+01 0.0 
1.752768355571e+00 -1.693128613594e+01 0.0 
1.020244783051e+01 -8.076834012808e+00 0.0 
1.330873875224e+01 -1.222417528206e+01 0.0 
3.297727364880e+01 -1.555480372087e+01 0.0 
2.890929955439e+01 -6.868664170731e+00 0.0 
1.323294664622e+01 -1.320754260334e+01 0.0 
2.726532861246e+01 -1.560593120806e+01 0.0 
2.240020643398e+01 -1.429299177247e+01 0.0 
2.090445823633e+01 -1.228128621332e+01 0.0 
1.315809881502e+01 -1.420739326938e+01 0.0 
2.781328038068e+01 -7.181956082300e+00 0.0 
8.614200829057e+00 -5.936933226306e+00 0.0 
8.714765730069e+00 -4.979270529687e+00 0.0 
1.611881701099e+01 -9.041973294003e+00 0.0 
2.806830314340e+01 -1.614622947108e+01 0.0 
2.084435391396e+00 -3.385085422913e+00 0.0 
3.133211811152e+01 -1.542347619750e+01 0.0 
9.693114650768e+00 -3.590281506442e+00 0.0 
1.531883592202e+01 -8.504584946143e+00 0.0 
2.151589117094e+01 -1.578915763018e+01 0.0 
4.918943882696e+01 -1.355538828056e+01 0.0 
1.443236615188e+01 -8.918701794549e+00 0.0 
8.276250966452e-01 -5.537685192197e+00 0.0 
1.362790867918e+01 -8.374718262212e+00 0.0 
2.083767477370e+01 -1.324843956035e+01 0.0 
1.273834678703e+01 -8.790890389337e+00 0.0 
1.192275845670e+01 -8.242261327467e+00 0.0 
4.477236023583e+01 -1.824312396664e+01 0.0 
1.102989384254e+01 -8.649855800911e+00 0.0 
4.849096516045e+01 -1.917293752213e+01 0.0 
1.588996752238e+00 -1.910230934687e+01 0.0 
4.904245197583e+01 -1.159839008158e+01 0.0 
2.753852929608e+01 -5.782128488093e+00 0.0 
1.756133602833e+01 -8.306130313187e-01 0.0 
2.615423700951e+01 -6.153865090092e+00 0.0 
1.028818761294e+01 -7.122020845892e+00 0.0 
2.970818901196e+01 -1.527821347593e+01 0.0 
4.801461623449e+01 -1.164472570985e+01 0.0 
9.455722100419e+00 -6.546069291118e+00 0.0 
3.089099236677e+01 -1.835339328261e+01 0.0 
2.350000000013e+01 -1.920825896750e+01 0.0 
4.830620531887e+01 -1.506626155470e+01 0.0 
1.725381944701e+01 -1.688794487850e+01 0.0 
2.156246225273e+01 -1.475893794002e+01 0.0 
4.919319648787e+01 -1.742767505896e+01 0.0 
4.437935623576e+01 -1.077662927266e+01 0.0 
1.001520521978e+01 -1.652692675208e+00 0.0 
9.067160240050e-01 -1.441937727541e+01 0.0 
2.603365149390e+01 -4.755996613848e+00 0.0 
2.458344439002e+01 -4.873645517696e+00 0.0 
2.304312390142e+01 -3.836552768096e+00 0.0 
2.546923202198e+00 -6.902480355749e+00 0.0 
1.251534969393e+01 -2.490989965776e+00 0.0 
2.454061833377e+01 -3.933354231935e+00 0.0 
1.788186558740e+01 -1.827424884923e+01 0.0 
4.090785243552e+01 -1.166553231904e+01 0.0 
2.230128851568e+01 -1.623015738726e+01 0.0 
2.302362347568e+01 -2.916239960270e+00 0.0 
3.878119254461e+01 -1.830091164002e+01 0.0 
2.210081359958e+01 -1.829238229150e+01 0.0 
8.443704882233e+00 -1.921993252862e+01 0.0 
2.218405824691e+01 -1.724557581508e+01 0.0 
2.151157503963e+01 -2.790636689331e+00 0.0 
3.741658958955e+01 -1.250400191722e+01 0.0 
2.697247663737e+01 -1.838290202309e+01 0.0 
4.743362342862e+01 -1.585850773010e+01 0.0 
6.671345075358e+00 -1.924977576322e+01 0.0 
3.900825404537e+01 -1.157220003875e+01 0.0 
4.649692961375e+01 -1.836335837481e+01 0.0 
1.578831424832e+01 -3.678284023361e+00 0.0 
4.814208768888e+01 -1.841249298770e+01 0.0 
2.964123298315e+01 -1.625739458193e+01 0.0 
4.580760351902e+01 -1.284294554687e+01 0.0 
3.561520879615e+01 -1.245548941949e+01 0.0 
2.555418095658e+00 -1.841101588290e+01 0.0 
3.288468366144e+01 -1.834258164109e+01 0.0 
2.065894391445e+01 -2.240688571739e+00 0.0 
4.739171429915e+01 -1.496536413446e+01 0.0 
3.478086729185e+00 -8.576434653209e+00 0.0 
1.606010630246e+01 -1.588421807951e+00 0.0 
1.018329200594e+01 -1.834320874317e+01 0.0 
2.957213339430e+01 -1.720496954591e+01 0.0 
4.142712790164e+00 -1.837794506222e+01 0.0 
6.698721532573e-01 -2.499999999997e+00 0.0 
8.037039123140e+00 -1.571229354954e+00 0.0 
1.203541361428e+01 -1.847784298001e+01 0.0 
2.899968332038e+01 -1.848264722179e+01 0.0 
1.469229460948e+01 -4.219485753730e+00 0.0 
4.049590781957e+01 -1.932812501995e+01 0.0 
1.996211678340e+01 -1.506329754720e+00 0.0 
4.250588298353e+01 -1.067383247529e+01 0.0 
5.831497011152e+00 -1.635396227234e+00 0.0 
5.317606125670e+00 -1.923927974868e+01 0.0 
4.208546426993e+01 -1.842830665025e+01 0.0 
2.327553405011e+00 -9.459409929662e+00 0.0 
3.568351902251e+01 -1.096637218582e+01 0.0 
1.682104374890e+00 -6.231413350963e+00 0.0 
2.451812238018e+01 -1.766524914339e+01 0.0 
1.058003429638e+01 -2.391839617098e+00 0.0 
4.399988753123e+01 -1.851998776342e+01 0.0 
1.400000000010e+01 -1.852293523028e+01 0.0 
3.604719565984e+01 -1.850662876800e+01 0.0 
1.951297136734e+01 -1.938092349694e+01 0.0 
1.821365318472e+01 -1.531276353287e+00 0.0 
2.298031859732e+01 -1.854635324722e+01 0.0 
1.552168066204e+01 -1.764280741977e+01 0.0 
4.572957713638e+01 -1.073347898229e+01 0.0 
3.429637429624e+01 -1.838861552790e+01 0.0 
2.427434426052e+00 -7.705577451869e+00 0.0 
4.662792031485e+00 -3.359424455416e+00 0.0 
4.926794919243e+01 -1.926794919243e+01 0.0 
7.320508075690e-01 -7.320508075688e-01 0.0 
4.926794919243e+01 -1.073205080757e+01 0.0 
7.320508075705e-01 -1.926794919243e+01 0.0 
2.917460242467e+00 -3.202866455310e+00 0.0 
4.838200575963e+01 -1.232674147454e+01 0.0 
2.998445708009e+01 -1.854403752148e+01 0.0 
5.949940090766e-01 -1.152762038165e+01 0.0 
4.844763495759e+01 -1.678092548787e+01 0.0 
1.301685480160e+01 -3.170056592566e+00 0.0 
1.650046335855e+01 -6.731535384067e-01 0.0 
4.854881540991e+01 -1.405224059779e+01 0.0 
2.119545114693e+01 -1.846813384545e+01 0.0 
3.797852849897e+01 -1.857978513215e+01 0.0 
4.649823708745e+01 -1.338351810816e+01 0.0 
2.012685900976e+01 -2.889659035009e+00 0.0 
2.953271913273e+01 -1.791558075192e+01 0.0 
2.408509097292e+00 -1.021949208421e+01 0.0 
2.642589566221e+01 -1.773216561448e+01 0.0 
1.730010270775e+01 -1.763165076721e+01 0.0 
2.017406551304e+01 -8.513536440582e-01 0.0 
5.254761581934e-01 -1.249999999999e+01 0.0 
6.640448215642e+00 -1.545337834885e+00 0.0 
7.843361506349e+00 -1.852719839527e+01 0.0 
1.588442191088e+00 -1.066158564320e+01 0.0 
3.180701530612e+01 -7.414795918363e+00 0.0 
4.951250000000e+01 -7.500000000000e+00 0.0 
3.331250000000e+01 -8.420918367347e+00 0.0 
4.951470588234e+01 -8.500000000000e+00 0.0 
3.480610198624e+01 -9.413633635267e+00 0.0 
4.951470588234e+01 -9.500000000000e+00 0.0 

CELLS 2039 8156 
3 234 704 980 
3 704 234 982 
3 714 207 725 
3 827 592 1016 
3 594 654 820 
3 684 597 723 
3 214 636 638 
3 234 661 982 
3 636 214 654 
3 587 822 1016 
3 206 781 782 
3 661 234 996 
3 826 978 1022 
3 643 774 864 
3 978 240 1022 
3 233 827 1016 
3 642 213 783 
3 597 684 722 
3 221 641 963 
3 641 221 901 
3 822 587 975 
3 952 198 958 
3 679 952 958 
3 629 628 838 
3 328 484 773 
3 781 206 890 
3 108 82 1043 
3 673 199 915 
3 326 328 773 
3 838 628 1048 
3 578 788 790 
3 231 644 821 
3 714 725 1023 
3 19 219 694 
3 229 648 650 
3 657 66 1014 
3 66 657 1040 
3 676 225 720 
3 640 99 993 
3 99 640 1054 
3 916 658 942 
3 194 680 819 
3 997 195 1001 
3 82 243 1043 
3 635 242 992 
3 674 997 1001 
3 788 578 791 
3 242 635 1018 
3 784 785 791 
3 774 643 1015 
3 236 679 916 
3 626 641 901 
3 404 1017 1035 
3 236 916 942 
3 726 208 906 
3 999 571 1044 
3 626 901 970 
3 219 664 694 
3 487 815 933 
3 822 233 1016 
3 193 1027 1068 
3 1007 633 1009 
3 453 481 687 
3 1017 790 1035 
3 798 617 1022 
3 679 236 952 
3 1027 637 1068 
3 207 714 987 
3 514 475 796 
3 203 662 728 
3 890 833 944 
3 33 32 682 
3 673 915 1045 
3 4 5 808 
3 805 999 1044 
3 645 210 896 
3 726 906 1055 
3 693 998 1005 
3 815 487 1057 
3 998 235 1005 
3 475 488 796 
3 213 642 1003 
3 198 704 958 
3 704 198 980 
3 654 594 866 
3 636 654 866 
3 665 890 995 
3 18 19 694 
3 719 716 964 
3 594 820 1003 
3 821 644 994 
3 245 772 1043 
3 818 989 1013 
3 1013 989 1025 
3 211 33 682 
3 720 225 1050 
3 642 783 1015 
3 819 680 1028 
3 239 671 968 
3 687 481 688 
3 820 654 1038 
3 240 798 1022 
3 401 967 991 
3 632 1007 1009 
3 522 520 698 
3 785 788 791 
3 825 826 948 
3 591 818 1013 
3 193 784 791 
3 921 216 1040 
3 366 719 964 
3 4 808 1059 
3 589 685 721 
3 556 872 910 
3 600 802 1026 
3 660 687 688 
3 455 453 687 
3 229 650 1008 
3 671 239 1063 
3 659 455 687 
3 690 620 965 
3 243 245 1043 
3 818 591 1066 
3 455 659 698 
3 1010 909 1024 
3 675 925 934 
3 802 600 1056 
3 925 200 934 
3 210 645 1036 
3 622 1010 1024 
3 781 890 944 
3 592 827 1018 
3 529 586 686 
3 200 658 934 
3 648 229 1028 
3 826 583 978 
3 665 833 890 
3 686 586 886 
3 630 758 1048 
3 562 678 686 
3 612 823 824 
3 662 203 1034 
3 864 774 1011 
3 471 443 692 
3 678 529 686 
3 658 200 942 
3 586 724 886 
3 698 524 893 
3 214 638 993 
3 685 320 721 
3 644 231 1032 
3 979 985 1063 
3 809 221 963 
3 237 675 910 
3 758 630 767 
3 659 522 698 
3 694 665 995 
3 661 195 997 
3 967 627 991 
3 220 666 667 
3 681 320 685 
3 664 219 948 
3 514 690 965 
3 826 585 948 
3 701 574 729 
3 216 921 1030 
3 979 584 985 
3 520 524 698 
3 872 237 910 
3 206 782 1079 
3 195 661 996 
3 320 681 695 
3 443 494 692 
3 666 220 1054 
3 524 685 893 
3 675 237 925 
3 568 757 962 
3 802 503 1026 
3 199 673 988 
3 728 662 1012 
3 660 688 982 
3 503 802 1042 
3 745 875 929 
3 678 562 916 
3 661 660 982 
3 701 556 910 
3 685 589 893 
3 209 822 975 
3 332 741 951 
3 219 825 948 
3 674 235 998 
3 530 695 919 
3 716 741 964 
3 81 109 683 
3 562 658 916 
3 918 590 922 
3 814 946 1039 
3 829 222 1055 
3 327 252 734 
3 949 308 976 
3 438 918 922 
3 772 245 1021 
3 773 484 1011 
3 628 630 1048 
3 959 850 986 
3 696 267 724 
3 526 416 729 
3 333 327 734 
3 523 701 729 
3 574 701 910 
3 472 932 972 
3 757 606 962 
3 683 217 684 
3 688 704 982 
3 688 481 703 
3 586 696 724 
3 741 711 951 
3 597 596 902 
3 590 689 908 
3 640 666 1054 
3 695 681 919 
3 386 908 957 
3 646 856 1080 
3 732 333 734 
3 856 202 1080 
3 814 815 946 
3 235 674 1001 
3 959 602 960 
3 706 333 732 
3 602 601 960 
3 582 691 697 
3 408 789 861 
3 620 797 965 
3 875 438 929 
3 574 526 729 
3 617 798 1030 
3 109 217 683 
3 491 521 697 
3 281 320 695 
3 679 678 916 
3 689 590 918 
3 657 921 1040 
3 943 332 951 
3 390 372 727 
3 438 922 929 
3 890 206 995 
3 724 334 886 
3 733 734 930 
3 633 1007 1052 
3 281 695 702 
3 521 582 697 
3 251 523 699 
3 682 32 1036 
3 267 696 871 
3 740 283 879 
3 667 666 668 
3 796 488 1000 
3 523 700 701 
3 490 390 727 
3 596 730 831 
3 578 790 1017 
3 333 706 868 
3 416 699 729 
3 455 698 893 
3 706 545 868 
3 741 332 964 
3 334 705 847 
3 201 655 1014 
3 531 740 879 
3 259 525 705 
3 589 721 852 
3 531 739 740 
3 373 389 730 
3 771 212 772 
3 285 282 702 
3 402 753 754 
3 733 943 951 
3 109 110 217 
3 523 249 700 
3 372 370 727 
3 446 491 697 
3 375 373 730 
3 254 251 699 
3 644 690 994 
3 482 572 703 
3 531 738 739 
3 699 523 729 
3 771 772 773 
3 492 597 722 
3 402 754 756 
3 403 406 753 
3 688 703 704 
3 733 930 943 
3 481 482 703 
3 368 285 702 
3 695 530 702 
3 492 596 597 
3 721 277 852 
3 621 691 693 
3 37 208 726 
3 39 222 725 
3 268 267 871 
3 389 372 390 
3 445 446 504 
3 260 259 705 
3 389 390 445 
3 402 403 753 
3 334 847 886 
3 823 612 1041 
3 727 530 919 
3 932 588 972 
3 621 504 691 
3 226 57 746 
3 445 390 446 
3 265 334 724 
3 492 396 596 
3 768 461 876 
3 282 281 702 
3 406 750 753 
3 525 416 526 
3 42 747 748 
3 370 368 530 
3 531 359 738 
3 505 504 621 
3 736 421 859 
3 908 689 957 
3 521 522 580 
3 595 736 859 
3 224 45 728 
3 498 590 908 
3 41 207 747 
3 864 484 894 
3 719 366 984 
3 582 580 674 
3 527 526 559 
3 259 416 525 
3 259 257 416 
3 335 871 897 
3 199 47 731 
3 326 773 1021 
3 700 556 701 
3 530 368 702 
3 601 797 960 
3 559 574 675 
3 521 520 522 
3 220 667 920 
3 406 749 750 
3 370 530 727 
3 710 732 733 
3 491 520 521 
3 525 526 527 
3 359 361 738 
3 534 761 848 
3 50 223 737 
3 562 560 658 
3 374 376 756 
3 615 949 976 
3 581 660 661 
3 580 522 581 
3 716 713 741 
3 265 263 334 
3 572 678 679 
3 527 559 560 
3 54 225 742 
3 225 676 1002 
3 713 711 741 
3 733 732 734 
3 761 301 848 
3 453 454 481 
3 373 372 389 
3 371 370 372 
3 267 265 724 
3 548 768 876 
3 316 762 763 
3 709 707 710 
3 376 402 756 
3 450 335 451 
3 705 525 847 
3 452 451 453 
3 207 40 725 
3 222 38 726 
3 222 829 1023 
3 534 760 761 
3 545 447 868 
3 521 580 582 
3 369 368 370 
3 596 396 730 
3 482 529 572 
3 770 771 774 
3 736 864 894 
3 746 744 838 
3 717 716 719 
3 251 249 523 
3 258 257 259 
3 396 375 730 
3 793 795 796 
3 320 279 721 
3 273 271 335 
3 279 277 721 
3 190 909 1010 
3 667 668 669 
3 797 601 965 
3 446 490 491 
3 57 56 746 
3 380 382 472 
3 244 556 700 
3 221 809 1031 
3 871 696 897 
3 281 279 320 
3 257 254 699 
3 203 43 748 
3 559 526 574 
3 263 260 705 
3 316 763 769 
3 707 706 732 
3 534 759 760 
3 44 203 728 
3 41 40 207 
3 37 36 208 
3 39 38 222 
3 256 254 257 
3 710 707 732 
3 715 713 716 
3 453 451 454 
3 481 454 482 
3 765 762 849 
3 709 710 711 
3 46 224 731 
3 624 545 706 
3 738 472 739 
3 624 706 707 
3 465 463 766 
3 273 335 450 
3 572 529 678 
3 445 504 505 
3 211 682 1006 
3 452 453 455 
3 846 565 915 
3 762 316 849 
3 407 410 749 
3 226 746 838 
3 491 519 520 
3 42 41 747 
3 222 726 1055 
3 264 263 265 
3 793 794 795 
3 44 43 203 
3 191 742 743 
3 406 407 749 
3 361 380 738 
3 197 51 737 
3 117 192 794 
3 450 451 452 
3 262 260 263 
3 266 265 267 
3 334 263 705 
3 504 446 697 
3 46 45 224 
3 367 285 368 
3 493 492 722 
3 655 201 1081 
3 794 192 795 
3 561 560 562 
3 788 789 790 
3 675 574 910 
3 191 55 742 
3 48 47 199 
3 416 257 699 
3 785 787 788 
3 634 493 722 
3 788 787 789 
3 878 576 891 
3 770 212 771 
3 246 244 700 
3 50 49 223 
3 228 770 774 
3 208 36 735 
3 468 465 766 
3 595 643 736 
3 581 659 660 
3 380 472 738 
3 596 831 902 
3 52 51 197 
3 40 39 725 
3 38 37 726 
3 534 342 759 
3 337 339 765 
3 273 450 852 
3 342 344 759 
3 54 53 225 
3 446 390 490 
3 753 752 754 
3 750 751 752 
3 485 595 859 
3 58 226 758 
3 785 786 787 
3 56 55 191 
3 749 614 750 
3 43 42 748 
3 715 716 717 
3 116 117 794 
3 450 589 852 
3 544 447 545 
3 45 44 728 
3 256 257 258 
3 511 468 512 
3 505 621 622 
3 744 743 745 
3 506 613 614 
3 750 614 751 
3 784 227 785 
3 47 46 731 
3 730 389 831 
3 498 546 590 
3 595 642 643 
3 832 564 851 
3 750 752 753 
3 258 259 260 
3 51 50 737 
3 339 441 765 
3 350 386 456 
3 270 268 271 
3 609 502 610 
3 754 752 755 
3 759 456 760 
3 271 268 871 
3 607 464 881 
3 380 381 382 
3 272 271 273 
3 309 311 769 
3 491 490 519 
3 337 765 849 
3 512 468 766 
3 336 359 531 
3 56 191 746 
3 623 545 624 
3 507 832 851 
3 55 54 742 
3 191 743 744 
3 278 277 279 
3 785 227 786 
3 59 758 767 
3 708 707 709 
3 410 506 749 
3 58 57 226 
3 344 350 759 
3 482 528 529 
3 249 246 700 
3 336 531 879 
3 340 534 848 
3 502 461 768 
3 734 252 930 
3 561 686 886 
3 382 400 401 
3 669 668 670 
3 311 316 769 
3 361 363 380 
3 506 563 613 
3 533 355 834 
3 115 116 792 
3 520 519 524 
3 506 614 749 
3 762 604 763 
3 276 274 277 
3 350 456 759 
3 485 593 595 
3 410 473 506 
3 59 58 758 
3 262 263 264 
3 532 603 604 
3 264 265 266 
3 532 604 762 
3 792 116 794 
3 248 246 249 
3 801 800 802 
3 202 122 816 
3 441 496 532 
3 350 385 386 
3 830 500 855 
3 610 768 912 
3 610 502 768 
3 244 204 556 
3 228 106 770 
3 625 735 928 
3 266 267 268 
3 122 123 816 
3 620 540 797 
3 786 792 793 
3 602 959 986 
3 518 568 962 
3 598 830 855 
3 395 878 891 
3 319 317 828 
3 357 355 533 
3 498 509 546 
3 415 396 492 
3 232 800 801 
3 205 804 805 
3 194 60 767 
3 60 59 767 
3 800 799 803 
3 532 496 603 
3 340 342 534 
3 546 628 629 
3 540 459 797 
3 393 478 498 
3 814 812 815 
3 441 532 765 
3 763 604 764 
3 218 811 812 
3 232 799 800 
3 544 545 623 
3 123 124 813 
3 107 212 770 
3 107 108 212 
3 461 365 876 
3 205 10 804 
3 506 473 563 
3 691 504 697 
3 651 649 652 
3 731 224 846 
3 535 429 862 
3 581 522 659 
3 644 620 690 
3 527 560 561 
3 103 213 820 
3 102 103 820 
3 123 813 816 
3 813 812 814 
3 807 809 810 
3 383 324 458 
3 218 806 811 
3 799 196 803 
3 193 113 784 
3 324 319 828 
3 672 670 692 
3 105 106 228 
3 568 663 757 
3 344 349 350 
3 669 670 671 
3 10 11 804 
3 807 810 811 
3 30 29 823 
3 210 30 823 
3 595 593 642 
3 213 104 783 
3 804 801 805 
3 28 209 824 
3 458 324 828 
3 106 107 770 
3 105 228 783 
3 559 675 934 
3 36 35 735 
3 823 29 824 
3 218 812 813 
3 124 218 813 
3 619 540 620 
3 763 764 900 
3 825 583 826 
3 112 113 193 
3 230 817 818 
3 114 227 784 
3 501 461 502 
3 114 115 227 
3 113 114 784 
3 608 502 609 
3 554 617 618 
3 671 670 672 
3 847 561 886 
3 806 807 811 
3 356 357 836 
3 25 24 827 
3 233 25 827 
3 104 105 783 
3 437 365 461 
3 29 28 824 
3 511 512 627 
3 807 808 809 
3 806 241 807 
3 807 241 808 
3 11 12 232 
3 240 69 798 
3 80 79 242 
3 126 241 806 
3 13 196 799 
3 70 69 240 
3 68 216 798 
3 61 194 819 
3 76 215 817 
3 78 77 230 
3 69 68 798 
3 68 67 216 
3 230 77 817 
3 126 127 241 
3 100 101 214 
3 103 104 213 
3 218 125 806 
3 65 64 201 
3 229 62 819 
3 63 62 229 
3 125 126 806 
3 124 125 218 
3 61 60 194 
3 62 61 819 
3 76 75 215 
3 97 98 220 
3 77 76 817 
3 74 73 239 
3 95 96 584 
3 121 122 202 
3 119 120 231 
3 118 119 821 
3 117 118 192 
3 13 14 196 
3 12 13 799 
3 119 231 821 
3 16 17 206 
3 192 118 821 
3 34 33 211 
3 28 27 209 
3 31 30 210 
3 6 7 221 
3 9 10 205 
3 27 26 822 
3 19 20 219 
3 26 25 233 
3 20 21 825 
3 21 22 583 
3 232 12 799 
3 209 27 822 
3 26 233 822 
3 219 20 825 
3 21 583 825 
3 448 449 833 
3 227 115 792 
3 339 440 441 
3 813 814 816 
3 651 652 653 
3 532 762 765 
3 414 398 835 
3 383 458 459 
3 946 647 1039 
3 554 618 835 
3 441 442 496 
3 232 801 804 
3 398 460 835 
3 591 592 635 
3 11 232 804 
3 386 385 393 
3 348 346 399 
3 448 397 449 
3 516 448 833 
3 367 368 369 
3 561 562 686 
3 277 274 852 
3 356 355 357 
3 460 553 554 
3 664 516 665 
3 507 601 602 
3 579 500 587 
3 495 444 500 
3 640 639 666 
3 354 352 355 
3 397 356 836 
3 591 579 592 
3 495 579 591 
3 399 346 858 
3 554 585 617 
3 457 429 535 
3 664 665 694 
3 655 653 656 
3 587 500 830 
3 434 432 435 
3 350 349 385 
3 394 476 477 
3 413 499 507 
3 619 620 644 
3 786 227 792 
3 495 500 579 
3 554 553 585 
3 793 792 794 
3 712 711 713 
3 638 538 639 
3 384 398 414 
3 460 516 553 
3 563 564 615 
3 553 516 664 
3 638 639 640 
3 380 363 381 
3 655 656 657 
3 626 508 641 
3 650 649 651 
3 443 435 444 
3 477 508 571 
3 507 602 832 
3 779 777 780 
3 431 433 537 
3 318 322 337 
3 494 444 495 
3 434 443 471 
3 603 496 775 
3 665 516 833 
3 460 448 516 
3 443 444 494 
3 436 388 474 
3 496 442 497 
3 469 555 631 
3 435 842 855 
3 441 440 442 
3 348 399 834 
3 648 576 649 
3 434 435 443 
3 577 493 634 
3 551 646 647 
3 377 375 396 
3 460 554 835 
3 433 432 434 
3 781 779 782 
3 537 538 636 
3 498 478 509 
3 775 497 776 
3 398 448 460 
3 477 476 508 
3 651 653 655 
3 496 497 775 
3 571 508 626 
3 497 442 844 
3 337 338 339 
3 323 319 324 
3 778 779 781 
3 121 202 856 
3 231 120 856 
3 449 397 836 
3 394 436 476 
3 354 355 356 
3 355 352 834 
3 311 315 316 
3 410 411 473 
3 457 535 536 
3 723 597 1073 
3 339 439 440 
3 546 509 628 
3 476 436 487 
3 537 433 538 
3 636 538 638 
3 539 459 540 
3 575 542 576 
3 428 426 429 
3 394 388 436 
3 611 535 880 
3 536 535 611 
3 331 388 394 
3 660 659 687 
3 325 324 383 
3 398 397 448 
3 776 777 778 
3 624 707 708 
3 457 536 598 
3 384 356 397 
3 354 356 384 
3 383 459 539 
3 384 397 398 
3 428 429 430 
3 778 777 779 
3 431 432 433 
3 430 429 457 
3 283 284 879 
3 842 598 855 
3 442 503 844 
3 776 497 777 
3 439 338 599 
3 313 310 314 
3 431 430 432 
3 305 307 340 
3 323 325 331 
3 551 540 619 
3 428 430 431 
3 323 324 325 
3 648 649 650 
3 435 432 842 
3 384 414 837 
3 191 744 746 
3 442 440 503 
3 331 325 388 
3 539 540 551 
3 353 352 354 
3 434 471 841 
3 551 619 646 
3 337 322 338 
3 641 508 839 
3 431 537 840 
3 339 338 439 
3 352 348 834 
3 439 599 600 
3 500 444 855 
3 322 319 323 
3 347 351 395 
3 507 499 601 
3 351 348 352 
3 780 777 844 
3 353 354 837 
3 754 755 936 
3 508 476 839 
3 639 538 841 
3 501 502 608 
3 451 335 897 
3 433 434 841 
3 413 507 851 
3 425 427 485 
3 476 487 839 
3 652 649 878 
3 437 461 501 
3 382 381 400 
3 536 611 612 
3 340 341 342 
3 474 388 845 
3 345 343 346 
3 575 576 648 
3 563 473 564 
3 354 384 837 
3 432 430 842 
3 407 409 410 
3 347 346 348 
3 593 486 594 
3 477 571 877 
3 318 319 322 
3 270 271 272 
3 351 352 353 
3 482 454 528 
3 272 273 274 
3 427 426 428 
3 538 433 841 
3 485 486 593 
3 777 497 844 
3 515 417 542 
3 342 343 344 
3 537 636 866 
3 714 713 715 
3 401 400 469 
3 347 348 351 
3 430 457 842 
3 311 313 315 
3 315 317 318 
3 383 539 845 
3 344 345 349 
3 318 337 849 
3 427 428 840 
3 485 427 486 
3 287 289 336 
3 828 317 850 
3 369 370 371 
3 318 317 319 
3 315 313 317 
3 325 383 845 
3 393 417 478 
3 306 304 308 
3 457 598 842 
3 302 304 305 
3 344 343 345 
3 340 307 341 
3 276 277 278 
3 388 325 845 
3 515 542 575 
3 515 575 680 
3 462 464 607 
3 311 310 313 
3 342 341 343 
3 428 431 840 
3 316 315 849 
3 450 452 589 
3 322 323 843 
3 473 411 851 
3 309 310 311 
3 323 331 843 
3 394 477 869 
3 341 307 541 
3 345 346 347 
3 480 517 518 
3 120 121 856 
3 298 296 299 
3 302 300 303 
3 309 308 310 
3 486 427 840 
3 305 306 307 
3 338 322 843 
3 306 308 309 
3 444 435 855 
3 599 338 843 
3 551 647 865 
3 845 539 865 
3 564 473 851 
3 313 314 850 
3 298 300 301 
3 305 304 306 
3 413 475 499 
3 474 845 865 
3 736 643 864 
3 843 331 869 
3 393 385 417 
3 466 479 480 
3 250 249 251 
3 489 423 510 
3 518 567 568 
3 284 287 879 
3 464 466 881 
3 411 412 413 
3 309 769 853 
3 280 279 281 
3 403 405 406 
3 475 412 488 
3 315 318 849 
3 302 303 304 
3 301 300 302 
3 599 843 869 
3 305 340 848 
3 298 299 300 
3 294 296 297 
3 317 313 850 
3 364 362 365 
3 425 426 427 
3 294 292 295 
3 478 417 515 
3 410 409 411 
3 628 509 630 
3 301 302 848 
3 568 662 663 
3 261 260 262 
3 411 413 851 
3 253 251 254 
3 543 447 544 
3 301 761 884 
3 524 681 685 
3 255 254 256 
3 335 271 871 
3 413 412 475 
3 645 616 682 
3 499 475 514 
3 676 570 677 
3 830 598 873 
3 387 365 437 
3 840 537 866 
3 424 423 489 
3 297 296 298 
3 336 358 359 
3 573 510 616 
3 347 395 854 
3 422 424 425 
3 501 608 689 
3 411 409 412 
3 422 420 423 
3 731 846 915 
3 515 680 867 
3 306 309 853 
3 486 840 866 
3 594 486 866 
3 302 305 848 
3 349 345 854 
3 385 349 857 
3 539 551 865 
3 371 372 373 
3 290 292 293 
3 294 295 296 
3 274 273 852 
3 573 616 645 
3 709 711 712 
3 598 536 873 
3 529 528 586 
3 419 391 447 
3 345 347 854 
3 611 880 896 
3 392 420 421 
3 307 306 853 
3 290 288 291 
3 422 423 424 
3 489 510 573 
3 429 426 862 
3 425 424 426 
3 576 542 891 
3 569 483 570 
3 542 417 857 
3 346 343 858 
3 658 560 934 
3 364 387 418 
3 329 327 333 
3 331 394 869 
3 293 292 294 
3 610 912 924 
3 359 360 361 
3 376 378 402 
3 290 291 292 
3 361 362 363 
3 527 561 847 
3 541 307 853 
3 421 736 894 
3 654 214 1038 
3 84 181 190 
3 343 341 858 
3 387 437 438 
3 708 709 829 
3 336 289 358 
3 341 541 858 
3 425 485 859 
3 85 182 235 
3 364 365 387 
3 360 358 548 
3 525 527 847 
3 349 854 857 
3 406 405 407 
3 417 385 857 
3 509 478 867 
3 363 362 364 
3 426 424 862 
3 470 468 511 
3 478 515 867 
3 86 183 195 
3 421 422 859 
3 631 555 632 
3 424 489 862 
3 361 360 362 
3 289 288 290 
3 931 603 935 
3 415 492 493 
3 535 862 880 
3 869 477 877 
3 87 184 234 
3 467 465 468 
3 536 612 873 
3 407 408 409 
3 269 268 270 
3 421 420 422 
3 900 764 905 
3 402 378 403 
3 524 519 681 
3 488 412 861 
3 407 405 408 
3 409 408 861 
3 359 358 360 
3 735 35 928 
3 88 185 198 
3 649 576 878 
3 286 285 367 
3 330 392 894 
3 377 396 415 
3 630 509 867 
3 412 409 861 
3 600 599 877 
3 381 363 860 
3 298 301 884 
3 469 483 555 
3 452 455 893 
3 329 333 868 
3 569 570 676 
3 422 425 859 
3 709 712 829 
3 420 419 883 
3 419 447 543 
3 389 445 831 
3 652 878 898 
3 392 419 420 
3 283 740 904 
3 89 186 236 
3 569 676 720 
3 374 373 375 
3 599 869 877 
3 469 400 483 
3 221 7 901 
3 275 274 276 
3 364 418 860 
3 543 544 863 
3 544 623 625 
3 363 364 860 
3 510 423 883 
3 284 282 285 
3 466 480 881 
3 90 187 200 
3 715 717 718 
3 91 188 237 
3 189 91 872 
3 287 336 879 
3 82 189 204 
3 557 312 558 
3 278 279 280 
3 290 293 870 
3 403 378 404 
3 287 288 289 
3 489 573 880 
3 712 713 714 
3 395 351 898 
3 555 483 569 
3 297 298 884 
3 419 543 883 
3 289 290 870 
3 653 652 907 
3 423 420 883 
3 447 391 868 
3 365 362 876 
3 284 286 287 
3 480 479 517 
3 258 260 261 
3 403 404 405 
3 374 375 376 
3 589 452 893 
3 266 268 269 
3 656 653 911 
3 392 391 419 
3 287 286 288 
3 462 607 887 
3 418 387 875 
3 862 489 880 
3 518 517 567 
3 484 330 894 
3 590 546 922 
3 358 289 870 
3 387 438 875 
3 272 274 275 
3 616 510 899 
3 568 567 662 
3 360 548 876 
3 376 375 377 
3 470 511 513 
3 275 312 550 
3 284 285 286 
3 362 360 876 
3 393 498 908 
3 376 377 378 
3 548 358 870 
3 253 254 255 
3 656 911 917 
3 255 256 366 
3 467 468 470 
3 250 251 253 
3 247 246 248 
3 261 262 321 
3 570 483 885 
3 878 395 898 
3 330 391 392 
3 544 625 863 
3 248 249 250 
3 367 369 547 
3 470 513 566 
3 880 573 896 
3 276 278 874 
3 275 276 312 
3 286 367 882 
3 391 329 868 
3 528 454 897 
3 557 558 588 
3 454 451 897 
3 400 381 885 
3 566 633 673 
3 291 288 882 
3 415 493 549 
3 623 624 906 
3 586 528 696 
3 924 297 937 
3 566 513 633 
3 330 329 391 
3 854 395 891 
3 280 281 282 
3 549 493 577 
3 917 618 921 
3 269 270 379 
3 382 401 932 
3 517 479 565 
3 577 634 637 
3 857 854 891 
3 490 727 919 
3 328 330 484 
3 399 905 926 
3 288 286 882 
3 653 907 911 
3 550 312 557 
3 367 547 882 
3 269 379 462 
3 549 577 578 
3 464 465 466 
3 381 860 885 
3 663 662 1034 
3 466 467 479 
3 374 756 903 
3 351 353 898 
3 573 645 896 
3 720 197 938 
3 483 400 885 
3 283 282 284 
3 462 463 464 
3 835 618 917 
3 779 780 914 
3 466 465 467 
3 392 421 894 
3 652 898 907 
3 542 857 891 
3 97 220 920 
3 584 96 920 
3 253 255 332 
3 464 463 465 
3 533 834 926 
3 261 321 552 
3 558 312 874 
3 745 929 1053 
3 280 282 283 
3 34 211 928 
3 245 244 246 
3 312 276 874 
3 399 858 905 
3 371 373 374 
3 541 853 900 
3 462 379 463 
3 264 266 887 
3 328 329 330 
3 552 321 605 
3 552 605 606 
3 810 809 963 
3 853 769 900 
3 696 528 897 
3 256 258 888 
3 366 256 888 
3 677 570 913 
3 7 8 901 
3 404 378 892 
3 270 272 889 
3 769 763 900 
3 91 237 872 
3 204 189 872 
3 328 327 329 
3 445 505 831 
3 905 764 926 
3 438 437 918 
3 378 377 892 
3 199 731 915 
3 883 543 899 
3 604 603 931 
3 898 353 907 
3 815 812 933 
3 501 689 918 
3 379 270 889 
3 811 810 933 
3 510 883 899 
3 377 415 892 
3 258 261 888 
3 266 269 887 
3 294 297 924 
3 760 456 953 
3 543 863 899 
3 456 386 957 
3 275 550 889 
3 272 275 889 
3 181 83 909 
3 415 549 892 
3 467 470 895 
3 247 248 252 
3 470 566 895 
3 519 490 919 
3 711 710 951 
3 565 479 895 
3 556 204 872 
3 479 467 895 
3 353 837 907 
3 766 463 923 
3 541 900 905 
3 858 541 905 
3 624 708 906 
3 761 760 950 
3 269 462 887 
3 740 739 956 
3 386 393 908 
3 874 278 904 
3 903 756 936 
3 768 548 912 
3 547 369 903 
3 261 552 888 
3 547 903 936 
3 321 262 927 
3 570 885 913 
3 885 860 913 
3 278 280 904 
3 326 327 328 
3 907 837 911 
3 837 414 911 
3 505 622 902 
3 321 927 945 
3 656 917 921 
3 572 679 958 
3 533 931 935 
3 190 181 909 
3 911 414 917 
3 371 374 903 
3 782 779 914 
3 932 401 991 
3 326 252 327 
3 247 252 326 
3 379 889 923 
3 90 200 925 
3 237 188 925 
3 414 835 917 
3 953 456 957 
3 610 924 937 
3 437 501 918 
3 870 293 912 
3 369 371 903 
3 188 90 925 
3 245 246 247 
3 96 97 920 
3 860 418 913 
3 280 283 904 
3 569 720 938 
3 553 664 948 
3 548 870 912 
3 657 656 921 
3 936 755 940 
3 632 555 938 
3 889 550 923 
3 512 766 947 
3 546 629 922 
3 310 308 949 
3 887 607 927 
3 912 293 924 
3 264 887 927 
3 681 519 919 
3 627 512 955 
3 293 294 924 
3 834 399 926 
3 262 264 927 
3 1024 238 1037 
3 739 472 972 
3 693 190 1010 
3 474 865 946 
3 533 926 931 
3 480 518 954 
3 252 248 930 
3 89 236 942 
3 35 34 928 
3 83 180 238 
3 200 187 942 
3 609 610 937 
3 603 775 935 
3 560 559 934 
3 966 751 969 
3 950 760 953 
3 463 379 923 
3 472 382 932 
3 717 1019 1029 
3 831 505 902 
3 764 604 931 
3 935 775 939 
3 828 850 959 
3 243 204 244 
3 248 250 930 
3 18 694 995 
3 812 811 933 
3 637 634 981 
3 797 459 960 
3 775 776 939 
3 291 940 961 
3 752 751 966 
3 756 754 936 
3 357 533 935 
3 253 332 943 
3 939 776 941 
3 291 882 940 
3 927 607 945 
3 643 642 1015 
3 401 469 967 
3 776 778 941 
3 357 935 939 
3 88 198 952 
3 295 292 961 
3 941 778 944 
3 215 75 968 
3 74 239 968 
3 236 186 952 
3 836 357 939 
3 614 613 971 
3 693 691 998 
3 555 569 938 
3 601 499 965 
3 971 613 973 
3 956 739 972 
3 187 89 942 
3 778 781 944 
3 9 205 970 
3 243 244 245 
3 836 939 941 
3 297 884 937 
3 926 764 931 
3 684 723 1037 
3 992 230 1066 
3 299 296 969 
3 875 745 990 
3 512 947 955 
3 449 836 941 
3 449 941 944 
3 940 755 961 
3 514 796 1046 
3 723 1024 1037 
3 833 449 944 
3 922 629 929 
3 563 615 974 
3 607 881 945 
3 704 703 958 
3 605 321 945 
3 680 194 1033 
3 110 111 981 
3 24 23 977 
3 71 70 978 
3 73 72 979 
3 303 300 973 
3 766 923 947 
3 882 547 940 
3 865 647 946 
3 83 238 909 
3 830 873 975 
3 250 253 943 
3 82 204 243 
3 48 199 988 
3 901 8 970 
3 223 49 988 
3 930 250 943 
3 308 304 976 
3 923 550 947 
3 303 973 974 
3 582 674 998 
3 974 615 976 
3 332 255 964 
3 585 553 948 
3 299 969 971 
3 605 945 954 
3 981 111 1068 
3 295 961 966 
3 710 733 951 
3 314 310 949 
3 615 564 983 
3 550 557 947 
3 789 408 1035 
3 87 234 980 
3 198 185 980 
3 314 983 986 
3 609 937 950 
3 874 904 956 
3 945 881 954 
3 714 715 987 
3 186 88 952 
3 817 215 989 
3 662 567 1012 
3 547 936 940 
3 190 693 1005 
3 703 572 958 
3 884 761 950 
3 552 606 984 
3 937 884 950 
3 597 902 1073 
3 608 609 953 
3 674 580 997 
3 904 740 956 
3 609 950 953 
3 947 557 955 
3 471 692 1072 
3 850 314 986 
3 621 693 1010 
3 608 953 957 
3 581 661 997 
3 981 634 1051 
3 242 79 992 
3 78 230 992 
3 795 192 994 
3 689 608 957 
3 458 959 960 
3 458 828 959 
3 954 518 962 
3 557 588 955 
3 881 480 954 
3 295 966 969 
3 99 100 993 
3 229 819 1028 
3 459 458 960 
3 418 875 990 
3 558 874 956 
3 641 839 963 
3 366 888 984 
3 292 291 961 
3 793 796 1000 
3 755 752 966 
3 17 18 995 
3 255 366 964 
3 499 514 965 
3 782 914 1065 
3 606 605 962 
3 469 631 967 
3 949 615 983 
3 970 205 1044 
3 558 956 972 
3 75 74 968 
3 787 786 1000 
3 846 224 1012 
3 725 222 1023 
3 239 979 1063 
3 682 616 1006 
3 747 207 987 
3 296 295 969 
3 299 971 973 
3 743 742 1002 
3 217 110 981 
3 8 9 970 
3 782 1065 1079 
3 314 949 983 
3 751 614 971 
3 86 195 996 
3 234 184 996 
3 642 593 1003 
3 961 755 966 
3 877 571 999 
3 511 627 1004 
3 201 64 1008 
3 63 229 1008 
3 300 299 973 
3 228 774 1015 
3 637 981 1068 
3 85 235 1001 
3 790 789 1035 
3 195 183 1001 
3 588 558 972 
3 613 563 974 
3 969 751 971 
3 791 578 1027 
3 635 992 1066 
3 973 613 974 
3 587 830 975 
3 495 591 1013 
3 827 24 977 
3 70 240 978 
3 239 73 979 
3 303 974 976 
3 185 87 980 
3 304 303 976 
3 66 65 1014 
3 84 190 1005 
3 235 182 1005 
3 677 913 990 
3 820 213 1003 
3 592 579 1016 
3 605 954 962 
3 631 632 1009 
3 717 719 1019 
3 668 666 1020 
3 983 832 986 
3 564 832 983 
3 989 215 1069 
3 1004 631 1009 
3 212 108 1043 
3 584 920 985 
3 667 669 985 
3 666 639 1020 
3 549 578 1017 
3 832 602 986 
3 612 824 1047 
3 841 471 1020 
3 197 720 1050 
3 715 718 987 
3 888 552 984 
3 899 863 1006 
3 503 440 1026 
3 439 600 1026 
3 680 575 1028 
3 193 791 1027 
3 626 970 1044 
3 49 48 988 
3 6 221 1031 
3 920 667 985 
3 744 745 1053 
3 619 644 1032 
3 202 816 1039 
3 31 210 1036 
3 102 820 1038 
3 896 210 1041 
3 743 1002 1077 
3 214 101 1038 
3 217 981 1051 
3 827 977 1018 
3 474 946 1057 
3 612 611 1041 
3 67 66 1040 
3 712 714 1023 
3 404 892 1017 
3 774 771 1011 
3 802 800 1042 
3 627 967 1004 
3 52 197 1050 
3 818 817 989 
3 225 53 1050 
3 578 577 1027 
3 655 657 1014 
3 405 404 1035 
3 810 963 1062 
3 226 838 1048 
3 735 625 1049 
3 645 682 1036 
3 638 640 993 
3 245 247 1021 
3 691 582 998 
3 747 987 1064 
3 805 801 1056 
3 622 1024 1073 
3 967 631 1004 
3 98 99 1054 
3 625 623 1049 
3 3 80 1058 
3 23 3 1058 
3 127 0 1059 
3 0 4 1059 
3 72 1 1060 
3 1 95 1060 
3 2 71 1061 
3 22 2 1061 
3 808 241 1059 
3 112 193 1068 
3 921 618 1030 
3 566 673 1045 
3 487 436 1057 
3 651 655 1081 
3 16 206 1079 
3 196 14 1065 
3 692 670 1072 
3 861 789 1067 
3 627 955 991 
3 946 815 1057 
3 844 503 1075 
3 987 718 1064 
3 79 78 992 
3 914 196 1065 
3 669 671 1063 
3 565 846 1076 
3 1019 757 1029 
3 984 606 1019 
3 100 214 993 
3 588 932 991 
3 906 708 1055 
3 571 626 1044 
3 192 821 994 
3 517 565 1076 
3 913 418 990 
3 789 787 1067 
3 672 989 1069 
3 798 216 1030 
3 565 895 1045 
3 915 565 1045 
3 206 17 995 
3 683 684 1037 
3 184 86 996 
3 580 581 997 
3 771 773 1011 
3 955 588 991 
3 873 612 1047 
3 742 225 1002 
3 786 793 1000 
3 795 994 1046 
3 183 85 1001 
3 692 494 1025 
3 600 877 999 
3 863 625 1071 
3 963 839 1062 
3 676 677 1002 
3 593 594 1003 
3 737 223 1007 
3 513 511 1004 
3 773 772 1021 
3 767 630 1033 
3 625 928 1071 
3 977 242 1018 
3 182 84 1005 
3 616 899 1006 
3 224 728 1012 
3 1002 677 1077 
3 513 1004 1009 
3 64 63 1008 
3 719 984 1019 
3 81 683 1078 
3 622 621 1010 
3 718 717 1029 
3 484 864 1011 
3 585 826 1022 
3 633 513 1009 
3 201 1008 1081 
3 494 495 1013 
3 197 737 1070 
3 867 680 1033 
3 630 867 1033 
3 999 805 1056 
3 65 201 1014 
3 783 228 1015 
3 579 587 1016 
3 796 795 1046 
3 591 635 1066 
3 672 692 1025 
3 808 5 1031 
3 892 549 1017 
3 606 757 1019 
3 210 823 1041 
3 635 592 1018 
3 938 197 1070 
3 639 841 1020 
3 231 856 1032 
3 722 684 1051 
3 856 646 1032 
3 690 514 1046 
3 180 81 1078 
3 503 1042 1075 
3 617 585 1022 
3 829 712 1023 
3 247 326 1021 
3 440 439 1026 
3 575 648 1028 
3 629 838 1053 
3 1007 223 1052 
3 846 1012 1076 
3 757 663 1029 
3 994 690 1046 
3 577 637 1027 
3 618 617 1030 
3 809 808 1031 
3 5 6 1031 
3 909 238 1024 
3 646 619 1032 
3 194 767 1033 
3 203 748 1034 
3 975 873 1047 
3 223 988 1052 
3 929 629 1053 
3 1020 471 1072 
3 32 31 1036 
3 408 405 1035 
3 101 102 1038 
3 787 1000 1067 
3 816 814 1039 
3 216 67 1040 
3 772 212 1043 
3 933 810 1062 
3 800 803 1042 
3 1034 748 1064 
3 611 896 1041 
3 208 735 1049 
3 205 805 1044 
3 634 722 1051 
3 1008 650 1081 
3 977 23 1058 
3 71 978 1061 
3 979 72 1060 
3 838 744 1053 
3 487 933 1062 
3 1006 863 1071 
3 202 1039 1080 
3 758 226 1048 
3 906 208 1049 
3 684 217 1051 
3 895 566 1045 
3 494 1013 1025 
3 824 209 1047 
3 53 52 1050 
3 215 968 1069 
3 748 747 1064 
3 623 906 1049 
3 989 672 1025 
3 1034 1064 1074 
3 801 802 1056 
3 220 98 1054 
3 673 633 1052 
3 80 242 1058 
3 241 127 1059 
3 95 584 1060 
3 583 22 1061 
3 436 474 1057 
3 745 743 1077 
3 708 829 1055 
3 209 975 1047 
3 839 487 1062 
3 1024 723 1073 
3 14 15 1065 
3 230 818 1066 
3 111 112 1068 
3 928 211 1071 
3 671 672 1069 
3 488 861 1067 
3 670 668 1072 
3 988 673 1052 
3 1065 15 1079 
3 238 180 1078 
3 600 999 1056 
3 780 844 1075 
3 15 16 1079 
3 632 938 1070 
3 803 196 1082 
3 914 780 1082 
3 647 646 1080 
3 650 651 1081 
3 567 517 1076 
3 902 622 1073 
3 242 977 1058 
3 978 583 1061 
3 584 979 1060 
3 968 671 1069 
3 1075 803 1082 
3 780 1075 1082 
3 196 914 1082 
3 677 990 1077 
3 1000 488 1067 
3 1012 567 1076 
3 985 669 1063 
3 211 1006 1071 
3 990 745 1077 
3 668 1020 1072 
3 718 1029 1074 
3 1007 632 1070 
3 737 1007 1070 
3 1037 238 1078 
3 1029 663 1074 
3 663 1034 1074 
3 1039 647 1080 
3 1042 803 1075 
3 683 1037 1078 
3 1064 718 1074 
3 145 146 147 
3 148 145 147 
3 144 145 148 
3 149 144 148 
3 143 144 149 
3 150 143 149 
3 142 143 150 
3 151 142 150 
3 141 142 151 
3 152 141 151 
3 140 141 152 
3 153 140 152 
3 139 140 153 
3 139 153 154 
3 138 139 154 
3 129 90 1083 
3 155 138 154 
3 90 129 163 
3 138 155 137 
3 155 156 137 
3 137 156 136 
3 156 157 136 
3 157 135 136 
3 135 157 158 
3 128 129 1083 
3 135 158 134 
3 158 159 134 
3 159 133 134 
3 159 160 133 
3 160 132 133 
3 161 132 160 
3 132 161 131 
3 131 161 162 
3 130 162 163 
3 130 131 162 
3 90 187 1083 
3 129 130 163 
3 187 128 1083 
3 92 93 1084 
3 147 146 1084 
3 93 147 1084 
3 146 92 1084 
3 89 128 187 
3 178 179 147 
3 148 178 147 
3 177 178 148 
3 149 177 148 
3 176 177 149 
3 150 176 149 
3 175 176 150 
3 151 175 150 
3 174 175 151 
3 152 174 151 
3 173 174 152 
3 153 173 152 
3 172 173 153 
3 91 162 1085 
3 172 153 154 
3 171 172 154 
3 162 163 1085 
3 155 171 154 
3 171 155 170 
3 162 91 164 
3 155 156 170 
3 156 169 170 
3 156 157 169 
3 157 168 169 
3 157 158 168 
3 188 91 1085 
3 158 167 168 
3 158 159 167 
3 159 160 166 
3 159 166 167 
3 160 161 165 
3 160 165 166 
3 161 162 164 
3 161 164 165 
3 163 188 1085 
3 94 93 1086 
3 147 179 1086 
3 93 147 1086 
3 179 94 1086 
3 90 188 163 
3 178 179 95 
3 178 95 96 
3 177 178 96 
3 177 96 97 
3 176 177 97 
3 176 97 98 
3 175 176 98 
3 175 98 99 
3 174 175 99 
3 174 99 100 
3 173 174 100 
3 173 100 101 
3 165 82 1087 
3 172 173 101 
3 108 82 165 
3 172 101 102 
3 171 172 102 
3 103 171 102 
3 170 171 103 
3 104 170 103 
3 169 170 104 
3 169 104 105 
3 164 165 1087 
3 169 105 168 
3 105 106 168 
3 106 167 168 
3 106 107 167 
3 107 108 166 
3 167 107 166 
3 166 108 165 
3 82 189 1087 
3 189 164 1087 
3 94 1 1088 
3 95 179 1088 
3 1 95 1088 
3 179 94 1088 
3 189 91 164 

CELL_TYPES 2039
5
5
5
5
5
5
5
5
5
5
5
5
5
5
5
5
5
5
5
5
5
5
5
5
5
5
5
5
5
5
5
5
5
5
5
5
5
5
5
5
5
5
5
5
5
5
5
5
5
5
5
5
5
5
5
5
5
5
5
5
5
5
5
5
5
5
5
5
5
5
5
5
5
5
5
5
5
5
5
5
5
5
5
5
5
5
5
5
5
5
5
5
5
5
5
5
5
5
5
5
5
5
5
5
5
5
5
5
5
5
5
5
5
5
5
5
5
5
5
5
5
5
5
5
5
5
5
5
5
5
5
5
5
5
5
5
5
5
5
5
5
5
5
5
5
5
5
5
5
5
5
5
5
5
5
5
5
5
5
5
5
5
5
5
5
5
5
5
5
5
5
5
5
5
5
5
5
5
5
5
5
5
5
5
5
5
5
5
5
5
5
5
5
5
5
5
5
5
5
5
5
5
5
5
5
5
5
5
5
5
5
5
5
5
5
5
5
5
5
5
5
5
5
5
5
5
5
5
5
5
5
5
5
5
5
5
5
5
5
5
5
5
5
5
5
5
5
5
5
5
5
5
5
5
5
5
5
5
5
5
5
5
5
5
5
5
5
5
5
5
5
5
5
5
5
5
5
5
5
5
5
5
5
5
5
5
5
5
5
5
5
5
5
5
5
5
5
5
5
5
5
5
5
5
5
5
5
5
5
5
5
5
5
5
5
5
5
5
5
5
5
5
5
5
5
5
5
5
5
5
5
5
5
5
5
5
5
5
5
5
5
5
5
5
5
5
5
5
5
5
5
5
5
5
5
5
5
5
5
5
5
5
5
5
5
5
5
5
5
5
5
5
5
5
5
5
5
5
5
5
5
5
5
5
5
5
5
5
5
5
5
5
5
5
5
5
5
5
5
5
5
5
5
5
5
5
5
5
5
5
5
5
5
5
5
5
5
5
5
5
5
5
5
5
5
5
5
5
5
5
5
5
5
5
5
5
5
5
5
5
5
5
5
5
5
5
5
5
5
5
5
5
5
5
5
5
5
5
5
5
5
5
5
5
5
5
5
5
5
5
5
5
5
5
5
5
5
5
5
5
5
5
5
5
5
5
5
5
5
5
5
5
5
5
5
5
5
5
5
5
5
5
5
5
5
5
5
5
5
5
5
5
5
5
5
5
5
5
5
5
5
5
5
5
5
5
5
5
5
5
5
5
5
5
5
5
5
5
5
5
5
5
5
5
5
5
5
5
5
5
5
5
5
5
5
5
5
5
5
5
5
5
5
5
5
5
5
5
5
5
5
5
5
5
5
5
5
5
5
5
5
5
5
5
5
5
5
5
5
5
5
5
5
5
5
5
5
5
5
5
5
5
5
5
5
5
5
5
5
5
5
5
5
5
5
5
5
5
5
5
5
5
5
5
5
5
5
5
5
5
5
5
5
5
5
5
5
5
5
5
5
5
5
5
5
5
5
5
5
5
5
5
5
5
5
5
5
5
5
5
5
5
5
5
5
5
5
5
5
5
5
5
5
5
5
5
5
5
5
5
5
5
5
5
5
5
5
5
5
5
5
5
5
5
5
5
5
5
5
5
5
5
5
5
5
5
5
5
5
5
5
5
5
5
5
5
5
5
5
5
5
5
5
5
5
5
5
5
5
5
5
5
5
5
5
5
5
5
5
5
5
5
5
5
5
5
5
5
5
5
5
5
5
5
5
5
5
5
5
5
5
5
5
5
5
5
5
5
5
5
5
5
5
5
5
5
5
5
5
5
5
5
5
5
5
5
5
5
5
5
5
5
5
5
5
5
5
5
5
5
5
5
5
5
5
5
5
5
5
5
5
5
5
5
5
5
5
5
5
5
5
5
5
5
5
5
5
5
5
5
5
5
5
5
5
5
5
5
5
5
5
5
5
5
5
5
5
5
5
5
5
5
5
5
5
5
5
5
5
5
5
5
5
5
5
5
5
5
5
5
5
5
5
5
5
5
5
5
5
5
5
5
5
5
5
5
5
5
5
5
5
5
5
5
5
5
5
5
5
5
5
5
5
5
5
5
5
5
5
5
5
5
5
5
5
5
5
5
5
5
5
5
5
5
5
5
5
5
5
5
5
5
5
5
5
5
5
5
5
5
5
5
5
5
5
5
5
5
5
5
5
5
5
5
5
5
5
5
5
5
5
5
5
5
5
5
5
5
5
5
5
5
5
5
5
5
5
5
5
5
5
5
5
5
5
5
5
5
5
5
5
5
5
5
5
5
5
5
5
5
5
5
5
5
5
5
5
5
5
5
5
5
5
5
5
5
5
5
5
5
5
5
5
5
5
5
5
5
5
5
5
5
5
5
5
5
5
5
5
5
5
5
5
5
5
5
5
5
5
5
5
5
5
5
5
5
5
5
5
5
5
5
5
5
5
5
5
5
5
5
5
5
5
5
5
5
5
5
5
5
5
5
5
5
5
5
5
5
5
5
5
5
5
5
5
5
5
5
5
5
5
5
5
5
5
5
5
5
5
5
5
5
5
5
5
5
5
5
5
5
5
5
5
5
5
5
5
5
5
5
5
5
5
5
5
5
5
5
5
5
5
5
5
5
5
5
5
5
5
5
5
5
5
5
5
5
5
5
5
5
5
5
5
5
5
5
5
5
5
5
5
5
5
5
5
5
5
5
5
5
5
5
5
5
5
5
5
5
5
5
5
5
5
5
5
5
5
5
5
5
5
5
5
5
5
5
5
5
5
5
5
5
5
5
5
5
5
5
5
5
5
5
5
5
5
5
5
5
5
5
5
5
5
5
5
5
5
5
5
5
5
5
5
5
5
5
5
5
5
5
5
5
5
5
5
5
5
5
5
5
5
5
5
5
5
5
5
5
5
5
5
5
5
5
5
5
5
5
5
5
5
5
5
5
5
5
5
5
5
5
5
5
5
5
5
5
5
5
5
5
5
5
5
5
5
5
5
5
5
5
5
5
5
5
5
5
5
5
5
5
5
5
5
5
5
5
5
5
5
5
5
5
5
5
5
5
5
5
5
5
5
5
5
5
5
5
5
5
5
5
5
5
5
5
5
5
5
5
5
5
5
5
5
5
5
5
5
5
5
5
5
5
5
5
5
5
5
5
5
5
5
5
5
5
5
5
5
5
5
5
5
5
5
5
5
5
5
5
5
5
5
5
5
5
5
5
5
5
5
5
5
5
5
5
5
5
5
5
5
5
5
5
5
5
5
5
5
5
5
5
5
5
5
5
5
5
5
5
5
5
5
5
5
5
5
5
5
5
5
5
5
5
5
5
5
5
5
5
5
5
5
5
5
5
5
5
5
5
5
5
5
5
5
5
5
5
5
5
5
5
5
5
5
5
5
5
5
5
5
5
5
5
5
5
5
5
5
5
5
5
5
5
5
5
5
5
5
5
5
5
5
5
5
5
5
5
5
5
5
5
5
5
5
5
5
5
5
5
5
5
5
5
5
5
5
5
5
5
5
5
5
5
5
5
5
5
5
5
5
5
5
5
5
5
5
5
5
5
5
5
5
5
5
5
5
5
5
5
5
5
5
5
5
5
5
5
5
5
5
5
5
5
5
5
5
5
5
5
5
5
5
5
5
5
5
5
5
5
5
5
5
5
5
5
5
5
5
5
5
5
5
5
5
5
5
5
5
5
5
5
5
5
5
5
5
5
5
5
5
5
5
5
5
5
5
5
5
5
5
5
5
5
5
5
5
5
5
5
5
5
5
5
5
5
5
5
5
5
5
5
5
5
5
5
5
5
5
5
5
5
5
5
5
5
5
5
5
5
5
5
5
5
5
5
5
5
5
5
5
5
5
5
5
5
5
5
5
5
5
5
5
5
5
5
5
5
5
5
5
5
5
5
5
5
5
5
5
5
5
5
5
5
5
5
5
5
5
5
5
5
5
5
5
5
5
5
5
5
5
5
5
5
5
5
5
5
5
5
5
5
5
5
5
5
5
5
5
5
5
5
5
5
5
5
5
5
5
5
5
5
5
5
5
5
5
5
5
5
5
5
5
5
5
5
5
5
5
5
5
5
5
5
5
5
5
5
5
5
5
5
5
5
5
5
5
5
5
5
5
5
5
5
5
5
5
5
5
5
5
5
5
5
5
5
5
5
5
5
5
5
5
5
5
5
5
5
5
5
5
5
5
5
5
5
5
5
5
5
5
5
5
5
5
5
5
5
5
5
5
5
5
5
5
5
5
5
5
5
5
5
5
5
5
5
5
5
5
5
5
5
5
5
5
5
5
5
5
5
5
5
5
5
5
5
5
5
5
5
5
5
5
5
5
5
5
5
5
5
5
5
5
5
5
5
5
5
5
5
5
5
5
5
5
5
5
5
5
5
5
5
5
5
5
5
5
5
5
5
5
5
5
5
5
5
5
5
5
5
5
5
5
5
5
5
5
5
5
5
5
5
5
5
5
5
5
5
5
5
5
5
5
5
5
5
5
5
5
5
5
5
5
5
5
5
5
5
5
5
5
5
5
5
5
5
5
5
5
5
5
5
5
5
5
5
5
5
5
5
5
5
5
5
5
5
5
5
5
5
5
5
5
5
5
5
5
5
5
5
5
5
5
5
5
5
5
5
5
5
5

POINT_DATA 1089

VECTORS coord float
0.0 0.0 0.0 
5.000000000000e+01 -1.000000000000e+01 0.0 
0.0 -2.000000000000e+01 0.0 
5.000000000000e+01 -2.000000000000e+01 0.0 
0.0 -9.999999999991e-01 0.0 
0.0 -1.999999999998e+00 0.0 
0.0 -2.999999999997e+00 0.0 
0.0 -3.999999999994e+00 0.0 
0.0 -4.999999999991e+00 0.0 
0.0 -5.999999999988e+00 0.0 
0.0 -6.999999999985e+00 0.0 
0.0 -7.999999999982e+00 0.0 
0.0 -8.999999999983e+00 0.0 
0.0 -9.999999999985e+00 0.0 
0.0 -1.099999999999e+01 0.0 
0.0 -1.199999999999e+01 0.0 
0.0 -1.299999999999e+01 0.0 
0.0 -1.399999999999e+01 0.0 
0.0 -1.499999999999e+01 0.0 
0.0 -1.599999999999e+01 0.0 
0.0 -1.700000000000e+01 0.0 
0.0 -1.800000000000e+01 0.0 
0.0 -1.900000000000e+01 0.0 
4.900000000001e+01 -2.000000000000e+01 0.0 
4.800000000001e+01 -2.000000000000e+01 0.0 
4.700000000002e+01 -2.000000000000e+01 0.0 
4.600000000003e+01 -2.000000000000e+01 0.0 
4.500000000004e+01 -2.000000000000e+01 0.0 
4.400000000004e+01 -2.000000000000e+01 0.0 
4.300000000005e+01 -2.000000000000e+01 0.0 
4.200000000006e+01 -2.000000000000e+01 0.0 
4.100000000006e+01 -2.000000000000e+01 0.0 
4.000000000007e+01 -2.000000000000e+01 0.0 
3.900000000008e+01 -2.000000000000e+01 0.0 
3.800000000009e+01 -2.000000000000e+01 0.0 
3.700000000009e+01 -2.000000000000e+01 0.0 
3.600000000010e+01 -2.000000000000e+01 0.0 
3.500000000011e+01 -2.000000000000e+01 0.0 
3.400000000011e+01 -2.000000000000e+01 0.0 
3.300000000012e+01 -2.000000000000e+01 0.0 
3.200000000013e+01 -2.000000000000e+01 0.0 
3.100000000013e+01 -2.000000000000e+01 0.0 
3.000000000013e+01 -2.000000000000e+01 0.0 
2.900000000013e+01 -2.000000000000e+01 0.0 
2.800000000013e+01 -2.000000000000e+01 0.0 
2.700000000013e+01 -2.000000000000e+01 0.0 
2.600000000013e+01 -2.000000000000e+01 0.0 
2.500000000013e+01 -2.000000000000e+01 0.0 
2.400000000013e+01 -2.000000000000e+01 0.0 
2.300000000013e+01 -2.000000000000e+01 0.0 
2.200000000013e+01 -2.000000000000e+01 0.0 
2.100000000013e+01 -2.000000000000e+01 0.0 
2.000000000013e+01 -2.000000000000e+01 0.0 
1.900000000013e+01 -2.000000000000e+01 0.0 
1.800000000013e+01 -2.000000000000e+01 0.0 
1.700000000012e+01 -2.000000000000e+01 0.0 
1.600000000011e+01 -2.000000000000e+01 0.0 
1.500000000011e+01 -2.000000000000e+01 0.0 
1.400000000010e+01 -2.000000000000e+01 0.0 
1.300000000009e+01 -2.000000000000e+01 0.0 
1.200000000009e+01 -2.000000000000e+01 0.0 
1.100000000008e+01 -2.000000000000e+01 0.0 
1.000000000007e+01 -2.000000000000e+01 0.0 
9.000000000064e+00 -2.000000000000e+01 0.0 
8.000000000057e+00 -2.000000000000e+01 0.0 
7.000000000050e+00 -2.000000000000e+01 0.0 
6.000000000043e+00 -2.000000000000e+01 0.0 
5.000000000036e+00 -2.000000000000e+01 0.0 
4.000000000028e+00 -2.000000000000e+01 0.0 
3.000000000021e+00 -2.000000000000e+01 0.0 
2.000000000014e+00 -2.000000000000e+01 0.0 
1.000000000007e+00 -2.000000000000e+01 0.0 
5.000000000000e+01 -1.100000000000e+01 0.0 
5.000000000000e+01 -1.200000000000e+01 0.0 
5.000000000000e+01 -1.300000000000e+01 0.0 
5.000000000000e+01 -1.400000000000e+01 0.0 
5.000000000000e+01 -1.500000000000e+01 0.0 
5.000000000000e+01 -1.600000000000e+01 0.0 
5.000000000000e+01 -1.700000000000e+01 0.0 
5.000000000000e+01 -1.800000000000e+01 0.0 
5.000000000000e+01 -1.900000000000e+01 0.0 
2.000000000000e+01 0.0 0.0 
3.500000000000e+01 -1.000000000000e+01 0.0 
2.150000000000e+01 -1.000000000000e+00 0.0 
2.300000000000e+01 -2.000000000000e+00 0.0 
2.450000000000e+01 -3.000000000000e+00 0.0 
2.600000000000e+01 -4.000000000000e+00 0.0 
2.750000000000e+01 -5.000000000000e+00 0.0 
2.900000000000e+01 -6.000000000000e+00 0.0 
3.050000000000e+01 -7.000000000000e+00 0.0 
3.200000000000e+01 -8.000000000000e+00 0.0 
3.350000000000e+01 -9.000000000000e+00 0.0 
5.000000000000e+01 -7.000000000000e+00 0.0 
5.000000000000e+01 -8.000000000000e+00 0.0 
5.000000000000e+01 -9.000000000000e+00 0.0 
4.900000000000e+01 -1.000000000000e+01 0.0 
4.800000000000e+01 -1.000000000000e+01 0.0 
4.700000000000e+01 -1.000000000000e+01 0.0 
4.600000000000e+01 -1.000000000000e+01 0.0 
4.500000000000e+01 -1.000000000000e+01 0.0 
4.400000000000e+01 -1.000000000000e+01 0.0 
4.300000000000e+01 -1.000000000000e+01 0.0 
4.200000000000e+01 -1.000000000000e+01 0.0 
4.100000000000e+01 -1.000000000000e+01 0.0 
4.000000000000e+01 -1.000000000000e+01 0.0 
3.900000000000e+01 -1.000000000000e+01 0.0 
3.800000000000e+01 -1.000000000000e+01 0.0 
3.700000000000e+01 -1.000000000000e+01 0.0 
3.600000000000e+01 -1.000000000000e+01 0.0 
1.900000000000e+01 0.0 0.0 
1.800000000000e+01 0.0 0.0 
1.700000000000e+01 0.0 0.0 
1.600000000000e+01 0.0 0.0 
1.500000000000e+01 0.0 0.0 
1.400000000000e+01 0.0 0.0 
1.300000000000e+01 0.0 0.0 
1.200000000000e+01 0.0 0.0 
1.100000000000e+01 0.0 0.0 
1.000000000000e+01 0.0 0.0 
9.000000000000e+00 0.0 0.0 
8.000000000000e+00 0.0 0.0 
7.000000000000e+00 0.0 0.0 
6.000000000000e+00 0.0 0.0 
5.000000000000e+00 0.0 0.0 
4.000000000000e+00 0.0 0.0 
3.000000000000e+00 0.0 0.0 
2.000000000000e+00 0.0 0.0 
1.000000000000e+00 0.0 0.0 
3.147499999998e+01 -7.000000000000e+00 0.0 
3.244999999998e+01 -7.000000000000e+00 0.0 
3.342499999998e+01 -7.000000000000e+00 0.0 
3.439999999998e+01 -7.000000000000e+00 0.0 
3.537499999998e+01 -7.000000000000e+00 0.0 
3.634999999998e+01 -7.000000000000e+00 0.0 
3.732499999998e+01 -7.000000000000e+00 0.0 
3.829999999998e+01 -7.000000000000e+00 0.0 
3.927499999999e+01 -7.000000000000e+00 0.0 
4.024999999999e+01 -7.000000000000e+00 0.0 
4.122499999999e+01 -7.000000000000e+00 0.0 
4.219999999999e+01 -7.000000000000e+00 0.0 
4.317499999999e+01 -7.000000000000e+00 0.0 
4.414999999999e+01 -7.000000000000e+00 0.0 
4.512499999999e+01 -7.000000000000e+00 0.0 
4.609999999999e+01 -7.000000000000e+00 0.0 
4.707500000000e+01 -7.000000000000e+00 0.0 
4.805000000000e+01 -7.000000000000e+00 0.0 
4.902500000000e+01 -7.000000000000e+00 0.0 
4.900000000000e+01 -8.000000000000e+00 0.0 
4.800000000000e+01 -8.000000000000e+00 0.0 
4.700000000000e+01 -8.000000000000e+00 0.0 
4.600000000000e+01 -8.000000000000e+00 0.0 
4.500000000000e+01 -8.000000000000e+00 0.0 
4.400000000000e+01 -8.000000000000e+00 0.0 
4.300000000000e+01 -8.000000000000e+00 0.0 
4.200000000000e+01 -8.000000000000e+00 0.0 
4.100000000000e+01 -8.000000000000e+00 0.0 
4.000000000000e+01 -8.000000000000e+00 0.0 
3.900000000000e+01 -8.000000000000e+00 0.0 
3.800000000000e+01 -8.000000000000e+00 0.0 
3.700000000000e+01 -8.000000000000e+00 0.0 
3.600000000000e+01 -8.000000000000e+00 0.0 
3.500000000000e+01 -8.000000000000e+00 0.0 
3.400000000000e+01 -8.000000000000e+00 0.0 
3.300000000000e+01 -8.000000000000e+00 0.0 
3.447058823527e+01 -9.000000000000e+00 0.0 
3.544117647055e+01 -9.000000000000e+00 0.0 
3.641176470582e+01 -9.000000000000e+00 0.0 
3.738235294109e+01 -9.000000000000e+00 0.0 
3.835294117637e+01 -9.000000000000e+00 0.0 
3.932352941164e+01 -9.000000000000e+00 0.0 
4.029411764691e+01 -9.000000000000e+00 0.0 
4.126470588219e+01 -9.000000000000e+00 0.0 
4.223529411748e+01 -9.000000000000e+00 0.0 
4.320588235279e+01 -9.000000000000e+00 0.0 
4.417647058811e+01 -9.000000000000e+00 0.0 
4.514705882342e+01 -9.000000000000e+00 0.0 
4.611764705874e+01 -9.000000000000e+00 0.0 
4.708823529405e+01 -9.000000000000e+00 0.0 
4.805882352937e+01 -9.000000000000e+00 0.0 
4.902941176468e+01 -9.000000000000e+00 0.0 
2.075000000000e+01 -5.000000000006e-01 0.0 
2.225000000000e+01 -1.500000000000e+00 0.0 
2.375000000000e+01 -2.500000000000e+00 0.0 
2.525000000000e+01 -3.500000000000e+00 0.0 
2.675000000000e+01 -4.500000000000e+00 0.0 
2.825000000000e+01 -5.500000000000e+00 0.0 
2.975000000000e+01 -6.500000000000e+00 0.0 
3.125000000000e+01 -7.500000000000e+00 0.0 
3.275000000000e+01 -8.500000000000e+00 0.0 
3.425000000000e+01 -9.500000000000e+00 0.0 
2.226951693683e+01 -2.403913980114e+00 0.0 
1.650149491944e+01 -1.913490915758e+01 0.0 
1.050042386896e+01 -8.504605092970e-01 0.0 
1.553146524712e+01 -8.281255032105e-01 0.0 
1.150000000008e+01 -1.913397459621e+01 0.0 
2.530060260647e+01 -4.428336431260e+00 0.0 
8.651114563942e-01 -1.052096295641e+01 0.0 
2.050000000013e+01 -1.913397459622e+01 0.0 
2.819198729811e+01 -6.399519052838e+00 0.0 
2.445670302931e+01 -1.915649188023e+01 0.0 
3.117591465718e+01 -8.394293040695e+00 0.0 
7.465053044742e+00 -1.920411160581e+01 0.0 
6.398295709691e+00 -8.230098819370e-01 0.0 
2.849659607461e+01 -1.914296187762e+01 0.0 
3.418732642882e+01 -1.040265792588e+01 0.0 
8.386450935063e-01 -6.533605142809e+00 0.0 
9.178661865596e-01 -1.329769195597e+01 0.0 
3.149448624493e+01 -1.910466733764e+01 0.0 
3.552916747426e+01 -1.914628590759e+01 0.0 
4.449210346537e+01 -1.914359085008e+01 0.0 
4.140975975145e+01 -1.906941860733e+01 0.0 
3.847475958753e+01 -1.916622382724e+01 0.0 
3.653774794640e+01 -1.088712800241e+01 0.0 
4.047886341787e+01 -1.090139014048e+01 0.0 
4.348006339825e+01 -1.092792621489e+01 0.0 
4.919519968029e+01 -1.451526755068e+01 0.0 
4.500000000032e+00 -1.913397459621e+01 0.0 
1.856136921614e+01 -8.212235170404e-01 0.0 
3.499895312306e+00 -8.661165539723e-01 0.0 
9.076088696565e-01 -1.642306201891e+01 0.0 
4.655174095477e+01 -1.086183387525e+01 0.0 
9.430688970604e-01 -3.496112672958e+00 0.0 
3.353992337063e+01 -1.901202090820e+01 0.0 
2.249746016977e+01 -1.921262287282e+01 0.0 
2.650122741777e+01 -1.916123026018e+01 0.0 
1.863571384842e+01 -1.908325534840e+01 0.0 
1.450089971693e+01 -1.917691901860e+01 0.0 
1.350044695317e+01 -8.659695299584e-01 0.0 
3.849987469880e+01 -1.084154983397e+01 0.0 
9.454419857884e+00 -1.900818879936e+01 0.0 
4.917398660523e+01 -1.645692866081e+01 0.0 
8.500000000000e+00 -8.660254037844e-01 0.0 
8.660319230785e-01 -8.500111697188e+00 0.0 
4.649022621545e+01 -1.930506220113e+01 0.0 
2.667688107845e+01 -5.420288124331e+00 0.0 
2.379251615665e+01 -3.412225477429e+00 0.0 
2.966631491830e+01 -7.389030232731e+00 0.0 
3.267915035995e+01 -9.396934932445e+00 0.0 
2.074836922338e+01 -1.320054020319e+00 0.0 
4.915985743621e+01 -1.261973384855e+01 0.0 
2.527129768623e+00 -1.931592414663e+01 0.0 
1.538676247410e+00 -8.436956619311e-01 0.0 
4.908096641539e+01 -1.842484004551e+01 0.0 
3.478612492673e+01 -1.090889364140e+01 0.0 
3.409757055860e+01 -1.131991530427e+01 0.0 
3.501895309466e+01 -1.177687842717e+01 0.0 
3.407758073088e+01 -1.224293381580e+01 0.0 
3.484541875390e+01 -1.277051428430e+01 0.0 
3.400322025842e+01 -1.319022775640e+01 0.0 
3.321672625034e+01 -1.266779191233e+01 0.0 
3.315244139236e+01 -1.360984106532e+01 0.0 
3.236335186892e+01 -1.308463225210e+01 0.0 
3.478337442841e+01 -1.372341158982e+01 0.0 
3.230105923633e+01 -1.403023731610e+01 0.0 
3.150954055289e+01 -1.350301767700e+01 0.0 
3.144604792090e+01 -1.444931742516e+01 0.0 
3.065653897123e+01 -1.392357262981e+01 0.0 
3.071897610812e+01 -1.297447031198e+01 0.0 
2.986790411740e+01 -1.339226181535e+01 0.0 
2.993181466745e+01 -1.244703272398e+01 0.0 
2.908023061869e+01 -1.286254537734e+01 0.0 
2.901619051372e+01 -1.380881655279e+01 0.0 
2.822986160390e+01 -1.327695262116e+01 0.0 
2.829453476870e+01 -1.233265343811e+01 0.0 
2.744542905518e+01 -1.274510491105e+01 0.0 
2.751120089246e+01 -1.180368086886e+01 0.0 
2.666218649885e+01 -1.221619339205e+01 0.0 
2.672371209234e+01 -1.127125228527e+01 0.0 
2.587763216302e+01 -1.168539979114e+01 0.0 
2.581165585299e+01 -1.262994410089e+01 0.0 
2.502890882577e+01 -1.209827323619e+01 0.0 
2.509631327757e+01 -1.115492410304e+01 0.0 
2.424662989877e+01 -1.156630981079e+01 0.0 
2.431704046904e+01 -1.062389179334e+01 0.0 
2.346445438728e+01 -1.103427680694e+01 0.0 
2.339382552877e+01 -1.197964871788e+01 0.0 
2.260936050780e+01 -1.144513277642e+01 0.0 
2.268075012022e+01 -1.049911928216e+01 0.0 
2.182525737661e+01 -1.090920811464e+01 0.0 
2.189682319817e+01 -9.961716944568e+00 0.0 
2.104174127792e+01 -1.037266986667e+01 0.0 
2.111304367575e+01 -9.424179358711e+00 0.0 
2.025306185381e+01 -9.832727364719e+00 0.0 
2.018141124247e+01 -1.079140628871e+01 0.0 
1.938594498257e+01 -1.025147354112e+01 0.0 
1.946106490453e+01 -9.288010758448e+00 0.0 
1.858929958352e+01 -9.706319802516e+00 0.0 
1.851540991219e+01 -1.067205988724e+01 0.0 
1.771485303178e+01 -1.012504443115e+01 0.0 
1.764134552256e+01 -1.109360378538e+01 0.0 
1.683745148095e+01 -1.054496365337e+01 0.0 
1.691852964353e+01 -9.582555261178e+00 0.0 
1.603603813062e+01 -1.000160132379e+01 0.0 
1.595824239350e+01 -1.096750698862e+01 0.0 
1.515080624291e+01 -1.041639501931e+01 0.0 
1.523171602559e+01 -9.451711491453e+00 0.0 
1.434621060709e+01 -9.871956467464e+00 0.0 
1.426777178765e+01 -1.083749501371e+01 0.0 
1.345775282374e+01 -1.028803175500e+01 0.0 
1.354103873368e+01 -9.324918457162e+00 0.0 
1.265072018622e+01 -9.742612837270e+00 0.0 
1.257285762070e+01 -1.071557782384e+01 0.0 
1.175874815690e+01 -1.015972324288e+01 0.0 
1.184203019714e+01 -9.193604071377e+00 0.0 
1.094927709905e+01 -9.612103238656e+00 0.0 
1.086938022910e+01 -1.058685085646e+01 0.0 
1.005424098961e+01 -1.002939116380e+01 0.0 
9.977974613295e+00 -1.101324897989e+01 0.0 
1.012915646404e+01 -9.051815821181e+00 0.0 
9.237127782494e+00 -9.471239055559e+00 0.0 
9.308426593771e+00 -8.483376461131e+00 0.0 
8.418806073345e+00 -8.910712374517e+00 0.0 
2.253688464062e+01 -1.239459402279e+01 0.0 
8.495126726666e+00 -7.921646665254e+00 0.0 
9.389727383206e+00 -7.512103628377e+00 0.0 
7.601560812974e+00 -8.349460349344e+00 0.0 
7.525680547759e+00 -9.339736686940e+00 0.0 
7.677888324502e+00 -7.359727833346e+00 0.0 
6.782001206724e+00 -7.788454494773e+00 0.0 
6.858778622885e+00 -6.797338062822e+00 0.0 
2.196596590865e+01 -8.979025665442e+00 0.0 
2.816540108272e+01 -1.422634142353e+01 0.0 
5.961601194403e+00 -7.226824010712e+00 0.0 
6.038171749656e+00 -6.234825887079e+00 0.0 
6.936257279557e+00 -5.805287640737e+00 0.0 
6.115068918323e+00 -5.242109758768e+00 0.0 
3.564391741903e+01 -1.329240553876e+01 0.0 
3.558115605778e+01 -1.425902892003e+01 0.0 
3.645445282201e+01 -1.381970786460e+01 0.0 
3.639744204358e+01 -1.479198128612e+01 0.0 
3.727266909778e+01 -1.435399586226e+01 0.0 
5.216667013081e+00 -5.671788584287e+00 0.0 
3.220697293295e+01 -1.499594545107e+01 0.0 
3.551112158269e+01 -1.523479869250e+01 0.0 
2.836056961467e+01 -1.139032434851e+01 0.0 
2.516730388602e+01 -1.021382726837e+01 0.0 
1.844436907403e+01 -1.164097215196e+01 0.0 
5.885434318740e+00 -8.218694781467e+00 0.0 
5.064071066867e+00 -7.656614643901e+00 0.0 
4.988089103470e+00 -8.649722082718e+00 0.0 
1.079421050408e+01 -1.157014985435e+01 0.0 
9.902420005256e+00 -1.199903342656e+01 0.0 
1.071994252214e+01 -1.255727909771e+01 0.0 
9.826974788171e+00 -1.298659581767e+01 0.0 
1.064607883789e+01 -1.354595476388e+01 0.0 
9.751541265343e+00 -1.397556905071e+01 0.0 
8.932296185869e+00 -1.341553353988e+01 0.0 
8.856399248106e+00 -1.440570715508e+01 0.0 
8.036186803543e+00 -1.384470558472e+01 0.0 
1.057112875118e+01 -1.453516759081e+01 0.0 
1.146582585687e+01 -1.410539926903e+01 0.0 
7.959894480382e+00 -1.483563350928e+01 0.0 
7.138792279156e+00 -1.427465094140e+01 0.0 
7.062506792418e+00 -1.526615385482e+01 0.0 
6.240693558277e+00 -1.470508863040e+01 0.0 
6.316957575451e+00 -1.371212581281e+01 0.0 
5.418183007107e+00 -1.414253605022e+01 0.0 
5.494748364428e+00 -1.314886770603e+01 0.0 
1.756825565873e+01 -1.206433872514e+01 0.0 
1.837565773345e+01 -1.261356468266e+01 0.0 
1.749574831391e+01 -1.303769280014e+01 0.0 
1.830539187332e+01 -1.358828364284e+01 0.0 
1.742278925170e+01 -1.401367746928e+01 0.0 
1.823303007798e+01 -1.456432294258e+01 0.0 
1.734941694138e+01 -1.499213734361e+01 0.0 
1.653760041637e+01 -1.443920312098e+01 0.0 
3.056237977307e+01 -1.487132260174e+01 0.0 
1.866469084762e+01 -8.742953000418e+00 0.0 
1.953669694916e+01 -8.326038909849e+00 0.0 
1.874194303780e+01 -7.780688158966e+00 0.0 
1.961032016741e+01 -7.366854697285e+00 0.0 
1.881715755159e+01 -6.821102209649e+00 0.0 
1.968369797150e+01 -6.407747217358e+00 0.0 
1.889237123259e+01 -5.858375520026e+00 0.0 
1.802038875366e+01 -6.276202618170e+00 0.0 
1.809793837984e+01 -5.307629520489e+00 0.0 
1.721985207997e+01 -5.728242054488e+00 0.0 
1.729850893523e+01 -4.756990819347e+00 0.0 
1.641745664240e+01 -5.174636548624e+00 0.0 
2.495978509456e+01 -1.304406404294e+01 0.0 
1.911567814831e+01 -1.413854250293e+01 0.0 
1.904387332608e+01 -1.511463127723e+01 0.0 
1.992115934240e+01 -1.468788025898e+01 0.0 
7.013706899628e+00 -4.812582868662e+00 0.0 
5.342091874585e+00 -1.513658157269e+01 0.0 
1.139098043784e+01 -1.509488509480e+01 0.0 
1.228151810610e+01 -1.465617481983e+01 0.0 
1.646373110164e+01 -1.541993323337e+01 0.0 
5.293328636712e+00 -4.678385108584e+00 0.0 
1.975965862987e+01 -5.448124345648e+00 0.0 
2.054318374236e+01 -5.992561293251e+00 0.0 
3.721453439063e+01 -1.533216152738e+01 0.0 
3.809302733893e+01 -1.489235527381e+01 0.0 
1.220852788900e+01 -1.565304565230e+01 0.0 
4.394120899730e+00 -5.108397613210e+00 0.0 
8.779354620288e+00 -1.539524721159e+01 0.0 
1.817791047702e+01 -4.338570146253e+00 0.0 
4.518860013839e+00 -1.457343189307e+01 0.0 
4.442712140414e+00 -1.556841391069e+01 0.0 
8.115343466391e+00 -1.285760324283e+01 0.0 
1.985334703171e+01 -1.566478400426e+01 0.0 
2.071953850276e+01 -1.522074243119e+01 0.0 
1.634012953883e+01 -6.154777738301e+00 0.0 
1.553479994708e+01 -5.593730508879e+00 0.0 
1.561265946942e+01 -4.617761762647e+00 0.0 
1.470674212978e+01 -5.064576488228e+00 0.0 
1.464498299883e+01 -6.026514471420e+00 0.0 
1.383271561817e+01 -5.467796261169e+00 0.0 
1.389241253067e+01 -4.504338666645e+00 0.0 
1.301868735463e+01 -4.907185188626e+00 0.0 
1.294514184846e+01 -5.888160903592e+00 0.0 
1.212955968622e+01 -5.328262335277e+00 0.0 
1.220721122383e+01 -4.341264976687e+00 0.0 
1.131324345897e+01 -4.766773516508e+00 0.0 
5.266597955397e+00 -1.613148974258e+01 0.0 
1.737805990867e+01 -3.786677807525e+00 0.0 
3.078438094513e+01 -1.203225297748e+01 0.0 
1.131569882285e+01 -1.608511932110e+01 0.0 
1.728478341782e+01 -1.596017432313e+01 0.0 
3.803465906019e+01 -1.587509751228e+01 0.0 
3.891681276677e+01 -1.543395196905e+01 0.0 
3.897340985302e+01 -1.444710288980e+01 0.0 
3.980095968193e+01 -1.499059496613e+01 0.0 
3.974334598189e+01 -1.597921884150e+01 0.0 
4.062964983717e+01 -1.553518690417e+01 0.0 
4.068729602479e+01 -1.454434445295e+01 0.0 
4.151772679790e+01 -1.508974196007e+01 0.0 
4.157505195739e+01 -1.409694289912e+01 0.0 
4.240699932656e+01 -1.464347955968e+01 0.0 
4.234898051011e+01 -1.563721375790e+01 0.0 
4.323934606035e+01 -1.519082036405e+01 0.0 
4.329740528208e+01 -1.419587509788e+01 0.0 
4.413056841369e+01 -1.474359631875e+01 0.0 
4.418850110108e+01 -1.374786684042e+01 0.0 
4.502219770667e+01 -1.429605103525e+01 0.0 
4.496411937907e+01 -1.529215882720e+01 0.0 
4.490027319897e+00 -4.154167794594e+00 0.0 
1.565080385988e+01 -1.486411982419e+01 0.0 
1.557610691279e+01 -1.584855627870e+01 0.0 
4.195350646612e+00 -8.089117689096e+00 0.0 
4.124027797830e+00 -9.082831955007e+00 0.0 
4.917944318925e+00 -9.643530901533e+00 0.0 
4.020105689502e+00 -1.007439673661e+01 0.0 
4.587185899277e+01 -1.484039992728e+01 0.0 
4.580078661551e+01 -1.584043391042e+01 0.0 
2.061956522375e+01 -5.046701343981e+00 0.0 
2.139572955529e+01 -5.579553449826e+00 0.0 
3.715344357292e+01 -1.631485124583e+01 0.0 
3.618886196443e+00 -1.500471207167e+01 0.0 
3.695606940204e+00 -1.400939692294e+01 0.0 
2.438890661143e+01 -9.686110599723e+00 0.0 
2.523267572778e+01 -9.276766000622e+00 0.0 
2.446094171539e+01 -8.751904591412e+00 0.0 
2.529089822738e+01 -8.321495612547e+00 0.0 
2.606882688827e+01 -8.864724051119e+00 0.0 
2.452116646430e+01 -7.792756462004e+00 0.0 
1.235543269617e+01 -1.365845617339e+01 0.0 
4.318116874181e+01 -1.618567469992e+01 0.0 
7.835066111909e+00 -5.376366223896e+00 0.0 
7.905687335704e+00 -4.382539065697e+00 0.0 
3.542640009567e+00 -1.600035116542e+01 0.0 
1.572431503071e+01 -1.388358386695e+01 0.0 
2.574684696680e+01 -1.357896141127e+01 0.0 
2.488842657651e+01 -1.399674354505e+01 0.0 
2.568301775611e+01 -1.453552048595e+01 0.0 
2.481535572009e+01 -1.495542756508e+01 0.0 
2.561729699688e+01 -1.549784648532e+01 0.0 
2.474623061296e+01 -1.592058894178e+01 0.0 
2.394234041695e+01 -1.537572575827e+01 0.0 
2.065825452567e+01 -1.621899055217e+01 0.0 
2.387180528935e+01 -1.634552264687e+01 0.0 
4.585364400844e+01 -1.383912334080e+01 0.0 
1.998744432052e+01 -1.370317155541e+01 0.0 
1.205356951443e+01 -6.313580285498e+00 0.0 
5.396543905849e+00 -3.731818611283e+00 0.0 
1.139652573295e+01 -3.745819399350e+00 0.0 
3.574124306703e+00 -4.551456826011e+00 0.0 
3.494140761930e+00 -5.539787055649e+00 0.0 
1.213651452413e+01 -1.664505033022e+01 0.0 
2.555045568519e+01 -1.646529356744e+01 0.0 
2.641671114986e+01 -1.603899382371e+01 0.0 
2.612920721894e+01 -7.906435260873e+00 0.0 
2.690339829698e+01 -8.456969591431e+00 0.0 
1.978024383368e+01 -1.664410216353e+01 0.0 
3.732829979082e+01 -1.336926601859e+01 0.0 
4.074336584605e+01 -1.355133328401e+01 0.0 
4.163204691081e+01 -1.310280943992e+01 0.0 
3.773826114429e+00 -3.493444309145e+00 0.0 
1.228783001032e+01 -3.374822835872e+00 0.0 
4.057110462520e+01 -1.652588478000e+01 0.0 
2.132535497898e+01 -6.523623360525e+00 0.0 
2.216932532211e+01 -6.110044769206e+00 0.0 
1.825781152128e+01 -3.370146817147e+00 0.0 
1.745679445888e+01 -2.812942552063e+00 0.0 
4.666517057280e+01 -1.539981381543e+01 0.0 
4.660575894464e+01 -1.639014410186e+01 0.0 
4.838230979954e+00 -1.063643436446e+01 0.0 
3.938942630206e+00 -1.106778981745e+01 0.0 
1.302967218620e+01 -1.621373452436e+01 0.0 
1.049548003190e+01 -4.204825123240e+00 0.0 
4.573571907195e+01 -1.683820511148e+01 0.0 
1.483686335807e+01 -1.430849689310e+01 0.0 
1.490982658890e+01 -1.332679386284e+01 0.0 
3.190805600162e+00 -9.510968358545e+00 0.0 
2.146625721848e+01 -4.642437303115e+00 0.0 
2.069866208266e+01 -4.111852942193e+00 0.0 
1.286859345584e+01 -6.873252723348e+00 0.0 
1.041794493184e+01 -5.194814260291e+00 0.0 
2.671081808965e+00 -4.976806516331e+00 0.0 
1.295786792925e+01 -1.720506531799e+01 0.0 
3.968438206511e+01 -1.696869067241e+01 0.0 
2.308550456051e+01 -1.579963151273e+01 0.0 
2.315593682844e+01 -1.482967445235e+01 0.0 
2.299471449450e+01 -1.677069968132e+01 0.0 
1.057344714696e+01 -3.214252277840e+00 0.0 
1.124057603753e+01 -1.707713739755e+01 0.0 
2.718402535754e+00 -1.543629882103e+01 0.0 
2.638549692805e+01 -1.696744916809e+01 0.0 
2.723416349007e+01 -1.658104204545e+01 0.0 
2.210193351704e+01 -7.046769643417e+00 0.0 
2.295180925161e+01 -6.657397605239e+00 0.0 
2.301355235833e+01 -5.709111896800e+00 0.0 
2.379052718281e+01 -6.254965406962e+00 0.0 
3.243528601237e+01 -1.214181853533e+01 0.0 
2.287977995457e+01 -7.583722368300e+00 0.0 
2.999876029544e+01 -1.150837653096e+01 0.0 
3.084435366963e+01 -1.109693775882e+01 0.0 
3.006650579669e+01 -1.057778994262e+01 0.0 
2.683802665066e+01 -9.386863216633e+00 0.0 
2.768641973621e+01 -8.988883915666e+00 0.0 
2.040296980397e+01 -7.903629133404e+00 0.0 
1.925235024054e+01 -1.218872783130e+01 0.0 
5.735667000424e+00 -1.020577277283e+01 0.0 
6.396559909872e+00 -1.272326295703e+01 0.0 
1.161199420714e+01 -1.212812778229e+01 0.0 
4.229046132615e+01 -1.663084237572e+01 0.0 
4.312275399692e+01 -1.718087491556e+01 0.0 
4.335502068163e+01 -1.320039231514e+01 0.0 
4.424630298089e+01 -1.275160688731e+01 0.0 
7.090116643816e+00 -3.818998061530e+00 0.0 
7.989472176569e+00 -3.389238711200e+00 0.0 
9.085824861778e+00 -1.144036167408e+01 0.0 
1.041972423731e+01 -1.651614080893e+01 0.0 
3.797525112640e+01 -1.686052038746e+01 0.0 
3.709114253394e+01 -1.730125999865e+01 0.0 
3.626966748340e+01 -1.675477052919e+01 0.0 
1.385164591440e+01 -1.677597757552e+01 0.0 
1.787152588784e+01 -8.198993896093e+00 0.0 
1.668849729812e+01 -1.248560611628e+01 0.0 
1.659546177905e+01 -3.232482605530e+00 0.0 
2.332214717345e+01 -1.292598167641e+01 0.0 
7.168238450786e+00 -2.824711686516e+00 0.0 
2.894878403906e+01 -1.475427524446e+01 0.0 
2.646763248247e+00 -1.643270107952e+01 0.0 
3.467431944285e+00 -1.699648837348e+01 0.0 
2.059475877282e+01 -1.719473628526e+01 0.0 
3.333868355437e+01 -1.080596971682e+01 0.0 
2.246451062637e+01 -1.334557761546e+01 0.0 
2.167821896388e+01 -1.280847834858e+01 0.0 
3.089653185767e+01 -1.017198487212e+01 0.0 
3.012604365669e+01 -9.657298805968e+00 0.0 
2.929627299435e+01 -1.006100135274e+01 0.0 
2.936201435219e+01 -9.136748899251e+00 0.0 
1.198219052702e+01 -7.291887238230e+00 0.0 
1.116702076035e+01 -6.731976101053e+00 0.0 
2.551388807505e+01 -1.746927036981e+01 0.0 
2.378639090370e+01 -1.728678807149e+01 0.0 
2.718543627188e+01 -1.748668016909e+01 0.0 
2.804681050301e+01 -1.712626668293e+01 0.0 
1.970737034667e+01 -1.762317646822e+01 0.0 
1.889535776135e+01 -1.707158098231e+01 0.0 
2.593777711283e+00 -5.971157087874e+00 0.0 
2.773468281110e+01 -8.067164273938e+00 0.0 
4.051205884347e+01 -1.751819982458e+01 0.0 
3.166903145421e+01 -1.068032992414e+01 0.0 
1.033042452886e+01 -1.748285844336e+01 0.0 
9.519274604626e+00 -1.694349240233e+01 0.0 
1.668308673328e+01 -2.255861778986e+00 0.0 
1.570531902832e+01 -2.676795860126e+00 0.0 
4.655826903379e+01 -1.736656245706e+01 0.0 
2.384148070773e+01 -5.328744256413e+00 0.0 
2.460255123641e+01 -5.852182672816e+00 0.0 
2.306638135119e+01 -4.798935440613e+00 0.0 
8.467720450578e-01 -1.849576263072e+01 0.0 
4.849657322345e+01 -1.084860705506e+01 0.0 
2.565860899507e+00 -1.742859793981e+01 0.0 
2.764418872564e+01 -9.927142821799e+00 0.0 
4.565165880064e+01 -1.785336695404e+01 0.0 
2.162231831329e+01 -1.376528337468e+01 0.0 
2.360646352969e+01 -9.136041963102e+00 0.0 
1.392738739903e+01 -1.578285505772e+01 0.0 
4.756405947478e+01 -1.683706841809e+01 0.0 
4.740895034054e+01 -1.793766756892e+01 0.0 
4.080779328826e+01 -1.257387192544e+01 0.0 
4.168907939671e+01 -1.210739129181e+01 0.0 
3.991197722154e+01 -1.300815793917e+01 0.0 
1.905536506762e+01 -3.940076697685e+00 0.0 
1.923879596617e+01 -2.875000734166e+00 0.0 
4.401386745746e+01 -1.673483229438e+01 0.0 
4.247233362525e+00 -7.094581653070e+00 0.0 
3.286051630211e+00 -7.635300020553e+00 0.0 
9.609533347623e+00 -4.594311677967e+00 0.0 
9.523554636369e+00 -5.595597029530e+00 0.0 
5.660336628893e+00 -1.119290329628e+01 0.0 
6.558070063295e+00 -1.076385809362e+01 0.0 
2.809866407414e+01 -1.518037766799e+01 0.0 
2.888868674504e+01 -1.570360690070e+01 0.0 
2.654431550819e+01 -1.411217777162e+01 0.0 
1.402158265969e+01 -1.375404617952e+01 0.0 
1.409592494026e+01 -1.277071998942e+01 0.0 
1.499355196178e+01 -1.235270737023e+01 0.0 
4.221535326155e+01 -1.759335617494e+01 0.0 
4.305583287033e+01 -1.822663146802e+01 0.0 
1.280748808359e+01 -7.834332838285e+00 0.0 
1.368988389326e+01 -7.420529606172e+00 0.0 
1.110091796060e+01 -7.683966794328e+00 0.0 
3.963446145980e+01 -1.794331310122e+01 0.0 
3.423932362213e+00 -1.796415590455e+01 0.0 
4.280814572302e+00 -1.752272834860e+01 0.0 
8.050136380041e+00 -2.421582378631e+00 0.0 
8.888674091650e+00 -2.984264211327e+00 0.0 
2.152839430898e+01 -3.732609965436e+00 0.0 
2.077799585292e+01 -3.183896021866e+00 0.0 
3.618719395821e+01 -1.770276572576e+01 0.0 
3.538165138340e+01 -1.718709995539e+01 0.0 
3.702925326420e+01 -1.828844288807e+01 0.0 
1.756739438711e+00 -5.353284859169e+00 0.0 
2.233710191104e+01 -1.527265621324e+01 0.0 
1.389483555057e+01 -1.771797164730e+01 0.0 
1.475634224300e+01 -1.728357428390e+01 0.0 
1.298797563052e+01 -1.825968924755e+01 0.0 
2.145331271866e+01 -1.673705379077e+01 0.0 
2.133282821169e+01 -1.769400773673e+01 0.0 
2.292139194136e+01 -1.774915400288e+01 0.0 
1.750750053243e+01 -1.861475593469e+00 0.0 
4.830478841772e+01 -1.752611802221e+01 0.0 
4.341203507805e+01 -1.220326745522e+01 0.0 
1.685254151866e+01 -1.443085301632e+00 0.0 
4.431538535165e+01 -1.171841387375e+01 0.0 
4.511308610496e+01 -1.229557320599e+01 0.0 
4.510133242889e+01 -1.123680627466e+01 0.0 
1.846818030617e+00 -4.410877617069e+00 0.0 
3.995468694584e+01 -1.186571542989e+01 0.0 
3.901387459804e+01 -1.242507616755e+01 0.0 
8.966735877533e+00 -1.837818700423e+00 0.0 
4.049310011091e+01 -1.848269508791e+01 0.0 
7.278862053803e+00 -1.918523922691e+00 0.0 
6.429715522129e+00 -2.316676521184e+00 0.0 
9.443505505022e+00 -1.792198868094e+01 0.0 
8.620386951051e+00 -1.737590365556e+01 0.0 
8.571868171503e+00 -1.834436667826e+01 0.0 
7.758629848526e+00 -1.775677907213e+01 0.0 
7.806648388584e+00 -1.680761266021e+01 0.0 
6.908555145436e+00 -1.723746463044e+01 0.0 
4.251709122090e+01 -1.156937480156e+01 0.0 
6.931136405615e+00 -1.832465719263e+01 0.0 
6.015545461353e+00 -1.768865355295e+01 0.0 
5.960535926343e+00 -1.872011001764e+01 0.0 
3.023253444786e+01 -8.761960642196e+00 0.0 
2.454622702599e+01 -6.749421992767e+00 0.0 
2.537499741604e+01 -6.347634963783e+00 0.0 
2.544077378460e+01 -5.431358513649e+00 0.0 
2.801367161747e+01 -1.820907270221e+01 0.0 
2.884507806914e+01 -1.762032095326e+01 0.0 
1.821474531936e+00 -1.588901260460e+01 0.0 
1.821006262604e+00 -1.489370287756e+01 0.0 
4.599962488908e+01 -1.176478780598e+01 0.0 
4.705457470007e+01 -1.172182804229e+01 0.0 
4.667668314802e+01 -1.263464558483e+01 0.0 
4.759648056504e+01 -1.252380987933e+01 0.0 
4.728041618103e+01 -1.341928568376e+01 0.0 
4.825209352360e+01 -1.330491640804e+01 0.0 
4.778118233428e+01 -1.420151961695e+01 0.0 
2.388192727579e+01 -1.826934810142e+01 0.0 
2.381714684947e+01 -4.385917965223e+00 0.0 
3.172733219247e+01 -9.758744265248e+00 0.0 
1.882012070658e+01 -1.805540597212e+01 0.0 
1.805667505243e+01 -1.742221226236e+01 0.0 
2.852599958080e+01 -8.597196079481e+00 0.0 
2.856486123437e+01 -7.661382718527e+00 0.0 
1.111792842875e+01 -1.818223852980e+01 0.0 
2.203322722466e+01 -7.986646678802e+00 0.0 
3.955703676900e+01 -1.903246763601e+01 0.0 
1.944842206513e+01 -8.038750575182e-01 0.0 
1.909882767783e+01 -1.746322740933e+00 0.0 
2.281147422941e+01 -8.525912918334e+00 0.0 
2.850633001468e+01 -9.533271335986e+00 0.0 
2.532883344309e+01 -7.308951659710e+00 0.0 
2.620475466461e+01 -6.979208585400e+00 0.0 
1.396278270396e+01 -1.475095389807e+01 0.0 
9.791001166724e+00 -2.554159793552e+00 0.0 
2.229293380421e+01 -4.269762271052e+00 0.0 
4.677238984118e+01 -1.430071795514e+01 0.0 
2.228658385918e+01 -3.344747535984e+00 0.0 
8.940223674553e-01 -1.543595733415e+01 0.0 
2.118566862474e+01 -8.435876987696e+00 0.0 
2.678325936437e+01 -1.032621195706e+01 0.0 
2.223400220487e+01 -5.179046761770e+00 0.0 
2.375370625384e+01 -7.251580562134e+00 0.0 
3.156971327386e+01 -1.255534750737e+01 0.0 
3.328226391312e+01 -1.172914813316e+01 0.0 
3.250948774219e+01 -1.120157009348e+01 0.0 
2.032993445717e+01 -8.867880112202e+00 0.0 
2.697226974856e+01 -7.536633082045e+00 0.0 
2.707377810386e+01 -6.590835263295e+00 0.0 
2.914099246827e+01 -1.191678458549e+01 0.0 
3.544824072239e+01 -1.621126558525e+01 0.0 
3.456511855436e+01 -1.665054783843e+01 0.0 
3.448395810225e+01 -1.759117813016e+01 0.0 
3.368378673938e+01 -1.708037781328e+01 0.0 
3.375560452567e+01 -1.610973066913e+01 0.0 
3.288001547988e+01 -1.654324255651e+01 0.0 
3.282475929147e+01 -1.749725654692e+01 0.0 
3.199880906313e+01 -1.697294088625e+01 0.0 
3.197001272932e+01 -1.811667776864e+01 0.0 
3.111884713021e+01 -1.742166785755e+01 0.0 
3.120418962865e+01 -1.642155709385e+01 0.0 
3.034666704371e+01 -1.683123833816e+01 0.0 
3.026224379976e+01 -1.772592851714e+01 0.0 
3.046632362943e+01 -1.582232843075e+01 0.0 
1.961344017324e+01 -1.857459447985e+01 0.0 
2.274975894774e+01 -9.532738811922e+00 0.0 
1.833923246887e+01 -2.396746883672e+00 0.0 
1.988859500848e+01 -2.249244376594e+00 0.0 
2.758045562861e+01 -1.086434261689e+01 0.0 
3.247300178163e+01 -1.909930104252e+01 0.0 
3.461947482503e+01 -1.911879848019e+01 0.0 
2.047161538662e+01 -6.941478180358e+00 0.0 
2.750230940214e+01 -1.915490590764e+01 0.0 
3.165081350803e+01 -1.161860780120e+01 0.0 
1.897456727641e+01 -4.889634688522e+00 0.0 
2.549338539756e+01 -1.914858252089e+01 0.0 
3.462873135081e+01 -1.567482276144e+01 0.0 
3.384432415243e+01 -1.512280684518e+01 0.0 
3.471433767690e+01 -1.469086942990e+01 0.0 
3.651470373046e+01 -1.918207952149e+01 0.0 
3.901742690249e+01 -1.345028556517e+01 0.0 
2.153224102692e+01 -1.920169709333e+01 0.0 
1.918382939341e+01 -1.316226275662e+01 0.0 
2.005389162382e+01 -1.271962165174e+01 0.0 
2.011472087878e+01 -1.175029352900e+01 0.0 
3.210679478412e+01 -1.598038618242e+01 0.0 
1.752175226543e+01 -1.914713022656e+01 0.0 
1.696897240059e+01 -1.832772588765e+01 0.0 
1.599682523337e+01 -1.832599992024e+01 0.0 
1.644507199462e+01 -1.743697981535e+01 0.0 
1.549987712903e+01 -1.915192375101e+01 0.0 
3.050250861901e+01 -1.918943550234e+01 0.0 
2.949944061527e+01 -1.922950455235e+01 0.0 
1.375892575273e+01 -6.447160534926e+00 0.0 
1.457223670180e+01 -7.006709243857e+00 0.0 
1.450818793236e+01 -7.965943451779e+00 0.0 
1.538804712402e+01 -7.553409623699e+00 0.0 
1.545817644768e+01 -6.580929593419e+00 0.0 
1.626506893751e+01 -7.129032608911e+00 0.0 
1.619833811522e+01 -8.086588580887e+00 0.0 
1.714448609609e+01 -6.697429609777e+00 0.0 
2.887616543568e+01 -1.668015232137e+01 0.0 
1.349814589130e+01 -1.918225301544e+01 0.0 
1.153887772210e+01 -1.311384581217e+01 0.0 
1.242708159886e+01 -1.267046795531e+01 0.0 
1.249799674267e+01 -1.169005616014e+01 0.0 
6.631723893693e+00 -9.774184881867e+00 0.0 
7.451471631867e+00 -1.033148796006e+01 0.0 
7.377795355458e+00 -1.132196345268e+01 0.0 
5.810931797536e+00 -9.211654212252e+00 0.0 
2.402683899133e+01 -1.441378562320e+01 0.0 
1.249768692036e+01 -1.917388426624e+01 0.0 
1.580373499437e+01 -1.290751860664e+01 0.0 
8.344650507834e+00 -9.898403995170e+00 0.0 
3.750622115305e+01 -1.086526401533e+01 0.0 
3.699391251667e+01 -1.171695900794e+01 0.0 
3.606517829518e+01 -1.173717504500e+01 0.0 
3.650257641795e+01 -1.270047380221e+01 0.0 
3.808951488918e+01 -1.183518714175e+01 0.0 
4.760380962420e+00 -1.162484888315e+01 0.0 
3.861210370848e+00 -1.205657631736e+01 0.0 
3.038284309476e+00 -1.149851280664e+01 0.0 
2.961598794889e+00 -1.248856794980e+01 0.0 
2.138953225512e+00 -1.193212674534e+01 0.0 
2.227383593457e+00 -1.096258903918e+01 0.0 
2.043265419276e+00 -1.292158472959e+01 0.0 
1.252449446028e+00 -1.225502002753e+01 0.0 
3.949985210740e+01 -1.086594001795e+01 0.0 
1.453499444792e+01 -8.768805922472e-01 0.0 
1.403518950933e+01 -1.749965556633e+00 0.0 
1.300715031023e+01 -1.714737233040e+00 0.0 
1.350929389899e+01 -2.527443911291e+00 0.0 
1.449600910711e+01 -2.595486162864e+00 0.0 
1.395693872901e+01 -3.484211041558e+00 0.0 
1.495105865208e+01 -3.364609636216e+00 0.0 
1.508822528740e+01 -1.766586020494e+00 0.0 
1.250223858430e+01 -8.634590186802e-01 0.0 
1.200279523409e+01 -1.709044504992e+00 0.0 
1.150086239419e+01 -8.592789190668e-01 0.0 
1.101482754194e+01 -1.677730591922e+00 0.0 
1.148018564526e+01 -2.659323866909e+00 0.0 
8.800552119754e+00 -3.989875954728e+00 0.0 
3.452790439430e+00 -1.901136170646e+01 0.0 
8.658451825200e-01 -9.503462241795e+00 0.0 
1.694787786797e+00 -9.000589234502e+00 0.0 
1.703436717094e+00 -8.038819004041e+00 0.0 
2.594197971110e+00 -8.563955242845e+00 0.0 
1.630513735412e+00 -9.907244747511e+00 0.0 
8.566859292791e-01 -7.512203837972e+00 0.0 
1.685461277022e+00 -7.164280248030e+00 0.0 
2.506394468801e+00 -8.623386730818e-01 0.0 
2.007475081581e+00 -1.727729545205e+00 0.0 
9.211534699767e-01 -1.628791366312e+00 0.0 
1.500000000020e+00 -2.598063549486e+00 0.0 
2.482078929963e+00 -2.553580088725e+00 0.0 
2.999795253092e+00 -1.732169015019e+00 0.0 
3.999712607169e+00 -1.728832897453e+00 0.0 
4.499752199340e+00 -8.656478679175e-01 0.0 
4.964377774841e+00 -1.730129617941e+00 0.0 
4.425017908337e+00 -2.597541756243e+00 0.0 
5.446573195014e+00 -8.410144840023e-01 0.0 
4.915722346614e+01 -1.550640962770e+01 0.0 
4.826794919243e+01 -1.600000000000e+01 0.0 
1.053139533193e+01 -1.911782884365e+01 0.0 
4.156049861949e+01 -1.095160998589e+01 0.0 
9.494526624416e+00 -8.650570090219e-01 0.0 
4.555762166964e+01 -1.897098103585e+01 0.0 
4.250656411371e+01 -1.914387356218e+01 0.0 
4.350906466345e+01 -1.917234727395e+01 0.0 
8.759665722424e-01 -1.746422130609e+01 0.0 
1.698936011838e+00 -1.795012186674e+01 0.0 
4.742476811029e+01 -1.900090177972e+01 0.0 
7.749196752349e+00 -6.368049313489e+00 0.0 
3.361572113416e+01 -1.798765193915e+01 0.0 
4.484660149212e+01 -1.728661231383e+01 0.0 
1.984038172228e+01 -4.502575320116e+00 0.0 
1.035080352627e+01 -6.166639575753e+00 0.0 
2.753558010652e+00 -1.444909521181e+01 0.0 
7.217069543032e+00 -1.328635391078e+01 0.0 
4.364336727739e+00 -1.655585677381e+01 0.0 
4.595208426108e+00 -1.357919665443e+01 0.0 
6.164967006980e+00 -1.569873454630e+01 0.0 
1.487855768353e+01 -1.826523774028e+01 0.0 
2.791876456372e+00 -4.019632415181e+00 0.0 
4.246464893515e+01 -1.364898659620e+01 0.0 
4.503855590351e+01 -1.329552780944e+01 0.0 
4.407239109604e+01 -1.573900004093e+01 0.0 
5.141054449252e+00 -6.664290382472e+00 0.0 
3.141083947149e+00 -1.055790764912e+01 0.0 
6.196463198741e+00 -4.256497932609e+00 0.0 
2.599618716181e+01 -1.836893455464e+01 0.0 
2.923057372337e+01 -1.098461757645e+01 0.0 
1.168343877486e+01 -1.114079645041e+01 0.0 
6.706222096238e+00 -8.780364234441e+00 0.0 
8.567858614669e+00 -6.943121440850e+00 0.0 
1.123755132901e+01 -5.753525820030e+00 0.0 
2.353456234423e+01 -1.008536320953e+01 0.0 
9.162073319168e+00 -1.045593739109e+01 0.0 
9.676343469685e+00 -1.496493008366e+01 0.0 
4.490637882905e+01 -1.628778970202e+01 0.0 
7.398129387772e+00 -9.639977982323e-01 0.0 
1.049641705805e+01 -1.552503975272e+01 0.0 
9.010356286268e+00 -1.242805042052e+01 0.0 
3.985573925497e+01 -1.399863651620e+01 0.0 
1.816196318262e+01 -1.554066497931e+01 0.0 
1.306332244168e+01 -3.963646550326e+00 0.0 
4.145850903932e+01 -1.608094559275e+01 0.0 
3.794664933633e+01 -1.779020121986e+01 0.0 
3.819614412903e+01 -1.290749321016e+01 0.0 
6.270014188119e+00 -3.255093186826e+00 0.0 
4.251165370388e+01 -1.263870364997e+01 0.0 
1.207347709171e+01 -1.763942826023e+01 0.0 
3.633240829927e+01 -1.577330481104e+01 0.0 
4.319052668832e+00 -6.101812561904e+00 0.0 
1.676492415806e+01 -1.151547901392e+01 0.0 
2.594059220037e+01 -1.074225223009e+01 0.0 
3.340750911501e+01 -9.898764354137e+00 0.0 
4.397619591281e+01 -1.769773736461e+01 0.0 
2.175611595028e+01 -1.185718747128e+01 0.0 
1.641818733106e+01 -1.640685203215e+01 0.0 
1.661211421753e+01 -1.346121366338e+01 0.0 
3.428853504935e+00 -6.551993389271e+00 0.0 
8.700728832502e+00 -1.638460872825e+01 0.0 
1.931369795309e+01 -1.121629383702e+01 0.0 
4.139798872363e+01 -1.706922153459e+01 0.0 
2.647837478700e+01 -1.507353829290e+01 0.0 
1.779469616424e+01 -9.161615782908e+00 0.0 
3.885879219319e+01 -1.642026488918e+01 0.0 
1.338194936770e+01 -1.125916521471e+01 0.0 
1.897071181111e+01 -1.609204322578e+01 0.0 
2.844308548793e+01 -1.046221003096e+01 0.0 
2.659854702194e+01 -1.316109415760e+01 0.0 
2.979604503271e+01 -1.433296157755e+01 0.0 
2.417694041347e+01 -1.251231397779e+01 0.0 
1.807401327411e+00 -1.388891148480e+01 0.0 
9.599810618782e+00 -1.595439365034e+01 0.0 
1.652144692160e+01 -4.205392788472e+00 0.0 
2.367839450246e+01 -8.188385218643e+00 0.0 
3.814894930468e+01 -1.390748338767e+01 0.0 
2.466448215774e+01 -1.685878545680e+01 0.0 
4.134044524611e+01 -1.806610045954e+01 0.0 
2.600511411958e+01 -9.801774120648e+00 0.0 
7.882158050716e+00 -1.582364037353e+01 0.0 
3.881607873422e+01 -1.737970515013e+01 0.0 
8.270182347708e+00 -1.088622154920e+01 0.0 
8.672520392520e-01 -4.532984309881e+00 0.0 
1.993447205337e+01 -3.579061902667e+00 0.0 
1.794616079549e+01 -7.238038888498e+00 0.0 
2.097277068165e+01 -1.132450168636e+01 0.0 
8.194803300681e+00 -1.187214224265e+01 0.0 
3.522279404911e+01 -1.823342818178e+01 0.0 
6.984481050295e+00 -1.625271465557e+01 0.0 
1.309433007797e+01 -1.521718594215e+01 0.0 
2.150246167611e+01 -1.885399038185e+00 0.0 
3.250689370209e+01 -1.028789870535e+01 0.0 
6.085886272238e+00 -1.668342132851e+01 0.0 
1.588455661727e+01 -1.193498985921e+01 0.0 
1.809323400821e+01 -1.651110084195e+01 0.0 
1.348885082381e+00 -1.136065576512e+01 0.0 
2.497670221995e+01 -1.834631276173e+01 0.0 
2.937062818424e+01 -8.233711194470e+00 0.0 
5.185823744469e+00 -1.711566910207e+01 0.0 
1.477497877209e+01 -1.530177014512e+01 0.0 
2.125346158933e+01 -7.473003997367e+00 0.0 
4.751561118290e+01 -1.084897772632e+01 0.0 
5.056026576843e+00 -1.825750475525e+01 0.0 
1.473948554523e+01 -1.634577436309e+01 0.0 
2.410566630936e+01 -1.345970002612e+01 0.0 
1.507337507513e+01 -1.138527895328e+01 0.0 
3.189857338687e+01 -8.887781229006e+00 0.0 
7.298712468334e+00 -1.230231046246e+01 0.0 
2.738235495295e+01 -1.368931690364e+01 0.0 
3.750141041969e+01 -1.920449893070e+01 0.0 
1.557271965640e+01 -1.683317951731e+01 0.0 
3.393731848929e+01 -1.413034777044e+01 0.0 
6.482156824153e+00 -1.174575135362e+01 0.0 
2.077971718439e+01 -1.421279621836e+01 0.0 
3.455084320178e+00 -2.562590040585e+00 0.0 
3.099056096250e+01 -9.270280416035e+00 0.0 
5.580176125418e+00 -1.217387969259e+01 0.0 
1.707247630389e+01 -7.660651981710e+00 0.0 
1.418658814174e+01 -1.180390575393e+01 0.0 
2.049103025389e+01 -1.811296706038e+01 0.0 
4.680386172316e+00 -1.260396879301e+01 0.0 
1.699679896554e+01 -8.624561788199e+00 0.0 
3.779470168555e+00 -1.303424899720e+01 0.0 
3.036589870126e+01 -7.879832518349e+00 0.0 
3.306993001774e+01 -1.457671062095e+01 0.0 
2.840150110165e+00 -1.346530088269e+01 0.0 
2.732011135052e+01 -1.464591214560e+01 0.0 
5.423639259568e+00 -2.659711955016e+00 0.0 
2.324455961696e+01 -1.387269388211e+01 0.0 
1.752768355571e+00 -1.693128613594e+01 0.0 
1.020244783051e+01 -8.076834012808e+00 0.0 
1.330873875224e+01 -1.222417528206e+01 0.0 
3.297727364880e+01 -1.555480372087e+01 0.0 
2.890929955439e+01 -6.868664170731e+00 0.0 
1.323294664622e+01 -1.320754260334e+01 0.0 
2.726532861246e+01 -1.560593120806e+01 0.0 
2.240020643398e+01 -1.429299177247e+01 0.0 
2.090445823633e+01 -1.228128621332e+01 0.0 
1.315809881502e+01 -1.420739326938e+01 0.0 
2.781328038068e+01 -7.181956082300e+00 0.0 
8.614200829057e+00 -5.936933226306e+00 0.0 
8.714765730069e+00 -4.979270529687e+00 0.0 
1.611881701099e+01 -9.041973294003e+00 0.0 
2.806830314340e+01 -1.614622947108e+01 0.0 
2.084435391396e+00 -3.385085422913e+00 0.0 
3.133211811152e+01 -1.542347619750e+01 0.0 
9.693114650768e+00 -3.590281506442e+00 0.0 
1.531883592202e+01 -8.504584946143e+00 0.0 
2.151589117094e+01 -1.578915763018e+01 0.0 
4.918943882696e+01 -1.355538828056e+01 0.0 
1.443236615188e+01 -8.918701794549e+00 0.0 
8.276250966452e-01 -5.537685192197e+00 0.0 
1.362790867918e+01 -8.374718262212e+00 0.0 
2.083767477370e+01 -1.324843956035e+01 0.0 
1.273834678703e+01 -8.790890389337e+00 0.0 
1.192275845670e+01 -8.242261327467e+00 0.0 
4.477236023583e+01 -1.824312396664e+01 0.0 
1.102989384254e+01 -8.649855800911e+00 0.0 
4.849096516045e+01 -1.917293752213e+01 0.0 
1.588996752238e+00 -1.910230934687e+01 0.0 
4.904245197583e+01 -1.159839008158e+01 0.0 
2.753852929608e+01 -5.782128488093e+00 0.0 
1.756133602833e+01 -8.306130313187e-01 0.0 
2.615423700951e+01 -6.153865090092e+00 0.0 
1.028818761294e+01 -7.122020845892e+00 0.0 
2.970818901196e+01 -1.527821347593e+01 0.0 
4.801461623449e+01 -1.164472570985e+01 0.0 
9.455722100419e+00 -6.546069291118e+00 0.0 
3.089099236677e+01 -1.835339328261e+01 0.0 
2.350000000013e+01 -1.920825896750e+01 0.0 
4.830620531887e+01 -1.506626155470e+01 0.0 
1.725381944701e+01 -1.688794487850e+01 0.0 
2.156246225273e+01 -1.475893794002e+01 0.0 
4.919319648787e+01 -1.742767505896e+01 0.0 
4.437935623576e+01 -1.077662927266e+01 0.0 
1.001520521978e+01 -1.652692675208e+00 0.0 
9.067160240050e-01 -1.441937727541e+01 0.0 
2.603365149390e+01 -4.755996613848e+00 0.0 
2.458344439002e+01 -4.873645517696e+00 0.0 
2.304312390142e+01 -3.836552768096e+00 0.0 
2.546923202198e+00 -6.902480355749e+00 0.0 
1.251534969393e+01 -2.490989965776e+00 0.0 
2.454061833377e+01 -3.933354231935e+00 0.0 
1.788186558740e+01 -1.827424884923e+01 0.0 
4.090785243552e+01 -1.166553231904e+01 0.0 
2.230128851568e+01 -1.623015738726e+01 0.0 
2.302362347568e+01 -2.916239960270e+00 0.0 
3.878119254461e+01 -1.830091164002e+01 0.0 
2.210081359958e+01 -1.829238229150e+01 0.0 
8.443704882233e+00 -1.921993252862e+01 0.0 
2.218405824691e+01 -1.724557581508e+01 0.0 
2.151157503963e+01 -2.790636689331e+00 0.0 
3.741658958955e+01 -1.250400191722e+01 0.0 
2.697247663737e+01 -1.838290202309e+01 0.0 
4.743362342862e+01 -1.585850773010e+01 0.0 
6.671345075358e+00 -1.924977576322e+01 0.0 
3.900825404537e+01 -1.157220003875e+01 0.0 
4.649692961375e+01 -1.836335837481e+01 0.0 
1.578831424832e+01 -3.678284023361e+00 0.0 
4.814208768888e+01 -1.841249298770e+01 0.0 
2.964123298315e+01 -1.625739458193e+01 0.0 
4.580760351902e+01 -1.284294554687e+01 0.0 
3.561520879615e+01 -1.245548941949e+01 0.0 
2.555418095658e+00 -1.841101588290e+01 0.0 
3.288468366144e+01 -1.834258164109e+01 0.0 
2.065894391445e+01 -2.240688571739e+00 0.0 
4.739171429915e+01 -1.496536413446e+01 0.0 
3.478086729185e+00 -8.576434653209e+00 0.0 
1.606010630246e+01 -1.588421807951e+00 0.0 
1.018329200594e+01 -1.834320874317e+01 0.0 
2.957213339430e+01 -1.720496954591e+01 0.0 
4.142712790164e+00 -1.837794506222e+01 0.0 
6.698721532573e-01 -2.499999999997e+00 0.0 
8.037039123140e+00 -1.571229354954e+00 0.0 
1.203541361428e+01 -1.847784298001e+01 0.0 
2.899968332038e+01 -1.848264722179e+01 0.0 
1.469229460948e+01 -4.219485753730e+00 0.0 
4.049590781957e+01 -1.932812501995e+01 0.0 
1.996211678340e+01 -1.506329754720e+00 0.0 
4.250588298353e+01 -1.067383247529e+01 0.0 
5.831497011152e+00 -1.635396227234e+00 0.0 
5.317606125670e+00 -1.923927974868e+01 0.0 
4.208546426993e+01 -1.842830665025e+01 0.0 
2.327553405011e+00 -9.459409929662e+00 0.0 
3.568351902251e+01 -1.096637218582e+01 0.0 
1.682104374890e+00 -6.231413350963e+00 0.0 
2.451812238018e+01 -1.766524914339e+01 0.0 
1.058003429638e+01 -2.391839617098e+00 0.0 
4.399988753123e+01 -1.851998776342e+01 0.0 
1.400000000010e+01 -1.852293523028e+01 0.0 
3.604719565984e+01 -1.850662876800e+01 0.0 
1.951297136734e+01 -1.938092349694e+01 0.0 
1.821365318472e+01 -1.531276353287e+00 0.0 
2.298031859732e+01 -1.854635324722e+01 0.0 
1.552168066204e+01 -1.764280741977e+01 0.0 
4.572957713638e+01 -1.073347898229e+01 0.0 
3.429637429624e+01 -1.838861552790e+01 0.0 
2.427434426052e+00 -7.705577451869e+00 0.0 
4.662792031485e+00 -3.359424455416e+00 0.0 
4.926794919243e+01 -1.926794919243e+01 0.0 
7.320508075690e-01 -7.320508075688e-01 0.0 
4.926794919243e+01 -1.073205080757e+01 0.0 
7.320508075705e-01 -1.926794919243e+01 0.0 
2.917460242467e+00 -3.202866455310e+00 0.0 
4.838200575963e+01 -1.232674147454e+01 0.0 
2.998445708009e+01 -1.854403752148e+01 0.0 
5.949940090766e-01 -1.152762038165e+01 0.0 
4.844763495759e+01 -1.678092548787e+01 0.0 
1.301685480160e+01 -3.170056592566e+00 0.0 
1.650046335855e+01 -6.731535384067e-01 0.0 
4.854881540991e+01 -1.405224059779e+01 0.0 
2.119545114693e+01 -1.846813384545e+01 0.0 
3.797852849897e+01 -1.857978513215e+01 0.0 
4.649823708745e+01 -1.338351810816e+01 0.0 
2.012685900976e+01 -2.889659035009e+00 0.0 
2.953271913273e+01 -1.791558075192e+01 0.0 
2.408509097292e+00 -1.021949208421e+01 0.0 
2.642589566221e+01 -1.773216561448e+01 0.0 
1.730010270775e+01 -1.763165076721e+01 0.0 
2.017406551304e+01 -8.513536440582e-01 0.0 
5.254761581934e-01 -1.249999999999e+01 0.0 
6.640448215642e+00 -1.545337834885e+00 0.0 
7.843361506349e+00 -1.852719839527e+01 0.0 
1.588442191088e+00 -1.066158564320e+01 0.0 
3.180701530612e+01 -7.414795918363e+00 0.0 
4.951250000000e+01 -7.500000000000e+00 0.0 
3.331250000000e+01 -8.420918367347e+00 0.0 
4.951470588234e+01 -8.500000000000e+00 0.0 
3.480610198624e+01 -9.413633635267e+00 0.0 
4.951470588234e+01 -9.500000000000e+00 0.0 

SCALARS node_number int
LOOKUP_TABLE default
1
2
3
4
5
6
7
8
9
10
11
12
13
14
15
16
17
18
19
20
21
22
23
24
25
26
27
28
29
30
31
32
33
34
35
36
37
38
39
40
41
42
43
44
45
46
47
48
49
50
51
52
53
54
55
56
57
58
59
60
61
62
63
64
65
66
67
68
69
70
71
72
73
74
75
76
77
78
79
80
81
82
84
85
86
87
88
89
90
91
92
93
100
101
102
104
105
106
107
108
109
110
111
112
113
114
115
116
117
118
119
120
121
122
123
124
125
126
127
128
129
130
131
132
133
134
135
136
310
311
312
313
314
315
316
317
318
319
320
321
322
323
324
325
326
327
328
329
330
331
332
333
334
335
336
337
338
339
340
341
342
343
344
345
346
347
348
349
350
351
352
353
354
355
356
357
358
359
360
361
362
363
364
365
366
367
368
369
370
371
372
373
374
375
376
377
378
379
380
381
382
383
384
385
386
387
388
389
390
391
392
393
394
395
396
397
398
399
400
401
402
403
404
405
406
407
408
409
410
411
412
413
414
415
416
417
418
419
420
421
422
423
424
425
426
427
428
429
430
431
432
433
434
435
436
437
438
439
440
441
442
443
444
445
446
447
448
449
450
451
452
453
454
455
456
457
458
459
460
461
462
463
464
465
466
467
468
469
470
471
472
473
474
475
476
477
478
479
480
481
482
483
484
485
486
487
488
489
490
491
492
493
494
495
496
497
498
499
500
501
502
503
504
505
506
507
508
509
510
511
512
513
514
515
516
517
518
519
520
521
522
523
524
525
526
527
528
529
530
531
532
533
534
535
536
537
538
539
540
541
542
543
544
545
546
547
548
549
550
551
552
553
554
555
556
557
558
559
560
561
562
563
564
565
566
567
568
569
570
571
572
573
574
575
576
577
578
579
580
581
582
583
584
585
586
587
588
589
590
591
592
593
594
595
596
597
598
599
600
601
602
603
604
605
606
607
608
609
610
611
612
613
614
615
616
617
618
619
620
621
622
623
624
625
626
627
628
629
630
631
632
633
634
635
636
637
638
639
640
641
642
643
644
645
646
647
648
649
650
651
652
653
654
655
656
657
658
659
660
661
662
663
664
665
666
667
668
669
670
671
672
673
674
675
676
677
678
679
680
681
682
683
684
685
686
687
688
689
690
691
692
693
694
695
696
697
698
699
700
701
702
703
704
705
706
707
708
709
710
711
712
713
714
715
716
717
718
719
720
721
722
723
724
725
726
727
728
729
730
731
732
733
734
735
736
737
738
739
740
741
742
743
744
745
746
747
748
749
750
751
752
753
754
755
756
757
758
759
760
761
762
763
764
765
766
767
768
769
770
771
772
773
774
775
776
777
778
779
780
781
782
783
784
785
786
787
788
789
790
791
792
793
794
795
796
797
798
799
800
801
802
803
804
805
806
807
808
809
810
811
812
813
814
815
816
817
818
819
820
821
822
823
824
825
826
827
828
829
830
831
832
833
834
835
836
837
838
839
840
841
842
843
844
845
846
847
848
849
850
851
852
853
854
855
856
857
858
859
860
861
862
863
864
865
866
867
868
869
870
871
872
873
874
875
876
877
878
879
880
881
882
883
884
885
886
887
888
889
890
891
892
893
894
895
896
897
898
899
900
901
902
903
904
905
906
907
908
909
910
911
912
913
914
915
916
917
918
919
920
921
922
923
924
925
926
927
928
929
930
931
932
933
934
935
936
937
938
939
940
941
942
943
944
945
946
947
948
949
950
951
952
953
954
955
956
957
958
959
960
961
962
963
964
965
966
967
968
969
970
971
972
973
974
975
976
977
978
979
980
981
982
983
984
985
986
987
988
989
990
991
992
993
994
995
996
997
998
999
1000
1001
1002
1003
1004
1005
1006
1007
1008
1009
1010
1011
1012
1013
1014
1015
1016
1017
1018
1019
1020
1021
1022
1023
1024
1025
1026
1027
1028
1029
1030
1031
1032
1033
1034
1035
1036
1037
1038
1039
1040
1041
1042
1043
1044
1045
1046
1047
1048
1049
1050
1051
1052
1053
1054
1055
1056
1057
1058
1059
1060
1061
1062
1063
1064
1065
1066
1067
1068
1069
1070
1071
1072
1073
1074
1075
1076
1077
1078
1079
1080
1081
1082
1083
1084
1085
1086
1087
1088
1089
1090
1091
1092
1093
1094
1095
1096
1097
1098
1099
1100
1101
1102
1103
1104
1105
1106
1107
1108
1109
1110
1111
1112
1113
1114
1115
1116
1117
1118
1119
1120
1121
1122
1123
1124
1125
1126
1127
1128
1129
1130
1131
1132
1133
1134
1135
1136
1137
1138
1139
1140
1141
1142
1143
1144
1145
1146
1147
1148
1149
1150
1151
1152
1153
1154
1155
1156
1157
1158
1159
1160
1161
1162
1163
1164
1165
1166
1167
1168
1169
1170
1171
1172
1173
1174
1175
1176
1177
1178
1179
1180
1181
1182
1183
1184
1185
1186
1187
1188
1189
1190
1191
1192
1193
1194
1195
1196
1197
1198
1199
1200
1201
1202
1203
1204
1205
1206
1207
1208
1209
1210
1211
1212
1213
1214
1215
1216
1217
1218
1219
1220
1221
1222
1223
1224
1225
1226
1227
1228
1229
1230
1231
1232
1233
1234
1235
1236
1237
1238
1239
1240
1241
1242
1243
1244
1245
1246
1247
1248
1249
1250
1251
1252
1253
1254
1255
1256
1257
1258
1259
1260
1261
1262
1263
1264
1279
1280
1281
1282
1283
1284

VECTORS node_mesh_deformation float
0.0 6.440031806730e-02 0.0 
0.000000000000e+00 1.343840361322e-01 0.0 
0.0 0.000000000000e+00 0.0 
0.000000000000e+00 0.000000000000e+00 0.0 
0.0 6.533142706097e-02 0.0 
0.0 6.556201569934e-02 0.0 
0.0 6.513470547878e-02 0.0 
0.0 6.404820872953e-02 0.0 
0.0 6.232791269572e-02 0.0 
0.0 6.012036095320e-02 0.0 
0.0 5.751153878024e-02 0.0 
0.0 5.456650816239e-02 0.0 
0.0 5.134751605137e-02 0.0 
0.0 4.789351461696e-02 0.0 
0.0 4.421471852964e-02 0.0 
0.0 4.032362349620e-02 0.0 
0.0 3.621081669215e-02 0.0 
0.0 3.186862748645e-02 0.0 
0.0 2.726675688004e-02 0.0 
0.0 2.238858308594e-02 0.0 
0.0 1.722627008292e-02 0.0 
0.0 1.176882238808e-02 0.0 
0.0 6.024047153584e-03 0.0 
0.000000000000e+00 0.000000000000e+00 0.0 
0.000000000000e+00 0.000000000000e+00 0.0 
0.000000000000e+00 0.000000000000e+00 0.0 
0.000000000000e+00 0.000000000000e+00 0.0 
0.000000000000e+00 0.000000000000e+00 0.0 
0.000000000000e+00 0.000000000000e+00 0.0 
0.000000000000e+00 0.000000000000e+00 0.0 
0.000000000000e+00 0.000000000000e+00 0.0 
0.000000000000e+00 0.000000000000e+00 0.0 
0.000000000000e+00 0.000000000000e+00 0.0 
0.000000000000e+00 0.000000000000e+00 0.0 
0.000000000000e+00 0.000000000000e+00 0.0 
0.000000000000e+00 0.000000000000e+00 0.0 
0.000000000000e+00 0.000000000000e+00 0.0 
0.000000000000e+00 0.000000000000e+00 0.0 
0.000000000000e+00 0.000000000000e+00 0.0 
0.000000000000e+00 0.000000000000e+00 0.0 
0.000000000000e+00 0.000000000000e+00 0.0 
0.000000000000e+00 0.000000000000e+00 0.0 
0.000000000000e+00 0.000000000000e+00 0.0 
0.000000000000e+00 0.000000000000e+00 0.0 
0.000000000000e+00 0.000000000000e+00 0.0 
0.000000000000e+00 0.000000000000e+00 0.0 
0.000000000000e+00 0.000000000000e+00 0.0 
0.000000000000e+00 0.000000000000e+00 0.0 
0.000000000000e+00 0.000000000000e+00 0.0 
0.000000000000e+00 0.000000000000e+00 0.0 
0.000000000000e+00 0.000000000000e+00 0.0 
0.000000000000e+00 0.000000000000e+00 0.0 
0.000000000000e+00 0.000000000000e+00 0.0 
0.000000000000e+00 0.000000000000e+00 0.0 
0.000000000000e+00 0.000000000000e+00 0.0 
0.000000000000e+00 0.000000000000e+00 0.0 
0.000000000000e+00 0.000000000000e+00 0.0 
0.000000000000e+00 0.000000000000e+00 0.0 
0.000000000000e+00 0.000000000000e+00 0.0 
0.000000000000e+00 0.000000000000e+00 0.0 
0.000000000000e+00 0.000000000000e+00 0.0 
0.000000000000e+00 0.000000000000e+00 0.0 
0.000000000000e+00 0.000000000000e+00 0.0 
0.000000000000e+00 0.000000000000e+00 0.0 
0.000000000000e+00 0.000000000000e+00 0.0 
0.000000000000e+00 0.000000000000e+00 0.0 
0.000000000000e+00 0.000000000000e+00 0.0 
0.000000000000e+00 0.000000000000e+00 0.0 
0.000000000000e+00 0.000000000000e+00 0.0 
0.000000000000e+00 0.000000000000e+00 0.0 
0.000000000000e+00 0.000000000000e+00 0.0 
0.000000000000e+00 0.000000000000e+00 0.0 
0.000000000000e+00 1.224493631523e-01 0.0 
0.000000000000e+00 1.101141653931e-01 0.0 
0.000000000000e+00 9.739796253421e-02 0.0 
0.000000000000e+00 8.433120809264e-02 0.0 
0.000000000000e+00 7.093651589284e-02 0.0 
0.000000000000e+00 5.724318584203e-02 0.0 
0.000000000000e+00 4.327811364082e-02 0.0 
0.000000000000e+00 2.906680007064e-02 0.0 
0.000000000000e+00 1.463932170511e-02 0.0 
-8.639796520725e-03 -7.454640884758e-03 0.0 
3.052973450092e-02 1.236097770344e-01 0.0 
-8.663214915252e-04 2.192416289671e-02 0.0 
6.743916010532e-03 4.624184575587e-02 0.0 
1.392281566661e-02 6.837883177325e-02 0.0 
2.050595166996e-02 8.829341268674e-02 0.0 
2.646207101945e-02 1.056823670893e-01 0.0 
3.125078159920e-02 1.195674344790e-01 0.0 
3.333461624790e-02 1.287136948027e-01 0.0 
3.410896803351e-02 1.313936122004e-01 0.0 
3.310188586973e-02 1.291562259664e-01 0.0 
0.000000000000e+00 1.676216879428e-01 0.0 
0.000000000000e+00 1.569556120762e-01 0.0 
0.000000000000e+00 1.459008467319e-01 0.0 
1.728040403407e-03 1.343824302000e-01 0.0 
3.452603324739e-03 1.343724424888e-01 0.0 
5.199407941781e-03 1.343433605435e-01 0.0 
6.971073033419e-03 1.342825146348e-01 0.0 
8.773987397255e-03 1.341862576487e-01 0.0 
1.061013586547e-02 1.340155807189e-01 0.0 
1.250032163840e-02 1.337776837587e-01 0.0 
1.444119965272e-02 1.334155490132e-01 0.0 
1.645871269890e-02 1.329273259802e-01 0.0 
1.855882316531e-02 1.322416085189e-01 0.0 
2.074372799962e-02 1.313137308576e-01 0.0 
2.303307739770e-02 1.300719922893e-01 0.0 
2.542378981311e-02 1.284421849709e-01 0.0 
2.791598354064e-02 1.263197225843e-01 0.0 
-5.308213511142e-03 -2.269687448517e-02 0.0 
-3.339753695037e-04 -3.089745402339e-02 0.0 
5.128845019996e-03 -3.389905186049e-02 0.0 
1.108384694642e-02 -3.131867381730e-02 0.0 
1.554761688152e-02 -2.072233337761e-02 0.0 
1.819720519416e-02 -7.174491767762e-03 0.0 
1.921266107848e-02 3.333591963020e-03 0.0 
1.950135236193e-02 1.216626690294e-02 0.0 
1.960457338398e-02 2.001323476006e-02 0.0 
1.941883874012e-02 2.728558863390e-02 0.0 
1.885856829209e-02 3.397103114873e-02 0.0 
1.798774461405e-02 4.000276150227e-02 0.0 
1.673960600692e-02 4.552695415841e-02 0.0 
1.505009644717e-02 5.046338261326e-02 0.0 
1.302417249100e-02 5.470589928511e-02 0.0 
1.075552971579e-02 5.815755810405e-02 0.0 
8.281748479179e-03 6.089829368941e-02 0.0 
5.642451498689e-03 6.289842562166e-02 0.0 
2.836914216127e-03 6.403749648390e-02 0.0 
3.031290750712e-02 1.379091908357e-01 0.0 
2.865374093265e-02 1.446785575268e-01 0.0 
2.701527354629e-02 1.500120045624e-01 0.0 
2.548525656118e-02 1.542311407960e-01 0.0 
2.396052190964e-02 1.575473346188e-01 0.0 
2.240237669935e-02 1.601305999956e-01 0.0 
2.082554338311e-02 1.621263479653e-01 0.0 
1.924954656226e-02 1.636557922121e-01 0.0 
1.766609256195e-02 1.648136706371e-01 0.0 
1.607292099384e-02 1.656773321870e-01 0.0 
1.446966793571e-02 1.663087074014e-01 0.0 
1.286222222111e-02 1.667604672636e-01 0.0 
1.125494931638e-02 1.670789931136e-01 0.0 
9.649309334748e-03 1.672973750289e-01 0.0 
8.046757278450e-03 1.674423275570e-01 0.0 
6.448707222972e-03 1.675337646294e-01 0.0 
4.856916598833e-03 1.675868853642e-01 0.0 
3.275300403466e-03 1.676068970100e-01 0.0 
1.663289296530e-03 1.675874618842e-01 0.0 
1.698395729207e-03 1.569936608807e-01 0.0 
3.393679169186e-03 1.569764801050e-01 0.0 
5.086296633273e-03 1.569523263848e-01 0.0 
6.785372956081e-03 1.568968821048e-01 0.0 
8.496068343568e-03 1.567996507586e-01 0.0 
1.022469336488e-02 1.566432609343e-01 0.0 
1.197437055826e-02 1.564071105880e-01 0.0 
1.375223004980e-02 1.560610409652e-01 0.0 
1.556339010412e-02 1.555699571693e-01 0.0 
1.740289455745e-02 1.548838163961e-01 0.0 
1.927414482203e-02 1.539390285253e-01 0.0 
2.118524222632e-02 1.526679592119e-01 0.0 
2.314768231900e-02 1.509811959440e-01 0.0 
2.517549543692e-02 1.487798372810e-01 0.0 
2.726084563789e-02 1.459151163125e-01 0.0 
2.941483095270e-02 1.422387306507e-01 0.0 
3.163661846466e-02 1.375044741234e-01 0.0 
3.059387398271e-02 1.331719491021e-01 0.0 
2.823241420157e-02 1.362967041629e-01 0.0 
2.591124542186e-02 1.387233357804e-01 0.0 
2.369339551729e-02 1.406242846192e-01 0.0 
2.156356141228e-02 1.420846477828e-01 0.0 
1.951187020334e-02 1.431903811289e-01 0.0 
1.752335047020e-02 1.440171216042e-01 0.0 
1.560424629372e-02 1.446224135661e-01 0.0 
1.374094417805e-02 1.450594255369e-01 0.0 
1.192981333007e-02 1.453751894008e-01 0.0 
1.015720371777e-02 1.455880818122e-01 0.0 
8.420257733299e-03 1.457342332643e-01 0.0 
6.707312220229e-03 1.458214943371e-01 0.0 
5.014776043275e-03 1.458718531236e-01 0.0 
3.337075486357e-03 1.458903296163e-01 0.0 
1.664874160085e-03 1.458672295643e-01 0.0 
-4.296404828665e-03 8.583794715760e-03 0.0 
2.919079353525e-03 3.429956261254e-02 0.0 
1.039051634254e-02 5.756407251004e-02 0.0 
1.728921813358e-02 7.862278658275e-02 0.0 
2.362443858379e-02 9.741416395445e-02 0.0 
2.908896468003e-02 1.131909814651e-01 0.0 
3.281696538306e-02 1.248079119880e-01 0.0 
3.392301736386e-02 1.307221833365e-01 0.0 
3.384950711013e-02 1.307406821351e-01 0.0 
3.198349633151e-02 1.267279116762e-01 0.0 
1.193268505285e-02 3.312550214071e-02 0.0 
3.028755125630e-03 3.993142813453e-03 0.0 
1.355098257719e-02 2.352663855037e-02 0.0 
7.771034898331e-03 -2.504735538241e-02 0.0 
2.316132332378e-04 4.013500741536e-03 0.0 
2.533331356696e-02 7.563932453044e-02 0.0 
-1.070264469686e-03 4.580845735501e-02 0.0 
5.633403834132e-03 4.932919062529e-03 0.0 
3.534490351689e-02 1.062794305331e-01 0.0 
7.241272892681e-03 6.375836367010e-03 0.0 
3.772801994501e-02 1.211381516469e-01 0.0 
-6.923711621694e-04 4.218700095404e-03 0.0 
1.198365504430e-02 4.897507992928e-02 0.0 
7.705202456641e-03 8.455531005623e-03 0.0 
3.303575021598e-02 1.162359608008e-01 0.0 
-7.711114838183e-04 5.850749106030e-02 0.0 
-9.128482192402e-04 3.481462504642e-02 0.0 
7.327426533529e-03 1.025849179419e-02 0.0 
5.338193740165e-03 1.116498149243e-02 0.0 
1.659247377290e-03 1.242353696952e-02 0.0 
3.003667503357e-03 1.325900064099e-02 0.0 
3.903925897454e-03 1.152141285431e-02 0.0 
2.688405414972e-02 1.170507662711e-01 0.0 
1.762640783400e-02 1.218183795373e-01 0.0 
1.156908932669e-02 1.228274245218e-01 0.0 
1.123399238736e-03 7.746264503688e-02 0.0 
-7.288792670552e-04 4.965428903564e-03 0.0 
2.795392643062e-03 -2.416383185226e-02 0.0 
7.299908119885e-03 6.030772718998e-02 0.0 
-5.681247410412e-04 2.017960823168e-02 0.0 
5.948392086815e-03 1.240532092688e-01 0.0 
3.984325163624e-04 6.436030736581e-02 0.0 
7.155982351463e-03 1.221691970936e-02 0.0 
6.096063108810e-03 5.153928053581e-03 0.0 
7.564317221355e-03 7.292585753682e-03 0.0 
4.706468595984e-03 4.642546951718e-03 0.0 
1.649093163520e-03 3.664551390131e-03 0.0 
1.088100031132e-02 -2.017305710529e-03 0.0 
2.206509902351e-02 1.207092983082e-01 0.0 
-4.890955075858e-04 4.865286183403e-03 0.0 
8.477368546096e-04 5.088410081684e-02 0.0 
1.349313941939e-02 3.714233876581e-02 0.0 
-1.065700044881e-03 5.274118670220e-02 0.0 
8.396478453179e-04 1.014703001700e-02 0.0 
3.113747784960e-02 9.143964814077e-02 0.0 
1.881740924868e-02 5.562273002506e-02 0.0 
3.752301233954e-02 1.161863164950e-01 0.0 
3.609899838635e-02 1.206750916640e-01 0.0 
4.064069965526e-03 8.190107311167e-03 0.0 
1.361109622330e-03 1.022777553561e-01 0.0 
-3.766554932891e-04 4.074313400888e-03 0.0 
3.394185731002e-03 6.433369419677e-02 0.0 
4.655989480966e-04 2.294700980265e-02 0.0 
3.150392418561e-02 1.123494974227e-01 0.0 
3.337138234411e-02 1.053355542171e-01 0.0 
3.064765772280e-02 1.027955497354e-01 0.0 
3.267953495581e-02 9.452012811204e-02 0.0 
3.004560595519e-02 9.043115532819e-02 0.0 
3.138986310705e-02 8.318404147819e-02 0.0 
3.423362862832e-02 8.677862882444e-02 0.0 
3.241301772288e-02 7.582497927776e-02 0.0 
3.538831479779e-02 7.906036223897e-02 0.0 
2.845856621626e-02 7.876558358718e-02 0.0 
3.301747652395e-02 6.845707008009e-02 0.0 
3.607536459136e-02 7.134343977845e-02 0.0 
3.316437630219e-02 6.119171606202e-02 0.0 
3.624129190402e-02 6.375095774057e-02 0.0 
3.895679479263e-02 7.335432024016e-02 0.0 
3.910482844824e-02 6.544937958418e-02 0.0 
4.154670453081e-02 7.437707151832e-02 0.0 
4.166142413923e-02 6.614302203875e-02 0.0 
3.868410792819e-02 5.786924991811e-02 0.0 
4.115335210856e-02 5.833142058350e-02 0.0 
4.376204098200e-02 6.579757741344e-02 0.0 
4.315645521663e-02 5.777808829897e-02 0.0 
4.534317073987e-02 6.438022944920e-02 0.0 
4.460790381802e-02 5.618247150663e-02 0.0 
4.635542782588e-02 6.187519163027e-02 0.0 
4.547249000770e-02 5.358658165400e-02 0.0 
4.321491021631e-02 4.866840693432e-02 0.0 
4.391920902277e-02 4.608323276650e-02 0.0 
4.569605229747e-02 5.005456454006e-02 0.0 
4.396850916838e-02 4.262834239900e-02 0.0 
4.525661276850e-02 4.567899441307e-02 0.0 
4.334527219411e-02 3.843304573108e-02 0.0 
4.160007222177e-02 3.614994268462e-02 0.0 
4.078302499592e-02 3.223133062484e-02 0.0 
4.202177057180e-02 3.358254124386e-02 0.0 
3.917727361134e-02 2.762153705705e-02 0.0 
3.993615418345e-02 2.799616862257e-02 0.0 
3.678894656369e-02 2.240360134066e-02 0.0 
3.712313938786e-02 2.190050321023e-02 0.0 
3.367226572535e-02 1.689160764213e-02 0.0 
3.306308172456e-02 1.807105090256e-02 0.0 
2.970064455684e-02 1.327661048209e-02 0.0 
2.994976341673e-02 1.142772007294e-02 0.0 
2.582190774526e-02 8.758069393972e-03 0.0 
2.541842442517e-02 1.103070917162e-02 0.0 
2.149870812733e-02 7.505578323128e-03 0.0 
2.103081049755e-02 1.001570248721e-02 0.0 
1.718128032782e-02 7.491280784217e-03 0.0 
1.738433014334e-02 4.715433417291e-03 0.0 
1.325791290850e-02 5.789229580346e-03 0.0 
1.310294624024e-02 8.476074869648e-03 0.0 
9.464436090774e-03 7.723558580878e-03 0.0 
9.434264806687e-03 5.033708729080e-03 0.0 
6.057479872839e-03 7.902227840583e-03 0.0 
6.253547926658e-03 1.001351828126e-02 0.0 
3.288775174880e-03 1.084792793413e-02 0.0 
2.995078808802e-03 8.998583084795e-03 0.0 
6.874954580116e-04 1.250292132459e-02 0.0 
1.010739718403e-03 1.384949216871e-02 0.0 
-1.251580397700e-03 1.606290673891e-02 0.0 
-1.529033151485e-03 1.499027689916e-02 0.0 
-3.099854654652e-03 1.897309654458e-02 0.0 
-2.796712929005e-03 1.951683050314e-02 0.0 
-4.299703058392e-03 2.272127879993e-02 0.0 
-3.910397529294e-03 2.265650004041e-02 0.0 
-4.520207287728e-03 2.256140314616e-02 0.0 
-5.373131389845e-03 2.644292364452e-02 0.0 
-5.448661146605e-03 2.669544788681e-02 0.0 
-5.997376509329e-03 3.057290577082e-02 0.0 
3.865468006188e-02 3.063410910962e-02 0.0 
-5.844679199690e-03 3.119663553068e-02 0.0 
-5.202491352851e-03 2.677617294095e-02 0.0 
-6.161805720817e-03 3.497862391334e-02 0.0 
-6.209629023831e-03 3.384947066246e-02 0.0 
-5.740944020353e-03 3.595174827331e-02 0.0 
-5.898984633631e-03 3.953216382872e-02 0.0 
-5.192071353830e-03 4.079682515143e-02 0.0 
3.986497299080e-02 2.824840935859e-02 0.0 
3.769805689313e-02 5.071190185641e-02 0.0 
-5.262166072928e-03 4.407996945675e-02 0.0 
-4.282477712605e-03 4.556683082418e-02 0.0 
-3.931053346401e-03 4.189544514195e-02 0.0 
-2.716694697653e-03 4.683602053291e-02 0.0 
2.725379454907e-02 8.587977277979e-02 0.0 
2.545223878955e-02 7.377559601652e-02 0.0 
2.443708122373e-02 8.077203141395e-02 0.0 
2.240717572870e-02 6.833769790552e-02 0.0 
2.158248651708e-02 7.511170809715e-02 0.0 
-3.125901570409e-03 5.010389555385e-02 0.0 
2.988164287682e-02 5.750210326419e-02 0.0 
2.293171042313e-02 6.142612885384e-02 0.0 
4.540421795090e-02 7.318428928364e-02 0.0 
4.647277937012e-02 5.394481653459e-02 0.0 
2.458162271528e-02 1.311106706388e-02 0.0 
-5.753132646885e-03 4.239045883032e-02 0.0 
-5.035900243730e-03 4.661090726597e-02 0.0 
-5.327244304407e-03 4.450951460129e-02 0.0 
-2.350311402358e-03 1.976794985777e-02 0.0 
-3.357327107583e-03 2.225962505318e-02 0.0 
-1.772735357219e-03 1.962703416753e-02 0.0 
-2.707668657651e-03 2.145085509565e-02 0.0 
-1.165168351086e-03 1.900587627395e-02 0.0 
-2.089040725441e-03 2.016707747416e-02 0.0 
-3.302223482397e-03 2.283080075999e-02 0.0 
-2.692036552993e-03 2.091162971617e-02 0.0 
-3.605898762343e-03 2.373527532407e-02 0.0 
-7.031028094211e-04 1.783046759641e-02 0.0 
5.644132950824e-04 1.696190691858e-02 0.0 
-3.006864354155e-03 2.122256240976e-02 0.0 
-3.659965617635e-03 2.415238149660e-02 0.0 
-3.078593586049e-03 2.109010557486e-02 0.0 
-3.503796964544e-03 2.409313587046e-02 0.0 
-4.086279419409e-03 2.726564419645e-02 0.0 
-3.710453012167e-03 2.722476186764e-02 0.0 
-4.273750510269e-03 3.050859378020e-02 0.0 
2.024172345976e-02 1.222033005908e-02 0.0 
2.332235915363e-02 1.478262107665e-02 0.0 
1.915622629384e-02 1.387759176016e-02 0.0 
2.156719174537e-02 1.566596070492e-02 0.0 
1.771283487660e-02 1.451971249591e-02 0.0 
1.945789302196e-02 1.556720674368e-02 0.0 
1.581656915087e-02 1.428806939526e-02 0.0 
1.414055575344e-02 1.379575893419e-02 0.0 
3.283448894036e-02 5.400333294571e-02 0.0 
2.580595099054e-02 6.329054207720e-03 0.0 
2.969099674143e-02 9.464789995610e-03 0.0 
2.528904615217e-02 3.696892062727e-03 0.0 
2.876505055836e-02 7.408856126349e-03 0.0 
2.420977026147e-02 9.633511743363e-04 0.0 
2.721517971674e-02 5.324343128200e-03 0.0 
2.266000461408e-02 -1.868789236615e-03 0.0 
1.956490598106e-02 -4.584837128847e-03 0.0 
1.802320249764e-02 -8.109027613287e-03 0.0 
1.500737658525e-02 -8.817729324133e-03 0.0 
1.365120358797e-02 -1.280988602190e-02 0.0 
1.080059220222e-02 -1.131402186724e-02 0.0 
4.119482305931e-02 4.191347643999e-02 0.0 
2.331725682603e-02 1.729591192898e-02 0.0 
2.055937756362e-02 1.639329275330e-02 0.0 
2.435017710781e-02 1.860345073998e-02 0.0 
-2.026116658586e-03 4.283732601756e-02 0.0 
-3.170056289145e-03 2.357824568998e-02 0.0 
7.563552974119e-04 1.580913987854e-02 0.0 
2.336811189753e-03 1.530751460935e-02 0.0 
1.245278805613e-02 1.333080812513e-02 0.0 
-1.323138535461e-03 5.143806848539e-02 0.0 
2.506557575515e-02 3.290153436697e-03 0.0 
2.940148924485e-02 1.180049172572e-02 0.0 
1.937970604519e-02 6.235877225077e-02 0.0 
1.875655371948e-02 6.900585846811e-02 0.0 
2.189340541470e-03 1.407516772643e-02 0.0 
-1.859554530653e-03 5.427016500761e-02 0.0 
-2.208006502666e-03 1.848884050908e-02 0.0 
1.594452295757e-02 -1.178563202380e-02 0.0 
-3.197823126371e-03 2.670802043119e-02 0.0 
-2.695753027699e-03 2.264052290517e-02 0.0 
-4.260497353012e-03 2.579595385252e-02 0.0 
2.098682340266e-02 1.687327261777e-02 0.0 
2.473540633184e-02 1.949833139772e-02 0.0 
1.173742512186e-02 -7.364813934620e-03 0.0 
7.801755184092e-03 -7.951579624427e-03 0.0 
7.124342960449e-03 -1.175327666374e-02 0.0 
4.449890642498e-03 -6.378523682725e-03 0.0 
4.921021218488e-03 -3.313709521528e-03 0.0 
2.151834701891e-03 -7.618101307285e-04 0.0 
2.116807870873e-03 -3.220796423022e-03 0.0 
3.158633452642e-04 3.373643596065e-03 0.0 
8.036651421328e-05 5.287648626569e-03 0.0 
-1.256801123471e-03 9.870085963641e-03 0.0 
-3.711212776718e-04 8.705831576327e-03 0.0 
-1.534377693782e-03 1.530687710324e-02 0.0 
-2.637719233523e-03 1.954164027614e-02 0.0 
1.195626523217e-02 -1.692518096230e-02 0.0 
4.082082222356e-02 8.288310452483e-02 0.0 
7.278069688716e-04 1.399478366584e-02 0.0 
1.353987307037e-02 1.324443479172e-02 0.0 
1.641211193127e-02 5.596523903974e-02 0.0 
1.598984955055e-02 6.251847510689e-02 0.0 
1.789070511963e-02 7.563884147071e-02 0.0 
1.531727233964e-02 6.903427697639e-02 0.0 
1.331950020948e-02 5.570059314472e-02 0.0 
1.284129288432e-02 6.216186273331e-02 0.0 
1.444076698596e-02 7.549119953969e-02 0.0 
1.214536612618e-02 6.856379200040e-02 0.0 
1.339805074102e-02 8.184965366033e-02 0.0 
1.126897987238e-02 7.488057247765e-02 0.0 
9.967312723781e-03 6.141311073716e-02 0.0 
9.248317260429e-03 6.772820255621e-02 0.0 
1.024641948952e-02 8.111090054495e-02 0.0 
8.366015766946e-03 7.396404182824e-02 0.0 
9.105066411728e-03 8.723529780842e-02 0.0 
7.346569189636e-03 8.010981784249e-02 0.0 
6.609987373274e-03 6.666850825896e-02 0.0 
-1.682336450592e-06 5.544222269404e-02 0.0 
1.089446872202e-02 1.337469376080e-02 0.0 
9.417513752986e-03 1.259578774444e-02 0.0 
-4.558363735044e-03 4.829440489352e-02 0.0 
-4.697646698831e-03 4.581287696917e-02 0.0 
-5.326606023602e-03 4.216372271024e-02 0.0 
-4.564789338395e-03 4.315720666518e-02 0.0 
5.682131807255e-03 7.290968022478e-02 0.0 
5.001848649925e-03 5.925604961642e-02 0.0 
2.652011464311e-02 1.082096983777e-02 0.0 
3.051383519849e-02 2.028883944925e-02 0.0 
1.653579151897e-02 4.940026891592e-02 0.0 
-2.585967333541e-03 2.575216211687e-02 0.0 
-3.022574606955e-03 2.985402759175e-02 0.0 
4.556274347483e-02 4.866913979592e-02 0.0 
4.619927538535e-02 5.775267873076e-02 0.0 
4.486277088497e-02 5.167566831798e-02 0.0 
4.479186081234e-02 6.160521927493e-02 0.0 
4.604606663594e-02 6.775186368692e-02 0.0 
4.299600365626e-02 5.470616504444e-02 0.0 
2.195162555736e-03 1.582336425867e-02 0.0 
7.937922532292e-03 5.408732418514e-02 0.0 
-3.315972370754e-03 3.751983126595e-02 0.0 
-1.086124349658e-03 3.821663381231e-02 0.0 
-2.148814203760e-03 2.132358053912e-02 0.0 
1.195663033833e-02 1.331558990553e-02 0.0 
4.004295414539e-02 4.354866581955e-02 0.0 
3.764611207153e-02 3.744350970110e-02 0.0 
3.612927150908e-02 3.812445560536e-02 0.0 
3.347621902244e-02 3.259225938571e-02 0.0 
3.157262935814e-02 3.233734659909e-02 0.0 
2.868025876803e-02 2.733819992161e-02 0.0 
3.044727133442e-02 2.770221361456e-02 0.0 
2.070324729426e-02 1.688239533794e-02 0.0 
2.547696212667e-02 2.288383985065e-02 0.0 
6.313320646441e-03 8.627431967497e-02 0.0 
2.732488852151e-02 1.956682368066e-02 0.0 
-1.682042457878e-03 1.123065086021e-02 0.0 
1.011629371984e-03 5.226878021008e-02 0.0 
4.243259590719e-04 1.485835608579e-02 0.0 
-6.634308051470e-04 5.789224264136e-02 0.0 
-2.061348790731e-03 5.630662319898e-02 0.0 
1.815672794084e-03 1.213157099910e-02 0.0 
2.631441379720e-02 2.615234455924e-02 0.0 
2.912111180576e-02 3.123056934618e-02 0.0 
4.389398547050e-02 7.258998091439e-02 0.0 
4.509488414827e-02 7.856542450797e-02 0.0 
1.713986169036e-02 1.438013683086e-02 0.0 
2.316011348430e-02 8.777841927153e-02 0.0 
1.560508519261e-02 8.860138395613e-02 0.0 
1.426599602546e-02 9.487656361954e-02 0.0 
1.381366101737e-03 5.874884878192e-02 0.0 
1.421005339466e-03 7.904656647806e-03 0.0 
1.079111134271e-02 4.862367093929e-02 0.0 
3.337357940523e-02 2.044407921620e-02 0.0 
3.415441335824e-02 2.952602268215e-02 0.0 
1.353061199834e-02 -1.556796799529e-02 0.0 
9.971684812768e-03 -2.135630774512e-02 0.0 
4.223237623343e-03 6.538175973800e-02 0.0 
3.601201759160e-03 5.170761302087e-02 0.0 
-5.079641876686e-03 3.960156567625e-02 0.0 
-4.273991493238e-03 4.019404089995e-02 0.0 
3.492999526127e-03 1.254808008228e-02 0.0 
-7.408894615892e-04 2.124904001692e-02 0.0 
4.116090836931e-03 4.537320227272e-02 0.0 
8.903185164641e-03 1.348050188505e-02 0.0 
9.369610957579e-03 1.301410171984e-02 0.0 
-3.818587876051e-03 4.659310752954e-02 0.0 
2.673896851070e-02 2.043381590877e-02 0.0 
2.287129704849e-02 1.012807467652e-02 0.0 
5.519071956073e-05 7.334468221520e-03 0.0 
-2.580076486929e-03 2.135970383733e-02 0.0 
-9.975351494735e-04 5.947540729524e-02 0.0 
2.698990471226e-03 1.038098640985e-02 0.0 
1.081957007745e-02 4.217718047873e-02 0.0 
2.715771993822e-02 2.348424832122e-02 0.0 
3.162996774068e-02 2.736890100969e-02 0.0 
2.207539929790e-02 1.900054790343e-02 0.0 
2.025851903497e-03 2.131130494822e-02 0.0 
5.445265861308e-04 1.149743331191e-02 0.0 
-1.917907569111e-03 2.441763473560e-02 0.0 
2.365752012591e-02 2.453098815107e-02 0.0 
2.615905691427e-02 2.931475027871e-02 0.0 
3.694907733298e-02 2.892702327726e-02 0.0 
3.753626313789e-02 3.854829836127e-02 0.0 
3.379946490793e-02 4.012823821575e-02 0.0 
3.694454338072e-02 4.929174183289e-02 0.0 
3.697965386536e-02 8.965780617957e-02 0.0 
4.011795657402e-02 3.713326172701e-02 0.0 
4.302521791379e-02 8.323518152655e-02 0.0 
4.172757023161e-02 9.232256530510e-02 0.0 
4.348827580371e-02 9.204359596255e-02 0.0 
4.666575966124e-02 7.297575339758e-02 0.0 
4.562662531433e-02 8.366052202139e-02 0.0 
3.297925970674e-02 1.433036314818e-02 0.0 
2.764945515282e-02 1.646445077679e-02 0.0 
-5.706529463273e-03 3.836054998930e-02 0.0 
-4.699430549621e-03 3.004657134602e-02 0.0 
-4.351202647097e-04 1.741842870753e-02 0.0 
8.304615557101e-03 4.771152965067e-02 0.0 
6.309176961317e-03 4.021751765669e-02 0.0 
1.094916823376e-02 9.420620874801e-02 0.0 
9.596770832815e-03 1.001975659561e-01 0.0 
6.424143865402e-04 4.359790643568e-02 0.0 
1.932992037927e-03 3.873943865352e-02 0.0 
-4.600268326145e-03 2.533122629535e-02 0.0 
-3.506600764140e-04 1.365595588295e-02 0.0 
1.346365098167e-02 4.273869911544e-02 0.0 
1.303134632440e-02 3.627395240855e-02 0.0 
1.630975894775e-02 4.283806764807e-02 0.0 
4.544050743572e-03 1.114683260404e-02 0.0 
2.137518186611e-02 1.860524639310e-03 0.0 
1.615628725282e-02 1.209632638096e-02 0.0 
8.522745052936e-03 -1.995074901335e-02 0.0 
3.895769583554e-02 3.364159164420e-02 0.0 
4.108471312524e-03 4.415328649725e-02 0.0 
3.499841086527e-02 4.949000417928e-02 0.0 
-1.561267399573e-03 1.967090545496e-02 0.0 
-1.713758551310e-03 1.654075865361e-02 0.0 
1.623631364687e-02 1.360556324295e-02 0.0 
3.552419585669e-02 1.083140700247e-01 0.0 
3.568909974863e-02 2.872654702647e-02 0.0 
3.520455962671e-02 2.607596396091e-02 0.0 
4.162195664644e-02 1.016301033689e-01 0.0 
4.289065047675e-02 1.007466515026e-01 0.0 
4.475577889716e-02 9.059393225740e-02 0.0 
4.361798210745e-02 9.867037523800e-02 0.0 
-1.821361859530e-03 1.261872339774e-02 0.0 
-3.115652027217e-03 1.673604203324e-02 0.0 
2.009921399062e-02 1.937843533989e-02 0.0 
2.000449469312e-02 1.769458392945e-02 0.0 
2.037884710683e-02 2.196950977281e-02 0.0 
2.271118295302e-02 2.649320479533e-02 0.0 
1.280854373261e-02 1.114428747639e-02 0.0 
1.370574029064e-02 1.221070518998e-02 0.0 
-1.925900916504e-03 5.755855688930e-02 0.0 
4.339613718732e-02 8.992646434632e-02 0.0 
8.279573504787e-03 3.488578256069e-02 0.0 
3.991547129401e-02 1.013821859771e-01 0.0 
-3.395645637383e-04 1.070886339432e-02 0.0 
-1.067892527720e-03 1.301265174941e-02 0.0 
7.091086589433e-03 -2.474242049614e-02 0.0 
5.578591559255e-03 -1.983973658632e-02 0.0 
2.824388301121e-03 3.798527791921e-02 0.0 
3.231430073916e-02 5.175951447510e-02 0.0 
3.527202353796e-02 6.080311508992e-02 0.0 
2.905797380948e-02 4.191678199207e-02 0.0 
-2.716975597621e-04 8.930576475212e-03 0.0 
2.571111623872e-03 1.242822509022e-01 0.0 
-1.189929710679e-03 1.459796685769e-02 0.0 
4.664486603979e-02 7.738014137217e-02 0.0 
3.026883595112e-03 3.101276095991e-02 0.0 
3.212887947990e-02 2.470887805424e-02 0.0 
4.402435133057e-02 4.272349982697e-02 0.0 
5.593001076965e-03 1.283046208908e-02 0.0 
2.308703786632e-03 4.551463049270e-02 0.0 
1.704072169581e-03 2.990610582050e-02 0.0 
1.631192842930e-02 1.012353185063e-01 0.0 
1.477908154897e-02 1.076011005336e-01 0.0 
1.786160116048e-02 9.508857694060e-02 0.0 
1.768374860894e-02 -7.666879587454e-03 0.0 
1.400542348576e-02 -1.008181457110e-02 0.0 
6.087055374678e-03 4.660671330277e-02 0.0 
-4.092598906542e-03 5.061697833211e-02 0.0 
-3.571832296109e-03 5.186338968315e-02 0.0 
-1.684227849388e-03 2.711570703357e-02 0.0 
-3.492673492484e-03 2.700163357447e-02 0.0 
-5.332169074242e-03 3.599733168774e-02 0.0 
-5.780877227682e-03 3.456838947136e-02 0.0 
3.353180643864e-02 4.289353479833e-02 0.0 
3.056906698992e-02 4.097479332144e-02 0.0 
3.834375029641e-02 4.432474827787e-02 0.0 
6.593819798088e-03 1.381465758556e-02 0.0 
6.540900231480e-03 1.306789287198e-02 0.0 
9.449878427329e-03 1.173410465418e-02 0.0 
6.356533774834e-03 3.424319401215e-02 0.0 
4.264830691355e-03 2.543672181880e-02 0.0 
1.499403188756e-04 9.231370144272e-03 0.0 
2.534282194333e-03 4.402080240831e-03 0.0 
-3.321598233036e-03 1.750277579775e-02 0.0 
7.861521774039e-03 2.871822228372e-02 0.0 
-1.254284710199e-03 1.154538171838e-02 0.0 
-1.714078088797e-03 1.357644076578e-02 0.0 
5.718730809951e-03 3.923699333603e-02 0.0 
3.243327092735e-03 3.337516901240e-02 0.0 
2.190602765521e-02 2.093029523257e-02 0.0 
1.793781060845e-02 9.882241038483e-03 0.0 
1.238485253661e-02 3.036086943317e-02 0.0 
1.572520708950e-02 3.643999020502e-02 0.0 
8.870524619475e-03 2.304445996162e-02 0.0 
-9.237046288990e-04 6.038530782421e-02 0.0 
2.819170549426e-02 2.340899802996e-02 0.0 
3.474705772371e-03 8.801746713484e-03 0.0 
5.456909397019e-03 9.886619715928e-03 0.0 
1.800034962836e-03 7.222540291476e-03 0.0 
1.988776515462e-02 1.649786024486e-02 0.0 
1.478965562648e-02 1.245268554179e-02 0.0 
1.629508049782e-02 1.397739634318e-02 0.0 
7.434643449283e-03 -2.560712082114e-02 0.0 
1.285738766541e-03 3.579256221740e-02 0.0 
1.137389697674e-02 1.069958987082e-01 0.0 
6.242477655270e-03 -2.836813450133e-02 0.0 
9.837001767465e-03 1.132742892281e-01 0.0 
8.230629953061e-03 1.061544780702e-01 0.0 
8.507665539113e-03 1.193424774971e-01 0.0 
-1.939517400327e-04 6.200370094241e-02 0.0 
1.854473597406e-02 1.095884235226e-01 0.0 
2.030102057105e-02 1.017347424612e-01 0.0 
8.212173703669e-03 3.380572002323e-02 0.0 
5.363925980767e-03 2.139842928584e-02 0.0 
7.815808148231e-03 4.413944365882e-02 0.0 
5.932451940024e-03 4.854166195698e-02 0.0 
-8.300100476539e-04 9.483001431185e-03 0.0 
-1.452527418005e-03 1.202882961233e-02 0.0 
-1.047279321870e-03 8.053147701204e-03 0.0 
-1.590403806526e-03 1.094267343848e-02 0.0 
-2.051905219844e-03 1.477622201153e-02 0.0 
-2.046845818065e-03 1.363699297156e-02 0.0 
1.330300643968e-02 1.146570619128e-01 0.0 
-1.388871955875e-03 8.689219635546e-03 0.0 
-1.843870630827e-03 1.205432753952e-02 0.0 
-1.136675163671e-03 6.961003574844e-03 0.0 
4.107654217959e-02 1.097132713094e-01 0.0 
3.950425957717e-02 5.765328604131e-02 0.0 
3.778057490344e-02 6.949958336623e-02 0.0 
3.247875818600e-02 7.379301858869e-02 0.0 
1.522917698576e-02 1.685371658129e-02 0.0 
1.922505780040e-02 2.335154752803e-02 0.0 
-1.231412023857e-03 2.264730093461e-02 0.0 
-1.452212967076e-03 2.737152646916e-02 0.0 
6.804772080415e-03 1.129259706735e-01 0.0 
4.976481911633e-03 1.135276554495e-01 0.0 
5.429362128126e-03 1.020006090565e-01 0.0 
3.924108709704e-03 1.034633576775e-01 0.0 
4.220606642946e-03 9.190352796318e-02 0.0 
2.721270647172e-03 9.343325866321e-02 0.0 
3.214785229567e-03 8.161645900055e-02 0.0 
1.365273320094e-02 1.199435831416e-02 0.0 
2.634136376927e-02 5.351553136813e-02 0.0 
3.919809907489e-02 1.112427188035e-01 0.0 
9.563902539302e-03 8.935996609289e-03 0.0 
1.085673973287e-02 1.059353707837e-02 0.0 
4.385325401235e-02 9.477393585035e-02 0.0 
4.086104798859e-02 1.019333223191e-01 0.0 
2.352743632272e-04 7.918555304499e-03 0.0 
3.883826081739e-02 2.852383484687e-02 0.0 
3.989466981125e-03 1.353427391151e-02 0.0 
1.475631123437e-03 -1.410175251571e-02 0.0 
8.273436238149e-03 -1.545410393171e-02 0.0 
4.172297022653e-02 3.592348165020e-02 0.0 
4.548915926741e-02 8.783597519855e-02 0.0 
4.191582027391e-02 6.552019594709e-02 0.0 
4.049082158573e-02 7.758427211068e-02 0.0 
6.273041825978e-03 1.375056051468e-02 0.0 
4.771977714203e-03 2.754400490389e-02 0.0 
2.558812229933e-02 3.158049792378e-02 0.0 
4.673069622903e-03 8.023906886243e-02 0.0 
1.951783960092e-02 3.222912905169e-02 0.0 
-6.741320245708e-04 2.509205675420e-02 0.0 
3.669877392896e-02 2.134957445349e-02 0.0 
4.706363462136e-02 6.747280155118e-02 0.0 
3.040417422259e-02 3.039977746711e-02 0.0 
4.062995649911e-02 4.716445592124e-02 0.0 
3.825102562182e-02 8.147090934398e-02 0.0 
3.530564724951e-02 9.767572279490e-02 0.0 
3.767156046369e-02 1.002313362553e-01 0.0 
3.367374994691e-02 1.564844009268e-02 0.0 
4.230410417956e-02 8.425098986707e-02 0.0 
3.799734542404e-02 9.064062166438e-02 0.0 
4.373041797146e-02 7.432715748419e-02 0.0 
1.968513960080e-02 4.897598078598e-02 0.0 
1.925169636322e-02 4.235053226564e-02 0.0 
1.483641645184e-02 3.049128134425e-02 0.0 
1.840839982295e-02 3.598540507411e-02 0.0 
2.283327526908e-02 4.783958574358e-02 0.0 
2.213126544670e-02 4.126467251174e-02 0.0 
1.714152229513e-02 2.996224766758e-02 0.0 
2.098002434293e-02 3.494279269287e-02 0.0 
1.412716296829e-02 2.188231698885e-02 0.0 
1.919068582405e-02 2.867749283917e-02 0.0 
2.481014011693e-02 3.961256141698e-02 0.0 
2.335516402626e-02 3.365234280600e-02 0.0 
1.783095832118e-02 2.427222016078e-02 0.0 
2.865569188145e-02 4.418122462096e-02 0.0 
8.069646473722e-03 7.278950006956e-03 0.0 
4.237294053703e-02 3.479504929980e-02 0.0 
1.047636432524e-02 -1.933975006296e-02 0.0 
1.170220622909e-02 -4.191918093663e-03 0.0 
4.653137945819e-02 7.091961710325e-02 0.0 
6.973665695647e-03 1.074609606016e-02 0.0 
5.945475971508e-03 1.124169169078e-02 0.0 
3.151730148556e-02 1.299570526804e-02 0.0 
7.665264054410e-03 7.847245369707e-03 0.0 
3.948974305627e-02 9.157872302170e-02 0.0 
2.048280169005e-02 -4.766775449788e-03 0.0 
7.538188062920e-03 6.912672542317e-03 0.0 
2.308978522136e-02 5.455747820397e-02 0.0 
2.649416299042e-02 5.985643024299e-02 0.0 
2.615447219463e-02 6.682061441744e-02 0.0 
4.705146946094e-03 1.091866553754e-02 0.0 
1.929912565890e-02 8.866001930700e-02 0.0 
5.703941837655e-03 4.872834024262e-03 0.0 
2.569465914180e-02 1.734353578625e-02 0.0 
2.995533437502e-02 1.967094647578e-02 0.0 
3.185567235194e-02 1.907578212941e-02 0.0 
2.587144754067e-02 4.629465517026e-02 0.0 
3.657683237648e-03 4.057571346305e-03 0.0 
6.176761543646e-03 7.188629818238e-03 0.0 
4.961700491215e-03 6.972584822869e-03 0.0 
8.030034258208e-03 9.807345672328e-03 0.0 
2.333796270358e-03 3.842412087732e-03 0.0 
6.938151529688e-03 8.888937036225e-03 0.0 
6.815845736067e-03 8.039561880757e-03 0.0 
2.337166477027e-03 1.848432454601e-03 0.0 
5.322939816926e-03 -2.279127460740e-04 0.0 
5.627093271436e-03 2.651905763228e-03 0.0 
8.915606248312e-03 -9.686190612435e-04 0.0 
8.461470763869e-03 -4.335924628204e-03 0.0 
1.246322287480e-02 -3.705081796107e-03 0.0 
1.295903086701e-02 -3.047161530372e-04 0.0 
1.608620138836e-02 -5.081466934818e-03 0.0 
2.519408073305e-02 3.214051223476e-02 0.0 
1.131972571875e-03 3.681542436087e-03 0.0 
1.093159190706e-04 1.747443709790e-02 0.0 
1.769596445891e-03 1.565298652558e-02 0.0 
1.345746681102e-03 1.494637732607e-02 0.0 
-6.098787340092e-03 3.644502750347e-02 0.0 
-5.972209717162e-03 3.250525527302e-02 0.0 
-5.518048675707e-03 3.089760474568e-02 0.0 
-5.871018103739e-03 4.048713941822e-02 0.0 
3.481382743067e-02 3.205754252640e-02 0.0 
6.151491837887e-04 3.751660903621e-03 0.0 
1.256251741680e-02 1.240685604763e-02 0.0 
-5.852178316850e-03 2.978746045751e-02 0.0 
2.445087151332e-02 1.190519081203e-01 0.0 
2.555295633296e-02 1.078567021982e-01 0.0 
2.790061950532e-02 1.058313391036e-01 0.0 
2.601538688653e-02 9.487075041808e-02 0.0 
2.283099734372e-02 1.080666031273e-01 0.0 
-4.681918198088e-03 3.678994806947e-02 0.0 
-3.889430400472e-03 3.698328594631e-02 0.0 
-3.348403717332e-03 4.017908985530e-02 0.0 
-3.006296872083e-03 3.662454192874e-02 0.0 
-2.358151685510e-03 3.960158927438e-02 0.0 
-2.617278602254e-03 4.310833111330e-02 0.0 
-2.059561834545e-03 3.578109147846e-02 0.0 
-1.370137338020e-03 3.895889657658e-02 0.0 
1.977573408234e-02 1.214823429285e-01 0.0 
8.952959949180e-03 -1.419064489463e-02 0.0 
5.441019700040e-03 -8.285526381288e-03 0.0 
6.531900272098e-03 2.322643946225e-03 0.0 
3.367868054998e-03 -2.816191826127e-03 0.0 
3.746935983866e-03 -1.157994126461e-02 0.0 
2.274050029159e-03 -5.637409558839e-03 0.0 
4.078391637286e-03 -1.273100811359e-02 0.0 
4.925171847043e-03 -1.852471831228e-02 0.0 
1.214260080791e-02 7.595677333554e-03 0.0 
7.476872113196e-03 1.125006734869e-02 0.0 
1.298871250928e-02 1.592876559047e-02 0.0 
8.305651164154e-03 1.920670075113e-02 0.0 
3.618342704748e-03 1.477329432445e-02 0.0 
-1.026182361166e-04 3.300154971512e-02 0.0 
-6.954611201575e-04 5.768651853177e-03 0.0 
-1.088980761975e-03 4.941068440596e-02 0.0 
-2.099946669062e-03 5.044294095769e-02 0.0 
-2.005383584236e-03 5.345484750106e-02 0.0 
-3.109002545874e-03 5.059385542052e-02 0.0 
-2.018050486967e-03 4.744863665957e-02 0.0 
-9.639748529293e-04 5.577795018698e-02 0.0 
-1.774338770945e-03 5.601485654059e-02 0.0 
5.370085898208e-03 6.271895544239e-02 0.0 
3.104763898279e-03 6.395890322146e-02 0.0 
1.534674185970e-03 6.529138744264e-02 0.0 
1.480492596383e-03 6.450237771706e-02 0.0 
2.451185400415e-03 6.285145459401e-02 0.0 
4.543588624514e-03 6.187974556397e-02 0.0 
5.879821091863e-03 5.902918232299e-02 0.0 
9.089668950138e-03 5.713394948060e-02 0.0 
6.988624552325e-03 5.552461248088e-02 0.0 
3.945647642358e-03 5.726901547069e-02 0.0 
1.064190771565e-02 5.341729725564e-02 0.0 
1.033050562164e-03 6.402965070676e-02 0.0 
1.962408368676e-03 5.720800811023e-02 0.0 
-1.530888724144e-04 4.193640040860e-03 0.0 
1.536575087790e-02 1.218521115420e-01 0.0 
1.363670875262e-02 3.070793140238e-02 0.0 
1.578019422645e-03 1.495803351499e-02 0.0 
2.367276563163e-03 1.229367900650e-02 0.0 
1.920549113699e-03 1.195816993042e-02 0.0 
-4.251362624610e-04 1.469035489373e-02 0.0 
-6.857632026880e-04 1.193872305787e-02 0.0 
8.645089030637e-04 1.458752830543e-02 0.0 
-4.821213746615e-03 3.681994844335e-02 0.0 
1.354051732902e-02 2.485230693419e-02 0.0 
4.438551716547e-03 3.896814979661e-02 0.0 
2.221522716125e-02 1.414653426711e-03 0.0 
-3.668097215073e-03 2.156817762297e-02 0.0 
-2.243932778251e-03 2.883034268335e-02 0.0 
-4.282916899777e-03 2.678696450092e-02 0.0 
-2.215570963024e-03 1.824229899803e-02 0.0 
-3.700268636552e-03 3.042482872388e-02 0.0 
-2.942881427305e-03 2.051870758652e-02 0.0 
3.823404177021e-03 7.076734850965e-03 0.0 
2.739952213475e-04 6.077632722404e-02 0.0 
1.222314678578e-02 8.808849483827e-02 0.0 
7.940235762881e-03 9.329965162377e-02 0.0 
7.364147915808e-03 6.041367902063e-02 0.0 
-4.333358841614e-03 4.847944307230e-02 0.0 
-3.651693004163e-03 4.328597059274e-02 0.0 
-5.057289339288e-04 4.783699822658e-02 0.0 
1.384235635752e-02 1.336801609215e-02 0.0 
4.475243437334e-02 8.256506587097e-02 0.0 
-8.980915997086e-04 1.691082214045e-02 0.0 
-6.164029250449e-03 3.809128831925e-02 0.0 
-5.282051768104e-03 3.171065495551e-02 0.0 
-2.566478799288e-03 1.597188764860e-02 0.0 
4.416898997243e-02 4.059275465524e-02 0.0 
-5.084111388545e-03 2.602287030860e-02 0.0 
-1.617050356032e-03 1.835099378726e-02 0.0 
5.643130536995e-03 5.296130313335e-02 0.0 
1.229322287398e-02 4.369940859777e-02 0.0 
-4.488216632179e-04 1.605307334342e-02 0.0 
-3.971035364039e-03 2.428231433261e-02 0.0 
1.683032031654e-02 8.219563010615e-02 0.0 
1.692005740048e-02 1.463512453917e-02 0.0 
8.102309640190e-04 1.928944808213e-03 0.0 
1.049741090939e-02 5.505909949891e-02 0.0 
1.009629850392e-02 3.016480100662e-02 0.0 
2.174683886290e-02 9.475325209397e-02 0.0 
2.537998801033e-03 4.861556717395e-02 0.0 
1.288107940488e-02 1.011878674914e-01 0.0 
1.288067455343e-03 9.449412107372e-03 0.0 
1.970410615077e-02 5.564512720279e-02 0.0 
-3.222984878112e-03 5.260088534703e-02 0.0 
1.676105900396e-02 1.003455645386e-02 0.0 
4.673777605705e-02 5.834988259317e-02 0.0 
3.479165988836e-02 1.187717099787e-01 0.0 
4.572104664199e-03 3.305114565951e-02 0.0 
3.764020589681e-02 2.703859656254e-02 0.0 
1.042100104350e-02 1.203280491849e-02 0.0 
1.537940754506e-02 1.340592677129e-02 0.0 
-3.031583262529e-03 5.424366609629e-02 0.0 
-1.818243398649e-03 1.553811934201e-02 0.0 
2.891642948146e-02 1.499363987843e-02 0.0 
8.448404522838e-03 4.139150006488e-02 0.0 
3.408333408819e-02 3.793077663102e-02 0.0 
2.162581200171e-02 4.822888284624e-03 0.0 
1.354193948197e-02 4.922308185492e-02 0.0 
3.595955653980e-03 1.239916965026e-02 0.0 
1.736715812811e-02 1.469551458715e-02 0.0 
4.598923526620e-02 8.057514007892e-02 0.0 
4.190176104269e-02 5.034358253531e-02 0.0 
3.591871371262e-02 5.647992447470e-02 0.0 
4.172793557378e-02 3.941496921528e-02 0.0 
-1.645949682913e-03 3.186387164445e-02 0.0 
-1.298158662111e-03 1.597258242700e-02 0.0 
9.896239766682e-03 -1.552378172584e-02 0.0 
4.287235724979e-02 4.488527626593e-02 0.0 
2.051806518418e-02 8.189640597584e-02 0.0 
2.337588716057e-02 2.179107557582e-02 0.0 
5.961378574263e-03 2.743396447381e-02 0.0 
4.694877371241e-02 6.305689123141e-02 0.0 
-2.510518706462e-03 1.823946546541e-02 0.0 
1.061819841979e-02 3.615417806070e-02 0.0 
-5.473855415861e-03 2.876786814236e-02 0.0 
-1.603372627174e-04 6.289022192555e-02 0.0 
1.886415600326e-02 -1.257694909698e-04 0.0 
2.068042671062e-02 -1.282613276632e-03 0.0 
3.575465316113e-02 2.278811593956e-02 0.0 
-4.915201599632e-03 2.745286342421e-02 0.0 
1.073511312526e-02 2.285865098135e-02 0.0 
-2.565381036499e-03 1.759122739535e-02 0.0 
4.038851027563e-03 1.396269602749e-02 0.0 
8.193308299258e-03 2.097685092148e-02 0.0 
3.760552101059e-02 1.101186742423e-01 0.0 
-2.415349101812e-03 1.655314937981e-02 0.0 
1.283931415436e-02 1.071229736810e-02 0.0 
1.397510937678e-02 1.291264724220e-02 0.0 
-1.587689267887e-03 4.239686145134e-02 0.0 
1.365271502548e-02 1.253392499532e-02 0.0 
4.142350097287e-02 1.061054102175e-01 0.0 
-2.110180765417e-03 1.515683279749e-02 0.0 
8.034419235246e-03 1.311096493633e-02 0.0 
3.542578942077e-02 2.081349130069e-02 0.0 
4.264437941451e-03 1.242471309005e-01 0.0 
-1.418812005073e-03 9.581148503198e-03 0.0 
6.789829187719e-03 1.182728147308e-02 0.0 
3.861213775546e-02 3.594134089561e-02 0.0 
9.471752667835e-03 9.987719544757e-03 0.0 
3.718631684576e-02 1.213995696552e-01 0.0 
-4.927867306092e-03 2.901781790120e-02 0.0 
4.004771383818e-02 5.105265949461e-02 0.0 
4.128458279979e-03 1.082798273703e-02 0.0 
7.740255933962e-03 1.099437569778e-02 0.0 
2.935873009302e-02 7.189188820474e-02 0.0 
-5.287476675440e-03 3.244264958531e-02 0.0 
2.831658968898e-02 2.137531796004e-02 0.0 
3.317738665541e-03 6.043854110549e-02 0.0 
4.035248068805e-02 1.110728556833e-01 0.0 
-4.829827275769e-03 3.338803130518e-02 0.0 
1.684405251608e-02 -1.585507040851e-03 0.0 
6.430015737978e-03 1.171323098839e-02 0.0 
1.147759197541e-02 9.815947301234e-03 0.0 
-4.203904187186e-03 3.374147403216e-02 0.0 
1.727728318451e-02 1.726581662329e-03 0.0 
-3.460555796251e-03 3.355580258905e-02 0.0 
3.795921748829e-02 1.190090113503e-01 0.0 
2.980607440613e-02 6.449196665369e-02 0.0 
-2.613268825032e-03 3.290660681199e-02 0.0 
3.615771054995e-02 4.406357214606e-02 0.0 
4.320565680623e-03 5.319333567157e-02 0.0 
3.556876203587e-02 3.076924026095e-02 0.0 
-9.605494155442e-04 1.739975187558e-02 0.0 
-4.551685004223e-03 2.227930698711e-02 0.0 
3.865420322651e-03 1.365823736052e-02 0.0 
2.639902865676e-02 5.296636426537e-02 0.0 
3.668333648511e-02 1.118050481663e-01 0.0 
4.188472992194e-03 1.448663612139e-02 0.0 
3.156851376062e-02 3.685400937809e-02 0.0 
3.221983539935e-02 2.639038637216e-02 0.0 
3.397737955536e-02 2.285717633172e-02 0.0 
4.286702476067e-03 1.461635768833e-02 0.0 
3.998673828828e-02 9.641444346451e-02 0.0 
-4.194340162126e-03 3.234897478300e-02 0.0 
-2.548521025393e-03 3.261316556162e-02 0.0 
1.324919799280e-02 2.886190763276e-03 0.0 
2.856573624160e-02 3.489019925765e-02 0.0 
9.467749162821e-04 6.296749562770e-02 0.0 
2.946206617639e-02 5.056084670032e-02 0.0 
9.699552788884e-04 2.734671664459e-02 0.0 
9.249801489442e-03 2.144488401594e-03 0.0 
2.431408462009e-02 1.980404993017e-02 0.0 
1.234390054762e-03 9.017810529478e-02 0.0 
5.893973268295e-03 5.387985685100e-03 0.0 
-5.074003453888e-04 6.092092822801e-02 0.0 
2.751980358301e-03 6.765146332805e-03 0.0 
3.137648973146e-02 2.245220027999e-02 0.0 
3.792371879676e-04 1.097407497958e-02 0.0 
-1.760293270937e-03 1.381286095104e-02 0.0 
3.078191416122e-03 2.537079628302e-02 0.0 
-3.298273188866e-03 1.826465475264e-02 0.0 
4.298508894323e-04 1.209636170896e-02 0.0 
-3.183619246789e-04 5.385505450850e-03 0.0 
1.610830323784e-03 1.151174474408e-01 0.0 
3.237838408698e-02 1.015004261959e-01 0.0 
4.658362284431e-03 -3.016228426426e-02 0.0 
3.632440517051e-02 8.063529422241e-02 0.0 
-4.268792724757e-03 2.185043770779e-02 0.0 
3.200961442557e-02 4.734409128135e-02 0.0 
3.347013786637e-03 1.145186348997e-01 0.0 
-4.573797048174e-03 2.687928182955e-02 0.0 
1.314491892468e-02 1.825511559700e-02 0.0 
6.497256209517e-03 5.569008314907e-03 0.0 
2.219287832489e-03 7.001177812971e-02 0.0 
1.103534718094e-02 1.150237005433e-02 0.0 
2.851602831906e-02 2.263523954630e-02 0.0 
6.377241540534e-04 3.721899394410e-02 0.0 
9.883224051016e-03 1.248235705909e-01 0.0 
8.927824731924e-03 2.663418169818e-02 0.0 
-7.884516233542e-04 2.986224333488e-02 0.0 
2.694531873441e-02 8.526037475382e-02 0.0 
2.931073562048e-02 6.343491188681e-02 0.0 
2.277242782852e-02 4.303868960918e-02 0.0 
-2.499976497684e-03 5.536726494296e-02 0.0 
3.807551392093e-03 6.327206488852e-03 0.0 
2.225952810479e-02 6.578469787092e-02 0.0 
7.458666724037e-03 7.695849226749e-03 0.0 
1.655659125392e-02 1.127096076665e-01 0.0 
2.379592284903e-02 1.995317766347e-02 0.0 
1.549601285012e-02 4.450260221465e-02 0.0 
7.319449699992e-03 2.350356134818e-02 0.0 
1.212858376676e-02 1.026404712636e-02 0.0 
-5.636166971055e-04 3.994603145923e-03 0.0 
1.838033905138e-02 1.549455227234e-02 0.0 
1.576864932235e-02 2.072474074902e-02 0.0 
2.395790429208e-02 9.879430851157e-02 0.0 
1.387898215027e-02 1.421589006774e-02 0.0 
2.996670293157e-03 5.913204773949e-02 0.0 
-6.971634108401e-04 4.075328294562e-03 0.0 
2.076333247155e-02 1.123583156810e-01 0.0 
1.884381520846e-03 2.375658527273e-02 0.0 
6.850024867092e-03 -1.600785022648e-02 0.0 
9.605975015816e-04 2.310283274835e-02 0.0 
2.713805705696e-02 3.785062527221e-02 0.0 
6.834282644746e-03 9.925014206559e-02 0.0 
2.847487855354e-02 9.607130365609e-02 0.0 
-8.081127832540e-04 9.260169512626e-03 0.0 
1.193496647831e-02 1.997851383050e-02 0.0 
1.199421736377e-02 7.217924916525e-03 0.0 
3.476158856444e-03 7.133764955691e-02 0.0 
-4.017921959174e-03 4.877385451233e-02 0.0 
5.861134615245e-03 -2.586176032485e-02 0.0 
-3.380291666399e-04 7.542404724795e-03 0.0 
2.161737597321e-02 2.850577844868e-02 0.0 
-1.189305840168e-03 9.155365117952e-03 0.0 
7.040613420105e-04 6.524341975542e-02 0.0 
9.594481241180e-03 3.982888397294e-02 0.0 
8.253948591275e-04 6.558270954212e-03 0.0 
1.291233617715e-02 1.525119966798e-02 0.0 
3.894571933515e-03 -8.739693537000e-03 0.0 
2.482309312533e-03 9.506017166956e-03 0.0 
6.506716576975e-03 -4.991551148336e-03 0.0 
1.347635952757e-02 1.255854890044e-01 0.0 
8.125985199887e-03 5.177425406869e-02 0.0 
-6.864534728921e-04 4.287996972828e-03 0.0 
4.432505666351e-03 2.243530661655e-02 0.0 
-2.844966264272e-03 4.814691538582e-02 0.0 
2.911405958905e-02 1.141827479250e-01 0.0 
-1.393059082235e-03 5.847486563602e-02 0.0 
1.816297863860e-02 1.655778658816e-02 0.0 
5.192231083811e-03 2.194367330717e-02 0.0 
3.055265231545e-03 2.134956002569e-02 0.0 
2.444443557431e-03 6.173576379894e-03 0.0 
8.572549815810e-03 1.972582589487e-02 0.0 
3.609844863853e-03 3.347417534979e-03 0.0 
6.729467024151e-03 -2.378263179761e-02 0.0 
1.107766188229e-02 9.474921348033e-03 0.0 
6.005514667686e-03 9.014496999939e-03 0.0 
7.421749861898e-03 1.255308818407e-01 0.0 
1.057862513377e-02 2.033806132814e-02 0.0 
-2.716262636470e-03 5.337504785538e-02 0.0 
1.963602365114e-03 5.571869402168e-02 0.0 
1.832702137108e-04 1.072659485169e-02 0.0 
1.694860367774e-03 6.488132253410e-02 0.0 
1.251579492092e-03 1.256829249458e-01 0.0 
-1.232467130732e-04 4.422203867612e-03 0.0 
1.636438888846e-03 6.137336235134e-02 0.0 
2.657129158763e-03 1.059823460903e-01 0.0 
1.213687727106e-02 1.544936695917e-02 0.0 
-6.895007596914e-04 4.209401291418e-02 0.0 
1.476796116137e-03 4.632714221994e-02 0.0 
2.041769360057e-03 1.745411121719e-03 0.0 
6.756351629061e-03 -3.128626261398e-02 0.0 
2.125204076812e-03 8.362098467719e-02 0.0 
1.018245596217e-02 8.661552965325e-03 0.0 
6.773189516842e-03 1.944476991057e-02 0.0 
5.480235219508e-03 9.231163565090e-02 0.0 
1.550896101748e-02 6.225682118828e-04 0.0 
1.688242276844e-02 2.140826614472e-02 0.0 
-2.917095452381e-03 4.549607991107e-02 0.0 
1.854647704496e-02 1.882620428256e-02 0.0 
8.860790812211e-03 9.542567030099e-03 0.0 
7.126586006905e-04 -2.633407346182e-03 0.0 
-5.766652444185e-04 3.822930272812e-02 0.0 
9.114551209739e-03 4.773385537273e-02 0.0 
-1.108416761039e-03 7.433849357259e-03 0.0 
-1.920425896959e-03 4.480298247182e-02 0.0 
3.191959868303e-02 1.360838066172e-01 0.0 
8.401220239662e-04 1.623432059825e-01 0.0 
3.212790988900e-02 1.345305934552e-01 0.0 
8.179747381831e-04 1.514862000772e-01 0.0 
3.035303549328e-02 1.296474273039e-01 0.0 
8.404861437583e-04 1.401902462778e-01 0.0 

VECTORS node_bounda_dof_materi_velocity_x float
1.000000000000e+00 0.0 0.0 
1.000000000000e+00 0.0 0.0 
1.000000000000e+00 0.0 0.0 
1.000000000000e+00 0.0 0.0 
1.000000000000e+00 0.0 0.0 
1.000000000000e+00 0.0 0.0 
1.000000000000e+00 0.0 0.0 
1.000000000000e+00 0.0 0.0 
1.000000000000e+00 0.0 0.0 
1.000000000000e+00 0.0 0.0 
1.000000000000e+00 0.0 0.0 
1.000000000000e+00 0.0 0.0 
1.000000000000e+00 0.0 0.0 
1.000000000000e+00 0.0 0.0 
1.000000000000e+00 0.0 0.0 
1.000000000000e+00 0.0 0.0 
1.000000000000e+00 0.0 0.0 
1.000000000000e+00 0.0 0.0 
1.000000000000e+00 0.0 0.0 
1.000000000000e+00 0.0 0.0 
1.000000000000e+00 0.0 0.0 
1.000000000000e+00 0.0 0.0 
1.000000000000e+00 0.0 0.0 
1.000000000000e+00 0.0 0.0 
1.000000000000e+00 0.0 0.0 
1.000000000000e+00 0.0 0.0 
1.000000000000e+00 0.0 0.0 
1.000000000000e+00 0.0 0.0 
1.000000000000e+00 0.0 0.0 
1.000000000000e+00 0.0 0.0 
1.000000000000e+00 0.0 0.0 
1.000000000000e+00 0.0 0.0 
1.000000000000e+00 0.0 0.0 
1.000000000000e+00 0.0 0.0 
1.000000000000e+00 0.0 0.0 
1.000000000000e+00 0.0 0.0 
1.000000000000e+00 0.0 0.0 
1.000000000000e+00 0.0 0.0 
1.000000000000e+00 0.0 0.0 
1.000000000000e+00 0.0 0.0 
1.000000000000e+00 0.0 0.0 
1.000000000000e+00 0.0 0.0 
1.000000000000e+00 0.0 0.0 
1.000000000000e+00 0.0 0.0 
1.000000000000e+00 0.0 0.0 
1.000000000000e+00 0.0 0.0 
1.000000000000e+00 0.0 0.0 
1.000000000000e+00 0.0 0.0 
1.000000000000e+00 0.0 0.0 
1.000000000000e+00 0.0 0.0 
1.000000000000e+00 0.0 0.0 
1.000000000000e+00 0.0 0.0 
1.000000000000e+00 0.0 0.0 
1.000000000000e+00 0.0 0.0 
1.000000000000e+00 0.0 0.0 
1.000000000000e+00 0.0 0.0 
1.000000000000e+00 0.0 0.0 
1.000000000000e+00 0.0 0.0 
1.000000000000e+00 0.0 0.0 
1.000000000000e+00 0.0 0.0 
1.000000000000e+00 0.0 0.0 
1.000000000000e+00 0.0 0.0 
1.000000000000e+00 0.0 0.0 
1.000000000000e+00 0.0 0.0 
1.000000000000e+00 0.0 0.0 
1.000000000000e+00 0.0 0.0 
1.000000000000e+00 0.0 0.0 
1.000000000000e+00 0.0 0.0 
1.000000000000e+00 0.0 0.0 
1.000000000000e+00 0.0 0.0 
1.000000000000e+00 0.0 0.0 
1.000000000000e+00 0.0 0.0 
1.000000000000e+00 0.0 0.0 
1.000000000000e+00 0.0 0.0 
1.000000000000e+00 0.0 0.0 
1.000000000000e+00 0.0 0.0 
1.000000000000e+00 0.0 0.0 
1.000000000000e+00 0.0 0.0 
1.000000000000e+00 0.0 0.0 
1.000000000000e+00 0.0 0.0 
1.000000000000e+00 0.0 0.0 
0.0 0.0 0.0 
0.0 0.0 0.0 
0.0 0.0 0.0 
0.0 0.0 0.0 
0.0 0.0 0.0 
0.0 0.0 0.0 
0.0 0.0 0.0 
0.0 0.0 0.0 
0.0 0.0 0.0 
0.0 0.0 0.0 
0.0 0.0 0.0 
1.000000000000e+00 0.0 0.0 
1.000000000000e+00 0.0 0.0 
1.000000000000e+00 0.0 0.0 
0.0 0.0 0.0 
0.0 0.0 0.0 
0.0 0.0 0.0 
0.0 0.0 0.0 
0.0 0.0 0.0 
0.0 0.0 0.0 
0.0 0.0 0.0 
0.0 0.0 0.0 
0.0 0.0 0.0 
0.0 0.0 0.0 
0.0 0.0 0.0 
0.0 0.0 0.0 
0.0 0.0 0.0 
0.0 0.0 0.0 
0.0 0.0 0.0 
0.0 0.0 0.0 
0.0 0.0 0.0 
0.0 0.0 0.0 
0.0 0.0 0.0 
0.0 0.0 0.0 
0.0 0.0 0.0 
0.0 0.0 0.0 
0.0 0.0 0.0 
0.0 0.0 0.0 
0.0 0.0 0.0 
0.0 0.0 0.0 
0.0 0.0 0.0 
0.0 0.0 0.0 
0.0 0.0 0.0 
0.0 0.0 0.0 
0.0 0.0 0.0 
0.0 0.0 0.0 
0.0 0.0 0.0 
0.0 0.0 0.0 
0.0 0.0 0.0 
0.0 0.0 0.0 
0.0 0.0 0.0 
0.0 0.0 0.0 
0.0 0.0 0.0 
0.0 0.0 0.0 
0.0 0.0 0.0 
0.0 0.0 0.0 
0.0 0.0 0.0 
0.0 0.0 0.0 
0.0 0.0 0.0 
0.0 0.0 0.0 
0.0 0.0 0.0 
0.0 0.0 0.0 
0.0 0.0 0.0 
0.0 0.0 0.0 
0.0 0.0 0.0 
0.0 0.0 0.0 
0.0 0.0 0.0 
0.0 0.0 0.0 
0.0 0.0 0.0 
0.0 0.0 0.0 
0.0 0.0 0.0 
0.0 0.0 0.0 
0.0 0.0 0.0 
0.0 0.0 0.0 
0.0 0.0 0.0 
0.0 0.0 0.0 
0.0 0.0 0.0 
0.0 0.0 0.0 
0.0 0.0 0.0 
0.0 0.0 0.0 
0.0 0.0 0.0 
0.0 0.0 0.0 
0.0 0.0 0.0 
0.0 0.0 0.0 
0.0 0.0 0.0 
0.0 0.0 0.0 
0.0 0.0 0.0 
0.0 0.0 0.0 
0.0 0.0 0.0 
0.0 0.0 0.0 
0.0 0.0 0.0 
0.0 0.0 0.0 
0.0 0.0 0.0 
0.0 0.0 0.0 
0.0 0.0 0.0 
0.0 0.0 0.0 
0.0 0.0 0.0 
0.0 0.0 0.0 
0.0 0.0 0.0 
0.0 0.0 0.0 
0.0 0.0 0.0 
0.0 0.0 0.0 
0.0 0.0 0.0 
0.0 0.0 0.0 
0.0 0.0 0.0 
0.0 0.0 0.0 
0.0 0.0 0.0 
0.0 0.0 0.0 
0.0 0.0 0.0 
0.0 0.0 0.0 
0.0 0.0 0.0 
0.0 0.0 0.0 
0.0 0.0 0.0 
0.0 0.0 0.0 
0.0 0.0 0.0 
0.0 0.0 0.0 
0.0 0.0 0.0 
0.0 0.0 0.0 
0.0 0.0 0.0 
0.0 0.0 0.0 
0.0 0.0 0.0 
0.0 0.0 0.0 
0.0 0.0 0.0 
0.0 0.0 0.0 
0.0 0.0 0.0 
0.0 0.0 0.0 
0.0 0.0 0.0 
0.0 0.0 0.0 
0.0 0.0 0.0 
0.0 0.0 0.0 
0.0 0.0 0.0 
0.0 0.0 0.0 
0.0 0.0 0.0 
0.0 0.0 0.0 
0.0 0.0 0.0 
0.0 0.0 0.0 
0.0 0.0 0.0 
0.0 0.0 0.0 
0.0 0.0 0.0 
0.0 0.0 0.0 
0.0 0.0 0.0 
0.0 0.0 0.0 
0.0 0.0 0.0 
0.0 0.0 0.0 
0.0 0.0 0.0 
0.0 0.0 0.0 
0.0 0.0 0.0 
0.0 0.0 0.0 
0.0 0.0 0.0 
0.0 0.0 0.0 
0.0 0.0 0.0 
0.0 0.0 0.0 
0.0 0.0 0.0 
0.0 0.0 0.0 
0.0 0.0 0.0 
0.0 0.0 0.0 
0.0 0.0 0.0 
0.0 0.0 0.0 
0.0 0.0 0.0 
0.0 0.0 0.0 
0.0 0.0 0.0 
0.0 0.0 0.0 
0.0 0.0 0.0 
0.0 0.0 0.0 
0.0 0.0 0.0 
0.0 0.0 0.0 
0.0 0.0 0.0 
0.0 0.0 0.0 
0.0 0.0 0.0 
0.0 0.0 0.0 
0.0 0.0 0.0 
0.0 0.0 0.0 
0.0 0.0 0.0 
0.0 0.0 0.0 
0.0 0.0 0.0 
0.0 0.0 0.0 
0.0 0.0 0.0 
0.0 0.0 0.0 
0.0 0.0 0.0 
0.0 0.0 0.0 
0.0 0.0 0.0 
0.0 0.0 0.0 
0.0 0.0 0.0 
0.0 0.0 0.0 
0.0 0.0 0.0 
0.0 0.0 0.0 
0.0 0.0 0.0 
0.0 0.0 0.0 
0.0 0.0 0.0 
0.0 0.0 0.0 
0.0 0.0 0.0 
0.0 0.0 0.0 
0.0 0.0 0.0 
0.0 0.0 0.0 
0.0 0.0 0.0 
0.0 0.0 0.0 
0.0 0.0 0.0 
0.0 0.0 0.0 
0.0 0.0 0.0 
0.0 0.0 0.0 
0.0 0.0 0.0 
0.0 0.0 0.0 
0.0 0.0 0.0 
0.0 0.0 0.0 
0.0 0.0 0.0 
0.0 0.0 0.0 
0.0 0.0 0.0 
0.0 0.0 0.0 
0.0 0.0 0.0 
0.0 0.0 0.0 
0.0 0.0 0.0 
0.0 0.0 0.0 
0.0 0.0 0.0 
0.0 0.0 0.0 
0.0 0.0 0.0 
0.0 0.0 0.0 
0.0 0.0 0.0 
0.0 0.0 0.0 
0.0 0.0 0.0 
0.0 0.0 0.0 
0.0 0.0 0.0 
0.0 0.0 0.0 
0.0 0.0 0.0 
0.0 0.0 0.0 
0.0 0.0 0.0 
0.0 0.0 0.0 
0.0 0.0 0.0 
0.0 0.0 0.0 
0.0 0.0 0.0 
0.0 0.0 0.0 
0.0 0.0 0.0 
0.0 0.0 0.0 
0.0 0.0 0.0 
0.0 0.0 0.0 
0.0 0.0 0.0 
0.0 0.0 0.0 
0.0 0.0 0.0 
0.0 0.0 0.0 
0.0 0.0 0.0 
0.0 0.0 0.0 
0.0 0.0 0.0 
0.0 0.0 0.0 
0.0 0.0 0.0 
0.0 0.0 0.0 
0.0 0.0 0.0 
0.0 0.0 0.0 
0.0 0.0 0.0 
0.0 0.0 0.0 
0.0 0.0 0.0 
0.0 0.0 0.0 
0.0 0.0 0.0 
0.0 0.0 0.0 
0.0 0.0 0.0 
0.0 0.0 0.0 
0.0 0.0 0.0 
0.0 0.0 0.0 
0.0 0.0 0.0 
0.0 0.0 0.0 
0.0 0.0 0.0 
0.0 0.0 0.0 
0.0 0.0 0.0 
0.0 0.0 0.0 
0.0 0.0 0.0 
0.0 0.0 0.0 
0.0 0.0 0.0 
0.0 0.0 0.0 
0.0 0.0 0.0 
0.0 0.0 0.0 
0.0 0.0 0.0 
0.0 0.0 0.0 
0.0 0.0 0.0 
0.0 0.0 0.0 
0.0 0.0 0.0 
0.0 0.0 0.0 
0.0 0.0 0.0 
0.0 0.0 0.0 
0.0 0.0 0.0 
0.0 0.0 0.0 
0.0 0.0 0.0 
0.0 0.0 0.0 
0.0 0.0 0.0 
0.0 0.0 0.0 
0.0 0.0 0.0 
0.0 0.0 0.0 
0.0 0.0 0.0 
0.0 0.0 0.0 
0.0 0.0 0.0 
0.0 0.0 0.0 
0.0 0.0 0.0 
0.0 0.0 0.0 
0.0 0.0 0.0 
0.0 0.0 0.0 
0.0 0.0 0.0 
0.0 0.0 0.0 
0.0 0.0 0.0 
0.0 0.0 0.0 
0.0 0.0 0.0 
0.0 0.0 0.0 
0.0 0.0 0.0 
0.0 0.0 0.0 
0.0 0.0 0.0 
0.0 0.0 0.0 
0.0 0.0 0.0 
0.0 0.0 0.0 
0.0 0.0 0.0 
0.0 0.0 0.0 
0.0 0.0 0.0 
0.0 0.0 0.0 
0.0 0.0 0.0 
0.0 0.0 0.0 
0.0 0.0 0.0 
0.0 0.0 0.0 
0.0 0.0 0.0 
0.0 0.0 0.0 
0.0 0.0 0.0 
0.0 0.0 0.0 
0.0 0.0 0.0 
0.0 0.0 0.0 
0.0 0.0 0.0 
0.0 0.0 0.0 
0.0 0.0 0.0 
0.0 0.0 0.0 
0.0 0.0 0.0 
0.0 0.0 0.0 
0.0 0.0 0.0 
0.0 0.0 0.0 
0.0 0.0 0.0 
0.0 0.0 0.0 
0.0 0.0 0.0 
0.0 0.0 0.0 
0.0 0.0 0.0 
0.0 0.0 0.0 
0.0 0.0 0.0 
0.0 0.0 0.0 
0.0 0.0 0.0 
0.0 0.0 0.0 
0.0 0.0 0.0 
0.0 0.0 0.0 
0.0 0.0 0.0 
0.0 0.0 0.0 
0.0 0.0 0.0 
0.0 0.0 0.0 
0.0 0.0 0.0 
0.0 0.0 0.0 
0.0 0.0 0.0 
0.0 0.0 0.0 
0.0 0.0 0.0 
0.0 0.0 0.0 
0.0 0.0 0.0 
0.0 0.0 0.0 
0.0 0.0 0.0 
0.0 0.0 0.0 
0.0 0.0 0.0 
0.0 0.0 0.0 
0.0 0.0 0.0 
0.0 0.0 0.0 
0.0 0.0 0.0 
0.0 0.0 0.0 
0.0 0.0 0.0 
0.0 0.0 0.0 
0.0 0.0 0.0 
0.0 0.0 0.0 
0.0 0.0 0.0 
0.0 0.0 0.0 
0.0 0.0 0.0 
0.0 0.0 0.0 
0.0 0.0 0.0 
0.0 0.0 0.0 
0.0 0.0 0.0 
0.0 0.0 0.0 
0.0 0.0 0.0 
0.0 0.0 0.0 
0.0 0.0 0.0 
0.0 0.0 0.0 
0.0 0.0 0.0 
0.0 0.0 0.0 
0.0 0.0 0.0 
0.0 0.0 0.0 
0.0 0.0 0.0 
0.0 0.0 0.0 
0.0 0.0 0.0 
0.0 0.0 0.0 
0.0 0.0 0.0 
0.0 0.0 0.0 
0.0 0.0 0.0 
0.0 0.0 0.0 
0.0 0.0 0.0 
0.0 0.0 0.0 
0.0 0.0 0.0 
0.0 0.0 0.0 
0.0 0.0 0.0 
0.0 0.0 0.0 
0.0 0.0 0.0 
0.0 0.0 0.0 
0.0 0.0 0.0 
0.0 0.0 0.0 
0.0 0.0 0.0 
0.0 0.0 0.0 
0.0 0.0 0.0 
0.0 0.0 0.0 
0.0 0.0 0.0 
0.0 0.0 0.0 
0.0 0.0 0.0 
0.0 0.0 0.0 
0.0 0.0 0.0 
0.0 0.0 0.0 
0.0 0.0 0.0 
0.0 0.0 0.0 
0.0 0.0 0.0 
0.0 0.0 0.0 
0.0 0.0 0.0 
0.0 0.0 0.0 
0.0 0.0 0.0 
0.0 0.0 0.0 
0.0 0.0 0.0 
0.0 0.0 0.0 
0.0 0.0 0.0 
0.0 0.0 0.0 
0.0 0.0 0.0 
0.0 0.0 0.0 
0.0 0.0 0.0 
0.0 0.0 0.0 
0.0 0.0 0.0 
0.0 0.0 0.0 
0.0 0.0 0.0 
0.0 0.0 0.0 
0.0 0.0 0.0 
0.0 0.0 0.0 
0.0 0.0 0.0 
0.0 0.0 0.0 
0.0 0.0 0.0 
0.0 0.0 0.0 
0.0 0.0 0.0 
0.0 0.0 0.0 
0.0 0.0 0.0 
0.0 0.0 0.0 
0.0 0.0 0.0 
0.0 0.0 0.0 
0.0 0.0 0.0 
0.0 0.0 0.0 
0.0 0.0 0.0 
0.0 0.0 0.0 
0.0 0.0 0.0 
0.0 0.0 0.0 
0.0 0.0 0.0 
0.0 0.0 0.0 
0.0 0.0 0.0 
0.0 0.0 0.0 
0.0 0.0 0.0 
0.0 0.0 0.0 
0.0 0.0 0.0 
0.0 0.0 0.0 
0.0 0.0 0.0 
0.0 0.0 0.0 
0.0 0.0 0.0 
0.0 0.0 0.0 
0.0 0.0 0.0 
0.0 0.0 0.0 
0.0 0.0 0.0 
0.0 0.0 0.0 
0.0 0.0 0.0 
0.0 0.0 0.0 
0.0 0.0 0.0 
0.0 0.0 0.0 
0.0 0.0 0.0 
0.0 0.0 0.0 
0.0 0.0 0.0 
0.0 0.0 0.0 
0.0 0.0 0.0 
0.0 0.0 0.0 
0.0 0.0 0.0 
0.0 0.0 0.0 
0.0 0.0 0.0 
0.0 0.0 0.0 
0.0 0.0 0.0 
0.0 0.0 0.0 
0.0 0.0 0.0 
0.0 0.0 0.0 
0.0 0.0 0.0 
0.0 0.0 0.0 
0.0 0.0 0.0 
0.0 0.0 0.0 
0.0 0.0 0.0 
0.0 0.0 0.0 
0.0 0.0 0.0 
0.0 0.0 0.0 
0.0 0.0 0.0 
0.0 0.0 0.0 
0.0 0.0 0.0 
0.0 0.0 0.0 
0.0 0.0 0.0 
0.0 0.0 0.0 
0.0 0.0 0.0 
0.0 0.0 0.0 
0.0 0.0 0.0 
0.0 0.0 0.0 
0.0 0.0 0.0 
0.0 0.0 0.0 
0.0 0.0 0.0 
0.0 0.0 0.0 
0.0 0.0 0.0 
0.0 0.0 0.0 
0.0 0.0 0.0 
0.0 0.0 0.0 
0.0 0.0 0.0 
0.0 0.0 0.0 
0.0 0.0 0.0 
0.0 0.0 0.0 
0.0 0.0 0.0 
0.0 0.0 0.0 
0.0 0.0 0.0 
0.0 0.0 0.0 
0.0 0.0 0.0 
0.0 0.0 0.0 
0.0 0.0 0.0 
0.0 0.0 0.0 
0.0 0.0 0.0 
0.0 0.0 0.0 
0.0 0.0 0.0 
0.0 0.0 0.0 
0.0 0.0 0.0 
0.0 0.0 0.0 
0.0 0.0 0.0 
0.0 0.0 0.0 
0.0 0.0 0.0 
0.0 0.0 0.0 
0.0 0.0 0.0 
0.0 0.0 0.0 
0.0 0.0 0.0 
0.0 0.0 0.0 
0.0 0.0 0.0 
0.0 0.0 0.0 
0.0 0.0 0.0 
0.0 0.0 0.0 
0.0 0.0 0.0 
0.0 0.0 0.0 
0.0 0.0 0.0 
0.0 0.0 0.0 
0.0 0.0 0.0 
0.0 0.0 0.0 
0.0 0.0 0.0 
0.0 0.0 0.0 
0.0 0.0 0.0 
0.0 0.0 0.0 
0.0 0.0 0.0 
0.0 0.0 0.0 
0.0 0.0 0.0 
0.0 0.0 0.0 
0.0 0.0 0.0 
0.0 0.0 0.0 
0.0 0.0 0.0 
0.0 0.0 0.0 
0.0 0.0 0.0 
0.0 0.0 0.0 
0.0 0.0 0.0 
0.0 0.0 0.0 
0.0 0.0 0.0 
0.0 0.0 0.0 
0.0 0.0 0.0 
0.0 0.0 0.0 
0.0 0.0 0.0 
0.0 0.0 0.0 
0.0 0.0 0.0 
0.0 0.0 0.0 
0.0 0.0 0.0 
0.0 0.0 0.0 
0.0 0.0 0.0 
0.0 0.0 0.0 
0.0 0.0 0.0 
0.0 0.0 0.0 
0.0 0.0 0.0 
0.0 0.0 0.0 
0.0 0.0 0.0 
0.0 0.0 0.0 
0.0 0.0 0.0 
0.0 0.0 0.0 
0.0 0.0 0.0 
0.0 0.0 0.0 
0.0 0.0 0.0 
0.0 0.0 0.0 
0.0 0.0 0.0 
0.0 0.0 0.0 
0.0 0.0 0.0 
0.0 0.0 0.0 
0.0 0.0 0.0 
0.0 0.0 0.0 
0.0 0.0 0.0 
0.0 0.0 0.0 
0.0 0.0 0.0 
0.0 0.0 0.0 
0.0 0.0 0.0 
0.0 0.0 0.0 
0.0 0.0 0.0 
0.0 0.0 0.0 
0.0 0.0 0.0 
0.0 0.0 0.0 
0.0 0.0 0.0 
0.0 0.0 0.0 
0.0 0.0 0.0 
0.0 0.0 0.0 
0.0 0.0 0.0 
0.0 0.0 0.0 
0.0 0.0 0.0 
0.0 0.0 0.0 
0.0 0.0 0.0 
0.0 0.0 0.0 
0.0 0.0 0.0 
0.0 0.0 0.0 
0.0 0.0 0.0 
0.0 0.0 0.0 
0.0 0.0 0.0 
0.0 0.0 0.0 
0.0 0.0 0.0 
0.0 0.0 0.0 
0.0 0.0 0.0 
0.0 0.0 0.0 
0.0 0.0 0.0 
0.0 0.0 0.0 
0.0 0.0 0.0 
0.0 0.0 0.0 
0.0 0.0 0.0 
0.0 0.0 0.0 
0.0 0.0 0.0 
0.0 0.0 0.0 
0.0 0.0 0.0 
0.0 0.0 0.0 
0.0 0.0 0.0 
0.0 0.0 0.0 
0.0 0.0 0.0 
0.0 0.0 0.0 
0.0 0.0 0.0 
0.0 0.0 0.0 
0.0 0.0 0.0 
0.0 0.0 0.0 
0.0 0.0 0.0 
0.0 0.0 0.0 
0.0 0.0 0.0 
0.0 0.0 0.0 
0.0 0.0 0.0 
0.0 0.0 0.0 
0.0 0.0 0.0 
0.0 0.0 0.0 
0.0 0.0 0.0 
0.0 0.0 0.0 
0.0 0.0 0.0 
0.0 0.0 0.0 
0.0 0.0 0.0 
0.0 0.0 0.0 
0.0 0.0 0.0 
0.0 0.0 0.0 
0.0 0.0 0.0 
0.0 0.0 0.0 
0.0 0.0 0.0 
0.0 0.0 0.0 
0.0 0.0 0.0 
0.0 0.0 0.0 
0.0 0.0 0.0 
0.0 0.0 0.0 
0.0 0.0 0.0 
0.0 0.0 0.0 
0.0 0.0 0.0 
0.0 0.0 0.0 
0.0 0.0 0.0 
0.0 0.0 0.0 
0.0 0.0 0.0 
0.0 0.0 0.0 
0.0 0.0 0.0 
0.0 0.0 0.0 
0.0 0.0 0.0 
0.0 0.0 0.0 
0.0 0.0 0.0 
0.0 0.0 0.0 
0.0 0.0 0.0 
0.0 0.0 0.0 
0.0 0.0 0.0 
0.0 0.0 0.0 
0.0 0.0 0.0 
0.0 0.0 0.0 
0.0 0.0 0.0 
0.0 0.0 0.0 
0.0 0.0 0.0 
0.0 0.0 0.0 
0.0 0.0 0.0 
0.0 0.0 0.0 
0.0 0.0 0.0 
0.0 0.0 0.0 
0.0 0.0 0.0 
0.0 0.0 0.0 
0.0 0.0 0.0 
0.0 0.0 0.0 
0.0 0.0 0.0 
0.0 0.0 0.0 
0.0 0.0 0.0 
0.0 0.0 0.0 
0.0 0.0 0.0 
0.0 0.0 0.0 
0.0 0.0 0.0 
0.0 0.0 0.0 
0.0 0.0 0.0 
0.0 0.0 0.0 
0.0 0.0 0.0 
0.0 0.0 0.0 
0.0 0.0 0.0 
0.0 0.0 0.0 
0.0 0.0 0.0 
0.0 0.0 0.0 
0.0 0.0 0.0 
0.0 0.0 0.0 
0.0 0.0 0.0 
0.0 0.0 0.0 
0.0 0.0 0.0 
0.0 0.0 0.0 
0.0 0.0 0.0 
0.0 0.0 0.0 
0.0 0.0 0.0 
0.0 0.0 0.0 
0.0 0.0 0.0 
0.0 0.0 0.0 
0.0 0.0 0.0 
0.0 0.0 0.0 
0.0 0.0 0.0 
0.0 0.0 0.0 
0.0 0.0 0.0 
0.0 0.0 0.0 
0.0 0.0 0.0 
0.0 0.0 0.0 
0.0 0.0 0.0 
0.0 0.0 0.0 
0.0 0.0 0.0 
0.0 0.0 0.0 
0.0 0.0 0.0 
0.0 0.0 0.0 
0.0 0.0 0.0 
0.0 0.0 0.0 
0.0 0.0 0.0 
0.0 0.0 0.0 
0.0 0.0 0.0 
0.0 0.0 0.0 
0.0 0.0 0.0 
0.0 0.0 0.0 
0.0 0.0 0.0 
0.0 0.0 0.0 
0.0 0.0 0.0 
0.0 0.0 0.0 
0.0 0.0 0.0 
0.0 0.0 0.0 
0.0 0.0 0.0 
0.0 0.0 0.0 
0.0 0.0 0.0 
0.0 0.0 0.0 
0.0 0.0 0.0 
0.0 0.0 0.0 
0.0 0.0 0.0 
0.0 0.0 0.0 
0.0 0.0 0.0 
0.0 0.0 0.0 
0.0 0.0 0.0 
0.0 0.0 0.0 
0.0 0.0 0.0 
0.0 0.0 0.0 
0.0 0.0 0.0 
0.0 0.0 0.0 
0.0 0.0 0.0 
0.0 0.0 0.0 
0.0 0.0 0.0 
0.0 0.0 0.0 
0.0 0.0 0.0 
0.0 0.0 0.0 
0.0 0.0 0.0 
0.0 0.0 0.0 
0.0 0.0 0.0 
0.0 0.0 0.0 
0.0 0.0 0.0 
0.0 0.0 0.0 
0.0 0.0 0.0 
0.0 0.0 0.0 
0.0 0.0 0.0 
0.0 0.0 0.0 
0.0 0.0 0.0 
0.0 0.0 0.0 
0.0 0.0 0.0 
0.0 0.0 0.0 
0.0 0.0 0.0 
0.0 0.0 0.0 
0.0 0.0 0.0 
0.0 0.0 0.0 
0.0 0.0 0.0 
0.0 0.0 0.0 
0.0 0.0 0.0 
0.0 0.0 0.0 
0.0 0.0 0.0 
0.0 0.0 0.0 
0.0 0.0 0.0 
0.0 0.0 0.0 
0.0 0.0 0.0 
0.0 0.0 0.0 
0.0 0.0 0.0 
0.0 0.0 0.0 
0.0 0.0 0.0 
0.0 0.0 0.0 
0.0 0.0 0.0 
0.0 0.0 0.0 
0.0 0.0 0.0 
0.0 0.0 0.0 
0.0 0.0 0.0 
0.0 0.0 0.0 
0.0 0.0 0.0 
0.0 0.0 0.0 
0.0 0.0 0.0 
0.0 0.0 0.0 
0.0 0.0 0.0 
0.0 0.0 0.0 
0.0 0.0 0.0 
0.0 0.0 0.0 
0.0 0.0 0.0 
0.0 0.0 0.0 
0.0 0.0 0.0 
0.0 0.0 0.0 
0.0 0.0 0.0 
0.0 0.0 0.0 
0.0 0.0 0.0 
0.0 0.0 0.0 
0.0 0.0 0.0 
0.0 0.0 0.0 
0.0 0.0 0.0 
0.0 0.0 0.0 
0.0 0.0 0.0 
0.0 0.0 0.0 
0.0 0.0 0.0 
0.0 0.0 0.0 
0.0 0.0 0.0 
0.0 0.0 0.0 
0.0 0.0 0.0 
0.0 0.0 0.0 
0.0 0.0 0.0 
0.0 0.0 0.0 
0.0 0.0 0.0 
0.0 0.0 0.0 
0.0 0.0 0.0 
0.0 0.0 0.0 
0.0 0.0 0.0 
0.0 0.0 0.0 
0.0 0.0 0.0 
0.0 0.0 0.0 
0.0 0.0 0.0 
0.0 0.0 0.0 
0.0 0.0 0.0 
0.0 0.0 0.0 
0.0 0.0 0.0 
0.0 0.0 0.0 
0.0 0.0 0.0 
0.0 0.0 0.0 
0.0 0.0 0.0 
0.0 0.0 0.0 
0.0 0.0 0.0 
0.0 0.0 0.0 
0.0 0.0 0.0 
0.0 0.0 0.0 
0.0 0.0 0.0 
0.0 0.0 0.0 
0.0 0.0 0.0 
0.0 0.0 0.0 
0.0 0.0 0.0 
0.0 0.0 0.0 
0.0 0.0 0.0 
0.0 0.0 0.0 
0.0 0.0 0.0 
0.0 0.0 0.0 
0.0 0.0 0.0 
0.0 0.0 0.0 
0.0 0.0 0.0 
0.0 0.0 0.0 
0.0 0.0 0.0 
0.0 0.0 0.0 
0.0 0.0 0.0 
0.0 0.0 0.0 
0.0 0.0 0.0 
0.0 0.0 0.0 
0.0 0.0 0.0 
0.0 0.0 0.0 
0.0 0.0 0.0 
0.0 0.0 0.0 
0.0 0.0 0.0 
0.0 0.0 0.0 
0.0 0.0 0.0 
0.0 0.0 0.0 
0.0 0.0 0.0 
0.0 0.0 0.0 
0.0 0.0 0.0 
0.0 0.0 0.0 
0.0 0.0 0.0 
0.0 0.0 0.0 
0.0 0.0 0.0 
0.0 0.0 0.0 
0.0 0.0 0.0 
0.0 0.0 0.0 
0.0 0.0 0.0 
0.0 0.0 0.0 
0.0 0.0 0.0 
0.0 0.0 0.0 
0.0 0.0 0.0 
0.0 0.0 0.0 
0.0 0.0 0.0 
0.0 0.0 0.0 
0.0 0.0 0.0 
0.0 0.0 0.0 
0.0 0.0 0.0 
0.0 0.0 0.0 
0.0 0.0 0.0 
0.0 0.0 0.0 
0.0 0.0 0.0 
0.0 0.0 0.0 
0.0 0.0 0.0 
0.0 0.0 0.0 
0.0 0.0 0.0 
0.0 0.0 0.0 
0.0 0.0 0.0 
0.0 0.0 0.0 
0.0 0.0 0.0 
0.0 0.0 0.0 
0.0 0.0 0.0 
0.0 0.0 0.0 
0.0 0.0 0.0 
0.0 0.0 0.0 
0.0 0.0 0.0 
0.0 0.0 0.0 
0.0 0.0 0.0 
0.0 0.0 0.0 
0.0 0.0 0.0 
0.0 0.0 0.0 
0.0 0.0 0.0 
0.0 0.0 0.0 
0.0 0.0 0.0 
0.0 0.0 0.0 
0.0 0.0 0.0 
0.0 0.0 0.0 
0.0 0.0 0.0 
0.0 0.0 0.0 
0.0 0.0 0.0 
0.0 0.0 0.0 
0.0 0.0 0.0 
0.0 0.0 0.0 
0.0 0.0 0.0 
0.0 0.0 0.0 
0.0 0.0 0.0 
0.0 0.0 0.0 
0.0 0.0 0.0 
0.0 0.0 0.0 
0.0 0.0 0.0 
0.0 0.0 0.0 
0.0 0.0 0.0 
0.0 0.0 0.0 
0.0 0.0 0.0 
0.0 0.0 0.0 
0.0 0.0 0.0 
0.0 0.0 0.0 
0.0 0.0 0.0 
0.0 0.0 0.0 
0.0 0.0 0.0 
0.0 0.0 0.0 
0.0 0.0 0.0 
0.0 0.0 0.0 
0.0 0.0 0.0 
0.0 0.0 0.0 
0.0 0.0 0.0 
0.0 0.0 0.0 
0.0 0.0 0.0 
0.0 0.0 0.0 
0.0 0.0 0.0 
0.0 0.0 0.0 
0.0 0.0 0.0 
0.0 0.0 0.0 
0.0 0.0 0.0 
0.0 0.0 0.0 
0.0 0.0 0.0 
0.0 0.0 0.0 
0.0 0.0 0.0 
0.0 0.0 0.0 
0.0 0.0 0.0 
0.0 0.0 0.0 
0.0 0.0 0.0 
0.0 0.0 0.0 
0.0 0.0 0.0 
0.0 0.0 0.0 
0.0 0.0 0.0 
0.0 0.0 0.0 
0.0 0.0 0.0 
0.0 0.0 0.0 
0.0 0.0 0.0 
0.0 0.0 0.0 
0.0 0.0 0.0 
0.0 0.0 0.0 
0.0 0.0 0.0 
0.0 0.0 0.0 
0.0 0.0 0.0 
0.0 0.0 0.0 
0.0 0.0 0.0 
0.0 0.0 0.0 
0.0 0.0 0.0 
0.0 0.0 0.0 
0.0 0.0 0.0 
0.0 0.0 0.0 
0.0 0.0 0.0 
0.0 0.0 0.0 
0.0 0.0 0.0 
0.0 0.0 0.0 
0.0 0.0 0.0 
0.0 0.0 0.0 

VECTORS node_bounda_dof_materi_velocity_y float
0.0 0.0 0.0 
0.0 0.0 0.0 
0.0 1.000000000000e+00 0.0 
0.0 1.000000000000e+00 0.0 
0.0 0.0 0.0 
0.0 0.0 0.0 
0.0 0.0 0.0 
0.0 0.0 0.0 
0.0 0.0 0.0 
0.0 0.0 0.0 
0.0 0.0 0.0 
0.0 0.0 0.0 
0.0 0.0 0.0 
0.0 0.0 0.0 
0.0 0.0 0.0 
0.0 0.0 0.0 
0.0 0.0 0.0 
0.0 0.0 0.0 
0.0 0.0 0.0 
0.0 0.0 0.0 
0.0 0.0 0.0 
0.0 0.0 0.0 
0.0 0.0 0.0 
0.0 1.000000000000e+00 0.0 
0.0 1.000000000000e+00 0.0 
0.0 1.000000000000e+00 0.0 
0.0 1.000000000000e+00 0.0 
0.0 1.000000000000e+00 0.0 
0.0 1.000000000000e+00 0.0 
0.0 1.000000000000e+00 0.0 
0.0 1.000000000000e+00 0.0 
0.0 1.000000000000e+00 0.0 
0.0 1.000000000000e+00 0.0 
0.0 1.000000000000e+00 0.0 
0.0 1.000000000000e+00 0.0 
0.0 1.000000000000e+00 0.0 
0.0 1.000000000000e+00 0.0 
0.0 1.000000000000e+00 0.0 
0.0 1.000000000000e+00 0.0 
0.0 1.000000000000e+00 0.0 
0.0 1.000000000000e+00 0.0 
0.0 1.000000000000e+00 0.0 
0.0 1.000000000000e+00 0.0 
0.0 1.000000000000e+00 0.0 
0.0 1.000000000000e+00 0.0 
0.0 1.000000000000e+00 0.0 
0.0 1.000000000000e+00 0.0 
0.0 1.000000000000e+00 0.0 
0.0 1.000000000000e+00 0.0 
0.0 1.000000000000e+00 0.0 
0.0 1.000000000000e+00 0.0 
0.0 1.000000000000e+00 0.0 
0.0 1.000000000000e+00 0.0 
0.0 1.000000000000e+00 0.0 
0.0 1.000000000000e+00 0.0 
0.0 1.000000000000e+00 0.0 
0.0 1.000000000000e+00 0.0 
0.0 1.000000000000e+00 0.0 
0.0 1.000000000000e+00 0.0 
0.0 1.000000000000e+00 0.0 
0.0 1.000000000000e+00 0.0 
0.0 1.000000000000e+00 0.0 
0.0 1.000000000000e+00 0.0 
0.0 1.000000000000e+00 0.0 
0.0 1.000000000000e+00 0.0 
0.0 1.000000000000e+00 0.0 
0.0 1.000000000000e+00 0.0 
0.0 1.000000000000e+00 0.0 
0.0 1.000000000000e+00 0.0 
0.0 1.000000000000e+00 0.0 
0.0 1.000000000000e+00 0.0 
0.0 1.000000000000e+00 0.0 
0.0 0.0 0.0 
0.0 0.0 0.0 
0.0 0.0 0.0 
0.0 0.0 0.0 
0.0 0.0 0.0 
0.0 0.0 0.0 
0.0 0.0 0.0 
0.0 0.0 0.0 
0.0 0.0 0.0 
0.0 0.0 0.0 
0.0 0.0 0.0 
0.0 0.0 0.0 
0.0 0.0 0.0 
0.0 0.0 0.0 
0.0 0.0 0.0 
0.0 0.0 0.0 
0.0 0.0 0.0 
0.0 0.0 0.0 
0.0 0.0 0.0 
0.0 0.0 0.0 
0.0 0.0 0.0 
0.0 0.0 0.0 
0.0 0.0 0.0 
0.0 0.0 0.0 
0.0 0.0 0.0 
0.0 0.0 0.0 
0.0 0.0 0.0 
0.0 0.0 0.0 
0.0 0.0 0.0 
0.0 0.0 0.0 
0.0 0.0 0.0 
0.0 0.0 0.0 
0.0 0.0 0.0 
0.0 0.0 0.0 
0.0 0.0 0.0 
0.0 0.0 0.0 
0.0 0.0 0.0 
0.0 0.0 0.0 
0.0 0.0 0.0 
0.0 0.0 0.0 
0.0 0.0 0.0 
0.0 0.0 0.0 
0.0 0.0 0.0 
0.0 0.0 0.0 
0.0 0.0 0.0 
0.0 0.0 0.0 
0.0 0.0 0.0 
0.0 0.0 0.0 
0.0 0.0 0.0 
0.0 0.0 0.0 
0.0 0.0 0.0 
0.0 0.0 0.0 
0.0 0.0 0.0 
0.0 0.0 0.0 
0.0 0.0 0.0 
0.0 0.0 0.0 
0.0 0.0 0.0 
0.0 0.0 0.0 
0.0 0.0 0.0 
0.0 0.0 0.0 
0.0 0.0 0.0 
0.0 0.0 0.0 
0.0 0.0 0.0 
0.0 0.0 0.0 
0.0 0.0 0.0 
0.0 0.0 0.0 
0.0 0.0 0.0 
0.0 0.0 0.0 
0.0 0.0 0.0 
0.0 0.0 0.0 
0.0 0.0 0.0 
0.0 0.0 0.0 
0.0 0.0 0.0 
0.0 0.0 0.0 
0.0 0.0 0.0 
0.0 0.0 0.0 
0.0 0.0 0.0 
0.0 0.0 0.0 
0.0 0.0 0.0 
0.0 0.0 0.0 
0.0 0.0 0.0 
0.0 0.0 0.0 
0.0 0.0 0.0 
0.0 0.0 0.0 
0.0 0.0 0.0 
0.0 0.0 0.0 
0.0 0.0 0.0 
0.0 0.0 0.0 
0.0 0.0 0.0 
0.0 0.0 0.0 
0.0 0.0 0.0 
0.0 0.0 0.0 
0.0 0.0 0.0 
0.0 0.0 0.0 
0.0 0.0 0.0 
0.0 0.0 0.0 
0.0 0.0 0.0 
0.0 0.0 0.0 
0.0 0.0 0.0 
0.0 0.0 0.0 
0.0 0.0 0.0 
0.0 0.0 0.0 
0.0 0.0 0.0 
0.0 0.0 0.0 
0.0 0.0 0.0 
0.0 0.0 0.0 
0.0 0.0 0.0 
0.0 0.0 0.0 
0.0 0.0 0.0 
0.0 0.0 0.0 
0.0 0.0 0.0 
0.0 0.0 0.0 
0.0 0.0 0.0 
0.0 0.0 0.0 
0.0 0.0 0.0 
0.0 0.0 0.0 
0.0 0.0 0.0 
0.0 0.0 0.0 
0.0 0.0 0.0 
0.0 0.0 0.0 
0.0 0.0 0.0 
0.0 0.0 0.0 
0.0 0.0 0.0 
0.0 0.0 0.0 
0.0 0.0 0.0 
0.0 0.0 0.0 
0.0 0.0 0.0 
0.0 0.0 0.0 
0.0 0.0 0.0 
0.0 0.0 0.0 
0.0 0.0 0.0 
0.0 0.0 0.0 
0.0 0.0 0.0 
0.0 0.0 0.0 
0.0 0.0 0.0 
0.0 0.0 0.0 
0.0 0.0 0.0 
0.0 0.0 0.0 
0.0 0.0 0.0 
0.0 0.0 0.0 
0.0 0.0 0.0 
0.0 0.0 0.0 
0.0 0.0 0.0 
0.0 0.0 0.0 
0.0 0.0 0.0 
0.0 0.0 0.0 
0.0 0.0 0.0 
0.0 0.0 0.0 
0.0 0.0 0.0 
0.0 0.0 0.0 
0.0 0.0 0.0 
0.0 0.0 0.0 
0.0 0.0 0.0 
0.0 0.0 0.0 
0.0 0.0 0.0 
0.0 0.0 0.0 
0.0 0.0 0.0 
0.0 0.0 0.0 
0.0 0.0 0.0 
0.0 0.0 0.0 
0.0 0.0 0.0 
0.0 0.0 0.0 
0.0 0.0 0.0 
0.0 0.0 0.0 
0.0 0.0 0.0 
0.0 0.0 0.0 
0.0 0.0 0.0 
0.0 0.0 0.0 
0.0 0.0 0.0 
0.0 0.0 0.0 
0.0 0.0 0.0 
0.0 0.0 0.0 
0.0 0.0 0.0 
0.0 0.0 0.0 
0.0 0.0 0.0 
0.0 0.0 0.0 
0.0 0.0 0.0 
0.0 0.0 0.0 
0.0 0.0 0.0 
0.0 0.0 0.0 
0.0 0.0 0.0 
0.0 0.0 0.0 
0.0 0.0 0.0 
0.0 0.0 0.0 
0.0 0.0 0.0 
0.0 0.0 0.0 
0.0 0.0 0.0 
0.0 0.0 0.0 
0.0 0.0 0.0 
0.0 0.0 0.0 
0.0 0.0 0.0 
0.0 0.0 0.0 
0.0 0.0 0.0 
0.0 0.0 0.0 
0.0 0.0 0.0 
0.0 0.0 0.0 
0.0 0.0 0.0 
0.0 0.0 0.0 
0.0 0.0 0.0 
0.0 0.0 0.0 
0.0 0.0 0.0 
0.0 0.0 0.0 
0.0 0.0 0.0 
0.0 0.0 0.0 
0.0 0.0 0.0 
0.0 0.0 0.0 
0.0 0.0 0.0 
0.0 0.0 0.0 
0.0 0.0 0.0 
0.0 0.0 0.0 
0.0 0.0 0.0 
0.0 0.0 0.0 
0.0 0.0 0.0 
0.0 0.0 0.0 
0.0 0.0 0.0 
0.0 0.0 0.0 
0.0 0.0 0.0 
0.0 0.0 0.0 
0.0 0.0 0.0 
0.0 0.0 0.0 
0.0 0.0 0.0 
0.0 0.0 0.0 
0.0 0.0 0.0 
0.0 0.0 0.0 
0.0 0.0 0.0 
0.0 0.0 0.0 
0.0 0.0 0.0 
0.0 0.0 0.0 
0.0 0.0 0.0 
0.0 0.0 0.0 
0.0 0.0 0.0 
0.0 0.0 0.0 
0.0 0.0 0.0 
0.0 0.0 0.0 
0.0 0.0 0.0 
0.0 0.0 0.0 
0.0 0.0 0.0 
0.0 0.0 0.0 
0.0 0.0 0.0 
0.0 0.0 0.0 
0.0 0.0 0.0 
0.0 0.0 0.0 
0.0 0.0 0.0 
0.0 0.0 0.0 
0.0 0.0 0.0 
0.0 0.0 0.0 
0.0 0.0 0.0 
0.0 0.0 0.0 
0.0 0.0 0.0 
0.0 0.0 0.0 
0.0 0.0 0.0 
0.0 0.0 0.0 
0.0 0.0 0.0 
0.0 0.0 0.0 
0.0 0.0 0.0 
0.0 0.0 0.0 
0.0 0.0 0.0 
0.0 0.0 0.0 
0.0 0.0 0.0 
0.0 0.0 0.0 
0.0 0.0 0.0 
0.0 0.0 0.0 
0.0 0.0 0.0 
0.0 0.0 0.0 
0.0 0.0 0.0 
0.0 0.0 0.0 
0.0 0.0 0.0 
0.0 0.0 0.0 
0.0 0.0 0.0 
0.0 0.0 0.0 
0.0 0.0 0.0 
0.0 0.0 0.0 
0.0 0.0 0.0 
0.0 0.0 0.0 
0.0 0.0 0.0 
0.0 0.0 0.0 
0.0 0.0 0.0 
0.0 0.0 0.0 
0.0 0.0 0.0 
0.0 0.0 0.0 
0.0 0.0 0.0 
0.0 0.0 0.0 
0.0 0.0 0.0 
0.0 0.0 0.0 
0.0 0.0 0.0 
0.0 0.0 0.0 
0.0 0.0 0.0 
0.0 0.0 0.0 
0.0 0.0 0.0 
0.0 0.0 0.0 
0.0 0.0 0.0 
0.0 0.0 0.0 
0.0 0.0 0.0 
0.0 0.0 0.0 
0.0 0.0 0.0 
0.0 0.0 0.0 
0.0 0.0 0.0 
0.0 0.0 0.0 
0.0 0.0 0.0 
0.0 0.0 0.0 
0.0 0.0 0.0 
0.0 0.0 0.0 
0.0 0.0 0.0 
0.0 0.0 0.0 
0.0 0.0 0.0 
0.0 0.0 0.0 
0.0 0.0 0.0 
0.0 0.0 0.0 
0.0 0.0 0.0 
0.0 0.0 0.0 
0.0 0.0 0.0 
0.0 0.0 0.0 
0.0 0.0 0.0 
0.0 0.0 0.0 
0.0 0.0 0.0 
0.0 0.0 0.0 
0.0 0.0 0.0 
0.0 0.0 0.0 
0.0 0.0 0.0 
0.0 0.0 0.0 
0.0 0.0 0.0 
0.0 0.0 0.0 
0.0 0.0 0.0 
0.0 0.0 0.0 
0.0 0.0 0.0 
0.0 0.0 0.0 
0.0 0.0 0.0 
0.0 0.0 0.0 
0.0 0.0 0.0 
0.0 0.0 0.0 
0.0 0.0 0.0 
0.0 0.0 0.0 
0.0 0.0 0.0 
0.0 0.0 0.0 
0.0 0.0 0.0 
0.0 0.0 0.0 
0.0 0.0 0.0 
0.0 0.0 0.0 
0.0 0.0 0.0 
0.0 0.0 0.0 
0.0 0.0 0.0 
0.0 0.0 0.0 
0.0 0.0 0.0 
0.0 0.0 0.0 
0.0 0.0 0.0 
0.0 0.0 0.0 
0.0 0.0 0.0 
0.0 0.0 0.0 
0.0 0.0 0.0 
0.0 0.0 0.0 
0.0 0.0 0.0 
0.0 0.0 0.0 
0.0 0.0 0.0 
0.0 0.0 0.0 
0.0 0.0 0.0 
0.0 0.0 0.0 
0.0 0.0 0.0 
0.0 0.0 0.0 
0.0 0.0 0.0 
0.0 0.0 0.0 
0.0 0.0 0.0 
0.0 0.0 0.0 
0.0 0.0 0.0 
0.0 0.0 0.0 
0.0 0.0 0.0 
0.0 0.0 0.0 
0.0 0.0 0.0 
0.0 0.0 0.0 
0.0 0.0 0.0 
0.0 0.0 0.0 
0.0 0.0 0.0 
0.0 0.0 0.0 
0.0 0.0 0.0 
0.0 0.0 0.0 
0.0 0.0 0.0 
0.0 0.0 0.0 
0.0 0.0 0.0 
0.0 0.0 0.0 
0.0 0.0 0.0 
0.0 0.0 0.0 
0.0 0.0 0.0 
0.0 0.0 0.0 
0.0 0.0 0.0 
0.0 0.0 0.0 
0.0 0.0 0.0 
0.0 0.0 0.0 
0.0 0.0 0.0 
0.0 0.0 0.0 
0.0 0.0 0.0 
0.0 0.0 0.0 
0.0 0.0 0.0 
0.0 0.0 0.0 
0.0 0.0 0.0 
0.0 0.0 0.0 
0.0 0.0 0.0 
0.0 0.0 0.0 
0.0 0.0 0.0 
0.0 0.0 0.0 
0.0 0.0 0.0 
0.0 0.0 0.0 
0.0 0.0 0.0 
0.0 0.0 0.0 
0.0 0.0 0.0 
0.0 0.0 0.0 
0.0 0.0 0.0 
0.0 0.0 0.0 
0.0 0.0 0.0 
0.0 0.0 0.0 
0.0 0.0 0.0 
0.0 0.0 0.0 
0.0 0.0 0.0 
0.0 0.0 0.0 
0.0 0.0 0.0 
0.0 0.0 0.0 
0.0 0.0 0.0 
0.0 0.0 0.0 
0.0 0.0 0.0 
0.0 0.0 0.0 
0.0 0.0 0.0 
0.0 0.0 0.0 
0.0 0.0 0.0 
0.0 0.0 0.0 
0.0 0.0 0.0 
0.0 0.0 0.0 
0.0 0.0 0.0 
0.0 0.0 0.0 
0.0 0.0 0.0 
0.0 0.0 0.0 
0.0 0.0 0.0 
0.0 0.0 0.0 
0.0 0.0 0.0 
0.0 0.0 0.0 
0.0 0.0 0.0 
0.0 0.0 0.0 
0.0 0.0 0.0 
0.0 0.0 0.0 
0.0 0.0 0.0 
0.0 0.0 0.0 
0.0 0.0 0.0 
0.0 0.0 0.0 
0.0 0.0 0.0 
0.0 0.0 0.0 
0.0 0.0 0.0 
0.0 0.0 0.0 
0.0 0.0 0.0 
0.0 0.0 0.0 
0.0 0.0 0.0 
0.0 0.0 0.0 
0.0 0.0 0.0 
0.0 0.0 0.0 
0.0 0.0 0.0 
0.0 0.0 0.0 
0.0 0.0 0.0 
0.0 0.0 0.0 
0.0 0.0 0.0 
0.0 0.0 0.0 
0.0 0.0 0.0 
0.0 0.0 0.0 
0.0 0.0 0.0 
0.0 0.0 0.0 
0.0 0.0 0.0 
0.0 0.0 0.0 
0.0 0.0 0.0 
0.0 0.0 0.0 
0.0 0.0 0.0 
0.0 0.0 0.0 
0.0 0.0 0.0 
0.0 0.0 0.0 
0.0 0.0 0.0 
0.0 0.0 0.0 
0.0 0.0 0.0 
0.0 0.0 0.0 
0.0 0.0 0.0 
0.0 0.0 0.0 
0.0 0.0 0.0 
0.0 0.0 0.0 
0.0 0.0 0.0 
0.0 0.0 0.0 
0.0 0.0 0.0 
0.0 0.0 0.0 
0.0 0.0 0.0 
0.0 0.0 0.0 
0.0 0.0 0.0 
0.0 0.0 0.0 
0.0 0.0 0.0 
0.0 0.0 0.0 
0.0 0.0 0.0 
0.0 0.0 0.0 
0.0 0.0 0.0 
0.0 0.0 0.0 
0.0 0.0 0.0 
0.0 0.0 0.0 
0.0 0.0 0.0 
0.0 0.0 0.0 
0.0 0.0 0.0 
0.0 0.0 0.0 
0.0 0.0 0.0 
0.0 0.0 0.0 
0.0 0.0 0.0 
0.0 0.0 0.0 
0.0 0.0 0.0 
0.0 0.0 0.0 
0.0 0.0 0.0 
0.0 0.0 0.0 
0.0 0.0 0.0 
0.0 0.0 0.0 
0.0 0.0 0.0 
0.0 0.0 0.0 
0.0 0.0 0.0 
0.0 0.0 0.0 
0.0 0.0 0.0 
0.0 0.0 0.0 
0.0 0.0 0.0 
0.0 0.0 0.0 
0.0 0.0 0.0 
0.0 0.0 0.0 
0.0 0.0 0.0 
0.0 0.0 0.0 
0.0 0.0 0.0 
0.0 0.0 0.0 
0.0 0.0 0.0 
0.0 0.0 0.0 
0.0 0.0 0.0 
0.0 0.0 0.0 
0.0 0.0 0.0 
0.0 0.0 0.0 
0.0 0.0 0.0 
0.0 0.0 0.0 
0.0 0.0 0.0 
0.0 0.0 0.0 
0.0 0.0 0.0 
0.0 0.0 0.0 
0.0 0.0 0.0 
0.0 0.0 0.0 
0.0 0.0 0.0 
0.0 0.0 0.0 
0.0 0.0 0.0 
0.0 0.0 0.0 
0.0 0.0 0.0 
0.0 0.0 0.0 
0.0 0.0 0.0 
0.0 0.0 0.0 
0.0 0.0 0.0 
0.0 0.0 0.0 
0.0 0.0 0.0 
0.0 0.0 0.0 
0.0 0.0 0.0 
0.0 0.0 0.0 
0.0 0.0 0.0 
0.0 0.0 0.0 
0.0 0.0 0.0 
0.0 0.0 0.0 
0.0 0.0 0.0 
0.0 0.0 0.0 
0.0 0.0 0.0 
0.0 0.0 0.0 
0.0 0.0 0.0 
0.0 0.0 0.0 
0.0 0.0 0.0 
0.0 0.0 0.0 
0.0 0.0 0.0 
0.0 0.0 0.0 
0.0 0.0 0.0 
0.0 0.0 0.0 
0.0 0.0 0.0 
0.0 0.0 0.0 
0.0 0.0 0.0 
0.0 0.0 0.0 
0.0 0.0 0.0 
0.0 0.0 0.0 
0.0 0.0 0.0 
0.0 0.0 0.0 
0.0 0.0 0.0 
0.0 0.0 0.0 
0.0 0.0 0.0 
0.0 0.0 0.0 
0.0 0.0 0.0 
0.0 0.0 0.0 
0.0 0.0 0.0 
0.0 0.0 0.0 
0.0 0.0 0.0 
0.0 0.0 0.0 
0.0 0.0 0.0 
0.0 0.0 0.0 
0.0 0.0 0.0 
0.0 0.0 0.0 
0.0 0.0 0.0 
0.0 0.0 0.0 
0.0 0.0 0.0 
0.0 0.0 0.0 
0.0 0.0 0.0 
0.0 0.0 0.0 
0.0 0.0 0.0 
0.0 0.0 0.0 
0.0 0.0 0.0 
0.0 0.0 0.0 
0.0 0.0 0.0 
0.0 0.0 0.0 
0.0 0.0 0.0 
0.0 0.0 0.0 
0.0 0.0 0.0 
0.0 0.0 0.0 
0.0 0.0 0.0 
0.0 0.0 0.0 
0.0 0.0 0.0 
0.0 0.0 0.0 
0.0 0.0 0.0 
0.0 0.0 0.0 
0.0 0.0 0.0 
0.0 0.0 0.0 
0.0 0.0 0.0 
0.0 0.0 0.0 
0.0 0.0 0.0 
0.0 0.0 0.0 
0.0 0.0 0.0 
0.0 0.0 0.0 
0.0 0.0 0.0 
0.0 0.0 0.0 
0.0 0.0 0.0 
0.0 0.0 0.0 
0.0 0.0 0.0 
0.0 0.0 0.0 
0.0 0.0 0.0 
0.0 0.0 0.0 
0.0 0.0 0.0 
0.0 0.0 0.0 
0.0 0.0 0.0 
0.0 0.0 0.0 
0.0 0.0 0.0 
0.0 0.0 0.0 
0.0 0.0 0.0 
0.0 0.0 0.0 
0.0 0.0 0.0 
0.0 0.0 0.0 
0.0 0.0 0.0 
0.0 0.0 0.0 
0.0 0.0 0.0 
0.0 0.0 0.0 
0.0 0.0 0.0 
0.0 0.0 0.0 
0.0 0.0 0.0 
0.0 0.0 0.0 
0.0 0.0 0.0 
0.0 0.0 0.0 
0.0 0.0 0.0 
0.0 0.0 0.0 
0.0 0.0 0.0 
0.0 0.0 0.0 
0.0 0.0 0.0 
0.0 0.0 0.0 
0.0 0.0 0.0 
0.0 0.0 0.0 
0.0 0.0 0.0 
0.0 0.0 0.0 
0.0 0.0 0.0 
0.0 0.0 0.0 
0.0 0.0 0.0 
0.0 0.0 0.0 
0.0 0.0 0.0 
0.0 0.0 0.0 
0.0 0.0 0.0 
0.0 0.0 0.0 
0.0 0.0 0.0 
0.0 0.0 0.0 
0.0 0.0 0.0 
0.0 0.0 0.0 
0.0 0.0 0.0 
0.0 0.0 0.0 
0.0 0.0 0.0 
0.0 0.0 0.0 
0.0 0.0 0.0 
0.0 0.0 0.0 
0.0 0.0 0.0 
0.0 0.0 0.0 
0.0 0.0 0.0 
0.0 0.0 0.0 
0.0 0.0 0.0 
0.0 0.0 0.0 
0.0 0.0 0.0 
0.0 0.0 0.0 
0.0 0.0 0.0 
0.0 0.0 0.0 
0.0 0.0 0.0 
0.0 0.0 0.0 
0.0 0.0 0.0 
0.0 0.0 0.0 
0.0 0.0 0.0 
0.0 0.0 0.0 
0.0 0.0 0.0 
0.0 0.0 0.0 
0.0 0.0 0.0 
0.0 0.0 0.0 
0.0 0.0 0.0 
0.0 0.0 0.0 
0.0 0.0 0.0 
0.0 0.0 0.0 
0.0 0.0 0.0 
0.0 0.0 0.0 
0.0 0.0 0.0 
0.0 0.0 0.0 
0.0 0.0 0.0 
0.0 0.0 0.0 
0.0 0.0 0.0 
0.0 0.0 0.0 
0.0 0.0 0.0 
0.0 0.0 0.0 
0.0 0.0 0.0 
0.0 0.0 0.0 
0.0 0.0 0.0 
0.0 0.0 0.0 
0.0 0.0 0.0 
0.0 0.0 0.0 
0.0 0.0 0.0 
0.0 0.0 0.0 
0.0 0.0 0.0 
0.0 0.0 0.0 
0.0 0.0 0.0 
0.0 0.0 0.0 
0.0 0.0 0.0 
0.0 0.0 0.0 
0.0 0.0 0.0 
0.0 0.0 0.0 
0.0 0.0 0.0 
0.0 0.0 0.0 
0.0 0.0 0.0 
0.0 0.0 0.0 
0.0 0.0 0.0 
0.0 0.0 0.0 
0.0 0.0 0.0 
0.0 0.0 0.0 
0.0 0.0 0.0 
0.0 0.0 0.0 
0.0 0.0 0.0 
0.0 0.0 0.0 
0.0 0.0 0.0 
0.0 0.0 0.0 
0.0 0.0 0.0 
0.0 0.0 0.0 
0.0 0.0 0.0 
0.0 0.0 0.0 
0.0 0.0 0.0 
0.0 0.0 0.0 
0.0 0.0 0.0 
0.0 0.0 0.0 
0.0 0.0 0.0 
0.0 0.0 0.0 
0.0 0.0 0.0 
0.0 0.0 0.0 
0.0 0.0 0.0 
0.0 0.0 0.0 
0.0 0.0 0.0 
0.0 0.0 0.0 
0.0 0.0 0.0 
0.0 0.0 0.0 
0.0 0.0 0.0 
0.0 0.0 0.0 
0.0 0.0 0.0 
0.0 0.0 0.0 
0.0 0.0 0.0 
0.0 0.0 0.0 
0.0 0.0 0.0 
0.0 0.0 0.0 
0.0 0.0 0.0 
0.0 0.0 0.0 
0.0 0.0 0.0 
0.0 0.0 0.0 
0.0 0.0 0.0 
0.0 0.0 0.0 
0.0 0.0 0.0 
0.0 0.0 0.0 
0.0 0.0 0.0 
0.0 0.0 0.0 
0.0 0.0 0.0 
0.0 0.0 0.0 
0.0 0.0 0.0 
0.0 0.0 0.0 
0.0 0.0 0.0 
0.0 0.0 0.0 
0.0 0.0 0.0 
0.0 0.0 0.0 
0.0 0.0 0.0 
0.0 0.0 0.0 
0.0 0.0 0.0 
0.0 0.0 0.0 
0.0 0.0 0.0 
0.0 0.0 0.0 
0.0 0.0 0.0 
0.0 0.0 0.0 
0.0 0.0 0.0 
0.0 0.0 0.0 
0.0 0.0 0.0 
0.0 0.0 0.0 
0.0 0.0 0.0 
0.0 0.0 0.0 
0.0 0.0 0.0 
0.0 0.0 0.0 
0.0 0.0 0.0 
0.0 0.0 0.0 
0.0 0.0 0.0 
0.0 0.0 0.0 
0.0 0.0 0.0 
0.0 0.0 0.0 
0.0 0.0 0.0 
0.0 0.0 0.0 
0.0 0.0 0.0 
0.0 0.0 0.0 
0.0 0.0 0.0 
0.0 0.0 0.0 
0.0 0.0 0.0 
0.0 0.0 0.0 
0.0 0.0 0.0 
0.0 0.0 0.0 
0.0 0.0 0.0 
0.0 0.0 0.0 
0.0 0.0 0.0 
0.0 0.0 0.0 
0.0 0.0 0.0 
0.0 0.0 0.0 
0.0 0.0 0.0 
0.0 0.0 0.0 
0.0 0.0 0.0 
0.0 0.0 0.0 
0.0 0.0 0.0 
0.0 0.0 0.0 
0.0 0.0 0.0 
0.0 0.0 0.0 
0.0 0.0 0.0 
0.0 0.0 0.0 
0.0 0.0 0.0 
0.0 0.0 0.0 
0.0 0.0 0.0 
0.0 0.0 0.0 
0.0 0.0 0.0 
0.0 0.0 0.0 
0.0 0.0 0.0 
0.0 0.0 0.0 
0.0 0.0 0.0 
0.0 0.0 0.0 
0.0 0.0 0.0 
0.0 0.0 0.0 
0.0 0.0 0.0 
0.0 0.0 0.0 
0.0 0.0 0.0 
0.0 0.0 0.0 
0.0 0.0 0.0 
0.0 0.0 0.0 
0.0 0.0 0.0 
0.0 0.0 0.0 
0.0 0.0 0.0 
0.0 0.0 0.0 
0.0 0.0 0.0 
0.0 0.0 0.0 
0.0 0.0 0.0 
0.0 0.0 0.0 
0.0 0.0 0.0 
0.0 0.0 0.0 
0.0 0.0 0.0 
0.0 0.0 0.0 
0.0 0.0 0.0 
0.0 0.0 0.0 
0.0 0.0 0.0 
0.0 0.0 0.0 
0.0 0.0 0.0 
0.0 0.0 0.0 
0.0 0.0 0.0 
0.0 0.0 0.0 
0.0 0.0 0.0 
0.0 0.0 0.0 
0.0 0.0 0.0 
0.0 0.0 0.0 
0.0 0.0 0.0 
0.0 0.0 0.0 
0.0 0.0 0.0 
0.0 0.0 0.0 
0.0 0.0 0.0 
0.0 0.0 0.0 
0.0 0.0 0.0 
0.0 0.0 0.0 
0.0 0.0 0.0 
0.0 0.0 0.0 
0.0 0.0 0.0 
0.0 0.0 0.0 
0.0 0.0 0.0 
0.0 0.0 0.0 
0.0 0.0 0.0 
0.0 0.0 0.0 
0.0 0.0 0.0 
0.0 0.0 0.0 
0.0 0.0 0.0 
0.0 0.0 0.0 
0.0 0.0 0.0 
0.0 0.0 0.0 
0.0 0.0 0.0 
0.0 0.0 0.0 
0.0 0.0 0.0 
0.0 0.0 0.0 
0.0 0.0 0.0 
0.0 0.0 0.0 
0.0 0.0 0.0 
0.0 0.0 0.0 
0.0 0.0 0.0 
0.0 0.0 0.0 
0.0 0.0 0.0 
0.0 0.0 0.0 
0.0 0.0 0.0 
0.0 0.0 0.0 
0.0 0.0 0.0 
0.0 0.0 0.0 
0.0 0.0 0.0 
0.0 0.0 0.0 
0.0 0.0 0.0 
0.0 0.0 0.0 
0.0 0.0 0.0 
0.0 0.0 0.0 
0.0 0.0 0.0 
0.0 0.0 0.0 
0.0 0.0 0.0 
0.0 0.0 0.0 
0.0 0.0 0.0 
0.0 0.0 0.0 
0.0 0.0 0.0 
0.0 0.0 0.0 
0.0 0.0 0.0 
0.0 0.0 0.0 
0.0 0.0 0.0 
0.0 0.0 0.0 
0.0 0.0 0.0 
0.0 0.0 0.0 
0.0 0.0 0.0 
0.0 0.0 0.0 
0.0 0.0 0.0 
0.0 0.0 0.0 
0.0 0.0 0.0 
0.0 0.0 0.0 
0.0 0.0 0.0 
0.0 0.0 0.0 
0.0 0.0 0.0 
0.0 0.0 0.0 
0.0 0.0 0.0 
0.0 0.0 0.0 
0.0 0.0 0.0 
0.0 0.0 0.0 
0.0 0.0 0.0 
0.0 0.0 0.0 
0.0 0.0 0.0 
0.0 0.0 0.0 
0.0 0.0 0.0 
0.0 0.0 0.0 
0.0 0.0 0.0 
0.0 0.0 0.0 
0.0 0.0 0.0 
0.0 0.0 0.0 
0.0 0.0 0.0 
0.0 0.0 0.0 
0.0 0.0 0.0 
0.0 0.0 0.0 
0.0 0.0 0.0 
0.0 0.0 0.0 
0.0 0.0 0.0 
0.0 0.0 0.0 
0.0 0.0 0.0 
0.0 0.0 0.0 
0.0 0.0 0.0 
0.0 0.0 0.0 
0.0 0.0 0.0 
0.0 0.0 0.0 
0.0 0.0 0.0 
0.0 0.0 0.0 
0.0 0.0 0.0 
0.0 0.0 0.0 
0.0 0.0 0.0 
0.0 0.0 0.0 
0.0 0.0 0.0 
0.0 0.0 0.0 
0.0 0.0 0.0 
0.0 0.0 0.0 
0.0 0.0 0.0 
0.0 0.0 0.0 
0.0 0.0 0.0 
0.0 0.0 0.0 
0.0 0.0 0.0 
0.0 0.0 0.0 
0.0 0.0 0.0 
0.0 0.0 0.0 
0.0 0.0 0.0 
0.0 0.0 0.0 
0.0 0.0 0.0 
0.0 0.0 0.0 
0.0 0.0 0.0 
0.0 0.0 0.0 
0.0 0.0 0.0 
0.0 0.0 0.0 
0.0 0.0 0.0 
0.0 0.0 0.0 
0.0 0.0 0.0 
0.0 0.0 0.0 
0.0 0.0 0.0 
0.0 0.0 0.0 
0.0 0.0 0.0 
0.0 0.0 0.0 
0.0 0.0 0.0 
0.0 0.0 0.0 
0.0 0.0 0.0 
0.0 0.0 0.0 
0.0 0.0 0.0 
0.0 0.0 0.0 
0.0 0.0 0.0 
0.0 0.0 0.0 
0.0 0.0 0.0 
0.0 0.0 0.0 
0.0 0.0 0.0 
0.0 0.0 0.0 
0.0 0.0 0.0 
0.0 0.0 0.0 
0.0 0.0 0.0 
0.0 0.0 0.0 
0.0 0.0 0.0 

SCALARS node_boundary float
LOOKUP_TABLE default
1.000000000000e+00 
1.000000000000e+00 
1.000000000000e+00 
1.000000000000e+00 
1.000000000000e+00 
1.000000000000e+00 
1.000000000000e+00 
1.000000000000e+00 
1.000000000000e+00 
1.000000000000e+00 
1.000000000000e+00 
1.000000000000e+00 
1.000000000000e+00 
1.000000000000e+00 
1.000000000000e+00 
1.000000000000e+00 
1.000000000000e+00 
1.000000000000e+00 
1.000000000000e+00 
1.000000000000e+00 
1.000000000000e+00 
1.000000000000e+00 
1.000000000000e+00 
1.000000000000e+00 
1.000000000000e+00 
1.000000000000e+00 
1.000000000000e+00 
1.000000000000e+00 
1.000000000000e+00 
1.000000000000e+00 
1.000000000000e+00 
1.000000000000e+00 
1.000000000000e+00 
1.000000000000e+00 
1.000000000000e+00 
1.000000000000e+00 
1.000000000000e+00 
1.000000000000e+00 
1.000000000000e+00 
1.000000000000e+00 
1.000000000000e+00 
1.000000000000e+00 
1.000000000000e+00 
1.000000000000e+00 
1.000000000000e+00 
1.000000000000e+00 
1.000000000000e+00 
1.000000000000e+00 
1.000000000000e+00 
1.000000000000e+00 
1.000000000000e+00 
1.000000000000e+00 
1.000000000000e+00 
1.000000000000e+00 
1.000000000000e+00 
1.000000000000e+00 
1.000000000000e+00 
1.000000000000e+00 
1.000000000000e+00 
1.000000000000e+00 
1.000000000000e+00 
1.000000000000e+00 
1.000000000000e+00 
1.000000000000e+00 
1.000000000000e+00 
1.000000000000e+00 
1.000000000000e+00 
1.000000000000e+00 
1.000000000000e+00 
1.000000000000e+00 
1.000000000000e+00 
1.000000000000e+00 
1.000000000000e+00 
1.000000000000e+00 
1.000000000000e+00 
1.000000000000e+00 
1.000000000000e+00 
1.000000000000e+00 
1.000000000000e+00 
1.000000000000e+00 
1.000000000000e+00 
1.000000000000e+00 
0.0
1.000000000000e+00 
1.000000000000e+00 
1.000000000000e+00 
1.000000000000e+00 
1.000000000000e+00 
1.000000000000e+00 
1.000000000000e+00 
0.0
0.0
1.000000000000e+00 
1.000000000000e+00 
1.000000000000e+00 
0.0
0.0
0.0
0.0
0.0
0.0
0.0
0.0
0.0
0.0
0.0
0.0
0.0
0.0
1.000000000000e+00 
1.000000000000e+00 
1.000000000000e+00 
1.000000000000e+00 
1.000000000000e+00 
1.000000000000e+00 
1.000000000000e+00 
1.000000000000e+00 
1.000000000000e+00 
1.000000000000e+00 
1.000000000000e+00 
1.000000000000e+00 
1.000000000000e+00 
1.000000000000e+00 
1.000000000000e+00 
1.000000000000e+00 
1.000000000000e+00 
1.000000000000e+00 
1.000000000000e+00 
1.000000000000e+00 
1.000000000000e+00 
1.000000000000e+00 
1.000000000000e+00 
1.000000000000e+00 
1.000000000000e+00 
1.000000000000e+00 
1.000000000000e+00 
1.000000000000e+00 
1.000000000000e+00 
1.000000000000e+00 
1.000000000000e+00 
1.000000000000e+00 
1.000000000000e+00 
1.000000000000e+00 
1.000000000000e+00 
1.000000000000e+00 
1.000000000000e+00 
1.000000000000e+00 
0.0
0.0
0.0
0.0
0.0
0.0
0.0
0.0
0.0
0.0
0.0
0.0
0.0
0.0
0.0
0.0
0.0
0.0
0.0
0.0
0.0
0.0
0.0
0.0
0.0
0.0
0.0
0.0
0.0
0.0
0.0
0.0
0.0
1.000000000000e+00 
1.000000000000e+00 
1.000000000000e+00 
1.000000000000e+00 
1.000000000000e+00 
1.000000000000e+00 
1.000000000000e+00 
0.0
0.0
0.0
0.0
0.0
0.0
0.0
0.0
0.0
0.0
0.0
0.0
0.0
0.0
0.0
0.0
0.0
0.0
0.0
0.0
0.0
0.0
0.0
0.0
0.0
0.0
0.0
0.0
0.0
0.0
0.0
0.0
0.0
0.0
0.0
0.0
0.0
0.0
0.0
0.0
0.0
0.0
0.0
0.0
0.0
0.0
0.0
0.0
0.0
0.0
0.0
0.0
0.0
0.0
0.0
0.0
0.0
0.0
0.0
0.0
0.0
0.0
0.0
0.0
0.0
0.0
0.0
0.0
0.0
0.0
0.0
0.0
0.0
0.0
0.0
0.0
0.0
0.0
0.0
0.0
0.0
0.0
0.0
0.0
0.0
0.0
0.0
0.0
0.0
0.0
0.0
0.0
0.0
0.0
0.0
0.0
0.0
0.0
0.0
0.0
0.0
0.0
0.0
0.0
0.0
0.0
0.0
0.0
0.0
0.0
0.0
0.0
0.0
0.0
0.0
0.0
0.0
0.0
0.0
0.0
0.0
0.0
0.0
0.0
0.0
0.0
0.0
0.0
0.0
0.0
0.0
0.0
0.0
0.0
0.0
0.0
0.0
0.0
0.0
0.0
0.0
0.0
0.0
0.0
0.0
0.0
0.0
0.0
0.0
0.0
0.0
0.0
0.0
0.0
0.0
0.0
0.0
0.0
0.0
0.0
0.0
0.0
0.0
0.0
0.0
0.0
0.0
0.0
0.0
0.0
0.0
0.0
0.0
0.0
0.0
0.0
0.0
0.0
0.0
0.0
0.0
0.0
0.0
0.0
0.0
0.0
0.0
0.0
0.0
0.0
0.0
0.0
0.0
0.0
0.0
0.0
0.0
0.0
0.0
0.0
0.0
0.0
0.0
0.0
0.0
0.0
0.0
0.0
0.0
0.0
0.0
0.0
0.0
0.0
0.0
0.0
0.0
0.0
0.0
0.0
0.0
0.0
0.0
0.0
0.0
0.0
0.0
0.0
0.0
0.0
0.0
0.0
0.0
0.0
0.0
0.0
0.0
0.0
0.0
0.0
0.0
0.0
0.0
0.0
0.0
0.0
0.0
0.0
0.0
0.0
0.0
0.0
0.0
0.0
0.0
0.0
0.0
0.0
0.0
0.0
0.0
0.0
0.0
0.0
0.0
0.0
0.0
0.0
0.0
0.0
0.0
0.0
0.0
0.0
0.0
0.0
0.0
0.0
0.0
0.0
0.0
0.0
0.0
0.0
0.0
0.0
0.0
0.0
0.0
0.0
0.0
0.0
0.0
0.0
0.0
0.0
0.0
0.0
0.0
0.0
0.0
0.0
0.0
0.0
0.0
0.0
0.0
0.0
0.0
0.0
0.0
0.0
0.0
0.0
0.0
0.0
0.0
0.0
0.0
0.0
0.0
0.0
0.0
0.0
0.0
0.0
0.0
0.0
0.0
0.0
0.0
0.0
0.0
0.0
0.0
0.0
0.0
0.0
0.0
0.0
0.0
0.0
0.0
0.0
0.0
0.0
0.0
0.0
0.0
0.0
0.0
0.0
0.0
0.0
0.0
0.0
0.0
0.0
0.0
0.0
0.0
0.0
0.0
0.0
0.0
0.0
0.0
0.0
0.0
0.0
0.0
0.0
0.0
0.0
0.0
0.0
0.0
0.0
0.0
0.0
0.0
0.0
0.0
0.0
0.0
0.0
0.0
0.0
0.0
0.0
0.0
0.0
0.0
0.0
0.0
0.0
0.0
0.0
0.0
0.0
0.0
0.0
0.0
0.0
0.0
0.0
0.0
0.0
0.0
0.0
0.0
0.0
0.0
0.0
0.0
0.0
0.0
0.0
0.0
0.0
0.0
0.0
0.0
0.0
0.0
0.0
0.0
0.0
0.0
0.0
0.0
0.0
0.0
0.0
0.0
0.0
0.0
0.0
0.0
0.0
0.0
0.0
0.0
0.0
0.0
0.0
0.0
0.0
0.0
0.0
0.0
0.0
0.0
0.0
0.0
0.0
0.0
0.0
0.0
0.0
0.0
0.0
0.0
0.0
0.0
0.0
0.0
0.0
0.0
0.0
0.0
0.0
0.0
0.0
0.0
0.0
0.0
0.0
0.0
0.0
0.0
0.0
0.0
0.0
0.0
0.0
0.0
0.0
0.0
0.0
0.0
0.0
0.0
0.0
0.0
0.0
0.0
0.0
0.0
0.0
0.0
0.0
0.0
0.0
0.0
0.0
0.0
0.0
0.0
0.0
0.0
0.0
0.0
0.0
0.0
0.0
0.0
0.0
0.0
0.0
0.0
0.0
0.0
0.0
0.0
0.0
0.0
0.0
0.0
0.0
0.0
0.0
0.0
0.0
0.0
0.0
0.0
0.0
0.0
0.0
0.0
0.0
0.0
0.0
0.0
0.0
0.0
0.0
0.0
0.0
0.0
0.0
0.0
0.0
0.0
0.0
0.0
0.0
0.0
0.0
0.0
0.0
0.0
0.0
0.0
0.0
0.0
0.0
0.0
0.0
0.0
0.0
0.0
0.0
0.0
0.0
0.0
0.0
0.0
0.0
0.0
0.0
0.0
0.0
0.0
0.0
0.0
0.0
0.0
0.0
0.0
0.0
0.0
0.0
0.0
0.0
0.0
0.0
0.0
0.0
0.0
0.0
0.0
0.0
0.0
0.0
0.0
0.0
0.0
0.0
0.0
0.0
0.0
0.0
0.0
0.0
0.0
0.0
0.0
0.0
0.0
0.0
0.0
0.0
0.0
0.0
0.0
0.0
0.0
0.0
0.0
0.0
0.0
0.0
0.0
0.0
0.0
0.0
0.0
0.0
0.0
0.0
0.0
0.0
0.0
0.0
0.0
0.0
0.0
0.0
0.0
0.0
0.0
0.0
0.0
0.0
0.0
0.0
0.0
0.0
0.0
0.0
0.0
0.0
0.0
0.0
0.0
0.0
0.0
0.0
0.0
0.0
0.0
0.0
0.0
0.0
0.0
0.0
0.0
0.0
0.0
0.0
0.0
0.0
0.0
0.0
0.0
0.0
0.0
0.0
0.0
0.0
0.0
0.0
0.0
0.0
0.0
0.0
0.0
0.0
0.0
0.0
0.0
0.0
0.0
0.0
0.0
0.0
0.0
0.0
0.0
0.0
0.0
0.0
0.0
0.0
0.0
0.0
0.0
0.0
0.0
0.0
0.0
0.0
0.0
0.0
0.0
0.0
0.0
0.0
0.0
0.0
0.0
0.0
0.0
0.0
0.0
0.0
0.0
0.0
0.0
0.0
0.0
0.0
0.0
0.0
0.0
0.0
0.0
0.0
0.0
0.0
0.0
0.0
0.0
0.0
0.0
0.0
0.0
0.0
0.0
0.0
0.0
0.0
0.0
0.0
0.0
0.0
0.0
0.0
0.0
0.0
0.0
0.0
0.0
0.0
0.0
0.0
0.0
0.0
0.0
0.0
0.0
0.0
0.0
0.0
0.0
0.0
0.0
0.0
0.0
0.0
0.0
0.0
0.0
0.0
0.0
0.0
0.0
0.0
0.0
0.0
0.0
0.0
0.0
0.0
0.0
0.0
0.0
0.0
0.0
0.0
0.0
0.0
0.0
0.0
0.0
0.0
0.0
0.0
0.0
0.0
0.0
0.0
0.0
0.0
0.0
0.0
0.0
0.0
0.0
0.0
0.0
0.0
0.0
0.0
0.0
0.0
0.0
0.0
0.0
0.0
0.0
0.0
0.0
0.0
0.0
0.0
0.0
0.0
0.0
0.0
0.0
0.0
0.0
0.0
0.0
0.0
0.0
0.0
0.0
0.0
0.0
0.0
0.0
0.0
0.0
0.0
0.0
0.0
0.0
0.0
0.0
0.0
0.0
0.0
0.0
0.0
0.0
0.0
0.0
0.0
0.0
0.0
0.0
0.0
0.0
0.0
0.0
0.0
0.0
0.0
0.0
0.0
0.0
0.0
0.0
0.0
0.0
0.0
0.0
0.0

VECTORS node_force_edge float
0.0 0.0 0.0 
0.0 0.0 0.0 
0.0 0.0 0.0 
0.0 0.0 0.0 
0.0 0.0 0.0 
0.0 0.0 0.0 
0.0 0.0 0.0 
0.0 0.0 0.0 
0.0 0.0 0.0 
0.0 0.0 0.0 
0.0 0.0 0.0 
0.0 0.0 0.0 
0.0 0.0 0.0 
0.0 0.0 0.0 
0.0 0.0 0.0 
0.0 0.0 0.0 
0.0 0.0 0.0 
0.0 0.0 0.0 
0.0 0.0 0.0 
0.0 0.0 0.0 
0.0 0.0 0.0 
0.0 0.0 0.0 
0.0 0.0 0.0 
0.0 0.0 0.0 
0.0 0.0 0.0 
0.0 0.0 0.0 
0.0 0.0 0.0 
0.0 0.0 0.0 
0.0 0.0 0.0 
0.0 0.0 0.0 
0.0 0.0 0.0 
0.0 0.0 0.0 
0.0 0.0 0.0 
0.0 0.0 0.0 
0.0 0.0 0.0 
0.0 0.0 0.0 
0.0 0.0 0.0 
0.0 0.0 0.0 
0.0 0.0 0.0 
0.0 0.0 0.0 
0.0 0.0 0.0 
0.0 0.0 0.0 
0.0 0.0 0.0 
0.0 0.0 0.0 
0.0 0.0 0.0 
0.0 0.0 0.0 
0.0 0.0 0.0 
0.0 0.0 0.0 
0.0 0.0 0.0 
0.0 0.0 0.0 
0.0 0.0 0.0 
0.0 0.0 0.0 
0.0 0.0 0.0 
0.0 0.0 0.0 
0.0 0.0 0.0 
0.0 0.0 0.0 
0.0 0.0 0.0 
0.0 0.0 0.0 
0.0 0.0 0.0 
0.0 0.0 0.0 
0.0 0.0 0.0 
0.0 0.0 0.0 
0.0 0.0 0.0 
0.0 0.0 0.0 
0.0 0.0 0.0 
0.0 0.0 0.0 
0.0 0.0 0.0 
0.0 0.0 0.0 
0.0 0.0 0.0 
0.0 0.0 0.0 
0.0 0.0 0.0 
0.0 0.0 0.0 
0.0 0.0 0.0 
0.0 0.0 0.0 
0.0 0.0 0.0 
0.0 0.0 0.0 
0.0 0.0 0.0 
0.0 0.0 0.0 
0.0 0.0 0.0 
0.0 0.0 0.0 
0.0 0.0 0.0 
0.0 -1.000000000000e+02 0.0 
0.0 0.0 0.0 
0.0 0.0 0.0 
0.0 0.0 0.0 
0.0 0.0 0.0 
0.0 0.0 0.0 
0.0 0.0 0.0 
0.0 0.0 0.0 
0.0 0.0 0.0 
0.0 0.0 0.0 
0.0 0.0 0.0 
0.0 0.0 0.0 
0.0 0.0 0.0 
0.0 0.0 0.0 
0.0 0.0 0.0 
0.0 0.0 0.0 
0.0 0.0 0.0 
0.0 0.0 0.0 
0.0 0.0 0.0 
0.0 0.0 0.0 
0.0 0.0 0.0 
0.0 0.0 0.0 
0.0 0.0 0.0 
0.0 0.0 0.0 
0.0 0.0 0.0 
0.0 0.0 0.0 
0.0 0.0 0.0 
0.0 0.0 0.0 
0.0 -1.000000000000e+02 0.0 
0.0 -1.000000000000e+02 0.0 
0.0 -1.000000000000e+02 0.0 
0.0 -1.000000000000e+02 0.0 
0.0 -1.000000000000e+02 0.0 
0.0 0.0 0.0 
0.0 0.0 0.0 
0.0 0.0 0.0 
0.0 0.0 0.0 
0.0 0.0 0.0 
0.0 0.0 0.0 
0.0 0.0 0.0 
0.0 0.0 0.0 
0.0 0.0 0.0 
0.0 0.0 0.0 
0.0 0.0 0.0 
0.0 0.0 0.0 
0.0 0.0 0.0 
0.0 0.0 0.0 
0.0 0.0 0.0 
0.0 0.0 0.0 
0.0 0.0 0.0 
0.0 0.0 0.0 
0.0 0.0 0.0 
0.0 0.0 0.0 
0.0 0.0 0.0 
0.0 0.0 0.0 
0.0 0.0 0.0 
0.0 0.0 0.0 
0.0 0.0 0.0 
0.0 0.0 0.0 
0.0 0.0 0.0 
0.0 0.0 0.0 
0.0 0.0 0.0 
0.0 0.0 0.0 
0.0 0.0 0.0 
0.0 0.0 0.0 
0.0 0.0 0.0 
0.0 0.0 0.0 
0.0 0.0 0.0 
0.0 0.0 0.0 
0.0 0.0 0.0 
0.0 0.0 0.0 
0.0 0.0 0.0 
0.0 0.0 0.0 
0.0 0.0 0.0 
0.0 0.0 0.0 
0.0 0.0 0.0 
0.0 0.0 0.0 
0.0 0.0 0.0 
0.0 0.0 0.0 
0.0 0.0 0.0 
0.0 0.0 0.0 
0.0 0.0 0.0 
0.0 0.0 0.0 
0.0 0.0 0.0 
0.0 0.0 0.0 
0.0 0.0 0.0 
0.0 0.0 0.0 
0.0 0.0 0.0 
0.0 0.0 0.0 
0.0 0.0 0.0 
0.0 0.0 0.0 
0.0 0.0 0.0 
0.0 0.0 0.0 
0.0 0.0 0.0 
0.0 0.0 0.0 
0.0 0.0 0.0 
0.0 0.0 0.0 
0.0 0.0 0.0 
0.0 0.0 0.0 
0.0 0.0 0.0 
0.0 0.0 0.0 
0.0 0.0 0.0 
0.0 0.0 0.0 
0.0 0.0 0.0 
0.0 0.0 0.0 
0.0 0.0 0.0 
0.0 0.0 0.0 
0.0 0.0 0.0 
0.0 0.0 0.0 
0.0 0.0 0.0 
0.0 0.0 0.0 
0.0 0.0 0.0 
0.0 0.0 0.0 
0.0 0.0 0.0 
0.0 0.0 0.0 
0.0 0.0 0.0 
0.0 0.0 0.0 
0.0 0.0 0.0 
0.0 0.0 0.0 
0.0 0.0 0.0 
0.0 0.0 0.0 
0.0 0.0 0.0 
0.0 0.0 0.0 
0.0 0.0 0.0 
0.0 0.0 0.0 
0.0 0.0 0.0 
0.0 0.0 0.0 
0.0 0.0 0.0 
0.0 0.0 0.0 
0.0 0.0 0.0 
0.0 0.0 0.0 
0.0 0.0 0.0 
0.0 0.0 0.0 
0.0 0.0 0.0 
0.0 0.0 0.0 
0.0 0.0 0.0 
0.0 0.0 0.0 
0.0 0.0 0.0 
0.0 0.0 0.0 
0.0 0.0 0.0 
0.0 0.0 0.0 
0.0 0.0 0.0 
0.0 0.0 0.0 
0.0 0.0 0.0 
0.0 0.0 0.0 
0.0 0.0 0.0 
0.0 0.0 0.0 
0.0 0.0 0.0 
0.0 0.0 0.0 
0.0 0.0 0.0 
0.0 0.0 0.0 
0.0 0.0 0.0 
0.0 0.0 0.0 
0.0 0.0 0.0 
0.0 0.0 0.0 
0.0 0.0 0.0 
0.0 0.0 0.0 
0.0 0.0 0.0 
0.0 0.0 0.0 
0.0 0.0 0.0 
0.0 0.0 0.0 
0.0 0.0 0.0 
0.0 0.0 0.0 
0.0 0.0 0.0 
0.0 0.0 0.0 
0.0 0.0 0.0 
0.0 0.0 0.0 
0.0 0.0 0.0 
0.0 0.0 0.0 
0.0 0.0 0.0 
0.0 0.0 0.0 
0.0 0.0 0.0 
0.0 0.0 0.0 
0.0 0.0 0.0 
0.0 0.0 0.0 
0.0 0.0 0.0 
0.0 0.0 0.0 
0.0 0.0 0.0 
0.0 0.0 0.0 
0.0 0.0 0.0 
0.0 0.0 0.0 
0.0 0.0 0.0 
0.0 0.0 0.0 
0.0 0.0 0.0 
0.0 0.0 0.0 
0.0 0.0 0.0 
0.0 0.0 0.0 
0.0 0.0 0.0 
0.0 0.0 0.0 
0.0 0.0 0.0 
0.0 0.0 0.0 
0.0 0.0 0.0 
0.0 0.0 0.0 
0.0 0.0 0.0 
0.0 0.0 0.0 
0.0 0.0 0.0 
0.0 0.0 0.0 
0.0 0.0 0.0 
0.0 0.0 0.0 
0.0 0.0 0.0 
0.0 0.0 0.0 
0.0 0.0 0.0 
0.0 0.0 0.0 
0.0 0.0 0.0 
0.0 0.0 0.0 
0.0 0.0 0.0 
0.0 0.0 0.0 
0.0 0.0 0.0 
0.0 0.0 0.0 
0.0 0.0 0.0 
0.0 0.0 0.0 
0.0 0.0 0.0 
0.0 0.0 0.0 
0.0 0.0 0.0 
0.0 0.0 0.0 
0.0 0.0 0.0 
0.0 0.0 0.0 
0.0 0.0 0.0 
0.0 0.0 0.0 
0.0 0.0 0.0 
0.0 0.0 0.0 
0.0 0.0 0.0 
0.0 0.0 0.0 
0.0 0.0 0.0 
0.0 0.0 0.0 
0.0 0.0 0.0 
0.0 0.0 0.0 
0.0 0.0 0.0 
0.0 0.0 0.0 
0.0 0.0 0.0 
0.0 0.0 0.0 
0.0 0.0 0.0 
0.0 0.0 0.0 
0.0 0.0 0.0 
0.0 0.0 0.0 
0.0 0.0 0.0 
0.0 0.0 0.0 
0.0 0.0 0.0 
0.0 0.0 0.0 
0.0 0.0 0.0 
0.0 0.0 0.0 
0.0 0.0 0.0 
0.0 0.0 0.0 
0.0 0.0 0.0 
0.0 0.0 0.0 
0.0 0.0 0.0 
0.0 0.0 0.0 
0.0 0.0 0.0 
0.0 0.0 0.0 
0.0 0.0 0.0 
0.0 0.0 0.0 
0.0 0.0 0.0 
0.0 0.0 0.0 
0.0 0.0 0.0 
0.0 0.0 0.0 
0.0 0.0 0.0 
0.0 0.0 0.0 
0.0 0.0 0.0 
0.0 0.0 0.0 
0.0 0.0 0.0 
0.0 0.0 0.0 
0.0 0.0 0.0 
0.0 0.0 0.0 
0.0 0.0 0.0 
0.0 0.0 0.0 
0.0 0.0 0.0 
0.0 0.0 0.0 
0.0 0.0 0.0 
0.0 0.0 0.0 
0.0 0.0 0.0 
0.0 0.0 0.0 
0.0 0.0 0.0 
0.0 0.0 0.0 
0.0 0.0 0.0 
0.0 0.0 0.0 
0.0 0.0 0.0 
0.0 0.0 0.0 
0.0 0.0 0.0 
0.0 0.0 0.0 
0.0 0.0 0.0 
0.0 0.0 0.0 
0.0 0.0 0.0 
0.0 0.0 0.0 
0.0 0.0 0.0 
0.0 0.0 0.0 
0.0 0.0 0.0 
0.0 0.0 0.0 
0.0 0.0 0.0 
0.0 0.0 0.0 
0.0 0.0 0.0 
0.0 0.0 0.0 
0.0 0.0 0.0 
0.0 0.0 0.0 
0.0 0.0 0.0 
0.0 0.0 0.0 
0.0 0.0 0.0 
0.0 0.0 0.0 
0.0 0.0 0.0 
0.0 0.0 0.0 
0.0 0.0 0.0 
0.0 0.0 0.0 
0.0 0.0 0.0 
0.0 0.0 0.0 
0.0 0.0 0.0 
0.0 0.0 0.0 
0.0 0.0 0.0 
0.0 0.0 0.0 
0.0 0.0 0.0 
0.0 0.0 0.0 
0.0 0.0 0.0 
0.0 0.0 0.0 
0.0 0.0 0.0 
0.0 0.0 0.0 
0.0 0.0 0.0 
0.0 0.0 0.0 
0.0 0.0 0.0 
0.0 0.0 0.0 
0.0 0.0 0.0 
0.0 0.0 0.0 
0.0 0.0 0.0 
0.0 0.0 0.0 
0.0 0.0 0.0 
0.0 0.0 0.0 
0.0 0.0 0.0 
0.0 0.0 0.0 
0.0 0.0 0.0 
0.0 0.0 0.0 
0.0 0.0 0.0 
0.0 0.0 0.0 
0.0 0.0 0.0 
0.0 0.0 0.0 
0.0 0.0 0.0 
0.0 0.0 0.0 
0.0 0.0 0.0 
0.0 0.0 0.0 
0.0 0.0 0.0 
0.0 0.0 0.0 
0.0 0.0 0.0 
0.0 0.0 0.0 
0.0 0.0 0.0 
0.0 0.0 0.0 
0.0 0.0 0.0 
0.0 0.0 0.0 
0.0 0.0 0.0 
0.0 0.0 0.0 
0.0 0.0 0.0 
0.0 0.0 0.0 
0.0 0.0 0.0 
0.0 0.0 0.0 
0.0 0.0 0.0 
0.0 0.0 0.0 
0.0 0.0 0.0 
0.0 0.0 0.0 
0.0 0.0 0.0 
0.0 0.0 0.0 
0.0 0.0 0.0 
0.0 0.0 0.0 
0.0 0.0 0.0 
0.0 0.0 0.0 
0.0 0.0 0.0 
0.0 0.0 0.0 
0.0 0.0 0.0 
0.0 0.0 0.0 
0.0 0.0 0.0 
0.0 0.0 0.0 
0.0 0.0 0.0 
0.0 0.0 0.0 
0.0 0.0 0.0 
0.0 0.0 0.0 
0.0 0.0 0.0 
0.0 0.0 0.0 
0.0 0.0 0.0 
0.0 0.0 0.0 
0.0 0.0 0.0 
0.0 0.0 0.0 
0.0 0.0 0.0 
0.0 0.0 0.0 
0.0 0.0 0.0 
0.0 0.0 0.0 
0.0 0.0 0.0 
0.0 0.0 0.0 
0.0 0.0 0.0 
0.0 0.0 0.0 
0.0 0.0 0.0 
0.0 0.0 0.0 
0.0 0.0 0.0 
0.0 0.0 0.0 
0.0 0.0 0.0 
0.0 0.0 0.0 
0.0 0.0 0.0 
0.0 0.0 0.0 
0.0 0.0 0.0 
0.0 0.0 0.0 
0.0 0.0 0.0 
0.0 0.0 0.0 
0.0 0.0 0.0 
0.0 0.0 0.0 
0.0 0.0 0.0 
0.0 0.0 0.0 
0.0 0.0 0.0 
0.0 0.0 0.0 
0.0 0.0 0.0 
0.0 0.0 0.0 
0.0 0.0 0.0 
0.0 0.0 0.0 
0.0 0.0 0.0 
0.0 0.0 0.0 
0.0 0.0 0.0 
0.0 0.0 0.0 
0.0 0.0 0.0 
0.0 0.0 0.0 
0.0 0.0 0.0 
0.0 0.0 0.0 
0.0 0.0 0.0 
0.0 0.0 0.0 
0.0 0.0 0.0 
0.0 0.0 0.0 
0.0 0.0 0.0 
0.0 0.0 0.0 
0.0 0.0 0.0 
0.0 0.0 0.0 
0.0 0.0 0.0 
0.0 0.0 0.0 
0.0 0.0 0.0 
0.0 0.0 0.0 
0.0 0.0 0.0 
0.0 0.0 0.0 
0.0 0.0 0.0 
0.0 0.0 0.0 
0.0 0.0 0.0 
0.0 0.0 0.0 
0.0 0.0 0.0 
0.0 0.0 0.0 
0.0 0.0 0.0 
0.0 0.0 0.0 
0.0 0.0 0.0 
0.0 0.0 0.0 
0.0 0.0 0.0 
0.0 0.0 0.0 
0.0 0.0 0.0 
0.0 0.0 0.0 
0.0 0.0 0.0 
0.0 0.0 0.0 
0.0 0.0 0.0 
0.0 0.0 0.0 
0.0 0.0 0.0 
0.0 0.0 0.0 
0.0 0.0 0.0 
0.0 0.0 0.0 
0.0 0.0 0.0 
0.0 0.0 0.0 
0.0 0.0 0.0 
0.0 0.0 0.0 
0.0 0.0 0.0 
0.0 0.0 0.0 
0.0 0.0 0.0 
0.0 0.0 0.0 
0.0 0.0 0.0 
0.0 0.0 0.0 
0.0 0.0 0.0 
0.0 0.0 0.0 
0.0 0.0 0.0 
0.0 0.0 0.0 
0.0 0.0 0.0 
0.0 0.0 0.0 
0.0 0.0 0.0 
0.0 0.0 0.0 
0.0 0.0 0.0 
0.0 0.0 0.0 
0.0 0.0 0.0 
0.0 0.0 0.0 
0.0 0.0 0.0 
0.0 0.0 0.0 
0.0 0.0 0.0 
0.0 0.0 0.0 
0.0 0.0 0.0 
0.0 0.0 0.0 
0.0 0.0 0.0 
0.0 0.0 0.0 
0.0 0.0 0.0 
0.0 0.0 0.0 
0.0 0.0 0.0 
0.0 0.0 0.0 
0.0 0.0 0.0 
0.0 0.0 0.0 
0.0 0.0 0.0 
0.0 0.0 0.0 
0.0 0.0 0.0 
0.0 0.0 0.0 
0.0 0.0 0.0 
0.0 0.0 0.0 
0.0 0.0 0.0 
0.0 0.0 0.0 
0.0 0.0 0.0 
0.0 0.0 0.0 
0.0 0.0 0.0 
0.0 0.0 0.0 
0.0 0.0 0.0 
0.0 0.0 0.0 
0.0 0.0 0.0 
0.0 0.0 0.0 
0.0 0.0 0.0 
0.0 0.0 0.0 
0.0 0.0 0.0 
0.0 0.0 0.0 
0.0 0.0 0.0 
0.0 0.0 0.0 
0.0 0.0 0.0 
0.0 0.0 0.0 
0.0 0.0 0.0 
0.0 0.0 0.0 
0.0 0.0 0.0 
0.0 0.0 0.0 
0.0 0.0 0.0 
0.0 0.0 0.0 
0.0 0.0 0.0 
0.0 0.0 0.0 
0.0 0.0 0.0 
0.0 0.0 0.0 
0.0 0.0 0.0 
0.0 0.0 0.0 
0.0 0.0 0.0 
0.0 0.0 0.0 
0.0 0.0 0.0 
0.0 0.0 0.0 
0.0 0.0 0.0 
0.0 0.0 0.0 
0.0 0.0 0.0 
0.0 0.0 0.0 
0.0 0.0 0.0 
0.0 0.0 0.0 
0.0 0.0 0.0 
0.0 0.0 0.0 
0.0 0.0 0.0 
0.0 0.0 0.0 
0.0 0.0 0.0 
0.0 0.0 0.0 
0.0 0.0 0.0 
0.0 0.0 0.0 
0.0 0.0 0.0 
0.0 0.0 0.0 
0.0 0.0 0.0 
0.0 0.0 0.0 
0.0 0.0 0.0 
0.0 0.0 0.0 
0.0 0.0 0.0 
0.0 0.0 0.0 
0.0 0.0 0.0 
0.0 0.0 0.0 
0.0 0.0 0.0 
0.0 0.0 0.0 
0.0 0.0 0.0 
0.0 0.0 0.0 
0.0 0.0 0.0 
0.0 0.0 0.0 
0.0 0.0 0.0 
0.0 0.0 0.0 
0.0 0.0 0.0 
0.0 0.0 0.0 
0.0 0.0 0.0 
0.0 0.0 0.0 
0.0 0.0 0.0 
0.0 0.0 0.0 
0.0 0.0 0.0 
0.0 0.0 0.0 
0.0 0.0 0.0 
0.0 0.0 0.0 
0.0 0.0 0.0 
0.0 0.0 0.0 
0.0 0.0 0.0 
0.0 0.0 0.0 
0.0 0.0 0.0 
0.0 0.0 0.0 
0.0 0.0 0.0 
0.0 0.0 0.0 
0.0 0.0 0.0 
0.0 0.0 0.0 
0.0 0.0 0.0 
0.0 0.0 0.0 
0.0 0.0 0.0 
0.0 0.0 0.0 
0.0 0.0 0.0 
0.0 0.0 0.0 
0.0 0.0 0.0 
0.0 0.0 0.0 
0.0 0.0 0.0 
0.0 0.0 0.0 
0.0 0.0 0.0 
0.0 0.0 0.0 
0.0 0.0 0.0 
0.0 0.0 0.0 
0.0 0.0 0.0 
0.0 0.0 0.0 
0.0 0.0 0.0 
0.0 0.0 0.0 
0.0 0.0 0.0 
0.0 0.0 0.0 
0.0 0.0 0.0 
0.0 0.0 0.0 
0.0 0.0 0.0 
0.0 0.0 0.0 
0.0 0.0 0.0 
0.0 0.0 0.0 
0.0 0.0 0.0 
0.0 0.0 0.0 
0.0 0.0 0.0 
0.0 0.0 0.0 
0.0 0.0 0.0 
0.0 0.0 0.0 
0.0 0.0 0.0 
0.0 0.0 0.0 
0.0 0.0 0.0 
0.0 0.0 0.0 
0.0 0.0 0.0 
0.0 0.0 0.0 
0.0 0.0 0.0 
0.0 0.0 0.0 
0.0 0.0 0.0 
0.0 0.0 0.0 
0.0 0.0 0.0 
0.0 0.0 0.0 
0.0 0.0 0.0 
0.0 0.0 0.0 
0.0 0.0 0.0 
0.0 0.0 0.0 
0.0 0.0 0.0 
0.0 0.0 0.0 
0.0 0.0 0.0 
0.0 0.0 0.0 
0.0 0.0 0.0 
0.0 0.0 0.0 
0.0 0.0 0.0 
0.0 0.0 0.0 
0.0 0.0 0.0 
0.0 0.0 0.0 
0.0 0.0 0.0 
0.0 0.0 0.0 
0.0 0.0 0.0 
0.0 0.0 0.0 
0.0 0.0 0.0 
0.0 0.0 0.0 
0.0 0.0 0.0 
0.0 0.0 0.0 
0.0 0.0 0.0 
0.0 0.0 0.0 
0.0 0.0 0.0 
0.0 0.0 0.0 
0.0 0.0 0.0 
0.0 0.0 0.0 
0.0 0.0 0.0 
0.0 0.0 0.0 
0.0 0.0 0.0 
0.0 0.0 0.0 
0.0 0.0 0.0 
0.0 0.0 0.0 
0.0 0.0 0.0 
0.0 0.0 0.0 
0.0 0.0 0.0 
0.0 0.0 0.0 
0.0 0.0 0.0 
0.0 0.0 0.0 
0.0 0.0 0.0 
0.0 0.0 0.0 
0.0 0.0 0.0 
0.0 0.0 0.0 
0.0 0.0 0.0 
0.0 0.0 0.0 
0.0 0.0 0.0 
0.0 0.0 0.0 
0.0 0.0 0.0 
0.0 0.0 0.0 
0.0 0.0 0.0 
0.0 0.0 0.0 
0.0 0.0 0.0 
0.0 0.0 0.0 
0.0 0.0 0.0 
0.0 0.0 0.0 
0.0 0.0 0.0 
0.0 0.0 0.0 
0.0 0.0 0.0 
0.0 0.0 0.0 
0.0 0.0 0.0 
0.0 0.0 0.0 
0.0 0.0 0.0 
0.0 0.0 0.0 
0.0 0.0 0.0 
0.0 0.0 0.0 
0.0 0.0 0.0 
0.0 0.0 0.0 
0.0 0.0 0.0 
0.0 0.0 0.0 
0.0 0.0 0.0 
0.0 0.0 0.0 
0.0 0.0 0.0 
0.0 0.0 0.0 
0.0 0.0 0.0 
0.0 0.0 0.0 
0.0 0.0 0.0 
0.0 0.0 0.0 
0.0 0.0 0.0 
0.0 0.0 0.0 
0.0 0.0 0.0 
0.0 0.0 0.0 
0.0 0.0 0.0 
0.0 0.0 0.0 
0.0 0.0 0.0 
0.0 0.0 0.0 
0.0 0.0 0.0 
0.0 0.0 0.0 
0.0 0.0 0.0 
0.0 0.0 0.0 
0.0 0.0 0.0 
0.0 0.0 0.0 
0.0 0.0 0.0 
0.0 0.0 0.0 
0.0 0.0 0.0 
0.0 0.0 0.0 
0.0 0.0 0.0 
0.0 0.0 0.0 
0.0 0.0 0.0 
0.0 0.0 0.0 
0.0 0.0 0.0 
0.0 0.0 0.0 
0.0 0.0 0.0 
0.0 0.0 0.0 
0.0 0.0 0.0 
0.0 0.0 0.0 
0.0 0.0 0.0 
0.0 0.0 0.0 
0.0 0.0 0.0 
0.0 0.0 0.0 
0.0 0.0 0.0 
0.0 0.0 0.0 
0.0 0.0 0.0 
0.0 0.0 0.0 
0.0 0.0 0.0 
0.0 0.0 0.0 
0.0 0.0 0.0 
0.0 0.0 0.0 
0.0 0.0 0.0 
0.0 0.0 0.0 
0.0 0.0 0.0 
0.0 0.0 0.0 
0.0 0.0 0.0 
0.0 0.0 0.0 
0.0 0.0 0.0 
0.0 0.0 0.0 
0.0 0.0 0.0 
0.0 0.0 0.0 
0.0 0.0 0.0 
0.0 0.0 0.0 
0.0 0.0 0.0 
0.0 0.0 0.0 
0.0 0.0 0.0 
0.0 0.0 0.0 
0.0 0.0 0.0 
0.0 0.0 0.0 
0.0 0.0 0.0 
0.0 0.0 0.0 
0.0 0.0 0.0 
0.0 0.0 0.0 
0.0 0.0 0.0 
0.0 0.0 0.0 
0.0 0.0 0.0 
0.0 0.0 0.0 
0.0 0.0 0.0 
0.0 0.0 0.0 
0.0 0.0 0.0 
0.0 0.0 0.0 
0.0 0.0 0.0 
0.0 0.0 0.0 
0.0 0.0 0.0 
0.0 0.0 0.0 
0.0 0.0 0.0 
0.0 0.0 0.0 
0.0 0.0 0.0 
0.0 0.0 0.0 
0.0 0.0 0.0 
0.0 0.0 0.0 
0.0 0.0 0.0 
0.0 0.0 0.0 
0.0 0.0 0.0 
0.0 0.0 0.0 
0.0 0.0 0.0 
0.0 0.0 0.0 
0.0 0.0 0.0 
0.0 0.0 0.0 
0.0 0.0 0.0 
0.0 0.0 0.0 
0.0 0.0 0.0 
0.0 0.0 0.0 
0.0 0.0 0.0 
0.0 0.0 0.0 
0.0 0.0 0.0 
0.0 0.0 0.0 
0.0 0.0 0.0 
0.0 0.0 0.0 
0.0 0.0 0.0 
0.0 0.0 0.0 
0.0 0.0 0.0 
0.0 0.0 0.0 
0.0 0.0 0.0 
0.0 0.0 0.0 
0.0 0.0 0.0 
0.0 0.0 0.0 
0.0 0.0 0.0 
0.0 0.0 0.0 
0.0 0.0 0.0 
0.0 0.0 0.0 
0.0 0.0 0.0 
0.0 0.0 0.0 
0.0 0.0 0.0 
0.0 0.0 0.0 
0.0 0.0 0.0 
0.0 0.0 0.0 
0.0 0.0 0.0 
0.0 0.0 0.0 
0.0 0.0 0.0 
0.0 0.0 0.0 
0.0 0.0 0.0 
0.0 0.0 0.0 
0.0 0.0 0.0 
0.0 0.0 0.0 
0.0 0.0 0.0 
0.0 0.0 0.0 
0.0 0.0 0.0 
0.0 0.0 0.0 
0.0 0.0 0.0 
0.0 0.0 0.0 
0.0 0.0 0.0 
0.0 0.0 0.0 
0.0 0.0 0.0 
0.0 0.0 0.0 
0.0 0.0 0.0 
0.0 0.0 0.0 
0.0 0.0 0.0 
0.0 0.0 0.0 
0.0 0.0 0.0 
0.0 0.0 0.0 
0.0 0.0 0.0 
0.0 0.0 0.0 
0.0 0.0 0.0 
0.0 0.0 0.0 
0.0 0.0 0.0 
0.0 0.0 0.0 
0.0 0.0 0.0 
0.0 0.0 0.0 
0.0 0.0 0.0 
0.0 0.0 0.0 
0.0 0.0 0.0 
0.0 0.0 0.0 
0.0 0.0 0.0 
0.0 0.0 0.0 
0.0 0.0 0.0 
0.0 0.0 0.0 
0.0 0.0 0.0 
0.0 0.0 0.0 
0.0 0.0 0.0 
0.0 0.0 0.0 
0.0 0.0 0.0 
0.0 0.0 0.0 
0.0 0.0 0.0 
0.0 0.0 0.0 
0.0 0.0 0.0 
0.0 0.0 0.0 
0.0 0.0 0.0 
0.0 0.0 0.0 
0.0 0.0 0.0 
0.0 0.0 0.0 
0.0 0.0 0.0 
0.0 0.0 0.0 
0.0 0.0 0.0 
0.0 0.0 0.0 
0.0 0.0 0.0 
0.0 0.0 0.0 
0.0 0.0 0.0 
0.0 0.0 0.0 
0.0 0.0 0.0 
0.0 0.0 0.0 
0.0 0.0 0.0 
0.0 0.0 0.0 
0.0 0.0 0.0 
0.0 0.0 0.0 
0.0 0.0 0.0 
0.0 0.0 0.0 
0.0 0.0 0.0 
0.0 0.0 0.0 
0.0 0.0 0.0 
0.0 0.0 0.0 
0.0 0.0 0.0 
0.0 0.0 0.0 
0.0 0.0 0.0 
0.0 0.0 0.0 
0.0 0.0 0.0 
0.0 0.0 0.0 
0.0 0.0 0.0 
0.0 0.0 0.0 
0.0 0.0 0.0 
0.0 0.0 0.0 
0.0 0.0 0.0 
0.0 0.0 0.0 
0.0 0.0 0.0 
0.0 0.0 0.0 
0.0 0.0 0.0 
0.0 0.0 0.0 
0.0 0.0 0.0 
0.0 0.0 0.0 
0.0 0.0 0.0 
0.0 0.0 0.0 
0.0 0.0 0.0 
0.0 0.0 0.0 
0.0 0.0 0.0 
0.0 0.0 0.0 
0.0 0.0 0.0 
0.0 0.0 0.0 
0.0 0.0 0.0 
0.0 0.0 0.0 
0.0 0.0 0.0 
0.0 0.0 0.0 
0.0 0.0 0.0 
0.0 0.0 0.0 
0.0 0.0 0.0 
0.0 0.0 0.0 
0.0 0.0 0.0 
0.0 0.0 0.0 
0.0 0.0 0.0 
0.0 0.0 0.0 
0.0 0.0 0.0 
0.0 0.0 0.0 
0.0 0.0 0.0 
0.0 0.0 0.0 
0.0 0.0 0.0 
0.0 0.0 0.0 
0.0 0.0 0.0 
0.0 0.0 0.0 
0.0 0.0 0.0 
0.0 0.0 0.0 
0.0 0.0 0.0 
0.0 0.0 0.0 
0.0 0.0 0.0 
0.0 0.0 0.0 
0.0 0.0 0.0 
0.0 0.0 0.0 
0.0 0.0 0.0 
0.0 0.0 0.0 
0.0 0.0 0.0 
0.0 0.0 0.0 
0.0 0.0 0.0 
0.0 0.0 0.0 
0.0 0.0 0.0 
0.0 0.0 0.0 
0.0 0.0 0.0 
0.0 0.0 0.0 
0.0 0.0 0.0 
0.0 0.0 0.0 
0.0 0.0 0.0 
0.0 0.0 0.0 
0.0 0.0 0.0 
0.0 0.0 0.0 
0.0 0.0 0.0 
0.0 0.0 0.0 
0.0 0.0 0.0 
0.0 0.0 0.0 
0.0 0.0 0.0 
0.0 0.0 0.0 
0.0 0.0 0.0 
0.0 0.0 0.0 
0.0 0.0 0.0 
0.0 0.0 0.0 
0.0 0.0 0.0 
0.0 0.0 0.0 
0.0 0.0 0.0 
0.0 0.0 0.0 
0.0 0.0 0.0 
0.0 0.0 0.0 
0.0 0.0 0.0 
0.0 0.0 0.0 
0.0 0.0 0.0 
0.0 0.0 0.0 
0.0 0.0 0.0 
0.0 0.0 0.0 
0.0 0.0 0.0 
0.0 0.0 0.0 
0.0 0.0 0.0 
0.0 0.0 0.0 
0.0 0.0 0.0 
0.0 0.0 0.0 
0.0 0.0 0.0 
0.0 0.0 0.0 
0.0 0.0 0.0 
0.0 0.0 0.0 
0.0 0.0 0.0 
0.0 0.0 0.0 
0.0 0.0 0.0 
0.0 0.0 0.0 
0.0 0.0 0.0 
0.0 0.0 0.0 
0.0 0.0 0.0 
0.0 0.0 0.0 
0.0 0.0 0.0 
0.0 0.0 0.0 
0.0 0.0 0.0 
0.0 0.0 0.0 
0.0 0.0 0.0 
0.0 0.0 0.0 
0.0 0.0 0.0 
0.0 0.0 0.0 
0.0 0.0 0.0 

VECTORS node_force_gravity float
0.0 -1.962000000000e+01 0.0 
0.0 -1.962000000000e+01 0.0 
0.0 -1.962000000000e+01 0.0 
0.0 -1.962000000000e+01 0.0 
0.0 -1.962000000000e+01 0.0 
0.0 -1.962000000000e+01 0.0 
0.0 -1.962000000000e+01 0.0 
0.0 -1.962000000000e+01 0.0 
0.0 -1.962000000000e+01 0.0 
0.0 -1.962000000000e+01 0.0 
0.0 -1.962000000000e+01 0.0 
0.0 -1.962000000000e+01 0.0 
0.0 -1.962000000000e+01 0.0 
0.0 -1.962000000000e+01 0.0 
0.0 -1.962000000000e+01 0.0 
0.0 -1.962000000000e+01 0.0 
0.0 -1.962000000000e+01 0.0 
0.0 -1.962000000000e+01 0.0 
0.0 -1.962000000000e+01 0.0 
0.0 -1.962000000000e+01 0.0 
0.0 -1.962000000000e+01 0.0 
0.0 -1.962000000000e+01 0.0 
0.0 -1.962000000000e+01 0.0 
0.0 -1.962000000000e+01 0.0 
0.0 -1.962000000000e+01 0.0 
0.0 -1.962000000000e+01 0.0 
0.0 -1.962000000000e+01 0.0 
0.0 -1.962000000000e+01 0.0 
0.0 -1.962000000000e+01 0.0 
0.0 -1.962000000000e+01 0.0 
0.0 -1.962000000000e+01 0.0 
0.0 -1.962000000000e+01 0.0 
0.0 -1.962000000000e+01 0.0 
0.0 -1.962000000000e+01 0.0 
0.0 -1.962000000000e+01 0.0 
0.0 -1.962000000000e+01 0.0 
0.0 -1.962000000000e+01 0.0 
0.0 -1.962000000000e+01 0.0 
0.0 -1.962000000000e+01 0.0 
0.0 -1.962000000000e+01 0.0 
0.0 -1.962000000000e+01 0.0 
0.0 -1.962000000000e+01 0.0 
0.0 -1.962000000000e+01 0.0 
0.0 -1.962000000000e+01 0.0 
0.0 -1.962000000000e+01 0.0 
0.0 -1.962000000000e+01 0.0 
0.0 -1.962000000000e+01 0.0 
0.0 -1.962000000000e+01 0.0 
0.0 -1.962000000000e+01 0.0 
0.0 -1.962000000000e+01 0.0 
0.0 -1.962000000000e+01 0.0 
0.0 -1.962000000000e+01 0.0 
0.0 -1.962000000000e+01 0.0 
0.0 -1.962000000000e+01 0.0 
0.0 -1.962000000000e+01 0.0 
0.0 -1.962000000000e+01 0.0 
0.0 -1.962000000000e+01 0.0 
0.0 -1.962000000000e+01 0.0 
0.0 -1.962000000000e+01 0.0 
0.0 -1.962000000000e+01 0.0 
0.0 -1.962000000000e+01 0.0 
0.0 -1.962000000000e+01 0.0 
0.0 -1.962000000000e+01 0.0 
0.0 -1.962000000000e+01 0.0 
0.0 -1.962000000000e+01 0.0 
0.0 -1.962000000000e+01 0.0 
0.0 -1.962000000000e+01 0.0 
0.0 -1.962000000000e+01 0.0 
0.0 -1.962000000000e+01 0.0 
0.0 -1.962000000000e+01 0.0 
0.0 -1.962000000000e+01 0.0 
0.0 -1.962000000000e+01 0.0 
0.0 -1.962000000000e+01 0.0 
0.0 -1.962000000000e+01 0.0 
0.0 -1.962000000000e+01 0.0 
0.0 -1.962000000000e+01 0.0 
0.0 -1.962000000000e+01 0.0 
0.0 -1.962000000000e+01 0.0 
0.0 -1.962000000000e+01 0.0 
0.0 -1.962000000000e+01 0.0 
0.0 -1.962000000000e+01 0.0 
0.0 -1.962000000000e+01 0.0 
0.0 -1.962000000000e+01 0.0 
0.0 -1.962000000000e+01 0.0 
0.0 -1.962000000000e+01 0.0 
0.0 -1.962000000000e+01 0.0 
0.0 -1.962000000000e+01 0.0 
0.0 -1.962000000000e+01 0.0 
0.0 -1.962000000000e+01 0.0 
0.0 -1.962000000000e+01 0.0 
0.0 -1.962000000000e+01 0.0 
0.0 -1.962000000000e+01 0.0 
0.0 -1.962000000000e+01 0.0 
0.0 -1.962000000000e+01 0.0 
0.0 -1.962000000000e+01 0.0 
0.0 -1.962000000000e+01 0.0 
0.0 -1.962000000000e+01 0.0 
0.0 -1.962000000000e+01 0.0 
0.0 -1.962000000000e+01 0.0 
0.0 -1.962000000000e+01 0.0 
0.0 -1.962000000000e+01 0.0 
0.0 -1.962000000000e+01 0.0 
0.0 -1.962000000000e+01 0.0 
0.0 -1.962000000000e+01 0.0 
0.0 -1.962000000000e+01 0.0 
0.0 -1.962000000000e+01 0.0 
0.0 -1.962000000000e+01 0.0 
0.0 -1.962000000000e+01 0.0 
0.0 -1.962000000000e+01 0.0 
0.0 -1.962000000000e+01 0.0 
0.0 -1.962000000000e+01 0.0 
0.0 -1.962000000000e+01 0.0 
0.0 -1.962000000000e+01 0.0 
0.0 -1.962000000000e+01 0.0 
0.0 -1.962000000000e+01 0.0 
0.0 -1.962000000000e+01 0.0 
0.0 -1.962000000000e+01 0.0 
0.0 -1.962000000000e+01 0.0 
0.0 -1.962000000000e+01 0.0 
0.0 -1.962000000000e+01 0.0 
0.0 -1.962000000000e+01 0.0 
0.0 -1.962000000000e+01 0.0 
0.0 -1.962000000000e+01 0.0 
0.0 -1.962000000000e+01 0.0 
0.0 -1.962000000000e+01 0.0 
0.0 -1.962000000000e+01 0.0 
0.0 -1.962000000000e+01 0.0 
0.0 -1.962000000000e+01 0.0 
0.0 -1.962000000000e+01 0.0 
0.0 -1.962000000000e+01 0.0 
0.0 -1.962000000000e+01 0.0 
0.0 -1.962000000000e+01 0.0 
0.0 -1.962000000000e+01 0.0 
0.0 -1.962000000000e+01 0.0 
0.0 -1.962000000000e+01 0.0 
0.0 -1.962000000000e+01 0.0 
0.0 -1.962000000000e+01 0.0 
0.0 -1.962000000000e+01 0.0 
0.0 -1.962000000000e+01 0.0 
0.0 -1.962000000000e+01 0.0 
0.0 -1.962000000000e+01 0.0 
0.0 -1.962000000000e+01 0.0 
0.0 -1.962000000000e+01 0.0 
0.0 -1.962000000000e+01 0.0 
0.0 -1.962000000000e+01 0.0 
0.0 -1.962000000000e+01 0.0 
0.0 -1.962000000000e+01 0.0 
0.0 -1.962000000000e+01 0.0 
0.0 -1.962000000000e+01 0.0 
0.0 -1.962000000000e+01 0.0 
0.0 -1.962000000000e+01 0.0 
0.0 -1.962000000000e+01 0.0 
0.0 -1.962000000000e+01 0.0 
0.0 -1.962000000000e+01 0.0 
0.0 -1.962000000000e+01 0.0 
0.0 -1.962000000000e+01 0.0 
0.0 -1.962000000000e+01 0.0 
0.0 -1.962000000000e+01 0.0 
0.0 -1.962000000000e+01 0.0 
0.0 -1.962000000000e+01 0.0 
0.0 -1.962000000000e+01 0.0 
0.0 -1.962000000000e+01 0.0 
0.0 -1.962000000000e+01 0.0 
0.0 -1.962000000000e+01 0.0 
0.0 -1.962000000000e+01 0.0 
0.0 -1.962000000000e+01 0.0 
0.0 -1.962000000000e+01 0.0 
0.0 -1.962000000000e+01 0.0 
0.0 -1.962000000000e+01 0.0 
0.0 -1.962000000000e+01 0.0 
0.0 -1.962000000000e+01 0.0 
0.0 -1.962000000000e+01 0.0 
0.0 -1.962000000000e+01 0.0 
0.0 -1.962000000000e+01 0.0 
0.0 -1.962000000000e+01 0.0 
0.0 -1.962000000000e+01 0.0 
0.0 -1.962000000000e+01 0.0 
0.0 -1.962000000000e+01 0.0 
0.0 -1.962000000000e+01 0.0 
0.0 -1.962000000000e+01 0.0 
0.0 -1.962000000000e+01 0.0 
0.0 -1.962000000000e+01 0.0 
0.0 -1.962000000000e+01 0.0 
0.0 -1.962000000000e+01 0.0 
0.0 -1.962000000000e+01 0.0 
0.0 -1.962000000000e+01 0.0 
0.0 -1.962000000000e+01 0.0 
0.0 -1.962000000000e+01 0.0 
0.0 -1.962000000000e+01 0.0 
0.0 -1.962000000000e+01 0.0 
0.0 -1.962000000000e+01 0.0 
0.0 -1.962000000000e+01 0.0 
0.0 -1.962000000000e+01 0.0 
0.0 -1.962000000000e+01 0.0 
0.0 -1.962000000000e+01 0.0 
0.0 -1.962000000000e+01 0.0 
0.0 -1.962000000000e+01 0.0 
0.0 -1.962000000000e+01 0.0 
0.0 -1.962000000000e+01 0.0 
0.0 -1.962000000000e+01 0.0 
0.0 -1.962000000000e+01 0.0 
0.0 -1.962000000000e+01 0.0 
0.0 -1.962000000000e+01 0.0 
0.0 -1.962000000000e+01 0.0 
0.0 -1.962000000000e+01 0.0 
0.0 -1.962000000000e+01 0.0 
0.0 -1.962000000000e+01 0.0 
0.0 -1.962000000000e+01 0.0 
0.0 -1.962000000000e+01 0.0 
0.0 -1.962000000000e+01 0.0 
0.0 -1.962000000000e+01 0.0 
0.0 -1.962000000000e+01 0.0 
0.0 -1.962000000000e+01 0.0 
0.0 -1.962000000000e+01 0.0 
0.0 -1.962000000000e+01 0.0 
0.0 -1.962000000000e+01 0.0 
0.0 -1.962000000000e+01 0.0 
0.0 -1.962000000000e+01 0.0 
0.0 -1.962000000000e+01 0.0 
0.0 -1.962000000000e+01 0.0 
0.0 -1.962000000000e+01 0.0 
0.0 -1.962000000000e+01 0.0 
0.0 -1.962000000000e+01 0.0 
0.0 -1.962000000000e+01 0.0 
0.0 -1.962000000000e+01 0.0 
0.0 -1.962000000000e+01 0.0 
0.0 -1.962000000000e+01 0.0 
0.0 -1.962000000000e+01 0.0 
0.0 -1.962000000000e+01 0.0 
0.0 -1.962000000000e+01 0.0 
0.0 -1.962000000000e+01 0.0 
0.0 -1.962000000000e+01 0.0 
0.0 -1.962000000000e+01 0.0 
0.0 -1.962000000000e+01 0.0 
0.0 -1.962000000000e+01 0.0 
0.0 -1.962000000000e+01 0.0 
0.0 -1.962000000000e+01 0.0 
0.0 -1.962000000000e+01 0.0 
0.0 -1.962000000000e+01 0.0 
0.0 -1.962000000000e+01 0.0 
0.0 -1.962000000000e+01 0.0 
0.0 -1.962000000000e+01 0.0 
0.0 -1.962000000000e+01 0.0 
0.0 -1.962000000000e+01 0.0 
0.0 -1.962000000000e+01 0.0 
0.0 -1.962000000000e+01 0.0 
0.0 -1.962000000000e+01 0.0 
0.0 -1.962000000000e+01 0.0 
0.0 -1.962000000000e+01 0.0 
0.0 -1.962000000000e+01 0.0 
0.0 -1.962000000000e+01 0.0 
0.0 -1.962000000000e+01 0.0 
0.0 -1.962000000000e+01 0.0 
0.0 -1.962000000000e+01 0.0 
0.0 -1.962000000000e+01 0.0 
0.0 -1.962000000000e+01 0.0 
0.0 -1.962000000000e+01 0.0 
0.0 -1.962000000000e+01 0.0 
0.0 -1.962000000000e+01 0.0 
0.0 -1.962000000000e+01 0.0 
0.0 -1.962000000000e+01 0.0 
0.0 -1.962000000000e+01 0.0 
0.0 -1.962000000000e+01 0.0 
0.0 -1.962000000000e+01 0.0 
0.0 -1.962000000000e+01 0.0 
0.0 -1.962000000000e+01 0.0 
0.0 -1.962000000000e+01 0.0 
0.0 -1.962000000000e+01 0.0 
0.0 -1.962000000000e+01 0.0 
0.0 -1.962000000000e+01 0.0 
0.0 -1.962000000000e+01 0.0 
0.0 -1.962000000000e+01 0.0 
0.0 -1.962000000000e+01 0.0 
0.0 -1.962000000000e+01 0.0 
0.0 -1.962000000000e+01 0.0 
0.0 -1.962000000000e+01 0.0 
0.0 -1.962000000000e+01 0.0 
0.0 -1.962000000000e+01 0.0 
0.0 -1.962000000000e+01 0.0 
0.0 -1.962000000000e+01 0.0 
0.0 -1.962000000000e+01 0.0 
0.0 -1.962000000000e+01 0.0 
0.0 -1.962000000000e+01 0.0 
0.0 -1.962000000000e+01 0.0 
0.0 -1.962000000000e+01 0.0 
0.0 -1.962000000000e+01 0.0 
0.0 -1.962000000000e+01 0.0 
0.0 -1.962000000000e+01 0.0 
0.0 -1.962000000000e+01 0.0 
0.0 -1.962000000000e+01 0.0 
0.0 -1.962000000000e+01 0.0 
0.0 -1.962000000000e+01 0.0 
0.0 -1.962000000000e+01 0.0 
0.0 -1.962000000000e+01 0.0 
0.0 -1.962000000000e+01 0.0 
0.0 -1.962000000000e+01 0.0 
0.0 -1.962000000000e+01 0.0 
0.0 -1.962000000000e+01 0.0 
0.0 -1.962000000000e+01 0.0 
0.0 -1.962000000000e+01 0.0 
0.0 -1.962000000000e+01 0.0 
0.0 -1.962000000000e+01 0.0 
0.0 -1.962000000000e+01 0.0 
0.0 -1.962000000000e+01 0.0 
0.0 -1.962000000000e+01 0.0 
0.0 -1.962000000000e+01 0.0 
0.0 -1.962000000000e+01 0.0 
0.0 -1.962000000000e+01 0.0 
0.0 -1.962000000000e+01 0.0 
0.0 -1.962000000000e+01 0.0 
0.0 -1.962000000000e+01 0.0 
0.0 -1.962000000000e+01 0.0 
0.0 -1.962000000000e+01 0.0 
0.0 -1.962000000000e+01 0.0 
0.0 -1.962000000000e+01 0.0 
0.0 -1.962000000000e+01 0.0 
0.0 -1.962000000000e+01 0.0 
0.0 -1.962000000000e+01 0.0 
0.0 -1.962000000000e+01 0.0 
0.0 -1.962000000000e+01 0.0 
0.0 -1.962000000000e+01 0.0 
0.0 -1.962000000000e+01 0.0 
0.0 -1.962000000000e+01 0.0 
0.0 -1.962000000000e+01 0.0 
0.0 -1.962000000000e+01 0.0 
0.0 -1.962000000000e+01 0.0 
0.0 -1.962000000000e+01 0.0 
0.0 -1.962000000000e+01 0.0 
0.0 -1.962000000000e+01 0.0 
0.0 -1.962000000000e+01 0.0 
0.0 -1.962000000000e+01 0.0 
0.0 -1.962000000000e+01 0.0 
0.0 -1.962000000000e+01 0.0 
0.0 -1.962000000000e+01 0.0 
0.0 -1.962000000000e+01 0.0 
0.0 -1.962000000000e+01 0.0 
0.0 -1.962000000000e+01 0.0 
0.0 -1.962000000000e+01 0.0 
0.0 -1.962000000000e+01 0.0 
0.0 -1.962000000000e+01 0.0 
0.0 -1.962000000000e+01 0.0 
0.0 -1.962000000000e+01 0.0 
0.0 -1.962000000000e+01 0.0 
0.0 -1.962000000000e+01 0.0 
0.0 -1.962000000000e+01 0.0 
0.0 -1.962000000000e+01 0.0 
0.0 -1.962000000000e+01 0.0 
0.0 -1.962000000000e+01 0.0 
0.0 -1.962000000000e+01 0.0 
0.0 -1.962000000000e+01 0.0 
0.0 -1.962000000000e+01 0.0 
0.0 -1.962000000000e+01 0.0 
0.0 -1.962000000000e+01 0.0 
0.0 -1.962000000000e+01 0.0 
0.0 -1.962000000000e+01 0.0 
0.0 -1.962000000000e+01 0.0 
0.0 -1.962000000000e+01 0.0 
0.0 -1.962000000000e+01 0.0 
0.0 -1.962000000000e+01 0.0 
0.0 -1.962000000000e+01 0.0 
0.0 -1.962000000000e+01 0.0 
0.0 -1.962000000000e+01 0.0 
0.0 -1.962000000000e+01 0.0 
0.0 -1.962000000000e+01 0.0 
0.0 -1.962000000000e+01 0.0 
0.0 -1.962000000000e+01 0.0 
0.0 -1.962000000000e+01 0.0 
0.0 -1.962000000000e+01 0.0 
0.0 -1.962000000000e+01 0.0 
0.0 -1.962000000000e+01 0.0 
0.0 -1.962000000000e+01 0.0 
0.0 -1.962000000000e+01 0.0 
0.0 -1.962000000000e+01 0.0 
0.0 -1.962000000000e+01 0.0 
0.0 -1.962000000000e+01 0.0 
0.0 -1.962000000000e+01 0.0 
0.0 -1.962000000000e+01 0.0 
0.0 -1.962000000000e+01 0.0 
0.0 -1.962000000000e+01 0.0 
0.0 -1.962000000000e+01 0.0 
0.0 -1.962000000000e+01 0.0 
0.0 -1.962000000000e+01 0.0 
0.0 -1.962000000000e+01 0.0 
0.0 -1.962000000000e+01 0.0 
0.0 -1.962000000000e+01 0.0 
0.0 -1.962000000000e+01 0.0 
0.0 -1.962000000000e+01 0.0 
0.0 -1.962000000000e+01 0.0 
0.0 -1.962000000000e+01 0.0 
0.0 -1.962000000000e+01 0.0 
0.0 -1.962000000000e+01 0.0 
0.0 -1.962000000000e+01 0.0 
0.0 -1.962000000000e+01 0.0 
0.0 -1.962000000000e+01 0.0 
0.0 -1.962000000000e+01 0.0 
0.0 -1.962000000000e+01 0.0 
0.0 -1.962000000000e+01 0.0 
0.0 -1.962000000000e+01 0.0 
0.0 -1.962000000000e+01 0.0 
0.0 -1.962000000000e+01 0.0 
0.0 -1.962000000000e+01 0.0 
0.0 -1.962000000000e+01 0.0 
0.0 -1.962000000000e+01 0.0 
0.0 -1.962000000000e+01 0.0 
0.0 -1.962000000000e+01 0.0 
0.0 -1.962000000000e+01 0.0 
0.0 -1.962000000000e+01 0.0 
0.0 -1.962000000000e+01 0.0 
0.0 -1.962000000000e+01 0.0 
0.0 -1.962000000000e+01 0.0 
0.0 -1.962000000000e+01 0.0 
0.0 -1.962000000000e+01 0.0 
0.0 -1.962000000000e+01 0.0 
0.0 -1.962000000000e+01 0.0 
0.0 -1.962000000000e+01 0.0 
0.0 -1.962000000000e+01 0.0 
0.0 -1.962000000000e+01 0.0 
0.0 -1.962000000000e+01 0.0 
0.0 -1.962000000000e+01 0.0 
0.0 -1.962000000000e+01 0.0 
0.0 -1.962000000000e+01 0.0 
0.0 -1.962000000000e+01 0.0 
0.0 -1.962000000000e+01 0.0 
0.0 -1.962000000000e+01 0.0 
0.0 -1.962000000000e+01 0.0 
0.0 -1.962000000000e+01 0.0 
0.0 -1.962000000000e+01 0.0 
0.0 -1.962000000000e+01 0.0 
0.0 -1.962000000000e+01 0.0 
0.0 -1.962000000000e+01 0.0 
0.0 -1.962000000000e+01 0.0 
0.0 -1.962000000000e+01 0.0 
0.0 -1.962000000000e+01 0.0 
0.0 -1.962000000000e+01 0.0 
0.0 -1.962000000000e+01 0.0 
0.0 -1.962000000000e+01 0.0 
0.0 -1.962000000000e+01 0.0 
0.0 -1.962000000000e+01 0.0 
0.0 -1.962000000000e+01 0.0 
0.0 -1.962000000000e+01 0.0 
0.0 -1.962000000000e+01 0.0 
0.0 -1.962000000000e+01 0.0 
0.0 -1.962000000000e+01 0.0 
0.0 -1.962000000000e+01 0.0 
0.0 -1.962000000000e+01 0.0 
0.0 -1.962000000000e+01 0.0 
0.0 -1.962000000000e+01 0.0 
0.0 -1.962000000000e+01 0.0 
0.0 -1.962000000000e+01 0.0 
0.0 -1.962000000000e+01 0.0 
0.0 -1.962000000000e+01 0.0 
0.0 -1.962000000000e+01 0.0 
0.0 -1.962000000000e+01 0.0 
0.0 -1.962000000000e+01 0.0 
0.0 -1.962000000000e+01 0.0 
0.0 -1.962000000000e+01 0.0 
0.0 -1.962000000000e+01 0.0 
0.0 -1.962000000000e+01 0.0 
0.0 -1.962000000000e+01 0.0 
0.0 -1.962000000000e+01 0.0 
0.0 -1.962000000000e+01 0.0 
0.0 -1.962000000000e+01 0.0 
0.0 -1.962000000000e+01 0.0 
0.0 -1.962000000000e+01 0.0 
0.0 -1.962000000000e+01 0.0 
0.0 -1.962000000000e+01 0.0 
0.0 -1.962000000000e+01 0.0 
0.0 -1.962000000000e+01 0.0 
0.0 -1.962000000000e+01 0.0 
0.0 -1.962000000000e+01 0.0 
0.0 -1.962000000000e+01 0.0 
0.0 -1.962000000000e+01 0.0 
0.0 -1.962000000000e+01 0.0 
0.0 -1.962000000000e+01 0.0 
0.0 -1.962000000000e+01 0.0 
0.0 -1.962000000000e+01 0.0 
0.0 -1.962000000000e+01 0.0 
0.0 -1.962000000000e+01 0.0 
0.0 -1.962000000000e+01 0.0 
0.0 -1.962000000000e+01 0.0 
0.0 -1.962000000000e+01 0.0 
0.0 -1.962000000000e+01 0.0 
0.0 -1.962000000000e+01 0.0 
0.0 -1.962000000000e+01 0.0 
0.0 -1.962000000000e+01 0.0 
0.0 -1.962000000000e+01 0.0 
0.0 -1.962000000000e+01 0.0 
0.0 -1.962000000000e+01 0.0 
0.0 -1.962000000000e+01 0.0 
0.0 -1.962000000000e+01 0.0 
0.0 -1.962000000000e+01 0.0 
0.0 -1.962000000000e+01 0.0 
0.0 -1.962000000000e+01 0.0 
0.0 -1.962000000000e+01 0.0 
0.0 -1.962000000000e+01 0.0 
0.0 -1.962000000000e+01 0.0 
0.0 -1.962000000000e+01 0.0 
0.0 -1.962000000000e+01 0.0 
0.0 -1.962000000000e+01 0.0 
0.0 -1.962000000000e+01 0.0 
0.0 -1.962000000000e+01 0.0 
0.0 -1.962000000000e+01 0.0 
0.0 -1.962000000000e+01 0.0 
0.0 -1.962000000000e+01 0.0 
0.0 -1.962000000000e+01 0.0 
0.0 -1.962000000000e+01 0.0 
0.0 -1.962000000000e+01 0.0 
0.0 -1.962000000000e+01 0.0 
0.0 -1.962000000000e+01 0.0 
0.0 -1.962000000000e+01 0.0 
0.0 -1.962000000000e+01 0.0 
0.0 -1.962000000000e+01 0.0 
0.0 -1.962000000000e+01 0.0 
0.0 -1.962000000000e+01 0.0 
0.0 -1.962000000000e+01 0.0 
0.0 -1.962000000000e+01 0.0 
0.0 -1.962000000000e+01 0.0 
0.0 -1.962000000000e+01 0.0 
0.0 -1.962000000000e+01 0.0 
0.0 -1.962000000000e+01 0.0 
0.0 -1.962000000000e+01 0.0 
0.0 -1.962000000000e+01 0.0 
0.0 -1.962000000000e+01 0.0 
0.0 -1.962000000000e+01 0.0 
0.0 -1.962000000000e+01 0.0 
0.0 -1.962000000000e+01 0.0 
0.0 -1.962000000000e+01 0.0 
0.0 -1.962000000000e+01 0.0 
0.0 -1.962000000000e+01 0.0 
0.0 -1.962000000000e+01 0.0 
0.0 -1.962000000000e+01 0.0 
0.0 -1.962000000000e+01 0.0 
0.0 -1.962000000000e+01 0.0 
0.0 -1.962000000000e+01 0.0 
0.0 -1.962000000000e+01 0.0 
0.0 -1.962000000000e+01 0.0 
0.0 -1.962000000000e+01 0.0 
0.0 -1.962000000000e+01 0.0 
0.0 -1.962000000000e+01 0.0 
0.0 -1.962000000000e+01 0.0 
0.0 -1.962000000000e+01 0.0 
0.0 -1.962000000000e+01 0.0 
0.0 -1.962000000000e+01 0.0 
0.0 -1.962000000000e+01 0.0 
0.0 -1.962000000000e+01 0.0 
0.0 -1.962000000000e+01 0.0 
0.0 -1.962000000000e+01 0.0 
0.0 -1.962000000000e+01 0.0 
0.0 -1.962000000000e+01 0.0 
0.0 -1.962000000000e+01 0.0 
0.0 -1.962000000000e+01 0.0 
0.0 -1.962000000000e+01 0.0 
0.0 -1.962000000000e+01 0.0 
0.0 -1.962000000000e+01 0.0 
0.0 -1.962000000000e+01 0.0 
0.0 -1.962000000000e+01 0.0 
0.0 -1.962000000000e+01 0.0 
0.0 -1.962000000000e+01 0.0 
0.0 -1.962000000000e+01 0.0 
0.0 -1.962000000000e+01 0.0 
0.0 -1.962000000000e+01 0.0 
0.0 -1.962000000000e+01 0.0 
0.0 -1.962000000000e+01 0.0 
0.0 -1.962000000000e+01 0.0 
0.0 -1.962000000000e+01 0.0 
0.0 -1.962000000000e+01 0.0 
0.0 -1.962000000000e+01 0.0 
0.0 -1.962000000000e+01 0.0 
0.0 -1.962000000000e+01 0.0 
0.0 -1.962000000000e+01 0.0 
0.0 -1.962000000000e+01 0.0 
0.0 -1.962000000000e+01 0.0 
0.0 -1.962000000000e+01 0.0 
0.0 -1.962000000000e+01 0.0 
0.0 -1.962000000000e+01 0.0 
0.0 -1.962000000000e+01 0.0 
0.0 -1.962000000000e+01 0.0 
0.0 -1.962000000000e+01 0.0 
0.0 -1.962000000000e+01 0.0 
0.0 -1.962000000000e+01 0.0 
0.0 -1.962000000000e+01 0.0 
0.0 -1.962000000000e+01 0.0 
0.0 -1.962000000000e+01 0.0 
0.0 -1.962000000000e+01 0.0 
0.0 -1.962000000000e+01 0.0 
0.0 -1.962000000000e+01 0.0 
0.0 -1.962000000000e+01 0.0 
0.0 -1.962000000000e+01 0.0 
0.0 -1.962000000000e+01 0.0 
0.0 -1.962000000000e+01 0.0 
0.0 -1.962000000000e+01 0.0 
0.0 -1.962000000000e+01 0.0 
0.0 -1.962000000000e+01 0.0 
0.0 -1.962000000000e+01 0.0 
0.0 -1.962000000000e+01 0.0 
0.0 -1.962000000000e+01 0.0 
0.0 -1.962000000000e+01 0.0 
0.0 -1.962000000000e+01 0.0 
0.0 -1.962000000000e+01 0.0 
0.0 -1.962000000000e+01 0.0 
0.0 -1.962000000000e+01 0.0 
0.0 -1.962000000000e+01 0.0 
0.0 -1.962000000000e+01 0.0 
0.0 -1.962000000000e+01 0.0 
0.0 -1.962000000000e+01 0.0 
0.0 -1.962000000000e+01 0.0 
0.0 -1.962000000000e+01 0.0 
0.0 -1.962000000000e+01 0.0 
0.0 -1.962000000000e+01 0.0 
0.0 -1.962000000000e+01 0.0 
0.0 -1.962000000000e+01 0.0 
0.0 -1.962000000000e+01 0.0 
0.0 -1.962000000000e+01 0.0 
0.0 -1.962000000000e+01 0.0 
0.0 -1.962000000000e+01 0.0 
0.0 -1.962000000000e+01 0.0 
0.0 -1.962000000000e+01 0.0 
0.0 -1.962000000000e+01 0.0 
0.0 -1.962000000000e+01 0.0 
0.0 -1.962000000000e+01 0.0 
0.0 -1.962000000000e+01 0.0 
0.0 -1.962000000000e+01 0.0 
0.0 -1.962000000000e+01 0.0 
0.0 -1.962000000000e+01 0.0 
0.0 -1.962000000000e+01 0.0 
0.0 -1.962000000000e+01 0.0 
0.0 -1.962000000000e+01 0.0 
0.0 -1.962000000000e+01 0.0 
0.0 -1.962000000000e+01 0.0 
0.0 -1.962000000000e+01 0.0 
0.0 -1.962000000000e+01 0.0 
0.0 -1.962000000000e+01 0.0 
0.0 -1.962000000000e+01 0.0 
0.0 -1.962000000000e+01 0.0 
0.0 -1.962000000000e+01 0.0 
0.0 -1.962000000000e+01 0.0 
0.0 -1.962000000000e+01 0.0 
0.0 -1.962000000000e+01 0.0 
0.0 -1.962000000000e+01 0.0 
0.0 -1.962000000000e+01 0.0 
0.0 -1.962000000000e+01 0.0 
0.0 -1.962000000000e+01 0.0 
0.0 -1.962000000000e+01 0.0 
0.0 -1.962000000000e+01 0.0 
0.0 -1.962000000000e+01 0.0 
0.0 -1.962000000000e+01 0.0 
0.0 -1.962000000000e+01 0.0 
0.0 -1.962000000000e+01 0.0 
0.0 -1.962000000000e+01 0.0 
0.0 -1.962000000000e+01 0.0 
0.0 -1.962000000000e+01 0.0 
0.0 -1.962000000000e+01 0.0 
0.0 -1.962000000000e+01 0.0 
0.0 -1.962000000000e+01 0.0 
0.0 -1.962000000000e+01 0.0 
0.0 -1.962000000000e+01 0.0 
0.0 -1.962000000000e+01 0.0 
0.0 -1.962000000000e+01 0.0 
0.0 -1.962000000000e+01 0.0 
0.0 -1.962000000000e+01 0.0 
0.0 -1.962000000000e+01 0.0 
0.0 -1.962000000000e+01 0.0 
0.0 -1.962000000000e+01 0.0 
0.0 -1.962000000000e+01 0.0 
0.0 -1.962000000000e+01 0.0 
0.0 -1.962000000000e+01 0.0 
0.0 -1.962000000000e+01 0.0 
0.0 -1.962000000000e+01 0.0 
0.0 -1.962000000000e+01 0.0 
0.0 -1.962000000000e+01 0.0 
0.0 -1.962000000000e+01 0.0 
0.0 -1.962000000000e+01 0.0 
0.0 -1.962000000000e+01 0.0 
0.0 -1.962000000000e+01 0.0 
0.0 -1.962000000000e+01 0.0 
0.0 -1.962000000000e+01 0.0 
0.0 -1.962000000000e+01 0.0 
0.0 -1.962000000000e+01 0.0 
0.0 -1.962000000000e+01 0.0 
0.0 -1.962000000000e+01 0.0 
0.0 -1.962000000000e+01 0.0 
0.0 -1.962000000000e+01 0.0 
0.0 -1.962000000000e+01 0.0 
0.0 -1.962000000000e+01 0.0 
0.0 -1.962000000000e+01 0.0 
0.0 -1.962000000000e+01 0.0 
0.0 -1.962000000000e+01 0.0 
0.0 -1.962000000000e+01 0.0 
0.0 -1.962000000000e+01 0.0 
0.0 -1.962000000000e+01 0.0 
0.0 -1.962000000000e+01 0.0 
0.0 -1.962000000000e+01 0.0 
0.0 -1.962000000000e+01 0.0 
0.0 -1.962000000000e+01 0.0 
0.0 -1.962000000000e+01 0.0 
0.0 -1.962000000000e+01 0.0 
0.0 -1.962000000000e+01 0.0 
0.0 -1.962000000000e+01 0.0 
0.0 -1.962000000000e+01 0.0 
0.0 -1.962000000000e+01 0.0 
0.0 -1.962000000000e+01 0.0 
0.0 -1.962000000000e+01 0.0 
0.0 -1.962000000000e+01 0.0 
0.0 -1.962000000000e+01 0.0 
0.0 -1.962000000000e+01 0.0 
0.0 -1.962000000000e+01 0.0 
0.0 -1.962000000000e+01 0.0 
0.0 -1.962000000000e+01 0.0 
0.0 -1.962000000000e+01 0.0 
0.0 -1.962000000000e+01 0.0 
0.0 -1.962000000000e+01 0.0 
0.0 -1.962000000000e+01 0.0 
0.0 -1.962000000000e+01 0.0 
0.0 -1.962000000000e+01 0.0 
0.0 -1.962000000000e+01 0.0 
0.0 -1.962000000000e+01 0.0 
0.0 -1.962000000000e+01 0.0 
0.0 -1.962000000000e+01 0.0 
0.0 -1.962000000000e+01 0.0 
0.0 -1.962000000000e+01 0.0 
0.0 -1.962000000000e+01 0.0 
0.0 -1.962000000000e+01 0.0 
0.0 -1.962000000000e+01 0.0 
0.0 -1.962000000000e+01 0.0 
0.0 -1.962000000000e+01 0.0 
0.0 -1.962000000000e+01 0.0 
0.0 -1.962000000000e+01 0.0 
0.0 -1.962000000000e+01 0.0 
0.0 -1.962000000000e+01 0.0 
0.0 -1.962000000000e+01 0.0 
0.0 -1.962000000000e+01 0.0 
0.0 -1.962000000000e+01 0.0 
0.0 -1.962000000000e+01 0.0 
0.0 -1.962000000000e+01 0.0 
0.0 -1.962000000000e+01 0.0 
0.0 -1.962000000000e+01 0.0 
0.0 -1.962000000000e+01 0.0 
0.0 -1.962000000000e+01 0.0 
0.0 -1.962000000000e+01 0.0 
0.0 -1.962000000000e+01 0.0 
0.0 -1.962000000000e+01 0.0 
0.0 -1.962000000000e+01 0.0 
0.0 -1.962000000000e+01 0.0 
0.0 -1.962000000000e+01 0.0 
0.0 -1.962000000000e+01 0.0 
0.0 -1.962000000000e+01 0.0 
0.0 -1.962000000000e+01 0.0 
0.0 -1.962000000000e+01 0.0 
0.0 -1.962000000000e+01 0.0 
0.0 -1.962000000000e+01 0.0 
0.0 -1.962000000000e+01 0.0 
0.0 -1.962000000000e+01 0.0 
0.0 -1.962000000000e+01 0.0 
0.0 -1.962000000000e+01 0.0 
0.0 -1.962000000000e+01 0.0 
0.0 -1.962000000000e+01 0.0 
0.0 -1.962000000000e+01 0.0 
0.0 -1.962000000000e+01 0.0 
0.0 -1.962000000000e+01 0.0 
0.0 -1.962000000000e+01 0.0 
0.0 -1.962000000000e+01 0.0 
0.0 -1.962000000000e+01 0.0 
0.0 -1.962000000000e+01 0.0 
0.0 -1.962000000000e+01 0.0 
0.0 -1.962000000000e+01 0.0 
0.0 -1.962000000000e+01 0.0 
0.0 -1.962000000000e+01 0.0 
0.0 -1.962000000000e+01 0.0 
0.0 -1.962000000000e+01 0.0 
0.0 -1.962000000000e+01 0.0 
0.0 -1.962000000000e+01 0.0 
0.0 -1.962000000000e+01 0.0 
0.0 -1.962000000000e+01 0.0 
0.0 -1.962000000000e+01 0.0 
0.0 -1.962000000000e+01 0.0 
0.0 -1.962000000000e+01 0.0 
0.0 -1.962000000000e+01 0.0 
0.0 -1.962000000000e+01 0.0 
0.0 -1.962000000000e+01 0.0 
0.0 -1.962000000000e+01 0.0 
0.0 -1.962000000000e+01 0.0 
0.0 -1.962000000000e+01 0.0 
0.0 -1.962000000000e+01 0.0 
0.0 -1.962000000000e+01 0.0 
0.0 -1.962000000000e+01 0.0 
0.0 -1.962000000000e+01 0.0 
0.0 -1.962000000000e+01 0.0 
0.0 -1.962000000000e+01 0.0 
0.0 -1.962000000000e+01 0.0 
0.0 -1.962000000000e+01 0.0 
0.0 -1.962000000000e+01 0.0 
0.0 -1.962000000000e+01 0.0 
0.0 -1.962000000000e+01 0.0 
0.0 -1.962000000000e+01 0.0 
0.0 -1.962000000000e+01 0.0 
0.0 -1.962000000000e+01 0.0 
0.0 -1.962000000000e+01 0.0 
0.0 -1.962000000000e+01 0.0 
0.0 -1.962000000000e+01 0.0 
0.0 -1.962000000000e+01 0.0 
0.0 -1.962000000000e+01 0.0 
0.0 -1.962000000000e+01 0.0 
0.0 -1.962000000000e+01 0.0 
0.0 -1.962000000000e+01 0.0 
0.0 -1.962000000000e+01 0.0 
0.0 -1.962000000000e+01 0.0 
0.0 -1.962000000000e+01 0.0 
0.0 -1.962000000000e+01 0.0 
0.0 -1.962000000000e+01 0.0 
0.0 -1.962000000000e+01 0.0 
0.0 -1.962000000000e+01 0.0 
0.0 -1.962000000000e+01 0.0 
0.0 -1.962000000000e+01 0.0 
0.0 -1.962000000000e+01 0.0 
0.0 -1.962000000000e+01 0.0 
0.0 -1.962000000000e+01 0.0 
0.0 -1.962000000000e+01 0.0 
0.0 -1.962000000000e+01 0.0 
0.0 -1.962000000000e+01 0.0 
0.0 -1.962000000000e+01 0.0 
0.0 -1.962000000000e+01 0.0 
0.0 -1.962000000000e+01 0.0 
0.0 -1.962000000000e+01 0.0 
0.0 -1.962000000000e+01 0.0 
0.0 -1.962000000000e+01 0.0 
0.0 -1.962000000000e+01 0.0 
0.0 -1.962000000000e+01 0.0 
0.0 -1.962000000000e+01 0.0 
0.0 -1.962000000000e+01 0.0 
0.0 -1.962000000000e+01 0.0 
0.0 -1.962000000000e+01 0.0 
0.0 -1.962000000000e+01 0.0 
0.0 -1.962000000000e+01 0.0 
0.0 -1.962000000000e+01 0.0 
0.0 -1.962000000000e+01 0.0 
0.0 -1.962000000000e+01 0.0 
0.0 -1.962000000000e+01 0.0 
0.0 -1.962000000000e+01 0.0 
0.0 -1.962000000000e+01 0.0 
0.0 -1.962000000000e+01 0.0 
0.0 -1.962000000000e+01 0.0 
0.0 -1.962000000000e+01 0.0 
0.0 -1.962000000000e+01 0.0 
0.0 -1.962000000000e+01 0.0 
0.0 -1.962000000000e+01 0.0 
0.0 -1.962000000000e+01 0.0 
0.0 -1.962000000000e+01 0.0 
0.0 -1.962000000000e+01 0.0 
0.0 -1.962000000000e+01 0.0 
0.0 -1.962000000000e+01 0.0 
0.0 -1.962000000000e+01 0.0 
0.0 -1.962000000000e+01 0.0 
0.0 -1.962000000000e+01 0.0 
0.0 -1.962000000000e+01 0.0 
0.0 -1.962000000000e+01 0.0 
0.0 -1.962000000000e+01 0.0 
0.0 -1.962000000000e+01 0.0 
0.0 -1.962000000000e+01 0.0 
0.0 -1.962000000000e+01 0.0 
0.0 -1.962000000000e+01 0.0 
0.0 -1.962000000000e+01 0.0 
0.0 -1.962000000000e+01 0.0 
0.0 -1.962000000000e+01 0.0 
0.0 -1.962000000000e+01 0.0 
0.0 -1.962000000000e+01 0.0 
0.0 -1.962000000000e+01 0.0 
0.0 -1.962000000000e+01 0.0 
0.0 -1.962000000000e+01 0.0 
0.0 -1.962000000000e+01 0.0 
0.0 -1.962000000000e+01 0.0 
0.0 -1.962000000000e+01 0.0 
0.0 -1.962000000000e+01 0.0 
0.0 -1.962000000000e+01 0.0 
0.0 -1.962000000000e+01 0.0 
0.0 -1.962000000000e+01 0.0 
0.0 -1.962000000000e+01 0.0 
0.0 -1.962000000000e+01 0.0 
0.0 -1.962000000000e+01 0.0 
0.0 -1.962000000000e+01 0.0 
0.0 -1.962000000000e+01 0.0 
0.0 -1.962000000000e+01 0.0 
0.0 -1.962000000000e+01 0.0 
0.0 -1.962000000000e+01 0.0 
0.0 -1.962000000000e+01 0.0 
0.0 -1.962000000000e+01 0.0 
0.0 -1.962000000000e+01 0.0 
0.0 -1.962000000000e+01 0.0 
0.0 -1.962000000000e+01 0.0 
0.0 -1.962000000000e+01 0.0 
0.0 -1.962000000000e+01 0.0 
0.0 -1.962000000000e+01 0.0 
0.0 -1.962000000000e+01 0.0 
0.0 -1.962000000000e+01 0.0 
0.0 -1.962000000000e+01 0.0 
0.0 -1.962000000000e+01 0.0 
0.0 -1.962000000000e+01 0.0 
0.0 -1.962000000000e+01 0.0 
0.0 -1.962000000000e+01 0.0 
0.0 -1.962000000000e+01 0.0 
0.0 -1.962000000000e+01 0.0 
0.0 -1.962000000000e+01 0.0 
0.0 -1.962000000000e+01 0.0 
0.0 -1.962000000000e+01 0.0 
0.0 -1.962000000000e+01 0.0 
0.0 -1.962000000000e+01 0.0 
0.0 -1.962000000000e+01 0.0 
0.0 -1.962000000000e+01 0.0 
0.0 -1.962000000000e+01 0.0 
0.0 -1.962000000000e+01 0.0 
0.0 -1.962000000000e+01 0.0 
0.0 -1.962000000000e+01 0.0 
0.0 -1.962000000000e+01 0.0 
0.0 -1.962000000000e+01 0.0 
0.0 -1.962000000000e+01 0.0 
0.0 -1.962000000000e+01 0.0 
0.0 -1.962000000000e+01 0.0 
0.0 -1.962000000000e+01 0.0 
0.0 -1.962000000000e+01 0.0 
0.0 -1.962000000000e+01 0.0 
0.0 -1.962000000000e+01 0.0 
0.0 -1.962000000000e+01 0.0 
0.0 -1.962000000000e+01 0.0 
0.0 -1.962000000000e+01 0.0 
0.0 -1.962000000000e+01 0.0 
0.0 -1.962000000000e+01 0.0 
0.0 -1.962000000000e+01 0.0 
0.0 -1.962000000000e+01 0.0 
0.0 -1.962000000000e+01 0.0 
0.0 -1.962000000000e+01 0.0 
0.0 -1.962000000000e+01 0.0 
0.0 -1.962000000000e+01 0.0 
0.0 -1.962000000000e+01 0.0 
0.0 -1.962000000000e+01 0.0 
0.0 -1.962000000000e+01 0.0 
0.0 -1.962000000000e+01 0.0 
0.0 -1.962000000000e+01 0.0 
0.0 -1.962000000000e+01 0.0 
0.0 -1.962000000000e+01 0.0 
0.0 -1.962000000000e+01 0.0 
0.0 -1.962000000000e+01 0.0 
0.0 -1.962000000000e+01 0.0 
0.0 -1.962000000000e+01 0.0 
0.0 -1.962000000000e+01 0.0 
0.0 -1.962000000000e+01 0.0 
0.0 -1.962000000000e+01 0.0 
0.0 -1.962000000000e+01 0.0 
0.0 -1.962000000000e+01 0.0 
0.0 -1.962000000000e+01 0.0 
0.0 -1.962000000000e+01 0.0 
0.0 -1.962000000000e+01 0.0 
0.0 -1.962000000000e+01 0.0 
0.0 -1.962000000000e+01 0.0 
0.0 -1.962000000000e+01 0.0 
0.0 -1.962000000000e+01 0.0 
0.0 -1.962000000000e+01 0.0 
0.0 -1.962000000000e+01 0.0 
0.0 -1.962000000000e+01 0.0 
0.0 -1.962000000000e+01 0.0 
0.0 -1.962000000000e+01 0.0 
0.0 -1.962000000000e+01 0.0 
0.0 -1.962000000000e+01 0.0 
0.0 -1.962000000000e+01 0.0 
0.0 -1.962000000000e+01 0.0 
0.0 -1.962000000000e+01 0.0 
0.0 -1.962000000000e+01 0.0 
0.0 -1.962000000000e+01 0.0 
0.0 -1.962000000000e+01 0.0 
0.0 -1.962000000000e+01 0.0 
0.0 -1.962000000000e+01 0.0 
0.0 -1.962000000000e+01 0.0 
0.0 -1.962000000000e+01 0.0 
0.0 -1.962000000000e+01 0.0 
0.0 -1.962000000000e+01 0.0 
0.0 -1.962000000000e+01 0.0 
0.0 -1.962000000000e+01 0.0 
0.0 -1.962000000000e+01 0.0 
0.0 -1.962000000000e+01 0.0 
0.0 -1.962000000000e+01 0.0 
0.0 -1.962000000000e+01 0.0 
0.0 -1.962000000000e+01 0.0 
0.0 -1.962000000000e+01 0.0 
0.0 -1.962000000000e+01 0.0 
0.0 -1.962000000000e+01 0.0 
0.0 -1.962000000000e+01 0.0 
0.0 -1.962000000000e+01 0.0 
0.0 -1.962000000000e+01 0.0 
0.0 -1.962000000000e+01 0.0 
0.0 -1.962000000000e+01 0.0 
0.0 -1.962000000000e+01 0.0 
0.0 -1.962000000000e+01 0.0 
0.0 -1.962000000000e+01 0.0 
0.0 -1.962000000000e+01 0.0 
0.0 -1.962000000000e+01 0.0 
0.0 -1.962000000000e+01 0.0 
0.0 -1.962000000000e+01 0.0 
0.0 -1.962000000000e+01 0.0 
0.0 -1.962000000000e+01 0.0 
0.0 -1.962000000000e+01 0.0 
0.0 -1.962000000000e+01 0.0 
0.0 -1.962000000000e+01 0.0 
0.0 -1.962000000000e+01 0.0 
0.0 -1.962000000000e+01 0.0 
0.0 -1.962000000000e+01 0.0 
0.0 -1.962000000000e+01 0.0 
0.0 -1.962000000000e+01 0.0 
0.0 -1.962000000000e+01 0.0 
0.0 -1.962000000000e+01 0.0 
0.0 -1.962000000000e+01 0.0 
0.0 -1.962000000000e+01 0.0 
0.0 -1.962000000000e+01 0.0 
0.0 -1.962000000000e+01 0.0 
0.0 -1.962000000000e+01 0.0 
0.0 -1.962000000000e+01 0.0 
0.0 -1.962000000000e+01 0.0 
0.0 -1.962000000000e+01 0.0 
0.0 -1.962000000000e+01 0.0 
0.0 -1.962000000000e+01 0.0 
0.0 -1.962000000000e+01 0.0 
0.0 -1.962000000000e+01 0.0 
0.0 -1.962000000000e+01 0.0 
0.0 -1.962000000000e+01 0.0 
0.0 -1.962000000000e+01 0.0 
0.0 -1.962000000000e+01 0.0 
0.0 -1.962000000000e+01 0.0 
0.0 -1.962000000000e+01 0.0 
0.0 -1.962000000000e+01 0.0 
0.0 -1.962000000000e+01 0.0 
0.0 -1.962000000000e+01 0.0 
0.0 -1.962000000000e+01 0.0 
0.0 -1.962000000000e+01 0.0 
0.0 -1.962000000000e+01 0.0 
0.0 -1.962000000000e+01 0.0 
0.0 -1.962000000000e+01 0.0 
0.0 -1.962000000000e+01 0.0 
0.0 -1.962000000000e+01 0.0 
0.0 -1.962000000000e+01 0.0 
0.0 -1.962000000000e+01 0.0 
0.0 -1.962000000000e+01 0.0 
0.0 -1.962000000000e+01 0.0 
0.0 -1.962000000000e+01 0.0 
0.0 -1.962000000000e+01 0.0 
0.0 -1.962000000000e+01 0.0 
0.0 -1.962000000000e+01 0.0 
0.0 -1.962000000000e+01 0.0 
0.0 -1.962000000000e+01 0.0 
0.0 -1.962000000000e+01 0.0 
0.0 -1.962000000000e+01 0.0 
0.0 -1.962000000000e+01 0.0 
0.0 -1.962000000000e+01 0.0 
0.0 -1.962000000000e+01 0.0 
0.0 -1.962000000000e+01 0.0 
0.0 -1.962000000000e+01 0.0 
0.0 -1.962000000000e+01 0.0 
0.0 -1.962000000000e+01 0.0 
0.0 -1.962000000000e+01 0.0 
0.0 -1.962000000000e+01 0.0 
0.0 -1.962000000000e+01 0.0 
0.0 -1.962000000000e+01 0.0 
0.0 -1.962000000000e+01 0.0 
0.0 -1.962000000000e+01 0.0 
0.0 -1.962000000000e+01 0.0 
0.0 -1.962000000000e+01 0.0 
0.0 -1.962000000000e+01 0.0 
0.0 -1.962000000000e+01 0.0 
0.0 -1.962000000000e+01 0.0 
0.0 -1.962000000000e+01 0.0 
0.0 -1.962000000000e+01 0.0 
0.0 -1.962000000000e+01 0.0 
0.0 -1.962000000000e+01 0.0 
0.0 -1.962000000000e+01 0.0 
0.0 -1.962000000000e+01 0.0 
0.0 -1.962000000000e+01 0.0 
0.0 -1.962000000000e+01 0.0 
0.0 -1.962000000000e+01 0.0 
0.0 -1.962000000000e+01 0.0 
0.0 -1.962000000000e+01 0.0 
0.0 -1.962000000000e+01 0.0 
0.0 -1.962000000000e+01 0.0 
0.0 -1.962000000000e+01 0.0 
0.0 -1.962000000000e+01 0.0 
0.0 -1.962000000000e+01 0.0 
0.0 -1.962000000000e+01 0.0 
0.0 -1.962000000000e+01 0.0 
0.0 -1.962000000000e+01 0.0 
0.0 -1.962000000000e+01 0.0 
0.0 -1.962000000000e+01 0.0 
0.0 -1.962000000000e+01 0.0 
0.0 -1.962000000000e+01 0.0 
0.0 -1.962000000000e+01 0.0 

VECTORS node_rhside_materi_fixed float
-5.262986622470e+00 0.0 0.0 
4.161453521620e+01 0.0 0.0 
-8.389798745751e+01 -2.004162752575e+02 0.0 
5.450080184079e+01 -1.308419941422e+02 0.0 
-8.823274114801e+00 0.0 0.0 
-1.183801288206e+01 0.0 0.0 
-1.436117144290e+01 0.0 0.0 
-2.527906642197e+01 0.0 0.0 
-4.079278456716e+01 0.0 0.0 
-5.445720919916e+01 0.0 0.0 
-6.655946304890e+01 0.0 0.0 
-7.721196374826e+01 0.0 0.0 
-8.637022137524e+01 0.0 0.0 
-9.447446107063e+01 0.0 0.0 
-1.018465644545e+02 0.0 0.0 
-1.083663556320e+02 0.0 0.0 
-1.141612043792e+02 0.0 0.0 
-1.199844414715e+02 0.0 0.0 
-1.253745322489e+02 0.0 0.0 
-1.324686614237e+02 0.0 0.0 
-1.418237986449e+02 0.0 0.0 
-1.514206387040e+02 0.0 0.0 
-1.615228000949e+02 0.0 0.0 
9.681131766667e-01 -2.604543263781e+02 0.0 
1.664993830744e+00 -2.618805602278e+02 0.0 
4.636465405529e+00 -2.611281542464e+02 0.0 
3.589066493957e+00 -2.614865060982e+02 0.0 
6.386431449415e+00 -2.627019201288e+02 0.0 
7.452509659726e+00 -2.624496478676e+02 0.0 
8.607035038237e+00 -2.638169559044e+02 0.0 
1.021106577250e+01 -2.651555700558e+02 0.0 
1.311308511727e+01 -2.655666173601e+02 0.0 
1.264390683285e+01 -2.671456903562e+02 0.0 
1.618200951504e+01 -2.700066038781e+02 0.0 
1.796130057909e+01 -2.712392958200e+02 0.0 
1.974353335983e+01 -2.747846736401e+02 0.0 
2.168706582746e+01 -2.774810100304e+02 0.0 
2.399172245184e+01 -2.811136876182e+02 0.0 
2.566636707425e+01 -2.858018632425e+02 0.0 
2.868418537984e+01 -2.904292795704e+02 0.0 
3.021493158623e+01 -2.958347557113e+02 0.0 
3.187799427912e+01 -3.015429809778e+02 0.0 
3.307764016308e+01 -3.073252326686e+02 0.0 
3.362070894342e+01 -3.137160863774e+02 0.0 
3.468455945117e+01 -3.207271909653e+02 0.0 
3.475252866015e+01 -3.272373822432e+02 0.0 
3.468355120618e+01 -3.338507737316e+02 0.0 
3.423018678566e+01 -3.405577874932e+02 0.0 
3.324084737803e+01 -3.467332512835e+02 0.0 
3.212663845048e+01 -3.526252326316e+02 0.0 
3.073749240294e+01 -3.583275133970e+02 0.0 
2.935627282164e+01 -3.637956526905e+02 0.0 
2.754091939665e+01 -3.685988065378e+02 0.0 
2.588378521472e+01 -3.729691886185e+02 0.0 
2.396631566851e+01 -3.777150383488e+02 0.0 
2.210333106899e+01 -3.812886844045e+02 0.0 
2.018482524640e+01 -3.849217373524e+02 0.0 
1.810321423099e+01 -3.879791075095e+02 0.0 
1.620654458893e+01 -3.906756374786e+02 0.0 
1.433147896548e+01 -3.929359516049e+02 0.0 
1.245086741651e+01 -3.948561414877e+02 0.0 
1.079398063139e+01 -3.962818131303e+02 0.0 
9.287951997612e+00 -3.977933979764e+02 0.0 
7.772133456417e+00 -3.984936602380e+02 0.0 
6.571492811987e+00 -3.990280102479e+02 0.0 
5.418509116398e+00 -3.993269232973e+02 0.0 
4.453780192399e+00 -4.003996797543e+02 0.0 
3.386921925889e+00 -3.998179405363e+02 0.0 
2.571146847963e+00 -4.006260511607e+02 0.0 
2.189376359513e+00 -4.001907517130e+02 0.0 
1.230312571426e+00 -4.004316648124e+02 0.0 
5.883079344434e-01 -4.003303417969e+02 0.0 
4.933153973699e+01 0.0 0.0 
5.762501536600e+01 0.0 0.0 
6.528041507637e+01 0.0 0.0 
7.253586679698e+01 0.0 0.0 
7.965930630271e+01 0.0 0.0 
8.688970839009e+01 0.0 0.0 
9.336460350333e+01 0.0 0.0 
9.918592427670e+01 0.0 0.0 
1.062711980987e+02 0.0 0.0 
0.0 0.0 0.0 
0.0 0.0 0.0 
0.0 0.0 0.0 
0.0 0.0 0.0 
0.0 0.0 0.0 
0.0 0.0 0.0 
0.0 0.0 0.0 
0.0 0.0 0.0 
0.0 0.0 0.0 
0.0 0.0 0.0 
0.0 0.0 0.0 
9.925359454229e+00 0.0 0.0 
2.565387914836e+01 0.0 0.0 
3.363204106211e+01 0.0 0.0 
0.0 0.0 0.0 
0.0 0.0 0.0 
0.0 0.0 0.0 
0.0 0.0 0.0 
0.0 0.0 0.0 
0.0 0.0 0.0 
0.0 0.0 0.0 
0.0 0.0 0.0 
0.0 0.0 0.0 
0.0 0.0 0.0 
0.0 0.0 0.0 
0.0 0.0 0.0 
0.0 0.0 0.0 
0.0 0.0 0.0 
0.0 0.0 0.0 
0.0 0.0 0.0 
0.0 0.0 0.0 
0.0 0.0 0.0 
0.0 0.0 0.0 
0.0 0.0 0.0 
0.0 0.0 0.0 
0.0 0.0 0.0 
0.0 0.0 0.0 
0.0 0.0 0.0 
0.0 0.0 0.0 
0.0 0.0 0.0 
0.0 0.0 0.0 
0.0 0.0 0.0 
0.0 0.0 0.0 
0.0 0.0 0.0 
0.0 0.0 0.0 
0.0 0.0 0.0 
0.0 0.0 0.0 
0.0 0.0 0.0 
0.0 0.0 0.0 
0.0 0.0 0.0 
0.0 0.0 0.0 
0.0 0.0 0.0 
0.0 0.0 0.0 
0.0 0.0 0.0 
0.0 0.0 0.0 
0.0 0.0 0.0 
0.0 0.0 0.0 
0.0 0.0 0.0 
0.0 0.0 0.0 
0.0 0.0 0.0 
0.0 0.0 0.0 
0.0 0.0 0.0 
0.0 0.0 0.0 
0.0 0.0 0.0 
0.0 0.0 0.0 
0.0 0.0 0.0 
0.0 0.0 0.0 
0.0 0.0 0.0 
0.0 0.0 0.0 
0.0 0.0 0.0 
0.0 0.0 0.0 
0.0 0.0 0.0 
0.0 0.0 0.0 
0.0 0.0 0.0 
0.0 0.0 0.0 
0.0 0.0 0.0 
0.0 0.0 0.0 
0.0 0.0 0.0 
0.0 0.0 0.0 
0.0 0.0 0.0 
0.0 0.0 0.0 
0.0 0.0 0.0 
0.0 0.0 0.0 
0.0 0.0 0.0 
0.0 0.0 0.0 
0.0 0.0 0.0 
0.0 0.0 0.0 
0.0 0.0 0.0 
0.0 0.0 0.0 
0.0 0.0 0.0 
0.0 0.0 0.0 
0.0 0.0 0.0 
0.0 0.0 0.0 
0.0 0.0 0.0 
0.0 0.0 0.0 
0.0 0.0 0.0 
0.0 0.0 0.0 
0.0 0.0 0.0 
0.0 0.0 0.0 
0.0 0.0 0.0 
0.0 0.0 0.0 
0.0 0.0 0.0 
0.0 0.0 0.0 
0.0 0.0 0.0 
0.0 0.0 0.0 
0.0 0.0 0.0 
0.0 0.0 0.0 
0.0 0.0 0.0 
0.0 0.0 0.0 
0.0 0.0 0.0 
0.0 0.0 0.0 
0.0 0.0 0.0 
0.0 0.0 0.0 
0.0 0.0 0.0 
0.0 0.0 0.0 
0.0 0.0 0.0 
0.0 0.0 0.0 
0.0 0.0 0.0 
0.0 0.0 0.0 
0.0 0.0 0.0 
0.0 0.0 0.0 
0.0 0.0 0.0 
0.0 0.0 0.0 
0.0 0.0 0.0 
0.0 0.0 0.0 
0.0 0.0 0.0 
0.0 0.0 0.0 
0.0 0.0 0.0 
0.0 0.0 0.0 
0.0 0.0 0.0 
0.0 0.0 0.0 
0.0 0.0 0.0 
0.0 0.0 0.0 
0.0 0.0 0.0 
0.0 0.0 0.0 
0.0 0.0 0.0 
0.0 0.0 0.0 
0.0 0.0 0.0 
0.0 0.0 0.0 
0.0 0.0 0.0 
0.0 0.0 0.0 
0.0 0.0 0.0 
0.0 0.0 0.0 
0.0 0.0 0.0 
0.0 0.0 0.0 
0.0 0.0 0.0 
0.0 0.0 0.0 
0.0 0.0 0.0 
0.0 0.0 0.0 
0.0 0.0 0.0 
0.0 0.0 0.0 
0.0 0.0 0.0 
0.0 0.0 0.0 
0.0 0.0 0.0 
0.0 0.0 0.0 
0.0 0.0 0.0 
0.0 0.0 0.0 
0.0 0.0 0.0 
0.0 0.0 0.0 
0.0 0.0 0.0 
0.0 0.0 0.0 
0.0 0.0 0.0 
0.0 0.0 0.0 
0.0 0.0 0.0 
0.0 0.0 0.0 
0.0 0.0 0.0 
0.0 0.0 0.0 
0.0 0.0 0.0 
0.0 0.0 0.0 
0.0 0.0 0.0 
0.0 0.0 0.0 
0.0 0.0 0.0 
0.0 0.0 0.0 
0.0 0.0 0.0 
0.0 0.0 0.0 
0.0 0.0 0.0 
0.0 0.0 0.0 
0.0 0.0 0.0 
0.0 0.0 0.0 
0.0 0.0 0.0 
0.0 0.0 0.0 
0.0 0.0 0.0 
0.0 0.0 0.0 
0.0 0.0 0.0 
0.0 0.0 0.0 
0.0 0.0 0.0 
0.0 0.0 0.0 
0.0 0.0 0.0 
0.0 0.0 0.0 
0.0 0.0 0.0 
0.0 0.0 0.0 
0.0 0.0 0.0 
0.0 0.0 0.0 
0.0 0.0 0.0 
0.0 0.0 0.0 
0.0 0.0 0.0 
0.0 0.0 0.0 
0.0 0.0 0.0 
0.0 0.0 0.0 
0.0 0.0 0.0 
0.0 0.0 0.0 
0.0 0.0 0.0 
0.0 0.0 0.0 
0.0 0.0 0.0 
0.0 0.0 0.0 
0.0 0.0 0.0 
0.0 0.0 0.0 
0.0 0.0 0.0 
0.0 0.0 0.0 
0.0 0.0 0.0 
0.0 0.0 0.0 
0.0 0.0 0.0 
0.0 0.0 0.0 
0.0 0.0 0.0 
0.0 0.0 0.0 
0.0 0.0 0.0 
0.0 0.0 0.0 
0.0 0.0 0.0 
0.0 0.0 0.0 
0.0 0.0 0.0 
0.0 0.0 0.0 
0.0 0.0 0.0 
0.0 0.0 0.0 
0.0 0.0 0.0 
0.0 0.0 0.0 
0.0 0.0 0.0 
0.0 0.0 0.0 
0.0 0.0 0.0 
0.0 0.0 0.0 
0.0 0.0 0.0 
0.0 0.0 0.0 
0.0 0.0 0.0 
0.0 0.0 0.0 
0.0 0.0 0.0 
0.0 0.0 0.0 
0.0 0.0 0.0 
0.0 0.0 0.0 
0.0 0.0 0.0 
0.0 0.0 0.0 
0.0 0.0 0.0 
0.0 0.0 0.0 
0.0 0.0 0.0 
0.0 0.0 0.0 
0.0 0.0 0.0 
0.0 0.0 0.0 
0.0 0.0 0.0 
0.0 0.0 0.0 
0.0 0.0 0.0 
0.0 0.0 0.0 
0.0 0.0 0.0 
0.0 0.0 0.0 
0.0 0.0 0.0 
0.0 0.0 0.0 
0.0 0.0 0.0 
0.0 0.0 0.0 
0.0 0.0 0.0 
0.0 0.0 0.0 
0.0 0.0 0.0 
0.0 0.0 0.0 
0.0 0.0 0.0 
0.0 0.0 0.0 
0.0 0.0 0.0 
0.0 0.0 0.0 
0.0 0.0 0.0 
0.0 0.0 0.0 
0.0 0.0 0.0 
0.0 0.0 0.0 
0.0 0.0 0.0 
0.0 0.0 0.0 
0.0 0.0 0.0 
0.0 0.0 0.0 
0.0 0.0 0.0 
0.0 0.0 0.0 
0.0 0.0 0.0 
0.0 0.0 0.0 
0.0 0.0 0.0 
0.0 0.0 0.0 
0.0 0.0 0.0 
0.0 0.0 0.0 
0.0 0.0 0.0 
0.0 0.0 0.0 
0.0 0.0 0.0 
0.0 0.0 0.0 
0.0 0.0 0.0 
0.0 0.0 0.0 
0.0 0.0 0.0 
0.0 0.0 0.0 
0.0 0.0 0.0 
0.0 0.0 0.0 
0.0 0.0 0.0 
0.0 0.0 0.0 
0.0 0.0 0.0 
0.0 0.0 0.0 
0.0 0.0 0.0 
0.0 0.0 0.0 
0.0 0.0 0.0 
0.0 0.0 0.0 
0.0 0.0 0.0 
0.0 0.0 0.0 
0.0 0.0 0.0 
0.0 0.0 0.0 
0.0 0.0 0.0 
0.0 0.0 0.0 
0.0 0.0 0.0 
0.0 0.0 0.0 
0.0 0.0 0.0 
0.0 0.0 0.0 
0.0 0.0 0.0 
0.0 0.0 0.0 
0.0 0.0 0.0 
0.0 0.0 0.0 
0.0 0.0 0.0 
0.0 0.0 0.0 
0.0 0.0 0.0 
0.0 0.0 0.0 
0.0 0.0 0.0 
0.0 0.0 0.0 
0.0 0.0 0.0 
0.0 0.0 0.0 
0.0 0.0 0.0 
0.0 0.0 0.0 
0.0 0.0 0.0 
0.0 0.0 0.0 
0.0 0.0 0.0 
0.0 0.0 0.0 
0.0 0.0 0.0 
0.0 0.0 0.0 
0.0 0.0 0.0 
0.0 0.0 0.0 
0.0 0.0 0.0 
0.0 0.0 0.0 
0.0 0.0 0.0 
0.0 0.0 0.0 
0.0 0.0 0.0 
0.0 0.0 0.0 
0.0 0.0 0.0 
0.0 0.0 0.0 
0.0 0.0 0.0 
0.0 0.0 0.0 
0.0 0.0 0.0 
0.0 0.0 0.0 
0.0 0.0 0.0 
0.0 0.0 0.0 
0.0 0.0 0.0 
0.0 0.0 0.0 
0.0 0.0 0.0 
0.0 0.0 0.0 
0.0 0.0 0.0 
0.0 0.0 0.0 
0.0 0.0 0.0 
0.0 0.0 0.0 
0.0 0.0 0.0 
0.0 0.0 0.0 
0.0 0.0 0.0 
0.0 0.0 0.0 
0.0 0.0 0.0 
0.0 0.0 0.0 
0.0 0.0 0.0 
0.0 0.0 0.0 
0.0 0.0 0.0 
0.0 0.0 0.0 
0.0 0.0 0.0 
0.0 0.0 0.0 
0.0 0.0 0.0 
0.0 0.0 0.0 
0.0 0.0 0.0 
0.0 0.0 0.0 
0.0 0.0 0.0 
0.0 0.0 0.0 
0.0 0.0 0.0 
0.0 0.0 0.0 
0.0 0.0 0.0 
0.0 0.0 0.0 
0.0 0.0 0.0 
0.0 0.0 0.0 
0.0 0.0 0.0 
0.0 0.0 0.0 
0.0 0.0 0.0 
0.0 0.0 0.0 
0.0 0.0 0.0 
0.0 0.0 0.0 
0.0 0.0 0.0 
0.0 0.0 0.0 
0.0 0.0 0.0 
0.0 0.0 0.0 
0.0 0.0 0.0 
0.0 0.0 0.0 
0.0 0.0 0.0 
0.0 0.0 0.0 
0.0 0.0 0.0 
0.0 0.0 0.0 
0.0 0.0 0.0 
0.0 0.0 0.0 
0.0 0.0 0.0 
0.0 0.0 0.0 
0.0 0.0 0.0 
0.0 0.0 0.0 
0.0 0.0 0.0 
0.0 0.0 0.0 
0.0 0.0 0.0 
0.0 0.0 0.0 
0.0 0.0 0.0 
0.0 0.0 0.0 
0.0 0.0 0.0 
0.0 0.0 0.0 
0.0 0.0 0.0 
0.0 0.0 0.0 
0.0 0.0 0.0 
0.0 0.0 0.0 
0.0 0.0 0.0 
0.0 0.0 0.0 
0.0 0.0 0.0 
0.0 0.0 0.0 
0.0 0.0 0.0 
0.0 0.0 0.0 
0.0 0.0 0.0 
0.0 0.0 0.0 
0.0 0.0 0.0 
0.0 0.0 0.0 
0.0 0.0 0.0 
0.0 0.0 0.0 
0.0 0.0 0.0 
0.0 0.0 0.0 
0.0 0.0 0.0 
0.0 0.0 0.0 
0.0 0.0 0.0 
0.0 0.0 0.0 
0.0 0.0 0.0 
0.0 0.0 0.0 
0.0 0.0 0.0 
0.0 0.0 0.0 
0.0 0.0 0.0 
0.0 0.0 0.0 
0.0 0.0 0.0 
0.0 0.0 0.0 
0.0 0.0 0.0 
0.0 0.0 0.0 
0.0 0.0 0.0 
0.0 0.0 0.0 
0.0 0.0 0.0 
0.0 0.0 0.0 
0.0 0.0 0.0 
0.0 0.0 0.0 
0.0 0.0 0.0 
0.0 0.0 0.0 
0.0 0.0 0.0 
0.0 0.0 0.0 
0.0 0.0 0.0 
0.0 0.0 0.0 
0.0 0.0 0.0 
0.0 0.0 0.0 
0.0 0.0 0.0 
0.0 0.0 0.0 
0.0 0.0 0.0 
0.0 0.0 0.0 
0.0 0.0 0.0 
0.0 0.0 0.0 
0.0 0.0 0.0 
0.0 0.0 0.0 
0.0 0.0 0.0 
0.0 0.0 0.0 
0.0 0.0 0.0 
0.0 0.0 0.0 
0.0 0.0 0.0 
0.0 0.0 0.0 
0.0 0.0 0.0 
0.0 0.0 0.0 
0.0 0.0 0.0 
0.0 0.0 0.0 
0.0 0.0 0.0 
0.0 0.0 0.0 
0.0 0.0 0.0 
0.0 0.0 0.0 
0.0 0.0 0.0 
0.0 0.0 0.0 
0.0 0.0 0.0 
0.0 0.0 0.0 
0.0 0.0 0.0 
0.0 0.0 0.0 
0.0 0.0 0.0 
0.0 0.0 0.0 
0.0 0.0 0.0 
0.0 0.0 0.0 
0.0 0.0 0.0 
0.0 0.0 0.0 
0.0 0.0 0.0 
0.0 0.0 0.0 
0.0 0.0 0.0 
0.0 0.0 0.0 
0.0 0.0 0.0 
0.0 0.0 0.0 
0.0 0.0 0.0 
0.0 0.0 0.0 
0.0 0.0 0.0 
0.0 0.0 0.0 
0.0 0.0 0.0 
0.0 0.0 0.0 
0.0 0.0 0.0 
0.0 0.0 0.0 
0.0 0.0 0.0 
0.0 0.0 0.0 
0.0 0.0 0.0 
0.0 0.0 0.0 
0.0 0.0 0.0 
0.0 0.0 0.0 
0.0 0.0 0.0 
0.0 0.0 0.0 
0.0 0.0 0.0 
0.0 0.0 0.0 
0.0 0.0 0.0 
0.0 0.0 0.0 
0.0 0.0 0.0 
0.0 0.0 0.0 
0.0 0.0 0.0 
0.0 0.0 0.0 
0.0 0.0 0.0 
0.0 0.0 0.0 
0.0 0.0 0.0 
0.0 0.0 0.0 
0.0 0.0 0.0 
0.0 0.0 0.0 
0.0 0.0 0.0 
0.0 0.0 0.0 
0.0 0.0 0.0 
0.0 0.0 0.0 
0.0 0.0 0.0 
0.0 0.0 0.0 
0.0 0.0 0.0 
0.0 0.0 0.0 
0.0 0.0 0.0 
0.0 0.0 0.0 
0.0 0.0 0.0 
0.0 0.0 0.0 
0.0 0.0 0.0 
0.0 0.0 0.0 
0.0 0.0 0.0 
0.0 0.0 0.0 
0.0 0.0 0.0 
0.0 0.0 0.0 
0.0 0.0 0.0 
0.0 0.0 0.0 
0.0 0.0 0.0 
0.0 0.0 0.0 
0.0 0.0 0.0 
0.0 0.0 0.0 
0.0 0.0 0.0 
0.0 0.0 0.0 
0.0 0.0 0.0 
0.0 0.0 0.0 
0.0 0.0 0.0 
0.0 0.0 0.0 
0.0 0.0 0.0 
0.0 0.0 0.0 
0.0 0.0 0.0 
0.0 0.0 0.0 
0.0 0.0 0.0 
0.0 0.0 0.0 
0.0 0.0 0.0 
0.0 0.0 0.0 
0.0 0.0 0.0 
0.0 0.0 0.0 
0.0 0.0 0.0 
0.0 0.0 0.0 
0.0 0.0 0.0 
0.0 0.0 0.0 
0.0 0.0 0.0 
0.0 0.0 0.0 
0.0 0.0 0.0 
0.0 0.0 0.0 
0.0 0.0 0.0 
0.0 0.0 0.0 
0.0 0.0 0.0 
0.0 0.0 0.0 
0.0 0.0 0.0 
0.0 0.0 0.0 
0.0 0.0 0.0 
0.0 0.0 0.0 
0.0 0.0 0.0 
0.0 0.0 0.0 
0.0 0.0 0.0 
0.0 0.0 0.0 
0.0 0.0 0.0 
0.0 0.0 0.0 
0.0 0.0 0.0 
0.0 0.0 0.0 
0.0 0.0 0.0 
0.0 0.0 0.0 
0.0 0.0 0.0 
0.0 0.0 0.0 
0.0 0.0 0.0 
0.0 0.0 0.0 
0.0 0.0 0.0 
0.0 0.0 0.0 
0.0 0.0 0.0 
0.0 0.0 0.0 
0.0 0.0 0.0 
0.0 0.0 0.0 
0.0 0.0 0.0 
0.0 0.0 0.0 
0.0 0.0 0.0 
0.0 0.0 0.0 
0.0 0.0 0.0 
0.0 0.0 0.0 
0.0 0.0 0.0 
0.0 0.0 0.0 
0.0 0.0 0.0 
0.0 0.0 0.0 
0.0 0.0 0.0 
0.0 0.0 0.0 
0.0 0.0 0.0 
0.0 0.0 0.0 
0.0 0.0 0.0 
0.0 0.0 0.0 
0.0 0.0 0.0 
0.0 0.0 0.0 
0.0 0.0 0.0 
0.0 0.0 0.0 
0.0 0.0 0.0 
0.0 0.0 0.0 
0.0 0.0 0.0 
0.0 0.0 0.0 
0.0 0.0 0.0 
0.0 0.0 0.0 
0.0 0.0 0.0 
0.0 0.0 0.0 
0.0 0.0 0.0 
0.0 0.0 0.0 
0.0 0.0 0.0 
0.0 0.0 0.0 
0.0 0.0 0.0 
0.0 0.0 0.0 
0.0 0.0 0.0 
0.0 0.0 0.0 
0.0 0.0 0.0 
0.0 0.0 0.0 
0.0 0.0 0.0 
0.0 0.0 0.0 
0.0 0.0 0.0 
0.0 0.0 0.0 
0.0 0.0 0.0 
0.0 0.0 0.0 
0.0 0.0 0.0 
0.0 0.0 0.0 
0.0 0.0 0.0 
0.0 0.0 0.0 
0.0 0.0 0.0 
0.0 0.0 0.0 
0.0 0.0 0.0 
0.0 0.0 0.0 
0.0 0.0 0.0 
0.0 0.0 0.0 
0.0 0.0 0.0 
0.0 0.0 0.0 
0.0 0.0 0.0 
0.0 0.0 0.0 
0.0 0.0 0.0 
0.0 0.0 0.0 
0.0 0.0 0.0 
0.0 0.0 0.0 
0.0 0.0 0.0 
0.0 0.0 0.0 
0.0 0.0 0.0 
0.0 0.0 0.0 
0.0 0.0 0.0 
0.0 0.0 0.0 
0.0 0.0 0.0 
0.0 0.0 0.0 
0.0 0.0 0.0 
0.0 0.0 0.0 
0.0 0.0 0.0 
0.0 0.0 0.0 
0.0 0.0 0.0 
0.0 0.0 0.0 
0.0 0.0 0.0 
0.0 0.0 0.0 
0.0 0.0 0.0 
0.0 0.0 0.0 
0.0 0.0 0.0 
0.0 0.0 0.0 
0.0 0.0 0.0 
0.0 0.0 0.0 
0.0 0.0 0.0 
0.0 0.0 0.0 
0.0 0.0 0.0 
0.0 0.0 0.0 
0.0 0.0 0.0 
0.0 0.0 0.0 
0.0 0.0 0.0 
0.0 0.0 0.0 
0.0 0.0 0.0 
0.0 0.0 0.0 
0.0 0.0 0.0 
0.0 0.0 0.0 
0.0 0.0 0.0 
0.0 0.0 0.0 
0.0 0.0 0.0 
0.0 0.0 0.0 
0.0 0.0 0.0 
0.0 0.0 0.0 
0.0 0.0 0.0 
0.0 0.0 0.0 
0.0 0.0 0.0 
0.0 0.0 0.0 
0.0 0.0 0.0 
0.0 0.0 0.0 
0.0 0.0 0.0 
0.0 0.0 0.0 
0.0 0.0 0.0 
0.0 0.0 0.0 
0.0 0.0 0.0 
0.0 0.0 0.0 
0.0 0.0 0.0 
0.0 0.0 0.0 
0.0 0.0 0.0 
0.0 0.0 0.0 
0.0 0.0 0.0 
0.0 0.0 0.0 
0.0 0.0 0.0 
0.0 0.0 0.0 
0.0 0.0 0.0 
0.0 0.0 0.0 
0.0 0.0 0.0 
0.0 0.0 0.0 
0.0 0.0 0.0 
0.0 0.0 0.0 
0.0 0.0 0.0 
0.0 0.0 0.0 
0.0 0.0 0.0 
0.0 0.0 0.0 
0.0 0.0 0.0 
0.0 0.0 0.0 
0.0 0.0 0.0 
0.0 0.0 0.0 
0.0 0.0 0.0 
0.0 0.0 0.0 
0.0 0.0 0.0 
0.0 0.0 0.0 
0.0 0.0 0.0 
0.0 0.0 0.0 
0.0 0.0 0.0 
0.0 0.0 0.0 
0.0 0.0 0.0 
0.0 0.0 0.0 
0.0 0.0 0.0 
0.0 0.0 0.0 
0.0 0.0 0.0 
0.0 0.0 0.0 
0.0 0.0 0.0 
0.0 0.0 0.0 
0.0 0.0 0.0 
0.0 0.0 0.0 
0.0 0.0 0.0 
0.0 0.0 0.0 
0.0 0.0 0.0 
0.0 0.0 0.0 
0.0 0.0 0.0 
0.0 0.0 0.0 
0.0 0.0 0.0 
0.0 0.0 0.0 
0.0 0.0 0.0 
0.0 0.0 0.0 
0.0 0.0 0.0 
0.0 0.0 0.0 
0.0 0.0 0.0 
0.0 0.0 0.0 
0.0 0.0 0.0 
0.0 0.0 0.0 
0.0 0.0 0.0 
0.0 0.0 0.0 
0.0 0.0 0.0 
0.0 0.0 0.0 
0.0 0.0 0.0 
0.0 0.0 0.0 
0.0 0.0 0.0 
0.0 0.0 0.0 
0.0 0.0 0.0 
0.0 0.0 0.0 
0.0 0.0 0.0 
0.0 0.0 0.0 
0.0 0.0 0.0 
0.0 0.0 0.0 
0.0 0.0 0.0 
0.0 0.0 0.0 
0.0 0.0 0.0 
0.0 0.0 0.0 
0.0 0.0 0.0 
0.0 0.0 0.0 
0.0 0.0 0.0 
0.0 0.0 0.0 
0.0 0.0 0.0 
0.0 0.0 0.0 
0.0 0.0 0.0 
0.0 0.0 0.0 
0.0 0.0 0.0 
0.0 0.0 0.0 
0.0 0.0 0.0 
0.0 0.0 0.0 
0.0 0.0 0.0 
0.0 0.0 0.0 
0.0 0.0 0.0 
0.0 0.0 0.0 
0.0 0.0 0.0 
0.0 0.0 0.0 
0.0 0.0 0.0 
0.0 0.0 0.0 
0.0 0.0 0.0 
0.0 0.0 0.0 
0.0 0.0 0.0 
0.0 0.0 0.0 
0.0 0.0 0.0 
0.0 0.0 0.0 
0.0 0.0 0.0 
0.0 0.0 0.0 
0.0 0.0 0.0 
0.0 0.0 0.0 
0.0 0.0 0.0 
0.0 0.0 0.0 
0.0 0.0 0.0 
0.0 0.0 0.0 
0.0 0.0 0.0 
0.0 0.0 0.0 
0.0 0.0 0.0 
0.0 0.0 0.0 
0.0 0.0 0.0 
0.0 0.0 0.0 
0.0 0.0 0.0 
0.0 0.0 0.0 
0.0 0.0 0.0 
0.0 0.0 0.0 
0.0 0.0 0.0 
0.0 0.0 0.0 
0.0 0.0 0.0 
0.0 0.0 0.0 
0.0 0.0 0.0 
0.0 0.0 0.0 
0.0 0.0 0.0 
0.0 0.0 0.0 
0.0 0.0 0.0 
0.0 0.0 0.0 
0.0 0.0 0.0 
0.0 0.0 0.0 
0.0 0.0 0.0 
0.0 0.0 0.0 
0.0 0.0 0.0 
0.0 0.0 0.0 
0.0 0.0 0.0 
0.0 0.0 0.0 
0.0 0.0 0.0 
0.0 0.0 0.0 
0.0 0.0 0.0 
0.0 0.0 0.0 
0.0 0.0 0.0 
0.0 0.0 0.0 
0.0 0.0 0.0 
0.0 0.0 0.0 
0.0 0.0 0.0 
0.0 0.0 0.0 
0.0 0.0 0.0 
0.0 0.0 0.0 
0.0 0.0 0.0 
0.0 0.0 0.0 
0.0 0.0 0.0 
0.0 0.0 0.0 
0.0 0.0 0.0 
0.0 0.0 0.0 
0.0 0.0 0.0 
0.0 0.0 0.0 
0.0 0.0 0.0 
0.0 0.0 0.0 
0.0 0.0 0.0 
0.0 0.0 0.0 
0.0 0.0 0.0 
0.0 0.0 0.0 
0.0 0.0 0.0 
0.0 0.0 0.0 
0.0 0.0 0.0 
0.0 0.0 0.0 
0.0 0.0 0.0 
0.0 0.0 0.0 
0.0 0.0 0.0 
0.0 0.0 0.0 
0.0 0.0 0.0 
0.0 0.0 0.0 
0.0 0.0 0.0 
0.0 0.0 0.0 
0.0 0.0 0.0 
0.0 0.0 0.0 
0.0 0.0 0.0 
0.0 0.0 0.0 
0.0 0.0 0.0 
0.0 0.0 0.0 
0.0 0.0 0.0 
0.0 0.0 0.0 
0.0 0.0 0.0 
0.0 0.0 0.0 
0.0 0.0 0.0 
0.0 0.0 0.0 
0.0 0.0 0.0 
0.0 0.0 0.0 
0.0 0.0 0.0 
0.0 0.0 0.0 
0.0 0.0 0.0 
0.0 0.0 0.0 
0.0 0.0 0.0 
0.0 0.0 0.0 
0.0 0.0 0.0 
0.0 0.0 0.0 
0.0 0.0 0.0 
0.0 0.0 0.0 
0.0 0.0 0.0 
0.0 0.0 0.0 
0.0 0.0 0.0 
0.0 0.0 0.0 
0.0 0.0 0.0 
0.0 0.0 0.0 
0.0 0.0 0.0 
0.0 0.0 0.0 
0.0 0.0 0.0 
0.0 0.0 0.0 
0.0 0.0 0.0 
0.0 0.0 0.0 
0.0 0.0 0.0 
0.0 0.0 0.0 
0.0 0.0 0.0 
0.0 0.0 0.0 
0.0 0.0 0.0 
0.0 0.0 0.0 
0.0 0.0 0.0 
0.0 0.0 0.0 
0.0 0.0 0.0 
0.0 0.0 0.0 
0.0 0.0 0.0 
0.0 0.0 0.0 
0.0 0.0 0.0 
0.0 0.0 0.0 
0.0 0.0 0.0 
0.0 0.0 0.0 
0.0 0.0 0.0 
0.0 0.0 0.0 
0.0 0.0 0.0 
0.0 0.0 0.0 
0.0 0.0 0.0 
0.0 0.0 0.0 
0.0 0.0 0.0 
0.0 0.0 0.0 
0.0 0.0 0.0 
0.0 0.0 0.0 
0.0 0.0 0.0 
0.0 0.0 0.0 
0.0 0.0 0.0 
0.0 0.0 0.0 
0.0 0.0 0.0 
0.0 0.0 0.0 
0.0 0.0 0.0 
0.0 0.0 0.0 
0.0 0.0 0.0 
0.0 0.0 0.0 
0.0 0.0 0.0 
0.0 0.0 0.0 
0.0 0.0 0.0 
0.0 0.0 0.0 
0.0 0.0 0.0 
0.0 0.0 0.0 
0.0 0.0 0.0 
0.0 0.0 0.0 
0.0 0.0 0.0 
0.0 0.0 0.0 
0.0 0.0 0.0 
0.0 0.0 0.0 
0.0 0.0 0.0 
0.0 0.0 0.0 
0.0 0.0 0.0 
0.0 0.0 0.0 
0.0 0.0 0.0 
0.0 0.0 0.0 
0.0 0.0 0.0 
0.0 0.0 0.0 
0.0 0.0 0.0 
0.0 0.0 0.0 
0.0 0.0 0.0 
0.0 0.0 0.0 
0.0 0.0 0.0 
0.0 0.0 0.0 
0.0 0.0 0.0 
0.0 0.0 0.0 
0.0 0.0 0.0 
0.0 0.0 0.0 
0.0 0.0 0.0 
0.0 0.0 0.0 
0.0 0.0 0.0 
0.0 0.0 0.0 
0.0 0.0 0.0 
0.0 0.0 0.0 
0.0 0.0 0.0 
0.0 0.0 0.0 
0.0 0.0 0.0 
0.0 0.0 0.0 
0.0 0.0 0.0 
0.0 0.0 0.0 
0.0 0.0 0.0 
0.0 0.0 0.0 
0.0 0.0 0.0 
0.0 0.0 0.0 
0.0 0.0 0.0 
0.0 0.0 0.0 
0.0 0.0 0.0 
0.0 0.0 0.0 
0.0 0.0 0.0 

VECTORS node_materi_velocity float
0.0 -4.050535571256e-04 0.0 
0.0 9.967893125625e-03 0.0 
0.0 0.0 0.0 
0.0 0.0 0.0 
0.0 -3.910163501505e-04 0.0 
0.0 -3.763673775497e-04 0.0 
0.0 -3.604952752250e-04 0.0 
0.0 -3.429903017954e-04 0.0 
0.0 -3.232313958101e-04 0.0 
0.0 -3.012433872085e-04 0.0 
0.0 -2.770555693330e-04 0.0 
0.0 -2.507649458746e-04 0.0 
0.0 -2.227438497458e-04 0.0 
0.0 -1.934556472290e-04 0.0 
0.0 -1.635619756309e-04 0.0 
0.0 -1.339243609097e-04 0.0 
0.0 -1.052510696091e-04 0.0 
0.0 -7.790914172838e-05 0.0 
0.0 -5.337743036588e-05 0.0 
0.0 -3.242193545144e-05 0.0 
0.0 -1.577255176264e-05 0.0 
0.0 -4.502767978276e-06 0.0 
0.0 4.927685960955e-07 0.0 
0.0 0.0 0.0 
0.0 0.0 0.0 
0.0 0.0 0.0 
0.0 0.0 0.0 
0.0 0.0 0.0 
0.0 0.0 0.0 
0.0 0.0 0.0 
0.0 0.0 0.0 
0.0 0.0 0.0 
0.0 0.0 0.0 
0.0 0.0 0.0 
0.0 0.0 0.0 
0.0 0.0 0.0 
0.0 0.0 0.0 
0.0 0.0 0.0 
0.0 0.0 0.0 
0.0 0.0 0.0 
0.0 0.0 0.0 
0.0 0.0 0.0 
0.0 0.0 0.0 
0.0 0.0 0.0 
0.0 0.0 0.0 
0.0 0.0 0.0 
0.0 0.0 0.0 
0.0 0.0 0.0 
0.0 0.0 0.0 
0.0 0.0 0.0 
0.0 0.0 0.0 
0.0 0.0 0.0 
0.0 0.0 0.0 
0.0 0.0 0.0 
0.0 0.0 0.0 
0.0 0.0 0.0 
0.0 0.0 0.0 
0.0 0.0 0.0 
0.0 0.0 0.0 
0.0 0.0 0.0 
0.0 0.0 0.0 
0.0 0.0 0.0 
0.0 0.0 0.0 
0.0 0.0 0.0 
0.0 0.0 0.0 
0.0 0.0 0.0 
0.0 0.0 0.0 
0.0 0.0 0.0 
0.0 0.0 0.0 
0.0 0.0 0.0 
0.0 0.0 0.0 
0.0 0.0 0.0 
0.0 8.950828847242e-03 0.0 
0.0 7.932948245155e-03 0.0 
0.0 6.915854707089e-03 0.0 
0.0 5.900982707162e-03 0.0 
0.0 4.891098865268e-03 0.0 
0.0 3.888264370443e-03 0.0 
0.0 2.895210480364e-03 0.0 
0.0 1.914705675526e-03 0.0 
0.0 9.494627824427e-04 0.0 
1.297342795923e-05 1.612750843567e-04 0.0 
1.915418137816e-03 8.915774002102e-03 0.0 
4.438887382462e-05 4.152954540044e-04 0.0 
8.291567963330e-05 6.977948693158e-04 0.0 
1.508985890178e-04 1.125849483169e-03 0.0 
2.868582562183e-04 1.754797789521e-03 0.0 
6.184380496345e-04 2.693931714626e-03 0.0 
1.792450145005e-03 4.107603549963e-03 0.0 
1.311372387066e-03 7.107494634667e-03 0.0 
1.555701419661e-03 8.778127180003e-03 0.0 
1.856441665876e-03 9.125503002482e-03 0.0 
0.0 1.304108175116e-02 0.0 
0.0 1.200158444841e-02 0.0 
0.0 1.098368809912e-02 0.0 
1.142519551364e-04 9.970808774007e-03 0.0 
2.299476365653e-04 9.978939177718e-03 0.0 
3.456567232827e-04 9.987900319387e-03 0.0 
4.608399473864e-04 9.995858507614e-03 0.0 
5.754044567400e-04 1.000136999044e-02 0.0 
6.894900987739e-04 1.000274272288e-02 0.0 
8.042595595708e-04 9.997982699664e-03 0.0 
9.185907671017e-04 9.983029046032e-03 0.0 
1.035684257028e-03 9.954753846407e-03 0.0 
1.156110398146e-03 9.906349343955e-03 0.0 
1.281456028377e-03 9.827916580028e-03 0.0 
1.415340129884e-03 9.708091135465e-03 0.0 
1.561753553152e-03 9.531439296337e-03 0.0 
1.725748908278e-03 9.276309084327e-03 0.0 
3.215406051480e-05 5.064132763577e-05 0.0 
6.559589052090e-05 -5.932568455828e-05 0.0 
1.033617885807e-04 -1.530311689565e-04 0.0 
1.411613510441e-04 -2.293076735762e-04 0.0 
1.731782558170e-04 -2.898391809350e-04 0.0 
1.990297704719e-04 -3.359432594385e-04 0.0 
2.182453366527e-04 -3.696710355562e-04 0.0 
2.304953291134e-04 -3.936132956082e-04 0.0 
2.360785497364e-04 -4.094350075609e-04 0.0 
2.352281626390e-04 -4.187454296912e-04 0.0 
2.283454283542e-04 -4.236305883526e-04 0.0 
2.163564436079e-04 -4.244892214136e-04 0.0 
1.993101686874e-04 -4.232018705371e-04 0.0 
1.784231255658e-04 -4.203934737587e-04 0.0 
1.540050654213e-04 -4.170750403111e-04 0.0 
1.266556450506e-04 -4.134517297391e-04 0.0 
9.693222831587e-05 -4.101036048418e-04 0.0 
6.551086906667e-05 -4.075472303657e-04 0.0 
3.306298371233e-05 -4.058312531443e-04 0.0 
2.740679929784e-04 9.352857642119e-03 0.0 
3.607010280704e-04 1.034428185402e-02 0.0 
4.651027366306e-04 1.113484280674e-02 0.0 
6.222810548149e-04 1.168882814018e-02 0.0 
7.591180076620e-04 1.209667955078e-02 0.0 
8.548398292921e-04 1.238943411655e-02 0.0 
9.125702179156e-04 1.259850208840e-02 0.0 
9.424960399130e-04 1.274893213555e-02 0.0 
9.437981288644e-04 1.285547133882e-02 0.0 
9.194030469297e-04 1.292935907921e-02 0.0 
8.729562493566e-04 1.297917540919e-02 0.0 
8.105571512270e-04 1.301118932697e-02 0.0 
7.373235315829e-04 1.303079936768e-02 0.0 
6.569534903741e-04 1.304084739407e-02 0.0 
5.675102337474e-04 1.304490263199e-02 0.0 
4.718658488325e-04 1.304447808556e-02 0.0 
3.750897915643e-04 1.304109114252e-02 0.0 
2.849497795917e-04 1.303283778801e-02 0.0 
1.675445939699e-04 1.303543406966e-02 0.0 
1.281093748833e-04 1.200877880670e-02 0.0 
2.478554714418e-04 1.201936159216e-02 0.0 
3.593703024649e-04 1.202646840921e-02 0.0 
4.659970784168e-04 1.203129372088e-02 0.0 
5.681945800472e-04 1.203392456128e-02 0.0 
6.651885249785e-04 1.203251403522e-02 0.0 
7.562564557969e-04 1.202402424253e-02 0.0 
8.405794216838e-04 1.200603988101e-02 0.0 
9.165366566095e-04 1.197522407680e-02 0.0 
9.822403226737e-04 1.192558312550e-02 0.0 
1.036507245325e-03 1.184877888942e-02 0.0 
1.079420853175e-03 1.173408592007e-02 0.0 
1.113059536314e-03 1.156680031885e-02 0.0 
1.142216524618e-03 1.132920020015e-02 0.0 
1.174521580928e-03 1.098933489967e-02 0.0 
1.228093783991e-03 1.050752010391e-02 0.0 
1.328349155370e-03 9.811933318811e-03 0.0 
1.669374799729e-03 9.721212299195e-03 0.0 
1.531596480000e-03 1.013399129659e-02 0.0 
1.412921385097e-03 1.042640081471e-02 0.0 
1.311540478182e-03 1.063349974494e-02 0.0 
1.218562944187e-03 1.077747181363e-02 0.0 
1.128860432378e-03 1.087511885064e-02 0.0 
1.039155878287e-03 1.093930002450e-02 0.0 
9.474907515317e-04 1.097948108985e-02 0.0 
8.531528359763e-04 1.100325242573e-02 0.0 
7.559797661022e-04 1.101611878530e-02 0.0 
6.557136401020e-04 1.102033438080e-02 0.0 
5.527625593171e-04 1.101900663838e-02 0.0 
4.470525438433e-04 1.101416048933e-02 0.0 
3.383922188171e-04 1.100701113234e-02 0.0 
2.268281773161e-04 1.099787803651e-02 0.0 
1.133072200749e-04 1.098891987387e-02 0.0 
4.481579695295e-05 2.823144713187e-04 0.0 
5.799316686843e-05 5.360594976830e-04 0.0 
1.127912132823e-04 8.920991843418e-04 0.0 
2.055019671464e-04 1.409007963035e-03 0.0 
4.089494426210e-04 2.178278223705e-03 0.0 
1.002571313706e-03 3.306563834211e-03 0.0 
1.812659025048e-03 5.598907195536e-03 0.0 
1.370788351865e-03 8.110167226463e-03 0.0 
1.749771019695e-03 9.034675343337e-03 0.0 
1.913017188430e-03 9.069929128051e-03 0.0 
1.731541804382e-04 5.331976573473e-04 0.0 
2.299887893014e-04 4.143120343431e-05 0.0 
2.499033658013e-04 -4.134440335797e-04 0.0 
2.109688242344e-04 -2.694095251593e-04 0.0 
1.244591641285e-04 1.396384131136e-05 0.0 
4.684716467701e-04 1.425666512512e-03 0.0 
4.213943630874e-05 -1.783195798949e-04 0.0 
3.549995419926e-04 9.262312943580e-05 0.0 
1.573407395837e-03 3.436308250041e-03 0.0 
4.873807979052e-04 1.835137042007e-04 0.0 
2.133996558518e-03 7.176946632911e-03 0.0 
6.349714440562e-05 5.433228615836e-06 0.0 
1.882364828879e-04 -4.137159730143e-04 0.0 
6.049691525394e-04 3.467654214493e-04 0.0 
2.205072818865e-03 8.099986423036e-03 0.0 
3.607909469395e-05 -2.891984365383e-04 0.0 
4.088241110751e-05 -9.677718539029e-05 0.0 
6.318090448663e-04 5.156815169317e-04 0.0 
4.822576402129e-04 6.624467669484e-04 0.0 
1.319744532874e-04 8.035727879333e-04 0.0 
2.528951060070e-04 8.514915542588e-04 0.0 
3.447799800274e-04 7.230682113545e-04 0.0 
1.798776355330e-03 8.502606968662e-03 0.0 
1.156628200672e-03 9.007226506547e-03 0.0 
7.660389035726e-04 9.052780647691e-03 0.0 
7.963172148128e-05 5.380086494786e-03 0.0 
3.719820819555e-05 2.676541956459e-06 0.0 
1.286152157448e-04 -1.165260702005e-05 0.0 
1.110115769178e-04 -4.005507817489e-04 0.0 
2.681238784412e-05 -2.472076456978e-05 0.0 
3.967993601293e-04 9.111434061966e-03 0.0 
3.366318306450e-05 -3.529192326272e-04 0.0 
6.387746501027e-04 6.800062814437e-04 0.0 
3.901115292313e-04 1.214453754945e-04 0.0 
5.486479837575e-04 2.527002377015e-04 0.0 
3.084910634679e-04 6.781678574719e-05 0.0 
1.724292109334e-04 2.545184002352e-05 0.0 
2.449962926603e-04 -3.596088051706e-04 0.0 
1.447148260115e-03 8.905106627759e-03 0.0 
1.069491261810e-04 9.595353870252e-06 0.0 
6.274998996199e-05 3.432683124737e-03 0.0 
2.283312894877e-04 -4.194081893682e-04 0.0 
4.079824763427e-05 -2.374804354665e-04 0.0 
6.549464181998e-05 6.551404054337e-04 0.0 
8.428718426479e-04 2.140858771036e-03 0.0 
2.782003177479e-04 8.972858951805e-04 0.0 
1.863787437606e-03 5.199299280795e-03 0.0 
2.249969850595e-03 8.039086184935e-03 0.0 
1.003002038952e-04 2.634752243629e-04 0.0 
9.282582548907e-05 7.303434793887e-03 0.0 
1.655759440191e-05 1.421768715906e-06 0.0 
4.991068533884e-05 -3.949286987567e-04 0.0 
3.528640779469e-05 1.500646151325e-03 0.0 
2.170942041062e-03 7.877049810965e-03 0.0 
2.397578175529e-03 7.139226982845e-03 0.0 
2.237264984556e-03 7.104053101547e-03 0.0 
2.467196099410e-03 6.252681294314e-03 0.0 
2.310469930291e-03 6.071286116861e-03 0.0 
2.461754061870e-03 5.362603418101e-03 0.0 
2.633048025396e-03 5.458313074070e-03 0.0 
2.568062368127e-03 4.651528958128e-03 0.0 
2.738729254730e-03 4.684585358012e-03 0.0 
2.267192608139e-03 5.161577862275e-03 0.0 
2.618457771151e-03 3.962216508929e-03 0.0 
2.779591410476e-03 3.946945014138e-03 0.0 
2.610909357685e-03 3.315339340890e-03 0.0 
2.757048932980e-03 3.270133893293e-03 0.0 
2.893439609732e-03 3.828999655565e-03 0.0 
2.851388351700e-03 3.137685666366e-03 0.0 
2.948400108678e-03 3.609350122624e-03 0.0 
2.884904460552e-03 2.923227362604e-03 0.0 
2.757191150341e-03 2.539152514626e-03 0.0 
2.776135700436e-03 2.346473861088e-03 0.0 
2.854568868783e-03 2.646460597944e-03 0.0 
2.736640896875e-03 2.108224569863e-03 0.0 
2.762888619183e-03 2.330532929566e-03 0.0 
2.644107272415e-03 1.842509861724e-03 0.0 
2.618899235594e-03 1.996764592254e-03 0.0 
2.508103291922e-03 1.567806903357e-03 0.0 
2.504464858343e-03 1.447394699750e-03 0.0 
2.379886602235e-03 1.222113682557e-03 0.0 
2.341039182409e-03 1.299679729615e-03 0.0 
2.228329643908e-03 1.002005054521e-03 0.0 
2.154606325781e-03 1.047963076538e-03 0.0 
2.059740335474e-03 7.951323088893e-04 0.0 
2.103127941864e-03 7.647627464351e-04 0.0 
1.952597151838e-03 5.949603850576e-04 0.0 
1.882379999740e-03 6.064343223688e-04 0.0 
1.794153492822e-03 4.398692174950e-04 0.0 
1.703653526945e-03 4.386219326992e-04 0.0 
1.634051579245e-03 3.014951513468e-04 0.0 
1.529476234549e-03 2.924396079377e-04 0.0 
1.476279236540e-03 1.797159382996e-04 0.0 
1.553583630760e-03 1.954523429374e-04 0.0 
1.411429999926e-03 9.341014343857e-05 0.0 
1.324793876654e-03 7.442502051412e-05 0.0 
1.274019734727e-03 4.830727813849e-06 0.0 
1.336345629837e-03 2.939925151868e-05 0.0 
1.212412771679e-03 -4.555320550254e-05 0.0 
1.252998088674e-03 -1.634134722940e-05 0.0 
1.142127043797e-03 -8.018096217267e-05 0.0 
1.094765504751e-03 -1.098670289806e-04 0.0 
1.035551852832e-03 -1.353649715397e-04 0.0 
1.065414227907e-03 -1.019868606814e-04 0.0 
9.692289388074e-04 -1.499572505204e-04 0.0 
9.334774476632e-04 -1.831804140577e-04 0.0 
8.770481869931e-04 -1.911848025944e-04 0.0 
8.985603394920e-04 -1.555223039404e-04 0.0 
8.151472588504e-04 -1.917747826508e-04 0.0 
7.892129778237e-04 -2.265507764463e-04 0.0 
7.352138744119e-04 -2.228371709561e-04 0.0 
7.503228041000e-04 -1.861781968883e-04 0.0 
6.773947574929e-04 -2.142338945787e-04 0.0 
6.588021658611e-04 -2.494522057551e-04 0.0 
6.075945657808e-04 -2.380378578180e-04 0.0 
6.175293508019e-04 -2.017620041892e-04 0.0 
5.535949832867e-04 -2.237453652476e-04 0.0 
5.561990971377e-04 -1.870144959672e-04 0.0 
5.399842499271e-04 -2.587085959844e-04 0.0 
4.917139095260e-04 -2.427436799871e-04 0.0 
4.757075407718e-04 -2.763974867536e-04 0.0 
4.323573995910e-04 -2.591272814301e-04 0.0 
1.967955951877e-03 5.770885542118e-04 0.0 
4.158977471869e-04 -2.909941048213e-04 0.0 
4.531753390286e-04 -3.068617360293e-04 0.0 
3.760633935502e-04 -2.731896241898e-04 0.0 
3.866332056773e-04 -2.408028870762e-04 0.0 
3.597947261176e-04 -3.032056256182e-04 0.0 
3.228292725793e-04 -2.852823343260e-04 0.0 
3.075422748499e-04 -3.134538446889e-04 0.0 
1.562022530957e-03 4.356852396470e-04 0.0 
2.621885964328e-03 2.033676810583e-03 0.0 
2.728212283737e-04 -2.958257231873e-04 0.0 
2.591571143286e-04 -3.221475569239e-04 0.0 
2.892193844171e-04 -3.387020082907e-04 0.0 
2.435963915291e-04 -3.455663316522e-04 0.0 
2.124515300782e-03 5.823459592730e-03 0.0 
2.054654991111e-03 4.888613872110e-03 0.0 
1.928647396806e-03 5.509163347733e-03 0.0 
1.828051068818e-03 4.560062229520e-03 0.0 
1.720677933166e-03 5.134184805445e-03 0.0 
2.145216764655e-04 -3.297462413274e-04 0.0 
2.418824161933e-03 3.246247895856e-03 0.0 
1.904639020802e-03 3.976132559924e-03 0.0 
2.854072482396e-03 2.930875958239e-03 0.0 
2.234809920441e-03 1.364743086649e-03 0.0 
1.365457444627e-03 5.610203507775e-05 0.0 
2.834072929301e-04 -2.669431873511e-04 0.0 
2.355898405684e-04 -2.781001062328e-04 0.0 
2.421277335395e-04 -2.487428292373e-04 0.0 
6.147294305297e-04 -1.640286911332e-04 0.0 
5.465783797131e-04 -1.497731791445e-04 0.0 
5.974730860581e-04 -1.263093083861e-04 0.0 
5.237730114682e-04 -1.132950568485e-04 0.0 
5.648371511968e-04 -9.012849456619e-05 0.0 
4.872754498802e-04 -7.899421324909e-05 0.0 
4.528661284799e-04 -9.987295549087e-05 0.0 
4.141386276332e-04 -6.771175209112e-05 0.0 
3.854531860579e-04 -8.656303172363e-05 0.0 
5.164958806239e-04 -5.707404033380e-05 0.0 
6.013532193670e-04 -6.540555167046e-05 0.0 
3.459681945891e-04 -5.674653508930e-05 0.0 
3.220947975273e-04 -7.378823680995e-05 0.0 
2.831818912470e-04 -4.649182985567e-05 0.0 
2.632869789304e-04 -6.183396448043e-05 0.0 
2.932940584526e-04 -9.052437819718e-05 0.0 
2.380293674083e-04 -7.723193946239e-05 0.0 
2.606201383630e-04 -1.068464492392e-04 0.0 
1.261700185833e-03 1.409382446915e-05 0.0 
1.357802878881e-03 8.247780318281e-05 0.0 
1.235660753641e-03 4.348464883267e-05 0.0 
1.310191860464e-03 1.057188236369e-04 0.0 
1.172803552987e-03 6.934067023860e-05 0.0 
1.221173082539e-03 1.232290368294e-04 0.0 
1.071976824080e-03 8.925471861840e-05 0.0 
1.038056153997e-03 4.432895874749e-05 0.0 
2.547272580614e-03 2.715013480302e-03 0.0 
1.182792997500e-03 -1.550473307638e-05 0.0 
1.208498204474e-03 6.025330473819e-05 0.0 
1.067906696418e-03 -2.969905988662e-05 0.0 
1.068908626413e-03 5.252400440976e-05 0.0 
9.354415254961e-04 -3.662531242070e-05 0.0 
9.131391466614e-04 5.287716212261e-05 0.0 
7.914650646702e-04 -3.532126293885e-05 0.0 
8.176943381455e-04 -1.115796603424e-04 0.0 
6.860299219875e-04 -1.098185531519e-04 0.0 
7.138288180321e-04 -1.748161030569e-04 0.0 
5.950280815163e-04 -1.731823347405e-04 0.0 
6.222684769118e-04 -2.281323879012e-04 0.0 
2.349081896885e-03 1.129405738559e-03 0.0 
1.374150702938e-03 1.710593140937e-04 0.0 
1.254096000822e-03 1.769674526908e-04 0.0 
1.422362683511e-03 2.370892901259e-04 0.0 
2.692598301372e-04 -3.607393786542e-04 0.0 
2.093384698990e-04 -5.081918639571e-05 0.0 
5.388245786127e-04 -3.451873430890e-05 0.0 
6.317994555678e-04 -3.976525453422e-05 0.0 
9.285351517876e-04 6.508884363066e-05 0.0 
2.020152492196e-04 -3.514369088990e-04 0.0 
7.492095775076e-04 6.221024002146e-05 0.0 
8.719213850134e-04 1.660694606802e-04 0.0 
1.594568497120e-03 4.173584782972e-03 0.0 
1.507542047388e-03 4.713087592643e-03 0.0 
5.522676887140e-04 -1.191813622760e-05 0.0 
1.734084440887e-04 -3.366783624024e-04 0.0 
3.635893461548e-04 -3.967972822654e-05 0.0 
5.530371788752e-04 -1.001372900822e-04 0.0 
1.868420867142e-04 -6.495455687576e-05 0.0 
1.604892353773e-04 -4.078712389558e-05 0.0 
4.146941939676e-04 -1.194513483405e-04 0.0 
1.266690974975e-03 2.282087801406e-04 0.0 
1.452454221823e-03 3.009706454244e-04 0.0 
7.277326049089e-04 -2.224027685346e-04 0.0 
6.366294848486e-04 -2.675342013665e-04 0.0 
5.420042284561e-04 -2.730616683507e-04 0.0 
5.584573032055e-04 -3.061499428856e-04 0.0 
6.396223058650e-04 -2.935847308702e-04 0.0 
5.604783870589e-04 -3.248819763456e-04 0.0 
4.878028627192e-04 -3.366542736433e-04 0.0 
4.903289917003e-04 -3.504356295012e-04 0.0 
5.538442792335e-04 -3.340033701012e-04 0.0 
4.848844587550e-04 -3.550499008402e-04 0.0 
4.285505055258e-04 -3.703886441723e-04 0.0 
4.236997636617e-04 -3.714572195553e-04 0.0 
1.749340141848e-04 -2.864661648052e-05 0.0 
4.770969509879e-04 -1.644745704762e-04 0.0 
2.951602339937e-03 4.404672761121e-03 0.0 
4.589598437252e-04 -9.510701208887e-06 0.0 
9.357209912702e-04 1.009494858682e-04 0.0 
1.358854395153e-03 3.745131878947e-03 0.0 
1.292882027207e-03 4.256537481249e-03 0.0 
1.400002414475e-03 5.249549538174e-03 0.0 
1.206841561447e-03 4.764886318226e-03 0.0 
1.081121666961e-03 3.773413856914e-03 0.0 
1.016456469445e-03 4.261699215817e-03 0.0 
1.107684008299e-03 5.267140121278e-03 0.0 
9.371530564034e-04 4.745785701826e-03 0.0 
1.000844375235e-03 5.760127814999e-03 0.0 
8.480957934904e-04 5.223710706065e-03 0.0 
7.719635361534e-04 4.214147288133e-03 0.0 
6.996460210145e-04 4.681681939399e-03 0.0 
7.531725469109e-04 5.695991476733e-03 0.0 
6.191119417621e-04 5.145525946752e-03 0.0 
6.551007029269e-04 6.162176006674e-03 0.0 
5.328562021661e-04 5.605623280470e-03 0.0 
4.915145605606e-04 4.594059441709e-03 0.0 
1.652372222424e-04 -3.562236098281e-04 0.0 
9.079647540053e-04 2.783543384068e-05 0.0 
7.923538455977e-04 4.843730580378e-05 0.0 
1.978602189214e-04 -2.608297122486e-04 0.0 
2.011581926373e-04 -2.310894872401e-04 0.0 
2.451259045872e-04 -2.176521633865e-04 0.0 
1.996046832178e-04 -2.001344076178e-04 0.0 
4.144749797458e-04 5.053994457635e-03 0.0 
3.733661842260e-04 4.044699205650e-03 0.0 
6.904203005871e-04 1.835075484240e-04 0.0 
8.110340813008e-04 3.061225755417e-04 0.0 
1.397475806041e-03 3.235351859076e-03 0.0 
1.399952353638e-04 -5.382194182735e-05 0.0 
1.596128584908e-04 -7.946287829893e-05 0.0 
2.020664585603e-03 1.084820221334e-03 0.0 
2.064272697299e-03 1.415191364638e-03 0.0 
1.831989680916e-03 1.113930703186e-03 0.0 
1.830861630028e-03 1.451329019603e-03 0.0 
2.085714561355e-03 1.823460656958e-03 0.0 
1.585217558689e-03 1.131823285352e-03 0.0 
6.913901435405e-04 -7.321888448354e-05 0.0 
6.157590739659e-04 3.677818749781e-03 0.0 
3.156721498297e-04 -3.542180676188e-04 0.0 
2.907243662165e-04 -3.745671309310e-04 0.0 
1.169247648879e-04 -3.198255563577e-05 0.0 
9.921500029102e-04 8.831488556757e-08 0.0 
2.427834212181e-03 1.310356041108e-03 0.0 
2.247915592972e-03 1.020979142625e-03 0.0 
2.278002074857e-03 1.156815604354e-03 0.0 
2.075840529856e-03 8.974106833753e-04 0.0 
2.054021835538e-03 9.873172491257e-04 0.0 
1.832508023792e-03 7.600160979383e-04 0.0 
1.864913978202e-03 6.905851549793e-04 0.0 
1.252720111196e-03 2.729904140351e-04 0.0 
1.604717473946e-03 5.781278620089e-04 0.0 
4.498724193707e-04 6.071964316258e-03 0.0 
1.528780293896e-03 2.355836658312e-04 0.0 
5.388860134800e-04 -3.347664913759e-04 0.0 
1.912544279646e-04 -3.695733505255e-04 0.0 
3.735453297453e-04 -3.860776885083e-04 0.0 
1.357651165728e-04 -3.430439146863e-04 0.0 
1.420686723830e-04 -3.219294199616e-04 0.0 
4.538910268370e-04 8.591823954621e-06 0.0 
1.755129563439e-03 8.025405146697e-04 0.0 
1.984930395535e-03 1.048276085338e-03 0.0 
1.813530255746e-03 1.875300066715e-03 0.0 
2.083612614755e-03 2.331410504273e-03 0.0 
1.060339232583e-03 2.064356812583e-04 0.0 
1.775357456084e-03 6.125951442469e-03 0.0 
1.154148525637e-03 6.286633482937e-03 0.0 
1.027207261374e-03 6.783891685958e-03 0.0 
1.333204362041e-04 -3.636084237335e-04 0.0 
3.738942309288e-04 -3.805196922913e-04 0.0 
8.774155775233e-04 3.272962617177e-03 0.0 
1.012825116124e-03 2.906986404078e-04 0.0 
9.546802739407e-04 4.529346265452e-04 0.0 
4.244372920423e-04 -8.403989903194e-05 0.0 
3.642763307099e-04 -1.501099726279e-04 0.0 
3.101609109527e-04 4.489336103336e-03 0.0 
2.695971647110e-04 3.496253882790e-03 0.0 
2.433364706245e-04 -1.855820493776e-04 0.0 
1.955225798618e-04 -1.685705512628e-04 0.0 
5.545193736144e-04 9.958283061833e-06 0.0 
3.698766406914e-04 -3.839863879636e-04 0.0 
3.130244087004e-04 3.048447936241e-03 0.0 
8.746408022322e-04 -9.654772321369e-06 0.0 
9.374477630537e-04 -4.221639505271e-05 0.0 
1.558931993012e-04 -2.143240938411e-04 0.0 
6.124399672785e-04 3.301504116122e-04 0.0 
5.160767917436e-04 2.087093313757e-04 0.0 
6.133331130895e-04 -3.123458148213e-04 0.0 
4.115997810104e-04 -3.663927693891e-04 0.0 
1.045902365395e-04 -3.299379418373e-04 0.0 
4.346356918120e-04 2.408412560087e-05 0.0 
9.008152343323e-04 2.802016973169e-03 0.0 
1.652256577724e-03 5.301649394891e-04 0.0 
1.860584736898e-03 6.068454131974e-04 0.0 
1.376562748763e-03 4.361310822990e-04 0.0 
3.292923294542e-04 -3.972217128290e-04 0.0 
3.625921279646e-04 7.947584319437e-06 0.0 
9.775259794131e-05 -4.376142804177e-05 0.0 
1.646540865243e-03 8.269934260130e-04 0.0 
1.866068101724e-03 1.074203397758e-03 0.0 
1.174620339991e-03 4.401784198372e-04 0.0 
1.130480057321e-03 6.341242040413e-04 0.0 
8.772583463731e-04 6.512104373685e-04 0.0 
1.060525506941e-03 8.687851969721e-04 0.0 
2.775593365153e-03 5.449125981379e-03 0.0 
1.364011932614e-03 6.221474534620e-04 0.0 
2.967980350382e-03 4.085905151079e-03 0.0 
2.927660471917e-03 4.998329529397e-03 0.0 
2.900766038340e-03 4.567075651258e-03 0.0 
2.331174314400e-03 2.237314429717e-03 0.0 
2.344901185596e-03 2.849279560816e-03 0.0 
1.217641119824e-03 1.592797081341e-04 0.0 
1.477539747925e-03 1.376509254620e-04 0.0 
2.914864389664e-04 -2.034611575271e-04 0.0 
3.159172160358e-04 -1.219370040406e-04 0.0 
6.730976430471e-04 -1.381195941652e-04 0.0 
6.591874198151e-04 3.217900105733e-03 0.0 
4.999048978517e-04 2.688153543430e-03 0.0 
7.797514650188e-04 6.717106630290e-03 0.0 
6.701218354699e-04 7.183737250241e-03 0.0 
2.493263589849e-04 -3.794856664391e-04 0.0 
2.670309727165e-04 -3.914047738681e-04 0.0 
4.945693815227e-04 -1.709603341631e-04 0.0 
3.738125746943e-04 -6.399247776577e-06 0.0 
1.143386945282e-03 2.799972949877e-03 0.0 
1.127320990784e-03 2.322974983418e-03 0.0 
1.401392861254e-03 2.732043306043e-03 0.0 
5.426016944242e-04 3.011524469149e-05 0.0 
1.052339909172e-03 -9.127623748518e-05 0.0 
1.154593772441e-03 -1.433978390863e-05 0.0 
4.126290009081e-04 -2.186573232147e-04 0.0 
2.085860099778e-03 7.247236112949e-04 0.0 
2.312629828445e-04 -3.949154193765e-04 0.0 
2.555736769711e-03 2.150972795202e-03 0.0 
7.899445464004e-05 -2.418334560760e-05 0.0 
9.085253670266e-05 -1.487770070337e-05 0.0 
1.002370734771e-03 2.305119195971e-04 0.0 
2.491717452565e-03 7.191069115488e-03 0.0 
1.925982439390e-03 5.510815433136e-04 0.0 
1.825632714958e-03 4.305448068572e-04 0.0 
2.806706592383e-03 5.607394199650e-03 0.0 
2.733810622485e-03 5.043266625606e-03 0.0 
2.789477666920e-03 4.032115920531e-03 0.0 
2.567833191046e-03 4.362681721213e-03 0.0 
5.877775640551e-04 -3.098271743571e-04 0.0 
5.165629226800e-04 -3.292820745182e-04 0.0 
1.369315693015e-03 6.002294252681e-04 0.0 
1.285220651279e-03 4.521724441233e-04 0.0 
1.478593613449e-03 8.040280864200e-04 0.0 
1.691623568857e-03 1.048813187307e-03 0.0 
8.061573461592e-04 1.694576642570e-04 0.0 
8.769149061059e-04 1.548782068675e-04 0.0 
1.083291514090e-04 -3.077415101722e-04 0.0 
2.057069219402e-03 2.965468539347e-03 0.0 
6.887146117400e-04 2.303403960075e-03 0.0 
2.797372353749e-03 6.003173041878e-03 0.0 
2.832576970053e-04 7.861465777673e-06 0.0 
2.974703399152e-04 -3.901089438825e-06 0.0 
3.134193851203e-04 -2.062927741538e-04 0.0 
3.581539708106e-04 -2.717774125961e-04 0.0 
2.143804849694e-04 2.528871571204e-03 0.0 
7.812552859811e-04 8.863552667610e-04 0.0 
9.625814688733e-04 1.143080724323e-03 0.0 
6.363557255617e-04 6.743963619587e-04 0.0 
1.154139090204e-05 -6.257185529178e-07 0.0 
1.711844181659e-04 9.109887887324e-03 0.0 
5.818360314337e-05 -9.589045955082e-06 0.0 
2.571339394956e-03 2.711962367272e-03 0.0 
2.341297478082e-04 2.049165307299e-03 0.0 
1.764138638421e-03 4.181969905596e-04 0.0 
1.800727076969e-03 8.352408724850e-04 0.0 
6.644086940429e-04 1.359186961050e-05 0.0 
1.726804897990e-04 3.053190245568e-03 0.0 
1.293475061944e-04 1.971930870573e-03 0.0 
1.157867669186e-03 7.297741949552e-03 0.0 
1.022379529979e-03 7.811768923830e-03 0.0 
1.304333038813e-03 6.797089799067e-03 0.0 
4.988765941541e-04 -7.198994536780e-06 0.0 
3.448270762764e-04 2.941388526639e-05 0.0 
4.720698692411e-04 3.139609939865e-03 0.0 
1.906463778200e-04 -2.884751438902e-04 0.0 
1.509319036395e-04 -2.690077857455e-04 0.0 
3.569174285525e-04 -3.773193221251e-04 0.0 
3.921810729095e-04 -3.569969599106e-04 0.0 
2.874458947766e-04 -1.705539054273e-04 0.0 
3.388788537687e-04 -1.883550680337e-04 0.0 
2.392098389177e-03 1.710355481145e-03 0.0 
2.279917528083e-03 1.763311323837e-03 0.0 
2.466978980981e-03 1.479735172845e-03 0.0 
8.316588150937e-04 -4.581469854775e-05 0.0 
8.768645659988e-04 -8.154151414209e-05 0.0 
9.737987517159e-04 -7.759568089377e-05 0.0 
5.145361903105e-04 2.269204106139e-03 0.0 
3.442193247697e-04 1.667939153586e-03 0.0 
6.652821808622e-04 -2.862167617367e-04 0.0 
6.950371772665e-04 -2.848321642813e-04 0.0 
5.551290933606e-04 -3.025030996049e-04 0.0 
6.692054485899e-04 1.869744619036e-03 0.0 
6.387554716558e-05 -3.648830144345e-06 0.0 
9.643927900626e-05 -7.026704993054e-06 0.0 
2.461343124807e-04 -4.043262680107e-04 0.0 
2.805505187758e-04 -4.001570814584e-04 0.0 
4.312853877082e-04 3.588669634977e-04 0.0 
3.555136328247e-04 2.386292014434e-04 0.0 
1.086360142723e-03 1.891986830059e-03 0.0 
1.367311147013e-03 2.250995784305e-03 0.0 
7.839105535065e-04 1.441204582300e-03 0.0 
7.047759172972e-05 -3.185772931588e-04 0.0 
1.663527616992e-03 4.688222516486e-04 0.0 
4.105977260090e-04 3.775576132555e-05 0.0 
5.270676606177e-04 4.751611196653e-05 0.0 
2.899101337271e-04 2.848273787219e-05 0.0 
1.215341806237e-03 3.090346426730e-04 0.0 
9.186535529251e-04 2.406748686323e-04 0.0 
1.033699566594e-03 3.284604411040e-04 0.0 
2.607629448706e-04 -1.338720256048e-04 0.0 
9.628134630098e-05 2.375096125363e-03 0.0 
7.837653362244e-04 7.742533737574e-03 0.0 
2.338120051363e-04 -1.841562473270e-04 0.0 
6.666131348905e-04 8.244545499472e-03 0.0 
5.650568769712e-04 7.652027235069e-03 0.0 
5.697246451039e-04 8.736346350443e-03 0.0 
6.978840381207e-05 -3.381445653488e-04 0.0 
1.282057420740e-03 7.981308303331e-03 0.0 
1.456359376125e-03 7.323322967204e-03 0.0 
2.525054119334e-04 -4.125162428223e-04 0.0 
4.541968622983e-04 1.385010316261e-03 0.0 
2.186738533100e-04 -4.064026761922e-04 0.0 
2.027608261092e-04 -3.975139415818e-04 0.0 
2.119309818958e-04 6.858789369232e-06 0.0 
2.297619269914e-04 -1.311367292506e-06 0.0 
1.509847439139e-04 6.979751601727e-06 0.0 
1.748919672010e-04 1.034779879184e-06 0.0 
2.383952869678e-04 -1.177641099856e-05 0.0 
1.820156352871e-04 -7.494117951315e-06 0.0 
8.988256179466e-04 8.384431701297e-03 0.0 
1.173211179459e-04 3.321359310847e-06 0.0 
1.323796022996e-04 -3.646173810438e-06 0.0 
7.602892147735e-05 2.760789123816e-06 0.0 
2.445022816726e-03 5.585089206238e-03 0.0 
1.262425812789e-03 1.129348209696e-03 0.0 
1.180216966540e-03 1.467868015985e-03 0.0 
8.295504037207e-04 1.480103898294e-03 0.0 
1.156112612450e-03 6.647973998850e-04 0.0 
1.488725321782e-03 9.906801415891e-04 0.0 
6.021864554957e-05 -3.445968753179e-05 0.0 
7.011057517757e-05 -5.593195853165e-05 0.0 
4.604796406220e-04 8.192029591956e-03 0.0 
3.360793677338e-04 8.228984340945e-03 0.0 
3.737358855988e-04 7.299129227009e-03 0.0 
2.687142946499e-04 7.406882229674e-03 0.0 
2.952273613390e-04 6.495849056237e-03 0.0 
1.892859039241e-04 6.608698387521e-03 0.0 
2.282241600893e-04 5.699523175056e-03 0.0 
8.945676392576e-04 3.177710460626e-04 0.0 
5.133305261413e-04 8.896960728220e-04 0.0 
2.594741063172e-03 6.777553798861e-03 0.0 
6.209193836695e-04 1.221429230521e-04 0.0 
7.258045424914e-04 1.199213923214e-04 0.0 
2.320437564005e-03 3.605546197434e-03 0.0 
1.983596439058e-03 3.747700069523e-03 0.0 
2.368323478559e-04 1.649936369576e-05 0.0 
1.378077221721e-03 4.347835076448e-04 0.0 
3.468558059872e-04 8.589620126241e-04 0.0 
9.921615862799e-05 9.318195360422e-05 0.0 
2.078427116268e-04 3.383981411154e-05 0.0 
1.573935390428e-03 6.158759883055e-04 0.0 
2.596276619412e-03 3.439926941153e-03 0.0 
1.522706144191e-03 1.464069673791e-03 0.0 
1.500463605348e-03 1.913061414903e-03 0.0 
7.619465025360e-04 -1.353829667849e-05 0.0 
2.881576955825e-04 -4.056707223958e-04 0.0 
5.228603635523e-04 5.010613718649e-04 0.0 
3.343992837534e-04 5.601326662992e-03 0.0 
3.333718104076e-04 5.187659063152e-04 0.0 
3.174601984726e-05 -4.373438259527e-05 0.0 
1.381365446237e-03 2.855541541303e-04 0.0 
2.514334014286e-03 2.129222076577e-03 0.0 
7.318162695265e-04 4.738911407525e-04 0.0 
1.351954330997e-03 8.631690526676e-04 0.0 
2.871653051586e-03 4.605183936594e-03 0.0 
2.611539978656e-03 6.308974587948e-03 0.0 
2.718396033807e-03 6.262489277032e-03 0.0 
1.362216894385e-03 1.671239104552e-04 0.0 
1.796195449748e-03 2.406063426910e-03 0.0 
1.454361635165e-03 2.457854096258e-03 0.0 
2.936261302585e-03 3.299271313157e-03 0.0 
1.675134572867e-03 3.097469515485e-03 0.0 
1.652910653861e-03 2.580329557511e-03 0.0 
1.297810696786e-03 1.814166226656e-03 0.0 
1.585262875587e-03 2.100181976239e-03 0.0 
1.929288284477e-03 2.859006877753e-03 0.0 
1.868316090838e-03 2.345832580233e-03 0.0 
1.472417662939e-03 1.666231844917e-03 0.0 
1.759039941054e-03 1.877501953932e-03 0.0 
1.209650189636e-03 1.149114558548e-03 0.0 
1.590573429997e-03 1.448403877695e-03 0.0 
2.022351690229e-03 2.043307321150e-03 0.0 
1.873813385943e-03 1.622731340303e-03 0.0 
1.450252234239e-03 1.149979408856e-03 0.0 
2.262025429890e-03 2.177653787452e-03 0.0 
5.125030265550e-04 1.174168806942e-04 0.0 
1.757065534903e-03 6.132225024334e-04 0.0 
3.036208958863e-04 -6.155142676918e-05 0.0 
2.456271609204e-04 1.240005671168e-04 0.0 
2.709766040380e-03 2.534298557499e-03 0.0 
6.136860050435e-04 5.697428815132e-04 0.0 
5.361989550810e-04 6.487727849779e-04 0.0 
1.050230011432e-03 1.581156369259e-04 0.0 
5.784056783622e-04 2.966051512614e-04 0.0 
2.877148386335e-03 5.304937536099e-03 0.0 
6.425910274052e-04 -2.489480851423e-05 0.0 
5.260951444672e-04 2.191816918109e-04 0.0 
1.940483031803e-03 3.403974547659e-03 0.0 
2.191675024340e-03 3.668452847053e-03 0.0 
2.144813011826e-03 4.273904793885e-03 0.0 
4.243783765559e-04 6.620323592255e-04 0.0 
1.452065974585e-03 6.268336342775e-03 0.0 
3.602058623612e-04 1.026277224508e-04 0.0 
1.448217224480e-03 1.569259750344e-04 0.0 
1.584406073613e-03 2.264347111897e-04 0.0 
1.590717026308e-03 2.117844484607e-04 0.0 
2.132905075579e-03 2.549597712082e-03 0.0 
2.544596465402e-04 4.933430218674e-05 0.0 
4.469606581335e-04 7.370682588547e-05 0.0 
3.994253547217e-04 5.820460783469e-05 0.0 
6.087960782675e-04 7.913567677401e-05 0.0 
2.010087291022e-04 3.339801615760e-05 0.0 
5.829338797335e-04 4.203024859450e-04 0.0 
5.550680369453e-04 3.549841333918e-04 0.0 
6.309510998849e-04 -3.076060155255e-04 0.0 
7.168605652489e-04 -2.751956386263e-04 0.0 
7.843213399589e-04 -2.514450504593e-04 0.0 
8.110067520115e-04 -2.360655604537e-04 0.0 
7.282514674118e-04 -2.550694789220e-04 0.0 
8.262659961331e-04 -2.095032486067e-04 0.0 
9.130052987088e-04 -1.898594908837e-04 0.0 
8.285488773259e-04 -1.688512728464e-04 0.0 
1.918235505743e-03 1.374246087278e-03 0.0 
1.526571074886e-04 2.127855353683e-05 0.0 
6.461439633798e-04 -1.006233718753e-04 0.0 
7.301242657059e-04 -1.099216002599e-04 0.0 
7.491744385527e-04 -1.481206303835e-04 0.0 
3.394960318794e-04 -2.219863067744e-04 0.0 
3.904364742565e-04 -2.067267163435e-04 0.0 
3.864569403859e-04 -1.719229824096e-04 0.0 
2.899510519886e-04 -2.359581398329e-04 0.0 
2.057743455327e-03 7.901122329976e-04 0.0 
1.346231885487e-04 1.665607093007e-05 0.0 
1.045997225894e-03 -3.218714511142e-05 0.0 
4.416147348387e-04 -2.251320251984e-04 0.0 
1.616726901585e-03 8.732534476038e-03 0.0 
1.805162474343e-03 7.748934997304e-03 0.0 
1.999431084175e-03 7.499209026820e-03 0.0 
1.956190538490e-03 6.632735369472e-03 0.0 
1.603600182884e-03 7.822008961683e-03 0.0 
2.368134497522e-04 -1.534413832268e-04 0.0 
1.875794708243e-04 -1.373103392810e-04 0.0 
1.483865817634e-04 -1.525868053482e-04 0.0 
1.400909458387e-04 -1.222657448218e-04 0.0 
1.025201139706e-04 -1.376098918133e-04 0.0 
1.088909792128e-04 -1.672533266381e-04 0.0 
9.379734254776e-05 -1.082279038187e-04 0.0 
5.901850504090e-05 -1.268439466332e-04 0.0 
1.295956163947e-03 8.981107867399e-03 0.0 
2.323679786638e-04 -3.209875455912e-04 0.0 
2.902342790077e-04 -3.445953907232e-04 0.0 
2.894186895532e-04 -3.748382249172e-04 0.0 
3.385348524079e-04 -3.606581950835e-04 0.0 
3.493284119432e-04 -3.277707943738e-04 0.0 
4.110350704195e-04 -3.440590614514e-04 0.0 
4.146905599297e-04 -3.074531704458e-04 0.0 
2.856477888652e-04 -3.002805727129e-04 0.0 
2.521316036843e-04 -3.857273808042e-04 0.0 
2.859041858725e-04 -3.945377605629e-04 0.0 
2.536718085268e-04 -4.032395070254e-04 0.0 
2.767909026042e-04 -4.063676663277e-04 0.0 
3.222566516073e-04 -3.965856132492e-04 0.0 
3.088373113498e-04 -3.855170827585e-04 0.0 
3.253331869244e-05 2.171543362950e-06 0.0 
4.185443259105e-05 -2.086074402385e-04 0.0 
8.118171307678e-05 -2.247226561431e-04 0.0 
7.910373231040e-05 -2.519503677506e-04 0.0 
1.231514315192e-04 -2.400725688602e-04 0.0 
7.942951222291e-05 -1.979066157280e-04 0.0 
3.880779540068e-05 -2.644148930608e-04 0.0 
7.509876992128e-05 -2.752001594483e-04 0.0 
8.062957763157e-05 -3.970504142784e-04 0.0 
6.583529915583e-05 -3.834262741078e-04 0.0 
3.027519193343e-05 -3.825958373930e-04 0.0 
5.108704021021e-05 -3.691339537372e-04 0.0 
8.389409029263e-05 -3.725023817289e-04 0.0 
9.745974732836e-05 -3.867300570403e-04 0.0 
1.281442304966e-04 -3.914201660006e-04 0.0 
1.399091765869e-04 -4.049561951888e-04 0.0 
1.563898741472e-04 -3.965336023690e-04 0.0 
1.469411908067e-04 -3.813722320401e-04 0.0 
1.652440751731e-04 -4.095497272242e-04 0.0 
7.507897658537e-05 4.381936957151e-03 0.0 
1.442060893660e-04 3.886995723538e-03 0.0 
1.101041178486e-04 1.098375465574e-05 0.0 
1.012976737100e-03 8.998885128253e-03 0.0 
2.416701543271e-04 -4.182723941992e-04 0.0 
1.237350547549e-04 9.688120479357e-04 0.0 
1.959162124284e-04 7.920562912168e-04 0.0 
1.553373289594e-04 7.718321357423e-04 0.0 
1.933082881280e-05 -9.727516814758e-06 0.0 
3.114582723809e-05 -4.587032633064e-06 0.0 
6.680627913399e-05 9.448992511853e-04 0.0 
3.388220967961e-04 -3.303432420149e-04 0.0 
1.185143518610e-03 1.419067348505e-03 0.0 
3.437005760004e-04 2.599964901424e-03 0.0 
5.875629812168e-04 8.022557863582e-05 0.0 
4.515476089909e-04 -3.448820508746e-04 0.0 
1.125602302751e-04 -6.715695340525e-05 0.0 
3.523231476120e-04 -1.045908134165e-04 0.0 
1.299683610957e-04 -2.118230894706e-05 0.0 
2.084241816842e-04 -9.260164175217e-05 0.0 
2.260831787513e-04 -3.708529768489e-05 0.0 
3.637602632386e-04 4.594746239427e-05 0.0 
1.025500541084e-04 -3.492105356254e-04 0.0 
8.904473474903e-04 6.243110637969e-03 0.0 
5.606188875588e-04 6.627534158737e-03 0.0 
5.588961754710e-04 4.136977392453e-03 0.0 
2.260854322276e-04 -3.052384613155e-04 0.0 
1.550485141305e-04 -1.819815273372e-04 0.0 
2.277323635591e-04 -3.657814858586e-04 0.0 
9.749675255332e-04 4.391693466492e-04 0.0 
2.908239215852e-03 3.681974123200e-03 0.0 
6.829723911881e-04 -1.765930949403e-04 0.0 
3.338337832830e-04 -2.546095693099e-04 0.0 
3.936267646531e-04 -3.197092299516e-04 0.0 
4.717642096641e-04 -3.525726303895e-04 0.0 
1.957471972718e-03 8.177533149772e-04 0.0 
4.983045147033e-04 -2.073067258967e-04 0.0 
4.370979507880e-04 -4.833580310238e-05 0.0 
4.289869768536e-04 3.592266712171e-03 0.0 
2.099834185237e-04 -4.161826507870e-04 0.0 
4.526766092576e-04 -2.866505196144e-05 0.0 
4.796857703176e-04 -1.346936377605e-04 0.0 
1.280263765093e-03 5.775931343591e-03 0.0 
1.090661083795e-03 1.326953018434e-04 0.0 
4.274781197940e-04 -3.618899418902e-04 0.0 
8.330064438258e-04 3.745647839859e-03 0.0 
8.752744566871e-04 1.936312858594e-03 0.0 
1.613700112566e-03 6.730228115366e-03 0.0 
2.123823655800e-04 -3.832870090209e-04 0.0 
9.052093833208e-04 7.283214945082e-03 0.0 
3.371842698991e-04 2.028862203265e-05 0.0 
1.652942011022e-03 3.630627078523e-03 0.0 
1.825672517138e-04 -3.138470738481e-04 0.0 
1.163654170242e-03 -4.733941421895e-05 0.0 
2.437685240379e-03 1.669473906449e-03 0.0 
2.250542018492e-03 8.124355804300e-03 0.0 
3.605178907251e-04 2.190131167486e-03 0.0 
1.836415290085e-03 4.385490448162e-04 0.0 
7.868232142932e-04 7.751029798959e-05 0.0 
1.113158874652e-03 1.701323922545e-05 0.0 
1.486869089903e-04 -2.978149530362e-04 0.0 
3.018290567945e-04 -1.712666098626e-05 0.0 
1.463315082570e-03 1.150218696366e-04 0.0 
6.864736812971e-04 2.765530145072e-03 0.0 
2.263817891546e-03 1.270447752855e-03 0.0 
1.144442410928e-03 -7.089463278366e-05 0.0 
1.125529906098e-03 3.285124225855e-03 0.0 
8.245763093472e-04 -1.544347686003e-04 0.0 
1.088140948219e-03 1.724540727838e-04 0.0 
2.771762205706e-03 3.204845543903e-03 0.0 
2.592473794045e-03 1.668371529643e-03 0.0 
2.680851557632e-03 2.670130592565e-03 0.0 
2.238041222410e-03 9.449230394061e-04 0.0 
7.733681697227e-05 -8.112865724857e-05 0.0 
3.735404059075e-04 -2.279645651460e-05 0.0 
5.169759825635e-04 -2.256417273520e-04 0.0 
1.595752734471e-03 8.491672212412e-04 0.0 
1.591159704871e-03 5.705583590821e-03 0.0 
1.526434505675e-03 6.108633851713e-04 0.0 
4.936864831513e-04 1.798303397923e-03 0.0 
2.294958039286e-03 1.754578744733e-03 0.0 
2.966047780734e-04 -3.144500258754e-05 0.0 
9.031768945584e-04 2.364791007986e-03 0.0 
4.423494884969e-04 -1.898201626526e-04 0.0 
3.310990097833e-05 -3.333883324622e-04 0.0 
4.364989068974e-04 1.058437193497e-04 0.0 
9.415730348435e-04 -1.051784329761e-04 0.0 
1.696757158042e-03 3.108966004390e-04 0.0 
4.336440270676e-04 -1.542431019488e-04 0.0 
9.534304715212e-04 1.371459320036e-03 0.0 
2.361946750059e-04 -2.407058979352e-05 0.0 
6.530250567647e-04 -1.320205628048e-05 0.0 
1.329797461409e-04 3.967284069810e-04 0.0 
2.571550300657e-03 7.051013316971e-03 0.0 
1.825341326118e-04 -1.755068176251e-05 0.0 
1.070145181302e-03 -6.683799341754e-05 0.0 
9.200674120050e-04 1.316968721650e-04 0.0 
6.518225922380e-05 -1.536439760008e-04 0.0 
9.258482474685e-04 3.721830561707e-04 0.0 
2.243088282856e-03 4.600200725899e-03 0.0 
1.356427352567e-04 -1.188476634050e-05 0.0 
7.839043056496e-04 1.779996384678e-05 0.0 
1.206060239352e-03 2.838563633873e-04 0.0 
2.844774140900e-04 9.116765284170e-03 0.0 
8.406233696432e-05 2.800038404563e-07 0.0 
6.604264750280e-04 3.845489752883e-05 0.0 
2.181877304533e-03 8.749961759294e-04 0.0 
9.836984028865e-04 -1.140589983040e-04 0.0 
2.224957834821e-03 7.729695296495e-03 0.0 
3.738308537806e-04 -1.376756750313e-04 0.0 
2.634209827799e-03 1.869790313392e-03 0.0 
3.687888550064e-04 6.690294402857e-04 0.0 
6.523124826775e-04 6.083106973212e-05 0.0 
2.369285354560e-03 4.522424070769e-03 0.0 
3.312658905385e-04 -1.547300596979e-04 0.0 
1.596558398533e-03 3.158468782521e-04 0.0 
1.156723409801e-04 -3.766741302308e-04 0.0 
2.563079708090e-03 6.292751196037e-03 0.0 
2.772003116241e-04 -1.380411937459e-04 0.0 
9.335687394894e-04 -1.553598924370e-04 0.0 
8.993493229897e-04 -1.183700204133e-04 0.0 
7.180717567833e-04 1.724013324424e-04 0.0 
2.252202744437e-04 -1.222001128507e-04 0.0 
1.024105047496e-03 -1.353052238096e-04 0.0 
1.755650574778e-04 -1.073985499770e-04 0.0 
2.013433131765e-03 6.221292429402e-03 0.0 
2.419192977236e-03 3.856559727926e-03 0.0 
1.268577435357e-04 -9.365566728128e-05 0.0 
2.455383114690e-03 1.614663160175e-03 0.0 
1.780907448255e-04 -3.866385689121e-04 0.0 
2.005917221605e-03 6.727777417368e-04 0.0 
4.587024993137e-05 -1.659398322897e-05 0.0 
5.168915980960e-04 -2.911429434279e-04 0.0 
8.149739636093e-04 -1.166497034500e-04 0.0 
2.187496610275e-03 3.087958529832e-03 0.0 
1.795650208719e-03 4.187512471893e-03 0.0 
7.840107600778e-04 -7.919904124042e-05 0.0 
2.201004624884e-03 1.349532517830e-03 0.0 
1.827121354332e-03 5.164059292182e-04 0.0 
1.713369557410e-03 3.178661998056e-04 0.0 
7.301035771863e-04 -4.398905312685e-05 0.0 
1.776089811422e-03 3.084477841457e-03 0.0 
3.651368485048e-04 -3.457054155737e-04 0.0 
3.381078021310e-04 -3.672276281779e-04 0.0 
9.838196292846e-04 -1.649859172702e-04 0.0 
2.085049343112e-03 1.386522868157e-03 0.0 
7.396235238115e-05 -3.575665940100e-04 0.0 
2.362089689090e-03 2.674070193737e-03 0.0 
3.215670385303e-04 -3.934019593764e-04 0.0 
8.805625881959e-04 -2.117416620971e-04 0.0 
1.450777694361e-03 3.582587874933e-04 0.0 
8.628737104704e-05 6.352410574784e-03 0.0 
8.386683924624e-04 -2.232396744895e-04 0.0 
3.362219420651e-05 -3.122713652527e-04 0.0 
7.491094268080e-04 -2.575205949043e-04 0.0 
1.680284025579e-03 3.200900278220e-04 0.0 
7.070317097166e-04 -2.560770229366e-04 0.0 
6.286329423282e-04 -2.813791842150e-04 0.0 
2.422846344210e-04 1.665225901750e-03 0.0 
5.865191678458e-04 -2.717073314496e-04 0.0 
3.336041849941e-05 7.817534009400e-04 0.0 
1.327720355633e-05 1.854167619134e-06 0.0 
1.081522126602e-04 8.343473159080e-03 0.0 
1.081913367067e-03 2.772811271806e-03 0.0 
1.592176576333e-04 -1.153376501887e-04 0.0 
1.157505531118e-03 1.859162556243e-03 0.0 
4.875976966043e-04 -3.198086424918e-04 0.0 
2.436396590123e-03 2.202738773653e-03 0.0 
2.251692853247e-04 8.301212653545e-03 0.0 
4.242084066162e-04 -3.339381996021e-04 0.0 
1.100443078274e-03 8.950669438226e-04 0.0 
4.249992314787e-04 1.447935862376e-04 0.0 
1.600203669432e-04 4.823903510839e-03 0.0 
7.731111830428e-04 1.026848271914e-04 0.0 
1.640609446964e-03 3.946326234900e-04 0.0 
4.772576291057e-05 2.473669658411e-03 0.0 
6.543580946652e-04 9.209037817098e-03 0.0 
2.646872203358e-04 -4.123616732041e-04 0.0 
3.674873552394e-05 -6.730646258339e-05 0.0 
5.561825628058e-04 1.775090944074e-03 0.0 
6.374101817872e-04 1.137216097040e-03 0.0 
4.056190310634e-04 6.849798561528e-04 0.0 
1.122046463561e-04 -2.848863792216e-04 0.0 
3.277313005350e-04 -3.830604884963e-04 0.0 
3.622731124856e-04 1.132902163726e-03 0.0 
5.066054795859e-04 9.247370771671e-05 0.0 
1.127553460304e-03 8.239717200409e-03 0.0 
1.447209445480e-03 4.110707098596e-04 0.0 
2.212727778515e-04 6.963221930885e-04 0.0 
6.350551393017e-04 1.506590763357e-03 0.0 
7.650495590229e-04 2.234965490876e-04 0.0 
7.295897426619e-05 6.191087942695e-06 0.0 
1.142234291142e-03 3.266762162371e-04 0.0 
2.674381058618e-04 3.772388516693e-04 0.0 
1.759747906881e-03 7.021584159800e-03 0.0 
1.014448366943e-03 5.105153531584e-04 0.0 
2.204233583229e-04 4.028548236493e-03 0.0 
5.138420640361e-05 4.120769130701e-06 0.0 
1.422609462991e-03 8.204964090377e-03 0.0 
1.449930267352e-04 1.555968698665e-03 0.0 
4.526318997610e-04 -2.682631684422e-04 0.0 
7.327247267764e-05 1.512174369833e-03 0.0 
2.104752803158e-03 1.735564838951e-03 0.0 
4.746430300111e-04 7.089787031975e-03 0.0 
2.139123461144e-03 6.634524610971e-03 0.0 
3.731366202606e-05 -5.848111840496e-07 0.0 
1.041392217790e-03 1.096292883922e-03 0.0 
2.177049075666e-04 2.360675358124e-04 0.0 
2.514018536339e-04 4.927675566269e-03 0.0 
1.661065156633e-04 -2.431691303528e-04 0.0 
2.606668019728e-04 -2.431634157540e-04 0.0 
1.915586932354e-04 1.204203470926e-05 0.0 
1.703949307266e-03 1.288475568126e-03 0.0 
6.320954002358e-05 -5.888866320044e-09 0.0 
2.275449751636e-05 -3.690236233892e-04 0.0 
2.301005661679e-04 -4.125723811647e-04 0.0 
2.267073535154e-04 2.048054324534e-05 0.0 
1.020344270810e-03 6.525657350790e-04 0.0 
4.843513071378e-04 -3.147120859305e-04 0.0 
2.131629295181e-04 6.053870897062e-04 0.0 
1.526304906653e-04 1.455380118375e-04 0.0 
8.819302929589e-04 9.303052700377e-03 0.0 
1.795739490136e-04 -4.023714544068e-04 0.0 
4.007428741894e-05 3.214675602977e-06 0.0 
3.642733173046e-04 1.463712027533e-03 0.0 
1.130436880655e-04 -2.129816957439e-04 0.0 
1.984983905241e-03 8.168690911896e-03 0.0 
7.120432706476e-05 -2.983834545242e-04 0.0 
1.200224697440e-03 4.634155500323e-04 0.0 
2.970460065135e-04 -4.044408571404e-04 0.0 
2.438604088743e-04 1.395271925820e-03 0.0 
2.821900984616e-04 3.388464397352e-05 0.0 
7.639466668979e-04 1.203954006430e-03 0.0 
2.310206564235e-04 5.556531697534e-05 0.0 
2.102539914798e-04 -6.006805061050e-05 0.0 
7.119691082362e-04 2.293363490488e-04 0.0 
5.110440047172e-04 5.996873510707e-05 0.0 
4.934867858030e-04 9.248562690987e-03 0.0 
9.375611601216e-04 1.181261213216e-03 0.0 
1.113222951948e-04 -2.631747294498e-04 0.0 
1.620467908263e-04 -3.710034120542e-04 0.0 
1.405992857843e-05 6.926931689010e-04 0.0 
2.381497215255e-05 -3.951830483185e-04 0.0 
8.325813791439e-05 9.224883609385e-03 0.0 
5.142021365191e-06 1.252706075324e-06 0.0 
1.019090333305e-04 -3.639341029106e-04 0.0 
1.808819428775e-04 7.604318752629e-03 0.0 
9.920356214541e-04 7.104358721890e-04 0.0 
2.858317303529e-05 -1.479858930037e-04 0.0 
1.094917712019e-04 3.110761484159e-03 0.0 
3.745448743259e-04 -3.690872818606e-04 0.0 
1.755877491136e-04 -2.029344531704e-04 0.0 
1.500291599287e-04 5.849477694779e-03 0.0 
6.382404031432e-04 1.703105533387e-04 0.0 
5.957774482708e-04 1.228029512402e-03 0.0 
3.843491250843e-04 6.535637136211e-03 0.0 
3.274568441707e-04 1.458914831096e-04 0.0 
1.345290310831e-03 9.584424000203e-04 0.0 
1.179742988602e-04 -1.904117143711e-04 0.0 
1.312767155170e-03 6.407756676320e-04 0.0 
6.238318566556e-04 9.509857796004e-05 0.0 
8.472101922982e-05 1.807546155438e-04 0.0 
2.450308301405e-05 -1.193742985761e-04 0.0 
1.990786789117e-04 -4.075352788472e-04 0.0 
1.209318757345e-04 5.513174721450e-06 0.0 
7.749081147349e-05 -1.751770795179e-04 0.0 
9.176702676785e-04 9.225779731669e-03 0.0 
7.476350336673e-05 1.251562768491e-02 0.0 
1.565321074757e-03 9.598033344378e-03 0.0 
5.920324703652e-05 1.149412072766e-02 0.0 
1.766097631851e-03 9.439561862044e-03 0.0 
5.570629355804e-05 1.047746519995e-02 0.0 

VECTORS node_materi_displacement float
0.0 6.440031806730e-02 0.0 
0.0 1.343840361322e-01 0.0 
0.0 0.0 0.0 
0.0 0.0 0.0 
0.0 6.533142706097e-02 0.0 
0.0 6.556201569934e-02 0.0 
0.0 6.513470547878e-02 0.0 
0.0 6.404820872953e-02 0.0 
0.0 6.232791269572e-02 0.0 
0.0 6.012036095320e-02 0.0 
0.0 5.751153878024e-02 0.0 
0.0 5.456650816239e-02 0.0 
0.0 5.134751605137e-02 0.0 
0.0 4.789351461696e-02 0.0 
0.0 4.421471852964e-02 0.0 
0.0 4.032362349620e-02 0.0 
0.0 3.621081669215e-02 0.0 
0.0 3.186862748645e-02 0.0 
0.0 2.726675688004e-02 0.0 
0.0 2.238858308594e-02 0.0 
0.0 1.722627008292e-02 0.0 
0.0 1.176882238809e-02 0.0 
0.0 6.024047153585e-03 0.0 
0.0 0.0 0.0 
0.0 0.0 0.0 
0.0 0.0 0.0 
0.0 0.0 0.0 
0.0 0.0 0.0 
0.0 0.0 0.0 
0.0 0.0 0.0 
0.0 0.0 0.0 
0.0 0.0 0.0 
0.0 0.0 0.0 
0.0 0.0 0.0 
0.0 0.0 0.0 
0.0 0.0 0.0 
0.0 0.0 0.0 
0.0 0.0 0.0 
0.0 0.0 0.0 
0.0 0.0 0.0 
0.0 0.0 0.0 
0.0 0.0 0.0 
0.0 0.0 0.0 
0.0 0.0 0.0 
0.0 0.0 0.0 
0.0 0.0 0.0 
0.0 0.0 0.0 
0.0 0.0 0.0 
0.0 0.0 0.0 
0.0 0.0 0.0 
0.0 0.0 0.0 
0.0 0.0 0.0 
0.0 0.0 0.0 
0.0 0.0 0.0 
0.0 0.0 0.0 
0.0 0.0 0.0 
0.0 0.0 0.0 
0.0 0.0 0.0 
0.0 0.0 0.0 
0.0 0.0 0.0 
0.0 0.0 0.0 
0.0 0.0 0.0 
0.0 0.0 0.0 
0.0 0.0 0.0 
0.0 0.0 0.0 
0.0 0.0 0.0 
0.0 0.0 0.0 
0.0 0.0 0.0 
0.0 0.0 0.0 
0.0 0.0 0.0 
0.0 0.0 0.0 
0.0 0.0 0.0 
0.0 1.224493631523e-01 0.0 
0.0 1.101141653931e-01 0.0 
0.0 9.739796253421e-02 0.0 
0.0 8.433120809263e-02 0.0 
0.0 7.093651589284e-02 0.0 
0.0 5.724318584203e-02 0.0 
0.0 4.327811364082e-02 0.0 
0.0 2.906680007064e-02 0.0 
0.0 1.463932170511e-02 0.0 
-8.639796520724e-03 -7.454640884758e-03 0.0 
3.052973450092e-02 1.236097770344e-01 0.0 
-8.663214915254e-04 2.192416289671e-02 0.0 
6.743916010530e-03 4.624184575587e-02 0.0 
1.392281566661e-02 6.837883177325e-02 0.0 
2.050595166996e-02 8.829341268674e-02 0.0 
2.646207101945e-02 1.056823670893e-01 0.0 
3.125078159920e-02 1.195674344790e-01 0.0 
3.333461624790e-02 1.287136948027e-01 0.0 
3.410896803352e-02 1.313936122004e-01 0.0 
3.310188586974e-02 1.291562259664e-01 0.0 
0.0 1.676216879428e-01 0.0 
0.0 1.569556120762e-01 0.0 
0.0 1.459008467319e-01 0.0 
1.728040403409e-03 1.343824302000e-01 0.0 
3.452603324741e-03 1.343724424888e-01 0.0 
5.199407941782e-03 1.343433605435e-01 0.0 
6.971073033421e-03 1.342825146348e-01 0.0 
8.773987397256e-03 1.341862576487e-01 0.0 
1.061013586547e-02 1.340155807189e-01 0.0 
1.250032163840e-02 1.337776837587e-01 0.0 
1.444119965272e-02 1.334155490132e-01 0.0 
1.645871269890e-02 1.329273259801e-01 0.0 
1.855882316532e-02 1.322416085189e-01 0.0 
2.074372799962e-02 1.313137308576e-01 0.0 
2.303307739770e-02 1.300719922893e-01 0.0 
2.542378981311e-02 1.284421849709e-01 0.0 
2.791598354063e-02 1.263197225843e-01 0.0 
-5.308213511142e-03 -2.269687448517e-02 0.0 
-3.339753695053e-04 -3.089745402339e-02 0.0 
5.128845019996e-03 -3.389905186049e-02 0.0 
1.108384694642e-02 -3.131867381730e-02 0.0 
1.554761688152e-02 -2.072233337761e-02 0.0 
1.819720519416e-02 -7.174491767762e-03 0.0 
1.921266107848e-02 3.333591963020e-03 0.0 
1.950135236193e-02 1.216626690294e-02 0.0 
1.960457338398e-02 2.001323476006e-02 0.0 
1.941883874012e-02 2.728558863390e-02 0.0 
1.885856829209e-02 3.397103114873e-02 0.0 
1.798774461405e-02 4.000276150227e-02 0.0 
1.673960600692e-02 4.552695415841e-02 0.0 
1.505009644717e-02 5.046338261326e-02 0.0 
1.302417249100e-02 5.470589928511e-02 0.0 
1.075552971579e-02 5.815755810405e-02 0.0 
8.281748479179e-03 6.089829368941e-02 0.0 
5.642451498689e-03 6.289842562166e-02 0.0 
2.836914216127e-03 6.403749648390e-02 0.0 
3.031290750712e-02 1.379091908357e-01 0.0 
2.865374093265e-02 1.446785575268e-01 0.0 
2.701527354629e-02 1.500120045624e-01 0.0 
2.548525656118e-02 1.542311407960e-01 0.0 
2.396052190963e-02 1.575473346188e-01 0.0 
2.240237669935e-02 1.601305999956e-01 0.0 
2.082554338311e-02 1.621263479653e-01 0.0 
1.924954656227e-02 1.636557922121e-01 0.0 
1.766609256194e-02 1.648136706371e-01 0.0 
1.607292099384e-02 1.656773321870e-01 0.0 
1.446966793572e-02 1.663087074014e-01 0.0 
1.286222222111e-02 1.667604672636e-01 0.0 
1.125494931638e-02 1.670789931136e-01 0.0 
9.649309334750e-03 1.672973750289e-01 0.0 
8.046757278449e-03 1.674423275570e-01 0.0 
6.448707222972e-03 1.675337646294e-01 0.0 
4.856916598831e-03 1.675868853642e-01 0.0 
3.275300403468e-03 1.676068970100e-01 0.0 
1.663289296529e-03 1.675874618842e-01 0.0 
1.698395729203e-03 1.569936608807e-01 0.0 
3.393679169184e-03 1.569764801050e-01 0.0 
5.086296633275e-03 1.569523263848e-01 0.0 
6.785372956084e-03 1.568968821048e-01 0.0 
8.496068343568e-03 1.567996507586e-01 0.0 
1.022469336487e-02 1.566432609343e-01 0.0 
1.197437055825e-02 1.564071105880e-01 0.0 
1.375223004980e-02 1.560610409652e-01 0.0 
1.556339010412e-02 1.555699571693e-01 0.0 
1.740289455745e-02 1.548838163961e-01 0.0 
1.927414482203e-02 1.539390285253e-01 0.0 
2.118524222632e-02 1.526679592119e-01 0.0 
2.314768231900e-02 1.509811959440e-01 0.0 
2.517549543692e-02 1.487798372810e-01 0.0 
2.726084563789e-02 1.459151163125e-01 0.0 
2.941483095270e-02 1.422387306507e-01 0.0 
3.163661846466e-02 1.375044741234e-01 0.0 
3.059387398271e-02 1.331719491021e-01 0.0 
2.823241420157e-02 1.362967041629e-01 0.0 
2.591124542186e-02 1.387233357804e-01 0.0 
2.369339551729e-02 1.406242846192e-01 0.0 
2.156356141228e-02 1.420846477828e-01 0.0 
1.951187020334e-02 1.431903811289e-01 0.0 
1.752335047020e-02 1.440171216042e-01 0.0 
1.560424629372e-02 1.446224135661e-01 0.0 
1.374094417806e-02 1.450594255369e-01 0.0 
1.192981333007e-02 1.453751894008e-01 0.0 
1.015720371778e-02 1.455880818122e-01 0.0 
8.420257733297e-03 1.457342332643e-01 0.0 
6.707312220230e-03 1.458214943371e-01 0.0 
5.014776043277e-03 1.458718531236e-01 0.0 
3.337075486359e-03 1.458903296163e-01 0.0 
1.664874160084e-03 1.458672295643e-01 0.0 
-4.296404828664e-03 8.583794715760e-03 0.0 
2.919079353523e-03 3.429956261254e-02 0.0 
1.039051634254e-02 5.756407251004e-02 0.0 
1.728921813358e-02 7.862278658275e-02 0.0 
2.362443858380e-02 9.741416395445e-02 0.0 
2.908896468003e-02 1.131909814651e-01 0.0 
3.281696538306e-02 1.248079119880e-01 0.0 
3.392301736386e-02 1.307221833365e-01 0.0 
3.384950711013e-02 1.307406821351e-01 0.0 
3.198349633151e-02 1.267279116762e-01 0.0 
1.193268505285e-02 3.312550214071e-02 0.0 
3.028755125630e-03 3.993142813453e-03 0.0 
1.355098257719e-02 2.352663855037e-02 0.0 
7.771034898331e-03 -2.504735538241e-02 0.0 
2.316132332386e-04 4.013500741536e-03 0.0 
2.533331356696e-02 7.563932453045e-02 0.0 
-1.070264469686e-03 4.580845735501e-02 0.0 
5.633403834130e-03 4.932919062529e-03 0.0 
3.534490351689e-02 1.062794305331e-01 0.0 
7.241272892682e-03 6.375836367009e-03 0.0 
3.772801994501e-02 1.211381516469e-01 0.0 
-6.923711621690e-04 4.218700095403e-03 0.0 
1.198365504430e-02 4.897507992928e-02 0.0 
7.705202456640e-03 8.455531005622e-03 0.0 
3.303575021598e-02 1.162359608008e-01 0.0 
-7.711114838183e-04 5.850749106031e-02 0.0 
-9.128482192402e-04 3.481462504642e-02 0.0 
7.327426533529e-03 1.025849179419e-02 0.0 
5.338193740166e-03 1.116498149243e-02 0.0 
1.659247377292e-03 1.242353696952e-02 0.0 
3.003667503358e-03 1.325900064099e-02 0.0 
3.903925897458e-03 1.152141285432e-02 0.0 
2.688405414972e-02 1.170507662711e-01 0.0 
1.762640783400e-02 1.218183795373e-01 0.0 
1.156908932669e-02 1.228274245218e-01 0.0 
1.123399238733e-03 7.746264503689e-02 0.0 
-7.288792670552e-04 4.965428903564e-03 0.0 
2.795392643064e-03 -2.416383185226e-02 0.0 
7.299908119885e-03 6.030772718998e-02 0.0 
-5.681247410412e-04 2.017960823168e-02 0.0 
5.948392086812e-03 1.240532092688e-01 0.0 
3.984325163624e-04 6.436030736581e-02 0.0 
7.155982351462e-03 1.221691970936e-02 0.0 
6.096063108809e-03 5.153928053580e-03 0.0 
7.564317221354e-03 7.292585753680e-03 0.0 
4.706468595985e-03 4.642546951717e-03 0.0 
1.649093163521e-03 3.664551390129e-03 0.0 
1.088100031132e-02 -2.017305710529e-03 0.0 
2.206509902351e-02 1.207092983082e-01 0.0 
-4.890955075864e-04 4.865286183404e-03 0.0 
8.477368546100e-04 5.088410081684e-02 0.0 
1.349313941939e-02 3.714233876581e-02 0.0 
-1.065700044881e-03 5.274118670220e-02 0.0 
8.396478453158e-04 1.014703001699e-02 0.0 
3.113747784960e-02 9.143964814077e-02 0.0 
1.881740924868e-02 5.562273002506e-02 0.0 
3.752301233954e-02 1.161863164950e-01 0.0 
3.609899838635e-02 1.206750916640e-01 0.0 
4.064069965525e-03 8.190107311166e-03 0.0 
1.361109622332e-03 1.022777553561e-01 0.0 
-3.766554932890e-04 4.074313400888e-03 0.0 
3.394185731002e-03 6.433369419677e-02 0.0 
4.655989480934e-04 2.294700980265e-02 0.0 
3.150392418561e-02 1.123494974227e-01 0.0 
3.337138234411e-02 1.053355542171e-01 0.0 
3.064765772280e-02 1.027955497354e-01 0.0 
3.267953495581e-02 9.452012811204e-02 0.0 
3.004560595519e-02 9.043115532819e-02 0.0 
3.138986310705e-02 8.318404147819e-02 0.0 
3.423362862832e-02 8.677862882444e-02 0.0 
3.241301772288e-02 7.582497927776e-02 0.0 
3.538831479779e-02 7.906036223897e-02 0.0 
2.845856621626e-02 7.876558358718e-02 0.0 
3.301747652395e-02 6.845707008009e-02 0.0 
3.607536459136e-02 7.134343977845e-02 0.0 
3.316437630219e-02 6.119171606202e-02 0.0 
3.624129190402e-02 6.375095774057e-02 0.0 
3.895679479263e-02 7.335432024016e-02 0.0 
3.910482844824e-02 6.544937958418e-02 0.0 
4.154670453081e-02 7.437707151832e-02 0.0 
4.166142413923e-02 6.614302203875e-02 0.0 
3.868410792819e-02 5.786924991811e-02 0.0 
4.115335210856e-02 5.833142058350e-02 0.0 
4.376204098200e-02 6.579757741344e-02 0.0 
4.315645521662e-02 5.777808829897e-02 0.0 
4.534317073987e-02 6.438022944920e-02 0.0 
4.460790381802e-02 5.618247150663e-02 0.0 
4.635542782588e-02 6.187519163027e-02 0.0 
4.547249000770e-02 5.358658165400e-02 0.0 
4.321491021631e-02 4.866840693432e-02 0.0 
4.391920902277e-02 4.608323276650e-02 0.0 
4.569605229747e-02 5.005456454006e-02 0.0 
4.396850916839e-02 4.262834239900e-02 0.0 
4.525661276850e-02 4.567899441307e-02 0.0 
4.334527219411e-02 3.843304573108e-02 0.0 
4.160007222177e-02 3.614994268462e-02 0.0 
4.078302499592e-02 3.223133062484e-02 0.0 
4.202177057180e-02 3.358254124386e-02 0.0 
3.917727361134e-02 2.762153705705e-02 0.0 
3.993615418345e-02 2.799616862257e-02 0.0 
3.678894656369e-02 2.240360134066e-02 0.0 
3.712313938786e-02 2.190050321023e-02 0.0 
3.367226572535e-02 1.689160764213e-02 0.0 
3.306308172456e-02 1.807105090256e-02 0.0 
2.970064455684e-02 1.327661048209e-02 0.0 
2.994976341673e-02 1.142772007294e-02 0.0 
2.582190774526e-02 8.758069393973e-03 0.0 
2.541842442517e-02 1.103070917162e-02 0.0 
2.149870812732e-02 7.505578323128e-03 0.0 
2.103081049755e-02 1.001570248721e-02 0.0 
1.718128032781e-02 7.491280784218e-03 0.0 
1.738433014334e-02 4.715433417291e-03 0.0 
1.325791290850e-02 5.789229580346e-03 0.0 
1.310294624024e-02 8.476074869648e-03 0.0 
9.464436090774e-03 7.723558580878e-03 0.0 
9.434264806688e-03 5.033708729079e-03 0.0 
6.057479872838e-03 7.902227840583e-03 0.0 
6.253547926659e-03 1.001351828126e-02 0.0 
3.288775174881e-03 1.084792793413e-02 0.0 
2.995078808801e-03 8.998583084795e-03 0.0 
6.874954580113e-04 1.250292132459e-02 0.0 
1.010739718402e-03 1.384949216871e-02 0.0 
-1.251580397700e-03 1.606290673891e-02 0.0 
-1.529033151485e-03 1.499027689916e-02 0.0 
-3.099854654651e-03 1.897309654458e-02 0.0 
-2.796712929004e-03 1.951683050314e-02 0.0 
-4.299703058391e-03 2.272127879993e-02 0.0 
-3.910397529294e-03 2.265650004041e-02 0.0 
-4.520207287728e-03 2.256140314616e-02 0.0 
-5.373131389845e-03 2.644292364452e-02 0.0 
-5.448661146605e-03 2.669544788681e-02 0.0 
-5.997376509329e-03 3.057290577082e-02 0.0 
3.865468006188e-02 3.063410910962e-02 0.0 
-5.844679199691e-03 3.119663553068e-02 0.0 
-5.202491352850e-03 2.677617294095e-02 0.0 
-6.161805720817e-03 3.497862391335e-02 0.0 
-6.209629023831e-03 3.384947066246e-02 0.0 
-5.740944020353e-03 3.595174827331e-02 0.0 
-5.898984633631e-03 3.953216382872e-02 0.0 
-5.192071353830e-03 4.079682515143e-02 0.0 
3.986497299080e-02 2.824840935859e-02 0.0 
3.769805689313e-02 5.071190185641e-02 0.0 
-5.262166072928e-03 4.407996945675e-02 0.0 
-4.282477712605e-03 4.556683082418e-02 0.0 
-3.931053346401e-03 4.189544514195e-02 0.0 
-2.716694697653e-03 4.683602053291e-02 0.0 
2.725379454907e-02 8.587977277979e-02 0.0 
2.545223878955e-02 7.377559601652e-02 0.0 
2.443708122373e-02 8.077203141395e-02 0.0 
2.240717572870e-02 6.833769790552e-02 0.0 
2.158248651708e-02 7.511170809715e-02 0.0 
-3.125901570409e-03 5.010389555385e-02 0.0 
2.988164287682e-02 5.750210326420e-02 0.0 
2.293171042313e-02 6.142612885384e-02 0.0 
4.540421795090e-02 7.318428928364e-02 0.0 
4.647277937012e-02 5.394481653459e-02 0.0 
2.458162271528e-02 1.311106706388e-02 0.0 
-5.753132646885e-03 4.239045883032e-02 0.0 
-5.035900243730e-03 4.661090726597e-02 0.0 
-5.327244304408e-03 4.450951460129e-02 0.0 
-2.350311402358e-03 1.976794985777e-02 0.0 
-3.357327107583e-03 2.225962505318e-02 0.0 
-1.772735357219e-03 1.962703416753e-02 0.0 
-2.707668657650e-03 2.145085509565e-02 0.0 
-1.165168351087e-03 1.900587627395e-02 0.0 
-2.089040725440e-03 2.016707747416e-02 0.0 
-3.302223482396e-03 2.283080075999e-02 0.0 
-2.692036552994e-03 2.091162971618e-02 0.0 
-3.605898762343e-03 2.373527532407e-02 0.0 
-7.031028094218e-04 1.783046759641e-02 0.0 
5.644132950826e-04 1.696190691858e-02 0.0 
-3.006864354155e-03 2.122256240976e-02 0.0 
-3.659965617635e-03 2.415238149660e-02 0.0 
-3.078593586049e-03 2.109010557486e-02 0.0 
-3.503796964545e-03 2.409313587046e-02 0.0 
-4.086279419408e-03 2.726564419645e-02 0.0 
-3.710453012168e-03 2.722476186764e-02 0.0 
-4.273750510270e-03 3.050859378020e-02 0.0 
2.024172345976e-02 1.222033005908e-02 0.0 
2.332235915363e-02 1.478262107665e-02 0.0 
1.915622629384e-02 1.387759176016e-02 0.0 
2.156719174537e-02 1.566596070492e-02 0.0 
1.771283487660e-02 1.451971249591e-02 0.0 
1.945789302196e-02 1.556720674368e-02 0.0 
1.581656915087e-02 1.428806939526e-02 0.0 
1.414055575344e-02 1.379575893419e-02 0.0 
3.283448894036e-02 5.400333294571e-02 0.0 
2.580595099054e-02 6.329054207720e-03 0.0 
2.969099674143e-02 9.464789995609e-03 0.0 
2.528904615217e-02 3.696892062728e-03 0.0 
2.876505055836e-02 7.408856126350e-03 0.0 
2.420977026147e-02 9.633511743366e-04 0.0 
2.721517971674e-02 5.324343128199e-03 0.0 
2.266000461408e-02 -1.868789236614e-03 0.0 
1.956490598106e-02 -4.584837128847e-03 0.0 
1.802320249765e-02 -8.109027613287e-03 0.0 
1.500737658525e-02 -8.817729324133e-03 0.0 
1.365120358797e-02 -1.280988602190e-02 0.0 
1.080059220222e-02 -1.131402186724e-02 0.0 
4.119482305931e-02 4.191347643999e-02 0.0 
2.331725682603e-02 1.729591192897e-02 0.0 
2.055937756362e-02 1.639329275330e-02 0.0 
2.435017710781e-02 1.860345073998e-02 0.0 
-2.026116658586e-03 4.283732601756e-02 0.0 
-3.170056289144e-03 2.357824568998e-02 0.0 
7.563552974114e-04 1.580913987854e-02 0.0 
2.336811189753e-03 1.530751460935e-02 0.0 
1.245278805614e-02 1.333080812513e-02 0.0 
-1.323138535461e-03 5.143806848539e-02 0.0 
2.506557575515e-02 3.290153436697e-03 0.0 
2.940148924485e-02 1.180049172572e-02 0.0 
1.937970604519e-02 6.235877225077e-02 0.0 
1.875655371947e-02 6.900585846811e-02 0.0 
2.189340541470e-03 1.407516772643e-02 0.0 
-1.859554530653e-03 5.427016500761e-02 0.0 
-2.208006502666e-03 1.848884050908e-02 0.0 
1.594452295757e-02 -1.178563202380e-02 0.0 
-3.197823126371e-03 2.670802043119e-02 0.0 
-2.695753027699e-03 2.264052290517e-02 0.0 
-4.260497353012e-03 2.579595385252e-02 0.0 
2.098682340266e-02 1.687327261777e-02 0.0 
2.473540633184e-02 1.949833139772e-02 0.0 
1.173742512186e-02 -7.364813934620e-03 0.0 
7.801755184091e-03 -7.951579624427e-03 0.0 
7.124342960449e-03 -1.175327666374e-02 0.0 
4.449890642497e-03 -6.378523682724e-03 0.0 
4.921021218487e-03 -3.313709521528e-03 0.0 
2.151834701891e-03 -7.618101307288e-04 0.0 
2.116807870873e-03 -3.220796423021e-03 0.0 
3.158633452649e-04 3.373643596065e-03 0.0 
8.036651421359e-05 5.287648626569e-03 0.0 
-1.256801123472e-03 9.870085963641e-03 0.0 
-3.711212776721e-04 8.705831576327e-03 0.0 
-1.534377693782e-03 1.530687710324e-02 0.0 
-2.637719233523e-03 1.954164027614e-02 0.0 
1.195626523217e-02 -1.692518096230e-02 0.0 
4.082082222356e-02 8.288310452483e-02 0.0 
7.278069688714e-04 1.399478366584e-02 0.0 
1.353987307037e-02 1.324443479172e-02 0.0 
1.641211193126e-02 5.596523903974e-02 0.0 
1.598984955055e-02 6.251847510689e-02 0.0 
1.789070511963e-02 7.563884147071e-02 0.0 
1.531727233964e-02 6.903427697639e-02 0.0 
1.331950020948e-02 5.570059314472e-02 0.0 
1.284129288432e-02 6.216186273331e-02 0.0 
1.444076698596e-02 7.549119953969e-02 0.0 
1.214536612618e-02 6.856379200039e-02 0.0 
1.339805074103e-02 8.184965366033e-02 0.0 
1.126897987238e-02 7.488057247765e-02 0.0 
9.967312723781e-03 6.141311073716e-02 0.0 
9.248317260425e-03 6.772820255621e-02 0.0 
1.024641948952e-02 8.111090054495e-02 0.0 
8.366015766943e-03 7.396404182824e-02 0.0 
9.105066411725e-03 8.723529780842e-02 0.0 
7.346569189635e-03 8.010981784249e-02 0.0 
6.609987373273e-03 6.666850825896e-02 0.0 
-1.682336450407e-06 5.544222269404e-02 0.0 
1.089446872202e-02 1.337469376080e-02 0.0 
9.417513752986e-03 1.259578774444e-02 0.0 
-4.558363735044e-03 4.829440489352e-02 0.0 
-4.697646698831e-03 4.581287696917e-02 0.0 
-5.326606023602e-03 4.216372271024e-02 0.0 
-4.564789338395e-03 4.315720666518e-02 0.0 
5.682131807257e-03 7.290968022478e-02 0.0 
5.001848649922e-03 5.925604961642e-02 0.0 
2.652011464311e-02 1.082096983777e-02 0.0 
3.051383519849e-02 2.028883944925e-02 0.0 
1.653579151897e-02 4.940026891593e-02 0.0 
-2.585967333541e-03 2.575216211687e-02 0.0 
-3.022574606955e-03 2.985402759175e-02 0.0 
4.556274347483e-02 4.866913979592e-02 0.0 
4.619927538535e-02 5.775267873076e-02 0.0 
4.486277088497e-02 5.167566831798e-02 0.0 
4.479186081234e-02 6.160521927493e-02 0.0 
4.604606663594e-02 6.775186368692e-02 0.0 
4.299600365626e-02 5.470616504444e-02 0.0 
2.195162555736e-03 1.582336425867e-02 0.0 
7.937922532292e-03 5.408732418514e-02 0.0 
-3.315972370755e-03 3.751983126595e-02 0.0 
-1.086124349658e-03 3.821663381230e-02 0.0 
-2.148814203759e-03 2.132358053912e-02 0.0 
1.195663033833e-02 1.331558990553e-02 0.0 
4.004295414539e-02 4.354866581955e-02 0.0 
3.764611207153e-02 3.744350970109e-02 0.0 
3.612927150908e-02 3.812445560536e-02 0.0 
3.347621902244e-02 3.259225938571e-02 0.0 
3.157262935814e-02 3.233734659909e-02 0.0 
2.868025876804e-02 2.733819992161e-02 0.0 
3.044727133442e-02 2.770221361456e-02 0.0 
2.070324729426e-02 1.688239533794e-02 0.0 
2.547696212667e-02 2.288383985065e-02 0.0 
6.313320646438e-03 8.627431967496e-02 0.0 
2.732488852151e-02 1.956682368066e-02 0.0 
-1.682042457878e-03 1.123065086021e-02 0.0 
1.011629371984e-03 5.226878021008e-02 0.0 
4.243259590725e-04 1.485835608579e-02 0.0 
-6.634308051469e-04 5.789224264136e-02 0.0 
-2.061348790731e-03 5.630662319897e-02 0.0 
1.815672794084e-03 1.213157099909e-02 0.0 
2.631441379720e-02 2.615234455924e-02 0.0 
2.912111180577e-02 3.123056934618e-02 0.0 
4.389398547051e-02 7.258998091439e-02 0.0 
4.509488414826e-02 7.856542450797e-02 0.0 
1.713986169036e-02 1.438013683086e-02 0.0 
2.316011348431e-02 8.777841927153e-02 0.0 
1.560508519261e-02 8.860138395613e-02 0.0 
1.426599602546e-02 9.487656361954e-02 0.0 
1.381366101737e-03 5.874884878192e-02 0.0 
1.421005339467e-03 7.904656647806e-03 0.0 
1.079111134270e-02 4.862367093929e-02 0.0 
3.337357940523e-02 2.044407921620e-02 0.0 
3.415441335824e-02 2.952602268215e-02 0.0 
1.353061199834e-02 -1.556796799529e-02 0.0 
9.971684812768e-03 -2.135630774512e-02 0.0 
4.223237623343e-03 6.538175973800e-02 0.0 
3.601201759160e-03 5.170761302087e-02 0.0 
-5.079641876686e-03 3.960156567625e-02 0.0 
-4.273991493238e-03 4.019404089995e-02 0.0 
3.492999526127e-03 1.254808008228e-02 0.0 
-7.408894615890e-04 2.124904001692e-02 0.0 
4.116090836928e-03 4.537320227272e-02 0.0 
8.903185164641e-03 1.348050188504e-02 0.0 
9.369610957579e-03 1.301410171984e-02 0.0 
-3.818587876051e-03 4.659310752954e-02 0.0 
2.673896851070e-02 2.043381590877e-02 0.0 
2.287129704849e-02 1.012807467652e-02 0.0 
5.519071955988e-05 7.334468221520e-03 0.0 
-2.580076486928e-03 2.135970383733e-02 0.0 
-9.975351494737e-04 5.947540729524e-02 0.0 
2.698990471226e-03 1.038098640985e-02 0.0 
1.081957007745e-02 4.217718047874e-02 0.0 
2.715771993822e-02 2.348424832122e-02 0.0 
3.162996774068e-02 2.736890100969e-02 0.0 
2.207539929790e-02 1.900054790343e-02 0.0 
2.025851903498e-03 2.131130494822e-02 0.0 
5.445265861313e-04 1.149743331191e-02 0.0 
-1.917907569111e-03 2.441763473560e-02 0.0 
2.365752012591e-02 2.453098815107e-02 0.0 
2.615905691427e-02 2.931475027871e-02 0.0 
3.694907733298e-02 2.892702327726e-02 0.0 
3.753626313790e-02 3.854829836127e-02 0.0 
3.379946490793e-02 4.012823821575e-02 0.0 
3.694454338072e-02 4.929174183289e-02 0.0 
3.697965386536e-02 8.965780617957e-02 0.0 
4.011795657402e-02 3.713326172701e-02 0.0 
4.302521791379e-02 8.323518152655e-02 0.0 
4.172757023161e-02 9.232256530510e-02 0.0 
4.348827580371e-02 9.204359596255e-02 0.0 
4.666575966124e-02 7.297575339758e-02 0.0 
4.562662531433e-02 8.366052202139e-02 0.0 
3.297925970674e-02 1.433036314818e-02 0.0 
2.764945515282e-02 1.646445077679e-02 0.0 
-5.706529463273e-03 3.836054998930e-02 0.0 
-4.699430549621e-03 3.004657134602e-02 0.0 
-4.351202647091e-04 1.741842870754e-02 0.0 
8.304615557102e-03 4.771152965067e-02 0.0 
6.309176961314e-03 4.021751765669e-02 0.0 
1.094916823376e-02 9.420620874800e-02 0.0 
9.596770832817e-03 1.001975659561e-01 0.0 
6.424143865404e-04 4.359790643568e-02 0.0 
1.932992037926e-03 3.873943865352e-02 0.0 
-4.600268326145e-03 2.533122629535e-02 0.0 
-3.506600764134e-04 1.365595588295e-02 0.0 
1.346365098167e-02 4.273869911544e-02 0.0 
1.303134632440e-02 3.627395240855e-02 0.0 
1.630975894775e-02 4.283806764807e-02 0.0 
4.544050743572e-03 1.114683260404e-02 0.0 
2.137518186611e-02 1.860524639311e-03 0.0 
1.615628725282e-02 1.209632638097e-02 0.0 
8.522745052937e-03 -1.995074901335e-02 0.0 
3.895769583554e-02 3.364159164420e-02 0.0 
4.108471312524e-03 4.415328649725e-02 0.0 
3.499841086527e-02 4.949000417928e-02 0.0 
-1.561267399573e-03 1.967090545496e-02 0.0 
-1.713758551310e-03 1.654075865361e-02 0.0 
1.623631364688e-02 1.360556324296e-02 0.0 
3.552419585668e-02 1.083140700247e-01 0.0 
3.568909974863e-02 2.872654702647e-02 0.0 
3.520455962671e-02 2.607596396091e-02 0.0 
4.162195664644e-02 1.016301033689e-01 0.0 
4.289065047675e-02 1.007466515026e-01 0.0 
4.475577889716e-02 9.059393225740e-02 0.0 
4.361798210745e-02 9.867037523800e-02 0.0 
-1.821361859531e-03 1.261872339774e-02 0.0 
-3.115652027217e-03 1.673604203324e-02 0.0 
2.009921399062e-02 1.937843533989e-02 0.0 
2.000449469312e-02 1.769458392945e-02 0.0 
2.037884710683e-02 2.196950977281e-02 0.0 
2.271118295302e-02 2.649320479533e-02 0.0 
1.280854373261e-02 1.114428747639e-02 0.0 
1.370574029064e-02 1.221070518998e-02 0.0 
-1.925900916505e-03 5.755855688931e-02 0.0 
4.339613718731e-02 8.992646434632e-02 0.0 
8.279573504785e-03 3.488578256069e-02 0.0 
3.991547129401e-02 1.013821859771e-01 0.0 
-3.395645637385e-04 1.070886339432e-02 0.0 
-1.067892527721e-03 1.301265174941e-02 0.0 
7.091086589434e-03 -2.474242049614e-02 0.0 
5.578591559254e-03 -1.983973658632e-02 0.0 
2.824388301118e-03 3.798527791921e-02 0.0 
3.231430073916e-02 5.175951447510e-02 0.0 
3.527202353796e-02 6.080311508992e-02 0.0 
2.905797380948e-02 4.191678199207e-02 0.0 
-2.716975597621e-04 8.930576475212e-03 0.0 
2.571111623869e-03 1.242822509022e-01 0.0 
-1.189929710679e-03 1.459796685769e-02 0.0 
4.664486603979e-02 7.738014137217e-02 0.0 
3.026883595115e-03 3.101276095991e-02 0.0 
3.212887947990e-02 2.470887805424e-02 0.0 
4.402435133057e-02 4.272349982697e-02 0.0 
5.593001076966e-03 1.283046208908e-02 0.0 
2.308703786630e-03 4.551463049270e-02 0.0 
1.704072169582e-03 2.990610582050e-02 0.0 
1.631192842930e-02 1.012353185063e-01 0.0 
1.477908154897e-02 1.076011005336e-01 0.0 
1.786160116048e-02 9.508857694060e-02 0.0 
1.768374860894e-02 -7.666879587454e-03 0.0 
1.400542348576e-02 -1.008181457110e-02 0.0 
6.087055374681e-03 4.660671330277e-02 0.0 
-4.092598906542e-03 5.061697833211e-02 0.0 
-3.571832296109e-03 5.186338968315e-02 0.0 
-1.684227849388e-03 2.711570703357e-02 0.0 
-3.492673492485e-03 2.700163357447e-02 0.0 
-5.332169074242e-03 3.599733168774e-02 0.0 
-5.780877227682e-03 3.456838947136e-02 0.0 
3.353180643864e-02 4.289353479833e-02 0.0 
3.056906698992e-02 4.097479332145e-02 0.0 
3.834375029641e-02 4.432474827787e-02 0.0 
6.593819798088e-03 1.381465758556e-02 0.0 
6.540900231479e-03 1.306789287198e-02 0.0 
9.449878427330e-03 1.173410465418e-02 0.0 
6.356533774836e-03 3.424319401215e-02 0.0 
4.264830691354e-03 2.543672181880e-02 0.0 
1.499403188757e-04 9.231370144272e-03 0.0 
2.534282194333e-03 4.402080240830e-03 0.0 
-3.321598233036e-03 1.750277579775e-02 0.0 
7.861521774038e-03 2.871822228372e-02 0.0 
-1.254284710199e-03 1.154538171838e-02 0.0 
-1.714078088798e-03 1.357644076578e-02 0.0 
5.718730809951e-03 3.923699333603e-02 0.0 
3.243327092734e-03 3.337516901240e-02 0.0 
2.190602765521e-02 2.093029523257e-02 0.0 
1.793781060845e-02 9.882241038483e-03 0.0 
1.238485253661e-02 3.036086943317e-02 0.0 
1.572520708950e-02 3.643999020502e-02 0.0 
8.870524619475e-03 2.304445996163e-02 0.0 
-9.237046288990e-04 6.038530782421e-02 0.0 
2.819170549426e-02 2.340899802996e-02 0.0 
3.474705772370e-03 8.801746713483e-03 0.0 
5.456909397018e-03 9.886619715929e-03 0.0 
1.800034962835e-03 7.222540291478e-03 0.0 
1.988776515463e-02 1.649786024487e-02 0.0 
1.478965562648e-02 1.245268554179e-02 0.0 
1.629508049782e-02 1.397739634318e-02 0.0 
7.434643449283e-03 -2.560712082114e-02 0.0 
1.285738766540e-03 3.579256221740e-02 0.0 
1.137389697674e-02 1.069958987082e-01 0.0 
6.242477655270e-03 -2.836813450133e-02 0.0 
9.837001767464e-03 1.132742892281e-01 0.0 
8.230629953062e-03 1.061544780702e-01 0.0 
8.507665539117e-03 1.193424774971e-01 0.0 
-1.939517400328e-04 6.200370094241e-02 0.0 
1.854473597406e-02 1.095884235226e-01 0.0 
2.030102057106e-02 1.017347424612e-01 0.0 
8.212173703669e-03 3.380572002323e-02 0.0 
5.363925980767e-03 2.139842928584e-02 0.0 
7.815808148231e-03 4.413944365882e-02 0.0 
5.932451940024e-03 4.854166195698e-02 0.0 
-8.300100476539e-04 9.483001431184e-03 0.0 
-1.452527418005e-03 1.202882961233e-02 0.0 
-1.047279321870e-03 8.053147701205e-03 0.0 
-1.590403806526e-03 1.094267343848e-02 0.0 
-2.051905219844e-03 1.477622201153e-02 0.0 
-2.046845818065e-03 1.363699297156e-02 0.0 
1.330300643968e-02 1.146570619128e-01 0.0 
-1.388871955875e-03 8.689219635546e-03 0.0 
-1.843870630827e-03 1.205432753952e-02 0.0 
-1.136675163671e-03 6.961003574844e-03 0.0 
4.107654217958e-02 1.097132713094e-01 0.0 
3.950425957718e-02 5.765328604131e-02 0.0 
3.778057490344e-02 6.949958336623e-02 0.0 
3.247875818600e-02 7.379301858869e-02 0.0 
1.522917698576e-02 1.685371658129e-02 0.0 
1.922505780040e-02 2.335154752803e-02 0.0 
-1.231412023857e-03 2.264730093461e-02 0.0 
-1.452212967076e-03 2.737152646916e-02 0.0 
6.804772080416e-03 1.129259706735e-01 0.0 
4.976481911634e-03 1.135276554495e-01 0.0 
5.429362128123e-03 1.020006090565e-01 0.0 
3.924108709701e-03 1.034633576775e-01 0.0 
4.220606642947e-03 9.190352796318e-02 0.0 
2.721270647173e-03 9.343325866321e-02 0.0 
3.214785229565e-03 8.161645900055e-02 0.0 
1.365273320094e-02 1.199435831416e-02 0.0 
2.634136376927e-02 5.351553136813e-02 0.0 
3.919809907489e-02 1.112427188035e-01 0.0 
9.563902539302e-03 8.935996609287e-03 0.0 
1.085673973287e-02 1.059353707838e-02 0.0 
4.385325401235e-02 9.477393585035e-02 0.0 
4.086104798859e-02 1.019333223191e-01 0.0 
2.352743632278e-04 7.918555304500e-03 0.0 
3.883826081739e-02 2.852383484687e-02 0.0 
3.989466981125e-03 1.353427391151e-02 0.0 
1.475631123437e-03 -1.410175251571e-02 0.0 
8.273436238149e-03 -1.545410393171e-02 0.0 
4.172297022653e-02 3.592348165020e-02 0.0 
4.548915926741e-02 8.783597519855e-02 0.0 
4.191582027391e-02 6.552019594709e-02 0.0 
4.049082158573e-02 7.758427211068e-02 0.0 
6.273041825977e-03 1.375056051468e-02 0.0 
4.771977714202e-03 2.754400490389e-02 0.0 
2.558812229933e-02 3.158049792378e-02 0.0 
4.673069622906e-03 8.023906886243e-02 0.0 
1.951783960092e-02 3.222912905169e-02 0.0 
-6.741320245707e-04 2.509205675420e-02 0.0 
3.669877392896e-02 2.134957445349e-02 0.0 
4.706363462136e-02 6.747280155118e-02 0.0 
3.040417422259e-02 3.039977746711e-02 0.0 
4.062995649911e-02 4.716445592124e-02 0.0 
3.825102562182e-02 8.147090934398e-02 0.0 
3.530564724951e-02 9.767572279490e-02 0.0 
3.767156046368e-02 1.002313362553e-01 0.0 
3.367374994691e-02 1.564844009268e-02 0.0 
4.230410417956e-02 8.425098986707e-02 0.0 
3.799734542404e-02 9.064062166438e-02 0.0 
4.373041797146e-02 7.432715748419e-02 0.0 
1.968513960080e-02 4.897598078597e-02 0.0 
1.925169636322e-02 4.235053226564e-02 0.0 
1.483641645184e-02 3.049128134425e-02 0.0 
1.840839982294e-02 3.598540507411e-02 0.0 
2.283327526908e-02 4.783958574358e-02 0.0 
2.213126544670e-02 4.126467251174e-02 0.0 
1.714152229513e-02 2.996224766758e-02 0.0 
2.098002434293e-02 3.494279269287e-02 0.0 
1.412716296829e-02 2.188231698885e-02 0.0 
1.919068582405e-02 2.867749283917e-02 0.0 
2.481014011693e-02 3.961256141698e-02 0.0 
2.335516402626e-02 3.365234280600e-02 0.0 
1.783095832118e-02 2.427222016078e-02 0.0 
2.865569188145e-02 4.418122462096e-02 0.0 
8.069646473721e-03 7.278950006955e-03 0.0 
4.237294053703e-02 3.479504929980e-02 0.0 
1.047636432524e-02 -1.933975006296e-02 0.0 
1.170220622909e-02 -4.191918093663e-03 0.0 
4.653137945820e-02 7.091961710325e-02 0.0 
6.973665695643e-03 1.074609606016e-02 0.0 
5.945475971506e-03 1.124169169078e-02 0.0 
3.151730148556e-02 1.299570526804e-02 0.0 
7.665264054411e-03 7.847245369708e-03 0.0 
3.948974305627e-02 9.157872302170e-02 0.0 
2.048280169005e-02 -4.766775449788e-03 0.0 
7.538188062921e-03 6.912672542316e-03 0.0 
2.308978522136e-02 5.455747820397e-02 0.0 
2.649416299042e-02 5.985643024299e-02 0.0 
2.615447219463e-02 6.682061441745e-02 0.0 
4.705146946092e-03 1.091866553754e-02 0.0 
1.929912565890e-02 8.866001930700e-02 0.0 
5.703941837654e-03 4.872834024262e-03 0.0 
2.569465914180e-02 1.734353578625e-02 0.0 
2.995533437503e-02 1.967094647578e-02 0.0 
3.185567235194e-02 1.907578212941e-02 0.0 
2.587144754067e-02 4.629465517026e-02 0.0 
3.657683237648e-03 4.057571346306e-03 0.0 
6.176761543644e-03 7.188629818237e-03 0.0 
4.961700491216e-03 6.972584822868e-03 0.0 
8.030034258209e-03 9.807345672329e-03 0.0 
2.333796270358e-03 3.842412087732e-03 0.0 
6.938151529688e-03 8.888937036224e-03 0.0 
6.815845736067e-03 8.039561880759e-03 0.0 
2.337166477026e-03 1.848432454601e-03 0.0 
5.322939816926e-03 -2.279127460737e-04 0.0 
5.627093271436e-03 2.651905763228e-03 0.0 
8.915606248313e-03 -9.686190612434e-04 0.0 
8.461470763869e-03 -4.335924628204e-03 0.0 
1.246322287480e-02 -3.705081796107e-03 0.0 
1.295903086701e-02 -3.047161530376e-04 0.0 
1.608620138836e-02 -5.081466934818e-03 0.0 
2.519408073305e-02 3.214051223476e-02 0.0 
1.131972571875e-03 3.681542436087e-03 0.0 
1.093159190700e-04 1.747443709790e-02 0.0 
1.769596445891e-03 1.565298652558e-02 0.0 
1.345746681101e-03 1.494637732607e-02 0.0 
-6.098787340092e-03 3.644502750347e-02 0.0 
-5.972209717162e-03 3.250525527302e-02 0.0 
-5.518048675707e-03 3.089760474568e-02 0.0 
-5.871018103739e-03 4.048713941822e-02 0.0 
3.481382743067e-02 3.205754252640e-02 0.0 
6.151491837880e-04 3.751660903621e-03 0.0 
1.256251741680e-02 1.240685604763e-02 0.0 
-5.852178316850e-03 2.978746045751e-02 0.0 
2.445087151332e-02 1.190519081203e-01 0.0 
2.555295633296e-02 1.078567021982e-01 0.0 
2.790061950533e-02 1.058313391036e-01 0.0 
2.601538688653e-02 9.487075041808e-02 0.0 
2.283099734373e-02 1.080666031273e-01 0.0 
-4.681918198088e-03 3.678994806947e-02 0.0 
-3.889430400472e-03 3.698328594632e-02 0.0 
-3.348403717332e-03 4.017908985530e-02 0.0 
-3.006296872083e-03 3.662454192874e-02 0.0 
-2.358151685511e-03 3.960158927438e-02 0.0 
-2.617278602254e-03 4.310833111330e-02 0.0 
-2.059561834545e-03 3.578109147846e-02 0.0 
-1.370137338020e-03 3.895889657658e-02 0.0 
1.977573408235e-02 1.214823429285e-01 0.0 
8.952959949181e-03 -1.419064489463e-02 0.0 
5.441019700040e-03 -8.285526381288e-03 0.0 
6.531900272098e-03 2.322643946225e-03 0.0 
3.367868054997e-03 -2.816191826127e-03 0.0 
3.746935983865e-03 -1.157994126461e-02 0.0 
2.274050029160e-03 -5.637409558839e-03 0.0 
4.078391637286e-03 -1.273100811359e-02 0.0 
4.925171847043e-03 -1.852471831228e-02 0.0 
1.214260080791e-02 7.595677333554e-03 0.0 
7.476872113197e-03 1.125006734869e-02 0.0 
1.298871250928e-02 1.592876559047e-02 0.0 
8.305651164154e-03 1.920670075113e-02 0.0 
3.618342704748e-03 1.477329432445e-02 0.0 
-1.026182361165e-04 3.300154971512e-02 0.0 
-6.954611201576e-04 5.768651853177e-03 0.0 
-1.088980761975e-03 4.941068440595e-02 0.0 
-2.099946669062e-03 5.044294095769e-02 0.0 
-2.005383584236e-03 5.345484750106e-02 0.0 
-3.109002545873e-03 5.059385542052e-02 0.0 
-2.018050486967e-03 4.744863665957e-02 0.0 
-9.639748529293e-04 5.577795018698e-02 0.0 
-1.774338770945e-03 5.601485654059e-02 0.0 
5.370085898208e-03 6.271895544239e-02 0.0 
3.104763898279e-03 6.395890322146e-02 0.0 
1.534674185970e-03 6.529138744264e-02 0.0 
1.480492596383e-03 6.450237771706e-02 0.0 
2.451185400415e-03 6.285145459401e-02 0.0 
4.543588624513e-03 6.187974556397e-02 0.0 
5.879821091863e-03 5.902918232299e-02 0.0 
9.089668950139e-03 5.713394948060e-02 0.0 
6.988624552325e-03 5.552461248088e-02 0.0 
3.945647642358e-03 5.726901547069e-02 0.0 
1.064190771565e-02 5.341729725564e-02 0.0 
1.033050562164e-03 6.402965070676e-02 0.0 
1.962408368678e-03 5.720800811023e-02 0.0 
-1.530888724152e-04 4.193640040861e-03 0.0 
1.536575087791e-02 1.218521115420e-01 0.0 
1.363670875262e-02 3.070793140238e-02 0.0 
1.578019422646e-03 1.495803351498e-02 0.0 
2.367276563160e-03 1.229367900650e-02 0.0 
1.920549113701e-03 1.195816993042e-02 0.0 
-4.251362624610e-04 1.469035489373e-02 0.0 
-6.857632026881e-04 1.193872305787e-02 0.0 
8.645089030602e-04 1.458752830543e-02 0.0 
-4.821213746615e-03 3.681994844335e-02 0.0 
1.354051732902e-02 2.485230693419e-02 0.0 
4.438551716546e-03 3.896814979661e-02 0.0 
2.221522716125e-02 1.414653426711e-03 0.0 
-3.668097215073e-03 2.156817762297e-02 0.0 
-2.243932778251e-03 2.883034268335e-02 0.0 
-4.282916899777e-03 2.678696450092e-02 0.0 
-2.215570963024e-03 1.824229899803e-02 0.0 
-3.700268636553e-03 3.042482872388e-02 0.0 
-2.942881427305e-03 2.051870758652e-02 0.0 
3.823404177021e-03 7.076734850967e-03 0.0 
2.739952213474e-04 6.077632722404e-02 0.0 
1.222314678578e-02 8.808849483827e-02 0.0 
7.940235762883e-03 9.329965162377e-02 0.0 
7.364147915805e-03 6.041367902063e-02 0.0 
-4.333358841614e-03 4.847944307230e-02 0.0 
-3.651693004163e-03 4.328597059274e-02 0.0 
-5.057289339290e-04 4.783699822658e-02 0.0 
1.384235635752e-02 1.336801609216e-02 0.0 
4.475243437334e-02 8.256506587097e-02 0.0 
-8.980915997093e-04 1.691082214045e-02 0.0 
-6.164029250450e-03 3.809128831925e-02 0.0 
-5.282051768104e-03 3.171065495551e-02 0.0 
-2.566478799289e-03 1.597188764860e-02 0.0 
4.416898997243e-02 4.059275465524e-02 0.0 
-5.084111388545e-03 2.602287030860e-02 0.0 
-1.617050356032e-03 1.835099378726e-02 0.0 
5.643130536996e-03 5.296130313335e-02 0.0 
1.229322287398e-02 4.369940859777e-02 0.0 
-4.488216632185e-04 1.605307334343e-02 0.0 
-3.971035364040e-03 2.428231433261e-02 0.0 
1.683032031654e-02 8.219563010615e-02 0.0 
1.692005740048e-02 1.463512453917e-02 0.0 
8.102309640185e-04 1.928944808213e-03 0.0 
1.049741090940e-02 5.505909949891e-02 0.0 
1.009629850392e-02 3.016480100662e-02 0.0 
2.174683886290e-02 9.475325209397e-02 0.0 
2.537998801033e-03 4.861556717395e-02 0.0 
1.288107940488e-02 1.011878674914e-01 0.0 
1.288067455344e-03 9.449412107372e-03 0.0 
1.970410615077e-02 5.564512720279e-02 0.0 
-3.222984878113e-03 5.260088534703e-02 0.0 
1.676105900396e-02 1.003455645386e-02 0.0 
4.673777605705e-02 5.834988259317e-02 0.0 
3.479165988836e-02 1.187717099787e-01 0.0 
4.572104664195e-03 3.305114565951e-02 0.0 
3.764020589681e-02 2.703859656254e-02 0.0 
1.042100104350e-02 1.203280491849e-02 0.0 
1.537940754506e-02 1.340592677129e-02 0.0 
-3.031583262530e-03 5.424366609629e-02 0.0 
-1.818243398649e-03 1.553811934201e-02 0.0 
2.891642948146e-02 1.499363987843e-02 0.0 
8.448404522835e-03 4.139150006488e-02 0.0 
3.408333408819e-02 3.793077663102e-02 0.0 
2.162581200171e-02 4.822888284623e-03 0.0 
1.354193948197e-02 4.922308185491e-02 0.0 
3.595955653980e-03 1.239916965026e-02 0.0 
1.736715812810e-02 1.469551458715e-02 0.0 
4.598923526620e-02 8.057514007892e-02 0.0 
4.190176104269e-02 5.034358253531e-02 0.0 
3.591871371262e-02 5.647992447470e-02 0.0 
4.172793557378e-02 3.941496921528e-02 0.0 
-1.645949682913e-03 3.186387164445e-02 0.0 
-1.298158662111e-03 1.597258242700e-02 0.0 
9.896239766683e-03 -1.552378172584e-02 0.0 
4.287235724979e-02 4.488527626593e-02 0.0 
2.051806518419e-02 8.189640597584e-02 0.0 
2.337588716057e-02 2.179107557582e-02 0.0 
5.961378574260e-03 2.743396447381e-02 0.0 
4.694877371241e-02 6.305689123141e-02 0.0 
-2.510518706462e-03 1.823946546541e-02 0.0 
1.061819841979e-02 3.615417806070e-02 0.0 
-5.473855415861e-03 2.876786814236e-02 0.0 
-1.603372627174e-04 6.289022192555e-02 0.0 
1.886415600326e-02 -1.257694909696e-04 0.0 
2.068042671062e-02 -1.282613276632e-03 0.0 
3.575465316113e-02 2.278811593956e-02 0.0 
-4.915201599631e-03 2.745286342421e-02 0.0 
1.073511312527e-02 2.285865098135e-02 0.0 
-2.565381036499e-03 1.759122739535e-02 0.0 
4.038851027563e-03 1.396269602749e-02 0.0 
8.193308299259e-03 2.097685092148e-02 0.0 
3.760552101059e-02 1.101186742423e-01 0.0 
-2.415349101812e-03 1.655314937980e-02 0.0 
1.283931415436e-02 1.071229736810e-02 0.0 
1.397510937678e-02 1.291264724219e-02 0.0 
-1.587689267887e-03 4.239686145134e-02 0.0 
1.365271502548e-02 1.253392499532e-02 0.0 
4.142350097287e-02 1.061054102175e-01 0.0 
-2.110180765417e-03 1.515683279749e-02 0.0 
8.034419235245e-03 1.311096493633e-02 0.0 
3.542578942078e-02 2.081349130069e-02 0.0 
4.264437941451e-03 1.242471309005e-01 0.0 
-1.418812005073e-03 9.581148503199e-03 0.0 
6.789829187718e-03 1.182728147308e-02 0.0 
3.861213775546e-02 3.594134089561e-02 0.0 
9.471752667836e-03 9.987719544757e-03 0.0 
3.718631684576e-02 1.213995696552e-01 0.0 
-4.927867306092e-03 2.901781790120e-02 0.0 
4.004771383818e-02 5.105265949461e-02 0.0 
4.128458279979e-03 1.082798273703e-02 0.0 
7.740255933962e-03 1.099437569778e-02 0.0 
2.935873009302e-02 7.189188820474e-02 0.0 
-5.287476675440e-03 3.244264958531e-02 0.0 
2.831658968898e-02 2.137531796004e-02 0.0 
3.317738665541e-03 6.043854110549e-02 0.0 
4.035248068805e-02 1.110728556833e-01 0.0 
-4.829827275769e-03 3.338803130518e-02 0.0 
1.684405251608e-02 -1.585507040851e-03 0.0 
6.430015737978e-03 1.171323098839e-02 0.0 
1.147759197541e-02 9.815947301235e-03 0.0 
-4.203904187186e-03 3.374147403216e-02 0.0 
1.727728318450e-02 1.726581662328e-03 0.0 
-3.460555796251e-03 3.355580258905e-02 0.0 
3.795921748829e-02 1.190090113503e-01 0.0 
2.980607440613e-02 6.449196665369e-02 0.0 
-2.613268825032e-03 3.290660681199e-02 0.0 
3.615771054995e-02 4.406357214606e-02 0.0 
4.320565680623e-03 5.319333567157e-02 0.0 
3.556876203586e-02 3.076924026095e-02 0.0 
-9.605494155443e-04 1.739975187558e-02 0.0 
-4.551685004224e-03 2.227930698711e-02 0.0 
3.865420322650e-03 1.365823736052e-02 0.0 
2.639902865676e-02 5.296636426537e-02 0.0 
3.668333648511e-02 1.118050481663e-01 0.0 
4.188472992195e-03 1.448663612139e-02 0.0 
3.156851376062e-02 3.685400937809e-02 0.0 
3.221983539935e-02 2.639038637216e-02 0.0 
3.397737955536e-02 2.285717633173e-02 0.0 
4.286702476068e-03 1.461635768833e-02 0.0 
3.998673828828e-02 9.641444346451e-02 0.0 
-4.194340162127e-03 3.234897478300e-02 0.0 
-2.548521025392e-03 3.261316556162e-02 0.0 
1.324919799280e-02 2.886190763275e-03 0.0 
2.856573624160e-02 3.489019925765e-02 0.0 
9.467749162821e-04 6.296749562770e-02 0.0 
2.946206617639e-02 5.056084670032e-02 0.0 
9.699552788885e-04 2.734671664459e-02 0.0 
9.249801489443e-03 2.144488401595e-03 0.0 
2.431408462009e-02 1.980404993017e-02 0.0 
1.234390054763e-03 9.017810529478e-02 0.0 
5.893973268295e-03 5.387985685101e-03 0.0 
-5.074003453888e-04 6.092092822801e-02 0.0 
2.751980358301e-03 6.765146332805e-03 0.0 
3.137648973146e-02 2.245220027999e-02 0.0 
3.792371879682e-04 1.097407497958e-02 0.0 
-1.760293270938e-03 1.381286095104e-02 0.0 
3.078191416120e-03 2.537079628302e-02 0.0 
-3.298273188866e-03 1.826465475264e-02 0.0 
4.298508894347e-04 1.209636170896e-02 0.0 
-3.183619246788e-04 5.385505450851e-03 0.0 
1.610830323787e-03 1.151174474408e-01 0.0 
3.237838408697e-02 1.015004261959e-01 0.0 
4.658362284432e-03 -3.016228426426e-02 0.0 
3.632440517051e-02 8.063529422241e-02 0.0 
-4.268792724756e-03 2.185043770779e-02 0.0 
3.200961442557e-02 4.734409128135e-02 0.0 
3.347013786640e-03 1.145186348997e-01 0.0 
-4.573797048173e-03 2.687928182955e-02 0.0 
1.314491892468e-02 1.825511559700e-02 0.0 
6.497256209516e-03 5.569008314906e-03 0.0 
2.219287832489e-03 7.001177812971e-02 0.0 
1.103534718094e-02 1.150237005433e-02 0.0 
2.851602831906e-02 2.263523954630e-02 0.0 
6.377241540502e-04 3.721899394410e-02 0.0 
9.883224051017e-03 1.248235705909e-01 0.0 
8.927824731924e-03 2.663418169818e-02 0.0 
-7.884516233542e-04 2.986224333488e-02 0.0 
2.694531873441e-02 8.526037475382e-02 0.0 
2.931073562048e-02 6.343491188681e-02 0.0 
2.277242782852e-02 4.303868960918e-02 0.0 
-2.499976497684e-03 5.536726494296e-02 0.0 
3.807551392092e-03 6.327206488852e-03 0.0 
2.225952810479e-02 6.578469787092e-02 0.0 
7.458666724037e-03 7.695849226748e-03 0.0 
1.655659125393e-02 1.127096076665e-01 0.0 
2.379592284903e-02 1.995317766347e-02 0.0 
1.549601285012e-02 4.450260221465e-02 0.0 
7.319449699989e-03 2.350356134818e-02 0.0 
1.212858376675e-02 1.026404712636e-02 0.0 
-5.636166971049e-04 3.994603145923e-03 0.0 
1.838033905138e-02 1.549455227234e-02 0.0 
1.576864932236e-02 2.072474074902e-02 0.0 
2.395790429207e-02 9.879430851157e-02 0.0 
1.387898215027e-02 1.421589006774e-02 0.0 
2.996670293157e-03 5.913204773949e-02 0.0 
-6.971634108399e-04 4.075328294563e-03 0.0 
2.076333247156e-02 1.123583156810e-01 0.0 
1.884381520847e-03 2.375658527273e-02 0.0 
6.850024867092e-03 -1.600785022648e-02 0.0 
9.605975015800e-04 2.310283274835e-02 0.0 
2.713805705696e-02 3.785062527221e-02 0.0 
6.834282644746e-03 9.925014206558e-02 0.0 
2.847487855354e-02 9.607130365609e-02 0.0 
-8.081127832539e-04 9.260169512624e-03 0.0 
1.193496647831e-02 1.997851383050e-02 0.0 
1.199421736377e-02 7.217924916525e-03 0.0 
3.476158856447e-03 7.133764955691e-02 0.0 
-4.017921959174e-03 4.877385451233e-02 0.0 
5.861134615245e-03 -2.586176032485e-02 0.0 
-3.380291666406e-04 7.542404724795e-03 0.0 
2.161737597322e-02 2.850577844867e-02 0.0 
-1.189305840167e-03 9.155365117950e-03 0.0 
7.040613420105e-04 6.524341975542e-02 0.0 
9.594481241181e-03 3.982888397294e-02 0.0 
8.253948591279e-04 6.558270954213e-03 0.0 
1.291233617715e-02 1.525119966798e-02 0.0 
3.894571933515e-03 -8.739693537000e-03 0.0 
2.482309312531e-03 9.506017166956e-03 0.0 
6.506716576975e-03 -4.991551148336e-03 0.0 
1.347635952757e-02 1.255854890044e-01 0.0 
8.125985199887e-03 5.177425406869e-02 0.0 
-6.864534728919e-04 4.287996972828e-03 0.0 
4.432505666354e-03 2.243530661655e-02 0.0 
-2.844966264272e-03 4.814691538582e-02 0.0 
2.911405958905e-02 1.141827479250e-01 0.0 
-1.393059082235e-03 5.847486563602e-02 0.0 
1.816297863860e-02 1.655778658816e-02 0.0 
5.192231083810e-03 2.194367330717e-02 0.0 
3.055265231543e-03 2.134956002569e-02 0.0 
2.444443557431e-03 6.173576379893e-03 0.0 
8.572549815809e-03 1.972582589487e-02 0.0 
3.609844863851e-03 3.347417534978e-03 0.0 
6.729467024152e-03 -2.378263179761e-02 0.0 
1.107766188229e-02 9.474921348032e-03 0.0 
6.005514667686e-03 9.014496999939e-03 0.0 
7.421749861896e-03 1.255308818407e-01 0.0 
1.057862513377e-02 2.033806132814e-02 0.0 
-2.716262636470e-03 5.337504785538e-02 0.0 
1.963602365114e-03 5.571869402168e-02 0.0 
1.832702137141e-04 1.072659485169e-02 0.0 
1.694860367774e-03 6.488132253410e-02 0.0 
1.251579492089e-03 1.256829249458e-01 0.0 
-1.232467130732e-04 4.422203867614e-03 0.0 
1.636438888846e-03 6.137336235134e-02 0.0 
2.657129158763e-03 1.059823460903e-01 0.0 
1.213687727106e-02 1.544936695918e-02 0.0 
-6.895007596915e-04 4.209401291418e-02 0.0 
1.476796116139e-03 4.632714221994e-02 0.0 
2.041769360057e-03 1.745411121719e-03 0.0 
6.756351629063e-03 -3.128626261398e-02 0.0 
2.125204076811e-03 8.362098467719e-02 0.0 
1.018245596217e-02 8.661552965325e-03 0.0 
6.773189516845e-03 1.944476991057e-02 0.0 
5.480235219509e-03 9.231163565090e-02 0.0 
1.550896101748e-02 6.225682118828e-04 0.0 
1.688242276844e-02 2.140826614472e-02 0.0 
-2.917095452381e-03 4.549607991107e-02 0.0 
1.854647704496e-02 1.882620428256e-02 0.0 
8.860790812210e-03 9.542567030098e-03 0.0 
7.126586006914e-04 -2.633407346182e-03 0.0 
-5.766652444185e-04 3.822930272812e-02 0.0 
9.114551209739e-03 4.773385537273e-02 0.0 
-1.108416761039e-03 7.433849357261e-03 0.0 
-1.920425896959e-03 4.480298247182e-02 0.0 
3.191959868303e-02 1.360838066172e-01 0.0 
8.401220239640e-04 1.623432059825e-01 0.0 
3.212790988900e-02 1.345305934552e-01 0.0 
8.179747381849e-04 1.514862000772e-01 0.0 
3.035303549329e-02 1.296474273039e-01 0.0 
8.404861437614e-04 1.401902462778e-01 0.0 

TENSORS node_materi_stress float
-9.597049788369e+00 3.086807324217e-02 0.0 
3.086807324217e-02 -8.503705694668e+00 0.0 
0.0 0.0 -4.195958222214e+00 
-4.169091730688e+01 4.462449009241e-01 0.0 
4.462449009241e-01 -5.947619566823e+01 0.0 
0.0 0.0 -2.995013389253e+01 
-1.668602984572e+02 -1.193379983742e-01 0.0 
-1.193379983742e-01 -3.920650963255e+02 0.0 
0.0 0.0 -1.672776184348e+02 
-1.085134006010e+02 8.735260818595e-01 0.0 
8.735260818595e-01 -2.516607243709e+02 0.0 
0.0 0.0 -1.076522374916e+02 
-9.196267790920e+00 -1.571983143909e-01 0.0 
-1.571983143909e-01 -2.076388061513e+01 0.0 
0.0 0.0 -6.767152254803e+00 
-1.183298350457e+01 -5.441311027329e-01 0.0 
-5.441311027329e-01 -4.032036282244e+01 0.0 
0.0 0.0 -1.296824588735e+01 
-1.496268228086e+01 -6.284967287630e-01 0.0 
-6.284967287630e-01 -5.854011593526e+01 0.0 
0.0 0.0 -2.085843711093e+01 
-2.548407864993e+01 -7.780111959442e-01 0.0 
-7.780111959442e-01 -7.967366805779e+01 0.0 
0.0 0.0 -3.039397669266e+01 
-4.105346771205e+01 -7.513066776358e-01 0.0 
-7.513066776358e-01 -1.003232687339e+02 0.0 
0.0 0.0 -3.958349149126e+01 
-5.470301250135e+01 -7.605767886490e-01 0.0 
-7.605767886490e-01 -1.209142362217e+02 0.0 
0.0 0.0 -4.868225699446e+01 
-6.668409148277e+01 -7.976063229037e-01 0.0 
-7.976063229037e-01 -1.416278317194e+02 0.0 
0.0 0.0 -5.771611071929e+01 
-7.718602750061e+01 -7.656604416608e-01 0.0 
-7.656604416608e-01 -1.623728227968e+02 0.0 
0.0 0.0 -6.667352736973e+01 
-8.632319809068e+01 -7.284248390536e-01 0.0 
-7.284248390536e-01 -1.831136459211e+02 0.0 
0.0 0.0 -7.558555995446e+01 
-9.447354150956e+01 -7.219576634563e-01 0.0 
-7.219576634563e-01 -2.039475295465e+02 0.0 
0.0 0.0 -8.447106914898e+01 
-1.017159438264e+02 -7.770745941287e-01 0.0 
-7.770745941287e-01 -2.251663642969e+02 0.0 
0.0 0.0 -9.346758329667e+01 
-1.082932033053e+02 -6.705306417663e-01 0.0 
-6.705306417663e-01 -2.455202229201e+02 0.0 
0.0 0.0 -1.022573162641e+02 
-1.139996151296e+02 -7.953050891977e-01 0.0 
-7.953050891977e-01 -2.638527681477e+02 0.0 
0.0 0.0 -1.102299450892e+02 
-1.195683772431e+02 -3.422804232843e-01 0.0 
-3.422804232843e-01 -2.838466740887e+02 0.0 
0.0 0.0 -1.188568102358e+02 
-1.251514308763e+02 -2.385068312537e-01 0.0 
-2.385068312537e-01 -3.041058547169e+02 0.0 
0.0 0.0 -1.277309581359e+02 
-1.322067091076e+02 -1.822972036161e-01 0.0 
-1.822972036161e-01 -3.235544622181e+02 0.0 
0.0 0.0 -1.363221959445e+02 
-1.415978604681e+02 -1.043920486996e-01 0.0 
-1.043920486996e-01 -3.429703902679e+02 0.0 
0.0 0.0 -1.449704752208e+02 
-1.513486371488e+02 -1.149288672212e-01 0.0 
-1.149288672212e-01 -3.624305610142e+02 0.0 
0.0 0.0 -1.537337594489e+02 
-1.608304082976e+02 -1.788425475282e-01 0.0 
-1.788425475282e-01 -3.809259779961e+02 0.0 
0.0 0.0 -1.621269158881e+02 
-1.087951922726e+02 1.285149549293e+00 0.0 
1.285149549293e+00 -2.528922184950e+02 0.0 
0.0 0.0 -1.081062232303e+02 
-1.082826846425e+02 2.311178152681e+00 0.0 
2.311178152681e+00 -2.519128458230e+02 0.0 
0.0 0.0 -1.076586591396e+02 
-1.084808581150e+02 3.674645036371e+00 0.0 
3.674645036371e+00 -2.523195194202e+02 0.0 
0.0 0.0 -1.078401132606e+02 
-1.085211121931e+02 4.471264636909e+00 0.0 
4.471264636909e+00 -2.525775527838e+02 0.0 
0.0 0.0 -1.079295994931e+02 
-1.086277087096e+02 5.798170354059e+00 0.0 
5.798170354059e+00 -2.523041617221e+02 0.0 
0.0 0.0 -1.078795611295e+02 
-1.090968083119e+02 7.115368012141e+00 0.0 
7.115368012141e+00 -2.534228158552e+02 0.0 
0.0 0.0 -1.083558872501e+02 
-1.098513295753e+02 8.562851094628e+00 0.0 
8.562851094628e+00 -2.544701681892e+02 0.0 
0.0 0.0 -1.088964493293e+02 
-1.099353040273e+02 1.020003865817e+01 0.0 
1.020003865817e+01 -2.550523571000e+02 0.0 
0.0 0.0 -1.090962983382e+02 
-1.109153401546e+02 1.192832197738e+01 0.0 
1.192832197738e+01 -2.570188223041e+02 0.0 
0.0 0.0 -1.099802487376e+02 
-1.113620733550e+02 1.334890399474e+01 0.0 
1.334890399474e+01 -2.583963621500e+02 0.0 
0.0 0.0 -1.105275306515e+02 
-1.121918699977e+02 1.522855580796e+01 0.0 
1.522855580796e+01 -2.595061930644e+02 0.0 
0.0 0.0 -1.111094189186e+02 
-1.132562489565e+02 1.718367917775e+01 0.0 
1.718367917775e+01 -2.622560790375e+02 0.0 
0.0 0.0 -1.122536983982e+02 
-1.149734801282e+02 1.918763790169e+01 0.0 
1.918763790169e+01 -2.655589230860e+02 0.0 
0.0 0.0 -1.137597209643e+02 
-1.158041814516e+02 2.118653028460e+01 0.0 
2.118653028460e+01 -2.681799399759e+02 0.0 
0.0 0.0 -1.147952364282e+02 
-1.175333366201e+02 2.319368541899e+01 0.0 
2.319368541899e+01 -2.715327119628e+02 0.0 
0.0 0.0 -1.163198145749e+02 
-1.186786939502e+02 2.497974400680e+01 0.0 
2.497974400680e+01 -2.749269589382e+02 0.0 
0.0 0.0 -1.176816958665e+02 
-1.207293119548e+02 2.689335940733e+01 0.0 
2.689335940733e+01 -2.796082002734e+02 0.0 
0.0 0.0 -1.197012536684e+02 
-1.235401274463e+02 2.870165955976e+01 0.0 
2.870165955976e+01 -2.859781450905e+02 0.0 
0.0 0.0 -1.224554817610e+02 
-1.258525253991e+02 3.026474675413e+01 0.0 
3.026474675413e+01 -2.922511731562e+02 0.0 
0.0 0.0 -1.250311095666e+02 
-1.283579733372e+02 3.155275554892e+01 0.0 
3.155275554892e+01 -2.988764322712e+02 0.0 
0.0 0.0 -1.277703216825e+02 
-1.307829352328e+02 3.237415744169e+01 0.0 
3.237415744169e+01 -3.053965861429e+02 0.0 
0.0 0.0 -1.304538564127e+02 
-1.335807387905e+02 3.304327286436e+01 0.0 
3.304327286436e+01 -3.120732019515e+02 0.0 
0.0 0.0 -1.332961822226e+02 
-1.361335719456e+02 3.324720876652e+01 0.0 
3.324720876652e+01 -3.189566729640e+02 0.0 
0.0 0.0 -1.361270734729e+02 
-1.387839036832e+02 3.310927350992e+01 0.0 
3.310927350992e+01 -3.257631690687e+02 0.0 
0.0 0.0 -1.389641218256e+02 
-1.415188875050e+02 3.263445328022e+01 0.0 
3.263445328022e+01 -3.326568390254e+02 0.0 
0.0 0.0 -1.418527179591e+02 
-1.442389274081e+02 3.192419217941e+01 0.0 
3.192419217941e+01 -3.393454072076e+02 0.0 
0.0 0.0 -1.446753003847e+02 
-1.466498030231e+02 3.087306336308e+01 0.0 
3.087306336308e+01 -3.455741661303e+02 0.0 
0.0 0.0 -1.472671907460e+02 
-1.489994951031e+02 2.960861152435e+01 0.0 
2.960861152435e+01 -3.513322398144e+02 0.0 
0.0 0.0 -1.496995204753e+02 
-1.510304789321e+02 2.814194743297e+01 0.0 
2.814194743297e+01 -3.564832122451e+02 0.0 
0.0 0.0 -1.518541073531e+02 
-1.535862941077e+02 2.678281912020e+01 0.0 
2.678281912020e+01 -3.620055973518e+02 0.0 
0.0 0.0 -1.542775674378e+02 
-1.551123645993e+02 2.479346465659e+01 0.0 
2.479346465659e+01 -3.664861200990e+02 0.0 
0.0 0.0 -1.560795454095e+02 
-1.564437398160e+02 2.314536914724e+01 0.0 
2.314536914724e+01 -3.698566597063e+02 0.0 
0.0 0.0 -1.574901198567e+02 
-1.582330080467e+02 2.122764996093e+01 0.0 
2.122764996093e+01 -3.739756634658e+02 0.0 
0.0 0.0 -1.592626014538e+02 
-1.598199014190e+02 1.941469433610e+01 0.0 
1.941469433610e+01 -3.776647645356e+02 0.0 
0.0 0.0 -1.608453997864e+02 
-1.612140616889e+02 1.752926431357e+01 0.0 
1.752926431357e+01 -3.809373566520e+02 0.0 
0.0 0.0 -1.622454255023e+02 
-1.624990696664e+02 1.568034486575e+01 0.0 
1.568034486575e+01 -3.837084629239e+02 0.0 
0.0 0.0 -1.634622597771e+02 
-1.634564557010e+02 1.387255038429e+01 0.0 
1.387255038429e+01 -3.859689758822e+02 0.0 
0.0 0.0 -1.644276294750e+02 
-1.642239654851e+02 1.209843511563e+01 0.0 
1.209843511563e+01 -3.876024284277e+02 0.0 
0.0 0.0 -1.651479181738e+02 
-1.647439207574e+02 1.052452207378e+01 0.0 
1.052452207378e+01 -3.887501705782e+02 0.0 
0.0 0.0 -1.656482274007e+02 
-1.650952935690e+02 8.946240517180e+00 0.0 
8.946240517180e+00 -3.894901074330e+02 0.0 
0.0 0.0 -1.659756203006e+02 
-1.657799197274e+02 7.713103469239e+00 0.0 
7.713103469239e+00 -3.906155713552e+02 0.0 
0.0 0.0 -1.665186473248e+02 
-1.665992420226e+02 6.389466885298e+00 0.0 
6.389466885298e+00 -3.920064102051e+02 0.0 
0.0 0.0 -1.671816956683e+02 
-1.669729394850e+02 5.421830835628e+00 0.0 
5.421830835628e+00 -3.926280224409e+02 0.0 
0.0 0.0 -1.674802885778e+02 
-1.657503678691e+02 4.315553077414e+00 0.0 
4.315553077414e+00 -3.905323502464e+02 0.0 
0.0 0.0 -1.664848154346e+02 
-1.671116332874e+02 3.341480265249e+00 0.0 
3.341480265249e+00 -3.926465819078e+02 0.0 
0.0 0.0 -1.675274645586e+02 
-1.667283480094e+02 2.593858291905e+00 0.0 
2.593858291905e+00 -3.919546683813e+02 0.0 
0.0 0.0 -1.672049049172e+02 
-1.671073867610e+02 2.103011006755e+00 0.0 
2.103011006755e+00 -3.925176694016e+02 0.0 
0.0 0.0 -1.674875168488e+02 
-1.674324528165e+02 1.202818962173e+00 0.0 
1.202818962173e+00 -3.931540714994e+02 0.0 
0.0 0.0 -1.677759572948e+02 
-1.673711027158e+02 7.065376517161e-01 0.0 
7.065376517161e-01 -3.930612430342e+02 0.0 
0.0 0.0 -1.677297037250e+02 
-5.005953981836e+01 3.445993321148e-01 0.0 
3.445993321148e-01 -7.932969393353e+01 0.0 
0.0 0.0 -3.841677012557e+01 
-5.781217468591e+01 4.277788375673e-01 0.0 
4.277788375673e-01 -9.918856117368e+01 0.0 
0.0 0.0 -4.670022075788e+01 
-6.546518666267e+01 4.536335454284e-01 0.0 
4.536335454284e-01 -1.189583638875e+02 0.0 
0.0 0.0 -5.492706516507e+01 
-7.264953814043e+01 5.282733353395e-01 0.0 
5.282733353395e-01 -1.384230276830e+02 0.0 
0.0 0.0 -6.292176974703e+01 
-7.973392703555e+01 5.275936771832e-01 0.0 
5.275936771832e-01 -1.584565934260e+02 0.0 
0.0 0.0 -7.105715613847e+01 
-8.682413133430e+01 6.172294788330e-01 0.0 
6.172294788330e-01 -1.787219543643e+02 0.0 
0.0 0.0 -7.926382570959e+01 
-9.326682497401e+01 6.066453214039e-01 0.0 
6.066453214039e-01 -1.988407608166e+02 0.0 
0.0 0.0 -8.723227573717e+01 
-9.932163744089e+01 7.322332055842e-01 0.0 
7.322332055842e-01 -2.188579102803e+02 0.0 
0.0 0.0 -9.505386431635e+01 
-1.057326475100e+02 7.994381938194e-01 0.0 
7.994381938194e-01 -2.397163772600e+02 0.0 
0.0 0.0 -1.032347074310e+02 
-6.851595077657e+01 3.216117900290e+01 0.0 
3.216117900290e+01 -6.965491087698e+01 0.0 
0.0 0.0 -4.187464265197e+01 
-5.523257025119e+01 6.755250721129e+00 0.0 
6.755250721129e+00 -6.342175993669e+01 0.0 
0.0 0.0 -3.469423960528e+01 
-4.867351743011e+01 3.404280820631e+01 0.0 
3.404280820631e+01 -3.208016010183e+01 0.0 
0.0 0.0 -2.282243274595e+01 
-4.520341325804e+01 3.078993026970e+01 0.0 
3.078993026970e+01 -3.045950485036e+01 0.0 
0.0 0.0 -1.882788404756e+01 
-4.366670406393e+01 2.961527672224e+01 0.0 
2.961527672224e+01 -2.865723423479e+01 0.0 
0.0 0.0 -1.809478882998e+01 
-4.143716934404e+01 2.859212098680e+01 0.0 
2.859212098680e+01 -2.721466967619e+01 0.0 
0.0 0.0 -1.755115480926e+01 
-3.969867506599e+01 2.753390316696e+01 0.0 
2.753390316696e+01 -2.721033855507e+01 0.0 
0.0 0.0 -1.667851046096e+01 
-4.049220423014e+01 2.621060828882e+01 0.0 
2.621060828882e+01 -2.694780912369e+01 0.0 
0.0 0.0 -1.546480168685e+01 
-4.837448523009e+01 1.849941384060e+01 0.0 
1.849941384060e+01 -2.221028500681e+01 0.0 
0.0 0.0 -1.638507543720e+01 
-4.222375691197e+01 9.410871391994e+00 0.0 
9.410871391994e+00 -2.370757618321e+01 0.0 
0.0 0.0 -1.649702060446e+01 
-4.837150296959e+01 7.582749274935e+00 0.0 
7.582749274935e+00 -4.290671614474e+01 0.0 
0.0 0.0 -2.540100974765e+01 
-2.055358671463e+01 7.208900576170e-01 0.0 
7.208900576170e-01 -7.279374418067e+00 0.0 
0.0 0.0 -7.949888339811e+00 
-2.558802204781e+01 8.003901312645e-01 0.0 
8.003901312645e-01 -1.970991838871e+01 0.0 
0.0 0.0 -1.318938213096e+01 
-3.359904352595e+01 5.347874585146e-01 0.0 
5.347874585146e-01 -3.917318147012e+01 0.0 
0.0 0.0 -2.143166749882e+01 
-4.088387355186e+01 -1.928982403792e-01 0.0 
-1.928982403792e-01 -5.681930130685e+01 0.0 
0.0 0.0 -2.891095245761e+01 
-4.158025850892e+01 6.216245307757e-02 0.0 
6.216245307757e-02 -5.796461057827e+01 0.0 
0.0 0.0 -2.946346072616e+01 
-4.166420450842e+01 1.234045821416e-01 0.0 
1.234045821416e-01 -5.797968281105e+01 0.0 
0.0 0.0 -2.949316619584e+01 
-4.182071469218e+01 2.292705831965e-01 0.0 
2.292705831965e-01 -5.776425854079e+01 0.0 
0.0 0.0 -2.947549196989e+01 
-4.334039377139e+01 3.132803149746e-01 0.0 
3.132803149746e-01 -6.043357168955e+01 0.0 
0.0 0.0 -3.073218963828e+01 
-4.262803873443e+01 3.421813064078e-01 0.0 
3.421813064078e-01 -5.808343975180e+01 0.0 
0.0 0.0 -2.981344354587e+01 
-4.317858690398e+01 4.944106918588e-01 0.0 
4.944106918588e-01 -5.795384440783e+01 0.0 
0.0 0.0 -2.993972939354e+01 
-4.372931366401e+01 5.740556332199e-01 0.0 
5.740556332199e-01 -5.818208652532e+01 0.0 
0.0 0.0 -3.017342005680e+01 
-4.458311028744e+01 8.611126949388e-01 0.0 
8.611126949388e-01 -5.869702373463e+01 0.0 
0.0 0.0 -3.058404020662e+01 
-4.542960862247e+01 1.155033516058e+00 0.0 
1.155033516058e+00 -5.877077620363e+01 0.0 
0.0 0.0 -3.086011544783e+01 
-4.653115695825e+01 1.683462027809e+00 0.0 
1.683462027809e+00 -5.894127788717e+01 0.0 
0.0 0.0 -3.124173045363e+01 
-4.774534694067e+01 2.378641836234e+00 0.0 
2.378641836234e+00 -5.922198947642e+01 0.0 
0.0 0.0 -3.166729583783e+01 
-4.948238625144e+01 3.291394999329e+00 0.0 
3.291394999329e+00 -5.990010930234e+01 0.0 
0.0 0.0 -3.231682775786e+01 
-5.154854459902e+01 4.603110666140e+00 0.0 
4.603110666140e+00 -6.103238916803e+01 0.0 
0.0 0.0 -3.315269237812e+01 
-9.457538986837e+01 1.575658332117e+01 0.0 
1.575658332117e+01 -9.621178339273e+01 0.0 
0.0 0.0 -5.759728499490e+01 
-1.124969475018e+02 3.559140720407e+00 0.0 
3.559140720407e+00 -1.041855060538e+02 0.0 
0.0 0.0 -6.537181085521e+01 
-1.192854222765e+02 -2.160155704180e+00 0.0 
-2.160155704180e+00 -1.038537825176e+02 0.0 
0.0 0.0 -6.727593178706e+01 
-1.086352058508e+02 -1.028297206581e+01 0.0 
-1.028297206581e+01 -9.501718988388e+01 0.0 
0.0 0.0 -6.142933628521e+01 
-7.266892059343e+01 -2.141772418546e+01 0.0 
-2.141772418546e+01 -5.664616469762e+01 0.0 
0.0 0.0 -3.917341583075e+01 
-3.973641909558e+01 -1.523245080395e+01 0.0 
-1.523245080395e+01 -1.985030122894e+01 0.0 
0.0 0.0 -1.760187515684e+01 
-2.263652318270e+01 -4.094471407391e+00 0.0 
-4.094471407391e+00 -1.082266703470e+01 0.0 
0.0 0.0 -9.469575740796e+00 
-1.615128357700e+01 -9.745283128737e-01 0.0 
-9.745283128737e-01 -9.228414801624e+00 0.0 
0.0 0.0 -6.987329213151e+00 
-1.334123180233e+01 5.487881256533e-02 0.0 
5.487881256533e-02 -8.560669359978e+00 0.0 
0.0 0.0 -6.199872300283e+00 
-1.239340189250e+01 3.780498147215e-01 0.0 
3.780498147215e-01 -7.903199442949e+00 0.0 
0.0 0.0 -5.656686153414e+00 
-1.175754449990e+01 1.728947695501e-01 0.0 
1.728947695501e-01 -7.976409145693e+00 0.0 
0.0 0.0 -5.266165854372e+00 
-1.164890189813e+01 -1.157305011145e-01 0.0 
-1.157305011145e-01 -8.746676459327e+00 0.0 
0.0 0.0 -5.256879514950e+00 
-1.120365641502e+01 -2.576675587085e-01 0.0 
-2.576675587085e-01 -8.546332143454e+00 0.0 
0.0 0.0 -4.603953092300e+00 
-1.053051665417e+01 -1.735907142542e-01 0.0 
-1.735907142542e-01 -7.879372559576e+00 0.0 
0.0 0.0 -4.208700250227e+00 
-9.886435294977e+00 -1.218253237073e-01 0.0 
-1.218253237073e-01 -7.951948243692e+00 0.0 
0.0 0.0 -4.027880642539e+00 
-9.574113376033e+00 -8.700328998650e-02 0.0 
-8.700328998650e-02 -8.215087496920e+00 0.0 
0.0 0.0 -3.994306732300e+00 
-9.350171905707e+00 -1.176273548230e-02 0.0 
-1.176273548230e-02 -8.261655191812e+00 0.0 
0.0 0.0 -3.914892978276e+00 
-9.284370970542e+00 -4.260744667712e-02 0.0 
-4.260744667712e-02 -7.801824177257e+00 0.0 
0.0 0.0 -3.796626553259e+00 
-9.554701908678e+00 -1.342760504736e-01 0.0 
-1.342760504736e-01 -7.130484291642e+00 0.0 
0.0 0.0 -3.758273614573e+00 
-3.464734012564e+01 6.021081476493e+00 0.0 
6.021081476493e+00 -5.671698838773e+00 0.0 
0.0 0.0 -8.283194895003e+00 
-2.703877630723e+01 3.846281235783e+00 0.0 
3.846281235783e+00 -1.031501248052e+01 0.0 
0.0 0.0 -8.189805030235e+00 
-2.254800319101e+01 1.724664047828e+00 0.0 
1.724664047828e+00 -1.045638731702e+01 0.0 
0.0 0.0 -7.704493594117e+00 
-2.047372630946e+01 6.436571220872e-01 0.0 
6.436571220872e-01 -9.910759244483e+00 0.0 
0.0 0.0 -7.384310585242e+00 
-1.950033483718e+01 8.762019317797e-02 0.0 
8.762019317797e-02 -9.781541229759e+00 0.0 
0.0 0.0 -7.574047179001e+00 
-1.918675330501e+01 -1.570289518461e-01 0.0 
-1.570289518461e-01 -9.723675655008e+00 0.0 
0.0 0.0 -7.781803897201e+00 
-1.909561176413e+01 -2.820003083514e-01 0.0 
-2.820003083514e-01 -9.720965672366e+00 0.0 
0.0 0.0 -7.933707493547e+00 
-1.923885188825e+01 -3.267121597747e-01 0.0 
-3.267121597747e-01 -9.718193523984e+00 0.0 
0.0 0.0 -8.071553518613e+00 
-1.948555218229e+01 -3.208105179303e-01 0.0 
-3.208105179303e-01 -9.731352213893e+00 0.0 
0.0 0.0 -8.232807735088e+00 
-1.975609304750e+01 -2.890002342729e-01 0.0 
-2.890002342729e-01 -9.742127015097e+00 0.0 
0.0 0.0 -8.395382818038e+00 
-2.001106544935e+01 -2.208639030049e-01 0.0 
-2.208639030049e-01 -9.771970457856e+00 0.0 
0.0 0.0 -8.534910772161e+00 
-2.027293878589e+01 -1.639615481982e-01 0.0 
-1.639615481982e-01 -9.811228976024e+00 0.0 
0.0 0.0 -8.625250328574e+00 
-2.050287182271e+01 -1.315418875743e-01 0.0 
-1.315418875743e-01 -9.832640561839e+00 0.0 
0.0 0.0 -8.700653715365e+00 
-2.067728617646e+01 -9.519402706967e-02 0.0 
-9.519402706967e-02 -9.841623218719e+00 0.0 
0.0 0.0 -8.755672818554e+00 
-2.079634382964e+01 -5.237059680121e-02 0.0 
-5.237059680121e-02 -9.844359113868e+00 0.0 
0.0 0.0 -8.792210883053e+00 
-2.085219541096e+01 2.971251133839e-03 0.0 
2.971251133839e-03 -9.822133713710e+00 0.0 
0.0 0.0 -8.802298737400e+00 
-2.084761313508e+01 9.979394864246e-02 0.0 
9.979394864246e-02 -9.768230438101e+00 0.0 
0.0 0.0 -8.784753071955e+00 
-2.078258289764e+01 2.133867752119e-01 0.0 
2.133867752119e-01 -9.176083899877e+00 0.0 
0.0 0.0 -8.587600039255e+00 
-2.064189234539e+01 -2.792997202042e-01 0.0 
-2.792997202042e-01 -6.891588716876e+00 0.0 
0.0 0.0 -7.860044318679e+00 
-2.545435342302e+01 -2.362393792426e-01 0.0 
-2.362393792426e-01 -1.970575321358e+01 0.0 
0.0 0.0 -1.314803199098e+01 
-2.524475323623e+01 1.710814451691e-02 0.0 
1.710814451691e-02 -1.955281355466e+01 0.0 
0.0 0.0 -1.303927003727e+01 
-2.520952747740e+01 4.413299780706e-03 0.0 
4.413299780706e-03 -1.952833845864e+01 0.0 
0.0 0.0 -1.302135978081e+01 
-2.520041226882e+01 -4.860713369881e-02 0.0 
-4.860713369881e-02 -1.956108104527e+01 0.0 
0.0 0.0 -1.302844799423e+01 
-2.522298281215e+01 -1.003439015848e-01 0.0 
-1.003439015848e-01 -1.956953507698e+01 0.0 
0.0 0.0 -1.303775536674e+01 
-2.522743166207e+01 -1.511644820922e-01 0.0 
-1.511644820922e-01 -1.958009220857e+01 0.0 
0.0 0.0 -1.304225716119e+01 
-2.524892780859e+01 -1.910083357204e-01 0.0 
-1.910083357204e-01 -1.960060334610e+01 0.0 
0.0 0.0 -1.305485934641e+01 
-2.529079298245e+01 -2.072518162298e-01 0.0 
-2.072518162298e-01 -1.959632580498e+01 0.0 
0.0 0.0 -1.306613563623e+01 
-2.539786214926e+01 -2.543892667645e-01 0.0 
-2.543892667645e-01 -1.957693440146e+01 0.0 
0.0 0.0 -1.306539736485e+01 
-2.555257880051e+01 -2.838364221699e-01 0.0 
-2.838364221699e-01 -1.962942834190e+01 0.0 
0.0 0.0 -1.306142875047e+01 
-2.589368723240e+01 -2.498492545997e-01 0.0 
-2.498492545997e-01 -1.968183577225e+01 0.0 
0.0 0.0 -1.305666519942e+01 
-2.640742218558e+01 -1.406618181590e-01 0.0 
-1.406618181590e-01 -1.975613078659e+01 0.0 
0.0 0.0 -1.309951651940e+01 
-2.715270355891e+01 8.990409745126e-02 0.0 
8.990409745126e-02 -1.990855118390e+01 0.0 
0.0 0.0 -1.321082640348e+01 
-2.828968661977e+01 5.108595135575e-01 0.0 
5.108595135575e-01 -2.007370328060e+01 0.0 
0.0 0.0 -1.333501833906e+01 
-2.971720057417e+01 1.224285970119e+00 0.0 
1.224285970119e+00 -2.054785198648e+01 0.0 
0.0 0.0 -1.353879996111e+01 
-3.309434875575e+01 3.037333183816e+00 0.0 
3.037333183816e+00 -2.236643949688e+01 0.0 
0.0 0.0 -1.460565751427e+01 
-3.449290740972e+01 4.510565048408e+00 0.0 
4.510565048408e+00 -1.895574091449e+01 0.0 
0.0 0.0 -1.349651220085e+01 
-4.359881048099e+01 4.516842790790e+00 0.0 
4.516842790790e+00 -3.908739504301e+01 0.0 
0.0 0.0 -2.337729374657e+01 
-4.280691426448e+01 3.397716054304e+00 0.0 
3.397716054304e+00 -4.213728714658e+01 0.0 
0.0 0.0 -2.439107162913e+01 
-3.999610616506e+01 1.976809516798e+00 0.0 
1.976809516798e+00 -4.029809609251e+01 0.0 
0.0 0.0 -2.326294323867e+01 
-3.840657157077e+01 1.262015845288e+00 0.0 
1.262015845288e+00 -3.984069128966e+01 0.0 
0.0 0.0 -2.282542529686e+01 
-3.716598888726e+01 8.248821073210e-01 0.0 
8.248821073210e-01 -3.959974339821e+01 0.0 
0.0 0.0 -2.250150337705e+01 
-3.624331438255e+01 4.934014764774e-01 0.0 
4.934014764774e-01 -3.947213212696e+01 0.0 
0.0 0.0 -2.227255409529e+01 
-3.555955440259e+01 2.733234761965e-01 0.0 
2.733234761965e-01 -3.930156721353e+01 0.0 
0.0 0.0 -2.205833648484e+01 
-3.505462182374e+01 1.874383354664e-01 0.0 
1.874383354664e-01 -3.922710111093e+01 0.0 
0.0 0.0 -2.188451688040e+01 
-3.473492915872e+01 8.704408929959e-02 0.0 
8.704408929959e-02 -3.927988393185e+01 0.0 
0.0 0.0 -2.180444392717e+01 
-3.436821385790e+01 4.828901394902e-02 0.0 
4.828901394902e-02 -3.922495193933e+01 0.0 
0.0 0.0 -2.167794973917e+01 
-3.411733043461e+01 2.233167067153e-02 0.0 
2.233167067153e-02 -3.918887324063e+01 0.0 
0.0 0.0 -2.159186110257e+01 
-3.394017436833e+01 5.203906486405e-02 0.0 
5.203906486405e-02 -3.917823608838e+01 0.0 
0.0 0.0 -2.153552313701e+01 
-3.377436612033e+01 2.648155354219e-02 0.0 
2.648155354219e-02 -3.917515774066e+01 0.0 
0.0 0.0 -2.148485715830e+01 
-3.367693150015e+01 4.682455276382e-02 0.0 
4.682455276382e-02 -3.909823351260e+01 0.0 
0.0 0.0 -2.143254950382e+01 
-3.366238488539e+01 1.209321616125e-01 0.0 
1.209321616125e-01 -3.927445130917e+01 0.0 
0.0 0.0 -2.148105085837e+01 
-3.357562476378e+01 -4.723434303083e-01 0.0 
-4.723434303083e-01 -3.941934716360e+01 0.0 
0.0 0.0 -2.149849157821e+01 
-5.132608366818e+01 3.784439398664e+01 0.0 
3.784439398664e+01 -4.016948226996e+01 0.0 
0.0 0.0 -2.803707776287e+01 
-4.642056791747e+01 3.229180140472e+01 0.0 
3.229180140472e+01 -3.158508610259e+01 0.0 
0.0 0.0 -2.014965698197e+01 
-4.422333445820e+01 2.997974102316e+01 0.0 
2.997974102316e+01 -2.920484694721e+01 0.0 
0.0 0.0 -1.817633076821e+01 
-4.295871140303e+01 2.920791031320e+01 0.0 
2.920791031320e+01 -2.833881275733e+01 0.0 
0.0 0.0 -1.814494518552e+01 
-4.136512004386e+01 2.882286088390e+01 0.0 
2.882286088390e+01 -2.764876834616e+01 0.0 
0.0 0.0 -1.758721868410e+01 
-3.936947313738e+01 2.728213428114e+01 0.0 
2.728213428114e+01 -2.721039610283e+01 0.0 
0.0 0.0 -1.583279481899e+01 
-4.567353119948e+01 2.549437406092e+01 0.0 
2.549437406092e+01 -2.693325249355e+01 0.0 
0.0 0.0 -1.627821206540e+01 
-4.429685107271e+01 1.186270630163e+01 0.0 
1.186270630163e+01 -1.757172892003e+01 0.0 
0.0 0.0 -1.452855183709e+01 
-4.664108930922e+01 8.688589546182e+00 0.0 
8.688589546182e+00 -3.518562622236e+01 0.0 
0.0 0.0 -2.200147000163e+01 
-5.289388897552e+01 7.202473174350e+00 0.0 
7.202473174350e+00 -5.470211649284e+01 0.0 
0.0 0.0 -3.099408702947e+01 
-4.648671001594e+01 3.274219469738e+01 0.0 
3.274219469738e+01 -4.182528607726e+01 0.0 
0.0 0.0 -2.285238372691e+01 
-1.528252632588e+02 1.986804062434e+01 0.0 
1.986804062434e+01 -3.680488310013e+02 0.0 
0.0 0.0 -1.558622282780e+02 
-1.583497543400e+01 -1.223040759747e+00 0.0 
-1.223040759747e+00 -1.721464396083e+01 0.0 
0.0 0.0 -9.033615545832e+00 
-6.581449676818e+01 -2.125988388022e+01 0.0 
-2.125988388022e+01 -8.559741100041e+01 0.0 
0.0 0.0 -4.624461882710e+01 
-1.585957132237e+02 1.093092181915e+01 0.0 
1.093092181915e+01 -3.802890915902e+02 0.0 
0.0 0.0 -1.612654414442e+02 
-4.337060761129e+01 2.973505509142e+01 0.0 
2.973505509142e+01 -3.762688575339e+01 0.0 
0.0 0.0 -2.110382333546e+01 
-9.844852050301e+01 -8.041480237508e-01 0.0 
-8.041480237508e-01 -2.154197213436e+02 0.0 
0.0 0.0 -8.930752399062e+01 
-1.457115928525e+02 2.659615897380e+01 0.0 
2.659615897380e+01 -3.502788934536e+02 0.0 
0.0 0.0 -1.483971458918e+02 
-4.295710553057e+01 2.832965466779e+01 0.0 
2.832965466779e+01 -3.733710605814e+01 0.0 
0.0 0.0 -1.970892573099e+01 
-1.382188140210e+02 3.162574245848e+01 0.0 
3.162574245848e+01 -3.280641791614e+02 0.0 
0.0 0.0 -1.394848979547e+02 
-5.247825627449e+01 1.733452751792e+01 0.0 
1.733452751792e+01 -4.254243077603e+01 0.0 
0.0 0.0 -2.468416992929e+01 
-1.619862811606e+02 5.608138220277e+00 0.0 
5.608138220277e+00 -3.848202312510e+02 0.0 
0.0 0.0 -1.636419537235e+02 
-1.092173171245e+01 -4.070390623531e-01 0.0 
-4.070390623531e-01 -1.623405021468e+01 0.0 
0.0 0.0 -6.385380225803e+00 
-1.295053001479e+02 3.216747988642e+01 0.0 
3.216747988642e+01 -3.005056367035e+02 0.0 
0.0 0.0 -1.286032810554e+02 
-6.166541547683e+01 1.000745186036e+01 0.0 
1.000745186036e+01 -7.441345815632e+01 0.0 
0.0 0.0 -3.983510262991e+01 
-6.148075090830e+01 -1.060559153684e+00 0.0 
-1.060559153684e+00 -1.323342124738e+02 0.0 
0.0 0.0 -5.361908942679e+01 
-1.157673432592e+02 -3.684031903270e-01 0.0 
-3.684031903270e-01 -2.708577777936e+02 0.0 
0.0 0.0 -1.131685293667e+02 
-1.233473058896e+02 2.898530451376e+01 0.0 
2.898530451376e+01 -2.802783663578e+02 0.0 
0.0 0.0 -1.206877016742e+02 
-1.160022172311e+02 2.154121052953e+01 0.0 
2.154121052953e+01 -2.614053810349e+02 0.0 
0.0 0.0 -1.128222794798e+02 
-1.074974073815e+02 6.414977929426e+00 0.0 
6.414977929426e+00 -2.449632687811e+02 0.0 
0.0 0.0 -1.053382028488e+02 
-1.089636179623e+02 1.061742251966e+01 0.0 
1.061742251966e+01 -2.457922890308e+02 0.0 
0.0 0.0 -1.060267720979e+02 
-1.121809722184e+02 1.598985223002e+01 0.0 
1.598985223002e+01 -2.531662917007e+02 0.0 
0.0 0.0 -1.092041791757e+02 
-5.945025604610e+01 5.797799645242e+00 0.0 
5.797799645242e+00 -7.962188639357e+01 0.0 
0.0 0.0 -4.131135951128e+01 
-5.341662049911e+01 1.957008109268e+00 0.0 
1.957008109268e+00 -7.693746612338e+01 0.0 
0.0 0.0 -3.870622598675e+01 
-5.150967013077e+01 1.091552516215e+00 0.0 
1.091552516215e+00 -7.780148734917e+01 0.0 
0.0 0.0 -3.839334724398e+01 
-7.634557514554e+01 6.019656081510e-01 0.0 
6.019656081510e-01 -1.485315085161e+02 0.0 
0.0 0.0 -6.706312509849e+01 
-1.622497096076e+02 3.012946098068e+00 0.0 
3.012946098068e+00 -3.843096828835e+02 0.0 
0.0 0.0 -1.635678177473e+02 
-7.647527646265e+01 1.238476862785e+01 0.0 
1.238476862785e+01 -1.057224116194e+02 0.0 
0.0 0.0 -5.547883506176e+01 
-9.492140726472e+00 -2.064646883275e-01 0.0 
-2.064646883275e-01 -1.727378739455e+01 0.0 
0.0 0.0 -5.937871511695e+00 
-1.364713466107e+02 3.137734978172e-01 0.0 
3.137734978172e-01 -3.326094492225e+02 0.0 
0.0 0.0 -1.403242387500e+02 
-4.889978786068e+01 3.130586810982e-01 0.0 
3.130586810982e-01 -7.535275232805e+01 0.0 
0.0 0.0 -3.687576205662e+01 
-1.997045977765e+01 -6.431720538253e-01 0.0 
-6.431720538253e-01 -6.904253124334e+01 0.0 
0.0 0.0 -2.554114565270e+01 
-1.183775013285e+02 2.512567524162e+01 0.0 
2.512567524162e+01 -2.660534106304e+02 0.0 
0.0 0.0 -1.149292735877e+02 
-1.427927860307e+02 2.961805126588e+01 0.0 
2.961805126588e+01 -3.410798043102e+02 0.0 
0.0 0.0 -1.447617771023e+02 
-1.338421983116e+02 3.258959159266e+01 0.0 
3.258959159266e+01 -3.144104292831e+02 0.0 
0.0 0.0 -1.340757882784e+02 
-1.484016286829e+02 2.351313657896e+01 0.0 
2.351313657896e+01 -3.582441314696e+02 0.0 
0.0 0.0 -1.515937280457e+02 
-1.559524032277e+02 1.624345369413e+01 0.0 
1.624345369413e+01 -3.748325660007e+02 0.0 
0.0 0.0 -1.588354907685e+02 
-3.488158759320e+01 -1.332203698754e+01 0.0 
-1.332203698754e+01 -2.555170243208e+01 0.0 
0.0 0.0 -1.599313335536e+01 
-5.571624908509e+01 3.293469827243e+00 0.0 
3.293469827243e+00 -7.710178079303e+01 0.0 
0.0 0.0 -3.944540896343e+01 
-1.584550014590e+02 7.862796071220e+00 0.0 
7.862796071220e+00 -3.797340139746e+02 0.0 
0.0 0.0 -1.610567046301e+02 
-8.981777728375e+01 8.215521797598e-01 0.0 
8.215521797598e-01 -1.882988702244e+02 0.0 
0.0 0.0 -8.303499425245e+01 
-1.228751913862e+01 -3.572168209013e-01 0.0 
-3.572168209013e-01 -1.680586784742e+01 0.0 
0.0 0.0 -7.841275582165e+00 
-8.191135585882e+01 -1.037743920877e+00 0.0 
-1.037743920877e+00 -1.729644657947e+02 0.0 
0.0 0.0 -7.115401487784e+01 
-1.077291219386e+02 3.967438105325e+00 0.0 
3.967438105325e+00 -2.471480574893e+02 0.0 
0.0 0.0 -1.060631538284e+02 
-4.263604127380e+01 2.941082079143e+01 0.0 
2.941082079143e+01 -3.975941641946e+01 0.0 
0.0 0.0 -2.125442305906e+01 
-4.473002550769e+01 3.072734012079e+01 0.0 
3.072734012079e+01 -3.894873758752e+01 0.0 
0.0 0.0 -2.132310774860e+01 
-5.021320236687e+01 2.534853477565e+01 0.0 
2.534853477565e+01 -3.823631072982e+01 0.0 
0.0 0.0 -2.094689784717e+01 
-5.676366401813e+01 1.259394963562e+01 0.0 
1.259394963562e+01 -5.627740649874e+01 0.0 
0.0 0.0 -3.160353878809e+01 
-5.017055544452e+01 3.765888920009e+01 0.0 
3.765888920009e+01 -4.822662621119e+01 0.0 
0.0 0.0 -2.929517136021e+01 
-6.242254689396e+01 2.880384629694e-01 0.0 
2.880384629694e-01 -1.106280442037e+02 0.0 
0.0 0.0 -5.151517732931e+01 
-1.641202623758e+02 1.616022212738e+00 0.0 
1.616022212738e+00 -3.874835060342e+02 0.0 
0.0 0.0 -1.650811305230e+02 
-9.057444839155e+00 -1.260257987883e-01 0.0 
-1.260257987883e-01 -1.638228711783e+01 0.0 
0.0 0.0 -5.584920000167e+00 
-1.020923845201e+02 9.820815492118e-01 0.0 
9.820815492118e-01 -2.280673753502e+02 0.0 
0.0 0.0 -9.864792796110e+01 
-6.431078085715e+01 9.466212561907e+00 0.0 
9.466212561907e+00 -8.310245325904e+01 0.0 
0.0 0.0 -4.363921812492e+01 
-6.911695197845e+01 1.258936407681e+01 0.0 
1.258936407681e+01 -9.443706524459e+01 0.0 
0.0 0.0 -4.847890222843e+01 
-7.102485451123e+01 1.106905059144e+01 0.0 
1.106905059144e+01 -1.022089057861e+02 0.0 
0.0 0.0 -5.156997552522e+01 
-7.640622045319e+01 1.481846477713e+01 0.0 
1.481846477713e+01 -1.162109530596e+02 0.0 
0.0 0.0 -5.738515205383e+01 
-7.912178105783e+01 1.347807556030e+01 0.0 
1.347807556030e+01 -1.246969816836e+02 0.0 
0.0 0.0 -6.074562882242e+01 
-8.350882348246e+01 1.646390073252e+01 0.0 
1.646390073252e+01 -1.376848615241e+02 0.0 
0.0 0.0 -6.595810550197e+01 
-8.084540332621e+01 1.803661364811e+01 0.0 
1.803661364811e+01 -1.298958590537e+02 0.0 
0.0 0.0 -6.282237871397e+01 
-8.762036430181e+01 1.933975354940e+01 0.0 
1.933975354940e+01 -1.515268995777e+02 0.0 
0.0 0.0 -7.134417916386e+01 
-8.462347645769e+01 2.102965944939e+01 0.0 
2.102965944939e+01 -1.444124142728e+02 0.0 
0.0 0.0 -6.831076721915e+01 
-8.645169090026e+01 1.526160363219e+01 0.0 
1.526160363219e+01 -1.463068513828e+02 0.0 
0.0 0.0 -6.942756268492e+01 
-9.125217688789e+01 2.194564405537e+01 0.0 
2.194564405537e+01 -1.660429148280e+02 0.0 
0.0 0.0 -7.678852751476e+01 
-8.798768812175e+01 2.360542055687e+01 0.0 
2.360542055687e+01 -1.596672348748e+02 0.0 
0.0 0.0 -7.389647689896e+01 
-9.457592899520e+01 2.416531494024e+01 0.0 
2.416531494024e+01 -1.811191004439e+02 0.0 
0.0 0.0 -8.230850883173e+01 
-9.106898656614e+01 2.567753732187e+01 0.0 
2.567753732187e+01 -1.754271725377e+02 0.0 
0.0 0.0 -7.954884773114e+01 
-8.473640349849e+01 2.539614717654e+01 0.0 
2.539614717654e+01 -1.542113598400e+02 0.0 
0.0 0.0 -7.111054820883e+01 
-8.743933798100e+01 2.721551375064e+01 0.0 
2.721551375064e+01 -1.706073019595e+02 0.0 
0.0 0.0 -7.691303677204e+01 
-8.181283200862e+01 2.702899474712e+01 0.0 
2.702899474712e+01 -1.496928465231e+02 0.0 
0.0 0.0 -6.839306779364e+01 
-8.415227297578e+01 2.854688418830e+01 0.0 
2.854688418830e+01 -1.666499527990e+02 0.0 
0.0 0.0 -7.432977725075e+01 
-9.008949459935e+01 2.838518762634e+01 0.0 
2.838518762634e+01 -1.870471630913e+02 0.0 
0.0 0.0 -8.270092107062e+01 
-8.636853108579e+01 2.937500642763e+01 0.0 
2.937500642763e+01 -1.834503147282e+02 0.0 
0.0 0.0 -8.020811397623e+01 
-8.103959478712e+01 2.953626154758e+01 0.0 
2.953626154758e+01 -1.634211367119e+02 0.0 
0.0 0.0 -7.173781974825e+01 
-8.297116796691e+01 2.998361026249e+01 0.0 
2.998361026249e+01 -1.804260888769e+02 0.0 
0.0 0.0 -7.771353558578e+01 
-7.800790735757e+01 3.028765589320e+01 0.0 
3.028765589320e+01 -1.608243180974e+02 0.0 
0.0 0.0 -6.917513942984e+01 
-7.978591505727e+01 3.028079455450e+01 0.0 
3.028079455450e+01 -1.778675900774e+02 0.0 
0.0 0.0 -7.520016305350e+01 
-7.478837308541e+01 3.077357116936e+01 0.0 
3.077357116936e+01 -1.586472008153e+02 0.0 
0.0 0.0 -6.683886510512e+01 
-7.657413672035e+01 3.037870733329e+01 0.0 
3.037870733329e+01 -1.755995283208e+02 0.0 
0.0 0.0 -7.314795565516e+01 
-8.152554938599e+01 2.978102512792e+01 0.0 
2.978102512792e+01 -1.943283991846e+02 0.0 
0.0 0.0 -8.113939272272e+01 
-7.815800750045e+01 2.947991577149e+01 0.0 
2.947991577149e+01 -1.918085268093e+02 0.0 
0.0 0.0 -7.929890910585e+01 
-7.304794121951e+01 3.032641945859e+01 0.0 
3.032641945859e+01 -1.734394191018e+02 0.0 
0.0 0.0 -7.173061647691e+01 
-7.463870101024e+01 2.906296488139e+01 0.0 
2.906296488139e+01 -1.892922495697e+02 0.0 
0.0 0.0 -7.793856395025e+01 
-6.921436027518e+01 3.010912148106e+01 0.0 
3.010912148106e+01 -1.712953638353e+02 0.0 
0.0 0.0 -7.076308414034e+01 
-7.056098222396e+01 2.852967112681e+01 0.0 
2.852967112681e+01 -1.866140197476e+02 0.0 
0.0 0.0 -7.684966871067e+01 
-7.608177988261e+01 2.739327490038e+01 0.0 
2.739327490038e+01 -2.041316885454e+02 0.0 
0.0 0.0 -8.389371658118e+01 
-7.208893332019e+01 2.653982212587e+01 0.0 
2.653982212587e+01 -2.006091615291e+02 0.0 
0.0 0.0 -8.263318942889e+01 
-6.645223638577e+01 2.759783038828e+01 0.0 
2.759783038828e+01 -1.832451537916e+02 0.0 
0.0 0.0 -7.535981584158e+01 
-6.822260269349e+01 2.527099391155e+01 0.0 
2.527099391155e+01 -1.968071853239e+02 0.0 
0.0 0.0 -8.101218790641e+01 
-6.269408444966e+01 2.628049590152e+01 0.0 
2.628049590152e+01 -1.800819784005e+02 0.0 
0.0 0.0 -7.347531171031e+01 
-6.449736502233e+01 2.345595624493e+01 0.0 
2.345595624493e+01 -1.935006071844e+02 0.0 
0.0 0.0 -7.878075599976e+01 
-5.927078100489e+01 2.416519047847e+01 0.0 
2.416519047847e+01 -1.774618969300e+02 0.0 
0.0 0.0 -7.069828295248e+01 
-6.121931745986e+01 2.079458239033e+01 0.0 
2.079458239033e+01 -1.904905615028e+02 0.0 
0.0 0.0 -7.570532490653e+01 
-6.654472368841e+01 2.034047939799e+01 0.0 
2.034047939799e+01 -2.060506674485e+02 0.0 
0.0 0.0 -8.405869399711e+01 
-6.350078195853e+01 1.729645009970e+01 0.0 
1.729645009970e+01 -2.025072153278e+02 0.0 
0.0 0.0 -8.087230687208e+01 
-5.837422761156e+01 1.742709000166e+01 0.0 
1.742709000166e+01 -1.873336179760e+02 0.0 
0.0 0.0 -7.262729611818e+01 
-6.093297862549e+01 1.354325712481e+01 0.0 
1.354325712481e+01 -1.984725587351e+02 0.0 
0.0 0.0 -7.755980746745e+01 
-6.614406755857e+01 1.384541576190e+01 0.0 
1.384541576190e+01 -2.135065052012e+02 0.0 
0.0 0.0 -8.616283689801e+01 
-6.388259381633e+01 9.852695462829e+00 0.0 
9.852695462829e+00 -2.084574963629e+02 0.0 
0.0 0.0 -8.269964766465e+01 
-6.924165901504e+01 1.057837267757e+01 0.0 
1.057837267757e+01 -2.234882227670e+02 0.0 
0.0 0.0 -9.141960866516e+01 
-6.727819948661e+01 6.500432908629e+00 0.0 
6.500432908629e+00 -2.175751043979e+02 0.0 
0.0 0.0 -8.802985506911e+01 
-6.210814441748e+01 5.383169058532e+00 0.0 
5.383169058532e+00 -2.028024360474e+02 0.0 
0.0 0.0 -7.950943776657e+01 
-6.579428734735e+01 2.128666999324e+00 0.0 
2.128666999324e+00 -2.107779977681e+02 0.0 
0.0 0.0 -8.467810317515e+01 
-7.125597588107e+01 3.802997070742e+00 0.0 
3.802997070742e+00 -2.258854178220e+02 0.0 
0.0 0.0 -9.298145214591e+01 
-7.008009130512e+01 -3.513065372871e-01 0.0 
-3.513065372871e-01 -2.183790009914e+02 0.0 
0.0 0.0 -8.950454146617e+01 
-6.465968613611e+01 -2.362827219956e+00 0.0 
-2.362827219956e+00 -2.030497833962e+02 0.0 
0.0 0.0 -8.137495230370e+01 
-6.913796347154e+01 -4.413232852303e+00 0.0 
-4.413232852303e+00 -2.100536661764e+02 0.0 
0.0 0.0 -8.580620852163e+01 
-7.513196384448e+01 -1.814769720310e+00 0.0 
-1.814769720310e+00 -2.268267580944e+02 0.0 
0.0 0.0 -9.367132505423e+01 
-7.429712074753e+01 -5.405937813722e+00 0.0 
-5.405937813722e+00 -2.177400018567e+02 0.0 
0.0 0.0 -8.961992121368e+01 
-6.816938538831e+01 -8.273650675293e+00 0.0 
-8.273650675293e+00 -2.008397732585e+02 0.0 
0.0 0.0 -8.185696560641e+01 
-7.350248524288e+01 -8.472843465116e+00 0.0 
-8.472843465116e+00 -2.074615382418e+02 0.0 
0.0 0.0 -8.517530249259e+01 
-8.046026043189e+01 -5.029165190785e+00 0.0 
-5.029165190785e+00 -2.253159893491e+02 0.0 
0.0 0.0 -9.326851649598e+01 
-7.958538202013e+01 -7.504235030716e+00 0.0 
-7.504235030716e+00 -2.146063019539e+02 0.0 
0.0 0.0 -8.860647104061e+01 
-7.270584737661e+01 -1.078832676781e+01 0.0 
-1.078832676781e+01 -1.960097994390e+02 0.0 
0.0 0.0 -8.043428801843e+01 
-7.843127057469e+01 -9.374253750459e+00 0.0 
-9.374253750459e+00 -2.032037497764e+02 0.0 
0.0 0.0 -8.367762788560e+01 
-8.542359318381e+01 -6.313890469567e+00 0.0 
-6.313890469567e+00 -2.223323017426e+02 0.0 
0.0 0.0 -9.184313997265e+01 
-8.396680678798e+01 -7.862637163441e+00 0.0 
-7.862637163441e+00 -2.108118152972e+02 0.0 
0.0 0.0 -8.678519074576e+01 
-9.077719252722e+01 -5.190816349962e+00 0.0 
-5.190816349962e+00 -2.301235101073e+02 0.0 
0.0 0.0 -9.469148790235e+01 
-7.682206364251e+01 -1.061890085123e+01 0.0 
-1.061890085123e+01 -1.911302576561e+02 0.0 
0.0 0.0 -7.850005418754e+01 
-8.206018346509e+01 -8.858858973892e+00 0.0 
-8.858858973892e+00 -1.987757982176e+02 0.0 
0.0 0.0 -8.152547501356e+01 
-7.460714070797e+01 -1.117402033981e+01 0.0 
-1.117402033981e+01 -1.785824096911e+02 0.0 
0.0 0.0 -7.309522779379e+01 
-7.961854302059e+01 -9.300743203866e+00 0.0 
-9.300743203866e+00 -1.864203534434e+02 0.0 
0.0 0.0 -7.613107822277e+01 
-7.773877609354e+01 2.558084021892e+01 0.0 
2.558084021892e+01 -2.179352981072e+02 0.0 
0.0 0.0 -8.956933896056e+01 
-7.168602495336e+01 -1.112332441605e+01 0.0 
-1.112332441605e+01 -1.658712979605e+02 0.0 
0.0 0.0 -6.760323007799e+01 
-6.697178029751e+01 -1.321202586232e+01 0.0 
-1.321202586232e+01 -1.582568672314e+02 0.0 
0.0 0.0 -6.467146788227e+01 
-7.652550822710e+01 -9.217167321359e+00 0.0 
-9.217167321359e+00 -1.739668783916e+02 0.0 
0.0 0.0 -7.065433252620e+01 
-8.441148562762e+01 -7.641326120248e+00 0.0 
-7.641326120248e+00 -1.945108212973e+02 0.0 
0.0 0.0 -7.906215541844e+01 
-6.797438957285e+01 -1.056492374271e+01 0.0 
-1.056492374271e+01 -1.531386492157e+02 0.0 
0.0 0.0 -6.203434564539e+01 
-7.269955375277e+01 -8.729541326535e+00 0.0 
-8.729541326535e+00 -1.614937702152e+02 0.0 
0.0 0.0 -6.511757435029e+01 
-6.343619838432e+01 -9.609311119645e+00 0.0 
-9.609311119645e+00 -1.404964274328e+02 0.0 
0.0 0.0 -5.638290693385e+01 
-5.745053165210e+01 2.716242860161e+01 0.0 
2.716242860161e+01 -1.630824910491e+02 0.0 
0.0 0.0 -6.553794373952e+01 
-9.281521556949e+01 2.899494051111e+01 0.0 
2.899494051111e+01 -2.033472665262e+02 0.0 
0.0 0.0 -8.844729559150e+01 
-6.809489183935e+01 -7.923745133378e+00 0.0 
-7.923745133378e+00 -1.490478556675e+02 0.0 
0.0 0.0 -5.952894363312e+01 
-5.804374266861e+01 -8.364100848059e+00 0.0 
-8.364100848059e+00 -1.279752193777e+02 0.0 
0.0 0.0 -5.069201778569e+01 
-5.372922954159e+01 -9.845109238944e+00 0.0 
-9.845109238944e+00 -1.193198982018e+02 0.0 
0.0 0.0 -4.750745799893e+01 
-4.738209183757e+01 -8.144484146226e+00 0.0 
-8.144484146226e+00 -1.068685016528e+02 0.0 
0.0 0.0 -4.173710584054e+01 
-8.213818696093e+01 1.265666331237e+01 0.0 
1.265666331237e+01 -1.340160558954e+02 0.0 
0.0 0.0 -6.444627285691e+01 
-8.887614218998e+01 1.421681340216e+01 0.0 
1.421681340216e+01 -1.552050797914e+02 0.0 
0.0 0.0 -7.282436659441e+01 
-8.421731254788e+01 1.167625769815e+01 0.0 
1.167625769815e+01 -1.426150167830e+02 0.0 
0.0 0.0 -6.764969879926e+01 
-9.118792683695e+01 1.343310587573e+01 0.0 
1.343310587573e+01 -1.642723541602e+02 0.0 
0.0 0.0 -7.623808429915e+01 
-8.679626946490e+01 1.107975735377e+01 0.0 
1.107975735377e+01 -1.525581823100e+02 0.0 
0.0 0.0 -7.140633553247e+01 
-5.174020436161e+01 -6.897673833805e+00 0.0 
-6.897673833805e+00 -1.156098810286e+02 0.0 
0.0 0.0 -4.499218384204e+01 
-9.777476172155e+01 2.281418620290e+01 0.0 
2.281418620290e+01 -1.877260106234e+02 0.0 
0.0 0.0 -8.525023170350e+01 
-9.540000371308e+01 1.584480476304e+01 0.0 
1.584480476304e+01 -1.765815954316e+02 0.0 
0.0 0.0 -8.119447974342e+01 
-7.597616561117e+01 2.967099357665e+01 0.0 
2.967099357665e+01 -1.432353529608e+02 0.0 
0.0 0.0 -6.304233453634e+01 
-6.752648665922e+01 3.120997398540e+01 0.0 
3.120997398540e+01 -1.548593991104e+02 0.0 
0.0 0.0 -6.429465076221e+01 
-7.191483627848e+01 1.409491809470e+01 0.0 
1.409491809470e+01 -2.289664891324e+02 0.0 
0.0 0.0 -9.470317930661e+01 
-7.732469383059e+01 -7.136435629059e+00 0.0 
-7.136435629059e+00 -1.698568086371e+02 0.0 
0.0 0.0 -6.817583265982e+01 
-7.271948876001e+01 -6.444733891125e+00 0.0 
-6.444733891125e+00 -1.576064385294e+02 0.0 
0.0 0.0 -6.267992330907e+01 
-8.173033022894e+01 -5.748608004815e+00 0.0 
-5.748608004815e+00 -1.782834746810e+02 0.0 
0.0 0.0 -7.157999307742e+01 
-9.200295284684e+01 -3.375899486937e+00 0.0 
-3.375899486937e+00 -2.412288508969e+02 0.0 
0.0 0.0 -9.955731358735e+01 
-9.681913297829e+01 -2.683957079149e+00 0.0 
-2.683957079149e+00 -2.491127631150e+02 0.0 
0.0 0.0 -1.021461880104e+02 
-9.763465875093e+01 -6.585280252020e-01 0.0 
-6.585280252020e-01 -2.598333164697e+02 0.0 
0.0 0.0 -1.067166834862e+02 
-1.021713614663e+02 -3.032548527080e-01 0.0 
-3.032548527080e-01 -2.678455980824e+02 0.0 
0.0 0.0 -1.096692149531e+02 
-1.033065677705e+02 1.781111650784e+00 0.0 
1.781111650784e+00 -2.782437447115e+02 0.0 
0.0 0.0 -1.139655585087e+02 
-1.081314608946e+02 1.892978069162e+00 0.0 
1.892978069162e+00 -2.864004294798e+02 0.0 
0.0 0.0 -1.175915476191e+02 
-1.065555508044e+02 6.879315084003e-02 0.0 
6.879315084003e-02 -2.758347894668e+02 0.0 
0.0 0.0 -1.131738229445e+02 
-1.129174079858e+02 2.014394384203e+00 0.0 
2.014394384203e+00 -2.945302371607e+02 0.0 
0.0 0.0 -1.215839620906e+02 
-1.108645162958e+02 4.285841394326e-01 0.0 
4.285841394326e-01 -2.838394475355e+02 0.0 
0.0 0.0 -1.170959304177e+02 
-1.110795581358e+02 3.676197584243e+00 0.0 
3.676197584243e+00 -2.966275412883e+02 0.0 
0.0 0.0 -1.218415826953e+02 
-1.057289055567e+02 3.804307177866e+00 0.0 
3.804307177866e+00 -2.882076598946e+02 0.0 
0.0 0.0 -1.179416584437e+02 
-1.176633348629e+02 2.106999120841e+00 0.0 
2.106999120841e+00 -3.026359081198e+02 0.0 
0.0 0.0 -1.255279626842e+02 
-1.150536716965e+02 7.500212956516e-01 0.0 
7.500212956516e-01 -2.918490556473e+02 0.0 
0.0 0.0 -1.209661529354e+02 
-1.223843252771e+02 2.140805487157e+00 0.0 
2.140805487157e+00 -3.107191085995e+02 0.0 
0.0 0.0 -1.294276525676e+02 
-1.191492427170e+02 1.002653709165e+00 0.0 
1.002653709165e+00 -2.998928961330e+02 0.0 
0.0 0.0 -1.248339906858e+02 
-1.131930253917e+02 -4.228137985865e-01 0.0 
-4.228137985865e-01 -2.807663642749e+02 0.0 
0.0 0.0 -1.163380850041e+02 
-1.169278583466e+02 -5.320335773015e-03 0.0 
-5.320335773015e-03 -2.888086435771e+02 0.0 
0.0 0.0 -1.201689095690e+02 
-1.113187772253e+02 -1.337455890902e+00 0.0 
-1.337455890902e+00 -2.695437360299e+02 0.0 
0.0 0.0 -1.116502148626e+02 
-7.545902976389e+01 1.134073099394e+01 0.0 
1.134073099394e+01 -2.391660695090e+02 0.0 
0.0 0.0 -9.972101666868e+01 
-7.867230146751e+01 1.446292538274e+01 0.0 
1.446292538274e+01 -2.453183007620e+02 0.0 
0.0 0.0 -1.022280436115e+02 
-8.293958858557e+01 1.247698702181e+01 0.0 
1.247698702181e+01 -2.558726276424e+02 0.0 
0.0 0.0 -1.064763614741e+02 
-8.687124250305e+01 1.534148760564e+01 0.0 
1.534148760564e+01 -2.619792060059e+02 0.0 
0.0 0.0 -1.080537691861e+02 
-9.262365745936e+01 1.393627287527e+01 0.0 
1.393627287527e+01 -2.730703270396e+02 0.0 
0.0 0.0 -1.122267966873e+02 
-9.743056980457e+01 1.648883514943e+01 0.0 
1.648883514943e+01 -2.792912326408e+02 0.0 
0.0 0.0 -1.141125082244e+02 
-1.034329285683e+02 1.538661122981e+01 0.0 
1.538661122981e+01 -2.905682214970e+02 0.0 
0.0 0.0 -1.186387196314e+02 
-9.884497914405e+01 1.287412631680e+01 0.0 
1.287412631680e+01 -2.839270853966e+02 0.0 
0.0 0.0 -1.163010936078e+02 
-9.769508634720e+01 2.598655925453e+01 0.0 
2.598655925453e+01 -1.965358317750e+02 0.0 
0.0 0.0 -8.786927543667e+01 
-5.587150158139e+01 1.337735018954e+01 0.0 
1.337735018954e+01 -1.838911102440e+02 0.0 
0.0 0.0 -6.996597522143e+01 
-5.341183425705e+01 1.768646471850e+01 0.0 
1.768646471850e+01 -1.725179492801e+02 0.0 
0.0 0.0 -6.530155180452e+01 
-5.098738011070e+01 1.325163911160e+01 0.0 
1.325163911160e+01 -1.698804625103e+02 0.0 
0.0 0.0 -6.308034844776e+01 
-4.887781932436e+01 1.805811124324e+01 0.0 
1.805811124324e+01 -1.581479424456e+02 0.0 
0.0 0.0 -5.846498902830e+01 
-4.645046053303e+01 1.346446456139e+01 0.0 
1.346446456139e+01 -1.563393240708e+02 0.0 
0.0 0.0 -5.684681243475e+01 
-4.494994604361e+01 1.887146680861e+01 0.0 
1.887146680861e+01 -1.440589469165e+02 0.0 
0.0 0.0 -5.229706539848e+01 
-4.247464285086e+01 1.415529675448e+01 0.0 
1.415529675448e+01 -1.433450352583e+02 0.0 
0.0 0.0 -5.167664880965e+01 
-4.440964595684e+01 7.874536652270e+00 0.0 
7.874536652270e+00 -1.538031443482e+02 0.0 
0.0 0.0 -5.572910828014e+01 
-4.040913980457e+01 8.007495947553e+00 0.0 
8.007495947553e+00 -1.420009205129e+02 0.0 
0.0 0.0 -5.177825022066e+01 
-4.298534905305e+01 1.292879457635e+00 0.0 
1.292879457635e+00 -1.497245754384e+02 0.0 
0.0 0.0 -5.463409746170e+01 
-3.873928877671e+01 6.380319088902e-01 0.0 
6.380319088902e-01 -1.387725962790e+02 0.0 
0.0 0.0 -5.154026010430e+01 
-4.213229629714e+01 -5.806046285561e+00 0.0 
-5.806046285561e+00 -1.428384912161e+02 0.0 
0.0 0.0 -5.243879789901e+01 
-8.346058297258e+01 2.888512951634e+01 0.0 
2.888512951634e+01 -2.101221010514e+02 0.0 
0.0 0.0 -8.701170912879e+01 
-9.157643624001e+01 1.790311887569e+01 0.0 
1.790311887569e+01 -2.677600397874e+02 0.0 
0.0 0.0 -1.094901836907e+02 
-1.025460787972e+02 1.874955779748e+01 0.0 
1.874955779748e+01 -2.853083314647e+02 0.0 
0.0 0.0 -1.164800323399e+02 
-9.690863733060e+01 2.000601351143e+01 0.0 
2.000601351143e+01 -2.732810392395e+02 0.0 
0.0 0.0 -1.114523083651e+02 
-4.360705966467e+01 -9.140787083286e+00 0.0 
-9.140787083286e+00 -9.818347567466e+01 0.0 
0.0 0.0 -3.856331269881e+01 
-1.232137270901e+02 1.149954692796e+00 0.0 
1.149954692796e+00 -3.079888786631e+02 0.0 
0.0 0.0 -1.287150560265e+02 
-1.148232617033e+02 5.549616677823e+00 0.0 
5.549616677823e+00 -3.064844295932e+02 0.0 
0.0 0.0 -1.259923073890e+02 
-1.090799547375e+02 5.925285395497e+00 0.0 
5.925285395497e+00 -2.976504984439e+02 0.0 
0.0 0.0 -1.217159009095e+02 
-1.094630797291e+02 1.439419358274e+01 0.0 
1.439419358274e+01 -3.015380156156e+02 0.0 
0.0 0.0 -1.231757941966e+02 
-4.015576992653e+01 -6.239391819177e+00 0.0 
-6.239391819177e+00 -9.474737024113e+01 0.0 
0.0 0.0 -3.620378260261e+01 
-4.169315281822e+01 2.026819872709e+01 0.0 
2.026819872709e+01 -1.302367803328e+02 0.0 
0.0 0.0 -4.701358819960e+01 
-4.432954884206e+01 2.381858701201e+01 0.0 
2.381858701201e+01 -1.297983965011e+02 0.0 
0.0 0.0 -4.759150210668e+01 
-9.343484835767e+01 1.277539940048e+01 0.0 
1.277539940048e+01 -1.736631945856e+02 0.0 
0.0 0.0 -7.972941288300e+01 
-8.914485690707e+01 1.058763521798e+01 0.0 
1.058763521798e+01 -1.622900893759e+02 0.0 
0.0 0.0 -7.503048388488e+01 
-1.190137266097e+02 7.539117262830e+00 0.0 
7.539117262830e+00 -3.159031596548e+02 0.0 
0.0 0.0 -1.300750658793e+02 
-4.440139649375e+01 -5.226455932429e+00 0.0 
-5.226455932429e+00 -1.035564527994e+02 0.0 
0.0 0.0 -3.980066605153e+01 
-1.215041105398e+02 3.478017562855e+00 0.0 
3.478017562855e+00 -3.131608511187e+02 0.0 
0.0 0.0 -1.299925004368e+02 
-3.673570821788e+01 8.884035645492e+00 0.0 
8.884035645492e+00 -1.314599854065e+02 0.0 
0.0 0.0 -4.912976486739e+01 
-1.204790846559e+02 2.940134996880e-01 0.0 
2.940134996880e-01 -2.969106627082e+02 0.0 
0.0 0.0 -1.239869366663e+02 
-1.273403208298e+02 1.188881139495e+00 0.0 
1.188881139495e+00 -3.160953949494e+02 0.0 
0.0 0.0 -1.325344277269e+02 
-1.053138958000e+02 -1.474225370831e+00 0.0 
-1.474225370831e+00 -2.649030736085e+02 0.0 
0.0 0.0 -1.086032758920e+02 
-1.076930264409e+02 2.076584868090e+01 0.0 
2.076584868090e+01 -2.911641134744e+02 0.0 
0.0 0.0 -1.192787464038e+02 
-1.021401309286e+02 2.184452060683e+01 0.0 
2.184452060683e+01 -2.786975220966e+02 0.0 
0.0 0.0 -1.139641218643e+02 
-4.639833827718e+01 -4.171500621492e+00 0.0 
-4.171500621492e+00 -1.551909811984e+02 0.0 
0.0 0.0 -5.701264699090e+01 
-4.610395071181e+01 -1.039802539543e+01 0.0 
-1.039802539543e+01 -1.455613407483e+02 0.0 
0.0 0.0 -5.345780605723e+01 
-4.207338633404e+01 -1.265115077838e+01 0.0 
-1.265115077838e+01 -1.321647707458e+02 0.0 
0.0 0.0 -4.813061827517e+01 
-4.679260089568e+01 -1.564352871738e+01 0.0 
-1.564352871738e+01 -1.334178404949e+02 0.0 
0.0 0.0 -4.921080537475e+01 
-5.032189987582e+01 -1.304771561647e+01 0.0 
-1.304771561647e+01 -1.485433191532e+02 0.0 
0.0 0.0 -5.560375933190e+01 
-5.052424101291e+01 -1.673955576619e+01 0.0 
-1.673955576619e+01 -1.354216817683e+02 0.0 
0.0 0.0 -5.113130010535e+01 
-4.755827980424e+01 -1.921582873809e+01 0.0 
-1.921582873809e+01 -1.185528585236e+02 0.0 
0.0 0.0 -4.418168055416e+01 
-5.053952276472e+01 -1.879282374466e+01 0.0 
-1.879282374466e+01 -1.198501707980e+02 0.0 
0.0 0.0 -4.554731225479e+01 
-5.380080753171e+01 -1.703065853386e+01 0.0 
-1.703065853386e+01 -1.380648872612e+02 0.0 
0.0 0.0 -5.355557935616e+01 
-5.290549848901e+01 -1.787202537266e+01 0.0 
-1.787202537266e+01 -1.226887629482e+02 0.0 
0.0 0.0 -4.819266761994e+01 
-4.989172104275e+01 -1.844500677460e+01 0.0 
-1.844500677460e+01 -1.026672562081e+02 0.0 
0.0 0.0 -4.028040236524e+01 
-5.071051013545e+01 -1.677437776567e+01 0.0 
-1.677437776567e+01 -1.062934765123e+02 0.0 
0.0 0.0 -4.266678333301e+01 
-1.318019321622e+02 1.995116776927e+00 0.0 
1.995116776927e+00 -3.269300991369e+02 0.0 
0.0 0.0 -1.372196093897e+02 
-3.454984381266e+01 3.548168881221e-01 0.0 
3.548168881221e-01 -1.294035120229e+02 0.0 
0.0 0.0 -4.957342171228e+01 
-7.918793803820e+01 2.479037885200e+01 0.0 
2.479037885200e+01 -1.327857199404e+02 0.0 
0.0 0.0 -6.240888957395e+01 
-1.247917363897e+02 7.006341910848e+00 0.0 
7.006341910848e+00 -3.247504579199e+02 0.0 
0.0 0.0 -1.344626582929e+02 
-1.142105285359e+02 1.668331194763e+01 0.0 
1.668331194763e+01 -3.080679709436e+02 0.0 
0.0 0.0 -1.263166596577e+02 
-9.561004667097e+01 1.220198352474e+01 0.0 
1.220198352474e+01 -1.833228630411e+02 0.0 
0.0 0.0 -8.327987291361e+01 
-9.145906200147e+01 1.015047876002e+01 0.0 
1.015047876002e+01 -1.723017471882e+02 0.0 
0.0 0.0 -7.872824275690e+01 
-8.462951159555e+01 8.521803273561e+00 0.0 
8.521803273561e+00 -1.513836585940e+02 0.0 
0.0 0.0 -7.040395105685e+01 
-8.716662601258e+01 8.240780496808e+00 0.0 
8.240780496808e+00 -1.617707954923e+02 0.0 
0.0 0.0 -7.428122645147e+01 
-9.373200145594e+01 9.748243884936e+00 0.0 
9.748243884936e+00 -1.826046795165e+02 0.0 
0.0 0.0 -8.250100429173e+01 
-8.966487905831e+01 7.952238838071e+00 0.0 
7.952238838071e+00 -1.722586803353e+02 0.0 
0.0 0.0 -7.817706781809e+01 
-8.279025996369e+01 6.558492065399e+00 0.0 
6.558492065399e+00 -1.515962917535e+02 0.0 
0.0 0.0 -6.991596551517e+01 
-8.554239604329e+01 6.358834611387e+00 0.0 
6.358834611387e+00 -1.621940417618e+02 0.0 
0.0 0.0 -7.392093134152e+01 
-7.842003799518e+01 5.097200625784e+00 0.0 
5.097200625784e+00 -1.416857389840e+02 0.0 
0.0 0.0 -6.563173309375e+01 
-8.139555788382e+01 4.971769614989e+00 0.0 
4.971769614989e+00 -1.524058242249e+02 0.0 
0.0 0.0 -6.974041463261e+01 
-8.828042891794e+01 6.115070169288e+00 0.0 
6.115070169288e+00 -1.728860298512e+02 0.0 
0.0 0.0 -7.794993763073e+01 
-8.435809124896e+01 4.811997764391e+00 0.0 
4.811997764391e+00 -1.632427027362e+02 0.0 
0.0 0.0 -7.388023819555e+01 
-7.724116806068e+01 3.785539732417e+00 0.0 
3.785539732417e+00 -1.429074252735e+02 0.0 
0.0 0.0 -6.564457800024e+01 
-8.042691727186e+01 3.692852323729e+00 0.0 
3.692852323729e+00 -1.537730055966e+02 0.0 
0.0 0.0 -6.985997686055e+01 
-7.311652824599e+01 2.819879755185e+00 0.0 
2.819879755185e+00 -1.335387404958e+02 0.0 
0.0 0.0 -6.159658062254e+01 
-7.653607747845e+01 2.769767543848e+00 0.0 
2.769767543848e+00 -1.443547999067e+02 0.0 
0.0 0.0 -6.586726321554e+01 
-8.361882170351e+01 3.468081823067e+00 0.0 
3.468081823067e+00 -1.647220625162e+02 0.0 
0.0 0.0 -7.410226526591e+01 
-3.167249588071e+01 -4.270463861330e+00 0.0 
-4.270463861330e+00 -8.339189087443e+01 0.0 
0.0 0.0 -3.143422293182e+01 
-1.049425455130e+02 1.194266319464e+01 0.0 
1.194266319464e+01 -2.944895492430e+02 0.0 
0.0 0.0 -1.202045651581e+02 
-1.156018545100e+02 1.344982961829e+01 0.0 
1.344982961829e+01 -3.122755916185e+02 0.0 
0.0 0.0 -1.279632338385e+02 
-7.738427838502e+01 -5.082122626411e+00 0.0 
-5.082122626411e+00 -1.667222995059e+02 0.0 
0.0 0.0 -6.681401242535e+01 
-8.589936114658e+01 -4.502527165432e+00 0.0 
-4.502527165432e+00 -1.864615217170e+02 0.0 
0.0 0.0 -7.563232533963e+01 
-8.968376582785e+01 -4.955667037497e+00 0.0 
-4.955667037497e+00 -1.986294707635e+02 0.0 
0.0 0.0 -8.051552436163e+01 
-9.364323630224e+01 -3.838504853701e+00 0.0 
-3.838504853701e+00 -2.070753358173e+02 0.0 
0.0 0.0 -8.479768659998e+01 
-7.989419459336e+01 2.559859901141e+00 0.0 
2.559859901141e+00 -1.552215256228e+02 0.0 
0.0 0.0 -7.013471606485e+01 
-8.672660768758e+01 3.126730476090e+00 0.0 
3.126730476090e+00 -1.757228177040e+02 0.0 
0.0 0.0 -7.833482761748e+01 
-4.217282189213e+01 2.565883641553e+01 0.0 
2.565883641553e+01 -1.150627655933e+02 0.0 
0.0 0.0 -4.218394614711e+01 
-4.440321292131e+01 2.793530998327e+01 0.0 
2.793530998327e+01 -1.138135852706e+02 0.0 
0.0 0.0 -4.285035135950e+01 
-9.958786666486e+01 1.437823153571e+01 0.0 
1.437823153571e+01 -1.948411501462e+02 0.0 
0.0 0.0 -8.792870504332e+01 
-1.239292093683e+02 4.915352645864e-01 0.0 
4.915352645864e-01 -3.051242070504e+02 0.0 
0.0 0.0 -1.278054187054e+02 
-1.182091759171e+02 -3.532602849033e-01 0.0 
-3.532602849033e-01 -2.857720168866e+02 0.0 
0.0 0.0 -1.192692164595e+02 
-6.360637468026e+01 3.113307423857e+01 0.0 
3.113307423857e+01 -1.531492032727e+02 0.0 
0.0 0.0 -6.342700110061e+01 
-6.189628551035e+01 3.199730711557e+01 0.0 
3.199730711557e+01 -1.360479010986e+02 0.0 
0.0 0.0 -5.685953772085e+01 
-5.813840700225e+01 3.199196628794e+01 0.0 
3.199196628794e+01 -1.346956826614e+02 0.0 
0.0 0.0 -5.598968637895e+01 
-5.630897693247e+01 3.250767960398e+01 0.0 
3.250767960398e+01 -1.166929305254e+02 0.0 
0.0 0.0 -4.926225238511e+01 
-5.985755673870e+01 3.218000776763e+01 0.0 
3.218000776763e+01 -1.181502524226e+02 0.0 
0.0 0.0 -4.997492719701e+01 
-5.297520468944e+01 3.264952651655e+01 0.0 
3.264952651655e+01 -1.156762378998e+02 0.0 
0.0 0.0 -4.858570203441e+01 
-1.002197842168e+02 3.987442778276e+00 0.0 
3.987442778276e+00 -2.794696570857e+02 0.0 
0.0 0.0 -1.145699405219e+02 
-9.102325528620e+01 5.822629043353e+00 0.0 
5.822629043353e+00 -1.837473651441e+02 0.0 
0.0 0.0 -8.203118612909e+01 
-5.008691234788e+01 -1.119769560394e+01 0.0 
-1.119769560394e+01 -1.107406525498e+02 0.0 
0.0 0.0 -4.439088772495e+01 
-4.097249326720e+01 -9.862699430577e+00 0.0 
-9.862699430577e+00 -8.962842252386e+01 0.0 
0.0 0.0 -3.555039774891e+01 
-1.315679492635e+02 1.134415576845e+00 0.0 
1.134415576845e+00 -3.243001743664e+02 0.0 
0.0 0.0 -1.363411995628e+02 
-9.473506798363e+01 1.016158956252e+01 0.0 
1.016158956252e+01 -2.768805978176e+02 0.0 
0.0 0.0 -1.140702813832e+02 
-8.725854031097e+01 2.928735198993e+01 0.0 
2.928735198993e+01 -2.129550425489e+02 0.0 
0.0 0.0 -8.934338338287e+01 
-8.995769384686e+01 2.828958972435e+01 0.0 
2.828958972435e+01 -2.282773384077e+02 0.0 
0.0 0.0 -9.494540507825e+01 
-9.446529216844e+01 2.875785272620e+01 0.0 
2.875785272620e+01 -2.315457038634e+02 0.0 
0.0 0.0 -9.740329880954e+01 
-9.801760234142e+01 2.793901621153e+01 0.0 
2.793901621153e+01 -2.465942624116e+02 0.0 
0.0 0.0 -1.029835594259e+02 
-1.027419548980e+02 2.863613728755e+01 0.0 
2.863613728755e+01 -2.503268082799e+02 0.0 
0.0 0.0 -1.055206289534e+02 
-1.067135302096e+02 2.803991584882e+01 0.0 
2.803991584882e+01 -2.650636346729e+02 0.0 
0.0 0.0 -1.111331494648e+02 
-1.019816617722e+02 2.699655823381e+01 0.0 
2.699655823381e+01 -2.610338465437e+02 0.0 
0.0 0.0 -1.085046524948e+02 
-1.127553796658e+02 2.265965865162e+01 0.0 
2.265965865162e+01 -2.968149127944e+02 0.0 
0.0 0.0 -1.224710877380e+02 
-1.111272225807e+02 2.738783328980e+01 0.0 
2.738783328980e+01 -2.792608863632e+02 0.0 
0.0 0.0 -1.167164326831e+02 
-7.268121237219e+01 1.919994761759e+00 0.0 
1.919994761759e+00 -1.347327551531e+02 0.0 
0.0 0.0 -6.182419025757e+01 
-8.656604019708e+01 1.959225305444e+01 0.0 
1.959225305444e+01 -2.557841697758e+02 0.0 
0.0 0.0 -1.048498387414e+02 
-5.642604706610e+01 -1.687554573938e+01 0.0 
-1.687554573938e+01 -1.414830657043e+02 0.0 
0.0 0.0 -5.656118415943e+01 
-2.789937288094e+01 -4.767899553010e+00 0.0 
-4.767899553010e+00 -7.429786988239e+01 0.0 
0.0 0.0 -2.762276983733e+01 
-4.555158780254e+01 -1.514527072729e+01 0.0 
-1.514527072729e+01 -8.427474643454e+01 0.0 
0.0 0.0 -3.377419117110e+01 
-3.602659314787e+01 -3.638060586170e+00 0.0 
-3.638060586170e+00 -9.129727861527e+01 0.0 
0.0 0.0 -3.491305190720e+01 
-4.934471633713e+01 -4.252859664789e+00 0.0 
-4.252859664789e+00 -1.121531904414e+02 0.0 
0.0 0.0 -4.375783675242e+01 
-1.294764054103e+02 8.970909469865e+00 0.0 
8.970909469865e+00 -3.340724355404e+02 0.0 
0.0 0.0 -1.386646522852e+02 
-1.112119781504e+02 2.890519481977e+01 0.0 
2.890519481977e+01 -2.690979818505e+02 0.0 
0.0 0.0 -1.136929880003e+02 
-1.071448272091e+02 2.909304177305e+01 0.0 
2.909304177305e+01 -2.540366740100e+02 0.0 
0.0 0.0 -1.079544503657e+02 
-5.409312799631e+01 3.230917523765e+01 0.0 
3.230917523765e+01 -9.833983790489e+01 0.0 
0.0 0.0 -4.228241097780e+01 
-5.749994156493e+01 3.171948829035e+01 0.0 
3.171948829035e+01 -9.967016113790e+01 0.0 
0.0 0.0 -4.292989786105e+01 
-1.185650720052e+02 2.179066127661e+01 0.0 
2.179066127661e+01 -3.091474210889e+02 0.0 
0.0 0.0 -1.279137479282e+02 
-7.962557684873e+01 9.287637681674e+00 0.0 
9.287637681674e+00 -1.314461288734e+02 0.0 
0.0 0.0 -6.292151171665e+01 
-7.544769540019e+01 5.160346562634e+00 0.0 
5.160346562634e+00 -1.311219553622e+02 0.0 
0.0 0.0 -6.157089522872e+01 
-7.075456854135e+01 3.841815458907e+00 0.0 
3.841815458907e+00 -1.212889434339e+02 0.0 
0.0 0.0 -5.721305359259e+01 
-2.197300135634e+01 -2.416412533506e+00 0.0 
-2.416412533506e+00 -6.909671121042e+01 0.0 
0.0 0.0 -2.557170014984e+01 
-4.600163712014e+01 -1.758877789258e+01 0.0 
-1.758877789258e+01 -8.113758257344e+01 0.0 
0.0 0.0 -3.202231641408e+01 
-9.602271170101e+01 9.307774590608e+00 0.0 
9.307774590608e+00 -1.930698511117e+02 0.0 
0.0 0.0 -8.632776884381e+01 
-4.667628104867e+01 2.657497913815e+01 0.0 
2.657497913815e+01 -1.296168381471e+02 0.0 
0.0 0.0 -4.898030076588e+01 
-4.640852963949e+01 2.968646332042e+01 0.0 
2.968646332042e+01 -1.135140072639e+02 0.0 
0.0 0.0 -4.423080802352e+01 
-3.353166608634e+01 1.124192312593e+01 0.0 
1.124192312593e+01 -1.222856124314e+02 0.0 
0.0 0.0 -4.790083312917e+01 
-3.083166883084e+01 4.969273750846e-01 0.0 
4.969273750846e-01 -1.227416457599e+02 0.0 
0.0 0.0 -4.835453926776e+01 
-8.322996582210e+01 2.156167709228e+00 0.0 
2.156167709228e+00 -1.659267896161e+02 0.0 
0.0 0.0 -7.434702663146e+01 
-8.991140718760e+01 2.662323513811e+00 0.0 
2.662323513811e+00 -1.863284173814e+02 0.0 
0.0 0.0 -8.247194737072e+01 
-9.689952172719e+01 -4.010598741931e+00 0.0 
-4.010598741931e+00 -2.188588846281e+02 0.0 
0.0 0.0 -8.959454391003e+01 
-1.005911633873e+02 -3.017754232153e+00 0.0 
-3.017754232153e+00 -2.271816414241e+02 0.0 
0.0 0.0 -9.364134340599e+01 
-1.235320815890e+02 9.661392798650e+00 0.0 
9.661392798650e+00 -3.248523967309e+02 0.0 
0.0 0.0 -1.341153434960e+02 
-4.602096801172e+01 -1.392848231724e+01 0.0 
-1.392848231724e+01 -9.011388167519e+01 0.0 
0.0 0.0 -3.653261544609e+01 
-9.335616541850e+01 3.748855584432e+00 0.0 
3.748855584432e+00 -1.962596112409e+02 0.0 
0.0 0.0 -8.648473299783e+01 
-1.008138807914e+02 9.366979551022e+00 0.0 
9.366979551022e+00 -2.869726224061e+02 0.0 
0.0 0.0 -1.174836542487e+02 
-9.132258565199e+01 7.407675019607e+00 0.0 
7.407675019607e+00 -2.693549655661e+02 0.0 
0.0 0.0 -1.117087662453e+02 
-8.979543225963e+01 -3.425676641718e+00 0.0 
-3.425676641718e+00 -1.947983262945e+02 0.0 
0.0 0.0 -7.985800267644e+01 
-4.360148197317e+01 2.984293191721e+01 0.0 
2.984293191721e+01 -9.779311350880e+01 0.0 
0.0 0.0 -3.767564680236e+01 
-4.174381508416e+01 2.835582153342e+01 0.0 
2.835582153342e+01 -1.002854627623e+02 0.0 
0.0 0.0 -3.815137943532e+01 
-5.754333847885e+01 -1.530790167484e+01 0.0 
-1.530790167484e+01 -1.556499157902e+02 0.0 
0.0 0.0 -6.183766173186e+01 
-5.157957002021e+01 -1.572922853381e+01 0.0 
-1.572922853381e+01 -1.112380699154e+02 0.0 
0.0 0.0 -4.525493958432e+01 
-4.118066819764e+01 -2.829401835369e+00 0.0 
-2.829401835369e+00 -9.990820028661e+01 0.0 
0.0 0.0 -3.895772123965e+01 
-1.343742838515e+02 1.103630379829e+01 0.0 
1.103630379829e+01 -3.428515412995e+02 0.0 
0.0 0.0 -1.427677475453e+02 
-9.976546761887e+01 1.113523934681e+01 0.0 
1.113523934681e+01 -2.034620688346e+02 0.0 
0.0 0.0 -9.056826093603e+01 
-1.064749740898e+02 2.607700266141e+01 0.0 
2.607700266141e+01 -2.748591948030e+02 0.0 
0.0 0.0 -1.140002506678e+02 
-9.704499584288e+01 2.578186935568e+01 0.0 
2.578186935568e+01 -2.567933310191e+02 0.0 
0.0 0.0 -1.057514980586e+02 
-1.162862910904e+02 2.671048456038e+01 0.0 
2.671048456038e+01 -2.931401969313e+02 0.0 
0.0 0.0 -1.224279464065e+02 
-3.967264431970e+01 -1.105499611558e+01 0.0 
-1.105499611558e+01 -6.855331230969e+01 0.0 
0.0 0.0 -2.783030070987e+01 
-1.354109835089e+02 8.308574922223e+00 0.0 
8.308574922223e+00 -3.432158827451e+02 0.0 
0.0 0.0 -1.431880598762e+02 
-1.274272168707e+02 5.587963962888e-01 0.0 
5.587963962888e-01 -3.134861339239e+02 0.0 
0.0 0.0 -1.316552637216e+02 
-1.149946221952e+02 2.950496026855e+01 0.0 
2.950496026855e+01 -2.723278681453e+02 0.0 
0.0 0.0 -1.157967471022e+02 
-1.112455977945e+02 2.934568073896e+01 0.0 
2.934568073896e+01 -2.580266753886e+02 0.0 
0.0 0.0 -1.103816819549e+02 
-4.889922798745e+01 2.874063502391e+01 0.0 
2.874063502391e+01 -1.299326119861e+02 0.0 
0.0 0.0 -5.077577279060e+01 
-4.823160954058e+01 3.116245917286e+01 0.0 
3.116245917286e+01 -1.138381684595e+02 0.0 
0.0 0.0 -4.604468904197e+01 
-4.635521414750e+01 3.170527792674e+01 0.0 
3.170527792674e+01 -9.627456763461e+01 0.0 
0.0 0.0 -3.943863058354e+01 
-4.745112809409e+01 3.242123555763e+01 0.0 
3.242123555763e+01 -9.636121732549e+01 0.0 
0.0 0.0 -4.048723049963e+01 
-7.814772538229e+01 1.982403412876e+01 0.0 
1.982403412876e+01 -1.225506687777e+02 0.0 
0.0 0.0 -5.957184491603e+01 
-5.138552599454e+01 3.044268273795e+01 0.0 
3.044268273795e+01 -1.309440795785e+02 0.0 
0.0 0.0 -5.298671752383e+01 
-7.654069302844e+01 2.662964788406e+01 0.0 
2.662964788406e+01 -1.284351780245e+02 0.0 
0.0 0.0 -5.952596479793e+01 
-7.354662777527e+01 2.390933568770e+01 0.0 
2.390933568770e+01 -1.109485475310e+02 0.0 
0.0 0.0 -5.334200681363e+01 
-7.080494420952e+01 2.604253156580e+01 0.0 
2.604253156580e+01 -1.069791258389e+02 0.0 
0.0 0.0 -5.048258385163e+01 
-6.346773491876e+01 3.158819149565e+01 0.0 
3.158819149565e+01 -1.195122112917e+02 0.0 
0.0 0.0 -5.059519396623e+01 
-6.099858751733e+01 3.078368650837e+01 0.0 
3.078368650837e+01 -1.008074229545e+02 0.0 
0.0 0.0 -4.357322586867e+01 
-5.145667773390e+01 2.185129789934e+01 0.0 
2.185129789934e+01 -1.596266267787e+02 0.0 
0.0 0.0 -6.055509857209e+01 
-7.521784736216e+01 1.702170912056e+01 0.0 
1.702170912056e+01 -2.341321106833e+02 0.0 
0.0 0.0 -9.731198641675e+01 
-9.299957078902e+01 -5.069413196934e+00 0.0 
-5.069413196934e+00 -2.107029258913e+02 0.0 
0.0 0.0 -8.549149432131e+01 
-1.076515166491e+02 -1.969849773142e+00 0.0 
-1.969849773142e+00 -2.615622310771e+02 0.0 
0.0 0.0 -1.078145739925e+02 
-9.276413060879e+01 -1.043726701661e+00 0.0 
-1.043726701661e+00 -2.517079326961e+02 0.0 
0.0 0.0 -1.041146721424e+02 
-9.463445855689e+01 7.234443277071e+00 0.0 
7.234443277071e+00 -1.933976919975e+02 0.0 
0.0 0.0 -8.600964516633e+01 
-9.721513127618e+01 6.797985127124e+00 0.0 
6.797985127124e+00 -2.043982405747e+02 0.0 
0.0 0.0 -9.008401155526e+01 
-6.971174008795e+01 2.798468862407e+00 0.0 
2.798468862407e+00 -1.227077305288e+02 0.0 
0.0 0.0 -5.732584118503e+01 
-6.555477233474e+01 2.002754503852e+00 0.0 
2.002754503852e+00 -1.133664949525e+02 0.0 
0.0 0.0 -5.327638018616e+01 
-3.353179597331e+01 -7.259453939523e+00 0.0 
-7.259453939523e+00 -7.717822024804e+01 0.0 
0.0 0.0 -2.976964313250e+01 
-3.202683261705e+01 -7.287037440902e+00 0.0 
-7.287037440902e+00 -6.872840882457e+01 0.0 
0.0 0.0 -2.687172379513e+01 
-9.553409745885e+01 -4.237308485459e+00 0.0 
-4.237308485459e+00 -2.379248270457e+02 0.0 
0.0 0.0 -9.732361472624e+01 
-1.304346957320e+02 6.500414872528e+00 0.0 
6.500414872528e+00 -3.333620649757e+02 0.0 
0.0 0.0 -1.387390282123e+02 
-1.013887012316e+02 1.368130637698e+01 0.0 
1.368130637698e+01 -2.041766978256e+02 0.0 
0.0 0.0 -9.126961971717e+01 
-1.050852882579e+02 1.591231644055e+01 0.0 
1.591231644055e+01 -2.158520605768e+02 0.0 
0.0 0.0 -9.588120465039e+01 
-1.033733106304e+02 1.665371945221e+01 0.0 
1.665371945221e+01 -2.067148290490e+02 0.0 
0.0 0.0 -9.262644190380e+01 
-1.282198148346e+02 1.185482587787e+01 0.0 
1.185482587787e+01 -3.330857048447e+02 0.0 
0.0 0.0 -1.379916559038e+02 
-5.378957824014e+01 8.585149046911e+00 0.0 
8.585149046911e+00 -1.799444601910e+02 0.0 
0.0 0.0 -6.761922135426e+01 
-7.987521325029e+01 9.327730261127e+00 0.0 
9.327730261127e+00 -2.491707684557e+02 0.0 
0.0 0.0 -1.042035372395e+02 
-3.429814295384e+01 -9.964686861663e+00 0.0 
-9.964686861663e+00 -1.224892480747e+02 0.0 
0.0 0.0 -4.795062642060e+01 
-8.176335967537e+01 2.662501900149e+01 0.0 
2.662501900149e+01 -2.217083824383e+02 0.0 
0.0 0.0 -9.102975296616e+01 
-2.377915493880e+01 -4.348897657433e+00 0.0 
-4.348897657433e+00 -5.670883636461e+01 0.0 
0.0 0.0 -2.140932748761e+01 
-9.693504417175e+01 2.820448376127e+01 0.0 
2.820448376127e+01 -2.072692367207e+02 0.0 
0.0 0.0 -9.086128426774e+01 
-1.360965116749e+02 9.689252805714e-01 0.0 
9.689252805714e-01 -3.326801678264e+02 0.0 
0.0 0.0 -1.402330038504e+02 
-1.410403988002e+02 1.564208628590e+00 0.0 
1.564208628590e+00 -3.432433279327e+02 0.0 
0.0 0.0 -1.448851180199e+02 
-1.234295730895e+02 2.373588209482e+01 0.0 
2.373588209482e+01 -3.147458518134e+02 0.0 
0.0 0.0 -1.310526274709e+02 
-6.725902728604e+01 1.397392918557e+01 0.0 
1.397392918557e+01 -8.669494596186e+01 0.0 
0.0 0.0 -4.505240187009e+01 
-8.404097900651e+01 2.484843331611e+01 0.0 
2.484843331611e+01 -2.351199108295e+02 0.0 
0.0 0.0 -9.633218938047e+01 
-7.982879402907e+01 2.356855929831e+01 0.0 
2.356855929831e+01 -2.308168168367e+02 0.0 
0.0 0.0 -9.493136813154e+01 
-6.730855633729e+01 2.267485797525e+01 0.0 
2.267485797525e+01 -8.896317149954e+01 0.0 
0.0 0.0 -4.411607698958e+01 
-6.441941239696e+01 2.513365981055e+01 0.0 
2.513365981055e+01 -8.518799724546e+01 0.0 
0.0 0.0 -4.122956846959e+01 
-6.771720681594e+01 2.792443097488e+01 0.0 
2.792443097488e+01 -1.041699521599e+02 0.0 
0.0 0.0 -4.775812647397e+01 
-6.148277950378e+01 2.738500675589e+01 0.0 
2.738500675589e+01 -8.306467786694e+01 0.0 
0.0 0.0 -3.865205492561e+01 
-6.065985548640e+01 -1.565640136140e+01 0.0 
-1.565640136140e+01 -1.598385216932e+02 0.0 
0.0 0.0 -6.468037472733e+01 
-5.912191708644e+01 -1.654895603520e+01 0.0 
-1.654895603520e+01 -1.459206036032e+02 0.0 
0.0 0.0 -5.924260005773e+01 
-1.205268441449e+02 2.976032490723e+01 0.0 
2.976032490723e+01 -2.891530707065e+02 0.0 
0.0 0.0 -1.225039744554e+02 
-1.204239921953e+02 2.815014606363e+01 0.0 
2.815014606363e+01 -2.973519510054e+02 0.0 
0.0 0.0 -1.249327829602e+02 
-1.187924615642e+02 3.015728700222e+01 0.0 
3.015728700222e+01 -2.769041124397e+02 0.0 
0.0 0.0 -1.183089722012e+02 
-1.152685712420e+02 2.956187490986e+01 0.0 
2.956187490986e+01 -2.628300411123e+02 0.0 
0.0 0.0 -1.130295837063e+02 
-1.295925829194e+02 2.300297056923e+01 0.0 
2.300297056923e+01 -3.270484089413e+02 0.0 
0.0 0.0 -1.365922975582e+02 
-1.244128743711e+02 2.094336273409e+01 0.0 
2.094336273409e+01 -3.209137605620e+02 0.0 
0.0 0.0 -1.331979904799e+02 
-5.406075491838e+01 -3.182884095362e+00 0.0 
-3.182884095362e+00 -1.200791727396e+02 0.0 
0.0 0.0 -4.766068458096e+01 
-5.498495584853e+01 3.062887706121e+01 0.0 
3.062887706121e+01 -8.061966105992e+01 0.0 
0.0 0.0 -3.579956202613e+01 
-1.019636923826e+02 1.057808957558e+01 0.0 
1.057808957558e+01 -2.138586224510e+02 0.0 
0.0 0.0 -9.434669445007e+01 
-6.978339400505e+01 2.021599895795e+01 0.0 
2.021599895795e+01 -9.404982824655e+01 0.0 
0.0 0.0 -4.718537647679e+01 
-1.409668400454e+02 7.616301991029e+00 0.0 
7.616301991029e+00 -3.514223322647e+02 0.0 
0.0 0.0 -1.473167516930e+02 
-1.359927868377e+02 6.029912661216e+00 0.0 
6.029912661216e+00 -3.418443667549e+02 0.0 
0.0 0.0 -1.429511460778e+02 
-3.406589854550e+01 -1.154062755370e+01 0.0 
-1.154062755370e+01 -1.182565863744e+02 0.0 
0.0 0.0 -4.780944181765e+01 
-3.723643519242e+01 -2.070469720199e+01 0.0 
-2.070469720199e+01 -1.071767011312e+02 0.0 
0.0 0.0 -4.282479577105e+01 
-9.641316369669e+01 3.177865605298e+00 0.0 
3.177865605298e+00 -2.072019366604e+02 0.0 
0.0 0.0 -9.068453010713e+01 
-4.584202233333e+01 3.214666106453e+01 0.0 
3.214666106453e+01 -7.754226457878e+01 0.0 
0.0 0.0 -3.378315011083e+01 
-4.608808939643e+01 3.212540892485e+01 0.0 
3.212540892485e+01 -7.690147105143e+01 0.0 
0.0 0.0 -3.403329317628e+01 
-4.531593134728e+01 3.206969996701e+01 0.0 
3.206969996701e+01 -7.820740831990e+01 0.0 
0.0 0.0 -3.327542665616e+01 
-1.560151736805e+02 4.570661561413e-01 0.0 
4.570661561413e-01 -3.713823877013e+02 0.0 
0.0 0.0 -1.578192684145e+02 
-4.841414474983e+01 1.557050245421e-01 0.0 
1.557050245421e-01 -7.491762191152e+01 0.0 
0.0 0.0 -3.659952999841e+01 
-1.457575184549e+02 1.244814592398e+00 0.0 
1.244814592398e+00 -3.517592518843e+02 0.0 
0.0 0.0 -1.488550311018e+02 
-6.707330483387e+01 3.075523172779e+01 0.0 
3.075523172779e+01 -1.210044839694e+02 0.0 
0.0 0.0 -5.186305605387e+01 
-9.980006143229e+01 4.315529182700e+00 0.0 
4.315529182700e+00 -2.172808951619e+02 0.0 
0.0 0.0 -9.472428697827e+01 
-8.722864737053e+01 2.307574905051e+01 0.0 
2.307574905051e+01 -2.478993215310e+02 0.0 
0.0 0.0 -1.013355475554e+02 
-5.933100177281e+01 3.077406720768e+01 0.0 
3.077406720768e+01 -1.511212821614e+02 0.0 
0.0 0.0 -6.208853902563e+01 
-1.174558516145e+02 1.040032522269e+01 0.0 
1.040032522269e+01 -3.152327156948e+02 0.0 
0.0 0.0 -1.294065701928e+02 
-9.279043036987e+01 2.144864546886e+00 0.0 
2.144864546886e+00 -1.961399473491e+02 0.0 
0.0 0.0 -8.627911331568e+01 
-9.948464232662e+01 2.445973180986e+00 0.0 
2.445973180986e+00 -2.186575546145e+02 0.0 
0.0 0.0 -9.504265908233e+01 
-6.757502927124e+01 3.778615653513e+00 0.0 
3.778615653513e+00 -1.107240043171e+02 0.0 
0.0 0.0 -5.308971007649e+01 
-6.245715630034e+01 2.761378907415e+00 0.0 
2.761378907415e+00 -1.005295238534e+02 0.0 
0.0 0.0 -4.849600404614e+01 
-7.216897096142e+01 5.168164293763e+00 0.0 
5.168164293763e+00 -1.200510191417e+02 0.0 
0.0 0.0 -5.726599703092e+01 
-3.643311779479e+01 1.784804350457e+01 0.0 
1.784804350457e+01 -1.192070740925e+02 0.0 
0.0 0.0 -4.445944494127e+01 
-3.551478895458e+01 2.319227436994e+01 0.0 
2.319227436994e+01 -1.057700864022e+02 0.0 
0.0 0.0 -4.252614757923e+01 
-9.370873300486e+01 5.403366600987e+00 0.0 
5.403366600987e+00 -1.945866145658e+02 0.0 
0.0 0.0 -8.608860427119e+01 
-6.755186194044e+01 -5.504945604835e+00 0.0 
-5.504945604835e+00 -1.454622071493e+02 0.0 
0.0 0.0 -5.763647333252e+01 
-7.307362179630e+01 -4.247354237197e+00 0.0 
-4.247354237197e+00 -1.559850578494e+02 0.0 
0.0 0.0 -6.275662027176e+01 
-4.641869453177e+01 -1.317242369484e+01 0.0 
-1.317242369484e+01 -9.611454268014e+01 0.0 
0.0 0.0 -3.898293429145e+01 
-5.304586122085e+01 -1.455670385478e+01 0.0 
-1.455670385478e+01 -1.171079020105e+02 0.0 
0.0 0.0 -4.767426399414e+01 
-9.966695383807e+01 -3.890851466520e+00 0.0 
-3.890851466520e+00 -2.306325686699e+02 0.0 
0.0 0.0 -9.439849826733e+01 
-9.576307021687e+01 -4.869106290637e+00 0.0 
-4.869106290637e+00 -2.226179019051e+02 0.0 
0.0 0.0 -9.052292686975e+01 
-1.001033663566e+02 2.880374297229e+01 0.0 
2.880374297229e+01 -2.231854555865e+02 0.0 
0.0 0.0 -9.658664658293e+01 
-1.040089416059e+02 2.831074070091e+01 0.0 
2.831074070091e+01 -2.274343522905e+02 0.0 
0.0 0.0 -9.903298816892e+01 
-9.141387211438e+01 2.937866031834e+01 0.0 
2.937866031834e+01 -2.159502638783e+02 0.0 
0.0 0.0 -9.173931334194e+01 
-9.722619636994e+01 6.794001039804e+00 0.0 
6.794001039804e+00 -2.789322672533e+02 0.0 
0.0 0.0 -1.147584974082e+02 
-8.901083701685e+01 4.652080327839e+00 0.0 
4.652080327839e+00 -2.611697128682e+02 0.0 
0.0 0.0 -1.088459491529e+02 
-8.298141695020e+01 4.977743839724e+00 0.0 
4.977743839724e+00 -2.518234844720e+02 0.0 
0.0 0.0 -1.051990792983e+02 
-1.002672103364e+02 8.272802186671e+00 0.0 
8.272802186671e+00 -2.136645768153e+02 0.0 
0.0 0.0 -9.377953614550e+01 
-1.035000283296e+02 7.678864342738e+00 0.0 
7.678864342738e+00 -2.270673197886e+02 0.0 
0.0 0.0 -9.877020443547e+01 
-6.184772271107e+01 -1.360112088527e+01 0.0 
-1.360112088527e+01 -1.728820790347e+02 0.0 
0.0 0.0 -6.975897521666e+01 
-5.815119327687e+01 -1.249677081885e+01 0.0 
-1.249677081885e+01 -1.683267860119e+02 0.0 
0.0 0.0 -6.652239409749e+01 
-6.473731166131e+01 -1.487590028733e+01 0.0 
-1.487590028733e+01 -1.649184572840e+02 0.0 
0.0 0.0 -6.733347514015e+01 
-1.053629312570e+02 1.244235382054e+01 0.0 
1.244235382054e+01 -2.244260092307e+02 0.0 
0.0 0.0 -9.853668214631e+01 
-1.505946652891e+02 1.816338570580e+00 0.0 
1.816338570580e+00 -3.619080998348e+02 0.0 
0.0 0.0 -1.533508295372e+02 
-1.460067728856e+02 2.287715524932e+00 0.0 
2.287715524932e+00 -3.536692701705e+02 0.0 
0.0 0.0 -1.495028129168e+02 
-2.294038433853e+01 -3.873360087406e+00 0.0 
-3.873360087406e+00 -4.862350705911e+01 0.0 
0.0 0.0 -1.871434210917e+01 
-3.100673883033e+01 -6.957996741843e+00 0.0 
-6.957996741843e+00 -6.034523228277e+01 0.0 
0.0 0.0 -2.376085655796e+01 
-4.367912689644e+01 3.178874671587e+01 0.0 
3.178874671587e+01 -8.104201176671e+01 0.0 
0.0 0.0 -3.251633174471e+01 
-4.218455484608e+01 3.139535421382e+01 0.0 
3.139535421382e+01 -8.507812685628e+01 0.0 
0.0 0.0 -3.395663532492e+01 
-1.083550897645e+02 1.814117339149e+01 0.0 
1.814117339149e+01 -2.274456240327e+02 0.0 
0.0 0.0 -1.003402141392e+02 
-1.071364173729e+02 1.901044548137e+01 0.0 
1.901044548137e+01 -2.194137232962e+02 0.0 
0.0 0.0 -9.756504220070e+01 
-1.105135715175e+02 1.748472195988e+01 0.0 
1.748472195988e+01 -2.384553381301e+02 0.0 
0.0 0.0 -1.042906728943e+02 
-4.498763367286e+01 -1.973525078255e+00 0.0 
-1.973525078255e+00 -1.066185869682e+02 0.0 
0.0 0.0 -4.215344794664e+01 
-1.016198262108e+02 2.457628442865e+01 0.0 
2.457628442865e+01 -2.702360318190e+02 0.0 
0.0 0.0 -1.111567574089e+02 
-1.390398798742e+02 1.320636509018e+01 0.0 
1.320636509018e+01 -3.501026686486e+02 0.0 
0.0 0.0 -1.463427645569e+02 
-1.325779241584e+02 1.410785497086e+01 0.0 
1.410785497086e+01 -3.401100420529e+02 0.0 
0.0 0.0 -1.414063898634e+02 
-1.466244121101e+02 1.244455800893e+01 0.0 
1.244455800893e+01 -3.620710544539e+02 0.0 
0.0 0.0 -1.522086399692e+02 
-1.174790802509e+02 2.449079648555e+01 0.0 
2.449079648555e+01 -3.019763233350e+02 0.0 
0.0 0.0 -1.254366210758e+02 
-1.278874274655e+02 2.551175040957e+01 0.0 
2.551175040957e+01 -3.196538344371e+02 0.0 
0.0 0.0 -1.338623785708e+02 
-1.262721078491e+02 2.765434010098e+01 0.0 
2.765434010098e+01 -3.111072518992e+02 0.0 
0.0 0.0 -1.308138079245e+02 
-3.946426167505e+01 1.215969258434e+00 0.0 
1.215969258434e+00 -1.205882117763e+02 0.0 
0.0 0.0 -4.988851455557e+01 
-9.709838666646e+01 1.651127264911e+00 0.0 
1.651127264911e+00 -2.113139359856e+02 0.0 
0.0 0.0 -9.212369679563e+01 
-6.142760965457e+01 1.910425081756e+00 0.0 
1.910425081756e+00 -1.016642697847e+02 0.0 
0.0 0.0 -4.852756383178e+01 
-5.116625638012e+01 -7.163224043384e+00 0.0 
-7.163224043384e+00 -1.155763219600e+02 0.0 
0.0 0.0 -5.146507203595e+01 
-5.722044870932e+01 1.287430428013e+00 0.0 
1.287430428013e+00 -9.260226538142e+01 0.0 
0.0 0.0 -4.454681422722e+01 
-6.128362583201e+01 1.379596335113e+00 0.0 
1.379596335113e+00 -1.040082118365e+02 0.0 
0.0 0.0 -4.918755130055e+01 
-5.253908694227e+01 8.299624084584e-01 0.0 
8.299624084584e-01 -8.240659649318e+01 0.0 
0.0 0.0 -4.008370503063e+01 
-3.105856527751e+01 -1.682038627748e+00 0.0 
-1.682038627748e+00 -8.652124928852e+01 0.0 
0.0 0.0 -3.329697268156e+01 
-6.269905341034e+01 3.628526227409e+00 0.0 
3.628526227409e+00 -9.654330704749e+01 0.0 
0.0 0.0 -4.737270813735e+01 
-6.914855207049e+01 5.395629900857e+00 0.0 
5.395629900857e+00 -1.095536799987e+02 0.0 
0.0 0.0 -5.321066962077e+01 
-2.046850673516e+01 -3.166599519915e+00 0.0 
-3.166599519915e+00 -3.675107572655e+01 0.0 
0.0 0.0 -1.493850095283e+01 
-1.068787354970e+02 1.157163319717e+01 0.0 
1.157163319717e+01 -2.343257933370e+02 0.0 
0.0 0.0 -1.019613586502e+02 
-1.590681418794e+01 -1.462588467741e+00 0.0 
-1.462588467741e+00 -3.779585369743e+01 0.0 
0.0 0.0 -1.438134364016e+01 
-1.720781355653e+01 -1.760542262091e+00 0.0 
-1.760542262091e+00 -4.562244890069e+01 0.0 
0.0 0.0 -1.684961700710e+01 
-1.465174429242e+02 6.954090900823e+00 0.0 
6.954090900823e+00 -3.600777414507e+02 0.0 
0.0 0.0 -1.515785553125e+02 
-1.413246591451e+02 5.528480869123e+00 0.0 
5.528480869123e+00 -3.500899581730e+02 0.0 
0.0 0.0 -1.470243851954e+02 
-1.515172425205e+02 6.322375361677e+00 0.0 
6.322375361677e+00 -3.678328688284e+02 0.0 
0.0 0.0 -1.554050334047e+02 
-1.462456491758e+02 4.989884106691e+00 0.0 
4.989884106691e+00 -3.576694356616e+02 0.0 
0.0 0.0 -1.507745254512e+02 
-1.363929194247e+02 4.269955218989e+00 0.0 
4.269955218989e+00 -3.398049059053e+02 0.0 
0.0 0.0 -1.424593475990e+02 
-1.416206658568e+02 3.906345605976e+00 0.0 
3.906345605976e+00 -3.482585344598e+02 0.0 
0.0 0.0 -1.465637600950e+02 
-5.749452790949e+01 1.863608026564e+00 0.0 
1.863608026564e+00 -9.049537896293e+01 0.0 
0.0 0.0 -4.399697206173e+01 
-1.529022664701e+02 4.641425017040e+00 0.0 
4.641425017040e+00 -3.686782495421e+02 0.0 
0.0 0.0 -1.560741548037e+02 
-1.469344468985e+02 3.496967194686e+00 0.0 
3.496967194686e+00 -3.569221995707e+02 0.0 
0.0 0.0 -1.507569939408e+02 
-1.578837667964e+02 4.013028556781e+00 0.0 
4.013028556781e+00 -3.774286070092e+02 0.0 
0.0 0.0 -1.601937121417e+02 
-5.778253480994e+01 2.360792743912e+01 0.0 
2.360792743912e+01 -6.302000974837e+01 0.0 
0.0 0.0 -3.191885757188e+01 
-4.883134808017e+01 3.273911037111e+01 0.0 
3.273911037111e+01 -9.618854253608e+01 0.0 
0.0 0.0 -4.109003755914e+01 
-4.695741839090e+01 3.210447809914e+01 0.0 
3.210447809914e+01 -7.708715886900e+01 0.0 
0.0 0.0 -3.443483393237e+01 
-4.416737377890e+01 3.098041117134e+01 0.0 
3.098041117134e+01 -5.583435359374e+01 0.0 
0.0 0.0 -2.695825491103e+01 
-1.233797131742e+02 3.075863318079e+01 0.0 
3.075863318079e+01 -2.846758405799e+02 0.0 
0.0 0.0 -1.220166661262e+02 
-1.179292846433e+02 2.946550526451e+01 0.0 
2.946550526451e+01 -2.665019362425e+02 0.0 
0.0 0.0 -1.149293662657e+02 
-1.314664043493e+02 4.870985515290e-01 0.0 
4.870985515290e-01 -3.224457135423e+02 0.0 
0.0 0.0 -1.357342644032e+02 
-1.243818773762e+02 1.308353716025e-01 0.0 
1.308353716025e-01 -3.029654010055e+02 0.0 
0.0 0.0 -1.271081411733e+02 
-5.662638331148e+01 8.078847857947e-01 0.0 
8.078847857947e-01 -9.367324643395e+01 0.0 
0.0 0.0 -4.468988892363e+01 
-5.581625593982e+01 6.076770159496e-01 0.0 
6.076770159496e-01 -9.259411999425e+01 0.0 
0.0 0.0 -4.412311278022e+01 
-6.301215187424e+01 8.464543468360e-01 0.0 
8.464543468360e-01 -1.106144247492e+02 0.0 
0.0 0.0 -5.168797298703e+01 
-6.171031379627e+01 6.964941642132e-01 0.0 
6.964941642132e-01 -1.081417706930e+02 0.0 
0.0 0.0 -5.055562534678e+01 
-6.872889607978e+01 9.443023368432e-01 0.0 
9.443023368432e-01 -1.263382959774e+02 0.0 
0.0 0.0 -5.812015761716e+01 
-6.751839245770e+01 7.280532815889e-01 0.0 
7.280532815889e-01 -1.235565574450e+02 0.0 
0.0 0.0 -5.692248497080e+01 
-7.449975484809e+01 1.223190299613e+00 0.0 
1.223190299613e+00 -1.421793603447e+02 0.0 
0.0 0.0 -6.460373455784e+01 
-1.303299341233e+02 2.946761497494e+01 0.0 
2.946761497494e+01 -3.154631531126e+02 0.0 
0.0 0.0 -1.333379261708e+02 
-4.490725503081e+01 3.160996989652e+01 0.0 
3.160996989652e+01 -5.846925695502e+01 0.0 
0.0 0.0 -2.735474259123e+01 
-6.282685576425e+01 1.804762740499e+01 0.0 
1.804762740499e+01 -7.174392405082e+01 0.0 
0.0 0.0 -3.778901295305e+01 
-1.356127066090e+02 2.219729061873e+01 0.0 
2.219729061873e+01 -3.386806442671e+02 0.0 
0.0 0.0 -1.418880052628e+02 
-1.295966330002e+02 1.999322021275e+01 0.0 
1.999322021275e+01 -3.310143519792e+02 0.0 
0.0 0.0 -1.377832954938e+02 
-5.815656879719e+01 2.910394142407e+01 0.0 
2.910394142407e+01 -8.141393087182e+01 0.0 
0.0 0.0 -3.652032896588e+01 
-5.233273907473e+01 2.845832194229e+01 0.0 
2.845832194229e+01 -6.045182438820e+01 0.0 
0.0 0.0 -2.836222686090e+01 
-1.476881788432e+02 9.413068697333e+00 0.0 
9.413068697333e+00 -3.633783724235e+02 0.0 
0.0 0.0 -1.529199653800e+02 
-5.266160211952e+01 2.795638270334e+01 0.0 
2.795638270334e+01 -1.462835203104e+02 0.0 
0.0 0.0 -5.783254160130e+01 
-1.105485850895e+02 1.376125882547e+01 0.0 
1.376125882547e+01 -2.479916247848e+02 0.0 
0.0 0.0 -1.071620629623e+02 
-6.392764673095e+01 2.830080392877e+01 0.0 
2.830080392877e+01 -8.597678689060e+01 0.0 
0.0 0.0 -4.578653617861e+01 
-4.302874004796e+01 2.612573178036e+01 0.0 
2.612573178036e+01 -1.004104378707e+02 0.0 
0.0 0.0 -4.455908490470e+01 
-5.575286224301e+01 2.962600469278e+01 0.0 
2.962600469278e+01 -1.481062346533e+02 0.0 
0.0 0.0 -6.023351349257e+01 
-6.451632428122e+01 2.950337271375e+01 0.0 
2.950337271375e+01 -1.022590968549e+02 0.0 
0.0 0.0 -4.522487676737e+01 
-5.095219188586e+01 3.264208453755e+01 0.0 
3.264208453755e+01 -9.665914276299e+01 0.0 
0.0 0.0 -4.158006747948e+01 
-4.898865546177e+01 3.210808999794e+01 0.0 
3.210808999794e+01 -7.861959846021e+01 0.0 
0.0 0.0 -3.495077036547e+01 
-1.069210419710e+02 8.685410397384e+00 0.0 
8.685410397384e+00 -2.969491724675e+02 0.0 
0.0 0.0 -1.212793568600e+02 
-3.079409079814e+01 -7.014588500962e+00 0.0 
-7.014588500962e+00 -5.332129862470e+01 0.0 
0.0 0.0 -2.138683024778e+01 
-4.487126811055e+01 3.198663594932e+01 0.0 
3.198663594932e+01 -7.938589464659e+01 0.0 
0.0 0.0 -3.290012669817e+01 
-7.580156126126e+01 1.562067842834e+00 0.0 
1.562067842834e+00 -1.445260842144e+02 0.0 
0.0 0.0 -6.569829364268e+01 
-4.567114268923e+01 3.284217697224e+01 0.0 
3.284217697224e+01 -6.120784724258e+01 0.0 
0.0 0.0 -2.765437876944e+01 
-1.279993538457e+02 1.444191973708e-01 0.0 
1.444191973708e-01 -3.130913035728e+02 0.0 
0.0 0.0 -1.316570898227e+02 
-5.432698378159e+01 2.485824505024e+01 0.0 
2.485824505024e+01 -1.612010745939e+02 0.0 
0.0 0.0 -6.286096432682e+01 
-6.931410565817e+01 3.123115093377e+01 0.0 
3.123115093377e+01 -1.391787171654e+02 0.0 
0.0 0.0 -5.859833976475e+01 
-4.511822435270e+01 3.087964904593e+01 0.0 
3.087964904593e+01 -9.672201058553e+01 0.0 
0.0 0.0 -3.837394650354e+01 
-5.029574141191e+01 3.239592695546e+01 0.0 
3.239592695546e+01 -1.149889314170e+02 0.0 
0.0 0.0 -4.769565513364e+01 
-8.170368438898e+01 2.291306148061e+01 0.0 
2.291306148061e+01 -1.380782891124e+02 0.0 
0.0 0.0 -6.531202040384e+01 
-7.394579855135e+01 1.635047060549e+01 0.0 
1.635047060549e+01 -1.080718249938e+02 0.0 
0.0 0.0 -5.397599190818e+01 
-7.199523867875e+01 1.806696607545e+01 0.0 
1.806696607545e+01 -1.007536395618e+02 0.0 
0.0 0.0 -5.060128198246e+01 
-5.620295968347e+01 2.127889833057e+01 0.0 
2.127889833057e+01 -1.749063446901e+02 0.0 
0.0 0.0 -6.777358236352e+01 
-5.159150038210e+01 3.151250984171e+01 0.0 
3.151250984171e+01 -7.957522789472e+01 0.0 
0.0 0.0 -3.525942085150e+01 
-4.572523524708e+01 3.059367879295e+01 0.0 
3.059367879295e+01 -5.709805709447e+01 0.0 
0.0 0.0 -2.713940067189e+01 
-7.896665010045e+01 2.846258581990e+01 0.0 
2.846258581990e+01 -1.460253252279e+02 0.0 
0.0 0.0 -6.566168932430e+01 
-1.014787685822e+02 1.739242298345e+01 0.0 
1.739242298345e+01 -1.979759422698e+02 0.0 
0.0 0.0 -8.943641325559e+01 
-1.051300201873e+02 1.972220964046e+01 0.0 
1.972220964046e+01 -2.108495202592e+02 0.0 
0.0 0.0 -9.439386213394e+01 
-1.103862184786e+02 2.123215387687e+01 0.0 
2.123215387687e+01 -2.316196137672e+02 0.0 
0.0 0.0 -1.022017496737e+02 
-1.087876036671e+02 2.201100736904e+01 0.0 
2.201100736904e+01 -2.242670539837e+02 0.0 
0.0 0.0 -9.951639729524e+01 
-1.031041611559e+02 2.064055385686e+01 0.0 
2.064055385686e+01 -2.029880594585e+02 0.0 
0.0 0.0 -9.142766618430e+01 
-1.067186015150e+02 2.289976771133e+01 0.0 
2.289976771133e+01 -2.168189877161e+02 0.0 
0.0 0.0 -9.666127676933e+01 
-1.121283669815e+02 2.410039612103e+01 0.0 
2.410039612103e+01 -2.378469841843e+02 0.0 
0.0 0.0 -1.045926053497e+02 
-1.105167014820e+02 2.496934065048e+01 0.0 
2.496934065048e+01 -2.317496412240e+02 0.0 
0.0 0.0 -1.022799028118e+02 
-1.169903409630e+02 2.658252461894e+01 0.0 
2.658252461894e+01 -2.561181093662e+02 0.0 
0.0 0.0 -1.115325350988e+02 
-1.139598267286e+02 2.693274354911e+01 0.0 
2.693274354911e+01 -2.463603306986e+02 0.0 
0.0 0.0 -1.076960472282e+02 
-1.075663916232e+02 2.569966870815e+01 0.0 
2.569966870815e+01 -2.245435710354e+02 0.0 
0.0 0.0 -9.923298879756e+01 
-1.107654509232e+02 2.726251158064e+01 0.0 
2.726251158064e+01 -2.388948464182e+02 0.0 
0.0 0.0 -1.044980892024e+02 
-1.170198789675e+02 2.847837410611e+01 0.0 
2.847837410611e+01 -2.590260610430e+02 0.0 
0.0 0.0 -1.124137820032e+02 
-1.043460979625e+02 2.652522847473e+01 0.0 
2.652522847473e+01 -2.178243620211e+02 0.0 
0.0 0.0 -9.625113799508e+01 
-1.408659329136e+02 2.428101738164e+01 0.0 
2.428101738164e+01 -3.445833508788e+02 0.0 
0.0 0.0 -1.452347851377e+02 
-6.091151215644e+01 2.863384827033e+01 0.0 
2.863384827033e+01 -1.657109323589e+02 0.0 
0.0 0.0 -6.787136785478e+01 
-3.357801857173e+01 1.356932568709e+01 0.0 
1.356932568709e+01 -1.167983981020e+02 0.0 
0.0 0.0 -4.742765833981e+01 
-4.068768643254e+01 3.259540360977e+01 0.0 
3.259540360977e+01 -8.867029067776e+01 0.0 
0.0 0.0 -3.909137341118e+01 
-7.274505082692e+01 3.057616576183e+01 0.0 
3.057616576183e+01 -1.410244139466e+02 0.0 
0.0 0.0 -6.045728510238e+01 
-1.210159970672e+02 2.734946942351e+01 0.0 
2.734946942351e+01 -2.741778062246e+02 0.0 
0.0 0.0 -1.181581409875e+02 
-1.175995518171e+02 2.339120084188e+01 0.0 
2.339120084188e+01 -2.645209953754e+02 0.0 
0.0 0.0 -1.142361641578e+02 
-4.746430796490e+01 2.262781778864e+01 0.0 
2.262781778864e+01 -1.446505543385e+02 0.0 
0.0 0.0 -5.377968800624e+01 
-1.316408195965e+02 3.257953352100e+01 0.0 
3.257953352100e+01 -3.071368648875e+02 0.0 
0.0 0.0 -1.312333053452e+02 
-7.598309794459e+01 2.176578757335e+01 0.0 
2.176578757335e+01 -1.162486850584e+02 0.0 
0.0 0.0 -5.642840397918e+01 
-3.910221489566e+01 1.540725893058e+01 0.0 
1.540725893058e+01 -1.309856084657e+02 0.0 
0.0 0.0 -4.760411203403e+01 
-1.360848881279e+02 3.231301532671e+01 0.0 
3.231301532671e+01 -3.212794234904e+02 0.0 
0.0 0.0 -1.368092934855e+02 
-9.937499027735e+01 1.825679392847e+01 0.0 
1.825679392847e+01 -1.894833474034e+02 0.0 
0.0 0.0 -8.625750130424e+01 
-9.695605699298e+01 1.928444100326e+01 0.0 
1.928444100326e+01 -1.811712051320e+02 0.0 
0.0 0.0 -8.303817863750e+01 
-9.307177676326e+01 1.676922882445e+01 0.0 
1.676922882445e+01 -1.678345804381e+02 0.0 
0.0 0.0 -7.787190716040e+01 
-1.149819936240e+02 1.975705561692e+01 0.0 
1.975705561692e+01 -2.586512275612e+02 0.0 
0.0 0.0 -1.116899663556e+02 
-7.706891568060e+01 6.870658957406e+00 0.0 
6.870658957406e+00 -1.304297395357e+02 0.0 
0.0 0.0 -6.184959656490e+01 
-1.446495252999e+02 2.843257830341e+01 0.0 
2.843257830341e+01 -3.460738846269e+02 0.0 
0.0 0.0 -1.468170229780e+02 
-8.227858200256e+01 1.731745666777e+01 0.0 
1.731745666777e+01 -2.507327383587e+02 0.0 
0.0 0.0 -1.037604036292e+02 
-7.878470251816e+01 1.950301869755e+01 0.0 
1.950301869755e+01 -2.387991792854e+02 0.0 
0.0 0.0 -9.897463084441e+01 
-7.239197757264e+01 1.981330324710e+01 0.0 
1.981330324710e+01 -2.221513828108e+02 0.0 
0.0 0.0 -9.195378109473e+01 
-1.041517911788e+02 2.379225980730e+01 0.0 
2.379225980730e+01 -2.096007478622e+02 0.0 
0.0 0.0 -9.372576171229e+01 
-1.511388572087e+02 2.162364823384e+01 0.0 
2.162364823384e+01 -3.641764533826e+02 0.0 
0.0 0.0 -1.541945931774e+02 
-1.419561218573e+02 1.945561920915e+01 0.0 
1.945561920915e+01 -3.518093118188e+02 0.0 
0.0 0.0 -1.477296301028e+02 
-1.434470496268e+02 1.783457612028e+01 0.0 
1.783457612028e+01 -3.551776843393e+02 0.0 
0.0 0.0 -1.491874201898e+02 
-1.321676430228e+02 1.732652854457e+01 0.0 
1.732652854457e+01 -3.377612027349e+02 0.0 
0.0 0.0 -1.405786537273e+02 
-1.542544535020e+02 1.797267205539e+01 0.0 
1.797267205539e+01 -3.714700211627e+02 0.0 
0.0 0.0 -1.573173423994e+02 
-1.255774259242e+02 3.041757241949e+01 0.0 
3.041757241949e+01 -2.878511453974e+02 0.0 
0.0 0.0 -1.236285713965e+02 
-1.277362811565e+02 3.153934410167e+01 0.0 
3.153934410167e+01 -2.947895349956e+02 0.0 
0.0 0.0 -1.263577448457e+02 
-5.415392909021e+01 -1.456451144987e+01 0.0 
-1.456451144987e+01 -1.520801061424e+02 0.0 
0.0 0.0 -5.867736886871e+01 
-5.435613871541e+01 -1.073546940929e+01 0.0 
-1.073546940929e+01 -1.639759194756e+02 0.0 
0.0 0.0 -6.286965548933e+01 
-5.877149571737e+01 -8.686861065308e+00 0.0 
-8.686861065308e+00 -1.791530913910e+02 0.0 
0.0 0.0 -7.042282178943e+01 
-5.481500359892e+01 -5.998973031089e+00 0.0 
-5.998973031089e+00 -1.740477661359e+02 0.0 
0.0 0.0 -6.647196724683e+01 
-5.036338962107e+01 -8.086056413182e+00 0.0 
-8.086056413182e+00 -1.596769991088e+02 0.0 
0.0 0.0 -5.959702549624e+01 
-5.089985063084e+01 -2.431030748796e+00 0.0 
-2.431030748796e+00 -1.684187313255e+02 0.0 
0.0 0.0 -6.276869098924e+01 
-5.576267513598e+01 -8.608249851251e-01 0.0 
-8.608249851251e-01 -1.821265375850e+02 0.0 
0.0 0.0 -6.944623930803e+01 
-4.728639265368e+01 2.190185924249e+00 0.0 
2.190185924249e+00 -1.618809296366e+02 0.0 
0.0 0.0 -5.926431522050e+01 
-1.111633891105e+02 2.874087454825e+01 0.0 
2.874087454825e+01 -2.474086127624e+02 0.0 
0.0 0.0 -1.071716005619e+02 
-1.570751758088e+02 1.434136484044e+01 0.0 
1.434136484044e+01 -3.773534009718e+02 0.0 
0.0 0.0 -1.599285730342e+02 
-9.843072253677e+01 1.683542671179e+00 0.0 
1.683542671179e+00 -2.699699475958e+02 0.0 
0.0 0.0 -1.108968040757e+02 
-9.338709210170e+01 1.569493966444e+00 0.0 
1.569493966444e+00 -2.614616194339e+02 0.0 
0.0 0.0 -1.082059063436e+02 
-8.726328345800e+01 -1.527772042672e+00 0.0 
-1.527772042672e+00 -2.434234382373e+02 0.0 
0.0 0.0 -1.011389205855e+02 
-8.887014760559e+01 -6.243111036222e+00 0.0 
-6.243111036222e+00 -2.026190435881e+02 0.0 
0.0 0.0 -8.202254263194e+01 
-9.158142051336e+01 -5.977741538604e+00 0.0 
-5.977741538604e+00 -2.146363060136e+02 0.0 
0.0 0.0 -8.722920659914e+01 
-9.803242828267e+01 -4.325220126215e+00 0.0 
-4.325220126215e+00 -2.343451900041e+02 0.0 
0.0 0.0 -9.549656522433e+01 
-8.559128259004e+01 -6.143928359079e+00 0.0 
-6.143928359079e+00 -1.904680178971e+02 0.0 
0.0 0.0 -7.675487305243e+01 
-9.314374086213e+01 2.702493426470e+01 0.0 
2.702493426470e+01 -2.428655161983e+02 0.0 
0.0 0.0 -1.003938836482e+02 
-1.580517274983e+02 1.271198619499e+01 0.0 
1.271198619499e+01 -3.791705522253e+02 0.0 
0.0 0.0 -1.607666839171e+02 
-8.527088478739e+01 8.104522069816e+00 0.0 
8.104522069816e+00 -2.594729145585e+02 0.0 
0.0 0.0 -1.082066975594e+02 
-8.701548368262e+01 -7.296758126789e+00 0.0 
-7.296758126789e+00 -2.066459622135e+02 0.0 
0.0 0.0 -8.439272888072e+01 
-5.753673029630e+01 4.477771978191e+00 0.0 
4.477771978191e+00 -7.824618440915e+01 0.0 
0.0 0.0 -4.033487441164e+01 
-6.642281247779e+01 6.766053573775e+00 0.0 
6.766053573775e+00 -9.703552064707e+01 0.0 
0.0 0.0 -4.863749993746e+01 
-6.870997760660e+01 8.773042926584e+00 0.0 
8.773042926584e+00 -9.896672054807e+01 0.0 
0.0 0.0 -4.990300944640e+01 
-7.570352542939e+01 9.693998949443e+00 0.0 
9.693998949443e+00 -1.182968562347e+02 0.0 
0.0 0.0 -5.780011449923e+01 
-6.547063390629e+01 5.605403819323e+00 0.0 
5.605403819323e+00 -9.770218054004e+01 0.0 
0.0 0.0 -4.855184433390e+01 
-1.033480766275e+02 -2.993354338657e+00 0.0 
-2.993354338657e+00 -2.387529772214e+02 0.0 
0.0 0.0 -9.839376380776e+01 
-1.068260974219e+02 -2.167625511050e+00 0.0 
-2.167625511050e+00 -2.469608577223e+02 0.0 
0.0 0.0 -1.022870956677e+02 
-1.040556418747e+02 -2.153946390928e+00 0.0 
-2.153946390928e+00 -2.356053622064e+02 0.0 
0.0 0.0 -9.759952899902e+01 
-1.101240778176e+02 -1.429735577452e+00 0.0 
-1.429735577452e+00 -2.552503347960e+02 0.0 
0.0 0.0 -1.061310402103e+02 
-1.071589757546e+02 -1.318373623304e+00 0.0 
-1.318373623304e+00 -2.435845249440e+02 0.0 
0.0 0.0 -1.012723723899e+02 
-1.012732209120e+02 -1.834239659216e+00 0.0 
-1.834239659216e+00 -2.252242357972e+02 0.0 
0.0 0.0 -9.335100721531e+01 
-1.131457732259e+02 -7.810149219889e-01 0.0 
-7.810149219889e-01 -2.632513011115e+02 0.0 
0.0 0.0 -1.097924886066e+02 
-1.096021702263e+02 -7.463511783095e-01 0.0 
-7.463511783095e-01 -2.503971738197e+02 0.0 
0.0 0.0 -1.043266821249e+02 
-5.457426518258e+01 2.635166021914e+00 0.0 
2.635166021914e+00 -7.680341232856e+01 0.0 
0.0 0.0 -3.901330325334e+01 
-4.836296179127e+01 -2.421364008535e+01 0.0 
-2.421364008535e+01 -4.725266396822e+01 0.0 
0.0 0.0 -2.864718981741e+01 
-4.405139914783e+01 -2.457679427890e+01 0.0 
-2.457679427890e+01 -5.891422680649e+01 0.0 
0.0 0.0 -2.708817750698e+01 
-3.874579158671e+01 -1.575472882066e+01 0.0 
-1.575472882066e+01 -4.466793076979e+01 0.0 
0.0 0.0 -1.972425727915e+01 
-4.523463994377e+01 -2.217158335395e+01 0.0 
-2.217158335395e+01 -7.228691092993e+01 0.0 
0.0 0.0 -2.875228616425e+01 
-4.301013476084e+01 -2.468621717146e+01 0.0 
-2.468621717146e+01 -8.847339060300e+01 0.0 
0.0 0.0 -3.574473134300e+01 
-4.555969464537e+01 -2.180308992226e+01 0.0 
-2.180308992226e+01 -9.914992007639e+01 0.0 
0.0 0.0 -3.776992379094e+01 
-4.154537337029e+01 -2.102701151436e+01 0.0 
-2.102701151436e+01 -1.080903945122e+02 0.0 
0.0 0.0 -4.050455457753e+01 
-4.310719551638e+01 -2.832785533817e+01 0.0 
-2.832785533817e+01 -8.216838960383e+01 0.0 
0.0 0.0 -3.762228292210e+01 
-2.564454027362e+01 -6.261859440899e+00 0.0 
-6.261859440899e+00 -2.017304802292e+01 0.0 
0.0 0.0 -1.202337055624e+01 
-3.232526900539e+01 -9.727170579982e+00 0.0 
-9.727170579982e+00 -3.906149017813e+01 0.0 
0.0 0.0 -1.738454042728e+01 
-1.946027168383e+01 -2.973976919023e+00 0.0 
-2.973976919023e+00 -1.836715927638e+01 0.0 
0.0 0.0 -9.924498314834e+00 
-2.676456064938e+01 -6.118791425040e+00 0.0 
-6.118791425040e+00 -3.604936401888e+01 0.0 
0.0 0.0 -1.551870373177e+01 
-3.842157279648e+01 -1.183975063710e+01 0.0 
-1.183975063710e+01 -5.915387540275e+01 0.0 
0.0 0.0 -2.411436308397e+01 
-3.967043692412e+01 -1.020919653520e+01 0.0 
-1.020919653520e+01 -8.176526645492e+01 0.0 
0.0 0.0 -3.269469084888e+01 
-1.611186855690e+02 2.085430813756e+00 0.0 
2.085430813756e+00 -3.819698405941e+02 0.0 
0.0 0.0 -1.625265578489e+02 
-9.038395015881e+01 -9.795823625451e-01 0.0 
-9.795823625451e-01 -1.934702271481e+02 0.0 
0.0 0.0 -7.993998443992e+01 
-8.613512309950e+01 -2.057407282796e+00 0.0 
-2.057407282796e+00 -1.837376992589e+02 0.0 
0.0 0.0 -7.556843988671e+01 
-7.761878967648e+01 -2.192748789262e+00 0.0 
-2.192748789262e+00 -1.638333933935e+02 0.0 
0.0 0.0 -6.703261159894e+01 
-8.207621606398e+01 -3.104442558625e+00 0.0 
-3.104442558625e+00 -1.750543839947e+02 0.0 
0.0 0.0 -7.149741005226e+01 
-9.336974794473e+01 -1.806430371392e+00 0.0 
-1.806430371392e+00 -2.018238296655e+02 0.0 
0.0 0.0 -8.336196551021e+01 
-7.235690611865e+01 -1.127063653969e+00 0.0 
-1.127063653969e+00 -1.525525506191e+02 0.0 
0.0 0.0 -6.236331886398e+01 
-6.822669196009e+01 -2.211970358580e+00 0.0 
-2.211970358580e+00 -1.453766352857e+02 0.0 
0.0 0.0 -5.905108042803e+01 
-9.234150627802e+00 -4.748395609307e-02 0.0 
-4.748395609307e-02 -1.723003996665e+01 0.0 
0.0 0.0 -5.870070385199e+00 
-1.111980819826e+01 -2.004301868054e-01 0.0 
-2.004301868054e-01 -3.368296669545e+01 0.0 
0.0 0.0 -1.075315816073e+01 
-1.081282745350e+01 -2.398672438320e-01 0.0 
-2.398672438320e-01 -3.198970228974e+01 0.0 
0.0 0.0 -1.018465936249e+01 
-1.378177679606e+01 -4.837327476617e-01 0.0 
-4.837327476617e-01 -5.044705961168e+01 0.0 
0.0 0.0 -1.721304395429e+01 
-1.422602848147e+01 -6.373938642736e-01 0.0 
-6.373938642736e-01 -5.020497634173e+01 0.0 
0.0 0.0 -1.724116588127e+01 
-1.173169114246e+01 -4.192222365128e-01 0.0 
-4.192222365128e-01 -3.412335131880e+01 0.0 
0.0 0.0 -1.104390944528e+01 
-1.207364217455e+01 -7.004605169101e-01 0.0 
-7.004605169101e-01 -3.414236625214e+01 0.0 
0.0 0.0 -1.122941191145e+01 
-9.774721551255e+00 -3.081097669387e-01 0.0 
-3.081097669387e-01 -1.705892965396e+01 0.0 
0.0 0.0 -5.975093884082e+00 
-1.259258818799e+01 -8.320388234305e-01 0.0 
-8.320388234305e-01 -3.388967734099e+01 0.0 
0.0 0.0 -1.147349665609e+01 
-1.590300039344e+01 -1.458674307876e+00 0.0 
-1.458674307876e+00 -5.111835508918e+01 0.0 
0.0 0.0 -1.803808180252e+01 
-1.010469034151e+01 -3.805807550090e-01 0.0 
-3.805807550090e-01 -1.645471478392e+01 0.0 
0.0 0.0 -5.971598077568e+00 
-8.342243066644e+01 7.111468078866e-01 0.0 
7.111468078866e-01 -1.687717593707e+02 0.0 
0.0 0.0 -7.525825701114e+01 
-8.704461803002e+01 1.391722650595e+00 0.0 
1.391722650595e+00 -1.797781594266e+02 0.0 
0.0 0.0 -7.964683323699e+01 
-1.590275274433e+02 9.553414182805e+00 0.0 
9.553414182805e+00 -3.809638817636e+02 0.0 
0.0 0.0 -1.615974227621e+02 
-5.319598041183e+01 1.738940755932e+00 0.0 
1.738940755932e+00 -7.841203991764e+01 0.0 
0.0 0.0 -3.908240609884e+01 
-1.374074638170e+01 -6.240823528863e-01 0.0 
-6.240823528863e-01 -1.692080586681e+01 0.0 
0.0 0.0 -8.514337021124e+00 
-1.062701614740e+02 4.925323052271e+00 0.0 
4.925323052271e+00 -2.411644795849e+02 0.0 
0.0 0.0 -1.038303923177e+02 
-1.087603545160e+02 9.081966316082e+00 0.0 
9.081966316082e+00 -2.464661605962e+02 0.0 
0.0 0.0 -1.061679545336e+02 
-1.082373700321e+02 7.624085143007e+00 0.0 
7.624085143007e+00 -2.460012676601e+02 0.0 
0.0 0.0 -1.058715913077e+02 
-1.462128964377e+02 3.789254883013e-01 0.0 
3.789254883013e-01 -3.522324735820e+02 0.0 
0.0 0.0 -1.491336110059e+02 
-1.509909855467e+02 8.717101496138e-01 0.0 
8.717101496138e-01 -3.617751865625e+02 0.0 
0.0 0.0 -1.534298516328e+02 
-1.058104793491e+02 2.742379160618e+00 0.0 
2.742379160618e+00 -2.411587972607e+02 0.0 
0.0 0.0 -1.036907829830e+02 
-5.906785280411e+01 -1.134495299805e+01 0.0 
-1.134495299805e+01 -1.319619976180e+02 0.0 
0.0 0.0 -5.323330361705e+01 
-1.143133477919e+02 2.349993764487e+01 0.0 
2.349993764487e+01 -2.449729247901e+02 0.0 
0.0 0.0 -1.073858817746e+02 
-9.646340876644e+01 4.892015586445e+00 0.0 
4.892015586445e+00 -2.055610540638e+02 0.0 
0.0 0.0 -9.020733884908e+01 
-3.955498815820e+01 2.255226828800e+01 0.0 
2.255226828800e+01 -1.167649426499e+02 0.0 
0.0 0.0 -4.243790563963e+01 
-5.683930772724e+01 -1.610095422816e+01 0.0 
-1.610095422816e+01 -1.316049879749e+02 0.0 
0.0 0.0 -5.360580352513e+01 
-1.214054973748e+02 -2.701327423733e-02 0.0 
-2.701327423733e-02 -2.941532958464e+02 0.0 
0.0 0.0 -1.231241170456e+02 
-1.093177891307e+02 -9.198726894383e-01 0.0 
-9.198726894383e-01 -2.728274136809e+02 0.0 
0.0 0.0 -1.125056817231e+02 
-1.364034123467e+02 1.810892217484e+00 0.0 
1.810892217484e+00 -3.350014664284e+02 0.0 
0.0 0.0 -1.410214636325e+02 
-1.148433408924e+02 -7.862549745732e-01 0.0 
-7.862549745732e-01 -2.776321071836e+02 0.0 
0.0 0.0 -1.154673170461e+02 
-1.270963489354e+02 2.104866106890e+00 0.0 
2.104866106890e+00 -3.188145493369e+02 0.0 
0.0 0.0 -1.333285189711e+02 
-1.440757040225e+02 1.564523449928e+01 0.0 
1.564523449928e+01 -3.574486488261e+02 0.0 
0.0 0.0 -1.500573058546e+02 
-2.705267822952e+01 -2.273960682838e+00 0.0 
-2.273960682838e+00 -7.997786385244e+01 0.0 
0.0 0.0 -3.032464149865e+01 
-7.401884170180e+01 3.824829976160e+00 0.0 
3.824829976160e+00 -1.320036719109e+02 0.0 
0.0 0.0 -6.140675408380e+01 
-6.911777179404e+01 2.000809087630e+00 0.0 
2.000809087630e+00 -1.241912125373e+02 0.0 
0.0 0.0 -5.759269529939e+01 
-8.731486761694e+01 4.560642882009e+00 0.0 
4.560642882009e+00 -1.741544556655e+02 0.0 
0.0 0.0 -7.804079698473e+01 
-6.269915490167e+01 -6.868385732212e+00 0.0 
-6.868385732212e+00 -1.366818064342e+02 0.0 
0.0 0.0 -5.389665802283e+01 
-9.760372623069e+01 -2.762220662207e+00 0.0 
-2.762220662207e+00 -2.163025117743e+02 0.0 
0.0 0.0 -8.920767472004e+01 
-3.612919451777e+01 -6.957062634261e+00 0.0 
-6.957062634261e+00 -8.595503155759e+01 0.0 
0.0 0.0 -3.285531971434e+01 
-1.279385396053e+02 3.102249025634e+01 0.0 
3.102249025634e+01 -3.027567649728e+02 0.0 
0.0 0.0 -1.288085913734e+02 
-7.361236378380e+01 2.829304965608e+01 0.0 
2.829304965608e+01 -1.251774675396e+02 0.0 
0.0 0.0 -5.679925811555e+01 
-8.651382850460e+01 -4.194125546925e+00 0.0 
-4.194125546925e+00 -2.332729615961e+02 0.0 
0.0 0.0 -9.665443796186e+01 
-8.119954540971e+01 -7.561152562448e+00 0.0 
-7.561152562448e+00 -1.822066768891e+02 0.0 
0.0 0.0 -7.364296058518e+01 
-6.347491625823e+01 -1.253945500604e+01 0.0 
-1.253945500604e+01 -1.450113973223e+02 0.0 
0.0 0.0 -5.898744668188e+01 
-5.460531425649e+01 -1.714136489686e+01 0.0 
-1.714136489686e+01 -1.264910576671e+02 0.0 
0.0 0.0 -5.100312263604e+01 
-6.487048226605e+01 2.965874296343e+01 0.0 
2.965874296343e+01 -1.689197105413e+02 0.0 
0.0 0.0 -6.951546723629e+01 
-8.911485238463e+01 -6.491568260842e+00 0.0 
-6.491568260842e+00 -2.185444987515e+02 0.0 
0.0 0.0 -8.961414938622e+01 
-1.163307587697e+02 3.576002762866e+00 0.0 
3.576002762866e+00 -3.049235252151e+02 0.0 
0.0 0.0 -1.259369430759e+02 
-9.024963449049e+01 4.217547585421e+00 0.0 
4.217547585421e+00 -1.851376312888e+02 0.0 
0.0 0.0 -8.221617973378e+01 
-1.210628911273e+01 -5.201975998539e-01 0.0 
-5.201975998539e-01 -1.889493678787e+01 0.0 
0.0 0.0 -7.968646271789e+00 
-1.204095238451e+02 5.208723858439e+00 0.0 
5.208723858439e+00 -3.150402241913e+02 0.0 
0.0 0.0 -1.302349244109e+02 
-1.011817745329e+02 -2.065901920774e+00 0.0 
-2.065901920774e+00 -2.569871963209e+02 0.0 
0.0 0.0 -1.051061824870e+02 
-8.000308992791e+01 6.704302975817e+00 0.0 
6.704302975817e+00 -1.410581390582e+02 0.0 
0.0 0.0 -6.591836869584e+01 
-1.083243910176e+02 1.766534846810e+01 0.0 
1.766534846810e+01 -2.969140597705e+02 0.0 
0.0 0.0 -1.213916047423e+02 
-4.869482522027e+01 -2.036645162521e+01 0.0 
-2.036645162521e+01 -1.011613373304e+02 0.0 
0.0 0.0 -3.885299147904e+01 
-9.217690016597e+01 7.598669972705e+00 0.0 
7.598669972705e+00 -1.828357528897e+02 0.0 
0.0 0.0 -8.210379591671e+01 
-1.062906238211e+02 1.499135149268e+01 0.0 
1.499135149268e+01 -2.242684928715e+02 0.0 
0.0 0.0 -9.876773500776e+01 
-7.419601293338e+01 7.250837996113e+00 0.0 
7.250837996113e+00 -1.199840766317e+02 0.0 
0.0 0.0 -5.785402686953e+01 
-2.514944877269e+01 -4.552180746503e+00 0.0 
-4.552180746503e+00 -6.532953179343e+01 0.0 
0.0 0.0 -2.431038893198e+01 
-6.601538517249e+01 2.738494293028e+00 0.0 
2.738494293028e+00 -1.115018595629e+02 0.0 
0.0 0.0 -5.285517342061e+01 
-1.405222933839e+02 1.018417307372e+01 0.0 
1.018417307372e+01 -3.520709471822e+02 0.0 
0.0 0.0 -1.473779721698e+02 
-9.754169702299e+01 1.505928477149e+01 0.0 
1.505928477149e+01 -1.855323278229e+02 0.0 
0.0 0.0 -8.452220745376e+01 
-5.652212403204e+01 -5.599831086798e+00 0.0 
-5.599831086798e+00 -1.244369970961e+02 0.0 
0.0 0.0 -4.866005258881e+01 
-7.297915791332e+01 7.765546770294e+00 0.0 
7.765546770294e+00 -2.328252958019e+02 0.0 
0.0 0.0 -9.640348881646e+01 
-7.129220538325e+01 3.106033698832e+01 0.0 
3.106033698832e+01 -1.567009170394e+02 0.0 
0.0 0.0 -6.526617049581e+01 
-5.910894758868e+01 1.109914513163e+01 0.0 
1.109914513163e+01 -6.490814935389e+01 0.0 
0.0 0.0 -3.561870370320e+01 
-9.941749680392e+01 6.076383999919e+00 0.0 
6.076383999919e+00 -2.146495580240e+02 0.0 
0.0 0.0 -9.382011644838e+01 
-7.388674772694e+01 2.427040573035e+01 0.0 
2.427040573035e+01 -2.136912619272e+02 0.0 
0.0 0.0 -8.823029795315e+01 
-1.203200564424e+02 1.577863588616e+01 0.0 
1.577863588616e+01 -3.191995951706e+02 0.0 
0.0 0.0 -1.314558954839e+02 
-8.853079358025e+01 1.110834276251e+01 0.0 
1.110834276251e+01 -2.664827041447e+02 0.0 
0.0 0.0 -1.103849438521e+02 
-6.146616310117e+01 -4.422108534214e+00 0.0 
-4.422108534214e+00 -1.331644323174e+02 0.0 
0.0 0.0 -5.279494678383e+01 
-1.312285294702e+02 4.603512472003e+00 0.0 
4.603512472003e+00 -3.317593395801e+02 0.0 
0.0 0.0 -1.384963607151e+02 
-6.899659759331e+01 1.714980444634e+01 0.0 
1.714980444634e+01 -2.179562837155e+02 0.0 
0.0 0.0 -8.941927936336e+01 
-9.834851266437e+01 8.804806664274e+00 0.0 
8.804806664274e+00 -2.035963951089e+02 0.0 
0.0 0.0 -9.018347233199e+01 
-9.910825179768e+01 2.903843098469e+01 0.0 
2.903843098469e+01 -2.350170155465e+02 0.0 
0.0 0.0 -9.983758020326e+01 
-5.878250579888e+01 9.184777092311e+00 0.0 
9.184777092311e+00 -1.938688584120e+02 0.0 
0.0 0.0 -7.464374453676e+01 
-9.763160411033e+01 1.166506625316e+01 0.0 
1.166506625316e+01 -1.931575255488e+02 0.0 
0.0 0.0 -8.683673889775e+01 
-8.099881603613e+01 -2.051179862401e+00 0.0 
-2.051179862401e+00 -2.351323368066e+02 0.0 
0.0 0.0 -9.755712540690e+01 
-1.134105682680e+02 1.977004164600e+01 0.0 
1.977004164600e+01 -3.031146104967e+02 0.0 
0.0 0.0 -1.245575536294e+02 
-7.043699781496e+01 2.965819832701e+01 0.0 
2.965819832701e+01 -1.228173699169e+02 0.0 
0.0 0.0 -5.412758061708e+01 
-8.500209660399e+01 2.989206423338e+01 0.0 
2.989206423338e+01 -1.969707832596e+02 0.0 
0.0 0.0 -8.359080884757e+01 
-9.397454840628e+01 2.719656190258e+01 0.0 
2.719656190258e+01 -1.913365881551e+02 0.0 
0.0 0.0 -8.519334096842e+01 
-7.980397867678e+01 2.819004883529e+01 0.0 
2.819004883529e+01 -2.072142725806e+02 0.0 
0.0 0.0 -8.528702069681e+01 
-1.189065530098e+02 -3.605495886704e-01 0.0 
-3.605495886704e-01 -2.832118769161e+02 0.0 
0.0 0.0 -1.184597171585e+02 
-1.258746933199e+02 4.910458220636e+00 0.0 
4.910458220636e+00 -3.234592386950e+02 0.0 
0.0 0.0 -1.344001796045e+02 
-3.803854218372e+01 -7.616420806338e+00 0.0 
-7.616420806338e+00 -1.321096566765e+02 0.0 
0.0 0.0 -4.961290434166e+01 
-5.436475737179e+01 3.174209740904e+01 0.0 
3.174209740904e+01 -1.331903595901e+02 0.0 
0.0 0.0 -5.483937306546e+01 
-8.202221607388e+01 8.866070623163e+00 0.0 
8.866070623163e+00 -1.412120480452e+02 0.0 
0.0 0.0 -6.657027923571e+01 
-1.154157554896e+02 2.853566222726e+01 0.0 
2.853566222726e+01 -2.831768840918e+02 0.0 
0.0 0.0 -1.191777918744e+02 
-1.040436523283e+02 9.823744298707e+00 0.0 
9.823744298707e+00 -2.242463935568e+02 0.0 
0.0 0.0 -9.808701376554e+01 
-6.562717623830e+01 3.171355760721e+01 0.0 
3.171355760721e+01 -1.375762915484e+02 0.0 
0.0 0.0 -5.754537757365e+01 
-1.266272922534e+02 3.339411430377e+00 0.0 
3.339411430377e+00 -3.213144397407e+02 0.0 
0.0 0.0 -1.339825195983e+02 
-1.030441384618e+02 1.301791036016e+01 0.0 
1.301791036016e+01 -2.136503725601e+02 0.0 
0.0 0.0 -9.460835330656e+01 
-9.379181791305e+01 -5.321539144751e+00 0.0 
-5.321539144751e+00 -2.264124006672e+02 0.0 
0.0 0.0 -9.234097878097e+01 
-3.489515989063e+01 -8.566066657130e-01 0.0 
-8.566066657130e-01 -9.161435030382e+01 0.0 
0.0 0.0 -3.569353697696e+01 
-3.936715040257e+01 2.630778277845e+01 0.0 
2.630778277845e+01 -1.037075188499e+02 0.0 
0.0 0.0 -3.986126452659e+01 
-4.886225590406e+01 8.091013323455e+00 0.0 
8.091013323455e+00 -1.665046860200e+02 0.0 
0.0 0.0 -6.110001156740e+01 
-7.011228923420e+01 2.263885381506e+01 0.0 
2.263885381506e+01 -2.097559055131e+02 0.0 
0.0 0.0 -8.650782890994e+01 
-9.983423166240e+01 -3.406724470467e+00 0.0 
-3.406724470467e+00 -2.457983082164e+02 0.0 
0.0 0.0 -1.003627388279e+02 
-1.126406143234e+02 2.080222395192e+01 0.0 
2.080222395192e+01 -2.429140789750e+02 0.0 
0.0 0.0 -1.062664079895e+02 
-1.316799996465e+02 3.149517378596e+00 0.0 
3.149517378596e+00 -3.294345619633e+02 0.0 
0.0 0.0 -1.379343684829e+02 
-1.130774115431e+02 8.111778535449e+00 0.0 
8.111778535449e+00 -3.066811393634e+02 0.0 
0.0 0.0 -1.255275652719e+02 
-4.777862471370e+01 3.489397350946e+01 0.0 
3.489397350946e+01 -4.393462177790e+01 0.0 
0.0 0.0 -2.501752532413e+01 
-6.505714653980e+01 1.575350941842e+01 0.0 
1.575350941842e+01 -7.864834595643e+01 0.0 
0.0 0.0 -4.129579121956e+01 
-1.366627233880e+02 2.910251134731e+00 0.0 
2.910251134731e+00 -3.376309977197e+02 0.0 
0.0 0.0 -1.418881163323e+02 
-7.755108401687e+01 5.860852180141e+00 0.0 
5.860852180141e+00 -2.421036961555e+02 0.0 
0.0 0.0 -1.009480505242e+02 
-1.191021972942e+02 1.881013871216e+01 0.0 
1.881013871216e+01 -3.143785325627e+02 0.0 
0.0 0.0 -1.296442189571e+02 
-1.036284220421e+02 -1.100442841174e+00 0.0 
-1.100442841174e+00 -2.313784627187e+02 0.0 
0.0 0.0 -9.616730123088e+01 
-1.293806926662e+02 3.056350603946e+01 0.0 
3.056350603946e+01 -3.092233923165e+02 0.0 
0.0 0.0 -1.311812254948e+02 
-5.507044363908e+01 2.625285812753e+01 0.0 
2.625285812753e+01 -6.146226319512e+01 0.0 
0.0 0.0 -2.965342452187e+01 
-1.415862657591e+02 2.595316735538e+00 0.0 
2.595316735538e+00 -3.461341586984e+02 0.0 
0.0 0.0 -1.459161273373e+02 
-1.111116057309e+02 1.111605816684e+01 0.0 
1.111605816684e+01 -3.049497864832e+02 0.0 
0.0 0.0 -1.245863420751e+02 
-4.996208127822e+01 2.560107645209e+01 0.0 
2.560107645209e+01 -1.453202916212e+02 0.0 
0.0 0.0 -5.567550692749e+01 
-4.883125346991e+01 2.516872151364e-01 0.0 
2.516872151364e-01 -7.549908815004e+01 0.0 
0.0 0.0 -3.689910248599e+01 
-1.529547086311e+02 3.030987538791e+00 0.0 
3.030987538791e+00 -3.675002937968e+02 0.0 
0.0 0.0 -1.557365007284e+02 
-1.219736057432e+02 1.266743646839e+01 0.0 
1.266743646839e+01 -3.229618340271e+02 0.0 
0.0 0.0 -1.330806319311e+02 
-8.569677027826e+01 2.756623629034e+01 0.0 
2.756623629034e+01 -2.250705113946e+02 0.0 
0.0 0.0 -9.270787247939e+01 
-7.606126064268e+01 2.028312284937e+00 0.0 
2.028312284937e+00 -2.348099883361e+02 0.0 
0.0 0.0 -9.737451962525e+01 
-5.426839228269e+01 1.457249597636e+01 0.0 
1.457249597636e+01 -4.820751283175e+01 0.0 
0.0 0.0 -2.773658542624e+01 
-1.038400357477e+02 -2.656728481847e+00 0.0 
-2.656728481847e+00 -2.536947612320e+02 0.0 
0.0 0.0 -1.039246536438e+02 
-8.874822353801e+01 2.963779356195e+01 0.0 
2.963779356195e+01 -1.998944864368e+02 0.0 
0.0 0.0 -8.599253076669e+01 
-1.135973826995e+02 1.781282203386e+01 0.0 
1.781282203386e+01 -2.560700150847e+02 0.0 
0.0 0.0 -1.105002193353e+02 
-1.264678904055e+02 1.487514973973e+01 0.0 
1.487514973973e+01 -3.296162713923e+02 0.0 
0.0 0.0 -1.364252485393e+02 
-9.045153152755e+01 1.793050399127e+01 0.0 
1.793050399127e+01 -1.592841917774e+02 0.0 
0.0 0.0 -7.452071699148e+01 
-1.019600136844e+02 -3.451558025611e+00 0.0 
-3.451558025611e+00 -2.422369250469e+02 0.0 
0.0 0.0 -9.917157459928e+01 
-9.153494149559e+01 2.143947038720e+01 0.0 
2.143947038720e+01 -2.606505101412e+02 0.0 
0.0 0.0 -1.063502287285e+02 
-1.483636866053e+01 -9.216927756849e-01 0.0 
-9.216927756849e-01 -5.042679696797e+01 0.0 
0.0 0.0 -1.749313422836e+01 
-6.027279601286e+01 2.070427753530e+01 0.0 
2.070427753530e+01 -6.637008387244e+01 0.0 
0.0 0.0 -3.461922528436e+01 
-1.056780979059e+02 -2.648418122562e+00 0.0 
-2.648418122562e+00 -2.502112152379e+02 0.0 
0.0 0.0 -1.031125675858e+02 
-5.208942180474e+01 3.252023486642e+00 0.0 
3.252023486642e+00 -1.749581714090e+02 0.0 
0.0 0.0 -6.523986180086e+01 
-8.176923597957e+01 1.415794611725e+00 0.0 
1.415794611725e+00 -2.438705344313e+02 0.0 
0.0 0.0 -1.015329440263e+02 
-1.340277861733e+02 2.498459189013e+01 0.0 
2.498459189013e+01 -3.322400609344e+02 0.0 
0.0 0.0 -1.394803541323e+02 
-1.092304991799e+02 -1.912456968981e+00 0.0 
-1.912456968981e+00 -2.583074113441e+02 0.0 
0.0 0.0 -1.069823297922e+02 
-5.707755781659e+01 4.299069463663e+00 0.0 
4.299069463663e+00 -1.886831429728e+02 0.0 
0.0 0.0 -7.209997580324e+01 
-1.126129891047e+02 -1.262846075232e+00 0.0 
-1.262846075232e+00 -2.664663994854e+02 0.0 
0.0 0.0 -1.108000954905e+02 
-5.079065945751e+01 2.079236467809e+01 0.0 
2.079236467809e+01 -3.843962262591e+01 0.0 
0.0 0.0 -2.207268018615e+01 
-9.426565078061e+01 2.052237709887e+01 0.0 
2.052237709887e+01 -1.732772208468e+02 0.0 
0.0 0.0 -7.986286148823e+01 
-1.158300482519e+02 -7.097927839603e-01 0.0 
-7.097927839603e-01 -2.746624750396e+02 0.0 
0.0 0.0 -1.145929672501e+02 
-9.579116261790e+01 2.917928381345e+01 0.0 
2.917928381345e+01 -2.193317297263e+02 0.0 
0.0 0.0 -9.413686770326e+01 
-1.779795728818e+01 -1.940076083818e+00 0.0 
-1.940076083818e+00 -5.284430435731e+01 0.0 
0.0 0.0 -1.906676343302e+01 
-8.851692137713e+01 2.600527506709e+01 0.0 
2.600527506709e+01 -2.390923512287e+02 0.0 
0.0 0.0 -9.810456946272e+01 
-1.409842647051e+02 7.032164484295e-01 0.0 
7.032164484295e-01 -3.419720138415e+02 0.0 
0.0 0.0 -1.444868835640e+02 
-6.954642384137e+01 -1.315789949556e+01 0.0 
-1.315789949556e+01 -1.712540510118e+02 0.0 
0.0 0.0 -7.014932480622e+01 
-8.788753050168e+01 1.483497446019e+00 0.0 
1.483497446019e+00 -2.527187378327e+02 0.0 
0.0 0.0 -1.052173744328e+02 
-1.006321768536e+02 2.167831041879e+01 0.0 
2.167831041879e+01 -1.951783034537e+02 0.0 
0.0 0.0 -8.834314409218e+01 
-4.549501023678e+01 2.738063752423e+01 0.0 
2.738063752423e+01 -3.751834807084e+01 0.0 
0.0 0.0 -1.964523339691e+01 
-9.465442890987e+01 4.285691044497e+00 0.0 
4.285691044497e+00 -2.704072673641e+02 0.0 
0.0 0.0 -1.117624151115e+02 
-1.034957808870e+02 2.907794529168e+01 0.0 
2.907794529168e+01 -2.388068014466e+02 0.0 
0.0 0.0 -1.022907747001e+02 
-9.209092007133e+01 2.441364934930e+01 0.0 
2.441364934930e+01 -2.523941861159e+02 0.0 
0.0 0.0 -1.032653259336e+02 
-7.607097947201e+01 2.194196461426e+01 0.0 
2.194196461426e+01 -2.264627540301e+02 0.0 
0.0 0.0 -9.370144325616e+01 
-1.031492792558e+02 6.317274069088e+00 0.0 
6.317274069088e+00 -2.884005711834e+02 0.0 
0.0 0.0 -1.179336554212e+02 
-4.893721013571e+01 3.008039647423e+01 0.0 
3.008039647423e+01 -5.981912535439e+01 0.0 
0.0 0.0 -2.799780208063e+01 
-5.547188919733e+01 -1.304829901766e+01 0.0 
-1.304829901766e+01 -1.239022751466e+02 0.0 
0.0 0.0 -5.025226160569e+01 
-4.754674686976e+01 -1.232701292479e+01 0.0 
-1.232701292479e+01 -1.028683872363e+02 0.0 
0.0 0.0 -4.153318010333e+01 
-6.068415891577e+01 5.917148952075e-01 0.0 
5.917148952075e-01 -1.961973744900e+02 0.0 
0.0 0.0 -7.660011822102e+01 
-1.075822991072e+02 2.894880791731e+01 0.0 
2.894880791731e+01 -2.429437284302e+02 0.0 
0.0 0.0 -1.047578082612e+02 
-1.889219737305e+01 -1.125127196439e+00 0.0 
-1.125127196439e+00 -6.704583219598e+01 0.0 
0.0 0.0 -2.463536484993e+01 
-1.011525423566e+02 2.486296587817e+01 0.0 
2.486296587817e+01 -2.027540249486e+02 0.0 
0.0 0.0 -9.077197019157e+01 
-3.920027326867e+01 -1.033469183550e+01 0.0 
-1.033469183550e+01 -7.470858274547e+01 0.0 
0.0 0.0 -3.001590627097e+01 
-5.963659264826e+01 -4.262540883951e+00 0.0 
-4.262540883951e+00 -1.884584367689e+02 0.0 
0.0 0.0 -7.369580591462e+01 
-1.070948490150e+02 2.358256973057e+01 0.0 
2.358256973057e+01 -2.838770484243e+02 0.0 
0.0 0.0 -1.168915692318e+02 
-6.972927243625e+01 5.529582758567e-01 0.0 
5.529582758567e-01 -1.298919433853e+02 0.0 
0.0 0.0 -5.948636474647e+01 
-6.377163477003e+01 -6.681620057645e+00 0.0 
-6.681620057645e+00 -1.942890275433e+02 0.0 
0.0 0.0 -7.805175848606e+01 
-4.905584489624e+01 -9.929598442768e-01 0.0 
-9.929598442768e-01 -1.120266515851e+02 0.0 
0.0 0.0 -4.473022542059e+01 
-6.290012688903e+01 -1.048069410257e+01 0.0 
-1.048069410257e+01 -1.842734508816e+02 0.0 
0.0 0.0 -7.426615387695e+01 
-8.267248218252e+01 2.153501028888e+01 0.0 
2.153501028888e+01 -2.433701579008e+02 0.0 
0.0 0.0 -1.000547757313e+02 
-6.728253372073e+01 -1.142521935188e+01 0.0 
-1.142521935188e+01 -1.900787013632e+02 0.0 
0.0 0.0 -7.743890980572e+01 
-6.617431333862e+01 -1.368273716479e+01 0.0 
-1.368273716479e+01 -1.779442562583e+02 0.0 
0.0 0.0 -7.254597648982e+01 
-1.023519196593e+02 5.571991656003e+00 0.0 
5.571991656003e+00 -2.260255802252e+02 0.0 
0.0 0.0 -9.811324996534e+01 
-7.147676328927e+01 -1.235790498402e+01 0.0 
-1.235790498402e+01 -1.839491395250e+02 0.0 
0.0 0.0 -7.544861281601e+01 
-1.070517742167e+02 1.663566194095e+00 0.0 
1.663566194095e+00 -2.445909825203e+02 0.0 
0.0 0.0 -1.050928270211e+02 
-1.619577701532e+02 9.772166832166e-01 0.0 
9.772166832166e-01 -3.831164090228e+02 0.0 
0.0 0.0 -1.631222537528e+02 
-5.463247385872e+01 3.148986650398e-01 0.0 
3.148986650398e-01 -9.057211843090e+01 0.0 
0.0 0.0 -4.316137768689e+01 
-4.131689872905e+01 2.850817184851e+01 0.0 
2.850817184851e+01 -3.475393557103e+01 0.0 
0.0 0.0 -1.889318173536e+01 
-7.918214748121e+01 2.315762960577e+00 0.0 
2.315762960577e+00 -1.112011564568e+02 0.0 
0.0 0.0 -5.799473974460e+01 
-4.568138065264e+01 3.132353896206e+01 0.0 
3.132353896206e+01 -6.175783432170e+01 0.0 
0.0 0.0 -2.916869541617e+01 
-6.276739317957e+01 -1.512163541529e+01 0.0 
-1.512163541529e+01 -1.514924336658e+02 0.0 
0.0 0.0 -6.191011722167e+01 
-1.007649517845e+02 2.735882697535e+01 0.0 
2.735882697535e+01 -2.119910410122e+02 0.0 
0.0 0.0 -9.342679783902e+01 
-5.510813126781e+01 3.382592919877e-01 0.0 
3.382592919877e-01 -9.130081166787e+01 0.0 
0.0 0.0 -4.352268288070e+01 
-5.979872228735e+01 -1.449225883754e+01 0.0 
-1.449225883754e+01 -1.377672198427e+02 0.0 
0.0 0.0 -5.621191076046e+01 
-1.200312557153e+02 2.846491523446e+01 0.0 
2.846491523446e+01 -2.678778656554e+02 0.0 
0.0 0.0 -1.159727364112e+02 
-1.407413092881e+02 3.087042161757e+01 0.0 
3.087042161757e+01 -3.349277833371e+02 0.0 
0.0 0.0 -1.423007277876e+02 
-8.014650899178e+01 1.118260757554e+00 0.0 
1.118260757554e+00 -1.589054549957e+02 0.0 
0.0 0.0 -7.131558919624e+01 
-1.247955633435e+02 1.786679788603e+01 0.0 
1.786679788603e+01 -3.247728797395e+02 0.0 
0.0 0.0 -1.344705329249e+02 
-9.678206436470e+01 2.305773596217e+01 0.0 
2.305773596217e+01 -2.657008465873e+02 0.0 
0.0 0.0 -1.085722154466e+02 
-9.552215554287e+01 8.724658487822e-01 0.0 
8.724658487822e-01 -2.068579954996e+02 0.0 
0.0 0.0 -9.031404531274e+01 
-4.946489363511e+01 9.663574568610e-01 0.0 
9.663574568610e-01 -7.414590599159e+01 0.0 
0.0 0.0 -3.668323988801e+01 
-2.284857011965e+01 -4.084193977532e+00 0.0 
-4.084193977532e+00 -3.431452817937e+01 0.0 
0.0 0.0 -1.486621714078e+01 
-1.220321038893e+02 -8.017965256757e-02 0.0 
-8.017965256757e-02 -2.931443379449e+02 0.0 
0.0 0.0 -1.228877973080e+02 
-4.211332434820e+01 2.927490563961e+01 0.0 
2.927490563961e+01 -3.447667898640e+01 0.0 
0.0 0.0 -1.981325152686e+01 
-4.462898122060e+01 3.122378194558e+01 0.0 
3.122378194558e+01 -5.758113502825e+01 0.0 
0.0 0.0 -2.745970948630e+01 
-4.527435188811e+01 3.219077547187e+01 0.0 
3.219077547187e+01 -5.947813327972e+01 0.0 
0.0 0.0 -2.733727420952e+01 
-6.526210872881e+01 -3.260007225069e+00 0.0 
-3.260007225069e+00 -1.399251485367e+02 0.0 
0.0 0.0 -5.625966731031e+01 
-4.214839486500e+01 -1.626088074865e+01 0.0 
-1.626088074865e+01 -6.115168642376e+01 0.0 
0.0 0.0 -2.455010304316e+01 
-4.400117835726e+01 3.014172617483e+01 0.0 
3.014172617483e+01 -3.838368898858e+01 0.0 
0.0 0.0 -2.129346862111e+01 
-1.399953851585e+02 2.100085703998e+01 0.0 
2.100085703998e+01 -3.471051124023e+02 0.0 
0.0 0.0 -1.457301492683e+02 
-6.007418809395e+01 2.913459828950e+00 0.0 
2.913459828950e+00 -9.256217424931e+01 0.0 
0.0 0.0 -4.539090870298e+01 
-1.116233391246e+02 2.522093737416e+01 0.0 
2.522093737416e+01 -2.883185803559e+02 0.0 
0.0 0.0 -1.195825758441e+02 
-4.546858094278e+01 3.144595643852e+01 0.0 
3.144595643852e+01 -3.995987258411e+01 0.0 
0.0 0.0 -2.164925188527e+01 
-1.080117244890e+02 1.441744050167e+01 0.0 
1.441744050167e+01 -2.340491496385e+02 0.0 
0.0 0.0 -1.022182622383e+02 
-1.335319580955e+02 2.752070630778e+01 0.0 
2.752070630778e+01 -3.268394791437e+02 0.0 
0.0 0.0 -1.377114311717e+02 
-1.612347832467e+02 6.769654950540e+00 0.0 
6.769654950540e+00 -3.840562237382e+02 0.0 
0.0 0.0 -1.631873020955e+02 
-1.220078863397e+02 2.611987587753e+01 0.0 
2.611987587753e+01 -3.068503334224e+02 0.0 
0.0 0.0 -1.282574659286e+02 
-4.572142195005e+01 3.405755427181e+01 0.0 
3.405755427181e+01 -6.351078658787e+01 0.0 
0.0 0.0 -2.836604756661e+01 
-7.252518193510e+01 7.843607917079e+00 0.0 
7.843607917079e+00 -1.126106557979e+02 0.0 
0.0 0.0 -5.514075131989e+01 
-1.261695194944e+02 3.123072842137e+01 0.0 
3.123072842137e+01 -2.955535559412e+02 0.0 
0.0 0.0 -1.261169226307e+02 
-8.603527634488e+01 1.823628479407e+00 0.0 
1.823628479407e+00 -1.749599953205e+02 0.0 
0.0 0.0 -7.789858149962e+01 
-1.627309124109e+02 4.685782247152e+00 0.0 
4.685782247152e+00 -3.858008788232e+02 0.0 
0.0 0.0 -1.641595373703e+02 
-6.160815000286e+01 3.989494919230e+00 0.0 
3.989494919230e+00 -9.098893730981e+01 0.0 
0.0 0.0 -4.537912619380e+01 
-1.023156610181e+02 3.554986073511e+00 0.0 
3.554986073511e+00 -2.280932738323e+02 0.0 
0.0 0.0 -9.872268045513e+01 
-3.862377996791e+01 -1.557749554354e+01 0.0 
-1.557749554354e+01 -1.207147087528e+02 0.0 
0.0 0.0 -4.475452469271e+01 
-1.019962549872e+02 1.770740605630e+00 0.0 
1.770740605630e+00 -2.280208528783e+02 0.0 
0.0 0.0 -9.860513235966e+01 
-1.076211056851e+02 2.782035570625e+01 0.0 
2.782035570625e+01 -2.327136515120e+02 0.0 
0.0 0.0 -1.017004271591e+02 
-6.546688519205e+01 1.286862368156e+00 0.0 
1.286862368156e+00 -1.155845955805e+02 0.0 
0.0 0.0 -5.391544423176e+01 
-7.548056266531e+01 1.101729080618e+01 0.0 
1.101729080618e+01 -1.151991003465e+02 0.0 
0.0 0.0 -5.680389890356e+01 
-1.555424345816e+02 1.419829990977e+00 0.0 
1.419829990977e+00 -3.707532949257e+02 0.0 
0.0 0.0 -1.574887188522e+02 
-1.166035071691e+02 2.545594026566e+01 0.0 
2.545594026566e+01 -2.557809657608e+02 0.0 
0.0 0.0 -1.113153418790e+02 
-4.510774531985e+01 3.556052966996e+01 0.0 
3.556052966996e+01 -7.064156597153e+01 0.0 
0.0 0.0 -3.240972766227e+01 
-8.029290474837e+01 1.421516756644e+00 0.0 
1.421516756644e+00 -1.578784469933e+02 0.0 
0.0 0.0 -7.105140552252e+01 
-8.189354305177e+01 -4.083517126841e+00 0.0 
-4.083517126841e+00 -1.758044944538e+02 0.0 
0.0 0.0 -7.132119602197e+01 
-4.284471691488e+01 -2.030564201811e+01 0.0 
-2.030564201811e+01 -1.048209589348e+02 0.0 
0.0 0.0 -4.563661798507e+01 
-1.504193300795e+02 8.190969981758e+00 0.0 
8.190969981758e+00 -3.671461931561e+02 0.0 
0.0 0.0 -1.548696569707e+02 
-1.139014300280e+02 2.847562951199e+01 0.0 
2.847562951199e+01 -2.521535936353e+02 0.0 
0.0 0.0 -1.094165070990e+02 
-1.543939958285e+02 2.343591424890e+00 0.0 
2.343591424890e+00 -3.695989985633e+02 0.0 
0.0 0.0 -1.567978983175e+02 
-1.326305463344e+01 -3.013921165726e-01 0.0 
-3.013921165726e-01 -4.971135830010e+01 0.0 
0.0 0.0 -1.681238237514e+01 
-1.572465677903e+01 -1.410017346829e+00 0.0 
-1.410017346829e+00 -3.124009798174e+01 0.0 
0.0 0.0 -1.259386730441e+01 
-1.501294168653e+02 1.114439790582e+01 0.0 
1.114439790582e+01 -3.675496450240e+02 0.0 
0.0 0.0 -1.549037185668e+02 
-1.236636107182e+02 3.051401455946e+01 0.0 
3.051401455946e+01 -2.824293630841e+02 0.0 
0.0 0.0 -1.214278921407e+02 
-4.387964153561e+01 -1.840501587643e+01 0.0 
-1.840501587643e+01 -1.185733866323e+02 0.0 
0.0 0.0 -4.319614665152e+01 
-1.111528424756e+02 1.244331992699e+01 0.0 
1.244331992699e+01 -2.527803978415e+02 0.0 
0.0 0.0 -1.087799720951e+02 
-4.706797654967e+01 3.801455382266e+01 0.0 
3.801455382266e+01 -7.673587215128e+01 0.0 
0.0 0.0 -3.807178723548e+01 
-4.981404334752e+01 1.038481770912e+00 0.0 
1.038481770912e+00 -7.216351603919e+01 0.0 
0.0 0.0 -3.619326781601e+01 
-1.321533526673e+01 -8.133746934432e-01 0.0 
-8.133746934432e-01 -3.226830468643e+01 0.0 
0.0 0.0 -1.141475453489e+01 
-1.629246550757e+02 3.781921185875e+00 0.0 
3.781921185875e+00 -3.856667515005e+02 0.0 
0.0 0.0 -1.641774219729e+02 
-1.049981000937e+02 8.972884237463e+00 0.0 
8.972884237463e+00 -2.314229575301e+02 0.0 
0.0 0.0 -1.005263172871e+02 
-8.974222165264e+01 -2.678153523330e+00 0.0 
-2.678153523330e+00 -1.930207825483e+02 0.0 
0.0 0.0 -7.941900204915e+01 
-6.182852407785e+01 7.525757023556e+00 0.0 
7.525757023556e+00 -8.169552537525e+01 0.0 
0.0 0.0 -4.259516998087e+01 
-5.741495436475e+01 -2.144301061026e+00 0.0 
-2.144301061026e+00 -1.261911460070e+02 0.0 
0.0 0.0 -5.069537994692e+01 
-1.231785007497e+02 2.915822700364e+01 0.0 
2.915822700364e+01 -2.993298443161e+02 0.0 
0.0 0.0 -1.263525035197e+02 
-3.239036212531e+01 -8.093835739923e+00 0.0 
-8.093835739923e+00 -4.977104512232e+01 0.0 
0.0 0.0 -2.052284278881e+01 
-1.043777170395e+02 6.718061334651e+00 0.0 
6.718061334651e+00 -2.321660109572e+02 0.0 
0.0 0.0 -1.005631183990e+02 
-1.483712392358e+02 1.448477254641e+01 0.0 
1.448477254641e+01 -3.645139813978e+02 0.0 
0.0 0.0 -1.534655661901e+02 
-1.126969689638e+02 1.953801551448e+01 0.0 
1.953801551448e+01 -2.457967625374e+02 0.0 
0.0 0.0 -1.071481194504e+02 
-1.503970705969e+02 2.561839940466e+01 0.0 
2.561839940466e+01 -3.595012358711e+02 0.0 
0.0 0.0 -1.525694919404e+02 
-4.991495672965e+01 1.238090281639e+01 0.0 
1.238090281639e+01 -1.150736930192e+02 0.0 
0.0 0.0 -5.102787127794e+01 
-1.347660244002e+02 2.912786067002e+01 0.0 
2.912786067002e+01 -3.262749764352e+02 0.0 
0.0 0.0 -1.379123002506e+02 
-1.357217708382e+02 1.590316874383e+01 0.0 
1.590316874383e+01 -3.443184285472e+02 0.0 
0.0 0.0 -1.436120598156e+02 
-4.870024027546e+01 3.022096205653e-01 0.0 
3.022096205653e-01 -7.390335160998e+01 0.0 
0.0 0.0 -3.638107756563e+01 
-1.145649796421e+02 2.252697192911e+01 0.0 
2.252697192911e+01 -2.497070315901e+02 0.0 
0.0 0.0 -1.088816033697e+02 
-7.366668915681e+01 -3.145032301219e+00 0.0 
-3.145032301219e+00 -1.563914722075e+02 0.0 
0.0 0.0 -6.350863909510e+01 
-2.168849025208e+01 -2.733337650135e+00 0.0 
-2.733337650135e+00 -6.632486761686e+01 0.0 
0.0 0.0 -2.440930969251e+01 
-1.074779978000e+02 9.182495122595e-01 0.0 
9.182495122595e-01 -2.465860000511e+02 0.0 
0.0 0.0 -1.058191993553e+02 
-9.382192733013e+00 -7.428857604685e-02 0.0 
-7.428857604685e-02 -1.413178305713e+01 0.0 
0.0 0.0 -5.217991758095e+00 
-4.742376513219e+01 1.523258967743e-01 0.0 
1.523258967743e-01 -7.286067612003e+01 0.0 
0.0 0.0 -3.568533237566e+01 
-1.641810988700e+02 2.750440707621e-01 0.0 
2.750440707621e-01 -3.872462356469e+02 0.0 
0.0 0.0 -1.650282003551e+02 
-1.752003224063e+01 -1.498745401069e+00 0.0 
-1.498745401069e+00 -6.315620534181e+01 0.0 
0.0 0.0 -2.298281671035e+01 
-6.047984987154e+01 5.318647823774e-01 0.0 
5.318647823774e-01 -1.050277242087e+02 0.0 
0.0 0.0 -4.925227222408e+01 
-1.224892026309e+02 2.981485697078e+01 0.0 
2.981485697078e+01 -2.770177301414e+02 0.0 
0.0 0.0 -1.194520798317e+02 
-1.054764062484e+02 -5.160604172869e-01 0.0 
-5.160604172869e-01 -2.364822974157e+02 0.0 
0.0 0.0 -9.838073695062e+01 
-9.196755205075e+01 1.587276300269e+00 0.0 
1.587276300269e+00 -1.952189862902e+02 0.0 
0.0 0.0 -8.575596150228e+01 
-4.660691738722e+01 -2.062042896333e+01 0.0 
-2.062042896333e+01 -8.224159145661e+01 0.0 
0.0 0.0 -3.208188206123e+01 
-8.251382134966e+01 -6.941449044234e+00 0.0 
-6.941449044234e+00 -1.073383295450e+02 0.0 
0.0 0.0 -5.770116818609e+01 
-7.365099385277e+01 9.167369521798e-01 0.0 
9.167369521798e-01 -1.403485099453e+02 0.0 
0.0 0.0 -6.379985113943e+01 
-1.369871093150e+02 2.647334713710e+01 0.0 
2.647334713710e+01 -3.352206701108e+02 0.0 
0.0 0.0 -1.412623338278e+02 
-1.103875008890e+02 1.619840016631e+01 0.0 
1.619840016631e+01 -2.415567466660e+02 0.0 
0.0 0.0 -1.051832742665e+02 
-6.932444991492e+01 1.227639877564e+00 0.0 
1.227639877564e+00 -1.265270852348e+02 0.0 
0.0 0.0 -5.835546054493e+01 
-4.060357470719e+01 3.054400943653e+01 0.0 
3.054400943653e+01 -9.068865076298e+01 0.0 
0.0 0.0 -3.716155563703e+01 
-1.192455047189e+02 2.936199128258e+01 0.0 
2.936199128258e+01 -2.680988094866e+02 0.0 
0.0 0.0 -1.158032942616e+02 
-9.558218825241e+01 -2.310474853309e+00 0.0 
-2.310474853309e+00 -2.086375891635e+02 0.0 
0.0 0.0 -8.619690225800e+01 
-1.217088067480e+02 3.048220641400e+01 0.0 
3.048220641400e+01 -2.873571809368e+02 0.0 
0.0 0.0 -1.223197963055e+02 
-1.334974184410e+02 1.914574198559e+01 0.0 
1.914574198559e+01 -3.383791122501e+02 0.0 
0.0 0.0 -1.411629592073e+02 
-5.532899220944e+01 3.817973254431e+01 0.0 
3.817973254431e+01 -6.037824285449e+01 0.0 
0.0 0.0 -3.554665624487e+01 
-1.109239513762e+02 -3.750231493938e-01 0.0 
-3.750231493938e-01 -2.540119477330e+02 0.0 
0.0 0.0 -1.059067140597e+02 
-1.356435861043e+01 -6.526104409238e-01 0.0 
-6.526104409238e-01 -3.021791993877e+01 0.0 
0.0 0.0 -1.130721107465e+01 
-1.546153076416e+02 5.746717975403e+00 0.0 
5.746717975403e+00 -3.725397172200e+02 0.0 
0.0 0.0 -1.577465074585e+02 
-9.884383439944e+01 -1.499537585632e+00 0.0 
-1.499537585632e+00 -2.171578240155e+02 0.0 
0.0 0.0 -8.998658404049e+01 
-3.267092957787e+01 5.846394303112e+00 0.0 
5.846394303112e+00 -8.000565275318e+00 0.0 
0.0 0.0 -8.622708981873e+00 
-2.150144601137e+01 9.934498789625e-02 0.0 
9.934498789625e-02 -9.366171595602e+00 0.0 
0.0 0.0 -8.860285282092e+00 
-4.144741019523e+01 6.155011216613e+00 0.0 
6.155011216613e+00 -3.016819192840e+01 0.0 
0.0 0.0 -1.928093122520e+01 
-2.981794154579e+01 -6.584041617003e-02 0.0 
-6.584041617003e-02 -3.009331023110e+01 0.0 
0.0 0.0 -1.757337553307e+01 
-4.921981585737e+01 5.644543061984e+00 0.0 
5.644543061984e+00 -5.048450683819e+01 0.0 
0.0 0.0 -2.885358389254e+01 
-3.726489080561e+01 -1.575258448420e-01 0.0 
-1.575258448420e-01 -4.846248239372e+01 0.0 
0.0 0.0 -2.531821195980e+01 

TENSORS node_materi_strain_total float
2.576068267186e-03 -2.879358955187e-05 0.0 
-2.879358955187e-05 -9.754974490256e-04 0.0 
0.0 0.0 0.0 
-1.724420257380e-03 -1.524019054748e-05 0.0 
-1.524019054748e-05 1.173744888981e-02 0.0 
0.0 0.0 0.0 
-8.417907049524e-05 -3.789061767347e-05 0.0 
-3.789061767347e-05 6.032444988724e-03 0.0 
0.0 0.0 0.0 
-1.251758838454e-04 5.921810232826e-05 0.0 
5.921810232826e-05 1.464606138430e-02 0.0 
0.0 0.0 0.0 
2.023294110611e-03 -4.520843824346e-05 0.0 
-4.520843824346e-05 -5.688608885613e-04 0.0 
0.0 0.0 0.0 
1.389162779697e-03 -3.000053506905e-05 0.0 
-3.000053506905e-05 1.183014633433e-04 0.0 
0.0 0.0 0.0 
7.186210356887e-04 -5.447587663304e-05 0.0 
-5.447587663304e-05 7.622208765653e-04 0.0 
0.0 0.0 0.0 
1.258745002047e-04 -7.381158818929e-05 0.0 
-7.381158818929e-05 1.419021059134e-03 0.0 
0.0 0.0 0.0 
-3.923023459892e-04 -9.990224973099e-05 0.0 
-9.990224973099e-05 1.968111132633e-03 0.0 
0.0 0.0 0.0 
-7.629572118747e-04 -1.094476180216e-04 0.0 
-1.094476180216e-04 2.411816454613e-03 0.0 
0.0 0.0 0.0 
-1.021114054912e-03 -1.179453597974e-04 0.0 
-1.179453597974e-04 2.778817272969e-03 0.0 
0.0 0.0 0.0 
-1.177772561049e-03 -1.256919892953e-04 0.0 
-1.256919892953e-04 3.078264395542e-03 0.0 
0.0 0.0 0.0 
-1.244115169747e-03 -1.267780890554e-04 0.0 
-1.267780890554e-04 3.330810401718e-03 0.0 
0.0 0.0 0.0 
-1.247508221558e-03 -1.198272647935e-04 0.0 
-1.198272647935e-04 3.557755958044e-03 0.0 
0.0 0.0 0.0 
-1.201005786483e-03 -9.982697511767e-05 0.0 
-9.982697511767e-05 3.774367878100e-03 0.0 
0.0 0.0 0.0 
-1.129049860264e-03 -6.864959589429e-05 0.0 
-6.864959589429e-05 3.997343044636e-03 0.0 
0.0 0.0 0.0 
-1.037544664177e-03 -7.059819741575e-05 0.0 
-7.059819741575e-05 4.219328923739e-03 0.0 
0.0 0.0 0.0 
-9.269166267630e-04 -7.814457068868e-05 0.0 
-7.814457068868e-05 4.453624890440e-03 0.0 
0.0 0.0 0.0 
-8.091992487167e-04 -6.398411595956e-05 0.0 
-6.398411595956e-05 4.724740674721e-03 0.0 
0.0 0.0 0.0 
-6.867942782427e-04 -5.214127177005e-05 0.0 
-5.214127177005e-05 5.005176631829e-03 0.0 
0.0 0.0 0.0 
-5.535201611325e-04 -4.172111695643e-05 0.0 
-4.172111695643e-05 5.298343715054e-03 0.0 
0.0 0.0 0.0 
-4.024990599470e-04 -3.500374611716e-05 0.0 
-3.500374611716e-05 5.596063063728e-03 0.0 
0.0 0.0 0.0 
-2.385447412609e-04 -2.979038007255e-05 0.0 
-2.979038007255e-05 5.871492625189e-03 0.0 
0.0 0.0 0.0 
-9.148604650426e-05 1.914189219125e-04 0.0 
1.914189219125e-04 1.464039518205e-02 0.0 
0.0 0.0 0.0 
-9.850183383072e-05 3.502583242090e-04 0.0 
3.502583242090e-04 1.461313016377e-02 0.0 
0.0 0.0 0.0 
-9.865768004676e-05 5.106801628426e-04 0.0 
5.106801628426e-04 1.460099339020e-02 0.0 
0.0 0.0 0.0 
-9.550364818001e-05 7.015794420128e-04 0.0 
7.015794420128e-04 1.456614411542e-02 0.0 
0.0 0.0 0.0 
-1.186333419958e-04 8.705802218008e-04 0.0 
8.705802218008e-04 1.452159873090e-02 0.0 
0.0 0.0 0.0 
-1.093329419388e-04 1.072287386031e-03 0.0 
1.072287386031e-03 1.447757322471e-02 0.0 
0.0 0.0 0.0 
-1.243953183554e-04 1.284998279334e-03 0.0 
1.284998279334e-03 1.440349374768e-02 0.0 
0.0 0.0 0.0 
-1.257869392777e-04 1.512037292528e-03 0.0 
1.512037292528e-03 1.430451390668e-02 0.0 
0.0 0.0 0.0 
-1.307090319644e-04 1.734396063639e-03 0.0 
1.734396063639e-03 1.420260801239e-02 0.0 
0.0 0.0 0.0 
-1.195010228207e-04 1.985162912414e-03 0.0 
1.985162912414e-03 1.406221720744e-02 0.0 
0.0 0.0 0.0 
-1.545128978065e-04 2.222809406260e-03 0.0 
2.222809406260e-03 1.390467392649e-02 0.0 
0.0 0.0 0.0 
-1.414333927849e-04 2.494785367138e-03 0.0 
2.494785367138e-03 1.371659144355e-02 0.0 
0.0 0.0 0.0 
-1.533173321453e-04 2.772716749416e-03 0.0 
2.772716749416e-03 1.347909160073e-02 0.0 
0.0 0.0 0.0 
-1.412419845193e-04 3.042391205315e-03 0.0 
3.042391205315e-03 1.321073663421e-02 0.0 
0.0 0.0 0.0 
-1.566100534797e-04 3.308195489340e-03 0.0 
3.308195489340e-03 1.290811771215e-02 0.0 
0.0 0.0 0.0 
-1.414835298390e-04 3.561766005357e-03 0.0 
3.561766005357e-03 1.254814260340e-02 0.0 
0.0 0.0 0.0 
-1.471243213798e-04 3.808997113570e-03 0.0 
3.808997113570e-03 1.215067493092e-02 0.0 
0.0 0.0 0.0 
-1.350519092927e-04 4.052655582636e-03 0.0 
4.052655582636e-03 1.169714729573e-02 0.0 
0.0 0.0 0.0 
-1.073785369103e-04 4.254505621604e-03 0.0 
4.254505621604e-03 1.121636560772e-02 0.0 
0.0 0.0 0.0 
-7.519432308634e-05 4.420716992011e-03 0.0 
4.420716992011e-03 1.070238990303e-02 0.0 
0.0 0.0 0.0 
-3.896825818106e-05 4.536387201697e-03 0.0 
4.536387201697e-03 1.014547067520e-02 0.0 
0.0 0.0 0.0 
-2.276913959546e-05 4.597935396270e-03 0.0 
4.597935396270e-03 9.576604512155e-03 0.0 
0.0 0.0 0.0 
1.456666478727e-05 4.605042536412e-03 0.0 
4.605042536412e-03 8.990037160619e-03 0.0 
0.0 0.0 0.0 
4.602155858765e-05 4.548388562497e-03 0.0 
4.548388562497e-03 8.406494960574e-03 0.0 
0.0 0.0 0.0 
7.327725341747e-05 4.437104284308e-03 0.0 
4.437104284308e-03 7.843795755827e-03 0.0 
0.0 0.0 0.0 
1.075407986417e-04 4.274746992307e-03 0.0 
4.274746992307e-03 7.303013103929e-03 0.0 
0.0 0.0 0.0 
1.218201972510e-04 4.051415396613e-03 0.0 
4.051415396613e-03 6.790214948442e-03 0.0 
0.0 0.0 0.0 
1.634607217719e-04 3.780411331532e-03 0.0 
3.780411331532e-03 6.322069651027e-03 0.0 
0.0 0.0 0.0 
1.715316958453e-04 3.463314910724e-03 0.0 
3.463314910724e-03 5.895133785151e-03 0.0 
0.0 0.0 0.0 
1.646756844990e-04 3.127899214792e-03 0.0 
3.127899214792e-03 5.558970111182e-03 0.0 
0.0 0.0 0.0 
1.895422636022e-04 2.767415148163e-03 0.0 
2.767415148163e-03 5.215534766893e-03 0.0 
0.0 0.0 0.0 
2.246362949532e-04 2.388935552437e-03 0.0 
2.388935552437e-03 4.905451652976e-03 0.0 
0.0 0.0 0.0 
2.209847168892e-04 1.965355311159e-03 0.0 
1.965355311159e-03 4.686002164423e-03 0.0 
0.0 0.0 0.0 
2.135573580261e-04 1.575905406964e-03 0.0 
1.575905406964e-03 4.573423603191e-03 0.0 
0.0 0.0 0.0 
2.085929217304e-04 1.200683558517e-03 0.0 
1.200683558517e-03 4.491673363090e-03 0.0 
0.0 0.0 0.0 
1.688943419430e-04 8.403784090530e-04 0.0 
8.403784090530e-04 4.477111305879e-03 0.0 
0.0 0.0 0.0 
1.751625945762e-04 5.267950713478e-04 0.0 
5.267950713478e-04 4.521696911819e-03 0.0 
0.0 0.0 0.0 
1.348215758764e-04 2.390251885076e-04 0.0 
2.390251885076e-04 4.588188645777e-03 0.0 
0.0 0.0 0.0 
1.326003606708e-04 3.998355652283e-06 0.0 
3.998355652283e-06 4.694909869575e-03 0.0 
0.0 0.0 0.0 
9.243938692616e-05 -1.898122975766e-04 0.0 
-1.898122975766e-04 4.830760703939e-03 0.0 
0.0 0.0 0.0 
6.528005441335e-05 -3.304007758359e-04 0.0 
-3.304007758359e-04 5.005335460362e-03 0.0 
0.0 0.0 0.0 
3.959681594419e-05 -4.212364835268e-04 0.0 
-4.212364835268e-04 5.208235388770e-03 0.0 
0.0 0.0 0.0 
1.934620430440e-05 -4.719507716931e-04 0.0 
-4.719507716931e-04 5.369517979946e-03 0.0 
0.0 0.0 0.0 
-7.000238610305e-06 -4.805556415969e-04 0.0 
-4.805556415969e-04 5.484785218710e-03 0.0 
0.0 0.0 0.0 
-2.034991610370e-05 -4.530365550612e-04 0.0 
-4.530365550612e-04 5.682578599824e-03 0.0 
0.0 0.0 0.0 
-4.073157674248e-05 -4.009689590646e-04 0.0 
-4.009689590646e-04 5.784621445649e-03 0.0 
0.0 0.0 0.0 
-4.433295250465e-05 -3.336463155456e-04 0.0 
-3.336463155456e-04 5.891349543357e-03 0.0 
0.0 0.0 0.0 
-5.317395353825e-05 -2.280370013479e-04 0.0 
-2.280370013479e-04 5.979452756655e-03 0.0 
0.0 0.0 0.0 
-6.075017160930e-05 -1.331206099392e-04 0.0 
-1.331206099392e-04 6.022031389310e-03 0.0 
0.0 0.0 0.0 
-1.697162183476e-03 -4.981084181542e-06 0.0 
-4.981084181542e-06 1.215143438297e-02 0.0 
0.0 0.0 0.0 
-1.654018292128e-03 -9.306870349611e-08 0.0 
-9.306870349611e-08 1.254283728337e-02 0.0 
0.0 0.0 0.0 
-1.574800094575e-03 5.388809978618e-06 0.0 
5.388809978618e-06 1.290538268872e-02 0.0 
0.0 0.0 0.0 
-1.461011509266e-03 1.209021730894e-05 0.0 
1.209021730894e-05 1.323623399219e-02 0.0 
0.0 0.0 0.0 
-1.310788407997e-03 2.001698734839e-05 0.0 
2.001698734839e-05 1.354634848260e-02 0.0 
0.0 0.0 0.0 
-1.125086109401e-03 2.726738373949e-05 0.0 
2.726738373949e-05 1.382970308854e-02 0.0 
0.0 0.0 0.0 
-9.041496449205e-04 3.273590718777e-05 0.0 
3.273590718777e-05 1.408474470664e-02 0.0 
0.0 0.0 0.0 
-6.385491781940e-04 4.227851991211e-05 0.0 
4.227851991211e-05 1.431542764537e-02 0.0 
0.0 0.0 0.0 
-3.672971963024e-04 4.517333096547e-05 0.0 
4.517333096547e-05 1.452312499145e-02 0.0 
0.0 0.0 0.0 
-2.300014546314e-03 3.045974452340e-03 0.0 
3.045974452340e-03 -2.049589135534e-03 0.0 
0.0 0.0 0.0 
-2.676246549110e-03 1.130653178103e-03 0.0 
1.130653178103e-03 1.152180220858e-02 0.0 
0.0 0.0 0.0 
-2.065952664659e-03 3.743086381656e-03 0.0 
3.743086381656e-03 8.937977648419e-04 0.0 
0.0 0.0 0.0 
-1.632932047580e-03 3.525785629522e-03 0.0 
3.525785629522e-03 2.107379050973e-03 0.0 
0.0 0.0 0.0 
-1.558906131090e-03 3.502740384668e-03 0.0 
3.502740384668e-03 3.280151001536e-03 0.0 
0.0 0.0 0.0 
-1.583903629897e-03 3.364409158141e-03 0.0 
3.364409158141e-03 4.482117436360e-03 0.0 
0.0 0.0 0.0 
-1.647122924468e-03 3.249924137293e-03 0.0 
3.249924137293e-03 5.806374870441e-03 0.0 
0.0 0.0 0.0 
-1.903182885912e-03 3.152161892949e-03 0.0 
3.152161892949e-03 7.375129395312e-03 0.0 
0.0 0.0 0.0 
-2.751791766953e-03 2.446876507369e-03 0.0 
2.446876507369e-03 9.461270002800e-03 0.0 
0.0 0.0 0.0 
-2.547859094423e-03 1.511880616888e-03 0.0 
1.511880616888e-03 1.042075831349e-02 0.0 
0.0 0.0 0.0 
-2.613229607652e-03 1.270750457087e-03 0.0 
1.270750457087e-03 1.097126740108e-02 0.0 
0.0 0.0 0.0 
-1.714632484335e-03 -2.344019741827e-05 0.0 
-2.344019741827e-05 1.059440686432e-02 0.0 
0.0 0.0 0.0 
-1.701410597485e-03 -3.383254602553e-05 0.0 
-3.383254602553e-05 1.085867128978e-02 0.0 
0.0 0.0 0.0 
-1.712021082221e-03 -2.421409338943e-05 0.0 
-2.421409338943e-05 1.129087088573e-02 0.0 
0.0 0.0 0.0 
-1.722026391364e-03 1.321928467505e-05 0.0 
1.321928467505e-05 1.168127749814e-02 0.0 
0.0 0.0 0.0 
-1.732912551652e-03 1.405726616813e-05 0.0 
1.405726616813e-05 1.171243909130e-02 0.0 
0.0 0.0 0.0 
-1.754728749352e-03 2.417565021872e-05 0.0 
2.417565021872e-05 1.171959928640e-02 0.0 
0.0 0.0 0.0 
-1.783205185415e-03 3.436590593559e-05 0.0 
3.436590593559e-05 1.171787836286e-02 0.0 
0.0 0.0 0.0 
-1.816721849823e-03 6.278739316163e-05 0.0 
6.278739316163e-05 1.177769161680e-02 0.0 
0.0 0.0 0.0 
-1.859467131704e-03 7.418185353037e-05 0.0 
7.418185353037e-05 1.173443253194e-02 0.0 
0.0 0.0 0.0 
-1.914795119696e-03 9.909164057978e-05 0.0 
9.909164057978e-05 1.173367333405e-02 0.0 
0.0 0.0 0.0 
-1.969765041432e-03 1.379459714932e-04 0.0 
1.379459714932e-04 1.173826343661e-02 0.0 
0.0 0.0 0.0 
-2.051080010604e-03 1.903331617273e-04 0.0 
1.903331617273e-04 1.175132489868e-02 0.0 
0.0 0.0 0.0 
-2.136513805046e-03 2.600942082650e-04 0.0 
2.600942082650e-04 1.174472169321e-02 0.0 
0.0 0.0 0.0 
-2.226137946346e-03 3.541193156088e-04 0.0 
3.541193156088e-04 1.172987443019e-02 0.0 
0.0 0.0 0.0 
-2.324835812281e-03 4.751451213557e-04 0.0 
4.751451213557e-04 1.170517104096e-02 0.0 
0.0 0.0 0.0 
-2.425927141870e-03 6.372020383354e-04 0.0 
6.372020383354e-04 1.166113996471e-02 0.0 
0.0 0.0 0.0 
-2.529521087393e-03 8.462631468644e-04 0.0 
8.462631468644e-04 1.160344376806e-02 0.0 
0.0 0.0 0.0 
-3.204769089034e-03 1.365570554501e-03 0.0 
1.365570554501e-03 -3.033607913452e-03 0.0 
0.0 0.0 0.0 
-4.084178509374e-03 3.084588624353e-04 0.0 
3.084588624353e-04 -3.045722100489e-03 0.0 
0.0 0.0 0.0 
-4.507489175754e-03 -1.872134943623e-04 0.0 
-1.872134943623e-04 -2.880466094327e-03 0.0 
0.0 0.0 0.0 
-4.091175362351e-03 -8.911909123700e-04 0.0 
-8.911909123700e-04 -2.621812089055e-03 0.0 
0.0 0.0 0.0 
-2.902943746099e-03 -1.856202762740e-03 0.0 
-1.856202762740e-03 -1.185933357485e-03 0.0 
0.0 0.0 0.0 
-1.809621380200e-03 -1.397990867694e-03 0.0 
-1.397990867694e-03 2.231736156794e-04 0.0 
0.0 0.0 0.0 
-8.485396590445e-04 -4.461431304382e-04 0.0 
-4.461431304382e-04 2.922651558850e-04 0.0 
0.0 0.0 0.0 
-4.010852053853e-04 -1.592096315165e-04 0.0 
-1.592096315165e-04 2.631055390380e-04 0.0 
0.0 0.0 0.0 
-1.380653493699e-04 -1.088528010917e-04 0.0 
-1.088528010917e-04 2.161686677936e-04 0.0 
0.0 0.0 0.0 
1.874102491413e-04 -1.571697922195e-04 0.0 
-1.571697922195e-04 1.027435417020e-04 0.0 
0.0 0.0 0.0 
5.231662425254e-04 -1.703485109333e-04 0.0 
-1.703485109333e-04 -5.191628608081e-05 0.0 
0.0 0.0 0.0 
9.052809560233e-04 -1.900665371332e-04 0.0 
-1.900665371332e-04 -2.304944852920e-04 0.0 
0.0 0.0 0.0 
1.319013657895e-03 -1.791185553101e-04 0.0 
-1.791185553101e-04 -4.224117604987e-04 0.0 
0.0 0.0 0.0 
1.680868736333e-03 -1.696662640214e-04 0.0 
-1.696662640214e-04 -5.825265903138e-04 0.0 
0.0 0.0 0.0 
1.946319006988e-03 -1.350406144091e-04 0.0 
-1.350406144091e-04 -6.918026822509e-04 0.0 
0.0 0.0 0.0 
2.177018302353e-03 -1.022956320230e-04 0.0 
-1.022956320230e-04 -7.867042468461e-04 0.0 
0.0 0.0 0.0 
2.354705796923e-03 -8.063118249073e-05 0.0 
-8.063118249073e-05 -8.623169232536e-04 0.0 
0.0 0.0 0.0 
2.505388510196e-03 -4.902809532751e-05 0.0 
-4.902809532751e-05 -9.417776685429e-04 0.0 
0.0 0.0 0.0 
2.617698629600e-03 1.724005467833e-05 0.0 
1.724005467833e-05 -9.862708293615e-04 0.0 
0.0 0.0 0.0 
-2.492463959709e-03 1.212201147988e-03 0.0 
1.212201147988e-03 1.029093731037e-02 0.0 
0.0 0.0 0.0 
-2.013159818204e-03 9.164174923114e-04 0.0 
9.164174923114e-04 1.022981713697e-02 0.0 
0.0 0.0 0.0 
-1.823838357482e-03 6.076127169307e-04 0.0 
6.076127169307e-04 1.031321614224e-02 0.0 
0.0 0.0 0.0 
-1.762354638835e-03 3.868644340474e-04 0.0 
3.868644340474e-04 1.038003249474e-02 0.0 
0.0 0.0 0.0 
-1.749092754793e-03 2.449098443984e-04 0.0 
2.449098443984e-04 1.044604792297e-02 0.0 
0.0 0.0 0.0 
-1.747725236406e-03 1.373476786263e-04 0.0 
1.373476786263e-04 1.049454218756e-02 0.0 
0.0 0.0 0.0 
-1.732037342717e-03 6.178295445790e-05 0.0 
6.178295445790e-05 1.053136380925e-02 0.0 
0.0 0.0 0.0 
-1.717186594988e-03 8.786776231690e-06 0.0 
8.786776231690e-06 1.055726933141e-02 0.0 
0.0 0.0 0.0 
-1.709775923552e-03 -2.636688266132e-05 0.0 
-2.636688266132e-05 1.057831685876e-02 0.0 
0.0 0.0 0.0 
-1.705962895118e-03 -4.929906062081e-05 0.0 
-4.929906062081e-05 1.059569765619e-02 0.0 
0.0 0.0 0.0 
-1.701394812201e-03 -6.137260953977e-05 0.0 
-6.137260953977e-05 1.060935408212e-02 0.0 
0.0 0.0 0.0 
-1.691668931142e-03 -6.492356928593e-05 0.0 
-6.492356928593e-05 1.061722706722e-02 0.0 
0.0 0.0 0.0 
-1.681657487146e-03 -6.428360195421e-05 0.0 
-6.428360195421e-05 1.062192810368e-02 0.0 
0.0 0.0 0.0 
-1.673026131179e-03 -5.987798486971e-05 0.0 
-5.987798486971e-05 1.062508854631e-02 0.0 
0.0 0.0 0.0 
-1.664454740024e-03 -5.206845996255e-05 0.0 
-5.206845996255e-05 1.062737346150e-02 0.0 
0.0 0.0 0.0 
-1.656902596360e-03 -4.045786140411e-05 0.0 
-4.045786140411e-05 1.062977174300e-02 0.0 
0.0 0.0 0.0 
-1.649131229739e-03 -2.457954655236e-05 0.0 
-2.457954655236e-05 1.063087029541e-02 0.0 
0.0 0.0 0.0 
-1.656932873941e-03 -7.814262148915e-06 0.0 
-7.814262148915e-06 1.061774929105e-02 0.0 
0.0 0.0 0.0 
-1.680241147632e-03 1.944356890005e-05 0.0 
1.944356890005e-05 1.056940199188e-02 0.0 
0.0 0.0 0.0 
-1.696542318482e-03 4.382570356502e-06 0.0 
4.382570356502e-06 1.085893417238e-02 0.0 
0.0 0.0 0.0 
-1.687752038770e-03 -1.809253657622e-05 0.0 
-1.809253657622e-05 1.085812197565e-02 0.0 
0.0 0.0 0.0 
-1.693303082354e-03 -3.271397938355e-05 0.0 
-3.271397938355e-05 1.085735412412e-02 0.0 
0.0 0.0 0.0 
-1.703903678555e-03 -4.275992107286e-05 0.0 
-4.275992107286e-05 1.085615950891e-02 0.0 
0.0 0.0 0.0 
-1.718644110581e-03 -4.913460821065e-05 0.0 
-4.913460821065e-05 1.085588780733e-02 0.0 
0.0 0.0 0.0 
-1.738289953665e-03 -5.310919005390e-05 0.0 
-5.310919005390e-05 1.085648887478e-02 0.0 
0.0 0.0 0.0 
-1.761595333543e-03 -5.203841010930e-05 0.0 
-5.203841010930e-05 1.085632752661e-02 0.0 
0.0 0.0 0.0 
-1.791077863210e-03 -4.672967224015e-05 0.0 
-4.672967224015e-05 1.085556067202e-02 0.0 
0.0 0.0 0.0 
-1.820491662455e-03 -3.336812314294e-05 0.0 
-3.336812314294e-05 1.085032428975e-02 0.0 
0.0 0.0 0.0 
-1.850718243978e-03 -9.435071719474e-06 0.0 
-9.435071719474e-06 1.084148455449e-02 0.0 
0.0 0.0 0.0 
-1.883769065423e-03 2.697366754556e-05 0.0 
2.697366754556e-05 1.082881033963e-02 0.0 
0.0 0.0 0.0 
-1.926309420361e-03 8.248085009721e-05 0.0 
8.248085009721e-05 1.081147131073e-02 0.0 
0.0 0.0 0.0 
-1.980471473070e-03 1.626049067603e-04 0.0 
1.626049067603e-04 1.078795122035e-02 0.0 
0.0 0.0 0.0 
-2.035988586162e-03 2.752954913913e-04 0.0 
2.752954913913e-04 1.074880938779e-02 0.0 
0.0 0.0 0.0 
-2.079253435318e-03 4.394565627971e-04 0.0 
4.394565627971e-04 1.069240389190e-02 0.0 
0.0 0.0 0.0 
-2.191261742306e-03 7.128178761386e-04 0.0 
7.128178761386e-04 1.063494016868e-02 0.0 
0.0 0.0 0.0 
-2.281919909573e-03 9.428552501702e-04 0.0 
9.428552501702e-04 1.053204985300e-02 0.0 
0.0 0.0 0.0 
-2.478712587683e-03 8.849316977943e-04 0.0 
8.849316977943e-04 1.106566591024e-02 0.0 
0.0 0.0 0.0 
-2.419157604426e-03 6.958326114257e-04 0.0 
6.958326114257e-04 1.118935921512e-02 0.0 
0.0 0.0 0.0 
-2.312189375943e-03 4.729492841097e-04 0.0 
4.729492841097e-04 1.124862117809e-02 0.0 
0.0 0.0 0.0 
-2.218669421340e-03 3.338842910480e-04 0.0 
3.338842910480e-04 1.128262769063e-02 0.0 
0.0 0.0 0.0 
-2.136153867842e-03 2.307307570905e-04 0.0 
2.307307570905e-04 1.130459725678e-02 0.0 
0.0 0.0 0.0 
-2.063573042075e-03 1.550928596605e-04 0.0 
1.550928596605e-04 1.131637902713e-02 0.0 
0.0 0.0 0.0 
-1.998614738443e-03 9.934849752954e-05 0.0 
9.934849752954e-05 1.132119524117e-02 0.0 
0.0 0.0 0.0 
-1.937120404975e-03 5.850772401534e-05 0.0 
5.850772401534e-05 1.132191859850e-02 0.0 
0.0 0.0 0.0 
-1.881716056661e-03 3.282048574380e-05 0.0 
3.282048574380e-05 1.131943845074e-02 0.0 
0.0 0.0 0.0 
-1.837423379708e-03 1.291526727017e-05 0.0 
1.291526727017e-05 1.131436237950e-02 0.0 
0.0 0.0 0.0 
-1.799430837018e-03 3.090448853673e-06 0.0 
3.090448853673e-06 1.131103871446e-02 0.0 
0.0 0.0 0.0 
-1.770412846573e-03 -4.459747889447e-06 0.0 
-4.459747889447e-06 1.130688282967e-02 0.0 
0.0 0.0 0.0 
-1.748016270672e-03 -6.341758603644e-06 0.0 
-6.341758603644e-06 1.130617754926e-02 0.0 
0.0 0.0 0.0 
-1.730692053413e-03 -7.107291181344e-06 0.0 
-7.107291181344e-06 1.130358907590e-02 0.0 
0.0 0.0 0.0 
-1.720445747352e-03 -1.067745919416e-05 0.0 
-1.067745919416e-05 1.130328817242e-02 0.0 
0.0 0.0 0.0 
-1.719276776772e-03 1.327080625975e-05 0.0 
1.327080625975e-05 1.130230010573e-02 0.0 
0.0 0.0 0.0 
-2.158423402869e-03 4.324929409585e-03 0.0 
4.324929409585e-03 -2.028329976429e-04 0.0 
0.0 0.0 0.0 
-1.747211074936e-03 3.498012568082e-03 0.0 
3.498012568082e-03 1.483222450607e-03 0.0 
0.0 0.0 0.0 
-1.572524386584e-03 3.517471804926e-03 0.0 
3.517471804926e-03 2.702174079346e-03 0.0 
0.0 0.0 0.0 
-1.570564683528e-03 3.448452919894e-03 0.0 
3.448452919894e-03 3.867928620045e-03 0.0 
0.0 0.0 0.0 
-1.637061091381e-03 3.382388098203e-03 0.0 
3.382388098203e-03 5.106818568800e-03 0.0 
0.0 0.0 0.0 
-1.729661609158e-03 3.252549084823e-03 0.0 
3.252549084823e-03 6.559085181326e-03 0.0 
0.0 0.0 0.0 
-2.330838563506e-03 3.103345653113e-03 0.0 
3.103345653113e-03 8.310980540190e-03 0.0 
0.0 0.0 0.0 
-2.735851821421e-03 1.800745420919e-03 0.0 
1.800745420919e-03 1.021143964809e-02 0.0 
0.0 0.0 0.0 
-2.613478011626e-03 1.434942546689e-03 0.0 
1.434942546689e-03 1.074612871727e-02 0.0 
0.0 0.0 0.0 
-2.675354265196e-03 1.231147514707e-03 0.0 
1.231147514707e-03 1.128449482823e-02 0.0 
0.0 0.0 0.0 
-1.291217063655e-03 3.692833160233e-03 0.0 
3.692833160233e-03 1.430091705913e-03 0.0 
0.0 0.0 0.0 
6.440190802967e-04 1.718004326356e-03 0.0 
1.718004326356e-03 4.222178487624e-03 0.0 
0.0 0.0 0.0 
-2.741577032208e-04 -4.174391097459e-04 0.0 
-4.174391097459e-04 3.746939373107e-04 0.0 
0.0 0.0 0.0 
-1.689704811215e-03 -1.894232915354e-03 0.0 
-1.894232915354e-03 -2.705352968377e-03 0.0 
0.0 0.0 0.0 
3.916125182561e-04 1.042305309158e-04 0.0 
1.042305309158e-04 4.327936490400e-03 0.0 
0.0 0.0 0.0 
-1.298619096978e-03 3.565894045934e-03 0.0 
3.565894045934e-03 3.967428985342e-03 0.0 
0.0 0.0 0.0 
-1.210003856165e-03 -2.504880163275e-04 0.0 
-2.504880163275e-04 3.648782982304e-03 0.0 
0.0 0.0 0.0 
5.857567151632e-04 3.224364903575e-03 0.0 
3.224364903575e-03 5.264883296086e-03 0.0 
0.0 0.0 0.0 
-1.666701521869e-03 3.428097699825e-03 0.0 
3.428097699825e-03 6.723426500295e-03 0.0 
0.0 0.0 0.0 
2.792401582684e-04 4.280330037707e-03 0.0 
4.280330037707e-03 7.274972627113e-03 0.0 
0.0 0.0 0.0 
-2.588220560172e-03 2.393846284871e-03 0.0 
2.393846284871e-03 9.903197971033e-03 0.0 
0.0 0.0 0.0 
8.322167439179e-05 -4.604728469690e-04 0.0 
-4.604728469690e-04 5.106828691091e-03 0.0 
0.0 0.0 0.0 
1.173060390698e-03 -2.999382698487e-04 0.0 
-2.999382698487e-04 -2.550378660960e-04 0.0 
0.0 0.0 0.0 
-9.476201065561e-05 4.492314790793e-03 0.0 
4.492314790793e-03 9.717152566526e-03 0.0 
0.0 0.0 0.0 
-2.757657128607e-03 1.570283216564e-03 0.0 
1.570283216564e-03 1.143733562158e-02 0.0 
0.0 0.0 0.0 
-9.097387121782e-04 -2.081184861459e-04 0.0 
-2.081184861459e-04 2.605062634750e-03 0.0 
0.0 0.0 0.0 
-9.732634638785e-04 -2.118137909893e-04 0.0 
-2.118137909893e-04 4.257235249918e-03 0.0 
0.0 0.0 0.0 
-3.416565054318e-04 4.077198719236e-03 0.0 
4.077198719236e-03 1.138077774473e-02 0.0 
0.0 0.0 0.0 
-4.300216418518e-04 3.100995447778e-03 0.0 
3.100995447778e-03 1.304337069301e-02 0.0 
0.0 0.0 0.0 
-3.265187391590e-04 9.550672549194e-04 0.0 
9.550672549194e-04 1.443075847403e-02 0.0 
0.0 0.0 0.0 
-4.177236118149e-04 1.585458651487e-03 0.0 
1.585458651487e-03 1.419067607219e-02 0.0 
0.0 0.0 0.0 
-4.187542653332e-04 2.315986042916e-03 0.0 
2.315986042916e-03 1.377416271354e-02 0.0 
0.0 0.0 0.0 
-2.542655198108e-03 9.797368573990e-04 0.0 
9.797368573990e-04 1.193412097805e-02 0.0 
0.0 0.0 0.0 
-2.131549449050e-03 3.750597503979e-04 0.0 
3.750597503979e-04 1.211798072190e-02 0.0 
0.0 0.0 0.0 
-1.907935848135e-03 1.897173195698e-04 0.0 
1.897173195698e-04 1.215293424137e-02 0.0 
0.0 0.0 0.0 
-1.390776939017e-03 6.790454159773e-05 0.0 
6.790454159773e-05 1.339946887415e-02 0.0 
0.0 0.0 0.0 
-8.320207421338e-05 -4.411255300441e-04 0.0 
-4.411255300441e-04 5.576323276291e-03 0.0 
0.0 0.0 0.0 
-1.819691588077e-03 1.073346614414e-03 0.0 
1.073346614414e-03 -3.644185149486e-03 0.0 
0.0 0.0 0.0 
1.880126789860e-03 -1.553935931530e-04 0.0 
-1.553935931530e-04 -5.348975433230e-04 0.0 
0.0 0.0 0.0 
-6.078972577537e-04 -1.259735058469e-04 0.0 
-1.259735058469e-04 5.118917836165e-03 0.0 
0.0 0.0 0.0 
-1.760293744911e-03 7.340948794398e-05 0.0 
7.340948794398e-05 1.208811794114e-02 0.0 
0.0 0.0 0.0 
4.162684243983e-04 -1.093478392522e-04 0.0 
-1.093478392522e-04 1.099228915733e-03 0.0 
0.0 0.0 0.0 
-4.681270157004e-04 3.571677724132e-03 0.0 
3.571677724132e-03 1.231559445232e-02 0.0 
0.0 0.0 0.0 
4.174583029945e-04 3.859913135454e-03 0.0 
3.859913135454e-03 6.244214264947e-03 0.0 
0.0 0.0 0.0 
8.503033822101e-05 4.504208746180e-03 0.0 
4.504208746180e-03 8.492107022449e-03 0.0 
0.0 0.0 0.0 
6.894199316365e-04 2.546452434434e-03 0.0 
2.546452434434e-03 4.603073927225e-03 0.0 
0.0 0.0 0.0 
5.437113561940e-04 9.814688693726e-04 0.0 
9.814688693726e-04 4.118737043595e-03 0.0 
0.0 0.0 0.0 
-1.324741698988e-03 -1.636546191277e-03 0.0 
-1.636546191277e-03 4.785066631215e-04 0.0 
0.0 0.0 0.0 
-2.328572390454e-03 6.009313566945e-04 0.0 
6.009313566945e-04 1.205807867993e-02 0.0 
0.0 0.0 0.0 
2.655175524602e-04 -2.829991905188e-04 0.0 
-2.829991905188e-04 4.587579723687e-03 0.0 
0.0 0.0 0.0 
-1.029740656722e-03 1.033920282792e-04 0.0 
1.033920282792e-04 1.395429026075e-02 0.0 
0.0 0.0 0.0 
4.104009502584e-04 -3.177727717036e-04 0.0 
-3.177727717036e-04 9.500931485312e-05 0.0 
0.0 0.0 0.0 
-1.206811074716e-03 -2.527382220962e-04 0.0 
-2.527382220962e-04 3.189043081697e-03 0.0 
0.0 0.0 0.0 
-2.622085534161e-04 5.956867567567e-04 0.0 
5.956867567567e-04 1.453335939850e-02 0.0 
0.0 0.0 0.0 
-1.358102399680e-03 3.555902869717e-03 0.0 
3.555902869717e-03 5.195432571088e-03 0.0 
0.0 0.0 0.0 
-1.222215833624e-03 3.670060213440e-03 0.0 
3.670060213440e-03 2.713902519974e-03 0.0 
0.0 0.0 0.0 
-2.319733796356e-03 3.175798506644e-03 0.0 
3.175798506644e-03 8.479379602379e-03 0.0 
0.0 0.0 0.0 
-2.717326298302e-03 1.876409961759e-03 0.0 
1.876409961759e-03 1.078686279005e-02 0.0 
0.0 0.0 0.0 
-1.667035867053e-03 4.135250115445e-03 0.0 
4.135250115445e-03 -1.846419108125e-04 0.0 
0.0 0.0 0.0 
-1.613351515695e-03 4.100833297461e-05 0.0 
4.100833297461e-05 1.275767624232e-02 0.0 
0.0 0.0 0.0 
-1.303001645566e-04 -2.851579798366e-04 0.0 
-2.851579798366e-04 5.857694271911e-03 0.0 
0.0 0.0 0.0 
2.150382318978e-03 -5.679771459587e-05 0.0 
-5.679771459587e-05 -6.736094303856e-04 0.0 
0.0 0.0 0.0 
-5.077958086419e-04 1.499520120515e-04 0.0 
1.499520120515e-04 1.440597518925e-02 0.0 
0.0 0.0 0.0 
-2.743980413869e-03 1.487704283239e-03 0.0 
1.487704283239e-03 1.170021452938e-02 0.0 
0.0 0.0 0.0 
-2.715437551775e-03 1.884171259559e-03 0.0 
1.884171259559e-03 1.158319902885e-02 0.0 
0.0 0.0 0.0 
-2.642536627888e-03 1.690116577380e-03 0.0 
1.690116577380e-03 1.190252134760e-02 0.0 
0.0 0.0 0.0 
-2.570767785603e-03 2.159011384713e-03 0.0 
2.159011384713e-03 1.167874615306e-02 0.0 
0.0 0.0 0.0 
-2.490145432953e-03 1.984575315245e-03 0.0 
1.984575315245e-03 1.202400400415e-02 0.0 
0.0 0.0 0.0 
-2.368088680145e-03 2.373309760541e-03 0.0 
2.373309760541e-03 1.176928463890e-02 0.0 
0.0 0.0 0.0 
-2.420273079580e-03 2.580537941753e-03 0.0 
2.580537941753e-03 1.136538523793e-02 0.0 
0.0 0.0 0.0 
-2.181982629784e-03 2.753179629408e-03 0.0 
2.753179629408e-03 1.143171177718e-02 0.0 
0.0 0.0 0.0 
-2.184271148621e-03 2.979468526253e-03 0.0 
2.979468526253e-03 1.094593217362e-02 0.0 
0.0 0.0 0.0 
-2.293933859711e-03 2.212029115245e-03 0.0 
2.212029115245e-03 1.213249399136e-02 0.0 
0.0 0.0 0.0 
-1.930347361444e-03 3.102395273156e-03 0.0 
3.102395273156e-03 1.101079069701e-02 0.0 
0.0 0.0 0.0 
-1.880343291529e-03 3.331437709195e-03 0.0 
3.331437709195e-03 1.044144542806e-02 0.0 
0.0 0.0 0.0 
-1.626103536232e-03 3.409006995753e-03 0.0 
3.409006995753e-03 1.051893135829e-02 0.0 
0.0 0.0 0.0 
-1.525789578559e-03 3.625746246487e-03 0.0 
3.625746246487e-03 9.873635367390e-03 0.0 
0.0 0.0 0.0 
-1.758514235901e-03 3.579261032002e-03 0.0 
3.579261032002e-03 9.789748496368e-03 0.0 
0.0 0.0 0.0 
-1.356162854286e-03 3.855927977587e-03 0.0 
3.855927977587e-03 9.146456522104e-03 0.0 
0.0 0.0 0.0 
-1.559332864600e-03 3.808894326733e-03 0.0 
3.808894326733e-03 9.049008403957e-03 0.0 
0.0 0.0 0.0 
-1.109214092918e-03 4.060032916049e-03 0.0 
4.060032916049e-03 8.332989195863e-03 0.0 
0.0 0.0 0.0 
-9.282989147445e-04 4.050699372355e-03 0.0 
4.050699372355e-03 8.478327623103e-03 0.0 
0.0 0.0 0.0 
-6.385050060029e-04 4.223086392034e-03 0.0 
4.223086392034e-03 7.602420895883e-03 0.0 
0.0 0.0 0.0 
-7.886842314122e-04 4.221027671384e-03 0.0 
4.221027671384e-03 7.438673342620e-03 0.0 
0.0 0.0 0.0 
-2.870197891900e-04 4.348653305205e-03 0.0 
4.348653305205e-03 6.658900400069e-03 0.0 
0.0 0.0 0.0 
-4.187283119641e-04 4.345451300680e-03 0.0 
4.345451300680e-03 6.484792211956e-03 0.0 
0.0 0.0 0.0 
1.099222400251e-04 4.422747851876e-03 0.0 
4.422747851876e-03 5.666845599946e-03 0.0 
0.0 0.0 0.0 
-6.409874153901e-06 4.421134165167e-03 0.0 
4.421134165167e-03 5.486342449629e-03 0.0 
0.0 0.0 0.0 
5.449889708632e-04 4.442507682633e-03 0.0 
4.442507682633e-03 4.643454206270e-03 0.0 
0.0 0.0 0.0 
6.293308674558e-04 4.419057961988e-03 0.0 
4.419057961988e-03 4.880652907459e-03 0.0 
0.0 0.0 0.0 
1.082485363040e-03 4.385367214346e-03 0.0 
4.385367214346e-03 3.840804064275e-03 0.0 
0.0 0.0 0.0 
1.010361439383e-03 4.402735412859e-03 0.0 
4.402735412859e-03 3.615973588838e-03 0.0 
0.0 0.0 0.0 
1.557306710318e-03 4.277999929081e-03 0.0 
4.277999929081e-03 2.813005438228e-03 0.0 
0.0 0.0 0.0 
1.480647019541e-03 4.292139017621e-03 0.0 
4.292139017621e-03 2.618456673076e-03 0.0 
0.0 0.0 0.0 
2.050629516248e-03 4.102843657193e-03 0.0 
4.102843657193e-03 1.818888747725e-03 0.0 
0.0 0.0 0.0 
2.066442378243e-03 4.081489290715e-03 0.0 
4.081489290715e-03 2.084082574427e-03 0.0 
0.0 0.0 0.0 
2.598569646570e-03 3.863570684369e-03 0.0 
3.863570684369e-03 1.078608717541e-03 0.0 
0.0 0.0 0.0 
2.612461611624e-03 3.923466764209e-03 0.0 
3.923466764209e-03 8.082345196351e-04 0.0 
0.0 0.0 0.0 
3.205488915435e-03 3.633922506597e-03 0.0 
3.633922506597e-03 3.995090997549e-05 0.0 
0.0 0.0 0.0 
3.210657690540e-03 3.730541746829e-03 0.0 
3.730541746829e-03 -1.966720300804e-04 0.0 
0.0 0.0 0.0 
3.796264343117e-03 3.326388710340e-03 0.0 
3.326388710340e-03 -9.126307979030e-04 0.0 
0.0 0.0 0.0 
3.774847462695e-03 3.413666856776e-03 0.0 
3.413666856776e-03 -1.066484552250e-03 0.0 
0.0 0.0 0.0 
4.308491695593e-03 2.889084612822e-03 0.0 
2.889084612822e-03 -1.694495400740e-03 0.0 
0.0 0.0 0.0 
4.243890720578e-03 2.821554633581e-03 0.0 
2.821554633581e-03 -1.487331676459e-03 0.0 
0.0 0.0 0.0 
4.665906468554e-03 2.287687240270e-03 0.0 
2.287687240270e-03 -2.165263397908e-03 0.0 
0.0 0.0 0.0 
4.693081610129e-03 2.345941994775e-03 0.0 
2.345941994775e-03 -2.352842987932e-03 0.0 
0.0 0.0 0.0 
4.937392040753e-03 1.658532744672e-03 0.0 
1.658532744672e-03 -2.683251091167e-03 0.0 
0.0 0.0 0.0 
4.832256109009e-03 1.656685996388e-03 0.0 
1.656685996388e-03 -2.456519397557e-03 0.0 
0.0 0.0 0.0 
4.973254634811e-03 9.832102154952e-04 0.0 
9.832102154952e-04 -2.828213732272e-03 0.0 
0.0 0.0 0.0 
4.804382931567e-03 1.033378480794e-03 0.0 
1.033378480794e-03 -2.548992526990e-03 0.0 
0.0 0.0 0.0 
4.805504328270e-03 3.520923927416e-04 0.0 
3.520923927416e-04 -2.790496341847e-03 0.0 
0.0 0.0 0.0 
4.927918314827e-03 2.561762468842e-04 0.0 
2.561762468842e-04 -3.041931975355e-03 0.0 
0.0 0.0 0.0 
4.620999800647e-03 -3.433211245231e-04 0.0 
-3.433211245231e-04 -2.849197147002e-03 0.0 
0.0 0.0 0.0 
4.432547303542e-03 -1.878888954732e-04 0.0 
-1.878888954732e-04 -2.504320299627e-03 0.0 
0.0 0.0 0.0 
4.128964966051e-03 -8.122547548659e-04 0.0 
-8.122547548659e-04 -2.432783003613e-03 0.0 
0.0 0.0 0.0 
4.275210816461e-03 -1.027924257250e-03 0.0 
-1.027924257250e-03 -2.750790340395e-03 0.0 
0.0 0.0 0.0 
3.691405912068e-03 -1.378234908599e-03 0.0 
-1.378234908599e-03 -2.198487804084e-03 0.0 
0.0 0.0 0.0 
3.525887944160e-03 -1.121019334155e-03 0.0 
-1.121019334155e-03 -1.826832798203e-03 0.0 
0.0 0.0 0.0 
3.089483349044e-03 -1.576716583524e-03 0.0 
-1.576716583524e-03 -1.554149069253e-03 0.0 
0.0 0.0 0.0 
3.169243239996e-03 -1.850418663851e-03 0.0 
-1.850418663851e-03 -1.848006975205e-03 0.0 
0.0 0.0 0.0 
2.626805579377e-03 -1.966455834985e-03 0.0 
-1.966455834985e-03 -1.208963049945e-03 0.0 
0.0 0.0 0.0 
2.620479471588e-03 -1.739063800815e-03 0.0 
-1.739063800815e-03 -1.017408797888e-03 0.0 
0.0 0.0 0.0 
2.192194653927e-03 -2.059590425103e-03 0.0 
-2.059590425103e-03 -6.867765412217e-04 0.0 
0.0 0.0 0.0 
2.153028755254e-03 -2.276452007901e-03 0.0 
-2.276452007901e-03 -8.193379123607e-04 0.0 
0.0 0.0 0.0 
1.736455663566e-03 -2.293712263031e-03 0.0 
-2.293712263031e-03 -2.987281328796e-04 0.0 
0.0 0.0 0.0 
1.738603649597e-03 -2.081794313397e-03 0.0 
-2.081794313397e-03 -1.173412909624e-04 0.0 
0.0 0.0 0.0 
1.301240997177e-03 -2.237978102661e-03 0.0 
-2.237978102661e-03 2.616732064739e-04 0.0 
0.0 0.0 0.0 
1.284543709867e-03 -2.035412883158e-03 0.0 
-2.035412883158e-03 5.000362261401e-04 0.0 
0.0 0.0 0.0 
1.267609514586e-03 -2.425427400054e-03 0.0 
-2.425427400054e-03 1.226776909356e-04 0.0 
0.0 0.0 0.0 
8.661041515508e-04 -2.303505114585e-03 0.0 
-2.303505114585e-03 6.580000380561e-04 0.0 
0.0 0.0 0.0 
8.117487939058e-04 -2.445120334501e-03 0.0 
-2.445120334501e-03 5.503656460628e-04 0.0 
0.0 0.0 0.0 
4.507479726064e-04 -2.272487276450e-03 0.0 
-2.272487276450e-03 1.048653401951e-03 0.0 
0.0 0.0 0.0 
2.531590712744e-03 3.835082002515e-03 0.0 
3.835082002515e-03 1.440102985319e-03 0.0 
0.0 0.0 0.0 
3.940341519934e-04 -2.351151307964e-03 0.0 
-2.351151307964e-03 9.516147879645e-04 0.0 
0.0 0.0 0.0 
7.115988816047e-04 -2.519774697859e-03 0.0 
-2.519774697859e-03 4.985320873419e-04 0.0 
0.0 0.0 0.0 
8.181979690837e-05 -2.149269621588e-03 0.0 
-2.149269621588e-03 1.402443045841e-03 0.0 
0.0 0.0 0.0 
1.128809136911e-04 -2.065807297958e-03 0.0 
-2.065807297958e-03 1.544427646655e-03 0.0 
0.0 0.0 0.0 
4.427527443207e-05 -2.161961109811e-03 0.0 
-2.161961109811e-03 1.293131695388e-03 0.0 
0.0 0.0 0.0 
-2.202118746819e-04 -1.950113148726e-03 0.0 
-1.950113148726e-03 1.695722254291e-03 0.0 
0.0 0.0 0.0 
-2.192199238635e-04 -1.902921618361e-03 0.0 
-1.902921618361e-03 1.558453234143e-03 0.0 
0.0 0.0 0.0 
3.104081668195e-03 3.820427891864e-03 0.0 
3.820427891864e-03 -3.025015072037e-04 0.0 
0.0 0.0 0.0 
-4.922293061453e-04 4.163583491503e-03 0.0 
4.163583491503e-03 7.807019111652e-03 0.0 
0.0 0.0 0.0 
-4.420845389248e-04 -1.691912927341e-03 0.0 
-1.691912927341e-03 1.914087829719e-03 0.0 
0.0 0.0 0.0 
-3.833105752975e-04 -1.594880391339e-03 0.0 
-1.594880391339e-03 1.730084908344e-03 0.0 
0.0 0.0 0.0 
-2.071183481479e-04 -1.779162511504e-03 0.0 
-1.779162511504e-03 1.425641774248e-03 0.0 
0.0 0.0 0.0 
-2.891580716510e-04 -1.424741049675e-03 0.0 
-1.424741049675e-03 1.524614136274e-03 0.0 
0.0 0.0 0.0 
-2.395504609909e-03 1.860477223923e-03 0.0 
1.860477223923e-03 1.231921212139e-02 0.0 
0.0 0.0 0.0 
-2.176701537863e-03 2.079168015181e-03 0.0 
2.079168015181e-03 1.246196170739e-02 0.0 
0.0 0.0 0.0 
-2.263286955217e-03 1.733227028905e-03 0.0 
1.733227028905e-03 1.260641264498e-02 0.0 
0.0 0.0 0.0 
-2.042094315843e-03 1.970564074151e-03 0.0 
1.970564074151e-03 1.276824315557e-02 0.0 
0.0 0.0 0.0 
-2.118205792456e-03 1.648417095976e-03 0.0 
1.648417095976e-03 1.287455139063e-02 0.0 
0.0 0.0 0.0 
-4.380899592581e-04 -1.265426937537e-03 0.0 
-1.265426937537e-03 1.798123217033e-03 0.0 
0.0 0.0 0.0 
-1.662461611550e-03 3.223964664515e-03 0.0 
3.223964664515e-03 1.109189316657e-02 0.0 
0.0 0.0 0.0 
-1.925093892133e-03 2.298238763164e-03 0.0 
2.298238763164e-03 1.259357177080e-02 0.0 
0.0 0.0 0.0 
-9.438354904447e-04 4.183214476511e-03 0.0 
4.183214476511e-03 7.320480482894e-03 0.0 
0.0 0.0 0.0 
8.989004497432e-04 4.403860413631e-03 0.0 
4.403860413631e-03 3.474494064483e-03 0.0 
0.0 0.0 0.0 
4.611524487878e-03 1.668957566087e-03 0.0 
1.668957566087e-03 -2.102859107407e-03 0.0 
0.0 0.0 0.0 
-4.691183840751e-04 -1.717492466534e-03 0.0 
-1.717492466534e-03 2.088368677227e-03 0.0 
0.0 0.0 0.0 
-6.536062397333e-04 -1.468105050482e-03 0.0 
-1.468105050482e-03 2.260730557017e-03 0.0 
0.0 0.0 0.0 
-6.880776107116e-04 -1.471117307261e-03 0.0 
-1.471117307261e-03 2.458595056724e-03 0.0 
0.0 0.0 0.0 
1.689387334530e-03 -1.866081814133e-03 0.0 
-1.866081814133e-03 1.767326759472e-04 0.0 
0.0 0.0 0.0 
1.247975699168e-03 -1.815949129690e-03 0.0 
-1.815949129690e-03 8.312629385767e-04 0.0 
0.0 0.0 0.0 
1.623214183053e-03 -1.628802860074e-03 0.0 
-1.628802860074e-03 5.743404850523e-04 0.0 
0.0 0.0 0.0 
1.210589733254e-03 -1.559529049664e-03 0.0 
-1.559529049664e-03 1.237730423128e-03 0.0 
0.0 0.0 0.0 
1.547388006528e-03 -1.336986701818e-03 0.0 
-1.336986701818e-03 1.059440480709e-03 0.0 
0.0 0.0 0.0 
1.155236567434e-03 -1.260444876181e-03 0.0 
-1.260444876181e-03 1.709210014595e-03 0.0 
0.0 0.0 0.0 
8.418408147776e-04 -1.439511145990e-03 0.0 
-1.439511145990e-03 1.869488648157e-03 0.0 
0.0 0.0 0.0 
8.007303382153e-04 -1.155452294234e-03 0.0 
-1.155452294234e-03 2.321605692834e-03 0.0 
0.0 0.0 0.0 
5.169024924303e-04 -1.290511830301e-03 0.0 
-1.290511830301e-03 2.458344343579e-03 0.0 
0.0 0.0 0.0 
1.431063627965e-03 -1.007690904931e-03 0.0 
-1.007690904931e-03 1.612338486529e-03 0.0 
0.0 0.0 0.0 
1.840713059370e-03 -1.028752021494e-03 0.0 
-1.028752021494e-03 9.643626785767e-04 0.0 
0.0 0.0 0.0 
4.909292317102e-04 -1.034266330904e-03 0.0 
-1.034266330904e-03 2.889546389865e-03 0.0 
0.0 0.0 0.0 
2.367142376099e-04 -1.127254395539e-03 0.0 
-1.127254395539e-03 3.000153511827e-03 0.0 
0.0 0.0 0.0 
2.284526788524e-04 -9.048252290509e-04 0.0 
-9.048252290509e-04 3.411270871428e-03 0.0 
0.0 0.0 0.0 
-2.186153219915e-06 -9.611042366620e-04 0.0 
-9.611042366620e-04 3.493699633819e-03 0.0 
0.0 0.0 0.0 
-3.488171033209e-05 -1.163608741837e-03 0.0 
-1.163608741837e-03 3.133414976251e-03 0.0 
0.0 0.0 0.0 
-2.419061614383e-04 -9.673770323565e-04 0.0 
-9.673770323565e-04 3.587568144419e-03 0.0 
0.0 0.0 0.0 
-2.966254869514e-04 -1.148952618903e-03 0.0 
-1.148952618903e-03 3.267373782156e-03 0.0 
0.0 0.0 0.0 
4.498976038498e-03 1.090507399937e-03 0.0 
1.090507399937e-03 -2.081166098633e-03 0.0 
0.0 0.0 0.0 
4.227985225927e-03 1.713807128032e-03 0.0 
1.713807128032e-03 -1.465214606930e-03 0.0 
0.0 0.0 0.0 
4.025707785912e-03 1.182167804906e-03 0.0 
1.182167804906e-03 -1.263796814521e-03 0.0 
0.0 0.0 0.0 
3.717304468714e-03 1.755957593486e-03 0.0 
1.755957593486e-03 -5.014547541671e-04 0.0 
0.0 0.0 0.0 
3.502813346075e-03 1.308385820252e-03 0.0 
1.308385820252e-03 -2.775590671945e-04 0.0 
0.0 0.0 0.0 
3.211258597822e-03 1.808386455673e-03 0.0 
1.808386455673e-03 4.368652907878e-04 0.0 
0.0 0.0 0.0 
3.022946193300e-03 1.441168673081e-03 0.0 
1.441168673081e-03 6.077629863592e-04 0.0 
0.0 0.0 0.0 
3.238545931234e-03 9.394280615525e-04 0.0 
9.394280615525e-04 7.446925231876e-06 0.0 
0.0 0.0 0.0 
-1.286692043122e-03 3.668052846024e-03 0.0 
3.668052846024e-03 9.973804697901e-03 0.0 
0.0 0.0 0.0 
4.944134814966e-03 1.688553973654e-03 0.0 
1.688553973654e-03 -2.925616968648e-03 0.0 
0.0 0.0 0.0 
4.604122080662e-03 2.415868827226e-03 0.0 
2.415868827226e-03 -2.529676968952e-03 0.0 
0.0 0.0 0.0 
4.832384342184e-03 1.719760524969e-03 0.0 
1.719760524969e-03 -3.129386592218e-03 0.0 
0.0 0.0 0.0 
4.403327594817e-03 2.503361206255e-03 0.0 
2.503361206255e-03 -2.649096966792e-03 0.0 
0.0 0.0 0.0 
4.592855686551e-03 1.802247971641e-03 0.0 
1.802247971641e-03 -3.279492002663e-03 0.0 
0.0 0.0 0.0 
4.076724417373e-03 2.663887724770e-03 0.0 
2.663887724770e-03 -2.717742417219e-03 0.0 
0.0 0.0 0.0 
4.232292699789e-03 1.932773620842e-03 0.0 
1.932773620842e-03 -3.434114112076e-03 0.0 
0.0 0.0 0.0 
4.584556740732e-03 9.354447909634e-04 0.0 
9.354447909634e-04 -3.772685464989e-03 0.0 
0.0 0.0 0.0 
4.153432289271e-03 9.866678487643e-04 0.0 
9.866678487643e-04 -4.003148538893e-03 0.0 
0.0 0.0 0.0 
4.356420379922e-03 -6.544959752535e-05 0.0 
-6.544959752535e-05 -4.050621180571e-03 0.0 
0.0 0.0 0.0 
3.824462630621e-03 -7.914939885435e-05 0.0 
-7.914939885435e-05 -4.283361060346e-03 0.0 
0.0 0.0 0.0 
3.966795471679e-03 -1.109436835418e-03 0.0 
-1.109436835418e-03 -4.045644521401e-03 0.0 
0.0 0.0 0.0 
1.124162764175e-03 4.336006416309e-03 0.0 
4.336006416309e-03 4.145105437366e-03 0.0 
0.0 0.0 0.0 
3.328279737855e-03 2.232491098060e-03 0.0 
2.232491098060e-03 3.560184356741e-04 0.0 
0.0 0.0 0.0 
2.858307578095e-03 2.239512024658e-03 0.0 
2.239512024658e-03 1.220884869554e-03 0.0 
0.0 0.0 0.0 
2.909122129508e-03 2.619890583131e-03 0.0 
2.619890583131e-03 1.230827848954e-03 0.0 
0.0 0.0 0.0 
-1.702580928418e-04 -1.564712008435e-03 0.0 
-1.564712008435e-03 1.276069018114e-03 0.0 
0.0 0.0 0.0 
-2.002898367653e-04 -7.991362381026e-04 0.0 
-7.991362381026e-04 3.938166576152e-03 0.0 
0.0 0.0 0.0 
1.645017513665e-03 -6.976209851934e-04 0.0 
-6.976209851934e-04 1.594623705537e-03 0.0 
0.0 0.0 0.0 
2.055550386177e-03 -6.531241606257e-04 0.0 
-6.531241606257e-04 9.709531407855e-04 0.0 
0.0 0.0 0.0 
2.774898123666e-03 1.120449531021e-03 0.0 
1.120449531021e-03 8.741736451711e-04 0.0 
0.0 0.0 0.0 
-2.505612020785e-04 -1.067676771800e-03 0.0 
-1.067676771800e-03 1.510672775422e-03 0.0 
0.0 0.0 0.0 
3.615652217515e-03 2.852975602404e-03 0.0 
2.852975602404e-03 -2.751586957987e-03 0.0 
0.0 0.0 0.0 
3.320631142988e-03 3.381702519127e-03 0.0 
3.381702519127e-03 -1.896401232286e-03 0.0 
0.0 0.0 0.0 
-1.883553489641e-03 1.877375345748e-03 0.0 
1.877375345748e-03 1.304309964834e-02 0.0 
0.0 0.0 0.0 
-1.954560449066e-03 1.577447320582e-03 0.0 
1.577447320582e-03 1.311939591345e-02 0.0 
0.0 0.0 0.0 
1.780791008004e-03 -3.490681526433e-04 0.0 
-3.490681526433e-04 1.667745436322e-03 0.0 
0.0 0.0 0.0 
-3.754502958217e-04 -9.352238595052e-04 0.0 
-9.352238595052e-04 1.762856307170e-03 0.0 
0.0 0.0 0.0 
7.207097134444e-04 -8.856985476223e-04 0.0 
-8.856985476223e-04 2.814658782524e-03 0.0 
0.0 0.0 0.0 
3.520127614575e-03 1.092516216876e-03 0.0 
1.092516216876e-03 -4.181352115170e-03 0.0 
0.0 0.0 0.0 
-4.052076376392e-04 -7.781844969554e-04 0.0 
-7.781844969554e-04 3.990438952232e-03 0.0 
0.0 0.0 0.0 
-3.468369538905e-04 -6.416166178027e-04 0.0 
-6.416166178027e-04 4.328043947837e-03 0.0 
0.0 0.0 0.0 
5.130238021241e-04 -1.544126321413e-03 0.0 
-1.544126321413e-03 2.071153482288e-03 0.0 
0.0 0.0 0.0 
2.476736862038e-03 2.608522828420e-03 0.0 
2.608522828420e-03 2.044205862800e-03 0.0 
0.0 0.0 0.0 
2.486584990393e-03 2.937974998527e-03 0.0 
2.937974998527e-03 2.114530399350e-03 0.0 
0.0 0.0 0.0 
4.309947492010e-03 -9.790168362164e-04 0.0 
-9.790168362164e-04 -3.789054909161e-03 0.0 
0.0 0.0 0.0 
3.798182496222e-03 -1.930881362218e-03 0.0 
-1.930881362218e-03 -3.504368028953e-03 0.0 
0.0 0.0 0.0 
3.468455368941e-03 -2.155537657446e-03 0.0 
-2.155537657446e-03 -3.664664214663e-03 0.0 
0.0 0.0 0.0 
3.062340295987e-03 -2.720151893037e-03 0.0 
-2.720151893037e-03 -2.891108526361e-03 0.0 
0.0 0.0 0.0 
3.408692373030e-03 -2.419859307858e-03 0.0 
-2.419859307858e-03 -2.869810255516e-03 0.0 
0.0 0.0 0.0 
2.622984478024e-03 -2.954525899420e-03 0.0 
-2.954525899420e-03 -2.209147300269e-03 0.0 
0.0 0.0 0.0 
2.165420837269e-03 -3.246345789300e-03 0.0 
-3.246345789300e-03 -2.055462692056e-03 0.0 
0.0 0.0 0.0 
1.764385131641e-03 -3.248344977818e-03 0.0 
-3.248344977818e-03 -1.350639205780e-03 0.0 
0.0 0.0 0.0 
2.176513121370e-03 -3.017028274373e-03 0.0 
-3.017028274373e-03 -1.559998730773e-03 0.0 
0.0 0.0 0.0 
1.362575842219e-03 -3.068485512398e-03 0.0 
-3.068485512398e-03 -7.742854826650e-04 0.0 
0.0 0.0 0.0 
8.038696645308e-04 -3.076876236323e-03 0.0 
-3.076876236323e-03 -4.369239444824e-04 0.0 
0.0 0.0 0.0 
6.053026828800e-04 -2.811497618746e-03 0.0 
-2.811497618746e-03 -3.154014420361e-05 0.0 
0.0 0.0 0.0 
-1.680802164448e-04 -6.487441436386e-04 0.0 
-6.487441436386e-04 4.312914181644e-03 0.0 
0.0 0.0 0.0 
3.154484021584e-03 -5.341868519472e-05 0.0 
-5.341868519472e-05 -4.507706392603e-03 0.0 
0.0 0.0 0.0 
-1.969248102997e-03 3.472350518409e-03 0.0 
3.472350518409e-03 9.729482748385e-03 0.0 
0.0 0.0 0.0 
1.402225444570e-03 -4.208509645392e-04 0.0 
-4.208509645392e-04 2.244024010612e-03 0.0 
0.0 0.0 0.0 
2.537782550963e-03 1.570612593921e-03 0.0 
1.570612593921e-03 1.459713861264e-03 0.0 
0.0 0.0 0.0 
-1.703657362371e-03 1.797104350222e-03 0.0 
1.797104350222e-03 1.329343636690e-02 0.0 
0.0 0.0 0.0 
-1.774999634021e-03 1.514290593332e-03 0.0 
1.514290593332e-03 1.334241983943e-02 0.0 
0.0 0.0 0.0 
-1.989067248651e-03 1.297153536239e-03 0.0 
1.297153536239e-03 1.313561571551e-02 0.0 
0.0 0.0 0.0 
-1.816844690944e-03 1.250702821052e-03 0.0 
1.250702821052e-03 1.334067819304e-02 0.0 
0.0 0.0 0.0 
-1.579226167760e-03 1.453146500853e-03 0.0 
1.453146500853e-03 1.354393080902e-02 0.0 
0.0 0.0 0.0 
-1.633022777712e-03 1.202862961428e-03 0.0 
1.202862961428e-03 1.353041730441e-02 0.0 
0.0 0.0 0.0 
-1.835862064162e-03 1.012305456751e-03 0.0 
1.012305456751e-03 1.329672947601e-02 0.0 
0.0 0.0 0.0 
-1.666724932124e-03 9.765225130369e-04 0.0 
9.765225130369e-04 1.348004605922e-02 0.0 
0.0 0.0 0.0 
-1.837524957309e-03 8.009732453386e-04 0.0 
8.009732453386e-04 1.321794988424e-02 0.0 
0.0 0.0 0.0 
-1.684709509783e-03 7.764457147180e-04 0.0 
7.764457147180e-04 1.339797922883e-02 0.0 
0.0 0.0 0.0 
-1.489795387164e-03 9.348760278013e-04 0.0 
9.348760278013e-04 1.365280522613e-02 0.0 
0.0 0.0 0.0 
-1.524218607048e-03 7.437333083543e-04 0.0 
7.437333083543e-04 1.356763605211e-02 0.0 
0.0 0.0 0.0 
-1.691596088984e-03 6.026738058667e-04 0.0 
6.026738058667e-04 1.328860518431e-02 0.0 
0.0 0.0 0.0 
-1.549168130793e-03 5.763092549501e-04 0.0 
5.763092549501e-04 1.346010287085e-02 0.0 
0.0 0.0 0.0 
-1.692490470634e-03 4.546497953353e-04 0.0 
4.546497953353e-04 1.315886383885e-02 0.0 
0.0 0.0 0.0 
-1.568445250464e-03 4.328883733815e-04 0.0 
4.328883733815e-04 1.333283746602e-02 0.0 
0.0 0.0 0.0 
-1.400693312657e-03 5.384171014010e-04 0.0 
5.384171014010e-04 1.362302520079e-02 0.0 
0.0 0.0 0.0 
-6.411221182077e-05 -7.574146028837e-04 0.0 
-7.574146028837e-04 1.384380660231e-03 0.0 
0.0 0.0 0.0 
2.927214085410e-03 6.314574586654e-04 0.0 
6.314574586654e-04 3.710987362115e-04 0.0 
0.0 0.0 0.0 
2.470721474503e-03 8.456879788639e-04 0.0 
8.456879788639e-04 1.222584215345e-03 0.0 
0.0 0.0 0.0 
-8.370247285792e-04 -1.235182654545e-03 0.0 
-1.235182654545e-03 2.578774439485e-03 0.0 
0.0 0.0 0.0 
-8.682277091165e-04 -1.215513116941e-03 0.0 
-1.215513116941e-03 2.799900852872e-03 0.0 
0.0 0.0 0.0 
-6.870237645399e-04 -1.423771992988e-03 0.0 
-1.423771992988e-03 2.670702770103e-03 0.0 
0.0 0.0 0.0 
-8.651613116017e-04 -1.161551528580e-03 0.0 
-1.161551528580e-03 3.028523943590e-03 0.0 
0.0 0.0 0.0 
-1.440483962718e-03 3.973834480032e-04 0.0 
3.973834480032e-04 1.349803543065e-02 0.0 
0.0 0.0 0.0 
-1.248118199549e-03 4.871682384145e-04 0.0 
4.871682384145e-04 1.377810432980e-02 0.0 
0.0 0.0 0.0 
2.745695590681e-03 3.590802719819e-03 0.0 
3.590802719819e-03 -1.788939610454e-03 0.0 
0.0 0.0 0.0 
2.374965179907e-03 3.869375659906e-03 0.0 
3.869375659906e-03 -8.768825482906e-04 0.0 
0.0 0.0 0.0 
-1.598702829252e-03 2.095978795292e-03 0.0 
2.095978795292e-03 1.318890417103e-02 0.0 
0.0 0.0 0.0 
-5.241547374916e-04 -5.969754415601e-04 0.0 
-5.969754415601e-04 4.339402817775e-03 0.0 
0.0 0.0 0.0 
-6.048646002957e-04 -7.150147821159e-04 0.0 
-7.150147821159e-04 4.037671407641e-03 0.0 
0.0 0.0 0.0 
1.345772922113e-03 4.298817002519e-03 0.0 
4.298817002519e-03 2.514017035961e-03 0.0 
0.0 0.0 0.0 
7.312749731540e-04 4.383669363389e-03 0.0 
4.383669363389e-03 3.415442595832e-03 0.0 
0.0 0.0 0.0 
1.142783154249e-03 4.290116380406e-03 0.0 
4.290116380406e-03 2.486502520494e-03 0.0 
0.0 0.0 0.0 
4.952540654072e-04 4.319596862513e-03 0.0 
4.319596862513e-03 3.424646876008e-03 0.0 
0.0 0.0 0.0 
1.131646661248e-04 4.363686287547e-03 0.0 
4.363686287547e-03 4.350751770660e-03 0.0 
0.0 0.0 0.0 
8.547003899013e-04 4.232496210070e-03 0.0 
4.232496210070e-03 2.512187545894e-03 0.0 
0.0 0.0 0.0 
2.279269588468e-03 -1.003783899086e-03 0.0 
-1.003783899086e-03 2.938278091268e-04 0.0 
0.0 0.0 0.0 
-1.305775318773e-03 8.839973276132e-04 0.0 
8.839973276132e-04 1.381251034438e-02 0.0 
0.0 0.0 0.0 
-6.463902794344e-05 -1.943958218541e-03 0.0 
-1.943958218541e-03 1.151113207988e-03 0.0 
0.0 0.0 0.0 
-1.118732155718e-04 -1.684163743412e-03 0.0 
-1.684163743412e-03 1.077223244669e-03 0.0 
0.0 0.0 0.0 
-4.455819768454e-04 -4.921871726375e-04 0.0 
-4.921871726375e-04 4.664075141509e-03 0.0 
0.0 0.0 0.0 
3.351727223345e-03 3.845189717997e-04 0.0 
3.845189717997e-04 -4.891793097389e-04 0.0 
0.0 0.0 0.0 
6.856323156601e-04 4.345134255070e-03 0.0 
4.345134255070e-03 5.188955660237e-03 0.0 
0.0 0.0 0.0 
1.122394362905e-03 4.215906567163e-03 0.0 
4.215906567163e-03 4.537370865662e-03 0.0 
0.0 0.0 0.0 
6.996347224389e-04 4.215434464460e-03 0.0 
4.215434464460e-03 5.565171241329e-03 0.0 
0.0 0.0 0.0 
1.067826293104e-03 4.075073940785e-03 0.0 
4.075073940785e-03 4.988038020534e-03 0.0 
0.0 0.0 0.0 
6.706596982043e-04 4.111334029125e-03 0.0 
4.111334029125e-03 5.981234024997e-03 0.0 
0.0 0.0 0.0 
9.623165147371e-04 3.989541290694e-03 0.0 
3.989541290694e-03 5.470403340370e-03 0.0 
0.0 0.0 0.0 
1.365661333043e-03 3.889836225289e-03 0.0 
3.889836225289e-03 4.500173243818e-03 0.0 
0.0 0.0 0.0 
2.089398288478e-03 2.933674544537e-03 0.0 
2.933674544537e-03 2.887442473622e-03 0.0 
0.0 0.0 0.0 
1.181644710367e-03 3.834996613870e-03 0.0 
3.834996613870e-03 5.055666988753e-03 0.0 
0.0 0.0 0.0 
-1.588032889446e-03 3.157233302685e-04 0.0 
3.157233302685e-04 1.318646214230e-02 0.0 
0.0 0.0 0.0 
3.342276504223e-03 2.698507005043e-03 0.0 
2.698507005043e-03 3.701643424261e-04 0.0 
0.0 0.0 0.0 
1.719534450543e-03 -2.904335962010e-03 0.0 
-2.904335962010e-03 -9.616517537627e-04 0.0 
0.0 0.0 0.0 
1.501960698846e-05 -8.259663963148e-04 0.0 
-8.259663963148e-04 1.170623389832e-03 0.0 
0.0 0.0 0.0 
1.338651833874e-04 -2.585396193343e-03 0.0 
-2.585396193343e-03 3.029282352250e-04 0.0 
0.0 0.0 0.0 
-2.005421163220e-04 -6.376991238883e-04 0.0 
-6.376991238883e-04 1.614455930040e-03 0.0 
0.0 0.0 0.0 
-5.338893064893e-04 -7.900279045593e-04 0.0 
-7.900279045593e-04 2.022665763636e-03 0.0 
0.0 0.0 0.0 
1.461314979558e-03 -1.026106086935e-04 0.0 
-1.026106086935e-04 2.376314808487e-03 0.0 
0.0 0.0 0.0 
5.976014799222e-04 4.073527534970e-03 0.0 
4.073527534970e-03 6.432023629351e-03 0.0 
0.0 0.0 0.0 
3.211395510719e-04 4.130502702867e-03 0.0 
4.130502702867e-03 6.931529715070e-03 0.0 
0.0 0.0 0.0 
-1.289537380753e-04 4.254113076498e-03 0.0 
4.254113076498e-03 4.383082531192e-03 0.0 
0.0 0.0 0.0 
-4.944917396032e-04 4.233312229183e-03 0.0 
4.233312229183e-03 5.307342687703e-03 0.0 
0.0 0.0 0.0 
2.029394505549e-03 2.644204977309e-03 0.0 
2.644204977309e-03 2.839755319098e-03 0.0 
0.0 0.0 0.0 
-2.295138475358e-03 1.416132427624e-03 0.0 
1.416132427624e-03 1.267818896560e-02 0.0 
0.0 0.0 0.0 
-1.983023459624e-03 8.192499380566e-04 0.0 
8.192499380566e-04 1.302861807749e-02 0.0 
0.0 0.0 0.0 
-1.949973493157e-03 6.265872834620e-04 0.0 
6.265872834620e-04 1.291819112167e-02 0.0 
0.0 0.0 0.0 
2.809711544738e-04 -4.811248744847e-04 0.0 
-4.811248744847e-04 1.076182715661e-03 0.0 
0.0 0.0 0.0 
1.791780717590e-04 -2.918320084662e-03 0.0 
-2.918320084662e-03 3.594593935426e-05 0.0 
0.0 0.0 0.0 
-1.373984790853e-03 1.387822222882e-03 0.0 
1.387822222882e-03 1.372924388104e-02 0.0 
0.0 0.0 0.0 
2.932346273999e-03 3.723717209523e-03 0.0 
3.723717209523e-03 -1.053668353661e-03 0.0 
0.0 0.0 0.0 
1.999907366803e-03 4.026853128118e-03 0.0 
4.026853128118e-03 -4.600289813739e-05 0.0 
0.0 0.0 0.0 
2.654025454089e-03 1.279135206431e-03 0.0 
1.279135206431e-03 -4.303939815224e-03 0.0 
0.0 0.0 0.0 
2.317309936905e-03 7.024896209432e-06 0.0 
7.024896209432e-06 -4.651129794485e-03 0.0 
0.0 0.0 0.0 
-1.307969472756e-03 3.513106017600e-04 0.0 
3.513106017600e-04 1.365610351981e-02 0.0 
0.0 0.0 0.0 
-1.099282219115e-03 4.203356701312e-04 0.0 
4.203356701312e-04 1.392212518503e-02 0.0 
0.0 0.0 0.0 
-6.606426214115e-04 -1.338640496567e-03 0.0 
-1.338640496567e-03 2.894891960051e-03 0.0 
0.0 0.0 0.0 
-8.256442529008e-04 -1.075262647326e-03 0.0 
-1.075262647326e-03 3.259099286908e-03 0.0 
0.0 0.0 0.0 
1.827784900948e-03 2.515807854800e-05 0.0 
2.515807854800e-05 1.846642393704e-03 0.0 
0.0 0.0 0.0 
1.079293385029e-04 -2.387671213218e-03 0.0 
-2.387671213218e-03 5.136791887686e-04 0.0 
0.0 0.0 0.0 
-1.015630143456e-03 5.740505133003e-04 0.0 
5.740505133003e-04 1.402417105846e-02 0.0 
0.0 0.0 0.0 
2.978244524287e-03 1.102094872917e-04 0.0 
1.102094872917e-04 -1.598175669865e-05 0.0 
0.0 0.0 0.0 
3.338978255447e-03 -1.963215232777e-04 0.0 
-1.963215232777e-04 -8.456020247613e-04 0.0 
0.0 0.0 0.0 
-1.031319297279e-03 -9.377353842739e-04 0.0 
-9.377353842739e-04 3.126505676683e-03 0.0 
0.0 0.0 0.0 
1.616737076440e-03 3.988096659599e-03 0.0 
3.988096659599e-03 -5.974399428182e-04 0.0 
0.0 0.0 0.0 
1.910375955308e-03 3.793486116925e-03 0.0 
3.793486116925e-03 -1.565429886215e-03 0.0 
0.0 0.0 0.0 
2.438222662970e-03 -2.744452272191e-03 0.0 
-2.744452272191e-03 -1.647114690280e-03 0.0 
0.0 0.0 0.0 
4.567197113139e-04 -2.608102822487e-03 0.0 
-2.608102822487e-03 3.055193867031e-04 0.0 
0.0 0.0 0.0 
-3.591813823483e-04 -5.196344123628e-04 0.0 
-5.196344123628e-04 1.862556472277e-03 0.0 
0.0 0.0 0.0 
1.437559863835e-03 2.421674333291e-04 0.0 
2.421674333291e-04 2.599465796232e-03 0.0 
0.0 0.0 0.0 
-1.286179840481e-03 1.644144143349e-03 0.0 
1.644144143349e-03 1.371294815261e-02 0.0 
0.0 0.0 0.0 
1.573510322209e-03 3.670835658099e-03 0.0 
3.670835658099e-03 4.118050396457e-03 0.0 
0.0 0.0 0.0 
1.794709677831e-03 3.764730602554e-03 0.0 
3.764730602554e-03 3.511120593734e-03 0.0 
0.0 0.0 0.0 
1.311163264343e-03 3.648831529708e-03 0.0 
3.648831529708e-03 4.731604229138e-03 0.0 
0.0 0.0 0.0 
-2.366140836324e-04 -2.027032542000e-03 0.0 
-2.027032542000e-03 7.170344442845e-04 0.0 
0.0 0.0 0.0 
1.108659383092e-03 -2.083877726364e-04 0.0 
-2.083877726364e-04 2.924134689009e-03 0.0 
0.0 0.0 0.0 
-6.015635067650e-04 -4.276582170762e-04 0.0 
-4.276582170762e-04 4.637317524815e-03 0.0 
0.0 0.0 0.0 
2.783335608096e-04 4.146697705599e-03 0.0 
4.146697705599e-03 7.339998971610e-03 0.0 
0.0 0.0 0.0 
2.815729488912e-05 4.138141674528e-03 0.0 
4.138141674528e-03 7.826010286821e-03 0.0 
0.0 0.0 0.0 
2.517892202961e-03 3.947223601028e-03 0.0 
3.947223601028e-03 -2.354706861617e-04 0.0 
0.0 0.0 0.0 
1.612078260293e-03 4.115576365047e-03 0.0 
4.115576365047e-03 7.617111246148e-04 0.0 
0.0 0.0 0.0 
1.029738697583e-03 4.108261311757e-03 0.0 
4.108261311757e-03 1.019665068051e-03 0.0 
0.0 0.0 0.0 
7.488429745785e-04 4.124369239390e-03 0.0 
4.124369239390e-03 1.802986762173e-03 0.0 
0.0 0.0 0.0 
-2.406375348150e-03 2.812145147229e-03 0.0 
2.812145147229e-03 1.089930267529e-02 0.0 
0.0 0.0 0.0 
2.048002309302e-03 4.097420082758e-03 0.0 
4.097420082758e-03 6.123194830960e-04 0.0 
0.0 0.0 0.0 
-1.740601664667e-03 3.708660289159e-03 0.0 
3.708660289159e-03 8.986946674653e-03 0.0 
0.0 0.0 0.0 
-2.147167031693e-03 3.315896665145e-03 0.0 
3.315896665145e-03 9.698273880630e-03 0.0 
0.0 0.0 0.0 
-1.912142116977e-03 3.576151493862e-03 0.0 
3.576151493862e-03 8.957247559171e-03 0.0 
0.0 0.0 0.0 
-2.982694009115e-04 4.334076170633e-03 0.0 
4.334076170633e-03 5.306472244052e-03 0.0 
0.0 0.0 0.0 
-8.816671157309e-04 4.145585989213e-03 0.0 
4.145585989213e-03 6.255665581000e-03 0.0 
0.0 0.0 0.0 
4.056987490338e-03 3.066380939800e-03 0.0 
3.066380939800e-03 -1.922749362821e-03 0.0 
0.0 0.0 0.0 
4.239112858495e-03 2.257440538127e-03 0.0 
2.257440538127e-03 -1.403070821343e-03 0.0 
0.0 0.0 0.0 
-4.473550209026e-04 -1.593498994001e-03 0.0 
-1.593498994001e-03 2.482079091996e-03 0.0 
0.0 0.0 0.0 
-7.806089121050e-05 -1.370030198107e-03 0.0 
-1.370030198107e-03 2.805251735784e-03 0.0 
0.0 0.0 0.0 
2.077322511302e-03 -1.623330374807e-03 0.0 
-1.623330374807e-03 -9.698612874326e-05 0.0 
0.0 0.0 0.0 
-1.241739286874e-03 1.089869842071e-03 0.0 
1.089869842071e-03 1.387234526066e-02 0.0 
0.0 0.0 0.0 
-1.036962817962e-03 1.019151424810e-03 0.0 
1.019151424810e-03 1.402422046193e-02 0.0 
0.0 0.0 0.0 
-1.810287052500e-03 4.650302956740e-04 0.0 
4.650302956740e-04 1.297553574958e-02 0.0 
0.0 0.0 0.0 
-1.790178398194e-03 3.345312930502e-04 0.0 
3.345312930502e-04 1.282409886637e-02 0.0 
0.0 0.0 0.0 
-1.115229185925e-04 -1.262083590684e-03 0.0 
-1.262083590684e-03 1.096950495103e-03 0.0 
0.0 0.0 0.0 
-1.365926893660e-04 -1.336460438894e-03 0.0 
-1.336460438894e-03 9.726383545315e-04 0.0 
0.0 0.0 0.0 
8.668921093878e-04 -1.928672451346e-03 0.0 
-1.928672451346e-03 1.125507439935e-03 0.0 
0.0 0.0 0.0 
1.048380372313e-03 -4.657606957170e-04 0.0 
-4.657606957170e-04 2.806136613238e-03 0.0 
0.0 0.0 0.0 
-1.396556760387e-03 2.003475597573e-03 0.0 
2.003475597573e-03 1.343880311222e-02 0.0 
0.0 0.0 0.0 
-1.261382502215e-03 2.307891908716e-03 0.0 
2.307891908716e-03 1.330949009214e-02 0.0 
0.0 0.0 0.0 
-1.461947942241e-03 2.406197601902e-03 0.0 
2.406197601902e-03 1.303123908326e-02 0.0 
0.0 0.0 0.0 
1.789718902097e-03 4.180356897348e-04 0.0 
4.180356897348e-04 2.110683460894e-03 0.0 
0.0 0.0 0.0 
5.022350250459e-03 9.176932210181e-04 0.0 
9.176932210181e-04 -3.359866330342e-03 0.0 
0.0 0.0 0.0 
4.175766197387e-03 5.617502840068e-04 0.0 
5.617502840068e-04 -1.788277036677e-03 0.0 
0.0 0.0 0.0 
2.733277527037e-03 -1.341671644636e-03 0.0 
-1.341671644636e-03 -4.536221674873e-03 0.0 
0.0 0.0 0.0 
2.041491438908e-03 4.040805301070e-03 0.0 
4.040805301070e-03 2.448544071592e-03 0.0 
0.0 0.0 0.0 
2.794481461366e-05 -9.508261637146e-04 0.0 
-9.508261637146e-04 8.484959436885e-04 0.0 
0.0 0.0 0.0 
-7.471715864135e-04 4.011983938333e-03 0.0 
4.011983938333e-03 8.653784866910e-03 0.0 
0.0 0.0 0.0 
-5.034751653099e-04 -3.526994735708e-04 0.0 
-3.526994735708e-04 4.953760481167e-03 0.0 
0.0 0.0 0.0 
-3.695036772836e-04 -4.121974236689e-04 0.0 
-4.121974236689e-04 5.002501821368e-03 0.0 
0.0 0.0 0.0 
1.660091237583e-03 2.971874133508e-03 0.0 
2.971874133508e-03 3.641729883855e-03 0.0 
0.0 0.0 0.0 
-2.718660816856e-03 2.064562925547e-03 0.0 
2.064562925547e-03 1.121333962553e-02 0.0 
0.0 0.0 0.0 
2.423249336798e-03 3.760753717250e-03 0.0 
3.760753717250e-03 1.925693170975e-03 0.0 
0.0 0.0 0.0 
2.932411948769e-03 3.527230517787e-03 0.0 
3.527230517787e-03 9.039775406955e-04 0.0 
0.0 0.0 0.0 
-2.303511887596e-03 3.115771315768e-03 0.0 
3.115771315768e-03 9.688740004358e-03 0.0 
0.0 0.0 0.0 
-2.069319514009e-03 3.398251664181e-03 0.0 
3.398251664181e-03 8.967994244504e-03 0.0 
0.0 0.0 0.0 
-1.611968401078e-03 3.808830839933e-03 0.0 
3.808830839933e-03 8.124550849459e-03 0.0 
0.0 0.0 0.0 
-1.774462371089e-03 3.656420966400e-03 0.0 
3.656420966400e-03 8.120102153532e-03 0.0 
0.0 0.0 0.0 
1.941693160567e-03 -2.676701853008e-03 0.0 
-2.676701853008e-03 -9.989274431258e-04 0.0 
0.0 0.0 0.0 
1.332660285931e-03 -2.751590174486e-03 0.0 
-2.751590174486e-03 -4.070334756379e-04 0.0 
0.0 0.0 0.0 
4.712367037240e-04 4.134783801029e-03 0.0 
4.134783801029e-03 6.958666930446e-03 0.0 
0.0 0.0 0.0 
9.594253121697e-04 3.875059638664e-03 0.0 
3.875059638664e-03 5.622645369940e-03 0.0 
0.0 0.0 0.0 
5.108385165834e-05 4.213803300469e-03 0.0 
4.213803300469e-03 8.184048797374e-03 0.0 
0.0 0.0 0.0 
-1.865480880284e-04 4.150398676758e-03 0.0 
4.150398676758e-03 8.674116214518e-03 0.0 
0.0 0.0 0.0 
1.555407908140e-03 2.712590592678e-03 0.0 
2.712590592678e-03 3.623422351515e-03 0.0 
0.0 0.0 0.0 
1.913792847649e-03 2.357056542434e-03 0.0 
2.357056542434e-03 2.867474033793e-03 0.0 
0.0 0.0 0.0 
-6.870792798953e-04 -6.208425333369e-04 0.0 
-6.208425333369e-04 2.267269678994e-03 0.0 
0.0 0.0 0.0 
-1.084131693005e-03 4.000785452085e-03 0.0 
4.000785452085e-03 6.271922409852e-03 0.0 
0.0 0.0 0.0 
-1.062212425916e-03 1.562428122051e-03 0.0 
1.562428122051e-03 1.389708151397e-02 0.0 
0.0 0.0 0.0 
-2.468416870537e-03 2.830699109719e-03 0.0 
2.830699109719e-03 1.031355942913e-02 0.0 
0.0 0.0 0.0 
7.809109637131e-04 -2.960152405267e-04 0.0 
-2.960152405267e-04 3.440803747299e-03 0.0 
0.0 0.0 0.0 
7.326835751180e-04 -4.916782697281e-04 0.0 
-4.916782697281e-04 3.355749801382e-03 0.0 
0.0 0.0 0.0 
1.649065142743e-03 -1.187767000664e-03 0.0 
-1.187767000664e-03 -4.556662293519e-03 0.0 
0.0 0.0 0.0 
1.938554626019e-03 -2.753063424192e-03 0.0 
-2.753063424192e-03 -3.822167190496e-03 0.0 
0.0 0.0 0.0 
-8.495837187640e-04 4.865581906939e-04 0.0 
4.865581906939e-04 1.415993617607e-02 0.0 
0.0 0.0 0.0 
1.607521193561e-04 4.026259444253e-03 0.0 
4.026259444253e-03 2.080532180938e-03 0.0 
0.0 0.0 0.0 
-1.469453507918e-05 4.013620112884e-03 0.0 
4.013620112884e-03 2.828132683661e-03 0.0 
0.0 0.0 0.0 
3.475953384059e-04 4.035753190667e-03 0.0 
4.035753190667e-03 1.341834362912e-03 0.0 
0.0 0.0 0.0 
-3.071100101518e-04 -9.790067479725e-05 0.0 
-9.790067479725e-05 5.716579711747e-03 0.0 
0.0 0.0 0.0 
-1.716326626462e-03 2.727640220415e-05 0.0 
2.727640220415e-05 1.206483534680e-02 0.0 
0.0 0.0 0.0 
-3.940651670693e-04 -3.014063997249e-04 0.0 
-3.014063997249e-04 5.275602334076e-03 0.0 
0.0 0.0 0.0 
-7.148369076677e-04 4.247670430390e-03 0.0 
4.247670430390e-03 6.287497652286e-03 0.0 
0.0 0.0 0.0 
-7.412096907809e-04 6.585087899937e-04 0.0 
6.585087899937e-04 1.424603236024e-02 0.0 
0.0 0.0 0.0 
2.707821660905e-03 3.410274516748e-03 0.0 
3.410274516748e-03 1.552176402726e-03 0.0 
0.0 0.0 0.0 
1.821402307643e-03 4.180508789621e-03 0.0 
4.180508789621e-03 1.555240946732e-03 0.0 
0.0 0.0 0.0 
2.200647492754e-03 1.868076638090e-04 0.0 
1.868076638090e-04 1.322587178058e-03 0.0 
0.0 0.0 0.0 
-9.661062575235e-04 3.165560071617e-04 0.0 
3.165560071617e-04 1.404543361907e-02 0.0 
0.0 0.0 0.0 
-6.760050329839e-04 3.830896778150e-04 0.0 
3.830896778150e-04 1.429255831290e-02 0.0 
0.0 0.0 0.0 
-2.068182844185e-03 6.329972582508e-04 0.0 
6.329972582508e-04 1.272096898777e-02 0.0 
0.0 0.0 0.0 
-2.019183800573e-03 4.563489235312e-04 0.0 
4.563489235312e-04 1.257371063190e-02 0.0 
0.0 0.0 0.0 
-2.118239761183e-03 8.333157003299e-04 0.0 
8.333157003299e-04 1.281977873202e-02 0.0 
0.0 0.0 0.0 
3.084422346058e-03 2.346142231195e-03 0.0 
2.346142231195e-03 -3.679954688653e-03 0.0 
0.0 0.0 0.0 
1.898753556734e-03 2.739134474067e-03 0.0 
2.739134474067e-03 -3.485572783432e-03 0.0 
0.0 0.0 0.0 
-1.117854845425e-03 8.190233276247e-04 0.0 
8.190233276247e-04 1.396380529972e-02 0.0 
0.0 0.0 0.0 
-7.590603609284e-04 -1.185441061153e-03 0.0 
-1.185441061153e-03 2.357695042256e-03 0.0 
0.0 0.0 0.0 
-9.401389003332e-04 -9.479355000944e-04 0.0 
-9.479355000944e-04 2.684671051350e-03 0.0 
0.0 0.0 0.0 
8.147691217629e-05 -2.240507738373e-03 0.0 
-2.240507738373e-03 7.213720901117e-04 0.0 
0.0 0.0 0.0 
3.304839929206e-04 -2.448046097246e-03 0.0 
-2.448046097246e-03 6.065421474729e-04 0.0 
0.0 0.0 0.0 
-4.096420674375e-04 -1.472692109057e-03 0.0 
-1.472692109057e-03 2.718203063767e-03 0.0 
0.0 0.0 0.0 
-1.611843115233e-04 -1.712889269582e-03 0.0 
-1.712889269582e-03 2.251845617757e-03 0.0 
0.0 0.0 0.0 
-3.619182653946e-04 4.104359151869e-03 0.0 
4.104359151869e-03 8.049624552682e-03 0.0 
0.0 0.0 0.0 
-5.914219374271e-04 4.007325842870e-03 0.0 
4.007325842870e-03 8.873930658809e-03 0.0 
0.0 0.0 0.0 
2.823398657687e-04 4.295882328491e-03 0.0 
4.295882328491e-03 6.202114485212e-03 0.0 
0.0 0.0 0.0 
2.914664358708e-03 -4.263208501868e-04 0.0 
-4.263208501868e-04 -2.759671929273e-04 0.0 
0.0 0.0 0.0 
3.173157277316e-03 -7.260837352214e-04 0.0 
-7.260837352214e-04 -9.878763076978e-04 0.0 
0.0 0.0 0.0 
3.630935754261e-03 -4.270135262600e-04 0.0 
-4.270135262600e-04 -1.511369818671e-03 0.0 
0.0 0.0 0.0 
-9.405588930107e-04 1.231930864546e-03 0.0 
1.231930864546e-03 1.404966050660e-02 0.0 
0.0 0.0 0.0 
-6.922566450482e-04 1.151338886343e-03 0.0 
1.151338886343e-03 1.420620563812e-02 0.0 
0.0 0.0 0.0 
2.573187617115e-03 -2.462939572276e-03 0.0 
-2.462939572276e-03 -1.582817397203e-03 0.0 
0.0 0.0 0.0 
3.124037620210e-03 -2.374736748484e-03 0.0 
-2.374736748484e-03 -2.238939690261e-03 0.0 
0.0 0.0 0.0 
1.533667437897e-03 -2.617694051763e-03 0.0 
-2.617694051763e-03 -4.337572642512e-04 0.0 
0.0 0.0 0.0 
-9.430374582777e-04 1.827992950079e-03 0.0 
1.827992950079e-03 1.385406228226e-02 0.0 
0.0 0.0 0.0 
-2.787006481959e-04 -3.685669876349e-04 0.0 
-3.685669876349e-04 5.338598062087e-03 0.0 
0.0 0.0 0.0 
-2.364241720238e-04 -4.537320848315e-04 0.0 
-4.537320848315e-04 5.045187390379e-03 0.0 
0.0 0.0 0.0 
-4.798302117108e-05 -9.646548341868e-04 0.0 
-9.646548341868e-04 7.541967941036e-04 0.0 
0.0 0.0 0.0 
-1.899867259045e-04 -1.392595266299e-03 0.0 
-1.392595266299e-03 8.842598657389e-04 0.0 
0.0 0.0 0.0 
7.627786724643e-04 4.070706901047e-03 0.0 
4.070706901047e-03 -2.137018016997e-04 0.0 
0.0 0.0 0.0 
9.982461653993e-04 3.992945667356e-03 0.0 
3.992945667356e-03 -1.211995005556e-03 0.0 
0.0 0.0 0.0 
-1.091317034977e-03 2.614660777993e-03 0.0 
2.614660777993e-03 1.311828353211e-02 0.0 
0.0 0.0 0.0 
-1.294666562388e-03 2.728898200901e-03 0.0 
2.728898200901e-03 1.281425547307e-02 0.0 
0.0 0.0 0.0 
-8.479238941778e-04 2.530170792040e-03 0.0 
2.530170792040e-03 1.339572405615e-02 0.0 
0.0 0.0 0.0 
-4.781097581875e-04 -3.582231632660e-04 0.0 
-3.582231632660e-04 2.060346496436e-03 0.0 
0.0 0.0 0.0 
1.989238242363e-03 3.492870912407e-03 0.0 
3.492870912407e-03 3.192626763543e-03 0.0 
0.0 0.0 0.0 
1.336738009217e-03 6.091033469018e-04 0.0 
6.091033469018e-04 2.885292966242e-03 0.0 
0.0 0.0 0.0 
1.691103253612e-03 8.243990064740e-04 0.0 
8.243990064740e-04 2.467185764091e-03 0.0 
0.0 0.0 0.0 
9.574818964686e-04 4.140075076062e-04 0.0 
4.140075076062e-04 3.457350323507e-03 0.0 
0.0 0.0 0.0 
1.709398378452e-03 3.215912092251e-03 0.0 
3.215912092251e-03 3.718496175396e-03 0.0 
0.0 0.0 0.0 
1.279661131999e-03 3.256817166941e-03 0.0 
3.256817166941e-03 4.424573910848e-03 0.0 
0.0 0.0 0.0 
9.733955300548e-04 3.705582169441e-03 0.0 
3.705582169441e-03 5.379519176012e-03 0.0 
0.0 0.0 0.0 
9.925722713429e-04 1.027056973589e-04 0.0 
1.027056973589e-04 -4.593374596700e-03 0.0 
0.0 0.0 0.0 
-7.476989142698e-04 2.396742938149e-04 0.0 
2.396742938149e-04 1.422923618193e-02 0.0 
0.0 0.0 0.0 
-1.881450060496e-03 3.254354767656e-04 0.0 
3.254354767656e-04 1.261038287920e-02 0.0 
0.0 0.0 0.0 
2.589735683787e-05 -6.208127504266e-04 0.0 
-6.208127504266e-04 -4.306316264047e-03 0.0 
0.0 0.0 0.0 
-1.838434467833e-03 2.243569467868e-04 0.0 
2.243569467868e-04 1.244054827542e-02 0.0 
0.0 0.0 0.0 
-1.769523695836e-03 2.328767504699e-04 0.0 
2.328767504699e-04 1.265357514656e-02 0.0 
0.0 0.0 0.0 
-1.810510544418e-03 1.432082883000e-04 0.0 
1.432082883000e-04 1.223747715552e-02 0.0 
0.0 0.0 0.0 
-4.822087387664e-05 -2.965596103664e-04 0.0 
-2.965596103664e-04 1.573203270007e-03 0.0 
0.0 0.0 0.0 
-2.186270744556e-03 6.079021781242e-04 0.0 
6.079021781242e-04 1.245906418737e-02 0.0 
0.0 0.0 0.0 
-2.252379746905e-03 8.638537644474e-04 0.0 
8.638537644474e-04 1.260494925304e-02 0.0 
0.0 0.0 0.0 
-1.223496084598e-04 -8.384431316997e-04 0.0 
-8.384431316997e-04 6.087980928630e-04 0.0 
0.0 0.0 0.0 
-6.798755411869e-04 1.713186438008e-03 0.0 
1.713186438008e-03 1.402618826158e-02 0.0 
0.0 0.0 0.0 
2.869111102938e-04 -6.681242518697e-04 0.0 
-6.681242518697e-04 4.796214272998e-04 0.0 
0.0 0.0 0.0 
3.710111065753e-04 -6.859533010311e-04 0.0 
-6.859533010311e-04 5.865461354240e-04 0.0 
0.0 0.0 0.0 
5.371720862885e-04 -3.579328864990e-04 0.0 
-3.579328864990e-04 3.946745616219e-03 0.0 
0.0 0.0 0.0 
4.747713915509e-04 -5.092463848205e-04 0.0 
-5.092463848205e-04 3.863703160205e-03 0.0 
0.0 0.0 0.0 
3.127327814912e-04 -4.183073014304e-04 0.0 
-4.183073014304e-04 4.393593753008e-03 0.0 
0.0 0.0 0.0 
2.575857509816e-04 -5.071334468757e-04 0.0 
-5.071334468757e-04 4.308666910089e-03 0.0 
0.0 0.0 0.0 
3.533338905772e-04 -6.284107090301e-04 0.0 
-6.284107090301e-04 3.832849328384e-03 0.0 
0.0 0.0 0.0 
1.477391306203e-04 -5.780877727421e-04 0.0 
-5.780877727421e-04 4.301989999457e-03 0.0 
0.0 0.0 0.0 
-1.969891099124e-03 3.171355187894e-04 0.0 
3.171355187894e-04 1.239804354246e-02 0.0 
0.0 0.0 0.0 
9.889802007484e-05 -4.947369554319e-04 0.0 
-4.947369554319e-04 4.791597163859e-03 0.0 
0.0 0.0 0.0 
-6.064592439514e-06 -5.242556015847e-04 0.0 
-5.242556015847e-04 4.733224459656e-03 0.0 
0.0 0.0 0.0 
-1.262470424516e-05 -4.962967147307e-04 0.0 
-4.962967147307e-04 5.198934858125e-03 0.0 
0.0 0.0 0.0 
-2.239378148918e-03 3.140545210913e-03 0.0 
3.140545210913e-03 9.039260488351e-03 0.0 
0.0 0.0 0.0 
4.735146357951e-04 4.152614787654e-03 0.0 
4.152614787654e-03 2.617635494894e-03 0.0 
0.0 0.0 0.0 
-2.122829178586e-04 4.020770222234e-03 0.0 
4.020770222234e-03 3.618160026664e-03 0.0 
0.0 0.0 0.0 
-7.548825758427e-04 3.798715813418e-03 0.0 
3.798715813418e-03 3.895301413643e-03 0.0 
0.0 0.0 0.0 
-1.074920088879e-04 4.297588415583e-03 0.0 
4.297588415583e-03 9.057366095661e-03 0.0 
0.0 0.0 0.0 
-3.357644114841e-04 4.147322635349e-03 0.0 
4.147322635349e-03 9.424703474841e-03 0.0 
0.0 0.0 0.0 
-6.285365932160e-04 -2.701031520442e-04 0.0 
-2.701031520442e-04 4.894455241800e-03 0.0 
0.0 0.0 0.0 
-7.382452962822e-04 -3.195291291539e-04 0.0 
-3.195291291539e-04 4.601290817281e-03 0.0 
0.0 0.0 0.0 
-1.756147821180e-03 1.462835769690e-04 0.0 
1.462835769690e-04 1.245241103118e-02 0.0 
0.0 0.0 0.0 
-1.716982626469e-03 9.894343157750e-05 0.0 
9.894343157750e-05 1.242738697486e-02 0.0 
0.0 0.0 0.0 
-1.674064593342e-03 1.689212807855e-04 0.0 
1.689212807855e-04 1.276726788303e-02 0.0 
0.0 0.0 0.0 
-1.650351059097e-03 1.119121113139e-04 0.0 
1.119121113139e-04 1.272115082587e-02 0.0 
0.0 0.0 0.0 
-1.579902326974e-03 1.791209394426e-04 0.0 
1.791209394426e-04 1.304243035565e-02 0.0 
0.0 0.0 0.0 
-1.566821142594e-03 1.075353729088e-04 0.0 
1.075353729088e-04 1.299067449760e-02 0.0 
0.0 0.0 0.0 
-1.468227115347e-03 1.727224394439e-04 0.0 
1.727224394439e-04 1.330113949180e-02 0.0 
0.0 0.0 0.0 
6.388034494433e-04 3.998409416367e-03 0.0 
3.998409416367e-03 6.324936413488e-03 0.0 
0.0 0.0 0.0 
-4.877150617471e-04 3.886041135278e-03 0.0 
3.886041135278e-03 2.377939874830e-03 0.0 
0.0 0.0 0.0 
-2.591320054372e-03 2.534943912886e-03 0.0 
2.534943912886e-03 1.031751674143e-02 0.0 
0.0 0.0 0.0 
1.384169876128e-03 2.437571382918e-03 0.0 
2.437571382918e-03 3.671379849076e-03 0.0 
0.0 0.0 0.0 
1.749357311886e-03 2.068272533258e-03 0.0 
2.068272533258e-03 2.930955482060e-03 0.0 
0.0 0.0 0.0 
-1.432702978500e-03 3.849296301791e-03 0.0 
3.849296301791e-03 7.205857440084e-03 0.0 
0.0 0.0 0.0 
-1.666400223224e-03 3.643683829394e-03 0.0 
3.643683829394e-03 7.291523722575e-03 0.0 
0.0 0.0 0.0 
7.265699277410e-04 -5.942771808754e-05 0.0 
-5.942771808754e-05 3.717674428653e-03 0.0 
0.0 0.0 0.0 
2.877942574863e-03 3.882200756971e-03 0.0 
3.882200756971e-03 -3.158237177241e-04 0.0 
0.0 0.0 0.0 
-4.727933636162e-04 2.019004895292e-03 0.0 
2.019004895292e-03 1.395018725564e-02 0.0 
0.0 0.0 0.0 
-1.572229581203e-03 2.452736340493e-03 0.0 
2.452736340493e-03 -2.776643115180e-03 0.0 
0.0 0.0 0.0 
2.968111525782e-04 2.415332785512e-03 0.0 
2.415332785512e-03 -3.432352040923e-03 0.0 
0.0 0.0 0.0 
2.347217426363e-03 4.072889817553e-03 0.0 
4.072889817553e-03 5.768693403802e-04 0.0 
0.0 0.0 0.0 
-1.265955392081e-03 4.001031429391e-03 0.0 
4.001031429391e-03 7.210966023318e-03 0.0 
0.0 0.0 0.0 
1.893781997934e-04 4.200740825315e-03 0.0 
4.200740825315e-03 3.482944887857e-03 0.0 
0.0 0.0 0.0 
-4.373556079553e-04 4.085016467372e-03 0.0 
4.085016467372e-03 4.459496256962e-03 0.0 
0.0 0.0 0.0 
2.584933991285e-03 -9.331047069595e-05 0.0 
-9.331047069595e-05 5.187760559384e-04 0.0 
0.0 0.0 0.0 
-2.767974861767e-04 -1.458000237589e-03 0.0 
-1.458000237589e-03 8.170970690031e-04 0.0 
0.0 0.0 0.0 
5.243973231437e-04 4.045409638717e-03 0.0 
4.045409638717e-03 5.969412771297e-04 0.0 
0.0 0.0 0.0 
-1.488917343979e-03 2.719525478576e-04 0.0 
2.719525478576e-04 1.333755574052e-02 0.0 
0.0 0.0 0.0 
-3.542721479084e-04 3.971845500390e-03 0.0 
3.971845500390e-03 1.008447215037e-03 0.0 
0.0 0.0 0.0 
-7.308078123955e-04 -1.486866072390e-04 0.0 
-1.486866072390e-04 4.827249864904e-03 0.0 
0.0 0.0 0.0 
3.623348730322e-03 3.499730607171e-03 0.0 
3.499730607171e-03 -1.136705133350e-03 0.0 
0.0 0.0 0.0 
-1.405543013082e-04 4.392858112772e-03 0.0 
4.392858112772e-03 5.366767706706e-03 0.0 
0.0 0.0 0.0 
1.315545393520e-03 4.064093976798e-03 0.0 
4.064093976798e-03 2.393744713258e-04 0.0 
0.0 0.0 0.0 
1.217005218576e-03 4.171235318232e-03 0.0 
4.171235318232e-03 1.614786530170e-03 0.0 
0.0 0.0 0.0 
-2.116211378403e-03 3.228089069737e-03 0.0 
3.228089069737e-03 1.038285287087e-02 0.0 
0.0 0.0 0.0 
-2.606123785430e-03 2.358517040854e-03 0.0 
2.358517040854e-03 1.130303176032e-02 0.0 
0.0 0.0 0.0 
-2.569487266354e-03 2.576391149244e-03 0.0 
2.576391149244e-03 1.084377029565e-02 0.0 
0.0 0.0 0.0 
4.245573393020e-03 2.978494470302e-03 0.0 
2.978494470302e-03 -1.829450692877e-03 0.0 
0.0 0.0 0.0 
-7.385100256486e-04 4.071404687398e-03 0.0 
4.071404687398e-03 5.368306213118e-03 0.0 
0.0 0.0 0.0 
-1.068735189626e-03 3.787626737631e-03 0.0 
3.787626737631e-03 5.473619556821e-03 0.0 
0.0 0.0 0.0 
-1.278401804188e-03 4.009561753890e-03 0.0 
4.009561753890e-03 8.221784633441e-03 0.0 
0.0 0.0 0.0 
-1.630508236599e-03 2.509296386288e-03 0.0 
2.509296386288e-03 1.271220074658e-02 0.0 
0.0 0.0 0.0 
-1.448466596035e-03 2.826458498060e-03 0.0 
2.826458498060e-03 1.245888902584e-02 0.0 
0.0 0.0 0.0 
-1.101125664531e-03 3.030096180655e-03 0.0 
3.030096180655e-03 1.253810718916e-02 0.0 
0.0 0.0 0.0 
-1.245457454950e-03 3.133103269597e-03 0.0 
3.133103269597e-03 1.214821170629e-02 0.0 
0.0 0.0 0.0 
-1.566164739169e-03 2.942125433459e-03 0.0 
2.942125433459e-03 1.205298483707e-02 0.0 
0.0 0.0 0.0 
-1.338048518927e-03 3.241365330433e-03 0.0 
3.241365330433e-03 1.170042185341e-02 0.0 
0.0 0.0 0.0 
-1.005894943401e-03 3.420797648438e-03 0.0 
3.420797648438e-03 1.180980282889e-02 0.0 
0.0 0.0 0.0 
-1.079309650228e-03 3.526566753527e-03 0.0 
3.526566753527e-03 1.130286914689e-02 0.0 
0.0 0.0 0.0 
-7.221762648459e-04 3.743498884285e-03 0.0 
3.743498884285e-03 1.146455921777e-02 0.0 
0.0 0.0 0.0 
-8.148870541950e-04 3.782478264633e-03 0.0 
3.782478264633e-03 1.085542173398e-02 0.0 
0.0 0.0 0.0 
-1.088603926211e-03 3.626211456108e-03 0.0 
3.626211456108e-03 1.072300357137e-02 0.0 
0.0 0.0 0.0 
-8.117603017524e-04 3.838824665186e-03 0.0 
3.838824665186e-03 1.025382256297e-02 0.0 
0.0 0.0 0.0 
-5.931297350995e-04 3.997327469532e-03 0.0 
3.997327469532e-03 1.038461148280e-02 0.0 
0.0 0.0 0.0 
-1.048523823012e-03 3.740141685355e-03 0.0 
3.740141685355e-03 1.009874013294e-02 0.0 
0.0 0.0 0.0 
9.774641635626e-04 2.809848333231e-03 0.0 
2.809848333231e-03 4.422358967949e-03 0.0 
0.0 0.0 0.0 
2.531360769224e-03 4.004826719873e-03 0.0 
4.004826719873e-03 6.401468806010e-04 0.0 
0.0 0.0 0.0 
1.526580289314e-03 1.281019257981e-03 0.0 
1.281019257981e-03 -4.261072455524e-03 0.0 
0.0 0.0 0.0 
7.205037851500e-04 3.656067459346e-03 0.0 
3.656067459346e-03 -2.636787490565e-03 0.0 
0.0 0.0 0.0 
-5.597783131656e-04 4.313845300940e-03 0.0 
4.313845300940e-03 6.361378982008e-03 0.0 
0.0 0.0 0.0 
-3.857817890021e-04 3.868637593368e-03 0.0 
3.868637593368e-03 1.184711854682e-02 0.0 
0.0 0.0 0.0 
-4.561356103474e-04 3.338058391905e-03 0.0 
3.338058391905e-03 1.273485049264e-02 0.0 
0.0 0.0 0.0 
3.754702501849e-03 3.198938018289e-03 0.0 
3.198938018289e-03 -1.945598744314e-03 0.0 
0.0 0.0 0.0 
-1.220951881753e-05 4.525569533262e-03 0.0 
4.525569533262e-03 9.109903523813e-03 0.0 
0.0 0.0 0.0 
-2.316435617359e-03 3.054275969713e-03 0.0 
3.054275969713e-03 1.034195000582e-02 0.0 
0.0 0.0 0.0 
3.734851739167e-03 2.087402198242e-03 0.0 
2.087402198242e-03 -3.578138532184e-03 0.0 
0.0 0.0 0.0 
1.786166316930e-04 4.417405487807e-03 0.0 
4.417405487807e-03 7.883011555900e-03 0.0 
0.0 0.0 0.0 
-1.766058984776e-03 2.624639547175e-03 0.0 
2.624639547175e-03 1.235548826279e-02 0.0 
0.0 0.0 0.0 
-1.865345641419e-03 2.754319510369e-03 0.0 
2.754319510369e-03 1.195508351761e-02 0.0 
0.0 0.0 0.0 
-2.046749259210e-03 2.420781817961e-03 0.0 
2.420781817961e-03 1.224531928825e-02 0.0 
0.0 0.0 0.0 
-4.401995463589e-04 2.837621750417e-03 0.0 
2.837621750417e-03 1.333376780196e-02 0.0 
0.0 0.0 0.0 
-2.145704786163e-03 1.074859566753e-03 0.0 
1.074859566753e-03 1.289034823570e-02 0.0 
0.0 0.0 0.0 
4.761190705544e-04 3.585181741392e-03 0.0 
3.585181741392e-03 5.799707345691e-03 0.0 
0.0 0.0 0.0 
3.815363716707e-03 2.268540206206e-03 0.0 
2.268540206206e-03 -5.985105876650e-04 0.0 
0.0 0.0 0.0 
3.743162653071e-03 2.767267210927e-03 0.0 
2.767267210927e-03 -4.798893460455e-04 0.0 
0.0 0.0 0.0 
4.054936560817e-03 2.774879633663e-03 0.0 
2.774879633663e-03 -1.100012151607e-03 0.0 
0.0 0.0 0.0 
-1.377558299510e-03 3.359988917056e-03 0.0 
3.359988917056e-03 1.118459155115e-02 0.0 
0.0 0.0 0.0 
6.469349055149e-04 2.114466447617e-03 0.0 
2.114466447617e-03 4.385944511931e-03 0.0 
0.0 0.0 0.0 
1.204577697926e-03 1.782413270952e-03 0.0 
1.782413270952e-03 3.537103526476e-03 0.0 
0.0 0.0 0.0 
1.176233301854e-03 1.427532314026e-03 0.0 
1.427532314026e-03 3.417538912018e-03 0.0 
0.0 0.0 0.0 
1.714944969382e-03 1.464991921264e-03 0.0 
1.464991921264e-03 2.683140363688e-03 0.0 
0.0 0.0 0.0 
6.163709608591e-04 1.340697035715e-03 0.0 
1.340697035715e-03 4.127601239374e-03 0.0 
0.0 0.0 0.0 
-2.485486227934e-04 4.270383172162e-03 0.0 
4.270383172162e-03 1.087102870544e-02 0.0 
0.0 0.0 0.0 
-1.700678024999e-04 4.413085905195e-03 0.0 
4.413085905195e-03 1.032577694075e-02 0.0 
0.0 0.0 0.0 
2.937550931901e-03 -2.670892056336e-03 0.0 
-2.670892056336e-03 -2.267994716370e-03 0.0 
0.0 0.0 0.0 
3.633351235668e-03 -2.115747174224e-03 0.0 
-2.115747174224e-03 -2.807523818941e-03 0.0 
0.0 0.0 0.0 
3.756543868009e-03 -1.860827472918e-03 0.0 
-1.860827472918e-03 -2.691385597597e-03 0.0 
0.0 0.0 0.0 
4.227774712160e-03 -1.420078737066e-03 0.0 
-1.420078737066e-03 -3.186587472048e-03 0.0 
0.0 0.0 0.0 
4.055759139838e-03 -1.670452002434e-03 0.0 
-1.670452002434e-03 -3.340644864546e-03 0.0 
0.0 0.0 0.0 
4.550645982940e-03 -8.019337998732e-04 0.0 
-8.019337998732e-04 -3.571111959880e-03 0.0 
0.0 0.0 0.0 
4.694393172427e-03 -6.493802197595e-04 0.0 
-6.493802197595e-04 -3.375472284474e-03 0.0 
0.0 0.0 0.0 
4.683189662941e-03 -9.583324773463e-06 0.0 
-9.583324773463e-06 -3.791954470126e-03 0.0 
0.0 0.0 0.0 
-4.560931159087e-04 4.046482571673e-03 0.0 
4.046482571673e-03 9.139009353647e-03 0.0 
0.0 0.0 0.0 
5.046915182030e-04 6.522423386911e-04 0.0 
6.522423386911e-04 4.156591924765e-03 0.0 
0.0 0.0 0.0 
1.977309708149e-03 -1.362751956736e-03 0.0 
-1.362751956736e-03 3.820658871352e-04 0.0 
0.0 0.0 0.0 
2.437825266613e-03 -1.309642464280e-03 0.0 
-1.309642464280e-03 -3.002667914436e-04 0.0 
0.0 0.0 0.0 
2.554665587080e-03 -1.528022316768e-03 0.0 
-1.528022316768e-03 -7.335805894817e-04 0.0 
0.0 0.0 0.0 
-1.893851621866e-04 -1.836899958504e-03 0.0 
-1.836899958504e-03 2.028142078817e-03 0.0 
0.0 0.0 0.0 
1.358424361745e-04 -1.935972250337e-03 0.0 
-1.935972250337e-03 1.743310134177e-03 0.0 
0.0 0.0 0.0 
1.590060100394e-04 -1.774497273443e-03 0.0 
-1.774497273443e-03 1.995093669995e-03 0.0 
0.0 0.0 0.0 
-4.682313602240e-04 -1.677599036368e-03 0.0 
-1.677599036368e-03 2.272187636301e-03 0.0 
0.0 0.0 0.0 
1.499790240597e-03 4.013208189223e-03 0.0 
4.013208189223e-03 3.970955577026e-03 0.0 
0.0 0.0 0.0 
4.484012488426e-04 3.582801367606e-04 0.0 
3.582801367606e-04 4.222356333029e-03 0.0 
0.0 0.0 0.0 
3.754730480523e-03 1.285840845192e-04 0.0 
1.285840845192e-04 -1.343288546503e-03 0.0 
0.0 0.0 0.0 
4.816318039269e-04 -2.135338567913e-03 0.0 
-2.135338567913e-03 1.205105807263e-03 0.0 
0.0 0.0 0.0 
-2.446290943903e-03 7.698371646671e-04 0.0 
7.698371646671e-04 1.201874103198e-02 0.0 
0.0 0.0 0.0 
-2.478820297783e-03 1.098195862646e-03 0.0 
1.098195862646e-03 1.223379643270e-02 0.0 
0.0 0.0 0.0 
-2.593131146726e-03 1.352461537117e-03 0.0 
1.352461537117e-03 1.212278652431e-02 0.0 
0.0 0.0 0.0 
-2.446667399772e-03 1.465683387804e-03 0.0 
1.465683387804e-03 1.240096608496e-02 0.0 
0.0 0.0 0.0 
-2.378693691119e-03 8.963264585560e-04 0.0 
8.963264585560e-04 1.235747977207e-02 0.0 
0.0 0.0 0.0 
-6.088619567250e-04 -1.221085361808e-03 0.0 
-1.221085361808e-03 3.134401402689e-03 0.0 
0.0 0.0 0.0 
-7.602564868773e-04 -9.654984261010e-04 0.0 
-9.654984261010e-04 3.495300360078e-03 0.0 
0.0 0.0 0.0 
-9.451355845067e-04 -8.095091318177e-04 0.0 
-8.095091318177e-04 3.566915636050e-03 0.0 
0.0 0.0 0.0 
-8.677915409746e-04 -7.145350827472e-04 0.0 
-7.145350827472e-04 3.802163302224e-03 0.0 
0.0 0.0 0.0 
-1.020683073763e-03 -5.546452481186e-04 0.0 
-5.546452481186e-04 3.816271375207e-03 0.0 
0.0 0.0 0.0 
-1.083745261636e-03 -6.284632184664e-04 0.0 
-6.284632184664e-04 3.603960919227e-03 0.0 
0.0 0.0 0.0 
-9.404538565452e-04 -4.680140315763e-04 0.0 
-4.680140315763e-04 4.059108222526e-03 0.0 
0.0 0.0 0.0 
-1.064680577175e-03 -3.188270683423e-04 0.0 
-3.188270683423e-04 3.996836340436e-03 0.0 
0.0 0.0 0.0 
-2.239311152067e-03 4.708893965254e-04 0.0 
4.708893965254e-04 1.209378199846e-02 0.0 
0.0 0.0 0.0 
-1.601299428411e-03 -2.389342165993e-03 0.0 
-2.389342165993e-03 -7.022597995622e-04 0.0 
0.0 0.0 0.0 
-6.613970262850e-04 -3.208663481466e-03 0.0 
-3.208663481466e-03 -4.662145813633e-04 0.0 
0.0 0.0 0.0 
-8.659926578003e-04 -2.379097380579e-03 0.0 
-2.379097380579e-03 5.577485517043e-04 0.0 
0.0 0.0 0.0 
2.599105929481e-05 -3.353970085964e-03 0.0 
-3.353970085964e-03 -4.226392607736e-04 0.0 
0.0 0.0 0.0 
8.975606245325e-04 -3.477406118346e-03 0.0 
-3.477406118346e-03 -2.029258797562e-03 0.0 
0.0 0.0 0.0 
1.347474207289e-03 -3.408400012796e-03 0.0 
-3.408400012796e-03 -1.690686760079e-03 0.0 
0.0 0.0 0.0 
2.223583044760e-03 -3.226121611853e-03 0.0 
-3.226121611853e-03 -3.042121438983e-03 0.0 
0.0 0.0 0.0 
1.174870727029e-04 -3.198848564000e-03 0.0 
-3.198848564000e-03 -2.460006323171e-03 0.0 
0.0 0.0 0.0 
-8.861861898777e-04 -8.665668810824e-04 0.0 
-8.665668810824e-04 5.374643022844e-04 0.0 
0.0 0.0 0.0 
-7.519880151414e-04 -1.616919099096e-03 0.0 
-1.616919099096e-03 7.194484342583e-04 0.0 
0.0 0.0 0.0 
-5.642436759478e-04 -5.388630595261e-04 0.0 
-5.388630595261e-04 4.698860418946e-04 0.0 
0.0 0.0 0.0 
-5.353758785375e-04 -1.192191118201e-03 0.0 
-1.192191118201e-03 6.880374155906e-04 0.0 
0.0 0.0 0.0 
-3.757553029265e-04 -2.115154312440e-03 0.0 
-2.115154312440e-03 6.610181122829e-04 0.0 
0.0 0.0 0.0 
-1.090017216207e-04 -1.799012113143e-03 0.0 
-1.799012113143e-03 9.389874345354e-04 0.0 
0.0 0.0 0.0 
-1.442927675384e-04 -3.614364245014e-04 0.0 
-3.614364245014e-04 5.677396299088e-03 0.0 
0.0 0.0 0.0 
-1.237440288243e-03 -2.552151540394e-04 0.0 
-2.552151540394e-04 3.422158987103e-03 0.0 
0.0 0.0 0.0 
-1.189025431261e-03 -5.040038169673e-04 0.0 
-5.040038169673e-04 3.247234458420e-03 0.0 
0.0 0.0 0.0 
-1.132797819894e-03 -4.902514037950e-04 0.0 
-4.902514037950e-04 3.018244665613e-03 0.0 
0.0 0.0 0.0 
-1.086877542976e-03 -7.681644879408e-04 0.0 
-7.681644879408e-04 3.017571853881e-03 0.0 
0.0 0.0 0.0 
-1.193272988423e-03 -4.820336845670e-04 0.0 
-4.820336845670e-04 3.460505196437e-03 0.0 
0.0 0.0 0.0 
-1.104316350014e-03 -2.354472133217e-04 0.0 
-2.354472133217e-04 2.924251880199e-03 0.0 
0.0 0.0 0.0 
-1.006833441461e-03 -4.568506776230e-04 0.0 
-4.568506776230e-04 2.759822968122e-03 0.0 
0.0 0.0 0.0 
2.023184171977e-03 -1.166644959013e-04 0.0 
-1.166644959013e-04 -5.950371190280e-04 0.0 
0.0 0.0 0.0 
1.499443544607e-03 -1.463478871545e-04 0.0 
-1.463478871545e-04 -5.652083425756e-05 0.0 
0.0 0.0 0.0 
1.642550271991e-03 -3.458821759059e-05 0.0 
-3.458821759059e-05 -1.550530428405e-04 0.0 
0.0 0.0 0.0 
9.654671777759e-04 -1.452484946966e-04 0.0 
-1.452484946966e-04 5.116366249455e-04 0.0 
0.0 0.0 0.0 
9.352532607605e-04 -2.350980713658e-04 0.0 
-2.350980713658e-04 5.071934910343e-04 0.0 
0.0 0.0 0.0 
1.405262161613e-03 -2.283372748008e-04 0.0 
-2.283372748008e-04 -1.985028186955e-05 0.0 
0.0 0.0 0.0 
1.248898375226e-03 -3.050089339918e-04 0.0 
-3.050089339918e-04 3.945350266834e-05 0.0 
0.0 0.0 0.0 
1.683065933078e-03 -2.017104095110e-04 0.0 
-2.017104095110e-04 -4.495607120613e-04 0.0 
0.0 0.0 0.0 
1.049485349718e-03 -3.925604709697e-04 0.0 
-3.925604709697e-04 1.241870719772e-04 0.0 
0.0 0.0 0.0 
6.659831731455e-04 -4.535389116298e-04 0.0 
-4.535389116298e-04 5.995693625363e-04 0.0 
0.0 0.0 0.0 
1.451110751165e-03 -2.580125450798e-04 0.0 
-2.580125450798e-04 -3.623273520086e-04 0.0 
0.0 0.0 0.0 
-1.224670124988e-03 8.859469695500e-05 0.0 
8.859469695500e-05 1.369474652646e-02 0.0 
0.0 0.0 0.0 
-1.117121008875e-03 1.978444832304e-04 0.0 
1.978444832304e-04 1.384348727135e-02 0.0 
0.0 0.0 0.0 
3.306678280037e-04 -1.040432975353e-04 0.0 
-1.040432975353e-04 4.459340915938e-03 0.0 
0.0 0.0 0.0 
-2.044631269206e-03 2.996967758580e-04 0.0 
2.996967758580e-04 1.215562940580e-02 0.0 
0.0 0.0 0.0 
2.491791472721e-05 -3.723344686034e-04 0.0 
-3.723344686034e-04 2.662908656067e-04 0.0 
0.0 0.0 0.0 
-3.691847309147e-04 7.460057062651e-04 0.0 
7.460057062651e-04 1.445038539737e-02 0.0 
0.0 0.0 0.0 
-3.699428133395e-04 1.348744027979e-03 0.0 
1.348744027979e-03 1.430459695545e-02 0.0 
0.0 0.0 0.0 
-3.342942477667e-04 1.152725109005e-03 0.0 
1.152725109005e-03 1.437983424905e-02 0.0 
0.0 0.0 0.0 
-4.720654821168e-04 -1.067912793144e-04 0.0 
-1.067912793144e-04 5.424779444630e-03 0.0 
0.0 0.0 0.0 
-3.736015243008e-04 -1.968148704146e-04 0.0 
-1.968148704146e-04 5.525165552290e-03 0.0 
0.0 0.0 0.0 
-3.307583437416e-04 4.225683142208e-04 0.0 
4.225683142208e-04 1.450794764499e-02 0.0 
0.0 0.0 0.0 
-6.019770097695e-06 -2.097941419555e-03 0.0 
-2.097941419555e-03 1.214595952517e-03 0.0 
0.0 0.0 0.0 
-9.170865509488e-04 3.346535918389e-03 0.0 
3.346535918389e-03 1.223172192069e-02 0.0 
0.0 0.0 0.0 
-9.271886990536e-04 7.453964939868e-04 0.0 
7.453964939868e-04 1.410522833574e-02 0.0 
0.0 0.0 0.0 
3.048685872946e-03 3.125386982451e-03 0.0 
3.125386982451e-03 -2.749645710281e-03 0.0 
0.0 0.0 0.0 
7.786220964889e-04 -2.676285049173e-03 0.0 
-2.676285049173e-03 1.456552934690e-04 0.0 
0.0 0.0 0.0 
-6.976009195160e-04 -5.087665067891e-04 0.0 
-5.087665067891e-04 4.343872754790e-03 0.0 
0.0 0.0 0.0 
2.164418437451e-04 -1.359486243634e-03 0.0 
-1.359486243634e-03 2.627634381650e-03 0.0 
0.0 0.0 0.0 
-2.918380870921e-04 -5.266119314118e-04 0.0 
-5.266119314118e-04 4.683179343252e-03 0.0 
0.0 0.0 0.0 
-4.707841249230e-04 -9.286576898448e-04 0.0 
-9.286576898448e-04 3.677051053723e-03 0.0 
0.0 0.0 0.0 
8.042530873942e-06 -7.753855516171e-04 0.0 
-7.753855516171e-04 3.887227849407e-03 0.0 
0.0 0.0 0.0 
1.148040571319e-03 1.023930523322e-03 0.0 
1.023930523322e-03 3.321437461878e-03 0.0 
0.0 0.0 0.0 
9.086296993098e-05 -4.199607833893e-04 0.0 
-4.199607833893e-04 1.366167557043e-03 0.0 
0.0 0.0 0.0 
-1.826356348736e-03 6.185956884373e-04 0.0 
6.185956884373e-04 1.310718498822e-02 0.0 
0.0 0.0 0.0 
-1.691780633196e-03 3.323514640496e-04 0.0 
3.323514640496e-04 1.301287282506e-02 0.0 
0.0 0.0 0.0 
-1.357750806961e-03 6.999220989535e-04 0.0 
6.999220989535e-04 1.372872323838e-02 0.0 
0.0 0.0 0.0 
-5.723369158396e-04 -1.399317712781e-03 0.0 
-1.399317712781e-03 2.045326955165e-03 0.0 
0.0 0.0 0.0 
-9.965018061499e-04 -8.919493120758e-04 0.0 
-8.919493120758e-04 3.349801290810e-03 0.0 
0.0 0.0 0.0 
-1.458256934525e-04 -1.170778634425e-03 0.0 
-1.170778634425e-03 1.282315979842e-03 0.0 
0.0 0.0 0.0 
2.471057063362e-04 4.285784315344e-03 0.0 
4.285784315344e-03 7.757435307740e-03 0.0 
0.0 0.0 0.0 
-1.450189245428e-03 3.926848367482e-03 0.0 
3.926848367482e-03 8.157669154009e-03 0.0 
0.0 0.0 0.0 
2.160675529627e-03 -1.841866305752e-03 0.0 
-1.841866305752e-03 -4.550908207704e-04 0.0 
0.0 0.0 0.0 
-2.092748872113e-04 -1.922483122238e-03 0.0 
-1.922483122238e-03 1.845620334944e-03 0.0 
0.0 0.0 0.0 
3.073551232119e-04 -2.355213209295e-03 0.0 
-2.355213209295e-03 8.976572172098e-04 0.0 
0.0 0.0 0.0 
1.028303787627e-03 -2.848199525290e-03 0.0 
-2.848199525290e-03 -2.759327149697e-04 0.0 
0.0 0.0 0.0 
1.975899917671e-03 4.137365107065e-03 0.0 
4.137365107065e-03 1.645399132706e-03 0.0 
0.0 0.0 0.0 
8.772350210250e-04 -2.125417990586e-03 0.0 
-2.125417990586e-03 8.501849677537e-04 0.0 
0.0 0.0 0.0 
1.056633824135e-03 -9.554621624479e-04 0.0 
-9.554621624479e-04 2.230678478073e-03 0.0 
0.0 0.0 0.0 
-1.186985861993e-03 6.447295758361e-04 0.0 
6.447295758361e-04 1.388097632762e-02 0.0 
0.0 0.0 0.0 
7.543613816572e-04 -3.552022188537e-04 0.0 
-3.552022188537e-04 -3.890658050302e-05 0.0 
0.0 0.0 0.0 
1.262437137513e-03 -7.072159310420e-04 0.0 
-7.072159310420e-04 2.198628269769e-03 0.0 
0.0 0.0 0.0 
8.554946029961e-04 -1.702500343180e-03 0.0 
-1.702500343180e-03 1.469402541070e-03 0.0 
0.0 0.0 0.0 
-1.996378519597e-03 1.044793791459e-03 0.0 
1.044793791459e-03 1.310179334913e-02 0.0 
0.0 0.0 0.0 
2.732194812365e-03 1.884536586116e-03 0.0 
1.884536586116e-03 1.296692977438e-03 0.0 
0.0 0.0 0.0 
1.069470825000e-03 -3.339806285795e-03 0.0 
-3.339806285795e-03 -9.789360488675e-04 0.0 
0.0 0.0 0.0 
-1.441289891325e-03 1.148850382809e-03 0.0 
1.148850382809e-03 1.370670052954e-02 0.0 
0.0 0.0 0.0 
-1.043385249670e-03 2.190378882690e-03 0.0 
2.190378882690e-03 1.354763661367e-02 0.0 
0.0 0.0 0.0 
-2.282729952185e-03 1.118304202273e-03 0.0 
1.118304202273e-03 1.267231328325e-02 0.0 
0.0 0.0 0.0 
7.244119456370e-05 -8.919764916570e-04 0.0 
-8.919764916570e-04 9.753238017786e-04 0.0 
0.0 0.0 0.0 
-1.920014765344e-03 4.610980848447e-04 0.0 
4.610980848447e-04 1.277634147998e-02 0.0 
0.0 0.0 0.0 
1.076548401479e-03 8.003543725404e-05 0.0 
8.003543725404e-05 3.103081569494e-03 0.0 
0.0 0.0 0.0 
-1.775605801605e-03 2.190584460571e-03 0.0 
2.190584460571e-03 1.290895208553e-02 0.0 
0.0 0.0 0.0 
-6.058144376897e-04 -1.090304242214e-03 0.0 
-1.090304242214e-03 2.082253631615e-03 0.0 
0.0 0.0 0.0 
4.567520083501e-03 4.540396309038e-04 0.0 
4.540396309038e-04 -2.400942492842e-03 0.0 
0.0 0.0 0.0 
4.394097311327e-04 4.442842200890e-03 0.0 
4.442842200890e-03 4.473086943675e-03 0.0 
0.0 0.0 0.0 
-2.742560054475e-03 1.698568058690e-03 0.0 
1.698568058690e-03 1.113242073566e-02 0.0 
0.0 0.0 0.0 
-8.311116899182e-04 9.240697580300e-04 0.0 
9.240697580300e-04 1.415760599047e-02 0.0 
0.0 0.0 0.0 
3.100570435489e-03 3.569283642695e-03 0.0 
3.569283642695e-03 4.081450256034e-04 0.0 
0.0 0.0 0.0 
2.286629455021e-03 1.290724086489e-03 0.0 
1.290724086489e-03 1.735968092457e-03 0.0 
0.0 0.0 0.0 
3.700406632295e-03 7.353831301397e-04 0.0 
7.353831301397e-04 -9.008199108509e-04 0.0 
0.0 0.0 0.0 
-7.723211680284e-04 -9.016807194000e-04 0.0 
-9.016807194000e-04 2.359722100409e-03 0.0 
0.0 0.0 0.0 
6.073880005489e-04 -6.673411033049e-04 0.0 
-6.673411033049e-04 3.332625562954e-03 0.0 
0.0 0.0 0.0 
4.521648432088e-03 2.255719558202e-03 0.0 
2.255719558202e-03 -1.893855611606e-03 0.0 
0.0 0.0 0.0 
-1.164795450297e-03 1.315753940366e-03 0.0 
1.315753940366e-03 1.389935977580e-02 0.0 
0.0 0.0 0.0 
3.220652664824e-04 4.186597366616e-03 0.0 
4.186597366616e-03 6.548088696090e-03 0.0 
0.0 0.0 0.0 
5.047775342143e-03 9.475782392424e-04 0.0 
9.475782392424e-04 -3.085140568934e-03 0.0 
0.0 0.0 0.0 
-1.501332941818e-03 1.721554913105e-03 0.0 
1.721554913105e-03 1.351581355765e-02 0.0 
0.0 0.0 0.0 
3.015962922506e-03 -1.350215661775e-03 0.0 
-1.350215661775e-03 -1.278094089264e-03 0.0 
0.0 0.0 0.0 
2.392883454642e-03 2.284587087089e-03 0.0 
2.284587087089e-03 2.051048281081e-03 0.0 
0.0 0.0 0.0 
-1.102830731057e-03 4.109316275515e-03 0.0 
4.109316275515e-03 7.250575967380e-03 0.0 
0.0 0.0 0.0 
2.097150328542e-04 4.391429764293e-03 0.0 
4.391429764293e-03 5.902684261126e-03 0.0 
0.0 0.0 0.0 
-1.140662612275e-03 3.854398671681e-03 0.0 
3.854398671681e-03 9.266658503615e-03 0.0 
0.0 0.0 0.0 
1.588185907450e-03 4.249996507769e-03 0.0 
4.249996507769e-03 3.100524433732e-03 0.0 
0.0 0.0 0.0 
-8.479342493480e-04 -3.798948605703e-04 0.0 
-3.798948605703e-04 4.326805205369e-03 0.0 
0.0 0.0 0.0 
9.133905787858e-04 -6.922515784586e-04 0.0 
-6.922515784586e-04 2.781315538791e-03 0.0 
0.0 0.0 0.0 
3.431680644459e-03 -1.211855920315e-03 0.0 
-1.211855920315e-03 -4.303303614095e-03 0.0 
0.0 0.0 0.0 
1.572989747047e-03 4.196458693646e-03 0.0 
4.196458693646e-03 1.540800908853e-03 0.0 
0.0 0.0 0.0 
-2.144462162792e-03 1.348730525036e-03 0.0 
1.348730525036e-03 1.291386065356e-02 0.0 
0.0 0.0 0.0 
8.126616578251e-04 3.974985328475e-03 0.0 
3.974985328475e-03 5.967068046239e-03 0.0 
0.0 0.0 0.0 
-8.411138776866e-04 1.467190655410e-03 0.0 
1.467190655410e-03 1.405851566071e-02 0.0 
0.0 0.0 0.0 
3.017223874940e-04 4.420869266242e-03 0.0 
4.420869266242e-03 4.375084076744e-03 0.0 
0.0 0.0 0.0 
4.326252236731e-04 -8.048703218915e-04 0.0 
-8.048703218915e-04 3.354052448873e-03 0.0 
0.0 0.0 0.0 
-1.174909299062e-03 1.913762896731e-03 0.0 
1.913762896731e-03 1.365484887002e-02 0.0 
0.0 0.0 0.0 
4.920836289796e-04 -1.967523714312e-03 0.0 
-1.967523714312e-03 1.436086982842e-03 0.0 
0.0 0.0 0.0 
-1.965590008400e-04 -1.455734172043e-04 0.0 
-1.455734172043e-04 1.744783325106e-03 0.0 
0.0 0.0 0.0 
2.146142078017e-03 3.427364155187e-03 0.0 
3.427364155187e-03 -2.612844211288e-03 0.0 
0.0 0.0 0.0 
4.860921993763e-03 9.055527765771e-04 0.0 
9.055527765771e-04 -3.556534127298e-03 0.0 
0.0 0.0 0.0 
3.702080177120e-03 3.243393355859e-03 0.0 
3.243393355859e-03 -6.105183320964e-04 0.0 
0.0 0.0 0.0 
5.014380405752e-04 -1.772730082771e-03 0.0 
-1.772730082771e-03 1.728112125533e-03 0.0 
0.0 0.0 0.0 
-8.658697263943e-04 2.985211950147e-03 0.0 
2.985211950147e-03 1.286546049848e-02 0.0 
0.0 0.0 0.0 
1.930093051226e-04 -7.160367065072e-04 0.0 
-7.160367065072e-04 3.849037850854e-03 0.0 
0.0 0.0 0.0 
2.177968749223e-03 -2.412527656918e-04 0.0 
-2.412527656918e-04 1.089050936418e-03 0.0 
0.0 0.0 0.0 
-1.425106269187e-03 3.753566367713e-03 0.0 
3.753566367713e-03 7.055440824850e-04 0.0 
0.0 0.0 0.0 
-2.673118623171e-03 2.277050304461e-03 0.0 
2.277050304461e-03 1.080062421556e-02 0.0 
0.0 0.0 0.0 
1.007996791110e-06 -6.250698427356e-04 0.0 
-6.250698427356e-04 4.300433146316e-03 0.0 
0.0 0.0 0.0 
4.130736025745e-03 -3.487441368593e-05 0.0 
-3.487441368593e-05 -2.003766395997e-03 0.0 
0.0 0.0 0.0 
2.245616164523e-03 1.975824118906e-03 0.0 
1.975824118906e-03 2.127190948400e-03 0.0 
0.0 0.0 0.0 
-1.137966255188e-03 -3.887674325582e-04 0.0 
-3.887674325582e-04 3.789541006212e-03 0.0 
0.0 0.0 0.0 
4.198224589337e-04 4.177179290367e-03 0.0 
4.177179290367e-03 7.095554360654e-03 0.0 
0.0 0.0 0.0 
-1.961005757603e-03 3.427060090540e-03 0.0 
3.427060090540e-03 8.187674107160e-03 0.0 
0.0 0.0 0.0 
-1.424565071757e-04 -5.383766378974e-04 0.0 
-5.383766378974e-04 4.709689943862e-03 0.0 
0.0 0.0 0.0 
2.578331986701e-03 3.871136229977e-04 0.0 
3.871136229977e-04 8.217423873522e-04 0.0 
0.0 0.0 0.0 
3.345602296443e-03 3.590264257310e-03 0.0 
3.590264257310e-03 -1.143745144439e-03 0.0 
0.0 0.0 0.0 
-1.733233734447e-03 4.923864501237e-05 0.0 
4.923864501237e-05 1.208304967805e-02 0.0 
0.0 0.0 0.0 
-1.090582520229e-04 -4.718820307869e-04 0.0 
-4.718820307869e-04 5.164037914970e-03 0.0 
0.0 0.0 0.0 
2.129241430417e-03 6.181994278720e-04 0.0 
6.181994278720e-04 1.654994406028e-03 0.0 
0.0 0.0 0.0 
1.574434295392e-03 4.164765920131e-03 0.0 
4.164765920131e-03 3.488921226267e-03 0.0 
0.0 0.0 0.0 
3.890184703572e-03 -5.985609415987e-04 0.0 
-5.985609415987e-04 -1.985858781326e-03 0.0 
0.0 0.0 0.0 
-2.665648959600e-03 2.099142970509e-03 0.0 
2.099142970509e-03 1.040776807244e-02 0.0 
0.0 0.0 0.0 
1.875695340686e-04 -1.581975013070e-03 0.0 
-1.581975013070e-03 2.291224832908e-03 0.0 
0.0 0.0 0.0 
-1.669872931928e-04 4.300957506911e-03 0.0 
4.300957506911e-03 6.883990927787e-03 0.0 
0.0 0.0 0.0 
-4.172259099705e-04 2.583563597615e-03 0.0 
2.583563597615e-03 1.357223402560e-02 0.0 
0.0 0.0 0.0 
1.971381252132e-03 1.027368731383e-03 0.0 
1.027368731383e-03 2.059839938748e-03 0.0 
0.0 0.0 0.0 
-2.136567284110e-03 2.567979789395e-03 0.0 
2.567979789395e-03 1.186190341162e-02 0.0 
0.0 0.0 0.0 
-1.232232400588e-04 -1.556041851526e-03 0.0 
-1.556041851526e-03 2.511489594768e-03 0.0 
0.0 0.0 0.0 
2.868888431830e-03 3.018010839864e-03 0.0 
3.018010839864e-03 1.328828785783e-03 0.0 
0.0 0.0 0.0 
8.465623026030e-04 -3.221799021588e-04 0.0 
-3.221799021588e-04 5.288143830643e-04 0.0 
0.0 0.0 0.0 
-2.446582833356e-03 2.829030335830e-03 0.0 
2.829030335830e-03 9.751302215068e-03 0.0 
0.0 0.0 0.0 
-3.561404495902e-04 -1.321731629183e-03 0.0 
-1.321731629183e-03 2.978706221232e-03 0.0 
0.0 0.0 0.0 
4.893802529736e-03 7.195520832681e-05 0.0 
7.195520832681e-05 -3.578943921762e-03 0.0 
0.0 0.0 0.0 
3.361036589901e-03 -9.125774708907e-04 0.0 
-9.125774708907e-04 -1.452879325709e-03 0.0 
0.0 0.0 0.0 
1.199110515619e-03 3.065981507784e-03 0.0 
3.065981507784e-03 4.392210366639e-03 0.0 
0.0 0.0 0.0 
-5.413769861760e-04 -1.081153984637e-03 0.0 
-1.081153984637e-03 3.392515499068e-03 0.0 
0.0 0.0 0.0 
4.967223477632e-03 1.565735403304e-04 0.0 
1.565735403304e-04 -3.334540838620e-03 0.0 
0.0 0.0 0.0 
-6.825060248528e-04 -8.423771142769e-04 0.0 
-8.423771142769e-04 3.753228237271e-03 0.0 
0.0 0.0 0.0 
-2.472388163069e-03 2.744454917750e-03 0.0 
2.744454917750e-03 9.298380246313e-03 0.0 
0.0 0.0 0.0 
-1.924019097517e-03 2.912421566474e-03 0.0 
2.912421566474e-03 1.151168740079e-02 0.0 
0.0 0.0 0.0 
-7.859846151558e-04 -6.078706645323e-04 0.0 
-6.078706645323e-04 4.068627471230e-03 0.0 
0.0 0.0 0.0 
-6.831259376167e-05 4.204982646018e-03 0.0 
4.204982646018e-03 7.157261639864e-03 0.0 
0.0 0.0 0.0 
4.536920411716e-04 -6.084962455132e-04 0.0 
-6.084962455132e-04 6.949493832642e-04 0.0 
0.0 0.0 0.0 
1.954453630703e-03 3.915199855342e-03 0.0 
3.915199855342e-03 2.940721691884e-03 0.0 
0.0 0.0 0.0 
-5.102954336714e-04 -2.239220464402e-04 0.0 
-2.239220464402e-04 5.206230524519e-03 0.0 
0.0 0.0 0.0 
1.176500884553e-03 -2.561172593199e-03 0.0 
-2.561172593199e-03 5.599529164790e-05 0.0 
0.0 0.0 0.0 
2.903708313729e-03 -1.157092327470e-03 0.0 
-1.157092327470e-03 -9.291532032563e-04 0.0 
0.0 0.0 0.0 
-1.639223109475e-03 3.073089525780e-03 0.0 
3.073089525780e-03 1.159949969898e-02 0.0 
0.0 0.0 0.0 
-1.931692870655e-03 3.359310205559e-03 0.0 
3.359310205559e-03 7.588416001893e-03 0.0 
0.0 0.0 0.0 
2.726372645119e-03 -9.132738849460e-04 0.0 
-9.132738849460e-04 -3.739551659695e-04 0.0 
0.0 0.0 0.0 
-1.302040255520e-06 4.141441045537e-03 0.0 
4.141441045537e-03 7.471888107982e-03 0.0 
0.0 0.0 0.0 
2.242771535833e-03 3.612489557250e-03 0.0 
3.612489557250e-03 2.532225036968e-03 0.0 
0.0 0.0 0.0 
3.497238454244e-03 3.206662045764e-03 0.0 
3.206662045764e-03 -1.305810178235e-04 0.0 
0.0 0.0 0.0 
2.485961155902e-03 -5.677062450289e-04 0.0 
-5.677062450289e-04 3.413940019121e-04 0.0 
0.0 0.0 0.0 
-1.334142747337e-03 3.787707283190e-03 0.0 
3.787707283190e-03 6.402158393403e-03 0.0 
0.0 0.0 0.0 
1.775412687633e-04 -2.279341838886e-03 0.0 
-2.279341838886e-03 8.999806552934e-04 0.0 
0.0 0.0 0.0 
3.294502376050e-05 -2.093551976791e-03 0.0 
-2.093551976791e-03 9.214889986048e-04 0.0 
0.0 0.0 0.0 
4.707634740710e-03 -5.031172096802e-04 0.0 
-5.031172096802e-04 -3.110731833336e-03 0.0 
0.0 0.0 0.0 
-2.672607349313e-04 4.091936179664e-03 0.0 
4.091936179664e-03 8.346540226143e-03 0.0 
0.0 0.0 0.0 
4.490193739014e-04 -2.377620430923e-04 0.0 
-2.377620430923e-04 1.033713224481e-03 0.0 
0.0 0.0 0.0 
-1.365431044136e-03 3.505000769537e-03 0.0 
3.505000769537e-03 1.061123725737e-02 0.0 
0.0 0.0 0.0 
-1.360458889620e-04 -1.902174178271e-03 0.0 
-1.902174178271e-03 8.163109050943e-04 0.0 
0.0 0.0 0.0 
4.304422934005e-03 -1.232147774525e-03 0.0 
-1.232147774525e-03 -2.994041197993e-03 0.0 
0.0 0.0 0.0 
2.081190960632e-03 3.215798243430e-03 0.0 
3.215798243430e-03 3.001923402044e-03 0.0 
0.0 0.0 0.0 
-1.523557793365e-03 5.081066319855e-05 0.0 
5.081066319855e-05 1.309514437062e-02 0.0 
0.0 0.0 0.0 
3.783867733969e-03 -1.641599543002e-03 0.0 
-1.641599543002e-03 -2.499486245660e-03 0.0 
0.0 0.0 0.0 
-6.102767404959e-04 -1.789167826998e-04 0.0 
-1.789167826998e-04 2.212942211047e-03 0.0 
0.0 0.0 0.0 
3.200756086925e-03 -2.120209292597e-03 0.0 
-2.120209292597e-03 -2.104270883463e-03 0.0 
0.0 0.0 0.0 
3.209340633316e-03 3.148517294105e-03 0.0 
3.148517294105e-03 5.380821074684e-04 0.0 
0.0 0.0 0.0 
2.617250477842e-03 -2.214538914131e-03 0.0 
-2.214538914131e-03 -1.411607991163e-03 0.0 
0.0 0.0 0.0 
2.068363915563e-03 -2.467246068542e-03 0.0 
-2.467246068542e-03 -9.282231791444e-04 0.0 
0.0 0.0 0.0 
-6.339754038142e-04 8.386717269997e-04 0.0 
8.386717269997e-04 1.428874542660e-02 0.0 
0.0 0.0 0.0 
1.663692432417e-03 -2.479362340684e-03 0.0 
-2.479362340684e-03 -3.917594472921e-04 0.0 
0.0 0.0 0.0 
-2.823181252946e-04 2.441859676081e-04 0.0 
2.441859676081e-04 1.455603151330e-02 0.0 
0.0 0.0 0.0 
-1.866536889797e-04 -1.848341168615e-04 0.0 
-1.848341168615e-04 5.853410599783e-03 0.0 
0.0 0.0 0.0 
-1.683894921158e-03 2.500424235836e-05 0.0 
2.500424235836e-05 1.237701566042e-02 0.0 
0.0 0.0 0.0 
-1.556597345710e-03 3.431652610562e-03 0.0 
3.431652610562e-03 6.054955931420e-03 0.0 
0.0 0.0 0.0 
-1.836242003840e-03 2.006994565834e-04 0.0 
2.006994565834e-04 -3.848774026965e-03 0.0 
0.0 0.0 0.0 
-7.636337140829e-04 3.862966036917e-03 0.0 
3.862966036917e-03 4.504161903432e-03 0.0 
0.0 0.0 0.0 
1.017159779828e-03 -2.645160153864e-03 0.0 
-2.645160153864e-03 5.680667687228e-05 0.0 
0.0 0.0 0.0 
-9.345817691323e-04 3.870101949399e-03 0.0 
3.870101949399e-03 9.414557623789e-03 0.0 
0.0 0.0 0.0 
-1.694938289305e-03 6.627703935988e-05 0.0 
6.627703935988e-05 1.239751650056e-02 0.0 
0.0 0.0 0.0 
5.483828180196e-04 -2.531584201086e-03 0.0 
-2.531584201086e-03 5.203653416187e-04 0.0 
0.0 0.0 0.0 
-5.211692596180e-04 4.004618649222e-03 0.0 
4.004618649222e-03 1.091202911626e-02 0.0 
0.0 0.0 0.0 
3.364263300040e-04 4.095464875301e-03 0.0 
4.095464875301e-03 6.752451861624e-03 0.0 
0.0 0.0 0.0 
-1.319929629973e-03 1.663648842889e-04 0.0 
1.663648842889e-04 1.355824900188e-02 0.0 
0.0 0.0 0.0 
2.022440565240e-03 1.701994681642e-03 0.0 
1.701994681642e-03 2.290228366137e-03 0.0 
0.0 0.0 0.0 
2.421085896791e-03 3.279619695163e-03 0.0 
3.279619695163e-03 2.268600580082e-03 0.0 
0.0 0.0 0.0 
-7.985228464381e-04 1.187513743640e-04 0.0 
1.187513743640e-04 1.418547198119e-02 0.0 
0.0 0.0 0.0 
-1.856058615454e-03 1.286335762816e-04 0.0 
1.286335762816e-04 1.207314751495e-02 0.0 
0.0 0.0 0.0 
-3.427462428017e-04 -9.536579519998e-04 0.0 
-9.536579519998e-04 6.405671781013e-04 0.0 
0.0 0.0 0.0 
-8.488825067296e-04 -1.738764227170e-04 0.0 
-1.738764227170e-04 4.548859171201e-03 0.0 
0.0 0.0 0.0 
-1.409418296675e-03 3.492671070759e-03 0.0 
3.492671070759e-03 4.615705318461e-03 0.0 
0.0 0.0 0.0 
-5.936251795381e-04 3.835776208938e-03 0.0 
3.835776208938e-03 3.067424657339e-03 0.0 
0.0 0.0 0.0 
-4.168865240478e-04 3.932305746640e-03 0.0 
3.932305746640e-03 1.705194891077e-03 0.0 
0.0 0.0 0.0 
-9.077130123407e-04 -6.809065272503e-04 0.0 
-6.809065272503e-04 2.587308942682e-03 0.0 
0.0 0.0 0.0 
-3.787429621694e-04 -2.701319227776e-03 0.0 
-2.701319227776e-03 4.472168322039e-04 0.0 
0.0 0.0 0.0 
-1.237516844625e-03 3.615102190890e-03 0.0 
3.615102190890e-03 3.322147583088e-03 0.0 
0.0 0.0 0.0 
1.215951480845e-03 2.121188259718e-03 0.0 
2.121188259718e-03 3.665506286554e-03 0.0 
0.0 0.0 0.0 
-2.104269377099e-03 4.670032299977e-04 0.0 
4.670032299977e-04 1.241559624339e-02 0.0 
0.0 0.0 0.0 
1.688018160193e-03 3.443696078632e-03 0.0 
3.443696078632e-03 3.866743047305e-03 0.0 
0.0 0.0 0.0 
-1.236734880280e-03 3.698510868915e-03 0.0 
3.698510868915e-03 2.104920838739e-03 0.0 
0.0 0.0 0.0 
-8.094412787143e-04 2.098231564827e-03 0.0 
2.098231564827e-03 1.374798005776e-02 0.0 
0.0 0.0 0.0 
8.872398509875e-04 3.573865387343e-03 0.0 
3.573865387343e-03 5.336909693226e-03 0.0 
0.0 0.0 0.0 
1.436107776306e-04 -4.052146265047e-04 0.0 
-4.052146265047e-04 4.913775082350e-03 0.0 
0.0 0.0 0.0 
1.338161961583e-03 3.463164844291e-03 0.0 
3.463164844291e-03 4.545664557111e-03 0.0 
0.0 0.0 0.0 
-2.660592110364e-04 4.065307803060e-03 0.0 
4.065307803060e-03 2.190309722986e-04 0.0 
0.0 0.0 0.0 
-2.399434908492e-03 1.195270320682e-03 0.0 
1.195270320682e-03 1.248628446501e-02 0.0 
0.0 0.0 0.0 
7.755930235716e-05 4.331300224752e-03 0.0 
4.331300224752e-03 8.408090296322e-03 0.0 
0.0 0.0 0.0 
-1.205513358488e-03 2.810803825307e-04 0.0 
2.810803825307e-04 1.378189892256e-02 0.0 
0.0 0.0 0.0 
2.280236799408e-05 -4.773950643828e-04 0.0 
-4.773950643828e-04 5.266248607246e-03 0.0 
0.0 0.0 0.0 
-2.290625702061e-03 6.784903614481e-04 0.0 
6.784903614481e-04 1.232841332384e-02 0.0 
0.0 0.0 0.0 
-5.407091207331e-04 5.493764547229e-04 0.0 
5.493764547229e-04 1.436868490604e-02 0.0 
0.0 0.0 0.0 
3.034638031822e-03 -2.425225515356e-03 0.0 
-2.425225515356e-03 -3.924119441267e-03 0.0 
0.0 0.0 0.0 
-5.125132611107e-04 2.840334320978e-04 0.0 
2.840334320978e-04 1.439929704131e-02 0.0 
0.0 0.0 0.0 
-7.434460324804e-04 3.919988373434e-03 0.0 
3.919988373434e-03 9.603153639017e-03 0.0 
0.0 0.0 0.0 
-1.692143979486e-03 2.382276967871e-04 0.0 
2.382276967871e-04 1.286041946854e-02 0.0 
0.0 0.0 0.0 
-2.533362981230e-03 1.668221992965e-03 0.0 
1.668221992965e-03 1.217801013968e-02 0.0 
0.0 0.0 0.0 
-2.598922418921e-04 -2.771796214166e-04 0.0 
-2.771796214166e-04 5.590198131451e-03 0.0 
0.0 0.0 0.0 
-7.174723359327e-04 3.586616911376e-03 0.0 
3.586616911376e-03 1.195312181087e-02 0.0 
0.0 0.0 0.0 
-1.075074650664e-04 4.112248266077e-03 0.0 
4.112248266077e-03 -1.032925181770e-03 0.0 
0.0 0.0 0.0 
-1.361942538060e-03 2.528635539549e-04 0.0 
2.528635539549e-04 1.354310128320e-02 0.0 
0.0 0.0 0.0 
-9.741850768932e-04 -1.034622263400e-03 0.0 
-1.034622263400e-03 2.855879090361e-03 0.0 
0.0 0.0 0.0 
4.692298320730e-04 -1.985949381073e-03 0.0 
-1.985949381073e-03 -3.892766383956e-03 0.0 
0.0 0.0 0.0 
5.271047754670e-04 -2.026017012730e-04 0.0 
-2.026017012730e-04 4.030031463824e-03 0.0 
0.0 0.0 0.0 
-5.633929042236e-04 4.000761601356e-03 0.0 
4.000761601356e-03 9.811107906496e-03 0.0 
0.0 0.0 0.0 
-1.810148911814e-04 -4.111314655806e-04 0.0 
-4.111314655806e-04 5.369117892186e-03 0.0 
0.0 0.0 0.0 
1.040259323833e-03 -3.277547638712e-05 0.0 
-3.277547638712e-05 4.647602207101e-04 0.0 
0.0 0.0 0.0 
2.004635818786e-04 -6.040017416433e-04 0.0 
-6.040017416433e-04 3.888144550956e-04 0.0 
0.0 0.0 0.0 
7.381848210714e-04 1.807108752170e-04 0.0 
1.807108752170e-04 3.762340569566e-03 0.0 
0.0 0.0 0.0 
-2.616767574606e-04 4.274974185449e-03 0.0 
4.274974185449e-03 9.828783818724e-03 0.0 
0.0 0.0 0.0 
2.656693193159e-03 -3.038842080380e-03 0.0 
-3.038842080380e-03 -2.849836999428e-03 0.0 
0.0 0.0 0.0 
-3.354329076175e-04 1.834930128599e-03 0.0 
1.834930128599e-03 1.410874780912e-02 0.0 
0.0 0.0 0.0 
-5.794000948913e-04 3.664631340500e-03 0.0 
3.664631340500e-03 -2.057074481661e-03 0.0 
0.0 0.0 0.0 
-1.969003268516e-03 2.045996247178e-04 0.0 
2.045996247178e-04 1.204095728652e-02 0.0 
0.0 0.0 0.0 
8.547174500787e-04 -4.769552733521e-04 0.0 
-4.769552733521e-04 1.718661055938e-04 0.0 
0.0 0.0 0.0 
-3.418043186070e-05 -4.818604664897e-04 0.0 
-4.818604664897e-04 5.489734639184e-03 0.0 
0.0 0.0 0.0 
-6.537908728526e-04 1.357842799833e-03 0.0 
1.357842799833e-03 1.416961149764e-02 0.0 
0.0 0.0 0.0 
-1.149704430925e-03 -6.872944555299e-04 0.0 
-6.872944555299e-04 3.282854943658e-03 0.0 
0.0 0.0 0.0 
-2.632579141255e-03 1.237567697008e-03 0.0 
1.237567697008e-03 1.182875602721e-02 0.0 
0.0 0.0 0.0 
-7.946105429361e-04 -4.106328951243e-04 0.0 
-4.106328951243e-04 2.449457562907e-03 0.0 
0.0 0.0 0.0 
6.756504386916e-04 4.038081499375e-03 0.0 
4.038081499375e-03 6.357433832074e-03 0.0 
0.0 0.0 0.0 
-4.380054777160e-04 -1.568414837577e-03 0.0 
-1.568414837577e-03 7.994056559130e-04 0.0 
0.0 0.0 0.0 
-5.731866609304e-04 1.001498048820e-03 0.0 
1.001498048820e-03 1.429842161648e-02 0.0 
0.0 0.0 0.0 
9.230270447470e-04 7.390287261297e-04 0.0 
7.390287261297e-04 3.582145480846e-03 0.0 
0.0 0.0 0.0 
-7.613626689692e-04 2.817535598507e-03 0.0 
2.817535598507e-03 1.315759500039e-02 0.0 
0.0 0.0 0.0 
4.703404362868e-04 2.937321244903e-03 0.0 
2.937321244903e-03 5.167376262480e-03 0.0 
0.0 0.0 0.0 
9.645259418509e-05 1.073011577421e-03 0.0 
1.073011577421e-03 -4.223531711394e-03 0.0 
0.0 0.0 0.0 
6.581881059011e-04 3.846305460178e-03 0.0 
3.846305460178e-03 6.011016586655e-03 0.0 
0.0 0.0 0.0 
1.550138751807e-03 1.168008251186e-03 0.0 
1.168008251186e-03 2.780621956285e-03 0.0 
0.0 0.0 0.0 
-1.793607411986e-03 9.604439031846e-05 0.0 
9.604439031846e-05 1.206243452821e-02 0.0 
0.0 0.0 0.0 
-7.629651711876e-04 3.239630348205e-03 0.0 
3.239630348205e-03 1.255194981872e-02 0.0 
0.0 0.0 0.0 
-1.040889219414e-03 -6.890345493231e-04 0.0 
-6.890345493231e-04 2.839281828037e-03 0.0 
0.0 0.0 0.0 
2.636263784370e-04 -6.022752859635e-04 0.0 
-6.022752859635e-04 1.006400323763e-03 0.0 
0.0 0.0 0.0 
-2.307689195925e-04 1.191860264823e-04 0.0 
1.191860264823e-04 1.458680345217e-02 0.0 
0.0 0.0 0.0 
2.329384216501e-03 -8.151775661084e-06 0.0 
-8.151775661084e-06 -7.949947351131e-04 0.0 
0.0 0.0 0.0 
-1.713374855633e-03 8.790411884035e-06 0.0 
8.790411884035e-06 1.201940421983e-02 0.0 
0.0 0.0 0.0 
-1.546364293997e-04 -8.020366004802e-05 0.0 
-8.020366004802e-05 5.955126485194e-03 0.0 
0.0 0.0 0.0 
5.172189490961e-04 -3.267068021249e-04 0.0 
-3.267068021249e-04 9.107212077479e-04 0.0 
0.0 0.0 0.0 
-1.649030858105e-03 6.847242109566e-05 0.0 
6.847242109566e-05 1.265857927773e-02 0.0 
0.0 0.0 0.0 
-3.751844063197e-04 4.175807169423e-03 0.0 
4.175807169423e-03 1.041225218693e-02 0.0 
0.0 0.0 0.0 
-1.153016792522e-03 -1.746092447281e-04 0.0 
-1.746092447281e-04 3.888937988165e-03 0.0 
0.0 0.0 0.0 
-9.403848654556e-04 1.970303953278e-04 0.0 
1.970303953278e-04 1.404500890507e-02 0.0 
0.0 0.0 0.0 
3.358501445498e-04 -3.256847122524e-03 0.0 
-3.256847122524e-03 -3.813259949311e-04 0.0 
0.0 0.0 0.0 
-2.150429940843e-03 -6.015922505003e-04 0.0 
-6.015922505003e-04 -3.655767455760e-03 0.0 
0.0 0.0 0.0 
-1.464142220512e-03 1.138810228824e-04 0.0 
1.138810228824e-04 1.327354959915e-02 0.0 
0.0 0.0 0.0 
9.034805123897e-04 3.348365511527e-03 0.0 
3.348365511527e-03 5.016821739838e-03 0.0 
0.0 0.0 0.0 
-7.269161773215e-04 2.344493634628e-03 0.0 
2.344493634628e-03 1.362198963749e-02 0.0 
0.0 0.0 0.0 
-1.615052660013e-03 2.333548582146e-04 0.0 
2.333548582146e-04 1.304818220663e-02 0.0 
0.0 0.0 0.0 
1.189782105001e-03 3.777333112173e-03 0.0 
3.777333112173e-03 -2.194210643452e-03 0.0 
0.0 0.0 0.0 
-4.293639683707e-04 4.125787247129e-03 0.0 
4.125787247129e-03 9.978889198261e-03 0.0 
0.0 0.0 0.0 
-1.124793903589e-03 -6.880400911524e-04 0.0 
-6.880400911524e-04 3.415129227594e-03 0.0 
0.0 0.0 0.0 
2.098033097649e-04 4.232950626682e-03 0.0 
4.232950626682e-03 7.765145103754e-03 0.0 
0.0 0.0 0.0 
1.593201085165e-03 1.825964353930e-03 0.0 
1.825964353930e-03 3.004704325606e-03 0.0 
0.0 0.0 0.0 
-1.748090882540e-03 3.846708142479e-03 0.0 
3.846708142479e-03 -1.395228111621e-03 0.0 
0.0 0.0 0.0 
-1.077089303648e-03 -1.395284530995e-04 0.0 
-1.395284530995e-04 4.079698644249e-03 0.0 
0.0 0.0 0.0 
6.872144286893e-04 -5.137811851971e-04 0.0 
-5.137811851971e-04 1.931748644689e-04 0.0 
0.0 0.0 0.0 
1.821795778035e-04 -4.595510128124e-04 0.0 
-4.595510128124e-04 4.692588067103e-03 0.0 
0.0 0.0 0.0 
-1.167661100786e-03 -4.770128188207e-04 0.0 
-4.770128188207e-04 3.599075095480e-03 0.0 
0.0 0.0 0.0 
-2.363873671638e-03 1.158228446193e-03 0.0 
1.158228446193e-03 1.040949130855e-02 0.0 
0.0 0.0 0.0 
-1.702275418920e-03 5.896762116078e-07 0.0 
5.896762116078e-07 1.062951818259e-02 0.0 
0.0 0.0 0.0 
-2.494943226086e-03 1.098640710482e-03 0.0 
1.098640710482e-03 1.081133705270e-02 0.0 
0.0 0.0 0.0 
-1.706641184295e-03 -5.633895580469e-06 0.0 
-5.633895580469e-06 1.109113848404e-02 0.0 
0.0 0.0 0.0 
-2.611851927828e-03 9.905491939155e-04 0.0 
9.905491939155e-04 1.131189290090e-02 0.0 
0.0 0.0 0.0 
-1.721804603301e-03 5.426389088082e-06 0.0 
5.426389088082e-06 1.149983116792e-02 0.0 
0.0 0.0 0.0 

TENSORS node_materi_strain_plasti float
2.934499401238e-03 -6.293764513238e-05 0.0 
-6.293764513238e-05 -1.067748591947e-03 0.0 
0.0 0.0 -1.096634683480e-04 
-1.402797370443e-03 -1.078294972551e-04 0.0 
-1.078294972551e-04 4.900277451411e-03 0.0 
0.0 0.0 -6.959116756397e-04 
-1.452967895051e-03 -5.509598229541e-05 0.0 
-5.509598229541e-05 7.203997768270e-03 0.0 
0.0 0.0 -1.332621093165e-03 
-1.383162840862e-03 -3.297498286580e-05 0.0 
-3.297498286580e-05 8.816768276200e-03 0.0 
0.0 0.0 -1.332621093165e-03 
2.013745495957e-03 -6.316916865917e-05 0.0 
-6.316916865917e-05 -5.120452549012e-04 0.0 
0.0 0.0 -2.200719611176e-04 
9.770148188976e-04 3.431498766894e-05 0.0 
3.431498766894e-05 4.169221136190e-04 0.0 
0.0 0.0 -3.137585542919e-04 
-7.178028314759e-05 -1.232028049962e-08 0.0 
-1.232028049962e-08 1.149279144839e-03 0.0 
0.0 0.0 -2.794359002296e-04 
-6.436375512209e-04 -1.276790241492e-05 0.0 
-1.276790241492e-05 1.873669559697e-03 0.0 
0.0 0.0 -3.439875543896e-04 
-7.879199919424e-04 -6.957800867177e-05 0.0 
-6.957800867177e-05 2.362265819291e-03 0.0 
0.0 0.0 -5.230155850880e-04 
-9.090757292185e-04 -8.706192601079e-05 0.0 
-8.706192601079e-05 2.790274002592e-03 0.0 
0.0 0.0 -6.679173279409e-04 
-1.029732123068e-03 -9.763895695819e-05 0.0 
-9.763895695819e-05 3.189834221624e-03 0.0 
0.0 0.0 -7.858430676574e-04 
-1.146480183378e-03 -1.186695020361e-04 0.0 
-1.186695020361e-04 3.556707151380e-03 0.0 
0.0 0.0 -8.797909670055e-04 
-1.263272361791e-03 -1.272958726748e-04 0.0 
-1.272958726748e-04 3.899470374148e-03 0.0 
0.0 0.0 -9.497524971825e-04 
-1.384672616284e-03 -1.145152012545e-04 0.0 
-1.145152012545e-04 4.236966414279e-03 0.0 
0.0 0.0 -1.004045332643e-03 
-1.526674903082e-03 -6.496102058636e-05 0.0 
-6.496102058636e-05 4.605045077914e-03 0.0 
0.0 0.0 -1.040527029177e-03 
-1.665462947768e-03 -2.107388054909e-05 0.0 
-2.107388054909e-05 4.948618842847e-03 0.0 
0.0 0.0 -1.059523297737e-03 
-1.782894097401e-03 -3.343512703910e-06 0.0 
-3.343512703910e-06 5.233549116132e-03 0.0 
0.0 0.0 -1.072054170059e-03 
-1.938902930101e-03 -9.696053467476e-05 0.0 
-9.696053467476e-05 5.600248017308e-03 0.0 
0.0 0.0 -1.073655443973e-03 
-2.100363589718e-03 -8.662704783515e-05 0.0 
-8.662704783515e-05 5.970821215845e-03 0.0 
0.0 0.0 -1.067605311830e-03 
-2.135124898814e-03 -7.268436157999e-05 0.0 
-7.268436157999e-05 6.300803109141e-03 0.0 
0.0 0.0 -1.091655094700e-03 
-2.004143563035e-03 -6.534761213825e-05 0.0 
-6.534761213825e-05 6.588381292475e-03 0.0 
0.0 0.0 -1.158330123333e-03 
-1.835283495390e-03 -5.008648858264e-05 0.0 
-5.008648858264e-05 6.864752160643e-03 0.0 
0.0 0.0 -1.226073836101e-03 
-1.640741500190e-03 -2.858138524020e-05 0.0 
-2.858138524020e-05 7.123085926045e-03 0.0 
0.0 0.0 -1.289832767750e-03 
-1.368677421570e-03 1.600785886141e-04 0.0 
1.600785886141e-04 8.818553082708e-03 0.0 
0.0 0.0 -1.336902025401e-03 
-1.377365391022e-03 2.999124352866e-04 0.0 
2.999124352866e-04 8.800585598907e-03 0.0 
0.0 0.0 -1.332945767435e-03 
-1.378029629414e-03 3.844218527142e-04 0.0 
3.844218527142e-04 8.780564209488e-03 0.0 
0.0 0.0 -1.334903170087e-03 
-1.378699113984e-03 6.281396802948e-04 0.0 
6.281396802948e-04 8.766528136653e-03 0.0 
0.0 0.0 -1.334459899807e-03 
-1.385861616700e-03 7.361442488981e-04 0.0 
7.361442488981e-04 8.736115872586e-03 0.0 
0.0 0.0 -1.332067731643e-03 
-1.380170718422e-03 9.112443166240e-04 0.0 
9.112443166240e-04 8.705993944759e-03 0.0 
0.0 0.0 -1.335050935171e-03 
-1.376694153872e-03 1.085769035599e-03 0.0 
1.085769035599e-03 8.675777653225e-03 0.0 
0.0 0.0 -1.335055123498e-03 
-1.386603367251e-03 1.256067884305e-03 0.0 
1.256067884305e-03 8.631282104952e-03 0.0 
0.0 0.0 -1.333530254363e-03 
-1.385927681412e-03 1.401216317866e-03 0.0 
1.401216317866e-03 8.584979043230e-03 0.0 
0.0 0.0 -1.336259905589e-03 
-1.382886472311e-03 1.656515799073e-03 0.0 
1.656515799073e-03 8.524207830888e-03 0.0 
0.0 0.0 -1.335712483792e-03 
-1.394014418558e-03 1.806002472474e-03 0.0 
1.806002472474e-03 8.445999086005e-03 0.0 
0.0 0.0 -1.333313947604e-03 
-1.390408237112e-03 2.011066343467e-03 0.0 
2.011066343467e-03 8.361388601017e-03 0.0 
0.0 0.0 -1.335862559377e-03 
-1.384222329824e-03 2.219576262539e-03 0.0 
2.219576262539e-03 8.276324698237e-03 0.0 
0.0 0.0 -1.336097458551e-03 
-1.389035125892e-03 2.412450494632e-03 0.0 
2.412450494632e-03 8.157453667495e-03 0.0 
0.0 0.0 -1.335235043394e-03 
-1.385735689378e-03 2.596152172723e-03 0.0 
2.596152172723e-03 8.026403168300e-03 0.0 
0.0 0.0 -1.334297546486e-03 
-1.387385464636e-03 2.793709716201e-03 0.0 
2.793709716201e-03 7.870413974245e-03 0.0 
0.0 0.0 -1.332308435384e-03 
-1.390045521020e-03 2.956478596536e-03 0.0 
2.956478596536e-03 7.707669454312e-03 0.0 
0.0 0.0 -1.332019584455e-03 
-1.374441407390e-03 3.130356841580e-03 0.0 
3.130356841580e-03 7.548288379511e-03 0.0 
0.0 0.0 -1.333392124151e-03 
-1.370916614240e-03 3.263121805825e-03 0.0 
3.263121805825e-03 7.369253492750e-03 0.0 
0.0 0.0 -1.334727449481e-03 
-1.360841402714e-03 3.372289688876e-03 0.0 
3.372289688876e-03 7.166176364928e-03 0.0 
0.0 0.0 -1.336576889699e-03 
-1.346336485325e-03 3.461253780169e-03 0.0 
3.461253780169e-03 6.951403103377e-03 0.0 
0.0 0.0 -1.335888391555e-03 
-1.332890796825e-03 3.468370162717e-03 0.0 
3.468370162717e-03 6.730314385053e-03 0.0 
0.0 0.0 -1.334783226448e-03 
-1.319924003398e-03 3.447235553293e-03 0.0 
3.447235553293e-03 6.491181615044e-03 0.0 
0.0 0.0 -1.335053869153e-03 
-1.304557536433e-03 3.357836383275e-03 0.0 
3.357836383275e-03 6.252969737423e-03 0.0 
0.0 0.0 -1.334960189349e-03 
-1.290544710403e-03 3.217570000044e-03 0.0 
3.217570000044e-03 6.038359705784e-03 0.0 
0.0 0.0 -1.334889991128e-03 
-1.266052279295e-03 3.015967340183e-03 0.0 
3.015967340183e-03 5.820251815716e-03 0.0 
0.0 0.0 -1.335774086633e-03 
-1.268292395628e-03 2.751499810292e-03 0.0 
2.751499810292e-03 5.611006951901e-03 0.0 
0.0 0.0 -1.336605656894e-03 
-1.233716587758e-03 2.428663332176e-03 0.0 
2.428663332176e-03 5.432453778555e-03 0.0 
0.0 0.0 -1.336508443943e-03 
-1.235192718271e-03 2.048692266400e-03 0.0 
2.048692266400e-03 5.281516895731e-03 0.0 
0.0 0.0 -1.335343284290e-03 
-1.233233161047e-03 1.613443115418e-03 0.0 
1.613443115418e-03 5.176753839955e-03 0.0 
0.0 0.0 -1.337998490269e-03 
-1.231527167288e-03 1.237296422517e-03 0.0 
1.237296422517e-03 5.075978590578e-03 0.0 
0.0 0.0 -1.337247094005e-03 
-1.199833465241e-03 7.660071193524e-04 0.0 
7.660071193524e-04 4.984249579952e-03 0.0 
0.0 0.0 -1.333783489999e-03 
-1.202795443341e-03 2.512512957567e-04 0.0 
2.512512957567e-04 4.957451962835e-03 0.0 
0.0 0.0 -1.334548731617e-03 
-1.209938913942e-03 -2.134028709971e-04 0.0 
-2.134028709971e-04 5.026425426342e-03 0.0 
0.0 0.0 -1.334619746794e-03 
-1.216034057197e-03 -6.370386973179e-04 0.0 
-6.370386973179e-04 5.098251117921e-03 0.0 
0.0 0.0 -1.335242115105e-03 
-1.250273571860e-03 -1.037169625291e-03 0.0 
-1.037169625291e-03 5.212102119693e-03 0.0 
0.0 0.0 -1.335691437541e-03 
-1.244652277412e-03 -1.350985257247e-03 0.0 
-1.350985257247e-03 5.369562904984e-03 0.0 
0.0 0.0 -1.335646478247e-03 
-1.280185566221e-03 -1.619011709695e-03 0.0 
-1.619011709695e-03 5.525208807417e-03 0.0 
0.0 0.0 -1.334931242407e-03 
-1.279873673449e-03 -1.816253781483e-03 0.0 
-1.816253781483e-03 5.699667194469e-03 0.0 
0.0 0.0 -1.334100791702e-03 
-1.316092894892e-03 -1.930306284798e-03 0.0 
-1.930306284798e-03 5.897360744271e-03 0.0 
0.0 0.0 -1.332237298415e-03 
-1.332492949627e-03 -1.997739486340e-03 0.0 
-1.997739486340e-03 6.101236304603e-03 0.0 
0.0 0.0 -1.333749945600e-03 
-1.347535005711e-03 -1.949980560505e-03 0.0 
-1.949980560505e-03 6.326575568891e-03 0.0 
0.0 0.0 -1.336652505695e-03 
-1.361718678089e-03 -1.883685554895e-03 0.0 
-1.883685554895e-03 6.509663460433e-03 0.0 
0.0 0.0 -1.337094627689e-03 
-1.399643089063e-03 -1.709140483279e-03 0.0 
-1.709140483279e-03 6.643034708910e-03 0.0 
0.0 0.0 -1.328990728106e-03 
-1.392288690639e-03 -1.485263022766e-03 0.0 
-1.485263022766e-03 6.836967868930e-03 0.0 
0.0 0.0 -1.335900064369e-03 
-1.414556676199e-03 -1.251540022059e-03 0.0 
-1.251540022059e-03 6.954271934946e-03 0.0 
0.0 0.0 -1.332523500780e-03 
-1.412496609790e-03 -1.031814538929e-03 0.0 
-1.031814538929e-03 7.047562735813e-03 0.0 
0.0 0.0 -1.335219049675e-03 
-1.419510763784e-03 -6.645626228058e-04 0.0 
-6.645626228058e-04 7.146959411296e-03 0.0 
0.0 0.0 -1.336566422126e-03 
-1.427684607805e-03 -3.887077461759e-04 0.0 
-3.887077461759e-04 7.195451913880e-03 0.0 
0.0 0.0 -1.335855682064e-03 
-1.453017564014e-03 -6.969271926299e-05 0.0 
-6.969271926299e-05 5.335351891541e-03 0.0 
0.0 0.0 -7.648954205800e-04 
-1.520880417330e-03 -7.433446925198e-05 0.0 
-7.433446925198e-05 5.819919600560e-03 0.0 
0.0 0.0 -8.298981322982e-04 
-1.557423966696e-03 -6.785219458369e-05 0.0 
-6.785219458369e-05 6.258440284560e-03 0.0 
0.0 0.0 -8.959277352460e-04 
-1.578985001560e-03 -6.738694350763e-05 0.0 
-6.738694350763e-05 6.671688470532e-03 0.0 
0.0 0.0 -9.610467530554e-04 
-1.585789406967e-03 -5.141559601497e-05 0.0 
-5.141559601497e-05 7.089803706817e-03 0.0 
0.0 0.0 -1.026987810050e-03 
-1.562649818793e-03 -5.245167551875e-05 0.0 
-5.245167551875e-05 7.497011482479e-03 0.0 
0.0 0.0 -1.092790196867e-03 
-1.539445803207e-03 -3.968004133447e-05 0.0 
-3.968004133447e-05 7.888080790164e-03 0.0 
0.0 0.0 -1.158290425478e-03 
-1.493157212652e-03 -4.236338247705e-05 0.0 
-4.236338247705e-05 8.249034422054e-03 0.0 
0.0 0.0 -1.224481705251e-03 
-1.439591118906e-03 -4.822262499776e-05 0.0 
-4.822262499776e-05 8.655254164316e-03 0.0 
0.0 0.0 -1.288782062784e-03 
8.898824484708e-06 5.173445441763e-04 0.0 
5.173445441763e-04 -8.898824484706e-06 0.0 
0.0 0.0 0.0 
-1.624278093923e-03 1.090396231210e-03 0.0 
1.090396231210e-03 4.601022683819e-03 0.0 
0.0 0.0 -7.280202007920e-04 
-3.628590103710e-06 1.585419340884e-03 0.0 
1.585419340884e-03 4.192028744936e-04 0.0 
0.0 0.0 -1.781032647385e-04 
2.419898888436e-04 1.714650012296e-03 0.0 
1.714650012296e-03 7.169103887313e-04 0.0 
0.0 0.0 -4.109572618178e-04 
1.972324976643e-04 1.872166137481e-03 0.0 
1.872166137481e-03 8.763202269977e-04 0.0 
0.0 0.0 -4.600940248552e-04 
-9.545047460221e-07 1.772850678572e-03 0.0 
1.772850678572e-03 1.137689485315e-03 0.0 
0.0 0.0 -4.871721345294e-04 
-2.294684798328e-04 1.727305058981e-03 0.0 
1.727305058981e-03 1.576796951367e-03 0.0 
0.0 0.0 -5.774264878005e-04 
-4.707427197219e-04 1.761151682502e-03 0.0 
1.761151682502e-03 2.189479290700e-03 0.0 
0.0 0.0 -7.366013875622e-04 
-7.822762132834e-04 1.687187949034e-03 0.0 
1.687187949034e-03 2.877163584185e-03 0.0 
0.0 0.0 -8.028999617145e-04 
-1.068442602319e-03 1.392543525831e-03 0.0 
1.392543525831e-03 3.387126047545e-03 0.0 
0.0 0.0 -7.502339878794e-04 
-1.352818007869e-03 1.227157706519e-03 0.0 
1.227157706519e-03 3.981454431592e-03 0.0 
0.0 0.0 -7.303644794522e-04 
-1.137867514072e-03 -1.718346714902e-04 0.0 
-1.718346714902e-04 3.665184546658e-03 0.0 
0.0 0.0 -5.155555555556e-04 
-1.186861804691e-03 -2.063993814702e-04 0.0 
-2.063993814702e-04 3.930451098783e-03 0.0 
0.0 0.0 -5.600000000000e-04 
-1.284181826536e-03 -1.411246795881e-04 0.0 
-1.411246795881e-04 4.401802096581e-03 0.0 
0.0 0.0 -6.266666666667e-04 
-1.371869470260e-03 5.987426434916e-05 0.0 
5.987426434916e-05 4.821720366173e-03 0.0 
0.0 0.0 -6.874962403976e-04 
-1.373883297749e-03 1.733970713616e-05 0.0 
1.733970713616e-05 4.853900323376e-03 0.0 
0.0 0.0 -6.910932206029e-04 
-1.391096625977e-03 2.696117286623e-05 0.0 
2.696117286623e-05 4.858420634372e-03 0.0 
0.0 0.0 -6.911911970487e-04 
-1.403621533613e-03 2.899157745045e-05 0.0 
2.899157745045e-05 4.851539021186e-03 0.0 
0.0 0.0 -6.903356507966e-04 
-1.422086472761e-03 7.127286506100e-05 0.0 
7.127286506100e-05 4.925418991949e-03 0.0 
0.0 0.0 -6.980756478071e-04 
-1.440013737492e-03 8.905228061672e-05 0.0 
8.905228061672e-05 4.855137559965e-03 0.0 
0.0 0.0 -6.911448554634e-04 
-1.457810866496e-03 1.124854279040e-04 0.0 
1.124854279040e-04 4.842862400746e-03 0.0 
0.0 0.0 -6.903833977050e-04 
-1.485479761852e-03 1.763889665616e-04 0.0 
1.763889665616e-04 4.844524201239e-03 0.0 
0.0 0.0 -6.905588330458e-04 
-1.530071715646e-03 2.314067896651e-04 0.0 
2.314067896651e-04 4.843027902445e-03 0.0 
0.0 0.0 -6.922444453805e-04 
-1.565434249602e-03 3.199826070801e-04 0.0 
3.199826070801e-04 4.827774349685e-03 0.0 
0.0 0.0 -6.916098530255e-04 
-1.592220907441e-03 4.164385463974e-04 0.0 
4.164385463974e-04 4.800836260159e-03 0.0 
0.0 0.0 -6.911665914957e-04 
-1.624093306590e-03 5.379923244308e-04 0.0 
5.379923244308e-04 4.762121973516e-03 0.0 
0.0 0.0 -6.926885898885e-04 
-1.636272666442e-03 7.038956101205e-04 0.0 
7.038956101205e-04 4.710840836171e-03 0.0 
0.0 0.0 -6.980272606831e-04 
-1.642234561257e-03 8.946537782645e-04 0.0 
8.946537782645e-04 4.660104212790e-03 0.0 
0.0 0.0 -7.070206663417e-04 
0.0 0.0 0.0 
0.0 0.0 0.0 
0.0 0.0 0.0 
0.0 0.0 0.0 
0.0 0.0 0.0 
0.0 0.0 0.0 
0.0 0.0 0.0 
0.0 0.0 0.0 
0.0 0.0 0.0 
0.0 0.0 0.0 
0.0 0.0 0.0 
0.0 0.0 0.0 
0.0 0.0 0.0 
0.0 0.0 0.0 
0.0 0.0 0.0 
6.460969664659e-05 -1.556902627030e-04 0.0 
-1.556902627030e-04 3.828112054754e-05 0.0 
0.0 0.0 -4.409606451177e-05 
2.290958672754e-04 -1.825778835954e-04 0.0 
-1.825778835954e-04 1.295802149226e-05 0.0 
0.0 0.0 -6.349991864517e-05 
3.258301092639e-04 -1.495010221350e-04 0.0 
-1.495010221350e-04 5.825232736603e-05 0.0 
0.0 0.0 -6.729406355132e-05 
4.308097979006e-04 -2.272179296947e-04 0.0 
-2.272179296947e-04 4.144525422736e-05 0.0 
0.0 0.0 -5.004267624003e-05 
7.170242557017e-04 -3.798682189908e-04 0.0 
-3.798682189908e-04 -8.718929718944e-05 0.0 
0.0 0.0 -5.423469082675e-05 
1.016505377143e-03 -3.706654485886e-04 0.0 
-3.706654485886e-04 -2.196691987021e-04 0.0 
0.0 0.0 -6.924701466199e-05 
1.374691841568e-03 -3.600731207399e-04 0.0 
-3.600731207399e-04 -3.650587174241e-04 0.0 
0.0 0.0 -8.456438766380e-05 
1.776444192994e-03 -3.135747337774e-04 0.0 
-3.135747337774e-04 -5.394471043759e-04 0.0 
0.0 0.0 -1.145437528706e-04 
2.116489510919e-03 -3.092434709054e-04 0.0 
-3.092434709054e-04 -6.971504040322e-04 0.0 
0.0 0.0 -1.122699804219e-04 
2.340534228900e-03 -2.489648393755e-04 0.0 
-2.489648393755e-04 -7.939335318199e-04 0.0 
0.0 0.0 -1.135261812993e-04 
2.545448873624e-03 -1.895106937816e-04 0.0 
-1.895106937816e-04 -8.695809182027e-04 0.0 
0.0 0.0 -1.151526711856e-04 
2.708912883130e-03 -1.592234908312e-04 0.0 
-1.592234908312e-04 -9.353356256089e-04 0.0 
0.0 0.0 -1.168504208365e-04 
2.867102977547e-03 -9.067089989766e-05 0.0 
-9.067089989766e-05 -1.037120165575e-03 0.0 
0.0 0.0 -1.138900488129e-04 
3.013559206580e-03 5.775462477208e-05 0.0 
5.775462477208e-05 -1.103986210354e-03 0.0 
0.0 0.0 -1.064965418423e-04 
-9.419583581329e-04 1.380748173383e-03 0.0 
1.380748173383e-03 3.087371082807e-03 0.0 
0.0 0.0 -7.343869850786e-04 
-1.074168813697e-03 1.166146237087e-03 0.0 
1.166146237087e-03 3.303944754957e-03 0.0 
0.0 0.0 -6.945865061658e-04 
-1.180152059267e-03 9.162836655712e-04 0.0 
9.162836655712e-04 3.457110546190e-03 0.0 
0.0 0.0 -6.427512001824e-04 
-1.239637244429e-03 6.621616335996e-04 0.0 
6.621616335996e-04 3.535440891662e-03 0.0 
0.0 0.0 -6.116986350257e-04 
-1.292478496786e-03 4.746321886460e-04 0.0 
4.746321886460e-04 3.608514883147e-03 0.0 
0.0 0.0 -5.769973390350e-04 
-1.315014236746e-03 3.019137089059e-04 0.0 
3.019137089059e-04 3.655267939039e-03 0.0 
0.0 0.0 -5.557179490165e-04 
-1.308386318056e-03 1.724459623634e-04 0.0 
1.724459623634e-04 3.690693654111e-03 0.0 
0.0 0.0 -5.437140121231e-04 
-1.286687706253e-03 7.420366015765e-05 0.0 
7.420366015765e-05 3.710792643389e-03 0.0 
0.0 0.0 -5.373336366334e-04 
-1.266318606675e-03 2.873391118615e-06 0.0 
2.873391118615e-06 3.724558326526e-03 0.0 
0.0 0.0 -5.317805352142e-04 
-1.247936518243e-03 -4.850474730097e-05 0.0 
-4.850474730097e-05 3.733995125072e-03 0.0 
0.0 0.0 -5.265685096790e-04 
-1.229757703141e-03 -8.446214255870e-05 0.0 
-8.446214255870e-05 3.741751106729e-03 0.0 
0.0 0.0 -5.229629629630e-04 
-1.205165561137e-03 -1.014271368842e-04 0.0 
-1.014271368842e-04 3.745197068514e-03 0.0 
0.0 0.0 -5.229629629630e-04 
-1.181761547472e-03 -1.057666100622e-04 0.0 
-1.057666100622e-04 3.745218815560e-03 0.0 
0.0 0.0 -5.229629629630e-04 
-1.162782603124e-03 -1.032556717140e-04 0.0 
-1.032556717140e-04 3.744389432839e-03 0.0 
0.0 0.0 -5.229629629630e-04 
-1.147059514283e-03 -9.505934981289e-05 0.0 
-9.505934981289e-05 3.743744826693e-03 0.0 
0.0 0.0 -5.229629629630e-04 
-1.135541180948e-03 -8.143073967143e-05 0.0 
-8.143073967143e-05 3.743342626131e-03 0.0 
0.0 0.0 -5.229629629630e-04 
-1.126646320565e-03 -6.645671086941e-05 0.0 
-6.645671086941e-05 3.741290185665e-03 0.0 
0.0 0.0 -5.229629629630e-04 
-1.122997322511e-03 -5.261556533456e-05 0.0 
-5.261556533456e-05 3.693936410820e-03 0.0 
0.0 0.0 -5.229629629630e-04 
-1.088036540873e-03 8.729908930216e-05 0.0 
8.729908930216e-05 3.614358061946e-03 0.0 
0.0 0.0 -5.155555555556e-04 
-1.189994461039e-03 4.971329978173e-05 0.0 
4.971329978173e-05 3.933936678343e-03 0.0 
0.0 0.0 -5.600000000000e-04 
-1.189943494860e-03 -3.915048486870e-05 0.0 
-3.915048486870e-05 3.929295747162e-03 0.0 
0.0 0.0 -5.600000000000e-04 
-1.196995215316e-03 -6.619293072910e-05 0.0 
-6.619293072910e-05 3.927958942862e-03 0.0 
0.0 0.0 -5.600000000000e-04 
-1.209000108090e-03 -7.709460563794e-05 0.0 
-7.709460563794e-05 3.928987706667e-03 0.0 
0.0 0.0 -5.600000000000e-04 
-1.222591065312e-03 -8.087627347994e-05 0.0 
-8.087627347994e-05 3.928642048882e-03 0.0 
0.0 0.0 -5.600000000000e-04 
-1.242241496923e-03 -8.001653654516e-05 0.0 
-8.001653654516e-05 3.929767912219e-03 0.0 
0.0 0.0 -5.600000000000e-04 
-1.264776066821e-03 -7.096870869374e-05 0.0 
-7.096870869374e-05 3.930292006580e-03 0.0 
0.0 0.0 -5.600000000000e-04 
-1.291607559870e-03 -5.753569633380e-05 0.0 
-5.753569633380e-05 3.928177153315e-03 0.0 
0.0 0.0 -5.600000000000e-04 
-1.313480821163e-03 -2.264210671336e-05 0.0 
-2.264210671336e-05 3.919521392894e-03 0.0 
0.0 0.0 -5.618027733580e-04 
-1.334363465792e-03 3.032816973716e-05 0.0 
3.032816973716e-05 3.911166292933e-03 0.0 
0.0 0.0 -5.662115594836e-04 
-1.345626602697e-03 9.725453922173e-05 0.0 
9.725453922173e-05 3.895259009147e-03 0.0 
0.0 0.0 -5.743994467985e-04 
-1.356260887442e-03 1.893430820086e-04 0.0 
1.893430820086e-04 3.871741255735e-03 0.0 
0.0 0.0 -5.833032914833e-04 
-1.366012120890e-03 3.096264366290e-04 0.0 
3.096264366290e-04 3.841250700024e-03 0.0 
0.0 0.0 -5.938366679572e-04 
-1.351517243904e-03 4.620420004327e-04 0.0 
4.620420004327e-04 3.787895507316e-03 0.0 
0.0 0.0 -6.115999087365e-04 
-1.313173102658e-03 6.667035574404e-04 0.0 
6.667035574404e-04 3.730474013625e-03 0.0 
0.0 0.0 -6.360477204719e-04 
-1.260419596383e-03 8.991646670823e-04 0.0 
8.991646670823e-04 3.667954377089e-03 0.0 
0.0 0.0 -6.715110950050e-04 
-1.156777947287e-03 1.103879225283e-03 0.0 
1.103879225283e-03 3.481215616997e-03 0.0 
0.0 0.0 -6.945456224821e-04 
-1.413371839818e-03 9.869439785182e-04 0.0 
9.869439785182e-04 4.044630377487e-03 0.0 
0.0 0.0 -6.871907024512e-04 
-1.498556740945e-03 8.027277734388e-04 0.0 
8.027277734388e-04 4.217784539438e-03 0.0 
0.0 0.0 -6.754388315825e-04 
-1.517003084896e-03 6.032515853078e-04 0.0 
6.032515853078e-04 4.269979929512e-03 0.0 
0.0 0.0 -6.550211625735e-04 
-1.511553648353e-03 4.490191689128e-04 0.0 
4.490191689128e-04 4.314033839254e-03 0.0 
0.0 0.0 -6.432502374181e-04 
-1.500446210863e-03 3.184819489120e-04 0.0 
3.184819489120e-04 4.351230304708e-03 0.0 
0.0 0.0 -6.352144205724e-04 
-1.482245807683e-03 2.246627967315e-04 0.0 
2.246627967315e-04 4.377537132701e-03 0.0 
0.0 0.0 -6.294719905043e-04 
-1.455175852238e-03 1.513209258517e-04 0.0 
1.513209258517e-04 4.388941904323e-03 0.0 
0.0 0.0 -6.266666666667e-04 
-1.422377976552e-03 8.452613654984e-05 0.0 
8.452613654984e-05 4.398275898476e-03 0.0 
0.0 0.0 -6.266666666667e-04 
-1.387740669927e-03 5.055332934235e-05 0.0 
5.055332934235e-05 4.407309917814e-03 0.0 
0.0 0.0 -6.266666666667e-04 
-1.364267156085e-03 1.746043878918e-05 0.0 
1.746043878918e-05 4.408435903517e-03 0.0 
0.0 0.0 -6.266666666667e-04 
-1.340556828241e-03 2.310074790946e-06 0.0 
2.310074790946e-06 4.409446433091e-03 0.0 
0.0 0.0 -6.266666666667e-04 
-1.322009739859e-03 -1.793960035533e-05 0.0 
-1.793960035533e-05 4.409251285455e-03 0.0 
0.0 0.0 -6.266666666667e-04 
-1.309592160630e-03 -1.727365315460e-05 0.0 
-1.727365315460e-05 4.412670266398e-03 0.0 
0.0 0.0 -6.266666666667e-04 
-1.296178947065e-03 -2.233083817508e-05 0.0 
-2.233083817508e-05 4.407948356665e-03 0.0 
0.0 0.0 -6.266666666667e-04 
-1.291396798343e-03 -4.231649306782e-05 0.0 
-4.231649306782e-05 4.418716211488e-03 0.0 
0.0 0.0 -6.266666666667e-04 
-1.299258567356e-03 1.084144737729e-04 0.0 
1.084144737729e-04 4.428774256468e-03 0.0 
0.0 0.0 -6.266666666667e-04 
-1.515032132673e-04 2.090163861485e-03 0.0 
2.090163861485e-03 1.782439650480e-04 0.0 
0.0 0.0 -1.146032219169e-05 
1.936976575994e-04 1.398779559345e-03 0.0 
1.398779559345e-03 5.900772889955e-04 0.0 
0.0 0.0 -3.359035485407e-04 
2.417267202073e-04 1.838455165837e-03 0.0 
1.838455165837e-03 7.923036657008e-04 0.0 
0.0 0.0 -4.431558796749e-04 
1.101677228067e-04 1.834201385501e-03 0.0 
1.834201385501e-03 9.860182752854e-04 0.0 
0.0 0.0 -4.697939991823e-04 
-1.015326029610e-04 1.768813643197e-03 0.0 
1.768813643197e-03 1.327052849400e-03 0.0 
0.0 0.0 -5.252229627595e-04 
-3.500664412641e-04 1.776194894250e-03 0.0 
1.776194894250e-03 1.890650442787e-03 0.0 
0.0 0.0 -6.602502863668e-04 
-6.021316177337e-04 1.787666469000e-03 0.0 
1.787666469000e-03 2.539974038930e-03 0.0 
0.0 0.0 -8.188873791818e-04 
-9.298371537710e-04 1.545288416222e-03 0.0 
1.545288416222e-03 3.134936475799e-03 0.0 
0.0 0.0 -7.739045994368e-04 
-1.219707571260e-03 1.363862905373e-03 0.0 
1.363862905373e-03 3.712475698443e-03 0.0 
0.0 0.0 -7.416632329583e-04 
-1.501649114425e-03 1.213866345860e-03 0.0 
1.213866345860e-03 4.312722460883e-03 0.0 
0.0 0.0 -7.242776845527e-04 
3.539823178863e-04 1.710352572919e-03 0.0 
1.710352572919e-03 5.866051080763e-04 0.0 
0.0 0.0 -4.031088968411e-04 
-9.225734973571e-04 -7.785055507499e-06 0.0 
-7.785055507499e-06 4.710905526494e-03 0.0 
0.0 0.0 -1.303388942653e-03 
2.002003524453e-04 -6.228844878024e-04 0.0 
-6.228844878024e-04 2.361800845582e-04 0.0 
0.0 0.0 -1.150931346421e-04 
6.351277012352e-06 -1.034192914689e-04 0.0 
-1.034192914689e-04 -6.351277012354e-06 0.0 
0.0 0.0 0.0 
-1.143124804619e-03 -1.686232053488e-03 0.0 
-1.686232053488e-03 5.409600557008e-03 0.0 
0.0 0.0 -1.303360877099e-03 
1.234786051762e-04 1.977711876023e-03 0.0 
1.977711876023e-03 1.061132021132e-03 0.0 
0.0 0.0 -5.076902684178e-04 
-1.444704152341e-03 -3.615903752048e-04 0.0 
-3.615903752048e-04 4.407515592965e-03 0.0 
0.0 0.0 -1.026919993916e-03 
-9.479894819801e-04 1.838728918359e-03 0.0 
1.838728918359e-03 4.893992345869e-03 0.0 
0.0 0.0 -1.300998267065e-03 
-3.669420938573e-04 1.945721923899e-03 0.0 
1.945721923899e-03 2.035468676857e-03 0.0 
0.0 0.0 -7.150828212858e-04 
-1.134501767780e-03 3.078864715943e-03 0.0 
3.078864715943e-03 5.708971873236e-03 0.0 
0.0 0.0 -1.304014651794e-03 
-9.933335184060e-04 1.783041133304e-03 0.0 
1.783041133304e-03 3.368272424712e-03 0.0 
0.0 0.0 -8.139337748180e-04 
-1.367928456590e-03 -1.893022985453e-03 0.0 
-1.893022985453e-03 6.315060285992e-03 0.0 
0.0 0.0 -1.307658508868e-03 
1.393566666495e-03 -5.293231022229e-04 0.0 
-5.293231022229e-04 -2.919979710108e-04 0.0 
0.0 0.0 -1.726441863791e-04 
-1.321068622768e-03 3.408933067941e-03 0.0 
3.408933067941e-03 6.699280987615e-03 0.0 
0.0 0.0 -1.304481600125e-03 
-1.625241511018e-03 1.405941443998e-03 0.0 
1.405941443998e-03 4.657250357868e-03 0.0 
0.0 0.0 -7.595448291451e-04 
-9.674687493222e-04 -2.324067189866e-04 0.0 
-2.324067189866e-04 3.002016490702e-03 0.0 
0.0 0.0 -7.390740322083e-04 
-1.821851265128e-03 -3.597710289885e-04 0.0 
-3.597710289885e-04 5.333319395799e-03 0.0 
0.0 0.0 -1.073818338595e-03 
-1.412437544610e-03 3.130277989420e-03 0.0 
3.130277989420e-03 7.340714354146e-03 0.0 
0.0 0.0 -1.301280071178e-03 
-1.458721797288e-03 2.468181070438e-03 0.0 
2.468181070438e-03 8.007112846752e-03 0.0 
0.0 0.0 -1.304294760550e-03 
-1.442626291436e-03 7.982050020717e-04 0.0 
7.982050020717e-04 8.632923623264e-03 0.0 
0.0 0.0 -1.303238611779e-03 
-1.460924372811e-03 1.330564066234e-03 0.0 
1.330564066234e-03 8.482170570322e-03 0.0 
0.0 0.0 -1.297727402575e-03 
-1.466071718827e-03 1.860397699296e-03 0.0 
1.860397699296e-03 8.323259225048e-03 0.0 
0.0 0.0 -1.305306183856e-03 
-1.723504189141e-03 9.545217762893e-04 0.0 
9.545217762893e-04 5.069531762335e-03 0.0 
0.0 0.0 -7.528866907182e-04 
-1.609633540750e-03 4.109047618561e-04 0.0 
4.109047618561e-04 5.236232241604e-03 0.0 
0.0 0.0 -7.529849494387e-04 
-1.529214909887e-03 1.902322029956e-04 0.0 
1.902322029956e-04 5.302594416650e-03 0.0 
0.0 0.0 -7.580270452736e-04 
-1.581306103182e-03 3.146837778263e-05 0.0 
3.146837778263e-05 6.876614414943e-03 0.0 
0.0 0.0 -9.950081682429e-04 
-1.500312298629e-03 -1.404495050420e-03 0.0 
-1.404495050420e-03 6.813712989149e-03 0.0 
0.0 0.0 -1.302874185639e-03 
0.0 0.0 0.0 
0.0 0.0 0.0 
0.0 0.0 0.0 
1.991019007460e-03 -2.749999736625e-04 0.0 
-2.749999736625e-04 -4.994877663417e-04 0.0 
0.0 0.0 -1.971444476807e-04 
-2.064700972320e-03 -3.063344179821e-04 0.0 
-3.063344179821e-04 6.409893202118e-03 0.0 
0.0 0.0 -1.122886395833e-03 
-1.468245391393e-03 9.255547116428e-05 0.0 
9.255547116428e-05 5.268982738319e-03 0.0 
0.0 0.0 -7.500338828344e-04 
-3.768246537726e-04 -1.072125225081e-04 0.0 
-1.072125225081e-04 1.532862867376e-03 0.0 
0.0 0.0 -3.103003023327e-04 
-1.462480749969e-03 2.788238406384e-03 0.0 
2.788238406384e-03 7.654884390723e-03 0.0 
0.0 0.0 -1.293200138473e-03 
-1.060495443339e-03 2.586030718155e-03 0.0 
2.586030718155e-03 5.302800007763e-03 0.0 
0.0 0.0 -1.307307853467e-03 
-1.239947575843e-03 3.359554949631e-03 0.0 
3.359554949631e-03 6.201507605709e-03 0.0 
0.0 0.0 -1.304733450272e-03 
-8.851569131084e-04 1.017294528516e-03 0.0 
1.017294528516e-03 4.688446957818e-03 0.0 
0.0 0.0 -1.297928233296e-03 
-1.011734799512e-03 -8.525942349034e-04 0.0 
-8.525942349034e-04 4.907050266684e-03 0.0 
0.0 0.0 -1.305578568836e-03 
1.120011211769e-04 -9.639393047147e-04 0.0 
-9.639393047147e-04 3.552641554252e-04 0.0 
0.0 0.0 -2.002565471152e-04 
-1.668530992619e-03 6.309946100002e-04 0.0 
6.309946100002e-04 5.166924460567e-03 0.0 
0.0 0.0 -7.500980793755e-04 
-1.253144254253e-03 -1.928883033382e-03 0.0 
-1.928883033382e-03 5.781747753778e-03 0.0 
0.0 0.0 -1.293180865222e-03 
-1.565497950727e-03 6.438167873332e-05 0.0 
6.438167873332e-05 7.693447317596e-03 0.0 
0.0 0.0 -1.123598490052e-03 
6.785802533228e-04 -5.736279611176e-04 0.0 
-5.736279611176e-04 1.838174080762e-07 0.0 
0.0 0.0 -1.171618051616e-04 
-1.195500737651e-03 -3.256008312402e-04 0.0 
-3.256008312402e-04 3.719620558921e-03 0.0 
0.0 0.0 -9.209925479532e-04 
-1.429805954471e-03 5.036842419237e-04 0.0 
5.036842419237e-04 8.739646127293e-03 0.0 
0.0 0.0 -1.311981303940e-03 
-9.905702435701e-05 2.013930135586e-03 0.0 
2.013930135586e-03 1.485122832027e-03 0.0 
0.0 0.0 -5.940282032871e-04 
3.261360612195e-04 2.014048139277e-03 0.0 
2.014048139277e-03 7.944417754282e-04 0.0 
0.0 0.0 -4.802476442776e-04 
-6.470413752911e-04 1.957850985508e-03 0.0 
1.957850985508e-03 2.728601734132e-03 0.0 
0.0 0.0 -8.637206373099e-04 
-1.316804590616e-03 1.569868653343e-03 0.0 
1.569868653343e-03 4.005894671503e-03 0.0 
0.0 0.0 -7.800224789174e-04 
3.875829952615e-05 1.742959436207e-03 0.0 
1.742959436207e-03 2.025218710592e-04 0.0 
0.0 0.0 -1.034057873937e-04 
-1.536524951872e-03 3.208999903453e-05 0.0 
3.208999903453e-05 6.068754859848e-03 0.0 
0.0 0.0 -8.684787984471e-04 
-1.527482046669e-03 -8.504264765478e-04 0.0 
-8.504264765478e-04 7.084540485198e-03 0.0 
0.0 0.0 -1.313906642692e-03 
2.259445629762e-03 -9.175095740177e-05 0.0 
-9.175095740177e-05 -6.502150918460e-04 0.0 
0.0 0.0 -1.918888419282e-04 
-1.463207116020e-03 1.296765555730e-04 0.0 
1.296765555730e-04 8.413961701398e-03 0.0 
0.0 0.0 -1.253930875827e-03 
-1.717988966153e-03 1.334598389081e-03 0.0 
1.334598389081e-03 4.909530889206e-03 0.0 
0.0 0.0 -7.655439890770e-04 
-1.720228455065e-03 1.586186079137e-03 0.0 
1.586186079137e-03 4.967329360851e-03 0.0 
0.0 0.0 -7.934218816250e-04 
-1.768015179977e-03 1.461597718910e-03 0.0 
1.461597718910e-03 5.276074626724e-03 0.0 
0.0 0.0 -8.115680642089e-04 
-1.765114281844e-03 1.749488874724e-03 0.0 
1.749488874724e-03 5.323901634960e-03 0.0 
0.0 0.0 -8.428390908522e-04 
-1.776011419960e-03 1.632950866705e-03 0.0 
1.632950866705e-03 5.614599388379e-03 0.0 
0.0 0.0 -8.784658474099e-04 
-1.753067371520e-03 1.892876727445e-03 0.0 
1.892876727445e-03 5.647697331923e-03 0.0 
0.0 0.0 -9.060409163497e-04 
-1.729403370927e-03 2.034729517834e-03 0.0 
2.034729517834e-03 5.329326258993e-03 0.0 
0.0 0.0 -8.711257577414e-04 
-1.705524146156e-03 2.154135310252e-03 0.0 
2.154135310252e-03 5.649528349792e-03 0.0 
0.0 0.0 -9.341442283280e-04 
-1.669480427723e-03 2.313796081278e-03 0.0 
2.313796081278e-03 5.302391134739e-03 0.0 
0.0 0.0 -8.989774131092e-04 
-1.760017773414e-03 1.778713600910e-03 0.0 
1.778713600910e-03 5.960915318729e-03 0.0 
0.0 0.0 -9.415083590319e-04 
-1.639128685698e-03 2.400878910049e-03 0.0 
2.400878910049e-03 5.620671151866e-03 0.0 
0.0 0.0 -9.622976032585e-04 
-1.585968914987e-03 2.571269188534e-03 0.0 
2.571269188534e-03 5.245482773901e-03 0.0 
0.0 0.0 -9.268639294333e-04 
-1.553264337981e-03 2.629359401866e-03 0.0 
2.629359401866e-03 5.564461608518e-03 0.0 
0.0 0.0 -9.903372159162e-04 
-1.482148429882e-03 2.800719357184e-03 0.0 
2.800719357184e-03 5.162964478957e-03 0.0 
0.0 0.0 -9.547708836903e-04 
-1.480872876733e-03 2.756523220070e-03 0.0 
2.756523220070e-03 4.843370134984e-03 0.0 
0.0 0.0 -9.032660992691e-04 
-1.370066982921e-03 2.994500238396e-03 0.0 
2.994500238396e-03 4.734217419357e-03 0.0 
0.0 0.0 -9.261835667446e-04 
-1.296697830142e-03 2.932762897298e-03 0.0 
2.932762897298e-03 4.406716792506e-03 0.0 
0.0 0.0 -9.004111975071e-04 
-1.176154479742e-03 3.171939239460e-03 0.0 
3.171939239460e-03 4.268382598936e-03 0.0 
0.0 0.0 -9.182233496599e-04 
-1.237826052231e-03 3.181299556145e-03 0.0 
3.181299556145e-03 4.604885530242e-03 0.0 
0.0 0.0 -9.498701766430e-04 
-1.038924370446e-03 3.354505003279e-03 0.0 
3.354505003279e-03 4.108768898160e-03 0.0 
0.0 0.0 -9.343221806050e-04 
-9.113966935237e-04 3.322436674522e-03 0.0 
3.322436674522e-03 3.767445704006e-03 0.0 
0.0 0.0 -9.288662988139e-04 
-7.681433481646e-04 3.500147498246e-03 0.0 
3.500147498246e-03 3.577220508926e-03 0.0 
0.0 0.0 -9.367850320061e-04 
-6.050859616232e-04 3.441042246538e-03 0.0 
3.441042246538e-03 3.246213294712e-03 0.0 
0.0 0.0 -9.518642033955e-04 
-4.467796431526e-04 3.596824647640e-03 0.0 
3.596824647640e-03 3.023253834938e-03 0.0 
0.0 0.0 -9.541337235040e-04 
-2.817347476968e-04 3.508182660979e-03 0.0 
3.508182660979e-03 2.709346421897e-03 0.0 
0.0 0.0 -9.642822318347e-04 
-1.040481770833e-04 3.619372760828e-03 0.0 
3.619372760828e-03 2.449228749823e-03 0.0 
0.0 0.0 -9.459728402633e-04 
-2.870166289118e-04 3.676071568470e-03 0.0 
3.676071568470e-03 2.794184702227e-03 0.0 
0.0 0.0 -9.498144071847e-04 
6.429436302438e-05 3.660882361634e-03 0.0 
3.660882361634e-03 2.186835241716e-03 0.0 
0.0 0.0 -9.193128608805e-04 
2.331588354861e-04 3.548891452897e-03 0.0 
3.548891452897e-03 1.871725410986e-03 0.0 
0.0 0.0 -8.913707482552e-04 
4.174760030635e-04 3.518419278721e-03 0.0 
3.518419278721e-03 1.585153718146e-03 0.0 
0.0 0.0 -8.538425857873e-04 
5.455280992742e-04 3.365363645192e-03 0.0 
3.365363645192e-03 1.323229666393e-03 0.0 
0.0 0.0 -8.008961852862e-04 
7.498486656370e-04 3.260544319073e-03 0.0 
3.260544319073e-03 1.013594496255e-03 0.0 
0.0 0.0 -7.557613550964e-04 
5.794043773309e-04 3.414810932032e-03 0.0 
3.414810932032e-03 1.312272080423e-03 0.0 
0.0 0.0 -8.100034870355e-04 
9.766186802750e-04 3.126905533587e-03 0.0 
3.126905533587e-03 6.756506724320e-04 0.0 
0.0 0.0 -7.081154368744e-04 
1.170764685342e-03 3.063309594450e-03 0.0 
3.063309594450e-03 3.918842971428e-04 0.0 
0.0 0.0 -6.697067067790e-04 
1.469956798013e-03 2.887539401857e-03 0.0 
2.887539401857e-03 -6.720200421087e-06 0.0 
0.0 0.0 -6.271013989681e-04 
1.655398318796e-03 2.905797537394e-03 0.0 
2.905797537394e-03 -2.066635196578e-04 0.0 
0.0 0.0 -6.208863424878e-04 
1.958892900495e-03 2.587078338226e-03 0.0 
2.587078338226e-03 -5.601119320347e-04 0.0 
0.0 0.0 -5.994775579116e-04 
2.135455672651e-03 2.638700697284e-03 0.0 
2.638700697284e-03 -6.211030008372e-04 0.0 
0.0 0.0 -6.490082879202e-04 
2.410352153471e-03 2.173774944653e-03 0.0 
2.173774944653e-03 -9.107525055140e-04 0.0 
0.0 0.0 -6.426855634101e-04 
2.158594858366e-03 2.117426171510e-03 0.0 
2.117426171510e-03 -8.346185089651e-04 0.0 
0.0 0.0 -5.674184354577e-04 
2.548284906519e-03 1.577323129924e-03 0.0 
1.577323129924e-03 -1.120076299841e-03 0.0 
0.0 0.0 -6.120894028618e-04 
2.766282761562e-03 1.671188389262e-03 0.0 
1.671188389262e-03 -1.152705968468e-03 0.0 
0.0 0.0 -6.915329113260e-04 
2.831831315373e-03 9.695675877105e-04 0.0 
9.695675877105e-04 -1.281170566415e-03 0.0 
0.0 0.0 -6.645688924106e-04 
2.536993124922e-03 9.134999273791e-04 0.0 
9.134999273791e-04 -1.229619517363e-03 0.0 
0.0 0.0 -5.603029746683e-04 
2.733867997822e-03 2.586198841001e-04 0.0 
2.586198841001e-04 -1.313858956396e-03 0.0 
0.0 0.0 -6.085753034686e-04 
2.382754168972e-03 2.331723641419e-04 0.0 
2.331723641419e-04 -1.217161318829e-03 0.0 
0.0 0.0 -4.995397929185e-04 
2.475502276821e-03 -4.225569186791e-04 0.0 
-4.225569186791e-04 -1.235276730126e-03 0.0 
0.0 0.0 -5.315252342980e-04 
2.783353977069e-03 -4.207301430438e-04 0.0 
-4.207301430438e-04 -1.298298732893e-03 0.0 
0.0 0.0 -6.364522475042e-04 
2.431423533239e-03 -1.055611195596e-03 0.0 
-1.055611195596e-03 -1.141139443354e-03 0.0 
0.0 0.0 -5.529788956651e-04 
2.074488083004e-03 -1.034963949875e-03 0.0 
-1.034963949875e-03 -9.657239908617e-04 0.0 
0.0 0.0 -4.751846109182e-04 
1.948746609120e-03 -1.563616376602e-03 0.0 
-1.563616376602e-03 -7.896259199600e-04 0.0 
0.0 0.0 -4.967660096401e-04 
2.266914827687e-03 -1.646291796375e-03 0.0 
-1.646291796375e-03 -9.610891233280e-04 0.0 
0.0 0.0 -5.596395875825e-04 
1.725234701887e-03 -1.991509456133e-03 0.0 
-1.991509456133e-03 -5.081914327056e-04 0.0 
0.0 0.0 -5.215899725061e-04 
1.402225958191e-03 -1.927478583456e-03 0.0 
-1.927478583456e-03 -1.960854800127e-04 0.0 
0.0 0.0 -5.169173477906e-04 
1.209383151701e-03 -2.216403946003e-03 0.0 
-2.216403946003e-03 7.890654783241e-05 0.0 
0.0 0.0 -5.521241569428e-04 
1.437995882087e-03 -2.266737877318e-03 0.0 
-2.266737877318e-03 -1.663516021812e-04 0.0 
0.0 0.0 -5.449904056737e-04 
1.024600490131e-03 -2.464285469351e-03 0.0 
-2.464285469351e-03 3.533750076132e-04 0.0 
0.0 0.0 -5.905609276045e-04 
8.985317602796e-04 -2.606405635227e-03 0.0 
-2.606405635227e-03 5.292322287010e-04 0.0 
0.0 0.0 -6.118988524203e-04 
7.560704768117e-04 -2.818446778216e-03 0.0 
-2.818446778216e-03 7.706212678723e-04 0.0 
0.0 0.0 -6.542964620075e-04 
8.580312086144e-04 -2.682927376050e-03 0.0 
-2.682927376050e-03 6.007672926437e-04 0.0 
0.0 0.0 -6.251993576820e-04 
5.867828103229e-04 -2.962553875983e-03 0.0 
-2.962553875983e-03 1.034857146591e-03 0.0 
0.0 0.0 -6.949885529632e-04 
4.441790608849e-04 -3.069180945402e-03 0.0 
-3.069180945402e-03 1.277969962145e-03 0.0 
0.0 0.0 -7.380638670128e-04 
2.783519300776e-04 -3.113099096991e-03 0.0 
-3.113099096991e-03 1.538449359472e-03 0.0 
0.0 0.0 -7.786291240925e-04 
1.058234640361e-04 -3.171084265656e-03 0.0 
-3.171084265656e-03 1.852966267041e-03 0.0 
0.0 0.0 -8.394813133188e-04 
3.929316153892e-04 -3.010245319228e-03 0.0 
-3.010245319228e-03 1.308656505855e-03 0.0 
0.0 0.0 -7.292520519616e-04 
9.932532998196e-05 -3.071474673695e-03 0.0 
-3.071474673695e-03 1.797955184989e-03 0.0 
0.0 0.0 -8.131202207017e-04 
1.861203807317e-04 -2.953410476768e-03 0.0 
-2.953410476768e-03 1.579421639320e-03 0.0 
0.0 0.0 -7.566608657364e-04 
-8.642223961803e-05 -2.932845730897e-03 0.0 
-2.932845730897e-03 2.045062282812e-03 0.0 
0.0 0.0 -8.394171613687e-04 
7.378179429990e-04 3.236151700417e-03 0.0 
3.236151700417e-03 1.055249139964e-03 0.0 
0.0 0.0 -7.684573212697e-04 
-2.470987176264e-05 -2.774259717146e-03 0.0 
-2.774259717146e-03 1.827411113102e-03 0.0 
0.0 0.0 -7.725862462883e-04 
2.168591650758e-04 -2.749464912916e-03 0.0 
-2.749464912916e-03 1.402707795240e-03 0.0 
0.0 0.0 -6.941001258497e-04 
-2.655633051019e-04 -2.700896907473e-03 0.0 
-2.700896907473e-03 2.263406073752e-03 0.0 
0.0 0.0 -8.562183294215e-04 
-3.538412369767e-04 -2.807118068406e-03 0.0 
-2.807118068406e-03 2.524613030834e-03 0.0 
0.0 0.0 -9.303307687962e-04 
-2.182790499822e-04 -2.492668770886e-03 0.0 
-2.492668770886e-03 2.032114690057e-03 0.0 
0.0 0.0 -7.773581314605e-04 
-4.250446102995e-04 -2.387105800852e-03 0.0 
-2.387105800852e-03 2.436232383686e-03 0.0 
0.0 0.0 -8.619376171656e-04 
-3.808762253420e-04 -2.140229309317e-03 0.0 
-2.140229309317e-03 2.184406533220e-03 0.0 
0.0 0.0 -7.729415605190e-04 
1.763159166294e-03 2.932701492782e-03 0.0 
2.932701492782e-03 -2.697944395366e-04 0.0 
0.0 0.0 -6.400134543247e-04 
-1.088844513542e-03 3.301377294412e-03 0.0 
3.301377294412e-03 4.460583281383e-03 0.0 
0.0 0.0 -9.751682721562e-04 
-5.557439599788e-04 -2.010376698230e-03 0.0 
-2.010376698230e-03 2.553174357475e-03 0.0 
0.0 0.0 -8.560415989269e-04 
-5.027177784437e-04 -1.739983302349e-03 0.0 
-1.739983302349e-03 2.268016728775e-03 0.0 
0.0 0.0 -7.565566929991e-04 
-3.487326511453e-04 -1.851839421592e-03 0.0 
-1.851839421592e-03 1.937346492323e-03 0.0 
0.0 0.0 -6.808345033620e-04 
-4.519877827048e-04 -1.437771514004e-03 0.0 
-1.437771514004e-03 1.973465387895e-03 0.0 
0.0 0.0 -6.520618307959e-04 
-1.774841257907e-03 1.527132807035e-03 0.0 
1.527132807035e-03 5.918357799879e-03 0.0 
0.0 0.0 -9.126358703463e-04 
-1.762808846704e-03 1.694088373988e-03 0.0 
1.694088373988e-03 6.266633471383e-03 0.0 
0.0 0.0 -9.772611937912e-04 
-1.774288393461e-03 1.442569390130e-03 0.0 
1.442569390130e-03 6.194015386497e-03 0.0 
0.0 0.0 -9.468612964576e-04 
-1.759396418391e-03 1.612723129842e-03 0.0 
1.612723129842e-03 6.563174828670e-03 0.0 
0.0 0.0 -1.012955122490e-03 
-1.767929614200e-03 1.376342917300e-03 0.0 
1.376342917300e-03 6.485124768915e-03 0.0 
0.0 0.0 -9.835180958883e-04 
-5.788967960072e-04 -1.335257077215e-03 0.0 
-1.335257077215e-03 2.277225899990e-03 0.0 
0.0 0.0 -7.256352817785e-04 
-1.603689512328e-03 2.493470387195e-03 0.0 
2.493470387195e-03 5.946173640174e-03 0.0 
0.0 0.0 -1.026687169009e-03 
-1.736212695290e-03 1.850044700733e-03 0.0 
1.850044700733e-03 6.615422803056e-03 0.0 
0.0 0.0 -1.042264213861e-03 
-7.638319934371e-04 3.223456733069e-03 0.0 
3.223456733069e-03 3.455847564200e-03 0.0 
0.0 0.0 -9.409285294772e-04 
3.366430025168e-04 3.397992003127e-03 0.0 
3.397992003127e-03 1.628840077963e-03 0.0 
0.0 0.0 -8.423498916340e-04 
2.156368313925e-03 8.947959957603e-04 0.0 
8.947959957603e-04 -1.035979942615e-03 0.0 
0.0 0.0 -4.801664448473e-04 
-6.227154585167e-04 -2.198002757365e-03 0.0 
-2.198002757365e-03 2.831211668969e-03 0.0 
0.0 0.0 -9.464983759081e-04 
-7.218347779198e-04 -1.819122893170e-03 0.0 
-1.819122893170e-03 2.913297155100e-03 0.0 
0.0 0.0 -9.383242106009e-04 
-8.133368797394e-04 -1.945809227020e-03 0.0 
-1.945809227020e-03 3.204453228297e-03 0.0 
0.0 0.0 -1.004955155493e-03 
2.358180408842e-04 -3.147007717197e-03 0.0 
-3.147007717197e-03 1.628184027877e-03 0.0 
0.0 0.0 -7.988580294692e-04 
-1.225410220003e-04 -3.166679032327e-03 0.0 
-3.166679032327e-03 2.260222165472e-03 0.0 
0.0 0.0 -9.088386183890e-04 
-3.596074933626e-05 -3.143460862446e-03 0.0 
-3.143460862446e-03 2.089404171616e-03 0.0 
0.0 0.0 -8.720661220001e-04 
-3.940691537939e-04 -3.066493924859e-03 0.0 
-3.066493924859e-03 2.736277962959e-03 0.0 
0.0 0.0 -9.548449181928e-04 
-3.127433245065e-04 -2.982699423106e-03 0.0 
-2.982699423106e-03 2.620883950583e-03 0.0 
0.0 0.0 -9.363521337227e-04 
-6.475470341843e-04 -2.849005951016e-03 0.0 
-2.849005951016e-03 3.244198139691e-03 0.0 
0.0 0.0 -9.829094188347e-04 
-7.290342086422e-04 -2.890946438125e-03 0.0 
-2.890946438125e-03 3.342200867435e-03 0.0 
0.0 0.0 -9.972914379494e-04 
-9.540874880885e-04 -2.660066281729e-03 0.0 
-2.660066281729e-03 3.821872870679e-03 0.0 
0.0 0.0 -1.003716470558e-03 
-1.033871380646e-03 -2.655311578103e-03 0.0 
-2.655311578103e-03 3.899288306138e-03 0.0 
0.0 0.0 -1.010717982506e-03 
-5.020318707035e-04 -2.652589391131e-03 0.0 
-2.652589391131e-03 3.162848563043e-03 0.0 
0.0 0.0 -1.000386703517e-03 
-1.738328040713e-04 -2.716917287151e-03 0.0 
-2.716917287151e-03 2.542650585114e-03 0.0 
0.0 0.0 -9.561072799058e-04 
-1.217140716833e-03 -2.433745842754e-03 0.0 
-2.433745842754e-03 4.355239653684e-03 0.0 
0.0 0.0 -1.026468870702e-03 
-1.301004518180e-03 -2.384512482324e-03 0.0 
-2.384512482324e-03 4.413129634354e-03 0.0 
0.0 0.0 -1.025303715086e-03 
-1.433223260983e-03 -2.180723409209e-03 0.0 
-2.180723409209e-03 4.841898264917e-03 0.0 
0.0 0.0 -1.051254241329e-03 
-1.533782143048e-03 -2.096001782913e-03 0.0 
-2.096001782913e-03 4.882119290392e-03 0.0 
0.0 0.0 -1.038917832539e-03 
-1.344970022650e-03 -2.253929758585e-03 0.0 
-2.253929758585e-03 4.461736113479e-03 0.0 
0.0 0.0 -1.037516479237e-03 
-1.569102967331e-03 -1.933831873179e-03 0.0 
-1.933831873179e-03 4.899834166201e-03 0.0 
0.0 0.0 -1.046305699947e-03 
-1.376153231101e-03 -2.066079550050e-03 0.0 
-2.066079550050e-03 4.500968763913e-03 0.0 
0.0 0.0 -1.050803148915e-03 
1.947540486422e-03 2.152880942579e-04 0.0 
2.152880942579e-04 -9.005037723215e-04 0.0 
0.0 0.0 -4.487300203286e-04 
1.680967532914e-03 9.207071897223e-04 0.0 
9.207071897223e-04 -5.014207716637e-04 0.0 
0.0 0.0 -5.055200405360e-04 
1.438850481880e-03 2.016578593639e-04 0.0 
2.016578593639e-04 -1.625086232559e-04 0.0 
0.0 0.0 -5.470036536960e-04 
1.202172879279e-03 8.527240019949e-04 0.0 
8.527240019949e-04 3.828898779410e-04 0.0 
0.0 0.0 -6.793126102372e-04 
1.037530362003e-03 2.011510087903e-04 0.0 
2.011510087903e-04 7.506062236288e-04 0.0 
0.0 0.0 -7.663442509849e-04 
8.675854264309e-04 7.587081521114e-04 0.0 
7.587081521114e-04 1.231843798103e-03 0.0 
0.0 0.0 -8.979051750036e-04 
7.349701041776e-04 2.153247329944e-04 0.0 
2.153247329944e-04 1.546423059999e-03 0.0 
0.0 0.0 -9.701408636527e-04 
8.610381847209e-04 -3.526591051395e-04 0.0 
-3.526591051395e-04 1.156465632251e-03 0.0 
0.0 0.0 -8.646444929881e-04 
-1.453224264520e-03 2.831768754596e-03 0.0 
2.831768754596e-03 5.484804576212e-03 0.0 
0.0 0.0 -1.018102500310e-03 
3.008867090267e-03 1.058367247789e-03 0.0 
1.058367247789e-03 -1.343458179845e-03 0.0 
0.0 0.0 -7.137466758949e-04 
2.853497805066e-03 1.766083769912e-03 0.0 
1.766083769912e-03 -1.173072932721e-03 0.0 
0.0 0.0 -7.201820881480e-04 
3.053541270561e-03 1.142570270594e-03 0.0 
1.142570270594e-03 -1.348374367158e-03 0.0 
0.0 0.0 -7.307858157443e-04 
2.838618046953e-03 1.876649797015e-03 0.0 
1.876649797015e-03 -1.126367864291e-03 0.0 
0.0 0.0 -7.338215068551e-04 
2.971080593981e-03 1.270655419308e-03 0.0 
1.270655419308e-03 -1.289312095888e-03 0.0 
0.0 0.0 -7.207579277541e-04 
2.719217330289e-03 2.056721202716e-03 0.0 
2.056721202716e-03 -1.037451596634e-03 0.0 
0.0 0.0 -7.207567429950e-04 
2.772942118414e-03 1.411962470906e-03 0.0 
1.411962470906e-03 -1.228640855760e-03 0.0 
0.0 0.0 -6.618433982802e-04 
2.936188635973e-03 5.059698955333e-04 0.0 
5.059698955333e-04 -1.379043216914e-03 0.0 
0.0 0.0 -6.673480367399e-04 
2.617932977065e-03 5.853697332861e-04 0.0 
5.853697332861e-04 -1.334188021617e-03 0.0 
0.0 0.0 -5.501764094776e-04 
2.753067280877e-03 -3.549983010408e-04 0.0 
-3.549983010408e-04 -1.367545839080e-03 0.0 
0.0 0.0 -5.937949036274e-04 
2.283697930113e-03 -2.688909952497e-04 0.0 
-2.688909952497e-04 -1.277221164065e-03 0.0 
0.0 0.0 -4.313471854492e-04 
2.525026440165e-03 -1.212492314672e-03 0.0 
-1.212492314672e-03 -1.245102357231e-03 0.0 
0.0 0.0 -5.485388926860e-04 
-1.241644147846e-04 3.665257049786e-03 0.0 
3.665257049786e-03 2.568141902724e-03 0.0 
0.0 0.0 -9.405629120884e-04 
9.458807958305e-04 1.361774924333e-03 0.0 
1.361774924333e-03 9.904922510770e-04 0.0 
0.0 0.0 -8.298741629604e-04 
6.513001348098e-04 1.229100697752e-03 0.0 
1.229100697752e-03 1.753882193068e-03 0.0 
0.0 0.0 -9.993981362447e-04 
6.963768604448e-04 1.772072157614e-03 0.0 
1.772072157614e-03 1.581186938205e-03 0.0 
0.0 0.0 -9.522937794042e-04 
-3.189420848090e-04 -1.545020922433e-03 0.0 
-1.545020922433e-03 1.685829119162e-03 0.0 
0.0 0.0 -5.858087290083e-04 
-1.729227017080e-03 -1.797597956290e-03 0.0 
-1.797597956290e-03 5.304685395965e-03 0.0 
0.0 0.0 -1.052155339158e-03 
-3.558894212413e-04 -2.357175527876e-03 0.0 
-2.357175527876e-03 3.123019306479e-03 0.0 
0.0 0.0 -1.032922975483e-03 
-3.685387661375e-05 -2.333297789804e-03 0.0 
-2.333297789804e-03 2.519376975604e-03 0.0 
0.0 0.0 -9.972889278909e-04 
5.502284084495e-04 -2.540944922989e-04 0.0 
-2.540944922989e-04 1.932880194956e-03 0.0 
0.0 0.0 -1.036234461364e-03 
-5.051250462252e-04 -1.053858961610e-03 0.0 
-1.053858961610e-03 1.923683454344e-03 0.0 
0.0 0.0 -5.970694122200e-04 
2.486914527932e-03 2.192796758779e-03 0.0 
2.192796758779e-03 -9.291035182538e-04 0.0 
0.0 0.0 -6.676332898623e-04 
2.328692636026e-03 2.634849956172e-03 0.0 
2.634849956172e-03 -6.738088910714e-04 0.0 
0.0 0.0 -7.092358906949e-04 
-1.744623678677e-03 1.540348128746e-03 0.0 
1.540348128746e-03 6.846449706807e-03 0.0 
0.0 0.0 -1.048874596840e-03 
-1.750773001735e-03 1.319704536713e-03 0.0 
1.319704536713e-03 6.756146718387e-03 0.0 
0.0 0.0 -1.019458214591e-03 
-2.480160767706e-04 -2.004916630844e-03 0.0 
-2.004916630844e-03 3.137306023889e-03 0.0 
0.0 0.0 -1.070157681403e-03 
-6.234076530390e-04 -9.645286907226e-04 0.0 
-9.645286907226e-04 2.209865459266e-03 0.0 
0.0 0.0 -6.466873288763e-04 
-1.068414060457e-03 -2.374253472806e-03 0.0 
-2.374253472806e-03 4.293485734694e-03 0.0 
0.0 0.0 -1.053463316161e-03 
2.067995625182e-03 6.451329218673e-04 0.0 
6.451329218673e-04 -1.186041327943e-03 0.0 
0.0 0.0 -3.779804131024e-04 
-1.762784595192e-03 -1.607331333857e-03 0.0 
-1.607331333857e-03 5.293267446583e-03 0.0 
0.0 0.0 -1.053563116650e-03 
-1.867913240625e-03 -1.489305966451e-03 0.0 
-1.489305966451e-03 5.673891533939e-03 0.0 
0.0 0.0 -1.070920355653e-03 
-7.933761041048e-04 -2.832720245216e-03 0.0 
-2.832720245216e-03 3.452224715287e-03 0.0 
0.0 0.0 -1.021320298254e-03 
4.031722277788e-04 1.617631885485e-03 0.0 
1.617631885485e-03 2.296315845658e-03 0.0 
0.0 0.0 -1.069468904140e-03 
4.279180701410e-04 2.089566425205e-03 0.0 
2.089566425205e-03 2.165414708705e-03 0.0 
0.0 0.0 -1.033921039166e-03 
2.748961671600e-03 -1.234973564708e-03 0.0 
-1.234973564708e-03 -1.253110519415e-03 0.0 
0.0 0.0 -6.410790652217e-04 
2.518060065866e-03 -2.059438322562e-03 0.0 
-2.059438322562e-03 -1.018220698221e-03 0.0 
0.0 0.0 -6.427883004194e-04 
2.357888963389e-03 -2.118209179973e-03 0.0 
-2.118209179973e-03 -9.914742540871e-04 0.0 
0.0 0.0 -5.856063039867e-04 
2.191323313200e-03 -2.728758808394e-03 0.0 
-2.728758808394e-03 -6.479650369089e-04 0.0 
0.0 0.0 -6.614392612675e-04 
2.278763046571e-03 -2.578114575528e-03 0.0 
-2.578114575528e-03 -7.103706415061e-04 0.0 
0.0 0.0 -6.721681735992e-04 
1.895457018917e-03 -3.007528799367e-03 0.0 
-3.007528799367e-03 -3.206537863592e-04 0.0 
0.0 0.0 -6.749156710960e-04 
1.780393766489e-03 -3.161947930664e-03 0.0 
-3.161947930664e-03 -1.991738640969e-04 0.0 
0.0 0.0 -6.776656724536e-04 
1.498218282607e-03 -3.239267173229e-03 0.0 
-3.239267173229e-03 1.323736015907e-04 0.0 
0.0 0.0 -6.988250932278e-04 
1.538218957511e-03 -3.082075736210e-03 0.0 
-3.082075736210e-03 7.246781046873e-07 0.0 
0.0 0.0 -6.595472724067e-04 
1.116756184221e-03 -3.039153293536e-03 0.0 
-3.039153293536e-03 4.098621490744e-04 0.0 
0.0 0.0 -6.542649999838e-04 
9.813252680918e-04 -2.956617965048e-03 0.0 
-2.956617965048e-03 5.482338783846e-04 0.0 
0.0 0.0 -6.555253484899e-04 
6.892512545273e-04 -2.715436424775e-03 0.0 
-2.715436424775e-03 7.414890539001e-04 0.0 
0.0 0.0 -6.131744178975e-04 
-1.739487401810e-03 -1.643308528611e-03 0.0 
-1.643308528611e-03 5.674904400731e-03 0.0 
0.0 0.0 -1.101875158976e-03 
1.625849311047e-03 -1.683389643306e-04 0.0 
-1.683389643306e-04 -1.097136295050e-03 0.0 
0.0 0.0 -2.265912925700e-04 
-1.396148361601e-03 2.647702035806e-03 0.0 
2.647702035806e-03 4.519072400057e-03 0.0 
0.0 0.0 -8.810844588398e-04 
-5.349333944456e-04 -2.056134526959e-03 0.0 
-2.056134526959e-03 3.696128141265e-03 0.0 
0.0 0.0 -1.099012274073e-03 
4.001314244547e-04 2.494511169208e-04 0.0 
2.494511169208e-04 2.291122324032e-03 0.0 
0.0 0.0 -1.088453095952e-03 
-1.720074879915e-03 1.479198222822e-03 0.0 
1.479198222822e-03 7.120039440071e-03 0.0 
0.0 0.0 -1.085032576515e-03 
-1.727265597861e-03 1.269164868262e-03 0.0 
1.269164868262e-03 7.020339379643e-03 0.0 
0.0 0.0 -1.055603631703e-03 
-1.745923234167e-03 1.117194505061e-03 0.0 
1.117194505061e-03 6.644193117880e-03 0.0 
0.0 0.0 -9.897378988699e-04 
-1.726111739886e-03 1.073003689324e-03 0.0 
1.073003689324e-03 6.905750690588e-03 0.0 
0.0 0.0 -1.026001677571e-03 
-1.697815529865e-03 1.216597394983e-03 0.0 
1.216597394983e-03 7.279055033116e-03 0.0 
0.0 0.0 -1.091942449670e-03 
-1.699755368788e-03 1.027337857590e-03 0.0 
1.027337857590e-03 7.158023142695e-03 0.0 
0.0 0.0 -1.062342898562e-03 
-1.716352618538e-03 8.878056221667e-04 0.0 
8.878056221667e-04 6.774679391188e-03 0.0 
0.0 0.0 -9.962627399151e-04 
-1.692178280540e-03 8.508470267666e-04 0.0 
8.508470267666e-04 7.019991579685e-03 0.0 
0.0 0.0 -1.032646955902e-03 
-1.695660932446e-03 7.184317155414e-04 0.0 
7.184317155414e-04 6.625583462411e-03 0.0 
0.0 0.0 -9.664557332607e-04 
-1.677486126932e-03 6.911180295046e-04 0.0 
6.911180295046e-04 6.868534941944e-03 0.0 
0.0 0.0 -1.002889032254e-03 
-1.663620555798e-03 8.098065595925e-04 0.0 
8.098065595925e-04 7.259384762552e-03 0.0 
0.0 0.0 -1.069134413525e-03 
-1.655525420696e-03 6.533870042141e-04 0.0 
6.533870042141e-04 7.107625883104e-03 0.0 
0.0 0.0 -1.039387411609e-03 
-1.659615819212e-03 5.491873914478e-04 0.0 
5.491873914478e-04 6.708579784798e-03 0.0 
0.0 0.0 -9.730575354659e-04 
-1.642941155605e-03 5.125241071205e-04 0.0 
5.125241071205e-04 6.945188648216e-03 0.0 
0.0 0.0 -1.009574527126e-03 
-1.637255380195e-03 4.205204331053e-04 0.0 
4.205204331053e-04 6.536272510904e-03 0.0 
0.0 0.0 -9.431603702596e-04 
-1.623420800787e-03 3.856837058294e-04 0.0 
3.856837058294e-04 6.767271635738e-03 0.0 
0.0 0.0 -9.796061197752e-04 
-1.622026920778e-03 4.757000201370e-04 0.0 
4.757000201370e-04 7.177981971167e-03 0.0 
0.0 0.0 -1.046101832713e-03 
-5.260638759536e-04 -7.746154698035e-04 0.0 
-7.746154698035e-04 1.804698088172e-03 0.0 
0.0 0.0 -4.826019863697e-04 
6.384355500235e-04 -8.071467030727e-04 0.0 
-8.071467030727e-04 1.625869863801e-03 0.0 
0.0 0.0 -9.660701661439e-04 
3.155700960172e-04 -6.399278427758e-04 0.0 
-6.399278427758e-04 2.369342842803e-03 0.0 
0.0 0.0 -1.083831836676e-03 
-8.892645420983e-04 -1.589464053846e-03 0.0 
-1.589464053846e-03 3.243112049151e-03 0.0 
0.0 0.0 -9.683295300233e-04 
-9.893521759344e-04 -1.650588191873e-03 0.0 
-1.650588191873e-03 3.517832807879e-03 0.0 
0.0 0.0 -1.010934236754e-03 
-9.339052402119e-04 -1.988561699477e-03 0.0 
-1.988561699477e-03 3.508091553521e-03 0.0 
0.0 0.0 -1.041462402745e-03 
-1.131758993546e-03 -1.657762215853e-03 0.0 
-1.657762215853e-03 3.856452720899e-03 0.0 
0.0 0.0 -1.033211989474e-03 
-1.610140258144e-03 3.510578464752e-04 0.0 
3.510578464752e-04 7.002203508451e-03 0.0 
0.0 0.0 -1.015477767897e-03 
-1.603569950634e-03 4.323698609735e-04 0.0 
4.323698609735e-04 7.406712470395e-03 0.0 
0.0 0.0 -1.082739357160e-03 
2.075859047304e-03 2.734073794279e-03 0.0 
2.734073794279e-03 -5.151566843200e-04 0.0 
0.0 0.0 -6.688724412789e-04 
1.829803788864e-03 2.896630922712e-03 0.0 
2.896630922712e-03 -2.437374272620e-04 0.0 
0.0 0.0 -6.797427264007e-04 
-1.702624885041e-03 1.699730791061e-03 0.0 
1.699730791061e-03 7.199957864770e-03 0.0 
0.0 0.0 -1.114382729655e-03 
-1.921178658721e-03 -1.279150328982e-03 0.0 
-1.279150328982e-03 5.641022297000e-03 0.0 
0.0 0.0 -1.061085778683e-03 
-1.759404772593e-03 -1.368797781515e-03 0.0 
-1.368797781515e-03 5.258990087990e-03 0.0 
0.0 0.0 -1.062669991958e-03 
6.091469494368e-04 3.201234470351e-03 0.0 
3.201234470351e-03 1.145920310691e-03 0.0 
0.0 0.0 -7.521716829121e-04 
3.812479400786e-04 3.221138826746e-03 0.0 
3.221138826746e-03 1.454024134529e-03 0.0 
0.0 0.0 -7.865451748317e-04 
6.223231318809e-04 3.034958604236e-03 0.0 
3.034958604236e-03 1.026602646357e-03 0.0 
0.0 0.0 -7.066824763876e-04 
3.755190555598e-04 3.004529260336e-03 0.0 
3.004529260336e-03 1.328866931440e-03 0.0 
0.0 0.0 -7.304511372856e-04 
1.504650344152e-04 3.149504562038e-03 0.0 
3.149504562038e-03 1.760988080228e-03 0.0 
0.0 0.0 -8.191941919899e-04 
5.829936888595e-04 2.805741157272e-03 0.0 
2.805741157272e-03 9.386435949221e-04 0.0 
0.0 0.0 -6.521302644778e-04 
1.691581229929e-04 -2.698724546406e-03 0.0 
-2.698724546406e-03 1.880405331260e-03 0.0 
0.0 0.0 -8.664312523603e-04 
-1.632170864774e-03 7.587389543785e-04 0.0 
7.587389543785e-04 7.494664304375e-03 0.0 
0.0 0.0 -1.105708206284e-03 
-1.867627977739e-04 -1.946982532398e-03 0.0 
-1.946982532398e-03 1.623581017794e-03 0.0 
0.0 0.0 -6.157792371515e-04 
-1.766459924498e-04 -1.658792918857e-03 0.0 
-1.658792918857e-03 1.424250676640e-03 0.0 
0.0 0.0 -5.346877217957e-04 
-1.953846352874e-03 -1.181006378595e-03 0.0 
-1.181006378595e-03 5.993034579258e-03 0.0 
0.0 0.0 -1.094582683422e-03 
9.227653006670e-04 -9.923042472365e-04 0.0 
-9.923042472365e-04 8.348026981178e-04 0.0 
0.0 0.0 -7.532434280506e-04 
-4.484070588213e-04 3.613794165219e-03 0.0 
3.613794165219e-03 3.179623750880e-03 0.0 
0.0 0.0 -9.533529749162e-04 
-2.780489895403e-04 3.528284248772e-03 0.0 
3.528284248772e-03 2.993445099109e-03 0.0 
0.0 0.0 -9.681750457242e-04 
-5.507055311170e-04 3.446174456380e-03 0.0 
3.446174456380e-03 3.597530854088e-03 0.0 
0.0 0.0 -9.957130113267e-04 
-3.863084581791e-04 3.307385071573e-03 0.0 
3.307385071573e-03 3.448440357162e-03 0.0 
0.0 0.0 -1.023751803962e-03 
-6.300320690614e-04 3.259070928407e-03 0.0 
3.259070928407e-03 4.039542678780e-03 0.0 
0.0 0.0 -1.059873349132e-03 
-5.085717340789e-04 3.118830500926e-03 0.0 
3.118830500926e-03 3.927747937877e-03 0.0 
0.0 0.0 -1.087854580038e-03 
-2.514557000785e-04 3.100269023384e-03 0.0 
3.100269023384e-03 3.340960341130e-03 0.0 
0.0 0.0 -1.051791170495e-03 
1.399069373120e-04 1.939674922792e-03 0.0 
1.939674922792e-03 2.839420856551e-03 0.0 
0.0 0.0 -1.107463318235e-03 
-4.186704419438e-04 2.922768790841e-03 0.0 
2.922768790841e-03 3.866682433006e-03 0.0 
0.0 0.0 -1.115916943430e-03 
-1.595806012880e-03 2.986475684988e-04 0.0 
2.986475684988e-04 6.569860539438e-03 0.0 
0.0 0.0 -9.487150400336e-04 
9.874874757951e-04 2.001023480651e-03 0.0 
2.001023480651e-03 8.096298849095e-04 0.0 
0.0 0.0 -7.701931545877e-04 
1.099587361542e-03 -2.883577329194e-03 0.0 
-2.883577329194e-03 3.196281228081e-04 0.0 
0.0 0.0 -6.082352075787e-04 
-4.120182269500e-04 -8.254968701079e-04 0.0 
-8.254968701079e-04 1.533206618467e-03 0.0 
0.0 0.0 -4.510100977180e-04 
5.592980566656e-04 -2.545612127290e-03 0.0 
-2.545612127290e-03 8.296765578219e-04 0.0 
0.0 0.0 -5.952748347803e-04 
-6.262840441887e-04 -6.448010795071e-04 0.0 
-6.448010795071e-04 2.035833554771e-03 0.0 
0.0 0.0 -5.222488353909e-04 
-7.319508735308e-04 -8.428934672220e-04 0.0 
-8.428934672220e-04 2.464651158961e-03 0.0 
0.0 0.0 -6.822577977165e-04 
-4.713603530403e-04 -1.760178858830e-03 0.0 
-1.760178858830e-03 3.749274242464e-03 0.0 
0.0 0.0 -1.136360603439e-03 
-7.414846696447e-04 3.136821301181e-03 0.0 
3.136821301181e-03 4.510208953631e-03 0.0 
0.0 0.0 -1.124065295910e-03 
-8.446432131550e-04 3.218211498406e-03 0.0 
3.218211498406e-03 4.600039828402e-03 0.0 
0.0 0.0 -1.095615423988e-03 
1.374965702112e-04 2.907969111804e-03 0.0 
2.907969111804e-03 1.629175485309e-03 0.0 
0.0 0.0 -7.571451666514e-04 
-7.702727876907e-05 2.968579821374e-03 0.0 
2.968579821374e-03 2.049330152496e-03 0.0 
0.0 0.0 -8.452726601685e-04 
8.289727363508e-05 1.511362000005e-03 0.0 
1.511362000005e-03 2.985439199539e-03 0.0 
0.0 0.0 -1.136278651916e-03 
-1.765237675762e-03 1.222407657091e-03 0.0 
1.222407657091e-03 6.114667953270e-03 0.0 
0.0 0.0 -9.177848451843e-04 
-1.710580504207e-03 7.440398052567e-04 0.0 
7.440398052567e-04 6.380060456859e-03 0.0 
0.0 0.0 -9.302130594432e-04 
-1.676565589941e-03 5.872598873801e-04 0.0 
5.872598873801e-04 6.215440748447e-03 0.0 
0.0 0.0 -9.001900590098e-04 
-3.803857748505e-04 -5.434049098283e-04 0.0 
-5.434049098283e-04 1.471759670645e-03 0.0 
0.0 0.0 -3.494697005546e-04 
7.568627899495e-04 -2.787918667943e-03 0.0 
-2.787918667943e-03 7.221354992753e-04 0.0 
0.0 0.0 -6.338564096678e-04 
-1.662120244785e-03 1.162296850059e-03 0.0 
1.162296850059e-03 7.529797322482e-03 0.0 
0.0 0.0 -1.128363834889e-03 
2.037234962576e-03 2.841104701767e-03 0.0 
2.841104701767e-03 -4.145658898484e-04 0.0 
0.0 0.0 -6.954296025976e-04 
1.531315725723e-03 2.908052614029e-03 0.0 
2.908052614029e-03 2.448474694820e-06 0.0 
0.0 0.0 -6.573275144647e-04 
1.261589428094e-03 6.096704043663e-04 0.0 
6.096704043663e-04 -9.183369249884e-04 0.0 
0.0 0.0 -1.471082156167e-04 
7.631106832774e-04 -7.208428592914e-05 0.0 
-7.208428592914e-05 -6.801595576128e-04 0.0 
0.0 0.0 -3.555048242768e-05 
-1.589929625905e-03 3.288854672539e-04 0.0 
3.288854672539e-04 7.214274616426e-03 0.0 
0.0 0.0 -1.051814883004e-03 
-1.572388470156e-03 3.792019312018e-04 0.0 
3.792019312018e-04 7.619653826889e-03 0.0 
0.0 0.0 -1.117859435171e-03 
-1.078769339999e-03 -1.982110544533e-03 0.0 
-1.982110544533e-03 3.829235274235e-03 0.0 
0.0 0.0 -1.051224796075e-03 
-1.274189695606e-03 -1.627447894412e-03 0.0 
-1.627447894412e-03 4.185605639052e-03 0.0 
0.0 0.0 -1.050863174419e-03 
-1.969895269108e-04 -1.624325261337e-03 0.0 
-1.624325261337e-03 3.218036131210e-03 0.0 
0.0 0.0 -1.107558395918e-03 
3.636511301315e-04 -2.361072158115e-03 0.0 
-2.361072158115e-03 9.584204304499e-04 0.0 
0.0 0.0 -5.666020973920e-04 
-1.569287665322e-03 4.982993919659e-04 0.0 
4.982993919659e-04 7.796117196338e-03 0.0 
0.0 0.0 -1.149181664990e-03 
6.559202405712e-04 -1.403190814261e-03 0.0 
-1.403190814261e-03 1.391837788957e-03 0.0 
0.0 0.0 -8.776105840836e-04 
9.173022590222e-04 -1.676640049954e-03 0.0 
-1.676640049954e-03 6.107363237665e-04 0.0 
0.0 0.0 -6.548736783380e-04 
-1.171879392758e-03 -1.281686817317e-03 0.0 
-1.281686817317e-03 3.846852730435e-03 0.0 
0.0 0.0 -1.001803992689e-03 
1.504150752549e-03 2.803418453549e-03 0.0 
2.803418453549e-03 -4.311377337536e-05 0.0 
0.0 0.0 -6.261587053603e-04 
1.650316852641e-03 2.671963168056e-03 0.0 
2.671963168056e-03 -3.170419596538e-04 0.0 
0.0 0.0 -5.714035255658e-04 
1.466801754994e-03 -2.835534920743e-03 0.0 
-2.835534920743e-03 -6.856056088169e-05 0.0 
0.0 0.0 -5.992462260482e-04 
4.198225928608e-04 -2.489806032447e-03 0.0 
-2.489806032447e-03 9.452515050113e-04 0.0 
0.0 0.0 -5.850317562309e-04 
-7.228005656972e-04 -5.488391732617e-04 0.0 
-5.488391732617e-04 2.276834511977e-03 0.0 
0.0 0.0 -5.562745863746e-04 
-4.637036380639e-04 -1.428624458379e-03 0.0 
-1.428624458379e-03 3.853108176796e-03 0.0 
0.0 0.0 -1.173829981771e-03 
-1.646663843551e-03 1.358180133252e-03 0.0 
1.358180133252e-03 7.637691352308e-03 0.0 
0.0 0.0 -1.157575248917e-03 
-1.588531343900e-04 2.821657521555e-03 0.0 
2.821657521555e-03 3.283406077172e-03 0.0 
0.0 0.0 -1.080172819833e-03 
2.446831455112e-05 3.060603850123e-03 0.0 
3.060603850123e-03 2.728589719442e-03 0.0 
0.0 0.0 -1.015677837919e-03 
-3.660685555016e-04 2.667845735617e-03 0.0 
2.667845735617e-03 3.843962247037e-03 0.0 
0.0 0.0 -1.144955025780e-03 
2.673047132891e-04 -2.137865757300e-03 0.0 
-2.137865757300e-03 9.516698016607e-04 0.0 
0.0 0.0 -5.224176492642e-04 
-7.311483308604e-04 -1.856928531792e-03 0.0 
-1.856928531792e-03 4.285424001286e-03 0.0 
0.0 0.0 -1.165794428787e-03 
-2.038713827362e-03 -9.521744761757e-04 0.0 
-9.521744761757e-04 5.942161280998e-03 0.0 
0.0 0.0 -1.070719593515e-03 
-9.487823984943e-04 3.179202297983e-03 0.0 
3.179202297983e-03 5.046317585578e-03 0.0 
0.0 0.0 -1.157598467365e-03 
-1.028189826122e-03 3.189698687636e-03 0.0 
3.189698687636e-03 5.131498804919e-03 0.0 
0.0 0.0 -1.131219827106e-03 
1.693489723556e-03 2.912737131245e-03 0.0 
2.912737131245e-03 -1.493629984725e-04 0.0 
0.0 0.0 -6.617685964645e-04 
1.185947765099e-03 2.829659806798e-03 0.0 
2.829659806798e-03 2.506006467406e-04 0.0 
0.0 0.0 -6.156636050741e-04 
1.024663306531e-03 2.720941116212e-03 0.0 
2.720941116212e-03 3.858661710823e-04 0.0 
0.0 0.0 -6.045126332627e-04 
7.581467413336e-04 2.629057648791e-03 0.0 
2.629057648791e-03 6.283993164515e-04 0.0 
0.0 0.0 -5.942340247651e-04 
-1.648477658061e-03 2.188124378807e-03 0.0 
2.188124378807e-03 4.981950326516e-03 0.0 
0.0 0.0 -8.520119503206e-04 
1.288363213325e-03 2.918108490938e-03 0.0 
2.918108490938e-03 1.603315013667e-04 0.0 
0.0 0.0 -6.208691634391e-04 
-1.164374950017e-03 2.801514945082e-03 0.0 
2.801514945082e-03 4.086272555253e-03 0.0 
0.0 0.0 -8.983830653277e-04 
-1.269722602642e-03 2.487508477755e-03 0.0 
2.487508477755e-03 4.199128990551e-03 0.0 
0.0 0.0 -8.736227209573e-04 
-1.046332524412e-03 2.638264182984e-03 0.0 
2.638264182984e-03 3.789437134256e-03 0.0 
0.0 0.0 -8.954616384525e-04 
-9.535589006008e-05 3.192865815352e-03 0.0 
3.192865815352e-03 2.227004452414e-03 0.0 
0.0 0.0 -9.127067050351e-04 
-3.022280285659e-04 2.955332983640e-03 0.0 
2.955332983640e-03 2.491438051520e-03 0.0 
0.0 0.0 -9.307589223859e-04 
2.556968385694e-03 2.345203577048e-03 0.0 
2.345203577048e-03 -8.968266888023e-04 0.0 
0.0 0.0 -7.114892986678e-04 
1.812389688023e-03 1.564451495357e-03 0.0 
1.564451495357e-03 -6.179615212951e-04 0.0 
0.0 0.0 -5.118977857407e-04 
-8.515674767651e-04 -2.308299700533e-03 0.0 
-2.308299700533e-03 3.434983390257e-03 0.0 
0.0 0.0 -1.054912416397e-03 
-1.137266829401e-03 -2.398619768870e-03 0.0 
-2.398619768870e-03 4.055285407119e-03 0.0 
0.0 0.0 -1.045074301760e-03 
3.367977982503e-04 -3.065748121326e-03 0.0 
-3.065748121326e-03 1.429094799845e-03 0.0 
0.0 0.0 -7.568111134693e-04 
-1.629365191565e-03 9.257695161170e-04 0.0 
9.257695161170e-04 7.634439739813e-03 0.0 
0.0 0.0 -1.135109731873e-03 
-1.590870954180e-03 8.599854275843e-04 0.0 
8.599854275843e-04 7.870981141839e-03 0.0 
0.0 0.0 -1.171938512032e-03 
-1.643416432560e-03 4.449926551975e-04 0.0 
4.449926551975e-04 6.296597502974e-03 0.0 
0.0 0.0 -9.065739516476e-04 
-1.602464872442e-03 3.219184720994e-04 0.0 
3.219184720994e-04 6.108782366366e-03 0.0 
0.0 0.0 -8.764137937918e-04 
-2.696764371388e-04 -1.265861831851e-03 0.0 
-1.265861831851e-03 1.411045974668e-03 0.0 
0.0 0.0 -4.842067647502e-04 
-1.400634450087e-04 -1.409834388031e-03 0.0 
-1.409834388031e-03 1.204297259864e-03 0.0 
0.0 0.0 -4.502468535423e-04 
-2.319199994023e-04 -3.122878098546e-03 0.0 
-3.122878098546e-03 2.451044877422e-03 0.0 
0.0 0.0 -9.437206122825e-04 
-7.988578011231e-04 -2.058259969339e-03 0.0 
-2.058259969339e-03 4.234722114073e-03 0.0 
0.0 0.0 -1.127529358476e-03 
-1.669665556383e-03 1.635524756470e-03 0.0 
1.635524756470e-03 7.469407833496e-03 0.0 
0.0 0.0 -1.150095860580e-03 
-1.643068085807e-03 1.857648967737e-03 0.0 
1.857648967737e-03 7.542411325100e-03 0.0 
0.0 0.0 -1.179372829571e-03 
-1.673921977860e-03 1.925750498755e-03 0.0 
1.925750498755e-03 7.258395415596e-03 0.0 
0.0 0.0 -1.143369325256e-03 
-2.014473825755e-04 -1.218765106027e-03 0.0 
-1.218765106027e-03 3.345673547677e-03 0.0 
0.0 0.0 -1.144273392007e-03 
3.110341159347e-03 3.472939405717e-04 0.0 
3.472939405717e-04 -1.445647776500e-03 0.0 
0.0 0.0 -7.134400212203e-04 
1.600864292633e-03 -4.933060105816e-04 0.0 
-4.933060105816e-04 -5.124875882504e-04 0.0 
0.0 0.0 -4.664471590211e-04 
1.395368066446e-03 -9.561308999161e-04 0.0 
-9.561308999161e-04 -1.034414870566e-03 0.0 
0.0 0.0 -1.546942268056e-04 
3.758232775366e-04 3.466607308548e-03 0.0 
3.466607308548e-03 1.708095271688e-03 0.0 
0.0 0.0 -8.625807428358e-04 
-1.387284875597e-04 -1.147843400141e-03 0.0 
-1.147843400141e-03 1.071097091449e-03 0.0 
0.0 0.0 -3.720583479433e-04 
-1.231098641636e-03 3.135190691380e-03 0.0 
3.135190691380e-03 4.944666622865e-03 0.0 
0.0 0.0 -1.010319580236e-03 
-1.984786992954e-03 -8.733459957740e-04 0.0 
-8.733459957740e-04 6.259759611652e-03 0.0 
0.0 0.0 -1.122815839103e-03 
-1.861926426933e-03 -1.095524342960e-03 0.0 
-1.095524342960e-03 6.311220838631e-03 0.0 
0.0 0.0 -1.159213750608e-03 
-1.725327838232e-04 1.829528703914e-03 0.0 
1.829528703914e-03 3.501045676607e-03 0.0 
0.0 0.0 -1.171959308352e-03 
-1.590101240846e-03 1.706978125594e-03 0.0 
1.706978125594e-03 4.660773429978e-03 0.0 
0.0 0.0 -7.960146267056e-04 
5.073336669335e-04 3.214445659709e-03 0.0 
3.214445659709e-03 1.538412133141e-03 0.0 
0.0 0.0 -8.506774374544e-04 
8.851619009454e-04 2.969244090533e-03 0.0 
2.969244090533e-03 8.376787810317e-04 0.0 
0.0 0.0 -7.383602922759e-04 
-1.156062255108e-03 2.301233915827e-03 0.0 
2.301233915827e-03 3.896290621430e-03 0.0 
0.0 0.0 -8.625652443140e-04 
-9.471297243856e-04 2.440002294532e-03 0.0 
2.440002294532e-03 3.517004994648e-03 0.0 
0.0 0.0 -8.875966840820e-04 
-8.066787093543e-04 2.777426977554e-03 0.0 
2.777426977554e-03 3.370899001042e-03 0.0 
0.0 0.0 -9.244972712473e-04 
-7.192390311965e-04 2.566107428446e-03 0.0 
2.566107428446e-03 3.124935059627e-03 0.0 
0.0 0.0 -9.234394568817e-04 
1.009712769882e-03 -2.639627470040e-03 0.0 
-2.639627470040e-03 3.518698063256e-04 0.0 
0.0 0.0 -5.835353898034e-04 
7.225051380104e-04 -2.634694636205e-03 0.0 
-2.634694636205e-03 6.767854285005e-04 0.0 
0.0 0.0 -5.996959570761e-04 
-8.921567267479e-04 3.111111284804e-03 0.0 
3.111111284804e-03 5.059665355678e-03 0.0 
0.0 0.0 -1.192042136895e-03 
-6.099967263224e-04 2.870760626298e-03 0.0 
2.870760626298e-03 4.411064189710e-03 0.0 
0.0 0.0 -1.178660172201e-03 
-1.100042912757e-03 3.200343520554e-03 0.0 
3.200343520554e-03 5.573219155758e-03 0.0 
0.0 0.0 -1.193029175878e-03 
-1.160667669830e-03 3.176739035806e-03 0.0 
3.176739035806e-03 5.649176834465e-03 0.0 
0.0 0.0 -1.168165168231e-03 
-2.521445186915e-04 1.437999620024e-03 0.0 
1.437999620024e-03 3.663538457504e-03 0.0 
0.0 0.0 -1.200910491468e-03 
-1.175265126893e-05 1.083930210957e-03 0.0 
1.083930210957e-03 3.184478001405e-03 0.0 
0.0 0.0 -1.164168769488e-03 
-8.338945190871e-04 -6.899851568111e-04 0.0 
-6.899851568111e-04 2.693161182237e-03 0.0 
0.0 0.0 -7.014880017679e-04 
-2.848117966112e-04 2.692565546894e-03 0.0 
2.692565546894e-03 2.299445011333e-03 0.0 
0.0 0.0 -8.634142348809e-04 
-1.596224494799e-03 1.291320717670e-03 0.0 
1.291320717670e-03 7.883322151599e-03 0.0 
0.0 0.0 -1.194151889699e-03 
-1.353314944435e-03 2.157291733394e-03 0.0 
2.157291733394e-03 4.270289119183e-03 0.0 
0.0 0.0 -8.433929263471e-04 
-9.622501338421e-04 -1.912189492832e-03 0.0 
-1.912189492832e-03 4.776924830183e-03 0.0 
0.0 0.0 -1.192835421428e-03 
-1.026421419571e-03 -2.028541400734e-03 0.0 
-2.028541400734e-03 4.755168212354e-03 0.0 
0.0 0.0 -1.156047193884e-03 
4.478208592864e-04 -3.751585586859e-04 0.0 
-3.751585586859e-04 -4.241673929217e-04 0.0 
0.0 0.0 -1.013719987055e-05 
1.244125017972e-03 -1.917312666705e-03 0.0 
-1.917312666705e-03 -7.538799606522e-04 0.0 
0.0 0.0 -2.101050245656e-04 
-1.537691014338e-03 4.222863431362e-04 0.0 
4.222863431362e-04 8.020533850651e-03 0.0 
0.0 0.0 -1.184588873336e-03 
6.358527835684e-04 2.480430970654e-03 0.0 
2.480430970654e-03 6.941509382628e-04 0.0 
0.0 0.0 -5.700015950705e-04 
4.499471129459e-04 2.458836012126e-03 0.0 
2.458836012126e-03 9.036367217386e-04 0.0 
0.0 0.0 -5.801073577219e-04 
8.196974528425e-04 2.512758387053e-03 0.0 
2.512758387053e-03 5.135885621210e-04 0.0 
0.0 0.0 -5.714082921272e-04 
-1.721775180469e-03 -2.750261499923e-04 0.0 
-2.750261499923e-04 6.955705942823e-03 0.0 
0.0 0.0 -1.258310293365e-03 
-1.440319018305e-03 2.756393348766e-05 0.0 
2.756393348766e-05 5.261443928406e-03 0.0 
0.0 0.0 -7.479256703001e-04 
-1.851935248777e-03 -8.185806621322e-04 0.0 
-8.185806621322e-04 6.555435669483e-03 0.0 
0.0 0.0 -1.189418985649e-03 
-3.624356194934e-04 3.164434027964e-03 0.0 
3.164434027964e-03 2.710514095153e-03 0.0 
0.0 0.0 -9.658202727595e-04 
-1.517819935298e-03 5.689925216528e-04 0.0 
5.689925216528e-04 8.183121975380e-03 0.0 
0.0 0.0 -1.216510697198e-03 
6.201224625516e-04 2.820752531408e-03 0.0 
2.820752531408e-03 1.452084294343e-03 0.0 
0.0 0.0 -8.651011823288e-04 
9.038760669871e-04 3.026845929911e-03 0.0 
3.026845929911e-03 6.793831834175e-04 0.0 
0.0 0.0 -6.785396787449e-04 
8.674105580954e-05 -1.429107710981e-03 0.0 
-1.429107710981e-03 2.679701546003e-03 0.0 
0.0 0.0 -1.078177493492e-03 
-1.550932841916e-03 2.613354928632e-04 0.0 
2.613354928632e-04 7.825402361396e-03 0.0 
0.0 0.0 -1.149140729088e-03 
-1.512659112896e-03 3.422106709257e-04 0.0 
3.422106709257e-04 8.249752470507e-03 0.0 
0.0 0.0 -1.221625961084e-03 
-1.676659295308e-03 6.110344698925e-04 0.0 
6.110344698925e-04 5.968416883272e-03 0.0 
0.0 0.0 -8.638707813346e-04 
-1.641988205188e-03 4.340588364437e-04 0.0 
4.340588364437e-04 5.771155948817e-03 0.0 
0.0 0.0 -8.327709333130e-04 
-1.719162707249e-03 7.708162564075e-04 0.0 
7.708162564075e-04 6.112617701018e-03 0.0 
0.0 0.0 -8.925140200429e-04 
1.977927820577e-03 1.598623588264e-03 0.0 
1.598623588264e-03 -1.019208972965e-03 0.0 
0.0 0.0 -4.108795061196e-04 
1.108521086627e-03 1.458274724011e-03 0.0 
1.458274724011e-03 -6.824978449185e-04 0.0 
0.0 0.0 -1.825813893037e-04 
-1.599533954581e-03 7.014631110784e-04 0.0 
7.014631110784e-04 7.724369133548e-03 0.0 
0.0 0.0 -1.142090266074e-03 
-7.915237200633e-04 -1.416691550801e-03 0.0 
-1.416691550801e-03 2.916147842675e-03 0.0 
0.0 0.0 -8.917970384883e-04 
-9.526528541598e-04 -1.159662932408e-03 0.0 
-1.159662932408e-03 3.237497577102e-03 0.0 
0.0 0.0 -9.066540859529e-04 
1.679025679155e-04 -2.197795369639e-03 0.0 
-2.197795369639e-03 1.134113528401e-03 0.0 
0.0 0.0 -5.580068984213e-04 
1.993437938488e-04 -2.372930192997e-03 0.0 
-2.372930192997e-03 1.192906332053e-03 0.0 
0.0 0.0 -5.966786253865e-04 
-1.011942446972e-03 -2.270969963916e-03 0.0 
-2.270969963916e-03 3.766401779748e-03 0.0 
0.0 0.0 -1.058899862332e-03 
-7.573046355122e-04 -2.581800115454e-03 0.0 
-2.581800115454e-03 3.322201121737e-03 0.0 
0.0 0.0 -1.050266080739e-03 
-1.095827954621e-03 3.216069521876e-03 0.0 
3.216069521876e-03 4.826499025112e-03 0.0 
0.0 0.0 -1.038692069610e-03 
-1.234301998555e-03 3.107456630916e-03 0.0 
3.107456630916e-03 5.310904523361e-03 0.0 
0.0 0.0 -1.074129358999e-03 
-7.180889207275e-04 3.499463535137e-03 0.0 
3.499463535137e-03 3.763199671929e-03 0.0 
0.0 0.0 -9.722238801078e-04 
6.053063119579e-04 -2.030268547273e-03 0.0 
-2.030268547273e-03 1.237774920504e-03 0.0 
0.0 0.0 -7.898919567692e-04 
8.551862749054e-04 -2.258528060602e-03 0.0 
-2.258528060602e-03 5.423122765455e-04 0.0 
0.0 0.0 -5.989279506218e-04 
1.198969096751e-03 -1.716835984739e-03 0.0 
-1.716835984739e-03 -1.728528183354e-05 0.0 
0.0 0.0 -5.064359206787e-04 
-1.578160803348e-03 1.029909350069e-03 0.0 
1.029909350069e-03 7.988225935028e-03 0.0 
0.0 0.0 -1.199867006878e-03 
-1.525066789097e-03 9.716746199443e-04 0.0 
9.716746199443e-04 8.273760627129e-03 0.0 
0.0 0.0 -1.242728214876e-03 
1.321351467926e-03 -2.568351524438e-03 0.0 
-2.568351524438e-03 -2.315153931412e-07 0.0 
0.0 0.0 -5.661942653711e-04 
1.809254267051e-03 -2.583366555036e-03 0.0 
-2.583366555036e-03 -4.342692756295e-04 0.0 
0.0 0.0 -5.892792820379e-04 
6.921033763950e-04 -2.656898720389e-03 0.0 
-2.656898720389e-03 7.465441525006e-04 0.0 
0.0 0.0 -6.165632266696e-04 
-1.574485567314e-03 1.499311237931e-03 0.0 
1.499311237931e-03 7.988348182121e-03 0.0 
0.0 0.0 -1.223056365294e-03 
-1.741572698048e-03 -1.051965994170e-03 0.0 
-1.051965994170e-03 6.624165410999e-03 0.0 
0.0 0.0 -1.224004481682e-03 
-1.735235085971e-03 -1.304001527318e-03 0.0 
-1.304001527318e-03 6.344789461694e-03 0.0 
0.0 0.0 -1.195820777905e-03 
-2.679240954609e-05 -1.257927253223e-03 0.0 
-1.257927253223e-03 9.029103496679e-04 0.0 
0.0 0.0 -3.450663815859e-04 
-3.035170911774e-06 -1.579137764012e-03 0.0 
-1.579137764012e-03 1.039327180488e-03 0.0 
0.0 0.0 -4.410249086127e-04 
1.155100538592e-03 2.631364371344e-03 0.0 
2.631364371344e-03 1.868470155697e-04 0.0 
0.0 0.0 -5.751203803551e-04 
1.215808673203e-03 2.544029937651e-03 0.0 
2.544029937651e-03 -5.958635491021e-05 0.0 
0.0 0.0 -4.955238506970e-04 
-1.603953202991e-03 2.084851501461e-03 0.0 
2.084851501461e-03 7.579130278610e-03 0.0 
0.0 0.0 -1.207258722210e-03 
-1.637778905667e-03 2.162652518366e-03 0.0 
2.162652518366e-03 7.304299819900e-03 0.0 
0.0 0.0 -1.172631524865e-03 
-1.556077565275e-03 2.029656444368e-03 0.0 
2.029656444368e-03 7.905393318382e-03 0.0 
0.0 0.0 -1.247471551777e-03 
-8.078621275666e-04 -3.743686463011e-04 0.0 
-3.743686463011e-04 2.476609172107e-03 0.0 
0.0 0.0 -5.753817989848e-04 
1.173818397494e-04 2.725852523849e-03 0.0 
2.725852523849e-03 2.691650762888e-03 0.0 
0.0 0.0 -1.045322365442e-03 
-5.040778805934e-04 -1.070896588493e-03 0.0 
-1.070896588493e-03 3.980562278462e-03 0.0 
0.0 0.0 -1.207899217314e-03 
-2.520428194526e-04 -7.965635153337e-04 0.0 
-7.965635153337e-04 3.542662319704e-03 0.0 
0.0 0.0 -1.178012378629e-03 
-7.711086010594e-04 -1.329041706335e-03 0.0 
-1.329041706335e-03 4.567355749165e-03 0.0 
0.0 0.0 -1.244624083072e-03 
-1.223572839919e-04 2.186752793674e-03 0.0 
2.186752793674e-03 3.375840631155e-03 0.0 
0.0 0.0 -1.142102124289e-03 
-4.435966474857e-04 2.091597596222e-03 0.0 
2.091597596222e-03 3.997165180884e-03 0.0 
0.0 0.0 -1.205428683694e-03 
-6.295415077105e-04 2.617745388046e-03 0.0 
2.617745388046e-03 4.421095216534e-03 0.0 
0.0 0.0 -1.209323031234e-03 
8.913702169857e-05 -5.356610077544e-06 0.0 
-5.356610077544e-06 -8.913702169857e-05 0.0 
0.0 0.0 0.0 
-1.516551893121e-03 1.931531950452e-04 0.0 
1.931531950452e-04 8.105824831205e-03 0.0 
0.0 0.0 -1.199992767657e-03 
-1.600603275175e-03 3.197306060267e-04 0.0 
3.197306060267e-04 5.842030124630e-03 0.0 
0.0 0.0 -8.371571859873e-04 
0.0 0.0 0.0 
0.0 0.0 0.0 
0.0 0.0 0.0 
-1.547068004807e-03 2.255592860515e-04 0.0 
2.255592860515e-04 5.653808019545e-03 0.0 
0.0 0.0 -8.070151920887e-04 
-1.566358775821e-03 2.266234695203e-04 0.0 
2.266234695203e-04 5.919104175052e-03 0.0 
0.0 0.0 -8.451615393777e-04 
-1.505853756260e-03 1.425564258005e-04 0.0 
1.425564258005e-04 5.404792730384e-03 0.0 
0.0 0.0 -7.748096441827e-04 
-6.628775469822e-04 -3.015658585898e-04 0.0 
-3.015658585898e-04 2.010090265861e-03 0.0 
0.0 0.0 -4.206613647546e-04 
-1.675398106948e-03 5.868598101642e-04 0.0 
5.868598101642e-04 5.623434088204e-03 0.0 
0.0 0.0 -8.174106193842e-04 
-1.726757844430e-03 7.924650127462e-04 0.0 
7.924650127462e-04 5.855419414792e-03 0.0 
0.0 0.0 -8.556612431672e-04 
8.558548932515e-05 -1.128009013281e-03 0.0 
-1.128009013281e-03 6.309628739441e-04 0.0 
0.0 0.0 -2.713320700168e-04 
-1.513004436039e-03 1.420623121839e-03 0.0 
1.420623121839e-03 8.214217499082e-03 0.0 
0.0 0.0 -1.259301554906e-03 
1.749391661274e-04 -1.082733169331e-03 0.0 
-1.082733169331e-03 5.892299780132e-04 0.0 
0.0 0.0 -2.441793916413e-04 
1.147662153238e-04 -1.066745943300e-03 0.0 
-1.066745943300e-03 7.910181080930e-04 0.0 
0.0 0.0 -2.872885922025e-04 
-1.122672355991e-03 -1.921241529141e-03 0.0 
-1.921241529141e-03 5.266335920734e-03 0.0 
0.0 0.0 -1.221214701962e-03 
-1.203549749022e-03 -1.976762786956e-03 0.0 
-1.976762786956e-03 5.228557791274e-03 0.0 
0.0 0.0 -1.184344882880e-03 
-1.271935696370e-03 -1.932492998885e-03 0.0 
-1.932492998885e-03 5.682500405781e-03 0.0 
0.0 0.0 -1.247726601234e-03 
-1.345935677545e-03 -1.879180138911e-03 0.0 
-1.879180138911e-03 5.631962343118e-03 0.0 
0.0 0.0 -1.211018817991e-03 
-1.319489507466e-03 -1.996946989352e-03 0.0 
-1.996946989352e-03 5.223869660522e-03 0.0 
0.0 0.0 -1.147066289601e-03 
-1.457152980048e-03 -1.833275450520e-03 0.0 
-1.833275450520e-03 5.658001904065e-03 0.0 
0.0 0.0 -1.176490610025e-03 
-1.598701855115e-03 3.112456463076e-04 0.0 
3.112456463076e-04 5.594187128056e-03 0.0 
0.0 0.0 -7.985989294648e-04 
-1.425017338431e-03 -1.793987580484e-03 0.0 
-1.793987580484e-03 6.077694866820e-03 0.0 
0.0 0.0 -1.249018369598e-03 
-1.544794874514e-03 -1.654652183582e-03 0.0 
-1.654652183582e-03 6.043342076509e-03 0.0 
0.0 0.0 -1.207442871744e-03 
-1.490747382805e-03 -1.688185045970e-03 0.0 
-1.688185045970e-03 6.481641932430e-03 0.0 
0.0 0.0 -1.277927415301e-03 
-8.701201880038e-04 2.189049665711e-03 0.0 
2.189049665711e-03 3.268695103799e-03 0.0 
0.0 0.0 -8.722607330507e-04 
5.310970710450e-04 2.630450444314e-03 0.0 
2.630450444314e-03 9.000089298474e-04 0.0 
0.0 0.0 -6.133311432396e-04 
2.617133158352e-04 2.476764240616e-03 0.0 
2.476764240616e-03 1.164640329384e-03 0.0 
0.0 0.0 -6.112944193795e-04 
1.728571300418e-04 2.227493690469e-03 0.0 
2.227493690469e-03 1.142483149507e-03 0.0 
0.0 0.0 -5.637172626637e-04 
-1.229541831672e-03 3.263680413163e-03 0.0 
3.263680413163e-03 6.138633277811e-03 0.0 
0.0 0.0 -1.240180566941e-03 
-1.276361500880e-03 3.187291024850e-03 0.0 
3.187291024850e-03 6.099399323178e-03 0.0 
0.0 0.0 -1.200590015451e-03 
-2.088598425736e-03 -6.246367196868e-04 0.0 
-6.246367196868e-04 6.194373546362e-03 0.0 
0.0 0.0 -1.090180627845e-03 
-2.041663287848e-03 -6.617363893855e-04 0.0 
-6.617363893855e-04 5.852171557009e-03 0.0 
0.0 0.0 -1.067141795818e-03 
-1.532469855713e-03 1.525337910669e-04 0.0 
1.525337910669e-04 5.692847008020e-03 0.0 
0.0 0.0 -8.108182148135e-04 
-1.511312180107e-03 9.255618039040e-05 0.0 
9.255618039040e-05 5.666580148835e-03 0.0 
0.0 0.0 -8.077352941366e-04 
-1.560488436606e-03 1.911238081195e-04 0.0 
1.911238081195e-04 6.070956180256e-03 0.0 
0.0 0.0 -8.678526801547e-04 
-1.544526745633e-03 1.030985674976e-04 0.0 
1.030985674976e-04 6.005801825662e-03 0.0 
0.0 0.0 -8.609153521579e-04 
-1.580530064686e-03 1.945628071657e-04 0.0 
1.945628071657e-04 6.420611350931e-03 0.0 
0.0 0.0 -9.200517378055e-04 
-1.559403933791e-03 8.887484367551e-05 0.0 
8.887484367551e-05 6.359767284502e-03 0.0 
0.0 0.0 -9.108947733944e-04 
-1.583263469338e-03 1.334252269549e-04 0.0 
1.334252269549e-04 6.753346818615e-03 0.0 
0.0 0.0 -9.726914458129e-04 
-8.669769815257e-04 2.889098903744e-03 0.0 
2.889098903744e-03 5.024560399167e-03 0.0 
0.0 0.0 -1.245087786853e-03 
4.982055672495e-04 2.293020821825e-03 0.0 
2.293020821825e-03 7.508210362061e-04 0.0 
0.0 0.0 -5.352971157667e-04 
-1.245162061090e-03 1.941632408908e-03 0.0 
1.941632408908e-03 3.965163190857e-03 0.0 
0.0 0.0 -8.237883836899e-04 
-3.879507205886e-04 1.027612391922e-03 0.0 
1.027612391922e-03 3.877749242080e-03 0.0 
0.0 0.0 -1.228261380050e-03 
-1.475502455479e-04 6.710535629733e-04 0.0 
6.710535629733e-04 3.400758398957e-03 0.0 
0.0 0.0 -1.187396807988e-03 
-4.877113708210e-04 2.653909423409e-03 0.0 
2.653909423409e-03 2.711925927626e-03 0.0 
0.0 0.0 -9.301491777014e-04 
-4.673273112926e-04 2.354591855457e-03 0.0 
2.354591855457e-03 2.518811343451e-03 0.0 
0.0 0.0 -8.783714799336e-04 
-9.656459474725e-04 -1.750454010380e-03 0.0 
-1.750454010380e-03 4.960948450779e-03 0.0 
0.0 0.0 -1.238794375355e-03 
1.773029984471e-03 2.918628512030e-03 0.0 
2.918628512030e-03 -2.405794798709e-04 0.0 
0.0 0.0 -6.567645019713e-04 
-1.474754496101e-03 1.652724927503e-03 0.0 
1.652724927503e-03 8.365646577830e-03 0.0 
0.0 0.0 -1.295459716840e-03 
0.0 0.0 0.0 
0.0 0.0 0.0 
0.0 0.0 0.0 
1.498393906149e-04 3.022053957605e-04 0.0 
3.022053957605e-04 -1.163750170629e-04 0.0 
0.0 0.0 -1.434187437943e-05 
1.327025876230e-03 3.010605488358e-03 0.0 
3.010605488358e-03 1.473338213913e-04 0.0 
0.0 0.0 -6.318684418375e-04 
-5.499021132442e-04 2.888144921732e-03 0.0 
2.888144921732e-03 2.938437648155e-03 0.0 
0.0 0.0 -9.558721723632e-04 
3.323415439528e-04 2.743520330787e-03 0.0 
2.743520330787e-03 1.229329144075e-03 0.0 
0.0 0.0 -6.692874377263e-04 
9.209566797494e-05 2.604630668434e-03 0.0 
2.604630668434e-03 1.511290340994e-03 0.0 
0.0 0.0 -6.871654324154e-04 
3.645468755337e-04 -1.692092076938e-03 0.0 
-1.692092076938e-03 1.976975662064e-03 0.0 
0.0 0.0 -9.759998253719e-04 
1.091376312940e-04 -1.700138468344e-03 0.0 
-1.700138468344e-03 9.084482070208e-04 0.0 
0.0 0.0 -4.293607968937e-04 
9.860679807434e-04 2.546469046220e-03 0.0 
2.546469046220e-03 3.575313038065e-04 0.0 
0.0 0.0 -5.758282648071e-04 
-1.592993118431e-03 2.731466696240e-04 0.0 
2.731466696240e-04 6.800272037187e-03 0.0 
0.0 0.0 -9.796923013958e-04 
6.911227834126e-04 2.251046992259e-03 0.0 
2.251046992259e-03 5.130124139505e-04 0.0 
0.0 0.0 -5.160579417270e-04 
-2.121618955622e-03 -3.224058753556e-04 0.0 
-3.224058753556e-04 6.099005119318e-03 0.0 
0.0 0.0 -1.073807358551e-03 
2.201373567652e-03 2.690698738968e-03 0.0 
2.690698738968e-03 -6.091920316776e-04 0.0 
0.0 0.0 -6.823635154174e-04 
-1.638384935320e-04 3.372316730358e-03 0.0 
3.372316730358e-03 2.445531910937e-03 0.0 
0.0 0.0 -9.519839029876e-04 
1.275974649949e-03 2.775715452302e-03 0.0 
2.775715452302e-03 1.801999389927e-04 0.0 
0.0 0.0 -6.240748238320e-04 
8.350192799097e-04 2.727176630851e-03 0.0 
2.727176630851e-03 5.820764688072e-04 0.0 
0.0 0.0 -6.073267494501e-04 
-1.574296698924e-03 2.484580816168e-03 0.0 
2.484580816168e-03 4.927078130058e-03 0.0 
0.0 0.0 -8.786961992330e-04 
-1.699341285066e-03 1.882952510091e-03 0.0 
1.882952510091e-03 5.001649373791e-03 0.0 
0.0 0.0 -8.239340753773e-04 
-1.544077067517e-03 2.021174845409e-03 0.0 
2.021174845409e-03 4.648313902463e-03 0.0 
0.0 0.0 -8.287327148421e-04 
2.547623254183e-03 2.268646563305e-03 0.0 
2.268646563305e-03 -9.255766277510e-04 0.0 
0.0 0.0 -6.951628398994e-04 
-9.793607364304e-05 2.680641002234e-03 0.0 
2.680641002234e-03 1.905972935152e-03 0.0 
0.0 0.0 -7.748729406467e-04 
-1.401926105552e-04 2.272349151151e-03 0.0 
2.272349151151e-03 1.732062029039e-03 0.0 
0.0 0.0 -6.822297507788e-04 
-1.042335079289e-03 3.085608632330e-03 0.0 
3.085608632330e-03 3.939330989580e-03 0.0 
0.0 0.0 -9.170298757010e-04 
-1.694312562690e-03 2.003906122110e-03 0.0 
2.003906122110e-03 6.960974899569e-03 0.0 
0.0 0.0 -1.107475121065e-03 
-1.654341182746e-03 2.234400658440e-03 0.0 
2.234400658440e-03 6.989596744706e-03 0.0 
0.0 0.0 -1.136341617999e-03 
-1.591073595122e-03 2.379952355984e-03 0.0 
2.379952355984e-03 7.311228899108e-03 0.0 
0.0 0.0 -1.199268560344e-03 
-1.606550985090e-03 2.450965261895e-03 0.0 
2.450965261895e-03 7.002228799418e-03 0.0 
0.0 0.0 -1.164598082371e-03 
-1.654615127137e-03 2.306554865062e-03 0.0 
2.306554865062e-03 6.662432923767e-03 0.0 
0.0 0.0 -1.100413285504e-03 
-1.595489437176e-03 2.513437590904e-03 0.0 
2.513437590904e-03 6.653696588520e-03 0.0 
0.0 0.0 -1.129075729544e-03 
-1.546389988990e-03 2.664193302564e-03 0.0 
2.664193302564e-03 6.994860909819e-03 0.0 
0.0 0.0 -1.193594387005e-03 
-1.524710140769e-03 2.725114460972e-03 0.0 
2.725114460972e-03 6.640657221836e-03 0.0 
0.0 0.0 -1.159256375294e-03 
-1.483453285402e-03 2.879360167952e-03 0.0 
2.879360167952e-03 7.061959584516e-03 0.0 
0.0 0.0 -1.234286862126e-03 
-1.459335345335e-03 2.896614314087e-03 0.0 
2.896614314087e-03 6.597331098230e-03 0.0 
0.0 0.0 -1.187309181180e-03 
-1.487240193726e-03 2.797813669470e-03 0.0 
2.797813669470e-03 6.237817525026e-03 0.0 
0.0 0.0 -1.120864512401e-03 
-1.416348664038e-03 2.952147323061e-03 0.0 
2.952147323061e-03 6.179572228468e-03 0.0 
0.0 0.0 -1.147759711419e-03 
-1.401702611885e-03 3.058403427338e-03 0.0 
3.058403427338e-03 6.528924407833e-03 0.0 
0.0 0.0 -1.207767947030e-03 
-1.429554607918e-03 2.882577101757e-03 0.0 
2.882577101757e-03 5.825437132677e-03 0.0 
0.0 0.0 -1.082593982084e-03 
-6.657140394303e-04 1.410986986977e-03 0.0 
1.410986986977e-03 4.342280522210e-03 0.0 
0.0 0.0 -1.264544343569e-03 
1.285034861164e-03 3.046453072889e-03 0.0 
3.046453072889e-03 2.156214386420e-04 0.0 
0.0 0.0 -6.431384142027e-04 
3.221685064304e-04 2.100220635338e-04 0.0 
2.100220635338e-04 -3.125792772457e-04 0.0 
0.0 0.0 -4.109669650583e-06 
7.277286052914e-04 1.662264959666e-03 0.0 
1.662264959666e-03 -4.217765524128e-04 0.0 
0.0 0.0 -1.311223083766e-04 
-4.639929809661e-04 3.327821869830e-03 0.0 
3.327821869830e-03 2.959449472573e-03 0.0 
0.0 0.0 -9.691543639280e-04 
-1.437907230863e-03 2.996700486661e-03 0.0 
2.996700486661e-03 7.518201304671e-03 0.0 
0.0 0.0 -1.299806302097e-03 
-1.466395687024e-03 2.621641971218e-03 0.0 
2.621641971218e-03 7.881651097987e-03 0.0 
0.0 0.0 -1.301753673823e-03 
2.487482228611e-03 2.475720953215e-03 0.0 
2.475720953215e-03 -8.077451105291e-04 0.0 
0.0 0.0 -7.198873363210e-04 
-1.280305576935e-03 3.404019922885e-03 0.0 
3.404019922885e-03 6.453749912264e-03 0.0 
0.0 0.0 -1.303413959896e-03 
-1.478986277362e-03 2.335815426712e-03 0.0 
2.335815426712e-03 4.599949913439e-03 0.0 
0.0 0.0 -8.572908036711e-04 
2.443469762099e-03 1.504212848516e-03 0.0 
1.504212848516e-03 -1.149517681368e-03 0.0 
0.0 0.0 -5.545508917418e-04 
-1.188451958700e-03 3.233888318984e-03 0.0 
3.233888318984e-03 5.957074391346e-03 0.0 
0.0 0.0 -1.304286792737e-03 
-1.700650587437e-03 2.084768146748e-03 0.0 
2.084768146748e-03 6.648225866754e-03 0.0 
0.0 0.0 -1.071440646998e-03 
-1.693986595116e-03 2.166002580174e-03 0.0 
2.166002580174e-03 6.318613390721e-03 0.0 
0.0 0.0 -1.034857077839e-03 
-1.735485188954e-03 1.934897306350e-03 0.0 
1.934897306350e-03 6.303939504401e-03 0.0 
0.0 0.0 -1.006057961993e-03 
-1.460757887231e-03 2.250687193900e-03 0.0 
2.250687193900e-03 8.134933915156e-03 0.0 
0.0 0.0 -1.305867370806e-03 
-1.749991994699e-03 9.588049142227e-04 0.0 
9.588049142227e-04 6.254499179949e-03 0.0 
0.0 0.0 -9.232948652302e-04 
-1.017747060708e-03 2.242049910193e-03 0.0 
2.242049910193e-03 5.131073367086e-03 0.0 
0.0 0.0 -1.306016332489e-03 
1.333415972402e-03 1.535387923333e-03 0.0 
1.535387923333e-03 1.136937242501e-04 0.0 
0.0 0.0 -6.201898699939e-04 
1.391903311676e-03 2.154011180947e-03 0.0 
2.154011180947e-03 1.151631227135e-05 0.0 
0.0 0.0 -6.014655531204e-04 
1.815463505361e-03 2.115453371163e-03 0.0 
2.115453371163e-03 -5.458577548768e-04 0.0 
0.0 0.0 -5.441167502075e-04 
-1.566214445404e-03 2.595986134179e-03 0.0 
2.595986134179e-03 6.282321888988e-03 0.0 
0.0 0.0 -1.092245366321e-03 
-9.205735445318e-04 4.808338680360e-04 0.0 
4.808338680360e-04 4.693547071086e-03 0.0 
0.0 0.0 -1.302677999426e-03 
-5.441937307524e-04 1.925192123183e-04 0.0 
1.925192123183e-04 4.093065944914e-03 0.0 
0.0 0.0 -1.248400714067e-03 
-5.696920249624e-04 -2.362618994637e-04 0.0 
-2.362618994637e-04 4.138723512730e-03 0.0 
0.0 0.0 -1.248426544684e-03 
-2.031241474020e-04 -7.328110519664e-05 0.0 
-7.328110519664e-05 3.471353297543e-03 0.0 
0.0 0.0 -1.189114855724e-03 
-9.524782035086e-04 -4.338690848369e-04 0.0 
-4.338690848369e-04 4.786583626593e-03 0.0 
0.0 0.0 -1.303398793257e-03 
-1.386313891139e-03 3.268387124946e-03 0.0 
3.268387124946e-03 7.156994535034e-03 0.0 
0.0 0.0 -1.306665994082e-03 
-1.359095365040e-03 3.359352166101e-03 0.0 
3.359352166101e-03 6.950855487648e-03 0.0 
0.0 0.0 -1.308500709484e-03 
1.902852668699e-03 -2.817268794694e-03 0.0 
-2.817268794694e-03 -4.032967653229e-04 0.0 
0.0 0.0 -6.426668157327e-04 
2.253407391376e-03 -2.370679650838e-03 0.0 
-2.370679650838e-03 -7.551607023087e-04 0.0 
0.0 0.0 -6.421057238860e-04 
2.152188401618e-03 -2.215932361183e-03 0.0 
-2.215932361183e-03 -7.648493634962e-04 0.0 
0.0 0.0 -5.945738734806e-04 
2.568498674833e-03 -1.800335482077e-03 0.0 
-1.800335482077e-03 -1.054151680982e-03 0.0 
0.0 0.0 -6.490058545078e-04 
2.589267859695e-03 -1.939320893250e-03 0.0 
-1.939320893250e-03 -1.034701238564e-03 0.0 
0.0 0.0 -6.662428376277e-04 
2.845251393852e-03 -1.182488936622e-03 0.0 
-1.182488936622e-03 -1.266140625123e-03 0.0 
0.0 0.0 -6.767617580267e-04 
2.841382791890e-03 -1.149550775431e-03 0.0 
-1.149550775431e-03 -1.284812658761e-03 0.0 
0.0 0.0 -6.671014856266e-04 
2.966198092938e-03 -3.987988764167e-04 0.0 
-3.987988764167e-04 -1.382086548665e-03 0.0 
0.0 0.0 -6.789049475453e-04 
-1.248651035025e-03 3.111213554981e-03 0.0 
3.111213554981e-03 5.700369437698e-03 0.0 
0.0 0.0 -1.138512926666e-03 
-1.048382069547e-03 -1.181351894960e-03 0.0 
-1.181351894960e-03 5.065835417687e-03 0.0 
0.0 0.0 -1.305779161548e-03 
4.789526992596e-05 -3.017317976477e-03 0.0 
-3.017317976477e-03 1.955725826502e-03 0.0 
0.0 0.0 -8.490207048509e-04 
4.255875009583e-04 -2.891330549410e-03 0.0 
-2.891330549410e-03 1.272940405536e-03 0.0 
0.0 0.0 -7.279405313547e-04 
7.016485745697e-04 -2.791230812805e-03 0.0 
-2.791230812805e-03 8.160956132734e-04 0.0 
0.0 0.0 -6.504617947899e-04 
-6.090620729236e-04 -2.591660670729e-03 0.0 
-2.591660670729e-03 2.996920806010e-03 0.0 
0.0 0.0 -1.013136008453e-03 
-4.847718747428e-04 -2.835802633982e-03 0.0 
-2.835802633982e-03 2.833935359093e-03 0.0 
0.0 0.0 -9.978061834832e-04 
-6.569091499038e-04 -2.799289725008e-03 0.0 
-2.799289725008e-03 3.183472627718e-03 0.0 
0.0 0.0 -1.035689958333e-03 
-7.207313198164e-04 -2.290250490495e-03 0.0 
-2.290250490495e-03 3.125345330795e-03 0.0 
0.0 0.0 -1.018322119518e-03 
-1.167877884792e-04 3.342094439232e-03 0.0 
3.342094439232e-03 2.837618912037e-03 0.0 
0.0 0.0 -9.882323209451e-04 
-1.091898030697e-03 -1.486850666943e-03 0.0 
-1.486850666943e-03 5.227315460995e-03 0.0 
0.0 0.0 -1.305003056577e-03 
1.225364256890e-03 -1.147615656396e-03 0.0 
-1.147615656396e-03 3.835923769498e-05 0.0 
0.0 0.0 -5.415957833937e-04 
-1.980397502487e-04 -3.005905727183e-03 0.0 
-3.005905727183e-03 2.314319347710e-03 0.0 
0.0 0.0 -9.069769703405e-04 
-1.707142071172e-03 7.635271864477e-04 0.0 
7.635271864477e-04 5.127553643252e-03 0.0 
0.0 0.0 -7.516786372745e-04 
-1.746908817975e-03 1.023609105839e-03 0.0 
1.023609105839e-03 5.442206395915e-03 0.0 
0.0 0.0 -8.094822736869e-04 
-1.772933357879e-03 1.184262300292e-03 0.0 
1.184262300292e-03 5.385289162601e-03 0.0 
0.0 0.0 -8.097394517040e-04 
-1.768350599280e-03 1.251073624371e-03 0.0 
1.251073624371e-03 5.764313646979e-03 0.0 
0.0 0.0 -8.733121467894e-04 
-1.727990335715e-03 8.210495884293e-04 0.0 
8.210495884293e-04 5.545557871090e-03 0.0 
0.0 0.0 -8.155917408702e-04 
-1.236784994223e-03 -1.923322638249e-03 0.0 
-1.923322638249e-03 4.168389852977e-03 0.0 
0.0 0.0 -1.057296815204e-03 
-1.427088068768e-03 -1.555275096953e-03 0.0 
-1.555275096953e-03 4.526520888732e-03 0.0 
0.0 0.0 -1.060211733922e-03 
-1.439309846138e-03 -1.245667555875e-03 0.0 
-1.245667555875e-03 4.501167157264e-03 0.0 
0.0 0.0 -1.053704044192e-03 
-1.586214255689e-03 -1.181249332069e-03 0.0 
-1.181249332069e-03 4.840144294026e-03 0.0 
0.0 0.0 -1.064485974018e-03 
-1.568580492753e-03 -8.807724015312e-04 0.0 
-8.807724015312e-04 4.760936091880e-03 0.0 
0.0 0.0 -1.058069710598e-03 
-1.437909822652e-03 -9.389915626686e-04 0.0 
-9.389915626686e-04 4.447516747931e-03 0.0 
0.0 0.0 -1.040756414728e-03 
-1.718221607956e-03 -8.006521433412e-04 0.0 
-8.006521433412e-04 5.111220650433e-03 0.0 
0.0 0.0 -1.068385751750e-03 
-1.669418493281e-03 -5.082865991109e-04 0.0 
-5.082865991109e-04 4.972394175886e-03 0.0 
0.0 0.0 -1.061946884890e-03 
-1.641647603362e-03 4.850166825857e-04 0.0 
4.850166825857e-04 5.202247326036e-03 0.0 
0.0 0.0 -7.509531518293e-04 
4.681733094658e-05 -5.816533838581e-04 0.0 
-5.816533838581e-04 9.454411860111e-05 0.0 
0.0 0.0 -6.058347837758e-05 
4.397814964137e-04 -2.157349287924e-03 0.0 
-2.157349287924e-03 4.211423268834e-04 0.0 
0.0 0.0 -3.689673528416e-04 
3.155046189534e-04 -2.027375098909e-03 0.0 
-2.027375098909e-03 7.742453397045e-04 0.0 
0.0 0.0 -4.670356965677e-04 
8.520514226530e-04 -2.864865723911e-03 0.0 
-2.864865723911e-03 5.535726049248e-04 0.0 
0.0 0.0 -6.024102975334e-04 
1.107532573262e-03 -2.675867926973e-03 0.0 
-2.675867926973e-03 -1.282410957994e-04 0.0 
0.0 0.0 -4.196963474839e-04 
1.414391538560e-03 -3.037597772400e-03 0.0 
-3.037597772400e-03 4.732794591139e-06 0.0 
0.0 0.0 -6.081961427792e-04 
1.798568626031e-03 -2.807561227883e-03 0.0 
-2.807561227883e-03 -5.963916264621e-04 0.0 
0.0 0.0 -5.152187141009e-04 
4.798167785024e-04 -1.487535536050e-03 0.0 
-1.487535536050e-03 -2.160815451901e-04 0.0 
0.0 0.0 -1.130293857052e-04 
1.221925142391e-04 -6.477447924089e-04 0.0 
-6.477447924089e-04 3.263707583015e-04 0.0 
0.0 0.0 -1.721226713898e-04 
1.600896537738e-04 -1.547795297662e-03 0.0 
-1.547795297662e-03 7.330764534416e-04 0.0 
0.0 0.0 -3.827854745209e-04 
1.103966075786e-04 -5.622367864216e-04 0.0 
-5.622367864216e-04 3.103757836854e-04 0.0 
0.0 0.0 -1.517934084529e-04 
1.053013884946e-04 -1.323791722729e-03 0.0 
-1.323791722729e-03 6.739471651028e-04 0.0 
0.0 0.0 -3.339636658274e-04 
3.430982234410e-04 -2.178085181117e-03 0.0 
-2.178085181117e-03 8.728126235658e-04 0.0 
0.0 0.0 -5.211046487172e-04 
-1.935346954464e-05 -1.828430160185e-03 0.0 
-1.828430160185e-03 1.220825087692e-03 0.0 
0.0 0.0 -5.149164077774e-04 
-1.561183168720e-03 -1.084347523387e-03 0.0 
-1.084347523387e-03 6.914233553436e-03 0.0 
0.0 0.0 -1.294874803588e-03 
-1.312931512090e-03 -3.406360319044e-04 0.0 
-3.406360319044e-04 4.053324067572e-03 0.0 
0.0 0.0 -9.806349194848e-04 
-1.232619789514e-03 -6.513903715833e-04 0.0 
-6.513903715833e-04 3.864959534980e-03 0.0 
0.0 0.0 -9.593735700280e-04 
-1.113036939270e-03 -6.004263507847e-04 0.0 
-6.004263507847e-04 3.522372894904e-03 0.0 
0.0 0.0 -8.977078860960e-04 
-1.116965318077e-03 -9.982255990531e-04 0.0 
-9.982255990531e-04 3.625196753216e-03 0.0 
0.0 0.0 -9.469176294500e-04 
-1.332244483269e-03 -6.509527714259e-04 0.0 
-6.509527714259e-04 4.142116544653e-03 0.0 
0.0 0.0 -1.006312639172e-03 
-1.080865388107e-03 -2.755367266220e-04 0.0 
-2.755367266220e-04 3.371661966390e-03 0.0 
0.0 0.0 -8.426599334973e-04 
-1.024104142748e-03 -5.302931597588e-04 0.0 
-5.302931597588e-04 3.225767958481e-03 0.0 
0.0 0.0 -8.124903673991e-04 
2.119334771273e-03 -2.250984394130e-04 0.0 
-2.250984394130e-04 -5.528535054759e-04 0.0 
0.0 0.0 -1.954030217304e-04 
1.237953986699e-03 -2.579545419294e-04 0.0 
-2.579545419294e-04 1.543244489082e-04 0.0 
0.0 0.0 -2.932658944931e-04 
1.411332111426e-03 -2.759944625030e-05 0.0 
-2.759944625030e-05 3.743876493098e-05 0.0 
0.0 0.0 -2.856593951198e-04 
3.600465984566e-04 -2.066499797985e-04 0.0 
-2.066499797985e-04 8.608267290585e-04 0.0 
0.0 0.0 -3.080440922735e-04 
3.653305054747e-04 -3.597145395908e-04 0.0 
-3.597145395908e-04 8.532226922973e-04 0.0 
0.0 0.0 -3.086108473030e-04 
1.169231949576e-03 -3.840093619394e-04 0.0 
-3.840093619394e-04 1.923594400946e-04 0.0 
0.0 0.0 -2.956379591255e-04 
1.031256041784e-03 -4.886047117192e-04 0.0 
-4.886047117192e-04 2.379226924498e-04 0.0 
0.0 0.0 -2.908089562448e-04 
1.816529586793e-03 -3.500151260859e-04 0.0 
-3.500151260859e-04 -4.323507490206e-04 0.0 
0.0 0.0 -1.958374107737e-04 
8.667756449627e-04 -6.409008792115e-04 0.0 
-6.409008792115e-04 2.928477416533e-04 0.0 
0.0 0.0 -2.796976375194e-04 
1.702636575089e-04 -6.542409432277e-04 0.0 
-6.542409432277e-04 9.095668014512e-04 0.0 
0.0 0.0 -3.106791268491e-04 
1.620102908946e-03 -4.500577592913e-04 0.0 
-4.500577592913e-04 -3.726586433767e-04 0.0 
0.0 0.0 -1.892091717599e-04 
-1.577535716708e-03 5.392394720966e-05 0.0 
5.392394720966e-05 7.299934411769e-03 0.0 
0.0 0.0 -1.060427308513e-03 
-1.573061893325e-03 1.544570403577e-04 0.0 
1.544570403577e-04 7.509050943264e-03 0.0 
0.0 0.0 -1.097082233180e-03 
-1.192953449252e-03 -1.864011720090e-03 0.0 
-1.864011720090e-03 5.605209134645e-03 0.0 
0.0 0.0 -1.300897016293e-03 
-1.579855819088e-03 2.979771540211e-04 0.0 
2.979771540211e-04 5.293250471981e-03 0.0 
0.0 0.0 -7.584009903415e-04 
3.744709763724e-04 -6.364946627065e-04 0.0 
-6.364946627065e-04 1.401291707387e-04 0.0 
0.0 0.0 -1.034024162715e-04 
-1.449845600680e-03 6.382887501364e-04 0.0 
6.382887501364e-04 8.609834207447e-03 0.0 
0.0 0.0 -1.292107529982e-03 
-1.448440923656e-03 1.123280561170e-03 0.0 
1.123280561170e-03 8.566022624529e-03 0.0 
0.0 0.0 -1.303172775453e-03 
-1.434083243244e-03 9.839421265548e-04 0.0 
9.839421265548e-04 8.603548743914e-03 0.0 
0.0 0.0 -1.304823151597e-03 
-1.916252571144e-03 -2.792629766010e-04 0.0 
-2.792629766010e-04 6.698528630947e-03 0.0 
0.0 0.0 -1.191058493115e-03 
-1.809292576517e-03 -5.447261667623e-04 0.0 
-5.447261667623e-04 6.787910699568e-03 0.0 
0.0 0.0 -1.224322658093e-03 
-1.441620689681e-03 3.697909072679e-04 0.0 
3.697909072679e-04 8.644537781625e-03 0.0 
0.0 0.0 -1.294569364341e-03 
-1.966831809583e-04 -2.229424319449e-03 0.0 
-2.229424319449e-03 1.821439975238e-03 0.0 
0.0 0.0 -6.963243404055e-04 
-1.542446802675e-03 2.619749311667e-03 0.0 
2.619749311667e-03 7.342230023592e-03 0.0 
0.0 0.0 -1.225740639889e-03 
-1.563624804990e-03 6.428436196565e-04 0.0 
6.428436196565e-04 7.948413338163e-03 0.0 
0.0 0.0 -1.178628832109e-03 
2.201456429693e-03 2.341714128316e-03 0.0 
2.341714128316e-03 -8.075777083502e-04 0.0 
0.0 0.0 -5.973765948613e-04 
4.529977292289e-04 -2.561738032130e-03 0.0 
-2.561738032130e-03 9.606788663604e-04 0.0 
0.0 0.0 -6.058613981097e-04 
-1.912750157524e-03 -1.012850712710e-03 0.0 
-1.012850712710e-03 5.577288917285e-03 0.0 
0.0 0.0 -1.066202199875e-03 
-1.088098720313e-03 -2.559527887766e-03 0.0 
-2.559527887766e-03 3.979421504262e-03 0.0 
0.0 0.0 -1.028256539386e-03 
-1.822459650115e-03 -1.367111847188e-03 0.0 
-1.367111847188e-03 6.015979930005e-03 0.0 
0.0 0.0 -1.130390451587e-03 
-1.582105737625e-03 -1.721031184097e-03 0.0 
-1.721031184097e-03 4.901863080820e-03 0.0 
0.0 0.0 -1.057243679378e-03 
-1.608185598285e-03 -1.915614561762e-03 0.0 
-1.915614561762e-03 5.282640092044e-03 0.0 
0.0 0.0 -1.076106726067e-03 
-6.144948469041e-04 -6.639795998970e-04 0.0 
-6.639795998970e-04 4.224201553889e-03 0.0 
0.0 0.0 -1.244129926109e-03 
-5.789303246957e-04 -4.457683817534e-04 0.0 
-4.457683817534e-04 1.808907778624e-03 0.0 
0.0 0.0 -3.862231446352e-04 
-1.669791442216e-03 5.742208476735e-04 0.0 
5.742208476735e-04 6.461493581352e-03 0.0 
0.0 0.0 -9.364826870394e-04 
-1.605975857622e-03 3.178960195767e-04 0.0 
3.178960195767e-04 6.348918363535e-03 0.0 
0.0 0.0 -9.130351872960e-04 
-1.629937813867e-03 6.093327650254e-04 0.0 
6.093327650254e-04 7.342083193620e-03 0.0 
0.0 0.0 -1.075939795031e-03 
-6.482537929307e-04 -1.608115231979e-03 0.0 
-1.608115231979e-03 2.605453652753e-03 0.0 
0.0 0.0 -8.387999399238e-04 
-1.303549504287e-03 -1.305113709369e-03 0.0 
-1.305113709369e-03 4.181114019267e-03 0.0 
0.0 0.0 -1.034705495726e-03 
-3.971862798800e-04 -1.135666412244e-03 0.0 
-1.135666412244e-03 1.660229728604e-03 0.0 
0.0 0.0 -5.350964027253e-04 
-1.079760018860e-03 3.194336986256e-03 0.0 
3.194336986256e-03 5.659153012299e-03 0.0 
0.0 0.0 -1.251461238623e-03 
-9.146057249504e-04 2.949568127909e-03 0.0 
2.949568127909e-03 3.641380823932e-03 0.0 
0.0 0.0 -9.215523041033e-04 
5.869540678773e-04 -2.956750850037e-03 0.0 
-2.956750850037e-03 1.034406097070e-03 0.0 
0.0 0.0 -6.948686421203e-04 
-4.983222250127e-04 -2.534366466985e-03 0.0 
-2.534366466985e-03 2.700875388843e-03 0.0 
0.0 0.0 -9.439513559275e-04 
-3.730260252317e-06 -2.536920884211e-03 0.0 
-2.536920884211e-03 1.637062224885e-03 0.0 
0.0 0.0 -6.999994134141e-04 
7.353476243331e-04 -2.725229135126e-03 0.0 
-2.725229135126e-03 6.766599510438e-04 0.0 
0.0 0.0 -6.051461037329e-04 
8.595376325540e-04 3.133881433802e-03 0.0 
3.133881433802e-03 8.059885165152e-04 0.0 
0.0 0.0 -7.137969210297e-04 
-4.203429083409e-05 -3.125630815959e-03 0.0 
-3.125630815959e-03 2.086027069296e-03 0.0 
0.0 0.0 -8.759969050552e-04 
-8.028650656472e-04 -2.530764803792e-03 0.0 
-2.530764803792e-03 3.746131268308e-03 0.0 
0.0 0.0 -1.026962916580e-03 
-1.603305794962e-03 5.584175701992e-04 0.0 
5.584175701992e-04 7.571764629350e-03 0.0 
0.0 0.0 -1.112552678551e-03 
9.600606219979e-04 -6.202368537327e-04 0.0 
-6.202368537327e-04 -7.835338607429e-05 0.0 
0.0 0.0 -1.528964725408e-04 
-6.507698434307e-04 -2.317277330880e-03 0.0 
-2.317277330880e-03 3.698342537328e-03 0.0 
0.0 0.0 -1.061672265243e-03 
-4.694800132291e-04 -3.046911020093e-03 0.0 
-3.046911020093e-03 2.876301697078e-03 0.0 
0.0 0.0 -9.848592602066e-04 
-1.735611780566e-03 9.275084004437e-04 0.0 
9.275084004437e-04 6.521846032081e-03 0.0 
0.0 0.0 -9.599091010803e-04 
5.517342203791e-04 7.070794377615e-04 0.0 
7.070794377615e-04 1.993016539601e-03 0.0 
0.0 0.0 -1.047968735850e-03 
1.251262826807e-03 -3.149427623220e-03 0.0 
-3.149427623220e-03 3.147933255355e-04 0.0 
0.0 0.0 -6.711669224326e-04 
-1.667035138543e-03 9.805979703494e-04 0.0 
9.805979703494e-04 7.401003517057e-03 0.0 
0.0 0.0 -1.098747615487e-03 
-1.603855099599e-03 1.782256839983e-03 0.0 
1.782256839983e-03 7.796685969376e-03 0.0 
0.0 0.0 -1.212453547082e-03 
-1.753933973529e-03 9.797964852189e-04 0.0 
9.797964852189e-04 5.978451539688e-03 0.0 
0.0 0.0 -8.875094802107e-04 
-2.613102227183e-04 -9.949083205869e-04 0.0 
-9.949083205869e-04 1.295268273910e-03 0.0 
0.0 0.0 -4.064699368096e-04 
-1.648709990180e-03 4.475238255647e-04 0.0 
4.475238255647e-04 6.036264205668e-03 0.0 
0.0 0.0 -8.692469099983e-04 
-7.203164161434e-04 -1.605185791603e-03 0.0 
-1.605185791603e-03 4.351922217429e-03 0.0 
0.0 0.0 -1.202705989510e-03 
-1.725470359675e-03 1.770892894084e-03 0.0 
1.770892894084e-03 6.914744693878e-03 0.0 
0.0 0.0 -1.078220320736e-03 
-7.065492097226e-04 -1.209971096051e-03 0.0 
-1.209971096051e-03 2.577314578998e-03 0.0 
0.0 0.0 -7.821142971127e-04 
2.080536798912e-03 -4.379488450435e-04 0.0 
-4.379488450435e-04 -1.014496050842e-03 0.0 
0.0 0.0 -4.568746063161e-04 
3.673244141799e-05 3.501892657137e-03 0.0 
3.501892657137e-03 2.162557991526e-03 0.0 
0.0 0.0 -9.249336466263e-04 
-1.472424715948e-03 1.473284294565e-03 0.0 
1.473284294565e-03 4.326140179341e-03 0.0 
0.0 0.0 -7.656857982150e-04 
-1.552562983666e-03 7.948996227407e-04 0.0 
7.948996227407e-04 8.084351316505e-03 0.0 
0.0 0.0 -1.206557591227e-03 
1.197294541337e-03 2.931696958795e-03 0.0 
2.931696958795e-03 3.430979437177e-04 0.0 
0.0 0.0 -6.601682078804e-04 
2.014691518502e-04 -1.535153806246e-04 0.0 
-1.535153806246e-04 2.672995857900e-03 0.0 
0.0 0.0 -1.120054252910e-03 
1.167692333485e-03 -4.546798185550e-04 0.0 
-4.546798185550e-04 3.225795309946e-04 0.0 
0.0 0.0 -6.386879419198e-04 
-8.300689796229e-04 -1.036862626203e-03 0.0 
-1.036862626203e-03 2.843866615447e-03 0.0 
0.0 0.0 -8.092532257643e-04 
-1.141410086144e-03 -2.132624368424e-03 0.0 
-2.132624368424e-03 4.763879094691e-03 0.0 
0.0 0.0 -1.118919378802e-03 
2.226178382358e-03 1.538806345707e-03 0.0 
1.538806345707e-03 -1.000001690931e-03 0.0 
0.0 0.0 -5.255042963258e-04 
-1.621773390463e-03 1.105341392258e-03 0.0 
1.105341392258e-03 7.770539650855e-03 0.0 
0.0 0.0 -1.164614768972e-03 
-7.726765049569e-04 3.339866695887e-03 0.0 
3.339866695887e-03 4.168840091130e-03 0.0 
0.0 0.0 -1.031533309622e-03 
2.985503110291e-03 3.031284491510e-04 0.0 
3.031284491510e-04 -1.381029514076e-03 0.0 
0.0 0.0 -6.876315412354e-04 
-1.686948173027e-03 1.421165008995e-03 0.0 
1.421165008995e-03 7.380565372555e-03 0.0 
0.0 0.0 -1.121170216299e-03 
1.011452247809e-03 -2.344893480733e-03 0.0 
-2.344893480733e-03 3.172812092828e-04 0.0 
0.0 0.0 -5.694571958966e-04 
3.273818053523e-04 1.142366955538e-03 0.0 
1.142366955538e-03 2.480645691333e-03 0.0 
0.0 0.0 -1.099429584637e-03 
-6.433175181119e-04 3.077878174349e-03 0.0 
3.077878174349e-03 3.183682229986e-03 0.0 
0.0 0.0 -9.539696108702e-04 
-6.121546724542e-04 3.601568394799e-03 0.0 
3.601568394799e-03 3.377991454684e-03 0.0 
0.0 0.0 -9.441813108648e-04 
-1.362049427310e-03 2.994726613582e-03 0.0 
2.994726613582e-03 5.058459491364e-03 0.0 
0.0 0.0 -9.824247929831e-04 
2.242703281786e-04 3.613717884088e-03 0.0 
3.613717884088e-03 1.934819861174e-03 0.0 
0.0 0.0 -8.887186042024e-04 
-1.881029170096e-03 -6.972944591045e-04 0.0 
-6.972944591045e-04 5.485539571048e-03 0.0 
0.0 0.0 -1.071820694527e-03 
-9.158007506096e-04 -2.235649248494e-03 0.0 
-2.235649248494e-03 4.248678740424e-03 0.0 
0.0 0.0 -1.090315851396e-03 
2.052665481287e-03 -1.103532234197e-03 0.0 
-1.103532234197e-03 -1.175556670273e-03 0.0 
0.0 0.0 -3.759037761492e-04 
8.914746630086e-04 2.890953836391e-03 0.0 
2.890953836391e-03 6.027493594732e-04 0.0 
0.0 0.0 -6.403817239208e-04 
-1.758945777430e-03 1.160675475390e-03 0.0 
1.160675475390e-03 6.378359981790e-03 0.0 
0.0 0.0 -9.536514739466e-04 
-6.639671926482e-04 3.003789204226e-03 0.0 
3.003789204226e-03 4.418789612070e-03 0.0 
0.0 0.0 -1.150585697120e-03 
-1.554201493046e-03 1.231598965710e-03 0.0 
1.231598965710e-03 8.128380504732e-03 0.0 
0.0 0.0 -1.229329624135e-03 
1.209824795641e-04 3.344721880567e-03 0.0 
3.344721880567e-03 1.935063257791e-03 0.0 
0.0 0.0 -8.811624588665e-04 
-1.286404788732e-03 -2.188571958382e-03 0.0 
-2.188571958382e-03 4.794074532598e-03 0.0 
0.0 0.0 -1.081576975854e-03 
-1.629163603093e-03 1.571087997701e-03 0.0 
1.571087997701e-03 7.723510960528e-03 0.0 
0.0 0.0 -1.185355684152e-03 
-3.559661832873e-04 -3.012647310201e-03 0.0 
-3.012647310201e-03 2.646809915025e-03 0.0 
0.0 0.0 -9.737892037141e-04 
-7.230165557545e-04 -1.426683456850e-04 0.0 
-1.426683456850e-04 2.147619513236e-03 0.0 
0.0 0.0 -4.572648740992e-04 
1.660426463556e-03 2.294712628775e-03 0.0 
2.294712628775e-03 -6.270108860030e-04 0.0 
0.0 0.0 -4.428923903797e-04 
3.083725212360e-03 4.086632437554e-04 0.0 
4.086632437554e-04 -1.411678867675e-03 0.0 
0.0 0.0 -7.165912905795e-04 
1.695879907660e-03 2.562718717107e-03 0.0 
2.562718717107e-03 -3.302884133479e-04 0.0 
0.0 0.0 -5.852534975623e-04 
-5.576706971117e-04 -2.954961257328e-03 0.0 
-2.954961257328e-03 3.029681223364e-03 0.0 
0.0 0.0 -1.013304783341e-03 
-1.555713883054e-03 2.364705081961e-03 0.0 
2.364705081961e-03 7.663070105557e-03 0.0 
0.0 0.0 -1.242275372262e-03 
-1.459222448555e-03 -1.977989758638e-03 0.0 
-1.977989758638e-03 5.249777589170e-03 0.0 
0.0 0.0 -1.110186454522e-03 
5.809827755289e-05 -1.888547144195e-03 0.0 
-1.888547144195e-03 2.563693945277e-03 0.0 
0.0 0.0 -1.040857148505e-03 
2.558221372699e-04 1.458843993786e-03 0.0 
1.458843993786e-03 4.248116797751e-04 0.0 
0.0 0.0 -2.917002073050e-04 
-1.420828704055e-03 1.823492309729e-03 0.0 
1.823492309729e-03 4.313202363895e-03 0.0 
0.0 0.0 -8.070275419711e-04 
-1.590933393314e-03 -1.754583215491e-03 0.0 
-1.754583215491e-03 5.664446844218e-03 0.0 
0.0 0.0 -1.139074001596e-03 
1.644076570115e-03 -1.085629871930e-03 0.0 
-1.085629871930e-03 -5.732577340253e-04 0.0 
0.0 0.0 -4.589223583244e-04 
2.052489302078e-04 6.912241943710e-04 0.0 
6.912241943710e-04 2.710009798059e-03 0.0 
0.0 0.0 -1.126725356868e-03 
-1.535445043143e-03 -5.867914393128e-04 0.0 
-5.867914393128e-04 4.647107690583e-03 0.0 
0.0 0.0 -1.044109258258e-03 
-9.859779036616e-04 3.056684200562e-03 0.0 
3.056684200562e-03 5.375983574251e-03 0.0 
0.0 0.0 -1.249754184115e-03 
-6.610476002560e-04 2.303624772309e-03 0.0 
2.303624772309e-03 2.903406990762e-03 0.0 
0.0 0.0 -9.028501661438e-04 
-1.686501264746e-03 -1.526608176621e-03 0.0 
-1.526608176621e-03 6.045524770636e-03 0.0 
0.0 0.0 -1.168790087466e-03 
3.742641179637e-04 -1.152556169589e-03 0.0 
-1.152556169589e-03 2.146769681943e-03 0.0 
0.0 0.0 -1.036257385577e-03 
2.158291477526e-03 2.743008596258e-03 0.0 
2.743008596258e-03 -5.432811980168e-04 0.0 
0.0 0.0 -6.921472626470e-04 
-1.448920855555e-03 5.485150606776e-05 0.0 
5.485150606776e-05 5.277752212934e-03 0.0 
0.0 0.0 -7.498068730476e-04 
-1.593954056461e-03 -1.469135234964e-03 0.0 
-1.469135234964e-03 6.450266463409e-03 0.0 
0.0 0.0 -1.243807156011e-03 
5.209000563453e-05 -9.592901321100e-04 0.0 
-9.592901321100e-04 2.854437082012e-03 0.0 
0.0 0.0 -1.114542488500e-03 
3.461661553033e-05 3.551384216602e-03 0.0 
3.551384216602e-03 2.362376837699e-03 0.0 
0.0 0.0 -9.321888224300e-04 
1.558216832635e-03 -1.548696012587e-03 0.0 
-1.548696012587e-03 -4.269730613690e-04 0.0 
0.0 0.0 -4.848187591141e-04 
-1.159109189925e-03 1.672386638450e-03 0.0 
1.672386638450e-03 3.686907530899e-03 0.0 
0.0 0.0 -7.928834912169e-04 
-8.622534806161e-04 -2.703450422620e-03 0.0 
-2.703450422620e-03 3.567462389003e-03 0.0 
0.0 0.0 -1.042489463686e-03 
-8.810352068874e-04 3.464697463085e-03 0.0 
3.464697463085e-03 3.935493660585e-03 0.0 
0.0 0.0 -9.528746205426e-04 
-1.455694182561e-03 2.079571376027e-03 0.0 
2.079571376027e-03 8.238502292373e-03 0.0 
0.0 0.0 -1.306889097489e-03 
-4.021262128289e-05 -5.236218254538e-04 0.0 
-5.236218254538e-04 3.069008893941e-03 0.0 
0.0 0.0 -1.148622835147e-03 
-1.725562695568e-03 2.028005553636e-03 0.0 
2.028005553636e-03 5.979413828880e-03 0.0 
0.0 0.0 -9.696660045843e-04 
-9.371362615476e-04 -2.513813645279e-03 0.0 
-2.513813645279e-03 3.674904326905e-03 0.0 
0.0 0.0 -1.055577742195e-03 
6.828857261752e-04 2.319846812613e-03 0.0 
2.319846812613e-03 1.471382999158e-03 0.0 
0.0 0.0 -9.020111454724e-04 
3.069126660921e-04 -4.845997231989e-04 0.0 
-4.845997231989e-04 8.592191971431e-04 0.0 
0.0 0.0 -3.093966206321e-04 
-1.066278201586e-03 2.069319232208e-03 0.0 
2.069319232208e-03 3.624795843977e-03 0.0 
0.0 0.0 -8.430048313659e-04 
-1.188974335056e-03 -2.184404117123e-03 0.0 
-2.184404117123e-03 4.121734009211e-03 0.0 
0.0 0.0 -1.055179846540e-03 
3.051680346467e-03 -4.197736543643e-04 0.0 
-4.197736543643e-04 -1.412706451387e-03 0.0 
0.0 0.0 -7.024173836058e-04 
1.117277129867e-03 -2.070559341147e-03 0.0 
-2.070559341147e-03 1.215006496444e-04 0.0 
0.0 0.0 -5.309047626477e-04 
-5.077233341081e-04 1.801300421280e-03 0.0 
1.801300421280e-03 4.164826850224e-03 0.0 
0.0 0.0 -1.234277959947e-03 
-1.405357231203e-03 -1.830815427985e-03 0.0 
-1.830815427985e-03 4.525691195773e-03 0.0 
0.0 0.0 -1.058821591963e-03 
2.981871888689e-03 -4.320249597075e-04 0.0 
-4.320249597075e-04 -1.387251596233e-03 0.0 
0.0 0.0 -6.834086967669e-04 
-1.589234832291e-03 -1.465860908847e-03 0.0 
-1.465860908847e-03 4.884351969089e-03 0.0 
0.0 0.0 -1.063846254002e-03 
-8.219124233661e-04 1.884899957964e-03 0.0 
1.884899957964e-03 3.049244611375e-03 0.0 
0.0 0.0 -8.384157971481e-04 
-1.674104129450e-03 2.267631102477e-03 0.0 
2.267631102477e-03 5.977690423385e-03 0.0 
0.0 0.0 -9.983267706061e-04 
-1.746776969671e-03 -1.092710579845e-03 0.0 
-1.092710579845e-03 5.203384673320e-03 0.0 
0.0 0.0 -1.068006041337e-03 
-9.280916248974e-04 3.352222764373e-03 0.0 
3.352222764373e-03 4.310032082870e-03 0.0 
0.0 0.0 -1.003151257071e-03 
2.463563334715e-05 -8.807126364979e-04 0.0 
-8.807126364979e-04 9.974910621111e-04 0.0 
0.0 0.0 -3.190932086048e-04 
1.865633619246e-04 3.322818699054e-03 0.0 
3.322818699054e-03 2.196662702388e-03 0.0 
0.0 0.0 -9.369607680273e-04 
-1.969274810505e-03 -5.697349439415e-04 0.0 
-5.697349439415e-04 6.492408088354e-03 0.0 
0.0 0.0 -1.155419075730e-03 
4.460939102830e-04 -2.841642607168e-03 0.0 
-2.841642607168e-03 1.136269056788e-03 0.0 
0.0 0.0 -6.781555573162e-04 
7.887889646567e-04 -2.571324212251e-03 0.0 
-2.571324212251e-03 6.415432993246e-04 0.0 
0.0 0.0 -6.129995417062e-04 
-1.637827184878e-03 2.388605245637e-03 0.0 
2.388605245637e-03 6.314063370822e-03 0.0 
0.0 0.0 -1.063653581392e-03 
-4.992814516217e-04 1.972643240252e-03 0.0 
1.972643240252e-03 2.384387457051e-03 0.0 
0.0 0.0 -8.079025737556e-04 
5.124750958276e-04 -2.569400884271e-03 0.0 
-2.569400884271e-03 1.193670865080e-03 0.0 
0.0 0.0 -7.312054118175e-04 
-9.641562230990e-04 3.242704907183e-03 0.0 
3.242704907183e-03 4.707911026065e-03 0.0 
0.0 0.0 -1.067288052377e-03 
3.154663455590e-04 2.993279893955e-03 0.0 
2.993279893955e-03 2.102244501383e-03 0.0 
0.0 0.0 -9.588566822092e-04 
1.346446614896e-03 2.610050225058e-03 0.0 
2.610050225058e-03 1.067961116776e-04 0.0 
0.0 0.0 -6.228183113887e-04 
2.887356895726e-04 -2.230406662033e-03 0.0 
-2.230406662033e-03 1.886206335840e-03 0.0 
0.0 0.0 -9.159128653295e-04 
-3.070381522363e-04 2.361479177514e-03 0.0 
2.361479177514e-03 2.144874392585e-03 0.0 
0.0 0.0 -7.876441030066e-04 
-4.603323552836e-06 -2.296978514711e-03 0.0 
-2.296978514711e-03 1.485132063043e-03 0.0 
0.0 0.0 -6.345123169243e-04 
-1.725456702673e-05 -2.050421713285e-03 0.0 
-2.050421713285e-03 1.350463780520e-03 0.0 
0.0 0.0 -5.713753772113e-04 
2.694499012180e-03 -1.108798334530e-03 0.0 
-1.108798334530e-03 -1.215742971782e-03 0.0 
0.0 0.0 -6.337525887422e-04 
-1.125553493016e-03 3.166078986994e-03 0.0 
3.166078986994e-03 5.226172467772e-03 0.0 
0.0 0.0 -1.103081964739e-03 
-3.505794759798e-04 -2.805020388018e-04 0.0 
-2.805020388018e-04 1.476517852756e-03 0.0 
0.0 0.0 -3.018576685516e-04 
-1.520679869667e-03 2.700420786858e-03 0.0 
2.700420786858e-03 5.894437551981e-03 0.0 
0.0 0.0 -1.054898413167e-03 
1.434637815246e-04 -2.013001771722e-03 0.0 
-2.013001771722e-03 1.061630091320e-03 0.0 
0.0 0.0 -5.164688026476e-04 
2.470206604480e-03 -1.725455129164e-03 0.0 
-1.725455129164e-03 -1.033453851675e-03 0.0 
0.0 0.0 -6.157511797736e-04 
1.550603106910e-04 2.343951066894e-03 0.0 
2.343951066894e-03 2.741523029304e-03 0.0 
0.0 0.0 -1.077081564483e-03 
-1.567382262079e-03 5.775225248615e-06 0.0 
5.775225248615e-06 6.502023960398e-03 0.0 
0.0 0.0 -9.315431351609e-04 
1.994050342792e-03 -2.125051609346e-03 0.0 
-2.125051609346e-03 -7.055681148420e-04 0.0 
0.0 0.0 -5.522066691216e-04 
-8.473530892992e-04 -1.857205257249e-04 0.0 
-1.857205257249e-04 2.593065685554e-03 0.0 
0.0 0.0 -6.119633700263e-04 
1.664939330105e-03 -2.423764940749e-03 0.0 
-2.423764940749e-03 -3.798301328600e-04 0.0 
0.0 0.0 -5.507610845334e-04 
9.691114688175e-04 2.564299471471e-03 0.0 
2.564299471471e-03 7.430038862534e-04 0.0 
0.0 0.0 -7.337637236018e-04 
1.166584806499e-03 -2.448706473937e-03 0.0 
-2.448706473937e-03 1.644568183363e-04 0.0 
0.0 0.0 -5.704464106438e-04 
9.207629563978e-04 -2.562817695187e-03 0.0 
-2.562817695187e-03 4.684807333005e-04 0.0 
0.0 0.0 -5.953901527278e-04 
-1.509599202053e-03 7.115315669588e-04 0.0 
7.115315669588e-04 8.319494978419e-03 0.0 
0.0 0.0 -1.242975171717e-03 
6.644834369663e-04 -2.816687817472e-03 0.0 
-2.816687817472e-03 8.638079814567e-04 0.0 
0.0 0.0 -6.549820364670e-04 
-1.417913046649e-03 2.000204615730e-04 0.0 
2.000204615730e-04 8.717353493565e-03 0.0 
0.0 0.0 -1.305370344976e-03 
-1.585981038622e-03 -5.390524588140e-04 0.0 
-5.390524588140e-04 7.088561262435e-03 0.0 
0.0 0.0 -1.298405437673e-03 
-1.489518803289e-03 -4.573950556845e-06 0.0 
-4.573950556845e-06 5.635615486584e-03 0.0 
0.0 0.0 -7.997855503562e-04 
-2.605550091072e-04 1.921888767382e-03 0.0 
1.921888767382e-03 1.771030104647e-03 0.0 
0.0 0.0 -6.473464695169e-04 
0.0 0.0 0.0 
0.0 0.0 0.0 
0.0 0.0 0.0 
5.300339532942e-05 2.296518653744e-03 0.0 
2.296518653744e-03 1.380741919417e-03 0.0 
0.0 0.0 -6.144622777483e-04 
4.589079226346e-04 -2.669236835745e-03 0.0 
-2.669236835745e-03 1.017039993413e-03 0.0 
0.0 0.0 -6.325491068774e-04 
-1.344360499523e-03 2.998007223071e-03 0.0 
2.998007223071e-03 5.396263019476e-03 0.0 
0.0 0.0 -1.045752072333e-03 
-1.493847809746e-03 7.392246810856e-05 0.0 
7.392246810856e-05 5.643210332918e-03 0.0 
0.0 0.0 -8.029817139903e-04 
2.189770723719e-04 -2.551176870332e-03 0.0 
-2.551176870332e-03 1.274969331798e-03 0.0 
0.0 0.0 -6.402627446442e-04 
-1.419524211431e-03 3.075318657805e-03 0.0 
3.075318657805e-03 6.922500903080e-03 0.0 
0.0 0.0 -1.250093291501e-03 
-1.105460999237e-03 2.840056670224e-03 0.0 
2.840056670224e-03 5.499135179184e-03 0.0 
0.0 0.0 -1.306737725957e-03 
-1.583352928322e-03 1.388979039351e-04 0.0 
1.388979039351e-04 7.093261842357e-03 0.0 
0.0 0.0 -1.028769680629e-03 
3.110761131384e-05 3.070777297068e-04 0.0 
3.070777297068e-04 2.990066827201e-03 0.0 
0.0 0.0 -1.152835590205e-03 
4.038330844269e-04 2.562565156884e-03 0.0 
2.562565156884e-03 2.099896012322e-03 0.0 
0.0 0.0 -9.954397186036e-04 
-1.532870607185e-03 8.627533493903e-05 0.0 
8.627533493903e-05 8.032571934377e-03 0.0 
0.0 0.0 -1.185717314024e-03 
-1.493423908883e-03 8.976519337403e-05 0.0 
8.976519337403e-05 5.235057922781e-03 0.0 
0.0 0.0 -7.451086181774e-04 
8.476467916489e-05 -1.199388947894e-03 0.0 
-1.199388947894e-03 6.043361303539e-04 0.0 
0.0 0.0 -2.642930028689e-04 
-1.995343437528e-03 -3.338550389889e-04 0.0 
-3.338550389889e-04 5.735331553200e-03 0.0 
0.0 0.0 -1.072300834510e-03 
-4.728391316331e-06 1.911025163986e-03 0.0 
1.911025163986e-03 1.236688893795e-03 0.0 
0.0 0.0 -5.279830724910e-04 
3.550394143264e-04 2.259430213976e-03 0.0 
2.259430213976e-03 9.034181507030e-04 0.0 
0.0 0.0 -5.393389564412e-04 
6.085214745978e-04 2.284877078157e-03 0.0 
2.284877078157e-03 6.261355702317e-04 0.0 
0.0 0.0 -5.291387334984e-04 
-9.396181000691e-04 -7.967451354887e-04 0.0 
-7.967451354887e-04 3.058992386408e-03 0.0 
0.0 0.0 -8.121166773320e-04 
5.494964702923e-04 -2.584085792452e-03 0.0 
-2.584085792452e-03 8.433772001581e-04 0.0 
0.0 0.0 -5.969458587645e-04 
2.401282782028e-04 2.005638511475e-03 0.0 
2.005638511475e-03 9.040366262875e-04 0.0 
0.0 0.0 -4.903563876387e-04 
-5.261734606055e-04 6.022279658391e-04 0.0 
6.022279658391e-04 4.033101031005e-03 0.0 
0.0 0.0 -1.245112051941e-03 
-1.636730137181e-03 4.290067563108e-04 0.0 
4.290067563108e-04 5.580276288558e-03 0.0 
0.0 0.0 -8.050116406322e-04 
-1.121915910908e-04 2.515763012409e-03 0.0 
2.515763012409e-03 3.291467473346e-03 0.0 
0.0 0.0 -1.110409235593e-03 
3.679053624996e-04 1.946389288486e-03 0.0 
1.946389288486e-03 7.047317248665e-04 0.0 
0.0 0.0 -4.597016088712e-04 
-1.554707372438e-03 1.697440109364e-03 0.0 
1.697440109364e-03 8.056864122716e-03 0.0 
0.0 0.0 -1.247366155457e-03 
-7.215899275846e-04 2.377475014672e-03 0.0 
2.377475014672e-03 4.622150950018e-03 0.0 
0.0 0.0 -1.246608778627e-03 
-1.331856878630e-03 -1.983836111103e-03 0.0 
-1.983836111103e-03 6.114923973583e-03 0.0 
0.0 0.0 -1.306249356034e-03 
-3.798399904625e-04 2.398884536475e-03 0.0 
2.398884536475e-03 3.901175645834e-03 0.0 
0.0 0.0 -1.176371721005e-03 
7.581050863864e-04 2.227306199006e-03 0.0 
2.227306199006e-03 3.618205949459e-04 0.0 
0.0 0.0 -4.799681491424e-04 
-1.753134334940e-03 1.030981935736e-03 0.0 
1.030981935736e-03 5.768775069705e-03 0.0 
0.0 0.0 -8.603500797662e-04 
-1.168709675212e-03 3.249274189801e-03 0.0 
3.249274189801e-03 5.927681969270e-03 0.0 
0.0 0.0 -1.250827372426e-03 
-1.580586288305e-03 2.460651619642e-04 0.0 
2.460651619642e-04 7.417010690682e-03 0.0 
0.0 0.0 -1.080253149739e-03 
-1.410996846028e-03 -1.766992384939e-03 0.0 
-1.766992384939e-03 6.482040820837e-03 0.0 
0.0 0.0 -1.309985050881e-03 
-1.682012249170e-03 6.654682702296e-04 0.0 
6.654682702296e-04 5.457303072723e-03 0.0 
0.0 0.0 -7.979019438933e-04 
-1.482092413582e-03 4.825553233706e-04 0.0 
4.825553233706e-04 8.388620482460e-03 0.0 
0.0 0.0 -1.252774941638e-03 
2.053124764649e-03 -2.150351803165e-03 0.0 
-2.150351803165e-03 -1.002699963371e-03 0.0 
0.0 0.0 -4.501820576904e-04 
-1.472782165905e-03 2.611384925530e-04 0.0 
2.611384925530e-04 8.403666031078e-03 0.0 
0.0 0.0 -1.254166199180e-03 
-1.340636802885e-03 3.017781757784e-03 0.0 
3.017781757784e-03 5.759872352408e-03 0.0 
0.0 0.0 -1.110316242656e-03 
-1.575034003637e-03 2.533992497604e-04 0.0 
2.533992497604e-04 6.175537215493e-03 0.0 
0.0 0.0 -8.840149073763e-04 
-1.771751416511e-03 1.426780246192e-03 0.0 
1.426780246192e-03 5.587137473215e-03 0.0 
0.0 0.0 -8.570326279659e-04 
-1.684907386527e-03 -8.004631079360e-04 0.0 
-8.004631079360e-04 6.831074281255e-03 0.0 
0.0 0.0 -1.256337174517e-03 
-1.508670120193e-03 2.760870843371e-03 0.0 
2.760870843371e-03 7.327066348949e-03 0.0 
0.0 0.0 -1.249505442739e-03 
6.883790236625e-04 2.060671389361e-03 0.0 
2.060671389361e-03 2.237385116846e-05 0.0 
0.0 0.0 -3.046083749275e-04 
-1.585370214117e-03 2.593308700915e-04 0.0 
2.593308700915e-04 7.073771685170e-03 0.0 
0.0 0.0 -1.024357608964e-03 
-1.028891659838e-03 -1.361434891480e-03 0.0 
-1.361434891480e-03 3.507211596145e-03 0.0 
0.0 0.0 -9.709766588611e-04 
2.096603589134e-04 -4.522541456736e-04 0.0 
-4.522541456736e-04 -1.685826935135e-04 0.0 
0.0 0.0 -1.760471374282e-05 
-1.108111334259e-03 -1.824971532717e-03 0.0 
-1.824971532717e-03 5.280702358381e-03 0.0 
0.0 0.0 -1.249521112489e-03 
-1.346888651128e-03 3.065747420634e-03 0.0 
3.065747420634e-03 6.117675129117e-03 0.0 
0.0 0.0 -1.172189067419e-03 
-1.641216111045e-03 -1.228485444809e-03 0.0 
-1.228485444809e-03 6.632464522082e-03 0.0 
0.0 0.0 -1.251863004148e-03 
4.253395517685e-04 -1.330965256832e-05 0.0 
-1.330965256832e-05 8.162616228349e-04 0.0 
0.0 0.0 -3.073113677837e-04 
2.659967583917e-04 -9.636004765028e-04 0.0 
-9.636004765028e-04 4.197455964224e-04 0.0 
0.0 0.0 -2.058019112872e-04 
-9.341108583894e-04 -1.570273886574e-03 0.0 
-1.570273886574e-03 4.919000747850e-03 0.0 
0.0 0.0 -1.258522865334e-03 
-1.325021295734e-03 3.260852513925e-03 0.0 
3.260852513925e-03 6.529415890564e-03 0.0 
0.0 0.0 -1.257106814994e-03 
2.069780564081e-03 -2.887481408844e-03 0.0 
-2.887481408844e-03 -5.620999085580e-04 0.0 
0.0 0.0 -6.461488523668e-04 
-1.444494309143e-03 1.513018136519e-03 0.0 
1.513018136519e-03 8.529509024149e-03 0.0 
0.0 0.0 -1.314710167832e-03 
1.606042082751e-04 7.400733517384e-04 0.0 
7.400733517384e-04 -6.805152101560e-05 0.0 
0.0 0.0 -3.966543739693e-05 
-1.527500430813e-03 2.291957424775e-04 0.0 
2.291957424775e-04 5.159544215479e-03 0.0 
0.0 0.0 -7.389643750272e-04 
7.522855132365e-04 -8.129255998406e-04 0.0 
-8.129255998406e-04 2.933811725579e-04 0.0 
0.0 0.0 -2.584822669346e-04 
-1.451285018422e-03 -1.619253938531e-03 0.0 
-1.619253938531e-03 6.712702821616e-03 0.0 
0.0 0.0 -1.308531455474e-03 
-1.521082113150e-03 1.160385665173e-03 0.0 
1.160385665173e-03 8.292813149207e-03 0.0 
0.0 0.0 -1.254845750201e-03 
-1.245470008181e-03 -9.103756336826e-04 0.0 
-9.103756336826e-04 3.950697369425e-03 0.0 
0.0 0.0 -9.904446095582e-04 
-1.723966937065e-03 1.170670843267e-03 0.0 
1.170670843267e-03 5.001993590100e-03 0.0 
0.0 0.0 -7.582784842146e-04 
-9.206532372436e-04 -4.495869396707e-04 0.0 
-4.495869396707e-04 2.876332750162e-03 0.0 
0.0 0.0 -7.084058105195e-04 
-8.029287135569e-04 3.022070318119e-03 0.0 
3.022070318119e-03 4.846485263972e-03 0.0 
0.0 0.0 -1.203498912175e-03 
1.578052768763e-04 -1.733898146901e-03 0.0 
-1.733898146901e-03 8.518457615679e-04 0.0 
0.0 0.0 -4.327075879046e-04 
-1.502885003929e-03 8.385321329672e-04 0.0 
8.385321329672e-04 8.406515819115e-03 0.0 
0.0 0.0 -1.260296891839e-03 
-7.798982579111e-04 -1.032636455785e-03 0.0 
-1.032636455785e-03 4.559837266151e-03 0.0 
0.0 0.0 -1.261416966621e-03 
-1.541080814648e-03 2.248481841172e-03 0.0 
2.248481841172e-03 7.871819285488e-03 0.0 
0.0 0.0 -1.260618436842e-03 
-1.035661708301e-03 1.434119926330e-03 0.0 
1.434119926330e-03 4.999968609048e-03 0.0 
0.0 0.0 -1.317725628150e-03 
0.0 0.0 0.0 
0.0 0.0 0.0 
0.0 0.0 0.0 
-8.775793509473e-04 2.643781737553e-03 0.0 
2.643781737553e-03 4.999185491909e-03 0.0 
0.0 0.0 -1.263090216482e-03 
-3.359262024726e-04 -4.205327465571e-04 0.0 
-4.205327465571e-04 3.690481845722e-03 0.0 
0.0 0.0 -1.202239909569e-03 
-1.469921091904e-03 1.397057797389e-04 0.0 
1.397057797389e-04 5.245389338611e-03 0.0 
0.0 0.0 -7.439744481034e-04 
-1.522980262771e-03 2.574585562032e-03 0.0 
2.574585562032e-03 7.567445771786e-03 0.0 
0.0 0.0 -1.252574368527e-03 
-1.039501310576e-03 -8.329301664350e-04 0.0 
-8.329301664350e-04 3.357758752277e-03 0.0 
0.0 0.0 -8.789764298429e-04 
-3.276933337434e-04 -7.307720459036e-04 0.0 
-7.307720459036e-04 1.390604940151e-03 0.0 
0.0 0.0 -3.555153606766e-04 
-1.400496614823e-03 7.920880417302e-05 0.0 
7.920880417302e-05 8.744396333073e-03 0.0 
0.0 0.0 -1.313490227100e-03 
2.520733888645e-03 -3.426864807379e-06 0.0 
-3.426864807379e-06 -8.047604136628e-04 0.0 
0.0 0.0 -1.695477456824e-04 
-1.436285120339e-03 -8.822331672806e-06 0.0 
-8.822331672806e-06 5.224558560537e-03 0.0 
0.0 0.0 -7.402411036050e-04 
-1.541544735514e-03 -2.080816256948e-04 0.0 
-2.080816256948e-04 7.171789726740e-03 0.0 
0.0 0.0 -1.313492844077e-03 
-2.510837729256e-04 -3.936310680644e-04 0.0 
-3.936310680644e-04 1.321735893226e-03 0.0 
0.0 0.0 -2.948614013126e-04 
-1.524937947447e-03 4.475494657923e-05 0.0 
4.475494657923e-05 5.953624986698e-03 0.0 
0.0 0.0 -8.489638187885e-04 
-1.372178966628e-03 3.183705797245e-03 0.0 
3.183705797245e-03 6.771642373061e-03 0.0 
0.0 0.0 -1.260211869575e-03 
-1.590513358799e-03 -2.597680171264e-04 0.0 
-2.597680171264e-04 4.769333481416e-03 0.0 
0.0 0.0 -1.052454572086e-03 
-1.550492385742e-03 1.189328986090e-04 0.0 
1.189328986090e-04 7.800235903878e-03 0.0 
0.0 0.0 -1.148445367820e-03 
9.452528930191e-04 -2.939486558072e-03 0.0 
-2.939486558072e-03 5.700922820308e-04 0.0 
0.0 0.0 -6.494336464500e-04 
0.0 0.0 0.0 
0.0 0.0 0.0 
0.0 0.0 0.0 
-1.577256117848e-03 6.886097405366e-05 0.0 
6.886097405366e-05 6.718118974100e-03 0.0 
0.0 0.0 -9.668795991591e-04 
-7.257532866393e-04 2.108017519290e-03 0.0 
2.108017519290e-03 4.551210106726e-03 0.0 
0.0 0.0 -1.258714341260e-03 
-1.539880904137e-03 1.881264573762e-03 0.0 
1.881264573762e-03 8.091722768049e-03 0.0 
0.0 0.0 -1.263997700767e-03 
-1.584367033562e-03 2.539188043181e-04 0.0 
2.539188043181e-04 6.423614681133e-03 0.0 
0.0 0.0 -9.199601189493e-04 
1.149887053528e-03 2.260371255349e-03 0.0 
2.260371255349e-03 -3.607458547944e-04 0.0 
0.0 0.0 -3.382033708860e-04 
-1.352077778871e-03 3.162162671945e-03 0.0 
3.162162671945e-03 6.429958482634e-03 0.0 
0.0 0.0 -1.221038716794e-03 
-1.328731786449e-03 -9.755978743980e-04 0.0 
-9.755978743980e-04 4.177204897338e-03 0.0 
0.0 0.0 -1.017329335709e-03 
-1.052088232510e-03 3.182318808270e-03 0.0 
3.182318808270e-03 5.489904176315e-03 0.0 
0.0 0.0 -1.208939113964e-03 
-2.749523466846e-04 3.333334303576e-04 0.0 
3.333334303576e-04 3.590145673266e-03 0.0 
0.0 0.0 -1.203806565432e-03 
-3.362176561087e-05 1.075595977278e-03 0.0 
1.075595977278e-03 3.362176561087e-05 0.0 
0.0 0.0 0.0 
-1.710135402111e-03 -2.140528936374e-04 0.0 
-2.140528936374e-04 5.062773823412e-03 0.0 
0.0 0.0 -1.067873332563e-03 
6.585939474405e-04 -9.144432273007e-04 0.0 
-9.144432273007e-04 2.765533765623e-04 0.0 
0.0 0.0 -2.242399343496e-04 
-1.352905233575e-03 -1.915199808028e-03 0.0 
-1.915199808028e-03 5.962667998270e-03 0.0 
0.0 0.0 -1.263714160583e-03 
-1.428737268169e-03 -6.941057894653e-04 0.0 
-6.941057894653e-04 4.390777467220e-03 0.0 
0.0 0.0 -1.028704531826e-03 
-1.010828205331e-03 1.303081879846e-03 0.0 
1.303081879846e-03 3.221275270002e-03 0.0 
0.0 0.0 -7.311336520137e-04 
-1.133374822382e-03 -1.604044547880e-05 0.0 
-1.604044547880e-05 3.646694996426e-03 0.0 
0.0 0.0 -5.266666666667e-04 
-1.280118750972e-03 1.130412810083e-03 0.0 
1.130412810083e-03 3.777030638565e-03 0.0 
0.0 0.0 -7.062703689559e-04 
-1.238778796526e-03 1.445476418679e-07 0.0 
1.445476418679e-07 4.216199491205e-03 0.0 
0.0 0.0 -5.933333333333e-04 
-1.543151210513e-03 1.002710923754e-03 0.0 
1.002710923754e-03 4.354039341919e-03 0.0 
0.0 0.0 -6.963727196364e-04 
-1.346425769997e-03 3.815725794878e-05 0.0 
3.815725794878e-05 4.612334605524e-03 0.0 
0.0 0.0 -6.600000000000e-04 

SCALARS node_materi_plasti_kappa_shear float
LOOKUP_TABLE default
2.115083374134e-03
3.458023789683e-03
4.967886194112e-03
5.876066285134e-03
1.429593561868e-03
9.260891180627e-04
9.750663137551e-04
1.375519170543e-03
1.749514182145e-03
2.072909783402e-03
2.372334959694e-03
2.646556194044e-03
2.900020015941e-03
3.146970300908e-03
3.414657029732e-03
3.664527045737e-03
3.866039465253e-03
4.132559423194e-03
4.398804352871e-03
4.605615939913e-03
4.743184926543e-03
4.864835234233e-03
4.967891461667e-03
5.874817732443e-03
5.871659258458e-03
5.865996944230e-03
5.879052454380e-03
5.875406408010e-03
5.881746665879e-03
5.893121739855e-03
5.904403498293e-03
5.911667380715e-03
5.942687471040e-03
5.945547502063e-03
5.964504727329e-03
5.990682248078e-03
6.003086871528e-03
6.009687630856e-03
6.018022142948e-03
6.013722829185e-03
6.018405848819e-03
6.000999157977e-03
5.961878918865e-03
5.908140669358e-03
5.805875616932e-03
5.680054112450e-03
5.512945864727e-03
5.326235031303e-03
5.099814575695e-03
4.848871496600e-03
4.578436030419e-03
4.312126051031e-03
4.068983510438e-03
3.878948019144e-03
3.696536407386e-03
3.610414615740e-03
3.648906839705e-03
3.740049181565e-03
3.899047133921e-03
4.078094335185e-03
4.265058537564e-03
4.435125269456e-03
4.594665148187e-03
4.735181100800e-03
4.838272090162e-03
4.913247143246e-03
4.935696440884e-03
4.963163630605e-03
4.970148499816e-03
4.972729571996e-03
4.968771048834e-03
4.969260551934e-03
3.740141790492e-03
4.058111443788e-03
4.339280484927e-03
4.600412294281e-03
4.861219744616e-03
5.105119180278e-03
5.341101545075e-03
5.553418984263e-03
5.788796962491e-03
5.174298430288e-04
3.540835783254e-03
1.633291935631e-03
1.806164222754e-03
1.988465623784e-03
1.960646228179e-03
2.080219020031e-03
2.392787930825e-03
2.711628071058e-03
2.853460972533e-03
3.168094353423e-03
2.624965324018e-03
2.803483841189e-03
3.120103201879e-03
3.399382940078e-03
3.415840330809e-03
3.424362395235e-03
3.424497136894e-03
3.479931295206e-03
3.440294557840e-03
3.439848037433e-03
3.453307638175e-03
3.471621284897e-03
3.481974088033e-03
3.486271779339e-03
3.492543524408e-03
3.498742868845e-03
3.518045244631e-03
0.0
0.0
0.0
0.0
0.0
1.744449562148e-04
3.008916063010e-04
4.050478665291e-04
5.046139784359e-04
6.936516565607e-04
8.134086808571e-04
1.035447660179e-03
1.317664285716e-03
1.556461179225e-03
1.698703308833e-03
1.829256340020e-03
1.936274606327e-03
2.057713747761e-03
2.160946537055e-03
2.659279069936e-03
2.694070111871e-03
2.699390019047e-03
2.680500365615e-03
2.691296569573e-03
2.695932966775e-03
2.699119509530e-03
2.696633821787e-03
2.694864802366e-03
2.693021630977e-03
2.691176137755e-03
2.685055016604e-03
2.677037826058e-03
2.669864850978e-03
2.663744853788e-03
2.659085923766e-03
2.654413471003e-03
2.625886718612e-03
2.573653616139e-03
2.800073416758e-03
2.792133891103e-03
2.794251622192e-03
2.799303906406e-03
2.804006642559e-03
2.811538170580e-03
2.819615238005e-03
2.827588526175e-03
2.830423737218e-03
2.834223597871e-03
2.832548011680e-03
2.829858727631e-03
2.829414630415e-03
2.819420454677e-03
2.821018701118e-03
2.841223476047e-03
2.785918999873e-03
3.125502671646e-03
3.195441658547e-03
3.182187427784e-03
3.176497158046e-03
3.175725551500e-03
3.174775535585e-03
3.166739352413e-03
3.157972763163e-03
3.150169453340e-03
3.142150136721e-03
3.134434164911e-03
3.127916890668e-03
3.125563909718e-03
3.118279613313e-03
3.123246277339e-03
3.139058430584e-03
2.101966594938e-03
1.474374331820e-03
1.940173948538e-03
1.976172725544e-03
2.018544812754e-03
2.257702925448e-03
2.595112877480e-03
2.777363284769e-03
3.045897946307e-03
3.384322342055e-03
1.792071878644e-03
3.375143360345e-03
7.233637867985e-04
1.036141330496e-04
4.185730067683e-03
2.132887875458e-03
3.290669112102e-03
3.943090107724e-03
2.459850990970e-03
5.049081016827e-03
3.049657566422e-03
4.807738799368e-03
1.182564866658e-03
5.746835578076e-03
3.688122146157e-03
2.243660734344e-03
3.956138881533e-03
5.918594875086e-03
5.957497874511e-03
5.833020523938e-03
5.849817635203e-03
5.907569221224e-03
3.796891756948e-03
3.753148626160e-03
3.750719424971e-03
4.728883318265e-03
4.949356106529e-03
0.0
1.446675358332e-03
4.662329876841e-03
3.701848086155e-03
1.172285973879e-03
5.916122430582e-03
4.554740200655e-03
5.468890302383e-03
3.503959695460e-03
3.612570973627e-03
1.012610592318e-03
3.764133124860e-03
4.509011244357e-03
5.226961181745e-03
8.281022762432e-04
2.786147332295e-03
5.862108365073e-03
2.293034409321e-03
2.118172696952e-03
2.814022264942e-03
3.328976841209e-03
1.769535924289e-03
4.215679675405e-03
4.988678889666e-03
1.603073179023e-03
5.647207016452e-03
3.826980774528e-03
3.959485929510e-03
4.093805969592e-03
4.237157459642e-03
4.355175514086e-03
4.475551541186e-03
4.360600218784e-03
4.584917723766e-03
4.472803770017e-03
4.603457862675e-03
4.678779703983e-03
4.566901197709e-03
4.755547519284e-03
4.640471696753e-03
4.457539912409e-03
4.538567241607e-03
4.334573614265e-03
4.420847848507e-03
4.584491396975e-03
4.467742894371e-03
4.290813753397e-03
4.341561214995e-03
4.161369484108e-03
4.203844918484e-03
4.020961676830e-03
4.033609205765e-03
4.190038035743e-03
3.995998885876e-03
3.816070395907e-03
3.728966813226e-03
3.537030536043e-03
3.407128807490e-03
3.586398617854e-03
3.288807272957e-03
3.252863900070e-03
3.170185754012e-03
3.233111113295e-03
3.074120756272e-03
3.162643393988e-03
2.933378461356e-03
2.797468942969e-03
2.619962109437e-03
2.778421306725e-03
2.482787310082e-03
2.288870685994e-03
2.245276885126e-03
2.009188259652e-03
2.106063465321e-03
2.298880449605e-03
2.277186157407e-03
2.045146607384e-03
2.269833337432e-03
2.492081268530e-03
2.449252250951e-03
2.235847836527e-03
2.412279828812e-03
2.543747264894e-03
2.600115002725e-03
2.727482019444e-03
2.938942653524e-03
2.800953391655e-03
3.099410076939e-03
3.236731448007e-03
3.326718393122e-03
3.458435113975e-03
3.182252973246e-03
3.349632840797e-03
3.182734544931e-03
3.297058188961e-03
3.395874895856e-03
3.084763359842e-03
2.947638229530e-03
3.173599872694e-03
3.367971322397e-03
2.907366739478e-03
2.989778207621e-03
2.681037591212e-03
3.273090083598e-03
4.583977419968e-03
2.763122244056e-03
2.422279070482e-03
2.341976270933e-03
2.055104190934e-03
4.487857016271e-03
4.743988105410e-03
4.617567667593e-03
4.883368050274e-03
4.763228887328e-03
2.160659489003e-03
4.890919826071e-03
4.994559216402e-03
4.077898647515e-03
3.620014606063e-03
2.026865546520e-03
3.041451028518e-03
2.832922892333e-03
3.077663964186e-03
3.380542676541e-03
3.577929148800e-03
3.502531489785e-03
3.663458989421e-03
3.546277218969e-03
3.702657791091e-03
3.786178392521e-03
3.850978684801e-03
3.897450996605e-03
3.504687425170e-03
3.291824593051e-03
3.999992240266e-03
4.016767369501e-03
4.146857594668e-03
4.147424783067e-03
3.977096144328e-03
4.088166746606e-03
3.903561376438e-03
1.647610095171e-03
1.670364952503e-03
1.200482357020e-03
1.361632881091e-03
1.080278838397e-03
1.418148903541e-03
1.352867822665e-03
1.212666352797e-03
4.813044669928e-03
2.629702736151e-03
2.873791510621e-03
2.692884768804e-03
2.922961960319e-03
2.693279210870e-03
2.967619989366e-03
2.640231682294e-03
2.442231823403e-03
2.256451765602e-03
2.304389301660e-03
1.970174595809e-03
2.413972446824e-03
4.105974986965e-03
1.752978929950e-03
1.881015725757e-03
2.212471553438e-03
1.986920103444e-03
4.283844059938e-03
3.257008008793e-03
2.972866264147e-03
1.546774196166e-03
1.779410363677e-03
2.938187575973e-03
3.188246772319e-03
5.018824155785e-03
4.900262887059e-03
3.011629305590e-03
1.908912131209e-03
3.906913380700e-03
1.895281348439e-03
4.211749337744e-03
4.409990212532e-03
3.799088406628e-03
2.355436507833e-03
2.649299599465e-03
2.548634680734e-03
2.876527123569e-03
2.844168383616e-03
3.212913817799e-03
3.129285464298e-03
3.337589162415e-03
3.439166685576e-03
3.438974933722e-03
3.303340296455e-03
3.181680302338e-03
3.085186834318e-03
2.829834518630e-03
4.432489689449e-03
1.483659745450e-03
4.217722169449e-03
3.341461549787e-03
1.739764648709e-03
5.152372939051e-03
5.035369681437e-03
4.778294671962e-03
4.917428704147e-03
5.167012334313e-03
5.050565403691e-03
4.795745429522e-03
4.929418857156e-03
4.668419815856e-03
4.805864584515e-03
5.058823087727e-03
4.939281816885e-03
4.682797093272e-03
4.818002280012e-03
4.556116505805e-03
4.690388347301e-03
4.950293242362e-03
1.552403935002e-03
1.574322739071e-03
1.877343647282e-03
2.891197733424e-03
3.092514519054e-03
3.276732472821e-03
3.305456961863e-03
4.827759947093e-03
5.081593595751e-03
3.163419766099e-03
3.211991907021e-03
5.265451275810e-03
4.339993450943e-03
4.108622684801e-03
3.351327486416e-03
3.414147971325e-03
3.173366515349e-03
3.179934844101e-03
3.412464276917e-03
2.933374923412e-03
3.048978120526e-03
5.184623155997e-03
2.285735175407e-03
1.964820094476e-03
4.525309975274e-03
1.417417973454e-03
4.266164728390e-03
4.121971091758e-03
4.284403972733e-03
4.105296115865e-03
4.321717176209e-03
4.160575813867e-03
3.892235684062e-03
2.811745021311e-03
3.984494120429e-03
4.554222149543e-03
2.269911801835e-03
3.028107761873e-03
1.410044382037e-03
2.660796390280e-03
1.642549087339e-03
2.019881341573e-03
3.191265930906e-03
4.449437667659e-03
4.556738233615e-03
3.151991049237e-03
3.330144195961e-03
2.615443417616e-03
4.499456307731e-03
4.528967056282e-03
4.393751219098e-03
1.261306655149e-03
2.904934706402e-03
5.293699107592e-03
3.240583809678e-03
3.137492166912e-03
1.326987575174e-03
7.734678318549e-04
4.951662652887e-03
5.199111337285e-03
3.458302994746e-03
3.498814191065e-03
2.813032372855e-03
2.488302007795e-03
5.318301846901e-03
1.850643022250e-03
1.900800904807e-03
3.131639576739e-03
3.027700141336e-03
2.957799237182e-03
3.061527549215e-03
2.613926403272e-03
1.775348210848e-03
3.082947151770e-03
5.403046930315e-03
3.649594930354e-03
3.629629087466e-03
3.791790756931e-03
2.266631384107e-03
3.561658471125e-03
4.464949176004e-03
4.749074667133e-03
4.803902692703e-03
3.195369272568e-03
2.992485238832e-03
2.855378574955e-03
2.741778446605e-03
4.234794425954e-03
3.108532495677e-03
4.079034698662e-03
3.940552543924e-03
3.815579800974e-03
3.588995439569e-03
3.476421980838e-03
3.087431809056e-03
2.199698414150e-03
3.435465997500e-03
3.826462726601e-03
3.261674752205e-03
5.297684949133e-03
5.419151855637e-03
4.414057560104e-03
4.275097580202e-03
1.647451024479e-03
1.675335589964e-03
3.606226530559e-03
3.650868628108e-03
5.391618930748e-03
5.502109459713e-03
5.372609048885e-03
2.675369016162e-03
2.527778908692e-03
1.410070067518e-03
1.620197969852e-03
3.704561518482e-03
1.421863687494e-03
4.706685273956e-03
4.622442071867e-03
4.666940698600e-03
3.076866095470e-03
3.811195532018e-03
3.440349836705e-03
3.147617514472e-03
3.657267983904e-03
3.541815125300e-03
3.706500821150e-03
3.438152628286e-03
2.775184890772e-03
2.746720812631e-03
4.705097558488e-03
4.212391869045e-03
5.032584068110e-03
5.060540397521e-03
2.962566848859e-03
2.515241370603e-03
2.118397082965e-03
3.180431248684e-03
5.518846616804e-03
3.789817242396e-03
3.891070071717e-03
3.945571653991e-03
5.986403847301e-04
2.213189616717e-03
5.440739059520e-03
2.585939956196e-03
2.577091143894e-03
2.623503978078e-03
4.897871729883e-03
3.686454329978e-03
4.752961752010e-03
3.733356492718e-03
5.550112872523e-03
3.071330919958e-03
3.165660564610e-03
2.415063932661e-03
5.310812901883e-03
5.569340241546e-03
4.247537830652e-03
4.096212274891e-03
4.376310335557e-03
2.295285634796e-03
1.760148970824e-03
5.307204263575e-03
2.597022010623e-03
2.677083653507e-03
2.361042937549e-03
2.540509620076e-03
3.590752619766e-03
3.561980325172e-03
4.687546968051e-03
4.862462070621e-03
4.404636295064e-03
2.304172143242e-03
2.399216396593e-03
1.964677543140e-03
5.518361070662e-03
5.664420780412e-03
2.775557848670e-03
2.950132041529e-03
2.770175388850e-03
5.630497223971e-03
4.810959073252e-03
4.708255592783e-03
1.439105625328e-03
1.764440458605e-03
2.782344288704e-03
2.711314613078e-03
5.598196232206e-03
5.483018715217e-03
5.749000539319e-03
1.876891076347e-03
3.340823531716e-03
3.019076182411e-03
2.638636300015e-03
3.496239648933e-03
3.233921457243e-03
3.509435497577e-03
4.060457021751e-03
9.830298147040e-05
5.472024458089e-03
4.113394862956e-03
0.0
3.974022231900e-03
4.142147385999e-03
3.808811843470e-03
1.512139063608e-03
4.035840610883e-03
4.228908811524e-03
1.229665042051e-03
5.727754258707e-03
1.213722886229e-03
1.289130077108e-03
4.190343840825e-03
4.208177283858e-03
4.453725484854e-03
4.415818037714e-03
4.236650972425e-03
4.433395698974e-03
3.960847876624e-03
4.646929544121e-03
4.602784854752e-03
4.854292446809e-03
3.246379902709e-03
2.751258169961e-03
2.634703286177e-03
2.390161293581e-03
5.366413333148e-03
5.305369359066e-03
4.571502884887e-03
4.361148070354e-03
3.986570332512e-03
3.958169901241e-03
4.225562744729e-03
4.178369498049e-03
4.446132963819e-03
4.399693690965e-03
4.649688467265e-03
4.553994310106e-03
2.395247212063e-03
3.489844342941e-03
2.935834930029e-03
2.507685734422e-03
3.320342588166e-03
3.002197588997e-03
3.920773109245e-03
3.240450602112e-03
5.870937815019e-03
0.0
3.323452107101e-04
3.218749665587e-03
3.600131537244e-03
2.907036869022e-03
2.836905823125e-03
2.270773315379e-03
1.834790987996e-03
2.673096930044e-03
4.690114924130e-03
2.348836148975e-03
4.492676789655e-03
3.205482778443e-03
3.817317219374e-03
2.948492527326e-03
2.849084286571e-03
4.354187352303e-03
4.105094102283e-03
3.949385469094e-03
3.043885708512e-03
3.025811206364e-03
2.606730506197e-03
4.199509327046e-03
5.239720060421e-03
5.342311723545e-03
5.568723597318e-03
5.436074129988e-03
5.195127512814e-03
5.275945829576e-03
5.522846822361e-03
5.362101483362e-03
5.654790167380e-03
5.418798555265e-03
5.183358795615e-03
5.228039527145e-03
5.462723589554e-03
5.010149217662e-03
3.394314338742e-03
3.254416177728e-03
3.998143781564e-04
1.780285334436e-03
3.960367887196e-03
5.943039136803e-03
5.959345631699e-03
3.141346465330e-03
5.620347987340e-03
4.084459886071e-03
2.498622170437e-03
5.268940025094e-03
5.099701809653e-03
4.951938385870e-03
4.853275658762e-03
5.939990338712e-03
4.510478805277e-03
4.274617599746e-03
1.914060081792e-03
2.484209945367e-03
2.639018446471e-03
5.114013007791e-03
3.400229055209e-03
2.914794698409e-03
2.950236209629e-03
2.471629201444e-03
3.451405133461e-03
5.898428211788e-03
5.845499826008e-03
3.178797580669e-03
2.960279401288e-03
2.804058035340e-03
2.729987471253e-03
2.829725808593e-03
2.578048860295e-03
2.561856093753e-03
2.441038645177e-03
5.056780879738e-03
3.797514540817e-03
3.350528560522e-03
3.070190277767e-03
2.914035417259e-03
3.410817836896e-03
3.523130452731e-03
3.651707279838e-03
3.259955241283e-03
3.906281668705e-03
3.999951674760e-03
1.514180247365e-03
3.455226154399e-03
3.780489020667e-03
4.041242521720e-03
4.062468817485e-03
4.304541709678e-03
4.049230948442e-03
3.629888373411e-03
3.687995609435e-03
3.556481715217e-03
3.766062809759e-03
3.630392003192e-03
3.425625743275e-03
3.859887208052e-03
3.712754465682e-03
3.753295504860e-03
5.944650398121e-04
2.225590346816e-03
2.127823725117e-03
2.979469021594e-03
2.824219377905e-03
3.230470095965e-03
3.141720754719e-03
1.550829825203e-03
7.467435189644e-04
1.647650571366e-03
6.781160949691e-04
1.418844655901e-03
2.293180220520e-03
2.042650195457e-03
4.943618431220e-03
3.031335723016e-03
2.945155604069e-03
2.688743593994e-03
2.875725181900e-03
3.142994710358e-03
2.523324995075e-03
2.457510238830e-03
1.510421340239e-03
1.007815092101e-03
1.077602730068e-03
9.323160320548e-04
9.716390507349e-04
1.014619391924e-03
1.008787792094e-03
1.356424777816e-03
1.016122513265e-03
1.104929402575e-03
1.269761046994e-03
4.987755442147e-03
5.116267723268e-03
4.373987183766e-03
3.768398534654e-03
7.723067608076e-04
5.801414033109e-03
5.849888523554e-03
5.842497446698e-03
4.794097655678e-03
4.842845514710e-03
5.795857190058e-03
2.602280117318e-03
5.684608119029e-03
5.426766964233e-03
2.915293754372e-03
2.687040126660e-03
4.231633519162e-03
3.882386612765e-03
4.556515040672e-03
3.998756045770e-03
4.293387971553e-03
3.074535552154e-03
1.408470089399e-03
4.539066931421e-03
4.423048734156e-03
5.069081138623e-03
2.521812465648e-03
3.361884437641e-03
1.678049688451e-03
5.074061553586e-03
3.958676471230e-03
3.095099427902e-03
3.226856089265e-03
2.810734054587e-03
2.838974017310e-03
3.275246495708e-03
3.484344474013e-03
3.705978157807e-03
5.196157012198e-03
1.018518931270e-03
3.521375643282e-03
3.706077620756e-03
4.658000838490e-03
1.709680317594e-03
3.305261692782e-03
5.177694957922e-03
5.612493104205e-03
4.353675085413e-03
1.412398444283e-03
4.259060800004e-03
3.477784717748e-03
5.132413977016e-03
2.272689532028e-03
1.816489196477e-03
3.846604393139e-03
3.494167407997e-03
5.528278511332e-03
3.146089818610e-03
1.957139825605e-03
1.112448474457e-03
2.360079505855e-03
4.023485214536e-03
2.432815649017e-03
5.414327495685e-03
4.449676466395e-03
2.421354826549e-03
5.279237453520e-03
2.481134471885e-03
2.154599998102e-03
3.850201562972e-03
4.337013816297e-03
4.689567346140e-03
3.889632788579e-03
4.106706360112e-03
3.777078850776e-03
2.080073589128e-03
3.024091218619e-03
4.636084587167e-03
4.310138882828e-03
5.639613987774e-03
3.640972516568e-03
4.095996415080e-03
5.509310551577e-03
3.587895264237e-03
1.596224348258e-03
2.654907617398e-03
2.518196502036e-03
2.963465931010e-03
3.699806971781e-03
5.746687556824e-03
4.270512341207e-03
2.658558888212e-03
1.520312135841e-03
3.642720607827e-03
4.434127154033e-03
1.755325851135e-03
2.085706409627e-03
3.490851329931e-03
4.839928513279e-03
3.143753996542e-03
4.591157827228e-03
1.995758212990e-03
3.213796841356e-03
3.698867822439e-03
4.783484472751e-03
2.274372036269e-03
3.942041855717e-03
2.018129477521e-03
3.179171001688e-03
3.766024258519e-03
4.461967294443e-03
5.932012927013e-03
2.263421662546e-03
4.710985723029e-03
3.694491554536e-03
2.635139483983e-03
1.025903351167e-03
3.364049018946e-03
3.741140459926e-03
2.496086040746e-03
2.247981960543e-03
3.447314890979e-03
3.806063609485e-03
2.443637327429e-03
3.889607978100e-03
2.932212877137e-03
4.809565923031e-03
3.991122142150e-03
4.535682597544e-03
1.253579093275e-03
3.692076032167e-03
4.710605835282e-03
2.989317964917e-03
2.692080032987e-03
5.041460301469e-03
2.649271473601e-03
2.763935828314e-03
4.635607043239e-03
3.377136231024e-03
2.886852932384e-03
2.656221383019e-03
2.841982051278e-03
2.546121946090e-03
2.280710634061e-03
2.448224017802e-03
4.844932991548e-03
1.159538546380e-03
4.958406181658e-03
2.170695742773e-03
2.635116820677e-03
3.060192089563e-03
4.490482294088e-03
2.676098572190e-03
1.933023820066e-03
2.768539009112e-03
2.773761821372e-03
2.620450107336e-03
2.685714993396e-03
5.648300186419e-03
2.938653539912e-03
5.823614188445e-03
4.963188208300e-03
3.932121989893e-03
2.324149862710e-03
0.0
2.514548860694e-03
2.801591293186e-03
4.851561224056e-03
3.937231005468e-03
2.729494295403e-03
5.675085357911e-03
4.803426685540e-03
4.862248751244e-03
2.171293786245e-03
3.009255413908e-03
5.428982077181e-03
3.693412385959e-03
1.283308417236e-03
4.241990484630e-03
2.118254558368e-03
2.377043969348e-03
2.382468483149e-03
2.413239708947e-03
2.697664909012e-03
2.126804265286e-03
2.932528478253e-03
3.975655703172e-03
3.423996743188e-03
2.040734890307e-03
5.723862858496e-03
4.029709976472e-03
4.729446121623e-03
3.643538952676e-03
2.324384274866e-03
4.240145590125e-03
5.248251932663e-03
5.065638731077e-03
4.865415511008e-03
3.950525462167e-03
5.659251463191e-03
2.734727135404e-03
5.648629554702e-03
5.043134290996e-03
4.301884988432e-03
4.260018092810e-03
4.871863521837e-03
5.738997361023e-03
2.142169266280e-03
4.855264715639e-03
2.941329875457e-03
4.982839675412e-04
4.155649936064e-03
5.251942821196e-03
4.831609780295e-03
9.013000089023e-04
1.077083856090e-03
3.817677234665e-03
5.571067232882e-03
3.300048357497e-03
5.920327576545e-03
7.577862853330e-04
3.663422898644e-03
1.060195543772e-03
4.951255767582e-03
5.712619248511e-03
3.070814862917e-03
3.822820158157e-03
2.186156026243e-03
4.538463984820e-03
1.851321241038e-03
5.716697476405e-03
3.395600169627e-03
5.810236312995e-03
3.850312672382e-03
0.0
4.395921499424e-03
2.651166453379e-03
3.693193394849e-03
5.779881690989e-03
2.632058365002e-03
1.305216945228e-03
5.834411797515e-03
1.794472957361e-03
3.663155821034e-03
4.974463401011e-03
1.126337765141e-03
4.139350774126e-03
5.652422135997e-03
3.542221846802e-03
5.289169342971e-03
3.063748398770e-03
0.0
4.627165150353e-03
3.844266386451e-03
5.798941796910e-03
4.453871606854e-03
2.441774290393e-03
5.465528199286e-03
3.248665564557e-03
4.976193501889e-03
2.571640358639e-03
1.081037219162e-03
3.751244995352e-03
1.075195837059e-03
4.615840899057e-03
3.326084611542e-03
2.703616268807e-03
2.614478323154e-03
2.992334186830e-03
2.991431796678e-03
3.343927869160e-03
3.270124677663e-03

SCALARS node_materi_plasti_phimob float
LOOKUP_TABLE default
-5.103303519711e+01
-6.640528605700e-01
2.065322953137e+01
1.876887235206e+01
-3.016520256025e+01
-2.503861883412e+00
1.068272726262e+01
1.398348952833e+01
1.313349363732e+01
1.472574811204e+01
1.601453393446e+01
1.699537662749e+01
1.775946152084e+01
1.838501646993e+01
1.891442444975e+01
1.929762404525e+01
1.957593960400e+01
1.992674356648e+01
2.057039144380e+01
2.100242971685e+01
2.096437669733e+01
2.087425599337e+01
2.076323203107e+01
1.881257850299e+01
1.880743844760e+01
1.882706117073e+01
1.885111142146e+01
1.885454897925e+01
1.890696418656e+01
1.894858100875e+01
1.902527305491e+01
1.911520270499e+01
1.921495621045e+01
1.929923355590e+01
1.945215406299e+01
1.960023924494e+01
1.978278117297e+01
1.993903797298e+01
2.020108878689e+01
2.041600887996e+01
2.062279009677e+01
2.088564402633e+01
2.110580493567e+01
2.127727997946e+01
2.137162492731e+01
2.147807198570e+01
2.152692988629e+01
2.153849919457e+01
2.152039676639e+01
2.149914906661e+01
2.144410412072e+01
2.139205986741e+01
2.129707457889e+01
2.126577619259e+01
2.121395595685e+01
2.113894295221e+01
2.107992077620e+01
2.102727218309e+01
2.096517120423e+01
2.092668922255e+01
2.087999235807e+01
2.084740470838e+01
2.081631118217e+01
2.077240382468e+01
2.072927691833e+01
2.070596471889e+01
2.073086543423e+01
2.066808263896e+01
2.067179926821e+01
2.065276419814e+01
2.064659929340e+01
2.064819533700e+01
5.213803502414e+00
8.919703432064e+00
1.143469779585e+01
1.325866531775e+01
1.471338988389e+01
1.586466125492e+01
1.683028144978e+01
1.764659514753e+01
1.834897748529e+01
1.879372037917e+01
1.226998924668e+00
3.405635389911e+01
2.945571544551e+01
2.877790695940e+01
2.831703656596e+01
2.624444413426e+01
2.322834479349e+01
1.392246710123e+01
-4.089109636530e-02
-1.241740050910e+00
-2.752161256346e+01
-2.305697596238e+01
-1.129836828457e+01
-1.824395149254e+00
-1.469426347336e+00
-1.470285813418e+00
-1.569153735607e+00
-7.278455412104e-01
-1.595249956498e+00
-1.736419105073e+00
-1.746964428406e+00
-1.698928474141e+00
-1.773208364251e+00
-1.806252820242e+00
-1.721226381632e+00
-1.349259067484e+00
-4.917465127748e-01
1.010883879549e+01
8.705006387572e+00
9.381166989111e+00
1.030576707749e+01
1.140187132269e+01
2.668189109751e+00
-2.341596035081e+01
-3.807400663724e+01
-4.500222634643e+01
-4.752407167157e+01
-4.829905448801e+01
-4.853444329967e+01
-4.981508740588e+01
-5.119422032003e+01
-5.211371165357e+01
-5.288808223404e+01
-5.329564544516e+01
-5.323681176124e+01
-5.326191761320e+01
2.299548123835e-01
-1.642979447638e+01
-2.514317839487e+01
-2.993148624823e+01
-3.212081567305e+01
-3.264451990228e+01
-3.258106058280e+01
-3.208451373987e+01
-3.146748165256e+01
-3.087736190305e+01
-3.036806257728e+01
-2.984855762314e+01
-2.940381330751e+01
-2.907055498006e+01
-2.884506472847e+01
-2.873458960016e+01
-2.872971806387e+01
-2.866966428828e+01
-2.758553186748e+01
-2.307285670772e+01
-2.416634576817e+01
-2.424011371347e+01
-2.425906508892e+01
-2.422694907049e+01
-2.422275945329e+01
-2.421729734440e+01
-2.420491926248e+01
-2.406810347279e+01
-2.382728703860e+01
-2.336821611862e+01
-2.269107242522e+01
-2.162281836642e+01
-1.999653677421e+01
-1.781844681414e+01
-1.323213867514e+01
-9.755816248784e+00
-5.505259332862e+00
-6.483637575485e+00
-8.768906143411e+00
-1.005291562588e+01
-1.089414720893e+01
-1.148217838160e+01
-1.186103783277e+01
-1.202901409611e+01
-1.214358161093e+01
-1.225293440999e+01
-1.234660207323e+01
-1.242406305229e+01
-1.246203311873e+01
-1.249630739274e+01
-1.221316662340e+01
-1.141611953733e+01
3.499586537224e+01
3.143472400239e+01
2.897287053587e+01
2.832972053726e+01
2.849532854953e+01
2.564756306286e+01
2.170013974685e+01
8.226129406892e+00
-6.113038175748e-01
-3.634583780289e-03
2.745479201351e+01
2.151347632012e+01
-3.417234892722e+01
1.315890462675e+01
2.119677369446e+01
2.459054798232e+01
1.869171282471e+01
2.172108634261e+01
2.232166835390e+01
2.167862542725e+01
7.042150309226e+00
2.090524048016e+01
-3.809346908030e+01
2.108144147011e+01
4.759518883299e+00
1.551034109071e+01
1.969488169759e+01
2.015445583336e+01
1.918583062723e+01
1.854350369079e+01
1.855796246728e+01
1.885622060308e+01
4.429232948640e+00
3.975606937857e+00
4.445256954983e+00
1.403026645942e+01
2.080263593374e+01
1.065720359214e+01
-3.687774160602e+01
2.100566614872e+01
4.147005766526e+00
1.277902999219e+01
1.949211944573e+01
2.172542207784e+01
2.146596036469e+01
2.169053327756e+01
2.136787209122e+01
-1.237243487747e+00
3.808515063826e+00
2.111773277235e+01
1.635797933295e+01
-3.729987532092e+01
1.743551473420e+01
1.861174439336e+01
2.341168455376e+01
2.556787629746e+01
1.706449590604e+01
4.192098632320e+00
3.207271691114e+01
1.045727771114e+01
2.074007852349e+01
-3.800830700406e+01
1.797570956285e+01
5.868738639615e+00
8.253956161424e+00
8.877796086305e+00
1.103059889077e+01
1.161891009539e+01
1.304249345869e+01
1.268281694574e+01
1.430873724137e+01
1.413574761088e+01
1.351326907509e+01
1.543734452154e+01
1.538751953790e+01
1.642454502570e+01
1.645213627583e+01
1.549821857199e+01
1.659481712907e+01
1.576770292861e+01
1.693157834278e+01
1.771449932467e+01
1.838336104334e+01
1.748045063623e+01
1.907232655548e+01
1.816867692534e+01
1.974412138054e+01
1.892124199452e+01
2.044354845821e+01
2.116216695557e+01
2.178351925328e+01
2.125342654755e+01
2.246161690452e+01
2.217171181928e+01
2.332179520523e+01
2.351198060360e+01
2.418073367601e+01
2.406476632042e+01
2.474603487209e+01
2.468772317844e+01
2.527906455336e+01
2.513930054326e+01
2.560272855609e+01
2.572266521909e+01
2.592300005808e+01
2.571005254819e+01
2.587937828729e+01
2.609850632048e+01
2.590007731081e+01
2.609878520360e+01
2.577757608300e+01
2.550801749429e+01
2.524601212923e+01
2.546625653301e+01
2.482746075361e+01
2.455239854533e+01
2.406756975242e+01
2.434060806484e+01
2.349211543890e+01
2.324778657719e+01
2.247404048166e+01
2.261480534152e+01
2.154106125151e+01
2.122880245342e+01
2.038883138172e+01
2.084313201394e+01
1.975162012544e+01
2.035634530288e+01
1.916710368974e+01
1.878432836738e+01
1.815260816037e+01
1.827503792141e+01
2.435254214891e+01
1.758476601744e+01
1.741144653374e+01
1.793520548211e+01
1.861973878902e+01
1.710383861483e+01
1.754474731058e+01
1.656325577669e+01
2.452478489992e+01
1.900950524108e+01
1.709729112586e+01
1.593686631363e+01
1.522755052628e+01
1.431762368396e+01
1.234918178648e+01
1.405644841387e+01
1.301104375366e+01
1.461722326653e+01
1.376383373079e+01
1.519350794356e+01
1.650487026773e+01
1.542716023089e+01
1.679854056069e+01
2.090595768382e+01
2.616134319617e+01
1.797904178562e+01
1.760100914634e+01
1.829028250503e+01
2.137860340223e+01
2.107725235838e+01
2.208899142021e+01
2.187225636169e+01
2.271300176223e+01
2.243994935369e+01
2.170382431860e+01
2.219126003994e+01
2.156505453419e+01
2.281175606725e+01
2.318488949117e+01
2.196524026300e+01
2.146142900926e+01
2.175651280974e+01
2.138712504023e+01
2.075361374291e+01
2.075838295764e+01
2.008596627904e+01
2.608961658111e+01
2.603870916440e+01
2.586076153140e+01
2.561315001920e+01
2.517049972058e+01
2.474237003732e+01
2.434140772969e+01
2.465642869435e+01
1.728040977592e+01
2.565231698694e+01
2.548871708521e+01
2.541561818418e+01
2.515554981666e+01
2.511820818201e+01
2.466795041200e+01
2.470749716632e+01
2.490556703106e+01
2.455895054694e+01
2.442318180016e+01
2.430096077839e+01
2.363614262367e+01
2.231393356529e+01
2.515374347309e+01
2.424985499576e+01
2.452269858510e+01
1.327284021768e+01
2.132901940432e+01
2.296858538091e+01
2.338867656773e+01
2.395573390695e+01
1.310447711917e+01
2.407654248564e+01
2.389404311904e+01
1.518121860863e+01
1.445395184758e+01
2.299531668568e+01
1.409481278643e+01
2.217093384964e+01
2.440767989663e+01
2.082131196038e+01
2.126364114729e+01
2.085407874590e+01
2.376438642499e+01
2.394051488093e+01
2.396328656997e+01
2.275308590801e+01
2.228709541455e+01
2.088185159210e+01
2.180938208177e+01
1.984237080589e+01
1.854875997564e+01
1.760713591689e+01
1.902143691134e+01
1.686447146302e+01
1.523799166854e+01
1.475122630147e+01
2.138295780749e+01
2.456221211216e+01
1.440347855811e+01
2.260624602210e+01
2.363531801950e+01
1.573488810258e+01
1.511272257496e+01
1.370284863558e+01
1.447864136199e+01
1.574011407285e+01
1.518541722841e+01
1.381949349959e+01
1.460505510301e+01
1.311182125891e+01
1.399201647980e+01
1.531167387637e+01
1.477665669774e+01
1.334121489556e+01
1.420237061205e+01
1.262181755478e+01
1.356245266600e+01
1.496080060410e+01
1.213111931231e+01
2.420341038507e+01
2.356781562066e+01
1.783004985998e+01
1.833740689242e+01
1.877358566834e+01
1.877344248348e+01
1.438594521770e+01
1.564129704652e+01
2.312712960753e+01
2.292369887404e+01
1.634455600665e+01
2.091209665185e+01
2.023731785282e+01
2.202806764049e+01
2.068925386790e+01
2.192863813524e+01
2.055490796963e+01
1.922120105463e+01
2.185713683495e+01
2.359356192211e+01
1.595498780706e+01
1.442954967542e+01
1.200127935629e+01
2.119120279243e+01
2.484364367568e+01
2.166092735508e+01
2.249644423992e+01
2.175464652226e+01
2.234748746892e+01
2.168444822522e+01
2.216045051844e+01
2.274350562294e+01
2.331005116560e+01
2.245989080337e+01
1.280945022571e+01
2.536558501915e+01
1.857288584704e+01
1.036831903514e+01
1.219985172795e+01
1.284761327803e+01
1.465963667038e+01
2.254510715663e+01
2.164325569358e+01
2.109923909772e+01
1.922185256048e+01
1.770669900504e+01
2.312539779143e+01
1.197319318650e+01
1.211954134828e+01
1.121838232351e+01
1.127606531890e+01
1.287740350997e+01
1.632026661170e+01
2.379677039764e+01
2.284164662242e+01
2.471863878595e+01
2.539827915904e+01
1.509282725998e+01
1.620811963882e+01
1.910996927710e+01
1.914619204865e+01
2.292752663336e+01
1.239860731700e+01
1.666061719218e+01
2.434157576859e+01
2.483468779514e+01
1.835623254191e+01
2.206487293332e+01
2.240868147361e+01
2.050965328587e+01
1.470744755026e+01
1.347865868496e+01
2.241453209687e+01
1.679223316625e+01
2.295132596405e+01
2.337432658956e+01
2.256226398720e+01
8.278451265717e+00
2.218673092054e+01
2.100436607175e+01
2.120074702724e+01
2.061228589186e+01
2.372647003646e+01
2.286465797398e+01
2.184128566268e+01
2.184035010890e+01
1.252948576044e+01
2.351957625039e+01
1.486650910501e+01
1.313799297970e+01
1.385362652772e+01
1.787198056389e+01
1.648197825396e+01
2.510362791299e+01
2.599192950012e+01
1.911496107602e+01
2.008250734333e+01
2.239742180348e+01
1.640600504904e+01
1.695019506136e+01
1.151934575928e+01
1.054041458763e+01
9.974788531044e+00
7.802720382535e+00
2.009213168629e+01
2.225064405953e+01
1.679989918642e+01
1.732691164594e+01
1.693157394581e+01
2.278282598927e+01
2.541154983119e+01
2.582968406225e+01
2.404369188739e+01
2.376349439257e+01
3.970602199532e+00
1.832464961526e+01
2.108161818294e+01
2.108913669022e+01
2.275953538735e+01
7.876945423351e+00
2.438205966704e+01
2.493866939917e+01
1.163445408355e+01
1.270511137554e+01
1.474586798067e+01
1.401835799790e+01
2.011887666407e+01
1.830565372730e+01
2.161880694284e+01
2.221137874019e+01
2.090500415336e+01
2.023922482510e+01
2.254789297477e+01
2.290874812700e+01
1.501212907245e+01
1.635827134112e+01
1.727047405005e+01
1.085887679053e+01
2.184418614798e+01
2.192424476900e+01
2.383937082634e+01
2.220195524180e+01
1.715298697566e+01
2.087408389532e+01
2.070311666906e+01
2.109490441460e+01
2.080737069119e+01
4.118459860525e+00
2.096643627675e+01
1.696581504329e+01
1.753380735182e+01
2.468735729249e+01
2.323281921220e+01
2.333487283902e+01
1.668171137732e+01
1.762715593478e+01
9.903457742812e+00
8.604682563267e+00
1.091919717264e+01
2.390635372884e+01
2.424105486179e+01
1.653401280423e+01
1.698642252764e+01
1.718840019286e+01
1.292397503901e+01
1.500801191162e+01
1.940630820483e+01
1.937818247841e+01
1.944155723540e+01
1.891141499039e+01
2.091138504663e+01
2.432363977736e+01
2.448567024117e+01
2.509753748620e+01
1.733613580128e+01
1.787332588603e+01
2.161429781040e+01
2.210683842498e+01
1.939331849194e+01
1.769052755371e+01
2.096200407642e+01
2.108288626282e+01
-1.202857549005e-01
5.169844010034e+00
2.187610338955e+01
2.265236895354e+01
1.783012398881e+01
1.750836740781e+01
1.822907508155e+01
1.404745847980e+01
2.348344330715e+01
2.222302643483e+01
2.262039266132e+01
2.182234196635e+01
2.291381699892e+01
2.243015338386e+01
2.219100175146e+01
2.023191618428e+01
1.735580394102e+01
8.928507754383e+00
1.575706114137e+01
7.586155642829e+00
9.412866403998e+00
5.676899265125e+00
1.332599437120e+01
7.754485182705e+00
9.609048579502e+00
-9.812675020669e+00
1.810670629932e+01
-7.861608537766e+00
-1.244818292750e+00
2.155913617088e+01
2.163832328635e+01
2.131380870526e+01
2.138653602781e+01
2.165688998116e+01
2.141762577306e+01
7.067887466689e+00
2.113068214426e+01
2.119496464715e+01
2.098540918275e+01
1.134349563732e+01
2.145567780226e+01
2.028678454070e+01
2.091911934720e+01
2.074408490431e+01
2.002105859788e+01
2.104349642379e+01
2.061485778377e+01
7.865935138132e+00
7.768030029360e+00
1.037889344606e+01
1.010808381758e+01
1.212547474684e+01
1.186846580564e+01
1.350860425498e+01
2.192835461770e+01
2.119558636601e+01
8.506935007056e+00
2.232633547210e+01
2.269704840023e+01
1.507804597326e+01
1.532468593806e+01
2.166672752273e+01
2.426518588364e+01
1.863834972063e+01
1.626726393859e+01
2.173023179510e+01
2.382484651186e+01
1.572021114494e+01
2.053771944548e+01
1.958709123790e+01
2.387318007512e+01
2.469466491214e+00
2.133122601328e+01
1.363665625597e+01
2.231097757301e+01
2.085547471123e+01
2.488878544575e+01
1.825470342521e+01
2.189458970204e+01
2.278281017177e+01
1.415715367999e+01
1.060799800521e+01
1.053438784029e+01
2.537439922423e+01
1.812511945332e+01
1.971842320770e+01
1.619908949155e+01
1.655293817391e+01
1.719553768242e+01
1.803249897915e+01
1.779392268918e+01
1.692233131156e+01
1.758230480851e+01
1.834668485772e+01
1.819666891772e+01
1.903632354376e+01
1.877203246393e+01
1.807672010833e+01
1.866522304980e+01
1.936765153118e+01
1.800295344706e+01
2.197719702631e+01
2.396675999546e+01
2.437127315646e+01
2.488774210769e+01
1.749124407576e+01
1.987778949488e+01
1.933277469011e+01
2.460848480266e+01
2.127628963256e+01
1.267992983724e+01
2.423019470363e+01
2.158388654088e+01
1.619498492674e+01
1.587038807977e+01
1.499037020844e+01
1.905811848814e+01
1.193832943228e+01
2.170226001564e+01
2.581519852213e+01
2.569282082172e+01
2.573678574255e+01
1.741431159686e+01
2.158201579280e+01
2.209079911535e+01
2.202079198732e+01
2.263732610011e+01
2.145737355379e+01
2.055701932785e+01
2.086551921994e+01
2.109712549471e+01
2.265401955031e+01
2.330881634054e+01
2.383463628183e+01
2.329799656883e+01
2.434528900391e+01
2.464503623023e+01
2.475361494303e+01
1.947944313359e+01
2.131289196421e+01
2.300592626051e+01
2.333881091977e+01
2.288665295410e+01
1.894662371826e+01
1.919380935552e+01
1.964671525576e+01
1.865901361977e+01
2.306252847805e+01
2.124448911978e+01
2.540841761520e+01
1.887371144975e+01
4.040068876728e+00
7.728725533043e+00
8.153020702439e+00
1.061827260621e+01
7.816652847953e+00
1.941838847964e+01
1.946672647702e+01
1.921777825525e+01
1.953424208578e+01
1.930056116502e+01
1.895799138405e+01
1.960699678420e+01
1.938637550261e+01
3.816895485626e+00
1.391418167886e+01
1.359528758952e+01
4.976802132284e+00
1.352679157716e+01
1.767591019989e+01
1.697338851363e+01
1.983088569891e+01
2.012534753950e+01
-1.705371496224e+01
-2.733875473952e+00
-2.766101626602e+01
-8.135948125574e+00
6.280773595765e+00
1.068409696626e+01
2.080110351434e+01
1.810785356098e+01
1.787863541548e+01
1.716254092324e+01
1.770684862446e+01
1.839374069089e+01
1.659515303591e+01
1.634149663152e+01
-3.693849687459e+01
-9.890945283497e+00
-1.189457578988e+01
5.376550154160e+00
4.949858908508e+00
-9.714409949261e+00
-9.812927807709e+00
-3.702167654661e+01
-1.059881625837e+01
4.199005996081e+00
-3.777000506233e+01
1.532702392251e+01
1.593653386561e+01
2.114837532528e+01
4.412161833596e+00
-3.671613353470e+01
1.840942794175e+01
1.857814501558e+01
1.856325729793e+01
2.092477565046e+01
2.088298507988e+01
1.842453721034e+01
1.600088173294e+01
1.851443476285e+01
1.705897233395e+01
2.342775665169e+01
1.641500774101e+01
2.038423171486e+01
2.078781772052e+01
2.122772582845e+01
2.013819945443e+01
2.156298156636e+01
2.200433437455e+01
1.320372204925e+01
1.234527845373e+01
1.178963211005e+01
1.547546397977e+01
1.658726577303e+01
1.885246357901e+01
1.190009653998e+01
2.146079536288e+01
1.549059409472e+01
2.188825874773e+01
1.832229201133e+01
1.668365113559e+01
1.655535792856e+01
2.324433741260e+01
1.939684282462e+01
2.247480279078e+01
1.610386072300e+01
-3.401691630682e+01
2.258705827001e+01
2.091083419140e+01
1.293819709246e+01
2.395437997513e+01
1.593543599248e+01
1.582497846511e+01
1.769253882778e+01
1.082548105887e+01
7.627974065754e+00
1.018534170939e+01
2.203151985335e+01
1.588029098677e+01
1.580393817151e+01
2.591465824890e+01
1.985157133646e+01
4.044802498459e+00
1.742550695536e+01
2.483326333745e+01
2.330506577032e+01
2.540737024580e+01
1.612746552764e+01
2.193451549810e+01
2.602853013306e+01
1.684912119486e+01
2.101338906423e+01
2.564230468622e+01
1.627316397200e+01
2.364328257598e+01
2.353902005601e+01
1.624865628237e+01
2.051863389032e+01
1.734393015663e+01
2.290266050369e+01
1.994581608784e+01
2.224423615496e+01
2.365651906832e+01
2.313829150217e+01
1.286918607470e+01
2.201534757516e+01
1.771508751792e+01
1.945574300040e+01
2.188829246917e+01
1.724652580012e+01
1.945389526023e+01
1.310410978382e+01
2.307395563202e+01
2.520622482986e+01
2.532124170090e+01
2.008931299976e+01
1.841923788768e+01
2.163296283832e+01
2.341599200183e+01
2.998569540875e+01
7.866362972619e+00
2.141152860068e+01
2.556396378332e+01
2.328807903465e+01
1.903626508591e+01
2.168566826747e+01
1.317861797319e+01
2.123803544518e+01
2.377393220260e+01
2.450275548155e+01
4.220388522704e+00
2.101659958337e+01
2.317012878371e+01
2.318120546796e+01
2.505577912957e+01
5.040687019779e+00
2.011689711141e+01
1.979497698413e+01
1.895809290839e+01
2.293800748625e+01
1.459661944199e+01
1.969498619976e+01
2.472501609657e+01
4.564101269923e+00
9.676443292047e+00
1.969032384203e+01
2.500068968990e+01
2.446825257102e+01
2.227059773971e+01
1.972071246474e+01
2.524647095663e+01
1.977301803242e+01
1.072317446262e+01
1.560733621049e+01
1.983867598282e+01
2.013637285118e+01
3.817413200033e+00
2.373983549632e+01
2.099047630142e+01
1.856268838704e+01
2.379931294716e+01
1.668569119785e+01
2.040669698442e+01
2.401822888752e+01
2.037205201606e+01
2.402206350726e+01
2.535567867520e+01
2.384645361310e+01
1.784195117658e+01
1.544875476442e+01
1.362175226780e+01
2.495499536174e+01
1.984524029311e+01
1.257853877831e+01
1.730832957771e+01
9.376190998871e+00
2.423016387742e+01
2.343634693993e+01
1.250442967493e+01
2.371603336486e+01
1.405564809650e+01
2.274535942703e+01
2.528979834007e+01
2.218601646332e+01
2.090803234543e+01
1.787267028099e+01
1.991778163541e+01
1.851203421414e+01
2.075154729558e+01
7.472849697406e+00
2.404671832430e+01
1.002250695960e+01
2.009243382856e+01
1.770323654913e+01
1.801865142139e+01
7.591452252518e+00
1.639407109420e+01
1.960737738083e+01
2.170502712477e+01
1.471245992198e+01
2.299048181481e+01
2.405954592584e+01
1.719080631850e+01
3.763677369955e+00
-1.134590078704e+01
2.018478188663e+01
2.558062978995e+01
2.084696287252e+01
2.175358886027e+01
1.624857991889e+01
9.550257849154e+00
2.494244024867e+01
2.214322960620e+01
7.266405787244e+00
2.298745730651e+01
2.623230729383e+01
1.808411507118e+01
2.210550242570e+01
2.098134961730e+01
2.254505898905e+01
2.372101170400e+01
9.957232506323e+00
2.120768615001e+01
1.562796957621e+01
2.085207842521e+01
6.780435235413e+00
1.797338317066e+01
2.227504957302e+01
1.798722361645e+01
1.867620320554e+01
1.090341383326e+01
1.041335235969e+01
2.083719540904e+01
1.899823843214e+01
2.565373700238e+01
1.461159986340e+01
1.791704678962e+01
1.944178700269e+01
2.147279392829e+01
1.933389430208e+01
2.093748761211e+01
5.461846802195e+00
-1.474201140020e+01
2.161574876828e+01
2.045853242239e+01
1.991785839864e+01
1.881128433948e+01
2.762507553704e+01
3.066429876600e+00
-1.290830635967e+01
2.080470292952e+01
1.803539225211e+01
1.820767592802e+01
5.107133794449e+00
1.524221594648e+01
2.192232862329e+01
1.520697819397e+00
1.808659626275e+01
2.177422861769e+01
1.851603038817e+01
2.156635026559e+01
1.688831454988e+01
2.195478821040e+01
2.245147461737e+01
3.787098736134e+00
1.868150957162e+01
1.698461909260e+01
1.006817711712e+01
1.858322718107e+01
-4.184482072130e+01
3.675633819143e+00
2.071054637798e+01
1.151283573256e+01
9.722897305275e+00
2.012136575623e+01
1.912830764094e+01
1.669231426135e+01
1.423957337986e+01
1.024378779692e+01
1.339322428028e+01
2.206928205902e+01
1.836036645386e+01
1.210136848706e+01
2.337522143916e+01
1.989132298163e+01
1.859539409872e+01
2.129460273181e+01
2.252224438515e+01
2.820819441418e+01
1.944230489311e+01
-1.520992570291e+01
2.115729873937e+01
1.875650914693e+01
-3.507916723019e+00
-2.675098607080e+01
-4.647099832861e+00
-1.758477467285e+01
-2.160699223849e+00
-5.279051283022e+00

SCALARS node_materi_stress_average_a_sig float
LOOKUP_TABLE default
-7.432237901750e+00
-4.370574895588e+01
-2.420676710725e+02
-1.559421208212e+02
-1.224243355362e+01
-2.170719740478e+01
-3.145374510902e+01
-4.518390780013e+01
-6.032007597908e+01
-7.476650190584e+01
-8.867601130716e+01
-1.020774592224e+02
-1.150074679888e+02
-1.276307134017e+02
-1.401166304733e+02
-1.520235808298e+02
-1.626941094555e+02
-1.740906205225e+02
-1.856627479097e+02
-1.973611224234e+02
-2.098462419856e+02
-2.225043192040e+02
-2.346277673939e+02
-1.565978779993e+02
-1.559513965350e+02
-1.562134969319e+02
-1.563427548233e+02
-1.562704771871e+02
-1.569585038057e+02
-1.577393156979e+02
-1.580279864885e+02
-1.593048037321e+02
-1.600953220521e+02
-1.609358273269e+02
-1.625886754641e+02
-1.647640413928e+02
-1.662597859519e+02
-1.684619543859e+02
-1.704291162517e+02
-1.733462552989e+02
-1.773245847660e+02
-1.810449360406e+02
-1.850015757636e+02
-1.888777925961e+02
-1.929833743216e+02
-1.970724394608e+02
-2.011703981925e+02
-2.053428148298e+02
-2.094198783335e+02
-2.131637199665e+02
-2.166770851309e+02
-2.197892661768e+02
-2.232898196324e+02
-2.258926767026e+02
-2.279301731263e+02
-2.304904243221e+02
-2.327766885803e+02
-2.347989479477e+02
-2.365565974558e+02
-2.379510203527e+02
-2.389914373622e+02
-2.397141062454e+02
-2.401870071009e+02
-2.409713794691e+02
-2.419291159653e+02
-2.423604168346e+02
-2.409225111834e+02
-2.424285599179e+02
-2.419626404360e+02
-2.423708576704e+02
-2.427874938702e+02
-2.427206831583e+02
-5.593533462582e+01
-6.790031887249e+01
-7.978353857176e+01
-9.133144519016e+01
-1.030825588667e+02
-1.149366371361e+02
-1.264466205093e+02
-1.377444706792e+02
-1.495612440670e+02
-6.001516810184e+01
-5.111618993105e+01
-3.452537009263e+01
-3.149693405199e+01
-3.013957570957e+01
-2.873433127650e+01
-2.786250802734e+01
-2.763493834689e+01
-2.898994855803e+01
-2.747611789988e+01
-3.889307628733e+01
-1.192761649084e+01
-1.949577418916e+01
-3.140129749830e+01
-4.220470910544e+01
-4.300277660445e+01
-4.304568450510e+01
-4.302015506762e+01
-4.483538503307e+01
-4.350830734403e+01
-4.369072023512e+01
-4.402827341538e+01
-4.462139140956e+01
-4.502016675798e+01
-4.557138843301e+01
-4.621154408497e+01
-4.723310777055e+01
-4.857787538172e+01
-8.279481941866e+01
-9.401808813695e+01
-9.680504552705e+01
-8.836057733996e+01
-5.616283370727e+01
-2.572953182712e+01
-1.430958865273e+01
-1.078900919726e+01
-9.367257820863e+00
-8.651095829620e+00
-8.333373166655e+00
-8.550819290801e+00
-8.117980550259e+00
-7.539529821324e+00
-7.288754727069e+00
-7.261169201751e+00
-7.175573358598e+00
-6.960940567019e+00
-6.814486604964e+00
-1.620074461981e+01
-1.518119793933e+01
-1.356962803405e+01
-1.258959871306e+01
-1.228530774865e+01
-1.223074428574e+01
-1.225009497668e+01
-1.234286631028e+01
-1.248323737709e+01
-1.263120096021e+01
-1.277264889312e+01
-1.290313936350e+01
-1.301205536664e+01
-1.309152740458e+01
-1.314430460885e+01
-1.315887595402e+01
-1.313353221505e+01
-1.284875561226e+01
-1.179784179365e+01
-1.943604620919e+01
-1.927894560938e+01
-1.925307523895e+01
-1.926331376944e+01
-1.927675775195e+01
-1.928326034394e+01
-1.930146350036e+01
-1.931775147455e+01
-1.934673130519e+01
-1.941447863096e+01
-1.954406273469e+01
-1.975435649719e+01
-2.009069371543e+01
-2.056613607981e+01
-2.126795084059e+01
-2.335548192230e+01
-2.231505350835e+01
-3.535449975686e+01
-3.644509101339e+01
-3.451904849875e+01
-3.369089605243e+01
-3.308907855417e+01
-3.266266686827e+01
-3.230648603365e+01
-3.205541327169e+01
-3.193975233925e+01
-3.175703851213e+01
-3.163268825927e+01
-3.155131119791e+01
-3.147812700643e+01
-3.140257150552e+01
-3.147262901764e+01
-3.149782116853e+01
-3.984421456700e+01
-3.271843700067e+01
-3.053483739121e+01
-2.981415644863e+01
-2.886703569137e+01
-2.747088801973e+01
-2.962833191947e+01
-2.546571060995e+01
-3.460939517774e+01
-4.619669749928e+01
-3.705479327337e+01
-2.255787741794e+02
-1.402774498022e+01
-6.588550886523e+01
-2.333834154193e+02
-3.403377223338e+01
-1.343919219457e+02
-2.147958773993e+02
-3.333437910657e+01
-2.019226303790e+02
-3.990161899327e+01
-2.368161553784e+02
-1.118038738431e+01
-1.862047393023e+02
-5.863799208769e+01
-8.247801760297e+01
-1.665978834732e+02
-1.747711246405e+02
-1.634099592486e+02
-1.525996263371e+02
-1.535942263636e+02
-1.581838143649e+02
-6.012783398365e+01
-5.635343753641e+01
-5.590150157464e+01
-9.731340292005e+01
-2.367090700795e+02
-7.922550771462e+01
-1.090126654424e+01
-2.031350115277e+02
-5.370943408178e+01
-3.818471222456e+01
-1.664533951822e+02
-2.095447891477e+02
-1.941094719577e+02
-2.194131627327e+02
-2.298734866656e+02
-2.547547446021e+01
-5.742114628052e+01
-2.330819066879e+02
-1.203838805869e+02
-1.231155418940e+01
-1.086766121771e+02
-1.536467777521e+02
-3.454996025077e+01
-3.500062361460e+01
-3.646547031462e+01
-4.821486976832e+01
-4.256411767197e+01
-7.485525614233e+01
-2.388949663110e+02
-1.034155065238e+01
-1.429358959438e+02
-6.368415074704e+01
-7.067763981716e+01
-7.493457860751e+01
-8.333410852220e+01
-8.818813052127e+01
-9.571726350285e+01
-9.118788036462e+01
-1.034971476811e+02
-9.911555264988e+01
-1.007287016560e+02
-1.113612064102e+02
-1.071837999652e+02
-1.193345127569e+02
-1.153483356116e+02
-1.033527705158e+02
-1.116532255708e+02
-9.996624877512e+01
-1.083773343418e+02
-1.199458595871e+02
-1.166756532634e+02
-1.053995170824e+02
-1.137035974765e+02
-1.026691216283e+02
-1.109512227294e+02
-1.000914796686e+02
-1.084405402321e+02
-1.189977804311e+02
-1.164218144719e+02
-1.060726589328e+02
-1.139565048434e+02
-1.037576027503e+02
-1.113415568941e+02
-1.213690616697e+02
-1.184437614261e+02
-1.083524020063e+02
-1.153473253079e+02
-1.054171248535e+02
-1.122595760688e+02
-1.024769869624e+02
-1.091384012897e+02
-1.188846950447e+02
-1.156267680528e+02
-1.061117139019e+02
-1.123217816094e+02
-1.219378032193e+02
-1.183465792813e+02
-1.280498301491e+02
-1.242943863179e+02
-1.148066727438e+02
-1.204167960969e+02
-1.300409486163e+02
-1.259878779209e+02
-1.163614739453e+02
-1.216659460565e+02
-1.318766823310e+02
-1.272190146060e+02
-1.169553747511e+02
-1.220464419924e+02
-1.330149220923e+02
-1.275993850049e+02
-1.163833116114e+02
-1.217708827456e+02
-1.331996782997e+02
-1.271879376103e+02
-1.385307301790e+02
-1.154841251621e+02
-1.207871522321e+02
-1.087615927309e+02
-1.140566582289e+02
-1.284144710538e+02
-1.017201843306e+02
-9.663337180371e+01
-1.070489063816e+02
-1.193281541145e+02
-9.438246147799e+01
-9.977029943942e+01
-8.677184425031e+01
-9.535698881356e+01
-1.282032592291e+02
-9.222389704667e+01
-7.890365994400e+01
-7.351886191412e+01
-6.532923311032e+01
-9.353350523776e+01
-1.056351961919e+02
-9.816067604337e+01
-1.105661217654e+02
-1.035869291025e+02
-7.078075641075e+01
-1.235836680162e+02
-1.177253596294e+02
-9.408461770276e+01
-9.556017884393e+01
-1.318615015725e+02
-1.051191117092e+02
-9.766861686618e+01
-1.105312659958e+02
-1.442630391104e+02
-1.493593613679e+02
-1.547282195689e+02
-1.598953915006e+02
-1.651719569969e+02
-1.707078126645e+02
-1.651880544052e+02
-1.763438690791e+02
-1.705999647497e+02
-1.765162273731e+02
-1.706260746317e+02
-1.819424018890e+02
-1.759562934264e+02
-1.875103621481e+02
-1.812920431786e+02
-1.700991582236e+02
-1.753018038309e+02
-1.641709093726e+02
-1.381153719805e+02
-1.420728819470e+02
-1.484295259007e+02
-1.523014058984e+02
-1.593069270621e+02
-1.636114368899e+02
-1.708799565656e+02
-1.663577193828e+02
-1.273667311863e+02
-1.032428623490e+02
-9.707711178057e+01
-9.464939702292e+01
-8.849691693274e+01
-8.654553234619e+01
-8.043531945287e+01
-7.916544230627e+01
-8.464729952840e+01
-7.806277017938e+01
-8.244800731771e+01
-7.635071505334e+01
-7.913652847074e+01
-1.268647977176e+02
-1.562755532394e+02
-1.681114808673e+02
-1.605473283117e+02
-6.011794934605e+01
-1.866392205932e+02
-1.824333328952e+02
-1.761487846970e+02
-1.780589631804e+02
-5.703564092342e+01
-7.298117378353e+01
-7.390648248328e+01
-1.156091519421e+02
-1.088218100559e+02
-1.883306507146e+02
-6.258617178155e+01
-1.882191540318e+02
-7.244181949725e+01
-1.804588946768e+02
-1.919900478354e+02
-1.596067484335e+02
-1.727119621064e+02
-1.649339249632e+02
-8.620065548882e+01
-8.170769917246e+01
-7.412292511832e+01
-7.647374892179e+01
-8.482299278697e+01
-7.902574096218e+01
-7.009760629399e+01
-7.197900193916e+01
-8.180709138301e+01
-7.459564301905e+01
-6.427979320537e+01
-6.655692332691e+01
-1.986505468963e+02
-7.117559251596e+01
-9.146084918417e+01
-1.946682842008e+02
-1.828650530457e+02
-1.207375942086e+02
-1.141630173155e+02
-1.021390404155e+02
-1.077395493188e+02
-1.196125617547e+02
-1.133668757372e+02
-1.014341724108e+02
-1.072191230489e+02
-9.524583669097e+01
-1.011805989138e+02
-1.130387987999e+02
-1.071603440602e+02
-9.526439044479e+01
-1.013532999097e+02
-8.941728312145e+01
-9.558604686690e+01
-1.074810498285e+02
-4.883286989566e+01
-1.732122199713e+02
-1.852802266557e+02
-1.036401967721e+02
-1.159977360677e+02
-1.229429203177e+02
-1.285054195732e+02
-1.017501454270e+02
-1.135947510030e+02
-6.647317787750e+01
-6.702238318381e+01
-1.274525739515e+02
-1.856196117080e+02
-1.744168030877e+02
-9.339419301787e+01
-8.493457477662e+01
-8.294125868088e+01
-7.408805328098e+01
-7.599424545278e+01
-7.241238154122e+01
-1.647531272748e+02
-1.189339355198e+02
-6.840615087421e+01
-5.538377117999e+01
-1.974031077309e+02
-1.618953157281e+02
-1.298523220809e+02
-1.377268124443e+02
-1.411380982805e+02
-1.491984747263e+02
-1.528631307104e+02
-1.609701047824e+02
-1.571733869369e+02
-1.773471267327e+02
-1.690348472090e+02
-8.974605259427e+01
-1.490666829048e+02
-8.482343230993e+01
-4.327333753355e+01
-5.453350846940e+01
-5.407897455678e+01
-6.841858117697e+01
-2.007378310786e+02
-1.646676493337e+02
-1.563786505283e+02
-6.490512562633e+01
-6.670000018796e+01
-1.852087470074e+02
-9.133107247961e+01
-8.938018199704e+01
-8.308552185596e+01
-3.888047090553e+01
-5.305384536922e+01
-1.251401105522e+02
-7.509113998723e+01
-6.805111497564e+01
-6.790603721565e+01
-6.730928461950e+01
-1.078345940232e+02
-1.195705906466e+02
-1.351176500884e+02
-1.404713827391e+02
-1.941666072720e+02
-5.755582171100e+01
-1.253668365524e+02
-1.684233858154e+02
-1.574621058211e+02
-1.214839204102e+02
-5.969008076144e+01
-6.006021909394e+01
-9.167697200031e+01
-6.935752650664e+01
-6.001552990796e+01
-2.066645242321e+02
-1.312652657965e+02
-1.651114731869e+02
-1.531966083069e+02
-1.772848114760e+02
-4.535208577975e+01
-2.072716420434e+02
-1.908562048387e+02
-1.677064124809e+02
-1.598846517126e+02
-7.653587092137e+01
-6.937148901401e+01
-6.068947078855e+01
-6.143319197307e+01
-8.675674635867e+01
-7.843877436563e+01
-8.816727861695e+01
-7.927906070664e+01
-7.608888463336e+01
-7.785838005889e+01
-6.845974544682e+01
-9.054613436156e+01
-1.355539814874e+02
-1.297313303339e+02
-1.590094405729e+02
-1.495289118158e+02
-1.246805985736e+02
-1.305657944687e+02
-8.324843726726e+01
-7.739921582446e+01
-4.682655311795e+01
-4.254232174559e+01
-1.435941797436e+02
-2.008452629733e+02
-1.322783395915e+02
-1.389395178283e+02
-1.342381938610e+02
-1.997657251943e+02
-1.004510865951e+02
-1.444165063152e+02
-6.824600581637e+01
-1.315004983599e+02
-3.396577293034e+01
-1.316885217201e+02
-2.030032277839e+02
-2.097229482509e+02
-1.897426841246e+02
-6.633545837266e+01
-1.384976930722e+02
-1.351923263324e+02
-6.679593494214e+01
-6.361232603734e+01
-7.321509514993e+01
-6.106650409878e+01
-9.505958396896e+01
-8.809504024911e+01
-1.773946297689e+02
-1.809029087203e+02
-1.713351820684e+02
-1.637093986869e+02
-1.977444298063e+02
-1.928415418044e+02
-7.393353741299e+01
-5.713472631153e+01
-1.367230030946e+02
-7.033953290947e+01
-2.132353080011e+02
-2.069294332235e+02
-6.671064224584e+01
-6.241264403154e+01
-1.314332101547e+02
-5.238914567431e+01
-5.234095120805e+01
-5.226625544111e+01
-2.284056099321e+02
-5.331043221992e+01
-2.154572671470e+02
-7.998028161903e+01
-1.372684145242e+02
-1.454878388190e+02
-9.084694098661e+01
-1.873650458340e+02
-1.250698303449e+02
-1.377282853411e+02
-7.712958122159e+01
-7.049422806664e+01
-8.316199571133e+01
-6.669987894284e+01
-6.127034097868e+01
-1.247946506139e+02
-9.021684747407e+01
-9.727176663916e+01
-6.050539050112e+01
-7.260934240850e+01
-1.415660069251e+02
-1.363012996639e+02
-1.399584895087e+02
-1.434920940218e+02
-1.330344831115e+02
-1.636389870105e+02
-1.530088330126e+02
-1.466679935735e+02
-1.359037744324e+02
-1.431125175179e+02
-1.014962589875e+02
-9.766679112875e+01
-9.899641469516e+01
-1.427752075447e+02
-2.219511982204e+02
-2.163929519910e+02
-3.009274450227e+01
-3.837094255702e+01
-5.241249013595e+01
-5.373977234243e+01
-1.453803093121e+02
-1.413717276232e+02
-1.510865275140e+02
-6.458655619590e+01
-1.610042051463e+02
-2.118284376932e+02
-2.046981186916e+02
-2.203013688444e+02
-1.816306748873e+02
-1.938012134911e+02
-1.893977225576e+02
-6.998032933565e+01
-1.335120064826e+02
-7.053981442369e+01
-7.273588345871e+01
-6.478984277266e+01
-7.149312965635e+01
-5.834312948869e+01
-5.029226241586e+01
-6.887168953172e+01
-7.730430056334e+01
-2.405269447151e+01
-1.477219624947e+02
-2.269467050851e+01
-2.655995982144e+01
-2.193912465624e+02
-2.128130008379e+02
-2.249183815845e+02
-2.182298700962e+02
-2.062190576430e+02
-2.121476534705e+02
-6.399562631138e+01
-2.258848902719e+02
-2.182045468033e+02
-2.318353619824e+02
-5.090713404340e+01
-6.203664272513e+01
-5.282647039742e+01
-4.231999409456e+01
-1.766907399601e+02
-1.664535290505e+02
-1.965487940983e+02
-1.848184731850e+02
-6.499650622302e+01
-6.417782957143e+01
-7.510484987016e+01
-7.346923661202e+01
-8.439578322478e+01
-8.266581162448e+01
-9.376094991688e+01
-1.930436711356e+02
-4.357708485902e+01
-5.745326425604e+01
-2.053937853796e+02
-1.994647601577e+02
-5.869694287830e+01
-4.704893010794e+01
-2.213288388822e+02
-8.559255467709e+01
-1.552340909455e+02
-6.523032326672e+01
-6.266608760779e+01
-8.803087012962e+01
-7.066676596783e+01
-6.306380070944e+01
-5.418634142915e+01
-1.750498570995e+02
-3.516740655687e+01
-5.238576315177e+01
-9.534197970610e+01
-4.484445623375e+01
-1.909159157471e+02
-9.279634090075e+01
-8.903038752942e+01
-6.007139381392e+01
-7.099344265420e+01
-9.503133130175e+01
-7.866453848446e+01
-7.445005340765e+01
-9.962762891237e+01
-5.547538304277e+01
-4.332089767115e+01
-9.688455488422e+01
-1.296303747025e+02
-1.367911341935e+02
-1.480691939731e+02
-1.441903516487e+02
-1.325066289329e+02
-1.400662886668e+02
-1.515226521718e+02
-1.481820818393e+02
-1.615469951427e+02
-1.560054015518e+02
-1.437809838187e+02
-1.513861288479e+02
-1.628199073379e+02
-1.394738659929e+02
-2.102280229767e+02
-9.816460412339e+01
-6.593469167117e+01
-5.614978350716e+01
-9.140891662530e+01
-1.711173147598e+02
-1.654522371168e+02
-8.196485010322e+01
-1.900036632764e+02
-8.288672899405e+01
-7.256397846513e+01
-1.980578683679e+02
-1.250386129950e+02
-1.203884802542e+02
-1.129260881206e+02
-1.617743958469e+02
-8.978275059375e+01
-2.125134776349e+02
-1.455905746635e+02
-1.388528375493e+02
-1.288323804927e+02
-1.358261002511e+02
-2.231699679229e+02
-2.138316879263e+02
-2.159373847186e+02
-2.035024998283e+02
-2.276806056880e+02
-1.790190475727e+02
-1.829611869993e+02
-8.830380136709e+01
-9.373390456010e+01
-1.027824696326e+02
-9.844491232720e+01
-8.987913807536e+01
-9.402909098187e+01
-1.024451506763e+02
-8.947721250359e+01
-1.552478674783e+02
-2.314523832716e+02
-1.597658247361e+02
-1.543515392931e+02
-1.439418807603e+02
-1.245039112752e+02
-1.311489777087e+02
-1.426247278370e+02
-1.176047245132e+02
-1.454677135696e+02
-2.326629878802e+02
-1.509834989684e+02
-1.260180582590e+02
-5.870592970570e+01
-7.069861102077e+01
-7.252656920036e+01
-8.393349872111e+01
-7.057488626008e+01
-1.468316058855e+02
-1.520246836040e+02
-1.457535110267e+02
-1.571684842746e+02
-1.506719576962e+02
-1.399494879748e+02
-1.620631876480e+02
-1.547753420569e+02
-5.679699358816e+01
-4.142093852564e+01
-4.335126782044e+01
-3.437932654522e+01
-4.875794567932e+01
-5.574275223561e+01
-6.082651283757e+01
-6.338010748668e+01
-5.429928934744e+01
-1.928031961760e+01
-2.959043320360e+01
-1.591730975835e+01
-2.611087613335e+01
-4.056327042774e+01
-5.137679807597e+01
-2.352050280040e+02
-1.212647205823e+02
-1.151470874150e+02
-1.028282648896e+02
-1.095426700370e+02
-1.261851810402e+02
-9.575759186725e+01
-9.088480255794e+01
-1.077808699322e+01
-1.851864435148e+01
-1.766239636858e+01
-2.714729345401e+01
-2.722405690149e+01
-1.896631730218e+01
-1.914847344605e+01
-1.093624836310e+01
-1.931858739502e+01
-2.835314576171e+01
-1.084366773433e+01
-1.091508156828e+02
-1.154898702312e+02
-2.338629439897e+02
-5.689680880944e+01
-1.305862975655e+01
-1.504216777922e+02
-1.537981565486e+02
-1.533700763333e+02
-2.158596603419e+02
-2.220653412474e+02
-1.502200198643e+02
-8.142105134640e+01
-1.555573847855e+02
-1.307439338931e+02
-6.625261214925e+01
-8.068336640909e+01
-1.795609700889e+02
-1.648836281783e+02
-2.041421141359e+02
-1.693142550407e+02
-1.930798057478e+02
-2.171938862344e+02
-4.578506119354e+01
-8.914308923216e+01
-8.363389321024e+01
-1.131700400891e+02
-8.442587311956e+01
-1.343713042417e+02
-5.164651526323e+01
-1.865012986505e+02
-8.519636314633e+01
-1.388137426875e+02
-1.123497276280e+02
-8.915792008747e+01
-7.736649818655e+01
-1.011018866812e+02
-1.324245001741e+02
-1.823970756869e+02
-1.192011485043e+02
-1.298995739080e+01
-1.885615574824e+02
-1.544250511136e+02
-9.565986589399e+01
-1.755433518435e+02
-6.290305134323e+01
-1.190388163241e+02
-1.431089505668e+02
-8.401137214487e+01
-3.826312316603e+01
-7.679080605199e+01
-2.133237375786e+02
-1.225320774332e+02
-7.653972457230e+01
-1.340693141772e+02
-9.775309763948e+01
-5.321193354859e+01
-1.359623904254e+02
-1.252694358691e+02
-1.903251823656e+02
-1.551328138590e+02
-8.247518073412e+01
-2.004947432551e+02
-1.254573868907e+02
-1.307094600351e+02
-1.446542825158e+02
-1.090983695825e+02
-1.258752895190e+02
-1.378960927499e+02
-1.803609107980e+02
-8.246064944964e+01
-1.218545629037e+02
-1.235014925099e+02
-1.241017573181e+02
-1.735260490281e+02
-1.945780372064e+02
-7.325370106731e+01
-8.079816334247e+01
-9.660151445159e+01
-1.725901438186e+02
-1.421256865502e+02
-8.691628178677e+01
-1.939747505308e+02
-1.371009547761e+02
-1.375150657871e+02
-5.406768239047e+01
-6.097864459301e+01
-9.215565116382e+01
-1.221253412191e+02
-1.486650929022e+02
-1.539403670960e+02
-1.996829766976e+02
-1.817620387261e+02
-3.891025727191e+01
-6.166709457193e+01
-2.053939458133e+02
-1.402009435655e+02
-1.877083162713e+02
-1.437247286639e+02
-1.899284368258e+02
-4.872871045202e+01
-2.112121839316e+02
-1.802159114297e+02
-8.365262660897e+01
-5.374314803531e+01
-2.253971677187e+02
-1.926720239005e+02
-1.344917180507e+02
-1.360819228680e+02
-4.340416351356e+01
-1.538198168745e+02
-1.248784135805e+02
-1.600558723731e+02
-1.975031367790e+02
-1.080854800988e+02
-1.477895044435e+02
-1.528452267884e+02
-2.758543328562e+01
-5.375403505655e+01
-1.530006269099e+02
-9.742915167152e+01
-1.423909048124e+02
-2.019160670800e+02
-1.581734134387e+02
-1.059535588642e+02
-1.632931613602e+02
-3.710098742319e+01
-1.158019110386e+02
-1.683618301805e+02
-1.364199200158e+02
-2.990300835950e+01
-1.419046140229e+02
-2.091477207035e+02
-1.036499332198e+02
-1.486078809224e+02
-1.280512081331e+02
-3.421953056818e+01
-1.589413704618e+02
-1.481977856779e+02
-1.492501440403e+02
-1.320783922527e+02
-1.698278352868e+02
-4.558471252358e+01
-7.654214198320e+01
-6.398277140312e+01
-1.111605505423e+02
-1.517612785995e+02
-3.685779813965e+01
-1.315595124989e+02
-4.797492076170e+01
-1.072636117773e+02
-1.692878222237e+02
-8.636919352268e+01
-1.120374735998e+02
-6.860424063396e+01
-1.071465772159e+02
-1.420324719382e+02
-1.116000482966e+02
-1.055548486956e+02
-1.421635832833e+02
-1.102915052101e+02
-1.522451945860e+02
-2.360654776429e+02
-6.278865665884e+01
-3.165467201181e+01
-8.279268122754e+01
-4.553597013017e+01
-9.205664802233e+01
-1.353942635453e+02
-6.331054193879e+01
-8.459261763016e+01
-1.679606192607e+02
-2.059899401376e+02
-1.034558510612e+02
-1.946796586693e+02
-1.570183754662e+02
-1.308980654517e+02
-5.343134650490e+01
-2.400977181327e+01
-1.793547463808e+02
-3.213441828716e+01
-4.322327524505e+01
-4.402991979245e+01
-8.714897485859e+01
-4.261672811064e+01
-3.455944532232e+01
-2.109435489430e+02
-6.600909034874e+01
-1.731748317749e+02
-3.569256847072e+01
-1.480930454553e+02
-1.993609561370e+02
-2.361594363602e+02
-1.857052285636e+02
-4.586608536818e+01
-8.009219635096e+01
-1.826133326888e+02
-1.129646177217e+02
-2.375637762015e+02
-6.599207116882e+01
-1.430438717685e+02
-6.803100447112e+01
-1.428740800751e+02
-1.473450614521e+02
-7.832230833476e+01
-8.249452063847e+01
-2.279281494532e+02
-1.612332716030e+02
-4.938634631789e+01
-1.030742524214e+02
-1.096730778425e+02
-6.443409794493e+01
-2.241450600688e+02
-1.584905102541e+02
-2.269302975698e+02
-2.659559843623e+01
-1.985287402173e+01
-2.241942601520e+02
-1.758402886477e+02
-6.854972493980e+01
-1.575710708041e+02
-5.395854531214e+01
-5.272360906757e+01
-1.896613149601e+01
-2.375896095164e+02
-1.456491249703e+02
-1.207273354167e+02
-6.203973981132e+01
-7.810049343955e+01
-1.829536161952e+02
-3.422808334548e+01
-1.457022821319e+02
-2.221169289412e+02
-1.552139503172e+02
-2.208225994695e+02
-7.200550700893e+01
-1.996511003620e+02
-2.078840864003e+02
-5.299488981703e+01
-1.577178715340e+02
-9.785560015314e+01
-3.747422252048e+01
-1.532943990688e+02
-9.577322516078e+00
-5.198992454263e+01
-2.388185116240e+02
-3.455301809760e+01
-7.158661543479e+01
-1.729863375347e+02
-1.467798135383e+02
-1.243141666144e+02
-5.364346363502e+01
-8.251777302691e+01
-9.259978497917e+01
-2.044900377512e+02
-1.523758406072e+02
-8.473566523156e+01
-5.615126036907e+01
-1.677158694890e+02
-1.301388932246e+02
-1.771285946634e+02
-2.043464966328e+02
-5.041796376960e+01
-1.569475377230e+02
-1.836316320795e+01
-2.283005107734e+02
-1.353294141518e+02
-1.643140127836e+01
-1.324263429636e+01
-3.029884444961e+01
-2.582820910332e+01
-4.285263552937e+01
-3.701519505305e+01

SCALARS node_materi_stress_size_dev_sd_sig float
LOOKUP_TABLE default
4.038547458651e+00
2.103287310082e+01
1.837088918231e+02
1.172389589465e+02
1.057933427949e+01
2.282348478980e+01
3.344663220101e+01
4.239787136383e+01
4.901624714688e+01
5.668952086824e+01
6.517152459962e+01
7.422752255183e+01
8.376387557115e+01
9.374140927103e+01
1.043331742580e+02
1.145929679871e+02
1.239273237389e+02
1.344249769098e+02
1.450744466702e+02
1.545822551049e+02
1.630606247516e+02
1.713823227237e+02
1.791805069570e+02
1.179510092163e+02
1.175745610963e+02
1.178208922350e+02
1.180333167639e+02
1.179034362068e+02
1.185730857095e+02
1.190898294205e+02
1.197039108858e+02
1.208596337352e+02
1.218662235115e+02
1.226318848285e+02
1.244646424355e+02
1.263981003238e+02
1.283737660523e+02
1.304300655743e+02
1.327711222861e+02
1.355892157843e+02
1.391278297391e+02
1.427672508465e+02
1.464327485558e+02
1.498705113120e+02
1.531578819937e+02
1.565068796176e+02
1.596167348868e+02
1.626141504866e+02
1.654066742400e+02
1.679442527942e+02
1.701516993592e+02
1.720817536234e+02
1.740631443238e+02
1.757261334799e+02
1.768803411093e+02
1.782800523200e+02
1.795639673398e+02
1.806923734371e+02
1.815839132851e+02
1.823440145337e+02
1.828141436185e+02
1.831380974093e+02
1.832964308969e+02
1.836010158941e+02
1.840288335282e+02
1.841994873575e+02
1.833362310620e+02
1.840396659266e+02
1.837388974214e+02
1.839157828180e+02
1.841687108237e+02
1.841317153668e+02
2.981540896226e+01
3.912205144115e+01
4.855860353140e+01
5.808871316282e+01
6.810011337614e+01
7.830830796214e+01
8.877111723749e+01
9.939448878354e+01
1.104369508667e+02
5.062558128224e+01
2.300693193836e+01
5.158423643582e+01
4.738658324478e+01
4.565508360969e+01
4.386061635789e+01
4.221177115411e+01
4.108388531561e+01
3.556773188077e+01
2.300791909836e+01
2.007440932930e+01
1.062427422758e+01
8.843821076078e+00
1.285292906895e+01
1.980225484754e+01
2.022871316682e+01
2.021469767985e+01
2.005966781563e+01
2.108636609988e+01
2.002480531921e+01
1.983122852232e+01
1.982513162155e+01
1.991620319580e+01
1.980964817254e+01
1.976568456297e+01
1.986140154995e+01
2.024040891364e+01
2.107731756073e+01
3.808217876320e+01
3.592754928965e+01
3.789924980210e+01
3.731141682614e+01
3.845468308921e+01
2.758391127664e+01
1.176654487249e+01
6.895043361582e+00
5.146008992871e+00
4.880218879028e+00
4.617349730189e+00
4.529161314967e+00
4.710207505694e+00
4.496241588799e+00
4.225015099090e+00
4.116697755051e+00
4.067034036744e+00
4.015212080660e+00
4.121302270738e+00
2.421429595823e+01
1.558041267648e+01
1.143032030940e+01
9.862011069250e+00
8.974229405416e+00
8.632140022006e+00
8.488100163026e+00
8.538215209376e+00
8.653165634670e+00
8.787492994035e+00
8.913738352814e+00
9.067963097859e+00
9.211069450099e+00
9.323270464766e+00
9.401571659213e+00
9.449909827390e+00
9.474391705567e+00
9.730500888968e+00
1.086051633378e+01
8.714557044695e+00
8.637129205613e+00
8.624929542591e+00
8.614875535009e+00
8.624882584036e+00
8.626534874646e+00
8.634514935408e+00
8.655832469112e+00
8.732339997151e+00
8.845611685053e+00
9.085586868909e+00
9.412212961164e+00
9.861739129315e+00
1.061634314022e+01
1.160370152197e+01
1.381426599676e+01
1.667459659633e+01
1.631442208414e+01
1.553261806600e+01
1.406808477116e+01
1.346482082249e+01
1.313269064923e+01
1.294724631727e+01
1.283306647478e+01
1.280413050791e+01
1.282303299550e+01
1.281330019134e+01
1.280970669491e+01
1.281397975421e+01
1.282122618921e+01
1.279850190077e+01
1.286562649533e+01
1.294220424654e+01
5.599771342724e+01
4.932066486780e+01
4.625414852871e+01
4.491470255036e+01
4.411842221328e+01
4.202046048127e+01
4.174762017986e+01
2.860062659574e+01
2.133158830797e+01
2.126182331496e+01
4.957347798126e+01
1.767502907806e+02
6.430815907265e+00
4.096698689427e+01
1.805947130036e+02
4.511781843933e+01
9.945515888877e+01
1.701522521175e+02
4.358222497490e+01
1.608375333999e+02
3.158620168252e+01
1.814444343781e+02
6.994988635181e+00
1.471969533102e+02
2.849346345210e+01
6.133198743364e+01
1.277060558634e+02
1.355783890780e+02
1.238457005342e+02
1.134953683375e+02
1.139319796769e+02
1.185254736263e+02
2.831547040479e+01
2.741187633377e+01
2.842210411305e+01
6.307731902909e+01
1.808257054268e+02
3.975322802608e+01
8.204584276008e+00
1.585971762709e+02
2.784123644538e+01
3.800856617967e+01
1.270778850386e+02
1.664589640277e+02
1.543783363772e+02
1.732682508521e+02
1.790294883398e+02
2.309434794052e+01
2.711189901797e+01
1.799646976806e+02
8.332479639936e+01
6.359090460195e+00
7.911640917983e+01
1.146586360632e+02
4.471338958692e+01
4.675106594723e+01
4.144946965076e+01
2.704140960525e+01
5.569892913099e+01
4.448808645301e+01
1.819986700363e+02
7.797225464873e+00
1.043020339577e+02
3.095934143522e+01
3.710409909190e+01
3.937165610865e+01
4.734347556244e+01
5.031404224362e+01
5.777588451065e+01
5.532192145215e+01
6.588470867278e+01
6.399417085794e+01
6.104748283409e+01
7.451815225724e+01
7.311278469641e+01
8.348157044837e+01
8.245743516987e+01
7.254415697412e+01
8.215926344760e+01
7.252778733188e+01
8.228995684550e+01
9.161119287784e+01
9.183158767732e+01
8.269102441313e+01
9.213952141118e+01
8.334706598429e+01
9.252603918359e+01
8.407604547138e+01
9.282831248316e+01
1.014196561644e+02
1.013090138714e+02
9.299285816725e+01
1.010344894247e+02
9.303946164985e+01
1.007302017973e+02
1.086543823694e+02
1.076617130020e+02
9.988162681454e+01
1.063606891772e+02
9.900357010267e+01
1.053685394258e+02
9.832248901629e+01
1.043887564657e+02
1.112551117924e+02
1.098705487793e+02
1.029780484614e+02
1.078795622202e+02
1.147214339701e+02
1.120319509759e+02
1.188800439123e+02
1.155498395022e+02
1.087393261999e+02
1.115126981456e+02
1.185080889598e+02
1.139871962018e+02
1.068791862789e+02
1.090708579178e+02
1.170543295505e+02
1.116553452980e+02
1.038531173655e+02
1.056187174935e+02
1.136302831196e+02
1.072782480553e+02
9.885953030403e+01
1.006801030421e+02
1.096233212365e+02
1.030390370175e+02
1.124517941404e+02
9.386392266826e+01
9.633506669526e+01
8.696712093032e+01
8.963172112197e+01
1.157571060280e+02
8.018004345884e+01
7.776852677311e+01
8.309133628605e+01
9.278867152667e+01
7.361597438407e+01
7.678432949689e+01
6.737246052894e+01
9.158828337613e+01
1.008012165698e+02
7.075099022793e+01
6.147330488312e+01
5.796386771051e+01
5.231504968975e+01
5.417692798936e+01
6.495248537666e+01
5.808782588648e+01
6.927614784291e+01
6.293824386122e+01
5.596784183891e+01
8.538598411339e+01
7.615181462579e+01
7.394639867763e+01
8.501731365012e+01
1.216595891604e+02
8.018829317698e+01
7.431204024708e+01
8.368482737464e+01
1.189742852928e+02
1.222894425085e+02
1.288903836473e+02
1.323184170176e+02
1.387119155828e+02
1.418770091689e+02
1.355948383889e+02
1.449058195864e+02
1.387607773188e+02
1.473941350234e+02
1.443664260213e+02
1.479533329987e+02
1.420045854325e+02
1.510117979799e+02
1.453183136804e+02
1.355586551491e+02
1.390358092970e+02
1.290689017486e+02
1.259698835822e+02
1.291712571537e+02
1.338072136214e+02
1.368901090543e+02
1.413992492864e+02
1.440681422846e+02
1.485833934013e+02
1.456628915004e+02
9.260357724291e+01
1.010615848016e+02
9.608998232964e+01
9.441346112412e+01
8.930311140880e+01
8.788279537672e+01
8.253001610247e+01
8.137329744137e+01
8.580138738818e+01
7.952986181703e+01
8.282749948822e+01
7.699015188014e+01
7.878732398670e+01
1.098757229804e+02
1.394441845906e+02
1.462970336364e+02
1.413137456376e+02
4.851086590387e+01
1.486821656156e+02
1.523383804866e+02
1.493119260040e+02
1.529019930291e+02
4.710552955491e+01
7.584892878338e+01
7.632712114910e+01
7.399830363830e+01
6.791236369082e+01
1.568023301720e+02
5.082382250035e+01
1.532183445293e+02
7.388757919808e+01
1.426458790754e+02
1.520510507146e+02
1.289989567191e+02
1.482427861381e+02
1.429597971145e+02
8.503312396868e+01
7.974464729510e+01
7.342841430392e+01
7.318680335656e+01
8.027985284987e+01
7.301618261711e+01
6.531511358315e+01
6.446917669202e+01
7.298990426232e+01
6.418213338634e+01
5.419429164469e+01
5.443896360023e+01
1.571817479218e+02
7.210299336135e+01
6.270176564865e+01
1.597717086921e+02
1.553821127918e+02
7.905167429333e+01
7.319336844447e+01
6.232153863398e+01
6.780782426767e+01
7.877267620502e+01
7.344949340770e+01
6.279537156949e+01
6.842339736797e+01
5.804076211632e+01
6.366626838894e+01
7.416659819767e+01
6.941937610829e+01
5.916662255169e+01
6.484475883105e+01
5.479336220335e+01
6.033110253400e+01
7.059842708262e+01
4.275501148051e+01
1.498799683850e+02
1.569392613913e+02
7.795222081501e+01
8.683875371008e+01
9.318705100471e+01
9.658383778724e+01
6.595083188305e+01
7.645004173523e+01
6.970060176106e+01
6.961388989513e+01
8.540061716042e+01
1.463899524393e+02
1.363847018141e+02
8.540810609285e+01
7.732527355914e+01
7.789134044575e+01
6.972151732002e+01
6.917826514623e+01
7.035096965084e+01
1.409772542313e+02
8.005876380081e+01
5.436280134531e+01
4.436540835511e+01
1.554614551509e+02
1.422176630706e+02
1.098943332582e+02
1.179497224820e+02
1.179773149771e+02
1.257076640737e+02
1.260661330426e+02
1.335493718682e+02
1.328886587394e+02
1.499431412629e+02
1.405008043423e+02
5.569573893071e+01
1.342303781199e+02
7.338288835683e+01
3.859127360056e+01
4.306882677834e+01
4.587912588738e+01
5.404492865818e+01
1.639217541823e+02
1.342856649253e+02
1.264862531249e+02
6.192198402058e+01
6.122860631410e+01
1.550308263156e+02
5.220976869898e+01
5.256524146522e+01
4.806721893341e+01
3.725164671275e+01
4.358308573569e+01
8.450999806465e+01
7.664653237786e+01
6.975138211885e+01
6.922214568233e+01
6.901550086907e+01
7.148990282491e+01
8.201682668642e+01
1.028481535971e+02
1.063972138823e+02
1.608130936450e+02
4.497844549866e+01
8.712286945859e+01
1.462713352976e+02
1.381939346384e+02
9.019617474996e+01
6.305965896582e+01
6.357407780604e+01
8.134304284447e+01
5.608732129395e+01
4.904711511383e+01
1.676281018983e+02
9.004914752168e+01
1.394818218597e+02
1.321579834911e+02
1.468995079787e+02
3.349614601798e+01
1.670016801198e+02
1.502222086047e+02
1.347586009912e+02
1.271632665048e+02
7.701056322250e+01
7.007508405556e+01
6.272015256070e+01
6.290048805493e+01
5.366864679710e+01
7.739513153275e+01
6.320824602281e+01
5.340281466116e+01
5.471961776710e+01
6.841813592735e+01
6.013859563203e+01
9.030238490503e+01
1.240968331051e+02
9.956998763243e+01
1.256319472523e+02
1.254090291387e+02
8.499956726375e+01
9.107522596624e+01
4.927394685647e+01
4.498743446664e+01
3.865632918893e+01
3.388297710614e+01
1.156932032708e+02
1.626654418597e+02
9.044122438834e+01
9.706734803518e+01
9.215060666725e+01
1.642867727271e+02
9.859935979067e+01
1.301158327515e+02
6.859503711601e+01
1.169055594093e+02
2.857453874180e+01
1.008865591057e+02
1.588540087135e+02
1.635659564695e+02
1.568264249897e+02
3.548058063633e+01
1.237505783796e+02
1.222336394915e+02
4.510347528107e+01
4.722870444713e+01
5.653348470905e+01
4.986359048568e+01
8.241840967693e+01
7.458844977420e+01
1.432069554194e+02
1.481067021359e+02
1.361478585556e+02
1.284043148076e+02
1.617468696536e+02
1.597484830726e+02
5.687593025207e+01
5.373647856277e+01
9.580008845062e+01
4.377185834868e+01
1.696456816818e+02
1.655294173546e+02
6.592640740747e+01
6.227933101325e+01
9.299438776318e+01
5.557466077960e+01
5.515044474525e+01
5.602529167775e+01
1.751159149528e+02
2.775152281452e+01
1.669588062488e+02
6.731955257543e+01
9.825031762862e+01
1.299871162531e+02
8.571687545015e+01
1.575212838323e+02
8.721721051046e+01
9.922777390856e+01
4.273576959967e+01
3.828688812863e+01
4.696455296057e+01
6.931684204676e+01
6.380191039400e+01
8.598722736889e+01
6.846780970871e+01
7.252707179649e+01
4.771465535379e+01
5.838154667870e+01
1.092860210360e+02
1.060046210171e+02
1.097979357784e+02
1.103849184411e+02
1.097214854549e+02
1.420732852926e+02
1.333722738659e+02
1.299341526572e+02
9.606267251694e+01
1.034491603093e+02
8.969491564459e+01
8.852473879495e+01
8.345375006405e+01
1.016523649485e+02
1.714418206173e+02
1.681777622993e+02
2.353761446287e+01
2.910984293497e+01
5.755716372911e+01
5.897732240192e+01
1.038864634106e+02
9.952099938737e+01
1.099124962886e+02
5.159305498902e+01
1.383866033197e+02
1.704556441999e+02
1.671574632786e+02
1.745660089628e+02
1.515119536653e+02
1.583599448621e+02
1.541416649432e+02
6.244218393224e+01
9.538100735337e+01
3.928870857360e+01
5.343802914845e+01
3.526927468435e+01
4.077756657040e+01
3.078183897845e+01
4.446316426518e+01
3.594938746053e+01
4.177639768455e+01
1.664988038284e+01
1.073789130233e+02
1.864163246086e+01
2.348043665143e+01
1.726225968862e+02
1.683591879369e+02
1.752835654466e+02
1.709536250407e+02
1.637761707163e+02
1.668292361903e+02
3.393218844364e+01
1.750229449748e+02
1.699871885644e+02
1.784123488335e+02
4.085604010235e+01
6.263538162350e+01
5.497885135641e+01
4.839013853880e+01
1.392274718320e+02
1.294428732245e+02
1.542226745098e+02
1.447128028997e+02
3.613970736569e+01
3.578172275447e+01
4.423738629026e+01
4.320255403144e+01
5.193089296072e+01
5.064855764510e+01
5.973668638573e+01
1.556309706453e+02
4.985068630214e+01
3.565410119851e+01
1.662925411326e+02
1.636792934153e+02
5.198302189271e+01
4.665298775073e+01
1.745222120210e+02
8.427086056007e+01
1.152840790435e+02
4.911257050299e+01
5.918811253085e+01
8.472905381213e+01
5.851573320809e+01
6.219244516338e+01
5.527988847075e+01
1.501436576801e+02
2.523891588445e+01
5.666969669208e+01
6.070034863652e+01
5.216473823939e+01
1.496561703225e+02
9.105542539225e+01
7.602937487937e+01
6.280724207336e+01
7.075151544777e+01
6.295967727094e+01
4.506944770565e+01
4.381208948172e+01
9.732856855337e+01
5.468682425207e+01
4.826363196304e+01
7.301350244094e+01
8.765943659703e+01
9.519732386505e+01
1.067993935046e+02
1.031036561421e+02
9.149690305057e+01
9.967867791059e+01
1.112110043304e+02
1.084258449056e+02
1.218347180441e+02
1.171169614047e+02
1.055441234065e+02
1.139859309872e+02
1.245635567258e+02
1.031898251840e+02
1.681240918149e+02
9.223759546066e+01
6.591535790600e+01
6.093086131468e+01
7.508558303896e+01
1.320313143828e+02
1.257850588754e+02
8.329600567553e+01
1.506758621091e+02
5.299266188893e+01
7.503691532085e+01
1.576827567325e+02
8.356040328429e+01
7.989019003570e+01
7.211342372662e+01
1.219171111844e+02
5.185067319974e+01
1.684539863430e+02
1.319577008774e+02
1.262872080584e+02
1.184867939481e+02
9.669820186494e+01
1.753969113171e+02
1.712613382491e+02
1.724366889486e+02
1.663547074554e+02
1.779433014464e+02
1.400678218441e+02
1.440443673224e+02
8.084309690655e+01
8.756512764725e+01
9.469692503777e+01
9.334669255855e+01
8.649283634863e+01
9.155862817025e+01
9.807541553856e+01
8.913347589591e+01
1.200018640876e+02
1.798501622957e+02
1.352804245604e+02
1.316190683452e+02
1.222530377732e+02
9.619957672540e+01
1.026456947564e+02
1.125148662587e+02
8.987839597058e+01
1.253653634965e+02
1.803429352531e+02
1.343477660861e+02
9.930364104028e+01
2.758233379411e+01
3.591889260544e+01
3.714035534305e+01
4.603774323467e+01
3.619114486557e+01
1.127142436010e+02
1.163572696634e+02
1.101823597835e+02
1.201754324513e+02
1.138855565753e+02
1.046220986668e+02
1.239572252309e+02
1.171764973534e+02
2.711724827913e+01
3.765594371524e+01
4.141523411591e+01
2.891566028067e+01
4.415212926400e+01
5.340555880983e+01
5.642796327077e+01
6.231634398125e+01
5.277316584075e+01
1.312955999105e+01
2.086623493898e+01
8.494539910652e+00
1.691963882855e+01
3.001871758057e+01
4.022405275540e+01
1.797764011694e+02
8.875195851825e+01
8.438780300604e+01
7.515376526368e+01
8.070258790169e+01
9.294305775480e+01
6.993552350208e+01
6.712615958234e+01
8.252549493859e+00
1.857639816736e+01
1.755619299856e+01
2.864739859745e+01
2.824078710172e+01
1.857933089942e+01
1.840007838192e+01
7.977423628320e+00
1.790211589327e+01
2.799851569940e+01
7.487101090701e+00
7.325519582023e+01
7.893486926132e+01
1.806761369607e+02
2.828430791638e+01
6.067226831809e+00
1.113682089597e+02
1.142338082811e+02
1.139730591542e+02
1.670355313770e+02
1.711220474049e+02
1.114543839192e+02
6.407821606609e+01
1.145477944913e+02
9.199910349757e+01
6.963195039193e+01
6.643211981538e+01
1.403516297375e+02
1.322292135048e+02
1.603230394663e+02
1.326671274513e+02
1.540847802752e+02
1.732470321529e+02
4.206443030278e+01
5.351948567647e+01
5.041591410068e+01
7.525457816531e+01
6.503164822345e+01
1.005961764586e+02
4.321772789711e+01
1.489904979291e+02
6.434334962956e+01
1.160621101545e+02
8.638797997035e+01
7.073868060777e+01
6.491513066714e+01
9.310722775758e+01
1.058743916071e+02
1.503023992855e+02
8.117433865395e+01
7.836097737089e+00
1.552346950758e+02
1.256770736239e+02
5.727643365572e+01
1.510158211060e+02
5.543969894680e+01
7.919145760781e+01
1.017746782253e+02
4.668760820275e+01
3.377399034440e+01
4.369073291232e+01
1.706080806625e+02
8.057211052046e+01
5.945456561873e+01
1.225727250753e+02
8.461627345784e+01
2.697183754311e+01
9.683499230899e+01
1.140552624404e+02
1.596021790896e+02
1.381440899925e+02
6.269613563124e+01
1.609794605290e+02
1.167512030822e+02
9.031689287886e+01
1.180460172527e+02
1.052310000532e+02
8.438460183368e+01
1.196989315727e+02
1.531226401263e+02
6.584233691920e+01
1.012508603206e+02
9.176198048463e+01
1.093888699616e+02
1.343384944175e+02
1.581142413060e+02
7.334192475995e+01
7.831122184822e+01
5.711169016822e+01
1.413498679970e+02
1.016192326997e+02
7.677116705252e+01
1.561167758256e+02
9.573000188274e+01
1.091411666056e+02
4.600450695354e+01
6.421024829968e+01
9.218177043813e+01
1.125971401168e+02
1.190615113252e+02
1.129613314554e+02
1.590364999069e+02
1.536758849721e+02
5.226929266121e+01
3.480217621350e+01
1.620510670572e+02
1.261691906748e+02
1.575792666884e+02
1.074942870640e+02
1.523706217430e+02
4.409821536437e+01
1.653141073866e+02
1.538691883936e+02
8.385405899195e+01
2.795167619077e+01
1.741039649642e+02
1.607661744366e+02
1.176909055488e+02
1.218860204137e+02
2.848318648790e+01
1.223790290783e+02
1.010035213046e+02
1.202807668292e+02
1.633185083084e+02
6.857013554728e+01
1.157937264700e+02
1.358750044233e+02
2.806813280378e+01
3.775094824856e+01
1.191308815322e+02
9.551827941151e+01
1.250859059527e+02
1.635232092816e+02
1.226787203262e+02
1.020591820845e+02
1.263800160227e+02
3.577281007745e+01
7.681909235087e+01
1.301979778740e+02
1.096165217372e+02
2.824512910268e+01
1.247665602448e+02
1.626977641751e+02
8.486411194789e+01
1.281138909899e+02
8.817300515232e+01
4.300961984458e+01
1.371861696737e+02
1.183502025034e+02
1.311965180401e+02
1.203367270249e+02
1.458709886839e+02
4.829925125609e+01
6.098042137018e+01
5.089330669163e+01
1.047580606637e+02
1.189597182647e+02
3.722901971619e+01
9.430376550372e+01
3.643927872279e+01
1.001202709572e+02
1.444171014651e+02
5.379976522337e+01
1.016819858630e+02
5.328776679161e+01
9.595371355327e+01
1.283844822990e+02
9.772919595904e+01
9.085743298831e+01
1.030549811462e+02
9.193200783635e+01
1.131329769157e+02
1.801070585665e+02
3.498388869308e+01
4.348852053254e+01
3.802289884736e+01
4.993381509405e+01
7.587235398271e+01
1.016097168389e+02
3.524943893344e+01
6.832123550978e+01
1.288562097019e+02
1.638433180454e+02
6.821643094733e+01
1.614670762237e+02
1.372976383633e+02
9.311257196918e+01
2.696650685230e+01
1.498339968362e+01
1.393645783034e+02
4.439500086845e+01
4.905571597932e+01
5.090513116284e+01
6.511347043514e+01
3.462657133576e+01
4.579087915466e+01
1.694357482884e+02
3.438568365079e+01
1.455712552139e+02
4.784026962337e+01
1.073088302667e+02
1.609337543554e+02
1.813939144414e+02
1.529647969342e+02
5.419817098064e+01
4.313153013079e+01
1.452031653275e+02
7.618985764918e+01
1.816763371651e+02
3.317812112860e+01
1.043160188741e+02
6.831887583611e+01
1.043406933039e+02
1.117907234683e+02
4.639770468258e+01
4.496170124532e+01
1.749413019116e+02
1.213214401560e+02
5.733584315957e+01
6.746846439462e+01
8.154314121761e+01
5.722921773233e+01
1.755507698064e+02
1.216180085422e+02
1.747724565825e+02
2.842513094519e+01
1.426115435290e+01
1.763120578560e+02
1.375011111652e+02
6.656780674724e+01
1.179394404383e+02
6.090064238303e+01
2.572517495401e+01
1.638187778160e+01
1.814377318406e+02
1.058619348576e+02
8.892211868449e+01
2.962701219609e+01
5.916788563741e+01
1.483933329307e+02
2.374478580163e+01
1.063555587694e+02
1.756359136893e+02
1.143972542089e+02
1.736738632457e+02
5.558323279386e+01
1.604749919706e+02
1.686963083705e+02
2.705197235076e+01
1.171498513156e+02
7.218758842507e+01
3.559751792399e+01
1.142718092586e+02
6.308406192912e+00
2.687609002916e+01
1.817874967562e+02
3.530760489507e+01
4.172597086055e+01
1.342246602580e+02
1.099795904647e+02
8.698029087420e+01
4.671907404074e+01
3.644573153299e+01
5.890767711850e+01
1.644583909240e+02
1.116609570597e+02
5.179727543097e+01
6.050655977155e+01
1.297893656445e+02
9.642502932767e+01
1.417181298127e+02
1.664620443338e+02
5.709522836096e+01
1.189332466377e+02
1.463564293070e+01
1.768569330155e+02
1.004368242187e+02
2.154385302533e+01
1.012223570910e+01
1.792959358825e+01
1.011236865359e+01
1.893361097338e+01
1.636984354525e+01

SCALARS node_materi_strain_total_average_a_ept float
LOOKUP_TABLE default
5.335236060536e-04
3.337676210808e-03
1.982755306076e-03
4.840295166818e-03
4.848110740166e-04
5.024880810134e-04
4.936139707514e-04
5.149651864461e-04
5.252695955480e-04
5.496197475794e-04
5.859010726858e-04
6.334972781643e-04
6.955650773236e-04
7.700825788287e-04
8.577873638723e-04
9.560977281238e-04
1.060594753187e-03
1.175569421226e-03
1.305180475335e-03
1.439460784529e-03
1.581607851307e-03
1.731188001260e-03
1.877649294643e-03
4.849636378514e-03
4.838209443313e-03
4.834111903384e-03
4.823546822414e-03
4.800988462968e-03
4.789413427591e-03
4.759699476442e-03
4.726242322468e-03
4.690632993474e-03
4.647572061539e-03
4.583387009561e-03
4.525052683589e-03
4.441924756195e-03
4.356498216563e-03
4.250502552889e-03
4.135553024521e-03
4.001183536515e-03
3.854031795479e-03
3.702995690270e-03
3.542398526648e-03
3.368834139007e-03
3.184611790853e-03
3.001534608469e-03
2.817505506387e-03
2.639024336415e-03
2.470184634190e-03
2.304011715231e-03
2.161843457600e-03
2.022221826999e-03
1.907881931894e-03
1.801692343499e-03
1.710029315976e-03
1.635662293771e-03
1.595660320406e-03
1.566755428273e-03
1.548668549274e-03
1.565619835465e-03
1.574336740551e-03
1.609170076749e-03
1.641066696955e-03
1.690205171592e-03
1.749277401572e-03
1.796288061417e-03
1.825928326700e-03
1.887409561240e-03
1.914629956302e-03
1.949005530284e-03
1.975426267706e-03
1.987093739233e-03
3.484757399832e-03
3.629606330412e-03
3.776860864716e-03
3.925074160975e-03
4.078520024867e-03
4.234872326378e-03
4.393531687241e-03
4.558959489057e-03
4.718609265049e-03
-1.449867893949e-03
2.948518553156e-03
-3.907182999391e-04
1.581490011310e-04
5.737482901487e-04
9.660712688212e-04
1.386417315324e-03
1.823982169800e-03
2.236492745282e-03
2.624299739688e-03
2.786012597810e-03
2.959924793329e-03
3.052420230764e-03
3.192949934505e-03
3.319750368925e-03
3.326508846549e-03
3.321623512350e-03
3.311557725815e-03
3.320323255660e-03
3.291655133411e-03
3.272959404783e-03
3.256166131725e-03
3.233414962692e-03
3.202735962720e-03
3.167912161282e-03
3.126778409558e-03
3.078404274279e-03
3.024640893555e-03
-2.079459000829e-03
-2.376633536621e-03
-2.462651756694e-03
-2.237662483802e-03
-1.362959034528e-03
-5.288159215067e-04
-1.854248343865e-04
-4.599322211577e-05
2.603443947455e-05
9.671793028112e-05
1.570833188149e-04
2.249288235771e-04
2.988672991322e-04
3.661140486730e-04
4.181721082457e-04
4.634380185022e-04
4.974629578898e-04
5.212036138843e-04
5.438092667462e-04
2.599491116887e-03
2.738885772923e-03
2.829792594919e-03
2.872559285301e-03
2.898985056058e-03
2.915605650386e-03
2.933108822179e-03
2.946694245474e-03
2.956180311737e-03
2.963244920358e-03
2.969319756638e-03
2.975186045358e-03
2.980090205512e-03
2.984020805042e-03
2.987639573826e-03
2.990956382213e-03
2.993913021892e-03
2.986938805702e-03
2.963053614749e-03
3.054130617968e-03
3.056789978962e-03
3.054683680588e-03
3.050751943452e-03
3.045747898916e-03
3.039399640371e-03
3.031577397688e-03
3.021494269605e-03
3.009944209097e-03
2.996922103505e-03
2.981680424737e-03
2.961720630123e-03
2.935826582425e-03
2.904273600541e-03
2.871050152194e-03
2.814559475459e-03
2.750043314477e-03
2.862317774184e-03
2.923400536897e-03
2.978810600714e-03
3.021319423096e-03
3.056147796313e-03
3.084268661684e-03
3.107526834242e-03
3.128266064507e-03
3.145907464694e-03
3.158979666598e-03
3.170535959147e-03
3.178823327699e-03
3.186053759529e-03
3.190965674164e-03
3.194280808356e-03
3.194341109654e-03
-7.870854668371e-04
-8.799620810966e-05
3.765498975873e-04
7.657879788393e-04
1.156585825806e-03
1.609807857389e-03
1.993380658895e-03
2.491862608891e-03
2.710883568547e-03
2.869713521011e-03
4.629154741920e-05
1.622065855974e-03
3.351207802997e-05
-1.465019259864e-03
1.573183002885e-03
8.896032961216e-04
8.129263753795e-04
1.950213337083e-03
1.685574992809e-03
2.518070928461e-03
2.438325803620e-03
1.730016788494e-03
3.060075082005e-04
3.207463518624e-03
2.893226164324e-03
5.651079741905e-04
1.094657262013e-03
3.679707079767e-03
4.204449683718e-03
4.701413244956e-03
4.590984153457e-03
4.451802816068e-03
3.130488593313e-03
3.328810424285e-03
3.414999464410e-03
4.002897311711e-03
1.831040400693e-03
-1.821292245854e-03
4.484097488457e-04
1.503673526137e-03
3.442608065411e-03
5.051657800438e-04
3.949155812205e-03
2.220557522647e-03
2.859045786890e-03
1.764164619620e-03
1.554149466596e-03
-2.820783452888e-04
3.243168763157e-03
1.617699092049e-03
4.308183201342e-03
1.684700883705e-04
6.607440023272e-04
4.757050281694e-03
1.279110057136e-03
4.972288954500e-04
2.053215268674e-03
2.689845497248e-03
-6.172259259553e-04
3.714774908876e-03
1.909131369118e-03
4.922576295309e-04
4.632726460202e-03
2.985411371838e-03
2.955920492359e-03
3.086661573236e-03
3.035992789152e-03
3.177952857066e-03
3.133731986251e-03
2.981704052784e-03
3.083243049133e-03
2.920553674999e-03
3.279520043882e-03
3.026814445187e-03
2.853700712178e-03
2.964275940686e-03
2.782615262944e-03
2.677078086822e-03
2.596764555939e-03
2.496558513119e-03
2.407925034315e-03
2.516676236120e-03
2.321305296627e-03
2.216663037069e-03
2.123960203626e-03
2.022021299997e-03
1.925589279990e-03
1.826644191825e-03
1.729481059044e-03
1.836661258305e-03
1.641096475771e-03
1.542111676074e-03
1.456770716182e-03
1.366367897539e-03
1.289839421325e-03
1.383508317557e-03
1.225726121371e-03
1.140232043753e-03
1.081813275137e-03
1.004661886820e-03
9.612111817381e-04
9.027876368150e-04
8.713320982842e-04
9.188530147064e-04
8.335476902155e-04
7.800795407325e-04
7.513803165288e-04
7.919122371504e-04
7.150136341799e-04
7.517968015259e-04
6.716693288076e-04
6.286621131574e-04
5.906008845483e-04
6.427423346382e-04
5.653939874795e-04
5.081401586886e-04
4.976393693279e-04
5.663517153192e-04
5.117780932636e-04
4.404120882636e-04
4.726141764772e-04
5.343568912331e-04
5.018060375685e-04
4.445636142976e-04
4.792425102287e-04
5.404207862116e-04
5.209714012171e-04
5.948599786689e-04
4.634290685074e-04
5.080347298690e-04
4.540381466562e-04
4.998004581859e-04
1.323897899354e-03
4.485496466526e-04
4.033769896488e-04
4.947542809165e-04
5.524361867821e-04
4.458023232734e-04
4.918367932032e-04
4.464111034264e-04
9.338600536637e-04
2.438263268502e-03
4.906677635981e-04
4.489247776820e-04
4.061744753667e-04
4.118186882075e-04
3.307902503826e-03
3.428420056509e-03
3.447708563254e-03
3.575382946576e-03
3.585448532726e-03
4.533444192583e-04
3.143143851673e-03
3.556159292890e-03
2.125548330816e-03
1.457798171409e-03
8.362217934904e-04
5.397500977175e-04
5.357081057612e-04
5.901724820040e-04
6.220400034925e-04
6.930795459150e-04
7.325182227018e-04
8.161067187939e-04
8.689428290788e-04
9.548155273430e-04
9.037764876450e-04
1.040778677016e-03
9.917489453363e-04
1.014467371498e-03
9.350252459824e-04
1.126825207192e-03
1.078955916479e-03
1.213241183427e-03
1.163837826866e-03
1.032844421973e-03
1.115220660994e-03
9.902494317348e-04
8.059366466216e-04
9.209235396657e-04
9.206369904637e-04
1.071949904849e-03
1.075084759627e-03
1.216041296203e-03
1.210236393220e-03
1.081997618822e-03
2.895704218260e-03
6.728392821060e-04
6.914817039032e-04
5.676659166555e-04
5.847435426750e-04
4.377878946294e-04
4.529940000513e-04
2.660595292378e-04
2.706237585813e-04
5.009458345933e-05
1.019330664503e-04
-1.529661432419e-04
-2.628301657396e-05
1.756422733847e-03
1.228099391176e-03
1.359730815883e-03
1.379983326154e-03
3.686036417574e-04
1.245958913129e-03
1.079880406401e-03
1.008834508987e-03
1.216357256279e-03
4.200371911144e-04
2.880217531759e-04
4.747433035675e-04
3.719848719567e-03
3.721611821461e-03
1.149512148109e-03
4.624686704496e-04
1.178456165323e-03
-2.204081668650e-04
1.195077104864e-03
1.327068997982e-03
8.613924281375e-04
1.506980908279e-03
1.533705129915e-03
1.736308609498e-04
9.793815575630e-05
-6.540294857412e-05
5.707725654212e-05
1.796273725048e-04
1.379457259183e-04
3.665271507074e-05
1.379153086204e-04
2.055047968658e-04
1.960967865179e-04
1.223152400161e-04
1.912541795588e-04
1.381611321733e-03
-4.510741236730e-04
2.586744881796e-03
1.215416485061e-03
1.332498804075e-03
3.863259668177e-03
3.855806735137e-03
3.715516155619e-03
3.841277834032e-03
3.988234880419e-03
3.965798175565e-03
3.820289137282e-03
3.937773709033e-03
3.793474975644e-03
3.904423239684e-03
4.054336612989e-03
4.014472481686e-03
3.865669698441e-03
3.970311580020e-03
3.822124456073e-03
3.921464071854e-03
4.074110629379e-03
4.400894828035e-04
1.099437607207e-03
1.231101896616e-03
5.805832369684e-04
6.438910479184e-04
6.612263351877e-04
7.211208773294e-04
4.019183822645e-03
4.176662043415e-03
3.189186600756e-04
4.993608772054e-04
3.863400447259e-03
1.271749360094e-03
1.144268935782e-03
1.286596652691e-03
1.382239189662e-03
1.209761891581e-03
1.306633647138e-03
1.487972145595e-03
1.122295978599e-03
8.576991325316e-04
4.168911675202e-03
3.621580600150e-04
3.217833430322e-04
1.406164388221e-03
9.541826378686e-04
1.958195991966e-03
1.886588409522e-03
2.088268654589e-03
2.018621437879e-03
2.217297907734e-03
2.144239951702e-03
1.955278192287e-03
1.658946920700e-03
2.079103899707e-03
3.866143084284e-03
1.237480282217e-03
2.526275655934e-04
3.952143322736e-04
1.455978062042e-04
4.713046045725e-04
4.962588190489e-04
1.279209929348e-03
2.343208369758e-03
2.417556422047e-03
1.418042931039e-03
1.604283649367e-03
1.623049941549e-03
3.461016830079e-03
3.681864872623e-03
3.656072542836e-03
4.523846233782e-04
7.170800370442e-05
4.118419696730e-03
6.262259734457e-04
6.513014895552e-04
-5.499714537114e-04
-7.779399525268e-04
4.116044682353e-03
4.274280988637e-03
7.447497795467e-04
8.111516780025e-04
1.224809098217e-03
2.072028424238e-04
4.336180305003e-03
9.874209225295e-04
8.311254102285e-04
6.983954598012e-04
3.397657112073e-04
1.149820230308e-04
2.637026575636e-04
2.540796993390e-04
5.011250299762e-04
1.345675220023e-03
4.142256104044e-03
1.897186906222e-03
1.768610090522e-03
2.014255831160e-03
1.601401202173e-04
1.344264690700e-03
1.345251339350e-03
2.539444177473e-03
2.618055860570e-03
7.608071722665e-04
7.912631283027e-04
6.831345885446e-04
8.506099122504e-04
2.830975775715e-03
8.867739307994e-04
2.415448336662e-03
2.517035616312e-03
2.348368480731e-03
1.669400947714e-03
1.791332821756e-03
7.114127091724e-04
9.453473457173e-04
6.782413570312e-04
9.090636148578e-04
6.601121275195e-04
4.210201991261e-03
4.329085881323e-03
3.721749565693e-03
3.677973489393e-03
3.284758588369e-04
2.786818883885e-04
6.641331831075e-04
1.284838995184e-03
4.014082117276e-03
4.016035863309e-03
3.856430380339e-03
1.300134120997e-03
5.541613067056e-04
7.958297202368e-04
-6.009813826120e-04
1.496678503500e-03
2.921469194341e-04
2.635537760165e-03
1.483428438619e-03
1.544332714695e-03
1.767273707146e-03
2.831559602891e-03
1.449647502591e-03
1.278796496488e-03
2.461742705588e-03
2.299558243499e-03
2.170860816127e-03
2.115213260814e-03
3.142552391470e-04
3.085422700977e-04
2.476634544723e-03
2.194023560703e-03
2.745044216344e-03
2.829189375497e-03
1.726276753218e-03
1.593755627147e-03
5.267301330330e-04
1.729263572282e-03
4.278289696019e-03
2.615047519531e-03
1.407238237004e-03
1.362811125500e-03
-9.691990502586e-04
-6.278708548258e-04
4.436784152437e-03
7.470947667646e-04
9.378127161939e-04
5.631432337727e-04
1.803156567198e-03
3.449502906781e-03
1.627179055669e-03
1.857553581539e-03
4.501607556486e-03
1.419999354544e-03
1.125547751458e-03
1.174411556938e-03
4.359775787181e-03
4.538851093305e-03
3.550928714530e-03
3.518175610442e-03
3.567179656946e-03
-1.985107808650e-04
-5.289397422329e-04
4.281983484766e-03
5.328782271091e-04
5.815107170055e-04
2.676163340960e-04
3.123420467978e-04
7.695203321099e-04
6.968871020779e-04
2.562568762429e-03
2.760836240461e-03
2.161484783660e-03
8.795657219270e-04
7.284269898727e-04
7.065219785301e-04
4.369700537863e-03
4.504649664359e-03
3.301234066373e-04
2.950326433164e-04
3.666367245487e-04
4.303674941326e-03
1.686632471297e-03
1.602921072785e-03
2.354045909775e-04
2.314243799448e-04
1.830256235882e-04
-7.124961338558e-05
4.008988832377e-03
3.839862970226e-03
4.182600053992e-03
5.274122460827e-04
1.727288335302e-03
1.407343658486e-03
1.386096339234e-03
1.471610739992e-03
1.809298184616e-03
1.901411680949e-03
2.117638235355e-03
-1.200267441786e-03
4.493845755888e-03
3.576310939568e-03
-1.426806302403e-03
3.534037935863e-03
3.628017150240e-03
3.475655537034e-03
5.083274653769e-04
3.424264480938e-03
3.450856502046e-03
1.621494948011e-04
4.448770906798e-03
2.555108458645e-04
3.191857473331e-04
1.494639234169e-03
1.446158183919e-03
1.568775511500e-03
1.522084220357e-03
1.395394406320e-03
1.483243043359e-03
3.476050814445e-03
1.630165061311e-03
1.575719955739e-03
1.728770051293e-03
2.266627446478e-03
1.030383376896e-03
1.135292369602e-03
1.046806279267e-03
2.983291362258e-03
3.029646354452e-03
1.421972882861e-03
1.287681840333e-03
3.565421070001e-03
3.570134782798e-03
3.697734429897e-03
3.690266588923e-03
3.820842676226e-03
3.807951118334e-03
3.944304125485e-03
2.321246620977e-03
6.300749376943e-04
2.575398895685e-03
1.685183241735e-03
1.560104264649e-03
1.924384820528e-03
1.875041166450e-03
1.481414785465e-03
8.540396190462e-04
4.492464630675e-03
-1.449624232127e-03
-1.045180296115e-03
9.746955889142e-04
1.981670210412e-03
1.224107695883e-03
1.340713549669e-03
1.034570015741e-03
1.800998609421e-04
3.737795334245e-04
3.949546132179e-03
2.180583557096e-04
1.365480684170e-03
8.288811989908e-04
1.742071135133e-03
5.183066216151e-04
9.439305829155e-04
2.755547164155e-03
2.898969324963e-03
2.758094343098e-03
8.053742333808e-04
1.543265395823e-03
1.468294789065e-03
2.314460943084e-03
3.693897503327e-03
3.670140809936e-03
3.812327174875e-03
3.634251417113e-03
3.495606699300e-03
3.454124444829e-03
3.601302628496e-03
3.407853165553e-03
3.580794317641e-03
3.346844893262e-03
3.211466548386e-03
3.147354087073e-03
3.263827249233e-03
3.016738769975e-03
1.799941043837e-03
1.057169216608e-03
-9.114973887364e-04
-6.387612351382e-04
1.933866889614e-03
3.820445585940e-03
4.092904960764e-03
6.030345858449e-04
3.032564668332e-03
2.675171462821e-03
5.223773566083e-05
2.687209395864e-03
3.529809759339e-03
3.363245958730e-03
3.399523343012e-03
4.297856085199e-03
3.581547816512e-03
2.091942138748e-03
1.072284376347e-03
1.087757769009e-03
9.849748030701e-04
3.269011083881e-03
1.677626472482e-03
1.580560408134e-03
1.531257404624e-03
1.466028444357e-03
1.581324066744e-03
3.540826694216e-03
3.385236379418e-03
2.231854051771e-04
2.752758055758e-04
3.550527568043e-04
3.470624133707e-04
2.383714250972e-04
3.265113410198e-04
4.396402959846e-04
2.970783976048e-04
2.894305412579e-03
1.553761147656e-03
7.864585317615e-04
7.125194917231e-04
6.070283325327e-04
6.129189722102e-04
6.263841901172e-04
7.180332266780e-04
6.013187586924e-04
1.823581939207e-03
1.556919193957e-03
8.038139780068e-04
5.622458703965e-04
3.190816696025e-03
3.251658711638e-03
3.176551792529e-03
3.318099561728e-03
3.326262026985e-03
8.418464819879e-04
9.116812910669e-04
8.739266838479e-04
9.781239204163e-04
9.318627671479e-04
8.400718858636e-04
1.039551455327e-03
9.773852544206e-04
3.284823615464e-03
-7.678530759909e-04
-3.758705358828e-04
-1.027480353653e-04
-1.322160671596e-04
-3.772327243430e-04
-1.144041842630e-04
-2.728461314077e-04
-7.808397501560e-04
-1.162406291978e-04
-1.084652696106e-05
-3.145254468439e-05
5.088717901769e-05
9.508760311879e-05
2.766619043049e-04
1.844367843850e-03
7.282395662868e-04
6.860696757197e-04
6.284822819063e-04
6.435647703016e-04
7.557440693377e-04
6.066451767283e-04
5.843298422202e-04
4.760490176498e-04
4.809742367832e-04
4.958324097168e-04
4.923679342405e-04
4.808155839316e-04
4.618039599145e-04
4.294506259648e-04
4.111684070057e-04
3.912241405650e-04
4.218508452273e-04
3.629277997187e-04
4.156692133824e-03
4.242122087491e-03
1.596669581314e-03
3.370332712198e-03
9.706959344463e-05
4.693733555484e-03
4.644884714035e-03
4.681846667096e-03
1.650904654171e-03
1.717188009330e-03
4.725729767084e-03
4.028587274732e-04
3.771545123247e-03
4.392679878896e-03
9.968005422172e-05
3.080924633193e-04
1.215423945091e-03
9.480254084651e-04
1.463780418720e-03
1.068755642933e-03
1.298423460094e-03
1.489826011066e-03
4.856768423247e-04
3.760276213162e-03
3.773697397289e-03
4.123657477140e-03
4.909966797750e-04
7.844331615534e-04
3.788300954631e-04
2.668180338025e-03
2.235826636194e-03
5.685282362854e-04
5.454484825775e-04
4.016707801406e-04
2.507903575524e-04
1.207099683459e-03
5.758066629262e-04
1.095770767403e-03
4.231330155210e-03
2.384849337180e-04
1.153688469094e-03
7.749657146888e-04
3.701804943178e-03
1.342962596601e-03
3.017825871069e-05
4.088470212738e-03
4.168083788000e-03
3.463194443688e-03
3.492549987808e-04
3.618775571546e-03
1.393209990324e-03
3.711115427975e-03
4.921463979751e-04
7.221925302195e-04
1.637498891602e-03
2.796620227063e-03
4.442164766849e-03
1.169571820364e-03
1.340865849159e-03
9.331955738146e-04
5.291336441270e-04
1.313337854501e-03
8.759309401606e-04
4.244854775168e-03
2.290051320857e-03
6.542115910699e-04
4.004826871943e-03
5.792896110806e-04
1.481310578574e-03
2.049248412108e-03
2.037466431327e-03
2.708665297113e-03
1.562903447061e-03
1.159623652007e-03
1.231568705859e-03
-2.905409898787e-04
1.037930218633e-03
3.589799496922e-03
2.259909901355e-03
4.405800594342e-03
1.558935488079e-03
1.262225890849e-03
4.159979856986e-03
6.427235372739e-04
5.160747747553e-04
-1.555673777569e-04
4.347959554883e-04
1.030520615008e-03
7.431833887028e-04
3.999863590695e-03
1.347349051992e-03
1.089006561881e-03
-2.398540622341e-04
2.709168530797e-03
1.433813714369e-03
7.089898765827e-04
1.457602370974e-03
8.838582503413e-04
2.505125606529e-03
2.075556116519e-03
1.522411145562e-03
1.133358124684e-03
7.339523840012e-04
3.449938647867e-03
1.684993220982e-03
1.261411945482e-03
1.687785173886e-03
6.347753074155e-04
2.580706370948e-03
8.262647889923e-04
2.239001211532e-03
4.385002705211e-03
1.343740396960e-03
3.241778709169e-03
7.960887849032e-04
1.399239072538e-03
4.584588952224e-04
2.434906460570e-03
8.741885905474e-04
4.382862026580e-04
6.360524213972e-04
1.863773627419e-03
9.503795042973e-04
5.442275463374e-04
1.023574070806e-03
2.275330694415e-03
3.195889434425e-03
1.094214285358e-03
2.362983015367e-03
3.828804748119e-04
1.631725107529e-03
1.565311696949e-03
4.108320587337e-04
6.581850368242e-04
3.320092196500e-03
1.885574377079e-03
7.841391597165e-04
2.490195355909e-03
1.591665524267e-03
1.122219145474e-03
9.424517192714e-04
1.689338548689e-03
3.591739746856e-04
3.181446741218e-04
5.323009691247e-04
2.693093163737e-03
4.942441994607e-04
3.081935404410e-03
2.267550053774e-04
4.367939120042e-04
1.694371454225e-03
3.857195525751e-03
4.281271627697e-04
5.342218235170e-04
3.654950678208e-04
1.249140913595e-03
4.018808288929e-04
3.800469121395e-04
4.551590007596e-03
4.239776617082e-04
4.757904462668e-03
1.888918970268e-03
3.564373579755e-03
1.499452861903e-03
-1.895005343602e-03
1.246842729783e-03
3.579888189001e-04
2.826658618219e-03
3.567526070419e-03
3.562493865461e-04
3.463619952215e-03
2.362959397209e-03
4.079439790637e-03
1.437556310459e-03
1.563228825624e-03
4.462316378250e-03
3.405696299833e-03
9.927364509987e-05
1.233325554824e-03
1.068762340596e-03
8.245998259335e-04
4.294361223432e-04
5.598653101137e-04
2.282462334482e-05
6.948769128211e-04
1.627152589133e-03
3.437108955431e-03
1.851587069166e-03
2.893953194864e-04
4.312846259681e-03
2.074716514738e-03
1.685795286660e-03
1.961275506231e-03
-1.567607957929e-05
3.362283185505e-03
2.828549866226e-03
4.192128521356e-03
1.763016991747e-03
3.345929207260e-03
4.609325261768e-03
-2.964938031481e-04
4.628927926733e-03
2.953235868845e-03
3.722758496351e-03
3.214882386149e-03
1.776768629853e-03
3.745216491647e-03
-3.801442156123e-04
4.060386248379e-03
6.272313378225e-04
-1.141178850628e-03
1.519045413097e-03
3.082571667424e-03
1.729367667002e-03
5.016731815143e-04
1.964260123247e-04
1.500175130212e-03
3.189035687088e-03
-6.438126875636e-05
4.591104967166e-03
-8.788248588507e-04
3.357318006000e-03
3.421945185575e-04
1.818518069108e-03
4.505273541595e-03
7.110501709109e-04
3.065392295318e-03
5.516156733238e-04
2.344361423588e-03
1.204667260657e-04
4.575078318515e-03
1.501724175198e-03
4.132077443808e-03
1.879238899589e-03
-1.375693039070e-03
2.223068230852e-03
1.443586902697e-03
3.422942372076e-03
3.929661549176e-03
5.994642028742e-04
4.233422340667e-04
4.785344844191e-03
5.114631604626e-04
3.435343121399e-03
1.933496685265e-03
4.759800522813e-04
3.669849473209e-03
3.345689260204e-03
9.119737318810e-04
4.368208013206e-03
-1.515861679376e-05
-1.935399132201e-03
3.936469126213e-03
1.973434084076e-03
4.298357820057e-03
3.811043182206e-03
-3.348095128173e-04
3.183175076630e-03
7.634451080017e-04
2.658316137840e-03
1.532635136924e-03
-1.047772998054e-03
1.000869780200e-03
2.934630977194e-04
1.624922548302e-03
8.104713315649e-04
2.681872545639e-03
2.975747587890e-03
2.772131275538e-03
3.128165766582e-03
2.900013657690e-03
3.259342188206e-03

SCALARS node_materi_strain_total_size_dev_sd_ept float
LOOKUP_TABLE default
2.595272397497e-03
1.035961141776e-02
4.960483267222e-03
1.201018004595e-02
1.927766594243e-03
1.089993446885e-03
6.102195043699e-04
1.115703377881e-03
1.794324116776e-03
2.348760157889e-03
2.786122998822e-03
3.112956864855e-03
3.350049779502e-03
3.530373894078e-03
3.674343634374e-03
3.810585511483e-03
3.938860243314e-03
4.069431391879e-03
4.227963763101e-03
4.394630231349e-03
4.569229892322e-03
4.742292920501e-03
4.894527919392e-03
1.199441137276e-02
1.198222958092e-02
1.198392323459e-02
1.197356634094e-02
1.196905396227e-02
1.196228396689e-02
1.195049497604e-02
1.192456936482e-02
1.190551573756e-02
1.186769559180e-02
1.184159132518e-02
1.179764751645e-02
1.174279550665e-02
1.166698633222e-02
1.159016947739e-02
1.146908270449e-02
1.134235671219e-02
1.118610053492e-02
1.099470292997e-02
1.076970377052e-02
1.049011825794e-02
1.017686766432e-02
9.808475102882e-03
9.393185865368e-03
8.944995356627e-03
8.460913232922e-03
7.938789749487e-03
7.386311822937e-03
6.819309529302e-03
6.291004162750e-03
5.728578923002e-03
5.172556693512e-03
4.659025661068e-03
4.276724252093e-03
3.967083929916e-03
3.780264522259e-03
3.698371882826e-03
3.707871285535e-03
3.780411155559e-03
3.916318644343e-03
4.087247647914e-03
4.278112883017e-03
4.426919953604e-03
4.532410240184e-03
4.692084115521e-03
4.773639380427e-03
4.851467500583e-03
4.914647257836e-03
4.945540440160e-03
1.068209549929e-02
1.097890783747e-02
1.123543153531e-02
1.145050722743e-02
1.163269306921e-02
1.177818162659e-02
1.188655968944e-02
1.195786158979e-02
1.201100860955e-02
4.662665818676e-03
1.078840534874e-02
5.712306347562e-03
5.647548922099e-03
6.061385816944e-03
6.514349107898e-03
7.196148827257e-03
8.240519099323e-03
9.698283243960e-03
9.949598405032e-03
1.035092711941e-02
9.428629587715e-03
9.636182941781e-03
9.991554750697e-03
1.031289197287e-02
1.034348235722e-02
1.036000487782e-02
1.037263767693e-02
1.043785145743e-02
1.042403713555e-02
1.045123814535e-02
1.048317735115e-02
1.053603827566e-02
1.057666884911e-02
1.061552838529e-02
1.065538299440e-02
1.068876241769e-02
1.072498714371e-02
3.198505675600e-03
3.033491395619e-03
3.238931976873e-03
3.190400725013e-03
3.339390022866e-03
2.528706012609e-03
1.048989395737e-03
5.238732201067e-04
2.957286291975e-04
2.588830815325e-04
5.103037735342e-04
8.905801295429e-04
1.309362689007e-03
1.679318829047e-03
1.943866463229e-03
2.175986365414e-03
2.357715940896e-03
2.520667501054e-03
2.634100443687e-03
9.735633947641e-03
9.374280096018e-03
9.295376355347e-03
9.294918294574e-03
9.332034144378e-03
9.366184872854e-03
9.386577076769e-03
9.399776541167e-03
9.413209101663e-03
9.425577841257e-03
9.434515996574e-03
9.436126774034e-03
9.434976439177e-03
9.433215427617e-03
9.430743759196e-03
9.428848654968e-03
9.425799690800e-03
9.418956332559e-03
9.391334554432e-03
9.633877937653e-03
9.628918918336e-03
9.631109860693e-03
9.635449215732e-03
9.642568397078e-03
9.652812714525e-03
9.664217346576e-03
9.678183810863e-03
9.688480867678e-03
9.696313584122e-03
9.702675917256e-03
9.710654910677e-03
9.720998216921e-03
9.722618605741e-03
9.711243640632e-03
9.754720085229e-03
9.758123279141e-03
1.027524195470e-02
1.031424437896e-02
1.028129964471e-02
1.024978174777e-02
1.021975673834e-02
1.018963866108e-02
1.015940420166e-02
1.012852293332e-02
1.009863828431e-02
1.007242754937e-02
1.005090406054e-02
1.003320723915e-02
1.002160049183e-02
1.001098078146e-02
1.000570814319e-02
1.000433941694e-02
6.344403124837e-03
5.449921947455e-03
5.839043074192e-03
6.281075276636e-03
6.901274598791e-03
7.706947176627e-03
9.046878747953e-03
9.980762257092e-03
1.021670205023e-02
1.062181836131e-02
5.565968789827e-03
4.031294651170e-03
7.487987950458e-04
3.303245284936e-03
3.388422694239e-03
6.362697771623e-03
3.594532960089e-03
6.119245781399e-03
7.934896116384e-03
8.403785376386e-03
9.919522045893e-03
4.187101783742e-03
1.157635149596e-03
1.019462365804e-02
1.087366657601e-02
2.596644256820e-03
3.945402431126e-03
1.105735942512e-02
1.168394589825e-02
1.199449257143e-02
1.197270780487e-02
1.188170237618e-02
1.101854033418e-02
1.088243368647e-02
1.078977994087e-02
1.155074404498e-02
4.629617747338e-03
2.990684278618e-03
1.807227865215e-03
4.452133793826e-03
1.066195837814e-02
7.999500698490e-04
1.142887913400e-02
7.360007806630e-03
9.390233024950e-03
5.029473034816e-03
3.455435929469e-03
2.664914912228e-03
1.095387223501e-02
3.664111531909e-03
1.183734069947e-02
5.424649912460e-04
3.231778775684e-03
1.200451548410e-02
7.015517411543e-03
5.920815201391e-03
9.208982398629e-03
1.044395965880e-02
5.989222380312e-03
1.113399801118e-02
4.853642210685e-03
2.087436950366e-03
1.197699818749e-02
1.105047209112e-02
1.106489519331e-02
1.121532716183e-02
1.116570026404e-02
1.132944931794e-02
1.122177681397e-02
1.103070162541e-02
1.104924953998e-02
1.080509304413e-02
1.140087424112e-02
1.080410331838e-02
1.050359960574e-02
1.049637992203e-02
1.014297479980e-02
1.015152824759e-02
9.746981443391e-03
9.727949981042e-03
9.286683503193e-03
9.303715985446e-03
8.815216085246e-03
8.766370289951e-03
8.289227056572e-03
8.229705160680e-03
7.753898171203e-03
7.693046351304e-03
7.235821637092e-03
7.290610602231e-03
6.804913570524e-03
6.762390716323e-03
6.369790248773e-03
6.347650111983e-03
6.015732095252e-03
6.015680189790e-03
5.767417469373e-03
5.862166346143e-03
5.759911539537e-03
5.928983860867e-03
5.882385641299e-03
6.020633598995e-03
5.987518373893e-03
5.797605753815e-03
5.902683230414e-03
6.061534503843e-03
5.948564631274e-03
5.743955837299e-03
5.756016482134e-03
5.479014978312e-03
5.456579581308e-03
5.699415184181e-03
5.353585164603e-03
4.974972071192e-03
4.829833260467e-03
5.213723459934e-03
4.638529328699e-03
4.161767625195e-03
4.018284038339e-03
4.441333418610e-03
3.927531518709e-03
3.618578072671e-03
3.606352306502e-03
3.883092131622e-03
3.596905407324e-03
3.290605244789e-03
3.311277604345e-03
3.020649730968e-03
3.569731129732e-03
3.319800327880e-03
3.507223037289e-03
3.298763865674e-03
5.713181174570e-03
3.393091246482e-03
3.600735658031e-03
3.236960826624e-03
3.165053114818e-03
3.228944475817e-03
3.131156260181e-03
3.020133541665e-03
6.025104556691e-03
8.833306786327e-03
2.976918726492e-03
2.760943198351e-03
2.812695833180e-03
2.441116727302e-03
1.147159638868e-02
1.155085305077e-02
1.159276397039e-02
1.168821365185e-02
1.170935965761e-02
2.451778353993e-03
1.081405146685e-02
1.161589568289e-02
8.713492957851e-03
6.729976046205e-03
5.400112274664e-03
3.099504158982e-03
2.997969166422e-03
3.130751034370e-03
2.947708496622e-03
2.720791453072e-03
2.580879685502e-03
2.421502691864e-03
2.196976498729e-03
2.167578118256e-03
2.428504194563e-03
2.334845029641e-03
2.586655901903e-03
1.895000865089e-03
1.952450960806e-03
2.630722028936e-03
2.847090103988e-03
2.985048486623e-03
3.160669099469e-03
3.054042232070e-03
3.327108212718e-03
3.234520140862e-03
5.000184883443e-03
4.832461294359e-03
4.249215174503e-03
4.097481388405e-03
3.507572602435e-03
3.550674148424e-03
3.044256467726e-03
2.956540009820e-03
1.014328700024e-02
6.111300570341e-03
6.151065699625e-03
6.171986521520e-03
6.157505036344e-03
6.145780010180e-03
6.130480466462e-03
6.079827789583e-03
6.064793350518e-03
5.934281463808e-03
5.946707216991e-03
5.737249316358e-03
5.878973864575e-03
6.840503039387e-03
4.080140169402e-03
3.760944910244e-03
4.241759086973e-03
2.479189658275e-03
3.488447880464e-03
1.650403703373e-03
1.722770597186e-03
2.556653777315e-03
2.023730911636e-03
6.055926166186e-03
6.067833968105e-03
1.179862174464e-02
1.180526798223e-02
1.494039513866e-03
2.087170526262e-03
2.417513926920e-03
5.667137551016e-03
3.607535256097e-03
3.793714232683e-03
2.663743909603e-03
4.136279900140e-03
4.567382579946e-03
5.895683963043e-03
5.842483682461e-03
5.894047760313e-03
5.703079501669e-03
5.609780277107e-03
5.400161004732e-03
5.476081261610e-03
5.097421843415e-03
5.024841087998e-03
4.601301529460e-03
4.441459294453e-03
4.008327501019e-03
3.707380219532e-03
5.446603517886e-03
1.012825067014e-02
1.710087521105e-03
2.859736611039e-03
1.188708295374e-02
1.188087564695e-02
1.176651275571e-02
1.183794273427e-02
1.193470712544e-02
1.189327746771e-02
1.176601468956e-02
1.182702924848e-02
1.167058080037e-02
1.173951732145e-02
1.187660014898e-02
1.179670720811e-02
1.163377625077e-02
1.170249690360e-02
1.151554290176e-02
1.159593543817e-02
1.176152248080e-02
1.577002755491e-03
2.424352379838e-03
2.117242887298e-03
3.064442804332e-03
3.210050057387e-03
3.216713775933e-03
3.325480314169e-03
1.166731614138e-02
1.181249788458e-02
6.018450815336e-03
5.967028971537e-03
1.185376350118e-02
3.868575326228e-03
3.709863833873e-03
6.334433582976e-03
6.700848442884e-03
6.317299560251e-03
6.646009514017e-03
7.098111011080e-03
6.252279789647e-03
2.256019828065e-03
1.191276290708e-02
2.914397287794e-03
2.556385535264e-03
4.062602834323e-03
3.006274760714e-03
7.324762199314e-03
6.835026873664e-03
7.342873907215e-03
6.856291563511e-03
7.435176518129e-03
6.992206396392e-03
6.396006831796e-03
4.653975424924e-03
6.588052208519e-03
1.147879818127e-02
4.612769410777e-03
4.534362747054e-03
1.505470883078e-03
3.662599649513e-03
1.671412978531e-03
2.210358413580e-03
1.701245803086e-03
7.644830427246e-03
8.045968108165e-03
7.027834688883e-03
7.518849330974e-03
4.273572149532e-03
1.157925237998e-02
1.159099759088e-02
1.146153054404e-02
1.042171182878e-03
4.129304422255e-03
1.197279960578e-02
6.022004190773e-03
5.929608510045e-03
5.285141152040e-03
5.018711059420e-03
1.173121111744e-02
1.185659821814e-02
3.276706912327e-03
3.412022125011e-03
1.500559779203e-03
3.398332479646e-03
1.191472062352e-02
2.443253546078e-03
3.141431920804e-03
3.336777470299e-03
5.868073020736e-03
5.902670434728e-03
4.849055148275e-03
3.703061729817e-03
1.839779561758e-03
1.873116527628e-03
1.198460548587e-02
5.965432774576e-03
5.874640305088e-03
6.209950973337e-03
2.951425400922e-03
2.108411145569e-03
4.099179440061e-03
8.306438948554e-03
8.656385701459e-03
5.984972284203e-03
5.930990286040e-03
5.869896255426e-03
5.971746699445e-03
1.078695926821e-02
5.982294481587e-03
9.685042848002e-03
1.008220110056e-02
9.639594740549e-03
7.579930490804e-03
8.040885232191e-03
6.119082661364e-03
5.239247685590e-03
3.171637937447e-03
3.024947325778e-03
2.878859856606e-03
1.196587270579e-02
1.198367376894e-02
1.142453124043e-02
1.128288995949e-02
2.019346072448e-03
2.074595178873e-03
2.852122914798e-03
2.110672029928e-03
1.192648578087e-02
1.187437199553e-02
1.178617375548e-02
1.713633536862e-03
6.105386247430e-03
4.400687449419e-03
5.528538944485e-03
6.008255212577e-03
1.507586680335e-03
9.316657678020e-03
4.294222186457e-03
4.283279149372e-03
4.930760806101e-03
1.084443419398e-02
5.618054372766e-03
5.421527833027e-03
1.002064769499e-02
9.588499800334e-03
9.136916510343e-03
9.077511930100e-03
4.336037928827e-03
4.098604844009e-03
8.027255299165e-03
6.937261285073e-03
8.937994044456e-03
9.258173312102e-03
4.617865790496e-03
3.921258788891e-03
2.356087166769e-03
7.972067686802e-03
1.200950644064e-02
1.039100015669e-02
2.585197098649e-03
2.590292358250e-03
4.846248817473e-03
5.687091266579e-03
1.194336225297e-02
5.924654745475e-03
6.130119505758e-03
5.791766457956e-03
4.799859208961e-03
1.062121961579e-02
4.497312969004e-03
8.110333579923e-03
1.198218200871e-02
5.191560438914e-03
6.073632770133e-03
1.588758295727e-03
1.189054445836e-02
1.196763191250e-02
1.136109673913e-02
1.120085407804e-02
1.149122205955e-02
5.826343181365e-03
5.469996917651e-03
1.194038980247e-02
2.844918618865e-03
2.978929184888e-03
3.217438503562e-03
3.488595673352e-03
3.180816560390e-03
3.083474253024e-03
8.883619328770e-03
9.399313582777e-03
7.838309794719e-03
2.571773235054e-03
3.241512648174e-03
3.786171465364e-03
1.200125286460e-02
1.200296024162e-02
4.575128818765e-03
5.078393294779e-03
3.980158038101e-03
1.199760908755e-02
4.507305102706e-03
4.267726550053e-03
1.505319603419e-03
2.129784469545e-03
5.802440346528e-03
5.859814671380e-03
1.177867833389e-02
1.168509446809e-02
1.185265779299e-02
1.973771330143e-03
5.440556394142e-03
2.216291781670e-03
2.131270528991e-03
2.591511675461e-03
5.254784299122e-03
5.619786818173e-03
6.625422912120e-03
4.217044109866e-03
1.193989759122e-02
1.115362844010e-02
3.634352584373e-03
1.098997190026e-02
1.112947060440e-02
1.080899017275e-02
1.370400872107e-03
1.120581940795e-02
1.138969775962e-02
1.308702005332e-03
1.198713959625e-02
1.004627967730e-03
1.056934647304e-03
3.069160698131e-03
3.065640759544e-03
3.516853713123e-03
3.492149553714e-03
3.124740341725e-03
3.549265554325e-03
1.102471390576e-02
3.935276245431e-03
3.937570100914e-03
4.307640448035e-03
9.541294103543e-03
6.195125594657e-03
6.450012874587e-03
6.427775222402e-03
9.606554296206e-03
9.787853304628e-03
4.293092259631e-03
4.116637883719e-03
1.095685681251e-02
1.091649984500e-02
1.117331510859e-02
1.112304738379e-02
1.135203652643e-02
1.130195580196e-02
1.150925990765e-02
7.498192353980e-03
5.907970223230e-03
1.030145301407e-02
4.331158858914e-03
3.592280283664e-03
8.514776127236e-03
8.482259927069e-03
2.787884686448e-03
6.028027248365e-03
1.193471005902e-02
3.988640459345e-03
4.501066181306e-03
6.014064876704e-03
8.592795154874e-03
6.554685133855e-03
6.932572928161e-03
1.938406735179e-03
2.213252352175e-03
5.739588514179e-03
1.155242140915e-02
5.705343071082e-03
4.276333035990e-03
6.070902000620e-03
7.636224224555e-03
5.832302655246e-03
6.017809448969e-03
1.050447437518e-02
1.097558854834e-02
1.070719143979e-02
6.096618646844e-03
7.441221449943e-03
7.302552280046e-03
9.236613896713e-03
1.165834916891e-02
1.152778841870e-02
1.154027988738e-02
1.136395767506e-02
1.133056578537e-02
1.113149660901e-02
1.117939348675e-02
1.090654467799e-02
1.102356387802e-02
1.065431336877e-02
1.056059330598e-02
1.027401909246e-02
1.040151466807e-02
1.018622283843e-02
5.155950645623e-03
5.961713615018e-03
4.612669949234e-03
5.742942169555e-03
8.171872088651e-03
1.125381471695e-02
1.159371085403e-02
6.103982479153e-03
9.816450737586e-03
1.046467296308e-02
5.954704224428e-03
8.918376229298e-03
1.149677560203e-02
1.129786785498e-02
1.145369457173e-02
1.177593448720e-02
1.160143605583e-02
6.814813656074e-03
4.664588213056e-03
5.099749520616e-03
5.490166219753e-03
1.084031852302e-02
4.489284910361e-03
3.580724691036e-03
3.178764900567e-03
2.825767668973e-03
3.675620331812e-03
1.082132271819e-02
1.054617328074e-02
5.281183493209e-03
5.459750278055e-03
5.282267378202e-03
5.630302746425e-03
5.746255066333e-03
5.867502549071e-03
5.804711790490e-03
6.003882167385e-03
9.557538586805e-03
3.337707144498e-03
2.431946288200e-03
2.817876304385e-03
3.260170387366e-03
3.125799249335e-03
3.062105327818e-03
2.959163338910e-03
3.150555755138e-03
6.344539828355e-03
3.318748840496e-03
3.741275464384e-03
3.139303990402e-03
1.100344674787e-02
1.124733481319e-02
1.127267238968e-02
1.144714998099e-02
1.125967295340e-02
3.324329625573e-03
3.487979447354e-03
3.554649764825e-03
3.655194863922e-03
3.689970080965e-03
3.582709563041e-03
3.815348686707e-03
3.800750064920e-03
1.092462139186e-02
3.564610163674e-03
4.563113932131e-03
3.514194636973e-03
4.756583531249e-03
5.355492449912e-03
5.279131065084e-03
5.898407469912e-03
4.970067046512e-03
1.592336178861e-03
2.512288564054e-03
1.056855157700e-03
1.896020470945e-03
3.082007067888e-03
2.671486948521e-03
4.723329703429e-03
3.432448332017e-03
3.324797437340e-03
3.112676453487e-03
3.197603666359e-03
3.485722635346e-03
2.962697981391e-03
2.832567277927e-03
1.947998094032e-03
1.265050317960e-03
1.409558865790e-03
7.133124208695e-04
7.409016319161e-04
1.199851201817e-03
1.092740183996e-03
1.615243502005e-03
9.827921399624e-04
8.249470827108e-04
1.405345048581e-03
1.171440689465e-02
1.178904511163e-02
3.516909350109e-03
1.086471591071e-02
5.661537977314e-04
1.199873245205e-02
1.198631347116e-02
1.199124144472e-02
4.636531900621e-03
4.679562018763e-03
1.199789599962e-02
3.129075023449e-03
1.140968958136e-02
1.195999446480e-02
6.030034521003e-03
3.829844417812e-03
3.929605345410e-03
2.819833094942e-03
4.017962063045e-03
3.469933209858e-03
3.354897926563e-03
2.790710800136e-03
1.232784655518e-03
1.155336165286e-02
1.138839408014e-02
1.184430065191e-02
2.775586208842e-03
3.458225778252e-03
1.994118327230e-03
8.695815041185e-03
9.192068800595e-03
3.269693610974e-03
3.154275030544e-03
3.392682703554e-03
4.143590376020e-03
6.039522324775e-03
3.087474549159e-03
2.077516949269e-03
1.188315307691e-02
8.076427786266e-04
1.853383740588e-03
2.624178748426e-03
1.169254569280e-02
3.292204709866e-03
4.940441630529e-03
1.193498656556e-02
1.192073246505e-02
1.150297532366e-02
1.477095530358e-03
1.131635857015e-02
2.231094081090e-03
1.175048966247e-02
2.520653440945e-03
5.047215310235e-03
7.185754901296e-03
1.066580704424e-02
1.198490218610e-02
5.581755646962e-03
2.486047694868e-03
3.601874583511e-03
2.636451664108e-03
2.681684668672e-03
5.648607796240e-03
1.199812449071e-02
7.893249107406e-03
5.959023313944e-03
1.194750202102e-02
3.656363241943e-03
3.713290118644e-03
8.658047748827e-03
7.810324209316e-03
9.740341173841e-03
6.397853180433e-03
3.961653056960e-03
2.231174251317e-03
5.742717247387e-03
6.069349051070e-03
1.167667254491e-02
7.248845320119e-03
1.201754531280e-02
7.143509477009e-03
2.820074872319e-03
1.196845809377e-02
2.967745039060e-03
1.525217365675e-03
5.903721467765e-03
6.111497911452e-03
5.650788704194e-03
2.804637386890e-03
1.166602154820e-02
3.229816356326e-03
1.577396504738e-03
5.525816805772e-03
1.059009822488e-02
3.620453780404e-03
4.424080966515e-03
3.316878226799e-03
3.689749618722e-03
8.160504476826e-03
9.024922881460e-03
3.978437500304e-03
1.941460373707e-03
6.055174997478e-03
1.064437915365e-02
4.313573939006e-03
1.806526039010e-03
6.387183153237e-03
4.311021161648e-03
1.021077797857e-02
2.870895843534e-03
8.329124055190e-03
1.183403859455e-02
2.196211026222e-03
1.126638030185e-02
3.043685985540e-03
4.726465454115e-03
7.572043890579e-04
9.964646472252e-03
3.193878315760e-03
6.015996468821e-03
3.722812448429e-03
5.395267068722e-03
3.380883719238e-03
5.912102110219e-03
3.581706778205e-03
9.597148259675e-03
1.106996238619e-02
3.783992613320e-03
8.357257487108e-03
9.947532865753e-04
5.927708865877e-03
4.484965746135e-03
3.741677560520e-03
3.266948167147e-03
1.109297829964e-02
8.556824918402e-03
2.719644458133e-03
8.457479691318e-03
5.471942249225e-03
5.388410129913e-03
2.067967060911e-03
7.930915942973e-03
3.293215250592e-03
3.051638741262e-03
5.612013745443e-03
9.025840297625e-03
8.064806388094e-04
1.051369779604e-02
2.786961013228e-03
5.473239351783e-03
5.041124154052e-03
1.136553236379e-02
5.040327969199e-03
2.115985465338e-03
4.823132844325e-03
5.072934347253e-03
4.262215126784e-03
4.108652688740e-03
1.199274765925e-02
3.830998829829e-03
1.200683329966e-02
4.864312687530e-03
1.085877489130e-02
7.476154710280e-03
2.737201306849e-03
6.786145719620e-03
3.827155276709e-03
9.772037643218e-03
1.088109781634e-02
3.606743692306e-03
1.074373996161e-02
7.905929582923e-03
1.164895693864e-02
2.988189947852e-03
5.018860739013e-03
1.192294659320e-02
1.069778649234e-02
1.522222883025e-03
4.112166280424e-03
6.652964686279e-03
6.094911690382e-03
5.783968776808e-03
2.739531050920e-03
3.864729922880e-03
6.103890434288e-03
3.996307916302e-03
1.111620482941e-02
5.588744800300e-03
5.750384443114e-03
1.194426111873e-02
6.473135360160e-03
3.996059328496e-03
5.907703474671e-03
5.759468718504e-03
1.142834569137e-02
9.177158498859e-03
1.178262229358e-02
4.343388043536e-03
1.116116986483e-02
1.198405036513e-02
6.008947765479e-03
1.197843286307e-02
9.866158483542e-03
1.126012666708e-02
1.137019709249e-02
4.690500604332e-03
1.127118403755e-02
5.870786575570e-03
1.165925170582e-02
3.172650460610e-03
4.399423727759e-03
3.111043400742e-03
1.000403380866e-02
4.497345207118e-03
7.384186103615e-04
8.973566743574e-04
2.830876183866e-03
1.013481271719e-02
5.799679058496e-03
1.194439126418e-02
5.395304089577e-03
1.072989262201e-02
9.293875820589e-04
4.547714791617e-03
1.200001406598e-02
3.395132863400e-03
1.103282375111e-02
2.460822517651e-03
7.549674256712e-03
2.388977126390e-03
1.199939063006e-02
2.830290725747e-03
1.176251678005e-02
5.795178446811e-03
3.804291904862e-03
7.164325948525e-03
2.571273172261e-03
1.065777649878e-02
1.152376891546e-02
3.002738232822e-03
1.127011791336e-03
1.200657836483e-02
2.296387743022e-03
1.058287005746e-02
4.927989533100e-03
7.941865008586e-04
1.107090437040e-02
1.048091504106e-02
3.744218865584e-03
1.187352167860e-02
4.633748141840e-03
2.734136370048e-03
1.148344032217e-02
6.060078741284e-03
1.190179271247e-02
1.137542142348e-02
5.867737251807e-03
1.016902223226e-02
3.482315609187e-03
8.658943576493e-03
3.344834530576e-03
5.594937490049e-03
3.851983621929e-03
8.827007661813e-04
3.815078841767e-03
3.577885564124e-03
9.749413995329e-03
9.450882391120e-03
1.012272878050e-02
9.826992281264e-03
1.055996350662e-02
1.016567028653e-02


CELL_DATA 2039

SCALARS element_number int
LOOKUP_TABLE default
407
408
409
410
411
412
413
414
415
416
417
418
419
420
421
422
423
424
425
426
427
428
429
430
431
432
433
434
435
436
437
438
439
440
441
442
443
444
445
446
447
448
449
450
451
452
453
454
455
456
457
458
459
460
461
462
463
464
465
466
467
468
469
470
471
472
473
474
475
476
477
478
479
480
481
482
483
484
485
486
487
488
489
490
491
492
493
494
495
496
497
498
499
500
501
502
503
504
505
506
507
508
509
510
511
512
513
514
515
516
517
518
519
520
521
522
523
524
525
526
527
528
529
530
531
532
533
534
535
536
537
538
539
540
541
542
543
544
545
546
547
548
549
550
551
552
553
554
555
556
557
558
559
560
561
562
563
564
565
566
567
568
569
570
571
572
573
574
575
576
577
578
579
580
581
582
583
584
585
586
587
588
589
590
591
592
593
594
595
596
597
598
599
600
601
602
603
604
605
606
607
608
609
610
611
612
613
614
615
616
617
618
619
620
621
622
623
624
625
626
627
628
629
630
631
632
633
634
635
636
637
638
639
640
641
642
643
644
645
646
647
648
649
650
651
652
653
654
655
656
657
658
659
660
661
662
663
664
665
666
667
668
669
670
671
672
673
674
675
676
677
678
679
680
681
682
683
684
685
686
687
688
689
690
691
692
693
694
695
696
697
698
699
700
701
702
703
704
705
706
707
708
709
710
711
712
713
714
715
716
717
718
719
720
721
722
723
724
725
726
727
728
729
730
731
732
733
734
735
736
737
738
739
740
741
742
743
744
745
746
747
748
749
750
751
752
753
754
755
756
757
758
759
760
761
762
763
764
765
766
767
768
769
770
771
772
773
774
775
776
777
778
779
780
781
782
783
784
785
786
787
788
789
790
791
792
793
794
795
796
797
798
799
800
801
802
803
804
805
806
807
808
809
810
811
812
813
814
815
816
817
818
819
820
821
822
823
824
825
826
827
828
829
830
831
832
833
834
835
836
837
838
839
840
841
842
843
844
845
846
847
848
849
850
851
852
853
854
855
856
857
858
859
860
861
862
863
864
865
866
867
868
869
870
871
872
873
874
875
876
877
878
879
880
881
882
883
884
885
886
887
888
889
890
891
892
893
894
895
896
897
898
899
900
901
902
903
904
905
906
907
908
909
910
911
912
913
914
915
916
917
918
919
920
921
922
923
924
925
926
927
928
929
930
931
932
933
934
935
936
937
938
939
940
941
942
943
944
945
946
947
948
949
950
951
952
953
954
955
956
957
958
959
960
961
962
963
964
965
966
967
968
969
970
971
972
973
974
975
976
977
978
979
980
981
982
983
984
985
986
987
988
989
990
991
992
993
994
995
996
997
998
999
1000
1001
1002
1003
1004
1005
1006
1007
1008
1009
1010
1011
1012
1013
1014
1015
1016
1017
1018
1019
1020
1021
1022
1023
1024
1025
1026
1027
1028
1029
1030
1031
1032
1033
1034
1035
1036
1037
1038
1039
1040
1041
1042
1043
1044
1045
1046
1047
1048
1049
1050
1051
1052
1053
1054
1055
1056
1057
1058
1059
1060
1061
1062
1063
1064
1065
1066
1067
1068
1069
1070
1071
1072
1073
1074
1075
1076
1077
1078
1079
1080
1081
1082
1083
1084
1085
1086
1087
1088
1089
1090
1091
1092
1093
1094
1095
1096
1097
1098
1099
1100
1101
1102
1103
1104
1105
1106
1107
1108
1109
1110
1111
1112
1113
1114
1115
1116
1117
1118
1119
1120
1121
1122
1123
1124
1125
1126
1127
1128
1129
1130
1131
1132
1133
1134
1135
1136
1137
1138
1139
1140
1141
1142
1143
1144
1145
1146
1147
1148
1149
1150
1151
1152
1153
1154
1155
1156
1157
1158
1159
1160
1161
1162
1163
1164
1165
1166
1167
1168
1169
1170
1171
1172
1173
1174
1175
1176
1177
1178
1179
1180
1181
1182
1183
1184
1185
1186
1187
1188
1189
1190
1191
1192
1193
1194
1195
1196
1197
1198
1199
1200
1201
1202
1203
1204
1205
1206
1207
1208
1209
1210
1211
1212
1213
1214
1215
1216
1217
1218
1219
1220
1221
1222
1223
1224
1225
1226
1227
1228
1229
1230
1231
1232
1233
1234
1235
1236
1237
1238
1239
1240
1241
1242
1243
1244
1245
1246
1247
1248
1249
1250
1251
1252
1253
1254
1255
1256
1257
1258
1259
1260
1261
1262
1263
1264
1265
1266
1267
1268
1269
1270
1271
1272
1273
1274
1275
1276
1277
1278
1279
1280
1281
1282
1283
1284
1285
1286
1287
1288
1289
1290
1291
1292
1293
1294
1295
1296
1297
1298
1299
1300
1301
1302
1303
1304
1305
1306
1307
1308
1309
1310
1311
1312
1313
1314
1315
1316
1317
1318
1319
1320
1321
1322
1323
1324
1325
1326
1327
1328
1329
1330
1331
1332
1333
1334
1335
1336
1337
1338
1339
1340
1341
1342
1343
1344
1345
1346
1347
1348
1349
1350
1351
1352
1353
1354
1355
1356
1357
1358
1359
1360
1361
1362
1363
1364
1365
1366
1367
1368
1369
1370
1371
1372
1373
1374
1375
1376
1377
1378
1379
1380
1381
1382
1383
1384
1385
1386
1387
1388
1389
1390
1391
1392
1393
1394
1395
1396
1397
1398
1399
1400
1401
1402
1403
1404
1405
1406
1407
1408
1409
1410
1411
1412
1413
1414
1415
1416
1417
1418
1419
1420
1421
1422
1423
1424
1425
1426
1427
1428
1429
1430
1431
1432
1433
1434
1435
1436
1437
1438
1439
1440
1441
1442
1443
1444
1445
1446
1447
1448
1449
1450
1451
1452
1453
1454
1455
1456
1457
1458
1459
1460
1461
1462
1463
1464
1465
1466
1467
1468
1469
1470
1471
1472
1473
1474
1475
1476
1477
1478
1479
1480
1481
1482
1483
1484
1485
1486
1487
1488
1489
1490
1491
1492
1493
1494
1495
1496
1497
1498
1499
1500
1501
1502
1503
1504
1505
1506
1507
1508
1509
1510
1511
1512
1513
1514
1515
1516
1517
1518
1519
1520
1521
1522
1523
1524
1525
1526
1527
1528
1529
1530
1531
1532
1533
1534
1535
1536
1537
1538
1539
1540
1541
1542
1543
1544
1545
1546
1547
1548
1549
1550
1551
1552
1553
1554
1555
1556
1557
1558
1559
1560
1561
1562
1563
1564
1565
1566
1567
1568
1569
1570
1571
1572
1573
1574
1575
1576
1577
1578
1579
1580
1581
1582
1583
1584
1585
1586
1587
1588
1589
1590
1591
1592
1593
1594
1595
1596
1597
1598
1599
1600
1601
1602
1603
1604
1605
1606
1607
1608
1609
1610
1611
1612
1613
1614
1615
1616
1617
1618
1619
1620
1621
1622
1623
1624
1625
1626
1627
1628
1629
1630
1631
1632
1633
1634
1635
1636
1637
1638
1639
1640
1641
1642
1643
1644
1645
1646
1647
1648
1649
1650
1651
1652
1653
1654
1655
1656
1657
1658
1659
1660
1661
1662
1663
1664
1665
1666
1667
1668
1669
1670
1671
1672
1673
1674
1675
1676
1677
1678
1679
1680
1681
1682
1683
1684
1685
1686
1687
1688
1689
1690
1691
1692
1693
1694
1695
1696
1697
1698
1699
1700
1701
1702
1703
1704
1705
1706
1707
1708
1709
1710
1711
1712
1713
1714
1715
1716
1717
1718
1719
1720
1721
1722
1723
1724
1725
1726
1727
1728
1729
1730
1731
1732
1733
1734
1735
1736
1737
1738
1739
1740
1741
1742
1743
1744
1745
1746
1747
1748
1749
1750
1751
1752
1753
1754
1755
1756
1757
1758
1759
1760
1761
1762
1763
1764
1765
1766
1767
1768
1769
1770
1771
1772
1773
1774
1775
1776
1777
1778
1779
1780
1781
1782
1783
1784
1785
1786
1787
1788
1789
1790
1791
1792
1793
1794
1795
1796
1797
1798
1799
1800
1801
1802
1803
1804
1805
1806
1807
1808
1809
1810
1811
1812
1813
1814
1815
1816
1817
1818
1819
1820
1821
1822
1823
1824
1825
1826
1827
1828
1829
1830
1831
1832
1833
1834
1835
1836
1837
1838
1839
1840
1841
1842
1843
1844
1845
1846
1847
1848
1849
1850
1851
1852
1853
1854
1855
1856
1857
1858
1859
1860
1861
1862
1863
1864
1865
1866
1867
1868
1869
1870
1871
1872
1873
1874
1875
1876
1877
1878
1879
1880
1881
1882
1883
1884
1885
1886
1887
1888
1889
1890
1891
1892
1893
1894
1895
1896
1897
1898
1899
1900
1901
1902
1903
1904
1905
1906
1907
1908
1909
1910
1911
1912
1913
1914
1915
1916
1917
1918
1919
1920
1921
1922
1923
1924
1925
1926
1927
1928
1929
1930
1931
1932
1933
1934
1935
1936
1937
1938
1939
1940
1941
1942
1943
1944
1945
1946
1947
1948
1949
1950
1951
1952
1953
1954
1955
1956
1957
1958
1959
1960
1961
1962
1963
1964
1965
1966
1967
1968
1969
1970
1971
1972
1973
1974
1975
1976
1977
1978
1979
1980
1981
1982
1983
1984
1985
1986
1987
1988
1989
1990
1991
1992
1993
1994
1995
1996
1997
1998
1999
2000
2001
2002
2003
2004
2005
2006
2007
2008
2009
2010
2011
2012
2013
2014
2015
2016
2017
2018
2019
2020
2021
2022
2023
2024
2025
2026
2027
2028
2029
2030
2031
2032
2033
2034
2035
2036
2037
2038
2039
2040
2041
2042
2043
2044
2045
2046
2047
2048
2049
2050
2051
2052
2053
2054
2055
2056
2057
2058
2059
2060
2061
2062
2063
2064
2065
2066
2067
2068
2069
2070
2071
2072
2073
2074
2075
2076
2077
2078
2079
2080
2081
2082
2083
2084
2085
2086
2087
2088
2089
2090
2091
2092
2093
2094
2095
2096
2097
2098
2099
2100
2101
2102
2103
2104
2105
2106
2107
2108
2109
2110
2111
2112
2113
2114
2115
2116
2117
2118
2119
2120
2121
2122
2123
2124
2125
2126
2127
2128
2129
2130
2131
2132
2133
2134
2135
2136
2137
2138
2139
2140
2141
2142
2143
2144
2145
2146
2147
2148
2149
2150
2151
2152
2153
2154
2155
2156
2157
2158
2159
2160
2161
2162
2163
2164
2165
2166
2167
2168
2169
2170
2171
2172
2173
2174
2175
2176
2177
2178
2179
2180
2181
2182
2183
2184
2185
2186
2187
2188
2189
2190
2191
2192
2193
2194
2195
2196
2197
2198
2199
2200
2201
2202
2203
2204
2205
2206
2207
2208
2209
2210
2211
2212
2213
2214
2215
2216
2217
2218
2219
2220
2221
2222
2223
2224
2225
2226
2227
2228
2229
2230
2231
2232
2233
2234
2235
2236
2237
2238
2239
2240
2241
2242
2243
2244
2245
2246
2247
2248
2249
2250
2251
2252
2253
2254
2255
2256
2257
2258
2259
2260
2261
2262
2263
2264
2265
2266
2267
2268
2269
2270
2271
2272
2273
2274
2275
2276
2277
2278
2279
2280
2281
2282
2283
2284
2285
2286
2287
2288
2289
2290
2291
2292
2293
2294
2295
2296
2297
2298
2299
2300
2301
2302
2303
2304
2305
2306
2307
2308
2309
2310
2311
2312
2313
2314
2315
2316
2317
2318
2319
2320
2321
2322
2323
2324
2325
2711
2712
2713
2714
2715
2716
2717
2718
2719
2720
2721
2722
2723
2724
2725
2726
2727
2728
2729
2730
2731
2732
2733
2734
2735
2736
2737
2738
2739
2740
2741
2742
2743
2744
2745
2746
2747
2748
2749
2750
2751
2752
2753
2754
2755
2756
2757
2758
2759
2760
2761
2762
2763
2764
2765
2766
2767
2768
2769
2770
2771
2772
2773
2774
2775
2776
2777
2778
2779
2780
2781
2782
2783
2784
2785
2786
2787
2788
2789
2790
2791
2792
2793
2794
2795
2796
2797
2798
2799
2800
2801
2802
2803
2804
2805
2806
2807
2808
2809
2810
2811
2812
2813
2814
2815
2816
2817
2818
2819
2820
2821
2822
2823
2824
2825
2826
2827
2828
2829
2830

SCALARS element_group int
LOOKUP_TABLE default
0
0
0
0
0
0
0
0
0
0
0
0
0
0
0
0
0
0
0
0
0
0
0
0
0
0
0
0
0
0
0
0
0
0
0
0
0
0
0
0
0
0
0
0
0
0
0
0
0
0
0
0
0
0
0
0
0
0
0
0
0
0
0
0
0
0
0
0
0
0
0
0
0
0
0
0
0
0
0
0
0
0
0
0
0
0
0
0
0
0
0
0
0
0
0
0
0
0
0
0
0
0
0
0
0
0
0
0
0
0
0
0
0
0
0
0
0
0
0
0
0
0
0
0
0
0
0
0
0
0
0
0
0
0
0
0
0
0
0
0
0
0
0
0
0
0
0
0
0
0
0
0
0
0
0
0
0
0
0
0
0
0
0
0
0
0
0
0
0
0
0
0
0
0
0
0
0
0
0
0
0
0
0
0
0
0
0
0
0
0
0
0
0
0
0
0
0
0
0
0
0
0
0
0
0
0
0
0
0
0
0
0
0
0
0
0
0
0
0
0
0
0
0
0
0
0
0
0
0
0
0
0
0
0
0
0
0
0
0
0
0
0
0
0
0
0
0
0
0
0
0
0
0
0
0
0
0
0
0
0
0
0
0
0
0
0
0
0
0
0
0
0
0
0
0
0
0
0
0
0
0
0
0
0
0
0
0
0
0
0
0
0
0
0
0
0
0
0
0
0
0
0
0
0
0
0
0
0
0
0
0
0
0
0
0
0
0
0
0
0
0
0
0
0
0
0
0
0
0
0
0
0
0
0
0
0
0
0
0
0
0
0
0
0
0
0
0
0
0
0
0
0
0
0
0
0
0
0
0
0
0
0
0
0
0
0
0
0
0
0
0
0
0
0
0
0
0
0
0
0
0
0
0
0
0
0
0
0
0
0
0
0
0
0
0
0
0
0
0
0
0
0
0
0
0
0
0
0
0
0
0
0
0
0
0
0
0
0
0
0
0
0
0
0
0
0
0
0
0
0
0
0
0
0
0
0
0
0
0
0
0
0
0
0
0
0
0
0
0
0
0
0
0
0
0
0
0
0
0
0
0
0
0
0
0
0
0
0
0
0
0
0
0
0
0
0
0
0
0
0
0
0
0
0
0
0
0
0
0
0
0
0
0
0
0
0
0
0
0
0
0
0
0
0
0
0
0
0
0
0
0
0
0
0
0
0
0
0
0
0
0
0
0
0
0
0
0
0
0
0
0
0
0
0
0
0
0
0
0
0
0
0
0
0
0
0
0
0
0
0
0
0
0
0
0
0
0
0
0
0
0
0
0
0
0
0
0
0
0
0
0
0
0
0
0
0
0
0
0
0
0
0
0
0
0
0
0
0
0
0
0
0
0
0
0
0
0
0
0
0
0
0
0
0
0
0
0
0
0
0
0
0
0
0
0
0
0
0
0
0
0
0
0
0
0
0
0
0
0
0
0
0
0
0
0
0
0
0
0
0
0
0
0
0
0
0
0
0
0
0
0
0
0
0
0
0
0
0
0
0
0
0
0
0
0
0
0
0
0
0
0
0
0
0
0
0
0
0
0
0
0
0
0
0
0
0
0
0
0
0
0
0
0
0
0
0
0
0
0
0
0
0
0
0
0
0
0
0
0
0
0
0
0
0
0
0
0
0
0
0
0
0
0
0
0
0
0
0
0
0
0
0
0
0
0
0
0
0
0
0
0
0
0
0
0
0
0
0
0
0
0
0
0
0
0
0
0
0
0
0
0
0
0
0
0
0
0
0
0
0
0
0
0
0
0
0
0
0
0
0
0
0
0
0
0
0
0
0
0
0
0
0
0
0
0
0
0
0
0
0
0
0
0
0
0
0
0
0
0
0
0
0
0
0
0
0
0
0
0
0
0
0
0
0
0
0
0
0
0
0
0
0
0
0
0
0
0
0
0
0
0
0
0
0
0
0
0
0
0
0
0
0
0
0
0
0
0
0
0
0
0
0
0
0
0
0
0
0
0
0
0
0
0
0
0
0
0
0
0
0
0
0
0
0
0
0
0
0
0
0
0
0
0
0
0
0
0
0
0
0
0
0
0
0
0
0
0
0
0
0
0
0
0
0
0
0
0
0
0
0
0
0
0
0
0
0
0
0
0
0
0
0
0
0
0
0
0
0
0
0
0
0
0
0
0
0
0
0
0
0
0
0
0
0
0
0
0
0
0
0
0
0
0
0
0
0
0
0
0
0
0
0
0
0
0
0
0
0
0
0
0
0
0
0
0
0
0
0
0
0
0
0
0
0
0
0
0
0
0
0
0
0
0
0
0
0
0
0
0
0
0
0
0
0
0
0
0
0
0
0
0
0
0
0
0
0
0
0
0
0
0
0
0
0
0
0
0
0
0
0
0
0
0
0
0
0
0
0
0
0
0
0
0
0
0
0
0
0
0
0
0
0
0
0
0
0
0
0
0
0
0
0
0
0
0
0
0
0
0
0
0
0
0
0
0
0
0
0
0
0
0
0
0
0
0
0
0
0
0
0
0
0
0
0
0
0
0
0
0
0
0
0
0
0
0
0
0
0
0
0
0
0
0
0
0
0
0
0
0
0
0
0
0
0
0
0
0
0
0
0
0
0
0
0
0
0
0
0
0
0
0
0
0
0
0
0
0
0
0
0
0
0
0
0
0
0
0
0
0
0
0
0
0
0
0
0
0
0
0
0
0
0
0
0
0
0
0
0
0
0
0
0
0
0
0
0
0
0
0
0
0
0
0
0
0
0
0
0
0
0
0
0
0
0
0
0
0
0
0
0
0
0
0
0
0
0
0
0
0
0
0
0
0
0
0
0
0
0
0
0
0
0
0
0
0
0
0
0
0
0
0
0
0
0
0
0
0
0
0
0
0
0
0
0
0
0
0
0
0
0
0
0
0
0
0
0
0
0
0
0
0
0
0
0
0
0
0
0
0
0
0
0
0
0
0
0
0
0
0
0
0
0
0
0
0
0
0
0
0
0
0
0
0
0
0
0
0
0
0
0
0
0
0
0
0
0
0
0
0
0
0
0
0
0
0
0
0
0
0
0
0
0
0
0
0
0
0
0
0
0
0
0
0
0
0
0
0
0
0
0
0
0
0
0
0
0
0
0
0
0
0
0
0
0
0
0
0
0
0
0
0
0
0
0
0
0
0
0
0
0
0
0
0
0
0
0
0
0
0
0
0
0
0
0
0
0
0
0
0
0
0
0
0
0
0
0
0
0
0
0
0
0
0
0
0
0
0
0
0
0
0
0
0
0
0
0
0
0
0
0
0
0
0
0
0
0
0
0
0
0
0
0
0
0
0
0
0
0
0
0
0
0
0
0
0
0
0
0
0
0
0
0
0
0
0
0
0
0
0
0
0
0
0
0
0
0
0
0
0
0
0
0
0
0
0
0
0
0
0
0
0
0
0
0
0
0
0
0
0
0
0
0
0
0
0
0
0
0
0
0
0
0
0
0
0
0
0
0
0
0
0
0
0
0
0
0
0
0
0
0
0
0
0
0
0
0
0
0
0
0
0
0
0
0
0
0
0
0
0
0
0
0
0
0
0
0
0
0
0
0
0
0
0
0
0
0
0
0
0
0
0
0
0
0
0
0
0
0
0
0
0
0
0
0
0
0
0
0
0
0
0
0
0
0
0
0
0
0
0
0
0
0
0
0
0
0
0
0
0
0
0
0
0
0
0
0
0
0
0
0
0
0
0
0
0
0
0
0
0
0
0
0
0
0
0
0
0
0
0
0
0
0
0
0
0
0
0
0
0
0
0
0
0
0
0
0
0
0
0
0
0
0
0
0
0
0
0
0
0
0
0
0
0
0
0
0
0
0
0
0
0
0
0
0
0
0
0
0
0
0
0
0
0
0
0
0
0
0
0
0
0
0
0
0
0
0
0
0
0
0
0
0
0
0
0
0
0
0
0
0
0
0
0
0
0
0
0
0
0
0
0
0
0
0
0
0
0
0
0
0
0
0
0
0
0
0
0
0
0
0
0
0
0
0
0
0
0
0
0
0
0
0
0
0
0
0
0
0
0
0
0
0
0
0
0
0
0
0
0
0
0
0
0
0
0
0
0
0
0
0
0
0
0
0
0
0
0
0
0
0
0
0
0
0
0
0
0
0
0
0
0
0
0
0
0
0
0
0
0
0
0
0
0
0
0
0
0
0
0
0
0
0
0
0
0
0
0
0
0
0
0
0
0
0
0
0
0
0
0
0
0
0
0
0
0
0
0
0
0
0
0
0
0
0
0
0
0
0
0
0
0
0
0
0
0
0
0
0
0
0
0
0
0
0
0
0
0
0
0
0
0
0
0
0
0
0
0
0
0
0
0
0
0
0
0
0
0
0
0
0
0
0
0
0
0
0
0
0
0
0
0
0
0
0
0
0
0
0
0
0
0
0
0
0
0
0
0
0
0
0
0
0
0
0
0
0
0
0
0
0
0
0
0
0
0
0
0
0
0
0
0
0
0
0
0
0
0
0
0
0
0
0
0
0
0
0
0
0
0
0
0
0
0
0
0
0
0
0
0
0
0
0
0
0
0
0
0
0
0
0
0
0
0
0
0
0
0
0
0
0
0
0
0
0
0
0
0
0
0
0
0
0
0
0
0
0
0
0
0


VECTORS element_materi_velocity float
1.126382281627e-03 2.457174713033e-03 0.0 
1.151579669644e-03 2.152625141179e-03 0.0 
8.183817465153e-04 7.448463189977e-04 0.0 
1.137156040212e-04 1.490932940141e-03 0.0 
9.780606283419e-04 8.398361917794e-03 0.0 
2.660989829412e-04 6.241808883156e-05 0.0 
7.388057915625e-04 8.346619961579e-03 0.0 
9.433092591622e-04 1.826708408524e-03 0.0 
8.162099525812e-04 8.393248695521e-03 0.0 
1.676192764328e-04 1.524648684633e-03 0.0 
6.456608623206e-05 -1.106163452807e-04 0.0 
7.428682697248e-04 1.798684537801e-03 0.0 
2.724556427349e-05 -1.105892065993e-06 0.0 
1.557886557191e-03 7.291853348084e-03 0.0 
2.238281999476e-05 8.970417169970e-07 0.0 
9.243131589641e-05 1.052002785095e-03 0.0 
1.244880595119e-03 8.656547559092e-03 0.0 
2.854302279298e-04 5.674242029142e-07 0.0 
5.913797975257e-05 -3.495434639953e-04 0.0 
4.552049595163e-05 -3.414840434794e-04 0.0 
2.000498123281e-04 1.561067752328e-03 0.0 
1.715049138659e-03 3.569432854464e-03 0.0 
1.851778819733e-03 3.673230127625e-03 0.0 
4.338085499551e-04 4.373977856212e-05 0.0 
1.886731797127e-03 6.089283386558e-03 0.0 
7.067219020918e-05 -9.537791548584e-05 0.0 
1.875383650445e-03 8.786924666108e-03 0.0 
7.692655615438e-04 2.911559354780e-04 0.0 
2.003117745359e-03 5.988452769979e-03 0.0 
3.521826959031e-04 3.919595589778e-05 0.0 
3.740576475612e-04 -3.023337924719e-04 0.0 
2.408356185827e-04 -4.167322754633e-04 0.0 
9.549094708230e-04 9.383834413279e-04 0.0 
1.951946923046e-05 -3.362569420550e-05 0.0 
1.566216173302e-04 7.811298280404e-06 0.0 
4.247104262699e-05 2.293852751505e-06 0.0 
3.870106963210e-05 1.991821575598e-06 0.0 
4.806378245642e-04 1.024588631645e-04 0.0 
5.998290655030e-04 9.315584719327e-03 0.0 
5.462052958823e-04 9.328759677290e-03 0.0 
2.233848077116e-03 5.468860787180e-03 0.0 
1.571318766110e-04 1.381565322095e-05 0.0 
4.893849803476e-04 1.231928257759e-03 0.0 
2.023781361373e-03 8.320504908321e-03 0.0 
5.976450566875e-05 2.116470645033e-03 0.0 
5.043379401380e-04 1.053271444529e-03 0.0 
3.310433905397e-04 -2.999429265609e-04 0.0 
6.828007559110e-05 1.795972215507e-03 0.0 
2.694166821789e-04 -3.219545030091e-04 0.0 
1.494189674000e-03 7.783432006421e-03 0.0 
2.030157386507e-03 4.515733358739e-03 0.0 
5.779196550671e-05 -3.300367303232e-04 0.0 
4.929958117850e-04 -2.853456409078e-04 0.0 
2.040102950743e-03 5.340264145365e-03 0.0 
6.572956889384e-04 8.942262906539e-04 0.0 
9.724604160997e-05 -2.970037813060e-04 0.0 
4.573656230485e-05 -3.214123302912e-04 0.0 
3.959235108032e-05 -3.430494489895e-05 0.0 
1.319779893303e-04 -3.738849286681e-04 0.0 
1.114075744367e-04 1.059973717345e-03 0.0 
2.157411251069e-04 -2.385024646946e-04 0.0 
9.803278055861e-04 2.928777354762e-04 0.0 
1.722366009989e-03 1.596899586703e-03 0.0 
4.505579222762e-04 -2.968094749395e-04 0.0 
4.457417596136e-05 -6.873659884815e-07 0.0 
1.881011361794e-03 4.378170607404e-03 0.0 
2.233555187409e-04 -2.100847054171e-04 0.0 
9.806341042589e-04 8.532876731008e-04 0.0 
3.416981036023e-04 -3.932950048622e-04 0.0 
7.798291477839e-04 4.360559908652e-04 0.0 
1.055849302610e-04 -8.064709264503e-05 0.0 
1.156186019957e-04 2.863206708747e-04 0.0 
1.006880194722e-03 3.844565507552e-04 0.0 
1.009173064448e-05 -3.833265216977e-04 0.0 
8.616924778072e-05 -2.861566643980e-04 0.0 
4.002594838188e-04 1.344935089481e-03 0.0 
8.090635289079e-04 1.067164439410e-03 0.0 
3.200878731075e-04 6.333559851855e-04 0.0 
1.474361392790e-04 -3.719946892759e-04 0.0 
3.016973755543e-04 7.595293148072e-04 0.0 
3.565654040938e-04 -3.877276646829e-04 0.0 
1.188746360572e-03 8.409417336762e-03 0.0 
1.601286280808e-03 2.992880062585e-03 0.0 
1.369894132690e-03 2.888991206035e-03 0.0 
9.421381770822e-04 7.826471856737e-03 0.0 
8.626001124972e-04 7.803393461318e-03 0.0 
6.139870922459e-05 -6.812235945454e-05 0.0 
1.058200661575e-05 -4.317791613753e-05 0.0 
2.215488936403e-03 2.298343767446e-03 0.0 
1.054303242461e-03 8.350123750831e-03 0.0 
2.529542621987e-04 -4.143834367419e-04 0.0 
2.073893324657e-03 7.590651013421e-03 0.0 
1.748832715440e-04 4.246482490290e-03 0.0 
2.106151929667e-04 4.593375771200e-03 0.0 
2.305452620049e-04 5.273434079929e-04 0.0 
3.506715821488e-04 8.026632780556e-05 0.0 
1.333541015892e-03 8.389126753702e-03 0.0 
1.794983863133e-04 1.317505102025e-05 0.0 
1.227997001534e-04 6.754847918730e-03 0.0 
1.612233335095e-03 1.750810385136e-03 0.0 
9.312442160018e-04 8.895456509976e-03 0.0 
2.880152504013e-05 1.002833631602e-06 0.0 
1.514613787716e-03 3.512873521359e-04 0.0 
9.419791343632e-04 2.636158779857e-04 0.0 
1.180986631753e-03 7.886928178936e-04 0.0 
3.084034932720e-04 -3.242155859366e-04 0.0 
3.211563532742e-05 -1.030284422560e-05 0.0 
1.791033124960e-04 3.656244735199e-03 0.0 
2.429948639211e-04 -2.968925478211e-04 0.0 
5.377827752627e-05 2.057073799964e-06 0.0 
2.390462566531e-03 2.522245820497e-03 0.0 
1.803005469533e-05 -3.895984119540e-04 0.0 
1.710576000767e-03 6.881131210746e-04 0.0 
2.437936590571e-03 7.455479412253e-03 0.0 
1.467299502740e-04 -2.507498283195e-04 0.0 
1.401128905360e-03 1.614999701560e-03 0.0 
1.646261777636e-03 1.349073992916e-03 0.0 
1.102976147870e-04 7.588731138225e-06 0.0 
1.543312240969e-04 7.172150644679e-03 0.0 
1.456783171890e-03 1.241747056280e-03 0.0 
2.967584176295e-04 -3.997432544102e-04 0.0 
2.131063643620e-03 7.716597941469e-03 0.0 
1.421261167890e-04 3.350315817755e-03 0.0 
1.399865900825e-03 1.041446849239e-03 0.0 
2.060409198564e-04 3.366782648209e-04 0.0 
2.460926202028e-03 6.933333430464e-03 0.0 
1.284685434512e-04 -2.574183613518e-04 0.0 
2.307344700476e-03 7.066464375148e-03 0.0 
3.067516326078e-04 9.472963200753e-04 0.0 
2.802188820843e-04 2.839785296417e-04 0.0 
9.933063435191e-05 -9.433740944950e-05 0.0 
8.980875266866e-05 1.476334830530e-03 0.0 
2.504172399988e-03 3.000389623080e-03 0.0 
2.380699694445e-03 6.351595678395e-03 0.0 
1.701462671041e-04 9.498725982916e-06 0.0 
1.865480723215e-05 -1.119527855616e-06 0.0 
8.666920747499e-05 -6.807252306182e-05 0.0 
2.646459406691e-03 3.118911617443e-03 0.0 
2.415857798924e-04 2.788197846085e-05 0.0 
2.494849124821e-03 3.802718286600e-03 0.0 
2.318242887192e-04 1.077275860182e-03 0.0 
9.271420119332e-04 5.547095188045e-04 0.0 
1.659016067443e-03 7.191273745616e-03 0.0 
3.995822276233e-04 5.575761812295e-03 0.0 
2.420538456338e-03 3.298250899801e-03 0.0 
2.197484169003e-03 6.327776089517e-03 0.0 
2.684289213681e-03 2.817035489558e-03 0.0 
1.437239666028e-03 7.781612424569e-04 0.0 
6.956700443761e-04 8.835454654754e-03 0.0 
1.631007818763e-03 5.549279101286e-04 0.0 
2.369790891964e-04 -4.148322711184e-04 0.0 
1.714011469541e-04 8.083001521752e-03 0.0 
5.290419188529e-05 -3.598732601248e-04 0.0 
2.472087071475e-03 7.289217766922e-03 0.0 
1.923968099215e-04 2.213912077970e-05 0.0 
1.224968550243e-03 9.537674864453e-04 0.0 
4.620177684959e-05 -5.565760123677e-05 0.0 
6.451440774260e-04 1.347662169282e-03 0.0 
1.584971586106e-03 4.072378875440e-04 0.0 
3.977861228284e-04 8.510815998289e-03 0.0 
1.504678381035e-03 4.954482451991e-04 0.0 
4.430042777502e-05 -2.525814511018e-05 0.0 
3.130056878557e-04 -3.987647982004e-04 0.0 
4.506656010427e-05 -1.025668727237e-05 0.0 
2.797638924630e-03 5.856866618336e-03 0.0 
6.149002839448e-05 9.835523101984e-07 0.0 
1.681686387169e-04 8.584857899983e-03 0.0 
1.282148773644e-03 7.064802367236e-04 0.0 
2.357354056581e-03 7.738151768735e-03 0.0 
4.146799972082e-05 -1.143318101999e-04 0.0 
6.180682044322e-04 1.560287118293e-03 0.0 
1.440488399638e-03 3.853409671407e-04 0.0 
3.530117248173e-04 5.048219074654e-03 0.0 
4.502552621848e-04 8.850675448303e-03 0.0 
1.511233352505e-03 6.957302210029e-04 0.0 
2.356556249529e-03 7.515445093430e-03 0.0 
1.898302805904e-03 1.269860714247e-03 0.0 
1.483837154946e-04 -2.325219310181e-04 0.0 
6.023158895472e-04 2.153594455003e-04 0.0 
9.163222192517e-04 4.906393014349e-04 0.0 
1.279395367669e-03 1.746697329044e-03 0.0 
1.306961062953e-04 -2.224594528151e-04 0.0 
6.826439250794e-04 7.249234816524e-05 0.0 
2.377119679302e-03 4.189476214848e-03 0.0 
1.055757633793e-03 1.602378156841e-03 0.0 
2.593887929010e-03 6.834857236497e-03 0.0 
1.656805067290e-03 7.667613606773e-04 0.0 
1.659980474878e-04 1.145870245873e-03 0.0 
2.246408615929e-03 2.961268045923e-03 0.0 
3.067115552943e-05 -1.701408820450e-05 0.0 
3.990499583175e-04 8.239872747184e-04 0.0 
1.268355601804e-03 2.428967418839e-04 0.0 
2.172448818299e-03 2.422325075656e-03 0.0 
4.811454903401e-05 1.016994551989e-04 0.0 
2.418648096876e-03 4.849323884450e-03 0.0 
7.029131582402e-04 2.328224366204e-05 0.0 
1.713515226621e-04 -3.951812085626e-04 0.0 
9.204931096113e-04 1.093444947721e-03 0.0 
2.155553537025e-03 4.774698842757e-03 0.0 
5.477983386230e-04 -2.738529569540e-04 0.0 
7.455615420918e-04 3.489738905979e-05 0.0 
2.125273176625e-03 7.079262246446e-03 0.0 
1.830431967152e-03 6.593423657247e-03 0.0 
3.275659860659e-04 3.337438105709e-05 0.0 
3.943240065914e-04 -3.331176150425e-04 0.0 
2.614333096753e-03 2.220095075443e-03 0.0 
2.918803732730e-03 4.902646608872e-03 0.0 
2.034702341246e-03 4.379550408640e-03 0.0 
2.790379261765e-03 5.672184264837e-03 0.0 
2.695772896071e-03 6.438891878627e-03 0.0 
1.601874239336e-03 2.905068573018e-04 0.0 
2.094400792313e-03 1.508026759758e-03 0.0 
1.452246953332e-04 3.845638689857e-05 0.0 
1.370776923877e-03 2.076692689135e-03 0.0 
1.703396436947e-03 2.064808302843e-03 0.0 
2.598479816541e-03 2.458494333783e-03 0.0 
2.062905925564e-03 2.661129607382e-03 0.0 
4.267341924426e-04 4.268620335976e-05 0.0 
6.931267511145e-04 -4.382827782825e-06 0.0 
5.078970238429e-04 8.725646211129e-03 0.0 
1.321834302437e-03 3.347313417208e-04 0.0 
6.716426965063e-04 -3.231878798052e-05 0.0 
2.092453169151e-04 -4.100402019422e-04 0.0 
1.996645021477e-03 3.884670633823e-03 0.0 
1.990995267744e-04 -4.124779675495e-04 0.0 
1.604739365931e-04 -3.881814677737e-04 0.0 
3.846013187916e-04 9.732947105761e-04 0.0 
3.651419078484e-04 -3.566433345541e-04 0.0 
1.840085541824e-03 3.492525541023e-03 0.0 
3.624021011976e-04 -3.671813034045e-04 0.0 
6.303441195469e-04 5.497829581920e-04 0.0 
4.421053509776e-04 -3.475344256616e-04 0.0 
3.036516228853e-04 -3.930253745311e-04 0.0 
7.438298475228e-04 6.225955784183e-05 0.0 
2.867393737334e-03 5.435480035791e-03 0.0 
5.320613529386e-05 -4.943918825716e-07 0.0 
8.666181162918e-05 4.405689140665e-05 0.0 
8.545849632801e-04 5.260120682221e-04 0.0 
1.490954737248e-03 3.378930005717e-04 0.0 
2.182374095306e-03 3.984482330952e-03 0.0 
7.367531674095e-04 5.951178926262e-06 0.0 
6.672184862020e-05 2.085156189083e-06 0.0 
2.341837916481e-03 3.396922051205e-03 0.0 
9.450968477024e-04 1.256874199096e-04 0.0 
7.016976011011e-04 4.924109102158e-05 0.0 
5.165598786791e-05 -8.173743507408e-05 0.0 
2.778533576161e-03 2.890006686547e-03 0.0 
2.235257796908e-03 4.154927237236e-03 0.0 
8.369060779509e-04 2.604311130802e-04 0.0 
1.424352858390e-03 2.483725575077e-04 0.0 
7.484767804871e-04 5.998326466932e-04 0.0 
2.795325223823e-03 4.912965091995e-03 0.0 
1.866729118351e-04 4.881163674434e-04 0.0 
2.523639496753e-03 1.931820191760e-03 0.0 
1.535871913213e-03 1.740862203449e-04 0.0 
3.900982979848e-04 7.906714386636e-03 0.0 
3.412940610237e-04 -3.867219313456e-04 0.0 
2.701843125872e-03 6.006863282120e-03 0.0 
9.783255041898e-04 2.049612460046e-04 0.0 
5.763435342587e-04 1.604392519493e-05 0.0 
4.084921435004e-04 -2.824979171614e-04 0.0 
1.744238534897e-03 3.568076384644e-03 0.0 
2.900134592619e-03 4.771598077938e-03 0.0 
1.510974874719e-03 9.480531864203e-04 0.0 
1.576489815048e-03 3.153379966684e-03 0.0 
2.304606308867e-03 2.823305267225e-03 0.0 
2.899524333611e-03 3.304040464865e-03 0.0 
7.740082291838e-05 4.291785685795e-06 0.0 
1.510523952268e-03 1.548190811864e-04 0.0 
2.950880587215e-03 3.664842195620e-03 0.0 
1.838421528197e-03 7.554055632985e-04 0.0 
1.550887615949e-03 1.919566950375e-04 0.0 
7.277552231943e-04 6.647228561254e-07 0.0 
1.867789971283e-03 7.916916997596e-03 0.0 
1.387763335860e-03 1.404216230897e-04 0.0 
7.607500228179e-04 -2.289918320211e-04 0.0 
2.266121537283e-03 3.537657034937e-03 0.0 
7.545505559349e-05 -6.778987980851e-06 0.0 
2.673393789735e-03 5.738804547799e-03 0.0 
1.010759261502e-03 8.783893448610e-05 0.0 
8.325102082560e-04 4.109827809465e-04 0.0 
7.066953380210e-04 -5.667820820164e-05 0.0 
2.796657905597e-03 4.412238102915e-03 0.0 
2.684501092839e-04 -4.101828794741e-04 0.0 
1.978959094635e-03 2.567647490177e-03 0.0 
1.503387682006e-03 1.736705372287e-04 0.0 
2.841464934358e-03 5.119749151357e-03 0.0 
1.920261365669e-03 7.293626464532e-03 0.0 
3.576284214017e-04 -3.872581351158e-05 0.0 
7.941824927893e-04 -2.002524299959e-04 0.0 
6.681677527085e-04 -2.720628037196e-04 0.0 
1.583673563420e-03 2.258992979357e-03 0.0 
2.326717785378e-03 4.015812215249e-03 0.0 
1.897779440083e-03 2.204257999299e-03 0.0 
1.298502991838e-03 1.006007452358e-04 0.0 
1.320407820148e-03 2.039859242399e-04 0.0 
4.227136541576e-04 -2.060833610078e-05 0.0 
1.865639169120e-03 6.791367132598e-04 0.0 
4.291725205561e-04 4.595647472260e-04 0.0 
3.394855317646e-04 4.370731839754e-04 0.0 
4.174868850487e-04 4.165830543190e-04 0.0 
2.521562589298e-03 1.744681800687e-03 0.0 
8.447567030608e-04 9.371895427475e-05 0.0 
7.046314497221e-04 2.732601785260e-04 0.0 
2.923188623938e-03 3.277282932795e-03 0.0 
7.705170877027e-04 1.372624163752e-04 0.0 
6.975378523898e-04 -2.483354829410e-04 0.0 
2.844691301318e-03 3.272565208447e-03 0.0 
3.014696181676e-04 1.307902490779e-03 0.0 
1.157977123536e-03 2.004172361491e-04 0.0 
1.680327020845e-03 3.513779655446e-04 0.0 
5.221952395130e-04 3.966929156583e-04 0.0 
1.244793133452e-04 1.961661872704e-05 0.0 
7.911252556338e-04 2.185665282153e-04 0.0 
2.775575713986e-03 2.598569148435e-03 0.0 
4.921170216905e-04 -6.379206121699e-05 0.0 
1.050435367819e-03 -5.028530333469e-06 0.0 
1.455990788491e-03 2.130931522309e-04 0.0 
6.949114461752e-04 -2.746166161395e-04 0.0 
2.949081054078e-03 4.496302480533e-03 0.0 
3.793339722263e-04 2.584288731123e-04 0.0 
1.165015983570e-03 9.068567242734e-05 0.0 
1.427853283762e-03 1.256849012264e-04 0.0 
5.199340489101e-04 2.992422354952e-04 0.0 
1.377444051384e-03 5.764605741513e-03 0.0 
7.150250454957e-04 -2.357646869527e-05 0.0 
9.063463797652e-04 8.021169670339e-04 0.0 
1.345554259497e-03 6.280452495144e-03 0.0 
3.756845540399e-04 1.831017963210e-04 0.0 
6.239843748073e-04 3.449365463950e-06 0.0 
4.049143081999e-04 3.119946676256e-04 0.0 
1.660072424507e-03 6.187254382885e-03 0.0 
2.415231533542e-03 2.365135347136e-03 0.0 
6.436471792280e-04 8.168159005139e-04 0.0 
2.878377700880e-03 5.057599793435e-03 0.0 
2.955994266332e-03 4.033309344942e-03 0.0 
2.931147352782e-03 3.947674179770e-03 0.0 
2.322484400035e-03 1.596265245944e-03 0.0 
3.378253141241e-04 1.342317986705e-04 0.0 
2.073276433472e-03 6.363573191058e-03 0.0 
2.607217821676e-03 6.587510993489e-03 0.0 
1.262785406228e-03 1.288856411092e-04 0.0 
3.346208473444e-04 -3.766880110205e-04 0.0 
2.732940003101e-03 6.129373680129e-03 0.0 
1.022754636878e-03 7.180399461273e-04 0.0 
3.391187139844e-04 8.819061229027e-03 0.0 
6.624779903329e-04 -2.921287950073e-04 0.0 
1.112259919223e-03 1.233064498233e-04 0.0 
2.020482113540e-03 3.310478090822e-03 0.0 
9.874728925448e-04 5.794230893184e-04 0.0 
2.932135620213e-03 4.550436777245e-03 0.0 
1.372070654608e-03 1.150408672847e-04 0.0 
7.017481575960e-04 -1.542777731630e-04 0.0 
2.501057971975e-04 7.469103264845e-05 0.0 
2.582222210085e-03 4.997012517686e-03 0.0 
7.866906778345e-04 -1.517490120819e-04 0.0 
5.528466197675e-04 -2.884511248275e-04 0.0 
9.907829463778e-04 1.363684212867e-03 0.0 
9.347874205986e-04 9.660737293521e-04 0.0 
1.971432235620e-03 2.156802329055e-03 0.0 
2.823843323454e-03 2.635956495250e-03 0.0 
2.120367740822e-03 3.439571602101e-03 0.0 
2.813761084403e-03 5.072578825505e-03 0.0 
1.876502366694e-04 3.905036264464e-05 0.0 
4.786719755744e-04 9.414447217200e-05 0.0 
1.920087035824e-03 2.257644082082e-03 0.0 
2.092323689323e-03 3.782110729532e-03 0.0 
7.274898779469e-04 -1.702973074040e-04 0.0 
1.910035482377e-03 1.716696581092e-03 0.0 
8.179379296130e-04 2.658871306841e-05 0.0 
9.724964328567e-04 2.292528470389e-05 0.0 
2.697184631719e-03 2.287198693106e-03 0.0 
1.104583290996e-03 -9.837896598202e-06 0.0 
3.721885706044e-04 -2.231719700647e-04 0.0 
1.722487271308e-03 2.513172803834e-03 0.0 
7.567034334223e-04 -1.886900481460e-04 0.0 
2.106582401115e-03 1.288251557540e-03 0.0 
2.937493622940e-03 3.689050195812e-03 0.0 
1.909041336081e-03 1.326817029142e-03 0.0 
4.151650166366e-04 3.618081328150e-04 0.0 
3.916578683946e-04 4.429263554739e-04 0.0 
9.551034621673e-04 1.065122171290e-03 0.0 
7.174654491019e-04 -1.320539416029e-04 0.0 
1.483936892772e-03 3.199340747881e-03 0.0 
7.649564526387e-04 7.373206886961e-04 0.0 
1.115104509102e-03 2.769274975378e-05 0.0 
5.648349334782e-04 -4.407703104442e-05 0.0 
2.161861006584e-03 2.715386201479e-03 0.0 
1.675163186270e-03 8.101159478342e-03 0.0 
1.552308597341e-03 6.234716016320e-03 0.0 
3.213981156875e-04 4.585002879552e-05 0.0 
2.052730168687e-03 1.947897482968e-03 0.0 
2.715790215093e-03 5.197341471154e-03 0.0 
2.897742690037e-03 3.525345148185e-03 0.0 
6.272193760893e-04 -7.828355058278e-05 0.0 
2.949839133614e-04 -3.991636800466e-04 0.0 
1.674247197602e-03 4.958432249265e-04 0.0 
2.243485142877e-03 1.237461964267e-03 0.0 
1.781033020529e-03 5.527595858338e-04 0.0 
1.911906774803e-04 4.357216386659e-04 0.0 
3.261765159942e-04 7.644998599209e-03 0.0 
3.291072594775e-04 -3.854127880867e-04 0.0 
9.261798237884e-04 3.499186141649e-04 0.0 
6.700290970074e-05 1.113267205253e-05 0.0 
1.441764560115e-03 2.145774233503e-04 0.0 
2.500278535583e-03 6.879756895427e-03 0.0 
3.583490693035e-05 -3.636922699179e-04 0.0 
2.415659097984e-03 1.851091575920e-03 0.0 
1.598384097484e-03 3.889155934280e-04 0.0 
2.848228023931e-03 4.127042868766e-03 0.0 
3.866790631616e-04 2.339165182804e-04 0.0 
2.843913139349e-03 5.536298923642e-03 0.0 
2.891911543973e-03 2.956319757902e-03 0.0 
4.062281382575e-04 -2.242205428727e-04 0.0 
1.756176086177e-03 3.027257873551e-03 0.0 
6.831219573776e-04 -1.162215221002e-04 0.0 
3.944582769672e-04 2.144568575702e-04 0.0 
2.106030149554e-04 1.718938389772e-04 0.0 
1.607525467376e-04 2.208155889828e-04 0.0 
2.129248833676e-04 2.266687604812e-04 0.0 
2.810026651063e-03 3.682026187665e-03 0.0 
1.840893990047e-03 2.947770327641e-03 0.0 
1.790655020427e-03 1.789737717592e-03 0.0 
1.993616296228e-03 1.563327013733e-03 0.0 
1.994285810619e-03 2.010057075982e-03 0.0 
3.210936223837e-04 -2.375180053057e-04 0.0 
1.794289083634e-03 2.435007144742e-03 0.0 
3.582477094082e-04 1.572939765041e-04 0.0 
1.481279527045e-03 2.693502868611e-03 0.0 
1.520467863996e-03 2.063147840184e-04 0.0 
1.565118791247e-03 2.642931619100e-03 0.0 
2.127166526052e-03 9.028340196661e-04 0.0 
2.136693610608e-03 1.165842128174e-03 0.0 
2.240802656335e-03 3.140098099199e-03 0.0 
6.063123532031e-04 2.407890971373e-04 0.0 
4.422303084388e-04 1.029540329112e-03 0.0 
1.749356289878e-03 1.232361002714e-03 0.0 
1.090043822006e-03 4.705272760293e-04 0.0 
3.533210069466e-04 -2.391329210535e-04 0.0 
5.817579220591e-04 -3.221637873241e-04 0.0 
2.457327344248e-04 3.493243952513e-05 0.0 
1.086593557084e-03 5.090790834746e-04 0.0 
1.943112932445e-04 1.401008286483e-04 0.0 
7.041782551018e-04 8.366800932124e-04 0.0 
2.784699461614e-03 2.361739365791e-03 0.0 
2.721222990012e-04 -4.013816446386e-04 0.0 
2.016563841798e-04 1.155884738164e-04 0.0 
3.104696979917e-04 5.482411050217e-05 0.0 
6.103505976029e-04 -3.086909075804e-04 0.0 
1.377519929294e-03 1.445680375883e-04 0.0 
2.384018014513e-04 6.508361729554e-05 0.0 
2.465512413549e-04 -4.087061827220e-04 0.0 
1.972308987940e-03 1.204647429719e-03 0.0 
2.838536343257e-03 2.638720607212e-03 0.0 
2.675298375731e-03 2.056602461182e-03 0.0 
2.881634217921e-03 2.958869289780e-03 0.0 
7.184301060353e-04 3.700547093021e-04 0.0 
1.828826612525e-04 8.423341256717e-05 0.0 
1.238695026209e-03 3.972453072531e-05 0.0 
3.641115062129e-04 -9.856709947634e-05 0.0 
1.005833793620e-04 4.755920882711e-06 0.0 
2.601220256441e-04 -4.076837356442e-04 0.0 
2.697040493484e-03 4.479354755783e-03 0.0 
3.916846807642e-04 -3.264276754237e-04 0.0 
2.654554572526e-03 6.610580052570e-03 0.0 
1.614828119472e-04 3.025516854035e-05 0.0 
1.624602659684e-04 6.117123473356e-05 0.0 
2.905565000418e-03 4.279618784427e-03 0.0 
3.260325144529e-04 -3.443414600602e-04 0.0 
3.095533904889e-04 -1.151778083340e-04 0.0 
3.662994449235e-04 -3.441626836363e-04 0.0 
3.242799342057e-04 -1.460806897990e-05 0.0 
1.740221910419e-03 8.328025480668e-03 0.0 
2.492104751198e-03 6.566960955036e-03 0.0 
1.300371764104e-04 4.048179183151e-05 0.0 
1.555825114861e-03 8.486550021827e-03 0.0 
3.022120055896e-04 4.414930420580e-04 0.0 
1.999499321129e-03 7.927026904508e-04 0.0 
1.404252796508e-03 6.796249703015e-03 0.0 
1.135074749401e-03 1.246765650002e-03 0.0 
1.450382740438e-03 1.878563183197e-04 0.0 
5.076461607561e-04 5.962343448291e-05 0.0 
1.183331806642e-04 3.087437647860e-05 0.0 
2.045620016812e-04 1.899142938377e-04 0.0 
1.787329850270e-04 2.162575949926e-04 0.0 
6.389048974950e-04 -1.216840914756e-04 0.0 
2.718286928194e-04 -2.505480521404e-04 0.0 
2.044247628034e-03 9.835122042832e-04 0.0 
6.028180668783e-04 -1.056870582759e-04 0.0 
1.028303544893e-04 2.260559524906e-05 0.0 
8.985935274793e-04 2.542968922099e-04 0.0 
7.885080718521e-04 -2.335460959941e-04 0.0 
7.707295524064e-04 -2.542354165131e-04 0.0 
1.246248443181e-03 6.286551541865e-03 0.0 
1.083621061407e-04 1.557679785345e-05 0.0 
3.060626069896e-04 -3.600306035746e-04 0.0 
7.666292976715e-05 1.381040114477e-05 0.0 
6.809496141334e-04 -2.892112728110e-04 0.0 
1.850226789818e-04 1.183280444639e-04 0.0 
1.828912835390e-03 1.704814179716e-03 0.0 
2.400818957922e-04 -4.020959367315e-04 0.0 
1.926287878430e-03 9.126048029322e-04 0.0 
1.308729886026e-03 2.763456716179e-03 0.0 
1.928018927874e-04 9.886838375379e-05 0.0 
2.833958964804e-03 3.412273071741e-03 0.0 
1.792585097608e-03 6.091985025553e-04 0.0 
4.342919374255e-04 2.687351654389e-04 0.0 
4.850606970409e-04 7.034903683139e-05 0.0 
6.578841570728e-04 -2.944649136131e-04 0.0 
7.320730274914e-04 -2.704909511223e-04 0.0 
2.558661834439e-04 -3.417305804950e-04 0.0 
1.753650481557e-04 7.306056393697e-05 0.0 
6.597878620432e-04 3.918033671435e-05 0.0 
5.871765873605e-04 1.788846578794e-05 0.0 
1.347583278559e-03 7.367240356534e-03 0.0 
4.799582471117e-04 -3.422455852607e-04 0.0 
7.520395948907e-04 -2.554435593340e-04 0.0 
2.894897640310e-03 3.223421050532e-03 0.0 
1.200686207871e-04 3.420924081694e-05 0.0 
2.590682300384e-04 -2.341177108189e-04 0.0 
6.415142728251e-04 -5.946323022941e-05 0.0 
2.409676358856e-03 1.363200105176e-03 0.0 
9.293703602561e-04 -6.711786336285e-05 0.0 
8.500926822845e-04 -2.118094333147e-04 0.0 
6.892194575421e-04 -9.458795220627e-05 0.0 
2.428942571570e-03 1.512320179807e-03 0.0 
2.336266315795e-03 1.302332843351e-03 0.0 
1.350203129090e-03 1.950386856368e-04 0.0 
2.241325050700e-03 1.116549286891e-03 0.0 
4.552286813185e-04 -2.423343288719e-04 0.0 
1.047375243352e-03 3.946038955967e-04 0.0 
3.023973760672e-04 -2.525036321646e-04 0.0 
1.927747390142e-03 6.958476003915e-04 0.0 
1.400266690478e-03 9.207692124085e-05 0.0 
1.436658394679e-04 2.494307319730e-05 0.0 
1.285021383664e-03 2.291675306802e-03 0.0 
4.449705332218e-04 -3.546158168844e-04 0.0 
8.481988218005e-05 1.644476739558e-05 0.0 
3.587916007189e-04 5.778087905149e-05 0.0 
1.793395673169e-03 4.949751575210e-04 0.0 
2.748830870737e-04 -3.596808069370e-04 0.0 
9.576009867911e-05 1.264487482230e-05 0.0 
1.511994742078e-03 2.164892586802e-03 0.0 
5.993761640693e-04 -3.179850668160e-04 0.0 
5.747640364448e-05 8.483946674508e-06 0.0 
6.041114446479e-04 -8.538580603732e-05 0.0 
2.253229371584e-03 2.472668164935e-03 0.0 
2.570594701154e-03 6.006656318777e-03 0.0 
1.435437425041e-03 1.029249433921e-04 0.0 
6.569331549216e-04 -1.595804600795e-04 0.0 
9.918649972860e-04 -2.477174175952e-05 0.0 
2.260430324842e-03 4.652635575643e-03 0.0 
2.719172164013e-03 3.558962801863e-03 0.0 
1.380502626770e-03 2.554229052303e-04 0.0 
3.125591805292e-04 7.067286837640e-03 0.0 
4.202017800357e-04 -2.416873979016e-04 0.0 
1.301838548647e-03 1.333357248533e-04 0.0 
6.221309526690e-04 -3.027965836384e-04 0.0 
3.205114740335e-04 -1.056840652181e-04 0.0 
2.336240898168e-04 -3.830039039895e-04 0.0 
1.223037443308e-03 5.654833591135e-04 0.0 
6.464404634136e-04 -3.015946648760e-04 0.0 
3.562704533015e-04 -2.056893637172e-04 0.0 
1.964905829017e-03 6.655090054385e-04 0.0 
6.462957754291e-04 -7.974926934310e-05 0.0 
1.205449744545e-03 6.793821743852e-03 0.0 
5.686878019343e-04 -3.270385587661e-04 0.0 
5.088570249620e-05 7.092851178943e-06 0.0 
2.789115155365e-03 2.367053009632e-03 0.0 
3.059370625039e-04 -1.874567103294e-04 0.0 
2.714545596158e-03 2.093755787051e-03 0.0 
3.232871082048e-04 -2.046008441117e-04 0.0 
2.454329137748e-04 -3.941933944792e-04 0.0 
2.520666062225e-03 5.691199262162e-03 0.0 
9.447895896881e-05 -2.389151975846e-04 0.0 
1.773012278756e-04 -4.145530579991e-04 0.0 
2.599829380594e-04 -2.022317900971e-04 0.0 
5.906590845158e-04 -4.656318017119e-05 0.0 
3.619039871848e-04 3.080226516612e-03 0.0 
1.029980386304e-03 -5.887360647424e-05 0.0 
9.857479135546e-04 -5.066640701930e-05 0.0 
2.364789482319e-03 7.476760840456e-03 0.0 
1.493071763861e-03 9.115244079754e-03 0.0 
5.256925950229e-04 9.240887939370e-04 0.0 
2.590369933310e-03 1.802360452445e-03 0.0 
1.658907553867e-04 -4.156727470980e-04 0.0 
2.854729342807e-04 -3.923596460283e-04 0.0 
2.758181597033e-04 -3.850344554281e-04 0.0 
3.938421093435e-04 -3.455468583621e-04 0.0 
1.880913671231e-03 1.169846484407e-03 0.0 
4.149191406983e-04 3.110613851153e-03 0.0 
3.463196029523e-04 -2.653428190914e-05 0.0 
3.353863659212e-04 -3.156675707740e-04 0.0 
2.899438042838e-04 -1.064359438257e-04 0.0 
5.105855866169e-04 2.138588445140e-05 0.0 
4.848571406352e-04 -1.162172531968e-04 0.0 
6.702789767382e-05 -2.380511531200e-04 0.0 
4.999522000530e-05 -2.762711630158e-04 0.0 
8.636078422575e-05 1.020663741381e-05 0.0 
4.487439618292e-05 5.552023643357e-06 0.0 
6.748855263025e-05 -2.104122373699e-04 0.0 
2.740896014559e-04 -1.865323707773e-04 0.0 
6.284333865450e-04 -1.428191978948e-04 0.0 
4.934223603503e-04 3.846237266119e-05 0.0 
2.888642167609e-04 -3.838296625192e-04 0.0 
5.202260297218e-04 2.210656929619e-06 0.0 
1.438250984835e-04 -3.897753334699e-04 0.0 
2.755211318474e-04 -2.190238202488e-04 0.0 
3.719240894704e-04 -1.890015889289e-04 0.0 
1.122051849142e-04 -3.929003349299e-04 0.0 
5.461146443404e-05 -2.236035106160e-04 0.0 
1.205024664921e-03 2.315668373173e-03 0.0 
1.401899623530e-04 -4.118276550796e-04 0.0 
1.659085603355e-03 8.922193580346e-03 0.0 
1.695426272253e-03 9.103451783109e-03 0.0 
1.047788343853e-03 2.047683761950e-05 0.0 
2.496229669821e-05 -2.768896329774e-04 0.0 
5.799988968749e-04 -3.189798268514e-04 0.0 
6.223722001191e-04 4.350343080765e-04 0.0 
2.143497270534e-04 -4.017666137292e-06 0.0 
6.832368845859e-04 3.036837587205e-04 0.0 
7.547191332648e-04 3.725898411242e-03 0.0 
1.095177596201e-03 1.047071376997e-03 0.0 
2.737378754306e-04 -4.061146822255e-04 0.0 
2.808018109249e-03 4.547486065799e-03 0.0 
1.068429731600e-03 9.320288493736e-03 0.0 
9.890839204097e-04 9.645556006897e-03 0.0 
1.530527723938e-04 -4.105269875747e-04 0.0 
1.414810937436e-04 -3.976366545195e-04 0.0 
6.693880988622e-05 -3.750208698580e-04 0.0 
2.913837881280e-04 -3.512198181879e-04 0.0 
9.636696729256e-05 -3.947770843559e-04 0.0 
5.447446037423e-05 -1.949445452871e-04 0.0 
2.055050195717e-04 -2.934120838952e-04 0.0 
3.118612520210e-04 -3.274996983315e-04 0.0 
2.859502683939e-04 5.932232964762e-03 0.0 
1.381314806125e-03 9.480371447751e-03 0.0 
1.699528132127e-03 1.137913138725e-03 0.0 
5.608954170626e-04 -7.086936219015e-05 0.0 
2.510758533043e-04 6.837143224477e-03 0.0 
1.293593180023e-05 -2.640784694228e-04 0.0 
8.239637892561e-05 -3.808862376257e-04 0.0 
6.530540414281e-05 2.640187637389e-04 0.0 
1.496037728118e-04 5.478492818252e-04 0.0 
1.248086042913e-03 7.358713350650e-03 0.0 
1.202898254255e-03 9.298227905967e-03 0.0 
6.433676587745e-05 -2.638551400866e-04 0.0 
9.577059408230e-05 5.251349745585e-04 0.0 
3.145712103477e-04 -3.410877726415e-04 0.0 
1.531273528207e-03 9.324021635947e-03 0.0 
1.341520150813e-03 9.238043691729e-03 0.0 
2.654842454548e-03 6.225899731516e-03 0.0 
1.414594588520e-04 2.206774530752e-04 0.0 
1.170845137960e-04 5.212961423197e-04 0.0 
1.263549946671e-04 -3.989757143128e-04 0.0 
1.258587995184e-04 -4.063195688923e-04 0.0 
2.645719346577e-04 -3.986293744457e-04 0.0 
4.064143010464e-04 -1.894899538019e-04 0.0 
2.067268231764e-05 -4.980089333580e-06 0.0 
1.751028103651e-04 -2.628521265568e-04 0.0 
9.401168530444e-05 3.900538601809e-03 0.0 
2.254646805987e-04 -3.388465367334e-04 0.0 
9.347461893987e-04 -1.726095082950e-05 0.0 
2.207571332616e-04 -3.550743667217e-04 0.0 
2.015253349842e-04 -3.155899953216e-04 0.0 
8.819903813821e-04 -5.652420258085e-05 0.0 
8.372245429150e-05 -8.517745280255e-06 0.0 
2.375791417841e-04 6.268023539605e-03 0.0 
2.823159696160e-03 3.639645195878e-03 0.0 
8.130820803859e-05 -3.890689151422e-04 0.0 
2.356912291518e-04 -9.222667681792e-05 0.0 
2.226875971133e-05 3.149664170618e-04 0.0 
4.410030698466e-05 5.333465522063e-04 0.0 
1.244507530157e-03 9.571791263794e-03 0.0 
9.793903036374e-04 2.408423582458e-05 0.0 
5.177910965315e-05 2.572773785808e-04 0.0 
1.725456310538e-03 5.352775347784e-04 0.0 
4.906584376649e-05 -3.783853550794e-04 0.0 
6.545852070875e-05 -3.918017957143e-04 0.0 
4.867372547603e-05 -3.869836034192e-04 0.0 
1.359941587809e-05 -2.369964103623e-04 0.0 
1.636363769811e-05 1.197770692952e-06 0.0 
1.176213593156e-05 1.454938203098e-03 0.0 
6.535037734569e-05 -3.998421144669e-04 0.0 
2.799795629993e-05 -1.934608891208e-04 0.0 
5.519198133969e-06 4.739229053021e-07 0.0 
2.324384229600e-05 1.616028439803e-06 0.0 
7.818776065904e-05 8.315865322365e-06 0.0 
5.157023268888e-05 4.884374105735e-03 0.0 
2.091666332066e-05 3.405385991848e-03 0.0 
1.084443956415e-05 7.238477876501e-07 0.0 
1.239940273185e-05 8.921806521530e-07 0.0 
4.594298884912e-05 3.900961484111e-03 0.0 
4.949484603928e-05 -4.027690607556e-04 0.0 
7.532628539724e-04 9.684502023411e-03 0.0 
1.116140951949e-03 9.622776565636e-03 0.0 
9.619112762173e-05 -4.025682669564e-04 0.0 
2.116571480187e-05 1.811076205279e-06 0.0 
7.235108134322e-05 6.859702841996e-06 0.0 
3.564970872702e-05 3.198451290084e-06 0.0 
8.102422500470e-05 -4.049004164953e-04 0.0 
1.115331500947e-04 -4.080353721099e-04 0.0 
4.148638804284e-05 4.654613770453e-06 0.0 
3.670137261620e-05 3.661251551912e-06 0.0 
2.654390716043e-05 5.390722689072e-03 0.0 
4.010986769328e-04 9.698397629656e-03 0.0 
2.502632552846e-05 4.387100064287e-03 0.0 
3.094194182969e-05 7.384079248710e-03 0.0 
1.717946699559e-04 9.686545279683e-03 0.0 
1.886565923803e-04 -4.191037724367e-04 0.0 
2.243443871499e-04 -4.225093330448e-04 0.0 
2.350812484401e-04 -4.202161374143e-04 0.0 
2.404033593923e-04 -4.138748236106e-04 0.0 
1.404647876958e-05 -1.784457342516e-04 0.0 
1.395147753035e-05 -2.082689790711e-04 0.0 
2.327822907230e-04 -4.204370573067e-04 0.0 
1.362747036917e-05 -9.331246557592e-05 0.0 
2.422672275891e-04 -4.168206191567e-04 0.0 
1.149266600091e-04 2.410227371182e-04 0.0 
4.399148442915e-05 2.678575959778e-04 0.0 
8.429836866900e-05 2.838305180863e-04 0.0 
1.122106102150e-05 -3.521349365492e-04 0.0 
1.202636489798e-05 -2.891657976933e-04 0.0 
4.124501825163e-05 3.229373493119e-04 0.0 
8.937462614707e-06 -2.430508392795e-05 0.0 
2.183154727333e-05 2.183801351446e-04 0.0 
6.443609604265e-06 -1.000094551856e-05 0.0 
3.847130300680e-06 -1.545239311699e-06 0.0 
2.755089340844e-05 -2.229439084836e-04 0.0 
8.523650268077e-05 5.907949452897e-04 0.0 
6.307656552495e-05 5.413174844565e-04 0.0 
1.538107221897e-05 -1.674027771573e-05 0.0 
1.029073990495e-05 -4.952001115317e-06 0.0 
1.373894413766e-04 -6.681392451051e-05 0.0 
2.384577443324e-04 -3.716690738436e-04 0.0 
2.294706102546e-04 -2.324948266213e-04 0.0 
1.538477086357e-04 -4.036798415940e-04 0.0 
1.984342964853e-04 -6.078583023562e-06 0.0 
3.069778409448e-04 -2.204685347115e-04 0.0 
1.551305368859e-04 -3.020534977439e-05 0.0 
2.918854487278e-04 -3.631748590680e-04 0.0 
1.868085066495e-04 -3.955079883002e-04 0.0 
1.057533922682e-04 -1.436223821449e-05 0.0 
2.293556861432e-04 -2.011228734606e-04 0.0 
5.290325844845e-05 -2.512818987593e-04 0.0 
1.357941204537e-04 -3.131732949280e-05 0.0 
1.327697807648e-04 2.466739080501e-03 0.0 
2.653534767832e-05 -2.508867581340e-04 0.0 
5.742972409648e-04 -2.873404169024e-05 0.0 
4.176711695018e-04 -1.019624451850e-04 0.0 
1.621500601896e-04 -6.607979233401e-05 0.0 
1.167693545268e-04 -5.491344109145e-05 0.0 
1.153065966131e-03 5.016503925066e-06 0.0 
2.651195825793e-03 3.944908194299e-03 0.0 
1.966530769311e-03 7.397733154118e-04 0.0 
2.639811880746e-04 -9.153425563292e-05 0.0 
9.559058541021e-05 -2.368120064891e-05 0.0 
7.602727288948e-05 -4.471769136840e-05 0.0 
3.868994274908e-04 -3.669030171416e-04 0.0 
2.538448804927e-04 2.542161604915e-03 0.0 
3.186625858791e-04 3.529800341561e-03 0.0 
5.317537208990e-04 8.193467725823e-03 0.0 
2.928919449701e-04 -7.538219316252e-05 0.0 
2.110985452689e-04 -7.826271269677e-05 0.0 
1.721361603209e-04 2.517997562448e-03 0.0 
2.188860464931e-04 3.026105233187e-03 0.0 
4.490820309217e-04 -1.180059805306e-04 0.0 
7.097056233720e-05 -9.371858934265e-06 0.0 
6.823033433115e-04 3.703288714549e-03 0.0 
5.402508019147e-05 -4.470867621957e-05 0.0 
1.439054518442e-04 -2.606310816968e-06 0.0 
2.969515775030e-04 2.565859381655e-03 0.0 
5.478275681629e-04 5.115069556310e-03 0.0 
5.522245595345e-04 -5.233277543772e-05 0.0 
1.504140776815e-04 -3.338838990167e-04 0.0 
4.017253951211e-04 -3.739454589693e-04 0.0 
2.597300810633e-04 -4.056665307638e-04 0.0 
2.621821952993e-04 -3.733914702973e-04 0.0 
2.656673527936e-04 3.024524463412e-03 0.0 
7.601019816202e-05 -1.621669742202e-05 0.0 
2.639025326946e-04 -3.945015494642e-04 0.0 
1.699924564944e-03 1.963188793027e-03 0.0 
6.339306157772e-04 7.693436661594e-03 0.0 
1.815872398204e-04 -4.008430892393e-05 0.0 
9.789060582310e-05 -3.330910976171e-05 0.0 
5.531565266986e-04 -3.138707828267e-04 0.0 
7.898856604364e-05 -3.413482039372e-05 0.0 
6.004648856552e-04 8.210973028328e-03 0.0 
1.283139928767e-03 1.570852678713e-04 0.0 
1.085765472410e-04 8.119915414084e-07 0.0 
8.161874402708e-05 -3.288866001149e-04 0.0 
1.852128793688e-04 2.234388062802e-06 0.0 
4.264519081774e-04 4.564251034998e-03 0.0 
1.183293534438e-04 -3.198696239903e-04 0.0 
4.184428209702e-04 -3.560905933914e-04 0.0 
1.199325583156e-04 -1.524833412665e-04 0.0 
7.293415716189e-04 6.191758037899e-03 0.0 
2.930192646277e-04 -2.826837482881e-04 0.0 
3.177080866299e-04 4.010096397259e-03 0.0 
4.657345337609e-04 5.577194018121e-03 0.0 
2.558652717178e-04 -1.698591126773e-04 0.0 
9.347446779800e-05 -5.561677999289e-05 0.0 
1.182241993977e-04 -4.318864183496e-05 0.0 
3.660006916415e-04 4.529343255541e-03 0.0 
1.861689664755e-04 -3.590779564175e-04 0.0 
2.128212445681e-04 -1.847623360861e-04 0.0 
1.156810884068e-03 2.708456587684e-04 0.0 
4.931325709617e-04 4.107767848778e-03 0.0 
2.152962601474e-04 -2.162920194148e-04 0.0 
3.841568425458e-04 -1.035350644935e-04 0.0 
2.463877496008e-04 5.487775459673e-07 0.0 
4.796152474908e-04 5.084559059938e-03 0.0 
3.128195535669e-04 -1.634249241288e-04 0.0 
2.175658874212e-04 -3.996106790502e-04 0.0 
6.113650607930e-04 -1.277127259915e-04 0.0 
1.125818875621e-04 -2.268085509540e-05 0.0 
6.023562822850e-04 5.637775077966e-03 0.0 
8.511198718641e-05 -1.242272474217e-04 0.0 
7.445462122377e-04 7.214459206035e-03 0.0 
4.810153640878e-04 1.421141087244e-05 0.0 
2.066385001461e-04 -1.531074245902e-04 0.0 
1.391364118764e-04 -4.219720711956e-05 0.0 
1.274746751651e-04 -3.316370921617e-04 0.0 
1.580762401447e-04 -1.045992920428e-06 0.0 
2.252241667462e-04 -1.691979946224e-04 0.0 
9.446565989274e-05 -3.187522483894e-04 0.0 
1.833919257367e-04 -1.835621620726e-04 0.0 
2.537082890127e-04 -2.645953742737e-04 0.0 
2.853062578652e-04 -3.247678033012e-04 0.0 
1.121361341190e-04 -1.227011801512e-04 0.0 
1.991766900330e-04 -4.177001647795e-04 0.0 
2.182237172064e-04 -4.200266871896e-04 0.0 
1.849597089631e-04 -7.900635897562e-05 0.0 
1.581369276346e-04 -3.453152956389e-04 0.0 
2.648701349304e-04 -7.653009404667e-05 0.0 
3.225706678640e-04 -8.963447614122e-05 0.0 
3.983513329395e-04 -2.577065975654e-04 0.0 
5.258715838228e-04 -3.412732541057e-04 0.0 
5.916171305442e-04 3.194624132981e-03 0.0 
3.059703604558e-04 9.976864516424e-05 0.0 
2.137153816994e-04 -2.468873429086e-04 0.0 
4.626117040818e-04 3.065171053930e-05 0.0 
1.447742583398e-04 -3.542919827493e-04 0.0 
7.016580011385e-04 6.687673295735e-03 0.0 
7.068334355283e-04 7.723605495763e-03 0.0 
2.690272326393e-04 -3.818191904127e-04 0.0 
3.181802038716e-04 -8.129571459097e-07 0.0 
8.524041286824e-04 4.727881232008e-03 0.0 
1.802203051835e-04 -3.481129603765e-04 0.0 
6.200657638076e-04 2.750878118982e-03 0.0 
5.578761693258e-04 2.725085918434e-03 0.0 
1.966484565913e-04 -3.392871708763e-04 0.0 
1.321782974507e-03 1.353761966491e-03 0.0 
2.673585353611e-04 -3.483359061990e-04 0.0 
1.624421858185e-04 -5.318787419956e-05 0.0 
1.586856661422e-04 -1.373876298170e-04 0.0 
1.439344165887e-03 2.215163856157e-03 0.0 
5.292446136862e-04 3.168527411025e-03 0.0 
2.114033080072e-04 -6.433522757795e-05 0.0 
2.368849387459e-04 -6.329503011284e-05 0.0 
2.697701851129e-04 -3.715973920081e-04 0.0 
1.855565973302e-04 -5.218695572235e-05 0.0 
7.732351168861e-04 4.706513311199e-03 0.0 
1.303325471909e-04 -1.374874806611e-04 0.0 
6.757950638666e-04 5.667897810053e-03 0.0 
6.957895437112e-04 4.191215992438e-03 0.0 
1.476109571085e-03 1.346281186708e-04 0.0 
4.866510071886e-04 3.622951348163e-03 0.0 
1.701821322165e-04 -1.988133429320e-04 0.0 
1.771628774832e-04 -1.528225652973e-04 0.0 
2.080321457699e-04 -2.758016541238e-04 0.0 
4.482602089958e-04 -2.914177758681e-04 0.0 
6.906435032292e-04 5.174399787628e-03 0.0 
5.961526261564e-04 -1.842683970965e-04 0.0 
2.390917274411e-04 -3.324867099678e-04 0.0 
2.481427560139e-04 -3.968821537517e-04 0.0 
7.669714538053e-04 5.200461374066e-03 0.0 
2.639909634249e-04 -3.354719656222e-04 0.0 
1.975592176004e-04 4.175724559484e-06 0.0 
5.565075592645e-04 4.625520926971e-03 0.0 
2.034518876117e-04 -3.885036685371e-05 0.0 
2.768076243751e-04 4.434460914220e-05 0.0 
1.855520250521e-04 -2.151826628997e-04 0.0 
2.200444390714e-04 -3.422498272929e-04 0.0 
2.492067715153e-04 -3.886019532279e-04 0.0 
2.895212225682e-04 -6.070467704869e-05 0.0 
5.144491696985e-04 6.101707251822e-03 0.0 
2.320237162117e-04 -4.018814545265e-04 0.0 
2.639394539574e-04 -2.802896722570e-04 0.0 
9.230956481997e-05 -3.390976809372e-04 0.0 
8.077904531400e-04 6.218736248331e-03 0.0 
2.251925976764e-04 -2.625575492395e-04 0.0 
3.532903770657e-04 -8.831402731670e-05 0.0 
1.798128334603e-04 -2.727708806281e-04 0.0 
3.717925232600e-04 3.561804618021e-03 0.0 
2.798402058507e-04 -3.104757082667e-04 0.0 
3.745653894590e-04 -5.471267180232e-05 0.0 
3.794646167514e-04 -3.758994931593e-04 0.0 
3.511720593914e-04 -7.236593454096e-05 0.0 
1.374420250356e-04 -1.672738864412e-04 0.0 
2.575173496429e-04 -4.847036400700e-05 0.0 
8.909466781104e-04 -1.849075439758e-04 0.0 
1.143018024069e-04 -3.407307973830e-04 0.0 
5.985992000000e-04 7.154432881349e-03 0.0 
8.812491267932e-04 -3.256195530728e-05 0.0 
2.198013552342e-03 1.511504398673e-03 0.0 
5.828585975506e-04 6.131777815294e-03 0.0 
4.356879181121e-04 -3.634742064446e-04 0.0 
1.087558969724e-03 5.771300473071e-03 0.0 
1.238785356284e-04 -3.519542913484e-04 0.0 
2.566620902512e-04 -1.007147975911e-05 0.0 
9.249185197159e-04 6.089658801625e-06 0.0 
1.314383219770e-03 2.140885076525e-04 0.0 
4.528868043106e-04 2.208432267718e-03 0.0 
5.862602987670e-04 -1.467037262213e-04 0.0 
2.070006802477e-04 -3.622639150944e-04 0.0 
4.879715299428e-04 -9.738740852949e-05 0.0 
2.642196729388e-04 3.606388569360e-06 0.0 
5.477421667384e-04 -3.246252467504e-04 0.0 
2.329028758602e-04 -4.991281618701e-05 0.0 
6.258847127492e-04 4.654728426201e-03 0.0 
5.348838859976e-04 -3.364403253160e-04 0.0 
4.174859807237e-04 -8.471591310188e-05 0.0 
1.069151486846e-03 7.297800853114e-03 0.0 
1.330282442608e-04 -3.091619610566e-04 0.0 
3.010642586010e-04 -2.981873007341e-04 0.0 
2.316418476184e-03 1.174599488898e-03 0.0 
3.170816277878e-04 -5.900886725164e-05 0.0 
2.166833830170e-03 2.130728530316e-03 0.0 
2.147558768388e-03 9.483668133161e-04 0.0 
9.286977417097e-04 5.243208074297e-03 0.0 
6.286138086519e-04 6.657815805217e-03 0.0 
1.113074485399e-03 6.789422372816e-03 0.0 
1.663192252519e-04 -1.677129613161e-04 0.0 
3.984548487947e-04 -2.654121555342e-06 0.0 
5.620277495744e-04 -1.099109532669e-04 0.0 
8.229087281880e-04 7.247618437649e-03 0.0 
1.519754520229e-03 1.491673463392e-03 0.0 
1.323955102665e-03 2.673899465334e-04 0.0 
3.818533360934e-04 -7.034043963468e-05 0.0 
6.247670901505e-04 4.165492693878e-03 0.0 
4.081061801094e-04 -2.744370034804e-04 0.0 
3.528957974157e-04 -2.872258613780e-04 0.0 
2.487728508937e-04 -3.686688436506e-04 0.0 
5.228694939003e-04 -7.539891604969e-05 0.0 
3.133567829308e-04 -2.689450303290e-04 0.0 
9.131291720720e-04 5.742316386344e-03 0.0 
1.060733387415e-03 6.276884327965e-03 0.0 
1.318267054379e-03 2.305331312234e-05 0.0 
3.640811958556e-04 -3.177526991949e-04 0.0 
1.024085616109e-03 -4.600122632517e-06 0.0 
3.300554245156e-04 -3.006472682111e-04 0.0 
3.839186222849e-04 -2.891297848764e-04 0.0 
2.468628617418e-04 -3.573623987216e-04 0.0 
4.883728530921e-04 -4.279004493954e-06 0.0 
5.670579329982e-04 -2.401639396833e-04 0.0 
5.489083728927e-04 3.651468694033e-03 0.0 
6.341728913586e-04 -2.180112521953e-04 0.0 
5.252952041817e-04 -9.413925488793e-05 0.0 
5.725023024602e-04 -1.669387887483e-04 0.0 
1.876376881467e-03 5.470879749738e-04 0.0 
2.244480014359e-04 -3.542615754699e-04 0.0 
3.398874665547e-04 3.136600773511e-06 0.0 
2.942273909419e-04 1.076947126429e-05 0.0 
2.390938422673e-03 1.315635606102e-03 0.0 
4.413208958499e-04 -2.755062910017e-04 0.0 
5.559414924131e-04 -1.297925147930e-04 0.0 
8.305718959639e-04 5.720937606922e-03 0.0 
3.655101275035e-04 -2.562006935253e-04 0.0 
1.884460447830e-03 1.011330599002e-03 0.0 
2.526879249766e-04 -3.077372471422e-04 0.0 
4.985115606330e-04 -3.474630075352e-04 0.0 
4.665929499629e-04 -2.594228160569e-04 0.0 
2.332547410073e-04 -3.190440865223e-04 0.0 
1.660147893952e-04 -3.241516187374e-04 0.0 
5.324489527912e-04 -1.692493364249e-04 0.0 
4.514267353311e-04 -8.219297361036e-05 0.0 
1.832513120834e-03 9.831576363697e-04 0.0 
2.085500102730e-04 -4.212912475792e-04 0.0 
8.271361412224e-04 -2.031701205639e-04 0.0 
6.904702659220e-04 -2.288410904300e-04 0.0 
5.024685667416e-04 -2.592832542417e-04 0.0 
9.728329946998e-04 6.262376712975e-03 0.0 
5.757744770754e-04 -2.041739551347e-04 0.0 
2.448321670566e-04 -2.930547635785e-04 0.0 
5.284310475799e-04 -2.417325470730e-04 0.0 
4.312892405467e-04 4.077008453177e-03 0.0 
2.174405502053e-04 -2.906045704795e-04 0.0 
2.154687248446e-04 -3.919054566597e-04 0.0 
2.298136960413e-04 -3.761847204395e-04 0.0 
5.090710486080e-04 -3.388737320945e-04 0.0 
4.208999502895e-04 -3.058550236007e-04 0.0 
7.668946457874e-04 -2.002633834984e-04 0.0 
5.929062999565e-04 -2.211817424183e-04 0.0 
3.890405780328e-04 -3.805070986757e-04 0.0 
2.104563857012e-04 -3.728806151350e-04 0.0 
1.507375154425e-03 6.773962475115e-03 0.0 
2.077247868023e-04 -3.162772588304e-04 0.0 
5.166840370173e-04 -1.864919058179e-05 0.0 
1.931360598171e-03 9.460446163778e-04 0.0 
2.646613216084e-03 4.931475796737e-03 0.0 
9.531174929388e-04 3.282797815753e-03 0.0 
1.678761761344e-03 9.756815571616e-04 0.0 
1.403696904111e-03 7.927708819793e-05 0.0 
2.198613933980e-03 1.138193535445e-03 0.0 
4.457115759808e-04 -3.656319215226e-04 0.0 
4.772110530227e-04 -2.250608103607e-04 0.0 
1.622393780246e-03 3.441855639946e-04 0.0 
6.115696979730e-04 -2.890896250408e-04 0.0 
3.919966887333e-04 -3.789953416573e-04 0.0 
3.442421498042e-04 -2.710271759419e-04 0.0 
6.479304963783e-04 -2.339079860506e-04 0.0 
7.209771453349e-04 -2.077497541410e-04 0.0 
1.997663539205e-04 -3.025202263513e-04 0.0 
6.384103908399e-04 -1.807945967542e-04 0.0 
7.798580370287e-04 -2.137209100177e-04 0.0 
9.149458217642e-04 -1.655547856851e-04 0.0 
3.897730793192e-04 -3.046363201304e-04 0.0 
1.094278843688e-03 6.764144920150e-05 0.0 
1.015227146646e-03 5.257684546034e-03 0.0 
9.794194131008e-04 -1.561675453726e-04 0.0 
4.251476661756e-04 2.342902355057e-06 0.0 
5.096859098963e-04 -3.464963001475e-04 0.0 
3.783811838494e-04 3.010754159954e-05 0.0 
7.035633175937e-04 -1.923350621358e-04 0.0 
1.445487167696e-03 9.014302429269e-04 0.0 
2.806077103776e-03 2.602951246106e-03 0.0 
4.601161440269e-04 -3.596932502617e-04 0.0 
2.712259478785e-03 4.197915627026e-03 0.0 
1.222727914036e-03 2.786099930790e-03 0.0 
7.746911840000e-04 -1.629111986240e-04 0.0 
1.438674848254e-03 5.576023164708e-04 0.0 
2.715849900380e-03 3.510806082773e-03 0.0 
2.337844781077e-03 1.444632240904e-03 0.0 
4.085985329776e-04 -3.759745174120e-04 0.0 
4.900860389585e-04 1.371238982640e-03 0.0 
3.575714332970e-04 -3.890952631003e-04 0.0 
7.412129440889e-04 1.323141740803e-04 0.0 
3.920961119888e-04 2.643235336258e-03 0.0 
9.581853532632e-04 4.575107873961e-05 0.0 
8.584693986100e-04 6.747810737780e-03 0.0 
9.916645713097e-04 3.769358563303e-03 0.0 
8.635852617785e-04 -1.794939630619e-04 0.0 
1.328320169780e-03 5.089122090990e-05 0.0 
7.529117648874e-04 2.325055184093e-03 0.0 
4.049419748586e-04 -5.190909447335e-05 0.0 
1.110327346397e-03 4.764575218440e-03 0.0 
8.227487066206e-04 -2.300258918254e-05 0.0 
4.679213186604e-04 -3.586247248379e-04 0.0 
1.193615085205e-03 4.264945885463e-03 0.0 
8.089703058230e-04 3.435113648769e-04 0.0 
3.122029152398e-04 1.491185668262e-05 0.0 
5.145378025053e-04 -2.245985903771e-04 0.0 
9.409546640616e-04 6.770072423003e-03 0.0 
9.849320582246e-04 7.292958518290e-03 0.0 
6.592988331610e-04 -1.975296645694e-04 0.0 
4.802897604307e-04 -6.146801889509e-05 0.0 
5.026656894981e-04 -4.008594220138e-05 0.0 
2.309905691365e-04 -3.858960316121e-04 0.0 
8.800152456092e-04 -6.356471078978e-06 0.0 
1.081031041512e-03 -1.058442647979e-04 0.0 
9.265848578212e-04 -1.747741557242e-04 0.0 
2.057272877991e-03 8.869495668015e-04 0.0 
6.040389742094e-04 1.852719631790e-03 0.0 
1.641998876455e-03 2.037415467130e-03 0.0 
4.441642192726e-04 2.672631550260e-03 0.0 
2.415804964984e-03 2.599518785935e-03 0.0 
1.450299566105e-03 3.718022840332e-03 0.0 
4.461706761004e-04 -6.501392281420e-05 0.0 
5.648987849196e-04 2.277679216378e-03 0.0 
1.400142163023e-03 4.739724870689e-03 0.0 
5.360328650426e-04 -2.060221957039e-04 0.0 
1.149768440076e-03 -7.853373221860e-05 0.0 
1.101473232617e-03 4.266666463652e-03 0.0 
8.223151411986e-04 2.792794516807e-03 0.0 
8.473743454609e-04 4.235193609939e-03 0.0 
1.020431178049e-03 4.758208346307e-03 0.0 
3.482744401723e-04 -1.103226457667e-05 0.0 
9.144704949494e-04 1.769238507943e-04 0.0 
4.284830092257e-04 -1.485833364897e-05 0.0 
4.854416367552e-04 -1.159538833666e-04 0.0 
2.580637715767e-03 5.640369009294e-03 0.0 
9.787443223793e-04 8.509768270575e-05 0.0 
1.929115026910e-03 4.474936220518e-03 0.0 
1.901657907560e-04 -3.267572258593e-04 0.0 
1.023398339849e-03 -1.291030275805e-04 0.0 
1.009214111968e-03 -8.616422420510e-05 0.0 
1.301218497662e-03 7.722709188413e-05 0.0 
6.879432999509e-04 -2.084504198309e-04 0.0 
1.090814800460e-03 -1.084709875643e-04 0.0 
1.234722831997e-03 9.942951023497e-05 0.0 
2.866160973704e-03 4.093721898330e-03 0.0 
5.163576644546e-04 -1.884271853423e-04 0.0 
1.481076031310e-03 5.741156490590e-03 0.0 
8.489316048260e-04 8.913421683122e-03 0.0 
1.046876756467e-04 5.890173414487e-04 0.0 
5.166790538330e-04 -1.325872912512e-04 0.0 
8.762845837969e-04 4.712052775837e-05 0.0 
1.356072363661e-03 1.777805183800e-03 0.0 
1.293385239711e-03 1.795150410583e-05 0.0 
5.069445105178e-04 -1.518090503560e-04 0.0 
1.180698766343e-03 5.776568315935e-03 0.0 
1.806300400160e-04 9.717448542304e-04 0.0 
1.012856043288e-03 6.622417366552e-05 0.0 
1.217318237305e-03 1.441289646440e-05 0.0 
2.925661868191e-03 4.111651641846e-03 0.0 
4.687568135565e-04 -4.469163179921e-05 0.0 
5.861859987098e-04 -3.082055500338e-04 0.0 
4.834870105318e-04 -2.423149582641e-05 0.0 
4.085703295161e-04 1.765485719605e-05 0.0 
1.155317819869e-03 9.394147522880e-05 0.0 
9.288719898914e-04 4.251044252501e-03 0.0 
1.707296009958e-03 5.996259854925e-04 0.0 
3.845558082336e-04 1.227601010224e-05 0.0 
3.202772900449e-04 1.529824088356e-03 0.0 
1.295702580338e-03 5.263455733330e-03 0.0 
1.045455364645e-03 2.600738103008e-04 0.0 
9.089594969313e-04 3.760103224284e-03 0.0 
1.239552055697e-03 7.284804756939e-05 0.0 
1.202512634717e-03 -4.735850496821e-05 0.0 
2.986373656464e-04 -1.544417196237e-04 0.0 
4.219368579134e-04 -1.328748140454e-04 0.0 
7.262225149793e-04 3.243026030221e-03 0.0 
1.577742776957e-04 -3.111971489486e-04 0.0 
6.234197783011e-04 2.337689569789e-03 0.0 
1.924420843950e-03 7.826706454310e-04 0.0 
4.015473711155e-04 2.182074621501e-03 0.0 
5.128700804928e-04 -3.373239598300e-04 0.0 
2.464151584167e-03 1.412438428554e-03 0.0 
1.299908667709e-03 4.756991112549e-03 0.0 
4.208168186501e-04 -1.719954156703e-04 0.0 
6.622101888898e-04 -2.393564526008e-04 0.0 
1.305569831442e-03 4.990364603147e-04 0.0 
4.099742854162e-04 -3.709327594513e-04 0.0 
5.355795176612e-04 -3.225620642915e-04 0.0 
4.685366580712e-04 -3.496599483449e-04 0.0 
1.285054606118e-03 4.668542549488e-05 0.0 
2.643890771874e-04 4.436872665037e-04 0.0 
1.456142951516e-03 3.616825211405e-03 0.0 
2.763537745670e-04 -7.446372572531e-06 0.0 
1.260535536293e-03 2.125033841720e-05 0.0 
1.606459895142e-03 5.184285329636e-03 0.0 
5.417207371265e-04 -1.459313984330e-04 0.0 
3.539100318127e-04 2.428516183524e-05 0.0 
4.487858723400e-04 -3.609047385212e-04 0.0 
1.634217301499e-04 -2.850992942239e-04 0.0 
1.188643389052e-03 1.442972637879e-04 0.0 
7.966821240992e-04 -1.774625827131e-04 0.0 
1.105143359517e-03 2.366460049635e-04 0.0 
1.670986658026e-03 1.031640403260e-03 0.0 
1.795210700214e-03 4.055607289322e-03 0.0 
7.679972119782e-04 1.488262647255e-04 0.0 
1.198263111613e-03 5.269319261032e-03 0.0 
1.414274685712e-03 1.728493723220e-03 0.0 
1.259088776153e-03 3.762264528684e-03 0.0 
1.299905715492e-03 3.260152229300e-03 0.0 
6.757309531038e-04 1.086477890271e-04 0.0 
2.789430406119e-04 -2.011602485745e-05 0.0 
1.386426156582e-03 4.238252317613e-03 0.0 
1.613685938370e-03 2.393777972790e-04 0.0 
1.662606283240e-03 5.968567037000e-03 0.0 
6.465265854612e-04 1.363391560011e-04 0.0 
7.650631082677e-04 -8.557315881104e-05 0.0 
1.739668461747e-04 -3.000457235915e-04 0.0 
1.193250106252e-03 2.358782918114e-04 0.0 
2.225769468094e-05 -3.430992889616e-04 0.0 
2.038488476392e-03 7.182851467940e-04 0.0 
1.032786299715e-03 1.076331687766e-04 0.0 
1.048660797585e-03 2.353086930630e-03 0.0 
9.991972290048e-04 1.885388798592e-03 0.0 
1.127936996805e-03 1.150596857637e-04 0.0 
1.035822269130e-03 3.286851685313e-03 0.0 
1.404167704373e-03 1.158503674174e-04 0.0 
2.100923374207e-03 1.102013695773e-03 0.0 
1.686828776682e-03 8.021747013126e-03 0.0 
1.638213016727e-03 1.407038208951e-03 0.0 
1.952060845389e-03 8.733088176918e-03 0.0 
2.006666957599e-03 8.773262644944e-03 0.0 
1.388372719011e-03 6.684105207766e-05 0.0 
2.011169381704e-03 8.695229851063e-03 0.0 
1.906523702075e-03 5.195716347942e-04 0.0 
1.710619533004e-03 3.933287671803e-04 0.0 
1.123731813982e-03 -7.650241235766e-05 0.0 
6.003007300722e-04 -2.562427525395e-04 0.0 
1.267252163397e-03 -1.083176707109e-05 0.0 
7.508679568535e-04 2.780632240775e-03 0.0 
1.480369264543e-03 1.564282785799e-03 0.0 
3.353874396058e-04 -4.262375530113e-05 0.0 
9.562891045046e-04 2.021350883708e-04 0.0 
8.460946358966e-04 -1.672439517305e-04 0.0 
1.209257082178e-03 3.276743018226e-03 0.0 
1.186259767571e-03 -4.795390787367e-05 0.0 
2.188685324203e-04 -1.444703958113e-05 0.0 
1.166511200089e-03 3.771691854673e-03 0.0 
1.548328771394e-03 3.679854573524e-03 0.0 
1.108006193879e-03 4.356095607051e-05 0.0 
1.340598454830e-03 4.254670759036e-05 0.0 
1.795533608072e-03 8.926033420068e-04 0.0 
2.831161320864e-03 2.866688514532e-03 0.0 
5.790303388368e-04 -2.822486042010e-04 0.0 
7.391843593884e-04 -1.320714388504e-04 0.0 
1.742823164119e-03 9.327795989707e-04 0.0 
2.552225140893e-03 1.619237154944e-03 0.0 
1.656431233995e-04 -9.563657841421e-06 0.0 
1.486988313220e-03 4.210601418187e-03 0.0 
1.274259378748e-03 -3.774408723339e-06 0.0 
2.495762329069e-03 1.486154247865e-03 0.0 
8.836931191170e-04 8.118287582948e-05 0.0 
7.989652342154e-04 3.261380200703e-03 0.0 
1.663734193472e-03 9.017416367304e-04 0.0 
1.695731698041e-03 5.655239946245e-03 0.0 
6.224789544983e-04 2.738733727694e-05 0.0 
1.226117481583e-03 -1.652897899306e-05 0.0 
8.359040705595e-04 6.367881580801e-05 0.0 
2.130399307082e-03 8.539667032819e-04 0.0 
8.243991924936e-04 2.345517533397e-03 0.0 
1.442109931586e-03 8.392128912039e-04 0.0 
1.167804466912e-03 1.538603471650e-05 0.0 
6.649622738453e-04 -1.526056636498e-04 0.0 
1.544512266811e-03 5.148079612657e-04 0.0 
2.052314664506e-03 6.888583039806e-04 0.0 
1.336747870436e-03 5.755529725551e-05 0.0 
1.173874393760e-03 4.327951943224e-05 0.0 
5.866040396977e-04 -5.053969815416e-06 0.0 
6.437084588201e-04 -1.920436085662e-04 0.0 
1.193316042839e-03 -1.586179121948e-05 0.0 
2.669652846437e-03 3.741500287986e-03 0.0 
1.501854900560e-04 -1.102720730448e-05 0.0 
2.638410290426e-03 3.100162238162e-03 0.0 
1.767379825313e-03 6.762430383088e-04 0.0 
2.641749798002e-03 4.432776941690e-03 0.0 
2.413140030524e-03 5.895523609759e-03 0.0 
2.718404271702e-03 2.306434395433e-03 0.0 
1.008465028969e-03 1.779226536365e-04 0.0 
3.206743936742e-04 -2.941713060011e-05 0.0 
1.607596159225e-03 4.673619060353e-03 0.0 
9.288353336593e-04 1.900164141437e-03 0.0 
2.554288151798e-03 5.157481816766e-03 0.0 
1.101013201030e-03 -4.549334348272e-05 0.0 
1.422166957996e-03 4.888104628104e-04 0.0 
6.229582587295e-04 2.289079167690e-03 0.0 
1.861055311582e-03 4.911262157896e-04 0.0 
2.007893681860e-03 6.456038952348e-04 0.0 
1.200418381051e-03 -2.718954601540e-05 0.0 
1.691853858987e-03 4.121424697005e-03 0.0 
2.237282305014e-03 1.938451277136e-03 0.0 
1.838584597590e-03 4.666077802435e-04 0.0 
2.148315099314e-03 1.664410255443e-03 0.0 
1.202975974672e-03 1.925434352051e-04 0.0 
1.071162619043e-03 3.661346437633e-04 0.0 
1.150540229119e-03 -7.543828908893e-05 0.0 
4.180007608686e-04 -1.777472887729e-04 0.0 
1.135700587086e-03 1.838147311466e-03 0.0 
2.472282574547e-03 2.359499624522e-03 0.0 
9.272026884561e-04 -1.293171075525e-04 0.0 
1.231827655545e-03 4.055879891754e-04 0.0 
1.714432499702e-03 4.622610605979e-03 0.0 
3.914092342834e-04 -3.693732928117e-05 0.0 
1.546602350111e-03 2.578835658614e-04 0.0 
3.634415722461e-04 -1.916866899988e-04 0.0 
1.053814504091e-04 -6.210489164365e-06 0.0 
2.411144452488e-03 1.266304706955e-03 0.0 
1.490458434622e-03 2.846356046008e-04 0.0 
1.590328707232e-03 7.432544553169e-04 0.0 
2.693314450424e-04 -1.747736823619e-04 0.0 
4.211049886510e-04 -3.326577052614e-05 0.0 
1.089705122303e-03 2.442235469070e-04 0.0 
1.808227595352e-03 5.589766531882e-03 0.0 
4.073896916052e-04 -1.371233751069e-04 0.0 
1.210291639111e-03 -3.720570349078e-05 0.0 
2.002481476349e-04 -1.637179650245e-05 0.0 
1.993266163682e-03 6.176312362734e-04 0.0 
1.126525105867e-03 -5.922520111507e-05 0.0 
2.427126989136e-03 1.295718826472e-03 0.0 
3.614007856130e-04 -2.322425033215e-04 0.0 
2.135954813417e-03 1.013847845618e-03 0.0 
1.144299344279e-03 1.607056091060e-04 0.0 
1.221727401681e-03 7.693477588510e-04 0.0 
1.880553140923e-03 8.499579539113e-04 0.0 
8.626054167716e-04 -1.285364553883e-04 0.0 
3.085849546365e-04 -4.489445584417e-05 0.0 
5.455326523965e-04 1.828905891419e-03 0.0 
5.285247751103e-04 1.274804475241e-04 0.0 
1.138390385259e-03 2.023661780609e-04 0.0 
1.480430955742e-03 1.561928082252e-04 0.0 
2.317917293336e-03 1.162716929363e-03 0.0 
1.206834584529e-04 -1.336459342687e-05 0.0 
9.219778413572e-05 -1.528357314841e-04 0.0 
1.987456796396e-03 8.815813434798e-04 0.0 
1.499568055578e-03 5.222740240546e-03 0.0 
2.570649133490e-04 -2.243066779321e-05 0.0 
4.000098632865e-04 -1.928691875087e-05 0.0 
3.423111658340e-04 9.405366555174e-03 0.0 
2.285364896071e-04 9.401864116404e-03 0.0 
2.549397096923e-03 3.507934581892e-03 0.0 
2.200586065895e-03 1.025068476785e-03 0.0 
3.473570724761e-04 -1.214011641628e-04 0.0 
2.644937961460e-03 2.241267373470e-03 0.0 
1.876667985640e-03 4.820608019617e-04 0.0 
5.907175218874e-04 6.664516053773e-05 0.0 
1.554638148848e-03 2.255544775279e-04 0.0 
2.378562783446e-04 4.640325505467e-04 0.0 
2.367346419832e-03 6.831987126235e-03 0.0 
1.918989464600e-03 5.368659946952e-04 0.0 
4.426746637843e-04 -1.361293626832e-04 0.0 
8.482003094373e-04 -6.117541190066e-05 0.0 
4.784077949077e-04 -1.893624075708e-04 0.0 
2.341610567346e-03 1.153580307431e-03 0.0 
2.657740654445e-03 1.873035320410e-03 0.0 
1.825792132930e-03 5.067803460899e-03 0.0 
2.523240374406e-03 1.965001695643e-03 0.0 
2.409250895657e-03 1.874879866728e-03 0.0 
6.964782762800e-05 -3.664009764921e-04 0.0 
4.607562460130e-04 -2.074196379159e-04 0.0 
2.380155455991e-03 2.040371750342e-03 0.0 
2.763096280771e-03 3.025983384075e-03 0.0 
2.661724357076e-03 2.885092655387e-03 0.0 
8.409289535341e-04 1.354988237847e-04 0.0 
1.103663365944e-05 -3.332033433559e-04 0.0 
5.604162293105e-04 -2.422785945346e-04 0.0 
2.282085822851e-03 1.056347258828e-03 0.0 
4.248002325307e-04 -2.072263013982e-04 0.0 
2.118984511654e-03 8.429648330573e-03 0.0 
2.122877341929e-03 8.431423785129e-03 0.0 
1.937117818912e-03 4.985946483121e-03 0.0 
5.980200245159e-04 1.574808194785e-04 0.0 
3.979772737447e-04 -1.546139197966e-04 0.0 
8.280743017509e-04 3.135756783041e-05 0.0 
5.780908469972e-04 -2.089854833312e-04 0.0 
6.464413966136e-04 2.582928173941e-04 0.0 
1.057364581980e-03 2.816629394572e-03 0.0 
3.191968796946e-04 -1.712130110530e-04 0.0 
2.719937814421e-04 -3.400247407891e-05 0.0 
1.302525874278e-04 -3.831555094238e-04 0.0 
8.068305368060e-04 -1.797701717696e-06 0.0 
2.322336573843e-03 1.098814153507e-03 0.0 
9.900872620037e-05 -3.786355230000e-04 0.0 
9.765073449963e-04 2.817310735670e-03 0.0 
5.297003383559e-04 -1.877662108563e-04 0.0 
2.763143686558e-03 2.782322924519e-03 0.0 
2.580348641601e-03 1.652758697039e-03 0.0 
9.504958937287e-04 -1.398461842549e-04 0.0 
7.351750564414e-04 -8.744650866130e-05 0.0 
9.739460988426e-04 2.367025605485e-03 0.0 
6.844310587649e-04 -5.232439738153e-05 0.0 
2.142343088017e-03 8.114697990454e-04 0.0 
2.189832936061e-03 9.038969467875e-04 0.0 
7.845392894466e-05 4.493611195561e-04 0.0 
4.689006448198e-04 -2.029245403476e-04 0.0 
1.654553334471e-03 6.496691150395e-04 0.0 
2.346472200100e-03 5.531822465746e-03 0.0 
1.472124210300e-03 5.470545637678e-04 0.0 
1.131168565155e-03 3.382444745441e-04 0.0 
1.995033661863e-03 2.764265995939e-03 0.0 
1.550293254043e-03 6.712111083697e-04 0.0 
2.315777429974e-03 7.805137114275e-03 0.0 
1.704690697635e-03 7.244733325931e-04 0.0 
2.484865816680e-04 -3.588257244470e-05 0.0 
2.162512117611e-03 8.953625171841e-04 0.0 
4.568542990291e-04 -1.716745329215e-04 0.0 
4.692997263026e-04 -1.532990246241e-04 0.0 
1.206184105107e-03 1.812207110332e-03 0.0 
7.647575559560e-04 -1.248973113645e-04 0.0 
2.508257621523e-03 1.475374090167e-03 0.0 
1.629497552444e-03 2.520284531520e-04 0.0 
6.123640670155e-04 -2.162848234743e-05 0.0 
1.775775313650e-03 3.964382875834e-04 0.0 
9.012302172196e-04 -1.431298660865e-04 0.0 
1.090245393213e-03 -3.778830747920e-05 0.0 
1.020606546811e-03 -7.538457678263e-05 0.0 
2.664593159228e-03 2.453418634131e-03 0.0 
9.758272278351e-04 -1.172715209661e-04 0.0 
2.677410497521e-03 2.083313661688e-03 0.0 
9.617077554433e-04 1.530097172721e-04 0.0 
1.032956481340e-03 1.456154155974e-04 0.0 
1.708320743370e-03 3.507536564269e-04 0.0 
2.035939229566e-03 5.407078937524e-03 0.0 
2.149373287897e-04 -2.623552308031e-05 0.0 
1.945171085159e-04 -2.776086530931e-05 0.0 
4.360297771552e-04 1.843940840563e-04 0.0 
2.570492968939e-03 1.839376761383e-03 0.0 
1.173615581735e-04 -5.083645436826e-06 0.0 
1.938918489961e-03 3.265882150109e-03 0.0 
3.081278060661e-04 -1.382360858281e-04 0.0 
1.213756978159e-04 4.886618540038e-04 0.0 
1.643702940177e-04 -1.936068819451e-05 0.0 
8.982362994950e-04 -8.446113524640e-05 0.0 
7.557362607842e-05 -1.393659381491e-04 0.0 
1.563207355773e-03 3.371500490555e-04 0.0 
2.148787633344e-03 5.291217109039e-03 0.0 
2.234059279738e-03 5.685441190622e-03 0.0 
2.256333474609e-03 9.831083179649e-04 0.0 
1.971551937667e-03 7.894923036470e-03 0.0 
2.074899568370e-03 8.267818941589e-03 0.0 
1.468483701791e-04 -2.057123058936e-05 0.0 
7.351681602682e-04 -6.546899295027e-05 0.0 
9.522821591974e-04 -1.033415665370e-04 0.0 
8.555032872957e-04 1.199354178869e-05 0.0 
1.099737859817e-03 -7.205475610595e-05 0.0 
9.816404189192e-04 -5.716760176113e-05 0.0 
1.843476758059e-03 8.514165939945e-03 0.0 
2.338310338086e-03 6.476006837574e-03 0.0 
2.866939246460e-04 9.694534927092e-03 0.0 
9.821498290235e-04 1.217805532922e-04 0.0 
1.628130789349e-03 2.692813649077e-04 0.0 
6.789107098325e-04 1.530919591312e-04 0.0 
6.169445004033e-05 -2.507900545612e-05 0.0 
1.129464374662e-03 -4.283906384837e-05 0.0 
9.749028691376e-05 -2.017936153886e-07 0.0 
9.568930285647e-04 -1.601748690434e-04 0.0 
8.796986814933e-04 2.145293735573e-04 0.0 
2.168592875574e-03 8.482142755435e-04 0.0 
1.974748471276e-03 6.899117959773e-04 0.0 
5.766986100233e-04 3.869541806228e-05 0.0 
5.108611295983e-04 -2.754163420553e-04 0.0 
2.564554200942e-03 1.672632338627e-03 0.0 
1.039752604032e-03 -9.429461746763e-05 0.0 
2.654441506240e-03 1.882128804299e-03 0.0 
1.252919267021e-03 3.862727636231e-04 0.0 
1.783744569408e-03 5.306911980214e-04 0.0 
1.006113856534e-03 -1.220010365019e-04 0.0 
3.802827317867e-04 -1.205726122628e-04 0.0 
2.715662141703e-03 2.108162914781e-03 0.0 
1.568785340424e-04 2.150269240042e-04 0.0 
1.597823464363e-03 2.607028016143e-04 0.0 
2.579880322359e-04 4.764008051106e-04 0.0 
1.939091794567e-04 -3.798329761528e-04 0.0 
3.403379867849e-04 -1.381142462566e-04 0.0 
2.017334374048e-03 1.157337333642e-03 0.0 
2.366077341523e-03 5.015535117048e-03 0.0 
1.729530985479e-03 6.176028781621e-03 0.0 
1.229296183355e-04 2.230098134286e-04 0.0 
6.316829155760e-05 3.203617165620e-04 0.0 
1.839406014050e-03 7.169468762925e-03 0.0 
9.166708802348e-04 -9.250240514971e-05 0.0 
2.671532187177e-04 -1.540121608000e-04 0.0 
2.701198974319e-03 5.647804007098e-03 0.0 
8.345174402057e-04 -2.288087956820e-04 0.0 
7.763696631310e-04 -1.019234483168e-04 0.0 
2.259624931463e-03 1.008460352371e-03 0.0 
1.515900458647e-03 2.628399447364e-04 0.0 
1.894171832122e-03 1.548923915793e-03 0.0 
5.133795599526e-04 1.315928764537e-04 0.0 
3.522005615644e-04 -1.716693700471e-04 0.0 
2.464113452733e-04 -1.378942299411e-04 0.0 
3.658619033180e-04 -3.319192958468e-04 0.0 
2.257864345152e-03 7.705421072282e-03 0.0 
2.466367261519e-03 4.845518815666e-03 0.0 
2.283158512373e-05 -5.480609184818e-05 0.0 
1.137587729350e-04 -3.849414510906e-04 0.0 
2.179308692134e-04 -1.444553077068e-04 0.0 
3.125564932324e-04 -3.757706139558e-04 0.0 
2.165377316734e-04 -1.376506117862e-04 0.0 
1.034230060510e-03 -1.367193900202e-04 0.0 
8.252968933888e-04 -2.330840910034e-04 0.0 
8.627945376495e-04 -1.779048046300e-04 0.0 
2.845792220076e-04 -1.222748823419e-04 0.0 
2.485491636773e-03 3.688341377570e-03 0.0 
1.961216009153e-04 -1.223030007029e-04 0.0 
1.087770987725e-03 -1.053556285246e-04 0.0 
2.518857307823e-03 1.654729548804e-03 0.0 
1.387008753285e-03 7.836531786971e-03 0.0 
1.385317342460e-03 3.107399489843e-04 0.0 
1.677451580470e-04 -1.223248780266e-04 0.0 
2.543469081436e-04 -1.223625852786e-04 0.0 
1.720502583187e-03 3.910474757299e-03 0.0 
9.842829765932e-04 -1.611771009559e-04 0.0 
1.475045822841e-04 -1.077733206933e-04 0.0 
5.530636417611e-05 5.877826592244e-03 0.0 
5.970439884537e-05 6.857233358586e-03 0.0 
1.824032223791e-03 4.995239649408e-03 0.0 
2.314215314970e-04 -1.072160679474e-04 0.0 
7.031429283123e-04 -2.761898403074e-04 0.0 
4.206170683411e-04 5.682690447776e-04 0.0 
8.421999459047e-04 1.907903054322e-04 0.0 
3.494537025914e-04 -3.849025564884e-04 0.0 
7.071411057956e-04 -2.666047931925e-04 0.0 
1.659353218867e-03 2.881303129391e-04 0.0 
1.565197956899e-03 7.146318096844e-03 0.0 
1.202486773074e-04 -1.080497719739e-04 0.0 
2.323376296682e-05 -3.009043963332e-04 0.0 
2.268595067049e-03 7.373443298452e-03 0.0 
2.030698378686e-04 -1.074001015266e-04 0.0 
8.741619906097e-04 -1.427756976513e-04 0.0 
3.638512282350e-04 -1.547762390463e-04 0.0 
2.020334544041e-04 1.011261310219e-04 0.0 
7.332250802482e-05 3.005704755769e-03 0.0 
8.349765190931e-04 -2.136584178434e-04 0.0 
7.229101585345e-04 8.644360065167e-05 0.0 
1.897874437612e-03 5.986763613842e-04 0.0 
1.812006992176e-04 -9.315435667603e-05 0.0 
1.540118865015e-04 -9.350569851906e-05 0.0 
9.736433251631e-04 -1.633835439878e-04 0.0 
3.161983291917e-04 -3.994160610729e-04 0.0 
2.053208530507e-04 1.685353715889e-04 0.0 
1.330102774339e-04 -8.009183299515e-05 0.0 
6.132688727744e-04 4.893402640916e-05 0.0 
5.905131999146e-04 -2.979031527257e-04 0.0 
2.395393329072e-03 1.454948695292e-03 0.0 
1.675548965445e-03 2.649465121542e-03 0.0 
2.489789156065e-03 1.786231817301e-03 0.0 
1.959996218333e-04 1.698124941749e-05 0.0 
1.093917789116e-04 -1.092315012345e-04 0.0 
1.112013949980e-05 2.605844669800e-04 0.0 
4.425734518776e-06 6.180558730448e-07 0.0 
3.605073755341e-05 8.409083417159e-03 0.0 
7.003492499965e-04 -2.427887998826e-04 0.0 
2.081845993822e-03 7.792953835546e-04 0.0 
1.073629122532e-03 -9.915869802616e-05 0.0 
1.977446455049e-04 -3.891465065049e-04 0.0 
9.255627462026e-05 3.584996951161e-04 0.0 
3.155010337155e-04 2.151773990220e-03 0.0 
2.535237705504e-03 4.156768398328e-03 0.0 
2.097144332581e-03 8.297603412034e-03 0.0 
3.041266764613e-04 1.094357634794e-04 0.0 
2.224403172828e-05 -3.229636978417e-04 0.0 
2.717035869033e-04 8.874632057739e-05 0.0 
2.452180233307e-03 4.343504252274e-03 0.0 
5.780326611846e-04 -2.561512617507e-04 0.0 
2.091218208639e-03 7.574991763204e-04 0.0 
6.648222726353e-04 -2.623028043022e-04 0.0 
5.184350942555e-04 7.496907636445e-04 0.0 
5.900937345115e-04 -2.851965384232e-04 0.0 
2.463941069569e-03 3.078552476828e-03 0.0 
6.101610257159e-05 -1.678879159722e-05 0.0 
7.923302656980e-04 -2.357703486134e-04 0.0 
2.349495376250e-03 1.558183719717e-03 0.0 
1.460557317759e-04 -1.571010907719e-04 0.0 
9.326198883812e-04 -1.866359978083e-04 0.0 
2.102819973031e-03 3.205139418213e-03 0.0 
4.819248259655e-04 -2.914673887369e-04 0.0 
5.197632375483e-04 -3.171979388716e-04 0.0 
2.005919920258e-03 6.495276321151e-04 0.0 
4.610630800922e-04 -3.318084736751e-04 0.0 
8.477410864497e-04 2.535867252489e-03 0.0 
1.219297358870e-03 3.171894452019e-03 0.0 
4.549938140830e-04 -3.202028593744e-04 0.0 
8.637292841993e-04 -1.055204126685e-04 0.0 
1.748847335179e-03 3.557706150202e-04 0.0 
2.306735210373e-03 1.411547810287e-03 0.0 
1.300222232636e-03 1.164195126689e-03 0.0 
1.800253126257e-03 4.631341072464e-03 0.0 
1.049103550033e-04 4.861975654259e-03 0.0 
1.216384864281e-03 6.597802798211e-04 0.0 
1.003337898719e-03 -1.273137845773e-04 0.0 
2.425995895658e-04 5.827619189170e-04 0.0 
1.876451493524e-03 2.818669935905e-03 0.0 
7.962415705031e-04 -1.397350341446e-04 0.0 
2.424016962639e-03 2.039007630897e-03 0.0 
8.462998653154e-04 -1.298181641545e-04 0.0 
3.695942757815e-04 9.371636257521e-05 0.0 
8.308447137234e-04 -6.885175131009e-05 0.0 
6.439986646365e-04 9.710891455409e-04 0.0 
1.666947913920e-03 2.801824162351e-04 0.0 
8.252830965620e-04 -9.246341961085e-05 0.0 
1.919673671776e-03 5.800884047562e-04 0.0 
3.895402760695e-04 6.069642705154e-03 0.0 
4.236701700993e-04 -3.201697218610e-04 0.0 
3.440317679925e-04 4.182905738274e-04 0.0 
7.819243841193e-04 -5.633426430501e-05 0.0 
8.098473514604e-04 1.253466906552e-03 0.0 
2.100781979945e-04 -1.030925754680e-04 0.0 
2.767072356842e-05 1.963007161754e-03 0.0 
3.682525095752e-05 2.933854421171e-03 0.0 
2.637938295805e-04 -4.107244577038e-04 0.0 
7.745696316053e-04 -3.444734945103e-05 0.0 
3.396389334885e-04 -3.557170371235e-04 0.0 
3.398770317102e-04 -3.434222417358e-04 0.0 
2.050707356573e-03 1.270086261248e-03 0.0 
1.839080810715e-03 4.952281543638e-04 0.0 
2.149917637322e-03 1.222752118674e-03 0.0 
8.842361427738e-04 -2.060539168814e-04 0.0 
6.397508833930e-04 9.737716843472e-03 0.0 
1.362039790883e-04 1.087371441175e-05 0.0 
3.148347727257e-04 -3.653376089092e-04 0.0 
8.318851295354e-04 9.371487034972e-05 0.0 
1.791805854151e-03 3.956533504930e-04 0.0 
8.210027010054e-05 -3.483072316614e-04 0.0 
2.554840242790e-03 2.529294282173e-03 0.0 
1.038045662289e-03 -1.367393059302e-04 0.0 
3.119640460049e-04 -3.913946207695e-04 0.0 
8.681915463054e-04 -2.125555711448e-04 0.0 
1.224957850798e-05 -6.619767822589e-05 0.0 
2.506757209130e-03 2.901474338310e-03 0.0 
3.402453362253e-04 -3.915366867230e-04 0.0 
5.092797910000e-05 -1.428246052126e-04 0.0 
2.252355086791e-03 1.620063224380e-03 0.0 
1.306279870598e-03 3.134279480672e-04 0.0 
5.198727960203e-04 -3.044848951748e-04 0.0 
4.696853865507e-05 -2.999510854384e-04 0.0 
1.739762099316e-03 3.561670114949e-04 0.0 
2.876245701568e-05 6.389749329678e-03 0.0 
3.185616141653e-04 -3.728523028324e-04 0.0 
8.460212920778e-04 4.007949791697e-04 0.0 
7.646176243119e-04 7.820140156264e-04 0.0 
1.272866603423e-04 7.750408901865e-03 0.0 
5.503721312929e-04 1.411765798339e-03 0.0 
7.717286676247e-04 6.103503155664e-04 0.0 
8.830646757062e-04 -1.992016303805e-04 0.0 
7.484513714494e-04 -2.467161314291e-04 0.0 
4.026752614198e-04 7.183827859631e-05 0.0 
1.178095879663e-04 -6.210531392233e-05 0.0 
1.120739806884e-05 -3.122487160905e-04 0.0 
3.736825369675e-05 -1.314013794043e-04 0.0 
4.858882112430e-04 -3.059377739830e-04 0.0 
7.428226480111e-04 -2.645992698816e-04 0.0 
4.371708219314e-04 1.651851748702e-03 0.0 
6.026679493582e-04 2.031409312938e-03 0.0 
1.189159516743e-03 7.839589151097e-03 0.0 
9.257958387298e-04 -1.888623567503e-04 0.0 
1.230735689185e-04 -2.968142808100e-04 0.0 
1.587664546732e-03 4.700193003324e-04 0.0 
4.548537289060e-05 3.874772186177e-06 0.0 
5.996936681575e-05 5.262147270983e-06 0.0 
7.438195206507e-04 -2.351549901130e-04 0.0 
1.491119301997e-03 8.310693226606e-03 0.0 
1.895391372944e-04 -1.674761168954e-04 0.0 
2.637906730837e-04 1.052012514025e-03 0.0 
4.366923124957e-04 -3.220747726092e-04 0.0 
3.454155754673e-04 1.322525546424e-03 0.0 
1.756685126320e-03 3.896106084129e-04 0.0 
6.272308957485e-04 -2.924743734363e-04 0.0 
7.906997197431e-04 -2.440684399510e-04 0.0 
3.014895205496e-04 -2.717404670210e-04 0.0 
8.449962680448e-05 2.653175755977e-03 0.0 
6.669822776357e-04 -2.745576562961e-04 0.0 
2.733716527432e-04 2.104785370158e-03 0.0 
2.209003376110e-04 3.525997454950e-03 0.0 
3.338889921113e-05 5.755508840418e-04 0.0 
9.944932652745e-06 1.091978778347e-06 0.0 
6.699267938310e-05 7.859952066041e-03 0.0 
6.246514253450e-04 -2.675129071399e-04 0.0 
9.009742434690e-04 2.924435606881e-03 0.0 
6.176386331626e-04 -2.530657983409e-04 0.0 
1.712806880120e-05 1.373589710234e-06 0.0 
1.591142126410e-04 6.424382399172e-04 0.0 
2.040881029606e-04 8.285690908702e-04 0.0 
8.063277125131e-04 1.181010305593e-04 0.0 
1.099052799358e-03 8.748609611736e-03 0.0 
1.629070059663e-04 2.018923713481e-03 0.0 
2.226050785724e-03 1.482136955711e-03 0.0 
1.092076550101e-03 2.921285758475e-04 0.0 
2.080197206330e-03 1.845316655568e-03 0.0 
4.362861854106e-04 7.526981950313e-03 0.0 
4.544512374038e-04 -3.328762976561e-04 0.0 
4.852360760917e-04 -3.313242559615e-04 0.0 
1.298937494510e-04 5.351155900135e-03 0.0 
1.268261847620e-03 3.489271895899e-04 0.0 
1.836503056283e-03 8.649202321628e-03 0.0 
2.269437058602e-04 8.842621941680e-03 0.0 
2.766543159028e-04 7.979026408055e-03 0.0 
5.000598492014e-04 7.644614619667e-03 0.0 
4.078049571599e-04 -2.528993014177e-04 0.0 
4.226456961722e-04 -3.452724034624e-04 0.0 
2.478056875345e-04 1.278347738383e-03 0.0 
4.950447789802e-04 6.596428502323e-03 0.0 
3.661744083237e-04 8.853510903510e-05 0.0 
1.380422914170e-03 1.164483410125e-03 0.0 
2.557661639155e-03 2.341280720473e-03 0.0 
8.045021635157e-04 1.935898209979e-03 0.0 
1.743859692006e-04 -2.295275704780e-04 0.0 
1.716328794081e-04 -2.576688761156e-04 0.0 
2.372162460322e-04 1.213428806090e-05 0.0 
2.524278050241e-04 -2.709511712087e-04 0.0 
5.843470433366e-05 -3.097440376452e-04 0.0 
1.416664104929e-04 4.826452874588e-05 0.0 
1.880589352695e-05 -3.608127104138e-04 0.0 
2.819086890495e-04 8.548987426220e-03 0.0 
5.064218125688e-04 6.576967323859e-05 0.0 
2.429134301940e-04 -4.098049639992e-04 0.0 
1.776848356915e-04 -4.085457182151e-04 0.0 
1.553526785084e-04 4.856262146550e-04 0.0 
9.378325990534e-04 9.428322291554e-03 0.0 
3.702849688210e-04 1.371168993238e-03 0.0 
5.257993314583e-04 8.709303718741e-05 0.0 
8.174095853674e-04 9.451272015911e-03 0.0 
1.660289549526e-04 -6.235276927307e-05 0.0 
5.781305677035e-05 1.079609007319e-03 0.0 
1.771306545388e-04 -3.757384438306e-04 0.0 
4.076762774616e-04 1.800285095753e-03 0.0 
1.335809580631e-05 1.071558534326e-06 0.0 
1.241153356788e-03 1.303879762462e-03 0.0 
5.038707035935e-04 -2.556555213817e-04 0.0 
1.722836854702e-03 7.530842706262e-03 0.0 
1.057922775539e-04 -2.259256402490e-04 0.0 
1.520504918944e-03 4.127172496672e-04 0.0 
1.953400661387e-04 4.939614880371e-05 0.0 
1.264351442982e-04 4.364278730509e-03 0.0 
1.798372399638e-04 4.112736757418e-05 0.0 
3.107467193013e-04 -2.404112008346e-04 0.0 
8.157808194228e-05 3.400972521788e-06 0.0 
5.282709462665e-04 -2.979745657223e-04 0.0 
8.658849200143e-05 -3.646676928832e-04 0.0 
2.727931908779e-04 3.509464879711e-05 0.0 
6.574118656534e-04 1.102396982652e-03 0.0 
3.380718659345e-04 9.497864728638e-04 0.0 
6.302319582199e-04 8.729976555671e-03 0.0 
2.228952791997e-03 6.603287943126e-03 0.0 
5.216117067258e-04 6.201458633255e-04 0.0 
8.918041931540e-04 6.752684339855e-04 0.0 
8.850826580882e-05 -2.634417522162e-04 0.0 
3.002251281873e-04 2.068627401218e-04 0.0 
1.371109648693e-03 3.594547133420e-04 0.0 
5.099103966431e-04 9.748597063014e-03 0.0 
8.780724543759e-04 1.512381806263e-03 0.0 
4.686642859478e-06 5.473853171146e-04 0.0 
4.686642859478e-06 2.308977229670e-04 0.0 
1.895931862163e-05 -4.020226195295e-04 0.0 
7.938324050852e-06 -3.970843185315e-04 0.0 
2.775271263813e-05 9.381201860751e-03 0.0 
6.583669768358e-05 9.721195169672e-03 0.0 
1.714007121730e-06 4.175686917745e-07 0.0 
1.714007121730e-06 5.818248904730e-07 0.0 
3.466694980828e-05 -3.909025281561e-04 0.0 
1.759059747974e-04 -2.338838839686e-04 0.0 
8.123705199805e-05 -2.250863339639e-06 0.0 
1.126670995992e-03 4.111196800727e-04 0.0 
1.535348164243e-04 -3.636118152053e-04 0.0 
1.377149869604e-04 3.289771303827e-06 0.0 
2.179516470719e-05 -1.071341845252e-04 0.0 
2.357420311468e-05 -1.632891495098e-04 0.0 
3.379919233923e-04 6.210937618480e-03 0.0 
4.043526881798e-04 -3.583454284007e-04 0.0 
1.710419472763e-03 4.599536014523e-04 0.0 
1.623595754862e-04 -3.796714043355e-04 0.0 
1.429720040973e-04 -1.955724451832e-04 0.0 
1.180910311323e-03 9.184940749559e-04 0.0 
1.590858763686e-05 2.427861938100e-03 0.0 
4.530162285595e-05 -1.599831496331e-04 0.0 
2.129607138172e-04 7.206633123275e-03 0.0 
1.219016791239e-03 5.600581465164e-04 0.0 
1.908979205389e-03 1.466095498118e-03 0.0 
2.273688973788e-03 1.900538312147e-03 0.0 
7.032956990039e-04 9.421520395889e-03 0.0 
1.667102161306e-03 3.762254974339e-04 0.0 
1.062934109476e-03 1.455628919969e-03 0.0 
8.333702340117e-05 -3.082340859517e-04 0.0 
2.520869134881e-04 -4.146927003277e-04 0.0 
1.442874571143e-03 6.893328396377e-04 0.0 
8.762998621060e-04 1.117770617415e-04 0.0 
3.747049323844e-04 -3.579348461319e-04 0.0 
1.794245623204e-04 5.457634793558e-03 0.0 
4.431368897052e-05 1.614065484363e-06 0.0 
1.365324965377e-03 5.581694534905e-04 0.0 
1.165129545975e-03 4.786093438237e-04 0.0 
2.587704887715e-05 -8.066426323402e-05 0.0 
1.532297869734e-04 9.085325985108e-05 0.0 
4.173300872151e-04 1.902722319100e-03 0.0 
7.937489788806e-04 1.055550696041e-03 0.0 
1.840366973238e-03 7.134418175526e-03 0.0 
1.743956479906e-03 4.430785144226e-04 0.0 
3.161992081230e-04 1.751114082298e-03 0.0 
3.565187298647e-04 6.987493188355e-05 0.0 
3.010180586535e-04 -3.841454913255e-04 0.0 
2.795080431512e-04 -4.077233988907e-04 0.0 
2.395578895499e-04 1.222586536643e-03 0.0 
2.986540161134e-04 5.006112777532e-03 0.0 
1.372744863286e-04 -2.839030393344e-04 0.0 
7.516541528215e-04 1.535182317765e-03 0.0 
9.280714660668e-05 -3.569037441820e-04 0.0 
6.177764685823e-04 1.115126743634e-04 0.0 
1.102600219823e-03 7.783076024597e-03 0.0 
5.051223168718e-04 1.491898823443e-04 0.0 
1.492009590656e-03 4.591222438826e-04 0.0 
2.031581694603e-03 6.922156335755e-03 0.0 
2.170802252638e-04 2.187311734920e-05 0.0 
5.828256189279e-04 1.112754511663e-03 0.0 
4.730643299058e-05 1.264857974033e-03 0.0 
1.389932235890e-04 7.620720822487e-04 0.0 
7.358124941500e-04 1.913708796793e-03 0.0 
7.138340096875e-04 3.532735807071e-04 0.0 
6.187472929110e-04 1.024978926661e-04 0.0 
1.322002161795e-03 3.912926694652e-04 0.0 
2.431965808873e-05 2.063695980898e-06 0.0 
2.267724941057e-03 2.038652466685e-03 0.0 
6.563686860568e-05 1.450705511682e-04 0.0 
3.514123754649e-04 3.249116722035e-04 0.0 
1.676004975816e-03 1.353728772428e-03 0.0 
1.716268491844e-03 6.625921239212e-03 0.0 
4.221436413584e-05 -4.920296590732e-06 0.0 
1.184165535499e-03 3.637559132134e-04 0.0 
8.579599813542e-05 5.712497093327e-06 0.0 
2.667271446622e-04 4.004712740873e-03 0.0 
4.511486024990e-04 1.218538017418e-04 0.0 
2.669079904235e-04 1.908950965792e-05 0.0 
2.846005857139e-04 2.308396771673e-05 0.0 
9.954190382406e-05 -2.744204227066e-04 0.0 
3.829378360308e-05 3.184665915512e-06 0.0 
1.388571295684e-03 8.697059528512e-03 0.0 
1.978344198376e-04 2.044668525722e-03 0.0 
2.986978535750e-04 -4.024647122391e-04 0.0 
1.261512024340e-04 2.846349285030e-03 0.0 
2.713417658256e-04 5.409508468106e-03 0.0 
1.767656314993e-05 -3.759956127773e-04 0.0 
4.607456277442e-04 -2.375207396696e-04 0.0 
2.100968612328e-03 1.624374083355e-03 0.0 
2.710282119133e-04 1.035753291003e-03 0.0 
9.963377505766e-05 1.953067121923e-03 0.0 
5.704372339730e-04 1.451116717390e-04 0.0 
5.334395981803e-04 7.123116141927e-03 0.0 
2.228050913931e-04 -4.160544071066e-04 0.0 
2.405725329976e-04 -2.925988775605e-05 0.0 
2.195859460005e-04 -4.117192360480e-04 0.0 
3.048320105167e-04 -4.024444307884e-04 0.0 
4.750341471400e-05 2.081147237397e-04 0.0 
1.289703954090e-04 -2.059058346520e-04 0.0 
5.312427077833e-05 -4.607562427826e-06 0.0 
1.232984466446e-03 1.393864025781e-03 0.0 
2.191369564072e-03 6.176423440188e-03 0.0 
1.883749757407e-04 -2.450294432805e-04 0.0 
2.289157907122e-04 8.920763285389e-06 0.0 
4.672906428578e-04 5.114410315596e-05 0.0 
6.223767321634e-04 1.914260912103e-04 0.0 
1.100727682549e-03 5.301534558132e-04 0.0 
1.703636711597e-03 1.217800598998e-03 0.0 
2.832969741439e-04 -4.074910842468e-04 0.0 
2.692993974098e-04 -2.112041457449e-04 0.0 
7.450812206514e-05 -3.560474667907e-06 0.0 
3.470557655333e-05 -3.735844715065e-04 0.0 
7.584832505452e-06 -3.686287587213e-04 0.0 
1.503282858676e-04 2.987570557187e-04 0.0 
2.316362439862e-04 -4.077671084559e-04 0.0 
1.619299020642e-04 1.703348516225e-05 0.0 
7.267938200983e-04 4.514384299734e-04 0.0 
2.822209780068e-04 1.750209665019e-03 0.0 
5.090266229821e-04 1.651917702603e-04 0.0 
5.634747160041e-04 5.610530560191e-05 0.0 
4.362881914887e-04 6.565796161482e-03 0.0 
7.105430983936e-05 2.017956965687e-04 0.0 
5.102038243542e-04 -3.191721008198e-04 0.0 
8.682602065438e-04 9.761354815358e-03 0.0 
3.469370090896e-04 -3.709353218135e-04 0.0 
1.670692994446e-04 -4.028182613333e-04 0.0 
2.575749853816e-05 1.963739186479e-06 0.0 
1.927730448249e-03 8.056835635793e-03 0.0 
1.004918215344e-04 -3.710368716235e-04 0.0 
9.121830445507e-05 -2.118703225383e-04 0.0 
8.558159764032e-04 5.726619135533e-04 0.0 
4.574986635888e-04 1.843739843865e-03 0.0 
5.568608945556e-04 8.428110442014e-04 0.0 
6.079406389333e-05 -2.875940168370e-04 0.0 
2.582126107456e-04 -8.516383432817e-05 0.0 
1.149585313049e-04 6.228004755291e-06 0.0 
1.580678235928e-05 4.914821899470e-04 0.0 
6.139741640506e-06 1.035624564819e-06 0.0 
6.380345019154e-05 8.839728538569e-03 0.0 
4.247432075592e-04 5.470693511201e-05 0.0 
1.169672701716e-04 -3.680722189583e-04 0.0 
7.020356814199e-04 1.556977711451e-03 0.0 
1.889630369377e-04 -4.078742354228e-04 0.0 
2.024254722945e-04 2.687167917796e-05 0.0 
7.332115928773e-04 1.079286697805e-03 0.0 
1.822373062838e-04 -1.262694783967e-05 0.0 
1.337293284798e-03 5.088171264423e-04 0.0 
2.606620409699e-04 4.481853302033e-03 0.0 
1.770573970404e-04 9.902256164987e-04 0.0 
7.700688547450e-05 1.852177232511e-05 0.0 
1.053160841523e-04 5.860658254783e-03 0.0 
7.100125127110e-04 4.952408305086e-04 0.0 
9.345790937142e-04 1.489133385508e-03 0.0 
2.132154602221e-04 5.150367417388e-03 0.0 
1.119223401032e-03 7.738146690961e-04 0.0 
1.045258196748e-04 -2.517325553535e-04 0.0 
4.503753644396e-04 9.451951753523e-03 0.0 
8.800787713625e-04 2.918559454052e-04 0.0 
1.644877879104e-05 1.047600700890e-03 0.0 
3.559621373457e-05 -3.986476667398e-04 0.0 
1.228981704056e-04 9.435193423572e-03 0.0 
5.561137422411e-06 3.732520395004e-07 0.0 
1.728461470111e-04 -3.656001241359e-04 0.0 
5.598628643522e-04 8.264702687317e-05 0.0 
1.140171791839e-03 1.471498262792e-03 0.0 
2.060398321943e-04 1.288023538501e-03 0.0 
1.125931745477e-04 -3.589176874232e-04 0.0 
2.635963042192e-04 1.686531953462e-04 0.0 
9.527724345097e-06 -1.484907431814e-04 0.0 
1.054826168433e-04 3.476813444144e-03 0.0 
1.400369629128e-04 -1.950910985677e-04 0.0 
4.364487611016e-04 8.733757213475e-04 0.0 
1.891797413140e-04 6.052566419119e-03 0.0 
3.919724083496e-04 -3.704989720140e-04 0.0 
3.511041240074e-04 6.776871806486e-03 0.0 
6.771786596575e-04 2.306336604497e-04 0.0 
1.769541868312e-05 -1.337615174965e-04 0.0 
7.661234002600e-05 2.421814370751e-04 0.0 
1.248196150635e-04 -2.723562981390e-04 0.0 
1.273045974012e-04 -1.798821894488e-04 0.0 
8.167694338018e-06 -1.195165763650e-04 0.0 
7.583219042839e-04 1.944622514711e-04 0.0 
6.635325333504e-05 -1.838010917136e-04 0.0 
8.385468330336e-05 -1.653581273856e-04 0.0 
2.068377861103e-04 -4.038172988737e-04 0.0 
1.489361956164e-04 4.509235400787e-06 0.0 
1.479300544621e-03 7.572657266883e-04 0.0 
3.731564612976e-04 1.634548013009e-04 0.0 
2.756891829085e-05 9.916975737221e-04 0.0 
9.986871941186e-06 8.270517138467e-07 0.0 
1.208649229135e-04 8.892748218596e-03 0.0 
1.418674782999e-04 6.270195552361e-03 0.0 
9.163154085219e-05 -1.878318032057e-04 0.0 
1.014520298488e-04 -1.776140401757e-04 0.0 
6.160416900201e-05 -1.690468784712e-04 0.0 
7.075825273966e-04 1.059015991576e-04 0.0 
3.587234685965e-04 -3.775558208828e-04 0.0 
1.268603045187e-03 6.517730357368e-04 0.0 
2.249218409507e-04 7.770804545283e-03 0.0 
5.252041892000e-04 1.152562829038e-03 0.0 
6.685797059886e-04 9.230636064182e-05 0.0 
4.109093468981e-04 6.974851131732e-03 0.0 
1.499830617446e-03 1.132299125668e-03 0.0 
7.739811716971e-04 2.114939903529e-04 0.0 
5.878319415091e-04 1.654782749590e-04 0.0 
1.125505712634e-04 1.965892839147e-04 0.0 
1.512654979960e-03 1.079199369912e-03 0.0 
1.284786634474e-03 8.672294255628e-04 0.0 
1.938044846782e-04 -4.024735582786e-04 0.0 
1.034824997162e-04 -2.004333419477e-04 0.0 
1.121892228410e-04 1.398248603285e-04 0.0 
1.262526055508e-03 9.396192270218e-04 0.0 
1.935345828149e-04 1.269235022146e-02 0.0 
2.203048753056e-04 1.235365939562e-02 0.0 
3.026316808659e-04 1.269776350756e-02 0.0 
3.274385218237e-04 1.236230704796e-02 0.0 
4.021086476206e-04 1.270401254576e-02 0.0 
4.324110765714e-04 1.236741340522e-02 0.0 
5.017910536656e-04 1.270689147948e-02 0.0 
5.339006307372e-04 1.237004030471e-02 0.0 
5.975527680562e-04 1.270655819578e-02 0.0 
6.301121984666e-04 1.236909533019e-02 0.0 
6.864885156452e-04 1.270138693232e-02 0.0 
7.195895041194e-04 1.236244588181e-02 0.0 
7.680457128689e-04 1.268867097906e-02 0.0 
8.024643429026e-04 1.234708448350e-02 0.0 
8.413642740891e-04 1.266546820572e-02 0.0 
9.446909051366e-04 9.449396255232e-03 0.0 
8.766907758833e-04 1.232014645567e-02 0.0 
1.081583867701e-03 9.644780784279e-03 0.0 
9.029653176319e-04 1.262791952173e-02 0.0 
9.393933420709e-04 1.227672209384e-02 0.0 
9.484804994892e-04 1.257013784784e-02 0.0 
9.875152322876e-04 1.220994445124e-02 0.0 
9.742671380340e-04 1.248439412126e-02 0.0 
1.019474712804e-03 1.211059898168e-02 0.0 
5.174797629091e-04 9.640973075937e-03 0.0 
9.781623703344e-04 1.236050671467e-02 0.0 
1.035016869135e-03 1.196646277577e-02 0.0 
9.601565278406e-04 1.218491217460e-02 0.0 
1.036705296742e-03 1.176181154518e-02 0.0 
9.187247871908e-04 1.193843795583e-02 0.0 
1.025285371069e-03 1.147173821687e-02 0.0 
8.519735478015e-04 1.159161419688e-02 0.0 
1.008298806578e-03 1.106189438125e-02 0.0 
1.007181891997e-03 1.048476540982e-02 0.0 
7.718258584787e-04 1.111039701694e-02 0.0 
1.281386679735e-03 8.704691379378e-03 0.0 
7.180509733570e-04 1.043035265986e-02 0.0 
8.541755375074e-04 8.896268200084e-03 0.0 
2.492116778891e-05 1.251943129483e-02 0.0 
1.234724907400e-04 1.251994685376e-02 0.0 
6.762429275000e-05 1.217533031334e-02 0.0 
8.076936577888e-05 1.286404783525e-02 0.0 
9.854095773034e-04 8.190173167750e-03 0.0 
1.560815907581e-04 1.133185890570e-02 0.0 
2.009310078804e-04 1.167533947846e-02 0.0 
2.710252891917e-04 1.134141692034e-02 0.0 
3.152059975746e-04 1.168428037790e-02 0.0 
3.816050217084e-04 1.134921334363e-02 0.0 
4.241399749084e-04 1.169064087314e-02 0.0 
4.886040605258e-04 1.135482028286e-02 0.0 
5.289847392604e-04 1.169474164018e-02 0.0 
5.922235931554e-04 1.135775519349e-02 0.0 
6.296989150426e-04 1.169559099243e-02 0.0 
6.922939770609e-04 1.135632240044e-02 0.0 
7.258082489592e-04 1.169088568768e-02 0.0 
7.884630192918e-04 1.134779848452e-02 0.0 
1.549952174874e-03 9.743685483590e-03 0.0 
8.166629044857e-04 1.167777218309e-02 0.0 
8.804076697306e-04 1.132959113220e-02 0.0 
1.373921338039e-03 9.972495589033e-03 0.0 
9.015356099417e-04 1.165358168255e-02 0.0 
9.677277621427e-04 1.129800173039e-02 0.0 
1.584636749865e-03 9.784745135195e-03 0.0 
9.793109525234e-04 1.161336907560e-02 0.0 
1.050085544446e-03 1.124666733355e-02 0.0 
1.049202666792e-03 1.154982695519e-02 0.0 
1.127976873963e-03 1.116712318456e-02 0.0 
1.111497014229e-03 1.145344554104e-02 0.0 
1.723844586776e-03 9.252737230066e-03 0.0 
1.203174758514e-03 1.104835249288e-02 0.0 
1.168006955890e-03 1.131146199462e-02 0.0 
1.222732482010e-03 1.110746711124e-02 0.0 
1.279173799864e-03 1.087556695950e-02 0.0 
1.282778195182e-03 1.081750879880e-02 0.0 
1.362244796572e-03 1.062986410382e-02 0.0 
1.357330054882e-03 1.040602243426e-02 0.0 
1.458497620219e-03 1.028151283182e-02 0.0 
1.547813749941e-03 9.481547335509e-03 0.0 
1.973441567884e-05 1.149313109173e-02 0.0 
1.002066139982e-04 1.149727313608e-02 0.0 
6.243754063993e-05 1.183482799426e-02 0.0 
5.750348903715e-05 1.115557623355e-02 0.0 
1.544607198242e-03 9.208245280717e-03 0.0 
1.514624508425e-04 1.065253556146e-02 0.0 
1.903425896726e-04 1.031587532941e-02 0.0 
2.650560108995e-04 1.066127611552e-02 0.0 
3.046655262217e-04 1.032461687648e-02 0.0 
3.770338286477e-04 1.066969064702e-02 0.0 
4.178497381708e-04 1.033263977211e-02 0.0 
4.868850168489e-04 1.067634187844e-02 0.0 
5.296689878145e-04 1.033874504548e-02 0.0 
5.946268853864e-04 1.068023700321e-02 0.0 
6.402027318720e-04 1.034148236471e-02 0.0 
7.003945016594e-04 1.067973196300e-02 0.0 
7.499098081490e-04 1.033894806928e-02 0.0 
1.737704083222e-03 9.496442386912e-03 0.0 
8.044640538831e-04 1.067245130357e-02 0.0 
1.724254508698e-03 9.442024794339e-03 0.0 
8.586677208829e-04 1.032808805714e-02 0.0 
9.064114515366e-04 1.065525418721e-02 0.0 
9.672552585537e-04 1.030575466076e-02 0.0 
1.007443628949e-03 1.062451165359e-02 0.0 
1.076983511154e-03 1.026680107162e-02 0.0 
1.108042236270e-03 1.057358940637e-02 0.0 
1.188808952967e-03 1.020312825821e-02 0.0 
1.655689637193e-03 9.764921819276e-03 0.0 
1.209626468314e-03 1.049350241477e-02 0.0 
1.305119700816e-03 1.010449317637e-02 0.0 
1.315147850751e-03 1.037302089801e-02 0.0 
1.429544720406e-03 9.957676725581e-03 0.0 
1.566807948842e-03 9.744716398459e-03 0.0 
1.428738472143e-03 1.019711328533e-02 0.0 
1.556755591125e-03 9.945567065209e-03 0.0 
1.864844319366e-03 9.141754997399e-03 0.0 
1.782829873337e-03 9.410234429763e-03 0.0 
1.856876451935e-05 1.047634880823e-02 0.0 
9.442182292311e-05 1.047906461594e-02 0.0 
5.665274956480e-05 1.013872236653e-02 0.0 
5.633783787766e-05 1.081669105764e-02 0.0 
1.812944551345e-03 9.305548143243e-03 0.0 

VECTORS element_materi_displacement float
0.0 0.0 0.0 
0.0 0.0 0.0 
0.0 0.0 0.0 
0.0 0.0 0.0 
0.0 0.0 0.0 
0.0 0.0 0.0 
0.0 0.0 0.0 
0.0 0.0 0.0 
0.0 0.0 0.0 
0.0 0.0 0.0 
0.0 0.0 0.0 
0.0 0.0 0.0 
0.0 0.0 0.0 
0.0 0.0 0.0 
0.0 0.0 0.0 
0.0 0.0 0.0 
0.0 0.0 0.0 
0.0 0.0 0.0 
0.0 0.0 0.0 
0.0 0.0 0.0 
0.0 0.0 0.0 
0.0 0.0 0.0 
0.0 0.0 0.0 
0.0 0.0 0.0 
0.0 0.0 0.0 
0.0 0.0 0.0 
0.0 0.0 0.0 
0.0 0.0 0.0 
0.0 0.0 0.0 
0.0 0.0 0.0 
0.0 0.0 0.0 
0.0 0.0 0.0 
0.0 0.0 0.0 
0.0 0.0 0.0 
0.0 0.0 0.0 
0.0 0.0 0.0 
0.0 0.0 0.0 
0.0 0.0 0.0 
0.0 0.0 0.0 
0.0 0.0 0.0 
0.0 0.0 0.0 
0.0 0.0 0.0 
0.0 0.0 0.0 
0.0 0.0 0.0 
0.0 0.0 0.0 
0.0 0.0 0.0 
0.0 0.0 0.0 
0.0 0.0 0.0 
0.0 0.0 0.0 
0.0 0.0 0.0 
0.0 0.0 0.0 
0.0 0.0 0.0 
0.0 0.0 0.0 
0.0 0.0 0.0 
0.0 0.0 0.0 
0.0 0.0 0.0 
0.0 0.0 0.0 
0.0 0.0 0.0 
0.0 0.0 0.0 
0.0 0.0 0.0 
0.0 0.0 0.0 
0.0 0.0 0.0 
0.0 0.0 0.0 
0.0 0.0 0.0 
0.0 0.0 0.0 
0.0 0.0 0.0 
0.0 0.0 0.0 
0.0 0.0 0.0 
0.0 0.0 0.0 
0.0 0.0 0.0 
0.0 0.0 0.0 
0.0 0.0 0.0 
0.0 0.0 0.0 
0.0 0.0 0.0 
0.0 0.0 0.0 
0.0 0.0 0.0 
0.0 0.0 0.0 
0.0 0.0 0.0 
0.0 0.0 0.0 
0.0 0.0 0.0 
0.0 0.0 0.0 
0.0 0.0 0.0 
0.0 0.0 0.0 
0.0 0.0 0.0 
0.0 0.0 0.0 
0.0 0.0 0.0 
0.0 0.0 0.0 
0.0 0.0 0.0 
0.0 0.0 0.0 
0.0 0.0 0.0 
0.0 0.0 0.0 
0.0 0.0 0.0 
0.0 0.0 0.0 
0.0 0.0 0.0 
0.0 0.0 0.0 
0.0 0.0 0.0 
0.0 0.0 0.0 
0.0 0.0 0.0 
0.0 0.0 0.0 
0.0 0.0 0.0 
0.0 0.0 0.0 
0.0 0.0 0.0 
0.0 0.0 0.0 
0.0 0.0 0.0 
0.0 0.0 0.0 
0.0 0.0 0.0 
0.0 0.0 0.0 
0.0 0.0 0.0 
0.0 0.0 0.0 
0.0 0.0 0.0 
0.0 0.0 0.0 
0.0 0.0 0.0 
0.0 0.0 0.0 
0.0 0.0 0.0 
0.0 0.0 0.0 
0.0 0.0 0.0 
0.0 0.0 0.0 
0.0 0.0 0.0 
0.0 0.0 0.0 
0.0 0.0 0.0 
0.0 0.0 0.0 
0.0 0.0 0.0 
0.0 0.0 0.0 
0.0 0.0 0.0 
0.0 0.0 0.0 
0.0 0.0 0.0 
0.0 0.0 0.0 
0.0 0.0 0.0 
0.0 0.0 0.0 
0.0 0.0 0.0 
0.0 0.0 0.0 
0.0 0.0 0.0 
0.0 0.0 0.0 
0.0 0.0 0.0 
0.0 0.0 0.0 
0.0 0.0 0.0 
0.0 0.0 0.0 
0.0 0.0 0.0 
0.0 0.0 0.0 
0.0 0.0 0.0 
0.0 0.0 0.0 
0.0 0.0 0.0 
0.0 0.0 0.0 
0.0 0.0 0.0 
0.0 0.0 0.0 
0.0 0.0 0.0 
0.0 0.0 0.0 
0.0 0.0 0.0 
0.0 0.0 0.0 
0.0 0.0 0.0 
0.0 0.0 0.0 
0.0 0.0 0.0 
0.0 0.0 0.0 
0.0 0.0 0.0 
0.0 0.0 0.0 
0.0 0.0 0.0 
0.0 0.0 0.0 
0.0 0.0 0.0 
0.0 0.0 0.0 
0.0 0.0 0.0 
0.0 0.0 0.0 
0.0 0.0 0.0 
0.0 0.0 0.0 
0.0 0.0 0.0 
0.0 0.0 0.0 
0.0 0.0 0.0 
0.0 0.0 0.0 
0.0 0.0 0.0 
0.0 0.0 0.0 
0.0 0.0 0.0 
0.0 0.0 0.0 
0.0 0.0 0.0 
0.0 0.0 0.0 
0.0 0.0 0.0 
0.0 0.0 0.0 
0.0 0.0 0.0 
0.0 0.0 0.0 
0.0 0.0 0.0 
0.0 0.0 0.0 
0.0 0.0 0.0 
0.0 0.0 0.0 
0.0 0.0 0.0 
0.0 0.0 0.0 
0.0 0.0 0.0 
0.0 0.0 0.0 
0.0 0.0 0.0 
0.0 0.0 0.0 
0.0 0.0 0.0 
0.0 0.0 0.0 
0.0 0.0 0.0 
0.0 0.0 0.0 
0.0 0.0 0.0 
0.0 0.0 0.0 
0.0 0.0 0.0 
0.0 0.0 0.0 
0.0 0.0 0.0 
0.0 0.0 0.0 
0.0 0.0 0.0 
0.0 0.0 0.0 
0.0 0.0 0.0 
0.0 0.0 0.0 
0.0 0.0 0.0 
0.0 0.0 0.0 
0.0 0.0 0.0 
0.0 0.0 0.0 
0.0 0.0 0.0 
0.0 0.0 0.0 
0.0 0.0 0.0 
0.0 0.0 0.0 
0.0 0.0 0.0 
0.0 0.0 0.0 
0.0 0.0 0.0 
0.0 0.0 0.0 
0.0 0.0 0.0 
0.0 0.0 0.0 
0.0 0.0 0.0 
0.0 0.0 0.0 
0.0 0.0 0.0 
0.0 0.0 0.0 
0.0 0.0 0.0 
0.0 0.0 0.0 
0.0 0.0 0.0 
0.0 0.0 0.0 
0.0 0.0 0.0 
0.0 0.0 0.0 
0.0 0.0 0.0 
0.0 0.0 0.0 
0.0 0.0 0.0 
0.0 0.0 0.0 
0.0 0.0 0.0 
0.0 0.0 0.0 
0.0 0.0 0.0 
0.0 0.0 0.0 
0.0 0.0 0.0 
0.0 0.0 0.0 
0.0 0.0 0.0 
0.0 0.0 0.0 
0.0 0.0 0.0 
0.0 0.0 0.0 
0.0 0.0 0.0 
0.0 0.0 0.0 
0.0 0.0 0.0 
0.0 0.0 0.0 
0.0 0.0 0.0 
0.0 0.0 0.0 
0.0 0.0 0.0 
0.0 0.0 0.0 
0.0 0.0 0.0 
0.0 0.0 0.0 
0.0 0.0 0.0 
0.0 0.0 0.0 
0.0 0.0 0.0 
0.0 0.0 0.0 
0.0 0.0 0.0 
0.0 0.0 0.0 
0.0 0.0 0.0 
0.0 0.0 0.0 
0.0 0.0 0.0 
0.0 0.0 0.0 
0.0 0.0 0.0 
0.0 0.0 0.0 
0.0 0.0 0.0 
0.0 0.0 0.0 
0.0 0.0 0.0 
0.0 0.0 0.0 
0.0 0.0 0.0 
0.0 0.0 0.0 
0.0 0.0 0.0 
0.0 0.0 0.0 
0.0 0.0 0.0 
0.0 0.0 0.0 
0.0 0.0 0.0 
0.0 0.0 0.0 
0.0 0.0 0.0 
0.0 0.0 0.0 
0.0 0.0 0.0 
0.0 0.0 0.0 
0.0 0.0 0.0 
0.0 0.0 0.0 
0.0 0.0 0.0 
0.0 0.0 0.0 
0.0 0.0 0.0 
0.0 0.0 0.0 
0.0 0.0 0.0 
0.0 0.0 0.0 
0.0 0.0 0.0 
0.0 0.0 0.0 
0.0 0.0 0.0 
0.0 0.0 0.0 
0.0 0.0 0.0 
0.0 0.0 0.0 
0.0 0.0 0.0 
0.0 0.0 0.0 
0.0 0.0 0.0 
0.0 0.0 0.0 
0.0 0.0 0.0 
0.0 0.0 0.0 
0.0 0.0 0.0 
0.0 0.0 0.0 
0.0 0.0 0.0 
0.0 0.0 0.0 
0.0 0.0 0.0 
0.0 0.0 0.0 
0.0 0.0 0.0 
0.0 0.0 0.0 
0.0 0.0 0.0 
0.0 0.0 0.0 
0.0 0.0 0.0 
0.0 0.0 0.0 
0.0 0.0 0.0 
0.0 0.0 0.0 
0.0 0.0 0.0 
0.0 0.0 0.0 
0.0 0.0 0.0 
0.0 0.0 0.0 
0.0 0.0 0.0 
0.0 0.0 0.0 
0.0 0.0 0.0 
0.0 0.0 0.0 
0.0 0.0 0.0 
0.0 0.0 0.0 
0.0 0.0 0.0 
0.0 0.0 0.0 
0.0 0.0 0.0 
0.0 0.0 0.0 
0.0 0.0 0.0 
0.0 0.0 0.0 
0.0 0.0 0.0 
0.0 0.0 0.0 
0.0 0.0 0.0 
0.0 0.0 0.0 
0.0 0.0 0.0 
0.0 0.0 0.0 
0.0 0.0 0.0 
0.0 0.0 0.0 
0.0 0.0 0.0 
0.0 0.0 0.0 
0.0 0.0 0.0 
0.0 0.0 0.0 
0.0 0.0 0.0 
0.0 0.0 0.0 
0.0 0.0 0.0 
0.0 0.0 0.0 
0.0 0.0 0.0 
0.0 0.0 0.0 
0.0 0.0 0.0 
0.0 0.0 0.0 
0.0 0.0 0.0 
0.0 0.0 0.0 
0.0 0.0 0.0 
0.0 0.0 0.0 
0.0 0.0 0.0 
0.0 0.0 0.0 
0.0 0.0 0.0 
0.0 0.0 0.0 
0.0 0.0 0.0 
0.0 0.0 0.0 
0.0 0.0 0.0 
0.0 0.0 0.0 
0.0 0.0 0.0 
0.0 0.0 0.0 
0.0 0.0 0.0 
0.0 0.0 0.0 
0.0 0.0 0.0 
0.0 0.0 0.0 
0.0 0.0 0.0 
0.0 0.0 0.0 
0.0 0.0 0.0 
0.0 0.0 0.0 
0.0 0.0 0.0 
0.0 0.0 0.0 
0.0 0.0 0.0 
0.0 0.0 0.0 
0.0 0.0 0.0 
0.0 0.0 0.0 
0.0 0.0 0.0 
0.0 0.0 0.0 
0.0 0.0 0.0 
0.0 0.0 0.0 
0.0 0.0 0.0 
0.0 0.0 0.0 
0.0 0.0 0.0 
0.0 0.0 0.0 
0.0 0.0 0.0 
0.0 0.0 0.0 
0.0 0.0 0.0 
0.0 0.0 0.0 
0.0 0.0 0.0 
0.0 0.0 0.0 
0.0 0.0 0.0 
0.0 0.0 0.0 
0.0 0.0 0.0 
0.0 0.0 0.0 
0.0 0.0 0.0 
0.0 0.0 0.0 
0.0 0.0 0.0 
0.0 0.0 0.0 
0.0 0.0 0.0 
0.0 0.0 0.0 
0.0 0.0 0.0 
0.0 0.0 0.0 
0.0 0.0 0.0 
0.0 0.0 0.0 
0.0 0.0 0.0 
0.0 0.0 0.0 
0.0 0.0 0.0 
0.0 0.0 0.0 
0.0 0.0 0.0 
0.0 0.0 0.0 
0.0 0.0 0.0 
0.0 0.0 0.0 
0.0 0.0 0.0 
0.0 0.0 0.0 
0.0 0.0 0.0 
0.0 0.0 0.0 
0.0 0.0 0.0 
0.0 0.0 0.0 
0.0 0.0 0.0 
0.0 0.0 0.0 
0.0 0.0 0.0 
0.0 0.0 0.0 
0.0 0.0 0.0 
0.0 0.0 0.0 
0.0 0.0 0.0 
0.0 0.0 0.0 
0.0 0.0 0.0 
0.0 0.0 0.0 
0.0 0.0 0.0 
0.0 0.0 0.0 
0.0 0.0 0.0 
0.0 0.0 0.0 
0.0 0.0 0.0 
0.0 0.0 0.0 
0.0 0.0 0.0 
0.0 0.0 0.0 
0.0 0.0 0.0 
0.0 0.0 0.0 
0.0 0.0 0.0 
0.0 0.0 0.0 
0.0 0.0 0.0 
0.0 0.0 0.0 
0.0 0.0 0.0 
0.0 0.0 0.0 
0.0 0.0 0.0 
0.0 0.0 0.0 
0.0 0.0 0.0 
0.0 0.0 0.0 
0.0 0.0 0.0 
0.0 0.0 0.0 
0.0 0.0 0.0 
0.0 0.0 0.0 
0.0 0.0 0.0 
0.0 0.0 0.0 
0.0 0.0 0.0 
0.0 0.0 0.0 
0.0 0.0 0.0 
0.0 0.0 0.0 
0.0 0.0 0.0 
0.0 0.0 0.0 
0.0 0.0 0.0 
0.0 0.0 0.0 
0.0 0.0 0.0 
0.0 0.0 0.0 
0.0 0.0 0.0 
0.0 0.0 0.0 
0.0 0.0 0.0 
0.0 0.0 0.0 
0.0 0.0 0.0 
0.0 0.0 0.0 
0.0 0.0 0.0 
0.0 0.0 0.0 
0.0 0.0 0.0 
0.0 0.0 0.0 
0.0 0.0 0.0 
0.0 0.0 0.0 
0.0 0.0 0.0 
0.0 0.0 0.0 
0.0 0.0 0.0 
0.0 0.0 0.0 
0.0 0.0 0.0 
0.0 0.0 0.0 
0.0 0.0 0.0 
0.0 0.0 0.0 
0.0 0.0 0.0 
0.0 0.0 0.0 
0.0 0.0 0.0 
0.0 0.0 0.0 
0.0 0.0 0.0 
0.0 0.0 0.0 
0.0 0.0 0.0 
0.0 0.0 0.0 
0.0 0.0 0.0 
0.0 0.0 0.0 
0.0 0.0 0.0 
0.0 0.0 0.0 
0.0 0.0 0.0 
0.0 0.0 0.0 
0.0 0.0 0.0 
0.0 0.0 0.0 
0.0 0.0 0.0 
0.0 0.0 0.0 
0.0 0.0 0.0 
0.0 0.0 0.0 
0.0 0.0 0.0 
0.0 0.0 0.0 
0.0 0.0 0.0 
0.0 0.0 0.0 
0.0 0.0 0.0 
0.0 0.0 0.0 
0.0 0.0 0.0 
0.0 0.0 0.0 
0.0 0.0 0.0 
0.0 0.0 0.0 
0.0 0.0 0.0 
0.0 0.0 0.0 
0.0 0.0 0.0 
0.0 0.0 0.0 
0.0 0.0 0.0 
0.0 0.0 0.0 
0.0 0.0 0.0 
0.0 0.0 0.0 
0.0 0.0 0.0 
0.0 0.0 0.0 
0.0 0.0 0.0 
0.0 0.0 0.0 
0.0 0.0 0.0 
0.0 0.0 0.0 
0.0 0.0 0.0 
0.0 0.0 0.0 
0.0 0.0 0.0 
0.0 0.0 0.0 
0.0 0.0 0.0 
0.0 0.0 0.0 
0.0 0.0 0.0 
0.0 0.0 0.0 
0.0 0.0 0.0 
0.0 0.0 0.0 
0.0 0.0 0.0 
0.0 0.0 0.0 
0.0 0.0 0.0 
0.0 0.0 0.0 
0.0 0.0 0.0 
0.0 0.0 0.0 
0.0 0.0 0.0 
0.0 0.0 0.0 
0.0 0.0 0.0 
0.0 0.0 0.0 
0.0 0.0 0.0 
0.0 0.0 0.0 
0.0 0.0 0.0 
0.0 0.0 0.0 
0.0 0.0 0.0 
0.0 0.0 0.0 
0.0 0.0 0.0 
0.0 0.0 0.0 
0.0 0.0 0.0 
0.0 0.0 0.0 
0.0 0.0 0.0 
0.0 0.0 0.0 
0.0 0.0 0.0 
0.0 0.0 0.0 
0.0 0.0 0.0 
0.0 0.0 0.0 
0.0 0.0 0.0 
0.0 0.0 0.0 
0.0 0.0 0.0 
0.0 0.0 0.0 
0.0 0.0 0.0 
0.0 0.0 0.0 
0.0 0.0 0.0 
0.0 0.0 0.0 
0.0 0.0 0.0 
0.0 0.0 0.0 
0.0 0.0 0.0 
0.0 0.0 0.0 
0.0 0.0 0.0 
0.0 0.0 0.0 
0.0 0.0 0.0 
0.0 0.0 0.0 
0.0 0.0 0.0 
0.0 0.0 0.0 
0.0 0.0 0.0 
0.0 0.0 0.0 
0.0 0.0 0.0 
0.0 0.0 0.0 
0.0 0.0 0.0 
0.0 0.0 0.0 
0.0 0.0 0.0 
0.0 0.0 0.0 
0.0 0.0 0.0 
0.0 0.0 0.0 
0.0 0.0 0.0 
0.0 0.0 0.0 
0.0 0.0 0.0 
0.0 0.0 0.0 
0.0 0.0 0.0 
0.0 0.0 0.0 
0.0 0.0 0.0 
0.0 0.0 0.0 
0.0 0.0 0.0 
0.0 0.0 0.0 
0.0 0.0 0.0 
0.0 0.0 0.0 
0.0 0.0 0.0 
0.0 0.0 0.0 
0.0 0.0 0.0 
0.0 0.0 0.0 
0.0 0.0 0.0 
0.0 0.0 0.0 
0.0 0.0 0.0 
0.0 0.0 0.0 
0.0 0.0 0.0 
0.0 0.0 0.0 
0.0 0.0 0.0 
0.0 0.0 0.0 
0.0 0.0 0.0 
0.0 0.0 0.0 
0.0 0.0 0.0 
0.0 0.0 0.0 
0.0 0.0 0.0 
0.0 0.0 0.0 
0.0 0.0 0.0 
0.0 0.0 0.0 
0.0 0.0 0.0 
0.0 0.0 0.0 
0.0 0.0 0.0 
0.0 0.0 0.0 
0.0 0.0 0.0 
0.0 0.0 0.0 
0.0 0.0 0.0 
0.0 0.0 0.0 
0.0 0.0 0.0 
0.0 0.0 0.0 
0.0 0.0 0.0 
0.0 0.0 0.0 
0.0 0.0 0.0 
0.0 0.0 0.0 
0.0 0.0 0.0 
0.0 0.0 0.0 
0.0 0.0 0.0 
0.0 0.0 0.0 
0.0 0.0 0.0 
0.0 0.0 0.0 
0.0 0.0 0.0 
0.0 0.0 0.0 
0.0 0.0 0.0 
0.0 0.0 0.0 
0.0 0.0 0.0 
0.0 0.0 0.0 
0.0 0.0 0.0 
0.0 0.0 0.0 
0.0 0.0 0.0 
0.0 0.0 0.0 
0.0 0.0 0.0 
0.0 0.0 0.0 
0.0 0.0 0.0 
0.0 0.0 0.0 
0.0 0.0 0.0 
0.0 0.0 0.0 
0.0 0.0 0.0 
0.0 0.0 0.0 
0.0 0.0 0.0 
0.0 0.0 0.0 
0.0 0.0 0.0 
0.0 0.0 0.0 
0.0 0.0 0.0 
0.0 0.0 0.0 
0.0 0.0 0.0 
0.0 0.0 0.0 
0.0 0.0 0.0 
0.0 0.0 0.0 
0.0 0.0 0.0 
0.0 0.0 0.0 
0.0 0.0 0.0 
0.0 0.0 0.0 
0.0 0.0 0.0 
0.0 0.0 0.0 
0.0 0.0 0.0 
0.0 0.0 0.0 
0.0 0.0 0.0 
0.0 0.0 0.0 
0.0 0.0 0.0 
0.0 0.0 0.0 
0.0 0.0 0.0 
0.0 0.0 0.0 
0.0 0.0 0.0 
0.0 0.0 0.0 
0.0 0.0 0.0 
0.0 0.0 0.0 
0.0 0.0 0.0 
0.0 0.0 0.0 
0.0 0.0 0.0 
0.0 0.0 0.0 
0.0 0.0 0.0 
0.0 0.0 0.0 
0.0 0.0 0.0 
0.0 0.0 0.0 
0.0 0.0 0.0 
0.0 0.0 0.0 
0.0 0.0 0.0 
0.0 0.0 0.0 
0.0 0.0 0.0 
0.0 0.0 0.0 
0.0 0.0 0.0 
0.0 0.0 0.0 
0.0 0.0 0.0 
0.0 0.0 0.0 
0.0 0.0 0.0 
0.0 0.0 0.0 
0.0 0.0 0.0 
0.0 0.0 0.0 
0.0 0.0 0.0 
0.0 0.0 0.0 
0.0 0.0 0.0 
0.0 0.0 0.0 
0.0 0.0 0.0 
0.0 0.0 0.0 
0.0 0.0 0.0 
0.0 0.0 0.0 
0.0 0.0 0.0 
0.0 0.0 0.0 
0.0 0.0 0.0 
0.0 0.0 0.0 
0.0 0.0 0.0 
0.0 0.0 0.0 
0.0 0.0 0.0 
0.0 0.0 0.0 
0.0 0.0 0.0 
0.0 0.0 0.0 
0.0 0.0 0.0 
0.0 0.0 0.0 
0.0 0.0 0.0 
0.0 0.0 0.0 
0.0 0.0 0.0 
0.0 0.0 0.0 
0.0 0.0 0.0 
0.0 0.0 0.0 
0.0 0.0 0.0 
0.0 0.0 0.0 
0.0 0.0 0.0 
0.0 0.0 0.0 
0.0 0.0 0.0 
0.0 0.0 0.0 
0.0 0.0 0.0 
0.0 0.0 0.0 
0.0 0.0 0.0 
0.0 0.0 0.0 
0.0 0.0 0.0 
0.0 0.0 0.0 
0.0 0.0 0.0 
0.0 0.0 0.0 
0.0 0.0 0.0 
0.0 0.0 0.0 
0.0 0.0 0.0 
0.0 0.0 0.0 
0.0 0.0 0.0 
0.0 0.0 0.0 
0.0 0.0 0.0 
0.0 0.0 0.0 
0.0 0.0 0.0 
0.0 0.0 0.0 
0.0 0.0 0.0 
0.0 0.0 0.0 
0.0 0.0 0.0 
0.0 0.0 0.0 
0.0 0.0 0.0 
0.0 0.0 0.0 
0.0 0.0 0.0 
0.0 0.0 0.0 
0.0 0.0 0.0 
0.0 0.0 0.0 
0.0 0.0 0.0 
0.0 0.0 0.0 
0.0 0.0 0.0 
0.0 0.0 0.0 
0.0 0.0 0.0 
0.0 0.0 0.0 
0.0 0.0 0.0 
0.0 0.0 0.0 
0.0 0.0 0.0 
0.0 0.0 0.0 
0.0 0.0 0.0 
0.0 0.0 0.0 
0.0 0.0 0.0 
0.0 0.0 0.0 
0.0 0.0 0.0 
0.0 0.0 0.0 
0.0 0.0 0.0 
0.0 0.0 0.0 
0.0 0.0 0.0 
0.0 0.0 0.0 
0.0 0.0 0.0 
0.0 0.0 0.0 
0.0 0.0 0.0 
0.0 0.0 0.0 
0.0 0.0 0.0 
0.0 0.0 0.0 
0.0 0.0 0.0 
0.0 0.0 0.0 
0.0 0.0 0.0 
0.0 0.0 0.0 
0.0 0.0 0.0 
0.0 0.0 0.0 
0.0 0.0 0.0 
0.0 0.0 0.0 
0.0 0.0 0.0 
0.0 0.0 0.0 
0.0 0.0 0.0 
0.0 0.0 0.0 
0.0 0.0 0.0 
0.0 0.0 0.0 
0.0 0.0 0.0 
0.0 0.0 0.0 
0.0 0.0 0.0 
0.0 0.0 0.0 
0.0 0.0 0.0 
0.0 0.0 0.0 
0.0 0.0 0.0 
0.0 0.0 0.0 
0.0 0.0 0.0 
0.0 0.0 0.0 
0.0 0.0 0.0 
0.0 0.0 0.0 
0.0 0.0 0.0 
0.0 0.0 0.0 
0.0 0.0 0.0 
0.0 0.0 0.0 
0.0 0.0 0.0 
0.0 0.0 0.0 
0.0 0.0 0.0 
0.0 0.0 0.0 
0.0 0.0 0.0 
0.0 0.0 0.0 
0.0 0.0 0.0 
0.0 0.0 0.0 
0.0 0.0 0.0 
0.0 0.0 0.0 
0.0 0.0 0.0 
0.0 0.0 0.0 
0.0 0.0 0.0 
0.0 0.0 0.0 
0.0 0.0 0.0 
0.0 0.0 0.0 
0.0 0.0 0.0 
0.0 0.0 0.0 
0.0 0.0 0.0 
0.0 0.0 0.0 
0.0 0.0 0.0 
0.0 0.0 0.0 
0.0 0.0 0.0 
0.0 0.0 0.0 
0.0 0.0 0.0 
0.0 0.0 0.0 
0.0 0.0 0.0 
0.0 0.0 0.0 
0.0 0.0 0.0 
0.0 0.0 0.0 
0.0 0.0 0.0 
0.0 0.0 0.0 
0.0 0.0 0.0 
0.0 0.0 0.0 
0.0 0.0 0.0 
0.0 0.0 0.0 
0.0 0.0 0.0 
0.0 0.0 0.0 
0.0 0.0 0.0 
0.0 0.0 0.0 
0.0 0.0 0.0 
0.0 0.0 0.0 
0.0 0.0 0.0 
0.0 0.0 0.0 
0.0 0.0 0.0 
0.0 0.0 0.0 
0.0 0.0 0.0 
0.0 0.0 0.0 
0.0 0.0 0.0 
0.0 0.0 0.0 
0.0 0.0 0.0 
0.0 0.0 0.0 
0.0 0.0 0.0 
0.0 0.0 0.0 
0.0 0.0 0.0 
0.0 0.0 0.0 
0.0 0.0 0.0 
0.0 0.0 0.0 
0.0 0.0 0.0 
0.0 0.0 0.0 
0.0 0.0 0.0 
0.0 0.0 0.0 
0.0 0.0 0.0 
0.0 0.0 0.0 
0.0 0.0 0.0 
0.0 0.0 0.0 
0.0 0.0 0.0 
0.0 0.0 0.0 
0.0 0.0 0.0 
0.0 0.0 0.0 
0.0 0.0 0.0 
0.0 0.0 0.0 
0.0 0.0 0.0 
0.0 0.0 0.0 
0.0 0.0 0.0 
0.0 0.0 0.0 
0.0 0.0 0.0 
0.0 0.0 0.0 
0.0 0.0 0.0 
0.0 0.0 0.0 
0.0 0.0 0.0 
0.0 0.0 0.0 
0.0 0.0 0.0 
0.0 0.0 0.0 
0.0 0.0 0.0 
0.0 0.0 0.0 
0.0 0.0 0.0 
0.0 0.0 0.0 
0.0 0.0 0.0 
0.0 0.0 0.0 
0.0 0.0 0.0 
0.0 0.0 0.0 
0.0 0.0 0.0 
0.0 0.0 0.0 
0.0 0.0 0.0 
0.0 0.0 0.0 
0.0 0.0 0.0 
0.0 0.0 0.0 
0.0 0.0 0.0 
0.0 0.0 0.0 
0.0 0.0 0.0 
0.0 0.0 0.0 
0.0 0.0 0.0 
0.0 0.0 0.0 
0.0 0.0 0.0 
0.0 0.0 0.0 
0.0 0.0 0.0 
0.0 0.0 0.0 
0.0 0.0 0.0 
0.0 0.0 0.0 
0.0 0.0 0.0 
0.0 0.0 0.0 
0.0 0.0 0.0 
0.0 0.0 0.0 
0.0 0.0 0.0 
0.0 0.0 0.0 
0.0 0.0 0.0 
0.0 0.0 0.0 
0.0 0.0 0.0 
0.0 0.0 0.0 
0.0 0.0 0.0 
0.0 0.0 0.0 
0.0 0.0 0.0 
0.0 0.0 0.0 
0.0 0.0 0.0 
0.0 0.0 0.0 
0.0 0.0 0.0 
0.0 0.0 0.0 
0.0 0.0 0.0 
0.0 0.0 0.0 
0.0 0.0 0.0 
0.0 0.0 0.0 
0.0 0.0 0.0 
0.0 0.0 0.0 
0.0 0.0 0.0 
0.0 0.0 0.0 
0.0 0.0 0.0 
0.0 0.0 0.0 
0.0 0.0 0.0 
0.0 0.0 0.0 
0.0 0.0 0.0 
0.0 0.0 0.0 
0.0 0.0 0.0 
0.0 0.0 0.0 
0.0 0.0 0.0 
0.0 0.0 0.0 
0.0 0.0 0.0 
0.0 0.0 0.0 
0.0 0.0 0.0 
0.0 0.0 0.0 
0.0 0.0 0.0 
0.0 0.0 0.0 
0.0 0.0 0.0 
0.0 0.0 0.0 
0.0 0.0 0.0 
0.0 0.0 0.0 
0.0 0.0 0.0 
0.0 0.0 0.0 
0.0 0.0 0.0 
0.0 0.0 0.0 
0.0 0.0 0.0 
0.0 0.0 0.0 
0.0 0.0 0.0 
0.0 0.0 0.0 
0.0 0.0 0.0 
0.0 0.0 0.0 
0.0 0.0 0.0 
0.0 0.0 0.0 
0.0 0.0 0.0 
0.0 0.0 0.0 
0.0 0.0 0.0 
0.0 0.0 0.0 
0.0 0.0 0.0 
0.0 0.0 0.0 
0.0 0.0 0.0 
0.0 0.0 0.0 
0.0 0.0 0.0 
0.0 0.0 0.0 
0.0 0.0 0.0 
0.0 0.0 0.0 
0.0 0.0 0.0 
0.0 0.0 0.0 
0.0 0.0 0.0 
0.0 0.0 0.0 
0.0 0.0 0.0 
0.0 0.0 0.0 
0.0 0.0 0.0 
0.0 0.0 0.0 
0.0 0.0 0.0 
0.0 0.0 0.0 
0.0 0.0 0.0 
0.0 0.0 0.0 
0.0 0.0 0.0 
0.0 0.0 0.0 
0.0 0.0 0.0 
0.0 0.0 0.0 
0.0 0.0 0.0 
0.0 0.0 0.0 
0.0 0.0 0.0 
0.0 0.0 0.0 
0.0 0.0 0.0 
0.0 0.0 0.0 
0.0 0.0 0.0 
0.0 0.0 0.0 
0.0 0.0 0.0 
0.0 0.0 0.0 
0.0 0.0 0.0 
0.0 0.0 0.0 
0.0 0.0 0.0 
0.0 0.0 0.0 
0.0 0.0 0.0 
0.0 0.0 0.0 
0.0 0.0 0.0 
0.0 0.0 0.0 
0.0 0.0 0.0 
0.0 0.0 0.0 
0.0 0.0 0.0 
0.0 0.0 0.0 
0.0 0.0 0.0 
0.0 0.0 0.0 
0.0 0.0 0.0 
0.0 0.0 0.0 
0.0 0.0 0.0 
0.0 0.0 0.0 
0.0 0.0 0.0 
0.0 0.0 0.0 
0.0 0.0 0.0 
0.0 0.0 0.0 
0.0 0.0 0.0 
0.0 0.0 0.0 
0.0 0.0 0.0 
0.0 0.0 0.0 
0.0 0.0 0.0 
0.0 0.0 0.0 
0.0 0.0 0.0 
0.0 0.0 0.0 
0.0 0.0 0.0 
0.0 0.0 0.0 
0.0 0.0 0.0 
0.0 0.0 0.0 
0.0 0.0 0.0 
0.0 0.0 0.0 
0.0 0.0 0.0 
0.0 0.0 0.0 
0.0 0.0 0.0 
0.0 0.0 0.0 
0.0 0.0 0.0 
0.0 0.0 0.0 
0.0 0.0 0.0 
0.0 0.0 0.0 
0.0 0.0 0.0 
0.0 0.0 0.0 
0.0 0.0 0.0 
0.0 0.0 0.0 
0.0 0.0 0.0 
0.0 0.0 0.0 
0.0 0.0 0.0 
0.0 0.0 0.0 
0.0 0.0 0.0 
0.0 0.0 0.0 
0.0 0.0 0.0 
0.0 0.0 0.0 
0.0 0.0 0.0 
0.0 0.0 0.0 
0.0 0.0 0.0 
0.0 0.0 0.0 
0.0 0.0 0.0 
0.0 0.0 0.0 
0.0 0.0 0.0 
0.0 0.0 0.0 
0.0 0.0 0.0 
0.0 0.0 0.0 
0.0 0.0 0.0 
0.0 0.0 0.0 
0.0 0.0 0.0 
0.0 0.0 0.0 
0.0 0.0 0.0 
0.0 0.0 0.0 
0.0 0.0 0.0 
0.0 0.0 0.0 
0.0 0.0 0.0 
0.0 0.0 0.0 
0.0 0.0 0.0 
0.0 0.0 0.0 
0.0 0.0 0.0 
0.0 0.0 0.0 
0.0 0.0 0.0 
0.0 0.0 0.0 
0.0 0.0 0.0 
0.0 0.0 0.0 
0.0 0.0 0.0 
0.0 0.0 0.0 
0.0 0.0 0.0 
0.0 0.0 0.0 
0.0 0.0 0.0 
0.0 0.0 0.0 
0.0 0.0 0.0 
0.0 0.0 0.0 
0.0 0.0 0.0 
0.0 0.0 0.0 
0.0 0.0 0.0 
0.0 0.0 0.0 
0.0 0.0 0.0 
0.0 0.0 0.0 
0.0 0.0 0.0 
0.0 0.0 0.0 
0.0 0.0 0.0 
0.0 0.0 0.0 
0.0 0.0 0.0 
0.0 0.0 0.0 
0.0 0.0 0.0 
0.0 0.0 0.0 
0.0 0.0 0.0 
0.0 0.0 0.0 
0.0 0.0 0.0 
0.0 0.0 0.0 
0.0 0.0 0.0 
0.0 0.0 0.0 
0.0 0.0 0.0 
0.0 0.0 0.0 
0.0 0.0 0.0 
0.0 0.0 0.0 
0.0 0.0 0.0 
0.0 0.0 0.0 
0.0 0.0 0.0 
0.0 0.0 0.0 
0.0 0.0 0.0 
0.0 0.0 0.0 
0.0 0.0 0.0 
0.0 0.0 0.0 
0.0 0.0 0.0 
0.0 0.0 0.0 
0.0 0.0 0.0 
0.0 0.0 0.0 
0.0 0.0 0.0 
0.0 0.0 0.0 
0.0 0.0 0.0 
0.0 0.0 0.0 
0.0 0.0 0.0 
0.0 0.0 0.0 
0.0 0.0 0.0 
0.0 0.0 0.0 
0.0 0.0 0.0 
0.0 0.0 0.0 
0.0 0.0 0.0 
0.0 0.0 0.0 
0.0 0.0 0.0 
0.0 0.0 0.0 
0.0 0.0 0.0 
0.0 0.0 0.0 
0.0 0.0 0.0 
0.0 0.0 0.0 
0.0 0.0 0.0 
0.0 0.0 0.0 
0.0 0.0 0.0 
0.0 0.0 0.0 
0.0 0.0 0.0 
0.0 0.0 0.0 
0.0 0.0 0.0 
0.0 0.0 0.0 
0.0 0.0 0.0 
0.0 0.0 0.0 
0.0 0.0 0.0 
0.0 0.0 0.0 
0.0 0.0 0.0 
0.0 0.0 0.0 
0.0 0.0 0.0 
0.0 0.0 0.0 
0.0 0.0 0.0 
0.0 0.0 0.0 
0.0 0.0 0.0 
0.0 0.0 0.0 
0.0 0.0 0.0 
0.0 0.0 0.0 
0.0 0.0 0.0 
0.0 0.0 0.0 
0.0 0.0 0.0 
0.0 0.0 0.0 
0.0 0.0 0.0 
0.0 0.0 0.0 
0.0 0.0 0.0 
0.0 0.0 0.0 
0.0 0.0 0.0 
0.0 0.0 0.0 
0.0 0.0 0.0 
0.0 0.0 0.0 
0.0 0.0 0.0 
0.0 0.0 0.0 
0.0 0.0 0.0 
0.0 0.0 0.0 
0.0 0.0 0.0 
0.0 0.0 0.0 
0.0 0.0 0.0 
0.0 0.0 0.0 
0.0 0.0 0.0 
0.0 0.0 0.0 
0.0 0.0 0.0 
0.0 0.0 0.0 
0.0 0.0 0.0 
0.0 0.0 0.0 
0.0 0.0 0.0 
0.0 0.0 0.0 
0.0 0.0 0.0 
0.0 0.0 0.0 
0.0 0.0 0.0 
0.0 0.0 0.0 
0.0 0.0 0.0 
0.0 0.0 0.0 
0.0 0.0 0.0 
0.0 0.0 0.0 
0.0 0.0 0.0 
0.0 0.0 0.0 
0.0 0.0 0.0 
0.0 0.0 0.0 
0.0 0.0 0.0 
0.0 0.0 0.0 
0.0 0.0 0.0 
0.0 0.0 0.0 
0.0 0.0 0.0 
0.0 0.0 0.0 
0.0 0.0 0.0 
0.0 0.0 0.0 
0.0 0.0 0.0 
0.0 0.0 0.0 
0.0 0.0 0.0 
0.0 0.0 0.0 
0.0 0.0 0.0 
0.0 0.0 0.0 
0.0 0.0 0.0 
0.0 0.0 0.0 
0.0 0.0 0.0 
0.0 0.0 0.0 
0.0 0.0 0.0 
0.0 0.0 0.0 
0.0 0.0 0.0 
0.0 0.0 0.0 
0.0 0.0 0.0 
0.0 0.0 0.0 
0.0 0.0 0.0 
0.0 0.0 0.0 
0.0 0.0 0.0 
0.0 0.0 0.0 
0.0 0.0 0.0 
0.0 0.0 0.0 
0.0 0.0 0.0 
0.0 0.0 0.0 
0.0 0.0 0.0 
0.0 0.0 0.0 
0.0 0.0 0.0 
0.0 0.0 0.0 
0.0 0.0 0.0 
0.0 0.0 0.0 
0.0 0.0 0.0 
0.0 0.0 0.0 
0.0 0.0 0.0 
0.0 0.0 0.0 
0.0 0.0 0.0 
0.0 0.0 0.0 
0.0 0.0 0.0 
0.0 0.0 0.0 
0.0 0.0 0.0 
0.0 0.0 0.0 
0.0 0.0 0.0 
0.0 0.0 0.0 
0.0 0.0 0.0 
0.0 0.0 0.0 
0.0 0.0 0.0 
0.0 0.0 0.0 
0.0 0.0 0.0 
0.0 0.0 0.0 
0.0 0.0 0.0 
0.0 0.0 0.0 
0.0 0.0 0.0 
0.0 0.0 0.0 
0.0 0.0 0.0 
0.0 0.0 0.0 
0.0 0.0 0.0 
0.0 0.0 0.0 
0.0 0.0 0.0 
0.0 0.0 0.0 
0.0 0.0 0.0 
0.0 0.0 0.0 
0.0 0.0 0.0 
0.0 0.0 0.0 
0.0 0.0 0.0 
0.0 0.0 0.0 
0.0 0.0 0.0 
0.0 0.0 0.0 
0.0 0.0 0.0 
0.0 0.0 0.0 
0.0 0.0 0.0 
0.0 0.0 0.0 
0.0 0.0 0.0 
0.0 0.0 0.0 
0.0 0.0 0.0 
0.0 0.0 0.0 
0.0 0.0 0.0 
0.0 0.0 0.0 
0.0 0.0 0.0 
0.0 0.0 0.0 
0.0 0.0 0.0 
0.0 0.0 0.0 
0.0 0.0 0.0 
0.0 0.0 0.0 
0.0 0.0 0.0 
0.0 0.0 0.0 
0.0 0.0 0.0 
0.0 0.0 0.0 
0.0 0.0 0.0 
0.0 0.0 0.0 
0.0 0.0 0.0 
0.0 0.0 0.0 
0.0 0.0 0.0 
0.0 0.0 0.0 
0.0 0.0 0.0 
0.0 0.0 0.0 
0.0 0.0 0.0 
0.0 0.0 0.0 
0.0 0.0 0.0 
0.0 0.0 0.0 
0.0 0.0 0.0 
0.0 0.0 0.0 
0.0 0.0 0.0 
0.0 0.0 0.0 
0.0 0.0 0.0 
0.0 0.0 0.0 
0.0 0.0 0.0 
0.0 0.0 0.0 
0.0 0.0 0.0 
0.0 0.0 0.0 
0.0 0.0 0.0 
0.0 0.0 0.0 
0.0 0.0 0.0 
0.0 0.0 0.0 
0.0 0.0 0.0 
0.0 0.0 0.0 
0.0 0.0 0.0 
0.0 0.0 0.0 
0.0 0.0 0.0 
0.0 0.0 0.0 
0.0 0.0 0.0 
0.0 0.0 0.0 
0.0 0.0 0.0 
0.0 0.0 0.0 
0.0 0.0 0.0 
0.0 0.0 0.0 
0.0 0.0 0.0 
0.0 0.0 0.0 
0.0 0.0 0.0 
0.0 0.0 0.0 
0.0 0.0 0.0 
0.0 0.0 0.0 
0.0 0.0 0.0 
0.0 0.0 0.0 
0.0 0.0 0.0 
0.0 0.0 0.0 
0.0 0.0 0.0 
0.0 0.0 0.0 
0.0 0.0 0.0 
0.0 0.0 0.0 
0.0 0.0 0.0 
0.0 0.0 0.0 
0.0 0.0 0.0 
0.0 0.0 0.0 
0.0 0.0 0.0 
0.0 0.0 0.0 
0.0 0.0 0.0 
0.0 0.0 0.0 
0.0 0.0 0.0 
0.0 0.0 0.0 
0.0 0.0 0.0 
0.0 0.0 0.0 
0.0 0.0 0.0 
0.0 0.0 0.0 
0.0 0.0 0.0 
0.0 0.0 0.0 
0.0 0.0 0.0 
0.0 0.0 0.0 
0.0 0.0 0.0 
0.0 0.0 0.0 
0.0 0.0 0.0 
0.0 0.0 0.0 
0.0 0.0 0.0 
0.0 0.0 0.0 
0.0 0.0 0.0 
0.0 0.0 0.0 
0.0 0.0 0.0 
0.0 0.0 0.0 
0.0 0.0 0.0 
0.0 0.0 0.0 
0.0 0.0 0.0 
0.0 0.0 0.0 
0.0 0.0 0.0 
0.0 0.0 0.0 
0.0 0.0 0.0 
0.0 0.0 0.0 
0.0 0.0 0.0 
0.0 0.0 0.0 
0.0 0.0 0.0 
0.0 0.0 0.0 
0.0 0.0 0.0 
0.0 0.0 0.0 
0.0 0.0 0.0 
0.0 0.0 0.0 
0.0 0.0 0.0 
0.0 0.0 0.0 
0.0 0.0 0.0 
0.0 0.0 0.0 
0.0 0.0 0.0 
0.0 0.0 0.0 
0.0 0.0 0.0 
0.0 0.0 0.0 
0.0 0.0 0.0 
0.0 0.0 0.0 
0.0 0.0 0.0 
0.0 0.0 0.0 
0.0 0.0 0.0 
0.0 0.0 0.0 
0.0 0.0 0.0 
0.0 0.0 0.0 
0.0 0.0 0.0 
0.0 0.0 0.0 
0.0 0.0 0.0 
0.0 0.0 0.0 
0.0 0.0 0.0 
0.0 0.0 0.0 
0.0 0.0 0.0 
0.0 0.0 0.0 
0.0 0.0 0.0 
0.0 0.0 0.0 
0.0 0.0 0.0 
0.0 0.0 0.0 
0.0 0.0 0.0 
0.0 0.0 0.0 
0.0 0.0 0.0 
0.0 0.0 0.0 
0.0 0.0 0.0 
0.0 0.0 0.0 
0.0 0.0 0.0 
0.0 0.0 0.0 
0.0 0.0 0.0 
0.0 0.0 0.0 
0.0 0.0 0.0 
0.0 0.0 0.0 
0.0 0.0 0.0 
0.0 0.0 0.0 
0.0 0.0 0.0 
0.0 0.0 0.0 
0.0 0.0 0.0 
0.0 0.0 0.0 
0.0 0.0 0.0 
0.0 0.0 0.0 
0.0 0.0 0.0 
0.0 0.0 0.0 
0.0 0.0 0.0 
0.0 0.0 0.0 
0.0 0.0 0.0 
0.0 0.0 0.0 
0.0 0.0 0.0 
0.0 0.0 0.0 
0.0 0.0 0.0 
0.0 0.0 0.0 
0.0 0.0 0.0 
0.0 0.0 0.0 
0.0 0.0 0.0 
0.0 0.0 0.0 
0.0 0.0 0.0 
0.0 0.0 0.0 
0.0 0.0 0.0 
0.0 0.0 0.0 
0.0 0.0 0.0 
0.0 0.0 0.0 
0.0 0.0 0.0 
0.0 0.0 0.0 
0.0 0.0 0.0 
0.0 0.0 0.0 
0.0 0.0 0.0 
0.0 0.0 0.0 
0.0 0.0 0.0 
0.0 0.0 0.0 
0.0 0.0 0.0 
0.0 0.0 0.0 
0.0 0.0 0.0 
0.0 0.0 0.0 
0.0 0.0 0.0 
0.0 0.0 0.0 
0.0 0.0 0.0 
0.0 0.0 0.0 
0.0 0.0 0.0 
0.0 0.0 0.0 
0.0 0.0 0.0 
0.0 0.0 0.0 
0.0 0.0 0.0 
0.0 0.0 0.0 
0.0 0.0 0.0 
0.0 0.0 0.0 
0.0 0.0 0.0 
0.0 0.0 0.0 
0.0 0.0 0.0 
0.0 0.0 0.0 
0.0 0.0 0.0 
0.0 0.0 0.0 
0.0 0.0 0.0 
0.0 0.0 0.0 
0.0 0.0 0.0 
0.0 0.0 0.0 
0.0 0.0 0.0 
0.0 0.0 0.0 
0.0 0.0 0.0 
0.0 0.0 0.0 
0.0 0.0 0.0 
0.0 0.0 0.0 
0.0 0.0 0.0 
0.0 0.0 0.0 
0.0 0.0 0.0 
0.0 0.0 0.0 
0.0 0.0 0.0 
0.0 0.0 0.0 
0.0 0.0 0.0 
0.0 0.0 0.0 
0.0 0.0 0.0 
0.0 0.0 0.0 
0.0 0.0 0.0 
0.0 0.0 0.0 
0.0 0.0 0.0 
0.0 0.0 0.0 
0.0 0.0 0.0 
0.0 0.0 0.0 
0.0 0.0 0.0 
0.0 0.0 0.0 
0.0 0.0 0.0 
0.0 0.0 0.0 
0.0 0.0 0.0 
0.0 0.0 0.0 
0.0 0.0 0.0 
0.0 0.0 0.0 
0.0 0.0 0.0 
0.0 0.0 0.0 
0.0 0.0 0.0 
0.0 0.0 0.0 
0.0 0.0 0.0 
0.0 0.0 0.0 
0.0 0.0 0.0 
0.0 0.0 0.0 
0.0 0.0 0.0 
0.0 0.0 0.0 
0.0 0.0 0.0 
0.0 0.0 0.0 
0.0 0.0 0.0 
0.0 0.0 0.0 
0.0 0.0 0.0 
0.0 0.0 0.0 
0.0 0.0 0.0 
0.0 0.0 0.0 
0.0 0.0 0.0 
0.0 0.0 0.0 
0.0 0.0 0.0 
0.0 0.0 0.0 
0.0 0.0 0.0 
0.0 0.0 0.0 
0.0 0.0 0.0 
0.0 0.0 0.0 
0.0 0.0 0.0 
0.0 0.0 0.0 
0.0 0.0 0.0 
0.0 0.0 0.0 
0.0 0.0 0.0 
0.0 0.0 0.0 
0.0 0.0 0.0 
0.0 0.0 0.0 
0.0 0.0 0.0 
0.0 0.0 0.0 
0.0 0.0 0.0 
0.0 0.0 0.0 
0.0 0.0 0.0 
0.0 0.0 0.0 
0.0 0.0 0.0 
0.0 0.0 0.0 
0.0 0.0 0.0 
0.0 0.0 0.0 
0.0 0.0 0.0 
0.0 0.0 0.0 
0.0 0.0 0.0 
0.0 0.0 0.0 
0.0 0.0 0.0 
0.0 0.0 0.0 
0.0 0.0 0.0 
0.0 0.0 0.0 
0.0 0.0 0.0 
0.0 0.0 0.0 
0.0 0.0 0.0 
0.0 0.0 0.0 
0.0 0.0 0.0 
0.0 0.0 0.0 
0.0 0.0 0.0 
0.0 0.0 0.0 
0.0 0.0 0.0 
0.0 0.0 0.0 
0.0 0.0 0.0 
0.0 0.0 0.0 
0.0 0.0 0.0 
0.0 0.0 0.0 
0.0 0.0 0.0 
0.0 0.0 0.0 
0.0 0.0 0.0 
0.0 0.0 0.0 
0.0 0.0 0.0 
0.0 0.0 0.0 
0.0 0.0 0.0 
0.0 0.0 0.0 
0.0 0.0 0.0 
0.0 0.0 0.0 
0.0 0.0 0.0 
0.0 0.0 0.0 
0.0 0.0 0.0 
0.0 0.0 0.0 
0.0 0.0 0.0 
0.0 0.0 0.0 
0.0 0.0 0.0 
0.0 0.0 0.0 
0.0 0.0 0.0 
0.0 0.0 0.0 
0.0 0.0 0.0 
0.0 0.0 0.0 
0.0 0.0 0.0 
0.0 0.0 0.0 
0.0 0.0 0.0 
0.0 0.0 0.0 
0.0 0.0 0.0 
0.0 0.0 0.0 
0.0 0.0 0.0 
0.0 0.0 0.0 
0.0 0.0 0.0 
0.0 0.0 0.0 
0.0 0.0 0.0 
0.0 0.0 0.0 
0.0 0.0 0.0 
0.0 0.0 0.0 
0.0 0.0 0.0 
0.0 0.0 0.0 
0.0 0.0 0.0 
0.0 0.0 0.0 
0.0 0.0 0.0 
0.0 0.0 0.0 
0.0 0.0 0.0 
0.0 0.0 0.0 
0.0 0.0 0.0 
0.0 0.0 0.0 
0.0 0.0 0.0 
0.0 0.0 0.0 
0.0 0.0 0.0 
0.0 0.0 0.0 
0.0 0.0 0.0 
0.0 0.0 0.0 
0.0 0.0 0.0 
0.0 0.0 0.0 
0.0 0.0 0.0 
0.0 0.0 0.0 
0.0 0.0 0.0 
0.0 0.0 0.0 
0.0 0.0 0.0 
0.0 0.0 0.0 
0.0 0.0 0.0 
0.0 0.0 0.0 
0.0 0.0 0.0 
0.0 0.0 0.0 
0.0 0.0 0.0 
0.0 0.0 0.0 
0.0 0.0 0.0 
0.0 0.0 0.0 
0.0 0.0 0.0 
0.0 0.0 0.0 
0.0 0.0 0.0 
0.0 0.0 0.0 
0.0 0.0 0.0 
0.0 0.0 0.0 
0.0 0.0 0.0 
0.0 0.0 0.0 
0.0 0.0 0.0 
0.0 0.0 0.0 
0.0 0.0 0.0 
0.0 0.0 0.0 
0.0 0.0 0.0 
0.0 0.0 0.0 
0.0 0.0 0.0 
0.0 0.0 0.0 
0.0 0.0 0.0 
0.0 0.0 0.0 
0.0 0.0 0.0 
0.0 0.0 0.0 
0.0 0.0 0.0 
0.0 0.0 0.0 
0.0 0.0 0.0 
0.0 0.0 0.0 
0.0 0.0 0.0 
0.0 0.0 0.0 
0.0 0.0 0.0 
0.0 0.0 0.0 
0.0 0.0 0.0 
0.0 0.0 0.0 
0.0 0.0 0.0 
0.0 0.0 0.0 
0.0 0.0 0.0 
0.0 0.0 0.0 
0.0 0.0 0.0 
0.0 0.0 0.0 
0.0 0.0 0.0 
0.0 0.0 0.0 
0.0 0.0 0.0 
0.0 0.0 0.0 
0.0 0.0 0.0 
0.0 0.0 0.0 
0.0 0.0 0.0 
0.0 0.0 0.0 
0.0 0.0 0.0 
0.0 0.0 0.0 
0.0 0.0 0.0 
0.0 0.0 0.0 
0.0 0.0 0.0 
0.0 0.0 0.0 
0.0 0.0 0.0 
0.0 0.0 0.0 
0.0 0.0 0.0 
0.0 0.0 0.0 
0.0 0.0 0.0 
0.0 0.0 0.0 
0.0 0.0 0.0 
0.0 0.0 0.0 
0.0 0.0 0.0 
0.0 0.0 0.0 
0.0 0.0 0.0 
0.0 0.0 0.0 
0.0 0.0 0.0 
0.0 0.0 0.0 
0.0 0.0 0.0 
0.0 0.0 0.0 
0.0 0.0 0.0 
0.0 0.0 0.0 
0.0 0.0 0.0 
0.0 0.0 0.0 
0.0 0.0 0.0 
0.0 0.0 0.0 
0.0 0.0 0.0 
0.0 0.0 0.0 
0.0 0.0 0.0 
0.0 0.0 0.0 
0.0 0.0 0.0 
0.0 0.0 0.0 
0.0 0.0 0.0 
0.0 0.0 0.0 
0.0 0.0 0.0 
0.0 0.0 0.0 
0.0 0.0 0.0 
0.0 0.0 0.0 
0.0 0.0 0.0 
0.0 0.0 0.0 
0.0 0.0 0.0 
0.0 0.0 0.0 
0.0 0.0 0.0 
0.0 0.0 0.0 
0.0 0.0 0.0 
0.0 0.0 0.0 
0.0 0.0 0.0 
0.0 0.0 0.0 
0.0 0.0 0.0 
0.0 0.0 0.0 
0.0 0.0 0.0 
0.0 0.0 0.0 
0.0 0.0 0.0 
0.0 0.0 0.0 
0.0 0.0 0.0 
0.0 0.0 0.0 
0.0 0.0 0.0 
0.0 0.0 0.0 
0.0 0.0 0.0 
0.0 0.0 0.0 
0.0 0.0 0.0 
0.0 0.0 0.0 
0.0 0.0 0.0 
0.0 0.0 0.0 
0.0 0.0 0.0 
0.0 0.0 0.0 
0.0 0.0 0.0 
0.0 0.0 0.0 
0.0 0.0 0.0 
0.0 0.0 0.0 
0.0 0.0 0.0 
0.0 0.0 0.0 
0.0 0.0 0.0 
0.0 0.0 0.0 
0.0 0.0 0.0 
0.0 0.0 0.0 
0.0 0.0 0.0 
0.0 0.0 0.0 
0.0 0.0 0.0 
0.0 0.0 0.0 
0.0 0.0 0.0 
0.0 0.0 0.0 
0.0 0.0 0.0 
0.0 0.0 0.0 
0.0 0.0 0.0 
0.0 0.0 0.0 
0.0 0.0 0.0 
0.0 0.0 0.0 
0.0 0.0 0.0 
0.0 0.0 0.0 
0.0 0.0 0.0 
0.0 0.0 0.0 
0.0 0.0 0.0 
0.0 0.0 0.0 
0.0 0.0 0.0 
0.0 0.0 0.0 
0.0 0.0 0.0 
0.0 0.0 0.0 
0.0 0.0 0.0 
0.0 0.0 0.0 
0.0 0.0 0.0 
0.0 0.0 0.0 
0.0 0.0 0.0 
0.0 0.0 0.0 
0.0 0.0 0.0 
0.0 0.0 0.0 
0.0 0.0 0.0 
0.0 0.0 0.0 
0.0 0.0 0.0 
0.0 0.0 0.0 
0.0 0.0 0.0 
0.0 0.0 0.0 
0.0 0.0 0.0 
0.0 0.0 0.0 
0.0 0.0 0.0 
0.0 0.0 0.0 
0.0 0.0 0.0 
0.0 0.0 0.0 
0.0 0.0 0.0 
0.0 0.0 0.0 
0.0 0.0 0.0 
0.0 0.0 0.0 
0.0 0.0 0.0 
0.0 0.0 0.0 
0.0 0.0 0.0 
0.0 0.0 0.0 
0.0 0.0 0.0 
0.0 0.0 0.0 
0.0 0.0 0.0 
0.0 0.0 0.0 
0.0 0.0 0.0 
0.0 0.0 0.0 
0.0 0.0 0.0 
0.0 0.0 0.0 
0.0 0.0 0.0 
0.0 0.0 0.0 
0.0 0.0 0.0 
0.0 0.0 0.0 
0.0 0.0 0.0 
0.0 0.0 0.0 
0.0 0.0 0.0 
0.0 0.0 0.0 
0.0 0.0 0.0 
0.0 0.0 0.0 
0.0 0.0 0.0 
0.0 0.0 0.0 
0.0 0.0 0.0 
0.0 0.0 0.0 
0.0 0.0 0.0 
0.0 0.0 0.0 
0.0 0.0 0.0 
0.0 0.0 0.0 
0.0 0.0 0.0 
0.0 0.0 0.0 
0.0 0.0 0.0 
0.0 0.0 0.0 
0.0 0.0 0.0 
0.0 0.0 0.0 
0.0 0.0 0.0 
0.0 0.0 0.0 
0.0 0.0 0.0 
0.0 0.0 0.0 
0.0 0.0 0.0 
0.0 0.0 0.0 
0.0 0.0 0.0 
0.0 0.0 0.0 
0.0 0.0 0.0 
0.0 0.0 0.0 
0.0 0.0 0.0 
0.0 0.0 0.0 
0.0 0.0 0.0 
0.0 0.0 0.0 
0.0 0.0 0.0 
0.0 0.0 0.0 
0.0 0.0 0.0 
0.0 0.0 0.0 
0.0 0.0 0.0 
0.0 0.0 0.0 
0.0 0.0 0.0 
0.0 0.0 0.0 
0.0 0.0 0.0 
0.0 0.0 0.0 
0.0 0.0 0.0 
0.0 0.0 0.0 
0.0 0.0 0.0 
0.0 0.0 0.0 
0.0 0.0 0.0 
0.0 0.0 0.0 
0.0 0.0 0.0 
0.0 0.0 0.0 
0.0 0.0 0.0 
0.0 0.0 0.0 
0.0 0.0 0.0 
0.0 0.0 0.0 
0.0 0.0 0.0 
0.0 0.0 0.0 
0.0 0.0 0.0 
0.0 0.0 0.0 
0.0 0.0 0.0 
0.0 0.0 0.0 
0.0 0.0 0.0 
0.0 0.0 0.0 
0.0 0.0 0.0 
0.0 0.0 0.0 
0.0 0.0 0.0 
0.0 0.0 0.0 
0.0 0.0 0.0 
0.0 0.0 0.0 
0.0 0.0 0.0 
0.0 0.0 0.0 
0.0 0.0 0.0 
0.0 0.0 0.0 
0.0 0.0 0.0 
0.0 0.0 0.0 
0.0 0.0 0.0 
0.0 0.0 0.0 
0.0 0.0 0.0 
0.0 0.0 0.0 
0.0 0.0 0.0 
0.0 0.0 0.0 
0.0 0.0 0.0 
0.0 0.0 0.0 
0.0 0.0 0.0 
0.0 0.0 0.0 
0.0 0.0 0.0 
0.0 0.0 0.0 
0.0 0.0 0.0 
0.0 0.0 0.0 
0.0 0.0 0.0 
0.0 0.0 0.0 
0.0 0.0 0.0 
0.0 0.0 0.0 
0.0 0.0 0.0 
0.0 0.0 0.0 
0.0 0.0 0.0 
0.0 0.0 0.0 
0.0 0.0 0.0 
0.0 0.0 0.0 
0.0 0.0 0.0 
0.0 0.0 0.0 
0.0 0.0 0.0 
0.0 0.0 0.0 
0.0 0.0 0.0 
0.0 0.0 0.0 
0.0 0.0 0.0 
0.0 0.0 0.0 
0.0 0.0 0.0 
0.0 0.0 0.0 
0.0 0.0 0.0 
0.0 0.0 0.0 
0.0 0.0 0.0 
0.0 0.0 0.0 
0.0 0.0 0.0 
0.0 0.0 0.0 
0.0 0.0 0.0 
0.0 0.0 0.0 
0.0 0.0 0.0 
0.0 0.0 0.0 
0.0 0.0 0.0 
0.0 0.0 0.0 
0.0 0.0 0.0 
0.0 0.0 0.0 
0.0 0.0 0.0 
0.0 0.0 0.0 
0.0 0.0 0.0 
0.0 0.0 0.0 
0.0 0.0 0.0 
0.0 0.0 0.0 
0.0 0.0 0.0 
0.0 0.0 0.0 
0.0 0.0 0.0 
0.0 0.0 0.0 
0.0 0.0 0.0 
0.0 0.0 0.0 
0.0 0.0 0.0 
0.0 0.0 0.0 
0.0 0.0 0.0 
0.0 0.0 0.0 
0.0 0.0 0.0 
0.0 0.0 0.0 
0.0 0.0 0.0 
0.0 0.0 0.0 
0.0 0.0 0.0 
0.0 0.0 0.0 
0.0 0.0 0.0 
0.0 0.0 0.0 
0.0 0.0 0.0 
0.0 0.0 0.0 
0.0 0.0 0.0 
0.0 0.0 0.0 
0.0 0.0 0.0 
0.0 0.0 0.0 
0.0 0.0 0.0 
0.0 0.0 0.0 
0.0 0.0 0.0 
0.0 0.0 0.0 

TENSORS element_materi_stress float
-4.293486450066e+01 3.096893954133e+01 0.0 
3.096893954133e+01 -4.744727557430e+01 0.0 
0.0 0.0 -2.277468208735e+01 
-4.427879719484e+01 2.932143101864e+01 0.0 
2.932143101864e+01 -5.023276177174e+01 0.0 
0.0 0.0 -2.540951806540e+01 
-1.181738184033e+02 2.677310040659e+01 0.0 
2.677310040659e+01 -2.663358659354e+02 0.0 
0.0 0.0 -1.149529053016e+02 
-1.030958046456e+02 3.491975183633e+00 0.0 
3.491975183633e+00 -2.296520885387e+02 0.0 
0.0 0.0 -9.942436795528e+01 
-5.725095942738e+01 1.022339385427e+00 0.0 
1.022339385427e+00 -8.968881975790e+01 0.0 
0.0 0.0 -4.368193375558e+01 
-3.913958980692e+01 3.007374990276e+01 0.0 
3.007374990276e+01 -9.358765641104e+01 0.0 
0.0 0.0 -4.060246633945e+01 
-5.608188184779e+01 2.490428162800e-01 0.0 
2.490428162800e-01 -8.971335118978e+01 0.0 
0.0 0.0 -4.333856991127e+01 
-4.578036526567e+01 3.178946308098e+01 0.0 
3.178946308098e+01 -5.328875064060e+01 0.0 
0.0 0.0 -2.589286000962e+01 
-5.750622615405e+01 2.754962988415e+00 0.0 
2.754962988415e+00 -9.070284971487e+01 0.0 
0.0 0.0 -4.406272276068e+01 
-1.024003018332e+02 3.561194650115e+00 0.0 
3.561194650115e+00 -2.279904016573e+02 0.0 
0.0 0.0 -9.871721104716e+01 
-1.122062486386e+02 -1.180517855606e+00 0.0 
-1.180517855606e+00 -2.600762260873e+02 0.0 
0.0 0.0 -1.085048275956e+02 
-4.007081925581e+01 2.869382963291e+01 0.0 
2.869382963291e+01 -4.292611036278e+01 0.0 
0.0 0.0 -2.205987123962e+01 
-1.559723425371e+02 1.001441375758e-01 0.0 
1.001441375758e-01 -3.717695528519e+02 0.0 
0.0 0.0 -1.579225686167e+02 
-6.882789970725e+01 5.052781563677e+00 0.0 
5.052781563677e+00 -1.089062012898e+02 0.0 
0.0 0.0 -5.292023029910e+01 
-1.605307359447e+02 2.167904909282e+00 0.0 
2.167904909282e+00 -3.797982971927e+02 0.0 
0.0 0.0 -1.616987099412e+02 
-1.043624209713e+02 2.794145063560e+00 0.0 
2.794145063560e+00 -2.379066663802e+02 0.0 
0.0 0.0 -1.022807262054e+02 
-5.779469821996e+01 2.820688103813e+00 0.0 
2.820688103813e+00 -8.625315249449e+01 0.0 
0.0 0.0 -4.281435521433e+01 
-3.007603341165e+01 1.919431653620e+01 0.0 
1.919431653620e+01 -1.099123283887e+02 0.0 
0.0 0.0 -4.433586532635e+01 
-2.077005296729e+01 -5.103232365117e-01 0.0 
-5.103232365117e-01 -7.742079846197e+01 0.0 
0.0 0.0 -2.905725542878e+01 
-3.063354418330e+01 -1.895924922624e+00 0.0 
-1.895924922624e+00 -8.003948748758e+01 0.0 
0.0 0.0 -3.062179953666e+01 
-1.042023924652e+02 5.758789537168e+00 0.0 
5.758789537168e+00 -2.292821953452e+02 0.0 
0.0 0.0 -9.964537634312e+01 
-4.511634454056e+01 2.765217071770e+01 0.0 
2.765217071770e+01 -4.749671420964e+01 0.0 
0.0 0.0 -2.304009652084e+01 
-4.883369709863e+01 3.012145264112e+01 0.0 
3.012145264112e+01 -5.015732306756e+01 0.0 
0.0 0.0 -2.450907924030e+01 
-1.390526378236e+02 1.521177679773e+01 0.0 
1.521177679773e+01 -3.490341804640e+02 0.0 
0.0 0.0 -1.460260454863e+02 
-7.860113172088e+01 8.993152049487e+00 0.0 
8.993152049487e+00 -1.300817932391e+02 0.0 
0.0 0.0 -6.220487748800e+01 
-1.169975860859e+02 8.172909464816e-02 0.0 
8.172909464816e-02 -2.738498373170e+02 0.0 
0.0 0.0 -1.144229417252e+02 
-5.664409350042e+01 7.019254438681e+00 0.0 
7.019254438681e+00 -7.226895306823e+01 0.0 
0.0 0.0 -3.827391397059e+01 
-1.327645743945e+02 3.145427744730e+01 0.0 
3.145427744730e+01 -3.196388749948e+02 0.0 
0.0 0.0 -1.353210348168e+02 
-8.199941036733e+01 1.251985280017e+01 0.0 
1.251985280017e+01 -1.319666584169e+02 0.0 
0.0 0.0 -6.378982063528e+01 
-1.433468958998e+02 1.351318595951e+01 0.0 
1.351318595951e+01 -3.576401065456e+02 0.0 
0.0 0.0 -1.498961007336e+02 
-4.096577194202e+01 -2.285091021137e+01 0.0 
-2.285091021137e+01 -9.872853901350e+01 0.0 
0.0 0.0 -3.833194270895e+01 
-1.547856613282e+01 -1.490554696903e-01 0.0 
-1.490554696903e-01 -2.496815084519e+01 0.0 
0.0 0.0 -1.173401509340e+01 
-1.204660933010e+02 2.713338142162e+01 0.0 
2.713338142162e+01 -2.661723537916e+02 0.0 
0.0 0.0 -1.155915341278e+02 
-1.318937899770e+02 9.763583007641e-01 0.0 
9.763583007641e-01 -3.227654181692e+02 0.0 
0.0 0.0 -1.359977624439e+02 
-1.528110433916e+02 8.122657012037e+00 0.0 
8.122657012037e+00 -3.699441870064e+02 0.0 
0.0 0.0 -1.564265691194e+02 
-1.632189246256e+02 2.927246549570e+00 0.0 
2.927246549570e+00 -3.878245140955e+02 0.0 
0.0 0.0 -1.649130316163e+02 
-1.638812096708e+02 5.643630217887e+00 0.0 
5.643630217887e+00 -3.878684334699e+02 0.0 
0.0 0.0 -1.651248929422e+02 
-1.411080070897e+02 2.220387648488e+01 0.0 
2.220387648488e+01 -3.479051012086e+02 0.0 
0.0 0.0 -1.463039324895e+02 
-4.826052886221e+01 1.861575772690e+00 0.0 
1.861575772690e+00 -7.099136230695e+01 0.0 
0.0 0.0 -3.537556735075e+01 
-4.772188310274e+01 -9.212770841142e-01 0.0 
-9.212770841142e-01 -7.141678556400e+01 0.0 
0.0 0.0 -3.534160060002e+01 
-5.495607714985e+01 2.569486782674e+01 0.0 
2.569486782674e+01 -5.215616346277e+01 0.0 
0.0 0.0 -2.726380961544e+01 
-1.556466383328e+02 9.815181337159e+00 0.0 
9.815181337159e+00 -3.734470683894e+02 0.0 
0.0 0.0 -1.583281120166e+02 
-4.335765615056e+01 3.105595424942e+01 0.0 
3.105595424942e+01 -4.746508848129e+01 0.0 
0.0 0.0 -2.405135930268e+01 
-5.967690548055e+01 6.902675299576e+00 0.0 
6.902675299576e+00 -7.263377841173e+01 0.0 
0.0 0.0 -3.898263536111e+01 
-9.983335862030e+01 1.391053971866e+00 0.0 
1.391053971866e+00 -2.179886147199e+02 0.0 
0.0 0.0 -9.494659200206e+01 
-4.470322932787e+01 3.021023616210e+01 0.0 
3.021023616210e+01 -4.841390964721e+01 0.0 
0.0 0.0 -2.445298446130e+01 
-3.770455496103e+01 -2.518364472552e+01 0.0 
-2.518364472552e+01 -9.524775569008e+01 0.0 
0.0 0.0 -3.905424549742e+01 
-9.842463271692e+01 1.277210569410e+00 0.0 
1.277210569410e+00 -2.190585632469e+02 0.0 
0.0 0.0 -9.484495878916e+01 
-3.651356289605e+01 -2.695248674304e+01 0.0 
-2.695248674304e+01 -5.758801387106e+01 0.0 
0.0 0.0 -2.856925378063e+01 
-6.682752103829e+01 5.856426805723e+00 0.0 
5.856426805723e+00 -1.001860553903e+02 0.0 
0.0 0.0 -4.970407292858e+01 
-5.302876763886e+01 2.781816316747e+01 0.0 
2.781816316747e+01 -5.243979726364e+01 0.0 
0.0 0.0 -2.545706688254e+01 
-3.457383787148e+01 -7.463333038884e-01 0.0 
-7.463333038884e-01 -9.765217499429e+01 0.0 
0.0 0.0 -3.820714271626e+01 
-4.301289710283e+01 -1.705813792016e+01 0.0 
-1.705813792016e+01 -1.253487079954e+02 0.0 
0.0 0.0 -4.599031897772e+01 
-5.094203318113e+01 2.300261651467e+01 0.0 
2.300261651467e+01 -4.849031173744e+01 0.0 
0.0 0.0 -2.467939169006e+01 
-1.129763215924e+02 2.119032403764e+01 0.0 
2.119032403764e+01 -2.522130117478e+02 0.0 
0.0 0.0 -1.091568000021e+02 
-5.850658769623e+01 -2.045728309399e+00 0.0 
-2.045728309399e+00 -1.307117252749e+02 0.0 
0.0 0.0 -5.244077800958e+01 
-4.468583999018e+01 -2.163748744426e+00 0.0 
-2.163748744426e+00 -1.008816503660e+02 0.0 
0.0 0.0 -3.988492924505e+01 
-1.313330591891e+02 -5.118536616166e-01 0.0 
-5.118536616166e-01 -3.225837214208e+02 0.0 
0.0 0.0 -1.357750341830e+02 
-1.778927914094e+01 -9.755479918131e-01 0.0 
-9.755479918131e-01 -5.948455531853e+01 0.0 
0.0 0.0 -2.138359247785e+01 
-1.052052260462e+02 4.750191665863e+00 0.0 
4.750191665863e+00 -2.383076170354e+02 0.0 
0.0 0.0 -1.026538529245e+02 
-6.314998891995e+01 -2.505537163492e+01 0.0 
-2.505537163492e+01 -9.376683651893e+01 0.0 
0.0 0.0 -4.810494791485e+01 
-1.263370861616e+02 2.599921884909e+01 0.0 
2.599921884909e+01 -3.158967199537e+02 0.0 
0.0 0.0 -1.322701418346e+02 
-5.357274636033e+01 3.319165629872e+01 0.0 
3.319165629872e+01 -1.065709998545e+02 0.0 
0.0 0.0 -4.573639261898e+01 
-3.849957420310e+01 -1.743659997283e+01 0.0 
-1.743659997283e+01 -1.123333573130e+02 0.0 
0.0 0.0 -3.826621032350e+01 
-1.557110821861e+02 2.687016434704e+00 0.0 
2.687016434704e+00 -3.715105794441e+02 0.0 
0.0 0.0 -1.577664984891e+02 
-4.973631601784e+01 2.596472514456e+01 0.0 
2.596472514456e+01 -4.746842648620e+01 0.0 
0.0 0.0 -2.358726960637e+01 
-4.747307791995e+01 -8.411452013719e+00 0.0 
-8.411452013719e+00 -1.193871001391e+02 0.0 
0.0 0.0 -5.129294030038e+01 
-1.227156222727e+02 2.906057290175e+01 0.0 
2.906057290175e+01 -2.708211701800e+02 0.0 
0.0 0.0 -1.176610377358e+02 
-4.103445947630e+01 -1.192912182424e+01 0.0 
-1.192912182424e+01 -7.138305089543e+01 0.0 
0.0 0.0 -2.812257493136e+01 
-1.267383517216e+02 3.065460998618e+01 0.0 
3.065460998618e+01 -2.944926964355e+02 0.0 
0.0 0.0 -1.259693144471e+02 
-1.197970912575e+02 3.245446084640e-01 0.0 
3.245446084640e-01 -2.847642552688e+02 0.0 
0.0 0.0 -1.191020417773e+02 
-1.098022331291e+02 1.407903360746e+01 0.0 
1.407903360746e+01 -2.575385439678e+02 0.0 
0.0 0.0 -1.098022331291e+02 
-1.274090302215e+02 2.890424659083e+01 0.0 
2.890424659083e+01 -3.058145044293e+02 0.0 
0.0 0.0 -1.295670603953e+02 
-9.771692737518e+00 -6.342162518609e-01 0.0 
-6.342162518609e-01 -2.991186898623e+01 0.0 
0.0 0.0 -9.129880318929e+00 
-6.462095149912e+01 -3.341935933005e+00 0.0 
-3.341935933005e+00 -1.356417153373e+02 0.0 
0.0 0.0 -5.466982643963e+01 
-1.074577050716e+02 1.120547501167e+01 0.0 
1.120547501167e+01 -2.349357769556e+02 0.0 
0.0 0.0 -1.023180446082e+02 
-1.179630862148e+02 2.302145045275e+01 0.0 
2.302145045275e+01 -2.564411275644e+02 0.0 
0.0 0.0 -1.119212641338e+02 
-4.535631052907e+01 3.159819388563e+01 0.0 
3.159819388563e+01 -4.949555374694e+01 0.0 
0.0 0.0 -2.439594955586e+01 
-1.863196466815e+01 -3.077016452134e+00 0.0 
-3.077016452134e+00 -5.882954424005e+01 0.0 
0.0 0.0 -2.132633513706e+01 
-4.514329940770e+01 3.209380739348e+01 0.0 
3.209380739348e+01 -4.949972729987e+01 0.0 
0.0 0.0 -2.408616295485e+01 
-4.245708422046e+01 -1.482627350219e+01 0.0 
-1.482627350219e+01 -7.231641520559e+01 0.0 
0.0 0.0 -2.887150085075e+01 
-5.737385618588e+01 2.373857651938e+00 0.0 
2.373857651938e+00 -8.539444921842e+01 0.0 
0.0 0.0 -4.243049162129e+01 
-4.728763925590e+01 3.131498907490e+01 0.0 
3.131498907490e+01 -5.082388287722e+01 0.0 
0.0 0.0 -2.495415514634e+01 
-4.166837131356e+01 2.813641324738e+01 0.0 
2.813641324738e+01 -4.323043450790e+01 0.0 
0.0 0.0 -2.218841068115e+01 
-6.265732523065e+01 3.367632809444e+00 0.0 
3.367632809444e+00 -1.013225819630e+02 0.0 
0.0 0.0 -4.879397215811e+01 
-6.076827278548e+01 1.136339094532e+00 0.0 
1.136339094532e+00 -1.004806101830e+02 0.0 
0.0 0.0 -4.797466489055e+01 
-1.223628667561e+02 6.874299139847e-01 0.0 
6.874299139847e-01 -2.930467776180e+02 0.0 
0.0 0.0 -1.228155495360e+02 
-1.277998460705e+02 -7.919221389257e-01 0.0 
-7.919221389257e-01 -3.142957202487e+02 0.0 
0.0 0.0 -1.322102035363e+02 
-1.054804096434e+02 2.689260945259e+01 0.0 
2.689260945259e+01 -2.146704968165e+02 0.0 
0.0 0.0 -9.564527193798e+01 
-5.874915198767e+01 3.524751153470e+00 0.0 
3.524751153470e+00 -8.951603315939e+01 0.0 
0.0 0.0 -4.407955554412e+01 
-1.799692996716e+01 -3.449334738326e+00 0.0 
-3.449334738326e+00 -2.664013297153e+01 0.0 
0.0 0.0 -1.236899059776e+01 
-6.589583504595e+01 8.603372246050e+00 0.0 
8.603372246050e+00 -9.082372104012e+01 0.0 
0.0 0.0 -4.661586682582e+01 
-8.326976007203e+01 1.636580362615e+00 0.0 
1.636580362615e+00 -1.696425169815e+02 0.0 
0.0 0.0 -7.547368311606e+01 
-8.335687589876e+01 1.148776197559e+00 0.0 
1.148776197559e+00 -1.663028394910e+02 0.0 
0.0 0.0 -7.449791461692e+01 
-1.159653708977e+02 1.556996079454e+01 0.0 
1.556996079454e+01 -2.610946879707e+02 0.0 
0.0 0.0 -1.127180176605e+02 
-1.474874392651e+02 2.540741516786e+01 0.0 
2.540741516786e+01 -3.534627292052e+02 0.0 
0.0 0.0 -1.498850505411e+02 
-5.909325439171e+01 3.643353573747e+00 0.0 
3.643353573747e+00 -8.539552874380e+01 0.0 
0.0 0.0 -4.294663494065e+01 
-1.520661823331e+02 9.401546859145e+00 0.0 
9.401546859145e+00 -3.724030267203e+02 0.0 
0.0 0.0 -1.569407627160e+02 
-6.615211374463e+01 9.514746760620e-01 0.0 
9.514746760620e-01 -1.202766688915e+02 0.0 
0.0 0.0 -5.552863479085e+01 
-5.135231958237e+01 3.203059126400e+01 0.0 
3.203059126400e+01 -8.870857027481e+01 0.0 
0.0 0.0 -3.810245234097e+01 
-5.419993673487e+01 2.324251455265e+00 0.0 
2.324251455265e+00 -8.070352151922e+01 0.0 
0.0 0.0 -4.007103747623e+01 
-1.599470172318e+02 8.173200744939e-01 0.0 
8.173200744939e-01 -3.794279170106e+02 0.0 
0.0 0.0 -1.614124802727e+02 
-1.024293051680e+02 2.383402104091e+01 0.0 
2.383402104091e+01 -2.753227814101e+02 0.0 
0.0 0.0 -1.129256259734e+02 
-1.283787603826e+02 2.745458071792e+01 0.0 
2.745458071792e+01 -3.170927219483e+02 0.0 
0.0 0.0 -1.332414446993e+02 
-4.765736874804e+01 3.178512774461e+01 0.0 
3.178512774461e+01 -1.056250874618e+02 0.0 
0.0 0.0 -4.316102313574e+01 
-5.161621433248e+01 -2.998371835061e+01 0.0 
-2.998371835061e+01 -7.794575203820e+01 0.0 
0.0 0.0 -3.662114903296e+01 
-1.460678413966e+02 1.575028498129e+00 0.0 
1.575028498129e+00 -3.518838093743e+02 0.0 
0.0 0.0 -1.489854952313e+02 
-8.987165277357e+01 1.596447231989e+00 0.0 
1.596447231989e+00 -1.859028781718e+02 0.0 
0.0 0.0 -8.233235928362e+01 
-5.558080729892e+01 -3.753803497419e+01 0.0 
-3.753803497419e+01 -7.182510674898e+01 0.0 
0.0 0.0 -3.937897158635e+01 
-1.595444010980e+02 3.621047055954e+00 0.0 
3.621047055954e+00 -3.776001073771e+02 0.0 
0.0 0.0 -1.607433525425e+02 
-1.003784449381e+02 2.474957630186e+01 0.0 
2.474957630186e+01 -2.062709644063e+02 0.0 
0.0 0.0 -9.159482280331e+01 
-1.006390006788e+01 4.055203848596e-02 0.0 
4.055203848596e-02 -2.154257513910e+01 0.0 
0.0 0.0 -7.316457725240e+00 
-5.999350673056e+01 3.045240998186e+01 0.0 
3.045240998186e+01 -1.580194932090e+02 0.0 
0.0 0.0 -6.588792561883e+01 
-6.580301094424e+01 1.511455120952e+01 0.0 
1.511455120952e+01 -7.677219232608e+01 0.0 
0.0 0.0 -4.123223496907e+01 
-7.927906015622e+01 -3.549495060482e+00 0.0 
-3.549495060482e+00 -1.668629939716e+02 0.0 
0.0 0.0 -6.771919189864e+01 
-4.817953239845e+01 3.299243091813e+01 0.0 
3.299243091813e+01 -8.581095026013e+01 0.0 
0.0 0.0 -3.819877109879e+01 
-5.330277041866e+01 3.188589495893e+01 0.0 
3.188589495893e+01 -1.064798543021e+02 0.0 
0.0 0.0 -4.506735119869e+01 
-1.569937151108e+02 6.221399163760e+00 0.0 
6.221399163760e+00 -3.766314987069e+02 0.0 
0.0 0.0 -1.596875641453e+02 
-6.397318747322e+01 -2.488122715429e-01 0.0 
-2.488122715429e-01 -1.136059224869e+02 0.0 
0.0 0.0 -5.287373298803e+01 
-5.044166605644e+01 3.389825218919e+01 0.0 
3.389825218919e+01 -1.058940886406e+02 0.0 
0.0 0.0 -4.500015934344e+01 
-3.245062688861e+01 -6.293745494324e+00 0.0 
-6.293745494324e+00 -6.306069682129e+01 0.0 
0.0 0.0 -2.366919659705e+01 
-6.670024135633e+01 9.226576119590e+00 0.0 
9.226576119590e+00 -9.259920002407e+01 0.0 
0.0 0.0 -4.738983241412e+01 
-8.915961666824e+01 1.865307413513e+00 0.0 
1.865307413513e+00 -1.871142728583e+02 0.0 
0.0 0.0 -8.248216685796e+01 
-5.041272345597e+01 3.169164582458e+01 0.0 
3.169164582458e+01 -1.057170513151e+02 0.0 
0.0 0.0 -4.446432570497e+01 
-4.735778796580e+01 3.560939721998e+01 0.0 
3.560939721998e+01 -5.415260804384e+01 0.0 
0.0 0.0 -2.769669833623e+01 
-6.133091726117e+01 1.986367181549e+01 0.0 
1.986367181549e+01 -6.214248548252e+01 0.0 
0.0 0.0 -3.399809005565e+01 
-7.624595373569e+01 -3.854424278759e+00 0.0 
-3.854424278759e+00 -1.646510447075e+02 0.0 
0.0 0.0 -6.676503880698e+01 
-5.375167738331e+01 1.603113961128e+01 0.0 
1.603113961128e+01 -5.158361325729e+01 0.0 
0.0 0.0 -2.828165955411e+01 
-1.078697201085e+02 1.111027434416e+01 0.0 
1.111027434416e+01 -2.437029227663e+02 0.0 
0.0 0.0 -1.050717928625e+02 
-4.582474172737e+01 3.506001725518e+01 0.0 
3.506001725518e+01 -7.654612555500e+01 0.0 
0.0 0.0 -3.174489548345e+01 
-1.149764789281e+02 -1.251201228917e+00 0.0 
-1.251201228917e+00 -2.725202970398e+02 0.0 
0.0 0.0 -1.137682588626e+02 
-1.023293131468e+02 1.589565764478e+00 0.0 
1.589565764478e+00 -2.294046017986e+02 0.0 
0.0 0.0 -9.912017448361e+01 
-6.535401466162e+01 2.998987104607e+01 0.0 
2.998987104607e+01 -1.111308960083e+02 0.0 
0.0 0.0 -4.797552125923e+01 
-5.864089203444e+01 2.258623568022e+01 0.0 
2.258623568022e+01 -5.668710933213e+01 0.0 
0.0 0.0 -3.072150666858e+01 
-1.512217449656e+02 6.702593176233e+00 0.0 
6.702593176233e+00 -3.693039606754e+02 0.0 
0.0 0.0 -1.557577116923e+02 
-1.564590040023e+02 1.895800598021e+00 0.0 
1.895800598021e+00 -3.724659447590e+02 0.0 
0.0 0.0 -1.582774846284e+02 
-1.208208753086e+02 -7.698476004597e-01 0.0 
-7.698476004597e-01 -2.928701388850e+02 0.0 
0.0 0.0 -1.226018821651e+02 
-6.643952377674e+01 3.069325357355e+01 0.0 
3.069325357355e+01 -1.125366967398e+02 0.0 
0.0 0.0 -4.950433358737e+01 
-1.497829443885e+02 1.374771195804e+01 0.0 
1.374771195804e+01 -3.692340540628e+02 0.0 
0.0 0.0 -1.553050995354e+02 
-6.223649655861e+01 2.799444645644e+01 0.0 
2.799444645644e+01 -9.205576164909e+01 0.0 
0.0 0.0 -4.079741684106e+01 
-1.049084343264e+02 7.952079965890e+00 0.0 
7.952079965890e+00 -2.364074021895e+02 0.0 
0.0 0.0 -1.019947509548e+02 
-1.266175200986e+02 3.185280519144e+01 0.0 
3.185280519144e+01 -2.924712786266e+02 0.0 
0.0 0.0 -1.253266396175e+02 
-7.100620297367e+01 7.903293747496e+00 0.0 
7.903293747496e+00 -1.090087906086e+02 0.0 
0.0 0.0 -5.360449807468e+01 
-7.599615063396e+01 1.379574917640e+00 0.0 
1.379574917640e+00 -1.449131939189e+02 0.0 
0.0 0.0 -6.587280336585e+01 
-6.048150726381e+01 3.066138278227e+01 0.0 
3.066138278227e+01 -9.157811804222e+01 0.0 
0.0 0.0 -4.018943367176e+01 
-5.269900558946e+01 1.916377889855e+01 0.0 
1.916377889855e+01 -4.922488481230e+01 0.0 
0.0 0.0 -2.632501115309e+01 
-7.135799936419e+01 2.999718423200e+01 0.0 
2.999718423200e+01 -1.311506719635e+02 0.0 
0.0 0.0 -5.602400058421e+01 
-5.062523829264e+01 3.124718677834e+01 0.0 
3.124718677834e+01 -1.238783320927e+02 0.0 
0.0 0.0 -4.991448832589e+01 
-5.379396838525e+01 1.872818635474e+00 0.0 
1.872818635474e+00 -8.333053632145e+01 0.0 
0.0 0.0 -4.073735141201e+01 
-5.635268067933e+01 2.778636869113e+01 0.0 
2.778636869113e+01 -1.549555831725e+02 0.0 
0.0 0.0 -6.231756787747e+01 
-1.273182167927e+01 -1.028610997821e+00 0.0 
-1.028610997821e+00 -2.566027213923e+01 0.0 
0.0 0.0 -1.030293794255e+01 
-5.798562099517e+01 4.084207982015e-01 0.0 
4.084207982015e-01 -9.827232666975e+01 0.0 
0.0 0.0 -4.647738429948e+01 
-1.541243457274e+01 -1.062238677270e+00 0.0 
-1.062238677270e+00 -5.989815291919e+01 0.0 
0.0 0.0 -2.154867039164e+01 
-6.380611713375e+01 1.722000509845e+01 0.0 
1.722000509845e+01 -6.959996567879e+01 0.0 
0.0 0.0 -3.775646269718e+01 
-1.545498400247e+02 1.282591762140e+01 0.0 
1.282591762140e+01 -3.715836357219e+02 0.0 
0.0 0.0 -1.574400427240e+02 
-4.896920674688e+01 3.392920317802e+01 0.0 
3.392920317802e+01 -1.062494760261e+02 0.0 
0.0 0.0 -4.476208378549e+01 
-1.242849192118e+02 -7.506655063045e-01 0.0 
-7.506655063045e-01 -3.030665464795e+02 0.0 
0.0 0.0 -1.271855774575e+02 
-4.455738788443e+01 2.987062128310e+01 0.0 
2.987062128310e+01 -4.777344090322e+01 0.0 
0.0 0.0 -2.445524169080e+01 
-1.015304090750e+02 2.273425209134e+01 0.0 
2.273425209134e+01 -2.747968735161e+02 0.0 
0.0 0.0 -1.124981847774e+02 
-5.244413537590e+01 4.979617475803e-01 0.0 
4.979617475803e-01 -8.455895629266e+01 0.0 
0.0 0.0 -4.070092750057e+01 
-5.673457126874e+01 2.939812319554e+01 0.0 
2.939812319554e+01 -1.561522743815e+02 0.0 
0.0 0.0 -6.329213339468e+01 
-1.362252152339e+02 1.485587809036e+00 0.0 
1.485587809036e+00 -3.322439200197e+02 0.0 
0.0 0.0 -1.401407405761e+02 
-3.740748114160e+01 -1.050773973864e+01 0.0 
-1.050773973864e+01 -6.419524136807e+01 0.0 
0.0 0.0 -2.695603111753e+01 
-1.456754610505e+02 -6.949591383566e-03 0.0 
-6.949591383566e-03 -3.514774351211e+02 0.0 
0.0 0.0 -1.487458688515e+02 
-7.225751302276e+01 1.879647826917e+01 0.0 
1.879647826917e+01 -1.045440500749e+02 0.0 
0.0 0.0 -5.146316595538e+01 
-1.567342387163e+02 2.864839975196e+00 0.0 
2.864839975196e+00 -3.758550645694e+02 0.0 
0.0 0.0 -1.593767909857e+02 
-5.165755412142e+01 1.075139645273e-01 0.0 
1.075139645273e-01 -8.354027269260e+01 0.0 
0.0 0.0 -4.015934804420e+01 
-5.117562265749e+01 3.213387716792e+01 0.0 
3.213387716792e+01 -1.232372416354e+02 0.0 
0.0 0.0 -5.130945751096e+01 
-5.851294787862e+01 1.152827252739e+01 0.0 
1.152827252739e+01 -6.493427690297e+01 0.0 
0.0 0.0 -3.519259484242e+01 
-1.128584758921e+02 -6.345963859715e-03 0.0 
-6.345963859715e-03 -2.612647294016e+02 0.0 
0.0 0.0 -1.088906581793e+02 
-4.407899479981e+01 3.150531496840e+01 0.0 
3.150531496840e+01 -4.638089683385e+01 0.0 
0.0 0.0 -2.389207389589e+01 
-5.318224189982e+01 2.581222442927e+01 0.0 
2.581222442927e+01 -1.528008539072e+02 0.0 
0.0 0.0 -5.974921780863e+01 
-8.021862536295e+01 3.012927554412e+00 0.0 
3.012927554412e+00 -1.560888835963e+02 0.0 
0.0 0.0 -7.049225268779e+01 
-5.236189795615e+01 -5.617655520163e-02 0.0 
-5.617655520163e-02 -8.340079408099e+01 0.0 
0.0 0.0 -4.032880761114e+01 
-5.517770356937e+01 3.123462387146e+01 0.0 
3.123462387146e+01 -1.402903606827e+02 0.0 
0.0 0.0 -5.851987606185e+01 
-5.631403287845e+01 1.339506674745e+01 0.0 
1.339506674745e+01 -5.708558654205e+01 0.0 
0.0 0.0 -3.139101628303e+01 
-1.111078439682e+02 2.809809148601e+01 0.0 
2.809809148601e+01 -2.526336423829e+02 0.0 
0.0 0.0 -1.087224459053e+02 
-8.502494717634e+01 -3.409656559157e+00 0.0 
-3.409656559157e+00 -1.845337338695e+02 0.0 
0.0 0.0 -7.529888798251e+01 
-1.360422727237e+02 2.937977416053e+01 0.0 
2.937977416053e+01 -3.243566274476e+02 0.0 
0.0 0.0 -1.377196700514e+02 
-1.284935638845e+02 3.270905453390e+01 0.0 
3.270905453390e+01 -2.983941347785e+02 0.0 
0.0 0.0 -1.276663095989e+02 
-4.729643528117e+01 3.130847874954e+01 0.0 
3.130847874954e+01 -6.995983257287e+01 0.0 
0.0 0.0 -3.119776456856e+01 
-8.729720040864e+01 -3.294476906020e+00 0.0 
-3.294476906020e+00 -1.852407724678e+02 0.0 
0.0 0.0 -7.603925467011e+01 
-1.268738745027e+02 1.696508782067e+01 0.0 
1.696508782067e+01 -3.286477057228e+02 0.0 
0.0 0.0 -1.362564740677e+02 
-5.765777021993e+01 2.881842244835e+01 0.0 
2.881842244835e+01 -7.209193058122e+01 0.0 
0.0 0.0 -3.371223279682e+01 
-4.437533834270e+01 3.183094656015e+01 0.0 
3.183094656015e+01 -6.627691187597e+01 0.0 
0.0 0.0 -3.131611455363e+01 
-6.724330865340e+01 1.461699445928e+01 0.0 
1.461699445928e+01 -8.900837439404e+01 0.0 
0.0 0.0 -4.543402000685e+01 
-5.493918523613e+01 3.033238937601e+01 0.0 
3.033238937601e+01 -1.415744905495e+02 0.0 
0.0 0.0 -5.677931223742e+01 
-1.031988995038e+02 5.138312968792e+00 0.0 
5.138312968792e+00 -2.345710214280e+02 0.0 
0.0 0.0 -1.009309762795e+02 
-9.983670996035e+01 2.172017842899e+01 0.0 
2.172017842899e+01 -1.975753775833e+02 0.0 
0.0 0.0 -8.882362626311e+01 
-1.410703620869e+02 -5.136159019261e-01 0.0 
-5.136159019261e-01 -3.420911880882e+02 0.0 
0.0 0.0 -1.445484650525e+02 
-4.535027372477e+01 3.108959453544e+01 0.0 
3.108959453544e+01 -4.890464440299e+01 0.0 
0.0 0.0 -2.439232294828e+01 
-5.045118552545e+01 2.328939878222e+01 0.0 
2.328939878222e+01 -1.514792131086e+02 0.0 
0.0 0.0 -5.736646064771e+01 
-1.034470927462e+02 2.377645987737e+01 0.0 
2.377645987737e+01 -2.126772722871e+02 0.0 
0.0 0.0 -9.443730950998e+01 
-8.890042955393e+01 2.852805157664e+01 0.0 
2.852805157664e+01 -7.840333305667e+01 0.0 
0.0 0.0 -5.045908713569e+01 
-5.873359662603e+01 2.514581124421e+01 0.0 
2.514581124421e+01 -7.263661035098e+01 0.0 
0.0 0.0 -3.444541137731e+01 
-1.179315593383e+02 1.245064932487e+01 0.0 
1.245064932487e+01 -3.148267941269e+02 0.0 
0.0 0.0 -1.294275060395e+02 
-1.650174687620e+01 -5.473014157134e-01 0.0 
-5.473014157134e-01 -4.241275482045e+01 0.0 
0.0 0.0 -1.517649669724e+01 
-1.158213012667e+02 2.303512892863e+01 0.0 
2.303512892863e+01 -2.545679133256e+02 0.0 
0.0 0.0 -1.107167643777e+02 
-8.821139910002e+01 1.439279050954e+01 0.0 
1.439279050954e+01 -1.559671960334e+02 0.0 
0.0 0.0 -7.285357854001e+01 
-7.069412480740e+01 -1.088076902845e+01 0.0 
-1.088076902845e+01 -1.802762110600e+02 0.0 
0.0 0.0 -7.303197820793e+01 
-1.151485282910e+02 1.142594601695e+01 0.0 
1.142594601695e+01 -3.135371099209e+02 0.0 
0.0 0.0 -1.282056914635e+02 
-7.403789504380e+01 1.096605694192e+01 0.0 
1.096605694192e+01 -1.092743893774e+02 0.0 
0.0 0.0 -5.459368532637e+01 
-7.820963541698e+01 9.831857757381e+00 0.0 
9.831857757381e+00 -1.227856722369e+02 0.0 
0.0 0.0 -5.989859229615e+01 
-1.454404100372e+02 1.410454549117e+01 0.0 
1.410454549117e+01 -3.582855785462e+02 0.0 
0.0 0.0 -1.507177965750e+02 
-5.840207978845e+01 -1.328655032588e+01 0.0 
-1.328655032588e+01 -1.341676771197e+02 0.0 
0.0 0.0 -5.415700055812e+01 
-7.380266712988e+01 3.086181846855e+01 0.0 
3.086181846855e+01 -1.491932458615e+02 0.0 
0.0 0.0 -6.264376327866e+01 
-7.640205528978e+01 2.239866186285e+01 0.0 
2.239866186285e+01 -1.212782282690e+02 0.0 
0.0 0.0 -5.766140318706e+01 
-9.388066600098e+01 1.657348170273e+01 0.0 
1.657348170273e+01 -1.668456755243e+02 0.0 
0.0 0.0 -7.781790245760e+01 
-7.630927752942e+01 2.122899382136e+01 0.0 
2.122899382136e+01 -1.123844827840e+02 0.0 
0.0 0.0 -5.569243818935e+01 
-7.005912837918e+01 1.946790775564e+01 0.0 
1.946790775564e+01 -8.992286976274e+01 0.0 
0.0 0.0 -4.636786736097e+01 
-8.587330104523e+01 2.173855881097e+01 0.0 
2.173855881097e+01 -2.516721589950e+02 0.0 
0.0 0.0 -1.016195846821e+02 
-1.078100890809e+02 2.958378536088e+01 0.0 
2.958378536088e+01 -2.374380086395e+02 0.0 
0.0 0.0 -1.031744293161e+02 
-6.280104171975e+01 2.704720424653e+01 0.0 
2.704720424653e+01 -9.061357766724e+01 0.0 
0.0 0.0 -4.714819292126e+01 
-4.667596717880e+01 3.236737540098e+01 0.0 
3.236737540098e+01 -6.903091474731e+01 0.0 
0.0 0.0 -3.202721988363e+01 
-5.142388763580e+01 3.230696101847e+01 0.0 
3.230696101847e+01 -8.831313390996e+01 0.0 
0.0 0.0 -3.899161613340e+01 
-6.848705951069e+01 3.118943267516e+01 0.0 
3.118943267516e+01 -1.308848821048e+02 0.0 
0.0 0.0 -5.582055506093e+01 
-1.050917571289e+02 2.381222059386e+01 0.0 
2.381222059386e+01 -2.070423644495e+02 0.0 
0.0 0.0 -9.324023647351e+01 
-3.744586327998e+01 2.281385214844e+01 0.0 
2.281385214844e+01 -1.151037116404e+02 0.0 
0.0 0.0 -4.380832633775e+01 
-1.135520186804e+02 1.003475260762e+01 0.0 
1.003475260762e+01 -3.068633156301e+02 0.0 
0.0 0.0 -1.257246002932e+02 
-5.251779469408e+01 1.600602332437e+00 0.0 
1.600602332437e+00 -8.218158619133e+01 0.0 
0.0 0.0 -4.000981426562e+01 
-5.362645843281e+01 2.725154249295e+01 0.0 
2.725154249295e+01 -1.551220321503e+02 0.0 
0.0 0.0 -6.102316264743e+01 
-1.095865891288e+02 7.673504609873e+00 0.0 
7.673504609873e+00 -2.984058603177e+02 0.0 
0.0 0.0 -1.219977348339e+02 
-1.323629026456e+01 -1.891782501730e-01 0.0 
-1.891782501730e-01 -2.817481957354e+01 0.0 
0.0 0.0 -1.055751183725e+01 
-9.476135257539e+01 1.600588725395e+01 0.0 
1.600588725395e+01 -1.775878149568e+02 0.0 
0.0 0.0 -8.130475025965e+01 
-1.389646530058e+01 -4.163114466023e-01 0.0 
-4.163114466023e-01 -2.417969812284e+01 0.0 
0.0 0.0 -9.792951284168e+00 
-1.251083169105e+01 -1.557246420158e+00 0.0 
-1.557246420158e+00 -4.277892292552e+01 0.0 
0.0 0.0 -1.458105017185e+01 
-4.391825687163e+01 3.130683263420e+01 0.0 
3.130683263420e+01 -4.825343025179e+01 0.0 
0.0 0.0 -2.389984174585e+01 
-5.139058273118e+01 -1.328753338667e+01 0.0 
-1.328753338667e+01 -1.134291600178e+02 0.0 
0.0 0.0 -4.585114882039e+01 
-1.000967407497e+02 1.801866947239e+01 0.0 
1.801866947239e+01 -1.881438612477e+02 0.0 
0.0 0.0 -8.607218059922e+01 
-4.931438019853e+01 -1.371178947184e+01 0.0 
-1.371178947184e+01 -1.061205353701e+02 0.0 
0.0 0.0 -4.310220700053e+01 
-4.636916271182e+01 3.263376378505e+01 0.0 
3.263376378505e+01 -8.915870820954e+01 0.0 
0.0 0.0 -3.676280952339e+01 
-4.983445250164e+01 -2.200039957022e+01 0.0 
-2.200039957022e+01 -1.107069148610e+02 0.0 
0.0 0.0 -4.233070207886e+01 
-3.778208339196e+01 -1.040082806863e+01 0.0 
-1.040082806863e+01 -7.150445836546e+01 0.0 
0.0 0.0 -2.946096790518e+01 
-1.199840540820e+02 1.366624366628e+01 0.0 
1.366624366628e+01 -3.206941662655e+02 0.0 
0.0 0.0 -1.318034661043e+02 
-7.367191493743e+01 2.338672454773e+01 0.0 
2.338672454773e+01 -1.053224478782e+02 0.0 
0.0 0.0 -5.206853710453e+01 
-1.552176511980e+02 1.133091990931e+00 0.0 
1.133091990931e+00 -3.714218029325e+02 0.0 
0.0 0.0 -1.575918362392e+02 
-6.920084894293e+01 1.303194917001e+01 0.0 
1.303194917001e+01 -1.093365933782e+02 0.0 
0.0 0.0 -5.410293222118e+01 
-4.740254102971e+01 3.190551241831e+01 0.0 
3.190551241831e+01 -1.065268843745e+02 0.0 
0.0 0.0 -4.271206332649e+01 
-5.829080809525e+01 2.657396873785e+01 0.0 
2.657396873785e+01 -1.713849781229e+02 0.0 
0.0 0.0 -6.845657772114e+01 
-5.510441701868e+01 2.703726756373e+01 0.0 
2.703726756373e+01 -7.095876577467e+01 0.0 
0.0 0.0 -3.236263476907e+01 
-1.105253968415e+02 9.127562210071e+00 0.0 
9.127562210071e+00 -3.054801481357e+02 0.0 
0.0 0.0 -1.244016634932e+02 
-1.575861714735e+02 2.684240166944e+00 0.0 
2.684240166944e+00 -3.776134199594e+02 0.0 
0.0 0.0 -1.601598774299e+02 
-9.872691895959e+01 2.272220842998e+01 0.0 
2.272220842998e+01 -1.851235694401e+02 0.0 
0.0 0.0 -8.475514651990e+01 
-4.426620792552e+01 2.077748289107e+01 0.0 
2.077748289107e+01 -1.353900969270e+02 0.0 
0.0 0.0 -4.836971080701e+01 
-1.222519979494e+02 1.461482706728e+01 0.0 
1.461482706728e+01 -3.216754439847e+02 0.0 
0.0 0.0 -1.327782325802e+02 
-1.184844197223e+02 -1.235952319742e+00 0.0 
-1.235952319742e+00 -2.822199553680e+02 0.0 
0.0 0.0 -1.180476288846e+02 
-7.198572607103e+01 3.065712225143e+01 0.0 
3.065712225143e+01 -1.330411655728e+02 0.0 
0.0 0.0 -5.855973277689e+01 
-9.223628123174e+01 1.688224865400e+01 0.0 
1.688224865400e+01 -1.689168051326e+02 0.0 
0.0 0.0 -7.794592590929e+01 
-1.322698396239e+02 2.856693251129e+01 0.0 
2.856693251129e+01 -3.198473429229e+02 0.0 
0.0 0.0 -1.352351547640e+02 
-5.536787883427e+01 2.261712306026e+01 0.0 
2.261712306026e+01 -1.673298909190e+02 0.0 
0.0 0.0 -6.478485502136e+01 
-4.434429336618e+01 3.104725956576e+01 0.0 
3.104725956576e+01 -8.655598959862e+01 0.0 
0.0 0.0 -3.519068850696e+01 
-8.204163709478e+01 2.257274387536e+01 0.0 
2.257274387536e+01 -1.341197582144e+02 0.0 
0.0 0.0 -6.444841859275e+01 
-1.142661287267e+02 1.338571823904e+01 0.0 
1.338571823904e+01 -2.596088733274e+02 0.0 
0.0 0.0 -1.117625006162e+02 
-7.047336782314e+01 3.093197996194e+01 0.0 
3.093197996194e+01 -1.486966390265e+02 0.0 
0.0 0.0 -6.212426895748e+01 
-6.844498017203e+01 1.864609506790e+01 0.0 
1.864609506790e+01 -2.114509736424e+02 0.0 
0.0 0.0 -8.683433100606e+01 
-6.001946364675e+01 1.062216302254e+00 0.0 
1.062216302254e+00 -1.021369914059e+02 0.0 
0.0 0.0 -4.824693651580e+01 
-4.484900508999e+01 -1.606635015782e+01 0.0 
-1.606635015782e+01 -6.948575877241e+01 0.0 
0.0 0.0 -2.788182961044e+01 
-7.351774906309e+01 1.676902564315e+01 0.0 
1.676902564315e+01 -1.103059971147e+02 0.0 
0.0 0.0 -5.430844370515e+01 
-4.736031113766e+01 2.557806055224e+01 0.0 
2.557806055224e+01 -1.393158249359e+02 0.0 
0.0 0.0 -5.274598729327e+01 
-3.964953496928e+01 2.024036558028e+01 0.0 
2.024036558028e+01 -1.274052412743e+02 0.0 
0.0 0.0 -4.752622069461e+01 
-4.071715517307e+01 -2.058716406049e+01 0.0 
-2.058716406049e+01 -1.173112310202e+02 0.0 
0.0 0.0 -4.415043066780e+01 
-9.696519171614e+01 1.524391340046e+01 0.0 
1.524391340046e+01 -1.863009538670e+02 0.0 
0.0 0.0 -8.457984367494e+01 
-7.926660120856e+01 2.442764933002e+01 0.0 
2.442764933002e+01 -1.277976268099e+02 0.0 
0.0 0.0 -6.130959931352e+01 
-5.293428857045e+01 3.358852103927e+01 0.0 
3.358852103927e+01 -1.252263999711e+02 0.0 
0.0 0.0 -5.256255233878e+01 
-1.021893827014e+02 1.715992928033e+01 0.0 
1.715992928033e+01 -1.970164156509e+02 0.0 
0.0 0.0 -8.936173950569e+01 
-1.020682865640e+02 2.486805619644e+01 0.0 
2.486805619644e+01 -1.994321353476e+02 0.0 
0.0 0.0 -9.005012657349e+01 
-7.535004785736e+01 2.974072153581e+01 0.0 
2.974072153581e+01 -1.357905016940e+02 0.0 
0.0 0.0 -6.125893416775e+01 
-1.591413624958e+02 4.694164562504e+00 0.0 
4.694164562504e+00 -3.779479229130e+02 0.0 
0.0 0.0 -1.607267856226e+02 
-7.250782080603e+01 1.835896282434e+01 0.0 
1.835896282434e+01 -2.284246106523e+02 0.0 
0.0 0.0 -9.472941618116e+01 
-7.854678498450e+01 2.844164970091e+01 0.0 
2.844164970091e+01 -1.392871047359e+02 0.0 
0.0 0.0 -6.403690650811e+01 
-6.002382700055e+01 2.869172424913e+01 0.0 
2.869172424913e+01 -1.589962058831e+02 0.0 
0.0 0.0 -6.408351654238e+01 
-7.479589919760e+01 1.834766300648e+01 0.0 
1.834766300648e+01 -2.279467001325e+02 0.0 
0.0 0.0 -9.469210310641e+01 
-4.199464901265e+01 1.800379701224e+01 0.0 
1.800379701224e+01 -1.390838214290e+02 0.0 
0.0 0.0 -5.091659142505e+01 
-6.288337847342e+01 6.354326631041e+00 0.0 
6.354326631041e+00 -8.783169122708e+01 0.0 
0.0 0.0 -4.481452091015e+01 
-5.763747085783e+01 1.903711129054e+01 0.0 
1.903711129054e+01 -1.806121992325e+02 0.0 
0.0 0.0 -6.980583459524e+01 
-5.052179920895e+01 -6.134125944716e+00 0.0 
-6.134125944716e+00 -1.624711600495e+02 0.0 
0.0 0.0 -6.097958998839e+01 
-9.621590888915e+01 1.946296247556e+01 0.0 
1.946296247556e+01 -1.831803289884e+02 0.0 
0.0 0.0 -8.341887136327e+01 
-1.256248911082e+02 5.709749216853e+00 0.0 
5.709749216853e+00 -1.008954237433e+02 0.0 
0.0 0.0 -6.822983562782e+01 
-7.864449517440e+01 1.945376456137e+01 0.0 
1.945376456137e+01 -1.197883011525e+02 0.0 
0.0 0.0 -5.912983889808e+01 
-4.790654831748e+01 2.091501732637e+01 0.0 
2.091501732637e+01 -1.530516660047e+02 0.0 
0.0 0.0 -5.714675834446e+01 
-4.353045564023e+01 2.861271894552e+01 0.0 
2.861271894552e+01 -1.035825223855e+02 0.0 
0.0 0.0 -3.927266555800e+01 
-3.950644356462e+01 1.112945446651e+01 0.0 
1.112945446651e+01 -1.358704195441e+02 0.0 
0.0 0.0 -4.844677095057e+01 
-8.426873168942e+01 2.150652693625e+01 0.0 
2.150652693625e+01 -1.482619504017e+02 0.0 
0.0 0.0 -6.935920462735e+01 
-2.372501801549e+01 -3.175671122653e+00 0.0 
-3.175671122653e+00 -4.204144433110e+01 0.0 
0.0 0.0 -1.589326233787e+01 
-5.507259655610e+01 3.116385738477e+01 0.0 
3.116385738477e+01 -8.978506812197e+01 0.0 
0.0 0.0 -3.954468955470e+01 
-7.878667694477e+01 1.778339455125e+01 0.0 
1.778339455125e+01 -2.438500842882e+02 0.0 
0.0 0.0 -1.019133162618e+02 
-7.799122567957e+01 2.035621760894e+01 0.0 
2.035621760894e+01 -1.261652745344e+02 0.0 
0.0 0.0 -6.037528012526e+01 
-7.157803289519e+01 8.814909680875e+00 0.0 
8.814909680875e+00 -1.077800845390e+02 0.0 
0.0 0.0 -5.340743523026e+01 
-3.576411925437e+01 2.047976795766e+01 0.0 
2.047976795766e+01 -1.204021244061e+02 0.0 
0.0 0.0 -4.936063430791e+01 
-4.690922339091e+01 -4.523661105486e-01 0.0 
-4.523661105486e-01 -1.618135867751e+02 0.0 
0.0 0.0 -5.896368554662e+01 
-5.097119149247e+01 -1.173835645818e+01 0.0 
-1.173835645818e+01 -1.535691037869e+02 0.0 
0.0 0.0 -5.793220670045e+01 
-4.900379069403e+01 3.164270263651e+01 0.0 
3.164270263651e+01 -6.989418899618e+01 0.0 
0.0 0.0 -3.118679816750e+01 
-9.511081658864e+01 2.030834014826e+01 0.0 
2.030834014826e+01 -1.710487556551e+02 0.0 
0.0 0.0 -7.944787167312e+01 
-5.411289488329e+01 3.202586398008e+01 0.0 
3.202586398008e+01 -8.983794976611e+01 0.0 
0.0 0.0 -3.862521854622e+01 
-5.668227726787e+01 1.966920518792e+01 0.0 
1.966920518792e+01 -1.816646329520e+02 0.0 
0.0 0.0 -7.033870363524e+01 
-5.504332990193e+01 2.360521279887e+01 0.0 
2.360521279887e+01 -1.690894793550e+02 0.0 
0.0 0.0 -6.578551211465e+01 
-3.260419649266e+01 1.524884520447e+01 0.0 
1.524884520447e+01 -1.121755055749e+02 0.0 
0.0 0.0 -4.346024928286e+01 
-6.569377938052e+01 2.958938459215e+01 0.0 
2.958938459215e+01 -1.761045338687e+02 0.0 
0.0 0.0 -7.343452745544e+01 
-4.342065236842e+01 3.160716431273e+01 0.0 
3.160716431273e+01 -6.970658219377e+01 0.0 
0.0 0.0 -2.910768933682e+01 
-1.218734887919e+02 2.396604306596e+01 0.0 
2.396604306596e+01 -2.735695867287e+02 0.0 
0.0 0.0 -1.182329226562e+02 
-1.242974973003e+02 2.791025472007e+01 0.0 
2.791025472007e+01 -2.810802441709e+02 0.0 
0.0 0.0 -1.212133224414e+02 
-7.589433887164e+01 3.107598438931e+01 0.0 
3.107598438931e+01 -1.665875976566e+02 0.0 
0.0 0.0 -6.953702827446e+01 
-4.475803812421e+01 2.210342270664e+01 0.0 
2.210342270664e+01 -1.391069410195e+02 0.0 
0.0 0.0 -5.131021103079e+01 
-4.133670320260e+01 2.687222290277e+01 0.0 
2.687222290277e+01 -1.038540988413e+02 0.0 
0.0 0.0 -3.759235831353e+01 
-8.254820414944e+01 2.725056689856e+01 0.0 
2.725056689856e+01 -1.561658224483e+02 0.0 
0.0 0.0 -7.002255302949e+01 
-4.104329225558e+01 2.227283299541e+01 0.0 
2.227283299541e+01 -1.206175677220e+02 0.0 
0.0 0.0 -4.263070666095e+01 
-4.571880779502e+01 -6.766416710472e+00 0.0 
-6.766416710472e+00 -1.523260024505e+02 0.0 
0.0 0.0 -5.533167529973e+01 
-7.448029785447e+01 2.863532570175e+01 0.0 
2.863532570175e+01 -1.329041861176e+02 0.0 
0.0 0.0 -5.868174079922e+01 
-1.081951682063e+02 8.909932635343e+00 0.0 
8.909932635343e+00 -2.386155830952e+02 0.0 
0.0 0.0 -1.036432253904e+02 
-5.063572625880e+01 2.444535935922e+01 0.0 
2.444535935922e+01 -1.540072476913e+02 0.0 
0.0 0.0 -5.899672369231e+01 
-8.681506298298e+01 2.110654823666e+01 0.0 
2.110654823666e+01 -2.519642970724e+02 0.0 
0.0 0.0 -1.041846284610e+02 
-4.537989642154e+01 3.214860228616e+01 0.0 
3.214860228616e+01 -9.056991217606e+01 0.0 
0.0 0.0 -3.654791674777e+01 
-1.575983628154e+02 1.800396723622e+01 0.0 
1.800396723622e+01 -3.793764847026e+02 0.0 
0.0 0.0 -1.606924542554e+02 
-4.504837231103e+01 2.700126972531e+01 0.0 
2.700126972531e+01 -1.245546016584e+02 0.0 
0.0 0.0 -4.692234281826e+01 
-7.700555797248e+01 2.986292517436e+01 0.0 
2.986292517436e+01 -1.510373299994e+02 0.0 
0.0 0.0 -6.488651831181e+01 
-3.711339191199e+01 1.560494668139e+01 0.0 
1.560494668139e+01 -1.291139810746e+02 0.0 
0.0 0.0 -4.942762496307e+01 
-8.798470348180e+01 8.902935310563e+00 0.0 
8.902935310563e+00 -2.673969629292e+02 0.0 
0.0 0.0 -1.105816645444e+02 
-5.991862592402e+01 2.311577650738e+01 0.0 
2.311577650738e+01 -1.850698733345e+02 0.0 
0.0 0.0 -7.342683582488e+01 
-4.971176098939e+01 -9.944481441131e+00 0.0 
-9.944481441131e+00 -1.552670057194e+02 0.0 
0.0 0.0 -5.698404809789e+01 
-7.640443348286e+01 2.639932798148e+01 0.0 
2.639932798148e+01 -1.221667354003e+02 0.0 
0.0 0.0 -5.805147674127e+01 
-1.303911162600e+02 3.260484733660e+01 0.0 
3.260484733660e+01 -2.997027547265e+02 0.0 
0.0 0.0 -1.286281612959e+02 
-5.196402446011e+01 2.011172230004e+01 0.0 
2.011172230004e+01 -1.670279684515e+02 0.0 
0.0 0.0 -6.344287887966e+01 
-7.848391051459e+01 1.665300047991e+01 0.0 
1.665300047991e+01 -2.416658265659e+02 0.0 
0.0 0.0 -1.003451162485e+02 
-4.168275742668e+01 2.948428816498e+01 0.0 
2.948428816498e+01 -8.777616718681e+01 0.0 
0.0 0.0 -3.339502971384e+01 
-7.934992551610e+01 6.407019081089e+00 0.0 
6.407019081089e+00 -1.399823735238e+02 0.0 
0.0 0.0 -6.539968971195e+01 
-1.063331191366e+02 6.824320460439e+00 0.0 
6.824320460439e+00 -2.968686455847e+02 0.0 
0.0 0.0 -1.205605294164e+02 
-4.638458360262e+01 3.129154395230e+01 0.0 
3.129154395230e+01 -8.691340840676e+01 0.0 
0.0 0.0 -3.638521510370e+01 
-7.775226982802e+01 7.101943304632e+00 0.0 
7.101943304632e+00 -1.315698896707e+02 0.0 
0.0 0.0 -6.239664784960e+01 
-1.361560993575e+02 3.434028748680e+01 0.0 
3.434028748680e+01 -3.189659137738e+02 0.0 
0.0 0.0 -1.361366039394e+02 
-1.169770375144e+02 8.477279150897e+00 0.0 
8.477279150897e+00 -3.152738702876e+02 0.0 
0.0 0.0 -1.292752723406e+02 
-1.286787459057e+02 3.129667281789e+01 0.0 
3.129667281789e+01 -2.933695821215e+02 0.0 
0.0 0.0 -1.262144984082e+02 
-7.998135976354e+01 9.405734861805e+00 0.0 
9.405734861805e+00 -1.315214887469e+02 0.0 
0.0 0.0 -6.305085455312e+01 
-1.014044698933e+02 2.762577110286e+01 0.0 
2.762577110286e+01 -2.075357790290e+02 0.0 
0.0 0.0 -9.228207467670e+01 
-4.534985352185e+01 3.101616328725e+01 0.0 
3.101616328725e+01 -6.825552865252e+01 0.0 
0.0 0.0 -3.022170480789e+01 
-7.089852950357e+01 2.563783717453e+01 0.0 
2.563783717453e+01 -1.003763941893e+02 0.0 
0.0 0.0 -4.897550140140e+01 
-7.977337727915e+01 2.521902727886e+01 0.0 
2.521902727886e+01 -1.387130673440e+02 0.0 
0.0 0.0 -6.388762805723e+01 
-8.157319248275e+01 2.690224911282e+01 0.0 
2.690224911282e+01 -1.438583125568e+02 0.0 
0.0 0.0 -6.701482566871e+01 
-6.696105208104e+01 3.076689259915e+01 0.0 
3.076689259915e+01 -1.468353886986e+02 0.0 
0.0 0.0 -6.028454855157e+01 
-1.402970518337e+02 3.374791686043e+01 0.0 
3.374791686043e+01 -3.320314254869e+02 0.0 
0.0 0.0 -1.412985431962e+02 
-7.768001206636e+01 1.057968096554e+01 0.0 
1.057968096554e+01 -1.237848262099e+02 0.0 
0.0 0.0 -6.003945148287e+01 
-7.258445542463e+01 1.752239650412e+01 0.0 
1.752239650412e+01 -9.835606324018e+01 0.0 
0.0 0.0 -5.034175667704e+01 
-5.256817531491e+01 1.962896113847e+01 0.0 
1.962896113847e+01 -1.656719923476e+02 0.0 
0.0 0.0 -6.249975298977e+01 
-4.480763635902e+01 -1.248227759180e+01 0.0 
-1.248227759180e+01 -9.266038075492e+01 0.0 
0.0 0.0 -3.777188702464e+01 
-6.784758966503e+01 2.197885785468e+01 0.0 
2.197885785468e+01 -8.353667539710e+01 0.0 
0.0 0.0 -4.299612268262e+01 
-4.826742074271e+01 3.276440205534e+01 0.0 
3.276440205534e+01 -1.058260636256e+02 0.0 
0.0 0.0 -4.405085555607e+01 
-5.273689240596e+01 5.963842123673e-01 0.0 
5.963842123673e-01 -8.439605134187e+01 0.0 
0.0 0.0 -4.073988312435e+01 
-5.508950544428e+01 -1.384075515349e+01 0.0 
-1.384075515349e+01 -1.577040490733e+02 0.0 
0.0 0.0 -6.139130739938e+01 
-4.807762494222e+01 2.002713301722e+01 0.0 
2.002713301722e+01 -1.504838597182e+02 0.0 
0.0 0.0 -5.523926310845e+01 
-9.868752727087e+01 1.840663914614e+01 0.0 
1.840663914614e+01 -1.910819487699e+02 0.0 
0.0 0.0 -8.653084281223e+01 
-4.541855315079e+01 3.002045547373e+01 0.0 
3.002045547373e+01 -1.041383036898e+02 0.0 
0.0 0.0 -4.105493099897e+01 
-7.395698166164e+01 2.454076269940e+01 0.0 
2.454076269940e+01 -1.172269497568e+02 0.0 
0.0 0.0 -5.487012413117e+01 
-8.214468127910e+01 1.479048857385e+01 0.0 
1.479048857385e+01 -2.533464675878e+02 0.0 
0.0 0.0 -1.062715837399e+02 
-8.705148082007e+01 -1.104768060748e+00 0.0 
-1.104768060748e+00 -2.409448030387e+02 0.0 
0.0 0.0 -9.921163563581e+01 
-1.465788622715e+02 3.044910881473e+01 0.0 
3.044910881473e+01 -3.503509323551e+02 0.0 
0.0 0.0 -1.486789383880e+02 
-6.130602519842e+01 2.712045666612e+01 0.0 
2.712045666612e+01 -7.458852734133e+01 0.0 
0.0 0.0 -3.663162108842e+01 
-4.423280706457e+01 5.053772350080e+00 0.0 
5.053772350080e+00 -1.565777169692e+02 0.0 
0.0 0.0 -5.687600371089e+01 
-7.055700396920e+01 -1.495508102461e+01 0.0 
-1.495508102461e+01 -1.752042889725e+02 0.0 
0.0 0.0 -7.259039224123e+01 
-4.598604272245e+01 3.066545606408e+01 0.0 
3.066545606408e+01 -6.772375465790e+01 0.0 
0.0 0.0 -3.052900316204e+01 
-4.617085810320e+01 3.367113168356e+01 0.0 
3.367113168356e+01 -8.703413304514e+01 0.0 
0.0 0.0 -3.761789910701e+01 
-1.083549474977e+02 2.575102180393e+01 0.0 
2.575102180393e+01 -2.213654098496e+02 0.0 
0.0 0.0 -9.851610720420e+01 
-7.715639132629e+01 3.045839085365e+01 0.0 
3.045839085365e+01 -1.533421392621e+02 0.0 
0.0 0.0 -6.740895432643e+01 
-5.484348927857e+01 3.035023075561e+01 0.0 
3.035023075561e+01 -7.087082833928e+01 0.0 
0.0 0.0 -3.198203179799e+01 
-6.760568994203e+01 2.353154917613e+01 0.0 
2.353154917613e+01 -9.556489774644e+01 0.0 
0.0 0.0 -4.571152963775e+01 
-1.528501419183e+02 2.376656847897e+01 0.0 
2.376656847897e+01 -3.684474648830e+02 0.0 
0.0 0.0 -1.559892820404e+02 
-1.413280356910e+02 2.349751742499e+01 0.0 
2.349751742499e+01 -3.486659342828e+02 0.0 
0.0 0.0 -1.465981909922e+02 
-1.061119531754e+02 2.282562194325e+01 0.0 
2.282562194325e+01 -2.195119276561e+02 0.0 
0.0 0.0 -9.728716424946e+01 
-9.792216914415e+01 1.908423074781e+01 0.0 
1.908423074781e+01 -1.796905560164e+02 0.0 
0.0 0.0 -8.288381754817e+01 
-8.672322705404e+01 -4.962480490891e+00 0.0 
-4.962480490891e+00 -2.362916637761e+02 0.0 
0.0 0.0 -9.880108309990e+01 
-5.654022211279e+01 3.179618637687e+01 0.0 
3.179618637687e+01 -1.083400697865e+02 0.0 
0.0 0.0 -4.555460159338e+01 
-4.169520799165e+01 1.683845271063e+01 0.0 
1.683845271063e+01 -1.355444414117e+02 0.0 
0.0 0.0 -4.787551328698e+01 
-4.587021915252e+01 1.586819064405e+01 0.0 
1.586819064405e+01 -1.496760842090e+02 0.0 
0.0 0.0 -5.355688002595e+01 
-7.383129491327e+01 3.088851176947e+01 0.0 
3.088851176947e+01 -1.508391881776e+02 0.0 
0.0 0.0 -6.480914060177e+01 
-8.499430371109e+01 1.029375522194e+01 0.0 
1.029375522194e+01 -2.591985071337e+02 0.0 
0.0 0.0 -1.082341071580e+02 
-9.037010502486e+01 -6.640386389543e+00 0.0 
-6.640386389543e+00 -2.051617721686e+02 0.0 
0.0 0.0 -8.409701063860e+01 
-1.046659992451e+02 1.991511707966e+01 0.0 
1.991511707966e+01 -2.129070338399e+02 0.0 
0.0 0.0 -9.487190992551e+01 
-4.629483907826e+01 -1.685429937006e+00 0.0 
-1.685429937006e+00 -1.557516993710e+02 0.0 
0.0 0.0 -5.716760838767e+01 
-6.343362058423e+01 3.034296770950e+01 0.0 
3.034296770950e+01 -1.450064384798e+02 0.0 
0.0 0.0 -5.955940218436e+01 
-7.717612926529e+01 2.698145722471e+01 0.0 
2.698145722471e+01 -1.352436741414e+02 0.0 
0.0 0.0 -6.119874084933e+01 
-5.839536474126e+01 3.100301382288e+01 0.0 
3.100301382288e+01 -1.262539872662e+02 0.0 
0.0 0.0 -5.224635018655e+01 
-1.273027412115e+02 2.981713686550e+01 0.0 
2.981713686550e+01 -2.875266059745e+02 0.0 
0.0 0.0 -1.240488041558e+02 
-1.222685907534e+02 2.566215473026e+01 0.0 
2.566215473026e+01 -2.766567309209e+02 0.0 
0.0 0.0 -1.192775965023e+02 
-1.186651738559e+02 2.581169839351e+01 0.0 
2.581169839351e+01 -2.563623589963e+02 0.0 
0.0 0.0 -1.121082598557e+02 
-9.353782531644e+01 -1.364856969055e+00 0.0 
-1.364856969055e+00 -2.542341912953e+02 0.0 
0.0 0.0 -1.063281795306e+02 
-9.893953012971e+01 1.456157089421e+01 0.0 
1.456157089421e+01 -1.951590730224e+02 0.0 
0.0 0.0 -8.782958094564e+01 
-4.631389299299e+01 3.320249409499e+01 0.0 
3.320249409499e+01 -8.768675611233e+01 0.0 
0.0 0.0 -3.723803000904e+01 
-5.029665478137e+01 1.560358623078e+01 0.0 
1.560358623078e+01 -1.640330309814e+02 0.0 
0.0 0.0 -6.035770361198e+01 
-3.594774975341e+01 1.212346134851e+01 0.0 
1.212346134851e+01 -1.240099997025e+02 0.0 
0.0 0.0 -4.508913266168e+01 
-5.721955348563e+01 3.150740990810e+01 0.0 
3.150740990810e+01 -9.072399826860e+01 0.0 
0.0 0.0 -3.914396598111e+01 
-6.206026589547e+01 5.201186779583e+00 0.0 
5.201186779583e+00 -8.708556004373e+01 0.0 
0.0 0.0 -4.434374778176e+01 
-7.648907440734e+01 6.554748847486e+00 0.0 
6.554748847486e+00 -1.296463462701e+02 0.0 
0.0 0.0 -6.144062620323e+01 
-1.465118187425e+02 1.771188290112e+01 0.0 
1.771188290112e+01 -3.627600631563e+02 0.0 
0.0 0.0 -1.523815645696e+02 
-1.064932848505e+02 2.531464817871e+01 0.0 
2.531464817871e+01 -2.273778390962e+02 0.0 
0.0 0.0 -9.976133718401e+01 
-8.038196775250e+01 1.856345926237e+01 0.0 
1.856345926237e+01 -1.325401988661e+02 0.0 
0.0 0.0 -6.347664998559e+01 
-8.483189249077e+01 2.570918246721e+01 0.0 
2.570918246721e+01 -1.597994966700e+02 0.0 
0.0 0.0 -7.261544868368e+01 
-3.925039350375e+01 1.257396466307e+01 0.0 
1.257396466307e+01 -1.380567908604e+02 0.0 
0.0 0.0 -5.097583357314e+01 
-3.559794489390e+01 -1.006759709879e+01 0.0 
-1.006759709879e+01 -4.713995244593e+01 0.0 
0.0 0.0 -2.005733663383e+01 
-6.197012272913e+01 2.846385844572e+01 0.0 
2.846385844572e+01 -1.734133665501e+02 0.0 
0.0 0.0 -7.168307321971e+01 
-6.873397269648e+01 2.959573949297e+01 0.0 
2.959573949297e+01 -1.635850864029e+02 0.0 
0.0 0.0 -6.683393616038e+01 
-6.143515641852e+01 2.681934366197e+01 0.0 
2.681934366197e+01 -1.727764114702e+02 0.0 
0.0 0.0 -6.982159641487e+01 
-4.630041494558e+01 3.472740322805e+01 0.0 
3.472740322805e+01 -5.460124893096e+01 0.0 
0.0 0.0 -2.659643826931e+01 
-5.862881770205e+01 3.947208058780e-01 0.0 
3.947208058780e-01 -1.008988725962e+02 0.0 
0.0 0.0 -4.745830708949e+01 
-4.163672451055e+01 -1.070852802967e+01 0.0 
-1.070852802967e+01 -8.478855400017e+01 0.0 
0.0 0.0 -3.360914429997e+01 
-4.723901380992e+01 2.922088300329e+01 0.0 
2.922088300329e+01 -1.235126243759e+02 0.0 
0.0 0.0 -4.774977877863e+01 
-1.623950651877e+02 1.821689557186e+01 0.0 
1.821689557186e+01 -3.802551521046e+02 0.0 
0.0 0.0 -1.623950651877e+02 
-9.159481695431e+01 2.016754151418e+01 0.0 
2.016754151418e+01 -2.646568069209e+02 0.0 
0.0 0.0 -1.069178597483e+02 
-6.850917710307e+01 1.301571613435e+01 0.0 
1.301571613435e+01 -9.603946546832e+01 0.0 
0.0 0.0 -4.856790090972e+01 
-1.618669874348e+01 -8.132496940353e-01 0.0 
-8.132496940353e-01 -5.906714935316e+01 0.0 
0.0 0.0 -2.078631548938e+01 
-7.013783085741e+01 3.178248842900e+01 0.0 
3.178248842900e+01 -1.475353702284e+02 0.0 
0.0 0.0 -6.225189237791e+01 
-5.817276524035e+01 2.494002811016e+01 0.0 
2.494002811016e+01 -1.697878901600e+02 0.0 
0.0 0.0 -6.772909241547e+01 
-8.494594217545e+01 2.521987358712e+01 0.0 
2.521987358712e+01 -1.492247754520e+02 0.0 
0.0 0.0 -6.985121528824e+01 
-1.319783198603e+02 3.334001557699e+01 0.0 
3.334001557699e+01 -3.059919581393e+02 0.0 
0.0 0.0 -1.309910833999e+02 
-6.994585177633e+01 2.109269986021e+01 0.0 
2.109269986021e+01 -9.932052969244e+01 0.0 
0.0 0.0 -4.842499831636e+01 
-8.029976176072e+01 2.968964361653e+01 0.0 
2.968964361653e+01 -1.563680532292e+02 0.0 
0.0 0.0 -6.999487455518e+01 
-8.579951679108e+01 -6.792105134324e+00 0.0 
-6.792105134324e+00 -2.041112515382e+02 0.0 
0.0 0.0 -8.210086739427e+01 
-1.009427722802e+02 1.764987588267e+01 0.0 
1.764987588267e+01 -1.993279703741e+02 0.0 
0.0 0.0 -8.968122279628e+01 
-9.214341845307e+01 1.737240409955e+00 0.0 
1.737240409955e+00 -2.593792894248e+02 0.0 
0.0 0.0 -1.062424774626e+02 
-1.345681732196e+02 3.423876271804e+01 0.0 
3.423876271804e+01 -3.124801718333e+02 0.0 
0.0 0.0 -1.337145035159e+02 
-1.230526092457e+02 2.903042325151e+01 0.0 
2.903042325151e+01 -2.884560882399e+02 0.0 
0.0 0.0 -1.230526092457e+02 
-1.145844366533e+02 2.185034084054e+01 0.0 
2.185034084054e+01 -2.686970188578e+02 0.0 
0.0 0.0 -1.145844366533e+02 
-1.176254066823e+02 2.551240493967e+01 0.0 
2.551240493967e+01 -2.757926155919e+02 0.0 
0.0 0.0 -1.176254066823e+02 
-8.772964240831e+01 2.389501193604e+01 0.0 
2.389501193604e+01 -1.644474587952e+02 0.0 
0.0 0.0 -7.525313036105e+01 
-1.038393796438e+02 2.037546106789e+01 0.0 
2.037546106789e+01 -2.010679330558e+02 0.0 
0.0 0.0 -9.107219380986e+01 
-1.096721267488e+02 2.486593052288e+01 0.0 
2.486593052288e+01 -2.347697631872e+02 0.0 
0.0 0.0 -1.029325669808e+02 
-5.995220298141e+01 3.331355324613e+01 0.0 
3.331355324613e+01 -1.266916500249e+02 0.0 
0.0 0.0 -5.388894029576e+01 
-5.755669740328e+01 3.250379248778e+01 0.0 
3.250379248778e+01 -1.082683038374e+02 0.0 
0.0 0.0 -4.668418463383e+01 
-8.693534253744e+01 -6.398293400915e+00 0.0 
-6.398293400915e+00 -1.929592967924e+02 0.0 
0.0 0.0 -7.853529706286e+01 
-1.075102945920e+02 2.279381326313e+01 0.0 
2.279381326313e+01 -2.147232608244e+02 0.0 
0.0 0.0 -9.627006662493e+01 
-1.381552976125e+02 3.423728346906e+01 0.0 
3.423728346906e+01 -3.254978758529e+02 0.0 
0.0 0.0 -1.386959520396e+02 
-1.028288042431e+02 1.683334904370e+01 0.0 
1.683334904370e+01 -2.076361673347e+02 0.0 
0.0 0.0 -9.273949147333e+01 
-8.193666248521e+01 1.949399495257e+01 0.0 
1.949399495257e+01 -2.469298929697e+02 0.0 
0.0 0.0 -1.009285868356e+02 
-1.058497198028e+02 1.944880082117e+01 0.0 
1.944880082117e+01 -2.094302851442e+02 0.0 
0.0 0.0 -9.418400148409e+01 
-9.314357305625e+01 2.862806750353e+01 0.0 
2.862806750353e+01 -2.372931151854e+02 0.0 
0.0 0.0 -9.873100647249e+01 
-6.784275345373e+01 3.223694017493e+01 0.0 
3.223694017493e+01 -1.630103514108e+02 0.0 
0.0 0.0 -6.835033371957e+01 
-5.861573244354e+01 2.976189853804e+01 0.0 
2.976189853804e+01 -9.092818084441e+01 0.0 
0.0 0.0 -4.007822391858e+01 
-4.414664141989e+01 2.947383858842e+01 0.0 
2.947383858842e+01 -1.100505439035e+02 0.0 
0.0 0.0 -4.221312393266e+01 
-1.074512172960e+02 1.408256689873e+01 0.0 
1.408256689873e+01 -2.418997743839e+02 0.0 
0.0 0.0 -1.044052975040e+02 
-5.609055498036e+01 3.385577292036e+01 0.0 
3.385577292036e+01 -1.258210219179e+02 0.0 
0.0 0.0 -5.307987841727e+01 
-1.255682505434e+02 2.949136272548e+01 0.0 
2.949136272548e+01 -2.982314646532e+02 0.0 
0.0 0.0 -1.267399145590e+02 
-8.331813701738e+01 -7.276092777061e+00 0.0 
-7.276092777061e+00 -1.919929704648e+02 0.0 
0.0 0.0 -7.697625312568e+01 
-5.544943206089e+01 -1.730581232327e+01 0.0 
-1.730581232327e+01 -1.453197772866e+02 0.0 
0.0 0.0 -5.690487671029e+01 
-1.520549528801e+02 1.595831335358e+01 0.0 
1.595831335358e+01 -3.667681407867e+02 0.0 
0.0 0.0 -1.552469281000e+02 
-4.922919121535e+01 3.107837357449e+01 0.0 
3.107837357449e+01 -1.232695933934e+02 0.0 
0.0 0.0 -4.919878962463e+01 
-1.258262210460e+02 3.046714419300e+01 0.0 
3.046714419300e+01 -2.949278491073e+02 0.0 
0.0 0.0 -1.258262210460e+02 
-1.143737391353e+02 2.274256041418e+01 0.0 
2.274256041418e+01 -2.559139849887e+02 0.0 
0.0 0.0 -1.106863172372e+02 
-8.216717274590e+01 2.957611151327e+01 0.0 
2.957611151327e+01 -1.707050799434e+02 0.0 
0.0 0.0 -7.353437163037e+01 
-2.379730682285e+01 -5.637160659400e+00 0.0 
-5.637160659400e+00 -2.779101072598e+01 0.0 
0.0 0.0 -1.313419455940e+01 
-1.315139031326e+02 3.219618163090e+01 0.0 
3.219618163090e+01 -3.081991073094e+02 0.0 
0.0 0.0 -1.315139031326e+02 
-1.493903883475e+02 1.973293153733e+01 0.0 
1.973293153733e+01 -3.600370297529e+02 0.0 
0.0 0.0 -1.524282254301e+02 
-4.928973103977e+01 -1.409763097642e+01 0.0 
-1.409763097642e+01 -1.427228144964e+02 0.0 
0.0 0.0 -5.280739506301e+01 
-8.624673548906e+01 1.781667951941e+01 0.0 
1.781667951941e+01 -2.591713605296e+02 0.0 
0.0 0.0 -1.055462201032e+02 
-1.481986917071e+02 2.886475746875e+01 0.0 
2.886475746875e+01 -3.553665648607e+02 0.0 
0.0 0.0 -1.506695769703e+02 
-1.288782331657e+01 -1.049176295085e+00 0.0 
-1.049176295085e+00 -9.067659188938e+00 0.0 
0.0 0.0 -7.156557894441e+00 
-6.189962102516e+01 3.334383745240e+01 0.0 
3.334383745240e+01 -1.445922043747e+02 0.0 
0.0 0.0 -6.086261866149e+01 
-8.485033903319e+01 2.856090783008e+01 0.0 
2.856090783008e+01 -1.733788285425e+02 0.0 
0.0 0.0 -7.603229547036e+01 
-7.921014049566e+01 3.041170912435e+01 0.0 
3.041170912435e+01 -1.685203174442e+02 0.0 
0.0 0.0 -7.094211206848e+01 
-7.987897258537e+01 2.867147594289e+01 0.0 
2.867147594289e+01 -1.532967951186e+02 0.0 
0.0 0.0 -6.745812683596e+01 
-4.576366126574e+01 3.072631212135e+01 0.0 
3.072631212135e+01 -1.075723176189e+02 0.0 
0.0 0.0 -4.199490865873e+01 
-1.375844764598e+02 3.270646456861e+01 0.0 
3.270646456861e+01 -3.223637784063e+02 0.0 
0.0 0.0 -1.375844764598e+02 
-5.518512263179e+01 1.558326919671e+01 0.0 
1.558326919671e+01 -1.784602491464e+02 0.0 
0.0 0.0 -6.752921796843e+01 
-2.903399258824e+01 5.126056098101e+00 0.0 
5.126056098101e+00 -1.172528513573e+02 0.0 
0.0 0.0 -4.674599860129e+01 
-1.560759867517e+02 5.203289215139e+00 0.0 
5.203289215139e+00 -3.766807177892e+02 0.0 
0.0 0.0 -1.594270113623e+02 
-2.101936634963e+01 -3.085388343459e+00 0.0 
-3.085388343459e+00 -2.619833180134e+01 0.0 
0.0 0.0 -1.134871200249e+01 
-6.481757768378e+01 2.591116338843e+01 0.0 
2.591116338843e+01 -9.329910825174e+01 0.0 
0.0 0.0 -4.320046229194e+01 
-3.951215865340e+01 -2.181619076668e+01 0.0 
-2.181619076668e+01 -9.953003213046e+01 0.0 
0.0 0.0 -3.841483305403e+01 
-6.491836624959e+01 1.657332546025e+01 0.0 
1.657332546025e+01 -8.165239667398e+01 0.0 
0.0 0.0 -4.179156744088e+01 
-1.546456083484e+02 2.181670867139e+01 0.0 
2.181670867139e+01 -3.724690202171e+02 0.0 
0.0 0.0 -1.577343885696e+02 
-1.436476737039e+02 3.177137048813e+01 0.0 
3.177137048813e+01 -3.365112386424e+02 0.0 
0.0 0.0 -1.436476737039e+02 
-8.170796848607e+01 2.339535754597e+01 0.0 
2.339535754597e+01 -1.429003492621e+02 0.0 
0.0 0.0 -6.652840447589e+01 
-3.919598360860e+01 -2.338045835873e+01 0.0 
-2.338045835873e+01 -7.097203852569e+01 0.0 
0.0 0.0 -2.670428991173e+01 
-2.990663739415e+01 9.429211852050e+00 0.0 
9.429211852050e+00 -1.224700969778e+02 0.0 
0.0 0.0 -4.807007532132e+01 
-4.906612506750e+01 -2.490238061586e+01 0.0 
-2.490238061586e+01 -8.841622622008e+01 0.0 
0.0 0.0 -3.534192785289e+01 
-1.318062943646e+02 6.111304515829e+00 0.0 
6.111304515829e+00 -3.332892176053e+02 0.0 
0.0 0.0 -1.391286535910e+02 
-6.288340514478e+01 5.920692044986e+00 0.0 
5.920692044986e+00 -8.861408196528e+01 0.0 
0.0 0.0 -4.504924613302e+01 
-7.433428049017e+01 1.602436533936e+01 0.0 
1.602436533936e+01 -1.060665582769e+02 0.0 
0.0 0.0 -5.372025163012e+01 
-1.490363837507e+02 2.982769731795e+01 0.0 
2.982769731795e+01 -3.490848954183e+02 0.0 
0.0 0.0 -1.490363837507e+02 
-6.081018777680e+01 4.892022476716e+00 0.0 
4.892022476716e+00 -8.761522816695e+01 0.0 
0.0 0.0 -4.412762478313e+01 
-1.193599978475e+02 2.164594370023e+01 0.0 
2.164594370023e+01 -2.697505447443e+02 0.0 
0.0 0.0 -1.163331627776e+02 
-9.785479687595e+01 2.638812632256e+01 0.0 
2.638812632256e+01 -2.520262126270e+02 0.0 
0.0 0.0 -1.045643028509e+02 
-7.151906804445e+01 4.767863944767e+00 0.0 
4.767863944767e+00 -1.191732060413e+02 0.0 
0.0 0.0 -5.680768222572e+01 
-4.704304510175e+01 3.397587470662e+01 0.0 
3.397587470662e+01 -8.626111060137e+01 0.0 
0.0 0.0 -3.799207193513e+01 
-8.607282530261e+01 1.736718192960e+01 0.0 
1.736718192960e+01 -2.594327982111e+02 0.0 
0.0 0.0 -1.075575985864e+02 
-3.583797036143e+01 2.105679006435e+01 0.0 
2.105679006435e+01 -1.074340052881e+02 0.0 
0.0 0.0 -3.744511570762e+01 
-1.535095058020e+02 2.701205638977e+01 0.0 
2.701205638977e+01 -3.595221802046e+02 0.0 
0.0 0.0 -1.535095058020e+02 
-1.202650318817e+02 2.725741856225e+01 0.0 
2.725741856225e+01 -2.819517410573e+02 0.0 
0.0 0.0 -1.202650318817e+02 
-1.161420844151e+02 2.376467235047e+01 0.0 
2.376467235047e+01 -2.723315303018e+02 0.0 
0.0 0.0 -1.161420844151e+02 
-9.902686646925e+01 -7.213123054396e-01 0.0 
-7.213123054396e-01 -2.622781909421e+02 0.0 
0.0 0.0 -1.090183098144e+02 
-8.287427178739e+01 -5.855789189570e+00 0.0 
-5.855789189570e+00 -1.807063240810e+02 0.0 
0.0 0.0 -7.290762996813e+01 
-6.527566525623e+01 2.877961167774e+01 0.0 
2.877961167774e+01 -1.614022850371e+02 0.0 
0.0 0.0 -6.592923650862e+01 
-9.659324973645e+01 1.417304018812e+00 0.0 
1.417304018812e+00 -2.679307502192e+02 0.0 
0.0 0.0 -1.089571999867e+02 
-1.572660862978e+02 2.381904545799e+01 0.0 
2.381904545799e+01 -3.682875346948e+02 0.0 
0.0 0.0 -1.572660862978e+02 
-4.350107129837e+01 2.517845320136e+01 0.0 
2.517845320136e+01 -1.198053467438e+02 0.0 
0.0 0.0 -4.357005402982e+01 
-5.041338634473e+01 -4.683785026989e+00 0.0 
-4.683785026989e+00 -1.663844647670e+02 0.0 
0.0 0.0 -6.161121349933e+01 
-5.410838379321e+01 -7.831878607261e+00 0.0 
-7.831878607261e+00 -1.706362193493e+02 0.0 
0.0 0.0 -6.473506568283e+01 
-7.480006851615e+01 4.815292285533e+00 0.0 
4.815292285533e+00 -1.299409764593e+02 0.0 
0.0 0.0 -6.102231349263e+01 
-1.591264007534e+02 1.607309211899e+01 0.0 
1.607309211899e+01 -3.822601695318e+02 0.0 
0.0 0.0 -1.620159710856e+02 
-5.096230608761e+01 -2.514538283050e+01 0.0 
-2.514538283050e+01 -6.359559019886e+01 0.0 
0.0 0.0 -2.864034375450e+01 
-1.608384245597e+02 2.001574770665e+01 0.0 
2.001574770665e+01 -3.766229906393e+02 0.0 
0.0 0.0 -1.608384245597e+02 
-5.340050751464e+01 -1.190359951921e+01 0.0 
-1.190359951921e+01 -1.591855465839e+02 0.0 
0.0 0.0 -6.059265831669e+01 
-1.288565827056e+02 3.158627511717e+01 0.0 
3.158627511717e+01 -3.019986929798e+02 0.0 
0.0 0.0 -1.288565827056e+02 
-1.119504882525e+02 2.759734241345e+01 0.0 
2.759734241345e+01 -2.364006449755e+02 0.0 
0.0 0.0 -1.041053399684e+02 
-1.382325980541e+01 2.480760800728e-01 0.0 
2.480760800728e-01 -9.322848325570e+00 0.0 
0.0 0.0 -5.661825151281e+00 
-6.325381505765e+01 3.239577827404e+01 0.0 
3.239577827404e+01 -1.615496321689e+02 0.0 
0.0 0.0 -6.737115395010e+01 
-1.041615444700e+02 1.642150538888e+01 0.0 
1.642150538888e+01 -2.063445907672e+02 0.0 
0.0 0.0 -9.275184057115e+01 
-1.346601400194e+02 3.269487424415e+01 0.0 
3.269487424415e+01 -3.155403267119e+02 0.0 
0.0 0.0 -1.346601400194e+02 
-8.762978294755e+01 2.725520841009e+01 0.0 
2.725520841009e+01 -1.650377663038e+02 0.0 
0.0 0.0 -7.540026477541e+01 
-1.017299891996e+02 2.525387658396e+01 0.0 
2.525387658396e+01 -2.657911141554e+02 0.0 
0.0 0.0 -1.098563310065e+02 
-4.395195372458e+01 3.157818828251e+01 0.0 
3.157818828251e+01 -9.422612323090e+01 0.0 
0.0 0.0 -3.776352793543e+01 
-1.398402916090e+02 1.762660678457e+01 0.0 
1.762660678457e+01 -3.471815969201e+02 0.0 
0.0 0.0 -1.457065665587e+02 
-5.652256045826e+01 -1.290804501747e+01 0.0 
-1.290804501747e+01 -1.622648787009e+02 0.0 
0.0 0.0 -6.374697360784e+01 
-5.898328265515e+01 -1.164292883703e+01 0.0 
-1.164292883703e+01 -1.730184382483e+02 0.0 
0.0 0.0 -6.877143404757e+01 
-5.208821013101e+01 -2.747349130658e+01 0.0 
-2.747349130658e+01 -4.831573857615e+01 0.0 
0.0 0.0 -2.754526591984e+01 
-1.406119369772e+02 3.238407249209e+01 0.0 
3.238407249209e+01 -3.294278529469e+02 0.0 
0.0 0.0 -1.406119369772e+02 
-3.826451857022e+01 1.837251051285e+01 0.0 
1.837251051285e+01 -1.214873779839e+02 0.0 
0.0 0.0 -4.267012289914e+01 
-1.239513223366e+02 1.164935628327e+01 0.0 
1.164935628327e+01 -3.250402362417e+02 0.0 
0.0 0.0 -1.342974675735e+02 
-6.923235435463e+01 5.741556526533e+00 0.0 
5.741556526533e+00 -1.096208206610e+02 0.0 
0.0 0.0 -5.325595250469e+01 
-5.855218521613e+01 -1.850745652118e+01 0.0 
-1.850745652118e+01 -1.367879334632e+02 0.0 
0.0 0.0 -5.631061401054e+01 
-5.484339189583e+01 -9.249172897604e+00 0.0 
-9.249172897604e+00 -1.680442578792e+02 0.0 
0.0 0.0 -6.474341939163e+01 
-8.360354066508e+01 2.865129302436e+01 0.0 
2.865129302436e+01 -1.603332753837e+02 0.0 
0.0 0.0 -7.278104481463e+01 
-1.513832392871e+02 2.854902844039e+01 0.0 
2.854902844039e+01 -3.545608916699e+02 0.0 
0.0 0.0 -1.513832392871e+02 
-8.472681514930e+01 -6.128408071133e+00 0.0 
-6.128408071133e+00 -1.881189691747e+02 0.0 
0.0 0.0 -7.562389228770e+01 
-1.059723713886e+02 5.448242649776e+00 0.0 
5.448242649776e+00 -2.893681763126e+02 0.0 
0.0 0.0 -1.187827540405e+02 
-7.771330260117e+01 3.069729462557e+01 0.0 
3.069729462557e+01 -1.832423752858e+02 0.0 
0.0 0.0 -7.618915842851e+01 
-8.863555440553e+01 6.249503280630e+00 0.0 
6.249503280630e+00 -2.618053546569e+02 0.0 
0.0 0.0 -1.099934764147e+02 
-5.505816671649e+01 -4.051830597839e+00 0.0 
-4.051830597839e+00 -1.761258743758e+02 0.0 
0.0 0.0 -6.728148403435e+01 
-9.922799762487e+01 2.268215492509e+00 0.0 
2.268215492509e+00 -2.718083002127e+02 0.0 
0.0 0.0 -1.129745067568e+02 
-7.220179095702e+01 3.012773471238e+01 0.0 
3.012773471238e+01 -1.658007699310e+02 0.0 
0.0 0.0 -6.830707369652e+01 
-9.452854076601e+01 2.999585277895e+01 0.0 
2.999585277895e+01 -2.253576491011e+02 0.0 
0.0 0.0 -9.556585696014e+01 
-9.674133767918e+01 1.783515818109e+01 0.0 
1.783515818109e+01 -2.762619974462e+02 0.0 
0.0 0.0 -1.133879705958e+02 
-7.374861081154e+01 3.101216471718e+01 0.0 
3.101216471718e+01 -1.812055236732e+02 0.0 
0.0 0.0 -7.563577695601e+01 
-8.093539501391e+01 -7.902067166247e+00 0.0 
-7.902067166247e+00 -1.960394156272e+02 0.0 
0.0 0.0 -7.915412031172e+01 
-4.563142299096e+01 2.728083650720e+01 0.0 
2.728083650720e+01 -1.200541153644e+02 0.0 
0.0 0.0 -4.539661985439e+01 
-8.028891561813e+01 -7.348436906152e+00 0.0 
-7.348436906152e+00 -1.797077064468e+02 0.0 
0.0 0.0 -7.180837324718e+01 
-9.709547695660e+01 2.748015924417e+01 0.0 
2.748015924417e+01 -2.519805726776e+02 0.0 
0.0 0.0 -1.043228148902e+02 
-7.507846229320e+01 1.500896569406e+01 0.0 
1.500896569406e+01 -2.388036277365e+02 0.0 
0.0 0.0 -9.948734886586e+01 
-1.562262145095e+02 2.001143972981e+01 0.0 
2.001143972981e+01 -3.761161508628e+02 0.0 
0.0 0.0 -1.593027096117e+02 
-1.078583060852e+02 1.863860334366e+01 0.0 
1.863860334366e+01 -2.181164682866e+02 0.0 
0.0 0.0 -9.739243231154e+01 
-5.292662827103e+01 -1.551453957501e+01 0.0 
-1.551453957501e+01 -1.213026332723e+02 0.0 
0.0 0.0 -4.862480879191e+01 
-1.592149912319e+02 2.185049350475e+01 0.0 
2.185049350475e+01 -3.728349795411e+02 0.0 
0.0 0.0 -1.592149912319e+02 
-1.451106369107e+02 1.969788256113e+01 0.0 
1.969788256113e+01 -3.595036591721e+02 0.0 
0.0 0.0 -1.509842888249e+02 
-6.753049574349e+01 2.744029839696e+01 0.0 
2.744029839696e+01 -1.906539477896e+02 0.0 
0.0 0.0 -7.933474606648e+01 
-3.393211783126e+01 -1.452522808394e+01 0.0 
-1.452522808394e+01 -3.506822762900e+01 0.0 
0.0 0.0 -1.444876264224e+01 
-1.600576152049e+02 1.418881119714e+01 0.0 
1.418881119714e+01 -3.845128398842e+02 0.0 
0.0 0.0 -1.629711365267e+02 
-1.093185637726e+02 2.165001197975e+01 0.0 
2.165001197975e+01 -2.221397136052e+02 0.0 
0.0 0.0 -9.903748321334e+01 
-5.273557056754e+01 -1.495085888525e+01 0.0 
-1.495085888525e+01 -1.456207346801e+02 0.0 
0.0 0.0 -5.547328243668e+01 
-1.636487570637e+02 1.636693013263e+01 0.0 
1.636693013263e+01 -3.831804331487e+02 0.0 
0.0 0.0 -1.636487570637e+02 
-1.042411305675e+02 2.700554839231e+00 0.0 
2.700554839231e+00 -2.801725655261e+02 0.0 
0.0 0.0 -1.153076519477e+02 
-6.148929620854e+01 3.135048237361e+01 0.0 
3.135048237361e+01 -1.097804078994e+02 0.0 
0.0 0.0 -4.744185642052e+01 
-7.608463405273e+01 1.531755545058e+01 0.0 
1.531755545058e+01 -1.178745647104e+02 0.0 
0.0 0.0 -5.778775962895e+01 
-7.165431441678e+01 1.597826816734e+01 0.0 
1.597826816734e+01 -2.241018147247e+02 0.0 
0.0 0.0 -9.270461783677e+01 
-9.294616895663e+01 -3.965738210317e+00 0.0 
-3.965738210317e+00 -2.440704720319e+02 0.0 
0.0 0.0 -1.019808739676e+02 
-9.162643885891e+01 9.374922852288e+00 0.0 
9.374922852288e+00 -2.690480076235e+02 0.0 
0.0 0.0 -1.120884170588e+02 
-9.141879252731e+01 1.767673407870e+01 0.0 
1.767673407870e+01 -1.579994349649e+02 0.0 
0.0 0.0 -7.442546824765e+01 
-6.844119269067e+01 2.836154209240e+01 0.0 
2.836154209240e+01 -1.125369796627e+02 0.0 
0.0 0.0 -4.975737008671e+01 
-1.019283421379e+02 1.982608700264e+01 0.0 
1.982608700264e+01 -2.820100671075e+02 0.0 
0.0 0.0 -1.149111493488e+02 
-6.598062018587e+01 9.825210190243e-01 0.0 
9.825210190243e-01 -1.180554026248e+02 0.0 
0.0 0.0 -5.481080684321e+01 
-8.586031383379e+01 -8.465375505191e+00 0.0 
-8.465375505191e+00 -1.971596480392e+02 0.0 
0.0 0.0 -8.144987403695e+01 
-9.121666184791e+01 1.550334276521e+01 0.0 
1.550334276521e+01 -2.702286519297e+02 0.0 
0.0 0.0 -1.114794665964e+02 
-6.301038803862e+01 -1.621154400587e+01 0.0 
-1.621154400587e+01 -1.668519713712e+02 0.0 
0.0 0.0 -6.825587425541e+01 
-1.077931068031e+02 -1.535532907844e+00 0.0 
-1.535532907844e+00 -2.705736910874e+02 0.0 
0.0 0.0 -1.116985697760e+02 
-1.643493005034e+01 -1.618262081340e+00 0.0 
-1.618262081340e+00 -9.025519249680e+00 0.0 
0.0 0.0 -6.466155197458e+00 
-4.764150072911e+01 2.919251902106e+01 0.0 
2.919251902106e+01 -1.209327209509e+02 0.0 
0.0 0.0 -4.749307742545e+01 
-5.895882791417e+01 -1.528841184159e+01 0.0 
-1.528841184159e+01 -1.619277147338e+02 0.0 
0.0 0.0 -6.489469328618e+01 
-9.033400240296e+01 -5.816802076877e+00 0.0 
-5.816802076877e+00 -2.122125750712e+02 0.0 
0.0 0.0 -8.543534394415e+01 
-7.095020223697e+01 2.899214580321e+01 0.0 
2.899214580321e+01 -1.941779034794e+02 0.0 
0.0 0.0 -8.076055021334e+01 
-9.935167236942e+01 2.699253572007e+00 0.0 
2.699253572007e+00 -2.782505892497e+02 0.0 
0.0 0.0 -1.128806784857e+02 
-7.319949664691e+01 5.508387573435e+00 0.0 
5.508387573435e+00 -1.218288807423e+02 0.0 
0.0 0.0 -5.810851321676e+01 
-5.865157420067e+01 -1.754829074321e+01 0.0 
-1.754829074321e+01 -1.485618334862e+02 0.0 
0.0 0.0 -5.994600189447e+01 
-1.647220511820e+02 1.460101234563e+01 0.0 
1.460101234563e+01 -3.856847860913e+02 0.0 
0.0 0.0 -1.647220511820e+02 
-8.188493127124e+01 3.026103952904e+01 0.0 
3.026103952904e+01 -1.734359241755e+02 0.0 
0.0 0.0 -7.599829567118e+01 
-9.454717224941e+01 -4.961162335964e+00 0.0 
-4.961162335964e+00 -2.202399801420e+02 0.0 
0.0 0.0 -8.966822532412e+01 
-7.867688669179e+01 3.052828692411e+01 0.0 
3.052828692411e+01 -1.705018537578e+02 0.0 
0.0 0.0 -7.346973964017e+01 
-9.446096080535e+01 -5.173975771762e+00 0.0 
-5.173975771762e+00 -2.131785306178e+02 0.0 
0.0 0.0 -8.657219206665e+01 
-1.819566087526e+01 -1.553398937353e+00 0.0 
-1.553398937353e+00 -9.336876829621e+00 0.0 
0.0 0.0 -8.834007290714e+00 
-8.161173074597e+01 1.750115188941e+01 0.0 
1.750115188941e+01 -1.279885195031e+02 0.0 
0.0 0.0 -6.248007507472e+01 
-8.213040911798e+01 -3.310550626240e+00 0.0 
-3.310550626240e+00 -1.734729687674e+02 0.0 
0.0 0.0 -7.105934401814e+01 
-7.097203569234e+00 -5.113828077459e-01 0.0 
-5.113828077459e-01 -8.793462623553e+00 0.0 
0.0 0.0 -3.043690306790e+00 
-9.197472050777e+01 -5.213702387215e+00 0.0 
-5.213702387215e+00 -2.082705715444e+02 0.0 
0.0 0.0 -8.476900153508e+01 
-1.084914459792e+02 4.294252556004e+00 0.0 
4.294252556004e+00 -2.966584750190e+02 0.0 
0.0 0.0 -1.211449762995e+02 
-9.262068052304e+01 3.647243469990e+00 0.0 
3.647243469990e+00 -1.948305433296e+02 0.0 
0.0 0.0 -8.583536715578e+01 
-8.224021424338e+01 6.698190619246e+00 0.0 
6.698190619246e+00 -2.527930128710e+02 0.0 
0.0 0.0 -1.057630233005e+02 
-8.505026233820e+01 6.405365284197e+00 0.0 
6.405365284197e+00 -2.595712085217e+02 0.0 
0.0 0.0 -1.080859522069e+02 
-6.819750392303e+01 1.346181024685e+01 0.0 
1.346181024685e+01 -8.573050587232e+01 0.0 
0.0 0.0 -4.527088843662e+01 
-5.228451044599e+01 3.067571515630e+00 0.0 
3.067571515630e+00 -6.799103455900e+01 0.0 
0.0 0.0 -3.568266350150e+01 
-1.106395735213e+02 1.792438622868e+01 0.0 
1.792438622868e+01 -2.470711586370e+02 0.0 
0.0 0.0 -1.069132196475e+02 
-7.551842927886e+01 3.047142330252e+01 0.0 
3.047142330252e+01 -1.680462167253e+02 0.0 
0.0 0.0 -7.097687744986e+01 
-1.188907414471e+01 6.973623889723e-02 0.0 
6.973623889723e-02 -7.192632245819e+00 0.0 
0.0 0.0 -4.647234539371e+00 
-3.333480627690e+01 -6.936767073266e+00 0.0 
-6.936767073266e+00 -7.073256355323e+01 0.0 
0.0 0.0 -2.685945330341e+01 
-2.942598848485e+01 -8.730048340016e+00 0.0 
-8.730048340016e+00 -2.970001882883e+01 0.0 
0.0 0.0 -1.412888560933e+01 
-5.733429511513e+01 -1.483115328925e+01 0.0 
-1.483115328925e+01 -1.273077592622e+02 0.0 
0.0 0.0 -5.232099560313e+01 
-1.115954344103e+02 3.018881892597e+01 0.0 
3.018881892597e+01 -2.529734468460e+02 0.0 
0.0 0.0 -1.089706643769e+02 
-9.437359225363e+01 5.510171531376e+00 0.0 
5.510171531376e+00 -1.958956967531e+02 0.0 
0.0 0.0 -8.668078670202e+01 
-1.252564476586e+02 3.446800531720e+00 0.0 
3.446800531720e+00 -3.219451642754e+02 0.0 
0.0 0.0 -1.337604835802e+02 
-6.425890230768e+01 -1.032966555514e+01 0.0 
-1.032966555514e+01 -1.429186598773e+02 0.0 
0.0 0.0 -5.796429555932e+01 
-1.128800649124e+02 -8.297711813041e-01 0.0 
-8.297711813041e-01 -2.717281826711e+02 0.0 
0.0 0.0 -1.124539145804e+02 
-1.278870926543e+02 9.871551340601e+00 0.0 
9.871551340601e+00 -3.333810407586e+02 0.0 
0.0 0.0 -1.379804400239e+02 
-3.374026824298e+01 3.956481169757e+00 0.0 
3.956481169757e+00 -1.258728825214e+02 0.0 
0.0 0.0 -4.789319652402e+01 
-8.205979138967e+01 -8.459931032732e-01 0.0 
-8.459931032732e-01 -1.738801497498e+02 0.0 
0.0 0.0 -7.144350388795e+01 
-6.801361345709e+01 -2.340366185263e+00 0.0 
-2.340366185263e+00 -1.420522796660e+02 0.0 
0.0 0.0 -5.782575984961e+01 
-1.609936674343e+02 1.227475866244e+01 0.0 
1.227475866244e+01 -3.862247509008e+02 0.0 
0.0 0.0 -1.637655255005e+02 
-1.655897007162e+02 1.282782761009e+01 0.0 
1.282782761009e+01 -3.877093016710e+02 0.0 
0.0 0.0 -1.655897007162e+02 
-9.043563655138e+01 -9.174518196320e-01 0.0 
-9.174518196320e-01 -1.933721992726e+02 0.0 
0.0 0.0 -7.980906033662e+01 
-9.829222072363e+01 -3.934996099963e+00 0.0 
-3.934996099963e+00 -2.212126621562e+02 0.0 
0.0 0.0 -9.028550125328e+01 
-9.187902363730e+01 -8.429250743589e-01 0.0 
-8.429250743589e-01 -2.493406494439e+02 0.0 
0.0 0.0 -1.019065564435e+02 
-1.326555891958e+02 1.216020218991e+01 0.0 
1.216020218991e+01 -3.415553708831e+02 0.0 
0.0 0.0 -1.418632880237e+02 
-3.854917336752e+01 -1.016921500268e+01 0.0 
-1.016921500268e+01 -7.928903126533e+01 0.0 
0.0 0.0 -3.216688104610e+01 
-1.230071458833e+02 7.765014804923e+00 0.0 
7.765014804923e+00 -3.244846808456e+02 0.0 
0.0 0.0 -1.338475480187e+02 
-1.596941592673e+01 -9.358728870616e-01 0.0 
-9.358728870616e-01 -4.322104385857e+01 0.0 
0.0 0.0 -1.496581111745e+01 
-9.092001260243e+01 -4.979526785531e+00 0.0 
-4.979526785531e+00 -2.011066944739e+02 0.0 
0.0 0.0 -8.113488679505e+01 
-9.736884556429e+01 -5.025133915275e+00 0.0 
-5.025133915275e+00 -2.251125547461e+02 0.0 
0.0 0.0 -9.187543208573e+01 
-8.518755108024e+00 -5.034480036519e-01 0.0 
-5.034480036519e-01 -2.544998716359e+01 0.0 
0.0 0.0 -7.606524652300e+00 
-8.627783075616e+01 -2.155045327582e+00 0.0 
-2.155045327582e+00 -1.830891138329e+02 0.0 
0.0 0.0 -7.550680764283e+01 
-1.042622961528e+02 1.630735876248e+01 0.0 
1.630735876248e+01 -2.160162592321e+02 0.0 
0.0 0.0 -9.568356661547e+01 
-1.130080507474e+01 5.044984169657e-03 0.0 
5.044984169657e-03 -7.515305131207e+00 0.0 
0.0 0.0 -4.559382275142e+00 
-5.429905472651e+01 4.051371774066e+00 0.0 
4.051371774066e+00 -6.884613955564e+01 0.0 
0.0 0.0 -3.654355828465e+01 
-5.458162884805e+01 5.057743383919e+00 0.0 
5.057743383919e+00 -7.059190590612e+01 0.0 
0.0 0.0 -3.715206042625e+01 
-9.505176005211e+01 1.233056823964e+01 0.0 
1.233056823964e+01 -2.759138889695e+02 0.0 
0.0 0.0 -1.137217470825e+02 
-6.667223400424e+01 1.893817910631e-01 0.0 
1.893817910631e-01 -1.420031342618e+02 0.0 
0.0 0.0 -5.787356261599e+01 
-5.538110969382e+01 -1.494025955567e+01 0.0 
-1.494025955567e+01 -1.486723617692e+02 0.0 
0.0 0.0 -5.870914491059e+01 
-4.329923210255e+01 3.035232743957e+01 0.0 
3.035232743957e+01 -8.693564132616e+01 0.0 
0.0 0.0 -3.431054344764e+01 
-1.406720074801e+02 4.061908829808e+00 0.0 
4.061908829808e+00 -3.484926929648e+02 0.0 
0.0 0.0 -1.463494101335e+02 
-1.317165193371e+02 3.087951084906e+01 0.0 
3.087951084906e+01 -3.101885296390e+02 0.0 
0.0 0.0 -1.321715146928e+02 
-9.285454472666e+01 7.667969098920e+00 0.0 
7.667969098920e+00 -1.838316651318e+02 0.0 
0.0 0.0 -8.260586295753e+01 
-4.725733062110e+01 3.108600473192e+01 0.0 
3.108600473192e+01 -8.651913538755e+01 0.0 
0.0 0.0 -3.694630630976e+01 
-2.864714611551e+01 -7.459745301229e+00 0.0 
-7.459745301229e+00 -4.928789925956e+01 0.0 
0.0 0.0 -2.061821102781e+01 
-6.761800355684e+01 2.774900898143e+01 0.0 
2.774900898143e+01 -9.631458950107e+01 0.0 
0.0 0.0 -4.592052093054e+01 
-4.944409598148e+01 1.286056959222e+00 0.0 
1.286056959222e+00 -6.823384446436e+01 0.0 
0.0 0.0 -3.490338213375e+01 
-4.825387078972e+01 1.255656938470e+00 0.0 
1.255656938470e+00 -6.817978370078e+01 0.0 
0.0 0.0 -3.453009634715e+01 
-6.469426665479e+00 -4.402571941889e-01 0.0 
-4.402571941889e-01 -9.147907354051e+00 0.0 
0.0 0.0 -2.877025113104e+00 
-8.842495481566e+00 -6.788015177652e-01 0.0 
-6.788015177652e-01 -2.531024771205e+01 0.0 
0.0 0.0 -7.608333260796e+00 
-1.058303212528e+01 -3.204900703448e-01 0.0 
-3.204900703448e-01 -4.172961769795e+01 0.0 
0.0 0.0 -1.349887545310e+01 
-4.974923832027e+01 -1.079781549904e+01 0.0 
-1.079781549904e+01 -1.087027748476e+02 0.0 
0.0 0.0 -4.345186417538e+01 
-1.230783852163e+01 -1.017282248122e-01 0.0 
-1.017282248122e-01 -2.602668625511e+01 0.0 
0.0 0.0 -8.895354941273e+00 
-9.392521180066e+01 -1.923716914945e+00 0.0 
-1.923716914945e+00 -2.037022616739e+02 0.0 
0.0 0.0 -8.420200584108e+01 
-5.274652059912e+01 -1.410323340878e+01 0.0 
-1.410323340878e+01 -5.981641772367e+01 0.0 
0.0 0.0 -3.433721686199e+01 
-5.854346727037e+01 -1.084949645729e+01 0.0 
-1.084949645729e+01 -1.296462334956e+02 0.0 
0.0 0.0 -5.190597367759e+01 
-7.164948628674e+01 9.761614809701e-01 0.0 
9.761614809701e-01 -1.350147601194e+02 0.0 
0.0 0.0 -6.159927392185e+01 
-5.141402444104e+01 2.661546686280e+00 0.0 
2.661546686280e+00 -6.872518727285e+01 0.0 
0.0 0.0 -3.564176351417e+01 
-1.154056884683e+02 3.011428369541e+01 0.0 
3.011428369541e+01 -2.574190271165e+02 0.0 
0.0 0.0 -1.114474146755e+02 
-1.048103014555e+02 2.470520815991e+00 0.0 
2.470520815991e+00 -2.866605756882e+02 0.0 
0.0 0.0 -1.170412631431e+02 
-6.468977885288e+01 4.728168980050e-01 0.0 
4.728168980050e-01 -1.170978619367e+02 0.0 
0.0 0.0 -5.413629223689e+01 
-7.227716694170e+01 -1.268130319346e+00 0.0 
-1.268130319346e+00 -1.518537591453e+02 0.0 
0.0 0.0 -6.213616463156e+01 
-1.458960286857e+01 -2.959175414873e-01 0.0 
-2.959175414873e-01 -4.292264692681e+01 0.0 
0.0 0.0 -1.402380187272e+01 
-1.082804531563e+02 9.369090092377e+00 0.0 
9.369090092377e+00 -2.539877240314e+02 0.0 
0.0 0.0 -1.082804531563e+02 
-1.128674531803e+02 1.031905022953e+01 0.0 
1.031905022953e+01 -2.563006671961e+02 0.0 
0.0 0.0 -1.103504361129e+02 
-6.651056837834e+01 3.073942127680e+00 0.0 
3.073942127680e+00 -1.081723412754e+02 0.0 
0.0 0.0 -5.200487289613e+01 
-5.005534307561e+01 1.682995737466e+00 0.0 
1.682995737466e+00 -6.787393545024e+01 0.0 
0.0 0.0 -3.497878355776e+01 
-7.249977995977e+01 -1.168931172372e+00 0.0 
-1.168931172372e+00 -1.544425144718e+02 0.0 
0.0 0.0 -6.310188208108e+01 
-1.116871058139e+02 7.318787418278e+00 0.0 
7.318787418278e+00 -2.545273696146e+02 0.0 
0.0 0.0 -1.094643426286e+02 
-5.436080806580e+01 -1.053802727461e+01 0.0 
-1.053802727461e+01 -1.213698494762e+02 0.0 
0.0 0.0 -4.868431817577e+01 
-5.288295778826e+01 3.733787278167e+00 0.0 
3.733787278167e+00 -6.932506216428e+01 0.0 
0.0 0.0 -3.626240598576e+01 
-5.156000461920e+01 2.236347450732e+00 0.0 
2.236347450732e+00 -6.788740611621e+01 0.0 
0.0 0.0 -3.543422322062e+01 
-6.274411139754e+01 1.925483745362e+01 0.0 
1.925483745362e+01 -7.644643453050e+01 0.0 
0.0 0.0 -3.880081855891e+01 
-1.134681098538e+02 2.006330631304e+01 0.0 
2.006330631304e+01 -2.660922563256e+02 0.0 
0.0 0.0 -1.134681098538e+02 
-1.131956038667e+02 8.656881157942e+00 0.0 
8.656881157942e+00 -2.559076065628e+02 0.0 
0.0 0.0 -1.103309631288e+02 
-1.259858095306e+01 -2.585143129284e-01 0.0 
-2.585143129284e-01 -2.578418544409e+01 0.0 
0.0 0.0 -8.883260513577e+00 
-6.418966124024e+00 -2.511060587121e-01 0.0 
-2.511060587121e-01 -9.296516186663e+00 0.0 
0.0 0.0 -2.946140199651e+00 
-3.039212098874e+01 -7.619324109637e+00 0.0 
-7.619324109637e+00 -5.876694107927e+01 0.0 
0.0 0.0 -2.412139861758e+01 
-9.244985217849e+01 -5.121821530575e+00 0.0 
-5.121821530575e+00 -2.240255384115e+02 0.0 
0.0 0.0 -9.035282287726e+01 
-1.510227005594e+02 -4.466969302613e-01 0.0 
-4.466969302613e-01 -3.619387133950e+02 0.0 
0.0 0.0 -1.534884241863e+02 
-1.065477321933e+02 -2.348345534270e+01 0.0 
-2.348345534270e+01 -7.600777662713e+01 0.0 
0.0 0.0 -5.504269448053e+01 
-8.673519926359e+01 1.600037165742e+00 0.0 
1.600037165742e+00 -1.784770869648e+02 0.0 
0.0 0.0 -7.916368586853e+01 
-3.453616083467e+01 -1.254811027462e+01 0.0 
-1.254811027462e+01 -1.185640714743e+01 0.0 
0.0 0.0 -1.391209460593e+01 
-9.420076902549e+01 8.154600437851e+00 0.0 
8.154600437851e+00 -2.774291103387e+02 0.0 
0.0 0.0 -1.137028191787e+02 
-2.596058746421e+01 -6.482758332317e+00 0.0 
-6.482758332317e+00 -1.358019679735e+01 0.0 
0.0 0.0 -1.075319471486e+01 
-5.871250898787e+01 -2.666648380492e+01 0.0 
-2.666648380492e+01 -3.411429974206e+01 0.0 
0.0 0.0 -2.814033614973e+01 
-9.082037236155e+01 5.602764250637e+00 0.0 
5.602764250637e+00 -2.692973138255e+02 0.0 
0.0 0.0 -1.107500039094e+02 
-1.455458670081e+02 1.020985771534e+00 0.0 
1.020985771534e+00 -3.524017275897e+02 0.0 
0.0 0.0 -1.489842783793e+02 
-7.209710548798e+01 1.388236164346e+00 0.0 
1.388236164346e+00 -1.341106405521e+02 0.0 
0.0 0.0 -6.146232381202e+01 
-6.991724713264e+01 2.960476211091e+01 0.0 
2.960476211091e+01 -1.147345194448e+02 0.0 
0.0 0.0 -5.223830586811e+01 
-8.176942216708e+00 -2.175269848892e-01 0.0 
-2.175269848892e-01 -2.536207105794e+01 0.0 
0.0 0.0 -7.564321088798e+00 
-1.162169902708e+02 -1.380629621030e-01 0.0 
-1.380629621030e-01 -2.796884117650e+02 0.0 
0.0 0.0 -1.162558647501e+02 
-1.068911834297e+02 2.970077378277e+00 0.0 
2.970077378277e+00 -2.507460946693e+02 0.0 
0.0 0.0 -1.068911834297e+02 
-1.106322658947e+02 3.970129323044e+00 0.0 
3.970129323044e+00 -2.530678385431e+02 0.0 
0.0 0.0 -1.087100313313e+02 
-5.011336501978e+01 1.919581185855e+00 0.0 
1.919581185855e+00 -6.833591376995e+01 0.0 
0.0 0.0 -3.513478363692e+01 
-9.839851013523e+01 1.077945116815e+01 0.0 
1.077945116815e+01 -2.850953803101e+02 0.0 
0.0 0.0 -1.166186523758e+02 
-1.080779317029e+02 7.662582033566e+00 0.0 
7.662582033566e+00 -2.535151739734e+02 0.0 
0.0 0.0 -1.080779317029e+02 
-1.017189158065e+02 2.640595997115e+01 0.0 
2.640595997115e+01 -2.660259779738e+02 0.0 
0.0 0.0 -1.099234681341e+02 
-1.358886781111e+01 -3.027484600311e-01 0.0 
-3.027484600311e-01 -4.160452681439e+01 0.0 
0.0 0.0 -1.324516465791e+01 
-1.196856369286e+01 -2.573263086391e-02 0.0 
-2.573263086391e-02 -2.579404407062e+01 0.0 
0.0 0.0 -8.760529719430e+00 
-7.811840475027e+00 -4.016543321621e-02 0.0 
-4.016543321621e-02 -2.468489360498e+01 0.0 
0.0 0.0 -7.426256172451e+00 
-8.199259524069e+01 -1.180745106721e+00 0.0 
-1.180745106721e+00 -1.726630858545e+02 0.0 
0.0 0.0 -7.111660282453e+01 
-1.657233598676e+02 2.453565104410e+00 0.0 
2.453565104410e+00 -3.918224739025e+02 0.0 
0.0 0.0 -1.668637501310e+02 
-1.029462598008e+02 1.125987199135e+00 0.0 
1.125987199135e+00 -2.301347613831e+02 0.0 
0.0 0.0 -9.952430635517e+01 
-5.903612547825e+00 8.042351503681e-02 0.0 
8.042351503681e-02 -9.245914013686e+00 0.0 
0.0 0.0 -2.732935348976e+00 
-9.468802281333e+01 1.232492973276e-01 0.0 
1.232492973276e-01 -2.039799362006e+02 0.0 
0.0 0.0 -8.448195578015e+01 
-1.681953126855e+02 1.600086115500e+00 0.0 
1.600086115500e+00 -3.937890629328e+02 0.0 
0.0 0.0 -1.681953126855e+02 
-1.650581495725e+02 2.462440768204e+00 0.0 
2.462440768204e+00 -3.912345847472e+02 0.0 
0.0 0.0 -1.664878202959e+02 
-1.615853614012e+02 1.069182498167e+01 0.0 
1.069182498167e+01 -3.874089097022e+02 0.0 
0.0 0.0 -1.642982813310e+02 
-7.972189932053e+01 -4.325837983338e-01 0.0 
-4.325837983338e-01 -1.584296551912e+02 0.0 
0.0 0.0 -7.104546635350e+01 
-9.026366906824e+01 9.840907113425e-01 0.0 
9.840907113425e-01 -1.889939034862e+02 0.0 
0.0 0.0 -8.337727176632e+01 
-1.674034877298e+02 2.255381800356e+00 0.0 
2.255381800356e+00 -3.919414713694e+02 0.0 
0.0 0.0 -1.674034877298e+02 
-1.677234067259e+02 3.063752307156e+00 0.0 
3.063752307156e+00 -3.926879490272e+02 0.0 
0.0 0.0 -1.677234067259e+02 
-8.673909846139e+01 -1.448447112972e-01 0.0 
-1.448447112972e-01 -1.785666897601e+02 0.0 
0.0 0.0 -7.919173646645e+01 
-1.100768829878e+01 -2.969491784820e-01 0.0 
-2.969491784820e-01 -6.459942260501e+00 0.0 
0.0 0.0 -4.208214139344e+00 
-4.676431342387e+01 6.610973098157e-01 0.0 
6.610973098157e-01 -6.713823694691e+01 0.0 
0.0 0.0 -3.377076511123e+01 
-4.911744182438e+01 1.342231974163e+00 0.0 
1.342231974163e+00 -6.830619218853e+01 0.0 
0.0 0.0 -3.482709020387e+01 
-6.106134722764e+00 -1.090427344437e-01 0.0 
-1.090427344437e-01 -9.251908144961e+00 0.0 
0.0 0.0 -2.818551041260e+00 
-1.677540279411e+02 5.785110782764e+00 0.0 
5.785110782764e+00 -3.927593985291e+02 0.0 
0.0 0.0 -1.677540279411e+02 
-1.620164739075e+02 8.982485039934e+00 0.0 
8.982485039934e+00 -3.881750397667e+02 0.0 
0.0 0.0 -1.646574541023e+02 
-1.667115342334e+02 8.167214346314e+00 0.0 
8.167214346314e+00 -3.903269132113e+02 0.0 
0.0 0.0 -1.667115342334e+02 
-1.094181206502e+01 8.870332341381e-02 0.0 
8.870332341381e-02 -7.699616257584e+00 0.0 
0.0 0.0 -4.448730171459e+00 
-1.100256892933e+01 -1.494879541705e-02 0.0 
-1.494879541705e-02 -7.833441172889e+00 0.0 
0.0 0.0 -4.477397722108e+00 
-1.660885283048e+02 1.119271907437e+01 0.0 
1.119271907437e+01 -3.888732327112e+02 0.0 
0.0 0.0 -1.660885283048e+02 
-1.665578725662e+02 9.689022165293e+00 0.0 
9.689022165293e+00 -3.899683693211e+02 0.0 
0.0 0.0 -1.665578725662e+02 
-7.601025531285e+01 1.002922393430e+00 0.0 
1.002922393430e+00 -1.483348552401e+02 0.0 
0.0 0.0 -6.690353316589e+01 
-4.553233315823e+01 1.423614452527e-01 0.0 
1.423614452527e-01 -6.673205512999e+01 0.0 
0.0 0.0 -3.327931648646e+01 
-8.346962647328e+01 1.012442436454e+00 0.0 
1.012442436454e+00 -1.686052698467e+02 0.0 
0.0 0.0 -7.522246889600e+01 
-6.119147031033e+01 9.245093041392e-01 0.0 
9.245093041392e-01 -1.083452704797e+02 0.0 
0.0 0.0 -5.046102223702e+01 
-4.548276355112e+01 2.242467719058e-02 0.0 
2.242467719058e-02 -6.689703254186e+01 0.0 
0.0 0.0 -3.331393882789e+01 
-1.260527224856e+01 -7.912557391389e-02 0.0 
-7.912557391389e-02 -7.652022809356e+00 0.0 
0.0 0.0 -4.935175904519e+00 
-1.367638472532e+01 2.784758199430e-01 0.0 
2.784758199430e-01 -7.685163725636e+00 0.0 
0.0 0.0 -6.008464535288e+00 
-1.362146086394e+01 6.647496574835e-01 0.0 
6.647496574835e-01 -6.911896571268e+00 0.0 
0.0 0.0 -5.760007230562e+00 
-1.331261228500e+01 9.657366527079e-01 0.0 
9.657366527079e-01 -7.291500565424e+00 0.0 
0.0 0.0 -5.781233855127e+00 
-9.821487810130e+01 -1.154936827048e+00 0.0 
-1.154936827048e+00 -2.143756296908e+02 0.0 
0.0 0.0 -8.890580553402e+01 
-9.051772361404e+01 -1.134185460648e+00 0.0 
-1.134185460648e+00 -1.934870227481e+02 0.0 
0.0 0.0 -8.002544613276e+01 
-7.974787910440e+00 -4.245411687760e-01 0.0 
-4.245411687760e-01 -9.332167140175e+00 0.0 
0.0 0.0 -4.030025797266e+00 
-1.168320045697e+02 -9.542449941770e-01 0.0 
-9.542449941770e-01 -2.743412111937e+02 0.0 
0.0 0.0 -1.147026810004e+02 
-1.024613252855e+01 -4.963368660268e-01 0.0 
-4.963368660268e-01 -9.506201192155e+00 0.0 
0.0 0.0 -5.428817374555e+00 
-1.108080059662e+02 1.603667302187e+01 0.0 
1.603667302187e+01 -2.598853472546e+02 0.0 
0.0 0.0 -1.108080059662e+02 
-1.075253874190e+02 6.364734584579e+00 0.0 
6.364734584579e+00 -2.522259039776e+02 0.0 
0.0 0.0 -1.075253874190e+02 
-1.086580057453e+02 1.091197565262e+01 0.0 
1.091197565262e+01 -2.548686800724e+02 0.0 
0.0 0.0 -1.086580057453e+02 
-1.777552789925e+01 -1.506086681679e+00 0.0 
-1.506086681679e+00 -6.896712532986e+01 0.0 
0.0 0.0 -2.562279596874e+01 
-6.110287350236e+01 -1.314070440428e+00 0.0 
-1.314070440428e+00 -1.310266017512e+02 0.0 
0.0 0.0 -5.313860491033e+01 
-1.071176397986e+02 5.091069436569e+00 0.0 
5.091069436569e+00 -2.512744928633e+02 0.0 
0.0 0.0 -1.071176397986e+02 
-1.369264912752e+02 -7.313277726866e-01 0.0 
-7.313277726866e-01 -3.336022482363e+02 0.0 
0.0 0.0 -1.407586218535e+02 
-1.079191250207e+02 4.083728407793e+00 0.0 
4.083728407793e+00 -2.531446250482e+02 0.0 
0.0 0.0 -1.079191250207e+02 
-1.464879282266e+02 -7.593405867451e-01 0.0 
-7.593405867451e-01 -3.529387231668e+02 0.0 
0.0 0.0 -1.494279954180e+02 
-1.563085987655e+02 -8.261316521972e-01 0.0 
-8.261316521972e-01 -3.721807518085e+02 0.0 
0.0 0.0 -1.581468051722e+02 
-8.645927541730e+01 1.296560502092e-01 0.0 
1.296560502092e-01 -1.831908291608e+02 0.0 
0.0 0.0 -7.561463090609e+01 
-1.112400989112e+02 5.938707041028e+00 0.0 
5.938707041028e+00 -2.534120883254e+02 0.0 
0.0 0.0 -1.089956561710e+02 
-1.105265717601e+02 4.238996066364e+00 0.0 
4.238996066364e+00 -2.533135404398e+02 0.0 
0.0 0.0 -1.087520336600e+02 
-1.413791619024e+02 1.177492213333e+00 0.0 
1.177492213333e+00 -3.423701994005e+02 0.0 
0.0 0.0 -1.447248083909e+02 
-1.512493844543e+02 1.240685637279e+00 0.0 
1.240685637279e+00 -3.621722080672e+02 0.0 
0.0 0.0 -1.536264777565e+02 
-1.224176267585e+02 7.831500705160e-01 0.0 
7.831500705160e-01 -2.958089791980e+02 0.0 
0.0 0.0 -1.238011996091e+02 
-2.551405203356e+01 -4.182393808514e+00 0.0 
-4.182393808514e+00 -9.862285057075e+00 0.0 
0.0 0.0 -1.118937731007e+01 
-8.683044446700e+01 -4.527156827956e+00 0.0 
-4.527156827956e+00 -1.889688180339e+02 0.0 
0.0 0.0 -7.627557980268e+01 
-1.301805500866e+01 -2.250245022073e-01 0.0 
-2.250245022073e-01 -2.529941609567e+01 0.0 
0.0 0.0 -8.976421942224e+00 
-1.419445357005e+02 5.295687813954e+00 0.0 
5.295687813954e+00 -3.492139311617e+02 0.0 
0.0 0.0 -1.469475400586e+02 
-8.780233784554e+01 -6.153115801171e+00 0.0 
-6.153115801171e+00 -2.002091164137e+02 0.0 
0.0 0.0 -8.051915895367e+01 
-1.311824260998e+02 8.351133817079e-01 0.0 
8.351133817079e-01 -3.252018429889e+02 0.0 
0.0 0.0 -1.365152807266e+02 
-4.391247983200e+01 -9.644251774376e+00 0.0 
-9.644251774376e+00 -9.980036011053e+01 0.0 
0.0 0.0 -3.924045153253e+01 
-1.399631095088e+01 -1.971544409495e+00 0.0 
-1.971544409495e+00 -4.167317294728e+01 0.0 
0.0 0.0 -1.480396138601e+01 
-1.415380776827e+02 2.758311501197e+00 0.0 
2.758311501197e+00 -3.446585332941e+02 0.0 
0.0 0.0 -1.454589832930e+02 
-9.478427601858e+01 -3.724188743991e+00 0.0 
-3.724188743991e+00 -2.092847849142e+02 0.0 
0.0 0.0 -8.548553745180e+01 
-7.739032202963e+01 -2.326230138982e+00 0.0 
-2.326230138982e+00 -1.623619927793e+02 0.0 
0.0 0.0 -6.647472935254e+01 
-1.321367134151e+02 2.290149029848e+00 0.0 
2.290149029848e+00 -3.259367648291e+02 0.0 
0.0 0.0 -1.370220434733e+02 
-9.565035611538e+01 1.378047797549e+00 0.0 
1.378047797549e+00 -2.071522900477e+02 0.0 
0.0 0.0 -9.044079384891e+01 
-7.728832031946e+01 1.518941010852e-01 0.0 
1.518941010852e-01 -1.626016233906e+02 0.0 
0.0 0.0 -6.676781465309e+01 
-1.153442224735e+02 7.217258200383e+00 0.0 
7.217258200383e+00 -3.075568154285e+02 0.0 
0.0 0.0 -1.264703113706e+02 
-1.047097393997e+02 -4.800049016024e-01 0.0 
-4.800049016024e-01 -2.736518053490e+02 0.0 
0.0 0.0 -1.124429937092e+02 
-1.194531051342e+02 -5.845707571729e-01 0.0 
-5.845707571729e-01 -2.949594674152e+02 0.0 
0.0 0.0 -1.232096876202e+02 
-1.230408364736e+02 -4.049678760987e-01 0.0 
-4.049678760987e-01 -3.035610674273e+02 0.0 
0.0 0.0 -1.271909473694e+02 
-5.377475108624e+01 1.552204425705e+01 0.0 
1.552204425705e+01 -1.782498218020e+02 0.0 
0.0 0.0 -6.764105374204e+01 
-6.414521073589e+01 2.931974033178e+01 0.0 
2.931974033178e+01 -9.371612902728e+01 0.0 
0.0 0.0 -4.312518515812e+01 
-6.577235879345e+01 2.735518964060e+01 0.0 
2.735518964060e+01 -1.763291273805e+02 0.0 
0.0 0.0 -7.161712300220e+01 
-1.118179567117e+02 -1.167735731161e+00 0.0 
-1.167735731161e+00 -2.786382690444e+02 0.0 
0.0 0.0 -1.155274544632e+02 
-1.366212237626e+02 2.157401859849e+00 0.0 
2.157401859849e+00 -3.341992561831e+02 0.0 
0.0 0.0 -1.408461439837e+02 
-1.263041844027e+02 -4.418544941263e-01 0.0 
-4.418544941263e-01 -3.123284981501e+02 0.0 
0.0 0.0 -1.311898047658e+02 
-4.997564273947e+01 -1.434985421596e+01 0.0 
-1.434985421596e+01 -1.070754271941e+02 0.0 
0.0 0.0 -4.348274062532e+01 
-9.612045070540e+01 2.984731934204e+00 0.0 
2.984731934204e+00 -2.062495745311e+02 0.0 
0.0 0.0 -9.031100757096e+01 
-8.930746610623e+01 2.471582749422e+00 0.0 
2.471582749422e+00 -1.854627561990e+02 0.0 
0.0 0.0 -8.203106669155e+01 
-5.661131781916e+01 8.523887860732e-02 0.0 
8.523887860732e-02 -9.352436245831e+01 0.0 
0.0 0.0 -4.464070408324e+01 
-1.134235813022e+02 -5.066550186559e-02 0.0 
-5.066550186559e-02 -2.897533135671e+02 0.0 
0.0 0.0 -1.201676392651e+02 
-1.157376928342e+02 -8.355412336994e-01 0.0 
-8.355412336994e-01 -2.867943011782e+02 0.0 
0.0 0.0 -1.193764445380e+02 
-9.686407203954e+01 3.314171482773e+00 0.0 
3.314171482773e+00 -2.084389019520e+02 0.0 
0.0 0.0 -9.119089219747e+01 
-9.278804075335e+01 2.122700163036e+00 0.0 
2.122700163036e+00 -1.965534795169e+02 0.0 
0.0 0.0 -8.640245608107e+01 
-1.071595127000e+02 -1.218912781040e+00 0.0 
-1.218912781040e+00 -2.672439239178e+02 0.0 
0.0 0.0 -1.093397580950e+02 
-1.461019959268e+02 2.438997993432e+00 0.0 
2.438997993432e+00 -3.528214337656e+02 0.0 
0.0 0.0 -1.492770289077e+02 
-9.033442416980e+01 5.692791991034e+00 0.0 
5.692791991034e+00 -1.824259023215e+02 0.0 
0.0 0.0 -8.142809794739e+01 
-1.274972181399e+02 1.053891917975e+00 0.0 
1.053891917975e+00 -3.125024779869e+02 0.0 
0.0 0.0 -1.313636830526e+02 
-1.473672564743e+02 5.037493878665e+00 0.0 
5.037493878665e+00 -3.582504914446e+02 0.0 
0.0 0.0 -1.512853243757e+02 
-9.730545443518e+01 5.043689465441e+00 0.0 
5.043689465441e+00 -2.072393353541e+02 0.0 
0.0 0.0 -9.096343693678e+01 
-8.103170127355e+01 4.047815721717e+00 0.0 
4.047815721717e+00 -1.550421951766e+02 0.0 
0.0 0.0 -7.042216893505e+01 
-1.115065115803e+02 5.213018634190e+00 0.0 
5.213018634190e+00 -2.981355775718e+02 0.0 
0.0 0.0 -1.224926267456e+02 
-4.468328098296e+01 -5.429420932338e+00 0.0 
-5.429420932338e+00 -1.011462056628e+02 0.0 
0.0 0.0 -3.883087957260e+01 
-4.902237753648e+01 -1.534084062376e+01 0.0 
-1.534084062376e+01 -1.010122562547e+02 0.0 
0.0 0.0 -4.095057565882e+01 
-2.343364932024e+01 -3.037570403966e+00 0.0 
-3.037570403966e+00 -4.871883461782e+01 0.0 
0.0 0.0 -1.783591189670e+01 
-3.725839726451e+01 -1.472024011926e+01 0.0 
-1.472024011926e+01 -3.462735938551e+01 0.0 
0.0 0.0 -1.811010493919e+01 
-9.387620606968e+01 3.913180173878e+00 0.0 
3.913180173878e+00 -1.972667945799e+02 0.0 
0.0 0.0 -8.694290019488e+01 
-1.405611922073e+02 3.874989789827e-01 0.0 
3.874989789827e-01 -3.418285043523e+02 0.0 
0.0 0.0 -1.443169089679e+02 
-2.703821293322e+01 -6.766813358911e+00 0.0 
-6.766813358911e+00 -2.848622878682e+01 0.0 
0.0 0.0 -1.341169299067e+01 
-1.110008723688e+02 2.480269177459e+01 0.0 
2.480269177459e+01 -2.280878708153e+02 0.0 
0.0 0.0 -1.013266229552e+02 
-6.089088608995e+01 6.454760699051e-01 0.0 
6.454760699051e-01 -1.026070891205e+02 0.0 
0.0 0.0 -4.864939256312e+01 
-1.278558673730e+02 2.339851164065e+00 0.0 
2.339851164065e+00 -3.179939383819e+02 0.0 
0.0 0.0 -1.333549417265e+02 
-1.308448729942e+02 2.908532313710e-02 0.0 
2.908532313710e-02 -3.226228677349e+02 0.0 
0.0 0.0 -1.356403222187e+02 
-5.891424358237e+01 -1.463317877012e+01 0.0 
-1.463317877012e+01 -1.541839972573e+02 0.0 
0.0 0.0 -6.177304500335e+01 
-1.316850726230e+02 1.560317644738e+00 0.0 
1.560317644738e+00 -3.232946482430e+02 0.0 
0.0 0.0 -1.360939162598e+02 
-5.767073703390e+01 2.253083765019e+00 0.0 
2.253083765019e+00 -9.390952941999e+01 0.0 
0.0 0.0 -4.507407993617e+01 
-9.758624016696e+01 1.872880934463e+01 0.0 
1.872880934463e+01 -2.768086236868e+02 0.0 
0.0 0.0 -1.120519865144e+02 
-1.518922536886e+02 3.009749504136e+00 0.0 
3.009749504136e+00 -3.663166911800e+02 0.0 
0.0 0.0 -1.550626834606e+02 
-4.138790767442e+01 -3.079901806541e+00 0.0 
-3.079901806541e+00 -9.716892961443e+01 0.0 
0.0 0.0 -3.799234318791e+01 
-1.468033842835e+02 6.481144449936e+00 0.0 
6.481144449936e+00 -3.594822725520e+02 0.0 
0.0 0.0 -1.514856970507e+02 
-8.424211535083e+01 3.695587300067e+00 0.0 
3.695587300067e+00 -1.660777963275e+02 0.0 
0.0 0.0 -7.469597350351e+01 
-4.956129819343e+01 -4.522993652329e+00 0.0 
-4.522993652329e+00 -1.097098668390e+02 0.0 
0.0 0.0 -4.304889968657e+01 
-5.494450724757e+01 -1.678079151493e+01 0.0 
-1.678079151493e+01 -1.211885749212e+02 0.0 
0.0 0.0 -4.991533832768e+01 
-1.033426557898e+02 -2.517143731587e+00 0.0 
-2.517143731587e+00 -2.335709948736e+02 0.0 
0.0 0.0 -9.686579780372e+01 
-7.248851757706e+01 2.332541958856e+00 0.0 
2.332541958856e+00 -1.321906426367e+02 0.0 
0.0 0.0 -6.100374806413e+01 
-7.209120645175e+01 -8.492165761022e+00 0.0 
-8.492165761022e+00 -1.589565284479e+02 0.0 
0.0 0.0 -6.353825338376e+01 
-8.738540915795e+01 3.423639866008e+00 0.0 
3.423639866008e+00 -1.769995858745e+02 0.0 
0.0 0.0 -7.891549850973e+01 
-7.697989828271e+01 3.233682988882e+00 0.0 
3.233682988882e+00 -1.452381506077e+02 0.0 
0.0 0.0 -6.626541466713e+01 
-9.852757811531e+01 -4.119241635522e+00 0.0 
-4.119241635522e+00 -2.284013627290e+02 0.0 
0.0 0.0 -9.374241818524e+01 
-1.250212004383e+02 1.006057998546e+00 0.0 
1.006057998546e+00 -3.039779669137e+02 0.0 
0.0 0.0 -1.274923500629e+02 
-1.276671342923e+02 1.604139781538e+00 0.0 
1.604139781538e+00 -3.151317550746e+02 0.0 
0.0 0.0 -1.323242416531e+02 
-8.248110074470e+01 1.827202277564e+00 0.0 
1.827202277564e+00 -1.649501408156e+02 0.0 
0.0 0.0 -7.382937246808e+01 
-3.203219244592e+01 -4.352979585111e+00 0.0 
-4.352979585111e+00 -8.483788737622e+01 0.0 
0.0 0.0 -3.173564752566e+01 
-9.595822931654e+01 -4.224508651466e+00 0.0 
-4.224508651466e+00 -2.166506232858e+02 0.0 
0.0 0.0 -8.892932562941e+01 
-1.173764352527e+02 2.261670397058e+01 0.0 
2.261670397058e+01 -3.055237681063e+02 0.0 
0.0 0.0 -1.264700610077e+02 
-8.795883191081e+01 4.768276444952e+00 0.0 
4.768276444952e+00 -1.754648091173e+02 0.0 
0.0 0.0 -7.862709230842e+01 
-8.886632622204e+01 -5.161019409153e+00 0.0 
-5.161019409153e+00 -1.960269864401e+02 0.0 
0.0 0.0 -7.980424829748e+01 
-1.111010106162e+02 -4.306490126877e-01 0.0 
-4.306490126877e-01 -2.751119411376e+02 0.0 
0.0 0.0 -1.133186598238e+02 
-1.419090481711e+02 7.136772661819e+00 0.0 
7.136772661819e+00 -3.514412361819e+02 0.0 
0.0 0.0 -1.476050853059e+02 
-7.944727718501e+01 2.210184368283e+00 0.0 
2.210184368283e+00 -1.540609884708e+02 0.0 
0.0 0.0 -6.965247969675e+01 
-2.989278293588e+01 -8.684296445871e+00 0.0 
-8.684296445871e+00 -1.199072832003e+02 0.0 
0.0 0.0 -4.725011314902e+01 
-1.738270469833e+01 -6.243475748456e-01 0.0 
-6.243475748456e-01 -4.648831833098e+01 0.0 
0.0 0.0 -1.713930225139e+01 
-3.816053814223e+01 3.577521957131e+00 0.0 
3.577521957131e+00 -1.359992462349e+02 0.0 
0.0 0.0 -5.036768960708e+01 
-1.358740362136e+02 6.220556665444e-01 0.0 
6.220556665444e-01 -3.335505124118e+02 0.0 
0.0 0.0 -1.404273645876e+02 
-7.591012653038e+01 2.333559878567e+00 0.0 
2.333559878567e+00 -1.430954023513e+02 0.0 
0.0 0.0 -6.530165866450e+01 
-1.110513293583e+02 -1.495769760248e-01 0.0 
-1.495769760248e-01 -2.541879168809e+02 0.0 
0.0 0.0 -1.059614467764e+02 
-6.500488203438e+01 1.471953994209e+00 0.0 
1.471953994209e+00 -1.122044836131e+02 0.0 
0.0 0.0 -5.276280969425e+01 
-1.298829625462e+02 1.084223230910e+01 0.0 
1.084223230910e+01 -3.344291806588e+02 0.0 
0.0 0.0 -1.388936429615e+02 
-1.023171328634e+02 -3.331951427516e+00 0.0 
-3.331951427516e+00 -2.366269649986e+02 0.0 
0.0 0.0 -9.768701521627e+01 
-1.262637149032e+02 1.036618001536e-01 0.0 
1.036618001536e-01 -3.143598899648e+02 0.0 
0.0 0.0 -1.317870814604e+02 
-4.121411619855e+01 -2.604256874071e+00 0.0 
-2.604256874071e+00 -1.022499634833e+02 0.0 
0.0 0.0 -3.975153830041e+01 
-1.462868398916e+02 3.480704504289e+00 0.0 
3.480704504289e+00 -3.578802388434e+02 0.0 
0.0 0.0 -1.508501236205e+02 
-1.018601056813e+02 -2.846954933426e+00 0.0 
-2.846954933426e+00 -2.293333031389e+02 0.0 
0.0 0.0 -9.435547940534e+01 
-4.640782349550e+01 -1.652409686102e+00 0.0 
-1.652409686102e+00 -1.106978782772e+02 0.0 
0.0 0.0 -4.375062175255e+01 
-9.853701580396e+01 -2.603621336526e+00 0.0 
-2.603621336526e+00 -2.175851815428e+02 0.0 
0.0 0.0 -8.955191998730e+01 
-7.669808858613e+01 -7.100371387277e+00 0.0 
-7.100371387277e+00 -1.673595343431e+02 0.0 
0.0 0.0 -6.664683229442e+01 
-5.853484206656e+01 -8.775687281524e+00 0.0 
-8.775687281524e+00 -1.302594314646e+02 0.0 
0.0 0.0 -5.191364380802e+01 
-1.093685063810e+02 -1.909426769826e+00 0.0 
-1.909426769826e+00 -2.532305276040e+02 0.0 
0.0 0.0 -1.053615647770e+02 
-8.325616556475e+00 -5.687840828502e-01 0.0 
-5.687840828502e-01 -9.360430392309e+00 0.0 
0.0 0.0 -3.674270895495e+00 
-8.590240529027e+00 -5.005743039252e-01 0.0 
-5.005743039252e-01 -9.928322423646e+00 0.0 
0.0 0.0 -4.559761532675e+00 
-1.193769069591e+02 4.078296153416e-01 0.0 
4.078296153416e-01 -2.877344455857e+02 0.0 
0.0 0.0 -1.200346556323e+02 
-3.574174757929e+01 -3.411794505206e+00 0.0 
-3.411794505206e+00 -9.384051739472e+01 0.0 
0.0 0.0 -3.578813964484e+01 
-1.183960355101e+02 8.058323220951e-01 0.0 
8.058323220951e-01 -2.909061304393e+02 0.0 
0.0 0.0 -1.209925776593e+02 
-1.148474071104e+02 2.409902085602e-01 0.0 
2.409902085602e-01 -2.829985988403e+02 0.0 
0.0 0.0 -1.171883542807e+02 
-7.857968826191e+01 -8.502122961878e+00 0.0 
-8.502122961878e+00 -1.838643735712e+02 0.0 
0.0 0.0 -7.396939067651e+01 
-5.188286628645e+01 -1.649796677772e+01 0.0 
-1.649796677772e+01 -1.310171186824e+02 0.0 
0.0 0.0 -5.031090249696e+01 
-9.539293970299e+01 7.316971100133e+00 0.0 
7.316971100133e+00 -1.947186351181e+02 0.0 
0.0 0.0 -8.663347244632e+01 
-3.634504752597e+01 2.762762587383e+01 0.0 
2.762762587383e+01 -9.553819874015e+01 0.0 
0.0 0.0 -3.923688701289e+01 
-8.119396595645e+01 -5.823332632253e+00 0.0 
-5.823332632253e+00 -1.759939084259e+02 0.0 
0.0 0.0 -7.077451992939e+01 
-1.345992147940e+02 1.299712540269e+01 0.0 
1.299712540269e+01 -3.422752811494e+02 0.0 
0.0 0.0 -1.426623487830e+02 
-3.120652815344e+01 -4.532053299910e+00 0.0 
-4.532053299910e+00 -7.997350032265e+01 0.0 
0.0 0.0 -3.005815515832e+01 
-7.028359364316e+01 3.302706511511e+00 0.0 
3.302706511511e+00 -1.240384471165e+02 0.0 
0.0 0.0 -5.789661222789e+01 
-6.243295875751e+01 2.603610495286e+00 0.0 
2.603610495286e+00 -1.036371332184e+02 0.0 
0.0 0.0 -4.942102759277e+01 
-3.394679815623e+01 -7.476901700289e+00 0.0 
-7.476901700289e+00 -7.859644577957e+01 0.0 
0.0 0.0 -2.993797987040e+01 
-1.364641134317e+02 7.661405561428e+00 0.0 
7.661405561428e+00 -3.430177829941e+02 0.0 
0.0 0.0 -1.434445689277e+02 
-8.620421779267e+01 6.559457521542e+00 0.0 
6.559457521542e+00 -1.633094380645e+02 0.0 
0.0 0.0 -7.445409675715e+01 
-4.037603581392e+01 -6.185151846000e+00 0.0 
-6.185151846000e+00 -9.279766744221e+01 0.0 
0.0 0.0 -3.546729940322e+01 
-9.894599536888e+01 8.690821169736e+00 0.0 
8.690821169736e+00 -2.042540889990e+02 0.0 
0.0 0.0 -9.056002531037e+01 
-9.625124758915e+01 6.912885493549e+00 0.0 
6.912885493549e+00 -2.027151954498e+02 0.0 
0.0 0.0 -8.928993291168e+01 
-4.436796586793e+01 -5.271341732922e+00 0.0 
-5.271341732922e+00 -1.056554869843e+02 0.0 
0.0 0.0 -3.998348341498e+01 
-4.886411649889e+01 3.185368159636e+01 0.0 
3.185368159636e+01 -8.649039324576e+01 0.0 
0.0 0.0 -3.737527827605e+01 
-4.762972196914e+01 -8.480619563061e+00 0.0 
-8.480619563061e+00 -1.088308062253e+02 0.0 
0.0 0.0 -4.255406000733e+01 
-1.247328386479e+02 1.447798568583e+00 0.0 
1.447798568583e+00 -3.069240832225e+02 0.0 
0.0 0.0 -1.285193545199e+02 
-1.059363538658e+02 -2.585863414286e+00 0.0 
-2.585863414286e+00 -2.449849527006e+02 0.0 
0.0 0.0 -1.015768145010e+02 
-1.061636863791e+02 1.929399101164e+01 0.0 
1.929399101164e+01 -2.202241855360e+02 0.0 
0.0 0.0 -9.751636157455e+01 
-9.310741893878e+01 5.315678368957e+00 0.0 
5.315678368957e+00 -1.934094421578e+02 0.0 
0.0 0.0 -8.555505832897e+01 
-1.217035998203e+02 1.211851912466e+00 0.0 
1.211851912466e+00 -2.988958285381e+02 0.0 
0.0 0.0 -1.247736132329e+02 
-1.176948749324e+02 9.173367776427e-02 0.0 
9.173367776427e-02 -2.979289204978e+02 0.0 
0.0 0.0 -1.240875027707e+02 
-4.070956648029e+01 -9.626378560677e+00 0.0 
-9.626378560677e+00 -8.801937868325e+01 0.0 
0.0 0.0 -3.508687515687e+01 
-1.218703645399e+02 1.167128926104e-01 0.0 
1.167128926104e-01 -3.061558503094e+02 0.0 
0.0 0.0 -1.280078644548e+02 
-8.369657818219e+01 4.539684077739e+00 0.0 
4.539684077739e+00 -1.619043055699e+02 0.0 
0.0 0.0 -7.328026512562e+01 
-1.081988888493e+02 -1.004135879676e+00 0.0 
-1.004135879676e+00 -2.458278302516e+02 0.0 
0.0 0.0 -1.021430156420e+02 
-7.784805490062e+01 4.186104581282e+00 0.0 
4.186104581282e+00 -1.442289795762e+02 0.0 
0.0 0.0 -6.622311034306e+01 
-8.896531259672e+01 6.310042529447e+00 0.0 
6.310042529447e+00 -1.741225384754e+02 0.0 
0.0 0.0 -7.852635532162e+01 
-6.689577471156e+01 1.881995475296e+01 0.0 
1.881995475296e+01 -2.123081983247e+02 0.0 
0.0 0.0 -8.654920329725e+01 
-8.960114748968e+01 4.037223402729e+00 0.0 
4.037223402729e+00 -1.837881115251e+02 0.0 
0.0 0.0 -8.161677770444e+01 
-9.302596560589e+01 -4.100433883097e+00 0.0 
-4.100433883097e+00 -2.057191173330e+02 0.0 
0.0 0.0 -8.444681010483e+01 
-1.051446128945e+02 -1.846263344111e+00 0.0 
-1.846263344111e+00 -2.375037726602e+02 0.0 
0.0 0.0 -9.826364296937e+01 
-7.238580640797e+01 -6.604477026076e+00 0.0 
-6.604477026076e+00 -1.552951039603e+02 0.0 
0.0 0.0 -6.150469286196e+01 
-7.297823668921e+01 -1.250267994169e+01 0.0 
-1.250267994169e+01 -1.689601853028e+02 0.0 
0.0 0.0 -6.983831705885e+01 
-7.978183093439e+01 3.331566586985e+00 0.0 
3.331566586985e+00 -1.524053159170e+02 0.0 
0.0 0.0 -6.925614405543e+01 
-9.193724998401e+01 -6.029552361733e+00 0.0 
-6.029552361733e+00 -2.330578599714e+02 0.0 
0.0 0.0 -9.727018206857e+01 
-5.189346184537e+01 -7.086949574440e+00 0.0 
-7.086949574440e+00 -1.178348861074e+02 0.0 
0.0 0.0 -4.582663131222e+01 
-2.451971286010e+01 -3.750216151818e+00 0.0 
-3.750216151818e+00 -5.844215145060e+01 0.0 
0.0 0.0 -2.146522358865e+01 
-8.205243965491e+01 5.269419979156e+00 0.0 
5.269419979156e+00 -1.536956761834e+02 0.0 
0.0 0.0 -7.032443475148e+01 
-5.355729955742e+01 -9.629009358142e+00 0.0 
-9.629009358142e+00 -1.171102937017e+02 0.0 
0.0 0.0 -4.653488814946e+01 
-1.461034804270e+02 5.295140128520e+00 0.0 
5.295140128520e+00 -3.590138027316e+02 0.0 
0.0 0.0 -1.511351849476e+02 
-8.299618440658e+01 3.176962153559e+00 0.0 
3.176962153559e+00 -1.633486224495e+02 0.0 
0.0 0.0 -7.350344205681e+01 
-1.262628105953e+02 9.038693602298e-01 0.0 
9.038693602298e-01 -3.170066138968e+02 0.0 
0.0 0.0 -1.325808273476e+02 
-1.507403068767e+02 1.793353353974e+01 0.0 
1.793353353974e+01 -3.635441353634e+02 0.0 
0.0 0.0 -1.538853326720e+02 
-9.068760484644e+01 -3.217257097972e+00 0.0 
-3.217257097972e+00 -1.971853213883e+02 0.0 
0.0 0.0 -8.056827812906e+01 
-4.754306947178e+01 -8.141665661022e+00 0.0 
-8.141665661022e+00 -1.045238691909e+02 0.0 
0.0 0.0 -4.109029069669e+01 
-3.141838405281e+01 -7.769800607724e+00 0.0 
-7.769800607724e+00 -6.654331981944e+01 0.0 
0.0 0.0 -2.667940634466e+01 
-1.201910478961e+02 1.979144539282e+00 0.0 
1.979144539282e+00 -3.019262897357e+02 0.0 
0.0 0.0 -1.256149357173e+02 
-7.217044336169e+01 1.474520992029e+00 0.0 
1.474520992029e+00 -1.339802762931e+02 0.0 
0.0 0.0 -6.144521589644e+01 
-2.142069134466e+01 -4.653016218758e+00 0.0 
-4.653016218758e+00 -4.726764121159e+01 0.0 
0.0 0.0 -1.819073584865e+01 
-7.353991070090e+01 -6.536386142451e+00 0.0 
-6.536386142451e+00 -1.600611186276e+02 0.0 
0.0 0.0 -6.415275544825e+01 
-3.214227766990e+01 -1.120239694197e+00 0.0 
-1.120239694197e+00 -9.041102950504e+01 0.0 
0.0 0.0 -3.494101119059e+01 
-7.468199023884e+01 4.217985404993e+00 0.0 
4.217985404993e+00 -1.334369254346e+02 0.0 
0.0 0.0 -6.203567470203e+01 
-7.805839542740e+01 -5.056589920702e+00 0.0 
-5.056589920702e+00 -1.685532940276e+02 0.0 
0.0 0.0 -6.725150418219e+01 
-1.090906856890e+02 -2.568396758613e-01 0.0 
-2.568396758613e-01 -2.816988168530e+02 0.0 
0.0 0.0 -1.163089343281e+02 
-7.289814488462e+01 -4.141517786495e+00 0.0 
-4.141517786495e+00 -1.563947423325e+02 0.0 
0.0 0.0 -6.253747250579e+01 
-9.090673467146e+01 4.432705713654e+00 0.0 
4.432705713654e+00 -1.865086634521e+02 0.0 
0.0 0.0 -8.282461943705e+01 
-6.307515406703e+01 -9.364657830889e+00 0.0 
-9.364657830889e+00 -1.380120196630e+02 0.0 
0.0 0.0 -5.506942797865e+01 
-1.180731009356e+02 3.446085195367e+00 0.0 
3.446085195367e+00 -3.045014892928e+02 0.0 
0.0 0.0 -1.263304487040e+02 
-4.877956748792e+01 -1.476458095748e+01 0.0 
-1.476458095748e+01 -1.002695299772e+02 0.0 
0.0 0.0 -4.077712414859e+01 
-1.163780218216e+02 1.618087462691e+00 0.0 
1.618087462691e+00 -2.939355902982e+02 0.0 
0.0 0.0 -1.217651507366e+02 
-1.019814560849e+02 -1.717046276035e+00 0.0 
-1.717046276035e+00 -2.263546198339e+02 0.0 
0.0 0.0 -9.368722584976e+01 
-1.212950713817e+02 9.541680680727e-01 0.0 
9.541680680727e-01 -3.088906022034e+02 0.0 
0.0 0.0 -1.286557020755e+02 
-5.178097271474e+01 8.458764072216e-01 0.0 
8.458764072216e-01 -1.750726280927e+02 0.0 
0.0 0.0 -6.507712370835e+01 
-3.637058595402e+01 -3.996609298973e+00 0.0 
-3.996609298973e+00 -8.921153400061e+01 0.0 
0.0 0.0 -3.426191331985e+01 
-6.622445489613e+01 2.547255664925e+00 0.0 
2.547255664925e+00 -1.147446318929e+02 0.0 
0.0 0.0 -5.389072603670e+01 
-9.760211692227e+01 8.658894012040e+00 0.0 
8.658894012040e+00 -2.789787984305e+02 0.0 
0.0 0.0 -1.156319287034e+02 
-6.610266943054e+01 3.264036209769e+01 0.0 
3.264036209769e+01 -1.459693929751e+02 0.0 
0.0 0.0 -6.164747284042e+01 
-7.367701823735e+01 3.318841313614e+00 0.0 
3.318841313614e+00 -1.347117865407e+02 0.0 
0.0 0.0 -6.211664143341e+01 
-5.382869683881e+01 -1.762476431572e+01 0.0 
-1.762476431572e+01 -1.165799978730e+02 0.0 
0.0 0.0 -4.777904995357e+01 
-7.778987148800e+01 4.769092172249e+00 0.0 
4.769092172249e+00 -1.405277063455e+02 0.0 
0.0 0.0 -6.509527335005e+01 
-2.694330001895e+01 -1.854228606524e+00 0.0 
-1.854228606524e+00 -8.136195082755e+01 0.0 
0.0 0.0 -3.078768544722e+01 
-1.369956963830e+02 5.725798245155e+00 0.0 
5.725798245155e+00 -3.415246984734e+02 0.0 
0.0 0.0 -1.431561184569e+02 
-1.011482263482e+02 1.142705936660e+01 0.0 
1.142705936660e+01 -2.864002367349e+02 0.0 
0.0 0.0 -1.177083880589e+02 
-1.027309746631e+02 2.083899333951e+01 0.0 
2.083899333951e+01 -2.825521943698e+02 0.0 
0.0 0.0 -1.151849507099e+02 
-1.013797162811e+02 8.283511961147e+00 0.0 
8.283511961147e+00 -2.157558072111e+02 0.0 
0.0 0.0 -9.474065704765e+01 
-9.832607547225e+01 -3.007878509832e+00 0.0 
-3.007878509832e+00 -2.517442125574e+02 0.0 
0.0 0.0 -1.045869978937e+02 
-3.662548839004e+01 -7.038029292689e+00 0.0 
-7.038029292689e+00 -8.402795280672e+01 0.0 
0.0 0.0 -3.250910099936e+01 
-1.082232354995e+02 5.895165108740e-01 0.0 
5.895165108740e-01 -2.780712961049e+02 0.0 
0.0 0.0 -1.139395780307e+02 
-1.404453637824e+02 5.909108184454e+00 0.0 
5.909108184454e+00 -3.505488166515e+02 0.0 
0.0 0.0 -1.468982541302e+02 
-6.119179556943e+01 -1.798001240660e+01 0.0 
-1.798001240660e+01 -1.524742602220e+02 0.0 
0.0 0.0 -6.255656029938e+01 
-1.238948452797e+02 2.235709149639e+00 0.0 
2.235709149639e+00 -3.099521203548e+02 0.0 
0.0 0.0 -1.294855866266e+02 
-8.499360558565e+01 5.081105020267e+00 0.0 
5.081105020267e+00 -1.645175181091e+02 0.0 
0.0 0.0 -7.445333710844e+01 
-4.889815332154e+01 -1.690246945701e+01 0.0 
-1.690246945701e+01 -1.274259695956e+02 0.0 
0.0 0.0 -4.721178590642e+01 
-1.124019617006e+02 1.159940944597e+00 0.0 
1.159940944597e+00 -2.859884908809e+02 0.0 
0.0 0.0 -1.178931281363e+02 
-6.800592624790e+01 4.283358337026e+00 0.0 
4.283358337026e+00 -1.118541605714e+02 0.0 
0.0 0.0 -5.355802604580e+01 
-5.457979224287e+01 -3.055726715505e+00 0.0 
-3.055726715505e+00 -1.231735141360e+02 0.0 
0.0 0.0 -4.876125464646e+01 
-6.889543175437e+01 -8.281949845498e+00 0.0 
-8.281949845498e+00 -1.515566114706e+02 0.0 
0.0 0.0 -6.105993008320e+01 
-7.380511854157e+01 2.884864136529e+01 0.0 
2.884864136529e+01 -1.820530226231e+02 0.0 
0.0 0.0 -7.432554250314e+01 
-1.163912863597e+02 9.694107411032e-01 0.0 
9.694107411032e-01 -3.007817245892e+02 0.0 
0.0 0.0 -1.247519032847e+02 
-5.954861085271e+01 3.176552360773e+01 0.0 
3.176552360773e+01 -1.096252389339e+02 0.0 
0.0 0.0 -4.613947202992e+01 
-7.048171132516e+01 2.788950347666e+01 0.0 
2.788950347666e+01 -1.794324575783e+02 0.0 
0.0 0.0 -7.317197553845e+01 
-8.075902312253e+01 4.669225682109e+00 0.0 
4.669225682109e+00 -1.511599229481e+02 0.0 
0.0 0.0 -6.917568382118e+01 
-6.849185858734e+01 1.445524287279e+00 0.0 
1.445524287279e+00 -1.229671847535e+02 0.0 
0.0 0.0 -5.703771300225e+01 
-7.020053976543e+01 3.373533772602e+00 0.0 
3.373533772602e+00 -1.201514773687e+02 0.0 
0.0 0.0 -5.670560514023e+01 
-9.972988376414e+01 -3.253225699871e+00 0.0 
-3.253225699871e+00 -2.253900029183e+02 0.0 
0.0 0.0 -9.306067722825e+01 
-1.309467553053e+02 8.183190971648e+00 0.0 
8.183190971648e+00 -3.344329086985e+02 0.0 
0.0 0.0 -1.392138992011e+02 
-1.038162789213e+02 -5.689933891075e-02 0.0 
-5.689933891075e-02 -2.701755652703e+02 0.0 
0.0 0.0 -1.112400815144e+02 
-6.677143634821e+01 3.246641101816e+00 0.0 
3.246641101816e+00 -1.132471907891e+02 0.0 
0.0 0.0 -5.360558814118e+01 
-1.153934201547e+02 2.727661353740e+01 0.0 
2.727661353740e+01 -2.440936927339e+02 0.0 
0.0 0.0 -1.074461338666e+02 
-1.079210756961e+02 2.276324405227e+01 0.0 
2.276324405227e+01 -2.881376803563e+02 0.0 
0.0 0.0 -1.184176268157e+02 
-1.115056785474e+02 9.609700194582e-01 0.0 
9.609700194582e-01 -2.926500406945e+02 0.0 
0.0 0.0 -1.208467157726e+02 
-8.665878053990e+01 4.340168392754e+00 0.0 
4.340168392754e+00 -1.728108621626e+02 0.0 
0.0 0.0 -7.744089281074e+01 
-7.779105948725e+01 -1.024931159120e+01 0.0 
-1.024931159120e+01 -1.765540027459e+02 0.0 
0.0 0.0 -7.281310616589e+01 
-7.378756702191e+01 -9.376504268094e+00 0.0 
-9.376504268094e+00 -1.640586971182e+02 0.0 
0.0 0.0 -6.696478870173e+01 
-3.596222077422e+01 -7.214179179189e+00 0.0 
-7.214179179189e+00 -8.747773713606e+01 0.0 
0.0 0.0 -3.306673401894e+01 
-1.089162854829e+02 3.031319078310e+00 0.0 
3.031319078310e+00 -2.882782558750e+02 0.0 
0.0 0.0 -1.183350796156e+02 
-7.845576983923e+01 -7.485464387883e+00 0.0 
-7.485464387883e+00 -1.723496398764e+02 0.0 
0.0 0.0 -7.000115161718e+01 
-7.906691349239e+01 5.417210546157e+00 0.0 
5.417210546157e+00 -1.428785906906e+02 0.0 
0.0 0.0 -6.618365125491e+01 
-7.604762919492e+01 5.535178949940e+00 0.0 
5.535178949940e+00 -1.321832479073e+02 0.0 
0.0 0.0 -6.206926313066e+01 
-6.888542346730e+01 1.296381538653e+01 0.0 
1.296381538653e+01 -2.201676210706e+02 0.0 
0.0 0.0 -9.008493329360e+01 
-6.259050179433e+01 -1.168899915007e+01 0.0 
-1.168899915007e+01 -1.422631163498e+02 0.0 
0.0 0.0 -5.726444852394e+01 
-4.915184429245e+01 1.582301794097e+01 0.0 
1.582301794097e+01 -1.646150453086e+02 0.0 
0.0 0.0 -6.104645019933e+01 
-6.730939283991e+01 -1.005440974753e+01 0.0 
-1.005440974753e+01 -1.505856086256e+02 0.0 
0.0 0.0 -6.038417049633e+01 
-7.079562714542e+01 -1.031643720431e+01 0.0 
-1.031643720431e+01 -1.630937491597e+02 0.0 
0.0 0.0 -6.564202115491e+01 
-4.367913061210e+01 -9.081477923377e+00 0.0 
-9.081477923377e+00 -9.626979704521e+01 0.0 
0.0 0.0 -3.797989130183e+01 
-1.252902376241e+02 8.782220045068e+00 0.0 
8.782220045068e+00 -3.256647617330e+02 0.0 
0.0 0.0 -1.348864998071e+02 
-7.779363117841e+01 -7.908041266310e+00 0.0 
-7.908041266310e+00 -2.001718907736e+02 0.0 
0.0 0.0 -8.125734215343e+01 
-9.168065576903e+01 5.960121877791e+00 0.0 
5.960121877791e+00 -1.849968106293e+02 0.0 
0.0 0.0 -8.260323991951e+01 
-7.926959078057e+01 -6.312524154520e+00 0.0 
-6.312524154520e+00 -2.115221219437e+02 0.0 
0.0 0.0 -8.635684723930e+01 
-1.014621604595e+02 1.123870491271e+00 0.0 
1.123870491271e+00 -2.762447556903e+02 0.0 
0.0 0.0 -1.129120748449e+02 
-9.094813451344e+01 -2.949639123701e+00 0.0 
-2.949639123701e+00 -2.386555869222e+02 0.0 
0.0 0.0 -9.716300974406e+01 
-6.733142574167e+01 2.539062023482e+01 0.0 
2.539062023482e+01 -1.894289987612e+02 0.0 
0.0 0.0 -7.719035189714e+01 
-3.998986756960e+01 -6.447182797316e+00 0.0 
-6.447182797316e+00 -9.664135764644e+01 0.0 
0.0 0.0 -3.643687357575e+01 
-1.346683788294e+02 6.510432191055e+00 0.0 
6.510432191055e+00 -3.419558500162e+02 0.0 
0.0 0.0 -1.425872686537e+02 
-1.417070972491e+02 9.506580849457e+00 0.0 
9.506580849457e+00 -3.533684422237e+02 0.0 
0.0 0.0 -1.481226618418e+02 
-9.121468519862e+01 2.826736967681e+01 0.0 
2.826736967681e+01 -2.224516217106e+02 0.0 
0.0 0.0 -9.369989207277e+01 
-7.363646830311e+01 -1.001215700574e+01 0.0 
-1.001215700574e+01 -1.756451360184e+02 0.0 
0.0 0.0 -7.081918343521e+01 
-9.616645826903e+01 -7.394569414831e-01 0.0 
-7.394569414831e-01 -2.575305303852e+02 0.0 
0.0 0.0 -1.045909552643e+02 
-7.659417505826e+01 3.375619883233e+00 0.0 
3.375619883233e+00 -1.414870118928e+02 0.0 
0.0 0.0 -6.502435608533e+01 
-8.254115283668e+01 -8.171873953489e+00 0.0 
-8.171873953489e+00 -1.847749120018e+02 0.0 
0.0 0.0 -7.577953663864e+01 
-5.993277270455e+01 2.969931014283e+01 0.0 
2.969931014283e+01 -1.433343081650e+02 0.0 
0.0 0.0 -5.848926157953e+01 
-6.320805281695e+01 -6.985591086758e+00 0.0 
-6.985591086758e+00 -1.391343920588e+02 0.0 
0.0 0.0 -5.510471000169e+01 
-5.732243297362e+01 -1.820847822778e+01 0.0 
-1.820847822778e+01 -1.331845155315e+02 0.0 
0.0 0.0 -5.430823354273e+01 
-8.090833322355e+01 -1.067342499294e+01 0.0 
-1.067342499294e+01 -1.892595446586e+02 0.0 
0.0 0.0 -7.858079471032e+01 
-5.799364565830e+01 -8.342709956599e+00 0.0 
-8.342709956599e+00 -1.255002932707e+02 0.0 
0.0 0.0 -4.970280546409e+01 
-4.929878532199e+01 -4.084981392791e+00 0.0 
-4.084981392791e+00 -1.146833340888e+02 0.0 
0.0 0.0 -4.450333660382e+01 
-9.710730379662e+01 -4.707989367936e+00 0.0 
-4.707989367936e+00 -2.406113696539e+02 0.0 
0.0 0.0 -9.980157131318e+01 
-1.064504742997e+02 1.009960157679e+00 0.0 
1.009960157679e+00 -2.844515939725e+02 0.0 
0.0 0.0 -1.168706204817e+02 
-1.111230838868e+02 2.843291988166e+01 0.0 
2.843291988166e+01 -2.633015716842e+02 0.0 
0.0 0.0 -1.119273966713e+02 
-1.268008044003e+01 -1.250930193612e-01 0.0 
-1.250930193612e-01 -8.626543228698e+00 0.0 
0.0 0.0 -5.202412476886e+00 
-6.797167345052e+01 -5.516062981354e+00 0.0 
-5.516062981354e+00 -2.061497486424e+02 0.0 
0.0 0.0 -8.362111028871e+01 
-7.390903823620e+01 -7.229508903194e+00 0.0 
-7.229508903194e+00 -2.039252353524e+02 0.0 
0.0 0.0 -8.308158671124e+01 
-7.594176089532e+01 -9.144011399863e+00 0.0 
-9.144011399863e+00 -1.881253784032e+02 0.0 
0.0 0.0 -7.603112126186e+01 
-7.341806005535e+01 3.397453144560e+00 0.0 
3.397453144560e+00 -1.307126938970e+02 0.0 
0.0 0.0 -6.083922618571e+01 
-8.463578633520e+01 -5.376559848250e+00 0.0 
-5.376559848250e+00 -2.194903273100e+02 0.0 
0.0 0.0 -8.945703430121e+01 
-6.775959524509e+01 -7.881720133648e+00 0.0 
-7.881720133648e+00 -1.465664637374e+02 0.0 
0.0 0.0 -5.824858490318e+01 
-8.319279142927e+01 -1.033333163200e+01 0.0 
-1.033333163200e+01 -2.018663278046e+02 0.0 
0.0 0.0 -8.411353084767e+01 
-8.603682009430e+01 2.909664949823e+00 0.0 
2.909664949823e+00 -1.743379635555e+02 0.0 
0.0 0.0 -7.771243509495e+01 
-6.787513619256e+01 -5.488858736596e+00 0.0 
-5.488858736596e+00 -1.478031164808e+02 0.0 
0.0 0.0 -5.827517016443e+01 
-2.221392250720e+01 -5.088226144767e+00 0.0 
-5.088226144767e+00 -5.489474900745e+01 0.0 
0.0 0.0 -2.062080125128e+01 
-3.343429220661e+01 -7.261684342576e+00 0.0 
-7.261684342576e+00 -7.581560170228e+01 0.0 
0.0 0.0 -2.948636776308e+01 
-5.412650367261e+01 -1.607826672529e+01 0.0 
-1.607826672529e+01 -1.349883045343e+02 0.0 
0.0 0.0 -5.353626181246e+01 
-6.581041176735e+01 -1.203583422219e+01 0.0 
-1.203583422219e+01 -1.550626503726e+02 0.0 
0.0 0.0 -6.252040321696e+01 
-7.487361449445e+01 -4.888863399298e+00 0.0 
-4.888863399298e+00 -2.146061130837e+02 0.0 
0.0 0.0 -8.788328754261e+01 
-8.480482625881e+01 -9.255304910191e+00 0.0 
-9.255304910191e+00 -2.139529235033e+02 0.0 
0.0 0.0 -8.932519507471e+01 
-4.856574368486e+01 -1.542180465858e+01 0.0 
-1.542180465858e+01 -9.507828225324e+01 0.0 
0.0 0.0 -3.828218188476e+01 
-2.708416755407e+01 -4.699822270419e+00 0.0 
-4.699822270419e+00 -7.549774300880e+01 0.0 
0.0 0.0 -2.765295062707e+01 
-7.459326192154e+01 7.410787181863e+00 0.0 
7.410787181863e+00 -1.204645228383e+02 0.0 
0.0 0.0 -5.811733542796e+01 
-5.670251992983e+01 -5.567330892529e+00 0.0 
-5.567330892529e+00 -1.269292453949e+02 0.0 
0.0 0.0 -4.911903449450e+01 
-1.184250488786e+02 5.809396142745e+00 0.0 
5.809396142745e+00 -3.150375555614e+02 0.0 
0.0 0.0 -1.296387813320e+02 
-1.070506539775e+02 2.793033936136e+01 0.0 
2.793033936136e+01 -2.596552062955e+02 0.0 
0.0 0.0 -1.096117580819e+02 
-8.535800624797e+01 2.055051215066e+01 0.0 
2.055051215066e+01 -1.414574708121e+02 0.0 
0.0 0.0 -6.764464311803e+01 
-9.533036214555e+01 9.329825451548e+00 0.0 
9.329825451548e+00 -1.922001209578e+02 0.0 
0.0 0.0 -8.585914493101e+01 
-1.148789885226e+02 2.864618543359e+01 0.0 
2.864618543359e+01 -2.672081512812e+02 0.0 
0.0 0.0 -1.142261419411e+02 
-6.552162019960e+01 1.592052914944e+01 0.0 
1.592052914944e+01 -2.085811268720e+02 0.0 
0.0 0.0 -8.420529595519e+01 
-9.899440897214e+01 2.790353127427e+01 0.0 
2.790353127427e+01 -2.409990127321e+02 0.0 
0.0 0.0 -1.015980265113e+02 
-5.377803540558e+01 -1.881822831195e+01 0.0 
-1.881822831195e+01 -1.137559813411e+02 0.0 
0.0 0.0 -4.564455974743e+01 
-8.844706949168e+01 -8.229367812694e+00 0.0 
-8.229367812694e+00 -2.094307141431e+02 0.0 
0.0 0.0 -8.693916141370e+01 
-6.369594579475e+01 2.574362192635e+01 0.0 
2.574362192635e+01 -1.877702395343e+02 0.0 
0.0 0.0 -7.684694601398e+01 
-4.516991723230e+01 -1.241241988897e+01 0.0 
-1.241241988897e+01 -1.396391114507e+02 0.0 
0.0 0.0 -5.004012981459e+01 
-4.922607497169e+01 -1.822212172900e+01 0.0 
-1.822212172900e+01 -9.201867458170e+01 0.0 
0.0 0.0 -3.669861103294e+01 
-7.565795460943e+01 -8.686753949188e+00 0.0 
-8.686753949188e+00 -1.714555357527e+02 0.0 
0.0 0.0 -6.875715181954e+01 
-7.857492629115e+01 -1.105417718101e+01 0.0 
-1.105417718101e+01 -2.065086662654e+02 0.0 
0.0 0.0 -8.601379415881e+01 
-7.937770713344e+01 -8.757097067657e+00 0.0 
-8.757097067657e+00 -2.178552818867e+02 0.0 
0.0 0.0 -9.068982447301e+01 
-6.265597956729e+01 -6.944103587142e+00 0.0 
-6.944103587142e+00 -1.341573276626e+02 0.0 
0.0 0.0 -5.292964310911e+01 
-8.598106451743e+01 -3.459663641678e+00 0.0 
-3.459663641678e+00 -2.305043244545e+02 0.0 
0.0 0.0 -9.443626140659e+01 
-7.322187214092e+01 -9.113957207639e+00 0.0 
-9.113957207639e+00 -2.118362875726e+02 0.0 
0.0 0.0 -8.743288523931e+01 
-6.913847293404e+01 -1.966707660945e+00 0.0 
-1.966707660945e+00 -2.153470504473e+02 0.0 
0.0 0.0 -8.793464430732e+01 
-6.910434632785e+01 -1.162352653115e+01 0.0 
-1.162352653115e+01 -1.559120641638e+02 0.0 
0.0 0.0 -6.398634943613e+01 
-9.911341084000e+01 1.508933191815e+01 0.0 
1.508933191815e+01 -2.823918982200e+02 0.0 
0.0 0.0 -1.153761121128e+02 
-8.343873061788e+01 6.795043259687e+00 0.0 
6.795043259687e+00 -1.526522721154e+02 0.0 
0.0 0.0 -7.042730081999e+01 
-6.533152880202e+01 -1.433699105790e-02 0.0 
-1.433699105790e-02 -2.095390781503e+02 0.0 
0.0 0.0 -8.429835190039e+01 
-1.289054564021e+02 7.152373925135e+00 0.0 
7.152373925135e+00 -3.333440651195e+02 0.0 
0.0 0.0 -1.382748564565e+02 
-5.518724875319e+01 -1.897855301668e+01 0.0 
-1.897855301668e+01 -1.304438898359e+02 0.0 
0.0 0.0 -5.148662669215e+01 
-1.391445314948e+02 1.125135470003e+01 0.0 
1.125135470003e+01 -3.518254943035e+02 0.0 
0.0 0.0 -1.468910077395e+02 
-8.046798845262e+01 -4.222364976885e+00 0.0 
-4.222364976885e+00 -2.223602530026e+02 0.0 
0.0 0.0 -9.128345391581e+01 
-1.185256181956e+02 2.903910794570e+01 0.0 
2.903910794570e+01 -2.729384617216e+02 0.0 
0.0 0.0 -1.170392239751e+02 
-8.604277289422e+01 2.984747514798e+01 0.0 
2.984747514798e+01 -1.768970922899e+02 0.0 
0.0 0.0 -7.848195955523e+01 
-5.087543856674e+01 -1.691468401616e+01 0.0 
-1.691468401616e+01 -1.161029613286e+02 0.0 
0.0 0.0 -4.545976770500e+01 
-8.859054712438e+01 2.327451192459e+01 0.0 
2.327451192459e+01 -1.557003749768e+02 0.0 
0.0 0.0 -7.288727663035e+01 
-1.008704130444e+02 1.390796205142e+01 0.0 
1.390796205142e+01 -2.044904818202e+02 0.0 
0.0 0.0 -9.120826845939e+01 
-8.138426356994e+01 -1.633756880830e+00 0.0 
-1.633756880830e+00 -2.325293881393e+02 0.0 
0.0 0.0 -9.595253069168e+01 
-5.131952597391e+01 2.855211304067e+01 0.0 
2.855211304067e+01 -1.376452059244e+02 0.0 
0.0 0.0 -5.460426576518e+01 
-9.157340334433e+01 2.552103413603e+01 0.0 
2.552103413603e+01 -1.706623804968e+02 0.0 
0.0 0.0 -7.827073515233e+01 
-7.208485170928e+01 3.167694183814e+01 0.0 
3.167694183814e+01 -1.647497366951e+02 0.0 
0.0 0.0 -6.909221111694e+01 
-4.819276878024e+01 -1.652594466787e+01 0.0 
-1.652594466787e+01 -9.523138002303e+01 0.0 
0.0 0.0 -3.788456504848e+01 
-1.068423234544e+02 1.195675567574e+01 0.0 
1.195675567574e+01 -2.347848821144e+02 0.0 
0.0 0.0 -1.020881616706e+02 
-4.383339568171e+01 -1.394635798187e+01 0.0 
-1.394635798187e+01 -7.962067564827e+01 0.0 
0.0 0.0 -3.278571327831e+01 
-1.305179952475e+02 2.224616446038e+01 0.0 
2.224616446038e+01 -3.303318811256e+02 0.0 
0.0 0.0 -1.378549629119e+02 
-9.576070181681e+01 4.869416970451e+00 0.0 
4.869416970451e+00 -2.041903699195e+02 0.0 
0.0 0.0 -8.958532152089e+01 
-1.052222553041e+02 1.407552033311e+01 0.0 
1.407552033311e+01 -2.933370112757e+02 0.0 
0.0 0.0 -1.196823118552e+02 
-6.904002068608e+01 2.218984203059e+00 0.0 
2.218984203059e+00 -1.211286935828e+02 0.0 
0.0 0.0 -5.665061428067e+01 
-9.444085547111e+01 9.748296722602e+00 0.0 
9.748296722602e+00 -1.834423785779e+02 0.0 
0.0 0.0 -8.296497021470e+01 
-7.495579631879e+01 -4.762836269763e+00 0.0 
-4.762836269763e+00 -2.213744278599e+02 0.0 
0.0 0.0 -9.168304710900e+01 
-7.519490270429e+01 1.365451353372e+01 0.0 
1.365451353372e+01 -2.360286407399e+02 0.0 
0.0 0.0 -9.832823168005e+01 
-1.013498007023e+02 1.065332286851e+01 0.0 
1.065332286851e+01 -2.131583851967e+02 0.0 
0.0 0.0 -9.395245576968e+01 
-1.155274892568e+02 2.243742105129e+00 0.0 
2.243742105129e+00 -3.031958024022e+02 0.0 
0.0 0.0 -1.252169874977e+02 
-8.785025326232e+01 8.364552257637e+00 0.0 
8.364552257637e+00 -1.627091431967e+02 0.0 
0.0 0.0 -7.476781893771e+01 
-1.002412195316e+02 7.426829475638e+00 0.0 
7.426829475638e+00 -2.871721944656e+02 0.0 
0.0 0.0 -1.165873388697e+02 
-4.838696894847e+01 -1.781424188565e+01 0.0 
-1.781424188565e+01 -1.116281109696e+02 0.0 
0.0 0.0 -4.194591553535e+01 
-9.219868763831e+01 1.016485526025e+01 0.0 
1.016485526025e+01 -1.730223607830e+02 0.0 
0.0 0.0 -7.916631452639e+01 
-1.318076365181e+02 3.222579522002e+01 0.0 
3.222579522002e+01 -3.132086700093e+02 0.0 
0.0 0.0 -1.331048919582e+02 
-1.403384705316e+02 8.262926226199e+00 0.0 
8.262926226199e+00 -3.523992732531e+02 0.0 
0.0 0.0 -1.474213231354e+02 
-8.293575073684e+01 -6.870950839612e+00 0.0 
-6.870950839612e+00 -2.079334086688e+02 0.0 
0.0 0.0 -8.433412153608e+01 
-7.131189067988e+01 4.321726674960e+00 0.0 
4.321726674960e+00 -1.223781159674e+02 0.0 
0.0 0.0 -5.770700199417e+01 
-6.554336530464e+01 2.139641874356e+00 0.0 
2.139641874356e+00 -1.104539648919e+02 0.0 
0.0 0.0 -5.239919905897e+01 
-8.591304122682e+01 -7.449737901030e+00 0.0 
-7.449737901030e+00 -2.254662532725e+02 0.0 
0.0 0.0 -9.421331974549e+01 
-1.101908664512e+02 2.337534293853e+00 0.0 
2.337534293853e+00 -2.949626695148e+02 0.0 
0.0 0.0 -1.211460607898e+02 
-1.142102942299e+02 3.968075987512e+00 0.0 
3.968075987512e+00 -3.051905447030e+02 0.0 
0.0 0.0 -1.254202516799e+02 
-2.571951416970e+01 -4.207779246685e+00 0.0 
-4.207779246685e+00 -6.661683836762e+01 0.0 
0.0 0.0 -2.436049564102e+01 
-4.520345475025e+01 1.672623457287e+01 0.0 
1.672623457287e+01 -1.515844519272e+02 0.0 
0.0 0.0 -5.552331889567e+01 
-6.698791751311e+01 4.077776678437e+00 0.0 
4.077776678437e+00 -2.177727221732e+02 0.0 
0.0 0.0 -8.821201927156e+01 
-6.956266415990e+01 -2.901238179149e+00 0.0 
-2.901238179149e+00 -2.124536109317e+02 0.0 
0.0 0.0 -8.731251785949e+01 
-6.920344810793e+01 3.114076934690e+01 0.0 
3.114076934690e+01 -1.791364789094e+02 0.0 
0.0 0.0 -7.465724595899e+01 
-1.060844290432e+02 1.211636115171e+01 0.0 
1.211636115171e+01 -2.246765294445e+02 0.0 
0.0 0.0 -9.882828754630e+01 
-1.082386044749e+02 2.237419095652e+01 0.0 
2.237419095652e+01 -2.265091585201e+02 0.0 
0.0 0.0 -1.000243288985e+02 
-9.772888176124e+01 6.727587454615e+00 0.0 
6.727587454615e+00 -2.052392564098e+02 0.0 
0.0 0.0 -9.049044145131e+01 
-6.283142104086e+01 3.143107440214e+01 0.0 
3.143107440214e+01 -1.107029366639e+02 0.0 
0.0 0.0 -4.661035396081e+01 
-9.495803688202e+01 1.228972840408e+01 0.0 
1.228972840408e+01 -1.832351051716e+02 0.0 
0.0 0.0 -8.305794261609e+01 
-1.135457431750e+02 3.265667882986e+00 0.0 
3.265667882986e+00 -2.963940057214e+02 0.0 
0.0 0.0 -1.223458719515e+02 
-1.000532556375e+02 8.279258201438e+00 0.0 
8.279258201438e+00 -2.133550232166e+02 0.0 
0.0 0.0 -9.362248365624e+01 
-8.986196341670e+01 1.058012242623e+01 0.0 
1.058012242623e+01 -1.627046950609e+02 0.0 
0.0 0.0 -7.536999754328e+01 
-9.043805478936e+01 -7.431634484284e+00 0.0 
-7.431634484284e+00 -2.214560137230e+02 0.0 
0.0 0.0 -9.222392056145e+01 
-6.387472191106e+01 7.392787308425e+00 0.0 
7.392787308425e+00 -2.105162865059e+02 0.0 
0.0 0.0 -8.340147354765e+01 
-8.898504736245e+01 7.856980284722e+00 0.0 
7.856980284722e+00 -1.712691765375e+02 0.0 
0.0 0.0 -7.767626716999e+01 
-1.005263682183e+02 1.106244204297e+01 0.0 
1.106244204297e+01 -2.043019671112e+02 0.0 
0.0 0.0 -9.104850059887e+01 
-8.762749603961e+01 5.920475797049e+00 0.0 
5.920475797049e+00 -1.717223295440e+02 0.0 
0.0 0.0 -7.740494767508e+01 
-8.488191315254e+01 6.155694274934e+00 0.0 
6.155694274934e+00 -1.610775089886e+02 0.0 
0.0 0.0 -7.338782664234e+01 
-1.298675631506e+02 4.890764144267e+00 0.0 
4.890764144267e+00 -3.321841009625e+02 0.0 
0.0 0.0 -1.382154992339e+02 
-1.248271608744e+02 2.302556769227e+01 0.0 
2.302556769227e+01 -3.186582239284e+02 0.0 
0.0 0.0 -1.326456154408e+02 
-1.242208730497e+02 5.315171834391e+00 0.0 
5.315171834391e+00 -3.236958471312e+02 0.0 
0.0 0.0 -1.339750160543e+02 
-1.003883812270e+02 -6.477410254678e-01 0.0 
-6.477410254678e-01 -2.656016265755e+02 0.0 
0.0 0.0 -1.085568592139e+02 
-6.035961226144e+01 2.193641431887e+01 0.0 
2.193641431887e+01 -7.282676319074e+01 0.0 
0.0 0.0 -3.612578552847e+01 
-1.096901533488e+02 1.651997642267e+01 0.0 
1.651997642267e+01 -2.998815880268e+02 0.0 
0.0 0.0 -1.224715224127e+02 
-9.061731522042e+01 1.358936663153e+01 0.0 
1.358936663153e+01 -1.648475517025e+02 0.0 
0.0 0.0 -7.623946007687e+01 
-5.194056339643e+01 -6.976045185320e+00 0.0 
-6.976045185320e+00 -1.132155052235e+02 0.0 
0.0 0.0 -4.423085766975e+01 
-7.026035642053e+01 1.576525065463e+00 0.0 
1.576525065463e+00 -2.194704614574e+02 0.0 
0.0 0.0 -9.018936930305e+01 
-7.758862785015e+01 4.065224270299e+00 0.0 
4.065224270299e+00 -2.400772309040e+02 0.0 
0.0 0.0 -1.001595057777e+02 
-8.268979996073e+01 1.482557395138e+01 0.0 
1.482557395138e+01 -2.540928283476e+02 0.0 
0.0 0.0 -1.049210458778e+02 
-4.241638934672e+01 -1.671228240531e+00 0.0 
-1.671228240531e+00 -1.495261090755e+02 0.0 
0.0 0.0 -5.432564310698e+01 
-6.578395122409e+01 4.454510213404e+00 0.0 
4.454510213404e+00 -2.105201757801e+02 0.0 
0.0 0.0 -8.425915066081e+01 
-9.280794773441e+01 1.623769672225e+01 0.0 
1.623769672225e+01 -2.710593954312e+02 0.0 
0.0 0.0 -1.106660422064e+02 
-7.136400909582e+01 2.660036894432e+01 0.0 
2.660036894432e+01 -1.144183870716e+02 0.0 
0.0 0.0 -5.230691450842e+01 
-8.959662574469e+01 -4.649522913869e+00 0.0 
-4.649522913869e+00 -2.274699030633e+02 0.0 
0.0 0.0 -9.223320942564e+01 
-8.270989436617e+01 8.981591384601e+00 0.0 
8.981591384601e+00 -1.417420988703e+02 0.0 
0.0 0.0 -6.693559797095e+01 
-5.258444712453e+01 5.761224263037e-01 0.0 
5.761224263037e-01 -8.007389063955e+01 0.0 
0.0 0.0 -3.939750132922e+01 
-4.470881021399e+01 3.078611111207e+01 0.0 
3.078611111207e+01 -3.161742039962e+01 0.0 
0.0 0.0 -1.884897483124e+01 
-1.029716544213e+02 -2.088818812532e+00 0.0 
-2.088818812532e+00 -2.594498144680e+02 0.0 
0.0 0.0 -1.067757408501e+02 
-1.090822530678e+02 1.230613935604e+01 0.0 
1.230613935604e+01 -3.028431638400e+02 0.0 
0.0 0.0 -1.231776250723e+02 
-1.103237922032e+02 2.133067820907e+01 0.0 
2.133067820907e+01 -2.338775540417e+02 0.0 
0.0 0.0 -1.028604038735e+02 
-7.172083953545e+01 1.178892907050e+01 0.0 
1.178892907050e+01 -2.318262524456e+02 0.0 
0.0 0.0 -9.612113225967e+01 
-9.539517139713e+01 -2.609959719408e+00 0.0 
-2.609959719408e+00 -2.466850647033e+02 0.0 
0.0 0.0 -9.995885299684e+01 
-8.064856678974e+01 6.960594622042e+00 0.0 
6.960594622042e+00 -1.420994433503e+02 0.0 
0.0 0.0 -6.642440304200e+01 
-4.314805450917e+01 2.960418829452e+01 0.0 
2.960418829452e+01 -2.866356355264e+01 0.0 
0.0 0.0 -1.763719626444e+01 
-1.030694377333e+02 1.328156455386e+01 0.0 
1.328156455386e+01 -2.922530921960e+02 0.0 
0.0 0.0 -1.193350206567e+02 
-7.944455735556e+01 1.188171789921e+01 0.0 
1.188171789921e+01 -2.473783672758e+02 0.0 
0.0 0.0 -1.037845043533e+02 
-7.338645149722e+01 2.819566241900e+01 0.0 
2.819566241900e+01 -1.179735367684e+02 0.0 
0.0 0.0 -5.511091250050e+01 
-1.168430896153e+02 5.036716695605e+00 0.0 
5.036716695605e+00 -3.065376243770e+02 0.0 
0.0 0.0 -1.266142141977e+02 
-5.169929305673e+01 -1.625264978064e+01 0.0 
-1.625264978064e+01 -1.423578303924e+02 0.0 
0.0 0.0 -5.446746891610e+01 
-1.209620470782e+02 6.795698546104e+00 0.0 
6.795698546104e+00 -3.163276092755e+02 0.0 
0.0 0.0 -1.307868969061e+02 
-1.338728872701e+02 9.047670365115e+00 0.0 
9.047670365115e+00 -3.427171677260e+02 0.0 
0.0 0.0 -1.425770164988e+02 
-9.708596384813e+01 1.429396163731e+01 0.0 
1.429396163731e+01 -2.813615016029e+02 0.0 
0.0 0.0 -1.155030473504e+02 
-9.034299553448e+01 8.053111133002e+00 0.0 
8.053111133002e+00 -1.732427789101e+02 0.0 
0.0 0.0 -7.867573233337e+01 
-1.066077260259e+02 2.774571145508e+01 0.0 
2.774571145508e+01 -2.703817331943e+02 0.0 
0.0 0.0 -1.126968377661e+02 
-1.358997427358e+02 1.023594536985e+01 0.0 
1.023594536985e+01 -3.437947571593e+02 0.0 
0.0 0.0 -1.435083499686e+02 
-4.205416765354e+01 2.916066271074e+01 0.0 
2.916066271074e+01 -2.795487596383e+01 0.0 
0.0 0.0 -1.794927510722e+01 
-8.533548444580e+01 8.634992755759e+00 0.0 
8.634992755759e+00 -1.522444748208e+02 0.0 
0.0 0.0 -7.087398777996e+01 
-1.236172060650e+02 2.562980701471e+01 0.0 
2.562980701471e+01 -3.116975302267e+02 0.0 
0.0 0.0 -1.301944208875e+02 
-9.148820956694e+01 7.534798355532e+00 0.0 
7.534798355532e+00 -1.818110958011e+02 0.0 
0.0 0.0 -8.158979161040e+01 
-8.612162870709e+01 1.287514410173e+01 0.0 
1.287514410173e+01 -2.639765322097e+02 0.0 
0.0 0.0 -1.094382565930e+02 
-6.700470528945e+01 8.981800898098e+00 0.0 
8.981800898098e+00 -2.155688488716e+02 0.0 
0.0 0.0 -8.705071992583e+01 
-1.006307994603e+02 -3.710614623623e+00 0.0 
-3.710614623623e+00 -2.399734229030e+02 0.0 
0.0 0.0 -9.850269790412e+01 
-3.293402802779e+01 7.035441644235e+00 0.0 
7.035441644235e+00 -1.288963296544e+02 0.0 
0.0 0.0 -5.051729509588e+01 
-9.402759978386e+01 7.125220809052e+00 0.0 
7.125220809052e+00 -1.924406649652e+02 0.0 
0.0 0.0 -8.554047942471e+01 
-5.673102508297e+01 -5.819778421698e+00 0.0 
-5.819778421698e+00 -1.219562584382e+02 0.0 
0.0 0.0 -4.765111170464e+01 
-3.967812151471e+01 2.807528426074e+01 0.0 
2.807528426074e+01 -2.719536324181e+01 0.0 
0.0 0.0 -1.721287757834e+01 
-1.020738699106e+02 2.859206042710e+01 0.0 
2.859206042710e+01 -2.559308991459e+02 0.0 
0.0 0.0 -1.070014307169e+02 
-9.943058338385e+01 6.231276384346e+00 0.0 
6.231276384346e+00 -2.145511071016e+02 0.0 
0.0 0.0 -9.379450714563e+01 
-5.226817090351e+01 -1.952195647083e+01 0.0 
-1.952195647083e+01 -1.286007143279e+02 0.0 
0.0 0.0 -4.965664035622e+01 
-7.700193827222e+01 2.956008245905e+01 0.0 
2.956008245905e+01 -1.845919518252e+02 0.0 
0.0 0.0 -7.700663533825e+01 
-8.649805889497e+01 8.117326616636e+00 0.0 
8.117326616636e+00 -1.608679410913e+02 0.0 
0.0 0.0 -7.380979999588e+01 
-9.973689708430e+01 -4.510081128136e+00 0.0 
-4.510081128136e+00 -2.367877848240e+02 0.0 
0.0 0.0 -9.703848157336e+01 
-4.652897084322e+01 -8.319436785675e+00 0.0 
-8.319436785675e+00 -1.492573294686e+02 0.0 
0.0 0.0 -5.530767961599e+01 
-5.237356474471e+01 3.029577654823e+01 0.0 
3.029577654823e+01 -1.396806161850e+02 0.0 
0.0 0.0 -5.607914005364e+01 
-4.684808661418e+01 -1.842066621967e+01 0.0 
-1.842066621967e+01 -9.116027520116e+01 0.0 
0.0 0.0 -3.539877865577e+01 
-4.554066569504e+01 -1.635681558896e+01 0.0 
-1.635681558896e+01 -1.261029845106e+02 0.0 
0.0 0.0 -4.573963368006e+01 
-4.557820312522e+01 -1.867088380433e+01 0.0 
-1.867088380433e+01 -1.087932249267e+02 0.0 
0.0 0.0 -3.887292086709e+01 
-7.844205205312e+01 1.184501006352e+01 0.0 
1.184501006352e+01 -2.479724135943e+02 0.0 
0.0 0.0 -1.040149352567e+02 
-1.192342289336e+02 1.966410213245e+01 0.0 
1.966410213245e+01 -2.674089425394e+02 0.0 
0.0 0.0 -1.155929514419e+02 
-3.767701545917e+01 2.587801104790e+01 0.0 
2.587801104790e+01 -2.637761920993e+01 0.0 
0.0 0.0 -1.501659780354e+01 
-1.354643381261e+02 4.470120899502e+00 0.0 
4.470120899502e+00 -3.405850461343e+02 0.0 
0.0 0.0 -1.424148152781e+02 
-5.862618091875e+01 1.548632718358e+01 0.0 
1.548632718358e+01 -1.929532313550e+02 0.0 
0.0 0.0 -7.463678058003e+01 
-8.748484768602e+01 1.108437903850e+01 0.0 
1.108437903850e+01 -1.526699348936e+02 0.0 
0.0 0.0 -7.164643477388e+01 
-3.620190775292e+01 5.467838053098e+00 0.0 
5.467838053098e+00 -1.357070120452e+02 0.0 
0.0 0.0 -5.102511187533e+01 
-1.408590143499e+02 1.220788867221e+01 0.0 
1.220788867221e+01 -3.524810832008e+02 0.0 
0.0 0.0 -1.476020292652e+02 
-5.291839153637e+01 -2.086883783346e+01 0.0 
-2.086883783346e+01 -1.122091151320e+02 0.0 
0.0 0.0 -4.410998417150e+01 
-6.769223369649e+01 -5.643969451394e+00 0.0 
-5.643969451394e+00 -1.434426406911e+02 0.0 
0.0 0.0 -5.704552940279e+01 
-1.022451951389e+02 1.661963954562e+01 0.0 
1.661963954562e+01 -2.877515317401e+02 0.0 
0.0 0.0 -1.177207762155e+02 
-7.993476188685e+01 -5.710428329147e+00 0.0 
-5.710428329147e+00 -2.282532362059e+02 0.0 
0.0 0.0 -9.500091925287e+01 
-1.187885896752e+02 2.380422483252e+01 0.0 
2.380422483252e+01 -3.063452790246e+02 0.0 
0.0 0.0 -1.271401606099e+02 
-5.466922465477e+01 3.097707216697e+01 0.0 
3.097707216697e+01 -1.249190112521e+02 0.0 
0.0 0.0 -5.133994520332e+01 
-9.607875601590e+01 1.563751011721e+01 0.0 
1.563751011721e+01 -1.757637152915e+02 0.0 
0.0 0.0 -8.115274139222e+01 
-1.293891285755e+02 2.095508564039e+01 0.0 
2.095508564039e+01 -3.295706780472e+02 0.0 
0.0 0.0 -1.372879419868e+02 
-8.213222447164e+01 6.305975805848e+00 0.0 
6.305975805848e+00 -1.505116765247e+02 0.0 
0.0 0.0 -6.939317029891e+01 
-1.126683677150e+02 2.400223272610e+01 0.0 
2.400223272610e+01 -2.354456030707e+02 0.0 
0.0 0.0 -1.040341912357e+02 
-9.634007362982e+01 1.212102732309e+01 0.0 
1.212102732309e+01 -1.835988117695e+02 0.0 
0.0 0.0 -8.358166561980e+01 
-1.003225049905e+02 1.420565099825e+01 0.0 
1.420565099825e+01 -1.947100231566e+02 0.0 
0.0 0.0 -8.810975844415e+01 
-4.240321095501e+01 2.401817642473e+01 0.0 
2.401817642473e+01 -1.255805324304e+02 0.0 
0.0 0.0 -4.667838389471e+01 
-1.306031076751e+02 3.174505836319e+00 0.0 
3.174505836319e+00 -3.301410389700e+02 0.0 
0.0 0.0 -1.378232439935e+02 
-9.082359972436e+01 1.014521973841e+01 0.0 
1.014521973841e+01 -1.718212594808e+02 0.0 
0.0 0.0 -7.839345776156e+01 
-7.046725360982e+01 2.174182008267e+01 0.0 
2.174182008267e+01 -2.169271271763e+02 0.0 
0.0 0.0 -8.984796163697e+01 
-5.116679830129e+01 2.402490824593e+01 0.0 
2.402490824593e+01 -2.824980301364e+01 0.0 
0.0 0.0 -1.847381331253e+01 
-1.361740255139e+02 2.435661639188e+01 0.0 
2.435661639188e+01 -3.366833693179e+02 0.0 
0.0 0.0 -1.414572184495e+02 
-4.269150579064e+01 1.148467669060e+01 0.0 
1.148467669060e+01 -1.493485626318e+02 0.0 
0.0 0.0 -5.432259751675e+01 
-6.180387089373e+01 -4.206747041308e+00 0.0 
-4.206747041308e+00 -1.356803117683e+02 0.0 
0.0 0.0 -5.352633195105e+01 
-1.125083358268e+02 2.063468635658e+01 0.0 
2.063468635658e+01 -2.998312092957e+02 0.0 
0.0 0.0 -1.233018635367e+02 
-2.471950766584e+01 5.715419763476e-01 0.0 
5.715419763476e-01 -8.041837739588e+01 0.0 
0.0 0.0 -3.070445723251e+01 
-7.182178268577e+01 2.607964551804e+01 0.0 
2.607964551804e+01 -1.940284183603e+02 0.0 
0.0 0.0 -7.911507007398e+01 
-1.079971955486e+02 1.558527196529e+01 0.0 
1.558527196529e+01 -2.989835574827e+02 0.0 
0.0 0.0 -1.218928847926e+02 
-1.054817018399e+02 1.545827319834e+01 0.0 
1.545827319834e+01 -2.151094586547e+02 0.0 
0.0 0.0 -9.577734814839e+01 
-1.092024670529e+02 1.780654962588e+01 0.0 
1.780654962588e+01 -2.273439043000e+02 0.0 
0.0 0.0 -1.005639114059e+02 
-1.036414100911e+02 1.754956088157e+01 0.0 
1.754956088157e+01 -2.885376914539e+02 0.0 
0.0 0.0 -1.172537304635e+02 
-9.840506741362e+01 1.161518439502e+01 0.0 
1.161518439502e+01 -1.938986252990e+02 0.0 
0.0 0.0 -8.729110781380e+01 
-6.178980070602e+01 1.924560729871e+01 0.0 
1.924560729871e+01 -1.970994181166e+02 0.0 
0.0 0.0 -7.802205764413e+01 
-1.028797397884e+02 2.989338049402e+01 0.0 
2.989338049402e+01 -2.446570764455e+02 0.0 
0.0 0.0 -1.038610448702e+02 
-4.367314836789e+01 1.112523441047e+01 0.0 
1.112523441047e+01 -2.733578994957e+01 0.0 
0.0 0.0 -1.761290330372e+01 
-1.127436017379e+02 2.647353239075e+01 0.0 
2.647353239075e+01 -2.483221729796e+02 0.0 
0.0 0.0 -1.079197324152e+02 
-4.842769162728e+01 7.580086935192e+00 0.0 
7.580086935192e+00 -4.310644117301e+01 0.0 
0.0 0.0 -2.511870457292e+01 
-5.124292677381e+01 6.754685120679e+00 0.0 
6.754685120679e+00 -5.231307635631e+01 0.0 
0.0 0.0 -2.953444573709e+01 
-6.895507525385e+01 1.517501671603e+01 0.0 
1.517501671603e+01 -2.228709780770e+02 0.0 
0.0 0.0 -9.149281190372e+01 
-5.443558454128e+01 6.251803577864e+00 0.0 
6.251803577864e+00 -6.236377101888e+01 0.0 
0.0 0.0 -3.396580981091e+01 
-7.919845975047e+01 2.409799292069e+01 0.0 
2.409799292069e+01 -2.256130976012e+02 0.0 
0.0 0.0 -9.151288919161e+01 
-6.336002077172e+01 2.427582486795e+01 0.0 
2.427582486795e+01 -1.860900148988e+02 0.0 
0.0 0.0 -7.543641613134e+01 
-7.094726563321e+01 6.016795916419e+00 0.0 
6.016795916419e+00 -2.259609287493e+02 0.0 
0.0 0.0 -9.309477499488e+01 
-4.119039805666e+01 -8.696815868483e+00 0.0 
-8.696815868483e+00 -1.389547402067e+02 0.0 
0.0 0.0 -5.006677347381e+01 
-6.619914382980e+01 1.153414035801e+01 0.0 
1.153414035801e+01 -2.169430891647e+02 0.0 
0.0 0.0 -8.737539504422e+01 
-9.762991945988e+01 8.880840328322e+00 0.0 
8.880840328322e+00 -2.026975612358e+02 0.0 
0.0 0.0 -8.969824420870e+01 
-1.125668889468e+02 2.429416432084e+01 0.0 
2.429416432084e+01 -2.426691831021e+02 0.0 
0.0 0.0 -1.061708216147e+02 
-1.208253171263e+02 2.161732696443e+00 0.0 
2.161732696443e+00 -3.114045490535e+02 0.0 
0.0 0.0 -1.292689598539e+02 
-1.233586664825e+02 2.173349826219e+01 0.0 
2.173349826219e+01 -3.177601007066e+02 0.0 
0.0 0.0 -1.319356301567e+02 
-7.482500619362e+01 -2.443478695132e+00 0.0 
-2.443478695132e+00 -2.242201977754e+02 0.0 
0.0 0.0 -9.209827784961e+01 
-9.706927424404e+01 1.176317463309e+01 0.0 
1.176317463309e+01 -1.929040809822e+02 0.0 
0.0 0.0 -8.659200656789e+01 
-6.907063534875e+01 8.078926436990e+00 0.0 
8.078926436990e+00 -2.251116643071e+02 0.0 
0.0 0.0 -9.216099201396e+01 
-1.358711886637e+02 2.879445514462e+00 0.0 
2.879445514462e+00 -3.383217844552e+02 0.0 
0.0 0.0 -1.418578919357e+02 
-9.303198870463e+01 9.774321195477e+00 0.0 
9.774321195477e+00 -1.817954149437e+02 0.0 
0.0 0.0 -8.204822109451e+01 
-9.827517047247e+01 1.488297147743e+01 0.0 
1.488297147743e+01 -1.851076269392e+02 0.0 
0.0 0.0 -8.461483922351e+01 
-9.221450079960e+01 1.168832168786e+01 0.0 
1.168832168786e+01 -2.745712414086e+02 0.0 
0.0 0.0 -1.130727175640e+02 
-6.387044624758e+01 1.528285224186e+01 0.0 
1.528285224186e+01 -2.076312241675e+02 0.0 
0.0 0.0 -8.263076334213e+01 
-1.111319585034e+02 3.002754465694e+01 0.0 
3.002754465694e+01 -2.634586140393e+02 0.0 
0.0 0.0 -1.119771717628e+02 
-8.756901935204e+01 2.728141861228e+01 0.0 
2.728141861228e+01 -1.767566449004e+02 0.0 
0.0 0.0 -7.866593607960e+01 
-4.704441885121e+01 -1.445470666080e+01 0.0 
-1.445470666080e+01 -1.396217571267e+02 0.0 
0.0 0.0 -5.206837143882e+01 
-4.251191786003e+01 4.164827593267e+00 0.0 
4.164827593267e+00 -1.472823667737e+02 0.0 
0.0 0.0 -5.326287585255e+01 
-5.784290390740e+01 3.307279122220e+01 0.0 
3.307279122220e+01 -1.432535629927e+02 0.0 
0.0 0.0 -5.992006422551e+01 
-8.111502034119e+01 3.033972451093e+01 0.0 
3.033972451093e+01 -1.853282585006e+02 0.0 
0.0 0.0 -7.687096074336e+01 
-1.410418519179e+02 2.521928064131e+00 0.0 
2.521928064131e+00 -3.466980423421e+02 0.0 
0.0 0.0 -1.459219682780e+02 
-9.414679055502e+01 1.268710005154e+01 0.0 
1.268710005154e+01 -1.736678976856e+02 0.0 
0.0 0.0 -7.994440647219e+01 
-6.343269635329e+01 1.219614071954e+01 0.0 
1.219614071954e+01 -2.048449918556e+02 0.0 
0.0 0.0 -8.118782184919e+01 
-8.675558972239e+01 3.031068317383e+01 0.0 
3.031068317383e+01 -2.063025423054e+02 0.0 
0.0 0.0 -8.751743960833e+01 
-1.139432822448e+02 1.465383666267e+01 0.0 
1.465383666267e+01 -3.100088449040e+02 0.0 
0.0 0.0 -1.267856381446e+02 
-9.672055534425e+01 9.290444642672e+00 0.0 
9.290444642672e+00 -1.939659829864e+02 0.0 
0.0 0.0 -8.680596149919e+01 
-1.151289408774e+02 3.050735802260e+01 0.0 
3.050735802260e+01 -2.676011493524e+02 0.0 
0.0 0.0 -1.144190270689e+02 
-8.144637728666e+01 8.760202229540e+00 0.0 
8.760202229540e+00 -1.409320512934e+02 0.0 
0.0 0.0 -6.631352857401e+01 
-1.217977749757e+02 1.066235175939e+01 0.0 
1.066235175939e+01 -3.239119297466e+02 0.0 
0.0 0.0 -1.333129114167e+02 
-7.256920661947e+01 1.012262391529e+01 0.0 
1.012262391529e+01 -2.313118607425e+02 0.0 
0.0 0.0 -9.572447945366e+01 
-1.157710966757e+02 1.552812416807e+01 0.0 
1.552812416807e+01 -3.109043934510e+02 0.0 
0.0 0.0 -1.276026470380e+02 
-7.513639019446e+01 2.972077297542e+01 0.0 
2.972077297542e+01 -1.965797327774e+02 0.0 
0.0 0.0 -8.177604747704e+01 
-1.039950993930e+02 1.284199309709e+01 0.0 
1.284199309709e+01 -2.146070725720e+02 0.0 
0.0 0.0 -9.518065158951e+01 
-1.200978538871e+02 3.128476197248e+01 0.0 
3.128476197248e+01 -2.738075173257e+02 0.0 
0.0 0.0 -1.177716113639e+02 
-8.254100060997e+01 1.000129493070e+01 0.0 
1.000129493070e+01 -2.567542310619e+02 0.0 
0.0 0.0 -1.073948224663e+02 
-4.033403996613e+01 5.114530314738e+00 0.0 
5.114530314738e+00 -1.454481370325e+02 0.0 
0.0 0.0 -5.329373382388e+01 
-1.109531809700e+02 2.564862141702e+01 0.0 
2.564862141702e+01 -2.837096316258e+02 0.0 
0.0 0.0 -1.179988437787e+02 
-7.710614512736e+01 2.519680823788e+01 0.0 
2.519680823788e+01 -2.118662993482e+02 0.0 
0.0 0.0 -8.617181795754e+01 
-6.032451328708e+01 1.554101985248e+01 0.0 
1.554101985248e+01 -1.932119770537e+02 0.0 
0.0 0.0 -7.543118228601e+01 
-8.839849282694e+01 1.343318118434e+01 0.0 
1.343318118434e+01 -2.650613933652e+02 0.0 
0.0 0.0 -1.093046042972e+02 
-1.194869285990e+02 9.362922903107e+00 0.0 
9.362922903107e+00 -3.165053715933e+02 0.0 
0.0 0.0 -1.303976900577e+02 
-4.212210100255e+01 -3.219195334736e+00 0.0 
-3.219195334736e+00 -1.437614234084e+02 0.0 
0.0 0.0 -5.287871988825e+01 
-7.538262031548e+01 8.751591481379e+00 0.0 
8.751591481379e+00 -2.404788822556e+02 0.0 
0.0 0.0 -1.003528170086e+02 
-9.081786198857e+01 2.221556482117e+01 0.0 
2.221556482117e+01 -1.697064691262e+02 0.0 
0.0 0.0 -7.775729933443e+01 
-1.421341042702e+02 3.963324325774e+00 0.0 
3.963324325774e+00 -3.474505564725e+02 0.0 
0.0 0.0 -1.464753982228e+02 
-9.417829811695e+01 2.429716697892e+01 0.0 
2.429716697892e+01 -1.853701230134e+02 0.0 
0.0 0.0 -8.346452633911e+01 
-1.065281116643e+02 2.651941537001e+01 0.0 
2.651941537001e+01 -2.700925474624e+02 0.0 
0.0 0.0 -1.125861977380e+02 
-8.709996883707e+01 1.971020254710e+01 0.0 
1.971020254710e+01 -1.543947323657e+02 0.0 
0.0 0.0 -7.204841036082e+01 
-7.802772982196e+01 1.367984243413e+01 0.0 
1.367984243413e+01 -1.256112846353e+02 0.0 
0.0 0.0 -6.069170433718e+01 
-8.991024703478e+01 2.800997424018e+01 0.0 
2.800997424018e+01 -1.934368888377e+02 0.0 
0.0 0.0 -8.459544653851e+01 
-1.182563784309e+02 1.972240009599e+01 0.0 
1.972240009599e+01 -3.117197004775e+02 0.0 
0.0 0.0 -1.285928236725e+02 
-1.272452926138e+02 4.692544803495e+00 0.0 
4.692544803495e+00 -3.230708720222e+02 0.0 
0.0 0.0 -1.346948493908e+02 
-8.853019712672e+01 1.061922267616e+01 0.0 
1.061922267616e+01 -1.621163809375e+02 0.0 
0.0 0.0 -7.479397341928e+01 
-1.065333069870e+02 1.557224961632e+01 0.0 
1.557224961632e+01 -2.258076686867e+02 0.0 
0.0 0.0 -9.930229270210e+01 
-8.299158598368e+01 1.683323857426e+01 0.0 
1.683323857426e+01 -1.397260992777e+02 0.0 
0.0 0.0 -6.641530557842e+01 
-5.324618876387e+01 1.103842929066e+01 0.0 
1.103842929066e+01 -1.760595421263e+02 0.0 
0.0 0.0 -6.575726048551e+01 
-1.162161678511e+02 2.835545702540e+01 0.0 
2.835545702540e+01 -2.887923595555e+02 0.0 
0.0 0.0 -1.211025582220e+02 
-1.027137503918e+02 1.056225483442e+01 0.0 
1.056225483442e+01 -2.148650492507e+02 0.0 
0.0 0.0 -9.487363989275e+01 
-7.281049995719e+01 2.658219202884e+01 0.0 
2.658219202884e+01 -2.079978215849e+02 0.0 
0.0 0.0 -8.648860555171e+01 
-7.637363564732e+01 2.790953325964e+01 0.0 
2.790953325964e+01 -2.109879634238e+02 0.0 
0.0 0.0 -8.756443488239e+01 
-5.835374633101e+01 1.156097782781e+01 0.0 
1.156097782781e+01 -1.899248967336e+02 0.0 
0.0 0.0 -7.264942562476e+01 
-9.280215110233e+01 1.286981345933e+01 0.0 
1.286981345933e+01 -1.738461821663e+02 0.0 
0.0 0.0 -7.959449998058e+01 
-6.395337278255e+01 3.236088252247e+01 0.0 
3.236088252247e+01 -1.282025184819e+02 0.0 
0.0 0.0 -5.462992247262e+01 
-8.386263633564e+01 2.357601698978e+01 0.0 
2.357601698978e+01 -2.399123868587e+02 0.0 
0.0 0.0 -9.941244500188e+01 
-6.159423429949e+01 3.134010836480e+01 0.0 
3.134010836480e+01 -1.277737334711e+02 0.0 
0.0 0.0 -5.295244215653e+01 
-1.074181295802e+02 1.870849091429e+01 0.0 
1.870849091429e+01 -2.938835166165e+02 0.0 
0.0 0.0 -1.199904938590e+02 
-1.260318040418e+02 2.910281163104e+01 0.0 
2.910281163104e+01 -3.066834484967e+02 0.0 
0.0 0.0 -1.294145757615e+02 
-6.179400689916e+01 7.819078569327e+00 0.0 
7.819078569327e+00 -2.006027305344e+02 0.0 
0.0 0.0 -7.835960449840e+01 
-3.315474045041e+01 -6.036240696081e+00 0.0 
-6.036240696081e+00 -1.236777766938e+02 0.0 
0.0 0.0 -4.848264731417e+01 
-1.082734908040e+02 1.856540645722e+01 0.0 
1.856540645722e+01 -2.292111361273e+02 0.0 
0.0 0.0 -1.008453880794e+02 
-6.796981064913e+01 3.123057443781e+01 0.0 
3.123057443781e+01 -1.296208203358e+02 0.0 
0.0 0.0 -5.524357187064e+01 
-7.601346023525e+01 8.016387435166e-01 0.0 
8.016387435166e-01 -2.321617887204e+02 0.0 
0.0 0.0 -9.611234270545e+01 
-1.206434573375e+02 2.643710681896e+01 0.0 
2.643710681896e+01 -3.020813772677e+02 0.0 
0.0 0.0 -1.264174503815e+02 
-9.189674400746e+01 1.330356033436e+01 0.0 
1.330356033436e+01 -1.640059746136e+02 0.0 
0.0 0.0 -7.637081558632e+01 
-1.220970156477e+02 4.877200044974e+00 0.0 
4.877200044974e+00 -3.148472296661e+02 0.0 
0.0 0.0 -1.306832735941e+02 
-6.017866214070e+01 2.200062452882e+01 0.0 
2.200062452882e+01 -1.834285095091e+02 0.0 
0.0 0.0 -7.294539071804e+01 
-3.006783158854e+01 -3.888608201927e+00 0.0 
-3.888608201927e+00 -1.242455366759e+02 0.0 
0.0 0.0 -4.906110612486e+01 
-1.470454256192e+02 3.650931571574e+00 0.0 
3.650931571574e+00 -3.567232742202e+02 0.0 
0.0 0.0 -1.507306099518e+02 
-8.274433923870e+01 2.973619530826e+01 0.0 
2.973619530826e+01 -2.014545498719e+02 0.0 
0.0 0.0 -8.283666362560e+01 
-9.702572000743e+01 2.201457286046e+01 0.0 
2.201457286046e+01 -2.697749414022e+02 0.0 
0.0 0.0 -1.096401984229e+02 
-1.153981308138e+02 2.851896510583e+01 0.0 
2.851896510583e+01 -2.785907733035e+02 0.0 
0.0 0.0 -1.177966712352e+02 
-3.876361492686e+01 -2.935988653092e-01 0.0 
-2.935988653092e-01 -1.234127389505e+02 0.0 
0.0 0.0 -5.050638038791e+01 
-1.197803484723e+02 3.695155554647e+00 0.0 
3.695155554647e+00 -3.136038196092e+02 0.0 
0.0 0.0 -1.296152504245e+02 
-4.653942920774e+01 2.402385358569e+01 0.0 
2.402385358569e+01 -1.356546307542e+02 0.0 
0.0 0.0 -5.017968479196e+01 
-8.523667807735e+01 1.155719741748e+01 0.0 
1.155719741748e+01 -1.429986576878e+02 0.0 
0.0 0.0 -6.807060072955e+01 
-1.056289209681e+02 -2.526643051276e+00 0.0 
-2.526643051276e+00 -2.560655864388e+02 0.0 
0.0 0.0 -1.046249674064e+02 
-6.099028861523e+01 1.119222492357e+01 0.0 
1.119222492357e+01 -2.022690312453e+02 0.0 
0.0 0.0 -7.882287112258e+01 
-1.372123224926e+02 4.222813860354e+00 0.0 
4.222813860354e+00 -3.391867185117e+02 0.0 
0.0 0.0 -1.425197123013e+02 
-8.229059161464e+01 2.642127320997e+01 0.0 
2.642127320997e+01 -2.276504971910e+02 0.0 
0.0 0.0 -9.423446052629e+01 
-5.604301975664e+01 1.107305338142e+01 0.0 
1.107305338142e+01 -1.876989203010e+02 0.0 
0.0 0.0 -7.158211292780e+01 
-8.217779489217e+01 2.943150715322e+01 0.0 
2.943150715322e+01 -2.034012018149e+02 0.0 
0.0 0.0 -8.527369901211e+01 
-3.645396078215e+01 -1.831948058476e+01 0.0 
-1.831948058476e+01 -1.166058517433e+02 0.0 
0.0 0.0 -4.772730918416e+01 
-9.808859595009e+01 2.936027061548e+01 0.0 
2.936027061548e+01 -2.408990779940e+02 0.0 
0.0 0.0 -1.012963021832e+02 
-1.085545955546e+02 1.976625545977e+01 0.0 
1.976625545977e+01 -2.945921249286e+02 0.0 
0.0 0.0 -1.205440161450e+02 
-1.216924891506e+02 3.036259969974e+01 0.0 
3.036259969974e+01 -2.755655689104e+02 0.0 
0.0 0.0 -1.187774174183e+02 
-1.068471008937e+02 2.946630290525e+01 0.0 
2.946630290525e+01 -2.598725866144e+02 0.0 
0.0 0.0 -1.096159062524e+02 
-4.682815815875e+01 4.851461109683e+00 0.0 
4.851461109683e+00 -1.595847086063e+02 0.0 
0.0 0.0 -5.791474871421e+01 
-1.228066043871e+02 3.485708609983e+00 0.0 
3.485708609983e+00 -3.125420547906e+02 0.0 
0.0 0.0 -1.302045977533e+02 
-1.034778864799e+02 1.019331622751e+01 0.0 
1.019331622751e+01 -2.234522424672e+02 0.0 
0.0 0.0 -9.767903868413e+01 
-1.408442657028e+02 2.630283801618e+01 0.0 
2.630283801618e+01 -3.417507846620e+02 0.0 
0.0 0.0 -1.443785151094e+02 
-1.136513007411e+02 2.182359042009e+01 0.0 
2.182359042009e+01 -3.005700131006e+02 0.0 
0.0 0.0 -1.238663941525e+02 
-6.260253659937e+01 1.896873730277e+01 0.0 
1.896873730277e+01 -1.962113474321e+02 0.0 
0.0 0.0 -7.839533870773e+01 
-8.961197367410e+01 2.961751868612e+01 0.0 
2.961751868612e+01 -2.220284817231e+02 0.0 
0.0 0.0 -9.309213661917e+01 
-1.406632289724e+02 1.365238670157e+00 0.0 
1.365238670157e+00 -3.439440153567e+02 0.0 
0.0 0.0 -1.449821732987e+02 
-1.047194370312e+02 -7.325652654455e-01 0.0 
-7.325652654455e-01 -2.343828782094e+02 0.0 
0.0 0.0 -9.734068673014e+01 
-1.025912298060e+02 2.726299907494e+01 0.0 
2.726299907494e+01 -2.558778895979e+02 0.0 
0.0 0.0 -1.071407358211e+02 
-8.402174293357e+01 8.409767377045e+00 0.0 
8.409767377045e+00 -1.507603681968e+02 0.0 
0.0 0.0 -7.003463333910e+01 
-1.322709806455e+02 4.482385074235e+00 0.0 
4.482385074235e+00 -3.311352894068e+02 0.0 
0.0 0.0 -1.386218810157e+02 
-1.264404906254e+02 6.441524532377e+00 0.0 
6.441524532377e+00 -3.248859000515e+02 0.0 
0.0 0.0 -1.349979172031e+02 
-4.523494615886e+01 2.819580573546e-01 0.0 
2.819580573546e-01 -6.691354646603e+01 0.0 
0.0 0.0 -3.324454778747e+01 
-4.508188042230e+01 -2.277825539148e-03 0.0 
-2.277825539148e-03 -6.690495690327e+01 0.0 
0.0 0.0 -3.319605119767e+01 
-9.534499027344e+01 2.406703026455e+01 0.0 
2.406703026455e+01 -1.775023491929e+02 0.0 
0.0 0.0 -8.145420183990e+01 
-9.435354844966e+01 2.740257332554e+01 0.0 
2.740257332554e+01 -2.375383799194e+02 0.0 
0.0 0.0 -9.916757851070e+01 
-1.093743283373e+02 -1.627361612597e+00 0.0 
-1.627361612597e+00 -2.639227096013e+02 0.0 
0.0 0.0 -1.086263430640e+02 
-9.303768455134e+01 2.951911563199e+01 0.0 
2.951911563199e+01 -1.971717013963e+02 0.0 
0.0 0.0 -8.666281578428e+01 
-7.821777076922e+01 2.557463777471e+01 0.0 
2.557463777471e+01 -2.244600675140e+02 0.0 
0.0 0.0 -9.325230725075e+01 
-1.310820665435e+02 1.505398658835e+01 0.0 
1.505398658835e+01 -3.372645167252e+02 0.0 
0.0 0.0 -1.401039749806e+02 
-6.518880853123e+01 2.239963741379e+01 0.0 
2.239963741379e+01 -2.005220213920e+02 0.0 
0.0 0.0 -8.163649194916e+01 
-1.167426393061e+02 1.767885925181e+01 0.0 
1.767885925181e+01 -2.637073194649e+02 0.0 
0.0 0.0 -1.137349876313e+02 
-7.133360792806e+01 1.207770928395e+01 0.0 
1.207770928395e+01 -1.045374477827e+02 0.0 
0.0 0.0 -5.236131671322e+01 
-7.324605365222e+01 2.428479591066e+01 0.0 
2.428479591066e+01 -2.070338635650e+02 0.0 
0.0 0.0 -8.468012395480e+01 
-9.958399488753e+01 -2.279299342178e+00 0.0 
-2.279299342178e+00 -2.546864602418e+02 0.0 
0.0 0.0 -1.040000472515e+02 
-4.375659599535e+01 1.074916507404e+01 0.0 
1.074916507404e+01 -1.486385146060e+02 0.0 
0.0 0.0 -5.297510078286e+01 
-9.538720769846e+01 -5.846500557346e+00 0.0 
-5.846500557346e+00 -2.290363531232e+02 0.0 
0.0 0.0 -9.475589590760e+01 
-8.779506627430e+01 2.852810903373e+01 0.0 
2.852810903373e+01 -2.195615858502e+02 0.0 
0.0 0.0 -9.110972886797e+01 
-8.407694206865e+01 2.988390634484e+01 0.0 
2.988390634484e+01 -1.875992828309e+02 0.0 
0.0 0.0 -7.946029491905e+01 
-8.618277260519e+01 1.115398242657e+01 0.0 
1.115398242657e+01 -1.526260944341e+02 0.0 
0.0 0.0 -7.124266011179e+01 
-9.681181712428e+01 2.772740650630e+01 0.0 
2.772740650630e+01 -2.132071153982e+02 0.0 
0.0 0.0 -9.260567975675e+01 
-1.002920120399e+02 2.937671900996e+01 0.0 
2.937671900996e+01 -2.173998023941e+02 0.0 
0.0 0.0 -9.490754433021e+01 
-1.681376328786e+01 5.941107196070e-03 0.0 
5.941107196070e-03 -5.942911597486e+01 0.0 
0.0 0.0 -2.114522421170e+01 
-8.788440584678e+01 -5.921432957248e+00 0.0 
-5.921432957248e+00 -2.159405997873e+02 0.0 
0.0 0.0 -8.719858747283e+01 
-6.501389797880e+01 3.139061163016e+01 0.0 
3.139061163016e+01 -1.291413454351e+02 0.0 
0.0 0.0 -5.350598704285e+01 
-9.077986752067e+01 2.573165588339e+01 0.0 
2.573165588339e+01 -1.806557052422e+02 0.0 
0.0 0.0 -8.103067182886e+01 
-9.452292505900e+01 2.736514658672e+01 0.0 
2.736514658672e+01 -1.863896013746e+02 0.0 
0.0 0.0 -8.387375793007e+01 
-1.239907415699e+02 1.881294188500e+01 0.0 
1.881294188500e+01 -3.226981324867e+02 0.0 
0.0 0.0 -1.336066622170e+02 
-3.395720038470e+01 -1.399488882501e+00 0.0 
-1.399488882501e+00 -8.963550144763e+01 0.0 
0.0 0.0 -3.485467687673e+01 
-4.233138937723e+01 -1.050624021067e+01 0.0 
-1.050624021067e+01 -1.365410150701e+02 0.0 
0.0 0.0 -5.052287358193e+01 
-7.925992034066e+01 2.979099782903e+01 0.0 
2.979099782903e+01 -1.990652044634e+02 0.0 
0.0 0.0 -8.252431975728e+01 
-9.316620111851e+01 -6.470200185027e+00 0.0 
-6.470200185027e+00 -2.171941441461e+02 0.0 
0.0 0.0 -8.951376265484e+01 
-5.789749605639e+01 1.221977334422e+01 0.0 
1.221977334422e+01 -5.594556901946e+01 0.0 
0.0 0.0 -3.208634365717e+01 
-5.998059621114e+01 1.086548202863e+01 0.0 
1.086548202863e+01 -6.522070704833e+01 0.0 
0.0 0.0 -3.619899279224e+01 
-8.954982207042e+01 1.404440228539e+01 0.0 
1.404440228539e+01 -1.545446067534e+02 0.0 
0.0 0.0 -7.282832864713e+01 
-3.905871120870e+01 2.431467785654e+01 0.0 
2.431467785654e+01 -1.057192490039e+02 0.0 
0.0 0.0 -3.706676126256e+01 
-9.833730091827e+01 -3.514444947016e+00 0.0 
-3.514444947016e+00 -2.435037460635e+02 0.0 
0.0 0.0 -9.932077802210e+01 
-1.113731969940e+02 1.315769743511e+01 0.0 
1.315769743511e+01 -3.039992722487e+02 0.0 
0.0 0.0 -1.242117407728e+02 
-3.820452915647e+01 -2.423361273272e+00 0.0 
-2.423361273272e+00 -1.389903300672e+02 0.0 
0.0 0.0 -5.153109772709e+01 
-1.339208864889e+02 3.040351306959e+01 0.0 
3.040351306959e+01 -3.173221870075e+02 0.0 
0.0 0.0 -1.349729220489e+02 
-1.019571128294e+02 1.340802174659e+01 0.0 
1.340802174659e+01 -2.041419784280e+02 0.0 
0.0 0.0 -9.142972737723e+01 
-1.012183240628e+02 -3.837267423749e+00 0.0 
-3.837267423749e+00 -2.329943233813e+02 0.0 
0.0 0.0 -9.507199873395e+01 
-1.260124510728e+02 2.039591561789e+00 0.0 
2.039591561789e+00 -3.195928342013e+02 0.0 
0.0 0.0 -1.332815855822e+02 
-1.137705439951e+01 -1.234974118857e+00 0.0 
-1.234974118857e+00 -4.220544545140e+01 0.0 
0.0 0.0 -1.394739809966e+01 
-1.072601216922e+02 1.062438250520e+01 0.0 
1.062438250520e+01 -2.965931634184e+02 0.0 
0.0 0.0 -1.214427778679e+02 
-7.842342600835e+01 2.824628304178e+01 0.0 
2.824628304178e+01 -2.004440567864e+02 0.0 
0.0 0.0 -8.291113498230e+01 
-1.166145696139e+01 -8.055604030391e-01 0.0 
-8.055604030391e-01 -4.209542862622e+01 0.0 
0.0 0.0 -1.380831029167e+01 
-9.898610784041e+01 1.130866822571e+01 0.0 
1.130866822571e+01 -2.026062418706e+02 0.0 
0.0 0.0 -9.007770491329e+01 
-3.741261663993e+01 -4.689142263617e+00 0.0 
-4.689142263617e+00 -1.327294288859e+02 0.0 
0.0 0.0 -5.014520770417e+01 
-9.022192490991e+01 2.866432410651e+01 0.0 
2.866432410651e+01 -1.810609232570e+02 0.0 
0.0 0.0 -8.098485445006e+01 
-8.011807146747e+01 3.004971712022e+01 0.0 
3.004971712022e+01 -1.872096112056e+02 0.0 
0.0 0.0 -7.948099350010e+01 
-7.543607429272e+01 -5.852900644038e-01 0.0 
-5.852900644038e-01 -2.298927205601e+02 0.0 
0.0 0.0 -9.521061773715e+01 
-9.398726921490e+01 3.161672969642e+00 0.0 
3.161672969642e+00 -2.694617899924e+02 0.0 
0.0 0.0 -1.099373083475e+02 
-1.026312004412e+02 1.334475563420e+01 0.0 
1.334475563420e+01 -2.137041639120e+02 0.0 
0.0 0.0 -9.450060930597e+01 
-1.025563232558e+02 4.620562876195e+00 0.0 
4.620562876195e+00 -2.877438908188e+02 0.0 
0.0 0.0 -1.166900642224e+02 
-8.065227079267e+01 2.833718048650e+01 0.0 
2.833718048650e+01 -2.139101610596e+02 0.0 
0.0 0.0 -8.853720762658e+01 
-7.540045484807e+01 2.711570892477e+01 0.0 
2.711570892477e+01 -1.974175563031e+02 0.0 
0.0 0.0 -8.019772146957e+01 
-4.663787108097e+01 3.283261251379e+01 0.0 
3.283261251379e+01 -3.200921912869e+01 0.0 
0.0 0.0 -2.032713619072e+01 
-3.385550176193e+01 -3.605476578659e+00 0.0 
-3.605476578659e+00 -1.295376423368e+02 0.0 
0.0 0.0 -4.937707176012e+01 
-1.111647616190e+02 2.891005039438e+01 0.0 
2.891005039438e+01 -2.745001708732e+02 0.0 
0.0 0.0 -1.152994797477e+02 
-8.435916266795e+01 1.628766719523e+01 0.0 
1.628766719523e+01 -1.364002185079e+02 0.0 
0.0 0.0 -6.582781435275e+01 
-1.152933873536e+02 2.714774407693e+01 0.0 
2.714774407693e+01 -2.880888754677e+02 0.0 
0.0 0.0 -1.206146788464e+02 
-4.978643784739e+01 2.816778797911e+01 0.0 
2.816778797911e+01 -1.393584867086e+02 0.0 
0.0 0.0 -5.423967984724e+01 
-1.023581273501e+02 2.079006773662e+01 0.0 
2.079006773662e+01 -2.050393440311e+02 0.0 
0.0 0.0 -9.181924141436e+01 
-1.157679173497e+02 2.999934996796e+01 0.0 
2.999934996796e+01 -2.789029965066e+02 0.0 
0.0 0.0 -1.180012741569e+02 
-6.121670766788e+01 1.011210655932e+01 0.0 
1.011210655932e+01 -7.426307447019e+01 0.0 
0.0 0.0 -3.946761022124e+01 
-1.110761073642e+02 2.748866692125e+01 0.0 
2.748866692125e+01 -2.741077143437e+02 0.0 
0.0 0.0 -1.151551465123e+02 
-1.276094905654e+02 3.416809402715e+00 0.0 
3.416809402715e+00 -3.205811460766e+02 0.0 
0.0 0.0 -1.340571909926e+02 
-8.964666356807e+01 2.677709154371e+01 0.0 
2.677709154371e+01 -2.341666708980e+02 0.0 
0.0 0.0 -9.669063952049e+01 
-9.412634355179e+01 -4.059198510176e+00 0.0 
-4.059198510176e+00 -2.354899837114e+02 0.0 
0.0 0.0 -9.518632219993e+01 
-1.015919325644e+02 -3.550679844020e+00 0.0 
-3.550679844020e+00 -2.482562880189e+02 0.0 
0.0 0.0 -1.020058365143e+02 
-1.118444969229e+02 2.128252221081e+01 0.0 
2.128252221081e+01 -2.318640973481e+02 0.0 
0.0 0.0 -1.027125782813e+02 
-8.774893978773e+01 1.698724417711e+00 0.0 
1.698724417711e+00 -2.505542624623e+02 0.0 
0.0 0.0 -1.036340466937e+02 
-8.599613210421e+01 2.956892421585e+01 0.0 
2.956892421585e+01 -2.039848218894e+02 0.0 
0.0 0.0 -8.536740411690e+01 
-7.621029075958e+01 2.104288312169e+01 0.0 
2.104288312169e+01 -2.328408747766e+02 0.0 
0.0 0.0 -9.684390747430e+01 
-1.125287761994e+02 6.297891480751e+00 0.0 
6.297891480751e+00 -3.061697727668e+02 0.0 
0.0 0.0 -1.252095646899e+02 
-6.941140955771e+01 2.308763097597e+01 0.0 
2.308763097597e+01 -2.023638078605e+02 0.0 
0.0 0.0 -8.289255399124e+01 
-4.873777282038e+01 5.483631353187e+00 0.0 
5.483631353187e+00 -1.689131922048e+02 0.0 
0.0 0.0 -6.196479580523e+01 
-7.972938609098e+01 6.951963130664e+00 0.0 
6.951963130664e+00 -2.488297882717e+02 0.0 
0.0 0.0 -1.044870210878e+02 
-5.117108360438e+01 1.084589490970e+01 0.0 
1.084589490970e+01 -1.741904829719e+02 0.0 
0.0 0.0 -6.472382104660e+01 
-9.375531885379e+01 2.698881801909e+01 0.0 
2.698881801909e+01 -1.969597278663e+02 0.0 
0.0 0.0 -8.681451401604e+01 
-5.171587183325e+01 5.744913431750e+00 0.0 
5.744913431750e+00 -1.728178839632e+02 0.0 
0.0 0.0 -6.401757913368e+01 
-8.848699130064e+01 3.037732180209e+01 0.0 
3.037732180209e+01 -1.933030126453e+02 0.0 
0.0 0.0 -8.413700118378e+01 
-1.194958415286e+02 2.089801663054e+01 0.0 
2.089801663054e+01 -3.125039473069e+02 0.0 
0.0 0.0 -1.291999366506e+02 
-1.130871637727e+02 1.770149635530e+01 0.0 
1.770149635530e+01 -3.054183605500e+02 0.0 
0.0 0.0 -1.251516572968e+02 
-6.889176438915e+01 2.484939696480e+01 0.0 
2.484939696480e+01 -2.043085210486e+02 0.0 
0.0 0.0 -8.473045380054e+01 
-8.373406044612e+01 1.178895920978e+01 0.0 
1.178895920978e+01 -1.434722901665e+02 0.0 
0.0 0.0 -6.776190518380e+01 
-1.311035644391e+02 1.856058858023e+00 0.0 
1.856058858023e+00 -3.277895991280e+02 0.0 
0.0 0.0 -1.372679490701e+02 
-1.324123113511e+02 3.262581802659e+00 0.0 
3.262581802659e+00 -3.286672143618e+02 0.0 
0.0 0.0 -1.379238577139e+02 
-3.950684384054e+01 2.797284701885e+01 0.0 
2.797284701885e+01 -9.097744332997e+01 0.0 
0.0 0.0 -3.522900438829e+01 
-9.263379570424e+01 2.833929387986e+01 0.0 
2.833929387986e+01 -2.096434014764e+02 0.0 
0.0 0.0 -9.028315915418e+01 
-1.465766581393e+02 1.963120892828e+00 0.0 
1.963120892828e+00 -3.559761209490e+02 0.0 
0.0 0.0 -1.503658337265e+02 
-5.244974739579e+01 2.945809238123e+01 0.0 
2.945809238123e+01 -7.081580539782e+01 0.0 
0.0 0.0 -3.227527886913e+01 
-1.072623743325e+02 -2.399091742104e+00 0.0 
-2.399091742104e+00 -2.524665558024e+02 0.0 
0.0 0.0 -1.038577775894e+02 
-4.791502245744e+01 3.325668058831e+01 0.0 
3.325668058831e+01 -3.112861877945e+01 0.0 
0.0 0.0 -2.127285992396e+01 
-1.360721858569e+02 1.634799897446e+00 0.0 
1.634799897446e+00 -3.359938555024e+02 0.0 
0.0 0.0 -1.412198124078e+02 
-4.643689087169e+01 1.094331709595e+01 0.0 
1.094331709595e+01 -1.613869965023e+02 0.0 
0.0 0.0 -5.902332310356e+01 
-1.062730371182e+02 -1.597393117267e+00 0.0 
-1.597393117267e+00 -2.403070018442e+02 0.0 
0.0 0.0 -9.996172261034e+01 
-9.652785333283e+01 2.103512684817e+01 0.0 
2.103512684817e+01 -2.693956878614e+02 0.0 
0.0 0.0 -1.099243915232e+02 
-8.726359030195e+01 1.491188007399e+01 0.0 
1.491188007399e+01 -1.455531585682e+02 0.0 
0.0 0.0 -6.944502466104e+01 
-8.170072953589e+01 1.280021103800e+01 0.0 
1.280021103800e+01 -1.346201472919e+02 0.0 
0.0 0.0 -6.449626304833e+01 
-8.442753336322e+01 2.858450430756e+01 0.0 
2.858450430756e+01 -2.167954151151e+02 0.0 
0.0 0.0 -8.905768780604e+01 
-5.400860928361e+01 1.622881234855e+01 0.0 
1.622881234855e+01 -3.848566073221e+01 0.0 
0.0 0.0 -2.423025865547e+01 
-5.562369853430e+01 1.362049316103e+01 0.0 
1.362049316103e+01 -4.699259967618e+01 0.0 
0.0 0.0 -2.807611067581e+01 
-1.370259916968e+02 2.994485055451e+00 0.0 
2.994485055451e+00 -3.367171296895e+02 0.0 
0.0 0.0 -1.417229364159e+02 
-1.002230714470e+02 5.726709109526e+00 0.0 
5.726709109526e+00 -2.801851959282e+02 0.0 
0.0 0.0 -1.161543312786e+02 
-8.073489390279e+01 2.278699964891e+00 0.0 
2.278699964891e+00 -2.463233993013e+02 0.0 
0.0 0.0 -1.024920202898e+02 
-1.044308312284e+02 9.910111508802e+00 0.0 
9.910111508802e+00 -2.952622310488e+02 0.0 
0.0 0.0 -1.198286728134e+02 
-7.274580814437e+01 5.537283968814e+00 0.0 
5.537283968814e+00 -2.317036040213e+02 0.0 
0.0 0.0 -9.611991806452e+01 
-4.828375813591e+01 1.067686204046e+01 0.0 
1.067686204046e+01 -1.621348518715e+02 0.0 
0.0 0.0 -5.895580160112e+01 
-4.458141835529e+01 8.295792174339e+00 0.0 
8.295792174339e+00 -3.295513130025e+01 0.0 
0.0 0.0 -2.044237733337e+01 
-7.704533968025e+01 1.431016426534e+01 0.0 
1.431016426534e+01 -1.151873434491e+02 0.0 
0.0 0.0 -5.726980493879e+01 
-4.554197508535e+01 1.395742038740e-01 0.0 
1.395742038740e-01 -6.722878389031e+01 0.0 
0.0 0.0 -3.343122769270e+01 
-1.144207859999e+02 1.876986660106e+01 0.0 
1.876986660106e+01 -3.062010924679e+02 0.0 
0.0 0.0 -1.257865635403e+02 
-6.566898850645e+01 2.146663176785e+01 0.0 
2.146663176785e+01 -1.988843367238e+02 0.0 
0.0 0.0 -8.108883738550e+01 
-1.341830593186e+02 2.303086874703e+01 0.0 
2.303086874703e+01 -3.354704760970e+02 0.0 
0.0 0.0 -1.404960606247e+02 
-1.357536765073e+02 -2.234979068315e-01 0.0 
-2.234979068315e-01 -3.317210154332e+02 0.0 
0.0 0.0 -1.398424075821e+02 
-7.715941141862e+01 8.086058902875e+00 0.0 
8.086058902875e+00 -2.423848347356e+02 0.0 
0.0 0.0 -1.009679513631e+02 
-1.525945569006e+02 4.486186502583e+00 0.0 
4.486186502583e+00 -3.668412950361e+02 0.0 
0.0 0.0 -1.554307555810e+02 
-5.580899279941e+01 1.439878545393e+00 0.0 
1.439878545393e+00 -1.820778039516e+02 0.0 
0.0 0.0 -6.916086748895e+01 
-1.278130843101e+02 2.371487180734e+01 0.0 
2.371487180734e+01 -3.230008272656e+02 0.0 
0.0 0.0 -1.348441734727e+02 
-8.066026670773e+01 2.706561842207e+01 0.0 
2.706561842207e+01 -2.156532417559e+02 0.0 
0.0 0.0 -8.849405253910e+01 
-9.291828613800e+01 2.531122047117e+01 0.0 
2.531122047117e+01 -2.479429698702e+02 0.0 
0.0 0.0 -1.018583768025e+02 
-1.284278950509e+02 1.378836829134e+01 0.0 
1.378836829134e+01 -3.323503702888e+02 0.0 
0.0 0.0 -1.378334796019e+02 
-7.575001883342e+01 -1.289096803073e+01 0.0 
-1.289096803073e+01 -1.818054994938e+02 0.0 
0.0 0.0 -7.551750448586e+01 
-8.908067421800e+01 2.908015729825e+01 0.0 
2.908015729825e+01 -2.066641906508e+02 0.0 
0.0 0.0 -8.790389472549e+01 
-7.584305635371e+01 3.826392188948e+00 0.0 
3.826392188948e+00 -2.368337061293e+02 0.0 
0.0 0.0 -9.819088355183e+01 
-8.398517004322e+01 3.045899724729e+01 0.0 
3.045899724729e+01 -1.900642506753e+02 0.0 
0.0 0.0 -8.181482621557e+01 
-4.873325039715e+01 2.642851651334e+01 0.0 
2.642851651334e+01 -1.363001393141e+02 0.0 
0.0 0.0 -5.224732993826e+01 
-9.669033133404e+01 2.398816607926e+01 0.0 
2.398816607926e+01 -2.611643743884e+02 0.0 
0.0 0.0 -1.069564117167e+02 
-7.075145122149e+01 1.783208606371e+00 0.0 
1.783208606371e+00 -2.235710844018e+02 0.0 
0.0 0.0 -9.208174768962e+01 
-1.037001962284e+02 -1.909843136200e+00 0.0 
-1.909843136200e+00 -2.626587245659e+02 0.0 
0.0 0.0 -1.078932290661e+02 
-8.703590498068e+01 2.919332001638e+01 0.0 
2.919332001638e+01 -1.902501418783e+02 0.0 
0.0 0.0 -8.200368543834e+01 
-4.919474851561e+01 3.808201586329e+01 0.0 
3.808201586329e+01 -5.896055254077e+01 0.0 
0.0 0.0 -3.140299335576e+01 
-8.248800285341e+01 1.943251294861e+01 0.0 
1.943251294861e+01 -2.475831333674e+02 0.0 
0.0 0.0 -1.034036812310e+02 
-4.720608562416e+01 3.303427067879e+01 0.0 
3.303427067879e+01 -5.179145118468e+01 0.0 
0.0 0.0 -2.587442657624e+01 
-2.331545642012e+01 -5.095939143101e+00 0.0 
-5.095939143101e+00 -6.376939196427e+01 0.0 
0.0 0.0 -2.327983026046e+01 
-1.023469102999e+02 -2.982535127905e+00 0.0 
-2.982535127905e+00 -2.513457322151e+02 0.0 
0.0 0.0 -1.032050965807e+02 
-1.073605085764e+02 3.013085621764e+01 0.0 
3.013085621764e+01 -2.486219417202e+02 0.0 
0.0 0.0 -1.063947350890e+02 
-8.575647126842e+01 1.550033889770e+01 0.0 
1.550033889770e+01 -1.473009529308e+02 0.0 
0.0 0.0 -6.951722725976e+01 
-5.092119252973e+01 2.348913275789e+01 0.0 
2.348913275789e+01 -2.724770937748e+01 0.0 
0.0 0.0 -1.812669783456e+01 
-1.122181015970e+02 1.783550525957e+01 0.0 
1.783550525957e+01 -2.631755703931e+02 0.0 
0.0 0.0 -1.122181015970e+02 
-4.897435061214e+01 3.455447065703e+01 0.0 
3.455447065703e+01 -3.218131349834e+01 0.0 
0.0 0.0 -2.477100274129e+01 
-5.209620498826e+01 1.887196415842e+01 0.0 
1.887196415842e+01 -3.193752657268e+01 0.0 
0.0 0.0 -2.093368024081e+01 
-8.363894896113e+01 4.169479619083e+00 0.0 
4.169479619083e+00 -2.503707005771e+02 0.0 
0.0 0.0 -1.047004978001e+02 
-1.047856284170e+02 -2.781826680300e+00 0.0 
-2.781826680300e+00 -2.409736607083e+02 0.0 
0.0 0.0 -9.912014820324e+01 
-6.480956573925e+01 2.455336633232e+01 0.0 
2.455336633232e+01 -7.853409744143e+01 0.0 
0.0 0.0 -3.978749134044e+01 
-5.893161911635e+01 -6.147912288876e+00 0.0 
-6.147912288876e+00 -1.858659350233e+02 0.0 
0.0 0.0 -7.262372611303e+01 
-9.367710221317e+01 1.915967477899e+00 0.0 
1.915967477899e+00 -2.633318832158e+02 0.0 
0.0 0.0 -1.101189192704e+02 
-8.519533805877e+01 2.878417825349e+01 0.0 
2.878417825349e+01 -2.190757968702e+02 0.0 
0.0 0.0 -9.088134047869e+01 
-9.143063254172e+01 1.935372817069e+01 0.0 
1.935372817069e+01 -2.644302281905e+02 0.0 
0.0 0.0 -1.086717213650e+02 
-1.097797974377e+02 2.678323948750e+01 0.0 
2.678323948750e+01 -2.419925940237e+02 0.0 
0.0 0.0 -1.051317174384e+02 
-4.211598288455e+01 2.731108928924e+01 0.0 
2.731108928924e+01 -1.129632499189e+02 0.0 
0.0 0.0 -4.324082937916e+01 
-9.664911621644e+01 -4.400296220197e+00 0.0 
-4.400296220197e+00 -2.319694474723e+02 0.0 
0.0 0.0 -9.451436906392e+01 
-1.044749026126e+02 -3.036467882915e+00 0.0 
-3.036467882915e+00 -2.481128626902e+02 0.0 
0.0 0.0 -1.024144873787e+02 
-6.001017380834e+01 -1.238036412885e+01 0.0 
-1.238036412885e+01 -1.343868321294e+02 0.0 
0.0 0.0 -5.478611956009e+01 
-6.331248549521e+01 9.108280815481e+00 0.0 
9.108280815481e+00 -8.287181673606e+01 0.0 
0.0 0.0 -4.323674735000e+01 
-8.830626040676e+01 1.898116540438e+01 0.0 
1.898116540438e+01 -1.490820942899e+02 0.0 
0.0 0.0 -7.081650640901e+01 
-1.251872904861e+02 8.907062723325e-01 0.0 
8.907062723325e-01 -3.033339371317e+02 0.0 
0.0 0.0 -1.274102782631e+02 
-1.513555117843e+01 -5.911522611971e-01 0.0 
-5.911522611971e-01 -4.288328788311e+01 0.0 
0.0 0.0 -1.436514382492e+01 
-5.068220963334e+01 -7.790535549889e+00 0.0 
-7.790535549889e+00 -1.173788209769e+02 0.0 
0.0 0.0 -5.179670049187e+01 
-4.191219763875e+01 -1.055756344513e+01 0.0 
-1.055756344513e+01 -9.161661079042e+01 0.0 
0.0 0.0 -3.629981151400e+01 
-1.081231120752e+02 -1.843683472265e+00 0.0 
-1.843683472265e+00 -2.490697090633e+02 0.0 
0.0 0.0 -1.030430344577e+02 
-6.057865629196e+01 2.863095837547e+00 0.0 
2.863095837547e+00 -1.961011066221e+02 0.0 
0.0 0.0 -7.616335684624e+01 
-5.926035214900e+01 -7.129929011079e+00 0.0 
-7.129929011079e+00 -1.824353414639e+02 0.0 
0.0 0.0 -7.175829688459e+01 
-5.071555540921e+01 -1.099532199034e-01 0.0 
-1.099532199034e-01 -1.686446738930e+02 0.0 
0.0 0.0 -6.269904915837e+01 
-1.062523152093e+02 -2.444806067097e+00 0.0 
-2.444806067097e+00 -2.593365150854e+02 0.0 
0.0 0.0 -1.070457423644e+02 
-9.357389591091e+01 2.067734891938e+01 0.0 
2.067734891938e+01 -1.758096702766e+02 0.0 
0.0 0.0 -8.041506985624e+01 
-1.081784836845e+02 -2.395902531257e+00 0.0 
-2.395902531257e+00 -2.563295682624e+02 0.0 
0.0 0.0 -1.062695191853e+02 
-5.873003296002e+01 6.762518986005e+00 0.0 
6.762518986005e+00 -1.960404862222e+02 0.0 
0.0 0.0 -7.533365402563e+01 
-9.126680498131e+01 3.037767112782e+01 0.0 
3.037767112782e+01 -2.094419212946e+02 0.0 
0.0 0.0 -8.981261788278e+01 
-6.389120735681e+01 3.544363382582e+00 0.0 
3.544363382582e+00 -9.897127377176e+01 0.0 
0.0 0.0 -4.845874433857e+01 
-1.070084892296e+02 2.159407183651e+01 0.0 
2.159407183651e+01 -2.875439744419e+02 0.0 
0.0 0.0 -1.179657391015e+02 
-1.112568891481e+02 -1.002088876863e+00 0.0 
-1.002088876863e+00 -2.572501786487e+02 0.0 
0.0 0.0 -1.068825476764e+02 
-1.106625674038e+02 -1.517701739331e+00 0.0 
-1.517701739331e+00 -2.604042742384e+02 0.0 
0.0 0.0 -1.077345520749e+02 
-4.342990846650e+01 2.808726270514e+01 0.0 
2.808726270514e+01 -2.743767019463e+01 0.0 
0.0 0.0 -1.637413213029e+01 
-6.451447290575e+01 -3.294964067869e-01 0.0 
-3.294964067869e-01 -2.043317184281e+02 0.0 
0.0 0.0 -8.157034089442e+01 
-1.117093386978e+02 -1.799802727856e+00 0.0 
-1.799802727856e+00 -2.645655178307e+02 0.0 
0.0 0.0 -1.100864067622e+02 
-7.285357299826e+01 -3.222624893634e-01 0.0 
-3.222624893634e-01 -1.387952969008e+02 0.0 
0.0 0.0 -6.309466096973e+01 
-6.611930356749e+01 -4.677687698064e-01 0.0 
-4.677687698064e-01 -1.203908902749e+02 0.0 
0.0 0.0 -5.555305815271e+01 
-4.548410653239e+01 2.779166282341e+01 0.0 
2.779166282341e+01 -2.552181650050e+01 0.0 
0.0 0.0 -1.535714775694e+01 
-1.100827688440e+02 -1.926657664417e+00 0.0 
-1.926657664417e+00 -2.674667633752e+02 0.0 
0.0 0.0 -1.108837609427e+02 
-6.339537886121e+01 -1.334107876436e+01 0.0 
-1.334107876436e+01 -1.788366156127e+02 0.0 
0.0 0.0 -7.262378393506e+01 
-4.627784217629e+01 3.384453794766e+01 0.0 
3.384453794766e+01 -7.138140688209e+01 0.0 
0.0 0.0 -3.090988270849e+01 
-1.296234567514e+02 2.491618668160e+01 0.0 
2.491618668160e+01 -3.241476055508e+02 0.0 
0.0 0.0 -1.357313186906e+02 
-4.399821589511e+01 -1.301751190230e+01 0.0 
-1.301751190230e+01 -8.577282878443e+01 0.0 
0.0 0.0 -3.515450264966e+01 
-6.117247840324e+01 -1.104097379491e+01 0.0 
-1.104097379491e+01 -1.783630168354e+02 0.0 
0.0 0.0 -7.169289714246e+01 
-7.849068286839e+01 2.091766360468e+01 0.0 
2.091766360468e+01 -2.336443901781e+02 0.0 
0.0 0.0 -9.606619015732e+01 
-4.312944330664e+01 1.453182791227e+01 0.0 
1.453182791227e+01 -2.158113979278e+01 0.0 
0.0 0.0 -1.510749058296e+01 
-1.142744899637e+02 -2.770957962073e-01 0.0 
-2.770957962073e-01 -2.656430017403e+02 0.0 
0.0 0.0 -1.107358919031e+02 
-5.460399049855e+01 3.810851077009e-01 0.0 
3.810851077009e-01 -1.214407122913e+02 0.0 
0.0 0.0 -4.890058473058e+01 
-6.901465693118e+01 1.184830264086e+01 0.0 
1.184830264086e+01 -9.137659733124e+01 0.0 
0.0 0.0 -4.771630833092e+01 
-1.138611604594e+02 -7.543285237020e-01 0.0 
-7.543285237020e-01 -2.684612904351e+02 0.0 
0.0 0.0 -1.115486247136e+02 
-8.042297309247e+01 -1.931944375133e+00 0.0 
-1.931944375133e+00 -2.379643632032e+02 0.0 
0.0 0.0 -9.898902061687e+01 
-1.036525577342e+02 -3.379543016088e+00 0.0 
-3.379543016088e+00 -2.446720685072e+02 0.0 
0.0 0.0 -9.987750772357e+01 
-4.071572281559e+01 3.338644071974e+01 0.0 
3.338644071974e+01 -8.484231654064e+01 0.0 
0.0 0.0 -3.950137743095e+01 
-9.284800723925e+01 1.612236213236e+00 0.0 
1.612236213236e+00 -1.979285014558e+02 0.0 
0.0 0.0 -8.683295260852e+01 
-6.913574842140e+01 -7.378869872988e+00 0.0 
-7.378869872988e+00 -2.049688206034e+02 0.0 
0.0 0.0 -8.415970219762e+01 
-1.249141020790e+02 1.607992065273e+01 0.0 
1.607992065273e+01 -3.278749165969e+02 0.0 
0.0 0.0 -1.354367056028e+02 
-9.211697562256e+01 2.625183378437e+01 0.0 
2.625183378437e+01 -2.478549770492e+02 0.0 
0.0 0.0 -1.015915858015e+02 
-1.137845259868e+02 -1.470769078860e+00 0.0 
-1.470769078860e+00 -2.756474307628e+02 0.0 
0.0 0.0 -1.147045517000e+02 
-1.168875366518e+02 -1.541847128539e-01 0.0 
-1.541847128539e-01 -2.765444109727e+02 0.0 
0.0 0.0 -1.153089229057e+02 
-5.678635936546e+01 1.920320145102e+00 0.0 
1.920320145102e+00 -1.889795292570e+02 0.0 
0.0 0.0 -7.230742192663e+01 
-3.966210940600e+01 -1.167905107673e+01 0.0 
-1.167905107673e+01 -5.940371103994e+01 0.0 
0.0 0.0 -2.558016045792e+01 
-3.994803383393e+01 3.557556813374e+01 0.0 
3.557556813374e+01 -8.302723540212e+01 0.0 
0.0 0.0 -3.805406671619e+01 
-1.173353540123e+02 -1.101016846391e+00 0.0 
-1.101016846391e+00 -2.839373673854e+02 0.0 
0.0 0.0 -1.185562812896e+02 
-1.262838788542e+02 1.306247635049e+01 0.0 
1.306247635049e+01 -3.314693560951e+02 0.0 
0.0 0.0 -1.369259704848e+02 
-6.571423250685e+01 -1.672690473562e+01 0.0 
-1.672690473562e+01 -1.701516616439e+02 0.0 
0.0 0.0 -7.008538040944e+01 
-9.563693779993e+01 2.824022785436e+01 0.0 
2.824022785436e+01 -2.254836582071e+02 0.0 
0.0 0.0 -9.593617880210e+01 
-4.822721659180e+01 3.040390063089e+01 0.0 
3.040390063089e+01 -6.902694118666e+01 0.0 
0.0 0.0 -3.143502067188e+01 
-9.601075770169e+01 2.999653100625e+01 0.0 
2.999653100625e+01 -2.133214794032e+02 0.0 
0.0 0.0 -9.239967113148e+01 
-1.513638973009e+02 1.021677964130e+01 0.0 
1.021677964130e+01 -3.717220381920e+02 0.0 
0.0 0.0 -1.565257806479e+02 
-1.344532482674e+02 -7.142237804139e-01 0.0 
-7.142237804139e-01 -1.026928660698e+02 0.0 
0.0 0.0 -7.142070531158e+01 
-1.074931637245e+02 1.875496401148e+00 0.0 
1.875496401148e+00 -2.521507153572e+02 0.0 
0.0 0.0 -1.074931637245e+02 
-1.678971596142e+02 9.671359110156e-01 0.0 
9.671359110156e-01 -3.930933724332e+02 0.0 
0.0 0.0 -1.678971596142e+02 
-5.363591232983e+01 7.856660677340e-01 0.0 
7.856660677340e-01 -8.838585584038e+01 0.0 
0.0 0.0 -4.220653045106e+01 
-7.243322861447e+01 -1.234821463167e+01 0.0 
-1.234821463167e+01 -1.999409874025e+02 0.0 
0.0 0.0 -8.266796925220e+01 
-8.820364857788e+01 2.756494050306e+01 0.0 
2.756494050306e+01 -2.337835559318e+02 0.0 
0.0 0.0 -9.619616135291e+01 
-5.678394023122e+01 6.700808865729e+00 0.0 
6.700808865729e+00 -1.866770854354e+02 0.0 
0.0 0.0 -7.111479902141e+01 
-1.912933977841e+01 -9.596333314693e-01 0.0 
-9.596333314693e-01 -5.538286671018e+01 0.0 
0.0 0.0 -2.046188804899e+01 
-5.040833059722e+01 3.474134144811e+01 0.0 
3.474134144811e+01 -3.204994767846e+01 0.0 
0.0 0.0 -2.336915930584e+01 
-1.001512376048e+02 5.993877271577e+00 0.0 
5.993877271577e+00 -2.161300579741e+02 0.0 
0.0 0.0 -9.448438867365e+01 
-9.208579719295e+01 2.172920585543e+01 0.0 
2.172920585543e+01 -1.631438930298e+02 0.0 
0.0 0.0 -7.616890706682e+01 
-6.284961502246e+01 1.024522793403e+01 0.0 
1.024522793403e+01 -7.603087379210e+01 0.0 
0.0 0.0 -4.087056716846e+01 
-1.426404249814e+02 3.299760272493e+01 0.0 
3.299760272493e+01 -3.385247213891e+02 0.0 
0.0 0.0 -1.439495439112e+02 
-4.080102924829e+01 4.943138828132e-01 0.0 
4.943138828132e-01 -1.010589101315e+02 0.0 
0.0 0.0 -3.988821625457e+01 
-1.444843417795e+02 3.178788944613e+01 0.0 
3.178788944613e+01 -3.446373413812e+02 0.0 
0.0 0.0 -1.463365049482e+02 
-8.988056714243e+01 1.823419676460e+01 0.0 
1.823419676460e+01 -1.613571076910e+02 0.0 
0.0 0.0 -7.497130245003e+01 
-7.756005471127e+01 -1.255628375003e+01 0.0 
-1.255628375003e+01 -1.945362384013e+02 0.0 
0.0 0.0 -8.104884816849e+01 
-8.604717139386e+01 2.662108471215e+01 0.0 
2.662108471215e+01 -2.309483877965e+02 0.0 
0.0 0.0 -9.492735317909e+01 
-6.688131499992e+01 -1.066832966378e+01 0.0 
-1.066832966378e+01 -1.853904432732e+02 0.0 
0.0 0.0 -7.499943841078e+01 
-4.503756260813e+01 3.318509914425e+01 0.0 
3.318509914425e+01 -6.902435025450e+01 0.0 
0.0 0.0 -3.047740866479e+01 
-6.561282012983e+01 -1.232556587383e+01 0.0 
-1.232556587383e+01 -1.733846343754e+02 0.0 
0.0 0.0 -7.017751870086e+01 
-9.709776866098e+01 2.283029497804e+01 0.0 
2.283029497804e+01 -1.909129619002e+02 0.0 
0.0 0.0 -8.600321916835e+01 
-1.411130319553e+02 1.902745783554e+00 0.0 
1.902745783554e+00 -3.424147150122e+02 0.0 
0.0 0.0 -1.446583240902e+02 
-6.271700498801e+01 -7.797791003307e+00 0.0 
-7.797791003307e+00 -1.895851358568e+02 0.0 
0.0 0.0 -7.618702075733e+01 
-9.991181458298e+01 2.806759553255e+01 0.0 
2.806759553255e+01 -2.290208550582e+02 0.0 
0.0 0.0 -9.827980089236e+01 
-8.389564684255e+01 -2.425861644516e+00 0.0 
-2.425861644516e+00 -1.131377648113e+02 0.0 
0.0 0.0 -5.961127901940e+01 
-6.040274918732e+01 -1.638701276235e+00 0.0 
-1.638701276235e+00 -1.948951111607e+02 0.0 
0.0 0.0 -7.587198793646e+01 
-1.015636388333e+02 2.156222484776e+01 0.0 
2.156222484776e+01 -1.931088362297e+02 0.0 
0.0 0.0 -8.800174251891e+01 
-6.842802630321e+01 -1.182088066787e+01 0.0 
-1.182088066787e+01 -1.676987142697e+02 0.0 
0.0 0.0 -6.778444581062e+01 
-6.408421291231e+01 -1.731642974943e+01 0.0 
-1.731642974943e+01 -1.559602787105e+02 0.0 
0.0 0.0 -6.451784351009e+01 
-8.382371241595e+01 2.610814894039e+01 0.0 
2.610814894039e+01 -2.302217074786e+02 0.0 
0.0 0.0 -9.381362596836e+01 
-4.243186048911e+01 -1.910658442028e+01 0.0 
-1.910658442028e+01 -1.084240819120e+02 0.0 
0.0 0.0 -3.861176607556e+01 
-4.154985387805e+01 2.746711465834e+01 0.0 
2.746711465834e+01 -2.783839867438e+01 0.0 
0.0 0.0 -1.702102925488e+01 
-4.256335414777e+01 2.890908121371e+01 0.0 
2.890908121371e+01 -2.865631534953e+01 0.0 
0.0 0.0 -1.668016210377e+01 
-6.137401069455e+01 -1.358984801274e+01 0.0 
-1.358984801274e+01 -1.476299001146e+02 0.0 
0.0 0.0 -5.956032529539e+01 
-8.751321241166e+01 1.964870339937e+00 0.0 
1.964870339937e+00 -2.545624399822e+02 0.0 
0.0 0.0 -1.065078265770e+02 
-7.430869845130e+01 2.394524771960e+01 0.0 
2.394524771960e+01 -2.207336297849e+02 0.0 
0.0 0.0 -9.171219948191e+01 
-9.928686493723e+01 3.005438347983e+01 0.0 
3.005438347983e+01 -2.290790629183e+02 0.0 
0.0 0.0 -9.810977835666e+01 
-1.149560870391e+02 2.624817851992e+01 0.0 
2.624817851992e+01 -2.554794122647e+02 0.0 
0.0 0.0 -1.107306497912e+02 
-4.036968876477e+01 2.466655111342e+01 0.0 
2.466655111342e+01 -2.702813796652e+01 0.0 
0.0 0.0 -1.500367512671e+01 
-8.012652346704e+01 1.604996328027e+00 0.0 
1.604996328027e+00 -1.588257811146e+02 0.0 
0.0 0.0 -7.128569137449e+01 
-1.214925952813e+02 2.940749293611e+01 0.0 
2.940749293611e+01 -2.850612262608e+02 0.0 
0.0 0.0 -1.215661464627e+02 
-5.377736525147e+01 6.107794402203e+00 0.0 
6.107794402203e+00 -1.822228463484e+02 0.0 
0.0 0.0 -6.851975551057e+01 
-4.579613886487e+01 3.294470556233e+01 0.0 
3.294470556233e+01 -5.173994353162e+01 0.0 
0.0 0.0 -2.472666467874e+01 
-5.170861593158e+01 3.153177339953e+01 0.0 
3.153177339953e+01 -7.059408538744e+01 0.0 
0.0 0.0 -3.177318203528e+01 
-8.713396419976e+01 -1.799494272219e+00 0.0 
-1.799494272219e+00 -2.459863207122e+02 0.0 
0.0 0.0 -1.029060478615e+02 
-1.003893068558e+02 2.700631267457e+01 0.0 
2.700631267457e+01 -2.170117059717e+02 0.0 
0.0 0.0 -9.482030384824e+01 
-8.229192727413e+01 1.212023378055e+00 0.0 
1.212023378055e+00 -2.418405148034e+02 0.0 
0.0 0.0 -1.003959561689e+02 
-3.722867291055e+01 2.690776296623e+01 0.0 
2.690776296623e+01 -9.367107965438e+01 0.0 
0.0 0.0 -3.687860444742e+01 
-9.449689683759e+01 6.016971142017e+00 0.0 
6.016971142017e+00 -2.709454623473e+02 0.0 
0.0 0.0 -1.133824401907e+02 
-4.508435413061e+01 3.285189361591e+01 0.0 
3.285189361591e+01 -6.796367852113e+01 0.0 
0.0 0.0 -3.068419291930e+01 
-7.192562089077e+01 2.074239537952e+01 0.0 
2.074239537952e+01 -2.153180104844e+02 0.0 
0.0 0.0 -8.877496716349e+01 
-8.896003712362e+01 3.908893334733e+00 0.0 
3.908893334733e+00 -2.600370058201e+02 0.0 
0.0 0.0 -1.077414500254e+02 
-8.799173411455e+01 2.417442199142e+01 0.0 
2.417442199142e+01 -2.438025092460e+02 0.0 
0.0 0.0 -1.002403136720e+02 
-7.243748212717e+01 2.255009782988e+00 0.0 
2.255009782988e+00 -1.340301724119e+02 0.0 
0.0 0.0 -6.154029636171e+01 
-6.493198406305e+01 -1.422145567807e+01 0.0 
-1.422145567807e+01 -1.482760437985e+02 0.0 
0.0 0.0 -6.121035879605e+01 
-4.596982657256e+01 3.402418944627e+01 0.0 
3.402418944627e+01 -7.313214591640e+01 0.0 
0.0 0.0 -3.091165976051e+01 
-9.658219662301e+01 4.983932233163e+00 0.0 
4.983932233163e+00 -2.784822668806e+02 0.0 
0.0 0.0 -1.132400415563e+02 
-4.432266818141e+01 3.250724660977e+01 0.0 
3.250724660977e+01 -6.647060988184e+01 0.0 
0.0 0.0 -3.056261982564e+01 
-4.907528099122e+01 1.188009999453e+01 0.0 
1.188009999453e+01 -1.200948310344e+02 0.0 
0.0 0.0 -5.215882193370e+01 
-9.831329394822e+01 8.753056129886e-02 0.0 
8.753056129886e-02 -2.169315019373e+02 0.0 
0.0 0.0 -9.417343876566e+01 
-9.283144728018e+01 -1.473366034493e-01 0.0 
-1.473366034493e-01 -1.980209114431e+02 0.0 
0.0 0.0 -8.685570761697e+01 
-2.041731723695e+01 -3.783104174634e+00 0.0 
-3.783104174634e+00 -2.705788453655e+01 0.0 
0.0 0.0 -1.272220611517e+01 
-1.036143759436e+02 8.074615125330e+00 0.0 
8.074615125330e+00 -2.887175675703e+02 0.0 
0.0 0.0 -1.189592312195e+02 
-5.105094016271e+01 -1.222102755298e+01 0.0 
-1.222102755298e+01 -1.129349279704e+02 0.0 
0.0 0.0 -4.560363888682e+01 
-5.464326357815e+01 -1.228316542234e+01 0.0 
-1.228316542234e+01 -1.211872943800e+02 0.0 
0.0 0.0 -4.879466620562e+01 
-1.073866304934e+02 2.816794595233e+01 0.0 
2.816794595233e+01 -2.484537914474e+02 0.0 
0.0 0.0 -1.063521265822e+02 
-8.707873980780e+01 2.471274584438e+01 0.0 
2.471274584438e+01 -2.435192666014e+02 0.0 
0.0 0.0 -9.877940192274e+01 
-1.033230185223e+02 2.814321002669e+01 0.0 
2.814321002669e+01 -2.445256338751e+02 0.0 
0.0 0.0 -1.039545957192e+02 
-6.408327621711e+01 -5.339508316888e+00 0.0 
-5.339508316888e+00 -1.970508431328e+02 0.0 
0.0 0.0 -7.907028586377e+01 
-4.631167637214e+01 4.357691300892e-01 0.0 
4.357691300892e-01 -6.707267231961e+01 0.0 
0.0 0.0 -3.361530460753e+01 
-1.562926361188e+02 8.740424713631e+00 0.0 
8.740424713631e+00 -3.743808766821e+02 0.0 
0.0 0.0 -1.588020538403e+02 
-4.680474412837e+01 -1.170188610031e+01 0.0 
-1.170188610031e+01 -1.004487085141e+02 0.0 
0.0 0.0 -4.057038737358e+01 
-1.204339290703e+02 1.777860234656e+01 0.0 
1.777860234656e+01 -3.170675440831e+02 0.0 
0.0 0.0 -1.308504419460e+02 
-7.532605397399e+01 2.214792997233e+01 0.0 
2.214792997233e+01 -2.195583812539e+02 0.0 
0.0 0.0 -9.035599748848e+01 
-2.684377129868e+01 -2.739508802724e+00 0.0 
-2.739508802724e+00 -7.643507566780e+01 0.0 
0.0 0.0 -2.896228402916e+01 
-9.724312848892e+01 2.582089609409e+01 0.0 
2.582089609409e+01 -2.010882038929e+02 0.0 
0.0 0.0 -8.909939971454e+01 
-6.188749721861e+01 3.007023436486e+00 0.0 
3.007023436486e+00 -2.030338306197e+02 0.0 
0.0 0.0 -7.953938702067e+01 
-3.505817230751e+01 -1.091471976719e+01 0.0 
-1.091471976719e+01 -4.866562341781e+01 0.0 
0.0 0.0 -1.999349279564e+01 
-5.520634069424e+01 -3.047242045759e+00 0.0 
-3.047242045759e+00 -1.806604389800e+02 0.0 
0.0 0.0 -6.870232398822e+01 
-1.224671560723e+02 -8.143046271681e-01 0.0 
-8.143046271681e-01 -2.946879067702e+02 0.0 
0.0 0.0 -1.235723926085e+02 
-9.844325158691e+01 2.606079846271e+01 0.0 
2.606079846271e+01 -1.925603189340e+02 0.0 
0.0 0.0 -8.690107115628e+01 
-4.192650778422e+01 -1.107979777943e+01 0.0 
-1.107979777943e+01 -7.892971713339e+01 0.0 
0.0 0.0 -3.124559505643e+01 
-1.071024537601e+02 -3.003174331929e-01 0.0 
-3.003174331929e-01 -2.411003597889e+02 0.0 
0.0 0.0 -1.004941563456e+02 
-1.038879484808e+02 2.775052523764e+01 0.0 
2.775052523764e+01 -2.330239576049e+02 0.0 
0.0 0.0 -1.006735718257e+02 
-1.129293523141e+02 2.454502086126e+01 0.0 
2.454502086126e+01 -2.935075655415e+02 0.0 
0.0 0.0 -1.215310753567e+02 
-6.354135686732e+01 -1.329824157034e+01 0.0 
-1.329824157034e+01 -1.606258827446e+02 0.0 
0.0 0.0 -6.485667097595e+01 
-5.691092048824e+01 -2.335337618264e+00 0.0 
-2.335337618264e+00 -1.214764714920e+02 0.0 
0.0 0.0 -4.887151895582e+01 
-8.016452988804e+01 2.285566788773e+01 0.0 
2.285566788773e+01 -2.366812377024e+02 0.0 
0.0 0.0 -9.845539777143e+01 
-6.908478611020e+01 9.041601019524e-01 0.0 
9.041601019524e-01 -1.281389309080e+02 0.0 
0.0 0.0 -5.876711510547e+01 
-3.786195126198e+01 -1.516078929468e+01 0.0 
-1.516078929468e+01 -5.243028171318e+01 0.0 
0.0 0.0 -1.943580675482e+01 
-1.302122077261e+02 3.253439102555e+01 0.0 
3.253439102555e+01 -3.064985322348e+02 0.0 
0.0 0.0 -1.306132219883e+02 
-1.155908003054e+02 2.520552456501e+01 0.0 
2.520552456501e+01 -2.620000264181e+02 0.0 
0.0 0.0 -1.128772480171e+02 
-5.849006485052e+01 9.956666981358e-01 0.0 
9.956666981358e-01 -1.003149558884e+02 0.0 
0.0 0.0 -4.724150622169e+01 
-1.099724732984e+02 1.440715979056e+01 0.0 
1.440715979056e+01 -2.366122054559e+02 0.0 
0.0 0.0 -1.035754036263e+02 
-1.201602982987e+02 2.793392083932e+01 0.0 
2.793392083932e+01 -2.751608856953e+02 0.0 
0.0 0.0 -1.181963551982e+02 
-6.406342554457e+01 -3.953682149617e+00 0.0 
-3.953682149617e+00 -2.000283385737e+02 0.0 
0.0 0.0 -8.012622936766e+01 
-6.877056249118e+01 -1.133580340524e+01 0.0 
-1.133580340524e+01 -1.958933227231e+02 0.0 
0.0 0.0 -8.044481341834e+01 
-1.438100594944e+02 2.164134557519e+01 0.0 
2.164134557519e+01 -3.556512634061e+02 0.0 
0.0 0.0 -1.494383968701e+02 
-7.741270312991e+01 5.681896724782e+00 0.0 
5.681896724782e+00 -1.089682283483e+02 0.0 
0.0 0.0 -5.646489162624e+01 
-4.840217350315e+01 -1.348745033220e+00 0.0 
-1.348745033220e+00 -1.102753946226e+02 0.0 
0.0 0.0 -4.400758134248e+01 
-1.081214765903e+02 -1.243955723907e+00 0.0 
-1.243955723907e+00 -2.454468089152e+02 0.0 
0.0 0.0 -1.021472812422e+02 
-6.830801226770e+01 -1.510145665135e+01 0.0 
-1.510145665135e+01 -1.619137095300e+02 0.0 
0.0 0.0 -6.711495711575e+01 
-5.764660225777e+01 -9.896560933411e+00 0.0 
-9.896560933411e+00 -1.747275221917e+02 0.0 
0.0 0.0 -6.850482139160e+01 
-4.199956906853e+01 2.778208520577e+01 0.0 
2.778208520577e+01 -2.732544593870e+01 0.0 
0.0 0.0 -1.756553402486e+01 
-4.415946730683e+01 2.955968334708e+01 0.0 
2.955968334708e+01 -2.938725467063e+01 0.0 
0.0 0.0 -1.841012317825e+01 
-6.499743498502e+01 4.201922225571e+00 0.0 
4.201922225571e+00 -1.019955831675e+02 0.0 
0.0 0.0 -4.969790544576e+01 
-5.993521852555e+01 -2.271952364868e+00 0.0 
-2.271952364868e+00 -1.898429508525e+02 0.0 
0.0 0.0 -7.414821470167e+01 
-6.136975052574e+01 -4.607015940531e+00 0.0 
-4.607015940531e+00 -1.298979339600e+02 0.0 
0.0 0.0 -5.170542460761e+01 
-1.059895736551e+02 2.430834424815e+01 0.0 
2.430834424815e+01 -2.787699300643e+02 0.0 
0.0 0.0 -1.150278511158e+02 
-1.645533356636e+02 6.513992858359e+00 0.0 
6.513992858359e+00 -3.911156530053e+02 0.0 
0.0 0.0 -1.663006966007e+02 
-1.631378624856e+02 8.102799046632e+00 0.0 
8.102799046632e+00 -3.893756217736e+02 0.0 
0.0 0.0 -1.653540452777e+02 
-6.719945083781e+01 -8.499419581235e+00 0.0 
-8.499419581235e+00 -1.966053241527e+02 0.0 
0.0 0.0 -7.929626173716e+01 
-5.939984145825e+01 3.395300754225e+00 0.0 
3.395300754225e+00 -8.531729124647e+01 0.0 
0.0 0.0 -4.301513981142e+01 
-8.120632905641e+01 1.609451882473e+00 0.0 
1.609451882473e+00 -1.086944827760e+02 0.0 
0.0 0.0 -5.795252750684e+01 
-4.520596123796e+01 2.981426577442e+01 0.0 
2.981426577442e+01 -2.910814324304e+01 0.0 
0.0 0.0 -1.887106576745e+01 
-4.803220687985e+01 -2.244419256043e+01 0.0 
-2.244419256043e+01 -1.125488130840e+02 0.0 
0.0 0.0 -4.335935613338e+01 
-4.417587011086e+01 2.903569213107e+01 0.0 
2.903569213107e+01 -2.886156639946e+01 0.0 
0.0 0.0 -1.870945599130e+01 
-8.220331345707e+01 2.315911024462e+01 0.0 
2.315911024462e+01 -2.386757300897e+02 0.0 
0.0 0.0 -9.659917208513e+01 
-5.974736352730e+01 -1.344650869454e+01 0.0 
-1.344650869454e+01 -1.666968778952e+02 0.0 
0.0 0.0 -6.670224348582e+01 
-6.369873433275e+01 -9.471956714192e+00 0.0 
-9.471956714192e+00 -1.882350920699e+02 0.0 
0.0 0.0 -7.614358661693e+01 
-4.021661565144e+01 -2.695511848202e+01 0.0 
-2.695511848202e+01 -9.154845724378e+01 0.0 
0.0 0.0 -3.995569886124e+01 
-9.260146759565e+01 1.308129093423e+00 0.0 
1.308129093423e+00 -2.007709759211e+02 0.0 
0.0 0.0 -8.761173305502e+01 
-6.723816697779e+01 -1.465857503445e+01 0.0 
-1.465857503445e+01 -1.842791137925e+02 0.0 
0.0 0.0 -7.553207887338e+01 
-9.856878596525e+01 4.287694809833e+00 0.0 
4.287694809833e+00 -2.150803210525e+02 0.0 
0.0 0.0 -9.369473210534e+01 
-8.945984787820e+01 2.611799261154e+00 0.0 
2.611799261154e+00 -1.853427559176e+02 0.0 
0.0 0.0 -8.204078113874e+01 
-1.104637067731e+02 2.087960678617e+00 0.0 
2.087960678617e+00 -2.528417274425e+02 0.0 
0.0 0.0 -1.085916302647e+02 
-1.662048861496e+02 1.041234860004e+00 0.0 
1.041234860004e+00 -3.925797791322e+02 0.0 
0.0 0.0 -1.672353995846e+02 
-5.860914141757e+01 -4.268388591714e-01 0.0 
-4.268388591714e-01 -1.008345572009e+02 0.0 
0.0 0.0 -4.743310958555e+01 
-7.185198189004e+01 -1.427053898649e+01 0.0 
-1.427053898649e+01 -1.877628065699e+02 0.0 
0.0 0.0 -7.777919905864e+01 
-3.786804980521e+01 2.705931058180e+01 0.0 
2.705931058180e+01 -2.659725374903e+01 0.0 
0.0 0.0 -1.580162454966e+01 
-7.258459422791e+01 -9.159191240693e+00 0.0 
-9.159191240693e+00 -1.925306577710e+02 0.0 
0.0 0.0 -7.806374051889e+01 
-1.679578543792e+02 5.007044012308e+00 0.0 
5.007044012308e+00 -3.932349935516e+02 0.0 
0.0 0.0 -1.679578543792e+02 
-4.699378798961e+01 3.170399701474e+01 0.0 
3.170399701474e+01 -3.007303363725e+01 0.0 
0.0 0.0 -1.979493808198e+01 
-4.561430729492e+01 3.045535209269e+01 0.0 
3.045535209269e+01 -2.926291677476e+01 0.0 
0.0 0.0 -1.905205681073e+01 
-1.248408258910e+02 1.988619311355e+01 0.0 
1.988619311355e+01 -3.231844638674e+02 0.0 
0.0 0.0 -1.340075869275e+02 
-5.671428770734e+01 2.236218229003e+00 0.0 
2.236218229003e+00 -8.556322292422e+01 0.0 
0.0 0.0 -4.228325318947e+01 
-9.862722942271e+01 2.475335178455e+00 0.0 
2.475335178455e+00 -2.168593263510e+02 0.0 
0.0 0.0 -9.424596673211e+01 
-1.037058482098e+02 2.990368054103e+01 0.0 
2.990368054103e+01 -2.331395236603e+02 0.0 
0.0 0.0 -1.006536115610e+02 
-1.217615235968e+02 2.425006267420e+01 0.0 
2.425006267420e+01 -3.104266898650e+02 0.0 
0.0 0.0 -1.292564640385e+02 
-1.086943945127e+02 2.838673803435e+01 0.0 
2.838673803435e+01 -2.293430564537e+02 0.0 
0.0 0.0 -1.010112352899e+02 
-6.063217927206e+01 3.114911706130e-01 0.0 
3.114911706130e-01 -1.042453066845e+02 0.0 
0.0 0.0 -4.906324578698e+01 
-6.143420476971e+01 -1.664544446930e+01 0.0 
-1.664544446930e+01 -1.416959834632e+02 0.0 
0.0 0.0 -5.864963072233e+01 
-5.786256156581e+01 -1.477839203855e+01 0.0 
-1.477839203855e+01 -1.411288474317e+02 0.0 
0.0 0.0 -5.676127571054e+01 
-7.630163508936e+01 7.340436988468e-02 0.0 
7.340436988468e-02 -1.479543152596e+02 0.0 
0.0 0.0 -6.687678510469e+01 
-1.175154663953e+02 2.629317321617e+01 0.0 
2.629317321617e+01 -2.979048374334e+02 0.0 
0.0 0.0 -1.242260911486e+02 
-5.627652647803e+01 5.253219672148e+00 0.0 
5.253219672148e+00 -7.033045253074e+01 0.0 
0.0 0.0 -3.752039437886e+01 
-5.233589023675e+01 2.245631904230e-01 0.0 
2.245631904230e-01 -8.383041297149e+01 0.0 
0.0 0.0 -4.044989096247e+01 
-5.901228999805e+01 8.248575752793e-01 0.0 
8.248575752793e-01 -9.985307100152e+01 0.0 
0.0 0.0 -4.725960829987e+01 
-6.179789441626e+01 2.153859624273e+00 0.0 
2.153859624273e+00 -1.056647279239e+02 0.0 
0.0 0.0 -4.983878670205e+01 
-3.308583716171e+01 -1.390876679593e+01 0.0 
-1.390876679593e+01 -1.144354324888e+02 0.0 
0.0 0.0 -4.401901291056e+01 
-5.531575929320e+01 -1.437910125001e+01 0.0 
-1.437910125001e+01 -1.275259552979e+02 0.0 
0.0 0.0 -5.137315358777e+01 
-1.071220562993e+02 7.224835190852e+00 0.0 
7.224835190852e+00 -2.380002687058e+02 0.0 
0.0 0.0 -1.031366975015e+02 
-6.963639094506e+01 2.626048259986e+00 0.0 
2.626048259986e+00 -1.251444655400e+02 0.0 
0.0 0.0 -5.803425694553e+01 
-1.453988005916e+02 2.438448948203e+01 0.0 
2.438448948203e+01 -3.522276447823e+02 0.0 
0.0 0.0 -1.488879336122e+02 
-1.190432364388e+02 2.913486391026e+01 0.0 
2.913486391026e+01 -2.590962980505e+02 0.0 
0.0 0.0 -1.130418603468e+02 
-9.732412560541e+01 2.860853072569e+01 0.0 
2.860853072569e+01 -2.018653672977e+02 0.0 
0.0 0.0 -8.935684787094e+01 
-1.067618486162e+02 1.452549311773e+01 0.0 
1.452549311773e+01 -2.241257979770e+02 0.0 
0.0 0.0 -9.886629397796e+01 
-8.539435029263e+01 -4.591615621626e+00 0.0 
-4.591615621626e+00 -1.835289961386e+02 0.0 
0.0 0.0 -7.477201515589e+01 
-7.734588253875e+01 -5.172036989313e+00 0.0 
-5.172036989313e+00 -1.670316484141e+02 0.0 
0.0 0.0 -6.721657434954e+01 
-1.459021101725e+02 7.552010917908e+00 0.0 
7.552010917908e+00 -3.594286562454e+02 0.0 
0.0 0.0 -1.511992299254e+02 
-3.701141795837e+01 -2.335412875363e+01 0.0 
-2.335412875363e+01 -9.885525203088e+01 0.0 
0.0 0.0 -4.215437877399e+01 
-4.893111564906e+01 -9.853266602656e-01 0.0 
-9.853266602656e-01 -1.170267706068e+02 0.0 
0.0 0.0 -4.682852199506e+01 
-1.464286835391e+02 3.100360332517e+01 0.0 
3.100360332517e+01 -3.430002615913e+02 0.0 
0.0 0.0 -1.464286835391e+02 
-1.429545241163e+01 7.140768589953e-01 0.0 
7.140768589953e-01 -5.748662775572e+01 0.0 
0.0 0.0 -2.044672552123e+01 
-5.205593651022e+01 2.699214523388e-01 0.0 
2.699214523388e-01 -8.372077732730e+01 0.0 
0.0 0.0 -4.033301415126e+01 
-1.367054368896e+02 1.789887322440e+01 0.0 
1.789887322440e+01 -3.470083829158e+02 0.0 
0.0 0.0 -1.447141459416e+02 
-2.126641591560e+01 -3.866208605721e+00 0.0 
-3.866208605721e+00 -3.994079592147e+01 0.0 
0.0 0.0 -1.581617777370e+01 
-1.344139851724e+01 -1.285700671323e-01 0.0 
-1.285700671323e-01 -2.397919175075e+01 0.0 
0.0 0.0 -8.752349816941e+00 
-1.140701565094e+02 1.229103014180e+01 0.0 
1.229103014180e+01 -2.581461176851e+02 0.0 
0.0 0.0 -1.112648822584e+02 
-4.775956025437e+01 5.233111706687e-01 0.0 
5.233111706687e-01 -6.699905389763e+01 0.0 
0.0 0.0 -3.402758424560e+01 
-1.067072707608e+02 9.199388442396e+00 0.0 
9.199388442396e+00 -2.350138780377e+02 0.0 
0.0 0.0 -1.021163446396e+02 
-1.386581749128e+02 1.897794667898e+01 0.0 
1.897794667898e+01 -3.445995282121e+02 0.0 
0.0 0.0 -1.445773109375e+02 
-4.733081956549e+01 9.657504772737e-01 0.0 
9.657504772737e-01 -6.673254064018e+01 0.0 
0.0 0.0 -3.381900806170e+01 
-7.754961444769e+01 7.969513097075e+00 0.0 
7.969513097075e+00 -1.074411011812e+02 0.0 
0.0 0.0 -5.655825232255e+01 
-1.028986605827e+02 2.292800732714e+00 0.0 
2.292800732714e+00 -2.344925634528e+02 0.0 
0.0 0.0 -1.008173672106e+02 
-1.999255876632e+01 -2.477479889558e+00 0.0 
-2.477479889558e+00 -6.370240239243e+01 0.0 
0.0 0.0 -2.313981365531e+01 
-1.011210015132e+02 7.967563219353e+00 0.0 
7.967563219353e+00 -2.220509546024e+02 0.0 
0.0 0.0 -9.655158683466e+01 
-1.679434828008e+02 3.684291529890e+00 0.0 
3.684291529890e+00 -3.932014598684e+02 0.0 
0.0 0.0 -1.679434828008e+02 
-1.146604566237e+02 2.529166122449e+01 0.0 
2.529166122449e+01 -2.472550875557e+02 0.0 
0.0 0.0 -1.081746632538e+02 
-3.725623018845e+01 -1.044475619919e+01 0.0 
-1.044475619919e+01 -1.284262751897e+02 0.0 
0.0 0.0 -4.706456404696e+01 
-6.936251849431e+01 6.936814607843e+00 0.0 
6.936814607843e+00 -1.057961370344e+02 0.0 
0.0 0.0 -5.214759665862e+01 
-8.654715454691e+01 -2.088920995402e+00 0.0 
-2.088920995402e+00 -1.861064846264e+02 0.0 
0.0 0.0 -7.635901156847e+01 
-1.069970404215e+02 2.517804137704e+01 0.0 
2.517804137704e+01 -2.792935467990e+02 0.0 
0.0 0.0 -1.154871761661e+02 
-1.510281056277e+02 2.773874386164e+01 0.0 
2.773874386164e+01 -3.606449797658e+02 0.0 
0.0 0.0 -1.531019256180e+02 
-8.374223701282e+01 6.268334267273e-01 0.0 
6.268334267273e-01 -1.697260733467e+02 0.0 
0.0 0.0 -7.564049310785e+01 
-1.518497366065e+02 2.496369140261e+01 0.0 
2.496369140261e+01 -3.653211935172e+02 0.0 
0.0 0.0 -1.547512790371e+02 
-3.151115067549e+01 -1.712779555387e+01 0.0 
-1.712779555387e+01 -1.163596407185e+02 0.0 
0.0 0.0 -4.653493056722e+01 
-1.581294844192e+02 5.327118399565e+00 0.0 
5.327118399565e+00 -3.781072883142e+02 0.0 
0.0 0.0 -1.604710318200e+02 
-4.160498442786e+01 -1.474624781100e+01 0.0 
-1.474624781100e+01 -1.240961288861e+02 0.0 
0.0 0.0 -4.307080813176e+01 
-1.452915648468e+01 -1.637627431533e+00 0.0 
-1.637627431533e+00 -5.744136906683e+01 0.0 
0.0 0.0 -2.046476787060e+01 
-1.490737425545e+02 1.644677552191e+01 0.0 
1.644677552191e+01 -3.665652472954e+02 0.0 
0.0 0.0 -1.542916969550e+02 
-1.157318078252e+02 1.956634387991e+01 0.0 
1.956634387991e+01 -2.507957123058e+02 0.0 
0.0 0.0 -1.095582560393e+02 
-1.095403488241e+02 1.284761677223e+01 0.0 
1.284761677223e+01 -2.444024062738e+02 0.0 
0.0 0.0 -1.057828265294e+02 
-5.245226014151e+01 1.005507861114e-01 0.0 
1.005507861114e-01 -8.241595301849e+01 0.0 
0.0 0.0 -4.006046394800e+01 
-7.314640559302e+01 1.045117264236e+01 0.0 
1.045117264236e+01 -1.116636414980e+02 0.0 
0.0 0.0 -5.504301412731e+01 
-4.448082288270e+01 3.133341992473e+01 0.0 
3.133341992473e+01 -6.856311709192e+01 0.0 
0.0 0.0 -2.976191842487e+01 
-1.251722109619e+02 3.057169295446e+01 0.0 
3.057169295446e+01 -2.801944549982e+02 0.0 
0.0 0.0 -1.212099997880e+02 
-7.362364825574e+01 -3.281214210385e+00 0.0 
-3.281214210385e+00 -1.543300450401e+02 0.0 
0.0 0.0 -6.287506883299e+01 
-3.808654578074e+01 3.008666974018e+01 0.0 
3.008666974018e+01 -7.578230585815e+01 0.0 
0.0 0.0 -2.906451026911e+01 
-1.116744978816e+02 2.361001117637e+01 0.0 
2.361001117637e+01 -2.927975488374e+02 0.0 
0.0 0.0 -1.209416140157e+02 
-4.581110351534e+01 4.720362304696e-01 0.0 
4.720362304696e-01 -6.640248155685e+01 0.0 
0.0 0.0 -3.326407552166e+01 
-1.087682201440e+02 1.774288570195e+01 0.0 
1.774288570195e+01 -2.358731843368e+02 0.0 
0.0 0.0 -1.029924213443e+02 
-1.093560192517e+02 8.858890543147e-01 0.0 
8.858890543147e-01 -2.507562908579e+02 0.0 
0.0 0.0 -1.076336930329e+02 
-1.076707819503e+02 8.611631094043e-01 0.0 
8.611631094043e-01 -2.525651578839e+02 0.0 
0.0 0.0 -1.076707819503e+02 
-1.144088900938e+01 -6.033312371803e-02 0.0 
-6.033312371803e-02 -6.170213669272e+00 0.0 
0.0 0.0 -4.536797724189e+00 
-7.753210567360e+00 1.220692702024e-01 0.0 
1.220692702024e-01 -1.083719772006e+01 0.0 
0.0 0.0 -3.855118720239e+00 
-4.581333563153e+01 6.557821697620e-01 0.0 
6.557821697620e-01 -6.882455479247e+01 0.0 
0.0 0.0 -3.399136712720e+01 
-4.464933836827e+01 -6.850858539003e-02 0.0 
-6.850858539003e-02 -6.636709827998e+01 0.0 
0.0 0.0 -3.290493099447e+01 
-1.680826053987e+02 4.173199775804e-01 0.0 
4.173199775804e-01 -3.935260792637e+02 0.0 
0.0 0.0 -1.680826053987e+02 
-1.656379915157e+02 -6.559959743288e-01 0.0 
-6.559959743288e-01 -3.906041133872e+02 0.0 
0.0 0.0 -1.664726314709e+02 
-1.143743560257e+01 -4.281852159839e-01 0.0 
-4.281852159839e-01 -2.334763181204e+01 0.0 
0.0 0.0 -7.851775640619e+00 
-7.985051363944e+01 -4.025079167115e+00 0.0 
-4.025079167115e+00 -1.133130763529e+02 0.0 
0.0 0.0 -5.844950334490e+01 
-1.506015084709e+02 1.946546606459e+00 0.0 
1.946546606459e+00 -3.618927744661e+02 0.0 
0.0 0.0 -1.533482848811e+02 
-1.244773364451e+02 2.831688524082e+01 0.0 
2.831688524082e+01 -3.062485169868e+02 0.0 
0.0 0.0 -1.288177560296e+02 
-2.233209758253e+01 -2.197656794571e+00 0.0 
-2.197656794571e+00 -7.494993096489e+01 0.0 
0.0 0.0 -2.813681990278e+01 
-1.514226815694e+02 5.737455054983e+00 0.0 
5.737455054983e+00 -3.655643963101e+02 0.0 
0.0 0.0 -1.546961233639e+02 
-1.135866968182e+02 -2.519864504420e-02 0.0 
-2.519864504420e-02 -2.617415808850e+02 0.0 
0.0 0.0 -1.093156110834e+02 
-1.021064510425e+02 2.356895558025e-01 0.0 
2.356895558025e-01 -2.261694139028e+02 0.0 
0.0 0.0 -9.390501535706e+01 
-7.250602812624e+01 1.004281192555e+00 0.0 
1.004281192555e+00 -1.351650064318e+02 0.0 
0.0 0.0 -6.190131036740e+01 
-4.608354147466e+01 -2.066440004589e+01 0.0 
-2.066440004589e+01 -9.105625668152e+01 0.0 
0.0 0.0 -3.473488325998e+01 
-9.679268697271e+01 2.484294280496e+01 0.0 
2.484294280496e+01 -2.613654881725e+02 0.0 
0.0 0.0 -1.070474525435e+02 
-1.913945653425e+01 -9.713879772334e-01 0.0 
-9.713879772334e-01 -6.019061874101e+01 0.0 
0.0 0.0 -2.202430381127e+01 
-9.513823993495e+01 -2.143767611066e+00 0.0 
-2.143767611066e+00 -2.066304008299e+02 0.0 
0.0 0.0 -8.518494337436e+01 
-1.181400792807e+02 2.784026228105e+01 0.0 
2.784026228105e+01 -2.665149727438e+02 0.0 
0.0 0.0 -1.149965156074e+02 
-9.670535857360e+01 9.831818563184e-01 0.0 
9.831818563184e-01 -2.095074675205e+02 0.0 
0.0 0.0 -9.146384782823e+01 
-1.022285901826e+02 -1.182658605497e+00 0.0 
-1.182658605497e+00 -2.250920454918e+02 0.0 
0.0 0.0 -9.363756315026e+01 
-6.434888029355e+01 1.309769915936e+00 0.0 
1.309769915936e+00 -1.143574066541e+02 0.0 
0.0 0.0 -5.321188608430e+01 
-1.237682539523e+02 3.097423824994e+01 0.0 
3.097423824994e+01 -2.953513076103e+02 0.0 
0.0 0.0 -1.253358684688e+02 
-1.119525650453e+02 2.942302701521e+01 0.0 
2.942302701521e+01 -2.434655831369e+02 0.0 
0.0 0.0 -1.062254444546e+02 
-1.046030959265e+02 2.890942347688e+01 0.0 
2.890942347688e+01 -2.226971535573e+02 0.0 
0.0 0.0 -9.779007484514e+01 
-4.650603441443e+01 5.610729599401e-01 0.0 
5.610729599401e-01 -6.691900599144e+01 0.0 
0.0 0.0 -3.362751212176e+01 
-9.153707906337e+01 2.338828739623e+01 0.0 
2.338828739623e+01 -2.566657473255e+02 0.0 
0.0 0.0 -1.040608479167e+02 
-1.099003316427e+02 2.085326796173e+01 0.0 
2.085326796173e+01 -2.391430148076e+02 0.0 
0.0 0.0 -1.043130039351e+02 
-5.393927735653e+01 -3.213430268307e+00 0.0 
-3.213430268307e+00 -1.162841179505e+02 0.0 
0.0 0.0 -4.625712878301e+01 
-1.712660088730e+01 1.100244680180e-01 0.0 
1.100244680180e-01 -2.416628648058e+01 0.0 
0.0 0.0 -1.176416603320e+01 
-1.190610194164e+02 3.030922670351e+01 0.0 
3.030922670351e+01 -2.806258809654e+02 0.0 
0.0 0.0 -1.195060701145e+02 
-1.187778250032e+02 1.679231768750e+01 0.0 
1.679231768750e+01 -3.162651986971e+02 0.0 
0.0 0.0 -1.301129071101e+02 
-4.395751745141e+01 -2.168748147645e+01 0.0 
-2.168748147645e+01 -8.336711564575e+01 0.0 
0.0 0.0 -3.159599808192e+01 
-7.752608813765e+01 1.602075957437e+00 0.0 
1.602075957437e+00 -1.494916854833e+02 0.0 
0.0 0.0 -6.770533208628e+01 
-1.587700511972e+02 2.789199523194e+00 0.0 
2.789199523194e+00 -3.764300547521e+02 0.0 
0.0 0.0 -1.601600317848e+02 
-1.193105591080e+02 2.812729041438e+01 0.0 
2.812729041438e+01 -2.912444191015e+02 0.0 
0.0 0.0 -1.227664934629e+02 
-1.248137778307e+02 3.090184118353e+01 0.0 
3.090184118353e+01 -3.011246528046e+02 0.0 
0.0 0.0 -1.273815291906e+02 
-1.194059710874e+02 7.417083514921e-01 0.0 
7.417083514921e-01 -2.825109043022e+02 0.0 
0.0 0.0 -1.182953570986e+02 
-4.398394854133e+01 3.387844463205e+01 0.0 
3.387844463205e+01 -9.635015272508e+01 0.0 
0.0 0.0 -4.345240623098e+01 
-4.025777131004e+01 2.883361504387e+01 0.0 
2.883361504387e+01 -2.636368712605e+01 0.0 
0.0 0.0 -1.713865529571e+01 
-4.574859164870e+01 3.084673975316e+01 0.0 
3.084673975316e+01 -6.740008273478e+01 0.0 
0.0 0.0 -3.055185871807e+01 
-6.976927396357e+01 7.368391698321e+00 0.0 
7.368391698321e+00 -1.051055690729e+02 0.0 
0.0 0.0 -5.206245291094e+01 
-9.187505257632e+01 2.251178559141e+01 0.0 
2.251178559141e+01 -2.566585012380e+02 0.0 
0.0 0.0 -1.049767899452e+02 
-1.023432382974e+02 7.182851042236e+00 0.0 
7.182851042236e+00 -2.240901156145e+02 0.0 
0.0 0.0 -9.753000617358e+01 
-1.469219539118e+02 2.093384163540e+01 0.0 
2.093384163540e+01 -3.556189624957e+02 0.0 
0.0 0.0 -1.503622749222e+02 
-4.303398859002e+01 -1.624668425559e+01 0.0 
-1.624668425559e+01 -5.258610686339e+01 0.0 
0.0 0.0 -2.358163997482e+01 
-2.946319441175e+01 -6.744357241246e+00 0.0 
-6.744357241246e+00 -4.242638856133e+01 0.0 
0.0 0.0 -1.755612677190e+01 
-4.264609644468e+01 2.942737609779e+01 0.0 
2.942737609779e+01 -2.819999590868e+01 0.0 
0.0 0.0 -1.777610445805e+01 
-7.904113822029e+01 7.250687342578e-01 0.0 
7.250687342578e-01 -1.549531460488e+02 0.0 
0.0 0.0 -6.979828528074e+01 
-6.662030616525e+01 -3.199413634845e+00 0.0 
-3.199413634845e+00 -1.448359349104e+02 0.0 
0.0 0.0 -5.808002839044e+01 
-1.092364055333e+02 1.640702863752e+01 0.0 
1.640702863752e+01 -2.337864944429e+02 0.0 
0.0 0.0 -1.025068699929e+02 
-1.898400562707e+01 -8.070061377906e-01 0.0 
-8.070061377906e-01 -7.165048108522e+01 0.0 
0.0 0.0 -2.663398716771e+01 
-1.351590475362e+02 1.992448330985e+01 0.0 
1.992448330985e+01 -3.389269016204e+02 0.0 
0.0 0.0 -1.418257847470e+02 
-6.253620960382e+01 2.230549884766e+00 0.0 
2.230549884766e+00 -1.003415827770e+02 0.0 
0.0 0.0 -4.846333771425e+01 
-1.406813670415e+02 2.768655093177e+01 0.0 
2.768655093177e+01 -3.363782168863e+02 0.0 
0.0 0.0 -1.427178751784e+02 
-1.118504588816e+02 2.709950229307e+01 0.0 
2.709950229307e+01 -2.844767818047e+02 0.0 
0.0 0.0 -1.184981722059e+02 
-7.208718157544e+01 9.750147694325e+00 0.0 
9.750147694325e+00 -1.065733899282e+02 0.0 
0.0 0.0 -5.319817145109e+01 
-1.512233550416e+02 1.276033486087e+01 0.0 
1.276033486087e+01 -3.709342355285e+02 0.0 
0.0 0.0 -1.562472771710e+02 
-1.134832195588e+02 1.737361002891e+01 0.0 
1.737361002891e+01 -2.485092442016e+02 0.0 
0.0 0.0 -1.081977391281e+02 
-1.059875898998e+02 1.267382282521e+00 0.0 
1.267382282521e+00 -2.367104168945e+02 0.0 
0.0 0.0 -1.024094020383e+02 
-4.390764157051e+01 2.987968268228e+01 0.0 
2.987968268228e+01 -2.968806051422e+01 0.0 
0.0 0.0 -1.783973922946e+01 
-1.039334616505e+02 1.267853033963e+01 0.0 
1.267853033963e+01 -2.227169806009e+02 0.0 
0.0 0.0 -9.759513267542e+01 
-1.292285893764e+02 3.083961215689e+01 0.0 
3.083961215689e+01 -3.029479457920e+02 0.0 
0.0 0.0 -1.292529605505e+02 
-1.340950394050e+02 2.103000761546e+01 0.0 
2.103000761546e+01 -3.391680843968e+02 0.0 
0.0 0.0 -1.415789371405e+02 
-1.157129975128e+02 2.483655193419e+01 0.0 
2.483655193419e+01 -2.966688371964e+02 0.0 
0.0 0.0 -1.233145504128e+02 
-1.674903624632e+02 6.869297014772e+00 0.0 
6.869297014772e+00 -3.921441790808e+02 0.0 
0.0 0.0 -1.674903624632e+02 
-1.036255839371e+02 2.618202777803e+01 0.0 
2.618202777803e+01 -2.217480363247e+02 0.0 
0.0 0.0 -9.721208607855e+01 
-6.307565506326e+01 2.475509783151e+01 0.0 
2.475509783151e+01 -7.632910526180e+01 0.0 
0.0 0.0 -4.237317099804e+01 
-4.166967486485e+01 3.189004780257e+01 0.0 
3.189004780257e+01 -7.084113989632e+01 0.0 
0.0 0.0 -2.737216697392e+01 
-1.149311387479e+02 2.901956897909e+01 0.0 
2.901956897909e+01 -2.499327709804e+02 0.0 
0.0 0.0 -1.090591729185e+02 
-7.427827882696e+01 7.177681774352e+00 0.0 
7.177681774352e+00 -1.203571100366e+02 0.0 
0.0 0.0 -5.799061665907e+01 
-1.507485637346e+02 2.112934185602e+00 0.0 
2.112934185602e+00 -3.611156638739e+02 0.0 
0.0 0.0 -1.531592682825e+02 
-1.223414839891e+02 2.788566787364e+01 0.0 
2.788566787364e+01 -3.031121941376e+02 0.0 
0.0 0.0 -1.272361034380e+02 
-1.591860379769e+02 5.978934191084e+00 0.0 
5.978934191084e+00 -3.785280200274e+02 0.0 
0.0 0.0 -1.609142174013e+02 
-8.665147316021e+01 1.431038869368e+00 0.0 
1.431038869368e+00 -1.763451322008e+02 0.0 
0.0 0.0 -7.849898160832e+01 
-1.428752158911e+02 2.657069632081e+01 0.0 
2.657069632081e+01 -3.418286886521e+02 0.0 
0.0 0.0 -1.450111713630e+02 
-1.467928559822e+02 1.113645505016e+01 0.0 
1.113645505016e+01 -3.608801019404e+02 0.0 
0.0 0.0 -1.519018873768e+02 
-1.453707894339e+02 1.021415275877e+01 0.0 
1.021415275877e+01 -3.601532998134e+02 0.0 
0.0 0.0 -1.512572267742e+02 
-6.902128508947e+01 -2.195327073544e+00 0.0 
-2.195327073544e+00 -1.497871818185e+02 0.0 
0.0 0.0 -6.072943986642e+01 
-1.652069361348e+02 5.473337711811e+00 0.0 
5.473337711811e+00 -3.918896752420e+02 0.0 
0.0 0.0 -1.667289834130e+02 
-5.882892576923e+01 3.508030079874e+00 0.0 
3.508030079874e+00 -8.507453739667e+01 0.0 
0.0 0.0 -4.277103894977e+01 
-1.002029831894e+02 4.257074699439e+00 0.0 
4.257074699439e+00 -2.178435430315e+02 0.0 
0.0 0.0 -9.501395786627e+01 
-3.029223418121e+01 -7.395141032709e+00 0.0 
-7.395141032709e+00 -4.568261604216e+01 0.0 
0.0 0.0 -1.829364630783e+01 
-9.573942636078e+01 2.125578478187e+00 0.0 
2.125578478187e+00 -2.024750529793e+02 0.0 
0.0 0.0 -8.906434380201e+01 
-7.876201807149e+01 1.581451237015e+00 0.0 
1.581451237015e+00 -1.515174269734e+02 0.0 
0.0 0.0 -6.868383351345e+01 
-1.291019124450e+01 9.530330726730e-02 0.0 
9.530330726730e-02 -4.188262476089e+01 0.0 
0.0 0.0 -1.326906750028e+01 
-3.917098597829e+01 -1.402954831262e+01 0.0 
-1.402954831262e+01 -1.264332485095e+02 0.0 
0.0 0.0 -4.903661122971e+01 
-1.070711972515e+02 2.723767844554e+01 0.0 
2.723767844554e+01 -2.370354855756e+02 0.0 
0.0 0.0 -1.028320048481e+02 
-1.051150143600e+02 9.284763815416e+00 0.0 
9.284763815416e+00 -2.375779805020e+02 0.0 
0.0 0.0 -1.024078984586e+02 
-1.003410785897e+02 2.426743679029e+00 0.0 
2.426743679029e+00 -2.204381189989e+02 0.0 
0.0 0.0 -9.583375927660e+01 
-1.381265646449e+02 2.529953127740e+01 0.0 
2.529953127740e+01 -3.406114112479e+02 0.0 
0.0 0.0 -1.432213927679e+02 
-6.450646473666e+01 5.926640079493e-01 0.0 
5.926640079493e-01 -1.135989302035e+02 0.0 
0.0 0.0 -5.303161848204e+01 
-1.527331385483e+01 -3.189948051385e-01 0.0 
-3.189948051385e-01 -2.326113081068e+01 0.0 
0.0 0.0 -1.041244859181e+01 
-3.822228461309e+01 2.443166711343e+01 0.0 
2.443166711343e+01 -1.104874879639e+02 0.0 
0.0 0.0 -4.650438043238e+01 
-1.274201684361e+01 -1.522447290927e+00 0.0 
-1.522447290927e+00 -2.873361296340e+01 0.0 
0.0 0.0 -1.158116728424e+01 
-3.417191242837e+01 -7.187908292579e+00 0.0 
-7.187908292579e+00 -5.778747777302e+01 0.0 
0.0 0.0 -2.229172941764e+01 
-5.357176771251e+01 4.320038760056e+01 0.0 
4.320038760056e+01 -5.423229431247e+01 0.0 
0.0 0.0 -3.279166982218e+01 
-9.199971755256e+01 -3.222528813091e+00 0.0 
-3.222528813091e+00 -2.007499420346e+02 0.0 
0.0 0.0 -8.269582931831e+01 
-1.503448658553e+02 6.336602042046e-01 0.0 
6.336602042046e-01 -3.608977591809e+02 0.0 
0.0 0.0 -1.529727875109e+02 
-1.136350117595e+02 2.383743572367e+01 0.0 
2.383743572367e+01 -2.471150020422e+02 0.0 
0.0 0.0 -1.078250041405e+02 
-8.045131904790e+01 1.333939578673e+01 0.0 
1.333939578673e+01 -1.246992547192e+02 0.0 
0.0 0.0 -6.114517213013e+01 
-8.242347509493e+01 -3.694781403629e+00 0.0 
-3.694781403629e+00 -1.770650998753e+02 0.0 
0.0 0.0 -7.159931072326e+01 
-1.466139768074e+02 8.558274241872e+00 0.0 
8.558274241872e+00 -3.602144454574e+02 0.0 
0.0 0.0 -1.516485266795e+02 
-1.367160735247e+02 1.453602925035e+01 0.0 
1.453602925035e+01 -3.483045350263e+02 0.0 
0.0 0.0 -1.451061825653e+02 
-1.366991737314e+02 2.908440786831e+01 0.0 
2.908440786831e+01 -3.334573624235e+02 0.0 
0.0 0.0 -1.406469608465e+02 
-1.245583695546e+02 3.002964346801e+01 0.0 
3.002964346801e+01 -2.930620856902e+02 0.0 
0.0 0.0 -1.248861365734e+02 
-1.136329508489e+02 2.798838128647e+01 0.0 
2.798838128647e+01 -2.564599297228e+02 0.0 
0.0 0.0 -1.106278641715e+02 
-2.836236019923e+01 -7.462721056349e+00 0.0 
-7.462721056349e+00 -4.355503219514e+01 0.0 
0.0 0.0 -1.889255098875e+01 
-3.770605036407e+01 -2.092998567047e+01 0.0 
-2.092998567047e+01 -1.090084669578e+02 0.0 
0.0 0.0 -4.577681149274e+01 
-1.506465295601e+02 2.984279028673e+00 0.0 
2.984279028673e+00 -3.623952960962e+02 0.0 
0.0 0.0 -1.535125476969e+02 
-1.010586423592e+01 -4.096106914851e-01 0.0 
-4.096106914851e-01 -4.095379491056e+01 0.0 
0.0 0.0 -1.305401352199e+01 
-1.281706653169e+01 -1.093480363605e+00 0.0 
-1.093480363605e+00 -4.916659472019e+01 0.0 
0.0 0.0 -1.650578984283e+01 
-4.805232123517e+01 3.819640605854e+01 0.0 
3.819640605854e+01 -5.966608810600e+01 0.0 
0.0 0.0 -3.084285991874e+01 
-1.660971560182e+01 -3.138250345387e-01 0.0 
-3.138250345387e-01 -3.860467807395e+01 0.0 
0.0 0.0 -1.485660492974e+01 
-1.558961865680e+02 1.139426721798e+01 0.0 
1.139426721798e+01 -3.740585496456e+02 0.0 
0.0 0.0 -1.585864208641e+02 
-1.256155328547e+02 3.072250421494e+01 0.0 
3.072250421494e+01 -2.893986078770e+02 0.0 
0.0 0.0 -1.241042422195e+02 
-1.010903379594e+02 5.453294876288e+00 0.0 
5.453294876288e+00 -2.236964411246e+02 0.0 
0.0 0.0 -9.703603372522e+01 
-1.392765876097e+02 2.887265321642e+01 0.0 
2.887265321642e+01 -3.325700773964e+02 0.0 
0.0 0.0 -1.411539995018e+02 
-1.323314705008e+02 1.588827694531e+01 0.0 
1.588827694531e+01 -3.379464395602e+02 0.0 
0.0 0.0 -1.406833730183e+02 
-6.886690888252e+01 5.511316290290e-01 0.0 
5.511316290290e-01 -1.250902721468e+02 0.0 
0.0 0.0 -5.778715430879e+01 
-1.100178582092e+02 1.258196013773e+01 0.0 
1.258196013773e+01 -2.580416691547e+02 0.0 
0.0 0.0 -1.100178582092e+02 
-4.969632611092e+01 -1.963833257391e+01 0.0 
-1.963833257391e+01 -1.286892306033e+02 0.0 
0.0 0.0 -4.987842026718e+01 
-4.719545305833e+01 8.029733250506e-01 0.0 
8.029733250506e-01 -6.630857349938e+01 0.0 
0.0 0.0 -3.365120796731e+01 
-5.036395618554e+01 -2.275300754747e+01 0.0 
-2.275300754747e+01 -7.494021327600e+01 0.0 
0.0 0.0 -3.079535062966e+01 
-8.712984143719e+00 -1.047986197677e+00 0.0 
-1.047986197677e+00 -2.431567863370e+01 0.0 
0.0 0.0 -7.532866746977e+00 
-1.656680103355e+02 3.276396958701e+00 0.0 
3.276396958701e+00 -3.920503368278e+02 0.0 
0.0 0.0 -1.669155041490e+02 
-6.577754260583e+01 8.149444365293e+00 0.0 
8.149444365293e+00 -9.151704717658e+01 0.0 
0.0 0.0 -4.678837693472e+01 
-1.717915916104e+01 -7.707088464335e-01 0.0 
-7.707088464335e-01 -5.761167975774e+01 0.0 
0.0 0.0 -2.050601558784e+01 
-8.935991623487e+01 -3.026481824644e+00 0.0 
-3.026481824644e+00 -1.925052793041e+02 0.0 
0.0 0.0 -7.923291186627e+01 
-1.263401721856e+02 3.135126598861e+01 0.0 
3.135126598861e+01 -2.878938505156e+02 0.0 
0.0 0.0 -1.238702068103e+02 
-1.038520456283e+02 9.502773074805e+00 0.0 
9.502773074805e+00 -2.238563914131e+02 0.0 
0.0 0.0 -9.791253111242e+01 
-1.114582437627e+02 1.967825144723e+01 0.0 
1.967825144723e+01 -2.507887508148e+02 0.0 
0.0 0.0 -1.082740983733e+02 
-6.158087349933e+01 -9.440475769127e-01 0.0 
-9.440475769127e-01 -1.360060753805e+02 0.0 
0.0 0.0 -5.510450549842e+01 
-3.846504416889e+01 2.754934565096e+00 0.0 
2.754934565096e+00 -1.202654995182e+02 0.0 
0.0 0.0 -4.954899604959e+01 
-1.560473857803e+02 6.931507428632e+00 0.0 
6.931507428632e+00 -3.765423698356e+02 0.0 
0.0 0.0 -1.593769266848e+02 
-1.112216311430e+02 1.118789137327e+00 0.0 
1.118789137327e+00 -2.539607822438e+02 0.0 
0.0 0.0 -1.091547240160e+02 
-1.661335431343e+02 7.351570665524e-01 0.0 
7.351570665524e-01 -3.925642774055e+02 0.0 
0.0 0.0 -1.672093461619e+02 
-5.072937149372e+01 -4.076502411515e-01 0.0 
-4.076502411515e-01 -8.077867116776e+01 0.0 
0.0 0.0 -3.905241279844e+01 
-1.417738067321e+02 1.613867771072e+01 0.0 
1.613867771072e+01 -3.510682685082e+02 0.0 
0.0 0.0 -1.474526225721e+02 
-1.587571112187e+01 -1.152213032770e+00 0.0 
-1.152213032770e+00 -5.828038477083e+01 0.0 
0.0 0.0 -2.094834508824e+01 
-1.070992795087e+02 1.464030875195e+01 0.0 
1.464030875195e+01 -2.330773735554e+02 0.0 
0.0 0.0 -1.016529959192e+02 
-1.016443408262e+01 -7.380603958739e-01 0.0 
-7.380603958739e-01 -2.343949558925e+01 0.0 
0.0 0.0 -8.113843146907e+00 
-1.542122032991e+02 1.461164380143e+01 0.0 
1.461164380143e+01 -3.708449205389e+02 0.0 
0.0 0.0 -1.571171371514e+02 
-1.157608147390e+02 2.091636008555e+01 0.0 
2.091636008555e+01 -2.534133733161e+02 0.0 
0.0 0.0 -1.103522564165e+02 
-4.626255942738e+01 1.486829931184e+01 0.0 
1.486829931184e+01 -1.170795453984e+02 0.0 
0.0 0.0 -5.036890565150e+01 
-1.198818001429e+02 2.954087158865e+01 0.0 
2.954087158865e+01 -2.922171282583e+02 0.0 
0.0 0.0 -1.232296785204e+02 
-8.360204828650e+01 2.517128953759e+00 0.0 
2.517128953759e+00 -1.662238491605e+02 0.0 
0.0 0.0 -7.454776923410e+01 
-1.044330881837e+02 6.929345091516e+00 0.0 
6.929345091516e+00 -2.376497849147e+02 0.0 
0.0 0.0 -1.022248619295e+02 
-1.562212708935e+02 2.559765710918e+01 0.0 
2.559765710918e+01 -3.658496320849e+02 0.0 
0.0 0.0 -1.562212708935e+02 
-7.305956468524e+01 1.685316845262e+00 0.0 
1.685316845262e+00 -1.388491473903e+02 0.0 
0.0 0.0 -6.317261362266e+01 
-1.232359630731e+02 2.963115637569e+01 0.0 
2.963115637569e+01 -2.837513457356e+02 0.0 
0.0 0.0 -1.216961926426e+02 
-1.117657583480e+02 1.978623645774e+01 0.0 
1.978623645774e+01 -2.381127919136e+02 0.0 
0.0 0.0 -1.045635650785e+02 
-7.670244326481e+01 1.135158660630e+00 0.0 
1.135158660630e+00 -1.503949732931e+02 0.0 
0.0 0.0 -6.772922496737e+01 
-1.206473447981e+02 2.911928037764e+01 0.0 
2.911928037764e+01 -2.735752659452e+02 0.0 
0.0 0.0 -1.178667832230e+02 
-7.800878730609e+01 -2.223573484318e+00 0.0 
-2.223573484318e+00 -1.645126895525e+02 0.0 
0.0 0.0 -6.724114142097e+01 
-4.508852210899e+01 4.158631792356e-01 0.0 
4.158631792356e-01 -6.611511065675e+01 0.0 
0.0 0.0 -3.296108982972e+01 
-1.300089759410e+02 2.793430292185e+01 0.0 
2.793430292185e+01 -3.190224286164e+02 0.0 
0.0 0.0 -1.343094213672e+02 
-1.048956634775e+02 3.864383280081e-01 0.0 
3.864383280081e-01 -2.382580795390e+02 0.0 
0.0 0.0 -1.025461229049e+02 
-6.215528417879e+00 -4.554584922069e-02 0.0 
-4.554584922069e-02 -8.761296945153e+00 0.0 
0.0 0.0 -2.529808980185e+00 
-4.460712836457e+01 -1.595060863516e-01 0.0 
-1.595060863516e-01 -6.645486680347e+01 0.0 
0.0 0.0 -3.291859855041e+01 
-1.605446346116e+02 9.455999839413e-01 0.0 
9.455999839413e-01 -3.799930687926e+02 0.0 
0.0 0.0 -1.617613110213e+02 
-2.834637370916e+01 -4.943147137180e+00 0.0 
-4.943147137180e+00 -7.395184174592e+01 0.0 
0.0 0.0 -2.741927595612e+01 
-1.349271798695e+02 1.905700211768e+01 0.0 
1.905700211768e+01 -3.438827934492e+02 0.0 
0.0 0.0 -1.432429919956e+02 
-1.147664399509e+02 2.298245188825e+01 0.0 
2.298245188825e+01 -2.424691172644e+02 0.0 
0.0 0.0 -1.067706671646e+02 
-1.068998644575e+02 6.799980472363e+00 0.0 
6.799980472363e+00 -2.373934444265e+02 0.0 
0.0 0.0 -1.028879926652e+02 
-2.103212880850e+01 -3.126171556820e+00 0.0 
-3.126171556820e+00 -7.079711202841e+01 0.0 
0.0 0.0 -2.636096783738e+01 
-4.729003818032e+01 3.631363341878e+01 0.0 
3.631363341878e+01 -8.635604629486e+01 0.0 
0.0 0.0 -3.806206955645e+01 
-1.048265023354e+02 -1.411976511141e+00 0.0 
-1.411976511141e+00 -2.349540492970e+02 0.0 
0.0 0.0 -9.759192899892e+01 
-8.948924238985e+01 1.025130302984e+00 0.0 
1.025130302984e+00 -1.878061282365e+02 0.0 
0.0 0.0 -8.278861118791e+01 
-1.395073717197e+02 -3.340381687611e+00 0.0 
-3.340381687611e+00 -9.573071667162e+01 0.0 
0.0 0.0 -7.079581103019e+01 
-1.092665332799e+02 1.640046930174e+01 0.0 
1.640046930174e+01 -2.465478552723e+02 0.0 
0.0 0.0 -1.063443165657e+02 
-7.026138783990e+01 6.560582972823e-01 0.0 
6.560582972823e-01 -1.325466756470e+02 0.0 
0.0 0.0 -6.044241904607e+01 
-5.090627606955e+01 -2.157352227768e+01 0.0 
-2.157352227768e+01 -9.304223718001e+01 0.0 
0.0 0.0 -3.767067984102e+01 
-6.545035753894e+01 8.417972661586e-01 0.0 
8.417972661586e-01 -1.185861041996e+02 0.0 
0.0 0.0 -5.481093852156e+01 
-1.355755450953e+02 3.118100683223e+01 0.0 
3.118100683223e+01 -3.264776708167e+02 0.0 
0.0 0.0 -1.382159647736e+02 
-1.084729635796e+02 8.068562142135e-01 0.0 
8.068562142135e-01 -2.461311070988e+02 0.0 
0.0 0.0 -1.025084766097e+02 
-5.143213267988e+01 3.577832370233e+01 0.0 
3.577832370233e+01 -3.409483899909e+01 0.0 
0.0 0.0 -2.654856072515e+01 
-7.143377139705e+01 -4.170622459089e+00 0.0 
-4.170622459089e+00 -1.486763999188e+02 0.0 
0.0 0.0 -5.993250654816e+01 
-9.720979619029e+01 -2.755229166647e+00 0.0 
-2.755229166647e+00 -2.161357481878e+02 0.0 
0.0 0.0 -8.931447177572e+01 
-1.115801440008e+02 -1.406471628372e+00 0.0 
-1.406471628372e+00 -2.554755123645e+02 0.0 
0.0 0.0 -1.066715431838e+02 
-1.335762863120e+02 2.664325481123e+01 0.0 
2.664325481123e+01 -3.284592607831e+02 0.0 
0.0 0.0 -1.382106641285e+02 
-9.713390152045e+01 -7.250008509585e-01 0.0 
-7.250008509585e-01 -2.105926194799e+02 0.0 
0.0 0.0 -8.714507539652e+01 
-1.006044261001e+02 -1.788060804707e+00 0.0 
-1.788060804707e+00 -2.233623480129e+02 0.0 
0.0 0.0 -9.269443167368e+01 
-1.404946637468e+01 -1.472716437202e+00 0.0 
-1.472716437202e+00 -3.750605203110e+01 0.0 
0.0 0.0 -1.396273968966e+01 
-1.503444461299e+02 4.882403987179e+00 0.0 
4.882403987179e+00 -3.653830821379e+02 0.0 
0.0 0.0 -1.543182584804e+02 
-1.181245996733e+02 2.923374724076e+01 0.0 
2.923374724076e+01 -2.803892195274e+02 0.0 
0.0 0.0 -1.191541457602e+02 
-4.406756913840e+01 3.178435518361e+01 0.0 
3.178435518361e+01 -1.020956232673e+02 0.0 
0.0 0.0 -4.256570689931e+01 
-1.042458931773e+02 1.338967932243e+00 0.0 
1.338967932243e+00 -2.373896897309e+02 0.0 
0.0 0.0 -1.020906748724e+02 
-1.605067196898e+02 -6.686069993501e-02 0.0 
-6.686069993501e-02 -3.795436393853e+02 0.0 
0.0 0.0 -1.616151077225e+02 
-5.131965180284e+01 7.415122270025e-01 0.0 
7.415122270025e-01 -8.187818955647e+01 0.0 
0.0 0.0 -3.955935240779e+01 
-7.110629351171e+01 5.668292910338e-01 0.0 
5.668292910338e-01 -1.329007259464e+02 0.0 
0.0 0.0 -6.080210583742e+01 
-9.585670204081e+01 -2.487571740682e+00 0.0 
-2.487571740682e+00 -2.102691839538e+02 0.0 
0.0 0.0 -8.701473679814e+01 
-9.978155427561e+01 -1.495392710874e+00 0.0 
-1.495392710874e+00 -2.175388256659e+02 0.0 
0.0 0.0 -9.020342945885e+01 
-1.008425880602e+02 -1.001661820937e+00 0.0 
-1.001661820937e+00 -2.240261429651e+02 0.0 
0.0 0.0 -9.287524687523e+01 
-1.289761483515e+02 1.805953089226e+01 0.0 
1.805953089226e+01 -3.317766483781e+02 0.0 
0.0 0.0 -1.378258390189e+02 
-4.172329575496e+01 -1.642373346914e+01 0.0 
-1.642373346914e+01 -6.880213449976e+01 0.0 
0.0 0.0 -2.561249849357e+01 
-1.230317911435e+02 3.186417640778e+01 0.0 
3.186417640778e+01 -2.873574108908e+02 0.0 
0.0 0.0 -1.227167606103e+02 
-5.760149574522e+01 1.942787711563e-01 0.0 
1.942787711563e-01 -9.858800934455e+01 0.0 
0.0 0.0 -4.645685152693e+01 
-1.128520665643e+02 1.617058411144e+01 0.0 
1.617058411144e+01 -2.458627658579e+02 0.0 
0.0 0.0 -1.072144497267e+02 
-1.308305496660e+02 1.860422262357e+01 0.0 
1.860422262357e+01 -3.324685068142e+02 0.0 
0.0 0.0 -1.385897169441e+02 
-6.736147289974e+01 1.485979517088e+00 0.0 
1.485979517088e+00 -1.197638709841e+02 0.0 
0.0 0.0 -5.573760316516e+01 
-1.158617721137e+02 2.802653322829e+01 0.0 
2.802653322829e+01 -2.601136605938e+02 0.0 
0.0 0.0 -1.123926298123e+02 
-1.321777041263e+02 2.537792543201e+01 0.0 
2.537792543201e+01 -3.272459765337e+02 0.0 
0.0 0.0 -1.374271041980e+02 
-1.381797756008e+02 2.847532784403e+01 0.0 
2.847532784403e+01 -3.379580133373e+02 0.0 
0.0 0.0 -1.424413366814e+02 
-5.296144902708e+01 4.460077747126e+01 0.0 
4.460077747126e+01 -7.240701644447e+01 0.0 
0.0 0.0 -3.883645211450e+01 
-1.172503559745e+02 2.961302707538e+01 0.0 
2.961302707538e+01 -2.609570233543e+02 0.0 
0.0 0.0 -1.130622137986e+02 
-1.210686052219e+02 2.967563188438e+01 0.0 
2.967563188438e+01 -2.756716066296e+02 0.0 
0.0 0.0 -1.186220635554e+02 
-1.647513702969e+01 -4.467856747674e-01 0.0 
-4.467856747674e-01 -3.778953437713e+01 0.0 
0.0 0.0 -1.410900941526e+01 
-9.350711952023e+01 -1.758359077491e+00 0.0 
-1.758359077491e+00 -2.005014343088e+02 0.0 
0.0 0.0 -8.276800282262e+01 
-5.560395656448e+01 4.256407611588e+01 0.0 
4.256407611588e+01 -6.482795925461e+01 0.0 
0.0 0.0 -3.718342756449e+01 
-1.213994454862e+02 3.037548384721e+01 0.0 
3.037548384721e+01 -2.701764909102e+02 0.0 
0.0 0.0 -1.170727809189e+02 
-2.050066182303e+01 4.939738844435e-01 0.0 
4.939738844435e-01 -8.013805319675e+00 0.0 
0.0 0.0 -8.154340142813e+00 
-2.120226064184e+01 -4.543200258363e-02 0.0 
-4.543200258363e-02 -9.859153664971e+00 0.0 
0.0 0.0 -8.918424292042e+00 
-2.064482622805e+01 1.916184437760e-01 0.0 
1.916184437760e-01 -9.655292714984e+00 0.0 
0.0 0.0 -8.690035682911e+00 
-2.114148439749e+01 5.134567529238e-02 0.0 
5.134567529238e-02 -9.905759079382e+00 0.0 
0.0 0.0 -8.914173043061e+00 
-2.075652877971e+01 5.641772685904e-02 0.0 
5.641772685904e-02 -9.743639519937e+00 0.0 
0.0 0.0 -8.750050489893e+00 
-2.108598061913e+01 -4.093838727389e-02 0.0 
-4.093838727389e-02 -9.934618435284e+00 0.0 
0.0 0.0 -8.906179716324e+00 
-2.071407683404e+01 -6.565586183635e-03 0.0 
-6.565586183635e-03 -9.788143185908e+00 0.0 
0.0 0.0 -8.750666005984e+00 
-2.110581642482e+01 -1.087851450857e-01 0.0 
-1.087851450857e-01 -9.971974507374e+00 0.0 
0.0 0.0 -8.923337279658e+00 
-2.056913823007e+01 -4.176105913432e-02 0.0 
-4.176105913432e-02 -9.772959648322e+00 0.0 
0.0 0.0 -8.702629363517e+00 
-2.113122528933e+01 -1.786899684969e-01 0.0 
-1.786899684969e-01 -1.001533881743e+01 0.0 
0.0 0.0 -8.943969232029e+00 
-2.033149500998e+01 -6.513105357776e-02 0.0 
-6.513105357776e-02 -9.736571190407e+00 0.0 
0.0 0.0 -8.620419860116e+00 
-2.116995586302e+01 -2.548253474388e-01 0.0 
-2.548253474388e-01 -1.006947858606e+01 0.0 
0.0 0.0 -8.971830334725e+00 
-2.000716459514e+01 -7.466926170619e-02 0.0 
-7.466926170619e-02 -9.691871909049e+00 0.0 
0.0 0.0 -8.509710951255e+00 
-2.121364659940e+01 -3.233350643009e-01 0.0 
-3.233350643009e-01 -1.012357653014e+01 0.0 
0.0 0.0 -9.001166938862e+00 
-1.959800516313e+01 -9.388031858748e-02 0.0 
-9.388031858748e-02 -9.618238488880e+00 0.0 
0.0 0.0 -8.364873095603e+00 
-3.135259581996e+01 6.413198377822e+00 0.0 
6.413198377822e+00 -1.334542215751e+01 0.0 
0.0 0.0 -9.955936756989e+00 
-2.139005026219e+01 -4.302185354872e-01 0.0 
-4.302185354872e-01 -1.020594040941e+01 0.0 
0.0 0.0 -9.078797201478e+00 
-3.621902494246e+01 3.918161995890e+00 0.0 
3.918161995890e+00 -1.142727092325e+01 0.0 
0.0 0.0 -1.109436439938e+01 
-1.904514092272e+01 -1.384928549400e-01 0.0 
-1.384928549400e-01 -9.491732475281e+00 0.0 
0.0 0.0 -8.161062019401e+00 
-2.189388078381e+01 -5.692887442782e-01 0.0 
-5.692887442782e-01 -1.028732265867e+01 0.0 
0.0 0.0 -9.092111430524e+00 
-1.832925743597e+01 -1.592191036006e-01 0.0 
-1.592191036006e-01 -9.447325911335e+00 0.0 
0.0 0.0 -7.932975004191e+00 
-2.259329193260e+01 -6.436558887517e-01 0.0 
-6.436558887517e-01 -1.036039851026e+01 0.0 
0.0 0.0 -9.089316381554e+00 
-1.753410717831e+01 -1.595565614386e-01 0.0 
-1.595565614386e-01 -9.386332220086e+00 0.0 
0.0 0.0 -7.676131819519e+00 
-2.346947962838e+01 -6.872886808960e-01 0.0 
-6.872886808960e-01 -1.044448100433e+01 0.0 
0.0 0.0 -9.127507874644e+00 
-2.072931950077e+01 2.276953952324e+00 0.0 
2.276953952324e+00 -5.843409581929e+00 0.0 
0.0 0.0 -4.849962294171e+00 
-1.671296885805e+01 -1.332912369894e-01 0.0 
-1.332912369894e-01 -9.323767347538e+00 0.0 
0.0 0.0 -7.411020861677e+00 
-2.459696236522e+01 -6.651889159857e-01 0.0 
-6.651889159857e-01 -1.053201707265e+01 0.0 
0.0 0.0 -9.204896619155e+00 
-1.597690406912e+01 -4.752077207914e-02 0.0 
-4.752077207914e-02 -9.307112596915e+00 0.0 
0.0 0.0 -7.185204999810e+00 
-2.608565018995e+01 -5.307342935619e-01 0.0 
-5.307342935619e-01 -1.068781575497e+01 0.0 
0.0 0.0 -9.358809017268e+00 
-1.549770565595e+01 1.071682101028e-01 0.0 
1.071682101028e-01 -9.176098613140e+00 0.0 
0.0 0.0 -6.801397674524e+00 
-2.751177938959e+01 -3.427762128457e-01 0.0 
-3.427762128457e-01 -1.092887702973e+01 0.0 
0.0 0.0 -9.564592844980e+00 
-1.549151946601e+01 4.984685822769e-01 0.0 
4.984685822769e-01 -9.239648046410e+00 0.0 
0.0 0.0 -6.356151017500e+00 
-2.930848164678e+01 2.801024245202e-01 0.0 
2.801024245202e-01 -1.105600397582e+01 0.0 
0.0 0.0 -9.602886707879e+00 
-3.116866679168e+01 1.244781166922e+00 0.0 
1.244781166922e+00 -1.128858898043e+01 0.0 
0.0 0.0 -1.006063008160e+01 
-1.662117781559e+01 1.152400359465e+00 0.0 
1.152400359465e+00 -9.436625711220e+00 0.0 
0.0 0.0 -6.193894030347e+00 
-4.366960889733e+01 1.086092085147e+01 0.0 
1.086092085147e+01 -1.340423027078e+01 0.0 
0.0 0.0 -1.351761450424e+01 
-1.985416496575e+01 2.776810617096e+00 0.0 
2.776810617096e+00 -1.064394725941e+01 0.0 
0.0 0.0 -6.858956670399e+00 
-3.493219409344e+01 3.834504030828e+00 0.0 
3.834504030828e+00 5.908009089508e-01 0.0 
0.0 0.0 -6.167322372095e+00 
-2.131710048032e+01 1.500338588716e+00 0.0 
1.500338588716e+00 -1.027086593267e+01 0.0 
0.0 0.0 -9.076389923895e+00 
-2.163494226418e+01 -1.273314571574e+00 0.0 
-1.273314571574e+00 -8.373077927484e+00 0.0 
0.0 0.0 -8.602406057498e+00 
-2.326366835205e+01 2.289144079248e-01 0.0 
2.289144079248e-01 -1.453285961879e+01 0.0 
0.0 0.0 -1.093895839125e+01 
-1.979007294895e+01 -5.855847348217e-02 0.0 
-5.855847348217e-02 -4.287882903469e+00 0.0 
0.0 0.0 -6.823386755726e+00 
-4.828050678271e+01 1.195178644633e+01 0.0 
1.195178644633e+01 -1.176248784334e+01 0.0 
0.0 0.0 -1.383230001874e+01 
-3.005148412591e+01 3.051969742146e-01 0.0 
3.051969742146e-01 -3.124726861259e+01 0.0 
0.0 0.0 -1.798962582155e+01 
-2.958162177236e+01 -1.983222216647e-01 0.0 
-1.983222216647e-01 -2.941099630286e+01 0.0 
0.0 0.0 -1.729778542257e+01 
-2.950784158290e+01 8.288579429816e-02 0.0 
8.288579429816e-02 -2.933225289281e+01 0.0 
0.0 0.0 -1.725202834271e+01 
-2.939048479472e+01 2.055317798333e-02 0.0 
2.055317798333e-02 -2.915342667294e+01 0.0 
0.0 0.0 -1.716317344030e+01 
-2.953647710074e+01 -1.517848071877e-02 0.0 
-1.517848071877e-02 -2.922410198424e+01 0.0 
0.0 0.0 -1.722817372549e+01 
-2.934620917260e+01 -4.571991345786e-02 0.0 
-4.571991345786e-02 -2.920848506005e+01 0.0 
0.0 0.0 -1.716640826980e+01 
-2.962421720399e+01 -4.276240557966e-03 0.0 
-4.276240557966e-03 -2.931045773076e+01 0.0 
0.0 0.0 -1.728040248043e+01 
-2.932617335835e+01 -8.535752963383e-02 0.0 
-8.535752963383e-02 -2.915280735227e+01 0.0 
0.0 0.0 -1.714369421319e+01 
-2.987459052806e+01 -3.353550992550e-02 0.0 
-3.353550992550e-02 -2.935609322892e+01 0.0 
0.0 0.0 -1.736920512709e+01 
-2.933095304225e+01 -1.539341972325e-01 0.0 
-1.539341972325e-01 -2.914803690756e+01 0.0 
0.0 0.0 -1.714369698494e+01 
-3.006674680159e+01 -5.079740805275e-02 0.0 
-5.079740805275e-02 -2.939171358977e+01 0.0 
0.0 0.0 -1.743753811741e+01 
-2.933421396622e+01 -2.036089177544e-01 0.0 
-2.036089177544e-01 -2.911941416019e+01 0.0 
0.0 0.0 -1.713608843792e+01 
-3.040138188308e+01 -5.601355962522e-02 0.0 
-5.601355962522e-02 -2.945073522204e+01 0.0 
0.0 0.0 -1.755563513154e+01 
-4.119358475920e+01 6.542200821390e+00 0.0 
6.542200821390e+00 -3.429691867450e+01 0.0 
0.0 0.0 -2.044512631822e+01 
-2.936720394466e+01 -2.335978634967e-01 0.0 
-2.335978634967e-01 -2.914854366910e+01 0.0 
0.0 0.0 -1.715472428413e+01 
-3.073086309746e+01 4.084370618649e-02 0.0 
4.084370618649e-02 -2.948085866963e+01 0.0 
0.0 0.0 -1.766351653013e+01 
-3.544422140052e+01 4.476658623944e+00 0.0 
4.476658623944e+00 -2.731579180327e+01 0.0 
0.0 0.0 -1.693266043296e+01 
-2.944498882789e+01 -2.033228216930e-01 0.0 
-2.033228216930e-01 -2.900079706271e+01 0.0 
0.0 0.0 -1.713373576718e+01 
-3.124199654750e+01 3.415184540022e-02 0.0 
3.415184540022e-02 -2.947981024070e+01 0.0 
0.0 0.0 -1.781654203646e+01 
-4.406800933359e+01 4.459492245107e+00 0.0 
4.459492245107e+00 -3.166559486479e+01 0.0 
0.0 0.0 -2.063423460433e+01 
-2.937111555149e+01 -2.191644895890e-01 0.0 
-2.191644895890e-01 -2.899600356198e+01 0.0 
0.0 0.0 -1.711013573404e+01 
-3.183844095663e+01 7.636188441056e-02 0.0 
7.636188441056e-02 -2.961458382132e+01 0.0 
0.0 0.0 -1.803590743338e+01 
-2.928948614255e+01 -1.880521912103e-01 0.0 
-1.880521912103e-01 -2.907093558781e+01 0.0 
0.0 0.0 -1.710812651911e+01 
-3.316076351202e+01 2.220774988520e-01 0.0 
2.220774988520e-01 -2.971517647568e+01 0.0 
0.0 0.0 -1.821030285092e+01 
-2.931499500053e+01 -4.261970415343e-02 0.0 
-4.261970415343e-02 -2.911369083534e+01 0.0 
0.0 0.0 -1.712860575076e+01 
-4.694236098058e+01 7.988187119934e+00 0.0 
7.988187119934e+00 -3.500073866414e+01 0.0 
0.0 0.0 -2.233916580697e+01 
-3.483434260078e+01 4.537526586720e-01 0.0 
4.537526586720e-01 -2.985232133559e+01 0.0 
0.0 0.0 -1.848918047479e+01 
-2.951578466052e+01 2.306649703989e-01 0.0 
2.306649703989e-01 -2.927050712409e+01 0.0 
0.0 0.0 -1.723588753538e+01 
-2.995670752672e+01 7.166872032159e-01 0.0 
7.166872032159e-01 -2.961447657624e+01 0.0 
0.0 0.0 -1.747135523089e+01 
-3.678421254193e+01 8.355163927196e-01 0.0 
8.355163927196e-01 -3.003937797852e+01 0.0 
0.0 0.0 -1.880880501839e+01 
-3.152234325704e+01 1.552752035363e+00 0.0 
1.552752035363e+00 -2.982408775364e+01 0.0 
0.0 0.0 -1.766505353813e+01 
-3.916393369937e+01 1.562060139071e+00 0.0 
1.562060139071e+00 -3.021086395586e+01 0.0 
0.0 0.0 -1.914890172859e+01 
-3.385629954288e+01 3.105696645364e+00 0.0 
3.105696645364e+00 -3.150555246811e+01 0.0 
0.0 0.0 -1.837017042456e+01 
-4.061278014270e+01 2.251472346033e+00 0.0 
2.251472346033e+00 -3.073294264515e+01 0.0 
0.0 0.0 -1.967394523364e+01 
-4.220947364063e+01 5.612998301185e+00 0.0 
5.612998301185e+00 -2.405931857168e+01 0.0 
0.0 0.0 -1.740677234265e+01 
-3.003091860251e+01 1.386718918868e+00 0.0 
1.386718918868e+00 -2.905737944117e+01 0.0 
0.0 0.0 -1.732648941310e+01 
-2.965978764840e+01 -1.486520114251e+00 0.0 
-1.486520114251e+00 -3.123029570007e+01 0.0 
0.0 0.0 -1.786702500454e+01 
-2.774040075638e+01 8.558860954906e-02 0.0 
8.558860954906e-02 -2.497856856223e+01 0.0 
0.0 0.0 -1.541569079558e+01 
-3.184065917586e+01 -2.491490788465e-01 0.0 
-2.491490788465e-01 -3.510699722095e+01 0.0 
0.0 0.0 -1.968429691904e+01 
-4.206189271726e+01 9.033979585411e+00 0.0 
9.033979585411e+00 -2.899952794887e+01 0.0 
0.0 0.0 -1.862568927808e+01 
-3.714324963777e+01 4.242210357254e-01 0.0 
4.242210357254e-01 -4.779472147360e+01 0.0 
0.0 0.0 -2.508139133341e+01 
-3.776966804425e+01 6.276464957601e-02 0.0 
6.276464957601e-02 -4.889980969250e+01 0.0 
0.0 0.0 -2.560084332103e+01 
-3.792044414913e+01 4.884673752580e-02 0.0 
4.884673752580e-02 -4.896165888067e+01 0.0 
0.0 0.0 -2.566463090894e+01 
-3.768481980136e+01 1.016422758382e-01 0.0 
1.016422758382e-01 -4.889542156100e+01 0.0 
0.0 0.0 -2.557407240871e+01 
-3.802152157202e+01 4.219781165621e-02 0.0 
4.219781165621e-02 -4.902253908391e+01 0.0 
0.0 0.0 -2.571321819678e+01 
-3.796963127469e+01 3.269369887399e-02 0.0 
3.269369887399e-02 -4.908575073505e+01 0.0 
0.0 0.0 -2.571661460292e+01 
-3.814814039792e+01 1.491724454575e-01 0.0 
1.491724454575e-01 -4.919961184993e+01 0.0 
0.0 0.0 -2.580432567436e+01 
-3.837455769790e+01 1.634964998896e-01 0.0 
1.634964998896e-01 -4.905054131617e+01 0.0 
0.0 0.0 -2.582752970422e+01 
-3.829336702376e+01 1.227347239544e-01 0.0 
1.227347239544e-01 -4.899990505223e+01 0.0 
0.0 0.0 -2.578798162280e+01 
-3.860963982562e+01 5.862693184330e-02 0.0 
5.862693184330e-02 -4.910125371107e+01 0.0 
0.0 0.0 -2.591326806101e+01 
-3.852868538637e+01 1.908954834422e-01 0.0 
1.908954834422e-01 -4.913623695424e+01 0.0 
0.0 0.0 -2.589947670218e+01 
-3.904788298414e+01 1.456260233164e-01 0.0 
1.456260233164e-01 -4.913323258755e+01 0.0 
0.0 0.0 -2.605433467151e+01 
-4.931331268851e+01 6.191087293055e+00 0.0 
6.191087293055e+00 -5.415085809290e+01 0.0 
0.0 0.0 -2.993547208482e+01 
-3.883037212600e+01 2.636324623679e-01 0.0 
2.636324623679e-01 -4.911837912219e+01 0.0 
0.0 0.0 -2.598462537446e+01 
-5.036985239459e+01 4.039197720040e+00 0.0 
4.039197720040e+00 -5.131852193216e+01 0.0 
0.0 0.0 -2.928878003575e+01 
-3.990268026606e+01 1.273845533286e-01 0.0 
1.273845533286e-01 -4.929210365076e+01 0.0 
0.0 0.0 -2.635843517505e+01 
-3.917707363508e+01 3.800152370365e-01 0.0 
3.800152370365e-01 -4.918868325739e+01 0.0 
0.0 0.0 -2.610972706774e+01 
-4.008724398053e+01 3.549925747656e-01 0.0 
3.549925747656e-01 -4.912432114600e+01 0.0 
0.0 0.0 -2.636346953796e+01 
-3.964556485398e+01 5.179494711026e-01 0.0 
5.179494711026e-01 -4.908813628914e+01 0.0 
0.0 0.0 -2.622011034294e+01 
-4.095044429457e+01 4.097882519096e-01 0.0 
4.097882519096e-01 -4.924986461897e+01 0.0 
0.0 0.0 -2.666009267406e+01 
-4.030976421137e+01 8.208538939453e-01 0.0 
8.208538939453e-01 -4.938100474906e+01 0.0 
0.0 0.0 -2.650723068813e+01 
-4.203129330910e+01 7.547500530076e-01 0.0 
7.547500530076e-01 -4.947774644502e+01 0.0 
0.0 0.0 -2.705271192624e+01 
-4.469017567042e+01 4.579035973978e+00 0.0 
4.579035973978e+00 -4.749069898726e+01 0.0 
0.0 0.0 -2.686263718564e+01 
-4.083013816365e+01 1.274417719859e+00 0.0 
1.274417719859e+00 -4.957334568289e+01 0.0 
0.0 0.0 -2.672104515396e+01 
-4.323811619672e+01 1.254129071120e+00 0.0 
1.254129071120e+00 -4.964806803609e+01 0.0 
0.0 0.0 -2.746585526984e+01 
-4.161757784986e+01 1.787535399576e+00 0.0 
1.787535399576e+00 -4.969585802364e+01 0.0 
0.0 0.0 -2.699403076205e+01 
-4.503489492215e+01 1.767281066630e+00 0.0 
1.767281066630e+00 -4.994672680265e+01 0.0 
0.0 0.0 -2.795705599367e+01 
-4.744316437432e+01 2.640841909462e+00 0.0 
2.640841909462e+00 -5.045146491183e+01 0.0 
0.0 0.0 -2.851829385995e+01 
-4.265261684935e+01 2.497344583728e+00 0.0 
2.497344583728e+00 -5.023935647351e+01 0.0 
0.0 0.0 -2.746759199686e+01 
-4.397600199869e+01 3.608406872590e+00 0.0 
3.608406872590e+00 -5.123303665908e+01 0.0 
0.0 0.0 -2.816271159733e+01 
-5.333862813053e+01 6.637508784663e+00 0.0 
6.637508784663e+00 -5.518556324080e+01 0.0 
0.0 0.0 -3.154249880533e+01 
-4.953714694001e+01 5.170540196241e+00 0.0 
5.170540196241e+00 -4.511090703180e+01 0.0 
0.0 0.0 -2.707372749439e+01 
-3.712228718043e+01 1.272108744664e+00 0.0 
1.272108744664e+00 -4.911083540277e+01 0.0 
0.0 0.0 -2.546993677496e+01 
-3.735625884973e+01 -1.557280648065e+00 0.0 
-1.557280648065e+00 -4.771928615880e+01 0.0 
0.0 0.0 -2.512266350256e+01 
-3.917870804730e+01 -7.440272533963e-02 0.0 
-7.440272533963e-02 -5.360229419772e+01 0.0 
0.0 0.0 -2.743430067351e+01 
-3.540230914500e+01 -2.705287506271e-01 0.0 
-2.705287506271e-01 -4.341751381560e+01 0.0 
0.0 0.0 -2.324594688818e+01 
-4.882845125631e+01 7.534819338020e+00 0.0 
7.534819338020e+00 -4.801867426095e+01 0.0 
0.0 0.0 -2.764904753688e+01 

TENSORS element_materi_strain_total float
-1.190351227744e-03 3.842519153196e-03 0.0 
3.842519153196e-03 5.412307205334e-03 0.0 
0.0 0.0 0.0 
-1.151027709895e-03 3.553367562316e-03 0.0 
3.553367562316e-03 5.211701184126e-03 0.0 
0.0 0.0 0.0 
-4.003286406742e-04 3.755007453733e-03 0.0 
3.755007453733e-03 1.155579122955e-02 0.0 
0.0 0.0 0.0 
-5.623630781691e-04 3.995442222043e-04 0.0 
3.995442222043e-04 1.440779395799e-02 0.0 
0.0 0.0 0.0 
-1.970082669584e-03 3.819233592763e-04 0.0 
3.819233592763e-04 1.238308771158e-02 0.0 
0.0 0.0 0.0 
1.202481023405e-03 3.631257064234e-03 0.0 
3.631257064234e-03 -3.247880627904e-03 0.0 
0.0 0.0 0.0 
-1.836040338577e-03 2.734339942125e-04 0.0 
2.734339942125e-04 1.239777800743e-02 0.0 
0.0 0.0 0.0 
-1.028321044254e-03 3.948398300207e-03 0.0 
3.948398300207e-03 4.586528405066e-03 0.0 
0.0 0.0 0.0 
-1.972628475001e-03 2.409538753147e-04 0.0 
2.409538753147e-04 1.240163170195e-02 0.0 
0.0 0.0 0.0 
-5.419543491106e-04 7.103696594253e-04 0.0 
7.103696594253e-04 1.435855402802e-02 0.0 
0.0 0.0 0.0 
-9.771601373247e-04 -3.254848027175e-04 0.0 
-3.254848027175e-04 4.143439215961e-03 0.0 
0.0 0.0 0.0 
-1.019723269531e-03 3.468855553352e-03 0.0 
3.468855553352e-03 4.482415549212e-03 0.0 
0.0 0.0 0.0 
-2.990874406502e-04 -1.769056752697e-04 0.0 
-1.769056752697e-04 5.693688148241e-03 0.0 
0.0 0.0 0.0 
-2.233526573593e-03 9.674111656038e-04 0.0 
9.674111656038e-04 1.252957023169e-02 0.0 
0.0 0.0 0.0 
-1.694989087125e-04 -2.817934129323e-04 0.0 
-2.817934129323e-04 5.733687444485e-03 0.0 
0.0 0.0 0.0 
-3.352474354087e-04 5.798977757140e-04 0.0 
5.798977757140e-04 1.445171305889e-02 0.0 
0.0 0.0 0.0 
-2.186844921368e-03 5.116900011849e-04 0.0 
5.116900011849e-04 1.225461850435e-02 0.0 
0.0 0.0 0.0 
1.309422563649e-03 1.696360912305e-03 0.0 
1.696360912305e-03 -3.729421381686e-03 0.0 
0.0 0.0 0.0 
3.808326740988e-04 -1.590545728987e-04 0.0 
-1.590545728987e-04 1.250411266210e-03 0.0 
0.0 0.0 0.0 
-1.024251977622e-04 -2.726554529279e-04 0.0 
-2.726554529279e-04 1.497634468208e-03 0.0 
0.0 0.0 0.0 
-6.575102435893e-04 7.012762524333e-04 0.0 
7.012762524333e-04 1.436090238552e-02 0.0 
0.0 0.0 0.0 
-1.529873790768e-03 3.461158432415e-03 0.0 
3.461158432415e-03 6.744553332844e-03 0.0 
0.0 0.0 0.0 
-1.721358449069e-03 3.723528793328e-03 0.0 
3.723528793328e-03 7.252340066642e-03 0.0 
0.0 0.0 0.0 
1.375463851716e-03 8.310556671660e-04 0.0 
8.310556671660e-04 2.840814077786e-03 0.0 
0.0 0.0 0.0 
-2.237813491331e-03 1.532779202584e-03 0.0 
1.532779202584e-03 1.252971691957e-02 0.0 
0.0 0.0 0.0 
-9.537618789528e-04 -3.667378938026e-04 0.0 
-3.667378938026e-04 4.180821792538e-03 0.0 
0.0 0.0 0.0 
-2.613750960285e-03 1.163083151586e-03 0.0 
1.163083151586e-03 1.167182645379e-02 0.0 
0.0 0.0 0.0 
5.323058611395e-04 4.277411948146e-03 0.0 
4.277411948146e-03 6.970063577591e-03 0.0 
0.0 0.0 0.0 
-2.488130411001e-03 1.679447228424e-03 0.0 
1.679447228424e-03 1.251756714773e-02 0.0 
0.0 0.0 0.0 
1.150086347481e-03 7.489363223342e-04 0.0 
7.489363223342e-04 3.273804532922e-03 0.0 
0.0 0.0 0.0 
1.547201062614e-03 -3.261947903657e-03 0.0 
-3.261947903657e-03 -2.649867284694e-03 0.0 
0.0 0.0 0.0 
1.390030008184e-04 -4.845638960878e-04 0.0 
-4.845638960878e-04 3.259683913903e-04 0.0 
0.0 0.0 0.0 
-6.853476576700e-04 3.875336621756e-03 0.0 
3.875336621756e-03 1.175366251143e-02 0.0 
0.0 0.0 0.0 
-6.803813547352e-04 -1.157947465093e-04 0.0 
-1.157947465093e-04 4.975043098377e-03 0.0 
0.0 0.0 0.0 
3.994110561749e-04 -3.637319758984e-04 0.0 
-3.637319758984e-04 4.247060136086e-03 0.0 
0.0 0.0 0.0 
-4.447431805688e-05 -4.483049253279e-04 0.0 
-4.483049253279e-04 5.438531518658e-03 0.0 
0.0 0.0 0.0 
1.647336361565e-05 -5.580944141948e-04 0.0 
-5.580944141948e-04 5.431703084756e-03 0.0 
0.0 0.0 0.0 
1.082202136843e-03 2.554430470378e-03 0.0 
2.554430470378e-03 4.073564431927e-03 0.0 
0.0 0.0 0.0 
-1.865435898399e-03 6.180052262657e-05 0.0 
6.180052262657e-05 1.200670840919e-02 0.0 
0.0 0.0 0.0 
-1.783910675029e-03 1.448360949653e-04 0.0 
1.448360949653e-04 1.201976748797e-02 0.0 
0.0 0.0 0.0 
-2.350599434524e-03 3.281625651103e-03 0.0 
3.281625651103e-03 9.065054457807e-03 0.0 
0.0 0.0 0.0 
3.999116674147e-04 2.300725827591e-05 0.0 
2.300725827591e-05 4.055564084602e-03 0.0 
0.0 0.0 0.0 
-8.652454648886e-04 3.751146293852e-03 0.0 
3.751146293852e-03 3.184032696625e-03 0.0 
0.0 0.0 0.0 
-2.691206249926e-03 1.177851340417e-03 0.0 
1.177851340417e-03 1.173146691854e-02 0.0 
0.0 0.0 0.0 
-7.579913105051e-04 1.389140813431e-04 0.0 
1.389140813431e-04 1.431032045435e-02 0.0 
0.0 0.0 0.0 
-9.247318888170e-04 3.713975158800e-03 0.0 
3.713975158800e-03 3.180770137529e-03 0.0 
0.0 0.0 0.0 
1.536396591496e-03 -3.365430688834e-03 0.0 
-3.365430688834e-03 -3.338063935930e-03 0.0 
0.0 0.0 0.0 
-5.211410845151e-04 2.423666293981e-04 0.0 
2.423666293981e-04 1.431235024977e-02 0.0 
0.0 0.0 0.0 
-4.225615231880e-04 -2.738938449918e-03 0.0 
-2.738938449918e-03 -1.186489485481e-03 0.0 
0.0 0.0 0.0 
-2.401180681446e-03 8.149550862276e-04 0.0 
8.149550862276e-04 1.246344704437e-02 0.0 
0.0 0.0 0.0 
-2.067748170002e-03 3.520919467600e-03 0.0 
3.520919467600e-03 8.106445808403e-03 0.0 
0.0 0.0 0.0 
-1.324191431709e-04 -1.727846644345e-04 0.0 
-1.727846644345e-04 1.825552600677e-03 0.0 
0.0 0.0 0.0 
3.129656268339e-03 -2.859706824689e-03 0.0 
-2.859706824689e-03 -3.623295794162e-03 0.0 
0.0 0.0 0.0 
-2.100288043290e-03 3.039410981019e-03 0.0 
3.039410981019e-03 8.447544366416e-03 0.0 
0.0 0.0 0.0 
-4.939362107075e-04 3.026091819662e-03 0.0 
3.026091819662e-03 1.291260582654e-02 0.0 
0.0 0.0 0.0 
-7.715128866314e-04 -5.229864424898e-04 0.0 
-5.229864424898e-04 2.438466559777e-03 0.0 
0.0 0.0 0.0 
-5.207006717560e-04 -3.035704306244e-04 0.0 
-3.035704306244e-04 1.998460832043e-03 0.0 
0.0 0.0 0.0 
-6.577549313186e-04 -1.613853931457e-04 0.0 
-1.613853931457e-04 4.973783793153e-03 0.0 
0.0 0.0 0.0 
7.313581897090e-04 -4.558659116193e-04 0.0 
-4.558659116193e-04 7.049574370919e-04 0.0 
0.0 0.0 0.0 
-3.933113469913e-04 5.652782154271e-04 0.0 
5.652782154271e-04 1.445192413600e-02 0.0 
0.0 0.0 0.0 
-1.303903553775e-03 -2.171465541693e-03 0.0 
-2.171465541693e-03 -3.064783433589e-03 0.0 
0.0 0.0 0.0 
1.186318408346e-03 3.581506832045e-03 0.0 
3.581506832045e-03 4.894433293877e-03 0.0 
0.0 0.0 0.0 
3.416147188968e-04 4.273694510383e-03 0.0 
4.273694510383e-03 3.439349480116e-03 0.0 
0.0 0.0 0.0 
3.045563300174e-03 -2.896512096646e-03 0.0 
-2.896512096646e-03 -3.129334793171e-03 0.0 
0.0 0.0 0.0 
-2.358151364980e-04 -3.721364658207e-04 0.0 
-3.721364658207e-04 5.510701643652e-03 0.0 
0.0 0.0 0.0 
-1.935386372947e-03 3.309373491966e-03 0.0 
3.309373491966e-03 7.652650109866e-03 0.0 
0.0 0.0 0.0 
3.310547396373e-04 -7.289925078557e-04 0.0 
-7.289925078557e-04 -4.831258554381e-03 0.0 
0.0 0.0 0.0 
-6.703289681927e-04 4.038855662753e-03 0.0 
4.038855662753e-03 1.134510222233e-02 0.0 
0.0 0.0 0.0 
-4.497134805637e-05 -2.286786753082e-03 0.0 
-2.286786753082e-03 5.005002322331e-04 0.0 
0.0 0.0 0.0 
-5.626385466151e-05 4.264076634647e-03 0.0 
4.264076634647e-03 9.251589357556e-03 0.0 
0.0 0.0 0.0 
-8.119709975088e-04 -5.098280606411e-04 0.0 
-5.098280606411e-04 4.206406126722e-03 0.0 
0.0 0.0 0.0 
0.0 2.061671076645e-03 0.0 
2.061671076645e-03 1.398844567396e-02 0.0 
0.0 0.0 0.0 
4.886811888656e-04 3.952383292631e-03 0.0 
3.952383292631e-03 6.550114421037e-03 0.0 
0.0 0.0 0.0 
1.666035287267e-03 -1.004348185921e-04 0.0 
-1.004348185921e-04 -2.305886383764e-04 0.0 
0.0 0.0 0.0 
-9.654872934026e-04 -5.730985080450e-04 0.0 
-5.730985080450e-04 2.631459072830e-03 0.0 
0.0 0.0 0.0 
-7.198042136012e-04 1.534619872679e-03 0.0 
1.534619872679e-03 1.413990098047e-02 0.0 
0.0 0.0 0.0 
-8.322925077037e-04 3.283561747111e-03 0.0 
3.283561747111e-03 1.271882495864e-02 0.0 
0.0 0.0 0.0 
-8.495283132295e-04 3.805871923786e-03 0.0 
3.805871923786e-03 1.919863725635e-03 0.0 
0.0 0.0 0.0 
2.509500985277e-04 -4.343095776041e-04 0.0 
-4.343095776041e-04 9.274295102055e-04 0.0 
0.0 0.0 0.0 
-7.912786254952e-04 3.890008641787e-03 0.0 
3.890008641787e-03 1.923403104056e-03 0.0 
0.0 0.0 0.0 
-1.089031744416e-04 -2.539122723438e-03 0.0 
-2.539122723438e-03 5.397389080646e-04 0.0 
0.0 0.0 0.0 
-2.128862592980e-03 4.473096539215e-04 0.0 
4.473096539215e-04 1.230747688805e-02 0.0 
0.0 0.0 0.0 
-1.479559833118e-03 3.839996941408e-03 0.0 
3.839996941408e-03 6.366043688196e-03 0.0 
0.0 0.0 0.0 
-1.312317756960e-03 3.384339208986e-03 0.0 
3.384339208986e-03 5.979205899136e-03 0.0 
0.0 0.0 0.0 
-2.045814025348e-03 3.716076225929e-04 0.0 
3.716076225929e-04 1.259421295221e-02 0.0 
0.0 0.0 0.0 
-1.869354950755e-03 3.820197675648e-04 0.0 
3.820197675648e-04 1.259410249838e-02 0.0 
0.0 0.0 0.0 
-8.318583293534e-04 -3.058362600103e-04 0.0 
-3.058362600103e-04 4.465404348865e-03 0.0 
0.0 0.0 0.0 
-7.540438014874e-04 -2.685865856067e-05 0.0 
-2.685865856067e-05 4.878173794097e-03 0.0 
0.0 0.0 0.0 
-1.292084001698e-03 3.643477774648e-03 0.0 
3.643477774648e-03 1.065396682013e-02 0.0 
0.0 0.0 0.0 
-2.121687638516e-03 3.677927157208e-04 0.0 
3.677927157208e-04 1.238181999227e-02 0.0 
0.0 0.0 0.0 
-3.340530284576e-04 -5.925873932177e-04 0.0 
-5.925873932177e-04 5.824478631014e-04 0.0 
0.0 0.0 0.0 
-2.635878854625e-03 1.356835115591e-03 0.0 
1.356835115591e-03 1.204509939113e-02 0.0 
0.0 0.0 0.0 
-1.184750785569e-03 1.714392318617e-04 0.0 
1.714392318617e-04 1.371158533320e-02 0.0 
0.0 0.0 0.0 
-1.322006076788e-03 2.665296669621e-04 0.0 
2.665296669621e-04 1.366862231691e-02 0.0 
0.0 0.0 0.0 
-4.635386934194e-04 2.265645687415e-03 0.0 
2.265645687415e-03 1.390722385382e-02 0.0 
0.0 0.0 0.0 
6.012785344958e-04 2.813482960908e-03 0.0 
2.813482960908e-03 4.854548474873e-03 0.0 
0.0 0.0 0.0 
-2.284652642218e-03 5.400022151881e-04 0.0 
5.400022151881e-04 1.230062208996e-02 0.0 
0.0 0.0 0.0 
6.074983237521e-04 -1.416373605673e-04 0.0 
-1.416373605673e-04 4.180414052829e-03 0.0 
0.0 0.0 0.0 
-1.563284689636e-03 3.433637176291e-05 0.0 
3.433637176291e-05 1.293120279639e-02 0.0 
0.0 0.0 0.0 
-2.529348464713e-04 4.233670395012e-03 0.0 
4.233670395012e-03 4.399014178264e-03 0.0 
0.0 0.0 0.0 
-2.047888827081e-03 2.650411355880e-04 0.0 
2.650411355880e-04 1.220767094567e-02 0.0 
0.0 0.0 0.0 
-1.894811959415e-04 -2.632984804287e-04 0.0 
-2.632984804287e-04 5.732550632411e-03 0.0 
0.0 0.0 0.0 
2.307731758120e-03 3.123250663248e-03 0.0 
3.123250663248e-03 2.645429749769e-03 0.0 
0.0 0.0 0.0 
1.118912137639e-03 3.432820646413e-03 0.0 
3.432820646413e-03 4.918507347845e-03 0.0 
0.0 0.0 0.0 
1.088118842465e-03 4.129872952400e-03 0.0 
4.129872952400e-03 1.691237490483e-03 0.0 
0.0 0.0 0.0 
-4.622198844205e-04 -3.997077044984e-03 0.0 
-3.997077044984e-03 -1.415290948429e-03 0.0 
0.0 0.0 0.0 
-4.615336185024e-04 -2.093700603965e-04 0.0 
-2.093700603965e-04 5.369231039102e-03 0.0 
0.0 0.0 0.0 
-1.146323242831e-03 3.026712717616e-04 0.0 
3.026712717616e-04 1.392310623645e-02 0.0 
0.0 0.0 0.0 
-1.366051433015e-03 -3.563554238837e-03 0.0 
-3.563554238837e-03 -1.847201653782e-03 0.0 
0.0 0.0 0.0 
-4.575644071103e-05 -4.485351954632e-04 0.0 
-4.485351954632e-04 5.354395293185e-03 0.0 
0.0 0.0 0.0 
-1.146220666791e-03 3.623917656578e-03 0.0 
3.623917656578e-03 1.005157720738e-02 0.0 
0.0 0.0 0.0 
2.088624726320e-03 1.018318402047e-04 0.0 
1.018318402047e-04 -5.448850336403e-04 0.0 
0.0 0.0 0.0 
2.291603441438e-03 4.102385895976e-03 0.0 
4.102385895976e-03 5.696738356056e-04 0.0 
0.0 0.0 0.0 
-2.869552882218e-03 2.097146987407e-03 0.0 
2.097146987407e-03 1.116436793050e-02 0.0 
0.0 0.0 0.0 
-1.024578304203e-03 -8.768101409546e-04 0.0 
-8.768101409546e-04 2.870899232343e-03 0.0 
0.0 0.0 0.0 
-7.627468965321e-06 4.069140742001e-03 0.0 
4.069140742001e-03 3.542149852087e-03 0.0 
0.0 0.0 0.0 
3.723946539398e-04 4.236495604270e-03 0.0 
4.236495604270e-03 3.442093608890e-03 0.0 
0.0 0.0 0.0 
1.954521240353e-04 -3.470623690940e-04 0.0 
-3.470623690940e-04 4.651896514207e-03 0.0 
0.0 0.0 0.0 
-1.610295538993e-03 1.073458063180e-04 0.0 
1.073458063180e-04 1.282026444061e-02 0.0 
0.0 0.0 0.0 
6.770635821465e-04 4.252476270090e-03 0.0 
4.252476270090e-03 2.539649604486e-03 0.0 
0.0 0.0 0.0 
-5.756881416263e-05 -1.593613035837e-03 0.0 
-1.593613035837e-03 8.387037747157e-04 0.0 
0.0 0.0 0.0 
-2.645380259853e-03 1.536402865572e-03 0.0 
1.536402865572e-03 1.175701787650e-02 0.0 
0.0 0.0 0.0 
-9.669000463842e-04 2.165568005284e-04 0.0 
2.165568005284e-04 1.394106128610e-02 0.0 
0.0 0.0 0.0 
7.109727709464e-04 4.129026842438e-03 0.0 
4.129026842438e-03 2.545560472621e-03 0.0 
0.0 0.0 0.0 
-9.771324941018e-04 3.873749451650e-03 0.0 
3.873749451650e-03 4.408448608879e-04 0.0 
0.0 0.0 0.0 
-2.740909292611e-03 2.636435078302e-03 0.0 
2.636435078302e-03 1.027673913737e-02 0.0 
0.0 0.0 0.0 
-1.017716611213e-03 -8.671217781957e-04 0.0 
-8.671217781957e-04 2.852654984779e-03 0.0 
0.0 0.0 0.0 
-2.442569438470e-03 2.346359448434e-03 0.0 
2.346359448434e-03 9.972700675905e-03 0.0 
0.0 0.0 0.0 
-3.940403146261e-04 1.765802911851e-03 0.0 
1.765802911851e-03 1.406711673136e-02 0.0 
0.0 0.0 0.0 
3.944637444102e-04 4.505099097479e-03 0.0 
4.505099097479e-03 -8.983812468487e-04 0.0 
0.0 0.0 0.0 
-8.458578667272e-04 -4.725393883411e-04 0.0 
-4.725393883411e-04 4.226001857675e-03 0.0 
0.0 0.0 0.0 
-5.075761822453e-04 4.170621993520e-04 0.0 
4.170621993520e-04 1.440830306324e-02 0.0 
0.0 0.0 0.0 
-8.624448155728e-04 4.106862992803e-03 0.0 
4.106862992803e-03 6.276854950206e-03 0.0 
0.0 0.0 0.0 
-2.595922723643e-03 2.935851976006e-03 0.0 
2.935851976006e-03 9.730100420677e-03 0.0 
0.0 0.0 0.0 
4.891236289284e-04 -2.563563786064e-04 0.0 
-2.563563786064e-04 4.249208940470e-03 0.0 
0.0 0.0 0.0 
-3.000569954512e-04 -2.046491423626e-04 0.0 
-2.046491423626e-04 5.698991419939e-03 0.0 
0.0 0.0 0.0 
-7.522000531868e-04 -3.833049691750e-04 0.0 
-3.833049691750e-04 4.463291883003e-03 0.0 
0.0 0.0 0.0 
-1.129707811452e-03 4.185071961311e-03 0.0 
4.185071961311e-03 7.214994122846e-03 0.0 
0.0 0.0 0.0 
9.637408673500e-04 6.062817945814e-04 0.0 
6.062817945814e-04 3.813598813153e-03 0.0 
0.0 0.0 0.0 
-1.390455935058e-03 3.799705985549e-03 0.0 
3.799705985549e-03 7.215961756178e-03 0.0 
0.0 0.0 0.0 
-3.803851158332e-04 1.183821022272e-03 0.0 
1.183821022272e-03 1.428629533693e-02 0.0 
0.0 0.0 0.0 
-1.335153071053e-04 4.501544145503e-03 0.0 
4.501544145503e-03 9.517840866963e-03 0.0 
0.0 0.0 0.0 
-2.438513630660e-03 1.039206950884e-03 0.0 
1.039206950884e-03 1.254587580323e-02 0.0 
0.0 0.0 0.0 
-1.482145518504e-03 3.708761678321e-04 0.0 
3.708761678321e-04 1.335011657012e-02 0.0 
0.0 0.0 0.0 
-1.309737197677e-03 4.077897513617e-03 0.0 
4.077897513617e-03 7.204234947551e-03 0.0 
0.0 0.0 0.0 
-2.308229341614e-03 2.659914796478e-03 0.0 
2.659914796478e-03 9.252072319379e-03 0.0 
0.0 0.0 0.0 
-7.073514516542e-04 4.205024312513e-03 0.0 
4.205024312513e-03 6.333024283701e-03 0.0 
0.0 0.0 0.0 
1.542728440139e-03 4.184288459309e-03 0.0 
4.184288459309e-03 1.557758714440e-03 0.0 
0.0 0.0 0.0 
-1.904679907821e-03 1.683956082211e-04 0.0 
1.683956082211e-04 1.225243272538e-02 0.0 
0.0 0.0 0.0 
2.629841246772e-03 3.978991527204e-03 0.0 
3.978991527204e-03 5.835303509152e-04 0.0 
0.0 0.0 0.0 
8.283461190750e-05 -4.487789840852e-04 0.0 
-4.487789840852e-04 3.732986323335e-04 0.0 
0.0 0.0 0.0 
-1.693636619184e-03 5.856198247241e-05 0.0 
5.856198247241e-05 1.252591509849e-02 0.0 
0.0 0.0 0.0 
3.865369332432e-04 -1.749168528501e-04 0.0 
-1.749168528501e-04 9.737178585822e-04 0.0 
0.0 0.0 0.0 
-2.820517032186e-03 2.344624951988e-03 0.0 
2.344624951988e-03 1.072022175181e-02 0.0 
0.0 0.0 0.0 
5.250724712602e-04 4.881705716563e-04 0.0 
4.881705716563e-04 3.817114519595e-03 0.0 
0.0 0.0 0.0 
9.448069016642e-04 4.217144991219e-03 0.0 
4.217144991219e-03 1.684984409175e-03 0.0 
0.0 0.0 0.0 
-7.792779467510e-04 -1.953494773832e-04 0.0 
-1.953494773832e-04 4.695982365635e-03 0.0 
0.0 0.0 0.0 
-1.032959222444e-03 3.669472859012e-03 0.0 
3.669472859012e-03 3.882084657103e-03 0.0 
0.0 0.0 0.0 
2.219647743310e-03 3.358789386132e-03 0.0 
3.358789386132e-03 2.624314692502e-03 0.0 
0.0 0.0 0.0 
-1.737705668929e-03 9.218933673214e-05 0.0 
9.218933673214e-05 1.228018532833e-02 0.0 
0.0 0.0 0.0 
2.855662656227e-03 4.018560009304e-03 0.0 
4.018560009304e-03 -3.504393029148e-04 0.0 
0.0 0.0 0.0 
-5.969310760547e-04 -2.360762294580e-04 0.0 
-2.360762294580e-04 5.051300933965e-03 0.0 
0.0 0.0 0.0 
-3.834401495716e-04 -1.761589669196e-03 0.0 
-1.761589669196e-03 8.733511170818e-04 0.0 
0.0 0.0 0.0 
-4.330732897545e-04 -2.045203727292e-04 0.0 
-2.045203727292e-04 5.368639097626e-03 0.0 
0.0 0.0 0.0 
-2.360053139367e-03 2.774685078507e-03 0.0 
2.774685078507e-03 1.035030876659e-02 0.0 
0.0 0.0 0.0 
-1.609484143426e-04 -4.670917137912e-04 0.0 
-4.670917137912e-04 5.424299120746e-03 0.0 
0.0 0.0 0.0 
-1.691388252042e-03 3.994505799458e-05 0.0 
3.994505799458e-05 1.224552182922e-02 0.0 
0.0 0.0 0.0 
1.695188431973e-03 4.155379371593e-03 0.0 
4.155379371593e-03 6.543885360564e-04 0.0 
0.0 0.0 0.0 
-2.611977862340e-03 1.855889476993e-03 0.0 
1.855889476993e-03 1.090140842396e-02 0.0 
0.0 0.0 0.0 
-1.058098088125e-03 -2.377791932116e-04 0.0 
-2.377791932116e-04 4.095485691119e-03 0.0 
0.0 0.0 0.0 
-1.050868104645e-03 3.802996963723e-03 0.0 
3.802996963723e-03 3.919754091901e-03 0.0 
0.0 0.0 0.0 
3.187155719196e-03 3.688416510060e-03 0.0 
3.688416510060e-03 -3.072092936683e-04 0.0 
0.0 0.0 0.0 
-1.450600306946e-03 2.955006537485e-04 0.0 
2.955006537485e-04 1.351383221428e-02 0.0 
0.0 0.0 0.0 
-1.771051238552e-03 1.250211509647e-04 0.0 
1.250211509647e-04 1.225250211296e-02 0.0 
0.0 0.0 0.0 
2.046841164946e-03 4.135725023226e-03 0.0 
4.135725023226e-03 5.500995736429e-04 0.0 
0.0 0.0 0.0 
-2.570030230045e-03 2.057415639839e-03 0.0 
2.057415639839e-03 1.049781718934e-02 0.0 
0.0 0.0 0.0 
-2.221934105932e-04 4.102716577134e-03 0.0 
4.102716577134e-03 8.519202694708e-03 0.0 
0.0 0.0 0.0 
-1.026873461399e-03 -9.575062709050e-04 0.0 
-9.575062709050e-04 2.953668353594e-03 0.0 
0.0 0.0 0.0 
3.735364550010e-04 3.976393157209e-03 0.0 
3.976393157209e-03 6.646652862009e-03 0.0 
0.0 0.0 0.0 
-4.215921655160e-05 4.528608623464e-03 0.0 
4.528608623464e-03 8.961429541013e-03 0.0 
0.0 0.0 0.0 
-6.042221381234e-04 4.042851819478e-03 0.0 
4.042851819478e-03 4.502827486070e-03 0.0 
0.0 0.0 0.0 
-1.125447991144e-03 -7.839348997818e-04 0.0 
-7.839348997818e-04 3.211487219411e-03 0.0 
0.0 0.0 0.0 
1.974356722146e-03 1.254812364650e-03 0.0 
1.254812364650e-03 2.163949022688e-03 0.0 
0.0 0.0 0.0 
-1.838463674145e-03 3.750414781003e-03 0.0 
3.750414781003e-03 8.138799244758e-03 0.0 
0.0 0.0 0.0 
-4.376758439657e-04 3.804507179978e-03 0.0 
3.804507179978e-03 3.726396277111e-03 0.0 
0.0 0.0 0.0 
-2.551755386624e-03 2.249554365833e-03 0.0 
2.249554365833e-03 1.083454650388e-02 0.0 
0.0 0.0 0.0 
1.853907868097e-03 4.190381662887e-03 0.0 
4.190381662887e-03 1.542095200795e-03 0.0 
0.0 0.0 0.0 
-3.491062061842e-04 8.682367681699e-04 0.0 
8.682367681699e-04 1.436219044285e-02 0.0 
0.0 0.0 0.0 
-1.458056386056e-03 3.215118480116e-03 0.0 
3.215118480116e-03 1.115986545900e-02 0.0 
0.0 0.0 0.0 
-5.370895892407e-04 -1.188207362978e-04 0.0 
-1.188207362978e-04 5.275795741154e-03 0.0 
0.0 0.0 0.0 
-8.895105695199e-04 3.798685760186e-03 0.0 
3.798685760186e-03 2.552354754452e-03 0.0 
0.0 0.0 0.0 
3.677086014681e-03 3.307972986768e-03 0.0 
3.307972986768e-03 -1.133873125378e-03 0.0 
0.0 0.0 0.0 
-1.175962888070e-03 3.494815265136e-03 0.0 
3.494815265136e-03 1.069016857664e-02 0.0 
0.0 0.0 0.0 
-3.331583009581e-03 2.472431136642e-03 0.0 
2.472431136642e-03 -2.189604074313e-03 0.0 
0.0 0.0 0.0 
-1.880930150865e-03 3.383092905974e-03 0.0 
3.383092905974e-03 8.145810676403e-03 0.0 
0.0 0.0 0.0 
2.247138219182e-03 3.707796836458e-04 0.0 
3.707796836458e-04 1.242297813787e-03 0.0 
0.0 0.0 0.0 
9.469729108993e-04 -5.127591361496e-04 0.0 
-5.127591361496e-04 3.520618177548e-04 0.0 
0.0 0.0 0.0 
-6.515715615136e-04 3.444210108642e-03 0.0 
3.444210108642e-03 1.228984500415e-02 0.0 
0.0 0.0 0.0 
-2.070212400856e-03 2.235443007186e-03 0.0 
2.235443007186e-03 1.220821164147e-02 0.0 
0.0 0.0 0.0 
1.418588677960e-03 -2.470579247191e-03 0.0 
-2.470579247191e-03 7.165897367778e-05 0.0 
0.0 0.0 0.0 
2.482484202799e-03 6.497159978293e-04 0.0 
6.497159978293e-04 1.223059687656e-03 0.0 
0.0 0.0 0.0 
-2.658526909556e-03 1.655021439385e-03 0.0 
1.655021439385e-03 1.205635216057e-02 0.0 
0.0 0.0 0.0 
-2.504160850861e-03 1.384229015454e-03 0.0 
1.384229015454e-03 1.256891086402e-02 0.0 
0.0 0.0 0.0 
1.003785709373e-03 6.086068720981e-04 0.0 
6.086068720981e-04 3.239634932486e-03 0.0 
0.0 0.0 0.0 
3.208833809221e-04 -2.389715863309e-03 0.0 
-2.389715863309e-03 9.036294866602e-04 0.0 
0.0 0.0 0.0 
-1.551956197211e-04 4.370807754331e-03 0.0 
4.370807754331e-03 5.420167838480e-03 0.0 
0.0 0.0 0.0 
-2.062234611454e-03 3.242203514755e-03 0.0 
3.242203514755e-03 9.747135822349e-03 0.0 
0.0 0.0 0.0 
-2.174774978869e-03 2.260673468847e-03 0.0 
2.260673468847e-03 1.252821764969e-02 0.0 
0.0 0.0 0.0 
-2.573463913679e-03 2.868980354193e-03 0.0 
2.868980354193e-03 1.086674114172e-02 0.0 
0.0 0.0 0.0 
-2.719487249078e-03 2.635745749912e-03 0.0 
2.635745749912e-03 1.083674075799e-02 0.0 
0.0 0.0 0.0 
3.170172042985e-03 2.935870250761e-03 0.0 
2.935870250761e-03 9.430402557842e-04 0.0 
0.0 0.0 0.0 
-5.313561566664e-04 4.032239485484e-03 0.0 
4.032239485484e-03 9.013719883181e-03 0.0 
0.0 0.0 0.0 
-1.356580229202e-03 2.344091034699e-03 0.0 
2.344091034699e-03 -2.793033853510e-03 0.0 
0.0 0.0 0.0 
-5.969218341764e-04 3.965705322606e-03 0.0 
3.965705322606e-03 4.493356164786e-03 0.0 
0.0 0.0 0.0 
-2.861379749698e-04 4.123612013736e-03 0.0 
4.123612013736e-03 4.417169001573e-03 0.0 
0.0 0.0 0.0 
-5.602030021560e-04 4.371065804306e-03 0.0 
4.371065804306e-03 6.309760907359e-03 0.0 
0.0 0.0 0.0 
-1.580910830471e-03 3.222267806503e-03 0.0 
3.222267806503e-03 1.164459175480e-02 0.0 
0.0 0.0 0.0 
2.971118053127e-03 3.133865437931e-03 0.0 
3.133865437931e-03 -4.029745056638e-03 0.0 
0.0 0.0 0.0 
2.260440325231e-03 -7.751843934335e-05 0.0 
-7.751843934335e-05 9.169170138119e-04 0.0 
0.0 0.0 0.0 
-1.824941533788e-03 8.428039347933e-05 0.0 
8.428039347933e-05 1.223486121303e-02 0.0 
0.0 0.0 0.0 
3.350044109690e-03 3.770671460871e-03 0.0 
3.770671460871e-03 -1.197406322866e-03 0.0 
0.0 0.0 0.0 
2.168889465149e-03 -5.244062920358e-04 0.0 
-5.244062920358e-04 7.204061590442e-04 0.0 
0.0 0.0 0.0 
6.594743014352e-04 -4.449007346670e-04 0.0 
-4.449007346670e-04 2.259876573483e-04 0.0 
0.0 0.0 0.0 
-1.810911552349e-03 2.456251804148e-03 0.0 
2.456251804148e-03 1.232041930374e-02 0.0 
0.0 0.0 0.0 
9.128736763546e-04 -5.029871406838e-04 0.0 
-5.029871406838e-04 -5.304557148478e-05 0.0 
0.0 0.0 0.0 
5.717053137717e-04 -4.485576451663e-04 0.0 
-4.485576451663e-04 5.070973683114e-04 0.0 
0.0 0.0 0.0 
-7.956891394858e-04 3.807264818569e-03 0.0 
3.807264818569e-03 2.552728753139e-03 0.0 
0.0 0.0 0.0 
1.317139168597e-04 -2.262362539320e-03 0.0 
-2.262362539320e-03 9.300321516521e-04 0.0 
0.0 0.0 0.0 
-1.898091234660e-03 2.460158933330e-03 0.0 
2.460158933330e-03 1.265532650120e-02 0.0 
0.0 0.0 0.0 
1.961325047597e-04 -2.320653835064e-03 0.0 
-2.320653835064e-03 6.661111332056e-04 0.0 
0.0 0.0 0.0 
8.258439788758e-04 4.148563064847e-03 0.0 
4.148563064847e-03 4.140292363368e-04 0.0 
0.0 0.0 0.0 
1.610024652792e-03 -3.698322471040e-03 0.0 
-3.698322471040e-03 -1.897763519360e-03 0.0 
0.0 0.0 0.0 
-2.996766560708e-04 -1.706897562139e-03 0.0 
-1.706897562139e-03 9.645568608787e-04 0.0 
0.0 0.0 0.0 
2.315775534843e-03 1.052150413297e-03 0.0 
1.052150413297e-03 1.625014745823e-03 0.0 
0.0 0.0 0.0 
-2.450594460354e-03 3.132618002075e-03 0.0 
3.132618002075e-03 1.033644338731e-02 0.0 
0.0 0.0 0.0 
-2.202963408997e-04 -3.457803677625e-04 0.0 
-3.457803677625e-04 5.512142460087e-03 0.0 
0.0 0.0 0.0 
-1.308486115884e-03 1.129435594734e-03 0.0 
1.129435594734e-03 -4.317444378733e-03 0.0 
0.0 0.0 0.0 
1.543515914282e-03 4.195309715386e-03 0.0 
4.195309715386e-03 6.832401424495e-05 0.0 
0.0 0.0 0.0 
3.575884530262e-03 3.674874337527e-03 0.0 
3.674874337527e-03 -1.148405625325e-03 0.0 
0.0 0.0 0.0 
-1.528005072795e-03 3.586896756543e-03 0.0 
3.586896756543e-03 7.222390089175e-03 0.0 
0.0 0.0 0.0 
2.556132016313e-03 1.963542109329e-04 0.0 
1.963542109329e-04 8.977808688384e-04 0.0 
0.0 0.0 0.0 
-8.056933389700e-05 -4.643816986448e-04 0.0 
-4.643816986448e-04 5.348422446695e-03 0.0 
0.0 0.0 0.0 
-1.865686884494e-03 3.074945766624e-03 0.0 
3.074945766624e-03 1.154788523654e-02 0.0 
0.0 0.0 0.0 
3.757739911132e-03 2.969068014310e-03 0.0 
2.969068014310e-03 -1.896959027125e-03 0.0 
0.0 0.0 0.0 
2.132799817984e-03 8.239948238547e-04 0.0 
8.239948238547e-04 1.626586692384e-03 0.0 
0.0 0.0 0.0 
-8.919563703588e-04 -2.411225914520e-04 0.0 
-2.411225914520e-04 4.418905223412e-03 0.0 
0.0 0.0 0.0 
-9.621982044193e-04 4.260100679340e-03 0.0 
4.260100679340e-03 7.269438551023e-03 0.0 
0.0 0.0 0.0 
-1.912390924656e-03 2.573169793828e-03 0.0 
2.573169793828e-03 1.193193184432e-02 0.0 
0.0 0.0 0.0 
7.101375263006e-04 3.673425434165e-03 0.0 
3.673425434165e-03 5.703280318196e-03 0.0 
0.0 0.0 0.0 
3.896317259494e-03 3.247750937978e-03 0.0 
3.247750937978e-03 -1.087362018646e-03 0.0 
0.0 0.0 0.0 
7.823596862495e-04 4.018177336995e-03 0.0 
4.018177336995e-03 1.193596998557e-03 0.0 
0.0 0.0 0.0 
-2.361271511506e-03 3.055499365064e-03 0.0 
3.055499365064e-03 1.091650315922e-02 0.0 
0.0 0.0 0.0 
-3.585030684622e-04 2.046517652232e-03 0.0 
2.046517652232e-03 1.404971486113e-02 0.0 
0.0 0.0 0.0 
1.724633775657e-05 4.451949453027e-03 0.0 
4.451949453027e-03 5.409257667480e-03 0.0 
0.0 0.0 0.0 
4.309001510451e-03 2.581133723815e-03 0.0 
2.581133723815e-03 -1.340111833772e-03 0.0 
0.0 0.0 0.0 
-1.742226216178e-03 1.410936567198e-04 0.0 
1.410936567198e-04 1.260435972386e-02 0.0 
0.0 0.0 0.0 
-2.675157916346e-04 -2.721825466936e-03 0.0 
-2.721825466936e-03 3.293718275015e-04 0.0 
0.0 0.0 0.0 
-2.428357055885e-03 2.537186158266e-03 0.0 
2.537186158266e-03 1.091820593468e-02 0.0 
0.0 0.0 0.0 
3.390769959069e-03 3.606732973010e-03 0.0 
3.606732973010e-03 -1.991058362032e-03 0.0 
0.0 0.0 0.0 
3.449930897297e-03 2.799900747041e-03 0.0 
2.799900747041e-03 -3.806450409201e-03 0.0 
0.0 0.0 0.0 
2.925581724424e-03 -3.272845772745e-03 0.0 
-3.272845772745e-03 -4.283528860670e-03 0.0 
0.0 0.0 0.0 
-1.679008346933e-03 2.350290397181e-03 0.0 
2.350290397181e-03 1.266856824548e-02 0.0 
0.0 0.0 0.0 
-2.261046885591e-03 3.306685266387e-03 0.0 
3.306685266387e-03 1.034928709216e-02 0.0 
0.0 0.0 0.0 
1.320215924269e-03 4.211699292432e-03 0.0 
4.211699292432e-03 1.554789558247e-03 0.0 
0.0 0.0 0.0 
-1.746961984121e-03 2.342330450153e-03 0.0 
2.342330450153e-03 1.297766420383e-02 0.0 
0.0 0.0 0.0 
-1.590190583389e-03 3.365067579648e-03 0.0 
3.365067579648e-03 1.113071567588e-02 0.0 
0.0 0.0 0.0 
-1.319584567980e-03 4.098534144881e-03 0.0 
4.098534144881e-03 8.167185081073e-03 0.0 
0.0 0.0 0.0 
4.986039055610e-05 -4.348724356940e-04 0.0 
-4.348724356940e-04 5.017692739797e-03 0.0 
0.0 0.0 0.0 
4.354782177425e-03 2.475516291845e-03 0.0 
2.475516291845e-03 -1.759985897170e-03 0.0 
0.0 0.0 0.0 
-1.627364668437e-03 3.895100157196e-03 0.0 
3.895100157196e-03 9.002027448731e-03 0.0 
0.0 0.0 0.0 
2.070807539263e-03 4.102334189565e-03 0.0 
4.102334189565e-03 1.599656380261e-03 0.0 
0.0 0.0 0.0 
4.008686243551e-03 2.579616634181e-03 0.0 
2.579616634181e-03 -8.305186275054e-04 0.0 
0.0 0.0 0.0 
3.997212841709e-03 2.542353919994e-03 0.0 
2.542353919994e-03 -3.642396763284e-03 0.0 
0.0 0.0 0.0 
-2.532423411309e-03 1.064320080528e-03 0.0 
1.064320080528e-03 1.213305219905e-02 0.0 
0.0 0.0 0.0 
4.456974567513e-03 2.673387270055e-03 0.0 
2.673387270055e-03 -1.742625467117e-03 0.0 
0.0 0.0 0.0 
4.231940447996e-03 -1.376425503961e-03 0.0 
-1.376425503961e-03 -3.626867313966e-03 0.0 
0.0 0.0 0.0 
-1.706353527680e-03 2.911633465809e-03 0.0 
2.911633465809e-03 1.157739705152e-02 0.0 
0.0 0.0 0.0 
-4.974238141637e-03 4.948449321273e-04 0.0 
4.948449321273e-04 -2.593775287311e-03 0.0 
0.0 0.0 0.0 
-2.622106517361e-03 2.634720020794e-03 0.0 
2.634720020794e-03 1.133400781061e-02 0.0 
0.0 0.0 0.0 
4.150387385164e-03 2.961673982687e-03 0.0 
2.961673982687e-03 -2.774485646153e-03 0.0 
0.0 0.0 0.0 
1.855337674004e-03 3.927421388145e-03 0.0 
3.927421388145e-03 1.040397800463e-04 0.0 
0.0 0.0 0.0 
4.040864251126e-03 1.434802394730e-03 0.0 
1.434802394730e-03 -3.454763220897e-03 0.0 
0.0 0.0 0.0 
-1.991643931046e-03 3.172918140897e-03 0.0 
3.172918140897e-03 1.043757377761e-02 0.0 
0.0 0.0 0.0 
-1.374635455706e-04 -1.161753413936e-03 0.0 
-1.161753413936e-03 7.236904435897e-04 0.0 
0.0 0.0 0.0 
-6.441998026371e-04 4.088767426502e-03 0.0 
4.088767426502e-03 5.342442204209e-03 0.0 
0.0 0.0 0.0 
4.019370228908e-03 2.487911637339e-03 0.0 
2.487911637339e-03 -1.131784282400e-03 0.0 
0.0 0.0 0.0 
-2.191220693708e-03 3.000483602358e-03 0.0 
3.000483602358e-03 1.040178382480e-02 0.0 
0.0 0.0 0.0 
-2.545252808027e-03 1.357770430834e-03 0.0 
1.357770430834e-03 1.224734290091e-02 0.0 
0.0 0.0 0.0 
2.158904838772e-03 2.281374274531e-03 0.0 
2.281374274531e-03 -4.534070650507e-03 0.0 
0.0 0.0 0.0 
4.661637383721e-03 -4.073488228026e-04 0.0 
-4.073488228026e-04 -3.778741211602e-03 0.0 
0.0 0.0 0.0 
3.702237822105e-03 -2.260510843209e-03 0.0 
-2.260510843209e-03 -3.385803353169e-03 0.0 
0.0 0.0 0.0 
-8.762893850257e-04 4.075118511396e-03 0.0 
4.075118511396e-03 5.402460858993e-03 0.0 
0.0 0.0 0.0 
-2.102437016376e-03 2.745038714261e-03 0.0 
2.745038714261e-03 1.190139186829e-02 0.0 
0.0 0.0 0.0 
-5.745877672746e-04 4.255022251648e-03 0.0 
4.255022251648e-03 5.317169717386e-03 0.0 
0.0 0.0 0.0 
4.590602048113e-03 2.722715604750e-03 0.0 
2.722715604750e-03 -2.518182997178e-03 0.0 
0.0 0.0 0.0 
4.053604748609e-03 3.308697409823e-03 0.0 
3.308697409823e-03 -1.945974414215e-03 0.0 
0.0 0.0 0.0 
2.439228296003e-03 1.752331450973e-03 0.0 
1.752331450973e-03 -3.538104057964e-03 0.0 
0.0 0.0 0.0 
2.422598649989e-03 4.032684374904e-03 0.0 
4.032684374904e-03 6.923411980333e-04 0.0 
0.0 0.0 0.0 
2.064870363081e-04 3.965915762158e-03 0.0 
3.965915762158e-03 8.007001823154e-04 0.0 
0.0 0.0 0.0 
-4.698301604392e-04 3.424628316314e-03 0.0 
3.424628316314e-03 1.288899454553e-02 0.0 
0.0 0.0 0.0 
-4.413729641395e-04 3.934213912888e-03 0.0 
3.934213912888e-03 1.215561875063e-02 0.0 
0.0 0.0 0.0 
3.999536165864e-04 4.443312277133e-03 0.0 
4.443312277133e-03 4.544975145313e-03 0.0 
0.0 0.0 0.0 
3.769983005061e-03 3.180356309441e-03 0.0 
3.180356309441e-03 -2.824211031394e-03 0.0 
0.0 0.0 0.0 
2.263107271005e-03 3.750740440948e-03 0.0 
3.750740440948e-03 -7.258391276803e-04 0.0 
0.0 0.0 0.0 
-1.241035113117e-03 3.945229680765e-03 0.0 
3.945229680765e-03 8.292230931404e-03 0.0 
0.0 0.0 0.0 
3.235559885908e-03 3.147790224214e-03 0.0 
3.147790224214e-03 -1.811077669620e-03 0.0 
0.0 0.0 0.0 
4.194649232016e-03 -1.361649529911e-03 0.0 
-1.361649529911e-03 -3.528303802124e-03 0.0 
0.0 0.0 0.0 
-1.088230451164e-03 4.050890216475e-03 0.0 
4.050890216475e-03 7.307635322919e-03 0.0 
0.0 0.0 0.0 
-6.884327701134e-04 1.306206200739e-03 0.0 
1.306206200739e-03 1.425018413209e-02 0.0 
0.0 0.0 0.0 
3.782593998683e-03 3.423911310766e-03 0.0 
3.423911310766e-03 -2.003387342544e-03 0.0 
0.0 0.0 0.0 
2.932838598763e-03 3.235408173223e-03 0.0 
3.235408173223e-03 9.078931937190e-04 0.0 
0.0 0.0 0.0 
1.034389373962e-03 4.137832823038e-03 0.0 
4.137832823038e-03 -3.871108940054e-04 0.0 
0.0 0.0 0.0 
6.257787651913e-04 1.224334645672e-03 0.0 
1.224334645672e-03 4.492044400732e-03 0.0 
0.0 0.0 0.0 
2.893688669546e-03 3.801978913323e-03 0.0 
3.801978913323e-03 -1.914504309827e-03 0.0 
0.0 0.0 0.0 
-5.639624230659e-04 4.271802199172e-03 0.0 
4.271802199172e-03 6.428126808345e-03 0.0 
0.0 0.0 0.0 
3.235371420128e-03 1.979972697787e-03 0.0 
1.979972697787e-03 -4.460065338998e-03 0.0 
0.0 0.0 0.0 
3.703392054426e-03 4.430139754556e-04 0.0 
4.430139754556e-04 -9.771218897657e-04 0.0 
0.0 0.0 0.0 
4.169826087374e-03 3.179522533613e-03 0.0 
3.179522533613e-03 -1.821453668227e-03 0.0 
0.0 0.0 0.0 
3.877984621702e-03 -1.968651323217e-03 0.0 
-1.968651323217e-03 -2.907726682997e-03 0.0 
0.0 0.0 0.0 
-2.070917398547e-03 3.563182164986e-03 0.0 
3.563182164986e-03 9.706009004198e-03 0.0 
0.0 0.0 0.0 
-2.255829692590e-04 4.559296138806e-03 0.0 
4.559296138806e-03 1.070654029640e-02 0.0 
0.0 0.0 0.0 
4.432492339948e-03 2.807653591863e-03 0.0 
2.807653591863e-03 -2.674638473391e-03 0.0 
0.0 0.0 0.0 
4.102607126891e-03 2.079164901788e-03 0.0 
2.079164901788e-03 -1.074658529909e-03 0.0 
0.0 0.0 0.0 
1.305302516420e-03 3.889941226417e-03 0.0 
3.889941226417e-03 -3.545147577316e-04 0.0 
0.0 0.0 0.0 
-1.964033936522e-03 1.154785816657e-03 0.0 
1.154785816657e-03 1.302698790268e-02 0.0 
0.0 0.0 0.0 
2.526495922135e-03 -2.633271088507e-04 0.0 
-2.633271088507e-04 6.860055661040e-04 0.0 
0.0 0.0 0.0 
5.158832663783e-04 4.064838611507e-03 0.0 
4.064838611507e-03 1.940541663335e-03 0.0 
0.0 0.0 0.0 
-2.182842058786e-03 9.698430511520e-04 0.0 
9.698430511520e-04 1.297290809758e-02 0.0 
0.0 0.0 0.0 
4.369999436182e-05 4.770799513359e-03 0.0 
4.770799513359e-03 8.990081084284e-03 0.0 
0.0 0.0 0.0 
2.143111882296e-03 1.506532188401e-05 0.0 
1.506532188401e-05 1.444077100888e-03 0.0 
0.0 0.0 0.0 
-3.221356107309e-04 4.391676519030e-03 0.0 
4.391676519030e-03 1.122499977275e-02 0.0 
0.0 0.0 0.0 
-2.341105734432e-03 1.282976818773e-03 0.0 
1.282976818773e-03 1.279907894987e-02 0.0 
0.0 0.0 0.0 
-1.184412261128e-03 3.767644083350e-03 0.0 
3.767644083350e-03 1.002293272180e-02 0.0 
0.0 0.0 0.0 
-1.314460288351e-04 3.942070317499e-03 0.0 
3.942070317499e-03 2.229582943160e-03 0.0 
0.0 0.0 0.0 
-2.254871540016e-03 3.415489061466e-03 0.0 
3.415489061466e-03 9.678102976730e-03 0.0 
0.0 0.0 0.0 
-1.675874601103e-03 3.637028509602e-03 0.0 
3.637028509602e-03 9.039085908786e-03 0.0 
0.0 0.0 0.0 
-1.877284584805e-03 3.671127381792e-03 0.0 
3.671127381792e-03 9.749854076283e-03 0.0 
0.0 0.0 0.0 
4.737864304816e-04 4.450109696127e-03 0.0 
4.450109696127e-03 4.407468612398e-03 0.0 
0.0 0.0 0.0 
2.198317602524e-04 4.592111709561e-03 0.0 
4.592111709561e-03 7.853657106287e-03 0.0 
0.0 0.0 0.0 
-2.391511728139e-03 1.702610309288e-03 0.0 
1.702610309288e-03 1.224705592837e-02 0.0 
0.0 0.0 0.0 
-2.783806853488e-03 2.392195188752e-03 0.0 
2.392195188752e-03 1.125607866901e-02 0.0 
0.0 0.0 0.0 
4.306115647015e-03 2.738893065594e-03 0.0 
2.738893065594e-03 -1.861105591880e-03 0.0 
0.0 0.0 0.0 
-1.014309701235e-04 -2.038299353859e-03 0.0 
-2.038299353859e-03 9.611227246380e-04 0.0 
0.0 0.0 0.0 
-2.612521279486e-03 2.919107792973e-03 0.0 
2.919107792973e-03 1.029140806144e-02 0.0 
0.0 0.0 0.0 
1.223481422206e-03 4.188498938495e-03 0.0 
4.188498938495e-03 8.589137525594e-04 0.0 
0.0 0.0 0.0 
-1.748513294846e-03 7.272058128219e-05 0.0 
7.272058128219e-05 1.226111356112e-02 0.0 
0.0 0.0 0.0 
3.224394112082e-03 -2.569472928464e-03 0.0 
-2.569472928464e-03 -2.814945330007e-03 0.0 
0.0 0.0 0.0 
4.090032193090e-03 2.811157273988e-03 0.0 
2.811157273988e-03 -1.917517229516e-03 0.0 
0.0 0.0 0.0 
-1.626719593114e-03 2.780556020100e-03 0.0 
2.780556020100e-03 1.202274600461e-02 0.0 
0.0 0.0 0.0 
1.497283261417e-03 4.052319548448e-03 0.0 
4.052319548448e-03 8.754863572560e-04 0.0 
0.0 0.0 0.0 
-1.841960411434e-03 3.499189507369e-03 0.0 
3.499189507369e-03 9.001956416972e-03 0.0 
0.0 0.0 0.0 
3.963938816996e-03 1.974639988928e-03 0.0 
1.974639988928e-03 -1.081738299010e-03 0.0 
0.0 0.0 0.0 
2.325034158847e-03 -1.633584707901e-03 0.0 
-1.633584707901e-03 -3.238084958165e-04 0.0 
0.0 0.0 0.0 
4.903821653157e-04 3.897571407389e-03 0.0 
3.897571407389e-03 6.316525757200e-03 0.0 
0.0 0.0 0.0 
-2.157599996106e-03 3.528043429526e-03 0.0 
3.528043429526e-03 8.965071861883e-03 0.0 
0.0 0.0 0.0 
4.681960635984e-03 5.188778361929e-04 0.0 
5.188778361929e-04 -4.050613933785e-03 0.0 
0.0 0.0 0.0 
1.425483173950e-03 -2.632755310626e-03 0.0 
-2.632755310626e-03 -4.110829913189e-04 0.0 
0.0 0.0 0.0 
-4.433913737082e-04 3.940761220028e-03 0.0 
3.940761220028e-03 3.706863303227e-03 0.0 
0.0 0.0 0.0 
4.317421723552e-04 4.096179692461e-03 0.0 
4.096179692461e-03 1.937348015886e-03 0.0 
0.0 0.0 0.0 
-1.302157007857e-03 3.492299382778e-03 0.0 
3.492299382778e-03 1.122869070931e-02 0.0 
0.0 0.0 0.0 
-8.036307057729e-04 4.290424107098e-03 0.0 
4.290424107098e-03 7.363534951651e-03 0.0 
0.0 0.0 0.0 
-1.521684087451e-03 3.905732856040e-03 0.0 
3.905732856040e-03 7.195898485174e-03 0.0 
0.0 0.0 0.0 
-1.994146439059e-03 3.316540294107e-03 0.0 
3.316540294107e-03 8.992113449272e-03 0.0 
0.0 0.0 0.0 
6.739088848595e-04 2.455521699940e-03 0.0 
2.455521699940e-03 4.894638229535e-03 0.0 
0.0 0.0 0.0 
1.191359496874e-03 2.437362408035e-03 0.0 
2.437362408035e-03 4.112057318790e-03 0.0 
0.0 0.0 0.0 
-1.158072101218e-03 3.370364988154e-03 0.0 
3.370364988154e-03 1.125351713129e-02 0.0 
0.0 0.0 0.0 
-2.024223143613e-03 2.594950272384e-03 0.0 
2.594950272384e-03 1.229789974298e-02 0.0 
0.0 0.0 0.0 
2.398606745736e-03 -1.771282505605e-03 0.0 
-1.771282505605e-03 -8.940327736633e-04 0.0 
0.0 0.0 0.0 
4.216948110836e-05 4.348411150784e-03 0.0 
4.348411150784e-03 4.359062157553e-03 0.0 
0.0 0.0 0.0 
3.982393266386e-03 2.333096675555e-03 0.0 
2.333096675555e-03 -2.691409258677e-03 0.0 
0.0 0.0 0.0 
4.399688482605e-03 2.173363773161e-03 0.0 
2.173363773161e-03 -2.655323400691e-03 0.0 
0.0 0.0 0.0 
-4.097591779768e-04 4.404271055979e-03 0.0 
4.404271055979e-03 6.407755503138e-03 0.0 
0.0 0.0 0.0 
3.824922279137e-03 3.985975757681e-04 0.0 
3.985975757681e-04 -1.365859135262e-03 0.0 
0.0 0.0 0.0 
-7.937086112131e-06 -1.967685683552e-03 0.0 
-1.967685683552e-03 1.631995823437e-03 0.0 
0.0 0.0 0.0 
-1.313861532700e-03 2.984643048099e-03 0.0 
2.984643048099e-03 1.211547997944e-02 0.0 
0.0 0.0 0.0 
4.423506246593e-03 -6.155057852318e-04 0.0 
-6.155057852318e-04 -3.872627149662e-03 0.0 
0.0 0.0 0.0 
9.273770162233e-04 4.372749334502e-03 0.0 
4.372749334502e-03 3.428637258569e-03 0.0 
0.0 0.0 0.0 
-1.408608065578e-03 3.852677155370e-03 0.0 
3.852677155370e-03 8.215260948173e-03 0.0 
0.0 0.0 0.0 
7.007609038387e-04 4.339349142301e-03 0.0 
4.339349142301e-03 3.411576723777e-03 0.0 
0.0 0.0 0.0 
-4.051557278781e-04 4.194701101084e-03 0.0 
4.194701101084e-03 1.170285759797e-02 0.0 
0.0 0.0 0.0 
-4.244505895170e-04 3.690267531641e-03 0.0 
3.690267531641e-03 1.252163138716e-02 0.0 
0.0 0.0 0.0 
-8.607040573646e-04 3.499917427488e-03 0.0 
3.499917427488e-03 1.228274596569e-02 0.0 
0.0 0.0 0.0 
2.306234901200e-03 -1.561582683417e-03 0.0 
-1.561582683417e-03 -5.381586196780e-04 0.0 
0.0 0.0 0.0 
-1.513935554762e-03 2.257791704762e-03 0.0 
2.257791704762e-03 1.298752032988e-02 0.0 
0.0 0.0 0.0 
6.159086349666e-04 4.130423719710e-03 0.0 
4.130423719710e-03 1.181127622351e-03 0.0 
0.0 0.0 0.0 
4.632366492905e-03 2.088117708814e-03 0.0 
2.088117708814e-03 -2.565358526311e-03 0.0 
0.0 0.0 0.0 
3.454321572236e-03 1.541891148860e-03 0.0 
1.541891148860e-03 -3.592394385823e-03 0.0 
0.0 0.0 0.0 
-9.316485334682e-04 4.185863443495e-03 0.0 
4.185863443495e-03 6.235582276494e-03 0.0 
0.0 0.0 0.0 
-2.464128996041e-03 8.500634184647e-04 0.0 
8.500634184647e-04 1.223518432885e-02 0.0 
0.0 0.0 0.0 
-2.102653987930e-03 1.186760305109e-03 0.0 
1.186760305109e-03 1.280762975573e-02 0.0 
0.0 0.0 0.0 
1.153096932425e-03 1.298596837600e-03 0.0 
1.298596837600e-03 3.724187180398e-03 0.0 
0.0 0.0 0.0 
-8.620890454096e-04 3.719367023404e-03 0.0 
3.719367023404e-03 1.018888234896e-02 0.0 
0.0 0.0 0.0 
-2.261832396759e-03 2.776001382699e-03 0.0 
2.776001382699e-03 1.095857418073e-02 0.0 
0.0 0.0 0.0 
-1.491624267597e-03 3.747791013673e-03 0.0 
3.747791013673e-03 9.119689051747e-03 0.0 
0.0 0.0 0.0 
3.985374983659e-03 1.689001648588e-03 0.0 
1.689001648588e-03 -4.276927704157e-03 0.0 
0.0 0.0 0.0 
-6.980096441845e-04 -1.793385397928e-03 0.0 
-1.793385397928e-03 7.091407155253e-04 0.0 
0.0 0.0 0.0 
2.999515700428e-03 3.923131300370e-03 0.0 
3.923131300370e-03 -3.153298358871e-04 0.0 
0.0 0.0 0.0 
1.071268338734e-03 4.382076505072e-03 0.0 
4.382076505072e-03 3.528791220265e-03 0.0 
0.0 0.0 0.0 
2.773798037454e-03 3.889433031219e-03 0.0 
3.889433031219e-03 7.110093546780e-04 0.0 
0.0 0.0 0.0 
-7.872243427574e-04 3.879921304054e-03 0.0 
3.879921304054e-03 4.409498819828e-04 0.0 
0.0 0.0 0.0 
-1.659505695583e-03 1.315486012988e-04 0.0 
1.315486012988e-04 1.259808587036e-02 0.0 
0.0 0.0 0.0 
1.889205216687e-05 -2.022898292595e-03 0.0 
-2.022898292595e-03 7.868097563930e-04 0.0 
0.0 0.0 0.0 
2.500959863056e-03 4.018504596742e-03 0.0 
4.018504596742e-03 -1.003248950534e-03 0.0 
0.0 0.0 0.0 
0.0 1.375935402705e-03 0.0 
1.375935402705e-03 4.530738942762e-03 0.0 
0.0 0.0 0.0 
3.195901402699e-03 2.497880283205e-03 0.0 
2.497880283205e-03 8.309155782393e-04 0.0 
0.0 0.0 0.0 
-2.570104340043e-03 2.059489910567e-03 0.0 
2.059489910567e-03 1.129594676473e-02 0.0 
0.0 0.0 0.0 
1.004091728357e-03 -1.160657210942e-04 0.0 
-1.160657210942e-04 6.632160136606e-04 0.0 
0.0 0.0 0.0 
2.856065665930e-04 4.426455854254e-03 0.0 
4.426455854254e-03 4.411599884592e-03 0.0 
0.0 0.0 0.0 
3.376430156284e-03 3.638593666720e-03 0.0 
3.638593666720e-03 -2.771553363419e-04 0.0 
0.0 0.0 0.0 
-2.023954712087e-03 3.419071770782e-03 0.0 
3.419071770782e-03 1.040644478489e-02 0.0 
0.0 0.0 0.0 
-1.169047745432e-04 4.690882986742e-03 0.0 
4.690882986742e-03 1.013614468055e-02 0.0 
0.0 0.0 0.0 
-2.202423768355e-03 3.042697740217e-03 0.0 
3.042697740217e-03 9.719995676215e-03 0.0 
0.0 0.0 0.0 
-1.148411819747e-03 4.138293873029e-03 0.0 
4.138293873029e-03 8.267041208909e-03 0.0 
0.0 0.0 0.0 
2.598933008147e-04 -2.049087627677e-03 0.0 
-2.049087627677e-03 1.642678240239e-03 0.0 
0.0 0.0 0.0 
-1.514959302427e-03 2.677242207799e-03 0.0 
2.677242207799e-03 1.242444332676e-02 0.0 
0.0 0.0 0.0 
2.227444703640e-03 -1.408828740735e-03 0.0 
-1.408828740735e-03 9.895760873690e-05 0.0 
0.0 0.0 0.0 
-6.830741878638e-05 4.763401272887e-03 0.0 
4.763401272887e-03 9.578174895879e-03 0.0 
0.0 0.0 0.0 
0.0 4.092013416691e-03 0.0 
4.092013416691e-03 1.145774327856e-02 0.0 
0.0 0.0 0.0 
0.0 3.126452864968e-03 0.0 
3.126452864968e-03 1.307812719935e-02 0.0 
0.0 0.0 0.0 
0.0 3.621525197690e-03 0.0 
3.621525197690e-03 1.236556503149e-02 0.0 
0.0 0.0 0.0 
-1.658948695940e-03 3.506827415444e-03 0.0 
3.506827415444e-03 9.852367310708e-03 0.0 
0.0 0.0 0.0 
-1.721449082489e-03 2.778678045289e-03 0.0 
2.778678045289e-03 1.241209469746e-02 0.0 
0.0 0.0 0.0 
-8.696785111433e-04 3.653834949335e-03 0.0 
3.653834949335e-03 1.079607657731e-02 0.0 
0.0 0.0 0.0 
5.596028157171e-04 4.386276355489e-03 0.0 
4.386276355489e-03 3.406380783758e-03 0.0 
0.0 0.0 0.0 
-4.384603974117e-05 4.290268137426e-03 0.0 
4.290268137426e-03 4.366730652262e-03 0.0 
0.0 0.0 0.0 
-3.067325821000e-04 -1.823427512036e-03 0.0 
-1.823427512036e-03 1.926672870281e-03 0.0 
0.0 0.0 0.0 
-1.510627198563e-03 3.094303851636e-03 0.0 
3.094303851636e-03 1.210032964891e-02 0.0 
0.0 0.0 0.0 
1.380646757629e-04 4.709145832877e-03 0.0 
4.709145832877e-03 8.406084942802e-03 0.0 
0.0 0.0 0.0 
-1.362631920168e-03 2.567145463948e-03 0.0 
2.567145463948e-03 1.277933321418e-02 0.0 
0.0 0.0 0.0 
3.662237201195e-03 2.570727873051e-03 0.0 
2.570727873051e-03 -7.751901245179e-05 0.0 
0.0 0.0 0.0 
-1.581396631287e-03 2.658610865316e-03 0.0 
2.658610865316e-03 1.276786898804e-02 0.0 
0.0 0.0 0.0 
1.227183855351e-03 4.101759497244e-03 0.0 
4.101759497244e-03 4.759447731379e-03 0.0 
0.0 0.0 0.0 
1.321755881908e-03 4.361470591677e-03 0.0 
4.361470591677e-03 2.537310313420e-03 0.0 
0.0 0.0 0.0 
-1.007871903874e-03 3.975129917992e-03 0.0 
3.975129917992e-03 6.257860117671e-03 0.0 
0.0 0.0 0.0 
2.211408189548e-03 4.054973111777e-03 0.0 
4.054973111777e-03 -1.773431676262e-03 0.0 
0.0 0.0 0.0 
-4.274919283341e-04 2.126918506857e-03 0.0 
2.126918506857e-03 1.379220384181e-02 0.0 
0.0 0.0 0.0 
9.549818189423e-04 4.333354411849e-03 0.0 
4.333354411849e-03 2.489418501951e-03 0.0 
0.0 0.0 0.0 
3.444339558176e-04 4.058665616780e-03 0.0 
4.058665616780e-03 7.205043933282e-03 0.0 
0.0 0.0 0.0 
-9.556790119147e-05 -1.953584863441e-03 0.0 
-1.953584863441e-03 1.944999849401e-03 0.0 
0.0 0.0 0.0 
2.513158994679e-03 -3.068764802807e-03 0.0 
-3.068764802807e-03 -2.231336448730e-03 0.0 
0.0 0.0 0.0 
6.322840466133e-04 1.104153559013e-03 0.0 
1.104153559013e-03 3.707410472401e-03 0.0 
0.0 0.0 0.0 
2.127915647189e-03 4.133590272386e-03 0.0 
4.133590272386e-03 -1.809681895242e-04 0.0 
0.0 0.0 0.0 
0.0 4.279826929091e-03 0.0 
4.279826929091e-03 1.096635377185e-02 0.0 
0.0 0.0 0.0 
-5.163041937171e-04 3.230295649962e-03 0.0 
3.230295649962e-03 1.260981484641e-02 0.0 
0.0 0.0 0.0 
-4.296600507545e-04 4.301507257969e-03 0.0 
4.301507257969e-03 6.576263470521e-03 0.0 
0.0 0.0 0.0 
-6.453696069412e-04 -9.621212265058e-04 0.0 
-9.621212265058e-04 7.631575603062e-04 0.0 
0.0 0.0 0.0 
0.0 4.495250710213e-03 0.0 
4.495250710213e-03 9.865991704214e-03 0.0 
0.0 0.0 0.0 
6.585875732608e-04 1.814189365011e-03 0.0 
1.814189365011e-03 3.895217394132e-03 0.0 
0.0 0.0 0.0 
3.117473402953e-03 -2.576989302298e-03 0.0 
-2.576989302298e-03 -2.308872344228e-03 0.0 
0.0 0.0 0.0 
3.640912715008e-03 2.066580952512e-03 0.0 
2.066580952512e-03 -8.749353490201e-05 0.0 
0.0 0.0 0.0 
5.145950875358e-04 3.564955191384e-03 0.0 
3.564955191384e-03 5.885365724141e-03 0.0 
0.0 0.0 0.0 
-4.967096699181e-04 -9.092861224068e-05 0.0 
-9.092861224068e-05 3.282959448931e-04 0.0 
0.0 0.0 0.0 
1.161334029457e-03 4.361498697328e-03 0.0 
4.361498697328e-03 2.480975384263e-03 0.0 
0.0 0.0 0.0 
-7.746537183810e-04 4.166409738110e-03 0.0 
4.166409738110e-03 7.528696669375e-03 0.0 
0.0 0.0 0.0 
-3.358473980042e-05 4.399933337560e-03 0.0 
4.399933337560e-03 5.572008432551e-03 0.0 
0.0 0.0 0.0 
-9.254065902669e-04 4.127535512098e-03 0.0 
4.127535512098e-03 7.386962182354e-03 0.0 
0.0 0.0 0.0 
1.860652174616e-03 4.133319939814e-03 0.0 
4.133319939814e-03 -7.811456880321e-04 0.0 
0.0 0.0 0.0 
0.0 4.509173890167e-03 0.0 
4.509173890167e-03 8.694383461198e-03 0.0 
0.0 0.0 0.0 
4.762944353499e-03 2.053343396190e-03 0.0 
2.053343396190e-03 -2.413993698199e-03 0.0 
0.0 0.0 0.0 
2.136064152892e-03 4.826456994869e-04 0.0 
4.826456994869e-04 -4.232998175338e-03 0.0 
0.0 0.0 0.0 
1.521025312021e-04 -4.928557528979e-04 0.0 
-4.928557528979e-04 4.909606005240e-03 0.0 
0.0 0.0 0.0 
-5.089241091261e-04 -7.830187327779e-04 0.0 
-7.830187327779e-04 5.023206559114e-04 0.0 
0.0 0.0 0.0 
-1.707936636696e-03 3.580403181951e-03 0.0 
3.580403181951e-03 8.150086867336e-03 0.0 
0.0 0.0 0.0 
1.742807749911e-03 -3.114655163737e-03 0.0 
-3.114655163737e-03 -2.544048045686e-03 0.0 
0.0 0.0 0.0 
-2.465421326583e-03 2.479340294631e-03 0.0 
2.479340294631e-03 1.034645992523e-02 0.0 
0.0 0.0 0.0 
6.629541506677e-04 2.001185619214e-03 0.0 
2.001185619214e-03 4.684590292717e-03 0.0 
0.0 0.0 0.0 
0.0 4.292355178915e-03 0.0 
4.292355178915e-03 7.558713683474e-03 0.0 
0.0 0.0 0.0 
-1.868130536480e-03 3.413876272934e-03 0.0 
3.413876272934e-03 9.785524586534e-03 0.0 
0.0 0.0 0.0 
5.427340803943e-04 -3.325004896036e-03 0.0 
-3.325004896036e-03 -9.812255605569e-04 0.0 
0.0 0.0 0.0 
1.876699379907e-03 8.695625160935e-04 0.0 
8.695625160935e-04 -4.707755628010e-03 0.0 
0.0 0.0 0.0 
4.784441472003e-04 -3.800321012828e-03 0.0 
-3.800321012828e-03 -1.247057010074e-03 0.0 
0.0 0.0 0.0 
7.178276799411e-04 -6.392180757490e-04 0.0 
-6.392180757490e-04 3.072933352818e-03 0.0 
0.0 0.0 0.0 
-2.517362439115e-03 1.007070776989e-03 0.0 
1.007070776989e-03 1.206556031814e-02 0.0 
0.0 0.0 0.0 
-2.778872671954e-03 2.180974722991e-03 0.0 
2.180974722991e-03 1.164052262589e-02 0.0 
0.0 0.0 0.0 
0.0 3.871120266508e-03 0.0 
3.871120266508e-03 6.545691861853e-03 0.0 
0.0 0.0 0.0 
-2.406332010759e-03 8.004405184422e-04 0.0 
8.004405184422e-04 1.215459691530e-02 0.0 
0.0 0.0 0.0 
-4.237259535580e-04 3.124434443387e-03 0.0 
3.124434443387e-03 1.320478307773e-02 0.0 
0.0 0.0 0.0 
1.340850130042e-03 3.997098044375e-03 0.0 
3.997098044375e-03 4.213822008235e-03 0.0 
0.0 0.0 0.0 
-2.086412904418e-03 9.258257259398e-04 0.0 
9.258257259398e-04 1.275627688768e-02 0.0 
0.0 0.0 0.0 
2.134607583972e-04 4.128392941786e-03 0.0 
4.128392941786e-03 2.695310638188e-03 0.0 
0.0 0.0 0.0 
3.503116211245e-03 2.432215883619e-03 0.0 
2.432215883619e-03 -1.378698673177e-04 0.0 
0.0 0.0 0.0 
2.956563837555e-03 2.868891904578e-03 0.0 
2.868891904578e-03 -2.652968883293e-03 0.0 
0.0 0.0 0.0 
0.0 3.252447220089e-03 0.0 
3.252447220089e-03 5.696044297284e-03 0.0 
0.0 0.0 0.0 
0.0 3.871252230132e-03 0.0 
3.871252230132e-03 1.193084101066e-02 0.0 
0.0 0.0 0.0 
0.0 3.373505286739e-03 0.0 
3.373505286739e-03 1.275723139156e-02 0.0 
0.0 0.0 0.0 
1.830517384492e-03 -1.613625019127e-03 0.0 
-1.613625019127e-03 1.315234072683e-04 0.0 
0.0 0.0 0.0 
-5.515118741137e-04 -1.622399230838e-03 0.0 
-1.622399230838e-03 2.172287196128e-03 0.0 
0.0 0.0 0.0 
1.533747103696e-03 4.233965286985e-03 0.0 
4.233965286985e-03 2.555607872605e-03 0.0 
0.0 0.0 0.0 
1.789654396319e-03 -1.421696745502e-03 0.0 
-1.421696745502e-03 7.848016937317e-04 0.0 
0.0 0.0 0.0 
0.0 2.566946307120e-03 0.0 
2.566946307120e-03 5.064165843369e-03 0.0 
0.0 0.0 0.0 
2.876045427213e-03 3.584288680462e-03 0.0 
3.584288680462e-03 -9.405969937163e-04 0.0 
0.0 0.0 0.0 
4.425465524523e-03 -1.141519894894e-03 0.0 
-1.141519894894e-03 -3.354647714420e-03 0.0 
0.0 0.0 0.0 
4.011806623613e-03 -1.689855518562e-03 0.0 
-1.689855518562e-03 -2.815597616552e-03 0.0 
0.0 0.0 0.0 
-1.961154291322e-03 9.145000992909e-04 0.0 
9.145000992909e-04 1.297847800736e-02 0.0 
0.0 0.0 0.0 
5.066830258289e-04 8.272257427410e-04 0.0 
8.272257427410e-04 4.477041516997e-03 0.0 
0.0 0.0 0.0 
-9.477842652068e-04 -3.506539042225e-03 0.0 
-3.506539042225e-03 -5.368043197895e-05 0.0 
0.0 0.0 0.0 
0.0 1.750541664012e-03 0.0 
1.750541664012e-03 4.615865314529e-03 0.0 
0.0 0.0 0.0 
3.367478544600e-03 -2.298249879664e-03 0.0 
-2.298249879664e-03 -2.328787446250e-03 0.0 
0.0 0.0 0.0 
0.0 4.423027908137e-03 0.0 
4.423027908137e-03 1.043427564084e-02 0.0 
0.0 0.0 0.0 
-1.029652103086e-03 3.753474341350e-03 0.0 
3.753474341350e-03 1.078023639586e-02 0.0 
0.0 0.0 0.0 
-1.032210220533e-04 -1.039084677835e-04 0.0 
-1.039084677835e-04 1.794738100487e-04 0.0 
0.0 0.0 0.0 
1.765046412970e-03 4.213379797683e-03 0.0 
4.213379797683e-03 1.584589279926e-03 0.0 
0.0 0.0 0.0 
-1.561794888423e-03 2.239310881524e-03 0.0 
2.239310881524e-03 1.325492908980e-02 0.0 
0.0 0.0 0.0 
0.0 4.535154205710e-03 0.0 
4.535154205710e-03 9.285646936374e-03 0.0 
0.0 0.0 0.0 
-1.631142618497e-03 3.716872337387e-03 0.0 
3.716872337387e-03 9.824611168050e-03 0.0 
0.0 0.0 0.0 
1.616140375505e-03 3.772172089477e-03 0.0 
3.772172089477e-03 3.783434298268e-03 0.0 
0.0 0.0 0.0 
1.318154548950e-03 4.122575676859e-03 0.0 
4.122575676859e-03 -1.433979522719e-03 0.0 
0.0 0.0 0.0 
1.254877858083e-03 1.523172401828e-03 0.0 
1.523172401828e-03 3.073832123936e-03 0.0 
0.0 0.0 0.0 
2.832818933035e-03 -2.482896606098e-03 0.0 
-2.482896606098e-03 -1.675713744564e-03 0.0 
0.0 0.0 0.0 
3.416166321326e-03 -2.254298476023e-03 0.0 
-2.254298476023e-03 -2.737565517238e-03 0.0 
0.0 0.0 0.0 
-1.810302367433e-03 -3.354170217742e-03 0.0 
-3.354170217742e-03 -2.732528478933e-05 0.0 
0.0 0.0 0.0 
0.0 4.426845964448e-03 0.0 
4.426845964448e-03 8.119016477721e-03 0.0 
0.0 0.0 0.0 
3.481405888972e-03 2.516463330237e-03 0.0 
2.516463330237e-03 -2.695898709741e-03 0.0 
0.0 0.0 0.0 
1.901940559506e-03 1.965291272175e-04 0.0 
1.965291272175e-04 1.734802430962e-03 0.0 
0.0 0.0 0.0 
-2.272809953767e-03 7.514489507360e-04 0.0 
7.514489507360e-04 1.266131623530e-02 0.0 
0.0 0.0 0.0 
1.014915113767e-03 -2.832868214673e-03 0.0 
-2.832868214673e-03 -3.373908228701e-04 0.0 
0.0 0.0 0.0 
3.902277190685e-03 -1.913954919413e-03 0.0 
-1.913954919413e-03 -3.240520320601e-03 0.0 
0.0 0.0 0.0 
-1.442813952540e-03 3.957089217368e-03 0.0 
3.957089217368e-03 9.091163006787e-03 0.0 
0.0 0.0 0.0 
0.0 3.572542320699e-03 0.0 
3.572542320699e-03 6.103991334028e-03 0.0 
0.0 0.0 0.0 
-6.308772632301e-04 -1.540939380864e-03 0.0 
-1.540939380864e-03 2.581027608716e-03 0.0 
0.0 0.0 0.0 
1.978063554538e-03 -9.438090659868e-04 0.0 
-9.438090659868e-04 6.354965240143e-04 0.0 
0.0 0.0 0.0 
9.467684237086e-04 4.426666787437e-03 0.0 
4.426666787437e-03 3.706981052547e-03 0.0 
0.0 0.0 0.0 
3.335894669387e-03 -5.573688119040e-04 0.0 
-5.573688119040e-04 -1.235796361972e-03 0.0 
0.0 0.0 0.0 
4.445529036455e-03 -1.139185530410e-03 0.0 
-1.139185530410e-03 -3.449984952262e-03 0.0 
0.0 0.0 0.0 
2.162561630021e-03 -1.312994957349e-03 0.0 
-1.312994957349e-03 -2.462287803173e-05 0.0 
0.0 0.0 0.0 
5.976276669359e-04 4.453275285228e-03 0.0 
4.453275285228e-03 4.542764092166e-03 0.0 
0.0 0.0 0.0 
4.065684948948e-04 4.235295462228e-03 0.0 
4.235295462228e-03 6.372013561538e-03 0.0 
0.0 0.0 0.0 
3.055991562011e-03 2.373457777630e-03 0.0 
2.373457777630e-03 7.668415397688e-04 0.0 
0.0 0.0 0.0 
1.422872677732e-03 4.351212719094e-03 0.0 
4.351212719094e-03 2.681041516778e-03 0.0 
0.0 0.0 0.0 
6.297532899051e-04 -2.238129932452e-03 0.0 
-2.238129932452e-03 1.116722304539e-03 0.0 
0.0 0.0 0.0 
2.474431840870e-03 3.833973247599e-03 0.0 
3.833973247599e-03 -1.396504003129e-04 0.0 
0.0 0.0 0.0 
-3.988902385845e-04 -1.792890649607e-03 0.0 
-1.792890649607e-03 2.197012203090e-03 0.0 
0.0 0.0 0.0 
1.553275840864e-03 3.882734069291e-03 0.0 
3.882734069291e-03 4.232274771940e-03 0.0 
0.0 0.0 0.0 
4.461005479208e-03 1.914171620271e-03 0.0 
1.914171620271e-03 -1.919915699056e-03 0.0 
0.0 0.0 0.0 
6.406720740784e-04 1.601239154175e-03 0.0 
1.601239154175e-03 4.573666552283e-03 0.0 
0.0 0.0 0.0 
-1.417426907155e-03 2.547979677843e-03 0.0 
2.547979677843e-03 1.308924869287e-02 0.0 
0.0 0.0 0.0 
7.447053764984e-04 -2.674768024104e-03 0.0 
-2.674768024104e-03 2.288644380350e-04 0.0 
0.0 0.0 0.0 
0.0 2.144338650250e-03 0.0 
2.144338650250e-03 4.757550886024e-03 0.0 
0.0 0.0 0.0 
1.255506736927e-03 1.700947540598e-03 0.0 
1.700947540598e-03 3.826171484419e-03 0.0 
0.0 0.0 0.0 
3.051530551069e-03 3.801738459278e-03 0.0 
3.801738459278e-03 -1.358248687440e-04 0.0 
0.0 0.0 0.0 
-8.682481978566e-04 -2.330251237893e-03 0.0 
-2.330251237893e-03 8.667242230556e-04 0.0 
0.0 0.0 0.0 
5.254877837286e-04 5.159421890325e-04 0.0 
5.159421890325e-04 4.521709028674e-03 0.0 
0.0 0.0 0.0 
-1.390956420351e-03 2.967209712053e-03 0.0 
2.967209712053e-03 1.251109520524e-02 0.0 
0.0 0.0 0.0 
2.649355915288e-03 -2.773653906280e-03 0.0 
-2.773653906280e-03 -1.660743690067e-03 0.0 
0.0 0.0 0.0 
0.0 1.001780627174e-03 0.0 
1.001780627174e-03 4.452236745774e-03 0.0 
0.0 0.0 0.0 
1.710654271265e-03 -1.311590128377e-03 0.0 
-1.311590128377e-03 6.670569995497e-04 0.0 
0.0 0.0 0.0 
-4.471215373973e-04 4.224895338702e-03 0.0 
4.224895338702e-03 5.300516422388e-03 0.0 
0.0 0.0 0.0 
-2.453495273849e-03 2.346536243755e-03 0.0 
2.346536243755e-03 1.137342875699e-02 0.0 
0.0 0.0 0.0 
4.488225894989e-03 2.008262143338e-03 0.0 
2.008262143338e-03 -1.701561892019e-03 0.0 
0.0 0.0 0.0 
1.926854267683e-03 -1.840241838102e-03 0.0 
-1.840241838102e-03 -2.918156111464e-04 0.0 
0.0 0.0 0.0 
3.410871627998e-03 4.547424302685e-05 0.0 
4.547424302685e-05 -9.104916029830e-04 0.0 
0.0 0.0 0.0 
-2.287982554913e-03 2.404202561372e-03 0.0 
2.404202561372e-03 1.218523554728e-02 0.0 
0.0 0.0 0.0 
-1.231998759063e-03 3.939784608669e-03 0.0 
3.939784608669e-03 7.248867848489e-03 0.0 
0.0 0.0 0.0 
2.657277750186e-03 2.729694752775e-03 0.0 
2.729694752775e-03 1.618301644396e-03 0.0 
0.0 0.0 0.0 
-1.667529269037e-03 1.468714816273e-04 0.0 
1.468714816273e-04 1.289634149836e-02 0.0 
0.0 0.0 0.0 
3.198021991802e-04 -2.186611650047e-03 0.0 
-2.186611650047e-03 1.110733533917e-03 0.0 
0.0 0.0 0.0 
3.453509940989e-03 1.942805775816e-03 0.0 
1.942805775816e-03 -4.565754328345e-05 0.0 
0.0 0.0 0.0 
2.230582840524e-03 -2.712701627065e-03 0.0 
-2.712701627065e-03 -1.644057305647e-03 0.0 
0.0 0.0 0.0 
7.780357740272e-05 -1.281040800196e-03 0.0 
-1.281040800196e-03 2.968074170590e-03 0.0 
0.0 0.0 0.0 
-2.886912834419e-04 -2.390925188622e-04 0.0 
-2.390925188622e-04 1.557449850882e-04 0.0 
0.0 0.0 0.0 
2.040481956510e-03 4.033797106960e-03 0.0 
4.033797106960e-03 6.712088008585e-04 0.0 
0.0 0.0 0.0 
2.753444621805e-03 -2.738221518503e-03 0.0 
-2.738221518503e-03 -2.263283038940e-03 0.0 
0.0 0.0 0.0 
-6.089403015463e-05 -1.832130944020e-03 0.0 
-1.832130944020e-03 2.145353734232e-03 0.0 
0.0 0.0 0.0 
2.456356641514e-03 3.968755208016e-03 0.0 
3.968755208016e-03 9.141538598101e-04 0.0 
0.0 0.0 0.0 
2.143025863158e-03 -1.107776149328e-03 0.0 
-1.107776149328e-03 6.346784915565e-04 0.0 
0.0 0.0 0.0 
-2.149149634961e-03 7.399933348692e-04 0.0 
7.399933348692e-04 1.288470327916e-02 0.0 
0.0 0.0 0.0 
2.040194966943e-03 -3.012898565202e-03 0.0 
-3.012898565202e-03 -1.619883456623e-03 0.0 
0.0 0.0 0.0 
0.0 6.921288572439e-04 0.0 
6.921288572439e-04 4.502055654868e-03 0.0 
0.0 0.0 0.0 
-6.503425035504e-04 4.301995540002e-03 0.0 
4.301995540002e-03 7.509541572910e-03 0.0 
0.0 0.0 0.0 
-3.306350046567e-04 -1.596722313380e-03 0.0 
-1.596722313380e-03 2.610712511992e-03 0.0 
0.0 0.0 0.0 
-2.717727744138e-04 4.404769846302e-03 0.0 
4.404769846302e-03 6.561064105532e-03 0.0 
0.0 0.0 0.0 
-2.935630834551e-04 -1.731927744335e-03 0.0 
-1.731927744335e-03 2.131727695844e-03 0.0 
0.0 0.0 0.0 
-8.113433106608e-04 -1.346279079040e-04 0.0 
-1.346279079040e-04 4.540978219771e-04 0.0 
0.0 0.0 0.0 
-2.577035192450e-03 2.387472790053e-03 0.0 
2.387472790053e-03 1.171473586224e-02 0.0 
0.0 0.0 0.0 
-1.174769138356e-03 -6.247768238175e-04 0.0 
-6.247768238175e-04 3.143844028271e-03 0.0 
0.0 0.0 0.0 
1.327172693085e-03 -1.454690707120e-04 0.0 
-1.454690707120e-04 -4.464112056732e-04 0.0 
0.0 0.0 0.0 
-6.023789862352e-04 -1.463279923636e-03 0.0 
-1.463279923636e-03 2.799336449544e-03 0.0 
0.0 0.0 0.0 
1.942673551296e-03 -7.610774632507e-04 0.0 
-7.610774632507e-04 1.254365169432e-03 0.0 
0.0 0.0 0.0 
-1.001111017769e-03 7.042936463392e-04 0.0 
7.042936463392e-04 1.400110939088e-02 0.0 
0.0 0.0 0.0 
3.819436536789e-03 -1.880493749140e-04 0.0 
-1.880493749140e-04 -1.713895351687e-03 0.0 
0.0 0.0 0.0 
3.681624174779e-03 -1.498337738136e-04 0.0 
-1.498337738136e-04 -1.308408047092e-03 0.0 
0.0 0.0 0.0 
-2.892899924794e-03 1.892063431707e-03 0.0 
1.892063431707e-03 1.150530337610e-02 0.0 
0.0 0.0 0.0 
-2.394516714230e-03 5.553806421267e-04 0.0 
5.553806421267e-04 1.194694303322e-02 0.0 
0.0 0.0 0.0 
-4.723699224561e-04 2.573375056899e-03 0.0 
2.573375056899e-03 1.344604891578e-02 0.0 
0.0 0.0 0.0 
1.428803382320e-04 4.456531112972e-03 0.0 
4.456531112972e-03 5.563890110809e-03 0.0 
0.0 0.0 0.0 
2.025923956164e-03 -1.670778956099e-04 0.0 
-1.670778956099e-04 -7.205490596308e-04 0.0 
0.0 0.0 0.0 
-4.298399712555e-05 -1.526932559272e-03 0.0 
-1.526932559272e-03 9.310449607105e-04 0.0 
0.0 0.0 0.0 
-9.065644074977e-04 -1.415129097744e-03 0.0 
-1.415129097744e-03 9.252748063380e-04 0.0 
0.0 0.0 0.0 
3.541388575281e-04 -2.489850484650e-03 0.0 
-2.489850484650e-03 5.634881427146e-04 0.0 
0.0 0.0 0.0 
-2.313924331112e-04 4.111166522363e-03 0.0 
4.111166522363e-03 8.518836497007e-03 0.0 
0.0 0.0 0.0 
-1.135489298942e-03 6.899257728322e-04 0.0 
6.899257728322e-04 1.400331047280e-02 0.0 
0.0 0.0 0.0 
7.972899697126e-04 -7.192577546744e-04 0.0 
-7.192577546744e-04 3.060427069377e-03 0.0 
0.0 0.0 0.0 
-3.174383272186e-05 -2.067108447264e-03 0.0 
-2.067108447264e-03 1.239617759958e-03 0.0 
0.0 0.0 0.0 
-1.864800483240e-04 -1.258621307848e-03 0.0 
-1.258621307848e-03 2.966177258893e-03 0.0 
0.0 0.0 0.0 
1.740331969685e-03 2.376689868647e-04 0.0 
2.376689868647e-04 2.200499416966e-03 0.0 
0.0 0.0 0.0 
3.090425704949e-03 3.911018038940e-04 0.0 
3.911018038940e-04 -4.196894872998e-03 0.0 
0.0 0.0 0.0 
-1.182155430070e-03 -3.841258565610e-04 0.0 
-3.841258565610e-04 3.139516412106e-03 0.0 
0.0 0.0 0.0 
-1.052375725706e-03 -3.503021680956e-04 0.0 
-3.503021680956e-04 2.773042616246e-03 0.0 
0.0 0.0 0.0 
4.044647276293e-04 2.110394351985e-04 0.0 
2.110394351985e-04 4.588848418413e-03 0.0 
0.0 0.0 0.0 
0.0 3.723141677670e-04 0.0 
3.723141677670e-04 4.541326051915e-03 0.0 
0.0 0.0 0.0 
-1.217131881526e-03 -3.981696858578e-04 0.0 
-3.981696858578e-04 3.358749063183e-03 0.0 
0.0 0.0 0.0 
-5.361768477530e-04 -1.483126537796e-03 0.0 
-1.483126537796e-03 2.594571955004e-03 0.0 
0.0 0.0 0.0 
1.847849651949e-03 -1.682119259561e-03 0.0 
-1.682119259561e-03 3.413849381761e-04 0.0 
0.0 0.0 0.0 
1.689402333470e-03 6.082792907184e-04 0.0 
6.082792907184e-04 2.489670313879e-03 0.0 
0.0 0.0 0.0 
-2.436751182852e-04 -1.615787987087e-03 0.0 
-1.615787987087e-03 1.057028079214e-03 0.0 
0.0 0.0 0.0 
1.757689313520e-03 -1.240828423673e-04 0.0 
-1.240828423673e-04 1.995358750595e-03 0.0 
0.0 0.0 0.0 
1.153169751084e-03 -4.207707052123e-04 0.0 
-4.207707052123e-04 2.477241953620e-04 0.0 
0.0 0.0 0.0 
-5.497599132093e-04 -1.573294441221e-03 0.0 
-1.573294441221e-03 2.368023439884e-03 0.0 
0.0 0.0 0.0 
8.036613750928e-06 -1.834759621388e-03 0.0 
-1.834759621388e-03 1.861914155088e-03 0.0 
0.0 0.0 0.0 
1.328283486150e-03 -2.173120916930e-04 0.0 
-2.173120916930e-04 -1.692924824072e-04 0.0 
0.0 0.0 0.0 
-1.233800177088e-03 -3.725336185265e-04 0.0 
-3.725336185265e-04 3.319523594460e-03 0.0 
0.0 0.0 0.0 
-1.168936398817e-03 2.482627433184e-03 0.0 
2.482627433184e-03 1.309873896900e-02 0.0 
0.0 0.0 0.0 
2.268642775214e-03 -1.087631139040e-04 0.0 
-1.087631139040e-04 -8.102202855018e-04 0.0 
0.0 0.0 0.0 
-2.504693087858e-03 7.282960454998e-04 0.0 
7.282960454998e-04 1.190414677362e-02 0.0 
0.0 0.0 0.0 
-2.492193727526e-03 8.875005324922e-04 0.0 
8.875005324922e-04 1.173484105418e-02 0.0 
0.0 0.0 0.0 
3.375040326462e-03 6.559680018307e-04 0.0 
6.559680018307e-04 -4.216419606695e-04 0.0 
0.0 0.0 0.0 
-1.018632035281e-03 -9.080435233637e-05 0.0 
-9.080435233637e-05 2.782599028083e-03 0.0 
0.0 0.0 0.0 
2.122938700228e-03 -2.746341410000e-03 0.0 
-2.746341410000e-03 -1.019006905837e-03 0.0 
0.0 0.0 0.0 
1.025562933090e-03 3.961772415600e-03 0.0 
3.961772415600e-03 4.374024868024e-04 0.0 
0.0 0.0 0.0 
3.834648273582e-04 -5.211479270763e-04 0.0 
-5.211479270763e-04 4.066008922651e-03 0.0 
0.0 0.0 0.0 
1.263758768817e-04 4.240709155272e-03 0.0 
4.240709155272e-03 7.972195111050e-03 0.0 
0.0 0.0 0.0 
-1.472364443491e-03 1.016093251088e-03 0.0 
1.016093251088e-03 1.377341289392e-02 0.0 
0.0 0.0 0.0 
2.890252424026e-04 4.049680250255e-03 0.0 
4.049680250255e-03 2.704895241597e-03 0.0 
0.0 0.0 0.0 
-3.842646626900e-04 -1.251929730570e-03 0.0 
-1.251929730570e-03 8.429352452224e-04 0.0 
0.0 0.0 0.0 
-1.994659632098e-03 3.681727286847e-03 0.0 
3.681727286847e-03 8.944874615466e-03 0.0 
0.0 0.0 0.0 
-2.093974189887e-03 2.514047858739e-04 0.0 
2.514047858739e-04 1.198450585191e-02 0.0 
0.0 0.0 0.0 
-2.017513046183e-03 2.242234023173e-04 0.0 
2.242234023173e-04 1.192596015437e-02 0.0 
0.0 0.0 0.0 
1.544390289586e-03 -1.292808337133e-04 0.0 
-1.292808337133e-04 -5.446387016200e-04 0.0 
0.0 0.0 0.0 
1.153518328439e-03 -2.913403471363e-04 0.0 
-2.913403471363e-04 -9.100976236243e-05 0.0 
0.0 0.0 0.0 
9.283929548407e-04 -1.863330276851e-04 0.0 
-1.863330276851e-04 3.653944000674e-04 0.0 
0.0 0.0 0.0 
-2.403569593217e-04 -1.794548669013e-03 0.0 
-1.794548669013e-03 1.379995692621e-03 0.0 
0.0 0.0 0.0 
1.950266320430e-03 -1.860620570084e-04 0.0 
-1.860620570084e-04 -4.127806480786e-04 0.0 
0.0 0.0 0.0 
-1.224243610103e-03 -3.568451798727e-04 0.0 
-3.568451798727e-04 3.540771818421e-03 0.0 
0.0 0.0 0.0 
-1.595472990552e-03 -1.222280228761e-03 0.0 
-1.222280228761e-03 -1.715640091546e-03 0.0 
0.0 0.0 0.0 
-2.040179848620e-04 -1.954399418795e-03 0.0 
-1.954399418795e-03 1.513217329426e-03 0.0 
0.0 0.0 0.0 
-1.478915996916e-03 2.035003101858e-04 0.0 
2.035003101858e-04 1.319437444727e-02 0.0 
0.0 0.0 0.0 
-2.289349398071e-03 5.160570321414e-04 0.0 
5.160570321414e-04 1.186312119733e-02 0.0 
0.0 0.0 0.0 
-4.289584429494e-04 4.088050779501e-03 0.0 
4.088050779501e-03 9.288336167461e-03 0.0 
0.0 0.0 0.0 
1.703054947303e-03 -1.097958353743e-03 0.0 
-1.097958353743e-03 1.309437181517e-03 0.0 
0.0 0.0 0.0 
-1.569260191712e-03 1.400141029434e-04 0.0 
1.400141029434e-04 1.288893999391e-02 0.0 
0.0 0.0 0.0 
-1.125237172671e-03 -1.313974002099e-04 0.0 
-1.313974002099e-04 2.945030617865e-03 0.0 
0.0 0.0 0.0 
1.457247404762e-03 -2.328881670464e-04 0.0 
-2.328881670464e-04 1.372244025339e-04 0.0 
0.0 0.0 0.0 
0.0 1.382550788403e-03 0.0 
1.382550788403e-03 1.435965350844e-02 0.0 
0.0 0.0 0.0 
-3.773608178330e-04 1.539695001256e-03 0.0 
1.539695001256e-03 1.430580551248e-02 0.0 
0.0 0.0 0.0 
-2.057069723843e-03 6.982830399916e-04 0.0 
6.982830399916e-04 1.266498988505e-02 0.0 
0.0 0.0 0.0 
-2.200274321909e-03 3.212127344062e-04 0.0 
3.212127344062e-04 1.197623348774e-02 0.0 
0.0 0.0 0.0 
-1.079379431277e-03 -3.464783413675e-04 0.0 
-3.464783413675e-04 2.908050306132e-03 0.0 
0.0 0.0 0.0 
-3.279988258165e-04 1.087900135971e-03 0.0 
1.087900135971e-03 1.447788170998e-02 0.0 
0.0 0.0 0.0 
-4.173758317905e-05 -1.953949882084e-03 0.0 
-1.953949882084e-03 1.175879818144e-03 0.0 
0.0 0.0 0.0 
-2.390712415413e-03 6.777715864802e-04 0.0 
6.777715864802e-04 1.180601482274e-02 0.0 
0.0 0.0 0.0 
-2.294455543461e-03 4.291922945500e-04 0.0 
4.291922945500e-04 1.196817041760e-02 0.0 
0.0 0.0 0.0 
-2.338521165320e-03 2.772739719585e-03 0.0 
2.772739719585e-03 9.772454383383e-03 0.0 
0.0 0.0 0.0 
0.0 2.876286307591e-03 0.0 
2.876286307591e-03 1.334929962554e-02 0.0 
0.0 0.0 0.0 
-3.731859550661e-04 1.312205550254e-03 0.0 
1.312205550254e-03 1.440253371703e-02 0.0 
0.0 0.0 0.0 
1.788759627068e-03 -2.458383073620e-04 0.0 
-2.458383073620e-04 -3.569047449602e-04 0.0 
0.0 0.0 0.0 
1.788630895233e-03 -1.084566024520e-04 0.0 
-1.084566024520e-04 -6.498815172675e-04 0.0 
0.0 0.0 0.0 
-3.136104872282e-04 -1.222642628168e-03 0.0 
-1.222642628168e-03 9.139854296434e-04 0.0 
0.0 0.0 0.0 
2.837215181604e-04 -1.889280325771e-03 0.0 
-1.889280325771e-03 1.868499783656e-03 0.0 
0.0 0.0 0.0 
-3.978662826628e-04 -9.176604809284e-05 0.0 
-9.176604809284e-05 5.584965483507e-03 0.0 
0.0 0.0 0.0 
-4.463769935106e-03 -2.035232796367e-03 0.0 
-2.035232796367e-03 -1.577737529556e-03 0.0 
0.0 0.0 0.0 
-1.142107236871e-03 8.482259739889e-05 0.0 
8.482259739889e-05 1.382977374415e-02 0.0 
0.0 0.0 0.0 
-1.763819943637e-03 -1.146014597608e-03 0.0 
-1.146014597608e-03 8.275201695793e-04 0.0 
0.0 0.0 0.0 
3.331765577660e-03 1.353386524462e-04 0.0 
1.353386524462e-04 -4.783026057914e-04 0.0 
0.0 0.0 0.0 
-1.015455884323e-03 -7.368627423813e-04 0.0 
-7.368627423813e-04 1.064231288117e-04 0.0 
0.0 0.0 0.0 
-2.649588312639e-03 -2.311095263093e-03 0.0 
-2.311095263093e-03 -2.644224513529e-04 0.0 
0.0 0.0 0.0 
3.269828041152e-03 -4.286206018800e-04 0.0 
-4.286206018800e-04 -7.173757399201e-04 0.0 
0.0 0.0 0.0 
-2.989013925456e-04 -3.786667139029e-04 0.0 
-3.786667139029e-04 5.175589969002e-03 0.0 
0.0 0.0 0.0 
-1.575658637556e-03 1.508530110027e-04 0.0 
1.508530110027e-04 1.316661492588e-02 0.0 
0.0 0.0 0.0 
-1.497497708593e-03 4.015025874784e-03 0.0 
4.015025874784e-03 8.129495675304e-03 0.0 
0.0 0.0 0.0 
1.457910900312e-03 -1.595438128672e-04 0.0 
-1.595438128672e-04 -2.242766017707e-04 0.0 
0.0 0.0 0.0 
-3.803566711290e-04 -1.041178523539e-03 0.0 
-1.041178523539e-03 3.423786625014e-03 0.0 
0.0 0.0 0.0 
0.0 4.326446016599e-04 0.0 
4.326446016599e-04 1.460069491607e-02 0.0 
0.0 0.0 0.0 
-2.959730401403e-04 4.952786214961e-04 0.0 
4.952786214961e-04 1.460093527261e-02 0.0 
0.0 0.0 0.0 
-2.184904834307e-03 3.922621752003e-04 0.0 
3.922621752003e-04 1.188903309705e-02 0.0 
0.0 0.0 0.0 
3.258470165267e-03 6.807119497529e-04 0.0 
6.807119497529e-04 -9.944663068640e-05 0.0 
0.0 0.0 0.0 
0.0 1.160238499345e-03 0.0 
1.160238499345e-03 1.444829401758e-02 0.0 
0.0 0.0 0.0 
1.774287448154e-03 3.630224860161e-03 0.0 
3.630224860161e-03 3.803215081509e-03 0.0 
0.0 0.0 0.0 
1.533844465767e-03 -1.234228060722e-04 0.0 
-1.234228060722e-04 8.618752897083e-05 0.0 
0.0 0.0 0.0 
2.069260389430e-03 -1.264343533998e-04 0.0 
-1.264343533998e-04 -4.656543887489e-04 0.0 
0.0 0.0 0.0 
1.550005152530e-03 -4.946515585619e-05 0.0 
-4.946515585619e-05 -2.380003465979e-04 0.0 
0.0 0.0 0.0 
-1.230555152162e-03 -1.243983313497e-04 0.0 
-1.243983313497e-04 3.218992111014e-03 0.0 
0.0 0.0 0.0 
-1.329988575139e-04 -3.739097373827e-04 0.0 
-3.739097373827e-04 5.883163778902e-03 0.0 
0.0 0.0 0.0 
-5.066179907767e-04 -5.212158479694e-06 0.0 
-5.212158479694e-06 1.442747836553e-02 0.0 
0.0 0.0 0.0 
2.071331267536e-03 -7.572038437284e-05 0.0 
-7.572038437284e-05 -7.805712435779e-04 0.0 
0.0 0.0 0.0 
-1.247675703660e-03 -1.478065041632e-04 0.0 
-1.478065041632e-04 3.540470352414e-03 0.0 
0.0 0.0 0.0 
0.0 -2.753024327871e-04 0.0 
-2.753024327871e-04 5.955938045174e-03 0.0 
0.0 0.0 0.0 
-1.221947302275e-04 -4.303614596886e-04 0.0 
-4.303614596886e-04 5.785334102765e-03 0.0 
0.0 0.0 0.0 
3.978010820123e-04 -3.495865832949e-05 0.0 
-3.495865832949e-05 4.696566710086e-03 0.0 
0.0 0.0 0.0 
-1.310721533610e-03 9.708741074993e-05 0.0 
9.708741074993e-05 1.355102319719e-02 0.0 
0.0 0.0 0.0 
-1.026299161710e-03 -1.329077346084e-05 0.0 
-1.329077346084e-05 1.396507220121e-02 0.0 
0.0 0.0 0.0 
0.0 -3.517267764670e-04 0.0 
-3.517267764670e-04 5.834946805995e-03 0.0 
0.0 0.0 0.0 
0.0 -4.208186410381e-04 0.0 
-4.208186410381e-04 5.733583428189e-03 0.0 
0.0 0.0 0.0 
-1.123188727170e-03 1.114489726905e-04 0.0 
1.114489726905e-04 1.383070701360e-02 0.0 
0.0 0.0 0.0 
2.805537282563e-03 -4.162854539960e-06 0.0 
-4.162854539960e-06 -1.078336859515e-03 0.0 
0.0 0.0 0.0 
-1.890185772932e-03 1.317853338443e-04 0.0 
1.317853338443e-04 1.192386278400e-02 0.0 
0.0 0.0 0.0 
-2.100110466416e-03 3.022266328855e-04 0.0 
3.022266328855e-04 1.192779186935e-02 0.0 
0.0 0.0 0.0 
1.951039173668e-03 -8.502532068950e-05 0.0 
-8.502532068950e-05 -7.205149294555e-04 0.0 
0.0 0.0 0.0 
0.0 -4.349674949536e-04 0.0 
-4.349674949536e-04 5.300617682313e-03 0.0 
0.0 0.0 0.0 
2.773181607785e-04 -2.361018152833e-04 0.0 
-2.361018152833e-04 4.833054702010e-03 0.0 
0.0 0.0 0.0 
0.0 -2.465668401758e-04 0.0 
-2.465668401758e-04 4.905455978170e-03 0.0 
0.0 0.0 0.0 
2.639296980489e-03 -6.720104706974e-05 0.0 
-6.720104706974e-05 -9.664249025363e-04 0.0 
0.0 0.0 0.0 
2.473781236611e-03 -8.966717971294e-05 0.0 
-8.966717971294e-05 -9.000109377690e-04 0.0 
0.0 0.0 0.0 
0.0 1.337219625573e-04 0.0 
1.337219625573e-04 4.634391467004e-03 0.0 
0.0 0.0 0.0 
0.0 -8.676823727092e-05 0.0 
-8.676823727092e-05 4.753771431636e-03 0.0 
0.0 0.0 0.0 
-1.395873251058e-03 -2.068040069361e-05 0.0 
-2.068040069361e-05 1.339469219980e-02 0.0 
0.0 0.0 0.0 
-1.771665091639e-03 5.663494173491e-05 0.0 
5.663494173491e-05 1.190818421101e-02 0.0 
0.0 0.0 0.0 
-1.225770439323e-03 -1.635604801115e-05 0.0 
-1.635604801115e-05 1.369333005080e-02 0.0 
0.0 0.0 0.0 
-1.620093637674e-03 -2.633558967012e-05 0.0 
-2.633558967012e-05 1.271620285886e-02 0.0 
0.0 0.0 0.0 
-1.724562921332e-03 1.979454089912e-05 0.0 
1.979454089912e-05 1.189614339920e-02 0.0 
0.0 0.0 0.0 
1.689509559749e-03 -1.964518257422e-04 0.0 
-1.964518257422e-04 -5.806195056375e-04 0.0 
0.0 0.0 0.0 
8.708236780379e-04 -1.695185152692e-04 0.0 
-1.695185152692e-04 -1.794894695057e-04 0.0 
0.0 0.0 0.0 
5.602704480314e-04 -1.643595219794e-04 0.0 
-1.643595219794e-04 -4.974189305762e-05 0.0 
0.0 0.0 0.0 
1.857346438616e-04 -1.317213232509e-04 0.0 
-1.317213232509e-04 1.407362484389e-04 0.0 
0.0 0.0 0.0 
-1.237140557757e-03 -9.740986261989e-05 0.0 
-9.740986261989e-05 3.678796087311e-03 0.0 
0.0 0.0 0.0 
-1.257708403257e-03 -1.142654275973e-04 0.0 
-1.142654275973e-04 3.454001434407e-03 0.0 
0.0 0.0 0.0 
1.384046015069e-04 -1.771674955512e-04 0.0 
-1.771674955512e-04 7.348250432093e-05 0.0 
0.0 0.0 0.0 
-9.945330077598e-04 -5.641173484184e-05 0.0 
-5.641173484184e-05 4.342189205689e-03 0.0 
0.0 0.0 0.0 
-1.837743444690e-04 -1.754285314282e-04 0.0 
-1.754285314282e-04 2.172362697248e-04 0.0 
0.0 0.0 0.0 
0.0 2.341111454719e-03 0.0 
2.341111454719e-03 1.381835225169e-02 0.0 
0.0 0.0 0.0 
0.0 9.687235227769e-04 0.0 
9.687235227769e-04 1.450654394658e-02 0.0 
0.0 0.0 0.0 
0.0 1.613866087924e-03 0.0 
1.613866087924e-03 1.424808269913e-02 0.0 
0.0 0.0 0.0 
4.224850566108e-04 -1.247911511340e-04 0.0 
-1.247911511340e-04 1.086496749254e-03 0.0 
0.0 0.0 0.0 
-9.194729567835e-04 -1.316343268460e-04 0.0 
-1.316343268460e-04 2.608822172960e-03 0.0 
0.0 0.0 0.0 
0.0 7.667591548924e-04 0.0 
7.667591548924e-04 1.453620782128e-02 0.0 
0.0 0.0 0.0 
-6.259576785055e-04 -1.377041024023e-05 0.0 
-1.377041024023e-05 5.162313003013e-03 0.0 
0.0 0.0 0.0 
0.0 6.041172653719e-04 0.0 
6.041172653719e-04 1.460134998193e-02 0.0 
0.0 0.0 0.0 
-4.853338882244e-04 -1.399421198627e-06 0.0 
-1.399421198627e-06 5.457447694822e-03 0.0 
0.0 0.0 0.0 
-3.208626942137e-04 5.786073317222e-06 0.0 
5.786073317222e-06 5.744775234492e-03 0.0 
0.0 0.0 0.0 
-1.244081953823e-03 -1.416705082191e-04 0.0 
-1.416705082191e-04 3.319437659733e-03 0.0 
0.0 0.0 0.0 
-3.559000259873e-04 8.762579877332e-04 0.0 
8.762579877332e-04 1.452204442484e-02 0.0 
0.0 0.0 0.0 
-2.865109445400e-04 7.338619057743e-04 0.0 
7.338619057743e-04 1.456087454306e-02 0.0 
0.0 0.0 0.0 
-5.492689166677e-04 -1.099935194304e-04 0.0 
-1.099935194304e-04 5.275270447329e-03 0.0 
0.0 0.0 0.0 
-4.013005974028e-04 -1.093978904701e-04 0.0 
-1.093978904701e-04 5.585966261869e-03 0.0 
0.0 0.0 0.0 
-6.450022242807e-04 -6.285316784845e-04 0.0 
-6.285316784845e-04 4.188088782321e-03 0.0 
0.0 0.0 0.0 
-1.241471809369e-03 -3.624741300712e-04 0.0 
-3.624741300712e-04 6.146273537551e-04 0.0 
0.0 0.0 0.0 
-7.550398875706e-04 -1.368816461909e-03 0.0 
-1.368816461909e-03 2.557348680122e-03 0.0 
0.0 0.0 0.0 
1.554453682930e-03 -3.265832524982e-04 0.0 
-3.265832524982e-04 -2.447092606556e-04 0.0 
0.0 0.0 0.0 
2.327185529172e-04 -5.895467125166e-04 0.0 
-5.895467125166e-04 4.073315357798e-03 0.0 
0.0 0.0 0.0 
-3.716162901065e-04 -1.712643003639e-03 0.0 
-1.712643003639e-03 2.388102499709e-03 0.0 
0.0 0.0 0.0 
-2.484329576274e-04 -5.734127812659e-04 0.0 
-5.734127812659e-04 4.508148672424e-03 0.0 
0.0 0.0 0.0 
-2.890120035115e-05 -1.734150905886e-03 0.0 
-1.734150905886e-03 1.107170387920e-03 0.0 
0.0 0.0 0.0 
3.881372520500e-04 -6.213945375042e-04 0.0 
-6.213945375042e-04 5.271738272250e-04 0.0 
0.0 0.0 0.0 
-3.181815669269e-04 -4.929209393243e-04 0.0 
-4.929209393243e-04 4.868456933420e-03 0.0 
0.0 0.0 0.0 
-7.583547261700e-04 -1.313341828137e-03 0.0 
-1.313341828137e-03 2.776266789664e-03 0.0 
0.0 0.0 0.0 
-1.172748376836e-03 -3.724207815941e-04 0.0 
-3.724207815941e-04 3.066018255122e-03 0.0 
0.0 0.0 0.0 
-3.891167142068e-04 -5.782338450550e-04 0.0 
-5.782338450550e-04 4.509800286161e-03 0.0 
0.0 0.0 0.0 
-7.691521044592e-04 3.586759211301e-04 0.0 
3.586759211301e-04 1.417344542770e-02 0.0 
0.0 0.0 0.0 
-1.177525358315e-03 -1.212802363264e-04 0.0 
-1.212802363264e-04 3.070770457748e-03 0.0 
0.0 0.0 0.0 
1.765527012971e-03 -5.987455900046e-04 0.0 
-5.987455900046e-04 1.325261193720e-03 0.0 
0.0 0.0 0.0 
6.827036879293e-04 -1.403645088855e-03 0.0 
-1.403645088855e-03 2.255154018926e-03 0.0 
0.0 0.0 0.0 
-4.876598823759e-04 -6.744565451750e-04 0.0 
-6.744565451750e-04 4.194233863339e-03 0.0 
0.0 0.0 0.0 
-5.937399017510e-04 -4.904567046061e-04 0.0 
-4.904567046061e-04 4.493830414986e-03 0.0 
0.0 0.0 0.0 
4.900211602489e-03 2.084489596144e-03 0.0 
2.084489596144e-03 -3.144782526754e-03 0.0 
0.0 0.0 0.0 
-1.671387833665e-03 3.896865514399e-03 0.0 
3.896865514399e-03 8.104882514637e-03 0.0 
0.0 0.0 0.0 
2.171962254617e-03 4.039533327688e-03 0.0 
4.039533327688e-03 1.731358965341e-03 0.0 
0.0 0.0 0.0 
-1.523001138495e-04 -1.075578711891e-03 0.0 
-1.075578711891e-03 3.427733898878e-03 0.0 
0.0 0.0 0.0 
-4.618920462901e-04 -4.460573902867e-04 0.0 
-4.460573902867e-04 4.838381910720e-03 0.0 
0.0 0.0 0.0 
-6.532583740421e-04 -3.220037090485e-04 0.0 
-3.220037090485e-04 4.746289383843e-03 0.0 
0.0 0.0 0.0 
2.194638313364e-04 -2.413191907254e-03 0.0 
-2.413191907254e-03 6.818312839962e-04 0.0 
0.0 0.0 0.0 
-8.366693555223e-04 6.208609792265e-04 0.0 
6.208609792265e-04 1.413772319597e-02 0.0 
0.0 0.0 0.0 
-1.085426822899e-03 5.388169601842e-04 0.0 
5.388169601842e-04 1.390609078818e-02 0.0 
0.0 0.0 0.0 
-1.753348067110e-03 2.107569398342e-04 0.0 
2.107569398342e-04 1.245798929017e-02 0.0 
0.0 0.0 0.0 
1.113598503004e-04 -1.058240577224e-03 0.0 
-1.058240577224e-03 3.311836118235e-03 0.0 
0.0 0.0 0.0 
-3.404078769855e-04 -8.711371549076e-04 0.0 
-8.711371549076e-04 3.835350479412e-03 0.0 
0.0 0.0 0.0 
-8.661921856195e-04 3.465401700227e-04 0.0 
3.465401700227e-04 1.417879342881e-02 0.0 
0.0 0.0 0.0 
-9.560209722663e-04 4.659211892148e-04 0.0 
4.659211892148e-04 1.404937940126e-02 0.0 
0.0 0.0 0.0 
6.740479087139e-04 -1.610874487461e-03 0.0 
-1.610874487461e-03 1.666838669717e-03 0.0 
0.0 0.0 0.0 
-3.612233948861e-04 -3.924650955359e-04 0.0 
-3.924650955359e-04 5.176956465679e-03 0.0 
0.0 0.0 0.0 
-1.285866667815e-03 1.011725000848e-03 0.0 
1.011725000848e-03 1.377328054765e-02 0.0 
0.0 0.0 0.0 
-7.094033186955e-04 -2.698031376031e-04 0.0 
-2.698031376031e-04 4.746338514502e-03 0.0 
0.0 0.0 0.0 
7.766829389166e-05 -5.625939094271e-04 0.0 
-5.625939094271e-04 4.540129505891e-03 0.0 
0.0 0.0 0.0 
-9.431768157449e-04 6.118469681243e-04 0.0 
6.118469681243e-04 1.413994628544e-02 0.0 
0.0 0.0 0.0 
-1.560177596458e-03 4.768374932381e-04 0.0 
4.768374932381e-04 1.348664434417e-02 0.0 
0.0 0.0 0.0 
1.566806168662e-03 -9.503009682774e-04 0.0 
-9.503009682774e-04 1.285141705391e-03 0.0 
0.0 0.0 0.0 
-4.720704019248e-04 -8.507599620812e-04 0.0 
-8.507599620812e-04 1.859600458916e-03 0.0 
0.0 0.0 0.0 
2.906688755457e-04 -2.566566934245e-03 0.0 
-2.566566934245e-03 4.339569801906e-04 0.0 
0.0 0.0 0.0 
-4.181573814965e-05 -1.053556081808e-03 0.0 
-1.053556081808e-03 8.143329232628e-04 0.0 
0.0 0.0 0.0 
-1.249151991310e-03 -1.889504221969e-03 0.0 
-1.889504221969e-03 4.830703883167e-04 0.0 
0.0 0.0 0.0 
-1.027241284457e-03 4.448579501323e-04 0.0 
4.448579501323e-04 1.405159677508e-02 0.0 
0.0 0.0 0.0 
-4.186063840237e-04 -3.184870967660e-04 0.0 
-3.184870967660e-04 5.118056687972e-03 0.0 
0.0 0.0 0.0 
-8.198943369873e-04 -1.158573409945e-03 0.0 
-1.158573409945e-03 5.919704582311e-04 0.0 
0.0 0.0 0.0 
-1.280123985000e-03 3.371062032564e-03 0.0 
3.371062032564e-03 1.176395960570e-02 0.0 
0.0 0.0 0.0 
-1.760361021574e-03 2.857576985772e-04 0.0 
2.857576985772e-04 1.264181544178e-02 0.0 
0.0 0.0 0.0 
-2.806865767596e-04 -7.267197429435e-04 0.0 
-7.267197429435e-04 4.128567243606e-03 0.0 
0.0 0.0 0.0 
-5.004635381597e-04 -3.962797720924e-04 0.0 
-3.962797720924e-04 4.797704629708e-03 0.0 
0.0 0.0 0.0 
1.657303798236e-03 -2.623854198974e-03 0.0 
-2.623854198974e-03 -4.339877619729e-04 0.0 
0.0 0.0 0.0 
-6.067439949097e-04 -3.806277025200e-04 0.0 
-3.806277025200e-04 4.796003323334e-03 0.0 
0.0 0.0 0.0 
-1.839207542231e-03 1.643999488794e-04 0.0 
1.643999488794e-04 1.245697062680e-02 0.0 
0.0 0.0 0.0 
3.120246595179e-03 2.082005915576e-03 0.0 
2.082005915576e-03 8.093744415398e-04 0.0 
0.0 0.0 0.0 
1.994370344827e-05 -4.615788419016e-04 0.0 
-4.615788419016e-04 4.950603370113e-03 0.0 
0.0 0.0 0.0 
-4.159542854395e-04 -4.789325834262e-04 0.0 
-4.789325834262e-04 1.886668421789e-03 0.0 
0.0 0.0 0.0 
3.527473635130e-04 -5.013185598198e-04 0.0 
-5.013185598198e-04 4.133527758041e-03 0.0 
0.0 0.0 0.0 
-1.410601148951e-03 4.320725494266e-04 0.0 
4.320725494266e-04 1.364722278777e-02 0.0 
0.0 0.0 0.0 
-6.208763351241e-04 -7.108443350531e-04 0.0 
-7.108443350531e-04 2.114604684395e-03 0.0 
0.0 0.0 0.0 
5.352422415092e-04 -2.663938706734e-03 0.0 
-2.663938706734e-03 2.283678851429e-04 0.0 
0.0 0.0 0.0 
-1.016956623233e-03 -6.634767021821e-04 0.0 
-6.634767021821e-04 3.722034256856e-03 0.0 
0.0 0.0 0.0 
-1.684784296400e-03 5.352062947114e-04 0.0 
5.352062947114e-04 1.313927989115e-02 0.0 
0.0 0.0 0.0 
-4.155241312682e-04 -1.815896507050e-03 0.0 
-1.815896507050e-03 2.022708265600e-03 0.0 
0.0 0.0 0.0 
-1.259464404748e-03 3.767612048091e-04 0.0 
3.767612048091e-04 1.380467194696e-02 0.0 
0.0 0.0 0.0 
-1.573414625374e-03 3.399474578848e-04 0.0 
3.399474578848e-04 1.334902147934e-02 0.0 
0.0 0.0 0.0 
-5.502058267013e-04 -1.346655488039e-03 0.0 
-1.346655488039e-03 3.028425640263e-03 0.0 
0.0 0.0 0.0 
-7.034737556647e-04 -4.408772217032e-04 0.0 
-4.408772217032e-04 4.490438407841e-03 0.0 
0.0 0.0 0.0 
-5.517014760630e-04 -5.357041924867e-04 0.0 
-5.357041924867e-04 4.499638989176e-03 0.0 
0.0 0.0 0.0 
-1.294427154994e-03 4.520586957701e-04 0.0 
4.520586957701e-04 1.364379517063e-02 0.0 
0.0 0.0 0.0 
-3.305204270743e-05 -8.243292353970e-04 0.0 
-8.243292353970e-04 1.326729429127e-03 0.0 
0.0 0.0 0.0 
-7.862768577017e-04 -1.201661639612e-03 0.0 
-1.201661639612e-03 3.160563407187e-03 0.0 
0.0 0.0 0.0 
1.877715159066e-03 3.045527185855e-03 0.0 
3.045527185855e-03 3.251870753909e-03 0.0 
0.0 0.0 0.0 
-1.372220393970e-03 5.848256903211e-04 0.0 
5.848256903211e-04 1.376045681958e-02 0.0 
0.0 0.0 0.0 
-8.257318108240e-04 -1.282959922161e-03 0.0 
-1.282959922161e-03 2.942213652688e-03 0.0 
0.0 0.0 0.0 
3.550747974721e-04 -1.437426116550e-03 0.0 
-1.437426116550e-03 2.262678729472e-03 0.0 
0.0 0.0 0.0 
5.659303327863e-04 -4.762471789389e-04 0.0 
-4.762471789389e-04 3.658756205072e-03 0.0 
0.0 0.0 0.0 
-1.431715021537e-03 4.938451633569e-04 0.0 
4.938451633569e-04 1.348422436177e-02 0.0 
0.0 0.0 0.0 
1.736589322444e-03 -8.210730111239e-04 0.0 
-8.210730111239e-04 -4.527161241331e-03 0.0 
0.0 0.0 0.0 
3.178597811420e-04 -7.195595864937e-04 0.0 
-7.195595864937e-04 6.550974806190e-04 0.0 
0.0 0.0 0.0 
3.776732112852e-03 3.172807090555e-04 0.0 
3.172807090555e-04 -4.049102872806e-03 0.0 
0.0 0.0 0.0 
-3.582172790291e-04 -4.445873061973e-04 0.0 
-4.445873061973e-04 4.837568961417e-03 0.0 
0.0 0.0 0.0 
-1.561504697817e-03 5.209809649617e-04 0.0 
5.209809649617e-04 1.331602069046e-02 0.0 
0.0 0.0 0.0 
-1.041269446101e-03 -4.536753388725e-04 0.0 
-4.536753388725e-04 3.929504881450e-03 0.0 
0.0 0.0 0.0 
-1.783180596516e-03 3.996860634845e-04 0.0 
3.996860634845e-04 1.281104646545e-02 0.0 
0.0 0.0 0.0 
1.545234553954e-03 3.916732269388e-05 0.0 
3.916732269388e-05 2.230278799401e-03 0.0 
0.0 0.0 0.0 
-7.218644317399e-04 -1.087938529269e-03 0.0 
-1.087938529269e-03 3.392107574419e-03 0.0 
0.0 0.0 0.0 
-4.121008073236e-04 -5.522605297070e-04 0.0 
-5.522605297070e-04 4.501356071875e-03 0.0 
0.0 0.0 0.0 
-3.079833732053e-04 -5.844469047779e-04 0.0 
-5.844469047779e-04 1.815421455702e-03 0.0 
0.0 0.0 0.0 
1.693703349617e-04 -4.979976224476e-04 0.0 
-4.979976224476e-04 4.542773307258e-03 0.0 
0.0 0.0 0.0 
-7.304624839076e-04 -1.223777562183e-03 0.0 
-1.223777562183e-03 3.010187518647e-03 0.0 
0.0 0.0 0.0 
-4.805541885948e-04 -4.385208637130e-04 0.0 
-4.385208637130e-04 2.071413922130e-03 0.0 
0.0 0.0 0.0 
-9.190484422712e-04 -1.044487362381e-03 0.0 
-1.044487362381e-03 3.135766527993e-03 0.0 
0.0 0.0 0.0 
-6.390072158023e-04 -1.582234549265e-03 0.0 
-1.582234549265e-03 2.384274287117e-03 0.0 
0.0 0.0 0.0 
-2.250581859173e-04 -1.754077107014e-03 0.0 
-1.754077107014e-03 1.482055514125e-03 0.0 
0.0 0.0 0.0 
-9.310925878313e-04 -5.785137379357e-04 0.0 
-5.785137379357e-04 3.952620042335e-03 0.0 
0.0 0.0 0.0 
1.019392806806e-03 -1.427676173771e-04 0.0 
-1.427676173771e-04 -3.009324473697e-04 0.0 
0.0 0.0 0.0 
5.968805829004e-04 -2.025448733195e-04 0.0 
-2.025448733195e-04 -1.263106578814e-04 0.0 
0.0 0.0 0.0 
-5.311639035711e-04 -8.308788264728e-04 0.0 
-8.308788264728e-04 3.830292381109e-03 0.0 
0.0 0.0 0.0 
-1.275927168606e-04 -6.970879665655e-04 0.0 
-6.970879665655e-04 1.565373920250e-03 0.0 
0.0 0.0 0.0 
-1.424752058414e-04 -1.058452230184e-03 0.0 
-1.058452230184e-03 3.313365985749e-03 0.0 
0.0 0.0 0.0 
8.280167831920e-05 -1.249718823676e-03 0.0 
-1.249718823676e-03 2.813302425161e-03 0.0 
0.0 0.0 0.0 
2.226485120556e-04 -2.173136929390e-03 0.0 
-2.173136929390e-03 1.475668486523e-03 0.0 
0.0 0.0 0.0 
1.838467123943e-03 -2.973291673438e-03 0.0 
-2.973291673438e-03 -8.998737586500e-04 0.0 
0.0 0.0 0.0 
-1.266809123106e-03 9.547335003424e-04 0.0 
9.547335003424e-04 1.392504791073e-02 0.0 
0.0 0.0 0.0 
1.604793122111e-03 3.328053926235e-03 0.0 
3.328053926235e-03 -3.051996246712e-03 0.0 
0.0 0.0 0.0 
-8.287208942250e-04 -1.331753848947e-03 0.0 
-1.331753848947e-03 2.702724712434e-03 0.0 
0.0 0.0 0.0 
1.486628704244e-03 4.361704561449e-04 0.0 
4.361704561449e-04 2.474314482815e-03 0.0 
0.0 0.0 0.0 
-1.261521110970e-04 -6.697718564252e-04 0.0 
-6.697718564252e-04 1.431769266575e-03 0.0 
0.0 0.0 0.0 
-1.819018790430e-03 3.875199436251e-04 0.0 
3.875199436251e-04 1.300072108945e-02 0.0 
0.0 0.0 0.0 
-1.894098446843e-03 2.609786008158e-04 0.0 
2.609786008158e-04 1.264572694517e-02 0.0 
0.0 0.0 0.0 
-1.815215663048e-05 -1.425058163980e-03 0.0 
-1.425058163980e-03 1.023247398260e-03 0.0 
0.0 0.0 0.0 
8.387452924712e-04 -4.274752425016e-04 0.0 
-4.274752425016e-04 3.119313722731e-03 0.0 
0.0 0.0 0.0 
-1.692428331876e-03 8.600765842673e-04 0.0 
8.600765842673e-04 1.353419337942e-02 0.0 
0.0 0.0 0.0 
-3.514209930722e-04 -9.716478372043e-04 0.0 
-9.716478372043e-04 1.622825112790e-03 0.0 
0.0 0.0 0.0 
-1.201316627477e-03 1.167115044964e-03 0.0 
1.167115044964e-03 1.397597841562e-02 0.0 
0.0 0.0 0.0 
-1.007981615491e-03 1.167004281180e-03 0.0 
1.167004281180e-03 1.397481844936e-02 0.0 
0.0 0.0 0.0 
-2.816809698002e-04 -1.050312266446e-03 0.0 
-1.050312266446e-03 1.646860660967e-03 0.0 
0.0 0.0 0.0 
5.758559213920e-06 4.138967430134e-03 0.0 
4.138967430134e-03 3.535412603299e-03 0.0 
0.0 0.0 0.0 
-1.544935014787e-04 -1.581086264236e-03 0.0 
-1.581086264236e-03 1.346164892815e-03 0.0 
0.0 0.0 0.0 
-4.547241331554e-04 -7.004429989015e-04 0.0 
-7.004429989015e-04 4.159268784952e-03 0.0 
0.0 0.0 0.0 
-8.472673679790e-04 -8.281843184018e-04 0.0 
-8.281843184018e-04 3.696866603242e-03 0.0 
0.0 0.0 0.0 
-1.168176606955e-03 2.892367109802e-03 0.0 
2.892367109802e-03 1.252235195812e-02 0.0 
0.0 0.0 0.0 
-1.100797494807e-03 9.505185427388e-04 0.0 
9.505185427388e-04 1.392497076113e-02 0.0 
0.0 0.0 0.0 
-3.213294954771e-04 -8.735616473319e-04 0.0 
-8.735616473319e-04 3.762365576575e-03 0.0 
0.0 0.0 0.0 
-1.145676053471e-04 -8.843539262851e-04 0.0 
-8.843539262851e-04 3.762806300887e-03 0.0 
0.0 0.0 0.0 
-2.503204760800e-04 -1.528992040574e-03 0.0 
-1.528992040574e-03 1.208683345258e-03 0.0 
0.0 0.0 0.0 
-2.959605342701e-04 -7.186298089435e-04 0.0 
-7.186298089435e-04 4.161122628008e-03 0.0 
0.0 0.0 0.0 
-1.508400141904e-03 8.525049205620e-04 0.0 
8.525049205620e-04 1.353445020804e-02 0.0 
0.0 0.0 0.0 
-9.707471714668e-04 -7.007488897149e-04 0.0 
-7.007488897149e-04 3.677866181598e-03 0.0 
0.0 0.0 0.0 
-1.703841017390e-03 5.092653524713e-04 0.0 
5.092653524713e-04 1.331786576115e-02 0.0 
0.0 0.0 0.0 
-1.512242435243e-03 8.152681533351e-04 0.0 
8.152681533351e-04 1.369827925656e-02 0.0 
0.0 0.0 0.0 
4.547568619595e-03 2.529219756848e-03 0.0 
2.529219756848e-03 -2.123054106712e-03 0.0 
0.0 0.0 0.0 
-1.174304795574e-03 7.660323252269e-04 0.0 
7.660323252269e-04 1.385413599724e-02 0.0 
0.0 0.0 0.0 
-9.765905702945e-04 -1.023802458924e-03 0.0 
-1.023802458924e-03 3.250739706679e-03 0.0 
0.0 0.0 0.0 
-8.745640898390e-04 -9.582402304957e-04 0.0 
-9.582402304957e-04 3.372659126988e-03 0.0 
0.0 0.0 0.0 
-8.037366373819e-04 -1.336501525733e-03 0.0 
-1.336501525733e-03 2.501396944101e-03 0.0 
0.0 0.0 0.0 
6.258009413436e-04 -2.488329785161e-03 0.0 
-2.488329785161e-03 5.165164299865e-04 0.0 
0.0 0.0 0.0 
-1.538442012539e-03 6.738359092714e-04 0.0 
6.738359092714e-04 1.343582340607e-02 0.0 
0.0 0.0 0.0 
1.522180520824e-03 -2.049696022673e-03 0.0 
-2.049696022673e-03 1.439832100170e-05 0.0 
0.0 0.0 0.0 
-3.103775914474e-04 -1.405526821061e-03 0.0 
-1.405526821061e-03 1.620290269198e-03 0.0 
0.0 0.0 0.0 
3.864740019366e-05 -1.035633062224e-03 0.0 
-1.035633062224e-03 8.891529940633e-04 0.0 
0.0 0.0 0.0 
-1.702659165233e-03 6.726024003466e-04 0.0 
6.726024003466e-04 1.343652656097e-02 0.0 
0.0 0.0 0.0 
-3.770458741285e-04 -1.636913727885e-03 0.0 
-1.636913727885e-03 1.656537398357e-03 0.0 
0.0 0.0 0.0 
4.632825831612e-04 -3.995913938483e-04 0.0 
-3.995913938483e-04 4.123057521285e-03 0.0 
0.0 0.0 0.0 
-1.390811613666e-03 6.432482675616e-04 0.0 
6.432482675616e-04 1.360131752147e-02 0.0 
0.0 0.0 0.0 
-8.504780410201e-05 -7.141634089263e-04 0.0 
-7.141634089263e-04 4.125535234615e-03 0.0 
0.0 0.0 0.0 
6.463939468464e-04 1.439922615126e-03 0.0 
1.439922615126e-03 3.737559887668e-03 0.0 
0.0 0.0 0.0 
-9.249654623489e-04 -1.103055960267e-03 0.0 
-1.103055960267e-03 2.905593577329e-03 0.0 
0.0 0.0 0.0 
-4.282562950707e-04 -1.297996687745e-03 0.0 
-1.297996687745e-03 1.685961514455e-03 0.0 
0.0 0.0 0.0 
-2.397817771204e-04 -1.192708232629e-03 0.0 
-1.192708232629e-03 1.021371265298e-03 0.0 
0.0 0.0 0.0 
1.112398226073e-04 -1.031674528213e-03 0.0 
-1.031674528213e-03 3.201499697853e-03 0.0 
0.0 0.0 0.0 
-1.583019242491e-03 3.950906645133e-04 0.0 
3.950906645133e-04 1.318014126508e-02 0.0 
0.0 0.0 0.0 
-4.683290235497e-05 -8.999464519067e-04 0.0 
-8.999464519067e-04 7.045740588634e-04 0.0 
0.0 0.0 0.0 
-5.078020608453e-04 -1.620183098934e-03 0.0 
-1.620183098934e-03 1.993194310353e-03 0.0 
0.0 0.0 0.0 
-5.782338947580e-05 -3.141422075760e-04 0.0 
-3.141422075760e-04 1.606981387262e-03 0.0 
0.0 0.0 0.0 
-1.840169412804e-03 5.314949817408e-04 0.0 
5.314949817408e-04 1.314022998730e-02 0.0 
0.0 0.0 0.0 
-7.233085293279e-04 -1.380560371740e-03 0.0 
-1.380560371740e-03 2.353907855824e-03 0.0 
0.0 0.0 0.0 
3.765295855942e-04 -1.235422171027e-03 0.0 
-1.235422171027e-03 2.809195071349e-03 0.0 
0.0 0.0 0.0 
-8.296031087407e-04 -1.088914811118e-03 0.0 
-1.088914811118e-03 2.475635251103e-03 0.0 
0.0 0.0 0.0 
-1.200155564345e-03 5.236265757955e-04 0.0 
5.236265757955e-04 1.390855991524e-02 0.0 
0.0 0.0 0.0 
-4.097812323202e-04 -1.762821390125e-03 0.0 
-1.762821390125e-03 1.849664917394e-03 0.0 
0.0 0.0 0.0 
6.084656261980e-04 -1.058245989167e-03 0.0 
-1.058245989167e-03 2.571414328735e-03 0.0 
0.0 0.0 0.0 
2.568917305099e-04 -2.484744665710e-03 0.0 
-2.484744665710e-03 4.213476656376e-04 0.0 
0.0 0.0 0.0 
3.632760562426e-04 -1.188243503419e-03 0.0 
-1.188243503419e-03 2.669989025778e-03 0.0 
0.0 0.0 0.0 
-1.039629042577e-03 -7.709340900972e-04 0.0 
-7.709340900972e-04 3.448756081402e-03 0.0 
0.0 0.0 0.0 
1.254732235973e-04 -8.565152638804e-04 0.0 
-8.565152638804e-04 3.684087226967e-03 0.0 
0.0 0.0 0.0 
4.861791430831e-03 -2.910812041885e-04 0.0 
-2.910812041885e-04 -3.570213096993e-03 0.0 
0.0 0.0 0.0 
-2.718967222506e-04 -5.909195796307e-04 0.0 
-5.909195796307e-04 1.680248962383e-03 0.0 
0.0 0.0 0.0 
-1.799457831141e-03 2.689477318909e-04 0.0 
2.689477318909e-04 1.284696031078e-02 0.0 
0.0 0.0 0.0 
3.003885441706e-03 -2.229188475417e-04 0.0 
-2.229188475417e-04 -4.232377908094e-04 0.0 
0.0 0.0 0.0 
7.369772626706e-04 4.424805714841e-03 0.0 
4.424805714841e-03 3.422300722148e-03 0.0 
0.0 0.0 0.0 
-1.700840319107e-03 3.706284963345e-04 0.0 
3.706284963345e-04 1.318097265532e-02 0.0 
0.0 0.0 0.0 
6.933462124838e-04 -2.845406696876e-03 0.0 
-2.845406696876e-03 -1.612519327837e-04 0.0 
0.0 0.0 0.0 
-1.817173079578e-03 8.993904560505e-04 0.0 
8.993904560505e-04 1.317288582455e-02 0.0 
0.0 0.0 0.0 
1.024426274061e-04 -4.332084738494e-04 0.0 
-4.332084738494e-04 1.334321516411e-03 0.0 
0.0 0.0 0.0 
4.532692953763e-04 -6.305966185971e-04 0.0 
-6.305966185971e-04 3.609445054129e-03 0.0 
0.0 0.0 0.0 
3.030823588255e-03 3.466070082860e-04 0.0 
3.466070082860e-04 -4.807116853744e-05 0.0 
0.0 0.0 0.0 
2.738766663554e-03 2.484235631122e-03 0.0 
2.484235631122e-03 1.651986348374e-03 0.0 
0.0 0.0 0.0 
-9.690244010787e-04 1.090340386760e-03 0.0 
1.090340386760e-03 1.412358921065e-02 0.0 
0.0 0.0 0.0 
1.463554310320e-03 -1.832677516504e-03 0.0 
-1.832677516504e-03 3.662151455772e-04 0.0 
0.0 0.0 0.0 
-2.604065517139e-04 -1.069154947058e-03 0.0 
-1.069154947058e-03 1.382825146815e-03 0.0 
0.0 0.0 0.0 
1.001049621386e-03 -1.474392719273e-03 0.0 
-1.474392719273e-03 1.469473144557e-03 0.0 
0.0 0.0 0.0 
7.001897347516e-04 -3.586366172811e-04 0.0 
-3.586366172811e-04 3.639737012727e-03 0.0 
0.0 0.0 0.0 
1.605130000467e-03 -2.856291510492e-03 0.0 
-2.856291510492e-03 -1.000206090701e-03 0.0 
0.0 0.0 0.0 
-1.041470046360e-04 -8.773888941853e-04 0.0 
-8.773888941853e-04 3.688602473224e-03 0.0 
0.0 0.0 0.0 
-1.540231846887e-03 6.336875421966e-04 0.0 
6.336875421966e-04 1.360294550179e-02 0.0 
0.0 0.0 0.0 
2.301892137165e-03 -3.020531848161e-03 0.0 
-3.020531848161e-03 -1.493154787269e-03 0.0 
0.0 0.0 0.0 
6.581794822620e-04 -1.339066680387e-03 0.0 
-1.339066680387e-03 2.092393958792e-03 0.0 
0.0 0.0 0.0 
-2.075097007304e-03 5.527944295699e-04 0.0 
5.527944295699e-04 1.275610700826e-02 0.0 
0.0 0.0 0.0 
-6.291184631554e-04 -7.216490683231e-04 0.0 
-7.216490683231e-04 2.195614977593e-03 0.0 
0.0 0.0 0.0 
-2.734506109701e-04 -1.850132819576e-03 0.0 
-1.850132819576e-03 1.619533220259e-03 0.0 
0.0 0.0 0.0 
1.161393760745e-03 4.371230540756e-03 0.0 
4.371230540756e-03 3.713807391174e-03 0.0 
0.0 0.0 0.0 
3.750784325958e-04 -1.000226769675e-03 0.0 
-1.000226769675e-03 3.195098732586e-03 0.0 
0.0 0.0 0.0 
-3.255467571008e-04 4.355056777328e-03 0.0 
4.355056777328e-03 5.281614853477e-03 0.0 
0.0 0.0 0.0 
1.643000569685e-03 4.221815337338e-03 0.0 
4.221815337338e-03 2.699148015319e-03 0.0 
0.0 0.0 0.0 
-1.667004996959e-03 8.786616611583e-04 0.0 
8.786616611583e-04 1.335917039158e-02 0.0 
0.0 0.0 0.0 
-1.684953702661e-03 4.042977199079e-04 0.0 
4.042977199079e-04 1.299832294559e-02 0.0 
0.0 0.0 0.0 
-1.936214246739e-03 7.035136588428e-04 0.0 
7.035136588428e-04 1.288858714757e-02 0.0 
0.0 0.0 0.0 
-9.216492119455e-04 -9.354705600143e-04 0.0 
-9.354705600143e-04 3.483311566217e-03 0.0 
0.0 0.0 0.0 
1.156948564780e-03 -3.836162579972e-04 0.0 
-3.836162579972e-04 2.582901137255e-03 0.0 
0.0 0.0 0.0 
1.392459684362e-03 -1.575194352606e-03 0.0 
-1.575194352606e-03 8.099541800624e-04 0.0 
0.0 0.0 0.0 
-1.933397555282e-03 3.955405592010e-04 0.0 
3.955405592010e-04 1.281201165681e-02 0.0 
0.0 0.0 0.0 
-1.035236261445e-03 3.665740958989e-03 0.0 
3.665740958989e-03 1.138604864165e-02 0.0 
0.0 0.0 0.0 
2.330339860688e-03 2.819096779589e-03 0.0 
2.819096779589e-03 2.513581551372e-03 0.0 
0.0 0.0 0.0 
6.656513450818e-04 -1.139267421568e-03 0.0 
-1.139267421568e-03 2.660655257155e-03 0.0 
0.0 0.0 0.0 
-1.343336040485e-03 8.145009244141e-04 0.0 
8.145009244141e-04 1.369779137921e-02 0.0 
0.0 0.0 0.0 
2.917636226338e-04 -2.288233002856e-03 0.0 
-2.288233002856e-03 9.939412073379e-04 0.0 
0.0 0.0 0.0 
-2.812375067185e-05 -2.105400363635e-03 0.0 
-2.105400363635e-03 1.340914235717e-03 0.0 
0.0 0.0 0.0 
-3.125161214557e-05 -1.315191030727e-03 0.0 
-1.315191030727e-03 1.174503835629e-03 0.0 
0.0 0.0 0.0 
1.304598895093e-03 -1.252642086433e-03 0.0 
-1.252642086433e-03 1.335164567268e-03 0.0 
0.0 0.0 0.0 
-3.019747838363e-04 -1.871350763511e-03 0.0 
-1.871350763511e-03 1.760735801076e-03 0.0 
0.0 0.0 0.0 
-1.858083793188e-03 7.011908253150e-04 0.0 
7.011908253150e-04 1.326162933379e-02 0.0 
0.0 0.0 0.0 
-2.005501233883e-03 7.245182560060e-04 0.0 
7.245182560060e-04 1.307735461187e-02 0.0 
0.0 0.0 0.0 
4.772004097032e-03 1.395524639515e-03 0.0 
1.395524639515e-03 -2.314077404455e-03 0.0 
0.0 0.0 0.0 
8.431435605827e-05 -2.217071392706e-03 0.0 
-2.217071392706e-03 1.260584381616e-03 0.0 
0.0 0.0 0.0 
4.714998675188e-03 2.178200907017e-03 0.0 
2.178200907017e-03 -3.307258524690e-03 0.0 
0.0 0.0 0.0 
-1.712676963895e-04 -2.028990527392e-03 0.0 
-2.028990527392e-03 1.646630663695e-03 0.0 
0.0 0.0 0.0 
1.571142149881e-04 -2.235202488813e-03 0.0 
-2.235202488813e-03 1.359833059653e-03 0.0 
0.0 0.0 0.0 
-3.162248076739e-04 -1.434303140174e-03 0.0 
-1.434303140174e-03 1.439895954441e-03 0.0 
0.0 0.0 0.0 
1.507644554546e-03 -3.110691269726e-04 0.0 
-3.110691269726e-04 2.023824531253e-03 0.0 
0.0 0.0 0.0 
1.499288973346e-03 -2.302148178786e-03 0.0 
-2.302148178786e-03 1.632117232151e-04 0.0 
0.0 0.0 0.0 
-1.325600151185e-03 7.572378440004e-04 0.0 
7.572378440004e-04 1.385569221100e-02 0.0 
0.0 0.0 0.0 
1.964010121152e-03 -2.117907960576e-03 0.0 
-2.117907960576e-03 -2.493108275025e-04 0.0 
0.0 0.0 0.0 
1.383905844825e-03 -1.362838544249e-03 0.0 
-1.362838544249e-03 1.450228262123e-03 0.0 
0.0 0.0 0.0 
1.452568865495e-03 -1.887174438784e-03 0.0 
-1.887174438784e-03 6.403461386120e-04 0.0 
0.0 0.0 0.0 
2.798523535100e-03 3.808656184152e-03 0.0 
3.808656184152e-03 9.363686086921e-04 0.0 
0.0 0.0 0.0 
-1.485503601069e-04 -1.192619656950e-03 0.0 
-1.192619656950e-03 1.398834788376e-03 0.0 
0.0 0.0 0.0 
1.018419767981e-03 -3.096271230304e-04 0.0 
-3.096271230304e-04 3.096008326799e-03 0.0 
0.0 0.0 0.0 
8.906867964851e-04 -2.131386651923e-04 0.0 
-2.131386651923e-04 3.305903610179e-03 0.0 
0.0 0.0 0.0 
5.790859514032e-04 4.306991966832e-03 0.0 
4.306991966832e-03 5.366183932599e-03 0.0 
0.0 0.0 0.0 
5.635248051781e-04 -2.365006290602e-03 0.0 
-2.365006290602e-03 1.004171375989e-03 0.0 
0.0 0.0 0.0 
1.415249670876e-03 -1.647504267144e-03 0.0 
-1.647504267144e-03 1.012163545498e-03 0.0 
0.0 0.0 0.0 
-1.679680629540e-03 6.936378966589e-04 0.0 
6.936378966589e-04 1.326190549922e-02 0.0 
0.0 0.0 0.0 
-2.155354259992e-05 -2.064737033641e-03 0.0 
-2.064737033641e-03 1.460489946414e-03 0.0 
0.0 0.0 0.0 
1.365377088423e-03 4.249838306936e-03 0.0 
4.249838306936e-03 2.496982106982e-03 0.0 
0.0 0.0 0.0 
-4.320232263901e-04 -1.547661878331e-03 0.0 
-1.547661878331e-03 1.816581882297e-03 0.0 
0.0 0.0 0.0 
1.310671571987e-03 -3.043848519295e-03 0.0 
-3.043848519295e-03 -8.858514560212e-04 0.0 
0.0 0.0 0.0 
6.769954066859e-04 -2.383805853352e-03 0.0 
-2.383805853352e-03 5.906835034009e-04 0.0 
0.0 0.0 0.0 
-5.455773415814e-04 -1.462281423621e-03 0.0 
-1.462281423621e-03 1.955379468691e-03 0.0 
0.0 0.0 0.0 
-4.499448591817e-04 -8.885336587314e-04 0.0 
-8.885336587314e-04 1.920911368300e-03 0.0 
0.0 0.0 0.0 
1.081551612330e-03 -1.978145800902e-03 0.0 
-1.978145800902e-03 6.564704595391e-04 0.0 
0.0 0.0 0.0 
1.006835382840e-03 -1.261985752262e-03 0.0 
-1.261985752262e-03 2.078528994228e-03 0.0 
0.0 0.0 0.0 
2.724550024908e-04 4.131672939809e-03 0.0 
4.131672939809e-03 7.135555555203e-03 0.0 
0.0 0.0 0.0 
1.248138607131e-03 -1.981362228109e-04 0.0 
-1.981362228109e-04 -3.856833284889e-04 0.0 
0.0 0.0 0.0 
3.396670415117e-03 -1.558469236922e-03 0.0 
-1.558469236922e-03 -1.702405031143e-03 0.0 
0.0 0.0 0.0 
2.405168544743e-03 -2.056154763088e-03 0.0 
-2.056154763088e-03 -7.983823581937e-04 0.0 
0.0 0.0 0.0 
1.026962800417e-03 -2.389594211029e-03 0.0 
-2.389594211029e-03 5.896959987257e-04 0.0 
0.0 0.0 0.0 
-1.812678073902e-03 7.020107279250e-04 0.0 
7.020107279250e-04 1.307930159713e-02 0.0 
0.0 0.0 0.0 
1.494033879294e-03 -2.101000773879e-03 0.0 
-2.101000773879e-03 3.519201718831e-04 0.0 
0.0 0.0 0.0 
-6.139259717548e-04 -1.554781870030e-03 0.0 
-1.554781870030e-03 2.182844382412e-03 0.0 
0.0 0.0 0.0 
1.101924592040e-03 -2.372113800965e-03 0.0 
-2.372113800965e-03 1.762688367342e-04 0.0 
0.0 0.0 0.0 
-1.238634101359e-03 5.996734445014e-04 0.0 
5.996734445014e-04 1.375828536999e-02 0.0 
0.0 0.0 0.0 
-6.338570232876e-04 -1.334368887194e-03 0.0 
-1.334368887194e-03 2.148765562295e-03 0.0 
0.0 0.0 0.0 
1.659537504040e-05 -8.767368764879e-04 0.0 
-8.767368764879e-04 8.347567212219e-04 0.0 
0.0 0.0 0.0 
-2.108125003599e-04 -1.130179303648e-03 0.0 
-1.130179303648e-03 1.167873984109e-03 0.0 
0.0 0.0 0.0 
1.399804339691e-03 -2.793344093632e-03 0.0 
-2.793344093632e-03 -3.450888547436e-04 0.0 
0.0 0.0 0.0 
4.706429724877e-04 -2.412142841293e-03 0.0 
-2.412142841293e-03 9.240165831299e-04 0.0 
0.0 0.0 0.0 
2.844872713111e-03 -1.696367737559e-03 0.0 
-1.696367737559e-03 -1.157285454054e-03 0.0 
0.0 0.0 0.0 
1.544578159564e-03 -2.260666624341e-03 0.0 
-2.260666624341e-03 -2.230899351344e-04 0.0 
0.0 0.0 0.0 
3.295628116731e-04 -2.637453470659e-03 0.0 
-2.637453470659e-03 1.452794152224e-04 0.0 
0.0 0.0 0.0 
9.229167128511e-05 -8.832237279912e-04 0.0 
-8.832237279912e-04 1.129962169683e-03 0.0 
0.0 0.0 0.0 
-2.339833857765e-03 9.905048052592e-04 0.0 
9.905048052592e-04 1.275672815044e-02 0.0 
0.0 0.0 0.0 
-4.926557235581e-04 -1.223442960348e-03 0.0 
-1.223442960348e-03 1.918681067086e-03 0.0 
0.0 0.0 0.0 
1.685010266457e-03 -4.631812807102e-04 0.0 
-4.631812807102e-04 1.895128363699e-03 0.0 
0.0 0.0 0.0 
5.852002915694e-04 4.103209190755e-03 0.0 
4.103209190755e-03 6.198854821242e-03 0.0 
0.0 0.0 0.0 
-2.376293847187e-03 2.787814128811e-03 0.0 
2.787814128811e-03 1.138993931023e-02 0.0 
0.0 0.0 0.0 
-1.333458254393e-03 1.532283314849e-03 0.0 
1.532283314849e-03 1.363997731984e-02 0.0 
0.0 0.0 0.0 
3.801376859092e-05 4.140670476053e-03 0.0 
4.140670476053e-03 8.008291661318e-03 0.0 
0.0 0.0 0.0 
4.696270558283e-03 2.014986692663e-03 0.0 
2.014986692663e-03 -2.046874996071e-03 0.0 
0.0 0.0 0.0 
6.028034045071e-04 4.174704476713e-03 0.0 
4.174704476713e-03 5.764017276534e-03 0.0 
0.0 0.0 0.0 
9.081178208237e-04 -3.131024675551e-03 0.0 
-3.131024675551e-03 -6.219510725223e-04 0.0 
0.0 0.0 0.0 
7.028859963221e-04 -2.224177550191e-03 0.0 
-2.224177550191e-03 7.391826327203e-04 0.0 
0.0 0.0 0.0 
3.642869345076e-03 3.564254068087e-03 0.0 
3.564254068087e-03 -1.060402063454e-03 0.0 
0.0 0.0 0.0 
3.587689503232e-03 -2.250350315298e-03 0.0 
-2.250350315298e-03 -2.943358456893e-03 0.0 
0.0 0.0 0.0 
3.588281663063e-04 -2.950226182070e-03 0.0 
-2.950226182070e-03 -1.845997003402e-04 0.0 
0.0 0.0 0.0 
-1.309302749555e-04 -2.028907911191e-03 0.0 
-2.028907911191e-03 1.783811339401e-03 0.0 
0.0 0.0 0.0 
1.973913780904e-03 -2.282058059541e-03 0.0 
-2.282058059541e-03 -7.562308188727e-04 0.0 
0.0 0.0 0.0 
2.419833862180e-03 -1.999914793683e-03 0.0 
-1.999914793683e-03 -1.105980075302e-03 0.0 
0.0 0.0 0.0 
-7.159822084656e-04 -1.273369257164e-03 0.0 
-1.273369257164e-03 2.249709368207e-03 0.0 
0.0 0.0 0.0 
1.923316390911e-03 -1.904581809173e-03 0.0 
-1.904581809173e-03 -1.013287653728e-05 0.0 
0.0 0.0 0.0 
2.850576452452e-03 -1.857496678785e-03 0.0 
-1.857496678785e-03 -1.646604090695e-03 0.0 
0.0 0.0 0.0 
3.883485303588e-03 -1.065782198240e-03 0.0 
-1.065782198240e-03 -2.055607030766e-03 0.0 
0.0 0.0 0.0 
2.553583553293e-04 -2.317993439058e-03 0.0 
-2.317993439058e-03 9.112100716908e-04 0.0 
0.0 0.0 0.0 
3.220052956711e-03 1.213460541582e-03 0.0 
1.213460541582e-03 1.819735884936e-04 0.0 
0.0 0.0 0.0 
-1.864708566345e-03 9.000675455768e-04 0.0 
9.000675455768e-04 1.335735754652e-02 0.0 
0.0 0.0 0.0 
4.475846852961e-03 -6.605986645334e-04 0.0 
-6.605986645334e-04 -2.711620795552e-03 0.0 
0.0 0.0 0.0 
1.380087418282e-03 -2.226255706582e-04 0.0 
-2.226255706582e-04 2.557238763054e-03 0.0 
0.0 0.0 0.0 
1.716009590202e-03 -3.253028850348e-03 0.0 
-3.253028850348e-03 -1.455000243296e-03 0.0 
0.0 0.0 0.0 
1.315061109019e-03 4.215714729493e-04 0.0 
4.215714729493e-04 2.993519457564e-03 0.0 
0.0 0.0 0.0 
2.406738788747e-03 -1.844594283993e-03 0.0 
-1.844594283993e-03 -6.229225679739e-04 0.0 
0.0 0.0 0.0 
-8.888001220053e-05 4.228706902133e-03 0.0 
4.228706902133e-03 8.855042359412e-03 0.0 
0.0 0.0 0.0 
-9.677519673784e-04 4.152501041656e-03 0.0 
4.152501041656e-03 8.398868119997e-03 0.0 
0.0 0.0 0.0 
1.006380111333e-03 -2.898961603163e-03 0.0 
-2.898961603163e-03 -1.548776614344e-04 0.0 
0.0 0.0 0.0 
-2.101099947999e-03 3.153658687683e-03 0.0 
3.153658687683e-03 1.097201825621e-02 0.0 
0.0 0.0 0.0 
-1.323790923376e-03 2.168378573257e-03 0.0 
2.168378573257e-03 1.326293975603e-02 0.0 
0.0 0.0 0.0 
2.818755791309e-03 -1.492001486756e-03 0.0 
-1.492001486756e-03 -9.394218687787e-04 0.0 
0.0 0.0 0.0 
2.405448180695e-03 4.011294786722e-03 0.0 
4.011294786722e-03 5.662563842375e-04 0.0 
0.0 0.0 0.0 
-1.769711508122e-03 3.465129504018e-03 0.0 
3.465129504018e-03 1.047718466228e-02 0.0 
0.0 0.0 0.0 
8.622377684426e-04 4.431950639568e-03 0.0 
4.431950639568e-03 3.522456260098e-03 0.0 
0.0 0.0 0.0 
4.037402654204e-04 -2.789572331980e-03 0.0 
-2.789572331980e-03 1.696034061058e-04 0.0 
0.0 0.0 0.0 
-6.466555109217e-04 1.911882708749e-03 0.0 
1.911882708749e-03 1.392521058891e-02 0.0 
0.0 0.0 0.0 
-1.350656205774e-04 -2.309215698831e-03 0.0 
-2.309215698831e-03 6.470471500646e-04 0.0 
0.0 0.0 0.0 
1.690995716284e-03 2.317492837499e-03 0.0 
2.317492837499e-03 3.286153014361e-03 0.0 
0.0 0.0 0.0 
-9.134517198894e-04 8.801843724649e-04 0.0 
8.801843724649e-04 1.407186194105e-02 0.0 
0.0 0.0 0.0 
2.942045111936e-03 8.781292778069e-04 0.0 
8.781292778069e-04 4.547345646830e-04 0.0 
0.0 0.0 0.0 
-1.801171663568e-03 5.407339312813e-04 0.0 
5.407339312813e-04 1.294992540732e-02 0.0 
0.0 0.0 0.0 
-1.624415575640e-03 1.311438252306e-03 0.0 
1.311438252306e-03 1.363827520788e-02 0.0 
0.0 0.0 0.0 
3.338411966087e-03 -1.428194693279e-03 0.0 
-1.428194693279e-03 -1.993126089192e-03 0.0 
0.0 0.0 0.0 
4.480890596914e-03 1.445339642782e-03 0.0 
1.445339642782e-03 -1.853771227292e-03 0.0 
0.0 0.0 0.0 
-1.019132900180e-03 1.717151693089e-03 0.0 
1.717151693089e-03 1.379163228270e-02 0.0 
0.0 0.0 0.0 
9.281510039894e-04 -9.706049013541e-04 0.0 
-9.706049013541e-04 2.555829086933e-03 0.0 
0.0 0.0 0.0 
-1.856016503519e-03 1.124797641958e-03 0.0 
1.124797641958e-03 1.342184788773e-02 0.0 
0.0 0.0 0.0 
2.933751212713e-03 -1.016430624790e-04 0.0 
-1.016430624790e-04 8.505883252741e-05 0.0 
0.0 0.0 0.0 
1.395808835023e-03 -3.110757752595e-03 0.0 
-3.110757752595e-03 -6.281587040661e-04 0.0 
0.0 0.0 0.0 
-1.827424099128e-03 1.375983632158e-03 0.0 
1.375983632158e-03 1.345070888707e-02 0.0 
0.0 0.0 0.0 
3.602829999687e-04 4.420653024844e-03 0.0 
4.420653024844e-03 7.642816706417e-03 0.0 
0.0 0.0 0.0 
1.006240151462e-03 -4.271116618350e-05 0.0 
-4.271116618350e-05 3.266651146791e-03 0.0 
0.0 0.0 0.0 
1.058102823935e-03 -2.213209339520e-03 0.0 
-2.213209339520e-03 7.354469522163e-04 0.0 
0.0 0.0 0.0 
-1.966354519417e-03 5.425057677029e-04 0.0 
5.425057677029e-04 1.295011810459e-02 0.0 
0.0 0.0 0.0 
-1.903995877696e-03 5.341808607255e-04 0.0 
5.341808607255e-04 1.275767826058e-02 0.0 
0.0 0.0 0.0 
1.983502825837e-03 -2.056912689739e-03 0.0 
-2.056912689739e-03 -5.878325994851e-04 0.0 
0.0 0.0 0.0 
1.297930471538e-03 -1.047267134202e-03 0.0 
-1.047267134202e-03 1.951052588235e-03 0.0 
0.0 0.0 0.0 
1.526134908374e-03 -7.754756341771e-04 0.0 
-7.754756341771e-04 1.884556991804e-03 0.0 
0.0 0.0 0.0 
8.118101078125e-05 -9.803727725461e-04 0.0 
-9.803727725461e-04 9.860231420653e-04 0.0 
0.0 0.0 0.0 
4.400154453890e-03 2.365767593467e-03 0.0 
2.365767593467e-03 -3.464066139274e-03 0.0 
0.0 0.0 0.0 
4.745212005083e-03 1.875077681034e-06 0.0 
1.875077681034e-06 -2.799847252607e-03 0.0 
0.0 0.0 0.0 
3.986937682342e-03 -1.180612568990e-03 0.0 
-1.180612568990e-03 -2.620952524863e-03 0.0 
0.0 0.0 0.0 
1.891237545489e-03 4.202293665563e-03 0.0 
4.202293665563e-03 1.708841100066e-03 0.0 
0.0 0.0 0.0 
-9.974863961910e-04 1.649474123203e-03 0.0 
1.649474123203e-03 1.397880680279e-02 0.0 
0.0 0.0 0.0 
-1.094175613236e-03 3.296190463946e-03 0.0 
3.296190463946e-03 1.177200888172e-02 0.0 
0.0 0.0 0.0 
-1.057485612150e-03 8.702411084851e-04 0.0 
8.702411084851e-04 1.407286041511e-02 0.0 
0.0 0.0 0.0 
-7.311787063964e-04 4.302866728667e-03 0.0 
4.302866728667e-03 6.258944771690e-03 0.0 
0.0 0.0 0.0 
-1.635283565518e-03 1.946400500225e-03 0.0 
1.946400500225e-03 1.313099822093e-02 0.0 
0.0 0.0 0.0 
9.370991889208e-04 -1.163543020665e-03 0.0 
-1.163543020665e-03 1.970812531162e-03 0.0 
0.0 0.0 0.0 
-9.252419606181e-04 1.386322268019e-03 0.0 
1.386322268019e-03 1.398827993894e-02 0.0 
0.0 0.0 0.0 
-2.016136699874e-03 1.438092580409e-03 0.0 
1.438092580409e-03 1.324735839160e-02 0.0 
0.0 0.0 0.0 
1.109517554886e-03 -2.178729898473e-03 0.0 
-2.178729898473e-03 3.662814899292e-04 0.0 
0.0 0.0 0.0 
5.022215148720e-03 6.216271230607e-04 0.0 
6.216271230607e-04 -3.006879544030e-03 0.0 
0.0 0.0 0.0 
-1.598612432760e-03 1.331568859277e-03 0.0 
1.331568859277e-03 1.345510849336e-02 0.0 
0.0 0.0 0.0 
-1.335692337358e-03 1.488967787249e-03 0.0 
1.488967787249e-03 1.382241550623e-02 0.0 
0.0 0.0 0.0 
-1.467470302657e-03 1.053588256707e-03 0.0 
1.053588256707e-03 1.360321507121e-02 0.0 
0.0 0.0 0.0 
-1.641211497143e-03 1.092394462063e-03 0.0 
1.092394462063e-03 1.342489118438e-02 0.0 
0.0 0.0 0.0 
9.434744636474e-04 -5.219158732555e-04 0.0 
-5.219158732555e-04 3.052335014889e-03 0.0 
0.0 0.0 0.0 
1.808766722148e-03 2.588095351379e-03 0.0 
2.588095351379e-03 3.238994014372e-03 0.0 
0.0 0.0 0.0 
1.299708689120e-03 -5.076685761568e-04 0.0 
-5.076685761568e-04 2.481762459239e-03 0.0 
0.0 0.0 0.0 
1.028228805535e-03 -1.547102147701e-03 0.0 
-1.547102147701e-03 1.654543102726e-03 0.0 
0.0 0.0 0.0 
-2.142987246756e-03 3.054742506391e-03 0.0 
3.054742506391e-03 9.077453193959e-03 0.0 
0.0 0.0 0.0 
2.750668737575e-03 1.373480086369e-03 0.0 
1.373480086369e-03 1.039452186363e-03 0.0 
0.0 0.0 0.0 
-1.952381876250e-03 2.126490431891e-03 0.0 
2.126490431891e-03 1.254633359376e-02 0.0 
0.0 0.0 0.0 
-5.699918340908e-04 -1.153001466002e-03 0.0 
-1.153001466002e-03 1.961566321800e-03 0.0 
0.0 0.0 0.0 
4.375234938591e-03 -5.541130590843e-04 0.0 
-5.541130590843e-04 -2.707886700653e-03 0.0 
0.0 0.0 0.0 
3.946104854200e-03 -3.077905990078e-04 0.0 
-3.077905990078e-04 -1.779390251468e-03 0.0 
0.0 0.0 0.0 
4.005969794967e-03 1.515015674117e-03 0.0 
1.515015674117e-03 -1.015689625783e-03 0.0 
0.0 0.0 0.0 
4.346725233694e-03 -4.923568248036e-04 0.0 
-4.923568248036e-04 -4.053998587142e-03 0.0 
0.0 0.0 0.0 
4.766358812350e-03 -1.569594452159e-05 0.0 
-1.569594452159e-05 -2.897681019128e-03 0.0 
0.0 0.0 0.0 
3.448676626765e-03 1.600834327505e-03 0.0 
1.600834327505e-03 5.075317119019e-06 0.0 
0.0 0.0 0.0 
-1.568329836351e-03 3.739178572948e-03 0.0 
3.739178572948e-03 8.169097575525e-03 0.0 
0.0 0.0 0.0 
1.047409826371e-03 -2.017730364237e-03 0.0 
-2.017730364237e-03 9.708007758757e-04 0.0 
0.0 0.0 0.0 
-2.198451971557e-03 1.221437696403e-03 0.0 
1.221437696403e-03 1.302155862009e-02 0.0 
0.0 0.0 0.0 
-1.913577646971e-03 2.612673523996e-04 0.0 
2.612673523996e-04 1.220755544496e-02 0.0 
0.0 0.0 0.0 
-1.570660914039e-03 3.514242204854e-03 0.0 
3.514242204854e-03 1.666657355511e-03 0.0 
0.0 0.0 0.0 
1.042644772543e-03 -1.750142267012e-03 0.0 
-1.750142267012e-03 1.030020303799e-03 0.0 
0.0 0.0 0.0 
2.797574180540e-03 8.754999224956e-04 0.0 
8.754999224956e-04 7.560911191773e-04 0.0 
0.0 0.0 0.0 
-9.914681583642e-04 3.181353624097e-03 0.0 
3.181353624097e-03 1.220169064912e-02 0.0 
0.0 0.0 0.0 
4.732979027338e-03 1.325248609909e-03 0.0 
1.325248609909e-03 -2.436283477723e-03 0.0 
0.0 0.0 0.0 
1.032284963448e-03 -1.800050487791e-03 0.0 
-1.800050487791e-03 1.282362038435e-03 0.0 
0.0 0.0 0.0 
-2.028948271264e-03 9.335838232801e-04 0.0 
9.335838232801e-04 1.316969959446e-02 0.0 
0.0 0.0 0.0 
-1.495212737867e-03 3.519461946672e-03 0.0 
3.519461946672e-03 2.889993946023e-03 0.0 
0.0 0.0 0.0 
3.078717533584e-03 1.186511620184e-03 0.0 
1.186511620184e-03 4.075040223355e-04 0.0 
0.0 0.0 0.0 
4.261822822058e-03 8.946791233483e-04 0.0 
8.946791233483e-04 -1.776497715025e-03 0.0 
0.0 0.0 0.0 
-1.818884842905e-03 3.804784240433e-03 0.0 
3.804784240433e-03 8.957340321061e-03 0.0 
0.0 0.0 0.0 
1.187856376822e-03 -9.225012527543e-04 0.0 
-9.225012527543e-04 1.908677884959e-03 0.0 
0.0 0.0 0.0 
2.942374776108e-03 -2.893181134662e-03 0.0 
-2.893181134662e-03 -2.858155365802e-03 0.0 
0.0 0.0 0.0 
1.383953174233e-03 -6.369449747404e-04 0.0 
-6.369449747404e-04 1.923288809174e-03 0.0 
0.0 0.0 0.0 
1.377660437482e-03 8.155441790023e-05 0.0 
8.155441790023e-05 2.715082856644e-03 0.0 
0.0 0.0 0.0 
3.302534389367e-03 1.536790199741e-03 0.0 
1.536790199741e-03 1.330183855890e-04 0.0 
0.0 0.0 0.0 
-1.667525897767e-03 1.074346568449e-03 0.0 
1.074346568449e-03 1.360144878224e-02 0.0 
0.0 0.0 0.0 
1.352281683950e-03 3.791707240852e-03 0.0 
3.791707240852e-03 4.782484987095e-03 0.0 
0.0 0.0 0.0 
1.199573599565e-03 -7.860785275705e-05 0.0 
-7.860785275705e-05 2.736105149975e-03 0.0 
0.0 0.0 0.0 
-1.543833683843e-03 3.427246504810e-03 0.0 
3.427246504810e-03 4.064313704234e-03 0.0 
0.0 0.0 0.0 
-2.034178092572e-03 1.172451146797e-03 0.0 
1.172451146797e-03 1.322899167431e-02 0.0 
0.0 0.0 0.0 
1.514711976934e-03 3.166174898325e-03 0.0 
3.166174898325e-03 4.076602196242e-03 0.0 
0.0 0.0 0.0 
-1.410354759442e-03 1.282631984514e-03 0.0 
1.282631984514e-03 1.364093227084e-02 0.0 
0.0 0.0 0.0 
3.790818917561e-03 1.435868842039e-03 0.0 
1.435868842039e-03 -7.832248391439e-04 0.0 
0.0 0.0 0.0 
4.866248639755e-03 7.088775908518e-04 0.0 
7.088775908518e-04 -2.690570222038e-03 0.0 
0.0 0.0 0.0 
-2.749861625840e-04 -1.446749977814e-03 0.0 
-1.446749977814e-03 2.856334957657e-03 0.0 
0.0 0.0 0.0 
2.864158311793e-03 7.873853119142e-04 0.0 
7.873853119142e-04 -4.861505795538e-03 0.0 
0.0 0.0 0.0 
-1.216097243862e-03 1.222547974006e-03 0.0 
1.222547974006e-03 1.381153334667e-02 0.0 
0.0 0.0 0.0 
-7.233424063448e-04 -9.839334983893e-04 0.0 
-9.839334983893e-04 2.229841636910e-03 0.0 
0.0 0.0 0.0 
-1.575562351833e-03 3.270695445313e-03 0.0 
3.270695445313e-03 5.333592664745e-03 0.0 
0.0 0.0 0.0 
1.115718378361e-03 3.988078149650e-03 0.0 
3.988078149650e-03 5.222619955348e-03 0.0 
0.0 0.0 0.0 
-8.196786611393e-04 1.082070729352e-03 0.0 
1.082070729352e-03 1.412403602461e-02 0.0 
0.0 0.0 0.0 
2.139098019893e-03 -3.363493876558e-03 0.0 
-3.363493876558e-03 -2.145905008798e-03 0.0 
0.0 0.0 0.0 
6.909042758088e-04 4.435751838466e-03 0.0 
4.435751838466e-03 4.750834124627e-03 0.0 
0.0 0.0 0.0 
-1.777722550565e-03 1.375816834542e-03 0.0 
1.375816834542e-03 1.325371739737e-02 0.0 
0.0 0.0 0.0 
3.388520929213e-04 -1.874089095326e-03 0.0 
-1.874089095326e-03 1.575049419458e-03 0.0 
0.0 0.0 0.0 
4.001226408041e-03 -1.620814550588e-03 0.0 
-1.620814550588e-03 -3.873791390469e-03 0.0 
0.0 0.0 0.0 
2.557325681549e-03 4.064035748739e-03 0.0 
4.064035748739e-03 -3.257951106591e-04 0.0 
0.0 0.0 0.0 
5.834432273926e-04 -3.016486278558e-03 0.0 
-3.016486278558e-03 -1.751081174663e-04 0.0 
0.0 0.0 0.0 
2.723909537345e-03 -2.804194432033e-03 0.0 
-2.804194432033e-03 -2.217459846788e-03 0.0 
0.0 0.0 0.0 
1.860222535346e-03 -3.279067342067e-03 0.0 
-3.279067342067e-03 -1.200287012647e-03 0.0 
0.0 0.0 0.0 
4.353499540588e-03 1.354510940305e-03 0.0 
1.354510940305e-03 -1.845514260532e-03 0.0 
0.0 0.0 0.0 
-4.599519964358e-04 2.846984788806e-03 0.0 
2.846984788806e-03 1.347645012035e-02 0.0 
0.0 0.0 0.0 
-1.681775374781e-03 3.108204770374e-03 0.0 
3.108204770374e-03 6.841153634132e-03 0.0 
0.0 0.0 0.0 
6.299339471103e-04 -5.265766306426e-04 0.0 
-5.265766306426e-04 3.591423500052e-03 0.0 
0.0 0.0 0.0 
4.928057471265e-03 2.018338257793e-03 0.0 
2.018338257793e-03 -2.868761410944e-03 0.0 
0.0 0.0 0.0 
-2.189424238806e-03 1.509073664588e-03 0.0 
1.509073664588e-03 1.302579487088e-02 0.0 
0.0 0.0 0.0 
3.578539893624e-03 6.358492930730e-04 0.0 
6.358492930730e-04 -4.512727516236e-03 0.0 
0.0 0.0 0.0 
1.160442408629e-03 2.368719434217e-04 0.0 
2.368719434217e-04 2.983099764003e-03 0.0 
0.0 0.0 0.0 
1.173279672219e-03 -3.463190197181e-03 0.0 
-3.463190197181e-03 -1.181329478605e-03 0.0 
0.0 0.0 0.0 
-8.882135931976e-04 -1.059947273058e-03 0.0 
-1.059947273058e-03 2.557851100442e-03 0.0 
0.0 0.0 0.0 
2.975577563856e-03 1.985499388870e-03 0.0 
1.985499388870e-03 8.390601353463e-04 0.0 
0.0 0.0 0.0 
2.834068928443e-03 -1.630221997292e-03 0.0 
-1.630221997292e-03 -1.384810047558e-03 0.0 
0.0 0.0 0.0 
1.901856487293e-03 2.858970852623e-03 0.0 
2.858970852623e-03 3.276048486527e-03 0.0 
0.0 0.0 0.0 
1.092573589164e-03 4.231924839343e-03 0.0 
4.231924839343e-03 2.501613529171e-03 0.0 
0.0 0.0 0.0 
-2.035395363738e-03 2.135567543585e-03 0.0 
2.135567543585e-03 1.284256533096e-02 0.0 
0.0 0.0 0.0 
1.668217701954e-03 2.491658174566e-03 0.0 
2.491658174566e-03 3.259647978541e-03 0.0 
0.0 0.0 0.0 
-1.807114467120e-03 1.123598811579e-03 0.0 
1.123598811579e-03 1.323369481840e-02 0.0 
0.0 0.0 0.0 
-1.171655806488e-03 3.274918917753e-03 0.0 
3.274918917753e-03 1.218866587330e-02 0.0 
0.0 0.0 0.0 
-1.771930925202e-03 1.647319844121e-03 0.0 
1.647319844121e-03 1.343821414640e-02 0.0 
0.0 0.0 0.0 
-1.684157627534e-03 1.934370802834e-03 0.0 
1.934370802834e-03 1.337546675831e-02 0.0 
0.0 0.0 0.0 
3.227358417054e-03 3.397793154982e-03 0.0 
3.397793154982e-03 -2.844528315207e-03 0.0 
0.0 0.0 0.0 
5.000086306552e-04 -6.740670053730e-04 0.0 
-6.740670053730e-04 3.584399152102e-03 0.0 
0.0 0.0 0.0 
-1.722834281998e-03 1.652519573854e-03 0.0 
1.652519573854e-03 1.322109304642e-02 0.0 
0.0 0.0 0.0 
4.059254887783e-03 2.998267850150e-03 0.0 
2.998267850150e-03 -1.396926912413e-03 0.0 
0.0 0.0 0.0 
-2.671148132685e-03 2.970795565399e-03 0.0 
2.970795565399e-03 8.663856959975e-03 0.0 
0.0 0.0 0.0 
1.292668989206e-03 2.694376268544e-03 0.0 
2.694376268544e-03 4.009844552743e-03 0.0 
0.0 0.0 0.0 
4.484240867167e-03 1.550667396049e-03 0.0 
1.550667396049e-03 -4.043038815387e-03 0.0 
0.0 0.0 0.0 
-6.829695944973e-04 -1.019544612652e-03 0.0 
-1.019544612652e-03 2.212812027387e-03 0.0 
0.0 0.0 0.0 
2.237399286384e-03 2.719571634357e-03 0.0 
2.719571634357e-03 2.420533041140e-03 0.0 
0.0 0.0 0.0 
1.400181046560e-04 4.235635351957e-05 0.0 
4.235635351957e-05 1.450270394340e-03 0.0 
0.0 0.0 0.0 
2.188004467758e-03 4.000856077845e-03 0.0 
4.000856077845e-03 1.942928410096e-03 0.0 
0.0 0.0 0.0 
2.818697071787e-03 1.634386464078e-03 0.0 
1.634386464078e-03 1.004308726958e-03 0.0 
0.0 0.0 0.0 
-1.337175725626e-03 2.120929987077e-03 0.0 
2.120929987077e-03 1.350715932981e-02 0.0 
0.0 0.0 0.0 
-1.190051723156e-03 2.447647410186e-03 0.0 
2.447647410186e-03 1.336327583097e-02 0.0 
0.0 0.0 0.0 
2.967006470777e-03 1.702383126530e-03 0.0 
1.702383126530e-03 8.803210084161e-04 0.0 
0.0 0.0 0.0 
-1.557497397283e-03 1.571593851617e-03 0.0 
1.571593851617e-03 1.363608777821e-02 0.0 
0.0 0.0 0.0 
4.629714478260e-03 2.596336537109e-03 0.0 
2.596336537109e-03 -2.331855905708e-03 0.0 
0.0 0.0 0.0 
3.955227096837e-04 4.145281433752e-03 0.0 
4.145281433752e-03 6.737089556376e-03 0.0 
0.0 0.0 0.0 
-2.453092695220e-03 1.783749507488e-03 0.0 
1.783749507488e-03 1.008570136791e-02 0.0 
0.0 0.0 0.0 
-6.267836742753e-04 3.850783945862e-03 0.0 
3.850783945862e-03 1.034569326352e-02 0.0 
0.0 0.0 0.0 
-2.535301903588e-03 1.396284936180e-03 0.0 
1.396284936180e-03 1.081933270786e-02 0.0 
0.0 0.0 0.0 
-2.568384854530e-03 1.281298106408e-03 0.0 
1.281298106408e-03 1.112422020755e-02 0.0 
0.0 0.0 0.0 
4.734041831786e-03 1.925198740707e-03 0.0 
1.925198740707e-03 -2.391544943895e-03 0.0 
0.0 0.0 0.0 
-2.595366543886e-03 1.223503140270e-03 0.0 
1.223503140270e-03 1.138506793641e-02 0.0 
0.0 0.0 0.0 
2.610655959948e-03 3.713314940296e-03 0.0 
3.713314940296e-03 1.662890172841e-03 0.0 
0.0 0.0 0.0 
3.419802352930e-03 3.566099955299e-03 0.0 
3.566099955299e-03 -1.023294307336e-04 0.0 
0.0 0.0 0.0 
4.595599794246e-03 1.170367070432e-04 0.0 
1.170367070432e-04 -2.631341333600e-03 0.0 
0.0 0.0 0.0 
3.873808982521e-03 -1.520110670506e-03 0.0 
-1.520110670506e-03 -3.732793927288e-03 0.0 
0.0 0.0 0.0 
4.968663586294e-03 1.304365314796e-03 0.0 
1.304365314796e-03 -2.781547595881e-03 0.0 
0.0 0.0 0.0 
-1.126061117555e-03 1.467717736283e-03 0.0 
1.467717736283e-03 1.382420216908e-02 0.0 
0.0 0.0 0.0 
-8.305900347033e-04 3.606098209345e-03 0.0 
3.606098209345e-03 1.138892221606e-02 0.0 
0.0 0.0 0.0 
5.995715173850e-04 -8.793394870961e-04 0.0 
-8.793394870961e-04 3.114442638621e-03 0.0 
0.0 0.0 0.0 
1.791231693034e-03 2.756200372666e-03 0.0 
2.756200372666e-03 3.214066705762e-03 0.0 
0.0 0.0 0.0 
3.272299619054e-03 -1.289549157309e-03 0.0 
-1.289549157309e-03 -1.440663702875e-03 0.0 
0.0 0.0 0.0 
-1.445729872218e-03 1.875199302389e-03 0.0 
1.875199302389e-03 1.338173470860e-02 0.0 
0.0 0.0 0.0 
4.837391569465e-03 6.788338023345e-04 0.0 
6.788338023345e-04 -2.716658679679e-03 0.0 
0.0 0.0 0.0 
2.558361950182e-04 -6.123720515360e-04 0.0 
-6.123720515360e-04 4.067780360435e-03 0.0 
0.0 0.0 0.0 
-1.533949247356e-03 1.596011094908e-03 0.0 
1.596011094908e-03 1.344342716773e-02 0.0 
0.0 0.0 0.0 
-1.873254415900e-03 2.029620309151e-03 0.0 
2.029620309151e-03 1.312157087122e-02 0.0 
0.0 0.0 0.0 
3.556949493444e-03 1.021786978159e-03 0.0 
1.021786978159e-03 -4.784420327649e-04 0.0 
0.0 0.0 0.0 
4.898279828517e-03 1.951273158552e-03 0.0 
1.951273158552e-03 -2.648557903567e-03 0.0 
0.0 0.0 0.0 
3.499058346830e-04 4.111476160361e-03 0.0 
4.111476160361e-03 7.136826026702e-03 0.0 
0.0 0.0 0.0 
-1.080617986345e-03 4.000673945369e-03 0.0 
4.000673945369e-03 8.419935238709e-03 0.0 
0.0 0.0 0.0 
3.429483029418e-03 -2.571852263797e-03 0.0 
-2.571852263797e-03 -3.562157243776e-03 0.0 
0.0 0.0 0.0 
4.364381969296e-03 3.552652014369e-04 0.0 
3.552652014369e-04 -3.850848674898e-03 0.0 
0.0 0.0 0.0 
1.581671495668e-03 4.224732884677e-03 0.0 
4.224732884677e-03 1.538448876822e-03 0.0 
0.0 0.0 0.0 
4.917995039078e-04 4.439508794562e-03 0.0 
4.439508794562e-03 4.751280712158e-03 0.0 
0.0 0.0 0.0 
6.213737517924e-05 -5.398325122766e-04 0.0 
-5.398325122766e-04 4.510869599037e-03 0.0 
0.0 0.0 0.0 
-1.962007901753e-03 1.726816077908e-03 0.0 
1.726816077908e-03 1.321311132074e-02 0.0 
0.0 0.0 0.0 
4.924276752140e-03 1.348767432093e-03 0.0 
1.348767432093e-03 -2.556513541477e-03 0.0 
0.0 0.0 0.0 
3.570142629756e-04 4.367042437043e-03 0.0 
4.367042437043e-03 6.042526665994e-03 0.0 
0.0 0.0 0.0 
2.599684224032e-03 1.338268236106e-03 0.0 
1.338268236106e-03 1.281160692847e-03 0.0 
0.0 0.0 0.0 
-1.413926700732e-03 1.243894262091e-03 0.0 
1.243894262091e-03 1.380966081237e-02 0.0 
0.0 0.0 0.0 
4.264431716439e-05 4.186481923770e-03 0.0 
4.186481923770e-03 8.003348551301e-03 0.0 
0.0 0.0 0.0 
-2.091256803212e-03 1.471797522715e-03 0.0 
1.471797522715e-03 1.279402141776e-02 0.0 
0.0 0.0 0.0 
2.095121953999e-03 4.196360785174e-04 0.0 
4.196360785174e-04 1.699647840064e-03 0.0 
0.0 0.0 0.0 
4.649010669521e-03 7.874209273554e-04 0.0 
7.874209273554e-04 -2.354817782162e-03 0.0 
0.0 0.0 0.0 
2.480698954326e-03 1.070808043166e-03 0.0 
1.070808043166e-03 1.306099285620e-03 0.0 
0.0 0.0 0.0 
1.953215618426e-03 4.183808326709e-03 0.0 
4.183808326709e-03 1.916902135719e-03 0.0 
0.0 0.0 0.0 
-1.234683111440e-03 1.754016251499e-03 0.0 
1.754016251499e-03 1.378842134726e-02 0.0 
0.0 0.0 0.0 
-1.858779979071e-04 4.231080803361e-03 0.0 
4.231080803361e-03 8.854987907204e-03 0.0 
0.0 0.0 0.0 
4.044287947699e-03 8.513582171372e-04 0.0 
8.513582171372e-04 -1.438099624183e-03 0.0 
0.0 0.0 0.0 
4.268999551526e-03 5.729897427264e-04 0.0 
5.729897427264e-04 -4.344209945212e-03 0.0 
0.0 0.0 0.0 
1.404802563540e-03 3.697765589177e-03 0.0 
3.697765589177e-03 4.402890603407e-03 0.0 
0.0 0.0 0.0 
2.164440520917e-03 3.988835026211e-03 0.0 
3.988835026211e-03 2.245421031311e-03 0.0 
0.0 0.0 0.0 
4.790196742124e-03 2.011530902752e-03 0.0 
2.011530902752e-03 -2.241638448445e-03 0.0 
0.0 0.0 0.0 
3.697847692600e-03 1.041574032488e-03 0.0 
1.041574032488e-03 -7.237548224600e-04 0.0 
0.0 0.0 0.0 
1.878401126725e-03 -2.133994450048e-04 0.0 
-2.133994450048e-04 1.474837863410e-03 0.0 
0.0 0.0 0.0 
4.052948642437e-03 -7.319677554728e-04 0.0 
-7.319677554728e-04 -4.131428792725e-03 0.0 
0.0 0.0 0.0 
4.515653574568e-03 7.358451559210e-04 0.0 
7.358451559210e-04 -2.220112129065e-03 0.0 
0.0 0.0 0.0 
-1.736700953978e-03 3.271020736347e-03 0.0 
3.271020736347e-03 1.050308377668e-02 0.0 
0.0 0.0 0.0 
-6.832912881016e-05 -5.912183527128e-04 0.0 
-5.912183527128e-04 4.518699838916e-03 0.0 
0.0 0.0 0.0 
-1.410244471574e-03 3.559126468340e-03 0.0 
3.559126468340e-03 9.948863399928e-03 0.0 
0.0 0.0 0.0 
1.215701589537e-03 3.907227758089e-03 0.0 
3.907227758089e-03 4.766403442023e-03 0.0 
0.0 0.0 0.0 
-2.013485257228e-03 2.930919452362e-03 0.0 
2.930919452362e-03 1.100098435769e-02 0.0 
0.0 0.0 0.0 
-2.367206667077e-03 2.148030557957e-03 0.0 
2.148030557957e-03 1.175103428738e-02 0.0 
0.0 0.0 0.0 
-6.487134225323e-04 4.155866482253e-03 0.0 
4.155866482253e-03 7.711469713555e-03 0.0 
0.0 0.0 0.0 
2.155216866421e-03 2.422812806184e-03 0.0 
2.422812806184e-03 2.438746831515e-03 0.0 
0.0 0.0 0.0 
5.459984804979e-04 -8.143305347931e-04 0.0 
-8.143305347931e-04 3.077125249247e-03 0.0 
0.0 0.0 0.0 
-1.893079331152e-03 1.717844884103e-03 0.0 
1.717844884103e-03 1.297393754404e-02 0.0 
0.0 0.0 0.0 
-9.865453538925e-04 2.388457167069e-03 0.0 
2.388457167069e-03 1.336989757726e-02 0.0 
0.0 0.0 0.0 
-2.230875249874e-03 2.550683084408e-03 0.0 
2.550683084408e-03 1.142162550679e-02 0.0 
0.0 0.0 0.0 
4.945501016757e-03 1.313769064150e-03 0.0 
1.313769064150e-03 -3.021325021863e-03 0.0 
0.0 0.0 0.0 
1.108642411611e-03 3.774530527827e-03 0.0 
3.774530527827e-03 5.346482690582e-03 0.0 
0.0 0.0 0.0 
-1.106129051536e-03 1.406926356834e-03 0.0 
1.406926356834e-03 1.398650397213e-02 0.0 
0.0 0.0 0.0 
3.006236962968e-03 3.701199742831e-03 0.0 
3.701199742831e-03 1.772980609946e-04 0.0 
0.0 0.0 0.0 
2.441921853394e-03 3.946549920170e-03 0.0 
3.946549920170e-03 1.236614018632e-03 0.0 
0.0 0.0 0.0 
5.001097538909e-03 1.325939160970e-03 0.0 
1.325939160970e-03 -2.760837044705e-03 0.0 
0.0 0.0 0.0 
-1.805079144175e-03 2.027906358597e-03 0.0 
2.027906358597e-03 1.285582353180e-02 0.0 
0.0 0.0 0.0 
1.450106857475e-04 4.384768368384e-03 0.0 
4.384768368384e-03 4.347937474430e-03 0.0 
0.0 0.0 0.0 
2.704097312425e-03 3.618350493456e-03 0.0 
3.618350493456e-03 1.184580491905e-03 0.0 
0.0 0.0 0.0 
3.015978110177e-04 4.417336935871e-03 0.0 
4.417336935871e-03 4.342784702481e-03 0.0 
0.0 0.0 0.0 
2.614741633402e-03 2.378959326035e-03 0.0 
2.378959326035e-03 1.610689756248e-03 0.0 
0.0 0.0 0.0 
7.917402463404e-04 3.839350794857e-03 0.0 
3.839350794857e-03 5.911975865539e-03 0.0 
0.0 0.0 0.0 
4.975679770395e-03 6.202762762977e-04 0.0 
6.202762762977e-04 -2.910573292342e-03 0.0 
0.0 0.0 0.0 
2.784605684743e-03 -8.272988784548e-04 0.0 
-8.272988784548e-04 -4.599864528557e-03 0.0 
0.0 0.0 0.0 
-9.968721002523e-04 2.807723685834e-03 0.0 
2.807723685834e-03 1.287448894713e-02 0.0 
0.0 0.0 0.0 
-2.981356587751e-04 4.315130782744e-03 0.0 
4.315130782744e-03 5.331406877913e-03 0.0 
0.0 0.0 0.0 
3.661466980818e-03 -8.258880623493e-04 0.0 
-8.258880623493e-04 -1.661209208354e-03 0.0 
0.0 0.0 0.0 
1.177743790600e-03 3.718674915323e-03 0.0 
3.718674915323e-03 5.012513342305e-03 0.0 
0.0 0.0 0.0 
-2.132616579349e-03 1.815663944503e-03 0.0 
1.815663944503e-03 1.296315640132e-02 0.0 
0.0 0.0 0.0 
8.447816828838e-04 -8.724126186492e-04 0.0 
-8.724126186492e-04 2.508714322229e-03 0.0 
0.0 0.0 0.0 
3.987757397682e-03 3.177005596731e-03 0.0 
3.177005596731e-03 -1.004128601508e-03 0.0 
0.0 0.0 0.0 
2.505742769650e-03 -4.490722606593e-04 0.0 
-4.490722606593e-04 -4.977493398136e-03 0.0 
0.0 0.0 0.0 
-1.742475614659e-04 -5.299995644056e-04 0.0 
-5.299995644056e-04 4.937005929407e-03 0.0 
0.0 0.0 0.0 
1.006809316311e-03 4.403204197072e-03 0.0 
4.403204197072e-03 3.970277196294e-03 0.0 
0.0 0.0 0.0 
2.744496166928e-03 2.831131575812e-03 0.0 
2.831131575812e-03 1.726471256026e-03 0.0 
0.0 0.0 0.0 
5.293856907675e-04 4.120843559727e-03 0.0 
4.120843559727e-03 6.671668182509e-03 0.0 
0.0 0.0 0.0 
1.017706339958e-03 -2.544523499346e-05 0.0 
-2.544523499346e-05 -4.712206747357e-03 0.0 
0.0 0.0 0.0 
1.143984220654e-03 -7.564440470626e-04 0.0 
-7.564440470626e-04 2.488984454920e-03 0.0 
0.0 0.0 0.0 
3.356691563953e-03 3.421084554975e-03 0.0 
3.421084554975e-03 -1.090184858514e-03 0.0 
0.0 0.0 0.0 
-2.355748043580e-03 1.582046838211e-03 0.0 
1.582046838211e-03 1.278240883381e-02 0.0 
0.0 0.0 0.0 
3.464730113449e-04 -1.674339955293e-03 0.0 
-1.674339955293e-03 1.895544375628e-03 0.0 
0.0 0.0 0.0 
5.082443911565e-03 1.295347555872e-03 0.0 
1.295347555872e-03 -3.023198197863e-03 0.0 
0.0 0.0 0.0 
8.870403175387e-05 -6.661838282488e-04 0.0 
-6.661838282488e-04 4.077071866325e-03 0.0 
0.0 0.0 0.0 
2.373871023067e-03 3.935500836812e-03 0.0 
3.935500836812e-03 1.630442963248e-03 0.0 
0.0 0.0 0.0 
5.126996906876e-03 1.335444366680e-03 0.0 
1.335444366680e-03 -3.344002109423e-03 0.0 
0.0 0.0 0.0 
7.721677345927e-04 4.389408537877e-03 0.0 
4.389408537877e-03 5.019921925741e-03 0.0 
0.0 0.0 0.0 
2.265483303179e-03 -2.343864221743e-03 0.0 
-2.343864221743e-03 -4.635547973931e-03 0.0 
0.0 0.0 0.0 
7.923621693131e-04 4.132513048351e-03 0.0 
4.132513048351e-03 5.768895983706e-03 0.0 
0.0 0.0 0.0 
2.644521450567e-03 2.132914108715e-03 0.0 
2.132914108715e-03 1.647356996045e-03 0.0 
0.0 0.0 0.0 
-3.352521296829e-04 4.146439081022e-03 0.0 
4.146439081022e-03 9.578699644543e-03 0.0 
0.0 0.0 0.0 
7.064174837959e-04 4.057118090825e-03 0.0 
4.057118090825e-03 6.204645098504e-03 0.0 
0.0 0.0 0.0 
4.703887412560e-03 3.903792679417e-04 0.0 
3.903792679417e-04 -3.611022093202e-03 0.0 
0.0 0.0 0.0 
3.335324127582e-04 -9.402748145006e-04 0.0 
-9.402748145006e-04 3.125678356316e-03 0.0 
0.0 0.0 0.0 
-7.887727526750e-04 1.644331035649e-03 0.0 
1.644331035649e-03 1.397892835091e-02 0.0 
0.0 0.0 0.0 
8.683952546302e-04 3.052503038224e-03 0.0 
3.052503038224e-03 4.785839166668e-03 0.0 
0.0 0.0 0.0 
2.281895978013e-03 2.519578846643e-03 0.0 
2.519578846643e-03 2.450142835273e-03 0.0 
0.0 0.0 0.0 
4.433408584545e-03 2.622776393696e-03 0.0 
2.622776393696e-03 -1.599599026944e-03 0.0 
0.0 0.0 0.0 
8.277972193136e-04 4.267284861902e-03 0.0 
4.267284861902e-03 5.370375662684e-03 0.0 
0.0 0.0 0.0 
-2.126479222279e-04 -4.708617289669e-04 0.0 
-4.708617289669e-04 4.863858300155e-03 0.0 
0.0 0.0 0.0 
-1.096186341365e-03 -5.160311200370e-04 0.0 
-5.160311200370e-04 3.695796704044e-03 0.0 
0.0 0.0 0.0 
9.416521303567e-04 4.055177934355e-03 0.0 
4.055177934355e-03 5.213901413620e-03 0.0 
0.0 0.0 0.0 
-1.943880240814e-03 1.420337142627e-03 0.0 
1.420337142627e-03 1.303508030701e-02 0.0 
0.0 0.0 0.0 
2.947058421381e-04 -7.427339390819e-04 0.0 
-7.427339390819e-04 3.596147123189e-03 0.0 
0.0 0.0 0.0 
1.032985455877e-03 -6.442611013607e-04 0.0 
-6.442611013607e-04 2.504499018515e-03 0.0 
0.0 0.0 0.0 
-1.747607926776e-03 4.107040338442e-05 0.0 
4.107040338442e-05 1.191786702056e-02 0.0 
0.0 0.0 0.0 
-1.726200265470e-03 2.997249963858e-05 0.0 
2.997249963858e-05 1.190861557538e-02 0.0 
0.0 0.0 0.0 
-1.851836158851e-03 3.256038924604e-03 0.0 
3.256038924604e-03 1.104346104667e-02 0.0 
0.0 0.0 0.0 
9.891910952018e-04 4.175816970737e-03 0.0 
4.175816970737e-03 4.749541030916e-03 0.0 
0.0 0.0 0.0 
5.472505541460e-05 -1.473310101671e-03 0.0 
-1.473310101671e-03 2.456745121106e-03 0.0 
0.0 0.0 0.0 
-7.814565164079e-04 4.082306934261e-03 0.0 
4.082306934261e-03 8.562431351010e-03 0.0 
0.0 0.0 0.0 
2.898280500451e-03 3.670884318405e-03 0.0 
3.670884318405e-03 6.009603788570e-04 0.0 
0.0 0.0 0.0 
1.739320474247e-03 1.175497669353e-03 0.0 
1.175497669353e-03 2.425371195137e-03 0.0 
0.0 0.0 0.0 
4.173269058183e-03 3.085479345729e-03 0.0 
3.085479345729e-03 -1.667309734937e-03 0.0 
0.0 0.0 0.0 
-4.243001783548e-04 2.548365494845e-03 0.0 
2.548365494845e-03 1.371989702266e-02 0.0 
0.0 0.0 0.0 
-2.556922780568e-03 1.913523439235e-03 0.0 
1.913523439235e-03 1.165200291960e-02 0.0 
0.0 0.0 0.0 
2.700374418687e-03 3.755406973199e-03 0.0 
3.755406973199e-03 1.264289347024e-03 0.0 
0.0 0.0 0.0 
6.681270390165e-04 -1.658472831638e-03 0.0 
-1.658472831638e-03 1.890894327764e-03 0.0 
0.0 0.0 0.0 
4.488890518455e-03 1.369953745255e-03 0.0 
1.369953745255e-03 -3.309010474935e-03 0.0 
0.0 0.0 0.0 
7.002721878850e-04 -2.047525443593e-03 0.0 
-2.047525443593e-03 9.774988920312e-04 0.0 
0.0 0.0 0.0 
1.016303651776e-03 4.330042198548e-03 0.0 
4.330042198548e-03 4.316638286020e-03 0.0 
0.0 0.0 0.0 
7.733181201020e-05 4.399305144128e-03 0.0 
4.399305144128e-03 5.779314241075e-03 0.0 
0.0 0.0 0.0 
-2.047109758637e-03 1.794075721737e-03 0.0 
1.794075721737e-03 1.270798927599e-02 0.0 
0.0 0.0 0.0 
-4.805156816108e-04 4.092583947553e-03 0.0 
4.092583947553e-03 7.930301845565e-03 0.0 
0.0 0.0 0.0 
-6.335243859724e-04 4.038208004856e-03 0.0 
4.038208004856e-03 8.756317350185e-03 0.0 
0.0 0.0 0.0 
9.265248170485e-04 -1.728151636317e-04 0.0 
-1.728151636317e-04 6.790675467845e-04 0.0 
0.0 0.0 0.0 
6.452217367514e-04 -2.071135347499e-03 0.0 
-2.071135347499e-03 1.311899063749e-03 0.0 
0.0 0.0 0.0 
-1.326444315465e-04 4.421739027972e-03 0.0 
4.421739027972e-03 5.318413064415e-03 0.0 
0.0 0.0 0.0 
-1.283139968917e-03 3.773046499029e-03 0.0 
3.773046499029e-03 9.224651271516e-03 0.0 
0.0 0.0 0.0 
-1.401550208302e-03 3.733475254705e-03 0.0 
3.733475254705e-03 9.914134391863e-03 0.0 
0.0 0.0 0.0 
1.999640155511e-03 2.110589654490e-03 0.0 
2.110589654490e-03 2.510100847697e-03 0.0 
0.0 0.0 0.0 
-1.848796606528e-04 -1.389999669534e-04 0.0 
-1.389999669534e-04 1.720296033807e-03 0.0 
0.0 0.0 0.0 
3.651238408945e-03 -1.807186245336e-03 0.0 
-1.807186245336e-03 -4.097695377030e-03 0.0 
0.0 0.0 0.0 
1.473746347800e-03 4.332665210688e-03 0.0 
4.332665210688e-03 2.924914815714e-03 0.0 
0.0 0.0 0.0 
3.322343005878e-04 -2.042889299611e-03 0.0 
-2.042889299611e-03 1.309419068410e-03 0.0 
0.0 0.0 0.0 
-2.885676533664e-03 1.705129270392e-03 0.0 
1.705129270392e-03 1.104034837583e-02 0.0 
0.0 0.0 0.0 
-2.875922680126e-03 1.555016841926e-03 0.0 
1.555016841926e-03 1.134038496721e-02 0.0 
0.0 0.0 0.0 
-2.279983172910e-03 1.923680444593e-03 0.0 
1.923680444593e-03 1.269359079960e-02 0.0 
0.0 0.0 0.0 
2.643051111026e-03 3.391540473669e-03 0.0 
3.391540473669e-03 -1.664256564129e-03 0.0 
0.0 0.0 0.0 
3.153420338748e-04 -1.700896002817e-03 0.0 
-1.700896002817e-03 2.141272156622e-03 0.0 
0.0 0.0 0.0 
2.614996156524e-03 6.019586725399e-04 0.0 
6.019586725399e-04 7.986537614126e-04 0.0 
0.0 0.0 0.0 
3.874825154436e-03 -4.841849658018e-04 0.0 
-4.841849658018e-04 -4.384159053752e-03 0.0 
0.0 0.0 0.0 
2.271444772923e-04 4.114967239840e-03 0.0 
4.114967239840e-03 7.304298991121e-03 0.0 
0.0 0.0 0.0 
-1.462275166618e-03 1.838353423802e-03 0.0 
1.838353423802e-03 1.359626286350e-02 0.0 
0.0 0.0 0.0 
-2.696314776230e-04 -1.604405825355e-03 0.0 
-1.604405825355e-03 2.375785045782e-03 0.0 
0.0 0.0 0.0 
3.219344586043e-04 -7.784761505041e-04 0.0 
-7.784761505041e-04 3.626522173761e-03 0.0 
0.0 0.0 0.0 
7.406722714689e-04 -3.315119760175e-04 0.0 
-3.315119760175e-04 4.339955956609e-04 0.0 
0.0 0.0 0.0 
2.649866015453e-03 9.803525192719e-05 0.0 
9.803525192719e-05 4.040314211990e-04 0.0 
0.0 0.0 0.0 
1.215290053863e-03 4.342684711660e-03 0.0 
4.342684711660e-03 3.978009805294e-03 0.0 
0.0 0.0 0.0 
9.088780708786e-04 -2.509373436600e-04 0.0 
-2.509373436600e-04 3.778154237883e-04 0.0 
0.0 0.0 0.0 
-1.236615042230e-03 1.800851961792e-03 0.0 
1.800851961792e-03 1.359915468143e-02 0.0 
0.0 0.0 0.0 
3.394730428850e-03 -7.848634167063e-04 0.0 
-7.848634167063e-04 -4.278538181348e-03 0.0 
0.0 0.0 0.0 
-1.207638331823e-03 3.940094852697e-03 0.0 
3.940094852697e-03 9.198689395814e-03 0.0 
0.0 0.0 0.0 
2.528793002148e-04 4.436438875734e-03 0.0 
4.436438875734e-03 5.773515997550e-03 0.0 
0.0 0.0 0.0 
3.784012138114e-03 -9.237180799291e-04 0.0 
-9.237180799291e-04 -2.214003615239e-03 0.0 
0.0 0.0 0.0 
2.589372046276e-03 -1.054376697630e-03 0.0 
-1.054376697630e-03 -6.437752890143e-05 0.0 
0.0 0.0 0.0 
-1.126211246950e-03 2.083621496082e-03 0.0 
2.083621496082e-03 1.350925525705e-02 0.0 
0.0 0.0 0.0 
2.387674959303e-03 -7.067759216757e-04 0.0 
-7.067759216757e-04 5.981278832501e-04 0.0 
0.0 0.0 0.0 
1.961460521444e-03 4.161618953454e-03 0.0 
4.161618953454e-03 2.220411096139e-03 0.0 
0.0 0.0 0.0 
1.689611287518e-03 4.207267439903e-03 0.0 
4.207267439903e-03 2.942218754664e-03 0.0 
0.0 0.0 0.0 
-1.777597839624e-03 3.504292274082e-03 0.0 
3.504292274082e-03 1.117875064886e-03 0.0 
0.0 0.0 0.0 
3.214444105543e-03 -5.226862248884e-04 0.0 
-5.226862248884e-04 -4.596707460939e-03 0.0 
0.0 0.0 0.0 
9.563038688138e-04 3.944731002156e-03 0.0 
3.944731002156e-03 5.710477730509e-03 0.0 
0.0 0.0 0.0 
-2.507497068700e-03 2.208382078124e-03 0.0 
2.208382078124e-03 1.207370447081e-02 0.0 
0.0 0.0 0.0 
1.052136144752e-03 3.894017565120e-03 0.0 
3.894017565120e-03 5.325262478901e-03 0.0 
0.0 0.0 0.0 
2.995178989830e-03 3.877719204352e-03 0.0 
3.877719204352e-03 -1.157270556859e-03 0.0 
0.0 0.0 0.0 
-1.404381385075e-03 3.094002839798e-03 0.0 
3.094002839798e-03 1.166812409808e-02 0.0 
0.0 0.0 0.0 
5.765939411586e-04 4.063603399063e-03 0.0 
4.063603399063e-03 6.675775244934e-03 0.0 
0.0 0.0 0.0 
-2.643845513972e-03 1.696927669013e-03 0.0 
1.696927669013e-03 1.122379450894e-02 0.0 
0.0 0.0 0.0 
8.381056375586e-04 3.984914809091e-03 0.0 
3.984914809091e-03 5.704372402216e-03 0.0 
0.0 0.0 0.0 
1.034577229515e-04 -8.217838475315e-04 0.0 
-8.217838475315e-04 3.634739041083e-03 0.0 
0.0 0.0 0.0 
1.416943657914e-03 4.161597107166e-03 0.0 
4.161597107166e-03 3.702282598250e-03 0.0 
0.0 0.0 0.0 
6.521999375719e-04 -1.880222774074e-03 0.0 
-1.880222774074e-03 1.574155669747e-03 0.0 
0.0 0.0 0.0 
6.876341287214e-04 -1.848359837480e-03 0.0 
-1.848359837480e-03 1.291756803981e-03 0.0 
0.0 0.0 0.0 
-1.241495208513e-03 2.899562402665e-03 0.0 
2.899562402665e-03 1.285224103807e-02 0.0 
0.0 0.0 0.0 
2.694642316968e-03 -1.298509558634e-03 0.0 
-1.298509558634e-03 -5.782479447575e-04 0.0 
0.0 0.0 0.0 
5.614250738994e-04 4.410035528217e-03 0.0 
4.410035528217e-03 5.018087488385e-03 0.0 
0.0 0.0 0.0 
3.842617486329e-03 2.958764059390e-03 0.0 
2.958764059390e-03 -8.774507019413e-04 0.0 
0.0 0.0 0.0 
2.090473773805e-03 -3.839306308004e-04 0.0 
-3.839306308004e-04 1.292061915252e-03 0.0 
0.0 0.0 0.0 
3.343793848620e-03 3.472798133076e-03 0.0 
3.472798133076e-03 2.088196024530e-04 0.0 
0.0 0.0 0.0 
4.950634224674e-03 5.121393982422e-04 0.0 
5.121393982422e-04 -3.792504962469e-03 0.0 
0.0 0.0 0.0 
4.088136210010e-03 2.223018615924e-04 0.0 
2.223018615924e-04 -1.783955252225e-03 0.0 
0.0 0.0 0.0 
5.031805317530e-03 1.355309361649e-03 0.0 
1.355309361649e-03 -3.567880275026e-03 0.0 
0.0 0.0 0.0 
-8.836152639803e-04 3.972752977894e-03 0.0 
3.972752977894e-03 8.578571919534e-03 0.0 
0.0 0.0 0.0 
4.925803018643e-03 4.492868206834e-04 0.0 
4.492868206834e-04 -3.426503956701e-03 0.0 
0.0 0.0 0.0 
-4.821905614779e-04 4.257840062655e-03 0.0 
4.257840062655e-03 7.696854673456e-03 0.0 
0.0 0.0 0.0 
2.159919923579e-03 2.211690430483e-03 0.0 
2.211690430483e-03 2.471201516271e-03 0.0 
0.0 0.0 0.0 
2.501004875873e-03 2.041567004472e-03 0.0 
2.041567004472e-03 1.688151751132e-03 0.0 
0.0 0.0 0.0 
3.613046241920e-03 3.453042564945e-03 0.0 
3.453042564945e-03 -8.446265128091e-04 0.0 
0.0 0.0 0.0 
-2.170936853843e-03 1.887332737878e-03 0.0 
1.887332737878e-03 1.240720289318e-02 0.0 
0.0 0.0 0.0 
9.341758026937e-05 -6.746704221410e-04 0.0 
-6.746704221410e-04 4.091966540329e-03 0.0 
0.0 0.0 0.0 
-8.489853283655e-05 -7.077914730383e-04 0.0 
-7.077914730383e-04 4.098436580226e-03 0.0 
0.0 0.0 0.0 
1.450534280132e-03 3.524153928624e-03 0.0 
3.524153928624e-03 -1.332625416336e-03 0.0 
0.0 0.0 0.0 
-2.027433092717e-04 4.229890121611e-03 0.0 
4.229890121611e-03 7.021209342988e-03 0.0 
0.0 0.0 0.0 
-9.009900320711e-05 -4.678027256414e-04 0.0 
-4.678027256414e-04 4.921778235699e-03 0.0 
0.0 0.0 0.0 
-1.224219187082e-03 3.815651610884e-03 0.0 
3.815651610884e-03 6.319417776188e-03 0.0 
0.0 0.0 0.0 
-2.314636486538e-04 -1.444401567015e-03 0.0 
-1.444401567015e-03 2.653260429697e-03 0.0 
0.0 0.0 0.0 
-1.893374471145e-03 3.475503225309e-03 0.0 
3.475503225309e-03 1.665134931425e-03 0.0 
0.0 0.0 0.0 
-8.498334480911e-05 -5.707224679961e-04 0.0 
-5.707224679961e-04 4.505554453060e-03 0.0 
0.0 0.0 0.0 
4.783979040933e-03 1.427525298904e-03 0.0 
1.427525298904e-03 -3.771578797726e-03 0.0 
0.0 0.0 0.0 
-1.067846272579e-03 -4.154256999696e-04 0.0 
-4.154256999696e-04 3.919806184956e-03 0.0 
0.0 0.0 0.0 
2.624453219733e-03 3.094422954699e-03 0.0 
3.094422954699e-03 1.695459927645e-03 0.0 
0.0 0.0 0.0 
-2.411919944447e-03 2.041388000692e-03 0.0 
2.041388000692e-03 1.238821366664e-02 0.0 
0.0 0.0 0.0 
-2.309494760873e-03 2.011694919918e-03 0.0 
2.011694919918e-03 1.209847813491e-02 0.0 
0.0 0.0 0.0 
1.477459130633e-03 4.291760085315e-03 0.0 
4.291760085315e-03 3.259845526125e-03 0.0 
0.0 0.0 0.0 
-2.891127486095e-03 2.165287830692e-03 0.0 
2.165287830692e-03 1.040428585283e-02 0.0 
0.0 0.0 0.0 
-2.880454227992e-03 1.899115495160e-03 0.0 
1.899115495160e-03 1.074204829147e-02 0.0 
0.0 0.0 0.0 
-2.244320825343e-04 -5.996549876614e-04 0.0 
-5.996549876614e-04 4.511242905936e-03 0.0 
0.0 0.0 0.0 
2.414919477512e-03 -8.969706025456e-04 0.0 
-8.969706025456e-04 -1.633563712711e-05 0.0 
0.0 0.0 0.0 
3.557977707322e-03 -7.044553873326e-04 0.0 
-7.044553873326e-04 -1.711289770237e-03 0.0 
0.0 0.0 0.0 
2.919375309936e-03 4.058379211113e-04 0.0 
4.058379211113e-04 3.646307712200e-04 0.0 
0.0 0.0 0.0 
4.487690542353e-03 1.373814224947e-04 0.0 
1.373814224947e-04 -2.337586668248e-03 0.0 
0.0 0.0 0.0 
4.769422948237e-03 1.298676512042e-03 0.0 
1.298676512042e-03 -3.169714678663e-03 0.0 
0.0 0.0 0.0 
-2.468803082388e-03 1.490244330628e-03 0.0 
1.490244330628e-03 1.055301728775e-02 0.0 
0.0 0.0 0.0 
-2.691074127720e-03 1.977530554288e-03 0.0 
1.977530554288e-03 1.194075246625e-02 0.0 
0.0 0.0 0.0 
-1.746804617041e-03 3.474056353668e-05 0.0 
3.474056353668e-05 1.190988209197e-02 0.0 
0.0 0.0 0.0 
2.486361441329e-03 1.810469424032e-03 0.0 
1.810469424032e-03 1.720959246730e-03 0.0 
0.0 0.0 0.0 
3.940841662913e-03 3.112450731248e-03 0.0 
3.112450731248e-03 -7.969884439768e-04 0.0 
0.0 0.0 0.0 
1.332470263566e-03 2.822215664938e-03 0.0 
2.822215664938e-03 3.984214339637e-03 0.0 
0.0 0.0 0.0 
-5.471278642752e-04 -2.507227404900e-04 0.0 
-2.507227404900e-04 5.053015502003e-03 0.0 
0.0 0.0 0.0 
4.319774350853e-03 2.677197702738e-04 0.0 
2.677197702738e-04 -2.145138364301e-03 0.0 
0.0 0.0 0.0 
-3.770879513898e-05 -5.225072675485e-04 0.0 
-5.225072675485e-04 4.957266208281e-03 0.0 
0.0 0.0 0.0 
4.848901269418e-03 -3.063704628518e-04 0.0 
-3.063704628518e-04 -3.453166533019e-03 0.0 
0.0 0.0 0.0 
1.435940030236e-03 3.081373767607e-03 0.0 
3.081373767607e-03 3.998024642653e-03 0.0 
0.0 0.0 0.0 
1.711548103442e-03 4.163982645591e-03 0.0 
4.163982645591e-03 3.277746604458e-03 0.0 
0.0 0.0 0.0 
1.768551422632e-03 3.904770239762e-03 0.0 
3.904770239762e-03 3.195968783389e-03 0.0 
0.0 0.0 0.0 
1.824887891680e-03 6.099301989459e-04 0.0 
6.099301989459e-04 2.065166280676e-03 0.0 
0.0 0.0 0.0 
1.054016280232e-03 -2.544878912839e-03 0.0 
-2.544878912839e-03 8.488962618802e-05 0.0 
0.0 0.0 0.0 
1.499371037590e-04 4.355320045327e-03 0.0 
4.355320045327e-03 6.044536789382e-03 0.0 
0.0 0.0 0.0 
4.123273660266e-03 -3.408095625547e-04 0.0 
-3.408095625547e-04 -2.262632488051e-03 0.0 
0.0 0.0 0.0 
-1.402973557337e-04 4.380436555306e-03 0.0 
4.380436555306e-03 6.758124384369e-03 0.0 
0.0 0.0 0.0 
2.912019101819e-03 3.740226026129e-03 0.0 
3.740226026129e-03 -2.803486604733e-04 0.0 
0.0 0.0 0.0 
2.045847638392e-03 3.642382824348e-03 0.0 
3.642382824348e-03 2.830398038467e-03 0.0 
0.0 0.0 0.0 
4.268272880713e-03 -4.887039584189e-04 0.0 
-4.887039584189e-04 -2.286627354603e-03 0.0 
0.0 0.0 0.0 
3.517163682680e-04 -1.479999448685e-03 0.0 
-1.479999448685e-03 2.455810772223e-03 0.0 
0.0 0.0 0.0 
-3.073778626975e-04 4.303905487526e-03 0.0 
4.303905487526e-03 6.769094626007e-03 0.0 
0.0 0.0 0.0 
-1.091060578112e-03 4.198096972156e-03 0.0 
4.198096972156e-03 -5.859685649796e-04 0.0 
0.0 0.0 0.0 
3.459932935551e-03 2.951404261381e-03 0.0 
2.951404261381e-03 -1.280316266159e-04 0.0 
0.0 0.0 0.0 
-9.388007329157e-04 3.825101047364e-03 0.0 
3.825101047364e-03 1.238078155827e-03 0.0 
0.0 0.0 0.0 
6.385971092393e-05 -8.166940279149e-04 0.0 
-8.166940279149e-04 9.816147550821e-04 0.0 
0.0 0.0 0.0 
2.865804697882e-05 -1.492735143618e-03 0.0 
-1.492735143618e-03 2.659730630330e-03 0.0 
0.0 0.0 0.0 
5.387550142455e-05 4.135623484105e-03 0.0 
4.135623484105e-03 7.644587861172e-03 0.0 
0.0 0.0 0.0 
-2.176496428478e-03 2.371064124179e-03 0.0 
2.371064124179e-03 1.184112048704e-02 0.0 
0.0 0.0 0.0 
-2.768066731020e-03 2.900771926708e-03 0.0 
2.900771926708e-03 9.409062419412e-03 0.0 
0.0 0.0 0.0 
0.0 2.594879151851e-03 0.0 
2.594879151851e-03 1.361152505630e-02 0.0 
0.0 0.0 0.0 
-2.220298220036e-03 3.946309874022e-03 0.0 
3.946309874022e-03 4.441142666471e-04 0.0 
0.0 0.0 0.0 
-2.838381675990e-03 2.471914150129e-03 0.0 
2.471914150129e-03 9.974327189502e-03 0.0 
0.0 0.0 0.0 
3.444576583088e-03 -6.545832105877e-04 0.0 
-6.545832105877e-04 -1.319439129567e-03 0.0 
0.0 0.0 0.0 
-4.962170853069e-04 -1.358492511956e-03 0.0 
-1.358492511956e-03 2.843388271905e-03 0.0 
0.0 0.0 0.0 
-2.418587133338e-03 3.228053286262e-03 0.0 
3.228053286262e-03 9.678365479111e-03 0.0 
0.0 0.0 0.0 
4.067687879225e-03 -1.505325336067e-03 0.0 
-1.505325336067e-03 -2.680207563334e-03 0.0 
0.0 0.0 0.0 
2.646696001573e-03 -1.221562147917e-03 0.0 
-1.221562147917e-03 -6.951513860298e-04 0.0 
0.0 0.0 0.0 
1.256946697871e-03 4.258938767382e-03 0.0 
4.258938767382e-03 4.325939884721e-03 0.0 
0.0 0.0 0.0 
3.062299231667e-03 2.802943478242e-03 0.0 
2.802943478242e-03 7.904507269187e-04 0.0 
0.0 0.0 0.0 
-5.882841280982e-04 3.911972887924e-03 0.0 
3.911972887924e-03 9.719296342150e-03 0.0 
0.0 0.0 0.0 
2.533805085770e-03 3.777732284202e-03 0.0 
3.777732284202e-03 -2.833771380112e-03 0.0 
0.0 0.0 0.0 
-2.041888700133e-05 -1.677389169015e-03 0.0 
-1.677389169015e-03 2.385580563603e-03 0.0 
0.0 0.0 0.0 
-4.810611943138e-04 -1.203181085114e-03 0.0 
-1.203181085114e-03 3.273409514956e-03 0.0 
0.0 0.0 0.0 
1.902951802806e-04 -2.270758730817e-03 0.0 
-2.270758730817e-03 8.929488334692e-04 0.0 
0.0 0.0 0.0 
-2.648418142589e-03 1.588897059109e-03 0.0 
1.588897059109e-03 1.156229357572e-02 0.0 
0.0 0.0 0.0 
-2.349421474292e-03 2.574225928524e-03 0.0 
2.574225928524e-03 1.181348721915e-02 0.0 
0.0 0.0 0.0 
-8.039855213854e-04 -1.229282302320e-04 0.0 
-1.229282302320e-04 4.694177623660e-03 0.0 
0.0 0.0 0.0 
1.328986787146e-03 -3.232801765298e-04 0.0 
-3.232801765298e-04 1.722082147169e-04 0.0 
0.0 0.0 0.0 
9.658920773892e-05 -6.751797476570e-04 0.0 
-6.751797476570e-04 -4.489177974400e-03 0.0 
0.0 0.0 0.0 
1.486435971376e-05 -1.883256923905e-03 0.0 
-1.883256923905e-03 9.333622253780e-04 0.0 
0.0 0.0 0.0 
-6.733607183802e-04 -1.106466994287e-03 0.0 
-1.106466994287e-03 3.258889895943e-03 0.0 
0.0 0.0 0.0 
4.828568587283e-03 -1.685844637920e-04 0.0 
-1.685844637920e-04 -3.133721690584e-03 0.0 
0.0 0.0 0.0 
4.040113496694e-03 -1.658405248386e-03 0.0 
-1.658405248386e-03 -3.078518343178e-03 0.0 
0.0 0.0 0.0 
4.677512074112e-03 -4.560418429831e-04 0.0 
-4.560418429831e-04 -3.646217470038e-03 0.0 
0.0 0.0 0.0 
-2.116083300814e-04 -1.270072268296e-03 0.0 
-1.270072268296e-03 3.127522804087e-03 0.0 
0.0 0.0 0.0 
-1.747817206428e-03 3.067476269806e-03 0.0 
3.067476269806e-03 1.107921597914e-02 0.0 
0.0 0.0 0.0 
-6.411968672371e-04 -9.571983746737e-04 0.0 
-9.571983746737e-04 3.633620630182e-03 0.0 
0.0 0.0 0.0 
5.094611842911e-03 5.799109037473e-04 0.0 
5.799109037473e-04 -3.257803661585e-03 0.0 
0.0 0.0 0.0 
-1.925177373474e-05 4.278352769040e-03 0.0 
4.278352769040e-03 7.014125750523e-03 0.0 
0.0 0.0 0.0 
-2.180514510442e-03 7.329768529181e-04 0.0 
7.329768529181e-04 1.246235696877e-02 0.0 
0.0 0.0 0.0 
2.255211186703e-03 3.030253265042e-03 0.0 
3.030253265042e-03 2.487938266895e-03 0.0 
0.0 0.0 0.0 
-8.032854460887e-04 -8.549621094787e-04 0.0 
-8.549621094787e-04 3.617658329695e-03 0.0 
0.0 0.0 0.0 
-4.415062766016e-04 -1.207492364906e-03 0.0 
-1.207492364906e-03 3.118321349093e-03 0.0 
0.0 0.0 0.0 
-2.082171053314e-03 3.322559121705e-03 0.0 
3.322559121705e-03 7.611867841411e-03 0.0 
0.0 0.0 0.0 
4.483270467589e-03 -7.309177431937e-04 0.0 
-7.309177431937e-04 -2.933214469607e-03 0.0 
0.0 0.0 0.0 
-7.607754501480e-04 -7.136684131640e-04 0.0 
-7.136684131640e-04 3.945707111274e-03 0.0 
0.0 0.0 0.0 
-1.464278000542e-03 7.993823949703e-05 0.0 
7.993823949703e-05 1.324725533519e-02 0.0 
0.0 0.0 0.0 
-1.581423369856e-03 6.548920648258e-05 0.0 
6.548920648258e-05 1.293319076573e-02 0.0 
0.0 0.0 0.0 
-2.375765328191e-03 3.313519607173e-03 0.0 
3.313519607173e-03 8.596717950203e-03 0.0 
0.0 0.0 0.0 
-4.075014817227e-04 -1.040772536939e-03 0.0 
-1.040772536939e-03 3.540700756970e-03 0.0 
0.0 0.0 0.0 
2.897365322498e-03 -2.431671130692e-03 0.0 
-2.431671130692e-03 -2.187682601315e-03 0.0 
0.0 0.0 0.0 
3.609260477910e-05 4.123983449130e-03 0.0 
4.123983449130e-03 8.028783852532e-04 0.0 
0.0 0.0 0.0 
1.439092078933e-03 2.922997723975e-03 0.0 
2.922997723975e-03 4.033766518036e-03 0.0 
0.0 0.0 0.0 
-1.010876755917e-04 -2.163258375753e-03 0.0 
-2.163258375753e-03 8.110099767999e-04 0.0 
0.0 0.0 0.0 
2.876742734836e-03 -2.231271193588e-03 0.0 
-2.231271193588e-03 -1.531648201141e-03 0.0 
0.0 0.0 0.0 
3.466131822894e-03 3.055178800221e-03 0.0 
3.055178800221e-03 1.659681746413e-04 0.0 
0.0 0.0 0.0 
-2.468763751976e-03 2.113092001061e-03 0.0 
2.113092001061e-03 9.642220725361e-03 0.0 
0.0 0.0 0.0 
-8.935812223339e-04 -6.111330277884e-04 0.0 
-6.111330277884e-04 3.922261545197e-03 0.0 
0.0 0.0 0.0 
-7.563187378801e-04 -6.378808678439e-05 0.0 
-6.378808678439e-05 2.419075448345e-03 0.0 
0.0 0.0 0.0 
-2.845407450701e-03 1.670078993742e-03 0.0 
1.670078993742e-03 1.184312491106e-02 0.0 
0.0 0.0 0.0 
-6.036353788005e-04 -9.718125519061e-04 0.0 
-9.718125519061e-04 3.530150847265e-03 0.0 
0.0 0.0 0.0 
3.215651657299e-03 -1.192983813823e-03 0.0 
-1.192983813823e-03 -1.596387142788e-03 0.0 
0.0 0.0 0.0 
2.850268853050e-05 -1.670569426338e-03 0.0 
-1.670569426338e-03 2.138245941541e-03 0.0 
0.0 0.0 0.0 
-1.052432666686e-04 2.893491529044e-03 0.0 
2.893491529044e-03 -2.340111181968e-03 0.0 
0.0 0.0 0.0 
-9.541326039678e-04 9.605902547223e-05 0.0 
9.605902547223e-05 1.407680139095e-02 0.0 
0.0 0.0 0.0 
3.473583062892e-03 -1.728310577037e-03 0.0 
-1.728310577037e-03 -2.369000580565e-03 0.0 
0.0 0.0 0.0 
2.103062928839e-03 1.497110676281e-03 0.0 
1.497110676281e-03 2.176508543149e-03 0.0 
0.0 0.0 0.0 
2.010155341442e-03 3.756099532285e-03 0.0 
3.756099532285e-03 3.221432588831e-03 0.0 
0.0 0.0 0.0 
-5.616394373293e-04 -8.161665453042e-04 0.0 
-8.161665453042e-04 3.902025232567e-03 0.0 
0.0 0.0 0.0 
-7.245035695134e-04 -7.404546911346e-04 0.0 
-7.404546911346e-04 3.890207272641e-03 0.0 
0.0 0.0 0.0 
4.927263923237e-03 -2.178644480678e-04 0.0 
-2.178644480678e-04 -3.363066527495e-03 0.0 
0.0 0.0 0.0 
-6.029572831477e-04 -1.931974745320e-03 0.0 
-1.931974745320e-03 8.307433310917e-04 0.0 
0.0 0.0 0.0 
4.572374141427e-04 3.900447128089e-03 0.0 
3.900447128089e-03 -2.544924674986e-03 0.0 
0.0 0.0 0.0 
-6.792185847038e-04 -5.996004061246e-04 0.0 
-5.996004061246e-04 4.221180913870e-03 0.0 
0.0 0.0 0.0 
1.993016496858e-03 8.351397844387e-04 0.0 
8.351397844387e-04 2.073208121603e-03 0.0 
0.0 0.0 0.0 
1.780477169942e-03 -2.650618147484e-03 0.0 
-2.650618147484e-03 -9.359581748755e-04 0.0 
0.0 0.0 0.0 
2.206851553141e-04 4.232291290479e-03 0.0 
4.232291290479e-03 6.373300211239e-03 0.0 
0.0 0.0 0.0 
-8.746785804650e-04 3.852340463508e-03 0.0 
3.852340463508e-03 5.450261897175e-03 0.0 
0.0 0.0 0.0 
-3.577563455714e-04 4.163013400682e-03 0.0 
4.163013400682e-03 7.919847743336e-03 0.0 
0.0 0.0 0.0 
7.401677831835e-04 5.823463803287e-05 0.0 
5.823463803287e-05 4.029012368700e-03 0.0 
0.0 0.0 0.0 
-5.462820389501e-03 -6.189939430254e-05 0.0 
-6.189939430254e-05 -2.470299056663e-03 0.0 
0.0 0.0 0.0 
0.0 2.598660324546e-04 0.0 
2.598660324546e-04 1.462569277722e-02 0.0 
0.0 0.0 0.0 
0.0 -1.773227356043e-04 0.0 
-1.773227356043e-04 5.999288766207e-03 0.0 
0.0 0.0 0.0 
-1.682244945559e-03 -2.576595675228e-05 0.0 
-2.576595675228e-05 1.233519775920e-02 0.0 
0.0 0.0 0.0 
2.372691971275e-03 -2.231798719268e-03 0.0 
-2.231798719268e-03 -1.245364125639e-03 0.0 
0.0 0.0 0.0 
1.691936536776e-03 4.031290177502e-03 0.0 
4.031290177502e-03 3.721937568963e-03 0.0 
0.0 0.0 0.0 
5.005822082206e-03 5.285511718877e-04 0.0 
5.285511718877e-04 -3.214429107684e-03 0.0 
0.0 0.0 0.0 
3.915318997114e-04 -6.646522413537e-04 0.0 
-6.646522413537e-04 7.517120385110e-04 0.0 
0.0 0.0 0.0 
-2.199961934318e-03 3.778656996864e-03 0.0 
3.778656996864e-03 1.119403962992e-03 0.0 
0.0 0.0 0.0 
-8.566046169159e-04 7.876576190413e-04 0.0 
7.876576190413e-04 1.420884189096e-02 0.0 
0.0 0.0 0.0 
-2.131144644180e-03 2.935257568137e-03 0.0 
2.935257568137e-03 1.146598076564e-02 0.0 
0.0 0.0 0.0 
-2.889489966274e-03 1.465291157357e-03 0.0 
1.465291157357e-03 1.160716936509e-02 0.0 
0.0 0.0 0.0 
3.226223959252e-04 4.428740992570e-03 0.0 
4.428740992570e-03 7.316449542197e-03 0.0 
0.0 0.0 0.0 
-3.789474363541e-04 -2.778634180500e-05 0.0 
-2.778634180500e-05 1.976485621559e-03 0.0 
0.0 0.0 0.0 
3.654605917531e-04 4.179981117894e-03 0.0 
4.179981117894e-03 6.791076897356e-03 0.0 
0.0 0.0 0.0 
-1.990675305943e-03 2.740177614205e-03 0.0 
2.740177614205e-03 1.149825350361e-02 0.0 
0.0 0.0 0.0 
1.504875763523e-03 -2.473250049516e-03 0.0 
-2.473250049516e-03 -3.496590129269e-04 0.0 
0.0 0.0 0.0 
1.891771645713e-03 4.081026737828e-03 0.0 
4.081026737828e-03 2.645775175084e-03 0.0 
0.0 0.0 0.0 
2.326950655475e-03 -2.260414656210e-03 0.0 
-2.260414656210e-03 -8.913946423108e-04 0.0 
0.0 0.0 0.0 
-2.510225266816e-05 4.040894387421e-03 0.0 
4.040894387421e-03 1.518921110993e-03 0.0 
0.0 0.0 0.0 
1.793759399943e-03 -2.471303587472e-03 0.0 
-2.471303587472e-03 -4.368181240372e-04 0.0 
0.0 0.0 0.0 
-1.461182450079e-03 3.365140966294e-03 0.0 
3.365140966294e-03 1.059021560218e-02 0.0 
0.0 0.0 0.0 
-4.860171642009e-04 -3.240221392697e-04 0.0 
-3.240221392697e-04 5.119400833263e-03 0.0 
0.0 0.0 0.0 
3.515401421842e-03 -1.843179226815e-03 0.0 
-1.843179226815e-03 -2.066245281771e-03 0.0 
0.0 0.0 0.0 
-8.774315722071e-05 4.150089766194e-03 0.0 
4.150089766194e-03 7.309239689973e-03 0.0 
0.0 0.0 0.0 
-2.104645211340e-03 -2.102413425247e-04 0.0 
-2.102413425247e-04 -4.204540648489e-03 0.0 
0.0 0.0 0.0 
4.585212765215e-03 -8.366318272346e-04 0.0 
-8.366318272346e-04 -2.953308956072e-03 0.0 
0.0 0.0 0.0 
-1.819949643072e-03 2.920568795833e-03 0.0 
2.920568795833e-03 1.199913459391e-02 0.0 
0.0 0.0 0.0 
9.231925295781e-04 -2.499106954020e-03 0.0 
-2.499106954020e-03 5.162369420866e-04 0.0 
0.0 0.0 0.0 
1.254783288350e-03 -2.753275224099e-03 0.0 
-2.753275224099e-03 -4.140739862104e-04 0.0 
0.0 0.0 0.0 
2.145856818863e-03 3.913867606524e-03 0.0 
3.913867606524e-03 2.671467559311e-03 0.0 
0.0 0.0 0.0 
2.217593273949e-03 -3.090853226033e-03 0.0 
-3.090853226033e-03 -1.977042953639e-03 0.0 
0.0 0.0 0.0 
-1.773108291153e-03 3.281962206532e-03 0.0 
3.281962206532e-03 6.047164642782e-03 0.0 
0.0 0.0 0.0 
-1.914511322274e-03 3.452327724060e-03 0.0 
3.452327724060e-03 6.797734606049e-03 0.0 
0.0 0.0 0.0 
7.797935033909e-04 -2.550114325493e-03 0.0 
-2.550114325493e-03 4.959768758099e-04 0.0 
0.0 0.0 0.0 
3.116264680363e-03 -1.012189794076e-03 0.0 
-1.012189794076e-03 -1.249482763917e-03 0.0 
0.0 0.0 0.0 
3.500267362121e-03 3.367821613137e-03 0.0 
3.367821613137e-03 -4.383087889956e-04 0.0 
0.0 0.0 0.0 
3.693386791448e-05 4.176258528105e-03 0.0 
4.176258528105e-03 7.305847101125e-03 0.0 
0.0 0.0 0.0 
-5.422929427188e-04 3.790208243052e-03 0.0 
3.790208243052e-03 1.095157599034e-02 0.0 
0.0 0.0 0.0 
-1.945602229642e-03 3.025721786767e-03 0.0 
3.025721786767e-03 7.672366710393e-03 0.0 
0.0 0.0 0.0 
-1.320587550496e-03 6.121026493838e-05 0.0 
6.121026493838e-05 1.355378699087e-02 0.0 
0.0 0.0 0.0 
8.950445589351e-05 4.182662718952e-03 0.0 
4.182662718952e-03 8.381972992941e-03 0.0 
0.0 0.0 0.0 
5.098173160740e-03 5.237985410587e-04 0.0 
5.237985410587e-04 -3.585057511354e-03 0.0 
0.0 0.0 0.0 
-7.614373926973e-04 3.927244470026e-03 0.0 
3.927244470026e-03 1.241725598496e-03 0.0 
0.0 0.0 0.0 
-1.175166643519e-03 4.033567457599e-03 0.0 
4.033567457599e-03 6.280333599374e-03 0.0 
0.0 0.0 0.0 
2.784719608418e-03 -1.411172958293e-03 0.0 
-1.411172958293e-03 -1.127813834196e-03 0.0 
0.0 0.0 0.0 
-6.866647460276e-04 3.965597557928e-03 0.0 
3.965597557928e-03 8.765723496641e-03 0.0 
0.0 0.0 0.0 
3.170281930513e-03 -1.085364557176e-03 0.0 
-1.085364557176e-03 -1.179467939389e-03 0.0 
0.0 0.0 0.0 
1.605327000069e-03 3.350698252260e-03 0.0 
3.350698252260e-03 -2.267791462617e-03 0.0 
0.0 0.0 0.0 
2.862734345366e-03 -7.899850441544e-04 0.0 
-7.899850441544e-04 -6.604084995631e-04 0.0 
0.0 0.0 0.0 
-1.598104911569e-04 4.013356369193e-03 0.0 
4.013356369193e-03 2.233281549707e-03 0.0 
0.0 0.0 0.0 
3.755277059362e-03 3.055979242598e-03 0.0 
3.055979242598e-03 -3.950789368371e-04 0.0 
0.0 0.0 0.0 
3.009645344539e-03 -9.137549487268e-04 0.0 
-9.137549487268e-04 -7.447553512474e-04 0.0 
0.0 0.0 0.0 
2.218450018789e-03 3.804144838149e-03 0.0 
3.804144838149e-03 2.187748475727e-03 0.0 
0.0 0.0 0.0 
-1.580524283996e-03 2.297091121584e-04 0.0 
2.297091121584e-04 1.317790227693e-02 0.0 
0.0 0.0 0.0 
5.226364941937e-04 -2.523596988588e-03 0.0 
-2.523596988588e-03 4.935539466921e-04 0.0 
0.0 0.0 0.0 
1.815539103052e-04 4.182956349875e-03 0.0 
4.182956349875e-03 4.743724269596e-05 0.0 
0.0 0.0 0.0 
2.834868655448e-03 -6.029938687027e-04 0.0 
-6.029938687027e-04 -6.270259294827e-05 0.0 
0.0 0.0 0.0 
-2.712391723506e-04 3.956018617624e-03 0.0 
3.956018617624e-03 2.963067611879e-03 0.0 
0.0 0.0 0.0 
2.672402150150e-04 1.029608666193e-03 0.0 
1.029608666193e-03 -4.667704239502e-03 0.0 
0.0 0.0 0.0 
-6.185965022296e-04 1.436395568978e-04 0.0 
1.436395568978e-04 1.430749100039e-02 0.0 
0.0 0.0 0.0 
-8.957167314760e-04 1.230903337059e-04 0.0 
1.230903337059e-04 1.407784834854e-02 0.0 
0.0 0.0 0.0 
-4.709295506066e-04 -6.836374854217e-04 0.0 
-6.836374854217e-04 6.112224467361e-04 0.0 
0.0 0.0 0.0 
2.582918455866e-03 -4.117636763627e-04 0.0 
-4.117636763627e-04 1.228626331495e-04 0.0 
0.0 0.0 0.0 
1.014450331513e-04 -2.139002769556e-03 0.0 
-2.139002769556e-03 9.044577247739e-04 0.0 
0.0 0.0 0.0 
-3.322875616207e-05 -2.124360645665e-03 0.0 
-2.124360645665e-03 1.205327592490e-03 0.0 
0.0 0.0 0.0 
-6.652387224748e-06 4.123234701070e-03 0.0 
4.123234701070e-03 7.645441594927e-03 0.0 
0.0 0.0 0.0 
2.486564887697e-03 3.579343588265e-03 0.0 
3.579343588265e-03 2.217029362818e-03 0.0 
0.0 0.0 0.0 
2.698779665800e-04 4.155753008421e-03 0.0 
4.155753008421e-03 6.736264469728e-03 0.0 
0.0 0.0 0.0 
4.050650088275e-03 -1.450744562421e-03 0.0 
-1.450744562421e-03 -2.835809728300e-03 0.0 
0.0 0.0 0.0 
-1.836148468212e-03 1.048828242966e-04 0.0 
1.048828242966e-04 1.191914573850e-02 0.0 
0.0 0.0 0.0 
3.014777340644e-04 -1.478009720365e-04 0.0 
-1.478009720365e-04 4.236674514468e-03 0.0 
0.0 0.0 0.0 
-1.450547017980e-04 -1.917736439040e-03 0.0 
-1.917736439040e-03 1.133848031981e-03 0.0 
0.0 0.0 0.0 
2.246198365941e-03 1.531194785430e-03 0.0 
1.531194785430e-03 1.863076264613e-03 0.0 
0.0 0.0 0.0 
3.154469520084e-03 3.447591075520e-03 0.0 
3.447591075520e-03 6.358115532878e-04 0.0 
0.0 0.0 0.0 
3.846409848962e-05 -3.817881809349e-04 0.0 
-3.817881809349e-04 1.371971475898e-03 0.0 
0.0 0.0 0.0 
-1.050778976146e-03 3.786568238254e-03 0.0 
3.786568238254e-03 9.354540804437e-03 0.0 
0.0 0.0 0.0 
4.880075727305e-03 -1.004764134868e-04 0.0 
-1.004764134868e-04 -3.044932644462e-03 0.0 
0.0 0.0 0.0 
-5.244039265968e-04 -1.974795355342e-03 0.0 
-1.974795355342e-03 8.561679706505e-04 0.0 
0.0 0.0 0.0 
4.541456400989e-03 -9.775513107321e-04 0.0 
-9.775513107321e-04 -3.180255885273e-03 0.0 
0.0 0.0 0.0 
-8.695684232772e-04 -4.216545908600e-05 0.0 
-4.216545908600e-05 4.601870606405e-03 0.0 
0.0 0.0 0.0 
-1.526945674791e-03 3.537585374917e-03 0.0 
3.537585374917e-03 1.055077966200e-02 0.0 
0.0 0.0 0.0 
6.605909457891e-06 -2.164788134107e-03 0.0 
-2.164788134107e-03 6.234339446967e-04 0.0 
0.0 0.0 0.0 
-1.165360510702e-03 -2.891085318022e-04 0.0 
-2.891085318022e-04 3.893699400966e-03 0.0 
0.0 0.0 0.0 
-3.378659889858e-04 4.074573006607e-03 0.0 
4.074573006607e-03 8.192092756065e-03 0.0 
0.0 0.0 0.0 
1.933867750734e-03 3.128627549755e-03 0.0 
3.128627549755e-03 3.374682741890e-03 0.0 
0.0 0.0 0.0 
1.290197796963e-03 -2.574357841920e-03 0.0 
-2.574357841920e-03 2.937745290787e-05 0.0 
0.0 0.0 0.0 
-8.289594543562e-04 -3.238505430834e-04 0.0 
-3.238505430834e-04 2.413329085649e-03 0.0 
0.0 0.0 0.0 
3.264667474674e-03 3.354637483720e-03 0.0 
3.354637483720e-03 1.255725929041e-04 0.0 
0.0 0.0 0.0 
-1.522883276197e-03 -2.298718687660e-05 0.0 
-2.298718687660e-05 1.306675444157e-02 0.0 
0.0 0.0 0.0 
-3.065209162897e-04 -2.735650576527e-03 0.0 
-2.735650576527e-03 6.541232299959e-04 0.0 
0.0 0.0 0.0 
1.522680995871e-04 4.504047135898e-03 0.0 
4.504047135898e-03 8.297398207584e-03 0.0 
0.0 0.0 0.0 
-3.824857436507e-04 3.581314240614e-03 0.0 
3.581314240614e-03 1.198394018069e-02 0.0 
0.0 0.0 0.0 
-1.645295564861e-03 1.339186264238e-05 0.0 
1.339186264238e-05 1.256808536033e-02 0.0 
0.0 0.0 0.0 
-8.808702850701e-04 1.947390659232e-03 0.0 
1.947390659232e-03 1.392134585480e-02 0.0 
0.0 0.0 0.0 
-2.519900851147e-04 3.990938162123e-03 0.0 
3.990938162123e-03 1.099817236723e-02 0.0 
0.0 0.0 0.0 
4.069347042380e-03 -1.308040177128e-03 0.0 
-1.308040177128e-03 -2.449835567975e-03 0.0 
0.0 0.0 0.0 
2.911538155175e-03 -2.158053946017e-03 0.0 
-2.158053946017e-03 -2.003624671272e-03 0.0 
0.0 0.0 0.0 
1.177595146724e-03 2.093931399554e-03 0.0 
2.093931399554e-03 4.036451036521e-03 0.0 
0.0 0.0 0.0 
-1.815476996985e-03 4.924310494811e-04 0.0 
4.924310494811e-04 -4.073091957494e-03 0.0 
0.0 0.0 0.0 
-6.130799409606e-04 -1.329204404345e-04 0.0 
-1.329204404345e-04 2.207551742534e-03 0.0 
0.0 0.0 0.0 
-1.078349008216e-03 -1.914888434801e-04 0.0 
-1.914888434801e-04 3.999082668168e-03 0.0 
0.0 0.0 0.0 
9.475268486343e-04 -2.645357292598e-03 0.0 
-2.645357292598e-03 4.489174634603e-05 0.0 
0.0 0.0 0.0 
3.476951977996e-03 -2.043082879927e-03 0.0 
-2.043082879927e-03 -2.240605793259e-03 0.0 
0.0 0.0 0.0 
-1.640879186888e-03 3.315033987425e-03 0.0 
3.315033987425e-03 4.689493909539e-03 0.0 
0.0 0.0 0.0 
-1.768622903349e-03 3.525521867106e-03 0.0 
3.525521867106e-03 5.294318346347e-03 0.0 
0.0 0.0 0.0 
-2.193140867275e-03 5.736045329294e-04 0.0 
5.736045329294e-04 1.256206874012e-02 0.0 
0.0 0.0 0.0 
4.541416973633e-03 -9.642283623064e-04 0.0 
-9.642283623064e-04 -3.236146711799e-03 0.0 
0.0 0.0 0.0 
-8.650377473711e-04 -7.971089065117e-04 0.0 
-7.971089065117e-04 2.466285264249e-03 0.0 
0.0 0.0 0.0 
1.803510615734e-03 3.548775527070e-03 0.0 
3.548775527070e-03 3.512927780239e-03 0.0 
0.0 0.0 0.0 
1.187904478326e-04 -4.674804508324e-04 0.0 
-4.674804508324e-04 5.203245361483e-03 0.0 
0.0 0.0 0.0 
1.958401632400e-04 -3.833739825375e-04 0.0 
-3.833739825375e-04 4.989707280400e-03 0.0 
0.0 0.0 0.0 
2.867689932498e-03 -1.957002317529e-03 0.0 
-1.957002317529e-03 -1.300162195785e-03 0.0 
0.0 0.0 0.0 
-2.302046027061e-03 6.735406942835e-04 0.0 
6.735406942835e-04 1.224162612205e-02 0.0 
0.0 0.0 0.0 
-2.015329467629e-03 1.394858298144e-04 0.0 
1.394858298144e-04 -3.546323360490e-03 0.0 
0.0 0.0 0.0 
-1.671574207818e-03 3.500114619244e-03 0.0 
3.500114619244e-03 3.475881755335e-03 0.0 
0.0 0.0 0.0 
1.856761386674e-03 -3.584647122480e-03 0.0 
-3.584647122480e-03 -2.603828210692e-03 0.0 
0.0 0.0 0.0 
-1.657928919157e-03 3.429467666785e-03 0.0 
3.429467666785e-03 4.064894852651e-03 0.0 
0.0 0.0 0.0 
2.962300925031e-03 3.358604795323e-03 0.0 
3.358604795323e-03 1.214050054378e-03 0.0 
0.0 0.0 0.0 
2.253726454004e-03 -2.470404224035e-03 0.0 
-2.470404224035e-03 -9.603484197213e-04 0.0 
0.0 0.0 0.0 
3.526536909201e-03 -2.013997378545e-03 0.0 
-2.013997378545e-03 -2.595818752017e-03 0.0 
0.0 0.0 0.0 
9.736354146581e-04 -3.504066469443e-03 0.0 
-3.504066469443e-03 -3.267376973396e-03 0.0 
0.0 0.0 0.0 
-7.742668888746e-04 2.223970874465e-04 0.0 
2.223970874465e-04 1.412905712273e-02 0.0 
0.0 0.0 0.0 
2.347889417793e-03 -2.448692652177e-03 0.0 
-2.448692652177e-03 -1.497454110831e-03 0.0 
0.0 0.0 0.0 
-7.132987250601e-04 7.984705851189e-04 0.0 
7.984705851189e-04 1.420630003331e-02 0.0 
0.0 0.0 0.0 
-1.088529942189e-03 2.936096481512e-04 0.0 
2.936096481512e-04 1.391966369359e-02 0.0 
0.0 0.0 0.0 
-2.955055014922e-04 3.582643385125e-04 0.0 
3.582643385125e-04 1.461300279802e-02 0.0 
0.0 0.0 0.0 
-1.595218606147e-04 -2.314858356522e-04 0.0 
-2.314858356522e-04 5.983131458585e-03 0.0 
0.0 0.0 0.0 
-1.659716293152e-03 5.182234031191e-05 0.0 
5.182234031191e-05 1.257711123203e-02 0.0 
0.0 0.0 0.0 
1.907380396221e-03 -2.502043143873e-03 0.0 
-2.502043143873e-03 -8.473656030914e-04 0.0 
0.0 0.0 0.0 
-1.592698130419e-03 3.197114760036e-03 0.0 
3.197114760036e-03 6.038367303797e-03 0.0 
0.0 0.0 0.0 
1.932067182903e-03 -2.326242705428e-03 0.0 
-2.326242705428e-03 -3.772899260562e-04 0.0 
0.0 0.0 0.0 
0.0 -4.646366890435e-04 0.0 
-4.646366890435e-04 5.432146943196e-03 0.0 
0.0 0.0 0.0 
-1.795804528375e-03 3.534986709788e-03 0.0 
3.534986709788e-03 2.328004312235e-03 0.0 
0.0 0.0 0.0 
-1.690029721558e-03 3.504825494182e-03 0.0 
3.504825494182e-03 2.889052806840e-03 0.0 
0.0 0.0 0.0 
2.001685125735e-03 1.944751632445e-03 0.0 
1.944751632445e-03 2.523406278498e-03 0.0 
0.0 0.0 0.0 
-2.079230201737e-03 4.165146941153e-04 0.0 
4.165146941153e-04 1.225725773004e-02 0.0 
0.0 0.0 0.0 
-6.567298590608e-04 5.329405599328e-04 0.0 
5.329405599328e-04 1.426935602214e-02 0.0 
0.0 0.0 0.0 
-2.741040330067e-04 4.107686785325e-03 0.0 
4.107686785325e-03 8.189947930968e-03 0.0 
0.0 0.0 0.0 
1.511998225415e-03 3.289675209325e-03 0.0 
3.289675209325e-03 4.045546802173e-03 0.0 
0.0 0.0 0.0 
-9.930032429645e-04 3.843023666871e-03 0.0 
3.843023666871e-03 1.016139245471e-02 0.0 
0.0 0.0 0.0 
-1.681791863053e-03 2.011636897203e-04 0.0 
2.011636897203e-04 1.266125801082e-02 0.0 
0.0 0.0 0.0 
7.666320665525e-04 -2.697948434024e-03 0.0 
-2.697948434024e-03 9.612130970948e-05 0.0 
0.0 0.0 0.0 
1.064025175077e-03 -2.649907805048e-03 0.0 
-2.649907805048e-03 8.854666267077e-05 0.0 
0.0 0.0 0.0 
-1.379837152785e-03 1.556285654871e-04 0.0 
1.556285654871e-04 1.340334835042e-02 0.0 
0.0 0.0 0.0 
1.525991424160e-03 3.357336873901e-03 0.0 
3.357336873901e-03 4.211110788463e-03 0.0 
0.0 0.0 0.0 
-2.573729921109e-03 9.320759874890e-04 0.0 
9.320759874890e-04 1.181884097296e-02 0.0 
0.0 0.0 0.0 
-1.726216050041e-03 5.079543676889e-05 0.0 
5.079543676889e-05 1.224514855707e-02 0.0 
0.0 0.0 0.0 
-1.709884630766e-03 8.997602796853e-05 0.0 
8.997602796853e-05 1.256490610333e-02 0.0 
0.0 0.0 0.0 
-1.781970160648e-03 1.694798713326e-04 0.0 
1.694798713326e-04 1.267572153909e-02 0.0 
0.0 0.0 0.0 
2.652181129017e-03 -1.850073728900e-03 0.0 
-1.850073728900e-03 -4.045835588097e-03 0.0 
0.0 0.0 0.0 
5.462126055302e-04 -2.538279110453e-03 0.0 
-2.538279110453e-03 5.694222881258e-04 0.0 
0.0 0.0 0.0 
-6.003763982718e-04 1.153940410398e-03 0.0 
1.153940410398e-03 1.430818209142e-02 0.0 
0.0 0.0 0.0 
-1.699615151459e-03 2.572258593460e-04 0.0 
2.572258593460e-04 1.302884610288e-02 0.0 
0.0 0.0 0.0 
6.877698026346e-04 2.922081596392e-03 0.0 
2.922081596392e-03 4.826142841845e-03 0.0 
0.0 0.0 0.0 
-7.856788325008e-04 3.980827149213e-03 0.0 
3.980827149213e-03 1.087289953521e-02 0.0 
0.0 0.0 0.0 
-1.017252924482e-03 3.920454207508e-03 0.0 
3.920454207508e-03 9.329363238524e-03 0.0 
0.0 0.0 0.0 
-1.110274681271e-03 2.017691982507e-03 0.0 
2.017691982507e-03 1.371704225379e-02 0.0 
0.0 0.0 0.0 
-9.826944170640e-04 -1.065429535405e-03 0.0 
-1.065429535405e-03 3.015845992422e-03 0.0 
0.0 0.0 0.0 
-9.445654191336e-04 -1.132302396781e-03 0.0 
-1.132302396781e-03 2.763303371211e-03 0.0 
0.0 0.0 0.0 
6.323290086618e-04 -1.741800207341e-04 0.0 
-1.741800207341e-04 3.721205929683e-03 0.0 
0.0 0.0 0.0 
4.457232706874e-04 -2.024024491982e-03 0.0 
-2.024024491982e-03 -3.705614942008e-03 0.0 
0.0 0.0 0.0 
-5.636542016684e-04 -2.215848534668e-04 0.0 
-2.215848534668e-04 2.262750536152e-03 0.0 
0.0 0.0 0.0 
0.0 4.103144805437e-03 0.0 
4.103144805437e-03 7.033876086115e-03 0.0 
0.0 0.0 0.0 
6.823396715843e-04 3.969252261973e-05 0.0 
3.969252261973e-05 7.728556598763e-04 0.0 
0.0 0.0 0.0 
-1.704060252509e-03 6.613238546345e-05 0.0 
6.613238546345e-05 1.225567126218e-02 0.0 
0.0 0.0 0.0 
1.603359335557e-03 1.404768741477e-03 0.0 
1.404768741477e-03 3.104639872160e-03 0.0 
0.0 0.0 0.0 
-1.806878970767e-04 -8.759324221928e-04 0.0 
-8.759324221928e-04 5.989131511410e-04 0.0 
0.0 0.0 0.0 
1.337631774042e-03 -4.243124782896e-04 0.0 
-4.243124782896e-04 -1.916139579248e-04 0.0 
0.0 0.0 0.0 
-3.921270958931e-04 1.742022094628e-03 0.0 
1.742022094628e-03 1.421125025081e-02 0.0 
0.0 0.0 0.0 
-1.982042311450e-03 1.909773381145e-04 0.0 
1.909773381145e-04 1.194910345475e-02 0.0 
0.0 0.0 0.0 
-6.404406195598e-04 1.534218987123e-03 0.0 
1.534218987123e-03 1.413946680535e-02 0.0 
0.0 0.0 0.0 
1.212120300837e-03 1.823547237756e-03 0.0 
1.823547237756e-03 3.206778885573e-03 0.0 
0.0 0.0 0.0 
-1.960629542760e-03 1.372719767471e-04 0.0 
1.372719767471e-04 1.194839423011e-02 0.0 
0.0 0.0 0.0 
-1.819251384179e-03 6.906911350798e-04 0.0 
6.906911350798e-04 -3.490280951719e-03 0.0 
0.0 0.0 0.0 
-3.186431687358e-04 2.752864406071e-04 0.0 
2.752864406071e-04 1.447319044813e-02 0.0 
0.0 0.0 0.0 
2.655937865332e-04 -5.651984763442e-04 0.0 
-5.651984763442e-04 9.687738073791e-04 0.0 
0.0 0.0 0.0 
-6.734940852694e-04 1.284077794201e-03 0.0 
1.284077794201e-03 1.411728310856e-02 0.0 
0.0 0.0 0.0 
0.0 -4.511865378215e-04 0.0 
-4.511865378215e-04 5.636759328228e-03 0.0 
0.0 0.0 0.0 
-8.911093485172e-04 3.473245040365e-03 0.0 
3.473245040365e-03 1.187081171302e-02 0.0 
0.0 0.0 0.0 
3.477637598889e-03 -1.615180115987e-03 0.0 
-1.615180115987e-03 -4.100840511924e-03 0.0 
0.0 0.0 0.0 
-2.405127918270e-03 1.128667375987e-03 0.0 
1.128667375987e-03 1.233205795904e-02 0.0 
0.0 0.0 0.0 
-1.144162706221e-03 -6.543952850994e-04 0.0 
-6.543952850994e-04 3.135999183370e-03 0.0 
0.0 0.0 0.0 
1.878581590520e-03 3.345737760056e-03 0.0 
3.345737760056e-03 3.528011191508e-03 0.0 
0.0 0.0 0.0 
4.940270534970e-04 3.215742529844e-03 0.0 
3.215742529844e-03 5.573751538372e-03 0.0 
0.0 0.0 0.0 
-1.225645262457e-03 1.933549839635e-04 0.0 
1.933549839635e-04 1.370985816214e-02 0.0 
0.0 0.0 0.0 
5.686267908067e-04 2.819791242925e-03 0.0 
2.819791242925e-03 5.175323959422e-03 0.0 
0.0 0.0 0.0 
1.669403156746e-03 -1.673215184022e-03 0.0 
-1.673215184022e-03 -4.534949716757e-03 0.0 
0.0 0.0 0.0 
5.058715455797e-05 -5.229131407668e-04 0.0 
-5.229131407668e-04 5.067082520248e-03 0.0 
0.0 0.0 0.0 
3.248907925531e-03 -2.559189824363e-03 0.0 
-2.559189824363e-03 -2.871202433798e-03 0.0 
0.0 0.0 0.0 
4.826250436483e-04 -2.623437471529e-04 0.0 
-2.623437471529e-04 8.662144113072e-04 0.0 
0.0 0.0 0.0 
9.903573384802e-04 9.476137647433e-04 0.0 
9.476137647433e-04 3.775657110365e-03 0.0 
0.0 0.0 0.0 
-8.395607379611e-04 2.781326289290e-03 0.0 
2.781326289290e-03 1.332831274039e-02 0.0 
0.0 0.0 0.0 
-5.324940591062e-04 1.773007975916e-03 0.0 
1.773007975916e-03 1.406716611505e-02 0.0 
0.0 0.0 0.0 
-1.796219549954e-03 1.931758300149e-04 0.0 
1.931758300149e-04 1.224856590597e-02 0.0 
0.0 0.0 0.0 
-2.464566012196e-03 1.721423633846e-03 0.0 
1.721423633846e-03 1.202329970807e-02 0.0 
0.0 0.0 0.0 
1.800801184682e-05 3.934390317531e-03 0.0 
3.934390317531e-03 1.513748266076e-03 0.0 
0.0 0.0 0.0 
-4.979516712154e-04 4.237223410523e-03 0.0 
4.237223410523e-03 1.082239721661e-02 0.0 
0.0 0.0 0.0 
-1.093139954525e-03 -6.011004025988e-04 0.0 
-6.011004025988e-04 2.897589016644e-03 0.0 
0.0 0.0 0.0 
9.360355586145e-04 3.771982609713e-03 0.0 
3.771982609713e-03 -1.092077717949e-03 0.0 
0.0 0.0 0.0 
1.892105734403e-03 3.308130836348e-03 0.0 
3.308130836348e-03 3.351163769699e-03 0.0 
0.0 0.0 0.0 
-1.802914363834e-03 7.326379861740e-05 0.0 
7.326379861740e-05 1.189618641425e-02 0.0 
0.0 0.0 0.0 
-7.804246250608e-04 2.668024120573e-03 0.0 
2.668024120573e-03 1.315021614669e-02 0.0 
0.0 0.0 0.0 
-2.503517676907e-04 -6.739679188525e-06 0.0 
-6.739679188525e-06 1.463932170511e-02 0.0 
0.0 0.0 0.0 
0.0 1.251758838450e-04 0.0 
1.251758838450e-04 1.465280106349e-02 0.0 
0.0 0.0 0.0 
2.836914216127e-03 7.943515723927e-05 0.0 
7.943515723927e-05 -1.019885904384e-03 0.0 
0.0 0.0 0.0 
2.315222318246e-03 -1.370223363430e-04 0.0 
-1.370223363430e-04 -9.311089936672e-04 0.0 
0.0 0.0 0.0 
-1.709689381049e-03 -2.436702909274e-05 0.0 
-2.436702909274e-05 1.193467297989e-02 0.0 
0.0 0.0 0.0 
-1.728040403409e-03 9.978477288805e-06 0.0 
9.978477288805e-06 1.188433298949e-02 0.0 
0.0 0.0 0.0 
0.0 -8.417907049543e-05 0.0 
-8.417907049543e-05 6.040842823873e-03 0.0 
0.0 0.0 0.0 
-1.683581409905e-04 8.397835148495e-06 0.0 
8.397835148495e-06 6.024047153576e-03 0.0 
0.0 0.0 0.0 
2.195515431701e-03 -6.145140074210e-05 0.0 
-6.145140074210e-05 -6.185040196880e-04 0.0 
0.0 0.0 0.0 
-1.854754225527e-03 -3.488401944833e-04 0.0 
-3.488401944833e-04 -4.321140159779e-03 0.0 
0.0 0.0 0.0 
-1.740782153976e-04 -4.028560500137e-04 0.0 
-4.028560500137e-04 5.205098170778e-03 0.0 
0.0 0.0 0.0 
8.706543794068e-04 4.036384388859e-03 0.0 
4.036384388859e-03 5.949545783985e-03 0.0 
0.0 0.0 0.0 
2.917135252027e-04 -5.844527585268e-04 0.0 
-5.844527585268e-04 1.125751201736e-03 0.0 
0.0 0.0 0.0 
1.727537319061e-04 -4.903469848886e-04 0.0 
-4.903469848886e-04 4.513292698466e-03 0.0 
0.0 0.0 0.0 
-1.020686315377e-03 -1.193038027610e-04 0.0 
-1.193038027610e-04 4.202990761481e-03 0.0 
0.0 0.0 0.0 
-1.207040327420e-03 -1.451927010950e-04 0.0 
-1.451927010950e-04 3.753212513558e-03 0.0 
0.0 0.0 0.0 
-1.591925985010e-03 2.427242036911e-04 0.0 
2.427242036911e-04 1.318670140199e-02 0.0 
0.0 0.0 0.0 
7.809614101468e-04 -3.245670767484e-03 0.0 
-3.245670767484e-03 -7.049069009937e-04 0.0 
0.0 0.0 0.0 
2.213554418069e-03 3.431315116679e-03 0.0 
3.431315116679e-03 2.856893797035e-03 0.0 
0.0 0.0 0.0 
5.480434143115e-04 -6.302176541594e-04 0.0 
-6.302176541594e-04 7.762120685861e-04 0.0 
0.0 0.0 0.0 
-1.053293605560e-03 -8.168033251743e-04 0.0 
-8.168033251743e-04 3.231250943752e-03 0.0 
0.0 0.0 0.0 
-3.787730579656e-04 3.989659267670e-03 0.0 
3.989659267670e-03 1.048202736587e-02 0.0 
0.0 0.0 0.0 
-7.904330415757e-04 -1.159183868176e-05 0.0 
-1.159183868176e-05 1.421131357018e-02 0.0 
0.0 0.0 0.0 
-1.177615997394e-03 -2.519956589525e-04 0.0 
-2.519956589525e-04 3.808411016438e-03 0.0 
0.0 0.0 0.0 
-1.651482636197e-03 7.081110855406e-05 0.0 
7.081110855406e-05 1.283069533617e-02 0.0 
0.0 0.0 0.0 
3.574369365915e-04 4.353935562785e-03 0.0 
4.353935562785e-03 7.517888296198e-03 0.0 
0.0 0.0 0.0 
-7.069347568315e-04 3.988176776179e-03 0.0 
3.988176776179e-03 9.708813325816e-03 0.0 
0.0 0.0 0.0 
-8.550479869319e-04 3.936927702074e-03 0.0 
3.936927702074e-03 9.501096236692e-03 0.0 
0.0 0.0 0.0 
-1.877809252884e-03 1.149130962489e-04 0.0 
1.149130962489e-04 1.193888479573e-02 0.0 
0.0 0.0 0.0 
2.679071330907e-03 3.208288606447e-03 0.0 
3.208288606447e-03 1.909657354608e-03 0.0 
0.0 0.0 0.0 
-7.552527435020e-04 3.064540029613e-03 0.0 
3.064540029613e-03 1.258832893603e-02 0.0 
0.0 0.0 0.0 
-7.553760584953e-04 -5.339455839309e-04 0.0 
-5.339455839309e-04 2.317232665822e-03 0.0 
0.0 0.0 0.0 
-1.703431890668e-04 -6.398999733560e-04 0.0 
-6.398999733560e-04 4.483520581602e-04 0.0 
0.0 0.0 0.0 
2.275246768544e-04 4.132198293459e-03 0.0 
4.132198293459e-03 7.542875959181e-03 0.0 
0.0 0.0 0.0 
2.325085465112e-03 1.735876567513e-03 0.0 
1.735876567513e-03 1.849326050071e-03 0.0 
0.0 0.0 0.0 
7.457268303539e-04 -3.324330325967e-03 0.0 
-3.324330325967e-03 -8.601606801049e-04 0.0 
0.0 0.0 0.0 
-1.469743500099e-03 1.301461695368e-04 0.0 
1.301461695368e-04 1.342068848369e-02 0.0 
0.0 0.0 0.0 
-1.092631116881e-04 -3.928416839596e-04 0.0 
-3.928416839596e-04 5.482934669808e-03 0.0 
0.0 0.0 0.0 
6.971954543598e-04 3.975245555427e-03 0.0 
3.975245555427e-03 6.196428362544e-03 0.0 
0.0 0.0 0.0 
5.660862705186e-04 4.238994619963e-03 0.0 
4.238994619963e-03 6.900988534476e-03 0.0 
0.0 0.0 0.0 
-9.166484492520e-04 -1.358565181382e-04 0.0 
-1.358565181382e-04 4.416814859226e-03 0.0 
0.0 0.0 0.0 
-4.606700023035e-05 2.936131868111e-03 0.0 
2.936131868111e-03 -3.412585625239e-03 0.0 
0.0 0.0 0.0 
-1.566998018960e-03 3.350946982189e-03 0.0 
3.350946982189e-03 4.692544695308e-03 0.0 
0.0 0.0 0.0 
-3.077648375713e-04 3.910687955147e-03 0.0 
3.910687955147e-03 2.961311291187e-03 0.0 
0.0 0.0 0.0 
-2.408626213937e-03 1.181283093076e-03 0.0 
1.181283093076e-03 1.238958089021e-02 0.0 
0.0 0.0 0.0 
2.482056910610e-03 3.461651443777e-03 0.0 
3.461651443777e-03 1.879847958930e-03 0.0 
0.0 0.0 0.0 
-7.144050836319e-04 9.589156606783e-04 0.0 
9.589156606783e-04 1.423386956260e-02 0.0 
0.0 0.0 0.0 
7.085636775770e-04 2.177631951735e-03 0.0 
2.177631951735e-03 4.047219232655e-03 0.0 
0.0 0.0 0.0 
-9.176861686412e-04 -2.397510107113e-03 0.0 
-2.397510107113e-03 4.709790944986e-04 0.0 
0.0 0.0 0.0 
-5.054964079430e-04 -1.372794121538e-03 0.0 
-1.372794121538e-03 6.809193141510e-04 0.0 
0.0 0.0 0.0 
-1.509931447584e-03 3.488644588089e-03 0.0 
3.488644588089e-03 3.474577303251e-03 0.0 
0.0 0.0 0.0 
-1.351854866302e-03 3.313105797846e-04 0.0 
3.313105797846e-04 1.350590583183e-02 0.0 
0.0 0.0 0.0 
-8.452452036045e-04 -8.279009574656e-04 0.0 
-8.279009574656e-04 2.495927595875e-03 0.0 
0.0 0.0 0.0 
-9.292332922839e-04 2.275345104192e-03 0.0 
2.275345104192e-03 1.359213356988e-02 0.0 
0.0 0.0 0.0 
4.791326768798e-04 -2.756537410852e-04 0.0 
-2.756537410852e-04 1.060896788103e-03 0.0 
0.0 0.0 0.0 
1.379575215604e-03 2.130108138483e-03 0.0 
2.130108138483e-03 3.287011798095e-03 0.0 
0.0 0.0 0.0 
-1.998425584990e-03 5.297945533015e-04 0.0 
5.297945533015e-04 1.256935786648e-02 0.0 
0.0 0.0 0.0 
4.828100730430e-04 3.559646487075e-03 0.0 
3.559646487075e-03 5.706390842446e-03 0.0 
0.0 0.0 0.0 
1.490039246370e-03 3.584368641861e-03 0.0 
3.584368641861e-03 4.423349628223e-03 0.0 
0.0 0.0 0.0 
-2.551176295108e-03 1.421664434967e-03 0.0 
1.421664434967e-03 1.230658794388e-02 0.0 
0.0 0.0 0.0 
8.280526611406e-04 3.278759071494e-04 0.0 
3.278759071494e-04 3.901904085985e-03 0.0 
0.0 0.0 0.0 
-7.372816044335e-04 2.577020396074e-03 0.0 
2.577020396074e-03 1.352018361212e-02 0.0 
0.0 0.0 0.0 
-5.211890817082e-04 2.416768968838e-04 0.0 
2.416768968838e-04 1.448498346789e-02 0.0 
0.0 0.0 0.0 
-1.532330700326e-03 3.528127973923e-03 0.0 
3.528127973923e-03 2.327475485174e-03 0.0 
0.0 0.0 0.0 
-8.793965458633e-04 1.988042264703e-03 0.0 
1.988042264703e-03 1.371895681709e-02 0.0 
0.0 0.0 0.0 
4.977338273249e-05 4.291376949505e-03 0.0 
4.291376949505e-03 8.592499327772e-03 0.0 
0.0 0.0 0.0 
1.626495047452e-03 2.064548422744e-03 0.0 
2.064548422744e-03 3.303519447692e-03 0.0 
0.0 0.0 0.0 
1.537880349974e-03 3.517826832557e-03 0.0 
3.517826832557e-03 4.173895125696e-03 0.0 
0.0 0.0 0.0 
0.0 -3.612615047943e-04 0.0 
-3.612615047943e-04 5.120843122515e-03 0.0 
0.0 0.0 0.0 
-8.133337200779e-04 3.843419907281e-03 0.0 
3.843419907281e-03 9.513689244643e-03 0.0 
0.0 0.0 0.0 
-1.794215285652e-03 2.145441812064e-03 0.0 
2.145441812064e-03 -2.464670455737e-03 0.0 
0.0 0.0 0.0 
5.307846488409e-04 4.125019567936e-03 0.0 
4.125019567936e-03 4.525693924662e-05 0.0 
0.0 0.0 0.0 
-7.707496166804e-04 3.954326125706e-03 0.0 
3.954326125706e-03 1.032743457264e-02 0.0 
0.0 0.0 0.0 
-2.240745928731e-03 1.242965168007e-03 0.0 
1.242965168007e-03 1.259499680854e-02 0.0 
0.0 0.0 0.0 
-3.499915187833e-04 -2.936779236367e-04 0.0 
-2.936779236367e-04 5.435478125324e-03 0.0 
0.0 0.0 0.0 
1.147871223964e-03 3.599822671503e-03 0.0 
3.599822671503e-03 5.030493984614e-03 0.0 
0.0 0.0 0.0 
1.205380638467e-04 -4.164128163540e-04 0.0 
-4.164128163540e-04 4.834021043384e-03 0.0 
0.0 0.0 0.0 
-1.179009888132e-03 4.020470682954e-04 0.0 
4.020470682954e-04 1.380134850509e-02 0.0 
0.0 0.0 0.0 
4.834387650965e-04 3.308230713242e-03 0.0 
3.308230713242e-03 5.297663697609e-03 0.0 
0.0 0.0 0.0 
8.091557632282e-04 7.443128975569e-05 0.0 
7.443128975569e-05 3.464969807784e-03 0.0 
0.0 0.0 0.0 
9.062180485080e-04 2.086739913872e-04 0.0 
2.086739913872e-04 3.452580691766e-03 0.0 
0.0 0.0 0.0 
-9.679448807949e-04 -5.817932059017e-04 0.0 
-5.817932059017e-04 2.715289339666e-03 0.0 
0.0 0.0 0.0 
5.803861291320e-05 -5.162481310821e-04 0.0 
-5.162481310821e-04 5.375789314328e-03 0.0 
0.0 0.0 0.0 
-2.284734649140e-03 6.309769586231e-04 0.0 
6.309769586231e-04 1.217401439407e-02 0.0 
0.0 0.0 0.0 
-7.546486556580e-04 5.082282956340e-04 0.0 
5.082282956340e-04 1.427276823318e-02 0.0 
0.0 0.0 0.0 
-3.835259524240e-04 -1.558189745035e-03 0.0 
-1.558189745035e-03 8.614638009137e-04 0.0 
0.0 0.0 0.0 
-9.696253089155e-04 2.319170493233e-04 0.0 
2.319170493233e-04 1.413258585955e-02 0.0 
0.0 0.0 0.0 
-1.486454450176e-03 2.300468076027e-04 0.0 
2.300468076027e-04 1.343405744120e-02 0.0 
0.0 0.0 0.0 
1.450414672952e-03 8.876221476982e-05 0.0 
8.876221476982e-05 1.581828078407e-04 0.0 
0.0 0.0 0.0 
2.977208170089e-03 -2.057034553168e-03 0.0 
-2.057034553168e-03 -4.361881099576e-03 0.0 
0.0 0.0 0.0 
-5.040723599784e-04 3.996409300273e-03 0.0 
3.996409300273e-03 9.014634230089e-03 0.0 
0.0 0.0 0.0 
-4.002922211911e-04 1.367985604950e-03 0.0 
1.367985604950e-03 1.422310952571e-02 0.0 
0.0 0.0 0.0 
-6.940167883495e-04 2.437749942481e-04 0.0 
2.437749942481e-04 1.431765797751e-02 0.0 
0.0 0.0 0.0 
1.052071042748e-03 3.254594035854e-03 0.0 
3.254594035854e-03 4.789375806685e-03 0.0 
0.0 0.0 0.0 
-1.682797552315e-03 2.979183123053e-04 0.0 
2.979183123053e-04 1.284199367071e-02 0.0 
0.0 0.0 0.0 
6.344592263792e-04 -4.240628659087e-04 0.0 
-4.240628659087e-04 1.031064884611e-04 0.0 
0.0 0.0 0.0 
7.177816376720e-04 2.117411149831e-03 0.0 
2.117411149831e-03 -3.905947148004e-03 0.0 
0.0 0.0 0.0 
2.093104705934e-04 -5.710160772086e-04 0.0 
-5.710160772086e-04 2.645317958943e-04 0.0 
0.0 0.0 0.0 
-2.598560098994e-04 -1.707840251464e-03 0.0 
-1.707840251464e-03 8.271308905390e-04 0.0 
0.0 0.0 0.0 
-1.774245343708e-03 4.520050408313e-03 0.0 
4.520050408313e-03 -1.494492876551e-03 0.0 
0.0 0.0 0.0 
-1.129369573144e-03 -8.136152394603e-04 0.0 
-8.136152394603e-04 3.316953943594e-03 0.0 
0.0 0.0 0.0 
-3.154792507671e-04 -2.752657704117e-04 0.0 
-2.752657704117e-04 5.435082794594e-03 0.0 
0.0 0.0 0.0 
-7.677148724609e-04 3.503271226657e-03 0.0 
3.503271226657e-03 1.187444868354e-02 0.0 
0.0 0.0 0.0 
-2.601033961154e-03 1.840390147337e-03 0.0 
1.840390147337e-03 1.225675495750e-02 0.0 
0.0 0.0 0.0 
-8.922137826664e-04 -1.141062972954e-03 0.0 
-1.141062972954e-03 2.675678502234e-03 0.0 
0.0 0.0 0.0 
6.050951819283e-04 -2.930337744205e-04 0.0 
-2.930337744205e-04 3.762653881673e-03 0.0 
0.0 0.0 0.0 
1.590830481238e-03 1.039371764871e-03 0.0 
1.039371764871e-03 2.889345935744e-03 0.0 
0.0 0.0 0.0 
7.973024810839e-04 3.852860319276e-03 0.0 
3.852860319276e-03 5.900728581475e-03 0.0 
0.0 0.0 0.0 
1.418363691703e-04 4.136695396487e-03 0.0 
4.136695396487e-03 7.909269591909e-03 0.0 
0.0 0.0 0.0 
-3.430435684334e-04 4.071302511465e-03 0.0 
4.071302511465e-03 9.289349820625e-03 0.0 
0.0 0.0 0.0 
-4.381917351659e-04 -1.271275324529e-03 0.0 
-1.271275324529e-03 7.967709428698e-04 0.0 
0.0 0.0 0.0 
6.994659644843e-04 -1.813932091441e-03 0.0 
-1.813932091441e-03 -3.952614683604e-03 0.0 
0.0 0.0 0.0 
-2.404883735790e-04 -4.470875123758e-04 0.0 
-4.470875123758e-04 5.221115039511e-03 0.0 
0.0 0.0 0.0 
1.013412167398e-03 -9.793739684605e-05 0.0 
-9.793739684605e-05 3.022364016072e-04 0.0 
0.0 0.0 0.0 
1.051038378871e-03 -7.832900138487e-05 0.0 
-7.832900138487e-05 4.273102205656e-04 0.0 
0.0 0.0 0.0 
-9.153465331782e-04 4.009274954321e-03 0.0 
4.009274954321e-03 -5.509442072640e-04 0.0 
0.0 0.0 0.0 
2.564014975894e-04 -7.002183588211e-04 0.0 
-7.002183588211e-04 6.042222076479e-04 0.0 
0.0 0.0 0.0 
4.073298492968e-04 2.343385497598e-04 0.0 
2.343385497598e-04 3.963235893593e-03 0.0 
0.0 0.0 0.0 
-1.935807088373e-04 4.238732994767e-03 0.0 
4.238732994767e-03 9.953173893994e-03 0.0 
0.0 0.0 0.0 
-6.250444457823e-04 9.653490581583e-04 0.0 
9.653490581583e-04 1.423416610846e-02 0.0 
0.0 0.0 0.0 
3.687945067712e-04 3.798299214583e-03 0.0 
3.798299214583e-03 6.204871649349e-03 0.0 
0.0 0.0 0.0 
1.673018466712e-03 1.022617332704e-03 0.0 
1.022617332704e-03 2.444909854855e-03 0.0 
0.0 0.0 0.0 
-1.609478514854e-03 3.014907198767e-04 0.0 
3.014907198767e-04 1.303274515944e-02 0.0 
0.0 0.0 0.0 
0.0 1.847300008366e-03 0.0 
1.847300008366e-03 1.414849108723e-02 0.0 
0.0 0.0 0.0 
2.441677004288e-03 -3.242143388067e-03 0.0 
-3.242143388067e-03 -2.894317811107e-03 0.0 
0.0 0.0 0.0 
-1.940878014319e-03 1.684403207397e-04 0.0 
1.684403207397e-04 1.189206235710e-02 0.0 
0.0 0.0 0.0 
-3.566535206831e-04 -3.431974662202e-03 0.0 
-3.431974662202e-03 -4.783511192297e-05 0.0 
0.0 0.0 0.0 
9.170921111814e-04 -3.553517396557e-04 0.0 
-3.553517396557e-04 -2.604192654709e-05 0.0 
0.0 0.0 0.0 
-6.104974831111e-05 -4.871044863241e-04 0.0 
-4.871044863241e-04 5.677393043054e-03 0.0 
0.0 0.0 0.0 
-2.635528601732e-03 1.259157721396e-03 0.0 
1.259157721396e-03 1.194828455033e-02 0.0 
0.0 0.0 0.0 
9.078512733844e-04 -3.052709790182e-04 0.0 
-3.052709790182e-04 6.174447617242e-04 0.0 
0.0 0.0 0.0 
-1.182133254305e-03 -5.900216319413e-04 0.0 
-5.900216319413e-04 3.385774469129e-03 0.0 
0.0 0.0 0.0 
-2.907069619192e-04 4.403237529315e-03 0.0 
4.403237529315e-03 1.021681832493e-02 0.0 
0.0 0.0 0.0 
-8.662946681294e-04 1.296725412153e-03 0.0 
1.296725412153e-03 1.411801391647e-02 0.0 
0.0 0.0 0.0 
-4.455886677424e-04 2.823323616528e-03 0.0 
2.823323616528e-03 1.319771233195e-02 0.0 
0.0 0.0 0.0 
-8.826733630628e-04 -2.883314397296e-04 0.0 
-2.883314397296e-04 2.633507457215e-03 0.0 
0.0 0.0 0.0 
9.606091629943e-04 2.387609956416e-04 0.0 
2.387609956416e-04 -4.456241749597e-03 0.0 
0.0 0.0 0.0 
2.310438668289e-04 -4.556966354161e-04 0.0 
-4.556966354161e-04 4.682937172108e-03 0.0 
0.0 0.0 0.0 
-2.744581395128e-04 1.892148494378e-04 0.0 
1.892148494378e-04 1.464269170543e-02 0.0 
0.0 0.0 0.0 
-1.822505148279e-04 -1.378600237179e-04 0.0 
-1.378600237179e-04 6.025962577850e-03 0.0 
0.0 0.0 0.0 
-1.699552223818e-03 3.518973330039e-05 0.0 
3.518973330039e-05 1.218443240982e-02 0.0 
0.0 0.0 0.0 
1.144165001283e-03 1.197785747527e-03 0.0 
1.197785747527e-03 3.038842923529e-03 0.0 
0.0 0.0 0.0 
4.616272230311e-04 -2.662130261081e-04 0.0 
-2.662130261081e-04 8.664648654038e-04 0.0 
0.0 0.0 0.0 
-7.708711979988e-04 2.256227559214e-03 0.0 
2.256227559214e-03 1.359033169423e-02 0.0 
0.0 0.0 0.0 
7.517818341487e-04 -3.876414862876e-04 0.0 
-3.876414862876e-04 4.239549151386e-05 0.0 
0.0 0.0 0.0 
5.071649610504e-04 7.837048768917e-04 0.0 
7.837048768917e-04 3.808032015302e-03 0.0 
0.0 0.0 0.0 
-7.470488586638e-04 3.081041625808e-03 0.0 
3.081041625808e-03 1.297800117694e-02 0.0 
0.0 0.0 0.0 
3.558833394233e-04 1.288585940360e-03 0.0 
1.288585940360e-03 -4.597484468148e-03 0.0 
0.0 0.0 0.0 
7.556349003075e-04 3.987399639996e-03 0.0 
3.987399639996e-03 6.190092058327e-03 0.0 
0.0 0.0 0.0 
-1.312460215416e-03 2.501854081525e-04 0.0 
2.501854081525e-04 1.366706745009e-02 0.0 
0.0 0.0 0.0 
-3.238191916126e-04 1.018245035790e-03 0.0 
1.018245035790e-03 1.435581862140e-02 0.0 
0.0 0.0 0.0 
0.0 2.915507894445e-03 0.0 
2.915507894445e-03 5.407114497889e-03 0.0 
0.0 0.0 0.0 
-1.473364145611e-03 3.424316960759e-05 0.0 
3.424316960759e-05 1.324670717142e-02 0.0 
0.0 0.0 0.0 
-1.936314004404e-04 4.163337873402e-03 0.0 
4.163337873402e-03 1.050770880780e-02 0.0 
0.0 0.0 0.0 
-9.941904554177e-04 2.733962340337e-03 0.0 
2.733962340337e-03 1.313373260600e-02 0.0 
0.0 0.0 0.0 
-1.336937081618e-03 1.862453072727e-04 0.0 
1.862453072727e-04 1.343985337594e-02 0.0 
0.0 0.0 0.0 
-3.315742970407e-04 4.071131368934e-03 0.0 
4.071131368934e-03 1.007803897475e-02 0.0 
0.0 0.0 0.0 
-1.094594588299e-03 -6.126062168313e-04 0.0 
-6.126062168313e-04 2.954449975401e-03 0.0 
0.0 0.0 0.0 
-1.785219248725e-03 5.282051356557e-05 0.0 
5.282051356557e-05 1.190885541287e-02 0.0 
0.0 0.0 0.0 
8.265619847767e-04 3.820712368753e-03 0.0 
3.820712368753e-03 5.724418251538e-03 0.0 
0.0 0.0 0.0 
-3.449218304398e-04 1.474718305646e-04 0.0 
1.474718305646e-04 1.450257490371e-02 0.0 
0.0 0.0 0.0 
2.210644390110e-03 -2.355213866431e-05 0.0 
-2.355213866431e-05 -8.605897241860e-04 0.0 
0.0 0.0 0.0 
-1.714161720395e-03 2.126620138462e-05 0.0 
2.126620138462e-05 1.189073678608e-02 0.0 
0.0 0.0 0.0 
-2.264133885785e-04 -1.035550486834e-04 0.0 
-1.035550486834e-04 5.845655487499e-03 0.0 
0.0 0.0 0.0 
-3.816893239017e-05 -7.971979631832e-04 0.0 
-7.971979631832e-04 1.233835030909e-03 0.0 
0.0 0.0 0.0 
1.668778571726e-03 1.738691680965e-03 0.0 
1.738691680965e-03 3.184170234276e-03 0.0 
0.0 0.0 0.0 
-1.059404849502e-03 3.175544205699e-03 0.0 
3.175544205699e-03 1.255293534835e-02 0.0 
0.0 0.0 0.0 
-6.022881853532e-04 9.110400790764e-04 0.0 
9.110400790764e-04 1.436007169851e-02 0.0 
0.0 0.0 0.0 
2.548585285367e-04 -5.240525172599e-04 0.0 
-5.240525172599e-04 1.142585212202e-03 0.0 
0.0 0.0 0.0 
4.432506327596e-04 4.527087649130e-03 0.0 
4.527087649130e-03 -1.999024721254e-03 0.0 
0.0 0.0 0.0 
-1.158836474272e-03 -5.687836163808e-05 0.0 
-5.687836163808e-05 3.891095033431e-03 0.0 
0.0 0.0 0.0 
-1.036999479136e-03 2.182220138684e-04 0.0 
2.182220138684e-04 1.394553886604e-02 0.0 
0.0 0.0 0.0 
-5.955001926421e-03 -2.894997462596e-04 0.0 
-2.894997462596e-04 -1.966558577829e-03 0.0 
0.0 0.0 0.0 
-4.094517581428e-04 2.360756697213e-03 0.0 
2.360756697213e-03 1.365929942641e-02 0.0 
0.0 0.0 0.0 
-1.461653025716e-03 1.355430310628e-04 0.0 
1.355430310628e-04 1.315124827683e-02 0.0 
0.0 0.0 0.0 
4.088934521023e-04 -3.336100658436e-03 0.0 
-3.336100658436e-03 -7.142212641336e-04 0.0 
0.0 0.0 0.0 
-1.596123881613e-03 1.907625272052e-04 0.0 
1.907625272052e-04 1.292160986651e-02 0.0 
0.0 0.0 0.0 
5.881440305733e-04 4.086229964115e-03 0.0 
4.086229964115e-03 6.521784132716e-03 0.0 
0.0 0.0 0.0 
-1.130898437125e-03 -1.129913714003e-04 0.0 
-1.129913714003e-04 3.988127296427e-03 0.0 
0.0 0.0 0.0 
-2.480726644862e-03 4.508427946419e-03 0.0 
4.508427946419e-03 4.418796169752e-04 0.0 
0.0 0.0 0.0 
-1.031050062240e-03 -7.825511430881e-04 0.0 
-7.825511430881e-04 2.776425823695e-03 0.0 
0.0 0.0 0.0 
-1.068799964251e-03 -7.601980758639e-04 0.0 
-7.601980758639e-04 3.548982918817e-03 0.0 
0.0 0.0 0.0 
-1.097414669395e-03 -3.607905464443e-05 0.0 
-3.607905464443e-05 4.112806804048e-03 0.0 
0.0 0.0 0.0 
1.066694423604e-03 3.262204816109e-03 0.0 
3.262204816109e-03 4.762041726152e-03 0.0 
0.0 0.0 0.0 
-1.187625446075e-03 -3.819018244666e-04 0.0 
-3.819018244666e-04 3.546315089920e-03 0.0 
0.0 0.0 0.0 
-1.132103058344e-03 -4.877792014653e-04 0.0 
-4.877792014653e-04 3.746028732807e-03 0.0 
0.0 0.0 0.0 
3.252535133578e-04 -6.731043021213e-04 0.0 
-6.731043021213e-04 4.233153634263e-04 0.0 
0.0 0.0 0.0 
2.344596952337e-04 -4.424428745055e-04 0.0 
-4.424428745055e-04 4.523083416318e-03 0.0 
0.0 0.0 0.0 
2.480858428973e-04 4.197513356469e-03 0.0 
4.197513356469e-03 7.549719554767e-03 0.0 
0.0 0.0 0.0 
1.359504211449e-03 3.908843123528e-03 0.0 
3.908843123528e-03 -2.560163068731e-03 0.0 
0.0 0.0 0.0 
-2.841128603190e-04 1.408072477527e-04 0.0 
1.408072477527e-04 1.449662788310e-02 0.0 
0.0 0.0 0.0 
-1.961601026015e-04 -8.382199249186e-05 0.0 
-8.382199249186e-05 5.839124383174e-03 0.0 
0.0 0.0 0.0 
-1.715430549491e-03 1.884676539099e-06 0.0 
1.884676539099e-06 1.220284593387e-02 0.0 
0.0 0.0 0.0 
-1.536113278351e-03 1.138441787178e-04 0.0 
1.138441787178e-04 1.314575571339e-02 0.0 
0.0 0.0 0.0 
-1.181095108719e-03 -5.707585638969e-04 0.0 
-5.707585638969e-04 3.567360835180e-03 0.0 
0.0 0.0 0.0 
-1.148796540045e-03 -5.723601211526e-04 0.0 
-5.723601211526e-04 3.462166821434e-03 0.0 
0.0 0.0 0.0 
-1.188685350746e-03 -3.722643831223e-04 0.0 
-3.722643831223e-04 3.673503998063e-03 0.0 
0.0 0.0 0.0 
1.797752610732e-03 1.842144513889e-03 0.0 
1.842144513889e-03 2.675541506019e-03 0.0 
0.0 0.0 0.0 
1.003225508291e-04 -2.946159198532e-03 0.0 
-2.946159198532e-03 4.204939824997e-04 0.0 
0.0 0.0 0.0 
7.413272331114e-05 4.344410524209e-03 0.0 
4.344410524209e-03 8.305972116714e-03 0.0 
0.0 0.0 0.0 
-1.644443931289e-03 9.225134549143e-05 0.0 
9.225134549143e-05 1.254793615307e-02 0.0 
0.0 0.0 0.0 
-7.877430337483e-04 2.253118416448e-03 0.0 
2.253118416448e-03 1.374799988482e-02 0.0 
0.0 0.0 0.0 
1.660858895079e-03 1.660889914295e-03 0.0 
1.660889914295e-03 2.653511554473e-03 0.0 
0.0 0.0 0.0 
-1.697210634589e-03 2.020877281416e-04 0.0 
2.020877281416e-04 1.292195232829e-02 0.0 
0.0 0.0 0.0 
-4.383241798378e-04 4.018114762043e-03 0.0 
4.018114762043e-03 9.913091727916e-03 0.0 
0.0 0.0 0.0 
1.029709998164e-03 3.308653663864e-03 0.0 
3.308653663864e-03 4.746720750024e-03 0.0 
0.0 0.0 0.0 
8.854883323353e-04 3.608144328565e-03 0.0 
3.608144328565e-03 5.488306718721e-03 0.0 
0.0 0.0 0.0 
-1.094821291813e-03 4.370733948889e-03 0.0 
4.370733948889e-03 -1.976336539246e-03 0.0 
0.0 0.0 0.0 
-5.330211754601e-04 4.060676544820e-03 0.0 
4.060676544820e-03 9.908661649832e-03 0.0 
0.0 0.0 0.0 
-2.854311401782e-04 4.288759993154e-03 0.0 
4.288759993154e-03 9.628131207172e-03 0.0 
0.0 0.0 0.0 
7.866888181502e-04 -5.602722622256e-04 0.0 
-5.602722622256e-04 3.272213815408e-04 0.0 
0.0 0.0 0.0 
-1.167408629812e-03 -5.945052213665e-04 0.0 
-5.945052213665e-04 3.364059902786e-03 0.0 
0.0 0.0 0.0 
-1.596445846666e-03 3.688886596710e-03 0.0 
3.688886596710e-03 -1.482520303547e-03 0.0 
0.0 0.0 0.0 
-5.584690493369e-04 4.190253566696e-03 0.0 
4.190253566696e-03 1.036652243164e-02 0.0 
0.0 0.0 0.0 
-1.653344725063e-03 -6.853138469916e-06 0.0 
-6.853138469916e-06 1.059429934008e-02 0.0 
0.0 0.0 0.0 
-1.695283439980e-03 -8.216909013084e-06 0.0 
-8.216909013084e-06 1.062955786626e-02 0.0 
0.0 0.0 0.0 
-1.622170456780e-03 -8.372738963745e-06 0.0 
-8.372738963745e-06 1.062939066680e-02 0.0 
0.0 0.0 0.0 
-1.692617464091e-03 -3.914000222461e-05 0.0 
-3.914000222461e-05 1.063274745040e-02 0.0 
0.0 0.0 0.0 
-1.632605768347e-03 -2.622589846872e-05 0.0 
-2.622589846872e-05 1.063047276905e-02 0.0 
0.0 0.0 0.0 
-1.699076322809e-03 -5.565691043889e-05 0.0 
-5.565691043889e-05 1.063133809661e-02 0.0 
0.0 0.0 0.0 
-1.639025697923e-03 -3.949077530472e-05 0.0 
-3.949077530472e-05 1.062750436334e-02 0.0 
0.0 0.0 0.0 
-1.710695387484e-03 -6.912139772707e-05 0.0 
-6.912139772707e-05 1.063052288017e-02 0.0 
0.0 0.0 0.0 
-1.643643134666e-03 -4.759320685585e-05 0.0 
-4.759320685585e-05 1.062409314100e-02 0.0 
0.0 0.0 0.0 
-1.728625021305e-03 -7.985022632106e-05 0.0 
-7.985022632106e-05 1.063065562101e-02 0.0 
0.0 0.0 0.0 
-1.646810237568e-03 -5.219052143221e-05 0.0 
-5.219052143221e-05 1.062051687691e-02 0.0 
0.0 0.0 0.0 
-1.749677193381e-03 -8.853869339416e-05 0.0 
-8.853869339416e-05 1.063055621497e-02 0.0 
0.0 0.0 0.0 
-1.648485030488e-03 -5.212159103625e-05 0.0 
-5.212159103625e-05 1.061471121916e-02 0.0 
0.0 0.0 0.0 
-1.777859491547e-03 -9.418315380666e-05 0.0 
-9.418315380666e-05 1.063021237381e-02 0.0 
0.0 0.0 0.0 
-1.648662271390e-03 -4.846596301486e-05 0.0 
-4.846596301486e-05 1.060675760868e-02 0.0 
0.0 0.0 0.0 
-2.198101026184e-03 1.146348286415e-03 0.0 
1.146348286415e-03 1.024349513118e-02 0.0 
0.0 0.0 0.0 
-1.811160054319e-03 -9.756368010912e-05 0.0 
-9.756368010912e-05 1.062825637806e-02 0.0 
0.0 0.0 0.0 
-2.472349568853e-03 8.840960640379e-04 0.0 
8.840960640379e-04 1.053505746119e-02 0.0 
0.0 0.0 0.0 
-1.644362110894e-03 -3.808818549534e-05 0.0 
-3.808818549534e-05 1.059304825960e-02 0.0 
0.0 0.0 0.0 
-1.839504453330e-03 -9.197833859764e-05 0.0 
-9.197833859764e-05 1.062198059757e-02 0.0 
0.0 0.0 0.0 
-1.634022121129e-03 -1.783065776944e-05 0.0 
-1.783065776944e-05 1.057206411140e-02 0.0 
0.0 0.0 0.0 
-1.871250264580e-03 -7.433528327457e-05 0.0 
-7.433528327457e-05 1.061482544732e-02 0.0 
0.0 0.0 0.0 
-1.624055384946e-03 1.306529306007e-05 0.0 
1.306529306007e-05 1.054806101757e-02 0.0 
0.0 0.0 0.0 
-1.911097404286e-03 -4.564856468213e-05 0.0 
-4.564856468213e-05 1.060651220621e-02 0.0 
0.0 0.0 0.0 
-1.701709307158e-03 8.536951678268e-04 0.0 
8.536951678268e-04 9.958021403700e-03 0.0 
0.0 0.0 0.0 
-1.616406995733e-03 5.894360031713e-05 0.0 
5.894360031713e-05 1.051723477045e-02 0.0 
0.0 0.0 0.0 
-1.962440092686e-03 1.208681043984e-06 0.0 
1.208681043984e-06 1.059695395923e-02 0.0 
0.0 0.0 0.0 
-1.617264939732e-03 1.251965820126e-04 0.0 
1.251965820126e-04 1.047990269808e-02 0.0 
0.0 0.0 0.0 
-2.027813117915e-03 6.898725835486e-05 0.0 
6.898725835486e-05 1.058028718262e-02 0.0 
0.0 0.0 0.0 
-1.598097651571e-03 2.178591955114e-04 0.0 
2.178591955114e-04 1.042343668199e-02 0.0 
0.0 0.0 0.0 
-2.085350200974e-03 1.732017827658e-04 0.0 
1.732017827658e-04 1.055794794318e-02 0.0 
0.0 0.0 0.0 
-1.563830411835e-03 3.436685549180e-04 0.0 
3.436685549180e-04 1.035675914373e-02 0.0 
0.0 0.0 0.0 
-2.153985314809e-03 3.042026981012e-04 0.0 
3.042026981012e-04 1.052185588064e-02 0.0 
0.0 0.0 0.0 
-2.221787511962e-03 5.285856507036e-04 0.0 
5.285856507036e-04 1.049547141505e-02 0.0 
0.0 0.0 0.0 
-1.569248189861e-03 5.127220491228e-04 0.0 
5.127220491228e-04 1.026148245985e-02 0.0 
0.0 0.0 0.0 
-2.879190233370e-03 1.652808590701e-03 0.0 
1.652808590701e-03 1.065159807839e-02 0.0 
0.0 0.0 0.0 
-1.680479370622e-03 7.815304509656e-04 0.0 
7.815304509656e-04 1.018269455182e-02 0.0 
0.0 0.0 0.0 
-2.676494119839e-03 9.800617398278e-04 0.0 
9.800617398278e-04 1.078485062096e-02 0.0 
0.0 0.0 0.0 
-1.723327228642e-03 -5.595484407106e-05 0.0 
-5.595484407106e-05 1.066607586660e-02 0.0 
0.0 0.0 0.0 
-1.681440977805e-03 5.610939593553e-05 0.0 
5.610939593553e-05 1.059116877352e-02 0.0 
0.0 0.0 0.0 
-1.698395729203e-03 -6.870296252571e-06 0.0 
-6.870296252571e-06 1.073809022819e-02 0.0 
0.0 0.0 0.0 
-1.705937740028e-03 9.074449234529e-06 0.0 
9.074449234529e-06 1.052273786204e-02 0.0 
0.0 0.0 0.0 
-3.099188452131e-03 1.802846536308e-03 0.0 
1.802846536308e-03 1.012993990645e-02 0.0 
0.0 0.0 0.0 
-1.722874093701e-03 -2.047562591970e-05 0.0 
-2.047562591970e-05 1.112573131477e-02 0.0 
0.0 0.0 0.0 
-1.695283439980e-03 -1.296904835124e-05 0.0 
-1.296904835124e-05 1.108716112256e-02 0.0 
0.0 0.0 0.0 
-1.728539967697e-03 -1.301937616746e-05 0.0 
-1.301937616746e-05 1.108727027613e-02 0.0 
0.0 0.0 0.0 
-1.692617464091e-03 -2.683714473717e-05 0.0 
-2.683714473717e-05 1.108260447178e-02 0.0 
0.0 0.0 0.0 
-1.743825151975e-03 -1.523076236358e-05 0.0 
-1.523076236358e-05 1.108505133268e-02 0.0 
0.0 0.0 0.0 
-1.699076322809e-03 -3.319315806835e-05 0.0 
-3.319315806835e-05 1.108191062419e-02 0.0 
0.0 0.0 0.0 
-1.764852952818e-03 -1.983183769359e-05 0.0 
-1.983183769359e-05 1.108596486745e-02 0.0 
0.0 0.0 0.0 
-1.710695387484e-03 -3.926544720457e-05 0.0 
-3.926544720457e-05 1.107971622170e-02 0.0 
0.0 0.0 0.0 
-1.789580711242e-03 -1.839136978796e-05 0.0 
-1.839136978796e-05 1.108756165371e-02 0.0 
0.0 0.0 0.0 
-1.728625021305e-03 -4.058600136742e-05 0.0 
-4.058600136742e-05 1.108277732638e-02 0.0 
0.0 0.0 0.0 
-1.826325055053e-03 -1.772965642786e-05 0.0 
-1.772965642786e-05 1.109388683325e-02 0.0 
0.0 0.0 0.0 
-1.749677193381e-03 -3.976004138071e-05 0.0 
-3.976004138071e-05 1.108054037616e-02 0.0 
0.0 0.0 0.0 
-1.866013600915e-03 -7.144788270977e-06 0.0 
-7.144788270977e-06 1.109890140075e-02 0.0 
0.0 0.0 0.0 
-2.434026105445e-03 1.072402885230e-03 0.0 
1.072402885230e-03 1.077508086691e-02 0.0 
0.0 0.0 0.0 
-1.777859491547e-03 -3.048219276706e-05 0.0 
-3.048219276706e-05 1.108304357480e-02 0.0 
0.0 0.0 0.0 
-1.919765816136e-03 4.915513041936e-06 0.0 
4.915513041936e-06 1.110755772420e-02 0.0 
0.0 0.0 0.0 
-2.221787511962e-03 9.587791467871e-04 0.0 
9.587791467871e-04 1.058004634254e-02 0.0 
0.0 0.0 0.0 
-1.811160054319e-03 -1.459855678513e-05 0.0 
-1.459855678513e-05 1.107753637260e-02 0.0 
0.0 0.0 0.0 
-1.977258848537e-03 2.969295259914e-05 0.0 
2.969295259914e-05 1.111262322903e-02 0.0 
0.0 0.0 0.0 
-2.584012247294e-03 8.711814611562e-04 0.0 
8.711814611562e-04 1.101379882645e-02 0.0 
0.0 0.0 0.0 
-1.839504453330e-03 1.232706953045e-05 0.0 
1.232706953045e-05 1.106850090161e-02 0.0 
0.0 0.0 0.0 
-2.048777906919e-03 6.437778361139e-05 0.0 
6.437778361139e-05 1.111722220861e-02 0.0 
0.0 0.0 0.0 
-1.871250264580e-03 5.082899618297e-05 0.0 
5.082899618297e-05 1.105431406044e-02 0.0 
0.0 0.0 0.0 
-2.113863669860e-03 1.088089832632e-04 0.0 
1.088089832632e-04 1.111722517838e-02 0.0 
0.0 0.0 0.0 
-1.911097404286e-03 1.091225807238e-04 0.0 
1.091225807238e-04 1.103192412788e-02 0.0 
0.0 0.0 0.0 
-2.701193361748e-03 1.319870329638e-03 0.0 
1.319870329638e-03 1.096334466910e-02 0.0 
0.0 0.0 0.0 
-2.194374532487e-03 1.759061389587e-04 0.0 
1.759061389587e-04 1.111435257939e-02 0.0 
0.0 0.0 0.0 
-1.962440092686e-03 1.953526642218e-04 0.0 
1.953526642218e-04 1.100185022121e-02 0.0 
0.0 0.0 0.0 
-2.027813117915e-03 3.153134030725e-04 0.0 
3.153134030725e-04 1.096294330282e-02 0.0 
0.0 0.0 0.0 
-2.285057477483e-03 2.695708518560e-04 0.0 
2.695708518560e-04 1.110576995811e-02 0.0 
0.0 0.0 0.0 
-2.085350200974e-03 4.865724816358e-04 0.0 
4.865724816358e-04 1.088225963555e-02 0.0 
0.0 0.0 0.0 
-2.391507227626e-03 3.898388270076e-04 0.0 
3.898388270076e-04 1.108598158056e-02 0.0 
0.0 0.0 0.0 
-2.153985314809e-03 7.418512418693e-04 0.0 
7.418512418693e-04 1.079684538935e-02 0.0 
0.0 0.0 0.0 
-2.433019168505e-03 5.872426174926e-04 0.0 
5.872426174926e-04 1.103875535894e-02 0.0 
0.0 0.0 0.0 
-2.622765925188e-03 1.043510480272e-03 0.0 
1.043510480272e-03 1.092687633224e-02 0.0 
0.0 0.0 0.0 
-1.685523702890e-03 -5.972736020185e-05 0.0 
-5.972736020185e-05 1.105476534431e-02 0.0 
0.0 0.0 0.0 
-1.727320412917e-03 4.711386849963e-05 0.0 
4.711386849963e-05 1.112971101368e-02 0.0 
0.0 0.0 0.0 
-1.698395729203e-03 -1.277768357663e-05 0.0 
-1.277768357663e-05 1.097575372001e-02 0.0 
0.0 0.0 0.0 
-1.715324892170e-03 2.855592956973e-06 0.0 
2.855592956973e-06 1.120432385817e-02 0.0 
0.0 0.0 0.0 
-2.472349568853e-03 1.460629708255e-03 0.0 
1.460629708255e-03 1.047215301518e-02 0.0 
0.0 0.0 0.0 
-1.722874093701e-03 -1.814676471670e-05 0.0 
-1.814676471670e-05 1.148549936595e-02 0.0 
0.0 0.0 0.0 
-1.724562921332e-03 -2.047624795707e-06 0.0 
-2.047624795707e-06 1.151729961506e-02 0.0 
0.0 0.0 0.0 
-1.728539967697e-03 2.593684785859e-06 0.0 
2.593684785859e-06 1.151676734004e-02 0.0 
0.0 0.0 0.0 
-1.746804617041e-03 -7.100670557313e-07 0.0 
-7.100670557313e-07 1.152592652615e-02 0.0 
0.0 0.0 0.0 
-1.743825151975e-03 1.055991845002e-05 0.0 
1.055991845002e-05 1.152391450865e-02 0.0 
0.0 0.0 0.0 
-1.771665091639e-03 2.758141262028e-06 0.0 
2.758141262028e-06 1.153182136007e-02 0.0 
0.0 0.0 0.0 
-1.764852952818e-03 1.688714679160e-05 0.0 
1.688714679160e-05 1.152840260252e-02 0.0 
0.0 0.0 0.0 
-1.802914363834e-03 3.830893642033e-06 0.0 
3.830893642033e-06 1.153382017645e-02 0.0 
0.0 0.0 0.0 
-1.789580711242e-03 3.001212691580e-05 0.0 
3.001212691580e-05 1.152583145619e-02 0.0 
0.0 0.0 0.0 
-1.836148468212e-03 2.088549106762e-05 0.0 
2.088549106762e-05 1.154238163510e-02 0.0 
0.0 0.0 0.0 
-1.826325055053e-03 4.435210272185e-05 0.0 
4.435210272185e-05 1.153379338214e-02 0.0 
0.0 0.0 0.0 
-1.890185772932e-03 2.827227300283e-05 0.0 
2.827227300283e-05 1.154852685617e-02 0.0 
0.0 0.0 0.0 
-2.585949277464e-03 9.701248509386e-04 0.0 
9.701248509386e-04 1.132073152897e-02 0.0 
0.0 0.0 0.0 
-1.866013600915e-03 6.950171397590e-05 0.0 
6.950171397590e-05 1.153052542856e-02 0.0 
0.0 0.0 0.0 
-2.613750960285e-03 7.828753370723e-04 0.0 
7.828753370723e-04 1.149136291544e-02 0.0 
0.0 0.0 0.0 
-1.940878014319e-03 5.927822516883e-05 0.0 
5.927822516883e-05 1.155866834834e-02 0.0 
0.0 0.0 0.0 
-1.919765816136e-03 1.008544433142e-04 0.0 
1.008544433142e-04 1.153793422781e-02 0.0 
0.0 0.0 0.0 
-2.017513046183e-03 8.390209930471e-05 0.0 
8.390209930471e-05 1.156585207728e-02 0.0 
0.0 0.0 0.0 
-1.977258848537e-03 1.462798926172e-04 0.0 
1.462798926172e-04 1.153000796007e-02 0.0 
0.0 0.0 0.0 
-2.100110466416e-03 1.339621573649e-04 0.0 
1.339621573649e-04 1.157383147910e-02 0.0 
0.0 0.0 0.0 
-2.048777906919e-03 2.094511294542e-04 0.0 
2.094511294542e-04 1.152498566859e-02 0.0 
0.0 0.0 0.0 
-2.184904834307e-03 2.014504202791e-04 0.0 
2.014504202791e-04 1.157645455740e-02 0.0 
0.0 0.0 0.0 
-2.433019168505e-03 9.140911356909e-04 0.0 
9.140911356909e-04 1.113229037028e-02 0.0 
0.0 0.0 0.0 
-2.113863669860e-03 2.956398451720e-04 0.0 
2.956398451720e-04 1.150807248934e-02 0.0 
0.0 0.0 0.0 
-2.289349398071e-03 2.901141263102e-04 0.0 
2.901141263102e-04 1.157439482244e-02 0.0 
0.0 0.0 0.0 
-2.194374532487e-03 4.047928681151e-04 0.0 
4.047928681151e-04 1.148161434327e-02 0.0 
0.0 0.0 0.0 
-2.390712415413e-03 4.067544729605e-04 0.0 
4.067544729605e-04 1.155893802675e-02 0.0 
0.0 0.0 0.0 
-2.492193727526e-03 5.719608424041e-04 0.0 
5.719608424041e-04 1.152965809590e-02 0.0 
0.0 0.0 0.0 
-2.285057477483e-03 5.509287501758e-04 0.0 
5.509287501758e-04 1.143324101505e-02 0.0 
0.0 0.0 0.0 
-2.391507227626e-03 7.400830301423e-04 0.0 
7.400830301423e-04 1.137413311608e-02 0.0 
0.0 0.0 0.0 
-2.744211885651e-03 1.131843269080e-03 0.0 
1.131843269080e-03 1.144499034182e-02 0.0 
0.0 0.0 0.0 
-2.684227379691e-03 9.461375199521e-04 0.0 
9.461375199521e-04 1.134955936253e-02 0.0 
0.0 0.0 0.0 
-1.731910841653e-03 -4.925347740725e-05 0.0 
-4.925347740725e-05 1.151681059974e-02 0.0 
0.0 0.0 0.0 
-1.711942275970e-03 5.900889564390e-05 0.0 
5.900889564390e-05 1.148095134111e-02 0.0 
0.0 0.0 0.0 
-1.728040403409e-03 2.681267021281e-06 0.0 
2.681267021281e-06 1.161397899010e-02 0.0 
0.0 0.0 0.0 
-1.715324892170e-03 9.268871094398e-06 0.0 
9.268871094398e-06 1.138758374072e-02 0.0 
0.0 0.0 0.0 
-2.584012247294e-03 1.249086210604e-03 0.0 
1.249086210604e-03 1.106274615386e-02 0.0 
0.0 0.0 0.0 

TENSORS element_materi_strain_plasti float
-1.278716781713e-04 2.317088785895e-03 0.0 
2.317088785895e-03 1.725589617193e-03 0.0 
0.0 0.0 -6.847362595807e-04 
-1.156199042648e-04 2.024353748068e-03 0.0 
2.024353748068e-03 1.515455915080e-03 0.0 
0.0 0.0 -5.999297189210e-04 
-1.399419419615e-03 2.869344170324e-03 0.0 
2.869344170324e-03 7.127002349296e-03 0.0 
0.0 0.0 -1.278236581085e-03 
-1.499770292198e-03 1.938127459123e-04 0.0 
1.938127459123e-04 8.462485561252e-03 0.0 
0.0 0.0 -1.255598393855e-03 
-1.590286579790e-03 5.866412250785e-04 0.0 
5.866412250785e-04 5.570411940462e-03 0.0 
0.0 0.0 -7.961861350945e-04 
9.753052699299e-04 2.049730811989e-03 0.0 
2.049730811989e-03 -7.410546550660e-04 0.0 
0.0 0.0 -1.003931206560e-04 
-1.532722360608e-03 5.037005669365e-04 0.0 
5.037005669365e-04 5.548158926813e-03 0.0 
0.0 0.0 -8.011023898636e-04 
6.217083316276e-05 2.386622999709e-03 0.0 
2.386622999709e-03 1.415043626867e-03 0.0 
0.0 0.0 -6.330919114413e-04 
-1.605315258057e-03 4.380832637377e-06 0.0 
4.380832637377e-06 5.621376957900e-03 0.0 
0.0 0.0 -7.977904104815e-04 
-1.475813289088e-03 8.034655794974e-04 0.0 
8.034655794974e-04 8.366055234102e-03 0.0 
0.0 0.0 -1.253060141438e-03 
-1.723349006480e-03 -4.463465104632e-04 0.0 
-4.463465104632e-04 5.097851564140e-03 0.0 
0.0 0.0 -1.066978692879e-03 
5.108532101030e-06 1.964113970332e-03 0.0 
1.964113970332e-03 1.245831196254e-03 0.0 
0.0 0.0 -5.361170264378e-04 
-1.727294747470e-03 -3.711696677191e-04 0.0 
-3.711696677191e-04 6.945132129710e-03 0.0 
0.0 0.0 -1.259187713256e-03 
-1.707478703098e-03 1.059006860170e-03 0.0 
1.059006860170e-03 5.791719022601e-03 0.0 
0.0 0.0 -8.526168115438e-04 
-1.560262196776e-03 -9.393570101401e-04 0.0 
-9.393570101401e-04 6.928774089182e-03 0.0 
0.0 0.0 -1.289538875031e-03 
-1.440818830272e-03 6.754770737443e-04 0.0 
6.754770737443e-04 8.548838696717e-03 0.0 
0.0 0.0 -1.285984941237e-03 
-1.662616207287e-03 5.344607310422e-04 0.0 
5.344607310422e-04 5.529033418926e-03 0.0 
0.0 0.0 -7.740676797406e-04 
7.357046437425e-05 6.570695833459e-05 0.0 
6.570695833459e-05 -7.357046437425e-05 0.0 
0.0 0.0 0.0 
-6.149932217399e-04 -2.296531181353e-04 0.0 
-2.296531181353e-04 1.902161440616e-03 0.0 
0.0 0.0 -2.776016825098e-04 
-5.498585393581e-04 -2.166839192677e-04 0.0 
-2.166839192677e-04 1.738279106343e-03 0.0 
0.0 0.0 -4.484512109716e-04 
-1.512957112042e-03 4.043623184242e-04 0.0 
4.043623184242e-04 8.437324312554e-03 0.0 
0.0 0.0 -1.250388265701e-03 
-3.873012428043e-04 2.129273940428e-03 0.0 
2.129273940428e-03 2.185606563766e-03 0.0 
0.0 0.0 -7.707022804121e-04 
-4.415956435739e-04 2.226005795527e-03 0.0 
2.226005795527e-03 2.374460708771e-03 0.0 
0.0 0.0 -8.283707422273e-04 
-4.392711161920e-04 -9.745966439417e-04 0.0 
-9.745966439417e-04 3.836297522503e-03 0.0 
0.0 0.0 -1.210372970477e-03 
-1.729903628601e-03 1.506745383258e-03 0.0 
1.506745383258e-03 5.975665893657e-03 0.0 
0.0 0.0 -9.130988374533e-04 
-1.810671457854e-03 -7.476421640110e-04 0.0 
-7.476421640110e-04 5.330964071115e-03 0.0 
0.0 0.0 -1.080045423496e-03 
-1.736477005164e-03 1.109495533801e-03 0.0 
1.109495533801e-03 4.957414051106e-03 0.0 
0.0 0.0 -7.148082707961e-04 
-9.553018808659e-04 3.102749138761e-03 0.0 
3.102749138761e-03 5.566273317297e-03 0.0 
0.0 0.0 -1.266047838742e-03 
-1.821356794347e-03 1.188786638151e-03 0.0 
1.188786638151e-03 6.013421513739e-03 0.0 
0.0 0.0 -9.113908267906e-04 
-6.554257296263e-04 -8.444129216472e-04 0.0 
-8.444129216472e-04 4.294151155513e-03 0.0 
0.0 0.0 -1.237914324842e-03 
1.345111965206e-03 -2.563071370678e-03 0.0 
-2.563071370678e-03 -3.409519374557e-04 0.0 
0.0 0.0 -4.303542976074e-04 
3.575551772738e-04 -9.432915107626e-04 0.0 
-9.432915107626e-04 3.359353657627e-04 0.0 
0.0 0.0 -1.059755802940e-04 
-1.524187206040e-03 3.047553797097e-03 0.0 
3.047553797097e-03 7.492448074924e-03 0.0 
0.0 0.0 -1.261301343383e-03 
-2.126259398598e-03 -4.008249318176e-04 0.0 
-4.008249318176e-04 6.245433906960e-03 0.0 
0.0 0.0 -1.090200430068e-03 
-1.168924377092e-03 -2.135391167217e-03 0.0 
-2.135391167217e-03 5.528728836968e-03 0.0 
0.0 0.0 -1.254989870190e-03 
-1.506183274607e-03 -1.403999252581e-03 0.0 
-1.403999252581e-03 6.695784423920e-03 0.0 
0.0 0.0 -1.314886350686e-03 
-1.405965625827e-03 -2.094418066157e-03 0.0 
-2.094418066157e-03 6.677666447639e-03 0.0 
0.0 0.0 -1.314653105918e-03 
-6.328504155879e-04 1.260189016710e-03 0.0 
1.260189016710e-03 4.185986138576e-03 0.0 
0.0 0.0 -1.264739017786e-03 
-1.486815579568e-03 -1.990720886798e-04 0.0 
-1.990720886798e-04 5.107008468447e-03 0.0 
0.0 0.0 -7.380763454961e-04 
-1.448070308282e-03 4.493602178438e-04 0.0 
4.493602178438e-04 5.173305882684e-03 0.0 
0.0 0.0 -7.371174501546e-04 
-8.280494050984e-04 2.109474212237e-03 0.0 
2.109474212237e-03 3.158688487348e-03 0.0 
0.0 0.0 -8.774464902234e-04 
-1.113239206738e-03 -1.655283581889e-03 0.0 
-1.655283581889e-03 5.115282801902e-03 0.0 
0.0 0.0 -1.280756488215e-03 
3.008174076713e-04 2.119260517804e-03 0.0 
2.119260517804e-03 8.825314744810e-04 0.0 
0.0 0.0 -5.071495209224e-04 
-1.653413400617e-03 1.159238962241e-03 0.0 
1.159238962241e-03 4.683778627350e-03 0.0 
0.0 0.0 -7.557105610435e-04 
-1.547330050851e-03 3.671214089611e-05 0.0 
3.671214089611e-05 8.340609894926e-03 0.0 
0.0 0.0 -1.212858513926e-03 
3.049695683184e-04 2.191509382836e-03 0.0 
2.191509382836e-03 9.207765491606e-04 0.0 
0.0 0.0 -5.253197646338e-04 
1.207574275293e-03 -2.365696291912e-03 0.0 
-2.365696291912e-03 -7.132596237324e-04 0.0 
0.0 0.0 -2.118491363831e-04 
-1.445646034229e-03 2.633500934319e-04 0.0 
2.633500934319e-04 8.137788974429e-03 0.0 
0.0 0.0 -1.234743356787e-03 
1.908988241954e-04 -8.061125310431e-04 0.0 
-8.061125310431e-04 -1.579045808257e-05 0.0 
0.0 0.0 -7.504644261978e-05 
-1.740092141895e-03 6.147961927965e-04 0.0 
6.147961927965e-04 5.664008038323e-03 0.0 
0.0 0.0 -8.229436299569e-04 
-6.078592580179e-04 2.220023986171e-03 0.0 
2.220023986171e-03 2.788765867991e-03 0.0 
0.0 0.0 -9.296584868968e-04 
-8.623973456416e-04 -2.162048895284e-04 0.0 
-2.162048895284e-04 2.432076766193e-03 0.0 
0.0 0.0 -4.150917825895e-04 
2.292279279293e-03 -2.762669743217e-03 0.0 
-2.762669743217e-03 -9.405005062222e-04 0.0 
0.0 0.0 -5.793337598876e-04 
-6.898259874441e-04 2.091701766161e-03 0.0 
2.091701766161e-03 2.855891423984e-03 0.0 
0.0 0.0 -8.656335400463e-04 
-1.445100174427e-03 2.379194139466e-03 0.0 
2.379194139466e-03 7.706829156199e-03 0.0 
0.0 0.0 -1.282189168212e-03 
-9.586804568965e-04 -6.913799780171e-04 0.0 
-6.913799780171e-04 2.989840683449e-03 0.0 
0.0 0.0 -7.128710764410e-04 
-6.997308059935e-04 -2.320910788817e-04 0.0 
-2.320910788817e-04 2.233925226019e-03 0.0 
0.0 0.0 -5.951090654820e-04 
-2.130460140960e-03 -2.340494849444e-04 0.0 
-2.340494849444e-04 6.282260078053e-03 0.0 
0.0 0.0 -1.087734043503e-03 
1.076454852669e-04 -7.426368379909e-04 0.0 
-7.426368379909e-04 1.194913348537e-03 0.0 
0.0 0.0 -3.122055485762e-04 
-1.457512378927e-03 3.071898754378e-04 0.0 
3.071898754378e-04 8.560769857503e-03 0.0 
0.0 0.0 -1.285320035817e-03 
0.0 0.0 0.0 
0.0 0.0 0.0 
0.0 0.0 0.0 
-5.387044635243e-04 2.656482396914e-03 0.0 
2.656482396914e-03 4.203857407929e-03 0.0 
0.0 0.0 -1.210824713543e-03 
3.439414593790e-04 2.794168595655e-03 0.0 
2.794168595655e-03 1.235314347192e-03 0.0 
0.0 0.0 -6.768239171020e-04 
2.349935129578e-03 -2.770680198001e-03 0.0 
-2.770680198001e-03 -6.796113691984e-04 0.0 
0.0 0.0 -7.158530401625e-04 
-1.671429738175e-03 -1.210022446990e-03 0.0 
-1.210022446990e-03 6.777156017205e-03 0.0 
0.0 0.0 -1.257478522087e-03 
-5.278364963199e-04 2.118194625541e-03 0.0 
2.118194625541e-03 2.531471725177e-03 0.0 
0.0 0.0 -8.587008123673e-04 
0.0 0.0 0.0 
0.0 0.0 0.0 
0.0 0.0 0.0 
-1.493925828084e-03 3.040545355870e-03 0.0 
3.040545355870e-03 7.302395090943e-03 0.0 
0.0 0.0 -1.261660853087e-03 
4.867824217369e-04 -2.505859056628e-03 0.0 
-2.505859056628e-03 8.835287678333e-04 0.0 
0.0 0.0 -5.872762241015e-04 
-1.271990412820e-03 3.214687538356e-03 0.0 
3.214687538356e-03 6.250345422673e-03 0.0 
0.0 0.0 -1.282376455277e-03 
-1.831786578585e-03 -1.075910520083e-03 0.0 
-1.075910520083e-03 5.407233681497e-03 0.0 
0.0 0.0 -1.080053202689e-03 
-1.338499280800e-03 1.682976327997e-03 0.0 
1.682976327997e-03 8.399936015446e-03 0.0 
0.0 0.0 -1.338499280800e-03 
-9.312572041143e-04 2.894697176184e-03 0.0 
2.894697176184e-03 4.910832013066e-03 0.0 
0.0 0.0 -1.232909111256e-03 
1.433784453303e-03 -9.093882019497e-05 0.0 
-9.093882019497e-05 -5.456392549777e-05 0.0 
0.0 0.0 -2.878745769087e-04 
-9.147252279940e-04 -5.669281210358e-04 0.0 
-5.669281210358e-04 2.973437083954e-03 0.0 
0.0 0.0 -8.116687730804e-04 
-1.536993954654e-03 1.126957410002e-03 0.0 
1.126957410002e-03 8.303326713538e-03 0.0 
0.0 0.0 -1.262626981217e-03 
-1.574019976009e-03 2.576738749078e-03 0.0 
2.576738749078e-03 7.875617774672e-03 0.0 
0.0 0.0 -1.265352048664e-03 
4.720058723338e-04 2.134723574062e-03 0.0 
2.134723574062e-03 6.830651359346e-04 0.0 
0.0 0.0 -4.950304321150e-04 
-3.200456338227e-04 -3.352696368382e-04 0.0 
-3.352696368382e-04 1.110105412521e-03 0.0 
0.0 0.0 -3.374836250442e-04 
5.206675697946e-04 2.217090668705e-03 0.0 
2.217090668705e-03 6.763455683265e-04 0.0 
0.0 0.0 -5.130056306233e-04 
4.804782057485e-04 -2.508358039830e-03 0.0 
-2.508358039830e-03 8.916054330170e-04 0.0 
0.0 0.0 -5.880358451852e-04 
-1.625607394925e-03 4.831506481737e-04 0.0 
4.831506481737e-04 5.291976980867e-03 0.0 
0.0 0.0 -7.918363975426e-04 
-2.908848742719e-04 2.252062443166e-03 0.0 
2.252062443166e-03 2.033636756898e-03 0.0 
0.0 0.0 -7.468936639825e-04 
-2.599695243754e-04 1.891700121758e-03 0.0 
1.891700121758e-03 1.743771242898e-03 0.0 
0.0 0.0 -6.359150222241e-04 
-1.678000531135e-03 1.594922248822e-04 0.0 
1.594922248822e-04 5.821879659601e-03 0.0 
0.0 0.0 -8.336771054075e-04 
-1.596383286677e-03 5.670740920774e-04 0.0 
5.670740920774e-04 5.789976808295e-03 0.0 
0.0 0.0 -8.358076868167e-04 
-1.951624680642e-03 -7.308270384445e-04 0.0 
-7.308270384445e-04 5.657668243585e-03 0.0 
0.0 0.0 -1.080533843704e-03 
-2.196082702137e-03 8.354918695911e-05 0.0 
8.354918695911e-05 6.184278536814e-03 0.0 
0.0 0.0 -1.059807920279e-03 
-1.525646772161e-03 2.625569910847e-03 0.0 
2.625569910847e-03 6.112973773832e-03 0.0 
0.0 0.0 -1.085941371602e-03 
-1.648645582224e-03 1.246285648401e-04 0.0 
1.246285648401e-04 5.489793155500e-03 0.0 
0.0 0.0 -7.983229688164e-04 
-1.123057724715e-05 -5.872900984588e-04 0.0 
-5.872900984588e-04 3.960725969021e-04 0.0 
0.0 0.0 -1.649322941379e-04 
-1.757846623502e-03 1.222419041867e-03 0.0 
1.222419041867e-03 5.122536551657e-03 0.0 
0.0 0.0 -7.928983479555e-04 
-1.578530100158e-03 5.920453420347e-05 0.0 
5.920453420347e-05 7.247400490716e-03 0.0 
0.0 0.0 -1.069439317440e-03 
-1.600676841679e-03 3.339381263473e-04 0.0 
3.339381263473e-04 7.321452075562e-03 0.0 
0.0 0.0 -1.046447409317e-03 
-1.502072334268e-03 1.832498170444e-03 0.0 
1.832498170444e-03 8.633609047693e-03 0.0 
0.0 0.0 -1.319970921405e-03 
-9.007094055422e-04 1.223013959388e-03 0.0 
1.223013959388e-03 4.725884480151e-03 0.0 
0.0 0.0 -1.294194962782e-03 
-1.674253522828e-03 4.484898109266e-04 0.0 
4.484898109266e-04 5.280548957068e-03 0.0 
0.0 0.0 -7.889745663688e-04 
-1.078149223136e-03 -1.912876176720e-03 0.0 
-1.912876176720e-03 5.515902141362e-03 0.0 
0.0 0.0 -1.263183913703e-03 
-1.546584036688e-03 -9.624953365827e-05 0.0 
-9.624953365827e-05 6.233353762451e-03 0.0 
0.0 0.0 -9.040008563810e-04 
1.411194399049e-04 2.915371637598e-03 0.0 
2.915371637598e-03 1.618838156256e-03 0.0 
0.0 0.0 -7.542675412120e-04 
-1.587713497171e-03 1.272120189302e-04 0.0 
1.272120189302e-04 5.375209747655e-03 0.0 
0.0 0.0 -7.643292725052e-04 
-1.604005809179e-03 -6.682657737697e-04 0.0 
-6.682657737697e-04 6.948639054056e-03 0.0 
0.0 0.0 -1.287517816355e-03 
3.542986660605e-04 2.115271012738e-03 0.0 
2.115271012738e-03 2.453989176071e-03 0.0 
0.0 0.0 -1.043751955586e-03 
-5.121197440995e-04 2.106847301720e-03 0.0 
2.106847301720e-03 4.264562002622e-03 0.0 
0.0 0.0 -1.209599240962e-03 
8.414669120651e-04 2.750323762399e-03 0.0 
2.750323762399e-03 6.433152604662e-04 0.0 
0.0 0.0 -6.363352167991e-04 
5.516999887664e-04 -2.796976242529e-03 0.0 
-2.796976242529e-03 1.148224010342e-04 0.0 
0.0 0.0 -2.856524527717e-04 
-1.904299824368e-03 -6.917450604687e-04 0.0 
-6.917450604687e-04 6.641778035438e-03 0.0 
0.0 0.0 -1.189902873528e-03 
-1.601708388107e-03 3.286250233117e-04 0.0 
3.286250233117e-04 7.722816405099e-03 0.0 
0.0 0.0 -1.108790581071e-03 
3.810766207411e-05 -6.205157488134e-04 0.0 
-6.205157488134e-04 -3.810766207412e-05 0.0 
0.0 0.0 0.0 
-1.434793545909e-03 -1.524718547292e-03 0.0 
-1.524718547292e-03 6.503522325473e-03 0.0 
0.0 0.0 -1.285127980003e-03 
-1.436465131336e-03 2.957908754166e-03 0.0 
2.957908754166e-03 5.615958785865e-03 0.0 
0.0 0.0 -1.051491716222e-03 
2.107685358584e-03 1.966346604052e-04 0.0 
1.966346604052e-04 -5.019158565474e-04 0.0 
0.0 0.0 -2.190510374322e-04 
1.208695653732e-03 2.926354061763e-03 0.0 
2.926354061763e-03 1.261066979529e-04 0.0 
0.0 0.0 -5.720581507223e-04 
-1.531499204645e-03 1.574438431832e-03 0.0 
1.574438431832e-03 4.499656748010e-03 0.0 
0.0 0.0 -7.914135736088e-04 
-9.815222315618e-04 -1.138374471426e-03 0.0 
-1.138374471426e-03 3.347141370850e-03 0.0 
0.0 0.0 -9.587991763485e-04 
2.655737035557e-04 2.419593458192e-03 0.0 
2.419593458192e-03 1.115288623384e-03 0.0 
0.0 0.0 -5.917981401168e-04 
3.744529332960e-04 2.946102748991e-03 0.0 
2.946102748991e-03 1.286129190467e-03 0.0 
0.0 0.0 -7.116780530414e-04 
-1.321847859094e-03 -1.772500593240e-03 0.0 
-1.772500593240e-03 5.826707907603e-03 0.0 
0.0 0.0 -1.283833066805e-03 
-1.525040410968e-03 2.578190730368e-04 0.0 
2.578190730368e-04 6.156621214154e-03 0.0 
0.0 0.0 -8.766975940251e-04 
5.363756903500e-04 2.629255494055e-03 0.0 
2.629255494055e-03 8.922896369145e-04 0.0 
0.0 0.0 -6.122851402562e-04 
1.683483209039e-04 -2.096310185990e-03 0.0 
-2.096310185990e-03 1.080312045122e-03 0.0 
0.0 0.0 -5.351401568681e-04 
-1.746303579404e-03 1.473532537081e-03 0.0 
1.473532537081e-03 5.178940412439e-03 0.0 
0.0 0.0 -7.744920945421e-04 
-1.517476482960e-03 1.097936493812e-04 0.0 
1.097936493812e-04 7.545801257606e-03 0.0 
0.0 0.0 -1.129288753466e-03 
5.838877050126e-04 2.764835075281e-03 0.0 
2.764835075281e-03 9.155423273699e-04 0.0 
0.0 0.0 -6.426128710211e-04 
3.893622582553e-04 1.575203385168e-03 0.0 
1.575203385168e-03 3.980592224466e-04 0.0 
0.0 0.0 -3.374663488723e-04 
-1.195366450636e-03 1.829833708586e-03 0.0 
1.829833708586e-03 3.827762851113e-03 0.0 
0.0 0.0 -8.233021825037e-04 
-1.094193203907e-03 -1.066143348073e-03 0.0 
-1.066143348073e-03 3.532112380788e-03 0.0 
0.0 0.0 -8.981558865158e-04 
-1.046482062160e-03 1.913988030913e-03 0.0 
1.913988030913e-03 3.510208918747e-03 0.0 
0.0 0.0 -8.113141688877e-04 
-1.442225258082e-03 1.605824937381e-03 0.0 
1.605824937381e-03 8.359073722744e-03 0.0 
0.0 0.0 -1.290671971449e-03 
1.101065632512e-03 2.933128537393e-03 0.0 
2.933128537393e-03 9.745442457706e-05 0.0 
0.0 0.0 -5.136514530381e-04 
-1.801548102835e-03 -7.282038970032e-04 0.0 
-7.282038970032e-04 5.288878918754e-03 0.0 
0.0 0.0 -1.060402641786e-03 
-1.486141105577e-03 5.585996661944e-04 0.0 
5.585996661944e-04 8.452622925900e-03 0.0 
0.0 0.0 -1.256690274141e-03 
-3.198454740031e-04 3.015481670953e-03 0.0 
3.015481670953e-03 2.568097898378e-03 0.0 
0.0 0.0 -9.635367533037e-04 
-1.021958554670e-03 1.956756434106e-03 0.0 
1.956756434106e-03 3.500404682426e-03 0.0 
0.0 0.0 -8.457158960689e-04 
-1.158957625686e-03 -1.674495574427e-03 0.0 
-1.674495574427e-03 5.533719249484e-03 0.0 
0.0 0.0 -1.254964138299e-03 
-1.718729624033e-03 -7.379037217155e-04 0.0 
-7.379037217155e-04 6.953664324138e-03 0.0 
0.0 0.0 -1.261070974318e-03 
-1.967620110819e-03 -6.331696876036e-04 0.0 
-6.331696876036e-04 5.669647458342e-03 0.0 
0.0 0.0 -1.061066130071e-03 
-6.061740370739e-04 3.049979969874e-03 0.0 
3.049979969874e-03 3.089302566165e-03 0.0 
0.0 0.0 -9.441827087005e-04 
-7.851765230129e-04 -1.170373150230e-03 0.0 
-1.170373150230e-03 4.916146318737e-03 0.0 
0.0 0.0 -1.270330610962e-03 
-5.043578746139e-04 2.747041251980e-03 0.0 
2.747041251980e-03 2.809200300211e-03 0.0 
0.0 0.0 -9.719555150774e-04 
-1.411040385942e-03 9.892815171228e-04 0.0 
9.892815171228e-04 8.317615504874e-03 0.0 
0.0 0.0 -1.283174495648e-03 
-1.289076372121e-03 3.481935391156e-03 0.0 
3.481935391156e-03 6.606253020577e-03 0.0 
0.0 0.0 -1.267437373369e-03 
-1.784736589840e-03 7.085096522011e-04 0.0 
7.085096522011e-04 5.733057783552e-03 0.0 
0.0 0.0 -8.543707170918e-04 
-1.586571893561e-03 5.026260166066e-04 0.0 
5.026260166066e-04 6.801986481939e-03 0.0 
0.0 0.0 -9.817831382938e-04 
-5.156399995053e-04 2.841155344974e-03 0.0 
2.841155344974e-03 2.858892473080e-03 0.0 
0.0 0.0 -9.645491798066e-04 
-8.623176927628e-04 1.998107917208e-03 0.0 
1.998107917208e-03 3.164246376073e-03 0.0 
0.0 0.0 -8.398345356346e-04 
-3.881715109885e-04 3.210536691478e-03 0.0 
3.210536691478e-03 2.805390491743e-03 0.0 
0.0 0.0 -1.009766620266e-03 
9.302504035183e-04 2.952397877038e-03 0.0 
2.952397877038e-03 6.425944529841e-04 0.0 
0.0 0.0 -6.740763670724e-04 
-1.542505755946e-03 1.216931962656e-05 0.0 
1.216931962656e-05 5.518918282905e-03 0.0 
0.0 0.0 -7.693993191400e-04 
1.440386328935e-03 3.141679147944e-03 0.0 
3.141679147944e-03 1.287757348394e-04 0.0 
0.0 0.0 -6.724980273319e-04 
1.173568897977e-04 -7.192653952147e-04 0.0 
-7.192653952147e-04 2.932653952173e-04 0.0 
0.0 0.0 -1.759809792922e-04 
-1.513364044801e-03 4.633102658988e-05 0.0 
4.633102658988e-05 5.921965621168e-03 0.0 
0.0 0.0 -8.171079392438e-04 
-4.255541535768e-04 -1.657123349734e-04 0.0 
-1.657123349734e-04 1.278602330907e-03 0.0 
0.0 0.0 -2.802839825148e-04 
-1.368206188634e-03 1.704449020245e-03 0.0 
1.704449020245e-03 4.168743630605e-03 0.0 
0.0 0.0 -8.053258742841e-04 
-1.010207907769e-03 -1.246817911064e-03 0.0 
-1.246817911064e-03 4.735746548095e-03 0.0 
0.0 0.0 -1.284796145094e-03 
7.390568671829e-04 2.553228098249e-03 0.0 
2.553228098249e-03 5.918003010214e-04 0.0 
0.0 0.0 -5.703673578019e-04 
-2.093082199977e-03 -2.605836003403e-04 0.0 
-2.605836003403e-04 5.949086090445e-03 0.0 
0.0 0.0 -1.062413871926e-03 
1.655520854684e-04 2.161371362285e-03 0.0 
2.161371362285e-03 1.103022204114e-03 0.0 
0.0 0.0 -5.436746955351e-04 
2.242015872536e-04 2.776975076431e-03 0.0 
2.776975076431e-03 2.408189383906e-03 0.0 
0.0 0.0 -1.044905595188e-03 
-1.509926535812e-03 9.806530388370e-05 0.0 
9.806530388370e-05 5.368363465218e-03 0.0 
0.0 0.0 -7.899655494116e-04 
1.682599579449e-03 2.941445331381e-03 0.0 
2.941445331381e-03 -2.715371857708e-04 0.0 
0.0 0.0 -6.047410258623e-04 
-2.057240178145e-03 -7.296543458156e-04 0.0 
-7.296543458156e-04 6.353419805029e-03 0.0 
0.0 0.0 -1.120963572432e-03 
7.939550842650e-05 -1.701837783695e-03 0.0 
-1.701837783695e-03 9.541700722220e-04 0.0 
0.0 0.0 -4.429566774208e-04 
-1.888286542342e-03 -4.078361496187e-04 0.0 
-4.078361496187e-04 6.637817436663e-03 0.0 
0.0 0.0 -1.189111243166e-03 
-1.407485654430e-03 2.291313923690e-03 0.0 
2.291313923690e-03 4.423118315057e-03 0.0 
0.0 0.0 -8.496092609019e-04 
-1.655956820216e-03 -1.430755689950e-03 0.0 
-1.430755689950e-03 6.808595235967e-03 0.0 
0.0 0.0 -1.265987209193e-03 
-1.479137566383e-03 6.125436213776e-05 0.0 
6.125436213776e-05 5.372221524286e-03 0.0 
0.0 0.0 -7.842605076999e-04 
1.138347058752e-03 2.740886700746e-03 0.0 
2.740886700746e-03 1.338850972854e-04 0.0 
0.0 0.0 -5.452423525874e-04 
-1.371065394049e-03 1.713545049238e-03 0.0 
1.713545049238e-03 4.152463321133e-03 0.0 
0.0 0.0 -7.801847948469e-04 
-1.782923268792e-03 -4.744584193542e-04 0.0 
-4.744584193542e-04 5.239530130494e-03 0.0 
0.0 0.0 -1.068702715777e-03 
1.574789883305e-04 2.145072666255e-03 0.0 
2.145072666255e-03 1.105288466408e-03 0.0 
0.0 0.0 -5.411860520308e-04 
1.917158204157e-03 2.902714119045e-03 0.0 
2.902714119045e-03 -2.818191306246e-04 0.0 
0.0 0.0 -7.008596029424e-04 
-1.624113157274e-03 6.876053139899e-05 0.0 
6.876053139899e-05 7.048361475913e-03 0.0 
0.0 0.0 -1.016465148841e-03 
-1.496185645618e-03 2.597795714976e-04 0.0 
2.597795714976e-04 5.580042956141e-03 0.0 
0.0 0.0 -7.680022369673e-04 
1.209193990119e-03 2.857448575399e-03 0.0 
2.857448575399e-03 6.945453600022e-05 0.0 
0.0 0.0 -5.479922254795e-04 
-1.208481437465e-03 1.793019710120e-03 0.0 
1.793019710120e-03 3.824789842828e-03 0.0 
0.0 0.0 -7.984459790235e-04 
-1.152184433486e-03 3.335097296693e-03 0.0 
3.335097296693e-03 5.424015752646e-03 0.0 
0.0 0.0 -1.136725521675e-03 
-1.147448492341e-03 -1.324005404889e-03 0.0 
-1.324005404889e-03 3.757906895843e-03 0.0 
0.0 0.0 -9.635001610743e-04 
-1.057040178935e-03 2.860292126594e-03 0.0 
2.860292126594e-03 5.175691718835e-03 0.0 
0.0 0.0 -1.285202198870e-03 
-1.235950081423e-03 3.387647794385e-03 0.0 
3.387647794385e-03 6.387700415222e-03 0.0 
0.0 0.0 -1.265486236287e-03 
9.281696803103e-05 2.658900655702e-03 0.0 
2.658900655702e-03 1.536267417270e-03 0.0 
0.0 0.0 -6.981790222718e-04 
-1.143109251794e-03 -9.968271358534e-04 0.0 
-9.968271358534e-04 3.727905850470e-03 0.0 
0.0 0.0 -9.933498913217e-04 
8.375618411646e-06 -4.309904929494e-04 0.0 
-4.309904929494e-04 3.045007785971e-03 0.0 
0.0 0.0 -1.152822474774e-03 
-6.877546197814e-04 2.505636337626e-03 0.0 
2.505636337626e-03 3.038701524841e-03 0.0 
0.0 0.0 -9.245708556394e-04 
1.703115487888e-04 2.091650289530e-03 0.0 
2.091650289530e-03 1.051916456575e-03 0.0 
0.0 0.0 -5.238120022987e-04 
-1.475392442541e-03 1.965496358724e-03 0.0 
1.965496358724e-03 4.467421796523e-03 0.0 
0.0 0.0 -8.137754052845e-04 
9.749921592096e-04 3.123149167265e-03 0.0 
3.123149167265e-03 7.036965901566e-04 0.0 
0.0 0.0 -7.194380354427e-04 
-1.431612767918e-03 8.458326217491e-04 0.0 
8.458326217491e-04 8.384155646033e-03 0.0 
0.0 0.0 -1.279059907835e-03 
-1.564281029058e-03 2.665406032541e-03 0.0 
2.665406032541e-03 6.081997352065e-03 0.0 
0.0 0.0 -1.060691896764e-03 
-1.994493389840e-03 -1.486147162618e-04 0.0 
-1.486147162618e-04 6.559276794178e-03 0.0 
0.0 0.0 -1.155968210243e-03 
4.093528604226e-04 2.208508467563e-03 0.0 
2.208508467563e-03 7.981291822907e-04 0.0 
0.0 0.0 -5.174923040200e-04 
2.334418016396e-03 2.579116851284e-03 0.0 
2.579116851284e-03 -5.999483228990e-04 0.0 
0.0 0.0 -7.433441543560e-04 
-1.484568773685e-03 2.868377484862e-03 0.0 
2.868377484862e-03 6.031945958818e-03 0.0 
0.0 0.0 -1.089453766084e-03 
0.0 0.0 0.0 
0.0 0.0 0.0 
0.0 0.0 0.0 
-6.877179378264e-04 2.407578529618e-03 0.0 
2.407578529618e-03 2.994584755227e-03 0.0 
0.0 0.0 -9.117638418509e-04 
1.701472924961e-04 -1.416553182353e-03 0.0 
-1.416553182353e-03 2.527445138619e-03 0.0 
0.0 0.0 -1.080675545910e-03 
7.614101656211e-04 -9.306526935755e-04 0.0 
-9.306526935755e-04 6.714955075901e-04 0.0 
0.0 0.0 -3.004177607877e-04 
-1.466695883915e-03 2.895664536321e-03 0.0 
2.895664536321e-03 7.498365973997e-03 0.0 
0.0 0.0 -1.257517519450e-03 
-1.714163728762e-03 1.976135659385e-03 0.0 
1.976135659385e-03 6.108584287411e-03 0.0 
0.0 0.0 -9.749624431058e-04 
4.925108656531e-04 -3.055158529449e-03 0.0 
-3.055158529449e-03 1.195571453177e-03 0.0 
0.0 0.0 -7.234638509273e-04 
2.687278214663e-04 -6.810653139458e-04 0.0 
-6.810653139458e-04 2.481884598028e-03 0.0 
0.0 0.0 -1.082135573043e-03 
-1.799351909415e-03 1.409259675503e-03 0.0 
1.409259675503e-03 5.578155389814e-03 0.0 
0.0 0.0 -8.259898420369e-04 
-1.801064707900e-03 1.064269352962e-03 0.0 
1.064269352962e-03 5.991738140388e-03 0.0 
0.0 0.0 -8.838609275114e-04 
-6.913788155710e-04 -1.227574140941e-03 0.0 
-1.227574140941e-03 4.246435019945e-03 0.0 
0.0 0.0 -1.237791025003e-03 
1.617016974439e-05 -2.476429670131e-03 0.0 
-2.476429670131e-03 1.553276678470e-03 0.0 
0.0 0.0 -6.726200778060e-04 
-1.931314796257e-04 3.392233640780e-03 0.0 
3.392233640780e-03 2.538226820427e-03 0.0 
0.0 0.0 -1.005040860343e-03 
-1.319730188756e-03 2.601972306617e-03 0.0 
2.601972306617e-03 4.340655659079e-03 0.0 
0.0 0.0 -8.816854262052e-04 
-1.791217628275e-03 1.648610109221e-03 0.0 
1.648610109221e-03 6.470941124492e-03 0.0 
0.0 0.0 -1.008548823165e-03 
-1.624650418518e-03 2.058268446018e-03 0.0 
2.058268446018e-03 4.841940123608e-03 0.0 
0.0 0.0 -8.379792476443e-04 
-1.489577849007e-03 1.897054155513e-03 0.0 
1.897054155513e-03 4.494677002446e-03 0.0 
0.0 0.0 -8.233332215064e-04 
9.144592983676e-04 2.103723640953e-03 0.0 
2.103723640953e-03 1.164621970286e-03 0.0 
0.0 0.0 -8.910348294228e-04 
-1.234709836901e-03 2.936622841749e-03 0.0 
2.936622841749e-03 5.525011386670e-03 0.0 
0.0 0.0 -1.105110859848e-03 
0.0 0.0 0.0 
0.0 0.0 0.0 
0.0 0.0 0.0 
5.533753092925e-05 2.321065575708e-03 0.0 
2.321065575708e-03 1.385026181291e-03 0.0 
0.0 0.0 -6.172987338087e-04 
9.775337925356e-05 2.647350784272e-03 0.0 
2.647350784272e-03 1.520581698043e-03 0.0 
0.0 0.0 -6.935721759841e-04 
-4.200121646643e-04 3.335963278249e-03 0.0 
3.335963278249e-03 2.868206010904e-03 0.0 
0.0 0.0 -9.575728814879e-04 
-1.648855317221e-03 2.317084043405e-03 0.0 
2.317084043405e-03 6.523041636329e-03 0.0 
0.0 0.0 -1.095076276885e-03 
2.058287304795e-03 2.313329836799e-03 0.0 
2.313329836799e-03 -1.214980310369e-03 0.0 
0.0 0.0 -3.614172833254e-04 
1.621278099486e-04 -1.894393997341e-03 0.0 
-1.894393997341e-03 2.355296152545e-03 0.0 
0.0 0.0 -1.043355442177e-03 
-1.517251520276e-03 -1.088769506638e-04 0.0 
-1.088769506638e-04 5.367725382565e-03 0.0 
0.0 0.0 -7.763349569542e-04 
2.071225716726e-03 2.817742222964e-03 0.0 
2.817742222964e-03 -5.830940965428e-04 0.0 
0.0 0.0 -6.377706943641e-04 
8.701785889745e-05 -2.378886716450e-03 0.0 
-2.378886716450e-03 2.268431335651e-03 0.0 
0.0 0.0 -1.006238978475e-03 
6.688501451719e-04 -8.570105726374e-04 0.0 
-8.570105726374e-04 2.508766139633e-04 0.0 
0.0 0.0 -2.227849532966e-04 
-1.684683593515e-03 2.138149817611e-03 0.0 
2.138149817611e-03 6.451465524737e-03 0.0 
0.0 0.0 -1.040010908530e-03 
1.085799585697e-03 -9.338136306232e-04 0.0 
-9.338136306232e-04 4.841625588176e-05 0.0 
0.0 0.0 -1.827119720807e-04 
1.032861128012e-04 -6.271925775052e-04 0.0 
-6.271925775052e-04 6.433353347809e-04 0.0 
0.0 0.0 -2.890002659678e-04 
4.284292636794e-04 2.188011980544e-03 0.0 
2.188011980544e-03 7.634628543711e-04 0.0 
0.0 0.0 -5.108109077359e-04 
5.217682496462e-06 -2.221552624950e-03 0.0 
-2.221552624950e-03 1.410136832977e-03 0.0 
0.0 0.0 -6.065805066316e-04 
-1.756426844714e-03 1.797081824779e-03 0.0 
1.797081824779e-03 6.815040634103e-03 0.0 
0.0 0.0 -1.073797489760e-03 
1.622101319788e-04 -2.264597495009e-03 0.0 
-2.264597495009e-03 1.173181540105e-03 0.0 
0.0 0.0 -5.723107166073e-04 
1.082074594484e-03 2.640607073619e-03 0.0 
2.640607073619e-03 2.626720583109e-04 0.0 
0.0 0.0 -5.763199940550e-04 
1.605964786137e-03 -3.583242349909e-03 0.0 
-3.583242349909e-03 -7.906667844752e-05 0.0 
0.0 0.0 -6.543849032956e-04 
-3.494454807525e-05 -1.610984925714e-03 0.0 
-1.610984925714e-03 1.099950761190e-03 0.0 
0.0 0.0 -4.564312341920e-04 
1.739023189570e-04 -2.645147422265e-04 0.0 
-2.645147422265e-04 2.696870324371e-03 0.0 
0.0 0.0 -1.117524173959e-03 
-1.429083730494e-03 2.211537082543e-03 0.0 
2.211537082543e-03 4.453302943283e-03 0.0 
0.0 0.0 -8.507820156577e-04 
-1.682802659426e-03 -8.879633472863e-04 0.0 
-8.879633472863e-04 6.796328964063e-03 0.0 
0.0 0.0 -1.256743614961e-03 
0.0 0.0 0.0 
0.0 0.0 0.0 
0.0 0.0 0.0 
1.341168508293e-03 2.860330611598e-03 0.0 
2.860330611598e-03 7.949426344501e-05 0.0 
0.0 0.0 -6.088554736019e-04 
2.068683241690e-03 2.743594093827e-03 0.0 
2.743594093827e-03 -6.076247593681e-04 0.0 
0.0 0.0 -6.261679209952e-04 
-4.650783933680e-04 2.487333802040e-03 0.0 
2.487333802040e-03 2.583809885183e-03 0.0 
0.0 0.0 -9.080277822064e-04 
3.082871487027e-04 -1.189402361213e-03 0.0 
-1.189402361213e-03 2.304624928689e-03 0.0 
0.0 0.0 -1.045235091131e-03 
-1.579554839483e-03 -1.394031692893e-03 0.0 
-1.394031692893e-03 6.678028948098e-03 0.0 
0.0 0.0 -1.275930989368e-03 
-1.684299046229e-03 2.211375405385e-03 0.0 
2.211375405385e-03 6.180161065170e-03 0.0 
0.0 0.0 -1.029499106509e-03 
2.603806802799e-03 2.336705660835e-03 0.0 
2.336705660835e-03 -7.411156882784e-04 0.0 
0.0 0.0 -7.982961919374e-04 
1.043592575535e-04 -8.852470439530e-04 0.0 
-8.852470439530e-04 2.718008520162e-03 0.0 
0.0 0.0 -1.116166892424e-03 
-1.922924089839e-03 -2.680134474821e-04 0.0 
-2.680134474821e-04 5.558845052998e-03 0.0 
0.0 0.0 -1.068822925414e-03 
-7.222094777076e-04 3.206300168432e-03 0.0 
3.206300168432e-03 3.349356457826e-03 0.0 
0.0 0.0 -9.235973587808e-04 
-1.677093997722e-03 2.220083154297e-03 0.0 
2.220083154297e-03 6.117933896180e-03 0.0 
0.0 0.0 -1.003200534345e-03 
-7.865873312168e-04 2.395249233040e-03 0.0 
2.395249233040e-03 4.693437656803e-03 0.0 
0.0 0.0 -1.239730878702e-03 
2.351260119446e-03 2.575200545511e-03 0.0 
2.575200545511e-03 -6.504486438349e-04 0.0 
0.0 0.0 -7.289192038335e-04 
9.551102574568e-04 2.654829682591e-03 0.0 
2.654829682591e-03 4.928673923672e-04 0.0 
0.0 0.0 -6.205618499245e-04 
-1.702788092325e-03 2.198389791733e-03 0.0 
2.198389791733e-03 5.173682012494e-03 0.0 
0.0 0.0 -8.662621843288e-04 
-1.465090691244e-03 1.772844143032e-03 0.0 
1.772844143032e-03 8.679771669805e-03 0.0 
0.0 0.0 -1.323568725688e-03 
-2.196076664333e-04 3.542355712652e-03 0.0 
3.542355712652e-03 2.609169075547e-03 0.0 
0.0 0.0 -9.604425725471e-04 
2.156116458846e-03 1.930277635860e-03 0.0 
1.930277635860e-03 -8.514533959833e-04 0.0 
0.0 0.0 -5.591413126556e-04 
-1.551301896676e-03 9.806982104899e-05 0.0 
9.806982104899e-05 6.010438701821e-03 0.0 
0.0 0.0 -8.293613651800e-04 
5.856186318512e-04 -2.658816906517e-03 0.0 
-2.658816906517e-03 8.548743103245e-04 0.0 
0.0 0.0 -6.173541180753e-04 
-1.598852307231e-03 2.167741205054e-03 0.0 
2.167741205054e-03 4.803959338789e-03 0.0 
0.0 0.0 -8.353017157004e-04 
2.274495282906e-03 2.779935450298e-03 0.0 
2.779935450298e-03 -7.589577722122e-04 0.0 
0.0 0.0 -6.495160760114e-04 
2.298330951285e-03 2.091471460167e-03 0.0 
2.091471460167e-03 -1.204105301713e-03 0.0 
0.0 0.0 -4.689538498166e-04 
2.194832401766e-03 -2.977249775004e-03 0.0 
-2.977249775004e-03 -1.184035248941e-03 0.0 
0.0 0.0 -4.331987797821e-04 
-1.681597496447e-03 2.058302471615e-03 0.0 
2.058302471615e-03 6.767260745606e-03 0.0 
0.0 0.0 -1.075985979751e-03 
-1.563333733845e-03 2.379244648904e-03 0.0 
2.379244648904e-03 4.793451180047e-03 0.0 
0.0 0.0 -8.585603458244e-04 
7.771067329277e-04 2.601388271392e-03 0.0 
2.601388271392e-03 5.653213737160e-04 0.0 
0.0 0.0 -5.753263314187e-04 
-1.744996038836e-03 1.710273158382e-03 0.0 
1.710273158382e-03 7.117718959599e-03 0.0 
0.0 0.0 -1.109763131677e-03 
-1.606390224900e-03 2.419672085247e-03 0.0 
2.419672085247e-03 6.148327333334e-03 0.0 
0.0 0.0 -1.057773507355e-03 
-9.992751282894e-04 3.042009890222e-03 0.0 
3.042009890222e-03 3.819168416919e-03 0.0 
0.0 0.0 -9.009204134091e-04 
-1.375955048470e-03 -1.683400062222e-03 0.0 
-1.683400062222e-03 6.152421885777e-03 0.0 
0.0 0.0 -1.288412101370e-03 
1.944327134549e-03 1.768812360803e-03 0.0 
1.768812360803e-03 -8.136324325899e-04 0.0 
0.0 0.0 -4.845834436969e-04 
-1.254552424136e-03 2.860314366234e-03 0.0 
2.860314366234e-03 4.275922517579e-03 0.0 
0.0 0.0 -8.847105569873e-04 
9.718205800213e-04 3.231436175948e-03 0.0 
3.231436175948e-03 7.715228841926e-04 0.0 
0.0 0.0 -7.471471989488e-04 
1.727666947234e-03 1.978971680572e-03 0.0 
1.978971680572e-03 -4.287431573860e-04 0.0 
0.0 0.0 -5.566816242204e-04 
2.636933750934e-03 1.964049691199e-03 0.0 
1.964049691199e-03 -1.267164226969e-03 0.0 
0.0 0.0 -5.870440816995e-04 
-1.756261579278e-03 1.027223545009e-03 0.0 
1.027223545009e-03 5.150592098184e-03 0.0 
0.0 0.0 -7.898058234521e-04 
2.669142654027e-03 2.047008583083e-03 0.0 
2.047008583083e-03 -9.582484116816e-04 0.0 
0.0 0.0 -7.332403895767e-04 
2.689606729154e-03 -1.689602510838e-03 0.0 
-1.689602510838e-03 -1.205625742808e-03 0.0 
0.0 0.0 -6.359918512911e-04 
-1.629595190705e-03 2.449686769187e-03 0.0 
2.449686769187e-03 6.117601231972e-03 0.0 
0.0 0.0 -1.032318248600e-03 
0.0 0.0 0.0 
0.0 0.0 0.0 
0.0 0.0 0.0 
-1.769475386321e-03 1.897454184282e-03 0.0 
1.897454184282e-03 5.196794091963e-03 0.0 
0.0 0.0 -8.386390795737e-04 
2.679831450569e-03 2.298078295471e-03 0.0 
2.298078295471e-03 -1.117110075304e-03 0.0 
0.0 0.0 -6.697377322564e-04 
1.525405513799e-03 2.895304825734e-03 0.0 
2.895304825734e-03 1.054559655311e-04 0.0 
0.0 0.0 -6.989406339984e-04 
2.631491351563e-03 9.404993485972e-04 0.0 
9.404993485972e-04 -1.150887457296e-03 0.0 
0.0 0.0 -6.345445261146e-04 
-1.595995973144e-03 2.618038279511e-03 0.0 
2.618038279511e-03 5.071323653385e-03 0.0 
0.0 0.0 -8.965110541436e-04 
1.511841627677e-04 -1.773057166612e-03 0.0 
-1.773057166612e-03 8.535234281834e-04 0.0 
0.0 0.0 -3.901044503889e-04 
-9.397222903951e-05 2.775799572976e-03 0.0 
2.775799572976e-03 1.950195750929e-03 0.0 
0.0 0.0 -7.955243665241e-04 
1.510533742235e-03 1.893368219128e-03 0.0 
1.893368219128e-03 -3.333023352098e-04 0.0 
0.0 0.0 -5.045277458680e-04 
-1.529633938128e-03 2.472556152499e-03 0.0 
2.472556152499e-03 4.747231259560e-03 0.0 
0.0 0.0 -8.651285257930e-04 
-1.800570073848e-03 1.187623183650e-03 0.0 
1.187623183650e-03 5.684872286068e-03 0.0 
0.0 0.0 -8.301023967811e-04 
9.558821828944e-04 1.012922103067e-03 0.0 
1.012922103067e-03 -8.983468077863e-04 0.0 
0.0 0.0 -2.465801790349e-05 
2.929345942082e-03 -7.362875197769e-04 0.0 
-7.362875197769e-04 -1.325012703078e-03 0.0 
0.0 0.0 -6.875713881444e-04 
2.465820499106e-03 -2.486373233668e-03 0.0 
-2.486373233668e-03 -9.885187097241e-04 0.0 
0.0 0.0 -6.331293383067e-04 
-1.000270138248e-04 2.665501899130e-03 0.0 
2.665501899130e-03 1.891739969722e-03 0.0 
0.0 0.0 -7.678769810987e-04 
-1.745645462288e-03 1.969965136157e-03 0.0 
1.969965136157e-03 6.177510406470e-03 0.0 
0.0 0.0 -1.000663671924e-03 
-6.743676206496e-05 2.958894746749e-03 0.0 
2.958894746749e-03 2.016036742517e-03 0.0 
0.0 0.0 -8.351142773366e-04 
2.740866472437e-03 2.036102310260e-03 0.0 
2.036102310260e-03 -1.186449683482e-03 0.0 
0.0 0.0 -6.661786238380e-04 
2.465496107494e-03 2.525824601176e-03 0.0 
2.525824601176e-03 -9.322172367962e-04 0.0 
0.0 0.0 -6.571195160133e-04 
1.273787981714e-03 8.615297331710e-04 0.0 
8.615297331710e-04 -7.497623681705e-04 0.0 
0.0 0.0 -2.245824058045e-04 
1.142131131016e-03 2.936542087170e-03 0.0 
2.936542087170e-03 2.802751358821e-04 0.0 
0.0 0.0 -6.096026858133e-04 
8.727535464249e-04 2.453256376776e-03 0.0 
2.453256376776e-03 4.670237874706e-04 0.0 
0.0 0.0 -5.741902859552e-04 
-1.475760748405e-03 2.695142501196e-03 0.0 
2.695142501196e-03 8.197923622284e-03 0.0 
0.0 0.0 -1.321446319728e-03 
-1.492107186378e-03 3.030650340964e-03 0.0 
3.030650340964e-03 7.905007360297e-03 0.0 
0.0 0.0 -1.318029376683e-03 
-1.178085073701e-05 3.500120593452e-03 0.0 
3.500120593452e-03 2.258084084144e-03 0.0 
0.0 0.0 -9.627013857460e-04 
2.548877331085e-03 2.529452683065e-03 0.0 
2.529452683065e-03 -1.024625724028e-03 0.0 
0.0 0.0 -6.532506887387e-04 
1.850654072594e-03 2.843628912083e-03 0.0 
2.843628912083e-03 -1.310735320691e-04 0.0 
0.0 0.0 -7.369630887965e-04 
-1.088841516862e-03 3.167027765780e-03 0.0 
3.167027765780e-03 4.070335559596e-03 0.0 
0.0 0.0 -9.333628341409e-04 
2.340427504556e-03 2.434956062557e-03 0.0 
2.434956062557e-03 -5.727957500432e-04 0.0 
0.0 0.0 -7.575564662197e-04 
2.682095355776e-03 -1.550453496673e-03 0.0 
-1.550453496673e-03 -1.096738406614e-03 0.0 
0.0 0.0 -6.794386924979e-04 
-6.843102871119e-04 3.138323977980e-03 0.0 
3.138323977980e-03 3.288670793621e-03 0.0 
0.0 0.0 -9.652881140700e-04 
-1.560571318974e-03 1.068024078019e-03 0.0 
1.068024078019e-03 8.561491499252e-03 0.0 
0.0 0.0 -1.266640259566e-03 
2.402271625794e-03 2.610626999267e-03 0.0 
2.610626999267e-03 -8.722989033853e-04 0.0 
0.0 0.0 -6.557025953181e-04 
6.813860835502e-04 2.812347985425e-03 0.0 
2.812347985425e-03 1.059490988612e-03 0.0 
0.0 0.0 -7.460901737839e-04 
1.236363456041e-03 2.703241249809e-03 0.0 
2.703241249809e-03 7.838624202409e-05 0.0 
0.0 0.0 -5.634641563138e-04 
-9.652389989341e-04 -6.720183629338e-04 0.0 
-6.720183629338e-04 5.271242622276e-03 0.0 
0.0 0.0 -1.322863172658e-03 
2.098067576592e-03 2.923737740925e-03 0.0 
2.923737740925e-03 -6.205768400508e-04 0.0 
0.0 0.0 -6.332103156605e-04 
-5.055876985533e-04 3.367364034790e-03 0.0 
3.367364034790e-03 3.063510178626e-03 0.0 
0.0 0.0 -9.919420460789e-04 
1.879903345484e-03 1.255087970799e-03 0.0 
1.255087970799e-03 -1.207356077200e-03 0.0 
0.0 0.0 -2.882345435504e-04 
1.114970489587e-03 -6.571475029199e-04 0.0 
-6.571475029199e-04 3.550721468189e-04 0.0 
0.0 0.0 -6.300182727452e-04 
2.369471702773e-03 2.352310472614e-03 0.0 
2.352310472614e-03 -9.003050297678e-04 0.0 
0.0 0.0 -6.296428598595e-04 
2.511210871122e-03 -2.213592529972e-03 0.0 
-2.213592529972e-03 -7.926901794877e-04 0.0 
0.0 0.0 -7.365088678434e-04 
-1.351376459572e-03 2.550480813182e-03 0.0 
2.550480813182e-03 4.385207787700e-03 0.0 
0.0 0.0 -8.710486452961e-04 
-1.397658873592e-03 3.467085405935e-03 0.0 
3.467085405935e-03 7.331557043367e-03 0.0 
0.0 0.0 -1.324865334549e-03 
2.762976518654e-03 2.129275318385e-03 0.0 
2.129275318385e-03 -1.188719051590e-03 0.0 
0.0 0.0 -6.746817715991e-04 
1.650992187785e-03 1.271809720393e-03 0.0 
1.271809720393e-03 -3.513789338484e-04 0.0 
0.0 0.0 -5.569771088299e-04 
1.383242402169e-03 2.669272504238e-03 0.0 
2.669272504238e-03 1.108605796806e-04 0.0 
0.0 0.0 -6.403298493639e-04 
-1.712702943967e-03 1.199021659258e-03 0.0 
1.199021659258e-03 6.429834953111e-03 0.0 
0.0 0.0 -9.576894438039e-04 
2.851085176734e-04 -1.709536430844e-03 0.0 
-1.709536430844e-03 2.195876444368e-03 0.0 
0.0 0.0 -1.008345180213e-03 
7.579314461175e-04 2.705809604616e-03 0.0 
2.705809604616e-03 6.993839864940e-04 0.0 
0.0 0.0 -6.245637568335e-04 
-1.777734376668e-03 7.086825961679e-04 0.0 
7.086825961679e-04 6.354608604567e-03 0.0 
0.0 0.0 -9.257128893455e-04 
-1.277191206466e-03 3.589282529004e-03 0.0 
3.589282529004e-03 6.665823351058e-03 0.0 
0.0 0.0 -1.322580803729e-03 
1.403185707487e-06 -1.439264409054e-03 0.0 
-1.439264409054e-03 2.848558759865e-03 0.0 
0.0 0.0 -1.075861678316e-03 
-1.430658668499e-03 3.358596416292e-03 0.0 
3.358596416292e-03 7.549163922134e-03 0.0 
0.0 0.0 -1.322091174222e-03 
-1.793445118784e-03 9.356262614995e-04 0.0 
9.356262614995e-04 6.204769543778e-03 0.0 
0.0 0.0 -9.196498359204e-04 
-1.442068331431e-03 2.746821175537e-03 0.0 
2.746821175537e-03 5.682562585269e-03 0.0 
0.0 0.0 -1.048263655743e-03 
5.998084775859e-04 2.508005665207e-03 0.0 
2.508005665207e-03 7.531788584781e-04 0.0 
0.0 0.0 -5.798517154560e-04 
-1.223045542115e-03 2.387086346015e-03 0.0 
2.387086346015e-03 4.064515837256e-03 0.0 
0.0 0.0 -8.681697709544e-04 
-1.209389184573e-03 2.902758957536e-03 0.0 
2.902758957536e-03 4.217242041572e-03 0.0 
0.0 0.0 -9.102795160361e-04 
-1.488840206319e-03 2.679198250696e-03 0.0 
2.679198250696e-03 4.716368235080e-03 0.0 
0.0 0.0 -8.732807453983e-04 
1.119499660130e-04 3.567291341735e-03 0.0 
3.567291341735e-03 2.082472498151e-03 0.0 
0.0 0.0 -9.404667703562e-04 
-1.189299144518e-03 3.334584496646e-03 0.0 
3.334584496646e-03 6.217817091132e-03 0.0 
0.0 0.0 -1.322334986692e-03 
-1.743738005580e-03 1.571409251216e-03 0.0 
1.571409251216e-03 5.783273679231e-03 0.0 
0.0 0.0 -8.810748613436e-04 
-1.668503733379e-03 1.747174983457e-03 0.0 
1.747174983457e-03 4.858766838357e-03 0.0 
0.0 0.0 -8.123974380148e-04 
2.689502468919e-03 2.075432867186e-03 0.0 
2.075432867186e-03 -9.257907609435e-04 0.0 
0.0 0.0 -7.558764462751e-04 
-2.431074983303e-05 -1.913003925140e-03 0.0 
-1.913003925140e-03 1.267148434552e-03 0.0 
0.0 0.0 -5.326447220222e-04 
-1.300250353668e-03 2.028546891134e-03 0.0 
2.028546891134e-03 4.120204910714e-03 0.0 
0.0 0.0 -8.415228793236e-04 
1.029960534553e-03 2.697834854064e-03 0.0 
2.697834854064e-03 2.742713854926e-04 0.0 
0.0 0.0 -5.589565371624e-04 
-1.478386704748e-03 4.206789908739e-05 0.0 
4.206789908739e-05 5.616715806328e-03 0.0 
0.0 0.0 -7.696142143080e-04 
2.082223251132e-03 -2.739881630323e-03 0.0 
-2.739881630323e-03 -6.915223042800e-04 0.0 
0.0 0.0 -5.960146915079e-04 
2.687145576905e-03 2.150944824992e-03 0.0 
2.150944824992e-03 -8.619858571997e-04 0.0 
0.0 0.0 -7.822113084450e-04 
-1.642192723937e-03 2.370627921536e-03 0.0 
2.370627921536e-03 6.463774212935e-03 0.0 
0.0 0.0 -1.069052450572e-03 
1.210732016110e-03 2.901093481449e-03 0.0 
2.901093481449e-03 3.403089247521e-04 0.0 
0.0 0.0 -6.647318317980e-04 
-1.090838761359e-03 2.744646813510e-03 0.0 
2.744646813510e-03 3.916911857046e-03 0.0 
0.0 0.0 -9.030726692333e-04 
1.373131851669e-03 1.385595291722e-03 0.0 
1.385595291722e-03 -2.069114301952e-04 0.0 
0.0 0.0 -4.998087520603e-04 
5.484712090762e-04 -3.075676285272e-03 0.0 
-3.075676285272e-03 1.137788810983e-03 0.0 
0.0 0.0 -7.226828657397e-04 
-1.016387097360e-03 2.517297286892e-03 0.0 
2.517297286892e-03 5.594754578216e-03 0.0 
0.0 0.0 -1.324762665914e-03 
-9.072903591933e-04 2.355207703591e-03 0.0 
2.355207703591e-03 3.405907050817e-03 0.0 
0.0 0.0 -8.881387192877e-04 
2.946142820410e-03 1.617684650386e-04 0.0 
1.617684650386e-04 -1.452636572549e-03 0.0 
0.0 0.0 -6.400741062262e-04 
6.309307785542e-04 -2.673296576986e-03 0.0 
-2.673296576986e-03 8.118285156915e-04 0.0 
0.0 0.0 -6.183254118196e-04 
2.654857369397e-04 2.566176722282e-03 0.0 
2.566176722282e-03 1.206224560431e-03 0.0 
0.0 0.0 -6.307329845874e-04 
6.292944620548e-04 2.356029893105e-03 0.0 
2.356029893105e-03 6.393485700988e-04 0.0 
0.0 0.0 -5.437041566372e-04 
-1.573343830476e-03 2.521088319541e-03 0.0 
2.521088319541e-03 6.487888532466e-03 0.0 
0.0 0.0 -1.123886314723e-03 
-8.643744592464e-04 3.301393799564e-03 0.0 
3.301393799564e-03 3.642299074364e-03 0.0 
0.0 0.0 -9.055216267950e-04 
-4.630807398905e-04 2.550759047776e-03 0.0 
2.550759047776e-03 2.616100997212e-03 0.0 
0.0 0.0 -9.227229674235e-04 
-9.883417377340e-04 2.554278731018e-03 0.0 
2.554278731018e-03 3.636783780997e-03 0.0 
0.0 0.0 -8.916891917129e-04 
-9.188251607234e-04 7.915048635257e-04 0.0 
7.915048635257e-04 5.164894119245e-03 0.0 
0.0 0.0 -1.320675234999e-03 
-5.234519663279e-04 8.018217957374e-04 0.0 
8.018217957374e-04 4.358356351167e-03 0.0 
0.0 0.0 -1.258064670439e-03 
-1.519847497081e-03 2.784288839478e-03 0.0 
2.784288839478e-03 6.420730520918e-03 0.0 
0.0 0.0 -1.126590436115e-03 
-1.758421539440e-03 1.881967215149e-03 0.0 
1.881967215149e-03 6.509172932200e-03 0.0 
0.0 0.0 -1.037522200811e-03 
7.328240466091e-04 -2.682401726123e-03 0.0 
-2.682401726123e-03 7.115913620792e-04 0.0 
0.0 0.0 -6.190351751521e-04 
1.760096404851e-04 3.185483329578e-03 0.0 
3.185483329578e-03 1.733233248228e-03 0.0 
0.0 0.0 -8.182469523055e-04 
2.700024770010e-03 1.747528214601e-03 0.0 
1.747528214601e-03 -9.576266826323e-04 0.0 
0.0 0.0 -7.467420374474e-04 
2.935361494200e-03 1.596241168019e-03 0.0 
1.596241168019e-03 -1.073012164550e-03 0.0 
0.0 0.0 -7.981497127072e-04 
-5.548455542571e-04 3.454533405249e-03 0.0 
3.454533405249e-03 3.132006875912e-03 0.0 
0.0 0.0 -9.270064166112e-04 
1.279127165458e-03 -9.870557535994e-04 0.0 
-9.870557535994e-04 -3.854326390960e-05 0.0 
0.0 0.0 -5.316788149495e-04 
-4.227815079073e-04 -2.784371059583e-03 0.0 
-2.784371059583e-03 2.659310912429e-03 0.0 
0.0 0.0 -9.585126019377e-04 
-1.599277265462e-03 2.517332469059e-03 0.0 
2.517332469059e-03 6.812542085539e-03 0.0 
0.0 0.0 -1.134236807130e-03 
2.838543821024e-03 -9.388703813827e-04 0.0 
-9.388703813827e-04 -1.339013732820e-03 0.0 
0.0 0.0 -6.426557520872e-04 
4.165970448057e-04 3.486050932692e-03 0.0 
3.486050932692e-03 1.558675942698e-03 0.0 
0.0 0.0 -8.465455660731e-04 
-9.570428297717e-04 3.028568391790e-03 0.0 
3.028568391790e-03 3.758744006407e-03 0.0 
0.0 0.0 -9.331417602438e-04 
4.382192218767e-04 3.304842555304e-03 0.0 
3.304842555304e-03 1.417845423766e-03 0.0 
0.0 0.0 -7.954562767040e-04 
-1.443236035943e-03 3.221098478814e-03 0.0 
3.221098478814e-03 7.736365815094e-03 0.0 
0.0 0.0 -1.320088186226e-03 
-1.483693740833e-03 2.932428243371e-03 0.0 
2.932428243371e-03 8.049345893719e-03 0.0 
0.0 0.0 -1.318462653075e-03 
-1.548932721531e-03 2.525807133433e-03 0.0 
2.525807133433e-03 7.540510939249e-03 0.0 
0.0 0.0 -1.256494544188e-03 
5.199835747165e-04 -2.886590158864e-03 0.0 
-2.886590158864e-03 1.061442334883e-03 0.0 
0.0 0.0 -6.777539612569e-04 
-1.663138327388e-03 1.991577787862e-03 0.0 
1.991577787862e-03 7.067165816428e-03 0.0 
0.0 0.0 -1.112065035246e-03 
8.530770766536e-04 2.505748462956e-03 0.0 
2.505748462956e-03 4.288710739428e-04 0.0 
0.0 0.0 -5.494063502556e-04 
2.976026969438e-03 1.471613804293e-03 0.0 
1.471613804293e-03 -1.145802400427e-03 0.0 
0.0 0.0 -7.843819581477e-04 
2.176227096681e-03 9.823823306462e-04 0.0 
9.823823306462e-04 -1.042597419615e-03 0.0 
0.0 0.0 -4.858412901716e-04 
-2.813268701102e-04 2.910442502919e-03 0.0 
2.910442502919e-03 2.419195128745e-03 0.0 
0.0 0.0 -9.162292537005e-04 
-1.720195429854e-03 7.985877951349e-04 0.0 
7.985877951349e-04 5.205169340213e-03 0.0 
0.0 0.0 -7.914980036671e-04 
-1.719905413863e-03 1.237364143320e-03 0.0 
1.237364143320e-03 6.165155044144e-03 0.0 
0.0 0.0 -9.214502702889e-04 
-6.210179595173e-04 -4.728660276610e-04 0.0 
-4.728660276610e-04 4.588006840987e-03 0.0 
0.0 0.0 -1.265403586923e-03 
-1.395878555712e-03 3.050861695832e-03 0.0 
3.050861695832e-03 5.954496201824e-03 0.0 
0.0 0.0 -1.117224974728e-03 
-1.665465805844e-03 2.334336493253e-03 0.0 
2.334336493253e-03 5.128095132681e-03 0.0 
0.0 0.0 -8.687609488834e-04 
-1.346991783092e-03 3.039323733030e-03 0.0 
3.039323733030e-03 4.548648496957e-03 0.0 
0.0 0.0 -9.141259787764e-04 
2.498396854009e-03 1.198516088911e-03 0.0 
1.198516088911e-03 -1.399925765526e-03 0.0 
0.0 0.0 -4.707733236356e-04 
1.968831457284e-04 -1.841720632066e-03 0.0 
-1.841720632066e-03 8.576900148433e-04 0.0 
0.0 0.0 -4.519599259593e-04 
1.596184388708e-03 2.912527136814e-03 0.0 
2.912527136814e-03 -2.859190939001e-04 0.0 
0.0 0.0 -5.615422692032e-04 
3.342051080177e-04 3.634224831363e-03 0.0 
3.634224831363e-03 1.769838707620e-03 0.0 
0.0 0.0 -9.017330638447e-04 
1.350991084574e-03 3.130179827696e-03 0.0 
3.130179827696e-03 2.729672728852e-04 0.0 
0.0 0.0 -6.959821531966e-04 
5.181840272176e-04 1.740426048580e-03 0.0 
1.740426048580e-03 4.204450595975e-04 0.0 
0.0 0.0 -4.022696086350e-04 
-1.537623298193e-03 1.946789295788e-04 0.0 
1.946789295788e-04 5.729068901156e-03 0.0 
0.0 0.0 -8.462285223656e-04 
1.561759615532e-04 -2.189651726713e-03 0.0 
-2.189651726713e-03 1.146850025796e-03 0.0 
0.0 0.0 -5.584397088639e-04 
1.820241129970e-03 2.972056139581e-03 0.0 
2.972056139581e-03 -3.351854464419e-04 0.0 
0.0 0.0 -6.364524357979e-04 
-1.341153861134e-03 -4.057244270456e-04 0.0 
-4.057244270456e-04 4.982459086358e-03 0.0 
0.0 0.0 -1.341153861134e-03 
9.256271036625e-04 1.500053370618e-03 0.0 
1.500053370618e-03 1.273019829082e-03 0.0 
0.0 0.0 -9.422772568906e-04 
-1.647307264160e-03 1.862922357847e-03 0.0 
1.862922357847e-03 4.824359254377e-03 0.0 
0.0 0.0 -8.054468608743e-04 
2.951539872400e-04 -9.116816188897e-05 0.0 
-9.116816188897e-05 1.187821972232e-03 0.0 
0.0 0.0 -3.103042898065e-04 
7.971140923123e-05 3.343947047482e-03 0.0 
3.343947047482e-03 1.995422628245e-03 0.0 
0.0 0.0 -8.893431589182e-04 
1.873943254827e-03 2.954249127679e-03 0.0 
2.954249127679e-03 -3.006422023954e-04 0.0 
0.0 0.0 -6.742718796133e-04 
-1.609808059559e-03 2.466698786463e-03 0.0 
2.466698786463e-03 5.115271177997e-03 0.0 
0.0 0.0 -8.940630110298e-04 
-1.355176868643e-03 3.602829940139e-03 0.0 
3.602829940139e-03 7.115897601981e-03 0.0 
0.0 0.0 -1.323832587333e-03 
-1.204260933556e-03 2.429327504665e-03 0.0 
2.429327504665e-03 4.034179858945e-03 0.0 
0.0 0.0 -8.669777983973e-04 
-1.147063666963e-03 3.130382852526e-03 0.0 
3.130382852526e-03 4.139734973133e-03 0.0 
0.0 0.0 -8.917420716958e-04 
-4.014841504774e-04 -2.920877032072e-03 0.0 
-2.920877032072e-03 2.692647303736e-03 0.0 
0.0 0.0 -9.819270656821e-04 
-1.644216929044e-03 2.295172595936e-03 0.0 
2.295172595936e-03 6.800207970354e-03 0.0 
0.0 0.0 -1.105258581891e-03 
2.154052283226e-04 -3.118779152528e-03 0.0 
-3.118779152528e-03 1.628210503259e-03 0.0 
0.0 0.0 -7.901210278208e-04 
-1.316497550801e-03 3.592083674646e-03 0.0 
3.592083674646e-03 6.907418394644e-03 0.0 
0.0 0.0 -1.322174839672e-03 
-1.340103718614e-03 3.152086803121e-03 0.0 
3.152086803121e-03 7.377926064128e-03 0.0 
0.0 0.0 -1.340103718614e-03 
-1.341028575724e-03 2.465513317577e-03 0.0 
2.465513317577e-03 8.006817596930e-03 0.0 
0.0 0.0 -1.341028575724e-03 
-1.338044909071e-03 2.820900205836e-03 0.0 
2.820900205836e-03 7.687427743330e-03 0.0 
0.0 0.0 -1.338044909071e-03 
-1.502118998928e-03 2.871852761975e-03 0.0 
2.871852761975e-03 4.986656915824e-03 0.0 
0.0 0.0 -9.244680137507e-04 
-1.717961893973e-03 2.025609505479e-03 0.0 
2.025609505479e-03 6.849693926195e-03 0.0 
0.0 0.0 -1.103002250422e-03 
-1.441498127645e-03 2.997575274703e-03 0.0 
2.997575274703e-03 6.385826432379e-03 0.0 
0.0 0.0 -1.155914796392e-03 
3.567381933022e-04 2.998203481649e-03 0.0 
2.998203481649e-03 1.342739046541e-03 0.0 
0.0 0.0 -7.283473885043e-04 
1.335922643098e-04 2.946545576970e-03 0.0 
2.946545576970e-03 1.651048719616e-03 0.0 
0.0 0.0 -7.648461359682e-04 
-5.579616973433e-04 -2.537817501247e-03 0.0 
-2.537817501247e-03 2.842838828880e-03 0.0 
0.0 0.0 -9.792330563728e-04 
-1.668326353393e-03 2.237680070997e-03 0.0 
2.237680070997e-03 6.867008378533e-03 0.0 
0.0 0.0 -1.131852245309e-03 
-1.231232325275e-03 3.483829197783e-03 0.0 
3.483829197783e-03 6.428087696954e-03 0.0 
0.0 0.0 -1.322440284024e-03 
-1.629405615007e-03 2.216510426988e-03 0.0 
2.216510426988e-03 7.107180567101e-03 0.0 
0.0 0.0 -1.141180801552e-03 
1.287843860462e-03 1.762496620991e-03 0.0 
1.762496620991e-03 4.118181214961e-04 0.0 
0.0 0.0 -7.284265636965e-04 
-1.709232452093e-03 1.946096254963e-03 0.0 
1.946096254963e-03 7.158440520652e-03 0.0 
0.0 0.0 -1.138864741757e-03 
-2.474149681312e-04 3.241320627208e-03 0.0 
3.241320627208e-03 3.249866169459e-03 0.0 
0.0 0.0 -9.903545940741e-04 
5.390850837396e-04 3.135204886366e-03 0.0 
3.135204886366e-03 1.184502769340e-03 0.0 
0.0 0.0 -7.386805084625e-04 
-2.903565977667e-04 2.791530756056e-03 0.0 
2.791530756056e-03 2.364850385229e-03 0.0 
0.0 0.0 -8.890687660554e-04 
1.802555558832e-03 3.001147534895e-03 0.0 
3.001147534895e-03 -4.575658841899e-04 0.0 
0.0 0.0 -5.764241462752e-04 
-1.445725615323e-03 1.812858751269e-03 0.0 
1.812858751269e-03 8.104070872614e-03 0.0 
0.0 0.0 -1.282213402295e-03 
5.637528850199e-04 2.798374850836e-03 0.0 
2.798374850836e-03 9.579403324455e-04 0.0 
0.0 0.0 -6.521542360566e-04 
-9.878773185600e-04 3.005495027809e-03 0.0 
3.005495027809e-03 5.183572772416e-03 0.0 
0.0 0.0 -1.230767059693e-03 
-5.402829230253e-04 -2.645980312191e-03 0.0 
-2.645980312191e-03 2.860421160958e-03 0.0 
0.0 0.0 -9.943449591140e-04 
1.769669881029e-03 -3.137855469582e-03 0.0 
-3.137855469582e-03 -3.291852005029e-04 0.0 
0.0 0.0 -6.173505773685e-04 
-9.286667060019e-04 -5.578005299265e-04 0.0 
-5.578005299265e-04 4.405534968834e-03 0.0 
0.0 0.0 -1.284312900220e-03 
1.520178245233e-03 2.880262458528e-03 0.0 
2.880262458528e-03 -9.597643010145e-05 0.0 
0.0 0.0 -6.103722064851e-04 
-1.341987455608e-03 3.278682198062e-03 0.0 
3.278682198062e-03 7.180670491988e-03 0.0 
0.0 0.0 -1.341987455608e-03 
-1.479381738464e-03 2.518547494800e-03 0.0 
2.518547494800e-03 7.585721855360e-03 0.0 
0.0 0.0 -1.282654109251e-03 
-6.562251040144e-04 3.476488520305e-03 0.0 
3.476488520305e-03 3.368345711390e-03 0.0 
0.0 0.0 -9.747411499392e-04 
2.825665296399e-05 -9.471346053823e-04 0.0 
-9.471346053823e-04 5.562669983103e-04 0.0 
0.0 0.0 -2.505101362604e-04 
-1.340954708392e-03 3.409829937737e-03 0.0 
3.409829937737e-03 6.752010148723e-03 0.0 
0.0 0.0 -1.340954708391e-03 
-8.893530910468e-04 2.080039302171e-04 0.0 
2.080039302171e-04 4.249386795326e-03 0.0 
0.0 0.0 -1.284661450484e-03 
2.094151919582e-03 -2.710389235349e-03 0.0 
-2.710389235349e-03 -4.177516275291e-04 0.0 
0.0 0.0 -7.184572680229e-04 
1.187697048236e-03 1.044937454993e-03 0.0 
1.044937454993e-03 6.336881744863e-04 0.0 
0.0 0.0 -7.805936668811e-04 
-1.022563228378e-03 2.126685754851e-03 0.0 
2.126685754851e-03 5.450229037892e-03 0.0 
0.0 0.0 -1.323014926434e-03 
0.0 0.0 0.0 
0.0 0.0 0.0 
0.0 0.0 0.0 
5.629949439262e-04 2.943398902906e-03 0.0 
2.943398902906e-03 1.042834511407e-03 0.0 
0.0 0.0 -6.882126237144e-04 
-9.611236283513e-04 3.382262119005e-03 0.0 
3.382262119005e-03 3.900518768528e-03 0.0 
0.0 0.0 -9.507003520820e-04 
-3.264045535916e-04 3.528503760233e-03 0.0 
3.528503760233e-03 2.824189618732e-03 0.0 
0.0 0.0 -1.009382277479e-03 
-8.072349097140e-04 3.285348527428e-03 0.0 
3.285348527428e-03 3.572080463846e-03 0.0 
0.0 0.0 -9.583016177293e-04 
1.577973122007e-03 2.940745778594e-03 0.0 
2.940745778594e-03 -1.562631387263e-04 0.0 
0.0 0.0 -6.093042785491e-04 
-1.341360672448e-03 3.349227255108e-03 0.0 
3.349227255108e-03 6.276206882279e-03 0.0 
0.0 0.0 -1.341360672448e-03 
2.936452016240e-03 1.405586798284e-03 0.0 
1.405586798284e-03 -1.170886952934e-03 0.0 
0.0 0.0 -7.566707414170e-04 
6.010236317608e-04 7.677500863631e-05 0.0 
7.677500863631e-05 -6.010236317608e-04 0.0 
0.0 0.0 0.0 
-1.410674428243e-03 -1.887614969753e-03 0.0 
-1.887614969753e-03 6.271959657533e-03 0.0 
0.0 0.0 -1.272354826527e-03 
6.614899321087e-05 -1.031236819356e-03 0.0 
-1.031236819356e-03 5.476349804252e-04 0.0 
0.0 0.0 -2.630502744155e-04 
-7.579795143834e-04 2.669538043242e-03 0.0 
2.669538043242e-03 3.232540244350e-03 0.0 
0.0 0.0 -9.235262116470e-04 
1.408180871100e-03 -2.447837261249e-03 0.0 
-2.447837261249e-03 -4.054811993359e-04 0.0 
0.0 0.0 -4.297284307560e-04 
-1.289231145457e-03 2.085970842819e-03 0.0 
2.085970842819e-03 4.096251684655e-03 0.0 
0.0 0.0 -8.281323822960e-04 
-9.265632325981e-04 2.208084020548e-04 0.0 
2.208084020548e-04 5.136068338207e-03 0.0 
0.0 0.0 -1.321823097425e-03 
-1.341255375116e-03 3.077672806554e-03 0.0 
3.077672806554e-03 5.842647393183e-03 0.0 
0.0 0.0 -1.341255375116e-03 
-1.444220396543e-03 2.772557237900e-03 0.0 
2.772557237900e-03 4.661509496866e-03 0.0 
0.0 0.0 -8.916520742786e-04 
1.049542071535e-03 -2.597397009894e-03 0.0 
-2.597397009894e-03 2.940040078369e-04 0.0 
0.0 0.0 -5.758054625880e-04 
3.025347595527e-04 1.047283111649e-04 0.0 
1.047283111649e-04 -3.025347595527e-04 0.0 
0.0 0.0 0.0 
1.083086267670e-03 -3.284229385575e-03 0.0 
-3.284229385575e-03 2.814197768567e-04 0.0 
0.0 0.0 -5.847883047970e-04 
-1.038610003698e-03 -2.337728934242e-03 0.0 
-2.337728934242e-03 4.541183857773e-03 0.0 
0.0 0.0 -1.121833217354e-03 
-1.742165347554e-03 9.878882661806e-04 0.0 
9.878882661806e-04 5.401825771171e-03 0.0 
0.0 0.0 -7.704300227928e-04 
-1.803256776378e-03 1.584392787159e-03 0.0 
1.584392787159e-03 5.170803389825e-03 0.0 
0.0 0.0 -8.109332722942e-04 
-1.342502730507e-03 2.572106331239e-03 0.0 
2.572106331239e-03 5.434857979280e-03 0.0 
0.0 0.0 -1.342502730507e-03 
-1.732554351108e-03 7.529304742537e-04 0.0 
7.529304742537e-04 5.461566678014e-03 0.0 
0.0 0.0 -7.720444664677e-04 
-1.484252812585e-03 2.496905312066e-03 0.0 
2.496905312066e-03 8.327686936920e-03 0.0 
0.0 0.0 -1.322852565091e-03 
-2.616390310425e-04 3.420254192840e-03 0.0 
3.420254192840e-03 3.046539849901e-03 0.0 
0.0 0.0 -1.020998643257e-03 
-1.702171015059e-03 1.025221701453e-03 0.0 
1.025221701453e-03 6.037527275999e-03 0.0 
0.0 0.0 -8.907448815977e-04 
4.435059004645e-04 2.367634267758e-03 0.0 
2.367634267758e-03 8.500300084059e-04 0.0 
0.0 0.0 -5.543725323730e-04 
9.902971440261e-04 1.854120232773e-03 0.0 
1.854120232773e-03 5.282487487715e-04 0.0 
0.0 0.0 -6.508053826275e-04 
2.181030243503e-03 2.087940198003e-03 0.0 
2.087940198003e-03 -6.964523607222e-04 0.0 
0.0 0.0 -6.362476640488e-04 
-1.340754991027e-03 1.822804665951e-03 0.0 
1.822804665951e-03 5.126572871134e-03 0.0 
0.0 0.0 -1.340754991027e-03 
-1.339984467612e-03 3.017885242806e-03 0.0 
3.017885242806e-03 7.530573259310e-03 0.0 
0.0 0.0 -1.339984467612e-03 
-1.340417744004e-03 2.627800699396e-03 0.0 
2.627800699396e-03 7.874468285687e-03 0.0 
0.0 0.0 -1.340417744004e-03 
1.663950741528e-04 -3.102222571978e-03 0.0 
-3.102222571978e-03 1.696065106834e-03 0.0 
0.0 0.0 -7.981972204229e-04 
-6.783966376360e-04 -2.229795002151e-03 0.0 
-2.229795002151e-03 2.989937542639e-03 0.0 
0.0 0.0 -9.906603878584e-04 
6.633751209167e-04 3.479464549828e-03 0.0 
3.479464549828e-03 1.235326207863e-03 0.0 
0.0 0.0 -8.137291409057e-04 
-1.800452847873e-04 -3.089059520932e-03 0.0 
-3.089059520932e-03 2.334973482046e-03 0.0 
0.0 0.0 -8.981573260837e-04 
-1.339627896631e-03 1.005258068188e-03 0.0 
1.005258068188e-03 4.944567484942e-03 0.0 
0.0 0.0 -1.339627896631e-03 
2.106481318219e-03 2.804312139354e-03 0.0 
2.804312139354e-03 -3.247815718152e-04 0.0 
0.0 0.0 -7.635856056017e-04 
2.753925008266e-03 -1.471183718442e-03 0.0 
-1.471183718442e-03 -1.118113294929e-03 0.0 
0.0 0.0 -7.010621628588e-04 
2.411027346534e-03 -2.022185411865e-03 0.0 
-2.022185411865e-03 -8.248269265831e-04 0.0 
0.0 0.0 -6.798001799788e-04 
-1.695040583491e-03 9.943495357559e-04 0.0 
9.943495357559e-04 6.306677945551e-03 0.0 
0.0 0.0 -9.279583942086e-04 
-1.067283559268e-03 -1.131551148477e-03 0.0 
-1.131551148477e-03 5.382018527302e-03 0.0 
0.0 0.0 -1.323537156312e-03 
4.718253126561e-04 -2.654545060497e-03 0.0 
-2.654545060497e-03 7.297491663584e-04 0.0 
0.0 0.0 -5.149604910062e-04 
-1.340775759057e-03 3.168705887179e-05 0.0 
3.168705887179e-05 4.893000414627e-03 0.0 
0.0 0.0 -1.340775759057e-03 
2.068072739009e-03 -2.533209175997e-03 0.0 
-2.533209175997e-03 -4.905385770438e-04 0.0 
0.0 0.0 -6.760860694135e-04 
-1.342877878941e-03 3.371101462632e-03 0.0 
3.371101462632e-03 6.986301559429e-03 0.0 
0.0 0.0 -1.342877878941e-03 
-1.502505102679e-03 2.723409331035e-03 0.0 
2.723409331035e-03 6.453774250835e-03 0.0 
0.0 0.0 -1.152765850879e-03 
4.995410750134e-04 -2.508167894462e-04 0.0 
-2.508167894462e-04 1.439641133543e-04 0.0 
0.0 0.0 -1.045622396246e-04 
7.611624550475e-04 2.811491361200e-03 0.0 
2.811491361200e-03 7.486160262995e-04 0.0 
0.0 0.0 -6.470479205773e-04 
-1.718973478826e-03 1.632227495642e-03 0.0 
1.632227495642e-03 7.402026443868e-03 0.0 
0.0 0.0 -1.146019594970e-03 
-1.341220131281e-03 3.403196875767e-03 0.0 
3.403196875767e-03 6.531514611794e-03 0.0 
0.0 0.0 -1.341220131281e-03 
-1.493257815958e-03 2.709508550359e-03 0.0 
2.709508550359e-03 5.031766487179e-03 0.0 
0.0 0.0 -9.220067723808e-04 
-1.371432860580e-04 3.167005571068e-03 0.0 
3.167005571068e-03 2.958438968348e-03 0.0 
0.0 0.0 -1.049000704964e-03 
1.363417131051e-03 2.771598718083e-03 0.0 
2.771598718083e-03 -2.175926074803e-04 0.0 
0.0 0.0 -4.910676529589e-04 
-4.822149847462e-04 -8.933705669705e-06 0.0 
-8.933705669705e-06 3.680115228026e-03 0.0 
0.0 0.0 -1.228682347183e-03 
1.589016691459e-03 -2.728398742501e-03 0.0 
-2.728398742501e-03 -1.477483424757e-04 0.0 
0.0 0.0 -6.176864352786e-04 
2.014961445712e-03 -2.490489286961e-03 0.0 
-2.490489286961e-03 -7.248651286365e-04 0.0 
0.0 0.0 -5.528984216039e-04 
6.740675851827e-05 -1.946268609011e-03 0.0 
-1.946268609011e-03 5.144006658537e-04 0.0 
0.0 0.0 -2.493460390166e-04 
-1.341079611575e-03 3.240452696934e-03 0.0 
3.240452696934e-03 6.054614633037e-03 0.0 
0.0 0.0 -1.341079611575e-03 
2.419438568119e-03 1.848358171578e-03 0.0 
1.848358171578e-03 -8.324259170898e-04 0.0 
0.0 0.0 -6.801482790127e-04 
-1.052268534161e-04 -1.626163501332e-03 0.0 
-1.626163501332e-03 3.065488155398e-03 0.0 
0.0 0.0 -1.110501492391e-03 
-1.743720672030e-03 5.076947702062e-04 0.0 
5.076947702062e-04 5.915487175230e-03 0.0 
0.0 0.0 -8.555322119248e-04 
6.419311454372e-04 -2.457777299007e-03 0.0 
-2.457777299007e-03 6.816602911272e-04 0.0 
0.0 0.0 -5.672534728133e-04 
2.432948694747e-03 -2.224719869907e-03 0.0 
-2.224719869907e-03 -1.006521097821e-03 0.0 
0.0 0.0 -6.113261129685e-04 
-1.391571865871e-03 2.947954310513e-03 0.0 
2.947954310513e-03 4.611783904251e-03 0.0 
0.0 0.0 -8.867075537039e-04 
-1.342259935407e-03 2.196586378398e-03 0.0 
2.196586378398e-03 5.267748778168e-03 0.0 
0.0 0.0 -1.342259935407e-03 
-8.685003091139e-04 -2.019621362732e-03 0.0 
-2.019621362732e-03 3.358195832711e-03 0.0 
0.0 0.0 -1.026543027222e-03 
-6.279763244927e-05 -2.831980191268e-03 0.0 
-2.831980191268e-03 2.234263021353e-03 0.0 
0.0 0.0 -9.306280238158e-04 
1.626113199364e-04 3.532469173109e-03 0.0 
3.532469173109e-03 1.975304410449e-03 0.0 
0.0 0.0 -9.162495987365e-04 
9.545056478258e-04 -2.197984859117e-03 0.0 
-2.197984859117e-03 2.830222850846e-04 0.0 
0.0 0.0 -5.303691141045e-04 
2.741947853495e-03 -1.576053757195e-03 0.0 
-1.576053757195e-03 -1.238751484203e-03 0.0 
0.0 0.0 -6.442270154112e-04 
2.055993336022e-04 -3.019147266732e-03 0.0 
-3.019147266732e-03 1.580796400243e-03 0.0 
0.0 0.0 -7.655981716482e-04 
-1.735594457478e-05 3.684409886977e-03 0.0 
3.684409886977e-03 2.338058889169e-03 0.0 
0.0 0.0 -9.525257740877e-04 
-6.815819430518e-04 3.271309776104e-03 0.0 
3.271309776104e-03 3.991806398053e-03 0.0 
0.0 0.0 -9.982497011217e-04 
7.359468455794e-04 1.655488137203e-03 0.0 
1.655488137203e-03 1.311171725172e-03 0.0 
0.0 0.0 -8.773365303219e-04 
4.616179257589e-04 3.326983553877e-03 0.0 
3.326983553877e-03 1.399682897410e-03 0.0 
0.0 0.0 -7.977003527865e-04 
-1.068767707281e-04 -3.106568222755e-03 0.0 
-3.106568222755e-03 2.185893574205e-03 0.0 
0.0 0.0 -8.910072014901e-04 
1.770168940932e-03 2.939268167283e-03 0.0 
2.939268167283e-03 -7.940642901588e-05 0.0 
0.0 0.0 -7.246125051071e-04 
-6.590777518814e-04 -2.312052235482e-03 0.0 
-2.312052235482e-03 2.981136073476e-03 0.0 
0.0 0.0 -9.951678521122e-04 
-9.129757635955e-05 3.002240536259e-03 0.0 
3.002240536259e-03 3.121089298537e-03 0.0 
0.0 0.0 -1.018204129641e-03 
1.890566440799e-03 1.226789186906e-03 0.0 
1.226789186906e-03 -8.288946358717e-04 0.0 
0.0 0.0 -4.550022021117e-04 
-9.478871216341e-04 -2.661712448175e-04 0.0 
-2.661712448175e-04 5.203816778040e-03 0.0 
0.0 0.0 -1.321929620191e-03 
-1.684709762555e-03 1.865268109453e-03 0.0 
1.865268109453e-03 7.458111656375e-03 0.0 
0.0 0.0 -1.174325249119e-03 
4.942655387039e-04 -2.660349188538e-03 0.0 
-2.660349188538e-03 9.600175774831e-04 0.0 
0.0 0.0 -6.232641926516e-04 
-1.341047338368e-03 5.012584263436e-04 0.0 
5.012584263436e-04 4.843287135669e-03 0.0 
0.0 0.0 -1.341047338368e-03 
-5.199572059754e-04 -1.240456273397e-05 0.0 
-1.240456273397e-05 4.514719369705e-03 0.0 
0.0 0.0 -1.266414110344e-03 
1.456677627038e-03 2.847158529750e-03 0.0 
2.847158529750e-03 -1.224358696167e-04 0.0 
0.0 0.0 -5.718178960378e-04 
3.073160228107e-04 -2.142796274570e-03 0.0 
-2.142796274570e-03 8.896681783000e-04 0.0 
0.0 0.0 -5.129932290474e-04 
-1.050487114865e-03 -1.427509562772e-03 0.0 
-1.427509562772e-03 5.540080609798e-03 0.0 
0.0 0.0 -1.323469717371e-03 
-1.667087300368e-03 2.181750680949e-03 0.0 
2.181750680949e-03 7.186411773731e-03 0.0 
0.0 0.0 -1.167157861819e-03 
1.716323073858e-03 -2.955825605783e-03 0.0 
-2.955825605783e-03 -9.287262183541e-05 0.0 
0.0 0.0 -6.957644794382e-04 
-1.341709311524e-03 -8.333733019742e-04 0.0 
-8.333733019742e-04 5.041051645130e-03 0.0 
0.0 0.0 -1.341709311524e-03 
-1.554347035982e-04 -3.091276428888e-03 0.0 
-3.091276428888e-03 2.271745765848e-03 0.0 
0.0 0.0 -9.069904552498e-04 
-8.856300375339e-05 3.015707065978e-03 0.0 
3.015707065978e-03 2.092630915718e-03 0.0 
0.0 0.0 -8.588862479847e-04 
-1.708652242928e-03 2.038029542744e-03 0.0 
2.038029542744e-03 5.155213329433e-03 0.0 
0.0 0.0 -8.408860858065e-04 
2.150251675539e-03 1.246957804337e-03 0.0 
1.246957804337e-03 -9.518176328646e-04 0.0 
0.0 0.0 -5.136145897175e-04 
4.280369650893e-04 -2.993089053083e-03 0.0 
-2.993089053083e-03 1.242185283195e-03 0.0 
0.0 0.0 -7.158095349792e-04 
1.005063584136e-03 -1.534038141676e-03 0.0 
-1.534038141676e-03 4.706218155617e-04 0.0 
0.0 0.0 -6.324365998706e-04 
-1.787330646013e-03 1.744437882435e-03 0.0 
1.744437882435e-03 6.165539261386e-03 0.0 
0.0 0.0 -9.721028620036e-04 
-5.830614128886e-04 2.963568587990e-03 0.0 
2.963568587990e-03 3.036456168777e-03 0.0 
0.0 0.0 -9.703272795031e-04 
5.013338592635e-04 2.022867758426e-03 0.0 
2.022867758426e-03 1.903789761340e-03 0.0 
0.0 0.0 -1.030767265973e-03 
-1.583428582628e-03 1.234393199571e-04 0.0 
1.234393199571e-04 6.348909220080e-03 0.0 
0.0 0.0 -8.839498032872e-04 
-1.538973880155e-04 -2.905891545860e-03 0.0 
-2.905891545860e-03 2.151085361499e-03 0.0 
0.0 0.0 -8.559377029216e-04 
9.606550472545e-04 1.198365472328e-03 0.0 
1.198365472328e-03 7.584169667694e-04 0.0 
0.0 0.0 -7.367451488674e-04 
1.240241290569e-03 -2.615402293113e-03 0.0 
-2.615402293113e-03 9.801779930629e-06 0.0 
0.0 0.0 -5.357327444998e-04 
-1.264139912559e-03 -2.295922563033e-03 0.0 
-2.295922563033e-03 4.258611210865e-03 0.0 
0.0 0.0 -1.003470032316e-03 
4.779492527782e-04 -1.976862769587e-04 0.0 
-1.976862769587e-04 3.079286874380e-05 0.0 
0.0 0.0 -9.731995102935e-05 
1.375001823881e-03 3.007557583602e-03 0.0 
3.007557583602e-03 2.077996425490e-04 0.0 
0.0 0.0 -6.783434856127e-04 
1.686675147585e-03 -2.826451651131e-03 0.0 
-2.826451651131e-03 -3.979102607463e-04 0.0 
0.0 0.0 -5.523278086452e-04 
-6.775751599431e-04 -2.656016194715e-03 0.0 
-2.656016194715e-03 3.173617743200e-03 0.0 
0.0 0.0 -1.041231529553e-03 
9.547448531119e-04 2.912205143476e-03 0.0 
2.912205143476e-03 5.651456179382e-04 0.0 
0.0 0.0 -6.513816304500e-04 
3.545197186364e-05 -2.683422917804e-03 0.0 
-2.683422917804e-03 2.222563700784e-03 0.0 
0.0 0.0 -9.350600278798e-04 
-1.737561363205e-03 5.251994903431e-04 0.0 
5.251994903431e-04 6.205644374021e-03 0.0 
0.0 0.0 -8.962969588583e-04 
1.356254452431e-03 -2.984093401581e-03 0.0 
-2.984093401581e-03 -2.215529665071e-05 0.0 
0.0 0.0 -5.717567810488e-04 
-1.341827844788e-03 -1.146584425421e-03 0.0 
-1.146584425421e-03 5.213236186647e-03 0.0 
0.0 0.0 -1.341827844788e-03 
-1.032358392854e-03 3.358744228303e-03 0.0 
3.358744228303e-03 3.981695232776e-03 0.0 
0.0 0.0 -8.921909746423e-04 
-9.403772787457e-04 -2.333509821859e-03 0.0 
-2.333509821859e-03 3.602948163807e-03 0.0 
0.0 0.0 -1.032584340947e-03 
-7.230784000767e-04 3.517969959091e-03 0.0 
3.517969959091e-03 3.446928309249e-03 0.0 
0.0 0.0 -9.025917034692e-04 
-6.743760556383e-04 -2.567033021564e-03 0.0 
-2.567033021564e-03 3.158224002336e-03 0.0 
0.0 0.0 -1.064506262870e-03 
0.0 0.0 0.0 
0.0 0.0 0.0 
0.0 0.0 0.0 
-1.792312889487e-03 1.741412585942e-03 0.0 
1.741412585942e-03 5.511837739733e-03 0.0 
0.0 0.0 -8.733545218784e-04 
-1.159018419121e-03 -6.757248724201e-04 0.0 
-6.757248724201e-04 3.679422689167e-03 0.0 
0.0 0.0 -9.437415894182e-04 
1.526598219851e-03 -2.022984547481e-04 0.0 
-2.022984547481e-04 -5.806947110268e-04 0.0 
0.0 0.0 -1.518789559795e-04 
-1.008983259281e-03 -2.022851433489e-03 0.0 
-2.022851433489e-03 3.664714944016e-03 0.0 
0.0 0.0 -1.031099917346e-03 
-1.552203916554e-04 -2.266492036209e-03 0.0 
-2.266492036209e-03 2.794636645768e-03 0.0 
0.0 0.0 -1.001254648526e-03 
-1.559997350991e-03 7.763984245468e-04 0.0 
7.763984245468e-04 7.736769108545e-03 0.0 
0.0 0.0 -1.146946825052e-03 
1.304436411006e-03 -1.537118457164e-03 0.0 
-1.537118457164e-03 -1.929375046108e-04 0.0 
0.0 0.0 -4.763566741695e-04 
1.141009119650e-03 -1.409930863555e-03 0.0 
-1.409930863555e-03 1.287642799873e-04 0.0 
0.0 0.0 -5.441885998444e-04 
-1.689284059370e-03 1.450746420627e-03 0.0 
1.450746420627e-03 4.831311448006e-03 0.0 
0.0 0.0 -7.833574767318e-04 
-1.686952509024e-03 5.790488882109e-04 0.0 
5.790488882109e-04 4.855993105087e-03 0.0 
0.0 0.0 -7.312625299843e-04 
-1.435530838734e-03 2.039856500826e-03 0.0 
2.039856500826e-03 7.934174766789e-03 0.0 
0.0 0.0 -1.286111585339e-03 
-3.846383815358e-04 3.631348853507e-03 0.0 
3.631348853507e-03 2.894402056622e-03 0.0 
0.0 0.0 -9.211198782815e-04 
2.563042352686e-03 -3.462434059620e-04 0.0 
-3.462434059620e-04 -8.334153675030e-04 0.0 
0.0 0.0 -9.050770260813e-05 
-2.801224181594e-06 -1.851492159178e-03 0.0 
-1.851492159178e-03 1.218501688618e-03 0.0 
0.0 0.0 -5.210144847585e-04 
8.331805258011e-05 -1.317049816552e-03 0.0 
-1.317049816552e-03 7.003703442878e-04 0.0 
0.0 0.0 -3.358664558005e-04 
1.821034446314e-04 -2.408967732496e-03 0.0 
-2.408967732496e-03 1.233113086777e-03 0.0 
0.0 0.0 -6.065213706036e-04 
-1.138435434649e-03 2.989604430891e-03 0.0 
2.989604430891e-03 5.462421315605e-03 0.0 
0.0 0.0 -1.134523071099e-03 
-1.613429135808e-03 4.247551468927e-04 0.0 
4.247551468927e-04 7.790174225159e-03 0.0 
0.0 0.0 -1.144649651339e-03 
-1.027154245499e-03 -2.035960934847e-03 0.0 
-2.035960934847e-03 4.492443968240e-03 0.0 
0.0 0.0 -1.087427768671e-03 
-2.215897922679e-04 -2.343741531637e-03 0.0 
-2.343741531637e-03 1.937473062545e-03 0.0 
0.0 0.0 -7.353785444044e-04 
-1.224434476437e-03 -2.373415610936e-03 0.0 
-2.373415610936e-03 4.259607832395e-03 0.0 
0.0 0.0 -1.074887456883e-03 
-2.765309671832e-04 -1.235730925308e-03 0.0 
-1.235730925308e-03 3.492398506195e-03 0.0 
0.0 0.0 -1.142106164841e-03 
1.609002123108e-03 9.641353836346e-05 0.0 
9.641353836346e-05 -1.014383706755e-03 0.0 
0.0 0.0 -2.548364641514e-04 
-1.185520630974e-03 -6.216129085547e-04 0.0 
-6.216129085547e-04 3.715832065426e-03 0.0 
0.0 0.0 -9.234434510542e-04 
-9.870309350746e-04 -2.949408640791e-04 0.0 
-2.949408640791e-04 3.127712701104e-03 0.0 
0.0 0.0 -8.176025220169e-04 
-1.158159835053e-03 -1.705545964426e-03 0.0 
-1.705545964426e-03 5.701758529228e-03 0.0 
0.0 0.0 -1.322396863610e-03 
-1.341641872583e-03 -1.478861783549e-03 0.0 
-1.478861783549e-03 5.355371918508e-03 0.0 
0.0 0.0 -1.341641872583e-03 
-1.283076775259e-03 -6.373143896461e-04 0.0 
-6.373143896461e-04 4.006265140635e-03 0.0 
0.0 0.0 -9.869148323457e-04 
-9.252167440016e-04 -2.284187084932e-03 0.0 
-2.284187084932e-03 3.604049524323e-03 0.0 
0.0 0.0 -1.082955583678e-03 
1.424947381447e-04 -3.218131506232e-03 0.0 
-3.218131506232e-03 1.808876759913e-03 0.0 
0.0 0.0 -8.363020705961e-04 
-2.858765317583e-04 -8.912097981478e-04 0.0 
-8.912097981478e-04 3.661087959600e-03 0.0 
0.0 0.0 -1.177278300149e-03 
-1.642185562706e-04 -1.468912040377e-03 0.0 
-1.468912040377e-03 1.269461247680e-03 0.0 
0.0 0.0 -4.736754391754e-04 
-2.865195494759e-04 -1.594101584254e-03 0.0 
-1.594101584254e-03 3.398007437901e-03 0.0 
0.0 0.0 -1.104707344597e-03 
9.194713961983e-04 -6.793234433339e-04 0.0 
-6.793234433339e-04 6.261768049846e-04 0.0 
0.0 0.0 -3.206774383567e-04 
-7.790564292393e-04 -2.283470906283e-03 0.0 
-2.283470906283e-03 3.292851518803e-03 0.0 
0.0 0.0 -1.077340752670e-03 
-5.608514076299e-04 -2.798496030794e-03 0.0 
-2.798496030794e-03 2.999147072071e-03 0.0 
0.0 0.0 -1.044983856189e-03 
1.138912068891e-03 -3.473598627530e-04 0.0 
-3.473598627530e-04 -1.413469007123e-04 0.0 
0.0 0.0 -2.684313900889e-04 
-1.253955737825e-03 -3.715260469387e-04 0.0 
-3.715260469387e-04 3.888476539148e-03 0.0 
0.0 0.0 -9.536442305595e-04 
-1.602308644549e-03 2.138646014206e-03 0.0 
2.138646014206e-03 7.398169050205e-03 0.0 
0.0 0.0 -1.176862138969e-03 
2.761299412783e-03 -2.184006917307e-04 0.0 
-2.184006917307e-04 -8.957163604378e-04 0.0 
0.0 0.0 -9.160000506328e-05 
-1.698158774402e-03 7.543543168281e-04 0.0 
7.543543168281e-04 4.798515189366e-03 0.0 
0.0 0.0 -7.322753781719e-04 
-1.694678419912e-03 8.983255451051e-04 0.0 
8.983255451051e-04 4.996965617242e-03 0.0 
0.0 0.0 -7.130472889423e-04 
9.905782610910e-04 -8.253624912090e-04 0.0 
-8.253624912090e-04 7.976802919736e-04 0.0 
0.0 0.0 -7.663965227419e-04 
-1.039035016572e-03 -2.144348817903e-04 0.0 
-2.144348817903e-04 3.210973696896e-03 0.0 
0.0 0.0 -7.829545016062e-04 
1.212299874062e-03 -2.903037830351e-03 0.0 
-2.903037830351e-03 2.395213764874e-04 0.0 
0.0 0.0 -6.222091073784e-04 
1.174115903652e-03 2.662474741674e-03 0.0 
2.662474741674e-03 2.969730930284e-04 0.0 
0.0 0.0 -6.304667128631e-04 
-1.289472189001e-03 -1.746360051319e-03 0.0 
-1.746360051319e-03 5.399223758463e-03 0.0 
0.0 0.0 -1.180895453064e-03 
-1.199251439186e-03 3.128969763373e-03 0.0 
3.128969763373e-03 5.740281679720e-03 0.0 
0.0 0.0 -1.286194385238e-03 
-1.685234284086e-03 7.030718583631e-04 0.0 
7.030718583631e-04 7.477737434154e-03 0.0 
0.0 0.0 -1.101088927253e-03 
5.511702260285e-04 2.711119680311e-03 0.0 
2.711119680311e-03 9.222763951361e-04 0.0 
0.0 0.0 -6.314771233563e-04 
-3.649363196540e-05 -1.210836942261e-03 0.0 
-1.210836942261e-03 8.486569891216e-04 0.0 
0.0 0.0 -3.480700102098e-04 
-1.004741383637e-03 2.553626350246e-03 0.0 
2.553626350246e-03 3.669626505377e-03 0.0 
0.0 0.0 -8.905302458185e-04 
-1.568290103670e-03 2.798930321494e-04 0.0 
2.798930321494e-04 4.936656992355e-03 0.0 
0.0 0.0 -7.345111139194e-04 
-1.542599483069e-03 2.307996019665e-04 0.0 
2.307996019665e-04 5.186209951631e-03 0.0 
0.0 0.0 -7.144802219086e-04 
1.697260921232e-03 -1.822504204338e-04 0.0 
-1.822504204338e-04 -6.526688675189e-04 0.0 
0.0 0.0 -1.584708362264e-04 
9.885439547911e-04 -4.650217645265e-04 0.0 
-4.650217645265e-04 -7.811083121430e-05 0.0 
0.0 0.0 -2.719350994485e-04 
3.764836072069e-04 -3.171144431772e-04 0.0 
-3.171144431772e-04 5.254813268562e-04 0.0 
0.0 0.0 -2.992029258896e-04 
-3.222613347251e-04 -1.717475984859e-03 0.0 
-1.717475984859e-03 1.786840537745e-03 0.0 
0.0 0.0 -6.276768012942e-04 
1.995445303676e-03 -3.544912217161e-04 0.0 
-3.544912217161e-04 -1.783707534186e-04 0.0 
0.0 0.0 -2.505695937184e-04 
-1.385796394707e-03 -3.802460944882e-04 0.0 
-3.802460944882e-04 4.246303149623e-03 0.0 
0.0 0.0 -1.004230634435e-03 
0.0 0.0 0.0 
0.0 0.0 0.0 
0.0 0.0 0.0 
-3.537348662354e-04 -2.028219451660e-03 0.0 
-2.028219451660e-03 2.045322960423e-03 0.0 
0.0 0.0 -7.249663260806e-04 
-1.566153664312e-03 2.377992970035e-04 0.0 
2.377992970035e-04 6.488131571459e-03 0.0 
0.0 0.0 -9.582560723523e-04 
-1.634454558496e-03 5.707793053276e-04 0.0 
5.707793053276e-04 5.108535752511e-03 0.0 
0.0 0.0 -7.120344407548e-04 
-1.255391157734e-03 2.956292385131e-03 0.0 
2.956292385131e-03 5.913112370001e-03 0.0 
0.0 0.0 -1.169483110168e-03 
-3.211066572615e-04 -2.624140315591e-03 0.0 
-2.624140315591e-03 2.858415319154e-03 0.0 
0.0 0.0 -9.641449249716e-04 
-1.553469395463e-03 1.980732768992e-04 0.0 
1.980732768992e-04 6.108450087988e-03 0.0 
0.0 0.0 -8.988447104697e-04 
-1.086829048493e-03 -4.298554506639e-05 0.0 
-4.298554506639e-05 3.376551179836e-03 0.0 
0.0 0.0 -8.404787427002e-04 
1.157325761144e-03 -4.144839602351e-04 0.0 
-4.144839602351e-04 5.556060787113e-04 0.0 
0.0 0.0 -3.489577299251e-04 
-1.340974968048e-03 1.141125960794e-03 0.0 
1.141125960794e-03 8.560634098268e-03 0.0 
0.0 0.0 -1.340974968048e-03 
-1.479514720207e-03 1.290754629394e-03 0.0 
1.290754629394e-03 8.817356864728e-03 0.0 
0.0 0.0 -1.320295381545e-03 
-1.658748233041e-03 8.637494445187e-04 0.0 
8.637494445187e-04 5.855760830743e-03 0.0 
0.0 0.0 -8.588387843224e-04 
-1.626246500550e-03 3.507062076516e-04 0.0 
3.507062076516e-04 4.917310602464e-03 0.0 
0.0 0.0 -7.326073368542e-04 
-1.101733211462e-03 -4.903419461906e-04 0.0 
-4.903419461906e-04 3.425201513199e-03 0.0 
0.0 0.0 -8.368382630048e-04 
-1.457935752510e-03 9.072104527732e-04 0.0 
9.072104527732e-04 8.880607743519e-03 0.0 
0.0 0.0 -1.322576402756e-03 
-2.087604691238e-04 -2.081308369903e-03 0.0 
-2.081308369903e-03 1.746392936312e-03 0.0 
0.0 0.0 -6.589853430805e-04 
-1.662826015092e-03 7.083533780780e-04 0.0 
7.083533780780e-04 5.042251775661e-03 0.0 
0.0 0.0 -7.125614225629e-04 
-1.628165374516e-03 4.707510309731e-04 0.0 
4.707510309731e-04 4.889560536843e-03 0.0 
0.0 0.0 -7.312775522649e-04 
-1.109436790681e-03 2.207974280543e-03 0.0 
2.207974280543e-03 3.753226225228e-03 0.0 
0.0 0.0 -8.460010047089e-04 
-1.341823989366e-03 2.274932854254e-03 0.0 
2.274932854254e-03 8.137856468635e-03 0.0 
0.0 0.0 -1.341823989366e-03 
-1.447499776368e-03 1.123885033130e-03 0.0 
1.123885033130e-03 8.849685221172e-03 0.0 
0.0 0.0 -1.322582685247e-03 
1.858413942134e-03 -4.468674671497e-04 0.0 
-4.468674671497e-04 -1.442261551490e-04 0.0 
0.0 0.0 -2.523401230232e-04 
1.933225188622e-03 -1.733881547272e-04 0.0 
-1.733881547272e-04 -7.561870514403e-04 0.0 
0.0 0.0 -1.563839533901e-04 
-1.406822219416e-04 -1.124602410666e-03 0.0 
-1.124602410666e-03 1.005262349108e-03 0.0 
0.0 0.0 -3.705343402141e-04 
-5.636260726475e-04 -2.890778252910e-03 0.0 
-2.890778252910e-03 3.024028366260e-03 0.0 
0.0 0.0 -1.029090130247e-03 
-1.836231348186e-03 -1.061046282737e-04 0.0 
-1.061046282737e-04 6.851957631603e-03 0.0 
0.0 0.0 -1.224669017856e-03 
0.0 0.0 0.0 
0.0 0.0 0.0 
0.0 0.0 0.0 
-1.578428037932e-03 -1.076945805976e-04 0.0 
-1.076945805976e-04 7.488341038297e-03 0.0 
0.0 0.0 -1.092518628634e-03 
-1.550925910831e-05 -1.170234142814e-04 0.0 
-1.170234142814e-04 1.067621659097e-04 0.0 
0.0 0.0 -3.910838862915e-05 
8.665365973905e-04 -1.142786771002e-03 0.0 
-1.142786771002e-03 9.419164366956e-04 0.0 
0.0 0.0 -7.750513003226e-04 
2.093383490481e-04 -3.500473738276e-04 0.0 
-3.500473738276e-04 8.081195732962e-06 0.0 
0.0 0.0 -9.317980490616e-05 
0.0 0.0 0.0 
0.0 0.0 0.0 
0.0 0.0 0.0 
8.379829542950e-04 -1.828387007204e-03 0.0 
-1.828387007204e-03 8.061078686980e-04 0.0 
0.0 0.0 -7.046103527113e-04 
-1.789860880868e-03 -9.343042948716e-04 0.0 
-9.343042948716e-04 6.450275194502e-03 0.0 
0.0 0.0 -1.192963836147e-03 
-1.590104708056e-03 6.107842018535e-05 0.0 
6.107842018535e-05 6.703688956183e-03 0.0 
0.0 0.0 -9.361271490834e-04 
-8.759783829009e-04 2.898559650342e-03 0.0 
2.898559650342e-03 3.532916901786e-03 0.0 
0.0 0.0 -9.106555839008e-04 
1.248462822196e-03 -2.813829483536e-04 0.0 
-2.813829483536e-04 -1.929931588244e-04 0.0 
0.0 0.0 -2.625419092021e-04 
-1.459678414727e-03 -2.058426133646e-03 0.0 
-2.058426133646e-03 4.704925736718e-03 0.0 
0.0 0.0 -1.075952622059e-03 
-1.337797817327e-03 3.504757910850e-04 0.0 
3.504757910850e-04 8.685617780919e-03 0.0 
0.0 0.0 -1.337797817327e-03 
-1.451734133111e-03 3.024014936646e-04 0.0 
3.024014936646e-04 8.945645325804e-03 0.0 
0.0 0.0 -1.322354755130e-03 
-1.599337559302e-03 4.517969448523e-04 0.0 
4.517969448523e-04 5.137060814106e-03 0.0 
0.0 0.0 -7.125764448434e-04 
8.243811469618e-04 -5.070143029738e-04 0.0 
-5.070143029738e-04 1.170642242664e-03 0.0 
0.0 0.0 -8.550100241253e-04 
-1.341607717199e-03 9.922961128721e-04 0.0 
9.922961128721e-04 8.617013640237e-03 0.0 
0.0 0.0 -1.341607717199e-03 
1.651597580356e-05 2.683416658655e-03 0.0 
2.683416658655e-03 3.024822145470e-03 0.0 
0.0 0.0 -1.046710270629e-03 
1.210451057929e-03 -1.943692124057e-04 0.0 
-1.943692124057e-04 4.706046126820e-04 0.0 
0.0 0.0 -3.531810144492e-04 
2.099767295814e-03 -2.484083841165e-04 0.0 
-2.484083841165e-04 -2.289154150212e-04 0.0 
0.0 0.0 -2.475227046456e-04 
1.335233375907e-03 -9.196830328825e-05 0.0 
-9.196830328825e-05 -2.038367509550e-04 0.0 
0.0 0.0 -2.481890828467e-04 
-1.206645058523e-03 -4.413417753443e-05 0.0 
-4.413417753443e-05 3.734312456454e-03 0.0 
0.0 0.0 -9.186759157619e-04 
-1.554661254855e-03 -1.173104092863e-03 0.0 
-1.173104092863e-03 7.206653129246e-03 0.0 
0.0 0.0 -1.322828574513e-03 
-1.468378470940e-03 -2.055954314762e-04 0.0 
-2.055954314762e-04 8.477100898234e-03 0.0 
0.0 0.0 -1.258329778789e-03 
2.187416576026e-03 -1.653808446854e-04 0.0 
-1.653808446854e-04 -8.676741714944e-04 0.0 
0.0 0.0 -1.587067154099e-04 
-1.371588137901e-03 -3.169762198632e-04 0.0 
-3.169762198632e-04 4.214800910036e-03 0.0 
0.0 0.0 -1.008438243783e-03 
-1.344798314370e-03 -8.279531255943e-04 0.0 
-8.279531255943e-04 7.026886665436e-03 0.0 
0.0 0.0 -1.344798314369e-03 
-1.564884777426e-03 -1.287545985866e-03 0.0 
-1.287545985866e-03 7.147060172158e-03 0.0 
0.0 0.0 -1.318785251170e-03 
-1.158469832793e-03 -1.923166980148e-03 0.0 
-1.923166980148e-03 5.883371209853e-03 0.0 
0.0 0.0 -1.321151187552e-03 
-1.585912391543e-03 2.691560132111e-04 0.0 
2.691560132111e-04 7.090908885405e-03 0.0 
0.0 0.0 -1.027148381742e-03 
-1.555187588006e-03 -1.971572702211e-04 0.0 
-1.971572702211e-04 7.705246922455e-03 0.0 
0.0 0.0 -1.125709525796e-03 
-1.338030260144e-03 -1.094386398329e-03 0.0 
-1.094386398329e-03 6.909148412757e-03 0.0 
0.0 0.0 -1.338030260144e-03 
-1.340754991027e-03 -1.372687681983e-03 0.0 
-1.372687681983e-03 6.806607219922e-03 0.0 
0.0 0.0 -1.340754991027e-03 
-1.561602649575e-03 2.480043620058e-04 0.0 
2.480043620058e-04 7.494608831512e-03 0.0 
0.0 0.0 -1.092518628634e-03 
3.307271248664e-03 4.314548185695e-05 0.0 
4.314548185695e-05 -1.214475185733e-03 0.0 
0.0 0.0 -8.755379438333e-05 
-1.478032168390e-03 1.489804673206e-04 0.0 
1.489804673206e-04 5.167022187345e-03 0.0 
0.0 0.0 -7.139539158865e-04 
-1.574977551316e-03 3.717997235828e-04 0.0 
3.717997235828e-04 5.188881553203e-03 0.0 
0.0 0.0 -7.133642253441e-04 
2.078295521971e-03 -1.511499007421e-04 0.0 
-1.511499007421e-04 -8.199563945998e-04 0.0 
0.0 0.0 -1.576675707606e-04 
-1.342313591240e-03 -1.872687525586e-03 0.0 
-1.872687525586e-03 6.355359522584e-03 0.0 
0.0 0.0 -1.342313591240e-03 
-1.269922737054e-03 -2.029167704155e-03 0.0 
-2.029167704155e-03 6.094262192879e-03 0.0 
0.0 0.0 -1.318355947622e-03 
-1.337959751097e-03 -1.908784167046e-03 0.0 
-1.908784167046e-03 5.900685640896e-03 0.0 
0.0 0.0 -1.337959751097e-03 
3.106621107953e-03 -1.497773368645e-04 0.0 
-1.497773368645e-04 -1.029211139497e-03 0.0 
0.0 0.0 -9.540963664560e-05 
2.941822019467e-03 -1.767432348869e-04 0.0 
-1.767432348869e-04 -9.568393427299e-04 0.0 
0.0 0.0 -9.747405510327e-05 
-1.340754991027e-03 -1.672627381109e-03 0.0 
-1.672627381109e-03 5.518495974516e-03 0.0 
0.0 0.0 -1.340754991027e-03 
-1.340396196526e-03 -1.852966983193e-03 0.0 
-1.852966983193e-03 5.697134399037e-03 0.0 
0.0 0.0 -1.340396196526e-03 
-1.600296610560e-03 -2.152006829150e-04 0.0 
-2.152006829150e-04 6.887323541576e-03 0.0 
0.0 0.0 -9.936726122374e-04 
-1.422222177314e-03 8.859389962602e-05 0.0 
8.859389962602e-05 5.179295465595e-03 0.0 
0.0 0.0 -7.124851972278e-04 
-1.571159218797e-03 -2.082021183410e-04 0.0 
-2.082021183410e-04 7.291178693471e-03 0.0 
0.0 0.0 -1.060142436171e-03 
-1.552782223510e-03 -2.129194587244e-04 0.0 
-2.129194587244e-04 6.002253842572e-03 0.0 
0.0 0.0 -8.626607521900e-04 
-1.382122713210e-03 3.570213775188e-05 0.0 
3.570213775188e-05 5.182667103943e-03 0.0 
0.0 0.0 -7.121912678902e-04 
2.259827960221e-03 -3.791885520061e-04 0.0 
-3.791885520061e-04 -6.773411335669e-04 0.0 
0.0 0.0 -9.442328267794e-05 
1.489465085535e-03 -3.873061726619e-04 0.0 
-3.873061726619e-04 -3.302723319640e-04 0.0 
0.0 0.0 -4.591167563965e-05 
1.195706273835e-03 -4.439423179226e-04 0.0 
-4.439423179226e-04 -2.457069974477e-04 0.0 
0.0 0.0 -4.589015575604e-05 
7.928883186884e-04 -4.308369996379e-04 0.0 
-4.308369996379e-04 -1.962835067220e-05 0.0 
0.0 0.0 -4.556578909549e-05 
-1.455576565641e-03 5.369324781880e-06 0.0 
5.369324781880e-06 4.421569252006e-03 0.0 
0.0 0.0 -1.025222297049e-03 
-1.326853145310e-03 -3.193870868211e-05 0.0 
-3.193870868211e-05 4.074529080795e-03 0.0 
0.0 0.0 -9.784754570978e-04 
3.643447720584e-04 -2.807478551813e-04 0.0 
-2.807478551813e-04 -8.302826669459e-05 0.0 
0.0 0.0 -1.159392125903e-04 
-1.882114812679e-03 5.257899597366e-05 0.0 
5.257899597366e-05 5.463849854237e-03 0.0 
0.0 0.0 -1.072123180932e-03 
1.624781745822e-04 -2.648253394118e-04 0.0 
-2.648253394118e-04 3.767456551543e-06 0.0 
0.0 0.0 -7.124812762874e-05 
-1.341471640605e-03 1.902532918980e-03 0.0 
1.902532918980e-03 8.304452194875e-03 0.0 
0.0 0.0 -1.341471640605e-03 
-1.340968685557e-03 8.342263842268e-04 0.0 
8.342263842268e-04 8.620360450522e-03 0.0 
0.0 0.0 -1.340968685557e-03 
-1.339320413496e-03 1.336323062728e-03 0.0 
1.336323062728e-03 8.515855351859e-03 0.0 
0.0 0.0 -1.339320413496e-03 
-5.175251243654e-04 1.147272255642e-05 0.0 
1.147272255642e-05 1.550881351190e-03 0.0 
0.0 0.0 -2.599136149544e-04 
-9.633323041400e-04 -3.549644401783e-05 0.0 
-3.549644401783e-05 2.981977788141e-03 0.0 
0.0 0.0 -7.340959586659e-04 
-1.337132911908e-03 6.510662741128e-04 0.0 
6.510662741128e-04 8.656607653519e-03 0.0 
0.0 0.0 -1.337132911908e-03 
-2.083032595708e-03 9.922266011855e-05 0.0 
9.922266011855e-05 6.472696883650e-03 0.0 
0.0 0.0 -1.124956933753e-03 
-1.344556937803e-03 5.003882733929e-04 0.0 
5.003882733929e-04 8.710429521741e-03 0.0 
0.0 0.0 -1.344556937803e-03 
-1.932677962729e-03 1.288201926386e-04 0.0 
1.288201926386e-04 6.746175248938e-03 0.0 
0.0 0.0 -1.192538251246e-03 
-1.740079752366e-03 1.547682996820e-04 0.0 
1.547682996820e-04 7.002368902305e-03 0.0 
0.0 0.0 -1.259905836238e-03 
-1.256318881540e-03 -3.058147318078e-04 0.0 
-3.058147318078e-04 3.889569585195e-03 0.0 
0.0 0.0 -9.521061186879e-04 
-1.479483252636e-03 7.231400883548e-04 0.0 
7.231400883548e-04 8.931379513718e-03 0.0 
0.0 0.0 -1.318101597465e-03 
-1.454407492241e-03 7.329644933787e-04 0.0 
7.329644933787e-04 8.932547234701e-03 0.0 
0.0 0.0 -1.321689849711e-03 
-1.996720130669e-03 -4.240856891719e-04 0.0 
-4.240856891719e-04 6.546271744836e-03 0.0 
0.0 0.0 -1.157495185000e-03 
-1.833092771074e-03 -4.338479580684e-04 0.0 
-4.338479580684e-04 6.845712330688e-03 0.0 
0.0 0.0 -1.225777420818e-03 
-1.841879665554e-03 -1.392809369192e-03 0.0 
-1.392809369192e-03 5.462425115064e-03 0.0 
0.0 0.0 -1.076967794221e-03 
0.0 0.0 0.0 
0.0 0.0 0.0 
0.0 0.0 0.0 
-8.795889895974e-04 -1.952925740306e-03 0.0 
-1.952925740306e-03 3.376145193665e-03 0.0 
0.0 0.0 -1.039304039601e-03 
1.660434101197e-03 -6.141622579472e-04 0.0 
-6.141622579472e-04 -6.719522836332e-05 0.0 
0.0 0.0 -2.442944474907e-04 
-1.378694188408e-03 -2.097012646119e-03 0.0 
-2.097012646119e-03 5.460269496084e-03 0.0 
0.0 0.0 -1.177819030284e-03 
-7.813950936845e-04 -2.358745935075e-03 0.0 
-2.358745935075e-03 3.287112188259e-03 0.0 
0.0 0.0 -1.040987640873e-03 
-1.809630590335e-03 -1.291578548695e-03 0.0 
-1.291578548695e-03 5.821414157847e-03 0.0 
0.0 0.0 -1.099016898379e-03 
-2.060296257065e-04 -1.796631504213e-03 0.0 
-1.796631504213e-03 1.564117229874e-03 0.0 
0.0 0.0 -5.820375446434e-04 
4.475341314438e-05 -9.010547106959e-04 0.0 
-9.010547106959e-04 6.723802247933e-04 0.0 
0.0 0.0 -2.733874678612e-04 
-1.819661686397e-03 -1.463949205523e-03 0.0 
-1.463949205523e-03 6.215728401457e-03 0.0 
0.0 0.0 -1.161668299909e-03 
-1.009350816753e-03 -1.981157607315e-03 0.0 
-1.981157607315e-03 3.679610224835e-03 0.0 
0.0 0.0 -1.056886766371e-03 
-1.124597673924e-03 -3.416283390981e-04 0.0 
-3.416283390981e-04 3.530274889455e-03 0.0 
0.0 0.0 -8.978673291013e-04 
-1.908614693689e-03 -1.553426855284e-03 0.0 
-1.553426855284e-03 5.883638228136e-03 0.0 
0.0 0.0 -1.096102707776e-03 
-1.506564574904e-03 4.784902240182e-04 0.0 
4.784902240182e-04 7.990398295391e-03 0.0 
0.0 0.0 -1.188907866872e-03 
-1.145966443117e-03 -2.688887835076e-04 0.0 
-2.688887835076e-04 3.559257817850e-03 0.0 
0.0 0.0 -8.802182425544e-04 
-2.343808151550e-04 -2.448482601409e-03 0.0 
-2.448482601409e-03 2.867036480139e-03 0.0 
0.0 0.0 -1.035646790376e-03 
-9.500506080825e-04 -2.724089328098e-03 0.0 
-2.724089328098e-03 3.674446532369e-03 0.0 
0.0 0.0 -9.625389225288e-04 
-1.856114660532e-03 -1.247587492440e-03 0.0 
-1.247587492440e-03 5.444374226428e-03 0.0 
0.0 0.0 -1.042884296030e-03 
-2.003615679542e-03 -9.107189773551e-04 0.0 
-9.107189773551e-04 5.760788445208e-03 0.0 
0.0 0.0 -1.050199500156e-03 
3.015162384708e-03 1.478491521065e-03 0.0 
1.478491521065e-03 -1.420788746949e-03 0.0 
0.0 0.0 -6.833029876111e-04 
-7.703338813803e-04 2.711642704622e-03 0.0 
2.711642704622e-03 3.268676482316e-03 0.0 
0.0 0.0 -9.206815977879e-04 
8.952220710028e-04 3.337500451005e-03 0.0 
3.337500451005e-03 9.018971507738e-04 0.0 
0.0 0.0 -7.701939521900e-04 
-1.492273682533e-03 -1.948749897048e-03 0.0 
-1.948749897048e-03 4.700056634630e-03 0.0 
0.0 0.0 -1.018483763552e-03 
-1.953152701418e-03 -1.266064436280e-03 0.0 
-1.266064436280e-03 6.190905664489e-03 0.0 
0.0 0.0 -1.125100902632e-03 
-2.130434678919e-03 -5.674193057818e-04 0.0 
-5.674193057818e-04 6.039060582820e-03 0.0 
0.0 0.0 -1.053755873404e-03 
1.981272582958e-04 -2.339075750409e-03 0.0 
-2.339075750409e-03 1.164667172993e-03 0.0 
0.0 0.0 -5.840547562666e-04 
-1.516698384373e-03 7.243684231909e-04 0.0 
7.243684231909e-04 7.963201592157e-03 0.0 
0.0 0.0 -1.183514100502e-03 
-1.571889609711e-03 6.492262438020e-04 0.0 
6.492262438020e-04 7.577660240319e-03 0.0 
0.0 0.0 -1.117084069417e-03 
-1.526943038589e-03 4.067391407097e-04 0.0 
4.067391407097e-04 5.686565415721e-03 0.0 
0.0 0.0 -8.110481619253e-04 
-1.474195239190e-03 -2.107699134124e-03 0.0 
-2.107699134124e-03 4.674985602820e-03 0.0 
0.0 0.0 -1.001070066037e-03 
-1.687869148980e-03 -1.597447162641e-03 0.0 
-1.597447162641e-03 5.094192157887e-03 0.0 
0.0 0.0 -1.032102790996e-03 
-1.559878786953e-03 1.186239496982e-04 0.0 
1.186239496982e-04 8.091883647163e-03 0.0 
0.0 0.0 -1.185362187646e-03 
-1.553576411269e-03 5.639076835034e-04 0.0 
5.639076835034e-04 7.828849217298e-03 0.0 
0.0 0.0 -1.150972777267e-03 
-5.736846005059e-04 -3.010470759541e-03 0.0 
-3.010470759541e-03 3.112745496219e-03 0.0 
0.0 0.0 -1.058777908313e-03 
-1.827264969184e-03 -1.207689843267e-03 0.0 
-1.207689843267e-03 6.491929530035e-03 0.0 
0.0 0.0 -1.190872049285e-03 
-1.617401302618e-03 1.036699389917e-03 0.0 
1.036699389917e-03 7.425262889637e-03 0.0 
0.0 0.0 -1.103416240745e-03 
-2.113993614968e-03 -7.222808743220e-04 0.0 
-7.222808743220e-04 6.023476369147e-03 0.0 
0.0 0.0 -1.069496670503e-03 
-1.471914821471e-03 -1.998353424490e-03 0.0 
-1.998353424490e-03 5.883536090439e-03 0.0 
0.0 0.0 -1.210017230578e-03 
-1.575272729869e-03 3.494544289054e-04 0.0 
3.494544289054e-04 8.019533452472e-03 0.0 
0.0 0.0 -1.181737430652e-03 
-1.652502708926e-03 2.520535947120e-04 0.0 
2.520535947120e-04 7.001595806507e-03 0.0 
0.0 0.0 -1.011817915138e-03 
-3.838894113269e-04 -2.804191833148e-03 0.0 
-2.804191833148e-03 2.874279057775e-03 0.0 
0.0 0.0 -9.985655989919e-04 
-6.304965187655e-04 -7.604202958905e-04 0.0 
-7.604202958905e-04 2.203620271365e-03 0.0 
0.0 0.0 -6.656342390725e-04 
4.047615641515e-04 -2.474054827037e-03 0.0 
-2.474054827037e-03 9.613198754716e-04 0.0 
0.0 0.0 -5.854634741242e-04 
2.836227978939e-05 -1.580599960261e-03 0.0 
-1.580599960261e-03 9.832792497712e-04 0.0 
0.0 0.0 -4.149592254337e-04 
1.034548557929e-04 -1.227500156599e-03 0.0 
-1.227500156599e-03 6.126727267546e-04 0.0 
0.0 0.0 -3.069118210918e-04 
-1.577352812428e-03 2.114313367924e-04 0.0 
2.114313367924e-04 7.845695102100e-03 0.0 
0.0 0.0 -1.150998037120e-03 
-1.900941556448e-03 -7.041406832224e-04 0.0 
-7.041406832224e-04 6.386638876857e-03 0.0 
0.0 0.0 -1.156839719840e-03 
6.843292428348e-05 -1.144232504345e-03 0.0 
-1.144232504345e-03 6.143886100226e-04 0.0 
0.0 0.0 -2.926378004169e-04 
-1.601987702258e-03 2.442990824200e-03 0.0 
2.442990824200e-03 6.852419756780e-03 0.0 
0.0 0.0 -1.160298666437e-03 
-1.543111448516e-03 4.596328783708e-04 0.0 
4.596328783708e-04 5.853297686999e-03 0.0 
0.0 0.0 -8.436798659344e-04 
-1.824750470194e-03 -1.859013687658e-03 0.0 
-1.859013687658e-03 5.532595994557e-03 0.0 
0.0 0.0 -1.067477449466e-03 
-2.006499161308e-03 -7.976010001953e-04 0.0 
-7.976010001953e-04 6.083504909474e-03 0.0 
0.0 0.0 -1.090430023688e-03 
7.833829666557e-04 -2.711290744461e-03 0.0 
-2.711290744461e-03 6.776524641225e-04 0.0 
0.0 0.0 -6.261580417621e-04 
-2.076799610215e-03 -1.031710463461e-03 0.0 
-1.031710463461e-03 6.135351760274e-03 0.0 
0.0 0.0 -1.087955833448e-03 
-1.557514890525e-03 -6.173462151110e-05 0.0 
-6.173462151110e-05 5.695796094032e-03 0.0 
0.0 0.0 -8.100176300978e-04 
8.750615862245e-04 9.176848780839e-04 0.0 
9.176848780839e-04 1.438408062181e-03 0.0 
0.0 0.0 -9.914869921737e-04 
-1.497791782641e-03 -1.444847597853e-03 0.0 
-1.444847597853e-03 6.204442023908e-03 0.0 
0.0 0.0 -1.242964905849e-03 
-6.875629852487e-04 -4.240155203853e-04 0.0 
-4.240155203853e-04 2.190912803371e-03 0.0 
0.0 0.0 -5.658909553065e-04 
-1.268098618658e-03 -2.126035490962e-03 0.0 
-2.126035490962e-03 5.495926708526e-03 0.0 
0.0 0.0 -1.215045542354e-03 
-1.631557581403e-03 2.235766335083e-04 0.0 
2.235766335083e-04 7.237605270102e-03 0.0 
0.0 0.0 -1.048288725887e-03 
-7.383595785151e-04 -6.377031037024e-04 0.0 
-6.377031037024e-04 2.446869421887e-03 0.0 
0.0 0.0 -6.818911139857e-04 
3.993077738021e-04 -2.419206884214e-03 0.0 
-2.419206884214e-03 9.348823657586e-04 0.0 
0.0 0.0 -5.717957740974e-04 
-1.500476059484e-03 -8.906484908892e-04 0.0 
-8.906484908892e-04 4.589149281530e-03 0.0 
0.0 0.0 -1.044847128380e-03 
-1.630418366467e-03 6.661053165545e-04 0.0 
6.661053165545e-04 6.481746764143e-03 0.0 
0.0 0.0 -9.409807611877e-04 
-5.756498552716e-04 -2.159817615522e-03 0.0 
-2.159817615522e-03 2.678873720584e-03 0.0 
0.0 0.0 -9.013816565627e-04 
-1.610525300296e-03 1.600914995101e-04 0.0 
1.600914995101e-04 7.460282061065e-03 0.0 
0.0 0.0 -1.085119818393e-03 
-1.626505474320e-03 1.193898643633e-04 0.0 
1.193898643633e-04 6.796479922044e-03 0.0 
0.0 0.0 -9.816794289629e-04 
-1.168002604940e-03 -1.979309092588e-03 0.0 
-1.979309092588e-03 4.001814082530e-03 0.0 
0.0 0.0 -1.032510638845e-03 
-1.993224441762e-03 -1.056137829821e-03 0.0 
-1.056137829821e-03 5.774090597717e-03 0.0 
0.0 0.0 -1.075584385303e-03 
-2.021709392423e-03 -1.349459280440e-03 0.0 
-1.349459280440e-03 5.860171390496e-03 0.0 
0.0 0.0 -1.066391945090e-03 
-1.595291763312e-03 5.874023300959e-04 0.0 
5.874023300959e-04 7.178060268656e-03 0.0 
0.0 0.0 -1.050681058959e-03 
-5.082515002275e-04 -8.941420093747e-04 0.0 
-8.941420093747e-04 1.798316205834e-03 0.0 
0.0 0.0 -5.009000172756e-04 
-1.206852124203e-03 -1.671075112969e-03 0.0 
-1.671075112969e-03 4.019505130445e-03 0.0 
0.0 0.0 -1.029746919386e-03 
-5.152753143587e-05 2.170825683475e-03 0.0 
2.170825683475e-03 3.140726951459e-03 0.0 
0.0 0.0 -1.141128458404e-03 
-1.641668485544e-03 3.431501301840e-04 0.0 
3.431501301840e-04 7.404941610079e-03 0.0 
0.0 0.0 -1.078198857115e-03 
-1.057951637287e-03 -1.671343146736e-03 0.0 
-1.671343146736e-03 3.677031607098e-03 0.0 
0.0 0.0 -1.017599913258e-03 
-8.954401304147e-04 -2.800206404235e-03 0.0 
-2.800206404235e-03 3.674164100142e-03 0.0 
0.0 0.0 -1.058318663232e-03 
-1.115312546428e-03 -2.189534952593e-03 0.0 
-2.189534952593e-03 5.045014028914e-03 0.0 
0.0 0.0 -1.187586327529e-03 
-1.596801678993e-03 6.045917028781e-04 0.0 
6.045917028781e-04 6.950727632054e-03 0.0 
0.0 0.0 -1.013969106439e-03 
2.322873706387e-04 -1.368679716301e-04 0.0 
-1.368679716301e-04 -2.322873706387e-04 0.0 
0.0 0.0 0.0 
4.726741315202e-05 -1.330898926681e-03 0.0 
-1.330898926681e-03 8.674614564573e-04 0.0 
0.0 0.0 -2.916872467244e-04 
2.273358372470e-03 1.445761220817e-05 0.0 
1.445761220817e-05 -1.234043607805e-03 0.0 
0.0 0.0 -4.454206134279e-04 
-1.880676767284e-03 -9.969975945957e-04 0.0 
-9.969975945957e-04 6.131847364448e-03 0.0 
0.0 0.0 -1.127837695838e-03 
-1.619604464873e-03 6.374782176385e-04 0.0 
6.374782176385e-04 6.719807393941e-03 0.0 
0.0 0.0 -9.775003154318e-04 
-1.665473239862e-03 -8.814240019008e-04 0.0 
-8.814240019008e-04 4.990171794499e-03 0.0 
0.0 0.0 -1.065326950858e-03 
-1.596762474986e-03 5.442334346395e-04 0.0 
5.442334346395e-04 6.065464133813e-03 0.0 
0.0 0.0 -8.745614812816e-04 
-3.748877525410e-04 -1.800985621523e-03 0.0 
-1.800985621523e-03 3.574605346147e-03 0.0 
0.0 0.0 -1.139196670502e-03 
-1.359206623324e-03 -1.598338811102e-03 0.0 
-1.598338811102e-03 4.356288718259e-03 0.0 
0.0 0.0 -1.038619054332e-03 
-1.952425401121e-03 -1.122489104774e-03 0.0 
-1.122489104774e-03 5.808139918506e-03 0.0 
0.0 0.0 -1.061632825506e-03 
-7.352512267089e-04 -7.174892847169e-04 0.0 
-7.174892847169e-04 2.324934696345e-03 0.0 
0.0 0.0 -5.540246046759e-04 
-1.437645385880e-03 -1.599317358972e-03 0.0 
-1.599317358972e-03 5.870614125847e-03 0.0 
0.0 0.0 -1.211531131004e-03 
-1.154210490817e-03 -1.954082935906e-03 0.0 
-1.954082935906e-03 4.005717739264e-03 0.0 
0.0 0.0 -1.074148950826e-03 
-8.379192553434e-04 -5.906240485017e-04 0.0 
-5.906240485017e-04 2.576604047046e-03 0.0 
0.0 0.0 -5.876558844704e-04 
-1.197102623790e-03 -1.637680359765e-03 0.0 
-1.637680359765e-03 4.017415051808e-03 0.0 
0.0 0.0 -1.056762485630e-03 
-7.509293429896e-04 -1.933738058068e-03 0.0 
-1.933738058068e-03 3.044668356527e-03 0.0 
0.0 0.0 -9.830310058020e-04 
-3.848069222800e-04 -1.987035085230e-03 0.0 
-1.987035085230e-03 2.096507399408e-03 0.0 
0.0 0.0 -7.335859187690e-04 
-1.641529108376e-03 -8.260601691015e-04 0.0 
-8.260601691015e-04 4.922455749525e-03 0.0 
0.0 0.0 -1.057704792895e-03 
1.274028603033e-03 -1.869459937269e-04 0.0 
-1.869459937269e-04 -4.728594485301e-04 0.0 
0.0 0.0 -1.484808277242e-04 
8.391344234421e-04 -3.183235339587e-04 0.0 
-3.183235339587e-04 -2.967630892776e-04 0.0 
0.0 0.0 -1.070543391422e-04 
-1.665019363331e-03 -1.732448119605e-03 0.0 
-1.732448119605e-03 5.107282910853e-03 0.0 
0.0 0.0 -1.076850574752e-03 
-6.443609575616e-04 -8.027982188953e-04 0.0 
-8.027982188953e-04 2.093114862673e-03 0.0 
0.0 0.0 -5.127475950200e-04 
-1.433152566994e-03 -2.256582062865e-03 0.0 
-2.256582062865e-03 4.678524487026e-03 0.0 
0.0 0.0 -1.065643708224e-03 
-1.181624258185e-03 -2.541209283503e-03 0.0 
-2.541209283503e-03 4.198630913141e-03 0.0 
0.0 0.0 -1.061543848411e-03 
-2.864899867882e-04 -2.872572545388e-03 0.0 
-2.872572545388e-03 2.406784440249e-03 0.0 
0.0 0.0 -9.086976229117e-04 
1.281208818910e-03 -3.086935772070e-03 0.0 
-3.086935772070e-03 3.369465702636e-04 0.0 
0.0 0.0 -6.934951667886e-04 
-1.645375116221e-03 6.411920099951e-04 0.0 
6.411920099951e-04 7.711017833911e-03 0.0 
0.0 0.0 -1.137719822027e-03 
1.154207816654e-03 1.867319367673e-03 0.0 
1.867319367673e-03 -6.876363112737e-04 0.0 
0.0 0.0 -1.999592165914e-04 
-9.249733248304e-04 -1.654130041636e-03 0.0 
-1.654130041636e-03 3.362873241434e-03 0.0 
0.0 0.0 -9.992710862841e-04 
-3.877098979375e-04 -1.380494157509e-03 0.0 
-1.380494157509e-03 3.663297430763e-03 0.0 
0.0 0.0 -1.175533656463e-03 
-5.174404311479e-04 -5.539878075327e-04 0.0 
-5.539878075327e-04 1.742776399261e-03 0.0 
0.0 0.0 -4.908139796285e-04 
-1.654366313170e-03 2.025707585884e-04 0.0 
2.025707585884e-04 6.355277344232e-03 0.0 
0.0 0.0 -9.088859120638e-04 
-1.608026372927e-03 7.066471578212e-05 0.0 
7.066471578212e-05 5.908321987661e-03 0.0 
0.0 0.0 -8.416286270284e-04 
-1.832935889570e-04 -1.554120033244e-03 0.0 
-1.554120033244e-03 1.379295739965e-03 0.0 
0.0 0.0 -5.125723504322e-04 
-9.249495539582e-04 -2.182927448984e-03 0.0 
-2.182927448984e-03 4.540217093715e-03 0.0 
0.0 0.0 -1.158722036769e-03 
-1.708983070523e-03 5.831805314674e-04 0.0 
5.831805314674e-04 7.093076428562e-03 0.0 
0.0 0.0 -1.034898561726e-03 
-5.347835094169e-04 -8.712026877687e-04 0.0 
-8.712026877687e-04 1.955284966163e-03 0.0 
0.0 0.0 -6.087863386054e-04 
-1.641053002078e-03 8.278210871732e-04 0.0 
8.278210871732e-04 7.844844353227e-03 0.0 
0.0 0.0 -1.166520446339e-03 
-1.573669309360e-03 1.135775076811e-03 0.0 
1.135775076811e-03 7.785651679837e-03 0.0 
0.0 0.0 -1.169001632583e-03 
-5.801197933913e-04 -1.186925299187e-03 0.0 
-1.186925299187e-03 2.194197512368e-03 0.0 
0.0 0.0 -6.784273028471e-04 
3.325860372313e-04 2.756630050232e-03 0.0 
2.756630050232e-03 1.228114910237e-03 0.0 
0.0 0.0 -6.688718346291e-04 
-3.593200341485e-04 -1.692198470874e-03 0.0 
-1.692198470874e-03 1.863660251544e-03 0.0 
0.0 0.0 -6.447172360267e-04 
-1.851327153153e-03 -1.651837749691e-03 0.0 
-1.651837749691e-03 5.510234686298e-03 0.0 
0.0 0.0 -1.068438311093e-03 
-1.517049278155e-03 -1.208152311661e-03 0.0 
-1.208152311661e-03 4.665351215207e-03 0.0 
0.0 0.0 -1.047608655120e-03 
-1.588271255534e-03 2.440442444252e-03 0.0 
2.440442444252e-03 7.130284191767e-03 0.0 
0.0 0.0 -1.169529464977e-03 
-1.586290284398e-03 9.796528348583e-04 0.0 
9.796528348583e-04 7.658587432112e-03 0.0 
0.0 0.0 -1.140030709108e-03 
-1.655646109898e-03 -1.957177626158e-03 0.0 
-1.957177626158e-03 5.116194479746e-03 0.0 
0.0 0.0 -1.068248785331e-03 
-1.685997880852e-03 -1.784608356716e-03 0.0 
-1.784608356716e-03 5.105111501202e-03 0.0 
0.0 0.0 -1.017402529519e-03 
-2.876771207717e-04 -1.389411797297e-03 0.0 
-1.389411797297e-03 1.511875759344e-03 0.0 
0.0 0.0 -5.246565593881e-04 
-1.860731135260e-03 -1.457489852606e-03 0.0 
-1.457489852606e-03 5.487326218288e-03 0.0 
0.0 0.0 -1.032853941699e-03 
-1.642797758815e-03 9.181312676492e-04 0.0 
9.181312676492e-04 7.041840567815e-03 0.0 
0.0 0.0 -1.037144748481e-03 
-1.515109443870e-03 -1.227447560286e-03 0.0 
-1.227447560286e-03 4.684685552436e-03 0.0 
0.0 0.0 -1.069204617036e-03 
-1.671620005891e-03 2.929392441870e-04 0.0 
2.929392441870e-04 6.771202525829e-03 0.0 
0.0 0.0 -9.752741834902e-04 
-1.678948556331e-03 5.367956015661e-04 0.0 
5.367956015661e-04 7.330127940856e-03 0.0 
0.0 0.0 -1.071415751597e-03 
2.313268375330e-03 1.796314023182e-03 0.0 
1.796314023182e-03 -1.074261141593e-03 0.0 
0.0 0.0 -5.310031001729e-04 
-1.592584348350e-03 8.322792606474e-04 0.0 
8.322792606474e-04 7.512035850087e-03 0.0 
0.0 0.0 -1.110258267496e-03 
-1.248028584087e-03 -1.336863044777e-03 0.0 
-1.336863044777e-03 4.037984938667e-03 0.0 
0.0 0.0 -1.014964823884e-03 
-1.349668852610e-03 -1.596461481346e-03 0.0 
-1.596461481346e-03 4.366516516387e-03 0.0 
0.0 0.0 -1.071455489612e-03 
-8.215746796524e-04 -1.528227033612e-03 0.0 
-1.528227033612e-03 3.070718427055e-03 0.0 
0.0 0.0 -9.608678829247e-04 
1.835549677296e-04 -2.809528380429e-03 0.0 
-2.809528380429e-03 1.483313829287e-03 0.0 
0.0 0.0 -7.143723415785e-04 
-1.633555633710e-03 7.702002767988e-04 0.0 
7.702002767988e-04 6.885994191198e-03 0.0 
0.0 0.0 -1.007339817349e-03 
3.076530191659e-04 -3.054269635980e-03 0.0 
-3.054269635980e-03 1.447807107602e-03 0.0 
0.0 0.0 -7.523400543292e-04 
-5.051265774841e-04 -1.582649049219e-03 0.0 
-1.582649049219e-03 2.186388830496e-03 0.0 
0.0 0.0 -7.205409655765e-04 
-1.167533049478e-04 -1.421228658134e-03 0.0 
-1.421228658134e-03 1.178987498042e-03 0.0 
0.0 0.0 -4.201231086673e-04 
-1.691347074083e-03 4.318386709728e-04 0.0 
4.318386709728e-04 6.937090811669e-03 0.0 
0.0 0.0 -1.005115000480e-03 
-4.635122803593e-04 -1.604799167025e-03 0.0 
-1.604799167025e-03 2.085354868508e-03 0.0 
0.0 0.0 -6.950753949209e-04 
-1.191515342284e-03 -1.717007076640e-03 0.0 
-1.717007076640e-03 5.423834924642e-03 0.0 
0.0 0.0 -1.218716866995e-03 
-1.611990725284e-03 7.358230951730e-04 0.0 
7.358230951730e-04 7.120198208464e-03 0.0 
0.0 0.0 -1.043883448597e-03 
-1.702982719558e-03 -1.584997506959e-03 0.0 
-1.584997506959e-03 5.470541578607e-03 0.0 
0.0 0.0 -1.070373463590e-03 
-9.109045738307e-04 -2.286339166372e-04 0.0 
-2.286339166372e-04 4.268441463060e-03 0.0 
0.0 0.0 -1.284729618418e-03 
-1.071268175159e-03 -1.648454023553e-03 0.0 
-1.648454023553e-03 3.707169372543e-03 0.0 
0.0 0.0 -1.023311028316e-03 
-5.174967158518e-04 -1.184771327579e-03 0.0 
-1.184771327579e-03 2.030619627748e-03 0.0 
0.0 0.0 -6.484812479557e-04 
-2.326317737538e-04 -1.038651026586e-03 0.0 
-1.038651026586e-03 1.174275035768e-03 0.0 
0.0 0.0 -4.035613980062e-04 
-1.410090236189e-03 -2.406400776569e-03 0.0 
-2.406400776569e-03 4.648410275236e-03 0.0 
0.0 0.0 -1.051259780966e-03 
-1.600848466290e-03 5.345976904083e-04 0.0 
5.345976904083e-04 6.550294708413e-03 0.0 
0.0 0.0 -9.473489374553e-04 
-8.717253142324e-05 -9.933700925620e-04 0.0 
-9.933700925620e-04 8.344671106644e-04 0.0 
0.0 0.0 -3.202691053891e-04 
-6.027995719924e-04 -2.107392599842e-03 0.0 
-2.107392599842e-03 2.722751826872e-03 0.0 
0.0 0.0 -9.085509663768e-04 
-7.199860598078e-04 -4.341095348245e-04 0.0 
-4.341095348245e-04 2.121552428607e-03 0.0 
0.0 0.0 -4.196057652059e-04 
-1.682938822042e-03 3.318724932828e-04 0.0 
3.318724932828e-04 6.532037136807e-03 0.0 
0.0 0.0 -9.387834224271e-04 
-7.776326742692e-04 -1.884645157224e-03 0.0 
-1.884645157224e-03 3.094899202807e-03 0.0 
0.0 0.0 -9.909213861921e-04 
-1.231039957355e-03 -2.426325464904e-03 0.0 
-2.426325464904e-03 4.199347214172e-03 0.0 
0.0 0.0 -9.819879942351e-04 
-8.554599545912e-04 -1.459966539243e-03 0.0 
-1.459966539243e-03 3.093994812612e-03 0.0 
0.0 0.0 -9.237817853494e-04 
-1.614515104562e-03 2.789174945577e-04 0.0 
2.789174945577e-04 7.633843682432e-03 0.0 
0.0 0.0 -1.114809527198e-03 
-5.165996464755e-04 -1.902435422896e-03 0.0 
-1.902435422896e-03 2.384778332934e-03 0.0 
0.0 0.0 -8.006480084822e-04 
-1.128557246388e-03 -2.713813412197e-03 0.0 
-2.713813412197e-03 4.096504171839e-03 0.0 
0.0 0.0 -1.021386065992e-03 
3.769531236008e-04 -2.410295298791e-03 0.0 
-2.410295298791e-03 9.611755011410e-04 0.0 
0.0 0.0 -5.734836963179e-04 
-1.146759310470e-03 -2.656955500371e-03 0.0 
-2.656955500371e-03 4.139056916818e-03 0.0 
0.0 0.0 -1.043150860743e-03 
-1.375457983811e-03 -1.244246825682e-03 0.0 
-1.244246825682e-03 4.353109699875e-03 0.0 
0.0 0.0 -1.054662228279e-03 
-1.554003148348e-03 -1.878419659560e-03 0.0 
-1.878419659560e-03 5.069341272683e-03 0.0 
0.0 0.0 -1.041555045145e-03 
3.002499616426e-03 -7.287809856288e-04 0.0 
-7.287809856288e-04 -1.352929250409e-03 0.0 
0.0 0.0 -7.069587282928e-04 
-6.177242885591e-04 -4.890935474393e-04 0.0 
-4.890935474393e-04 2.000133674606e-03 0.0 
0.0 0.0 -5.285791946032e-04 
-1.609261505607e-03 9.637114852810e-05 0.0 
9.637114852810e-05 6.165456359686e-03 0.0 
0.0 0.0 -8.787268422831e-04 
6.987156508361e-04 -1.946712657170e-03 0.0 
-1.946712657170e-03 1.033985256572e-03 0.0 
0.0 0.0 -7.425861031749e-04 
3.405430775163e-04 3.191948666083e-03 0.0 
3.191948666083e-03 1.485409776068e-03 0.0 
0.0 0.0 -7.825512229649e-04 
-1.644262011324e-03 1.659911649759e-04 0.0 
1.659911649759e-04 6.584724351472e-03 0.0 
0.0 0.0 -9.453210152248e-04 
6.455202986104e-04 -2.635854245695e-03 0.0 
-2.635854245695e-03 6.894465372206e-04 0.0 
0.0 0.0 -5.721286439276e-04 
-1.681255032869e-03 9.721382689111e-04 0.0 
9.721382689111e-04 6.557103597372e-03 0.0 
0.0 0.0 -9.642804585795e-04 
-6.124308423891e-04 -5.450173225678e-04 0.0 
-5.450173225678e-04 1.850421424375e-03 0.0 
0.0 0.0 -3.816933993452e-04 
-1.231036729784e-03 -2.253664933021e-03 0.0 
-2.253664933021e-03 5.042416419642e-03 0.0 
0.0 0.0 -1.150402778756e-03 
7.350617248358e-04 -1.287476273638e-03 0.0 
-1.287476273638e-03 1.272883254993e-03 0.0 
0.0 0.0 -8.605478484982e-04 
6.223710608225e-04 1.356379083397e-03 0.0 
1.356379083397e-03 1.985099964088e-03 0.0 
0.0 0.0 -1.037051012011e-03 
-1.598102879926e-03 7.448720335872e-04 0.0 
7.448720335872e-04 8.095744984387e-03 0.0 
0.0 0.0 -1.204463612412e-03 
8.919152436734e-05 -3.143989424638e-03 0.0 
-3.143989424638e-03 1.851557330955e-03 0.0 
0.0 0.0 -8.317495094241e-04 
-4.309306607764e-04 -9.183848167176e-04 0.0 
-9.183848167176e-04 1.661245254261e-03 0.0 
0.0 0.0 -5.272776829218e-04 
-5.215676815475e-04 -3.050968300431e-03 0.0 
-3.050968300431e-03 3.002352665044e-03 0.0 
0.0 0.0 -1.027200950222e-03 
-1.049023862644e-03 -1.741518653201e-03 0.0 
-1.741518653201e-03 4.976635689622e-03 0.0 
0.0 0.0 -1.189963100592e-03 
9.320234363391e-04 -2.596047537173e-03 0.0 
-2.596047537173e-03 3.625727901238e-04 0.0 
0.0 0.0 -5.548269541984e-04 
-1.645253786717e-03 -2.142300707641e-03 0.0 
-2.142300707641e-03 5.116342603387e-03 0.0 
0.0 0.0 -1.056575865346e-03 
-1.668373394945e-03 3.866502142135e-04 0.0 
3.866502142135e-04 7.172333763355e-03 0.0 
0.0 0.0 -1.041631482750e-03 
1.707610751817e-03 -3.111302323774e-03 0.0 
-3.111302323774e-03 2.006678016111e-05 0.0 
0.0 0.0 -7.404332279907e-04 
-8.518987020310e-04 -2.879189791171e-03 0.0 
-2.879189791171e-03 3.589652711545e-03 0.0 
0.0 0.0 -1.034177093206e-03 
-1.689258382171e-03 3.631400807220e-04 0.0 
3.631400807220e-04 6.026727173804e-03 0.0 
0.0 0.0 -8.663127257150e-04 
-8.305596344540e-04 -9.136388392921e-04 0.0 
-9.136388392921e-04 2.720781083117e-03 0.0 
0.0 0.0 -7.057144296542e-04 
-4.174774710502e-04 -2.264727665933e-03 0.0 
-2.264727665933e-03 2.338052704739e-03 0.0 
0.0 0.0 -8.231036715810e-04 
1.803968687695e-04 3.742029911528e-03 0.0 
3.742029911528e-03 2.055326787370e-03 0.0 
0.0 0.0 -9.358934819731e-04 
-1.362318107691e-03 -2.168484734475e-03 0.0 
-2.168484734475e-03 4.618346883937e-03 0.0 
0.0 0.0 -1.012809740122e-03 
-6.445707195621e-05 3.204089462648e-03 0.0 
3.204089462648e-03 2.166873657449e-03 0.0 
0.0 0.0 -9.010356794969e-04 
5.513709198924e-04 3.609450072054e-03 0.0 
3.609450072054e-03 1.451733722049e-03 0.0 
0.0 0.0 -8.584734179747e-04 
-1.663785911262e-03 9.479908707512e-04 0.0 
9.479908707512e-04 6.801753296704e-03 0.0 
0.0 0.0 -1.000670320419e-03 
-1.603261119446e-03 5.580378966873e-04 0.0 
5.580378966873e-04 6.304876685805e-03 0.0 
0.0 0.0 -9.110000341593e-04 
-1.665053571431e-03 8.222814637678e-04 0.0 
8.222814637678e-04 6.156291516455e-03 0.0 
0.0 0.0 -8.984003255416e-04 
-1.378097458895e-03 -1.307048665384e-03 0.0 
-1.307048665384e-03 4.348190678149e-03 0.0 
0.0 0.0 -1.034446146726e-03 
-6.901682956972e-04 -2.185652284413e-03 0.0 
-2.185652284413e-03 4.019713840668e-03 0.0 
0.0 0.0 -1.130631056169e-03 
-1.834308716731e-04 -3.140526153133e-03 0.0 
-3.140526153133e-03 2.359250978041e-03 0.0 
0.0 0.0 -9.324943313007e-04 
-1.664409897791e-03 2.283299940873e-04 0.0 
2.283299940873e-04 6.118881933301e-03 0.0 
0.0 0.0 -8.720525204519e-04 
-1.540055594527e-03 2.603535571495e-03 0.0 
2.603535571495e-03 6.865325717395e-03 0.0 
0.0 0.0 -1.193584144721e-03 
3.472050528190e-04 1.692564590117e-03 0.0 
1.692564590117e-03 2.541247573186e-03 0.0 
0.0 0.0 -1.073433710836e-03 
-1.128039575521e-03 -2.445102979842e-03 0.0 
-2.445102979842e-03 4.119062361786e-03 0.0 
0.0 0.0 -9.841343610905e-04 
-1.618130106290e-03 8.767059940841e-04 0.0 
8.767059940841e-04 7.278368023729e-03 0.0 
0.0 0.0 -1.073677668998e-03 
-6.910390954277e-05 -2.799918663238e-03 0.0 
-2.799918663238e-03 1.917780934052e-03 0.0 
0.0 0.0 -7.922901533612e-04 
-2.515921695526e-04 -2.585539987467e-03 0.0 
-2.585539987467e-03 2.152735873912e-03 0.0 
0.0 0.0 -8.147758732969e-04 
-3.310614028043e-04 -1.379924337061e-03 0.0 
-1.379924337061e-03 1.616149347076e-03 0.0 
0.0 0.0 -5.507519761165e-04 
-5.011752582021e-04 -3.030712813107e-03 0.0 
-3.030712813107e-03 2.924383664169e-03 0.0 
0.0 0.0 -9.894786617912e-04 
-4.694395913292e-04 -2.445221033123e-03 0.0 
-2.445221033123e-03 2.569902493715e-03 0.0 
0.0 0.0 -9.001983867369e-04 
-1.710187933828e-03 4.633984892961e-04 0.0 
4.633984892961e-04 6.694041267773e-03 0.0 
0.0 0.0 -9.686535345556e-04 
-1.726289188827e-03 4.896054940225e-04 0.0 
4.896054940225e-04 6.449117765340e-03 0.0 
0.0 0.0 -9.322463471790e-04 
2.416944889244e-03 5.439879453653e-04 0.0 
5.439879453653e-04 -1.208818724836e-03 0.0 
0.0 0.0 -5.177683561747e-04 
-1.928901237433e-04 -2.408049599402e-03 0.0 
-2.408049599402e-03 1.916746904624e-03 0.0 
0.0 0.0 -7.387957632348e-04 
2.990366271950e-03 1.613745370932e-03 0.0 
1.613745370932e-03 -1.371577636674e-03 0.0 
0.0 0.0 -6.937665579755e-04 
-3.910486537430e-04 -2.315216698545e-03 0.0 
-2.315216698545e-03 2.304304739270e-03 0.0 
0.0 0.0 -8.199668937971e-04 
-2.230223782308e-04 -2.682222528879e-03 0.0 
-2.682222528879e-03 2.152181418268e-03 0.0 
0.0 0.0 -8.267824457303e-04 
-4.073029906979e-04 -1.294483440297e-03 0.0 
-1.294483440297e-03 1.772331589387e-03 0.0 
0.0 0.0 -5.850122565809e-04 
-4.258807302887e-04 -2.144389728424e-03 0.0 
-2.144389728424e-03 3.478718025925e-03 0.0 
0.0 0.0 -1.101849228970e-03 
4.193172772845e-04 -3.233569204744e-03 0.0 
-3.233569204744e-03 1.400177349689e-03 0.0 
0.0 0.0 -7.797834115600e-04 
-1.646879822787e-03 4.813878958504e-04 0.0 
4.813878958504e-04 7.564621706005e-03 0.0 
0.0 0.0 -1.107989045227e-03 
6.164328486864e-04 -3.141645067701e-03 0.0 
-3.141645067701e-03 1.094713369857e-03 0.0 
0.0 0.0 -7.333483793757e-04 
-5.352671715167e-04 -2.920481306985e-03 0.0 
-2.920481306985e-03 2.976534494236e-03 0.0 
0.0 0.0 -9.268471029392e-04 
3.090740504692e-05 -3.263078096127e-03 0.0 
-3.263078096127e-03 2.029516789361e-03 0.0 
0.0 0.0 -8.830389404605e-04 
1.224821345307e-03 3.216271527602e-03 0.0 
3.216271527602e-03 4.534564749945e-04 0.0 
0.0 0.0 -7.192619229864e-04 
-4.591680976874e-04 -1.267727629031e-03 0.0 
-1.267727629031e-03 1.902437159688e-03 0.0 
0.0 0.0 -6.185438837147e-04 
-8.295759423418e-04 -1.747729159177e-03 0.0 
-1.747729159177e-03 4.457598420487e-03 0.0 
0.0 0.0 -1.161691925552e-03 
-8.640451209017e-04 -2.074084677624e-03 0.0 
-2.074084677624e-03 4.658509439049e-03 0.0 
0.0 0.0 -1.198716319349e-03 
-6.013355258858e-04 3.714306523016e-03 0.0 
3.714306523016e-03 3.360817493125e-03 0.0 
0.0 0.0 -9.650368815299e-04 
-1.923559704036e-05 -2.994572033542e-03 0.0 
-2.994572033542e-03 1.948727475502e-03 0.0 
0.0 0.0 -8.269250907692e-04 
-2.503696762219e-04 -3.166835997765e-03 0.0 
-3.166835997765e-03 2.485701371906e-03 0.0 
0.0 0.0 -9.354962741733e-04 
-1.647815013080e-03 8.021683468908e-04 0.0 
8.021683468908e-04 6.643407279142e-03 0.0 
0.0 0.0 -9.708520278613e-04 
-3.181114656463e-04 -2.713015915343e-03 0.0 
-2.713015915343e-03 2.377429006136e-03 0.0 
0.0 0.0 -8.825646602100e-04 
7.116670481849e-04 3.351796189116e-03 0.0 
3.351796189116e-03 1.105566406541e-03 0.0 
0.0 0.0 -7.788143377395e-04 
-5.501781971430e-04 -1.884487968291e-03 0.0 
-1.884487968291e-03 2.464549120431e-03 0.0 
0.0 0.0 -8.204446814089e-04 
9.957483789486e-04 -2.931560812442e-03 0.0 
-2.931560812442e-03 3.486105119444e-04 0.0 
0.0 0.0 -5.761538103827e-04 
1.170702144068e-04 -2.917551374595e-03 0.0 
-2.917551374595e-03 1.660101911363e-03 0.0 
0.0 0.0 -7.616451967584e-04 
-5.960830469200e-04 -1.478493121431e-03 0.0 
-1.478493121431e-03 2.390521820873e-03 0.0 
0.0 0.0 -7.690451888369e-04 
-7.193147455851e-04 -1.069003876046e-03 0.0 
-1.069003876046e-03 2.479314286133e-03 0.0 
0.0 0.0 -6.849754419779e-04 
-1.850126680382e-05 -3.140240111362e-03 0.0 
-3.140240111362e-03 2.040450553655e-03 0.0 
0.0 0.0 -8.665496943648e-04 
-8.517286139436e-04 -2.699031265188e-03 0.0 
-2.699031265188e-03 3.572094775893e-03 0.0 
0.0 0.0 -9.554846610150e-04 
-9.258628841067e-04 3.334973100130e-03 0.0 
3.334973100130e-03 4.800766489173e-03 0.0 
0.0 0.0 -1.128610778606e-03 
1.795476015728e-03 -3.745896555992e-04 0.0 
-3.745896555992e-04 -4.681407310308e-04 0.0 
0.0 0.0 -1.007271482096e-04 
1.477477984761e-03 -2.160820890410e-03 0.0 
-2.160820890410e-03 -1.640262078733e-04 0.0 
0.0 0.0 -5.629079043802e-04 
9.457248714060e-04 -2.859194649623e-03 0.0 
-2.859194649623e-03 6.047505636496e-04 0.0 
0.0 0.0 -6.644894721667e-04 
2.064739481844e-04 -3.194226446081e-03 0.0 
-3.194226446081e-03 1.689929388459e-03 0.0 
0.0 0.0 -8.127442871328e-04 
-1.656928892650e-03 8.151295774597e-04 0.0 
8.151295774597e-04 6.399838907814e-03 0.0 
0.0 0.0 -9.344164207832e-04 
2.545948249673e-04 -3.270064507394e-03 0.0 
-3.270064507394e-03 1.662466157556e-03 0.0 
0.0 0.0 -8.215975639385e-04 
-6.717590179400e-04 -1.743398916895e-03 0.0 
-1.743398916895e-03 2.730040439290e-03 0.0 
0.0 0.0 -8.821206091502e-04 
2.940147133768e-04 -2.953116785718e-03 0.0 
-2.953116785718e-03 1.404914365559e-03 0.0 
0.0 0.0 -7.281124624012e-04 
-1.597640344519e-03 6.950049643667e-04 0.0 
6.950049643667e-04 7.352823299798e-03 0.0 
0.0 0.0 -1.080452943103e-03 
-7.063133806754e-04 -1.717335593378e-03 0.0 
-1.717335593378e-03 2.816704678048e-03 0.0 
0.0 0.0 -9.044534131596e-04 
-1.993759384210e-04 -8.715145545495e-04 0.0 
-8.715145545495e-04 1.025473523807e-03 0.0 
0.0 0.0 -3.540418223084e-04 
-3.396899465816e-04 -1.001666654583e-03 0.0 
-1.001666654583e-03 1.438762041900e-03 0.0 
0.0 0.0 -4.710308979937e-04 
8.199892085620e-04 -2.799788621547e-03 0.0 
-2.799788621547e-03 6.522727846800e-04 0.0 
0.0 0.0 -6.309694256751e-04 
9.078868863823e-06 -2.738074417405e-03 0.0 
-2.738074417405e-03 1.733216879781e-03 0.0 
0.0 0.0 -7.466981779905e-04 
1.103409613190e-03 -2.545332485906e-03 0.0 
-2.545332485906e-03 3.291592924430e-04 0.0 
0.0 0.0 -6.139581024141e-04 
4.609298661722e-04 -2.917080397583e-03 0.0 
-2.917080397583e-03 1.153463791195e-03 0.0 
0.0 0.0 -6.918829960147e-04 
6.174604848126e-04 -2.601794133831e-03 0.0 
-2.601794133831e-03 7.903429974379e-04 0.0 
0.0 0.0 -6.033443495359e-04 
-4.149645807323e-04 -9.518115957764e-04 0.0 
-9.518115957764e-04 1.570452979312e-03 0.0 
0.0 0.0 -4.579617190245e-04 
-1.800428115941e-03 6.964731656622e-04 0.0 
6.964731656622e-04 6.067707299324e-03 0.0 
0.0 0.0 -8.885078876198e-04 
-6.431842488821e-04 -1.481881899324e-03 0.0 
-1.481881899324e-03 2.527966751562e-03 0.0 
0.0 0.0 -8.077639297199e-04 
-3.542476587942e-04 -1.933324559496e-03 0.0 
-1.933324559496e-03 3.366073220136e-03 0.0 
0.0 0.0 -1.067401112627e-03 
-7.301428169590e-04 3.365159558875e-03 0.0 
3.365159558875e-03 4.241956460408e-03 0.0 
0.0 0.0 -1.093380752811e-03 
-1.742519381031e-03 2.013539484841e-03 0.0 
2.013539484841e-03 5.514346305573e-03 0.0 
0.0 0.0 -9.013836717722e-04 
-1.638703746775e-03 1.447396884762e-03 0.0 
1.447396884762e-03 7.437681461836e-03 0.0 
0.0 0.0 -1.126084317643e-03 
-1.069717058735e-03 3.316002143618e-03 0.0 
3.316002143618e-03 5.313047036020e-03 0.0 
0.0 0.0 -1.164310864388e-03 
2.494431731371e-03 1.270414999422e-03 0.0 
1.270414999422e-03 -1.135062232485e-03 0.0 
0.0 0.0 -5.825869280942e-04 
-6.518857880869e-04 3.512796865886e-03 0.0 
3.512796865886e-03 3.785510000148e-03 0.0 
0.0 0.0 -1.029042339204e-03 
9.845026743479e-04 -3.000223110364e-03 0.0 
-3.000223110364e-03 4.820355227438e-04 0.0 
0.0 0.0 -6.285163701822e-04 
9.169108146706e-06 -3.021931346183e-03 0.0 
-3.021931346183e-03 1.914436153364e-03 0.0 
0.0 0.0 -8.244022549332e-04 
1.935620549985e-03 2.666280335606e-03 0.0 
2.666280335606e-03 -6.114645168814e-04 0.0 
0.0 0.0 -5.674954427585e-04 
2.434658683002e-03 -2.349214516508e-03 0.0 
-2.349214516508e-03 -7.291186468832e-04 0.0 
0.0 0.0 -7.309457297651e-04 
8.115117363057e-04 -2.741951264447e-03 0.0 
-2.741951264447e-03 6.655581968644e-04 0.0 
0.0 0.0 -6.330299713586e-04 
-4.450599208505e-04 -2.552111804523e-03 0.0 
-2.552111804523e-03 2.573524769895e-03 0.0 
0.0 0.0 -9.121992210190e-04 
7.181167573208e-04 -2.648058741041e-03 0.0 
-2.648058741041e-03 7.077719066917e-04 0.0 
0.0 0.0 -6.110951417196e-04 
8.603807904587e-04 -2.481932762305e-03 0.0 
-2.481932762305e-03 4.907815371097e-04 0.0 
0.0 0.0 -5.790695689579e-04 
-7.220048660239e-04 -1.343093892557e-03 0.0 
-1.343093892557e-03 2.702939106315e-03 0.0 
0.0 0.0 -8.489718172674e-04 
4.166245934909e-04 -3.209488587121e-03 0.0 
-3.209488587121e-03 1.389160896237e-03 0.0 
0.0 0.0 -7.739080670262e-04 
1.094305293400e-03 -2.135240774913e-03 0.0 
-2.135240774913e-03 1.298780956037e-04 0.0 
0.0 0.0 -5.246500238586e-04 
1.735397459642e-03 -1.790668401916e-03 0.0 
-1.790668401916e-03 -5.241960348096e-04 0.0 
0.0 0.0 -5.190863249281e-04 
-2.953118235534e-05 -2.621242279383e-03 0.0 
-2.621242279383e-03 1.729246141722e-03 0.0 
0.0 0.0 -7.284492682998e-04 
9.068086297483e-04 -1.885631159827e-04 0.0 
-1.885631159827e-04 1.202081875786e-03 0.0 
0.0 0.0 -9.038102166577e-04 
-1.735518635242e-03 6.223275928078e-04 0.0 
6.223275928078e-04 6.851645939463e-03 0.0 
0.0 0.0 -9.984673180475e-04 
2.290762220203e-03 -1.318712250617e-03 0.0 
-1.318712250617e-03 -1.027744525883e-03 0.0 
0.0 0.0 -5.412932975660e-04 
-5.654229652914e-04 -1.684995955007e-03 0.0 
-1.684995955007e-03 3.940963543082e-03 0.0 
0.0 0.0 -1.133495712197e-03 
1.398246767020e-03 -3.216441844472e-03 0.0 
-3.216441844472e-03 9.154783719246e-05 0.0 
0.0 0.0 -6.384834018056e-04 
-5.648051924757e-04 -1.107091868774e-03 0.0 
-1.107091868774e-03 4.182104582450e-03 0.0 
0.0 0.0 -1.208505026952e-03 
7.869283801720e-04 -2.957311971993e-03 0.0 
-2.957311971993e-03 8.055017795032e-04 0.0 
0.0 0.0 -6.824700684322e-04 
-1.163518298392e-03 3.423968427013e-03 0.0 
3.423968427013e-03 5.864548636599e-03 0.0 
0.0 0.0 -1.203459118631e-03 
-1.226888468028e-03 3.131439724330e-03 0.0 
3.131439724330e-03 4.473148429932e-03 0.0 
0.0 0.0 -9.144069900286e-04 
8.146311757364e-04 -2.866044643526e-03 0.0 
-2.866044643526e-03 7.279520038073e-04 0.0 
0.0 0.0 -6.611070769473e-04 
-1.669436221743e-03 2.273068641771e-03 0.0 
2.273068641771e-03 5.485810747731e-03 0.0 
0.0 0.0 -9.292863832265e-04 
-1.634774651159e-03 1.926043724267e-03 0.0 
1.926043724267e-03 7.350223961808e-03 0.0 
0.0 0.0 -1.148369591821e-03 
9.266283371582e-04 -2.700818447501e-03 0.0 
-2.700818447501e-03 5.423083712425e-04 0.0 
0.0 0.0 -6.295443036003e-04 
1.446287545932e-03 3.073556646394e-03 0.0 
3.073556646394e-03 1.275065551695e-04 0.0 
0.0 0.0 -6.744831861864e-04 
-1.574055992192e-03 2.506613091125e-03 0.0 
2.506613091125e-03 5.429733742182e-03 0.0 
0.0 0.0 -9.572423940436e-04 
2.774777350088e-04 3.373231360525e-03 0.0 
3.373231360525e-03 1.692140773898e-03 0.0 
0.0 0.0 -8.441222181028e-04 
6.686313295052e-04 -2.714647588195e-03 0.0 
-2.714647588195e-03 7.978373867195e-04 0.0 
0.0 0.0 -6.284865926677e-04 
-1.493705396886e-03 1.751261100369e-03 0.0 
1.751261100369e-03 8.145178326217e-03 0.0 
0.0 0.0 -1.259077240559e-03 
2.909241618845e-04 -2.201062680806e-03 0.0 
-2.201062680806e-03 9.491865650592e-04 0.0 
0.0 0.0 -5.314760258330e-04 
-1.393014638960e-04 7.789838351986e-04 0.0 
7.789838351986e-04 3.592179503210e-03 0.0 
0.0 0.0 -1.194426649262e-03 
-1.554233915862e-03 9.163364700516e-04 0.0 
9.163364700516e-04 7.887220632938e-03 0.0 
0.0 0.0 -1.175981821618e-03 
7.026255322913e-04 -6.834983021250e-04 0.0 
-6.834983021250e-04 1.598542050998e-03 0.0 
0.0 0.0 -9.862146785524e-04 
-1.631602720906e-03 6.968439340323e-04 0.0 
6.968439340323e-04 6.226177705545e-03 0.0 
0.0 0.0 -9.041796124736e-04 
-1.724067531766e-03 9.331717393615e-04 0.0 
9.331717393615e-04 7.373782435820e-03 0.0 
0.0 0.0 -1.094228678348e-03 
1.385482593825e-03 -2.030831099799e-03 0.0 
-2.030831099799e-03 -2.112692183438e-04 0.0 
0.0 0.0 -5.032343037776e-04 
1.999660538583e-03 5.238969397191e-04 0.0 
5.238969397191e-04 -8.881969286874e-04 0.0 
0.0 0.0 -4.763415470983e-04 
-1.569811974871e-03 1.587727422304e-03 0.0 
1.587727422304e-03 7.784527269149e-03 0.0 
0.0 0.0 -1.191782302182e-03 
-9.330696091187e-04 -2.330125100931e-03 0.0 
-2.330125100931e-03 4.026828994110e-03 0.0 
0.0 0.0 -1.021464098896e-03 
-1.750430558126e-03 7.997395592586e-04 0.0 
7.997395592586e-04 6.994945578504e-03 0.0 
0.0 0.0 -1.028225029406e-03 
5.898974709842e-04 -1.490603234069e-03 0.0 
-1.490603234069e-03 1.573546015772e-03 0.0 
0.0 0.0 -9.271900657525e-04 
1.226199290364e-03 -3.133713578343e-03 0.0 
-3.133713578343e-03 4.720804484946e-04 0.0 
0.0 0.0 -7.278341737966e-04 
-1.755813224466e-03 9.900590192067e-04 0.0 
9.900590192067e-04 7.121505765451e-03 0.0 
0.0 0.0 -1.057861461704e-03 
-1.020230912339e-03 3.255501544884e-03 0.0 
3.255501544884e-03 5.845285965923e-03 0.0 
0.0 0.0 -1.268085107495e-03 
-8.098027228146e-04 -1.517662878241e-03 0.0 
-1.517662878241e-03 4.547334409745e-03 0.0 
0.0 0.0 -1.202195648613e-03 
7.610076650519e-05 -3.235453866840e-03 0.0 
-3.235453866840e-03 1.932455716982e-03 0.0 
0.0 0.0 -8.608099214947e-04 
-1.689275270792e-03 3.359122450795e-04 0.0 
3.359122450795e-04 6.273459191033e-03 0.0 
0.0 0.0 -9.020111041354e-04 
-1.632588233776e-03 6.974904632293e-04 0.0 
6.974904632293e-04 5.987209936235e-03 0.0 
0.0 0.0 -8.677534307045e-04 
6.088392128265e-04 -2.822537476632e-03 0.0 
-2.822537476632e-03 9.202084504231e-04 0.0 
0.0 0.0 -6.553061413927e-04 
-6.443122983676e-04 -2.499706879338e-03 0.0 
-2.499706879338e-03 3.462729029903e-03 0.0 
0.0 0.0 -9.927925938929e-04 
-4.755079025855e-04 -2.238751106190e-03 0.0 
-2.238751106190e-03 3.389731406328e-03 0.0 
0.0 0.0 -1.030113165296e-03 
-2.437047899643e-04 -1.231397142334e-03 0.0 
-1.231397142334e-03 1.345917923955e-03 0.0 
0.0 0.0 -4.426674065645e-04 
2.847402133071e-03 1.832321194303e-03 0.0 
1.832321194303e-03 -1.311219245011e-03 0.0 
0.0 0.0 -6.583640948828e-04 
2.391065633377e-03 -7.030644689003e-04 0.0 
-7.030644689003e-04 -1.190042454993e-03 0.0 
0.0 0.0 -5.147242193072e-04 
1.968235762107e-03 -1.858343853594e-03 0.0 
-1.858343853594e-03 -8.473461408074e-04 0.0 
0.0 0.0 -4.803812662710e-04 
7.235144373202e-04 3.006853977664e-03 0.0 
3.006853977664e-03 8.982936940798e-04 0.0 
0.0 0.0 -6.950606277428e-04 
-1.594047644543e-03 1.198778980109e-03 0.0 
1.198778980109e-03 8.076345274144e-03 0.0 
0.0 0.0 -1.225426844749e-03 
-1.544957883650e-03 2.714187828761e-03 0.0 
2.714187828761e-03 6.803087963728e-03 0.0 
0.0 0.0 -1.162686153705e-03 
-1.603786220280e-03 5.743670581703e-04 0.0 
5.743670581703e-04 7.933574954986e-03 0.0 
0.0 0.0 -1.173632101657e-03 
-3.176362262569e-04 3.157680560962e-03 0.0 
3.157680560962e-03 2.644961507973e-03 0.0 
0.0 0.0 -9.922833334649e-04 
-1.686655624371e-03 1.762581410411e-03 0.0 
1.762581410411e-03 7.001695775819e-03 0.0 
0.0 0.0 -1.082713561900e-03 
-8.312311815285e-04 -2.893135141048e-03 0.0 
-2.893135141048e-03 3.527094208899e-03 0.0 
0.0 0.0 -1.005652543148e-03 
-1.566323459329e-03 1.337573114455e-03 0.0 
1.337573114455e-03 7.933955714899e-03 0.0 
0.0 0.0 -1.198415070424e-03 
-1.781797660459e-03 1.042297273604e-03 0.0 
1.042297273604e-03 6.860193468522e-03 0.0 
0.0 0.0 -1.021631336281e-03 
1.651541321597e-04 -3.069309819670e-03 0.0 
-3.069309819670e-03 1.677218775847e-03 0.0 
0.0 0.0 -7.895883891459e-04 
2.729895556258e-03 -3.816222067232e-05 0.0 
-3.816222067232e-05 -1.329892949249e-03 0.0 
0.0 0.0 -6.000011172896e-04 
-1.678629276342e-03 1.301261135869e-03 0.0 
1.301261135869e-03 7.071604861536e-03 0.0 
0.0 0.0 -1.060111126929e-03 
-1.674561038714e-03 1.060445620383e-03 0.0 
1.060445620383e-03 7.740408073351e-03 0.0 
0.0 0.0 -1.160283895044e-03 
-1.648358362413e-03 1.080960708592e-03 0.0 
1.080960708592e-03 7.188263314287e-03 0.0 
0.0 0.0 -1.066842251349e-03 
-1.675485628863e-03 1.117801916471e-03 0.0 
1.117801916471e-03 6.945334177936e-03 0.0 
0.0 0.0 -1.030428295937e-03 
-9.047694827226e-04 -1.891564198184e-03 0.0 
-1.891564198184e-03 4.463027696646e-03 0.0 
0.0 0.0 -1.124756152480e-03 
-3.636288725449e-05 1.185092302766e-03 0.0 
1.185092302766e-03 3.361330425582e-03 0.0 
0.0 0.0 -1.167530213646e-03 
-6.417903686716e-04 -1.936633603608e-03 0.0 
-1.936633603608e-03 3.924941189051e-03 0.0 
0.0 0.0 -1.096139997395e-03 
-6.252750457425e-04 -2.981929184320e-03 0.0 
-2.981929184320e-03 3.101913023538e-03 0.0 
0.0 0.0 -9.455690924112e-04 
-9.133871784712e-04 2.307173197510e-03 0.0 
2.307173197510e-03 3.388339270904e-03 0.0 
0.0 0.0 -8.706649152390e-04 
5.857890875911e-04 -1.165024071922e-04 0.0 
-1.165024071922e-04 1.961403903997e-03 0.0 
0.0 0.0 -1.057160997780e-03 
-1.717096850446e-03 1.897490647652e-03 0.0 
1.897490647652e-03 6.421227655064e-03 0.0 
0.0 0.0 -1.010795753303e-03 
-6.313703935138e-04 -1.096821766549e-03 0.0 
-1.096821766549e-03 2.333660856895e-03 0.0 
0.0 0.0 -7.295530557346e-04 
2.168606455157e-03 -1.381490462849e-03 0.0 
-1.381490462849e-03 -1.049895932277e-03 0.0 
0.0 0.0 -4.794473669488e-04 
1.521212506514e-03 -1.320220071534e-03 0.0 
-1.320220071534e-03 -4.274634539344e-04 0.0 
0.0 0.0 -4.687495939627e-04 
1.466355838383e-03 4.602651966615e-04 0.0 
4.602651966615e-04 -3.624189179880e-05 0.0 
0.0 0.0 -6.129059771076e-04 
2.718390450017e-03 -6.950340879152e-04 0.0 
-6.950340879152e-04 -1.327258381844e-03 0.0 
0.0 0.0 -5.961994577885e-04 
2.586833026508e-03 -8.035069926998e-04 0.0 
-8.035069926998e-04 -1.237368745637e-03 0.0 
0.0 0.0 -5.783418346592e-04 
1.064335855090e-03 3.871345564871e-04 0.0 
3.871345564871e-04 8.878223967010e-04 0.0 
0.0 0.0 -8.366392507678e-04 
-8.479776809358e-04 2.867626528881e-03 0.0 
2.867626528881e-03 3.485177703647e-03 0.0 
0.0 0.0 -9.312627088267e-04 
-1.048673303190e-04 -3.229543423404e-03 0.0 
-3.229543423404e-03 2.260338218225e-03 0.0 
0.0 0.0 -9.237732376742e-04 
-1.787010102696e-03 8.860662194747e-04 0.0 
8.860662194747e-04 6.472161902549e-03 0.0 
0.0 0.0 -9.556638187253e-04 
-1.534511977861e-03 4.226734842399e-04 0.0 
4.226734842399e-04 5.386267654424e-03 0.0 
0.0 0.0 -7.638029664831e-04 
2.694004404959e-04 1.692225150283e-03 0.0 
1.692225150283e-03 6.665564429896e-04 0.0 
0.0 0.0 -4.011243786367e-04 
-2.485044760616e-04 -3.138222606519e-03 0.0 
-3.138222606519e-03 2.491915244985e-03 0.0 
0.0 0.0 -9.614617581102e-04 
5.241395104488e-04 -3.820643100564e-04 0.0 
-3.820643100564e-04 1.948070463321e-03 0.0 
0.0 0.0 -1.051835763028e-03 
-1.541512456067e-03 2.665389691955e-03 0.0 
2.665389691955e-03 7.146978989113e-03 0.0 
0.0 0.0 -1.196871286280e-03 
2.182111420875e-03 6.070828475979e-04 0.0 
6.070828475979e-04 -1.164368423359e-03 0.0 
0.0 0.0 -4.361755703639e-04 
-3.379696423289e-04 -3.147707957552e-03 0.0 
-3.147707957552e-03 2.662191701970e-03 0.0 
0.0 0.0 -9.747355338013e-04 
-1.758283285419e-03 6.606645787396e-04 0.0 
6.606645787396e-04 6.605527542412e-03 0.0 
0.0 0.0 -9.620958722924e-04 
2.572595780151e-04 1.907531255629e-03 0.0 
1.907531255629e-03 8.125007966372e-04 0.0 
0.0 0.0 -4.584687319938e-04 
7.215561543483e-04 7.088538436548e-05 0.0 
7.088538436548e-05 1.489224739350e-03 0.0 
0.0 0.0 -9.474775258707e-04 
1.699588376700e-03 -2.701395224992e-04 0.0 
-2.701395224992e-04 -6.431195081869e-04 0.0 
0.0 0.0 -4.527723722201e-04 
-1.123050040693e-03 2.722320328238e-03 0.0 
2.722320328238e-03 3.963607121214e-03 0.0 
0.0 0.0 -8.880452441696e-04 
-6.861996964777e-04 -2.718033399413e-03 0.0 
-2.718033399413e-03 3.467552900927e-03 0.0 
0.0 0.0 -1.027225276160e-03 
2.084513055480e-03 -2.969236307345e-03 0.0 
-2.969236307345e-03 -6.426223811324e-04 0.0 
0.0 0.0 -6.179531461491e-04 
-5.320903479306e-04 -2.451811030805e-03 0.0 
-2.451811030805e-03 3.446359028726e-03 0.0 
0.0 0.0 -1.064556537081e-03 
-5.475761825290e-04 -1.405154027486e-03 0.0 
-1.405154027486e-03 4.014926747039e-03 0.0 
0.0 0.0 -1.170878753521e-03 
8.694157167214e-04 5.959603823475e-04 0.0 
5.959603823475e-04 1.083517633446e-03 0.0 
0.0 0.0 -8.369714357860e-04 
-1.720938074938e-03 7.528205405103e-04 0.0 
7.528205405103e-04 7.239876321155e-03 0.0 
0.0 0.0 -1.064574987933e-03 
-2.581275539260e-04 2.774157829489e-03 0.0 
2.774157829489e-03 3.637568838645e-03 0.0 
0.0 0.0 -1.082686220397e-03 
-6.278749381159e-04 -1.931446236287e-03 0.0 
-1.931446236287e-03 4.088424354687e-03 0.0 
0.0 0.0 -1.168035910845e-03 
7.662032872175e-05 1.799978139758e-03 0.0 
1.799978139758e-03 1.016865245771e-03 0.0 
0.0 0.0 -4.686366747828e-04 
-1.772766923136e-03 8.481702159287e-04 0.0 
8.481702159287e-04 6.740907635403e-03 0.0 
0.0 0.0 -9.919185416031e-04 
-2.292199257427e-04 1.889849914101e-03 0.0 
1.889849914101e-03 3.718845686110e-03 0.0 
0.0 0.0 -1.173906618061e-03 
-1.648981142695e-03 1.259232254070e-03 0.0 
1.259232254070e-03 7.322595481216e-03 0.0 
0.0 0.0 -1.096489272820e-03 
1.160861635041e-03 6.400460397782e-04 0.0 
6.400460397782e-04 2.605650516831e-04 0.0 
0.0 0.0 -6.091828657388e-04 
2.574979574883e-03 -1.390903072999e-04 0.0 
-1.390903072999e-04 -1.282434716650e-03 0.0 
0.0 0.0 -5.539477963855e-04 
-1.116067155649e-03 -2.250326754200e-03 0.0 
-2.250326754200e-03 3.947993630682e-03 0.0 
0.0 0.0 -1.025516461270e-03 
1.249937303602e-03 3.552940721610e-04 0.0 
3.552940721610e-04 -1.039148958258e-03 0.0 
0.0 0.0 -9.033786229011e-05 
-1.613458135024e-03 1.210057674443e-03 0.0 
1.210057674443e-03 7.562124248112e-03 0.0 
0.0 0.0 -1.132911322290e-03 
-7.377235371559e-04 -9.591054036843e-04 0.0 
-9.591054036843e-04 2.612387194917e-03 0.0 
0.0 0.0 -8.013069569330e-04 
-1.500810255742e-04 1.675008285432e-03 0.0 
1.675008285432e-03 1.366929482546e-03 0.0 
0.0 0.0 -5.215064815592e-04 
-3.658200529699e-04 3.020199158602e-03 0.0 
3.020199158602e-03 3.713742958922e-03 0.0 
0.0 0.0 -1.054483161448e-03 
-1.538001914897e-03 1.084053552084e-03 0.0 
1.084053552084e-03 8.041309965801e-03 0.0 
0.0 0.0 -1.206783194404e-03 
1.727844094968e-03 -3.343181964838e-03 0.0 
-3.343181964838e-03 -2.401420928011e-04 0.0 
0.0 0.0 -6.375865723574e-04 
-2.167964077171e-04 3.747756050696e-03 0.0 
3.747756050696e-03 2.648111889763e-03 0.0 
0.0 0.0 -9.072936044704e-04 
-1.701887886532e-03 1.344630388867e-03 0.0 
1.344630388867e-03 6.812020791196e-03 0.0 
0.0 0.0 -1.023814440555e-03 
-4.458873681724e-04 -2.966430795108e-03 0.0 
-2.966430795108e-03 2.822625691825e-03 0.0 
0.0 0.0 -1.018602138708e-03 
2.635787731545e-03 -1.799593391660e-03 0.0 
-1.799593391660e-03 -1.225014149329e-03 0.0 
0.0 0.0 -6.046172495213e-04 
1.631098457746e-03 2.876803562451e-03 0.0 
2.876803562451e-03 -2.192512757881e-04 0.0 
0.0 0.0 -6.050773636963e-04 
9.159182720240e-04 -2.840057079041e-03 0.0 
-2.840057079041e-03 6.236111220924e-04 0.0 
0.0 0.0 -6.597983117642e-04 
1.988952410622e-03 -2.773207495313e-03 0.0 
-2.773207495313e-03 -3.142881963505e-04 0.0 
0.0 0.0 -7.177132346876e-04 
1.648220485470e-03 -3.321848158051e-03 0.0 
-3.321848158051e-03 2.024080431041e-04 0.0 
0.0 0.0 -7.931265122463e-04 
1.705098340266e-03 6.558868029328e-04 0.0 
6.558868029328e-04 -6.969008095806e-04 0.0 
0.0 0.0 -4.320846560080e-04 
-1.468520801646e-03 2.285525207987e-03 0.0 
2.285525207987e-03 8.442456052557e-03 0.0 
0.0 0.0 -1.324146187826e-03 
-3.956257745020e-04 1.730887625779e-03 0.0 
1.730887625779e-03 1.977050055323e-03 0.0 
0.0 0.0 -6.777532632091e-04 
-1.125863067977e-03 -1.827974217199e-03 0.0 
-1.827974217199e-03 4.964930907455e-03 0.0 
0.0 0.0 -1.153422328581e-03 
2.868285214674e-03 1.352379803766e-03 0.0 
1.352379803766e-03 -1.299848991907e-03 0.0 
0.0 0.0 -6.721869526143e-04 
-1.802402553613e-03 1.096854962503e-03 0.0 
1.096854962503e-03 6.595527473872e-03 0.0 
0.0 0.0 -9.856407671940e-04 
1.971085959338e-03 3.239399902758e-04 0.0 
3.239399902758e-04 -1.217941390756e-03 0.0 
0.0 0.0 -3.227762436777e-04 
-6.307118357170e-04 -1.642290149673e-03 0.0 
-1.642290149673e-03 4.191316448183e-03 0.0 
0.0 0.0 -1.206759618350e-03 
1.281188306004e-03 -3.309115169896e-03 0.0 
-3.309115169896e-03 2.482805933930e-04 0.0 
0.0 0.0 -6.554866711701e-04 
-8.580919722624e-04 -1.141606507875e-03 0.0 
-1.141606507875e-03 3.004910753851e-03 0.0 
0.0 0.0 -8.925927511852e-04 
6.775973206905e-04 1.090261256499e-03 0.0 
1.090261256499e-03 1.554850184539e-03 0.0 
0.0 0.0 -9.567632165269e-04 
9.810193940895e-04 -2.270636417532e-03 0.0 
-2.270636417532e-03 2.960510298287e-04 0.0 
0.0 0.0 -5.473158959649e-04 
3.899080625908e-05 1.591876067608e-03 0.0 
1.591876067608e-03 3.206945282166e-03 0.0 
0.0 0.0 -1.139062866688e-03 
6.623861865506e-04 3.094490503078e-03 0.0 
3.094490503078e-03 1.014638708619e-03 0.0 
0.0 0.0 -7.187249550728e-04 
-1.786253758345e-03 1.560633333520e-03 0.0 
1.560633333520e-03 6.766601134335e-03 0.0 
0.0 0.0 -1.044446328659e-03 
-2.152386475275e-04 1.351101504798e-03 0.0 
1.351101504798e-03 3.486323150058e-03 0.0 
0.0 0.0 -1.198892520503e-03 
-1.697142570711e-03 1.154161816812e-03 0.0 
1.154161816812e-03 6.693519511439e-03 0.0 
0.0 0.0 -9.940794652285e-04 
-1.618144651602e-03 2.389450829648e-03 0.0 
2.389450829648e-03 7.197343605865e-03 0.0 
0.0 0.0 -1.194784139986e-03 
-1.753520328123e-03 1.193661618907e-03 0.0 
1.193661618907e-03 7.230580119665e-03 0.0 
0.0 0.0 -1.087318097122e-03 
-1.742396685637e-03 1.406428765971e-03 0.0 
1.406428765971e-03 7.327343743658e-03 0.0 
0.0 0.0 -1.116677092124e-03 
2.275785242891e-03 2.632435729676e-03 0.0 
2.632435729676e-03 -9.199828087608e-04 0.0 
0.0 0.0 -5.810581860557e-04 
-1.241644556097e-03 -1.898381689041e-03 0.0 
-1.898381689041e-03 4.975895501890e-03 0.0 
0.0 0.0 -1.115908039155e-03 
-1.698919862003e-03 1.546534393052e-03 0.0 
1.546534393052e-03 6.917732160494e-03 0.0 
0.0 0.0 -1.053364550114e-03 
1.868987763194e-03 2.227953552638e-03 0.0 
2.227953552638e-03 -6.775743179747e-04 0.0 
0.0 0.0 -5.106057622367e-04 
-6.587012442941e-04 1.777273701504e-03 0.0 
1.777273701504e-03 2.655555522869e-03 0.0 
0.0 0.0 -8.209451439681e-04 
-3.975005523331e-04 1.166939029163e-03 0.0 
1.166939029163e-03 4.024011475053e-03 0.0 
0.0 0.0 -1.232292820449e-03 
2.869313435600e-03 1.110657499061e-03 0.0 
1.110657499061e-03 -1.453214644336e-03 0.0 
0.0 0.0 -6.068994819702e-04 
-7.856974671747e-04 -1.309919738143e-03 0.0 
-1.309919738143e-03 2.807619278170e-03 0.0 
0.0 0.0 -8.201145810434e-04 
1.968962910781e-04 1.862464300239e-03 0.0 
1.862464300239e-03 2.595514694035e-03 0.0 
0.0 0.0 -1.105063927110e-03 
-7.017846764740e-04 -1.435456886112e-05 0.0 
-1.435456886112e-05 1.960630528106e-03 0.0 
0.0 0.0 -3.231071520192e-04 
7.474966936510e-04 3.481240265895e-03 0.0 
3.481240265895e-03 1.138823329650e-03 0.0 
0.0 0.0 -8.084228671290e-04 
5.678040040528e-04 5.673257875062e-04 0.0 
5.673257875062e-04 1.874262662432e-03 0.0 
0.0 0.0 -1.046599999922e-03 
-1.677286885825e-03 1.562425953110e-03 0.0 
1.562425953110e-03 7.659770185164e-03 0.0 
0.0 0.0 -1.181155146799e-03 
-1.652320647354e-03 1.808826218554e-03 0.0 
1.808826218554e-03 7.744329424571e-03 0.0 
0.0 0.0 -1.210943746944e-03 
7.584470326040e-04 3.628423669224e-04 0.0 
3.628423669224e-04 1.668047544981e-03 0.0 
0.0 0.0 -1.028825005900e-03 
-1.718024774256e-03 1.129889074764e-03 0.0 
1.129889074764e-03 7.489751701523e-03 0.0 
0.0 0.0 -1.123737208958e-03 
2.593889195352e-03 1.856767809109e-03 0.0 
1.856767809109e-03 -1.126153271608e-03 0.0 
0.0 0.0 -6.290296816045e-04 
-7.519765885532e-04 3.109043581873e-03 0.0 
3.109043581873e-03 4.411738950076e-03 0.0 
0.0 0.0 -1.062452857821e-03 
-9.715076255527e-04 1.639125050494e-03 0.0 
1.639125050494e-03 3.248586274010e-03 0.0 
0.0 0.0 -7.769695025612e-04 
-1.390466882155e-03 3.112822277327e-03 0.0 
3.112822277327e-03 6.316045090648e-03 0.0 
0.0 0.0 -1.181751882508e-03 
-1.269001708520e-03 1.478688136927e-03 0.0 
1.478688136927e-03 3.854232216412e-03 0.0 
0.0 0.0 -7.538120163098e-04 
-1.420223830458e-03 1.391784125232e-03 0.0 
1.391784125232e-03 4.161040048690e-03 0.0 
0.0 0.0 -7.332406657775e-04 
2.298674918512e-03 1.220061250636e-03 0.0 
1.220061250636e-03 -1.173783310071e-03 0.0 
0.0 0.0 -4.820964036177e-04 
-1.557422700527e-03 1.363360327043e-03 0.0 
1.363360327043e-03 4.471575651466e-03 0.0 
0.0 0.0 -7.361032999402e-04 
6.913968744153e-04 3.249644441005e-03 0.0 
3.249644441005e-03 1.296623038176e-03 0.0 
0.0 0.0 -8.520085339679e-04 
1.718973007646e-03 2.924390266821e-03 0.0 
2.924390266821e-03 -1.924867080382e-04 0.0 
0.0 0.0 -6.542084141176e-04 
2.210348991445e-03 -8.088378780929e-04 0.0 
-8.088378780929e-04 -1.123482344713e-03 0.0 
0.0 0.0 -4.657999914567e-04 
2.497491272241e-03 -1.532773257142e-03 0.0 
-1.532773257142e-03 -1.081083643723e-03 0.0 
0.0 0.0 -6.070318407937e-04 
2.586887755130e-03 6.094796342036e-04 0.0 
6.094796342036e-04 -1.311719394663e-03 0.0 
0.0 0.0 -5.465007259145e-04 
-1.601167176657e-03 1.396089815657e-03 0.0 
1.396089815657e-03 7.688892179250e-03 0.0 
0.0 0.0 -1.162517914204e-03 
-1.471528092625e-03 3.001207936412e-03 0.0 
3.001207936412e-03 6.831752371077e-03 0.0 
0.0 0.0 -1.195263893373e-03 
-1.182311321110e-03 -2.133379308242e-03 0.0 
-2.133379308242e-03 4.544787139884e-03 0.0 
0.0 0.0 -1.050100468764e-03 
-1.223721568856e-04 1.745261046552e-03 0.0 
1.745261046552e-03 3.281782845900e-03 0.0 
0.0 0.0 -1.170266998156e-03 
1.214604030940e-03 -2.155562007462e-03 0.0 
-2.155562007462e-03 9.364629533619e-05 0.0 
0.0 0.0 -5.606787112612e-04 
-1.656719624483e-03 1.711448335042e-03 0.0 
1.711448335042e-03 7.275839845738e-03 0.0 
0.0 0.0 -1.119019617531e-03 
2.359890878457e-03 -4.267964440931e-05 0.0 
-4.267964440931e-05 -1.248439169515e-03 0.0 
0.0 0.0 -4.763364466896e-04 
-1.407406798469e-03 -1.723847992245e-03 0.0 
-1.723847992245e-03 5.419782439974e-03 0.0 
0.0 0.0 -1.144395376583e-03 
-1.671654625585e-03 1.497806515934e-03 0.0 
1.497806515934e-03 7.180003972529e-03 0.0 
0.0 0.0 -1.089631904438e-03 
-1.769810542863e-03 1.479525562214e-03 0.0 
1.479525562214e-03 7.051291447038e-03 0.0 
0.0 0.0 -1.080451501872e-03 
1.020279383885e-03 1.759819708792e-05 0.0 
1.759819708792e-05 6.806225927368e-04 0.0 
0.0 0.0 -7.289579899807e-04 
2.670406423032e-03 1.253518595181e-03 0.0 
1.253518595181e-03 -1.265788156022e-03 0.0 
0.0 0.0 -6.019792572900e-04 
-8.493845713370e-04 3.018177913519e-03 0.0 
3.018177913519e-03 4.847344094450e-03 0.0 
0.0 0.0 -1.126038590206e-03 
-1.241437732375e-03 3.272568664608e-03 0.0 
3.272568664608e-03 4.414773958175e-03 0.0 
0.0 0.0 -9.324202963083e-04 
2.392506853527e-03 -2.638222039722e-03 0.0 
-2.638222039722e-03 -9.888506330534e-04 0.0 
0.0 0.0 -6.015669516317e-04 
2.802892214258e-03 -1.137304662585e-05 0.0 
-1.137304662585e-05 -1.333498735436e-03 0.0 
0.0 0.0 -6.297400623524e-04 
7.949185057269e-04 2.716848624173e-03 0.0 
2.716848624173e-03 6.207904953631e-04 0.0 
0.0 0.0 -6.067324290386e-04 
-1.563287978713e-04 3.620132007229e-03 0.0 
3.620132007229e-03 2.581411168791e-03 0.0 
0.0 0.0 -1.015946800258e-03 
-1.534351365184e-03 -1.516799222336e-03 0.0 
-1.516799222336e-03 5.828494836448e-03 0.0 
0.0 0.0 -1.173545322487e-03 
-1.782237154873e-03 1.254534813549e-03 0.0 
1.254534813549e-03 6.967044995053e-03 0.0 
0.0 0.0 -1.051102540299e-03 
2.754613032243e-03 5.835371394657e-04 0.0 
5.835371394657e-04 -1.282545286099e-03 0.0 
0.0 0.0 -6.308861769187e-04 
-6.435068013720e-04 3.480233123954e-03 0.0 
3.480233123954e-03 3.600985193807e-03 0.0 
0.0 0.0 -9.344940742331e-04 
3.980809440766e-04 1.365381173478e-04 0.0 
1.365381173478e-04 2.266784517746e-03 0.0 
0.0 0.0 -1.088599101970e-03 
-1.685240832100e-03 8.774447861184e-04 0.0 
8.774447861184e-04 7.615424303421e-03 0.0 
0.0 0.0 -1.130578931274e-03 
-1.056611405718e-03 3.085021790290e-03 0.0 
3.085021790290e-03 5.374856941272e-03 0.0 
0.0 0.0 -1.160781586281e-03 
-1.731537587415e-03 1.425159992310e-03 0.0 
1.425159992310e-03 6.282505969900e-03 0.0 
0.0 0.0 -9.517943393003e-04 
-1.629224858150e-05 -1.008868814593e-03 0.0 
-1.008868814593e-03 2.976796140904e-03 0.0 
0.0 0.0 -1.113435711030e-03 
2.175710495241e-03 -1.797462906061e-04 0.0 
-1.797462906061e-04 -1.087187483949e-03 0.0 
0.0 0.0 -4.665098619825e-04 
3.691792219411e-04 -5.499254361333e-04 0.0 
-5.499254361333e-04 2.333255494325e-03 0.0 
0.0 0.0 -1.086118700983e-03 
6.267430188437e-04 3.216016004345e-03 0.0 
3.216016004345e-03 1.125673463038e-03 0.0 
0.0 0.0 -7.510356350921e-04 
-1.659468944553e-03 1.282087032836e-03 0.0 
1.282087032836e-03 7.843512833905e-03 0.0 
0.0 0.0 -1.188704642750e-03 
-1.184759635984e-03 3.039469531493e-03 0.0 
3.039469531493e-03 5.917915895918e-03 0.0 
0.0 0.0 -1.200489323427e-03 
1.397717749359e-03 -3.084135371350e-05 0.0 
-3.084135371350e-05 -2.483823730722e-04 0.0 
0.0 0.0 -4.925723041230e-04 
2.632145634489e-03 2.594608975648e-04 0.0 
2.594608975648e-04 -1.433557919304e-03 0.0 
0.0 0.0 -5.136804493649e-04 
-3.195071874589e-04 2.949770132737e-03 0.0 
2.949770132737e-03 3.519559910754e-03 0.0 
0.0 0.0 -1.113685640909e-03 
5.151939740245e-04 3.610223291188e-03 0.0 
3.610223291188e-03 1.499767463066e-03 0.0 
0.0 0.0 -8.635549016102e-04 
2.789061016644e-03 1.329285031073e-03 0.0 
1.329285031073e-03 -1.174648499198e-03 0.0 
0.0 0.0 -6.918910789057e-04 
1.203480951529e-03 -2.452700069764e-04 0.0 
-2.452700069764e-04 3.890277914199e-04 0.0 
0.0 0.0 -6.825037469782e-04 
-1.401752245562e-04 -2.049705526548e-03 0.0 
-2.049705526548e-03 2.929158581755e-03 0.0 
0.0 0.0 -1.072977024862e-03 
2.580288745065e-03 -9.059416529247e-04 0.0 
-9.059416529247e-04 -1.319309692526e-03 0.0 
0.0 0.0 -5.404195939453e-04 
1.923073746863e-03 -4.525221159698e-05 0.0 
-4.525221159698e-05 -9.232494801660e-04 0.0 
0.0 0.0 -4.284961142987e-04 
-1.564398244357e-03 2.691343570358e-03 0.0 
2.691343570358e-03 5.384100406286e-03 0.0 
0.0 0.0 -9.596127204057e-04 
-1.615413359891e-03 -1.869412921893e-03 0.0 
-1.869412921893e-03 5.891470981236e-03 0.0 
0.0 0.0 -1.170838755190e-03 
-1.469366754309e-03 2.906743993666e-03 0.0 
2.906743993666e-03 5.300260062947e-03 0.0 
0.0 0.0 -9.876491701490e-04 
-3.947067001148e-04 3.217756852044e-03 0.0 
3.217756852044e-03 3.568382132428e-03 0.0 
0.0 0.0 -1.085374163265e-03 
-1.640677092253e-03 2.445403796559e-03 0.0 
2.445403796559e-03 5.441088956569e-03 0.0 
0.0 0.0 -9.316602363005e-04 
-1.740388366318e-03 1.924888427331e-03 0.0 
1.924888427331e-03 5.465143202308e-03 0.0 
0.0 0.0 -8.756372412555e-04 
-1.133390563237e-03 3.456670762875e-03 0.0 
3.456670762875e-03 4.264491800942e-03 0.0 
0.0 0.0 -9.452931837154e-04 
1.258865816682e-04 1.427076262396e-03 0.0 
1.427076262396e-03 2.787339061218e-03 0.0 
0.0 0.0 -1.133505030480e-03 
-1.184151913809e-03 -2.442035502192e-03 0.0 
-2.442035502192e-03 4.566403913145e-03 0.0 
0.0 0.0 -1.084522140297e-03 
-1.719906891250e-03 1.595024504340e-03 0.0 
1.595024504340e-03 6.646342255881e-03 0.0 
0.0 0.0 -1.017300281410e-03 
-1.572744207127e-03 2.077724400643e-03 0.0 
2.077724400643e-03 7.699948884985e-03 0.0 
0.0 0.0 -1.212886757924e-03 
-1.697994519952e-03 2.183604815945e-03 0.0 
2.183604815945e-03 5.469670954577e-03 0.0 
0.0 0.0 -9.037302385344e-04 
3.109518991990e-03 7.142103845853e-04 0.0 
7.142103845853e-04 -1.355577660133e-03 0.0 
0.0 0.0 -7.516891422245e-04 
-4.615783183021e-04 2.634115171252e-03 0.0 
2.634115171252e-03 4.171995570701e-03 0.0 
0.0 0.0 -1.146733564437e-03 
-1.623397737588e-03 9.830618757014e-04 0.0 
9.830618757014e-04 7.977997106224e-03 0.0 
0.0 0.0 -1.196744929305e-03 
1.210285564886e-03 2.794819533997e-03 0.0 
2.794819533997e-03 2.142507881916e-04 0.0 
0.0 0.0 -6.105155798904e-04 
7.664634744893e-04 3.055447408668e-03 0.0 
3.055447408668e-03 8.799111198642e-04 0.0 
0.0 0.0 -7.055891118658e-04 
3.026285545234e-03 6.479754984524e-04 0.0 
6.479754984524e-04 -1.309294928286e-03 0.0 
0.0 0.0 -7.358531215491e-04 
-1.707025994169e-03 1.825045050910e-03 0.0 
1.825045050910e-03 6.718430060264e-03 0.0 
0.0 0.0 -1.046609947212e-03 
1.285120213061e-04 3.160317099540e-03 0.0 
3.160317099540e-03 1.795393702842e-03 0.0 
0.0 0.0 -8.245310246350e-04 
6.213466678406e-04 3.150191375349e-03 0.0 
3.150191375349e-03 1.093887972575e-03 0.0 
0.0 0.0 -7.351005601782e-04 
1.723951590445e-04 3.402388421843e-03 0.0 
3.402388421843e-03 1.876640106691e-03 0.0 
0.0 0.0 -8.781579710297e-04 
4.568820957443e-04 1.515113560259e-03 0.0 
1.515113560259e-03 2.072520192967e-03 0.0 
0.0 0.0 -1.068254633495e-03 
-7.126619732765e-04 2.634214240334e-03 0.0 
2.634214240334e-03 4.664743447894e-03 0.0 
0.0 0.0 -1.211228670573e-03 
2.874495408011e-03 -1.147543994212e-04 0.0 
-1.147543994212e-04 -1.321663854737e-03 0.0 
0.0 0.0 -6.654992371173e-04 
1.333222057608e-03 -6.083160362555e-04 0.0 
-6.083160362555e-04 -1.046303648964e-03 0.0 
0.0 0.0 -1.229650322759e-04 
-1.560287505520e-03 2.397443585750e-03 0.0 
2.397443585750e-03 7.445606798374e-03 0.0 
0.0 0.0 -1.207184308065e-03 
-1.227743039735e-04 3.216961996269e-03 0.0 
3.216961996269e-03 2.287126095753e-03 0.0 
0.0 0.0 -9.275793393341e-04 
1.407399929741e-03 -1.790726840241e-03 0.0 
-1.790726840241e-03 -2.123508212015e-04 0.0 
0.0 0.0 -5.121639036598e-04 
-5.005943122338e-04 2.854917982027e-03 0.0 
2.854917982027e-03 4.092431792890e-03 0.0 
0.0 0.0 -1.177925372349e-03 
-1.802105864534e-03 1.325377431051e-03 0.0 
1.325377431051e-03 6.693893706785e-03 0.0 
0.0 0.0 -1.015069748350e-03 
-9.552400268193e-04 -2.590206578427e-03 0.0 
-2.590206578427e-03 4.033946220946e-03 0.0 
0.0 0.0 -1.055879354346e-03 
2.213755167184e-03 2.540569608467e-03 0.0 
2.540569608467e-03 -6.561328527755e-04 0.0 
0.0 0.0 -6.675524204610e-04 
8.596589765025e-04 -2.241190996513e-04 0.0 
-2.241190996513e-04 -8.596589765025e-04 0.0 
0.0 0.0 0.0 
-1.695761363760e-03 -1.692827267884e-03 0.0 
-1.692827267884e-03 6.306533924159e-03 0.0 
0.0 0.0 -1.202131160132e-03 
-2.109701725842e-06 3.652134540712e-03 0.0 
3.652134540712e-03 2.337584034461e-03 0.0 
0.0 0.0 -1.000917571172e-03 
6.440987285096e-04 1.846403855810e-03 0.0 
1.846403855810e-03 1.851485320469e-03 0.0 
0.0 0.0 -1.007142642412e-03 
-8.363103258721e-04 3.298399834443e-03 0.0 
3.298399834443e-03 4.744308506763e-03 0.0 
0.0 0.0 -1.157822513452e-03 
0.0 0.0 0.0 
0.0 0.0 0.0 
0.0 0.0 0.0 
-7.671375815713e-04 -2.153381723597e-03 0.0 
-2.153381723597e-03 3.958636255064e-03 0.0 
0.0 0.0 -1.058763633038e-03 
2.277342632696e-03 2.678034488429e-03 0.0 
2.678034488429e-03 -4.950023667951e-04 0.0 
0.0 0.0 -7.638601139576e-04 
-1.817865112225e-03 1.160846124058e-03 0.0 
1.160846124058e-03 6.325027627169e-03 0.0 
0.0 0.0 -9.498437721210e-04 
-6.483445776371e-04 -2.910728448364e-03 0.0 
-2.910728448364e-03 3.240421631363e-03 0.0 
0.0 0.0 -1.081826897668e-03 
2.882336660409e-03 6.507094583248e-04 0.0 
6.507094583248e-04 -1.354897536976e-03 0.0 
0.0 0.0 -6.546167671857e-04 
-1.512905320875e-03 -2.064322058959e-03 0.0 
-2.064322058959e-03 5.485314435598e-03 0.0 
0.0 0.0 -1.141635569211e-03 
5.629634582603e-04 3.291314317230e-03 0.0 
3.291314317230e-03 1.247171813043e-03 0.0 
0.0 0.0 -7.757722591300e-04 
3.097498388755e-03 7.515594805802e-04 0.0 
7.515594805802e-04 -1.504351798864e-03 0.0 
0.0 0.0 -6.827771099535e-04 
-3.950988348044e-04 3.677355835862e-03 0.0 
3.677355835862e-03 3.018937195948e-03 0.0 
0.0 0.0 -8.989548790023e-04 
1.227636575782e-03 -1.512351808794e-03 0.0 
-1.512351808794e-03 -1.085715777594e-03 0.0 
0.0 0.0 -6.082319922330e-05 
-5.120566939223e-04 3.175912523353e-03 0.0 
3.175912523353e-03 3.844622698218e-03 0.0 
0.0 0.0 -1.026417656363e-03 
5.399418997976e-04 8.396772710701e-04 0.0 
8.396772710701e-04 2.161243029461e-03 0.0 
0.0 0.0 -1.065496432940e-03 
-1.316213487934e-03 3.030027547422e-03 0.0 
3.030027547422e-03 6.243260056489e-03 0.0 
0.0 0.0 -1.233600908384e-03 
-6.242951805065e-04 3.006743678072e-03 0.0 
3.006743678072e-03 4.303063931573e-03 0.0 
0.0 0.0 -1.090749533212e-03 
3.026627229701e-03 -6.016138979488e-05 0.0 
-6.016138979488e-05 -1.354975115356e-03 0.0 
0.0 0.0 -7.164223347191e-04 
-1.354858739815e-03 -2.484739121398e-03 0.0 
-2.484739121398e-03 4.613680447839e-03 0.0 
0.0 0.0 -1.047231727503e-03 
-1.514361396418e-03 1.521820591863e-03 0.0 
1.521820591863e-03 8.031763007479e-03 0.0 
0.0 0.0 -1.228155452712e-03 
-7.050516080877e-04 1.545847486976e-03 0.0 
1.545847486976e-03 4.498069063216e-03 0.0 
0.0 0.0 -1.267145247477e-03 
2.943450069451e-04 1.256402020470e-03 0.0 
1.256402020470e-03 2.679722888331e-03 0.0 
0.0 0.0 -1.102242875413e-03 
2.428652697383e-03 1.957638321578e-03 0.0 
1.957638321578e-03 -9.445444981417e-04 0.0 
0.0 0.0 -6.360463711034e-04 
-4.362885790870e-04 3.400866484877e-03 0.0 
3.400866484877e-03 3.416922100764e-03 0.0 
0.0 0.0 -9.624716764950e-04 
-1.751273191057e-03 -1.178364827428e-03 0.0 
-1.178364827428e-03 6.153449964232e-03 0.0 
0.0 0.0 -1.164316760544e-03 
-1.510592316959e-03 -9.050842607301e-04 0.0 
-9.050842607301e-04 4.622892738446e-03 0.0 
0.0 0.0 -1.053897668350e-03 
-5.098353463404e-04 3.384769362386e-03 0.0 
3.384769362386e-03 3.650364032255e-03 0.0 
0.0 0.0 -1.057196955382e-03 
-1.719373888211e-03 1.382981273232e-03 0.0 
1.382981273232e-03 6.550039956498e-03 0.0 
0.0 0.0 -9.877098122506e-04 
-1.368682583039e-03 -2.262414624365e-03 0.0 
-2.262414624365e-03 5.045630347078e-03 0.0 
0.0 0.0 -1.112977059762e-03 
-8.018931633473e-04 -2.405053121667e-03 0.0 
-2.405053121667e-03 4.002834443873e-03 0.0 
0.0 0.0 -1.093234982489e-03 
-1.439791436846e-03 3.326807682738e-05 0.0 
3.326807682738e-05 4.943594407769e-03 0.0 
0.0 0.0 -7.313513689239e-04 
-1.427152505588e-03 6.033982237060e-05 0.0 
6.033982237060e-05 4.941916582327e-03 0.0 
0.0 0.0 -7.310574395863e-04 
-1.640756721107e-03 2.340459270020e-03 0.0 
2.340459270020e-03 5.815255979654e-03 0.0 
0.0 0.0 -9.927888931628e-04 
-4.210846566685e-04 3.601854565047e-03 0.0 
3.601854565047e-03 3.185506434217e-03 0.0 
0.0 0.0 -9.930598132463e-04 
-9.560102716365e-04 -2.664544190492e-03 0.0 
-2.664544190492e-03 3.772312719303e-03 0.0 
0.0 0.0 -1.075560717398e-03 
-1.206510850392e-03 3.047967158976e-03 0.0 
3.047967158976e-03 4.800933324251e-03 0.0 
0.0 0.0 -9.775429604617e-04 
9.349897265997e-04 2.908831422528e-03 0.0 
2.908831422528e-03 6.057047016785e-04 0.0 
0.0 0.0 -6.602976121192e-04 
-2.228664070200e-04 -2.583623366081e-04 0.0 
-2.583623366081e-04 3.335250712245e-03 0.0 
0.0 0.0 -1.180288150054e-03 
2.187201504106e-03 2.288354873068e-03 0.0 
2.288354873068e-03 -8.791309691096e-04 0.0 
0.0 0.0 -5.606016578557e-04 
-1.487430872272e-03 2.032395386043e-03 0.0 
2.032395386043e-03 8.531052034659e-03 0.0 
0.0 0.0 -1.323793839065e-03 
-1.724651487443e-03 1.733577269253e-03 0.0 
1.733577269253e-03 5.152685708698e-03 0.0 
0.0 0.0 -8.119939454945e-04 
9.559001502051e-04 3.301449321883e-03 0.0 
3.301449321883e-03 8.023167039533e-04 0.0 
0.0 0.0 -7.535215089250e-04 
-6.923989162598e-04 -2.921867110632e-03 0.0 
-2.921867110632e-03 3.238107663680e-03 0.0 
0.0 0.0 -9.778014170609e-04 
2.952487269304e-03 8.767188776773e-04 0.0 
8.767188776773e-04 -1.231732878316e-03 0.0 
0.0 0.0 -7.374661675664e-04 
-1.449260709310e-04 -3.081657457247e-03 0.0 
-3.081657457247e-03 2.244720614764e-03 0.0 
0.0 0.0 -8.999119473571e-04 
-2.467797576170e-04 3.715212164584e-03 0.0 
3.715212164584e-03 2.738719973416e-03 0.0 
0.0 0.0 -9.758126512751e-04 
-5.058945486498e-04 3.618733188483e-03 0.0 
3.618733188483e-03 3.154888480052e-03 0.0 
0.0 0.0 -9.833357802921e-04 
-1.733759676165e-03 1.654794489536e-03 0.0 
1.654794489536e-03 6.367451579884e-03 0.0 
0.0 0.0 -9.814596669550e-04 
-1.124005872780e-03 3.379084100680e-03 0.0 
3.379084100680e-03 4.616783585522e-03 0.0 
0.0 0.0 -1.008022096355e-03 
-1.207720735867e-03 2.984451381318e-03 0.0 
2.984451381318e-03 5.147076662744e-03 0.0 
0.0 0.0 -1.040850218070e-03 
2.462504755941e-04 -3.466601191775e-04 0.0 
-3.466601191775e-04 1.225957598323e-03 0.0 
0.0 0.0 -3.048810613884e-04 
-2.528363505661e-04 -3.115888982409e-03 0.0 
-3.115888982409e-03 2.486992936593e-03 0.0 
0.0 0.0 -9.574956797260e-04 
-1.072167557266e-04 3.402438706717e-03 0.0 
3.402438706717e-03 2.375040834749e-03 0.0 
0.0 0.0 -9.719246052952e-04 
-1.390405142798e-03 3.085939311603e-03 0.0 
3.085939311603e-03 4.874750960273e-03 0.0 
0.0 0.0 -9.521954671713e-04 
-1.463685875107e-03 2.723658434378e-03 0.0 
2.723658434378e-03 5.354618705334e-03 0.0 
0.0 0.0 -9.850634846466e-04 
6.151608619478e-06 9.602693822456e-04 0.0 
9.602693822456e-04 3.003172333009e-03 0.0 
0.0 0.0 -1.160108757481e-03 
-7.116028528234e-04 -3.542186094007e-05 0.0 
-3.542186094007e-05 2.109496799795e-03 0.0 
0.0 0.0 -4.489418961951e-04 
2.420991236615e-03 -1.793290854156e-03 0.0 
-1.793290854156e-03 -1.206914640352e-03 0.0 
0.0 0.0 -5.203185412556e-04 
3.220195077698e-04 3.501557464345e-03 0.0 
3.501557464345e-03 1.705209014718e-03 0.0 
0.0 0.0 -8.688122239235e-04 
-2.823129498517e-04 -2.964277233818e-03 0.0 
-2.964277233818e-03 2.454860756862e-03 0.0 
0.0 0.0 -9.310919172903e-04 
-1.415275034250e-03 1.292164494452e-03 0.0 
1.292164494452e-03 4.167269738145e-03 0.0 
0.0 0.0 -7.665650418521e-04 
-1.567864091306e-03 1.226683465556e-03 0.0 
1.226683465556e-03 4.493286725470e-03 0.0 
0.0 0.0 -7.530137074853e-04 
-1.810136366687e-03 1.412997826384e-03 0.0 
1.412997826384e-03 6.411444835685e-03 0.0 
0.0 0.0 -9.793492904611e-04 
2.087664328359e-03 2.568536785539e-03 0.0 
2.568536785539e-03 -3.889452908062e-04 0.0 
0.0 0.0 -7.280224446656e-04 
-7.741376345699e-04 -2.792621548151e-03 0.0 
-2.792621548151e-03 3.378364177398e-03 0.0 
0.0 0.0 -1.004244986112e-03 
4.531124457367e-04 -1.076750210340e-03 0.0 
-1.076750210340e-03 2.037967656610e-03 0.0 
0.0 0.0 -1.049209916622e-03 
2.297209205504e-03 -5.483206442365e-04 0.0 
-5.483206442365e-04 -1.311033635610e-03 0.0 
0.0 0.0 -4.226466728115e-04 
-1.149618319309e-03 2.959992214286e-03 0.0 
2.959992214286e-03 5.456359281312e-03 0.0 
0.0 0.0 -1.285586381397e-03 
-1.702357103576e-03 1.352649744862e-03 0.0 
1.352649744862e-03 7.576949821791e-03 0.0 
0.0 0.0 -1.152455342817e-03 
-8.320143767109e-04 -2.543685297260e-03 0.0 
-2.543685297260e-03 3.497707295059e-03 0.0 
0.0 0.0 -1.095064427584e-03 
-1.386779618523e-03 -1.910481505052e-03 0.0 
-1.910481505052e-03 5.018049845752e-03 0.0 
0.0 0.0 -1.078722419643e-03 
2.229975894309e-04 -4.489617714331e-04 0.0 
-4.489617714331e-04 5.979694486616e-04 0.0 
0.0 0.0 -2.949115613585e-04 
4.540170595140e-04 -1.645489130381e-03 0.0 
-1.645489130381e-03 1.801582255490e-03 0.0 
0.0 0.0 -9.666854207159e-04 
-6.035540888641e-05 3.789347029411e-03 0.0 
3.789347029411e-03 2.399475313532e-03 0.0 
0.0 0.0 -8.867106850074e-04 
4.160484422948e-04 -3.622442174599e-04 0.0 
-3.622442174599e-04 5.441875866839e-04 0.0 
0.0 0.0 -3.067690066256e-04 
-1.619412582140e-03 1.641534764462e-03 0.0 
1.641534764462e-03 7.530266774085e-03 0.0 
0.0 0.0 -1.154859126927e-03 
1.948099663815e-03 -7.569421743857e-04 0.0 
-7.569421743857e-04 -1.147440738389e-03 0.0 
0.0 0.0 -3.431395394681e-04 
-1.356737557429e-03 2.911706860265e-03 0.0 
2.911706860265e-03 4.923580709307e-03 0.0 
0.0 0.0 -9.496453321265e-04 
-5.843331771905e-04 3.664260117298e-03 0.0 
3.664260117298e-03 3.237703376181e-03 0.0 
0.0 0.0 -8.924259012440e-04 
1.585702125321e-03 -1.745985882028e-03 0.0 
-1.745985882028e-03 -4.551642142342e-04 0.0 
0.0 0.0 -4.845162476087e-04 
3.886198775371e-04 -2.656776709997e-03 0.0 
-2.656776709997e-03 1.521016158266e-03 0.0 
0.0 0.0 -8.184154439158e-04 
-1.604458387616e-03 1.854152015569e-03 0.0 
1.854152015569e-03 7.626319442818e-03 0.0 
0.0 0.0 -1.182898372388e-03 
1.911502030331e-04 -2.214449408558e-03 0.0 
-2.214449408558e-03 2.167051973238e-03 0.0 
0.0 0.0 -9.716005391690e-04 
4.578213256305e-04 3.411459955915e-03 0.0 
3.411459955915e-03 1.456160682634e-03 0.0 
0.0 0.0 -8.202780035418e-04 
3.627077773465e-04 3.714478666179e-03 0.0 
3.714478666179e-03 1.773296424289e-03 0.0 
0.0 0.0 -9.111404029742e-04 
1.874131474266e-04 1.317598379107e-03 0.0 
1.317598379107e-03 5.481764939296e-04 0.0 
0.0 0.0 -3.152527034384e-04 
1.643748758810e-03 -4.204231761426e-04 0.0 
-4.204231761426e-04 -1.117599327178e-03 0.0 
0.0 0.0 -2.254926135565e-04 
-5.203694144565e-04 2.878386602619e-03 0.0 
2.878386602619e-03 4.197902991695e-03 0.0 
0.0 0.0 -1.118331045454e-03 
-1.809983628728e-03 1.593568509076e-03 0.0 
1.593568509076e-03 5.817131701425e-03 0.0 
0.0 0.0 -9.085367473448e-04 
-5.577334774044e-04 3.082426156906e-03 0.0 
3.082426156906e-03 4.104685153811e-03 0.0 
0.0 0.0 -1.148691026115e-03 
1.974680470733e-03 2.873021825660e-03 0.0 
2.873021825660e-03 -4.940617528099e-04 0.0 
0.0 0.0 -6.345508791099e-04 
-1.588961869452e-03 2.584393938582e-03 0.0 
2.584393938582e-03 6.455891274831e-03 0.0 
0.0 0.0 -1.097950598811e-03 
-7.723714131083e-04 2.927319470345e-03 0.0 
2.927319470345e-03 4.791549148204e-03 0.0 
0.0 0.0 -1.155407764312e-03 
-1.528620740983e-03 1.641090201076e-03 0.0 
1.641090201076e-03 4.483124494598e-03 0.0 
0.0 0.0 -7.696970057192e-04 
-6.364037100851e-04 3.205127351833e-03 0.0 
3.205127351833e-03 4.133031580390e-03 0.0 
0.0 0.0 -1.120992621467e-03 
-1.531289715330e-03 -2.235814658200e-03 0.0 
-2.235814658200e-03 5.083560864057e-03 0.0 
0.0 0.0 -1.075946734593e-03 
-1.542078502361e-04 3.681831680089e-03 0.0 
3.681831680089e-03 2.560354402538e-03 0.0 
0.0 0.0 -9.606735922745e-04 
-4.462082875552e-04 -3.056851139717e-03 0.0 
-3.056851139717e-03 2.847631123845e-03 0.0 
0.0 0.0 -1.006543408955e-03 
-3.390473984761e-04 -3.081268501996e-03 0.0 
-3.081268501996e-03 2.650937052075e-03 0.0 
0.0 0.0 -9.908098515424e-04 
-1.654766843293e-03 2.110154288789e-03 0.0 
2.110154288789e-03 7.526175185133e-03 0.0 
0.0 0.0 -1.204704583718e-03 
6.478121330843e-04 -2.891464683005e-03 0.0 
-2.891464683005e-03 9.158033438757e-04 0.0 
0.0 0.0 -6.701209186971e-04 
-3.674328541615e-04 3.694790859021e-03 0.0 
3.694790859021e-03 2.941360548218e-03 0.0 
0.0 0.0 -9.833476869619e-04 
1.512914527637e-03 2.270095044354e-03 0.0 
2.270095044354e-03 -2.495167818894e-04 0.0 
0.0 0.0 -5.414561767490e-04 
-4.689248235341e-05 -1.859495784931e-03 0.0 
-1.859495784931e-03 2.784842397476e-03 0.0 
0.0 0.0 -1.038364586984e-03 
1.508518420493e-03 2.943740230317e-03 0.0 
2.943740230317e-03 4.760392635737e-05 0.0 
0.0 0.0 -6.669095772216e-04 
3.102345530720e-03 7.378269526544e-05 0.0 
7.378269526544e-05 -1.464469892876e-03 0.0 
0.0 0.0 -7.019467019332e-04 
1.507578771505e-03 -7.604032194635e-04 0.0 
-7.604032194635e-04 -4.928220476776e-04 0.0 
0.0 0.0 -4.348957387830e-04 
3.148975456484e-03 8.306636056168e-04 0.0 
8.306636056168e-04 -1.496370463473e-03 0.0 
0.0 0.0 -7.082592827190e-04 
-1.261991141926e-03 3.267444165813e-03 0.0 
3.267444165813e-03 4.752384958846e-03 0.0 
0.0 0.0 -9.799122972177e-04 
3.123536661893e-03 -9.721135346994e-05 0.0 
-9.721135346994e-05 -1.405927083563e-03 0.0 
0.0 0.0 -7.361183907127e-04 
-1.047249439091e-03 3.250277679615e-03 0.0 
3.250277679615e-03 4.315763371752e-03 0.0 
0.0 0.0 -9.420580210740e-04 
1.883489007768e-04 8.010579783403e-04 0.0 
8.010579783403e-04 2.876523535355e-03 0.0 
0.0 0.0 -1.130549445556e-03 
3.588863471818e-04 1.014874640691e-03 0.0 
1.014874640691e-03 2.306525440664e-03 0.0 
0.0 0.0 -1.096529089934e-03 
1.700464822711e-03 2.598856322658e-03 0.0 
2.598856322658e-03 -4.407098144151e-04 0.0 
0.0 0.0 -5.398950035552e-04 
-1.732708782740e-03 1.731245879395e-03 0.0 
1.731245879395e-03 6.071080868846e-03 0.0 
0.0 0.0 -9.460253849645e-04 
-1.548270655095e-03 -1.671057713006e-03 0.0 
-1.671057713006e-03 5.446327602559e-03 0.0 
0.0 0.0 -1.107441567342e-03 
-1.667313564664e-03 -1.981097125204e-03 0.0 
-1.981097125204e-03 5.509726630970e-03 0.0 
0.0 0.0 -1.104747680386e-03 
1.318532451431e-03 2.199681040646e-03 0.0 
2.199681040646e-03 -1.454539841179e-04 0.0 
0.0 0.0 -5.027479145627e-04 
-9.715008187727e-04 3.547635970715e-03 0.0 
3.547635970715e-03 4.097719530490e-03 0.0 
0.0 0.0 -9.724793438395e-04 
-1.624312607657e-03 -1.275879739373e-03 0.0 
-1.275879739373e-03 6.206545711786e-03 0.0 
0.0 0.0 -1.205818386895e-03 
-2.985133365854e-04 2.525233875689e-03 0.0 
2.525233875689e-03 2.218258876373e-03 0.0 
0.0 0.0 -8.227480884806e-04 
-1.021411894397e-03 -2.472960565398e-03 0.0 
-2.472960565398e-03 3.861949643739e-03 0.0 
0.0 0.0 -1.085013296808e-03 
1.242793848756e-04 1.186515148645e-03 0.0 
1.186515148645e-03 5.554989300674e-04 0.0 
0.0 0.0 -2.913335635470e-04 
-1.667346094177e-03 -1.424810251550e-03 0.0 
-1.424810251550e-03 5.825346578498e-03 0.0 
0.0 0.0 -1.136235114959e-03 
3.019668846566e-03 9.582089678435e-04 0.0 
9.582089678435e-04 -1.448201355488e-03 0.0 
0.0 0.0 -6.734860676048e-04 
-1.578302787965e-03 -5.539699262797e-04 0.0 
-5.539699262797e-04 4.756261434844e-03 0.0 
0.0 0.0 -1.057437106069e-03 
4.911868189057e-04 2.542757255714e-03 0.0 
2.542757255714e-03 1.777357060087e-03 0.0 
0.0 0.0 -9.722330909969e-04 
-1.811529723315e-03 1.498050121893e-03 0.0 
1.498050121893e-03 6.116522056800e-03 0.0 
0.0 0.0 -9.438854677472e-04 
-1.729248363348e-03 1.804686593249e-03 0.0 
1.804686593249e-03 5.771244996451e-03 0.0 
0.0 0.0 -9.108073647307e-04 
1.218753398279e-04 3.628872757319e-03 0.0 
3.628872757319e-03 2.104833384723e-03 0.0 
0.0 0.0 -9.543037390934e-04 
-1.106695794268e-03 1.517581520969e-03 0.0 
1.517581520969e-03 3.539684992285e-03 0.0 
0.0 0.0 -7.963586959451e-04 
-1.268797780777e-03 1.437345509075e-03 0.0 
1.437345509075e-03 3.867869279896e-03 0.0 
0.0 0.0 -7.758011671882e-04 
-1.764900971931e-03 -1.718354051601e-03 0.0 
-1.718354051601e-03 5.889801463908e-03 0.0 
0.0 0.0 -1.133400347077e-03 
2.569249843707e-04 -2.786570784076e-03 0.0 
-2.786570784076e-03 1.556740733674e-03 0.0 
0.0 0.0 -7.772853077335e-04 
1.174175751745e-03 -1.803885435246e-03 0.0 
-1.803885435246e-03 -1.174563587325e-05 0.0 
0.0 0.0 -4.981843353734e-04 
5.912929398665e-04 -9.060768193030e-04 0.0 
-9.060768193030e-04 1.727113514221e-03 0.0 
0.0 0.0 -9.936027660373e-04 
2.016096735556e-03 -6.850330429382e-04 0.0 
-6.850330429382e-04 -9.758089702167e-04 0.0 
0.0 0.0 -4.458376137168e-04 
3.081197548797e-03 7.466969370712e-04 0.0 
7.466969370712e-04 -1.300129295292e-03 0.0 
0.0 0.0 -7.633149657881e-04 
-1.128831614242e-03 1.542551351037e-03 0.0 
1.542551351037e-03 3.551129300523e-03 0.0 
0.0 0.0 -7.520787537531e-04 
-1.821423928511e-03 1.474632635918e-03 0.0 
1.474632635918e-03 5.487726439764e-03 0.0 
0.0 0.0 -8.442294783838e-04 
-1.409406014707e-03 4.528826506854e-05 0.0 
4.528826506854e-05 5.214877225355e-03 0.0 
0.0 0.0 -7.121995050294e-04 
4.077287179479e-04 3.674953038794e-04 0.0 
3.674953038794e-04 2.393170375530e-03 0.0 
0.0 0.0 -1.093598669875e-03 
1.997342351340e-03 2.504018622736e-03 0.0 
2.504018622736e-03 -5.807467309884e-04 0.0 
0.0 0.0 -6.071124087219e-04 
-4.482284720357e-04 1.652414080391e-03 0.0 
1.652414080391e-03 3.958656300163e-03 0.0 
0.0 0.0 -1.233571955743e-03 
-2.022662331208e-03 -4.627058437959e-04 0.0 
-4.627058437959e-04 6.332672682848e-03 0.0 
0.0 0.0 -1.121177773779e-03 
1.798099945912e-03 -8.661440026173e-04 0.0 
-8.661440026173e-04 -7.288088564904e-04 0.0 
0.0 0.0 -4.582676097521e-04 
-1.524985310237e-03 -1.822620195545e-03 0.0 
-1.822620195545e-03 6.245562815238e-03 0.0 
0.0 0.0 -1.241472629463e-03 
3.003131752772e-03 -8.623198735716e-04 0.0 
-8.623198735716e-04 -1.396381984480e-03 0.0 
0.0 0.0 -6.886070435535e-04 
-3.779034990216e-04 2.052169755275e-03 0.0 
2.052169755275e-03 3.788846745744e-03 0.0 
0.0 0.0 -1.204482468497e-03 
1.415534273829e-04 3.636591431357e-03 0.0 
3.636591431357e-03 2.169944347150e-03 0.0 
0.0 0.0 -8.910665706739e-04 
8.940143763454e-06 3.422262264522e-03 0.0 
3.422262264522e-03 2.416052284656e-03 0.0 
0.0 0.0 -9.848034212814e-04 
-1.370477965762e-04 -1.170123439274e-03 0.0 
-1.170123439274e-03 3.214973093205e-03 0.0 
0.0 0.0 -1.146785027167e-03 
3.884013163081e-04 -2.855323367017e-03 0.0 
-2.855323367017e-03 1.211719834243e-03 0.0 
0.0 0.0 -6.857662073788e-04 
-7.129927410741e-04 3.670079492291e-03 0.0 
3.670079492291e-03 3.538541594785e-03 0.0 
0.0 0.0 -9.649174008510e-04 
1.717035050200e-03 -1.344860437860e-03 0.0 
-1.344860437860e-03 -6.217055712217e-04 0.0 
0.0 0.0 -4.694269195620e-04 
-8.587679122771e-04 3.481313587749e-03 0.0 
3.481313587749e-03 3.794469535060e-03 0.0 
0.0 0.0 -9.065670216064e-04 
1.889810402813e-03 2.899509189946e-03 0.0 
2.899509189946e-03 -2.152817456685e-04 0.0 
0.0 0.0 -7.176551387762e-04 
1.428912843794e-04 3.126816861625e-03 0.0 
3.126816861625e-03 2.356543378173e-03 0.0 
0.0 0.0 -1.013229387512e-03 
1.943775632291e-03 -1.286497408609e-03 0.0 
-1.286497408609e-03 -8.334086717492e-04 0.0 
0.0 0.0 -4.758715545177e-04 
-1.000337791729e-03 -2.628959420428e-03 0.0 
-2.628959420428e-03 3.773462867951e-03 0.0 
0.0 0.0 -9.886579807222e-04 
-8.325357311160e-04 3.547635505547e-03 0.0 
3.547635505547e-03 3.716995785029e-03 0.0 
0.0 0.0 -9.612835620876e-04 
2.687167972919e-04 1.795311194676e-03 0.0 
1.795311194676e-03 1.563575924244e-04 0.0 
0.0 0.0 -1.821747384498e-04 
1.057813883420e-03 2.534506278338e-03 0.0 
2.534506278338e-03 3.175156107454e-04 0.0 
0.0 0.0 -5.894269260710e-04 
4.651919044669e-04 1.924261843739e-03 0.0 
1.924261843739e-03 5.725607713308e-04 0.0 
0.0 0.0 -4.447511467704e-04 
-3.371303889653e-04 -7.500919376923e-04 0.0 
-7.500919376923e-04 1.299829984783e-03 0.0 
0.0 0.0 -4.040777003935e-04 
-1.056371726126e-03 -2.468497531733e-03 0.0 
-2.468497531733e-03 3.865104933196e-03 0.0 
0.0 0.0 -1.010653628765e-03 
-9.607789536056e-04 3.048565223821e-03 0.0 
3.048565223821e-03 4.940644900743e-03 0.0 
0.0 0.0 -1.098354823938e-03 
-1.707850550320e-03 2.055402839425e-03 0.0 
2.055402839425e-03 5.786469608898e-03 0.0 
0.0 0.0 -9.387552692591e-04 
-7.756723233026e-04 1.730094175383e-03 0.0 
1.730094175383e-03 2.916527936956e-03 0.0 
0.0 0.0 -8.497951325312e-04 
-1.342322198460e-03 2.098270725376e-03 0.0 
2.098270725376e-03 8.248661573518e-03 0.0 
0.0 0.0 -1.342322198460e-03 
-1.570557044709e-04 1.903178167491e-03 0.0 
1.903178167491e-03 2.372779598127e-04 0.0 
0.0 0.0 -3.438096657507e-05 
-9.510393810217e-04 1.672687846132e-03 0.0 
1.672687846132e-03 3.246503304730e-03 0.0 
0.0 0.0 -8.134098498104e-04 
1.098475143763e-03 -2.031876221816e-03 0.0 
-2.031876221816e-03 1.166483383452e-04 0.0 
0.0 0.0 -5.207672066180e-04 
-1.089976521784e-03 -2.234801732660e-03 0.0 
-2.234801732660e-03 3.943897982090e-03 0.0 
0.0 0.0 -1.084767721667e-03 
-1.111038172895e-03 2.200189741588e-03 0.0 
2.200189741588e-03 3.768833115442e-03 0.0 
0.0 0.0 -8.610308207870e-04 
2.262464148868e-03 -1.945012542063e-03 0.0 
-1.945012542063e-03 -8.191237484730e-04 0.0 
0.0 0.0 -6.185744573122e-04 
5.761048584873e-04 -2.775225325336e-03 0.0 
-2.775225325336e-03 9.303736926874e-04 0.0 
0.0 0.0 -6.456336647891e-04 
-1.625181255020e-04 3.528619970826e-03 0.0 
3.528619970826e-03 2.809301514261e-03 0.0 
0.0 0.0 -9.266779469803e-04 
7.488835648315e-04 2.251240740231e-03 0.0 
2.251240740231e-03 1.162555029076e-03 0.0 
0.0 0.0 -8.191879688175e-04 
-1.329752805185e-03 3.181517598016e-03 0.0 
3.181517598016e-03 5.907007101231e-03 0.0 
0.0 0.0 -1.144302277022e-03 
1.946489244002e-03 2.821542424935e-03 0.0 
2.821542424935e-03 -8.035545710095e-04 0.0 
0.0 0.0 -4.898291455683e-04 
-8.586335344055e-04 -2.592060326530e-03 0.0 
-2.592060326530e-03 3.501562453949e-03 0.0 
0.0 0.0 -1.023226067289e-03 
-1.335563518602e-03 -1.880041070522e-03 0.0 
-1.880041070522e-03 4.351195601973e-03 0.0 
0.0 0.0 -1.033071644556e-03 
-2.022124363339e-05 -2.395587679301e-03 0.0 
-2.395587679301e-03 1.567846091858e-03 0.0 
0.0 0.0 -6.632677920962e-04 
-1.674900766220e-03 1.599025443535e-03 0.0 
1.599025443535e-03 4.804084785627e-03 0.0 
0.0 0.0 -7.663799295492e-04 
-1.769874274313e-03 1.858383186956e-03 0.0 
1.858383186956e-03 5.835930784600e-03 0.0 
0.0 0.0 -9.362314798257e-04 
-2.069835677089e-03 -4.002455476683e-04 0.0 
-4.002455476683e-04 5.909495734486e-03 0.0 
0.0 0.0 -1.073191215027e-03 
1.059197299257e-03 -5.440939611188e-04 0.0 
-5.440939611188e-04 5.670737881280e-04 0.0 
0.0 0.0 -3.365581251930e-04 
0.0 0.0 0.0 
0.0 0.0 0.0 
0.0 0.0 0.0 
-4.602170046064e-05 -1.936536183988e-03 0.0 
-1.936536183988e-03 1.323038368316e-03 0.0 
0.0 0.0 -5.472928576524e-04 
-1.313750205869e-03 -1.893362186714e-03 0.0 
-1.893362186714e-03 4.351424993746e-03 0.0 
0.0 0.0 -1.080662880999e-03 
2.816321063082e-03 -8.334388727588e-04 0.0 
-8.334388727588e-04 -1.272649618703e-03 0.0 
0.0 0.0 -6.615734761625e-04 
2.373065583622e-03 -2.080956134851e-03 0.0 
-2.080956134851e-03 -1.010649277428e-03 0.0 
0.0 0.0 -5.838927026542e-04 
2.954183213689e-03 -8.930251278497e-04 0.0 
-8.930251278497e-04 -1.356411275311e-03 0.0 
0.0 0.0 -6.847594021618e-04 
-1.301232695251e-03 -2.116378151629e-03 0.0 
-2.116378151629e-03 4.314126103213e-03 0.0 
0.0 0.0 -1.020860678390e-03 
-1.603005468093e-03 2.550878726920e-03 0.0 
2.550878726920e-03 5.754736739264e-03 0.0 
0.0 0.0 -9.956198530692e-04 
-1.518941795168e-03 -1.499106977263e-03 0.0 
-1.499106977263e-03 4.706029179031e-03 0.0 
0.0 0.0 -1.043188517862e-03 
2.974270505683e-03 -1.234815007946e-05 0.0 
-1.234815007946e-05 -1.384428534307e-03 0.0 
0.0 0.0 -6.813608448753e-04 
-8.631645989931e-04 3.291242542591e-03 0.0 
3.291242542591e-03 4.149472146392e-03 0.0 
0.0 0.0 -9.699423737970e-04 
-1.666656418554e-03 8.515973861887e-04 0.0 
8.515973861887e-04 5.656067677278e-03 0.0 
0.0 0.0 -8.236220363599e-04 
2.293852952879e-04 2.317534078424e-03 0.0 
2.317534078424e-03 2.464619361077e-03 0.0 
0.0 0.0 -1.076197569190e-03 
-1.503911657480e-03 -1.536228813635e-03 0.0 
-1.536228813635e-03 4.713514709764e-03 0.0 
0.0 0.0 -1.079735805607e-03 
-1.269594224654e-03 -2.151916428327e-03 0.0 
-2.151916428327e-03 4.311241093571e-03 0.0 
0.0 0.0 -1.081849276551e-03 
-4.912617181252e-04 1.776659374520e-03 0.0 
1.776659374520e-03 2.250419150674e-03 0.0 
0.0 0.0 -7.539246139495e-04 
2.432965561316e-03 -1.404722775878e-03 0.0 
-1.404722775878e-03 -1.097996306609e-03 0.0 
0.0 0.0 -5.721296805886e-04 
-1.672927313923e-03 -1.115371020166e-03 0.0 
-1.115371020166e-03 5.017856732658e-03 0.0 
0.0 0.0 -1.052805964859e-03 
-1.580075754320e-03 2.157353104837e-04 0.0 
2.157353104837e-04 6.692661968395e-03 0.0 
0.0 0.0 -9.615701295830e-04 
-1.562907036777e-03 2.120583330649e-04 0.0 
2.120583330649e-04 6.337987109484e-03 0.0 
0.0 0.0 -8.972249362023e-04 
-6.223529423683e-04 1.809817658288e-03 0.0 
1.809817658288e-03 2.623397927817e-03 0.0 
0.0 0.0 -8.575907080495e-04 
-1.509705893005e-03 -1.747591078712e-03 0.0 
-1.747591078712e-03 4.715855182949e-03 0.0 
0.0 0.0 -1.032785096058e-03 
1.569414128809e-03 -2.550888608895e-03 0.0 
-2.550888608895e-03 -3.370499251341e-04 0.0 
0.0 0.0 -5.281560872893e-04 
8.209882341614e-04 2.381580320664e-03 0.0 
2.381580320664e-03 4.553315452112e-04 0.0 
0.0 0.0 -5.469941911596e-04 
-2.931643961127e-04 1.527189756473e-03 0.0 
1.527189756473e-03 3.869126548266e-03 0.0 
0.0 0.0 -1.202908440308e-03 
1.382596818972e-04 -2.070148021774e-03 0.0 
-2.070148021774e-03 1.091658495820e-03 0.0 
0.0 0.0 -5.271077904503e-04 
1.398235426833e-03 -2.548773596058e-03 0.0 
-2.548773596058e-03 -7.584749764511e-05 0.0 
0.0 0.0 -5.667376839375e-04 
1.254646909069e-03 2.484629242297e-03 0.0 
2.484629242297e-03 3.513264158718e-04 0.0 
0.0 0.0 -6.882742821176e-04 
-8.245697505670e-04 1.707333830662e-03 0.0 
1.707333830662e-03 2.953610139157e-03 0.0 
0.0 0.0 -7.843752346430e-04 
-1.666758732331e-03 -1.174236117568e-03 0.0 
-1.174236117568e-03 5.037001804565e-03 0.0 
0.0 0.0 -1.079856008588e-03 
-9.244628747481e-04 -1.936309255703e-04 0.0 
-1.936309255703e-04 2.822852214519e-03 0.0 
0.0 0.0 -6.624393034254e-04 
-1.781970376818e-03 1.286452196400e-03 0.0 
1.286452196400e-03 5.020731578576e-03 0.0 
0.0 0.0 -7.824198048058e-04 
-1.484587749919e-03 -1.812874826371e-03 0.0 
-1.812874826371e-03 4.718401123365e-03 0.0 
0.0 0.0 -1.081372135754e-03 
1.084769609676e-03 -2.051097269290e-03 0.0 
-2.051097269290e-03 1.328211131767e-04 0.0 
0.0 0.0 -5.218245955084e-04 
-7.383188819978e-04 -2.755351396555e-03 0.0 
-2.755351396555e-03 3.375108004806e-03 0.0 
0.0 0.0 -1.093992571453e-03 
0.0 0.0 0.0 
0.0 0.0 0.0 
0.0 0.0 0.0 
-1.585395185030e-03 -8.733622601649e-05 0.0 
-8.733622601649e-05 7.915806537563e-03 0.0 
0.0 0.0 -1.152567315725e-03 
1.675271907871e-03 -2.177617042757e-03 0.0 
-2.177617042757e-03 -5.173898653476e-04 0.0 
0.0 0.0 -4.962351610816e-04 
3.706447397785e-05 2.070351060898e-04 0.0 
2.070351060898e-04 3.044600736775e-03 0.0 
0.0 0.0 -1.154039482800e-03 
2.069033457779e-04 2.961881208612e-03 0.0 
2.961881208612e-03 2.494592241471e-03 0.0 
0.0 0.0 -9.821191134873e-04 
-1.685773855788e-03 -1.377399783606e-03 0.0 
-1.377399783606e-03 5.070521373149e-03 0.0 
0.0 0.0 -1.044398856648e-03 
-1.669266621470e-03 -1.454184032041e-03 0.0 
-1.454184032041e-03 5.079788696568e-03 0.0 
0.0 0.0 -1.081576243284e-03 
2.914990553637e-03 -7.685843879532e-04 0.0 
-7.685843879532e-04 -1.358389786941e-03 0.0 
0.0 0.0 -6.671146142983e-04 
1.578300081431e-04 -1.839580637340e-03 0.0 
-1.839580637340e-03 9.146826550122e-04 0.0 
0.0 0.0 -4.596482842094e-04 
5.655633450818e-04 1.634462446329e-03 0.0 
1.634462446329e-03 -4.353216112412e-04 0.0 
0.0 0.0 -5.581788593170e-05 
-1.838374468884e-03 -1.008357892208e-03 0.0 
-1.008357892208e-03 5.389548205880e-03 0.0 
0.0 0.0 -1.053342186814e-03 
-7.735429255110e-05 -5.938829985412e-04 0.0 
-5.938829985412e-04 3.207515001155e-03 0.0 
0.0 0.0 -1.148056181429e-03 
8.407270435530e-04 -2.401906140793e-03 0.0 
-2.401906140793e-03 4.680800088294e-04 0.0 
0.0 0.0 -5.609173081639e-04 
-8.059519139880e-04 3.569609752867e-03 0.0 
3.569609752867e-03 3.937575205409e-03 0.0 
0.0 0.0 -1.000702849114e-03 
-1.423128099077e-04 2.434671484328e-03 0.0 
2.434671484328e-03 1.829214520191e-03 0.0 
0.0 0.0 -7.229578758357e-04 
-1.050409536978e-03 3.126628093613e-03 0.0 
3.126628093613e-03 4.667808075339e-03 0.0 
0.0 0.0 -1.005614027492e-03 
-9.737300203529e-04 -1.654439195094e-03 0.0 
-1.654439195094e-03 5.294537233988e-03 0.0 
0.0 0.0 -1.266534580134e-03 
0.0 0.0 0.0 
0.0 0.0 0.0 
0.0 0.0 0.0 
-1.341620833825e-03 1.946460220436e-04 0.0 
1.946460220436e-04 8.726655578502e-03 0.0 
0.0 0.0 -1.341620833825e-03 
-1.340051318819e-03 -5.222823624513e-04 0.0 
-5.222823624513e-04 7.102242080382e-03 0.0 
0.0 0.0 -1.340051318819e-03 
-1.487218295656e-03 -1.877140319118e-04 0.0 
-1.877140319118e-04 5.546795712007e-03 0.0 
0.0 0.0 -7.955197795907e-04 
9.332368058577e-04 -2.323240235713e-03 0.0 
-2.323240235713e-03 3.557999178189e-04 0.0 
0.0 0.0 -5.524443101471e-04 
4.489255113100e-05 3.284657334475e-03 0.0 
3.284657334475e-03 2.631811467132e-03 0.0 
0.0 0.0 -9.543595451431e-04 
3.058132153657e-03 -1.043711929510e-04 0.0 
-1.043711929510e-04 -1.411540431284e-03 0.0 
0.0 0.0 -7.056821667315e-04 
-3.299569164523e-05 -1.162968038586e-03 0.0 
-1.162968038586e-03 1.091173189700e-03 0.0 
0.0 0.0 -3.090400745732e-04 
-4.124321326680e-05 1.535481476054e-03 0.0 
1.535481476054e-03 4.721541697385e-04 0.0 
0.0 0.0 -1.846761242021e-04 
-1.574977123889e-03 5.363765110094e-04 0.0 
5.363765110094e-04 8.165141429638e-03 0.0 
0.0 0.0 -1.209499414335e-03 
-1.716498366635e-03 2.104119454666e-03 0.0 
2.104119454666e-03 5.843034081691e-03 0.0 
0.0 0.0 -9.648175333861e-04 
-1.733356707705e-03 1.154742806149e-03 0.0 
1.154742806149e-03 4.860119042041e-03 0.0 
0.0 0.0 -7.487175554447e-04 
-1.114495707937e-03 3.137897512820e-03 0.0 
3.137897512820e-03 5.995042437661e-03 0.0 
0.0 0.0 -1.323661129950e-03 
-8.127251142362e-04 -1.412537566310e-04 0.0 
-1.412537566310e-04 2.411308652960e-03 0.0 
0.0 0.0 -5.128881373376e-04 
-1.119968701545e-03 2.850061398458e-03 0.0 
2.850061398458e-03 5.775097260118e-03 0.0 
0.0 0.0 -1.324908485340e-03 
-1.665581242751e-03 2.319761122546e-03 0.0 
2.319761122546e-03 5.793099015745e-03 0.0 
0.0 0.0 -9.670422101491e-04 
5.568715715285e-04 -2.770077582360e-03 0.0 
-2.770077582360e-03 9.496266440003e-04 0.0 
0.0 0.0 -6.456420923695e-04 
2.161043505782e-04 3.547732125549e-03 0.0 
3.547732125549e-03 1.898015910390e-03 0.0 
0.0 0.0 -9.060515404150e-04 
9.950905598312e-04 -2.671652170698e-03 0.0 
-2.671652170698e-03 4.709180402517e-04 0.0 
0.0 0.0 -6.282894000355e-04 
6.980021611784e-04 2.329704923171e-03 0.0 
2.329704923171e-03 5.591408928334e-04 0.0 
0.0 0.0 -5.387755945765e-04 
7.505691487916e-04 -2.806175756815e-03 0.0 
-2.806175756815e-03 7.604579484207e-04 0.0 
0.0 0.0 -6.475830416624e-04 
-1.523404584578e-03 2.773030803061e-03 0.0 
2.773030803061e-03 5.696563371559e-03 0.0 
0.0 0.0 -1.023749757194e-03 
-1.948666597127e-03 -9.778535476886e-04 0.0 
-9.778535476886e-04 6.429483775968e-03 0.0 
0.0 0.0 -1.155390781228e-03 
1.789573321784e-03 -2.334741346390e-03 0.0 
-2.334741346390e-03 -4.865776105569e-04 0.0 
0.0 0.0 -5.584267333832e-04 
-9.825735489597e-04 3.435129640079e-03 0.0 
3.435129640079e-03 4.478995622056e-03 0.0 
0.0 0.0 -1.036271578259e-03 
0.0 0.0 0.0 
0.0 0.0 0.0 
0.0 0.0 0.0 
2.596759179503e-03 -1.389222099922e-03 0.0 
-1.389222099922e-03 -1.085257982110e-03 0.0 
0.0 0.0 -6.477862274541e-04 
-1.710970656604e-03 2.103685284721e-03 0.0 
2.103685284721e-03 6.525687664567e-03 0.0 
0.0 0.0 -1.066385360782e-03 
2.404574348015e-04 -2.949261258943e-03 0.0 
-2.949261258943e-03 1.482737397066e-03 0.0 
0.0 0.0 -7.385120708004e-04 
6.388802882870e-04 -2.505035958296e-03 0.0 
-2.505035958296e-03 7.105369687538e-04 0.0 
0.0 0.0 -5.783216815889e-04 
3.613031293431e-04 3.302322730047e-03 0.0 
3.302322730047e-03 1.977511413847e-03 0.0 
0.0 0.0 -9.187611816440e-04 
1.834377336541e-03 -2.869898485884e-03 0.0 
-2.869898485884e-03 -1.676988345135e-04 0.0 
0.0 0.0 -7.142907865831e-04 
-2.603602936992e-04 1.802957872284e-03 0.0 
1.802957872284e-03 1.690888390106e-03 0.0 
0.0 0.0 -6.130834698885e-04 
-3.766094290651e-04 1.893748037744e-03 0.0 
1.893748037744e-03 2.022328291586e-03 0.0 
0.0 0.0 -7.053080839374e-04 
2.569187355972e-04 -2.744654995445e-03 0.0 
-2.744654995445e-03 1.329889881086e-03 0.0 
0.0 0.0 -6.800608357214e-04 
9.113223760588e-04 -2.364957113740e-03 0.0 
-2.364957113740e-03 3.924099138829e-04 0.0 
0.0 0.0 -5.587424099750e-04 
1.417197887517e-03 2.585133621544e-03 0.0 
2.585133621544e-03 -7.607709962934e-05 0.0 
0.0 0.0 -5.747660519518e-04 
-8.949493316928e-04 3.143090586373e-03 0.0 
3.143090586373e-03 4.528621917534e-03 0.0 
0.0 0.0 -1.033897369924e-03 
-1.400349245868e-03 3.030732209316e-03 0.0 
3.030732209316e-03 6.703483299750e-03 0.0 
0.0 0.0 -1.224260864640e-03 
-5.253406665386e-04 1.775908047208e-03 0.0 
1.775908047208e-03 2.340968666104e-03 0.0 
0.0 0.0 -7.781262855279e-04 
-1.583002963210e-03 -1.557788336479e-04 0.0 
-1.557788336479e-04 7.086569384723e-03 0.0 
0.0 0.0 -1.028620860735e-03 
-1.145284533028e-03 3.268026662313e-03 0.0 
3.268026662313e-03 5.700409497196e-03 0.0 
0.0 0.0 -1.228414553209e-03 
3.124385303303e-03 -1.108728093105e-05 0.0 
-1.108728093105e-05 -1.500119221682e-03 0.0 
0.0 0.0 -6.961140349804e-04 
5.697530012785e-04 2.144073309248e-03 0.0 
2.144073309248e-03 5.848519704173e-04 0.0 
0.0 0.0 -4.948307021553e-04 
-2.816210062748e-04 2.601627525948e-03 0.0 
2.601627525948e-03 2.228068929511e-03 0.0 
0.0 0.0 -8.341919671012e-04 
8.341721467740e-04 -2.510433576068e-03 0.0 
-2.510433576068e-03 5.276394565767e-04 0.0 
0.0 0.0 -5.836335442932e-04 
-1.247042165843e-03 3.250100918931e-03 0.0 
3.250100918931e-03 5.099970820779e-03 0.0 
0.0 0.0 -1.043024347135e-03 
1.027519968218e-03 -2.380813166548e-03 0.0 
-2.380813166548e-03 3.112209895361e-04 0.0 
0.0 0.0 -5.737461247516e-04 
1.268606586028e-03 2.037384257040e-03 0.0 
2.037384257040e-03 -4.121339973903e-04 0.0 
0.0 0.0 -3.670596808449e-04 
5.930292221715e-04 -2.622911752925e-03 0.0 
-2.622911752925e-03 8.838728538733e-04 0.0 
0.0 0.0 -6.329580325906e-04 
5.486710723125e-04 2.332384511628e-03 0.0 
2.332384511628e-03 7.102378801027e-04 0.0 
0.0 0.0 -5.395324081779e-04 
1.682768200706e-03 2.516609952748e-03 0.0 
2.516609952748e-03 -2.542264434373e-04 0.0 
0.0 0.0 -6.122321816867e-04 
7.358023053180e-04 -2.505051408807e-03 0.0 
-2.505051408807e-03 7.718123993888e-04 0.0 
0.0 0.0 -6.461205877315e-04 
2.812366509539e-04 3.418056531118e-03 0.0 
3.418056531118e-03 1.761992896829e-03 0.0 
0.0 0.0 -8.756698061928e-04 
-1.585509504414e-03 6.854986193214e-05 0.0 
6.854986193214e-05 6.515313053331e-03 0.0 
0.0 0.0 -9.494079867578e-04 
1.950119496099e-04 -2.582141659643e-03 0.0 
-2.582141659643e-03 1.322040652856e-03 0.0 
0.0 0.0 -6.501654010570e-04 
9.460441418101e-04 2.468386529063e-03 0.0 
2.468386529063e-03 3.152412733386e-04 0.0 
0.0 0.0 -5.405508922066e-04 
5.243693270813e-04 -2.069869324487e-03 0.0 
-2.069869324487e-03 1.498209352589e-03 0.0 
0.0 0.0 -8.668194341442e-04 
3.838921855015e-04 2.277447822888e-03 0.0 
2.277447822888e-03 8.700555358996e-04 0.0 
0.0 0.0 -5.374061663147e-04 
0.0 0.0 0.0 
0.0 0.0 0.0 
0.0 0.0 0.0 
-1.483198277618e-03 2.721071498371e-04 0.0 
2.721071498371e-04 8.165740664983e-03 0.0 
0.0 0.0 -1.223389224544e-03 
-1.535254932215e-03 2.717190120097e-04 0.0 
2.717190120097e-04 7.854733745092e-03 0.0 
0.0 0.0 -1.157435638217e-03 
1.714590457335e-06 -7.115369139069e-04 0.0 
-7.115369139069e-04 4.515715516867e-04 0.0 
0.0 0.0 -1.942654894903e-04 
3.878432463794e-04 -2.223127307783e-03 0.0 
-2.223127307783e-03 1.630928175518e-03 0.0 
0.0 0.0 -8.651877522419e-04 
-2.798740380973e-05 -2.159694096595e-03 0.0 
-2.159694096595e-03 1.431561792510e-03 0.0 
0.0 0.0 -6.015318808715e-04 
-1.829025907462e-04 -2.119639284792e-03 0.0 
-2.119639284792e-03 1.714857895665e-03 0.0 
0.0 0.0 -6.565522735366e-04 
-1.017733219917e-03 3.364025437069e-03 0.0 
3.364025437069e-03 4.897256146699e-03 0.0 
0.0 0.0 -1.100737838324e-03 
5.257552207879e-04 2.875144563505e-03 0.0 
2.875144563505e-03 1.853285664374e-03 0.0 
0.0 0.0 -9.467522836136e-04 
-8.497134643687e-04 3.433349612216e-03 0.0 
3.433349612216e-03 4.357788075562e-03 0.0 
0.0 0.0 -1.064854740548e-03 
2.203223739880e-03 -1.975974349915e-03 0.0 
-1.975974349915e-03 -9.232686555069e-04 0.0 
0.0 0.0 -5.485521790173e-04 
-1.446388010227e-03 1.342323327112e-04 0.0 
1.342323327112e-04 5.217166277606e-03 0.0 
0.0 0.0 -7.105917616147e-04 
-1.197543499266e-03 -1.810608894436e-03 0.0 
-1.810608894436e-03 5.325302062837e-03 0.0 
0.0 0.0 -1.281538364137e-03 
-1.726353625323e-04 -1.807145954026e-03 0.0 
-1.807145954026e-03 1.497715714659e-03 0.0 
0.0 0.0 -5.678915794829e-04 
2.222123337372e-04 -1.923483587620e-05 0.0 
-1.923483587620e-05 2.651456288210e-03 0.0 
0.0 0.0 -1.121221582973e-03 
1.156875498320e-03 3.056207622502e-03 0.0 
3.056207622502e-03 4.647886417546e-04 0.0 
0.0 0.0 -6.949989171746e-04 
-5.424671300971e-04 -2.887281693977e-04 0.0 
-2.887281693977e-04 1.675559050033e-03 0.0 
0.0 0.0 -3.973267919445e-04 
-1.360155763593e-03 3.097514486866e-03 0.0 
3.097514486866e-03 5.194571229381e-03 0.0 
0.0 0.0 -1.015166614560e-03 
2.718308302872e-03 -7.221702226311e-04 0.0 
-7.221702226311e-04 -1.243788694723e-03 0.0 
0.0 0.0 -6.319369749211e-04 
2.871950510200e-04 -2.057705951039e-03 0.0 
-2.057705951039e-03 8.654869691646e-04 0.0 
0.0 0.0 -4.940065800791e-04 
2.698077562336e-03 -1.426914000199e-03 0.0 
-1.426914000199e-03 -1.126048004927e-03 0.0 
0.0 0.0 -6.737269531753e-04 
-2.035172389928e-03 5.681521720379e-05 0.0 
5.681521720379e-05 5.818689376235e-03 0.0 
0.0 0.0 -1.069816800183e-03 
-1.547603731344e-03 2.557965682965e-03 0.0 
2.557965682965e-03 5.760856088478e-03 0.0 
0.0 0.0 -1.020980360542e-03 
3.535477644423e-04 -2.409077986448e-03 0.0 
-2.409077986448e-03 9.968391477695e-04 0.0 
0.0 0.0 -5.787372480908e-04 
-1.638049386592e-03 -5.261620418510e-04 0.0 
-5.261620418510e-04 4.881654597217e-03 0.0 
0.0 0.0 -1.045407985144e-03 
-1.131069213092e-03 3.339054972024e-03 0.0 
3.339054972024e-03 5.004170711216e-03 0.0 
0.0 0.0 -1.071782534217e-03 
7.849170986353e-05 2.002784816892e-03 0.0 
2.002784816892e-03 3.087471277383e-03 0.0 
0.0 0.0 -1.109893377180e-03 
5.081300325286e-04 -2.843687144981e-03 0.0 
-2.843687144981e-03 1.050709009186e-03 0.0 
0.0 0.0 -6.680738750205e-04 
-8.485846460072e-04 -2.429092323345e-04 0.0 
-2.429092323345e-04 2.701937249489e-03 0.0 
0.0 0.0 -7.163733244607e-04 
1.054276666128e-03 2.747625866901e-03 0.0 
2.747625866901e-03 4.044819373952e-04 0.0 
0.0 0.0 -6.251822586527e-04 
-1.556582639800e-03 -2.026954580916e-04 0.0 
-2.026954580916e-04 6.435079901625e-03 0.0 
0.0 0.0 -9.278975173457e-04 
6.306613738133e-04 -2.843431008643e-03 0.0 
-2.843431008643e-03 9.087558385051e-04 0.0 
0.0 0.0 -6.597502338507e-04 
-1.151665732863e-03 3.368799827368e-03 0.0 
3.368799827368e-03 6.118948746046e-03 0.0 
0.0 0.0 -1.269179263064e-03 
-1.428509069589e-03 2.793670889960e-03 0.0 
2.793670889960e-03 7.317810969107e-03 0.0 
0.0 0.0 -1.281197857596e-03 
-1.509195270466e-03 -1.457985023921e-04 0.0 
-1.457985023921e-04 5.771603983327e-03 0.0 
0.0 0.0 -8.387747867703e-04 
-1.581495188537e-03 1.397540288099e-03 0.0 
1.397540288099e-03 8.227342162666e-03 0.0 
0.0 0.0 -1.255037608383e-03 
-1.367281596907e-03 3.139996712098e-03 0.0 
3.139996712098e-03 6.951432883282e-03 0.0 
0.0 0.0 -1.285499913836e-03 
2.109542503114e-03 -1.930775448323e-03 0.0 
-1.930775448323e-03 -7.849211290522e-04 0.0 
0.0 0.0 -5.676948745980e-04 
1.380801218232e-03 -2.351235301793e-03 0.0 
-2.351235301793e-03 -1.698746639676e-04 0.0 
0.0 0.0 -5.189685232560e-04 
-5.757297583633e-04 4.366962327414e-04 0.0 
4.366962327414e-04 4.537400147680e-03 0.0 
0.0 0.0 -1.265535665854e-03 
0.0 0.0 0.0 
0.0 0.0 0.0 
0.0 0.0 0.0 
-8.394320087675e-04 -3.205840844428e-05 0.0 
-3.205840844428e-05 2.565992005118e-03 0.0 
0.0 0.0 -6.072167217314e-04 
-1.628413269992e-03 -1.673586948164e-04 0.0 
-1.673586948164e-04 4.868895534125e-03 0.0 
0.0 0.0 -1.067827858613e-03 
4.161330338528e-04 -2.673128765629e-03 0.0 
-2.673128765629e-03 1.065048131365e-03 0.0 
0.0 0.0 -6.347919279505e-04 
1.927385449734e-03 -2.370761864729e-03 0.0 
-2.370761864729e-03 -5.075034197406e-04 0.0 
0.0 0.0 -6.085208699972e-04 
-3.171269370445e-05 1.814506539183e-03 0.0 
1.814506539183e-03 1.218095740662e-03 0.0 
0.0 0.0 -5.084498772674e-04 
-1.067456340534e-04 1.927365287384e-03 0.0 
1.927365287384e-03 1.436121596143e-03 0.0 
0.0 0.0 -5.697325551813e-04 
-1.696184299969e-03 4.188758800933e-04 0.0 
4.188758800933e-04 5.835163577314e-03 0.0 
0.0 0.0 -8.290026594306e-04 
2.687649412673e-03 -1.534651648036e-03 0.0 
-1.534651648036e-03 -1.236375441606e-03 0.0 
0.0 0.0 -6.219745590288e-04 
-8.374689021838e-04 -7.956683833314e-04 0.0 
-7.956683833314e-04 2.821114433129e-03 0.0 
0.0 0.0 -8.100060677168e-04 
-5.763887782379e-05 2.884104717794e-03 0.0 
2.884104717794e-03 2.960925031656e-03 0.0 
0.0 0.0 -1.077832113627e-03 
-1.357626258592e-03 -2.064052997114e-03 0.0 
-2.064052997114e-03 6.484172296954e-03 0.0 
0.0 0.0 -1.324978758543e-03 
-1.316853930481e-03 -2.171233133158e-03 0.0 
-2.171233133158e-03 6.262828385778e-03 0.0 
0.0 0.0 -1.320624918399e-03 
1.210545566472e-03 -2.440771907645e-03 0.0 
-2.440771907645e-03 2.098806390541e-04 0.0 
0.0 0.0 -6.087540880828e-04 
-1.669792706879e-03 7.585625911679e-04 0.0 
7.585625911679e-04 5.225921064138e-03 0.0 
0.0 0.0 -7.877541558771e-04 
0.0 0.0 0.0 
0.0 0.0 0.0 
0.0 0.0 0.0 
1.526705898496e-04 1.832423170921e-03 0.0 
1.832423170921e-03 9.162592996274e-04 0.0 
0.0 0.0 -4.581128097759e-04 
1.694782762505e-03 -3.278967534484e-03 0.0 
-3.278967534484e-03 -3.718783773796e-04 0.0 
0.0 0.0 -5.669590221966e-04 
7.211551457005e-05 1.826082030850e-03 0.0 
1.826082030850e-03 1.040988995356e-03 0.0 
0.0 0.0 -4.770447899684e-04 
8.520859723696e-04 2.702963814911e-03 0.0 
2.702963814911e-03 1.160586394610e-03 0.0 
0.0 0.0 -8.625738715628e-04 
1.049602008115e-03 -2.610080274348e-03 0.0 
-2.610080274348e-03 3.535904184598e-04 0.0 
0.0 0.0 -6.013681828177e-04 
1.924226435236e-03 -2.386188926630e-03 0.0 
-2.386188926630e-03 -7.021276801157e-04 0.0 
0.0 0.0 -5.237566093371e-04 
8.906199206854e-04 -2.335912402002e-03 0.0 
-2.335912402002e-03 -6.441539282859e-04 0.0 
0.0 0.0 -1.056282824569e-04 
-1.518150307999e-03 2.180517986998e-04 0.0 
2.180517986998e-04 7.814279060755e-03 0.0 
0.0 0.0 -1.176327079312e-03 
1.081599261770e-03 -2.356565631716e-03 0.0 
-2.356565631716e-03 1.958644745057e-04 0.0 
0.0 0.0 -5.474844584040e-04 
-1.503838573524e-03 8.537407365334e-04 0.0 
8.537407365334e-04 8.091641180223e-03 0.0 
0.0 0.0 -1.212957849656e-03 
-1.563004608103e-03 1.345074243690e-04 0.0 
1.345074243690e-04 7.574721874408e-03 0.0 
0.0 0.0 -1.117460450001e-03 
-1.452677521913e-03 3.546154927313e-04 0.0 
3.546154927313e-04 8.989483437301e-03 0.0 
0.0 0.0 -1.319418651152e-03 
-1.573682658163e-03 -6.434523803718e-04 0.0 
-6.434523803718e-04 7.311749488072e-03 0.0 
0.0 0.0 -1.324849633189e-03 
-1.522640732825e-03 1.776300828802e-04 0.0 
1.776300828802e-04 5.910709247101e-03 0.0 
0.0 0.0 -8.315138651140e-04 
8.069897163257e-04 -2.530526196753e-03 0.0 
-2.530526196753e-03 5.619735093356e-04 0.0 
0.0 0.0 -5.866985252834e-04 
-2.779641202251e-04 1.703949019227e-03 0.0 
1.703949019227e-03 1.672572981451e-03 0.0 
0.0 0.0 -5.976895119538e-04 
7.490285409449e-04 -3.064892262470e-03 0.0 
-3.064892262470e-03 9.033898181147e-04 0.0 
0.0 0.0 -7.081792967398e-04 
-1.343328350294e-03 -1.797161006887e-03 0.0 
-1.797161006887e-03 6.496235434020e-03 0.0 
0.0 0.0 -1.343328350294e-03 
1.770851489837e-04 1.574613937019e-03 0.0 
1.574613937019e-03 7.197174740553e-04 0.0 
0.0 0.0 -3.843439813024e-04 
1.884365055557e-04 1.730723292298e-03 0.0 
1.730723292298e-03 7.999529513160e-04 0.0 
0.0 0.0 -4.235954815164e-04 
5.120454739847e-05 4.425631252095e-04 0.0 
4.425631252095e-04 3.081010907522e-03 0.0 
0.0 0.0 -1.156027955174e-03 
-1.600063486753e-03 4.454182285367e-04 0.0 
4.454182285367e-04 5.553533901810e-03 0.0 
0.0 0.0 -7.715229432315e-04 
-1.496300168116e-03 6.368230222668e-04 0.0 
6.368230222668e-04 8.172597464420e-03 0.0 
0.0 0.0 -1.219279742240e-03 
-1.079188820050e-03 3.032068943539e-03 0.0 
3.032068943539e-03 5.044159493797e-03 0.0 
0.0 0.0 -1.069611963270e-03 
-3.125996649260e-04 2.376006221788e-03 0.0 
2.376006221788e-03 3.643123644996e-03 0.0 
0.0 0.0 -1.175036385391e-03 
-1.440706362563e-03 2.765679407787e-03 0.0 
2.765679407787e-03 6.040073424197e-03 0.0 
0.0 0.0 -1.113576918908e-03 
-1.533426048517e-03 3.483355765343e-04 0.0 
3.483355765343e-04 5.830518730214e-03 0.0 
0.0 0.0 -8.542750875040e-04 
4.145616627609e-04 -2.510686493370e-03 0.0 
-2.510686493370e-03 9.700386978898e-04 0.0 
0.0 0.0 -5.934001545646e-04 
5.188237827814e-04 -2.738227656747e-03 0.0 
-2.738227656747e-03 9.760172721955e-04 0.0 
0.0 0.0 -6.406461664186e-04 
-1.559322814184e-03 2.985337068608e-04 0.0 
2.985337068608e-04 6.828450389527e-03 0.0 
0.0 0.0 -9.963059934037e-04 
-1.981024320875e-04 2.157190390334e-03 0.0 
2.157190390334e-03 3.614846179737e-03 0.0 
0.0 0.0 -1.142506377625e-03 
-1.686833987170e-03 9.535938984725e-04 0.0 
9.535938984725e-04 4.721621554871e-03 0.0 
0.0 0.0 -7.386355146563e-04 
-1.463703012742e-03 6.266658719779e-05 0.0 
6.266658719779e-05 5.604963867248e-03 0.0 
0.0 0.0 -7.676068998053e-04 
-1.515549186513e-03 3.697674288865e-05 0.0 
3.697674288865e-05 5.930448629907e-03 0.0 
0.0 0.0 -8.242303029217e-04 
-1.592254304502e-03 -3.437592554212e-05 0.0 
-3.437592554212e-05 6.006274404460e-03 0.0 
0.0 0.0 -8.467401457521e-04 
1.475757754276e-03 -1.289294546505e-03 0.0 
-1.289294546505e-03 -9.417009757612e-04 0.0 
0.0 0.0 -2.288814765064e-04 
2.490964718879e-04 -2.584180670905e-03 0.0 
-2.584180670905e-03 1.241456993708e-03 0.0 
0.0 0.0 -6.388086281126e-04 
-1.524289002589e-03 1.055576054381e-03 0.0 
1.055576054381e-03 8.572679794113e-03 0.0 
0.0 0.0 -1.269310366786e-03 
-1.609154575879e-03 5.927002029432e-05 0.0 
5.927002029432e-05 6.380922986421e-03 0.0 
0.0 0.0 -9.150577043801e-04 
-9.099437829954e-04 1.617518349232e-03 0.0 
1.617518349232e-03 4.661075676102e-03 0.0 
0.0 0.0 -1.295322057178e-03 
-1.481137119135e-03 2.911611220647e-03 0.0 
2.911611220647e-03 6.859531798370e-03 0.0 
0.0 0.0 -1.215577547940e-03 
-1.339321083005e-03 2.882096422564e-03 0.0 
2.882096422564e-03 5.250850385045e-03 0.0 
0.0 0.0 -1.012565562176e-03 
-1.640900346179e-03 1.517631824607e-03 0.0 
1.517631824607e-03 7.910833663920e-03 0.0 
0.0 0.0 -1.214907066889e-03 
-1.059540956040e-03 -1.334979029727e-03 0.0 
-1.334979029727e-03 3.594823103032e-03 0.0 
0.0 0.0 -9.974489174931e-04 
-1.013156646554e-03 -1.368118382081e-03 0.0 
-1.368118382081e-03 3.447232281497e-03 0.0 
0.0 0.0 -9.464646038184e-04 
-1.053605941392e-03 -1.657375267239e-03 0.0 
-1.657375267239e-03 4.938505543447e-03 0.0 
0.0 0.0 -1.226851238141e-03 
0.0 0.0 0.0 
0.0 0.0 0.0 
0.0 0.0 0.0 
-9.591830860426e-04 -2.723797524876e-04 0.0 
-2.723797524876e-04 2.822378765221e-03 0.0 
0.0 0.0 -5.777536677209e-04 
-1.342405754833e-03 2.832331701177e-03 0.0 
2.832331701177e-03 5.623065616304e-03 0.0 
0.0 0.0 -1.342405754833e-03 
-1.232108481340e-04 -4.438827698639e-05 0.0 
-4.438827698639e-05 1.111663342237e-03 0.0 
0.0 0.0 -2.724401835525e-04 
-1.475085458698e-03 8.547838585484e-05 0.0 
8.547838585484e-05 5.344445388578e-03 0.0 
0.0 0.0 -7.870118106326e-04 
-3.041907190684e-04 -2.929338759418e-04 0.0 
-2.929338759418e-04 3.995006628254e-03 0.0 
0.0 0.0 -1.213461936786e-03 
-7.635875139996e-06 -1.081722019394e-03 0.0 
-1.081722019394e-03 7.060070926500e-04 0.0 
0.0 0.0 -2.993019503614e-04 
1.505773719545e-03 -8.263394782763e-04 0.0 
-8.263394782763e-04 -6.336254798976e-05 0.0 
0.0 0.0 -2.382422751898e-04 
-1.473393185853e-03 1.353598964677e-03 0.0 
1.353598964677e-03 8.746165970417e-03 0.0 
0.0 0.0 -1.324389858384e-03 
-1.521392000938e-03 2.912474066464e-04 0.0 
2.912474066464e-04 4.940937614450e-03 0.0 
0.0 0.0 -7.294542769151e-04 
-1.503978704987e-03 1.473877310897e-03 0.0 
1.473877310897e-03 8.344062810088e-03 0.0 
0.0 0.0 -1.261418349269e-03 
-5.327298325037e-04 3.575837178235e-04 0.0 
3.575837178235e-04 3.642687559217e-03 0.0 
0.0 0.0 -1.231858344535e-03 
-1.518533849991e-03 1.071472041001e-04 0.0 
1.071472041001e-04 4.942575461076e-03 0.0 
0.0 0.0 -7.289279708929e-04 
0.0 0.0 0.0 
0.0 0.0 0.0 
0.0 0.0 0.0 
-1.422405127371e-03 1.531540875437e-04 0.0 
1.531540875437e-04 8.427070743481e-03 0.0 
0.0 0.0 -1.284140717545e-03 
-3.551011727049e-04 -7.009671051649e-04 0.0 
-7.009671051649e-04 1.319322733909e-03 0.0 
0.0 0.0 -3.479328688591e-04 
-1.509662464093e-03 1.187111297047e-03 0.0 
1.187111297047e-03 8.089981201651e-03 0.0 
0.0 0.0 -1.232184317627e-03 
-1.343095105526e-03 -1.540983607491e-03 0.0 
-1.540983607491e-03 6.702452530061e-03 0.0 
0.0 0.0 -1.343095105526e-03 
-1.554707611052e-03 2.562602135152e-03 0.0 
2.562602135152e-03 7.111310188225e-03 0.0 
0.0 0.0 -1.225700354592e-03 
2.173759747286e-03 -1.419935824116e-03 0.0 
-1.419935824116e-03 -1.114841162711e-03 0.0 
0.0 0.0 -4.538222505322e-04 
-1.741082427331e-03 1.054953553281e-03 0.0 
1.054953553281e-03 5.737463170789e-03 0.0 
0.0 0.0 -8.279144014868e-04 
-1.224194647146e-03 -9.467109309958e-04 0.0 
-9.467109309958e-04 3.877522353974e-03 0.0 
0.0 0.0 -9.630043323905e-04 
6.517046530341e-05 2.327281681424e-03 0.0 
2.327281681424e-03 2.984838930140e-03 0.0 
0.0 0.0 -1.077599360682e-03 
-1.012701747737e-03 1.623436123670e-03 0.0 
1.623436123670e-03 5.329514602195e-03 0.0 
0.0 0.0 -1.326997735404e-03 
-1.585109039191e-03 2.780588406276e-04 0.0 
2.780588406276e-04 7.347999637207e-03 0.0 
0.0 0.0 -1.061614915164e-03 
-1.008710860855e-03 1.312542642731e-03 0.0 
1.312542642731e-03 5.209194240256e-03 0.0 
0.0 0.0 -1.325870641008e-03 
3.673422327950e-04 -3.776124720398e-04 0.0 
-3.776124720398e-04 -3.673422327950e-04 0.0 
0.0 0.0 0.0 
-1.430003464036e-03 -1.969193470792e-03 0.0 
-1.969193470792e-03 6.388366935774e-03 0.0 
0.0 0.0 -1.277656510522e-03 
2.370305391374e-03 -2.562363361486e-03 0.0 
-2.562363361486e-03 -6.166549384612e-04 0.0 
0.0 0.0 -7.515644798196e-04 
-3.100324176095e-04 -2.408320728402e-04 0.0 
-2.408320728402e-04 1.151728361162e-03 0.0 
0.0 0.0 -2.782378078114e-04 
-7.322007537650e-04 -9.555468943118e-04 0.0 
-9.555468943118e-04 4.734669521016e-03 0.0 
0.0 0.0 -1.270335377537e-03 
-1.575122942683e-03 2.171152972729e-03 0.0 
2.171152972729e-03 8.127111917130e-03 0.0 
0.0 0.0 -1.270603359501e-03 
-1.496692965649e-03 1.319095711312e-03 0.0 
1.319095711312e-03 8.369617950368e-03 0.0 
0.0 0.0 -1.289850838753e-03 
-1.498527200318e-03 3.689228571039e-04 0.0 
3.689228571039e-04 5.398355138859e-03 0.0 
0.0 0.0 -7.762633204683e-04 
-1.744558354744e-03 1.631310676350e-03 0.0 
1.631310676350e-03 5.391746306119e-03 0.0 
0.0 0.0 -8.489529362435e-04 
7.301121496963e-04 2.437654514774e-03 0.0 
2.437654514774e-03 5.848010967936e-04 0.0 
0.0 0.0 -5.635342484957e-04 
-1.427601509624e-03 3.175353375607e-03 0.0 
3.175353375607e-03 7.125136039489e-03 0.0 
0.0 0.0 -1.273041473476e-03 
-1.038080719471e-03 -6.334570087308e-04 0.0 
-6.334570087308e-04 3.329140480764e-03 0.0 
0.0 0.0 -8.764843149172e-04 
1.193441318594e-03 2.328942464463e-03 0.0 
2.328942464463e-03 3.040131158427e-05 0.0 
0.0 0.0 -5.245039843621e-04 
-2.118585962265e-05 2.523859735457e-03 0.0 
2.523859735457e-03 3.050030047244e-03 0.0 
0.0 0.0 -1.110141529071e-03 
-1.425138137322e-03 6.470798395339e-05 0.0 
6.470798395339e-05 5.179988142805e-03 0.0 
0.0 0.0 -7.096328662732e-04 
-1.517585115342e-03 2.260614719474e-03 0.0 
2.260614719474e-03 7.684999531697e-03 0.0 
0.0 0.0 -1.237729719596e-03 
-1.422593477448e-03 -1.670334611249e-04 0.0 
-1.670334611249e-04 8.888807101193e-03 0.0 
0.0 0.0 -1.321509982054e-03 
-1.343732204276e-03 1.010834953933e-04 0.0 
1.010834953933e-04 8.744729451207e-03 0.0 
0.0 0.0 -1.343732204276e-03 
3.369232126492e-03 1.693280559230e-04 0.0 
1.693280559230e-04 -1.155841201236e-03 0.0 
0.0 0.0 -6.603666768414e-05 
2.499766675984e-03 -2.952033461878e-04 0.0 
-2.952033461878e-04 -9.796559826583e-04 0.0 
0.0 0.0 -1.532902690118e-04 
-1.416942128620e-03 -1.624029676109e-04 0.0 
-1.624029676109e-04 5.054688992973e-03 0.0 
0.0 0.0 -7.318233512793e-04 
-1.419792893404e-03 3.183177604522e-05 0.0 
3.183177604522e-05 5.196638347434e-03 0.0 
0.0 0.0 -7.096011290571e-04 
-1.343732204276e-03 -2.406936037715e-04 0.0 
-2.406936037715e-04 7.113693032304e-03 0.0 
0.0 0.0 -1.343732204276e-03 
-1.562203585825e-03 1.305016391806e-04 0.0 
1.305016391806e-04 7.294302504235e-03 0.0 
0.0 0.0 -1.321509982054e-03 
2.262811037578e-03 -4.868403071367e-05 0.0 
-4.868403071367e-05 -4.447467837794e-04 0.0 
0.0 0.0 -2.434615908245e-04 
0.0 0.0 0.0 
0.0 0.0 0.0 
0.0 0.0 0.0 
-1.642313907969e-03 -1.143113511814e-03 0.0 
-1.143113511814e-03 6.403076283141e-03 0.0 
0.0 0.0 -1.230181737024e-03 
-7.148794360532e-04 3.164508669310e-03 0.0 
3.164508669310e-03 4.742447412984e-03 0.0 
0.0 0.0 -1.209364118140e-03 
-5.258157990741e-04 -7.879783393280e-04 0.0 
-7.879783393280e-04 1.688623542397e-03 0.0 
0.0 0.0 -3.144533898553e-04 
-1.351136438279e-03 -1.975186179308e-03 0.0 
-1.975186179308e-03 5.772523348463e-03 0.0 
0.0 0.0 -1.240191881334e-03 
-1.731554632553e-03 -2.342398403810e-04 0.0 
-2.342398403810e-04 5.123990276158e-03 0.0 
0.0 0.0 -1.081029080859e-03 
-1.535845139517e-03 -3.312382585291e-04 0.0 
-3.312382585291e-04 4.629162629476e-03 0.0 
0.0 0.0 -1.039595904837e-03 
-1.612928706957e-03 3.113730006726e-04 0.0 
3.113730006726e-04 6.721792739589e-03 0.0 
0.0 0.0 -9.400782610458e-04 
1.101421061084e-03 -2.909512193680e-03 0.0 
-2.909512193680e-03 4.457906368086e-04 0.0 
0.0 0.0 -6.630907276683e-04 
3.131506035800e-04 2.556520147165e-03 0.0 
2.556520147165e-03 2.414585707981e-03 0.0 
0.0 0.0 -1.011657465016e-03 
-1.177300482134e-05 -1.092061392265e-03 0.0 
-1.092061392265e-03 1.284900459222e-03 0.0 
0.0 0.0 -3.097963217911e-04 
-1.220126007134e-03 -1.262020264430e-03 0.0 
-1.262020264430e-03 3.977099482089e-03 0.0 
0.0 0.0 -1.029451436826e-03 
-1.346849968967e-03 3.153673073291e-03 0.0 
3.153673073291e-03 6.593026306646e-03 0.0 
0.0 0.0 -1.240519096027e-03 
-1.527894889398e-03 -1.936018657920e-04 0.0 
-1.936018657920e-04 8.104261702945e-03 0.0 
0.0 0.0 -1.191726112421e-03 
-1.479396360357e-03 -2.989971596189e-04 0.0 
-2.989971596189e-04 4.503238817139e-03 0.0 
0.0 0.0 -1.046336039097e-03 
-1.560842421660e-03 -8.540456832086e-05 0.0 
-8.540456832086e-05 6.232717148515e-03 0.0 
0.0 0.0 -8.745659502648e-04 
-9.955423334814e-04 3.339003162247e-03 0.0 
3.339003162247e-03 5.559555520798e-03 0.0 
0.0 0.0 -1.217119345309e-03 
-1.351529115626e-03 2.876362203055e-03 0.0 
2.876362203055e-03 5.976398005188e-03 0.0 
0.0 0.0 -1.140944809982e-03 
-1.341013158963e-03 2.862888668155e-03 0.0 
2.862888668155e-03 5.603065071307e-03 0.0 
0.0 0.0 -1.076426999079e-03 
-1.492882998354e-03 1.325735461083e-04 0.0 
1.325735461083e-04 4.933841446090e-03 0.0 
0.0 0.0 -7.312123441678e-04 
6.172998628868e-04 2.362607397547e-03 0.0 
2.362607397547e-03 1.812787626421e-03 0.0 
0.0 0.0 -9.763781674015e-04 
-1.502422605285e-03 2.514513612527e-03 0.0 
2.514513612527e-03 7.380594194812e-03 0.0 
0.0 0.0 -1.231404929774e-03 
-8.003792871297e-04 -5.108965880218e-04 0.0 
-5.108965880218e-04 2.603757424793e-03 0.0 
0.0 0.0 -7.107894383394e-04 
1.779720377328e-04 -1.298870854502e-03 0.0 
-1.298870854502e-03 4.337348693579e-04 0.0 
0.0 0.0 -1.164291272224e-04 
-9.970216092610e-04 3.010797291644e-03 0.0 
3.010797291644e-03 5.249606407737e-03 0.0 
0.0 0.0 -1.185975225609e-03 
2.191734593223e-04 5.610847358595e-04 0.0 
5.610847358595e-04 2.599656196276e-03 0.0 
0.0 0.0 -1.123538223191e-03 
1.172927684885e-03 -2.889497196016e-03 0.0 
-2.889497196016e-03 3.300442381492e-04 0.0 
0.0 0.0 -6.441308241577e-04 
-1.607945126080e-03 -1.740082688204e-05 0.0 
-1.740082688204e-05 7.004832338719e-03 0.0 
0.0 0.0 -9.893338170986e-04 
-1.512467681835e-03 -1.269144618606e-03 0.0 
-1.269144618606e-03 6.614649124568e-03 0.0 
0.0 0.0 -1.282739585886e-03 
-7.843923001707e-04 3.075094105696e-03 0.0 
3.075094105696e-03 4.595487038338e-03 0.0 
0.0 0.0 -1.182073443778e-03 
-8.715817867822e-04 3.121670101447e-03 0.0 
3.121670101447e-03 5.293578095492e-03 0.0 
0.0 0.0 -1.215129606110e-03 
-1.899421587696e-03 -4.002758172017e-04 0.0 
-4.002758172017e-04 5.518204821451e-03 0.0 
0.0 0.0 -1.079026350805e-03 
0.0 0.0 0.0 
0.0 0.0 0.0 
0.0 0.0 0.0 
-4.777114925537e-05 1.704067356774e-03 0.0 
1.704067356774e-03 1.178107469511e-03 0.0 
0.0 0.0 -4.844298515380e-04 
4.263341666864e-04 2.474607686413e-03 0.0 
2.474607686413e-03 9.338852604604e-04 0.0 
0.0 0.0 -5.829511830629e-04 
-1.721178049984e-03 1.085378291777e-03 0.0 
1.085378291777e-03 5.473315709064e-03 0.0 
0.0 0.0 -8.471429939415e-04 
4.228609678747e-04 3.021260051708e-03 0.0 
3.021260051708e-03 1.732467119469e-03 0.0 
0.0 0.0 -9.237120374330e-04 
-1.533799557255e-03 6.728038073689e-04 0.0 
6.728038073689e-04 8.237501439824e-03 0.0 
0.0 0.0 -1.236541257690e-03 
-8.719226860915e-04 7.267313533335e-04 0.0 
7.267313533335e-04 4.230245890387e-03 0.0 
0.0 0.0 -1.282325209426e-03 
2.964520960670e-04 -1.978928276592e-03 0.0 
-1.978928276592e-03 8.042557840210e-04 0.0 
0.0 0.0 -4.717319486092e-04 
1.319048487483e-04 -1.576566321261e-03 0.0 
-1.576566321261e-03 7.886992305850e-04 0.0 
0.0 0.0 -3.945446054286e-04 
1.817673251283e-04 1.876543985894e-03 0.0 
1.876543985894e-03 9.002005847285e-04 0.0 
0.0 0.0 -4.637005327958e-04 
-1.570049742763e-03 5.369425789645e-04 0.0 
5.369425789645e-04 6.963270594615e-03 0.0 
0.0 0.0 -1.019242131223e-03 
-9.308723645065e-04 -1.101236884891e-03 0.0 
-1.101236884891e-03 3.096386949501e-03 0.0 
0.0 0.0 -8.257845680531e-04 
-1.587305306336e-03 1.706805244546e-03 0.0 
1.706805244546e-03 7.938189703079e-03 0.0 
0.0 0.0 -1.241298427557e-03 
-4.566804084497e-04 -4.114264182866e-04 0.0 
-4.114264182866e-04 1.625098335496e-03 0.0 
0.0 0.0 -2.728146851408e-04 
-4.193612778590e-04 8.066391699243e-04 0.0 
8.066391699243e-04 3.619638834416e-03 0.0 
0.0 0.0 -1.221152601860e-03 
-1.613149922033e-03 6.729604599103e-04 0.0 
6.729604599103e-04 5.730913827298e-03 0.0 
0.0 0.0 -8.343732341398e-04 
-9.805029045404e-04 2.320290812643e-03 0.0 
2.320290812643e-03 4.821535310315e-03 0.0 
0.0 0.0 -1.286815605725e-03 
-1.972178768770e-04 2.471490219589e-03 0.0 
2.471490219589e-03 3.599121568157e-03 0.0 
0.0 0.0 -1.111121968474e-03 
-1.760642934702e-03 1.153303269584e-03 0.0 
1.153303269584e-03 5.427908306702e-03 0.0 
0.0 0.0 -8.465141837044e-04 
-8.764965121591e-04 -1.556039561585e-03 0.0 
-1.556039561585e-03 5.086777567782e-03 0.0 
0.0 0.0 -1.269142588751e-03 
-1.551933899349e-03 2.142615053803e-03 0.0 
2.142615053803e-03 8.208999000424e-03 0.0 
0.0 0.0 -1.272727265576e-03 
-1.482418812719e-03 2.636741981307e-04 0.0 
2.636741981307e-04 8.672320582664e-03 0.0 
0.0 0.0 -1.271339345674e-03 
2.794840770511e-04 1.877110949586e-03 0.0 
1.877110949586e-03 7.644572491491e-04 0.0 
0.0 0.0 -4.474034255144e-04 
-1.548384254494e-03 1.778472603870e-03 0.0 
1.778472603870e-03 7.853183226647e-03 0.0 
0.0 0.0 -1.218309553141e-03 
-1.238984078819e-03 3.237221125149e-03 0.0 
3.237221125149e-03 5.979697278194e-03 0.0 
0.0 0.0 -1.286645293131e-03 
-2.338452424878e-04 4.838955254747e-04 0.0 
4.838955254747e-04 3.810277403162e-03 0.0 
0.0 0.0 -1.211735819529e-03 
-2.641749654371e-04 2.730651329854e-03 0.0 
2.730651329854e-03 3.539043083142e-03 0.0 
0.0 0.0 -1.143254064081e-03 
-1.342665167303e-03 -1.913201158816e-03 0.0 
-1.913201158816e-03 6.140194887135e-03 0.0 
0.0 0.0 -1.342665167303e-03 
-1.336562494305e-03 3.148621666370e-03 0.0 
3.148621666370e-03 5.546558025077e-03 0.0 
0.0 0.0 -1.079065255302e-03 
0.0 0.0 0.0 
0.0 0.0 0.0 
0.0 0.0 0.0 
1.128782554056e-03 2.722430850094e-03 0.0 
2.722430850094e-03 3.671628183846e-04 0.0 
0.0 0.0 -6.411194453319e-04 
-1.438782275937e-03 2.878593628370e-03 0.0 
2.878593628370e-03 6.406037302073e-03 0.0 
0.0 0.0 -1.176936364471e-03 
-1.717609899646e-03 1.241798828460e-03 0.0 
1.241798828460e-03 5.908300544731e-03 0.0 
0.0 0.0 -8.884613587993e-04 
-1.780913372705e-03 -9.535977727778e-04 0.0 
-9.535977727778e-04 6.697114639858e-03 0.0 
0.0 0.0 -1.221994126432e-03 
-4.533386727007e-04 2.366129578243e-03 0.0 
2.366129578243e-03 4.141621556580e-03 0.0 
0.0 0.0 -1.177009544428e-03 
-1.321487320261e-03 -1.869174225829e-03 0.0 
-1.869174225829e-03 5.949052928407e-03 0.0 
0.0 0.0 -1.292249833993e-03 
-1.557982079132e-03 5.560473992337e-04 0.0 
5.560473992337e-04 7.430714466144e-03 0.0 
0.0 0.0 -1.085521458831e-03 
-9.906508321286e-04 2.010874064209e-03 0.0 
2.010874064209e-03 4.656220140669e-03 0.0 
0.0 0.0 -1.288973456333e-03 
-8.669493969727e-04 -1.781456295850e-03 0.0 
-1.781456295850e-03 4.656567585957e-03 0.0 
0.0 0.0 -1.233322439334e-03 
-8.389834207113e-04 -1.353105162080e-03 0.0 
-1.353105162080e-03 4.612963758963e-03 0.0 
0.0 0.0 -1.235043566395e-03 
-1.060688043098e-03 -7.830630523890e-04 0.0 
-7.830630523890e-04 3.332470677800e-03 0.0 
0.0 0.0 -8.113697483009e-04 
-1.399514092732e-03 -1.981208132211e-03 0.0 
-1.981208132211e-03 6.677395424695e-03 0.0 
0.0 0.0 -1.325641941534e-03 
-1.659266455691e-03 6.538953700681e-04 0.0 
6.538953700681e-04 5.459969626810e-03 0.0 
0.0 0.0 -7.662153309038e-04 
-1.522339522893e-03 2.785636433653e-04 0.0 
2.785636433653e-04 8.220976080768e-03 0.0 
0.0 0.0 -1.217406395242e-03 
2.069000998586e-04 -1.834555044401e-03 0.0 
-1.834555044401e-03 8.418202147660e-04 0.0 
0.0 0.0 -4.494515634106e-04 
-1.554320641115e-03 9.540049576088e-05 0.0 
9.540049576088e-05 8.023345832809e-03 0.0 
0.0 0.0 -1.163202487293e-03 
-1.605625159736e-03 1.859754007895e-04 0.0 
1.859754007895e-04 7.063048343461e-03 0.0 
0.0 0.0 -9.926133712568e-04 
1.071864880333e-03 1.610051896133e-04 0.0 
1.610051896133e-04 5.200375252643e-04 0.0 
0.0 0.0 -3.474471837849e-04 
1.832184275694e-03 -1.682280732148e-03 0.0 
-1.682280732148e-03 -1.155510517394e-03 0.0 
0.0 0.0 -2.900030392716e-04 
-1.244256880666e-03 3.271621003319e-03 0.0 
3.271621003319e-03 5.486132487448e-03 0.0 
0.0 0.0 -1.107581195644e-03 
-1.451044372397e-03 1.126612148562e-03 0.0 
1.126612148562e-03 8.289352558878e-03 0.0 
0.0 0.0 -1.285368862661e-03 
-1.527299749628e-03 6.691441746447e-05 0.0 
6.691441746447e-05 8.328526928916e-03 0.0 
0.0 0.0 -1.223917301752e-03 
-6.542601835067e-04 2.123935983624e-03 0.0 
2.123935983624e-03 4.536265029875e-03 0.0 
0.0 0.0 -1.264779455601e-03 
-1.569067467187e-03 4.931081965661e-04 0.0 
4.931081965661e-04 6.107235089411e-03 0.0 
0.0 0.0 -8.807565902733e-04 
9.036251718301e-04 -7.928332989266e-04 0.0 
-7.928332989266e-04 8.196583140466e-05 0.0 
0.0 0.0 -1.521090440113e-04 
0.0 0.0 0.0 
0.0 0.0 0.0 
0.0 0.0 0.0 
1.535104090838e-04 -8.781412906566e-04 0.0 
-8.781412906566e-04 3.080308650687e-04 0.0 
0.0 0.0 -1.564070233212e-04 
2.353484151011e-04 -2.169776398881e-03 0.0 
-2.169776398881e-03 1.011611602068e-03 0.0 
0.0 0.0 -5.344114359296e-04 
2.669647345412e-05 1.552033632529e-03 0.0 
1.552033632529e-03 -2.669647345412e-05 0.0 
0.0 0.0 0.0 
-1.313634282752e-03 -1.068658817985e-03 0.0 
-1.068658817985e-03 4.125079470398e-03 0.0 
0.0 0.0 -9.906016899089e-04 
-1.765538454854e-03 -6.603659762189e-04 0.0 
-6.603659762189e-04 6.689629757519e-03 0.0 
0.0 0.0 -1.222305993939e-03 
-1.487013992754e-03 2.874720261212e-03 0.0 
2.874720261212e-03 7.173251573241e-03 0.0 
0.0 0.0 -1.222833113937e-03 
-1.810465878115e-03 1.368618358307e-03 0.0 
1.368618358307e-03 5.754603684206e-03 0.0 
0.0 0.0 -8.826313165011e-04 
-9.427899726930e-04 -1.641697169279e-03 0.0 
-1.641697169279e-03 3.388954329502e-03 0.0 
0.0 0.0 -9.886704355714e-04 
-1.052300381815e-03 -2.069501750766e-03 0.0 
-2.069501750766e-03 5.090082794775e-03 0.0 
0.0 0.0 -1.221067908166e-03 
-3.450149565899e-04 -4.408348736528e-04 0.0 
-4.408348736528e-04 3.924699322023e-03 0.0 
0.0 0.0 -1.208702654310e-03 
-8.170914780341e-04 2.664423274710e-03 0.0 
2.664423274710e-03 5.146096323449e-03 0.0 
0.0 0.0 -1.272252409145e-03 
-1.123992376730e-03 3.068252591852e-03 0.0 
3.068252591852e-03 5.507273388894e-03 0.0 
0.0 0.0 -1.237422270938e-03 
-1.253834785736e-03 3.291285599942e-03 0.0 
3.291285599942e-03 5.877546624236e-03 0.0 
0.0 0.0 -1.171232062679e-03 
5.704301253037e-05 -1.249012332624e-03 0.0 
-1.249012332624e-03 7.024151054081e-04 0.0 
0.0 0.0 -3.254820505451e-04 
0.0 0.0 0.0 
0.0 0.0 0.0 
0.0 0.0 0.0 
-1.712539485778e-03 -1.411450056388e-03 0.0 
-1.411450056388e-03 6.539673002672e-03 0.0 
0.0 0.0 -1.223662873675e-03 
4.574946163465e-04 -1.248756071680e-04 0.0 
-1.248756071680e-04 4.764925333501e-04 0.0 
0.0 0.0 -3.004112795925e-04 
4.253951230566e-04 3.287859358848e-05 0.0 
3.287859358848e-05 7.852927410903e-04 0.0 
0.0 0.0 -3.059539021820e-04 
3.569372191111e-04 1.397839525162e-03 0.0 
1.397839525162e-03 1.545362028711e-04 0.0 
0.0 0.0 -2.192028951352e-04 
1.631271963867e-04 -1.346040378322e-03 0.0 
-1.346040378322e-03 7.094587977712e-04 0.0 
0.0 0.0 -2.452105594499e-04 
-1.114394941751e-03 -1.506329218264e-03 0.0 
-1.506329218264e-03 4.944157592562e-03 0.0 
0.0 0.0 -1.288571152055e-03 
-1.352715823829e-03 3.152231925611e-03 0.0 
3.152231925611e-03 6.563761337094e-03 0.0 
0.0 0.0 -1.290113636706e-03 
-1.510579169811e-03 9.854603377599e-04 0.0 
9.854603377599e-04 8.241359475843e-03 0.0 
0.0 0.0 -1.236907757659e-03 
-1.086519748050e-03 2.592005204986e-03 0.0 
2.592005204986e-03 5.044458595201e-03 0.0 
0.0 0.0 -1.292605224168e-03 
-2.276922230483e-04 -7.087333384445e-04 0.0 
-7.087333384445e-04 3.411401019740e-03 0.0 
0.0 0.0 -1.176879138244e-03 
-1.566246162816e-03 5.074519573883e-04 0.0 
5.074519573883e-04 6.374166084480e-03 0.0 
0.0 0.0 -9.170130443517e-04 
-1.345069444888e-03 1.513726926191e-03 0.0 
1.513726926191e-03 8.492915807412e-03 0.0 
0.0 0.0 -1.345069444888e-03 
1.877003485193e-03 -3.080309129991e-03 0.0 
-3.080309129991e-03 -5.962554255729e-04 0.0 
0.0 0.0 -5.488920255517e-04 
-1.475350828104e-03 1.976985984706e-04 0.0 
1.976985984706e-04 5.152730599786e-03 0.0 
0.0 0.0 -7.083073883397e-04 
7.042658253586e-04 -2.920094682842e-03 0.0 
-2.920094682842e-03 7.774626018425e-04 0.0 
0.0 0.0 -6.350264688005e-04 
7.675081391674e-04 -5.290525383807e-04 0.0 
-5.290525383807e-04 -3.861513785839e-05 0.0 
0.0 0.0 -2.518608130650e-04 
-1.493015975364e-03 -1.542117778823e-03 0.0 
-1.542117778823e-03 7.001843856807e-03 0.0 
0.0 0.0 -1.323850096553e-03 
-1.762927026530e-03 1.105745086140e-03 0.0 
1.105745086140e-03 5.347670343178e-03 0.0 
0.0 0.0 -7.731261162940e-04 
3.059071642176e-04 -4.769524246547e-04 0.0 
-4.769524246547e-04 1.116375202047e-03 0.0 
0.0 0.0 -3.136165521777e-04 
-1.289952526759e-03 -6.554530809443e-04 0.0 
-6.554530809443e-04 4.022238421528e-03 0.0 
0.0 0.0 -9.854929843998e-04 
-1.353447502636e-03 3.372255620603e-03 0.0 
3.372255620603e-03 6.903608554072e-03 0.0 
0.0 0.0 -1.276804206569e-03 
-1.580153705301e-03 9.463034913401e-04 0.0 
9.463034913401e-04 8.179177676168e-03 0.0 
0.0 0.0 -1.228616961883e-03 
-1.459295938370e-03 2.235750315535e-03 0.0 
2.235750315535e-03 7.840317348904e-03 0.0 
0.0 0.0 -1.289666537713e-03 
-1.042366719392e-03 -4.130279661277e-04 0.0 
-4.130279661277e-04 3.166645294064e-03 0.0 
0.0 0.0 -7.209785830746e-04 
0.0 0.0 0.0 
0.0 0.0 0.0 
0.0 0.0 0.0 
-1.330660736049e-03 -2.112854558462e-03 0.0 
-2.112854558462e-03 6.026587435622e-03 0.0 
0.0 0.0 -1.273144391159e-03 
-1.420679226607e-03 1.845062484055e-04 0.0 
1.845062484055e-04 8.984274218415e-03 0.0 
0.0 0.0 -1.325353038101e-03 
-1.599270300318e-03 -4.031472723049e-04 0.0 
-4.031472723049e-04 7.370420628954e-03 0.0 
0.0 0.0 -1.323783523096e-03 
-1.454892267765e-03 1.410388417337e-04 0.0 
1.410388417337e-04 5.404570969644e-03 0.0 
0.0 0.0 -7.673431308700e-04 
-5.798667066363e-04 -4.017993081382e-04 0.0 
-4.017993081382e-04 3.786051546347e-03 0.0 
0.0 0.0 -1.231867668451e-03 
-2.703199839151e-04 -3.327091265360e-04 0.0 
-3.327091265360e-04 1.134795808800e-03 0.0 
0.0 0.0 -2.923189298614e-04 
-1.540435464510e-03 1.974801601423e-03 0.0 
1.974801601423e-03 7.945053936292e-03 0.0 
0.0 0.0 -1.241575510934e-03 
7.093719106213e-04 -6.473525039570e-04 0.0 
-6.473525039570e-04 -6.146240833119e-06 0.0 
0.0 0.0 -2.201278046225e-04 
-1.035309467580e-03 -9.652751717972e-04 0.0 
-9.652751717972e-04 4.607784315543e-03 0.0 
0.0 0.0 -1.290713494763e-03 
-1.546892534215e-03 2.536580836788e-03 0.0 
2.536580836788e-03 7.963102419275e-03 0.0 
0.0 0.0 -1.268585396830e-03 
0.0 0.0 0.0 
0.0 0.0 0.0 
0.0 0.0 0.0 
-7.125328406643e-04 2.854381537959e-03 0.0 
2.854381537959e-03 4.690081759982e-03 0.0 
0.0 0.0 -1.178018281593e-03 
-1.581615712652e-03 6.406846432010e-05 0.0 
6.406846432010e-05 7.204958832163e-03 0.0 
0.0 0.0 -1.053859681778e-03 
-1.422126824857e-03 8.354035890497e-04 0.0 
8.354035890497e-04 8.383690559568e-03 0.0 
0.0 0.0 -1.289687241943e-03 
-1.346242744377e-03 1.394088556631e-03 0.0 
1.394088556631e-03 5.074174046536e-03 0.0 
0.0 0.0 -1.346242744377e-03 
-1.579226085277e-03 -2.236352472968e-04 0.0 
-2.236352472968e-04 6.673772320033e-03 0.0 
0.0 0.0 -9.627310317561e-04 
-1.352695242601e-03 3.190608641684e-03 0.0 
3.190608641684e-03 6.804006829943e-03 0.0 
0.0 0.0 -1.292510612804e-03 
-1.606507542629e-03 2.038310361331e-03 0.0 
2.038310361331e-03 7.743565210436e-03 0.0 
0.0 0.0 -1.236507170568e-03 
-1.568883613753e-03 1.757297800362e-04 0.0 
1.757297800362e-04 6.816128580048e-03 0.0 
0.0 0.0 -1.009625451247e-03 
-1.338198193755e-03 3.094920805743e-03 0.0 
3.094920805743e-03 6.452958212167e-03 0.0 
0.0 0.0 -1.247605899893e-03 
-1.069270980668e-03 -8.397930297141e-04 0.0 
-8.397930297141e-04 3.454365731416e-03 0.0 
0.0 0.0 -9.078723690805e-04 
-1.462959848022e-03 3.355807606363e-05 0.0 
3.355807606363e-05 4.925884328863e-03 0.0 
0.0 0.0 -7.287847301676e-04 
-7.853622933110e-04 2.799478897718e-03 0.0 
2.799478897718e-03 4.730479437110e-03 0.0 
0.0 0.0 -1.239219007812e-03 
-1.427801408329e-03 2.279610176079e-04 0.0 
2.279610176079e-04 8.599854493521e-03 0.0 
0.0 0.0 -1.286506427510e-03 
2.364174244584e-03 -3.920966346370e-05 0.0 
-3.920966346370e-05 -9.416422440926e-04 0.0 
0.0 0.0 -1.658991634594e-04 
-1.429614866782e-03 7.018012440351e-05 0.0 
7.018012440351e-05 4.945453144079e-03 0.0 
0.0 0.0 -7.284590636140e-04 
-1.619941162379e-03 -3.710140945832e-04 0.0 
-3.710140945832e-04 7.072586371596e-03 0.0 
0.0 0.0 -1.288082484959e-03 
-4.257310582937e-04 -7.375837559217e-04 0.0 
-7.375837559217e-04 1.550072552707e-03 0.0 
0.0 0.0 -4.679105978332e-04 
-2.651775118790e-04 1.741696615315e-04 0.0 
1.741696615315e-04 3.934086569527e-03 0.0 
0.0 0.0 -1.213252366005e-03 
-1.592381110183e-03 2.367463417435e-03 0.0 
2.367463417435e-03 7.496929060090e-03 0.0 
0.0 0.0 -1.225943235494e-03 
-1.523630465134e-03 6.434168762766e-04 0.0 
6.434168762766e-04 8.597347826225e-03 0.0 
0.0 0.0 -1.269037835114e-03 
-5.242932188711e-04 -5.062352980044e-04 0.0 
-5.062352980044e-04 1.580681758625e-03 0.0 
0.0 0.0 -3.173190315717e-04 
9.435665947915e-04 2.759812172338e-03 0.0 
2.759812172338e-03 -2.448701844830e-04 0.0 
0.0 0.0 -2.994413187036e-04 
-1.588603004087e-03 1.309858719882e-04 0.0 
1.309858719882e-04 4.764403352260e-03 0.0 
0.0 0.0 -1.056762885644e-03 
-1.577119311605e-03 2.587547752196e-04 0.0 
2.587547752196e-04 7.701946830658e-03 0.0 
0.0 0.0 -1.120841203304e-03 
0.0 0.0 0.0 
0.0 0.0 0.0 
0.0 0.0 0.0 
-1.448426484907e-03 1.878765382125e-03 0.0 
1.878765382125e-03 8.065670326291e-03 0.0 
0.0 0.0 -1.292233508669e-03 
-1.560868544091e-03 1.573692905966e-04 0.0 
1.573692905966e-04 6.444251121821e-03 0.0 
0.0 0.0 -9.501928138396e-04 
9.548640501235e-04 -2.932790788742e-03 0.0 
-2.932790788742e-03 4.477362362625e-04 0.0 
0.0 0.0 -6.011144084512e-04 
-1.577095330701e-03 2.356135282763e-04 0.0 
2.356135282763e-04 6.152695530289e-03 0.0 
0.0 0.0 -9.030544305944e-04 
-9.123359041244e-04 2.767752077309e-03 0.0 
2.767752077309e-03 5.381455446983e-03 0.0 
0.0 0.0 -1.271643562581e-03 
-1.672772992247e-03 -3.658378199310e-04 0.0 
-3.658378199310e-04 4.968645958279e-03 0.0 
0.0 0.0 -1.058796759180e-03 
-3.241504087852e-04 2.815279784434e-03 0.0 
2.815279784434e-03 3.241504087852e-04 0.0 
0.0 0.0 0.0 
-9.352736057356e-04 -8.421943932676e-04 0.0 
-8.421943932676e-04 3.140704490616e-03 0.0 
0.0 0.0 -9.009998304000e-04 
-1.402484368002e-03 -1.042823096176e-03 0.0 
-1.042823096176e-03 4.352884265014e-03 0.0 
0.0 0.0 -1.017945853013e-03 
-1.735012846972e-03 1.716303062956e-04 0.0 
1.716303062956e-04 5.112807218002e-03 0.0 
0.0 0.0 -1.063010248388e-03 
-5.677318458841e-04 1.906245464939e-03 0.0 
1.906245464939e-03 4.337997414081e-03 0.0 
0.0 0.0 -1.232780192057e-03 
-1.357670205510e-03 -6.381368347671e-04 0.0 
-6.381368347671e-04 4.227863364473e-03 0.0 
0.0 0.0 -1.035743023508e-03 
-1.479273144233e-03 -6.656278634480e-04 0.0 
-6.656278634480e-04 4.508927527855e-03 0.0 
0.0 0.0 -1.032702936181e-03 
1.040523643933e-04 -1.090937755128e-03 0.0 
-1.090937755128e-03 5.650850241542e-04 0.0 
0.0 0.0 -2.287174616664e-04 
-1.350567245042e-03 -1.731169106789e-03 0.0 
-1.731169106789e-03 5.793216621325e-03 0.0 
0.0 0.0 -1.240629869904e-03 
-1.027503594671e-03 3.327843857872e-03 0.0 
3.327843857872e-03 5.261023074075e-03 0.0 
0.0 0.0 -1.186362110037e-03 
1.189612951575e-03 2.308398015229e-03 0.0 
2.308398015229e-03 -4.894900924091e-04 0.0 
0.0 0.0 -3.000526539282e-04 
-1.387676757457e-03 4.952672058335e-05 0.0 
4.952672058335e-05 8.504316401028e-03 0.0 
0.0 0.0 -1.290349483557e-03 
-1.582576424774e-03 -1.560547969950e-04 0.0 
-1.560547969950e-04 7.007946096611e-03 0.0 
0.0 0.0 -1.290356026000e-03 
-1.460183445125e-03 -1.247594329356e-04 0.0 
-1.247594329356e-04 5.521441348557e-03 0.0 
0.0 0.0 -7.639788432047e-04 
-1.578918019610e-03 1.294379469898e-04 0.0 
1.294379469898e-04 6.639288700401e-03 0.0 
0.0 0.0 -9.358343396975e-04 
-1.420511664925e-03 -7.103380260756e-04 0.0 
-7.103380260756e-04 4.349288440906e-03 0.0 
0.0 0.0 -1.005720210571e-03 
-1.359175063422e-03 -8.855188390870e-04 0.0 
-8.855188390870e-04 4.258136974865e-03 0.0 
0.0 0.0 -1.040482674164e-03 
-1.527056262754e-03 -5.709073839489e-04 0.0 
-5.709073839489e-04 4.609671028000e-03 0.0 
0.0 0.0 -1.028873814706e-03 
-1.501496450629e-04 5.539703397871e-04 0.0 
5.539703397871e-04 3.298271412421e-03 0.0 
0.0 0.0 -1.180929064624e-03 
7.927858436439e-04 -3.045537929079e-03 0.0 
-3.045537929079e-03 8.494276970912e-04 0.0 
0.0 0.0 -7.038058031722e-04 
-1.116381248406e-03 3.165697137737e-03 0.0 
3.165697137737e-03 5.872062490069e-03 0.0 
0.0 0.0 -1.217816617926e-03 
-1.516247589342e-03 1.508277039824e-04 0.0 
1.508277039824e-04 5.685216966324e-03 0.0 
0.0 0.0 -8.376728236383e-04 
-1.571303365585e-03 1.703335586913e-03 0.0 
1.703335586913e-03 8.300700874157e-03 0.0 
0.0 0.0 -1.272153791098e-03 
-1.928595014899e-04 9.704790717136e-05 0.0 
9.704790717136e-05 3.265405422004e-03 0.0 
0.0 0.0 -1.181257232468e-03 
-1.580055462922e-03 1.466056733213e-04 0.0 
1.466056733213e-04 6.354105997974e-03 0.0 
0.0 0.0 -8.902468719968e-04 
-1.338698042931e-03 3.178297097849e-03 0.0 
3.178297097849e-03 6.247787653213e-03 0.0 
0.0 0.0 -1.201032862555e-03 
-6.620052052400e-04 2.218466919512e-03 0.0 
2.218466919512e-03 4.229615591751e-03 0.0 
0.0 0.0 -1.236767197193e-03 
-7.541183664370e-04 2.280565164163e-03 0.0 
2.280565164163e-03 4.995952357256e-03 0.0 
0.0 0.0 -1.270271405117e-03 
1.293451072768e-04 1.010666469426e-03 0.0 
1.010666469426e-03 -1.293451072768e-04 0.0 
0.0 0.0 0.0 
-1.368734881355e-03 2.988428396573e-03 0.0 
2.988428396573e-03 6.291274088760e-03 0.0 
0.0 0.0 -1.198686027802e-03 
-1.300476394130e-03 3.433743793017e-03 0.0 
3.433743793017e-03 6.406654162985e-03 0.0 
0.0 0.0 -1.227078865044e-03 
7.248957313196e-04 -1.043101674158e-03 0.0 
-1.043101674158e-03 5.245352296454e-04 0.0 
0.0 0.0 -2.668574800815e-04 
-1.256459332456e-03 -8.842282026345e-04 0.0 
-8.842282026345e-04 4.000740750754e-03 0.0 
0.0 0.0 -1.019774149770e-03 
0.0 0.0 0.0 
0.0 0.0 0.0 
0.0 0.0 0.0 
-1.414281382184e-03 3.115423266543e-03 0.0 
3.115423266543e-03 6.751118296047e-03 0.0 
0.0 0.0 -1.230789928679e-03 
-1.098885735000e-03 -9.932841691003e-05 0.0 
-9.932841691003e-05 3.711008544298e-03 0.0 
0.0 0.0 -5.155555555556e-04 
-1.168462067443e-03 -8.558937578339e-06 0.0 
-8.558937578339e-06 3.528865523027e-03 0.0 
0.0 0.0 -5.377777777778e-04 
-1.101644165090e-03 -4.995934151532e-05 0.0 
-4.995934151532e-05 3.841935165134e-03 0.0 
0.0 0.0 -5.155555555556e-04 
-1.170694924485e-03 -8.717992149991e-05 0.0 
-8.717992149991e-05 3.536462684656e-03 0.0 
0.0 0.0 -5.377777777778e-04 
-1.107599872119e-03 -6.223086959302e-05 0.0 
-6.223086959302e-05 3.845472707205e-03 0.0 
0.0 0.0 -5.155555555556e-04 
-1.181271355677e-03 -1.042178337503e-04 0.0 
-1.042178337503e-04 3.538247230035e-03 0.0 
0.0 0.0 -5.377777777778e-04 
-1.117752315047e-03 -7.784351567095e-05 0.0 
-7.784351567095e-05 3.846307941154e-03 0.0 
0.0 0.0 -5.155555555556e-04 
-1.192658306015e-03 -1.193867036393e-04 0.0 
-1.193867036393e-04 3.539182551016e-03 0.0 
0.0 0.0 -5.377777777778e-04 
-1.130767921787e-03 -8.794783012842e-05 0.0 
-8.794783012842e-05 3.845743987908e-03 0.0 
0.0 0.0 -5.155555555556e-04 
-1.210173940783e-03 -1.287275247693e-04 0.0 
-1.287275247693e-04 3.541285429521e-03 0.0 
0.0 0.0 -5.377777777778e-04 
-1.147405946802e-03 -9.309166024428e-05 0.0 
-9.309166024428e-05 3.846138881089e-03 0.0 
0.0 0.0 -5.155555555556e-04 
-1.230284092040e-03 -1.329076598989e-04 0.0 
-1.329076598989e-04 3.543463507866e-03 0.0 
0.0 0.0 -5.377777777778e-04 
-1.167594603574e-03 -9.130051004344e-05 0.0 
-9.130051004344e-05 3.846054057724e-03 0.0 
0.0 0.0 -5.155555555556e-04 
-1.257222365411e-03 -1.323215631345e-04 0.0 
-1.323215631345e-04 3.545265649495e-03 0.0 
0.0 0.0 -5.377777777778e-04 
-1.190679714427e-03 -8.065933747456e-05 0.0 
-8.065933747456e-05 3.844271498324e-03 0.0 
0.0 0.0 -5.155555555556e-04 
-1.072061725773e-03 1.181075520675e-03 0.0 
1.181075520675e-03 3.333527226650e-03 0.0 
0.0 0.0 -7.283378183804e-04 
-1.281962566836e-03 -1.205561474005e-04 0.0 
-1.205561474005e-04 3.543719900527e-03 0.0 
0.0 0.0 -5.377777777778e-04 
-1.019291723586e-03 1.089044048788e-03 0.0 
1.089044048788e-03 3.195052180348e-03 0.0 
0.0 0.0 -7.244127351333e-04 
-1.216630828162e-03 -5.217094280109e-05 0.0 
-5.217094280109e-05 3.837261921334e-03 0.0 
0.0 0.0 -5.155555555556e-04 
-1.278612193971e-03 -8.527996152039e-05 0.0 
-8.527996152039e-05 3.532526708308e-03 0.0 
0.0 0.0 -5.485944179258e-04 
-1.248566532597e-03 -8.063337581444e-06 0.0 
-8.063337581444e-06 3.832196745573e-03 0.0 
0.0 0.0 -5.155555555556e-04 
-1.265136211354e-03 -3.710354583219e-05 0.0 
-3.710354583219e-05 3.516310959499e-03 0.0 
0.0 0.0 -5.642304945314e-04 
-1.285253076073e-03 5.378705676948e-05 0.0 
5.378705676948e-05 3.825167274507e-03 0.0 
0.0 0.0 -5.155555555556e-04 
-1.249016317751e-03 2.783290865771e-05 0.0 
2.783290865771e-05 3.495315634217e-03 0.0 
0.0 0.0 -5.808897987891e-04 
-1.009506465037e-03 1.312718317251e-03 0.0 
1.312718317251e-03 3.173615454217e-03 0.0 
0.0 0.0 -6.840081157839e-04 
-1.325793724936e-03 1.409910150458e-04 0.0 
1.409910150458e-04 3.811895021444e-03 0.0 
0.0 0.0 -5.155555555556e-04 
-1.228491986619e-03 1.177167741922e-04 0.0 
1.177167741922e-04 3.467495695501e-03 0.0 
0.0 0.0 -6.000309252581e-04 
-1.370873242614e-03 2.586300978522e-04 0.0 
2.586300978522e-04 3.792690245387e-03 0.0 
0.0 0.0 -5.155555555556e-04 
-1.200813378474e-03 2.299684609271e-04 0.0 
2.299684609271e-04 3.428363493249e-03 0.0 
0.0 0.0 -6.226598288582e-04 
-1.373356089150e-03 4.171425679384e-04 0.0 
4.171425679384e-04 3.744750078480e-03 0.0 
0.0 0.0 -5.289384626357e-04 
-1.172212083606e-03 4.058181090915e-04 0.0 
4.058181090915e-04 3.389456744915e-03 0.0 
0.0 0.0 -6.422847164987e-04 
-1.331867317601e-03 6.009358889080e-04 0.0 
6.009358889080e-04 3.691337826045e-03 0.0 
0.0 0.0 -5.597688379707e-04 
-1.124375463142e-03 5.598543092856e-04 0.0 
5.598543092856e-04 3.325139889709e-03 0.0 
0.0 0.0 -6.782083763712e-04 
-1.081971884868e-03 8.414092324740e-04 0.0 
8.414092324740e-04 3.267902520726e-03 0.0 
0.0 0.0 -6.895475544463e-04 
-1.262668952542e-03 8.256947026051e-04 0.0 
8.256947026051e-04 3.589844959231e-03 0.0 
0.0 0.0 -5.971186907353e-04 
-1.015537556123e-03 1.423057567146e-03 0.0 
1.423057567146e-03 3.272421342693e-03 0.0 
0.0 0.0 -7.495201701545e-04 
-1.195815340391e-03 1.081747061634e-03 0.0 
1.081747061634e-03 3.513584158614e-03 0.0 
0.0 0.0 -6.415873553655e-04 
-9.462070743913e-04 1.295476114312e-03 0.0 
1.295476114312e-03 3.105537056446e-03 0.0 
0.0 0.0 -7.626685037360e-04 
-1.189132313752e-03 -3.719683768529e-04 0.0 
-3.719683768529e-04 3.742930454027e-03 0.0 
0.0 0.0 -5.266666666667e-04 
-1.078621173226e-03 3.329266509439e-04 0.0 
3.329266509439e-04 3.544627002251e-03 0.0 
0.0 0.0 -5.266666666667e-04 
-1.179143088157e-03 -5.341908987877e-05 0.0 
-5.341908987877e-05 3.711783890135e-03 0.0 
0.0 0.0 -5.488888888889e-04 
-1.086602714393e-03 2.829903387263e-05 0.0 
2.829903387263e-05 3.587438639290e-03 0.0 
0.0 0.0 -5.044444444444e-04 
-8.701615349701e-04 1.534050088586e-03 0.0 
1.534050088586e-03 2.982960737759e-03 0.0 
0.0 0.0 -7.564843357160e-04 
-1.281957485101e-03 -9.385206070326e-05 0.0 
-9.385206070326e-05 4.159171467776e-03 0.0 
0.0 0.0 -6.044444444444e-04 
-1.212906511887e-03 8.437755052735e-06 0.0 
8.437755052735e-06 4.332528287739e-03 0.0 
0.0 0.0 -5.822222222222e-04 
-1.270813931325e-03 -4.040562334661e-05 0.0 
-4.040562334661e-05 4.018667514915e-03 0.0 
0.0 0.0 -6.044444444444e-04 
-1.215139368930e-03 -5.723684032478e-05 0.0 
-5.723684032478e-05 4.317315307501e-03 0.0 
0.0 0.0 -5.822222222222e-04 
-1.281549970565e-03 -2.783058806924e-05 0.0 
-2.783058806924e-05 4.009142892880e-03 0.0 
0.0 0.0 -6.044444444444e-04 
-1.225715800122e-03 -5.846153113734e-05 0.0 
-5.846153113734e-05 4.321112834897e-03 0.0 
0.0 0.0 -5.822222222222e-04 
-1.299500121220e-03 -3.892246035712e-05 0.0 
-3.892246035712e-05 4.013014100261e-03 0.0 
0.0 0.0 -6.044444444444e-04 
-1.237102750459e-03 -6.373558927260e-05 0.0 
-6.373558927260e-05 4.316061582639e-03 0.0 
0.0 0.0 -5.822222222222e-04 
-1.310225087603e-03 -3.096991785550e-05 0.0 
-3.096991785550e-05 4.010869733645e-03 0.0 
0.0 0.0 -6.044444444444e-04 
-1.254618385227e-03 -5.449007521454e-05 0.0 
-5.449007521454e-05 4.318709008563e-03 0.0 
0.0 0.0 -5.822222222222e-04 
-1.336238080201e-03 -2.665442879324e-05 0.0 
-2.665442879324e-05 4.014359818630e-03 0.0 
0.0 0.0 -6.044444444444e-04 
-1.274728536484e-03 -4.422787035067e-05 0.0 
-4.422787035067e-05 4.314650827642e-03 0.0 
0.0 0.0 -5.822222222222e-04 
-1.357159993559e-03 -4.580559540248e-06 0.0 
-4.580559540248e-06 4.014254519705e-03 0.0 
0.0 0.0 -6.044444444444e-04 
-1.347537318405e-03 1.010824294751e-03 0.0 
1.010824294751e-03 3.920037731601e-03 0.0 
0.0 0.0 -7.117109445114e-04 
-1.301666809856e-03 -2.047408919469e-05 0.0 
-2.047408919469e-05 4.318063477050e-03 0.0 
0.0 0.0 -5.822222222222e-04 
-1.391706891411e-03 2.751450344882e-06 0.0 
2.751450344882e-06 4.016171820733e-03 0.0 
0.0 0.0 -6.044444444444e-04 
-1.286495538148e-03 1.141604132091e-03 0.0 
1.141604132091e-03 3.755942445139e-03 0.0 
0.0 0.0 -6.690433100420e-04 
-1.326407011280e-03 6.045508856538e-06 0.0 
6.045508856538e-06 4.301570573764e-03 0.0 
0.0 0.0 -5.822222222222e-04 
-1.418163902024e-03 5.346625199558e-05 0.0 
5.346625199558e-05 4.007884251177e-03 0.0 
0.0 0.0 -6.044444444444e-04 
-1.269919325548e-03 9.693842664938e-04 0.0 
9.693842664938e-04 3.741904716454e-03 0.0 
0.0 0.0 -7.168342214570e-04 
-1.359108424707e-03 6.264265058965e-05 0.0 
6.264265058965e-05 4.294165002256e-03 0.0 
0.0 0.0 -5.822222222222e-04 
-1.457002779349e-03 1.155195072583e-04 0.0 
1.155195072583e-04 4.005151940014e-03 0.0 
0.0 0.0 -6.044444444444e-04 
-1.397754652771e-03 1.342537055091e-04 0.0 
1.342537055091e-04 4.286646401950e-03 0.0 
0.0 0.0 -5.822222222222e-04 
-1.439433466702e-03 1.791245333921e-04 0.0 
1.791245333921e-04 3.981926727275e-03 0.0 
0.0 0.0 -6.212763874705e-04 
-1.437165891528e-03 2.256325768342e-04 0.0 
2.256325768342e-04 4.266187057435e-03 0.0 
0.0 0.0 -5.822222222222e-04 
-1.294521127295e-03 1.255121558487e-03 0.0 
1.255121558487e-03 3.846810996671e-03 0.0 
0.0 0.0 -7.256046805931e-04 
-1.416692839753e-03 2.731618170809e-04 0.0 
2.731618170809e-04 3.949147984694e-03 0.0 
0.0 0.0 -6.388990248527e-04 
-1.480404564063e-03 3.507234002411e-04 0.0 
3.507234002411e-04 4.240406141116e-03 0.0 
0.0 0.0 -5.822222222222e-04 
-1.527971474499e-03 5.064010242542e-04 0.0 
5.064010242542e-04 4.210902708310e-03 0.0 
0.0 0.0 -5.822222222222e-04 
-1.387518079071e-03 3.943188623073e-04 0.0 
3.943188623073e-04 3.907645916582e-03 0.0 
0.0 0.0 -6.603292536270e-04 
-1.489199031895e-03 7.040012771420e-04 0.0 
7.040012771420e-04 4.109006438777e-03 0.0 
0.0 0.0 -6.048139398938e-04 
-1.345551405801e-03 5.089205632429e-04 0.0 
5.089205632429e-04 3.844893580165e-03 0.0 
0.0 0.0 -6.886802823100e-04 
-1.449968692027e-03 9.453817318756e-04 0.0 
9.453817318756e-04 4.074908376766e-03 0.0 
0.0 0.0 -6.381145674715e-04 
-1.311416027678e-03 7.842300283395e-04 0.0 
7.842300283395e-04 3.792994805538e-03 0.0 
0.0 0.0 -6.930958846255e-04 
-1.191921020040e-03 1.114101255005e-03 0.0 
1.114101255005e-03 3.585331380848e-03 0.0 
0.0 0.0 -7.187225406772e-04 
-1.177806506474e-03 -3.598193330075e-04 0.0 
-3.598193330075e-04 4.111442480075e-03 0.0 
0.0 0.0 -5.933333333333e-04 
-1.298614317116e-03 3.518912234694e-04 0.0 
3.518912234694e-04 4.327861140627e-03 0.0 
0.0 0.0 -5.933333333333e-04 
-1.201365310379e-03 -4.039072614176e-05 0.0 
-4.039072614176e-05 4.155647570895e-03 0.0 
0.0 0.0 -5.711111111111e-04 
-1.277329052135e-03 4.889702624734e-05 0.0 
4.889702624734e-05 4.269846773222e-03 0.0 
0.0 0.0 -6.155555555555e-04 
-1.165172176686e-03 1.355369621706e-03 0.0 
1.355369621706e-03 3.569481016305e-03 0.0 
0.0 0.0 -7.239602392282e-04 
-1.326401929546e-03 -1.098251756258e-04 0.0 
-1.098251756258e-04 4.716210200324e-03 0.0 
0.0 0.0 -6.488888888889e-04 
-1.341042556431e-03 -1.497445551792e-05 0.0 
-1.497445551792e-05 4.487654478362e-03 0.0 
0.0 0.0 -6.711111111111e-04 
-1.315258375770e-03 -3.279398266088e-06 0.0 
-3.279398266088e-06 4.798065319814e-03 0.0 
0.0 0.0 -6.488888888889e-04 
-1.368317620788e-03 -1.903812859008e-05 0.0 
-1.903812859008e-05 4.498221230458e-03 0.0 
0.0 0.0 -6.711111111111e-04 
-1.325994415009e-03 1.380554954630e-05 0.0 
1.380554954630e-05 4.806277874424e-03 0.0 
0.0 0.0 -6.488888888889e-04 
-1.380848091197e-03 -1.506252807686e-07 0.0 
-1.506252807686e-07 4.508257602630e-03 0.0 
0.0 0.0 -6.711111111111e-04 
-1.343944565664e-03 7.917736370567e-06 0.0 
7.917736370567e-06 4.818216293294e-03 0.0 
0.0 0.0 -6.488888888889e-04 
-1.386616382160e-03 -2.067760603014e-05 0.0 
-2.067760603014e-05 4.497592293928e-03 0.0 
0.0 0.0 -6.711111111111e-04 
-1.354669532048e-03 3.875023501283e-05 0.0 
3.875023501283e-05 4.799753708961e-03 0.0 
0.0 0.0 -6.488888888889e-04 
-1.406907359723e-03 3.160898061574e-05 0.0 
3.160898061574e-05 4.503118169212e-03 0.0 
0.0 0.0 -6.711111111111e-04 
-1.380682524645e-03 5.561565498039e-05 0.0 
5.561565498039e-05 4.809868159536e-03 0.0 
0.0 0.0 -6.488888888889e-04 
-1.435189363615e-03 3.130270196416e-05 0.0 
3.130270196416e-05 4.499809120004e-03 0.0 
0.0 0.0 -6.711111111111e-04 
-1.611535782568e-03 8.671279044143e-04 0.0 
8.671279044143e-04 4.506015908724e-03 0.0 
0.0 0.0 -7.049993574243e-04 
-1.401604438003e-03 9.330713447470e-05 0.0 
9.330713447470e-05 4.797672975585e-03 0.0 
0.0 0.0 -6.488888888889e-04 
-1.512351284449e-03 8.656230693377e-04 0.0 
8.656230693377e-04 4.297202840087e-03 0.0 
0.0 0.0 -7.256265952625e-04 
-1.438154550875e-03 9.647646109404e-05 0.0 
9.647646109404e-05 4.497364060681e-03 0.0 
0.0 0.0 -6.711111111111e-04 
-1.436151335856e-03 1.358395788754e-04 0.0 
1.358395788754e-04 4.800332653133e-03 0.0 
0.0 0.0 -6.488888888889e-04 
-1.499230372271e-03 1.062721523167e-04 0.0 
1.062721523167e-04 4.489570327750e-03 0.0 
0.0 0.0 -6.711111111111e-04 
-1.462608346469e-03 2.027818769099e-04 0.0 
2.027818769099e-04 4.774125764298e-03 0.0 
0.0 0.0 -6.488888888889e-04 
-1.532724437083e-03 1.968943510655e-04 0.0 
1.968943510655e-04 4.482722825432e-03 0.0 
0.0 0.0 -6.711111111111e-04 
-1.501447223794e-03 2.766209172912e-04 0.0 
2.766209172912e-04 4.769601642763e-03 0.0 
0.0 0.0 -6.488888888889e-04 
-1.557872225570e-03 2.720774980370e-04 0.0 
2.720774980370e-04 4.471068660141e-03 0.0 
0.0 0.0 -6.711111111111e-04 
-1.549932705829e-03 1.034482702559e-03 0.0 
1.034482702559e-03 4.338594692453e-03 0.0 
0.0 0.0 -6.619668726724e-04 
-1.539964497909e-03 3.703806189017e-04 0.0 
3.703806189017e-04 4.750827424066e-03 0.0 
0.0 0.0 -6.488888888889e-04 
-1.593531228853e-03 3.628458802930e-04 0.0 
3.628458802930e-04 4.447964373288e-03 0.0 
0.0 0.0 -6.711111111111e-04 
-1.575889340432e-03 4.997462669703e-04 0.0 
4.997462669703e-04 4.711328261492e-03 0.0 
0.0 0.0 -6.488888888889e-04 
-1.590906187641e-03 5.071802277050e-04 0.0 
5.071802277050e-04 4.406658573059e-03 0.0 
0.0 0.0 -6.802731460288e-04 
-1.553155722451e-03 6.861757538348e-04 0.0 
6.861757538348e-04 4.351637703117e-03 0.0 
0.0 0.0 -7.011174395038e-04 
-1.617910879156e-03 6.689844391721e-04 0.0 
6.689844391721e-04 4.669016158580e-03 0.0 
0.0 0.0 -6.488888888889e-04 
-1.669910948397e-03 8.547088690357e-04 0.0 
8.547088690357e-04 4.635783510319e-03 0.0 
0.0 0.0 -6.488888888889e-04 
-1.565389776433e-03 1.113185015486e-03 0.0 
1.113185015486e-03 4.431052665958e-03 0.0 
0.0 0.0 -7.101757656324e-04 
-1.445746577220e-03 9.960480725557e-04 0.0 
9.960480725557e-04 4.140494100543e-03 0.0 
0.0 0.0 -7.083488828164e-04 
-1.382040473179e-03 -3.190058038896e-04 0.0 
-3.190058038896e-04 4.672355147485e-03 0.0 
0.0 0.0 -6.600000000000e-04 
-1.311697345882e-03 3.879464369525e-04 0.0 
3.879464369525e-04 4.545991971317e-03 0.0 
0.0 0.0 -6.600000000000e-04 
-1.392413986569e-03 1.825900643476e-05 0.0 
1.825900643476e-05 4.677427317752e-03 0.0 
0.0 0.0 -6.822222222222e-04 
-1.299551274357e-03 6.542939229750e-05 0.0 
6.542939229750e-05 4.553563985542e-03 0.0 
0.0 0.0 -6.377777777778e-04 
-1.453247710607e-03 1.192137069286e-03 0.0 
1.192137069286e-03 4.178885573169e-03 0.0 
0.0 0.0 -7.047837856643e-04 

SCALARS element_materi_plasti_kappa_shear float
LOOKUP_TABLE default
2.638449368411e-03
2.307880314974e-03
5.668059790692e-03
5.685840565928e-03
3.968724762264e-03
2.227775623384e-03
3.926609063437e-03
2.603981897009e-03
3.959861142706e-03
5.676159459017e-03
3.789460879762e-03
2.166184027025e-03
4.891618303360e-03
4.239593676266e-03
4.915486508882e-03
5.763080812267e-03
3.957109970888e-03
9.864085158714e-05
1.385502992053e-03
1.310811347843e-03
5.684919687706e-03
2.668003560693e-03
2.830444855211e-03
2.887992383095e-03
4.492952651090e-03
3.999825579596e-03
3.772973464484e-03
4.950933107395e-03
4.446798420902e-03
3.154878546999e-03
2.756846244610e-03
9.905717093618e-04
5.968283596401e-03
4.581378283716e-03
4.439297578914e-03
4.887177070447e-03
5.091662130986e-03
3.236750732307e-03
3.615750744496e-03
3.662711387174e-03
3.132788783305e-03
4.003574433579e-03
2.231218125306e-03
3.619781891395e-03
5.614862315127e-03
2.308537538977e-03
2.567928975722e-03
5.479464518158e-03
8.195853011298e-04
4.082692105509e-03
3.028705324844e-03
1.800022130003e-03
3.293726347817e-03
2.963783223813e-03
5.752538416863e-03
2.317662380795e-03
1.680471960424e-03
4.591779384906e-03
1.282089538117e-03
5.743217870912e-03
0.0
3.970806248155e-03
2.953445704213e-03
3.287038662097e-03
4.914099357777e-03
2.824966036789e-03
0.0
5.862902570517e-03
2.620748184046e-03
5.405750626231e-03
4.123083578977e-03
5.868967824668e-03
4.513723255217e-03
9.779064778028e-04
2.287061364591e-03
5.715984257660e-03
5.955190373470e-03
2.225229681789e-03
8.958780141002e-04
2.309523210765e-03
2.623606725785e-03
3.807044789785e-03
2.701030844542e-03
2.283651859930e-03
4.111166650998e-03
4.102179279090e-03
4.228241446566e-03
4.546798255786e-03
5.028716670229e-03
3.901152697752e-03
6.549433232100e-04
3.920650833441e-03
4.955587413478e-03
5.010029682247e-03
6.082587846612e-03
3.583046306489e-03
3.812238424463e-03
4.309414704673e-03
4.319293153851e-03
3.152072117772e-03
3.806820599516e-03
4.894923453038e-03
2.752080048091e-03
3.649256563451e-03
2.864912835823e-03
2.832888651383e-03
4.791522079347e-03
5.257296183678e-03
6.216847982975e-04
4.789762209254e-03
4.946970942302e-03
1.455853485302e-03
3.116660414769e-03
3.646713869330e-03
2.740266031467e-03
2.565730635348e-03
3.111248311779e-03
4.481696809263e-03
4.267994674223e-03
2.744319843462e-03
2.256121814009e-03
4.028535080126e-03
5.125478964429e-03
2.884095006377e-03
1.634010763882e-03
3.343960081378e-03
2.825136596843e-03
3.200895695618e-03
5.840634446844e-03
3.049581698772e-03
3.964814282569e-03
5.700506446746e-03
3.554006587530e-03
3.223480759992e-03
4.236959910874e-03
4.935732901856e-03
4.220142662913e-03
3.782725374417e-03
3.633905000164e-03
3.434454553281e-03
5.667308756995e-03
5.731127569311e-03
4.159105326719e-03
4.705255006089e-03
3.527054415500e-03
3.060528253236e-03
3.807578355912e-03
3.078773552032e-03
3.873095872756e-03
3.370616847934e-03
7.627933793163e-04
4.106841682748e-03
9.591787070335e-04
3.491582586837e-03
3.620903548599e-03
2.658320563693e-03
4.383820681644e-03
2.313821533157e-03
3.280595579104e-03
3.781797064791e-03
3.239934934191e-03
4.666843953081e-03
1.844128017672e-03
4.751176865938e-03
3.949884846235e-03
4.988018486650e-03
3.771577015596e-03
2.896598297230e-03
3.483459645253e-03
3.893786270809e-03
2.298745108616e-03
3.272701774280e-03
4.841674106423e-03
3.900979634001e-03
3.037833255544e-03
3.320787467051e-03
5.050201609921e-03
3.079663805871e-03
4.649906474497e-03
5.561012058297e-03
2.890227526471e-03
2.943961554453e-03
2.210045688094e-03
3.349611072643e-03
2.235768342795e-03
3.804052174663e-03
3.255583921612e-03
5.686869579948e-03
5.039238049397e-03
4.717478710770e-03
2.309621426061e-03
3.143595662693e-03
5.111000880600e-03
0.0
3.256985193650e-03
2.315875762829e-03
1.186781807755e-03
5.879212306885e-03
4.749545806609e-03
3.205712272384e-03
1.923895110586e-03
4.248611553850e-03
4.390119912627e-03
3.260852054243e-03
2.726046229142e-03
3.866905638561e-03
4.085059299403e-03
4.849847065370e-03
4.084848891733e-03
3.788784052669e-03
2.384045379571e-03
4.854751456170e-03
0.0
2.534886222220e-03
2.875294506275e-03
3.926615174907e-03
5.120800106263e-03
2.883704576323e-03
2.560806566150e-03
3.780927287153e-03
3.250336732161e-03
2.904934106925e-03
9.744138873205e-04
5.002746784696e-03
1.187677453753e-03
9.712234474307e-04
2.285555067131e-03
2.450408811608e-03
5.091607850684e-03
2.428262004319e-03
2.774880105580e-03
3.779138720656e-03
1.803156298713e-03
1.957999132830e-03
3.924614645831e-03
4.859013116494e-03
0.0
3.040676180201e-03
3.206874618957e-03
3.130650380996e-03
2.062644621155e-03
4.885442700903e-03
4.892149880117e-03
3.059373875750e-03
2.149562808967e-03
4.104130610049e-03
4.011618650566e-03
4.856263363195e-03
4.079661242982e-03
3.170623979729e-03
2.775910294641e-03
4.348640566437e-03
6.080884502444e-03
4.012120085899e-03
2.651654117440e-03
4.174160396721e-03
2.772644652466e-03
4.114504492513e-03
3.290795862291e-03
2.811701725688e-03
3.471873507376e-03
5.142731837040e-03
4.219310466071e-03
2.711805464269e-03
5.231202940207e-03
4.958047196859e-03
4.103438709337e-03
4.637764333400e-03
2.438306330947e-03
4.211956383520e-03
3.365372856234e-03
2.450675261700e-03
2.887962119562e-03
3.878533253387e-03
2.940597055344e-03
2.728683675051e-03
4.958207544711e-03
0.0
4.231308200600e-03
3.120397780434e-03
3.113605546756e-03
2.278736831083e-03
4.503373325418e-03
1.884659263120e-03
3.120901491325e-03
2.297614029118e-03
4.243041167150e-03
4.240307436026e-03
1.373936041198e-03
2.435310679187e-03
3.155120820171e-03
3.003223930663e-03
4.798301013803e-03
3.306297059748e-03
2.985321424422e-03
3.188763902837e-03
1.370686704752e-03
3.117506418936e-03
2.564683140303e-03
6.161779301333e-03
6.171298087031e-03
3.871585823704e-03
3.224089549692e-03
3.155590452933e-03
4.317766949050e-03
3.003359536048e-03
2.608662778043e-03
3.938150114373e-03
5.859163444552e-03
3.214653691530e-03
2.969191311487e-03
2.861811173678e-03
3.768586856653e-03
3.337633072254e-03
4.030230270756e-03
2.035757012657e-03
1.094219009940e-03
3.031075150381e-03
2.930652641428e-03
4.078338297131e-03
6.100030670434e-03
3.051206385844e-03
1.821620188347e-03
2.861790791984e-03
4.656042724998e-03
2.349687270255e-03
2.816498775574e-03
4.525435709533e-03
5.833892866330e-03
2.486522419677e-03
6.151276113808e-03
4.485990906698e-03
4.856089461195e-03
2.611916462935e-03
3.799226166888e-03
4.210806094155e-03
4.343507042611e-03
3.883342781648e-03
5.453648402860e-03
4.408884898377e-03
3.954238356753e-03
2.946932738359e-03
2.126147916000e-03
3.626304909236e-03
2.828752624356e-03
3.908082809323e-03
3.189022324685e-03
2.979438473071e-03
5.107150669262e-03
3.057133034874e-03
3.948493172096e-03
1.767047002602e-03
3.219295742043e-03
4.649421512783e-03
3.423567528206e-03
2.373751734207e-03
2.784414744251e-03
2.725624955031e-03
2.452240531365e-03
5.184269692729e-03
4.210892199139e-03
3.195156139090e-03
3.675464466287e-03
3.719198240263e-03
3.156300643646e-03
5.270722120896e-03
4.951030620452e-03
2.791959147438e-03
3.435291521076e-03
2.714045320190e-03
2.771808396209e-03
4.119259232477e-03
1.360400106286e-03
3.400766620885e-03
5.356429761657e-03
2.456112603846e-03
3.687823897699e-03
4.067889866897e-03
3.485977458347e-03
6.171877983723e-03
6.194847258957e-03
5.749913356992e-03
3.020677987419e-03
5.279204517925e-03
2.613300540084e-03
2.741755212613e-03
2.004260055720e-03
3.406978849626e-03
3.842950909138e-03
4.513278632072e-03
3.244307823644e-03
5.163355495152e-03
4.386423237292e-03
4.476099206042e-03
2.391474383936e-03
1.955161698588e-03
3.217570021580e-03
3.872368428504e-03
3.338770506916e-03
1.812371568338e-03
4.015486225802e-03
2.355558185555e-03
3.278219706871e-03
3.673414290175e-03
1.915648292058e-03
3.981389866812e-03
1.053059668761e-03
3.652003582868e-03
3.330842304649e-03
4.441446771420e-03
6.067281547840e-03
3.807583682193e-03
4.322942112553e-03
3.526145110671e-03
5.255189385440e-03
3.347041718801e-03
5.955073764805e-03
5.938883086238e-03
5.933478345374e-03
5.925413924026e-03
4.598269985990e-03
5.190485547386e-03
5.356291838170e-03
3.172127365247e-03
3.189545386338e-03
3.291257441844e-03
5.278332870253e-03
5.650465782490e-03
5.386391458906e-03
2.086314033400e-03
5.331196890249e-03
3.953887606243e-03
3.284431480345e-03
3.285128967487e-03
3.301125392640e-03
5.759722545496e-03
2.921518703947e-03
4.716770599090e-03
3.382244159206e-03
3.419989620685e-03
3.235774226863e-03
3.108654577361e-03
5.912838273886e-03
5.757913193712e-03
4.236288878953e-03
1.032336198831e-03
5.784372647958e-03
3.094301216638e-03
3.133163714027e-03
1.473651489525e-03
4.377992282328e-03
0.0
3.076087156915e-03
4.393331777553e-03
4.078214650418e-03
4.173061940919e-03
3.172673925433e-03
5.528089032988e-03
2.695300704482e-03
6.061028079687e-04
4.784301089445e-03
1.109397696731e-03
3.558631343330e-03
2.671343080510e-03
3.641731318210e-03
3.626491229388e-03
5.164773912347e-03
4.369311817321e-03
2.723039152115e-03
3.202065681838e-04
3.393270163090e-03
4.000013488580e-03
3.998607249003e-03
4.091967694103e-03
4.682585152391e-03
3.977798602140e-03
6.148717226547e-03
4.046693637694e-03
4.375476627736e-03
2.475463655856e-03
2.038113747758e-03
2.665603733635e-03
4.155084444683e-03
5.944456476497e-03
5.933805245862e-03
3.347496143322e-03
3.141954240646e-03
3.636565096111e-03
3.524861024850e-03
3.764870203374e-03
3.214228737877e-03
2.609429685079e-03
2.752166065871e-03
4.525635562498e-03
3.964553113648e-03
2.737089484301e-03
3.599211839311e-03
2.982464518279e-03
5.872767812274e-03
5.256518196814e-03
6.948896764315e-04
2.926992632798e-03
5.363068251323e-03
5.678180438031e-03
4.516604651069e-03
3.800290162266e-03
2.959233318371e-03
2.645089123398e-03
2.991327947613e-03
2.961565605678e-03
1.984606166548e-03
5.360282778703e-03
2.617597906633e-03
2.719354908298e-03
4.219904639673e-03
2.558238552366e-03
2.945805251787e-03
4.447306010212e-03
4.403301426083e-03
3.203880338452e-03
3.270240138625e-03
3.822758874253e-03
2.320351021533e-03
2.695647363228e-03
3.241179321446e-03
4.055854335950e-03
4.302137120783e-03
2.006945487216e-03
3.504931263533e-03
3.493889225164e-03
3.226663955409e-03
3.195012242961e-03
3.705694372684e-03
2.015330950654e-03
3.674094389629e-03
5.465741692551e-03
2.782005441388e-03
3.605540778520e-03
3.144508273297e-03
3.122849437202e-03
2.256333325417e-03
4.140151503650e-03
5.431033007288e-03
3.225301536712e-03
3.778146397866e-03
3.509424093333e-03
3.382045560242e-03
4.257156002915e-03
2.174643724136e-03
3.150567633663e-03
1.746587665763e-03
4.710220312248e-03
3.696882214136e-03
2.499260062840e-03
4.393497597306e-03
3.304371545067e-03
1.515148851359e-03
2.794723090240e-03
3.870525163770e-03
5.202539231559e-04
3.198860063348e-03
3.122843769625e-03
3.536839909767e-03
3.054969112373e-03
3.133169061378e-03
4.394974799046e-03
3.171453652514e-03
3.954441890249e-03
4.408365611267e-03
3.531054572272e-03
4.293331672903e-03
3.469160005882e-03
0.0
4.342827187450e-03
2.815733446127e-03
1.169868182888e-03
3.377528405656e-03
3.017950135559e-03
5.309388747160e-03
1.836141118027e-03
1.645439494872e-03
3.818624685672e-03
3.581263554169e-03
5.741565943865e-03
4.177684629919e-03
1.850928756814e-03
2.067405024286e-03
1.416744999512e-03
2.579714406710e-03
4.842819569639e-03
5.316030625827e-03
3.796388360631e-03
2.739477237490e-03
3.923275296672e-03
2.756654641123e-03
1.368956117904e-03
2.826459377296e-03
2.346887089609e-03
4.356557030682e-03
4.139689611657e-03
3.039564492647e-03
3.507425817395e-03
3.484969287982e-03
2.724837710706e-03
1.738579034053e-03
2.880004918018e-03
1.059860394561e-03
3.342988300000e-03
3.564932177344e-03
9.012381607526e-04
2.910014888118e-03
5.510045432400e-03
1.959702749170e-03
3.585704259986e-03
3.723526099815e-03
1.268716263999e-03
2.392889037010e-03
3.063515298584e-03
2.813209111348e-03
4.210048530920e-03
5.103573185464e-03
5.177892081959e-03
2.829945348819e-03
1.363451425510e-03
3.691969532227e-03
3.550626997966e-03
3.676511325993e-03
1.285478420515e-03
8.537344141222e-04
7.845181071081e-04
2.162938812804e-03
1.377340432524e-03
3.170219899797e-03
0.0
2.524870915773e-03
4.491269867148e-03
3.700282617022e-03
5.066161758073e-03
3.327949804502e-03
4.251884330892e-03
2.509212341416e-03
1.018037242248e-03
5.829475890603e-03
6.039028528119e-03
4.216434674855e-03
3.565489033799e-03
2.587498848121e-03
5.999263223227e-03
2.442752516004e-03
3.696609549568e-03
3.563907472710e-03
3.514699694935e-03
5.927065042664e-03
6.015277257663e-03
1.330400211541e-03
1.449907591737e-03
1.344592241943e-03
3.643608196866e-03
4.850396606121e-03
0.0
5.101358492196e-03
1.409139728971e-04
1.499124232117e-03
3.824208957472e-04
0.0
2.029814193675e-03
4.688865864911e-03
4.611649624508e-03
3.864254668426e-03
9.306078872588e-04
4.020589784949e-03
5.797624803762e-03
5.973591106953e-03
3.688007304244e-03
1.196237126604e-03
5.834612071299e-03
3.414725027011e-03
9.671159728271e-04
1.409744689688e-03
9.368666534769e-04
2.773625038877e-03
5.128733981852e-03
5.686078140094e-03
1.614169892137e-03
3.141780048589e-03
4.903795419049e-03
5.124707089311e-03
4.540751789241e-03
4.863760003676e-03
5.230664655895e-03
4.885659315087e-03
4.900079095049e-03
5.104618843216e-03
2.371313285604e-03
3.639130252576e-03
3.700407251155e-03
1.543007074285e-03
4.822691056273e-03
4.723797952646e-03
4.594502443142e-03
2.187658065542e-03
2.078158679153e-03
4.298928970353e-03
4.465695048772e-03
4.739825188448e-03
3.625004239622e-03
4.980074041723e-03
4.182381661481e-03
3.612530889479e-03
1.648586597975e-03
1.078919747717e-03
9.715320649564e-04
8.189522588763e-04
3.276017880373e-03
3.023112973762e-03
3.897742298982e-04
4.028126407989e-03
2.904706458492e-04
5.885086834910e-03
5.811364703112e-03
5.844706076157e-03
1.127270833140e-03
2.214903500655e-03
5.806505327904e-03
4.688671280238e-03
5.826774921975e-03
4.813055851057e-03
4.917144813202e-03
2.903322035183e-03
6.008349193016e-03
6.003877113261e-03
4.727827648335e-03
4.864305038441e-03
4.249335747199e-03
0.0
3.175859147544e-03
1.259325279811e-03
4.420798695160e-03
3.384638883793e-03
4.409067033902e-03
2.131043982543e-03
1.108023222196e-03
4.695482135487e-03
3.365831542969e-03
2.646631452456e-03
4.556588175849e-03
5.414895944389e-03
2.656831201839e-03
3.200576911771e-03
3.816886599349e-03
4.190899904542e-03
4.331300515814e-03
2.822232598008e-03
3.605666078604e-03
3.473782743791e-03
3.959311659394e-03
4.657481856823e-03
4.474738788930e-03
2.497721918515e-03
5.428170056435e-03
5.196932708230e-03
3.994972095663e-03
4.018877418988e-03
4.067532001752e-03
5.468828346424e-03
5.334434594670e-03
3.777218885507e-03
4.785229386991e-03
5.183640898652e-03
4.486085823949e-03
4.626918442455e-03
5.440760853048e-03
4.828731435924e-03
3.492214324912e-03
1.813629337524e-03
2.595415623828e-03
1.751915947168e-03
1.311389193297e-03
5.325791288567e-03
4.638904880307e-03
1.232072997821e-03
5.349220756651e-03
4.109200150890e-03
4.453473742339e-03
4.501290464753e-03
2.822661026846e-03
4.600361826760e-03
3.989940508894e-03
1.568365711787e-03
4.607579259789e-03
1.682217231393e-03
4.433060704539e-03
4.965853579252e-03
1.931234771425e-03
2.536905363929e-03
3.506959235330e-03
4.546823231474e-03
2.929878446617e-03
5.094658413771e-03
4.689487714454e-03
3.549548679273e-03
4.373859018118e-03
4.508144441649e-03
4.950601638813e-03
1.602271484754e-03
3.405781233643e-03
3.108775469077e-03
5.079843116042e-03
3.194307102305e-03
3.880531337843e-03
4.194530845224e-03
4.813687637528e-03
2.696113206384e-04
1.541456333067e-03
1.874707634932e-03
4.535680067079e-03
4.684102630711e-03
3.785681380179e-03
4.265606377495e-03
3.105476038775e-03
3.587079011170e-03
4.392674845493e-03
1.860767443432e-03
4.452816754116e-03
3.543702289538e-03
1.992785431315e-03
3.392397121739e-03
2.975423009005e-03
2.515877789845e-03
3.725661475432e-03
9.890849693237e-04
7.121019429699e-04
4.132428392348e-03
1.740140079302e-03
4.103577769620e-03
3.987009557526e-03
3.370047699069e-03
3.248806400505e-03
5.300420175180e-03
2.104285098992e-03
2.995450123017e-03
2.940527097191e-03
1.410651741479e-03
4.429529881649e-03
4.136718757980e-03
1.859816294009e-03
3.894261520894e-03
4.933477745413e-03
1.699722713993e-03
5.408694418047e-03
5.411197824938e-03
2.017061567542e-03
2.915404601559e-03
2.179306637539e-03
4.367605250964e-03
3.647788208579e-03
5.489535749250e-03
5.304729192866e-03
4.231498250215e-03
4.146491013705e-03
1.780674243216e-03
4.280532226645e-03
4.934868325194e-03
3.669316609231e-03
4.695546322833e-03
5.063717161736e-03
2.645489529404e-03
5.190164349716e-03
3.272404207533e-03
3.596661715041e-03
2.751844944681e-03
3.019000093276e-03
4.810385432176e-03
3.246422704326e-03
2.264566458407e-03
1.689403800147e-03
4.815225778648e-03
2.226110953632e-03
4.194754128453e-03
4.940895878954e-03
4.276223362945e-03
3.112253213804e-03
3.202020562987e-03
1.919623832173e-03
1.352217145348e-03
4.164633130640e-03
4.560658305418e-03
1.177128837243e-03
2.915068821861e-03
1.620327168500e-03
4.555465457416e-03
2.973416926450e-03
3.909810264466e-03
2.724408296497e-03
5.208767427969e-03
2.593619795372e-03
4.035142549939e-03
2.532928249258e-03
4.024142569854e-03
3.450900747862e-03
4.136123601672e-03
2.485244761370e-03
1.564757219021e-03
4.294495704809e-03
2.163488820880e-03
3.387401299419e-03
4.565662359774e-03
2.738581822716e-03
4.665942928302e-03
1.465348703278e-03
4.246327033609e-03
1.699623542301e-03
2.032350589391e-03
5.536974569683e-03
3.426908671018e-03
1.540384123315e-03
3.758577465195e-03
3.927524684089e-03
2.715033437353e-03
4.314845763778e-03
4.948351979472e-03
3.360890771607e-03
3.891846381777e-03
4.252820554628e-03
2.212724349773e-03
2.843833598180e-03
4.035789724436e-03
3.996131275531e-03
3.575096828484e-03
3.792627721388e-03
4.802343365754e-03
4.415034608388e-03
4.389129640424e-03
3.467263775260e-03
3.595494986516e-03
3.583279255749e-03
4.289394557029e-03
5.421975200704e-03
2.486182053314e-03
3.861488826342e-03
5.063142224082e-03
3.131891392016e-03
3.028041098227e-03
1.823938140991e-03
3.705908196928e-03
3.091369410019e-03
4.675935954995e-03
4.534875968551e-03
2.056161555857e-03
2.786655864969e-03
2.873165513745e-03
2.868546210609e-03
3.110365765296e-03
1.843618803568e-03
3.272992134604e-03
3.412916071715e-03
5.192089283469e-03
3.281566540745e-03
3.626240938450e-03
3.586985508785e-03
3.409305181201e-03
1.897398460282e-03
3.604818096321e-03
3.888630237913e-03
4.421922450971e-03
3.317485446496e-03
3.647674555787e-03
4.673336337087e-03
3.224252799485e-03
3.496064654626e-03
2.622358304585e-03
3.055333394029e-03
3.164663825952e-03
2.311141121049e-03
2.125313783725e-03
3.477924834306e-03
3.736945563828e-03
4.738585916755e-03
1.315321289851e-03
2.446620192041e-03
2.982448329977e-03
3.433203482514e-03
4.531582693643e-03
3.499304588405e-03
2.673974497719e-03
3.139905464341e-03
5.072747806473e-03
2.707809154280e-03
1.166214898562e-03
1.463299212712e-03
2.914504388254e-03
3.018723201689e-03
2.686713935682e-03
3.062407380188e-03
2.712109552951e-03
1.499659389839e-03
4.359635542217e-03
2.393958649680e-03
3.066798902882e-03
4.495652146628e-03
4.450791082476e-03
5.300178894970e-03
4.977951589195e-03
2.397146190700e-03
4.416844529747e-03
3.119400395624e-03
3.332129797491e-03
3.122426360325e-03
2.988793531740e-03
2.855846187293e-03
3.177000482072e-03
2.756193394155e-03
2.592075865469e-03
2.421633066575e-03
3.387402253471e-03
2.293172573691e-03
2.277057048855e-03
2.911114260278e-03
1.155684839829e-03
4.799837983891e-03
2.295247612437e-03
3.251041652365e-03
3.393599796704e-03
3.145369302234e-03
3.078086569887e-03
5.318104494318e-03
4.480500477960e-03
2.985180505105e-03
4.544225245269e-03
5.407567982517e-03
2.819844426375e-03
3.291868619470e-03
4.617460502529e-03
3.604719748764e-03
2.828319211558e-03
5.770682299556e-03
2.324148480044e-03
2.632797394299e-03
5.423157329672e-03
1.479799231386e-03
4.397525855562e-03
5.165585481732e-03
2.315901153844e-03
1.693562376470e-03
5.527898528543e-03
3.711930513200e-03
4.919552001560e-03
1.951673982838e-03
3.287761322063e-03
5.034502267977e-03
5.186304779390e-03
3.552693579741e-03
3.534005249318e-03
4.400555289825e-03
4.253543167516e-03
2.943285220908e-03
3.519756308427e-03
3.287722794547e-03
1.604761110599e-03
2.916005013921e-03
2.089170602373e-03
2.495795305072e-03
3.131259226377e-03
5.609482615871e-03
5.438909998859e-03
5.417054799902e-03
3.703317504642e-03
5.161557093516e-03
3.868518273720e-03
5.545650970965e-03
4.897334775276e-03
3.311771604763e-03
2.197730088428e-03
5.053606803532e-03
5.398699092692e-03
5.059342313408e-03
4.930251969398e-03
3.686756924755e-03
2.638215958256e-03
3.385656639266e-03
3.735595459470e-03
3.380928897864e-03
1.515738106098e-03
4.891642251277e-03
2.057605305164e-03
2.303129579541e-03
1.798145096306e-03
1.202338881616e-03
2.291547627481e-03
2.255519192117e-03
1.119365171026e-03
3.821601090175e-03
3.628201443266e-03
4.633003595104e-03
3.816334825167e-03
1.776186669795e-03
3.629386261877e-03
1.548469868944e-03
5.595449219484e-03
1.931840670526e-03
3.698695061029e-03
4.663243438870e-03
2.011134684472e-03
1.247841792706e-03
1.362382450494e-03
3.956724378172e-03
3.694573121702e-03
3.378959753737e-03
3.476784983087e-03
3.160808567775e-03
1.209468731441e-03
5.051259765074e-03
3.748618971867e-03
3.477272273897e-03
1.950538792296e-03
4.782003339930e-03
3.210604208947e-03
5.183136400848e-03
1.092245890419e-03
2.105066893939e-03
3.669072015162e-03
1.206486766565e-03
5.304264296023e-03
2.175618363556e-03
1.951041802013e-03
3.970362899570e-03
5.544534571255e-03
3.589900622387e-03
4.195224401096e-03
4.919263556773e-03
3.618574329088e-03
2.771490720799e-03
3.147261186436e-03
2.962169357454e-03
3.142630492045e-03
3.544072557654e-03
1.522290315328e-03
6.123405621243e-03
2.263220382989e-03
3.970342460406e-03
2.658927723359e-03
4.758938700212e-03
1.696532885482e-03
3.388847263524e-03
3.457624531915e-03
2.514428578240e-03
1.677345446119e-03
2.396212171814e-03
2.754267880200e-03
3.227262210638e-03
4.988779509347e-03
2.815825285194e-03
4.795644255112e-03
5.516289922385e-03
5.146103467286e-03
5.257081820144e-03
3.182071023712e-03
4.029201795451e-03
5.042361025696e-03
2.756595180964e-03
2.647290714061e-03
3.056301189697e-03
2.572569436643e-03
2.462008023465e-03
2.644345930535e-03
1.440401882729e-03
3.630426804566e-03
1.569273956402e-03
5.480811851792e-03
5.602378623592e-03
1.419199509514e-03
5.275547562051e-03
2.804242796237e-03
4.372719245337e-03
2.891727352859e-03
5.381895938702e-03
3.185020396507e-03
3.346610583280e-03
2.289654001474e-03
3.542499471540e-03
3.433320806316e-03
3.266208049097e-03
2.035076047681e-03
2.493404353718e-03
2.201070291381e-03
5.424319885087e-03
5.590129291020e-03
3.903582702292e-03
2.909258766393e-03
2.335058945798e-03
5.293513921390e-03
1.953817967391e-03
4.234737884749e-03
5.172652995614e-03
5.124227989435e-03
9.277188622567e-04
2.506898590902e-03
4.525242961084e-03
4.563239763712e-03
3.241690536946e-03
2.241320889606e-03
2.833288907621e-03
4.078547169666e-03
4.419169055791e-03
5.013620306272e-03
2.282293485652e-03
4.307804809555e-03
1.686847443505e-03
5.290274890223e-03
4.851002717086e-03
4.643175649224e-03
2.345179317856e-03
1.807172178817e-03
1.801948734361e-03
3.359707236442e-03
5.507142592636e-03
5.108003363980e-03
1.046447068849e-03
2.179901417413e-03
3.852336584430e-03
3.800392508022e-03
2.586138136504e-03
9.771895354138e-04
2.930181311238e-03
2.283701537404e-03
1.568412579387e-03
4.696631355627e-03
4.607881037575e-03
4.766072203044e-03
4.081754060291e-03
4.603369163212e-03
4.379957173959e-03
4.618906992019e-03
2.458376662123e-03
4.098638148539e-03
4.907202475208e-03
5.648784616652e-03
4.495095601971e-03
2.548434779706e-03
3.912793135380e-03
5.512760513766e-03
3.001262042829e-03
3.180884923332e-03
2.468543689254e-03
5.028337068141e-03
3.427253910037e-03
3.290153938343e-03
3.675470650321e-03
2.182285102727e-03
4.189801390205e-03
2.291578316535e-03
1.349449754861e-03
5.636015473331e-03
3.625895958899e-03
2.103450277769e-03
4.046287823861e-03
4.878000002137e-03
3.895798009600e-03
3.114017949884e-03
8.889497729122e-04
4.793301523209e-03
4.034143798685e-03
2.338495865229e-03
4.679004096829e-03
0.0
3.545292720195e-03
3.183419108901e-03
4.620052298240e-03
3.760015126243e-03
2.393922234819e-03
4.445933361572e-03
3.448409215898e-03
2.584776922099e-03
4.250432662385e-03
1.906468634271e-03
4.153126910283e-03
1.818802017300e-03
5.293743423829e-03
4.239353654533e-03
2.394815569185e-03
4.179465517636e-03
5.639919064863e-03
3.534684727708e-03
2.288195308190e-03
2.779857412875e-03
4.157293753941e-03
4.559059439739e-03
3.534808419225e-03
4.252606570727e-03
4.782120039691e-03
4.278791894662e-03
3.738223600894e-03
3.499074933205e-03
3.494139593801e-03
4.747419654542e-03
4.255099070675e-03
3.839964885528e-03
4.569340265878e-03
3.056246348132e-03
2.393304954355e-03
2.930480403413e-03
6.086851266750e-03
4.117844399000e-03
3.455995573439e-03
3.753400023371e-03
2.472071372363e-03
3.491628202087e-03
4.204348122107e-03
4.268597776756e-03
4.772004198945e-03
4.710233733702e-03
4.692963440339e-03
1.106720622824e-03
3.608330547153e-03
3.820362875112e-03
4.664326353529e-03
4.680096484355e-03
2.352584026883e-03
1.558884795758e-03
2.654480659437e-03
3.731003145245e-03
3.466490700851e-03
3.315280051285e-03
3.510786059953e-03
4.741445271794e-03
3.000739119005e-03
3.725942709322e-03
1.882186228005e-03
1.989209782105e-03
4.859365221654e-03
5.378791863780e-03
3.622412790060e-03
4.086298431898e-03
8.788451117360e-04
2.150327118180e-03
4.157073371539e-03
8.318441689136e-04
5.408814910997e-03
1.796994317519e-03
4.563827465076e-03
4.326693611244e-03
2.179157756358e-03
2.902957421488e-03
5.531946144864e-03
2.724274636976e-03
3.597238446451e-03
3.949741788311e-03
1.387126890400e-03
1.483538630366e-03
4.094562523506e-03
4.462003929120e-03
4.216899447097e-03
3.250175486718e-03
5.197689124532e-03
4.432557972304e-03
3.662154238880e-03
4.324815174578e-03
4.318493610634e-03
4.118093824424e-03
3.698739609380e-03
3.642170033284e-03
5.589231027012e-03
3.013506558343e-03
4.255186571382e-03
2.631728022376e-03
2.719221655027e-03
3.230635052549e-03
2.472264286779e-03
1.402294089302e-03
2.643957478187e-03
4.711133417206e-03
2.471516709082e-03
4.468472658716e-03
2.193648896864e-03
1.986292001410e-03
2.990854761195e-03
4.632153164590e-03
4.258818863725e-03
4.455822626565e-03
2.409857783535e-03
4.599243387348e-03
4.586353591898e-03
3.003262797050e-03
3.764237663719e-03
1.259809435264e-03
4.417137978971e-03
2.598861938414e-03
3.559924899756e-03
2.891071441809e-03
4.599295072823e-03
4.492928374407e-03
3.946747793921e-03
3.008453656814e-03
3.177730900320e-03
4.583213391973e-03
3.022048143241e-03
1.998492614778e-03
1.639620437187e-03
1.813972294795e-03
2.527763030566e-03
3.023198208948e-03
4.233192300425e-03
3.640278608643e-03
1.787168974819e-03
3.020737013717e-03
3.250114505745e-03
4.609207531696e-03
1.720484110792e-03
4.768807741004e-03
2.542365269620e-03
3.372604860332e-03
3.955992186008e-03
3.843149938690e-03
2.565660421796e-03
3.009689123218e-03
4.457896627465e-03
1.960918397589e-03
4.405903501378e-03
3.240600366134e-03
3.564971743917e-03
2.068612722327e-03
3.806478467456e-03
4.436879848710e-03
1.816133218611e-03
2.713220334332e-03
2.003794310319e-03
1.222241799405e-03
3.754040591865e-03
4.602132618812e-03
4.606753680845e-03
2.762317310720e-03
5.921576080326e-03
1.919631603238e-03
2.912859680010e-03
2.189495913324e-03
3.665001844436e-03
3.520328983887e-03
2.638881836419e-03
2.895778659108e-03
4.043104173156e-03
2.482129023893e-03
5.209900433282e-03
3.214049017557e-03
3.647482495706e-03
3.710983494359e-03
2.656638786889e-03
3.855170451250e-03
4.566671673770e-03
4.366198307929e-03
1.028648459849e-03
0.0
2.165054714133e-03
3.723014921691e-03
2.395137752120e-03
2.817631679997e-03
2.513976997857e-03
3.806732758052e-03
4.815158278389e-03
3.775227130307e-03
2.362468453277e-03
4.403407743042e-03
4.096150277746e-03
2.928708125507e-03
3.798202669823e-03
3.830814983830e-03
2.434166470534e-03
2.429201062824e-03
3.861528244714e-03
4.613156150105e-03
4.387204249011e-03
2.657070979426e-03
3.880643775732e-03
2.837716406776e-03
2.485420115051e-03
3.105685387870e-03
2.225639351650e-03
2.780093807568e-03
2.725707991279e-03
2.761000011738e-03
3.893879650775e-03
2.100922071665e-03
3.891918480221e-03
3.915697350990e-03
2.204461836540e-03
3.709703770702e-03
0.0
5.365652246451e-03
2.578069340872e-03
2.173697461019e-03
3.448943280228e-03
3.975644968851e-03
4.011347503912e-03
2.443864926480e-03
1.964861984032e-03
1.711666579155e-03
4.092079591951e-03
2.346058795579e-03
2.509223878502e-03
4.534649018568e-03
2.777991002642e-03
4.537667482143e-03
4.058891197805e-03
0.0
5.816180050420e-03
4.902062641942e-03
3.881412651745e-03
2.440978645024e-03
3.770170632493e-03
2.426839343308e-03
1.518214254580e-03
1.593117313255e-03
5.546974744787e-03
4.665874526858e-03
3.739497969649e-03
5.215858982210e-03
1.786753972791e-03
4.945218504881e-03
4.727704294311e-03
2.892091425302e-03
3.818142524302e-03
2.797163094051e-03
2.426438530921e-03
2.920765910813e-03
4.893505897122e-03
4.727405870860e-03
2.743689612102e-03
4.673515583297e-03
0.0
2.485522009972e-03
5.040677103797e-03
3.152365298128e-03
2.607652291814e-03
3.607194230213e-03
3.172614263735e-03
2.188759691854e-03
2.409032827129e-03
2.923122928886e-03
2.479690312005e-03
2.876821812237e-03
4.465612370866e-03
5.532694685970e-03
2.480976938953e-03
4.855765288150e-03
5.147151796070e-03
2.491148219769e-03
2.231684133508e-03
3.071159247528e-03
2.618928641937e-03
4.855263855775e-03
2.512300808846e-03
2.262013899534e-03
2.743671721340e-03
2.429414246353e-03
2.905151765398e-03
2.632275217683e-03
3.664855587076e-03
4.505149016415e-03
2.765225984554e-03
2.582205512883e-03
2.386883807025e-03
2.387003191431e-03
0.0
5.504082384171e-03
5.322543550804e-03
7.848135277644e-04
2.549500333694e-03
2.400638059406e-03
2.463285382783e-03
4.810923744731e-03
3.198165242386e-03
4.606096513073e-03
2.664651155853e-03
3.655834997024e-03
4.200689173686e-03
2.113752298900e-03
1.912300493824e-03
3.255578082472e-03
1.273953511854e-03
4.816843425833e-03
2.290848895151e-03
2.168710725122e-03
2.559244781557e-03
4.283416494899e-03
4.812195502839e-03
2.539570789041e-03
3.643462494389e-03
4.855540140174e-03
2.948190669232e-03
2.976334480875e-03
2.027418807040e-03
2.926129920543e-03
4.448255544290e-03
2.964508539853e-03
5.409142776678e-03
5.734258886474e-03
4.026664295728e-03
5.743896818908e-03
5.718569705541e-03
2.582070465025e-03
2.595631204153e-03
3.199953522585e-03
0.0
1.902903777885e-03
3.604210869196e-03
2.807391870645e-03
2.804874001204e-03
2.021751019950e-03
2.194943763957e-03
4.142001498770e-03
2.644769460266e-03
2.249798190126e-03
3.567736017229e-03
4.967219196927e-03
4.886134841971e-03
2.605300666506e-03
3.828525680063e-03
0.0
1.957535475967e-03
3.521502279004e-03
1.981252673420e-03
2.924275991023e-03
2.745952613108e-03
2.849229022871e-03
2.462891224688e-03
5.296655538006e-03
2.503533226713e-03
5.524289484905e-03
5.153625615526e-03
6.001172921191e-03
5.100455085510e-03
4.110540018138e-03
2.637651237191e-03
2.100855566225e-03
3.191285649529e-03
4.869911819269e-03
1.668585154639e-03
1.835666317314e-03
2.227285640186e-03
3.938213713365e-03
5.540832376998e-03
4.655361428653e-03
3.499491474384e-03
5.052024159388e-03
4.084593475503e-03
2.632811007746e-03
2.862235179152e-03
4.698107313135e-03
3.316215251475e-03
3.587892556505e-03
3.896233695222e-03
4.114095616366e-03
4.188562373750e-03
1.799506149793e-03
2.750045215379e-03
5.853261315327e-03
4.426727944562e-03
3.704988570506e-03
5.563415471233e-03
4.701176930839e-03
5.605287308872e-03
2.984653430048e-03
2.899269361477e-03
3.882189993689e-03
0.0
2.099672330588e-03
4.918810832529e-03
9.297763855901e-04
3.755397294441e-03
2.797405890751e-03
1.199320246670e-03
1.287155906031e-03
6.012085979982e-03
3.536739645719e-03
5.807206894269e-03
2.659927490576e-03
3.526193540084e-03
0.0
5.649183673557e-03
1.226889212049e-03
5.591486415216e-03
4.894034742833e-03
5.539486036354e-03
2.262943268428e-03
4.213950339262e-03
3.025007021002e-03
3.131326445098e-03
4.091554630855e-03
5.020955983920e-03
3.911662398283e-03
5.268125805587e-04
4.885085777727e-03
3.118765135349e-03
9.712620635747e-04
3.457233058136e-03
5.927711436663e-03
5.789822867449e-03
3.808569037443e-03
4.215889140078e-03
2.538577934307e-03
5.833806765854e-03
2.555830622428e-03
2.490656388983e-03
3.320251670345e-03
3.625198829927e-03
5.701509361268e-03
5.926679449314e-03
5.825453120953e-03
2.375146025770e-03
1.855020722498e-03
3.558870854792e-03
3.632521599668e-03
4.888825416704e-03
5.046946971521e-03
1.549964253441e-03
0.0
4.672705056340e-03
4.574124372469e-03
1.492817307624e-03
4.534041151919e-03
3.791507055834e-03
3.441092852532e-03
4.640515334488e-03
3.044493888229e-03
3.085586377938e-03
1.541679909506e-03
3.205964040354e-03
5.539122948349e-03
5.470096428524e-03
3.349468659420e-03
4.316012489498e-03
5.096328403816e-03
5.066889044332e-03
4.866255092984e-03
3.513811278074e-03
2.745903881909e-03
5.643353601341e-03
2.006177374357e-03
1.336548591570e-03
4.740994586223e-03
1.967258917603e-03
3.030928276529e-03
4.804010908766e-03
4.798192704978e-03
4.457553134226e-03
4.812474116929e-03
4.086135366692e-03
0.0
1.909648872290e-03
2.592269180864e-03
4.073105943506e-03
3.300295154598e-03
5.598216389854e-03
3.155889343856e-03
2.080876808324e-03
1.684831239890e-03
1.996726710914e-03
4.805748266782e-03
2.545899529970e-03
5.665640345273e-03
1.260613380941e-03
2.717034335033e-03
4.089865816188e-03
4.150741350700e-03
3.513862819322e-03
4.079622705219e-03
3.886731369533e-03
5.955413447924e-03
5.808855366257e-03
1.973720843828e-03
5.623880488313e-03
5.288178170346e-03
2.706065533823e-03
3.694588255657e-03
4.724906017287e-03
5.013738577708e-03
0.0
2.864341795004e-03
5.304542939534e-03
4.364446428508e-03
4.836626331640e-03
3.730875922937e-03
4.587318565965e-03
5.089225402943e-03
3.906899070662e-03
3.750017617315e-03
3.537069004234e-03
2.588839608145e-03
5.047138554197e-03
3.933020823055e-03
5.546377694027e-03
1.946527573604e-03
5.421130664064e-03
4.841192871563e-03
9.322091538505e-04
2.293274876912e-03
5.049998438284e-03
5.689077263393e-03
5.605137768792e-03
3.830427027326e-03
4.275713481985e-03
1.034452648196e-03
0.0
9.165803274728e-04
2.306330849804e-03
1.552289529086e-03
3.232809435929e-03
4.778427176324e-03
5.703044928894e-03
4.347082166528e-03
3.002796748421e-03
4.148995897399e-03
2.783709893463e-03
4.463871432644e-03
4.932249577077e-03
5.252682971647e-03
1.354054557860e-03
0.0
4.840119537013e-03
7.233031137748e-04
8.681517225348e-04
1.435436843906e-03
1.472272678795e-03
3.855676984439e-03
5.537407312308e-03
5.639733232520e-03
4.436603250530e-03
2.523558595448e-03
4.438054910322e-03
5.878210086007e-03
3.406643456978e-03
3.631025882734e-03
3.027978513677e-03
7.658097359086e-04
5.095377053932e-03
4.007087122991e-03
1.117452099742e-03
3.054154399225e-03
5.821463871987e-03
5.616162225123e-03
5.771476761292e-03
2.378943900085e-03
0.0
4.729401298327e-03
5.982820025955e-03
5.116893597155e-03
3.780141864939e-03
2.757852932878e-03
1.016540728646e-03
5.742488357776e-03
8.130160899770e-04
3.471132188594e-03
5.976997195660e-03
0.0
4.334445045259e-03
4.928068088589e-03
5.685262055675e-03
3.960311455775e-03
4.602685966077e-03
5.674047741207e-03
5.673486810091e-03
4.691284669015e-03
5.438753250395e-03
2.700307817537e-03
3.496149835990e-03
4.345309502369e-03
5.753633298066e-03
1.736380299792e-03
3.496568385412e-03
4.939582600280e-03
1.368820282863e-03
2.744988563961e-03
5.663738979536e-03
5.807014388648e-03
1.265820552801e-03
2.857699370651e-03
3.526860356291e-03
5.236929301907e-03
0.0
5.763265201970e-03
4.458722862593e-03
3.044071100787e-03
4.287981028573e-03
4.654162068594e-03
3.688235848984e-03
2.833978652491e-03
2.490177180056e-03
3.382376733098e-03
3.778484931935e-03
3.590372836895e-03
3.200278276933e-03
3.401617339723e-03
1.200485253478e-03
4.444142389629e-03
4.959617724818e-03
2.494216693804e-03
5.683473093287e-03
4.880068419398e-03
3.847676400356e-03
4.572298701193e-03
3.295609289569e-03
3.277091984412e-03
3.455826167072e-03
2.410347476307e-03
3.171270214627e-03
5.151777217512e-03
3.979240728433e-03
5.867901631608e-03
2.336872728529e-03
4.397657744471e-03
5.380026001316e-03
3.734283041451e-03
4.159349955921e-03
1.018917914231e-03
5.297615537063e-03
5.603907969465e-03
1.200386500765e-03
3.098141903975e-03
0.0
5.607338238193e-03
2.626734283379e-03
2.549531866633e-03
2.701394005823e-03
2.556134915907e-03
2.705711491278e-03
2.561480290484e-03
2.710065989537e-03
2.566655120162e-03
2.714513451666e-03
2.574446997273e-03
2.720634103997e-03
2.582981102361e-03
2.727498271816e-03
2.593510788275e-03
2.734155989720e-03
2.720163723611e-03
2.600860379507e-03
2.592487705640e-03
2.738512044037e-03
2.594197665573e-03
2.746355183321e-03
2.582395027498e-03
2.755844196279e-03
2.568241209878e-03
2.671612935326e-03
2.765816059205e-03
2.551965904305e-03
2.779576565079e-03
2.532839083947e-03
2.775383251297e-03
2.527604753952e-03
2.770901703469e-03
2.513452816674e-03
2.549007397530e-03
2.757146576703e-03
2.792368389522e-03
2.792016082909e-03
2.630320026770e-03
2.702582909373e-03
2.546878826374e-03
2.661103818204e-03
2.547347738664e-03
2.675904247711e-03
2.966754512287e-03
3.036028368872e-03
2.881134676313e-03
3.028579513069e-03
2.879228433618e-03
3.034375088800e-03
2.887788164751e-03
3.035458784700e-03
2.890186158662e-03
3.042779342889e-03
2.901207661542e-03
3.047179815419e-03
2.908355221936e-03
3.047821965848e-03
3.058166228224e-03
2.921616972915e-03
2.977904379741e-03
3.057220798405e-03
2.926740671622e-03
2.913842577925e-03
3.065010864165e-03
2.940817269049e-03
3.076565577618e-03
2.928097216781e-03
3.084144842026e-03
3.085339738652e-03
2.912475768239e-03
3.096508582135e-03
3.118274552756e-03
2.897323094266e-03
3.090734832649e-03
2.871686253460e-03
3.129388617912e-03
2.894029482055e-03
2.858270663078e-03
2.922028373713e-03
3.085335394846e-03
2.928220263468e-03
3.030143154684e-03
2.945827770339e-03
3.312321515307e-03
3.189480759148e-03
3.353757832105e-03
3.204854301679e-03
3.362122923095e-03
3.214839365167e-03
3.375029482880e-03
3.210761067781e-03
3.368277685235e-03
3.220984354806e-03
3.383169786334e-03
3.228836678226e-03
3.413512167486e-03
3.384151656869e-03
3.268396400584e-03
3.229750214111e-03
3.398976425987e-03
3.246842334506e-03
3.396439375541e-03
3.258900424221e-03
3.412527509879e-03
3.266513004898e-03
3.338906532064e-03
3.424132635284e-03
3.274787641877e-03
3.430715204795e-03
3.271602579017e-03
3.264657004864e-03
3.450357719823e-03
3.490825941533e-03
3.429189117639e-03
3.194103659451e-03
3.322189248393e-03
3.233743975656e-03
3.318513455877e-03
3.206052030725e-03
3.282745160465e-03

SCALARS element_materi_plasti_phimob float
LOOKUP_TABLE default
2.233941779536e+01
1.886250866526e+01
1.964799861391e+01
1.801364310830e+01
7.002207884485e+00
2.386354737263e+01
7.171912164147e+00
2.135846292163e+01
7.281319353626e+00
1.797207356710e+01
1.954475784613e+01
2.074959151340e+01
2.084128005047e+01
9.578255065309e+00
2.072945736348e+01
1.836706311617e+01
6.164368403438e+00
2.613007335182e+01
1.650511126507e+01
1.043628340692e+01
1.793282841355e+01
1.670538967687e+01
1.877038794453e+01
2.219725033695e+01
1.192576628244e+01
1.974802941335e+01
3.411611588863e+00
2.198456178138e+01
1.214566882093e+01
2.206349794076e+01
1.891119942568e+01
-2.304667335614e+01
1.919999472767e+01
2.099154055160e+01
2.128770189819e+01
2.090882157103e+01
2.083363864773e+01
2.206589421104e+01
3.127766670928e+00
3.307207880844e+00
1.230874495479e+01
2.112642226158e+01
2.232211093132e+01
3.346772443179e+00
1.756742535047e+01
2.036854554921e+01
2.141517280206e+01
1.774073899943e+01
1.819124138354e+01
8.305063344222e+00
1.461380951045e+01
1.495015079095e+01
2.130620525011e+01
1.102074054983e+01
1.885756096416e+01
1.565617809774e+01
1.307225147938e+01
2.108003735787e+01
9.017567191095e+00
1.834151612743e+01
1.120025125460e+01
2.244377664702e+01
2.081298737858e+01
2.082135635564e+01
2.087149581220e+01
1.357587903766e+01
1.563327056515e+01
1.941384764478e+01
9.910184550150e+00
2.094661744856e+01
1.989785453484e+01
1.941409559268e+01
2.162399408636e+01
-1.254164056872e+01
1.593143232381e+01
1.809986177867e+01
1.878924408050e+01
2.198816163631e+01
8.140170997558e+00
2.280283237142e+01
1.078940935458e+01
5.974981784108e+00
2.069044023288e+01
1.923490737569e+01
8.864701982538e+00
8.870575777158e+00
2.006335714038e+01
2.100888090313e+01
1.778989215884e+01
6.879970958513e+00
-1.875200580734e+01
7.015242665113e+00
1.544432062756e+01
1.513132476061e+01
1.890435856361e+01
2.158052958222e+01
5.835702967761e+00
2.162096917239e+01
1.160812599193e+01
1.908996299353e+01
5.196979450549e+00
2.078913748704e+01
2.370649845521e+01
2.226380999983e+01
2.234891407454e+01
1.646576847812e+01
2.092214723378e+01
1.618749336170e+01
2.268405731876e+01
2.072860579725e+01
1.756953256994e+01
-2.612678141347e+01
2.379353467281e+01
7.317164122968e+00
1.752467078251e+01
2.096795329638e+01
2.007963025161e+01
2.108799819075e+01
1.082518620782e+01
2.251839488054e+01
7.094129870616e+00
7.400003047729e+00
1.634503026791e+01
2.106780143595e+01
2.605810292376e+01
8.943256251477e+00
1.744690181212e+01
6.293114450662e+00
1.852310638897e+01
2.364164968202e+01
1.974837491756e+01
1.804663369205e+01
1.643694802691e+01
1.040351536461e+01
2.147675864455e+01
2.082019526869e+01
2.036000123416e+01
1.622559496639e+01
2.186891714965e+01
1.514800742545e+01
1.830052379661e+01
2.092059047984e+01
9.607492110706e+00
1.369791908527e+01
1.594567326246e+01
8.462785998590e+00
1.716569167248e+01
2.318867189333e+01
5.949940008975e+00
2.394675506002e+01
-2.054974767958e+01
8.802872694395e+00
1.160496025687e+01
7.868483091205e+00
2.123726840473e+01
2.323537948062e+01
2.065092585284e+01
2.004342394383e+01
2.376881670839e+01
6.442224263284e+00
2.447508018853e+01
2.102007855310e+01
6.709981888398e+00
2.095336354384e+01
1.131312202031e+01
2.103832847209e+01
6.294410422070e+00
2.330587694888e+01
4.525701902500e+00
1.959038046077e+01
2.307373378735e+01
2.433051622361e+01
1.447577354153e+01
6.144912955574e+00
2.354207155186e+01
4.987208607153e+00
1.994418211455e+01
1.811830178275e+01
2.158507595662e+01
2.115811029868e+01
1.902928997472e+01
1.800151739955e+01
2.286024071802e+01
1.435474183383e+01
2.079123514806e+01
8.621439606495e+00
2.346320502289e+01
1.829070928663e+01
1.691274242352e+01
2.098261982374e+01
2.136837194109e+01
2.457045575704e+01
1.764690776261e+01
1.160484070824e+01
1.285436656627e+01
2.326057255515e+01
-2.705358590749e+00
1.884337619665e+01
1.422914279440e+01
1.941584324078e+01
2.368814225869e+01
9.737905956383e+00
1.108395303990e+01
2.177291502675e+01
1.629589159862e+01
1.804881738614e+01
1.342717030547e+01
1.484842223249e+01
1.206164621978e+01
1.008014911891e+01
2.530575637434e+01
1.931257026609e+01
1.183453214618e+01
2.042067243315e+01
1.925475731458e+01
1.739459221373e+01
1.721452357791e+01
2.427815625289e+01
2.337711109307e+01
5.826352433168e+00
2.493307304998e+01
2.338039730578e+01
-1.668012460207e+01
1.558814050341e+01
-2.290782358484e+01
4.443698877529e-01
2.232493810165e+01
1.476754220710e+01
1.604813922653e+01
1.407622326379e+01
2.172923395194e+01
1.699233309941e+01
8.478561845855e+00
2.340227028581e+01
1.236532707692e+01
2.093781359794e+01
1.017905244040e+01
2.266185242068e+01
2.520704070509e+01
1.391930442398e+01
2.387491797852e+01
2.103363169391e+01
1.626974253975e+01
2.387661631417e+01
2.306970832951e+01
1.985727928672e+01
1.662800222380e+01
1.517955404209e+01
2.184618515667e+01
2.483326635148e+01
2.108526813234e+01
1.367745520687e+01
1.889944388109e+01
1.900274248088e+01
2.555081990187e+01
9.301680700117e+00
1.099463280950e+01
1.113982208695e+01
2.468765301723e+01
2.452753969348e+01
2.197698094009e+01
1.601141154326e+01
1.379588783327e+01
2.355021719727e+01
1.643806770819e+01
1.706087136983e+01
1.606008972304e+01
2.082786386216e+01
2.628946771579e+01
1.556932090267e+01
2.336622930704e+01
2.551628648740e+01
2.493756211827e+01
6.300148119066e+00
2.524164314459e+01
2.355533328448e+01
1.610239730952e+01
8.542623237834e+00
1.208022903958e+01
2.535319387797e+01
2.201226677595e+01
2.406303494706e+01
1.457793907533e+01
-3.205922822896e+00
1.713286507971e+01
2.609386900539e+01
1.311642556767e+01
9.454956767646e+00
2.537444486209e+01
2.484062175585e+01
2.226111822751e+01
1.875991141507e+01
1.537486761911e+01
1.814647449551e+01
2.588008008441e+01
2.545836058732e+01
2.348721907070e+01
2.386714453093e+01
2.094752519033e+01
1.931182382800e+01
1.993591458959e+01
1.969013275952e+01
2.473915951401e+01
2.211073720479e+01
1.638756202241e+01
2.317283708331e+01
2.383180747964e+01
1.632105028054e+01
1.819827307238e+01
2.522415642311e+01
2.501854344215e+01
2.192319620188e+01
2.149622043514e+01
2.388843550898e+01
1.749537936812e+01
2.487977315627e+01
2.554102181103e+01
2.573960220595e+01
2.290483707890e+01
1.417445781921e+01
2.089681335323e+01
2.566635003520e+01
2.584112808316e+01
2.123159792902e+01
1.290248358578e+01
2.393895596154e+01
2.038890025046e+01
1.207171709142e+01
2.157924177857e+01
2.337322346089e+01
2.054168959003e+01
1.199674661263e+01
1.774542362186e+01
1.945559074112e+01
1.302606217498e+01
1.509220845133e+01
1.519730204684e+01
1.985424138244e+01
2.180074001590e+01
1.135388037846e+01
9.990147989286e+00
2.509344297166e+01
1.239215363477e+01
1.077918876546e+01
2.273356944690e+01
6.354718462941e+00
2.161682918425e+01
2.460900170362e+01
1.638350783191e+01
2.206349524941e+01
1.400470673365e+01
2.594142715430e+01
2.263254721872e+01
2.183551122802e+01
1.309376629244e+01
2.525187647831e+01
1.911851395194e+01
1.881463150674e+01
2.254044370277e+01
1.787262613029e+01
1.739723442702e+01
1.563995392159e+01
1.269026075459e+01
2.171851627164e+01
2.215872594209e+01
1.777819831699e+01
1.569127413021e+01
2.221454796848e+01
1.898991060259e+01
2.408132960084e+01
2.455481852755e+01
1.821498159028e+01
2.553081713346e+01
1.873645924298e+01
1.737143824028e+01
2.397429629638e+01
2.067792191265e+01
1.562197468370e+01
2.020263767058e+01
2.013457594463e+01
1.969619416414e+01
1.884680261289e+01
2.248457282266e+01
1.644269634949e+01
2.211462847627e+01
2.505402670028e+01
2.351893665018e+01
1.675182940445e+01
6.043446202296e+00
1.192513212282e+01
2.206693030348e+01
1.828208220330e+01
1.310133644182e+01
1.601458757217e+01
2.493576229339e+01
2.307410681807e+00
2.456550844164e+01
2.115073165062e+01
2.426138796034e+01
2.508513261246e+01
9.244519325549e+00
1.159556633491e+01
2.369440978227e+01
2.081637624232e+01
2.499123652175e+01
8.835430922307e+00
1.024927411417e+01
1.926957336810e+01
2.462380878064e+01
1.504136950427e+01
2.120017549428e+01
1.183023376795e+01
1.666610227587e+01
1.915921060469e+01
1.671064841628e+01
2.342449604714e+01
2.134150678877e+01
2.097223383086e+01
2.014876942988e+01
2.055055153546e+01
1.580878446728e+01
1.674819945207e+01
1.840617273560e+01
2.079339927117e+01
1.903702257809e+01
1.852087050881e+01
1.741610100875e+01
2.172130750513e+01
1.705147442089e+01
2.567751976269e+01
1.705788772833e+01
2.268255070209e+01
2.218563582468e+01
1.546059497222e+01
2.324478933295e+01
1.852804580941e+01
2.245088264324e+01
2.138407480056e+01
1.886220750221e+01
1.982256424942e+01
2.137988191550e+01
2.364756626967e+01
2.114300865811e+01
1.898530444278e+01
1.795200573217e+01
-1.355314940817e+01
2.135407164846e+01
2.146207956849e+01
2.126423402950e+01
2.564849060004e+01
2.182491682744e+01
-4.636413146135e+01
2.233873863177e+01
1.740808151059e+01
1.875416393034e+01
1.688948734160e+01
2.283678669569e+01
2.143567783383e+01
2.535234586785e+01
2.490441488956e+01
2.122623243050e+01
-1.824250507162e+01
1.383066145897e+01
1.926811556190e+01
8.785239993638e+00
2.162554050579e+01
2.139095324789e+01
1.473384489254e+01
1.452738732639e+01
2.632632904059e+01
1.546781760522e+01
2.197407637902e+01
6.402149058889e+00
1.020907406768e+01
2.128229578182e+01
6.292001587101e+00
1.923218412672e+01
2.274735057819e+01
1.090431060230e+01
2.236020944609e+01
2.568875652718e+01
2.274649754955e+01
2.113675742249e+01
2.076156051484e+01
2.035652066107e+01
2.201680040584e+01
1.828087467106e+01
2.180185194997e+01
2.323290567236e+01
2.099794581268e+01
2.299955727653e+01
2.423546297224e+01
2.363212601773e+01
1.206375207671e+01
2.139609735358e+01
1.309771822397e+01
2.086588256463e+01
2.230232138504e+01
2.127759279566e+01
1.846263965932e+01
-4.377012146971e+01
2.367027100566e+01
1.685215836168e+01
2.141929634468e+01
1.619342294884e+01
2.307769777260e+01
2.256327795969e+01
2.200778051691e+01
2.172330805564e+01
2.246858326571e+01
1.507202086580e+01
2.142380431990e+01
2.339833251942e+01
2.291214739854e+01
9.705960276382e+00
1.724133432151e+01
2.299942037024e+01
1.634523657623e+01
2.121450535231e+01
1.864411115769e+01
2.326585629405e+01
2.113867186422e+01
2.468638650485e+01
2.397156563035e+01
2.300857118519e+01
2.046403896375e+01
2.125574641272e+01
2.468404198387e+01
2.219092195492e+01
1.883791995808e+01
2.297028923654e+01
1.850279695094e+01
2.306243158894e+01
2.640424553441e+01
2.155750352165e+01
1.737972795086e+01
1.579469549883e+01
2.092540578622e+01
2.214252285552e+01
2.461199397878e+01
4.217589259282e+00
2.135487149981e+01
1.763637866162e+01
2.050442295569e+01
2.076921987183e+01
2.269843206934e+01
1.713993264956e+01
1.139328392549e+01
2.580658017454e+01
2.148158686025e+01
2.478008934949e+01
1.440568754803e+01
1.573643877798e+01
2.414012008592e+01
1.128900332114e+01
1.834143629463e+01
2.531615363368e+01
2.055206317926e+01
2.086750986324e+01
-3.647766823108e+01
2.308852585448e+01
2.107238116433e+01
1.935740471843e+01
2.423558938808e+01
2.365435218321e+01
1.114587332590e+01
1.921252371260e+01
2.073019638728e+01
1.856979253010e+01
1.929179352388e+01
1.919829650411e+01
1.916816985263e+01
-3.397423021092e+01
1.237281265608e+01
1.759036068149e+01
-5.772314643111e+01
1.897622629357e+01
2.338819715286e+01
1.663417230399e+01
2.545350460211e+01
2.541347545376e+01
7.483946843167e+00
1.592821101740e+00
1.866904353455e+01
1.981661381996e+01
-4.892814395296e+01
9.016108271758e+00
-6.197552941104e+00
1.559639078527e+01
2.014668005063e+01
1.658896109765e+01
2.220887215955e+01
1.652812076677e+01
1.994909850560e+01
2.280494644133e+01
2.406216747171e+01
1.751536998762e+01
1.610855654118e+01
2.128123104500e+01
2.069499978058e+01
1.814173414137e+01
1.924814835586e+01
2.234452746626e+01
2.265073360586e+01
1.010981203923e+01
2.294432794015e+01
-1.673157768282e+00
1.897079794566e+01
1.935665451833e+01
-1.863665861617e+01
1.780003768741e+01
1.742531888375e+01
-5.067715836669e+01
1.814218302148e+00
2.589709189928e+00
2.474700078544e+01
1.606189691598e+01
1.999322064769e+01
2.104213023562e+01
2.160162369837e+01
2.135466103776e+01
1.586463119274e+01
1.979489369810e+01
8.610757025117e-01
1.387543939509e+01
1.906803914473e+00
2.089903160125e+00
-5.673583264105e+01
-1.887304161583e+01
1.271219786873e+00
1.431645440767e+01
-1.881739544596e+01
1.843918120130e+01
3.566656228726e+00
1.601104216661e+01
1.298992698178e+01
1.914538779078e+00
1.975641758073e+01
2.322083663865e+01
1.129783860397e+01
1.655566779981e+01
-1.099253365570e+00
1.910312068488e+01
1.878174154482e+01
9.623569663146e+00
1.705611034127e+00
1.672988061029e+01
1.873421835208e+01
1.532444763861e+01
2.095777008193e+00
1.528825127642e+00
9.678233333405e+00
1.996738996230e+01
1.871610701601e+01
-1.923047597447e+01
-5.642585545906e+01
4.500581307678e+00
1.961692696076e+01
2.088764183862e+01
1.153219777455e+01
1.587569400049e+01
4.864354311554e+00
2.494803432320e+01
-1.596654694710e+01
1.910675996480e+01
2.489901417319e+01
2.105174803430e+01
1.282773902677e+01
1.541515977306e+01
-1.878181827831e+01
1.997992792172e+01
1.885642093104e+01
1.870446051585e+01
1.889066940082e+00
2.477385638413e+01
1.902651532537e+01
2.322490373056e+01
-1.696792707139e+00
-1.911081202187e+01
-1.992821511497e+01
1.740767956869e+01
2.081337547166e+01
1.804056670117e+01
-5.659525204227e+01
1.839546334200e+01
2.057834502958e+01
2.087221630330e+01
2.123822489674e+01
1.473656954408e+01
1.638698742783e+01
2.056657209318e+01
2.057660940815e+01
1.587790918484e+01
-5.138431104643e+01
1.933864315681e+00
1.993407138110e+00
-5.659483126412e+01
2.060099208962e+01
2.119298085183e+01
2.061570971493e+01
-5.173087219501e+01
-5.156123287636e+01
2.066374624864e+01
2.064024297976e+01
1.407451295550e+01
1.989335273292e+00
1.532908715209e+01
1.029531454425e+01
2.060183392375e+00
-4.693137057601e+01
-4.435349071157e+01
-4.423793877713e+01
-4.487242610822e+01
1.866396588721e+01
1.809562018058e+01
-5.630573397534e+01
1.974076964374e+01
-5.346185012936e+01
1.957924651139e+01
1.896015888222e+01
1.919095693502e+01
1.488831586751e+01
1.542603708760e+01
1.890765205705e+01
2.100686769582e+01
1.892030206531e+01
2.093340948594e+01
2.081937588368e+01
1.777508481324e+01
1.869583599849e+01
1.872538014202e+01
2.095285291021e+01
2.086998261048e+01
2.032461656517e+01
-1.780366587427e+01
1.855133575319e+01
-2.018769522258e+01
2.145082126878e+01
1.903463048450e+01
2.134062595403e+01
1.357518699921e+01
-2.083416427239e+00
2.112297245398e+01
1.890367114429e+01
1.709213383425e+01
2.123219245624e+01
1.721341151227e+01
1.702278251396e+01
2.298453403272e+01
2.189755091706e+01
2.084634660076e+01
2.094592480294e+01
2.588605685187e+01
1.482860441043e+01
2.331026418081e+01
2.082234200372e+01
2.111907963071e+01
2.111890347470e+01
1.425849665553e+01
1.712525433018e+01
1.620927977963e+01
7.977076112995e+00
2.160270130378e+01
2.081223666688e+01
1.721156240308e+01
1.672989448625e+01
2.064897109088e+01
2.099639938012e+01
1.592676815354e+01
2.090379561780e+01
2.123860329533e+01
1.711689114691e+01
1.430712854465e+01
2.288166260891e+01
1.388247047772e+01
1.390830508632e+01
1.068607061786e+00
2.192787458246e+00
1.670520752950e+01
2.105063101082e+01
-1.006195997435e+01
1.798433180784e+01
9.266986442395e+00
2.134100289414e+01
2.117541293225e+01
1.957530404953e+01
2.107993686982e+01
7.959154945063e+00
2.459378157201e+01
2.109596844030e+01
1.284998434341e+01
2.145102737516e+01
1.505366083188e+01
1.434631356462e+01
1.534892571769e+01
1.915013452043e+01
1.254855678925e+01
1.763390626595e+01
1.571150500831e+01
1.365694723303e+01
1.929204421536e+01
2.059216338274e+01
2.111385496808e+01
1.509572334114e+01
1.193399948945e+01
1.899348602420e+01
2.309912738805e+01
1.555209568844e+01
1.859537171561e+01
2.060744528068e+01
2.166531002126e+01
1.433564727337e+01
2.555000774156e+01
-5.726868786118e-01
2.394403222352e+01
2.119398963140e+01
1.351035628706e+01
1.945253474962e+01
1.047026562945e+01
2.254000784441e+01
1.933480042530e+01
2.131268713589e+01
1.361481819159e+01
2.137717508898e+01
1.924623962930e+01
1.420344781249e+01
1.894123212215e+01
1.806727503396e+01
1.602071770020e+01
1.948359979253e+01
-5.568651464513e+01
-5.442246219094e+01
2.014296667669e+01
1.305626632794e+01
2.066557317319e+01
2.061445760792e+01
1.852410486004e+01
1.823923193944e+01
1.645537823998e+01
2.396139215460e+01
1.817226823560e+01
2.237831355879e+01
1.089371970144e+01
1.171070835859e+01
9.305102748642e+00
1.071196961148e+01
2.195883863289e+01
1.467850573767e+01
1.290555427484e+01
1.685648966700e+01
1.693199537680e+01
1.471405584195e+01
1.975738787223e+01
1.457899945391e+01
2.092914983823e+01
1.940528095591e+01
1.764867359591e+01
1.651342410107e+01
2.077098337451e+01
2.149923460583e+01
1.174590339968e+01
2.142618860523e+01
1.473176883170e+01
1.936591352364e+01
1.347315293182e+01
1.538116581516e+01
2.620411478444e+01
1.607032192979e+01
1.868408042282e+01
1.929391158150e+01
1.760164530459e+01
1.745382036454e+01
1.414641018098e+01
2.044524500019e+01
1.546744248903e+01
5.371197659895e+00
1.409782145819e+01
1.511364179068e+01
2.151684277240e+01
1.491155603098e+01
2.155439976837e+01
2.142732890464e+01
1.852281347179e+01
1.398390391002e+01
7.106653405169e+00
2.137388728374e+01
1.280365123084e+01
-9.590336560499e-02
1.756080612925e+01
1.377168735738e+01
1.251254128823e+01
1.802583017868e+01
2.173935923076e+01
1.737253100509e+01
1.617289806288e+01
1.655324472864e+01
2.206641343289e+01
1.367532959568e+01
2.139096335177e+01
1.902394644061e+01
2.179904669698e+01
2.507176801872e+01
1.208570084027e+01
1.076227881175e+01
2.428112696636e+01
2.073851626847e+01
1.276098542703e+01
1.525893274749e+01
1.306665800229e+01
1.355270412924e+01
2.170581510769e+01
2.427185940079e+01
2.407976564781e+01
1.739107786258e+01
2.101353330250e+01
1.134603559836e+01
2.155957786828e+01
2.183112334408e+01
1.905418656891e+01
2.138230717783e+01
1.486561969679e+01
1.889925813129e+01
2.144886231540e+01
1.013447675239e+01
1.537491405008e+01
1.706626996272e+01
2.174749578772e+01
2.204720527757e+01
1.803206982290e+01
2.225086603428e+01
1.394601886283e+01
1.172714553493e+01
1.114821987473e+01
1.906748250943e+01
2.227209207626e+01
2.173459367960e+01
1.047187085327e+01
1.857598418132e+01
2.357151705874e+01
2.230614610945e+01
1.543715420360e+01
1.771939469484e+01
1.741530542314e+01
1.240205618587e+01
2.245942995243e+01
1.782859166254e+01
1.322917726351e+01
1.225214543767e+01
2.595624463963e+01
1.673876624321e+01
2.569590805536e+01
1.720013933517e+01
1.773314247113e+01
1.301844085975e+01
2.262076318930e+01
2.003093521785e+01
1.601603632900e+01
2.113983421964e+01
2.293181256101e+01
2.132815245774e+01
2.410221788360e+01
1.374331360037e+01
2.217759235394e+01
2.190273252183e+01
2.150500629327e+01
1.820425359746e+01
2.219158799468e+01
1.326880672488e+01
1.809501422954e+01
2.149398651818e+01
1.667829974647e+01
1.692144999625e+01
1.802311812343e+01
1.578785142676e+01
1.507450442783e+01
2.002151030340e+01
2.261548914076e+01
2.104515928866e+01
-4.682737699651e+01
2.393176208605e+01
2.174997042065e+01
1.883940108412e+01
1.227268186976e+01
2.064109137625e+01
1.709121992213e+01
1.884302911398e+01
1.560471525527e+01
1.725927830945e+01
3.844671629252e+00
9.712467836977e+00
1.801670221732e+01
1.739042752707e+01
2.285397412792e+01
2.002032809374e+01
1.352526784758e+01
1.117826515855e+01
1.092219611111e+01
1.627176862532e+01
2.299601076219e+01
2.153409284072e+01
1.377734246116e+01
1.633211472999e+01
2.063814620354e+01
2.586192955530e+01
2.151059302244e+01
1.571779203134e+01
1.858062080184e+01
2.523179029914e+01
2.222582575463e+01
1.407238599025e+01
1.812427121393e+01
2.092324252819e+01
2.209102522808e+01
1.643517660806e+01
2.165857532641e+01
2.318565483099e+01
2.473008277913e+01
1.700755744958e+01
2.454108587750e+01
1.390424611740e+01
2.520692817629e+01
2.254506917311e+01
1.745062047957e+01
2.227544813989e+01
2.218857704506e+01
2.046464278061e+01
1.774471590836e+01
1.609903278996e+01
1.501812155532e+01
1.688309484256e+01
2.318812288851e+01
2.372843257506e+01
1.609283943906e+01
2.082869906405e+01
1.399802730614e+01
1.815261159420e+01
1.090383531898e+01
2.258736742816e+01
1.703758261707e+01
2.411312916309e+01
1.140213163687e+01
1.576351755251e+01
2.373293393168e+01
2.594424380332e+01
1.728853353444e+01
2.246445678597e+01
1.453323192405e+01
2.442650881693e+01
1.675870154153e+01
1.513058774327e+01
2.171328799469e+01
2.203927754556e+01
1.958188112280e+01
1.138633193914e+01
1.011643806738e+01
2.115371806743e+01
2.282719414448e+01
2.294750755127e+01
8.169680747091e+00
2.540258463745e+01
2.581388247760e+01
2.420939017796e+01
2.345026350118e+01
1.765515565319e+01
1.797666034901e+01
1.697775075078e+01
1.715689120818e+01
1.580599793790e+01
2.224619245516e+01
1.734531231425e+01
1.445144131104e+01
1.939245582801e+01
2.603342044347e+01
1.518038194726e+01
1.679943773065e+01
1.528720352740e+01
1.458082581549e+01
2.222679949354e+01
2.275862040774e+01
2.258994075419e+01
2.205249457921e+01
1.093779464721e+01
2.384905465998e+01
1.475291652796e+01
1.493602536827e+01
2.491031715846e+01
2.526083460929e+01
2.587130672811e+01
2.459391841499e+01
2.525333435681e+01
2.503965171932e+01
1.478890406851e+01
2.030961685170e+01
1.290413708026e+01
5.191540351775e+00
2.867878451086e+01
2.076347148738e+01
2.405765668181e+01
1.816424346171e+01
2.639847635869e+01
2.114525860457e+01
1.304059937239e+01
2.888237831728e+01
2.446750166669e+01
2.587210504175e+01
1.473638603948e+01
2.253390550775e+01
2.058344821581e+01
2.261360017752e+01
2.243685294023e+01
2.488763079022e+01
1.523353055726e+01
2.265928628242e+01
2.218362185255e+01
2.878177223141e+01
1.375923066252e+01
2.259334651745e+01
1.582101557386e+01
2.586187027977e+01
2.571739256241e+01
1.955035011014e+01
2.560381326537e+01
1.640076766417e+01
1.566479931042e+01
2.754070465068e+01
2.239620234145e+01
1.743154403694e+01
1.846400778415e+01
2.124788323238e+01
1.447701612894e+01
1.952544121800e+01
2.298374218846e+01
2.426387867874e+01
1.450928339170e+01
2.002071242517e+01
1.769846781449e+01
2.622990368310e+01
1.907871154914e+01
2.340404288558e+01
2.188932074323e+01
2.616227386527e+01
1.374027850881e+01
2.510540758473e+01
2.205162365659e+01
1.637175975030e+01
1.680854924947e+01
2.440515767226e+01
2.315258479108e+01
2.296627756945e+01
2.147589460109e+01
1.531393135171e+01
2.266246597403e+01
1.379139976592e+01
1.819871441370e+01
1.570971803622e+01
1.628543059330e+01
2.413003407797e+01
2.189337867478e+01
1.515047420308e+01
2.596014765091e+01
1.814048524714e+01
2.218669527196e+01
2.526794552417e+01
1.644135468916e+01
2.348173450818e+01
1.470791216746e+01
2.334022988289e+01
2.409132854736e+01
1.724894546895e+01
1.776233674379e+01
2.421184483643e+01
1.627698443681e+01
2.605860913232e+01
2.124028220094e+01
1.458585701449e+00
1.893667722013e+01
-9.540216346461e-01
-6.366253625338e-01
2.645826866643e+01
1.057682770507e+00
2.459541764347e+01
2.483184961013e+01
2.563042162953e+01
2.348320027325e+01
2.633622159608e+01
1.686279180796e+01
1.856270033426e+01
2.213195752679e+01
2.288783690740e+01
2.409578286565e+01
1.632107966467e+01
2.621700502820e+01
2.161027955521e+01
1.575709802725e+01
1.579795795499e+01
2.529599828923e+01
2.624649789527e+01
2.125195800771e+01
1.703777176323e+01
2.173282152456e+01
2.417734175864e+01
2.360968874659e+01
2.030395010944e+01
2.137691074937e+01
1.513662818032e+01
2.573187557016e+01
2.122012583146e+01
2.375598042100e+01
1.634272227520e+01
2.084495263458e+01
1.292603907871e+01
2.321126454793e+01
2.596737103661e+01
2.349108084917e+01
2.334355824415e+01
1.723925806751e+01
2.048528022057e+01
2.593262208824e+01
2.496558653487e+01
2.273781698049e+01
2.375732416222e+01
2.556536319470e+01
2.539676136742e+01
2.299050671484e+01
2.357607131777e+01
2.612559956321e+01
1.578606318616e+01
2.125837000408e+01
1.675490074493e+01
2.251806517408e+01
1.466229092478e+01
1.191504181567e+01
1.835737233589e+01
2.327233686858e+01
2.193562992431e+01
1.452210583725e+01
1.778961557493e+01
1.337189715032e+01
2.520099938422e+01
2.233408090915e+01
1.728664344057e+01
2.485830805506e+01
2.433052697596e+01
2.539780605055e+01
1.527768101295e+01
1.909049460029e+01
2.479520961481e+01
1.938430945275e+01
2.392760076206e+01
2.198288811634e+01
2.540910054495e+01
2.405623809512e+01
1.795636573338e+01
1.741517217205e+01
2.472678824359e+01
2.242430065856e+01
1.454694072837e+01
2.221827326832e+01
2.520029491729e+01
2.594887192204e+01
2.115756200779e+01
2.165900027955e+01
2.429751418413e+01
2.159080414429e+01
2.040103513655e+01
2.255879458299e+01
2.390028747983e+01
1.298358977466e+01
1.998506672514e+01
2.617245314781e+01
2.145196468072e+01
2.425325373231e+01
2.591441990185e+01
2.199178327670e+01
2.331495521602e+01
2.192611283775e+01
2.380878233657e+01
2.021499051635e+01
2.178935063876e+01
2.459034051418e+01
2.184875587951e+01
1.773028213347e+01
2.187931646104e+01
2.338558048724e+01
2.560148578643e+01
2.210397002409e+01
2.121085292533e+01
1.912842388235e+01
2.210625781075e+01
1.372278304496e+01
2.167942158211e+01
2.227860104636e+01
2.113031635811e+00
2.135320089376e+00
1.613069317905e+01
2.222645054328e+01
1.994902325048e+01
1.832135497555e+01
2.496120050900e+01
2.269389672940e+01
2.577473614994e+01
1.902259945421e+01
9.489501004457e+00
2.421752987049e+01
2.103632737160e+01
2.449252617016e+01
1.912960139203e+01
2.213314886842e+01
1.963284892060e+01
1.386404845695e+01
1.892576577109e+01
1.884709305684e+01
9.862087363230e+00
1.938688095133e+01
1.839732293035e+01
1.683155359890e+01
1.703131645594e+01
2.301261103594e+01
1.235424055003e+01
2.263296383628e+01
2.240126958226e+01
1.893620008794e+01
4.059639864752e+00
3.989391407180e+00
1.394782152123e+01
2.221594443715e+01
2.004223971773e+01
2.369803531899e+01
2.454695971129e+01
2.148951837192e+01
1.675703316896e+01
1.953956411413e+01
2.184061122753e+01
9.963318757091e-01
2.381599974268e+01
2.250679477356e+01
5.092307576503e-01
1.681707049809e+01
2.366770729818e+01
1.714633031505e+01
2.075885499881e+01
2.461761123903e+01
2.406343788326e+01
1.730381138006e+01
2.387731714613e+01
2.346465453263e+01
2.283558982376e+01
3.217733095286e+01
2.487793895784e+01
2.216212655044e+01
1.284571319798e+01
2.234796892365e+01
2.452842559341e+01
1.712401379058e+01
2.170262793481e+01
5.013543055886e+00
2.199070059517e+01
2.162957049313e+01
2.299689893826e+01
2.012832095129e+01
1.981848201477e+01
1.795607501752e+01
2.358279842221e+01
2.101152983655e+01
2.594442049676e+01
2.343575747487e+01
2.468081040227e+01
2.546757225162e+01
2.573159734137e+01
2.574667815277e+01
1.767945064993e+01
2.486934635905e+01
1.923314357071e+01
2.315908704757e+01
2.368073283401e+01
2.539102930273e+01
1.319936766578e+01
2.158592949123e+01
2.142663577062e+01
2.164828755026e+01
1.967368855799e+01
2.116634527612e+01
1.542878079014e+01
1.974855294624e+01
3.344805654344e+01
2.136936090808e+01
2.565337174092e+01
1.922276052154e+01
2.429795853001e+01
1.336101974135e+01
1.251108640291e+01
2.275722783014e+01
6.625030524104e+00
4.665579962953e+00
2.126572154970e+01
2.369183684080e+01
2.504871178346e+01
2.430592536159e+01
2.576218903040e+01
2.491003996060e+01
-1.270067677674e+00
1.080387987527e+01
2.174887726385e+00
2.352843362413e+01
2.524468704092e+01
2.237059907059e+01
2.105822666944e+01
2.578536320544e+01
2.103359011773e+01
2.459911671933e+01
2.258948372484e+01
2.345042647979e+01
2.343344804732e+01
2.273955038315e+01
1.824908327443e+01
2.039448851297e+01
2.539029391129e+01
2.009395524152e+01
2.386013458591e+01
2.370357147645e+01
2.529043499079e+01
2.094911109006e+01
1.898706040436e+01
2.766543417360e+01
2.558672784181e+01
2.295016194938e+01
7.923318133845e+00
1.999242090836e+01
2.064386275401e+01
1.372696476589e+01
1.792852733861e+01
1.975461622338e+01
3.499586537224e+01
9.009869815940e+00
2.472231196372e+01
1.951594890963e+01
1.180274570492e+01
2.415023586777e+01
2.346898915817e+01
2.283564636338e+01
2.494351308711e+01
1.895751044110e+01
2.354819163259e+01
1.955550814304e+01
1.958109575530e+01
1.602391940553e+01
5.921415646824e+00
1.402253116617e+01
2.049766798413e+01
-1.460564747209e+00
1.353232182229e+01
1.251237967104e+01
1.954020194298e+01
2.499389977471e+01
2.353004307689e+01
2.439698236184e+01
1.998843858607e+01
1.587864804883e+01
1.963277416684e+01
2.582154571173e+01
2.038752561723e+01
8.238506077688e+00
2.362948097155e+01
1.959338978958e+01
1.975755674480e+01
2.642859125404e+01
2.475480647212e+01
1.969258446697e+01
1.331866425530e+01
1.162596010086e+01
2.710753375254e+01
2.001843391236e+01
2.198051897793e+01
2.217746202684e+01
2.242114021692e+01
1.154608074935e+01
2.246455283312e+01
2.533810133627e+01
5.608378117938e+00
1.966468398601e+01
1.480878719476e+01
7.584368484115e+00
1.979421226618e+01
2.414044932997e+01
1.978352097668e+01
2.487755468506e+01
1.681919652864e+01
2.345732874579e+01
2.313573175401e+01
2.374390692149e+01
2.008141928276e+01
1.984372822219e+01
2.532640834478e+01
5.972818113917e+00
2.736917395514e+01
2.018482976933e+01
2.305153462785e+01
2.021786475675e+01
2.070541761215e+01
1.772110453646e+01
1.954570623527e+01
2.170243672767e+01
9.349207198739e+00
1.887030953051e+01
2.057137558493e+01
7.229077352359e+00
2.200681941805e+01
2.345249101349e+01
2.513850276044e+01
4.939440888805e+00
3.499586537224e+01
1.746944143519e+01
1.514825023513e+01
5.091133576228e+00
2.182090318980e+01
1.310382030816e+01
2.186581755653e+01
1.487011151063e+01
1.962433020726e+01
2.359454218271e+01
2.151130111057e+01
2.201689671289e+01
2.016652116940e+01
1.677652404541e+01
2.100642198463e+01
2.342327141629e+01
2.001768344155e+01
7.982335877166e+00
2.485589440018e+01
1.649072754581e+01
1.814597251825e+01
1.847581942915e+01
2.406076526576e+01
1.847451094238e+01
2.512062014746e+01
2.746663869836e+01
1.719228446110e+01
2.410582692873e+01
2.549120360599e+01
2.048821564288e+01
1.917535184229e+01
1.985240024085e+01
1.474100848206e+01
2.101836258557e+01
2.559935242882e+01
2.331740840569e+01
1.773560387858e+01
2.321732840400e+01
1.837433902141e+01
2.406542717663e+01
2.259255096782e+01
2.414497428334e+01
2.163917515010e+01
2.515957220260e+01
2.435550759320e+01
2.415385954713e+01
1.279105004593e+01
1.664534458955e+01
2.248514622951e+01
2.438462756635e+01
2.160275660942e+01
1.578537095243e+01
1.761866091128e+01
1.682329909138e+01
-1.760058162986e+01
2.380558685800e+01
1.462979041304e+01
1.537899417693e+01
2.035491441976e+01
2.443385219877e+01
2.088007949425e+01
2.394345125152e+01
1.983032704810e+00
2.107141178935e+01
1.335242441709e+01
2.318509059389e+01
2.479052758190e+01
1.144274906348e+01
1.757503570324e+01
2.553680413408e+01
3.677055796833e+00
2.463919962357e+01
2.020462544414e+01
1.700624955960e+01
1.083282530409e+01
1.918833373910e+01
1.946553856375e+01
2.311216949761e+01
1.880588759488e+01
1.485412565119e+01
2.541024682767e+01
1.238281874245e+01
9.125327792039e+00
2.149190889675e+01
1.958669257861e+01
9.154361022375e+00
1.809067235596e+01
2.021638937593e+01
2.434392079389e+01
2.253190351972e+01
2.216503937195e+01
8.223188726144e+00
1.394242005376e+01
1.931948569850e+01
1.764082974196e+01
2.309391770125e+01
2.613454265108e+01
2.791048618253e+01
8.738307106412e+00
2.426215904461e+01
1.583548834897e+01
2.325750292934e+01
2.097690522313e+01
2.109156831688e+01
2.295679886430e+01
5.745105346688e+00
7.261765626670e+00
2.843165752949e+01
1.817677621126e+01
2.718770434894e+01
2.507941421817e+01
2.132062078227e+01
2.297799211391e+01
2.059872563717e+01
1.703569819910e+01
2.164472303417e+01
1.750678540291e+01
1.618773106351e+01
1.869558488125e+01
2.079007726569e+01
9.234718399583e+00
2.058716321944e+01
2.607200760464e+01
2.059431802364e+01
2.059630479604e+01
3.124920805921e+01
2.959707952385e+01
2.294558939556e+01
6.108469352884e+00
1.759699185470e+01
1.984755634390e+01
2.275021520954e+01
1.838741439946e+01
9.614488512739e+00
1.663402229034e+01
1.747057577737e+01
1.399896577421e+01
2.268591479177e+01
2.396538498453e+00
6.264410850451e+00
8.985075053006e+00
9.754810989046e+00
2.333221028590e+01
1.600049284032e+01
1.821615879632e+01
1.192684053302e+01
2.178014756101e+01
1.907536914494e+01
1.779989421673e+01
1.764504756911e+01
1.813423694690e+01
1.775960920449e+01
2.161774969035e+01
2.139711961736e+01
1.455248389176e+01
2.134933386148e+01
1.106135286736e+01
6.279962371262e+00
2.256611398644e+01
-5.064058243030e+00
-2.244719788575e+01
1.882332202235e+01
1.700798114141e+00
1.811764462232e+01
2.207384439334e+01
1.694412573363e+00
8.023358513788e+00
1.828795422770e+01
9.934784715167e+00
1.778115876881e+01
2.058469672212e+01
1.867838746205e+01
2.348160775891e+01
9.145206279348e+00
1.803331320084e+01
2.315898741774e+01
2.167169141962e+01
1.540187517147e+01
2.171660787052e+01
2.586444238566e+01
2.100680462582e+01
2.108577384420e+01
1.087264521540e+01
2.187581198104e+01
1.855851190513e+01
1.847922024742e+01
5.863837547750e+00
1.011367157107e+01
2.016780847305e+01
1.997066717495e+01
1.681462571378e+01
2.232507186340e+01
2.324212858910e+01
1.819208402832e+00
1.823881679198e+01
1.866623307406e+01
1.887151163006e+01
-5.023888469568e+01
-5.182718569854e+01
2.723185334277e+00
2.009401531957e+00
2.057396614458e+01
2.073249291816e+01
-2.286869470130e+01
8.573145566498e+00
2.095813371870e+01
2.218041501333e+01
1.410366496478e+01
2.114212726676e+01
1.954811962088e+01
1.893997401168e+01
1.291183034635e+01
1.535665887017e+01
2.378687758040e+01
8.268753792650e+00
1.859211464315e+01
1.979263910211e+01
1.728055783013e+01
1.886810980800e+01
1.091008447787e+01
2.163663558793e+01
1.899996962945e+01
1.837384023617e+01
1.893809917312e+00
2.448681096170e+01
1.843546602547e+01
1.465643256080e+01
-2.449259916289e+01
2.120889093563e+01
2.340202027067e+01
1.507750730505e+01
1.404499155072e+01
2.075711383505e+01
2.189004262676e+01
2.191857256990e+01
1.983483561158e+01
2.456950413907e+01
3.003479481538e+01
1.910576505123e+01
9.026446771012e+00
2.431031331932e+01
1.779454486860e+01
2.159551325271e+01
7.424943001277e+00
-2.040767189161e+00
2.901968503144e+01
1.445701402500e+01
1.663968751772e+01
1.805425500463e+01
1.518367950579e+01
2.229686400534e+01
8.630299734300e+00
2.158269937521e+01
2.275074808891e+01
9.337236183069e+00
2.172998300146e+01
1.853094601587e+01
1.818009812478e+01
2.843915376647e+01
1.771693411697e+01
2.121296513612e+01
2.256939067179e+01
2.282946202216e+01
2.060993344223e+01
1.824337572893e+01
9.780455057043e+00
2.210587682689e+01
1.896501437550e+01
1.092306433065e+01
2.087328254390e+01
2.229717526395e+01
2.087885200455e+01
1.570509996573e+01
2.154835657397e+01
2.165750473974e+01
2.182023838540e+01
1.666184144651e+01
2.092059727101e+01
5.777798440707e+00
1.754901125027e+01
3.139038635708e-01
1.689685654655e+01
1.413307976595e+01
-1.068458134511e+00
2.273193684746e+01
1.909510879812e+01
1.836910397877e+01
1.768069303830e+01
2.220641813270e+01
1.075689112274e+01
-2.512114401196e+01
2.369594438241e+01
-1.647296811630e+01
5.341062418768e+00
3.499586537224e+01
1.844056312644e+01
2.091851919716e+01
1.867931477948e+01
1.152406770945e+01
1.804841523144e+01
2.157708034480e+01
2.253289278722e+01
2.216703904490e+01
2.118420385962e+01
1.976841041260e+01
-1.983528110111e+00
2.195691255618e+01
2.099604843679e+01
9.685521109652e-01
6.098513052995e+00
2.814968404773e+01
-6.502138950128e+00
2.116858098713e+01
2.072568696075e+01
1.784217802355e+01
2.161916948056e+01
2.255039422688e+01
1.198029322620e+01
1.933132915759e+01
1.964252778825e+01
1.548418893174e+00
1.386499121030e+01
-2.059801424052e+01
2.084294178662e+01
7.072634523356e+00
8.283223693465e+00
1.819099679415e+01
2.051929890092e+01
1.771078081825e+01
1.884286985099e+01
1.580264315357e+01
1.979643241228e+01
2.124284052623e+01
1.869591434841e+01
2.079924428149e+01
5.689147820607e+00
2.191407535693e+01
1.003881884883e+01
1.811355796898e+01
-2.286476135896e+01
2.129000099023e+01
1.872177556361e+01
1.714046648851e+01
2.199861882012e+01
1.511184767817e+01
1.838602050121e+01
2.108277489457e+01
1.331187774535e+01
2.057354781484e+01
1.821817782912e+01
1.422473308726e+01
2.009851526673e+01
1.723287471200e+01
1.837812008255e+00
2.215168466624e+01
1.834013268062e+01
-5.816255709750e+01
2.051074238420e+00
2.073782729138e+01
9.893511115434e+00
2.269352798586e+01
1.835415711268e+01
1.819407912410e+01
1.318581139933e+01
2.436704237100e+01
1.913933345036e+01
1.636478976454e+01
1.081195789143e+01
1.869264067322e+01
1.283115511743e+01
1.468411302880e+01
1.143651020102e+01
2.198986270365e+01
1.931460913799e+01
3.499586537224e+01
1.676685177861e+01
1.880592533591e+01
1.943892954739e+01
2.215662883219e+01
1.861081080248e+01
1.888547784419e+01
-6.845829313886e+00
2.129644146883e+01
2.126271715256e+01
2.363004983899e+01
1.834234417221e+01
2.070920125430e+01
5.905360170456e+00
1.277913121368e+01
1.860773208689e+01
1.875404028079e+01
1.892448472031e+01
2.277046786458e+01
1.221459648498e+01
2.118056612333e+01
8.921982123924e+00
1.841043260662e+01
2.250399101015e+01
1.138715861578e+01
1.966268306661e+01
2.222743601933e+01
2.220757073690e+01
3.163358712878e+01
1.964977788724e+01
2.027211240975e+01
-6.751089654820e+00
1.837198911915e+01
2.963519914060e+01
1.977352627782e+01
-2.883830857682e+01
-2.808944381063e+01
-2.908124047740e+01
-2.821214888792e+01
-2.889576482630e+01
-2.832167119827e+01
-2.898633277591e+01
-2.829127387650e+01
-2.925758753300e+01
-2.825007609401e+01
-2.970400131316e+01
-2.818431240557e+01
-3.032312620378e+01
-2.810833569731e+01
-3.111421096833e+01
-8.275040515301e+00
-2.778836248966e+01
-4.693465842952e+00
-3.220161427385e+01
-2.675063701780e+01
-3.367983441751e+01
-2.534208378776e+01
-3.538052675242e+01
-2.366572920411e+01
-2.502409148157e+01
-3.720728526308e+01
-2.162020664287e+01
-3.891568984247e+01
-1.909909303489e+01
-3.991877682947e+01
-1.686097531557e+01
-3.958269487411e+01
-1.398017897176e+01
-1.147137022009e+01
-3.623158489883e+01
7.565986887302e+00
-2.772658006570e+01
1.170147821749e+01
-2.755993848624e+01
-2.643500038494e+01
-2.552571877137e+01
-2.748328664067e+01
1.401247770123e+01
-1.796219898298e+01
-1.968193251467e+01
-1.989214564663e+01
-2.004116327178e+01
-1.988056737415e+01
-2.008936672238e+01
-1.979383387786e+01
-2.007191208257e+01
-1.950070922027e+01
-1.999013561660e+01
-1.927793238830e+01
-1.993009890212e+01
-1.889828033141e+01
-4.556014003922e+00
-1.985963052621e+01
-1.852568730431e+01
-9.620338522924e+00
-1.983328858904e+01
-1.794411279888e+01
-4.372024676200e+00
-1.989060566748e+01
-1.730558803470e+01
-1.999497330637e+01
-1.571108995099e+01
-2.011489371010e+01
-1.086170715047e+00
-1.381812134903e+01
-1.972019838212e+01
-1.867691638359e+01
-1.170480591256e+01
-1.625191758982e+01
-9.171541491933e+00
-1.239345943225e+01
-7.841454701339e+00
-3.325876089549e+00
-1.790289168294e+01
-1.681089571137e+01
-2.123935490897e+01
-1.438595638812e+01
-1.697266751486e+00
-5.610259317971e+00
-5.069585824691e+00
-5.062877453475e+00
-5.054486013986e+00
-5.046604596440e+00
-4.997878905569e+00
-4.963947235999e+00
-5.099451956453e+00
-5.114523940609e+00
-5.118158550825e+00
-5.078152722754e+00
-5.185895403210e+00
-1.006910812616e+00
-5.147246712128e+00
-2.953064369318e+00
-5.262068297318e+00
-5.168576494208e+00
-5.390261946348e+00
-5.312157443836e+00
-5.481265667369e+00
-5.232497384339e+00
-5.513572246116e+00
-4.350593593717e+00
-5.135349367113e+00
-5.521026155026e+00
-5.064402721328e+00
-5.345066302448e+00
-4.585293514924e+00
-4.664899087804e+00
-3.809980469651e+00
-3.582327241645e-01
-2.927059764897e+00
-4.702048240104e+00
-5.524829996458e+00
-2.686750068410e+00
-8.202576827115e+00
-1.146963828773e+00


