# vtk DataFile Version 2.0
Calculation C:\Users\johan\Documents\GitHub\TOCHNOG\standsicherheit_phiC at time 8.000000000000e+00 
ASCII
DATASET UNSTRUCTURED_GRID
Field FieldData 1
Time 1 1 double
8.000000000000e+00

POINTS 1089 float
0.0 0.0 0.0 
5.000000000000e+01 -1.000000000000e+01 0.0 
0.0 -2.000000000000e+01 0.0 
5.000000000000e+01 -2.000000000000e+01 0.0 
0.0 -9.999999999991e-01 0.0 
0.0 -1.999999999998e+00 0.0 
0.0 -2.999999999997e+00 0.0 
0.0 -3.999999999994e+00 0.0 
0.0 -4.999999999991e+00 0.0 
0.0 -5.999999999988e+00 0.0 
0.0 -6.999999999985e+00 0.0 
0.0 -7.999999999982e+00 0.0 
0.0 -8.999999999983e+00 0.0 
0.0 -9.999999999985e+00 0.0 
0.0 -1.099999999999e+01 0.0 
0.0 -1.199999999999e+01 0.0 
0.0 -1.299999999999e+01 0.0 
0.0 -1.399999999999e+01 0.0 
0.0 -1.499999999999e+01 0.0 
0.0 -1.599999999999e+01 0.0 
0.0 -1.700000000000e+01 0.0 
0.0 -1.800000000000e+01 0.0 
0.0 -1.900000000000e+01 0.0 
4.900000000001e+01 -2.000000000000e+01 0.0 
4.800000000001e+01 -2.000000000000e+01 0.0 
4.700000000002e+01 -2.000000000000e+01 0.0 
4.600000000003e+01 -2.000000000000e+01 0.0 
4.500000000004e+01 -2.000000000000e+01 0.0 
4.400000000004e+01 -2.000000000000e+01 0.0 
4.300000000005e+01 -2.000000000000e+01 0.0 
4.200000000006e+01 -2.000000000000e+01 0.0 
4.100000000006e+01 -2.000000000000e+01 0.0 
4.000000000007e+01 -2.000000000000e+01 0.0 
3.900000000008e+01 -2.000000000000e+01 0.0 
3.800000000009e+01 -2.000000000000e+01 0.0 
3.700000000009e+01 -2.000000000000e+01 0.0 
3.600000000010e+01 -2.000000000000e+01 0.0 
3.500000000011e+01 -2.000000000000e+01 0.0 
3.400000000011e+01 -2.000000000000e+01 0.0 
3.300000000012e+01 -2.000000000000e+01 0.0 
3.200000000013e+01 -2.000000000000e+01 0.0 
3.100000000013e+01 -2.000000000000e+01 0.0 
3.000000000013e+01 -2.000000000000e+01 0.0 
2.900000000013e+01 -2.000000000000e+01 0.0 
2.800000000013e+01 -2.000000000000e+01 0.0 
2.700000000013e+01 -2.000000000000e+01 0.0 
2.600000000013e+01 -2.000000000000e+01 0.0 
2.500000000013e+01 -2.000000000000e+01 0.0 
2.400000000013e+01 -2.000000000000e+01 0.0 
2.300000000013e+01 -2.000000000000e+01 0.0 
2.200000000013e+01 -2.000000000000e+01 0.0 
2.100000000013e+01 -2.000000000000e+01 0.0 
2.000000000013e+01 -2.000000000000e+01 0.0 
1.900000000013e+01 -2.000000000000e+01 0.0 
1.800000000013e+01 -2.000000000000e+01 0.0 
1.700000000012e+01 -2.000000000000e+01 0.0 
1.600000000011e+01 -2.000000000000e+01 0.0 
1.500000000011e+01 -2.000000000000e+01 0.0 
1.400000000010e+01 -2.000000000000e+01 0.0 
1.300000000009e+01 -2.000000000000e+01 0.0 
1.200000000009e+01 -2.000000000000e+01 0.0 
1.100000000008e+01 -2.000000000000e+01 0.0 
1.000000000007e+01 -2.000000000000e+01 0.0 
9.000000000064e+00 -2.000000000000e+01 0.0 
8.000000000057e+00 -2.000000000000e+01 0.0 
7.000000000050e+00 -2.000000000000e+01 0.0 
6.000000000043e+00 -2.000000000000e+01 0.0 
5.000000000036e+00 -2.000000000000e+01 0.0 
4.000000000028e+00 -2.000000000000e+01 0.0 
3.000000000021e+00 -2.000000000000e+01 0.0 
2.000000000014e+00 -2.000000000000e+01 0.0 
1.000000000007e+00 -2.000000000000e+01 0.0 
5.000000000000e+01 -1.100000000000e+01 0.0 
5.000000000000e+01 -1.200000000000e+01 0.0 
5.000000000000e+01 -1.300000000000e+01 0.0 
5.000000000000e+01 -1.400000000000e+01 0.0 
5.000000000000e+01 -1.500000000000e+01 0.0 
5.000000000000e+01 -1.600000000000e+01 0.0 
5.000000000000e+01 -1.700000000000e+01 0.0 
5.000000000000e+01 -1.800000000000e+01 0.0 
5.000000000000e+01 -1.900000000000e+01 0.0 
2.000000000000e+01 0.0 0.0 
3.500000000000e+01 -1.000000000000e+01 0.0 
2.150000000000e+01 -1.000000000000e+00 0.0 
2.300000000000e+01 -2.000000000000e+00 0.0 
2.450000000000e+01 -3.000000000000e+00 0.0 
2.600000000000e+01 -4.000000000000e+00 0.0 
2.750000000000e+01 -5.000000000000e+00 0.0 
2.900000000000e+01 -6.000000000000e+00 0.0 
3.050000000000e+01 -7.000000000000e+00 0.0 
3.200000000000e+01 -8.000000000000e+00 0.0 
3.350000000000e+01 -9.000000000000e+00 0.0 
5.000000000000e+01 -7.000000000000e+00 0.0 
5.000000000000e+01 -8.000000000000e+00 0.0 
5.000000000000e+01 -9.000000000000e+00 0.0 
4.900000000000e+01 -1.000000000000e+01 0.0 
4.800000000000e+01 -1.000000000000e+01 0.0 
4.700000000000e+01 -1.000000000000e+01 0.0 
4.600000000000e+01 -1.000000000000e+01 0.0 
4.500000000000e+01 -1.000000000000e+01 0.0 
4.400000000000e+01 -1.000000000000e+01 0.0 
4.300000000000e+01 -1.000000000000e+01 0.0 
4.200000000000e+01 -1.000000000000e+01 0.0 
4.100000000000e+01 -1.000000000000e+01 0.0 
4.000000000000e+01 -1.000000000000e+01 0.0 
3.900000000000e+01 -1.000000000000e+01 0.0 
3.800000000000e+01 -1.000000000000e+01 0.0 
3.700000000000e+01 -1.000000000000e+01 0.0 
3.600000000000e+01 -1.000000000000e+01 0.0 
1.900000000000e+01 0.0 0.0 
1.800000000000e+01 0.0 0.0 
1.700000000000e+01 0.0 0.0 
1.600000000000e+01 0.0 0.0 
1.500000000000e+01 0.0 0.0 
1.400000000000e+01 0.0 0.0 
1.300000000000e+01 0.0 0.0 
1.200000000000e+01 0.0 0.0 
1.100000000000e+01 0.0 0.0 
1.000000000000e+01 0.0 0.0 
9.000000000000e+00 0.0 0.0 
8.000000000000e+00 0.0 0.0 
7.000000000000e+00 0.0 0.0 
6.000000000000e+00 0.0 0.0 
5.000000000000e+00 0.0 0.0 
4.000000000000e+00 0.0 0.0 
3.000000000000e+00 0.0 0.0 
2.000000000000e+00 0.0 0.0 
1.000000000000e+00 0.0 0.0 
3.147499999998e+01 -7.000000000000e+00 0.0 
3.244999999998e+01 -7.000000000000e+00 0.0 
3.342499999998e+01 -7.000000000000e+00 0.0 
3.439999999998e+01 -7.000000000000e+00 0.0 
3.537499999998e+01 -7.000000000000e+00 0.0 
3.634999999998e+01 -7.000000000000e+00 0.0 
3.732499999998e+01 -7.000000000000e+00 0.0 
3.829999999998e+01 -7.000000000000e+00 0.0 
3.927499999999e+01 -7.000000000000e+00 0.0 
4.024999999999e+01 -7.000000000000e+00 0.0 
4.122499999999e+01 -7.000000000000e+00 0.0 
4.219999999999e+01 -7.000000000000e+00 0.0 
4.317499999999e+01 -7.000000000000e+00 0.0 
4.414999999999e+01 -7.000000000000e+00 0.0 
4.512499999999e+01 -7.000000000000e+00 0.0 
4.609999999999e+01 -7.000000000000e+00 0.0 
4.707500000000e+01 -7.000000000000e+00 0.0 
4.805000000000e+01 -7.000000000000e+00 0.0 
4.902500000000e+01 -7.000000000000e+00 0.0 
4.900000000000e+01 -8.000000000000e+00 0.0 
4.800000000000e+01 -8.000000000000e+00 0.0 
4.700000000000e+01 -8.000000000000e+00 0.0 
4.600000000000e+01 -8.000000000000e+00 0.0 
4.500000000000e+01 -8.000000000000e+00 0.0 
4.400000000000e+01 -8.000000000000e+00 0.0 
4.300000000000e+01 -8.000000000000e+00 0.0 
4.200000000000e+01 -8.000000000000e+00 0.0 
4.100000000000e+01 -8.000000000000e+00 0.0 
4.000000000000e+01 -8.000000000000e+00 0.0 
3.900000000000e+01 -8.000000000000e+00 0.0 
3.800000000000e+01 -8.000000000000e+00 0.0 
3.700000000000e+01 -8.000000000000e+00 0.0 
3.600000000000e+01 -8.000000000000e+00 0.0 
3.500000000000e+01 -8.000000000000e+00 0.0 
3.400000000000e+01 -8.000000000000e+00 0.0 
3.300000000000e+01 -8.000000000000e+00 0.0 
3.447058823527e+01 -9.000000000000e+00 0.0 
3.544117647055e+01 -9.000000000000e+00 0.0 
3.641176470582e+01 -9.000000000000e+00 0.0 
3.738235294109e+01 -9.000000000000e+00 0.0 
3.835294117637e+01 -9.000000000000e+00 0.0 
3.932352941164e+01 -9.000000000000e+00 0.0 
4.029411764691e+01 -9.000000000000e+00 0.0 
4.126470588219e+01 -9.000000000000e+00 0.0 
4.223529411748e+01 -9.000000000000e+00 0.0 
4.320588235279e+01 -9.000000000000e+00 0.0 
4.417647058811e+01 -9.000000000000e+00 0.0 
4.514705882342e+01 -9.000000000000e+00 0.0 
4.611764705874e+01 -9.000000000000e+00 0.0 
4.708823529405e+01 -9.000000000000e+00 0.0 
4.805882352937e+01 -9.000000000000e+00 0.0 
4.902941176468e+01 -9.000000000000e+00 0.0 
2.075000000000e+01 -5.000000000006e-01 0.0 
2.225000000000e+01 -1.500000000000e+00 0.0 
2.375000000000e+01 -2.500000000000e+00 0.0 
2.525000000000e+01 -3.500000000000e+00 0.0 
2.675000000000e+01 -4.500000000000e+00 0.0 
2.825000000000e+01 -5.500000000000e+00 0.0 
2.975000000000e+01 -6.500000000000e+00 0.0 
3.125000000000e+01 -7.500000000000e+00 0.0 
3.275000000000e+01 -8.500000000000e+00 0.0 
3.425000000000e+01 -9.500000000000e+00 0.0 
2.226951693683e+01 -2.403913980114e+00 0.0 
1.650149491944e+01 -1.913490915758e+01 0.0 
1.050042386896e+01 -8.504605092970e-01 0.0 
1.553146524712e+01 -8.281255032105e-01 0.0 
1.150000000008e+01 -1.913397459621e+01 0.0 
2.530060260647e+01 -4.428336431260e+00 0.0 
8.651114563942e-01 -1.052096295641e+01 0.0 
2.050000000013e+01 -1.913397459622e+01 0.0 
2.819198729811e+01 -6.399519052838e+00 0.0 
2.445670302931e+01 -1.915649188023e+01 0.0 
3.117591465718e+01 -8.394293040695e+00 0.0 
7.465053044742e+00 -1.920411160581e+01 0.0 
6.398295709691e+00 -8.230098819370e-01 0.0 
2.849659607461e+01 -1.914296187762e+01 0.0 
3.418732642882e+01 -1.040265792588e+01 0.0 
8.386450935063e-01 -6.533605142809e+00 0.0 
9.178661865596e-01 -1.329769195597e+01 0.0 
3.149448624493e+01 -1.910466733764e+01 0.0 
3.552916747426e+01 -1.914628590759e+01 0.0 
4.449210346537e+01 -1.914359085008e+01 0.0 
4.140975975145e+01 -1.906941860733e+01 0.0 
3.847475958753e+01 -1.916622382724e+01 0.0 
3.653774794640e+01 -1.088712800241e+01 0.0 
4.047886341787e+01 -1.090139014048e+01 0.0 
4.348006339825e+01 -1.092792621489e+01 0.0 
4.919519968029e+01 -1.451526755068e+01 0.0 
4.500000000032e+00 -1.913397459621e+01 0.0 
1.856136921614e+01 -8.212235170404e-01 0.0 
3.499895312306e+00 -8.661165539723e-01 0.0 
9.076088696565e-01 -1.642306201891e+01 0.0 
4.655174095477e+01 -1.086183387525e+01 0.0 
9.430688970604e-01 -3.496112672958e+00 0.0 
3.353992337063e+01 -1.901202090820e+01 0.0 
2.249746016977e+01 -1.921262287282e+01 0.0 
2.650122741777e+01 -1.916123026018e+01 0.0 
1.863571384842e+01 -1.908325534840e+01 0.0 
1.450089971693e+01 -1.917691901860e+01 0.0 
1.350044695317e+01 -8.659695299584e-01 0.0 
3.849987469880e+01 -1.084154983397e+01 0.0 
9.454419857884e+00 -1.900818879936e+01 0.0 
4.917398660523e+01 -1.645692866081e+01 0.0 
8.500000000000e+00 -8.660254037844e-01 0.0 
8.660319230785e-01 -8.500111697188e+00 0.0 
4.649022621545e+01 -1.930506220113e+01 0.0 
2.667688107845e+01 -5.420288124331e+00 0.0 
2.379251615665e+01 -3.412225477429e+00 0.0 
2.966631491830e+01 -7.389030232731e+00 0.0 
3.267915035995e+01 -9.396934932445e+00 0.0 
2.074836922338e+01 -1.320054020319e+00 0.0 
4.915985743621e+01 -1.261973384855e+01 0.0 
2.527129768623e+00 -1.931592414663e+01 0.0 
1.538676247410e+00 -8.436956619311e-01 0.0 
4.908096641539e+01 -1.842484004551e+01 0.0 
3.478612492673e+01 -1.090889364140e+01 0.0 
3.409757055860e+01 -1.131991530427e+01 0.0 
3.501895309466e+01 -1.177687842717e+01 0.0 
3.407758073088e+01 -1.224293381580e+01 0.0 
3.484541875390e+01 -1.277051428430e+01 0.0 
3.400322025842e+01 -1.319022775640e+01 0.0 
3.321672625034e+01 -1.266779191233e+01 0.0 
3.315244139236e+01 -1.360984106532e+01 0.0 
3.236335186892e+01 -1.308463225210e+01 0.0 
3.478337442841e+01 -1.372341158982e+01 0.0 
3.230105923633e+01 -1.403023731610e+01 0.0 
3.150954055289e+01 -1.350301767700e+01 0.0 
3.144604792090e+01 -1.444931742516e+01 0.0 
3.065653897123e+01 -1.392357262981e+01 0.0 
3.071897610812e+01 -1.297447031198e+01 0.0 
2.986790411740e+01 -1.339226181535e+01 0.0 
2.993181466745e+01 -1.244703272398e+01 0.0 
2.908023061869e+01 -1.286254537734e+01 0.0 
2.901619051372e+01 -1.380881655279e+01 0.0 
2.822986160390e+01 -1.327695262116e+01 0.0 
2.829453476870e+01 -1.233265343811e+01 0.0 
2.744542905518e+01 -1.274510491105e+01 0.0 
2.751120089246e+01 -1.180368086886e+01 0.0 
2.666218649885e+01 -1.221619339205e+01 0.0 
2.672371209234e+01 -1.127125228527e+01 0.0 
2.587763216302e+01 -1.168539979114e+01 0.0 
2.581165585299e+01 -1.262994410089e+01 0.0 
2.502890882577e+01 -1.209827323619e+01 0.0 
2.509631327757e+01 -1.115492410304e+01 0.0 
2.424662989877e+01 -1.156630981079e+01 0.0 
2.431704046904e+01 -1.062389179334e+01 0.0 
2.346445438728e+01 -1.103427680694e+01 0.0 
2.339382552877e+01 -1.197964871788e+01 0.0 
2.260936050780e+01 -1.144513277642e+01 0.0 
2.268075012022e+01 -1.049911928216e+01 0.0 
2.182525737661e+01 -1.090920811464e+01 0.0 
2.189682319817e+01 -9.961716944568e+00 0.0 
2.104174127792e+01 -1.037266986667e+01 0.0 
2.111304367575e+01 -9.424179358711e+00 0.0 
2.025306185381e+01 -9.832727364719e+00 0.0 
2.018141124247e+01 -1.079140628871e+01 0.0 
1.938594498257e+01 -1.025147354112e+01 0.0 
1.946106490453e+01 -9.288010758448e+00 0.0 
1.858929958352e+01 -9.706319802516e+00 0.0 
1.851540991219e+01 -1.067205988724e+01 0.0 
1.771485303178e+01 -1.012504443115e+01 0.0 
1.764134552256e+01 -1.109360378538e+01 0.0 
1.683745148095e+01 -1.054496365337e+01 0.0 
1.691852964353e+01 -9.582555261178e+00 0.0 
1.603603813062e+01 -1.000160132379e+01 0.0 
1.595824239350e+01 -1.096750698862e+01 0.0 
1.515080624291e+01 -1.041639501931e+01 0.0 
1.523171602559e+01 -9.451711491453e+00 0.0 
1.434621060709e+01 -9.871956467464e+00 0.0 
1.426777178765e+01 -1.083749501371e+01 0.0 
1.345775282374e+01 -1.028803175500e+01 0.0 
1.354103873368e+01 -9.324918457162e+00 0.0 
1.265072018622e+01 -9.742612837270e+00 0.0 
1.257285762070e+01 -1.071557782384e+01 0.0 
1.175874815690e+01 -1.015972324288e+01 0.0 
1.184203019714e+01 -9.193604071377e+00 0.0 
1.094927709905e+01 -9.612103238656e+00 0.0 
1.086938022910e+01 -1.058685085646e+01 0.0 
1.005424098961e+01 -1.002939116380e+01 0.0 
9.977974613295e+00 -1.101324897989e+01 0.0 
1.012915646404e+01 -9.051815821181e+00 0.0 
9.237127782494e+00 -9.471239055559e+00 0.0 
9.308426593771e+00 -8.483376461131e+00 0.0 
8.418806073345e+00 -8.910712374517e+00 0.0 
2.253688464062e+01 -1.239459402279e+01 0.0 
8.495126726666e+00 -7.921646665254e+00 0.0 
9.389727383206e+00 -7.512103628377e+00 0.0 
7.601560812974e+00 -8.349460349344e+00 0.0 
7.525680547759e+00 -9.339736686940e+00 0.0 
7.677888324502e+00 -7.359727833346e+00 0.0 
6.782001206724e+00 -7.788454494773e+00 0.0 
6.858778622885e+00 -6.797338062822e+00 0.0 
2.196596590865e+01 -8.979025665442e+00 0.0 
2.816540108272e+01 -1.422634142353e+01 0.0 
5.961601194403e+00 -7.226824010712e+00 0.0 
6.038171749656e+00 -6.234825887079e+00 0.0 
6.936257279557e+00 -5.805287640737e+00 0.0 
6.115068918323e+00 -5.242109758768e+00 0.0 
3.564391741903e+01 -1.329240553876e+01 0.0 
3.558115605778e+01 -1.425902892003e+01 0.0 
3.645445282201e+01 -1.381970786460e+01 0.0 
3.639744204358e+01 -1.479198128612e+01 0.0 
3.727266909778e+01 -1.435399586226e+01 0.0 
5.216667013081e+00 -5.671788584287e+00 0.0 
3.220697293295e+01 -1.499594545107e+01 0.0 
3.551112158269e+01 -1.523479869250e+01 0.0 
2.836056961467e+01 -1.139032434851e+01 0.0 
2.516730388602e+01 -1.021382726837e+01 0.0 
1.844436907403e+01 -1.164097215196e+01 0.0 
5.885434318740e+00 -8.218694781467e+00 0.0 
5.064071066867e+00 -7.656614643901e+00 0.0 
4.988089103470e+00 -8.649722082718e+00 0.0 
1.079421050408e+01 -1.157014985435e+01 0.0 
9.902420005256e+00 -1.199903342656e+01 0.0 
1.071994252214e+01 -1.255727909771e+01 0.0 
9.826974788171e+00 -1.298659581767e+01 0.0 
1.064607883789e+01 -1.354595476388e+01 0.0 
9.751541265343e+00 -1.397556905071e+01 0.0 
8.932296185869e+00 -1.341553353988e+01 0.0 
8.856399248106e+00 -1.440570715508e+01 0.0 
8.036186803543e+00 -1.384470558472e+01 0.0 
1.057112875118e+01 -1.453516759081e+01 0.0 
1.146582585687e+01 -1.410539926903e+01 0.0 
7.959894480382e+00 -1.483563350928e+01 0.0 
7.138792279156e+00 -1.427465094140e+01 0.0 
7.062506792418e+00 -1.526615385482e+01 0.0 
6.240693558277e+00 -1.470508863040e+01 0.0 
6.316957575451e+00 -1.371212581281e+01 0.0 
5.418183007107e+00 -1.414253605022e+01 0.0 
5.494748364428e+00 -1.314886770603e+01 0.0 
1.756825565873e+01 -1.206433872514e+01 0.0 
1.837565773345e+01 -1.261356468266e+01 0.0 
1.749574831391e+01 -1.303769280014e+01 0.0 
1.830539187332e+01 -1.358828364284e+01 0.0 
1.742278925170e+01 -1.401367746928e+01 0.0 
1.823303007798e+01 -1.456432294258e+01 0.0 
1.734941694138e+01 -1.499213734361e+01 0.0 
1.653760041637e+01 -1.443920312098e+01 0.0 
3.056237977307e+01 -1.487132260174e+01 0.0 
1.866469084762e+01 -8.742953000418e+00 0.0 
1.953669694916e+01 -8.326038909849e+00 0.0 
1.874194303780e+01 -7.780688158966e+00 0.0 
1.961032016741e+01 -7.366854697285e+00 0.0 
1.881715755159e+01 -6.821102209649e+00 0.0 
1.968369797150e+01 -6.407747217358e+00 0.0 
1.889237123259e+01 -5.858375520026e+00 0.0 
1.802038875366e+01 -6.276202618170e+00 0.0 
1.809793837984e+01 -5.307629520489e+00 0.0 
1.721985207997e+01 -5.728242054488e+00 0.0 
1.729850893523e+01 -4.756990819347e+00 0.0 
1.641745664240e+01 -5.174636548624e+00 0.0 
2.495978509456e+01 -1.304406404294e+01 0.0 
1.911567814831e+01 -1.413854250293e+01 0.0 
1.904387332608e+01 -1.511463127723e+01 0.0 
1.992115934240e+01 -1.468788025898e+01 0.0 
7.013706899628e+00 -4.812582868662e+00 0.0 
5.342091874585e+00 -1.513658157269e+01 0.0 
1.139098043784e+01 -1.509488509480e+01 0.0 
1.228151810610e+01 -1.465617481983e+01 0.0 
1.646373110164e+01 -1.541993323337e+01 0.0 
5.293328636712e+00 -4.678385108584e+00 0.0 
1.975965862987e+01 -5.448124345648e+00 0.0 
2.054318374236e+01 -5.992561293251e+00 0.0 
3.721453439063e+01 -1.533216152738e+01 0.0 
3.809302733893e+01 -1.489235527381e+01 0.0 
1.220852788900e+01 -1.565304565230e+01 0.0 
4.394120899730e+00 -5.108397613210e+00 0.0 
8.779354620288e+00 -1.539524721159e+01 0.0 
1.817791047702e+01 -4.338570146253e+00 0.0 
4.518860013839e+00 -1.457343189307e+01 0.0 
4.442712140414e+00 -1.556841391069e+01 0.0 
8.115343466391e+00 -1.285760324283e+01 0.0 
1.985334703171e+01 -1.566478400426e+01 0.0 
2.071953850276e+01 -1.522074243119e+01 0.0 
1.634012953883e+01 -6.154777738301e+00 0.0 
1.553479994708e+01 -5.593730508879e+00 0.0 
1.561265946942e+01 -4.617761762647e+00 0.0 
1.470674212978e+01 -5.064576488228e+00 0.0 
1.464498299883e+01 -6.026514471420e+00 0.0 
1.383271561817e+01 -5.467796261169e+00 0.0 
1.389241253067e+01 -4.504338666645e+00 0.0 
1.301868735463e+01 -4.907185188626e+00 0.0 
1.294514184846e+01 -5.888160903592e+00 0.0 
1.212955968622e+01 -5.328262335277e+00 0.0 
1.220721122383e+01 -4.341264976687e+00 0.0 
1.131324345897e+01 -4.766773516508e+00 0.0 
5.266597955397e+00 -1.613148974258e+01 0.0 
1.737805990867e+01 -3.786677807525e+00 0.0 
3.078438094513e+01 -1.203225297748e+01 0.0 
1.131569882285e+01 -1.608511932110e+01 0.0 
1.728478341782e+01 -1.596017432313e+01 0.0 
3.803465906019e+01 -1.587509751228e+01 0.0 
3.891681276677e+01 -1.543395196905e+01 0.0 
3.897340985302e+01 -1.444710288980e+01 0.0 
3.980095968193e+01 -1.499059496613e+01 0.0 
3.974334598189e+01 -1.597921884150e+01 0.0 
4.062964983717e+01 -1.553518690417e+01 0.0 
4.068729602479e+01 -1.454434445295e+01 0.0 
4.151772679790e+01 -1.508974196007e+01 0.0 
4.157505195739e+01 -1.409694289912e+01 0.0 
4.240699932656e+01 -1.464347955968e+01 0.0 
4.234898051011e+01 -1.563721375790e+01 0.0 
4.323934606035e+01 -1.519082036405e+01 0.0 
4.329740528208e+01 -1.419587509788e+01 0.0 
4.413056841369e+01 -1.474359631875e+01 0.0 
4.418850110108e+01 -1.374786684042e+01 0.0 
4.502219770667e+01 -1.429605103525e+01 0.0 
4.496411937907e+01 -1.529215882720e+01 0.0 
4.490027319897e+00 -4.154167794594e+00 0.0 
1.565080385988e+01 -1.486411982419e+01 0.0 
1.557610691279e+01 -1.584855627870e+01 0.0 
4.195350646612e+00 -8.089117689096e+00 0.0 
4.124027797830e+00 -9.082831955007e+00 0.0 
4.917944318925e+00 -9.643530901533e+00 0.0 
4.020105689502e+00 -1.007439673661e+01 0.0 
4.587185899277e+01 -1.484039992728e+01 0.0 
4.580078661551e+01 -1.584043391042e+01 0.0 
2.061956522375e+01 -5.046701343981e+00 0.0 
2.139572955529e+01 -5.579553449826e+00 0.0 
3.715344357292e+01 -1.631485124583e+01 0.0 
3.618886196443e+00 -1.500471207167e+01 0.0 
3.695606940204e+00 -1.400939692294e+01 0.0 
2.438890661143e+01 -9.686110599723e+00 0.0 
2.523267572778e+01 -9.276766000622e+00 0.0 
2.446094171539e+01 -8.751904591412e+00 0.0 
2.529089822738e+01 -8.321495612547e+00 0.0 
2.606882688827e+01 -8.864724051119e+00 0.0 
2.452116646430e+01 -7.792756462004e+00 0.0 
1.235543269617e+01 -1.365845617339e+01 0.0 
4.318116874181e+01 -1.618567469992e+01 0.0 
7.835066111909e+00 -5.376366223896e+00 0.0 
7.905687335704e+00 -4.382539065697e+00 0.0 
3.542640009567e+00 -1.600035116542e+01 0.0 
1.572431503071e+01 -1.388358386695e+01 0.0 
2.574684696680e+01 -1.357896141127e+01 0.0 
2.488842657651e+01 -1.399674354505e+01 0.0 
2.568301775611e+01 -1.453552048595e+01 0.0 
2.481535572009e+01 -1.495542756508e+01 0.0 
2.561729699688e+01 -1.549784648532e+01 0.0 
2.474623061296e+01 -1.592058894178e+01 0.0 
2.394234041695e+01 -1.537572575827e+01 0.0 
2.065825452567e+01 -1.621899055217e+01 0.0 
2.387180528935e+01 -1.634552264687e+01 0.0 
4.585364400844e+01 -1.383912334080e+01 0.0 
1.998744432052e+01 -1.370317155541e+01 0.0 
1.205356951443e+01 -6.313580285498e+00 0.0 
5.396543905849e+00 -3.731818611283e+00 0.0 
1.139652573295e+01 -3.745819399350e+00 0.0 
3.574124306703e+00 -4.551456826011e+00 0.0 
3.494140761930e+00 -5.539787055649e+00 0.0 
1.213651452413e+01 -1.664505033022e+01 0.0 
2.555045568519e+01 -1.646529356744e+01 0.0 
2.641671114986e+01 -1.603899382371e+01 0.0 
2.612920721894e+01 -7.906435260873e+00 0.0 
2.690339829698e+01 -8.456969591431e+00 0.0 
1.978024383368e+01 -1.664410216353e+01 0.0 
3.732829979082e+01 -1.336926601859e+01 0.0 
4.074336584605e+01 -1.355133328401e+01 0.0 
4.163204691081e+01 -1.310280943992e+01 0.0 
3.773826114429e+00 -3.493444309145e+00 0.0 
1.228783001032e+01 -3.374822835872e+00 0.0 
4.057110462520e+01 -1.652588478000e+01 0.0 
2.132535497898e+01 -6.523623360525e+00 0.0 
2.216932532211e+01 -6.110044769206e+00 0.0 
1.825781152128e+01 -3.370146817147e+00 0.0 
1.745679445888e+01 -2.812942552063e+00 0.0 
4.666517057280e+01 -1.539981381543e+01 0.0 
4.660575894464e+01 -1.639014410186e+01 0.0 
4.838230979954e+00 -1.063643436446e+01 0.0 
3.938942630206e+00 -1.106778981745e+01 0.0 
1.302967218620e+01 -1.621373452436e+01 0.0 
1.049548003190e+01 -4.204825123240e+00 0.0 
4.573571907195e+01 -1.683820511148e+01 0.0 
1.483686335807e+01 -1.430849689310e+01 0.0 
1.490982658890e+01 -1.332679386284e+01 0.0 
3.190805600162e+00 -9.510968358545e+00 0.0 
2.146625721848e+01 -4.642437303115e+00 0.0 
2.069866208266e+01 -4.111852942193e+00 0.0 
1.286859345584e+01 -6.873252723348e+00 0.0 
1.041794493184e+01 -5.194814260291e+00 0.0 
2.671081808965e+00 -4.976806516331e+00 0.0 
1.295786792925e+01 -1.720506531799e+01 0.0 
3.968438206511e+01 -1.696869067241e+01 0.0 
2.308550456051e+01 -1.579963151273e+01 0.0 
2.315593682844e+01 -1.482967445235e+01 0.0 
2.299471449450e+01 -1.677069968132e+01 0.0 
1.057344714696e+01 -3.214252277840e+00 0.0 
1.124057603753e+01 -1.707713739755e+01 0.0 
2.718402535754e+00 -1.543629882103e+01 0.0 
2.638549692805e+01 -1.696744916809e+01 0.0 
2.723416349007e+01 -1.658104204545e+01 0.0 
2.210193351704e+01 -7.046769643417e+00 0.0 
2.295180925161e+01 -6.657397605239e+00 0.0 
2.301355235833e+01 -5.709111896800e+00 0.0 
2.379052718281e+01 -6.254965406962e+00 0.0 
3.243528601237e+01 -1.214181853533e+01 0.0 
2.287977995457e+01 -7.583722368300e+00 0.0 
2.999876029544e+01 -1.150837653096e+01 0.0 
3.084435366963e+01 -1.109693775882e+01 0.0 
3.006650579669e+01 -1.057778994262e+01 0.0 
2.683802665066e+01 -9.386863216633e+00 0.0 
2.768641973621e+01 -8.988883915666e+00 0.0 
2.040296980397e+01 -7.903629133404e+00 0.0 
1.925235024054e+01 -1.218872783130e+01 0.0 
5.735667000424e+00 -1.020577277283e+01 0.0 
6.396559909872e+00 -1.272326295703e+01 0.0 
1.161199420714e+01 -1.212812778229e+01 0.0 
4.229046132615e+01 -1.663084237572e+01 0.0 
4.312275399692e+01 -1.718087491556e+01 0.0 
4.335502068163e+01 -1.320039231514e+01 0.0 
4.424630298089e+01 -1.275160688731e+01 0.0 
7.090116643816e+00 -3.818998061530e+00 0.0 
7.989472176569e+00 -3.389238711200e+00 0.0 
9.085824861778e+00 -1.144036167408e+01 0.0 
1.041972423731e+01 -1.651614080893e+01 0.0 
3.797525112640e+01 -1.686052038746e+01 0.0 
3.709114253394e+01 -1.730125999865e+01 0.0 
3.626966748340e+01 -1.675477052919e+01 0.0 
1.385164591440e+01 -1.677597757552e+01 0.0 
1.787152588784e+01 -8.198993896093e+00 0.0 
1.668849729812e+01 -1.248560611628e+01 0.0 
1.659546177905e+01 -3.232482605530e+00 0.0 
2.332214717345e+01 -1.292598167641e+01 0.0 
7.168238450786e+00 -2.824711686516e+00 0.0 
2.894878403906e+01 -1.475427524446e+01 0.0 
2.646763248247e+00 -1.643270107952e+01 0.0 
3.467431944285e+00 -1.699648837348e+01 0.0 
2.059475877282e+01 -1.719473628526e+01 0.0 
3.333868355437e+01 -1.080596971682e+01 0.0 
2.246451062637e+01 -1.334557761546e+01 0.0 
2.167821896388e+01 -1.280847834858e+01 0.0 
3.089653185767e+01 -1.017198487212e+01 0.0 
3.012604365669e+01 -9.657298805968e+00 0.0 
2.929627299435e+01 -1.006100135274e+01 0.0 
2.936201435219e+01 -9.136748899251e+00 0.0 
1.198219052702e+01 -7.291887238230e+00 0.0 
1.116702076035e+01 -6.731976101053e+00 0.0 
2.551388807505e+01 -1.746927036981e+01 0.0 
2.378639090370e+01 -1.728678807149e+01 0.0 
2.718543627188e+01 -1.748668016909e+01 0.0 
2.804681050301e+01 -1.712626668293e+01 0.0 
1.970737034667e+01 -1.762317646822e+01 0.0 
1.889535776135e+01 -1.707158098231e+01 0.0 
2.593777711283e+00 -5.971157087874e+00 0.0 
2.773468281110e+01 -8.067164273938e+00 0.0 
4.051205884347e+01 -1.751819982458e+01 0.0 
3.166903145421e+01 -1.068032992414e+01 0.0 
1.033042452886e+01 -1.748285844336e+01 0.0 
9.519274604626e+00 -1.694349240233e+01 0.0 
1.668308673328e+01 -2.255861778986e+00 0.0 
1.570531902832e+01 -2.676795860126e+00 0.0 
4.655826903379e+01 -1.736656245706e+01 0.0 
2.384148070773e+01 -5.328744256413e+00 0.0 
2.460255123641e+01 -5.852182672816e+00 0.0 
2.306638135119e+01 -4.798935440613e+00 0.0 
8.467720450578e-01 -1.849576263072e+01 0.0 
4.849657322345e+01 -1.084860705506e+01 0.0 
2.565860899507e+00 -1.742859793981e+01 0.0 
2.764418872564e+01 -9.927142821799e+00 0.0 
4.565165880064e+01 -1.785336695404e+01 0.0 
2.162231831329e+01 -1.376528337468e+01 0.0 
2.360646352969e+01 -9.136041963102e+00 0.0 
1.392738739903e+01 -1.578285505772e+01 0.0 
4.756405947478e+01 -1.683706841809e+01 0.0 
4.740895034054e+01 -1.793766756892e+01 0.0 
4.080779328826e+01 -1.257387192544e+01 0.0 
4.168907939671e+01 -1.210739129181e+01 0.0 
3.991197722154e+01 -1.300815793917e+01 0.0 
1.905536506762e+01 -3.940076697685e+00 0.0 
1.923879596617e+01 -2.875000734166e+00 0.0 
4.401386745746e+01 -1.673483229438e+01 0.0 
4.247233362525e+00 -7.094581653070e+00 0.0 
3.286051630211e+00 -7.635300020553e+00 0.0 
9.609533347623e+00 -4.594311677967e+00 0.0 
9.523554636369e+00 -5.595597029530e+00 0.0 
5.660336628893e+00 -1.119290329628e+01 0.0 
6.558070063295e+00 -1.076385809362e+01 0.0 
2.809866407414e+01 -1.518037766799e+01 0.0 
2.888868674504e+01 -1.570360690070e+01 0.0 
2.654431550819e+01 -1.411217777162e+01 0.0 
1.402158265969e+01 -1.375404617952e+01 0.0 
1.409592494026e+01 -1.277071998942e+01 0.0 
1.499355196178e+01 -1.235270737023e+01 0.0 
4.221535326155e+01 -1.759335617494e+01 0.0 
4.305583287033e+01 -1.822663146802e+01 0.0 
1.280748808359e+01 -7.834332838285e+00 0.0 
1.368988389326e+01 -7.420529606172e+00 0.0 
1.110091796060e+01 -7.683966794328e+00 0.0 
3.963446145980e+01 -1.794331310122e+01 0.0 
3.423932362213e+00 -1.796415590455e+01 0.0 
4.280814572302e+00 -1.752272834860e+01 0.0 
8.050136380041e+00 -2.421582378631e+00 0.0 
8.888674091650e+00 -2.984264211327e+00 0.0 
2.152839430898e+01 -3.732609965436e+00 0.0 
2.077799585292e+01 -3.183896021866e+00 0.0 
3.618719395821e+01 -1.770276572576e+01 0.0 
3.538165138340e+01 -1.718709995539e+01 0.0 
3.702925326420e+01 -1.828844288807e+01 0.0 
1.756739438711e+00 -5.353284859169e+00 0.0 
2.233710191104e+01 -1.527265621324e+01 0.0 
1.389483555057e+01 -1.771797164730e+01 0.0 
1.475634224300e+01 -1.728357428390e+01 0.0 
1.298797563052e+01 -1.825968924755e+01 0.0 
2.145331271866e+01 -1.673705379077e+01 0.0 
2.133282821169e+01 -1.769400773673e+01 0.0 
2.292139194136e+01 -1.774915400288e+01 0.0 
1.750750053243e+01 -1.861475593469e+00 0.0 
4.830478841772e+01 -1.752611802221e+01 0.0 
4.341203507805e+01 -1.220326745522e+01 0.0 
1.685254151866e+01 -1.443085301632e+00 0.0 
4.431538535165e+01 -1.171841387375e+01 0.0 
4.511308610496e+01 -1.229557320599e+01 0.0 
4.510133242889e+01 -1.123680627466e+01 0.0 
1.846818030617e+00 -4.410877617069e+00 0.0 
3.995468694584e+01 -1.186571542989e+01 0.0 
3.901387459804e+01 -1.242507616755e+01 0.0 
8.966735877533e+00 -1.837818700423e+00 0.0 
4.049310011091e+01 -1.848269508791e+01 0.0 
7.278862053803e+00 -1.918523922691e+00 0.0 
6.429715522129e+00 -2.316676521184e+00 0.0 
9.443505505022e+00 -1.792198868094e+01 0.0 
8.620386951051e+00 -1.737590365556e+01 0.0 
8.571868171503e+00 -1.834436667826e+01 0.0 
7.758629848526e+00 -1.775677907213e+01 0.0 
7.806648388584e+00 -1.680761266021e+01 0.0 
6.908555145436e+00 -1.723746463044e+01 0.0 
4.251709122090e+01 -1.156937480156e+01 0.0 
6.931136405615e+00 -1.832465719263e+01 0.0 
6.015545461353e+00 -1.768865355295e+01 0.0 
5.960535926343e+00 -1.872011001764e+01 0.0 
3.023253444786e+01 -8.761960642196e+00 0.0 
2.454622702599e+01 -6.749421992767e+00 0.0 
2.537499741604e+01 -6.347634963783e+00 0.0 
2.544077378460e+01 -5.431358513649e+00 0.0 
2.801367161747e+01 -1.820907270221e+01 0.0 
2.884507806914e+01 -1.762032095326e+01 0.0 
1.821474531936e+00 -1.588901260460e+01 0.0 
1.821006262604e+00 -1.489370287756e+01 0.0 
4.599962488908e+01 -1.176478780598e+01 0.0 
4.705457470007e+01 -1.172182804229e+01 0.0 
4.667668314802e+01 -1.263464558483e+01 0.0 
4.759648056504e+01 -1.252380987933e+01 0.0 
4.728041618103e+01 -1.341928568376e+01 0.0 
4.825209352360e+01 -1.330491640804e+01 0.0 
4.778118233428e+01 -1.420151961695e+01 0.0 
2.388192727579e+01 -1.826934810142e+01 0.0 
2.381714684947e+01 -4.385917965223e+00 0.0 
3.172733219247e+01 -9.758744265248e+00 0.0 
1.882012070658e+01 -1.805540597212e+01 0.0 
1.805667505243e+01 -1.742221226236e+01 0.0 
2.852599958080e+01 -8.597196079481e+00 0.0 
2.856486123437e+01 -7.661382718527e+00 0.0 
1.111792842875e+01 -1.818223852980e+01 0.0 
2.203322722466e+01 -7.986646678802e+00 0.0 
3.955703676900e+01 -1.903246763601e+01 0.0 
1.944842206513e+01 -8.038750575182e-01 0.0 
1.909882767783e+01 -1.746322740933e+00 0.0 
2.281147422941e+01 -8.525912918334e+00 0.0 
2.850633001468e+01 -9.533271335986e+00 0.0 
2.532883344309e+01 -7.308951659710e+00 0.0 
2.620475466461e+01 -6.979208585400e+00 0.0 
1.396278270396e+01 -1.475095389807e+01 0.0 
9.791001166724e+00 -2.554159793552e+00 0.0 
2.229293380421e+01 -4.269762271052e+00 0.0 
4.677238984118e+01 -1.430071795514e+01 0.0 
2.228658385918e+01 -3.344747535984e+00 0.0 
8.940223674553e-01 -1.543595733415e+01 0.0 
2.118566862474e+01 -8.435876987696e+00 0.0 
2.678325936437e+01 -1.032621195706e+01 0.0 
2.223400220487e+01 -5.179046761770e+00 0.0 
2.375370625384e+01 -7.251580562134e+00 0.0 
3.156971327386e+01 -1.255534750737e+01 0.0 
3.328226391312e+01 -1.172914813316e+01 0.0 
3.250948774219e+01 -1.120157009348e+01 0.0 
2.032993445717e+01 -8.867880112202e+00 0.0 
2.697226974856e+01 -7.536633082045e+00 0.0 
2.707377810386e+01 -6.590835263295e+00 0.0 
2.914099246827e+01 -1.191678458549e+01 0.0 
3.544824072239e+01 -1.621126558525e+01 0.0 
3.456511855436e+01 -1.665054783843e+01 0.0 
3.448395810225e+01 -1.759117813016e+01 0.0 
3.368378673938e+01 -1.708037781328e+01 0.0 
3.375560452567e+01 -1.610973066913e+01 0.0 
3.288001547988e+01 -1.654324255651e+01 0.0 
3.282475929147e+01 -1.749725654692e+01 0.0 
3.199880906313e+01 -1.697294088625e+01 0.0 
3.197001272932e+01 -1.811667776864e+01 0.0 
3.111884713021e+01 -1.742166785755e+01 0.0 
3.120418962865e+01 -1.642155709385e+01 0.0 
3.034666704371e+01 -1.683123833816e+01 0.0 
3.026224379976e+01 -1.772592851714e+01 0.0 
3.046632362943e+01 -1.582232843075e+01 0.0 
1.961344017324e+01 -1.857459447985e+01 0.0 
2.274975894774e+01 -9.532738811922e+00 0.0 
1.833923246887e+01 -2.396746883672e+00 0.0 
1.988859500848e+01 -2.249244376594e+00 0.0 
2.758045562861e+01 -1.086434261689e+01 0.0 
3.247300178163e+01 -1.909930104252e+01 0.0 
3.461947482503e+01 -1.911879848019e+01 0.0 
2.047161538662e+01 -6.941478180358e+00 0.0 
2.750230940214e+01 -1.915490590764e+01 0.0 
3.165081350803e+01 -1.161860780120e+01 0.0 
1.897456727641e+01 -4.889634688522e+00 0.0 
2.549338539756e+01 -1.914858252089e+01 0.0 
3.462873135081e+01 -1.567482276144e+01 0.0 
3.384432415243e+01 -1.512280684518e+01 0.0 
3.471433767690e+01 -1.469086942990e+01 0.0 
3.651470373046e+01 -1.918207952149e+01 0.0 
3.901742690249e+01 -1.345028556517e+01 0.0 
2.153224102692e+01 -1.920169709333e+01 0.0 
1.918382939341e+01 -1.316226275662e+01 0.0 
2.005389162382e+01 -1.271962165174e+01 0.0 
2.011472087878e+01 -1.175029352900e+01 0.0 
3.210679478412e+01 -1.598038618242e+01 0.0 
1.752175226543e+01 -1.914713022656e+01 0.0 
1.696897240059e+01 -1.832772588765e+01 0.0 
1.599682523337e+01 -1.832599992024e+01 0.0 
1.644507199462e+01 -1.743697981535e+01 0.0 
1.549987712903e+01 -1.915192375101e+01 0.0 
3.050250861901e+01 -1.918943550234e+01 0.0 
2.949944061527e+01 -1.922950455235e+01 0.0 
1.375892575273e+01 -6.447160534926e+00 0.0 
1.457223670180e+01 -7.006709243857e+00 0.0 
1.450818793236e+01 -7.965943451779e+00 0.0 
1.538804712402e+01 -7.553409623699e+00 0.0 
1.545817644768e+01 -6.580929593419e+00 0.0 
1.626506893751e+01 -7.129032608911e+00 0.0 
1.619833811522e+01 -8.086588580887e+00 0.0 
1.714448609609e+01 -6.697429609777e+00 0.0 
2.887616543568e+01 -1.668015232137e+01 0.0 
1.349814589130e+01 -1.918225301544e+01 0.0 
1.153887772210e+01 -1.311384581217e+01 0.0 
1.242708159886e+01 -1.267046795531e+01 0.0 
1.249799674267e+01 -1.169005616014e+01 0.0 
6.631723893693e+00 -9.774184881867e+00 0.0 
7.451471631867e+00 -1.033148796006e+01 0.0 
7.377795355458e+00 -1.132196345268e+01 0.0 
5.810931797536e+00 -9.211654212252e+00 0.0 
2.402683899133e+01 -1.441378562320e+01 0.0 
1.249768692036e+01 -1.917388426624e+01 0.0 
1.580373499437e+01 -1.290751860664e+01 0.0 
8.344650507834e+00 -9.898403995170e+00 0.0 
3.750622115305e+01 -1.086526401533e+01 0.0 
3.699391251667e+01 -1.171695900794e+01 0.0 
3.606517829518e+01 -1.173717504500e+01 0.0 
3.650257641795e+01 -1.270047380221e+01 0.0 
3.808951488918e+01 -1.183518714175e+01 0.0 
4.760380962420e+00 -1.162484888315e+01 0.0 
3.861210370848e+00 -1.205657631736e+01 0.0 
3.038284309476e+00 -1.149851280664e+01 0.0 
2.961598794889e+00 -1.248856794980e+01 0.0 
2.138953225512e+00 -1.193212674534e+01 0.0 
2.227383593457e+00 -1.096258903918e+01 0.0 
2.043265419276e+00 -1.292158472959e+01 0.0 
1.252449446028e+00 -1.225502002753e+01 0.0 
3.949985210740e+01 -1.086594001795e+01 0.0 
1.453499444792e+01 -8.768805922472e-01 0.0 
1.403518950933e+01 -1.749965556633e+00 0.0 
1.300715031023e+01 -1.714737233040e+00 0.0 
1.350929389899e+01 -2.527443911291e+00 0.0 
1.449600910711e+01 -2.595486162864e+00 0.0 
1.395693872901e+01 -3.484211041558e+00 0.0 
1.495105865208e+01 -3.364609636216e+00 0.0 
1.508822528740e+01 -1.766586020494e+00 0.0 
1.250223858430e+01 -8.634590186802e-01 0.0 
1.200279523409e+01 -1.709044504992e+00 0.0 
1.150086239419e+01 -8.592789190668e-01 0.0 
1.101482754194e+01 -1.677730591922e+00 0.0 
1.148018564526e+01 -2.659323866909e+00 0.0 
8.800552119754e+00 -3.989875954728e+00 0.0 
3.452790439430e+00 -1.901136170646e+01 0.0 
8.658451825200e-01 -9.503462241795e+00 0.0 
1.694787786797e+00 -9.000589234502e+00 0.0 
1.703436717094e+00 -8.038819004041e+00 0.0 
2.594197971110e+00 -8.563955242845e+00 0.0 
1.630513735412e+00 -9.907244747511e+00 0.0 
8.566859292791e-01 -7.512203837972e+00 0.0 
1.685461277022e+00 -7.164280248030e+00 0.0 
2.506394468801e+00 -8.623386730818e-01 0.0 
2.007475081581e+00 -1.727729545205e+00 0.0 
9.211534699767e-01 -1.628791366312e+00 0.0 
1.500000000020e+00 -2.598063549486e+00 0.0 
2.482078929963e+00 -2.553580088725e+00 0.0 
2.999795253092e+00 -1.732169015019e+00 0.0 
3.999712607169e+00 -1.728832897453e+00 0.0 
4.499752199340e+00 -8.656478679175e-01 0.0 
4.964377774841e+00 -1.730129617941e+00 0.0 
4.425017908337e+00 -2.597541756243e+00 0.0 
5.446573195014e+00 -8.410144840023e-01 0.0 
4.915722346614e+01 -1.550640962770e+01 0.0 
4.826794919243e+01 -1.600000000000e+01 0.0 
1.053139533193e+01 -1.911782884365e+01 0.0 
4.156049861949e+01 -1.095160998589e+01 0.0 
9.494526624416e+00 -8.650570090219e-01 0.0 
4.555762166964e+01 -1.897098103585e+01 0.0 
4.250656411371e+01 -1.914387356218e+01 0.0 
4.350906466345e+01 -1.917234727395e+01 0.0 
8.759665722424e-01 -1.746422130609e+01 0.0 
1.698936011838e+00 -1.795012186674e+01 0.0 
4.742476811029e+01 -1.900090177972e+01 0.0 
7.749196752349e+00 -6.368049313489e+00 0.0 
3.361572113416e+01 -1.798765193915e+01 0.0 
4.484660149212e+01 -1.728661231383e+01 0.0 
1.984038172228e+01 -4.502575320116e+00 0.0 
1.035080352627e+01 -6.166639575753e+00 0.0 
2.753558010652e+00 -1.444909521181e+01 0.0 
7.217069543032e+00 -1.328635391078e+01 0.0 
4.364336727739e+00 -1.655585677381e+01 0.0 
4.595208426108e+00 -1.357919665443e+01 0.0 
6.164967006980e+00 -1.569873454630e+01 0.0 
1.487855768353e+01 -1.826523774028e+01 0.0 
2.791876456372e+00 -4.019632415181e+00 0.0 
4.246464893515e+01 -1.364898659620e+01 0.0 
4.503855590351e+01 -1.329552780944e+01 0.0 
4.407239109604e+01 -1.573900004093e+01 0.0 
5.141054449252e+00 -6.664290382472e+00 0.0 
3.141083947149e+00 -1.055790764912e+01 0.0 
6.196463198741e+00 -4.256497932609e+00 0.0 
2.599618716181e+01 -1.836893455464e+01 0.0 
2.923057372337e+01 -1.098461757645e+01 0.0 
1.168343877486e+01 -1.114079645041e+01 0.0 
6.706222096238e+00 -8.780364234441e+00 0.0 
8.567858614669e+00 -6.943121440850e+00 0.0 
1.123755132901e+01 -5.753525820030e+00 0.0 
2.353456234423e+01 -1.008536320953e+01 0.0 
9.162073319168e+00 -1.045593739109e+01 0.0 
9.676343469685e+00 -1.496493008366e+01 0.0 
4.490637882905e+01 -1.628778970202e+01 0.0 
7.398129387772e+00 -9.639977982323e-01 0.0 
1.049641705805e+01 -1.552503975272e+01 0.0 
9.010356286268e+00 -1.242805042052e+01 0.0 
3.985573925497e+01 -1.399863651620e+01 0.0 
1.816196318262e+01 -1.554066497931e+01 0.0 
1.306332244168e+01 -3.963646550326e+00 0.0 
4.145850903932e+01 -1.608094559275e+01 0.0 
3.794664933633e+01 -1.779020121986e+01 0.0 
3.819614412903e+01 -1.290749321016e+01 0.0 
6.270014188119e+00 -3.255093186826e+00 0.0 
4.251165370388e+01 -1.263870364997e+01 0.0 
1.207347709171e+01 -1.763942826023e+01 0.0 
3.633240829927e+01 -1.577330481104e+01 0.0 
4.319052668832e+00 -6.101812561904e+00 0.0 
1.676492415806e+01 -1.151547901392e+01 0.0 
2.594059220037e+01 -1.074225223009e+01 0.0 
3.340750911501e+01 -9.898764354137e+00 0.0 
4.397619591281e+01 -1.769773736461e+01 0.0 
2.175611595028e+01 -1.185718747128e+01 0.0 
1.641818733106e+01 -1.640685203215e+01 0.0 
1.661211421753e+01 -1.346121366338e+01 0.0 
3.428853504935e+00 -6.551993389271e+00 0.0 
8.700728832502e+00 -1.638460872825e+01 0.0 
1.931369795309e+01 -1.121629383702e+01 0.0 
4.139798872363e+01 -1.706922153459e+01 0.0 
2.647837478700e+01 -1.507353829290e+01 0.0 
1.779469616424e+01 -9.161615782908e+00 0.0 
3.885879219319e+01 -1.642026488918e+01 0.0 
1.338194936770e+01 -1.125916521471e+01 0.0 
1.897071181111e+01 -1.609204322578e+01 0.0 
2.844308548793e+01 -1.046221003096e+01 0.0 
2.659854702194e+01 -1.316109415760e+01 0.0 
2.979604503271e+01 -1.433296157755e+01 0.0 
2.417694041347e+01 -1.251231397779e+01 0.0 
1.807401327411e+00 -1.388891148480e+01 0.0 
9.599810618782e+00 -1.595439365034e+01 0.0 
1.652144692160e+01 -4.205392788472e+00 0.0 
2.367839450246e+01 -8.188385218643e+00 0.0 
3.814894930468e+01 -1.390748338767e+01 0.0 
2.466448215774e+01 -1.685878545680e+01 0.0 
4.134044524611e+01 -1.806610045954e+01 0.0 
2.600511411958e+01 -9.801774120648e+00 0.0 
7.882158050716e+00 -1.582364037353e+01 0.0 
3.881607873422e+01 -1.737970515013e+01 0.0 
8.270182347708e+00 -1.088622154920e+01 0.0 
8.672520392520e-01 -4.532984309881e+00 0.0 
1.993447205337e+01 -3.579061902667e+00 0.0 
1.794616079549e+01 -7.238038888498e+00 0.0 
2.097277068165e+01 -1.132450168636e+01 0.0 
8.194803300681e+00 -1.187214224265e+01 0.0 
3.522279404911e+01 -1.823342818178e+01 0.0 
6.984481050295e+00 -1.625271465557e+01 0.0 
1.309433007797e+01 -1.521718594215e+01 0.0 
2.150246167611e+01 -1.885399038185e+00 0.0 
3.250689370209e+01 -1.028789870535e+01 0.0 
6.085886272238e+00 -1.668342132851e+01 0.0 
1.588455661727e+01 -1.193498985921e+01 0.0 
1.809323400821e+01 -1.651110084195e+01 0.0 
1.348885082381e+00 -1.136065576512e+01 0.0 
2.497670221995e+01 -1.834631276173e+01 0.0 
2.937062818424e+01 -8.233711194470e+00 0.0 
5.185823744469e+00 -1.711566910207e+01 0.0 
1.477497877209e+01 -1.530177014512e+01 0.0 
2.125346158933e+01 -7.473003997367e+00 0.0 
4.751561118290e+01 -1.084897772632e+01 0.0 
5.056026576843e+00 -1.825750475525e+01 0.0 
1.473948554523e+01 -1.634577436309e+01 0.0 
2.410566630936e+01 -1.345970002612e+01 0.0 
1.507337507513e+01 -1.138527895328e+01 0.0 
3.189857338687e+01 -8.887781229006e+00 0.0 
7.298712468334e+00 -1.230231046246e+01 0.0 
2.738235495295e+01 -1.368931690364e+01 0.0 
3.750141041969e+01 -1.920449893070e+01 0.0 
1.557271965640e+01 -1.683317951731e+01 0.0 
3.393731848929e+01 -1.413034777044e+01 0.0 
6.482156824153e+00 -1.174575135362e+01 0.0 
2.077971718439e+01 -1.421279621836e+01 0.0 
3.455084320178e+00 -2.562590040585e+00 0.0 
3.099056096250e+01 -9.270280416035e+00 0.0 
5.580176125418e+00 -1.217387969259e+01 0.0 
1.707247630389e+01 -7.660651981710e+00 0.0 
1.418658814174e+01 -1.180390575393e+01 0.0 
2.049103025389e+01 -1.811296706038e+01 0.0 
4.680386172316e+00 -1.260396879301e+01 0.0 
1.699679896554e+01 -8.624561788199e+00 0.0 
3.779470168555e+00 -1.303424899720e+01 0.0 
3.036589870126e+01 -7.879832518349e+00 0.0 
3.306993001774e+01 -1.457671062095e+01 0.0 
2.840150110165e+00 -1.346530088269e+01 0.0 
2.732011135052e+01 -1.464591214560e+01 0.0 
5.423639259568e+00 -2.659711955016e+00 0.0 
2.324455961696e+01 -1.387269388211e+01 0.0 
1.752768355571e+00 -1.693128613594e+01 0.0 
1.020244783051e+01 -8.076834012808e+00 0.0 
1.330873875224e+01 -1.222417528206e+01 0.0 
3.297727364880e+01 -1.555480372087e+01 0.0 
2.890929955439e+01 -6.868664170731e+00 0.0 
1.323294664622e+01 -1.320754260334e+01 0.0 
2.726532861246e+01 -1.560593120806e+01 0.0 
2.240020643398e+01 -1.429299177247e+01 0.0 
2.090445823633e+01 -1.228128621332e+01 0.0 
1.315809881502e+01 -1.420739326938e+01 0.0 
2.781328038068e+01 -7.181956082300e+00 0.0 
8.614200829057e+00 -5.936933226306e+00 0.0 
8.714765730069e+00 -4.979270529687e+00 0.0 
1.611881701099e+01 -9.041973294003e+00 0.0 
2.806830314340e+01 -1.614622947108e+01 0.0 
2.084435391396e+00 -3.385085422913e+00 0.0 
3.133211811152e+01 -1.542347619750e+01 0.0 
9.693114650768e+00 -3.590281506442e+00 0.0 
1.531883592202e+01 -8.504584946143e+00 0.0 
2.151589117094e+01 -1.578915763018e+01 0.0 
4.918943882696e+01 -1.355538828056e+01 0.0 
1.443236615188e+01 -8.918701794549e+00 0.0 
8.276250966452e-01 -5.537685192197e+00 0.0 
1.362790867918e+01 -8.374718262212e+00 0.0 
2.083767477370e+01 -1.324843956035e+01 0.0 
1.273834678703e+01 -8.790890389337e+00 0.0 
1.192275845670e+01 -8.242261327467e+00 0.0 
4.477236023583e+01 -1.824312396664e+01 0.0 
1.102989384254e+01 -8.649855800911e+00 0.0 
4.849096516045e+01 -1.917293752213e+01 0.0 
1.588996752238e+00 -1.910230934687e+01 0.0 
4.904245197583e+01 -1.159839008158e+01 0.0 
2.753852929608e+01 -5.782128488093e+00 0.0 
1.756133602833e+01 -8.306130313187e-01 0.0 
2.615423700951e+01 -6.153865090092e+00 0.0 
1.028818761294e+01 -7.122020845892e+00 0.0 
2.970818901196e+01 -1.527821347593e+01 0.0 
4.801461623449e+01 -1.164472570985e+01 0.0 
9.455722100419e+00 -6.546069291118e+00 0.0 
3.089099236677e+01 -1.835339328261e+01 0.0 
2.350000000013e+01 -1.920825896750e+01 0.0 
4.830620531887e+01 -1.506626155470e+01 0.0 
1.725381944701e+01 -1.688794487850e+01 0.0 
2.156246225273e+01 -1.475893794002e+01 0.0 
4.919319648787e+01 -1.742767505896e+01 0.0 
4.437935623576e+01 -1.077662927266e+01 0.0 
1.001520521978e+01 -1.652692675208e+00 0.0 
9.067160240050e-01 -1.441937727541e+01 0.0 
2.603365149390e+01 -4.755996613848e+00 0.0 
2.458344439002e+01 -4.873645517696e+00 0.0 
2.304312390142e+01 -3.836552768096e+00 0.0 
2.546923202198e+00 -6.902480355749e+00 0.0 
1.251534969393e+01 -2.490989965776e+00 0.0 
2.454061833377e+01 -3.933354231935e+00 0.0 
1.788186558740e+01 -1.827424884923e+01 0.0 
4.090785243552e+01 -1.166553231904e+01 0.0 
2.230128851568e+01 -1.623015738726e+01 0.0 
2.302362347568e+01 -2.916239960270e+00 0.0 
3.878119254461e+01 -1.830091164002e+01 0.0 
2.210081359958e+01 -1.829238229150e+01 0.0 
8.443704882233e+00 -1.921993252862e+01 0.0 
2.218405824691e+01 -1.724557581508e+01 0.0 
2.151157503963e+01 -2.790636689331e+00 0.0 
3.741658958955e+01 -1.250400191722e+01 0.0 
2.697247663737e+01 -1.838290202309e+01 0.0 
4.743362342862e+01 -1.585850773010e+01 0.0 
6.671345075358e+00 -1.924977576322e+01 0.0 
3.900825404537e+01 -1.157220003875e+01 0.0 
4.649692961375e+01 -1.836335837481e+01 0.0 
1.578831424832e+01 -3.678284023361e+00 0.0 
4.814208768888e+01 -1.841249298770e+01 0.0 
2.964123298315e+01 -1.625739458193e+01 0.0 
4.580760351902e+01 -1.284294554687e+01 0.0 
3.561520879615e+01 -1.245548941949e+01 0.0 
2.555418095658e+00 -1.841101588290e+01 0.0 
3.288468366144e+01 -1.834258164109e+01 0.0 
2.065894391445e+01 -2.240688571739e+00 0.0 
4.739171429915e+01 -1.496536413446e+01 0.0 
3.478086729185e+00 -8.576434653209e+00 0.0 
1.606010630246e+01 -1.588421807951e+00 0.0 
1.018329200594e+01 -1.834320874317e+01 0.0 
2.957213339430e+01 -1.720496954591e+01 0.0 
4.142712790164e+00 -1.837794506222e+01 0.0 
6.698721532573e-01 -2.499999999997e+00 0.0 
8.037039123140e+00 -1.571229354954e+00 0.0 
1.203541361428e+01 -1.847784298001e+01 0.0 
2.899968332038e+01 -1.848264722179e+01 0.0 
1.469229460948e+01 -4.219485753730e+00 0.0 
4.049590781957e+01 -1.932812501995e+01 0.0 
1.996211678340e+01 -1.506329754720e+00 0.0 
4.250588298353e+01 -1.067383247529e+01 0.0 
5.831497011152e+00 -1.635396227234e+00 0.0 
5.317606125670e+00 -1.923927974868e+01 0.0 
4.208546426993e+01 -1.842830665025e+01 0.0 
2.327553405011e+00 -9.459409929662e+00 0.0 
3.568351902251e+01 -1.096637218582e+01 0.0 
1.682104374890e+00 -6.231413350963e+00 0.0 
2.451812238018e+01 -1.766524914339e+01 0.0 
1.058003429638e+01 -2.391839617098e+00 0.0 
4.399988753123e+01 -1.851998776342e+01 0.0 
1.400000000010e+01 -1.852293523028e+01 0.0 
3.604719565984e+01 -1.850662876800e+01 0.0 
1.951297136734e+01 -1.938092349694e+01 0.0 
1.821365318472e+01 -1.531276353287e+00 0.0 
2.298031859732e+01 -1.854635324722e+01 0.0 
1.552168066204e+01 -1.764280741977e+01 0.0 
4.572957713638e+01 -1.073347898229e+01 0.0 
3.429637429624e+01 -1.838861552790e+01 0.0 
2.427434426052e+00 -7.705577451869e+00 0.0 
4.662792031485e+00 -3.359424455416e+00 0.0 
4.926794919243e+01 -1.926794919243e+01 0.0 
7.320508075690e-01 -7.320508075688e-01 0.0 
4.926794919243e+01 -1.073205080757e+01 0.0 
7.320508075705e-01 -1.926794919243e+01 0.0 
2.917460242467e+00 -3.202866455310e+00 0.0 
4.838200575963e+01 -1.232674147454e+01 0.0 
2.998445708009e+01 -1.854403752148e+01 0.0 
5.949940090766e-01 -1.152762038165e+01 0.0 
4.844763495759e+01 -1.678092548787e+01 0.0 
1.301685480160e+01 -3.170056592566e+00 0.0 
1.650046335855e+01 -6.731535384067e-01 0.0 
4.854881540991e+01 -1.405224059779e+01 0.0 
2.119545114693e+01 -1.846813384545e+01 0.0 
3.797852849897e+01 -1.857978513215e+01 0.0 
4.649823708745e+01 -1.338351810816e+01 0.0 
2.012685900976e+01 -2.889659035009e+00 0.0 
2.953271913273e+01 -1.791558075192e+01 0.0 
2.408509097292e+00 -1.021949208421e+01 0.0 
2.642589566221e+01 -1.773216561448e+01 0.0 
1.730010270775e+01 -1.763165076721e+01 0.0 
2.017406551304e+01 -8.513536440582e-01 0.0 
5.254761581934e-01 -1.249999999999e+01 0.0 
6.640448215642e+00 -1.545337834885e+00 0.0 
7.843361506349e+00 -1.852719839527e+01 0.0 
1.588442191088e+00 -1.066158564320e+01 0.0 
3.180701530612e+01 -7.414795918363e+00 0.0 
4.951250000000e+01 -7.500000000000e+00 0.0 
3.331250000000e+01 -8.420918367347e+00 0.0 
4.951470588234e+01 -8.500000000000e+00 0.0 
3.480610198624e+01 -9.413633635267e+00 0.0 
4.951470588234e+01 -9.500000000000e+00 0.0 

CELLS 2039 8156 
3 234 704 980 
3 704 234 982 
3 714 207 725 
3 827 592 1016 
3 594 654 820 
3 684 597 723 
3 214 636 638 
3 234 661 982 
3 636 214 654 
3 587 822 1016 
3 206 781 782 
3 661 234 996 
3 826 978 1022 
3 643 774 864 
3 978 240 1022 
3 233 827 1016 
3 642 213 783 
3 597 684 722 
3 221 641 963 
3 641 221 901 
3 822 587 975 
3 952 198 958 
3 679 952 958 
3 629 628 838 
3 328 484 773 
3 781 206 890 
3 108 82 1043 
3 673 199 915 
3 326 328 773 
3 838 628 1048 
3 578 788 790 
3 231 644 821 
3 714 725 1023 
3 19 219 694 
3 229 648 650 
3 657 66 1014 
3 66 657 1040 
3 676 225 720 
3 640 99 993 
3 99 640 1054 
3 916 658 942 
3 194 680 819 
3 997 195 1001 
3 82 243 1043 
3 635 242 992 
3 674 997 1001 
3 788 578 791 
3 242 635 1018 
3 784 785 791 
3 774 643 1015 
3 236 679 916 
3 626 641 901 
3 404 1017 1035 
3 236 916 942 
3 726 208 906 
3 999 571 1044 
3 626 901 970 
3 219 664 694 
3 487 815 933 
3 822 233 1016 
3 193 1027 1068 
3 1007 633 1009 
3 453 481 687 
3 1017 790 1035 
3 798 617 1022 
3 679 236 952 
3 1027 637 1068 
3 207 714 987 
3 514 475 796 
3 203 662 728 
3 890 833 944 
3 33 32 682 
3 673 915 1045 
3 4 5 808 
3 805 999 1044 
3 645 210 896 
3 726 906 1055 
3 693 998 1005 
3 815 487 1057 
3 998 235 1005 
3 475 488 796 
3 213 642 1003 
3 198 704 958 
3 704 198 980 
3 654 594 866 
3 636 654 866 
3 665 890 995 
3 18 19 694 
3 719 716 964 
3 594 820 1003 
3 821 644 994 
3 245 772 1043 
3 818 989 1013 
3 1013 989 1025 
3 211 33 682 
3 720 225 1050 
3 642 783 1015 
3 819 680 1028 
3 239 671 968 
3 687 481 688 
3 820 654 1038 
3 240 798 1022 
3 401 967 991 
3 632 1007 1009 
3 522 520 698 
3 785 788 791 
3 825 826 948 
3 591 818 1013 
3 193 784 791 
3 921 216 1040 
3 366 719 964 
3 4 808 1059 
3 589 685 721 
3 556 872 910 
3 600 802 1026 
3 660 687 688 
3 455 453 687 
3 229 650 1008 
3 671 239 1063 
3 659 455 687 
3 690 620 965 
3 243 245 1043 
3 818 591 1066 
3 455 659 698 
3 1010 909 1024 
3 675 925 934 
3 802 600 1056 
3 925 200 934 
3 210 645 1036 
3 622 1010 1024 
3 781 890 944 
3 592 827 1018 
3 529 586 686 
3 200 658 934 
3 648 229 1028 
3 826 583 978 
3 665 833 890 
3 686 586 886 
3 630 758 1048 
3 562 678 686 
3 612 823 824 
3 662 203 1034 
3 864 774 1011 
3 471 443 692 
3 678 529 686 
3 658 200 942 
3 586 724 886 
3 698 524 893 
3 214 638 993 
3 685 320 721 
3 644 231 1032 
3 979 985 1063 
3 809 221 963 
3 237 675 910 
3 758 630 767 
3 659 522 698 
3 694 665 995 
3 661 195 997 
3 967 627 991 
3 220 666 667 
3 681 320 685 
3 664 219 948 
3 514 690 965 
3 826 585 948 
3 701 574 729 
3 216 921 1030 
3 979 584 985 
3 520 524 698 
3 872 237 910 
3 206 782 1079 
3 195 661 996 
3 320 681 695 
3 443 494 692 
3 666 220 1054 
3 524 685 893 
3 675 237 925 
3 568 757 962 
3 802 503 1026 
3 199 673 988 
3 728 662 1012 
3 660 688 982 
3 503 802 1042 
3 745 875 929 
3 678 562 916 
3 661 660 982 
3 701 556 910 
3 685 589 893 
3 209 822 975 
3 332 741 951 
3 219 825 948 
3 674 235 998 
3 530 695 919 
3 716 741 964 
3 81 109 683 
3 562 658 916 
3 918 590 922 
3 814 946 1039 
3 829 222 1055 
3 327 252 734 
3 949 308 976 
3 438 918 922 
3 772 245 1021 
3 773 484 1011 
3 628 630 1048 
3 959 850 986 
3 696 267 724 
3 526 416 729 
3 333 327 734 
3 523 701 729 
3 574 701 910 
3 472 932 972 
3 757 606 962 
3 683 217 684 
3 688 704 982 
3 688 481 703 
3 586 696 724 
3 741 711 951 
3 597 596 902 
3 590 689 908 
3 640 666 1054 
3 695 681 919 
3 386 908 957 
3 646 856 1080 
3 732 333 734 
3 856 202 1080 
3 814 815 946 
3 235 674 1001 
3 959 602 960 
3 706 333 732 
3 602 601 960 
3 582 691 697 
3 408 789 861 
3 620 797 965 
3 875 438 929 
3 574 526 729 
3 617 798 1030 
3 109 217 683 
3 491 521 697 
3 281 320 695 
3 679 678 916 
3 689 590 918 
3 657 921 1040 
3 943 332 951 
3 390 372 727 
3 438 922 929 
3 890 206 995 
3 724 334 886 
3 733 734 930 
3 633 1007 1052 
3 281 695 702 
3 521 582 697 
3 251 523 699 
3 682 32 1036 
3 267 696 871 
3 740 283 879 
3 667 666 668 
3 796 488 1000 
3 523 700 701 
3 490 390 727 
3 596 730 831 
3 578 790 1017 
3 333 706 868 
3 416 699 729 
3 455 698 893 
3 706 545 868 
3 741 332 964 
3 334 705 847 
3 201 655 1014 
3 531 740 879 
3 259 525 705 
3 589 721 852 
3 531 739 740 
3 373 389 730 
3 771 212 772 
3 285 282 702 
3 402 753 754 
3 733 943 951 
3 109 110 217 
3 523 249 700 
3 372 370 727 
3 446 491 697 
3 375 373 730 
3 254 251 699 
3 644 690 994 
3 482 572 703 
3 531 738 739 
3 699 523 729 
3 771 772 773 
3 492 597 722 
3 402 754 756 
3 403 406 753 
3 688 703 704 
3 733 930 943 
3 481 482 703 
3 368 285 702 
3 695 530 702 
3 492 596 597 
3 721 277 852 
3 621 691 693 
3 37 208 726 
3 39 222 725 
3 268 267 871 
3 389 372 390 
3 445 446 504 
3 260 259 705 
3 389 390 445 
3 402 403 753 
3 334 847 886 
3 823 612 1041 
3 727 530 919 
3 932 588 972 
3 621 504 691 
3 226 57 746 
3 445 390 446 
3 265 334 724 
3 492 396 596 
3 768 461 876 
3 282 281 702 
3 406 750 753 
3 525 416 526 
3 42 747 748 
3 370 368 530 
3 531 359 738 
3 505 504 621 
3 736 421 859 
3 908 689 957 
3 521 522 580 
3 595 736 859 
3 224 45 728 
3 498 590 908 
3 41 207 747 
3 864 484 894 
3 719 366 984 
3 582 580 674 
3 527 526 559 
3 259 416 525 
3 259 257 416 
3 335 871 897 
3 199 47 731 
3 326 773 1021 
3 700 556 701 
3 530 368 702 
3 601 797 960 
3 559 574 675 
3 521 520 522 
3 220 667 920 
3 406 749 750 
3 370 530 727 
3 710 732 733 
3 491 520 521 
3 525 526 527 
3 359 361 738 
3 534 761 848 
3 50 223 737 
3 562 560 658 
3 374 376 756 
3 615 949 976 
3 581 660 661 
3 580 522 581 
3 716 713 741 
3 265 263 334 
3 572 678 679 
3 527 559 560 
3 54 225 742 
3 225 676 1002 
3 713 711 741 
3 733 732 734 
3 761 301 848 
3 453 454 481 
3 373 372 389 
3 371 370 372 
3 267 265 724 
3 548 768 876 
3 316 762 763 
3 709 707 710 
3 376 402 756 
3 450 335 451 
3 705 525 847 
3 452 451 453 
3 207 40 725 
3 222 38 726 
3 222 829 1023 
3 534 760 761 
3 545 447 868 
3 521 580 582 
3 369 368 370 
3 596 396 730 
3 482 529 572 
3 770 771 774 
3 736 864 894 
3 746 744 838 
3 717 716 719 
3 251 249 523 
3 258 257 259 
3 396 375 730 
3 793 795 796 
3 320 279 721 
3 273 271 335 
3 279 277 721 
3 190 909 1010 
3 667 668 669 
3 797 601 965 
3 446 490 491 
3 57 56 746 
3 380 382 472 
3 244 556 700 
3 221 809 1031 
3 871 696 897 
3 281 279 320 
3 257 254 699 
3 203 43 748 
3 559 526 574 
3 263 260 705 
3 316 763 769 
3 707 706 732 
3 534 759 760 
3 44 203 728 
3 41 40 207 
3 37 36 208 
3 39 38 222 
3 256 254 257 
3 710 707 732 
3 715 713 716 
3 453 451 454 
3 481 454 482 
3 765 762 849 
3 709 710 711 
3 46 224 731 
3 624 545 706 
3 738 472 739 
3 624 706 707 
3 465 463 766 
3 273 335 450 
3 572 529 678 
3 445 504 505 
3 211 682 1006 
3 452 453 455 
3 846 565 915 
3 762 316 849 
3 407 410 749 
3 226 746 838 
3 491 519 520 
3 42 41 747 
3 222 726 1055 
3 264 263 265 
3 793 794 795 
3 44 43 203 
3 191 742 743 
3 406 407 749 
3 361 380 738 
3 197 51 737 
3 117 192 794 
3 450 451 452 
3 262 260 263 
3 266 265 267 
3 334 263 705 
3 504 446 697 
3 46 45 224 
3 367 285 368 
3 493 492 722 
3 655 201 1081 
3 794 192 795 
3 561 560 562 
3 788 789 790 
3 675 574 910 
3 191 55 742 
3 48 47 199 
3 416 257 699 
3 785 787 788 
3 634 493 722 
3 788 787 789 
3 878 576 891 
3 770 212 771 
3 246 244 700 
3 50 49 223 
3 228 770 774 
3 208 36 735 
3 468 465 766 
3 595 643 736 
3 581 659 660 
3 380 472 738 
3 596 831 902 
3 52 51 197 
3 40 39 725 
3 38 37 726 
3 534 342 759 
3 337 339 765 
3 273 450 852 
3 342 344 759 
3 54 53 225 
3 446 390 490 
3 753 752 754 
3 750 751 752 
3 485 595 859 
3 58 226 758 
3 785 786 787 
3 56 55 191 
3 749 614 750 
3 43 42 748 
3 715 716 717 
3 116 117 794 
3 450 589 852 
3 544 447 545 
3 45 44 728 
3 256 257 258 
3 511 468 512 
3 505 621 622 
3 744 743 745 
3 506 613 614 
3 750 614 751 
3 784 227 785 
3 47 46 731 
3 730 389 831 
3 498 546 590 
3 595 642 643 
3 832 564 851 
3 750 752 753 
3 258 259 260 
3 51 50 737 
3 339 441 765 
3 350 386 456 
3 270 268 271 
3 609 502 610 
3 754 752 755 
3 759 456 760 
3 271 268 871 
3 607 464 881 
3 380 381 382 
3 272 271 273 
3 309 311 769 
3 491 490 519 
3 337 765 849 
3 512 468 766 
3 336 359 531 
3 56 191 746 
3 623 545 624 
3 507 832 851 
3 55 54 742 
3 191 743 744 
3 278 277 279 
3 785 227 786 
3 59 758 767 
3 708 707 709 
3 410 506 749 
3 58 57 226 
3 344 350 759 
3 482 528 529 
3 249 246 700 
3 336 531 879 
3 340 534 848 
3 502 461 768 
3 734 252 930 
3 561 686 886 
3 382 400 401 
3 669 668 670 
3 311 316 769 
3 361 363 380 
3 506 563 613 
3 533 355 834 
3 115 116 792 
3 520 519 524 
3 506 614 749 
3 762 604 763 
3 276 274 277 
3 350 456 759 
3 485 593 595 
3 410 473 506 
3 59 58 758 
3 262 263 264 
3 532 603 604 
3 264 265 266 
3 532 604 762 
3 792 116 794 
3 248 246 249 
3 801 800 802 
3 202 122 816 
3 441 496 532 
3 350 385 386 
3 830 500 855 
3 610 768 912 
3 610 502 768 
3 244 204 556 
3 228 106 770 
3 625 735 928 
3 266 267 268 
3 122 123 816 
3 620 540 797 
3 786 792 793 
3 602 959 986 
3 518 568 962 
3 598 830 855 
3 395 878 891 
3 319 317 828 
3 357 355 533 
3 498 509 546 
3 415 396 492 
3 232 800 801 
3 205 804 805 
3 194 60 767 
3 60 59 767 
3 800 799 803 
3 532 496 603 
3 340 342 534 
3 546 628 629 
3 540 459 797 
3 393 478 498 
3 814 812 815 
3 441 532 765 
3 763 604 764 
3 218 811 812 
3 232 799 800 
3 544 545 623 
3 123 124 813 
3 107 212 770 
3 107 108 212 
3 461 365 876 
3 205 10 804 
3 506 473 563 
3 691 504 697 
3 651 649 652 
3 731 224 846 
3 535 429 862 
3 581 522 659 
3 644 620 690 
3 527 560 561 
3 103 213 820 
3 102 103 820 
3 123 813 816 
3 813 812 814 
3 807 809 810 
3 383 324 458 
3 218 806 811 
3 799 196 803 
3 193 113 784 
3 324 319 828 
3 672 670 692 
3 105 106 228 
3 568 663 757 
3 344 349 350 
3 669 670 671 
3 10 11 804 
3 807 810 811 
3 30 29 823 
3 210 30 823 
3 595 593 642 
3 213 104 783 
3 804 801 805 
3 28 209 824 
3 458 324 828 
3 106 107 770 
3 105 228 783 
3 559 675 934 
3 36 35 735 
3 823 29 824 
3 218 812 813 
3 124 218 813 
3 619 540 620 
3 763 764 900 
3 825 583 826 
3 112 113 193 
3 230 817 818 
3 114 227 784 
3 501 461 502 
3 114 115 227 
3 113 114 784 
3 608 502 609 
3 554 617 618 
3 671 670 672 
3 847 561 886 
3 806 807 811 
3 356 357 836 
3 25 24 827 
3 233 25 827 
3 104 105 783 
3 437 365 461 
3 29 28 824 
3 511 512 627 
3 807 808 809 
3 806 241 807 
3 807 241 808 
3 11 12 232 
3 240 69 798 
3 80 79 242 
3 126 241 806 
3 13 196 799 
3 70 69 240 
3 68 216 798 
3 61 194 819 
3 76 215 817 
3 78 77 230 
3 69 68 798 
3 68 67 216 
3 230 77 817 
3 126 127 241 
3 100 101 214 
3 103 104 213 
3 218 125 806 
3 65 64 201 
3 229 62 819 
3 63 62 229 
3 125 126 806 
3 124 125 218 
3 61 60 194 
3 62 61 819 
3 76 75 215 
3 97 98 220 
3 77 76 817 
3 74 73 239 
3 95 96 584 
3 121 122 202 
3 119 120 231 
3 118 119 821 
3 117 118 192 
3 13 14 196 
3 12 13 799 
3 119 231 821 
3 16 17 206 
3 192 118 821 
3 34 33 211 
3 28 27 209 
3 31 30 210 
3 6 7 221 
3 9 10 205 
3 27 26 822 
3 19 20 219 
3 26 25 233 
3 20 21 825 
3 21 22 583 
3 232 12 799 
3 209 27 822 
3 26 233 822 
3 219 20 825 
3 21 583 825 
3 448 449 833 
3 227 115 792 
3 339 440 441 
3 813 814 816 
3 651 652 653 
3 532 762 765 
3 414 398 835 
3 383 458 459 
3 946 647 1039 
3 554 618 835 
3 441 442 496 
3 232 801 804 
3 398 460 835 
3 591 592 635 
3 11 232 804 
3 386 385 393 
3 348 346 399 
3 448 397 449 
3 516 448 833 
3 367 368 369 
3 561 562 686 
3 277 274 852 
3 356 355 357 
3 460 553 554 
3 664 516 665 
3 507 601 602 
3 579 500 587 
3 495 444 500 
3 640 639 666 
3 354 352 355 
3 397 356 836 
3 591 579 592 
3 495 579 591 
3 399 346 858 
3 554 585 617 
3 457 429 535 
3 664 665 694 
3 655 653 656 
3 587 500 830 
3 434 432 435 
3 350 349 385 
3 394 476 477 
3 413 499 507 
3 619 620 644 
3 786 227 792 
3 495 500 579 
3 554 553 585 
3 793 792 794 
3 712 711 713 
3 638 538 639 
3 384 398 414 
3 460 516 553 
3 563 564 615 
3 553 516 664 
3 638 639 640 
3 380 363 381 
3 655 656 657 
3 626 508 641 
3 650 649 651 
3 443 435 444 
3 477 508 571 
3 507 602 832 
3 779 777 780 
3 431 433 537 
3 318 322 337 
3 494 444 495 
3 434 443 471 
3 603 496 775 
3 665 516 833 
3 460 448 516 
3 443 444 494 
3 436 388 474 
3 496 442 497 
3 469 555 631 
3 435 842 855 
3 441 440 442 
3 348 399 834 
3 648 576 649 
3 434 435 443 
3 577 493 634 
3 551 646 647 
3 377 375 396 
3 460 554 835 
3 433 432 434 
3 781 779 782 
3 537 538 636 
3 498 478 509 
3 775 497 776 
3 398 448 460 
3 477 476 508 
3 651 653 655 
3 496 497 775 
3 571 508 626 
3 497 442 844 
3 337 338 339 
3 323 319 324 
3 778 779 781 
3 121 202 856 
3 231 120 856 
3 449 397 836 
3 394 436 476 
3 354 355 356 
3 355 352 834 
3 311 315 316 
3 410 411 473 
3 457 535 536 
3 723 597 1073 
3 339 439 440 
3 546 509 628 
3 476 436 487 
3 537 433 538 
3 636 538 638 
3 539 459 540 
3 575 542 576 
3 428 426 429 
3 394 388 436 
3 611 535 880 
3 536 535 611 
3 331 388 394 
3 660 659 687 
3 325 324 383 
3 398 397 448 
3 776 777 778 
3 624 707 708 
3 457 536 598 
3 384 356 397 
3 354 356 384 
3 383 459 539 
3 384 397 398 
3 428 429 430 
3 778 777 779 
3 431 432 433 
3 430 429 457 
3 283 284 879 
3 842 598 855 
3 442 503 844 
3 776 497 777 
3 439 338 599 
3 313 310 314 
3 431 430 432 
3 305 307 340 
3 323 325 331 
3 551 540 619 
3 428 430 431 
3 323 324 325 
3 648 649 650 
3 435 432 842 
3 384 414 837 
3 191 744 746 
3 442 440 503 
3 331 325 388 
3 539 540 551 
3 353 352 354 
3 434 471 841 
3 551 619 646 
3 337 322 338 
3 641 508 839 
3 431 537 840 
3 339 338 439 
3 352 348 834 
3 439 599 600 
3 500 444 855 
3 322 319 323 
3 347 351 395 
3 507 499 601 
3 351 348 352 
3 780 777 844 
3 353 354 837 
3 754 755 936 
3 508 476 839 
3 639 538 841 
3 501 502 608 
3 451 335 897 
3 433 434 841 
3 413 507 851 
3 425 427 485 
3 476 487 839 
3 652 649 878 
3 437 461 501 
3 382 381 400 
3 536 611 612 
3 340 341 342 
3 474 388 845 
3 345 343 346 
3 575 576 648 
3 563 473 564 
3 354 384 837 
3 432 430 842 
3 407 409 410 
3 347 346 348 
3 593 486 594 
3 477 571 877 
3 318 319 322 
3 270 271 272 
3 351 352 353 
3 482 454 528 
3 272 273 274 
3 427 426 428 
3 538 433 841 
3 485 486 593 
3 777 497 844 
3 515 417 542 
3 342 343 344 
3 537 636 866 
3 714 713 715 
3 401 400 469 
3 347 348 351 
3 430 457 842 
3 311 313 315 
3 315 317 318 
3 383 539 845 
3 344 345 349 
3 318 337 849 
3 427 428 840 
3 485 427 486 
3 287 289 336 
3 828 317 850 
3 369 370 371 
3 318 317 319 
3 315 313 317 
3 325 383 845 
3 393 417 478 
3 306 304 308 
3 457 598 842 
3 302 304 305 
3 344 343 345 
3 340 307 341 
3 276 277 278 
3 388 325 845 
3 515 542 575 
3 515 575 680 
3 462 464 607 
3 311 310 313 
3 342 341 343 
3 428 431 840 
3 316 315 849 
3 450 452 589 
3 322 323 843 
3 473 411 851 
3 309 310 311 
3 323 331 843 
3 394 477 869 
3 341 307 541 
3 345 346 347 
3 480 517 518 
3 120 121 856 
3 298 296 299 
3 302 300 303 
3 309 308 310 
3 486 427 840 
3 305 306 307 
3 338 322 843 
3 306 308 309 
3 444 435 855 
3 599 338 843 
3 551 647 865 
3 845 539 865 
3 564 473 851 
3 313 314 850 
3 298 300 301 
3 305 304 306 
3 413 475 499 
3 474 845 865 
3 736 643 864 
3 843 331 869 
3 393 385 417 
3 466 479 480 
3 250 249 251 
3 489 423 510 
3 518 567 568 
3 284 287 879 
3 464 466 881 
3 411 412 413 
3 309 769 853 
3 280 279 281 
3 403 405 406 
3 475 412 488 
3 315 318 849 
3 302 303 304 
3 301 300 302 
3 599 843 869 
3 305 340 848 
3 298 299 300 
3 294 296 297 
3 317 313 850 
3 364 362 365 
3 425 426 427 
3 294 292 295 
3 478 417 515 
3 410 409 411 
3 628 509 630 
3 301 302 848 
3 568 662 663 
3 261 260 262 
3 411 413 851 
3 253 251 254 
3 543 447 544 
3 301 761 884 
3 524 681 685 
3 255 254 256 
3 335 271 871 
3 413 412 475 
3 645 616 682 
3 499 475 514 
3 676 570 677 
3 830 598 873 
3 387 365 437 
3 840 537 866 
3 424 423 489 
3 297 296 298 
3 336 358 359 
3 573 510 616 
3 347 395 854 
3 422 424 425 
3 501 608 689 
3 411 409 412 
3 422 420 423 
3 731 846 915 
3 515 680 867 
3 306 309 853 
3 486 840 866 
3 594 486 866 
3 302 305 848 
3 349 345 854 
3 385 349 857 
3 539 551 865 
3 371 372 373 
3 290 292 293 
3 294 295 296 
3 274 273 852 
3 573 616 645 
3 709 711 712 
3 598 536 873 
3 529 528 586 
3 419 391 447 
3 345 347 854 
3 611 880 896 
3 392 420 421 
3 307 306 853 
3 290 288 291 
3 422 423 424 
3 489 510 573 
3 429 426 862 
3 425 424 426 
3 576 542 891 
3 569 483 570 
3 542 417 857 
3 346 343 858 
3 658 560 934 
3 364 387 418 
3 329 327 333 
3 331 394 869 
3 293 292 294 
3 610 912 924 
3 359 360 361 
3 376 378 402 
3 290 291 292 
3 361 362 363 
3 527 561 847 
3 541 307 853 
3 421 736 894 
3 654 214 1038 
3 84 181 190 
3 343 341 858 
3 387 437 438 
3 708 709 829 
3 336 289 358 
3 341 541 858 
3 425 485 859 
3 85 182 235 
3 364 365 387 
3 360 358 548 
3 525 527 847 
3 349 854 857 
3 406 405 407 
3 417 385 857 
3 509 478 867 
3 363 362 364 
3 426 424 862 
3 470 468 511 
3 478 515 867 
3 86 183 195 
3 421 422 859 
3 631 555 632 
3 424 489 862 
3 361 360 362 
3 289 288 290 
3 931 603 935 
3 415 492 493 
3 535 862 880 
3 869 477 877 
3 87 184 234 
3 467 465 468 
3 536 612 873 
3 407 408 409 
3 269 268 270 
3 421 420 422 
3 900 764 905 
3 402 378 403 
3 524 519 681 
3 488 412 861 
3 407 405 408 
3 409 408 861 
3 359 358 360 
3 735 35 928 
3 88 185 198 
3 649 576 878 
3 286 285 367 
3 330 392 894 
3 377 396 415 
3 630 509 867 
3 412 409 861 
3 600 599 877 
3 381 363 860 
3 298 301 884 
3 469 483 555 
3 452 455 893 
3 329 333 868 
3 569 570 676 
3 422 425 859 
3 709 712 829 
3 420 419 883 
3 419 447 543 
3 389 445 831 
3 652 878 898 
3 392 419 420 
3 283 740 904 
3 89 186 236 
3 569 676 720 
3 374 373 375 
3 599 869 877 
3 469 400 483 
3 221 7 901 
3 275 274 276 
3 364 418 860 
3 543 544 863 
3 544 623 625 
3 363 364 860 
3 510 423 883 
3 284 282 285 
3 466 480 881 
3 90 187 200 
3 715 717 718 
3 91 188 237 
3 189 91 872 
3 287 336 879 
3 82 189 204 
3 557 312 558 
3 278 279 280 
3 290 293 870 
3 403 378 404 
3 287 288 289 
3 489 573 880 
3 712 713 714 
3 395 351 898 
3 555 483 569 
3 297 298 884 
3 419 543 883 
3 289 290 870 
3 653 652 907 
3 423 420 883 
3 447 391 868 
3 365 362 876 
3 284 286 287 
3 480 479 517 
3 258 260 261 
3 403 404 405 
3 374 375 376 
3 589 452 893 
3 266 268 269 
3 656 653 911 
3 392 391 419 
3 287 286 288 
3 462 607 887 
3 418 387 875 
3 862 489 880 
3 518 517 567 
3 484 330 894 
3 590 546 922 
3 358 289 870 
3 387 438 875 
3 272 274 275 
3 616 510 899 
3 568 567 662 
3 360 548 876 
3 376 375 377 
3 470 511 513 
3 275 312 550 
3 284 285 286 
3 362 360 876 
3 393 498 908 
3 376 377 378 
3 548 358 870 
3 253 254 255 
3 656 911 917 
3 255 256 366 
3 467 468 470 
3 250 251 253 
3 247 246 248 
3 261 262 321 
3 570 483 885 
3 878 395 898 
3 330 391 392 
3 544 625 863 
3 248 249 250 
3 367 369 547 
3 470 513 566 
3 880 573 896 
3 276 278 874 
3 275 276 312 
3 286 367 882 
3 391 329 868 
3 528 454 897 
3 557 558 588 
3 454 451 897 
3 400 381 885 
3 566 633 673 
3 291 288 882 
3 415 493 549 
3 623 624 906 
3 586 528 696 
3 924 297 937 
3 566 513 633 
3 330 329 391 
3 854 395 891 
3 280 281 282 
3 549 493 577 
3 917 618 921 
3 269 270 379 
3 382 401 932 
3 517 479 565 
3 577 634 637 
3 857 854 891 
3 490 727 919 
3 328 330 484 
3 399 905 926 
3 288 286 882 
3 653 907 911 
3 550 312 557 
3 367 547 882 
3 269 379 462 
3 549 577 578 
3 464 465 466 
3 381 860 885 
3 663 662 1034 
3 466 467 479 
3 374 756 903 
3 351 353 898 
3 573 645 896 
3 720 197 938 
3 483 400 885 
3 283 282 284 
3 462 463 464 
3 835 618 917 
3 779 780 914 
3 466 465 467 
3 392 421 894 
3 652 898 907 
3 542 857 891 
3 97 220 920 
3 584 96 920 
3 253 255 332 
3 464 463 465 
3 533 834 926 
3 261 321 552 
3 558 312 874 
3 745 929 1053 
3 280 282 283 
3 34 211 928 
3 245 244 246 
3 312 276 874 
3 399 858 905 
3 371 373 374 
3 541 853 900 
3 462 379 463 
3 264 266 887 
3 328 329 330 
3 552 321 605 
3 552 605 606 
3 810 809 963 
3 853 769 900 
3 696 528 897 
3 256 258 888 
3 366 256 888 
3 677 570 913 
3 7 8 901 
3 404 378 892 
3 270 272 889 
3 769 763 900 
3 91 237 872 
3 204 189 872 
3 328 327 329 
3 445 505 831 
3 905 764 926 
3 438 437 918 
3 378 377 892 
3 199 731 915 
3 883 543 899 
3 604 603 931 
3 898 353 907 
3 815 812 933 
3 501 689 918 
3 379 270 889 
3 811 810 933 
3 510 883 899 
3 377 415 892 
3 258 261 888 
3 266 269 887 
3 294 297 924 
3 760 456 953 
3 543 863 899 
3 456 386 957 
3 275 550 889 
3 272 275 889 
3 181 83 909 
3 415 549 892 
3 467 470 895 
3 247 248 252 
3 470 566 895 
3 519 490 919 
3 711 710 951 
3 565 479 895 
3 556 204 872 
3 479 467 895 
3 353 837 907 
3 766 463 923 
3 541 900 905 
3 858 541 905 
3 624 708 906 
3 761 760 950 
3 269 462 887 
3 740 739 956 
3 386 393 908 
3 874 278 904 
3 903 756 936 
3 768 548 912 
3 547 369 903 
3 261 552 888 
3 547 903 936 
3 321 262 927 
3 570 885 913 
3 885 860 913 
3 278 280 904 
3 326 327 328 
3 907 837 911 
3 837 414 911 
3 505 622 902 
3 321 927 945 
3 656 917 921 
3 572 679 958 
3 533 931 935 
3 190 181 909 
3 911 414 917 
3 371 374 903 
3 782 779 914 
3 932 401 991 
3 326 252 327 
3 247 252 326 
3 379 889 923 
3 90 200 925 
3 237 188 925 
3 414 835 917 
3 953 456 957 
3 610 924 937 
3 437 501 918 
3 870 293 912 
3 369 371 903 
3 188 90 925 
3 245 246 247 
3 96 97 920 
3 860 418 913 
3 280 283 904 
3 569 720 938 
3 553 664 948 
3 548 870 912 
3 657 656 921 
3 936 755 940 
3 632 555 938 
3 889 550 923 
3 512 766 947 
3 546 629 922 
3 310 308 949 
3 887 607 927 
3 912 293 924 
3 264 887 927 
3 681 519 919 
3 627 512 955 
3 293 294 924 
3 834 399 926 
3 262 264 927 
3 1024 238 1037 
3 739 472 972 
3 693 190 1010 
3 474 865 946 
3 533 926 931 
3 480 518 954 
3 252 248 930 
3 89 236 942 
3 35 34 928 
3 83 180 238 
3 200 187 942 
3 609 610 937 
3 603 775 935 
3 560 559 934 
3 966 751 969 
3 950 760 953 
3 463 379 923 
3 472 382 932 
3 717 1019 1029 
3 831 505 902 
3 764 604 931 
3 935 775 939 
3 828 850 959 
3 243 204 244 
3 248 250 930 
3 18 694 995 
3 812 811 933 
3 637 634 981 
3 797 459 960 
3 775 776 939 
3 291 940 961 
3 752 751 966 
3 756 754 936 
3 357 533 935 
3 253 332 943 
3 939 776 941 
3 291 882 940 
3 927 607 945 
3 643 642 1015 
3 401 469 967 
3 776 778 941 
3 357 935 939 
3 88 198 952 
3 295 292 961 
3 941 778 944 
3 215 75 968 
3 74 239 968 
3 236 186 952 
3 836 357 939 
3 614 613 971 
3 693 691 998 
3 555 569 938 
3 601 499 965 
3 971 613 973 
3 956 739 972 
3 187 89 942 
3 778 781 944 
3 9 205 970 
3 243 244 245 
3 836 939 941 
3 297 884 937 
3 926 764 931 
3 684 723 1037 
3 992 230 1066 
3 299 296 969 
3 875 745 990 
3 512 947 955 
3 449 836 941 
3 449 941 944 
3 940 755 961 
3 514 796 1046 
3 723 1024 1037 
3 833 449 944 
3 922 629 929 
3 563 615 974 
3 607 881 945 
3 704 703 958 
3 605 321 945 
3 680 194 1033 
3 110 111 981 
3 24 23 977 
3 71 70 978 
3 73 72 979 
3 303 300 973 
3 766 923 947 
3 882 547 940 
3 865 647 946 
3 83 238 909 
3 830 873 975 
3 250 253 943 
3 82 204 243 
3 48 199 988 
3 901 8 970 
3 223 49 988 
3 930 250 943 
3 308 304 976 
3 923 550 947 
3 303 973 974 
3 582 674 998 
3 974 615 976 
3 332 255 964 
3 585 553 948 
3 299 969 971 
3 605 945 954 
3 981 111 1068 
3 295 961 966 
3 710 733 951 
3 314 310 949 
3 615 564 983 
3 550 557 947 
3 789 408 1035 
3 87 234 980 
3 198 185 980 
3 314 983 986 
3 609 937 950 
3 874 904 956 
3 945 881 954 
3 714 715 987 
3 186 88 952 
3 817 215 989 
3 662 567 1012 
3 547 936 940 
3 190 693 1005 
3 703 572 958 
3 884 761 950 
3 552 606 984 
3 937 884 950 
3 597 902 1073 
3 608 609 953 
3 674 580 997 
3 904 740 956 
3 609 950 953 
3 947 557 955 
3 471 692 1072 
3 850 314 986 
3 621 693 1010 
3 608 953 957 
3 581 661 997 
3 981 634 1051 
3 242 79 992 
3 78 230 992 
3 795 192 994 
3 689 608 957 
3 458 959 960 
3 458 828 959 
3 954 518 962 
3 557 588 955 
3 881 480 954 
3 295 966 969 
3 99 100 993 
3 229 819 1028 
3 459 458 960 
3 418 875 990 
3 558 874 956 
3 641 839 963 
3 366 888 984 
3 292 291 961 
3 793 796 1000 
3 755 752 966 
3 17 18 995 
3 255 366 964 
3 499 514 965 
3 782 914 1065 
3 606 605 962 
3 469 631 967 
3 949 615 983 
3 970 205 1044 
3 558 956 972 
3 75 74 968 
3 787 786 1000 
3 846 224 1012 
3 725 222 1023 
3 239 979 1063 
3 682 616 1006 
3 747 207 987 
3 296 295 969 
3 299 971 973 
3 743 742 1002 
3 217 110 981 
3 8 9 970 
3 782 1065 1079 
3 314 949 983 
3 751 614 971 
3 86 195 996 
3 234 184 996 
3 642 593 1003 
3 961 755 966 
3 877 571 999 
3 511 627 1004 
3 201 64 1008 
3 63 229 1008 
3 300 299 973 
3 228 774 1015 
3 637 981 1068 
3 85 235 1001 
3 790 789 1035 
3 195 183 1001 
3 588 558 972 
3 613 563 974 
3 969 751 971 
3 791 578 1027 
3 635 992 1066 
3 973 613 974 
3 587 830 975 
3 495 591 1013 
3 827 24 977 
3 70 240 978 
3 239 73 979 
3 303 974 976 
3 185 87 980 
3 304 303 976 
3 66 65 1014 
3 84 190 1005 
3 235 182 1005 
3 677 913 990 
3 820 213 1003 
3 592 579 1016 
3 605 954 962 
3 631 632 1009 
3 717 719 1019 
3 668 666 1020 
3 983 832 986 
3 564 832 983 
3 989 215 1069 
3 1004 631 1009 
3 212 108 1043 
3 584 920 985 
3 667 669 985 
3 666 639 1020 
3 549 578 1017 
3 832 602 986 
3 612 824 1047 
3 841 471 1020 
3 197 720 1050 
3 715 718 987 
3 888 552 984 
3 899 863 1006 
3 503 440 1026 
3 439 600 1026 
3 680 575 1028 
3 193 791 1027 
3 626 970 1044 
3 49 48 988 
3 6 221 1031 
3 920 667 985 
3 744 745 1053 
3 619 644 1032 
3 202 816 1039 
3 31 210 1036 
3 102 820 1038 
3 896 210 1041 
3 743 1002 1077 
3 214 101 1038 
3 217 981 1051 
3 827 977 1018 
3 474 946 1057 
3 612 611 1041 
3 67 66 1040 
3 712 714 1023 
3 404 892 1017 
3 774 771 1011 
3 802 800 1042 
3 627 967 1004 
3 52 197 1050 
3 818 817 989 
3 225 53 1050 
3 578 577 1027 
3 655 657 1014 
3 405 404 1035 
3 810 963 1062 
3 226 838 1048 
3 735 625 1049 
3 645 682 1036 
3 638 640 993 
3 245 247 1021 
3 691 582 998 
3 747 987 1064 
3 805 801 1056 
3 622 1024 1073 
3 967 631 1004 
3 98 99 1054 
3 625 623 1049 
3 3 80 1058 
3 23 3 1058 
3 127 0 1059 
3 0 4 1059 
3 72 1 1060 
3 1 95 1060 
3 2 71 1061 
3 22 2 1061 
3 808 241 1059 
3 112 193 1068 
3 921 618 1030 
3 566 673 1045 
3 487 436 1057 
3 651 655 1081 
3 16 206 1079 
3 196 14 1065 
3 692 670 1072 
3 861 789 1067 
3 627 955 991 
3 946 815 1057 
3 844 503 1075 
3 987 718 1064 
3 79 78 992 
3 914 196 1065 
3 669 671 1063 
3 565 846 1076 
3 1019 757 1029 
3 984 606 1019 
3 100 214 993 
3 588 932 991 
3 906 708 1055 
3 571 626 1044 
3 192 821 994 
3 517 565 1076 
3 913 418 990 
3 789 787 1067 
3 672 989 1069 
3 798 216 1030 
3 565 895 1045 
3 915 565 1045 
3 206 17 995 
3 683 684 1037 
3 184 86 996 
3 580 581 997 
3 771 773 1011 
3 955 588 991 
3 873 612 1047 
3 742 225 1002 
3 786 793 1000 
3 795 994 1046 
3 183 85 1001 
3 692 494 1025 
3 600 877 999 
3 863 625 1071 
3 963 839 1062 
3 676 677 1002 
3 593 594 1003 
3 737 223 1007 
3 513 511 1004 
3 773 772 1021 
3 767 630 1033 
3 625 928 1071 
3 977 242 1018 
3 182 84 1005 
3 616 899 1006 
3 224 728 1012 
3 1002 677 1077 
3 513 1004 1009 
3 64 63 1008 
3 719 984 1019 
3 81 683 1078 
3 622 621 1010 
3 718 717 1029 
3 484 864 1011 
3 585 826 1022 
3 633 513 1009 
3 201 1008 1081 
3 494 495 1013 
3 197 737 1070 
3 867 680 1033 
3 630 867 1033 
3 999 805 1056 
3 65 201 1014 
3 783 228 1015 
3 579 587 1016 
3 796 795 1046 
3 591 635 1066 
3 672 692 1025 
3 808 5 1031 
3 892 549 1017 
3 606 757 1019 
3 210 823 1041 
3 635 592 1018 
3 938 197 1070 
3 639 841 1020 
3 231 856 1032 
3 722 684 1051 
3 856 646 1032 
3 690 514 1046 
3 180 81 1078 
3 503 1042 1075 
3 617 585 1022 
3 829 712 1023 
3 247 326 1021 
3 440 439 1026 
3 575 648 1028 
3 629 838 1053 
3 1007 223 1052 
3 846 1012 1076 
3 757 663 1029 
3 994 690 1046 
3 577 637 1027 
3 618 617 1030 
3 809 808 1031 
3 5 6 1031 
3 909 238 1024 
3 646 619 1032 
3 194 767 1033 
3 203 748 1034 
3 975 873 1047 
3 223 988 1052 
3 929 629 1053 
3 1020 471 1072 
3 32 31 1036 
3 408 405 1035 
3 101 102 1038 
3 787 1000 1067 
3 816 814 1039 
3 216 67 1040 
3 772 212 1043 
3 933 810 1062 
3 800 803 1042 
3 1034 748 1064 
3 611 896 1041 
3 208 735 1049 
3 205 805 1044 
3 634 722 1051 
3 1008 650 1081 
3 977 23 1058 
3 71 978 1061 
3 979 72 1060 
3 838 744 1053 
3 487 933 1062 
3 1006 863 1071 
3 202 1039 1080 
3 758 226 1048 
3 906 208 1049 
3 684 217 1051 
3 895 566 1045 
3 494 1013 1025 
3 824 209 1047 
3 53 52 1050 
3 215 968 1069 
3 748 747 1064 
3 623 906 1049 
3 989 672 1025 
3 1034 1064 1074 
3 801 802 1056 
3 220 98 1054 
3 673 633 1052 
3 80 242 1058 
3 241 127 1059 
3 95 584 1060 
3 583 22 1061 
3 436 474 1057 
3 745 743 1077 
3 708 829 1055 
3 209 975 1047 
3 839 487 1062 
3 1024 723 1073 
3 14 15 1065 
3 230 818 1066 
3 111 112 1068 
3 928 211 1071 
3 671 672 1069 
3 488 861 1067 
3 670 668 1072 
3 988 673 1052 
3 1065 15 1079 
3 238 180 1078 
3 600 999 1056 
3 780 844 1075 
3 15 16 1079 
3 632 938 1070 
3 803 196 1082 
3 914 780 1082 
3 647 646 1080 
3 650 651 1081 
3 567 517 1076 
3 902 622 1073 
3 242 977 1058 
3 978 583 1061 
3 584 979 1060 
3 968 671 1069 
3 1075 803 1082 
3 780 1075 1082 
3 196 914 1082 
3 677 990 1077 
3 1000 488 1067 
3 1012 567 1076 
3 985 669 1063 
3 211 1006 1071 
3 990 745 1077 
3 668 1020 1072 
3 718 1029 1074 
3 1007 632 1070 
3 737 1007 1070 
3 1037 238 1078 
3 1029 663 1074 
3 663 1034 1074 
3 1039 647 1080 
3 1042 803 1075 
3 683 1037 1078 
3 1064 718 1074 
3 145 146 147 
3 148 145 147 
3 144 145 148 
3 149 144 148 
3 143 144 149 
3 150 143 149 
3 142 143 150 
3 151 142 150 
3 141 142 151 
3 152 141 151 
3 140 141 152 
3 153 140 152 
3 139 140 153 
3 139 153 154 
3 138 139 154 
3 129 90 1083 
3 155 138 154 
3 90 129 163 
3 138 155 137 
3 155 156 137 
3 137 156 136 
3 156 157 136 
3 157 135 136 
3 135 157 158 
3 128 129 1083 
3 135 158 134 
3 158 159 134 
3 159 133 134 
3 159 160 133 
3 160 132 133 
3 161 132 160 
3 132 161 131 
3 131 161 162 
3 130 162 163 
3 130 131 162 
3 90 187 1083 
3 129 130 163 
3 187 128 1083 
3 92 93 1084 
3 147 146 1084 
3 93 147 1084 
3 146 92 1084 
3 89 128 187 
3 178 179 147 
3 148 178 147 
3 177 178 148 
3 149 177 148 
3 176 177 149 
3 150 176 149 
3 175 176 150 
3 151 175 150 
3 174 175 151 
3 152 174 151 
3 173 174 152 
3 153 173 152 
3 172 173 153 
3 91 162 1085 
3 172 153 154 
3 171 172 154 
3 162 163 1085 
3 155 171 154 
3 171 155 170 
3 162 91 164 
3 155 156 170 
3 156 169 170 
3 156 157 169 
3 157 168 169 
3 157 158 168 
3 188 91 1085 
3 158 167 168 
3 158 159 167 
3 159 160 166 
3 159 166 167 
3 160 161 165 
3 160 165 166 
3 161 162 164 
3 161 164 165 
3 163 188 1085 
3 94 93 1086 
3 147 179 1086 
3 93 147 1086 
3 179 94 1086 
3 90 188 163 
3 178 179 95 
3 178 95 96 
3 177 178 96 
3 177 96 97 
3 176 177 97 
3 176 97 98 
3 175 176 98 
3 175 98 99 
3 174 175 99 
3 174 99 100 
3 173 174 100 
3 173 100 101 
3 165 82 1087 
3 172 173 101 
3 108 82 165 
3 172 101 102 
3 171 172 102 
3 103 171 102 
3 170 171 103 
3 104 170 103 
3 169 170 104 
3 169 104 105 
3 164 165 1087 
3 169 105 168 
3 105 106 168 
3 106 167 168 
3 106 107 167 
3 107 108 166 
3 167 107 166 
3 166 108 165 
3 82 189 1087 
3 189 164 1087 
3 94 1 1088 
3 95 179 1088 
3 1 95 1088 
3 179 94 1088 
3 189 91 164 

CELL_TYPES 2039
5
5
5
5
5
5
5
5
5
5
5
5
5
5
5
5
5
5
5
5
5
5
5
5
5
5
5
5
5
5
5
5
5
5
5
5
5
5
5
5
5
5
5
5
5
5
5
5
5
5
5
5
5
5
5
5
5
5
5
5
5
5
5
5
5
5
5
5
5
5
5
5
5
5
5
5
5
5
5
5
5
5
5
5
5
5
5
5
5
5
5
5
5
5
5
5
5
5
5
5
5
5
5
5
5
5
5
5
5
5
5
5
5
5
5
5
5
5
5
5
5
5
5
5
5
5
5
5
5
5
5
5
5
5
5
5
5
5
5
5
5
5
5
5
5
5
5
5
5
5
5
5
5
5
5
5
5
5
5
5
5
5
5
5
5
5
5
5
5
5
5
5
5
5
5
5
5
5
5
5
5
5
5
5
5
5
5
5
5
5
5
5
5
5
5
5
5
5
5
5
5
5
5
5
5
5
5
5
5
5
5
5
5
5
5
5
5
5
5
5
5
5
5
5
5
5
5
5
5
5
5
5
5
5
5
5
5
5
5
5
5
5
5
5
5
5
5
5
5
5
5
5
5
5
5
5
5
5
5
5
5
5
5
5
5
5
5
5
5
5
5
5
5
5
5
5
5
5
5
5
5
5
5
5
5
5
5
5
5
5
5
5
5
5
5
5
5
5
5
5
5
5
5
5
5
5
5
5
5
5
5
5
5
5
5
5
5
5
5
5
5
5
5
5
5
5
5
5
5
5
5
5
5
5
5
5
5
5
5
5
5
5
5
5
5
5
5
5
5
5
5
5
5
5
5
5
5
5
5
5
5
5
5
5
5
5
5
5
5
5
5
5
5
5
5
5
5
5
5
5
5
5
5
5
5
5
5
5
5
5
5
5
5
5
5
5
5
5
5
5
5
5
5
5
5
5
5
5
5
5
5
5
5
5
5
5
5
5
5
5
5
5
5
5
5
5
5
5
5
5
5
5
5
5
5
5
5
5
5
5
5
5
5
5
5
5
5
5
5
5
5
5
5
5
5
5
5
5
5
5
5
5
5
5
5
5
5
5
5
5
5
5
5
5
5
5
5
5
5
5
5
5
5
5
5
5
5
5
5
5
5
5
5
5
5
5
5
5
5
5
5
5
5
5
5
5
5
5
5
5
5
5
5
5
5
5
5
5
5
5
5
5
5
5
5
5
5
5
5
5
5
5
5
5
5
5
5
5
5
5
5
5
5
5
5
5
5
5
5
5
5
5
5
5
5
5
5
5
5
5
5
5
5
5
5
5
5
5
5
5
5
5
5
5
5
5
5
5
5
5
5
5
5
5
5
5
5
5
5
5
5
5
5
5
5
5
5
5
5
5
5
5
5
5
5
5
5
5
5
5
5
5
5
5
5
5
5
5
5
5
5
5
5
5
5
5
5
5
5
5
5
5
5
5
5
5
5
5
5
5
5
5
5
5
5
5
5
5
5
5
5
5
5
5
5
5
5
5
5
5
5
5
5
5
5
5
5
5
5
5
5
5
5
5
5
5
5
5
5
5
5
5
5
5
5
5
5
5
5
5
5
5
5
5
5
5
5
5
5
5
5
5
5
5
5
5
5
5
5
5
5
5
5
5
5
5
5
5
5
5
5
5
5
5
5
5
5
5
5
5
5
5
5
5
5
5
5
5
5
5
5
5
5
5
5
5
5
5
5
5
5
5
5
5
5
5
5
5
5
5
5
5
5
5
5
5
5
5
5
5
5
5
5
5
5
5
5
5
5
5
5
5
5
5
5
5
5
5
5
5
5
5
5
5
5
5
5
5
5
5
5
5
5
5
5
5
5
5
5
5
5
5
5
5
5
5
5
5
5
5
5
5
5
5
5
5
5
5
5
5
5
5
5
5
5
5
5
5
5
5
5
5
5
5
5
5
5
5
5
5
5
5
5
5
5
5
5
5
5
5
5
5
5
5
5
5
5
5
5
5
5
5
5
5
5
5
5
5
5
5
5
5
5
5
5
5
5
5
5
5
5
5
5
5
5
5
5
5
5
5
5
5
5
5
5
5
5
5
5
5
5
5
5
5
5
5
5
5
5
5
5
5
5
5
5
5
5
5
5
5
5
5
5
5
5
5
5
5
5
5
5
5
5
5
5
5
5
5
5
5
5
5
5
5
5
5
5
5
5
5
5
5
5
5
5
5
5
5
5
5
5
5
5
5
5
5
5
5
5
5
5
5
5
5
5
5
5
5
5
5
5
5
5
5
5
5
5
5
5
5
5
5
5
5
5
5
5
5
5
5
5
5
5
5
5
5
5
5
5
5
5
5
5
5
5
5
5
5
5
5
5
5
5
5
5
5
5
5
5
5
5
5
5
5
5
5
5
5
5
5
5
5
5
5
5
5
5
5
5
5
5
5
5
5
5
5
5
5
5
5
5
5
5
5
5
5
5
5
5
5
5
5
5
5
5
5
5
5
5
5
5
5
5
5
5
5
5
5
5
5
5
5
5
5
5
5
5
5
5
5
5
5
5
5
5
5
5
5
5
5
5
5
5
5
5
5
5
5
5
5
5
5
5
5
5
5
5
5
5
5
5
5
5
5
5
5
5
5
5
5
5
5
5
5
5
5
5
5
5
5
5
5
5
5
5
5
5
5
5
5
5
5
5
5
5
5
5
5
5
5
5
5
5
5
5
5
5
5
5
5
5
5
5
5
5
5
5
5
5
5
5
5
5
5
5
5
5
5
5
5
5
5
5
5
5
5
5
5
5
5
5
5
5
5
5
5
5
5
5
5
5
5
5
5
5
5
5
5
5
5
5
5
5
5
5
5
5
5
5
5
5
5
5
5
5
5
5
5
5
5
5
5
5
5
5
5
5
5
5
5
5
5
5
5
5
5
5
5
5
5
5
5
5
5
5
5
5
5
5
5
5
5
5
5
5
5
5
5
5
5
5
5
5
5
5
5
5
5
5
5
5
5
5
5
5
5
5
5
5
5
5
5
5
5
5
5
5
5
5
5
5
5
5
5
5
5
5
5
5
5
5
5
5
5
5
5
5
5
5
5
5
5
5
5
5
5
5
5
5
5
5
5
5
5
5
5
5
5
5
5
5
5
5
5
5
5
5
5
5
5
5
5
5
5
5
5
5
5
5
5
5
5
5
5
5
5
5
5
5
5
5
5
5
5
5
5
5
5
5
5
5
5
5
5
5
5
5
5
5
5
5
5
5
5
5
5
5
5
5
5
5
5
5
5
5
5
5
5
5
5
5
5
5
5
5
5
5
5
5
5
5
5
5
5
5
5
5
5
5
5
5
5
5
5
5
5
5
5
5
5
5
5
5
5
5
5
5
5
5
5
5
5
5
5
5
5
5
5
5
5
5
5
5
5
5
5
5
5
5
5
5
5
5
5
5
5
5
5
5
5
5
5
5
5
5
5
5
5
5
5
5
5
5
5
5
5
5
5
5
5
5
5
5
5
5
5
5
5
5
5
5
5
5
5
5
5
5
5
5
5
5
5
5
5
5
5
5
5
5
5
5
5
5
5
5
5
5
5
5
5
5
5
5
5
5
5
5
5
5
5
5
5
5
5
5
5
5
5
5
5
5
5
5
5
5
5
5
5
5
5
5
5
5
5
5
5
5
5
5
5
5
5
5
5
5
5
5
5
5
5
5
5
5
5
5
5
5
5
5
5
5
5
5
5
5
5
5
5
5
5
5
5
5
5
5
5
5
5
5
5
5
5
5
5
5
5
5
5
5
5
5
5
5
5
5
5
5
5
5
5
5
5
5
5
5
5
5
5
5
5
5
5
5
5
5
5
5
5
5
5
5
5
5
5
5
5
5
5
5
5
5
5
5
5
5
5
5
5
5
5
5
5
5
5
5
5
5
5
5
5
5
5
5
5
5
5
5
5
5
5
5
5
5
5
5
5
5
5
5
5
5
5
5
5
5
5
5
5
5
5
5
5
5
5
5
5
5
5
5
5
5
5
5
5
5
5
5
5
5
5
5
5
5
5
5
5
5
5
5
5
5
5
5
5
5
5
5
5
5
5
5
5
5
5
5
5
5
5
5
5
5
5
5
5
5
5
5
5
5
5
5
5
5
5
5
5
5
5
5
5
5
5
5
5
5
5
5
5
5
5
5
5
5
5
5
5
5
5
5
5
5
5
5
5
5
5
5
5
5
5
5
5
5
5
5
5
5
5
5
5
5
5
5
5
5
5
5
5
5
5
5
5
5
5
5
5
5
5
5
5
5
5
5
5
5
5
5
5
5
5
5
5
5
5
5
5
5
5
5
5
5
5
5
5
5
5
5
5
5
5
5
5
5
5
5
5
5
5
5
5
5
5
5
5
5
5
5
5
5
5
5
5
5
5
5
5
5
5
5
5
5
5
5
5
5
5
5
5
5
5
5
5
5
5
5
5
5
5
5
5
5
5
5
5
5
5
5
5
5
5
5
5
5
5
5
5
5
5
5
5
5
5
5
5
5
5
5
5
5
5
5
5
5
5
5
5
5
5
5
5
5
5
5
5
5
5
5
5
5
5
5
5
5
5
5
5
5
5
5
5
5
5
5
5
5
5
5
5
5
5
5
5
5
5
5
5
5
5
5

POINT_DATA 1089

VECTORS coord float
0.0 0.0 0.0 
5.000000000000e+01 -1.000000000000e+01 0.0 
0.0 -2.000000000000e+01 0.0 
5.000000000000e+01 -2.000000000000e+01 0.0 
0.0 -9.999999999991e-01 0.0 
0.0 -1.999999999998e+00 0.0 
0.0 -2.999999999997e+00 0.0 
0.0 -3.999999999994e+00 0.0 
0.0 -4.999999999991e+00 0.0 
0.0 -5.999999999988e+00 0.0 
0.0 -6.999999999985e+00 0.0 
0.0 -7.999999999982e+00 0.0 
0.0 -8.999999999983e+00 0.0 
0.0 -9.999999999985e+00 0.0 
0.0 -1.099999999999e+01 0.0 
0.0 -1.199999999999e+01 0.0 
0.0 -1.299999999999e+01 0.0 
0.0 -1.399999999999e+01 0.0 
0.0 -1.499999999999e+01 0.0 
0.0 -1.599999999999e+01 0.0 
0.0 -1.700000000000e+01 0.0 
0.0 -1.800000000000e+01 0.0 
0.0 -1.900000000000e+01 0.0 
4.900000000001e+01 -2.000000000000e+01 0.0 
4.800000000001e+01 -2.000000000000e+01 0.0 
4.700000000002e+01 -2.000000000000e+01 0.0 
4.600000000003e+01 -2.000000000000e+01 0.0 
4.500000000004e+01 -2.000000000000e+01 0.0 
4.400000000004e+01 -2.000000000000e+01 0.0 
4.300000000005e+01 -2.000000000000e+01 0.0 
4.200000000006e+01 -2.000000000000e+01 0.0 
4.100000000006e+01 -2.000000000000e+01 0.0 
4.000000000007e+01 -2.000000000000e+01 0.0 
3.900000000008e+01 -2.000000000000e+01 0.0 
3.800000000009e+01 -2.000000000000e+01 0.0 
3.700000000009e+01 -2.000000000000e+01 0.0 
3.600000000010e+01 -2.000000000000e+01 0.0 
3.500000000011e+01 -2.000000000000e+01 0.0 
3.400000000011e+01 -2.000000000000e+01 0.0 
3.300000000012e+01 -2.000000000000e+01 0.0 
3.200000000013e+01 -2.000000000000e+01 0.0 
3.100000000013e+01 -2.000000000000e+01 0.0 
3.000000000013e+01 -2.000000000000e+01 0.0 
2.900000000013e+01 -2.000000000000e+01 0.0 
2.800000000013e+01 -2.000000000000e+01 0.0 
2.700000000013e+01 -2.000000000000e+01 0.0 
2.600000000013e+01 -2.000000000000e+01 0.0 
2.500000000013e+01 -2.000000000000e+01 0.0 
2.400000000013e+01 -2.000000000000e+01 0.0 
2.300000000013e+01 -2.000000000000e+01 0.0 
2.200000000013e+01 -2.000000000000e+01 0.0 
2.100000000013e+01 -2.000000000000e+01 0.0 
2.000000000013e+01 -2.000000000000e+01 0.0 
1.900000000013e+01 -2.000000000000e+01 0.0 
1.800000000013e+01 -2.000000000000e+01 0.0 
1.700000000012e+01 -2.000000000000e+01 0.0 
1.600000000011e+01 -2.000000000000e+01 0.0 
1.500000000011e+01 -2.000000000000e+01 0.0 
1.400000000010e+01 -2.000000000000e+01 0.0 
1.300000000009e+01 -2.000000000000e+01 0.0 
1.200000000009e+01 -2.000000000000e+01 0.0 
1.100000000008e+01 -2.000000000000e+01 0.0 
1.000000000007e+01 -2.000000000000e+01 0.0 
9.000000000064e+00 -2.000000000000e+01 0.0 
8.000000000057e+00 -2.000000000000e+01 0.0 
7.000000000050e+00 -2.000000000000e+01 0.0 
6.000000000043e+00 -2.000000000000e+01 0.0 
5.000000000036e+00 -2.000000000000e+01 0.0 
4.000000000028e+00 -2.000000000000e+01 0.0 
3.000000000021e+00 -2.000000000000e+01 0.0 
2.000000000014e+00 -2.000000000000e+01 0.0 
1.000000000007e+00 -2.000000000000e+01 0.0 
5.000000000000e+01 -1.100000000000e+01 0.0 
5.000000000000e+01 -1.200000000000e+01 0.0 
5.000000000000e+01 -1.300000000000e+01 0.0 
5.000000000000e+01 -1.400000000000e+01 0.0 
5.000000000000e+01 -1.500000000000e+01 0.0 
5.000000000000e+01 -1.600000000000e+01 0.0 
5.000000000000e+01 -1.700000000000e+01 0.0 
5.000000000000e+01 -1.800000000000e+01 0.0 
5.000000000000e+01 -1.900000000000e+01 0.0 
2.000000000000e+01 0.0 0.0 
3.500000000000e+01 -1.000000000000e+01 0.0 
2.150000000000e+01 -1.000000000000e+00 0.0 
2.300000000000e+01 -2.000000000000e+00 0.0 
2.450000000000e+01 -3.000000000000e+00 0.0 
2.600000000000e+01 -4.000000000000e+00 0.0 
2.750000000000e+01 -5.000000000000e+00 0.0 
2.900000000000e+01 -6.000000000000e+00 0.0 
3.050000000000e+01 -7.000000000000e+00 0.0 
3.200000000000e+01 -8.000000000000e+00 0.0 
3.350000000000e+01 -9.000000000000e+00 0.0 
5.000000000000e+01 -7.000000000000e+00 0.0 
5.000000000000e+01 -8.000000000000e+00 0.0 
5.000000000000e+01 -9.000000000000e+00 0.0 
4.900000000000e+01 -1.000000000000e+01 0.0 
4.800000000000e+01 -1.000000000000e+01 0.0 
4.700000000000e+01 -1.000000000000e+01 0.0 
4.600000000000e+01 -1.000000000000e+01 0.0 
4.500000000000e+01 -1.000000000000e+01 0.0 
4.400000000000e+01 -1.000000000000e+01 0.0 
4.300000000000e+01 -1.000000000000e+01 0.0 
4.200000000000e+01 -1.000000000000e+01 0.0 
4.100000000000e+01 -1.000000000000e+01 0.0 
4.000000000000e+01 -1.000000000000e+01 0.0 
3.900000000000e+01 -1.000000000000e+01 0.0 
3.800000000000e+01 -1.000000000000e+01 0.0 
3.700000000000e+01 -1.000000000000e+01 0.0 
3.600000000000e+01 -1.000000000000e+01 0.0 
1.900000000000e+01 0.0 0.0 
1.800000000000e+01 0.0 0.0 
1.700000000000e+01 0.0 0.0 
1.600000000000e+01 0.0 0.0 
1.500000000000e+01 0.0 0.0 
1.400000000000e+01 0.0 0.0 
1.300000000000e+01 0.0 0.0 
1.200000000000e+01 0.0 0.0 
1.100000000000e+01 0.0 0.0 
1.000000000000e+01 0.0 0.0 
9.000000000000e+00 0.0 0.0 
8.000000000000e+00 0.0 0.0 
7.000000000000e+00 0.0 0.0 
6.000000000000e+00 0.0 0.0 
5.000000000000e+00 0.0 0.0 
4.000000000000e+00 0.0 0.0 
3.000000000000e+00 0.0 0.0 
2.000000000000e+00 0.0 0.0 
1.000000000000e+00 0.0 0.0 
3.147499999998e+01 -7.000000000000e+00 0.0 
3.244999999998e+01 -7.000000000000e+00 0.0 
3.342499999998e+01 -7.000000000000e+00 0.0 
3.439999999998e+01 -7.000000000000e+00 0.0 
3.537499999998e+01 -7.000000000000e+00 0.0 
3.634999999998e+01 -7.000000000000e+00 0.0 
3.732499999998e+01 -7.000000000000e+00 0.0 
3.829999999998e+01 -7.000000000000e+00 0.0 
3.927499999999e+01 -7.000000000000e+00 0.0 
4.024999999999e+01 -7.000000000000e+00 0.0 
4.122499999999e+01 -7.000000000000e+00 0.0 
4.219999999999e+01 -7.000000000000e+00 0.0 
4.317499999999e+01 -7.000000000000e+00 0.0 
4.414999999999e+01 -7.000000000000e+00 0.0 
4.512499999999e+01 -7.000000000000e+00 0.0 
4.609999999999e+01 -7.000000000000e+00 0.0 
4.707500000000e+01 -7.000000000000e+00 0.0 
4.805000000000e+01 -7.000000000000e+00 0.0 
4.902500000000e+01 -7.000000000000e+00 0.0 
4.900000000000e+01 -8.000000000000e+00 0.0 
4.800000000000e+01 -8.000000000000e+00 0.0 
4.700000000000e+01 -8.000000000000e+00 0.0 
4.600000000000e+01 -8.000000000000e+00 0.0 
4.500000000000e+01 -8.000000000000e+00 0.0 
4.400000000000e+01 -8.000000000000e+00 0.0 
4.300000000000e+01 -8.000000000000e+00 0.0 
4.200000000000e+01 -8.000000000000e+00 0.0 
4.100000000000e+01 -8.000000000000e+00 0.0 
4.000000000000e+01 -8.000000000000e+00 0.0 
3.900000000000e+01 -8.000000000000e+00 0.0 
3.800000000000e+01 -8.000000000000e+00 0.0 
3.700000000000e+01 -8.000000000000e+00 0.0 
3.600000000000e+01 -8.000000000000e+00 0.0 
3.500000000000e+01 -8.000000000000e+00 0.0 
3.400000000000e+01 -8.000000000000e+00 0.0 
3.300000000000e+01 -8.000000000000e+00 0.0 
3.447058823527e+01 -9.000000000000e+00 0.0 
3.544117647055e+01 -9.000000000000e+00 0.0 
3.641176470582e+01 -9.000000000000e+00 0.0 
3.738235294109e+01 -9.000000000000e+00 0.0 
3.835294117637e+01 -9.000000000000e+00 0.0 
3.932352941164e+01 -9.000000000000e+00 0.0 
4.029411764691e+01 -9.000000000000e+00 0.0 
4.126470588219e+01 -9.000000000000e+00 0.0 
4.223529411748e+01 -9.000000000000e+00 0.0 
4.320588235279e+01 -9.000000000000e+00 0.0 
4.417647058811e+01 -9.000000000000e+00 0.0 
4.514705882342e+01 -9.000000000000e+00 0.0 
4.611764705874e+01 -9.000000000000e+00 0.0 
4.708823529405e+01 -9.000000000000e+00 0.0 
4.805882352937e+01 -9.000000000000e+00 0.0 
4.902941176468e+01 -9.000000000000e+00 0.0 
2.075000000000e+01 -5.000000000006e-01 0.0 
2.225000000000e+01 -1.500000000000e+00 0.0 
2.375000000000e+01 -2.500000000000e+00 0.0 
2.525000000000e+01 -3.500000000000e+00 0.0 
2.675000000000e+01 -4.500000000000e+00 0.0 
2.825000000000e+01 -5.500000000000e+00 0.0 
2.975000000000e+01 -6.500000000000e+00 0.0 
3.125000000000e+01 -7.500000000000e+00 0.0 
3.275000000000e+01 -8.500000000000e+00 0.0 
3.425000000000e+01 -9.500000000000e+00 0.0 
2.226951693683e+01 -2.403913980114e+00 0.0 
1.650149491944e+01 -1.913490915758e+01 0.0 
1.050042386896e+01 -8.504605092970e-01 0.0 
1.553146524712e+01 -8.281255032105e-01 0.0 
1.150000000008e+01 -1.913397459621e+01 0.0 
2.530060260647e+01 -4.428336431260e+00 0.0 
8.651114563942e-01 -1.052096295641e+01 0.0 
2.050000000013e+01 -1.913397459622e+01 0.0 
2.819198729811e+01 -6.399519052838e+00 0.0 
2.445670302931e+01 -1.915649188023e+01 0.0 
3.117591465718e+01 -8.394293040695e+00 0.0 
7.465053044742e+00 -1.920411160581e+01 0.0 
6.398295709691e+00 -8.230098819370e-01 0.0 
2.849659607461e+01 -1.914296187762e+01 0.0 
3.418732642882e+01 -1.040265792588e+01 0.0 
8.386450935063e-01 -6.533605142809e+00 0.0 
9.178661865596e-01 -1.329769195597e+01 0.0 
3.149448624493e+01 -1.910466733764e+01 0.0 
3.552916747426e+01 -1.914628590759e+01 0.0 
4.449210346537e+01 -1.914359085008e+01 0.0 
4.140975975145e+01 -1.906941860733e+01 0.0 
3.847475958753e+01 -1.916622382724e+01 0.0 
3.653774794640e+01 -1.088712800241e+01 0.0 
4.047886341787e+01 -1.090139014048e+01 0.0 
4.348006339825e+01 -1.092792621489e+01 0.0 
4.919519968029e+01 -1.451526755068e+01 0.0 
4.500000000032e+00 -1.913397459621e+01 0.0 
1.856136921614e+01 -8.212235170404e-01 0.0 
3.499895312306e+00 -8.661165539723e-01 0.0 
9.076088696565e-01 -1.642306201891e+01 0.0 
4.655174095477e+01 -1.086183387525e+01 0.0 
9.430688970604e-01 -3.496112672958e+00 0.0 
3.353992337063e+01 -1.901202090820e+01 0.0 
2.249746016977e+01 -1.921262287282e+01 0.0 
2.650122741777e+01 -1.916123026018e+01 0.0 
1.863571384842e+01 -1.908325534840e+01 0.0 
1.450089971693e+01 -1.917691901860e+01 0.0 
1.350044695317e+01 -8.659695299584e-01 0.0 
3.849987469880e+01 -1.084154983397e+01 0.0 
9.454419857884e+00 -1.900818879936e+01 0.0 
4.917398660523e+01 -1.645692866081e+01 0.0 
8.500000000000e+00 -8.660254037844e-01 0.0 
8.660319230785e-01 -8.500111697188e+00 0.0 
4.649022621545e+01 -1.930506220113e+01 0.0 
2.667688107845e+01 -5.420288124331e+00 0.0 
2.379251615665e+01 -3.412225477429e+00 0.0 
2.966631491830e+01 -7.389030232731e+00 0.0 
3.267915035995e+01 -9.396934932445e+00 0.0 
2.074836922338e+01 -1.320054020319e+00 0.0 
4.915985743621e+01 -1.261973384855e+01 0.0 
2.527129768623e+00 -1.931592414663e+01 0.0 
1.538676247410e+00 -8.436956619311e-01 0.0 
4.908096641539e+01 -1.842484004551e+01 0.0 
3.478612492673e+01 -1.090889364140e+01 0.0 
3.409757055860e+01 -1.131991530427e+01 0.0 
3.501895309466e+01 -1.177687842717e+01 0.0 
3.407758073088e+01 -1.224293381580e+01 0.0 
3.484541875390e+01 -1.277051428430e+01 0.0 
3.400322025842e+01 -1.319022775640e+01 0.0 
3.321672625034e+01 -1.266779191233e+01 0.0 
3.315244139236e+01 -1.360984106532e+01 0.0 
3.236335186892e+01 -1.308463225210e+01 0.0 
3.478337442841e+01 -1.372341158982e+01 0.0 
3.230105923633e+01 -1.403023731610e+01 0.0 
3.150954055289e+01 -1.350301767700e+01 0.0 
3.144604792090e+01 -1.444931742516e+01 0.0 
3.065653897123e+01 -1.392357262981e+01 0.0 
3.071897610812e+01 -1.297447031198e+01 0.0 
2.986790411740e+01 -1.339226181535e+01 0.0 
2.993181466745e+01 -1.244703272398e+01 0.0 
2.908023061869e+01 -1.286254537734e+01 0.0 
2.901619051372e+01 -1.380881655279e+01 0.0 
2.822986160390e+01 -1.327695262116e+01 0.0 
2.829453476870e+01 -1.233265343811e+01 0.0 
2.744542905518e+01 -1.274510491105e+01 0.0 
2.751120089246e+01 -1.180368086886e+01 0.0 
2.666218649885e+01 -1.221619339205e+01 0.0 
2.672371209234e+01 -1.127125228527e+01 0.0 
2.587763216302e+01 -1.168539979114e+01 0.0 
2.581165585299e+01 -1.262994410089e+01 0.0 
2.502890882577e+01 -1.209827323619e+01 0.0 
2.509631327757e+01 -1.115492410304e+01 0.0 
2.424662989877e+01 -1.156630981079e+01 0.0 
2.431704046904e+01 -1.062389179334e+01 0.0 
2.346445438728e+01 -1.103427680694e+01 0.0 
2.339382552877e+01 -1.197964871788e+01 0.0 
2.260936050780e+01 -1.144513277642e+01 0.0 
2.268075012022e+01 -1.049911928216e+01 0.0 
2.182525737661e+01 -1.090920811464e+01 0.0 
2.189682319817e+01 -9.961716944568e+00 0.0 
2.104174127792e+01 -1.037266986667e+01 0.0 
2.111304367575e+01 -9.424179358711e+00 0.0 
2.025306185381e+01 -9.832727364719e+00 0.0 
2.018141124247e+01 -1.079140628871e+01 0.0 
1.938594498257e+01 -1.025147354112e+01 0.0 
1.946106490453e+01 -9.288010758448e+00 0.0 
1.858929958352e+01 -9.706319802516e+00 0.0 
1.851540991219e+01 -1.067205988724e+01 0.0 
1.771485303178e+01 -1.012504443115e+01 0.0 
1.764134552256e+01 -1.109360378538e+01 0.0 
1.683745148095e+01 -1.054496365337e+01 0.0 
1.691852964353e+01 -9.582555261178e+00 0.0 
1.603603813062e+01 -1.000160132379e+01 0.0 
1.595824239350e+01 -1.096750698862e+01 0.0 
1.515080624291e+01 -1.041639501931e+01 0.0 
1.523171602559e+01 -9.451711491453e+00 0.0 
1.434621060709e+01 -9.871956467464e+00 0.0 
1.426777178765e+01 -1.083749501371e+01 0.0 
1.345775282374e+01 -1.028803175500e+01 0.0 
1.354103873368e+01 -9.324918457162e+00 0.0 
1.265072018622e+01 -9.742612837270e+00 0.0 
1.257285762070e+01 -1.071557782384e+01 0.0 
1.175874815690e+01 -1.015972324288e+01 0.0 
1.184203019714e+01 -9.193604071377e+00 0.0 
1.094927709905e+01 -9.612103238656e+00 0.0 
1.086938022910e+01 -1.058685085646e+01 0.0 
1.005424098961e+01 -1.002939116380e+01 0.0 
9.977974613295e+00 -1.101324897989e+01 0.0 
1.012915646404e+01 -9.051815821181e+00 0.0 
9.237127782494e+00 -9.471239055559e+00 0.0 
9.308426593771e+00 -8.483376461131e+00 0.0 
8.418806073345e+00 -8.910712374517e+00 0.0 
2.253688464062e+01 -1.239459402279e+01 0.0 
8.495126726666e+00 -7.921646665254e+00 0.0 
9.389727383206e+00 -7.512103628377e+00 0.0 
7.601560812974e+00 -8.349460349344e+00 0.0 
7.525680547759e+00 -9.339736686940e+00 0.0 
7.677888324502e+00 -7.359727833346e+00 0.0 
6.782001206724e+00 -7.788454494773e+00 0.0 
6.858778622885e+00 -6.797338062822e+00 0.0 
2.196596590865e+01 -8.979025665442e+00 0.0 
2.816540108272e+01 -1.422634142353e+01 0.0 
5.961601194403e+00 -7.226824010712e+00 0.0 
6.038171749656e+00 -6.234825887079e+00 0.0 
6.936257279557e+00 -5.805287640737e+00 0.0 
6.115068918323e+00 -5.242109758768e+00 0.0 
3.564391741903e+01 -1.329240553876e+01 0.0 
3.558115605778e+01 -1.425902892003e+01 0.0 
3.645445282201e+01 -1.381970786460e+01 0.0 
3.639744204358e+01 -1.479198128612e+01 0.0 
3.727266909778e+01 -1.435399586226e+01 0.0 
5.216667013081e+00 -5.671788584287e+00 0.0 
3.220697293295e+01 -1.499594545107e+01 0.0 
3.551112158269e+01 -1.523479869250e+01 0.0 
2.836056961467e+01 -1.139032434851e+01 0.0 
2.516730388602e+01 -1.021382726837e+01 0.0 
1.844436907403e+01 -1.164097215196e+01 0.0 
5.885434318740e+00 -8.218694781467e+00 0.0 
5.064071066867e+00 -7.656614643901e+00 0.0 
4.988089103470e+00 -8.649722082718e+00 0.0 
1.079421050408e+01 -1.157014985435e+01 0.0 
9.902420005256e+00 -1.199903342656e+01 0.0 
1.071994252214e+01 -1.255727909771e+01 0.0 
9.826974788171e+00 -1.298659581767e+01 0.0 
1.064607883789e+01 -1.354595476388e+01 0.0 
9.751541265343e+00 -1.397556905071e+01 0.0 
8.932296185869e+00 -1.341553353988e+01 0.0 
8.856399248106e+00 -1.440570715508e+01 0.0 
8.036186803543e+00 -1.384470558472e+01 0.0 
1.057112875118e+01 -1.453516759081e+01 0.0 
1.146582585687e+01 -1.410539926903e+01 0.0 
7.959894480382e+00 -1.483563350928e+01 0.0 
7.138792279156e+00 -1.427465094140e+01 0.0 
7.062506792418e+00 -1.526615385482e+01 0.0 
6.240693558277e+00 -1.470508863040e+01 0.0 
6.316957575451e+00 -1.371212581281e+01 0.0 
5.418183007107e+00 -1.414253605022e+01 0.0 
5.494748364428e+00 -1.314886770603e+01 0.0 
1.756825565873e+01 -1.206433872514e+01 0.0 
1.837565773345e+01 -1.261356468266e+01 0.0 
1.749574831391e+01 -1.303769280014e+01 0.0 
1.830539187332e+01 -1.358828364284e+01 0.0 
1.742278925170e+01 -1.401367746928e+01 0.0 
1.823303007798e+01 -1.456432294258e+01 0.0 
1.734941694138e+01 -1.499213734361e+01 0.0 
1.653760041637e+01 -1.443920312098e+01 0.0 
3.056237977307e+01 -1.487132260174e+01 0.0 
1.866469084762e+01 -8.742953000418e+00 0.0 
1.953669694916e+01 -8.326038909849e+00 0.0 
1.874194303780e+01 -7.780688158966e+00 0.0 
1.961032016741e+01 -7.366854697285e+00 0.0 
1.881715755159e+01 -6.821102209649e+00 0.0 
1.968369797150e+01 -6.407747217358e+00 0.0 
1.889237123259e+01 -5.858375520026e+00 0.0 
1.802038875366e+01 -6.276202618170e+00 0.0 
1.809793837984e+01 -5.307629520489e+00 0.0 
1.721985207997e+01 -5.728242054488e+00 0.0 
1.729850893523e+01 -4.756990819347e+00 0.0 
1.641745664240e+01 -5.174636548624e+00 0.0 
2.495978509456e+01 -1.304406404294e+01 0.0 
1.911567814831e+01 -1.413854250293e+01 0.0 
1.904387332608e+01 -1.511463127723e+01 0.0 
1.992115934240e+01 -1.468788025898e+01 0.0 
7.013706899628e+00 -4.812582868662e+00 0.0 
5.342091874585e+00 -1.513658157269e+01 0.0 
1.139098043784e+01 -1.509488509480e+01 0.0 
1.228151810610e+01 -1.465617481983e+01 0.0 
1.646373110164e+01 -1.541993323337e+01 0.0 
5.293328636712e+00 -4.678385108584e+00 0.0 
1.975965862987e+01 -5.448124345648e+00 0.0 
2.054318374236e+01 -5.992561293251e+00 0.0 
3.721453439063e+01 -1.533216152738e+01 0.0 
3.809302733893e+01 -1.489235527381e+01 0.0 
1.220852788900e+01 -1.565304565230e+01 0.0 
4.394120899730e+00 -5.108397613210e+00 0.0 
8.779354620288e+00 -1.539524721159e+01 0.0 
1.817791047702e+01 -4.338570146253e+00 0.0 
4.518860013839e+00 -1.457343189307e+01 0.0 
4.442712140414e+00 -1.556841391069e+01 0.0 
8.115343466391e+00 -1.285760324283e+01 0.0 
1.985334703171e+01 -1.566478400426e+01 0.0 
2.071953850276e+01 -1.522074243119e+01 0.0 
1.634012953883e+01 -6.154777738301e+00 0.0 
1.553479994708e+01 -5.593730508879e+00 0.0 
1.561265946942e+01 -4.617761762647e+00 0.0 
1.470674212978e+01 -5.064576488228e+00 0.0 
1.464498299883e+01 -6.026514471420e+00 0.0 
1.383271561817e+01 -5.467796261169e+00 0.0 
1.389241253067e+01 -4.504338666645e+00 0.0 
1.301868735463e+01 -4.907185188626e+00 0.0 
1.294514184846e+01 -5.888160903592e+00 0.0 
1.212955968622e+01 -5.328262335277e+00 0.0 
1.220721122383e+01 -4.341264976687e+00 0.0 
1.131324345897e+01 -4.766773516508e+00 0.0 
5.266597955397e+00 -1.613148974258e+01 0.0 
1.737805990867e+01 -3.786677807525e+00 0.0 
3.078438094513e+01 -1.203225297748e+01 0.0 
1.131569882285e+01 -1.608511932110e+01 0.0 
1.728478341782e+01 -1.596017432313e+01 0.0 
3.803465906019e+01 -1.587509751228e+01 0.0 
3.891681276677e+01 -1.543395196905e+01 0.0 
3.897340985302e+01 -1.444710288980e+01 0.0 
3.980095968193e+01 -1.499059496613e+01 0.0 
3.974334598189e+01 -1.597921884150e+01 0.0 
4.062964983717e+01 -1.553518690417e+01 0.0 
4.068729602479e+01 -1.454434445295e+01 0.0 
4.151772679790e+01 -1.508974196007e+01 0.0 
4.157505195739e+01 -1.409694289912e+01 0.0 
4.240699932656e+01 -1.464347955968e+01 0.0 
4.234898051011e+01 -1.563721375790e+01 0.0 
4.323934606035e+01 -1.519082036405e+01 0.0 
4.329740528208e+01 -1.419587509788e+01 0.0 
4.413056841369e+01 -1.474359631875e+01 0.0 
4.418850110108e+01 -1.374786684042e+01 0.0 
4.502219770667e+01 -1.429605103525e+01 0.0 
4.496411937907e+01 -1.529215882720e+01 0.0 
4.490027319897e+00 -4.154167794594e+00 0.0 
1.565080385988e+01 -1.486411982419e+01 0.0 
1.557610691279e+01 -1.584855627870e+01 0.0 
4.195350646612e+00 -8.089117689096e+00 0.0 
4.124027797830e+00 -9.082831955007e+00 0.0 
4.917944318925e+00 -9.643530901533e+00 0.0 
4.020105689502e+00 -1.007439673661e+01 0.0 
4.587185899277e+01 -1.484039992728e+01 0.0 
4.580078661551e+01 -1.584043391042e+01 0.0 
2.061956522375e+01 -5.046701343981e+00 0.0 
2.139572955529e+01 -5.579553449826e+00 0.0 
3.715344357292e+01 -1.631485124583e+01 0.0 
3.618886196443e+00 -1.500471207167e+01 0.0 
3.695606940204e+00 -1.400939692294e+01 0.0 
2.438890661143e+01 -9.686110599723e+00 0.0 
2.523267572778e+01 -9.276766000622e+00 0.0 
2.446094171539e+01 -8.751904591412e+00 0.0 
2.529089822738e+01 -8.321495612547e+00 0.0 
2.606882688827e+01 -8.864724051119e+00 0.0 
2.452116646430e+01 -7.792756462004e+00 0.0 
1.235543269617e+01 -1.365845617339e+01 0.0 
4.318116874181e+01 -1.618567469992e+01 0.0 
7.835066111909e+00 -5.376366223896e+00 0.0 
7.905687335704e+00 -4.382539065697e+00 0.0 
3.542640009567e+00 -1.600035116542e+01 0.0 
1.572431503071e+01 -1.388358386695e+01 0.0 
2.574684696680e+01 -1.357896141127e+01 0.0 
2.488842657651e+01 -1.399674354505e+01 0.0 
2.568301775611e+01 -1.453552048595e+01 0.0 
2.481535572009e+01 -1.495542756508e+01 0.0 
2.561729699688e+01 -1.549784648532e+01 0.0 
2.474623061296e+01 -1.592058894178e+01 0.0 
2.394234041695e+01 -1.537572575827e+01 0.0 
2.065825452567e+01 -1.621899055217e+01 0.0 
2.387180528935e+01 -1.634552264687e+01 0.0 
4.585364400844e+01 -1.383912334080e+01 0.0 
1.998744432052e+01 -1.370317155541e+01 0.0 
1.205356951443e+01 -6.313580285498e+00 0.0 
5.396543905849e+00 -3.731818611283e+00 0.0 
1.139652573295e+01 -3.745819399350e+00 0.0 
3.574124306703e+00 -4.551456826011e+00 0.0 
3.494140761930e+00 -5.539787055649e+00 0.0 
1.213651452413e+01 -1.664505033022e+01 0.0 
2.555045568519e+01 -1.646529356744e+01 0.0 
2.641671114986e+01 -1.603899382371e+01 0.0 
2.612920721894e+01 -7.906435260873e+00 0.0 
2.690339829698e+01 -8.456969591431e+00 0.0 
1.978024383368e+01 -1.664410216353e+01 0.0 
3.732829979082e+01 -1.336926601859e+01 0.0 
4.074336584605e+01 -1.355133328401e+01 0.0 
4.163204691081e+01 -1.310280943992e+01 0.0 
3.773826114429e+00 -3.493444309145e+00 0.0 
1.228783001032e+01 -3.374822835872e+00 0.0 
4.057110462520e+01 -1.652588478000e+01 0.0 
2.132535497898e+01 -6.523623360525e+00 0.0 
2.216932532211e+01 -6.110044769206e+00 0.0 
1.825781152128e+01 -3.370146817147e+00 0.0 
1.745679445888e+01 -2.812942552063e+00 0.0 
4.666517057280e+01 -1.539981381543e+01 0.0 
4.660575894464e+01 -1.639014410186e+01 0.0 
4.838230979954e+00 -1.063643436446e+01 0.0 
3.938942630206e+00 -1.106778981745e+01 0.0 
1.302967218620e+01 -1.621373452436e+01 0.0 
1.049548003190e+01 -4.204825123240e+00 0.0 
4.573571907195e+01 -1.683820511148e+01 0.0 
1.483686335807e+01 -1.430849689310e+01 0.0 
1.490982658890e+01 -1.332679386284e+01 0.0 
3.190805600162e+00 -9.510968358545e+00 0.0 
2.146625721848e+01 -4.642437303115e+00 0.0 
2.069866208266e+01 -4.111852942193e+00 0.0 
1.286859345584e+01 -6.873252723348e+00 0.0 
1.041794493184e+01 -5.194814260291e+00 0.0 
2.671081808965e+00 -4.976806516331e+00 0.0 
1.295786792925e+01 -1.720506531799e+01 0.0 
3.968438206511e+01 -1.696869067241e+01 0.0 
2.308550456051e+01 -1.579963151273e+01 0.0 
2.315593682844e+01 -1.482967445235e+01 0.0 
2.299471449450e+01 -1.677069968132e+01 0.0 
1.057344714696e+01 -3.214252277840e+00 0.0 
1.124057603753e+01 -1.707713739755e+01 0.0 
2.718402535754e+00 -1.543629882103e+01 0.0 
2.638549692805e+01 -1.696744916809e+01 0.0 
2.723416349007e+01 -1.658104204545e+01 0.0 
2.210193351704e+01 -7.046769643417e+00 0.0 
2.295180925161e+01 -6.657397605239e+00 0.0 
2.301355235833e+01 -5.709111896800e+00 0.0 
2.379052718281e+01 -6.254965406962e+00 0.0 
3.243528601237e+01 -1.214181853533e+01 0.0 
2.287977995457e+01 -7.583722368300e+00 0.0 
2.999876029544e+01 -1.150837653096e+01 0.0 
3.084435366963e+01 -1.109693775882e+01 0.0 
3.006650579669e+01 -1.057778994262e+01 0.0 
2.683802665066e+01 -9.386863216633e+00 0.0 
2.768641973621e+01 -8.988883915666e+00 0.0 
2.040296980397e+01 -7.903629133404e+00 0.0 
1.925235024054e+01 -1.218872783130e+01 0.0 
5.735667000424e+00 -1.020577277283e+01 0.0 
6.396559909872e+00 -1.272326295703e+01 0.0 
1.161199420714e+01 -1.212812778229e+01 0.0 
4.229046132615e+01 -1.663084237572e+01 0.0 
4.312275399692e+01 -1.718087491556e+01 0.0 
4.335502068163e+01 -1.320039231514e+01 0.0 
4.424630298089e+01 -1.275160688731e+01 0.0 
7.090116643816e+00 -3.818998061530e+00 0.0 
7.989472176569e+00 -3.389238711200e+00 0.0 
9.085824861778e+00 -1.144036167408e+01 0.0 
1.041972423731e+01 -1.651614080893e+01 0.0 
3.797525112640e+01 -1.686052038746e+01 0.0 
3.709114253394e+01 -1.730125999865e+01 0.0 
3.626966748340e+01 -1.675477052919e+01 0.0 
1.385164591440e+01 -1.677597757552e+01 0.0 
1.787152588784e+01 -8.198993896093e+00 0.0 
1.668849729812e+01 -1.248560611628e+01 0.0 
1.659546177905e+01 -3.232482605530e+00 0.0 
2.332214717345e+01 -1.292598167641e+01 0.0 
7.168238450786e+00 -2.824711686516e+00 0.0 
2.894878403906e+01 -1.475427524446e+01 0.0 
2.646763248247e+00 -1.643270107952e+01 0.0 
3.467431944285e+00 -1.699648837348e+01 0.0 
2.059475877282e+01 -1.719473628526e+01 0.0 
3.333868355437e+01 -1.080596971682e+01 0.0 
2.246451062637e+01 -1.334557761546e+01 0.0 
2.167821896388e+01 -1.280847834858e+01 0.0 
3.089653185767e+01 -1.017198487212e+01 0.0 
3.012604365669e+01 -9.657298805968e+00 0.0 
2.929627299435e+01 -1.006100135274e+01 0.0 
2.936201435219e+01 -9.136748899251e+00 0.0 
1.198219052702e+01 -7.291887238230e+00 0.0 
1.116702076035e+01 -6.731976101053e+00 0.0 
2.551388807505e+01 -1.746927036981e+01 0.0 
2.378639090370e+01 -1.728678807149e+01 0.0 
2.718543627188e+01 -1.748668016909e+01 0.0 
2.804681050301e+01 -1.712626668293e+01 0.0 
1.970737034667e+01 -1.762317646822e+01 0.0 
1.889535776135e+01 -1.707158098231e+01 0.0 
2.593777711283e+00 -5.971157087874e+00 0.0 
2.773468281110e+01 -8.067164273938e+00 0.0 
4.051205884347e+01 -1.751819982458e+01 0.0 
3.166903145421e+01 -1.068032992414e+01 0.0 
1.033042452886e+01 -1.748285844336e+01 0.0 
9.519274604626e+00 -1.694349240233e+01 0.0 
1.668308673328e+01 -2.255861778986e+00 0.0 
1.570531902832e+01 -2.676795860126e+00 0.0 
4.655826903379e+01 -1.736656245706e+01 0.0 
2.384148070773e+01 -5.328744256413e+00 0.0 
2.460255123641e+01 -5.852182672816e+00 0.0 
2.306638135119e+01 -4.798935440613e+00 0.0 
8.467720450578e-01 -1.849576263072e+01 0.0 
4.849657322345e+01 -1.084860705506e+01 0.0 
2.565860899507e+00 -1.742859793981e+01 0.0 
2.764418872564e+01 -9.927142821799e+00 0.0 
4.565165880064e+01 -1.785336695404e+01 0.0 
2.162231831329e+01 -1.376528337468e+01 0.0 
2.360646352969e+01 -9.136041963102e+00 0.0 
1.392738739903e+01 -1.578285505772e+01 0.0 
4.756405947478e+01 -1.683706841809e+01 0.0 
4.740895034054e+01 -1.793766756892e+01 0.0 
4.080779328826e+01 -1.257387192544e+01 0.0 
4.168907939671e+01 -1.210739129181e+01 0.0 
3.991197722154e+01 -1.300815793917e+01 0.0 
1.905536506762e+01 -3.940076697685e+00 0.0 
1.923879596617e+01 -2.875000734166e+00 0.0 
4.401386745746e+01 -1.673483229438e+01 0.0 
4.247233362525e+00 -7.094581653070e+00 0.0 
3.286051630211e+00 -7.635300020553e+00 0.0 
9.609533347623e+00 -4.594311677967e+00 0.0 
9.523554636369e+00 -5.595597029530e+00 0.0 
5.660336628893e+00 -1.119290329628e+01 0.0 
6.558070063295e+00 -1.076385809362e+01 0.0 
2.809866407414e+01 -1.518037766799e+01 0.0 
2.888868674504e+01 -1.570360690070e+01 0.0 
2.654431550819e+01 -1.411217777162e+01 0.0 
1.402158265969e+01 -1.375404617952e+01 0.0 
1.409592494026e+01 -1.277071998942e+01 0.0 
1.499355196178e+01 -1.235270737023e+01 0.0 
4.221535326155e+01 -1.759335617494e+01 0.0 
4.305583287033e+01 -1.822663146802e+01 0.0 
1.280748808359e+01 -7.834332838285e+00 0.0 
1.368988389326e+01 -7.420529606172e+00 0.0 
1.110091796060e+01 -7.683966794328e+00 0.0 
3.963446145980e+01 -1.794331310122e+01 0.0 
3.423932362213e+00 -1.796415590455e+01 0.0 
4.280814572302e+00 -1.752272834860e+01 0.0 
8.050136380041e+00 -2.421582378631e+00 0.0 
8.888674091650e+00 -2.984264211327e+00 0.0 
2.152839430898e+01 -3.732609965436e+00 0.0 
2.077799585292e+01 -3.183896021866e+00 0.0 
3.618719395821e+01 -1.770276572576e+01 0.0 
3.538165138340e+01 -1.718709995539e+01 0.0 
3.702925326420e+01 -1.828844288807e+01 0.0 
1.756739438711e+00 -5.353284859169e+00 0.0 
2.233710191104e+01 -1.527265621324e+01 0.0 
1.389483555057e+01 -1.771797164730e+01 0.0 
1.475634224300e+01 -1.728357428390e+01 0.0 
1.298797563052e+01 -1.825968924755e+01 0.0 
2.145331271866e+01 -1.673705379077e+01 0.0 
2.133282821169e+01 -1.769400773673e+01 0.0 
2.292139194136e+01 -1.774915400288e+01 0.0 
1.750750053243e+01 -1.861475593469e+00 0.0 
4.830478841772e+01 -1.752611802221e+01 0.0 
4.341203507805e+01 -1.220326745522e+01 0.0 
1.685254151866e+01 -1.443085301632e+00 0.0 
4.431538535165e+01 -1.171841387375e+01 0.0 
4.511308610496e+01 -1.229557320599e+01 0.0 
4.510133242889e+01 -1.123680627466e+01 0.0 
1.846818030617e+00 -4.410877617069e+00 0.0 
3.995468694584e+01 -1.186571542989e+01 0.0 
3.901387459804e+01 -1.242507616755e+01 0.0 
8.966735877533e+00 -1.837818700423e+00 0.0 
4.049310011091e+01 -1.848269508791e+01 0.0 
7.278862053803e+00 -1.918523922691e+00 0.0 
6.429715522129e+00 -2.316676521184e+00 0.0 
9.443505505022e+00 -1.792198868094e+01 0.0 
8.620386951051e+00 -1.737590365556e+01 0.0 
8.571868171503e+00 -1.834436667826e+01 0.0 
7.758629848526e+00 -1.775677907213e+01 0.0 
7.806648388584e+00 -1.680761266021e+01 0.0 
6.908555145436e+00 -1.723746463044e+01 0.0 
4.251709122090e+01 -1.156937480156e+01 0.0 
6.931136405615e+00 -1.832465719263e+01 0.0 
6.015545461353e+00 -1.768865355295e+01 0.0 
5.960535926343e+00 -1.872011001764e+01 0.0 
3.023253444786e+01 -8.761960642196e+00 0.0 
2.454622702599e+01 -6.749421992767e+00 0.0 
2.537499741604e+01 -6.347634963783e+00 0.0 
2.544077378460e+01 -5.431358513649e+00 0.0 
2.801367161747e+01 -1.820907270221e+01 0.0 
2.884507806914e+01 -1.762032095326e+01 0.0 
1.821474531936e+00 -1.588901260460e+01 0.0 
1.821006262604e+00 -1.489370287756e+01 0.0 
4.599962488908e+01 -1.176478780598e+01 0.0 
4.705457470007e+01 -1.172182804229e+01 0.0 
4.667668314802e+01 -1.263464558483e+01 0.0 
4.759648056504e+01 -1.252380987933e+01 0.0 
4.728041618103e+01 -1.341928568376e+01 0.0 
4.825209352360e+01 -1.330491640804e+01 0.0 
4.778118233428e+01 -1.420151961695e+01 0.0 
2.388192727579e+01 -1.826934810142e+01 0.0 
2.381714684947e+01 -4.385917965223e+00 0.0 
3.172733219247e+01 -9.758744265248e+00 0.0 
1.882012070658e+01 -1.805540597212e+01 0.0 
1.805667505243e+01 -1.742221226236e+01 0.0 
2.852599958080e+01 -8.597196079481e+00 0.0 
2.856486123437e+01 -7.661382718527e+00 0.0 
1.111792842875e+01 -1.818223852980e+01 0.0 
2.203322722466e+01 -7.986646678802e+00 0.0 
3.955703676900e+01 -1.903246763601e+01 0.0 
1.944842206513e+01 -8.038750575182e-01 0.0 
1.909882767783e+01 -1.746322740933e+00 0.0 
2.281147422941e+01 -8.525912918334e+00 0.0 
2.850633001468e+01 -9.533271335986e+00 0.0 
2.532883344309e+01 -7.308951659710e+00 0.0 
2.620475466461e+01 -6.979208585400e+00 0.0 
1.396278270396e+01 -1.475095389807e+01 0.0 
9.791001166724e+00 -2.554159793552e+00 0.0 
2.229293380421e+01 -4.269762271052e+00 0.0 
4.677238984118e+01 -1.430071795514e+01 0.0 
2.228658385918e+01 -3.344747535984e+00 0.0 
8.940223674553e-01 -1.543595733415e+01 0.0 
2.118566862474e+01 -8.435876987696e+00 0.0 
2.678325936437e+01 -1.032621195706e+01 0.0 
2.223400220487e+01 -5.179046761770e+00 0.0 
2.375370625384e+01 -7.251580562134e+00 0.0 
3.156971327386e+01 -1.255534750737e+01 0.0 
3.328226391312e+01 -1.172914813316e+01 0.0 
3.250948774219e+01 -1.120157009348e+01 0.0 
2.032993445717e+01 -8.867880112202e+00 0.0 
2.697226974856e+01 -7.536633082045e+00 0.0 
2.707377810386e+01 -6.590835263295e+00 0.0 
2.914099246827e+01 -1.191678458549e+01 0.0 
3.544824072239e+01 -1.621126558525e+01 0.0 
3.456511855436e+01 -1.665054783843e+01 0.0 
3.448395810225e+01 -1.759117813016e+01 0.0 
3.368378673938e+01 -1.708037781328e+01 0.0 
3.375560452567e+01 -1.610973066913e+01 0.0 
3.288001547988e+01 -1.654324255651e+01 0.0 
3.282475929147e+01 -1.749725654692e+01 0.0 
3.199880906313e+01 -1.697294088625e+01 0.0 
3.197001272932e+01 -1.811667776864e+01 0.0 
3.111884713021e+01 -1.742166785755e+01 0.0 
3.120418962865e+01 -1.642155709385e+01 0.0 
3.034666704371e+01 -1.683123833816e+01 0.0 
3.026224379976e+01 -1.772592851714e+01 0.0 
3.046632362943e+01 -1.582232843075e+01 0.0 
1.961344017324e+01 -1.857459447985e+01 0.0 
2.274975894774e+01 -9.532738811922e+00 0.0 
1.833923246887e+01 -2.396746883672e+00 0.0 
1.988859500848e+01 -2.249244376594e+00 0.0 
2.758045562861e+01 -1.086434261689e+01 0.0 
3.247300178163e+01 -1.909930104252e+01 0.0 
3.461947482503e+01 -1.911879848019e+01 0.0 
2.047161538662e+01 -6.941478180358e+00 0.0 
2.750230940214e+01 -1.915490590764e+01 0.0 
3.165081350803e+01 -1.161860780120e+01 0.0 
1.897456727641e+01 -4.889634688522e+00 0.0 
2.549338539756e+01 -1.914858252089e+01 0.0 
3.462873135081e+01 -1.567482276144e+01 0.0 
3.384432415243e+01 -1.512280684518e+01 0.0 
3.471433767690e+01 -1.469086942990e+01 0.0 
3.651470373046e+01 -1.918207952149e+01 0.0 
3.901742690249e+01 -1.345028556517e+01 0.0 
2.153224102692e+01 -1.920169709333e+01 0.0 
1.918382939341e+01 -1.316226275662e+01 0.0 
2.005389162382e+01 -1.271962165174e+01 0.0 
2.011472087878e+01 -1.175029352900e+01 0.0 
3.210679478412e+01 -1.598038618242e+01 0.0 
1.752175226543e+01 -1.914713022656e+01 0.0 
1.696897240059e+01 -1.832772588765e+01 0.0 
1.599682523337e+01 -1.832599992024e+01 0.0 
1.644507199462e+01 -1.743697981535e+01 0.0 
1.549987712903e+01 -1.915192375101e+01 0.0 
3.050250861901e+01 -1.918943550234e+01 0.0 
2.949944061527e+01 -1.922950455235e+01 0.0 
1.375892575273e+01 -6.447160534926e+00 0.0 
1.457223670180e+01 -7.006709243857e+00 0.0 
1.450818793236e+01 -7.965943451779e+00 0.0 
1.538804712402e+01 -7.553409623699e+00 0.0 
1.545817644768e+01 -6.580929593419e+00 0.0 
1.626506893751e+01 -7.129032608911e+00 0.0 
1.619833811522e+01 -8.086588580887e+00 0.0 
1.714448609609e+01 -6.697429609777e+00 0.0 
2.887616543568e+01 -1.668015232137e+01 0.0 
1.349814589130e+01 -1.918225301544e+01 0.0 
1.153887772210e+01 -1.311384581217e+01 0.0 
1.242708159886e+01 -1.267046795531e+01 0.0 
1.249799674267e+01 -1.169005616014e+01 0.0 
6.631723893693e+00 -9.774184881867e+00 0.0 
7.451471631867e+00 -1.033148796006e+01 0.0 
7.377795355458e+00 -1.132196345268e+01 0.0 
5.810931797536e+00 -9.211654212252e+00 0.0 
2.402683899133e+01 -1.441378562320e+01 0.0 
1.249768692036e+01 -1.917388426624e+01 0.0 
1.580373499437e+01 -1.290751860664e+01 0.0 
8.344650507834e+00 -9.898403995170e+00 0.0 
3.750622115305e+01 -1.086526401533e+01 0.0 
3.699391251667e+01 -1.171695900794e+01 0.0 
3.606517829518e+01 -1.173717504500e+01 0.0 
3.650257641795e+01 -1.270047380221e+01 0.0 
3.808951488918e+01 -1.183518714175e+01 0.0 
4.760380962420e+00 -1.162484888315e+01 0.0 
3.861210370848e+00 -1.205657631736e+01 0.0 
3.038284309476e+00 -1.149851280664e+01 0.0 
2.961598794889e+00 -1.248856794980e+01 0.0 
2.138953225512e+00 -1.193212674534e+01 0.0 
2.227383593457e+00 -1.096258903918e+01 0.0 
2.043265419276e+00 -1.292158472959e+01 0.0 
1.252449446028e+00 -1.225502002753e+01 0.0 
3.949985210740e+01 -1.086594001795e+01 0.0 
1.453499444792e+01 -8.768805922472e-01 0.0 
1.403518950933e+01 -1.749965556633e+00 0.0 
1.300715031023e+01 -1.714737233040e+00 0.0 
1.350929389899e+01 -2.527443911291e+00 0.0 
1.449600910711e+01 -2.595486162864e+00 0.0 
1.395693872901e+01 -3.484211041558e+00 0.0 
1.495105865208e+01 -3.364609636216e+00 0.0 
1.508822528740e+01 -1.766586020494e+00 0.0 
1.250223858430e+01 -8.634590186802e-01 0.0 
1.200279523409e+01 -1.709044504992e+00 0.0 
1.150086239419e+01 -8.592789190668e-01 0.0 
1.101482754194e+01 -1.677730591922e+00 0.0 
1.148018564526e+01 -2.659323866909e+00 0.0 
8.800552119754e+00 -3.989875954728e+00 0.0 
3.452790439430e+00 -1.901136170646e+01 0.0 
8.658451825200e-01 -9.503462241795e+00 0.0 
1.694787786797e+00 -9.000589234502e+00 0.0 
1.703436717094e+00 -8.038819004041e+00 0.0 
2.594197971110e+00 -8.563955242845e+00 0.0 
1.630513735412e+00 -9.907244747511e+00 0.0 
8.566859292791e-01 -7.512203837972e+00 0.0 
1.685461277022e+00 -7.164280248030e+00 0.0 
2.506394468801e+00 -8.623386730818e-01 0.0 
2.007475081581e+00 -1.727729545205e+00 0.0 
9.211534699767e-01 -1.628791366312e+00 0.0 
1.500000000020e+00 -2.598063549486e+00 0.0 
2.482078929963e+00 -2.553580088725e+00 0.0 
2.999795253092e+00 -1.732169015019e+00 0.0 
3.999712607169e+00 -1.728832897453e+00 0.0 
4.499752199340e+00 -8.656478679175e-01 0.0 
4.964377774841e+00 -1.730129617941e+00 0.0 
4.425017908337e+00 -2.597541756243e+00 0.0 
5.446573195014e+00 -8.410144840023e-01 0.0 
4.915722346614e+01 -1.550640962770e+01 0.0 
4.826794919243e+01 -1.600000000000e+01 0.0 
1.053139533193e+01 -1.911782884365e+01 0.0 
4.156049861949e+01 -1.095160998589e+01 0.0 
9.494526624416e+00 -8.650570090219e-01 0.0 
4.555762166964e+01 -1.897098103585e+01 0.0 
4.250656411371e+01 -1.914387356218e+01 0.0 
4.350906466345e+01 -1.917234727395e+01 0.0 
8.759665722424e-01 -1.746422130609e+01 0.0 
1.698936011838e+00 -1.795012186674e+01 0.0 
4.742476811029e+01 -1.900090177972e+01 0.0 
7.749196752349e+00 -6.368049313489e+00 0.0 
3.361572113416e+01 -1.798765193915e+01 0.0 
4.484660149212e+01 -1.728661231383e+01 0.0 
1.984038172228e+01 -4.502575320116e+00 0.0 
1.035080352627e+01 -6.166639575753e+00 0.0 
2.753558010652e+00 -1.444909521181e+01 0.0 
7.217069543032e+00 -1.328635391078e+01 0.0 
4.364336727739e+00 -1.655585677381e+01 0.0 
4.595208426108e+00 -1.357919665443e+01 0.0 
6.164967006980e+00 -1.569873454630e+01 0.0 
1.487855768353e+01 -1.826523774028e+01 0.0 
2.791876456372e+00 -4.019632415181e+00 0.0 
4.246464893515e+01 -1.364898659620e+01 0.0 
4.503855590351e+01 -1.329552780944e+01 0.0 
4.407239109604e+01 -1.573900004093e+01 0.0 
5.141054449252e+00 -6.664290382472e+00 0.0 
3.141083947149e+00 -1.055790764912e+01 0.0 
6.196463198741e+00 -4.256497932609e+00 0.0 
2.599618716181e+01 -1.836893455464e+01 0.0 
2.923057372337e+01 -1.098461757645e+01 0.0 
1.168343877486e+01 -1.114079645041e+01 0.0 
6.706222096238e+00 -8.780364234441e+00 0.0 
8.567858614669e+00 -6.943121440850e+00 0.0 
1.123755132901e+01 -5.753525820030e+00 0.0 
2.353456234423e+01 -1.008536320953e+01 0.0 
9.162073319168e+00 -1.045593739109e+01 0.0 
9.676343469685e+00 -1.496493008366e+01 0.0 
4.490637882905e+01 -1.628778970202e+01 0.0 
7.398129387772e+00 -9.639977982323e-01 0.0 
1.049641705805e+01 -1.552503975272e+01 0.0 
9.010356286268e+00 -1.242805042052e+01 0.0 
3.985573925497e+01 -1.399863651620e+01 0.0 
1.816196318262e+01 -1.554066497931e+01 0.0 
1.306332244168e+01 -3.963646550326e+00 0.0 
4.145850903932e+01 -1.608094559275e+01 0.0 
3.794664933633e+01 -1.779020121986e+01 0.0 
3.819614412903e+01 -1.290749321016e+01 0.0 
6.270014188119e+00 -3.255093186826e+00 0.0 
4.251165370388e+01 -1.263870364997e+01 0.0 
1.207347709171e+01 -1.763942826023e+01 0.0 
3.633240829927e+01 -1.577330481104e+01 0.0 
4.319052668832e+00 -6.101812561904e+00 0.0 
1.676492415806e+01 -1.151547901392e+01 0.0 
2.594059220037e+01 -1.074225223009e+01 0.0 
3.340750911501e+01 -9.898764354137e+00 0.0 
4.397619591281e+01 -1.769773736461e+01 0.0 
2.175611595028e+01 -1.185718747128e+01 0.0 
1.641818733106e+01 -1.640685203215e+01 0.0 
1.661211421753e+01 -1.346121366338e+01 0.0 
3.428853504935e+00 -6.551993389271e+00 0.0 
8.700728832502e+00 -1.638460872825e+01 0.0 
1.931369795309e+01 -1.121629383702e+01 0.0 
4.139798872363e+01 -1.706922153459e+01 0.0 
2.647837478700e+01 -1.507353829290e+01 0.0 
1.779469616424e+01 -9.161615782908e+00 0.0 
3.885879219319e+01 -1.642026488918e+01 0.0 
1.338194936770e+01 -1.125916521471e+01 0.0 
1.897071181111e+01 -1.609204322578e+01 0.0 
2.844308548793e+01 -1.046221003096e+01 0.0 
2.659854702194e+01 -1.316109415760e+01 0.0 
2.979604503271e+01 -1.433296157755e+01 0.0 
2.417694041347e+01 -1.251231397779e+01 0.0 
1.807401327411e+00 -1.388891148480e+01 0.0 
9.599810618782e+00 -1.595439365034e+01 0.0 
1.652144692160e+01 -4.205392788472e+00 0.0 
2.367839450246e+01 -8.188385218643e+00 0.0 
3.814894930468e+01 -1.390748338767e+01 0.0 
2.466448215774e+01 -1.685878545680e+01 0.0 
4.134044524611e+01 -1.806610045954e+01 0.0 
2.600511411958e+01 -9.801774120648e+00 0.0 
7.882158050716e+00 -1.582364037353e+01 0.0 
3.881607873422e+01 -1.737970515013e+01 0.0 
8.270182347708e+00 -1.088622154920e+01 0.0 
8.672520392520e-01 -4.532984309881e+00 0.0 
1.993447205337e+01 -3.579061902667e+00 0.0 
1.794616079549e+01 -7.238038888498e+00 0.0 
2.097277068165e+01 -1.132450168636e+01 0.0 
8.194803300681e+00 -1.187214224265e+01 0.0 
3.522279404911e+01 -1.823342818178e+01 0.0 
6.984481050295e+00 -1.625271465557e+01 0.0 
1.309433007797e+01 -1.521718594215e+01 0.0 
2.150246167611e+01 -1.885399038185e+00 0.0 
3.250689370209e+01 -1.028789870535e+01 0.0 
6.085886272238e+00 -1.668342132851e+01 0.0 
1.588455661727e+01 -1.193498985921e+01 0.0 
1.809323400821e+01 -1.651110084195e+01 0.0 
1.348885082381e+00 -1.136065576512e+01 0.0 
2.497670221995e+01 -1.834631276173e+01 0.0 
2.937062818424e+01 -8.233711194470e+00 0.0 
5.185823744469e+00 -1.711566910207e+01 0.0 
1.477497877209e+01 -1.530177014512e+01 0.0 
2.125346158933e+01 -7.473003997367e+00 0.0 
4.751561118290e+01 -1.084897772632e+01 0.0 
5.056026576843e+00 -1.825750475525e+01 0.0 
1.473948554523e+01 -1.634577436309e+01 0.0 
2.410566630936e+01 -1.345970002612e+01 0.0 
1.507337507513e+01 -1.138527895328e+01 0.0 
3.189857338687e+01 -8.887781229006e+00 0.0 
7.298712468334e+00 -1.230231046246e+01 0.0 
2.738235495295e+01 -1.368931690364e+01 0.0 
3.750141041969e+01 -1.920449893070e+01 0.0 
1.557271965640e+01 -1.683317951731e+01 0.0 
3.393731848929e+01 -1.413034777044e+01 0.0 
6.482156824153e+00 -1.174575135362e+01 0.0 
2.077971718439e+01 -1.421279621836e+01 0.0 
3.455084320178e+00 -2.562590040585e+00 0.0 
3.099056096250e+01 -9.270280416035e+00 0.0 
5.580176125418e+00 -1.217387969259e+01 0.0 
1.707247630389e+01 -7.660651981710e+00 0.0 
1.418658814174e+01 -1.180390575393e+01 0.0 
2.049103025389e+01 -1.811296706038e+01 0.0 
4.680386172316e+00 -1.260396879301e+01 0.0 
1.699679896554e+01 -8.624561788199e+00 0.0 
3.779470168555e+00 -1.303424899720e+01 0.0 
3.036589870126e+01 -7.879832518349e+00 0.0 
3.306993001774e+01 -1.457671062095e+01 0.0 
2.840150110165e+00 -1.346530088269e+01 0.0 
2.732011135052e+01 -1.464591214560e+01 0.0 
5.423639259568e+00 -2.659711955016e+00 0.0 
2.324455961696e+01 -1.387269388211e+01 0.0 
1.752768355571e+00 -1.693128613594e+01 0.0 
1.020244783051e+01 -8.076834012808e+00 0.0 
1.330873875224e+01 -1.222417528206e+01 0.0 
3.297727364880e+01 -1.555480372087e+01 0.0 
2.890929955439e+01 -6.868664170731e+00 0.0 
1.323294664622e+01 -1.320754260334e+01 0.0 
2.726532861246e+01 -1.560593120806e+01 0.0 
2.240020643398e+01 -1.429299177247e+01 0.0 
2.090445823633e+01 -1.228128621332e+01 0.0 
1.315809881502e+01 -1.420739326938e+01 0.0 
2.781328038068e+01 -7.181956082300e+00 0.0 
8.614200829057e+00 -5.936933226306e+00 0.0 
8.714765730069e+00 -4.979270529687e+00 0.0 
1.611881701099e+01 -9.041973294003e+00 0.0 
2.806830314340e+01 -1.614622947108e+01 0.0 
2.084435391396e+00 -3.385085422913e+00 0.0 
3.133211811152e+01 -1.542347619750e+01 0.0 
9.693114650768e+00 -3.590281506442e+00 0.0 
1.531883592202e+01 -8.504584946143e+00 0.0 
2.151589117094e+01 -1.578915763018e+01 0.0 
4.918943882696e+01 -1.355538828056e+01 0.0 
1.443236615188e+01 -8.918701794549e+00 0.0 
8.276250966452e-01 -5.537685192197e+00 0.0 
1.362790867918e+01 -8.374718262212e+00 0.0 
2.083767477370e+01 -1.324843956035e+01 0.0 
1.273834678703e+01 -8.790890389337e+00 0.0 
1.192275845670e+01 -8.242261327467e+00 0.0 
4.477236023583e+01 -1.824312396664e+01 0.0 
1.102989384254e+01 -8.649855800911e+00 0.0 
4.849096516045e+01 -1.917293752213e+01 0.0 
1.588996752238e+00 -1.910230934687e+01 0.0 
4.904245197583e+01 -1.159839008158e+01 0.0 
2.753852929608e+01 -5.782128488093e+00 0.0 
1.756133602833e+01 -8.306130313187e-01 0.0 
2.615423700951e+01 -6.153865090092e+00 0.0 
1.028818761294e+01 -7.122020845892e+00 0.0 
2.970818901196e+01 -1.527821347593e+01 0.0 
4.801461623449e+01 -1.164472570985e+01 0.0 
9.455722100419e+00 -6.546069291118e+00 0.0 
3.089099236677e+01 -1.835339328261e+01 0.0 
2.350000000013e+01 -1.920825896750e+01 0.0 
4.830620531887e+01 -1.506626155470e+01 0.0 
1.725381944701e+01 -1.688794487850e+01 0.0 
2.156246225273e+01 -1.475893794002e+01 0.0 
4.919319648787e+01 -1.742767505896e+01 0.0 
4.437935623576e+01 -1.077662927266e+01 0.0 
1.001520521978e+01 -1.652692675208e+00 0.0 
9.067160240050e-01 -1.441937727541e+01 0.0 
2.603365149390e+01 -4.755996613848e+00 0.0 
2.458344439002e+01 -4.873645517696e+00 0.0 
2.304312390142e+01 -3.836552768096e+00 0.0 
2.546923202198e+00 -6.902480355749e+00 0.0 
1.251534969393e+01 -2.490989965776e+00 0.0 
2.454061833377e+01 -3.933354231935e+00 0.0 
1.788186558740e+01 -1.827424884923e+01 0.0 
4.090785243552e+01 -1.166553231904e+01 0.0 
2.230128851568e+01 -1.623015738726e+01 0.0 
2.302362347568e+01 -2.916239960270e+00 0.0 
3.878119254461e+01 -1.830091164002e+01 0.0 
2.210081359958e+01 -1.829238229150e+01 0.0 
8.443704882233e+00 -1.921993252862e+01 0.0 
2.218405824691e+01 -1.724557581508e+01 0.0 
2.151157503963e+01 -2.790636689331e+00 0.0 
3.741658958955e+01 -1.250400191722e+01 0.0 
2.697247663737e+01 -1.838290202309e+01 0.0 
4.743362342862e+01 -1.585850773010e+01 0.0 
6.671345075358e+00 -1.924977576322e+01 0.0 
3.900825404537e+01 -1.157220003875e+01 0.0 
4.649692961375e+01 -1.836335837481e+01 0.0 
1.578831424832e+01 -3.678284023361e+00 0.0 
4.814208768888e+01 -1.841249298770e+01 0.0 
2.964123298315e+01 -1.625739458193e+01 0.0 
4.580760351902e+01 -1.284294554687e+01 0.0 
3.561520879615e+01 -1.245548941949e+01 0.0 
2.555418095658e+00 -1.841101588290e+01 0.0 
3.288468366144e+01 -1.834258164109e+01 0.0 
2.065894391445e+01 -2.240688571739e+00 0.0 
4.739171429915e+01 -1.496536413446e+01 0.0 
3.478086729185e+00 -8.576434653209e+00 0.0 
1.606010630246e+01 -1.588421807951e+00 0.0 
1.018329200594e+01 -1.834320874317e+01 0.0 
2.957213339430e+01 -1.720496954591e+01 0.0 
4.142712790164e+00 -1.837794506222e+01 0.0 
6.698721532573e-01 -2.499999999997e+00 0.0 
8.037039123140e+00 -1.571229354954e+00 0.0 
1.203541361428e+01 -1.847784298001e+01 0.0 
2.899968332038e+01 -1.848264722179e+01 0.0 
1.469229460948e+01 -4.219485753730e+00 0.0 
4.049590781957e+01 -1.932812501995e+01 0.0 
1.996211678340e+01 -1.506329754720e+00 0.0 
4.250588298353e+01 -1.067383247529e+01 0.0 
5.831497011152e+00 -1.635396227234e+00 0.0 
5.317606125670e+00 -1.923927974868e+01 0.0 
4.208546426993e+01 -1.842830665025e+01 0.0 
2.327553405011e+00 -9.459409929662e+00 0.0 
3.568351902251e+01 -1.096637218582e+01 0.0 
1.682104374890e+00 -6.231413350963e+00 0.0 
2.451812238018e+01 -1.766524914339e+01 0.0 
1.058003429638e+01 -2.391839617098e+00 0.0 
4.399988753123e+01 -1.851998776342e+01 0.0 
1.400000000010e+01 -1.852293523028e+01 0.0 
3.604719565984e+01 -1.850662876800e+01 0.0 
1.951297136734e+01 -1.938092349694e+01 0.0 
1.821365318472e+01 -1.531276353287e+00 0.0 
2.298031859732e+01 -1.854635324722e+01 0.0 
1.552168066204e+01 -1.764280741977e+01 0.0 
4.572957713638e+01 -1.073347898229e+01 0.0 
3.429637429624e+01 -1.838861552790e+01 0.0 
2.427434426052e+00 -7.705577451869e+00 0.0 
4.662792031485e+00 -3.359424455416e+00 0.0 
4.926794919243e+01 -1.926794919243e+01 0.0 
7.320508075690e-01 -7.320508075688e-01 0.0 
4.926794919243e+01 -1.073205080757e+01 0.0 
7.320508075705e-01 -1.926794919243e+01 0.0 
2.917460242467e+00 -3.202866455310e+00 0.0 
4.838200575963e+01 -1.232674147454e+01 0.0 
2.998445708009e+01 -1.854403752148e+01 0.0 
5.949940090766e-01 -1.152762038165e+01 0.0 
4.844763495759e+01 -1.678092548787e+01 0.0 
1.301685480160e+01 -3.170056592566e+00 0.0 
1.650046335855e+01 -6.731535384067e-01 0.0 
4.854881540991e+01 -1.405224059779e+01 0.0 
2.119545114693e+01 -1.846813384545e+01 0.0 
3.797852849897e+01 -1.857978513215e+01 0.0 
4.649823708745e+01 -1.338351810816e+01 0.0 
2.012685900976e+01 -2.889659035009e+00 0.0 
2.953271913273e+01 -1.791558075192e+01 0.0 
2.408509097292e+00 -1.021949208421e+01 0.0 
2.642589566221e+01 -1.773216561448e+01 0.0 
1.730010270775e+01 -1.763165076721e+01 0.0 
2.017406551304e+01 -8.513536440582e-01 0.0 
5.254761581934e-01 -1.249999999999e+01 0.0 
6.640448215642e+00 -1.545337834885e+00 0.0 
7.843361506349e+00 -1.852719839527e+01 0.0 
1.588442191088e+00 -1.066158564320e+01 0.0 
3.180701530612e+01 -7.414795918363e+00 0.0 
4.951250000000e+01 -7.500000000000e+00 0.0 
3.331250000000e+01 -8.420918367347e+00 0.0 
4.951470588234e+01 -8.500000000000e+00 0.0 
3.480610198624e+01 -9.413633635267e+00 0.0 
4.951470588234e+01 -9.500000000000e+00 0.0 

SCALARS node_number int
LOOKUP_TABLE default
1
2
3
4
5
6
7
8
9
10
11
12
13
14
15
16
17
18
19
20
21
22
23
24
25
26
27
28
29
30
31
32
33
34
35
36
37
38
39
40
41
42
43
44
45
46
47
48
49
50
51
52
53
54
55
56
57
58
59
60
61
62
63
64
65
66
67
68
69
70
71
72
73
74
75
76
77
78
79
80
81
82
84
85
86
87
88
89
90
91
92
93
100
101
102
104
105
106
107
108
109
110
111
112
113
114
115
116
117
118
119
120
121
122
123
124
125
126
127
128
129
130
131
132
133
134
135
136
310
311
312
313
314
315
316
317
318
319
320
321
322
323
324
325
326
327
328
329
330
331
332
333
334
335
336
337
338
339
340
341
342
343
344
345
346
347
348
349
350
351
352
353
354
355
356
357
358
359
360
361
362
363
364
365
366
367
368
369
370
371
372
373
374
375
376
377
378
379
380
381
382
383
384
385
386
387
388
389
390
391
392
393
394
395
396
397
398
399
400
401
402
403
404
405
406
407
408
409
410
411
412
413
414
415
416
417
418
419
420
421
422
423
424
425
426
427
428
429
430
431
432
433
434
435
436
437
438
439
440
441
442
443
444
445
446
447
448
449
450
451
452
453
454
455
456
457
458
459
460
461
462
463
464
465
466
467
468
469
470
471
472
473
474
475
476
477
478
479
480
481
482
483
484
485
486
487
488
489
490
491
492
493
494
495
496
497
498
499
500
501
502
503
504
505
506
507
508
509
510
511
512
513
514
515
516
517
518
519
520
521
522
523
524
525
526
527
528
529
530
531
532
533
534
535
536
537
538
539
540
541
542
543
544
545
546
547
548
549
550
551
552
553
554
555
556
557
558
559
560
561
562
563
564
565
566
567
568
569
570
571
572
573
574
575
576
577
578
579
580
581
582
583
584
585
586
587
588
589
590
591
592
593
594
595
596
597
598
599
600
601
602
603
604
605
606
607
608
609
610
611
612
613
614
615
616
617
618
619
620
621
622
623
624
625
626
627
628
629
630
631
632
633
634
635
636
637
638
639
640
641
642
643
644
645
646
647
648
649
650
651
652
653
654
655
656
657
658
659
660
661
662
663
664
665
666
667
668
669
670
671
672
673
674
675
676
677
678
679
680
681
682
683
684
685
686
687
688
689
690
691
692
693
694
695
696
697
698
699
700
701
702
703
704
705
706
707
708
709
710
711
712
713
714
715
716
717
718
719
720
721
722
723
724
725
726
727
728
729
730
731
732
733
734
735
736
737
738
739
740
741
742
743
744
745
746
747
748
749
750
751
752
753
754
755
756
757
758
759
760
761
762
763
764
765
766
767
768
769
770
771
772
773
774
775
776
777
778
779
780
781
782
783
784
785
786
787
788
789
790
791
792
793
794
795
796
797
798
799
800
801
802
803
804
805
806
807
808
809
810
811
812
813
814
815
816
817
818
819
820
821
822
823
824
825
826
827
828
829
830
831
832
833
834
835
836
837
838
839
840
841
842
843
844
845
846
847
848
849
850
851
852
853
854
855
856
857
858
859
860
861
862
863
864
865
866
867
868
869
870
871
872
873
874
875
876
877
878
879
880
881
882
883
884
885
886
887
888
889
890
891
892
893
894
895
896
897
898
899
900
901
902
903
904
905
906
907
908
909
910
911
912
913
914
915
916
917
918
919
920
921
922
923
924
925
926
927
928
929
930
931
932
933
934
935
936
937
938
939
940
941
942
943
944
945
946
947
948
949
950
951
952
953
954
955
956
957
958
959
960
961
962
963
964
965
966
967
968
969
970
971
972
973
974
975
976
977
978
979
980
981
982
983
984
985
986
987
988
989
990
991
992
993
994
995
996
997
998
999
1000
1001
1002
1003
1004
1005
1006
1007
1008
1009
1010
1011
1012
1013
1014
1015
1016
1017
1018
1019
1020
1021
1022
1023
1024
1025
1026
1027
1028
1029
1030
1031
1032
1033
1034
1035
1036
1037
1038
1039
1040
1041
1042
1043
1044
1045
1046
1047
1048
1049
1050
1051
1052
1053
1054
1055
1056
1057
1058
1059
1060
1061
1062
1063
1064
1065
1066
1067
1068
1069
1070
1071
1072
1073
1074
1075
1076
1077
1078
1079
1080
1081
1082
1083
1084
1085
1086
1087
1088
1089
1090
1091
1092
1093
1094
1095
1096
1097
1098
1099
1100
1101
1102
1103
1104
1105
1106
1107
1108
1109
1110
1111
1112
1113
1114
1115
1116
1117
1118
1119
1120
1121
1122
1123
1124
1125
1126
1127
1128
1129
1130
1131
1132
1133
1134
1135
1136
1137
1138
1139
1140
1141
1142
1143
1144
1145
1146
1147
1148
1149
1150
1151
1152
1153
1154
1155
1156
1157
1158
1159
1160
1161
1162
1163
1164
1165
1166
1167
1168
1169
1170
1171
1172
1173
1174
1175
1176
1177
1178
1179
1180
1181
1182
1183
1184
1185
1186
1187
1188
1189
1190
1191
1192
1193
1194
1195
1196
1197
1198
1199
1200
1201
1202
1203
1204
1205
1206
1207
1208
1209
1210
1211
1212
1213
1214
1215
1216
1217
1218
1219
1220
1221
1222
1223
1224
1225
1226
1227
1228
1229
1230
1231
1232
1233
1234
1235
1236
1237
1238
1239
1240
1241
1242
1243
1244
1245
1246
1247
1248
1249
1250
1251
1252
1253
1254
1255
1256
1257
1258
1259
1260
1261
1262
1263
1264
1279
1280
1281
1282
1283
1284

VECTORS node_mesh_deformation float
0.0 7.489309465048e-02 0.0 
0.000000000000e+00 1.325255514992e-01 0.0 
0.0 0.000000000000e+00 0.0 
0.000000000000e+00 0.000000000000e+00 0.0 
0.0 7.508864367869e-02 0.0 
0.0 7.479463036125e-02 0.0 
0.0 7.403612432858e-02 0.0 
0.0 7.282538583535e-02 0.0 
0.0 7.116101430680e-02 0.0 
0.0 6.908525429169e-02 0.0 
0.0 6.662007721097e-02 0.0 
0.0 6.377809039857e-02 0.0 
0.0 6.057245434980e-02 0.0 
0.0 5.700656959046e-02 0.0 
0.0 5.307274689908e-02 0.0 
0.0 4.876671454528e-02 0.0 
0.0 4.408804176758e-02 0.0 
0.0 3.904419656939e-02 0.0 
0.0 3.359165442861e-02 0.0 
0.0 2.772769367802e-02 0.0 
0.0 2.144519057180e-02 0.0 
0.0 1.472902409990e-02 0.0 
0.0 7.573200499206e-03 0.0 
0.000000000000e+00 0.000000000000e+00 0.0 
0.000000000000e+00 0.000000000000e+00 0.0 
0.000000000000e+00 0.000000000000e+00 0.0 
0.000000000000e+00 0.000000000000e+00 0.0 
0.000000000000e+00 0.000000000000e+00 0.0 
0.000000000000e+00 0.000000000000e+00 0.0 
0.000000000000e+00 0.000000000000e+00 0.0 
0.000000000000e+00 0.000000000000e+00 0.0 
0.000000000000e+00 0.000000000000e+00 0.0 
0.000000000000e+00 0.000000000000e+00 0.0 
0.000000000000e+00 0.000000000000e+00 0.0 
0.000000000000e+00 0.000000000000e+00 0.0 
0.000000000000e+00 0.000000000000e+00 0.0 
0.000000000000e+00 0.000000000000e+00 0.0 
0.000000000000e+00 0.000000000000e+00 0.0 
0.000000000000e+00 0.000000000000e+00 0.0 
0.000000000000e+00 0.000000000000e+00 0.0 
0.000000000000e+00 0.000000000000e+00 0.0 
0.000000000000e+00 0.000000000000e+00 0.0 
0.000000000000e+00 0.000000000000e+00 0.0 
0.000000000000e+00 0.000000000000e+00 0.0 
0.000000000000e+00 0.000000000000e+00 0.0 
0.000000000000e+00 0.000000000000e+00 0.0 
0.000000000000e+00 0.000000000000e+00 0.0 
0.000000000000e+00 0.000000000000e+00 0.0 
0.000000000000e+00 0.000000000000e+00 0.0 
0.000000000000e+00 0.000000000000e+00 0.0 
0.000000000000e+00 0.000000000000e+00 0.0 
0.000000000000e+00 0.000000000000e+00 0.0 
0.000000000000e+00 0.000000000000e+00 0.0 
0.000000000000e+00 0.000000000000e+00 0.0 
0.000000000000e+00 0.000000000000e+00 0.0 
0.000000000000e+00 0.000000000000e+00 0.0 
0.000000000000e+00 0.000000000000e+00 0.0 
0.000000000000e+00 0.000000000000e+00 0.0 
0.000000000000e+00 0.000000000000e+00 0.0 
0.000000000000e+00 0.000000000000e+00 0.0 
0.000000000000e+00 0.000000000000e+00 0.0 
0.000000000000e+00 0.000000000000e+00 0.0 
0.000000000000e+00 0.000000000000e+00 0.0 
0.000000000000e+00 0.000000000000e+00 0.0 
0.000000000000e+00 0.000000000000e+00 0.0 
0.000000000000e+00 0.000000000000e+00 0.0 
0.000000000000e+00 0.000000000000e+00 0.0 
0.000000000000e+00 0.000000000000e+00 0.0 
0.000000000000e+00 0.000000000000e+00 0.0 
0.000000000000e+00 0.000000000000e+00 0.0 
0.000000000000e+00 0.000000000000e+00 0.0 
0.000000000000e+00 0.000000000000e+00 0.0 
0.000000000000e+00 1.209751027186e-01 0.0 
0.000000000000e+00 1.090102649823e-01 0.0 
0.000000000000e+00 9.663813007289e-02 0.0 
0.000000000000e+00 8.388089606118e-02 0.0 
0.000000000000e+00 7.074522023240e-02 0.0 
0.000000000000e+00 5.725246938565e-02 0.0 
0.000000000000e+00 4.341671017421e-02 0.0 
0.000000000000e+00 2.925305361516e-02 0.0 
0.000000000000e+00 1.477967480767e-02 0.0 
-1.410232419389e-02 4.746982856766e-02 0.0 
1.678907838972e-02 1.275912355550e-01 0.0 
-6.701945801243e-03 7.221339562175e-02 0.0 
-8.196501599684e-04 9.180404909952e-02 0.0 
4.080026329287e-03 1.082102564075e-01 0.0 
8.092677555737e-03 1.214901843451e-01 0.0 
1.185344677014e-02 1.318944307384e-01 0.0 
1.509810630989e-02 1.391297993708e-01 0.0 
1.686879117672e-02 1.425692454694e-01 0.0 
1.797100694631e-02 1.407761405498e-01 0.0 
1.786292653814e-02 1.353383620234e-01 0.0 
0.000000000000e+00 1.646392697844e-01 0.0 
0.000000000000e+00 1.543351414302e-01 0.0 
0.000000000000e+00 1.436558191841e-01 0.0 
9.649299018832e-04 1.325343928142e-01 0.0 
1.924451253913e-03 1.325588172279e-01 0.0 
2.897121993755e-03 1.325885258431e-01 0.0 
3.880168195998e-03 1.326120306737e-01 0.0 
4.874093659367e-03 1.326357417122e-01 0.0 
5.883350150256e-03 1.326277199711e-01 0.0 
6.918325855622e-03 1.325973664291e-01 0.0 
7.970568817655e-03 1.325065347278e-01 0.0 
9.067108807415e-03 1.323581607759e-01 0.0 
1.020487562396e-02 1.320962483488e-01 0.0 
1.138534999910e-02 1.316934181809e-01 0.0 
1.262374007724e-02 1.311084172843e-01 0.0 
1.392676037700e-02 1.302793951187e-01 0.0 
1.530745059598e-02 1.291299129696e-01 0.0 
-1.136306166582e-02 3.341949078881e-02 0.0 
-7.268846529684e-03 2.591393212296e-02 0.0 
-2.840429788556e-03 2.288734217211e-02 0.0 
1.825364399231e-03 2.451068112992e-02 0.0 
5.094740485529e-03 3.295047760152e-02 0.0 
6.836488737044e-03 4.309322492697e-02 0.0 
7.522379200093e-03 4.985450127966e-02 0.0 
7.659483675923e-03 5.511723924598e-02 0.0 
7.219019964460e-03 5.934539327023e-02 0.0 
6.743027601155e-03 6.274917797709e-02 0.0 
6.252269695169e-03 6.552797068135e-02 0.0 
5.672255683603e-03 6.775314574897e-02 0.0 
5.102387189392e-03 6.959799502819e-02 0.0 
4.396308317779e-03 7.110577602954e-02 0.0 
3.685961747119e-03 7.232022378332e-02 0.0 
2.991314983089e-03 7.326298157061e-02 0.0 
2.289633977191e-03 7.399285226324e-02 0.0 
1.572944918918e-03 7.452262618258e-02 0.0 
7.977834886557e-04 7.481423997177e-02 0.0 
1.498130804611e-02 1.486690919224e-01 0.0 
1.419621609858e-02 1.528718985661e-01 0.0 
1.348839491341e-02 1.560397044983e-01 0.0 
1.288477755538e-02 1.584475942972e-01 0.0 
1.229855869761e-02 1.602661316124e-01 0.0 
1.169485004377e-02 1.616313430172e-01 0.0 
1.105689616880e-02 1.626441163388e-01 0.0 
1.037982061762e-02 1.633815299883e-01 0.0 
9.662008162863e-03 1.639040357821e-01 0.0 
8.904443297098e-03 1.642613736318e-01 0.0 
8.110150799951e-03 1.644943040204e-01 0.0 
7.284412645134e-03 1.646351789378e-01 0.0 
6.432266117699e-03 1.647096888584e-01 0.0 
5.558017615449e-03 1.647383562089e-01 0.0 
4.666522355890e-03 1.647381893207e-01 0.0 
3.763091162334e-03 1.647215935719e-01 0.0 
2.853264625521e-03 1.646974482096e-01 0.0 
1.944179873504e-03 1.646658747812e-01 0.0 
9.987956171500e-04 1.646208497952e-01 0.0 
9.763689619717e-04 1.543794984394e-01 0.0 
1.947661588595e-03 1.543979018700e-01 0.0 
2.908217282567e-03 1.544300147990e-01 0.0 
3.863435058932e-03 1.544580812244e-01 0.0 
4.814185930002e-03 1.544781561533e-01 0.0 
5.761578583630e-03 1.544800105845e-01 0.0 
6.704278549336e-03 1.544504953212e-01 0.0 
7.643118561958e-03 1.543709831914e-01 0.0 
8.575535553291e-03 1.542200064551e-01 0.0 
9.503089342402e-03 1.539652888793e-01 0.0 
1.042904744399e-02 1.535696262606e-01 0.0 
1.135734965315e-02 1.529874485484e-01 0.0 
1.229646384837e-02 1.521605428658e-01 0.0 
1.326080973833e-02 1.510197848055e-01 0.0 
1.426742866369e-02 1.494565195728e-01 0.0 
1.536350569442e-02 1.473705548231e-01 0.0 
1.654626734708e-02 1.445627187891e-01 0.0 
1.644381162872e-02 1.377159236400e-01 0.0 
1.516367839208e-02 1.395108415726e-01 0.0 
1.393103931620e-02 1.408280112917e-01 0.0 
1.277640158261e-02 1.418096436456e-01 0.0 
1.167632299865e-02 1.425183612851e-01 0.0 
1.061642443553e-02 1.430161030278e-01 0.0 
9.587800434410e-03 1.433547691931e-01 0.0 
8.583256073585e-03 1.435692030188e-01 0.0 
7.595101925155e-03 1.436915605450e-01 0.0 
6.623842690281e-03 1.437590651128e-01 0.0 
5.661987545061e-03 1.437791691320e-01 0.0 
4.710533179711e-03 1.437752533150e-01 0.0 
3.763029066050e-03 1.437518841095e-01 0.0 
2.820073889254e-03 1.437232441675e-01 0.0 
1.879471231156e-03 1.436877142344e-01 0.0 
9.369020555852e-04 1.436352416575e-01 0.0 
-9.973079072381e-03 6.123369418413e-02 0.0 
-3.654242167215e-03 8.240043192525e-02 0.0 
1.759139950121e-03 1.004087919325e-01 0.0 
6.172141016080e-03 1.152289546187e-01 0.0 
1.007456711334e-02 1.271232989616e-01 0.0 
1.362365490504e-02 1.359832568526e-01 0.0 
1.631413644607e-02 1.413798468865e-01 0.0 
1.759566503477e-02 1.421941065552e-01 0.0 
1.809336746614e-02 1.383878410680e-01 0.0 
1.743775298568e-02 1.316995201009e-01 0.0 
3.634448619191e-03 8.114323533675e-02 0.0 
2.754595588144e-03 6.660979202188e-03 0.0 
4.197887957611e-03 6.109425427021e-02 0.0 
-3.875468179224e-04 3.025559793958e-02 0.0 
1.118513836229e-03 6.361092537801e-03 0.0 
1.208498500366e-02 1.114119308107e-01 0.0 
2.119783205301e-06 5.494977878956e-02 0.0 
4.211395683722e-03 7.484776747408e-03 0.0 
1.831769940751e-02 1.286640099134e-01 0.0 
4.997302186386e-03 8.493362248618e-03 0.0 
2.049521551025e-02 1.326157560101e-01 0.0 
3.296921046898e-04 5.935115232742e-03 0.0 
3.487044651264e-03 7.064040781758e-02 0.0 
5.077488303865e-03 1.005068376291e-02 0.0 
1.842383491694e-02 1.213560695154e-01 0.0 
-2.206972955243e-05 6.774338421866e-02 0.0 
5.675446516862e-05 4.260338701375e-02 0.0 
4.695047066573e-03 1.148632029666e-02 0.0 
3.284630458303e-03 1.187038336996e-02 0.0 
9.376418683331e-04 1.261703330216e-02 0.0 
1.736877777425e-03 1.358650183516e-02 0.0 
2.328329986319e-03 1.197265799746e-02 0.0 
1.499562085603e-02 1.195207768300e-01 0.0 
9.765829355899e-03 1.217810579485e-01 0.0 
6.411435852129e-03 1.218950979058e-01 0.0 
6.250141493425e-04 7.716013052769e-02 0.0 
8.829252869624e-05 6.527868883250e-03 0.0 
-4.026145806332e-03 3.258769180446e-02 0.0 
2.032390696827e-03 7.378107742751e-02 0.0 
5.099395679731e-05 2.510422221655e-02 0.0 
3.299181300839e-03 1.226658425642e-01 0.0 
1.772846033895e-04 7.341922382975e-02 0.0 
4.493174426933e-03 1.327144315695e-02 0.0 
4.347600474826e-03 7.331942667168e-03 0.0 
5.088322950623e-03 9.138917012315e-03 0.0 
3.761011838257e-03 7.441540460064e-03 0.0 
1.919591227445e-03 6.142351994868e-03 0.0 
2.330415470476e-03 4.637724731854e-02 0.0 
1.223957344778e-02 1.216691944026e-01 0.0 
7.567541931763e-04 7.285144883689e-03 0.0 
4.697131243674e-04 5.096915614527e-02 0.0 
4.106585108431e-03 6.671828107461e-02 0.0 
-3.010710834284e-05 6.214734609190e-02 0.0 
4.664895881774e-04 1.027884145616e-02 0.0 
1.564187062476e-02 1.207312893560e-01 0.0 
8.241310678539e-03 9.798925015249e-02 0.0 
1.998334946527e-02 1.326430735912e-01 0.0 
1.986796164996e-02 1.284219546827e-01 0.0 
-2.475942977870e-03 6.097074321293e-02 0.0 
7.556483829774e-04 1.013986037980e-01 0.0 
2.660769540563e-05 5.205837082773e-03 0.0 
9.393351144822e-04 7.485066204062e-02 0.0 
2.566962865629e-04 2.313944579353e-02 0.0 
1.771171893333e-02 1.166915126093e-01 0.0 
1.900579355630e-02 1.105443863146e-01 0.0 
1.752615023545e-02 1.068729024776e-01 0.0 
1.897890694703e-02 9.961165721430e-02 0.0 
1.751394673881e-02 9.458127092348e-02 0.0 
1.854553705223e-02 8.807876319176e-02 0.0 
2.016829543958e-02 9.277689965354e-02 0.0 
1.940838267093e-02 8.143079463124e-02 0.0 
2.114001911254e-02 8.591510520861e-02 0.0 
1.684370918205e-02 8.274421643376e-02 0.0 
2.003021279096e-02 7.470673160770e-02 0.0 
2.184283035432e-02 7.897952408731e-02 0.0 
2.037632145355e-02 6.799585640498e-02 0.0 
2.223226493658e-02 7.205723542613e-02 0.0 
2.350413620394e-02 8.261637953444e-02 0.0 
2.391458977274e-02 7.551296166025e-02 0.0 
2.496391259347e-02 8.552906041324e-02 0.0 
2.536734085002e-02 7.823216177905e-02 0.0 
2.397305502332e-02 6.858367185453e-02 0.0 
2.539796368213e-02 7.117988367382e-02 0.0 
2.654987502358e-02 8.020234657476e-02 0.0 
2.652678639974e-02 7.304731105848e-02 0.0 
2.742042147989e-02 8.139377066146e-02 0.0 
2.732521130951e-02 7.415190280940e-02 0.0 
2.795712518798e-02 8.180925709362e-02 0.0 
2.777821504329e-02 7.454030077133e-02 0.0 
2.684475729390e-02 6.732261446884e-02 0.0 
2.720878461772e-02 6.775401250207e-02 0.0 
2.786968611480e-02 7.423095444778e-02 0.0 
2.720223961650e-02 6.753137094229e-02 0.0 
2.759456367607e-02 7.325667237221e-02 0.0 
2.682027304725e-02 6.669074569907e-02 0.0 
2.617215665341e-02 6.137784098840e-02 0.0 
2.568536154036e-02 6.074454617522e-02 0.0 
2.606282281254e-02 6.528754416826e-02 0.0 
2.482074759473e-02 5.962252493125e-02 0.0 
2.493461583581e-02 6.338397489217e-02 0.0 
2.358556194951e-02 5.807932210230e-02 0.0 
2.344561396454e-02 6.104508773861e-02 0.0 
2.197853544970e-02 5.618583284683e-02 0.0 
2.196114144931e-02 5.347328253440e-02 0.0 
2.026716141903e-02 5.207757007549e-02 0.0 
2.001358618651e-02 5.405377519957e-02 0.0 
1.824017044506e-02 5.056175308421e-02 0.0 
1.840383056074e-02 4.868649545215e-02 0.0 
1.637008254680e-02 4.781056174346e-02 0.0 
1.646971970049e-02 4.591524288265e-02 0.0 
1.448585739568e-02 4.566606386411e-02 0.0 
1.410583176929e-02 4.703457018333e-02 0.0 
1.231980571718e-02 4.556583369078e-02 0.0 
1.265468477748e-02 4.398664601656e-02 0.0 
1.062801622420e-02 4.450811520894e-02 0.0 
1.003440435839e-02 4.574804775081e-02 0.0 
8.556635544155e-03 4.529646421043e-02 0.0 
9.076487857453e-03 4.369867820572e-02 0.0 
7.221809800335e-03 4.500560062220e-02 0.0 
6.523496887951e-03 4.643708707662e-02 0.0 
5.448399754744e-03 4.660167422669e-02 0.0 
6.050662100032e-03 4.472457360519e-02 0.0 
4.512600903036e-03 4.670454480125e-02 0.0 
3.823555252790e-03 4.851717254623e-02 0.0 
3.143381575700e-03 4.889865350018e-02 0.0 
3.710709940481e-03 4.664556521244e-02 0.0 
2.559103139594e-03 4.907908067016e-02 0.0 
3.013873441150e-03 4.640652219204e-02 0.0 
1.966220524857e-03 5.134539213898e-02 0.0 
1.595487936338e-03 5.165289781604e-02 0.0 
1.033569350964e-03 5.396988073647e-02 0.0 
8.431597612741e-04 5.432100128293e-02 0.0 
2.482357960446e-02 5.577605862205e-02 0.0 
3.762405563510e-04 5.665563747267e-02 0.0 
4.520210036212e-04 5.591564184801e-02 0.0 
3.111383305603e-04 5.701489763108e-02 0.0 
6.750022295980e-04 5.436343952070e-02 0.0 
-2.997300315943e-05 5.935339848195e-02 0.0 
-1.677980102599e-05 5.967077558978e-02 0.0 
-2.140921539793e-04 6.198374928043e-02 0.0 
2.454513959216e-02 6.681807536444e-02 0.0 
2.367124176255e-02 6.189216784217e-02 0.0 
-1.695565767976e-04 6.222469184225e-02 0.0 
-2.229955634814e-04 6.447261308018e-02 0.0 
-2.770222629627e-04 6.400445662906e-02 0.0 
-1.160642545601e-04 6.640819291552e-02 0.0 
1.592035059327e-02 8.923392782838e-02 0.0 
1.507224679612e-02 7.698269399138e-02 0.0 
1.429058400664e-02 8.345540493505e-02 0.0 
1.325794478243e-02 7.089917180954e-02 0.0 
1.261825658517e-02 7.725120332689e-02 0.0 
-1.155286367878e-04 6.675882837771e-02 0.0 
1.837394385269e-02 6.303330307754e-02 0.0 
1.373687759927e-02 6.437346206511e-02 0.0 
2.711363929137e-02 8.901199694852e-02 0.0 
2.796178222709e-02 8.042527986618e-02 0.0 
1.819447858658e-02 4.619362407010e-02 0.0 
-1.339408242540e-05 5.966332411773e-02 0.0 
-1.385651274006e-04 6.215132738507e-02 0.0 
-1.290275111909e-05 5.935152587178e-02 0.0 
4.099982267160e-03 4.393042546638e-02 0.0 
3.305232892401e-03 4.330545755093e-02 0.0 
4.286440108071e-03 4.074114165084e-02 0.0 
3.418819607493e-03 3.975079286955e-02 0.0 
4.261999948822e-03 3.706254810819e-02 0.0 
3.350863464444e-03 3.572030228185e-02 0.0 
2.673524369813e-03 3.858452018170e-02 0.0 
2.574944604655e-03 3.420917495374e-02 0.0 
2.043293746798e-03 3.722444075766e-02 0.0 
4.030477002296e-03 3.287991844235e-02 0.0 
5.105537430696e-03 3.442424081836e-02 0.0 
1.926307385050e-03 3.251930760647e-02 0.0 
1.520366763694e-03 3.565986042212e-02 0.0 
1.396166873166e-03 3.063869488619e-02 0.0 
1.096525312055e-03 3.389069937472e-02 0.0 
1.140116665805e-03 3.877211927413e-02 0.0 
8.159275178281e-04 3.709272679349e-02 0.0 
8.044525950668e-04 4.183723920159e-02 0.0 
1.620230995432e-02 4.338364089456e-02 0.0 
1.760244923626e-02 4.308545087191e-02 0.0 
1.556001387374e-02 4.022873554725e-02 0.0 
1.661122848548e-02 3.936732573421e-02 0.0 
1.453584778558e-02 3.645723318880e-02 0.0 
1.521665513758e-02 3.504745973704e-02 0.0 
1.312641256912e-02 3.207432362558e-02 0.0 
1.250920526790e-02 3.383724895727e-02 0.0 
2.042935448347e-02 6.126972478055e-02 0.0 
1.770926596020e-02 5.180643957848e-02 0.0 
1.937317590854e-02 5.543951027333e-02 0.0 
1.682357563357e-02 5.240653862408e-02 0.0 
1.835005238493e-02 5.622203154029e-02 0.0 
1.559400914342e-02 5.232724314024e-02 0.0 
1.695596883721e-02 5.641145895359e-02 0.0 
1.404172790427e-02 5.154990987857e-02 0.0 
1.253435531514e-02 4.859397386905e-02 0.0 
1.079426267280e-02 4.686542093570e-02 0.0 
9.221950084978e-03 4.534903693307e-02 0.0 
7.299796334063e-03 4.282111090002e-02 0.0 
5.809383283196e-03 4.297139722456e-02 0.0 
2.600463190684e-02 6.094410330779e-02 0.0 
1.732916584921e-02 3.832312152752e-02 0.0 
1.554652569409e-02 3.341307641417e-02 0.0 
1.767107539887e-02 3.700511164621e-02 0.0 
-1.300276934426e-04 6.573533436823e-02 0.0 
7.616818364289e-04 3.191912056193e-02 0.0 
4.668448226157e-03 3.005111013578e-02 0.0 
5.897666082175e-03 3.186015658347e-02 0.0 
1.110753494779e-02 2.932830307155e-02 0.0 
1.230848902871e-04 6.855617214271e-02 0.0 
1.520047280065e-02 5.604037954817e-02 0.0 
1.785502428641e-02 6.185690105174e-02 0.0 
1.144623702810e-02 6.439532328726e-02 0.0 
1.095248028158e-02 7.070712661206e-02 0.0 
5.214616199355e-03 2.722214360178e-02 0.0 
4.879563569293e-05 6.880096700351e-02 0.0 
2.330972559941e-03 2.935661779709e-02 0.0 
8.773269542012e-03 4.425525870473e-02 0.0 
5.616035125637e-04 3.520659267458e-02 0.0 
5.050932560948e-04 2.975805642854e-02 0.0 
2.036061697886e-03 4.145742236692e-02 0.0 
1.548853581227e-02 3.147813586611e-02 0.0 
1.764757149603e-02 3.542537514540e-02 0.0 
7.720678223620e-03 4.507586405162e-02 0.0 
4.567585102173e-03 4.411657950186e-02 0.0 
2.541318049277e-03 4.183691592231e-02 0.0 
1.777705821278e-03 4.446947845148e-02 0.0 
3.618711654861e-03 4.581389980220e-02 0.0 
1.264578001763e-03 4.700102583658e-02 0.0 
-3.588103268424e-04 4.597245455435e-02 0.0 
-4.539456498858e-04 4.916867280572e-02 0.0 
9.608243109724e-04 4.944439396155e-02 0.0 
-3.670932808966e-04 5.196982135061e-02 0.0 
-1.337511003827e-03 5.212172149278e-02 0.0 
-1.019584012145e-03 5.499103924541e-02 0.0 
6.497057079731e-04 2.629706773178e-02 0.0 
5.152899990176e-03 3.943024741808e-02 0.0 
2.419381496343e-02 9.295641087420e-02 0.0 
4.020345022120e-03 2.512792902485e-02 0.0 
1.136478155531e-02 2.715446434408e-02 0.0 
9.667288663046e-03 5.757718820523e-02 0.0 
9.316706898211e-03 6.387255278958e-02 0.0 
1.033413849006e-02 7.697841162367e-02 0.0 
8.833710521827e-03 7.010153081188e-02 0.0 
7.737320596902e-03 5.677857159762e-02 0.0 
7.387571057521e-03 6.301950564775e-02 0.0 
8.249943491641e-03 7.625607227430e-02 0.0 
6.925590433788e-03 6.918135735961e-02 0.0 
7.590018843409e-03 8.230483837500e-02 0.0 
6.375630319454e-03 7.524746066143e-02 0.0 
5.669060251627e-03 6.192588107010e-02 0.0 
5.222141768783e-03 6.804041431470e-02 0.0 
5.758318922460e-03 8.122305612189e-02 0.0 
4.694593489624e-03 7.406800327416e-02 0.0 
5.088415857010e-03 8.709470078228e-02 0.0 
4.101118604432e-03 8.000226217317e-02 0.0 
3.702644003155e-03 6.678280317612e-02 0.0 
3.579636917221e-04 7.033954130934e-02 0.0 
1.057688550248e-02 3.143074463783e-02 0.0 
9.199507133795e-03 2.674004778131e-02 0.0 
-1.122808665821e-04 6.174973231651e-02 0.0 
-8.169355488974e-06 5.872185199324e-02 0.0 
1.448092276268e-04 5.620725635198e-02 0.0 
1.037586529238e-04 5.537749982799e-02 0.0 
3.168898673671e-03 7.284803990443e-02 0.0 
2.794912421940e-03 5.939007480692e-02 0.0 
1.575341910584e-02 6.216330690985e-02 0.0 
1.809448702928e-02 6.869149466578e-02 0.0 
9.850828339175e-03 5.122689128239e-02 0.0 
3.677930069741e-04 3.312489848321e-02 0.0 
3.869711054780e-04 3.840530957689e-02 0.0 
2.742611538156e-02 7.866425059815e-02 0.0 
2.743634665631e-02 8.630366019784e-02 0.0 
2.665257972434e-02 8.379060177036e-02 0.0 
2.620091557807e-02 9.200458066392e-02 0.0 
2.695410176247e-02 9.453233655092e-02 0.0 
2.515555794119e-02 8.871966994925e-02 0.0 
6.334862737765e-03 3.593163525389e-02 0.0 
4.500679088416e-03 5.452348173172e-02 0.0 
-3.630187476400e-04 6.318888028571e-02 0.0 
-1.629374278167e-04 6.472738439446e-02 0.0 
3.156578486632e-04 2.741798157015e-02 0.0 
1.160893503696e-02 3.549735773332e-02 0.0 
2.535670743170e-02 5.978402406529e-02 0.0 
2.426021411337e-02 5.374920999951e-02 0.0 
2.330985170076e-02 5.187469031701e-02 0.0 
2.196808965974e-02 4.616040035704e-02 0.0 
2.069226629678e-02 4.358296560834e-02 0.0 
1.910819378915e-02 3.817089784838e-02 0.0 
2.035629550178e-02 4.083850181389e-02 0.0 
1.500345031704e-02 2.914077383317e-02 0.0 
1.728205449183e-02 3.309041144126e-02 0.0 
3.510768670033e-03 8.595920371948e-02 0.0 
1.941290719726e-02 4.200708227487e-02 0.0 
7.813811835060e-04 5.158994083050e-02 0.0 
5.426229757761e-04 6.989225615866e-02 0.0 
-1.299447083436e-03 5.558887819781e-02 0.0 
2.098684533114e-04 7.054701740814e-02 0.0 
-6.208301512434e-06 6.875267107566e-02 0.0 
4.307787945082e-03 2.203271780206e-02 0.0 
1.747626528957e-02 3.489650977949e-02 0.0 
1.905698716632e-02 4.038640761344e-02 0.0 
2.521519871697e-02 1.008637988610e-01 0.0 
2.596758724251e-02 1.032807480867e-01 0.0 
1.282983678140e-02 2.536828948399e-02 0.0 
1.337818514962e-02 8.991765889222e-02 0.0 
8.844580011029e-03 8.919177749501e-02 0.0 
8.024749756380e-03 9.509598040415e-02 0.0 
5.941358714425e-04 7.194250522710e-02 0.0 
-1.567481323660e-03 5.217221002782e-02 0.0 
6.244754387289e-03 4.948246124592e-02 0.0 
2.016906935834e-02 6.735776192124e-02 0.0 
2.017000623884e-02 7.466778288584e-02 0.0 
6.232660997853e-03 4.107730563527e-02 0.0 
2.860301614788e-03 3.564767711271e-02 0.0 
2.350575179435e-03 6.538026374351e-02 0.0 
2.007642693371e-03 5.186961023579e-02 0.0 
3.020138357499e-04 5.272759573169e-02 0.0 
2.210347750640e-04 5.165085086004e-02 0.0 
5.618960260326e-03 2.434014430242e-02 0.0 
-9.839098805937e-04 5.822886525293e-02 0.0 
2.304516809978e-03 4.562606832821e-02 0.0 
9.786421066517e-03 3.343266986449e-02 0.0 
1.047799208110e-02 3.712162122067e-02 0.0 
-1.172694406160e-05 5.790207372771e-02 0.0 
1.543842434789e-02 6.980301629446e-02 0.0 
1.301822280296e-02 6.222167423713e-02 0.0 
2.344856042138e-03 4.936615866384e-02 0.0 
-7.239959558092e-04 5.725139445074e-02 0.0 
9.848314503547e-05 7.042661096377e-02 0.0 
4.409083883417e-03 1.884966952588e-02 0.0 
6.322709000727e-03 4.316568417639e-02 0.0 
1.852832079491e-02 3.592395008768e-02 0.0 
2.122214569181e-02 4.298333092598e-02 0.0 
1.527264931583e-02 2.837505243440e-02 0.0 
-5.611169935840e-04 5.906799505082e-02 0.0 
3.183846025763e-03 1.963337113271e-02 0.0 
2.255857175695e-04 3.086429379104e-02 0.0 
1.564868782413e-02 3.147891516792e-02 0.0 
1.708525607005e-02 3.659278232923e-02 0.0 
2.216987329141e-02 7.239447548495e-02 0.0 
2.205523319314e-02 8.008612811421e-02 0.0 
1.944030612463e-02 8.308552130937e-02 0.0 
2.120794705499e-02 8.864999598171e-02 0.0 
2.168543509995e-02 9.695976282835e-02 0.0 
2.391392337690e-02 7.689580321167e-02 0.0 
2.542530628678e-02 9.533574211708e-02 0.0 
2.430561303742e-02 1.030769312454e-01 0.0 
2.527234832039e-02 1.049406064905e-01 0.0 
2.734207900799e-02 9.634190417774e-02 0.0 
2.633229061317e-02 1.050096821422e-01 0.0 
2.076571816557e-02 6.006391120613e-02 0.0 
1.962166350376e-02 4.639024860063e-02 0.0 
4.055462378920e-04 5.354345675081e-02 0.0 
1.100532016144e-03 4.320528096769e-02 0.0 
5.283512095446e-03 4.158007398260e-02 0.0 
4.744063801141e-03 4.828638979355e-02 0.0 
3.588594022922e-03 4.068973580267e-02 0.0 
6.123306479651e-03 9.405407213581e-02 0.0 
5.343331929822e-03 9.975669096376e-02 0.0 
3.092312153239e-04 6.716189216343e-02 0.0 
4.153938113687e-04 6.595624422221e-02 0.0 
2.412953657256e-03 4.595276810549e-02 0.0 
3.001464731858e-03 2.293231752828e-02 0.0 
7.987992784990e-03 4.415540369911e-02 0.0 
7.818603692250e-03 3.777784041455e-02 0.0 
9.829127166164e-03 4.482388767270e-02 0.0 
5.820661476330e-03 2.137010789363e-02 0.0 
1.512537952119e-02 4.963691052899e-02 0.0 
1.422441523416e-02 4.100500467033e-02 0.0 
1.944034383865e-03 3.629826781299e-02 0.0 
2.502490730260e-02 5.568253527277e-02 0.0 
1.112324449971e-03 6.824076998388e-02 0.0 
2.201763306536e-02 5.873240396371e-02 0.0 
1.830815268993e-04 2.491336277388e-02 0.0 
2.395256442611e-04 2.126958262467e-02 0.0 
1.191309871550e-02 2.244551176411e-02 0.0 
2.011787624435e-02 1.146841955941e-01 0.0 
2.348795937284e-02 5.038151025263e-02 0.0 
2.321666538838e-02 5.074341066131e-02 0.0 
2.380612685663e-02 1.129387771098e-01 0.0 
2.447284228945e-02 1.143018725630e-01 0.0 
2.595154742280e-02 1.059203564880e-01 0.0 
2.481356703899e-02 1.147689114408e-01 0.0 
1.925179835826e-03 5.090528080103e-02 0.0 
6.604644472770e-04 5.336063516370e-02 0.0 
1.349911877936e-02 2.554479134519e-02 0.0 
1.373312982378e-02 2.514452441914e-02 0.0 
1.343541395995e-02 2.729877909359e-02 0.0 
1.480229114700e-02 3.212622294589e-02 0.0 
9.702806235108e-03 1.869389004768e-02 0.0 
1.065843872140e-02 2.182493843969e-02 0.0 
-3.721122470512e-05 6.842996991325e-02 0.0 
2.450935436233e-02 1.123404435660e-01 0.0 
4.814303533394e-03 3.564523177861e-02 0.0 
2.288715722078e-02 1.107522955934e-01 0.0 
2.268824716758e-03 1.728842282174e-02 0.0 
2.159870459813e-03 2.061560986187e-02 0.0 
2.101371705763e-04 3.223404600420e-02 0.0 
-6.420857879590e-04 3.559819555992e-02 0.0 
1.578098086888e-03 3.823056897107e-02 0.0 
1.796043573669e-02 9.226223602773e-02 0.0 
1.962470608374e-02 9.781987895819e-02 0.0 
1.617081767053e-02 8.584708637633e-02 0.0 
1.388058248897e-05 1.123802254590e-02 0.0 
1.425440365949e-03 1.227754418368e-01 0.0 
1.274206136084e-04 1.853108808185e-02 0.0 
2.737168760453e-02 9.742011937774e-02 0.0 
1.695698677210e-03 3.129831247914e-02 0.0 
2.175278636734e-02 4.562805349335e-02 0.0 
2.652204022216e-02 7.632420611130e-02 0.0 
7.116584130566e-03 2.660501270662e-02 0.0 
1.284315389377e-03 4.568977804341e-02 0.0 
9.487469613347e-04 3.013225836122e-02 0.0 
9.168546582856e-03 1.015794786171e-01 0.0 
8.257529907212e-03 1.075243526530e-01 0.0 
1.011842129081e-02 9.586965212904e-02 0.0 
9.819173158270e-03 4.802235621442e-02 0.0 
6.390572996708e-03 4.608291731540e-02 0.0 
3.438750388796e-03 4.698663204704e-02 0.0 
-1.560586949028e-04 6.446439894378e-02 0.0 
-1.246269614099e-04 6.377114602937e-02 0.0 
-6.943872333185e-04 6.032727281305e-02 0.0 
-5.182416206804e-04 5.904697361395e-02 0.0 
5.923733053912e-04 4.998538955397e-02 0.0 
7.843876774869e-04 5.080305905974e-02 0.0 
2.136593885621e-02 5.231828589007e-02 0.0 
1.947777271038e-02 4.864598513080e-02 0.0 
2.435306781060e-02 5.800864547687e-02 0.0 
8.792537639358e-03 3.540688150316e-02 0.0 
9.179767055262e-03 3.877955680829e-02 0.0 
1.086098383351e-02 4.019191840865e-02 0.0 
3.643500533158e-03 3.479002186164e-02 0.0 
2.431430883298e-03 2.584287548740e-02 0.0 
3.590742569711e-03 4.886128947576e-02 0.0 
4.349841256325e-03 4.772412447498e-02 0.0 
1.569914059331e-03 5.220397573262e-02 0.0 
4.614066063439e-03 2.951199814798e-02 0.0 
1.601341706654e-04 1.486530023870e-02 0.0 
2.907866539426e-04 1.776593374960e-02 0.0 
1.435347054294e-03 6.688792786305e-02 0.0 
4.833318626982e-04 6.434545410518e-02 0.0 
1.187696844806e-02 7.080598994979e-02 0.0 
9.149826196229e-03 6.231316517146e-02 0.0 
7.514750828534e-03 3.191183766492e-02 0.0 
9.587937512464e-03 3.851473939429e-02 0.0 
5.353394806342e-03 2.411059316693e-02 0.0 
3.531710782489e-05 7.015173228832e-02 0.0 
1.935256065228e-02 3.815893127757e-02 0.0 
4.428339030312e-03 1.585264900115e-02 0.0 
5.937650012736e-03 1.860219844220e-02 0.0 
2.954093581605e-03 1.235232101848e-02 0.0 
1.420016116758e-02 2.663287296412e-02 0.0 
1.069203954742e-02 1.942949514475e-02 0.0 
1.140134666081e-02 2.035503335006e-02 0.0 
3.080287524462e-04 3.159810213636e-02 0.0 
7.151467709718e-04 3.599429120396e-02 0.0 
6.330253570695e-03 1.065260575642e-01 0.0 
-9.519758257142e-04 2.867551925210e-02 0.0 
5.460846738046e-03 1.124730330678e-01 0.0 
4.572008340141e-03 1.054369254439e-01 0.0 
4.717560084011e-03 1.182504847950e-01 0.0 
1.572927759330e-04 7.182557606686e-02 0.0 
1.038440042627e-02 1.100755249052e-01 0.0 
1.147774152384e-02 1.028044523384e-01 0.0 
2.088658464698e-03 6.521389987485e-02 0.0 
3.127430576768e-03 2.195557036039e-02 0.0 
2.152718019397e-03 6.879719662223e-02 0.0 
1.665728354461e-03 6.995907850894e-02 0.0 
1.531876109185e-03 1.458786184570e-02 0.0 
1.485702495108e-03 1.813039418773e-02 0.0 
9.522917032818e-04 1.188495398798e-02 0.0 
9.874949920992e-04 1.583714384757e-02 0.0 
1.368019747102e-03 2.173422618813e-02 0.0 
9.034512333388e-04 1.925616420232e-02 0.0 
7.394184541148e-03 1.141772047904e-01 0.0 
5.695372223560e-04 1.214618366357e-02 0.0 
5.525886436244e-04 1.647927475065e-02 0.0 
2.959334467629e-04 9.445919928709e-03 0.0 
2.290173775733e-02 1.236224799272e-01 0.0 
2.263579271157e-02 9.352148447289e-02 0.0 
2.102750024726e-02 1.029172142455e-01 0.0 
1.719784466031e-02 1.080849958377e-01 0.0 
1.002201296527e-02 2.035494440956e-02 0.0 
1.249186437401e-02 2.764294496635e-02 0.0 
1.246558792938e-04 2.831284196806e-02 0.0 
1.382688513840e-04 3.407597172449e-02 0.0 
3.772520050475e-03 1.119219121507e-01 0.0 
2.755931449890e-03 1.124205737090e-01 0.0 
3.011453743362e-03 1.012413956848e-01 0.0 
2.173411430050e-03 1.026101189432e-01 0.0 
2.338236925901e-03 9.136021369002e-02 0.0 
1.505127400911e-03 9.280768706501e-02 0.0 
1.784072424059e-03 8.127632126437e-02 0.0 
9.444437120120e-03 1.659481863248e-02 0.0 
1.378232975636e-02 9.511651507518e-02 0.0 
2.201266701912e-02 1.209036234643e-01 0.0 
7.526755653053e-03 1.511584733643e-02 0.0 
8.811729003508e-03 1.902589738827e-02 0.0 
2.486691534951e-02 1.139499243716e-01 0.0 
2.249889908452e-02 1.219109516953e-01 0.0 
2.058839226098e-03 1.283991932315e-02 0.0 
2.359793574805e-02 6.984300113071e-02 0.0 
2.351021938694e-03 1.398563251863e-02 0.0 
-4.944901772628e-03 4.170160973976e-02 0.0 
1.098041417634e-03 4.103625982904e-02 0.0 
2.518650628838e-02 7.345678526148e-02 0.0 
2.631450701888e-02 1.059638928228e-01 0.0 
2.402388457972e-02 9.763907737135e-02 0.0 
2.266106234192e-02 1.069816578015e-01 0.0 
8.113494418378e-03 3.139185066546e-02 0.0 
6.417618423757e-04 6.230267309047e-02 0.0 
1.418353363627e-02 7.866895565857e-02 0.0 
2.596905412801e-03 7.997651122302e-02 0.0 
9.620692768348e-03 7.993754745861e-02 0.0 
5.966416786496e-05 3.106266241156e-02 0.0 
2.282184272178e-02 6.363742745764e-02 0.0 
2.797961657458e-02 8.921818133402e-02 0.0 
1.755226159896e-02 7.673491788615e-02 0.0 
2.380470241977e-02 8.481387684110e-02 0.0 
2.275830949879e-02 8.981040628411e-02 0.0 
2.040082973343e-02 1.039176256114e-01 0.0 
2.166411193016e-02 1.078384006756e-01 0.0 
2.158877906538e-02 5.839871151295e-02 0.0 
2.378770657121e-02 1.100417466604e-01 0.0 
2.055415100462e-02 1.171787631122e-01 0.0 
2.618989199628e-02 8.767719176050e-02 0.0 
1.190594740622e-02 5.154296584643e-02 0.0 
1.178295178674e-02 4.507752850197e-02 0.0 
9.149773374496e-03 3.259572945240e-02 0.0 
1.139893073334e-02 3.877942136254e-02 0.0 
1.401526820891e-02 5.134583254586e-02 0.0 
1.374641073414e-02 4.491523463830e-02 0.0 
1.073361850479e-02 3.272965777127e-02 0.0 
1.318417474741e-02 3.862560167151e-02 0.0 
8.958414573300e-03 2.426136970488e-02 0.0 
1.219728115615e-02 3.223973742159e-02 0.0 
1.562160036774e-02 4.440080065330e-02 0.0 
1.487005156672e-02 3.842982203809e-02 0.0 
1.144722726282e-02 2.777708144489e-02 0.0 
1.804567538315e-02 5.028748747587e-02 0.0 
6.177372240842e-03 1.165603312234e-02 0.0 
2.592795528581e-02 6.951231199849e-02 0.0 
3.125574530777e-03 3.768646688748e-02 0.0 
4.045548084715e-03 5.092574104848e-02 0.0 
2.771664991133e-02 8.952524237125e-02 0.0 
4.425763631680e-03 1.184222058549e-02 0.0 
3.693124897268e-03 1.206866854754e-02 0.0 
1.951139747083e-02 6.118949420655e-02 0.0 
5.102759590585e-03 9.563703594289e-03 0.0 
2.306494761955e-02 1.004437000835e-01 0.0 
1.217925236346e-02 5.008138527145e-02 0.0 
5.130927755388e-03 8.921678085276e-03 0.0 
1.400300165461e-02 5.782656110175e-02 0.0 
1.608767325390e-02 6.395703570958e-02 0.0 
1.568363101887e-02 7.050415772759e-02 0.0 
2.865075669355e-03 1.151433051350e-02 0.0 
1.103797724418e-02 8.989716651298e-02 0.0 
4.157047168093e-03 7.158838728458e-03 0.0 
1.868429441225e-02 4.265123553225e-02 0.0 
2.070584212338e-02 4.643880064505e-02 0.0 
2.154053653897e-02 5.023939480471e-02 0.0 
1.609450438107e-02 5.096507627337e-02 0.0 
3.094560321212e-03 6.699836702360e-03 0.0 
5.383061864681e-03 1.251308157233e-02 0.0 
4.700811188844e-03 1.227451143902e-02 0.0 
7.249890443543e-03 1.819079622629e-02 0.0 
2.342063436940e-03 6.430982258355e-03 0.0 
4.488647565289e-03 1.012754146195e-02 0.0 
4.451214535113e-03 9.343995222718e-03 0.0 
2.889388588686e-03 4.761830557955e-02 0.0 
5.278936366942e-03 4.658374269817e-02 0.0 
6.673885112113e-03 4.672881885589e-02 0.0 
7.939495368998e-03 4.632187592316e-02 0.0 
6.397946334850e-03 4.560344376630e-02 0.0 
9.358107014926e-03 4.630761316897e-02 0.0 
1.068609132373e-02 4.676012144074e-02 0.0 
1.091262381830e-02 4.695306523940e-02 0.0 
1.622572598971e-02 3.809907251932e-02 0.0 
1.615031708607e-03 6.069456410046e-03 0.0 
5.313703248431e-03 3.827178361720e-02 0.0 
6.503706239066e-03 3.941362286820e-02 0.0 
6.405162385050e-03 4.233693333020e-02 0.0 
5.302308342348e-04 5.409144492261e-02 0.0 
1.012655329045e-03 5.136934695167e-02 0.0 
1.285655850623e-03 4.801734547366e-02 0.0 
1.925878180211e-04 5.677335995161e-02 0.0 
2.286848824948e-02 4.815338651838e-02 0.0 
1.313035199107e-03 6.087459917467e-03 0.0 
1.230574657601e-02 3.894713081846e-02 0.0 
1.280583236296e-03 5.166091162151e-02 0.0 
1.359746918071e-02 1.207087067768e-01 0.0 
1.443404404758e-02 1.100847398955e-01 0.0 
1.584621633086e-02 1.088478657301e-01 0.0 
1.497267291189e-02 9.757162657892e-02 0.0 
1.286086401361e-02 1.095360993990e-01 0.0 
4.368773254946e-04 4.890176536609e-02 0.0 
3.133059455389e-04 4.757503961170e-02 0.0 
1.571402477447e-04 5.033368891463e-02 0.0 
2.160048419348e-04 4.601958210503e-02 0.0 
1.049136379478e-04 4.877654017280e-02 0.0 
5.954763202975e-05 5.284667839116e-02 0.0 
1.367427275025e-04 4.425527644683e-02 0.0 
5.699075181687e-05 4.752438853772e-02 0.0 
1.096511965868e-02 1.218798782584e-01 0.0 
6.516950993998e-04 3.828076711167e-02 0.0 
-1.040740857695e-03 4.251100833065e-02 0.0 
4.307447611751e-05 4.917083968799e-02 0.0 
-1.694293392527e-03 4.612503707175e-02 0.0 
-1.757997796869e-03 4.065292408306e-02 0.0 
-1.635911540150e-03 4.456070897279e-02 0.0 
-8.191483345765e-04 4.033599473700e-02 0.0 
-1.610339672226e-03 3.570928977766e-02 0.0 
3.343644236178e-03 5.239234944789e-02 0.0 
9.185100667963e-04 5.450756547335e-02 0.0 
3.921015698257e-03 5.725046601885e-02 0.0 
1.660127073674e-03 5.880194700473e-02 0.0 
-5.584225073729e-04 5.616062744783e-02 0.0 
-2.522429503991e-04 6.328181967652e-02 0.0 
6.252856855404e-05 7.460708603691e-03 0.0 
-1.406023498307e-05 5.875554433403e-02 0.0 
-3.992858607038e-05 6.030110520881e-02 0.0 
-6.807065928505e-05 6.337511023999e-02 0.0 
-7.818483900879e-05 6.138241517554e-02 0.0 
-1.107674914236e-05 5.711360576621e-02 0.0 
-3.588825244416e-05 6.513572792420e-02 0.0 
-6.368709322291e-05 6.588752266547e-02 0.0 
1.488008923680e-03 7.441331205572e-02 0.0 
8.673988892607e-04 7.450251100865e-02 0.0 
4.297407187890e-04 7.489344977418e-02 0.0 
4.424241535601e-04 7.418177560409e-02 0.0 
7.307337943021e-04 7.376845577772e-02 0.0 
1.275532614238e-03 7.395471282340e-02 0.0 
1.657162302316e-03 7.321101211223e-02 0.0 
2.558479291975e-03 7.294077408136e-02 0.0 
1.974495549868e-03 7.227203785148e-02 0.0 
1.168780923875e-03 7.226662738255e-02 0.0 
3.040347094887e-03 7.192742813624e-02 0.0 
5.718218090678e-04 6.395688733700e-02 0.0 
1.089274719753e-03 5.724919037730e-02 0.0 
8.802435675381e-04 6.473935671416e-03 0.0 
8.515730069931e-03 1.214297481690e-01 0.0 
4.188294600040e-03 6.422034812852e-02 0.0 
8.837931247854e-04 1.516669335902e-02 0.0 
1.354498660518e-03 1.255176791200e-02 0.0 
1.092595650135e-03 1.217479002646e-02 0.0 
3.205828380248e-05 1.837110309761e-02 0.0 
5.269788704854e-05 1.504892112414e-02 0.0 
4.769127402753e-04 1.475542913207e-02 0.0 
-2.825500658803e-04 6.141804861142e-02 0.0 
8.444379289195e-03 2.687930796638e-02 0.0 
2.497151084818e-03 3.930111358563e-02 0.0 
1.303589244737e-02 5.520412264745e-02 0.0 
-1.526922719677e-04 5.611536653235e-02 0.0 
2.422516571698e-04 3.634975313602e-02 0.0 
1.544534710156e-03 4.021630827705e-02 0.0 
4.088545782768e-04 2.391660379789e-02 0.0 
5.696978914740e-04 4.022547985113e-02 0.0 
9.744494054207e-04 2.855916319425e-02 0.0 
4.120642296241e-03 1.248952312814e-02 0.0 
3.251993092177e-04 7.193962438968e-02 0.0 
6.875277042354e-03 8.823567157034e-02 0.0 
4.418994901940e-03 9.291493592014e-02 0.0 
4.148033912287e-03 6.069506877480e-02 0.0 
-1.862074888503e-04 6.461971944280e-02 0.0 
8.448228413993e-05 5.407776428268e-02 0.0 
2.053173169179e-04 6.800148743587e-02 0.0 
9.312808070437e-03 1.714366413059e-02 0.0 
2.637618690372e-02 9.695885816610e-02 0.0 
5.010759578811e-03 4.439356182883e-02 0.0 
2.489908931942e-04 5.704743690613e-02 0.0 
-5.786443912115e-05 5.867877573700e-02 0.0 
-2.484488340624e-04 5.427901317895e-02 0.0 
2.694922753855e-02 7.166461343296e-02 0.0 
2.064891416286e-03 4.899432566313e-02 0.0 
3.107865797439e-03 3.119826054930e-02 0.0 
3.169340396610e-03 5.322572575362e-02 0.0 
3.624706786154e-03 6.897690976421e-02 0.0 
3.604593301535e-03 2.817581629876e-02 0.0 
2.620658255921e-03 4.248642494677e-02 0.0 
9.625084401243e-03 8.316135650375e-02 0.0 
1.342014623978e-02 3.013863886989e-02 0.0 
-1.536292549092e-03 4.875750861738e-02 0.0 
6.019774961693e-03 5.575597512243e-02 0.0 
6.021339450051e-03 3.128828879684e-02 0.0 
1.242434028574e-02 9.633869356106e-02 0.0 
8.149883726896e-04 6.928301135957e-02 0.0 
7.202765371517e-03 1.010512816633e-01 0.0 
3.198705269115e-03 1.624258515145e-02 0.0 
1.177611957659e-02 5.797552895098e-02 0.0 
-1.155399218540e-04 6.680927909990e-02 0.0 
1.453842969494e-02 4.365138413556e-02 0.0 
2.813881454295e-02 8.145987268508e-02 0.0 
1.927507292713e-02 1.251269323768e-01 0.0 
2.587524354922e-03 3.343862007436e-02 0.0 
2.425152098055e-02 5.543212162473e-02 0.0 
9.372047251944e-03 2.419239320495e-02 0.0 
1.354750681477e-02 3.772847224189e-02 0.0 
-1.116315398630e-04 6.651749075361e-02 0.0 
1.959469405904e-03 2.400668742087e-02 0.0 
2.013473414436e-02 4.952222001009e-02 0.0 
4.867195340012e-03 4.207428419188e-02 0.0 
2.200165202283e-02 4.936722228828e-02 0.0 
1.592616903663e-02 4.906377701839e-02 0.0 
7.948104094943e-03 5.049276122672e-02 0.0 
7.664798579487e-03 4.301740454433e-02 0.0 
1.332855775764e-02 2.791769141871e-02 0.0 
2.704383282283e-02 9.761169389867e-02 0.0 
2.612166537608e-02 6.622783457602e-02 0.0 
2.231459535775e-02 6.534875147029e-02 0.0 
2.627739833017e-02 6.145874661061e-02 0.0 
1.326169010749e-04 3.948337283263e-02 0.0 
2.702748391222e-03 2.616850695364e-02 0.0 
3.840223581413e-03 3.994256100899e-02 0.0 
2.548577236229e-02 8.069074604230e-02 0.0 
1.185870577474e-02 8.358605408833e-02 0.0 
1.576880287547e-02 3.001859896595e-02 0.0 
3.448273997911e-03 2.799853411797e-02 0.0 
2.788523118387e-02 8.812100272142e-02 0.0 
1.693834225301e-03 2.735783627370e-02 0.0 
6.266858636614e-03 3.723665188584e-02 0.0 
1.643233920179e-03 4.864445063147e-02 0.0 
6.351245303027e-05 7.191132196207e-02 0.0 
1.021056664066e-02 5.420680063550e-02 0.0 
1.398508700191e-02 4.949518737201e-02 0.0 
2.329556586277e-02 5.463451816842e-02 0.0 
1.901465153574e-03 4.525217151206e-02 0.0 
6.599611853474e-03 2.430233568839e-02 0.0 
1.183415547541e-03 2.518011643889e-02 0.0 
6.577805020614e-03 2.925987438477e-02 0.0 
8.717923439221e-04 7.139711290392e-02 0.0 
2.120567667001e-02 1.180288769727e-01 0.0 
7.879861078477e-04 2.282020316829e-02 0.0 
1.265984215787e-02 4.178193329623e-02 0.0 
1.122797913057e-02 2.467599550939e-02 0.0 
3.609970123208e-05 5.143150603327e-02 0.0 
9.303103705587e-03 1.664276176037e-02 0.0 
2.299786030223e-02 1.229569506412e-01 0.0 
4.930696767937e-04 2.028657248001e-02 0.0 
8.777410709211e-03 2.909351196517e-02 0.0 
2.172742841931e-02 6.569212221290e-02 0.0 
2.364889456935e-03 1.227850142715e-01 0.0 
2.775609299004e-04 1.274724357937e-02 0.0 
7.408715589934e-03 2.387585092158e-02 0.0 
2.483662417536e-02 5.502211140499e-02 0.0 
1.090959521711e-02 4.264897722756e-02 0.0 
2.034652982163e-02 1.309246928179e-01 0.0 
1.465805101873e-03 4.432513748967e-02 0.0 
2.506260791758e-02 6.445323103908e-02 0.0 
2.488133405024e-03 1.132913495135e-02 0.0 
7.577330592511e-03 2.145665941966e-02 0.0 
1.759714379119e-02 7.645572828856e-02 0.0 
9.812260713105e-04 4.718205344458e-02 0.0 
1.980592788351e-02 4.119296557912e-02 0.0 
9.884531166646e-04 7.313171230789e-02 0.0 
2.258667844293e-02 1.226768560744e-01 0.0 
7.301530644854e-04 4.608766967895e-02 0.0 
1.230873409721e-02 4.772388592311e-02 0.0 
9.288658893237e-03 4.152454482229e-02 0.0 
8.515168758652e-03 1.560396903108e-02 0.0 
5.290747458169e-04 4.474477848184e-02 0.0 
1.338059864036e-02 4.773191642727e-02 0.0 
3.701219722427e-04 4.317602936676e-02 0.0 
2.046239197188e-02 1.330043510083e-01 0.0 
1.810126629024e-02 6.957782077745e-02 0.0 
2.411669630868e-04 4.140303999049e-02 0.0 
2.301290401008e-02 5.549282400215e-02 0.0 
1.264878895105e-03 7.110525094411e-02 0.0 
2.338372292843e-02 4.957977354559e-02 0.0 
9.152326864625e-05 2.183569899898e-02 0.0 
1.270389427189e-03 5.325265287503e-02 0.0 
7.826630112826e-03 4.050224168291e-02 0.0 
1.622774011144e-02 5.740017079157e-02 0.0 
1.927843924370e-02 1.311816094508e-01 0.0 
7.698935890859e-03 3.738480297348e-02 0.0 
2.037680005130e-02 4.624591939254e-02 0.0 
2.169982309706e-02 4.459690044060e-02 0.0 
2.257254804355e-02 5.067909231002e-02 0.0 
7.278941113594e-03 3.363834944802e-02 0.0 
2.188384330466e-02 1.195299784921e-01 0.0 
-3.877744758007e-04 6.055045811765e-02 0.0 
-4.914428017067e-04 6.198323705998e-02 0.0 
1.166746929986e-02 4.649848554913e-02 0.0 
1.842460760411e-02 4.244573881769e-02 0.0 
3.855491627900e-04 7.315056213242e-02 0.0 
1.833979288000e-02 5.642865758213e-02 0.0 
-3.993283218371e-04 6.143891751548e-02 0.0 
9.159254176073e-03 4.635285285398e-02 0.0 
1.713144471735e-02 3.322434634621e-02 0.0 
6.821767836556e-04 8.960180008375e-02 0.0 
7.768991382378e-03 4.629991158473e-02 0.0 
6.316356723657e-06 7.001996125940e-02 0.0 
5.580432741164e-03 4.732130651423e-02 0.0 
2.140419635004e-02 4.617799462231e-02 0.0 
4.642836953563e-03 4.794701789492e-02 0.0 
2.955995109915e-03 4.988342024803e-02 0.0 
1.731438480356e-03 2.568108234587e-02 0.0 
2.424128004577e-03 5.072145410576e-02 0.0 
2.342793763646e-04 1.223493388637e-02 0.0 
1.634828097452e-05 6.833737024408e-03 0.0 
8.921300320708e-04 1.138757738894e-01 0.0 
1.625647829141e-02 1.269727507059e-01 0.0 
-2.615662951118e-03 2.700600591319e-02 0.0 
1.964755574816e-02 1.112764970811e-01 0.0 
5.505530087380e-04 5.478654860194e-02 0.0 
2.015567599836e-02 5.492158427618e-02 0.0 
1.854002313657e-03 1.133283318043e-01 0.0 
-1.001852497033e-04 5.760672259939e-02 0.0 
8.430239125481e-03 2.063630618646e-02 0.0 
4.554488141817e-03 7.664231915843e-03 0.0 
1.231427923216e-03 6.987219311113e-02 0.0 
9.348204269852e-03 2.189627802866e-02 0.0 
1.974160927156e-02 3.979769600588e-02 0.0 
3.536686120995e-04 3.739437055722e-02 0.0 
5.479112160693e-03 1.236667294186e-01 0.0 
2.190204007217e-03 6.232746142622e-02 0.0 
6.374500897410e-05 3.677567231746e-02 0.0 
1.287347625643e-02 1.177830845641e-01 0.0 
1.539436471934e-02 1.016568649231e-01 0.0 
1.167334633297e-02 8.789944232824e-02 0.0 
-9.131273582064e-05 6.620144801824e-02 0.0 
-9.997053241886e-04 5.152618962021e-02 0.0 
1.033374012287e-02 1.049688445946e-01 0.0 
6.149094012798e-03 1.318366828765e-02 0.0 
9.233846414887e-03 1.127546796423e-01 0.0 
1.657536963721e-02 3.143644165542e-02 0.0 
6.124449477710e-03 8.986470220411e-02 0.0 
4.336464652923e-03 2.430498654837e-02 0.0 
8.667587096809e-03 1.519262146723e-02 0.0 
4.513131267494e-04 5.780689305258e-03 0.0 
1.298376173596e-02 2.368537620951e-02 0.0 
6.957276705776e-03 7.100684135528e-02 0.0 
1.367367197870e-02 1.008173175774e-01 0.0 
9.239686882509e-03 1.768213054951e-02 0.0 
1.667790209204e-03 5.917989124147e-02 0.0 
2.200298396922e-04 5.615806833415e-03 0.0 
1.161961615693e-02 1.132257615740e-01 0.0 
1.051353172123e-03 2.399681582293e-02 0.0 
1.086716080332e-03 3.882538011982e-02 0.0 
5.303389452394e-04 2.330314373854e-02 0.0 
1.728756509176e-02 4.397135169993e-02 0.0 
3.794611404523e-03 9.863539747274e-02 0.0 
1.641800952333e-02 9.952587639221e-02 0.0 
7.015190264426e-05 1.180273332536e-02 0.0 
7.510415492497e-03 2.185032919641e-02 0.0 
4.121101472077e-03 6.019041624462e-02 0.0 
1.931641886280e-03 7.120400893037e-02 0.0 
-7.747759145005e-05 6.080469207439e-02 0.0 
-1.172553529965e-03 3.055128092210e-02 0.0 
1.512862072003e-03 1.179031367552e-02 0.0 
1.390333437752e-02 3.314994056995e-02 0.0 
1.734702174812e-04 1.195297308309e-02 0.0 
2.063303072584e-04 7.442417220681e-02 0.0 
2.680429488411e-03 6.751015388903e-02 0.0 
2.145674238152e-03 1.085529360124e-02 0.0 
8.431683804087e-03 1.794085902024e-02 0.0 
9.761160087152e-05 4.301490582228e-02 0.0 
1.449072520451e-03 9.782849367529e-03 0.0 
-3.513771119792e-04 5.012632904471e-02 0.0 
7.461679552506e-03 1.247859038819e-01 0.0 
2.297684624158e-03 7.125957275262e-02 0.0 
1.306522207623e-04 5.728825935432e-03 0.0 
2.549199957372e-03 2.287342109695e-02 0.0 
-2.727527324842e-05 5.848236332594e-02 0.0 
1.631521114069e-02 1.175080030389e-01 0.0 
-3.163490816060e-05 6.825764019945e-02 0.0 
1.237779687914e-02 2.262707214539e-02 0.0 
4.916649706423e-04 5.984253456689e-02 0.0 
1.729648296987e-03 2.165875577908e-02 0.0 
3.066300607824e-03 1.064972253338e-02 0.0 
5.231338302892e-03 2.081998992356e-02 0.0 
2.788772128962e-03 5.203537828546e-03 0.0 
-4.085049517570e-04 3.326465131482e-02 0.0 
7.794790830562e-03 1.349700320416e-02 0.0 
5.933300800207e-03 1.660090008079e-02 0.0 
4.119196216521e-03 1.241716386112e-01 0.0 
6.568355366767e-03 2.184963440116e-02 0.0 
-9.208966877194e-05 6.405101255038e-02 0.0 
7.482453902767e-04 7.122769308063e-02 0.0 
1.006216890929e-04 1.084378299419e-02 0.0 
4.819304008107e-04 7.499263653642e-02 0.0 
6.935234783896e-04 1.241118865347e-01 0.0 
7.944887174371e-06 5.583810701285e-03 0.0 
5.903889481003e-04 7.288842386173e-02 0.0 
1.471289304313e-03 1.050223726082e-01 0.0 
7.857385145883e-03 1.778489888431e-02 0.0 
1.292310547352e-05 5.082526196111e-02 0.0 
8.230903388267e-04 4.646467200042e-02 0.0 
-1.728788854559e-03 4.880770768427e-02 0.0 
-1.146863412760e-03 2.543767197839e-02 0.0 
1.178341706947e-03 8.320851354210e-02 0.0 
7.432738461585e-03 1.320509316824e-02 0.0 
4.051406114165e-03 2.022505753786e-02 0.0 
3.042487517916e-03 9.180604430237e-02 0.0 
7.369966345998e-03 5.486374814316e-02 0.0 
1.092414655772e-02 2.490266206339e-02 0.0 
1.531507157937e-05 5.568766843250e-02 0.0 
1.235095785694e-02 2.395040805792e-02 0.0 
7.526414280573e-03 1.726991305580e-02 0.0 
-5.520226014994e-03 5.197424598807e-02 0.0 
2.633824799569e-05 4.645881674525e-02 0.0 
2.592565627260e-03 7.008486080161e-02 0.0 
6.848807031465e-04 1.067648306161e-02 0.0 
1.615430340096e-05 5.422892900339e-02 0.0 
1.631516210748e-02 1.459685330080e-01 0.0 
4.965482566064e-04 1.595416685613e-01 0.0 
1.706124939838e-02 1.410227416903e-01 0.0 
4.618384889170e-04 1.490543869533e-01 0.0 
1.648675145478e-02 1.337967530268e-01 0.0 
4.728803565826e-04 1.381424846359e-01 0.0 

VECTORS node_bounda_dof_materi_velocity_x float
1.000000000000e+00 0.0 0.0 
1.000000000000e+00 0.0 0.0 
1.000000000000e+00 0.0 0.0 
1.000000000000e+00 0.0 0.0 
1.000000000000e+00 0.0 0.0 
1.000000000000e+00 0.0 0.0 
1.000000000000e+00 0.0 0.0 
1.000000000000e+00 0.0 0.0 
1.000000000000e+00 0.0 0.0 
1.000000000000e+00 0.0 0.0 
1.000000000000e+00 0.0 0.0 
1.000000000000e+00 0.0 0.0 
1.000000000000e+00 0.0 0.0 
1.000000000000e+00 0.0 0.0 
1.000000000000e+00 0.0 0.0 
1.000000000000e+00 0.0 0.0 
1.000000000000e+00 0.0 0.0 
1.000000000000e+00 0.0 0.0 
1.000000000000e+00 0.0 0.0 
1.000000000000e+00 0.0 0.0 
1.000000000000e+00 0.0 0.0 
1.000000000000e+00 0.0 0.0 
1.000000000000e+00 0.0 0.0 
1.000000000000e+00 0.0 0.0 
1.000000000000e+00 0.0 0.0 
1.000000000000e+00 0.0 0.0 
1.000000000000e+00 0.0 0.0 
1.000000000000e+00 0.0 0.0 
1.000000000000e+00 0.0 0.0 
1.000000000000e+00 0.0 0.0 
1.000000000000e+00 0.0 0.0 
1.000000000000e+00 0.0 0.0 
1.000000000000e+00 0.0 0.0 
1.000000000000e+00 0.0 0.0 
1.000000000000e+00 0.0 0.0 
1.000000000000e+00 0.0 0.0 
1.000000000000e+00 0.0 0.0 
1.000000000000e+00 0.0 0.0 
1.000000000000e+00 0.0 0.0 
1.000000000000e+00 0.0 0.0 
1.000000000000e+00 0.0 0.0 
1.000000000000e+00 0.0 0.0 
1.000000000000e+00 0.0 0.0 
1.000000000000e+00 0.0 0.0 
1.000000000000e+00 0.0 0.0 
1.000000000000e+00 0.0 0.0 
1.000000000000e+00 0.0 0.0 
1.000000000000e+00 0.0 0.0 
1.000000000000e+00 0.0 0.0 
1.000000000000e+00 0.0 0.0 
1.000000000000e+00 0.0 0.0 
1.000000000000e+00 0.0 0.0 
1.000000000000e+00 0.0 0.0 
1.000000000000e+00 0.0 0.0 
1.000000000000e+00 0.0 0.0 
1.000000000000e+00 0.0 0.0 
1.000000000000e+00 0.0 0.0 
1.000000000000e+00 0.0 0.0 
1.000000000000e+00 0.0 0.0 
1.000000000000e+00 0.0 0.0 
1.000000000000e+00 0.0 0.0 
1.000000000000e+00 0.0 0.0 
1.000000000000e+00 0.0 0.0 
1.000000000000e+00 0.0 0.0 
1.000000000000e+00 0.0 0.0 
1.000000000000e+00 0.0 0.0 
1.000000000000e+00 0.0 0.0 
1.000000000000e+00 0.0 0.0 
1.000000000000e+00 0.0 0.0 
1.000000000000e+00 0.0 0.0 
1.000000000000e+00 0.0 0.0 
1.000000000000e+00 0.0 0.0 
1.000000000000e+00 0.0 0.0 
1.000000000000e+00 0.0 0.0 
1.000000000000e+00 0.0 0.0 
1.000000000000e+00 0.0 0.0 
1.000000000000e+00 0.0 0.0 
1.000000000000e+00 0.0 0.0 
1.000000000000e+00 0.0 0.0 
1.000000000000e+00 0.0 0.0 
1.000000000000e+00 0.0 0.0 
0.0 0.0 0.0 
0.0 0.0 0.0 
0.0 0.0 0.0 
0.0 0.0 0.0 
0.0 0.0 0.0 
0.0 0.0 0.0 
0.0 0.0 0.0 
0.0 0.0 0.0 
0.0 0.0 0.0 
0.0 0.0 0.0 
0.0 0.0 0.0 
1.000000000000e+00 0.0 0.0 
1.000000000000e+00 0.0 0.0 
1.000000000000e+00 0.0 0.0 
0.0 0.0 0.0 
0.0 0.0 0.0 
0.0 0.0 0.0 
0.0 0.0 0.0 
0.0 0.0 0.0 
0.0 0.0 0.0 
0.0 0.0 0.0 
0.0 0.0 0.0 
0.0 0.0 0.0 
0.0 0.0 0.0 
0.0 0.0 0.0 
0.0 0.0 0.0 
0.0 0.0 0.0 
0.0 0.0 0.0 
0.0 0.0 0.0 
0.0 0.0 0.0 
0.0 0.0 0.0 
0.0 0.0 0.0 
0.0 0.0 0.0 
0.0 0.0 0.0 
0.0 0.0 0.0 
0.0 0.0 0.0 
0.0 0.0 0.0 
0.0 0.0 0.0 
0.0 0.0 0.0 
0.0 0.0 0.0 
0.0 0.0 0.0 
0.0 0.0 0.0 
0.0 0.0 0.0 
0.0 0.0 0.0 
0.0 0.0 0.0 
0.0 0.0 0.0 
0.0 0.0 0.0 
0.0 0.0 0.0 
0.0 0.0 0.0 
0.0 0.0 0.0 
0.0 0.0 0.0 
0.0 0.0 0.0 
0.0 0.0 0.0 
0.0 0.0 0.0 
0.0 0.0 0.0 
0.0 0.0 0.0 
0.0 0.0 0.0 
0.0 0.0 0.0 
0.0 0.0 0.0 
0.0 0.0 0.0 
0.0 0.0 0.0 
0.0 0.0 0.0 
0.0 0.0 0.0 
0.0 0.0 0.0 
0.0 0.0 0.0 
0.0 0.0 0.0 
0.0 0.0 0.0 
0.0 0.0 0.0 
0.0 0.0 0.0 
0.0 0.0 0.0 
0.0 0.0 0.0 
0.0 0.0 0.0 
0.0 0.0 0.0 
0.0 0.0 0.0 
0.0 0.0 0.0 
0.0 0.0 0.0 
0.0 0.0 0.0 
0.0 0.0 0.0 
0.0 0.0 0.0 
0.0 0.0 0.0 
0.0 0.0 0.0 
0.0 0.0 0.0 
0.0 0.0 0.0 
0.0 0.0 0.0 
0.0 0.0 0.0 
0.0 0.0 0.0 
0.0 0.0 0.0 
0.0 0.0 0.0 
0.0 0.0 0.0 
0.0 0.0 0.0 
0.0 0.0 0.0 
0.0 0.0 0.0 
0.0 0.0 0.0 
0.0 0.0 0.0 
0.0 0.0 0.0 
0.0 0.0 0.0 
0.0 0.0 0.0 
0.0 0.0 0.0 
0.0 0.0 0.0 
0.0 0.0 0.0 
0.0 0.0 0.0 
0.0 0.0 0.0 
0.0 0.0 0.0 
0.0 0.0 0.0 
0.0 0.0 0.0 
0.0 0.0 0.0 
0.0 0.0 0.0 
0.0 0.0 0.0 
0.0 0.0 0.0 
0.0 0.0 0.0 
0.0 0.0 0.0 
0.0 0.0 0.0 
0.0 0.0 0.0 
0.0 0.0 0.0 
0.0 0.0 0.0 
0.0 0.0 0.0 
0.0 0.0 0.0 
0.0 0.0 0.0 
0.0 0.0 0.0 
0.0 0.0 0.0 
0.0 0.0 0.0 
0.0 0.0 0.0 
0.0 0.0 0.0 
0.0 0.0 0.0 
0.0 0.0 0.0 
0.0 0.0 0.0 
0.0 0.0 0.0 
0.0 0.0 0.0 
0.0 0.0 0.0 
0.0 0.0 0.0 
0.0 0.0 0.0 
0.0 0.0 0.0 
0.0 0.0 0.0 
0.0 0.0 0.0 
0.0 0.0 0.0 
0.0 0.0 0.0 
0.0 0.0 0.0 
0.0 0.0 0.0 
0.0 0.0 0.0 
0.0 0.0 0.0 
0.0 0.0 0.0 
0.0 0.0 0.0 
0.0 0.0 0.0 
0.0 0.0 0.0 
0.0 0.0 0.0 
0.0 0.0 0.0 
0.0 0.0 0.0 
0.0 0.0 0.0 
0.0 0.0 0.0 
0.0 0.0 0.0 
0.0 0.0 0.0 
0.0 0.0 0.0 
0.0 0.0 0.0 
0.0 0.0 0.0 
0.0 0.0 0.0 
0.0 0.0 0.0 
0.0 0.0 0.0 
0.0 0.0 0.0 
0.0 0.0 0.0 
0.0 0.0 0.0 
0.0 0.0 0.0 
0.0 0.0 0.0 
0.0 0.0 0.0 
0.0 0.0 0.0 
0.0 0.0 0.0 
0.0 0.0 0.0 
0.0 0.0 0.0 
0.0 0.0 0.0 
0.0 0.0 0.0 
0.0 0.0 0.0 
0.0 0.0 0.0 
0.0 0.0 0.0 
0.0 0.0 0.0 
0.0 0.0 0.0 
0.0 0.0 0.0 
0.0 0.0 0.0 
0.0 0.0 0.0 
0.0 0.0 0.0 
0.0 0.0 0.0 
0.0 0.0 0.0 
0.0 0.0 0.0 
0.0 0.0 0.0 
0.0 0.0 0.0 
0.0 0.0 0.0 
0.0 0.0 0.0 
0.0 0.0 0.0 
0.0 0.0 0.0 
0.0 0.0 0.0 
0.0 0.0 0.0 
0.0 0.0 0.0 
0.0 0.0 0.0 
0.0 0.0 0.0 
0.0 0.0 0.0 
0.0 0.0 0.0 
0.0 0.0 0.0 
0.0 0.0 0.0 
0.0 0.0 0.0 
0.0 0.0 0.0 
0.0 0.0 0.0 
0.0 0.0 0.0 
0.0 0.0 0.0 
0.0 0.0 0.0 
0.0 0.0 0.0 
0.0 0.0 0.0 
0.0 0.0 0.0 
0.0 0.0 0.0 
0.0 0.0 0.0 
0.0 0.0 0.0 
0.0 0.0 0.0 
0.0 0.0 0.0 
0.0 0.0 0.0 
0.0 0.0 0.0 
0.0 0.0 0.0 
0.0 0.0 0.0 
0.0 0.0 0.0 
0.0 0.0 0.0 
0.0 0.0 0.0 
0.0 0.0 0.0 
0.0 0.0 0.0 
0.0 0.0 0.0 
0.0 0.0 0.0 
0.0 0.0 0.0 
0.0 0.0 0.0 
0.0 0.0 0.0 
0.0 0.0 0.0 
0.0 0.0 0.0 
0.0 0.0 0.0 
0.0 0.0 0.0 
0.0 0.0 0.0 
0.0 0.0 0.0 
0.0 0.0 0.0 
0.0 0.0 0.0 
0.0 0.0 0.0 
0.0 0.0 0.0 
0.0 0.0 0.0 
0.0 0.0 0.0 
0.0 0.0 0.0 
0.0 0.0 0.0 
0.0 0.0 0.0 
0.0 0.0 0.0 
0.0 0.0 0.0 
0.0 0.0 0.0 
0.0 0.0 0.0 
0.0 0.0 0.0 
0.0 0.0 0.0 
0.0 0.0 0.0 
0.0 0.0 0.0 
0.0 0.0 0.0 
0.0 0.0 0.0 
0.0 0.0 0.0 
0.0 0.0 0.0 
0.0 0.0 0.0 
0.0 0.0 0.0 
0.0 0.0 0.0 
0.0 0.0 0.0 
0.0 0.0 0.0 
0.0 0.0 0.0 
0.0 0.0 0.0 
0.0 0.0 0.0 
0.0 0.0 0.0 
0.0 0.0 0.0 
0.0 0.0 0.0 
0.0 0.0 0.0 
0.0 0.0 0.0 
0.0 0.0 0.0 
0.0 0.0 0.0 
0.0 0.0 0.0 
0.0 0.0 0.0 
0.0 0.0 0.0 
0.0 0.0 0.0 
0.0 0.0 0.0 
0.0 0.0 0.0 
0.0 0.0 0.0 
0.0 0.0 0.0 
0.0 0.0 0.0 
0.0 0.0 0.0 
0.0 0.0 0.0 
0.0 0.0 0.0 
0.0 0.0 0.0 
0.0 0.0 0.0 
0.0 0.0 0.0 
0.0 0.0 0.0 
0.0 0.0 0.0 
0.0 0.0 0.0 
0.0 0.0 0.0 
0.0 0.0 0.0 
0.0 0.0 0.0 
0.0 0.0 0.0 
0.0 0.0 0.0 
0.0 0.0 0.0 
0.0 0.0 0.0 
0.0 0.0 0.0 
0.0 0.0 0.0 
0.0 0.0 0.0 
0.0 0.0 0.0 
0.0 0.0 0.0 
0.0 0.0 0.0 
0.0 0.0 0.0 
0.0 0.0 0.0 
0.0 0.0 0.0 
0.0 0.0 0.0 
0.0 0.0 0.0 
0.0 0.0 0.0 
0.0 0.0 0.0 
0.0 0.0 0.0 
0.0 0.0 0.0 
0.0 0.0 0.0 
0.0 0.0 0.0 
0.0 0.0 0.0 
0.0 0.0 0.0 
0.0 0.0 0.0 
0.0 0.0 0.0 
0.0 0.0 0.0 
0.0 0.0 0.0 
0.0 0.0 0.0 
0.0 0.0 0.0 
0.0 0.0 0.0 
0.0 0.0 0.0 
0.0 0.0 0.0 
0.0 0.0 0.0 
0.0 0.0 0.0 
0.0 0.0 0.0 
0.0 0.0 0.0 
0.0 0.0 0.0 
0.0 0.0 0.0 
0.0 0.0 0.0 
0.0 0.0 0.0 
0.0 0.0 0.0 
0.0 0.0 0.0 
0.0 0.0 0.0 
0.0 0.0 0.0 
0.0 0.0 0.0 
0.0 0.0 0.0 
0.0 0.0 0.0 
0.0 0.0 0.0 
0.0 0.0 0.0 
0.0 0.0 0.0 
0.0 0.0 0.0 
0.0 0.0 0.0 
0.0 0.0 0.0 
0.0 0.0 0.0 
0.0 0.0 0.0 
0.0 0.0 0.0 
0.0 0.0 0.0 
0.0 0.0 0.0 
0.0 0.0 0.0 
0.0 0.0 0.0 
0.0 0.0 0.0 
0.0 0.0 0.0 
0.0 0.0 0.0 
0.0 0.0 0.0 
0.0 0.0 0.0 
0.0 0.0 0.0 
0.0 0.0 0.0 
0.0 0.0 0.0 
0.0 0.0 0.0 
0.0 0.0 0.0 
0.0 0.0 0.0 
0.0 0.0 0.0 
0.0 0.0 0.0 
0.0 0.0 0.0 
0.0 0.0 0.0 
0.0 0.0 0.0 
0.0 0.0 0.0 
0.0 0.0 0.0 
0.0 0.0 0.0 
0.0 0.0 0.0 
0.0 0.0 0.0 
0.0 0.0 0.0 
0.0 0.0 0.0 
0.0 0.0 0.0 
0.0 0.0 0.0 
0.0 0.0 0.0 
0.0 0.0 0.0 
0.0 0.0 0.0 
0.0 0.0 0.0 
0.0 0.0 0.0 
0.0 0.0 0.0 
0.0 0.0 0.0 
0.0 0.0 0.0 
0.0 0.0 0.0 
0.0 0.0 0.0 
0.0 0.0 0.0 
0.0 0.0 0.0 
0.0 0.0 0.0 
0.0 0.0 0.0 
0.0 0.0 0.0 
0.0 0.0 0.0 
0.0 0.0 0.0 
0.0 0.0 0.0 
0.0 0.0 0.0 
0.0 0.0 0.0 
0.0 0.0 0.0 
0.0 0.0 0.0 
0.0 0.0 0.0 
0.0 0.0 0.0 
0.0 0.0 0.0 
0.0 0.0 0.0 
0.0 0.0 0.0 
0.0 0.0 0.0 
0.0 0.0 0.0 
0.0 0.0 0.0 
0.0 0.0 0.0 
0.0 0.0 0.0 
0.0 0.0 0.0 
0.0 0.0 0.0 
0.0 0.0 0.0 
0.0 0.0 0.0 
0.0 0.0 0.0 
0.0 0.0 0.0 
0.0 0.0 0.0 
0.0 0.0 0.0 
0.0 0.0 0.0 
0.0 0.0 0.0 
0.0 0.0 0.0 
0.0 0.0 0.0 
0.0 0.0 0.0 
0.0 0.0 0.0 
0.0 0.0 0.0 
0.0 0.0 0.0 
0.0 0.0 0.0 
0.0 0.0 0.0 
0.0 0.0 0.0 
0.0 0.0 0.0 
0.0 0.0 0.0 
0.0 0.0 0.0 
0.0 0.0 0.0 
0.0 0.0 0.0 
0.0 0.0 0.0 
0.0 0.0 0.0 
0.0 0.0 0.0 
0.0 0.0 0.0 
0.0 0.0 0.0 
0.0 0.0 0.0 
0.0 0.0 0.0 
0.0 0.0 0.0 
0.0 0.0 0.0 
0.0 0.0 0.0 
0.0 0.0 0.0 
0.0 0.0 0.0 
0.0 0.0 0.0 
0.0 0.0 0.0 
0.0 0.0 0.0 
0.0 0.0 0.0 
0.0 0.0 0.0 
0.0 0.0 0.0 
0.0 0.0 0.0 
0.0 0.0 0.0 
0.0 0.0 0.0 
0.0 0.0 0.0 
0.0 0.0 0.0 
0.0 0.0 0.0 
0.0 0.0 0.0 
0.0 0.0 0.0 
0.0 0.0 0.0 
0.0 0.0 0.0 
0.0 0.0 0.0 
0.0 0.0 0.0 
0.0 0.0 0.0 
0.0 0.0 0.0 
0.0 0.0 0.0 
0.0 0.0 0.0 
0.0 0.0 0.0 
0.0 0.0 0.0 
0.0 0.0 0.0 
0.0 0.0 0.0 
0.0 0.0 0.0 
0.0 0.0 0.0 
0.0 0.0 0.0 
0.0 0.0 0.0 
0.0 0.0 0.0 
0.0 0.0 0.0 
0.0 0.0 0.0 
0.0 0.0 0.0 
0.0 0.0 0.0 
0.0 0.0 0.0 
0.0 0.0 0.0 
0.0 0.0 0.0 
0.0 0.0 0.0 
0.0 0.0 0.0 
0.0 0.0 0.0 
0.0 0.0 0.0 
0.0 0.0 0.0 
0.0 0.0 0.0 
0.0 0.0 0.0 
0.0 0.0 0.0 
0.0 0.0 0.0 
0.0 0.0 0.0 
0.0 0.0 0.0 
0.0 0.0 0.0 
0.0 0.0 0.0 
0.0 0.0 0.0 
0.0 0.0 0.0 
0.0 0.0 0.0 
0.0 0.0 0.0 
0.0 0.0 0.0 
0.0 0.0 0.0 
0.0 0.0 0.0 
0.0 0.0 0.0 
0.0 0.0 0.0 
0.0 0.0 0.0 
0.0 0.0 0.0 
0.0 0.0 0.0 
0.0 0.0 0.0 
0.0 0.0 0.0 
0.0 0.0 0.0 
0.0 0.0 0.0 
0.0 0.0 0.0 
0.0 0.0 0.0 
0.0 0.0 0.0 
0.0 0.0 0.0 
0.0 0.0 0.0 
0.0 0.0 0.0 
0.0 0.0 0.0 
0.0 0.0 0.0 
0.0 0.0 0.0 
0.0 0.0 0.0 
0.0 0.0 0.0 
0.0 0.0 0.0 
0.0 0.0 0.0 
0.0 0.0 0.0 
0.0 0.0 0.0 
0.0 0.0 0.0 
0.0 0.0 0.0 
0.0 0.0 0.0 
0.0 0.0 0.0 
0.0 0.0 0.0 
0.0 0.0 0.0 
0.0 0.0 0.0 
0.0 0.0 0.0 
0.0 0.0 0.0 
0.0 0.0 0.0 
0.0 0.0 0.0 
0.0 0.0 0.0 
0.0 0.0 0.0 
0.0 0.0 0.0 
0.0 0.0 0.0 
0.0 0.0 0.0 
0.0 0.0 0.0 
0.0 0.0 0.0 
0.0 0.0 0.0 
0.0 0.0 0.0 
0.0 0.0 0.0 
0.0 0.0 0.0 
0.0 0.0 0.0 
0.0 0.0 0.0 
0.0 0.0 0.0 
0.0 0.0 0.0 
0.0 0.0 0.0 
0.0 0.0 0.0 
0.0 0.0 0.0 
0.0 0.0 0.0 
0.0 0.0 0.0 
0.0 0.0 0.0 
0.0 0.0 0.0 
0.0 0.0 0.0 
0.0 0.0 0.0 
0.0 0.0 0.0 
0.0 0.0 0.0 
0.0 0.0 0.0 
0.0 0.0 0.0 
0.0 0.0 0.0 
0.0 0.0 0.0 
0.0 0.0 0.0 
0.0 0.0 0.0 
0.0 0.0 0.0 
0.0 0.0 0.0 
0.0 0.0 0.0 
0.0 0.0 0.0 
0.0 0.0 0.0 
0.0 0.0 0.0 
0.0 0.0 0.0 
0.0 0.0 0.0 
0.0 0.0 0.0 
0.0 0.0 0.0 
0.0 0.0 0.0 
0.0 0.0 0.0 
0.0 0.0 0.0 
0.0 0.0 0.0 
0.0 0.0 0.0 
0.0 0.0 0.0 
0.0 0.0 0.0 
0.0 0.0 0.0 
0.0 0.0 0.0 
0.0 0.0 0.0 
0.0 0.0 0.0 
0.0 0.0 0.0 
0.0 0.0 0.0 
0.0 0.0 0.0 
0.0 0.0 0.0 
0.0 0.0 0.0 
0.0 0.0 0.0 
0.0 0.0 0.0 
0.0 0.0 0.0 
0.0 0.0 0.0 
0.0 0.0 0.0 
0.0 0.0 0.0 
0.0 0.0 0.0 
0.0 0.0 0.0 
0.0 0.0 0.0 
0.0 0.0 0.0 
0.0 0.0 0.0 
0.0 0.0 0.0 
0.0 0.0 0.0 
0.0 0.0 0.0 
0.0 0.0 0.0 
0.0 0.0 0.0 
0.0 0.0 0.0 
0.0 0.0 0.0 
0.0 0.0 0.0 
0.0 0.0 0.0 
0.0 0.0 0.0 
0.0 0.0 0.0 
0.0 0.0 0.0 
0.0 0.0 0.0 
0.0 0.0 0.0 
0.0 0.0 0.0 
0.0 0.0 0.0 
0.0 0.0 0.0 
0.0 0.0 0.0 
0.0 0.0 0.0 
0.0 0.0 0.0 
0.0 0.0 0.0 
0.0 0.0 0.0 
0.0 0.0 0.0 
0.0 0.0 0.0 
0.0 0.0 0.0 
0.0 0.0 0.0 
0.0 0.0 0.0 
0.0 0.0 0.0 
0.0 0.0 0.0 
0.0 0.0 0.0 
0.0 0.0 0.0 
0.0 0.0 0.0 
0.0 0.0 0.0 
0.0 0.0 0.0 
0.0 0.0 0.0 
0.0 0.0 0.0 
0.0 0.0 0.0 
0.0 0.0 0.0 
0.0 0.0 0.0 
0.0 0.0 0.0 
0.0 0.0 0.0 
0.0 0.0 0.0 
0.0 0.0 0.0 
0.0 0.0 0.0 
0.0 0.0 0.0 
0.0 0.0 0.0 
0.0 0.0 0.0 
0.0 0.0 0.0 
0.0 0.0 0.0 
0.0 0.0 0.0 
0.0 0.0 0.0 
0.0 0.0 0.0 
0.0 0.0 0.0 
0.0 0.0 0.0 
0.0 0.0 0.0 
0.0 0.0 0.0 
0.0 0.0 0.0 
0.0 0.0 0.0 
0.0 0.0 0.0 
0.0 0.0 0.0 
0.0 0.0 0.0 
0.0 0.0 0.0 
0.0 0.0 0.0 
0.0 0.0 0.0 
0.0 0.0 0.0 
0.0 0.0 0.0 
0.0 0.0 0.0 
0.0 0.0 0.0 
0.0 0.0 0.0 
0.0 0.0 0.0 
0.0 0.0 0.0 
0.0 0.0 0.0 
0.0 0.0 0.0 
0.0 0.0 0.0 
0.0 0.0 0.0 
0.0 0.0 0.0 
0.0 0.0 0.0 
0.0 0.0 0.0 
0.0 0.0 0.0 
0.0 0.0 0.0 
0.0 0.0 0.0 
0.0 0.0 0.0 
0.0 0.0 0.0 
0.0 0.0 0.0 
0.0 0.0 0.0 
0.0 0.0 0.0 
0.0 0.0 0.0 
0.0 0.0 0.0 
0.0 0.0 0.0 
0.0 0.0 0.0 
0.0 0.0 0.0 
0.0 0.0 0.0 
0.0 0.0 0.0 
0.0 0.0 0.0 
0.0 0.0 0.0 
0.0 0.0 0.0 
0.0 0.0 0.0 
0.0 0.0 0.0 
0.0 0.0 0.0 
0.0 0.0 0.0 
0.0 0.0 0.0 
0.0 0.0 0.0 
0.0 0.0 0.0 
0.0 0.0 0.0 
0.0 0.0 0.0 
0.0 0.0 0.0 
0.0 0.0 0.0 
0.0 0.0 0.0 
0.0 0.0 0.0 
0.0 0.0 0.0 
0.0 0.0 0.0 
0.0 0.0 0.0 
0.0 0.0 0.0 
0.0 0.0 0.0 
0.0 0.0 0.0 
0.0 0.0 0.0 
0.0 0.0 0.0 
0.0 0.0 0.0 
0.0 0.0 0.0 
0.0 0.0 0.0 
0.0 0.0 0.0 
0.0 0.0 0.0 
0.0 0.0 0.0 
0.0 0.0 0.0 
0.0 0.0 0.0 
0.0 0.0 0.0 
0.0 0.0 0.0 
0.0 0.0 0.0 
0.0 0.0 0.0 
0.0 0.0 0.0 
0.0 0.0 0.0 
0.0 0.0 0.0 
0.0 0.0 0.0 
0.0 0.0 0.0 
0.0 0.0 0.0 
0.0 0.0 0.0 
0.0 0.0 0.0 
0.0 0.0 0.0 
0.0 0.0 0.0 
0.0 0.0 0.0 
0.0 0.0 0.0 
0.0 0.0 0.0 
0.0 0.0 0.0 
0.0 0.0 0.0 
0.0 0.0 0.0 
0.0 0.0 0.0 
0.0 0.0 0.0 
0.0 0.0 0.0 
0.0 0.0 0.0 
0.0 0.0 0.0 
0.0 0.0 0.0 
0.0 0.0 0.0 
0.0 0.0 0.0 
0.0 0.0 0.0 
0.0 0.0 0.0 
0.0 0.0 0.0 
0.0 0.0 0.0 
0.0 0.0 0.0 
0.0 0.0 0.0 
0.0 0.0 0.0 
0.0 0.0 0.0 
0.0 0.0 0.0 
0.0 0.0 0.0 
0.0 0.0 0.0 
0.0 0.0 0.0 
0.0 0.0 0.0 
0.0 0.0 0.0 
0.0 0.0 0.0 
0.0 0.0 0.0 
0.0 0.0 0.0 
0.0 0.0 0.0 
0.0 0.0 0.0 
0.0 0.0 0.0 
0.0 0.0 0.0 
0.0 0.0 0.0 
0.0 0.0 0.0 
0.0 0.0 0.0 
0.0 0.0 0.0 
0.0 0.0 0.0 
0.0 0.0 0.0 
0.0 0.0 0.0 
0.0 0.0 0.0 
0.0 0.0 0.0 
0.0 0.0 0.0 
0.0 0.0 0.0 
0.0 0.0 0.0 
0.0 0.0 0.0 
0.0 0.0 0.0 
0.0 0.0 0.0 
0.0 0.0 0.0 
0.0 0.0 0.0 
0.0 0.0 0.0 
0.0 0.0 0.0 
0.0 0.0 0.0 
0.0 0.0 0.0 
0.0 0.0 0.0 
0.0 0.0 0.0 
0.0 0.0 0.0 
0.0 0.0 0.0 
0.0 0.0 0.0 
0.0 0.0 0.0 
0.0 0.0 0.0 
0.0 0.0 0.0 
0.0 0.0 0.0 
0.0 0.0 0.0 
0.0 0.0 0.0 
0.0 0.0 0.0 
0.0 0.0 0.0 
0.0 0.0 0.0 
0.0 0.0 0.0 
0.0 0.0 0.0 
0.0 0.0 0.0 
0.0 0.0 0.0 
0.0 0.0 0.0 
0.0 0.0 0.0 
0.0 0.0 0.0 
0.0 0.0 0.0 
0.0 0.0 0.0 
0.0 0.0 0.0 
0.0 0.0 0.0 
0.0 0.0 0.0 
0.0 0.0 0.0 
0.0 0.0 0.0 
0.0 0.0 0.0 
0.0 0.0 0.0 
0.0 0.0 0.0 
0.0 0.0 0.0 
0.0 0.0 0.0 
0.0 0.0 0.0 
0.0 0.0 0.0 
0.0 0.0 0.0 
0.0 0.0 0.0 
0.0 0.0 0.0 
0.0 0.0 0.0 
0.0 0.0 0.0 
0.0 0.0 0.0 
0.0 0.0 0.0 
0.0 0.0 0.0 
0.0 0.0 0.0 
0.0 0.0 0.0 
0.0 0.0 0.0 
0.0 0.0 0.0 
0.0 0.0 0.0 
0.0 0.0 0.0 
0.0 0.0 0.0 
0.0 0.0 0.0 
0.0 0.0 0.0 
0.0 0.0 0.0 
0.0 0.0 0.0 
0.0 0.0 0.0 
0.0 0.0 0.0 
0.0 0.0 0.0 
0.0 0.0 0.0 
0.0 0.0 0.0 
0.0 0.0 0.0 
0.0 0.0 0.0 
0.0 0.0 0.0 
0.0 0.0 0.0 
0.0 0.0 0.0 
0.0 0.0 0.0 
0.0 0.0 0.0 
0.0 0.0 0.0 
0.0 0.0 0.0 
0.0 0.0 0.0 
0.0 0.0 0.0 
0.0 0.0 0.0 
0.0 0.0 0.0 
0.0 0.0 0.0 
0.0 0.0 0.0 
0.0 0.0 0.0 
0.0 0.0 0.0 
0.0 0.0 0.0 
0.0 0.0 0.0 
0.0 0.0 0.0 
0.0 0.0 0.0 
0.0 0.0 0.0 
0.0 0.0 0.0 
0.0 0.0 0.0 
0.0 0.0 0.0 
0.0 0.0 0.0 
0.0 0.0 0.0 
0.0 0.0 0.0 
0.0 0.0 0.0 
0.0 0.0 0.0 
0.0 0.0 0.0 
0.0 0.0 0.0 
0.0 0.0 0.0 
0.0 0.0 0.0 
0.0 0.0 0.0 
0.0 0.0 0.0 
0.0 0.0 0.0 
0.0 0.0 0.0 
0.0 0.0 0.0 
0.0 0.0 0.0 
0.0 0.0 0.0 
0.0 0.0 0.0 
0.0 0.0 0.0 
0.0 0.0 0.0 
0.0 0.0 0.0 
0.0 0.0 0.0 
0.0 0.0 0.0 
0.0 0.0 0.0 
0.0 0.0 0.0 
0.0 0.0 0.0 
0.0 0.0 0.0 
0.0 0.0 0.0 
0.0 0.0 0.0 
0.0 0.0 0.0 
0.0 0.0 0.0 
0.0 0.0 0.0 
0.0 0.0 0.0 
0.0 0.0 0.0 
0.0 0.0 0.0 
0.0 0.0 0.0 
0.0 0.0 0.0 
0.0 0.0 0.0 
0.0 0.0 0.0 
0.0 0.0 0.0 
0.0 0.0 0.0 
0.0 0.0 0.0 
0.0 0.0 0.0 
0.0 0.0 0.0 
0.0 0.0 0.0 
0.0 0.0 0.0 
0.0 0.0 0.0 
0.0 0.0 0.0 
0.0 0.0 0.0 
0.0 0.0 0.0 
0.0 0.0 0.0 
0.0 0.0 0.0 
0.0 0.0 0.0 
0.0 0.0 0.0 
0.0 0.0 0.0 
0.0 0.0 0.0 
0.0 0.0 0.0 
0.0 0.0 0.0 
0.0 0.0 0.0 
0.0 0.0 0.0 
0.0 0.0 0.0 
0.0 0.0 0.0 
0.0 0.0 0.0 
0.0 0.0 0.0 
0.0 0.0 0.0 
0.0 0.0 0.0 
0.0 0.0 0.0 
0.0 0.0 0.0 
0.0 0.0 0.0 
0.0 0.0 0.0 
0.0 0.0 0.0 
0.0 0.0 0.0 
0.0 0.0 0.0 
0.0 0.0 0.0 
0.0 0.0 0.0 
0.0 0.0 0.0 
0.0 0.0 0.0 
0.0 0.0 0.0 
0.0 0.0 0.0 
0.0 0.0 0.0 
0.0 0.0 0.0 
0.0 0.0 0.0 
0.0 0.0 0.0 
0.0 0.0 0.0 
0.0 0.0 0.0 
0.0 0.0 0.0 
0.0 0.0 0.0 
0.0 0.0 0.0 
0.0 0.0 0.0 
0.0 0.0 0.0 
0.0 0.0 0.0 
0.0 0.0 0.0 
0.0 0.0 0.0 
0.0 0.0 0.0 
0.0 0.0 0.0 
0.0 0.0 0.0 
0.0 0.0 0.0 
0.0 0.0 0.0 
0.0 0.0 0.0 
0.0 0.0 0.0 
0.0 0.0 0.0 
0.0 0.0 0.0 
0.0 0.0 0.0 
0.0 0.0 0.0 
0.0 0.0 0.0 
0.0 0.0 0.0 
0.0 0.0 0.0 
0.0 0.0 0.0 
0.0 0.0 0.0 
0.0 0.0 0.0 
0.0 0.0 0.0 
0.0 0.0 0.0 
0.0 0.0 0.0 
0.0 0.0 0.0 
0.0 0.0 0.0 
0.0 0.0 0.0 
0.0 0.0 0.0 
0.0 0.0 0.0 
0.0 0.0 0.0 
0.0 0.0 0.0 
0.0 0.0 0.0 
0.0 0.0 0.0 
0.0 0.0 0.0 
0.0 0.0 0.0 
0.0 0.0 0.0 
0.0 0.0 0.0 
0.0 0.0 0.0 
0.0 0.0 0.0 

VECTORS node_bounda_dof_materi_velocity_y float
0.0 0.0 0.0 
0.0 0.0 0.0 
0.0 1.000000000000e+00 0.0 
0.0 1.000000000000e+00 0.0 
0.0 0.0 0.0 
0.0 0.0 0.0 
0.0 0.0 0.0 
0.0 0.0 0.0 
0.0 0.0 0.0 
0.0 0.0 0.0 
0.0 0.0 0.0 
0.0 0.0 0.0 
0.0 0.0 0.0 
0.0 0.0 0.0 
0.0 0.0 0.0 
0.0 0.0 0.0 
0.0 0.0 0.0 
0.0 0.0 0.0 
0.0 0.0 0.0 
0.0 0.0 0.0 
0.0 0.0 0.0 
0.0 0.0 0.0 
0.0 0.0 0.0 
0.0 1.000000000000e+00 0.0 
0.0 1.000000000000e+00 0.0 
0.0 1.000000000000e+00 0.0 
0.0 1.000000000000e+00 0.0 
0.0 1.000000000000e+00 0.0 
0.0 1.000000000000e+00 0.0 
0.0 1.000000000000e+00 0.0 
0.0 1.000000000000e+00 0.0 
0.0 1.000000000000e+00 0.0 
0.0 1.000000000000e+00 0.0 
0.0 1.000000000000e+00 0.0 
0.0 1.000000000000e+00 0.0 
0.0 1.000000000000e+00 0.0 
0.0 1.000000000000e+00 0.0 
0.0 1.000000000000e+00 0.0 
0.0 1.000000000000e+00 0.0 
0.0 1.000000000000e+00 0.0 
0.0 1.000000000000e+00 0.0 
0.0 1.000000000000e+00 0.0 
0.0 1.000000000000e+00 0.0 
0.0 1.000000000000e+00 0.0 
0.0 1.000000000000e+00 0.0 
0.0 1.000000000000e+00 0.0 
0.0 1.000000000000e+00 0.0 
0.0 1.000000000000e+00 0.0 
0.0 1.000000000000e+00 0.0 
0.0 1.000000000000e+00 0.0 
0.0 1.000000000000e+00 0.0 
0.0 1.000000000000e+00 0.0 
0.0 1.000000000000e+00 0.0 
0.0 1.000000000000e+00 0.0 
0.0 1.000000000000e+00 0.0 
0.0 1.000000000000e+00 0.0 
0.0 1.000000000000e+00 0.0 
0.0 1.000000000000e+00 0.0 
0.0 1.000000000000e+00 0.0 
0.0 1.000000000000e+00 0.0 
0.0 1.000000000000e+00 0.0 
0.0 1.000000000000e+00 0.0 
0.0 1.000000000000e+00 0.0 
0.0 1.000000000000e+00 0.0 
0.0 1.000000000000e+00 0.0 
0.0 1.000000000000e+00 0.0 
0.0 1.000000000000e+00 0.0 
0.0 1.000000000000e+00 0.0 
0.0 1.000000000000e+00 0.0 
0.0 1.000000000000e+00 0.0 
0.0 1.000000000000e+00 0.0 
0.0 1.000000000000e+00 0.0 
0.0 0.0 0.0 
0.0 0.0 0.0 
0.0 0.0 0.0 
0.0 0.0 0.0 
0.0 0.0 0.0 
0.0 0.0 0.0 
0.0 0.0 0.0 
0.0 0.0 0.0 
0.0 0.0 0.0 
0.0 0.0 0.0 
0.0 0.0 0.0 
0.0 0.0 0.0 
0.0 0.0 0.0 
0.0 0.0 0.0 
0.0 0.0 0.0 
0.0 0.0 0.0 
0.0 0.0 0.0 
0.0 0.0 0.0 
0.0 0.0 0.0 
0.0 0.0 0.0 
0.0 0.0 0.0 
0.0 0.0 0.0 
0.0 0.0 0.0 
0.0 0.0 0.0 
0.0 0.0 0.0 
0.0 0.0 0.0 
0.0 0.0 0.0 
0.0 0.0 0.0 
0.0 0.0 0.0 
0.0 0.0 0.0 
0.0 0.0 0.0 
0.0 0.0 0.0 
0.0 0.0 0.0 
0.0 0.0 0.0 
0.0 0.0 0.0 
0.0 0.0 0.0 
0.0 0.0 0.0 
0.0 0.0 0.0 
0.0 0.0 0.0 
0.0 0.0 0.0 
0.0 0.0 0.0 
0.0 0.0 0.0 
0.0 0.0 0.0 
0.0 0.0 0.0 
0.0 0.0 0.0 
0.0 0.0 0.0 
0.0 0.0 0.0 
0.0 0.0 0.0 
0.0 0.0 0.0 
0.0 0.0 0.0 
0.0 0.0 0.0 
0.0 0.0 0.0 
0.0 0.0 0.0 
0.0 0.0 0.0 
0.0 0.0 0.0 
0.0 0.0 0.0 
0.0 0.0 0.0 
0.0 0.0 0.0 
0.0 0.0 0.0 
0.0 0.0 0.0 
0.0 0.0 0.0 
0.0 0.0 0.0 
0.0 0.0 0.0 
0.0 0.0 0.0 
0.0 0.0 0.0 
0.0 0.0 0.0 
0.0 0.0 0.0 
0.0 0.0 0.0 
0.0 0.0 0.0 
0.0 0.0 0.0 
0.0 0.0 0.0 
0.0 0.0 0.0 
0.0 0.0 0.0 
0.0 0.0 0.0 
0.0 0.0 0.0 
0.0 0.0 0.0 
0.0 0.0 0.0 
0.0 0.0 0.0 
0.0 0.0 0.0 
0.0 0.0 0.0 
0.0 0.0 0.0 
0.0 0.0 0.0 
0.0 0.0 0.0 
0.0 0.0 0.0 
0.0 0.0 0.0 
0.0 0.0 0.0 
0.0 0.0 0.0 
0.0 0.0 0.0 
0.0 0.0 0.0 
0.0 0.0 0.0 
0.0 0.0 0.0 
0.0 0.0 0.0 
0.0 0.0 0.0 
0.0 0.0 0.0 
0.0 0.0 0.0 
0.0 0.0 0.0 
0.0 0.0 0.0 
0.0 0.0 0.0 
0.0 0.0 0.0 
0.0 0.0 0.0 
0.0 0.0 0.0 
0.0 0.0 0.0 
0.0 0.0 0.0 
0.0 0.0 0.0 
0.0 0.0 0.0 
0.0 0.0 0.0 
0.0 0.0 0.0 
0.0 0.0 0.0 
0.0 0.0 0.0 
0.0 0.0 0.0 
0.0 0.0 0.0 
0.0 0.0 0.0 
0.0 0.0 0.0 
0.0 0.0 0.0 
0.0 0.0 0.0 
0.0 0.0 0.0 
0.0 0.0 0.0 
0.0 0.0 0.0 
0.0 0.0 0.0 
0.0 0.0 0.0 
0.0 0.0 0.0 
0.0 0.0 0.0 
0.0 0.0 0.0 
0.0 0.0 0.0 
0.0 0.0 0.0 
0.0 0.0 0.0 
0.0 0.0 0.0 
0.0 0.0 0.0 
0.0 0.0 0.0 
0.0 0.0 0.0 
0.0 0.0 0.0 
0.0 0.0 0.0 
0.0 0.0 0.0 
0.0 0.0 0.0 
0.0 0.0 0.0 
0.0 0.0 0.0 
0.0 0.0 0.0 
0.0 0.0 0.0 
0.0 0.0 0.0 
0.0 0.0 0.0 
0.0 0.0 0.0 
0.0 0.0 0.0 
0.0 0.0 0.0 
0.0 0.0 0.0 
0.0 0.0 0.0 
0.0 0.0 0.0 
0.0 0.0 0.0 
0.0 0.0 0.0 
0.0 0.0 0.0 
0.0 0.0 0.0 
0.0 0.0 0.0 
0.0 0.0 0.0 
0.0 0.0 0.0 
0.0 0.0 0.0 
0.0 0.0 0.0 
0.0 0.0 0.0 
0.0 0.0 0.0 
0.0 0.0 0.0 
0.0 0.0 0.0 
0.0 0.0 0.0 
0.0 0.0 0.0 
0.0 0.0 0.0 
0.0 0.0 0.0 
0.0 0.0 0.0 
0.0 0.0 0.0 
0.0 0.0 0.0 
0.0 0.0 0.0 
0.0 0.0 0.0 
0.0 0.0 0.0 
0.0 0.0 0.0 
0.0 0.0 0.0 
0.0 0.0 0.0 
0.0 0.0 0.0 
0.0 0.0 0.0 
0.0 0.0 0.0 
0.0 0.0 0.0 
0.0 0.0 0.0 
0.0 0.0 0.0 
0.0 0.0 0.0 
0.0 0.0 0.0 
0.0 0.0 0.0 
0.0 0.0 0.0 
0.0 0.0 0.0 
0.0 0.0 0.0 
0.0 0.0 0.0 
0.0 0.0 0.0 
0.0 0.0 0.0 
0.0 0.0 0.0 
0.0 0.0 0.0 
0.0 0.0 0.0 
0.0 0.0 0.0 
0.0 0.0 0.0 
0.0 0.0 0.0 
0.0 0.0 0.0 
0.0 0.0 0.0 
0.0 0.0 0.0 
0.0 0.0 0.0 
0.0 0.0 0.0 
0.0 0.0 0.0 
0.0 0.0 0.0 
0.0 0.0 0.0 
0.0 0.0 0.0 
0.0 0.0 0.0 
0.0 0.0 0.0 
0.0 0.0 0.0 
0.0 0.0 0.0 
0.0 0.0 0.0 
0.0 0.0 0.0 
0.0 0.0 0.0 
0.0 0.0 0.0 
0.0 0.0 0.0 
0.0 0.0 0.0 
0.0 0.0 0.0 
0.0 0.0 0.0 
0.0 0.0 0.0 
0.0 0.0 0.0 
0.0 0.0 0.0 
0.0 0.0 0.0 
0.0 0.0 0.0 
0.0 0.0 0.0 
0.0 0.0 0.0 
0.0 0.0 0.0 
0.0 0.0 0.0 
0.0 0.0 0.0 
0.0 0.0 0.0 
0.0 0.0 0.0 
0.0 0.0 0.0 
0.0 0.0 0.0 
0.0 0.0 0.0 
0.0 0.0 0.0 
0.0 0.0 0.0 
0.0 0.0 0.0 
0.0 0.0 0.0 
0.0 0.0 0.0 
0.0 0.0 0.0 
0.0 0.0 0.0 
0.0 0.0 0.0 
0.0 0.0 0.0 
0.0 0.0 0.0 
0.0 0.0 0.0 
0.0 0.0 0.0 
0.0 0.0 0.0 
0.0 0.0 0.0 
0.0 0.0 0.0 
0.0 0.0 0.0 
0.0 0.0 0.0 
0.0 0.0 0.0 
0.0 0.0 0.0 
0.0 0.0 0.0 
0.0 0.0 0.0 
0.0 0.0 0.0 
0.0 0.0 0.0 
0.0 0.0 0.0 
0.0 0.0 0.0 
0.0 0.0 0.0 
0.0 0.0 0.0 
0.0 0.0 0.0 
0.0 0.0 0.0 
0.0 0.0 0.0 
0.0 0.0 0.0 
0.0 0.0 0.0 
0.0 0.0 0.0 
0.0 0.0 0.0 
0.0 0.0 0.0 
0.0 0.0 0.0 
0.0 0.0 0.0 
0.0 0.0 0.0 
0.0 0.0 0.0 
0.0 0.0 0.0 
0.0 0.0 0.0 
0.0 0.0 0.0 
0.0 0.0 0.0 
0.0 0.0 0.0 
0.0 0.0 0.0 
0.0 0.0 0.0 
0.0 0.0 0.0 
0.0 0.0 0.0 
0.0 0.0 0.0 
0.0 0.0 0.0 
0.0 0.0 0.0 
0.0 0.0 0.0 
0.0 0.0 0.0 
0.0 0.0 0.0 
0.0 0.0 0.0 
0.0 0.0 0.0 
0.0 0.0 0.0 
0.0 0.0 0.0 
0.0 0.0 0.0 
0.0 0.0 0.0 
0.0 0.0 0.0 
0.0 0.0 0.0 
0.0 0.0 0.0 
0.0 0.0 0.0 
0.0 0.0 0.0 
0.0 0.0 0.0 
0.0 0.0 0.0 
0.0 0.0 0.0 
0.0 0.0 0.0 
0.0 0.0 0.0 
0.0 0.0 0.0 
0.0 0.0 0.0 
0.0 0.0 0.0 
0.0 0.0 0.0 
0.0 0.0 0.0 
0.0 0.0 0.0 
0.0 0.0 0.0 
0.0 0.0 0.0 
0.0 0.0 0.0 
0.0 0.0 0.0 
0.0 0.0 0.0 
0.0 0.0 0.0 
0.0 0.0 0.0 
0.0 0.0 0.0 
0.0 0.0 0.0 
0.0 0.0 0.0 
0.0 0.0 0.0 
0.0 0.0 0.0 
0.0 0.0 0.0 
0.0 0.0 0.0 
0.0 0.0 0.0 
0.0 0.0 0.0 
0.0 0.0 0.0 
0.0 0.0 0.0 
0.0 0.0 0.0 
0.0 0.0 0.0 
0.0 0.0 0.0 
0.0 0.0 0.0 
0.0 0.0 0.0 
0.0 0.0 0.0 
0.0 0.0 0.0 
0.0 0.0 0.0 
0.0 0.0 0.0 
0.0 0.0 0.0 
0.0 0.0 0.0 
0.0 0.0 0.0 
0.0 0.0 0.0 
0.0 0.0 0.0 
0.0 0.0 0.0 
0.0 0.0 0.0 
0.0 0.0 0.0 
0.0 0.0 0.0 
0.0 0.0 0.0 
0.0 0.0 0.0 
0.0 0.0 0.0 
0.0 0.0 0.0 
0.0 0.0 0.0 
0.0 0.0 0.0 
0.0 0.0 0.0 
0.0 0.0 0.0 
0.0 0.0 0.0 
0.0 0.0 0.0 
0.0 0.0 0.0 
0.0 0.0 0.0 
0.0 0.0 0.0 
0.0 0.0 0.0 
0.0 0.0 0.0 
0.0 0.0 0.0 
0.0 0.0 0.0 
0.0 0.0 0.0 
0.0 0.0 0.0 
0.0 0.0 0.0 
0.0 0.0 0.0 
0.0 0.0 0.0 
0.0 0.0 0.0 
0.0 0.0 0.0 
0.0 0.0 0.0 
0.0 0.0 0.0 
0.0 0.0 0.0 
0.0 0.0 0.0 
0.0 0.0 0.0 
0.0 0.0 0.0 
0.0 0.0 0.0 
0.0 0.0 0.0 
0.0 0.0 0.0 
0.0 0.0 0.0 
0.0 0.0 0.0 
0.0 0.0 0.0 
0.0 0.0 0.0 
0.0 0.0 0.0 
0.0 0.0 0.0 
0.0 0.0 0.0 
0.0 0.0 0.0 
0.0 0.0 0.0 
0.0 0.0 0.0 
0.0 0.0 0.0 
0.0 0.0 0.0 
0.0 0.0 0.0 
0.0 0.0 0.0 
0.0 0.0 0.0 
0.0 0.0 0.0 
0.0 0.0 0.0 
0.0 0.0 0.0 
0.0 0.0 0.0 
0.0 0.0 0.0 
0.0 0.0 0.0 
0.0 0.0 0.0 
0.0 0.0 0.0 
0.0 0.0 0.0 
0.0 0.0 0.0 
0.0 0.0 0.0 
0.0 0.0 0.0 
0.0 0.0 0.0 
0.0 0.0 0.0 
0.0 0.0 0.0 
0.0 0.0 0.0 
0.0 0.0 0.0 
0.0 0.0 0.0 
0.0 0.0 0.0 
0.0 0.0 0.0 
0.0 0.0 0.0 
0.0 0.0 0.0 
0.0 0.0 0.0 
0.0 0.0 0.0 
0.0 0.0 0.0 
0.0 0.0 0.0 
0.0 0.0 0.0 
0.0 0.0 0.0 
0.0 0.0 0.0 
0.0 0.0 0.0 
0.0 0.0 0.0 
0.0 0.0 0.0 
0.0 0.0 0.0 
0.0 0.0 0.0 
0.0 0.0 0.0 
0.0 0.0 0.0 
0.0 0.0 0.0 
0.0 0.0 0.0 
0.0 0.0 0.0 
0.0 0.0 0.0 
0.0 0.0 0.0 
0.0 0.0 0.0 
0.0 0.0 0.0 
0.0 0.0 0.0 
0.0 0.0 0.0 
0.0 0.0 0.0 
0.0 0.0 0.0 
0.0 0.0 0.0 
0.0 0.0 0.0 
0.0 0.0 0.0 
0.0 0.0 0.0 
0.0 0.0 0.0 
0.0 0.0 0.0 
0.0 0.0 0.0 
0.0 0.0 0.0 
0.0 0.0 0.0 
0.0 0.0 0.0 
0.0 0.0 0.0 
0.0 0.0 0.0 
0.0 0.0 0.0 
0.0 0.0 0.0 
0.0 0.0 0.0 
0.0 0.0 0.0 
0.0 0.0 0.0 
0.0 0.0 0.0 
0.0 0.0 0.0 
0.0 0.0 0.0 
0.0 0.0 0.0 
0.0 0.0 0.0 
0.0 0.0 0.0 
0.0 0.0 0.0 
0.0 0.0 0.0 
0.0 0.0 0.0 
0.0 0.0 0.0 
0.0 0.0 0.0 
0.0 0.0 0.0 
0.0 0.0 0.0 
0.0 0.0 0.0 
0.0 0.0 0.0 
0.0 0.0 0.0 
0.0 0.0 0.0 
0.0 0.0 0.0 
0.0 0.0 0.0 
0.0 0.0 0.0 
0.0 0.0 0.0 
0.0 0.0 0.0 
0.0 0.0 0.0 
0.0 0.0 0.0 
0.0 0.0 0.0 
0.0 0.0 0.0 
0.0 0.0 0.0 
0.0 0.0 0.0 
0.0 0.0 0.0 
0.0 0.0 0.0 
0.0 0.0 0.0 
0.0 0.0 0.0 
0.0 0.0 0.0 
0.0 0.0 0.0 
0.0 0.0 0.0 
0.0 0.0 0.0 
0.0 0.0 0.0 
0.0 0.0 0.0 
0.0 0.0 0.0 
0.0 0.0 0.0 
0.0 0.0 0.0 
0.0 0.0 0.0 
0.0 0.0 0.0 
0.0 0.0 0.0 
0.0 0.0 0.0 
0.0 0.0 0.0 
0.0 0.0 0.0 
0.0 0.0 0.0 
0.0 0.0 0.0 
0.0 0.0 0.0 
0.0 0.0 0.0 
0.0 0.0 0.0 
0.0 0.0 0.0 
0.0 0.0 0.0 
0.0 0.0 0.0 
0.0 0.0 0.0 
0.0 0.0 0.0 
0.0 0.0 0.0 
0.0 0.0 0.0 
0.0 0.0 0.0 
0.0 0.0 0.0 
0.0 0.0 0.0 
0.0 0.0 0.0 
0.0 0.0 0.0 
0.0 0.0 0.0 
0.0 0.0 0.0 
0.0 0.0 0.0 
0.0 0.0 0.0 
0.0 0.0 0.0 
0.0 0.0 0.0 
0.0 0.0 0.0 
0.0 0.0 0.0 
0.0 0.0 0.0 
0.0 0.0 0.0 
0.0 0.0 0.0 
0.0 0.0 0.0 
0.0 0.0 0.0 
0.0 0.0 0.0 
0.0 0.0 0.0 
0.0 0.0 0.0 
0.0 0.0 0.0 
0.0 0.0 0.0 
0.0 0.0 0.0 
0.0 0.0 0.0 
0.0 0.0 0.0 
0.0 0.0 0.0 
0.0 0.0 0.0 
0.0 0.0 0.0 
0.0 0.0 0.0 
0.0 0.0 0.0 
0.0 0.0 0.0 
0.0 0.0 0.0 
0.0 0.0 0.0 
0.0 0.0 0.0 
0.0 0.0 0.0 
0.0 0.0 0.0 
0.0 0.0 0.0 
0.0 0.0 0.0 
0.0 0.0 0.0 
0.0 0.0 0.0 
0.0 0.0 0.0 
0.0 0.0 0.0 
0.0 0.0 0.0 
0.0 0.0 0.0 
0.0 0.0 0.0 
0.0 0.0 0.0 
0.0 0.0 0.0 
0.0 0.0 0.0 
0.0 0.0 0.0 
0.0 0.0 0.0 
0.0 0.0 0.0 
0.0 0.0 0.0 
0.0 0.0 0.0 
0.0 0.0 0.0 
0.0 0.0 0.0 
0.0 0.0 0.0 
0.0 0.0 0.0 
0.0 0.0 0.0 
0.0 0.0 0.0 
0.0 0.0 0.0 
0.0 0.0 0.0 
0.0 0.0 0.0 
0.0 0.0 0.0 
0.0 0.0 0.0 
0.0 0.0 0.0 
0.0 0.0 0.0 
0.0 0.0 0.0 
0.0 0.0 0.0 
0.0 0.0 0.0 
0.0 0.0 0.0 
0.0 0.0 0.0 
0.0 0.0 0.0 
0.0 0.0 0.0 
0.0 0.0 0.0 
0.0 0.0 0.0 
0.0 0.0 0.0 
0.0 0.0 0.0 
0.0 0.0 0.0 
0.0 0.0 0.0 
0.0 0.0 0.0 
0.0 0.0 0.0 
0.0 0.0 0.0 
0.0 0.0 0.0 
0.0 0.0 0.0 
0.0 0.0 0.0 
0.0 0.0 0.0 
0.0 0.0 0.0 
0.0 0.0 0.0 
0.0 0.0 0.0 
0.0 0.0 0.0 
0.0 0.0 0.0 
0.0 0.0 0.0 
0.0 0.0 0.0 
0.0 0.0 0.0 
0.0 0.0 0.0 
0.0 0.0 0.0 
0.0 0.0 0.0 
0.0 0.0 0.0 
0.0 0.0 0.0 
0.0 0.0 0.0 
0.0 0.0 0.0 
0.0 0.0 0.0 
0.0 0.0 0.0 
0.0 0.0 0.0 
0.0 0.0 0.0 
0.0 0.0 0.0 
0.0 0.0 0.0 
0.0 0.0 0.0 
0.0 0.0 0.0 
0.0 0.0 0.0 
0.0 0.0 0.0 
0.0 0.0 0.0 
0.0 0.0 0.0 
0.0 0.0 0.0 
0.0 0.0 0.0 
0.0 0.0 0.0 
0.0 0.0 0.0 
0.0 0.0 0.0 
0.0 0.0 0.0 
0.0 0.0 0.0 
0.0 0.0 0.0 
0.0 0.0 0.0 
0.0 0.0 0.0 
0.0 0.0 0.0 
0.0 0.0 0.0 
0.0 0.0 0.0 
0.0 0.0 0.0 
0.0 0.0 0.0 
0.0 0.0 0.0 
0.0 0.0 0.0 
0.0 0.0 0.0 
0.0 0.0 0.0 
0.0 0.0 0.0 
0.0 0.0 0.0 
0.0 0.0 0.0 
0.0 0.0 0.0 
0.0 0.0 0.0 
0.0 0.0 0.0 
0.0 0.0 0.0 
0.0 0.0 0.0 
0.0 0.0 0.0 
0.0 0.0 0.0 
0.0 0.0 0.0 
0.0 0.0 0.0 
0.0 0.0 0.0 
0.0 0.0 0.0 
0.0 0.0 0.0 
0.0 0.0 0.0 
0.0 0.0 0.0 
0.0 0.0 0.0 
0.0 0.0 0.0 
0.0 0.0 0.0 
0.0 0.0 0.0 
0.0 0.0 0.0 
0.0 0.0 0.0 
0.0 0.0 0.0 
0.0 0.0 0.0 
0.0 0.0 0.0 
0.0 0.0 0.0 
0.0 0.0 0.0 
0.0 0.0 0.0 
0.0 0.0 0.0 
0.0 0.0 0.0 
0.0 0.0 0.0 
0.0 0.0 0.0 
0.0 0.0 0.0 
0.0 0.0 0.0 
0.0 0.0 0.0 
0.0 0.0 0.0 
0.0 0.0 0.0 
0.0 0.0 0.0 
0.0 0.0 0.0 
0.0 0.0 0.0 
0.0 0.0 0.0 
0.0 0.0 0.0 
0.0 0.0 0.0 
0.0 0.0 0.0 
0.0 0.0 0.0 
0.0 0.0 0.0 
0.0 0.0 0.0 
0.0 0.0 0.0 
0.0 0.0 0.0 
0.0 0.0 0.0 
0.0 0.0 0.0 
0.0 0.0 0.0 
0.0 0.0 0.0 
0.0 0.0 0.0 
0.0 0.0 0.0 
0.0 0.0 0.0 
0.0 0.0 0.0 
0.0 0.0 0.0 
0.0 0.0 0.0 
0.0 0.0 0.0 
0.0 0.0 0.0 
0.0 0.0 0.0 
0.0 0.0 0.0 
0.0 0.0 0.0 
0.0 0.0 0.0 
0.0 0.0 0.0 
0.0 0.0 0.0 
0.0 0.0 0.0 
0.0 0.0 0.0 
0.0 0.0 0.0 
0.0 0.0 0.0 
0.0 0.0 0.0 
0.0 0.0 0.0 
0.0 0.0 0.0 
0.0 0.0 0.0 
0.0 0.0 0.0 
0.0 0.0 0.0 
0.0 0.0 0.0 
0.0 0.0 0.0 
0.0 0.0 0.0 
0.0 0.0 0.0 
0.0 0.0 0.0 
0.0 0.0 0.0 
0.0 0.0 0.0 
0.0 0.0 0.0 
0.0 0.0 0.0 
0.0 0.0 0.0 
0.0 0.0 0.0 
0.0 0.0 0.0 
0.0 0.0 0.0 
0.0 0.0 0.0 
0.0 0.0 0.0 
0.0 0.0 0.0 
0.0 0.0 0.0 
0.0 0.0 0.0 
0.0 0.0 0.0 
0.0 0.0 0.0 
0.0 0.0 0.0 
0.0 0.0 0.0 
0.0 0.0 0.0 
0.0 0.0 0.0 
0.0 0.0 0.0 
0.0 0.0 0.0 
0.0 0.0 0.0 
0.0 0.0 0.0 
0.0 0.0 0.0 
0.0 0.0 0.0 
0.0 0.0 0.0 
0.0 0.0 0.0 
0.0 0.0 0.0 
0.0 0.0 0.0 
0.0 0.0 0.0 
0.0 0.0 0.0 
0.0 0.0 0.0 
0.0 0.0 0.0 
0.0 0.0 0.0 
0.0 0.0 0.0 
0.0 0.0 0.0 
0.0 0.0 0.0 
0.0 0.0 0.0 
0.0 0.0 0.0 
0.0 0.0 0.0 
0.0 0.0 0.0 
0.0 0.0 0.0 
0.0 0.0 0.0 
0.0 0.0 0.0 
0.0 0.0 0.0 
0.0 0.0 0.0 
0.0 0.0 0.0 
0.0 0.0 0.0 
0.0 0.0 0.0 
0.0 0.0 0.0 
0.0 0.0 0.0 
0.0 0.0 0.0 
0.0 0.0 0.0 
0.0 0.0 0.0 
0.0 0.0 0.0 
0.0 0.0 0.0 
0.0 0.0 0.0 
0.0 0.0 0.0 
0.0 0.0 0.0 
0.0 0.0 0.0 
0.0 0.0 0.0 
0.0 0.0 0.0 
0.0 0.0 0.0 
0.0 0.0 0.0 
0.0 0.0 0.0 
0.0 0.0 0.0 
0.0 0.0 0.0 
0.0 0.0 0.0 
0.0 0.0 0.0 
0.0 0.0 0.0 
0.0 0.0 0.0 
0.0 0.0 0.0 
0.0 0.0 0.0 
0.0 0.0 0.0 
0.0 0.0 0.0 
0.0 0.0 0.0 
0.0 0.0 0.0 
0.0 0.0 0.0 
0.0 0.0 0.0 
0.0 0.0 0.0 
0.0 0.0 0.0 
0.0 0.0 0.0 
0.0 0.0 0.0 
0.0 0.0 0.0 
0.0 0.0 0.0 
0.0 0.0 0.0 
0.0 0.0 0.0 
0.0 0.0 0.0 
0.0 0.0 0.0 
0.0 0.0 0.0 
0.0 0.0 0.0 
0.0 0.0 0.0 
0.0 0.0 0.0 
0.0 0.0 0.0 
0.0 0.0 0.0 
0.0 0.0 0.0 
0.0 0.0 0.0 
0.0 0.0 0.0 
0.0 0.0 0.0 
0.0 0.0 0.0 
0.0 0.0 0.0 
0.0 0.0 0.0 
0.0 0.0 0.0 
0.0 0.0 0.0 
0.0 0.0 0.0 
0.0 0.0 0.0 
0.0 0.0 0.0 
0.0 0.0 0.0 
0.0 0.0 0.0 
0.0 0.0 0.0 
0.0 0.0 0.0 
0.0 0.0 0.0 
0.0 0.0 0.0 
0.0 0.0 0.0 
0.0 0.0 0.0 
0.0 0.0 0.0 
0.0 0.0 0.0 
0.0 0.0 0.0 
0.0 0.0 0.0 
0.0 0.0 0.0 
0.0 0.0 0.0 
0.0 0.0 0.0 
0.0 0.0 0.0 
0.0 0.0 0.0 
0.0 0.0 0.0 
0.0 0.0 0.0 
0.0 0.0 0.0 
0.0 0.0 0.0 
0.0 0.0 0.0 
0.0 0.0 0.0 
0.0 0.0 0.0 
0.0 0.0 0.0 
0.0 0.0 0.0 
0.0 0.0 0.0 
0.0 0.0 0.0 
0.0 0.0 0.0 
0.0 0.0 0.0 
0.0 0.0 0.0 
0.0 0.0 0.0 
0.0 0.0 0.0 
0.0 0.0 0.0 
0.0 0.0 0.0 
0.0 0.0 0.0 
0.0 0.0 0.0 
0.0 0.0 0.0 
0.0 0.0 0.0 
0.0 0.0 0.0 
0.0 0.0 0.0 
0.0 0.0 0.0 
0.0 0.0 0.0 
0.0 0.0 0.0 
0.0 0.0 0.0 
0.0 0.0 0.0 
0.0 0.0 0.0 
0.0 0.0 0.0 
0.0 0.0 0.0 
0.0 0.0 0.0 
0.0 0.0 0.0 
0.0 0.0 0.0 
0.0 0.0 0.0 
0.0 0.0 0.0 
0.0 0.0 0.0 
0.0 0.0 0.0 
0.0 0.0 0.0 
0.0 0.0 0.0 
0.0 0.0 0.0 
0.0 0.0 0.0 
0.0 0.0 0.0 
0.0 0.0 0.0 
0.0 0.0 0.0 
0.0 0.0 0.0 
0.0 0.0 0.0 
0.0 0.0 0.0 
0.0 0.0 0.0 
0.0 0.0 0.0 
0.0 0.0 0.0 
0.0 0.0 0.0 
0.0 0.0 0.0 
0.0 0.0 0.0 
0.0 0.0 0.0 
0.0 0.0 0.0 
0.0 0.0 0.0 
0.0 0.0 0.0 
0.0 0.0 0.0 
0.0 0.0 0.0 
0.0 0.0 0.0 
0.0 0.0 0.0 
0.0 0.0 0.0 
0.0 0.0 0.0 
0.0 0.0 0.0 
0.0 0.0 0.0 
0.0 0.0 0.0 
0.0 0.0 0.0 
0.0 0.0 0.0 
0.0 0.0 0.0 
0.0 0.0 0.0 
0.0 0.0 0.0 
0.0 0.0 0.0 
0.0 0.0 0.0 
0.0 0.0 0.0 
0.0 0.0 0.0 
0.0 0.0 0.0 
0.0 0.0 0.0 
0.0 0.0 0.0 
0.0 0.0 0.0 
0.0 0.0 0.0 
0.0 0.0 0.0 
0.0 0.0 0.0 
0.0 0.0 0.0 
0.0 0.0 0.0 
0.0 0.0 0.0 
0.0 0.0 0.0 
0.0 0.0 0.0 
0.0 0.0 0.0 
0.0 0.0 0.0 
0.0 0.0 0.0 
0.0 0.0 0.0 
0.0 0.0 0.0 
0.0 0.0 0.0 
0.0 0.0 0.0 
0.0 0.0 0.0 
0.0 0.0 0.0 
0.0 0.0 0.0 
0.0 0.0 0.0 
0.0 0.0 0.0 
0.0 0.0 0.0 
0.0 0.0 0.0 
0.0 0.0 0.0 
0.0 0.0 0.0 
0.0 0.0 0.0 
0.0 0.0 0.0 
0.0 0.0 0.0 
0.0 0.0 0.0 
0.0 0.0 0.0 
0.0 0.0 0.0 
0.0 0.0 0.0 
0.0 0.0 0.0 
0.0 0.0 0.0 
0.0 0.0 0.0 
0.0 0.0 0.0 
0.0 0.0 0.0 
0.0 0.0 0.0 
0.0 0.0 0.0 
0.0 0.0 0.0 
0.0 0.0 0.0 
0.0 0.0 0.0 
0.0 0.0 0.0 
0.0 0.0 0.0 
0.0 0.0 0.0 
0.0 0.0 0.0 
0.0 0.0 0.0 
0.0 0.0 0.0 
0.0 0.0 0.0 
0.0 0.0 0.0 
0.0 0.0 0.0 
0.0 0.0 0.0 
0.0 0.0 0.0 
0.0 0.0 0.0 
0.0 0.0 0.0 
0.0 0.0 0.0 
0.0 0.0 0.0 
0.0 0.0 0.0 
0.0 0.0 0.0 
0.0 0.0 0.0 
0.0 0.0 0.0 
0.0 0.0 0.0 
0.0 0.0 0.0 
0.0 0.0 0.0 
0.0 0.0 0.0 
0.0 0.0 0.0 
0.0 0.0 0.0 
0.0 0.0 0.0 
0.0 0.0 0.0 
0.0 0.0 0.0 
0.0 0.0 0.0 
0.0 0.0 0.0 
0.0 0.0 0.0 
0.0 0.0 0.0 
0.0 0.0 0.0 
0.0 0.0 0.0 
0.0 0.0 0.0 
0.0 0.0 0.0 
0.0 0.0 0.0 
0.0 0.0 0.0 
0.0 0.0 0.0 
0.0 0.0 0.0 
0.0 0.0 0.0 
0.0 0.0 0.0 
0.0 0.0 0.0 

SCALARS node_boundary float
LOOKUP_TABLE default
1.000000000000e+00 
1.000000000000e+00 
1.000000000000e+00 
1.000000000000e+00 
1.000000000000e+00 
1.000000000000e+00 
1.000000000000e+00 
1.000000000000e+00 
1.000000000000e+00 
1.000000000000e+00 
1.000000000000e+00 
1.000000000000e+00 
1.000000000000e+00 
1.000000000000e+00 
1.000000000000e+00 
1.000000000000e+00 
1.000000000000e+00 
1.000000000000e+00 
1.000000000000e+00 
1.000000000000e+00 
1.000000000000e+00 
1.000000000000e+00 
1.000000000000e+00 
1.000000000000e+00 
1.000000000000e+00 
1.000000000000e+00 
1.000000000000e+00 
1.000000000000e+00 
1.000000000000e+00 
1.000000000000e+00 
1.000000000000e+00 
1.000000000000e+00 
1.000000000000e+00 
1.000000000000e+00 
1.000000000000e+00 
1.000000000000e+00 
1.000000000000e+00 
1.000000000000e+00 
1.000000000000e+00 
1.000000000000e+00 
1.000000000000e+00 
1.000000000000e+00 
1.000000000000e+00 
1.000000000000e+00 
1.000000000000e+00 
1.000000000000e+00 
1.000000000000e+00 
1.000000000000e+00 
1.000000000000e+00 
1.000000000000e+00 
1.000000000000e+00 
1.000000000000e+00 
1.000000000000e+00 
1.000000000000e+00 
1.000000000000e+00 
1.000000000000e+00 
1.000000000000e+00 
1.000000000000e+00 
1.000000000000e+00 
1.000000000000e+00 
1.000000000000e+00 
1.000000000000e+00 
1.000000000000e+00 
1.000000000000e+00 
1.000000000000e+00 
1.000000000000e+00 
1.000000000000e+00 
1.000000000000e+00 
1.000000000000e+00 
1.000000000000e+00 
1.000000000000e+00 
1.000000000000e+00 
1.000000000000e+00 
1.000000000000e+00 
1.000000000000e+00 
1.000000000000e+00 
1.000000000000e+00 
1.000000000000e+00 
1.000000000000e+00 
1.000000000000e+00 
1.000000000000e+00 
1.000000000000e+00 
0.0
1.000000000000e+00 
1.000000000000e+00 
1.000000000000e+00 
1.000000000000e+00 
1.000000000000e+00 
1.000000000000e+00 
1.000000000000e+00 
0.0
0.0
1.000000000000e+00 
1.000000000000e+00 
1.000000000000e+00 
0.0
0.0
0.0
0.0
0.0
0.0
0.0
0.0
0.0
0.0
0.0
0.0
0.0
0.0
1.000000000000e+00 
1.000000000000e+00 
1.000000000000e+00 
1.000000000000e+00 
1.000000000000e+00 
1.000000000000e+00 
1.000000000000e+00 
1.000000000000e+00 
1.000000000000e+00 
1.000000000000e+00 
1.000000000000e+00 
1.000000000000e+00 
1.000000000000e+00 
1.000000000000e+00 
1.000000000000e+00 
1.000000000000e+00 
1.000000000000e+00 
1.000000000000e+00 
1.000000000000e+00 
1.000000000000e+00 
1.000000000000e+00 
1.000000000000e+00 
1.000000000000e+00 
1.000000000000e+00 
1.000000000000e+00 
1.000000000000e+00 
1.000000000000e+00 
1.000000000000e+00 
1.000000000000e+00 
1.000000000000e+00 
1.000000000000e+00 
1.000000000000e+00 
1.000000000000e+00 
1.000000000000e+00 
1.000000000000e+00 
1.000000000000e+00 
1.000000000000e+00 
1.000000000000e+00 
0.0
0.0
0.0
0.0
0.0
0.0
0.0
0.0
0.0
0.0
0.0
0.0
0.0
0.0
0.0
0.0
0.0
0.0
0.0
0.0
0.0
0.0
0.0
0.0
0.0
0.0
0.0
0.0
0.0
0.0
0.0
0.0
0.0
1.000000000000e+00 
1.000000000000e+00 
1.000000000000e+00 
1.000000000000e+00 
1.000000000000e+00 
1.000000000000e+00 
1.000000000000e+00 
0.0
0.0
0.0
0.0
0.0
0.0
0.0
0.0
0.0
0.0
0.0
0.0
0.0
0.0
0.0
0.0
0.0
0.0
0.0
0.0
0.0
0.0
0.0
0.0
0.0
0.0
0.0
0.0
0.0
0.0
0.0
0.0
0.0
0.0
0.0
0.0
0.0
0.0
0.0
0.0
0.0
0.0
0.0
0.0
0.0
0.0
0.0
0.0
0.0
0.0
0.0
0.0
0.0
0.0
0.0
0.0
0.0
0.0
0.0
0.0
0.0
0.0
0.0
0.0
0.0
0.0
0.0
0.0
0.0
0.0
0.0
0.0
0.0
0.0
0.0
0.0
0.0
0.0
0.0
0.0
0.0
0.0
0.0
0.0
0.0
0.0
0.0
0.0
0.0
0.0
0.0
0.0
0.0
0.0
0.0
0.0
0.0
0.0
0.0
0.0
0.0
0.0
0.0
0.0
0.0
0.0
0.0
0.0
0.0
0.0
0.0
0.0
0.0
0.0
0.0
0.0
0.0
0.0
0.0
0.0
0.0
0.0
0.0
0.0
0.0
0.0
0.0
0.0
0.0
0.0
0.0
0.0
0.0
0.0
0.0
0.0
0.0
0.0
0.0
0.0
0.0
0.0
0.0
0.0
0.0
0.0
0.0
0.0
0.0
0.0
0.0
0.0
0.0
0.0
0.0
0.0
0.0
0.0
0.0
0.0
0.0
0.0
0.0
0.0
0.0
0.0
0.0
0.0
0.0
0.0
0.0
0.0
0.0
0.0
0.0
0.0
0.0
0.0
0.0
0.0
0.0
0.0
0.0
0.0
0.0
0.0
0.0
0.0
0.0
0.0
0.0
0.0
0.0
0.0
0.0
0.0
0.0
0.0
0.0
0.0
0.0
0.0
0.0
0.0
0.0
0.0
0.0
0.0
0.0
0.0
0.0
0.0
0.0
0.0
0.0
0.0
0.0
0.0
0.0
0.0
0.0
0.0
0.0
0.0
0.0
0.0
0.0
0.0
0.0
0.0
0.0
0.0
0.0
0.0
0.0
0.0
0.0
0.0
0.0
0.0
0.0
0.0
0.0
0.0
0.0
0.0
0.0
0.0
0.0
0.0
0.0
0.0
0.0
0.0
0.0
0.0
0.0
0.0
0.0
0.0
0.0
0.0
0.0
0.0
0.0
0.0
0.0
0.0
0.0
0.0
0.0
0.0
0.0
0.0
0.0
0.0
0.0
0.0
0.0
0.0
0.0
0.0
0.0
0.0
0.0
0.0
0.0
0.0
0.0
0.0
0.0
0.0
0.0
0.0
0.0
0.0
0.0
0.0
0.0
0.0
0.0
0.0
0.0
0.0
0.0
0.0
0.0
0.0
0.0
0.0
0.0
0.0
0.0
0.0
0.0
0.0
0.0
0.0
0.0
0.0
0.0
0.0
0.0
0.0
0.0
0.0
0.0
0.0
0.0
0.0
0.0
0.0
0.0
0.0
0.0
0.0
0.0
0.0
0.0
0.0
0.0
0.0
0.0
0.0
0.0
0.0
0.0
0.0
0.0
0.0
0.0
0.0
0.0
0.0
0.0
0.0
0.0
0.0
0.0
0.0
0.0
0.0
0.0
0.0
0.0
0.0
0.0
0.0
0.0
0.0
0.0
0.0
0.0
0.0
0.0
0.0
0.0
0.0
0.0
0.0
0.0
0.0
0.0
0.0
0.0
0.0
0.0
0.0
0.0
0.0
0.0
0.0
0.0
0.0
0.0
0.0
0.0
0.0
0.0
0.0
0.0
0.0
0.0
0.0
0.0
0.0
0.0
0.0
0.0
0.0
0.0
0.0
0.0
0.0
0.0
0.0
0.0
0.0
0.0
0.0
0.0
0.0
0.0
0.0
0.0
0.0
0.0
0.0
0.0
0.0
0.0
0.0
0.0
0.0
0.0
0.0
0.0
0.0
0.0
0.0
0.0
0.0
0.0
0.0
0.0
0.0
0.0
0.0
0.0
0.0
0.0
0.0
0.0
0.0
0.0
0.0
0.0
0.0
0.0
0.0
0.0
0.0
0.0
0.0
0.0
0.0
0.0
0.0
0.0
0.0
0.0
0.0
0.0
0.0
0.0
0.0
0.0
0.0
0.0
0.0
0.0
0.0
0.0
0.0
0.0
0.0
0.0
0.0
0.0
0.0
0.0
0.0
0.0
0.0
0.0
0.0
0.0
0.0
0.0
0.0
0.0
0.0
0.0
0.0
0.0
0.0
0.0
0.0
0.0
0.0
0.0
0.0
0.0
0.0
0.0
0.0
0.0
0.0
0.0
0.0
0.0
0.0
0.0
0.0
0.0
0.0
0.0
0.0
0.0
0.0
0.0
0.0
0.0
0.0
0.0
0.0
0.0
0.0
0.0
0.0
0.0
0.0
0.0
0.0
0.0
0.0
0.0
0.0
0.0
0.0
0.0
0.0
0.0
0.0
0.0
0.0
0.0
0.0
0.0
0.0
0.0
0.0
0.0
0.0
0.0
0.0
0.0
0.0
0.0
0.0
0.0
0.0
0.0
0.0
0.0
0.0
0.0
0.0
0.0
0.0
0.0
0.0
0.0
0.0
0.0
0.0
0.0
0.0
0.0
0.0
0.0
0.0
0.0
0.0
0.0
0.0
0.0
0.0
0.0
0.0
0.0
0.0
0.0
0.0
0.0
0.0
0.0
0.0
0.0
0.0
0.0
0.0
0.0
0.0
0.0
0.0
0.0
0.0
0.0
0.0
0.0
0.0
0.0
0.0
0.0
0.0
0.0
0.0
0.0
0.0
0.0
0.0
0.0
0.0
0.0
0.0
0.0
0.0
0.0
0.0
0.0
0.0
0.0
0.0
0.0
0.0
0.0
0.0
0.0
0.0
0.0
0.0
0.0
0.0
0.0
0.0
0.0
0.0
0.0
0.0
0.0
0.0
0.0
0.0
0.0
0.0
0.0
0.0
0.0
0.0
0.0
0.0
0.0
0.0
0.0
0.0
0.0
0.0
0.0
0.0
0.0
0.0
0.0
0.0
0.0
0.0
0.0
0.0
0.0
0.0
0.0
0.0
0.0
0.0
0.0
0.0
0.0
0.0
0.0
0.0
0.0
0.0
0.0
0.0
0.0
0.0
0.0
0.0
0.0
0.0
0.0
0.0
0.0
0.0
0.0
0.0
0.0
0.0
0.0
0.0
0.0
0.0
0.0
0.0
0.0
0.0
0.0
0.0
0.0
0.0
0.0
0.0
0.0
0.0
0.0
0.0
0.0
0.0
0.0
0.0
0.0
0.0
0.0
0.0
0.0
0.0
0.0
0.0
0.0
0.0
0.0
0.0
0.0
0.0
0.0
0.0
0.0
0.0
0.0
0.0
0.0
0.0
0.0
0.0
0.0
0.0
0.0
0.0
0.0
0.0
0.0
0.0
0.0
0.0
0.0
0.0
0.0
0.0
0.0
0.0
0.0
0.0
0.0
0.0
0.0
0.0
0.0
0.0
0.0
0.0
0.0
0.0
0.0
0.0
0.0
0.0
0.0
0.0
0.0
0.0
0.0
0.0
0.0
0.0
0.0
0.0
0.0
0.0
0.0
0.0
0.0
0.0
0.0
0.0
0.0
0.0
0.0
0.0
0.0
0.0
0.0
0.0
0.0
0.0
0.0
0.0
0.0
0.0
0.0
0.0
0.0
0.0
0.0
0.0
0.0
0.0
0.0
0.0
0.0
0.0
0.0
0.0
0.0
0.0
0.0
0.0
0.0
0.0
0.0
0.0
0.0
0.0
0.0
0.0
0.0
0.0
0.0
0.0
0.0
0.0
0.0
0.0
0.0
0.0
0.0
0.0
0.0
0.0
0.0
0.0
0.0
0.0
0.0
0.0
0.0
0.0
0.0
0.0
0.0
0.0
0.0
0.0
0.0
0.0
0.0
0.0
0.0
0.0
0.0
0.0
0.0
0.0
0.0
0.0
0.0
0.0
0.0
0.0
0.0
0.0
0.0
0.0

VECTORS node_force_edge float
0.0 0.0 0.0 
0.0 0.0 0.0 
0.0 0.0 0.0 
0.0 0.0 0.0 
0.0 0.0 0.0 
0.0 0.0 0.0 
0.0 0.0 0.0 
0.0 0.0 0.0 
0.0 0.0 0.0 
0.0 0.0 0.0 
0.0 0.0 0.0 
0.0 0.0 0.0 
0.0 0.0 0.0 
0.0 0.0 0.0 
0.0 0.0 0.0 
0.0 0.0 0.0 
0.0 0.0 0.0 
0.0 0.0 0.0 
0.0 0.0 0.0 
0.0 0.0 0.0 
0.0 0.0 0.0 
0.0 0.0 0.0 
0.0 0.0 0.0 
0.0 0.0 0.0 
0.0 0.0 0.0 
0.0 0.0 0.0 
0.0 0.0 0.0 
0.0 0.0 0.0 
0.0 0.0 0.0 
0.0 0.0 0.0 
0.0 0.0 0.0 
0.0 0.0 0.0 
0.0 0.0 0.0 
0.0 0.0 0.0 
0.0 0.0 0.0 
0.0 0.0 0.0 
0.0 0.0 0.0 
0.0 0.0 0.0 
0.0 0.0 0.0 
0.0 0.0 0.0 
0.0 0.0 0.0 
0.0 0.0 0.0 
0.0 0.0 0.0 
0.0 0.0 0.0 
0.0 0.0 0.0 
0.0 0.0 0.0 
0.0 0.0 0.0 
0.0 0.0 0.0 
0.0 0.0 0.0 
0.0 0.0 0.0 
0.0 0.0 0.0 
0.0 0.0 0.0 
0.0 0.0 0.0 
0.0 0.0 0.0 
0.0 0.0 0.0 
0.0 0.0 0.0 
0.0 0.0 0.0 
0.0 0.0 0.0 
0.0 0.0 0.0 
0.0 0.0 0.0 
0.0 0.0 0.0 
0.0 0.0 0.0 
0.0 0.0 0.0 
0.0 0.0 0.0 
0.0 0.0 0.0 
0.0 0.0 0.0 
0.0 0.0 0.0 
0.0 0.0 0.0 
0.0 0.0 0.0 
0.0 0.0 0.0 
0.0 0.0 0.0 
0.0 0.0 0.0 
0.0 0.0 0.0 
0.0 0.0 0.0 
0.0 0.0 0.0 
0.0 0.0 0.0 
0.0 0.0 0.0 
0.0 0.0 0.0 
0.0 0.0 0.0 
0.0 0.0 0.0 
0.0 0.0 0.0 
0.0 -1.000000000000e+02 0.0 
0.0 0.0 0.0 
0.0 0.0 0.0 
0.0 0.0 0.0 
0.0 0.0 0.0 
0.0 0.0 0.0 
0.0 0.0 0.0 
0.0 0.0 0.0 
0.0 0.0 0.0 
0.0 0.0 0.0 
0.0 0.0 0.0 
0.0 0.0 0.0 
0.0 0.0 0.0 
0.0 0.0 0.0 
0.0 0.0 0.0 
0.0 0.0 0.0 
0.0 0.0 0.0 
0.0 0.0 0.0 
0.0 0.0 0.0 
0.0 0.0 0.0 
0.0 0.0 0.0 
0.0 0.0 0.0 
0.0 0.0 0.0 
0.0 0.0 0.0 
0.0 0.0 0.0 
0.0 0.0 0.0 
0.0 0.0 0.0 
0.0 0.0 0.0 
0.0 -1.000000000000e+02 0.0 
0.0 -1.000000000000e+02 0.0 
0.0 -1.000000000000e+02 0.0 
0.0 -1.000000000000e+02 0.0 
0.0 -1.000000000000e+02 0.0 
0.0 0.0 0.0 
0.0 0.0 0.0 
0.0 0.0 0.0 
0.0 0.0 0.0 
0.0 0.0 0.0 
0.0 0.0 0.0 
0.0 0.0 0.0 
0.0 0.0 0.0 
0.0 0.0 0.0 
0.0 0.0 0.0 
0.0 0.0 0.0 
0.0 0.0 0.0 
0.0 0.0 0.0 
0.0 0.0 0.0 
0.0 0.0 0.0 
0.0 0.0 0.0 
0.0 0.0 0.0 
0.0 0.0 0.0 
0.0 0.0 0.0 
0.0 0.0 0.0 
0.0 0.0 0.0 
0.0 0.0 0.0 
0.0 0.0 0.0 
0.0 0.0 0.0 
0.0 0.0 0.0 
0.0 0.0 0.0 
0.0 0.0 0.0 
0.0 0.0 0.0 
0.0 0.0 0.0 
0.0 0.0 0.0 
0.0 0.0 0.0 
0.0 0.0 0.0 
0.0 0.0 0.0 
0.0 0.0 0.0 
0.0 0.0 0.0 
0.0 0.0 0.0 
0.0 0.0 0.0 
0.0 0.0 0.0 
0.0 0.0 0.0 
0.0 0.0 0.0 
0.0 0.0 0.0 
0.0 0.0 0.0 
0.0 0.0 0.0 
0.0 0.0 0.0 
0.0 0.0 0.0 
0.0 0.0 0.0 
0.0 0.0 0.0 
0.0 0.0 0.0 
0.0 0.0 0.0 
0.0 0.0 0.0 
0.0 0.0 0.0 
0.0 0.0 0.0 
0.0 0.0 0.0 
0.0 0.0 0.0 
0.0 0.0 0.0 
0.0 0.0 0.0 
0.0 0.0 0.0 
0.0 0.0 0.0 
0.0 0.0 0.0 
0.0 0.0 0.0 
0.0 0.0 0.0 
0.0 0.0 0.0 
0.0 0.0 0.0 
0.0 0.0 0.0 
0.0 0.0 0.0 
0.0 0.0 0.0 
0.0 0.0 0.0 
0.0 0.0 0.0 
0.0 0.0 0.0 
0.0 0.0 0.0 
0.0 0.0 0.0 
0.0 0.0 0.0 
0.0 0.0 0.0 
0.0 0.0 0.0 
0.0 0.0 0.0 
0.0 0.0 0.0 
0.0 0.0 0.0 
0.0 0.0 0.0 
0.0 0.0 0.0 
0.0 0.0 0.0 
0.0 0.0 0.0 
0.0 0.0 0.0 
0.0 0.0 0.0 
0.0 0.0 0.0 
0.0 0.0 0.0 
0.0 0.0 0.0 
0.0 0.0 0.0 
0.0 0.0 0.0 
0.0 0.0 0.0 
0.0 0.0 0.0 
0.0 0.0 0.0 
0.0 0.0 0.0 
0.0 0.0 0.0 
0.0 0.0 0.0 
0.0 0.0 0.0 
0.0 0.0 0.0 
0.0 0.0 0.0 
0.0 0.0 0.0 
0.0 0.0 0.0 
0.0 0.0 0.0 
0.0 0.0 0.0 
0.0 0.0 0.0 
0.0 0.0 0.0 
0.0 0.0 0.0 
0.0 0.0 0.0 
0.0 0.0 0.0 
0.0 0.0 0.0 
0.0 0.0 0.0 
0.0 0.0 0.0 
0.0 0.0 0.0 
0.0 0.0 0.0 
0.0 0.0 0.0 
0.0 0.0 0.0 
0.0 0.0 0.0 
0.0 0.0 0.0 
0.0 0.0 0.0 
0.0 0.0 0.0 
0.0 0.0 0.0 
0.0 0.0 0.0 
0.0 0.0 0.0 
0.0 0.0 0.0 
0.0 0.0 0.0 
0.0 0.0 0.0 
0.0 0.0 0.0 
0.0 0.0 0.0 
0.0 0.0 0.0 
0.0 0.0 0.0 
0.0 0.0 0.0 
0.0 0.0 0.0 
0.0 0.0 0.0 
0.0 0.0 0.0 
0.0 0.0 0.0 
0.0 0.0 0.0 
0.0 0.0 0.0 
0.0 0.0 0.0 
0.0 0.0 0.0 
0.0 0.0 0.0 
0.0 0.0 0.0 
0.0 0.0 0.0 
0.0 0.0 0.0 
0.0 0.0 0.0 
0.0 0.0 0.0 
0.0 0.0 0.0 
0.0 0.0 0.0 
0.0 0.0 0.0 
0.0 0.0 0.0 
0.0 0.0 0.0 
0.0 0.0 0.0 
0.0 0.0 0.0 
0.0 0.0 0.0 
0.0 0.0 0.0 
0.0 0.0 0.0 
0.0 0.0 0.0 
0.0 0.0 0.0 
0.0 0.0 0.0 
0.0 0.0 0.0 
0.0 0.0 0.0 
0.0 0.0 0.0 
0.0 0.0 0.0 
0.0 0.0 0.0 
0.0 0.0 0.0 
0.0 0.0 0.0 
0.0 0.0 0.0 
0.0 0.0 0.0 
0.0 0.0 0.0 
0.0 0.0 0.0 
0.0 0.0 0.0 
0.0 0.0 0.0 
0.0 0.0 0.0 
0.0 0.0 0.0 
0.0 0.0 0.0 
0.0 0.0 0.0 
0.0 0.0 0.0 
0.0 0.0 0.0 
0.0 0.0 0.0 
0.0 0.0 0.0 
0.0 0.0 0.0 
0.0 0.0 0.0 
0.0 0.0 0.0 
0.0 0.0 0.0 
0.0 0.0 0.0 
0.0 0.0 0.0 
0.0 0.0 0.0 
0.0 0.0 0.0 
0.0 0.0 0.0 
0.0 0.0 0.0 
0.0 0.0 0.0 
0.0 0.0 0.0 
0.0 0.0 0.0 
0.0 0.0 0.0 
0.0 0.0 0.0 
0.0 0.0 0.0 
0.0 0.0 0.0 
0.0 0.0 0.0 
0.0 0.0 0.0 
0.0 0.0 0.0 
0.0 0.0 0.0 
0.0 0.0 0.0 
0.0 0.0 0.0 
0.0 0.0 0.0 
0.0 0.0 0.0 
0.0 0.0 0.0 
0.0 0.0 0.0 
0.0 0.0 0.0 
0.0 0.0 0.0 
0.0 0.0 0.0 
0.0 0.0 0.0 
0.0 0.0 0.0 
0.0 0.0 0.0 
0.0 0.0 0.0 
0.0 0.0 0.0 
0.0 0.0 0.0 
0.0 0.0 0.0 
0.0 0.0 0.0 
0.0 0.0 0.0 
0.0 0.0 0.0 
0.0 0.0 0.0 
0.0 0.0 0.0 
0.0 0.0 0.0 
0.0 0.0 0.0 
0.0 0.0 0.0 
0.0 0.0 0.0 
0.0 0.0 0.0 
0.0 0.0 0.0 
0.0 0.0 0.0 
0.0 0.0 0.0 
0.0 0.0 0.0 
0.0 0.0 0.0 
0.0 0.0 0.0 
0.0 0.0 0.0 
0.0 0.0 0.0 
0.0 0.0 0.0 
0.0 0.0 0.0 
0.0 0.0 0.0 
0.0 0.0 0.0 
0.0 0.0 0.0 
0.0 0.0 0.0 
0.0 0.0 0.0 
0.0 0.0 0.0 
0.0 0.0 0.0 
0.0 0.0 0.0 
0.0 0.0 0.0 
0.0 0.0 0.0 
0.0 0.0 0.0 
0.0 0.0 0.0 
0.0 0.0 0.0 
0.0 0.0 0.0 
0.0 0.0 0.0 
0.0 0.0 0.0 
0.0 0.0 0.0 
0.0 0.0 0.0 
0.0 0.0 0.0 
0.0 0.0 0.0 
0.0 0.0 0.0 
0.0 0.0 0.0 
0.0 0.0 0.0 
0.0 0.0 0.0 
0.0 0.0 0.0 
0.0 0.0 0.0 
0.0 0.0 0.0 
0.0 0.0 0.0 
0.0 0.0 0.0 
0.0 0.0 0.0 
0.0 0.0 0.0 
0.0 0.0 0.0 
0.0 0.0 0.0 
0.0 0.0 0.0 
0.0 0.0 0.0 
0.0 0.0 0.0 
0.0 0.0 0.0 
0.0 0.0 0.0 
0.0 0.0 0.0 
0.0 0.0 0.0 
0.0 0.0 0.0 
0.0 0.0 0.0 
0.0 0.0 0.0 
0.0 0.0 0.0 
0.0 0.0 0.0 
0.0 0.0 0.0 
0.0 0.0 0.0 
0.0 0.0 0.0 
0.0 0.0 0.0 
0.0 0.0 0.0 
0.0 0.0 0.0 
0.0 0.0 0.0 
0.0 0.0 0.0 
0.0 0.0 0.0 
0.0 0.0 0.0 
0.0 0.0 0.0 
0.0 0.0 0.0 
0.0 0.0 0.0 
0.0 0.0 0.0 
0.0 0.0 0.0 
0.0 0.0 0.0 
0.0 0.0 0.0 
0.0 0.0 0.0 
0.0 0.0 0.0 
0.0 0.0 0.0 
0.0 0.0 0.0 
0.0 0.0 0.0 
0.0 0.0 0.0 
0.0 0.0 0.0 
0.0 0.0 0.0 
0.0 0.0 0.0 
0.0 0.0 0.0 
0.0 0.0 0.0 
0.0 0.0 0.0 
0.0 0.0 0.0 
0.0 0.0 0.0 
0.0 0.0 0.0 
0.0 0.0 0.0 
0.0 0.0 0.0 
0.0 0.0 0.0 
0.0 0.0 0.0 
0.0 0.0 0.0 
0.0 0.0 0.0 
0.0 0.0 0.0 
0.0 0.0 0.0 
0.0 0.0 0.0 
0.0 0.0 0.0 
0.0 0.0 0.0 
0.0 0.0 0.0 
0.0 0.0 0.0 
0.0 0.0 0.0 
0.0 0.0 0.0 
0.0 0.0 0.0 
0.0 0.0 0.0 
0.0 0.0 0.0 
0.0 0.0 0.0 
0.0 0.0 0.0 
0.0 0.0 0.0 
0.0 0.0 0.0 
0.0 0.0 0.0 
0.0 0.0 0.0 
0.0 0.0 0.0 
0.0 0.0 0.0 
0.0 0.0 0.0 
0.0 0.0 0.0 
0.0 0.0 0.0 
0.0 0.0 0.0 
0.0 0.0 0.0 
0.0 0.0 0.0 
0.0 0.0 0.0 
0.0 0.0 0.0 
0.0 0.0 0.0 
0.0 0.0 0.0 
0.0 0.0 0.0 
0.0 0.0 0.0 
0.0 0.0 0.0 
0.0 0.0 0.0 
0.0 0.0 0.0 
0.0 0.0 0.0 
0.0 0.0 0.0 
0.0 0.0 0.0 
0.0 0.0 0.0 
0.0 0.0 0.0 
0.0 0.0 0.0 
0.0 0.0 0.0 
0.0 0.0 0.0 
0.0 0.0 0.0 
0.0 0.0 0.0 
0.0 0.0 0.0 
0.0 0.0 0.0 
0.0 0.0 0.0 
0.0 0.0 0.0 
0.0 0.0 0.0 
0.0 0.0 0.0 
0.0 0.0 0.0 
0.0 0.0 0.0 
0.0 0.0 0.0 
0.0 0.0 0.0 
0.0 0.0 0.0 
0.0 0.0 0.0 
0.0 0.0 0.0 
0.0 0.0 0.0 
0.0 0.0 0.0 
0.0 0.0 0.0 
0.0 0.0 0.0 
0.0 0.0 0.0 
0.0 0.0 0.0 
0.0 0.0 0.0 
0.0 0.0 0.0 
0.0 0.0 0.0 
0.0 0.0 0.0 
0.0 0.0 0.0 
0.0 0.0 0.0 
0.0 0.0 0.0 
0.0 0.0 0.0 
0.0 0.0 0.0 
0.0 0.0 0.0 
0.0 0.0 0.0 
0.0 0.0 0.0 
0.0 0.0 0.0 
0.0 0.0 0.0 
0.0 0.0 0.0 
0.0 0.0 0.0 
0.0 0.0 0.0 
0.0 0.0 0.0 
0.0 0.0 0.0 
0.0 0.0 0.0 
0.0 0.0 0.0 
0.0 0.0 0.0 
0.0 0.0 0.0 
0.0 0.0 0.0 
0.0 0.0 0.0 
0.0 0.0 0.0 
0.0 0.0 0.0 
0.0 0.0 0.0 
0.0 0.0 0.0 
0.0 0.0 0.0 
0.0 0.0 0.0 
0.0 0.0 0.0 
0.0 0.0 0.0 
0.0 0.0 0.0 
0.0 0.0 0.0 
0.0 0.0 0.0 
0.0 0.0 0.0 
0.0 0.0 0.0 
0.0 0.0 0.0 
0.0 0.0 0.0 
0.0 0.0 0.0 
0.0 0.0 0.0 
0.0 0.0 0.0 
0.0 0.0 0.0 
0.0 0.0 0.0 
0.0 0.0 0.0 
0.0 0.0 0.0 
0.0 0.0 0.0 
0.0 0.0 0.0 
0.0 0.0 0.0 
0.0 0.0 0.0 
0.0 0.0 0.0 
0.0 0.0 0.0 
0.0 0.0 0.0 
0.0 0.0 0.0 
0.0 0.0 0.0 
0.0 0.0 0.0 
0.0 0.0 0.0 
0.0 0.0 0.0 
0.0 0.0 0.0 
0.0 0.0 0.0 
0.0 0.0 0.0 
0.0 0.0 0.0 
0.0 0.0 0.0 
0.0 0.0 0.0 
0.0 0.0 0.0 
0.0 0.0 0.0 
0.0 0.0 0.0 
0.0 0.0 0.0 
0.0 0.0 0.0 
0.0 0.0 0.0 
0.0 0.0 0.0 
0.0 0.0 0.0 
0.0 0.0 0.0 
0.0 0.0 0.0 
0.0 0.0 0.0 
0.0 0.0 0.0 
0.0 0.0 0.0 
0.0 0.0 0.0 
0.0 0.0 0.0 
0.0 0.0 0.0 
0.0 0.0 0.0 
0.0 0.0 0.0 
0.0 0.0 0.0 
0.0 0.0 0.0 
0.0 0.0 0.0 
0.0 0.0 0.0 
0.0 0.0 0.0 
0.0 0.0 0.0 
0.0 0.0 0.0 
0.0 0.0 0.0 
0.0 0.0 0.0 
0.0 0.0 0.0 
0.0 0.0 0.0 
0.0 0.0 0.0 
0.0 0.0 0.0 
0.0 0.0 0.0 
0.0 0.0 0.0 
0.0 0.0 0.0 
0.0 0.0 0.0 
0.0 0.0 0.0 
0.0 0.0 0.0 
0.0 0.0 0.0 
0.0 0.0 0.0 
0.0 0.0 0.0 
0.0 0.0 0.0 
0.0 0.0 0.0 
0.0 0.0 0.0 
0.0 0.0 0.0 
0.0 0.0 0.0 
0.0 0.0 0.0 
0.0 0.0 0.0 
0.0 0.0 0.0 
0.0 0.0 0.0 
0.0 0.0 0.0 
0.0 0.0 0.0 
0.0 0.0 0.0 
0.0 0.0 0.0 
0.0 0.0 0.0 
0.0 0.0 0.0 
0.0 0.0 0.0 
0.0 0.0 0.0 
0.0 0.0 0.0 
0.0 0.0 0.0 
0.0 0.0 0.0 
0.0 0.0 0.0 
0.0 0.0 0.0 
0.0 0.0 0.0 
0.0 0.0 0.0 
0.0 0.0 0.0 
0.0 0.0 0.0 
0.0 0.0 0.0 
0.0 0.0 0.0 
0.0 0.0 0.0 
0.0 0.0 0.0 
0.0 0.0 0.0 
0.0 0.0 0.0 
0.0 0.0 0.0 
0.0 0.0 0.0 
0.0 0.0 0.0 
0.0 0.0 0.0 
0.0 0.0 0.0 
0.0 0.0 0.0 
0.0 0.0 0.0 
0.0 0.0 0.0 
0.0 0.0 0.0 
0.0 0.0 0.0 
0.0 0.0 0.0 
0.0 0.0 0.0 
0.0 0.0 0.0 
0.0 0.0 0.0 
0.0 0.0 0.0 
0.0 0.0 0.0 
0.0 0.0 0.0 
0.0 0.0 0.0 
0.0 0.0 0.0 
0.0 0.0 0.0 
0.0 0.0 0.0 
0.0 0.0 0.0 
0.0 0.0 0.0 
0.0 0.0 0.0 
0.0 0.0 0.0 
0.0 0.0 0.0 
0.0 0.0 0.0 
0.0 0.0 0.0 
0.0 0.0 0.0 
0.0 0.0 0.0 
0.0 0.0 0.0 
0.0 0.0 0.0 
0.0 0.0 0.0 
0.0 0.0 0.0 
0.0 0.0 0.0 
0.0 0.0 0.0 
0.0 0.0 0.0 
0.0 0.0 0.0 
0.0 0.0 0.0 
0.0 0.0 0.0 
0.0 0.0 0.0 
0.0 0.0 0.0 
0.0 0.0 0.0 
0.0 0.0 0.0 
0.0 0.0 0.0 
0.0 0.0 0.0 
0.0 0.0 0.0 
0.0 0.0 0.0 
0.0 0.0 0.0 
0.0 0.0 0.0 
0.0 0.0 0.0 
0.0 0.0 0.0 
0.0 0.0 0.0 
0.0 0.0 0.0 
0.0 0.0 0.0 
0.0 0.0 0.0 
0.0 0.0 0.0 
0.0 0.0 0.0 
0.0 0.0 0.0 
0.0 0.0 0.0 
0.0 0.0 0.0 
0.0 0.0 0.0 
0.0 0.0 0.0 
0.0 0.0 0.0 
0.0 0.0 0.0 
0.0 0.0 0.0 
0.0 0.0 0.0 
0.0 0.0 0.0 
0.0 0.0 0.0 
0.0 0.0 0.0 
0.0 0.0 0.0 
0.0 0.0 0.0 
0.0 0.0 0.0 
0.0 0.0 0.0 
0.0 0.0 0.0 
0.0 0.0 0.0 
0.0 0.0 0.0 
0.0 0.0 0.0 
0.0 0.0 0.0 
0.0 0.0 0.0 
0.0 0.0 0.0 
0.0 0.0 0.0 
0.0 0.0 0.0 
0.0 0.0 0.0 
0.0 0.0 0.0 
0.0 0.0 0.0 
0.0 0.0 0.0 
0.0 0.0 0.0 
0.0 0.0 0.0 
0.0 0.0 0.0 
0.0 0.0 0.0 
0.0 0.0 0.0 
0.0 0.0 0.0 
0.0 0.0 0.0 
0.0 0.0 0.0 
0.0 0.0 0.0 
0.0 0.0 0.0 
0.0 0.0 0.0 
0.0 0.0 0.0 
0.0 0.0 0.0 
0.0 0.0 0.0 
0.0 0.0 0.0 
0.0 0.0 0.0 
0.0 0.0 0.0 
0.0 0.0 0.0 
0.0 0.0 0.0 
0.0 0.0 0.0 
0.0 0.0 0.0 
0.0 0.0 0.0 
0.0 0.0 0.0 
0.0 0.0 0.0 
0.0 0.0 0.0 
0.0 0.0 0.0 
0.0 0.0 0.0 
0.0 0.0 0.0 
0.0 0.0 0.0 
0.0 0.0 0.0 
0.0 0.0 0.0 
0.0 0.0 0.0 
0.0 0.0 0.0 
0.0 0.0 0.0 
0.0 0.0 0.0 
0.0 0.0 0.0 
0.0 0.0 0.0 
0.0 0.0 0.0 
0.0 0.0 0.0 
0.0 0.0 0.0 
0.0 0.0 0.0 
0.0 0.0 0.0 
0.0 0.0 0.0 
0.0 0.0 0.0 
0.0 0.0 0.0 
0.0 0.0 0.0 
0.0 0.0 0.0 
0.0 0.0 0.0 
0.0 0.0 0.0 
0.0 0.0 0.0 
0.0 0.0 0.0 
0.0 0.0 0.0 
0.0 0.0 0.0 
0.0 0.0 0.0 
0.0 0.0 0.0 
0.0 0.0 0.0 
0.0 0.0 0.0 
0.0 0.0 0.0 
0.0 0.0 0.0 
0.0 0.0 0.0 
0.0 0.0 0.0 
0.0 0.0 0.0 
0.0 0.0 0.0 
0.0 0.0 0.0 
0.0 0.0 0.0 
0.0 0.0 0.0 
0.0 0.0 0.0 
0.0 0.0 0.0 
0.0 0.0 0.0 
0.0 0.0 0.0 
0.0 0.0 0.0 
0.0 0.0 0.0 
0.0 0.0 0.0 
0.0 0.0 0.0 
0.0 0.0 0.0 
0.0 0.0 0.0 
0.0 0.0 0.0 
0.0 0.0 0.0 
0.0 0.0 0.0 
0.0 0.0 0.0 
0.0 0.0 0.0 
0.0 0.0 0.0 
0.0 0.0 0.0 
0.0 0.0 0.0 
0.0 0.0 0.0 
0.0 0.0 0.0 
0.0 0.0 0.0 
0.0 0.0 0.0 
0.0 0.0 0.0 
0.0 0.0 0.0 
0.0 0.0 0.0 
0.0 0.0 0.0 
0.0 0.0 0.0 
0.0 0.0 0.0 
0.0 0.0 0.0 
0.0 0.0 0.0 
0.0 0.0 0.0 
0.0 0.0 0.0 
0.0 0.0 0.0 
0.0 0.0 0.0 
0.0 0.0 0.0 
0.0 0.0 0.0 
0.0 0.0 0.0 
0.0 0.0 0.0 
0.0 0.0 0.0 
0.0 0.0 0.0 
0.0 0.0 0.0 
0.0 0.0 0.0 
0.0 0.0 0.0 
0.0 0.0 0.0 
0.0 0.0 0.0 
0.0 0.0 0.0 
0.0 0.0 0.0 
0.0 0.0 0.0 
0.0 0.0 0.0 
0.0 0.0 0.0 
0.0 0.0 0.0 
0.0 0.0 0.0 
0.0 0.0 0.0 
0.0 0.0 0.0 
0.0 0.0 0.0 
0.0 0.0 0.0 
0.0 0.0 0.0 
0.0 0.0 0.0 
0.0 0.0 0.0 
0.0 0.0 0.0 
0.0 0.0 0.0 
0.0 0.0 0.0 
0.0 0.0 0.0 
0.0 0.0 0.0 
0.0 0.0 0.0 
0.0 0.0 0.0 
0.0 0.0 0.0 
0.0 0.0 0.0 
0.0 0.0 0.0 
0.0 0.0 0.0 
0.0 0.0 0.0 
0.0 0.0 0.0 
0.0 0.0 0.0 
0.0 0.0 0.0 
0.0 0.0 0.0 
0.0 0.0 0.0 
0.0 0.0 0.0 
0.0 0.0 0.0 
0.0 0.0 0.0 
0.0 0.0 0.0 
0.0 0.0 0.0 
0.0 0.0 0.0 
0.0 0.0 0.0 
0.0 0.0 0.0 
0.0 0.0 0.0 
0.0 0.0 0.0 
0.0 0.0 0.0 
0.0 0.0 0.0 
0.0 0.0 0.0 
0.0 0.0 0.0 
0.0 0.0 0.0 
0.0 0.0 0.0 
0.0 0.0 0.0 
0.0 0.0 0.0 
0.0 0.0 0.0 
0.0 0.0 0.0 
0.0 0.0 0.0 
0.0 0.0 0.0 
0.0 0.0 0.0 
0.0 0.0 0.0 
0.0 0.0 0.0 
0.0 0.0 0.0 
0.0 0.0 0.0 
0.0 0.0 0.0 
0.0 0.0 0.0 
0.0 0.0 0.0 
0.0 0.0 0.0 
0.0 0.0 0.0 
0.0 0.0 0.0 
0.0 0.0 0.0 
0.0 0.0 0.0 
0.0 0.0 0.0 
0.0 0.0 0.0 
0.0 0.0 0.0 
0.0 0.0 0.0 
0.0 0.0 0.0 
0.0 0.0 0.0 
0.0 0.0 0.0 
0.0 0.0 0.0 
0.0 0.0 0.0 
0.0 0.0 0.0 
0.0 0.0 0.0 
0.0 0.0 0.0 
0.0 0.0 0.0 
0.0 0.0 0.0 
0.0 0.0 0.0 
0.0 0.0 0.0 
0.0 0.0 0.0 
0.0 0.0 0.0 
0.0 0.0 0.0 
0.0 0.0 0.0 
0.0 0.0 0.0 
0.0 0.0 0.0 
0.0 0.0 0.0 
0.0 0.0 0.0 
0.0 0.0 0.0 
0.0 0.0 0.0 
0.0 0.0 0.0 
0.0 0.0 0.0 
0.0 0.0 0.0 
0.0 0.0 0.0 
0.0 0.0 0.0 
0.0 0.0 0.0 
0.0 0.0 0.0 
0.0 0.0 0.0 
0.0 0.0 0.0 
0.0 0.0 0.0 
0.0 0.0 0.0 
0.0 0.0 0.0 
0.0 0.0 0.0 
0.0 0.0 0.0 
0.0 0.0 0.0 
0.0 0.0 0.0 
0.0 0.0 0.0 
0.0 0.0 0.0 
0.0 0.0 0.0 
0.0 0.0 0.0 
0.0 0.0 0.0 
0.0 0.0 0.0 
0.0 0.0 0.0 
0.0 0.0 0.0 
0.0 0.0 0.0 
0.0 0.0 0.0 
0.0 0.0 0.0 
0.0 0.0 0.0 
0.0 0.0 0.0 
0.0 0.0 0.0 
0.0 0.0 0.0 
0.0 0.0 0.0 
0.0 0.0 0.0 
0.0 0.0 0.0 
0.0 0.0 0.0 
0.0 0.0 0.0 
0.0 0.0 0.0 
0.0 0.0 0.0 
0.0 0.0 0.0 
0.0 0.0 0.0 
0.0 0.0 0.0 
0.0 0.0 0.0 
0.0 0.0 0.0 
0.0 0.0 0.0 
0.0 0.0 0.0 
0.0 0.0 0.0 
0.0 0.0 0.0 
0.0 0.0 0.0 
0.0 0.0 0.0 
0.0 0.0 0.0 
0.0 0.0 0.0 
0.0 0.0 0.0 
0.0 0.0 0.0 
0.0 0.0 0.0 
0.0 0.0 0.0 
0.0 0.0 0.0 
0.0 0.0 0.0 
0.0 0.0 0.0 
0.0 0.0 0.0 
0.0 0.0 0.0 
0.0 0.0 0.0 
0.0 0.0 0.0 
0.0 0.0 0.0 
0.0 0.0 0.0 
0.0 0.0 0.0 
0.0 0.0 0.0 
0.0 0.0 0.0 
0.0 0.0 0.0 
0.0 0.0 0.0 
0.0 0.0 0.0 
0.0 0.0 0.0 
0.0 0.0 0.0 
0.0 0.0 0.0 
0.0 0.0 0.0 
0.0 0.0 0.0 
0.0 0.0 0.0 
0.0 0.0 0.0 
0.0 0.0 0.0 
0.0 0.0 0.0 
0.0 0.0 0.0 
0.0 0.0 0.0 
0.0 0.0 0.0 
0.0 0.0 0.0 
0.0 0.0 0.0 
0.0 0.0 0.0 
0.0 0.0 0.0 
0.0 0.0 0.0 
0.0 0.0 0.0 
0.0 0.0 0.0 
0.0 0.0 0.0 
0.0 0.0 0.0 
0.0 0.0 0.0 
0.0 0.0 0.0 
0.0 0.0 0.0 
0.0 0.0 0.0 
0.0 0.0 0.0 
0.0 0.0 0.0 
0.0 0.0 0.0 
0.0 0.0 0.0 
0.0 0.0 0.0 
0.0 0.0 0.0 
0.0 0.0 0.0 
0.0 0.0 0.0 
0.0 0.0 0.0 
0.0 0.0 0.0 
0.0 0.0 0.0 
0.0 0.0 0.0 
0.0 0.0 0.0 
0.0 0.0 0.0 
0.0 0.0 0.0 
0.0 0.0 0.0 
0.0 0.0 0.0 
0.0 0.0 0.0 
0.0 0.0 0.0 
0.0 0.0 0.0 
0.0 0.0 0.0 
0.0 0.0 0.0 
0.0 0.0 0.0 
0.0 0.0 0.0 
0.0 0.0 0.0 
0.0 0.0 0.0 
0.0 0.0 0.0 
0.0 0.0 0.0 
0.0 0.0 0.0 
0.0 0.0 0.0 
0.0 0.0 0.0 
0.0 0.0 0.0 
0.0 0.0 0.0 
0.0 0.0 0.0 
0.0 0.0 0.0 
0.0 0.0 0.0 
0.0 0.0 0.0 
0.0 0.0 0.0 
0.0 0.0 0.0 
0.0 0.0 0.0 
0.0 0.0 0.0 
0.0 0.0 0.0 
0.0 0.0 0.0 
0.0 0.0 0.0 
0.0 0.0 0.0 
0.0 0.0 0.0 
0.0 0.0 0.0 
0.0 0.0 0.0 
0.0 0.0 0.0 
0.0 0.0 0.0 
0.0 0.0 0.0 
0.0 0.0 0.0 
0.0 0.0 0.0 
0.0 0.0 0.0 
0.0 0.0 0.0 
0.0 0.0 0.0 
0.0 0.0 0.0 
0.0 0.0 0.0 
0.0 0.0 0.0 
0.0 0.0 0.0 
0.0 0.0 0.0 
0.0 0.0 0.0 
0.0 0.0 0.0 
0.0 0.0 0.0 
0.0 0.0 0.0 
0.0 0.0 0.0 
0.0 0.0 0.0 
0.0 0.0 0.0 
0.0 0.0 0.0 
0.0 0.0 0.0 
0.0 0.0 0.0 
0.0 0.0 0.0 
0.0 0.0 0.0 

VECTORS node_force_gravity float
0.0 -1.962000000000e+01 0.0 
0.0 -1.962000000000e+01 0.0 
0.0 -1.962000000000e+01 0.0 
0.0 -1.962000000000e+01 0.0 
0.0 -1.962000000000e+01 0.0 
0.0 -1.962000000000e+01 0.0 
0.0 -1.962000000000e+01 0.0 
0.0 -1.962000000000e+01 0.0 
0.0 -1.962000000000e+01 0.0 
0.0 -1.962000000000e+01 0.0 
0.0 -1.962000000000e+01 0.0 
0.0 -1.962000000000e+01 0.0 
0.0 -1.962000000000e+01 0.0 
0.0 -1.962000000000e+01 0.0 
0.0 -1.962000000000e+01 0.0 
0.0 -1.962000000000e+01 0.0 
0.0 -1.962000000000e+01 0.0 
0.0 -1.962000000000e+01 0.0 
0.0 -1.962000000000e+01 0.0 
0.0 -1.962000000000e+01 0.0 
0.0 -1.962000000000e+01 0.0 
0.0 -1.962000000000e+01 0.0 
0.0 -1.962000000000e+01 0.0 
0.0 -1.962000000000e+01 0.0 
0.0 -1.962000000000e+01 0.0 
0.0 -1.962000000000e+01 0.0 
0.0 -1.962000000000e+01 0.0 
0.0 -1.962000000000e+01 0.0 
0.0 -1.962000000000e+01 0.0 
0.0 -1.962000000000e+01 0.0 
0.0 -1.962000000000e+01 0.0 
0.0 -1.962000000000e+01 0.0 
0.0 -1.962000000000e+01 0.0 
0.0 -1.962000000000e+01 0.0 
0.0 -1.962000000000e+01 0.0 
0.0 -1.962000000000e+01 0.0 
0.0 -1.962000000000e+01 0.0 
0.0 -1.962000000000e+01 0.0 
0.0 -1.962000000000e+01 0.0 
0.0 -1.962000000000e+01 0.0 
0.0 -1.962000000000e+01 0.0 
0.0 -1.962000000000e+01 0.0 
0.0 -1.962000000000e+01 0.0 
0.0 -1.962000000000e+01 0.0 
0.0 -1.962000000000e+01 0.0 
0.0 -1.962000000000e+01 0.0 
0.0 -1.962000000000e+01 0.0 
0.0 -1.962000000000e+01 0.0 
0.0 -1.962000000000e+01 0.0 
0.0 -1.962000000000e+01 0.0 
0.0 -1.962000000000e+01 0.0 
0.0 -1.962000000000e+01 0.0 
0.0 -1.962000000000e+01 0.0 
0.0 -1.962000000000e+01 0.0 
0.0 -1.962000000000e+01 0.0 
0.0 -1.962000000000e+01 0.0 
0.0 -1.962000000000e+01 0.0 
0.0 -1.962000000000e+01 0.0 
0.0 -1.962000000000e+01 0.0 
0.0 -1.962000000000e+01 0.0 
0.0 -1.962000000000e+01 0.0 
0.0 -1.962000000000e+01 0.0 
0.0 -1.962000000000e+01 0.0 
0.0 -1.962000000000e+01 0.0 
0.0 -1.962000000000e+01 0.0 
0.0 -1.962000000000e+01 0.0 
0.0 -1.962000000000e+01 0.0 
0.0 -1.962000000000e+01 0.0 
0.0 -1.962000000000e+01 0.0 
0.0 -1.962000000000e+01 0.0 
0.0 -1.962000000000e+01 0.0 
0.0 -1.962000000000e+01 0.0 
0.0 -1.962000000000e+01 0.0 
0.0 -1.962000000000e+01 0.0 
0.0 -1.962000000000e+01 0.0 
0.0 -1.962000000000e+01 0.0 
0.0 -1.962000000000e+01 0.0 
0.0 -1.962000000000e+01 0.0 
0.0 -1.962000000000e+01 0.0 
0.0 -1.962000000000e+01 0.0 
0.0 -1.962000000000e+01 0.0 
0.0 -1.962000000000e+01 0.0 
0.0 -1.962000000000e+01 0.0 
0.0 -1.962000000000e+01 0.0 
0.0 -1.962000000000e+01 0.0 
0.0 -1.962000000000e+01 0.0 
0.0 -1.962000000000e+01 0.0 
0.0 -1.962000000000e+01 0.0 
0.0 -1.962000000000e+01 0.0 
0.0 -1.962000000000e+01 0.0 
0.0 -1.962000000000e+01 0.0 
0.0 -1.962000000000e+01 0.0 
0.0 -1.962000000000e+01 0.0 
0.0 -1.962000000000e+01 0.0 
0.0 -1.962000000000e+01 0.0 
0.0 -1.962000000000e+01 0.0 
0.0 -1.962000000000e+01 0.0 
0.0 -1.962000000000e+01 0.0 
0.0 -1.962000000000e+01 0.0 
0.0 -1.962000000000e+01 0.0 
0.0 -1.962000000000e+01 0.0 
0.0 -1.962000000000e+01 0.0 
0.0 -1.962000000000e+01 0.0 
0.0 -1.962000000000e+01 0.0 
0.0 -1.962000000000e+01 0.0 
0.0 -1.962000000000e+01 0.0 
0.0 -1.962000000000e+01 0.0 
0.0 -1.962000000000e+01 0.0 
0.0 -1.962000000000e+01 0.0 
0.0 -1.962000000000e+01 0.0 
0.0 -1.962000000000e+01 0.0 
0.0 -1.962000000000e+01 0.0 
0.0 -1.962000000000e+01 0.0 
0.0 -1.962000000000e+01 0.0 
0.0 -1.962000000000e+01 0.0 
0.0 -1.962000000000e+01 0.0 
0.0 -1.962000000000e+01 0.0 
0.0 -1.962000000000e+01 0.0 
0.0 -1.962000000000e+01 0.0 
0.0 -1.962000000000e+01 0.0 
0.0 -1.962000000000e+01 0.0 
0.0 -1.962000000000e+01 0.0 
0.0 -1.962000000000e+01 0.0 
0.0 -1.962000000000e+01 0.0 
0.0 -1.962000000000e+01 0.0 
0.0 -1.962000000000e+01 0.0 
0.0 -1.962000000000e+01 0.0 
0.0 -1.962000000000e+01 0.0 
0.0 -1.962000000000e+01 0.0 
0.0 -1.962000000000e+01 0.0 
0.0 -1.962000000000e+01 0.0 
0.0 -1.962000000000e+01 0.0 
0.0 -1.962000000000e+01 0.0 
0.0 -1.962000000000e+01 0.0 
0.0 -1.962000000000e+01 0.0 
0.0 -1.962000000000e+01 0.0 
0.0 -1.962000000000e+01 0.0 
0.0 -1.962000000000e+01 0.0 
0.0 -1.962000000000e+01 0.0 
0.0 -1.962000000000e+01 0.0 
0.0 -1.962000000000e+01 0.0 
0.0 -1.962000000000e+01 0.0 
0.0 -1.962000000000e+01 0.0 
0.0 -1.962000000000e+01 0.0 
0.0 -1.962000000000e+01 0.0 
0.0 -1.962000000000e+01 0.0 
0.0 -1.962000000000e+01 0.0 
0.0 -1.962000000000e+01 0.0 
0.0 -1.962000000000e+01 0.0 
0.0 -1.962000000000e+01 0.0 
0.0 -1.962000000000e+01 0.0 
0.0 -1.962000000000e+01 0.0 
0.0 -1.962000000000e+01 0.0 
0.0 -1.962000000000e+01 0.0 
0.0 -1.962000000000e+01 0.0 
0.0 -1.962000000000e+01 0.0 
0.0 -1.962000000000e+01 0.0 
0.0 -1.962000000000e+01 0.0 
0.0 -1.962000000000e+01 0.0 
0.0 -1.962000000000e+01 0.0 
0.0 -1.962000000000e+01 0.0 
0.0 -1.962000000000e+01 0.0 
0.0 -1.962000000000e+01 0.0 
0.0 -1.962000000000e+01 0.0 
0.0 -1.962000000000e+01 0.0 
0.0 -1.962000000000e+01 0.0 
0.0 -1.962000000000e+01 0.0 
0.0 -1.962000000000e+01 0.0 
0.0 -1.962000000000e+01 0.0 
0.0 -1.962000000000e+01 0.0 
0.0 -1.962000000000e+01 0.0 
0.0 -1.962000000000e+01 0.0 
0.0 -1.962000000000e+01 0.0 
0.0 -1.962000000000e+01 0.0 
0.0 -1.962000000000e+01 0.0 
0.0 -1.962000000000e+01 0.0 
0.0 -1.962000000000e+01 0.0 
0.0 -1.962000000000e+01 0.0 
0.0 -1.962000000000e+01 0.0 
0.0 -1.962000000000e+01 0.0 
0.0 -1.962000000000e+01 0.0 
0.0 -1.962000000000e+01 0.0 
0.0 -1.962000000000e+01 0.0 
0.0 -1.962000000000e+01 0.0 
0.0 -1.962000000000e+01 0.0 
0.0 -1.962000000000e+01 0.0 
0.0 -1.962000000000e+01 0.0 
0.0 -1.962000000000e+01 0.0 
0.0 -1.962000000000e+01 0.0 
0.0 -1.962000000000e+01 0.0 
0.0 -1.962000000000e+01 0.0 
0.0 -1.962000000000e+01 0.0 
0.0 -1.962000000000e+01 0.0 
0.0 -1.962000000000e+01 0.0 
0.0 -1.962000000000e+01 0.0 
0.0 -1.962000000000e+01 0.0 
0.0 -1.962000000000e+01 0.0 
0.0 -1.962000000000e+01 0.0 
0.0 -1.962000000000e+01 0.0 
0.0 -1.962000000000e+01 0.0 
0.0 -1.962000000000e+01 0.0 
0.0 -1.962000000000e+01 0.0 
0.0 -1.962000000000e+01 0.0 
0.0 -1.962000000000e+01 0.0 
0.0 -1.962000000000e+01 0.0 
0.0 -1.962000000000e+01 0.0 
0.0 -1.962000000000e+01 0.0 
0.0 -1.962000000000e+01 0.0 
0.0 -1.962000000000e+01 0.0 
0.0 -1.962000000000e+01 0.0 
0.0 -1.962000000000e+01 0.0 
0.0 -1.962000000000e+01 0.0 
0.0 -1.962000000000e+01 0.0 
0.0 -1.962000000000e+01 0.0 
0.0 -1.962000000000e+01 0.0 
0.0 -1.962000000000e+01 0.0 
0.0 -1.962000000000e+01 0.0 
0.0 -1.962000000000e+01 0.0 
0.0 -1.962000000000e+01 0.0 
0.0 -1.962000000000e+01 0.0 
0.0 -1.962000000000e+01 0.0 
0.0 -1.962000000000e+01 0.0 
0.0 -1.962000000000e+01 0.0 
0.0 -1.962000000000e+01 0.0 
0.0 -1.962000000000e+01 0.0 
0.0 -1.962000000000e+01 0.0 
0.0 -1.962000000000e+01 0.0 
0.0 -1.962000000000e+01 0.0 
0.0 -1.962000000000e+01 0.0 
0.0 -1.962000000000e+01 0.0 
0.0 -1.962000000000e+01 0.0 
0.0 -1.962000000000e+01 0.0 
0.0 -1.962000000000e+01 0.0 
0.0 -1.962000000000e+01 0.0 
0.0 -1.962000000000e+01 0.0 
0.0 -1.962000000000e+01 0.0 
0.0 -1.962000000000e+01 0.0 
0.0 -1.962000000000e+01 0.0 
0.0 -1.962000000000e+01 0.0 
0.0 -1.962000000000e+01 0.0 
0.0 -1.962000000000e+01 0.0 
0.0 -1.962000000000e+01 0.0 
0.0 -1.962000000000e+01 0.0 
0.0 -1.962000000000e+01 0.0 
0.0 -1.962000000000e+01 0.0 
0.0 -1.962000000000e+01 0.0 
0.0 -1.962000000000e+01 0.0 
0.0 -1.962000000000e+01 0.0 
0.0 -1.962000000000e+01 0.0 
0.0 -1.962000000000e+01 0.0 
0.0 -1.962000000000e+01 0.0 
0.0 -1.962000000000e+01 0.0 
0.0 -1.962000000000e+01 0.0 
0.0 -1.962000000000e+01 0.0 
0.0 -1.962000000000e+01 0.0 
0.0 -1.962000000000e+01 0.0 
0.0 -1.962000000000e+01 0.0 
0.0 -1.962000000000e+01 0.0 
0.0 -1.962000000000e+01 0.0 
0.0 -1.962000000000e+01 0.0 
0.0 -1.962000000000e+01 0.0 
0.0 -1.962000000000e+01 0.0 
0.0 -1.962000000000e+01 0.0 
0.0 -1.962000000000e+01 0.0 
0.0 -1.962000000000e+01 0.0 
0.0 -1.962000000000e+01 0.0 
0.0 -1.962000000000e+01 0.0 
0.0 -1.962000000000e+01 0.0 
0.0 -1.962000000000e+01 0.0 
0.0 -1.962000000000e+01 0.0 
0.0 -1.962000000000e+01 0.0 
0.0 -1.962000000000e+01 0.0 
0.0 -1.962000000000e+01 0.0 
0.0 -1.962000000000e+01 0.0 
0.0 -1.962000000000e+01 0.0 
0.0 -1.962000000000e+01 0.0 
0.0 -1.962000000000e+01 0.0 
0.0 -1.962000000000e+01 0.0 
0.0 -1.962000000000e+01 0.0 
0.0 -1.962000000000e+01 0.0 
0.0 -1.962000000000e+01 0.0 
0.0 -1.962000000000e+01 0.0 
0.0 -1.962000000000e+01 0.0 
0.0 -1.962000000000e+01 0.0 
0.0 -1.962000000000e+01 0.0 
0.0 -1.962000000000e+01 0.0 
0.0 -1.962000000000e+01 0.0 
0.0 -1.962000000000e+01 0.0 
0.0 -1.962000000000e+01 0.0 
0.0 -1.962000000000e+01 0.0 
0.0 -1.962000000000e+01 0.0 
0.0 -1.962000000000e+01 0.0 
0.0 -1.962000000000e+01 0.0 
0.0 -1.962000000000e+01 0.0 
0.0 -1.962000000000e+01 0.0 
0.0 -1.962000000000e+01 0.0 
0.0 -1.962000000000e+01 0.0 
0.0 -1.962000000000e+01 0.0 
0.0 -1.962000000000e+01 0.0 
0.0 -1.962000000000e+01 0.0 
0.0 -1.962000000000e+01 0.0 
0.0 -1.962000000000e+01 0.0 
0.0 -1.962000000000e+01 0.0 
0.0 -1.962000000000e+01 0.0 
0.0 -1.962000000000e+01 0.0 
0.0 -1.962000000000e+01 0.0 
0.0 -1.962000000000e+01 0.0 
0.0 -1.962000000000e+01 0.0 
0.0 -1.962000000000e+01 0.0 
0.0 -1.962000000000e+01 0.0 
0.0 -1.962000000000e+01 0.0 
0.0 -1.962000000000e+01 0.0 
0.0 -1.962000000000e+01 0.0 
0.0 -1.962000000000e+01 0.0 
0.0 -1.962000000000e+01 0.0 
0.0 -1.962000000000e+01 0.0 
0.0 -1.962000000000e+01 0.0 
0.0 -1.962000000000e+01 0.0 
0.0 -1.962000000000e+01 0.0 
0.0 -1.962000000000e+01 0.0 
0.0 -1.962000000000e+01 0.0 
0.0 -1.962000000000e+01 0.0 
0.0 -1.962000000000e+01 0.0 
0.0 -1.962000000000e+01 0.0 
0.0 -1.962000000000e+01 0.0 
0.0 -1.962000000000e+01 0.0 
0.0 -1.962000000000e+01 0.0 
0.0 -1.962000000000e+01 0.0 
0.0 -1.962000000000e+01 0.0 
0.0 -1.962000000000e+01 0.0 
0.0 -1.962000000000e+01 0.0 
0.0 -1.962000000000e+01 0.0 
0.0 -1.962000000000e+01 0.0 
0.0 -1.962000000000e+01 0.0 
0.0 -1.962000000000e+01 0.0 
0.0 -1.962000000000e+01 0.0 
0.0 -1.962000000000e+01 0.0 
0.0 -1.962000000000e+01 0.0 
0.0 -1.962000000000e+01 0.0 
0.0 -1.962000000000e+01 0.0 
0.0 -1.962000000000e+01 0.0 
0.0 -1.962000000000e+01 0.0 
0.0 -1.962000000000e+01 0.0 
0.0 -1.962000000000e+01 0.0 
0.0 -1.962000000000e+01 0.0 
0.0 -1.962000000000e+01 0.0 
0.0 -1.962000000000e+01 0.0 
0.0 -1.962000000000e+01 0.0 
0.0 -1.962000000000e+01 0.0 
0.0 -1.962000000000e+01 0.0 
0.0 -1.962000000000e+01 0.0 
0.0 -1.962000000000e+01 0.0 
0.0 -1.962000000000e+01 0.0 
0.0 -1.962000000000e+01 0.0 
0.0 -1.962000000000e+01 0.0 
0.0 -1.962000000000e+01 0.0 
0.0 -1.962000000000e+01 0.0 
0.0 -1.962000000000e+01 0.0 
0.0 -1.962000000000e+01 0.0 
0.0 -1.962000000000e+01 0.0 
0.0 -1.962000000000e+01 0.0 
0.0 -1.962000000000e+01 0.0 
0.0 -1.962000000000e+01 0.0 
0.0 -1.962000000000e+01 0.0 
0.0 -1.962000000000e+01 0.0 
0.0 -1.962000000000e+01 0.0 
0.0 -1.962000000000e+01 0.0 
0.0 -1.962000000000e+01 0.0 
0.0 -1.962000000000e+01 0.0 
0.0 -1.962000000000e+01 0.0 
0.0 -1.962000000000e+01 0.0 
0.0 -1.962000000000e+01 0.0 
0.0 -1.962000000000e+01 0.0 
0.0 -1.962000000000e+01 0.0 
0.0 -1.962000000000e+01 0.0 
0.0 -1.962000000000e+01 0.0 
0.0 -1.962000000000e+01 0.0 
0.0 -1.962000000000e+01 0.0 
0.0 -1.962000000000e+01 0.0 
0.0 -1.962000000000e+01 0.0 
0.0 -1.962000000000e+01 0.0 
0.0 -1.962000000000e+01 0.0 
0.0 -1.962000000000e+01 0.0 
0.0 -1.962000000000e+01 0.0 
0.0 -1.962000000000e+01 0.0 
0.0 -1.962000000000e+01 0.0 
0.0 -1.962000000000e+01 0.0 
0.0 -1.962000000000e+01 0.0 
0.0 -1.962000000000e+01 0.0 
0.0 -1.962000000000e+01 0.0 
0.0 -1.962000000000e+01 0.0 
0.0 -1.962000000000e+01 0.0 
0.0 -1.962000000000e+01 0.0 
0.0 -1.962000000000e+01 0.0 
0.0 -1.962000000000e+01 0.0 
0.0 -1.962000000000e+01 0.0 
0.0 -1.962000000000e+01 0.0 
0.0 -1.962000000000e+01 0.0 
0.0 -1.962000000000e+01 0.0 
0.0 -1.962000000000e+01 0.0 
0.0 -1.962000000000e+01 0.0 
0.0 -1.962000000000e+01 0.0 
0.0 -1.962000000000e+01 0.0 
0.0 -1.962000000000e+01 0.0 
0.0 -1.962000000000e+01 0.0 
0.0 -1.962000000000e+01 0.0 
0.0 -1.962000000000e+01 0.0 
0.0 -1.962000000000e+01 0.0 
0.0 -1.962000000000e+01 0.0 
0.0 -1.962000000000e+01 0.0 
0.0 -1.962000000000e+01 0.0 
0.0 -1.962000000000e+01 0.0 
0.0 -1.962000000000e+01 0.0 
0.0 -1.962000000000e+01 0.0 
0.0 -1.962000000000e+01 0.0 
0.0 -1.962000000000e+01 0.0 
0.0 -1.962000000000e+01 0.0 
0.0 -1.962000000000e+01 0.0 
0.0 -1.962000000000e+01 0.0 
0.0 -1.962000000000e+01 0.0 
0.0 -1.962000000000e+01 0.0 
0.0 -1.962000000000e+01 0.0 
0.0 -1.962000000000e+01 0.0 
0.0 -1.962000000000e+01 0.0 
0.0 -1.962000000000e+01 0.0 
0.0 -1.962000000000e+01 0.0 
0.0 -1.962000000000e+01 0.0 
0.0 -1.962000000000e+01 0.0 
0.0 -1.962000000000e+01 0.0 
0.0 -1.962000000000e+01 0.0 
0.0 -1.962000000000e+01 0.0 
0.0 -1.962000000000e+01 0.0 
0.0 -1.962000000000e+01 0.0 
0.0 -1.962000000000e+01 0.0 
0.0 -1.962000000000e+01 0.0 
0.0 -1.962000000000e+01 0.0 
0.0 -1.962000000000e+01 0.0 
0.0 -1.962000000000e+01 0.0 
0.0 -1.962000000000e+01 0.0 
0.0 -1.962000000000e+01 0.0 
0.0 -1.962000000000e+01 0.0 
0.0 -1.962000000000e+01 0.0 
0.0 -1.962000000000e+01 0.0 
0.0 -1.962000000000e+01 0.0 
0.0 -1.962000000000e+01 0.0 
0.0 -1.962000000000e+01 0.0 
0.0 -1.962000000000e+01 0.0 
0.0 -1.962000000000e+01 0.0 
0.0 -1.962000000000e+01 0.0 
0.0 -1.962000000000e+01 0.0 
0.0 -1.962000000000e+01 0.0 
0.0 -1.962000000000e+01 0.0 
0.0 -1.962000000000e+01 0.0 
0.0 -1.962000000000e+01 0.0 
0.0 -1.962000000000e+01 0.0 
0.0 -1.962000000000e+01 0.0 
0.0 -1.962000000000e+01 0.0 
0.0 -1.962000000000e+01 0.0 
0.0 -1.962000000000e+01 0.0 
0.0 -1.962000000000e+01 0.0 
0.0 -1.962000000000e+01 0.0 
0.0 -1.962000000000e+01 0.0 
0.0 -1.962000000000e+01 0.0 
0.0 -1.962000000000e+01 0.0 
0.0 -1.962000000000e+01 0.0 
0.0 -1.962000000000e+01 0.0 
0.0 -1.962000000000e+01 0.0 
0.0 -1.962000000000e+01 0.0 
0.0 -1.962000000000e+01 0.0 
0.0 -1.962000000000e+01 0.0 
0.0 -1.962000000000e+01 0.0 
0.0 -1.962000000000e+01 0.0 
0.0 -1.962000000000e+01 0.0 
0.0 -1.962000000000e+01 0.0 
0.0 -1.962000000000e+01 0.0 
0.0 -1.962000000000e+01 0.0 
0.0 -1.962000000000e+01 0.0 
0.0 -1.962000000000e+01 0.0 
0.0 -1.962000000000e+01 0.0 
0.0 -1.962000000000e+01 0.0 
0.0 -1.962000000000e+01 0.0 
0.0 -1.962000000000e+01 0.0 
0.0 -1.962000000000e+01 0.0 
0.0 -1.962000000000e+01 0.0 
0.0 -1.962000000000e+01 0.0 
0.0 -1.962000000000e+01 0.0 
0.0 -1.962000000000e+01 0.0 
0.0 -1.962000000000e+01 0.0 
0.0 -1.962000000000e+01 0.0 
0.0 -1.962000000000e+01 0.0 
0.0 -1.962000000000e+01 0.0 
0.0 -1.962000000000e+01 0.0 
0.0 -1.962000000000e+01 0.0 
0.0 -1.962000000000e+01 0.0 
0.0 -1.962000000000e+01 0.0 
0.0 -1.962000000000e+01 0.0 
0.0 -1.962000000000e+01 0.0 
0.0 -1.962000000000e+01 0.0 
0.0 -1.962000000000e+01 0.0 
0.0 -1.962000000000e+01 0.0 
0.0 -1.962000000000e+01 0.0 
0.0 -1.962000000000e+01 0.0 
0.0 -1.962000000000e+01 0.0 
0.0 -1.962000000000e+01 0.0 
0.0 -1.962000000000e+01 0.0 
0.0 -1.962000000000e+01 0.0 
0.0 -1.962000000000e+01 0.0 
0.0 -1.962000000000e+01 0.0 
0.0 -1.962000000000e+01 0.0 
0.0 -1.962000000000e+01 0.0 
0.0 -1.962000000000e+01 0.0 
0.0 -1.962000000000e+01 0.0 
0.0 -1.962000000000e+01 0.0 
0.0 -1.962000000000e+01 0.0 
0.0 -1.962000000000e+01 0.0 
0.0 -1.962000000000e+01 0.0 
0.0 -1.962000000000e+01 0.0 
0.0 -1.962000000000e+01 0.0 
0.0 -1.962000000000e+01 0.0 
0.0 -1.962000000000e+01 0.0 
0.0 -1.962000000000e+01 0.0 
0.0 -1.962000000000e+01 0.0 
0.0 -1.962000000000e+01 0.0 
0.0 -1.962000000000e+01 0.0 
0.0 -1.962000000000e+01 0.0 
0.0 -1.962000000000e+01 0.0 
0.0 -1.962000000000e+01 0.0 
0.0 -1.962000000000e+01 0.0 
0.0 -1.962000000000e+01 0.0 
0.0 -1.962000000000e+01 0.0 
0.0 -1.962000000000e+01 0.0 
0.0 -1.962000000000e+01 0.0 
0.0 -1.962000000000e+01 0.0 
0.0 -1.962000000000e+01 0.0 
0.0 -1.962000000000e+01 0.0 
0.0 -1.962000000000e+01 0.0 
0.0 -1.962000000000e+01 0.0 
0.0 -1.962000000000e+01 0.0 
0.0 -1.962000000000e+01 0.0 
0.0 -1.962000000000e+01 0.0 
0.0 -1.962000000000e+01 0.0 
0.0 -1.962000000000e+01 0.0 
0.0 -1.962000000000e+01 0.0 
0.0 -1.962000000000e+01 0.0 
0.0 -1.962000000000e+01 0.0 
0.0 -1.962000000000e+01 0.0 
0.0 -1.962000000000e+01 0.0 
0.0 -1.962000000000e+01 0.0 
0.0 -1.962000000000e+01 0.0 
0.0 -1.962000000000e+01 0.0 
0.0 -1.962000000000e+01 0.0 
0.0 -1.962000000000e+01 0.0 
0.0 -1.962000000000e+01 0.0 
0.0 -1.962000000000e+01 0.0 
0.0 -1.962000000000e+01 0.0 
0.0 -1.962000000000e+01 0.0 
0.0 -1.962000000000e+01 0.0 
0.0 -1.962000000000e+01 0.0 
0.0 -1.962000000000e+01 0.0 
0.0 -1.962000000000e+01 0.0 
0.0 -1.962000000000e+01 0.0 
0.0 -1.962000000000e+01 0.0 
0.0 -1.962000000000e+01 0.0 
0.0 -1.962000000000e+01 0.0 
0.0 -1.962000000000e+01 0.0 
0.0 -1.962000000000e+01 0.0 
0.0 -1.962000000000e+01 0.0 
0.0 -1.962000000000e+01 0.0 
0.0 -1.962000000000e+01 0.0 
0.0 -1.962000000000e+01 0.0 
0.0 -1.962000000000e+01 0.0 
0.0 -1.962000000000e+01 0.0 
0.0 -1.962000000000e+01 0.0 
0.0 -1.962000000000e+01 0.0 
0.0 -1.962000000000e+01 0.0 
0.0 -1.962000000000e+01 0.0 
0.0 -1.962000000000e+01 0.0 
0.0 -1.962000000000e+01 0.0 
0.0 -1.962000000000e+01 0.0 
0.0 -1.962000000000e+01 0.0 
0.0 -1.962000000000e+01 0.0 
0.0 -1.962000000000e+01 0.0 
0.0 -1.962000000000e+01 0.0 
0.0 -1.962000000000e+01 0.0 
0.0 -1.962000000000e+01 0.0 
0.0 -1.962000000000e+01 0.0 
0.0 -1.962000000000e+01 0.0 
0.0 -1.962000000000e+01 0.0 
0.0 -1.962000000000e+01 0.0 
0.0 -1.962000000000e+01 0.0 
0.0 -1.962000000000e+01 0.0 
0.0 -1.962000000000e+01 0.0 
0.0 -1.962000000000e+01 0.0 
0.0 -1.962000000000e+01 0.0 
0.0 -1.962000000000e+01 0.0 
0.0 -1.962000000000e+01 0.0 
0.0 -1.962000000000e+01 0.0 
0.0 -1.962000000000e+01 0.0 
0.0 -1.962000000000e+01 0.0 
0.0 -1.962000000000e+01 0.0 
0.0 -1.962000000000e+01 0.0 
0.0 -1.962000000000e+01 0.0 
0.0 -1.962000000000e+01 0.0 
0.0 -1.962000000000e+01 0.0 
0.0 -1.962000000000e+01 0.0 
0.0 -1.962000000000e+01 0.0 
0.0 -1.962000000000e+01 0.0 
0.0 -1.962000000000e+01 0.0 
0.0 -1.962000000000e+01 0.0 
0.0 -1.962000000000e+01 0.0 
0.0 -1.962000000000e+01 0.0 
0.0 -1.962000000000e+01 0.0 
0.0 -1.962000000000e+01 0.0 
0.0 -1.962000000000e+01 0.0 
0.0 -1.962000000000e+01 0.0 
0.0 -1.962000000000e+01 0.0 
0.0 -1.962000000000e+01 0.0 
0.0 -1.962000000000e+01 0.0 
0.0 -1.962000000000e+01 0.0 
0.0 -1.962000000000e+01 0.0 
0.0 -1.962000000000e+01 0.0 
0.0 -1.962000000000e+01 0.0 
0.0 -1.962000000000e+01 0.0 
0.0 -1.962000000000e+01 0.0 
0.0 -1.962000000000e+01 0.0 
0.0 -1.962000000000e+01 0.0 
0.0 -1.962000000000e+01 0.0 
0.0 -1.962000000000e+01 0.0 
0.0 -1.962000000000e+01 0.0 
0.0 -1.962000000000e+01 0.0 
0.0 -1.962000000000e+01 0.0 
0.0 -1.962000000000e+01 0.0 
0.0 -1.962000000000e+01 0.0 
0.0 -1.962000000000e+01 0.0 
0.0 -1.962000000000e+01 0.0 
0.0 -1.962000000000e+01 0.0 
0.0 -1.962000000000e+01 0.0 
0.0 -1.962000000000e+01 0.0 
0.0 -1.962000000000e+01 0.0 
0.0 -1.962000000000e+01 0.0 
0.0 -1.962000000000e+01 0.0 
0.0 -1.962000000000e+01 0.0 
0.0 -1.962000000000e+01 0.0 
0.0 -1.962000000000e+01 0.0 
0.0 -1.962000000000e+01 0.0 
0.0 -1.962000000000e+01 0.0 
0.0 -1.962000000000e+01 0.0 
0.0 -1.962000000000e+01 0.0 
0.0 -1.962000000000e+01 0.0 
0.0 -1.962000000000e+01 0.0 
0.0 -1.962000000000e+01 0.0 
0.0 -1.962000000000e+01 0.0 
0.0 -1.962000000000e+01 0.0 
0.0 -1.962000000000e+01 0.0 
0.0 -1.962000000000e+01 0.0 
0.0 -1.962000000000e+01 0.0 
0.0 -1.962000000000e+01 0.0 
0.0 -1.962000000000e+01 0.0 
0.0 -1.962000000000e+01 0.0 
0.0 -1.962000000000e+01 0.0 
0.0 -1.962000000000e+01 0.0 
0.0 -1.962000000000e+01 0.0 
0.0 -1.962000000000e+01 0.0 
0.0 -1.962000000000e+01 0.0 
0.0 -1.962000000000e+01 0.0 
0.0 -1.962000000000e+01 0.0 
0.0 -1.962000000000e+01 0.0 
0.0 -1.962000000000e+01 0.0 
0.0 -1.962000000000e+01 0.0 
0.0 -1.962000000000e+01 0.0 
0.0 -1.962000000000e+01 0.0 
0.0 -1.962000000000e+01 0.0 
0.0 -1.962000000000e+01 0.0 
0.0 -1.962000000000e+01 0.0 
0.0 -1.962000000000e+01 0.0 
0.0 -1.962000000000e+01 0.0 
0.0 -1.962000000000e+01 0.0 
0.0 -1.962000000000e+01 0.0 
0.0 -1.962000000000e+01 0.0 
0.0 -1.962000000000e+01 0.0 
0.0 -1.962000000000e+01 0.0 
0.0 -1.962000000000e+01 0.0 
0.0 -1.962000000000e+01 0.0 
0.0 -1.962000000000e+01 0.0 
0.0 -1.962000000000e+01 0.0 
0.0 -1.962000000000e+01 0.0 
0.0 -1.962000000000e+01 0.0 
0.0 -1.962000000000e+01 0.0 
0.0 -1.962000000000e+01 0.0 
0.0 -1.962000000000e+01 0.0 
0.0 -1.962000000000e+01 0.0 
0.0 -1.962000000000e+01 0.0 
0.0 -1.962000000000e+01 0.0 
0.0 -1.962000000000e+01 0.0 
0.0 -1.962000000000e+01 0.0 
0.0 -1.962000000000e+01 0.0 
0.0 -1.962000000000e+01 0.0 
0.0 -1.962000000000e+01 0.0 
0.0 -1.962000000000e+01 0.0 
0.0 -1.962000000000e+01 0.0 
0.0 -1.962000000000e+01 0.0 
0.0 -1.962000000000e+01 0.0 
0.0 -1.962000000000e+01 0.0 
0.0 -1.962000000000e+01 0.0 
0.0 -1.962000000000e+01 0.0 
0.0 -1.962000000000e+01 0.0 
0.0 -1.962000000000e+01 0.0 
0.0 -1.962000000000e+01 0.0 
0.0 -1.962000000000e+01 0.0 
0.0 -1.962000000000e+01 0.0 
0.0 -1.962000000000e+01 0.0 
0.0 -1.962000000000e+01 0.0 
0.0 -1.962000000000e+01 0.0 
0.0 -1.962000000000e+01 0.0 
0.0 -1.962000000000e+01 0.0 
0.0 -1.962000000000e+01 0.0 
0.0 -1.962000000000e+01 0.0 
0.0 -1.962000000000e+01 0.0 
0.0 -1.962000000000e+01 0.0 
0.0 -1.962000000000e+01 0.0 
0.0 -1.962000000000e+01 0.0 
0.0 -1.962000000000e+01 0.0 
0.0 -1.962000000000e+01 0.0 
0.0 -1.962000000000e+01 0.0 
0.0 -1.962000000000e+01 0.0 
0.0 -1.962000000000e+01 0.0 
0.0 -1.962000000000e+01 0.0 
0.0 -1.962000000000e+01 0.0 
0.0 -1.962000000000e+01 0.0 
0.0 -1.962000000000e+01 0.0 
0.0 -1.962000000000e+01 0.0 
0.0 -1.962000000000e+01 0.0 
0.0 -1.962000000000e+01 0.0 
0.0 -1.962000000000e+01 0.0 
0.0 -1.962000000000e+01 0.0 
0.0 -1.962000000000e+01 0.0 
0.0 -1.962000000000e+01 0.0 
0.0 -1.962000000000e+01 0.0 
0.0 -1.962000000000e+01 0.0 
0.0 -1.962000000000e+01 0.0 
0.0 -1.962000000000e+01 0.0 
0.0 -1.962000000000e+01 0.0 
0.0 -1.962000000000e+01 0.0 
0.0 -1.962000000000e+01 0.0 
0.0 -1.962000000000e+01 0.0 
0.0 -1.962000000000e+01 0.0 
0.0 -1.962000000000e+01 0.0 
0.0 -1.962000000000e+01 0.0 
0.0 -1.962000000000e+01 0.0 
0.0 -1.962000000000e+01 0.0 
0.0 -1.962000000000e+01 0.0 
0.0 -1.962000000000e+01 0.0 
0.0 -1.962000000000e+01 0.0 
0.0 -1.962000000000e+01 0.0 
0.0 -1.962000000000e+01 0.0 
0.0 -1.962000000000e+01 0.0 
0.0 -1.962000000000e+01 0.0 
0.0 -1.962000000000e+01 0.0 
0.0 -1.962000000000e+01 0.0 
0.0 -1.962000000000e+01 0.0 
0.0 -1.962000000000e+01 0.0 
0.0 -1.962000000000e+01 0.0 
0.0 -1.962000000000e+01 0.0 
0.0 -1.962000000000e+01 0.0 
0.0 -1.962000000000e+01 0.0 
0.0 -1.962000000000e+01 0.0 
0.0 -1.962000000000e+01 0.0 
0.0 -1.962000000000e+01 0.0 
0.0 -1.962000000000e+01 0.0 
0.0 -1.962000000000e+01 0.0 
0.0 -1.962000000000e+01 0.0 
0.0 -1.962000000000e+01 0.0 
0.0 -1.962000000000e+01 0.0 
0.0 -1.962000000000e+01 0.0 
0.0 -1.962000000000e+01 0.0 
0.0 -1.962000000000e+01 0.0 
0.0 -1.962000000000e+01 0.0 
0.0 -1.962000000000e+01 0.0 
0.0 -1.962000000000e+01 0.0 
0.0 -1.962000000000e+01 0.0 
0.0 -1.962000000000e+01 0.0 
0.0 -1.962000000000e+01 0.0 
0.0 -1.962000000000e+01 0.0 
0.0 -1.962000000000e+01 0.0 
0.0 -1.962000000000e+01 0.0 
0.0 -1.962000000000e+01 0.0 
0.0 -1.962000000000e+01 0.0 
0.0 -1.962000000000e+01 0.0 
0.0 -1.962000000000e+01 0.0 
0.0 -1.962000000000e+01 0.0 
0.0 -1.962000000000e+01 0.0 
0.0 -1.962000000000e+01 0.0 
0.0 -1.962000000000e+01 0.0 
0.0 -1.962000000000e+01 0.0 
0.0 -1.962000000000e+01 0.0 
0.0 -1.962000000000e+01 0.0 
0.0 -1.962000000000e+01 0.0 
0.0 -1.962000000000e+01 0.0 
0.0 -1.962000000000e+01 0.0 
0.0 -1.962000000000e+01 0.0 
0.0 -1.962000000000e+01 0.0 
0.0 -1.962000000000e+01 0.0 
0.0 -1.962000000000e+01 0.0 
0.0 -1.962000000000e+01 0.0 
0.0 -1.962000000000e+01 0.0 
0.0 -1.962000000000e+01 0.0 
0.0 -1.962000000000e+01 0.0 
0.0 -1.962000000000e+01 0.0 
0.0 -1.962000000000e+01 0.0 
0.0 -1.962000000000e+01 0.0 
0.0 -1.962000000000e+01 0.0 
0.0 -1.962000000000e+01 0.0 
0.0 -1.962000000000e+01 0.0 
0.0 -1.962000000000e+01 0.0 
0.0 -1.962000000000e+01 0.0 
0.0 -1.962000000000e+01 0.0 
0.0 -1.962000000000e+01 0.0 
0.0 -1.962000000000e+01 0.0 
0.0 -1.962000000000e+01 0.0 
0.0 -1.962000000000e+01 0.0 
0.0 -1.962000000000e+01 0.0 
0.0 -1.962000000000e+01 0.0 
0.0 -1.962000000000e+01 0.0 
0.0 -1.962000000000e+01 0.0 
0.0 -1.962000000000e+01 0.0 
0.0 -1.962000000000e+01 0.0 
0.0 -1.962000000000e+01 0.0 
0.0 -1.962000000000e+01 0.0 
0.0 -1.962000000000e+01 0.0 
0.0 -1.962000000000e+01 0.0 
0.0 -1.962000000000e+01 0.0 
0.0 -1.962000000000e+01 0.0 
0.0 -1.962000000000e+01 0.0 
0.0 -1.962000000000e+01 0.0 
0.0 -1.962000000000e+01 0.0 
0.0 -1.962000000000e+01 0.0 
0.0 -1.962000000000e+01 0.0 
0.0 -1.962000000000e+01 0.0 
0.0 -1.962000000000e+01 0.0 
0.0 -1.962000000000e+01 0.0 
0.0 -1.962000000000e+01 0.0 
0.0 -1.962000000000e+01 0.0 
0.0 -1.962000000000e+01 0.0 
0.0 -1.962000000000e+01 0.0 
0.0 -1.962000000000e+01 0.0 
0.0 -1.962000000000e+01 0.0 
0.0 -1.962000000000e+01 0.0 
0.0 -1.962000000000e+01 0.0 
0.0 -1.962000000000e+01 0.0 
0.0 -1.962000000000e+01 0.0 
0.0 -1.962000000000e+01 0.0 
0.0 -1.962000000000e+01 0.0 
0.0 -1.962000000000e+01 0.0 
0.0 -1.962000000000e+01 0.0 
0.0 -1.962000000000e+01 0.0 
0.0 -1.962000000000e+01 0.0 
0.0 -1.962000000000e+01 0.0 
0.0 -1.962000000000e+01 0.0 
0.0 -1.962000000000e+01 0.0 
0.0 -1.962000000000e+01 0.0 
0.0 -1.962000000000e+01 0.0 
0.0 -1.962000000000e+01 0.0 
0.0 -1.962000000000e+01 0.0 
0.0 -1.962000000000e+01 0.0 
0.0 -1.962000000000e+01 0.0 
0.0 -1.962000000000e+01 0.0 
0.0 -1.962000000000e+01 0.0 
0.0 -1.962000000000e+01 0.0 
0.0 -1.962000000000e+01 0.0 
0.0 -1.962000000000e+01 0.0 
0.0 -1.962000000000e+01 0.0 
0.0 -1.962000000000e+01 0.0 
0.0 -1.962000000000e+01 0.0 
0.0 -1.962000000000e+01 0.0 
0.0 -1.962000000000e+01 0.0 
0.0 -1.962000000000e+01 0.0 
0.0 -1.962000000000e+01 0.0 
0.0 -1.962000000000e+01 0.0 
0.0 -1.962000000000e+01 0.0 
0.0 -1.962000000000e+01 0.0 
0.0 -1.962000000000e+01 0.0 
0.0 -1.962000000000e+01 0.0 
0.0 -1.962000000000e+01 0.0 
0.0 -1.962000000000e+01 0.0 
0.0 -1.962000000000e+01 0.0 
0.0 -1.962000000000e+01 0.0 
0.0 -1.962000000000e+01 0.0 
0.0 -1.962000000000e+01 0.0 
0.0 -1.962000000000e+01 0.0 
0.0 -1.962000000000e+01 0.0 
0.0 -1.962000000000e+01 0.0 
0.0 -1.962000000000e+01 0.0 
0.0 -1.962000000000e+01 0.0 
0.0 -1.962000000000e+01 0.0 
0.0 -1.962000000000e+01 0.0 
0.0 -1.962000000000e+01 0.0 
0.0 -1.962000000000e+01 0.0 
0.0 -1.962000000000e+01 0.0 
0.0 -1.962000000000e+01 0.0 
0.0 -1.962000000000e+01 0.0 
0.0 -1.962000000000e+01 0.0 
0.0 -1.962000000000e+01 0.0 
0.0 -1.962000000000e+01 0.0 
0.0 -1.962000000000e+01 0.0 
0.0 -1.962000000000e+01 0.0 
0.0 -1.962000000000e+01 0.0 
0.0 -1.962000000000e+01 0.0 
0.0 -1.962000000000e+01 0.0 
0.0 -1.962000000000e+01 0.0 
0.0 -1.962000000000e+01 0.0 
0.0 -1.962000000000e+01 0.0 
0.0 -1.962000000000e+01 0.0 
0.0 -1.962000000000e+01 0.0 
0.0 -1.962000000000e+01 0.0 
0.0 -1.962000000000e+01 0.0 
0.0 -1.962000000000e+01 0.0 
0.0 -1.962000000000e+01 0.0 
0.0 -1.962000000000e+01 0.0 
0.0 -1.962000000000e+01 0.0 
0.0 -1.962000000000e+01 0.0 
0.0 -1.962000000000e+01 0.0 
0.0 -1.962000000000e+01 0.0 
0.0 -1.962000000000e+01 0.0 
0.0 -1.962000000000e+01 0.0 
0.0 -1.962000000000e+01 0.0 
0.0 -1.962000000000e+01 0.0 
0.0 -1.962000000000e+01 0.0 
0.0 -1.962000000000e+01 0.0 
0.0 -1.962000000000e+01 0.0 
0.0 -1.962000000000e+01 0.0 
0.0 -1.962000000000e+01 0.0 
0.0 -1.962000000000e+01 0.0 
0.0 -1.962000000000e+01 0.0 
0.0 -1.962000000000e+01 0.0 
0.0 -1.962000000000e+01 0.0 
0.0 -1.962000000000e+01 0.0 
0.0 -1.962000000000e+01 0.0 
0.0 -1.962000000000e+01 0.0 
0.0 -1.962000000000e+01 0.0 
0.0 -1.962000000000e+01 0.0 
0.0 -1.962000000000e+01 0.0 
0.0 -1.962000000000e+01 0.0 
0.0 -1.962000000000e+01 0.0 
0.0 -1.962000000000e+01 0.0 
0.0 -1.962000000000e+01 0.0 
0.0 -1.962000000000e+01 0.0 
0.0 -1.962000000000e+01 0.0 
0.0 -1.962000000000e+01 0.0 
0.0 -1.962000000000e+01 0.0 
0.0 -1.962000000000e+01 0.0 
0.0 -1.962000000000e+01 0.0 
0.0 -1.962000000000e+01 0.0 
0.0 -1.962000000000e+01 0.0 
0.0 -1.962000000000e+01 0.0 
0.0 -1.962000000000e+01 0.0 
0.0 -1.962000000000e+01 0.0 
0.0 -1.962000000000e+01 0.0 
0.0 -1.962000000000e+01 0.0 
0.0 -1.962000000000e+01 0.0 
0.0 -1.962000000000e+01 0.0 
0.0 -1.962000000000e+01 0.0 
0.0 -1.962000000000e+01 0.0 
0.0 -1.962000000000e+01 0.0 
0.0 -1.962000000000e+01 0.0 
0.0 -1.962000000000e+01 0.0 
0.0 -1.962000000000e+01 0.0 
0.0 -1.962000000000e+01 0.0 
0.0 -1.962000000000e+01 0.0 
0.0 -1.962000000000e+01 0.0 
0.0 -1.962000000000e+01 0.0 
0.0 -1.962000000000e+01 0.0 
0.0 -1.962000000000e+01 0.0 
0.0 -1.962000000000e+01 0.0 
0.0 -1.962000000000e+01 0.0 
0.0 -1.962000000000e+01 0.0 
0.0 -1.962000000000e+01 0.0 
0.0 -1.962000000000e+01 0.0 
0.0 -1.962000000000e+01 0.0 
0.0 -1.962000000000e+01 0.0 
0.0 -1.962000000000e+01 0.0 
0.0 -1.962000000000e+01 0.0 
0.0 -1.962000000000e+01 0.0 
0.0 -1.962000000000e+01 0.0 
0.0 -1.962000000000e+01 0.0 
0.0 -1.962000000000e+01 0.0 
0.0 -1.962000000000e+01 0.0 
0.0 -1.962000000000e+01 0.0 
0.0 -1.962000000000e+01 0.0 
0.0 -1.962000000000e+01 0.0 
0.0 -1.962000000000e+01 0.0 
0.0 -1.962000000000e+01 0.0 
0.0 -1.962000000000e+01 0.0 
0.0 -1.962000000000e+01 0.0 
0.0 -1.962000000000e+01 0.0 
0.0 -1.962000000000e+01 0.0 
0.0 -1.962000000000e+01 0.0 
0.0 -1.962000000000e+01 0.0 
0.0 -1.962000000000e+01 0.0 
0.0 -1.962000000000e+01 0.0 
0.0 -1.962000000000e+01 0.0 
0.0 -1.962000000000e+01 0.0 
0.0 -1.962000000000e+01 0.0 
0.0 -1.962000000000e+01 0.0 
0.0 -1.962000000000e+01 0.0 
0.0 -1.962000000000e+01 0.0 
0.0 -1.962000000000e+01 0.0 
0.0 -1.962000000000e+01 0.0 
0.0 -1.962000000000e+01 0.0 
0.0 -1.962000000000e+01 0.0 
0.0 -1.962000000000e+01 0.0 
0.0 -1.962000000000e+01 0.0 
0.0 -1.962000000000e+01 0.0 
0.0 -1.962000000000e+01 0.0 
0.0 -1.962000000000e+01 0.0 
0.0 -1.962000000000e+01 0.0 
0.0 -1.962000000000e+01 0.0 
0.0 -1.962000000000e+01 0.0 
0.0 -1.962000000000e+01 0.0 
0.0 -1.962000000000e+01 0.0 
0.0 -1.962000000000e+01 0.0 
0.0 -1.962000000000e+01 0.0 
0.0 -1.962000000000e+01 0.0 
0.0 -1.962000000000e+01 0.0 
0.0 -1.962000000000e+01 0.0 
0.0 -1.962000000000e+01 0.0 
0.0 -1.962000000000e+01 0.0 
0.0 -1.962000000000e+01 0.0 
0.0 -1.962000000000e+01 0.0 
0.0 -1.962000000000e+01 0.0 
0.0 -1.962000000000e+01 0.0 
0.0 -1.962000000000e+01 0.0 
0.0 -1.962000000000e+01 0.0 
0.0 -1.962000000000e+01 0.0 
0.0 -1.962000000000e+01 0.0 
0.0 -1.962000000000e+01 0.0 
0.0 -1.962000000000e+01 0.0 
0.0 -1.962000000000e+01 0.0 
0.0 -1.962000000000e+01 0.0 
0.0 -1.962000000000e+01 0.0 
0.0 -1.962000000000e+01 0.0 
0.0 -1.962000000000e+01 0.0 
0.0 -1.962000000000e+01 0.0 
0.0 -1.962000000000e+01 0.0 
0.0 -1.962000000000e+01 0.0 
0.0 -1.962000000000e+01 0.0 
0.0 -1.962000000000e+01 0.0 
0.0 -1.962000000000e+01 0.0 
0.0 -1.962000000000e+01 0.0 
0.0 -1.962000000000e+01 0.0 
0.0 -1.962000000000e+01 0.0 
0.0 -1.962000000000e+01 0.0 
0.0 -1.962000000000e+01 0.0 
0.0 -1.962000000000e+01 0.0 
0.0 -1.962000000000e+01 0.0 
0.0 -1.962000000000e+01 0.0 
0.0 -1.962000000000e+01 0.0 
0.0 -1.962000000000e+01 0.0 
0.0 -1.962000000000e+01 0.0 
0.0 -1.962000000000e+01 0.0 
0.0 -1.962000000000e+01 0.0 
0.0 -1.962000000000e+01 0.0 
0.0 -1.962000000000e+01 0.0 
0.0 -1.962000000000e+01 0.0 
0.0 -1.962000000000e+01 0.0 
0.0 -1.962000000000e+01 0.0 
0.0 -1.962000000000e+01 0.0 
0.0 -1.962000000000e+01 0.0 
0.0 -1.962000000000e+01 0.0 
0.0 -1.962000000000e+01 0.0 
0.0 -1.962000000000e+01 0.0 
0.0 -1.962000000000e+01 0.0 
0.0 -1.962000000000e+01 0.0 
0.0 -1.962000000000e+01 0.0 
0.0 -1.962000000000e+01 0.0 
0.0 -1.962000000000e+01 0.0 
0.0 -1.962000000000e+01 0.0 
0.0 -1.962000000000e+01 0.0 
0.0 -1.962000000000e+01 0.0 
0.0 -1.962000000000e+01 0.0 
0.0 -1.962000000000e+01 0.0 
0.0 -1.962000000000e+01 0.0 
0.0 -1.962000000000e+01 0.0 
0.0 -1.962000000000e+01 0.0 
0.0 -1.962000000000e+01 0.0 
0.0 -1.962000000000e+01 0.0 
0.0 -1.962000000000e+01 0.0 
0.0 -1.962000000000e+01 0.0 
0.0 -1.962000000000e+01 0.0 
0.0 -1.962000000000e+01 0.0 

VECTORS node_rhside_materi_fixed float
7.723584373210e-02 0.0 0.0 
3.868146415327e+01 0.0 0.0 
-8.361455708308e+01 -1.995990806653e+02 0.0 
5.419213135144e+01 -1.302062362933e+02 0.0 
-2.690282438716e+00 0.0 0.0 
-1.128002865268e+01 0.0 0.0 
-2.012432019243e+01 0.0 0.0 
-3.033472819936e+01 0.0 0.0 
-3.928658457337e+01 0.0 0.0 
-4.818467478740e+01 0.0 0.0 
-5.683666842848e+01 0.0 0.0 
-6.528328673405e+01 0.0 0.0 
-7.356412687191e+01 0.0 0.0 
-8.172650880509e+01 0.0 0.0 
-9.037432509278e+01 0.0 0.0 
-9.892369750197e+01 0.0 0.0 
-1.069878101472e+02 0.0 0.0 
-1.158599520095e+02 0.0 0.0 
-1.246681603602e+02 0.0 0.0 
-1.336124420365e+02 0.0 0.0 
-1.426909636330e+02 0.0 0.0 
-1.518405921897e+02 0.0 0.0 
-1.614742420146e+02 0.0 0.0 
8.228159090617e-01 -2.592135936005e+02 0.0 
1.399104345888e+00 -2.605796189876e+02 0.0 
4.112362048062e+00 -2.598293318399e+02 0.0 
3.048614649871e+00 -2.601440347680e+02 0.0 
5.597330491867e+00 -2.612719133093e+02 0.0 
6.544807351464e+00 -2.609785893174e+02 0.0 
7.566838794462e+00 -2.622356825272e+02 0.0 
9.030775180347e+00 -2.634800493228e+02 0.0 
1.175395379856e+01 -2.638075407437e+02 0.0 
1.125050088703e+01 -2.652680658118e+02 0.0 
1.461740054647e+01 -2.679904852585e+02 0.0 
1.632276574132e+01 -2.691242845927e+02 0.0 
1.805262752602e+01 -2.725432742122e+02 0.0 
1.995185022727e+01 -2.751505925495e+02 0.0 
2.225401471919e+01 -2.787041395551e+02 0.0 
2.394459826395e+01 -2.833573742013e+02 0.0 
2.704350517079e+01 -2.879914750535e+02 0.0 
2.868680859133e+01 -2.934726043175e+02 0.0 
3.050268989387e+01 -2.993317448103e+02 0.0 
3.187388050508e+01 -3.053305069284e+02 0.0 
3.257896933453e+01 -3.120251961454e+02 0.0 
3.390108053492e+01 -3.194841542429e+02 0.0 
3.417915891510e+01 -3.265035976206e+02 0.0 
3.432595701194e+01 -3.337454090417e+02 0.0 
3.405171276383e+01 -3.411777307516e+02 0.0 
3.317061186283e+01 -3.481280042129e+02 0.0 
3.209606907364e+01 -3.548316265432e+02 0.0 
3.063298826630e+01 -3.613434167393e+02 0.0 
2.912145658375e+01 -3.675053332347e+02 0.0 
2.693517294561e+01 -3.728801772251e+02 0.0 
2.513624406752e+01 -3.776834077867e+02 0.0 
2.274933168972e+01 -3.824975075906e+02 0.0 
2.053841078217e+01 -3.860354606947e+02 0.0 
1.831166181827e+01 -3.893835114909e+02 0.0 
1.599612470042e+01 -3.920229330358e+02 0.0 
1.393438434813e+01 -3.941896263005e+02 0.0 
1.199002149127e+01 -3.958476288650e+02 0.0 
1.008479269776e+01 -3.971718321233e+02 0.0 
8.472001281911e+00 -3.979950104909e+02 0.0 
7.021569316501e+00 -3.989649848816e+02 0.0 
5.695106123039e+00 -3.991181025132e+02 0.0 
4.636021601201e+00 -3.991956111395e+02 0.0 
3.703359855164e+00 -3.990711865028e+02 0.0 
2.851660576172e+00 -3.997747167027e+02 0.0 
2.061664266807e+00 -3.988731683875e+02 0.0 
1.455816839118e+00 -3.994546033740e+02 0.0 
1.471772650391e+00 -3.987577624979e+02 0.0 
6.166528284720e-01 -3.988865761240e+02 0.0 
3.532846741252e-01 -3.986765050749e+02 0.0 
4.651497817783e+01 0.0 0.0 
5.494219406496e+01 0.0 0.0 
6.277019886077e+01 0.0 0.0 
7.023568994584e+01 0.0 0.0 
7.758844890225e+01 0.0 0.0 
8.506648540961e+01 0.0 0.0 
9.182740895278e+01 0.0 0.0 
9.797140911096e+01 0.0 0.0 
1.053504780751e+02 0.0 0.0 
0.0 0.0 0.0 
0.0 0.0 0.0 
0.0 0.0 0.0 
0.0 0.0 0.0 
0.0 0.0 0.0 
0.0 0.0 0.0 
0.0 0.0 0.0 
0.0 0.0 0.0 
0.0 0.0 0.0 
0.0 0.0 0.0 
0.0 0.0 0.0 
8.420852157718e+00 0.0 0.0 
2.263176979576e+01 0.0 0.0 
3.063690340748e+01 0.0 0.0 
0.0 0.0 0.0 
0.0 0.0 0.0 
0.0 0.0 0.0 
0.0 0.0 0.0 
0.0 0.0 0.0 
0.0 0.0 0.0 
0.0 0.0 0.0 
0.0 0.0 0.0 
0.0 0.0 0.0 
0.0 0.0 0.0 
0.0 0.0 0.0 
0.0 0.0 0.0 
0.0 0.0 0.0 
0.0 0.0 0.0 
0.0 0.0 0.0 
0.0 0.0 0.0 
0.0 0.0 0.0 
0.0 0.0 0.0 
0.0 0.0 0.0 
0.0 0.0 0.0 
0.0 0.0 0.0 
0.0 0.0 0.0 
0.0 0.0 0.0 
0.0 0.0 0.0 
0.0 0.0 0.0 
0.0 0.0 0.0 
0.0 0.0 0.0 
0.0 0.0 0.0 
0.0 0.0 0.0 
0.0 0.0 0.0 
0.0 0.0 0.0 
0.0 0.0 0.0 
0.0 0.0 0.0 
0.0 0.0 0.0 
0.0 0.0 0.0 
0.0 0.0 0.0 
0.0 0.0 0.0 
0.0 0.0 0.0 
0.0 0.0 0.0 
0.0 0.0 0.0 
0.0 0.0 0.0 
0.0 0.0 0.0 
0.0 0.0 0.0 
0.0 0.0 0.0 
0.0 0.0 0.0 
0.0 0.0 0.0 
0.0 0.0 0.0 
0.0 0.0 0.0 
0.0 0.0 0.0 
0.0 0.0 0.0 
0.0 0.0 0.0 
0.0 0.0 0.0 
0.0 0.0 0.0 
0.0 0.0 0.0 
0.0 0.0 0.0 
0.0 0.0 0.0 
0.0 0.0 0.0 
0.0 0.0 0.0 
0.0 0.0 0.0 
0.0 0.0 0.0 
0.0 0.0 0.0 
0.0 0.0 0.0 
0.0 0.0 0.0 
0.0 0.0 0.0 
0.0 0.0 0.0 
0.0 0.0 0.0 
0.0 0.0 0.0 
0.0 0.0 0.0 
0.0 0.0 0.0 
0.0 0.0 0.0 
0.0 0.0 0.0 
0.0 0.0 0.0 
0.0 0.0 0.0 
0.0 0.0 0.0 
0.0 0.0 0.0 
0.0 0.0 0.0 
0.0 0.0 0.0 
0.0 0.0 0.0 
0.0 0.0 0.0 
0.0 0.0 0.0 
0.0 0.0 0.0 
0.0 0.0 0.0 
0.0 0.0 0.0 
0.0 0.0 0.0 
0.0 0.0 0.0 
0.0 0.0 0.0 
0.0 0.0 0.0 
0.0 0.0 0.0 
0.0 0.0 0.0 
0.0 0.0 0.0 
0.0 0.0 0.0 
0.0 0.0 0.0 
0.0 0.0 0.0 
0.0 0.0 0.0 
0.0 0.0 0.0 
0.0 0.0 0.0 
0.0 0.0 0.0 
0.0 0.0 0.0 
0.0 0.0 0.0 
0.0 0.0 0.0 
0.0 0.0 0.0 
0.0 0.0 0.0 
0.0 0.0 0.0 
0.0 0.0 0.0 
0.0 0.0 0.0 
0.0 0.0 0.0 
0.0 0.0 0.0 
0.0 0.0 0.0 
0.0 0.0 0.0 
0.0 0.0 0.0 
0.0 0.0 0.0 
0.0 0.0 0.0 
0.0 0.0 0.0 
0.0 0.0 0.0 
0.0 0.0 0.0 
0.0 0.0 0.0 
0.0 0.0 0.0 
0.0 0.0 0.0 
0.0 0.0 0.0 
0.0 0.0 0.0 
0.0 0.0 0.0 
0.0 0.0 0.0 
0.0 0.0 0.0 
0.0 0.0 0.0 
0.0 0.0 0.0 
0.0 0.0 0.0 
0.0 0.0 0.0 
0.0 0.0 0.0 
0.0 0.0 0.0 
0.0 0.0 0.0 
0.0 0.0 0.0 
0.0 0.0 0.0 
0.0 0.0 0.0 
0.0 0.0 0.0 
0.0 0.0 0.0 
0.0 0.0 0.0 
0.0 0.0 0.0 
0.0 0.0 0.0 
0.0 0.0 0.0 
0.0 0.0 0.0 
0.0 0.0 0.0 
0.0 0.0 0.0 
0.0 0.0 0.0 
0.0 0.0 0.0 
0.0 0.0 0.0 
0.0 0.0 0.0 
0.0 0.0 0.0 
0.0 0.0 0.0 
0.0 0.0 0.0 
0.0 0.0 0.0 
0.0 0.0 0.0 
0.0 0.0 0.0 
0.0 0.0 0.0 
0.0 0.0 0.0 
0.0 0.0 0.0 
0.0 0.0 0.0 
0.0 0.0 0.0 
0.0 0.0 0.0 
0.0 0.0 0.0 
0.0 0.0 0.0 
0.0 0.0 0.0 
0.0 0.0 0.0 
0.0 0.0 0.0 
0.0 0.0 0.0 
0.0 0.0 0.0 
0.0 0.0 0.0 
0.0 0.0 0.0 
0.0 0.0 0.0 
0.0 0.0 0.0 
0.0 0.0 0.0 
0.0 0.0 0.0 
0.0 0.0 0.0 
0.0 0.0 0.0 
0.0 0.0 0.0 
0.0 0.0 0.0 
0.0 0.0 0.0 
0.0 0.0 0.0 
0.0 0.0 0.0 
0.0 0.0 0.0 
0.0 0.0 0.0 
0.0 0.0 0.0 
0.0 0.0 0.0 
0.0 0.0 0.0 
0.0 0.0 0.0 
0.0 0.0 0.0 
0.0 0.0 0.0 
0.0 0.0 0.0 
0.0 0.0 0.0 
0.0 0.0 0.0 
0.0 0.0 0.0 
0.0 0.0 0.0 
0.0 0.0 0.0 
0.0 0.0 0.0 
0.0 0.0 0.0 
0.0 0.0 0.0 
0.0 0.0 0.0 
0.0 0.0 0.0 
0.0 0.0 0.0 
0.0 0.0 0.0 
0.0 0.0 0.0 
0.0 0.0 0.0 
0.0 0.0 0.0 
0.0 0.0 0.0 
0.0 0.0 0.0 
0.0 0.0 0.0 
0.0 0.0 0.0 
0.0 0.0 0.0 
0.0 0.0 0.0 
0.0 0.0 0.0 
0.0 0.0 0.0 
0.0 0.0 0.0 
0.0 0.0 0.0 
0.0 0.0 0.0 
0.0 0.0 0.0 
0.0 0.0 0.0 
0.0 0.0 0.0 
0.0 0.0 0.0 
0.0 0.0 0.0 
0.0 0.0 0.0 
0.0 0.0 0.0 
0.0 0.0 0.0 
0.0 0.0 0.0 
0.0 0.0 0.0 
0.0 0.0 0.0 
0.0 0.0 0.0 
0.0 0.0 0.0 
0.0 0.0 0.0 
0.0 0.0 0.0 
0.0 0.0 0.0 
0.0 0.0 0.0 
0.0 0.0 0.0 
0.0 0.0 0.0 
0.0 0.0 0.0 
0.0 0.0 0.0 
0.0 0.0 0.0 
0.0 0.0 0.0 
0.0 0.0 0.0 
0.0 0.0 0.0 
0.0 0.0 0.0 
0.0 0.0 0.0 
0.0 0.0 0.0 
0.0 0.0 0.0 
0.0 0.0 0.0 
0.0 0.0 0.0 
0.0 0.0 0.0 
0.0 0.0 0.0 
0.0 0.0 0.0 
0.0 0.0 0.0 
0.0 0.0 0.0 
0.0 0.0 0.0 
0.0 0.0 0.0 
0.0 0.0 0.0 
0.0 0.0 0.0 
0.0 0.0 0.0 
0.0 0.0 0.0 
0.0 0.0 0.0 
0.0 0.0 0.0 
0.0 0.0 0.0 
0.0 0.0 0.0 
0.0 0.0 0.0 
0.0 0.0 0.0 
0.0 0.0 0.0 
0.0 0.0 0.0 
0.0 0.0 0.0 
0.0 0.0 0.0 
0.0 0.0 0.0 
0.0 0.0 0.0 
0.0 0.0 0.0 
0.0 0.0 0.0 
0.0 0.0 0.0 
0.0 0.0 0.0 
0.0 0.0 0.0 
0.0 0.0 0.0 
0.0 0.0 0.0 
0.0 0.0 0.0 
0.0 0.0 0.0 
0.0 0.0 0.0 
0.0 0.0 0.0 
0.0 0.0 0.0 
0.0 0.0 0.0 
0.0 0.0 0.0 
0.0 0.0 0.0 
0.0 0.0 0.0 
0.0 0.0 0.0 
0.0 0.0 0.0 
0.0 0.0 0.0 
0.0 0.0 0.0 
0.0 0.0 0.0 
0.0 0.0 0.0 
0.0 0.0 0.0 
0.0 0.0 0.0 
0.0 0.0 0.0 
0.0 0.0 0.0 
0.0 0.0 0.0 
0.0 0.0 0.0 
0.0 0.0 0.0 
0.0 0.0 0.0 
0.0 0.0 0.0 
0.0 0.0 0.0 
0.0 0.0 0.0 
0.0 0.0 0.0 
0.0 0.0 0.0 
0.0 0.0 0.0 
0.0 0.0 0.0 
0.0 0.0 0.0 
0.0 0.0 0.0 
0.0 0.0 0.0 
0.0 0.0 0.0 
0.0 0.0 0.0 
0.0 0.0 0.0 
0.0 0.0 0.0 
0.0 0.0 0.0 
0.0 0.0 0.0 
0.0 0.0 0.0 
0.0 0.0 0.0 
0.0 0.0 0.0 
0.0 0.0 0.0 
0.0 0.0 0.0 
0.0 0.0 0.0 
0.0 0.0 0.0 
0.0 0.0 0.0 
0.0 0.0 0.0 
0.0 0.0 0.0 
0.0 0.0 0.0 
0.0 0.0 0.0 
0.0 0.0 0.0 
0.0 0.0 0.0 
0.0 0.0 0.0 
0.0 0.0 0.0 
0.0 0.0 0.0 
0.0 0.0 0.0 
0.0 0.0 0.0 
0.0 0.0 0.0 
0.0 0.0 0.0 
0.0 0.0 0.0 
0.0 0.0 0.0 
0.0 0.0 0.0 
0.0 0.0 0.0 
0.0 0.0 0.0 
0.0 0.0 0.0 
0.0 0.0 0.0 
0.0 0.0 0.0 
0.0 0.0 0.0 
0.0 0.0 0.0 
0.0 0.0 0.0 
0.0 0.0 0.0 
0.0 0.0 0.0 
0.0 0.0 0.0 
0.0 0.0 0.0 
0.0 0.0 0.0 
0.0 0.0 0.0 
0.0 0.0 0.0 
0.0 0.0 0.0 
0.0 0.0 0.0 
0.0 0.0 0.0 
0.0 0.0 0.0 
0.0 0.0 0.0 
0.0 0.0 0.0 
0.0 0.0 0.0 
0.0 0.0 0.0 
0.0 0.0 0.0 
0.0 0.0 0.0 
0.0 0.0 0.0 
0.0 0.0 0.0 
0.0 0.0 0.0 
0.0 0.0 0.0 
0.0 0.0 0.0 
0.0 0.0 0.0 
0.0 0.0 0.0 
0.0 0.0 0.0 
0.0 0.0 0.0 
0.0 0.0 0.0 
0.0 0.0 0.0 
0.0 0.0 0.0 
0.0 0.0 0.0 
0.0 0.0 0.0 
0.0 0.0 0.0 
0.0 0.0 0.0 
0.0 0.0 0.0 
0.0 0.0 0.0 
0.0 0.0 0.0 
0.0 0.0 0.0 
0.0 0.0 0.0 
0.0 0.0 0.0 
0.0 0.0 0.0 
0.0 0.0 0.0 
0.0 0.0 0.0 
0.0 0.0 0.0 
0.0 0.0 0.0 
0.0 0.0 0.0 
0.0 0.0 0.0 
0.0 0.0 0.0 
0.0 0.0 0.0 
0.0 0.0 0.0 
0.0 0.0 0.0 
0.0 0.0 0.0 
0.0 0.0 0.0 
0.0 0.0 0.0 
0.0 0.0 0.0 
0.0 0.0 0.0 
0.0 0.0 0.0 
0.0 0.0 0.0 
0.0 0.0 0.0 
0.0 0.0 0.0 
0.0 0.0 0.0 
0.0 0.0 0.0 
0.0 0.0 0.0 
0.0 0.0 0.0 
0.0 0.0 0.0 
0.0 0.0 0.0 
0.0 0.0 0.0 
0.0 0.0 0.0 
0.0 0.0 0.0 
0.0 0.0 0.0 
0.0 0.0 0.0 
0.0 0.0 0.0 
0.0 0.0 0.0 
0.0 0.0 0.0 
0.0 0.0 0.0 
0.0 0.0 0.0 
0.0 0.0 0.0 
0.0 0.0 0.0 
0.0 0.0 0.0 
0.0 0.0 0.0 
0.0 0.0 0.0 
0.0 0.0 0.0 
0.0 0.0 0.0 
0.0 0.0 0.0 
0.0 0.0 0.0 
0.0 0.0 0.0 
0.0 0.0 0.0 
0.0 0.0 0.0 
0.0 0.0 0.0 
0.0 0.0 0.0 
0.0 0.0 0.0 
0.0 0.0 0.0 
0.0 0.0 0.0 
0.0 0.0 0.0 
0.0 0.0 0.0 
0.0 0.0 0.0 
0.0 0.0 0.0 
0.0 0.0 0.0 
0.0 0.0 0.0 
0.0 0.0 0.0 
0.0 0.0 0.0 
0.0 0.0 0.0 
0.0 0.0 0.0 
0.0 0.0 0.0 
0.0 0.0 0.0 
0.0 0.0 0.0 
0.0 0.0 0.0 
0.0 0.0 0.0 
0.0 0.0 0.0 
0.0 0.0 0.0 
0.0 0.0 0.0 
0.0 0.0 0.0 
0.0 0.0 0.0 
0.0 0.0 0.0 
0.0 0.0 0.0 
0.0 0.0 0.0 
0.0 0.0 0.0 
0.0 0.0 0.0 
0.0 0.0 0.0 
0.0 0.0 0.0 
0.0 0.0 0.0 
0.0 0.0 0.0 
0.0 0.0 0.0 
0.0 0.0 0.0 
0.0 0.0 0.0 
0.0 0.0 0.0 
0.0 0.0 0.0 
0.0 0.0 0.0 
0.0 0.0 0.0 
0.0 0.0 0.0 
0.0 0.0 0.0 
0.0 0.0 0.0 
0.0 0.0 0.0 
0.0 0.0 0.0 
0.0 0.0 0.0 
0.0 0.0 0.0 
0.0 0.0 0.0 
0.0 0.0 0.0 
0.0 0.0 0.0 
0.0 0.0 0.0 
0.0 0.0 0.0 
0.0 0.0 0.0 
0.0 0.0 0.0 
0.0 0.0 0.0 
0.0 0.0 0.0 
0.0 0.0 0.0 
0.0 0.0 0.0 
0.0 0.0 0.0 
0.0 0.0 0.0 
0.0 0.0 0.0 
0.0 0.0 0.0 
0.0 0.0 0.0 
0.0 0.0 0.0 
0.0 0.0 0.0 
0.0 0.0 0.0 
0.0 0.0 0.0 
0.0 0.0 0.0 
0.0 0.0 0.0 
0.0 0.0 0.0 
0.0 0.0 0.0 
0.0 0.0 0.0 
0.0 0.0 0.0 
0.0 0.0 0.0 
0.0 0.0 0.0 
0.0 0.0 0.0 
0.0 0.0 0.0 
0.0 0.0 0.0 
0.0 0.0 0.0 
0.0 0.0 0.0 
0.0 0.0 0.0 
0.0 0.0 0.0 
0.0 0.0 0.0 
0.0 0.0 0.0 
0.0 0.0 0.0 
0.0 0.0 0.0 
0.0 0.0 0.0 
0.0 0.0 0.0 
0.0 0.0 0.0 
0.0 0.0 0.0 
0.0 0.0 0.0 
0.0 0.0 0.0 
0.0 0.0 0.0 
0.0 0.0 0.0 
0.0 0.0 0.0 
0.0 0.0 0.0 
0.0 0.0 0.0 
0.0 0.0 0.0 
0.0 0.0 0.0 
0.0 0.0 0.0 
0.0 0.0 0.0 
0.0 0.0 0.0 
0.0 0.0 0.0 
0.0 0.0 0.0 
0.0 0.0 0.0 
0.0 0.0 0.0 
0.0 0.0 0.0 
0.0 0.0 0.0 
0.0 0.0 0.0 
0.0 0.0 0.0 
0.0 0.0 0.0 
0.0 0.0 0.0 
0.0 0.0 0.0 
0.0 0.0 0.0 
0.0 0.0 0.0 
0.0 0.0 0.0 
0.0 0.0 0.0 
0.0 0.0 0.0 
0.0 0.0 0.0 
0.0 0.0 0.0 
0.0 0.0 0.0 
0.0 0.0 0.0 
0.0 0.0 0.0 
0.0 0.0 0.0 
0.0 0.0 0.0 
0.0 0.0 0.0 
0.0 0.0 0.0 
0.0 0.0 0.0 
0.0 0.0 0.0 
0.0 0.0 0.0 
0.0 0.0 0.0 
0.0 0.0 0.0 
0.0 0.0 0.0 
0.0 0.0 0.0 
0.0 0.0 0.0 
0.0 0.0 0.0 
0.0 0.0 0.0 
0.0 0.0 0.0 
0.0 0.0 0.0 
0.0 0.0 0.0 
0.0 0.0 0.0 
0.0 0.0 0.0 
0.0 0.0 0.0 
0.0 0.0 0.0 
0.0 0.0 0.0 
0.0 0.0 0.0 
0.0 0.0 0.0 
0.0 0.0 0.0 
0.0 0.0 0.0 
0.0 0.0 0.0 
0.0 0.0 0.0 
0.0 0.0 0.0 
0.0 0.0 0.0 
0.0 0.0 0.0 
0.0 0.0 0.0 
0.0 0.0 0.0 
0.0 0.0 0.0 
0.0 0.0 0.0 
0.0 0.0 0.0 
0.0 0.0 0.0 
0.0 0.0 0.0 
0.0 0.0 0.0 
0.0 0.0 0.0 
0.0 0.0 0.0 
0.0 0.0 0.0 
0.0 0.0 0.0 
0.0 0.0 0.0 
0.0 0.0 0.0 
0.0 0.0 0.0 
0.0 0.0 0.0 
0.0 0.0 0.0 
0.0 0.0 0.0 
0.0 0.0 0.0 
0.0 0.0 0.0 
0.0 0.0 0.0 
0.0 0.0 0.0 
0.0 0.0 0.0 
0.0 0.0 0.0 
0.0 0.0 0.0 
0.0 0.0 0.0 
0.0 0.0 0.0 
0.0 0.0 0.0 
0.0 0.0 0.0 
0.0 0.0 0.0 
0.0 0.0 0.0 
0.0 0.0 0.0 
0.0 0.0 0.0 
0.0 0.0 0.0 
0.0 0.0 0.0 
0.0 0.0 0.0 
0.0 0.0 0.0 
0.0 0.0 0.0 
0.0 0.0 0.0 
0.0 0.0 0.0 
0.0 0.0 0.0 
0.0 0.0 0.0 
0.0 0.0 0.0 
0.0 0.0 0.0 
0.0 0.0 0.0 
0.0 0.0 0.0 
0.0 0.0 0.0 
0.0 0.0 0.0 
0.0 0.0 0.0 
0.0 0.0 0.0 
0.0 0.0 0.0 
0.0 0.0 0.0 
0.0 0.0 0.0 
0.0 0.0 0.0 
0.0 0.0 0.0 
0.0 0.0 0.0 
0.0 0.0 0.0 
0.0 0.0 0.0 
0.0 0.0 0.0 
0.0 0.0 0.0 
0.0 0.0 0.0 
0.0 0.0 0.0 
0.0 0.0 0.0 
0.0 0.0 0.0 
0.0 0.0 0.0 
0.0 0.0 0.0 
0.0 0.0 0.0 
0.0 0.0 0.0 
0.0 0.0 0.0 
0.0 0.0 0.0 
0.0 0.0 0.0 
0.0 0.0 0.0 
0.0 0.0 0.0 
0.0 0.0 0.0 
0.0 0.0 0.0 
0.0 0.0 0.0 
0.0 0.0 0.0 
0.0 0.0 0.0 
0.0 0.0 0.0 
0.0 0.0 0.0 
0.0 0.0 0.0 
0.0 0.0 0.0 
0.0 0.0 0.0 
0.0 0.0 0.0 
0.0 0.0 0.0 
0.0 0.0 0.0 
0.0 0.0 0.0 
0.0 0.0 0.0 
0.0 0.0 0.0 
0.0 0.0 0.0 
0.0 0.0 0.0 
0.0 0.0 0.0 
0.0 0.0 0.0 
0.0 0.0 0.0 
0.0 0.0 0.0 
0.0 0.0 0.0 
0.0 0.0 0.0 
0.0 0.0 0.0 
0.0 0.0 0.0 
0.0 0.0 0.0 
0.0 0.0 0.0 
0.0 0.0 0.0 
0.0 0.0 0.0 
0.0 0.0 0.0 
0.0 0.0 0.0 
0.0 0.0 0.0 
0.0 0.0 0.0 
0.0 0.0 0.0 
0.0 0.0 0.0 
0.0 0.0 0.0 
0.0 0.0 0.0 
0.0 0.0 0.0 
0.0 0.0 0.0 
0.0 0.0 0.0 
0.0 0.0 0.0 
0.0 0.0 0.0 
0.0 0.0 0.0 
0.0 0.0 0.0 
0.0 0.0 0.0 
0.0 0.0 0.0 
0.0 0.0 0.0 
0.0 0.0 0.0 
0.0 0.0 0.0 
0.0 0.0 0.0 
0.0 0.0 0.0 
0.0 0.0 0.0 
0.0 0.0 0.0 
0.0 0.0 0.0 
0.0 0.0 0.0 
0.0 0.0 0.0 
0.0 0.0 0.0 
0.0 0.0 0.0 
0.0 0.0 0.0 
0.0 0.0 0.0 
0.0 0.0 0.0 
0.0 0.0 0.0 
0.0 0.0 0.0 
0.0 0.0 0.0 
0.0 0.0 0.0 
0.0 0.0 0.0 
0.0 0.0 0.0 
0.0 0.0 0.0 
0.0 0.0 0.0 
0.0 0.0 0.0 
0.0 0.0 0.0 
0.0 0.0 0.0 
0.0 0.0 0.0 
0.0 0.0 0.0 
0.0 0.0 0.0 
0.0 0.0 0.0 
0.0 0.0 0.0 
0.0 0.0 0.0 
0.0 0.0 0.0 
0.0 0.0 0.0 
0.0 0.0 0.0 
0.0 0.0 0.0 
0.0 0.0 0.0 
0.0 0.0 0.0 
0.0 0.0 0.0 
0.0 0.0 0.0 
0.0 0.0 0.0 
0.0 0.0 0.0 
0.0 0.0 0.0 
0.0 0.0 0.0 
0.0 0.0 0.0 
0.0 0.0 0.0 
0.0 0.0 0.0 
0.0 0.0 0.0 
0.0 0.0 0.0 
0.0 0.0 0.0 
0.0 0.0 0.0 
0.0 0.0 0.0 
0.0 0.0 0.0 
0.0 0.0 0.0 
0.0 0.0 0.0 
0.0 0.0 0.0 
0.0 0.0 0.0 
0.0 0.0 0.0 
0.0 0.0 0.0 
0.0 0.0 0.0 
0.0 0.0 0.0 
0.0 0.0 0.0 
0.0 0.0 0.0 
0.0 0.0 0.0 
0.0 0.0 0.0 
0.0 0.0 0.0 
0.0 0.0 0.0 
0.0 0.0 0.0 
0.0 0.0 0.0 
0.0 0.0 0.0 
0.0 0.0 0.0 
0.0 0.0 0.0 
0.0 0.0 0.0 
0.0 0.0 0.0 
0.0 0.0 0.0 
0.0 0.0 0.0 
0.0 0.0 0.0 
0.0 0.0 0.0 
0.0 0.0 0.0 
0.0 0.0 0.0 
0.0 0.0 0.0 
0.0 0.0 0.0 
0.0 0.0 0.0 
0.0 0.0 0.0 
0.0 0.0 0.0 
0.0 0.0 0.0 
0.0 0.0 0.0 
0.0 0.0 0.0 
0.0 0.0 0.0 
0.0 0.0 0.0 
0.0 0.0 0.0 
0.0 0.0 0.0 
0.0 0.0 0.0 
0.0 0.0 0.0 
0.0 0.0 0.0 
0.0 0.0 0.0 
0.0 0.0 0.0 
0.0 0.0 0.0 
0.0 0.0 0.0 
0.0 0.0 0.0 
0.0 0.0 0.0 
0.0 0.0 0.0 
0.0 0.0 0.0 
0.0 0.0 0.0 
0.0 0.0 0.0 
0.0 0.0 0.0 
0.0 0.0 0.0 
0.0 0.0 0.0 
0.0 0.0 0.0 
0.0 0.0 0.0 
0.0 0.0 0.0 
0.0 0.0 0.0 
0.0 0.0 0.0 
0.0 0.0 0.0 
0.0 0.0 0.0 
0.0 0.0 0.0 
0.0 0.0 0.0 
0.0 0.0 0.0 
0.0 0.0 0.0 
0.0 0.0 0.0 
0.0 0.0 0.0 
0.0 0.0 0.0 
0.0 0.0 0.0 
0.0 0.0 0.0 
0.0 0.0 0.0 
0.0 0.0 0.0 
0.0 0.0 0.0 
0.0 0.0 0.0 
0.0 0.0 0.0 
0.0 0.0 0.0 
0.0 0.0 0.0 
0.0 0.0 0.0 
0.0 0.0 0.0 
0.0 0.0 0.0 
0.0 0.0 0.0 
0.0 0.0 0.0 
0.0 0.0 0.0 
0.0 0.0 0.0 
0.0 0.0 0.0 
0.0 0.0 0.0 
0.0 0.0 0.0 
0.0 0.0 0.0 
0.0 0.0 0.0 
0.0 0.0 0.0 
0.0 0.0 0.0 
0.0 0.0 0.0 
0.0 0.0 0.0 
0.0 0.0 0.0 
0.0 0.0 0.0 
0.0 0.0 0.0 
0.0 0.0 0.0 
0.0 0.0 0.0 
0.0 0.0 0.0 
0.0 0.0 0.0 
0.0 0.0 0.0 
0.0 0.0 0.0 
0.0 0.0 0.0 
0.0 0.0 0.0 
0.0 0.0 0.0 
0.0 0.0 0.0 
0.0 0.0 0.0 
0.0 0.0 0.0 
0.0 0.0 0.0 
0.0 0.0 0.0 
0.0 0.0 0.0 
0.0 0.0 0.0 
0.0 0.0 0.0 
0.0 0.0 0.0 
0.0 0.0 0.0 
0.0 0.0 0.0 
0.0 0.0 0.0 
0.0 0.0 0.0 
0.0 0.0 0.0 
0.0 0.0 0.0 
0.0 0.0 0.0 
0.0 0.0 0.0 
0.0 0.0 0.0 
0.0 0.0 0.0 
0.0 0.0 0.0 
0.0 0.0 0.0 
0.0 0.0 0.0 
0.0 0.0 0.0 
0.0 0.0 0.0 
0.0 0.0 0.0 
0.0 0.0 0.0 
0.0 0.0 0.0 
0.0 0.0 0.0 
0.0 0.0 0.0 
0.0 0.0 0.0 
0.0 0.0 0.0 
0.0 0.0 0.0 
0.0 0.0 0.0 
0.0 0.0 0.0 
0.0 0.0 0.0 
0.0 0.0 0.0 
0.0 0.0 0.0 
0.0 0.0 0.0 
0.0 0.0 0.0 
0.0 0.0 0.0 
0.0 0.0 0.0 
0.0 0.0 0.0 
0.0 0.0 0.0 
0.0 0.0 0.0 
0.0 0.0 0.0 
0.0 0.0 0.0 
0.0 0.0 0.0 
0.0 0.0 0.0 
0.0 0.0 0.0 
0.0 0.0 0.0 
0.0 0.0 0.0 
0.0 0.0 0.0 
0.0 0.0 0.0 
0.0 0.0 0.0 
0.0 0.0 0.0 
0.0 0.0 0.0 
0.0 0.0 0.0 
0.0 0.0 0.0 
0.0 0.0 0.0 
0.0 0.0 0.0 
0.0 0.0 0.0 
0.0 0.0 0.0 
0.0 0.0 0.0 
0.0 0.0 0.0 
0.0 0.0 0.0 
0.0 0.0 0.0 
0.0 0.0 0.0 
0.0 0.0 0.0 
0.0 0.0 0.0 
0.0 0.0 0.0 
0.0 0.0 0.0 
0.0 0.0 0.0 
0.0 0.0 0.0 
0.0 0.0 0.0 
0.0 0.0 0.0 
0.0 0.0 0.0 
0.0 0.0 0.0 
0.0 0.0 0.0 
0.0 0.0 0.0 
0.0 0.0 0.0 
0.0 0.0 0.0 
0.0 0.0 0.0 
0.0 0.0 0.0 
0.0 0.0 0.0 
0.0 0.0 0.0 
0.0 0.0 0.0 
0.0 0.0 0.0 
0.0 0.0 0.0 
0.0 0.0 0.0 
0.0 0.0 0.0 
0.0 0.0 0.0 
0.0 0.0 0.0 
0.0 0.0 0.0 
0.0 0.0 0.0 
0.0 0.0 0.0 
0.0 0.0 0.0 
0.0 0.0 0.0 
0.0 0.0 0.0 
0.0 0.0 0.0 
0.0 0.0 0.0 
0.0 0.0 0.0 
0.0 0.0 0.0 
0.0 0.0 0.0 
0.0 0.0 0.0 
0.0 0.0 0.0 
0.0 0.0 0.0 
0.0 0.0 0.0 
0.0 0.0 0.0 
0.0 0.0 0.0 
0.0 0.0 0.0 
0.0 0.0 0.0 
0.0 0.0 0.0 
0.0 0.0 0.0 
0.0 0.0 0.0 
0.0 0.0 0.0 
0.0 0.0 0.0 
0.0 0.0 0.0 
0.0 0.0 0.0 
0.0 0.0 0.0 
0.0 0.0 0.0 
0.0 0.0 0.0 
0.0 0.0 0.0 
0.0 0.0 0.0 
0.0 0.0 0.0 
0.0 0.0 0.0 
0.0 0.0 0.0 
0.0 0.0 0.0 
0.0 0.0 0.0 

VECTORS node_materi_velocity float
0.0 -3.731040157494e-04 0.0 
0.0 9.927269355981e-03 0.0 
0.0 0.0 0.0 
0.0 0.0 0.0 
0.0 -3.658103620087e-04 0.0 
0.0 -3.536957415117e-04 0.0 
0.0 -3.412355506101e-04 0.0 
0.0 -3.275742335229e-04 0.0 
0.0 -3.114640526227e-04 0.0 
0.0 -2.928875646923e-04 0.0 
0.0 -2.718392865106e-04 0.0 
0.0 -2.483819447990e-04 0.0 
0.0 -2.228675044775e-04 0.0 
0.0 -1.957264772215e-04 0.0 
0.0 -1.675847238694e-04 0.0 
0.0 -1.392861210896e-04 0.0 
0.0 -1.115346909200e-04 0.0 
0.0 -8.474959683070e-05 0.0 
0.0 -6.028837451327e-05 0.0 
0.0 -3.893204766843e-05 0.0 
0.0 -2.141199270037e-05 0.0 
0.0 -8.762812844781e-06 0.0 
0.0 -1.857478412689e-06 0.0 
0.0 0.0 0.0 
0.0 0.0 0.0 
0.0 0.0 0.0 
0.0 0.0 0.0 
0.0 0.0 0.0 
0.0 0.0 0.0 
0.0 0.0 0.0 
0.0 0.0 0.0 
0.0 0.0 0.0 
0.0 0.0 0.0 
0.0 0.0 0.0 
0.0 0.0 0.0 
0.0 0.0 0.0 
0.0 0.0 0.0 
0.0 0.0 0.0 
0.0 0.0 0.0 
0.0 0.0 0.0 
0.0 0.0 0.0 
0.0 0.0 0.0 
0.0 0.0 0.0 
0.0 0.0 0.0 
0.0 0.0 0.0 
0.0 0.0 0.0 
0.0 0.0 0.0 
0.0 0.0 0.0 
0.0 0.0 0.0 
0.0 0.0 0.0 
0.0 0.0 0.0 
0.0 0.0 0.0 
0.0 0.0 0.0 
0.0 0.0 0.0 
0.0 0.0 0.0 
0.0 0.0 0.0 
0.0 0.0 0.0 
0.0 0.0 0.0 
0.0 0.0 0.0 
0.0 0.0 0.0 
0.0 0.0 0.0 
0.0 0.0 0.0 
0.0 0.0 0.0 
0.0 0.0 0.0 
0.0 0.0 0.0 
0.0 0.0 0.0 
0.0 0.0 0.0 
0.0 0.0 0.0 
0.0 0.0 0.0 
0.0 0.0 0.0 
0.0 0.0 0.0 
0.0 0.0 0.0 
0.0 8.911959329409e-03 0.0 
0.0 7.897081717869e-03 0.0 
0.0 6.883989037150e-03 0.0 
0.0 5.873773974344e-03 0.0 
0.0 4.868882898509e-03 0.0 
0.0 3.871157353267e-03 0.0 
0.0 2.883083098644e-03 0.0 
0.0 1.907206312383e-03 0.0 
0.0 9.460466467869e-04 0.0 
-1.963973234618e-04 2.263658937445e-04 0.0 
1.858239207751e-03 8.958840371793e-03 0.0 
-1.548551237083e-04 4.335411570424e-04 0.0 
-1.399942908790e-04 7.249713138380e-04 0.0 
-1.208231285569e-04 1.148078762335e-03 0.0 
-5.881574836690e-05 1.777468236152e-03 0.0 
1.366256743398e-04 2.731162397063e-03 0.0 
9.370115603910e-04 4.241103675755e-03 0.0 
8.612306502347e-04 7.310750113759e-03 0.0 
1.394976067342e-03 8.872570158335e-03 0.0 
1.764639071135e-03 9.188240948841e-03 0.0 
0.0 1.300726249079e-02 0.0 
0.0 1.196321357864e-02 0.0 
0.0 1.094292281400e-02 0.0 
1.185786035474e-04 9.930403778533e-03 0.0 
2.389001539014e-04 9.939400255818e-03 0.0 
3.587416662390e-04 9.949828708077e-03 0.0 
4.773819407176e-04 9.959979174016e-03 0.0 
5.945549251414e-04 9.968668926539e-03 0.0 
7.103840982782e-04 9.974418539204e-03 0.0 
8.255936160523e-04 9.975075334917e-03 0.0 
9.391594957028e-04 9.966518789058e-03 0.0 
1.053657466454e-03 9.944712357618e-03 0.0 
1.169357302996e-03 9.902913745149e-03 0.0 
1.287539976295e-03 9.831233252820e-03 0.0 
1.411256080944e-03 9.718677627602e-03 0.0 
1.544045622205e-03 9.550133155929e-03 0.0 
1.690361363294e-03 9.305110522539e-03 0.0 
-1.630513138668e-04 1.016484331305e-04 0.0 
-1.170963779461e-04 -1.329946079118e-05 0.0 
-6.762014205395e-05 -1.101604516932e-04 0.0 
-1.840448109558e-05 -1.888029497690e-04 0.0 
2.477183790089e-05 -2.513427703387e-04 0.0 
6.171061597152e-05 -2.992325595446e-04 0.0 
9.191596019013e-05 -3.344887811315e-04 0.0 
1.150102294540e-04 -3.597193339670e-04 0.0 
1.312732364770e-04 -3.766146001659e-04 0.0 
1.409324107276e-04 -3.868108300842e-04 0.0 
1.443887715838e-04 -3.924342210029e-04 0.0 
1.426021837537e-04 -3.938703125673e-04 0.0 
1.356189310499e-04 -3.930339875743e-04 0.0 
1.247199034275e-04 -3.905583521245e-04 0.0 
1.102362753150e-04 -3.874414263881e-04 0.0 
9.279562087924e-05 -3.838244468725e-04 0.0 
7.292427685951e-05 -3.802418594259e-04 0.0 
5.104298941775e-05 -3.772747011142e-04 0.0 
2.679903542693e-05 -3.791441751097e-04 0.0 
1.521421836806e-04 9.370937819031e-03 0.0 
3.007796772386e-04 1.037781726458e-02 0.0 
4.667667497420e-04 1.114707570953e-02 0.0 
6.496763115704e-04 1.168942749882e-02 0.0 
8.073872973455e-04 1.208942489834e-02 0.0 
9.241772092847e-04 1.237844884453e-02 0.0 
1.001766846950e-03 1.259157285991e-02 0.0 
1.043161748048e-03 1.274357033642e-02 0.0 
1.051726718465e-03 1.284918111905e-02 0.0 
1.030846800176e-03 1.292038840520e-02 0.0 
9.847348853284e-04 1.296695094971e-02 0.0 
9.189883353384e-04 1.299560089458e-02 0.0 
8.372962939905e-04 1.301096033111e-02 0.0 
7.425157590291e-04 1.301683562370e-02 0.0 
6.381141249648e-04 1.301727162076e-02 0.0 
5.282439595151e-04 1.301420707490e-02 0.0 
4.175189234730e-04 1.300911299289e-02 0.0 
3.135419700235e-04 1.299983109809e-02 0.0 
1.822404204103e-04 1.300200903639e-02 0.0 
1.389817370276e-04 1.197022794694e-02 0.0 
2.694846552892e-04 1.198190026558e-02 0.0 
3.914808257211e-04 1.199013553873e-02 0.0 
5.082401682085e-04 1.199669491879e-02 0.0 
6.200945323464e-04 1.200189663432e-02 0.0 
7.258905185227e-04 1.200432201235e-02 0.0 
8.239717189270e-04 1.200136903667e-02 0.0 
9.124467141163e-04 1.198902519893e-02 0.0 
9.892335460387e-04 1.196315448069e-02 0.0 
1.052522373088e-03 1.191805741830e-02 0.0 
1.101021916379e-03 1.184522730913e-02 0.0 
1.134222602551e-03 1.173340427258e-02 0.0 
1.153081090017e-03 1.156851432656e-02 0.0 
1.160999635505e-03 1.133342622096e-02 0.0 
1.166811310246e-03 1.100090813406e-02 0.0 
1.186547551616e-03 1.053326798192e-02 0.0 
1.239034844094e-03 9.865303667853e-03 0.0 
1.614112016007e-03 9.758695399749e-03 0.0 
1.504601581353e-03 1.015767476077e-02 0.0 
1.408300565024e-03 1.044105392643e-02 0.0 
1.323982871177e-03 1.064193546752e-02 0.0 
1.243570957357e-03 1.078055519415e-02 0.0 
1.162594573413e-03 1.087299874028e-02 0.0 
1.078500224788e-03 1.093174289777e-02 0.0 
9.897089344397e-04 1.096627039641e-02 0.0 
8.957833830758e-04 1.098416264033e-02 0.0 
7.969409438710e-04 1.099106020782e-02 0.0 
6.934707315912e-04 1.099015656979e-02 0.0 
5.859337675688e-04 1.098502638154e-02 0.0 
4.746079900741e-04 1.097754570346e-02 0.0 
3.595917054402e-04 1.096859687145e-02 0.0 
2.411353032848e-04 1.095829369287e-02 0.0 
1.205075020495e-04 1.094892725242e-02 0.0 
-1.661787437818e-04 3.257745209344e-04 0.0 
-1.462420100946e-04 5.660872049301e-04 0.0 
-1.322535625242e-04 9.166651953268e-04 0.0 
-9.896499139971e-05 1.429598021644e-03 0.0 
5.795922245225e-06 2.202430071581e-03 0.0 
3.882834069690e-04 3.382658579668e-03 0.0 
1.017836003107e-03 5.783995585680e-03 0.0 
1.127385011883e-03 8.269790723916e-03 0.0 
1.632345535740e-03 9.113705889115e-03 0.0 
1.841859129496e-03 9.121683800369e-03 0.0 
-5.093961228868e-05 5.616144007561e-04 0.0 
2.215205764518e-04 3.842391418636e-05 0.0 
1.512731704915e-04 -3.848900891704e-04 0.0 
5.840289587086e-05 -2.337792774216e-04 0.0 
1.175560197567e-04 1.139053400951e-05 0.0 
1.253051551872e-04 1.441457738701e-03 0.0 
3.695159996493e-05 -1.815953879320e-04 0.0 
3.477187354358e-04 8.985583195469e-05 0.0 
9.738916094110e-04 3.428886144438e-03 0.0 
4.835882327930e-04 1.830482787856e-04 0.0 
1.932104828921e-03 7.332909537025e-03 0.0 
5.921389034541e-05 3.293864782742e-06 0.0 
1.308937051040e-04 -3.872497762807e-04 0.0 
6.023246298235e-04 3.511132582126e-04 0.0 
2.126733149922e-03 8.161675952490e-03 0.0 
2.955286665887e-05 -2.826033370779e-04 0.0 
3.679780716475e-05 -1.033449035070e-04 0.0 
6.261256218523e-04 5.228937656649e-04 0.0 
4.729146674763e-04 6.683784694274e-04 0.0 
1.266382298091e-04 8.022569588408e-04 0.0 
2.441933474069e-04 8.523738638918e-04 0.0 
3.353884219433e-04 7.263842826553e-04 0.0 
1.760642140408e-03 8.531831105871e-03 0.0 
1.155900740511e-03 9.002900924544e-03 0.0 
7.737623720884e-04 9.029137163928e-03 0.0 
7.781153709798e-05 5.355569420371e-03 0.0 
3.443494395525e-05 4.919280547316e-07 0.0 
-5.567155308643e-05 3.305890832946e-05 0.0 
8.210391419485e-05 -3.745468925882e-04 0.0 
2.454222032704e-05 -3.093384248423e-05 0.0 
4.045631673675e-04 9.075800388317e-03 0.0 
2.561969797200e-05 -3.357046990596e-04 0.0 
6.297677113070e-04 6.881236492982e-04 0.0 
3.849673516424e-04 1.196534104676e-04 0.0 
5.461352671488e-04 2.544313496749e-04 0.0 
2.997934102710e-04 6.460834203105e-05 0.0 
1.647186952055e-04 2.274091435732e-05 0.0 
1.146180963147e-04 -3.277452837259e-04 0.0 
1.433036013591e-03 8.915463154721e-03 0.0 
1.003023298701e-04 6.832548446422e-06 0.0 
6.059435634850e-05 3.418029130507e-03 0.0 
1.501118784747e-04 -3.922774439711e-04 0.0 
3.474657617569e-05 -2.364252730157e-04 0.0 
6.264904486429e-05 6.533859148267e-04 0.0 
3.958605159708e-04 2.148222022389e-03 0.0 
5.509757838094e-06 9.197227956381e-04 0.0 
1.470730655707e-03 5.338052989127e-03 0.0 
2.127714753486e-03 8.132694222150e-03 0.0 
-9.559277027943e-05 3.153236593000e-04 0.0 
9.236802793530e-05 7.270071415138e-03 0.0 
1.529359470619e-05 -2.620073277062e-07 0.0 
4.193023800118e-05 -3.686482123443e-04 0.0 
3.377963718568e-05 1.495109174395e-03 0.0 
2.103502203796e-03 7.930285995321e-03 0.0 
2.320127041586e-03 7.204559457527e-03 0.0 
2.173398399123e-03 7.156154199410e-03 0.0 
2.396356815288e-03 6.316100992401e-03 0.0 
2.248967863348e-03 6.123650140026e-03 0.0 
2.398840634783e-03 5.421249639131e-03 0.0 
2.561463567670e-03 5.528034146203e-03 0.0 
2.507458369011e-03 4.712900187196e-03 0.0 
2.670817410134e-03 4.755377986511e-03 0.0 
2.211737925017e-03 5.210021911720e-03 0.0 
2.562976758887e-03 4.022197555652e-03 0.0 
2.718147838684e-03 4.013400261064e-03 0.0 
2.562150777916e-03 3.370033843571e-03 0.0 
2.703182408699e-03 3.327679633872e-03 0.0 
2.825161184259e-03 3.898928561422e-03 0.0 
2.791058927525e-03 3.193959335672e-03 0.0 
2.871766508760e-03 3.677331371358e-03 0.0 
2.815812439364e-03 2.972319389615e-03 0.0 
2.703685837048e-03 2.580174247486e-03 0.0 
2.712927469419e-03 2.377680840151e-03 0.0 
2.772917727866e-03 2.681769875230e-03 0.0 
2.659939208075e-03 2.125299555786e-03 0.0 
2.663581956210e-03 2.346813725967e-03 0.0 
2.549853701615e-03 1.843102426252e-03 0.0 
2.496636844946e-03 1.992063950459e-03 0.0 
2.392865967542e-03 1.552272115712e-03 0.0 
2.415402025747e-03 1.437635662288e-03 0.0 
2.272037463871e-03 1.200313877272e-03 0.0 
2.203358338877e-03 1.271068038073e-03 0.0 
2.101353459004e-03 9.711610652885e-04 0.0 
1.995629882328e-03 1.011114649493e-03 0.0 
1.915266062205e-03 7.592826752847e-04 0.0 
1.986653243862e-03 7.337383462350e-04 0.0 
1.821557948463e-03 5.610693827465e-04 0.0 
1.723681335789e-03 5.697673100082e-04 0.0 
1.651417600324e-03 4.062348317687e-04 0.0 
1.535065326790e-03 4.046318874456e-04 0.0 
1.483130966586e-03 2.707098069636e-04 0.0 
1.355570388217e-03 2.636197730092e-04 0.0 
1.320769191037e-03 1.536424668029e-04 0.0 
1.418527162474e-03 1.676787423618e-04 0.0 
1.272435707229e-03 6.979968147821e-05 0.0 
1.167942848112e-03 5.409532824319e-05 0.0 
1.133696616922e-03 -1.388285063149e-05 0.0 
1.212099981492e-03 7.987224823777e-06 0.0 
1.086866398862e-03 -6.282763093060e-05 0.0 
1.141993676814e-03 -3.579116150949e-05 0.0 
1.029878414134e-03 -9.616770979473e-05 0.0 
9.698208703195e-04 -1.229096959427e-04 0.0 
9.237028443840e-04 -1.478085619699e-04 0.0 
9.652063003200e-04 -1.168187641356e-04 0.0 
8.692320327996e-04 -1.618152131540e-04 0.0 
8.232854992922e-04 -1.921641473696e-04 0.0 
7.784622088359e-04 -2.001535641214e-04 0.0 
8.094096709440e-04 -1.668504919485e-04 0.0 
7.271931549293e-04 -2.006583111041e-04 0.0 
6.929496699366e-04 -2.327721071496e-04 0.0 
6.493301538110e-04 -2.293780474898e-04 0.0 
6.722175996378e-04 -1.949730961953e-04 0.0 
6.011327700160e-04 -2.210013195082e-04 0.0 
5.756920269869e-04 -2.537580321696e-04 0.0 
5.338941510282e-04 -2.428593637576e-04 0.0 
5.502442740981e-04 -2.087144829968e-04 0.0 
4.886893363646e-04 -2.289771027280e-04 0.0 
4.972669817846e-04 -1.940943671696e-04 0.0 
4.694548981176e-04 -2.616066986643e-04 0.0 
4.297993868943e-04 -2.462656320140e-04 0.0 
4.088556514405e-04 -2.774024512482e-04 0.0 
3.739699404354e-04 -2.609424357840e-04 0.0 
1.861622172413e-03 5.471387780956e-04 0.0 
3.531719475105e-04 -2.901602852573e-04 0.0 
3.817243081293e-04 -3.050047617942e-04 0.0 
3.216767642444e-04 -2.732936554641e-04 0.0 
3.362658250965e-04 -2.433188956122e-04 0.0 
3.016530385739e-04 -3.005446702415e-04 0.0 
2.729039778856e-04 -2.836574139809e-04 0.0 
2.543908503774e-04 -3.089571711358e-04 0.0 
1.366254278879e-03 4.041178100827e-04 0.0 
2.573898297916e-03 2.060390398228e-03 0.0 
2.277696811570e-04 -2.924351750360e-04 0.0 
2.113672828812e-04 -3.157879830609e-04 0.0 
2.331077139296e-04 -3.310533432579e-04 0.0 
1.933282768390e-04 -3.359860896798e-04 0.0 
2.070851429027e-03 5.866049371233e-03 0.0 
2.005445386928e-03 4.927661205482e-03 0.0 
1.881174335306e-03 5.542502940591e-03 0.0 
1.784203731307e-03 4.590425321310e-03 0.0 
1.678367814100e-03 5.159416239488e-03 0.0 
1.724383637005e-04 -3.214761218145e-04 0.0 
2.374790911474e-03 3.295306138376e-03 0.0 
1.861563450991e-03 4.010035002364e-03 0.0 
2.749249660617e-03 2.969536907920e-03 0.0 
2.060256337744e-03 1.328665345220e-03 0.0 
1.257552704526e-03 3.358804624081e-05 0.0 
2.413149415894e-04 -2.662415822553e-04 0.0 
1.982913918701e-04 -2.757038468815e-04 0.0 
2.074939266599e-04 -2.488761974588e-04 0.0 
5.541753392453e-04 -1.725709586347e-04 0.0 
4.938601154682e-04 -1.581741531565e-04 0.0 
5.438805379677e-04 -1.358623347307e-04 0.0 
4.774406341594e-04 -1.224734252540e-04 0.0 
5.183410528813e-04 -1.001081311690e-04 0.0 
4.474342144139e-04 -8.840549177757e-05 0.0 
4.132426087046e-04 -1.086980177609e-04 0.0 
3.804253828597e-04 -7.659485908114e-05 0.0 
3.520198446004e-04 -9.505135840514e-05 0.0 
4.771600090608e-04 -6.690847382464e-05 0.0 
5.554589950983e-04 -7.602788979622e-05 0.0 
3.178763826454e-04 -6.512875652996e-05 0.0 
2.943544746290e-04 -8.194652987574e-05 0.0 
2.602206347999e-04 -5.438269758795e-05 0.0 
2.407501244782e-04 -6.966039451838e-05 0.0 
2.665554446890e-04 -9.830554403493e-05 0.0 
2.165577006340e-04 -8.483868689229e-05 0.0 
2.355111750573e-04 -1.141126044023e-04 0.0 
1.165388806833e-03 -6.156127276918e-06 0.0 
1.265945495498e-03 6.024222549177e-05 0.0 
1.153767392540e-03 2.362443510044e-05 0.0 
1.233674768499e-03 8.488085818436e-05 0.0 
1.104751853392e-03 5.084890058451e-05 0.0 
1.159031856581e-03 1.046378544860e-04 0.0 
1.017001079351e-03 7.289681684465e-05 0.0 
9.778625690318e-04 2.797416217142e-05 0.0 
2.505757985498e-03 2.761239056115e-03 0.0 
1.027366792533e-03 -2.978651332287e-05 0.0 
1.035166805656e-03 4.525250426722e-05 0.0 
8.990998908403e-04 -3.782430881402e-05 0.0 
8.815410403177e-04 4.484023805539e-05 0.0 
7.557911658183e-04 -3.706902775336e-05 0.0 
7.150586440205e-04 5.417508869625e-05 0.0 
6.040469254045e-04 -2.689794268790e-05 0.0 
6.467435647077e-04 -1.060184802747e-04 0.0 
5.094041289275e-04 -9.594597864335e-05 0.0 
5.518331216894e-04 -1.645541938081e-04 0.0 
4.286943780516e-04 -1.554819891683e-04 0.0 
4.689613824410e-04 -2.143238787499e-04 0.0 
2.265472931567e-03 1.113269915007e-03 0.0 
1.304413038217e-03 1.501006276166e-04 0.0 
1.198929744002e-03 1.590595149958e-04 0.0 
1.360588731040e-03 2.170004082153e-04 0.0 
2.104823586595e-04 -3.496862629494e-04 0.0 
1.915226894027e-04 -5.830622718521e-05 0.0 
5.007508304120e-04 -4.457707102510e-05 0.0 
5.872571478107e-04 -5.082943639354e-05 0.0 
8.803050192633e-04 5.078925586179e-05 0.0 
1.579046988121e-04 -3.398829377442e-04 0.0 
5.444150408923e-04 7.359096309103e-05 0.0 
6.540980006551e-04 1.691339601420e-04 0.0 
1.555532441230e-03 4.196337629624e-03 0.0 
1.469718725015e-03 4.731257580701e-03 0.0 
5.162258811131e-04 -2.196156570864e-05 0.0 
1.373547290773e-04 -3.264312529734e-04 0.0 
3.358213740441e-04 -4.811191897818e-05 0.0 
3.734575304159e-04 -7.780719268012e-05 0.0 
1.701616437351e-04 -7.237177440350e-05 0.0 
1.469115785285e-04 -4.792136863554e-05 0.0 
3.759783355368e-04 -1.275555674179e-04 0.0 
1.219321303430e-03 2.118126370607e-04 0.0 
1.399270571087e-03 2.827087252451e-04 0.0 
5.797058266813e-04 -2.152040693796e-04 0.0 
4.960088576945e-04 -2.570043134295e-04 0.0 
3.969037775457e-04 -2.566148151101e-04 0.0 
4.254601688566e-04 -2.931946376495e-04 0.0 
5.113396553016e-04 -2.858611105105e-04 0.0 
4.386952271006e-04 -3.145929072390e-04 0.0 
3.618621205274e-04 -3.215211541088e-04 0.0 
3.750444798866e-04 -3.379416046096e-04 0.0 
4.430920973756e-04 -3.260536811806e-04 0.0 
3.801487141632e-04 -3.448930029495e-04 0.0 
3.197634417899e-04 -3.558461828505e-04 0.0 
3.251349001618e-04 -3.592561817196e-04 0.0 
1.607785284063e-04 -3.554398142787e-05 0.0 
3.083717097975e-04 -1.395816078111e-04 0.0 
2.866200798750e-03 4.488525422597e-03 0.0 
4.286634413951e-04 -1.846036008840e-05 0.0 
8.928139326732e-04 8.724878900671e-05 0.0 
1.324340842418e-03 3.761380020942e-03 0.0 
1.259214308319e-03 4.268794900085e-03 0.0 
1.365185317678e-03 5.262181374387e-03 0.0 
1.175498921229e-03 4.772291900004e-03 0.0 
1.051507688090e-03 3.780860489393e-03 0.0 
9.885593869948e-04 4.264912406031e-03 0.0 
1.079896854397e-03 5.269090470656e-03 0.0 
9.120520800155e-04 4.744176471434e-03 0.0 
9.775348116316e-04 5.756242797914e-03 0.0 
8.266165048000e-04 5.216913730620e-03 0.0 
7.497766264579e-04 4.209987795936e-03 0.0 
6.803757179869e-04 4.672928316090e-03 0.0 
7.358552230881e-04 5.683838358845e-03 0.0 
6.032784829722e-04 5.132008283878e-03 0.0 
6.421801592840e-04 6.144697155691e-03 0.0 
5.207122243323e-04 5.587368887654e-03 0.0 
4.776466329109e-04 4.580057924564e-03 0.0 
1.274570437136e-04 -3.427841188386e-04 0.0 
8.550763653380e-04 1.339351762092e-05 0.0 
7.504880735778e-04 3.598731273975e-05 0.0 
1.677733024151e-04 -2.593574706561e-04 0.0 
1.733797204479e-04 -2.319989720213e-04 0.0 
2.132634653954e-04 -2.199849295339e-04 0.0 
1.744719592799e-04 -2.030874881047e-04 0.0 
4.037820720109e-04 5.035735673654e-03 0.0 
3.618281019999e-04 4.030974797392e-03 0.0 
4.677065999291e-04 1.973939975084e-04 0.0 
5.725388571344e-04 3.108933412148e-04 0.0 
1.363722259584e-03 3.254451858786e-03 0.0 
1.276313074569e-04 -6.102385278471e-05 0.0 
1.446824865956e-04 -8.666162218904e-05 0.0 
1.824147064702e-03 1.042962790408e-03 0.0 
1.844742822834e-03 1.372346265482e-03 0.0 
1.593368585038e-03 1.070053836085e-03 0.0 
1.558156591394e-03 1.405463938196e-03 0.0 
1.839167171008e-03 1.781313499487e-03 0.0 
1.303303838090e-03 1.091998572965e-03 0.0 
6.382567681608e-04 -8.470927106028e-05 0.0 
5.967243003186e-04 3.672061760111e-03 0.0 
2.508869660257e-04 -3.451177196510e-04 0.0 
2.231799600039e-04 -3.618688261590e-04 0.0 
1.070951310709e-04 -3.872212533755e-05 0.0 
9.277910749064e-04 -1.571858376806e-05 0.0 
2.359867403784e-03 1.304730720969e-03 0.0 
2.184275108844e-03 1.009356720782e-03 0.0 
2.227368784899e-03 1.154004817775e-03 0.0 
2.028764643241e-03 8.892937415793e-04 0.0 
2.017725303117e-03 9.862890879707e-04 0.0 
1.799234763852e-03 7.546258600073e-04 0.0 
1.821367430484e-03 6.793944719309e-04 0.0 
1.213690200951e-03 2.588911945104e-04 0.0 
1.574385707203e-03 5.702523325739e-04 0.0 
4.412598182482e-04 6.049327661777e-03 0.0 
1.450811244204e-03 2.121686753210e-04 0.0 
4.387768470817e-04 -3.288066414677e-04 0.0 
1.451883761886e-04 -3.546910421969e-04 0.0 
2.712521285782e-04 -3.694816068443e-04 0.0 
1.060126836760e-04 -3.307353256537e-04 0.0 
1.138288310646e-04 -3.128527912082e-04 0.0 
4.262000528655e-04 9.292469135361e-08 0.0 
1.730692682708e-03 8.025351697001e-04 0.0 
1.957556638431e-03 1.053553708438e-03 0.0 
1.498605385715e-03 1.828107581019e-03 0.0 
1.805232405923e-03 2.294036983168e-03 0.0 
1.025824207619e-03 1.939208344096e-04 0.0 
1.732554404251e-03 6.152153605842e-03 0.0 
1.129357444957e-03 6.286630727112e-03 0.0 
1.008642076366e-03 6.777238091584e-03 0.0 
1.013093268111e-04 -3.477370234338e-04 0.0 
2.615857059528e-04 -3.615883251087e-04 0.0 
8.518983357178e-04 3.276697573772e-03 0.0 
7.826078840652e-04 2.843474299938e-04 0.0 
7.005785875305e-04 4.477863248553e-04 0.0 
2.443790319855e-04 -5.376231071761e-05 0.0 
1.942768067737e-04 -1.188823215858e-04 0.0 
3.012062975125e-04 4.471991667773e-03 0.0 
2.605424815725e-04 3.483537093253e-03 0.0 
2.144279838621e-04 -1.897567586897e-04 0.0 
1.729261795857e-04 -1.731968819275e-04 0.0 
5.212965079330e-04 2.118156814100e-07 0.0 
2.776690906459e-04 -3.698285139496e-04 0.0 
3.020860494766e-04 3.038937903683e-03 0.0 
8.180632001256e-04 -2.375959947754e-05 0.0 
8.700484084679e-04 -5.702387600615e-05 0.0 
1.350741067059e-04 -2.159818942865e-04 0.0 
3.722618502752e-04 3.458409275219e-04 0.0 
2.936531589080e-04 2.330599289954e-04 0.0 
5.078890981783e-04 -3.087435436594e-04 0.0 
3.229536096046e-04 -3.562528985436e-04 0.0 
8.259305720576e-05 -3.187593662689e-04 0.0 
4.102652589795e-04 1.632882290316e-05 0.0 
8.752646942372e-04 2.808670876943e-03 0.0 
1.612392293984e-03 5.176865710584e-04 0.0 
1.805801171149e-03 5.902286692124e-04 0.0 
1.349172868276e-03 4.272718329283e-04 0.0 
2.339558475302e-04 -3.788836310419e-04 0.0 
3.400220678249e-04 6.112625497450e-07 0.0 
8.921552425776e-05 -5.071470936802e-05 0.0 
1.628886670729e-03 8.315636528230e-04 0.0 
1.845703078092e-03 1.084406520445e-03 0.0 
9.336365018285e-04 4.236825476137e-04 0.0 
8.618220045163e-04 6.176772997591e-04 0.0 
5.974505116311e-04 6.484131988678e-04 0.0 
7.601710340601e-04 8.544704308359e-04 0.0 
2.693833339893e-03 5.530324794719e-03 0.0 
1.115753377635e-03 5.950093960828e-04 0.0 
2.871489252342e-03 4.167525741819e-03 0.0 
2.821358586944e-03 5.097999502349e-03 0.0 
2.779261142454e-03 4.665242193937e-03 0.0 
2.121859586427e-03 2.212931269010e-03 0.0 
2.118344902301e-03 2.843261673144e-03 0.0 
1.024200345051e-03 1.435629109225e-04 0.0 
1.374758070606e-03 1.128112635911e-04 0.0 
2.558513837299e-04 -2.071440578234e-04 0.0 
2.850178641506e-04 -1.292105020483e-04 0.0 
6.116505145626e-04 -1.480735421671e-04 0.0 
6.385649303301e-04 3.215833848680e-03 0.0 
4.831190365663e-04 2.684862866841e-03 0.0 
7.667964960289e-04 6.701329431392e-03 0.0 
6.623654199235e-04 7.162258849872e-03 0.0 
1.882048123842e-04 -3.648079684777e-04 0.0 
1.969349713324e-04 -3.748966579012e-04 0.0 
4.434151783859e-04 -1.781291374630e-04 0.0 
3.487970618567e-04 -1.434426898029e-05 0.0 
1.114252876498e-03 2.813307113821e-03 0.0 
1.100500169115e-03 2.337547886584e-03 0.0 
1.369984327194e-03 2.752635553492e-03 0.0 
5.129638268683e-04 2.097913172210e-05 0.0 
9.003518964310e-04 -9.979353482060e-05 0.0 
1.068784296189e-03 -3.256292833429e-05 0.0 
2.529060916784e-04 -1.922728158479e-04 0.0 
1.993363952543e-03 6.987751642179e-04 0.0 
1.680816302077e-04 -3.764000796451e-04 0.0 
2.515310551257e-03 2.184468756911e-03 0.0 
7.239961743108e-05 -3.049439889990e-05 0.0 
8.352152211670e-05 -2.067865456945e-05 0.0 
9.753748013657e-04 2.204182274939e-04 0.0 
2.399464007291e-03 7.270255606815e-03 0.0 
1.841233073765e-03 5.255484760414e-04 0.0 
1.728912341088e-03 4.023937670654e-04 0.0 
2.674180950861e-03 5.725350147175e-03 0.0 
2.579061748045e-03 5.162033970887e-03 0.0 
2.646752816021e-03 4.111488709240e-03 0.0 
2.379622454228e-03 4.454665006826e-03 0.0 
4.928447542896e-04 -3.077557549856e-04 0.0 
4.265444661828e-04 -3.249839891697e-04 0.0 
1.354891930082e-03 6.008515831859e-04 0.0 
1.265453279225e-03 4.469308934620e-04 0.0 
1.466177755491e-03 8.115936165569e-04 0.0 
1.676423348230e-03 1.061792635488e-03 0.0 
7.830685024921e-04 1.608111241159e-04 0.0 
8.469837955458e-04 1.441036377664e-04 0.0 
8.769560021718e-05 -2.997823808183e-04 0.0 
1.742011787917e-03 2.941709238224e-03 0.0 
6.678226620066e-04 2.306929893512e-03 0.0 
2.683498166272e-03 6.108500301057e-03 0.0 
2.651974302988e-04 1.557012804174e-06 0.0 
2.772575243417e-04 -1.087393372146e-05 0.0 
1.513418696393e-04 -1.745817225050e-04 0.0 
2.075025647359e-04 -2.445861515678e-04 0.0 
2.063567343617e-04 2.520388196753e-03 0.0 
4.751667540538e-04 8.875150490633e-04 0.0 
6.279938142470e-04 1.133295248911e-03 0.0 
3.567292722150e-04 6.842582630206e-04 0.0 
1.062792752178e-05 -4.050171207184e-06 0.0 
1.749423754975e-04 9.071107894936e-03 0.0 
5.350716227502e-05 -1.478065005986e-05 0.0 
2.403009150653e-03 2.718523369096e-03 0.0 
2.251439996582e-04 2.043488857573e-03 0.0 
1.686942187269e-03 3.939653453062e-04 0.0 
1.588518290922e-03 7.944392317126e-04 0.0 
6.252233357440e-04 2.461951576057e-06 0.0 
1.664841319504e-04 3.041394326440e-03 0.0 
1.241676949968e-04 1.965034488718e-03 0.0 
1.139507596943e-03 7.295167935661e-03 0.0 
1.011905422808e-03 7.802126387948e-03 0.0 
1.278246265071e-03 6.801812475968e-03 0.0 
3.060826862298e-04 2.017763194023e-05 0.0 
1.531858444344e-04 6.677552620531e-05 0.0 
4.563691428876e-04 3.133141345638e-03 0.0 
1.584860018801e-04 -2.843233039975e-04 0.0 
1.267715809308e-04 -2.661488360933e-04 0.0 
2.741621521774e-04 -3.650413716488e-04 0.0 
3.129995799564e-04 -3.485515721580e-04 0.0 
2.552334508844e-04 -1.758544253791e-04 0.0 
2.999321549992e-04 -1.933030037510e-04 0.0 
2.356901983881e-03 1.732372756960e-03 0.0 
2.250668406543e-03 1.789819021398e-03 0.0 
2.412586531686e-03 1.485017234277e-03 0.0 
7.724081752850e-04 -5.921071216672e-05 0.0 
8.075491252058e-04 -9.502891366993e-05 0.0 
8.954146219531e-04 -9.232741257120e-05 0.0 
4.974149628547e-04 2.268612330651e-03 0.0 
3.318259662634e-04 1.666583379771e-03 0.0 
5.656227988661e-04 -2.865122136320e-04 0.0 
5.844280285930e-04 -2.838185002232e-04 0.0 
4.699764925657e-04 -3.016231864646e-04 0.0 
6.497185879437e-04 1.874873911075e-03 0.0 
5.889356999654e-05 -8.076452372384e-06 0.0 
8.891217382793e-05 -1.223788295375e-05 0.0 
1.740603725454e-04 -3.839305790423e-04 0.0 
2.012242819140e-04 -3.817138914583e-04 0.0 
1.957525426032e-04 3.833749035030e-04 0.0 
1.379260506735e-04 2.725255469369e-04 0.0 
1.062744745927e-03 1.906841056542e-03 0.0 
1.339581233653e-03 2.271657854323e-03 0.0 
7.655074287331e-04 1.450688165307e-03 0.0 
5.616153661713e-05 -3.083558502338e-04 0.0 
1.613818173910e-03 4.522438377554e-04 0.0 
3.896573776027e-04 3.086943210169e-05 0.0 
5.010873154905e-04 3.916182724102e-05 0.0 
2.747069845624e-04 2.327997861570e-05 0.0 
1.184200913828e-03 2.976338646322e-04 0.0 
8.983025429740e-04 2.330428473174e-04 0.0 
1.016723876514e-03 3.228750254142e-04 0.0 
8.945737824089e-05 -9.771119500425e-05 0.0 
9.254046597181e-05 2.365941643755e-03 0.0 
7.779124823471e-04 7.723115592513e-03 0.0 
6.838802433499e-05 -1.482221152533e-04 0.0 
6.670342282147e-04 8.219064823752e-03 0.0 
5.621196529577e-04 7.625376033903e-03 0.0 
5.750936578704e-04 8.706249258640e-03 0.0 
5.432836171987e-05 -3.246898394662e-04 0.0 
1.265637282482e-03 7.983234041182e-03 0.0 
1.428965641285e-03 7.333937152641e-03 0.0 
1.706791523526e-04 -3.892837252928e-04 0.0 
4.398859817690e-04 1.387612060750e-03 0.0 
1.534705161855e-04 -3.842091996653e-04 0.0 
1.460142034776e-04 -3.771712549299e-04 0.0 
1.981700429163e-04 1.657885503825e-06 0.0 
2.139158861728e-04 -7.366482468413e-06 0.0 
1.409585353091e-04 2.763151292511e-06 0.0 
1.626142078537e-04 -4.229222108826e-06 0.0 
2.209958933899e-04 -1.850182455958e-05 0.0 
1.686017161310e-04 -1.342651086132e-05 0.0 
8.970449921832e-04 8.368106511015e-03 0.0 
1.090400213810e-04 -7.524277300519e-07 0.0 
1.225330645579e-04 -8.756724849381e-06 0.0 
7.057141042450e-05 -3.709967255377e-07 0.0 
2.243987306303e-03 5.731139111925e-03 0.0 
9.448699511753e-04 1.103185443300e-03 0.0 
8.182311269781e-04 1.446785312287e-03 0.0 
4.568785482866e-04 1.479441627112e-03 0.0 
1.148885204465e-03 6.727338211160e-04 0.0 
1.476880972312e-03 1.004578904163e-03 0.0 
5.502893038386e-05 -4.109854193092e-05 0.0 
6.375899541633e-05 -6.294301944350e-05 0.0 
4.619802415122e-04 8.160538771007e-03 0.0 
3.379683101197e-04 8.194784606296e-03 0.0 
3.711374081093e-04 7.269136440132e-03 0.0 
2.674548860847e-04 7.374669095871e-03 0.0 
2.909667671644e-04 6.468053023223e-03 0.0 
1.868746937353e-04 6.578972096604e-03 0.0 
2.234338573770e-04 5.674614922707e-03 0.0 
8.840069497453e-04 3.151790152746e-04 0.0 
2.177323818055e-04 9.041641253684e-04 0.0 
2.456961729784e-03 6.894239867591e-03 0.0 
6.018793488235e-04 1.151161473170e-04 0.0 
6.996064560863e-04 1.106413340553e-04 0.0 
2.076449011261e-03 3.637781851769e-03 0.0 
1.619586075013e-03 3.765184027527e-03 0.0 
2.228481838350e-04 1.149680109889e-05 0.0 
1.156883047565e-03 4.093059329693e-04 0.0 
3.364735837052e-04 8.617400626456e-04 0.0 
-9.305857530243e-05 1.441412224310e-04 0.0 
2.200185304629e-05 7.803478101763e-05 0.0 
1.352647634766e-03 5.816530687735e-04 0.0 
2.419322891349e-03 3.480378667583e-03 0.0 
1.195597813563e-03 1.424753668322e-03 0.0 
1.119920561406e-03 1.874100167588e-03 0.0 
7.126966043162e-04 -2.613648469511e-05 0.0 
1.992702379976e-04 -3.849960151337e-04 0.0 
2.669488036279e-04 5.185452888560e-04 0.0 
3.270145986391e-04 5.578580813327e-03 0.0 
8.976519849108e-05 5.438362734687e-04 0.0 
2.893475683039e-05 -5.054402255610e-05 0.0 
1.184675430876e-03 2.616300674656e-04 0.0 
2.355167803457e-03 2.116318683069e-03 0.0 
4.725396401425e-04 4.808337906626e-04 0.0 
1.073188445673e-03 8.342278907513e-04 0.0 
2.795470259126e-03 4.684203149418e-03 0.0 
2.528870733088e-03 6.385066474026e-03 0.0 
2.621743300861e-03 6.352714100122e-03 0.0 
1.186730895360e-03 1.449947999316e-04 0.0 
1.428913975480e-03 2.361491797429e-03 0.0 
9.930440637977e-04 2.427179646611e-03 0.0 
2.848160893733e-03 3.357118919320e-03 0.0 
1.639323511580e-03 3.125067323453e-03 0.0 
1.621189392374e-03 2.607746117205e-03 0.0 
1.274546498824e-03 1.833717701869e-03 0.0 
1.558651794812e-03 2.125791793688e-03 0.0 
1.893703203695e-03 2.893669534847e-03 0.0 
1.838421225661e-03 2.377824172286e-03 0.0 
1.451324419873e-03 1.688666318063e-03 0.0 
1.735315620702e-03 1.905210971312e-03 0.0 
1.195756287299e-03 1.165500222064e-03 0.0 
1.572992098389e-03 1.470582930270e-03 0.0 
1.995626048518e-03 2.075596891883e-03 0.0 
1.853030013949e-03 1.648501523618e-03 0.0 
1.436974809474e-03 1.167595138369e-03 0.0 
2.231295751929e-03 2.213536243821e-03 0.0 
4.992730581904e-04 1.124285609194e-04 0.0 
1.567789028915e-03 5.759345828574e-04 0.0 
1.239104700946e-04 -2.453389218370e-05 0.0 
4.946353699217e-05 1.687364521942e-04 0.0 
2.581252256035e-03 2.547544699524e-03 0.0 
6.066508005599e-04 5.772787978631e-04 0.0 
5.271887656926e-04 6.554937743415e-04 0.0 
8.423047057034e-04 1.510574560645e-04 0.0 
5.760612394634e-04 2.996371960002e-04 0.0 
2.783877581213e-03 5.397024612733e-03 0.0 
4.507411044085e-04 -6.920109204636e-06 0.0 
5.230211359789e-04 2.197594387162e-04 0.0 
1.900323298333e-03 3.439319527650e-03 0.0 
2.146824847902e-03 3.712050725533e-03 0.0 
2.096576542109e-03 4.316446265388e-03 0.0 
4.150647145959e-04 6.669672372649e-04 0.0 
1.419074097916e-03 6.280324653642e-03 0.0 
3.541704321797e-04 1.003636332448e-04 0.0 
1.362549827798e-03 1.335549047583e-04 0.0 
1.488526919379e-03 2.003767215803e-04 0.0 
1.475695718936e-03 1.841544976285e-04 0.0 
2.099451781349e-03 2.587800086650e-03 0.0 
2.461467946098e-04 4.633339527035e-05 0.0 
4.303614221567e-04 6.787600901572e-05 0.0 
3.830121158710e-04 5.252802013427e-05 0.0 
5.830535222619e-04 7.045982317708e-05 0.0 
1.928146929394e-04 3.051070229081e-05 0.0 
5.789124838130e-04 4.263194453126e-04 0.0 
5.521503333068e-04 3.598972880700e-04 0.0 
5.143418345610e-04 -3.021240196292e-04 0.0 
5.945952951581e-04 -2.725754223907e-04 0.0 
6.689589368609e-04 -2.533765161621e-04 0.0 
6.832999220439e-04 -2.367357310368e-04 0.0 
5.934675296307e-04 -2.503949597038e-04 0.0 
6.852081085787e-04 -2.085192296207e-04 0.0 
7.803295261366e-04 -1.943210299878e-04 0.0 
6.730302247308e-04 -1.657670020557e-04 0.0 
1.898655305308e-03 1.394253541915e-03 0.0 
1.452933232466e-04 1.867090444470e-05 0.0 
5.924166139454e-04 -1.112205673260e-04 0.0 
6.684809036023e-04 -1.211887718558e-04 0.0 
6.791811982550e-04 -1.584907734143e-04 0.0 
2.967145661453e-04 -2.251251285489e-04 0.0 
3.443110303057e-04 -2.112655832008e-04 0.0 
3.447536860597e-04 -1.780575103341e-04 0.0 
2.510022137752e-04 -2.376266566217e-04 0.0 
1.998509489205e-03 7.750533696423e-04 0.0 
1.276091373218e-04 1.410317763652e-05 0.0 
9.697921609345e-04 -4.860472014060e-05 0.0 
3.878303330011e-04 -2.291973928560e-04 0.0 
1.591762682330e-03 8.751617456163e-03 0.0 
1.765216185748e-03 7.776552542968e-03 0.0 
1.948787354471e-03 7.537394495988e-03 0.0 
1.907720683319e-03 6.667275022580e-03 0.0 
1.573627832881e-03 7.839199670764e-03 0.0 
2.109060039832e-04 -1.590599915549e-04 0.0 
1.675273174963e-04 -1.432161041201e-04 0.0 
1.316840445188e-04 -1.576401172725e-04 0.0 
1.254522114356e-04 -1.284332210031e-04 0.0 
9.128099941703e-05 -1.430609474269e-04 0.0 
9.601577300622e-05 -1.713863001225e-04 0.0 
8.422035418732e-05 -1.146371140679e-04 0.0 
5.267481708764e-05 -1.325942722623e-04 0.0 
1.289781519425e-03 8.983647044563e-03 0.0 
9.077741930510e-05 -2.874905558397e-04 0.0 
1.557881746686e-04 -3.160286084569e-04 0.0 
1.658949808462e-04 -3.475804816002e-04 0.0 
2.113680378181e-04 -3.365023323330e-04 0.0 
2.117021928146e-04 -3.024437633081e-04 0.0 
2.814076313649e-04 -3.238528220198e-04 0.0 
2.738630481219e-04 -2.851295762315e-04 0.0 
1.398681768616e-04 -2.699323897835e-04 0.0 
1.324726114511e-04 -3.551977952539e-04 0.0 
1.729554319964e-04 -3.684096598521e-04 0.0 
1.446121717728e-04 -3.738095215643e-04 0.0 
1.740302892343e-04 -3.810416795858e-04 0.0 
2.165559237365e-04 -3.751924533765e-04 0.0 
2.322560099797e-04 -3.711183534295e-04 0.0 
3.006848725608e-05 -2.675294615385e-07 0.0 
3.621282200750e-05 -2.098868181389e-04 0.0 
6.972314846094e-05 -2.249599006323e-04 0.0 
6.686705778024e-05 -2.498162616044e-04 0.0 
1.051022829337e-04 -2.394540026582e-04 0.0 
6.914697245883e-05 -2.000788818091e-04 0.0 
3.246406000154e-05 -2.607293704267e-04 0.0 
6.238106040607e-05 -2.706391956887e-04 0.0 
6.183621133953e-05 -3.708051001589e-04 0.0 
5.000506400326e-05 -3.608024854663e-04 0.0 
2.344354939288e-05 -3.577269019645e-04 0.0 
3.844245546133e-05 -3.488543281547e-04 0.0 
6.308644163333e-05 -3.529379214411e-04 0.0 
7.260924874394e-05 -3.642508623337e-04 0.0 
9.399218542346e-05 -3.690056912934e-04 0.0 
1.011540738318e-04 -3.790104651524e-04 0.0 
1.131724738868e-04 -3.740885105092e-04 0.0 
1.088950293403e-04 -3.622953047925e-04 0.0 
1.172369538150e-04 -3.833949887971e-04 0.0 
7.288149847482e-05 4.362477541812e-03 0.0 
1.395863609191e-04 3.870567450367e-03 0.0 
1.036195017716e-04 8.442296702758e-06 0.0 
1.015977104965e-03 8.987093277727e-03 0.0 
1.533942126581e-04 -3.905298147640e-04 0.0 
1.185551222413e-04 9.666208276667e-04 0.0 
1.887326036080e-04 7.920606261599e-04 0.0 
1.493007378935e-04 7.711504023138e-04 0.0 
1.775844886218e-05 -1.479848405884e-05 0.0 
2.866288667121e-05 -8.959679454901e-06 0.0 
6.387188032177e-05 9.419648031878e-04 0.0 
2.772625109763e-04 -3.245988926275e-04 0.0 
1.166882623227e-03 1.436303121533e-03 0.0 
3.314083186906e-04 2.593545951521e-03 0.0 
3.802876741253e-04 1.019889856558e-04 0.0 
3.667550101058e-04 -3.384794498041e-04 0.0 
1.021943852403e-04 -7.428453542930e-05 0.0 
3.198457809854e-04 -1.125383490076e-04 0.0 
1.194600007900e-04 -2.757365824644e-05 0.0 
1.886389091631e-04 -9.984560020558e-05 0.0 
2.077697040410e-04 -4.448436450193e-05 0.0 
3.472318971309e-04 4.032706502326e-05 0.0 
7.906122500306e-05 -3.348275188066e-04 0.0 
8.722064051587e-04 6.233250062061e-03 0.0 
5.519506208072e-04 6.605101162415e-03 0.0 
5.421843724692e-04 4.127184296228e-03 0.0 
1.862784459908e-04 -3.000311822514e-04 0.0 
1.362133438754e-04 -1.856095979035e-04 0.0 
1.752317084290e-04 -3.527766801428e-04 0.0 
9.679205971816e-04 4.410933674297e-04 0.0 
2.796591092460e-03 3.750236121013e-03 0.0 
6.139701054130e-04 -1.852632255628e-04 0.0 
2.873755528954e-04 -2.555418423231e-04 0.0 
3.269522786814e-04 -3.159071880796e-04 0.0 
3.772491612574e-04 -3.444562230691e-04 0.0 
1.780749650961e-03 7.781699664679e-04 0.0 
4.416460070320e-04 -2.128923767500e-04 0.0 
4.037941634595e-04 -5.744570422269e-05 0.0 
4.150980637247e-04 3.582258368022e-03 0.0 
1.428393916820e-04 -3.899707259212e-04 0.0 
4.205077665100e-04 -3.781098467610e-05 0.0 
4.342293661477e-04 -1.429482598823e-04 0.0 
1.249923135548e-03 5.782428060718e-03 0.0 
1.041804728581e-03 1.169504743378e-04 0.0 
3.087305678897e-04 -3.449557619158e-04 0.0 
8.086605130541e-04 3.745713905872e-03 0.0 
8.528921427051e-04 1.946124215223e-03 0.0 
1.577820082213e-03 6.748391703412e-03 0.0 
1.580043820881e-04 -3.666024617384e-04 0.0 
8.930992926567e-04 7.270080789487e-03 0.0 
3.177349931842e-04 1.380282642115e-05 0.0 
1.614606588079e-03 3.656606380151e-03 0.0 
1.483680200603e-04 -3.067555568375e-04 0.0 
1.064588697140e-03 -6.503916688666e-05 0.0 
2.289203500580e-03 1.646210232872e-03 0.0 
2.152910401685e-03 8.200562564995e-03 0.0 
3.475425980787e-04 2.186334421351e-03 0.0 
1.717804326168e-03 4.070872642563e-04 0.0 
7.499273063278e-04 6.577821532154e-05 0.0 
1.040398827203e-03 -7.048167845346e-07 0.0 
1.220719543819e-04 -2.918718183005e-04 0.0 
2.800154756911e-04 -2.461193472659e-05 0.0 
1.342572842832e-03 9.001285979123e-05 0.0 
6.651519266672e-04 2.766606780433e-03 0.0 
2.224192128099e-03 1.276093127168e-03 0.0 
1.005024758003e-03 -8.454022126515e-05 0.0 
1.095469151969e-03 3.296016066342e-03 0.0 
7.453768654529e-04 -1.652583800960e-04 0.0 
1.046206386746e-03 1.580039621547e-04 0.0 
2.637123831443e-03 3.246074138688e-03 0.0 
2.520204431548e-03 1.672031882235e-03 0.0 
2.634126661282e-03 2.716034164449e-03 0.0 
2.137845271605e-03 9.199896848465e-04 0.0 
6.991391764269e-05 -8.805380297603e-05 0.0 
3.467865225668e-04 -3.108778499311e-05 0.0 
3.597257754572e-04 -2.053293100945e-04 0.0 
1.347779728264e-03 8.115496189857e-04 0.0 
1.552609304091e-03 5.724441813886e-03 0.0 
1.504196655669e-03 6.074371479630e-04 0.0 
4.775835574976e-04 1.799697186602e-03 0.0 
2.103612493249e-03 1.721917501271e-03 0.0 
2.738692414425e-04 -3.923358991620e-05 0.0 
8.786432193058e-04 2.373492945639e-03 0.0 
3.934119639894e-04 -1.957020253347e-04 0.0 
2.586822340046e-05 -3.200295751215e-04 0.0 
2.307616812523e-04 1.375778475461e-04 0.0 
7.789200523666e-04 -1.072041238450e-04 0.0 
1.568467260548e-03 2.803077925657e-04 0.0 
3.897396329667e-04 -1.614764629593e-04 0.0 
9.352414030732e-04 1.384515111410e-03 0.0 
2.180121154306e-04 -3.121774904380e-05 0.0 
6.107492197752e-04 -2.444924178390e-05 0.0 
-7.119129613626e-05 4.258528073594e-04 0.0 
2.458781882453e-03 7.148135689565e-03 0.0 
1.684233194772e-04 -2.405405638122e-05 0.0 
9.818847401146e-04 -8.297407391169e-05 0.0 
8.833425033000e-04 1.191773461636e-04 0.0 
5.766074998062e-05 -1.582736406231e-04 0.0 
9.174314911336e-04 3.717917627809e-04 0.0 
1.980041711936e-03 4.701862039229e-03 0.0 
1.251169243468e-04 -1.772779314743e-05 0.0 
7.379319794722e-04 5.090174948145e-06 0.0 
9.901580483811e-04 2.676207457228e-04 0.0 
2.905130132451e-04 9.079276378002e-03 0.0 
7.777920590630e-05 -3.765134257154e-06 0.0 
6.251643903950e-04 2.781524822011e-05 0.0 
2.103973038861e-03 8.553718281669e-04 0.0 
8.943993969068e-04 -1.278327192387e-04 0.0 
2.067074283551e-03 7.846848905724e-03 0.0 
3.366795879825e-04 -1.449444281793e-04 0.0 
2.575641623460e-03 1.886205358180e-03 0.0 
3.596417664595e-04 6.730400664765e-04 0.0 
6.208848431534e-04 5.081734486659e-05 0.0 
2.315098403996e-03 4.574299869097e-03 0.0 
2.962782217730e-04 -1.610604466426e-04 0.0 
1.527062557948e-03 2.935083806596e-04 0.0 
8.631436214312e-05 -3.573892965012e-04 0.0 
2.397929626194e-03 6.431362902318e-03 0.0 
2.485077564245e-04 -1.445395636979e-04 0.0 
7.865459986040e-04 -1.587312794219e-04 0.0 
8.200180698777e-04 -1.311988838251e-04 0.0 
7.010233409205e-04 1.658831465179e-04 0.0 
2.023542018055e-04 -1.288429981321e-04 0.0 
8.874466553026e-04 -1.441316325663e-04 0.0 
1.580724682347e-04 -1.141600673214e-04 0.0 
1.739226830490e-03 6.399512179591e-03 0.0 
2.369297722003e-03 3.908540300809e-03 0.0 
1.144514154108e-04 -1.005067926932e-04 0.0 
2.411880216562e-03 1.629445156639e-03 0.0 
1.309493350448e-04 -3.677810208628e-04 0.0 
1.933771391870e-03 6.516842931784e-04 0.0 
4.208566890170e-05 -2.234348848399e-05 0.0 
4.411354202761e-04 -2.912625333224e-04 0.0 
7.447346339912e-04 -1.286451166865e-04 0.0 
2.147841379525e-03 3.130021193992e-03 0.0 
1.236464894060e-03 4.230943433029e-03 0.0 
7.230281675847e-04 -9.163766621861e-05 0.0 
2.170058932577e-03 1.362156368864e-03 0.0 
1.760947555799e-03 4.953519889237e-04 0.0 
1.606471412033e-03 2.890786615459e-04 0.0 
6.785056704165e-04 -5.616022205577e-05 0.0 
1.337274433853e-03 3.048389634500e-03 0.0 
2.950107365881e-04 -3.385416002743e-04 0.0 
2.645595251345e-04 -3.566158432110e-04 0.0 
8.610111415631e-04 -1.739581998998e-04 0.0 
2.060749383224e-03 1.404083214814e-03 0.0 
5.628163027526e-05 -3.405722522507e-04 0.0 
2.324899118079e-03 2.717319781907e-03 0.0 
2.356546947881e-04 -3.770764733503e-04 0.0 
7.610338299550e-04 -2.169982131545e-04 0.0 
1.407143382575e-03 3.428562296140e-04 0.0 
8.497740084761e-05 6.323222347396e-03 0.0 
7.312555153241e-04 -2.290689469339e-04 0.0 
2.692035465009e-05 -3.024313151747e-04 0.0 
6.451971918852e-04 -2.604364114724e-04 0.0 
1.593134237986e-03 2.942005369233e-04 0.0 
6.139047825267e-04 -2.597920050687e-04 0.0 
5.392469828550e-04 -2.827281349169e-04 0.0 
2.329496339312e-04 1.661722926948e-03 0.0 
5.068404367436e-04 -2.739133534671e-04 0.0 
3.186228740602e-05 7.791815172782e-04 0.0 
1.225023353760e-05 -3.622058189975e-07 0.0 
1.091411199348e-04 8.306381518597e-03 0.0 
5.569542897331e-04 2.787207745094e-03 0.0 
-1.498866324940e-05 -7.472448919034e-05 0.0 
7.500441912559e-04 1.843870534405e-03 0.0 
4.070101929164e-04 -3.168281212829e-04 0.0 
2.401394188557e-03 2.239128787054e-03 0.0 
2.269316241912e-04 8.265225610762e-03 0.0 
3.486824025089e-04 -3.288986773032e-04 0.0 
1.090495987471e-03 9.083712423161e-04 0.0 
4.206403464522e-04 1.435628404692e-04 0.0 
1.557424743696e-04 4.802730779166e-03 0.0 
7.409880741772e-04 9.187760511746e-05 0.0 
1.581108793844e-03 3.747261317460e-04 0.0 
4.588628305850e-05 2.463694826159e-03 0.0 
6.646764210508e-04 9.180611067179e-03 0.0 
1.720957505184e-04 -3.876895604790e-04 0.0 
3.331335211911e-05 -7.425154240540e-05 0.0 
1.723749091772e-04 1.792165942827e-03 0.0 
3.090931123553e-04 1.145791827383e-03 0.0 
1.389791515618e-04 7.052552002783e-04 0.0 
9.274948619303e-05 -2.797669626790e-04 0.0 
2.109693504673e-04 -3.599232708145e-04 0.0 
5.778319032576e-05 1.152103424696e-03 0.0 
4.895169561150e-04 8.632630827112e-05 0.0 
1.118658850019e-03 8.234183736901e-03 0.0 
1.411328185082e-03 3.986448371272e-04 0.0 
-2.519160383222e-05 7.219183690456e-04 0.0 
6.175575243012e-04 1.512591097362e-03 0.0 
7.518958392031e-04 2.186893757886e-04 0.0 
6.823658764786e-05 4.068555425001e-06 0.0 
1.118528895274e-03 3.181834118969e-04 0.0 
4.404180856307e-05 4.072048062184e-04 0.0 
1.719855410212e-03 7.046492955949e-03 0.0 
1.008095807629e-03 5.148723926863e-04 0.0 
2.135363103347e-04 4.012249666336e-03 0.0 
4.780851118544e-05 2.135151873512e-06 0.0 
1.403247688488e-03 8.213482138570e-03 0.0 
1.390690161461e-04 1.551311014617e-03 0.0 
3.030888127131e-04 -2.461783804104e-04 0.0 
7.020155199383e-05 1.506836970873e-03 0.0 
2.080137163311e-03 1.763139341947e-03 0.0 
4.697711838733e-04 7.063043238829e-03 0.0 
2.082867635084e-03 6.678980250751e-03 0.0 
3.440029396890e-05 -4.207918194727e-06 0.0 
1.027569697851e-03 1.110621049387e-03 0.0 
1.283275161979e-05 2.803922683587e-04 0.0 
2.448139186867e-04 4.907065994854e-03 0.0 
1.419160651002e-04 -2.427341395624e-04 0.0 
1.039871413255e-04 -2.099295563066e-04 0.0 
1.797531658246e-04 7.605924971370e-06 0.0 
1.687896054141e-03 1.308136651211e-03 0.0 
5.840144814755e-05 -3.747910362861e-06 0.0 
1.727232048173e-05 -3.477514299523e-04 0.0 
1.571673189507e-04 -3.886456205676e-04 0.0 
2.141837063960e-04 1.607231786631e-05 0.0 
1.013967191901e-03 6.616001563135e-04 0.0 
3.487332084937e-04 -2.972386680790e-04 0.0 
2.062780206600e-04 6.066670027112e-04 0.0 
-3.982490310398e-05 1.970187798231e-04 0.0 
8.918104720736e-04 9.284548007306e-03 0.0 
1.280948724804e-04 -3.794106853924e-04 0.0 
3.716552369197e-05 1.258217153522e-06 0.0 
3.516796098260e-04 1.463915961508e-03 0.0 
9.783266653262e-05 -2.143186909849e-04 0.0 
1.932696115504e-03 8.209187308740e-03 0.0 
5.795009040064e-05 -2.910064844171e-04 0.0 
1.185570181207e-03 4.610479995802e-04 0.0 
1.999692615539e-04 -3.825554266345e-04 0.0 
2.345984616175e-04 1.393184472194e-03 0.0 
2.686169027020e-04 2.924350713818e-05 0.0 
7.479386797176e-04 1.213728815756e-03 0.0 
2.254508198518e-04 5.346877809637e-05 0.0 
3.162090692889e-05 -1.988054580849e-05 0.0 
7.022058649052e-04 2.261467033976e-04 0.0 
4.879738736084e-04 5.230480592233e-05 0.0 
5.034507798757e-04 9.214875680640e-03 0.0 
9.218994716737e-04 1.194230291917e-03 0.0 
9.353186624241e-05 -2.602711472321e-04 0.0 
1.221918923276e-04 -3.547483432216e-04 0.0 
1.342279540300e-05 6.903243405672e-04 0.0 
1.399979005417e-05 -3.681400686361e-04 0.0 
8.529063312825e-05 9.185542752667e-03 0.0 
4.743847125596e-06 -5.353497581590e-07 0.0 
7.722466007777e-05 -3.467855022136e-04 0.0 
1.806061651261e-04 7.570381172238e-03 0.0 
9.848419235435e-04 7.208712518998e-04 0.0 
2.534182864924e-05 -1.528058109571e-04 0.0 
1.055786457256e-04 3.098035913605e-03 0.0 
2.541186667730e-04 -3.484998045081e-04 0.0 
1.214194158263e-05 -1.644887539192e-04 0.0 
1.471025675521e-04 5.823058814427e-03 0.0 
6.254670421206e-04 1.654583386596e-04 0.0 
5.804480875284e-04 1.234378812337e-03 0.0 
3.786968084467e-04 6.509327963565e-03 0.0 
1.230383392322e-04 1.847410701723e-04 0.0 
1.334616968335e-03 9.726028033599e-04 0.0 
1.031455472968e-04 -1.933086562588e-04 0.0 
1.301575122026e-03 6.446945682214e-04 0.0 
5.999170322456e-04 8.679182030311e-05 0.0 
-1.146670848678e-04 2.394215982166e-04 0.0 
2.189727857388e-05 -1.252831867749e-04 0.0 
1.397598412881e-04 -3.840051040121e-04 0.0 
1.127180361031e-04 1.798737919288e-06 0.0 
6.808636928131e-05 -1.787138075552e-04 0.0 
7.793419869275e-04 9.288686083031e-03 0.0 
8.099682377669e-05 1.247900794821e-02 0.0 
1.479746945084e-03 9.652923131484e-03 0.0 
6.378468357526e-05 1.145422684206e-02 0.0 
1.713775964886e-03 9.478106389458e-03 0.0 
5.846820772022e-05 1.043659116986e-02 0.0 

VECTORS node_materi_displacement float
0.0 7.489309465048e-02 0.0 
0.0 1.325255514992e-01 0.0 
0.0 0.0 0.0 
0.0 0.0 0.0 
0.0 7.508864367869e-02 0.0 
0.0 7.479463036125e-02 0.0 
0.0 7.403612432858e-02 0.0 
0.0 7.282538583535e-02 0.0 
0.0 7.116101430680e-02 0.0 
0.0 6.908525429169e-02 0.0 
0.0 6.662007721097e-02 0.0 
0.0 6.377809039857e-02 0.0 
0.0 6.057245434980e-02 0.0 
0.0 5.700656959046e-02 0.0 
0.0 5.307274689908e-02 0.0 
0.0 4.876671454528e-02 0.0 
0.0 4.408804176758e-02 0.0 
0.0 3.904419656939e-02 0.0 
0.0 3.359165442861e-02 0.0 
0.0 2.772769367802e-02 0.0 
0.0 2.144519057180e-02 0.0 
0.0 1.472902409990e-02 0.0 
0.0 7.573200499205e-03 0.0 
0.0 0.0 0.0 
0.0 0.0 0.0 
0.0 0.0 0.0 
0.0 0.0 0.0 
0.0 0.0 0.0 
0.0 0.0 0.0 
0.0 0.0 0.0 
0.0 0.0 0.0 
0.0 0.0 0.0 
0.0 0.0 0.0 
0.0 0.0 0.0 
0.0 0.0 0.0 
0.0 0.0 0.0 
0.0 0.0 0.0 
0.0 0.0 0.0 
0.0 0.0 0.0 
0.0 0.0 0.0 
0.0 0.0 0.0 
0.0 0.0 0.0 
0.0 0.0 0.0 
0.0 0.0 0.0 
0.0 0.0 0.0 
0.0 0.0 0.0 
0.0 0.0 0.0 
0.0 0.0 0.0 
0.0 0.0 0.0 
0.0 0.0 0.0 
0.0 0.0 0.0 
0.0 0.0 0.0 
0.0 0.0 0.0 
0.0 0.0 0.0 
0.0 0.0 0.0 
0.0 0.0 0.0 
0.0 0.0 0.0 
0.0 0.0 0.0 
0.0 0.0 0.0 
0.0 0.0 0.0 
0.0 0.0 0.0 
0.0 0.0 0.0 
0.0 0.0 0.0 
0.0 0.0 0.0 
0.0 0.0 0.0 
0.0 0.0 0.0 
0.0 0.0 0.0 
0.0 0.0 0.0 
0.0 0.0 0.0 
0.0 0.0 0.0 
0.0 0.0 0.0 
0.0 0.0 0.0 
0.0 1.209751027186e-01 0.0 
0.0 1.090102649823e-01 0.0 
0.0 9.663813007289e-02 0.0 
0.0 8.388089606118e-02 0.0 
0.0 7.074522023240e-02 0.0 
0.0 5.725246938565e-02 0.0 
0.0 4.341671017421e-02 0.0 
0.0 2.925305361517e-02 0.0 
0.0 1.477967480767e-02 0.0 
-1.410232419389e-02 4.746982856766e-02 0.0 
1.678907838972e-02 1.275912355550e-01 0.0 
-6.701945801244e-03 7.221339562175e-02 0.0 
-8.196501599669e-04 9.180404909952e-02 0.0 
4.080026329288e-03 1.082102564075e-01 0.0 
8.092677555739e-03 1.214901843451e-01 0.0 
1.185344677014e-02 1.318944307384e-01 0.0 
1.509810630989e-02 1.391297993708e-01 0.0 
1.686879117672e-02 1.425692454694e-01 0.0 
1.797100694631e-02 1.407761405498e-01 0.0 
1.786292653814e-02 1.353383620234e-01 0.0 
0.0 1.646392697844e-01 0.0 
0.0 1.543351414302e-01 0.0 
0.0 1.436558191841e-01 0.0 
9.649299018824e-04 1.325343928142e-01 0.0 
1.924451253910e-03 1.325588172279e-01 0.0 
2.897121993756e-03 1.325885258431e-01 0.0 
3.880168196001e-03 1.326120306737e-01 0.0 
4.874093659366e-03 1.326357417122e-01 0.0 
5.883350150256e-03 1.326277199711e-01 0.0 
6.918325855619e-03 1.325973664291e-01 0.0 
7.970568817655e-03 1.325065347278e-01 0.0 
9.067108807418e-03 1.323581607759e-01 0.0 
1.020487562396e-02 1.320962483488e-01 0.0 
1.138534999910e-02 1.316934181809e-01 0.0 
1.262374007724e-02 1.311084172843e-01 0.0 
1.392676037700e-02 1.302793951187e-01 0.0 
1.530745059599e-02 1.291299129696e-01 0.0 
-1.136306166582e-02 3.341949078881e-02 0.0 
-7.268846529685e-03 2.591393212296e-02 0.0 
-2.840429788554e-03 2.288734217211e-02 0.0 
1.825364399231e-03 2.451068112992e-02 0.0 
5.094740485529e-03 3.295047760152e-02 0.0 
6.836488737044e-03 4.309322492697e-02 0.0 
7.522379200093e-03 4.985450127966e-02 0.0 
7.659483675923e-03 5.511723924598e-02 0.0 
7.219019964459e-03 5.934539327023e-02 0.0 
6.743027601156e-03 6.274917797709e-02 0.0 
6.252269695169e-03 6.552797068135e-02 0.0 
5.672255683604e-03 6.775314574897e-02 0.0 
5.102387189391e-03 6.959799502819e-02 0.0 
4.396308317779e-03 7.110577602954e-02 0.0 
3.685961747119e-03 7.232022378332e-02 0.0 
2.991314983089e-03 7.326298157061e-02 0.0 
2.289633977190e-03 7.399285226324e-02 0.0 
1.572944918919e-03 7.452262618258e-02 0.0 
7.977834886556e-04 7.481423997177e-02 0.0 
1.498130804611e-02 1.486690919224e-01 0.0 
1.419621609858e-02 1.528718985661e-01 0.0 
1.348839491341e-02 1.560397044983e-01 0.0 
1.288477755538e-02 1.584475942972e-01 0.0 
1.229855869761e-02 1.602661316124e-01 0.0 
1.169485004377e-02 1.616313430172e-01 0.0 
1.105689616880e-02 1.626441163388e-01 0.0 
1.037982061763e-02 1.633815299883e-01 0.0 
9.662008162864e-03 1.639040357821e-01 0.0 
8.904443297101e-03 1.642613736318e-01 0.0 
8.110150799950e-03 1.644943040204e-01 0.0 
7.284412645131e-03 1.646351789378e-01 0.0 
6.432266117702e-03 1.647096888584e-01 0.0 
5.558017615447e-03 1.647383562089e-01 0.0 
4.666522355888e-03 1.647381893207e-01 0.0 
3.763091162335e-03 1.647215935719e-01 0.0 
2.853264625519e-03 1.646974482096e-01 0.0 
1.944179873505e-03 1.646658747812e-01 0.0 
9.987956171480e-04 1.646208497952e-01 0.0 
9.763689619713e-04 1.543794984394e-01 0.0 
1.947661588596e-03 1.543979018700e-01 0.0 
2.908217282567e-03 1.544300147990e-01 0.0 
3.863435058935e-03 1.544580812244e-01 0.0 
4.814185930001e-03 1.544781561533e-01 0.0 
5.761578583630e-03 1.544800105845e-01 0.0 
6.704278549338e-03 1.544504953212e-01 0.0 
7.643118561959e-03 1.543709831914e-01 0.0 
8.575535553291e-03 1.542200064551e-01 0.0 
9.503089342399e-03 1.539652888793e-01 0.0 
1.042904744399e-02 1.535696262606e-01 0.0 
1.135734965315e-02 1.529874485484e-01 0.0 
1.229646384837e-02 1.521605428658e-01 0.0 
1.326080973833e-02 1.510197848055e-01 0.0 
1.426742866369e-02 1.494565195728e-01 0.0 
1.536350569443e-02 1.473705548231e-01 0.0 
1.654626734708e-02 1.445627187891e-01 0.0 
1.644381162872e-02 1.377159236400e-01 0.0 
1.516367839209e-02 1.395108415726e-01 0.0 
1.393103931620e-02 1.408280112917e-01 0.0 
1.277640158262e-02 1.418096436456e-01 0.0 
1.167632299865e-02 1.425183612851e-01 0.0 
1.061642443554e-02 1.430161030278e-01 0.0 
9.587800434413e-03 1.433547691931e-01 0.0 
8.583256073583e-03 1.435692030188e-01 0.0 
7.595101925154e-03 1.436915605450e-01 0.0 
6.623842690283e-03 1.437590651128e-01 0.0 
5.661987545063e-03 1.437791691320e-01 0.0 
4.710533179714e-03 1.437752533150e-01 0.0 
3.763029066048e-03 1.437518841095e-01 0.0 
2.820073889256e-03 1.437232441675e-01 0.0 
1.879471231159e-03 1.436877142344e-01 0.0 
9.369020555856e-04 1.436352416575e-01 0.0 
-9.973079072380e-03 6.123369418413e-02 0.0 
-3.654242167213e-03 8.240043192525e-02 0.0 
1.759139950121e-03 1.004087919325e-01 0.0 
6.172141016079e-03 1.152289546187e-01 0.0 
1.007456711334e-02 1.271232989616e-01 0.0 
1.362365490504e-02 1.359832568526e-01 0.0 
1.631413644607e-02 1.413798468865e-01 0.0 
1.759566503477e-02 1.421941065552e-01 0.0 
1.809336746614e-02 1.383878410680e-01 0.0 
1.743775298568e-02 1.316995201009e-01 0.0 
3.634448619190e-03 8.114323533675e-02 0.0 
2.754595588143e-03 6.660979202189e-03 0.0 
4.197887957612e-03 6.109425427021e-02 0.0 
-3.875468179220e-04 3.025559793958e-02 0.0 
1.118513836228e-03 6.361092537801e-03 0.0 
1.208498500367e-02 1.114119308107e-01 0.0 
2.119783205247e-06 5.494977878956e-02 0.0 
4.211395683721e-03 7.484776747408e-03 0.0 
1.831769940751e-02 1.286640099134e-01 0.0 
4.997302186384e-03 8.493362248617e-03 0.0 
2.049521551025e-02 1.326157560101e-01 0.0 
3.296921046896e-04 5.935115232741e-03 0.0 
3.487044651264e-03 7.064040781758e-02 0.0 
5.077488303864e-03 1.005068376291e-02 0.0 
1.842383491694e-02 1.213560695154e-01 0.0 
-2.206972955243e-05 6.774338421866e-02 0.0 
5.675446516861e-05 4.260338701375e-02 0.0 
4.695047066573e-03 1.148632029666e-02 0.0 
3.284630458303e-03 1.187038336996e-02 0.0 
9.376418683335e-04 1.261703330216e-02 0.0 
1.736877777422e-03 1.358650183516e-02 0.0 
2.328329986322e-03 1.197265799746e-02 0.0 
1.499562085603e-02 1.195207768300e-01 0.0 
9.765829355899e-03 1.217810579485e-01 0.0 
6.411435852131e-03 1.218950979058e-01 0.0 
6.250141493415e-04 7.716013052769e-02 0.0 
8.829252869594e-05 6.527868883250e-03 0.0 
-4.026145806332e-03 3.258769180446e-02 0.0 
2.032390696827e-03 7.378107742751e-02 0.0 
5.099395679728e-05 2.510422221655e-02 0.0 
3.299181300839e-03 1.226658425642e-01 0.0 
1.772846033895e-04 7.341922382975e-02 0.0 
4.493174426931e-03 1.327144315695e-02 0.0 
4.347600474828e-03 7.331942667168e-03 0.0 
5.088322950623e-03 9.138917012316e-03 0.0 
3.761011838258e-03 7.441540460065e-03 0.0 
1.919591227445e-03 6.142351994868e-03 0.0 
2.330415470477e-03 4.637724731854e-02 0.0 
1.223957344778e-02 1.216691944027e-01 0.0 
7.567541931763e-04 7.285144883690e-03 0.0 
4.697131243639e-04 5.096915614527e-02 0.0 
4.106585108431e-03 6.671828107461e-02 0.0 
-3.010710834282e-05 6.214734609190e-02 0.0 
4.664895881788e-04 1.027884145616e-02 0.0 
1.564187062476e-02 1.207312893560e-01 0.0 
8.241310678538e-03 9.798925015249e-02 0.0 
1.998334946527e-02 1.326430735912e-01 0.0 
1.986796164996e-02 1.284219546827e-01 0.0 
-2.475942977869e-03 6.097074321293e-02 0.0 
7.556483829774e-04 1.013986037980e-01 0.0 
2.660769540554e-05 5.205837082774e-03 0.0 
9.393351144823e-04 7.485066204062e-02 0.0 
2.566962865625e-04 2.313944579352e-02 0.0 
1.771171893333e-02 1.166915126093e-01 0.0 
1.900579355630e-02 1.105443863146e-01 0.0 
1.752615023545e-02 1.068729024776e-01 0.0 
1.897890694703e-02 9.961165721430e-02 0.0 
1.751394673881e-02 9.458127092348e-02 0.0 
1.854553705222e-02 8.807876319176e-02 0.0 
2.016829543958e-02 9.277689965354e-02 0.0 
1.940838267093e-02 8.143079463124e-02 0.0 
2.114001911255e-02 8.591510520861e-02 0.0 
1.684370918205e-02 8.274421643376e-02 0.0 
2.003021279096e-02 7.470673160770e-02 0.0 
2.184283035432e-02 7.897952408731e-02 0.0 
2.037632145355e-02 6.799585640498e-02 0.0 
2.223226493658e-02 7.205723542613e-02 0.0 
2.350413620394e-02 8.261637953444e-02 0.0 
2.391458977274e-02 7.551296166025e-02 0.0 
2.496391259347e-02 8.552906041324e-02 0.0 
2.536734085002e-02 7.823216177904e-02 0.0 
2.397305502331e-02 6.858367185453e-02 0.0 
2.539796368213e-02 7.117988367382e-02 0.0 
2.654987502358e-02 8.020234657476e-02 0.0 
2.652678639974e-02 7.304731105848e-02 0.0 
2.742042147989e-02 8.139377066146e-02 0.0 
2.732521130951e-02 7.415190280940e-02 0.0 
2.795712518798e-02 8.180925709362e-02 0.0 
2.777821504329e-02 7.454030077133e-02 0.0 
2.684475729390e-02 6.732261446884e-02 0.0 
2.720878461772e-02 6.775401250208e-02 0.0 
2.786968611480e-02 7.423095444778e-02 0.0 
2.720223961650e-02 6.753137094229e-02 0.0 
2.759456367607e-02 7.325667237221e-02 0.0 
2.682027304725e-02 6.669074569907e-02 0.0 
2.617215665341e-02 6.137784098840e-02 0.0 
2.568536154037e-02 6.074454617522e-02 0.0 
2.606282281254e-02 6.528754416826e-02 0.0 
2.482074759473e-02 5.962252493125e-02 0.0 
2.493461583581e-02 6.338397489217e-02 0.0 
2.358556194951e-02 5.807932210230e-02 0.0 
2.344561396454e-02 6.104508773861e-02 0.0 
2.197853544970e-02 5.618583284683e-02 0.0 
2.196114144931e-02 5.347328253440e-02 0.0 
2.026716141903e-02 5.207757007549e-02 0.0 
2.001358618651e-02 5.405377519957e-02 0.0 
1.824017044506e-02 5.056175308421e-02 0.0 
1.840383056074e-02 4.868649545215e-02 0.0 
1.637008254680e-02 4.781056174346e-02 0.0 
1.646971970049e-02 4.591524288265e-02 0.0 
1.448585739568e-02 4.566606386411e-02 0.0 
1.410583176929e-02 4.703457018333e-02 0.0 
1.231980571718e-02 4.556583369078e-02 0.0 
1.265468477748e-02 4.398664601656e-02 0.0 
1.062801622420e-02 4.450811520894e-02 0.0 
1.003440435839e-02 4.574804775081e-02 0.0 
8.556635544154e-03 4.529646421043e-02 0.0 
9.076487857453e-03 4.369867820572e-02 0.0 
7.221809800336e-03 4.500560062220e-02 0.0 
6.523496887951e-03 4.643708707662e-02 0.0 
5.448399754744e-03 4.660167422669e-02 0.0 
6.050662100032e-03 4.472457360519e-02 0.0 
4.512600903035e-03 4.670454480125e-02 0.0 
3.823555252790e-03 4.851717254623e-02 0.0 
3.143381575701e-03 4.889865350018e-02 0.0 
3.710709940481e-03 4.664556521244e-02 0.0 
2.559103139594e-03 4.907908067016e-02 0.0 
3.013873441149e-03 4.640652219204e-02 0.0 
1.966220524857e-03 5.134539213897e-02 0.0 
1.595487936338e-03 5.165289781604e-02 0.0 
1.033569350965e-03 5.396988073647e-02 0.0 
8.431597612747e-04 5.432100128293e-02 0.0 
2.482357960446e-02 5.577605862205e-02 0.0 
3.762405563505e-04 5.665563747267e-02 0.0 
4.520210036210e-04 5.591564184801e-02 0.0 
3.111383305598e-04 5.701489763108e-02 0.0 
6.750022295979e-04 5.436343952070e-02 0.0 
-2.997300315931e-05 5.935339848195e-02 0.0 
-1.677980102606e-05 5.967077558978e-02 0.0 
-2.140921539797e-04 6.198374928043e-02 0.0 
2.454513959216e-02 6.681807536444e-02 0.0 
2.367124176255e-02 6.189216784217e-02 0.0 
-1.695565767973e-04 6.222469184225e-02 0.0 
-2.229955634816e-04 6.447261308018e-02 0.0 
-2.770222629626e-04 6.400445662906e-02 0.0 
-1.160642545604e-04 6.640819291552e-02 0.0 
1.592035059327e-02 8.923392782838e-02 0.0 
1.507224679612e-02 7.698269399138e-02 0.0 
1.429058400664e-02 8.345540493505e-02 0.0 
1.325794478243e-02 7.089917180954e-02 0.0 
1.261825658517e-02 7.725120332689e-02 0.0 
-1.155286367882e-04 6.675882837771e-02 0.0 
1.837394385268e-02 6.303330307754e-02 0.0 
1.373687759927e-02 6.437346206511e-02 0.0 
2.711363929137e-02 8.901199694852e-02 0.0 
2.796178222709e-02 8.042527986618e-02 0.0 
1.819447858658e-02 4.619362407010e-02 0.0 
-1.339408242559e-05 5.966332411773e-02 0.0 
-1.385651274007e-04 6.215132738507e-02 0.0 
-1.290275111925e-05 5.935152587178e-02 0.0 
4.099982267159e-03 4.393042546638e-02 0.0 
3.305232892401e-03 4.330545755093e-02 0.0 
4.286440108071e-03 4.074114165085e-02 0.0 
3.418819607492e-03 3.975079286955e-02 0.0 
4.261999948822e-03 3.706254810819e-02 0.0 
3.350863464444e-03 3.572030228185e-02 0.0 
2.673524369812e-03 3.858452018170e-02 0.0 
2.574944604655e-03 3.420917495374e-02 0.0 
2.043293746798e-03 3.722444075766e-02 0.0 
4.030477002296e-03 3.287991844235e-02 0.0 
5.105537430695e-03 3.442424081836e-02 0.0 
1.926307385050e-03 3.251930760647e-02 0.0 
1.520366763694e-03 3.565986042212e-02 0.0 
1.396166873166e-03 3.063869488619e-02 0.0 
1.096525312055e-03 3.389069937472e-02 0.0 
1.140116665806e-03 3.877211927413e-02 0.0 
8.159275178277e-04 3.709272679349e-02 0.0 
8.044525950664e-04 4.183723920159e-02 0.0 
1.620230995432e-02 4.338364089456e-02 0.0 
1.760244923626e-02 4.308545087191e-02 0.0 
1.556001387374e-02 4.022873554725e-02 0.0 
1.661122848548e-02 3.936732573421e-02 0.0 
1.453584778558e-02 3.645723318880e-02 0.0 
1.521665513758e-02 3.504745973704e-02 0.0 
1.312641256912e-02 3.207432362558e-02 0.0 
1.250920526790e-02 3.383724895727e-02 0.0 
2.042935448347e-02 6.126972478055e-02 0.0 
1.770926596020e-02 5.180643957848e-02 0.0 
1.937317590854e-02 5.543951027332e-02 0.0 
1.682357563357e-02 5.240653862408e-02 0.0 
1.835005238493e-02 5.622203154029e-02 0.0 
1.559400914342e-02 5.232724314024e-02 0.0 
1.695596883721e-02 5.641145895359e-02 0.0 
1.404172790427e-02 5.154990987857e-02 0.0 
1.253435531513e-02 4.859397386905e-02 0.0 
1.079426267280e-02 4.686542093570e-02 0.0 
9.221950084979e-03 4.534903693307e-02 0.0 
7.299796334062e-03 4.282111090002e-02 0.0 
5.809383283196e-03 4.297139722456e-02 0.0 
2.600463190684e-02 6.094410330779e-02 0.0 
1.732916584921e-02 3.832312152752e-02 0.0 
1.554652569409e-02 3.341307641417e-02 0.0 
1.767107539887e-02 3.700511164621e-02 0.0 
-1.300276934426e-04 6.573533436823e-02 0.0 
7.616818364285e-04 3.191912056193e-02 0.0 
4.668448226158e-03 3.005111013578e-02 0.0 
5.897666082175e-03 3.186015658347e-02 0.0 
1.110753494779e-02 2.932830307155e-02 0.0 
1.230848902872e-04 6.855617214271e-02 0.0 
1.520047280066e-02 5.604037954817e-02 0.0 
1.785502428641e-02 6.185690105174e-02 0.0 
1.144623702810e-02 6.439532328726e-02 0.0 
1.095248028158e-02 7.070712661206e-02 0.0 
5.214616199356e-03 2.722214360178e-02 0.0 
4.879563569332e-05 6.880096700351e-02 0.0 
2.330972559940e-03 2.935661779709e-02 0.0 
8.773269542013e-03 4.425525870473e-02 0.0 
5.616035125641e-04 3.520659267458e-02 0.0 
5.050932560950e-04 2.975805642854e-02 0.0 
2.036061697886e-03 4.145742236692e-02 0.0 
1.548853581227e-02 3.147813586611e-02 0.0 
1.764757149604e-02 3.542537514540e-02 0.0 
7.720678223621e-03 4.507586405162e-02 0.0 
4.567585102172e-03 4.411657950186e-02 0.0 
2.541318049277e-03 4.183691592231e-02 0.0 
1.777705821278e-03 4.446947845148e-02 0.0 
3.618711654861e-03 4.581389980220e-02 0.0 
1.264578001763e-03 4.700102583658e-02 0.0 
-3.588103268425e-04 4.597245455435e-02 0.0 
-4.539456498851e-04 4.916867280572e-02 0.0 
9.608243109726e-04 4.944439396155e-02 0.0 
-3.670932808963e-04 5.196982135060e-02 0.0 
-1.337511003827e-03 5.212172149278e-02 0.0 
-1.019584012145e-03 5.499103924541e-02 0.0 
6.497057079734e-04 2.629706773177e-02 0.0 
5.152899990177e-03 3.943024741808e-02 0.0 
2.419381496343e-02 9.295641087421e-02 0.0 
4.020345022120e-03 2.512792902485e-02 0.0 
1.136478155531e-02 2.715446434408e-02 0.0 
9.667288663044e-03 5.757718820523e-02 0.0 
9.316706898214e-03 6.387255278958e-02 0.0 
1.033413849006e-02 7.697841162367e-02 0.0 
8.833710521826e-03 7.010153081188e-02 0.0 
7.737320596905e-03 5.677857159762e-02 0.0 
7.387571057521e-03 6.301950564775e-02 0.0 
8.249943491642e-03 7.625607227431e-02 0.0 
6.925590433788e-03 6.918135735961e-02 0.0 
7.590018843412e-03 8.230483837500e-02 0.0 
6.375630319454e-03 7.524746066143e-02 0.0 
5.669060251628e-03 6.192588107010e-02 0.0 
5.222141768782e-03 6.804041431470e-02 0.0 
5.758318922461e-03 8.122305612189e-02 0.0 
4.694593489627e-03 7.406800327416e-02 0.0 
5.088415857012e-03 8.709470078228e-02 0.0 
4.101118604431e-03 8.000226217317e-02 0.0 
3.702644003153e-03 6.678280317612e-02 0.0 
3.579636917220e-04 7.033954130934e-02 0.0 
1.057688550248e-02 3.143074463783e-02 0.0 
9.199507133795e-03 2.674004778131e-02 0.0 
-1.122808665822e-04 6.174973231651e-02 0.0 
-8.169355488959e-06 5.872185199324e-02 0.0 
1.448092276272e-04 5.620725635198e-02 0.0 
1.037586529234e-04 5.537749982799e-02 0.0 
3.168898673668e-03 7.284803990443e-02 0.0 
2.794912421940e-03 5.939007480692e-02 0.0 
1.575341910584e-02 6.216330690985e-02 0.0 
1.809448702928e-02 6.869149466578e-02 0.0 
9.850828339175e-03 5.122689128239e-02 0.0 
3.677930069742e-04 3.312489848320e-02 0.0 
3.869711054779e-04 3.840530957689e-02 0.0 
2.742611538155e-02 7.866425059815e-02 0.0 
2.743634665631e-02 8.630366019784e-02 0.0 
2.665257972434e-02 8.379060177036e-02 0.0 
2.620091557807e-02 9.200458066392e-02 0.0 
2.695410176247e-02 9.453233655092e-02 0.0 
2.515555794119e-02 8.871966994925e-02 0.0 
6.334862737765e-03 3.593163525389e-02 0.0 
4.500679088416e-03 5.452348173172e-02 0.0 
-3.630187476396e-04 6.318888028571e-02 0.0 
-1.629374278168e-04 6.472738439446e-02 0.0 
3.156578486632e-04 2.741798157015e-02 0.0 
1.160893503696e-02 3.549735773332e-02 0.0 
2.535670743170e-02 5.978402406529e-02 0.0 
2.426021411337e-02 5.374920999951e-02 0.0 
2.330985170076e-02 5.187469031701e-02 0.0 
2.196808965974e-02 4.616040035704e-02 0.0 
2.069226629679e-02 4.358296560834e-02 0.0 
1.910819378915e-02 3.817089784838e-02 0.0 
2.035629550178e-02 4.083850181389e-02 0.0 
1.500345031704e-02 2.914077383317e-02 0.0 
1.728205449183e-02 3.309041144126e-02 0.0 
3.510768670032e-03 8.595920371948e-02 0.0 
1.941290719726e-02 4.200708227487e-02 0.0 
7.813811835059e-04 5.158994083050e-02 0.0 
5.426229757764e-04 6.989225615866e-02 0.0 
-1.299447083436e-03 5.558887819781e-02 0.0 
2.098684533112e-04 7.054701740814e-02 0.0 
-6.208301512436e-06 6.875267107566e-02 0.0 
4.307787945082e-03 2.203271780206e-02 0.0 
1.747626528957e-02 3.489650977949e-02 0.0 
1.905698716632e-02 4.038640761344e-02 0.0 
2.521519871697e-02 1.008637988610e-01 0.0 
2.596758724251e-02 1.032807480867e-01 0.0 
1.282983678140e-02 2.536828948399e-02 0.0 
1.337818514962e-02 8.991765889222e-02 0.0 
8.844580011027e-03 8.919177749501e-02 0.0 
8.024749756381e-03 9.509598040415e-02 0.0 
5.941358714424e-04 7.194250522710e-02 0.0 
-1.567481323659e-03 5.217221002782e-02 0.0 
6.244754387287e-03 4.948246124592e-02 0.0 
2.016906935834e-02 6.735776192124e-02 0.0 
2.017000623884e-02 7.466778288584e-02 0.0 
6.232660997853e-03 4.107730563527e-02 0.0 
2.860301614790e-03 3.564767711271e-02 0.0 
2.350575179436e-03 6.538026374351e-02 0.0 
2.007642693370e-03 5.186961023579e-02 0.0 
3.020138357495e-04 5.272759573168e-02 0.0 
2.210347750638e-04 5.165085086004e-02 0.0 
5.618960260326e-03 2.434014430242e-02 0.0 
-9.839098805934e-04 5.822886525293e-02 0.0 
2.304516809977e-03 4.562606832821e-02 0.0 
9.786421066517e-03 3.343266986448e-02 0.0 
1.047799208110e-02 3.712162122067e-02 0.0 
-1.172694406178e-05 5.790207372771e-02 0.0 
1.543842434789e-02 6.980301629446e-02 0.0 
1.301822280296e-02 6.222167423713e-02 0.0 
2.344856042138e-03 4.936615866384e-02 0.0 
-7.239959558096e-04 5.725139445074e-02 0.0 
9.848314503562e-05 7.042661096377e-02 0.0 
4.409083883417e-03 1.884966952588e-02 0.0 
6.322709000727e-03 4.316568417639e-02 0.0 
1.852832079491e-02 3.592395008768e-02 0.0 
2.122214569181e-02 4.298333092598e-02 0.0 
1.527264931583e-02 2.837505243440e-02 0.0 
-5.611169935831e-04 5.906799505082e-02 0.0 
3.183846025763e-03 1.963337113271e-02 0.0 
2.255857175697e-04 3.086429379104e-02 0.0 
1.564868782412e-02 3.147891516792e-02 0.0 
1.708525607005e-02 3.659278232923e-02 0.0 
2.216987329142e-02 7.239447548495e-02 0.0 
2.205523319314e-02 8.008612811421e-02 0.0 
1.944030612463e-02 8.308552130937e-02 0.0 
2.120794705499e-02 8.864999598171e-02 0.0 
2.168543509995e-02 9.695976282835e-02 0.0 
2.391392337690e-02 7.689580321167e-02 0.0 
2.542530628678e-02 9.533574211708e-02 0.0 
2.430561303742e-02 1.030769312454e-01 0.0 
2.527234832038e-02 1.049406064905e-01 0.0 
2.734207900799e-02 9.634190417774e-02 0.0 
2.633229061317e-02 1.050096821422e-01 0.0 
2.076571816558e-02 6.006391120613e-02 0.0 
1.962166350376e-02 4.639024860063e-02 0.0 
4.055462378918e-04 5.354345675081e-02 0.0 
1.100532016144e-03 4.320528096769e-02 0.0 
5.283512095445e-03 4.158007398260e-02 0.0 
4.744063801138e-03 4.828638979355e-02 0.0 
3.588594022923e-03 4.068973580267e-02 0.0 
6.123306479650e-03 9.405407213581e-02 0.0 
5.343331929824e-03 9.975669096376e-02 0.0 
3.092312153238e-04 6.716189216343e-02 0.0 
4.153938113690e-04 6.595624422221e-02 0.0 
2.412953657256e-03 4.595276810549e-02 0.0 
3.001464731858e-03 2.293231752828e-02 0.0 
7.987992784988e-03 4.415540369911e-02 0.0 
7.818603692251e-03 3.777784041455e-02 0.0 
9.829127166165e-03 4.482388767270e-02 0.0 
5.820661476329e-03 2.137010789364e-02 0.0 
1.512537952119e-02 4.963691052899e-02 0.0 
1.422441523416e-02 4.100500467033e-02 0.0 
1.944034383865e-03 3.629826781299e-02 0.0 
2.502490730260e-02 5.568253527277e-02 0.0 
1.112324449971e-03 6.824076998388e-02 0.0 
2.201763306536e-02 5.873240396371e-02 0.0 
1.830815268991e-04 2.491336277388e-02 0.0 
2.395256442610e-04 2.126958262466e-02 0.0 
1.191309871550e-02 2.244551176411e-02 0.0 
2.011787624435e-02 1.146841955941e-01 0.0 
2.348795937283e-02 5.038151025263e-02 0.0 
2.321666538838e-02 5.074341066131e-02 0.0 
2.380612685663e-02 1.129387771098e-01 0.0 
2.447284228945e-02 1.143018725630e-01 0.0 
2.595154742280e-02 1.059203564880e-01 0.0 
2.481356703898e-02 1.147689114408e-01 0.0 
1.925179835827e-03 5.090528080103e-02 0.0 
6.604644472777e-04 5.336063516370e-02 0.0 
1.349911877936e-02 2.554479134519e-02 0.0 
1.373312982378e-02 2.514452441915e-02 0.0 
1.343541395995e-02 2.729877909359e-02 0.0 
1.480229114700e-02 3.212622294589e-02 0.0 
9.702806235106e-03 1.869389004767e-02 0.0 
1.065843872140e-02 2.182493843969e-02 0.0 
-3.721122470497e-05 6.842996991325e-02 0.0 
2.450935436233e-02 1.123404435660e-01 0.0 
4.814303533393e-03 3.564523177860e-02 0.0 
2.288715722078e-02 1.107522955934e-01 0.0 
2.268824716758e-03 1.728842282174e-02 0.0 
2.159870459813e-03 2.061560986187e-02 0.0 
2.101371705757e-04 3.223404600420e-02 0.0 
-6.420857879586e-04 3.559819555992e-02 0.0 
1.578098086889e-03 3.823056897107e-02 0.0 
1.796043573668e-02 9.226223602773e-02 0.0 
1.962470608374e-02 9.781987895819e-02 0.0 
1.617081767053e-02 8.584708637633e-02 0.0 
1.388058248902e-05 1.123802254590e-02 0.0 
1.425440365951e-03 1.227754418368e-01 0.0 
1.274206136084e-04 1.853108808185e-02 0.0 
2.737168760453e-02 9.742011937775e-02 0.0 
1.695698677213e-03 3.129831247915e-02 0.0 
2.175278636734e-02 4.562805349335e-02 0.0 
2.652204022216e-02 7.632420611130e-02 0.0 
7.116584130565e-03 2.660501270662e-02 0.0 
1.284315389373e-03 4.568977804341e-02 0.0 
9.487469613368e-04 3.013225836122e-02 0.0 
9.168546582856e-03 1.015794786171e-01 0.0 
8.257529907212e-03 1.075243526530e-01 0.0 
1.011842129081e-02 9.586965212904e-02 0.0 
9.819173158271e-03 4.802235621442e-02 0.0 
6.390572996706e-03 4.608291731540e-02 0.0 
3.438750388798e-03 4.698663204704e-02 0.0 
-1.560586949031e-04 6.446439894378e-02 0.0 
-1.246269614097e-04 6.377114602937e-02 0.0 
-6.943872333179e-04 6.032727281305e-02 0.0 
-5.182416206810e-04 5.904697361395e-02 0.0 
5.923733053916e-04 4.998538955397e-02 0.0 
7.843876774865e-04 5.080305905974e-02 0.0 
2.136593885621e-02 5.231828589007e-02 0.0 
1.947777271038e-02 4.864598513080e-02 0.0 
2.435306781060e-02 5.800864547687e-02 0.0 
8.792537639358e-03 3.540688150316e-02 0.0 
9.179767055261e-03 3.877955680829e-02 0.0 
1.086098383351e-02 4.019191840865e-02 0.0 
3.643500533158e-03 3.479002186164e-02 0.0 
2.431430883298e-03 2.584287548740e-02 0.0 
3.590742569711e-03 4.886128947576e-02 0.0 
4.349841256325e-03 4.772412447498e-02 0.0 
1.569914059330e-03 5.220397573262e-02 0.0 
4.614066063440e-03 2.951199814798e-02 0.0 
1.601341706654e-04 1.486530023870e-02 0.0 
2.907866539428e-04 1.776593374960e-02 0.0 
1.435347054293e-03 6.688792786305e-02 0.0 
4.833318626975e-04 6.434545410518e-02 0.0 
1.187696844806e-02 7.080598994979e-02 0.0 
9.149826196229e-03 6.231316517146e-02 0.0 
7.514750828533e-03 3.191183766492e-02 0.0 
9.587937512467e-03 3.851473939429e-02 0.0 
5.353394806338e-03 2.411059316693e-02 0.0 
3.531710782486e-05 7.015173228832e-02 0.0 
1.935256065228e-02 3.815893127757e-02 0.0 
4.428339030313e-03 1.585264900115e-02 0.0 
5.937650012736e-03 1.860219844220e-02 0.0 
2.954093581606e-03 1.235232101848e-02 0.0 
1.420016116757e-02 2.663287296412e-02 0.0 
1.069203954742e-02 1.942949514475e-02 0.0 
1.140134666081e-02 2.035503335006e-02 0.0 
3.080287524445e-04 3.159810213636e-02 0.0 
7.151467709740e-04 3.599429120396e-02 0.0 
6.330253570695e-03 1.065260575642e-01 0.0 
-9.519758257158e-04 2.867551925210e-02 0.0 
5.460846738045e-03 1.124730330678e-01 0.0 
4.572008340143e-03 1.054369254439e-01 0.0 
4.717560084009e-03 1.182504847950e-01 0.0 
1.572927759329e-04 7.182557606686e-02 0.0 
1.038440042627e-02 1.100755249052e-01 0.0 
1.147774152384e-02 1.028044523384e-01 0.0 
2.088658464698e-03 6.521389987485e-02 0.0 
3.127430576767e-03 2.195557036039e-02 0.0 
2.152718019397e-03 6.879719662223e-02 0.0 
1.665728354461e-03 6.995907850894e-02 0.0 
1.531876109184e-03 1.458786184571e-02 0.0 
1.485702495107e-03 1.813039418773e-02 0.0 
9.522917032817e-04 1.188495398798e-02 0.0 
9.874949920992e-04 1.583714384757e-02 0.0 
1.368019747102e-03 2.173422618813e-02 0.0 
9.034512333387e-04 1.925616420232e-02 0.0 
7.394184541152e-03 1.141772047904e-01 0.0 
5.695372223560e-04 1.214618366357e-02 0.0 
5.525886436242e-04 1.647927475065e-02 0.0 
2.959334467629e-04 9.445919928710e-03 0.0 
2.290173775733e-02 1.236224799272e-01 0.0 
2.263579271157e-02 9.352148447289e-02 0.0 
2.102750024726e-02 1.029172142455e-01 0.0 
1.719784466031e-02 1.080849958377e-01 0.0 
1.002201296527e-02 2.035494440956e-02 0.0 
1.249186437401e-02 2.764294496635e-02 0.0 
1.246558792937e-04 2.831284196806e-02 0.0 
1.382688513840e-04 3.407597172449e-02 0.0 
3.772520050477e-03 1.119219121507e-01 0.0 
2.755931449890e-03 1.124205737090e-01 0.0 
3.011453743361e-03 1.012413956848e-01 0.0 
2.173411430050e-03 1.026101189432e-01 0.0 
2.338236925900e-03 9.136021369002e-02 0.0 
1.505127400911e-03 9.280768706501e-02 0.0 
1.784072424059e-03 8.127632126437e-02 0.0 
9.444437120122e-03 1.659481863248e-02 0.0 
1.378232975636e-02 9.511651507518e-02 0.0 
2.201266701912e-02 1.209036234643e-01 0.0 
7.526755653053e-03 1.511584733643e-02 0.0 
8.811729003506e-03 1.902589738828e-02 0.0 
2.486691534951e-02 1.139499243716e-01 0.0 
2.249889908453e-02 1.219109516953e-01 0.0 
2.058839226098e-03 1.283991932315e-02 0.0 
2.359793574805e-02 6.984300113071e-02 0.0 
2.351021938694e-03 1.398563251863e-02 0.0 
-4.944901772628e-03 4.170160973976e-02 0.0 
1.098041417633e-03 4.103625982904e-02 0.0 
2.518650628838e-02 7.345678526148e-02 0.0 
2.631450701888e-02 1.059638928228e-01 0.0 
2.402388457972e-02 9.763907737135e-02 0.0 
2.266106234192e-02 1.069816578015e-01 0.0 
8.113494418378e-03 3.139185066546e-02 0.0 
6.417618423762e-04 6.230267309047e-02 0.0 
1.418353363627e-02 7.866895565857e-02 0.0 
2.596905412798e-03 7.997651122302e-02 0.0 
9.620692768348e-03 7.993754745861e-02 0.0 
5.966416786499e-05 3.106266241156e-02 0.0 
2.282184272178e-02 6.363742745763e-02 0.0 
2.797961657459e-02 8.921818133402e-02 0.0 
1.755226159896e-02 7.673491788615e-02 0.0 
2.380470241977e-02 8.481387684110e-02 0.0 
2.275830949879e-02 8.981040628411e-02 0.0 
2.040082973343e-02 1.039176256114e-01 0.0 
2.166411193016e-02 1.078384006756e-01 0.0 
2.158877906538e-02 5.839871151295e-02 0.0 
2.378770657121e-02 1.100417466604e-01 0.0 
2.055415100462e-02 1.171787631122e-01 0.0 
2.618989199628e-02 8.767719176050e-02 0.0 
1.190594740622e-02 5.154296584643e-02 0.0 
1.178295178674e-02 4.507752850198e-02 0.0 
9.149773374493e-03 3.259572945240e-02 0.0 
1.139893073335e-02 3.877942136254e-02 0.0 
1.401526820891e-02 5.134583254585e-02 0.0 
1.374641073414e-02 4.491523463830e-02 0.0 
1.073361850479e-02 3.272965777127e-02 0.0 
1.318417474741e-02 3.862560167151e-02 0.0 
8.958414573301e-03 2.426136970488e-02 0.0 
1.219728115615e-02 3.223973742159e-02 0.0 
1.562160036774e-02 4.440080065330e-02 0.0 
1.487005156672e-02 3.842982203809e-02 0.0 
1.144722726282e-02 2.777708144489e-02 0.0 
1.804567538315e-02 5.028748747587e-02 0.0 
6.177372240842e-03 1.165603312234e-02 0.0 
2.592795528580e-02 6.951231199848e-02 0.0 
3.125574530777e-03 3.768646688748e-02 0.0 
4.045548084716e-03 5.092574104848e-02 0.0 
2.771664991133e-02 8.952524237125e-02 0.0 
4.425763631677e-03 1.184222058549e-02 0.0 
3.693124897270e-03 1.206866854754e-02 0.0 
1.951139747083e-02 6.118949420655e-02 0.0 
5.102759590584e-03 9.563703594289e-03 0.0 
2.306494761955e-02 1.004437000835e-01 0.0 
1.217925236346e-02 5.008138527145e-02 0.0 
5.130927755387e-03 8.921678085277e-03 0.0 
1.400300165461e-02 5.782656110175e-02 0.0 
1.608767325390e-02 6.395703570959e-02 0.0 
1.568363101887e-02 7.050415772759e-02 0.0 
2.865075669354e-03 1.151433051350e-02 0.0 
1.103797724418e-02 8.989716651298e-02 0.0 
4.157047168093e-03 7.158838728456e-03 0.0 
1.868429441225e-02 4.265123553225e-02 0.0 
2.070584212338e-02 4.643880064505e-02 0.0 
2.154053653898e-02 5.023939480471e-02 0.0 
1.609450438106e-02 5.096507627337e-02 0.0 
3.094560321211e-03 6.699836702361e-03 0.0 
5.383061864679e-03 1.251308157233e-02 0.0 
4.700811188842e-03 1.227451143902e-02 0.0 
7.249890443541e-03 1.819079622629e-02 0.0 
2.342063436940e-03 6.430982258354e-03 0.0 
4.488647565290e-03 1.012754146195e-02 0.0 
4.451214535114e-03 9.343995222719e-03 0.0 
2.889388588685e-03 4.761830557955e-02 0.0 
5.278936366942e-03 4.658374269817e-02 0.0 
6.673885112112e-03 4.672881885588e-02 0.0 
7.939495368998e-03 4.632187592316e-02 0.0 
6.397946334850e-03 4.560344376630e-02 0.0 
9.358107014927e-03 4.630761316897e-02 0.0 
1.068609132373e-02 4.676012144074e-02 0.0 
1.091262381830e-02 4.695306523940e-02 0.0 
1.622572598971e-02 3.809907251932e-02 0.0 
1.615031708607e-03 6.069456410046e-03 0.0 
5.313703248430e-03 3.827178361721e-02 0.0 
6.503706239065e-03 3.941362286820e-02 0.0 
6.405162385050e-03 4.233693333020e-02 0.0 
5.302308342344e-04 5.409144492261e-02 0.0 
1.012655329045e-03 5.136934695167e-02 0.0 
1.285655850623e-03 4.801734547366e-02 0.0 
1.925878180213e-04 5.677335995161e-02 0.0 
2.286848824948e-02 4.815338651837e-02 0.0 
1.313035199107e-03 6.087459917468e-03 0.0 
1.230574657601e-02 3.894713081846e-02 0.0 
1.280583236295e-03 5.166091162151e-02 0.0 
1.359746918071e-02 1.207087067768e-01 0.0 
1.443404404758e-02 1.100847398955e-01 0.0 
1.584621633086e-02 1.088478657301e-01 0.0 
1.497267291189e-02 9.757162657892e-02 0.0 
1.286086401361e-02 1.095360993990e-01 0.0 
4.368773254948e-04 4.890176536609e-02 0.0 
3.133059455388e-04 4.757503961170e-02 0.0 
1.571402477447e-04 5.033368891463e-02 0.0 
2.160048419349e-04 4.601958210503e-02 0.0 
1.049136379479e-04 4.877654017280e-02 0.0 
5.954763202992e-05 5.284667839116e-02 0.0 
1.367427275023e-04 4.425527644683e-02 0.0 
5.699075181681e-05 4.752438853771e-02 0.0 
1.096511965868e-02 1.218798782584e-01 0.0 
6.516950994000e-04 3.828076711167e-02 0.0 
-1.040740857696e-03 4.251100833065e-02 0.0 
4.307447611686e-05 4.917083968799e-02 0.0 
-1.694293392527e-03 4.612503707175e-02 0.0 
-1.757997796868e-03 4.065292408306e-02 0.0 
-1.635911540150e-03 4.456070897279e-02 0.0 
-8.191483345774e-04 4.033599473700e-02 0.0 
-1.610339672225e-03 3.570928977766e-02 0.0 
3.343644236179e-03 5.239234944789e-02 0.0 
9.185100667958e-04 5.450756547335e-02 0.0 
3.921015698257e-03 5.725046601885e-02 0.0 
1.660127073673e-03 5.880194700473e-02 0.0 
-5.584225073722e-04 5.616062744783e-02 0.0 
-2.522429503991e-04 6.328181967652e-02 0.0 
6.252856855423e-05 7.460708603691e-03 0.0 
-1.406023498303e-05 5.875554433403e-02 0.0 
-3.992858607046e-05 6.030110520881e-02 0.0 
-6.807065928500e-05 6.337511023999e-02 0.0 
-7.818483900865e-05 6.138241517554e-02 0.0 
-1.107674914239e-05 5.711360576621e-02 0.0 
-3.588825244412e-05 6.513572792420e-02 0.0 
-6.368709322286e-05 6.588752266547e-02 0.0 
1.488008923680e-03 7.441331205572e-02 0.0 
8.673988892608e-04 7.450251100865e-02 0.0 
4.297407187890e-04 7.489344977418e-02 0.0 
4.424241535601e-04 7.418177560409e-02 0.0 
7.307337943020e-04 7.376845577772e-02 0.0 
1.275532614238e-03 7.395471282340e-02 0.0 
1.657162302316e-03 7.321101211223e-02 0.0 
2.558479291975e-03 7.294077408136e-02 0.0 
1.974495549868e-03 7.227203785148e-02 0.0 
1.168780923874e-03 7.226662738255e-02 0.0 
3.040347094886e-03 7.192742813624e-02 0.0 
5.718218090701e-04 6.395688733700e-02 0.0 
1.089274719755e-03 5.724919037730e-02 0.0 
8.802435675378e-04 6.473935671416e-03 0.0 
8.515730069934e-03 1.214297481690e-01 0.0 
4.188294600039e-03 6.422034812852e-02 0.0 
8.837931247837e-04 1.516669335902e-02 0.0 
1.354498660519e-03 1.255176791200e-02 0.0 
1.092595650138e-03 1.217479002646e-02 0.0 
3.205828380245e-05 1.837110309761e-02 0.0 
5.269788704854e-05 1.504892112414e-02 0.0 
4.769127402784e-04 1.475542913207e-02 0.0 
-2.825500658804e-04 6.141804861142e-02 0.0 
8.444379289195e-03 2.687930796638e-02 0.0 
2.497151084820e-03 3.930111358563e-02 0.0 
1.303589244737e-02 5.520412264745e-02 0.0 
-1.526922719686e-04 5.611536653235e-02 0.0 
2.422516571698e-04 3.634975313602e-02 0.0 
1.544534710156e-03 4.021630827705e-02 0.0 
4.088545782770e-04 2.391660379789e-02 0.0 
5.696978914741e-04 4.022547985113e-02 0.0 
9.744494054203e-04 2.855916319425e-02 0.0 
4.120642296242e-03 1.248952312814e-02 0.0 
3.251993092177e-04 7.193962438967e-02 0.0 
6.875277042357e-03 8.823567157034e-02 0.0 
4.418994901940e-03 9.291493592014e-02 0.0 
4.148033912287e-03 6.069506877480e-02 0.0 
-1.862074888504e-04 6.461971944280e-02 0.0 
8.448228413981e-05 5.407776428268e-02 0.0 
2.053173169177e-04 6.800148743587e-02 0.0 
9.312808070436e-03 1.714366413059e-02 0.0 
2.637618690372e-02 9.695885816610e-02 0.0 
5.010759578812e-03 4.439356182883e-02 0.0 
2.489908931942e-04 5.704743690613e-02 0.0 
-5.786443912154e-05 5.867877573700e-02 0.0 
-2.484488340621e-04 5.427901317895e-02 0.0 
2.694922753855e-02 7.166461343296e-02 0.0 
2.064891416286e-03 4.899432566313e-02 0.0 
3.107865797440e-03 3.119826054930e-02 0.0 
3.169340396608e-03 5.322572575363e-02 0.0 
3.624706786155e-03 6.897690976421e-02 0.0 
3.604593301536e-03 2.817581629876e-02 0.0 
2.620658255922e-03 4.248642494677e-02 0.0 
9.625084401245e-03 8.316135650375e-02 0.0 
1.342014623978e-02 3.013863886989e-02 0.0 
-1.536292549092e-03 4.875750861738e-02 0.0 
6.019774961692e-03 5.575597512243e-02 0.0 
6.021339450053e-03 3.128828879684e-02 0.0 
1.242434028574e-02 9.633869356106e-02 0.0 
8.149883726894e-04 6.928301135957e-02 0.0 
7.202765371518e-03 1.010512816633e-01 0.0 
3.198705269116e-03 1.624258515145e-02 0.0 
1.177611957659e-02 5.797552895098e-02 0.0 
-1.155399218539e-04 6.680927909990e-02 0.0 
1.453842969494e-02 4.365138413556e-02 0.0 
2.813881454295e-02 8.145987268508e-02 0.0 
1.927507292713e-02 1.251269323768e-01 0.0 
2.587524354920e-03 3.343862007436e-02 0.0 
2.425152098055e-02 5.543212162473e-02 0.0 
9.372047251944e-03 2.419239320495e-02 0.0 
1.354750681477e-02 3.772847224189e-02 0.0 
-1.116315398633e-04 6.651749075361e-02 0.0 
1.959469405903e-03 2.400668742087e-02 0.0 
2.013473414436e-02 4.952222001009e-02 0.0 
4.867195340012e-03 4.207428419188e-02 0.0 
2.200165202283e-02 4.936722228828e-02 0.0 
1.592616903663e-02 4.906377701839e-02 0.0 
7.948104094946e-03 5.049276122672e-02 0.0 
7.664798579488e-03 4.301740454433e-02 0.0 
1.332855775764e-02 2.791769141871e-02 0.0 
2.704383282283e-02 9.761169389867e-02 0.0 
2.612166537608e-02 6.622783457602e-02 0.0 
2.231459535774e-02 6.534875147029e-02 0.0 
2.627739833017e-02 6.145874661061e-02 0.0 
1.326169010750e-04 3.948337283263e-02 0.0 
2.702748391222e-03 2.616850695364e-02 0.0 
3.840223581414e-03 3.994256100899e-02 0.0 
2.548577236229e-02 8.069074604230e-02 0.0 
1.185870577474e-02 8.358605408833e-02 0.0 
1.576880287547e-02 3.001859896595e-02 0.0 
3.448273997910e-03 2.799853411797e-02 0.0 
2.788523118387e-02 8.812100272142e-02 0.0 
1.693834225301e-03 2.735783627370e-02 0.0 
6.266858636611e-03 3.723665188584e-02 0.0 
1.643233920178e-03 4.864445063147e-02 0.0 
6.351245303031e-05 7.191132196207e-02 0.0 
1.021056664066e-02 5.420680063550e-02 0.0 
1.398508700191e-02 4.949518737201e-02 0.0 
2.329556586277e-02 5.463451816842e-02 0.0 
1.901465153575e-03 4.525217151206e-02 0.0 
6.599611853478e-03 2.430233568839e-02 0.0 
1.183415547541e-03 2.518011643889e-02 0.0 
6.577805020613e-03 2.925987438477e-02 0.0 
8.717923439232e-04 7.139711290392e-02 0.0 
2.120567667001e-02 1.180288769727e-01 0.0 
7.879861078476e-04 2.282020316829e-02 0.0 
1.265984215787e-02 4.178193329623e-02 0.0 
1.122797913057e-02 2.467599550939e-02 0.0 
3.609970123218e-05 5.143150603328e-02 0.0 
9.303103705588e-03 1.664276176037e-02 0.0 
2.299786030223e-02 1.229569506412e-01 0.0 
4.930696767936e-04 2.028657248001e-02 0.0 
8.777410709212e-03 2.909351196517e-02 0.0 
2.172742841931e-02 6.569212221290e-02 0.0 
2.364889456937e-03 1.227850142715e-01 0.0 
2.775609299000e-04 1.274724357937e-02 0.0 
7.408715589933e-03 2.387585092158e-02 0.0 
2.483662417536e-02 5.502211140499e-02 0.0 
1.090959521711e-02 4.264897722757e-02 0.0 
2.034652982163e-02 1.309246928179e-01 0.0 
1.465805101873e-03 4.432513748967e-02 0.0 
2.506260791758e-02 6.445323103908e-02 0.0 
2.488133405021e-03 1.132913495135e-02 0.0 
7.577330592511e-03 2.145665941966e-02 0.0 
1.759714379119e-02 7.645572828856e-02 0.0 
9.812260713105e-04 4.718205344458e-02 0.0 
1.980592788352e-02 4.119296557912e-02 0.0 
9.884531166646e-04 7.313171230789e-02 0.0 
2.258667844293e-02 1.226768560744e-01 0.0 
7.301530644851e-04 4.608766967895e-02 0.0 
1.230873409721e-02 4.772388592311e-02 0.0 
9.288658893237e-03 4.152454482229e-02 0.0 
8.515168758654e-03 1.560396903108e-02 0.0 
5.290747458170e-04 4.474477848184e-02 0.0 
1.338059864036e-02 4.773191642727e-02 0.0 
3.701219722427e-04 4.317602936676e-02 0.0 
2.046239197188e-02 1.330043510083e-01 0.0 
1.810126629025e-02 6.957782077745e-02 0.0 
2.411669630871e-04 4.140303999049e-02 0.0 
2.301290401008e-02 5.549282400215e-02 0.0 
1.264878895105e-03 7.110525094411e-02 0.0 
2.338372292843e-02 4.957977354559e-02 0.0 
9.152326864627e-05 2.183569899898e-02 0.0 
1.270389427189e-03 5.325265287503e-02 0.0 
7.826630112825e-03 4.050224168291e-02 0.0 
1.622774011144e-02 5.740017079157e-02 0.0 
1.927843924370e-02 1.311816094508e-01 0.0 
7.698935890860e-03 3.738480297348e-02 0.0 
2.037680005130e-02 4.624591939254e-02 0.0 
2.169982309706e-02 4.459690044060e-02 0.0 
2.257254804355e-02 5.067909231002e-02 0.0 
7.278941113594e-03 3.363834944802e-02 0.0 
2.188384330467e-02 1.195299784921e-01 0.0 
-3.877744758013e-04 6.055045811765e-02 0.0 
-4.914428017061e-04 6.198323705998e-02 0.0 
1.166746929986e-02 4.649848554913e-02 0.0 
1.842460760411e-02 4.244573881769e-02 0.0 
3.855491627902e-04 7.315056213242e-02 0.0 
1.833979288000e-02 5.642865758213e-02 0.0 
-3.993283218367e-04 6.143891751548e-02 0.0 
9.159254176072e-03 4.635285285398e-02 0.0 
1.713144471735e-02 3.322434634621e-02 0.0 
6.821767836578e-04 8.960180008375e-02 0.0 
7.768991382377e-03 4.629991158473e-02 0.0 
6.316356723612e-06 7.001996125940e-02 0.0 
5.580432741164e-03 4.732130651423e-02 0.0 
2.140419635004e-02 4.617799462231e-02 0.0 
4.642836953564e-03 4.794701789492e-02 0.0 
2.955995109914e-03 4.988342024803e-02 0.0 
1.731438480356e-03 2.568108234587e-02 0.0 
2.424128004577e-03 5.072145410576e-02 0.0 
2.342793763652e-04 1.223493388637e-02 0.0 
1.634828097451e-05 6.833737024408e-03 0.0 
8.921300320721e-04 1.138757738894e-01 0.0 
1.625647829141e-02 1.269727507059e-01 0.0 
-2.615662951118e-03 2.700600591319e-02 0.0 
1.964755574816e-02 1.112764970811e-01 0.0 
5.505530087380e-04 5.478654860194e-02 0.0 
2.015567599836e-02 5.492158427618e-02 0.0 
1.854002313656e-03 1.133283318043e-01 0.0 
-1.001852497037e-04 5.760672259939e-02 0.0 
8.430239125482e-03 2.063630618646e-02 0.0 
4.554488141816e-03 7.664231915843e-03 0.0 
1.231427923214e-03 6.987219311112e-02 0.0 
9.348204269852e-03 2.189627802866e-02 0.0 
1.974160927155e-02 3.979769600588e-02 0.0 
3.536686121028e-04 3.739437055722e-02 0.0 
5.479112160693e-03 1.236667294186e-01 0.0 
2.190204007217e-03 6.232746142622e-02 0.0 
6.374500897413e-05 3.677567231746e-02 0.0 
1.287347625643e-02 1.177830845641e-01 0.0 
1.539436471934e-02 1.016568649231e-01 0.0 
1.167334633297e-02 8.789944232824e-02 0.0 
-9.131273582049e-05 6.620144801824e-02 0.0 
-9.997053241883e-04 5.152618962021e-02 0.0 
1.033374012287e-02 1.049688445946e-01 0.0 
6.149094012797e-03 1.318366828765e-02 0.0 
9.233846414884e-03 1.127546796423e-01 0.0 
1.657536963720e-02 3.143644165542e-02 0.0 
6.124449477708e-03 8.986470220411e-02 0.0 
4.336464652923e-03 2.430498654836e-02 0.0 
8.667587096810e-03 1.519262146723e-02 0.0 
4.513131267493e-04 5.780689305257e-03 0.0 
1.298376173596e-02 2.368537620951e-02 0.0 
6.957276705775e-03 7.100684135528e-02 0.0 
1.367367197870e-02 1.008173175774e-01 0.0 
9.239686882511e-03 1.768213054951e-02 0.0 
1.667790209203e-03 5.917989124147e-02 0.0 
2.200298396918e-04 5.615806833414e-03 0.0 
1.161961615693e-02 1.132257615740e-01 0.0 
1.051353172120e-03 2.399681582292e-02 0.0 
1.086716080331e-03 3.882538011982e-02 0.0 
5.303389452384e-04 2.330314373855e-02 0.0 
1.728756509176e-02 4.397135169993e-02 0.0 
3.794611404520e-03 9.863539747274e-02 0.0 
1.641800952334e-02 9.952587639221e-02 0.0 
7.015190264440e-05 1.180273332537e-02 0.0 
7.510415492499e-03 2.185032919641e-02 0.0 
4.121101472077e-03 6.019041624462e-02 0.0 
1.931641886281e-03 7.120400893037e-02 0.0 
-7.747759145012e-05 6.080469207439e-02 0.0 
-1.172553529964e-03 3.055128092210e-02 0.0 
1.512862072003e-03 1.179031367552e-02 0.0 
1.390333437752e-02 3.314994056995e-02 0.0 
1.734702174807e-04 1.195297308309e-02 0.0 
2.063303072584e-04 7.442417220681e-02 0.0 
2.680429488411e-03 6.751015388903e-02 0.0 
2.145674238152e-03 1.085529360124e-02 0.0 
8.431683804086e-03 1.794085902024e-02 0.0 
9.761160087137e-05 4.301490582228e-02 0.0 
1.449072520453e-03 9.782849367530e-03 0.0 
-3.513771119789e-04 5.012632904471e-02 0.0 
7.461679552507e-03 1.247859038819e-01 0.0 
2.297684624157e-03 7.125957275262e-02 0.0 
1.306522207624e-04 5.728825935433e-03 0.0 
2.549199957369e-03 2.287342109695e-02 0.0 
-2.727527324849e-05 5.848236332594e-02 0.0 
1.631521114069e-02 1.175080030389e-01 0.0 
-3.163490816067e-05 6.825764019945e-02 0.0 
1.237779687914e-02 2.262707214540e-02 0.0 
4.916649706425e-04 5.984253456689e-02 0.0 
1.729648296989e-03 2.165875577908e-02 0.0 
3.066300607824e-03 1.064972253338e-02 0.0 
5.231338302893e-03 2.081998992356e-02 0.0 
2.788772128963e-03 5.203537828545e-03 0.0 
-4.085049517577e-04 3.326465131482e-02 0.0 
7.794790830561e-03 1.349700320416e-02 0.0 
5.933300800206e-03 1.660090008078e-02 0.0 
4.119196216523e-03 1.241716386112e-01 0.0 
6.568355366766e-03 2.184963440116e-02 0.0 
-9.208966877176e-05 6.405101255038e-02 0.0 
7.482453902764e-04 7.122769308063e-02 0.0 
1.006216890926e-04 1.084378299419e-02 0.0 
4.819304008107e-04 7.499263653642e-02 0.0 
6.935234783882e-04 1.241118865347e-01 0.0 
7.944887174335e-06 5.583810701286e-03 0.0 
5.903889481001e-04 7.288842386173e-02 0.0 
1.471289304311e-03 1.050223726082e-01 0.0 
7.857385145881e-03 1.778489888431e-02 0.0 
1.292310547354e-05 5.082526196111e-02 0.0 
8.230903388276e-04 4.646467200042e-02 0.0 
-1.728788854559e-03 4.880770768427e-02 0.0 
-1.146863412762e-03 2.543767197840e-02 0.0 
1.178341706948e-03 8.320851354210e-02 0.0 
7.432738461586e-03 1.320509316823e-02 0.0 
4.051406114165e-03 2.022505753787e-02 0.0 
3.042487517916e-03 9.180604430237e-02 0.0 
7.369966345998e-03 5.486374814316e-02 0.0 
1.092414655772e-02 2.490266206339e-02 0.0 
1.531507157932e-05 5.568766843250e-02 0.0 
1.235095785694e-02 2.395040805792e-02 0.0 
7.526414280572e-03 1.726991305580e-02 0.0 
-5.520226014995e-03 5.197424598807e-02 0.0 
2.633824799569e-05 4.645881674525e-02 0.0 
2.592565627260e-03 7.008486080161e-02 0.0 
6.848807031468e-04 1.067648306161e-02 0.0 
1.615430340100e-05 5.422892900339e-02 0.0 
1.631516210748e-02 1.459685330080e-01 0.0 
4.965482566068e-04 1.595416685613e-01 0.0 
1.706124939838e-02 1.410227416903e-01 0.0 
4.618384889187e-04 1.490543869533e-01 0.0 
1.648675145478e-02 1.337967530268e-01 0.0 
4.728803565844e-04 1.381424846359e-01 0.0 

TENSORS node_materi_stress float
-2.136983250270e-01 -1.581552909708e-01 0.0 
-1.581552909708e-01 -8.539144278129e+00 0.0 
0.0 0.0 -1.371082655017e+00 
-3.877084847307e+01 4.220511100654e-01 0.0 
4.220511100654e-01 -5.937964400545e+01 0.0 
0.0 0.0 -2.904514774355e+01 
-1.663579189785e+02 -2.366544045995e-01 0.0 
-2.366544045995e-01 -3.902404865259e+02 0.0 
0.0 0.0 -1.665795216513e+02 
-1.078560131617e+02 8.079982196185e-01 0.0 
8.079982196185e-01 -2.504994876848e+02 0.0 
0.0 0.0 -1.071066502540e+02 
-3.550745265610e+00 -3.472555777082e-01 0.0 
-3.472555777082e-01 -2.084983901840e+01 0.0 
0.0 0.0 -6.346575493861e+00 
-1.134482364189e+01 -6.488125464160e-01 0.0 
-6.488125464160e-01 -4.042811732002e+01 0.0 
0.0 0.0 -1.513188228857e+01 
-2.046177957443e+01 -6.197117184774e-01 0.0 
-6.197117184774e-01 -5.877910281060e+01 0.0 
0.0 0.0 -2.337226471551e+01 
-3.021565227369e+01 -6.364084592810e-01 0.0 
-6.364084592810e-01 -7.973950876103e+01 0.0 
0.0 0.0 -3.258654831041e+01 
-3.934392695277e+01 -5.737541816824e-01 0.0 
-5.737541816824e-01 -1.000844201298e+02 0.0 
0.0 0.0 -4.142850412478e+01 
-4.830364480245e+01 -5.802047269256e-01 0.0 
-5.802047269256e-01 -1.202647978083e+02 0.0 
0.0 0.0 -5.017053278322e+01 
-5.691327651862e+01 -6.309730005007e-01 0.0 
-6.309730005007e-01 -1.405194558945e+02 0.0 
0.0 0.0 -5.882981972393e+01 
-6.528069475724e+01 -6.039151272439e-01 0.0 
-6.039151272439e-01 -1.608272273686e+02 0.0 
0.0 0.0 -6.743237663775e+01 
-7.357602922731e+01 -5.917759029388e-01 0.0 
-5.917759029388e-01 -1.811337847032e+02 0.0 
0.0 0.0 -7.601294417916e+01 
-8.181073377894e+01 -6.366395580630e-01 0.0 
-6.366395580630e-01 -2.016192035405e+02 0.0 
0.0 0.0 -8.462898119585e+01 
-9.022469847828e+01 -7.465193977163e-01 0.0 
-7.465193977163e-01 -2.225597366311e+02 0.0 
0.0 0.0 -9.343533053281e+01 
-9.883619119755e+01 -6.912771646786e-01 0.0 
-6.912771646786e-01 -2.426996657125e+02 0.0 
0.0 0.0 -1.020607570730e+02 
-1.067707242837e+02 -8.352905237025e-01 0.0 
-8.352905237025e-01 -2.609193714582e+02 0.0 
0.0 0.0 -1.099070287226e+02 
-1.153478229073e+02 -3.759796108585e-01 0.0 
-3.759796108585e-01 -2.809368962984e+02 0.0 
0.0 0.0 -1.184854157617e+02 
-1.244016434024e+02 -3.060074812422e-01 0.0 
-3.060074812422e-01 -3.012923065767e+02 0.0 
0.0 0.0 -1.273081849937e+02 
-1.333576647664e+02 -2.601113869209e-01 0.0 
-2.601113869209e-01 -3.209076653597e+02 0.0 
0.0 0.0 -1.358795990378e+02 
-1.424776519398e+02 -1.955120580235e-01 0.0 
-1.955120580235e-01 -3.405614214366e+02 0.0 
0.0 0.0 -1.445117220129e+02 
-1.517823168341e+02 -2.087015188806e-01 0.0 
-2.087015188806e-01 -3.602725600125e+02 0.0 
0.0 0.0 -1.532164630540e+02 
-1.608103680969e+02 -2.748969006749e-01 0.0 
-2.748969006749e-01 -3.790364335869e+02 0.0 
0.0 0.0 -1.615540405051e+02 
-1.081691398412e+02 1.115154285801e+00 0.0 
1.115154285801e+00 -2.517083512003e+02 0.0 
0.0 0.0 -1.075632473125e+02 
-1.076495162262e+02 2.002786660281e+00 0.0 
2.002786660281e+00 -2.507180061576e+02 0.0 
0.0 0.0 -1.071102567151e+02 
-1.078431722979e+02 3.222540327231e+00 0.0 
3.222540327231e+00 -2.511018675401e+02 0.0 
0.0 0.0 -1.072835119514e+02 
-1.078686379453e+02 3.873999330024e+00 0.0 
3.873999330024e+00 -2.513114015230e+02 0.0 
0.0 0.0 -1.073540118405e+02 
-1.079363973858e+02 5.064529627523e+00 0.0 
5.064529627523e+00 -2.509863493503e+02 0.0 
0.0 0.0 -1.072768240208e+02 
-1.083918494671e+02 6.234396232381e+00 0.0 
6.234396232381e+00 -2.520369588595e+02 0.0 
0.0 0.0 -1.077286424980e+02 
-1.090940124807e+02 7.537636881511e+00 0.0 
7.537636881511e+00 -2.529845925097e+02 0.0 
0.0 0.0 -1.082235814971e+02 
-1.091510147484e+02 9.030765326613e+00 0.0 
9.030765326613e+00 -2.534698705275e+02 0.0 
0.0 0.0 -1.083862655828e+02 
-1.100935206221e+02 1.063474259372e+01 0.0 
1.063474259372e+01 -2.553226123297e+02 0.0 
0.0 0.0 -1.092248398855e+02 
-1.105004300489e+02 1.193715748605e+01 0.0 
1.193715748605e+01 -2.565755317503e+02 0.0 
0.0 0.0 -1.097227885397e+02 
-1.112782130309e+02 1.371692020245e+01 0.0 
1.371692020245e+01 -2.575663251336e+02 0.0 
0.0 0.0 -1.102533614493e+02 
-1.123098042903e+02 1.558124826325e+01 0.0 
1.558124826325e+01 -2.601843523496e+02 0.0 
0.0 0.0 -1.113482469920e+02 
-1.139819749127e+02 1.752063651161e+01 0.0 
1.752063651161e+01 -2.633537371135e+02 0.0 
0.0 0.0 -1.128007136079e+02 
-1.147924536270e+02 1.947678763857e+01 0.0 
1.947678763857e+01 -2.658665462580e+02 0.0 
0.0 0.0 -1.137976999655e+02 
-1.165014980998e+02 2.147357105089e+01 0.0 
2.147357105089e+01 -2.691273919247e+02 0.0 
0.0 0.0 -1.152886670074e+02 
-1.176494265159e+02 2.327867768186e+01 0.0 
2.327867768186e+01 -2.724613513908e+02 0.0 
0.0 0.0 -1.166332333720e+02 
-1.197210680528e+02 2.524679749730e+01 0.0 
2.524679749730e+01 -2.771194611252e+02 0.0 
0.0 0.0 -1.186521587534e+02 
-1.225903385127e+02 2.715167021010e+01 0.0 
2.715167021010e+01 -2.835470151853e+02 0.0 
0.0 0.0 -1.214412061094e+02 
-1.249800291684e+02 2.883989391353e+01 0.0 
2.883989391353e+01 -2.899511907976e+02 0.0 
0.0 0.0 -1.240793659898e+02 
-1.275837961728e+02 3.028686214176e+01 0.0 
3.028686214176e+01 -2.967838514083e+02 0.0 
0.0 0.0 -1.269102942743e+02 
-1.301451558632e+02 3.128244413822e+01 0.0 
3.128244413822e+01 -3.036050930023e+02 0.0 
0.0 0.0 -1.297250746597e+02 
-1.331552984909e+02 3.214766267543e+01 0.0 
3.214766267543e+01 -3.107040729537e+02 0.0 
0.0 0.0 -1.327578114334e+02 
-1.359143156041e+02 3.254664747059e+01 0.0 
3.254664747059e+01 -3.181079950982e+02 0.0 
0.0 0.0 -1.358066932107e+02 
-1.388254829059e+02 3.259330631966e+01 0.0 
3.259330631966e+01 -3.255556203806e+02 0.0 
0.0 0.0 -1.389143309859e+02 
-1.418568724869e+02 3.227153693878e+01 0.0 
3.227153693878e+01 -3.332037702648e+02 0.0 
0.0 0.0 -1.421181928255e+02 
-1.448828697609e+02 3.167092184575e+01 0.0 
3.167092184575e+01 -3.407034934056e+02 0.0 
0.0 0.0 -1.452759089500e+02 
-1.475899835426e+02 3.065296524896e+01 0.0 
3.065296524896e+01 -3.477878559699e+02 0.0 
0.0 0.0 -1.482133518538e+02 
-1.502425659774e+02 2.933466923974e+01 0.0 
2.933466923974e+01 -3.543911109058e+02 0.0 
0.0 0.0 -1.509901030650e+02 
-1.525333902936e+02 2.772966697890e+01 0.0 
2.772966697890e+01 -3.602969575865e+02 0.0 
0.0 0.0 -1.534491043640e+02 
-1.553089303278e+02 2.615435450610e+01 0.0 
2.615435450610e+01 -3.664035361418e+02 0.0 
0.0 0.0 -1.561137399409e+02 
-1.569862445243e+02 2.389304429980e+01 0.0 
2.389304429980e+01 -3.713161525015e+02 0.0 
0.0 0.0 -1.580907191077e+02 
-1.583482815000e+02 2.195134216270e+01 0.0 
2.195134216270e+01 -3.748577597073e+02 0.0 
0.0 0.0 -1.595618123622e+02 
-1.601257516705e+02 1.971732261867e+01 0.0 
1.971732261867e+01 -3.789021793639e+02 0.0 
0.0 0.0 -1.613083793103e+02 
-1.616096120107e+02 1.764171674506e+01 0.0 
1.764171674506e+01 -3.822738038449e+02 0.0 
0.0 0.0 -1.627650247567e+02 
-1.628566556213e+02 1.554727651230e+01 0.0 
1.554727651230e+01 -3.850900930965e+02 0.0 
0.0 0.0 -1.639840246153e+02 
-1.639525791463e+02 1.355232002578e+01 0.0 
1.355232002578e+01 -3.872853056828e+02 0.0 
0.0 0.0 -1.649713654487e+02 
-1.646800252031e+02 1.167134055638e+01 0.0 
1.167134055638e+01 -3.889076391066e+02 0.0 
0.0 0.0 -1.656762992929e+02 
-1.652235305768e+02 9.879734058521e+00 0.0 
9.879734058521e+00 -3.899060567128e+02 0.0 
0.0 0.0 -1.661388761869e+02 
-1.655145981076e+02 8.343256921285e+00 0.0 
8.343256921285e+00 -3.904314769742e+02 0.0 
0.0 0.0 -1.663838225245e+02 
-1.656478289293e+02 6.849876672672e+00 0.0 
6.849876672672e+00 -3.905770772084e+02 0.0 
0.0 0.0 -1.664674718413e+02 
-1.661028631213e+02 5.726920709227e+00 0.0 
5.726920709227e+00 -3.911575142567e+02 0.0 
0.0 0.0 -1.667781132134e+02 
-1.667467281322e+02 4.550025831774e+00 0.0 
4.550025831774e+00 -3.920690236048e+02 0.0 
0.0 0.0 -1.672447255211e+02 
-1.669884289937e+02 3.750098657546e+00 0.0 
3.750098657546e+00 -3.923088936513e+02 0.0 
0.0 0.0 -1.673891967935e+02 
-1.656356911694e+02 2.868774187613e+00 0.0 
2.868774187613e+00 -3.897620051633e+02 0.0 
0.0 0.0 -1.662193088998e+02 
-1.668405765944e+02 2.116729476427e+00 0.0 
2.116729476427e+00 -3.915818020726e+02 0.0 
0.0 0.0 -1.671267136001e+02 
-1.663454679336e+02 1.589792888696e+00 0.0 
1.589792888696e+00 -3.906134295802e+02 0.0 
0.0 0.0 -1.666876692541e+02 
-1.666184672685e+02 1.321246870427e+00 0.0 
1.321246870427e+00 -3.909661814378e+02 0.0 
0.0 0.0 -1.668753946119e+02 
-1.669048359370e+02 6.729055367882e-01 0.0 
6.729055367882e-01 -3.914758321636e+02 0.0 
0.0 0.0 -1.671142004302e+02 
-1.668137703622e+02 4.070873906260e-01 0.0 
4.070873906260e-01 -3.912973644769e+02 0.0 
0.0 0.0 -1.670333404517e+02 
-4.725659104768e+01 3.162906634140e-01 0.0 
3.162906634140e-01 -7.917814058561e+01 0.0 
0.0 0.0 -3.753041948999e+01 
-5.514237243398e+01 3.929192538254e-01 0.0 
3.929192538254e-01 -9.894409927548e+01 0.0 
0.0 0.0 -4.582594151284e+01 
-6.296710164430e+01 4.173631555585e-01 0.0 
4.173631555585e-01 -1.186163322914e+02 0.0 
0.0 0.0 -5.407503018070e+01 
-7.035361047911e+01 4.881501197843e-01 0.0 
4.881501197843e-01 -1.379798518095e+02 0.0 
0.0 0.0 -6.210003868659e+01 
-7.766481220669e+01 4.851116839846e-01 0.0 
4.851116839846e-01 -1.578934207865e+02 0.0 
0.0 0.0 -7.026746989797e+01 
-8.499787728186e+01 5.702980733524e-01 0.0 
5.702980733524e-01 -1.780269314445e+02 0.0 
0.0 0.0 -7.850744261790e+01 
-9.171700857534e+01 5.607339552609e-01 0.0 
5.607339552609e-01 -1.980142089709e+02 0.0 
0.0 0.0 -8.651936526388e+01 
-9.808496479704e+01 6.790213305644e-01 0.0 
6.790213305644e-01 -2.179064955942e+02 0.0 
0.0 0.0 -9.439743811738e+01 
-1.047812218965e+02 7.442647004930e-01 0.0 
7.442647004930e-01 -2.385969437251e+02 0.0 
0.0 0.0 -1.026134496865e+02 
-6.130232069973e+01 2.875088958909e+01 0.0 
2.875088958909e+01 -6.960488410574e+01 0.0 
0.0 0.0 -3.969554559755e+01 
-4.914976714395e+01 4.722153923077e+00 0.0 
4.722153923077e+00 -6.265388856622e+01 0.0 
0.0 0.0 -3.314109671305e+01 
-4.373967144707e+01 3.104013642510e+01 0.0 
3.104013642510e+01 -2.974063130408e+01 0.0 
0.0 0.0 -2.172441901442e+01 
-4.007104927060e+01 2.776198739075e+01 0.0 
2.776198739075e+01 -2.820284841423e+01 0.0 
0.0 0.0 -1.877418092432e+01 
-3.772836491349e+01 2.592923899052e+01 0.0 
2.592923899052e+01 -2.666100726312e+01 0.0 
0.0 0.0 -1.816957792608e+01 
-3.419299928564e+01 2.379375003738e+01 0.0 
2.379375003738e+01 -2.440177531238e+01 0.0 
0.0 0.0 -1.717843237940e+01 
-3.201211519080e+01 2.210900286821e+01 0.0 
2.210900286821e+01 -2.381880660330e+01 0.0 
0.0 0.0 -1.634927653823e+01 
-3.192749133363e+01 2.103449227832e+01 0.0 
2.103449227832e+01 -2.343402123217e+01 0.0 
0.0 0.0 -1.620845376974e+01 
-3.568429599749e+01 1.469868967408e+01 0.0 
1.469868967408e+01 -1.946857864469e+01 0.0 
0.0 0.0 -1.614586239265e+01 
-3.225328822171e+01 7.309989269911e+00 0.0 
7.309989269911e+00 -2.281023091329e+01 0.0 
0.0 0.0 -1.611905574050e+01 
-4.030136086938e+01 5.660584764142e+00 0.0 
5.660584764142e+00 -4.212332112418e+01 0.0 
0.0 0.0 -2.432740459807e+01 
-1.753920848567e+01 7.153888925464e-01 0.0 
7.153888925464e-01 -7.273732197486e+00 0.0 
0.0 0.0 -7.043882204947e+00 
-2.256310746130e+01 7.915821173011e-01 0.0 
7.915821173011e-01 -1.969674195220e+01 0.0 
0.0 0.0 -1.227795482405e+01 
-3.059891170711e+01 5.190534771747e-01 0.0 
5.190534771747e-01 -3.913260437122e+01 0.0 
0.0 0.0 -2.051945482350e+01 
-3.794055450636e+01 -2.542122240698e-01 0.0 
-2.542122240698e-01 -5.673400453864e+01 0.0 
0.0 0.0 -2.800236771350e+01 
-3.861081309481e+01 -6.281332149739e-02 0.0 
-6.281332149739e-02 -5.787295861816e+01 0.0 
0.0 0.0 -2.854513151389e+01 
-3.865105543556e+01 -6.296344132444e-02 0.0 
-6.296344132444e-02 -5.788408220015e+01 0.0 
0.0 0.0 -2.856054129072e+01 
-3.873610164667e+01 -2.097240211665e-02 0.0 
-2.097240211665e-02 -5.765942424574e+01 0.0 
0.0 0.0 -2.851865776772e+01 
-4.017373291645e+01 -2.609993384625e-02 0.0 
-2.609993384625e-02 -6.030021096238e+01 0.0 
0.0 0.0 -2.974218316365e+01 
-3.935135792074e+01 -7.566196424014e-02 0.0 
-7.566196424014e-02 -5.795933575990e+01 0.0 
0.0 0.0 -2.879320810419e+01 
-3.974632610173e+01 -1.580544642853e-02 0.0 
-1.580544642853e-02 -5.781114484003e+01 0.0 
0.0 0.0 -2.886724128253e+01 
-4.014815697096e+01 -5.313866761963e-02 0.0 
-5.313866761963e-02 -5.802409672649e+01 0.0 
0.0 0.0 -2.905167610924e+01 
-4.081288103638e+01 9.824390290162e-02 0.0 
9.824390290162e-02 -5.852071535509e+01 0.0 
0.0 0.0 -2.940007891744e+01 
-4.143345324312e+01 2.296553409390e-01 0.0 
2.296553409390e-01 -5.857091564782e+01 0.0 
0.0 0.0 -2.960131066728e+01 
-4.231501217247e+01 5.648628739941e-01 0.0 
5.648628739941e-01 -5.870612011830e+01 0.0 
0.0 0.0 -2.990633968723e+01 
-4.327375187350e+01 1.051904246568e+00 0.0 
1.051904246568e+00 -5.892818248757e+01 0.0 
0.0 0.0 -3.026058030832e+01 
-4.466877484736e+01 1.750494258939e+00 0.0 
1.750494258939e+00 -5.950138045631e+01 0.0 
0.0 0.0 -3.085104659110e+01 
-4.635349050546e+01 2.848813575978e+00 0.0 
2.848813575978e+00 -6.049987901958e+01 0.0 
0.0 0.0 -3.165601085751e+01 
-8.425998613812e+01 1.382680258751e+01 0.0 
1.382680258751e+01 -9.663903566325e+01 0.0 
0.0 0.0 -5.463083955698e+01 
-9.962202679081e+01 2.426418638944e+00 0.0 
2.426418638944e+00 -1.044683880117e+02 0.0 
0.0 0.0 -6.159419922928e+01 
-1.037633031881e+02 -2.748467093953e+00 0.0 
-2.748467093953e+00 -1.041064595995e+02 0.0 
0.0 0.0 -6.269509918511e+01 
-9.247877287730e+01 -1.041544958303e+01 0.0 
-1.041544958303e+01 -9.586891887947e+01 0.0 
0.0 0.0 -5.683792509184e+01 
-6.018190788106e+01 -1.957129279574e+01 0.0 
-1.957129279574e+01 -5.781858909376e+01 0.0 
0.0 0.0 -3.567736161697e+01 
-3.105522336035e+01 -1.270442422741e+01 0.0 
-1.270442422741e+01 -1.947369408988e+01 0.0 
0.0 0.0 -1.500972792047e+01 
-1.629599843813e+01 -3.191790017717e+00 0.0 
-3.191790017717e+00 -1.014886758312e+01 0.0 
0.0 0.0 -7.653934414479e+00 
-1.058011823576e+01 -9.665268313990e-01 0.0 
-9.665268313990e-01 -8.516643033239e+00 0.0 
0.0 0.0 -4.900136854988e+00 
-7.554500639178e+00 -6.158914139352e-01 0.0 
-6.158914139352e-01 -8.092921124712e+00 0.0 
0.0 0.0 -3.304589635212e+00 
-5.426211922061e+00 -4.683310027892e-01 0.0 
-4.683310027892e-01 -8.266211949633e+00 0.0 
0.0 0.0 -3.205078473267e+00 
-4.164428137437e+00 -2.012097718077e-01 0.0 
-2.012097718077e-01 -8.319640829396e+00 0.0 
0.0 0.0 -3.098759386487e+00 
-3.469225297168e+00 -3.011624232267e-01 0.0 
-3.011624232267e-01 -8.773324916887e+00 0.0 
0.0 0.0 -2.752423951157e+00 
-2.724530914253e+00 -2.981901746248e-01 0.0 
-2.981901746248e-01 -8.518626611604e+00 0.0 
0.0 0.0 -2.414802274206e+00 
-1.899689582545e+00 -3.272669807134e-01 0.0 
-3.272669807134e-01 -7.792899860439e+00 0.0 
0.0 0.0 -2.016465211276e+00 
-1.187446974147e+00 -3.112403031632e-01 0.0 
-3.112403031632e-01 -7.969642726935e+00 0.0 
0.0 0.0 -1.850735751239e+00 
-6.195290997637e-01 -2.836935834873e-01 0.0 
-2.836935834873e-01 -8.243769221836e+00 0.0 
0.0 0.0 -1.692318722725e+00 
-1.340505453261e-01 -1.868991942209e-01 0.0 
-1.868991942209e-01 -8.290925820721e+00 0.0 
0.0 0.0 -1.552114304922e+00 
2.128231125573e-01 -1.729327590228e-01 0.0 
-1.729327590228e-01 -7.892679467320e+00 0.0 
0.0 0.0 -1.349251538950e+00 
2.797019927642e-01 -3.138111430034e-02 0.0 
-3.138111430034e-02 -7.283032189417e+00 0.0 
0.0 0.0 -1.136484987814e+00 
-2.386788439447e+01 4.515317722896e+00 0.0 
4.515317722896e+00 -5.352590865627e+00 0.0 
0.0 0.0 -8.299724681061e+00 
-1.850750482210e+01 2.738394584773e+00 0.0 
2.738394584773e+00 -1.017827816949e+01 0.0 
0.0 0.0 -8.205734897477e+00 
-1.542667330023e+01 1.036126031690e+00 0.0 
1.036126031690e+00 -1.034215366132e+01 0.0 
0.0 0.0 -7.330648088467e+00 
-1.395591040931e+01 2.395184559442e-01 0.0 
2.395184559442e-01 -9.871337076381e+00 0.0 
0.0 0.0 -6.748174245709e+00 
-1.367402155794e+01 -1.312552021594e-01 0.0 
-1.312552021594e-01 -9.760059988658e+00 0.0 
0.0 0.0 -6.630224463979e+00 
-1.377302761657e+01 -2.504296941342e-01 0.0 
-2.504296941342e-01 -9.702925298343e+00 0.0 
0.0 0.0 -6.642785874475e+00 
-1.415026466256e+01 -3.050495581159e-01 0.0 
-3.050495581159e-01 -9.725572621288e+00 0.0 
0.0 0.0 -6.762751185153e+00 
-1.464059602166e+01 -3.286256335158e-01 0.0 
-3.286256335158e-01 -9.738905709599e+00 0.0 
0.0 0.0 -6.913850519377e+00 
-1.517933260170e+01 -3.289663763607e-01 0.0 
-3.289663763607e-01 -9.752954068226e+00 0.0 
0.0 0.0 -7.079686000977e+00 
-1.573049596663e+01 -3.062717287492e-01 0.0 
-3.062717287492e-01 -9.762394658202e+00 0.0 
0.0 0.0 -7.247867187449e+00 
-1.622870217688e+01 -2.607419806916e-01 0.0 
-2.607419806916e-01 -9.784557784694e+00 0.0 
0.0 0.0 -7.403977988471e+00 
-1.664189607560e+01 -2.249603861666e-01 0.0 
-2.249603861666e-01 -9.810653249561e+00 0.0 
0.0 0.0 -7.535764797549e+00 
-1.701797221479e+01 -1.965011002376e-01 0.0 
-1.965011002376e-01 -9.823878593800e+00 0.0 
0.0 0.0 -7.652555242576e+00 
-1.732375177080e+01 -1.542729120180e-01 0.0 
-1.542729120180e-01 -9.830361034306e+00 0.0 
0.0 0.0 -7.746233841530e+00 
-1.755334179349e+01 -1.010643256259e-01 0.0 
-1.010643256259e-01 -9.833219739276e+00 0.0 
0.0 0.0 -7.815968459829e+00 
-1.769573963848e+01 -3.444868020338e-02 0.0 
-3.444868020338e-02 -9.812771642232e+00 0.0 
0.0 0.0 -7.852553384215e+00 
-1.775584463314e+01 7.236892538844e-02 0.0 
7.236892538844e-02 -9.760695007463e+00 0.0 
0.0 0.0 -7.854961892180e+00 
-1.773590791270e+01 1.956157915394e-01 0.0 
1.956157915394e-01 -9.170307797144e+00 0.0 
0.0 0.0 -7.671864712954e+00 
-1.762103749172e+01 -2.869203135671e-01 0.0 
-2.869203135671e-01 -6.887210398772e+00 0.0 
0.0 0.0 -6.952474367147e+00 
-2.242597568992e+01 -2.560004250873e-01 0.0 
-2.560004250873e-01 -1.969097403482e+01 0.0 
0.0 0.0 -1.223508491742e+01 
-2.218298631801e+01 -2.680802939101e-02 0.0 
-2.680802939101e-02 -1.953975369678e+01 0.0 
0.0 0.0 -1.211682200444e+01 
-2.209440764502e+01 -5.965934408294e-02 0.0 
-5.965934408294e-02 -1.951526007270e+01 0.0 
0.0 0.0 -1.208290031532e+01 
-2.201079872542e+01 -1.351547112377e-01 0.0 
-1.351547112377e-01 -1.954626389674e+01 0.0 
0.0 0.0 -1.206711878665e+01 
-2.193431318016e+01 -2.125104245513e-01 0.0 
-2.125104245513e-01 -1.955450822577e+01 0.0 
0.0 0.0 -1.204664642178e+01 
-2.181153244574e+01 -2.888719650514e-01 0.0 
-2.888719650514e-01 -1.956663813693e+01 0.0 
0.0 0.0 -1.201345117480e+01 
-2.167325834661e+01 -3.539457235796e-01 0.0 
-3.539457235796e-01 -1.958846641677e+01 0.0 
0.0 0.0 -1.197851742901e+01 
-2.151129455027e+01 -3.944808236403e-01 0.0 
-3.944808236403e-01 -1.958632523288e+01 0.0 
0.0 0.0 -1.192928593494e+01 
-2.135811857247e+01 -4.608711009387e-01 0.0 
-4.608711009387e-01 -1.957746729404e+01 0.0 
0.0 0.0 -1.188067575995e+01 
-2.118751844147e+01 -5.035794970559e-01 0.0 
-5.035794970559e-01 -1.962438149026e+01 0.0 
0.0 0.0 -1.184356997952e+01 
-2.107569406676e+01 -4.827174424154e-01 0.0 
-4.827174424154e-01 -1.966979792737e+01 0.0 
0.0 0.0 -1.182364759824e+01 
-2.108227232629e+01 -4.112589516752e-01 0.0 
-4.112589516752e-01 -1.971720235307e+01 0.0 
0.0 0.0 -1.183984240381e+01 
-2.124769183468e+01 -2.553869156829e-01 0.0 
-2.553869156829e-01 -1.981226230210e+01 0.0 
0.0 0.0 -1.191798624103e+01 
-2.170333557074e+01 3.593324314654e-02 0.0 
3.593324314654e-02 -1.990635614984e+01 0.0 
0.0 0.0 -1.208290751617e+01 
-2.263452112649e+01 5.509327854413e-01 0.0 
5.509327854413e-01 -2.031863989732e+01 0.0 
0.0 0.0 -1.248594830714e+01 
-2.528814574082e+01 2.001115359227e+00 0.0 
2.001115359227e+00 -2.200775973582e+01 0.0 
0.0 0.0 -1.378877164299e+01 
-2.594300058720e+01 3.220686646957e+00 0.0 
3.220686646957e+00 -1.854047047761e+01 0.0 
0.0 0.0 -1.294504131944e+01 
-3.653285545967e+01 3.029159147890e+00 0.0 
3.029159147890e+00 -3.856147201227e+01 0.0 
0.0 0.0 -2.212829824158e+01 
-3.628876102081e+01 2.069897635455e+00 0.0 
2.069897635455e+00 -4.169596544091e+01 0.0 
0.0 0.0 -2.299541793852e+01 
-3.412791806854e+01 9.111823470063e-01 0.0 
9.111823470063e-01 -4.002782469742e+01 0.0 
0.0 0.0 -2.184672282979e+01 
-3.312596034803e+01 3.466027209776e-01 0.0 
3.466027209776e-01 -3.967145968587e+01 0.0 
0.0 0.0 -2.143922601017e+01 
-3.237981006978e+01 2.779471685838e-02 0.0 
2.779471685838e-02 -3.948986142419e+01 0.0 
0.0 0.0 -2.116090144819e+01 
-3.184660252819e+01 -1.960788302150e-01 0.0 
-1.960788302150e-01 -3.938310549272e+01 0.0 
0.0 0.0 -2.096891240627e+01 
-3.146336226516e+01 -3.126561649442e-01 0.0 
-3.126561649442e-01 -3.922705922824e+01 0.0 
0.0 0.0 -2.080712644802e+01 
-3.118951446647e+01 -2.992398258799e-01 0.0 
-2.992398258799e-01 -3.915563417096e+01 0.0 
0.0 0.0 -2.070354459123e+01 
-3.107827569703e+01 -3.083907937751e-01 0.0 
-3.083907937751e-01 -3.920462880521e+01 0.0 
0.0 0.0 -2.068487135067e+01 
-3.089140517965e+01 -2.717718285873e-01 0.0 
-2.717718285873e-01 -3.915164132594e+01 0.0 
0.0 0.0 -2.061291395168e+01 
-3.078111012556e+01 -2.359070823128e-01 0.0 
-2.359070823128e-01 -3.911988843850e+01 0.0 
0.0 0.0 -2.057029956922e+01 
-3.071371554696e+01 -1.508582813609e-01 0.0 
-1.508582813609e-01 -3.911175842519e+01 0.0 
0.0 0.0 -2.054764219164e+01 
-3.063803706619e+01 -1.272294145109e-01 0.0 
-1.272294145109e-01 -3.911704970797e+01 0.0 
0.0 0.0 -2.052652603225e+01 
-3.060768555667e+01 -6.426238463457e-02 0.0 
-6.426238463457e-02 -3.904769913520e+01 0.0 
0.0 0.0 -2.049661540756e+01 
-3.063847693632e+01 4.900214685099e-02 0.0 
4.900214685099e-02 -3.922745004283e+01 0.0 
0.0 0.0 -2.055977809375e+01 
-3.056888961891e+01 -5.042303767591e-01 0.0 
-5.042303767591e-01 -3.937580170453e+01 0.0 
0.0 0.0 -2.058340739703e+01 
-4.677279725710e+01 3.516361428541e+01 0.0 
3.516361428541e+01 -3.934302808969e+01 0.0 
0.0 0.0 -2.634053786367e+01 
-4.155643964154e+01 2.916048740956e+01 0.0 
2.916048740956e+01 -2.899882540326e+01 0.0 
0.0 0.0 -2.017572441436e+01 
-3.877545291427e+01 2.660713597380e+01 0.0 
2.660713597380e+01 -2.731891609500e+01 0.0 
0.0 0.0 -1.791727143947e+01 
-3.632086332996e+01 2.496827180128e+01 0.0 
2.496827180128e+01 -2.616961187243e+01 0.0 
0.0 0.0 -1.824031177666e+01 
-3.393779762115e+01 2.380594031536e+01 0.0 
2.380594031536e+01 -2.488542708076e+01 0.0 
0.0 0.0 -1.724696741057e+01 
-3.178246047939e+01 2.210023596953e+01 0.0 
2.210023596953e+01 -2.383100757740e+01 0.0 
0.0 0.0 -1.628404041704e+01 
-3.487859903560e+01 2.034500428152e+01 0.0 
2.034500428152e+01 -2.322573080079e+01 0.0 
0.0 0.0 -1.703129895092e+01 
-3.272403445837e+01 9.315061361030e+00 0.0 
9.315061361030e+00 -1.611982134617e+01 0.0 
0.0 0.0 -1.421994779288e+01 
-3.776721518308e+01 6.651574956907e+00 0.0 
6.651574956907e+00 -3.427742451509e+01 0.0 
0.0 0.0 -2.121339190945e+01 
-4.602828242348e+01 5.179954374149e+00 0.0 
5.179954374149e+00 -5.388126200116e+01 0.0 
0.0 0.0 -2.957286332739e+01 
-4.127848686015e+01 2.952106071938e+01 0.0 
2.952106071938e+01 -3.941411282423e+01 0.0 
0.0 0.0 -2.271187236774e+01 
-1.543193344827e+02 1.821716332393e+01 0.0 
1.821716332393e+01 -3.728744832899e+02 0.0 
0.0 0.0 -1.577581453318e+02 
-1.070892486480e+01 -1.890394703604e+00 0.0 
-1.890394703604e+00 -1.728250635932e+01 0.0 
0.0 0.0 -8.093383792670e+00 
-5.981395282012e+01 -1.948176900561e+01 0.0 
-1.948176900561e+01 -8.720013514109e+01 0.0 
0.0 0.0 -4.479881113193e+01 
-1.595295889346e+02 8.758477249433e+00 0.0 
8.758477249433e+00 -3.822785793637e+02 0.0 
0.0 0.0 -1.621424504895e+02 
-3.622106064363e+01 2.554184179310e+01 0.0 
2.554184179310e+01 -3.562663420746e+01 0.0 
0.0 0.0 -2.114158832049e+01 
-8.631483238098e+01 -5.375757066421e-01 0.0 
-5.375757066421e-01 -2.129220710042e+02 0.0 
0.0 0.0 -8.937107101556e+01 
-1.470372272948e+02 2.605502425731e+01 0.0 
2.605502425731e+01 -3.544916621039e+02 0.0 
0.0 0.0 -1.500586668196e+02 
-3.463973641472e+01 2.342587818151e+01 0.0 
2.342587818151e+01 -3.412022031129e+01 0.0 
0.0 0.0 -2.022798701780e+01 
-1.388467905886e+02 3.126785091833e+01 0.0 
3.126785091833e+01 -3.290042226664e+02 0.0 
0.0 0.0 -1.399553039765e+02 
-4.225411605083e+01 1.430430653342e+01 0.0 
1.430430653342e+01 -4.018521337532e+01 0.0 
0.0 0.0 -2.433179882784e+01 
-1.623003326509e+02 3.888350458834e+00 0.0 
3.888350458834e+00 -3.846258488969e+02 0.0 
0.0 0.0 -1.636778544643e+02 
-4.343177622490e+00 -5.510534451528e-01 0.0 
-5.510534451528e-01 -1.616485481004e+01 0.0 
0.0 0.0 -5.578899655994e+00 
-1.292216951609e+02 3.110927820019e+01 0.0 
3.110927820019e+01 -2.988781268397e+02 0.0 
0.0 0.0 -1.280299466002e+02 
-5.556401335519e+01 7.484345162247e+00 0.0 
7.484345162247e+00 -7.323523267368e+01 0.0 
0.0 0.0 -3.823977380866e+01 
-5.307671385206e+01 -6.754119143308e-01 0.0 
-6.754119143308e-01 -1.313743467791e+02 0.0 
0.0 0.0 -5.493531818936e+01 
-1.095450591283e+02 -3.427185436353e-01 0.0 
-3.427185436353e-01 -2.679423664159e+02 0.0 
0.0 0.0 -1.128462276632e+02 
-1.226087039627e+02 2.744354907315e+01 0.0 
2.744354907315e+01 -2.778837137928e+02 0.0 
0.0 0.0 -1.197477253266e+02 
-1.149475831826e+02 1.980265775392e+01 0.0 
1.980265775392e+01 -2.590480881298e+02 0.0 
0.0 0.0 -1.117987013937e+02 
-1.065807986057e+02 5.605683103590e+00 0.0 
5.605683103590e+00 -2.436252259662e+02 0.0 
0.0 0.0 -1.046618073716e+02 
-1.079325619681e+02 9.387429535947e+00 0.0 
9.387429535947e+00 -2.441775153540e+02 0.0 
0.0 0.0 -1.052330231966e+02 
-1.111214547111e+02 1.442189595915e+01 0.0 
1.442189595915e+01 -2.511682627738e+02 0.0 
0.0 0.0 -1.082869152455e+02 
-5.513265631500e+01 3.784522075631e+00 0.0 
3.784522075631e+00 -7.891809931857e+01 0.0 
0.0 0.0 -3.981522669007e+01 
-4.979806277379e+01 9.345446031517e-01 0.0 
9.345446031517e-01 -7.659833383095e+01 0.0 
0.0 0.0 -3.751891898142e+01 
-4.832396182876e+01 5.063334674253e-01 0.0 
5.063334674253e-01 -7.756591396467e+01 0.0 
0.0 0.0 -3.736696273803e+01 
-7.416337580725e+01 5.012170730826e-01 0.0 
5.012170730826e-01 -1.480314357651e+02 0.0 
0.0 0.0 -6.625844347171e+01 
-1.622585360485e+02 1.887209676231e+00 0.0 
1.887209676231e+00 -3.830738886791e+02 0.0 
0.0 0.0 -1.631997274183e+02 
-6.943715334642e+01 1.075832638572e+01 0.0 
1.075832638572e+01 -1.067245046346e+02 0.0 
0.0 0.0 -5.366802603143e+01 
-2.886552986138e+00 -3.736996098903e-01 0.0 
-3.736996098903e-01 -1.722143736316e+01 0.0 
0.0 0.0 -5.289966558122e+00 
-1.375437267043e+02 1.170587410160e-01 0.0 
1.170587410160e-01 -3.301016821213e+02 0.0 
0.0 0.0 -1.398936226477e+02 
-4.597061126891e+01 5.040757461074e-02 0.0 
5.040757461074e-02 -7.519060138824e+01 0.0 
0.0 0.0 -3.594836379714e+01 
-2.529270545749e+01 -4.524180474422e-01 0.0 
-4.524180474422e-01 -6.917820089675e+01 0.0 
0.0 0.0 -2.794127190627e+01 
-1.174306754577e+02 2.339879945903e+01 0.0 
2.339879945903e+01 -2.635627553890e+02 0.0 
0.0 0.0 -1.138980292540e+02 
-1.438303113651e+02 2.934808711491e+01 0.0 
2.934808711491e+01 -3.437313040318e+02 0.0 
0.0 0.0 -1.458684846191e+02 
-1.339901423339e+02 3.191531269909e+01 0.0 
3.191531269909e+01 -3.138298116723e+02 0.0 
0.0 0.0 -1.339459862019e+02 
-1.498482524611e+02 2.248087543537e+01 0.0 
2.248087543537e+01 -3.632339845060e+02 0.0 
0.0 0.0 -1.535246710901e+02 
-1.573202782885e+02 1.419460114378e+01 0.0 
1.419460114378e+01 -3.787256934636e+02 0.0 
0.0 0.0 -1.604137915256e+02 
-3.036893879608e+01 -1.204692038279e+01 0.0 
-1.204692038279e+01 -2.435479896587e+01 0.0 
0.0 0.0 -1.605008499412e+01 
-5.170565464462e+01 1.834667857568e+00 0.0 
1.834667857568e+00 -7.665582426319e+01 0.0 
0.0 0.0 -3.810844367234e+01 
-1.590891369920e+02 5.877494847083e+00 0.0 
5.877494847083e+00 -3.804849349133e+02 0.0 
0.0 0.0 -1.614722215716e+02 
-8.812028712867e+01 7.048509078753e-01 0.0 
7.048509078753e-01 -1.875361246956e+02 0.0 
0.0 0.0 -8.229692354727e+01 
-6.801492277209e+00 -8.086027666093e-01 0.0 
-8.086027666093e-01 -1.723395786973e+01 0.0 
0.0 0.0 -6.923360453888e+00 
-6.945375749616e+01 -6.596290082919e-01 0.0 
-6.596290082919e-01 -1.711541026390e+02 0.0 
0.0 0.0 -7.178235804056e+01 
-1.068895169435e+02 3.446755448305e+00 0.0 
3.446755448305e+00 -2.458997559881e+02 0.0 
0.0 0.0 -1.054367818795e+02 
-3.511371912096e+01 2.479720889898e+01 0.0 
2.479720889898e+01 -3.699744490943e+01 0.0 
0.0 0.0 -2.123334920912e+01 
-3.874061880608e+01 2.727363852851e+01 0.0 
2.727363852851e+01 -3.700305856001e+01 0.0 
0.0 0.0 -2.124280842800e+01 
-3.917201038494e+01 2.105332727027e+01 0.0 
2.105332727027e+01 -3.485738457332e+01 0.0 
0.0 0.0 -2.180881848748e+01 
-4.841493976797e+01 1.000597351100e+01 0.0 
1.000597351100e+01 -5.482852811553e+01 0.0 
0.0 0.0 -3.057304036505e+01 
-4.552142440028e+01 3.435393515293e+01 0.0 
3.435393515293e+01 -4.543182570935e+01 0.0 
0.0 0.0 -2.750067244258e+01 
-5.984481812782e+01 2.017441783389e-01 0.0 
2.017441783389e-01 -1.103295634300e+02 0.0 
0.0 0.0 -5.065231446735e+01 
-1.639166700674e+02 9.640796098233e-01 0.0 
9.640796098233e-01 -3.858662155703e+02 0.0 
0.0 0.0 -1.645348656913e+02 
-2.135148997747e+00 -2.426067452194e-01 0.0 
-2.426067452194e-01 -1.641424546693e+01 0.0 
0.0 0.0 -4.756419356729e+00 
-1.009999342011e+02 8.427381490331e-01 0.0 
8.427381490331e-01 -2.270431922752e+02 0.0 
0.0 0.0 -9.801293794288e+01 
-5.925327856939e+01 6.945348880247e+00 0.0 
6.945348880247e+00 -8.199483400777e+01 0.0 
0.0 0.0 -4.197443377315e+01 
-6.446995196045e+01 9.690284385274e+00 0.0 
9.690284385274e+00 -9.299974073121e+01 0.0 
0.0 0.0 -4.684090780750e+01 
-6.709827506717e+01 8.384960910666e+00 0.0 
8.384960910666e+00 -1.008968140639e+02 0.0 
0.0 0.0 -4.999852673931e+01 
-7.294506782493e+01 1.178141537710e+01 0.0 
1.178141537710e+01 -1.144525471568e+02 0.0 
0.0 0.0 -5.581928449451e+01 
-7.601068450501e+01 1.076351644494e+01 0.0 
1.076351644494e+01 -1.230274299553e+02 0.0 
0.0 0.0 -5.931143433811e+01 
-8.082822360405e+01 1.357654599780e+01 0.0 
1.357654599780e+01 -1.356426758190e+02 0.0 
0.0 0.0 -6.454126982692e+01 
-7.794862641044e+01 1.482395894542e+01 0.0 
1.482395894542e+01 -1.277673637188e+02 0.0 
0.0 0.0 -6.131479703876e+01 
-8.544739230380e+01 1.638879672523e+01 0.0 
1.638879672523e+01 -1.491791389777e+02 0.0 
0.0 0.0 -6.998795938445e+01 
-8.235911860781e+01 1.775802383804e+01 0.0 
1.775802383804e+01 -1.419630419374e+02 0.0 
0.0 0.0 -6.689664816356e+01 
-8.394055950768e+01 1.266486775329e+01 0.0 
1.266486775329e+01 -1.443503141781e+02 0.0 
0.0 0.0 -6.808726210574e+01 
-8.962384308322e+01 1.902845582915e+01 0.0 
1.902845582915e+01 -1.634633610982e+02 0.0 
0.0 0.0 -7.552616125443e+01 
-8.638099111571e+01 2.040507809639e+01 0.0 
2.040507809639e+01 -1.569826952228e+02 0.0 
0.0 0.0 -7.260910590156e+01 
-9.348303599477e+01 2.137528874346e+01 0.0 
2.137528874346e+01 -1.783985896480e+02 0.0 
0.0 0.0 -8.116448769283e+01 
-9.009439189768e+01 2.266222330135e+01 0.0 
2.266222330135e+01 -1.726290393743e+02 0.0 
0.0 0.0 -7.841702938160e+01 
-8.288581996127e+01 2.198563542110e+01 0.0 
2.198563542110e+01 -1.514101515240e+02 0.0 
0.0 0.0 -6.988879144558e+01 
-8.639702183875e+01 2.401626619517e+01 0.0 
2.401626619517e+01 -1.677242015517e+02 0.0 
0.0 0.0 -7.583636701713e+01 
-7.909550943331e+01 2.364803141041e+01 0.0 
2.364803141041e+01 -1.466847945264e+02 0.0 
0.0 0.0 -6.733409118791e+01 
-8.242446370249e+01 2.535188798293e+01 0.0 
2.535188798293e+01 -1.636588325076e+02 0.0 
0.0 0.0 -7.342498886304e+01 
-8.974870735853e+01 2.550509773888e+01 0.0 
2.550509773888e+01 -1.842442360086e+02 0.0 
0.0 0.0 -8.179788301014e+01 
-8.564120753378e+01 2.647132259913e+01 0.0 
2.647132259913e+01 -1.806483445925e+02 0.0 
0.0 0.0 -7.948686563788e+01 
-7.817067228395e+01 2.653530321534e+01 0.0 
2.653530321534e+01 -1.603784540354e+02 0.0 
0.0 0.0 -7.116473789580e+01 
-8.127169365795e+01 2.724234917526e+01 0.0 
2.724234917526e+01 -1.776567813347e+02 0.0 
0.0 0.0 -7.727854249781e+01 
-7.378588845883e+01 2.744728209796e+01 0.0 
2.744728209796e+01 -1.578143353775e+02 0.0 
0.0 0.0 -6.908006715090e+01 
-7.681329435189e+01 2.772507634961e+01 0.0 
2.772507634961e+01 -1.752529341714e+02 0.0 
0.0 0.0 -7.521986855699e+01 
-6.937818197566e+01 2.801899052924e+01 0.0 
2.801899052924e+01 -1.558033507152e+02 0.0 
0.0 0.0 -6.715445980727e+01 
-7.232898768135e+01 2.789243752033e+01 0.0 
2.789243752033e+01 -1.732719108296e+02 0.0 
0.0 0.0 -7.328026955330e+01 
-7.988771108967e+01 2.754737152206e+01 0.0 
2.754737152206e+01 -1.922593635455e+02 0.0 
0.0 0.0 -8.124412239055e+01 
-7.531153633044e+01 2.734227496711e+01 0.0 
2.734227496711e+01 -1.901690181528e+02 0.0 
0.0 0.0 -7.924416634498e+01 
-6.787551653283e+01 2.774266923507e+01 0.0 
2.774266923507e+01 -1.715910253852e+02 0.0 
0.0 0.0 -7.143996257540e+01 
-7.077232812836e+01 2.681606003226e+01 0.0 
2.681606003226e+01 -1.882905521486e+02 0.0 
0.0 0.0 -7.731886408308e+01 
-6.353386609201e+01 2.725074545549e+01 0.0 
2.725074545549e+01 -1.701270580142e+02 0.0 
0.0 0.0 -6.969827723187e+01 
-6.632308082448e+01 2.594050703741e+01 0.0 
2.594050703741e+01 -1.865165652026e+02 0.0 
0.0 0.0 -7.545189380812e+01 
-7.383315270145e+01 2.554518255900e+01 0.0 
2.554518255900e+01 -2.042937701962e+02 0.0 
0.0 0.0 -8.303807686931e+01 
-6.932119502768e+01 2.430523763661e+01 0.0 
2.430523763661e+01 -2.021259502432e+02 0.0 
0.0 0.0 -8.103414358127e+01 
-6.197802352330e+01 2.470617059254e+01 0.0 
2.470617059254e+01 -1.847298132151e+02 0.0 
0.0 0.0 -7.361235102152e+01 
-6.491791215484e+01 2.269122611684e+01 0.0 
2.269122611684e+01 -1.998853344053e+02 0.0 
0.0 0.0 -7.904097396804e+01 
-5.776987090374e+01 2.310359960475e+01 0.0 
2.310359960475e+01 -1.828930707451e+02 0.0 
0.0 0.0 -7.179888249464e+01 
-6.067055350598e+01 2.067168714036e+01 0.0 
2.067168714036e+01 -1.975221084839e+02 0.0 
0.0 0.0 -7.705779859697e+01 
-5.371165353473e+01 2.108389264473e+01 0.0 
2.108389264473e+01 -1.809642807674e+02 0.0 
0.0 0.0 -7.000278029065e+01 
-5.658163324292e+01 1.819035810026e+01 0.0 
1.819035810026e+01 -1.948727065810e+02 0.0 
0.0 0.0 -7.503630194718e+01 
-6.399430770527e+01 1.807288078993e+01 0.0 
1.807288078993e+01 -2.110621531929e+02 0.0 
0.0 0.0 -8.211693826944e+01 
-5.998703146647e+01 1.523691947873e+01 0.0 
1.523691947873e+01 -2.076044003894e+02 0.0 
0.0 0.0 -7.987742955675e+01 
-5.272638952039e+01 1.521257451789e+01 0.0 
1.521257451789e+01 -1.918605564366e+02 0.0 
0.0 0.0 -7.297608378711e+01 
-5.625188210000e+01 1.191615951745e+01 0.0 
1.191615951745e+01 -2.035232398248e+02 0.0 
0.0 0.0 -7.753253657745e+01 
-6.391027724360e+01 1.238608734742e+01 0.0 
1.238608734742e+01 -2.192188561882e+02 0.0 
0.0 0.0 -8.453874002953e+01 
-6.034340080880e+01 8.899963647070e+00 0.0 
8.899963647070e+00 -2.139969768905e+02 0.0 
0.0 0.0 -8.190211330979e+01 
-6.831600397563e+01 9.797736395184e+00 0.0 
9.797736395184e+00 -2.298227781916e+02 0.0 
0.0 0.0 -8.904163465018e+01 
-6.492317392159e+01 6.301641566409e+00 0.0 
6.301641566409e+00 -2.234942193572e+02 0.0 
0.0 0.0 -8.612521798364e+01 
-5.724211850552e+01 5.072208277608e+00 0.0 
5.072208277608e+00 -2.078949186968e+02 0.0 
0.0 0.0 -7.914111116070e+01 
-6.200354400561e+01 2.610583291318e+00 0.0 
2.610583291318e+00 -2.161960801922e+02 0.0 
0.0 0.0 -8.305988725934e+01 
-6.987640127668e+01 4.190246969371e+00 0.0 
4.190246969371e+00 -2.322226971845e+02 0.0 
0.0 0.0 -9.022972953835e+01 
-6.706505040480e+01 7.641094353909e-01 0.0 
7.641094353909e-01 -2.238685897138e+02 0.0 
0.0 0.0 -8.688009203557e+01 
-5.959764013766e+01 -1.131983848040e+00 0.0 
-1.131983848040e+00 -2.077632438576e+02 0.0 
0.0 0.0 -7.980826519857e+01 
-6.472808547676e+01 -2.550452170138e+00 0.0 
-2.550452170138e+00 -2.144940070605e+02 0.0 
0.0 0.0 -8.336662776117e+01 
-7.232175693363e+01 -5.046994397724e-01 0.0 
-5.046994397724e-01 -2.312127440367e+02 0.0 
0.0 0.0 -9.066035029109e+01 
-6.995152466957e+01 -3.363485868924e+00 0.0 
-3.363485868924e+00 -2.211125469588e+02 0.0 
0.0 0.0 -8.691922148851e+01 
-6.278977083991e+01 -5.562813260734e+00 0.0 
-5.562813260734e+00 -2.040358922960e+02 0.0 
0.0 0.0 -7.964769894079e+01 
-6.787598220070e+01 -5.842212853573e+00 0.0 
-5.842212853573e+00 -2.101192552877e+02 0.0 
0.0 0.0 -8.299857124653e+01 
-7.522100561323e+01 -3.691297998086e+00 0.0 
-3.691297998086e+00 -2.278618023038e+02 0.0 
0.0 0.0 -9.052484237511e+01 
-7.290771535749e+01 -5.704595956586e+00 0.0 
-5.704595956586e+00 -2.164417023334e+02 0.0 
0.0 0.0 -8.640482530728e+01 
-6.596017390989e+01 -7.797531270598e+00 0.0 
-7.797531270598e+00 -1.982553867099e+02 0.0 
0.0 0.0 -7.886466818593e+01 
-7.068620830200e+01 -7.220821564607e+00 0.0 
-7.220821564607e+00 -2.043892503002e+02 0.0 
0.0 0.0 -8.212263758066e+01 
-7.789165583566e+01 -5.298204861861e+00 0.0 
-5.298204861861e+00 -2.231048891863e+02 0.0 
0.0 0.0 -8.989896350660e+01 
-7.532785368866e+01 -6.464946373386e+00 0.0 
-6.464946373386e+00 -2.109087696286e+02 0.0 
0.0 0.0 -8.547098699517e+01 
-8.280015410735e+01 -4.722926685908e+00 0.0 
-4.722926685908e+00 -2.300147503095e+02 0.0 
0.0 0.0 -9.344447132505e+01 
-6.835126032870e+01 -8.171378635376e+00 0.0 
-8.171378635376e+00 -1.916850278031e+02 0.0 
0.0 0.0 -7.761088643954e+01 
-7.263493030023e+01 -7.131284490420e+00 0.0 
-7.131284490420e+00 -1.983119304271e+02 0.0 
0.0 0.0 -8.088405821820e+01 
-6.577844374624e+01 -8.538979115029e+00 0.0 
-8.538979115029e+00 -1.785674037720e+02 0.0 
0.0 0.0 -7.290375425546e+01 
-6.973139360518e+01 -7.306447277365e+00 0.0 
-7.306447277365e+00 -1.855061569868e+02 0.0 
0.0 0.0 -7.617126517760e+01 
-7.714156084611e+01 2.401963052332e+01 0.0 
2.401963052332e+01 -2.195565435927e+02 0.0 
0.0 0.0 -8.860943133164e+01 
-6.286868906193e+01 -8.339391902139e+00 0.0 
-8.339391902139e+00 -1.653652077039e+02 0.0 
0.0 0.0 -6.807016902975e+01 
-5.937504943260e+01 -9.729235439498e+00 0.0 
-9.729235439498e+00 -1.587224619160e+02 0.0 
0.0 0.0 -6.502925340457e+01 
-6.651350374566e+01 -7.037433841471e+00 0.0 
-7.037433841471e+00 -1.726761664689e+02 0.0 
0.0 0.0 -7.135690106436e+01 
-7.374295374852e+01 -6.140533758977e+00 0.0 
-6.140533758977e+00 -1.929129707577e+02 0.0 
0.0 0.0 -7.959677735187e+01 
-5.950133430179e+01 -7.678770859769e+00 0.0 
-7.678770859769e+00 -1.522432943722e+02 0.0 
0.0 0.0 -6.312338860220e+01 
-6.291341860490e+01 -6.428055832624e+00 0.0 
-6.428055832624e+00 -1.599311345521e+02 0.0 
0.0 0.0 -6.645336594709e+01 
-5.563860433978e+01 -6.719131493381e+00 0.0 
-6.719131493381e+00 -1.393430453067e+02 0.0 
0.0 0.0 -5.809449489393e+01 
-5.116405849746e+01 2.369450637403e+01 0.0 
2.369450637403e+01 -1.655705901553e+02 0.0 
0.0 0.0 -6.462039459583e+01 
-9.308219419043e+01 2.651732210416e+01 0.0 
2.651732210416e+01 -2.008070105555e+02 0.0 
0.0 0.0 -8.776676142377e+01 
-5.890314137293e+01 -5.587337274502e+00 0.0 
-5.587337274502e+00 -1.473762616887e+02 0.0 
0.0 0.0 -6.148382091847e+01 
-5.127499341334e+01 -5.558342408967e+00 0.0 
-5.558342408967e+00 -1.267412496535e+02 0.0 
0.0 0.0 -5.300487292006e+01 
-4.831864789307e+01 -6.615496580102e+00 0.0 
-6.615496580102e+00 -1.185815671013e+02 0.0 
0.0 0.0 -4.967006449832e+01 
-4.351231631565e+01 -5.193784354295e+00 0.0 
-5.193784354295e+00 -1.060637174968e+02 0.0 
0.0 0.0 -4.447281014373e+01 
-7.921505477703e+01 1.020717865628e+01 0.0 
1.020717865628e+01 -1.323663892109e+02 0.0 
0.0 0.0 -6.307443319638e+01 
-8.651927399689e+01 1.187949956965e+01 0.0 
1.187949956965e+01 -1.533139638428e+02 0.0 
0.0 0.0 -7.154997135190e+01 
-8.153803784798e+01 9.485672383832e+00 0.0 
9.485672383832e+00 -1.410332370612e+02 0.0 
0.0 0.0 -6.637138247276e+01 
-8.897781669585e+01 1.132448874011e+01 0.0 
1.132448874011e+01 -1.624611763494e+02 0.0 
0.0 0.0 -7.503169791358e+01 
-8.431420885498e+01 9.112239501901e+00 0.0 
9.112239501901e+00 -1.510149849049e+02 0.0 
0.0 0.0 -7.019875812797e+01 
-4.650297383116e+01 -4.344538673277e+00 0.0 
-4.344538673277e+00 -1.144404790454e+02 0.0 
0.0 0.0 -4.788303586296e+01 
-9.660790748517e+01 2.023721435710e+01 0.0 
2.023721435710e+01 -1.850850905182e+02 0.0 
0.0 0.0 -8.410789940102e+01 
-9.349279056887e+01 1.364689502118e+01 0.0 
1.364689502118e+01 -1.745055875193e+02 0.0 
0.0 0.0 -7.999951342646e+01 
-7.071008477580e+01 2.660796274826e+01 0.0 
2.660796274826e+01 -1.399832402511e+02 0.0 
0.0 0.0 -6.280799750807e+01 
-6.083829390990e+01 2.813325185017e+01 0.0 
2.813325185017e+01 -1.529856997184e+02 0.0 
0.0 0.0 -6.374719808848e+01 
-7.211340114522e+01 1.300963739200e+01 0.0 
1.300963739200e+01 -2.353423974330e+02 0.0 
0.0 0.0 -9.183673957347e+01 
-6.646065706410e+01 -5.276961551302e+00 0.0 
-5.276961551302e+00 -1.678578261408e+02 0.0 
0.0 0.0 -6.989554496147e+01 
-6.234635957505e+01 -4.562749049961e+00 0.0 
-4.562749049961e+00 -1.555997841435e+02 0.0 
0.0 0.0 -6.498384311556e+01 
-7.007257298513e+01 -4.217942106850e+00 0.0 
-4.217942106850e+00 -1.760192193285e+02 0.0 
0.0 0.0 -7.342753769410e+01 
-8.564290216329e+01 -3.394761518519e+00 0.0 
-3.394761518519e+00 -2.418235424299e+02 0.0 
0.0 0.0 -9.783993337795e+01 
-9.074867523385e+01 -2.990728111144e+00 0.0 
-2.990728111144e+00 -2.490112697595e+02 0.0 
0.0 0.0 -1.015279834980e+02 
-9.390028268715e+01 -1.554937099458e+00 0.0 
-1.554937099458e+00 -2.604891681622e+02 0.0 
0.0 0.0 -1.059168352548e+02 
-9.915605150434e+01 -1.310479660466e+00 0.0 
-1.310479660466e+00 -2.678920372067e+02 0.0 
0.0 0.0 -1.097144266133e+02 
-1.026382760143e+02 1.914343258922e-01 0.0 
1.914343258922e-01 -2.790915051691e+02 0.0 
0.0 0.0 -1.141189343550e+02 
-1.080038851341e+02 2.780007523319e-01 0.0 
2.780007523319e-01 -2.866730030850e+02 0.0 
0.0 0.0 -1.180030664657e+02 
-1.043093920567e+02 -9.998496019045e-01 0.0 
-9.998496019045e-01 -2.753653572015e+02 0.0 
0.0 0.0 -1.135024247775e+02 
-1.132569557326e+02 4.205378327870e-01 0.0 
4.205378327870e-01 -2.942840006495e+02 0.0 
0.0 0.0 -1.218622869146e+02 
-1.093551841336e+02 -6.686616221176e-01 0.0 
-6.686616221176e-01 -2.829233038755e+02 0.0 
0.0 0.0 -1.172835464027e+02 
-1.118302722564e+02 1.812300503637e+00 0.0 
1.812300503637e+00 -2.976283543226e+02 0.0 
0.0 0.0 -1.224375879737e+02 
-1.062515612947e+02 1.958184066193e+00 0.0 
1.958184066193e+00 -2.898216597398e+02 0.0 
0.0 0.0 -1.184219663104e+02 
-1.183877728358e+02 5.760949662940e-01 0.0 
5.760949662940e-01 -3.019376242303e+02 0.0 
0.0 0.0 -1.256976191198e+02 
-1.142872688898e+02 -3.551627228458e-01 0.0 
-3.551627228458e-01 -2.905621677029e+02 0.0 
0.0 0.0 -1.210548309778e+02 
-1.233930183765e+02 7.125153805483e-01 0.0 
7.125153805483e-01 -3.096465339512e+02 0.0 
0.0 0.0 -1.295118656983e+02 
-1.191016212864e+02 -8.014444639503e-02 0.0 
-8.014444639503e-02 -2.982837313711e+02 0.0 
0.0 0.0 -1.248156057973e+02 
-1.102151792096e+02 -1.060161140512e+00 0.0 
-1.060161140512e+00 -2.789822113083e+02 0.0 
0.0 0.0 -1.163592171554e+02 
-1.148248995789e+02 -6.733107262678e-01 0.0 
-6.733107262678e-01 -2.867533571254e+02 0.0 
0.0 0.0 -1.200734770113e+02 
-1.061548763525e+02 -1.526474274991e+00 0.0 
-1.526474274991e+00 -2.673482237587e+02 0.0 
0.0 0.0 -1.116509300334e+02 
-7.679206081957e+01 1.077720301707e+01 0.0 
1.077720301707e+01 -2.460803720422e+02 0.0 
0.0 0.0 -9.646172985852e+01 
-8.081061036507e+01 1.375098481063e+01 0.0 
1.375098481063e+01 -2.518465147961e+02 0.0 
0.0 0.0 -9.939713754836e+01 
-8.574115143215e+01 1.181276670884e+01 0.0 
1.181276670884e+01 -2.627084706835e+02 0.0 
0.0 0.0 -1.041348866347e+02 
-8.998210369094e+01 1.458386291050e+01 0.0 
1.458386291050e+01 -2.686914787461e+02 0.0 
0.0 0.0 -1.072020747311e+02 
-9.516551179082e+01 1.289941779756e+01 0.0 
1.289941779756e+01 -2.796562190478e+02 0.0 
0.0 0.0 -1.120465192516e+02 
-9.961400504427e+01 1.550312602575e+01 0.0 
1.550312602575e+01 -2.858054009873e+02 0.0 
0.0 0.0 -1.152258218095e+02 
-1.050549843752e+02 1.403345566363e+01 0.0 
1.403345566363e+01 -2.968293705041e+02 0.0 
0.0 0.0 -1.201653064638e+02 
-1.006264761454e+02 1.142210839270e+01 0.0 
1.142210839270e+01 -2.899757868448e+02 0.0 
0.0 0.0 -1.167806788970e+02 
-9.709564460180e+01 2.339918257875e+01 0.0 
2.339918257875e+01 -1.937974057947e+02 0.0 
0.0 0.0 -8.686791511896e+01 
-4.916408460255e+01 1.164395926866e+01 0.0 
1.164395926866e+01 -1.882891511815e+02 0.0 
0.0 0.0 -7.083597073520e+01 
-4.612467597745e+01 1.545890176722e+01 0.0 
1.545890176722e+01 -1.764800101853e+02 0.0 
0.0 0.0 -6.638140584884e+01 
-4.272842537561e+01 1.164568638752e+01 0.0 
1.164568638752e+01 -1.735990528332e+02 0.0 
0.0 0.0 -6.449824346265e+01 
-4.033103284647e+01 1.607122110095e+01 0.0 
1.607122110095e+01 -1.615269143653e+02 0.0 
0.0 0.0 -6.015738416352e+01 
-3.706834658010e+01 1.205320130662e+01 0.0 
1.205320130662e+01 -1.595270152186e+02 0.0 
0.0 0.0 -5.857860853961e+01 
-3.554060491317e+01 1.718547853764e+01 0.0 
1.718547853764e+01 -1.469743578991e+02 0.0 
0.0 0.0 -5.435448884367e+01 
-3.251979563270e+01 1.300529696937e+01 0.0 
1.300529696937e+01 -1.461059711750e+02 0.0 
0.0 0.0 -5.313277303243e+01 
-3.426514523196e+01 6.964673527157e+00 0.0 
6.964673527157e+00 -1.566844413121e+02 0.0 
0.0 0.0 -5.686084035522e+01 
-3.041195484205e+01 7.334734835893e+00 0.0 
7.334734835893e+00 -1.445117740540e+02 0.0 
0.0 0.0 -5.218043283130e+01 
-3.254524257047e+01 7.367403872771e-01 0.0 
7.367403872771e-01 -1.521034990322e+02 0.0 
0.0 0.0 -5.486999616163e+01 
-2.925578226538e+01 2.150279490497e-01 0.0 
2.150279490497e-01 -1.408493383895e+02 0.0 
0.0 0.0 -5.119275355984e+01 
-3.201033819509e+01 -6.167513787120e+00 0.0 
-6.167513787120e+00 -1.448080394367e+02 0.0 
0.0 0.0 -5.276112716167e+01 
-8.307336436898e+01 2.701484572874e+01 0.0 
2.701484572874e+01 -2.087671102211e+02 0.0 
0.0 0.0 -8.715214237702e+01 
-9.446732798181e+01 1.712682555622e+01 0.0 
1.712682555622e+01 -2.740974551609e+02 0.0 
0.0 0.0 -1.101694349428e+02 
-1.042901627472e+02 1.792474363145e+01 0.0 
1.792474363145e+01 -2.914381794112e+02 0.0 
0.0 0.0 -1.183185026475e+02 
-9.910361798990e+01 1.942053090190e+01 0.0 
1.942053090190e+01 -2.789774072758e+02 0.0 
0.0 0.0 -1.130243075797e+02 
-4.073754240628e+01 -6.041390740807e+00 0.0 
-6.041390740807e+00 -9.775877010901e+01 0.0 
0.0 0.0 -4.114889375459e+01 
-1.237998313046e+02 1.366137690630e-01 0.0 
1.366137690630e-01 -3.061040345455e+02 0.0 
0.0 0.0 -1.285711597550e+02 
-1.158305408511e+02 3.575708783093e+00 0.0 
3.575708783093e+00 -3.081540359638e+02 0.0 
0.0 0.0 -1.267953730445e+02 
-1.100531358157e+02 3.938347167833e+00 0.0 
3.938347167833e+00 -3.000052084301e+02 0.0 
0.0 0.0 -1.226175032737e+02 
-1.107591136523e+02 1.272073787004e+01 0.0 
1.272073787004e+01 -3.072729056264e+02 0.0 
0.0 0.0 -1.250096057836e+02 
-3.835694145312e+01 -3.867420017327e+00 0.0 
-3.867420017327e+00 -9.410920853744e+01 0.0 
0.0 0.0 -3.933984499717e+01 
-3.237644260563e+01 1.895735150665e+01 0.0 
1.895735150665e+01 -1.328609665713e+02 0.0 
0.0 0.0 -4.913668370254e+01 
-3.507055022123e+01 2.188091395215e+01 0.0 
2.188091395215e+01 -1.320159721554e+02 0.0 
0.0 0.0 -4.972595671300e+01 
-9.135838291813e+01 1.086652555218e+01 0.0 
1.086652555218e+01 -1.719211422813e+02 0.0 
0.0 0.0 -7.858385755982e+01 
-8.684347538991e+01 8.811409847049e+00 0.0 
8.811409847049e+00 -1.608010086791e+02 0.0 
0.0 0.0 -7.389334522070e+01 
-1.200764819079e+02 5.516851177084e+00 0.0 
5.516851177084e+00 -3.182343916655e+02 0.0 
0.0 0.0 -1.310932620720e+02 
-4.145855201550e+01 -3.242707045410e+00 0.0 
-3.242707045410e+00 -1.025883507511e+02 0.0 
0.0 0.0 -4.281407082998e+01 
-1.225873467233e+02 1.724158935861e+00 0.0 
1.724158935861e+00 -3.130845825603e+02 0.0 
0.0 0.0 -1.303015787851e+02 
-2.821550462086e+01 8.443485290062e+00 0.0 
8.443485290062e+00 -1.338058922452e+02 0.0 
0.0 0.0 -4.927944249236e+01 
-1.193444956562e+02 -3.640684015985e-01 0.0 
-3.640684015985e-01 -2.946454857588e+02 0.0 
0.0 0.0 -1.237969944245e+02 
-1.283581795836e+02 2.869500341833e-01 0.0 
2.869500341833e-01 -3.140170221924e+02 0.0 
0.0 0.0 -1.323125605328e+02 
-1.006951445226e+02 -1.996185648575e+00 0.0 
-1.996185648575e+00 -2.638028814628e+02 0.0 
0.0 0.0 -1.089494077956e+02 
-1.091185029372e+02 2.015920179001e+01 0.0 
2.015920179001e+01 -2.966460897711e+02 0.0 
0.0 0.0 -1.213293778125e+02 
-1.038599531865e+02 2.144921896222e+01 0.0 
2.144921896222e+01 -2.834792947810e+02 0.0 
0.0 0.0 -1.158017743903e+02 
-3.613389903414e+01 -4.384233545279e+00 0.0 
-4.384233545279e+00 -1.575409957125e+02 0.0 
0.0 0.0 -5.767730675401e+01 
-3.599983224032e+01 -1.043114991904e+01 0.0 
-1.043114991904e+01 -1.474868237524e+02 0.0 
0.0 0.0 -5.457689813225e+01 
-3.314200323870e+01 -1.309799572370e+01 0.0 
-1.309799572370e+01 -1.340127602134e+02 0.0 
0.0 0.0 -5.007977333617e+01 
-3.758575556506e+01 -1.562281086764e+01 0.0 
-1.562281086764e+01 -1.347619743699e+02 0.0 
0.0 0.0 -5.112897162700e+01 
-4.064031663313e+01 -1.254053983590e+01 0.0 
-1.254053983590e+01 -1.500686444495e+02 0.0 
0.0 0.0 -5.680582454356e+01 
-4.134345983227e+01 -1.610673922374e+01 0.0 
-1.610673922374e+01 -1.358439353238e+02 0.0 
0.0 0.0 -5.265783879415e+01 
-3.972423403162e+01 -1.911993228945e+01 0.0 
-1.911993228945e+01 -1.185384578046e+02 0.0 
0.0 0.0 -4.649121752963e+01 
-4.223063143304e+01 -1.784056203524e+01 0.0 
-1.784056203524e+01 -1.195646442885e+02 0.0 
0.0 0.0 -4.779358160613e+01 
-4.517577132809e+01 -1.540366804426e+01 0.0 
-1.540366804426e+01 -1.384644707373e+02 0.0 
0.0 0.0 -5.469207261963e+01 
-4.482700223385e+01 -1.598519034365e+01 0.0 
-1.598519034365e+01 -1.226595439075e+02 0.0 
0.0 0.0 -4.979358364112e+01 
-4.265612705720e+01 -1.709652579685e+01 0.0 
-1.709652579685e+01 -1.019458344748e+02 0.0 
0.0 0.0 -4.225693263185e+01 
-4.363819052920e+01 -1.473407722054e+01 0.0 
-1.473407722054e+01 -1.063118812746e+02 0.0 
0.0 0.0 -4.441092409526e+01 
-1.329730843418e+02 8.504894429197e-01 0.0 
8.504894429197e-01 -3.252651221125e+02 0.0 
0.0 0.0 -1.370714619363e+02 
-2.721373134182e+01 2.035351741417e-02 0.0 
2.035351741417e-02 -1.310764606694e+02 0.0 
0.0 0.0 -4.869648269621e+01 
-7.548382202225e+01 2.130037853289e+01 0.0 
2.130037853289e+01 -1.299319013378e+02 0.0 
0.0 0.0 -6.122471700802e+01 
-1.258542010442e+02 5.026810423117e+00 0.0 
5.026810423117e+00 -3.264274481213e+02 0.0 
0.0 0.0 -1.352844947497e+02 
-1.153646813669e+02 1.521468869944e+01 0.0 
1.521468869944e+01 -3.139967744859e+02 0.0 
0.0 0.0 -1.284084367558e+02 
-9.366709095570e+01 1.046686905566e+01 0.0 
1.046686905566e+01 -1.816499844007e+02 0.0 
0.0 0.0 -8.219512260691e+01 
-8.932532178811e+01 8.544246579755e+00 0.0 
8.544246579755e+00 -1.708578191465e+02 0.0 
0.0 0.0 -7.765494228038e+01 
-8.213758941000e+01 6.911319970606e+00 0.0 
6.911319970606e+00 -1.501352266552e+02 0.0 
0.0 0.0 -6.928184481957e+01 
-8.486786658562e+01 6.787439775113e+00 0.0 
6.787439775113e+00 -1.605439362755e+02 0.0 
0.0 0.0 -7.322354085835e+01 
-9.176203263650e+01 8.291125219726e+00 0.0 
8.291125219726e+00 -1.811994613441e+02 0.0 
0.0 0.0 -8.148844819418e+01 
-8.754842112214e+01 6.638984020133e+00 0.0 
6.638984020133e+00 -1.710535768958e+02 0.0 
0.0 0.0 -7.718059940540e+01 
-8.035374724030e+01 5.269937545170e+00 0.0 
5.269937545170e+00 -1.505686903576e+02 0.0 
0.0 0.0 -6.887673127937e+01 
-8.329808114325e+01 5.198463266698e+00 0.0 
5.198463266698e+00 -1.611753938222e+02 0.0 
0.0 0.0 -7.294204248965e+01 
-7.587137051007e+01 3.978074447017e+00 0.0 
3.978074447017e+00 -1.408411472813e+02 0.0 
0.0 0.0 -6.461375533740e+01 
-7.904214889539e+01 3.968651949444e+00 0.0 
3.968651949444e+00 -1.515551414015e+02 0.0 
0.0 0.0 -6.877918708906e+01 
-8.622083372513e+01 5.073838990478e+00 0.0 
5.073838990478e+00 -1.718740104941e+02 0.0 
0.0 0.0 -7.702845326577e+01 
-8.219053855117e+01 3.918044834523e+00 0.0 
3.918044834523e+00 -1.623830927970e+02 0.0 
0.0 0.0 -7.297208940444e+01 
-7.479769760416e+01 2.938439788125e+00 0.0 
2.938439788125e+00 -1.422019684935e+02 0.0 
0.0 0.0 -6.469989982931e+01 
-7.816495829969e+01 2.943832909331e+00 0.0 
2.943832909331e+00 -1.530492060523e+02 0.0 
0.0 0.0 -6.896424930561e+01 
-7.059900556515e+01 2.121188948311e+00 0.0 
2.121188948311e+00 -1.329595434003e+02 0.0 
0.0 0.0 -6.066756468962e+01 
-7.419019959849e+01 2.158936359984e+00 0.0 
2.158936359984e+00 -1.437513819203e+02 0.0 
0.0 0.0 -6.498247445565e+01 
-8.153186736731e+01 2.818080364581e+00 0.0 
2.818080364581e+00 -1.639758340795e+02 0.0 
0.0 0.0 -7.325231043406e+01 
-3.322704277634e+01 -2.779679453482e+00 0.0 
-2.779679453482e+00 -8.299746799776e+01 0.0 
0.0 0.0 -3.446735323223e+01 
-1.063205610220e+02 1.015675441855e+01 0.0 
1.015675441855e+01 -2.997777275101e+02 0.0 
0.0 0.0 -1.214294865596e+02 
-1.167424430696e+02 1.156439204300e+01 0.0 
1.156439204300e+01 -3.173448513495e+02 0.0 
0.0 0.0 -1.298261883257e+02 
-6.603055172789e+01 -3.518708351009e+00 0.0 
-3.518708351009e+00 -1.645798429793e+02 0.0 
0.0 0.0 -6.878311841216e+01 
-7.363502648912e+01 -3.223672848136e+00 0.0 
-3.223672848136e+00 -1.840431481182e+02 0.0 
0.0 0.0 -7.690345238220e+01 
-7.783554406847e+01 -3.809146093650e+00 0.0 
-3.809146093650e+00 -1.962255367925e+02 0.0 
0.0 0.0 -8.181832425829e+01 
-8.182213443950e+01 -2.898011695903e+00 0.0 
-2.898011695903e+00 -2.045761781350e+02 0.0 
0.0 0.0 -8.551949377234e+01 
-7.771010323293e+01 2.042957882965e+00 0.0 
2.042957882965e+00 -1.545857226378e+02 0.0 
0.0 0.0 -6.928874776122e+01 
-8.481538137822e+01 2.576618116552e+00 0.0 
2.576618116552e+00 -1.749490741644e+02 0.0 
0.0 0.0 -7.752933666278e+01 
-3.350998918634e+01 2.411383017367e+01 0.0 
2.411383017367e+01 -1.167559353577e+02 0.0 
0.0 0.0 -4.453081202689e+01 
-3.548950225478e+01 2.561706411121e+01 0.0 
2.561706411121e+01 -1.149278693869e+02 0.0 
0.0 0.0 -4.465728304224e+01 
-9.785472480727e+01 1.254550242552e+01 0.0 
1.254550242552e+01 -1.929373358721e+02 0.0 
0.0 0.0 -8.683761820382e+01 
-1.237649887816e+02 -1.146132618148e-01 0.0 
-1.146132618148e-01 -3.027138627851e+02 0.0 
0.0 0.0 -1.275436554700e+02 
-1.149159049285e+02 -6.770407727582e-01 0.0 
-6.770407727582e-01 -2.832089165289e+02 0.0 
0.0 0.0 -1.190374464372e+02 
-5.682513790007e+01 2.767180316418e+01 0.0 
2.767180316418e+01 -1.519211716815e+02 0.0 
0.0 0.0 -6.222389287446e+01 
-5.430502642843e+01 2.839860079064e+01 0.0 
2.839860079064e+01 -1.342643712743e+02 0.0 
0.0 0.0 -5.617081931083e+01 
-5.077001068863e+01 2.801509239308e+01 0.0 
2.801509239308e+01 -1.335171240877e+02 0.0 
0.0 0.0 -5.488614043291e+01 
-4.834899190644e+01 2.843967259816e+01 0.0 
2.843967259816e+01 -1.150303237605e+02 0.0 
0.0 0.0 -4.861379470009e+01 
-5.163503112164e+01 2.854392335772e+01 0.0 
2.854392335772e+01 -1.158437885135e+02 0.0 
0.0 0.0 -4.984364589054e+01 
-4.546652761727e+01 2.820921976631e+01 0.0 
2.820921976631e+01 -1.144486111573e+02 0.0 
0.0 0.0 -4.757454163237e+01 
-1.005091682151e+02 2.199613080980e+00 0.0 
2.199613080980e+00 -2.817670138802e+02 0.0 
0.0 0.0 -1.142828546286e+02 
-8.914550294169e+01 4.893445121905e+00 0.0 
4.893445121905e+00 -1.827340657828e+02 0.0 
0.0 0.0 -8.116387061735e+01 
-4.564150742235e+01 -7.766085670279e+00 0.0 
-7.766085670279e+00 -1.106710372430e+02 0.0 
0.0 0.0 -4.649376339960e+01 
-3.840127953768e+01 -6.936727274589e+00 0.0 
-6.936727274589e+00 -8.971576016822e+01 0.0 
0.0 0.0 -3.803511191177e+01 
-1.327654277875e+02 3.743700718748e-01 0.0 
3.743700718748e-01 -3.220953987993e+02 0.0 
0.0 0.0 -1.360582479760e+02 
-9.644675988328e+01 8.709705312389e+00 0.0 
8.709705312389e+00 -2.824513833937e+02 0.0 
0.0 0.0 -1.132694429831e+02 
-8.768283440763e+01 2.729968984782e+01 0.0 
2.729968984782e+01 -2.112480199483e+02 0.0 
0.0 0.0 -8.927925630678e+01 
-9.112353411178e+01 2.682811932481e+01 0.0 
2.682811932481e+01 -2.274512664786e+02 0.0 
0.0 0.0 -9.517244017712e+01 
-9.570772256319e+01 2.722685749521e+01 0.0 
2.722685749521e+01 -2.303459329952e+02 0.0 
0.0 0.0 -9.741609666751e+01 
-9.945433994865e+01 2.684875203975e+01 0.0 
2.684875203975e+01 -2.462881378724e+02 0.0 
0.0 0.0 -1.033227433463e+02 
-1.039200134885e+02 2.739592276040e+01 0.0 
2.739592276040e+01 -2.495235457324e+02 0.0 
0.0 0.0 -1.056330677663e+02 
-1.079954320363e+02 2.715658293973e+01 0.0 
2.715658293973e+01 -2.651398447737e+02 0.0 
0.0 0.0 -1.115405830430e+02 
-1.034921856744e+02 2.627862221817e+01 0.0 
2.627862221817e+01 -2.617500115153e+02 0.0 
0.0 0.0 -1.091726591569e+02 
-1.139972855918e+02 2.221254029263e+01 0.0 
2.221254029263e+01 -3.014720007433e+02 0.0 
0.0 0.0 -1.242407859005e+02 
-1.124159248381e+02 2.679020718675e+01 0.0 
2.679020718675e+01 -2.803154315042e+02 0.0 
0.0 0.0 -1.174194069027e+02 
-7.025408240638e+01 1.437661589142e+00 0.0 
1.437661589142e+00 -1.342333740447e+02 0.0 
0.0 0.0 -6.094623693533e+01 
-8.953273708070e+01 1.883031205126e+01 0.0 
1.883031205126e+01 -2.614927659250e+02 0.0 
0.0 0.0 -1.049076509017e+02 
-4.899014295867e+01 -1.411798585158e+01 0.0 
-1.411798585158e+01 -1.425080771450e+02 0.0 
0.0 0.0 -5.704946603110e+01 
-2.982712243125e+01 -3.059679179664e+00 0.0 
-3.059679179664e+00 -7.412728529605e+01 0.0 
0.0 0.0 -3.078632231819e+01 
-4.009676593383e+01 -1.403600663989e+01 0.0 
-1.403600663989e+01 -8.385873587466e+01 0.0 
0.0 0.0 -3.591399214634e+01 
-3.608252439369e+01 -2.320671609292e+00 0.0 
-2.320671609292e+00 -9.075234896847e+01 0.0 
0.0 0.0 -3.765046200865e+01 
-4.475606070741e+01 -2.651132528992e+00 0.0 
-2.651132528992e+00 -1.110914802762e+02 0.0 
0.0 0.0 -4.635426229508e+01 
-1.305449626990e+02 6.935496375662e+00 0.0 
6.935496375662e+00 -3.363934687507e+02 0.0 
0.0 0.0 -1.396815294349e+02 
-1.122525783396e+02 2.788857530217e+01 0.0 
2.788857530217e+01 -2.686283791845e+02 0.0 
0.0 0.0 -1.138642872572e+02 
-1.080561385937e+02 2.774213111893e+01 0.0 
2.774213111893e+01 -2.528237900608e+02 0.0 
0.0 0.0 -1.078639785963e+02 
-4.577500944895e+01 2.825440588867e+01 0.0 
2.825440588867e+01 -9.619473525560e+01 0.0 
0.0 0.0 -4.219092341136e+01 
-4.880660938703e+01 2.802405002559e+01 0.0 
2.802405002559e+01 -9.688697430150e+01 0.0 
0.0 0.0 -4.330807510656e+01 
-1.196332392775e+02 2.110169806982e+01 0.0 
2.110169806982e+01 -3.143941070894e+02 0.0 
0.0 0.0 -1.298082039101e+02 
-7.665853223182e+01 7.297704903512e+00 0.0 
7.297704903512e+00 -1.301462036713e+02 0.0 
0.0 0.0 -6.164142077093e+01 
-7.268491449009e+01 3.920938864657e+00 0.0 
3.920938864657e+00 -1.302805630656e+02 0.0 
0.0 0.0 -6.048964326672e+01 
-6.791553755161e+01 2.788773522875e+00 0.0 
2.788773522875e+00 -1.206247853936e+02 0.0 
0.0 0.0 -5.616209688356e+01 
-2.649997239101e+01 -1.764235558627e+00 0.0 
-1.764235558627e+00 -6.906503518113e+01 0.0 
0.0 0.0 -2.826950227164e+01 
-4.028760379231e+01 -1.683984769088e+01 0.0 
-1.683984769088e+01 -7.986763852330e+01 0.0 
0.0 0.0 -3.411549702983e+01 
-9.421709084642e+01 7.983374173386e+00 0.0 
7.983374173386e+00 -1.916999985743e+02 0.0 
0.0 0.0 -8.537512682621e+01 
-3.803395691781e+01 2.393361556602e+01 0.0 
2.393361556602e+01 -1.314188243381e+02 0.0 
0.0 0.0 -5.043583437677e+01 
-3.778239018128e+01 2.657492370146e+01 0.0 
2.657492370146e+01 -1.138788152905e+02 0.0 
0.0 0.0 -4.509836164154e+01 
-2.784342012663e+01 1.093587428789e+01 0.0 
1.093587428789e+01 -1.241998286432e+02 0.0 
0.0 0.0 -4.696295988005e+01 
-2.816079091724e+01 3.922884905907e-01 0.0 
3.922884905907e-01 -1.240250609457e+02 0.0 
0.0 0.0 -4.752055597394e+01 
-8.121208258728e+01 1.735851268831e+00 0.0 
1.735851268831e+00 -1.652616284858e+02 0.0 
0.0 0.0 -7.354211332193e+01 
-8.816354832134e+01 2.214884778544e+00 0.0 
2.214884778544e+00 -1.855255909589e+02 0.0 
0.0 0.0 -8.170674178406e+01 
-8.588036817538e+01 -3.185350744626e+00 0.0 
-3.185350744626e+00 -2.163855114421e+02 0.0 
0.0 0.0 -9.027976388526e+01 
-8.988438742769e+01 -2.337590715048e+00 0.0 
-2.337590715048e+00 -2.245959194699e+02 0.0 
0.0 0.0 -9.394409206927e+01 
-1.246133129522e+02 7.606064855325e+00 0.0 
7.606064855325e+00 -3.278558651521e+02 0.0 
0.0 0.0 -1.353407534313e+02 
-4.069018275105e+01 -1.208249779542e+01 0.0 
-1.208249779542e+01 -9.055998757510e+01 0.0 
0.0 0.0 -3.878735901738e+01 
-9.172644650945e+01 3.167911736940e+00 0.0 
3.167911736940e+00 -1.953425029935e+02 0.0 
0.0 0.0 -8.572068485089e+01 
-1.021306776603e+02 7.567402509473e+00 0.0 
7.567402509473e+00 -2.916313053283e+02 0.0 
0.0 0.0 -1.177285948966e+02 
-9.258062912387e+01 5.960435771491e+00 0.0 
5.960435771491e+00 -2.742350393302e+02 0.0 
0.0 0.0 -1.096447005362e+02 
-7.759478686496e+01 -2.488048135127e+00 0.0 
-2.488048135127e+00 -1.924235983919e+02 0.0 
0.0 0.0 -8.060551557705e+01 
-3.562164171469e+01 2.763176181977e+01 0.0 
2.763176181977e+01 -9.810437540300e+01 0.0 
0.0 0.0 -3.918376838879e+01 
-3.483127219272e+01 2.692711594830e+01 0.0 
2.692711594830e+01 -1.011732147926e+02 0.0 
0.0 0.0 -4.013658018190e+01 
-4.976951195067e+01 -1.289116622840e+01 0.0 
-1.289116622840e+01 -1.569887445779e+02 0.0 
0.0 0.0 -6.162747695856e+01 
-4.554240332955e+01 -1.270898565523e+01 0.0 
-1.270898565523e+01 -1.122206493059e+02 0.0 
0.0 0.0 -4.692891579065e+01 
-3.953833331237e+01 -1.798421056293e+00 0.0 
-1.798421056293e+00 -9.934647536601e+01 0.0 
0.0 0.0 -4.126544260351e+01 
-1.354497677254e+02 8.971617642918e+00 0.0 
8.971617642918e+00 -3.458321070530e+02 0.0 
0.0 0.0 -1.439845624335e+02 
-9.810062317888e+01 9.685453035597e+00 0.0 
9.685453035597e+00 -2.018986249324e+02 0.0 
0.0 0.0 -8.959977443339e+01 
-1.079571443824e+02 2.562327686501e+01 0.0 
2.562327686501e+01 -2.766882139168e+02 0.0 
0.0 0.0 -1.149936074898e+02 
-9.878375869765e+01 2.523290340637e+01 0.0 
2.523290340637e+01 -2.582986575908e+02 0.0 
0.0 0.0 -1.067247248865e+02 
-1.175150055206e+02 2.628277881824e+01 0.0 
2.628277881824e+01 -2.952137786700e+02 0.0 
0.0 0.0 -1.234186352572e+02 
-3.530674556443e+01 -1.019858494273e+01 0.0 
-1.019858494273e+01 -6.865703301350e+01 0.0 
0.0 0.0 -3.019011016774e+01 
-1.364509599950e+02 6.311655321828e+00 0.0 
6.311655321828e+00 -3.449062862027e+02 0.0 
0.0 0.0 -1.440071738593e+02 
-1.280481200283e+02 5.246628965074e-02 0.0 
5.246628965074e-02 -3.109591734689e+02 0.0 
0.0 0.0 -1.313021880492e+02 
-1.157646921386e+02 2.837763925059e+01 0.0 
2.837763925059e+01 -2.713820043562e+02 0.0 
0.0 0.0 -1.157440089485e+02 
-1.118796686108e+02 2.792789793011e+01 0.0 
2.792789793011e+01 -2.564759983016e+02 0.0 
0.0 0.0 -1.101067000737e+02 
-4.093899702133e+01 2.539284018875e+01 0.0 
2.539284018875e+01 -1.311191954641e+02 0.0 
0.0 0.0 -5.121745774563e+01 
-4.020846522806e+01 2.724481244447e+01 0.0 
2.724481244447e+01 -1.135643141567e+02 0.0 
0.0 0.0 -4.573183381543e+01 
-3.778239896177e+01 2.802115444056e+01 0.0 
2.802115444056e+01 -9.527670941434e+01 0.0 
0.0 0.0 -3.951773251283e+01 
-3.938734794748e+01 2.808200175999e+01 0.0 
2.808200175999e+01 -9.505039961871e+01 0.0 
0.0 0.0 -3.993132426986e+01 
-7.468718931776e+01 1.638134115728e+01 0.0 
1.638134115728e+01 -1.202888629847e+02 0.0 
0.0 0.0 -5.809281569073e+01 
-4.397490484494e+01 2.650287825057e+01 0.0 
2.650287825057e+01 -1.314073706649e+02 0.0 
0.0 0.0 -5.221468265295e+01 
-7.157351742342e+01 2.326417179463e+01 0.0 
2.326417179463e+01 -1.252988967225e+02 0.0 
0.0 0.0 -5.866172424377e+01 
-6.774504872664e+01 2.049561994080e+01 0.0 
2.049561994080e+01 -1.080672975797e+02 0.0 
0.0 0.0 -5.234370389191e+01 
-6.388813019479e+01 2.272515846028e+01 0.0 
2.272515846028e+01 -1.037519150856e+02 0.0 
0.0 0.0 -4.989201358411e+01 
-5.524222782363e+01 2.829741030296e+01 0.0 
2.829741030296e+01 -1.165899844199e+02 0.0 
0.0 0.0 -5.114966367306e+01 
-5.219553827213e+01 2.739606248571e+01 0.0 
2.739606248571e+01 -9.757989243113e+01 0.0 
0.0 0.0 -4.453262921098e+01 
-4.378913668116e+01 1.925100536944e+01 0.0 
1.925100536944e+01 -1.629841491799e+02 0.0 
0.0 0.0 -6.163198575833e+01 
-7.620940410866e+01 1.589505936751e+01 0.0 
1.589505936751e+01 -2.401489956709e+02 0.0 
0.0 0.0 -9.450751993385e+01 
-8.179564310129e+01 -4.089920267699e+00 0.0 
-4.089920267699e+00 -2.084043664469e+02 0.0 
0.0 0.0 -8.666000286446e+01 
-1.016694892830e+02 -2.081695984637e+00 0.0 
-2.081695984637e+00 -2.596301699963e+02 0.0 
0.0 0.0 -1.079898977838e+02 
-8.854698239217e+01 -1.682379539101e+00 0.0 
-1.682379539101e+00 -2.531089086443e+02 0.0 
0.0 0.0 -1.020967673109e+02 
-9.287552772106e+01 6.164888226451e+00 0.0 
6.164888226451e+00 -1.922313874071e+02 0.0 
0.0 0.0 -8.513207453846e+01 
-9.563605915560e+01 5.838859395137e+00 0.0 
5.838859395137e+00 -2.032344128378e+02 0.0 
0.0 0.0 -8.926114159803e+01 
-6.700871949628e+01 2.013333141028e+00 0.0 
2.013333141028e+00 -1.221539228586e+02 0.0 
0.0 0.0 -5.634879270646e+01 
-6.279621047797e+01 1.370575362285e+00 0.0 
1.370575362285e+00 -1.129252312412e+02 0.0 
0.0 0.0 -5.231643251575e+01 
-3.272403538289e+01 -4.985703569718e+00 0.0 
-4.985703569718e+00 -7.699485167457e+01 0.0 
0.0 0.0 -3.251566611724e+01 
-3.050636742579e+01 -5.525536036905e+00 0.0 
-5.525536036905e+00 -6.880166038360e+01 0.0 
0.0 0.0 -2.939031337691e+01 
-8.763917083783e+01 -4.060178143684e+00 0.0 
-4.060178143684e+00 -2.371770526587e+02 0.0 
0.0 0.0 -9.704486704895e+01 
-1.314821808264e+02 4.584728515208e+00 0.0 
4.584728515208e+00 -3.344451021088e+02 0.0 
0.0 0.0 -1.393781848806e+02 
-9.975839207451e+01 1.199723926725e+01 0.0 
1.199723926725e+01 -2.023547594953e+02 0.0 
0.0 0.0 -9.023394547093e+01 
-1.036308113376e+02 1.415239807717e+01 0.0 
1.415239807717e+01 -2.138232855788e+02 0.0 
0.0 0.0 -9.483622907493e+01 
-1.018604502363e+02 1.475865375411e+01 0.0 
1.475865375411e+01 -2.045983164580e+02 0.0 
0.0 0.0 -9.153763000828e+01 
-1.292969364709e+02 9.808720689134e+00 0.0 
9.808720689134e+00 -3.367539129100e+02 0.0 
0.0 0.0 -1.394152548143e+02 
-4.603210853813e+01 7.470116282983e+00 0.0 
7.470116282983e+00 -1.839267364271e+02 0.0 
0.0 0.0 -6.858765348956e+01 
-8.180822312332e+01 8.846231081184e+00 0.0 
8.846231081184e+00 -2.560493459958e+02 0.0 
0.0 0.0 -1.009572707357e+02 
-2.864689333065e+01 -1.036212440911e+01 0.0 
-1.036212440911e+01 -1.247234259552e+02 0.0 
0.0 0.0 -4.726514650881e+01 
-8.176846732752e+01 2.526128911351e+01 0.0 
2.526128911351e+01 -2.221339187307e+02 0.0 
0.0 0.0 -9.077071581746e+01 
-2.405062028949e+01 -3.605618052928e+00 0.0 
-3.605618052928e+00 -5.663677676397e+01 0.0 
0.0 0.0 -2.380621911604e+01 
-9.697133266919e+01 2.578832561297e+01 0.0 
2.578832561297e+01 -2.046733899476e+02 0.0 
0.0 0.0 -9.009341678505e+01 
-1.371659197171e+02 3.810599409361e-01 0.0 
3.810599409361e-01 -3.303763766623e+02 0.0 
0.0 0.0 -1.398626889138e+02 
-1.419383218951e+02 7.660640715134e-01 0.0 
7.660640715134e-01 -3.412402334279e+02 0.0 
0.0 0.0 -1.445535665969e+02 
-1.244693870281e+02 2.320549075887e+01 0.0 
2.320549075887e+01 -3.192869126255e+02 0.0 
0.0 0.0 -1.327268898961e+02 
-6.143132003781e+01 1.100117552873e+01 0.0 
1.100117552873e+01 -8.508497840692e+01 0.0 
0.0 0.0 -4.355488953342e+01 
-8.538997098972e+01 2.389616733108e+01 0.0 
2.389616733108e+01 -2.370864478144e+02 0.0 
0.0 0.0 -9.634292564123e+01 
-8.078164214627e+01 2.231034894202e+01 0.0 
2.231034894202e+01 -2.340583541401e+02 0.0 
0.0 0.0 -9.405199888591e+01 
-5.975461993877e+01 1.936237115185e+01 0.0 
1.936237115185e+01 -8.610972160776e+01 0.0 
0.0 0.0 -4.335930246396e+01 
-5.598834674988e+01 2.185944764274e+01 0.0 
2.185944764274e+01 -8.193180713032e+01 0.0 
0.0 0.0 -4.097604616406e+01 
-5.987432789259e+01 2.471334006799e+01 0.0 
2.471334006799e+01 -1.007249852340e+02 0.0 
0.0 0.0 -4.777979393798e+01 
-5.237301173168e+01 2.410721007993e+01 0.0 
2.410721007993e+01 -7.962042540002e+01 0.0 
0.0 0.0 -3.919803113951e+01 
-5.400654316843e+01 -1.204434851841e+01 0.0 
-1.204434851841e+01 -1.616200624607e+02 0.0 
0.0 0.0 -6.428798168873e+01 
-5.256905487621e+01 -1.262199214090e+01 0.0 
-1.262199214090e+01 -1.474397608439e+02 0.0 
0.0 0.0 -5.960264471603e+01 
-1.213746643842e+02 2.894736902935e+01 0.0 
2.894736902935e+01 -2.889844304389e+02 0.0 
0.0 0.0 -1.227077284469e+02 
-1.215160984033e+02 2.763793320930e+01 0.0 
2.763793320930e+01 -2.986756638309e+02 0.0 
0.0 0.0 -1.256575286703e+02 
-1.192868256896e+02 2.898639997489e+01 0.0 
2.898639997489e+01 -2.756033685630e+02 0.0 
0.0 0.0 -1.180670582758e+02 
-1.156346873720e+02 2.811729279443e+01 0.0 
2.811729279443e+01 -2.610118386466e+02 0.0 
0.0 0.0 -1.125939578056e+02 
-1.305913926458e+02 2.224645153193e+01 0.0 
2.224645153193e+01 -3.320829482725e+02 0.0 
0.0 0.0 -1.384023022755e+02 
-1.253894001162e+02 1.997257240960e+01 0.0 
1.997257240960e+01 -3.264418763987e+02 0.0 
0.0 0.0 -1.351493829545e+02 
-4.786008955897e+01 -1.963095376581e+00 0.0 
-1.963095376581e+00 -1.190791212158e+02 0.0 
0.0 0.0 -4.968176323245e+01 
-4.582911441174e+01 2.677825510890e+01 0.0 
2.677825510890e+01 -7.753019686307e+01 0.0 
0.0 0.0 -3.660779338244e+01 
-1.004533513230e+02 9.247471980785e+00 0.0 
9.247471980785e+00 -2.123416079520e+02 0.0 
0.0 0.0 -9.343848778250e+01 
-6.327740449035e+01 1.690111862286e+01 0.0 
1.690111862286e+01 -9.161496325410e+01 0.0 
0.0 0.0 -4.606771032333e+01 
-1.419374652417e+02 5.678997165482e+00 0.0 
5.678997165482e+00 -3.525362276759e+02 0.0 
0.0 0.0 -1.479421078753e+02 
-1.369981850457e+02 4.193114694961e+00 0.0 
4.193114694961e+00 -3.424005315870e+02 0.0 
0.0 0.0 -1.434196149898e+02 
-3.409500881473e+01 -1.085606398982e+01 0.0 
-1.085606398982e+01 -1.196294471845e+02 0.0 
0.0 0.0 -4.797197730281e+01 
-3.381905270769e+01 -2.133145359507e+01 0.0 
-2.133145359507e+01 -1.099986205016e+02 0.0 
0.0 0.0 -4.392536680591e+01 
-9.495517627471e+01 2.704556899686e+00 0.0 
2.704556899686e+00 -2.062484270398e+02 0.0 
0.0 0.0 -8.996108099436e+01 
-3.769760380716e+01 2.824130382507e+01 0.0 
2.824130382507e+01 -7.593176342418e+01 0.0 
0.0 0.0 -3.368881016940e+01 
-3.828334514691e+01 2.786615273682e+01 0.0 
2.786615273682e+01 -7.542219168997e+01 0.0 
0.0 0.0 -3.371166105106e+01 
-3.729709015715e+01 2.860328009884e+01 0.0 
2.860328009884e+01 -7.659249032244e+01 0.0 
0.0 0.0 -3.346609993114e+01 
-1.561828788944e+02 2.447176435895e-01 0.0 
2.447176435895e-01 -3.693459310549e+02 0.0 
0.0 0.0 -1.572586429848e+02 
-4.554897879532e+01 4.437665750690e-02 0.0 
4.437665750690e-02 -7.476827241602e+01 0.0 
0.0 0.0 -3.569517536340e+01 
-1.464566805948e+02 6.390508153375e-01 0.0 
6.390508153375e-01 -3.496677731752e+02 0.0 
0.0 0.0 -1.484373361310e+02 
-5.918322301424e+01 2.764043101986e+01 0.0 
2.764043101986e+01 -1.177372127692e+02 0.0 
0.0 0.0 -5.267613073503e+01 
-9.846948490904e+01 3.704503848983e+00 0.0 
3.704503848983e+00 -2.162135706548e+02 0.0 
0.0 0.0 -9.400491666914e+01 
-8.945356945066e+01 2.240982799639e+01 0.0 
2.240982799639e+01 -2.514806768404e+02 0.0 
0.0 0.0 -1.018802738873e+02 
-5.285953204879e+01 2.689682337615e+01 0.0 
2.689682337615e+01 -1.506631304529e+02 0.0 
0.0 0.0 -6.065679875050e+01 
-1.185607102556e+02 8.363424495830e+00 0.0 
8.363424495830e+00 -3.189638760837e+02 0.0 
0.0 0.0 -1.308573759018e+02 
-9.117977650167e+01 1.816223355936e+00 0.0 
1.816223355936e+00 -1.952947597950e+02 0.0 
0.0 0.0 -8.554236088899e+01 
-9.821283898337e+01 2.086468261242e+00 0.0 
2.086468261242e+00 -2.176521358690e+02 0.0 
0.0 0.0 -9.435949245570e+01 
-6.448713671971e+01 2.617897242147e+00 0.0 
2.617897242147e+00 -1.100793804919e+02 0.0 
0.0 0.0 -5.196995516349e+01 
-5.934094732654e+01 1.797277267099e+00 0.0 
1.797277267099e+00 -1.000506952717e+02 0.0 
0.0 0.0 -4.741749277947e+01 
-6.916958773728e+01 3.797227873634e+00 0.0 
3.797227873634e+00 -1.192307090575e+02 0.0 
0.0 0.0 -5.612008903845e+01 
-2.923092095022e+01 1.758258844642e+01 0.0 
1.758258844642e+01 -1.219987219663e+02 0.0 
0.0 0.0 -4.590932949181e+01 
-3.161657706322e+01 2.301292354428e+01 0.0 
2.301292354428e+01 -1.084719317939e+02 0.0 
0.0 0.0 -4.302946388323e+01 
-9.201552993223e+01 4.583554734067e+00 0.0 
4.583554734067e+00 -1.935700576953e+02 0.0 
0.0 0.0 -8.527567628827e+01 
-5.785407064488e+01 -3.682489669079e+00 0.0 
-3.682489669079e+00 -1.435660255909e+02 0.0 
0.0 0.0 -6.002602887073e+01 
-6.202627585769e+01 -2.856435810932e+00 0.0 
-2.856435810932e+00 -1.541238590531e+02 0.0 
0.0 0.0 -6.444504047323e+01 
-4.185118426947e+01 -1.045157960883e+01 0.0 
-1.045157960883e+01 -9.691651019771e+01 0.0 
0.0 0.0 -4.122222973824e+01 
-4.760462552327e+01 -1.089178003566e+01 0.0 
-1.089178003566e+01 -1.181094895491e+02 0.0 
0.0 0.0 -4.931423452173e+01 
-8.974476337127e+01 -3.270685165750e+00 0.0 
-3.270685165750e+00 -2.283241403063e+02 0.0 
0.0 0.0 -9.502067110326e+01 
-8.550088353605e+01 -4.132859584268e+00 0.0 
-4.132859584268e+00 -2.205546085705e+02 0.0 
0.0 0.0 -9.141664763196e+01 
-1.005262656173e+02 2.674392718240e+01 0.0 
2.674392718240e+01 -2.209095950342e+02 0.0 
0.0 0.0 -9.603075819545e+01 
-1.041784322830e+02 2.627194358022e+01 0.0 
2.627194358022e+01 -2.250370200312e+02 0.0 
0.0 0.0 -9.836463569427e+01 
-9.217829684768e+01 2.733217601358e+01 0.0 
2.733217601358e+01 -2.140162087701e+02 0.0 
0.0 0.0 -9.145835168532e+01 
-9.827009102024e+01 5.018969020328e+00 0.0 
5.018969020328e+00 -2.828661680749e+02 0.0 
0.0 0.0 -1.139408777285e+02 
-8.906944478251e+01 3.263825316946e+00 0.0 
3.263825316946e+00 -2.653464974969e+02 0.0 
0.0 0.0 -1.059247826838e+02 
-8.357499251725e+01 4.309888511458e+00 0.0 
4.309888511458e+00 -2.571532513471e+02 0.0 
0.0 0.0 -1.018184731593e+02 
-9.881486883588e+01 7.178945087071e+00 0.0 
7.178945087071e+00 -2.123505372160e+02 0.0 
0.0 0.0 -9.294962181556e+01 
-1.022445942829e+02 6.689298951154e+00 0.0 
6.689298951154e+00 -2.257302980767e+02 0.0 
0.0 0.0 -9.799246770788e+01 
-5.512808841354e+01 -1.042095186062e+01 0.0 
-1.042095186062e+01 -1.749812381450e+02 0.0 
0.0 0.0 -6.863279796756e+01 
-5.041998170087e+01 -1.043997083948e+01 0.0 
-1.043997083948e+01 -1.702686237803e+02 0.0 
0.0 0.0 -6.580658164435e+01 
-5.802276073753e+01 -1.095267635871e+01 0.0 
-1.095267635871e+01 -1.667373426601e+02 0.0 
0.0 0.0 -6.702803101930e+01 
-1.039772786533e+02 1.099749395641e+01 0.0 
1.099749395641e+01 -2.227263126709e+02 0.0 
0.0 0.0 -9.761107739726e+01 
-1.511171196024e+02 9.979516962733e-01 0.0 
9.979516962733e-01 -3.601179774394e+02 0.0 
0.0 0.0 -1.529705291125e+02 
-1.466929008048e+02 1.306069592611e+00 0.0 
1.306069592611e+00 -3.519815499043e+02 0.0 
0.0 0.0 -1.492023352127e+02 
-2.161470763074e+01 -3.654718808256e+00 0.0 
-3.654718808256e+00 -4.852445587939e+01 0.0 
0.0 0.0 -2.063965408713e+01 
-2.855271521057e+01 -5.889427309594e+00 0.0 
-5.889427309594e+00 -6.054862050464e+01 0.0 
0.0 0.0 -2.623486372523e+01 
-3.755826895778e+01 2.944052418851e+01 0.0 
2.944052418851e+01 -8.024117848853e+01 0.0 
0.0 0.0 -3.394977860002e+01 
-3.683657820717e+01 3.008600230426e+01 0.0 
3.008600230426e+01 -8.445367622891e+01 0.0 
0.0 0.0 -3.588180490356e+01 
-1.070801584869e+02 1.633513667389e+01 0.0 
1.633513667389e+01 -2.252335424860e+02 0.0 
0.0 0.0 -9.929411029188e+01 
-1.058354775223e+02 1.709062993782e+01 0.0 
1.709062993782e+01 -2.171088985399e+02 0.0 
0.0 0.0 -9.648331281867e+01 
-1.092858788276e+02 1.578014984455e+01 0.0 
1.578014984455e+01 -2.363191670079e+02 0.0 
0.0 0.0 -1.032815137507e+02 
-4.223604683813e+01 -1.263506535459e+00 0.0 
-1.263506535459e+00 -1.061088579682e+02 0.0 
0.0 0.0 -4.410347144191e+01 
-1.032747004732e+02 2.423176710819e+01 0.0 
2.423176710819e+01 -2.729306658787e+02 0.0 
0.0 0.0 -1.124616099056e+02 
-1.401350934372e+02 1.116402576720e+01 0.0 
1.116402576720e+01 -3.537387012307e+02 0.0 
0.0 0.0 -1.477621384003e+02 
-1.336384926635e+02 1.212017602578e+01 0.0 
1.212017602578e+01 -3.443744642310e+02 0.0 
0.0 0.0 -1.430038870683e+02 
-1.477200668778e+02 1.034254596479e+01 0.0 
1.034254596479e+01 -3.650426315629e+02 0.0 
0.0 0.0 -1.534288095322e+02 
-1.186569432129e+02 2.411738026126e+01 0.0 
2.411738026126e+01 -3.057911046002e+02 0.0 
0.0 0.0 -1.269344143439e+02 
-1.289443601673e+02 2.506857520176e+01 0.0 
2.506857520176e+01 -3.234692831684e+02 0.0 
0.0 0.0 -1.353240930007e+02 
-1.273303257143e+02 2.724098999827e+01 0.0 
2.724098999827e+01 -3.133258305424e+02 0.0 
0.0 0.0 -1.317968468770e+02 
-4.055927172313e+01 9.426323519837e-01 0.0 
9.426323519837e-01 -1.214762184355e+02 0.0 
0.0 0.0 -5.044790665736e+01 
-9.574545986580e+01 1.415552497012e+00 0.0 
1.415552497012e+00 -2.103980706638e+02 0.0 
0.0 0.0 -9.144305915888e+01 
-5.848308105164e+01 1.209723538290e+00 0.0 
1.209723538290e+00 -1.012621435194e+02 0.0 
0.0 0.0 -4.752356737132e+01 
-5.101261618782e+01 -7.176403278984e+00 0.0 
-7.176403278984e+00 -1.168078063930e+02 0.0 
0.0 0.0 -5.178842530813e+01 
-5.425038139748e+01 7.337596079355e-01 0.0 
7.337596079355e-01 -9.229736587808e+01 0.0 
0.0 0.0 -4.356432418267e+01 
-5.848654638734e+01 8.814008934208e-01 0.0 
8.814008934208e-01 -1.036605317786e+02 0.0 
0.0 0.0 -4.824412344977e+01 
-4.956376158298e+01 4.046554295225e-01 0.0 
4.046554295225e-01 -8.218927090734e+01 0.0 
0.0 0.0 -3.912590974710e+01 
-3.354963847879e+01 -1.114410514893e+00 0.0 
-1.114410514893e+00 -8.638328223841e+01 0.0 
0.0 0.0 -3.557987621516e+01 
-5.930827835168e+01 2.363701857408e+00 0.0 
2.363701857408e+00 -9.598997015441e+01 0.0 
0.0 0.0 -4.618947455183e+01 
-6.584695539842e+01 3.861309541178e+00 0.0 
3.861309541178e+00 -1.087475543116e+02 0.0 
0.0 0.0 -5.197835291301e+01 
-1.793955740149e+01 -3.258825029806e+00 0.0 
-3.258825029806e+00 -3.694163944714e+01 0.0 
0.0 0.0 -1.610036481560e+01 
-1.056654165572e+02 1.023565963642e+01 0.0 
1.023565963642e+01 -2.326823838426e+02 0.0 
0.0 0.0 -1.011043401200e+02 
-1.502154273997e+01 -2.090254726013e+00 0.0 
-2.090254726013e+00 -3.775504829841e+01 0.0 
0.0 0.0 -1.543297731151e+01 
-1.780032188849e+01 -2.200129138542e+00 0.0 
-2.200129138542e+00 -4.565207397194e+01 0.0 
0.0 0.0 -1.863571875813e+01 
-1.473894373232e+02 5.070213604116e+00 0.0 
5.070213604116e+00 -3.607019729347e+02 0.0 
0.0 0.0 -1.520274230774e+02 
-1.422368598886e+02 3.788046219271e+00 0.0 
3.788046219271e+00 -3.501761474407e+02 0.0 
0.0 0.0 -1.473239021988e+02 
-1.522282903601e+02 4.525607962719e+00 0.0 
4.525607962719e+00 -3.680328788323e+02 0.0 
0.0 0.0 -1.556783507577e+02 
-1.470062607809e+02 3.352355113465e+00 0.0 
3.352355113465e+00 -3.573671448111e+02 0.0 
0.0 0.0 -1.509120216776e+02 
-1.373830398302e+02 2.658036739298e+00 0.0 
2.658036739298e+00 -3.393808814993e+02 0.0 
0.0 0.0 -1.426291763988e+02 
-1.425012712592e+02 2.418210051017e+00 0.0 
2.418210051017e+00 -3.474917547409e+02 0.0 
0.0 0.0 -1.465979078000e+02 
-5.431552955935e+01 1.086188402892e+00 0.0 
1.086188402892e+00 -9.012676588311e+01 0.0 
0.0 0.0 -4.293268863274e+01 
-1.534555005631e+02 3.084856393718e+00 0.0 
3.084856393718e+00 -3.681149201981e+02 0.0 
0.0 0.0 -1.560711262284e+02 
-1.476363141530e+02 2.158636757133e+00 0.0 
2.158636757133e+00 -3.558602673355e+02 0.0 
0.0 0.0 -1.506489744466e+02 
-1.582286877908e+02 2.592111752310e+00 0.0 
2.592111752310e+00 -3.765902618281e+02 0.0 
0.0 0.0 -1.600456848857e+02 
-4.809298915117e+01 2.031662721057e+01 0.0 
2.031662721057e+01 -5.984735942462e+01 0.0 
0.0 0.0 -3.198210457274e+01 
-4.108634205636e+01 2.825895998000e+01 0.0 
2.825895998000e+01 -9.486558592607e+01 0.0 
0.0 0.0 -4.038557839473e+01 
-3.924514029446e+01 2.757536354378e+01 0.0 
2.757536354378e+01 -7.535935960478e+01 0.0 
0.0 0.0 -3.398134996977e+01 
-3.669224552744e+01 2.646263123918e+01 0.0 
2.646263123918e+01 -5.408066361458e+01 0.0 
0.0 0.0 -2.683187274261e+01 
-1.235157027194e+02 2.958390323599e+01 0.0 
2.958390323599e+01 -2.830854831840e+02 0.0 
0.0 0.0 -1.215803557710e+02 
-1.180108426880e+02 2.798744571779e+01 0.0 
2.798744571779e+01 -2.644571208166e+02 0.0 
0.0 0.0 -1.143403890514e+02 
-1.325704912931e+02 1.207919648823e-01 0.0 
1.207919648823e-01 -3.199016308045e+02 0.0 
0.0 0.0 -1.353416366293e+02 
-1.235520306691e+02 -1.380877170671e-01 0.0 
-1.380877170671e-01 -3.002319493581e+02 0.0 
0.0 0.0 -1.267351940082e+02 
-5.378874955044e+01 4.441990286528e-01 0.0 
4.441990286528e-01 -9.340453944902e+01 0.0 
0.0 0.0 -4.375798669984e+01 
-5.302989215566e+01 3.451917888995e-01 0.0 
3.451917888995e-01 -9.235865664642e+01 0.0 
0.0 0.0 -4.321656464062e+01 
-6.036799957724e+01 5.177310784034e-01 0.0 
5.177310784034e-01 -1.102775823990e+02 0.0 
0.0 0.0 -5.079367459288e+01 
-5.908720331418e+01 4.613637173576e-01 0.0 
4.613637173576e-01 -1.078475200611e+02 0.0 
0.0 0.0 -4.968041701258e+01 
-6.625918132029e+01 6.486981307430e-01 0.0 
6.486981307430e-01 -1.259260605750e+02 0.0 
0.0 0.0 -5.725557256860e+01 
-6.504066095550e+01 5.377068013866e-01 0.0 
5.377068013866e-01 -1.231802187965e+02 0.0 
0.0 0.0 -5.606626392559e+01 
-7.221142496170e+01 9.645778147803e-01 0.0 
9.645778147803e-01 -1.416892438459e+02 0.0 
0.0 0.0 -6.377020064229e+01 
-1.312239472263e+02 2.903253286230e+01 0.0 
2.903253286230e+01 -3.168490002705e+02 0.0 
0.0 0.0 -1.340218842490e+02 
-3.762706269909e+01 2.800961402282e+01 0.0 
2.800961402282e+01 -5.662023416633e+01 0.0 
0.0 0.0 -2.753949941314e+01 
-5.474375788834e+01 1.494929854637e+01 0.0 
1.494929854637e+01 -6.952164604920e+01 0.0 
0.0 0.0 -3.687962118126e+01 
-1.366652958139e+02 2.118441889378e+01 0.0 
2.118441889378e+01 -3.439567085352e+02 0.0 
0.0 0.0 -1.437866013047e+02 
-1.305805969772e+02 1.874599317477e+01 0.0 
1.874599317477e+01 -3.365740474567e+02 0.0 
0.0 0.0 -1.397463933302e+02 
-4.877342589432e+01 2.564343212170e+01 0.0 
2.564343212170e+01 -7.802719654734e+01 0.0 
0.0 0.0 -3.764018673250e+01 
-4.249045018076e+01 2.444176439500e+01 0.0 
2.444176439500e+01 -5.722232929444e+01 0.0 
0.0 0.0 -2.951383384256e+01 
-1.486490476767e+02 7.358423775616e+00 0.0 
7.358423775616e+00 -3.650726895650e+02 0.0 
0.0 0.0 -1.537165211725e+02 
-4.542904034861e+01 2.446321597102e+01 0.0 
2.446321597102e+01 -1.482123178048e+02 0.0 
0.0 0.0 -5.769240744602e+01 
-1.094628588633e+02 1.230555804836e+01 0.0 
1.230555804836e+01 -2.461498013828e+02 0.0 
0.0 0.0 -1.062837980738e+02 
-5.801761751046e+01 2.492222746823e+01 0.0 
2.492222746823e+01 -8.668227647408e+01 0.0 
0.0 0.0 -4.420995205479e+01 
-4.160185550891e+01 2.385045552925e+01 0.0 
2.385045552925e+01 -1.022164871786e+02 0.0 
0.0 0.0 -4.452146330067e+01 
-4.897883382498e+01 2.582336865266e+01 0.0 
2.582336865266e+01 -1.491399453443e+02 0.0 
0.0 0.0 -5.903563375078e+01 
-5.597667244256e+01 2.629187973375e+01 0.0 
2.629187973375e+01 -9.881668001029e+01 0.0 
0.0 0.0 -4.603800573586e+01 
-4.316689713430e+01 2.822823597698e+01 0.0 
2.822823597698e+01 -9.510739381057e+01 0.0 
0.0 0.0 -4.108228728346e+01 
-4.111965541132e+01 2.771947749404e+01 0.0 
2.771947749404e+01 -7.665232960812e+01 0.0 
0.0 0.0 -3.493159550583e+01 
-1.080615249800e+02 6.726360308823e+00 0.0 
6.726360308823e+00 -3.007596575864e+02 0.0 
0.0 0.0 -1.222463547699e+02 
-2.761395121085e+01 -6.553806789502e+00 0.0 
-6.553806789502e+00 -5.330437656390e+01 0.0 
0.0 0.0 -2.355692152179e+01 
-3.758082196816e+01 2.899348083218e+01 0.0 
2.899348083218e+01 -7.808272802130e+01 0.0 
0.0 0.0 -3.336476820114e+01 
-7.350038711070e+01 1.182522168661e+00 0.0 
1.182522168661e+00 -1.439862005008e+02 0.0 
0.0 0.0 -6.484597628346e+01 
-3.951779655347e+01 2.960436525564e+01 0.0 
2.960436525564e+01 -5.915985159651e+01 0.0 
0.0 0.0 -2.772615128799e+01 
-1.284446726348e+02 -1.326835544336e-02 0.0 
-1.326835544336e-02 -3.103808585255e+02 0.0 
0.0 0.0 -1.312476593481e+02 
-4.742130271324e+01 2.176125103979e+01 0.0 
2.176125103979e+01 -1.642874712550e+02 0.0 
0.0 0.0 -6.311263219047e+01 
-6.216255803497e+01 2.825178530323e+01 0.0 
2.825178530323e+01 -1.362278200751e+02 0.0 
0.0 0.0 -5.911711343301e+01 
-3.645055547915e+01 2.793542915196e+01 0.0 
2.793542915196e+01 -9.625030972735e+01 0.0 
0.0 0.0 -3.922785957963e+01 
-4.280253133964e+01 2.783775320303e+01 0.0 
2.783775320303e+01 -1.140067479526e+02 0.0 
0.0 0.0 -4.664278378767e+01 
-7.902219855007e+01 1.941445456729e+01 0.0 
1.941445456729e+01 -1.354885027368e+02 0.0 
0.0 0.0 -6.395321038605e+01 
-6.981378324468e+01 1.310563859146e+01 0.0 
1.310563859146e+01 -1.062088860787e+02 0.0 
0.0 0.0 -5.240680079701e+01 
-6.667837869920e+01 1.476080744701e+01 0.0 
1.476080744701e+01 -9.865859583176e+01 0.0 
0.0 0.0 -4.920109235929e+01 
-4.980919673085e+01 1.857649887960e+01 0.0 
1.857649887960e+01 -1.788350409542e+02 0.0 
0.0 0.0 -6.819327130550e+01 
-4.301590936393e+01 2.734024620473e+01 0.0 
2.734024620473e+01 -7.684524214234e+01 0.0 
0.0 0.0 -3.555834545188e+01 
-3.768519896538e+01 2.585177050845e+01 0.0 
2.585177050845e+01 -5.442515264747e+01 0.0 
0.0 0.0 -2.723310548386e+01 
-7.497343249432e+01 2.524411248580e+01 0.0 
2.524411248580e+01 -1.428514036321e+02 0.0 
0.0 0.0 -6.494745083792e+01 
-9.992105763443e+01 1.534050063862e+01 0.0 
1.534050063862e+01 -1.957637989022e+02 0.0 
0.0 0.0 -8.830545696099e+01 
-1.038356169441e+02 1.766940166515e+01 0.0 
1.766940166515e+01 -2.084557056284e+02 0.0 
0.0 0.0 -9.328739677174e+01 
-1.092882213486e+02 1.932569966078e+01 0.0 
1.932569966078e+01 -2.291761538734e+02 0.0 
0.0 0.0 -1.011393125666e+02 
-1.077386335042e+02 2.000242764716e+01 0.0 
2.000242764716e+01 -2.217443726777e+02 0.0 
0.0 0.0 -9.844490185458e+01 
-1.018423744165e+02 1.843417124436e+01 0.0 
1.843417124436e+01 -2.005076966771e+02 0.0 
0.0 0.0 -9.030502132809e+01 
-1.057626024289e+02 2.077148715089e+01 0.0 
2.077148715089e+01 -2.142282117910e+02 0.0 
0.0 0.0 -9.559724426597e+01 
-1.112847296406e+02 2.217920934466e+01 0.0 
2.217920934466e+01 -2.352629430177e+02 0.0 
0.0 0.0 -1.035643017975e+02 
-1.098256007827e+02 2.297198680454e+01 0.0 
2.297198680454e+01 -2.291351500595e+02 0.0 
0.0 0.0 -1.012882252526e+02 
-1.163161477399e+02 2.482807292179e+01 0.0 
2.482807292179e+01 -2.535857544592e+02 0.0 
0.0 0.0 -1.105705706597e+02 
-1.134954884309e+02 2.510008764783e+01 0.0 
2.510008764783e+01 -2.438184506378e+02 0.0 
0.0 0.0 -1.067941817206e+02 
-1.070224945963e+02 2.359696013358e+01 0.0 
2.359696013358e+01 -2.219017413001e+02 0.0 
0.0 0.0 -9.827727076893e+01 
-1.104953551441e+02 2.535187960126e+01 0.0 
2.535187960126e+01 -2.363653046668e+02 0.0 
0.0 0.0 -1.036581979433e+02 
-1.167439406856e+02 2.681894367286e+01 0.0 
2.681894367286e+01 -2.566434572051e+02 0.0 
0.0 0.0 -1.116162193672e+02 
-1.039771804122e+02 2.430554984702e+01 0.0 
2.430554984702e+01 -2.151786350228e+02 0.0 
0.0 0.0 -9.534674463049e+01 
-1.420728333575e+02 2.349714773415e+01 0.0 
2.349714773415e+01 -3.494309976116e+02 0.0 
0.0 0.0 -1.470511492907e+02 
-5.511454121443e+01 2.519824884851e+01 0.0 
2.519824884851e+01 -1.670552469534e+02 0.0 
0.0 0.0 -6.625093645036e+01 
-3.296567665380e+01 1.264149547740e+01 0.0 
1.264149547740e+01 -1.179855715794e+02 0.0 
0.0 0.0 -4.721906744339e+01 
-3.768645749921e+01 3.143858161521e+01 0.0 
3.143858161521e+01 -9.049925981677e+01 0.0 
0.0 0.0 -3.921177427248e+01 
-6.638854404738e+01 2.761949793977e+01 0.0 
2.761949793977e+01 -1.378347598422e+02 0.0 
0.0 0.0 -6.086699116687e+01 
-1.201494952079e+02 2.570344147091e+01 0.0 
2.570344147091e+01 -2.716951676957e+02 0.0 
0.0 0.0 -1.171533988711e+02 
-1.165869968727e+02 2.164842806026e+01 0.0 
2.164842806026e+01 -2.620909091534e+02 0.0 
0.0 0.0 -1.132033718078e+02 
-3.879846319402e+01 2.032225387199e+01 0.0 
2.032225387199e+01 -1.474281694401e+02 0.0 
0.0 0.0 -5.546798979022e+01 
-1.315856455346e+02 3.171070809331e+01 0.0 
3.171070809331e+01 -3.059755148354e+02 0.0 
0.0 0.0 -1.308683481110e+02 
-7.138232247239e+01 1.829027851075e+01 0.0 
1.829027851075e+01 -1.137116179735e+02 0.0 
0.0 0.0 -5.512818213376e+01 
-3.004915124808e+01 1.468016806669e+01 0.0 
1.468016806669e+01 -1.336151403350e+02 0.0 
0.0 0.0 -4.913200516527e+01 
-1.364849809404e+02 3.181576065703e+01 0.0 
3.181576065703e+01 -3.214077313089e+02 0.0 
0.0 0.0 -1.369678136748e+02 
-9.779168684039e+01 1.602664045477e+01 0.0 
1.602664045477e+01 -1.871802808178e+02 0.0 
0.0 0.0 -8.509159029747e+01 
-9.535053234753e+01 1.684915185671e+01 0.0 
1.684915185671e+01 -1.787784643666e+02 0.0 
0.0 0.0 -8.183869901425e+01 
-9.107947791140e+01 1.435002245090e+01 0.0 
1.435002245090e+01 -1.656748320109e+02 0.0 
0.0 0.0 -7.662629297668e+01 
-1.139163385615e+02 1.805440502229e+01 0.0 
1.805440502229e+01 -2.564050904376e+02 0.0 
0.0 0.0 -1.106964286997e+02 
-7.420161125964e+01 5.285809775153e+00 0.0 
5.285809775153e+00 -1.293989267305e+02 0.0 
0.0 0.0 -6.068016139704e+01 
-1.458533737554e+02 2.808327813112e+01 0.0 
2.808327813112e+01 -3.494919987877e+02 0.0 
0.0 0.0 -1.482036117629e+02 
-8.509794524143e+01 1.644998541643e+01 0.0 
1.644998541643e+01 -2.569736319454e+02 0.0 
0.0 0.0 -1.022214731561e+02 
-8.049744225755e+01 1.841293313566e+01 0.0 
1.841293313566e+01 -2.443271381894e+02 0.0 
0.0 0.0 -9.704737413409e+01 
-7.196631995718e+01 1.815556342332e+01 0.0 
1.815556342332e+01 -2.275069936912e+02 0.0 
0.0 0.0 -8.944199409453e+01 
-1.032940039346e+02 2.152410236321e+01 0.0 
2.152410236321e+01 -2.069525180353e+02 0.0 
0.0 0.0 -9.267395659095e+01 
-1.526540914879e+02 2.025145906357e+01 0.0 
2.025145906357e+01 -3.692119140310e+02 0.0 
0.0 0.0 -1.561598016557e+02 
-1.431295361946e+02 1.791913095493e+01 0.0 
1.791913095493e+01 -3.569635762773e+02 0.0 
0.0 0.0 -1.496279337415e+02 
-1.446361151019e+02 1.607177325033e+01 0.0 
1.607177325033e+01 -3.600018386720e+02 0.0 
0.0 0.0 -1.509913861322e+02 
-1.331916376370e+02 1.563481722115e+01 0.0 
1.563481722115e+01 -3.429610691452e+02 0.0 
0.0 0.0 -1.424458120347e+02 
-1.556994947345e+02 1.609364374152e+01 0.0 
1.609364374152e+01 -3.758909348942e+02 0.0 
0.0 0.0 -1.590771288886e+02 
-1.249523037262e+02 2.901975960299e+01 0.0 
2.901975960299e+01 -2.856221697223e+02 0.0 
0.0 0.0 -1.227723420346e+02 
-1.272537516712e+02 3.030853515460e+01 0.0 
3.030853515460e+01 -2.928136134848e+02 0.0 
0.0 0.0 -1.256202095468e+02 
-4.529383658216e+01 -1.318586015192e+01 0.0 
-1.318586015192e+01 -1.531076053590e+02 0.0 
0.0 0.0 -5.912043258233e+01 
-4.559205213878e+01 -9.669439141190e+00 0.0 
-9.669439141190e+00 -1.660233154501e+02 0.0 
0.0 0.0 -6.308461027665e+01 
-5.134461998167e+01 -7.062030190789e+00 0.0 
-7.062030190789e+00 -1.820581637746e+02 0.0 
0.0 0.0 -6.962083512688e+01 
-4.642183153949e+01 -5.332447189929e+00 0.0 
-5.332447189929e+00 -1.768922706914e+02 0.0 
0.0 0.0 -6.659423066925e+01 
-4.072228839408e+01 -7.774651896306e+00 0.0 
-7.774651896306e+00 -1.619290073073e+02 0.0 
0.0 0.0 -6.039538871043e+01 
-4.168757685567e+01 -2.494459954552e+00 0.0 
-2.494459954552e+00 -1.712949820935e+02 0.0 
0.0 0.0 -6.349476768474e+01 
-4.790958444864e+01 -6.860522512115e-01 0.0 
-6.860522512115e-01 -1.857208485472e+02 0.0 
0.0 0.0 -6.968912989876e+01 
-3.743404831647e+01 1.617673292438e+00 0.0 
1.617673292438e+00 -1.647704943930e+02 0.0 
0.0 0.0 -6.026136281284e+01 
-1.113535193943e+02 2.701297271485e+01 0.0 
2.701297271485e+01 -2.451971711789e+02 0.0 
0.0 0.0 -1.065652071720e+02 
-1.583074859757e+02 1.219347212377e+01 0.0 
1.219347212377e+01 -3.806099394355e+02 0.0 
0.0 0.0 -1.612752276234e+02 
-9.714632021428e+01 1.968833287490e-01 0.0 
1.968833287490e-01 -2.714594217983e+02 0.0 
0.0 0.0 -1.101817226038e+02 
-9.153170658790e+01 3.419323675613e-01 0.0 
3.419323675613e-01 -2.636605935387e+02 0.0 
0.0 0.0 -1.061576900380e+02 
-8.311090739509e+01 -1.628252271475e+00 0.0 
-1.628252271475e+00 -2.457166014957e+02 0.0 
0.0 0.0 -9.824825266723e+01 
-7.777186184957e+01 -5.058270722107e+00 0.0 
-5.058270722107e+00 -2.005975270029e+02 0.0 
0.0 0.0 -8.311081665575e+01 
-8.123893510380e+01 -5.071083972105e+00 0.0 
-5.071083972105e+00 -2.129176557427e+02 0.0 
0.0 0.0 -8.784697725397e+01 
-8.902512996429e+01 -3.905621447571e+00 0.0 
-3.905621447571e+00 -2.326391323092e+02 0.0 
0.0 0.0 -9.609927868205e+01 
-7.404399954057e+01 -4.756777434180e+00 0.0 
-4.756777434180e+00 -1.882693785220e+02 0.0 
0.0 0.0 -7.829401341877e+01 
-9.478865777204e+01 2.610496002719e+01 0.0 
2.610496002719e+01 -2.431476637064e+02 0.0 
0.0 0.0 -1.009808964435e+02 
-1.591403996833e+02 1.052391264410e+01 0.0 
1.052391264410e+01 -3.818070872226e+02 0.0 
0.0 0.0 -1.618842460718e+02 
-8.709396435488e+01 7.241258514528e+00 0.0 
7.241258514528e+00 -2.653867646648e+02 0.0 
0.0 0.0 -1.053442187059e+02 
-7.693968978644e+01 -6.082531039676e+00 0.0 
-6.082531039676e+00 -2.054445257772e+02 0.0 
0.0 0.0 -8.431526466910e+01 
-5.336609891357e+01 2.745798756180e+00 0.0 
2.745798756180e+00 -7.768953457787e+01 0.0 
0.0 0.0 -3.891669004743e+01 
-6.263687037534e+01 4.744168631378e+00 0.0 
4.744168631378e+00 -9.617101984160e+01 0.0 
0.0 0.0 -4.724236706508e+01 
-6.482663777083e+01 6.442371794736e+00 0.0 
6.442371794736e+00 -9.793611343048e+01 0.0 
0.0 0.0 -4.842882536039e+01 
-7.241742629206e+01 7.470190949372e+00 0.0 
7.470190949372e+00 -1.170603005295e+02 0.0 
0.0 0.0 -5.644331804646e+01 
-6.183128613853e+01 3.886126880454e+00 0.0 
3.886126880454e+00 -9.695682730343e+01 0.0 
0.0 0.0 -4.723643403259e+01 
-9.392208922270e+01 -2.486051257587e+00 0.0 
-2.486051257587e+00 -2.362635606517e+02 0.0 
0.0 0.0 -9.865569496233e+01 
-9.804093875260e+01 -1.798835989552e+00 0.0 
-1.798835989552e+00 -2.443306463513e+02 0.0 
0.0 0.0 -1.023114755312e+02 
-9.388974734518e+01 -1.667962969830e+00 0.0 
-1.667962969830e+00 -2.329261976261e+02 0.0 
0.0 0.0 -9.764478349139e+01 
-1.021279433547e+02 -1.207079600941e+00 0.0 
-1.207079600941e+00 -2.524972029025e+02 0.0 
0.0 0.0 -1.059875438772e+02 
-9.766800410895e+01 -1.013957840362e+00 0.0 
-1.013957840362e+00 -2.408111461139e+02 0.0 
0.0 0.0 -1.011437450669e+02 
-9.011586451110e+01 -1.326204026611e+00 0.0 
-1.326204026611e+00 -2.225725010747e+02 0.0 
0.0 0.0 -9.340650967573e+01 
-1.060410507339e+02 -6.841149021367e-01 0.0 
-6.841149021367e-01 -2.603880595790e+02 0.0 
0.0 0.0 -1.095287330939e+02 
-1.008102017701e+02 -6.071770101197e-01 0.0 
-6.071770101197e-01 -2.475568306981e+02 0.0 
0.0 0.0 -1.041101097405e+02 
-5.074404393942e+01 1.420965984778e+00 0.0 
1.420965984778e+00 -7.641875888819e+01 0.0 
0.0 0.0 -3.774884084828e+01 
-4.367159667585e+01 -2.165815184915e+01 0.0 
-2.165815184915e+01 -4.790878219844e+01 0.0 
0.0 0.0 -2.782283159009e+01 
-4.038331261470e+01 -2.378076745733e+01 0.0 
-2.378076745733e+01 -5.722547554219e+01 0.0 
0.0 0.0 -2.896887911246e+01 
-3.421601714688e+01 -1.561356096925e+01 0.0 
-1.561356096925e+01 -4.286978939764e+01 0.0 
0.0 0.0 -2.213470905481e+01 
-3.998504153400e+01 -2.214592251828e+01 0.0 
-2.214592251828e+01 -7.023464086029e+01 0.0 
0.0 0.0 -3.193546218240e+01 
-3.834366584667e+01 -2.517767538400e+01 0.0 
-2.517767538400e+01 -8.780811496162e+01 0.0 
0.0 0.0 -3.759233905407e+01 
-3.950211864834e+01 -2.206871593880e+01 0.0 
-2.206871593880e+01 -9.822320926981e+01 0.0 
0.0 0.0 -4.023356121951e+01 
-3.568033868310e+01 -2.207805171043e+01 0.0 
-2.207805171043e+01 -1.092504182843e+02 0.0 
0.0 0.0 -4.328362457295e+01 
-4.161269764319e+01 -2.705732906091e+01 0.0 
-2.705732906091e+01 -8.423263461983e+01 0.0 
0.0 0.0 -3.833698511138e+01 
-2.070163518528e+01 -5.810070755621e+00 0.0 
-5.810070755621e+00 -1.965138176783e+01 0.0 
0.0 0.0 -1.180942998251e+01 
-2.782056323398e+01 -9.806270315167e+00 0.0 
-9.806270315167e+00 -3.779674652118e+01 0.0 
0.0 0.0 -1.864028107723e+01 
-1.450296985551e+01 -3.130278516685e+00 0.0 
-3.130278516685e+00 -1.769708045169e+01 0.0 
0.0 0.0 -9.142833532526e+00 
-2.241205752485e+01 -6.141914155951e+00 0.0 
-6.141914155951e+00 -3.501534179902e+01 0.0 
0.0 0.0 -1.653072296526e+01 
-3.398744942895e+01 -1.163519706906e+01 0.0 
-1.163519706906e+01 -5.824058721024e+01 0.0 
0.0 0.0 -2.602954428752e+01 
-3.663580124501e+01 -7.871872236366e+00 0.0 
-7.871872236366e+00 -8.222382218317e+01 0.0 
0.0 0.0 -3.524395598659e+01 
-1.610978131830e+02 1.216572970354e+00 0.0 
1.216572970354e+00 -3.804327721263e+02 0.0 
0.0 0.0 -1.620591755928e+02 
-7.758596042217e+01 -6.682733137295e-01 0.0 
-6.682733137295e-01 -1.912924163027e+02 0.0 
0.0 0.0 -8.026351301746e+01 
-7.349869454200e+01 -1.414657424117e+00 0.0 
-1.414657424117e+00 -1.816635538841e+02 0.0 
0.0 0.0 -7.614867452783e+01 
-6.570714586857e+01 -1.462714750533e+00 0.0 
-1.462714750533e+00 -1.620702227854e+02 0.0 
0.0 0.0 -6.793321059619e+01 
-6.986515681506e+01 -2.100410317622e+00 0.0 
-2.100410317622e+00 -1.729570786308e+02 0.0 
0.0 0.0 -7.244667063375e+01 
-8.065709306261e+01 -1.281554768295e+00 0.0 
-1.281554768295e+00 -1.994285770367e+02 0.0 
0.0 0.0 -8.362570102980e+01 
-6.128297884627e+01 -7.483250907716e-01 0.0 
-7.483250907716e-01 -1.511706968186e+02 0.0 
0.0 0.0 -6.333610269946e+01 
-5.833084998800e+01 -1.463802844391e+00 0.0 
-1.463802844391e+00 -1.440437125537e+02 0.0 
0.0 0.0 -6.031236876251e+01 
-2.518310414748e+00 -2.283870649659e-01 0.0 
-2.283870649659e-01 -1.719049854918e+01 0.0 
0.0 0.0 -5.151735978817e+00 
-8.746330228950e+00 -3.457364377616e-01 0.0 
-3.457364377616e-01 -3.379643745372e+01 0.0 
0.0 0.0 -1.228050644968e+01 
-7.974516140982e+00 -2.329215991086e-01 0.0 
-2.329215991086e-01 -3.214338284834e+01 0.0 
0.0 0.0 -1.145947762144e+01 
-1.655126554206e+01 -5.376680166468e-01 0.0 
-5.376680166468e-01 -5.064325280225e+01 0.0 
0.0 0.0 -1.975835550329e+01 
-1.685528520741e+01 -7.834578424880e-01 0.0 
-7.834578424880e-01 -5.032153176353e+01 0.0 
0.0 0.0 -1.975304509128e+01 
-9.304998160450e+00 -6.099967013143e-01 0.0 
-6.099967013143e-01 -3.411930090245e+01 0.0 
0.0 0.0 -1.257190572954e+01 
-9.753057791024e+00 -8.371561796518e-01 0.0 
-8.371561796518e-01 -3.412093518050e+01 0.0 
0.0 0.0 -1.273958584111e+01 
-3.257294742724e+00 -4.373101932659e-01 0.0 
-4.373101932659e-01 -1.704064552294e+01 0.0 
0.0 0.0 -5.411541145517e+00 
-1.029749452301e+01 -9.800959974783e-01 0.0 
-9.800959974783e-01 -3.394784810166e+01 0.0 
0.0 0.0 -1.293284418708e+01 
-1.836586623126e+01 -1.575027866646e+00 0.0 
-1.575027866646e+00 -5.117064706127e+01 0.0 
0.0 0.0 -2.046095398776e+01 
-3.640230627975e+00 -4.876818940426e-01 0.0 
-4.876818940426e-01 -1.646273450252e+01 0.0 
0.0 0.0 -5.443777397243e+00 
-8.147120212932e+01 5.992419994085e-01 0.0 
5.992419994085e-01 -1.681372465171e+02 0.0 
0.0 0.0 -7.448253459391e+01 
-8.524916915167e+01 1.164969105617e+00 0.0 
1.164969105617e+00 -1.790657810335e+02 0.0 
0.0 0.0 -7.889448505555e+01 
-1.598060166268e+02 7.439153853051e+00 0.0 
7.439153853051e+00 -3.823707049702e+02 0.0 
0.0 0.0 -1.622530164791e+02 
-4.975396185310e+01 8.895645138448e-01 0.0 
8.895645138448e-01 -7.809747403684e+01 0.0 
0.0 0.0 -3.795543076698e+01 
-8.635361025333e+00 -1.331154296617e+00 0.0 
-1.331154296617e+00 -1.746818578733e+01 0.0 
0.0 0.0 -7.681172213379e+00 
-1.053178668519e+02 4.276616063549e+00 0.0 
4.276616063549e+00 -2.399172302803e+02 0.0 
0.0 0.0 -1.031705291397e+02 
-1.077782668936e+02 7.999020949889e+00 0.0 
7.999020949889e+00 -2.449569194522e+02 0.0 
0.0 0.0 -1.054205559037e+02 
-1.072951973356e+02 6.675040464325e+00 0.0 
6.675040464325e+00 -2.445832504111e+02 0.0 
0.0 0.0 -1.051635343240e+02 
-1.468801497932e+02 1.683754607546e-01 0.0 
1.683754607546e-01 -3.499556006243e+02 0.0 
0.0 0.0 -1.486507251253e+02 
-1.514532152865e+02 4.618077078473e-01 0.0 
4.618077078473e-01 -3.596852390859e+02 0.0 
0.0 0.0 -1.529415363117e+02 
-1.049124118858e+02 2.366391176330e+00 0.0 
2.366391176330e+00 -2.399997227010e+02 0.0 
0.0 0.0 -1.030736403760e+02 
-5.257086762038e+01 -7.953659627423e+00 0.0 
-7.953659627423e+00 -1.315005994087e+02 0.0 
0.0 0.0 -5.482144010872e+01 
-1.133683621107e+02 2.164697155735e+01 0.0 
2.164697155735e+01 -2.424462178736e+02 0.0 
0.0 0.0 -1.063443739953e+02 
-9.495500947604e+01 4.175981950964e+00 0.0 
4.175981950964e+00 -2.045288229618e+02 0.0 
0.0 0.0 -8.944514973137e+01 
-3.154555460430e+01 2.164885940974e+01 0.0 
2.164885940974e+01 -1.193370873452e+02 0.0 
0.0 0.0 -4.513540773225e+01 
-5.056274935873e+01 -1.219274635490e+01 0.0 
-1.219274635490e+01 -1.328973863039e+02 0.0 
0.0 0.0 -5.463804069880e+01 
-1.192140480419e+02 -3.512537006180e-01 0.0 
-3.512537006180e-01 -2.914716986917e+02 0.0 
0.0 0.0 -1.228057240201e+02 
-1.055157111900e+02 -1.507163977351e+00 0.0 
-1.507163977351e+00 -2.713556469208e+02 0.0 
0.0 0.0 -1.126614074332e+02 
-1.374569873763e+02 8.326211721269e-01 0.0 
8.326211721269e-01 -3.331334199030e+02 0.0 
0.0 0.0 -1.407771221838e+02 
-1.105678842344e+02 -1.055364832820e+00 0.0 
-1.055364832820e+00 -2.752249095950e+02 0.0 
0.0 0.0 -1.153378381488e+02 
-1.282660692376e+02 8.098892749893e-01 0.0 
8.098892749893e-01 -3.174270646776e+02 0.0 
0.0 0.0 -1.333079401745e+02 
-1.452459060848e+02 1.368902781913e+01 0.0 
1.368902781913e+01 -3.616643376262e+02 0.0 
0.0 0.0 -1.516730731133e+02 
-3.095126400099e+01 -1.518071870281e+00 0.0 
-1.518071870281e+00 -7.978707616298e+01 0.0 
0.0 0.0 -3.282150204919e+01 
-7.138340537179e+01 2.876842881651e+00 0.0 
2.876842881651e+00 -1.313184450396e+02 0.0 
0.0 0.0 -6.041055512340e+01 
-6.653474439868e+01 1.439685351679e+00 0.0 
1.439685351679e+00 -1.237223178928e+02 0.0 
0.0 0.0 -5.667711868744e+01 
-8.532860047595e+01 3.772292973811e+00 0.0 
3.772292973811e+00 -1.732835995011e+02 0.0 
0.0 0.0 -7.718365999311e+01 
-5.442371470101e+01 -4.581796356412e+00 0.0 
-4.581796356412e+00 -1.350215914907e+02 0.0 
0.0 0.0 -5.643359185752e+01 
-8.602367291641e+01 -2.031177925074e+00 0.0 
-2.031177925074e+00 -2.137212286283e+02 0.0 
0.0 0.0 -8.952347046342e+01 
-3.531563107285e+01 -4.427697920400e+00 0.0 
-4.427697920400e+00 -8.552194767297e+01 0.0 
0.0 0.0 -3.585127362374e+01 
-1.284655044889e+02 3.027684361656e+01 0.0 
3.027684361656e+01 -3.023907909819e+02 0.0 
0.0 0.0 -1.288568886412e+02 
-6.746474002503e+01 2.507506191535e+01 0.0 
2.507506191535e+01 -1.218378562924e+02 0.0 
0.0 0.0 -5.639077889523e+01 
-8.045617665366e+01 -3.660589163924e+00 0.0 
-3.660589163924e+00 -2.347590796031e+02 0.0 
0.0 0.0 -9.416457687704e+01 
-7.026062254018e+01 -5.845604377814e+00 0.0 
-5.845604377814e+00 -1.803574540812e+02 0.0 
0.0 0.0 -7.478542298642e+01 
-5.627039428850e+01 -9.053046031003e+00 0.0 
-9.053046031003e+00 -1.449651045160e+02 0.0 
0.0 0.0 -5.997064964135e+01 
-4.767861857306e+01 -1.402368042220e+01 0.0 
-1.402368042220e+01 -1.273848780161e+02 0.0 
0.0 0.0 -5.211904897674e+01 
-5.929177861707e+01 2.640259650483e+01 0.0 
2.640259650483e+01 -1.686814497788e+02 0.0 
0.0 0.0 -6.799196851877e+01 
-7.992772128035e+01 -5.616875190465e+00 0.0 
-5.616875190465e+00 -2.178450197232e+02 0.0 
0.0 0.0 -8.893182230107e+01 
-1.172704901936e+02 1.747747411777e+00 0.0 
1.747747411777e+00 -3.053600320869e+02 0.0 
0.0 0.0 -1.263891566842e+02 
-8.844407632264e+01 3.532044661713e+00 0.0 
3.532044661713e+00 -1.842488191609e+02 0.0 
0.0 0.0 -8.140786864505e+01 
-6.348786471758e+00 -8.654187244592e-01 0.0 
-8.654187244592e-01 -1.912297620480e+01 0.0 
0.0 0.0 -7.109326612109e+00 
-1.214569629141e+02 3.287265074644e+00 0.0 
3.287265074644e+00 -3.160949004732e+02 0.0 
0.0 0.0 -1.308655590162e+02 
-9.576729671564e+01 -2.505168622527e+00 0.0 
-2.505168622527e+00 -2.563396370971e+02 0.0 
0.0 0.0 -1.052320801438e+02 
-7.736079707382e+01 5.276009724919e+00 0.0 
5.276009724919e+00 -1.400268339744e+02 0.0 
0.0 0.0 -6.481628931446e+01 
-1.097034143986e+02 1.651141026997e+01 0.0 
1.651141026997e+01 -3.030969184316e+02 0.0 
0.0 0.0 -1.234400998490e+02 
-4.199653952286e+01 -1.962612954336e+01 0.0 
-1.962612954336e+01 -1.000875656462e+02 0.0 
0.0 0.0 -4.099015020288e+01 
-9.023785522936e+01 6.413053150071e+00 0.0 
6.413053150071e+00 -1.816511546429e+02 0.0 
0.0 0.0 -8.116670296169e+01 
-1.049188748683e+02 1.334907667258e+01 0.0 
1.334907667258e+01 -2.223278661557e+02 0.0 
0.0 0.0 -9.777402230720e+01 
-7.108219799154e+01 5.480442912919e+00 0.0 
5.480442912919e+00 -1.189747845563e+02 0.0 
0.0 0.0 -5.661709476434e+01 
-2.667176677263e+01 -3.381606726838e+00 0.0 
-3.381606726838e+00 -6.517957317839e+01 0.0 
0.0 0.0 -2.715540198531e+01 
-6.311691281545e+01 1.868549965420e+00 0.0 
1.868549965420e+00 -1.109790833347e+02 0.0 
0.0 0.0 -5.182879884506e+01 
-1.415701735689e+02 8.129656828931e+00 0.0 
8.129656828931e+00 -3.543956077287e+02 0.0 
0.0 0.0 -1.483897343893e+02 
-9.571824767761e+01 1.305611490373e+01 0.0 
1.305611490373e+01 -1.835458315312e+02 0.0 
0.0 0.0 -8.337922376264e+01 
-4.974065851292e+01 -3.542862941554e+00 0.0 
-3.542862941554e+00 -1.229366926594e+02 0.0 
0.0 0.0 -5.140320535169e+01 
-7.312557677699e+01 7.568757188316e+00 0.0 
7.568757188316e+00 -2.395741953405e+02 0.0 
0.0 0.0 -9.340993163525e+01 
-6.504119979296e+01 2.825098863587e+01 0.0 
2.825098863587e+01 -1.542282862479e+02 0.0 
0.0 0.0 -6.538084581227e+01 
-5.193837874571e+01 8.574719677619e+00 0.0 
8.574719677619e+00 -6.363421495072e+01 0.0 
0.0 0.0 -3.427177810893e+01 
-9.802966953734e+01 5.231821516728e+00 0.0 
5.231821516728e+00 -2.134887068351e+02 0.0 
0.0 0.0 -9.305551291174e+01 
-7.260384062935e+01 2.242662363396e+01 0.0 
2.242662363396e+01 -2.168792475394e+02 0.0 
0.0 0.0 -8.644492645062e+01 
-1.213735579942e+02 1.406316200573e+01 0.0 
1.406316200573e+01 -3.246606549939e+02 0.0 
0.0 0.0 -1.334102638964e+02 
-9.097324956849e+01 1.012806472926e+01 0.0 
1.012806472926e+01 -2.728702829998e+02 0.0 
0.0 0.0 -1.087530597705e+02 
-5.318229798592e+01 -2.811066668146e+00 0.0 
-2.811066668146e+00 -1.316532621607e+02 0.0 
0.0 0.0 -5.505066804400e+01 
-1.322812520975e+02 2.871476968831e+00 0.0 
2.871476968831e+00 -3.317597923031e+02 0.0 
0.0 0.0 -1.388123133202e+02 
-6.782470363030e+01 1.547673503024e+01 0.0 
1.547673503024e+01 -2.236935610975e+02 0.0 
0.0 0.0 -8.705547941834e+01 
-9.670924638859e+01 7.600507669821e+00 0.0 
7.600507669821e+00 -2.022547192576e+02 0.0 
0.0 0.0 -8.928918969386e+01 
-1.000880707919e+02 2.740088619369e+01 0.0 
2.740088619369e+01 -2.334863104059e+02 0.0 
0.0 0.0 -9.967231435931e+01 
-5.290961336446e+01 8.114687624190e+00 0.0 
8.114687624190e+00 -1.986746678375e+02 0.0 
0.0 0.0 -7.507528436060e+01 
-9.582571778649e+01 1.008159012772e+01 0.0 
1.008159012772e+01 -1.915454029416e+02 0.0 
0.0 0.0 -8.581133621842e+01 
-7.767844840909e+01 -1.271676363701e+00 0.0 
-1.271676363701e+00 -2.384114666963e+02 0.0 
0.0 0.0 -9.442697453162e+01 
-1.145878494000e+02 1.886106826041e+01 0.0 
1.886106826041e+01 -3.089389709082e+02 0.0 
0.0 0.0 -1.266580460924e+02 
-6.327672872174e+01 2.655313070292e+01 0.0 
2.655313070292e+01 -1.194187263385e+02 0.0 
0.0 0.0 -5.440863651807e+01 
-8.440904904674e+01 2.746428916095e+01 0.0 
2.746428916095e+01 -1.946236958392e+02 0.0 
0.0 0.0 -8.330982346579e+01 
-9.356007829995e+01 2.445451461218e+01 0.0 
2.445451461218e+01 -1.885715406539e+02 0.0 
0.0 0.0 -8.423948568615e+01 
-7.843178958041e+01 2.643891345533e+01 0.0 
2.643891345533e+01 -2.064705282904e+02 0.0 
0.0 0.0 -8.507069536124e+01 
-1.147099020096e+02 -4.674332945395e-01 0.0 
-4.674332945395e-01 -2.803628681045e+02 0.0 
0.0 0.0 -1.181218310342e+02 
-1.269420095171e+02 3.070072748436e+00 0.0 
3.070072748436e+00 -3.239569100965e+02 0.0 
0.0 0.0 -1.348696758841e+02 
-2.961659957288e+01 -7.997755130834e+00 0.0 
-7.997755130834e+00 -1.338859775616e+02 0.0 
0.0 0.0 -4.979987897784e+01 
-4.733734955203e+01 2.740596589953e+01 0.0 
2.740596589953e+01 -1.325360156385e+02 0.0 
0.0 0.0 -5.356200955717e+01 
-7.932183498708e+01 7.077147222262e+00 0.0 
7.077147222262e+00 -1.399426890199e+02 0.0 
0.0 0.0 -6.537935720209e+01 
-1.164987751788e+02 2.780281524739e+01 0.0 
2.780281524739e+01 -2.835663820442e+02 0.0 
0.0 0.0 -1.196195471669e+02 
-1.026874136789e+02 8.604136053264e+00 0.0 
8.604136053264e+00 -2.227573467814e+02 0.0 
0.0 0.0 -9.723342813807e+01 
-5.809877926977e+01 2.851840381069e+01 0.0 
2.851840381069e+01 -1.351214829783e+02 0.0 
0.0 0.0 -5.756607867442e+01 
-1.277584703505e+02 1.701657125015e+00 0.0 
1.701657125015e+00 -3.207930879233e+02 0.0 
0.0 0.0 -1.341654674821e+02 
-1.015271031190e+02 1.146052966822e+01 0.0 
1.146052966822e+01 -2.118979985378e+02 0.0 
0.0 0.0 -9.362753049706e+01 
-8.450041460043e+01 -4.751082818837e+00 0.0 
-4.751082818837e+00 -2.251261170663e+02 0.0 
0.0 0.0 -9.248795950003e+01 
-3.562670163015e+01 -5.415315515097e-01 0.0 
-5.415315515097e-01 -9.148015904121e+01 0.0 
0.0 0.0 -3.773205820141e+01 
-3.340718685738e+01 2.565299978940e+01 0.0 
2.565299978940e+01 -1.054488023915e+02 0.0 
0.0 0.0 -4.164899836611e+01 
-3.976757620589e+01 7.048867246198e+00 0.0 
7.048867246198e+00 -1.698752415463e+02 0.0 
0.0 0.0 -6.249284532567e+01 
-6.820696120874e+01 2.046137689611e+01 0.0 
2.046137689611e+01 -2.140901906611e+02 0.0 
0.0 0.0 -8.428914556094e+01 
-9.241584179088e+01 -3.369688399714e+00 0.0 
-3.369688399714e+00 -2.445635747430e+02 0.0 
0.0 0.0 -1.006938249602e+02 
-1.115200698156e+02 1.899281685913e+01 0.0 
1.899281685913e+01 -2.405368564054e+02 0.0 
0.0 0.0 -1.052170778663e+02 
-1.327878553248e+02 1.655132493175e+00 0.0 
1.655132493175e+00 -3.285371504356e+02 0.0 
0.0 0.0 -1.379975017281e+02 
-1.141522793341e+02 6.090682742267e+00 0.0 
6.090682742267e+00 -3.097286773757e+02 0.0 
0.0 0.0 -1.267642870129e+02 
-4.300132348951e+01 3.134978332058e+01 0.0 
3.134978332058e+01 -4.146547727908e+01 0.0 
0.0 0.0 -2.463747390627e+01 
-5.810631345899e+01 1.274042870200e+01 0.0 
1.274042870200e+01 -7.680191231807e+01 0.0 
0.0 0.0 -4.007246773312e+01 
-1.376788025942e+02 1.577247814066e+00 0.0 
1.577247814066e+00 -3.364066929522e+02 0.0 
0.0 0.0 -1.418256486639e+02 
-7.824077015075e+01 5.739257003887e+00 0.0 
5.739257003887e+00 -2.486337306029e+02 0.0 
0.0 0.0 -9.766235022609e+01 
-1.201358139005e+02 1.759047521302e+01 0.0 
1.759047521302e+01 -3.202326298164e+02 0.0 
0.0 0.0 -1.317105331151e+02 
-9.295762297739e+01 -8.071416917979e-01 0.0 
-8.071416917979e-01 -2.286822857263e+02 0.0 
0.0 0.0 -9.609197261110e+01 
-1.301135145691e+02 2.998539598270e+01 0.0 
2.998539598270e+01 -3.096198342260e+02 0.0 
0.0 0.0 -1.315200046385e+02 
-4.503405288037e+01 2.275195199056e+01 0.0 
2.275195199056e+01 -5.805275410388e+01 0.0 
0.0 0.0 -3.052604209527e+01 
-1.424649421261e+02 1.438071394782e+00 0.0 
1.438071394782e+00 -3.446471655494e+02 0.0 
0.0 0.0 -1.457336323026e+02 
-1.123007600510e+02 9.147614636638e+00 0.0 
9.147614636638e+00 -3.094456074590e+02 0.0 
0.0 0.0 -1.261239102530e+02 
-4.209381386107e+01 2.267437046427e+01 0.0 
2.267437046427e+01 -1.477747113762e+02 0.0 
0.0 0.0 -5.656055757118e+01 
-4.593919464580e+01 6.534648153482e-02 0.0 
6.534648153482e-02 -7.534053770975e+01 0.0 
0.0 0.0 -3.598391970667e+01 
-1.534078848706e+02 1.849560763993e+00 0.0 
1.849560763993e+00 -3.662137504651e+02 0.0 
0.0 0.0 -1.554864906007e+02 
-1.230620631415e+02 1.066881772867e+01 0.0 
1.066881772867e+01 -3.273351143168e+02 0.0 
0.0 0.0 -1.347191532375e+02 
-8.644639875996e+01 2.618579192089e+01 0.0 
2.618579192089e+01 -2.247290216022e+02 0.0 
0.0 0.0 -9.295262610866e+01 
-7.507617524056e+01 2.579172001145e+00 0.0 
2.579172001145e+00 -2.403716753288e+02 0.0 
0.0 0.0 -9.423435517082e+01 
-4.498618299826e+01 1.182619502052e+01 0.0 
1.182619502052e+01 -4.643865233263e+01 0.0 
0.0 0.0 -2.702745059927e+01 
-9.710613069754e+01 -2.701338124479e+00 0.0 
-2.701338124479e+00 -2.520771586603e+02 0.0 
0.0 0.0 -1.043549868073e+02 
-8.884270687873e+01 2.710969789394e+01 0.0 
2.710969789394e+01 -1.974367840872e+02 0.0 
0.0 0.0 -8.548384728978e+01 
-1.125251562094e+02 1.616503132265e+01 0.0 
1.616503132265e+01 -2.539373383872e+02 0.0 
0.0 0.0 -1.095387483790e+02 
-1.275150351666e+02 1.299500948616e+01 0.0 
1.299500948616e+01 -3.345094083938e+02 0.0 
0.0 0.0 -1.382073330681e+02 
-8.836933702032e+01 1.525779382983e+01 0.0 
1.525779382983e+01 -1.570353295259e+02 0.0 
0.0 0.0 -7.322139996387e+01 
-9.346106349845e+01 -3.119888559992e+00 0.0 
-3.119888559992e+00 -2.402153744201e+02 0.0 
0.0 0.0 -9.970293137556e+01 
-9.406279788124e+01 2.090825107646e+01 0.0 
2.090825107646e+01 -2.655040333555e+02 0.0 
0.0 0.0 -1.074700493710e+02 
-1.742872785637e+01 -1.100496426193e+00 0.0 
-1.100496426193e+00 -5.048034113515e+01 0.0 
0.0 0.0 -1.997272069746e+01 
-5.135485423777e+01 1.751137986939e+01 0.0 
1.751137986939e+01 -6.367074795067e+01 0.0 
0.0 0.0 -3.410768065653e+01 
-9.782361289109e+01 -2.401851880428e+00 0.0 
-2.401851880428e+00 -2.479391058076e+02 0.0 
0.0 0.0 -1.033288156096e+02 
-4.348692926660e+01 2.709033855238e+00 0.0 
2.709033855238e+00 -1.784264770096e+02 0.0 
0.0 0.0 -6.617402188287e+01 
-8.043978867203e+01 1.434812078712e+00 0.0 
1.434812078712e+00 -2.481645264454e+02 0.0 
0.0 0.0 -9.818129453524e+01 
-1.350866239309e+02 2.441373319944e+01 0.0 
2.441373319944e+01 -3.366624294073e+02 0.0 
0.0 0.0 -1.411247160015e+02 
-1.021270157270e+02 -1.770485231082e+00 0.0 
-1.770485231082e+00 -2.558343149799e+02 0.0 
0.0 0.0 -1.069883992121e+02 
-5.009704498172e+01 3.871944939404e+00 0.0 
3.871944939404e+00 -1.928566808480e+02 0.0 
0.0 0.0 -7.248611774892e+01 
-1.063577187473e+02 -1.231269063935e+00 0.0 
-1.231269063935e+00 -2.638339514963e+02 0.0 
0.0 0.0 -1.106575010731e+02 
-3.986153102314e+01 1.733968274284e+01 0.0 
1.733968274284e+01 -3.542859527520e+01 0.0 
0.0 0.0 -2.218703788950e+01 
-9.264074143751e+01 1.785812603153e+01 0.0 
1.785812603153e+01 -1.707921296168e+02 0.0 
0.0 0.0 -7.862986131631e+01 
-1.105436155341e+02 -7.672508955495e-01 0.0 
-7.672508955495e-01 -2.718888733082e+02 0.0 
0.0 0.0 -1.143297466527e+02 
-9.649043927103e+01 2.712453358894e+01 0.0 
2.712453358894e+01 -2.172234832509e+02 0.0 
0.0 0.0 -9.371417675657e+01 
-1.998675948983e+01 -2.012374545987e+00 0.0 
-2.012374545987e+00 -5.283413125820e+01 0.0 
0.0 0.0 -2.144626722441e+01 
-9.008121754248e+01 2.515390379573e+01 0.0 
2.515390379573e+01 -2.400897363930e+02 0.0 
0.0 0.0 -9.865128618065e+01 
-1.418789529439e+02 2.945121943395e-01 0.0 
2.945121943395e-01 -3.396513200631e+02 0.0 
0.0 0.0 -1.440590819021e+02 
-6.189610104627e+01 -9.762180168277e+00 0.0 
-9.762180168277e+00 -1.723225426330e+02 0.0 
0.0 0.0 -6.986559310379e+01 
-8.591521657984e+01 7.088177766962e-01 0.0 
7.088177766962e-01 -2.558384705677e+02 0.0 
0.0 0.0 -1.021261061443e+02 
-9.940925241200e+01 1.929554776835e+01 0.0 
1.929554776835e+01 -1.926149766117e+02 0.0 
0.0 0.0 -8.720726870710e+01 
-3.601824485397e+01 2.262430057251e+01 0.0 
2.262430057251e+01 -3.418594146740e+01 0.0 
0.0 0.0 -2.066125589641e+01 
-9.472726035683e+01 2.592904704459e+00 0.0 
2.592904704459e+00 -2.735273149622e+02 0.0 
0.0 0.0 -1.100763725957e+02 
-1.042023970250e+02 2.737950271386e+01 0.0 
2.737950271386e+01 -2.369940579338e+02 0.0 
0.0 0.0 -1.019589364876e+02 
-9.407872978480e+01 2.396558106680e+01 0.0 
2.396558106680e+01 -2.548417686225e+02 0.0 
0.0 0.0 -1.042761495222e+02 
-7.629596139308e+01 2.042707842330e+01 0.0 
2.042707842330e+01 -2.309105121628e+02 0.0 
0.0 0.0 -9.176194206676e+01 
-1.041337272093e+02 4.390611397066e+00 0.0 
4.390611397066e+00 -2.915262536025e+02 0.0 
0.0 0.0 -1.182979942435e+02 
-4.003282472502e+01 2.556762342397e+01 0.0 
2.556762342397e+01 -5.692229267916e+01 0.0 
0.0 0.0 -2.868653522125e+01 
-4.985385537725e+01 -9.341777384007e+00 0.0 
-9.341777384007e+00 -1.242847004078e+02 0.0 
0.0 0.0 -5.184156673552e+01 
-4.345457548130e+01 -8.986801694358e+00 0.0 
-8.986801694358e+00 -1.034681530915e+02 0.0 
0.0 0.0 -4.367681857185e+01 
-5.468042552847e+01 9.971674734547e-01 0.0 
9.971674734547e-01 -2.006895867147e+02 0.0 
0.0 0.0 -7.621100367296e+01 
-1.080231498727e+02 2.722066008500e+01 0.0 
2.722066008500e+01 -2.409059797406e+02 0.0 
0.0 0.0 -1.042787388840e+02 
-2.463901937813e+01 -8.264113845959e-01 0.0 
-8.264113845959e-01 -6.709851641035e+01 0.0 
0.0 0.0 -2.712126073654e+01 
-1.004107203728e+02 2.244011250025e+01 0.0 
2.244011250025e+01 -2.000539164302e+02 0.0 
0.0 0.0 -8.973939104092e+01 
-3.533537414521e+01 -8.846826434299e+00 0.0 
-8.846826434299e+00 -7.505361484535e+01 0.0 
0.0 0.0 -3.259661303324e+01 
-5.272322445549e+01 -3.136026822157e+00 0.0 
-3.136026822157e+00 -1.921469737005e+02 0.0 
0.0 0.0 -7.306105944679e+01 
-1.085642403210e+02 2.327188956935e+01 0.0 
2.327188956935e+01 -2.876734782963e+02 0.0 
0.0 0.0 -1.184713155852e+02 
-6.732206133514e+01 4.582086323965e-01 0.0 
4.582086323965e-01 -1.294854818376e+02 0.0 
0.0 0.0 -5.864226295182e+01 
-5.772614436228e+01 -4.715816268579e+00 0.0 
-4.715816268579e+00 -1.981438896429e+02 0.0 
0.0 0.0 -7.636101020154e+01 
-4.450133916567e+01 -6.313782822735e-01 0.0 
-6.313782822735e-01 -1.114999826958e+02 0.0 
0.0 0.0 -4.640039655844e+01 
-5.627349528835e+01 -7.900595601724e+00 0.0 
-7.900595601724e+00 -1.871879415170e+02 0.0 
0.0 0.0 -7.263843104161e+01 
-8.490413606868e+01 2.055597283635e+01 0.0 
2.055597283635e+01 -2.480145709880e+02 0.0 
0.0 0.0 -9.947561211702e+01 
-6.116254680382e+01 -8.076526893062e+00 0.0 
-8.076526893062e+00 -1.925764380421e+02 0.0 
0.0 0.0 -7.572169545378e+01 
-5.966434183937e+01 -9.916157050384e+00 0.0 
-9.916157050384e+00 -1.800920663914e+02 0.0 
0.0 0.0 -7.152692246924e+01 
-1.011425128484e+02 4.823030915208e+00 0.0 
4.823030915208e+00 -2.248349849114e+02 0.0 
0.0 0.0 -9.739324932794e+01 
-6.406000983286e+01 -9.127322177616e+00 0.0 
-9.127322177616e+00 -1.856436656776e+02 0.0 
0.0 0.0 -7.451110265315e+01 
-1.061949927268e+02 1.443382881192e+00 0.0 
1.443382881192e+00 -2.434257941069e+02 0.0 
0.0 0.0 -1.044862360501e+02 
-1.618434740059e+02 5.676387229383e-01 0.0 
5.676387229383e-01 -3.813212118741e+02 0.0 
0.0 0.0 -1.625494057640e+02 
-5.187523243383e+01 2.299542243312e-01 0.0 
2.299542243312e-01 -9.035953016780e+01 0.0 
0.0 0.0 -4.227042878049e+01 
-3.345953258236e+01 2.350040989180e+01 0.0 
2.350040989180e+01 -3.145494533071e+01 0.0 
0.0 0.0 -1.907434337392e+01 
-7.219865700999e+01 1.293311331078e+00 0.0 
1.293311331078e+00 -1.114466680385e+02 0.0 
0.0 0.0 -5.597334607775e+01 
-3.813155921450e+01 2.664678913409e+01 0.0 
2.664678913409e+01 -5.981385176314e+01 0.0 
0.0 0.0 -2.898362329329e+01 
-5.599475058197e+01 -1.115229287060e+01 0.0 
-1.115229287060e+01 -1.528300787269e+02 0.0 
0.0 0.0 -6.224744879267e+01 
-1.005848453040e+02 2.502786471937e+01 0.0 
2.502786471937e+01 -2.093604622871e+02 0.0 
0.0 0.0 -9.258359227735e+01 
-5.234202288184e+01 1.631967551574e-01 0.0 
1.631967551574e-01 -9.108249403827e+01 0.0 
0.0 0.0 -4.262735507603e+01 
-5.338662003236e+01 -1.058629020355e+01 0.0 
-1.058629020355e+01 -1.386406394405e+02 0.0 
0.0 0.0 -5.720817784185e+01 
-1.195317047959e+02 2.686389659896e+01 0.0 
2.686389659896e+01 -2.654675439710e+02 0.0 
0.0 0.0 -1.150997746301e+02 
-1.415783495161e+02 3.059797067511e+01 0.0 
3.059797067511e+01 -3.367007778118e+02 0.0 
0.0 0.0 -1.430837381984e+02 
-7.807626968750e+01 9.027476115257e-01 0.0 
9.027476115257e-01 -1.583288008504e+02 0.0 
0.0 0.0 -7.052152116138e+01 
-1.257940646706e+02 1.638661963284e+01 0.0 
1.638661963284e+01 -3.304167140840e+02 0.0 
0.0 0.0 -1.364632336264e+02 
-9.874460466491e+01 2.272326770128e+01 0.0 
2.272326770128e+01 -2.694594963252e+02 0.0 
0.0 0.0 -1.100612302970e+02 
-9.411162058423e+01 7.521065448652e-01 0.0 
7.521065448652e-01 -2.059896191189e+02 0.0 
0.0 0.0 -8.963037191094e+01 
-4.633420308803e+01 4.984990237582e-01 0.0 
4.984990237582e-01 -7.394539311622e+01 0.0 
0.0 0.0 -3.568387886127e+01 
-1.930838605869e+01 -4.163979709865e+00 0.0 
-4.163979709865e+00 -3.419296690740e+01 0.0 
0.0 0.0 -1.561102201596e+01 
-1.193713093512e+02 -1.742312346273e-01 0.0 
-1.742312346273e-01 -2.902737925221e+02 0.0 
0.0 0.0 -1.224935305620e+02 
-3.470850754605e+01 2.471428471419e+01 0.0 
2.471428471419e+01 -3.183929226491e+01 0.0 
0.0 0.0 -1.956433994329e+01 
-3.714398137467e+01 2.731761707296e+01 0.0 
2.731761707296e+01 -5.599179860055e+01 0.0 
0.0 0.0 -2.754073399257e+01 
-3.865814656178e+01 2.870045531753e+01 0.0 
2.870045531753e+01 -5.756021113066e+01 0.0 
0.0 0.0 -2.732365023970e+01 
-5.581453262674e+01 -2.090331669978e+00 0.0 
-2.090331669978e+00 -1.385155719506e+02 0.0 
0.0 0.0 -5.789903137321e+01 
-3.707619086380e+01 -1.626161057681e+01 0.0 
-1.626161057681e+01 -5.975271410425e+01 0.0 
0.0 0.0 -2.729317062128e+01 
-3.735846953431e+01 2.641967359026e+01 0.0 
2.641967359026e+01 -3.646102704992e+01 0.0 
0.0 0.0 -2.146390592853e+01 
-1.411601364413e+02 1.971927488450e+01 0.0 
1.971927488450e+01 -3.524204424242e+02 0.0 
0.0 0.0 -1.476741736597e+02 
-5.672700253034e+01 1.848908322955e+00 0.0 
1.848908322955e+00 -9.210099778296e+01 0.0 
0.0 0.0 -4.424840009399e+01 
-1.129607257445e+02 2.487801997693e+01 0.0 
2.487801997693e+01 -2.911925445063e+02 0.0 
0.0 0.0 -1.208459810752e+02 
-3.994165627832e+01 2.812021434656e+01 0.0 
2.812021434656e+01 -3.802723101442e+01 0.0 
0.0 0.0 -2.141487364085e+01 
-1.067435981244e+02 1.287160167826e+01 0.0 
1.287160167826e+01 -2.321701174495e+02 0.0 
0.0 0.0 -1.012741146722e+02 
-1.345887027864e+02 2.714839136379e+01 0.0 
2.714839136379e+01 -3.298930137429e+02 0.0 
0.0 0.0 -1.389445149588e+02 
-1.616702665261e+02 4.898705481085e+00 0.0 
4.898705481085e+00 -3.842937530919e+02 0.0 
0.0 0.0 -1.633892058854e+02 
-1.231309764276e+02 2.573879279184e+01 0.0 
2.573879279184e+01 -3.098499721659e+02 0.0 
0.0 0.0 -1.294942845781e+02 
-4.026689192954e+01 3.126398948754e+01 0.0 
3.126398948754e+01 -6.168329938638e+01 0.0 
0.0 0.0 -2.930001519170e+01 
-6.915214995388e+01 5.879155638645e+00 0.0 
5.879155638645e+00 -1.115923286603e+02 0.0 
0.0 0.0 -5.382334358424e+01 
-1.264921393786e+02 3.029578059286e+01 0.0 
3.029578059286e+01 -2.945485325415e+02 0.0 
0.0 0.0 -1.259122015761e+02 
-8.413014006957e+01 1.499774453786e+00 0.0 
1.499774453786e+00 -1.742537763731e+02 0.0 
0.0 0.0 -7.711517493280e+01 
-1.629346336001e+02 3.093446408787e+00 0.0 
3.093446408787e+00 -3.852930419617e+02 0.0 
0.0 0.0 -1.640683026685e+02 
-5.797875501935e+01 2.543090782917e+00 0.0 
2.543090782917e+00 -9.043437237728e+01 0.0 
0.0 0.0 -4.412393821899e+01 
-1.011991328642e+02 3.057535084682e+00 0.0 
3.057535084682e+00 -2.269966824722e+02 0.0 
0.0 0.0 -9.805874460093e+01 
-3.180566024617e+01 -1.667040535547e+01 0.0 
-1.667040535547e+01 -1.231095581615e+02 0.0 
0.0 0.0 -4.704457343213e+01 
-1.009083764260e+02 1.510912385361e+00 0.0 
1.510912385361e+00 -2.269839645019e+02 0.0 
0.0 0.0 -9.796770227835e+01 
-1.075666432578e+02 2.583788781907e+01 0.0 
2.583788781907e+01 -2.302348681049e+02 0.0 
0.0 0.0 -1.009404534088e+02 
-6.282284733049e+01 8.510078475018e-01 0.0 
8.510078475018e-01 -1.151923871926e+02 0.0 
0.0 0.0 -5.300457035693e+01 
-7.204528108312e+01 8.512910607561e+00 0.0 
8.512910607561e+00 -1.138293052381e+02 0.0 
0.0 0.0 -5.536237589638e+01 
-1.557640528389e+02 7.976933668646e-01 0.0 
7.976933668646e-01 -3.688875454539e+02 0.0 
0.0 0.0 -1.569954794879e+02 
-1.157710286964e+02 2.368042506609e+01 0.0 
2.368042506609e+01 -2.532464213823e+02 0.0 
0.0 0.0 -1.103052350236e+02 
-4.036202355616e+01 3.339680056739e+01 0.0 
3.339680056739e+01 -6.935955264892e+01 0.0 
0.0 0.0 -3.277077585762e+01 
-7.817168287853e+01 1.104672122462e+00 0.0 
1.104672122462e+00 -1.572805005015e+02 0.0 
0.0 0.0 -7.023565501401e+01 
-6.978633525998e+01 -2.795713550442e+00 0.0 
-2.795713550442e+00 -1.735878986956e+02 0.0 
0.0 0.0 -7.261227018669e+01 
-4.324035260866e+01 -1.894556759976e+01 0.0 
-1.894556759976e+01 -1.073120616222e+02 0.0 
0.0 0.0 -4.645190923120e+01 
-1.512698505787e+02 6.203667278964e+00 0.0 
6.203667278964e+00 -3.682339120317e+02 0.0 
0.0 0.0 -1.554511287831e+02 
-1.138379445369e+02 2.676750387740e+01 0.0 
2.676750387740e+01 -2.498162769498e+02 0.0 
0.0 0.0 -1.086962664460e+02 
-1.547238031373e+02 1.345403456907e+00 0.0 
1.345403456907e+00 -3.680583626887e+02 0.0 
0.0 0.0 -1.564346497478e+02 
-1.610387452623e+01 -2.978475962412e-01 0.0 
-2.978475962412e-01 -4.994060860431e+01 0.0 
0.0 0.0 -1.941334493916e+01 
-1.319440379722e+01 -2.032696464179e+00 0.0 
-2.032696464179e+00 -3.144453204472e+01 0.0 
0.0 0.0 -1.304504037469e+01 
-1.511510502841e+02 9.024503527566e+00 0.0 
9.024503527566e+00 -3.698618117169e+02 0.0 
0.0 0.0 -1.559038586003e+02 
-1.235166185505e+02 2.920635805353e+01 0.0 
2.920635805353e+01 -2.804738691961e+02 0.0 
0.0 0.0 -1.207971463240e+02 
-3.626270217010e+01 -1.883882042566e+01 0.0 
-1.883882042566e+01 -1.197983041614e+02 0.0 
0.0 0.0 -4.614508336651e+01 
-1.101612606365e+02 1.108936686994e+01 0.0 
1.108936686994e+01 -2.510164974041e+02 0.0 
0.0 0.0 -1.079533274122e+02 
-4.369481103832e+01 3.408911502383e+01 0.0 
3.408911502383e+01 -7.608906615816e+01 0.0 
0.0 0.0 -3.687141514051e+01 
-4.645006202946e+01 3.668730756170e-01 0.0 
3.668730756170e-01 -7.194142906676e+01 0.0 
0.0 0.0 -3.511744732887e+01 
-1.049818122021e+01 -1.106188174294e+00 0.0 
-1.106188174294e+00 -3.229512960823e+01 0.0 
0.0 0.0 -1.251488304297e+01 
-1.629494606574e+02 2.488313661252e+00 0.0 
2.488313661252e+00 -3.846565969714e+02 0.0 
0.0 0.0 -1.638818172886e+02 
-1.037897112597e+02 7.851685445071e+00 0.0 
7.851685445071e+00 -2.299683264341e+02 0.0 
0.0 0.0 -9.972741130815e+01 
-7.710165899662e+01 -1.933541025532e+00 0.0 
-1.933541025532e+00 -1.907020584882e+02 0.0 
0.0 0.0 -7.994111524546e+01 
-5.732137126641e+01 5.237076392575e+00 0.0 
5.237076392575e+00 -8.083118336405e+01 0.0 
0.0 0.0 -4.104576638914e+01 
-5.039668955517e+01 -1.378091385211e+00 0.0 
-1.378091385211e+00 -1.252525601608e+02 0.0 
0.0 0.0 -5.229477491478e+01 
-1.241193675122e+02 2.855024542114e+01 0.0 
2.855024542114e+01 -3.000239098669e+02 0.0 
0.0 0.0 -1.268429832137e+02 
-2.841149868452e+01 -7.734909971484e+00 0.0 
-7.734909971484e+00 -4.923655923139e+01 0.0 
0.0 0.0 -2.226274058092e+01 
-1.032277695822e+02 5.851071579669e+00 0.0 
5.851071579669e+00 -2.308672321921e+02 0.0 
0.0 0.0 -9.982850053227e+01 
-1.495427309192e+02 1.241497723477e+01 0.0 
1.241497723477e+01 -3.681371259353e+02 0.0 
0.0 0.0 -1.549039570563e+02 
-1.115554673887e+02 1.778407026784e+01 0.0 
1.778407026784e+01 -2.435153544773e+02 0.0 
0.0 0.0 -1.061212465598e+02 
-1.519037127362e+02 2.486496560290e+01 0.0 
2.486496560290e+01 -3.641297744376e+02 0.0 
0.0 0.0 -1.544100461521e+02 
-4.897363808958e+01 1.096246907809e+01 0.0 
1.096246907809e+01 -1.159695960983e+02 0.0 
0.0 0.0 -5.095054920496e+01 
-1.357475965782e+02 2.879225218432e+01 0.0 
2.879225218432e+01 -3.285091669169e+02 0.0 
0.0 0.0 -1.388770290485e+02 
-1.367889566545e+02 1.403851006027e+01 0.0 
1.403851006027e+01 -3.490143126792e+02 0.0 
0.0 0.0 -1.453409808001e+02 
-4.568889407001e+01 -2.376647505689e-02 0.0 
-2.376647505689e-02 -7.372908677226e+01 0.0 
0.0 0.0 -3.542539425268e+01 
-1.135540931541e+02 2.072142575919e+01 0.0 
2.072142575919e+01 -2.472285248326e+02 0.0 
0.0 0.0 -1.078347853960e+02 
-6.258550731943e+01 -2.121491804153e+00 0.0 
-2.121491804153e+00 -1.547283528325e+02 0.0 
0.0 0.0 -6.479415804559e+01 
-2.581441890638e+01 -2.087873804470e+00 0.0 
-2.087873804470e+00 -6.626290282595e+01 0.0 
0.0 0.0 -2.722319651970e+01 
-1.066863152742e+02 8.076872686532e-01 0.0 
8.076872686532e-01 -2.454321591763e+02 0.0 
0.0 0.0 -1.052355423351e+02 
-1.637112364302e+00 -7.978925066157e-02 0.0 
-7.978925066157e-02 -1.417422566793e+01 0.0 
0.0 0.0 -3.681171370921e+00 
-4.455711669897e+01 9.938102904978e-02 0.0 
9.938102904978e-02 -7.272035970988e+01 0.0 
0.0 0.0 -3.478324292265e+01 
-1.639096899386e+02 8.378668597459e-02 0.0 
8.378668597459e-02 -3.854242388759e+02 0.0 
0.0 0.0 -1.644001786443e+02 
-2.340797263559e+01 -1.243997306210e+00 0.0 
-1.243997306210e+00 -6.323516251092e+01 0.0 
0.0 0.0 -2.559294054395e+01 
-5.782792843721e+01 3.752901706028e-01 0.0 
3.752901706028e-01 -1.047503081535e+02 0.0 
0.0 0.0 -4.837347097722e+01 
-1.221472958378e+02 2.836916760493e+01 0.0 
2.836916760493e+01 -2.748061798312e+02 0.0 
0.0 0.0 -1.186860427007e+02 
-9.507314570037e+01 -3.901976233247e-01 0.0 
-3.901976233247e-01 -2.337283781284e+02 0.0 
0.0 0.0 -9.824045714864e+01 
-9.039585840397e+01 1.373246508600e+00 0.0 
1.373246508600e+00 -1.944216706344e+02 0.0 
0.0 0.0 -8.504525871150e+01 
-4.086355023575e+01 -1.997425673522e+01 0.0 
-1.997425673522e+01 -8.029171393945e+01 0.0 
0.0 0.0 -3.453408189710e+01 
-7.407081067757e+01 -7.323374884247e+00 0.0 
-7.323374884247e+00 -1.084201958130e+02 0.0 
0.0 0.0 -5.549282486487e+01 
-7.135339040065e+01 7.391686845289e-01 0.0 
7.391686845289e-01 -1.398851639790e+02 0.0 
0.0 0.0 -6.297156631388e+01 
-1.380962780802e+02 2.602505209307e+01 0.0 
2.602505209307e+01 -3.390712661474e+02 0.0 
0.0 0.0 -1.427502632683e+02 
-1.091860854237e+02 1.457668908254e+01 0.0 
1.457668908254e+01 -2.395314567919e+02 0.0 
0.0 0.0 -1.042152626647e+02 
-6.681333627056e+01 8.469533840673e-01 0.0 
8.469533840673e-01 -1.260871160980e+02 0.0 
0.0 0.0 -5.747013571055e+01 
-3.535849871288e+01 2.958704198183e+01 0.0 
2.958704198183e+01 -9.046304933535e+01 0.0 
0.0 0.0 -3.793573111002e+01 
-1.191109002503e+02 2.784696423142e+01 0.0 
2.784696423142e+01 -2.659037605757e+02 0.0 
0.0 0.0 -1.151043982478e+02 
-8.351483016769e+01 -1.648585755790e+00 0.0 
-1.648585755790e+00 -2.061269185352e+02 0.0 
0.0 0.0 -8.649252461088e+01 
-1.223293267546e+02 2.953183891621e+01 0.0 
2.953183891621e+01 -2.865714347094e+02 0.0 
0.0 0.0 -1.222702284392e+02 
-1.345220854507e+02 1.768550210272e+01 0.0 
1.768550210272e+01 -3.438140824604e+02 0.0 
0.0 0.0 -1.431008503733e+02 
-5.034768098076e+01 3.400605184920e+01 0.0 
3.400605184920e+01 -5.948045149574e+01 0.0 
0.0 0.0 -3.368660564245e+01 
-1.023828557359e+02 -3.112414791594e-01 0.0 
-3.112414791594e-01 -2.511387131162e+02 0.0 
0.0 0.0 -1.056564706557e+02 
-1.029640761322e+01 -1.150740170798e+00 0.0 
-1.150740170798e+00 -3.021623110832e+01 0.0 
0.0 0.0 -1.177807269187e+01 
-1.551720087363e+02 4.035951161685e+00 0.0 
4.035951161685e+00 -3.724173197748e+02 0.0 
0.0 0.0 -1.578767985533e+02 
-8.700277736519e+01 -1.035209230523e+00 0.0 
-1.035209230523e+00 -2.146126450674e+02 0.0 
0.0 0.0 -9.008462672977e+01 
-2.290029913288e+01 4.384740078299e+00 0.0 
4.384740078299e+00 -7.894598908265e+00 0.0 
0.0 0.0 -8.788655989616e+00 
-1.848306246652e+01 9.416562285008e-02 0.0 
9.416562285008e-02 -9.362545183553e+00 0.0 
0.0 0.0 -7.953682295022e+00 
-3.318134164149e+01 4.553290136894e+00 0.0 
4.553290136894e+00 -2.961087207449e+01 0.0 
0.0 0.0 -1.843766411480e+01 
-2.679809143395e+01 -7.817519423762e-02 0.0 
-7.817519423762e-02 -3.006701028273e+01 0.0 
0.0 0.0 -1.665953051500e+01 
-4.272477495657e+01 3.908565141119e+00 0.0 
3.908565141119e+00 -4.982001288470e+01 0.0 
0.0 0.0 -2.736343635238e+01 
-3.430102130473e+01 -1.829201426708e-01 0.0 
-1.829201426708e-01 -4.840625716950e+01 0.0 
0.0 0.0 -2.441218354227e+01 

TENSORS node_materi_strain_total float
7.280563295095e-04 2.568390793771e-07 0.0 
2.568390793771e-07 -2.051902259300e-04 0.0 
0.0 0.0 0.0 
-9.629126555155e-04 -1.935236937925e-05 0.0 
-1.935236937925e-05 1.135203071453e-02 0.0 
0.0 0.0 0.0 
5.426458855151e-06 1.631992159869e-05 0.0 
1.631992159869e-05 7.600413883536e-03 0.0 
0.0 0.0 0.0 
-6.872589173618e-05 2.606088699573e-05 0.0 
2.606088699573e-05 1.479627892541e-02 0.0 
0.0 0.0 0.0 
5.720779469605e-04 -7.867227849902e-06 0.0 
-7.867227849902e-06 5.849072081358e-05 0.0 
0.0 0.0 0.0 
3.951630805262e-04 2.600698305861e-06 0.0 
2.600698305861e-06 5.423338363362e-04 0.0 
0.0 0.0 0.0 
2.445365648668e-04 -8.997348904941e-06 0.0 
-8.997348904941e-06 9.795200414030e-04 0.0 
0.0 0.0 0.0 
1.319466348318e-04 -1.696320380930e-05 0.0 
-1.696320380930e-05 1.446867376406e-03 0.0 
0.0 0.0 0.0 
4.145603686282e-05 -2.630714772823e-05 0.0 
-2.630714772823e-05 1.876210031800e-03 0.0 
0.0 0.0 0.0 
-8.974248521014e-06 -2.998043189075e-05 0.0 
-2.998043189075e-05 2.275072771972e-03 0.0 
0.0 0.0 0.0 
-3.401000475634e-05 -3.208821822654e-05 0.0 
-3.208821822654e-05 2.656415978401e-03 0.0 
0.0 0.0 0.0 
-3.833656099561e-05 -3.473892393808e-05 0.0 
-3.473892393808e-05 3.023762550596e-03 0.0 
0.0 0.0 0.0 
-2.551291738084e-05 -3.426005923458e-05 0.0 
-3.426005923458e-05 3.384006947615e-03 0.0 
0.0 0.0 0.0 
-6.970311340596e-06 -2.908156257946e-05 0.0 
-2.908156257946e-05 3.746701705187e-03 0.0 
0.0 0.0 0.0 
1.134250863085e-05 -1.619599526004e-05 0.0 
-1.619599526004e-05 4.122771429087e-03 0.0 
0.0 0.0 0.0 
3.549376471927e-05 -4.495949207028e-06 0.0 
-4.495949207028e-06 4.494387045976e-03 0.0 
0.0 0.0 0.0 
5.693728414791e-05 1.598842156011e-06 0.0 
1.598842156011e-06 4.842172898225e-03 0.0 
0.0 0.0 0.0 
6.641609798138e-05 -1.115654809932e-05 0.0 
-1.115654809932e-05 5.230954821826e-03 0.0 
0.0 0.0 0.0 
6.843949328246e-05 -5.656349537286e-06 0.0 
-5.656349537286e-06 5.645810709033e-03 0.0 
0.0 0.0 0.0 
6.119670975901e-05 1.482854455532e-07 0.0 
1.482854455532e-07 6.060559725601e-03 0.0 
0.0 0.0 0.0 
4.609520363778e-05 3.954513071016e-06 0.0 
3.954513071016e-06 6.489357367774e-03 0.0 
0.0 0.0 0.0 
2.642136425772e-05 1.010340725409e-05 0.0 
1.010340725409e-05 6.929676170694e-03 0.0 
0.0 0.0 0.0 
1.340230924344e-05 1.525834345225e-05 0.0 
1.525834345225e-05 7.352210764729e-03 0.0 
0.0 0.0 0.0 
-4.952122845140e-05 1.054269359777e-04 0.0 
1.054269359777e-04 1.480389365447e-02 0.0 
0.0 0.0 0.0 
-5.532189874976e-05 1.938905960611e-04 0.0 
1.938905960611e-04 1.478093134241e-02 0.0 
0.0 0.0 0.0 
-5.578785037685e-05 2.796473508299e-04 0.0 
2.796473508299e-04 1.477889731233e-02 0.0 
0.0 0.0 0.0 
-5.507999121753e-05 3.939679192363e-04 0.0 
3.939679192363e-04 1.476289865522e-02 0.0 
0.0 0.0 0.0 
-6.930792225227e-05 4.884987380029e-04 0.0 
4.884987380029e-04 1.473578203263e-02 0.0 
0.0 0.0 0.0 
-6.429899526069e-05 6.066489762393e-04 0.0 
6.066489762393e-04 1.472131214165e-02 0.0 
0.0 0.0 0.0 
-7.330438610124e-05 7.331105641228e-04 0.0 
7.331105641228e-04 1.468530363787e-02 0.0 
0.0 0.0 0.0 
-7.730494893954e-05 8.696256239819e-04 0.0 
8.696256239819e-04 1.463091827520e-02 0.0 
0.0 0.0 0.0 
-8.127964706513e-05 1.005031138142e-03 0.0 
1.005031138142e-03 1.458198105005e-02 0.0 
0.0 0.0 0.0 
-7.613543197049e-05 1.166715711440e-03 0.0 
1.166715711440e-03 1.450361208200e-02 0.0 
0.0 0.0 0.0 
-1.002464849271e-04 1.317434350057e-03 0.0 
1.317434350057e-03 1.440796973261e-02 0.0 
0.0 0.0 0.0 
-9.342150835800e-05 1.495175979732e-03 0.0 
1.495175979732e-03 1.430147684177e-02 0.0 
0.0 0.0 0.0 
-1.021876583670e-04 1.680932968706e-03 0.0 
1.680932968706e-03 1.415871196183e-02 0.0 
0.0 0.0 0.0 
-9.727395719206e-05 1.863917718632e-03 0.0 
1.863917718632e-03 1.398908336010e-02 0.0 
0.0 0.0 0.0 
-1.088909427868e-04 2.047811102434e-03 0.0 
2.047811102434e-03 1.379383022466e-02 0.0 
0.0 0.0 0.0 
-1.017781186301e-04 2.228227405966e-03 0.0 
2.228227405966e-03 1.355541428462e-02 0.0 
0.0 0.0 0.0 
-1.077701360065e-04 2.406337547691e-03 0.0 
2.406337547691e-03 1.329198669893e-02 0.0 
0.0 0.0 0.0 
-1.010052862848e-04 2.587148827397e-03 0.0 
2.587148827397e-03 1.299038387929e-02 0.0 
0.0 0.0 0.0 
-8.397775322374e-05 2.741944627907e-03 0.0 
2.741944627907e-03 1.266470984918e-02 0.0 
0.0 0.0 0.0 
-6.285403398987e-05 2.876424115709e-03 0.0 
2.876424115709e-03 1.231227489063e-02 0.0 
0.0 0.0 0.0 
-3.975972291455e-05 2.979948921913e-03 0.0 
2.979948921913e-03 1.192396076933e-02 0.0 
0.0 0.0 0.0 
-3.242067847982e-05 3.049120415909e-03 0.0 
3.049120415909e-03 1.152253687387e-02 0.0 
0.0 0.0 0.0 
-7.938054413903e-06 3.085153897717e-03 0.0 
3.085153897717e-03 1.110619217474e-02 0.0 
0.0 0.0 0.0 
1.120136402855e-05 3.081456411289e-03 0.0 
3.081456411289e-03 1.068697055436e-02 0.0 
0.0 0.0 0.0 
2.776255403591e-05 3.043921335898e-03 0.0 
3.043921335898e-03 1.027745938376e-02 0.0 
0.0 0.0 0.0 
4.885949536345e-05 2.975586296168e-03 0.0 
2.975586296168e-03 9.879637418686e-03 0.0 
0.0 0.0 0.0 
6.060786617793e-05 2.866983631084e-03 0.0 
2.866983631084e-03 9.496366219748e-03 0.0 
0.0 0.0 0.0 
8.602533334331e-05 2.728379652788e-03 0.0 
2.728379652788e-03 9.137553512744e-03 0.0 
0.0 0.0 0.0 
9.229275480771e-05 2.559028310811e-03 0.0 
2.559028310811e-03 8.801234101664e-03 0.0 
0.0 0.0 0.0 
8.752633653201e-05 2.375489477195e-03 0.0 
2.375489477195e-03 8.530070653785e-03 0.0 
0.0 0.0 0.0 
1.093431436400e-04 2.179185637012e-03 0.0 
2.179185637012e-03 8.244455937436e-03 0.0 
0.0 0.0 0.0 
1.260204930991e-04 1.963343408243e-03 0.0 
1.963343408243e-03 7.981881107745e-03 0.0 
0.0 0.0 0.0 
1.246457011802e-04 1.723908256277e-03 0.0 
1.723908256277e-03 7.776915250824e-03 0.0 
0.0 0.0 0.0 
1.204447421076e-04 1.503383835622e-03 0.0 
1.503383835622e-03 7.641551070208e-03 0.0 
0.0 0.0 0.0 
1.197008721621e-04 1.290742137844e-03 0.0 
1.290742137844e-03 7.523113263100e-03 0.0 
0.0 0.0 0.0 
9.742114392434e-05 1.082437660820e-03 0.0 
1.082437660820e-03 7.442429824521e-03 0.0 
0.0 0.0 0.0 
1.055881182949e-04 8.983778159843e-04 0.0 
8.983778159843e-04 7.395463183696e-03 0.0 
0.0 0.0 0.0 
8.415598259096e-05 7.230475847400e-04 0.0 
7.230475847400e-04 7.356881640747e-03 0.0 
0.0 0.0 0.0 
8.832405848043e-05 5.723016650744e-04 0.0 
5.723016650744e-04 7.341852769217e-03 0.0 
0.0 0.0 0.0 
6.791655281776e-05 4.383540706864e-04 0.0 
4.383540706864e-04 7.342016845357e-03 0.0 
0.0 0.0 0.0 
5.248992148606e-05 3.294573823304e-04 0.0 
3.294573823304e-04 7.375530974566e-03 0.0 
0.0 0.0 0.0 
4.413648911291e-05 2.430653876909e-04 0.0 
2.430653876909e-04 7.433211370976e-03 0.0 
0.0 0.0 0.0 
3.943639139529e-05 1.708298301590e-04 0.0 
1.708298301590e-04 7.472036736153e-03 0.0 
0.0 0.0 0.0 
3.392640161598e-05 1.089452899204e-04 0.0 
1.089452899204e-04 7.443740517707e-03 0.0 
0.0 0.0 0.0 
2.338580425435e-05 6.819644227154e-05 0.0 
6.819644227154e-05 7.534076937234e-03 0.0 
0.0 0.0 0.0 
1.140862094795e-05 3.994712190492e-05 0.0 
3.994712190492e-05 7.542122066645e-03 0.0 
0.0 0.0 0.0 
7.062976717931e-06 1.672712473322e-05 0.0 
1.672712473322e-05 7.576088297680e-03 0.0 
0.0 0.0 0.0 
5.612734864509e-06 1.349264407822e-05 0.0 
1.349264407822e-05 7.611409784567e-03 0.0 
0.0 0.0 0.0 
2.399703191121e-06 4.637642614781e-06 0.0 
4.637642614781e-06 7.620812936463e-03 0.0 
0.0 0.0 0.0 
-9.402093736603e-04 -1.133114225957e-05 0.0 
-1.133114225957e-05 1.177373053727e-02 0.0 
0.0 0.0 0.0 
-9.170337308231e-04 -9.467098027648e-06 0.0 
-9.467098027648e-06 1.218617842842e-02 0.0 
0.0 0.0 0.0 
-8.724893012585e-04 -5.813609936070e-06 0.0 
-5.813609936070e-06 1.257958091311e-02 0.0 
0.0 0.0 0.0 
-8.099449911048e-04 -2.132130679429e-06 0.0 
-2.132130679429e-06 1.295164150828e-02 0.0 
0.0 0.0 0.0 
-7.275333518157e-04 3.490833655397e-06 0.0 
3.490833655397e-06 1.331589955890e-02 0.0 
0.0 0.0 0.0 
-6.230517055297e-04 7.449914113241e-06 0.0 
7.449914113241e-06 1.366439494237e-02 0.0 
0.0 0.0 0.0 
-5.011750878974e-04 1.178089378307e-05 0.0 
1.178089378307e-05 1.399476470025e-02 0.0 
0.0 0.0 0.0 
-3.532438272728e-04 1.669275417522e-05 0.0 
1.669275417522e-05 1.430909274512e-02 0.0 
0.0 0.0 0.0 
-2.021883649225e-04 1.784539281791e-05 0.0 
1.784539281791e-05 1.461488963112e-02 0.0 
0.0 0.0 0.0 
-1.872587175522e-03 2.491743764388e-03 0.0 
2.491743764388e-03 -2.225209735592e-03 0.0 
0.0 0.0 0.0 
-1.539866314318e-03 4.801962954040e-04 0.0 
4.801962954040e-04 1.137444739273e-02 0.0 
0.0 0.0 0.0 
-1.783613707633e-03 2.891390739824e-03 0.0 
2.891390739824e-03 7.383403945695e-04 0.0 
0.0 0.0 0.0 
-1.713979429209e-03 2.776584001981e-03 0.0 
2.776584001981e-03 2.199445929308e-03 0.0 
0.0 0.0 0.0 
-1.783929879538e-03 2.659076593390e-03 0.0 
2.659076593390e-03 3.744653628667e-03 0.0 
0.0 0.0 0.0 
-1.719028351045e-03 2.409537282336e-03 0.0 
2.409537282336e-03 5.178308100556e-03 0.0 
0.0 0.0 0.0 
-1.567770508888e-03 2.195204974244e-03 0.0 
2.195204974244e-03 6.563424021864e-03 0.0 
0.0 0.0 0.0 
-1.542242088553e-03 2.033401334110e-03 0.0 
2.033401334110e-03 8.008508903642e-03 0.0 
0.0 0.0 0.0 
-1.847771476124e-03 1.432785732466e-03 0.0 
1.432785732466e-03 9.732230943228e-03 0.0 
0.0 0.0 0.0 
-1.543451813789e-03 7.412697181426e-04 0.0 
7.412697181426e-04 1.044964139074e-02 0.0 
0.0 0.0 0.0 
-1.524744810153e-03 5.764007096289e-04 0.0 
5.764007096289e-04 1.089857547656e-02 0.0 
0.0 0.0 0.0 
-1.021483143774e-03 -2.178186985972e-05 0.0 
-2.178186985972e-05 1.024045540562e-02 0.0 
0.0 0.0 0.0 
-9.807414098952e-04 -3.208803316130e-05 0.0 
-3.208803316130e-05 1.048945453093e-02 0.0 
0.0 0.0 0.0 
-9.641683429642e-04 -2.597536138688e-05 0.0 
-2.597536138688e-05 1.090834864141e-02 0.0 
0.0 0.0 0.0 
-9.611869425259e-04 5.482486132171e-06 0.0 
5.482486132171e-06 1.129648419764e-02 0.0 
0.0 0.0 0.0 
-9.651969639066e-04 -3.029566540888e-06 0.0 
-3.029566540888e-06 1.132717572271e-02 0.0 
0.0 0.0 0.0 
-9.754636633639e-04 -2.602938959429e-06 0.0 
-2.602938959429e-06 1.133357890309e-02 0.0 
0.0 0.0 0.0 
-9.868949394698e-04 -3.988265941061e-06 0.0 
-3.988265941061e-06 1.133160056948e-02 0.0 
0.0 0.0 0.0 
-1.000484806103e-03 3.363865281218e-06 0.0 
3.363865281218e-06 1.139341845106e-02 0.0 
0.0 0.0 0.0 
-1.019731338936e-03 3.598567970393e-07 0.0 
3.598567970393e-07 1.134934427977e-02 0.0 
0.0 0.0 0.0 
-1.042778424569e-03 2.015086168344e-06 0.0 
2.015086168344e-06 1.134994416630e-02 0.0 
0.0 0.0 0.0 
-1.068484803066e-03 1.076196050397e-05 0.0 
1.076196050397e-05 1.135981982954e-02 0.0 
0.0 0.0 0.0 
-1.110697445159e-03 2.348998720556e-05 0.0 
2.348998720556e-05 1.137840970463e-02 0.0 
0.0 0.0 0.0 
-1.154553722522e-03 4.523167690916e-05 0.0 
4.523167690916e-05 1.138188321625e-02 0.0 
0.0 0.0 0.0 
-1.201737098438e-03 7.836579232677e-05 0.0 
7.836579232677e-05 1.138331923102e-02 0.0 
0.0 0.0 0.0 
-1.262407381037e-03 1.272005165805e-04 0.0 
1.272005165805e-04 1.138413136227e-02 0.0 
0.0 0.0 0.0 
-1.331728998983e-03 2.043183887018e-04 0.0 
2.043183887018e-04 1.138020225032e-02 0.0 
0.0 0.0 0.0 
-1.414671985110e-03 3.152493582139e-04 0.0 
3.152493582139e-04 1.137718411014e-02 0.0 
0.0 0.0 0.0 
-2.567859370365e-03 1.198322890918e-03 0.0 
1.198322890918e-03 -3.327728381517e-03 0.0 
0.0 0.0 0.0 
-3.295745055332e-03 2.102896153751e-04 0.0 
2.102896153751e-04 -3.397631544423e-03 0.0 
0.0 0.0 0.0 
-3.559244346925e-03 -2.382004814759e-04 0.0 
-2.382004814759e-04 -3.299370266931e-03 0.0 
0.0 0.0 0.0 
-3.088873474740e-03 -9.026722971963e-04 0.0 
-9.026722971963e-04 -3.093550905432e-03 0.0 
0.0 0.0 0.0 
-2.112114058846e-03 -1.710540030571e-03 0.0 
-1.710540030571e-03 -1.572774557812e-03 0.0 
0.0 0.0 0.0 
-1.328646529960e-03 -1.171738428821e-03 0.0 
-1.171738428821e-03 4.200577524475e-05 0.0 
0.0 0.0 0.0 
-6.081396300773e-04 -3.523348007446e-04 0.0 
-3.523348007446e-04 2.455261948423e-04 0.0 
0.0 0.0 0.0 
-8.456886408300e-05 -1.088715856844e-04 0.0 
-1.088715856844e-04 1.342831078065e-04 0.0 
0.0 0.0 0.0 
2.240939339188e-04 -6.815226534890e-05 0.0 
-6.815226534890e-05 3.868884361210e-05 0.0 
0.0 0.0 0.0 
3.110493404046e-04 -6.331808236836e-05 0.0 
-6.331808236836e-05 -5.868901506482e-06 0.0 
0.0 0.0 0.0 
3.835211441612e-04 -4.582033416390e-05 0.0 
-4.582033416390e-05 -3.032827652930e-05 0.0 
0.0 0.0 0.0 
4.709860187709e-04 -4.167814087630e-05 0.0 
-4.167814087630e-05 -6.548269171140e-05 0.0 
0.0 0.0 0.0 
5.505549681492e-04 -2.000878319956e-05 0.0 
-2.000878319956e-05 -1.091293801169e-04 0.0 
0.0 0.0 0.0 
6.202710977904e-04 -2.694020603824e-05 0.0 
-2.694020603824e-05 -1.434175649903e-04 0.0 
0.0 0.0 0.0 
6.290968635665e-04 -2.586913784813e-05 0.0 
-2.586913784813e-05 -1.499132832464e-04 0.0 
0.0 0.0 0.0 
6.407049984049e-04 -1.773336567571e-05 0.0 
-1.773336567571e-05 -1.539150317011e-04 0.0 
0.0 0.0 0.0 
6.562167082692e-04 -1.008599257121e-05 0.0 
-1.008599257121e-05 -1.613788433281e-04 0.0 
0.0 0.0 0.0 
6.890780456379e-04 1.142288134701e-06 0.0 
1.142288134701e-06 -1.846363622779e-04 0.0 
0.0 0.0 0.0 
7.231669558875e-04 1.826853230636e-05 0.0 
1.826853230636e-05 -2.049380651432e-04 0.0 
0.0 0.0 0.0 
-1.450323120017e-03 4.990857661400e-04 0.0 
4.990857661400e-04 1.024270915844e-02 0.0 
0.0 0.0 0.0 
-1.042043631555e-03 3.133632715951e-04 0.0 
3.133632715951e-04 1.017116060810e-02 0.0 
0.0 0.0 0.0 
-8.426089417189e-04 1.651457247372e-04 0.0 
1.651457247372e-04 1.015632995660e-02 0.0 
0.0 0.0 0.0 
-7.721406224824e-04 6.766217329044e-05 0.0 
6.766217329044e-05 1.014733847800e-02 0.0 
0.0 0.0 0.0 
-7.423524662680e-04 2.410262066318e-05 0.0 
2.410262066318e-05 1.015168150365e-02 0.0 
0.0 0.0 0.0 
-7.459486398361e-04 -4.147005757772e-06 0.0 
-4.147005757772e-06 1.015991919312e-02 0.0 
0.0 0.0 0.0 
-7.626207748678e-04 -1.808346801853e-05 0.0 
-1.808346801853e-05 1.017599880812e-02 0.0 
0.0 0.0 0.0 
-7.863188580721e-04 -2.640217420029e-05 0.0 
-2.640217420029e-05 1.019121638367e-02 0.0 
0.0 0.0 0.0 
-8.130552032732e-04 -3.055207491416e-05 0.0 
-3.055207491416e-05 1.020569935220e-02 0.0 
0.0 0.0 0.0 
-8.397341221511e-04 -3.218697157502e-05 0.0 
-3.218697157502e-05 1.021913647341e-02 0.0 
0.0 0.0 0.0 
-8.646622969286e-04 -3.210572543356e-05 0.0 
-3.210572543356e-05 1.023205684196e-02 0.0 
0.0 0.0 0.0 
-8.865824596754e-04 -2.981750742727e-05 0.0 
-2.981750742727e-05 1.024313720319e-02 0.0 
0.0 0.0 0.0 
-9.044538448709e-04 -2.663768095182e-05 0.0 
-2.663768095182e-05 1.025126119687e-02 0.0 
0.0 0.0 0.0 
-9.194706321708e-04 -2.275096110370e-05 0.0 
-2.275096110370e-05 1.025753787169e-02 0.0 
0.0 0.0 0.0 
-9.305670264617e-04 -1.785678155788e-05 0.0 
-1.785678155788e-05 1.026260385744e-02 0.0 
0.0 0.0 0.0 
-9.383230982309e-04 -1.122076446659e-05 0.0 
-1.122076446659e-05 1.026694140392e-02 0.0 
0.0 0.0 0.0 
-9.420352445980e-04 -2.333228542996e-06 0.0 
-2.333228542996e-06 1.026957489590e-02 0.0 
0.0 0.0 0.0 
-9.577707074622e-04 6.320383706350e-06 0.0 
6.320383706350e-06 1.026033032888e-02 0.0 
0.0 0.0 0.0 
-9.920329017984e-04 2.584107496990e-05 0.0 
2.584107496990e-05 1.021952164440e-02 0.0 
0.0 0.0 0.0 
-9.759677548716e-04 1.171382289695e-05 0.0 
1.171382289695e-05 1.049047966865e-02 0.0 
0.0 0.0 0.0 
-9.608661712611e-04 -3.257021364971e-06 0.0 
-3.257021364971e-06 1.048823392489e-02 0.0 
0.0 0.0 0.0 
-9.560386565199e-04 -1.279116630607e-05 0.0 
-1.279116630607e-05 1.048607515619e-02 0.0 
0.0 0.0 0.0 
-9.524582917224e-04 -2.010721563192e-05 0.0 
-2.010721563192e-05 1.048338105142e-02 0.0 
0.0 0.0 0.0 
-9.484879129250e-04 -2.633099311527e-05 0.0 
-2.633099311527e-05 1.048066587689e-02 0.0 
0.0 0.0 0.0 
-9.446421066671e-04 -3.238774520615e-05 0.0 
-3.238774520615e-05 1.047818420446e-02 0.0 
0.0 0.0 0.0 
-9.396279546534e-04 -3.709505656316e-05 0.0 
-3.709505656316e-05 1.047492154507e-02 0.0 
0.0 0.0 0.0 
-9.345871915762e-04 -4.194016506030e-05 0.0 
-4.194016506030e-05 1.047031729562e-02 0.0 
0.0 0.0 0.0 
-9.282642718959e-04 -4.391304850966e-05 0.0 
-4.391304850966e-05 1.046312790539e-02 0.0 
0.0 0.0 0.0 
-9.239679687882e-04 -4.235462975283e-05 0.0 
-4.235462975283e-05 1.045709691114e-02 0.0 
0.0 0.0 0.0 
-9.227925375379e-04 -3.715393926581e-05 0.0 
-3.715393926581e-05 1.045126619065e-02 0.0 
0.0 0.0 0.0 
-9.271139283605e-04 -2.521098099491e-05 0.0 
-2.521098099491e-05 1.044497929051e-02 0.0 
0.0 0.0 0.0 
-9.418097654729e-04 -3.781787968309e-06 0.0 
-3.781787968309e-06 1.043987895303e-02 0.0 
0.0 0.0 0.0 
-9.718516281223e-04 3.295418621179e-05 0.0 
3.295418621179e-05 1.043409780640e-02 0.0 
0.0 0.0 0.0 
-1.020927862608e-03 1.019389817660e-04 0.0 
1.019389817660e-04 1.043489684027e-02 0.0 
0.0 0.0 0.0 
-1.141775105684e-03 2.343967557392e-04 0.0 
2.343967557392e-04 1.046300992139e-02 0.0 
0.0 0.0 0.0 
-1.241113438985e-03 3.621523644367e-04 0.0 
3.621523644367e-04 1.041451584726e-02 0.0 
0.0 0.0 0.0 
-1.360439375046e-03 3.369223586614e-04 0.0 
3.369223586614e-04 1.087733908258e-02 0.0 
0.0 0.0 0.0 
-1.300560809179e-03 2.317752622839e-04 0.0 
2.317752622839e-04 1.095117260299e-02 0.0 
0.0 0.0 0.0 
-1.210712195164e-03 1.229186124635e-04 0.0 
1.229186124635e-04 1.094288319114e-02 0.0 
0.0 0.0 0.0 
-1.148036100663e-03 6.260253143683e-05 0.0 
6.260253143683e-05 1.094008625245e-02 0.0 
0.0 0.0 0.0 
-1.102925714572e-03 2.279795814224e-05 0.0 
2.279795814224e-05 1.093887903166e-02 0.0 
0.0 0.0 0.0 
-1.068342455066e-03 -8.373250553154e-07 0.0 
-8.373250553154e-07 1.093652296284e-02 0.0 
0.0 0.0 0.0 
-1.042479942435e-03 -1.474727164742e-05 0.0 
-1.474727164742e-05 1.093296843458e-02 0.0 
0.0 0.0 0.0 
-1.022520601047e-03 -2.281728763904e-05 0.0 
-2.281728763904e-05 1.093147146571e-02 0.0 
0.0 0.0 0.0 
-1.004777011245e-03 -2.339082984940e-05 0.0 
-2.339082984940e-05 1.092989373177e-02 0.0 
0.0 0.0 0.0 
-9.935104797409e-04 -2.420605350529e-05 0.0 
-2.420605350529e-05 1.092639596846e-02 0.0 
0.0 0.0 0.0 
-9.832043862879e-04 -2.108407478177e-05 0.0 
-2.108407478177e-05 1.092420880232e-02 0.0 
0.0 0.0 0.0 
-9.762802808409e-04 -1.918408676981e-05 0.0 
-1.918408676981e-05 1.092190235916e-02 0.0 
0.0 0.0 0.0 
-9.722926416293e-04 -1.481988945584e-05 0.0 
-1.481988945584e-05 1.092217556651e-02 0.0 
0.0 0.0 0.0 
-9.690828539678e-04 -1.229837423617e-05 0.0 
-1.229837423617e-05 1.092030840143e-02 0.0 
0.0 0.0 0.0 
-9.685482120320e-04 -1.391658735789e-05 0.0 
-1.391658735789e-05 1.092060484750e-02 0.0 
0.0 0.0 0.0 
-9.697525155995e-04 1.195449136334e-05 0.0 
1.195449136334e-05 1.091889823090e-02 0.0 
0.0 0.0 0.0 
-1.764752702730e-03 3.208985100101e-03 0.0 
3.208985100101e-03 -4.004590872068e-04 0.0 
0.0 0.0 0.0 
-1.712716346809e-03 2.828814956941e-03 0.0 
2.828814956941e-03 1.445715485849e-03 0.0 
0.0 0.0 0.0 
-1.741747501922e-03 2.721318726477e-03 0.0 
2.721318726477e-03 2.978233140022e-03 0.0 
0.0 0.0 0.0 
-1.796140775687e-03 2.563809306294e-03 0.0 
2.563809306294e-03 4.492388832292e-03 0.0 
0.0 0.0 0.0 
-1.665139055878e-03 2.364433025547e-03 0.0 
2.364433025547e-03 5.865593545535e-03 0.0 
0.0 0.0 0.0 
-1.521568650545e-03 2.157968372789e-03 0.0 
2.157968372789e-03 7.279407159417e-03 0.0 
0.0 0.0 0.0 
-1.722249318527e-03 1.959569067524e-03 0.0 
1.959569067524e-03 8.809174991021e-03 0.0 
0.0 0.0 0.0 
-1.734357742368e-03 9.464283449529e-04 0.0 
9.464283449529e-04 1.029837691407e-02 0.0 
0.0 0.0 0.0 
-1.560092161572e-03 6.866031988968e-04 0.0 
6.866031988968e-04 1.072957156364e-02 0.0 
0.0 0.0 0.0 
-1.545121353293e-03 5.431191875069e-04 0.0 
5.431191875069e-04 1.117318123189e-02 0.0 
0.0 0.0 0.0 
-1.414298696295e-03 2.974951547381e-03 0.0 
2.974951547381e-03 1.569410206723e-03 0.0 
0.0 0.0 0.0 
3.631474044656e-04 1.567203766502e-03 0.0 
1.567203766502e-03 7.400730631965e-03 0.0 
0.0 0.0 0.0 
-9.008363383221e-05 -2.220106953411e-04 0.0 
-2.220106953411e-04 2.625653777317e-04 0.0 
0.0 0.0 0.0 
-1.280173984059e-03 -1.706459552774e-03 0.0 
-1.706459552774e-03 -2.947812684090e-03 0.0 
0.0 0.0 0.0 
2.509074105434e-04 6.299233159007e-04 0.0 
6.299233159007e-04 7.086803976636e-03 0.0 
0.0 0.0 0.0 
-1.550309972861e-03 2.617666520406e-03 0.0 
2.617666520406e-03 4.756919704419e-03 0.0 
0.0 0.0 0.0 
8.735138873958e-06 -8.016913281596e-05 0.0 
-8.016913281596e-05 3.939964056753e-03 0.0 
0.0 0.0 0.0 
3.179290555079e-04 2.405365894920e-03 0.0 
2.405365894920e-03 8.314583453559e-03 0.0 
0.0 0.0 0.0 
-1.434028121898e-03 2.251448814737e-03 0.0 
2.251448814737e-03 7.507568387637e-03 0.0 
0.0 0.0 0.0 
1.229569367077e-04 2.948765717865e-03 0.0 
2.948765717865e-03 9.841328079114e-03 0.0 
0.0 0.0 0.0 
-1.718951430343e-03 1.384590143084e-03 0.0 
1.384590143084e-03 1.022270523539e-02 0.0 
0.0 0.0 0.0 
1.194589928456e-04 1.915971419221e-04 0.0 
1.915971419221e-04 7.247308834359e-03 0.0 
0.0 0.0 0.0 
4.200098811877e-04 -6.111229513514e-05 0.0 
-6.111229513514e-05 6.329839115123e-05 0.0 
0.0 0.0 0.0 
-1.079417715374e-04 2.956759945268e-03 0.0 
2.956759945268e-03 1.158418276370e-02 0.0 
0.0 0.0 0.0 
-1.655768344521e-03 7.520630190132e-04 0.0 
7.520630190132e-04 1.143384141853e-02 0.0 
0.0 0.0 0.0 
-2.543843838730e-05 -7.665704015369e-05 0.0 
-7.665704015369e-05 2.482592466450e-03 0.0 
0.0 0.0 0.0 
6.727981498624e-05 -5.216109927263e-05 0.0 
-5.216109927263e-05 4.963550881384e-03 0.0 
0.0 0.0 0.0 
-2.614349546366e-04 2.607904675613e-03 0.0 
2.607904675613e-03 1.272642079752e-02 0.0 
0.0 0.0 0.0 
-2.968086769129e-04 1.904939450236e-03 0.0 
1.904939450236e-03 1.382649945144e-02 0.0 
0.0 0.0 0.0 
-1.913049709913e-04 5.359417301198e-04 0.0 
5.359417301198e-04 1.461808064183e-02 0.0 
0.0 0.0 0.0 
-2.575938801646e-04 9.146145553828e-04 0.0 
9.146145553828e-04 1.448611491054e-02 0.0 
0.0 0.0 0.0 
-2.740292861186e-04 1.376157198727e-03 0.0 
1.376157198727e-03 1.427447541051e-02 0.0 
0.0 0.0 0.0 
-1.466081846234e-03 3.966208829908e-04 0.0 
3.966208829908e-04 1.174597316362e-02 0.0 
0.0 0.0 0.0 
-1.186265447455e-03 1.127756191494e-04 0.0 
1.127756191494e-04 1.178068439827e-02 0.0 
0.0 0.0 0.0 
-1.056771823392e-03 5.048829971238e-05 0.0 
5.048829971238e-05 1.178429340393e-02 0.0 
0.0 0.0 0.0 
-7.713682440845e-04 3.075116585743e-05 0.0 
3.075116585743e-05 1.314010507613e-02 0.0 
0.0 0.0 0.0 
5.188291963779e-05 4.876777751985e-05 0.0 
4.876777751985e-05 7.339813495951e-03 0.0 
0.0 0.0 0.0 
-1.366657700633e-03 9.323882867627e-04 0.0 
9.323882867627e-04 -3.887969993425e-03 0.0 
0.0 0.0 0.0 
5.388500637225e-04 -2.975283819229e-05 0.0 
-2.975283819229e-05 2.618932357655e-05 0.0 
0.0 0.0 0.0 
5.992888719875e-05 -1.339936735667e-05 0.0 
-1.339936735667e-05 6.252030655098e-03 0.0 
0.0 0.0 0.0 
-9.776299038851e-04 1.845774675086e-05 0.0 
1.845774675086e-05 1.170953896634e-02 0.0 
0.0 0.0 0.0 
1.812384386017e-04 -4.897306982822e-05 0.0 
-4.897306982822e-05 1.216536969802e-03 0.0 
0.0 0.0 0.0 
-3.371892387440e-04 2.236280870071e-03 0.0 
2.236280870071e-03 1.333455592903e-02 0.0 
0.0 0.0 0.0 
2.151595372265e-04 2.749319827074e-03 0.0 
2.749319827074e-03 9.075375530884e-03 0.0 
0.0 0.0 0.0 
2.779571972126e-06 3.024899887914e-03 0.0 
3.024899887914e-03 1.072056090677e-02 0.0 
0.0 0.0 0.0 
3.831885447284e-04 2.030065486689e-03 0.0 
2.030065486689e-03 7.771285344573e-03 0.0 
0.0 0.0 0.0 
3.118050628754e-04 1.150346127139e-03 0.0 
1.150346127139e-03 7.200002487642e-03 0.0 
0.0 0.0 0.0 
-1.131356558799e-03 -1.202523593377e-03 0.0 
-1.202523593377e-03 2.786754425876e-04 0.0 
0.0 0.0 0.0 
-1.307832222697e-03 2.068009203354e-04 0.0 
2.068009203354e-04 1.176809401281e-02 0.0 
0.0 0.0 0.0 
2.081430687669e-04 3.584600596163e-04 0.0 
3.584600596163e-04 7.044081798919e-03 0.0 
0.0 0.0 0.0 
-5.727813033762e-04 5.268931077570e-05 0.0 
5.268931077570e-05 1.382502501845e-02 0.0 
0.0 0.0 0.0 
2.048011875909e-04 -9.789224823146e-05 0.0 
-9.789224823146e-05 1.657749929114e-04 0.0 
0.0 0.0 0.0 
-3.190241362931e-05 -8.802739129651e-05 0.0 
-8.802739129651e-05 3.202040566879e-03 0.0 
0.0 0.0 0.0 
-1.496872436930e-04 3.305754076791e-04 0.0 
3.305754076791e-04 1.469216328605e-02 0.0 
0.0 0.0 0.0 
-1.416188211319e-03 2.455195376584e-03 0.0 
2.455195376584e-03 6.094349868641e-03 0.0 
0.0 0.0 0.0 
-1.531681295218e-03 2.833188864399e-03 0.0 
2.833188864399e-03 3.226700432655e-03 0.0 
0.0 0.0 0.0 
-1.680176494560e-03 2.005268741524e-03 0.0 
2.005268741524e-03 9.026018683685e-03 0.0 
0.0 0.0 0.0 
-1.703800417552e-03 9.788829533127e-04 0.0 
9.788829533127e-04 1.091268696181e-02 0.0 
0.0 0.0 0.0 
-1.444120297829e-03 3.192082706431e-03 0.0 
3.192082706431e-03 -2.001931606656e-04 0.0 
0.0 0.0 0.0 
-8.929624023744e-04 1.609861089287e-05 0.0 
1.609861089287e-05 1.241677081220e-02 0.0 
0.0 0.0 0.0 
1.659545823647e-05 1.187902042468e-05 0.0 
1.187902042468e-05 7.474970529645e-03 0.0 
0.0 0.0 0.0 
5.908388671699e-04 -3.756182336908e-06 0.0 
-3.756182336908e-06 -1.591068654864e-05 0.0 
0.0 0.0 0.0 
-2.805360908589e-04 8.230664178220e-05 0.0 
8.230664178220e-05 1.444456873515e-02 0.0 
0.0 0.0 0.0 
-1.639617514939e-03 6.970164358178e-04 0.0 
6.970164358178e-04 1.165958962951e-02 0.0 
0.0 0.0 0.0 
-1.671128518998e-03 9.507431384635e-04 0.0 
9.507431384635e-04 1.168003618246e-02 0.0 
0.0 0.0 0.0 
-1.617323028277e-03 8.359409505057e-04 0.0 
8.359409505057e-04 1.194080743119e-02 0.0 
0.0 0.0 0.0 
-1.626153698396e-03 1.138469875281e-03 0.0 
1.138469875281e-03 1.190702151378e-02 0.0 
0.0 0.0 0.0 
-1.582027296828e-03 1.046335864146e-03 0.0 
1.046335864146e-03 1.220291144875e-02 0.0 
0.0 0.0 0.0 
-1.543880940364e-03 1.306154543622e-03 0.0 
1.306154543622e-03 1.213026363718e-02 0.0 
0.0 0.0 0.0 
-1.574647199244e-03 1.423817318091e-03 0.0 
1.423817318091e-03 1.179379806465e-02 0.0 
0.0 0.0 0.0 
-1.460258750374e-03 1.569034355049e-03 0.0 
1.569034355049e-03 1.199422744530e-02 0.0 
0.0 0.0 0.0 
-1.462008752077e-03 1.700076369007e-03 0.0 
1.700076369007e-03 1.159988836469e-02 0.0 
0.0 0.0 0.0 
-1.493119918919e-03 1.218834009008e-03 0.0 
1.218834009008e-03 1.243659748581e-02 0.0 
0.0 0.0 0.0 
-1.329405230019e-03 1.816270130002e-03 0.0 
1.816270130002e-03 1.179422814174e-02 0.0 
0.0 0.0 0.0 
-1.300065549800e-03 1.949501406373e-03 0.0 
1.949501406373e-03 1.134126257266e-02 0.0 
0.0 0.0 0.0 
-1.159019181175e-03 2.038816121965e-03 0.0 
2.038816121965e-03 1.153923693436e-02 0.0 
0.0 0.0 0.0 
-1.100221116056e-03 2.163626395632e-03 0.0 
2.163626395632e-03 1.103341447411e-02 0.0 
0.0 0.0 0.0 
-1.229360490901e-03 2.102578038669e-03 0.0 
2.102578038669e-03 1.083049308399e-02 0.0 
0.0 0.0 0.0 
-9.969107495743e-04 2.298048423109e-03 0.0 
2.298048423109e-03 1.046896044059e-02 0.0 
0.0 0.0 0.0 
-1.115259285088e-03 2.265893686517e-03 0.0 
2.265893686517e-03 1.025732489431e-02 0.0 
0.0 0.0 0.0 
-8.509846435500e-04 2.432898795877e-03 0.0 
2.432898795877e-03 9.843898200076e-03 0.0 
0.0 0.0 0.0 
-7.458219269739e-04 2.443408830506e-03 0.0 
2.443408830506e-03 1.008791976332e-02 0.0 
0.0 0.0 0.0 
-5.750032601363e-04 2.544432634223e-03 0.0 
2.544432634223e-03 9.422357270284e-03 0.0 
0.0 0.0 0.0 
-6.644669866655e-04 2.557232981779e-03 0.0 
2.557232981779e-03 9.157847253515e-03 0.0 
0.0 0.0 0.0 
-3.685690854998e-04 2.632723485360e-03 0.0 
2.632723485360e-03 8.706839357032e-03 0.0 
0.0 0.0 0.0 
-4.475794612047e-04 2.662149111210e-03 0.0 
2.662149111210e-03 8.421111142272e-03 0.0 
0.0 0.0 0.0 
-1.370957636666e-04 2.698581769803e-03 0.0 
2.698581769803e-03 7.950099509423e-03 0.0 
0.0 0.0 0.0 
-2.114151679317e-04 2.740174982130e-03 0.0 
2.740174982130e-03 7.641818586108e-03 0.0 
0.0 0.0 0.0 
1.112876147502e-04 2.739144818502e-03 0.0 
2.739144818502e-03 7.160063350153e-03 0.0 
0.0 0.0 0.0 
1.621938997703e-04 2.687314026668e-03 0.0 
2.687314026668e-03 7.507118395924e-03 0.0 
0.0 0.0 0.0 
4.191677222271e-04 2.691935593068e-03 0.0 
2.691935593068e-03 6.713042996254e-03 0.0 
0.0 0.0 0.0 
3.711768184192e-04 2.754805737863e-03 0.0 
2.754805737863e-03 6.344790045506e-03 0.0 
0.0 0.0 0.0 
6.855266745470e-04 2.668557065721e-03 0.0 
2.668557065721e-03 5.899271298576e-03 0.0 
0.0 0.0 0.0 
6.362537011828e-04 2.741480442224e-03 0.0 
2.741480442224e-03 5.509734966605e-03 0.0 
0.0 0.0 0.0 
9.563610865306e-04 2.613344824156e-03 0.0 
2.613344824156e-03 5.069044806509e-03 0.0 
0.0 0.0 0.0 
9.697823511768e-04 2.540060174267e-03 0.0 
2.540060174267e-03 5.505462085346e-03 0.0 
0.0 0.0 0.0 
1.238302234894e-03 2.441196970415e-03 0.0 
2.441196970415e-03 4.693204870848e-03 0.0 
0.0 0.0 0.0 
1.227915825597e-03 2.521326251805e-03 0.0 
2.521326251805e-03 4.224148513352e-03 0.0 
0.0 0.0 0.0 
1.504238543431e-03 2.302045223132e-03 0.0 
2.302045223132e-03 3.876860320823e-03 0.0 
0.0 0.0 0.0 
1.497005413481e-03 2.388824141571e-03 0.0 
2.388824141571e-03 3.371338092962e-03 0.0 
0.0 0.0 0.0 
1.763967351017e-03 2.117390109778e-03 0.0 
2.117390109778e-03 3.062992741696e-03 0.0 
0.0 0.0 0.0 
1.764696099590e-03 2.209830627219e-03 0.0 
2.209830627219e-03 2.513145407933e-03 0.0 
0.0 0.0 0.0 
2.012444139888e-03 1.876065431797e-03 0.0 
1.876065431797e-03 2.254268068961e-03 0.0 
0.0 0.0 0.0 
1.959514889948e-03 1.817117612167e-03 0.0 
1.817117612167e-03 2.853583150485e-03 0.0 
0.0 0.0 0.0 
2.173454440462e-03 1.524907325252e-03 0.0 
1.524907325252e-03 2.111589057886e-03 0.0 
0.0 0.0 0.0 
2.239530288797e-03 1.568180042355e-03 0.0 
1.568180042355e-03 1.464475393268e-03 0.0 
0.0 0.0 0.0 
2.351131448151e-03 1.167824225505e-03 0.0 
1.167824225505e-03 1.410827413054e-03 0.0 
0.0 0.0 0.0 
2.250552654290e-03 1.181521540719e-03 0.0 
1.181521540719e-03 2.083793823207e-03 0.0 
0.0 0.0 0.0 
2.369621912304e-03 7.980621637520e-04 0.0 
7.980621637520e-04 1.481715201591e-03 0.0 
0.0 0.0 0.0 
2.249518223828e-03 8.675948503094e-04 0.0 
8.675948503094e-04 2.159801433473e-03 0.0 
0.0 0.0 0.0 
2.309642652838e-03 4.789121502688e-04 0.0 
4.789121502688e-04 1.656567203227e-03 0.0 
0.0 0.0 0.0 
2.420816603103e-03 3.645413233147e-04 0.0 
3.645413233147e-04 9.699120950470e-04 0.0 
0.0 0.0 0.0 
2.296489457979e-03 5.951408173850e-05 0.0 
5.951408173850e-05 1.251405790261e-03 0.0 
0.0 0.0 0.0 
2.189907604758e-03 2.204710286772e-04 0.0 
2.204710286772e-04 1.909107618168e-03 0.0 
0.0 0.0 0.0 
2.124043698357e-03 -1.678908178453e-04 0.0 
-1.678908178453e-04 1.592996468013e-03 0.0 
0.0 0.0 0.0 
2.197882690943e-03 -3.735947333460e-04 0.0 
-3.735947333460e-04 9.604467451353e-04 0.0 
0.0 0.0 0.0 
1.980703383887e-03 -5.465231109301e-04 0.0 
-5.465231109301e-04 1.385717620021e-03 0.0 
0.0 0.0 0.0 
1.925079031582e-03 -3.205996311813e-04 0.0 
-3.205996311813e-04 1.971184242323e-03 0.0 
0.0 0.0 0.0 
1.754946268851e-03 -6.416832113311e-04 0.0 
-6.416832113311e-04 1.820685744603e-03 0.0 
0.0 0.0 0.0 
1.762719060144e-03 -8.916708811339e-04 0.0 
-8.916708811339e-04 1.286326835374e-03 0.0 
0.0 0.0 0.0 
1.526604916478e-03 -9.183759288456e-04 0.0 
-9.183759288456e-04 1.759388436063e-03 0.0 
0.0 0.0 0.0 
1.534597787345e-03 -6.746940370228e-04 0.0 
-6.746940370228e-04 2.251609357742e-03 0.0 
0.0 0.0 0.0 
1.309733578453e-03 -8.924866645978e-04 0.0 
-8.924866645978e-04 2.204902693423e-03 0.0 
0.0 0.0 0.0 
1.253347405614e-03 -1.131355701951e-03 0.0 
-1.131355701951e-03 1.771612511079e-03 0.0 
0.0 0.0 0.0 
1.055903952422e-03 -1.048052836436e-03 0.0 
-1.048052836436e-03 2.212000388632e-03 0.0 
0.0 0.0 0.0 
1.115192765333e-03 -8.316973119961e-04 0.0 
-8.316973119961e-04 2.621898457861e-03 0.0 
0.0 0.0 0.0 
8.859491300121e-04 -9.433643085174e-04 0.0 
-9.433643085174e-04 2.613377833437e-03 0.0 
0.0 0.0 0.0 
9.414067595270e-04 -7.500153177333e-04 0.0 
-7.500153177333e-04 3.010135572342e-03 0.0 
0.0 0.0 0.0 
7.907872441708e-04 -1.133950189945e-03 0.0 
-1.133950189945e-03 2.250035293007e-03 0.0 
0.0 0.0 0.0 
6.565145452332e-04 -9.946737208289e-04 0.0 
-9.946737208289e-04 2.622796616575e-03 0.0 
0.0 0.0 0.0 
5.352370450311e-04 -1.147981459110e-03 0.0 
-1.147981459110e-03 2.298522093113e-03 0.0 
0.0 0.0 0.0 
4.422500871415e-04 -9.869103901929e-04 0.0 
-9.869103901929e-04 2.633495000874e-03 0.0 
0.0 0.0 0.0 
1.213613858406e-03 2.377637903925e-03 0.0 
2.377637903925e-03 5.174919484165e-03 0.0 
0.0 0.0 0.0 
3.114717572963e-04 -1.094043070396e-03 0.0 
-1.094043070396e-03 2.335213085789e-03 0.0 
0.0 0.0 0.0 
3.779146750992e-04 -1.276241131107e-03 0.0 
-1.276241131107e-03 2.013990654316e-03 0.0 
0.0 0.0 0.0 
2.589374747956e-04 -9.273263974171e-04 0.0 
-9.273263974171e-04 2.627581003685e-03 0.0 
0.0 0.0 0.0 
3.639235403925e-04 -8.357939097040e-04 0.0 
-8.357939097040e-04 2.940660665318e-03 0.0 
0.0 0.0 0.0 
1.346309354861e-04 -9.869263240651e-04 0.0 
-9.869263240651e-04 2.339111673097e-03 0.0 
0.0 0.0 0.0 
1.161725638625e-04 -8.286891053234e-04 0.0 
-8.286891053234e-04 2.592116099412e-03 0.0 
0.0 0.0 0.0 
1.246199324612e-05 -8.452682748496e-04 0.0 
-8.452682748496e-04 2.300368645403e-03 0.0 
0.0 0.0 0.0 
1.439159263960e-03 2.502444213694e-03 0.0 
2.502444213694e-03 2.875585950021e-03 0.0 
0.0 0.0 0.0 
-4.895215499537e-04 2.541542862996e-03 0.0 
2.541542862996e-03 9.702415406217e-03 0.0 
0.0 0.0 0.0 
1.863539341466e-05 -7.040407679099e-04 0.0 
-7.040407679099e-04 2.519608527186e-03 0.0 
0.0 0.0 0.0 
-5.326264131324e-05 -6.866501751062e-04 0.0 
-6.866501751062e-04 2.211938347376e-03 0.0 
0.0 0.0 0.0 
-8.615030750545e-05 -8.160698035514e-04 0.0 
-8.160698035514e-04 2.015682847310e-03 0.0 
0.0 0.0 0.0 
-1.036356631740e-04 -6.277984706523e-04 0.0 
-6.277984706523e-04 1.897693322667e-03 0.0 
0.0 0.0 0.0 
-1.518515422060e-03 9.829441935296e-04 0.0 
9.829441935296e-04 1.246382008576e-02 0.0 
0.0 0.0 0.0 
-1.412758188616e-03 1.149804312091e-03 0.0 
1.149804312091e-03 1.272051948932e-02 0.0 
0.0 0.0 0.0 
-1.433244353437e-03 9.197329055401e-04 0.0 
9.197329055401e-04 1.271481307750e-02 0.0 
0.0 0.0 0.0 
-1.320197476457e-03 1.095089178834e-03 0.0 
1.095089178834e-03 1.298657392065e-02 0.0 
0.0 0.0 0.0 
-1.337886247880e-03 8.829689286006e-04 0.0 
8.829689286006e-04 1.295981255700e-02 0.0 
0.0 0.0 0.0 
-6.717581984668e-05 -5.297916063913e-04 0.0 
-5.297916063913e-04 2.073712075576e-03 0.0 
0.0 0.0 0.0 
-1.173822378872e-03 1.930912947884e-03 0.0 
1.930912947884e-03 1.199342329788e-02 0.0 
0.0 0.0 0.0 
-1.273612867164e-03 1.316585408316e-03 0.0 
1.316585408316e-03 1.296344343489e-02 0.0 
0.0 0.0 0.0 
-7.606414668786e-04 2.569475787320e-03 0.0 
2.569475787320e-03 8.913966250883e-03 0.0 
0.0 0.0 0.0 
2.911146889804e-04 2.817214169452e-03 0.0 
2.817214169452e-03 6.000041938856e-03 0.0 
0.0 0.0 0.0 
2.129807795262e-03 1.215053955454e-03 0.0 
1.215053955454e-03 2.740096579476e-03 0.0 
0.0 0.0 0.0 
9.681100995296e-05 -6.854995761960e-04 0.0 
-6.854995761960e-04 2.831139701449e-03 0.0 
0.0 0.0 0.0 
1.790200302546e-05 -5.764865310766e-04 0.0 
-5.764865310766e-04 2.732031785267e-03 0.0 
0.0 0.0 0.0 
7.663338880037e-05 -5.562131380389e-04 0.0 
-5.562131380389e-04 3.057989358877e-03 0.0 
0.0 0.0 0.0 
1.135866341818e-03 -6.201835955773e-04 0.0 
-6.201835955773e-04 3.061812167358e-03 0.0 
0.0 0.0 0.0 
9.599527235170e-04 -5.592856016683e-04 0.0 
-5.592856016683e-04 3.436039187992e-03 0.0 
0.0 0.0 0.0 
1.119761522201e-03 -4.177286582163e-04 0.0 
-4.177286582163e-04 3.526962835986e-03 0.0 
0.0 0.0 0.0 
9.436108619621e-04 -3.759924546381e-04 0.0 
-3.759924546381e-04 3.887408928026e-03 0.0 
0.0 0.0 0.0 
1.069188391127e-03 -2.281468039098e-04 0.0 
-2.281468039098e-04 4.013799759031e-03 0.0 
0.0 0.0 0.0 
8.948413673762e-04 -2.044279502521e-04 0.0 
-2.044279502521e-04 4.361363789191e-03 0.0 
0.0 0.0 0.0 
7.824234309848e-04 -3.256997459821e-04 0.0 
-3.256997459821e-04 4.232053843816e-03 0.0 
0.0 0.0 0.0 
7.343568177767e-04 -1.739046360002e-04 0.0 
-1.739046360002e-04 4.696627948012e-03 0.0 
0.0 0.0 0.0 
6.367564594859e-04 -2.722469107931e-04 0.0 
-2.722469107931e-04 4.560349521486e-03 0.0 
0.0 0.0 0.0 
9.866558053415e-04 -5.439072088519e-05 0.0 
-5.439072088519e-05 4.519883890175e-03 0.0 
0.0 0.0 0.0 
1.168830432469e-03 -5.045590252772e-05 0.0 
-5.045590252772e-05 4.177057019864e-03 0.0 
0.0 0.0 0.0 
5.893817282179e-04 -1.408578040174e-04 0.0 
-1.408578040174e-04 5.017722376002e-03 0.0 
0.0 0.0 0.0 
5.068983568285e-04 -2.193087823196e-04 0.0 
-2.193087823196e-04 4.872607770560e-03 0.0 
0.0 0.0 0.0 
4.609725013508e-04 -1.078055894850e-04 0.0 
-1.078055894850e-04 5.324803525417e-03 0.0 
0.0 0.0 0.0 
3.933222314585e-04 -1.700395821150e-04 0.0 
-1.700395821150e-04 5.168987415808e-03 0.0 
0.0 0.0 0.0 
4.172485407526e-04 -2.727494920337e-04 0.0 
-2.727494920337e-04 4.737841963655e-03 0.0 
0.0 0.0 0.0 
3.208695488459e-04 -2.101006107357e-04 0.0 
-2.101006107357e-04 5.019269553293e-03 0.0 
0.0 0.0 0.0 
3.270466132453e-04 -3.009874946166e-04 0.0 
-3.009874946166e-04 4.608463099842e-03 0.0 
0.0 0.0 0.0 
2.112816785976e-03 9.472882489492e-04 0.0 
9.472882489492e-04 2.818499552935e-03 0.0 
0.0 0.0 0.0 
1.989941609315e-03 1.264775049697e-03 0.0 
1.264775049697e-03 3.383840665356e-03 0.0 
0.0 0.0 0.0 
1.959058936951e-03 1.034901056303e-03 0.0 
1.034901056303e-03 3.462275830629e-03 0.0 
0.0 0.0 0.0 
1.830597465735e-03 1.326520732399e-03 0.0 
1.326520732399e-03 4.015936255268e-03 0.0 
0.0 0.0 0.0 
1.785684459112e-03 1.128379816025e-03 0.0 
1.128379816025e-03 4.096162062232e-03 0.0 
0.0 0.0 0.0 
1.649500078938e-03 1.398693957232e-03 0.0 
1.398693957232e-03 4.641381623385e-03 0.0 
0.0 0.0 0.0 
1.588997765418e-03 1.227316998074e-03 0.0 
1.227316998074e-03 4.723732961672e-03 0.0 
0.0 0.0 0.0 
1.696909142025e-03 9.557840664347e-04 0.0 
9.557840664347e-04 4.236609811679e-03 0.0 
0.0 0.0 0.0 
-9.606089677322e-04 2.232295905300e-03 0.0 
2.232295905300e-03 1.124092321289e-02 0.0 
0.0 0.0 0.0 
2.431030611675e-03 1.180424995238e-03 0.0 
1.180424995238e-03 7.167515077224e-04 0.0 
0.0 0.0 0.0 
2.273071979962e-03 1.647331653203e-03 0.0 
1.647331653203e-03 8.062962307687e-04 0.0 
0.0 0.0 0.0 
2.486582226921e-03 1.229266513447e-03 0.0 
1.229266513447e-03 -3.964459561449e-06 0.0 
0.0 0.0 0.0 
2.264367682338e-03 1.775058929063e-03 0.0 
1.775058929063e-03 1.397492738417e-04 0.0 
0.0 0.0 0.0 
2.510929238531e-03 1.329895898877e-03 0.0 
1.329895898877e-03 -7.553538236310e-04 0.0 
0.0 0.0 0.0 
2.197313330097e-03 1.967522789019e-03 0.0 
1.967522789019e-03 -5.267945156343e-04 0.0 
0.0 0.0 0.0 
2.491860195376e-03 1.501323417476e-03 0.0 
1.501323417476e-03 -1.540322308013e-03 0.0 
0.0 0.0 0.0 
2.697861333218e-03 7.346467134884e-04 0.0 
7.346467134884e-04 -1.579834331423e-03 0.0 
0.0 0.0 0.0 
2.726235089702e-03 8.293846685845e-04 0.0 
8.293846685845e-04 -2.492974123082e-03 0.0 
0.0 0.0 0.0 
2.757583241985e-03 -2.405360684064e-05 0.0 
-2.405360684064e-05 -2.236462773581e-03 0.0 
0.0 0.0 0.0 
2.786626291051e-03 -6.187073468138e-05 0.0 
-6.187073468138e-05 -3.187896852034e-03 0.0 
0.0 0.0 0.0 
2.611842952630e-03 -8.921379974501e-04 0.0 
-8.921379974501e-04 -2.619609958749e-03 0.0 
0.0 0.0 0.0 
4.418315233707e-04 2.637311762884e-03 0.0 
2.637311762884e-03 7.098716726127e-03 0.0 
0.0 0.0 0.0 
1.664850270494e-03 1.588738435061e-03 0.0 
1.588738435061e-03 4.618328710740e-03 0.0 
0.0 0.0 0.0 
1.480201036285e-03 1.647646739786e-03 0.0 
1.647646739786e-03 5.232420250726e-03 0.0 
0.0 0.0 0.0 
1.473378160553e-03 1.821118442722e-03 0.0 
1.821118442722e-03 5.252969218712e-03 0.0 
0.0 0.0 0.0 
-1.572195279771e-04 -7.329436837935e-04 0.0 
-7.329436837935e-04 1.723028883189e-03 0.0 
0.0 0.0 0.0 
2.963998712289e-04 -1.263305186476e-04 0.0 
-1.263305186476e-04 5.449498905914e-03 0.0 
0.0 0.0 0.0 
1.050523419793e-03 1.196080606845e-04 0.0 
1.196080606845e-04 4.715443118187e-03 0.0 
0.0 0.0 0.0 
1.234757148631e-03 1.506080299992e-04 0.0 
1.506080299992e-04 4.382879404206e-03 0.0 
0.0 0.0 0.0 
1.488918477895e-03 1.077310029594e-03 0.0 
1.077310029594e-03 4.865790495342e-03 0.0 
0.0 0.0 0.0 
-6.970861990370e-05 -4.586879654659e-04 0.0 
-4.586879654659e-04 1.728095028607e-03 0.0 
0.0 0.0 0.0 
2.042392642851e-03 2.229242353867e-03 0.0 
2.229242353867e-03 -1.174636068897e-03 0.0 
0.0 0.0 0.0 
1.701421480485e-03 2.535264707222e-03 0.0 
2.535264707222e-03 -4.613533373865e-05 0.0 
0.0 0.0 0.0 
-1.210943017792e-03 1.049095430919e-03 0.0 
1.049095430919e-03 1.323163436524e-02 0.0 
0.0 0.0 0.0 
-1.228866027529e-03 8.536693314434e-04 0.0 
8.536693314434e-04 1.318594760299e-02 0.0 
0.0 0.0 0.0 
1.080116559330e-03 3.133576086509e-04 0.0 
3.133576086509e-04 4.953030579911e-03 0.0 
0.0 0.0 0.0 
-3.897632791811e-05 -3.861680571454e-04 0.0 
-3.861680571454e-04 1.896256748837e-03 0.0 
0.0 0.0 0.0 
6.577729766314e-04 -3.768252314253e-05 0.0 
-3.768252314253e-05 5.181526277773e-03 0.0 
0.0 0.0 0.0 
2.625955699145e-03 9.381363914122e-04 0.0 
9.381363914122e-04 -3.304476280849e-03 0.0 
0.0 0.0 0.0 
2.399961560327e-04 -1.544699000029e-04 0.0 
-1.544699000029e-04 5.284532600800e-03 0.0 
0.0 0.0 0.0 
2.159044103501e-04 -8.846571780599e-05 0.0 
-8.846571780599e-05 5.712831089120e-03 0.0 
0.0 0.0 0.0 
6.574013132087e-04 -4.145153090680e-04 0.0 
-4.145153090680e-04 4.124342862098e-03 0.0 
0.0 0.0 0.0 
1.288292051317e-03 1.873817371635e-03 0.0 
1.873817371635e-03 5.855309189556e-03 0.0 
0.0 0.0 0.0 
1.264079533696e-03 2.022295253674e-03 0.0 
2.022295253674e-03 5.909613637608e-03 0.0 
0.0 0.0 0.0 
2.569672695629e-03 -6.860131775773e-04 0.0 
-6.860131775773e-04 -1.713653188310e-03 0.0 
0.0 0.0 0.0 
2.241629476268e-03 -1.451446652554e-03 0.0 
-1.451446652554e-03 -1.813143283034e-03 0.0 
0.0 0.0 0.0 
2.145989945749e-03 -1.712751907858e-03 0.0 
-1.712751907858e-03 -2.522869979424e-03 0.0 
0.0 0.0 0.0 
1.667250662801e-03 -2.081479911581e-03 0.0 
-2.081479911581e-03 -1.533163907252e-03 0.0 
0.0 0.0 0.0 
1.855479730255e-03 -1.718198996960e-03 0.0 
-1.718198996960e-03 -9.762534133304e-04 0.0 
0.0 0.0 0.0 
1.289078596708e-03 -2.141301813678e-03 0.0 
-2.141301813678e-03 -6.731727884562e-04 0.0 
0.0 0.0 0.0 
9.764946201654e-04 -2.414099980335e-03 0.0 
-2.414099980335e-03 -1.020602349835e-03 0.0 
0.0 0.0 0.0 
6.492524374115e-04 -2.325478692132e-03 0.0 
-2.325478692132e-03 -1.826779688958e-04 0.0 
0.0 0.0 0.0 
9.774646237003e-04 -2.055256161738e-03 0.0 
-2.055256161738e-03 9.134741021353e-05 0.0 
0.0 0.0 0.0 
4.299371924992e-04 -2.101549071842e-03 0.0 
-2.101549071842e-03 4.914319135673e-04 0.0 
0.0 0.0 0.0 
3.387397234750e-05 -2.180912573392e-03 0.0 
-2.180912573392e-03 3.743196051982e-04 0.0 
0.0 0.0 0.0 
-4.267130067603e-05 -1.906617789730e-03 0.0 
-1.906617789730e-03 8.834242478798e-04 0.0 
0.0 0.0 0.0 
2.551788210119e-04 -5.348649386730e-05 0.0 
-5.348649386730e-05 5.894410537055e-03 0.0 
0.0 0.0 0.0 
2.574919484765e-03 -4.016263973438e-05 0.0 
-4.016263973438e-05 -3.826806680594e-03 0.0 
0.0 0.0 0.0 
-1.353298560211e-03 2.039034169847e-03 0.0 
2.039034169847e-03 1.064669283665e-02 0.0 
0.0 0.0 0.0 
9.019414150087e-04 2.695791133618e-04 0.0 
2.695791133618e-04 5.268117699685e-03 0.0 
0.0 0.0 0.0 
1.364214702429e-03 1.334001282268e-03 0.0 
1.334001282268e-03 5.348588787539e-03 0.0 
0.0 0.0 0.0 
-1.087771281334e-03 1.010470968507e-03 0.0 
1.010470968507e-03 1.346087073713e-02 0.0 
0.0 0.0 0.0 
-1.109487602586e-03 8.282589898979e-04 0.0 
8.282589898979e-04 1.339911621904e-02 0.0 
0.0 0.0 0.0 
-1.223104767253e-03 6.772182722759e-04 0.0 
6.772182722759e-04 1.309831135465e-02 0.0 
0.0 0.0 0.0 
-1.112286592237e-03 6.634188882611e-04 0.0 
6.634188882611e-04 1.330283354773e-02 0.0 
0.0 0.0 0.0 
-9.802598340036e-04 8.024720246815e-04 0.0 
8.024720246815e-04 1.359992660201e-02 0.0 
0.0 0.0 0.0 
-9.937594440032e-04 6.470977984044e-04 0.0 
6.470977984044e-04 1.349800555102e-02 0.0 
0.0 0.0 0.0 
-1.101754184331e-03 5.186633974120e-04 0.0 
5.186633974120e-04 1.317894321805e-02 0.0 
0.0 0.0 0.0 
-9.950159860136e-04 5.102488889254e-04 0.0 
5.102488889254e-04 1.337179851405e-02 0.0 
0.0 0.0 0.0 
-1.081854721537e-03 3.944722474513e-04 0.0 
3.944722474513e-04 1.303291377084e-02 0.0 
0.0 0.0 0.0 
-9.879237773707e-04 3.930276641669e-04 0.0 
3.930276641669e-04 1.322615251433e-02 0.0 
0.0 0.0 0.0 
-8.834276225078e-04 4.968145338120e-04 0.0 
4.968145338120e-04 1.355893135326e-02 0.0 
0.0 0.0 0.0 
-8.889095857452e-04 3.849097732824e-04 0.0 
3.849097732824e-04 1.341381064541e-02 0.0 
0.0 0.0 0.0 
-9.765978029547e-04 2.946830806743e-04 0.0 
2.946830806743e-04 1.306535644831e-02 0.0 
0.0 0.0 0.0 
-8.903259591423e-04 2.896086964743e-04 0.0 
2.896086964743e-04 1.325594147651e-02 0.0 
0.0 0.0 0.0 
-9.642950437496e-04 2.135750699153e-04 0.0 
2.135750699153e-04 1.289370297954e-02 0.0 
0.0 0.0 0.0 
-8.899392357797e-04 2.102529193997e-04 0.0 
2.102529193997e-04 1.308667781714e-02 0.0 
0.0 0.0 0.0 
-8.002519774957e-04 2.772222727370e-04 0.0 
2.772222727370e-04 1.344227426076e-02 0.0 
0.0 0.0 0.0 
3.747455970815e-06 -3.212742732470e-04 0.0 
-3.212742732470e-04 1.526339012081e-03 0.0 
0.0 0.0 0.0 
1.571690195305e-03 8.111652652687e-04 0.0 
8.111652652687e-04 4.427534694354e-03 0.0 
0.0 0.0 0.0 
1.352726694154e-03 9.500702390812e-04 0.0 
9.500702390812e-04 5.059120009133e-03 0.0 
0.0 0.0 0.0 
1.286469661271e-05 -4.637532158270e-04 0.0 
-4.637532158270e-04 2.943285104642e-03 0.0 
0.0 0.0 0.0 
5.916707898586e-05 -4.402760757919e-04 0.0 
-4.402760757919e-04 3.272383272058e-03 0.0 
0.0 0.0 0.0 
1.342484086994e-04 -5.114861076685e-04 0.0 
-5.114861076685e-04 3.394146144326e-03 0.0 
0.0 0.0 0.0 
1.013668244803e-04 -3.973879344151e-04 0.0 
-3.973879344151e-04 3.624417667344e-03 0.0 
0.0 0.0 0.0 
-8.135085048946e-04 1.988460862416e-04 0.0 
1.988460862416e-04 1.327528926705e-02 0.0 
0.0 0.0 0.0 
-7.091540972388e-04 2.560272966574e-04 0.0 
2.560272966574e-04 1.362532502135e-02 0.0 
0.0 0.0 0.0 
1.398522629989e-03 2.814782136745e-03 0.0 
2.814782136745e-03 -5.018121748439e-04 0.0 
0.0 0.0 0.0 
1.066529693004e-03 2.953503035428e-03 0.0 
2.953503035428e-03 6.532621183320e-04 0.0 
0.0 0.0 0.0 
-1.042858696605e-03 1.207956938350e-03 0.0 
1.207956938350e-03 1.348318552617e-02 0.0 
0.0 0.0 0.0 
1.736793880189e-04 -1.067333898030e-04 0.0 
-1.067333898030e-04 5.534979584073e-03 0.0 
0.0 0.0 0.0 
1.838734853540e-04 -1.628868305244e-04 0.0 
-1.628868305244e-04 5.122138284914e-03 0.0 
0.0 0.0 0.0 
5.448273989392e-04 2.814026370137e-03 0.0 
2.814026370137e-03 5.148716336063e-03 0.0 
0.0 0.0 0.0 
1.696559136168e-04 2.867298249279e-03 0.0 
2.867298249279e-03 5.684674727266e-03 0.0 
0.0 0.0 0.0 
3.994783779196e-04 2.877567383184e-03 0.0 
2.877567383184e-03 4.822300416813e-03 0.0 
0.0 0.0 0.0 
-8.068780472511e-06 2.893999132905e-03 0.0 
2.893999132905e-03 5.401969185143e-03 0.0 
0.0 0.0 0.0 
-2.096216205089e-04 2.857383617371e-03 0.0 
2.857383617371e-03 6.256776429277e-03 0.0 
0.0 0.0 0.0 
1.800231857787e-04 2.923167274222e-03 0.0 
2.923167274222e-03 4.533579287664e-03 0.0 
0.0 0.0 0.0 
1.358997883864e-03 -3.184414914484e-05 0.0 
-3.184414914484e-05 3.826233882710e-03 0.0 
0.0 0.0 0.0 
-7.682398740194e-04 4.761488396383e-04 0.0 
4.761488396383e-04 1.373950875175e-02 0.0 
0.0 0.0 0.0 
-1.337382080880e-04 -9.587364452091e-04 0.0 
-9.587364452091e-04 1.815650524291e-03 0.0 
0.0 0.0 0.0 
-2.321592128341e-04 -8.452786576542e-04 0.0 
-8.452786576542e-04 1.551757963923e-03 0.0 
0.0 0.0 0.0 
1.508042122196e-04 -5.714789160695e-05 0.0 
-5.714789160695e-05 5.962356977236e-03 0.0 
0.0 0.0 0.0 
1.760267856270e-03 6.703881791040e-04 0.0 
6.703881791040e-04 3.804056724081e-03 0.0 
0.0 0.0 0.0 
1.933120408061e-04 2.645189081434e-03 0.0 
2.645189081434e-03 7.871487362857e-03 0.0 
0.0 0.0 0.0 
4.435674911700e-04 2.597845395811e-03 0.0 
2.597845395811e-03 7.499141245185e-03 0.0 
0.0 0.0 0.0 
2.077860701279e-04 2.620975744228e-03 0.0 
2.620975744228e-03 8.250136522484e-03 0.0 
0.0 0.0 0.0 
4.269162981991e-04 2.580896042368e-03 0.0 
2.580896042368e-03 7.910981330680e-03 0.0 
0.0 0.0 0.0 
2.074680969679e-04 2.621307393483e-03 0.0 
2.621307393483e-03 8.641893285220e-03 0.0 
0.0 0.0 0.0 
3.906813876121e-04 2.592446981703e-03 0.0 
2.592446981703e-03 8.335237503864e-03 0.0 
0.0 0.0 0.0 
6.104851581426e-04 2.517947530390e-03 0.0 
2.517947530390e-03 7.618565480938e-03 0.0 
0.0 0.0 0.0 
1.085530356228e-03 2.079541551711e-03 0.0 
2.079541551711e-03 6.497944088552e-03 0.0 
0.0 0.0 0.0 
5.355711692010e-04 2.546370637621e-03 0.0 
2.546370637621e-03 8.080896574286e-03 0.0 
0.0 0.0 0.0 
-8.912607490955e-04 1.488999950865e-04 0.0 
1.488999950865e-04 1.290522451606e-02 0.0 
0.0 0.0 0.0 
1.633614677550e-03 1.789406187423e-03 0.0 
1.789406187423e-03 4.652296971007e-03 0.0 
0.0 0.0 0.0 
7.500645251362e-04 -1.877029476990e-03 0.0 
-1.877029476990e-03 7.216024083383e-04 0.0 
0.0 0.0 0.0 
-2.835906776472e-05 -3.621404168274e-04 0.0 
-3.621404168274e-04 1.363088230986e-03 0.0 
0.0 0.0 0.0 
-3.821815268527e-04 -1.766407340174e-03 0.0 
-1.766407340174e-03 8.183388065147e-04 0.0 
0.0 0.0 0.0 
1.717818457414e-05 -2.638061198592e-04 0.0 
-2.638061198592e-04 1.680479341433e-03 0.0 
0.0 0.0 0.0 
-2.503609227726e-05 -3.123016626635e-04 0.0 
-3.123016626635e-04 2.068153707165e-03 0.0 
0.0 0.0 0.0 
8.947521674844e-04 4.567199265752e-04 0.0 
4.567199265752e-04 5.534041152950e-03 0.0 
0.0 0.0 0.0 
1.911304919540e-04 2.654865124968e-03 0.0 
2.654865124968e-03 9.048535502385e-03 0.0 
0.0 0.0 0.0 
1.376603022964e-05 2.646785485354e-03 0.0 
2.646785485354e-03 9.346314407067e-03 0.0 
0.0 0.0 0.0 
-4.032220487602e-04 2.845871124281e-03 0.0 
2.845871124281e-03 6.020097504356e-03 0.0 
0.0 0.0 0.0 
-5.809854136840e-04 2.771370359799e-03 0.0 
2.771370359799e-03 6.860555560692e-03 0.0 
0.0 0.0 0.0 
1.077154068262e-03 1.946968929838e-03 0.0 
1.946968929838e-03 6.457288071642e-03 0.0 
0.0 0.0 0.0 
-1.415028683448e-03 7.170240581623e-04 0.0 
7.170240581623e-04 1.266148453809e-02 0.0 
0.0 0.0 0.0 
-1.170162314477e-03 3.911449703538e-04 0.0 
3.911449703538e-04 1.283482232368e-02 0.0 
0.0 0.0 0.0 
-1.129432984611e-03 2.830277912427e-04 0.0 
2.830277912427e-04 1.266725619111e-02 0.0 
0.0 0.0 0.0 
1.088030907886e-04 -2.053493439209e-04 0.0 
-2.053493439209e-04 1.230863354669e-03 0.0 
0.0 0.0 0.0 
-3.471002296723e-04 -2.047944274319e-03 0.0 
-2.047944274319e-03 3.929381477703e-04 0.0 
0.0 0.0 0.0 
-8.458345576644e-04 7.725334763391e-04 0.0 
7.725334763391e-04 1.379140489169e-02 0.0 
0.0 0.0 0.0 
1.386802199648e-03 2.707835774192e-03 0.0 
2.707835774192e-03 1.021962828560e-03 0.0 
0.0 0.0 0.0 
7.905666948277e-04 2.985520319696e-03 0.0 
2.985520319696e-03 1.713821698394e-03 0.0 
0.0 0.0 0.0 
2.194612756104e-03 1.070047338869e-03 0.0 
1.070047338869e-03 -3.736150652895e-03 0.0 
0.0 0.0 0.0 
1.946384165382e-03 2.418983061110e-05 0.0 
2.418983061110e-05 -4.183832620121e-03 0.0 
0.0 0.0 0.0 
-7.343991698865e-04 1.819186305593e-04 0.0 
1.819186305593e-04 1.345882806761e-02 0.0 
0.0 0.0 0.0 
-6.192253134282e-04 2.248684916858e-04 0.0 
2.248684916858e-04 1.379828977400e-02 0.0 
0.0 0.0 0.0 
1.835840599868e-04 -4.515533810384e-04 0.0 
-4.515533810384e-04 3.742959052361e-03 0.0 
0.0 0.0 0.0 
1.380852742212e-04 -3.456402200733e-04 0.0 
-3.456402200733e-04 3.981148665955e-03 0.0 
0.0 0.0 0.0 
1.071827477887e-03 5.234653925496e-04 0.0 
5.234653925496e-04 5.240381696782e-03 0.0 
0.0 0.0 0.0 
-3.491088269261e-04 -1.541269091177e-03 0.0 
-1.541269091177e-03 1.146463066034e-03 0.0 
0.0 0.0 0.0 
-5.786788559342e-04 3.106503184021e-04 0.0 
3.106503184021e-04 1.395206438510e-02 0.0 
0.0 0.0 0.0 
1.610489561195e-03 5.398543810736e-04 0.0 
5.398543810736e-04 4.048920907229e-03 0.0 
0.0 0.0 0.0 
1.774182100705e-03 3.763981551767e-04 0.0 
3.763981551767e-04 3.436497209222e-03 0.0 
0.0 0.0 0.0 
3.637416667452e-05 -3.209965890637e-04 0.0 
-3.209965890637e-04 3.486125548263e-03 0.0 
0.0 0.0 0.0 
6.096515835186e-04 3.156145821267e-03 0.0 
3.156145821267e-03 4.236547584721e-04 0.0 
0.0 0.0 0.0 
9.289667888545e-04 3.010327923428e-03 0.0 
3.010327923428e-03 -7.589233663570e-04 0.0 
0.0 0.0 0.0 
1.218345113914e-03 -1.746059526994e-03 0.0 
-1.746059526994e-03 4.477578642034e-04 0.0 
0.0 0.0 0.0 
-5.630049485481e-05 -1.635168402840e-03 0.0 
-1.635168402840e-03 1.268364615696e-03 0.0 
0.0 0.0 0.0 
1.921828319005e-05 -2.084633257222e-04 0.0 
-2.084633257222e-04 1.852786395492e-03 0.0 
0.0 0.0 0.0 
8.512395032492e-04 6.625999539125e-04 0.0 
6.625999539125e-04 5.845150762315e-03 0.0 
0.0 0.0 0.0 
-8.070416916864e-04 9.340563972368e-04 0.0 
9.340563972368e-04 1.387002472703e-02 0.0 
0.0 0.0 0.0 
7.476093695090e-04 2.435903654444e-03 0.0 
2.435903654444e-03 7.383126708582e-03 0.0 
0.0 0.0 0.0 
8.426263128532e-04 2.425677102385e-03 0.0 
2.425677102385e-03 6.891004713337e-03 0.0 
0.0 0.0 0.0 
6.344878780343e-04 2.481355756140e-03 0.0 
2.481355756140e-03 7.877220252106e-03 0.0 
0.0 0.0 0.0 
-5.470782337026e-04 -1.281784495377e-03 0.0 
-1.281784495377e-03 1.017412705442e-03 0.0 
0.0 0.0 0.0 
7.184517526776e-04 3.956526238166e-04 0.0 
3.956526238166e-04 5.845267741126e-03 0.0 
0.0 0.0 0.0 
1.212607103425e-04 -6.753669076519e-05 0.0 
-6.753669076519e-05 5.771874219131e-03 0.0 
0.0 0.0 0.0 
1.686408676247e-05 2.705109887034e-03 0.0 
2.705109887034e-03 9.722734230770e-03 0.0 
0.0 0.0 0.0 
-1.462023503039e-04 2.661395227021e-03 0.0 
2.661395227021e-03 1.001493784385e-02 0.0 
0.0 0.0 0.0 
1.106655310821e-03 2.802380710532e-03 0.0 
2.802380710532e-03 2.024958660412e-03 0.0 
0.0 0.0 0.0 
5.615248165588e-04 2.972198272372e-03 0.0 
2.972198272372e-03 2.701341371808e-03 0.0 
0.0 0.0 0.0 
1.546062414739e-04 3.096738398477e-03 0.0 
3.096738398477e-03 2.508041013802e-03 0.0 
0.0 0.0 0.0 
9.261190232997e-06 3.022053751042e-03 0.0 
3.022053751042e-03 3.433042367202e-03 0.0 
0.0 0.0 0.0 
-1.575247367614e-03 1.571813202999e-03 0.0 
1.571813202999e-03 1.141761415576e-02 0.0 
0.0 0.0 0.0 
8.549619011227e-04 2.849178014156e-03 0.0 
2.849178014156e-03 2.987197321299e-03 0.0 
0.0 0.0 0.0 
-1.230836039701e-03 2.229289484370e-03 0.0 
2.229289484370e-03 1.007043735499e-02 0.0 
0.0 0.0 0.0 
-1.465784387795e-03 1.962288340057e-03 0.0 
1.962288340057e-03 1.048594805436e-02 0.0 
0.0 0.0 0.0 
-1.341061425977e-03 2.177593926808e-03 0.0 
2.177593926808e-03 9.904271830664e-03 0.0 
0.0 0.0 0.0 
-4.272531460333e-04 2.788833684388e-03 0.0 
2.788833684388e-03 7.093375899842e-03 0.0 
0.0 0.0 0.0 
-7.765016164051e-04 2.671760235025e-03 0.0 
2.671760235025e-03 7.685031478065e-03 0.0 
0.0 0.0 0.0 
1.991711022972e-03 2.102805278739e-03 0.0 
2.102805278739e-03 1.058042908449e-03 0.0 
0.0 0.0 0.0 
1.964580986491e-03 1.518884072098e-03 0.0 
1.518884072098e-03 3.378605320370e-03 0.0 
0.0 0.0 0.0 
2.360142149193e-04 -5.680146351441e-04 0.0 
-5.680146351441e-04 3.492147018600e-03 0.0 
0.0 0.0 0.0 
4.200168702048e-04 -3.820790411856e-04 0.0 
-3.820790411856e-04 4.327815065357e-03 0.0 
0.0 0.0 0.0 
1.309021524697e-03 -4.437426975282e-04 0.0 
-4.437426975282e-04 3.151044229364e-03 0.0 
0.0 0.0 0.0 
-7.433310656656e-04 5.990745926029e-04 0.0 
5.990745926029e-04 1.386644541525e-02 0.0 
0.0 0.0 0.0 
-6.147016476623e-04 5.639749878527e-04 0.0 
5.639749878527e-04 1.404278985157e-02 0.0 
0.0 0.0 0.0 
-1.033181526320e-03 2.091398427963e-04 0.0 
2.091398427963e-04 1.269427083189e-02 0.0 
0.0 0.0 0.0 
-1.008633299533e-03 1.411229668823e-04 0.0 
1.411229668823e-04 1.250887544111e-02 0.0 
0.0 0.0 0.0 
-1.759577447773e-04 -5.950780293161e-04 0.0 
-5.950780293161e-04 1.402231921327e-03 0.0 
0.0 0.0 0.0 
-2.680378564966e-04 -6.611171538809e-04 0.0 
-6.611171538809e-04 1.255193610509e-03 0.0 
0.0 0.0 0.0 
7.868794672761e-04 -6.579735909117e-04 0.0 
-6.579735909117e-04 3.372388981018e-03 0.0 
0.0 0.0 0.0 
7.294891714735e-04 2.341100141731e-04 0.0 
2.341100141731e-04 5.581321298794e-03 0.0 
0.0 0.0 0.0 
-9.031045763060e-04 1.157812252594e-03 0.0 
1.157812252594e-03 1.371052115734e-02 0.0 
0.0 0.0 0.0 
-8.327124438793e-04 1.360112874296e-03 0.0 
1.360112874296e-03 1.371174889432e-02 0.0 
0.0 0.0 0.0 
-9.742488710971e-04 1.417154046970e-03 0.0 
1.417154046970e-03 1.346508587383e-02 0.0 
0.0 0.0 0.0 
1.027689724113e-03 7.486711579798e-04 0.0 
7.486711579798e-04 5.566444744279e-03 0.0 
0.0 0.0 0.0 
2.563140605268e-03 7.072925717790e-04 0.0 
7.072925717790e-04 4.431094230197e-05 0.0 
0.0 0.0 0.0 
2.040484585224e-03 7.160607243943e-04 0.0 
7.160607243943e-04 2.969812397613e-03 0.0 
0.0 0.0 0.0 
2.126730906144e-03 -1.048161098105e-03 0.0 
-1.048161098105e-03 -3.850464041951e-03 0.0 
0.0 0.0 0.0 
9.524955053919e-04 2.481381872227e-03 0.0 
2.481381872227e-03 5.955782797154e-03 0.0 
0.0 0.0 0.0 
-1.164358331482e-04 -4.238856882978e-04 0.0 
-4.238856882978e-04 1.037646497867e-03 0.0 
0.0 0.0 0.0 
-6.408199166162e-04 2.466325007827e-03 0.0 
2.466325007827e-03 1.034386969007e-02 0.0 
0.0 0.0 0.0 
1.009594552771e-04 -3.274268267396e-05 0.0 
-3.274268267396e-05 6.199628397262e-03 0.0 
0.0 0.0 0.0 
1.180177969729e-04 -1.733898726780e-05 0.0 
-1.733898726780e-05 6.399594317544e-03 0.0 
0.0 0.0 0.0 
8.769075120210e-04 2.153656523836e-03 0.0 
2.153656523836e-03 7.076225804348e-03 0.0 
0.0 0.0 0.0 
-1.698533771067e-03 1.077879778293e-03 0.0 
1.077879778293e-03 1.138905501618e-02 0.0 
0.0 0.0 0.0 
1.159727545603e-03 2.334563365166e-03 0.0 
2.334563365166e-03 5.668553091653e-03 0.0 
0.0 0.0 0.0 
1.408162179759e-03 2.189573183475e-03 0.0 
2.189573183475e-03 4.918844467760e-03 0.0 
0.0 0.0 0.0 
-1.563795432045e-03 1.856943726502e-03 0.0 
1.856943726502e-03 1.034160683401e-02 0.0 
0.0 0.0 0.0 
-1.443577006939e-03 2.094721462070e-03 0.0 
2.094721462070e-03 9.766870146734e-03 0.0 
0.0 0.0 0.0 
-1.171845385680e-03 2.375939271917e-03 0.0 
2.375939271917e-03 9.235647008590e-03 0.0 
0.0 0.0 0.0 
-1.284099083668e-03 2.315457812640e-03 0.0 
2.315457812640e-03 9.069920627170e-03 0.0 
0.0 0.0 0.0 
9.855893448799e-04 -1.628179817696e-03 0.0 
-1.628179817696e-03 1.021461346494e-03 0.0 
0.0 0.0 0.0 
5.883582982156e-04 -1.672493262875e-03 0.0 
-1.672493262875e-03 1.232226164684e-03 0.0 
0.0 0.0 0.0 
1.535528565665e-04 2.747910771176e-03 0.0 
2.747910771176e-03 9.505091029641e-03 0.0 
0.0 0.0 0.0 
4.431195908623e-04 2.626208197419e-03 0.0 
2.626208197419e-03 8.545765783751e-03 0.0 
0.0 0.0 0.0 
-1.002770027671e-04 2.752705644620e-03 0.0 
2.752705644620e-03 1.035855929257e-02 0.0 
0.0 0.0 0.0 
-2.586286041696e-04 2.676125251558e-03 0.0 
2.676125251558e-03 1.065636756709e-02 0.0 
0.0 0.0 0.0 
8.407729784256e-04 2.037229411238e-03 0.0 
2.037229411238e-03 7.055335073386e-03 0.0 
0.0 0.0 0.0 
1.034678583513e-03 1.812975754232e-03 0.0 
1.812975754232e-03 6.463232094853e-03 0.0 
0.0 0.0 0.0 
-2.224257210187e-05 -2.381438496189e-04 0.0 
-2.381438496189e-04 2.232873891799e-03 0.0 
0.0 0.0 0.0 
-9.392754545995e-04 2.613179842489e-03 0.0 
2.613179842489e-03 7.488290662535e-03 0.0 
0.0 0.0 0.0 
-6.589307302713e-04 8.903400805577e-04 0.0 
8.903400805577e-04 1.406026418733e-02 0.0 
0.0 0.0 0.0 
-1.634207197803e-03 1.625202914867e-03 0.0 
1.625202914867e-03 1.082749915678e-02 0.0 
0.0 0.0 0.0 
5.483009517273e-04 3.364899929589e-04 0.0 
3.364899929589e-04 6.137431879026e-03 0.0 
0.0 0.0 0.0 
5.704412263957e-04 2.031913784898e-04 0.0 
2.031913784898e-04 5.898201558457e-03 0.0 
0.0 0.0 0.0 
1.311451501597e-03 -9.690215264141e-04 0.0 
-9.690215264141e-04 -4.237830530658e-03 0.0 
0.0 0.0 0.0 
1.272903649788e-03 -2.074726713804e-03 0.0 
-2.074726713804e-03 -3.283693311626e-03 0.0 
0.0 0.0 0.0 
-4.797999151262e-04 2.654541061303e-04 0.0 
2.654541061303e-04 1.412304292959e-02 0.0 
0.0 0.0 0.0 
-4.662957884454e-04 3.049919932650e-03 0.0 
3.049919932650e-03 3.320438245829e-03 0.0 
0.0 0.0 0.0 
-5.293371967472e-04 2.936459075512e-03 0.0 
2.936459075512e-03 4.161421181863e-03 0.0 
0.0 0.0 0.0 
-3.502678971368e-04 3.152289991330e-03 0.0 
3.152289991330e-03 2.412619062831e-03 0.0 
0.0 0.0 0.0 
2.101597321765e-05 1.942754130170e-06 0.0 
1.942754130170e-06 7.128242274484e-03 0.0 
0.0 0.0 0.0 
-9.526462731884e-04 4.132336881502e-06 0.0 
4.132336881502e-06 1.168514994137e-02 0.0 
0.0 0.0 0.0 
7.564064218490e-05 -6.423970194812e-06 0.0 
-6.423970194812e-06 6.635845516819e-03 0.0 
0.0 0.0 0.0 
-6.498866038731e-04 2.693042581337e-03 0.0 
2.693042581337e-03 7.912402683077e-03 0.0 
0.0 0.0 0.0 
-4.227835901674e-04 3.635468425771e-04 0.0 
3.635468425771e-04 1.426651921910e-02 0.0 
0.0 0.0 0.0 
1.316924364766e-03 2.168408542585e-03 0.0 
2.168408542585e-03 5.456395238351e-03 0.0 
0.0 0.0 0.0 
8.002295631629e-04 2.788711355630e-03 0.0 
2.788711355630e-03 4.267332949672e-03 0.0 
0.0 0.0 0.0 
1.246504111596e-03 6.023892896938e-04 0.0 
6.023892896938e-04 4.951796553074e-03 0.0 
0.0 0.0 0.0 
-5.399812326089e-04 1.689187944055e-04 0.0 
1.689187944055e-04 1.395256059732e-02 0.0 
0.0 0.0 0.0 
-3.800157768558e-04 2.109113145301e-04 0.0 
2.109113145301e-04 1.429880931578e-02 0.0 
0.0 0.0 0.0 
-1.194417245849e-03 2.728309643368e-04 0.0 
2.728309643368e-04 1.246100083791e-02 0.0 
0.0 0.0 0.0 
-1.148684714678e-03 1.772712820961e-04 0.0 
1.772712820961e-04 1.226672823695e-02 0.0 
0.0 0.0 0.0 
-1.249778473821e-03 3.837053466798e-04 0.0 
3.837053466798e-04 1.261910507091e-02 0.0 
0.0 0.0 0.0 
2.117857386493e-03 1.908292240734e-03 0.0 
1.908292240734e-03 -2.880931943817e-03 0.0 
0.0 0.0 0.0 
1.398297845837e-03 2.213970877251e-03 0.0 
2.213970877251e-03 -3.043278067665e-03 0.0 
0.0 0.0 0.0 
-6.521146532993e-04 4.458130493058e-04 0.0 
4.458130493058e-04 1.391568364022e-02 0.0 
0.0 0.0 0.0 
-2.527766016728e-05 -4.592618722679e-04 0.0 
-4.592618722679e-04 2.602941541054e-03 0.0 
0.0 0.0 0.0 
-2.388550130840e-05 -3.480256960573e-04 0.0 
-3.480256960573e-04 2.831953903981e-03 0.0 
0.0 0.0 0.0 
-2.763152729085e-04 -1.321462172913e-03 0.0 
-1.321462172913e-03 1.404840245752e-03 0.0 
0.0 0.0 0.0 
-3.880186765900e-05 -1.388460971765e-03 0.0 
-1.388460971765e-03 1.575496280753e-03 0.0 
0.0 0.0 0.0 
2.846732325638e-04 -4.850320381821e-04 0.0 
-4.850320381821e-04 3.847020678881e-03 0.0 
0.0 0.0 0.0 
3.597857594667e-04 -5.992180883386e-04 0.0 
-5.992180883386e-04 3.572751272350e-03 0.0 
0.0 0.0 0.0 
-4.085035788456e-04 2.556694823135e-03 0.0 
2.556694823135e-03 9.997428190057e-03 0.0 
0.0 0.0 0.0 
-5.383590267200e-04 2.508526306401e-03 0.0 
2.508526306401e-03 1.062136299444e-02 0.0 
0.0 0.0 0.0 
-3.665740128441e-05 2.632392002385e-03 0.0 
2.632392002385e-03 8.618559757949e-03 0.0 
0.0 0.0 0.0 
1.603051433703e-03 2.680307560281e-04 0.0 
2.680307560281e-04 3.729512876012e-03 0.0 
0.0 0.0 0.0 
1.736332930558e-03 8.414350773430e-05 0.0 
8.414350773430e-05 3.138632418839e-03 0.0 
0.0 0.0 0.0 
1.913071386064e-03 2.054869565592e-04 0.0 
2.054869565592e-04 2.826663377505e-03 0.0 
0.0 0.0 0.0 
-5.682508383909e-04 6.920537151450e-04 0.0 
6.920537151450e-04 1.414240821692e-02 0.0 
0.0 0.0 0.0 
-4.131870241279e-04 6.491034189286e-04 0.0 
6.491034189286e-04 1.434020120056e-02 0.0 
0.0 0.0 0.0 
1.381279452600e-03 -1.451921814203e-03 0.0 
-1.451921814203e-03 8.502655402431e-04 0.0 
0.0 0.0 0.0 
1.651217813148e-03 -1.460810042334e-03 0.0 
-1.460810042334e-03 2.624939411043e-04 0.0 
0.0 0.0 0.0 
8.000562502802e-04 -1.477061454651e-03 0.0 
-1.477061454651e-03 1.507557546926e-03 0.0 
0.0 0.0 0.0 
-5.963890131563e-04 1.059026787730e-03 0.0 
1.059026787730e-03 1.411817597306e-02 0.0 
0.0 0.0 0.0 
8.186792862441e-05 1.226601529740e-05 0.0 
1.226601529740e-05 6.841542814878e-03 0.0 
0.0 0.0 0.0 
1.260041056552e-04 6.343580542990e-06 0.0 
6.343580542990e-06 6.601451955698e-03 0.0 
0.0 0.0 0.0 
-1.795398743352e-04 -4.414718488865e-04 0.0 
-4.414718488865e-04 8.940836512303e-04 0.0 
0.0 0.0 0.0 
-3.667727978491e-04 -7.260146204329e-04 0.0 
-7.260146204329e-04 1.103527629232e-03 0.0 
0.0 0.0 0.0 
4.892986812286e-05 3.225429079528e-03 0.0 
3.225429079528e-03 3.777628409774e-04 0.0 
0.0 0.0 0.0 
3.473467486518e-04 3.124171314895e-03 0.0 
3.124171314895e-03 -7.835596290069e-04 0.0 
0.0 0.0 0.0 
-7.361242873956e-04 1.567751415428e-03 0.0 
1.567751415428e-03 1.366369821712e-02 0.0 
0.0 0.0 0.0 
-8.817021025611e-04 1.638678939318e-03 0.0 
1.638678939318e-03 1.340356379386e-02 0.0 
0.0 0.0 0.0 
-5.652278254282e-04 1.515586294605e-03 0.0 
1.515586294605e-03 1.392194467444e-02 0.0 
0.0 0.0 0.0 
1.969584530119e-05 -1.393339307403e-04 0.0 
-1.393339307403e-04 1.990471322062e-03 0.0 
0.0 0.0 0.0 
9.732838638437e-04 2.315908782649e-03 0.0 
2.315908782649e-03 6.696015729831e-03 0.0 
0.0 0.0 0.0 
7.735826273874e-04 8.826835647262e-04 0.0 
8.826835647262e-04 6.179358038157e-03 0.0 
0.0 0.0 0.0 
9.571067785417e-04 9.894432954039e-04 0.0 
9.894432954039e-04 5.934872930685e-03 0.0 
0.0 0.0 0.0 
5.702355238655e-04 7.902682965173e-04 0.0 
7.902682965173e-04 6.537153868321e-03 0.0 
0.0 0.0 0.0 
8.797829943089e-04 2.259448508591e-03 0.0 
2.259448508591e-03 7.131950874470e-03 0.0 
0.0 0.0 0.0 
6.685610795799e-04 2.331648150330e-03 0.0 
2.331648150330e-03 7.676834164912e-03 0.0 
0.0 0.0 0.0 
4.774914320567e-04 2.566029141242e-03 0.0 
2.566029141242e-03 8.391609760209e-03 0.0 
0.0 0.0 0.0 
8.670118980673e-04 8.026320388078e-05 0.0 
8.026320388078e-05 -4.532455088520e-03 0.0 
0.0 0.0 0.0 
-4.164631441587e-04 1.293511422191e-04 0.0 
1.293511422191e-04 1.419420201730e-02 0.0 
0.0 0.0 0.0 
-1.059390121790e-03 1.256291194704e-04 0.0 
1.256291194704e-04 1.228132256322e-02 0.0 
0.0 0.0 0.0 
6.723679042633e-05 -6.219549508453e-04 0.0 
-6.219549508453e-04 -4.385020964643e-03 0.0 
0.0 0.0 0.0 
-1.024346816086e-03 7.822485270900e-05 0.0 
7.822485270900e-05 1.208775013693e-02 0.0 
0.0 0.0 0.0 
-9.889959440577e-04 9.084161234566e-05 0.0 
9.084161234566e-05 1.231426249167e-02 0.0 
0.0 0.0 0.0 
-1.004408119690e-03 4.212631516835e-05 0.0 
4.212631516835e-05 1.186768951905e-02 0.0 
0.0 0.0 0.0 
8.716103902384e-05 -1.215202357129e-04 0.0 
-1.215202357129e-04 1.587649006306e-03 0.0 
0.0 0.0 0.0 
-1.253814678633e-03 2.398367722533e-04 0.0 
2.398367722533e-04 1.218033454222e-02 0.0 
0.0 0.0 0.0 
-1.324690931571e-03 3.822386223467e-04 0.0 
3.822386223467e-04 1.240292361827e-02 0.0 
0.0 0.0 0.0 
-2.015719214546e-04 -3.864457174064e-04 0.0 
-3.864457174064e-04 6.556108426081e-04 0.0 
0.0 0.0 0.0 
-4.244036297106e-04 9.915151962056e-04 0.0 
9.915151962056e-04 1.429880570810e-02 0.0 
0.0 0.0 0.0 
1.552714576586e-05 -2.489499308750e-04 0.0 
-2.489499308750e-04 6.380945531543e-04 0.0 
0.0 0.0 0.0 
5.539949601879e-05 -2.616189331176e-04 0.0 
-2.616189331176e-04 7.818101451275e-04 0.0 
0.0 0.0 0.0 
4.221267776829e-04 2.916780782719e-04 0.0 
2.916780782719e-04 6.440824166934e-03 0.0 
0.0 0.0 0.0 
4.354380165214e-04 1.709108027446e-04 0.0 
1.709108027446e-04 6.197885622748e-03 0.0 
0.0 0.0 0.0 
2.915303031401e-04 2.353154871678e-04 0.0 
2.353154871678e-04 6.713244222956e-03 0.0 
0.0 0.0 0.0 
3.093863377924e-04 1.478083578015e-04 0.0 
1.478083578015e-04 6.469948662677e-03 0.0 
0.0 0.0 0.0 
4.236658984358e-04 7.151450514175e-05 0.0 
7.151450514175e-05 5.980730406723e-03 0.0 
0.0 0.0 0.0 
3.091351648336e-04 6.881282730823e-05 0.0 
6.881282730823e-05 6.279017718914e-03 0.0 
0.0 0.0 0.0 
-1.104285255314e-03 1.083500275432e-04 0.0 
1.083500275432e-04 1.205812690152e-02 0.0 
0.0 0.0 0.0 
2.011309299368e-04 1.331566947458e-04 0.0 
1.331566947458e-04 6.822739384169e-03 0.0 
0.0 0.0 0.0 
2.096876203157e-04 5.973189822822e-05 0.0 
5.973189822822e-05 6.570758359169e-03 0.0 
0.0 0.0 0.0 
1.200832245845e-04 9.586912540834e-05 0.0 
9.586912540834e-05 7.107335891317e-03 0.0 
0.0 0.0 0.0 
-1.552318988226e-03 1.946399460548e-03 0.0 
1.946399460548e-03 9.674460362167e-03 0.0 
0.0 0.0 0.0 
-1.291391972942e-04 2.960405743428e-03 0.0 
2.960405743428e-03 4.302619772411e-03 0.0 
0.0 0.0 0.0 
-5.957156898841e-04 2.834226981139e-03 0.0 
2.834226981139e-03 5.001790652497e-03 0.0 
0.0 0.0 0.0 
-1.047800595175e-03 2.728396375544e-03 0.0 
2.728396375544e-03 4.958370868399e-03 0.0 
0.0 0.0 0.0 
-1.659618580437e-04 2.813186089128e-03 0.0 
2.813186089128e-03 1.103274503952e-02 0.0 
0.0 0.0 0.0 
-3.318535132953e-04 2.674360651222e-03 0.0 
2.674360651222e-03 1.122397872194e-02 0.0 
0.0 0.0 0.0 
8.401653232108e-05 -3.581575299981e-05 0.0 
-3.581575299981e-05 6.006724985149e-03 0.0 
0.0 0.0 0.0 
9.387854461388e-05 -5.997682689673e-05 0.0 
-5.997682689673e-05 5.587382817605e-03 0.0 
0.0 0.0 0.0 
-9.770729252770e-04 5.156394245090e-05 0.0 
5.156394245090e-05 1.209431063362e-02 0.0 
0.0 0.0 0.0 
-9.530828377003e-04 3.230006065318e-05 0.0 
3.230006065318e-05 1.206433638106e-02 0.0 
0.0 0.0 0.0 
-9.323917846552e-04 7.153099547429e-05 0.0 
7.153099547429e-05 1.243160895662e-02 0.0 
0.0 0.0 0.0 
-9.162260364802e-04 4.382965167490e-05 0.0 
4.382965167490e-05 1.237731141010e-02 0.0 
0.0 0.0 0.0 
-8.802775053273e-04 8.269985455775e-05 0.0 
8.269985455775e-05 1.273522368569e-02 0.0 
0.0 0.0 0.0 
-8.683228650466e-04 4.659152144587e-05 0.0 
4.659152144587e-05 1.267418762754e-02 0.0 
0.0 0.0 0.0 
-8.166962660742e-04 8.023450271302e-05 0.0 
8.023450271302e-05 1.302834237892e-02 0.0 
0.0 0.0 0.0 
2.972137235567e-04 2.749999552301e-03 0.0 
2.749999552301e-03 9.106183320665e-03 0.0 
0.0 0.0 0.0 
-9.920265328957e-04 3.002654403838e-03 0.0 
3.002654403838e-03 3.252648393563e-03 0.0 
0.0 0.0 0.0 
-1.699273710675e-03 1.443232092652e-03 0.0 
1.443232092652e-03 1.069402662640e-02 0.0 
0.0 0.0 0.0 
7.595950082819e-04 1.908898364369e-03 0.0 
1.908898364369e-03 7.073867222260e-03 0.0 
0.0 0.0 0.0 
9.573048194658e-04 1.672471835890e-03 0.0 
1.672471835890e-03 6.485243891025e-03 0.0 
0.0 0.0 0.0 
-1.105316653794e-03 2.478679446064e-03 0.0 
2.478679446064e-03 8.295980864128e-03 0.0 
0.0 0.0 0.0 
-1.287610027297e-03 2.362129491319e-03 0.0 
2.362129491319e-03 8.180671530289e-03 0.0 
0.0 0.0 0.0 
4.749255603987e-04 5.013198843802e-04 0.0 
5.013198843802e-04 6.512577424949e-03 0.0 
0.0 0.0 0.0 
1.315264981236e-03 2.643079717489e-03 0.0 
2.643079717489e-03 2.415692853803e-03 0.0 
0.0 0.0 0.0 
-3.018796696779e-04 1.185309709691e-03 0.0 
1.185309709691e-03 1.435207145442e-02 0.0 
0.0 0.0 0.0 
-1.194172512735e-03 2.162105529965e-03 0.0 
2.162105529965e-03 -2.972517129339e-03 0.0 
0.0 0.0 0.0 
3.344970451410e-04 2.110999504584e-03 0.0 
2.110999504584e-03 -3.465690548131e-03 0.0 
0.0 0.0 0.0 
1.053039415944e-03 2.730763855633e-03 0.0 
2.730763855633e-03 3.346388518200e-03 0.0 
0.0 0.0 0.0 
-9.795640871178e-04 2.541602708048e-03 0.0 
2.541602708048e-03 8.486729407618e-03 0.0 
0.0 0.0 0.0 
-2.579380397184e-04 2.893550808936e-03 0.0 
2.893550808936e-03 5.163389761357e-03 0.0 
0.0 0.0 0.0 
-6.651802594192e-04 2.789789316757e-03 0.0 
2.789789316757e-03 5.840506089730e-03 0.0 
0.0 0.0 0.0 
1.443223372532e-03 4.432252731283e-04 0.0 
4.432252731283e-04 4.332943208961e-03 0.0 
0.0 0.0 0.0 
-4.513239925023e-04 -8.100693057863e-04 0.0 
-8.100693057863e-04 9.554199230191e-04 0.0 
0.0 0.0 0.0 
-1.900952564511e-04 3.222334654719e-03 0.0 
3.222334654719e-03 1.435507791907e-03 0.0 
0.0 0.0 0.0 
-8.325815930179e-04 1.338976295874e-04 0.0 
1.338976295874e-04 1.307670906834e-02 0.0 
0.0 0.0 0.0 
-7.719473679868e-04 3.162423114379e-03 0.0 
3.162423114379e-03 1.455827647318e-03 0.0 
0.0 0.0 0.0 
7.173038670819e-05 -2.374728925760e-05 0.0 
-2.374728925760e-05 5.827779832697e-03 0.0 
0.0 0.0 0.0 
1.712930992853e-03 2.338571969700e-03 0.0 
2.338571969700e-03 1.973097295779e-03 0.0 
0.0 0.0 0.0 
-3.074384696501e-04 2.774155905849e-03 0.0 
2.774155905849e-03 7.356184760092e-03 0.0 
0.0 0.0 0.0 
3.518983227860e-04 3.163782950221e-03 0.0 
3.163782950221e-03 1.511314166555e-03 0.0 
0.0 0.0 0.0 
3.634351404009e-04 2.954270901243e-03 0.0 
2.954270901243e-03 3.642569789800e-03 0.0 
0.0 0.0 0.0 
-1.427827889237e-03 1.858315209138e-03 0.0 
1.858315209138e-03 1.115360593211e-02 0.0 
0.0 0.0 0.0 
-1.656624673676e-03 1.263655227579e-03 0.0 
1.263655227579e-03 1.159648444371e-02 0.0 
0.0 0.0 0.0 
-1.661271807173e-03 1.424979052400e-03 0.0 
1.424979052400e-03 1.123718893549e-02 0.0 
0.0 0.0 0.0 
2.025898714812e-03 1.968436969131e-03 0.0 
1.968436969131e-03 1.653209499906e-03 0.0 
0.0 0.0 0.0 
-7.835494823300e-04 2.708263564655e-03 0.0 
2.708263564655e-03 6.680023465764e-03 0.0 
0.0 0.0 0.0 
-1.077077997751e-03 2.553608694479e-03 0.0 
2.553608694479e-03 6.544398706983e-03 0.0 
0.0 0.0 0.0 
-9.560277185075e-04 2.426153510155e-03 0.0 
2.426153510155e-03 9.617577208286e-03 0.0 
0.0 0.0 0.0 
-1.095846476636e-03 1.476396177903e-03 0.0 
1.476396177903e-03 1.319174363423e-02 0.0 
0.0 0.0 0.0 
-9.959810024265e-04 1.697459436308e-03 0.0 
1.697459436308e-03 1.310393383673e-02 0.0 
0.0 0.0 0.0 
-7.672254061653e-04 1.849086380465e-03 0.0 
1.849086380465e-03 1.329009067957e-02 0.0 
0.0 0.0 0.0 
-8.772571952551e-04 1.914658077933e-03 0.0 
1.914658077933e-03 1.297041549158e-02 0.0 
0.0 0.0 0.0 
-1.087010272328e-03 1.766117576753e-03 0.0 
1.766117576753e-03 1.277075592049e-02 0.0 
0.0 0.0 0.0 
-9.538498727890e-04 1.981306992805e-03 0.0 
1.981306992805e-03 1.260797854147e-02 0.0 
0.0 0.0 0.0 
-7.272591162000e-04 2.122876078287e-03 0.0 
2.122876078287e-03 1.281095886537e-02 0.0 
0.0 0.0 0.0 
-7.936112761778e-04 2.191576731685e-03 0.0 
2.191576731685e-03 1.241049717887e-02 0.0 
0.0 0.0 0.0 
-5.394119249023e-04 2.360305536233e-03 0.0 
2.360305536233e-03 1.266251703024e-02 0.0 
0.0 0.0 0.0 
-6.251346949285e-04 2.383885482643e-03 0.0 
2.383885482643e-03 1.216757152406e-02 0.0 
0.0 0.0 0.0 
-8.172219972857e-04 2.252376414520e-03 0.0 
2.252376414520e-03 1.195059653407e-02 0.0 
0.0 0.0 0.0 
-6.443147657757e-04 2.416879373933e-03 0.0 
2.416879373933e-03 1.169033428060e-02 0.0 
0.0 0.0 0.0 
-4.827490811207e-04 2.549951026786e-03 0.0 
2.549951026786e-03 1.189006074210e-02 0.0 
0.0 0.0 0.0 
-8.081968723544e-04 2.317992321363e-03 0.0 
2.317992321363e-03 1.145910412819e-02 0.0 
0.0 0.0 0.0 
5.349033208512e-04 2.142462860475e-03 0.0 
2.142462860475e-03 7.661479263478e-03 0.0 
0.0 0.0 0.0 
1.171980044682e-03 2.617452289144e-03 0.0 
2.617452289144e-03 3.770572355485e-03 0.0 
0.0 0.0 0.0 
1.354529083728e-03 1.123039797056e-03 0.0 
1.123039797056e-03 -4.064917413018e-03 0.0 
0.0 0.0 0.0 
4.236018545113e-04 2.920072579665e-03 0.0 
2.920072579665e-03 -2.353798548342e-03 0.0 
0.0 0.0 0.0 
-5.398731427726e-04 2.686596195255e-03 0.0 
2.686596195255e-03 8.156595206081e-03 0.0 
0.0 0.0 0.0 
-2.861502563454e-04 2.451407862510e-03 0.0 
2.451407862510e-03 1.303809220307e-02 0.0 
0.0 0.0 0.0 
-3.208668135246e-04 2.069403144557e-03 0.0 
2.069403144557e-03 1.362555304203e-02 0.0 
0.0 0.0 0.0 
1.892044097717e-03 2.288740916162e-03 0.0 
2.288740916162e-03 4.848226334557e-04 0.0 
0.0 0.0 0.0 
-5.957235667912e-05 3.006726080107e-03 0.0 
3.006726080107e-03 1.115669530952e-02 0.0 
0.0 0.0 0.0 
-1.543409569628e-03 1.752811789735e-03 0.0 
1.752811789735e-03 1.098434733551e-02 0.0 
0.0 0.0 0.0 
2.385217736471e-03 1.723612915164e-03 0.0 
1.723612915164e-03 -2.319653498269e-03 0.0 
0.0 0.0 0.0 
5.953983222277e-05 3.001739496573e-03 0.0 
3.001739496573e-03 1.028325640005e-02 0.0 
0.0 0.0 0.0 
-1.196050527799e-03 1.542340295199e-03 0.0 
1.542340295199e-03 1.289198186614e-02 0.0 
0.0 0.0 0.0 
-1.271487168476e-03 1.615392121666e-03 0.0 
1.615392121666e-03 1.256019324875e-02 0.0 
0.0 0.0 0.0 
-1.360833267767e-03 1.382831256224e-03 0.0 
1.382831256224e-03 1.266779314528e-02 0.0 
0.0 0.0 0.0 
-2.976769695801e-04 1.723636379546e-03 0.0 
1.723636379546e-03 1.401110456486e-02 0.0 
0.0 0.0 0.0 
-1.294707339032e-03 5.250087506055e-04 0.0 
5.250087506055e-04 1.276680587004e-02 0.0 
0.0 0.0 0.0 
2.484872266998e-04 2.603802628497e-03 0.0 
2.603802628497e-03 8.732976071440e-03 0.0 
0.0 0.0 0.0 
1.825894244229e-03 1.545796106624e-03 0.0 
1.545796106624e-03 4.001420926058e-03 0.0 
0.0 0.0 0.0 
1.766908560720e-03 1.777100632929e-03 0.0 
1.777100632929e-03 4.052692705107e-03 0.0 
0.0 0.0 0.0 
1.876471353088e-03 1.785758575000e-03 0.0 
1.785758575000e-03 3.453397580983e-03 0.0 
0.0 0.0 0.0 
-9.943425823293e-04 2.052722242718e-03 0.0 
2.052722242718e-03 1.219522948914e-02 0.0 
0.0 0.0 0.0 
3.631240060401e-04 1.790823174088e-03 0.0 
1.790823174088e-03 7.568336678828e-03 0.0 
0.0 0.0 0.0 
6.724315452476e-04 1.562487651069e-03 0.0 
1.562487651069e-03 6.900665666132e-03 0.0 
0.0 0.0 0.0 
6.600370001224e-04 1.363722824655e-03 0.0 
1.363722824655e-03 6.759901345268e-03 0.0 
0.0 0.0 0.0 
9.489714894793e-04 1.344679391662e-03 0.0 
1.344679391662e-03 6.223402829382e-03 0.0 
0.0 0.0 0.0 
3.510810372476e-04 1.355007772533e-03 0.0 
1.355007772533e-03 7.272402205149e-03 0.0 
0.0 0.0 0.0 
-2.012886261785e-04 2.759043207042e-03 0.0 
2.759043207042e-03 1.238689519610e-02 0.0 
0.0 0.0 0.0 
-1.517027229471e-04 2.878351375005e-03 0.0 
2.878351375005e-03 1.201336187431e-02 0.0 
0.0 0.0 0.0 
1.508985454721e-03 -1.791586890161e-03 0.0 
-1.791586890161e-03 -2.225961272844e-04 0.0 
0.0 0.0 0.0 
1.955857944026e-03 -1.368392729182e-03 0.0 
-1.368392729182e-03 -3.797101792970e-04 0.0 
0.0 0.0 0.0 
2.003419583817e-03 -1.061628585276e-03 0.0 
-1.061628585276e-03 2.126469496949e-04 0.0 
0.0 0.0 0.0 
2.277813830104e-03 -8.436604725941e-04 0.0 
-8.436604725941e-04 -3.544215175722e-04 0.0 
0.0 0.0 0.0 
2.276326237862e-03 -1.127782770140e-03 0.0 
-1.127782770140e-03 -1.061575505951e-03 0.0 
0.0 0.0 0.0 
2.521569338742e-03 -4.780876268448e-04 0.0 
-4.780876268448e-04 -8.911023041856e-04 0.0 
0.0 0.0 0.0 
2.461406859615e-03 -2.856137996147e-04 0.0 
-2.856137996147e-04 -1.359178948362e-04 0.0 
0.0 0.0 0.0 
2.684893209248e-03 5.129460800833e-05 0.0 
5.129460800833e-05 -1.331137697282e-03 0.0 
0.0 0.0 0.0 
-4.364421883473e-04 2.573827207414e-03 0.0 
2.573827207414e-03 1.092148835729e-02 0.0 
0.0 0.0 0.0 
2.980287477917e-04 9.615193829425e-04 0.0 
9.615193829425e-04 7.146567670764e-03 0.0 
0.0 0.0 0.0 
1.255757943816e-03 -2.390250637407e-04 0.0 
-2.390250637407e-04 3.654963039444e-03 0.0 
0.0 0.0 0.0 
1.450003200164e-03 -2.308228375012e-04 0.0 
-2.308228375012e-04 3.285435882547e-03 0.0 
0.0 0.0 0.0 
1.508834408478e-03 -4.450581119544e-04 0.0 
-4.450581119544e-04 2.760924874450e-03 0.0 
0.0 0.0 0.0 
2.959057631720e-04 -6.960728845978e-04 0.0 
-6.960728845978e-04 3.225883927809e-03 0.0 
0.0 0.0 0.0 
4.452153710466e-04 -7.231961272990e-04 0.0 
-7.231961272990e-04 3.279623047708e-03 0.0 
0.0 0.0 0.0 
5.000925348683e-04 -5.988771088079e-04 0.0 
-5.988771088079e-04 3.643192822376e-03 0.0 
0.0 0.0 0.0 
1.713443489259e-04 -6.373222138577e-04 0.0 
-6.373222138577e-04 3.154322656281e-03 0.0 
0.0 0.0 0.0 
6.634009843891e-04 2.521629148521e-03 0.0 
2.521629148521e-03 7.168091759471e-03 0.0 
0.0 0.0 0.0 
2.721641548031e-04 7.857782763060e-04 0.0 
7.857782763060e-04 7.109020194135e-03 0.0 
0.0 0.0 0.0 
1.923942918431e-03 5.256587239193e-04 0.0 
5.256587239193e-04 3.179911685505e-03 0.0 
0.0 0.0 0.0 
5.429976126105e-04 -8.559168382238e-04 0.0 
-8.559168382238e-04 2.964060735190e-03 0.0 
0.0 0.0 0.0 
-1.391438599971e-03 2.864835638577e-04 0.0 
2.864835638577e-04 1.177003140784e-02 0.0 
0.0 0.0 0.0 
-1.467525900584e-03 4.867058778378e-04 0.0 
4.867058778378e-04 1.208735688059e-02 0.0 
0.0 0.0 0.0 
-1.560305508998e-03 6.304361049007e-04 0.0 
6.304361049007e-04 1.204590207747e-02 0.0 
0.0 0.0 0.0 
-1.503947655500e-03 7.256929683974e-04 0.0 
7.256929683974e-04 1.238351892016e-02 0.0 
0.0 0.0 0.0 
-1.391361668170e-03 3.801599295138e-04 0.0 
3.801599295138e-04 1.215286666341e-02 0.0 
0.0 0.0 0.0 
2.196835725569e-04 -3.804352257681e-04 0.0 
-3.804352257681e-04 4.104982401930e-03 0.0 
0.0 0.0 0.0 
1.659987409136e-04 -2.855682369454e-04 0.0 
-2.855682369454e-04 4.346501040497e-03 0.0 
0.0 0.0 0.0 
1.024975937871e-04 -2.472038400258e-04 0.0 
-2.472038400258e-04 4.203830304358e-03 0.0 
0.0 0.0 0.0 
1.238165769450e-04 -2.011732323318e-04 0.0 
-2.011732323318e-04 4.572458730304e-03 0.0 
0.0 0.0 0.0 
7.733873052877e-05 -1.641085162867e-04 0.0 
-1.641085162867e-04 4.402544473368e-03 0.0 
0.0 0.0 0.0 
5.695748664651e-05 -1.980132532243e-04 0.0 
-1.980132532243e-04 4.063949097128e-03 0.0 
0.0 0.0 0.0 
9.154936194311e-05 -1.264890403041e-04 0.0 
-1.264890403041e-04 4.778769292459e-03 0.0 
0.0 0.0 0.0 
5.746398244263e-05 -8.995025749164e-05 0.0 
-8.995025749164e-05 4.564558260176e-03 0.0 
0.0 0.0 0.0 
-1.250258223270e-03 1.492041541602e-04 0.0 
1.492041541602e-04 1.177383246248e-02 0.0 
0.0 0.0 0.0 
-1.309411375425e-03 -1.950449513465e-03 0.0 
-1.950449513465e-03 -8.988886796125e-04 0.0 
0.0 0.0 0.0 
-7.636820055785e-04 -2.341556968352e-03 0.0 
-2.341556968352e-03 -5.812551209248e-04 0.0 
0.0 0.0 0.0 
-8.834008818179e-04 -1.664033475086e-03 0.0 
-1.664033475086e-03 2.966156816461e-04 0.0 
0.0 0.0 0.0 
-3.832082012143e-04 -2.391427263246e-03 0.0 
-2.391427263246e-03 -3.812736734723e-04 0.0 
0.0 0.0 0.0 
3.436761788109e-04 -2.578878341495e-03 0.0 
-2.578878341495e-03 -1.688875687342e-03 0.0 
0.0 0.0 0.0 
5.071890065842e-04 -2.523434221475e-03 0.0 
-2.523434221475e-03 -1.135088551118e-03 0.0 
0.0 0.0 0.0 
1.226320386145e-03 -2.406803517015e-03 0.0 
-2.406803517015e-03 -2.365995757617e-03 0.0 
0.0 0.0 0.0 
-7.884021915570e-05 -2.498454884227e-03 0.0 
-2.498454884227e-03 -2.346266839851e-03 0.0 
0.0 0.0 0.0 
-6.863565107380e-04 -6.217249471397e-04 0.0 
-6.217249471397e-04 3.619538792542e-04 0.0 
0.0 0.0 0.0 
-7.271030028931e-04 -1.101823372443e-03 0.0 
-1.101823372443e-03 5.725469122452e-04 0.0 
0.0 0.0 0.0 
-3.043208036795e-04 -3.505463639545e-04 0.0 
-3.505463639545e-04 3.212947858036e-04 0.0 
0.0 0.0 0.0 
-5.183291717029e-04 -7.209245282582e-04 0.0 
-7.209245282582e-04 6.397545857713e-04 0.0 
0.0 0.0 0.0 
-6.269087634284e-04 -1.400152260497e-03 0.0 
-1.400152260497e-03 7.686359556270e-04 0.0 
0.0 0.0 0.0 
-3.351850069972e-04 -9.745649396139e-04 0.0 
-9.745649396139e-04 1.391438204397e-03 0.0 
0.0 0.0 0.0 
3.526862120364e-05 2.841983284645e-05 0.0 
2.841983284645e-05 7.319848309842e-03 0.0 
0.0 0.0 0.0 
-1.455557716358e-05 -8.468436121408e-05 0.0 
-8.468436121408e-05 3.557210623795e-03 0.0 
0.0 0.0 0.0 
-1.869067636192e-05 -1.702820176676e-04 0.0 
-1.702820176676e-04 3.369879250575e-03 0.0 
0.0 0.0 0.0 
-3.230138530121e-05 -1.717099788157e-04 0.0 
-1.717099788157e-04 3.028857850999e-03 0.0 
0.0 0.0 0.0 
-1.303658825428e-05 -2.718513465802e-04 0.0 
-2.718513465802e-04 3.183358977493e-03 0.0 
0.0 0.0 0.0 
3.891324607985e-06 -1.569810435167e-04 0.0 
-1.569810435167e-04 3.688179936801e-03 0.0 
0.0 0.0 0.0 
-3.841141484732e-05 -8.317520074544e-05 0.0 
-8.317520074544e-05 2.846396255450e-03 0.0 
0.0 0.0 0.0 
-3.493946567827e-05 -1.644137262100e-04 0.0 
-1.644137262100e-04 2.703168262433e-03 0.0 
0.0 0.0 0.0 
5.633763603518e-04 -2.213319439595e-05 0.0 
-2.213319439595e-05 1.489948290767e-05 0.0 
0.0 0.0 0.0 
4.226111204315e-04 -4.210491132948e-05 0.0 
-4.210491132948e-05 3.894173355006e-04 0.0 
0.0 0.0 0.0 
4.602140953555e-04 -7.732690291974e-06 0.0 
-7.732690291974e-06 3.408608923456e-04 0.0 
0.0 0.0 0.0 
2.916504055582e-04 -5.344964762522e-05 0.0 
-5.344964762522e-05 7.943753485883e-04 0.0 
0.0 0.0 0.0 
2.806583588177e-04 -8.829087345115e-05 0.0 
-8.829087345115e-05 7.874506697967e-04 0.0 
0.0 0.0 0.0 
4.008859344118e-04 -6.124404525218e-05 0.0 
-6.124404525218e-05 4.002471988264e-04 0.0 
0.0 0.0 0.0 
3.591698570098e-04 -7.953667348421e-05 0.0 
-7.953667348421e-05 4.181991453963e-04 0.0 
0.0 0.0 0.0 
5.072055054883e-04 -4.023519758689e-05 0.0 
-4.023519758689e-05 3.919541182431e-05 0.0 
0.0 0.0 0.0 
3.040677039526e-04 -1.055480919064e-04 0.0 
-1.055480919064e-04 4.440125196112e-04 0.0 
0.0 0.0 0.0 
1.851827427805e-04 -1.657494707008e-04 0.0 
-1.657494707008e-04 8.404667387183e-04 0.0 
0.0 0.0 0.0 
4.710258333979e-04 -5.203349996614e-05 0.0 
-5.203349996614e-05 4.576971917332e-05 0.0 
0.0 0.0 0.0 
-6.796630635668e-04 4.350823350010e-05 0.0 
4.350823350010e-05 1.349674592713e-02 0.0 
0.0 0.0 0.0 
-6.227533428084e-04 1.022457975599e-04 0.0 
1.022457975599e-04 1.368619780272e-02 0.0 
0.0 0.0 0.0 
2.253141495228e-04 4.918484745671e-04 0.0 
4.918484745671e-04 7.084131269343e-03 0.0 
0.0 0.0 0.0 
-1.135048577879e-03 8.526887098556e-05 0.0 
8.526887098556e-05 1.180553147406e-02 0.0 
0.0 0.0 0.0 
4.594274759928e-05 -1.530136310966e-04 0.0 
-1.530136310966e-04 2.207437043123e-04 0.0 
0.0 0.0 0.0 
-2.123169623358e-04 4.162361956671e-04 0.0 
4.162361956671e-04 1.459402289769e-02 0.0 
0.0 0.0 0.0 
-2.230537765762e-04 7.694202152246e-04 0.0 
7.694202152246e-04 1.455839024267e-02 0.0 
0.0 0.0 0.0 
-1.973073045386e-04 6.536407472824e-04 0.0 
6.536407472824e-04 1.459840847527e-02 0.0 
0.0 0.0 0.0 
4.120821790332e-05 -2.999064362036e-06 0.0 
-2.999064362036e-06 6.691538846268e-03 0.0 
0.0 0.0 0.0 
4.339516747431e-05 -2.519859500892e-07 0.0 
-2.519859500892e-07 6.892732032234e-03 0.0 
0.0 0.0 0.0 
-1.865942805004e-04 2.342739127778e-04 0.0 
2.342739127778e-04 1.462365993496e-02 0.0 
0.0 0.0 0.0 
-1.854998200953e-06 -1.001617326799e-03 0.0 
-1.001617326799e-03 2.072646375742e-03 0.0 
0.0 0.0 0.0 
-6.527380891199e-04 2.073543410777e-03 0.0 
2.073543410777e-03 1.315229152891e-02 0.0 
0.0 0.0 0.0 
-5.358097858388e-04 4.091969587207e-04 0.0 
4.091969587207e-04 1.408809511139e-02 0.0 
0.0 0.0 0.0 
1.772934528036e-03 2.488969220653e-03 0.0 
2.488969220653e-03 -1.718680902092e-03 0.0 
0.0 0.0 0.0 
2.332650202418e-04 -1.585820926209e-03 0.0 
-1.585820926209e-03 1.433501198495e-03 0.0 
0.0 0.0 0.0 
1.319014286503e-04 -1.068103888112e-04 0.0 
-1.068103888112e-04 5.358413024059e-03 0.0 
0.0 0.0 0.0 
5.295349830328e-04 -3.415037665768e-04 0.0 
-3.415037665768e-04 4.440220595563e-03 0.0 
0.0 0.0 0.0 
1.777728460557e-04 -3.321543711070e-05 0.0 
-3.321543711070e-05 6.152353645731e-03 0.0 
0.0 0.0 0.0 
2.485894739165e-04 -2.278560664462e-04 0.0 
-2.278560664462e-04 4.872918129350e-03 0.0 
0.0 0.0 0.0 
3.492687932795e-04 -7.813415093631e-05 0.0 
-7.813415093631e-05 5.617662174457e-03 0.0 
0.0 0.0 0.0 
6.549622452572e-04 1.138286685525e-03 0.0 
1.138286685525e-03 6.606577888724e-03 0.0 
0.0 0.0 0.0 
9.485797442614e-05 -1.753567144519e-04 0.0 
-1.753567144519e-04 1.449441289012e-03 0.0 
0.0 0.0 0.0 
-1.057022215723e-03 2.920389781695e-04 0.0 
2.920389781695e-04 1.286805041031e-02 0.0 
0.0 0.0 0.0 
-9.529389542702e-04 1.495229949212e-04 0.0 
1.495229949212e-04 1.271342537470e-02 0.0 
0.0 0.0 0.0 
-7.864478253155e-04 3.688793934851e-04 0.0 
3.688793934851e-04 1.359715054234e-02 0.0 
0.0 0.0 0.0 
-3.457606389482e-05 -5.693653666260e-04 0.0 
-5.693653666260e-04 2.406388604466e-03 0.0 
0.0 0.0 0.0 
7.580591297437e-05 -2.924950740782e-04 0.0 
-2.924950740782e-04 3.855674912566e-03 0.0 
0.0 0.0 0.0 
-1.130538821745e-04 -5.269680892918e-04 0.0 
-5.269680892918e-04 1.565325482938e-03 0.0 
0.0 0.0 0.0 
5.966106574473e-05 2.870131339622e-03 0.0 
2.870131339622e-03 1.013848432922e-02 0.0 
0.0 0.0 0.0 
-1.064918042529e-03 2.410007375060e-03 0.0 
2.410007375060e-03 9.418069773689e-03 0.0 
0.0 0.0 0.0 
1.327583926046e-03 -6.625134616432e-04 0.0 
-6.625134616432e-04 2.666777609819e-03 0.0 
0.0 0.0 0.0 
2.129655363031e-04 -7.756196438080e-04 0.0 
-7.756196438080e-04 2.899520031602e-03 0.0 
0.0 0.0 0.0 
1.549806637322e-04 -1.163398066431e-03 0.0 
-1.163398066431e-03 2.068896617683e-03 0.0 
0.0 0.0 0.0 
3.058505629332e-04 -1.836251496580e-03 0.0 
-1.836251496580e-03 1.019129239302e-03 0.0 
0.0 0.0 0.0 
9.041597533872e-04 2.697981936071e-03 0.0 
2.697981936071e-03 4.653670677124e-03 0.0 
0.0 0.0 0.0 
7.395348724192e-04 -8.285548483697e-04 0.0 
-8.285548483697e-04 2.982439174690e-03 0.0 
0.0 0.0 0.0 
8.156079060232e-04 -4.799993416265e-05 0.0 
-4.799993416265e-05 4.855250805643e-03 0.0 
0.0 0.0 0.0 
-6.825695782036e-04 3.448229130410e-04 0.0 
3.448229130410e-04 1.377663495011e-02 0.0 
0.0 0.0 0.0 
2.852799034341e-04 -9.074786515373e-05 0.0 
-9.074786515373e-05 1.630336048911e-04 0.0 
0.0 0.0 0.0 
8.737435734364e-04 1.011455323539e-04 0.0 
1.011455323539e-04 5.042872197687e-03 0.0 
0.0 0.0 0.0 
8.005894474008e-04 -4.885868122590e-04 0.0 
-4.885868122590e-04 3.789760473266e-03 0.0 
0.0 0.0 0.0 
-1.202340105997e-03 5.237354735915e-04 0.0 
5.237354735915e-04 1.297869236951e-02 0.0 
0.0 0.0 0.0 
1.443345845406e-03 1.481445726637e-03 0.0 
1.481445726637e-03 5.263511951614e-03 0.0 
0.0 0.0 0.0 
2.078041879247e-04 -2.419899637258e-03 0.0 
-2.419899637258e-03 -2.771878892942e-04 0.0 
0.0 0.0 0.0 
-8.704652821966e-04 6.254863367052e-04 0.0 
6.254863367052e-04 1.368521459876e-02 0.0 
0.0 0.0 0.0 
-6.819273694514e-04 1.289246992199e-03 0.0 
1.289246992199e-03 1.392594924967e-02 0.0 
0.0 0.0 0.0 
-1.376740818475e-03 5.317115417669e-04 0.0 
5.317115417669e-04 1.255061051948e-02 0.0 
0.0 0.0 0.0 
-5.706578907677e-05 -3.942378696978e-04 0.0 
-3.942378696978e-04 1.190495933287e-03 0.0 
0.0 0.0 0.0 
-1.096191751624e-03 1.946606446428e-04 0.0 
1.946606446428e-04 1.248158104508e-02 0.0 
0.0 0.0 0.0 
6.638008379837e-04 5.750867923515e-04 0.0 
5.750867923515e-04 6.132836912562e-03 0.0 
0.0 0.0 0.0 
-1.167146173710e-03 1.258523461366e-03 0.0 
1.258523461366e-03 1.323503609376e-02 0.0 
0.0 0.0 0.0 
-4.612331950149e-05 -4.359694830499e-04 0.0 
-4.359694830499e-04 2.254002926884e-03 0.0 
0.0 0.0 0.0 
2.183018561561e-03 5.967140253038e-04 0.0 
5.967140253038e-04 2.322197030336e-03 0.0 
0.0 0.0 0.0 
3.676351700047e-05 2.792562400060e-03 0.0 
2.792562400060e-03 6.832693317612e-03 0.0 
0.0 0.0 0.0 
-1.674549230665e-03 8.430163207326e-04 0.0 
8.430163207326e-04 1.118380630571e-02 0.0 
0.0 0.0 0.0 
-4.881980201322e-04 5.140723140489e-04 0.0 
5.140723140489e-04 1.420336679084e-02 0.0 
0.0 0.0 0.0 
1.471572266095e-03 2.235304074981e-03 0.0 
2.235304074981e-03 4.393072889535e-03 0.0 
0.0 0.0 0.0 
1.249363884203e-03 1.204759948254e-03 0.0 
1.204759948254e-03 5.507467703149e-03 0.0 
0.0 0.0 0.0 
1.879482463068e-03 8.357189840857e-04 0.0 
8.357189840857e-04 3.606170471717e-03 0.0 
0.0 0.0 0.0 
-3.665730785799e-05 -3.448594742935e-04 0.0 
-3.448594742935e-04 2.437815655202e-03 0.0 
0.0 0.0 0.0 
5.548632123428e-04 7.809272840556e-05 0.0 
7.809272840556e-05 5.685113363453e-03 0.0 
0.0 0.0 0.0 
2.081311641610e-03 1.510365510550e-03 0.0 
1.510365510550e-03 2.748674148142e-03 0.0 
0.0 0.0 0.0 
-7.103362090320e-04 7.369019430790e-04 0.0 
7.369019430790e-04 1.397404607790e-02 0.0 
0.0 0.0 0.0 
-4.866682381255e-06 2.625891520672e-03 0.0 
2.625891520672e-03 8.974603371369e-03 0.0 
0.0 0.0 0.0 
2.473578169332e-03 7.430190025601e-04 0.0 
7.430190025601e-04 7.801488588454e-04 0.0 
0.0 0.0 0.0 
-9.509446022267e-04 9.736327656547e-04 0.0 
9.736327656547e-04 1.367242206186e-02 0.0 
0.0 0.0 0.0 
1.715797213612e-03 -4.090621957499e-04 0.0 
-4.090621957499e-04 2.364100547326e-03 0.0 
0.0 0.0 0.0 
1.269146274096e-03 1.722779927169e-03 0.0 
1.722779927169e-03 5.847251587884e-03 0.0 
0.0 0.0 0.0 
-8.650907570668e-04 2.566544722774e-03 0.0 
2.566544722774e-03 8.694378086268e-03 0.0 
0.0 0.0 0.0 
-7.958212576333e-05 2.659662619529e-03 0.0 
2.659662619529e-03 8.275897997509e-03 0.0 
0.0 0.0 0.0 
-8.756840743555e-04 2.337020379436e-03 0.0 
2.337020379436e-03 1.069274132627e-02 0.0 
0.0 0.0 0.0 
7.023935940836e-04 2.603539186922e-03 0.0 
2.603539186922e-03 6.309037399639e-03 0.0 
0.0 0.0 0.0 
9.556615335697e-05 -8.701950999812e-05 0.0 
-8.701950999812e-05 5.178885339001e-03 0.0 
0.0 0.0 0.0 
7.065257113682e-04 8.981802820564e-05 0.0 
8.981802820564e-05 5.368328027264e-03 0.0 
0.0 0.0 0.0 
2.522396945953e-03 -9.993405197461e-04 0.0 
-9.993405197461e-04 -3.415625873547e-03 0.0 
0.0 0.0 0.0 
6.253305101919e-04 2.875946160591e-03 0.0 
2.875946160591e-03 3.926345962107e-03 0.0 
0.0 0.0 0.0 
-1.322286045931e-03 6.925295138121e-04 0.0 
6.925295138121e-04 1.288386825084e-02 0.0 
0.0 0.0 0.0 
3.354437991345e-04 2.637928248150e-03 0.0 
2.637928248150e-03 8.759566966652e-03 0.0 
0.0 0.0 0.0 
-5.160116636391e-04 8.375657725214e-04 0.0 
8.375657725214e-04 1.423678403263e-02 0.0 
0.0 0.0 0.0 
-6.670723501717e-05 2.836884124577e-03 0.0 
2.836884124577e-03 6.529943135144e-03 0.0 
0.0 0.0 0.0 
5.171976169542e-04 -2.533106871059e-05 0.0 
-2.533106871059e-05 5.493158895870e-03 0.0 
0.0 0.0 0.0 
-7.523163137866e-04 1.107915586975e-03 0.0 
1.107915586975e-03 1.391587184258e-02 0.0 
0.0 0.0 0.0 
6.118887215876e-04 -7.118877498712e-04 0.0 
-7.118877498712e-04 3.324469358261e-03 0.0 
0.0 0.0 0.0 
7.246719361013e-05 -5.976575966658e-05 0.0 
-5.976575966658e-05 1.698371114783e-03 0.0 
0.0 0.0 0.0 
1.274144663581e-03 2.722050053501e-03 0.0 
2.722050053501e-03 -1.947429373863e-03 0.0 
0.0 0.0 0.0 
2.637935018512e-03 6.998661306029e-04 0.0 
6.998661306029e-04 -7.369413240118e-04 0.0 
0.0 0.0 0.0 
1.722427534072e-03 2.051845912211e-03 0.0 
2.051845912211e-03 3.617721394211e-03 0.0 
0.0 0.0 0.0 
6.496872276847e-04 -5.628984270748e-04 0.0 
-5.628984270748e-04 3.711764302607e-03 0.0 
0.0 0.0 0.0 
-5.975375970143e-04 1.822996939488e-03 0.0 
1.822996939488e-03 1.358770198590e-02 0.0 
0.0 0.0 0.0 
3.941203815912e-04 -1.155734652066e-05 0.0 
-1.155734652066e-05 5.792657345721e-03 0.0 
0.0 0.0 0.0 
1.261870655522e-03 3.700756203145e-04 0.0 
3.700756203145e-04 4.639985969937e-03 0.0 
0.0 0.0 0.0 
-1.388525480480e-03 3.038900369841e-03 0.0 
3.038900369841e-03 7.128803465084e-04 0.0 
0.0 0.0 0.0 
-1.708549407031e-03 1.239783329726e-03 0.0 
1.239783329726e-03 1.106673515812e-02 0.0 
0.0 0.0 0.0 
2.881211835354e-04 -8.026130637199e-07 0.0 
-8.026130637199e-07 6.080839822894e-03 0.0 
0.0 0.0 0.0 
2.066345827100e-03 3.760428582256e-04 0.0 
3.760428582256e-04 2.550514416797e-03 0.0 
0.0 0.0 0.0 
1.210772240035e-03 1.576323152138e-03 0.0 
1.576323152138e-03 5.881135942887e-03 0.0 
0.0 0.0 0.0 
4.116340062577e-05 -1.181958138948e-04 0.0 
-1.181958138948e-04 4.213886091296e-03 0.0 
0.0 0.0 0.0 
1.618369742468e-04 2.829606693645e-03 0.0 
2.829606693645e-03 9.665985498865e-03 0.0 
0.0 0.0 0.0 
-1.413534882190e-03 2.186466030314e-03 0.0 
2.186466030314e-03 8.954714944018e-03 0.0 
0.0 0.0 0.0 
1.988140529116e-04 4.746375044822e-06 0.0 
4.746375044822e-06 6.361129710724e-03 0.0 
0.0 0.0 0.0 
1.419781066170e-03 6.986969275130e-04 0.0 
6.986969275130e-04 4.674108157374e-03 0.0 
0.0 0.0 0.0 
1.595264212776e-03 2.503379027732e-03 0.0 
2.503379027732e-03 1.468197029117e-03 0.0 
0.0 0.0 0.0 
-9.619272336362e-04 1.052648500225e-05 0.0 
1.052648500225e-05 1.170425486862e-02 0.0 
0.0 0.0 0.0 
1.220150767468e-04 4.839072493292e-05 0.0 
4.839072493292e-05 6.897855435580e-03 0.0 
0.0 0.0 0.0 
1.190790246647e-03 8.441252005679e-04 0.0 
8.441252005679e-04 5.307821801338e-03 0.0 
0.0 0.0 0.0 
6.937714493594e-04 2.552645893688e-03 0.0 
2.552645893688e-03 6.732785872921e-03 0.0 
0.0 0.0 0.0 
2.029221176234e-03 2.482124372615e-05 0.0 
2.482124372615e-05 2.214330526004e-03 0.0 
0.0 0.0 0.0 
-1.711200532426e-03 1.148176568355e-03 0.0 
1.148176568355e-03 1.061646990598e-02 0.0 
0.0 0.0 0.0 
5.277243789302e-04 -4.699011628471e-04 0.0 
-4.699011628471e-04 4.030098426610e-03 0.0 
0.0 0.0 0.0 
-3.001372386776e-04 2.609176803487e-03 0.0 
2.609176803487e-03 9.009742984127e-03 0.0 
0.0 0.0 0.0 
-2.768533905851e-04 1.553656719044e-03 0.0 
1.553656719044e-03 1.415848006540e-02 0.0 
0.0 0.0 0.0 
1.094493474989e-03 1.078295149997e-03 0.0 
1.078295149997e-03 5.691920402014e-03 0.0 
0.0 0.0 0.0 
-1.426094627645e-03 1.463335156455e-03 0.0 
1.463335156455e-03 1.234675635827e-02 0.0 
0.0 0.0 0.0 
4.013281066864e-04 -4.926012934548e-04 0.0 
-4.926012934548e-04 3.939857569256e-03 0.0 
0.0 0.0 0.0 
1.420914651171e-03 1.994770055592e-03 0.0 
1.994770055592e-03 5.321714918519e-03 0.0 
0.0 0.0 0.0 
2.498246513210e-04 -1.200827042916e-04 0.0 
-1.200827042916e-04 8.006636285940e-04 0.0 
0.0 0.0 0.0 
-1.646211381944e-03 1.682821797050e-03 0.0 
1.682821797050e-03 1.024906291573e-02 0.0 
0.0 0.0 0.0 
3.150769791103e-04 -3.941505267455e-04 0.0 
-3.941505267455e-04 4.218518366749e-03 0.0 
0.0 0.0 0.0 
2.605410258351e-03 1.479718997378e-04 0.0 
1.479718997378e-04 -5.076468570182e-04 0.0 
0.0 0.0 0.0 
1.843321376398e-03 -1.111260503643e-04 0.0 
-1.111260503643e-04 2.554576675512e-03 0.0 
0.0 0.0 0.0 
6.435226155982e-04 2.260251033822e-03 0.0 
2.260251033822e-03 7.651233181521e-03 0.0 
0.0 0.0 0.0 
2.419089224763e-04 -3.043403073566e-04 0.0 
-3.043403073566e-04 4.480545824317e-03 0.0 
0.0 0.0 0.0 
2.518640882693e-03 2.536907455747e-04 0.0 
2.536907455747e-04 2.525873994449e-04 0.0 
0.0 0.0 0.0 
1.815123743962e-04 -2.237256208028e-04 0.0 
-2.237256208028e-04 4.726294282788e-03 0.0 
0.0 0.0 0.0 
-1.693144732903e-03 1.662368508920e-03 0.0 
1.662368508920e-03 9.726402276739e-03 0.0 
0.0 0.0 0.0 
-1.318683170247e-03 1.705908891208e-03 0.0 
1.705908891208e-03 1.219773992729e-02 0.0 
0.0 0.0 0.0 
1.331666879715e-04 -1.522130253264e-04 0.0 
-1.522130253264e-04 4.958041490241e-03 0.0 
0.0 0.0 0.0 
-2.393661630992e-04 2.600040048664e-03 0.0 
2.600040048664e-03 9.327738667616e-03 0.0 
0.0 0.0 0.0 
1.026130438057e-04 -2.369960326845e-04 0.0 
-2.369960326845e-04 9.091058889374e-04 0.0 
0.0 0.0 0.0 
9.089812636708e-04 2.441903885460e-03 0.0 
2.441903885460e-03 6.417628383610e-03 0.0 
0.0 0.0 0.0 
6.606262485254e-05 -1.392249094540e-05 0.0 
-1.392249094540e-05 6.442035883268e-03 0.0 
0.0 0.0 0.0 
6.521850284362e-04 -1.313697336693e-03 0.0 
-1.313697336693e-03 1.927186895479e-03 0.0 
0.0 0.0 0.0 
1.647337975118e-03 -1.925030567815e-04 0.0 
-1.925030567815e-04 2.914743182689e-03 0.0 
0.0 0.0 0.0 
-1.147473817831e-03 1.842753054990e-03 0.0 
1.842753054990e-03 1.240190574898e-02 0.0 
0.0 0.0 0.0 
-1.505765072906e-03 2.159247544114e-03 0.0 
2.159247544114e-03 8.259640442718e-03 0.0 
0.0 0.0 0.0 
1.549643050098e-03 9.090281001359e-06 0.0 
9.090281001359e-06 3.475511443300e-03 0.0 
0.0 0.0 0.0 
-1.871979715960e-04 2.615134666376e-03 0.0 
2.615134666376e-03 9.663079984854e-03 0.0 
0.0 0.0 0.0 
1.080204396064e-03 2.314204021794e-03 0.0 
2.314204021794e-03 6.173898490817e-03 0.0 
0.0 0.0 0.0 
1.649467128407e-03 2.010524078829e-03 0.0 
2.010524078829e-03 4.179783591065e-03 0.0 
0.0 0.0 0.0 
1.422890840359e-03 1.975767195570e-04 0.0 
1.975767195570e-04 4.050315236018e-03 0.0 
0.0 0.0 0.0 
-1.149153748690e-03 2.496044112059e-03 0.0 
2.496044112059e-03 7.402712873168e-03 0.0 
0.0 0.0 0.0 
-2.131072527571e-05 -1.178746694218e-03 0.0 
-1.178746694218e-03 1.833728955422e-03 0.0 
0.0 0.0 0.0 
-1.947203851130e-04 -1.123142673488e-03 0.0 
-1.123142673488e-03 1.615444878378e-03 0.0 
0.0 0.0 0.0 
2.386649722573e-03 -1.083039560295e-04 0.0 
-1.083039560295e-04 5.719784930049e-04 0.0 
0.0 0.0 0.0 
-3.354229559160e-04 2.595652890608e-03 0.0 
2.595652890608e-03 1.032005307592e-02 0.0 
0.0 0.0 0.0 
1.762996426460e-04 -1.052613853110e-04 0.0 
-1.052613853110e-04 1.174897818836e-03 0.0 
0.0 0.0 0.0 
-1.000173706371e-03 2.138544533232e-03 0.0 
2.138544533232e-03 1.174103037797e-02 0.0 
0.0 0.0 0.0 
-4.381264332604e-04 -1.117090802536e-03 0.0 
-1.117090802536e-03 1.216397863441e-03 0.0 
0.0 0.0 0.0 
2.250279920744e-03 -5.956337790005e-04 0.0 
-5.956337790005e-04 3.145416352996e-04 0.0 
0.0 0.0 0.0 
1.052427301503e-03 2.202508903640e-03 0.0 
2.202508903640e-03 6.576722756696e-03 0.0 
0.0 0.0 0.0 
-8.437116484374e-04 1.938217757498e-05 0.0 
1.938217757498e-05 1.279107369145e-02 0.0 
0.0 0.0 0.0 
2.008986854873e-03 -7.911579535457e-04 0.0 
-7.911579535457e-04 7.994905830045e-04 0.0 
0.0 0.0 0.0 
9.642885369643e-06 -6.824618634728e-05 0.0 
-6.824618634728e-05 2.100929219990e-03 0.0 
0.0 0.0 0.0 
1.732195749116e-03 -1.162474178798e-03 0.0 
-1.162474178798e-03 7.653453023021e-04 0.0 
0.0 0.0 0.0 
1.548565108044e-03 1.990547717206e-03 0.0 
1.990547717206e-03 4.745984813750e-03 0.0 
0.0 0.0 0.0 
1.479994983557e-03 -1.176875263397e-03 0.0 
-1.176875263397e-03 1.289394255551e-03 0.0 
0.0 0.0 0.0 
1.149111758761e-03 -1.377689448196e-03 0.0 
-1.377689448196e-03 1.373846089056e-03 0.0 
0.0 0.0 0.0 
-3.685039402649e-04 4.668956377054e-04 0.0 
4.668956377054e-04 1.437242433006e-02 0.0 
0.0 0.0 0.0 
9.531378639301e-04 -1.265408324313e-03 0.0 
-1.265408324313e-03 1.837696561244e-03 0.0 
0.0 0.0 0.0 
-1.556789188289e-04 1.339058562441e-04 0.0 
1.339058562441e-04 1.467862154090e-02 0.0 
0.0 0.0 0.0 
1.669627610054e-05 4.756128280126e-06 0.0 
4.756128280126e-06 7.388575011008e-03 0.0 
0.0 0.0 0.0 
-9.327707022566e-04 4.353364276351e-06 0.0 
4.353364276351e-06 1.200990811104e-02 0.0 
0.0 0.0 0.0 
-1.446533035776e-03 2.302686363463e-03 0.0 
2.302686363463e-03 6.874776640845e-03 0.0 
0.0 0.0 0.0 
-1.406193614128e-03 1.120869820267e-04 0.0 
1.120869820267e-04 -4.045239148508e-03 0.0 
0.0 0.0 0.0 
-9.572184646947e-04 2.677067944265e-03 0.0 
2.677067944265e-03 5.668591929285e-03 0.0 
0.0 0.0 0.0 
4.676731762201e-04 -1.469778147576e-03 0.0 
-1.469778147576e-03 1.652955663412e-03 0.0 
0.0 0.0 0.0 
-7.487663247688e-04 2.390458766892e-03 0.0 
2.390458766892e-03 1.092694789750e-02 0.0 
0.0 0.0 0.0 
-9.390912569366e-04 2.259585064509e-05 0.0 
2.259585064509e-05 1.203111517184e-02 0.0 
0.0 0.0 0.0 
1.831590657817e-04 -1.363093851214e-03 0.0 
-1.363093851214e-03 1.774296165394e-03 0.0 
0.0 0.0 0.0 
-4.099239199606e-04 2.558108734334e-03 0.0 
2.558108734334e-03 1.232069962944e-02 0.0 
0.0 0.0 0.0 
1.600487577722e-04 2.864182926972e-03 0.0 
2.864182926972e-03 9.457732638232e-03 0.0 
0.0 0.0 0.0 
-7.341960546997e-04 8.292660203538e-05 0.0 
8.292660203538e-05 1.333034030382e-02 0.0 
0.0 0.0 0.0 
1.103846830341e-03 1.445962576937e-03 0.0 
1.445962576937e-03 5.968932117250e-03 0.0 
0.0 0.0 0.0 
1.199249658298e-03 2.173284787320e-03 0.0 
2.173284787320e-03 6.011038658561e-03 0.0 
0.0 0.0 0.0 
-4.445153645109e-04 6.303278214190e-05 0.0 
6.303278214190e-05 1.412752598567e-02 0.0 
0.0 0.0 0.0 
-1.025441702301e-03 2.429660332576e-05 0.0 
2.429660332576e-05 1.169706878540e-02 0.0 
0.0 0.0 0.0 
-3.454623924848e-04 -4.971728669032e-04 0.0 
-4.971728669032e-04 6.209813141020e-04 0.0 
0.0 0.0 0.0 
7.475078726834e-05 -3.596300888362e-05 0.0 
-3.596300888362e-05 5.410950212701e-03 0.0 
0.0 0.0 0.0 
-1.539658580751e-03 2.478967881686e-03 0.0 
2.478967881686e-03 5.426611198639e-03 0.0 
0.0 0.0 0.0 
-1.029420914767e-03 2.873217400322e-03 0.0 
2.873217400322e-03 4.066284472436e-03 0.0 
0.0 0.0 0.0 
-9.083421172171e-04 3.090228864182e-03 0.0 
3.090228864182e-03 2.378921269657e-03 0.0 
0.0 0.0 0.0 
-3.570682550317e-05 -2.531842244455e-04 0.0 
-2.531842244455e-04 2.585583111153e-03 0.0 
0.0 0.0 0.0 
-6.510355525820e-04 -1.863585388843e-03 0.0 
-1.863585388843e-03 4.077253996146e-04 0.0 
0.0 0.0 0.0 
-1.559231446470e-03 2.738156192008e-03 0.0 
2.738156192008e-03 4.006260848825e-03 0.0 
0.0 0.0 0.0 
6.726475867228e-04 1.744764506552e-03 0.0 
1.744764506552e-03 7.037956506590e-03 0.0 
0.0 0.0 0.0 
-1.190428179042e-03 1.684446403648e-04 0.0 
1.684446403648e-04 1.210330959748e-02 0.0 
0.0 0.0 0.0 
8.397635238078e-04 2.348191808998e-03 0.0 
2.348191808998e-03 7.226244677620e-03 0.0 
0.0 0.0 0.0 
-1.469735261267e-03 2.904077516070e-03 0.0 
2.904077516070e-03 2.408018477079e-03 0.0 
0.0 0.0 0.0 
-5.234846060498e-04 1.232611892138e-03 0.0 
1.232611892138e-03 1.412318116717e-02 0.0 
0.0 0.0 0.0 
4.554673611627e-04 2.539640021203e-03 0.0 
2.539640021203e-03 8.374160801013e-03 0.0 
0.0 0.0 0.0 
1.402566364216e-04 2.586416275403e-04 0.0 
2.586416275403e-04 7.199244796394e-03 0.0 
0.0 0.0 0.0 
6.776565793450e-04 2.415517953252e-03 0.0 
2.415517953252e-03 7.760582342778e-03 0.0 
0.0 0.0 0.0 
-6.172537955341e-04 3.230937836705e-03 0.0 
3.230937836705e-03 4.623004090084e-04 0.0 
0.0 0.0 0.0 
-1.444756360067e-03 5.616083685657e-04 0.0 
5.616083685657e-04 1.237674608903e-02 0.0 
0.0 0.0 0.0 
-4.615844567994e-05 2.868982376854e-03 0.0 
2.868982376854e-03 1.059540139611e-02 0.0 
0.0 0.0 0.0 
-6.737041289795e-04 1.461596313292e-04 0.0 
1.461596313292e-04 1.360914792728e-02 0.0 
0.0 0.0 0.0 
8.963943729365e-05 1.529485363038e-04 0.0 
1.529485363038e-04 7.298294470042e-03 0.0 
0.0 0.0 0.0 
-1.313305001530e-03 2.643588857892e-04 0.0 
2.643588857892e-04 1.205991039044e-02 0.0 
0.0 0.0 0.0 
-3.064938705073e-04 3.046350485458e-04 0.0 
3.046350485458e-04 1.443014783547e-02 0.0 
0.0 0.0 0.0 
1.948539059900e-03 -1.839090682476e-03 0.0 
-1.839090682476e-03 -3.102648323676e-03 0.0 
0.0 0.0 0.0 
-2.858893771335e-04 1.575079655807e-04 0.0 
1.575079655807e-04 1.444269574835e-02 0.0 
0.0 0.0 0.0 
-6.193890524908e-04 2.462385819482e-03 0.0 
2.462385819482e-03 1.118241182609e-02 0.0 
0.0 0.0 0.0 
-9.454266290529e-04 1.037853622197e-04 0.0 
1.037853622197e-04 1.253729074987e-02 0.0 
0.0 0.0 0.0 
-1.570224823907e-03 8.416906730442e-04 0.0 
8.416906730442e-04 1.222405406732e-02 0.0 
0.0 0.0 0.0 
4.347057355284e-05 1.071472690829e-05 0.0 
1.071472690829e-05 7.078939529767e-03 0.0 
0.0 0.0 0.0 
-5.231237246896e-04 2.245926327703e-03 0.0 
2.245926327703e-03 1.301515329756e-02 0.0 
0.0 0.0 0.0 
-3.390433359176e-04 3.231339418224e-03 0.0 
3.231339418224e-03 -8.431104357150e-04 0.0 
0.0 0.0 0.0 
-7.595255112068e-04 1.300141147921e-04 0.0 
1.300141147921e-04 1.331509321035e-02 0.0 
0.0 0.0 0.0 
1.060318689119e-05 -3.731864561362e-04 0.0 
-3.731864561362e-04 3.145926856807e-03 0.0 
0.0 0.0 0.0 
3.452756665336e-04 -1.682032792081e-03 0.0 
-1.682032792081e-03 -3.863023651302e-03 0.0 
0.0 0.0 0.0 
3.760364566150e-04 4.063726334915e-04 0.0 
4.063726334915e-04 6.639836886709e-03 0.0 
0.0 0.0 0.0 
-4.849584161172e-04 2.548128826883e-03 0.0 
2.548128826883e-03 1.143743458536e-02 0.0 
0.0 0.0 0.0 
7.877540356889e-05 3.667892597922e-05 0.0 
3.667892597922e-05 6.996506320459e-03 0.0 
0.0 0.0 0.0 
3.116786037749e-04 -1.431281701874e-05 0.0 
-1.431281701874e-05 7.729074572679e-04 0.0 
0.0 0.0 0.0 
4.472301584313e-06 -2.235780770641e-04 0.0 
-2.235780770641e-04 4.956539220980e-04 0.0 
0.0 0.0 0.0 
4.563314959942e-04 6.578139093791e-04 0.0 
6.578139093791e-04 6.674659696225e-03 0.0 
0.0 0.0 0.0 
-2.498001028295e-04 2.779802373320e-03 0.0 
2.779802373320e-03 1.159201949467e-02 0.0 
0.0 0.0 0.0 
1.437608925480e-03 -2.302623706473e-03 0.0 
-2.302623706473e-03 -1.948594418341e-03 0.0 
0.0 0.0 0.0 
-2.109894213129e-04 1.068967971247e-03 0.0 
1.068967971247e-03 1.448765878815e-02 0.0 
0.0 0.0 0.0 
-4.944802372591e-04 3.035888344491e-03 0.0 
3.035888344491e-03 -2.003284674986e-03 0.0 
0.0 0.0 0.0 
-1.084767964877e-03 4.884245652578e-05 0.0 
4.884245652578e-05 1.166984225020e-02 0.0 
0.0 0.0 0.0 
2.497938925078e-04 -1.354109196710e-04 0.0 
-1.354109196710e-04 4.395275995857e-04 0.0 
0.0 0.0 0.0 
6.490837301967e-05 6.642598686596e-05 0.0 
6.642598686596e-05 7.344628467178e-03 0.0 
0.0 0.0 0.0 
-3.978966783744e-04 7.748132234344e-04 0.0 
7.748132234344e-04 1.435920458065e-02 0.0 
0.0 0.0 0.0 
4.135580568110e-06 -2.294334622077e-04 0.0 
-2.294334622077e-04 3.509829038518e-03 0.0 
0.0 0.0 0.0 
-1.545211669885e-03 5.445194082594e-04 0.0 
5.445194082594e-04 1.171563037126e-02 0.0 
0.0 0.0 0.0 
-2.046655857108e-05 -1.530134997466e-04 0.0 
-1.530134997466e-04 2.359389307254e-03 0.0 
0.0 0.0 0.0 
2.877292676045e-04 2.723697554802e-03 0.0 
2.723697554802e-03 9.093588115538e-03 0.0 
0.0 0.0 0.0 
-5.739189611645e-04 -9.403650338292e-04 0.0 
-9.403650338292e-04 8.683220392863e-04 0.0 
0.0 0.0 0.0 
-3.381475356211e-04 5.613870144265e-04 0.0 
5.613870144265e-04 1.443315728590e-02 0.0 
0.0 0.0 0.0 
5.343688748030e-04 9.863360480773e-04 0.0 
9.863360480773e-04 6.735372012112e-03 0.0 
0.0 0.0 0.0 
-5.185625735802e-04 1.709779776660e-03 0.0 
1.709779776660e-03 1.380834978852e-02 0.0 
0.0 0.0 0.0 
2.595702618559e-04 2.265128538969e-03 0.0 
2.265128538969e-03 8.220694041409e-03 0.0 
0.0 0.0 0.0 
1.878019230226e-04 9.557212902455e-04 0.0 
9.557212902455e-04 -4.305946045131e-03 0.0 
0.0 0.0 0.0 
3.224896629427e-04 2.695629240819e-03 0.0 
2.695629240819e-03 8.885225747924e-03 0.0 
0.0 0.0 0.0 
8.702612796555e-04 1.191446970177e-03 0.0 
1.191446970177e-03 6.237494898616e-03 0.0 
0.0 0.0 0.0 
-9.938258165229e-04 2.672307099275e-05 0.0 
2.672307099275e-05 1.168339563380e-02 0.0 
0.0 0.0 0.0 
-5.378887646068e-04 2.002288539140e-03 0.0 
2.002288539140e-03 1.341002283896e-02 0.0 
0.0 0.0 0.0 
-3.341848742053e-05 -2.462434022555e-04 0.0 
-2.462434022555e-04 2.878096718283e-03 0.0 
0.0 0.0 0.0 
7.098663852279e-05 -2.617234599175e-04 0.0 
-2.617234599175e-04 1.188929309378e-03 0.0 
0.0 0.0 0.0 
-1.258732575320e-04 6.384883137002e-05 0.0 
6.384883137002e-05 1.471436463894e-02 0.0 
0.0 0.0 0.0 
6.472909126487e-04 5.567441003914e-06 0.0 
5.567441003914e-06 -8.565948862944e-05 0.0 
0.0 0.0 0.0 
-9.515425893527e-04 -1.617389538428e-06 0.0 
-1.617389538428e-06 1.163828734175e-02 0.0 
0.0 0.0 0.0 
7.916019551901e-06 8.526971916896e-06 0.0 
8.526971916896e-06 7.493279585224e-03 0.0 
0.0 0.0 0.0 
1.798319969176e-04 -1.387608955454e-04 0.0 
-1.387608955454e-04 1.091089222262e-03 0.0 
0.0 0.0 0.0 
-9.126136573895e-04 2.421679815442e-05 0.0 
2.421679815442e-05 1.230853690111e-02 0.0 
0.0 0.0 0.0 
-3.160438478299e-04 2.693482834701e-03 0.0 
2.693482834701e-03 1.199756990518e-02 0.0 
0.0 0.0 0.0 
3.103200475267e-05 -5.058685186027e-05 0.0 
-5.058685186027e-05 4.323373503467e-03 0.0 
0.0 0.0 0.0 
-5.239824184509e-04 1.014504959777e-04 0.0 
1.014504959777e-04 1.394240291956e-02 0.0 
0.0 0.0 0.0 
-2.300878888328e-04 -2.322282896161e-03 0.0 
-2.322282896161e-03 -9.875327591511e-05 0.0 
0.0 0.0 0.0 
-1.610092103767e-03 -6.346924899681e-04 0.0 
-6.346924899681e-04 -3.940918953494e-03 0.0 
0.0 0.0 0.0 
-8.119049205536e-04 5.129661166700e-05 0.0 
5.129661166700e-05 1.299282591024e-02 0.0 
0.0 0.0 0.0 
4.799290682961e-04 2.433684217698e-03 0.0 
2.433684217698e-03 8.131676536400e-03 0.0 
0.0 0.0 0.0 
-4.784309384664e-04 1.393285664059e-03 0.0 
1.393285664059e-03 1.409351702884e-02 0.0 
0.0 0.0 0.0 
-9.019624031139e-04 1.080147887163e-04 0.0 
1.080147887163e-04 1.274413128567e-02 0.0 
0.0 0.0 0.0 
6.652853581079e-04 2.936974127562e-03 0.0 
2.936974127562e-03 -1.759174173438e-03 0.0 
0.0 0.0 0.0 
-3.766700941002e-04 2.654619569789e-03 0.0 
2.654619569789e-03 1.163758565220e-02 0.0 
0.0 0.0 0.0 
3.207892630105e-05 -2.262650300063e-04 0.0 
-2.262650300063e-04 3.767067790257e-03 0.0 
0.0 0.0 0.0 
3.160476073738e-06 2.795508297885e-03 0.0 
2.795508297885e-03 1.009100388684e-02 0.0 
0.0 0.0 0.0 
8.766455546344e-04 1.551443667757e-03 0.0 
1.551443667757e-03 6.512543762711e-03 0.0 
0.0 0.0 0.0 
-1.443798692467e-03 3.035612576348e-03 0.0 
3.035612576348e-03 -1.484581120969e-03 0.0 
0.0 0.0 0.0 
4.775566796500e-05 -3.572675772297e-05 0.0 
-3.572675772297e-05 4.647909162939e-03 0.0 
0.0 0.0 0.0 
1.987777360183e-04 -1.553308715805e-04 0.0 
-1.553308715805e-04 4.194852877433e-04 0.0 
0.0 0.0 0.0 
2.119930282491e-04 1.894869397054e-04 0.0 
1.894869397054e-04 6.885510671786e-03 0.0 
0.0 0.0 0.0 
2.538373121626e-05 -1.531117737800e-04 0.0 
-1.531117737800e-04 3.947278066607e-03 0.0 
0.0 0.0 0.0 
-1.350941858336e-03 4.678912011522e-04 0.0 
4.678912011522e-04 1.035081905604e-02 0.0 
0.0 0.0 0.0 
-1.000350828856e-03 4.952441442567e-06 0.0 
4.952441442567e-06 1.027249840579e-02 0.0 
0.0 0.0 0.0 
-1.402708657391e-03 4.588955645262e-04 0.0 
4.588955645262e-04 1.069642527933e-02 0.0 
0.0 0.0 0.0 
-9.707308044759e-04 -3.674266494953e-06 0.0 
-3.674266494953e-06 1.071215478459e-02 0.0 
0.0 0.0 0.0 
-1.452915962855e-03 3.912634425451e-04 0.0 
3.912634425451e-04 1.112864618804e-02 0.0 
0.0 0.0 0.0 
-9.651785754565e-04 2.675121834977e-06 0.0 
2.675121834977e-06 1.111477522374e-02 0.0 
0.0 0.0 0.0 

TENSORS node_materi_strain_plasti float
5.167194390135e-04 2.792726192703e-05 0.0 
2.792726192703e-05 -5.091425601016e-05 0.0 
0.0 0.0 -1.110302485635e-04 
-8.159302679306e-04 -1.118602645032e-04 0.0 
-1.118602645032e-04 4.584923598267e-03 0.0 
0.0 0.0 -6.959116756397e-04 
-1.346400199288e-03 7.365993999463e-05 0.0 
7.365993999463e-05 8.674335535019e-03 0.0 
0.0 0.0 -1.332621093165e-03 
-1.336402199564e-03 -8.793125074240e-05 0.0 
-8.793125074240e-05 8.913629531779e-03 0.0 
0.0 0.0 -1.332621093165e-03 
1.928535311059e-04 4.445651110295e-05 0.0 
4.445651110295e-05 2.423589004168e-04 0.0 
0.0 0.0 -1.369191294062e-04 
-9.495668909469e-05 1.176622379905e-04 0.0 
1.176622379905e-04 8.146285890130e-04 0.0 
0.0 0.0 -1.619080202416e-04 
-2.343145573296e-04 8.942200005953e-05 0.0 
8.942200005953e-05 1.222252270070e-03 0.0 
0.0 0.0 -2.266090766362e-04 
-3.672954214302e-04 7.638439199011e-05 0.0 
7.638439199011e-05 1.767422352355e-03 0.0 
0.0 0.0 -2.937643997455e-04 
-5.002542736311e-04 4.683642936848e-05 0.0 
4.683642936848e-05 2.251732040701e-03 0.0 
0.0 0.0 -3.610469555860e-04 
-5.984940266315e-04 4.060795555227e-05 0.0 
4.060795555227e-05 2.708456263927e-03 0.0 
0.0 0.0 -4.277228197774e-04 
-6.941224007828e-04 4.519221696703e-05 0.0 
4.519221696703e-05 3.166683324582e-03 0.0 
0.0 0.0 -4.940119848999e-04 
-7.849981096782e-04 3.520077417946e-05 0.0 
3.520077417946e-05 3.622095280725e-03 0.0 
0.0 0.0 -5.601824523721e-04 
-8.634318271181e-04 3.405437137357e-05 0.0 
3.405437137357e-05 4.067071864957e-03 0.0 
0.0 0.0 -6.267196139102e-04 
-9.449136089268e-04 5.218773157199e-05 0.0 
5.218773157199e-05 4.520788341368e-03 0.0 
0.0 0.0 -6.936951881209e-04 
-1.027632022584e-03 9.700470508409e-05 0.0 
9.700470508409e-05 5.010143413423e-03 0.0 
0.0 0.0 -7.607197531558e-04 
-1.071044468659e-03 1.108294767969e-04 0.0 
1.108294767969e-04 5.450697122990e-03 0.0 
0.0 0.0 -8.270758575053e-04 
-1.105211944346e-03 1.479813750871e-04 0.0 
1.479813750871e-04 5.811869455564e-03 0.0 
0.0 0.0 -8.903361771248e-04 
-1.161317049125e-03 4.285670301682e-05 0.0 
4.285670301682e-05 6.275431738875e-03 0.0 
0.0 0.0 -9.558084330571e-04 
-1.207984253662e-03 4.172859767407e-05 0.0 
4.172859767407e-05 6.727772586467e-03 0.0 
0.0 0.0 -1.024523475697e-03 
-1.248615658251e-03 4.538254462405e-05 0.0 
4.538254462405e-05 7.165565903975e-03 0.0 
0.0 0.0 -1.091244731156e-03 
-1.288520992697e-03 4.179778286610e-05 0.0 
4.179778286610e-05 7.610376257827e-03 0.0 
0.0 0.0 -1.158330123333e-03 
-1.323945144233e-03 5.638174444750e-05 0.0 
5.638174444750e-05 8.056170868355e-03 0.0 
0.0 0.0 -1.226073836101e-03 
-1.340882067222e-03 7.816548302147e-05 0.0 
7.816548302147e-05 8.489692749980e-03 0.0 
0.0 0.0 -1.289832767750e-03 
-1.333912568024e-03 1.756046241659e-05 0.0 
1.756046241659e-05 8.926507635803e-03 0.0 
0.0 0.0 -1.336902025401e-03 
-1.341531841891e-03 4.063150434003e-05 0.0 
4.063150434003e-05 8.912362216672e-03 0.0 
0.0 0.0 -1.332945767435e-03 
-1.342187123766e-03 7.210449397353e-07 0.0 
7.210449397353e-07 8.901177082135e-03 0.0 
0.0 0.0 -1.334903170087e-03 
-1.344938961940e-03 1.164426212685e-04 0.0 
1.164426212685e-04 8.903433830404e-03 0.0 
0.0 0.0 -1.334459899807e-03 
-1.344212628933e-03 9.914567390186e-05 0.0 
9.914567390186e-05 8.888325984844e-03 0.0 
0.0 0.0 -1.332067731643e-03 
-1.341871993109e-03 1.326692721992e-04 0.0 
1.326692721992e-04 8.883986467254e-03 0.0 
0.0 0.0 -1.335050935171e-03 
-1.332922157688e-03 1.596974021170e-04 0.0 
1.596974021170e-04 8.887152863323e-03 0.0 
0.0 0.0 -1.335055123498e-03 
-1.344556942280e-03 1.739185913509e-04 0.0 
1.739185913509e-04 8.882073809328e-03 0.0 
0.0 0.0 -1.333530254363e-03 
-1.342253888820e-03 1.667068933720e-04 0.0 
1.667068933720e-04 8.882815983630e-03 0.0 
0.0 0.0 -1.336259905589e-03 
-1.344452318304e-03 2.643241252995e-04 0.0 
2.643241252995e-04 8.877541720491e-03 0.0 
0.0 0.0 -1.335712483792e-03 
-1.344739962132e-03 2.572691983564e-04 0.0 
2.572691983564e-04 8.855364652133e-03 0.0 
0.0 0.0 -1.333313947604e-03 
-1.345949101879e-03 2.896022605016e-04 0.0 
2.896022605016e-04 8.845196808155e-03 0.0 
0.0 0.0 -1.335862559377e-03 
-1.335909137164e-03 3.249556087329e-04 0.0 
3.249556087329e-04 8.847942912603e-03 0.0 
0.0 0.0 -1.336097458551e-03 
-1.346297016590e-03 3.518589132456e-04 0.0 
3.518589132456e-04 8.821759431275e-03 0.0 
0.0 0.0 -1.335235043394e-03 
-1.338076461259e-03 3.735365560477e-04 0.0 
3.735365560477e-04 8.793020733369e-03 0.0 
0.0 0.0 -1.334297546486e-03 
-1.346016481544e-03 4.214840137430e-04 0.0 
4.214840137430e-04 8.754866417549e-03 0.0 
0.0 0.0 -1.332308435384e-03 
-1.347150914510e-03 4.365635291823e-04 0.0 
4.365635291823e-04 8.724212055446e-03 0.0 
0.0 0.0 -1.332019584455e-03 
-1.334805935481e-03 4.680081517091e-04 0.0 
4.680081517091e-04 8.718730927757e-03 0.0 
0.0 0.0 -1.333392124151e-03 
-1.340647727227e-03 4.849743108024e-04 0.0 
4.849743108024e-04 8.700750373122e-03 0.0 
0.0 0.0 -1.334727449481e-03 
-1.341060759155e-03 5.031254601797e-04 0.0 
5.031254601797e-04 8.669240053120e-03 0.0 
0.0 0.0 -1.336576889699e-03 
-1.339241076831e-03 5.376075265351e-04 0.0 
5.376075265351e-04 8.637791543921e-03 0.0 
0.0 0.0 -1.335888391555e-03 
-1.332755026613e-03 5.259793014087e-04 0.0 
5.259793014087e-04 8.604247702023e-03 0.0 
0.0 0.0 -1.334783226448e-03 
-1.333664649469e-03 5.288889005307e-04 0.0 
5.288889005307e-04 8.561550836847e-03 0.0 
0.0 0.0 -1.335053869153e-03 
-1.331458992258e-03 5.134063938371e-04 0.0 
5.134063938371e-04 8.519772984337e-03 0.0 
0.0 0.0 -1.334960189349e-03 
-1.329775199773e-03 4.941096024064e-04 0.0 
4.941096024064e-04 8.496416219376e-03 0.0 
0.0 0.0 -1.334889991128e-03 
-1.320977987653e-03 4.615461390730e-04 0.0 
4.615461390730e-04 8.462524191980e-03 0.0 
0.0 0.0 -1.335774086633e-03 
-1.330023044346e-03 4.207866190154e-04 0.0 
4.207866190154e-04 8.427010713301e-03 0.0 
0.0 0.0 -1.336605656894e-03 
-1.315269658186e-03 3.720833040210e-04 0.0 
3.720833040210e-04 8.401189310414e-03 0.0 
0.0 0.0 -1.336508443943e-03 
-1.322412415585e-03 3.115810119469e-04 0.0 
3.115810119469e-04 8.379908734224e-03 0.0 
0.0 0.0 -1.335343284290e-03 
-1.320222320207e-03 2.175575066663e-04 0.0 
2.175575066663e-04 8.369874127435e-03 0.0 
0.0 0.0 -1.337998490269e-03 
-1.323625080933e-03 2.169102620600e-04 0.0 
2.169102620600e-04 8.349200848827e-03 0.0 
0.0 0.0 -1.337247094005e-03 
-1.312935671626e-03 1.217875082846e-04 0.0 
1.217875082846e-04 8.314561017664e-03 0.0 
0.0 0.0 -1.333783489999e-03 
-1.312397425891e-03 3.014725865093e-05 0.0 
3.014725865093e-05 8.298029012834e-03 0.0 
0.0 0.0 -1.334548731617e-03 
-1.314310776006e-03 -5.112989789944e-05 0.0 
-5.112989789944e-05 8.327635469408e-03 0.0 
0.0 0.0 -1.334619746794e-03 
-1.313246555764e-03 -1.133769864441e-04 0.0 
-1.133769864441e-04 8.338916253329e-03 0.0 
0.0 0.0 -1.335242115105e-03 
-1.326565106495e-03 -1.841934828275e-04 0.0 
-1.841934828275e-04 8.356624519228e-03 0.0 
0.0 0.0 -1.335691437541e-03 
-1.316402114403e-03 -2.262767311367e-04 0.0 
-2.262767311367e-04 8.389795272091e-03 0.0 
0.0 0.0 -1.335646478247e-03 
-1.330105212687e-03 -2.663920673302e-04 0.0 
-2.663920673302e-04 8.407666559300e-03 0.0 
0.0 0.0 -1.334931242407e-03 
-1.321109516020e-03 -3.015612028738e-04 0.0 
-3.015612028738e-04 8.428571737695e-03 0.0 
0.0 0.0 -1.334100791702e-03 
-1.335356464641e-03 -3.106038152236e-04 0.0 
-3.106038152236e-04 8.460193799364e-03 0.0 
0.0 0.0 -1.332237298415e-03 
-1.339781698762e-03 -3.337514916052e-04 0.0 
-3.337514916052e-04 8.495913159923e-03 0.0 
0.0 0.0 -1.333749945600e-03 
-1.335675790289e-03 -3.025403687924e-04 0.0 
-3.025403687924e-04 8.551515458499e-03 0.0 
0.0 0.0 -1.336652505695e-03 
-1.332391445612e-03 -3.083574403233e-04 0.0 
-3.083574403233e-04 8.592419009515e-03 0.0 
0.0 0.0 -1.337094627689e-03 
-1.345644529791e-03 -2.793636126787e-04 0.0 
-2.793636126787e-04 8.558237333725e-03 0.0 
0.0 0.0 -1.328990728106e-03 
-1.337312800610e-03 -2.305068913709e-04 0.0 
-2.305068913709e-04 8.630917037025e-03 0.0 
0.0 0.0 -1.335900064369e-03 
-1.350772327614e-03 -1.956698568975e-04 0.0 
-1.956698568975e-04 8.640358950647e-03 0.0 
0.0 0.0 -1.332523500780e-03 
-1.350423109387e-03 -1.955618747409e-04 0.0 
-1.955618747409e-04 8.650889793805e-03 0.0 
0.0 0.0 -1.335219049675e-03 
-1.349098610006e-03 -8.965167155351e-05 0.0 
-8.965167155351e-05 8.690821291703e-03 0.0 
0.0 0.0 -1.336566422126e-03 
-1.352485386629e-03 -6.128652914560e-05 0.0 
-6.128652914560e-05 8.701715469751e-03 0.0 
0.0 0.0 -1.335855682064e-03 
-8.621699259071e-04 -7.748599951090e-05 0.0 
-7.748599951090e-05 5.021330477437e-03 0.0 
0.0 0.0 -7.648954205800e-04 
-9.395078499560e-04 -8.704020005170e-05 0.0 
-8.704020005170e-05 5.517844915676e-03 0.0 
0.0 0.0 -8.298981322982e-04 
-9.977708429922e-04 -8.397016683561e-05 0.0 
-8.397016683561e-05 5.976838802593e-03 0.0 
0.0 0.0 -8.959277352460e-04 
-1.055682188809e-03 -8.887694878813e-05 0.0 
-8.887694878813e-05 6.419904102828e-03 0.0 
0.0 0.0 -9.610467530554e-04 
-1.113418161777e-03 -7.710435791321e-05 0.0 
-7.710435791321e-05 6.878985961880e-03 0.0 
0.0 0.0 -1.026987810050e-03 
-1.153337564853e-03 -8.395183782127e-05 0.0 
-8.395183782127e-05 7.337021217867e-03 0.0 
0.0 0.0 -1.092790196867e-03 
-1.209003093049e-03 -7.363209801243e-05 0.0 
-7.363209801243e-05 7.788251864833e-03 0.0 
0.0 0.0 -1.158290425478e-03 
-1.258139886954e-03 -8.431152228072e-05 0.0 
-8.431152228072e-05 8.217133852926e-03 0.0 
0.0 0.0 -1.224481705251e-03 
-1.303096836171e-03 -9.331509578295e-05 0.0 
-9.331509578295e-05 8.703843568816e-03 0.0 
0.0 0.0 -1.288782062784e-03 
0.0 0.0 0.0 
0.0 0.0 0.0 
0.0 0.0 0.0 
-8.469977810266e-04 1.418859108081e-04 0.0 
1.418859108081e-04 4.555195363259e-03 0.0 
0.0 0.0 -6.945495707198e-04 
1.853815197246e-05 4.024911659637e-04 0.0 
4.024911659637e-04 2.284141119962e-04 0.0 
0.0 0.0 -1.058366845580e-04 
-1.350079007602e-04 7.410901895652e-04 0.0 
7.410901895652e-04 7.622548468714e-04 0.0 
0.0 0.0 -2.667570615628e-04 
-3.852517699685e-04 8.237517617570e-04 0.0 
8.237517617570e-04 1.325012057104e-03 0.0 
0.0 0.0 -2.964167626729e-04 
-5.553115605805e-04 6.948245581935e-04 0.0 
6.948245581935e-04 1.798691708354e-03 0.0 
0.0 0.0 -3.108790080757e-04 
-5.881380717754e-04 5.581827846643e-04 0.0 
5.581827846643e-04 2.268059848630e-03 0.0 
0.0 0.0 -3.778135794433e-04 
-6.253800659574e-04 4.208240066448e-04 0.0 
4.208240066448e-04 2.745027489201e-03 0.0 
0.0 0.0 -4.454545662751e-04 
-6.646501498279e-04 3.177985880909e-04 0.0 
3.177985880909e-04 3.223932146015e-03 0.0 
0.0 0.0 -5.102095861231e-04 
-7.032270316906e-04 2.154746295006e-04 0.0 
2.154746295006e-04 3.563154777891e-03 0.0 
0.0 0.0 -5.580753662734e-04 
-7.652026803153e-04 1.716333934731e-04 0.0 
1.716333934731e-04 4.039411117358e-03 0.0 
0.0 0.0 -6.248674136757e-04 
-6.274437550001e-04 -1.675644810942e-04 0.0 
-1.675644810942e-04 3.389264627192e-03 0.0 
0.0 0.0 -5.155555555556e-04 
-6.493615146667e-04 -2.013836333214e-04 0.0 
-2.013836333214e-04 3.639082748701e-03 0.0 
0.0 0.0 -5.600000000000e-04 
-7.172820797178e-04 -1.419199921507e-04 0.0 
-1.419199921507e-04 4.094821602212e-03 0.0 
0.0 0.0 -6.266666666667e-04 
-7.873736608755e-04 5.502842443645e-05 0.0 
5.502842443645e-05 4.508278690252e-03 0.0 
0.0 0.0 -6.874962403976e-04 
-7.839311141629e-04 4.828509311105e-06 0.0 
4.828509311105e-06 4.540282316640e-03 0.0 
0.0 0.0 -6.910932206029e-04 
-7.921436345257e-04 5.707785244044e-06 0.0 
5.707785244044e-06 4.544942356556e-03 0.0 
0.0 0.0 -6.911911970487e-04 
-7.917187874242e-04 -4.341315515235e-06 0.0 
-4.341315515235e-06 4.539101219755e-03 0.0 
0.0 0.0 -6.903356507966e-04 
-7.944928086677e-04 1.125171909579e-05 0.0 
1.125171909579e-05 4.615388457654e-03 0.0 
0.0 0.0 -6.980756478071e-04 
-7.958365436316e-04 1.383445406237e-05 0.0 
1.383445406237e-05 4.547714033445e-03 0.0 
0.0 0.0 -6.911448554634e-04 
-7.903078046097e-04 6.769783050965e-06 0.0 
6.769783050965e-06 4.539714906749e-03 0.0 
0.0 0.0 -6.903833977050e-04 
-7.973486280958e-04 3.073462339535e-05 0.0 
3.073462339535e-05 4.549605953727e-03 0.0 
0.0 0.0 -6.905588330458e-04 
-8.138323735647e-04 2.995103124151e-05 0.0 
2.995103124151e-05 4.557442627231e-03 0.0 
0.0 0.0 -6.922444453805e-04 
-8.207112189752e-04 5.065642805556e-05 0.0 
5.065642805556e-05 4.556711038870e-03 0.0 
0.0 0.0 -6.916098530255e-04 
-8.174854078797e-04 5.882201982790e-05 0.0 
5.882201982790e-05 4.549634587438e-03 0.0 
0.0 0.0 -6.911665914957e-04 
-8.257607627907e-04 7.207096375596e-05 0.0 
7.207096375596e-05 4.539061374169e-03 0.0 
0.0 0.0 -6.911615840689e-04 
-8.256917502379e-04 1.052177725209e-04 0.0 
1.052177725209e-04 4.528909050130e-03 0.0 
0.0 0.0 -6.914992001314e-04 
-8.331385651634e-04 1.367043632585e-04 0.0 
1.367043632585e-04 4.532178590594e-03 0.0 
0.0 0.0 -6.922481495424e-04 
0.0 0.0 0.0 
0.0 0.0 0.0 
0.0 0.0 0.0 
0.0 0.0 0.0 
0.0 0.0 0.0 
0.0 0.0 0.0 
0.0 0.0 0.0 
0.0 0.0 0.0 
0.0 0.0 0.0 
0.0 0.0 0.0 
0.0 0.0 0.0 
0.0 0.0 0.0 
4.834769447442e-06 -2.872264321309e-05 0.0 
-2.872264321309e-05 1.098176460521e-05 0.0 
0.0 0.0 -6.778514593994e-06 
2.621325204595e-05 -1.413766582246e-04 0.0 
-1.413766582246e-04 5.747299694100e-05 0.0 
0.0 0.0 -3.574982278410e-05 
9.658306216209e-05 -1.514259984182e-04 0.0 
-1.514259984182e-04 8.442241842910e-05 0.0 
0.0 0.0 -4.425618980996e-05 
3.269147103475e-04 -5.021185392625e-05 0.0 
-5.021185392625e-05 3.514559889707e-05 0.0 
0.0 0.0 -8.078147856959e-05 
4.744476216527e-04 -2.955001894905e-05 0.0 
-2.955001894905e-05 6.422490925947e-06 0.0 
0.0 0.0 -1.179719326098e-04 
4.179559190719e-04 -4.545879091992e-05 0.0 
-4.545879091992e-05 1.677504639263e-05 0.0 
0.0 0.0 -8.559165356152e-05 
4.071360169644e-04 -5.676430788113e-05 0.0 
-5.676430788113e-05 2.001137970326e-05 0.0 
0.0 0.0 -6.874308561246e-05 
4.446412730432e-04 -3.115479505997e-05 0.0 
-3.115479505997e-05 1.541228328890e-05 0.0 
0.0 0.0 -8.846752904866e-05 
4.870475968622e-04 1.166873053583e-05 0.0 
1.166873053583e-05 -1.464623307350e-05 0.0 
0.0 0.0 -9.035052009108e-05 
5.260775556971e-04 2.845864580513e-06 0.0 
2.845864580513e-06 -4.734498310635e-05 0.0 
0.0 0.0 -8.407298760335e-05 
4.865685389177e-04 2.210043518699e-06 0.0 
2.210043518699e-06 -3.334183635663e-05 0.0 
0.0 0.0 -8.504329730078e-05 
4.576294102847e-04 1.370682311972e-05 0.0 
1.370682311972e-05 -9.748142346333e-06 0.0 
0.0 0.0 -9.010048746351e-05 
4.426858646735e-04 1.222387518921e-05 0.0 
1.222387518921e-05 -8.681697480964e-07 0.0 
0.0 0.0 -9.063198443064e-05 
4.647766352677e-04 3.225958783335e-05 0.0 
3.225958783335e-05 -3.503045802417e-05 0.0 
0.0 0.0 -8.892160723951e-05 
5.127854206846e-04 4.197645775811e-05 0.0 
4.197645775811e-05 -6.335973572016e-05 0.0 
0.0 0.0 -8.764533021953e-05 
-6.123963367766e-04 2.155164603113e-04 0.0 
2.155164603113e-04 3.233127584904e-03 0.0 
0.0 0.0 -5.113137252552e-04 
-6.693879705140e-04 1.520714818296e-04 0.0 
1.520714818296e-04 3.406479437707e-03 0.0 
0.0 0.0 -5.201643990929e-04 
-6.639163863288e-04 1.506962706481e-04 0.0 
1.506962706481e-04 3.442512291430e-03 0.0 
0.0 0.0 -5.229629629630e-04 
-6.704331179329e-04 9.380781421722e-05 0.0 
9.380781421722e-05 3.443197775174e-03 0.0 
0.0 0.0 -5.229629629630e-04 
-6.548530144211e-04 7.095614303399e-05 0.0 
7.095614303399e-05 3.448119100975e-03 0.0 
0.0 0.0 -5.229629629630e-04 
-6.509573184838e-04 3.511380213439e-05 0.0 
3.511380213439e-05 3.450316461704e-03 0.0 
0.0 0.0 -5.229629629630e-04 
-6.453325697892e-04 1.670832070303e-05 0.0 
1.670832070303e-05 3.457961851100e-03 0.0 
0.0 0.0 -5.229629629630e-04 
-6.396305441708e-04 4.157428075497e-06 0.0 
4.157428075497e-06 3.461239685339e-03 0.0 
0.0 0.0 -5.229629629630e-04 
-6.340487941737e-04 -4.083311259138e-06 0.0 
-4.083311259138e-06 3.462567769883e-03 0.0 
0.0 0.0 -5.229629629630e-04 
-6.275359242517e-04 -1.128684350018e-05 0.0 
-1.128684350018e-05 3.462247372727e-03 0.0 
0.0 0.0 -5.229629629630e-04 
-6.228158302299e-04 -1.901617421392e-05 0.0 
-1.901617421392e-05 3.463558942819e-03 0.0 
0.0 0.0 -5.229629629630e-04 
-6.203473785405e-04 -2.064188125233e-05 0.0 
-2.064188125233e-05 3.465479387551e-03 0.0 
0.0 0.0 -5.229629629630e-04 
-6.157473369089e-04 -1.921517119579e-05 0.0 
-1.921517119579e-05 3.464627739157e-03 0.0 
0.0 0.0 -5.229629629630e-04 
-6.123820412641e-04 -1.876128412427e-05 0.0 
-1.876128412427e-05 3.463347413584e-03 0.0 
0.0 0.0 -5.229629629630e-04 
-6.096243005075e-04 -1.819574667392e-05 0.0 
-1.819574667392e-05 3.462617486845e-03 0.0 
0.0 0.0 -5.229629629630e-04 
-6.082099191572e-04 -1.647042436460e-05 0.0 
-1.647042436460e-05 3.462012171465e-03 0.0 
0.0 0.0 -5.229629629630e-04 
-6.069217033447e-04 -1.721040415332e-05 0.0 
-1.721040415332e-05 3.459923617747e-03 0.0 
0.0 0.0 -5.229629629630e-04 
-6.085165931137e-04 -2.126596978746e-05 0.0 
-2.126596978746e-05 3.415380581365e-03 0.0 
0.0 0.0 -5.229629629630e-04 
-5.829796532243e-04 1.014150042914e-04 0.0 
1.014150042914e-04 3.342754322692e-03 0.0 
0.0 0.0 -5.155555555556e-04 
-6.527572212549e-04 6.780105280902e-05 0.0 
6.780105280902e-05 3.643323392159e-03 0.0 
0.0 0.0 -5.600000000000e-04 
-6.484652640847e-04 -1.867317635502e-06 0.0 
-1.867317635502e-06 3.638221338221e-03 0.0 
0.0 0.0 -5.600000000000e-04 
-6.483746879456e-04 -1.524137963776e-05 0.0 
-1.524137963776e-05 3.636879668493e-03 0.0 
0.0 0.0 -5.600000000000e-04 
-6.506726970290e-04 -1.678761464932e-05 0.0 
-1.678761464932e-05 3.638240294297e-03 0.0 
0.0 0.0 -5.600000000000e-04 
-6.515567938656e-04 -1.582684597498e-05 0.0 
-1.582684597498e-05 3.638013899900e-03 0.0 
0.0 0.0 -5.600000000000e-04 
-6.554750631859e-04 -1.470434980338e-05 0.0 
-1.470434980338e-05 3.639460407849e-03 0.0 
0.0 0.0 -5.600000000000e-04 
-6.594170751284e-04 -1.283952103919e-05 0.0 
-1.283952103919e-05 3.641117124007e-03 0.0 
0.0 0.0 -5.600000000000e-04 
-6.641464449147e-04 -1.550365402295e-05 0.0 
-1.550365402295e-05 3.640594034775e-03 0.0 
0.0 0.0 -5.600000000000e-04 
-6.668858948113e-04 -7.941772856611e-06 0.0 
-7.941772856611e-06 3.636849838348e-03 0.0 
0.0 0.0 -5.600000000000e-04 
-6.741591020856e-04 2.577853317367e-06 0.0 
2.577853317367e-06 3.638100575400e-03 0.0 
0.0 0.0 -5.600000000000e-04 
-6.809485102659e-04 9.363144820372e-06 0.0 
9.363144820372e-06 3.637932552511e-03 0.0 
0.0 0.0 -5.600000000000e-04 
-6.861033350786e-04 2.086292296722e-05 0.0 
2.086292296722e-05 3.634350486115e-03 0.0 
0.0 0.0 -5.600000000000e-04 
-6.932352806905e-04 3.670348944842e-05 0.0 
3.670348944842e-05 3.630716211654e-03 0.0 
0.0 0.0 -5.600000000000e-04 
-6.980811967268e-04 5.967994361152e-05 0.0 
5.967994361152e-05 3.618796687988e-03 0.0 
0.0 0.0 -5.600000000000e-04 
-7.013848849314e-04 1.083829473888e-04 0.0 
1.083829473888e-04 3.620396778090e-03 0.0 
0.0 0.0 -5.600000000000e-04 
-7.078351814424e-04 1.219335158790e-04 0.0 
1.219335158790e-04 3.644573923445e-03 0.0 
0.0 0.0 -5.626724975705e-04 
-6.666304385001e-04 1.660523767343e-04 0.0 
1.660523767343e-04 3.518024469538e-03 0.0 
0.0 0.0 -5.520068027211e-04 
-7.306639245541e-04 1.487904650220e-04 0.0 
1.487904650220e-04 3.987541024977e-03 0.0 
0.0 0.0 -6.186195084094e-04 
-7.777639873500e-04 1.047682677556e-04 0.0 
1.047682677556e-04 4.108452618951e-03 0.0 
0.0 0.0 -6.292929119699e-04 
-7.730086078056e-04 8.789895144587e-05 0.0 
8.789895144587e-05 4.091912019672e-03 0.0 
0.0 0.0 -6.266666666667e-04 
-7.618524580481e-04 6.512725790421e-05 0.0 
6.512725790421e-05 4.093546504346e-03 0.0 
0.0 0.0 -6.266666666667e-04 
-7.572869673676e-04 4.077816536235e-05 0.0 
4.077816536235e-05 4.100722229585e-03 0.0 
0.0 0.0 -6.266666666667e-04 
-7.522759778333e-04 3.231234712664e-05 0.0 
3.231234712664e-05 4.105753030330e-03 0.0 
0.0 0.0 -6.266666666667e-04 
-7.456061716167e-04 2.469919196216e-05 0.0 
2.469919196216e-05 4.102695942195e-03 0.0 
0.0 0.0 -6.266666666667e-04 
-7.404032118594e-04 6.233661207773e-06 0.0 
6.233661207773e-06 4.103985895951e-03 0.0 
0.0 0.0 -6.266666666667e-04 
-7.306819678944e-04 6.672744555550e-06 0.0 
6.672744555550e-06 4.108272711165e-03 0.0 
0.0 0.0 -6.266666666667e-04 
-7.293745733164e-04 -1.304990055444e-06 0.0 
-1.304990055444e-06 4.106419007565e-03 0.0 
0.0 0.0 -6.266666666667e-04 
-7.249341380716e-04 -1.277588629320e-06 0.0 
-1.277588629320e-06 4.105173170991e-03 0.0 
0.0 0.0 -6.266666666667e-04 
-7.218872567136e-04 -1.221940477039e-05 0.0 
-1.221940477039e-05 4.104125766063e-03 0.0 
0.0 0.0 -6.266666666667e-04 
-7.226283520212e-04 -7.586680396462e-06 0.0 
-7.586680396462e-06 4.106687618408e-03 0.0 
0.0 0.0 -6.266666666667e-04 
-7.194567743785e-04 -1.345793513568e-05 0.0 
-1.345793513568e-05 4.101402324494e-03 0.0 
0.0 0.0 -6.266666666667e-04 
-7.217276456755e-04 -3.632688016994e-05 0.0 
-3.632688016994e-05 4.111803083088e-03 0.0 
0.0 0.0 -6.266666666667e-04 
-7.310107230365e-04 1.113089146982e-04 0.0 
1.113089146982e-04 4.120905737550e-03 0.0 
0.0 0.0 -6.266666666667e-04 
-1.092505894385e-05 3.229437240630e-04 0.0 
3.229437240630e-04 5.051745633819e-05 0.0 
0.0 0.0 -1.696817031186e-05 
-4.487896732987e-05 6.031454295583e-04 0.0 
6.031454295583e-04 4.769141611533e-04 0.0 
0.0 0.0 -1.851579402100e-04 
-2.477886944410e-04 8.307338841621e-04 0.0 
8.307338841621e-04 1.056772820351e-03 0.0 
0.0 0.0 -3.137502536684e-04 
-5.164548883485e-04 7.997848336998e-04 0.0 
7.997848336998e-04 1.596714724844e-03 0.0 
0.0 0.0 -2.872952472806e-04 
-5.626935448601e-04 6.025030630991e-04 0.0 
6.025030630991e-04 2.056956549032e-03 0.0 
0.0 0.0 -3.440931072323e-04 
-5.892114679697e-04 4.852291775261e-04 0.0 
4.852291775261e-04 2.528395193714e-03 0.0 
0.0 0.0 -4.108392228286e-04 
-6.541158208693e-04 3.926707262510e-04 0.0 
3.926707262510e-04 2.991837282477e-03 0.0 
0.0 0.0 -4.786325096809e-04 
-6.646539499786e-04 2.782460539939e-04 0.0 
2.782460539939e-04 3.362708316686e-03 0.0 
0.0 0.0 -5.339837186205e-04 
-7.239877336263e-04 2.202667385963e-04 0.0 
2.202667385963e-04 3.828610808697e-03 0.0 
0.0 0.0 -5.985602557689e-04 
-7.842817421153e-04 1.883796168278e-04 0.0 
1.883796168278e-04 4.312421836845e-03 0.0 
0.0 0.0 -6.652967104836e-04 
-6.528049956140e-05 8.329192367362e-04 0.0 
8.329192367362e-04 6.721534156509e-04 0.0 
0.0 0.0 -2.600883926098e-04 
-1.238271811776e-03 -2.323410981101e-05 0.0 
-2.323410981101e-05 8.143368057859e-03 0.0 
0.0 0.0 -1.303388942653e-03 
5.998510431380e-05 -1.163529753908e-04 0.0 
-1.163529753908e-04 2.499013313257e-04 0.0 
0.0 0.0 -7.661148810519e-05 
1.270751205327e-05 -3.607914457565e-05 0.0 
-3.607914457565e-05 6.964316184804e-06 0.0 
0.0 0.0 -8.430783530604e-06 
-1.278901467981e-03 -2.582894247670e-04 0.0 
-2.582894247670e-04 8.264882866352e-03 0.0 
0.0 0.0 -1.303360877099e-03 
-5.655990039998e-04 8.080804633426e-04 0.0 
8.080804633426e-04 1.859508276799e-03 0.0 
0.0 0.0 -3.221766324775e-04 
-9.861956324832e-04 -6.715847648061e-05 0.0 
-6.715847648061e-05 4.773589466734e-03 0.0 
0.0 0.0 -7.300567563597e-04 
-1.244927303710e-03 2.945275852412e-04 0.0 
2.945275852412e-04 8.164800639293e-03 0.0 
0.0 0.0 -1.300998267065e-03 
-6.348034790759e-04 4.424120780115e-04 0.0 
4.424120780115e-04 2.761117670990e-03 0.0 
0.0 0.0 -4.497936382440e-04 
-1.277128875373e-03 4.777706098865e-04 0.0 
4.777706098865e-04 8.316029240451e-03 0.0 
0.0 0.0 -1.304014651794e-03 
-7.514819667783e-04 2.897671537100e-04 0.0 
2.897671537100e-04 3.742162088854e-03 0.0 
0.0 0.0 -5.857980290939e-04 
-1.307584739855e-03 -2.907864623538e-04 0.0 
-2.907864623538e-04 8.435582561033e-03 0.0 
0.0 0.0 -1.307658508868e-03 
2.194594038095e-04 -2.670865977714e-05 0.0 
-2.670865977714e-05 1.694259524564e-04 0.0 
0.0 0.0 -9.345456780789e-05 
-1.309138496400e-03 5.212450025025e-04 0.0 
5.212450025025e-04 8.474949316046e-03 0.0 
0.0 0.0 -1.304481600125e-03 
-8.746417822978e-04 2.068395432367e-04 0.0 
2.068395432367e-04 4.729142408164e-03 0.0 
0.0 0.0 -7.203075318094e-04 
-6.505648739721e-04 -3.624268182337e-05 0.0 
-3.624268182337e-05 2.957311441966e-03 0.0 
0.0 0.0 -4.640473930190e-04 
-1.131372666701e-03 -4.491765098181e-05 0.0 
-4.491765098181e-05 5.976165985442e-03 0.0 
0.0 0.0 -9.125512086551e-04 
-1.314763544022e-03 4.589275118802e-04 0.0 
4.589275118802e-04 8.560285468091e-03 0.0 
0.0 0.0 -1.301280071178e-03 
-1.328200349095e-03 3.774182231254e-04 0.0 
3.774182231254e-04 8.674652987533e-03 0.0 
0.0 0.0 -1.304294760550e-03 
-1.328231009146e-03 1.002317222840e-04 0.0 
1.002317222840e-04 8.762903021805e-03 0.0 
0.0 0.0 -1.303238611779e-03 
-1.321361255880e-03 2.020746578681e-04 0.0 
2.020746578681e-04 8.706453928135e-03 0.0 
0.0 0.0 -1.297727402575e-03 
-1.333675382953e-03 2.525190978684e-04 0.0 
2.525190978684e-04 8.729905622316e-03 0.0 
0.0 0.0 -1.305306183856e-03 
-8.907724214169e-04 1.372579395388e-04 0.0 
1.372579395388e-04 4.950739460616e-03 0.0 
0.0 0.0 -7.522011426764e-04 
-8.750579348879e-04 6.356350708577e-05 0.0 
6.356350708577e-05 4.972444393085e-03 0.0 
0.0 0.0 -7.529849494387e-04 
-8.651922808025e-04 1.321213173771e-05 0.0 
1.321213173771e-05 5.002490543075e-03 0.0 
0.0 0.0 -7.580270452736e-04 
-1.081282276580e-03 -2.537529428612e-05 0.0 
-2.537529428612e-05 6.643650052824e-03 0.0 
0.0 0.0 -9.950081682429e-04 
-1.332561184719e-03 -2.295807888403e-04 0.0 
-2.295807888403e-04 8.502002206283e-03 0.0 
0.0 0.0 -1.302874185639e-03 
0.0 0.0 0.0 
0.0 0.0 0.0 
0.0 0.0 0.0 
2.233748649996e-04 5.268922663070e-06 0.0 
5.268922663070e-06 2.031789523429e-04 0.0 
0.0 0.0 -1.071793558177e-04 
-1.266615157062e-03 -4.708891648946e-05 0.0 
-4.708891648946e-05 7.362986267811e-03 0.0 
0.0 0.0 -1.122886395833e-03 
-8.590690058330e-04 2.817818056919e-05 0.0 
2.817818056919e-05 4.956725197885e-03 0.0 
0.0 0.0 -7.500338828344e-04 
-3.077541790528e-04 -1.952701143312e-05 0.0 
-1.952701143312e-05 1.504768126338e-03 0.0 
0.0 0.0 -2.594501920933e-04 
-1.324226706230e-03 4.167698339106e-04 0.0 
4.167698339106e-04 8.547363588762e-03 0.0 
0.0 0.0 -1.293200138473e-03 
-1.268789998251e-03 4.116378875631e-04 0.0 
4.116378875631e-04 8.267843264786e-03 0.0 
0.0 0.0 -1.307307853467e-03 
-1.298127013523e-03 5.178122413189e-04 0.0 
5.178122413189e-04 8.390890810400e-03 0.0 
0.0 0.0 -1.304733450272e-03 
-1.233362636415e-03 1.634458979136e-04 0.0 
1.634458979136e-04 8.121763907804e-03 0.0 
0.0 0.0 -1.297928233296e-03 
-1.261877986510e-03 -1.597052773119e-04 0.0 
-1.597052773119e-04 8.188934025231e-03 0.0 
0.0 0.0 -1.305578568836e-03 
2.734204477331e-05 -3.169143204034e-04 0.0 
-3.169143204034e-04 1.647533136443e-04 0.0 
0.0 0.0 -8.226872593096e-05 
-8.795053511419e-04 9.559274535899e-05 0.0 
9.559274535899e-05 4.954160552764e-03 0.0 
0.0 0.0 -7.500980793755e-04 
-1.291571793349e-03 -3.018456542619e-04 0.0 
-3.018456542619e-04 8.267318175430e-03 0.0 
0.0 0.0 -1.293180865222e-03 
-1.191688283040e-03 -1.679553581366e-05 0.0 
-1.679553581366e-05 7.562043590583e-03 0.0 
0.0 0.0 -1.123598490052e-03 
1.170418686809e-04 -5.562668358397e-05 0.0 
-5.562668358397e-05 2.275676700802e-04 0.0 
0.0 0.0 -7.719741026454e-05 
-8.274582342161e-04 -6.171908782243e-05 0.0 
-6.171908782243e-05 3.848512271059e-03 0.0 
0.0 0.0 -5.937437734062e-04 
-1.335764842081e-03 6.371320431880e-05 0.0 
6.371320431880e-05 8.844549453637e-03 0.0 
0.0 0.0 -1.311981303940e-03 
-6.029700723185e-04 6.122078773443e-04 0.0 
6.122078773443e-04 2.350776615634e-03 0.0 
0.0 0.0 -3.897472533596e-04 
-3.421036135192e-04 9.389470505226e-04 0.0 
9.389470505226e-04 1.298921873387e-03 0.0 
0.0 0.0 -3.268992177355e-04 
-6.932234286341e-04 3.612940895342e-04 0.0 
3.612940895342e-04 3.253564498504e-03 0.0 
0.0 0.0 -5.178568985205e-04 
-8.102727904185e-04 2.233971647189e-04 0.0 
2.233971647189e-04 4.222711404521e-03 0.0 
0.0 0.0 -6.527703211191e-04 
4.351778752377e-05 4.294833196882e-04 0.0 
4.294833196882e-04 1.295231869878e-04 0.0 
0.0 0.0 -7.416041764780e-05 
-9.647575502476e-04 -2.771769126341e-06 0.0 
-2.771769126341e-06 5.776762544034e-03 0.0 
0.0 0.0 -8.684787984471e-04 
-1.350888138525e-03 -1.433490915200e-04 0.0 
-1.433490915200e-04 8.608994521473e-03 0.0 
0.0 0.0 -1.313906642692e-03 
2.543466344135e-04 3.453947116421e-05 0.0 
3.453947116421e-05 1.646301382947e-04 0.0 
0.0 0.0 -1.093154683114e-04 
-1.275593957644e-03 1.853867106533e-05 0.0 
1.853867106533e-05 8.418825182379e-03 0.0 
0.0 0.0 -1.253930875827e-03 
-8.953448143456e-04 1.901723990594e-04 0.0 
1.901723990594e-04 4.929510438704e-03 0.0 
0.0 0.0 -7.532271817479e-04 
-9.242130448013e-04 2.218369834796e-04 0.0 
2.218369834796e-04 5.094044769017e-03 0.0 
0.0 0.0 -7.809350190597e-04 
-9.469027331401e-04 2.184886764960e-04 0.0 
2.184886764960e-04 5.336848493436e-03 0.0 
0.0 0.0 -8.115578932774e-04 
-9.847582339447e-04 2.348277518639e-04 0.0 
2.348277518639e-04 5.535490339246e-03 0.0 
0.0 0.0 -8.428390908522e-04 
-1.013224796440e-03 2.269955445031e-04 0.0 
2.269955445031e-04 5.773109205172e-03 0.0 
0.0 0.0 -8.784658474099e-04 
-1.038385862696e-03 2.590411142921e-04 0.0 
2.590411142921e-04 5.954479327597e-03 0.0 
0.0 0.0 -9.060409163497e-04 
-1.004174411440e-03 2.781484189758e-04 0.0 
2.781484189758e-04 5.703926568537e-03 0.0 
0.0 0.0 -8.711257577415e-04 
-1.054585459025e-03 2.973439443916e-04 0.0 
2.973439443916e-04 6.126110480118e-03 0.0 
0.0 0.0 -9.341442283280e-04 
-1.020905393351e-03 3.220952727550e-04 0.0 
3.220952727550e-04 5.866625374892e-03 0.0 
0.0 0.0 -8.989774131092e-04 
-1.060675836449e-03 2.424242741137e-04 0.0 
2.424242741137e-04 6.211611638975e-03 0.0 
0.0 0.0 -9.415083590319e-04 
-1.069903741450e-03 3.342745829502e-04 0.0 
3.342745829502e-04 6.289952349254e-03 0.0 
0.0 0.0 -9.622976032585e-04 
-1.033366094007e-03 3.621226093725e-04 0.0 
3.621226093725e-04 6.024211968433e-03 0.0 
0.0 0.0 -9.268639294333e-04 
-1.081748877589e-03 3.725821950627e-04 0.0 
3.725821950627e-04 6.448138080981e-03 0.0 
0.0 0.0 -9.903372159162e-04 
-1.042953915019e-03 3.991340856965e-04 0.0 
3.991340856965e-04 6.178329635147e-03 0.0 
0.0 0.0 -9.547708836903e-04 
-9.946320659626e-04 3.943126043460e-04 0.0 
3.943126043460e-04 5.758814307551e-03 0.0 
0.0 0.0 -8.916807130883e-04 
-1.001107217771e-03 4.332773723891e-04 0.0 
4.332773723891e-04 5.906894361937e-03 0.0 
0.0 0.0 -9.194532194038e-04 
-9.524385169357e-04 4.327952618966e-04 0.0 
4.327952618966e-04 5.490022466699e-03 0.0 
0.0 0.0 -8.565021464485e-04 
-9.551941416785e-04 4.714703413802e-04 0.0 
4.714703413802e-04 5.632535536945e-03 0.0 
0.0 0.0 -8.841639842141e-04 
-1.003948910985e-03 4.659340529388e-04 0.0 
4.659340529388e-04 6.052492370979e-03 0.0 
0.0 0.0 -9.471984275390e-04 
-9.534464918986e-04 5.005026845975e-04 0.0 
5.005026845975e-04 5.770878701320e-03 0.0 
0.0 0.0 -9.118195294070e-04 
-9.061256584098e-04 5.150134062317e-04 0.0 
5.150134062317e-04 5.352614190247e-03 0.0 
0.0 0.0 -8.488396520500e-04 
-8.989049191365e-04 5.434397803423e-04 0.0 
5.434397803423e-04 5.483228311018e-03 0.0 
0.0 0.0 -8.764089341820e-04 
-8.533039374695e-04 5.667693254413e-04 0.0 
5.667693254413e-04 5.068208533921e-03 0.0 
0.0 0.0 -8.135623229517e-04 
-8.400733524865e-04 5.914836390070e-04 0.0 
5.914836390070e-04 5.191255654721e-03 0.0 
0.0 0.0 -8.410744910442e-04 
-7.968543408339e-04 6.237249391908e-04 0.0 
6.237249391908e-04 4.777124479860e-03 0.0 
0.0 0.0 -7.781617608290e-04 
-7.768533972697e-04 6.436004668132e-04 0.0 
6.436004668132e-04 4.892920097115e-03 0.0 
0.0 0.0 -8.056965831182e-04 
-8.240566969273e-04 5.997503228454e-04 0.0 
5.997503228454e-04 5.313376653990e-03 0.0 
0.0 0.0 -8.686949506212e-04 
-7.549029941076e-04 6.445435251704e-04 0.0 
6.445435251704e-04 5.007797875212e-03 0.0 
0.0 0.0 -8.332427817419e-04 
-7.080731455591e-04 7.008821416478e-04 0.0 
7.008821416478e-04 4.586577191639e-03 0.0 
0.0 0.0 -7.703313069557e-04 
-6.796342790660e-04 6.889970591832e-04 0.0 
6.889970591832e-04 4.694361205396e-03 0.0 
0.0 0.0 -7.977945042040e-04 
-6.329025767040e-04 7.594983388287e-04 0.0 
7.594983388287e-04 4.271526927018e-03 0.0 
0.0 0.0 -7.349073124327e-04 
-5.970419350956e-04 7.303350951608e-04 0.0 
7.303350951608e-04 4.369967111415e-03 0.0 
0.0 0.0 -7.622392297106e-04 
-6.532929672579e-04 6.522887049741e-04 0.0 
6.522887049741e-04 4.806542372592e-03 0.0 
0.0 0.0 -8.253152238873e-04 
-5.665194748989e-04 6.694860838181e-04 0.0 
6.694860838181e-04 4.478701756150e-03 0.0 
0.0 0.0 -7.896995018144e-04 
-5.068058502527e-04 7.602496009026e-04 0.0 
7.602496009026e-04 4.031209139410e-03 0.0 
0.0 0.0 -7.264132926703e-04 
-4.737449794266e-04 6.709445860115e-04 0.0 
6.709445860115e-04 4.140917238724e-03 0.0 
0.0 0.0 -7.539848323805e-04 
-4.092281239023e-04 7.730243516518e-04 0.0 
7.730243516518e-04 3.680765614921e-03 0.0 
0.0 0.0 -6.903858661722e-04 
-3.744957372966e-04 6.516877818939e-04 0.0 
6.516877818939e-04 3.794607072583e-03 0.0 
0.0 0.0 -7.182351804274e-04 
-3.014418119782e-04 7.651198626849e-04 0.0 
7.651198626849e-04 3.317111817818e-03 0.0 
0.0 0.0 -6.542402593883e-04 
-2.691367924077e-04 5.991354595496e-04 0.0 
5.991354595496e-04 3.436288112929e-03 0.0 
0.0 0.0 -6.821763112594e-04 
-3.572033048063e-04 5.016025540799e-04 0.0 
5.016025540799e-04 3.930238801817e-03 0.0 
0.0 0.0 -7.460902125261e-04 
-2.604633093040e-04 4.087486075233e-04 0.0 
4.087486075233e-04 3.586761049540e-03 0.0 
0.0 0.0 -7.100832486075e-04 
-1.613056217724e-04 4.995138349428e-04 0.0 
4.995138349428e-04 3.072389318551e-03 0.0 
0.0 0.0 -6.458624074531e-04 
-1.669705829229e-04 2.701808013183e-04 0.0 
2.701808013183e-04 3.243787358763e-03 0.0 
0.0 0.0 -6.737786430284e-04 
-2.753947664968e-04 2.161212745525e-04 0.0 
2.161212745525e-04 3.768674846201e-03 0.0 
0.0 0.0 -7.381473126730e-04 
-2.005498486414e-04 5.346396201185e-05 0.0 
5.346396201185e-05 3.452103226554e-03 0.0 
0.0 0.0 -7.017500108595e-04 
-3.129525029214e-04 3.691539212024e-05 0.0 
3.691539212024e-05 3.980008917697e-03 0.0 
0.0 0.0 -7.662494016216e-04 
-2.576506604218e-04 -1.344602376400e-04 0.0 
-1.344602376400e-04 3.691587731914e-03 0.0 
0.0 0.0 -7.297828278826e-04 
-1.426325829897e-04 -1.501001214894e-04 0.0 
-1.501001214894e-04 3.157731231159e-03 0.0 
0.0 0.0 -6.655364893108e-04 
-2.218003623758e-04 -3.334729403515e-04 0.0 
-3.334729403515e-04 3.428848173996e-03 0.0 
0.0 0.0 -6.934067383651e-04 
-3.318343911700e-04 -2.853674173367e-04 0.0 
-2.853674173367e-04 3.952815162001e-03 0.0 
0.0 0.0 -7.577868799165e-04 
-3.144801710965e-04 -4.682272711583e-04 0.0 
-4.682272711583e-04 3.714915939774e-03 0.0 
0.0 0.0 -7.212202614536e-04 
-2.108184981842e-04 -5.509789330318e-04 0.0 
-5.509789330318e-04 3.196953321697e-03 0.0 
0.0 0.0 -6.571136838490e-04 
-3.194748950850e-04 -6.509678457029e-04 0.0 
-6.509678457029e-04 3.509025892108e-03 0.0 
0.0 0.0 -6.848379476561e-04 
-4.134303053585e-04 -5.537180261355e-04 0.0 
-5.537180261355e-04 4.010754256809e-03 0.0 
0.0 0.0 -7.491645792950e-04 
-4.282972412297e-04 -7.003622053819e-04 0.0 
-7.003622053819e-04 3.819503617895e-03 0.0 
0.0 0.0 -7.127097857715e-04 
-3.469063150971e-04 -8.191207970740e-04 0.0 
-8.191207970740e-04 3.332834435183e-03 0.0 
0.0 0.0 -6.486049398320e-04 
-4.603200915782e-04 -8.241016297384e-04 0.0 
-8.241016297384e-04 3.654972315785e-03 0.0 
0.0 0.0 -6.763006240845e-04 
-5.326763552168e-04 -7.095630877107e-04 0.0 
-7.095630877107e-04 4.127629826769e-03 0.0 
0.0 0.0 -7.409416231994e-04 
-5.642434690968e-04 -7.961766967206e-04 0.0 
-7.961766967206e-04 3.962246775740e-03 0.0 
0.0 0.0 -7.042275185679e-04 
-5.048810542407e-04 -9.111393169982e-04 0.0 
-9.111393169982e-04 3.507729400124e-03 0.0 
0.0 0.0 -6.398389559308e-04 
-6.027165900428e-04 -8.444966016725e-04 0.0 
-8.444966016725e-04 3.810620087909e-03 0.0 
0.0 0.0 -6.674633383154e-04 
-6.579291994771e-04 -7.450391146030e-04 0.0 
-7.450391146030e-04 4.258237816838e-03 0.0 
0.0 0.0 -7.324886333286e-04 
-6.885251553241e-04 -7.661379123145e-04 0.0 
-7.661379123145e-04 4.095680745521e-03 0.0 
0.0 0.0 -6.954027321055e-04 
-7.420005201256e-04 -6.813900099092e-04 0.0 
-6.813900099092e-04 4.540296059999e-03 0.0 
0.0 0.0 -7.608997874520e-04 
-6.419229239274e-04 -8.515280830913e-04 0.0 
-8.515280830913e-04 3.660198205629e-03 0.0 
0.0 0.0 -6.302092384919e-04 
-7.165087956100e-04 -7.532581299851e-04 0.0 
-7.532581299851e-04 3.933160643348e-03 0.0 
0.0 0.0 -6.580989212857e-04 
-6.748415764425e-04 -8.158732049488e-04 0.0 
-8.158732049488e-04 3.506981101763e-03 0.0 
0.0 0.0 -5.925517106747e-04 
-7.365832294088e-04 -7.073699189760e-04 0.0 
-7.073699189760e-04 3.765896700508e-03 0.0 
0.0 0.0 -6.207111136070e-04 
-6.332000182986e-04 5.918731838089e-04 0.0 
5.918731838089e-04 4.929291128701e-03 0.0 
0.0 0.0 -8.529317679587e-04 
-6.943116331248e-04 -7.425915444218e-04 0.0 
-7.425915444218e-04 3.344277999279e-03 0.0 
0.0 0.0 -5.549884598765e-04 
-6.397413698948e-04 -8.660814527003e-04 0.0 
-8.660814527003e-04 3.093984914707e-03 0.0 
0.0 0.0 -5.276250340903e-04 
-7.441497249529e-04 -6.348309289793e-04 0.0 
-6.348309289793e-04 3.588685288948e-03 0.0 
0.0 0.0 -5.833260987948e-04 
-7.927694967591e-04 -6.072286345187e-04 0.0 
-6.072286345187e-04 4.017000879105e-03 0.0 
0.0 0.0 -6.493616581942e-04 
-6.966675025981e-04 -6.428656991036e-04 0.0 
-6.428656991036e-04 3.166084591150e-03 0.0 
0.0 0.0 -5.173870653820e-04 
-7.365323002863e-04 -5.431818663254e-04 0.0 
-5.431818663254e-04 3.397457388952e-03 0.0 
0.0 0.0 -5.459094278256e-04 
-6.801980278813e-04 -5.258870908465e-04 0.0 
-5.258870908465e-04 2.971149924429e-03 0.0 
0.0 0.0 -4.798161731008e-04 
-3.522724475006e-04 8.978406558880e-04 0.0 
8.978406558880e-04 3.218246737404e-03 0.0 
0.0 0.0 -6.252159162693e-04 
-1.003922379852e-03 4.867498946042e-04 0.0 
4.867498946042e-04 6.194900288835e-03 0.0 
0.0 0.0 -9.750716696758e-04 
-7.134730581966e-04 -4.396097415729e-04 0.0 
-4.396097415729e-04 3.191992919970e-03 0.0 
0.0 0.0 -5.084495576641e-04 
-6.454975030147e-04 -4.098543326581e-04 0.0 
-4.098543326581e-04 2.756723401947e-03 0.0 
0.0 0.0 -4.423119711188e-04 
-6.169555617155e-04 -4.854535332185e-04 0.0 
-4.854535332185e-04 2.543124995000e-03 0.0 
0.0 0.0 -4.136824817550e-04 
-5.630688119643e-04 -3.553409865602e-04 0.0 
-3.553409865602e-04 2.315573721592e-03 0.0 
0.0 0.0 -3.761903503575e-04 
-1.032297422083e-03 1.966440866369e-04 0.0 
1.966440866369e-04 6.038887422175e-03 0.0 
0.0 0.0 -9.126358703463e-04 
-1.092679819842e-03 2.404953654437e-04 0.0 
2.404953654437e-04 6.471742125457e-03 0.0 
0.0 0.0 -9.772611937912e-04 
-1.065662184042e-03 1.952825978825e-04 0.0 
1.952825978825e-04 6.276115658093e-03 0.0 
0.0 0.0 -9.468612964576e-04 
-1.124488971150e-03 2.272669760496e-04 0.0 
2.272669760496e-04 6.729090336894e-03 0.0 
0.0 0.0 -1.012955122490e-03 
-1.098065280761e-03 1.864830102051e-04 0.0 
1.864830102051e-04 6.541298868571e-03 0.0 
0.0 0.0 -9.835180958883e-04 
-5.915603593799e-04 -3.065298427479e-04 0.0 
-3.065298427479e-04 2.521782196510e-03 0.0 
0.0 0.0 -4.047791634435e-04 
-1.117175513921e-03 3.540420738705e-04 0.0 
3.540420738705e-04 6.717826161917e-03 0.0 
0.0 0.0 -1.026687169009e-03 
-1.146459728684e-03 2.677090129604e-04 0.0 
2.677090129604e-04 6.908937528882e-03 0.0 
0.0 0.0 -1.042264213861e-03 
-8.619810308033e-04 5.269046982762e-04 0.0 
5.269046982762e-04 4.942534175484e-03 0.0 
0.0 0.0 -7.861871271282e-04 
-6.685992335526e-04 7.579980182072e-04 0.0 
7.579980182072e-04 4.174187567995e-03 0.0 
0.0 0.0 -7.076088937226e-04 
-3.823000922578e-04 1.751040962943e-04 0.0 
1.751040962943e-04 4.285393794973e-03 0.0 
0.0 0.0 -8.027518904046e-04 
-7.754697783619e-04 -4.563258168331e-04 0.0 
-4.563258168331e-04 3.623603682734e-03 0.0 
0.0 0.0 -5.745905038755e-04 
-7.478137892348e-04 -3.620965601600e-04 0.0 
-3.620965601600e-04 3.412205611854e-03 0.0 
0.0 0.0 -5.371338854166e-04 
-8.174754817651e-04 -3.813163108904e-04 0.0 
-3.813163108904e-04 3.849101426160e-03 0.0 
0.0 0.0 -6.033452624549e-04 
-7.192525572030e-04 -6.519418612780e-04 0.0 
-6.519418612780e-04 4.714458239345e-03 0.0 
0.0 0.0 -7.980428604176e-04 
-8.008672232585e-04 -6.001783307384e-04 0.0 
-6.001783307384e-04 4.992005436326e-03 0.0 
0.0 0.0 -8.266132305475e-04 
-7.854918836627e-04 -5.659348858598e-04 0.0 
-5.659348858598e-04 5.176434454621e-03 0.0 
0.0 0.0 -8.638188500004e-04 
-8.639017049063e-04 -5.248351014622e-04 0.0 
-5.248351014622e-04 5.448454375514e-03 0.0 
0.0 0.0 -8.924533907576e-04 
-8.555184497349e-04 -4.894755576408e-04 0.0 
-4.894755576408e-04 5.642058910946e-03 0.0 
0.0 0.0 -9.297164513315e-04 
-9.301291339826e-04 -4.570426975750e-04 0.0 
-4.570426975750e-04 5.908844626244e-03 0.0 
0.0 0.0 -9.583747859490e-04 
-9.353789003032e-04 -4.780922276340e-04 0.0 
-4.780922276340e-04 5.711821717037e-03 0.0 
0.0 0.0 -9.210728288235e-04 
-9.984662583326e-04 -4.207024963502e-04 0.0 
-4.207024963502e-04 6.168121907027e-03 0.0 
0.0 0.0 -9.870277070005e-04 
-1.000069004232e-03 -4.285924737525e-04 0.0 
-4.285924737525e-04 5.966651563586e-03 0.0 
0.0 0.0 -9.497007337289e-04 
-9.283284515458e-04 -4.229135290675e-04 0.0 
-4.229135290675e-04 6.110180447664e-03 0.0 
0.0 0.0 -9.956835613869e-04 
-8.527578693464e-04 -4.403303765288e-04 0.0 
-4.403303765288e-04 5.842885643991e-03 0.0 
0.0 0.0 -9.668198671257e-04 
-1.059819806392e-03 -3.815720688592e-04 0.0 
-3.815720688592e-04 6.418981492352e-03 0.0 
0.0 0.0 -1.015681523326e-03 
-1.057949721367e-03 -3.770560260125e-04 0.0 
-3.770560260125e-04 6.213345858748e-03 0.0 
0.0 0.0 -9.783260305704e-04 
-1.113690001508e-03 -3.391138449317e-04 0.0 
-3.391138449317e-04 6.662067817752e-03 0.0 
0.0 0.0 -1.044362401637e-03 
-1.108897527401e-03 -3.261874601882e-04 0.0 
-3.261874601882e-04 6.451449547970e-03 0.0 
0.0 0.0 -1.007007767922e-03 
-1.056102434059e-03 -3.617377197121e-04 0.0 
-3.617377197121e-04 6.006353850389e-03 0.0 
0.0 0.0 -9.408676861799e-04 
-1.103510128039e-03 -3.034940289184e-04 0.0 
-3.034940289184e-04 6.238484304806e-03 0.0 
0.0 0.0 -9.695029660748e-04 
-1.052845247082e-03 -3.373861149014e-04 0.0 
-3.373861149014e-04 5.798954310895e-03 0.0 
0.0 0.0 -9.035672079865e-04 
-4.228503435162e-04 2.652797493901e-05 0.0 
2.652797493901e-05 4.498640496550e-03 0.0 
0.0 0.0 -8.309624794500e-04 
-4.884683166150e-04 1.460460655517e-04 0.0 
1.460460655517e-04 4.796700712876e-03 0.0 
0.0 0.0 -8.675775700443e-04 
-5.309148746778e-04 2.225588307319e-05 0.0 
2.225588307319e-05 5.010085131158e-03 0.0 
0.0 0.0 -8.958500940740e-04 
-5.943549435448e-04 1.251718936452e-04 0.0 
1.251718936452e-04 5.302582402065e-03 0.0 
0.0 0.0 -9.325549191312e-04 
-6.382538609797e-04 2.086054713912e-05 0.0 
2.086054713912e-05 5.516155282354e-03 0.0 
0.0 0.0 -9.609176734917e-04 
-7.011603817707e-04 1.101794033340e-04 0.0 
1.101794033340e-04 5.804703043974e-03 0.0 
0.0 0.0 -9.976363410588e-04 
-7.465959866999e-04 2.216834778625e-05 0.0 
2.216834778625e-05 6.016830116331e-03 0.0 
0.0 0.0 -1.026032504441e-03 
-6.923978724816e-04 -6.826398853254e-05 0.0 
-6.826398853254e-05 5.743653636097e-03 0.0 
0.0 0.0 -9.892761093609e-04 
-1.092308246197e-03 4.087334969491e-04 0.0 
4.087334969491e-04 6.601377400440e-03 0.0 
0.0 0.0 -1.018102500310e-03 
-5.675897396992e-05 3.425637172408e-04 0.0 
3.425637172408e-04 2.708861454988e-03 0.0 
0.0 0.0 -6.095594541484e-04 
-6.420114659775e-05 6.151203334216e-04 0.0 
6.151203334216e-04 2.551183745386e-03 0.0 
0.0 0.0 -5.816898710390e-04 
5.441246620249e-05 4.399473863901e-04 0.0 
4.399473863901e-04 2.161774981432e-03 0.0 
0.0 0.0 -5.454521931755e-04 
2.844502818309e-05 7.644395339616e-04 0.0 
7.644395339616e-04 2.024830997844e-03 0.0 
0.0 0.0 -5.176388733440e-04 
1.652901373793e-04 5.705702379394e-04 0.0 
5.705702379394e-04 1.600345183292e-03 0.0 
0.0 0.0 -4.814163979944e-04 
1.130601457631e-04 9.562292981796e-04 0.0 
9.562292981796e-04 1.494895390825e-03 0.0 
0.0 0.0 -4.537165770244e-04 
2.845119300012e-04 7.483953602617e-04 0.0 
7.483953602617e-04 1.019187802654e-03 0.0 
0.0 0.0 -4.208902240644e-04 
2.929325993539e-04 2.620833489363e-04 0.0 
2.620833489363e-04 1.186149753907e-03 0.0 
0.0 0.0 -4.466351565148e-04 
4.659960569609e-04 3.874152989476e-04 0.0 
3.874152989476e-04 5.352766773023e-04 0.0 
0.0 0.0 -3.736376070058e-04 
4.059265982279e-04 -1.758088808093e-04 0.0 
-1.758088808093e-04 8.092916298160e-04 0.0 
0.0 0.0 -4.168446658567e-04 
5.790431118009e-04 -1.610129805314e-04 0.0 
-1.610129805314e-04 1.533127793959e-04 0.0 
0.0 0.0 -3.063790003961e-04 
4.494391646470e-04 -7.152402717994e-04 0.0 
-7.152402717994e-04 5.082279969168e-04 0.0 
0.0 0.0 -3.640020775467e-04 
-8.080190775198e-04 5.920502661192e-04 0.0 
5.920502661192e-04 5.436356176569e-03 0.0 
0.0 0.0 -8.963565068603e-04 
-6.651558879210e-04 2.088271070434e-04 0.0 
2.088271070434e-04 5.603894024499e-03 0.0 
0.0 0.0 -9.691568884624e-04 
-7.699005087498e-04 1.883379167874e-04 0.0 
1.883379167874e-04 6.102423018858e-03 0.0 
0.0 0.0 -1.034312087004e-03 
-7.384024095732e-04 2.760115291154e-04 0.0 
2.760115291154e-04 5.907746579569e-03 0.0 
0.0 0.0 -1.005320805676e-03 
-5.404221803057e-04 -4.187129725138e-04 0.0 
-4.187129725138e-04 2.110154003912e-03 0.0 
0.0 0.0 -3.475522021424e-04 
-1.152888887005e-03 -2.763407572661e-04 0.0 
-2.763407572661e-04 6.681517292358e-03 0.0 
0.0 0.0 -1.035773625862e-03 
-9.326850124499e-04 -3.805734010338e-04 0.0 
-3.805734010338e-04 6.318938914437e-03 0.0 
0.0 0.0 -1.032922975483e-03 
-8.578946226242e-04 -3.814307824260e-04 0.0 
-3.814307824260e-04 6.050788235921e-03 0.0 
0.0 0.0 -1.003739924893e-03 
-8.007230077279e-04 -5.030783828559e-05 0.0 
-5.030783828559e-05 6.244226135644e-03 0.0 
0.0 0.0 -1.054598834243e-03 
-4.941523760955e-04 -2.470231279283e-04 0.0 
-2.470231279283e-04 2.071816915527e-03 0.0 
0.0 0.0 -3.392587823741e-04 
1.975953042673e-04 1.172543779916e-03 0.0 
1.172543779916e-03 9.666654142640e-04 0.0 
0.0 0.0 -3.922431101850e-04 
5.175793587872e-06 1.277837662737e-03 0.0 
1.277837662737e-03 1.466786264722e-03 0.0 
0.0 0.0 -4.261104576107e-04 
-1.152692083578e-03 2.146597661269e-04 0.0 
2.146597661269e-04 6.983288018661e-03 0.0 
0.0 0.0 -1.048874596840e-03 
-1.125979627456e-03 1.800276227316e-04 0.0 
1.800276227316e-04 6.792196765101e-03 0.0 
0.0 0.0 -1.019458214591e-03 
-9.448287362971e-04 -3.295389867260e-04 0.0 
-3.295389867260e-04 6.536387605041e-03 0.0 
0.0 0.0 -1.070157681403e-03 
-5.240293716215e-04 -2.102668930863e-04 0.0 
-2.102668930863e-04 2.277314558376e-03 0.0 
0.0 0.0 -3.675747464493e-04 
-1.063791247498e-03 -3.742192618344e-04 0.0 
-3.742192618344e-04 6.627422368744e-03 0.0 
0.0 0.0 -1.052997445444e-03 
5.558984473440e-04 4.127353325470e-04 0.0 
4.127353325470e-04 1.463881506699e-05 0.0 
0.0 0.0 -2.445159696047e-04 
-1.144117684349e-03 -2.458346103954e-04 0.0 
-2.458346103954e-04 6.462839923362e-03 0.0 
0.0 0.0 -9.982306137915e-04 
-1.191309827109e-03 -2.266694415371e-04 0.0 
-2.266694415371e-04 6.904200660223e-03 0.0 
0.0 0.0 -1.064501221861e-03 
-9.418341400068e-04 -4.830251057162e-04 0.0 
-4.830251057162e-04 5.517520339527e-03 0.0 
0.0 0.0 -8.838659695519e-04 
-8.408929706273e-04 2.533730996691e-04 0.0 
2.533730996691e-04 6.403362100756e-03 0.0 
0.0 0.0 -1.070909199420e-03 
-8.123210735737e-04 3.267258872306e-04 0.0 
3.267258872306e-04 6.208133296915e-03 0.0 
0.0 0.0 -1.041442769611e-03 
2.640974401389e-04 -6.120925406395e-04 0.0 
-6.120925406395e-04 1.170954425306e-03 0.0 
0.0 0.0 -4.384799197683e-04 
2.270076462303e-04 -1.094827319140e-03 0.0 
-1.094827319140e-03 9.810701092341e-04 0.0 
0.0 0.0 -4.046094527367e-04 
3.640551099348e-04 -1.155184556941e-03 0.0 
-1.155184556941e-03 4.131638396833e-04 0.0 
0.0 0.0 -3.139947606995e-04 
1.171979887630e-04 -1.455005939438e-03 0.0 
-1.455005939438e-03 9.453620887615e-04 0.0 
0.0 0.0 -3.763072820036e-04 
2.556371078842e-05 -1.262704422364e-03 0.0 
-1.262704422364e-03 1.454464914390e-03 0.0 
0.0 0.0 -4.289053338950e-04 
-8.947678599683e-05 -1.490768828574e-03 0.0 
-1.490768828574e-03 1.396555812330e-03 0.0 
0.0 0.0 -3.979758726750e-04 
2.329510608105e-05 -1.514078363831e-03 0.0 
-1.514078363831e-03 9.452166061342e-04 0.0 
0.0 0.0 -3.667276109228e-04 
-2.100553572376e-04 -1.558593298157e-03 0.0 
-1.558593298157e-03 1.402552177449e-03 0.0 
0.0 0.0 -3.771854463149e-04 
-2.665534885264e-04 -1.440543195804e-03 0.0 
-1.440543195804e-03 1.828480576306e-03 0.0 
0.0 0.0 -4.192720002935e-04 
-3.858828221178e-04 -1.432331817451e-03 0.0 
-1.432331817451e-03 1.803183213938e-03 0.0 
0.0 0.0 -3.853829593207e-04 
-2.961455271275e-04 -1.398427341996e-03 0.0 
-1.398427341996e-03 1.416563920223e-03 0.0 
0.0 0.0 -3.646163496721e-04 
-4.654616132702e-04 -1.259328861233e-03 0.0 
-1.259328861233e-03 1.764244007017e-03 0.0 
0.0 0.0 -3.558200702016e-04 
-1.201889062818e-03 -2.543911578407e-04 0.0 
-2.543911578407e-04 7.124942193322e-03 0.0 
0.0 0.0 -1.101875158976e-03 
5.412904168970e-04 -8.385322248721e-05 0.0 
-8.385322248721e-05 -1.404456435363e-04 0.0 
0.0 0.0 -1.717906171546e-04 
-9.463800631761e-04 3.860027273263e-04 0.0 
3.860027273263e-04 5.343793686453e-03 0.0 
0.0 0.0 -8.288706041983e-04 
-1.014362980206e-03 -3.321555799501e-04 0.0 
-3.321555799501e-04 6.794335154877e-03 0.0 
0.0 0.0 -1.099012274073e-03 
-8.569045148225e-04 3.078985663283e-05 0.0 
3.078985663283e-05 6.510332221214e-03 0.0 
0.0 0.0 -1.090660416876e-03 
-1.178566600954e-03 2.066846340334e-04 0.0 
2.066846340334e-04 7.236502688045e-03 0.0 
0.0 0.0 -1.085032576515e-03 
-1.153658343620e-03 1.755152393049e-04 0.0 
1.755152393049e-04 7.044914703598e-03 0.0 
0.0 0.0 -1.055603631703e-03 
-1.098678134952e-03 1.564744163133e-04 0.0 
1.564744163133e-04 6.595940529562e-03 0.0 
0.0 0.0 -9.897378988699e-04 
-1.129113373444e-03 1.503482155027e-04 0.0 
1.503482155027e-04 6.853244331223e-03 0.0 
0.0 0.0 -1.026001677571e-03 
-1.181824965340e-03 1.678156779438e-04 0.0 
1.678156779438e-04 7.301020112961e-03 0.0 
0.0 0.0 -1.091942449670e-03 
-1.157557793781e-03 1.434383666525e-04 0.0 
1.434383666525e-04 7.107529686986e-03 0.0 
0.0 0.0 -1.062342898562e-03 
-1.103342207633e-03 1.238709536611e-04 0.0 
1.238709536611e-04 6.657901312686e-03 0.0 
0.0 0.0 -9.962627399151e-04 
-1.130139591936e-03 1.194308116232e-04 0.0 
1.194308116232e-04 6.908298246914e-03 0.0 
0.0 0.0 -1.032646955902e-03 
-1.072650473166e-03 9.941159075290e-05 0.0 
9.941159075290e-05 6.455574140328e-03 0.0 
0.0 0.0 -9.664557332607e-04 
-1.101356119743e-03 9.815565709695e-05 0.0 
9.815565709695e-05 6.706288769856e-03 0.0 
0.0 0.0 -1.002889032254e-03 
-1.155889062888e-03 1.141636426079e-04 0.0 
1.141636426079e-04 7.157664523701e-03 0.0 
0.0 0.0 -1.069134413525e-03 
-1.129364737971e-03 9.069177524751e-05 0.0 
9.069177524751e-05 6.958007176896e-03 0.0 
0.0 0.0 -1.039387411609e-03 
-1.074512864600e-03 8.003659807365e-05 0.0 
8.003659807365e-05 6.506063569350e-03 0.0 
0.0 0.0 -9.730575354659e-04 
-1.102505706781e-03 6.895302199807e-05 0.0 
6.895302199807e-05 6.755927681467e-03 0.0 
0.0 0.0 -1.009574527126e-03 
-1.046730538131e-03 5.947738879001e-05 0.0 
5.947738879001e-05 6.301429284161e-03 0.0 
0.0 0.0 -9.431603702596e-04 
-1.071542509842e-03 4.629020306893e-05 0.0 
4.629020306893e-05 6.545497453892e-03 0.0 
0.0 0.0 -9.796061197752e-04 
-1.128792209327e-03 6.597728227981e-05 0.0 
6.597728227981e-05 7.006220652052e-03 0.0 
0.0 0.0 -1.046101832713e-03 
-4.073418969283e-04 -1.607374412238e-04 0.0 
-1.607374412238e-04 1.828608037656e-03 0.0 
0.0 0.0 -3.035957800550e-04 
-7.554826328512e-04 -1.381735686785e-04 0.0 
-1.381735686785e-04 5.982792301535e-03 0.0 
0.0 0.0 -1.017732614895e-03 
-8.650297313857e-04 -1.043541426240e-04 0.0 
-1.043541426240e-04 6.483758424389e-03 0.0 
0.0 0.0 -1.083831836677e-03 
-7.928232165852e-04 -3.175969841458e-04 0.0 
-3.175969841458e-04 3.652484692606e-03 0.0 
0.0 0.0 -5.671321338944e-04 
-8.566347672055e-04 -3.217821912401e-04 0.0 
-3.217821912401e-04 4.048954472777e-03 0.0 
0.0 0.0 -6.325382687906e-04 
-8.804918361104e-04 -3.627202257711e-04 0.0 
-3.627202257711e-04 4.282181100263e-03 0.0 
0.0 0.0 -6.695659616924e-04 
-9.177573047803e-04 -2.924538415403e-04 0.0 
-2.924538415403e-04 4.507721826303e-03 0.0 
0.0 0.0 -6.986863204145e-04 
-1.099135465243e-03 4.357947276918e-05 0.0 
4.357947276918e-05 6.797671672464e-03 0.0 
0.0 0.0 -1.015477767897e-03 
-1.160436245727e-03 6.544078644588e-05 0.0 
6.544078644588e-05 7.256684604588e-03 0.0 
0.0 0.0 -1.082739357160e-03 
7.036319334209e-05 1.449833710054e-03 0.0 
1.449833710054e-03 1.011168072104e-03 0.0 
0.0 0.0 -3.730214571323e-04 
-1.313033917885e-04 1.466714958247e-03 0.0 
1.466714958247e-03 1.502828426790e-03 0.0 
0.0 0.0 -4.032920832132e-04 
-1.202425520628e-03 2.413601229435e-04 0.0 
2.413601229435e-04 7.423802842249e-03 0.0 
0.0 0.0 -1.114382729655e-03 
-1.180850422310e-03 -1.936004808914e-04 0.0 
-1.936004808914e-04 6.684429122052e-03 0.0 
0.0 0.0 -1.027045364000e-03 
-1.134320678585e-03 -2.084199271041e-04 0.0 
-2.084199271041e-04 6.243084428302e-03 0.0 
0.0 0.0 -9.609938998495e-04 
-5.952582294012e-04 8.316068584819e-04 0.0 
8.316068584819e-04 3.858437738170e-03 0.0 
0.0 0.0 -6.721935305596e-04 
-6.370100935664e-04 8.121723615139e-04 0.0 
8.121723615139e-04 3.769953827514e-03 0.0 
0.0 0.0 -6.449639573754e-04 
-5.665659749616e-04 8.991854182347e-04 0.0 
8.991854182347e-04 3.453268816289e-03 0.0 
0.0 0.0 -6.093131083769e-04 
-6.122481697245e-04 8.584550154617e-04 0.0 
8.584550154617e-04 3.367517643807e-03 0.0 
0.0 0.0 -5.812298138028e-04 
-6.717347223774e-04 7.671538527367e-04 0.0 
7.671538527367e-04 3.680324616707e-03 0.0 
0.0 0.0 -6.173664885638e-04 
-5.474862438506e-04 9.567364556164e-04 0.0 
9.567364556164e-04 3.048590303343e-03 0.0 
0.0 0.0 -5.448148816535e-04 
-7.720267330795e-04 -4.449545656596e-04 0.0 
-4.449545656596e-04 5.565922562376e-03 0.0 
0.0 0.0 -9.373051277721e-04 
-1.182206612194e-03 1.041005248131e-04 0.0 
1.041005248131e-04 7.409010778114e-03 0.0 
0.0 0.0 -1.105708206284e-03 
-5.928875136439e-04 -5.713513742364e-04 0.0 
-5.713513742364e-04 2.330327898660e-03 0.0 
0.0 0.0 -3.852871208612e-04 
-5.197872744909e-04 -4.881912543796e-04 0.0 
-4.881912543796e-04 1.906337896852e-03 0.0 
0.0 0.0 -3.193625892355e-04 
-1.227873719132e-03 -1.791865956722e-04 0.0 
-1.791865956722e-04 7.126040838435e-03 0.0 
0.0 0.0 -1.093300181677e-03 
-6.499802166189e-04 -1.689058959396e-04 0.0 
-1.689058959396e-04 5.481207367019e-03 0.0 
0.0 0.0 -9.522822042369e-04 
-8.770180670307e-04 5.584319225786e-04 0.0 
5.584319225786e-04 5.741150606381e-03 0.0 
0.0 0.0 -9.319735432435e-04 
-8.671724403427e-04 5.454834419887e-04 0.0 
5.454834419887e-04 5.872286509418e-03 0.0 
0.0 0.0 -9.598347391831e-04 
-9.359860302395e-04 5.226295226197e-04 0.0 
5.226295226197e-04 6.177406845640e-03 0.0 
0.0 0.0 -9.957130113267e-04 
-9.320971335610e-04 5.080083978468e-04 0.0 
5.080083978468e-04 6.315456934145e-03 0.0 
0.0 0.0 -1.023751803962e-03 
-1.000869956237e-03 4.939881751637e-04 0.0 
4.939881751637e-04 6.620841154437e-03 0.0 
0.0 0.0 -1.059873349132e-03 
-1.004419613008e-03 4.777529205192e-04 0.0 
4.777529205192e-04 6.763876066662e-03 0.0 
0.0 0.0 -1.087854580038e-03 
-9.336137141730e-04 4.809338762962e-04 0.0 
4.809338762962e-04 6.463526298401e-03 0.0 
0.0 0.0 -1.051791170495e-03 
-9.097029887622e-04 3.089094526998e-04 0.0 
3.089094526998e-04 6.700162919637e-03 0.0 
0.0 0.0 -1.107463318235e-03 
-1.013980886497e-03 4.491053628713e-04 0.0 
4.491053628713e-04 6.922381498406e-03 0.0 
0.0 0.0 -1.115916943430e-03 
-1.033295848304e-03 4.860531472176e-05 0.0 
4.860531472176e-05 6.321432505072e-03 0.0 
0.0 0.0 -9.487150400336e-04 
-6.387227248277e-04 3.148916192941e-04 0.0 
3.148916192941e-04 5.411845409225e-03 0.0 
0.0 0.0 -9.398448712237e-04 
-3.958753706079e-04 -1.306941406373e-03 0.0 
-1.306941406373e-03 2.210168825673e-03 0.0 
0.0 0.0 -4.474652294669e-04 
-3.867396229061e-04 -1.939364425131e-04 0.0 
-1.939364425131e-04 1.612473113241e-03 0.0 
0.0 0.0 -2.752498982733e-04 
-3.548792531294e-04 -1.099906862766e-03 0.0 
-1.099906862766e-03 1.383653509656e-03 0.0 
0.0 0.0 -3.352047878591e-04 
-4.486846026636e-04 -1.253624941077e-04 0.0 
-1.253624941077e-04 2.009661496099e-03 0.0 
0.0 0.0 -3.299748606085e-04 
-5.597023421830e-04 -1.650736869684e-04 0.0 
-1.650736869684e-04 2.479203026553e-03 0.0 
0.0 0.0 -3.961554456411e-04 
-1.033444219732e-03 -2.887128519644e-04 0.0 
-2.887128519644e-04 7.020027445513e-03 0.0 
0.0 0.0 -1.136360603439e-03 
-1.072616243485e-03 4.757105308921e-04 0.0 
4.757105308921e-04 7.071175993343e-03 0.0 
0.0 0.0 -1.124065295910e-03 
-1.065195527322e-03 4.849349100928e-04 0.0 
4.849349100928e-04 6.917548798149e-03 0.0 
0.0 0.0 -1.095615423988e-03 
-6.465811726499e-04 7.943118945265e-04 0.0 
7.943118945265e-04 3.291375737462e-03 0.0 
0.0 0.0 -5.539799138139e-04 
-6.949762395585e-04 6.852387151617e-04 0.0 
6.852387151617e-04 3.583300335040e-03 0.0 
0.0 0.0 -5.905304635153e-04 
-9.409548518096e-04 2.363101942403e-04 0.0 
2.363101942403e-04 6.893498553700e-03 0.0 
0.0 0.0 -1.136278651916e-03 
-1.031330535355e-03 1.691125997159e-04 0.0 
1.691125997159e-04 6.096244556870e-03 0.0 
0.0 0.0 -9.177848451843e-04 
-1.043451867895e-03 1.026605375003e-04 0.0 
1.026605375003e-04 6.207052540714e-03 0.0 
0.0 0.0 -9.302130594432e-04 
-1.010991519056e-03 8.266817185374e-05 0.0 
8.266817185374e-05 5.998028369178e-03 0.0 
0.0 0.0 -9.001900590098e-04 
-3.040782914078e-04 -1.048978576797e-04 0.0 
-1.048978576797e-04 1.479833111238e-03 0.0 
0.0 0.0 -2.595221258752e-04 
-1.668157979825e-04 -1.176981615551e-03 0.0 
-1.176981615551e-03 1.066881825257e-03 0.0 
0.0 0.0 -3.546314877250e-04 
-1.207894844135e-03 1.612820959581e-04 0.0 
1.612820959581e-04 7.555800088084e-03 0.0 
0.0 0.0 -1.128363834889e-03 
-1.496144498695e-04 1.267178183608e-03 0.0 
1.267178183608e-03 1.924933515505e-03 0.0 
0.0 0.0 -4.615872697407e-04 
-2.777481430259e-04 1.364720531140e-03 0.0 
1.364720531140e-03 1.941765323137e-03 0.0 
0.0 0.0 -4.342639779644e-04 
4.034334735409e-04 2.445431345025e-04 0.0 
2.445431345025e-04 -9.041096436294e-05 0.0 
0.0 0.0 -1.341525039334e-04 
2.051377463425e-04 -1.961701048020e-05 0.0 
-1.961701048020e-05 -5.720414671563e-05 0.0 
0.0 0.0 -6.340011412580e-05 
-1.121483383227e-03 6.295637452115e-05 0.0 
6.295637452115e-05 7.029111019756e-03 0.0 
0.0 0.0 -1.051814883004e-03 
-1.177494848702e-03 6.582362175726e-05 0.0 
6.582362175726e-05 7.492557943411e-03 0.0 
0.0 0.0 -1.117859435171e-03 
-9.333898311745e-04 -3.509792996749e-04 0.0 
-3.509792996749e-04 4.719089492349e-03 0.0 
0.0 0.0 -7.356929296387e-04 
-9.785857666390e-04 -2.860980495383e-04 0.0 
-2.860980495383e-04 4.943354100410e-03 0.0 
0.0 0.0 -7.648299719236e-04 
-9.654424262213e-04 -2.714537898239e-04 0.0 
-2.714537898239e-04 6.765873836397e-03 0.0 
0.0 0.0 -1.107558395918e-03 
-5.027897087658e-04 -9.882385644824e-04 0.0 
-9.882385644824e-04 1.682465534830e-03 0.0 
0.0 0.0 -3.185922720913e-04 
-1.207361177183e-03 7.219593573452e-05 0.0 
7.219593573452e-05 7.710745314262e-03 0.0 
0.0 0.0 -1.149181664990e-03 
-7.221207359935e-04 -2.319743394949e-04 0.0 
-2.319743394949e-04 5.736084564024e-03 0.0 
0.0 0.0 -9.807908033776e-04 
-6.199444920269e-04 -2.803458900383e-04 0.0 
-2.803458900383e-04 5.234294253432e-03 0.0 
0.0 0.0 -9.152404036621e-04 
-8.850179884087e-04 -2.107315013722e-04 0.0 
-2.107315013722e-04 4.277220058387e-03 0.0 
0.0 0.0 -6.604623333687e-04 
-7.131176054971e-05 1.522786260440e-03 0.0 
1.522786260440e-03 1.128166094303e-03 0.0 
0.0 0.0 -3.722456989795e-04 
1.506124378874e-04 1.353289082485e-03 0.0 
1.353289082485e-03 6.471948717885e-04 0.0 
0.0 0.0 -3.185609919049e-04 
-2.939037762269e-04 -1.257650241065e-03 0.0 
-1.257650241065e-03 2.275247472139e-03 0.0 
0.0 0.0 -4.845585894574e-04 
-5.488065046231e-04 -1.067445958774e-03 0.0 
-1.067445958774e-03 2.060865836395e-03 0.0 
0.0 0.0 -3.723415964733e-04 
-4.888098213751e-04 -1.052003350203e-04 0.0 
-1.052003350203e-04 2.216308377581e-03 0.0 
0.0 0.0 -3.583452993329e-04 
-1.062272686561e-03 -2.298804836140e-04 0.0 
-2.298804836140e-04 7.251651551201e-03 0.0 
0.0 0.0 -1.173829981771e-03 
-1.227876715994e-03 1.893009349700e-04 0.0 
1.893009349700e-04 7.743204952100e-03 0.0 
0.0 0.0 -1.157575248917e-03 
-9.423902529627e-04 4.304393189543e-04 0.0 
4.304393189543e-04 6.620906454591e-03 0.0 
0.0 0.0 -1.080172819833e-03 
-8.612685947681e-04 4.776509476654e-04 0.0 
4.776509476654e-04 6.154589150170e-03 0.0 
0.0 0.0 -1.015677837919e-03 
-1.022115058251e-03 4.070298504517e-04 0.0 
4.070298504517e-04 7.083428986968e-03 0.0 
0.0 0.0 -1.144955025780e-03 
-3.834899570330e-04 -7.958142673473e-04 0.0 
-7.958142673473e-04 1.299084562353e-03 0.0 
0.0 0.0 -2.798534577099e-04 
-1.102214544351e-03 -3.027150081502e-04 0.0 
-3.027150081502e-04 7.282068807861e-03 0.0 
0.0 0.0 -1.165794428787e-03 
-1.216895343866e-03 -1.441675384032e-04 0.0 
-1.441675384032e-04 6.902897395280e-03 0.0 
0.0 0.0 -1.056136825731e-03 
-1.138941837453e-03 4.914289706325e-04 0.0 
4.914289706325e-04 7.351648623001e-03 0.0 
0.0 0.0 -1.157598467365e-03 
-1.123764904198e-03 4.819548128218e-04 0.0 
4.819548128218e-04 7.209866110785e-03 0.0 
0.0 0.0 -1.131219827106e-03 
-2.809946016527e-04 1.203335788346e-03 0.0 
1.203335788346e-03 2.340542833527e-03 0.0 
0.0 0.0 -4.968499830348e-04 
-3.877477755505e-04 1.221962387701e-03 0.0 
1.221962387701e-03 2.338693931197e-03 0.0 
0.0 0.0 -4.705806478706e-04 
-4.036150361409e-04 1.336476693924e-03 0.0 
1.336476693924e-03 1.977592500610e-03 0.0 
0.0 0.0 -4.078257031896e-04 
-4.816859073884e-04 1.176560530353e-03 0.0 
1.176560530353e-03 2.343460801890e-03 0.0 
0.0 0.0 -4.438024830152e-04 
-9.732353814622e-04 3.041939387352e-04 0.0 
3.041939387352e-04 5.448266059909e-03 0.0 
0.0 0.0 -8.361670615232e-04 
-3.925437291381e-04 1.104523798212e-03 0.0 
1.104523798212e-03 2.729748532404e-03 0.0 
0.0 0.0 -5.333915535664e-04 
-9.057439282626e-04 4.261225243385e-04 0.0 
4.261225243385e-04 5.077306138642e-03 0.0 
0.0 0.0 -7.939299641313e-04 
-8.975208378586e-04 3.720025570421e-04 0.0 
3.720025570421e-04 4.930717473606e-03 0.0 
0.0 0.0 -7.665196690739e-04 
-8.600171473097e-04 4.161603871668e-04 0.0 
4.161603871668e-04 4.671461707836e-03 0.0 
0.0 0.0 -7.319524942586e-04 
-7.253516315596e-04 6.727829162625e-04 0.0 
6.727829162625e-04 3.972513731187e-03 0.0 
0.0 0.0 -6.527873785750e-04 
-7.385699352999e-04 5.948696391935e-04 0.0 
5.948696391935e-04 3.862508165088e-03 0.0 
0.0 0.0 -6.261871041946e-04 
-1.081656769382e-04 8.687696267767e-04 0.0 
8.687696267767e-04 2.439613486548e-03 0.0 
0.0 0.0 -5.534964465553e-04 
-4.602867709727e-04 2.826245204948e-04 0.0 
2.826245204948e-04 4.601098480980e-03 0.0 
0.0 0.0 -8.390310526140e-04 
-8.925257354332e-04 -4.271097572203e-04 0.0 
-4.271097572203e-04 4.492522403458e-03 0.0 
0.0 0.0 -7.069621042110e-04 
-1.002856146604e-03 -4.033307783673e-04 0.0 
-4.033307783673e-04 5.565178736137e-03 0.0 
0.0 0.0 -8.751042800696e-04 
-7.003078251289e-04 -5.958729416123e-04 0.0 
-5.958729416123e-04 4.895224615458e-03 0.0 
0.0 0.0 -8.350146568664e-04 
-1.207341521713e-03 1.295685592876e-04 0.0 
1.295685592876e-04 7.603516284320e-03 0.0 
0.0 0.0 -1.135109731873e-03 
-1.234147304705e-03 1.158810138817e-04 0.0 
1.158810138817e-04 7.860000857238e-03 0.0 
0.0 0.0 -1.171938512032e-03 
-1.015895156183e-03 6.930194114772e-05 0.0 
6.930194114772e-05 6.052013455342e-03 0.0 
0.0 0.0 -9.065739516476e-04 
-9.767996699331e-04 4.467953763507e-05 0.0 
4.467953763507e-05 5.838511550894e-03 0.0 
0.0 0.0 -8.764137937918e-04 
-4.392150575772e-04 -3.259674398810e-04 0.0 
-3.259674398810e-04 1.665337581441e-03 0.0 
0.0 0.0 -2.813159824896e-04 
-4.247097810398e-04 -3.644747280315e-04 0.0 
-3.644747280315e-04 1.471773465299e-03 0.0 
0.0 0.0 -2.533966087790e-04 
-8.177306416292e-04 -6.121829702514e-04 0.0 
-6.121829702514e-04 4.811548278672e-03 0.0 
0.0 0.0 -7.894497706086e-04 
-1.082360538362e-03 -3.264662476232e-04 0.0 
-3.264662476232e-04 7.048376439915e-03 0.0 
0.0 0.0 -1.127529358476e-03 
-1.227748397910e-03 2.361030321983e-04 0.0 
2.361030321983e-04 7.672982991330e-03 0.0 
0.0 0.0 -1.150095860580e-03 
-1.249888144017e-03 2.671434152154e-04 0.0 
2.671434152154e-04 7.859407510661e-03 0.0 
0.0 0.0 -1.179372829571e-03 
-1.222973776595e-03 2.761414432265e-04 0.0 
2.761414432265e-04 7.603174812567e-03 0.0 
0.0 0.0 -1.143369325255e-03 
-9.935045909858e-04 -2.028359368237e-04 0.0 
-2.028359368237e-04 6.995967624477e-03 0.0 
0.0 0.0 -1.144273392007e-03 
3.495269992969e-05 1.197649878409e-04 0.0 
1.197649878409e-04 2.359795329880e-03 0.0 
0.0 0.0 -5.733740095480e-04 
-4.781962153862e-04 -1.012252719499e-04 0.0 
-1.012252719499e-04 4.730438814657e-03 0.0 
0.0 0.0 -8.590966742019e-04 
3.810975112987e-04 -3.002206319640e-04 0.0 
-3.002206319640e-04 -7.297745490904e-05 0.0 
0.0 0.0 -1.320514527384e-04 
-7.161621287090e-04 5.841402981115e-04 0.0 
5.841402981115e-04 5.248781673340e-03 0.0 
0.0 0.0 -8.884627649733e-04 
-3.115080858313e-04 -2.227975807547e-04 0.0 
-2.227975807547e-04 1.202076532669e-03 0.0 
0.0 0.0 -2.162536877156e-04 
-1.055053453560e-03 4.626735760724e-04 0.0 
4.626735760724e-04 6.476326574185e-03 0.0 
0.0 0.0 -1.010319580236e-03 
-1.255576380871e-03 -1.315357551102e-04 0.0 
-1.315357551102e-04 7.338059588025e-03 0.0 
0.0 0.0 -1.122815839103e-03 
-1.267850494462e-03 -1.674624135979e-04 0.0 
-1.674624135979e-04 7.563446267715e-03 0.0 
0.0 0.0 -1.159213750608e-03 
-1.010702044889e-03 2.850279828007e-04 0.0 
2.850279828007e-04 7.183997457293e-03 0.0 
0.0 0.0 -1.171959308352e-03 
-8.963384137737e-04 2.488891316052e-04 0.0 
2.488891316052e-04 4.875662042004e-03 0.0 
0.0 0.0 -7.470952864203e-04 
-7.058007902936e-04 5.271243929450e-04 0.0 
5.271243929450e-04 5.385179954600e-03 0.0 
0.0 0.0 -9.162722660995e-04 
-6.228080214073e-04 5.120192170004e-04 0.0 
5.120192170004e-04 5.067178617559e-03 0.0 
0.0 0.0 -8.808726170640e-04 
-8.477370711112e-04 3.577431200157e-04 0.0 
3.577431200157e-04 4.525141676784e-03 0.0 
0.0 0.0 -7.048691535495e-04 
-8.132640120407e-04 4.004719993994e-04 0.0 
4.004719993994e-04 4.272493314920e-03 0.0 
0.0 0.0 -6.707530558731e-04 
-8.209482996094e-04 4.682329320479e-04 0.0 
4.682329320479e-04 4.408754927634e-03 0.0 
0.0 0.0 -6.972958566626e-04 
-7.782280701881e-04 4.523325447572e-04 0.0 
4.523325447572e-04 4.016412533301e-03 0.0 
0.0 0.0 -6.359606378414e-04 
-4.177281549139e-04 -1.168672558867e-03 0.0 
-1.168672558867e-03 2.631942087578e-03 0.0 
0.0 0.0 -5.122594947013e-04 
-4.962383683680e-04 -1.157174554661e-03 0.0 
-1.157174554661e-03 2.541178569243e-03 0.0 
0.0 0.0 -4.750188804659e-04 
-1.154021499096e-03 4.782775772644e-04 0.0 
4.782775772644e-04 7.573815285751e-03 0.0 
0.0 0.0 -1.192042136895e-03 
-1.094464537807e-03 4.618413052259e-04 0.0 
4.618413052259e-04 7.386095086857e-03 0.0 
0.0 0.0 -1.178660172201e-03 
-1.187593002781e-03 4.811019602591e-04 0.0 
4.811019602591e-04 7.655964388501e-03 0.0 
0.0 0.0 -1.193029175878e-03 
-1.163263876641e-03 4.785864187479e-04 0.0 
4.785864187479e-04 7.511604884733e-03 0.0 
0.0 0.0 -1.168165168231e-03 
-1.037083014282e-03 2.184072236099e-04 0.0 
2.184072236099e-04 7.374910845912e-03 0.0 
0.0 0.0 -1.200910491468e-03 
-9.753553652922e-04 1.640389574658e-04 0.0 
1.640389574658e-04 7.090218753853e-03 0.0 
0.0 0.0 -1.164168769488e-03 
-6.028560444752e-04 -1.360178339637e-04 0.0 
-1.360178339637e-04 2.675687027615e-03 0.0 
0.0 0.0 -4.227350873389e-04 
-7.047203305141e-04 5.847954661015e-04 0.0 
5.847954661015e-04 3.476801185836e-03 0.0 
0.0 0.0 -5.646260317871e-04 
-1.245127779796e-03 1.777850177793e-04 0.0 
1.777850177793e-04 7.993741479566e-03 0.0 
0.0 0.0 -1.194151889699e-03 
-8.817872830960e-04 3.208786017712e-04 0.0 
3.208786017712e-04 4.774377627364e-03 0.0 
0.0 0.0 -7.390869131010e-04 
-1.164936831278e-03 -3.113795227657e-04 0.0 
-3.113795227657e-04 7.515893028419e-03 0.0 
0.0 0.0 -1.192835421428e-03 
-1.142129895980e-03 -3.204237901470e-04 0.0 
-3.204237901470e-04 7.305220282504e-03 0.0 
0.0 0.0 -1.156047193884e-03 
8.143997684988e-05 -5.632529459351e-05 0.0 
-5.632529459351e-05 -1.764449114255e-05 0.0 
0.0 0.0 -2.734092244600e-05 
2.721987346519e-04 -4.520014711284e-04 0.0 
-4.520014711284e-04 1.905810524669e-05 0.0 
0.0 0.0 -1.248243599565e-04 
-1.231567197499e-03 6.211834964842e-05 0.0 
6.211834964842e-05 7.963702026826e-03 0.0 
0.0 0.0 -1.184588873336e-03 
-5.000595373901e-04 1.204680535621e-03 0.0 
1.204680535621e-03 1.991465428866e-03 0.0 
0.0 0.0 -3.811925308841e-04 
-5.489936022904e-04 1.042785009975e-03 0.0 
1.042785009975e-03 2.300834123338e-03 0.0 
0.0 0.0 -4.158690271831e-04 
-3.842703009259e-04 1.346678098862e-03 0.0 
1.346678098862e-03 1.633275420512e-03 0.0 
0.0 0.0 -3.660215567096e-04 
-1.330527207980e-03 -3.853221662851e-05 0.0 
-3.853221662851e-05 8.239463133450e-03 0.0 
0.0 0.0 -1.258310293365e-03 
-8.465756460554e-04 5.727197951410e-07 0.0 
5.727197951410e-07 4.947192301730e-03 0.0 
0.0 0.0 -7.479256703001e-04 
-1.285435156603e-03 -1.236167483815e-04 0.0 
-1.236167483815e-04 7.770617594905e-03 0.0 
0.0 0.0 -1.189418985649e-03 
-7.744068399611e-04 5.950771192320e-04 0.0 
5.950771192320e-04 4.259141188703e-03 0.0 
0.0 0.0 -6.884682336192e-04 
-1.252365039908e-03 8.497968466370e-05 0.0 
8.497968466370e-05 8.173452803744e-03 0.0 
0.0 0.0 -1.216510697198e-03 
-7.049683277386e-04 4.524468991294e-04 0.0 
4.524468991294e-04 5.539667182357e-03 0.0 
0.0 0.0 -9.449116413281e-04 
-5.109301527551e-04 9.153066593930e-04 0.0 
9.153066593930e-04 3.518995939107e-03 0.0 
0.0 0.0 -6.353966017694e-04 
-8.973844045661e-04 -2.448816665564e-04 0.0 
-2.448816665564e-04 6.506541659943e-03 0.0 
0.0 0.0 -1.078177493492e-03 
-1.200545941931e-03 2.302554044874e-05 0.0 
2.302554044874e-05 7.723131628604e-03 0.0 
0.0 0.0 -1.149140729088e-03 
-1.267685038875e-03 6.016813044477e-05 0.0 
6.016813044477e-05 8.228074956414e-03 0.0 
0.0 0.0 -1.221625961084e-03 
-9.734656256454e-04 9.189307336811e-05 0.0 
9.189307336811e-05 5.749626761027e-03 0.0 
0.0 0.0 -8.638707813346e-04 
-9.480895872449e-04 4.301450456172e-05 0.0 
4.301450456172e-05 5.516146053233e-03 0.0 
0.0 0.0 -8.327709333130e-04 
-1.011335939965e-03 1.092245285963e-04 0.0 
1.092245285963e-04 5.940162525294e-03 0.0 
0.0 0.0 -8.925140200429e-04 
4.463857562194e-04 7.689358174209e-04 0.0 
7.689358174209e-04 8.096987600889e-05 0.0 
0.0 0.0 -2.260095566693e-04 
2.840813490605e-04 4.390350068277e-04 0.0 
4.390350068277e-04 7.817808705326e-06 0.0 
0.0 0.0 -1.250996390425e-04 
-1.210084270230e-03 9.714327804011e-05 0.0 
9.714327804011e-05 7.658599637129e-03 0.0 
0.0 0.0 -1.142090266074e-03 
-7.141279186037e-04 -2.802255352289e-04 0.0 
-2.802255352289e-04 3.181146952729e-03 0.0 
0.0 0.0 -5.006138788623e-04 
-7.694336124780e-04 -2.009358515531e-04 0.0 
-2.009358515531e-04 3.447879024720e-03 0.0 
0.0 0.0 -5.359218444892e-04 
-5.552155606093e-04 -8.313172136283e-04 0.0 
-8.313172136283e-04 1.917610481523e-03 0.0 
0.0 0.0 -3.334096804080e-04 
-5.855222745600e-04 -8.890134040167e-04 0.0 
-8.890134040167e-04 2.304658271308e-03 0.0 
0.0 0.0 -3.985542937016e-04 
-9.453814008689e-04 -4.031453143009e-04 0.0 
-4.031453143009e-04 4.927324523234e-03 0.0 
0.0 0.0 -7.728092966600e-04 
-8.970888917955e-04 -4.820738487373e-04 0.0 
-4.820738487373e-04 4.692923205728e-03 0.0 
0.0 0.0 -7.441750962829e-04 
-1.057585005233e-03 4.777756013197e-04 0.0 
4.777756013197e-04 6.625238408207e-03 0.0 
0.0 0.0 -1.038692069610e-03 
-1.108626014693e-03 4.632490588969e-04 0.0 
4.632490588969e-04 6.908491944325e-03 0.0 
0.0 0.0 -1.074129358999e-03 
-9.418242035971e-04 5.272068290834e-04 0.0 
5.272068290834e-04 6.041038675917e-03 0.0 
0.0 0.0 -9.675620497173e-04 
-6.990392591995e-04 -3.338931181341e-04 0.0 
-3.338931181341e-04 5.500989544803e-03 0.0 
0.0 0.0 -9.439558448496e-04 
-6.028432506679e-04 -3.974427061355e-04 0.0 
-3.974427061355e-04 5.004524485729e-03 0.0 
0.0 0.0 -8.783802297791e-04 
-5.183067816985e-04 -3.360734288677e-04 0.0 
-3.360734288677e-04 4.731806317453e-03 0.0 
0.0 0.0 -8.502765121185e-04 
-1.259796436841e-03 1.397569485309e-04 0.0 
1.397569485309e-04 8.039016122005e-03 0.0 
0.0 0.0 -1.199867006878e-03 
-1.287397602500e-03 1.387283529904e-04 0.0 
1.387283529904e-04 8.359284824254e-03 0.0 
0.0 0.0 -1.242728214876e-03 
-3.379919536494e-04 -1.097545305898e-03 0.0 
-1.097545305898e-03 2.729711593676e-03 0.0 
0.0 0.0 -5.488632449009e-04 
-2.035001513821e-04 -1.112025139158e-03 0.0 
-1.112025139158e-03 2.365560687545e-03 0.0 
0.0 0.0 -5.212126360957e-04 
-5.194133645792e-04 -1.055659007126e-03 0.0 
-1.055659007126e-03 2.949517889644e-03 0.0 
0.0 0.0 -5.390128571062e-04 
-1.267707936259e-03 2.118212896833e-04 0.0 
2.118212896833e-04 8.185373915988e-03 0.0 
0.0 0.0 -1.223056365294e-03 
-1.302765377273e-03 -1.484462634259e-04 0.0 
-1.484462634259e-04 8.004925592989e-03 0.0 
0.0 0.0 -1.224004481682e-03 
-1.287300987604e-03 -2.136982349667e-04 0.0 
-2.136982349667e-04 7.780826338296e-03 0.0 
0.0 0.0 -1.195820777905e-03 
-2.832529258607e-04 -2.494591043419e-04 0.0 
-2.494591043419e-04 1.024201089409e-03 0.0 
0.0 0.0 -1.882176919714e-04 
-3.969707252897e-04 -4.311951738694e-04 0.0 
-4.311951738694e-04 1.271754487823e-03 0.0 
0.0 0.0 -2.310783895037e-04 
2.054226679739e-05 1.347833966380e-03 0.0 
1.347833966380e-03 8.186709947017e-04 0.0 
0.0 0.0 -3.411234323309e-04 
1.823631015032e-04 1.033435563719e-03 0.0 
1.033435563719e-03 3.956751210192e-04 0.0 
0.0 0.0 -2.477306667953e-04 
-1.268592166038e-03 3.040791407146e-04 0.0 
3.040791407146e-04 8.023493563003e-03 0.0 
0.0 0.0 -1.207258722210e-03 
-1.243812686443e-03 3.149820227485e-04 0.0 
3.149820227485e-04 7.787606541598e-03 0.0 
0.0 0.0 -1.172631524865e-03 
-1.292321070540e-03 2.959466161544e-04 0.0 
2.959466161544e-04 8.333939565192e-03 0.0 
0.0 0.0 -1.247471551777e-03 
-5.223015362984e-04 -5.966006200107e-05 0.0 
-5.966006200107e-05 2.388783331191e-03 0.0 
0.0 0.0 -3.801539159394e-04 
-8.682373190693e-04 4.316445998786e-04 0.0 
4.316445998786e-04 6.315487464641e-03 0.0 
0.0 0.0 -1.045322365442e-03 
-1.095327153402e-03 -1.697306701960e-04 0.0 
-1.697306701960e-04 7.466737774382e-03 0.0 
0.0 0.0 -1.207899217314e-03 
-1.032573115176e-03 -1.219439203281e-04 0.0 
-1.219439203281e-04 7.241482983967e-03 0.0 
0.0 0.0 -1.178012378629e-03 
-1.169146255923e-03 -2.121713741949e-04 0.0 
-2.121713741949e-04 7.798947947966e-03 0.0 
0.0 0.0 -1.244624083072e-03 
-9.796999613362e-04 3.385511052295e-04 0.0 
3.385511052295e-04 6.990100956638e-03 0.0 
0.0 0.0 -1.142102124289e-03 
-1.089777783011e-03 3.180765990224e-04 0.0 
3.180765990224e-04 7.453415741070e-03 0.0 
0.0 0.0 -1.205428683694e-03 
-1.118930099946e-03 4.102866827850e-04 0.0 
4.102866827850e-04 7.540265907261e-03 0.0 
0.0 0.0 -1.209323031234e-03 
7.629343076431e-06 -2.863199915615e-06 0.0 
-2.863199915615e-06 -2.105112574007e-06 0.0 
0.0 0.0 -2.367527358182e-06 
-1.243581183883e-03 1.333985162286e-05 0.0 
1.333985162286e-05 8.050404267198e-03 0.0 
0.0 0.0 -1.199992767657e-03 
-9.467227888159e-04 4.157282563709e-05 0.0 
4.157282563709e-05 5.565131892238e-03 0.0 
0.0 0.0 -8.371571859873e-04 
0.0 0.0 0.0 
0.0 0.0 0.0 
0.0 0.0 0.0 
-9.052370495583e-04 2.926470670919e-05 0.0 
2.926470670919e-05 5.359734394624e-03 0.0 
0.0 0.0 -8.070151920887e-04 
-9.464808288455e-04 2.890706983172e-05 0.0 
2.890706983172e-05 5.631422995547e-03 0.0 
0.0 0.0 -8.451615393777e-04 
-8.746039380960e-04 1.411235588614e-05 0.0 
1.411235588614e-05 5.099179134377e-03 0.0 
0.0 0.0 -7.748096441827e-04 
-4.043228169997e-04 -4.987598217760e-05 0.0 
-4.987598217760e-05 1.919858664121e-03 0.0 
0.0 0.0 -3.155299188714e-04 
-9.342623020306e-04 6.996522255594e-05 0.0 
6.996522255594e-05 5.399295489727e-03 0.0 
0.0 0.0 -8.174106193842e-04 
-9.784066260017e-04 9.518359088927e-05 0.0 
9.518359088927e-05 5.690330335138e-03 0.0 
0.0 0.0 -8.556612431672e-04 
-1.892819975809e-04 -2.080284296464e-04 0.0 
-2.080284296464e-04 7.178215811464e-04 0.0 
0.0 0.0 -1.471067669042e-04 
-1.288411893385e-03 2.088493887645e-04 0.0 
2.088493887645e-04 8.418681062039e-03 0.0 
0.0 0.0 -1.259301554906e-03 
-1.756794603790e-04 -1.355890425743e-04 0.0 
-1.355890425743e-04 7.416554994657e-04 0.0 
0.0 0.0 -1.555489432776e-04 
-1.976593762146e-04 -1.418821488879e-04 0.0 
-1.418821488879e-04 9.406849208869e-04 0.0 
0.0 0.0 -1.806578101979e-04 
-1.201046689643e-03 -2.954808681697e-04 0.0 
-2.954808681697e-04 7.775612660441e-03 0.0 
0.0 0.0 -1.221214701962e-03 
-1.189783866574e-03 -3.147730725178e-04 0.0 
-3.147730725178e-04 7.544251850061e-03 0.0 
0.0 0.0 -1.184344882880e-03 
-1.255201532556e-03 -3.138077392023e-04 0.0 
-3.138077392023e-04 7.995797572139e-03 0.0 
0.0 0.0 -1.247726601234e-03 
-1.240131757912e-03 -2.854581707310e-04 0.0 
-2.854581707310e-04 7.755129215709e-03 0.0 
0.0 0.0 -1.211018817991e-03 
-1.178065560448e-03 -3.176973578615e-04 0.0 
-3.176973578615e-04 7.320283461016e-03 0.0 
0.0 0.0 -1.147066289601e-03 
-1.222397278732e-03 -2.815307542264e-04 0.0 
-2.815307542264e-04 7.565615913449e-03 0.0 
0.0 0.0 -1.176490610025e-03 
-9.163713044728e-04 2.842739858528e-05 0.0 
2.842739858528e-05 5.314561917383e-03 0.0 
0.0 0.0 -7.985989294648e-04 
-1.274574997316e-03 -2.683950520862e-04 0.0 
-2.683950520862e-04 8.060277687178e-03 0.0 
0.0 0.0 -1.249018369598e-03 
-1.258852476870e-03 -2.546999081133e-04 0.0 
-2.546999081133e-04 7.798203538470e-03 0.0 
0.0 0.0 -1.207442871744e-03 
-1.315317272271e-03 -2.575611195837e-04 0.0 
-2.575611195837e-04 8.330215412111e-03 0.0 
0.0 0.0 -1.277927415301e-03 
-7.668426714387e-04 3.712502045957e-04 0.0 
3.712502045957e-04 3.884910929190e-03 0.0 
0.0 0.0 -6.108003466767e-04 
-5.473421814769e-04 1.022591756988e-03 0.0 
1.022591756988e-03 2.665785403795e-03 0.0 
0.0 0.0 -4.789358348571e-04 
-5.922456647504e-04 8.887242813561e-04 0.0 
8.887242813561e-04 2.596399578783e-03 0.0 
0.0 0.0 -4.527251363391e-04 
-5.808013297698e-04 8.699366696317e-04 0.0 
8.699366696317e-04 2.240670147384e-03 0.0 
0.0 0.0 -3.875663759467e-04 
-1.238412356123e-03 4.984956173527e-04 0.0 
4.984956173527e-04 8.013994811476e-03 0.0 
0.0 0.0 -1.240180566941e-03 
-1.214337546906e-03 4.975640446935e-04 0.0 
4.975640446935e-04 7.772501925276e-03 0.0 
0.0 0.0 -1.200590015451e-03 
-1.243705293709e-03 -9.256877991256e-05 0.0 
-9.256877991256e-05 7.122808590461e-03 0.0 
0.0 0.0 -1.087555896896e-03 
-1.202734584511e-03 -9.601844950182e-05 0.0 
-9.601844950182e-05 6.680089324953e-03 0.0 
0.0 0.0 -1.020738973070e-03 
-9.185583597048e-04 2.613338660199e-05 0.0 
2.613338660199e-05 5.392223531156e-03 0.0 
0.0 0.0 -8.108182148135e-04 
-9.103297472006e-04 4.766877897124e-06 0.0 
4.766877897124e-06 5.361690236980e-03 0.0 
0.0 0.0 -8.077352941366e-04 
-9.704696328324e-04 5.332193735867e-05 0.0 
5.332193735867e-05 5.783610110985e-03 0.0 
0.0 0.0 -8.678526801547e-04 
-9.618865758326e-04 7.689592341134e-06 0.0 
7.689592341134e-06 5.712312077429e-03 0.0 
0.0 0.0 -8.609153521579e-04 
-1.020016484653e-03 5.295869978670e-05 0.0 
5.295869978670e-05 6.152608316973e-03 0.0 
0.0 0.0 -9.200517378055e-04 
-1.001436562516e-03 -1.946934861064e-08 0.0 
-1.946934861064e-08 6.084870222159e-03 0.0 
0.0 0.0 -9.108947733944e-04 
-1.057814937538e-03 -6.724482469216e-06 0.0 
-6.724482469216e-06 6.510312548520e-03 0.0 
0.0 0.0 -9.726914458129e-04 
-1.190361938599e-03 4.676934084708e-04 0.0 
4.676934084708e-04 7.866637693242e-03 0.0 
0.0 0.0 -1.245087786853e-03 
-4.581667400111e-04 1.150309043721e-03 0.0 
1.150309043721e-03 1.644170079222e-03 0.0 
0.0 0.0 -3.403956918982e-04 
-8.293555136529e-04 2.952524372658e-04 0.0 
2.952524372658e-04 4.373371002006e-03 0.0 
0.0 0.0 -6.783069842581e-04 
-1.085846180975e-03 1.458307871503e-04 0.0 
1.458307871503e-04 7.572950528203e-03 0.0 
0.0 0.0 -1.228261380050e-03 
-1.024461005777e-03 9.563818815218e-05 0.0 
9.563818815218e-05 7.266751936821e-03 0.0 
0.0 0.0 -1.187396807988e-03 
-7.405303751490e-04 5.124973243675e-04 0.0 
5.124973243675e-04 3.741532766096e-03 0.0 
0.0 0.0 -6.000944487132e-04 
-7.031319460548e-04 4.876864875037e-04 0.0 
4.876864875037e-04 3.366473116495e-03 0.0 
0.0 0.0 -5.401620014017e-04 
-1.203049851257e-03 -2.728203523462e-04 0.0 
-2.728203523462e-04 7.833657430654e-03 0.0 
0.0 0.0 -1.238794375355e-03 
-3.075916606640e-04 1.045868666668e-03 0.0 
1.045868666668e-03 2.766977509803e-03 0.0 
0.0 0.0 -5.600314934590e-04 
-1.321820784768e-03 2.376560243328e-04 0.0 
2.376560243328e-04 8.684022372100e-03 0.0 
0.0 0.0 -1.295459716840e-03 
1.477011241759e-06 4.358298770145e-06 0.0 
4.358298770145e-06 8.908916257889e-07 0.0 
0.0 0.0 -1.014815514663e-06 
5.703109316316e-05 8.792005076422e-05 0.0 
8.792005076422e-05 -2.011421539890e-08 0.0 
0.0 0.0 -2.443327669190e-05 
-4.154706477079e-04 9.854771448034e-04 0.0 
9.854771448034e-04 3.145205208474e-03 0.0 
0.0 0.0 -5.969207367497e-04 
-7.802351733359e-04 5.259462622456e-04 0.0 
5.259462622456e-04 4.139237033551e-03 0.0 
0.0 0.0 -6.620222007989e-04 
-5.930037626935e-04 8.942073818617e-04 0.0 
8.942073818617e-04 2.971985586365e-03 0.0 
0.0 0.0 -5.157319100482e-04 
-6.206001126179e-04 7.748692012147e-04 0.0 
7.748692012147e-04 2.918912415158e-03 0.0 
0.0 0.0 -4.917183783407e-04 
-7.966812031951e-04 -2.794519072728e-04 0.0 
-2.794519072728e-04 6.003025537970e-03 0.0 
0.0 0.0 -1.010552660601e-03 
-3.204615651146e-04 -4.841454347256e-04 0.0 
-4.841454347256e-04 1.065843889916e-03 0.0 
0.0 0.0 -2.207468123314e-04 
-1.976838392314e-04 1.419132631860e-03 0.0 
1.419132631860e-03 1.245736136353e-03 0.0 
0.0 0.0 -3.729799092550e-04 
-1.062224956052e-03 6.282474994029e-05 0.0 
6.282474994029e-05 6.566502947635e-03 0.0 
0.0 0.0 -9.796923013958e-04 
-9.725104983260e-05 1.193422917781e-03 0.0 
1.193422917781e-03 9.454912755048e-04 0.0 
0.0 0.0 -3.472462715210e-04 
-1.226995326804e-03 -4.519473023836e-05 0.0 
-4.519473023836e-05 6.918120984331e-03 0.0 
0.0 0.0 -1.055800198362e-03 
-2.361841982036e-04 9.051937591691e-04 0.0 
9.051937591691e-04 2.839450438954e-03 0.0 
0.0 0.0 -5.891999696964e-04 
-7.588500349801e-04 6.513356924725e-04 0.0 
6.513356924725e-04 4.370877970735e-03 0.0 
0.0 0.0 -7.153500975001e-04 
-2.731612567135e-04 1.485424847436e-03 0.0 
1.485424847436e-03 1.576968026293e-03 0.0 
0.0 0.0 -3.843598907912e-04 
-4.773970402082e-04 1.083331247294e-03 0.0 
1.083331247294e-03 2.715302459171e-03 0.0 
0.0 0.0 -5.080103017801e-04 
-9.857070044825e-04 3.514582932795e-04 0.0 
3.514582932795e-04 5.605984683384e-03 0.0 
0.0 0.0 -8.638580894607e-04 
-9.566672598969e-04 2.556664326387e-04 0.0 
2.556664326387e-04 5.284930257865e-03 0.0 
0.0 0.0 -8.086477316853e-04 
-9.204142732436e-04 2.914181473186e-04 0.0 
2.914181473186e-04 5.036403952363e-03 0.0 
0.0 0.0 -7.738406155293e-04 
-1.852699916538e-04 7.169474657993e-04 0.0 
7.169474657993e-04 2.938478129515e-03 0.0 
0.0 0.0 -6.178822433291e-04 
-6.660603751627e-04 6.775511204911e-04 0.0 
6.775511204911e-04 3.201224465995e-03 0.0 
0.0 0.0 -5.288330985435e-04 
-6.329538447596e-04 6.262438341605e-04 0.0 
6.262438341605e-04 2.783574178796e-03 0.0 
0.0 0.0 -4.617239487405e-04 
-9.084122990405e-04 4.766608561051e-04 0.0 
4.766608561051e-04 5.217677913222e-03 0.0 
0.0 0.0 -8.213029907542e-04 
-1.196636206004e-03 2.937722451120e-04 0.0 
2.937722451120e-04 7.346814907567e-03 0.0 
0.0 0.0 -1.107475121065e-03 
-1.218143538823e-03 3.322225839887e-04 0.0 
3.322225839887e-04 7.523071285648e-03 0.0 
0.0 0.0 -1.136341617999e-03 
-1.260255205402e-03 3.483848197279e-04 0.0 
3.483848197279e-04 7.943523748013e-03 0.0 
0.0 0.0 -1.199268560344e-03 
-1.236398534658e-03 3.622286970254e-04 0.0 
3.622286970254e-04 7.698663143048e-03 0.0 
0.0 0.0 -1.164598082371e-03 
-1.187519623503e-03 3.369788044843e-04 0.0 
3.369788044843e-04 7.262535120341e-03 0.0 
0.0 0.0 -1.100413285504e-03 
-1.201927894883e-03 3.622228794556e-04 0.0 
3.622228794556e-04 7.428935513365e-03 0.0 
0.0 0.0 -1.129075729544e-03 
-1.251749756802e-03 4.013558701664e-04 0.0 
4.013558701664e-04 7.861186353057e-03 0.0 
0.0 0.0 -1.193594387005e-03 
-1.212961772203e-03 4.013424172495e-04 0.0 
4.013424172495e-04 7.607641408015e-03 0.0 
0.0 0.0 -1.159256375294e-03 
-1.275748773412e-03 4.170784326894e-04 0.0 
4.170784326894e-04 8.123816889762e-03 0.0 
0.0 0.0 -1.234286862126e-03 
-1.231663961214e-03 4.170891063283e-04 0.0 
4.170891063283e-04 7.767346293695e-03 0.0 
0.0 0.0 -1.187309181180e-03 
-1.180167111311e-03 4.146130725523e-04 0.0 
4.146130725523e-04 7.319280806481e-03 0.0 
0.0 0.0 -1.120864512401e-03 
-1.199520853126e-03 4.394329503130e-04 0.0 
4.394329503130e-04 7.469647570104e-03 0.0 
0.0 0.0 -1.147759711419e-03 
-1.246114513889e-03 4.512851502766e-04 0.0 
4.512851502766e-04 7.897003429628e-03 0.0 
0.0 0.0 -1.207767947030e-03 
-1.142819753357e-03 4.230226692438e-04 0.0 
4.230226692438e-04 7.034885546341e-03 0.0 
0.0 0.0 -1.082593982084e-03 
-1.161095070267e-03 2.120867803638e-04 0.0 
2.120867803638e-04 7.844111974654e-03 0.0 
0.0 0.0 -1.264544343569e-03 
-4.552882566461e-04 8.672081112126e-04 0.0 
8.672081112126e-04 3.584015933420e-03 0.0 
0.0 0.0 -6.621140475474e-04 
8.972285469528e-05 5.488704469766e-05 0.0 
5.488704469766e-05 -2.086067995893e-05 0.0 
0.0 0.0 -2.951236060129e-05 
1.917573457574e-04 3.907910126935e-04 0.0 
3.907910126935e-04 4.076022718458e-05 0.0 
0.0 0.0 -9.965038840371e-05 
-8.122559684108e-04 5.858127476170e-04 0.0 
5.858127476170e-04 4.660958103986e-03 0.0 
0.0 0.0 -7.509174086159e-04 
-1.326294875917e-03 4.475525367279e-04 0.0 
4.475525367279e-04 8.581090605175e-03 0.0 
0.0 0.0 -1.299806302097e-03 
-1.329372981724e-03 3.864120920022e-04 0.0 
3.864120920022e-04 8.651254845127e-03 0.0 
0.0 0.0 -1.301753673823e-03 
-4.221749795590e-05 1.054957827846e-03 0.0 
1.054957827846e-03 1.947401467081e-03 0.0 
0.0 0.0 -4.895692906686e-04 
-1.300820539860e-03 5.169294240401e-04 0.0 
5.169294240401e-04 8.431520987084e-03 0.0 
0.0 0.0 -1.303413959896e-03 
-9.359328158380e-04 3.353086376080e-04 0.0 
3.353086376080e-04 5.191229383814e-03 0.0 
0.0 0.0 -8.012154088905e-04 
4.071496828873e-04 9.026633654341e-04 0.0 
9.026633654341e-04 4.347728874957e-04 0.0 
0.0 0.0 -3.242207140944e-04 
-1.286592464162e-03 4.887471459282e-04 0.0 
4.887471459282e-04 8.354700830031e-03 0.0 
0.0 0.0 -1.304286792737e-03 
-1.166816141077e-03 3.067295782393e-04 0.0 
3.067295782393e-04 7.086165986606e-03 0.0 
0.0 0.0 -1.071440646998e-03 
-1.135318690764e-03 3.102645881689e-04 0.0 
3.102645881689e-04 6.820307156207e-03 0.0 
0.0 0.0 -1.034857077839e-03 
-1.114281868751e-03 2.783252876259e-04 0.0 
2.783252876259e-04 6.647188393663e-03 0.0 
0.0 0.0 -1.006057961993e-03 
-1.324485485700e-03 3.178425552296e-04 0.0 
3.178425552296e-04 8.703712057523e-03 0.0 
0.0 0.0 -1.305867370806e-03 
-1.046143216171e-03 1.338104735178e-04 0.0 
1.338104735178e-04 6.142970752386e-03 0.0 
0.0 0.0 -9.232948652302e-04 
-1.261216399776e-03 3.398370476000e-04 0.0 
3.398370476000e-04 8.240407625413e-03 0.0 
0.0 0.0 -1.306016332489e-03 
-5.621352130883e-04 2.402614077322e-04 0.0 
2.402614077322e-04 5.104076155106e-03 0.0 
0.0 0.0 -9.039903713831e-04 
-5.421821752565e-04 3.626261890118e-04 0.0 
3.626261890118e-04 4.916919296443e-03 0.0 
0.0 0.0 -8.747633066757e-04 
-4.482553543368e-04 4.245528232913e-04 0.0 
4.245528232913e-04 4.423341595392e-03 0.0 
0.0 0.0 -8.101682821885e-04 
-1.166183845535e-03 3.746000758126e-04 0.0 
3.746000758126e-04 7.154603019155e-03 0.0 
0.0 0.0 -1.092245366321e-03 
-1.243382207926e-03 7.139344382452e-05 0.0 
7.139344382452e-05 8.142027759390e-03 0.0 
0.0 0.0 -1.302677999426e-03 
-1.139163622892e-03 1.899260328228e-05 0.0 
1.899260328228e-05 7.738811355617e-03 0.0 
0.0 0.0 -1.248400714067e-03 
-1.139179700515e-03 -5.832838074801e-05 0.0 
-5.832838074801e-05 7.742835606473e-03 0.0 
0.0 0.0 -1.248426544684e-03 
-1.042171814045e-03 -2.067620167567e-05 0.0 
-2.067620167567e-05 7.300450465494e-03 0.0 
0.0 0.0 -1.189114855724e-03 
-1.245046049368e-03 -7.954937012982e-05 0.0 
-7.954937012982e-05 8.162015620032e-03 0.0 
0.0 0.0 -1.303398793257e-03 
-1.319024606982e-03 4.879947495646e-04 0.0 
4.879947495646e-04 8.553889678550e-03 0.0 
0.0 0.0 -1.306665994082e-03 
-1.318629781647e-03 5.032233232110e-04 0.0 
5.032233232110e-04 8.531113616169e-03 0.0 
0.0 0.0 -1.308500709484e-03 
-1.457969009565e-04 -1.297624687323e-03 0.0 
-1.297624687323e-03 1.878942347425e-03 0.0 
0.0 0.0 -4.564773689951e-04 
-5.360535394487e-05 -1.060749340558e-03 0.0 
-1.060749340558e-03 1.980128638088e-03 0.0 
0.0 0.0 -4.934415926888e-04 
-1.381226460422e-04 -8.991719374826e-04 0.0 
-8.991719374826e-04 2.497431923997e-03 0.0 
0.0 0.0 -5.576035839405e-04 
-3.423707423505e-07 -7.630300989339e-04 0.0 
-7.630300989339e-04 2.133066083266e-03 0.0 
0.0 0.0 -5.298816096007e-04 
1.060874476646e-04 -9.079592115861e-04 0.0 
-9.079592115861e-04 1.571356760192e-03 0.0 
0.0 0.0 -4.652367627802e-04 
1.299766153745e-04 -5.238021949006e-04 0.0 
-5.238021949006e-04 1.775343023360e-03 0.0 
0.0 0.0 -5.016361848483e-04 
8.113068861589e-06 -4.523118756860e-04 0.0 
-4.523118756860e-04 2.346566463626e-03 0.0 
0.0 0.0 -5.657331850765e-04 
2.333464364560e-04 -1.778074880060e-04 0.0 
-1.778074880060e-04 1.448473809503e-03 0.0 
0.0 0.0 -4.731795164401e-04 
-1.159968055748e-03 4.654058109210e-04 0.0 
4.654058109210e-04 7.343744264572e-03 0.0 
0.0 0.0 -1.138512926666e-03 
-1.264954689887e-03 -1.904964022353e-04 0.0 
-1.904964022353e-04 8.221334432808e-03 0.0 
0.0 0.0 -1.305779161548e-03 
-7.747711705181e-04 -5.121765711313e-04 0.0 
-5.121765711313e-04 5.367910934867e-03 0.0 
0.0 0.0 -9.007942405787e-04 
-6.889420890608e-04 -5.209139520464e-04 0.0 
-5.209139520464e-04 5.083313389568e-03 0.0 
0.0 0.0 -8.713600568839e-04 
-6.090575816933e-04 -6.078858301865e-04 0.0 
-6.078858301865e-04 4.604339507385e-03 0.0 
0.0 0.0 -8.059887332522e-04 
-8.449920134059e-04 -5.153788440303e-04 0.0 
-5.153788440303e-04 4.260095117302e-03 0.0 
0.0 0.0 -6.781883600425e-04 
-8.428803748540e-04 -5.674043660998e-04 0.0 
-5.674043660998e-04 4.450165882994e-03 0.0 
0.0 0.0 -7.153987595530e-04 
-8.942422948913e-04 -5.207798333702e-04 0.0 
-5.207798333702e-04 4.885926297656e-03 0.0 
0.0 0.0 -7.812419408864e-04 
-8.377845004557e-04 -4.501363391243e-04 0.0 
-4.501363391243e-04 4.061067246097e-03 0.0 
0.0 0.0 -6.407943132712e-04 
-8.608991234260e-04 5.183985589951e-04 0.0 
5.183985589951e-04 6.008926334250e-03 0.0 
0.0 0.0 -9.876394229526e-04 
-1.270638922106e-03 -2.525883056993e-04 0.0 
-2.525883056993e-04 8.245623635122e-03 0.0 
0.0 0.0 -1.305003056577e-03 
-5.449120924268e-04 -2.038340280130e-04 0.0 
-2.038340280130e-04 4.976604129178e-03 0.0 
0.0 0.0 -8.871663004355e-04 
-7.828155216857e-04 -6.575282962370e-04 0.0 
-6.575282962370e-04 4.196243675374e-03 0.0 
0.0 0.0 -6.865966444657e-04 
-8.908351355140e-04 9.702867664421e-05 0.0 
9.702867664421e-05 4.953510345307e-03 0.0 
0.0 0.0 -7.516786372745e-04 
-9.428178873818e-04 1.510891929034e-04 0.0 
1.510891929034e-04 5.341754956276e-03 0.0 
0.0 0.0 -8.094822736869e-04 
-9.489012184647e-04 1.441944320473e-04 0.0 
1.441944320473e-04 5.346848053026e-03 0.0 
0.0 0.0 -8.097394517040e-04 
-9.928370876702e-04 1.565528389037e-04 0.0 
1.565528389037e-04 5.757287346966e-03 0.0 
0.0 0.0 -8.733121467894e-04 
-9.420662265250e-04 8.672453308222e-05 0.0 
8.672453308222e-05 5.390349708032e-03 0.0 
0.0 0.0 -8.155917408702e-04 
-9.920889169566e-04 -3.299549002211e-04 0.0 
-3.299549002211e-04 5.156290872581e-03 0.0 
0.0 0.0 -8.015266587451e-04 
-1.034393455446e-03 -2.593382357018e-04 0.0 
-2.593382357018e-04 5.377589720533e-03 0.0 
0.0 0.0 -8.302790088839e-04 
-1.016724768056e-03 -2.052940986145e-04 0.0 
-2.052940986145e-04 5.161883654298e-03 0.0 
0.0 0.0 -7.937858958383e-04 
-1.069749204098e-03 -1.931193338339e-04 0.0 
-1.931193338339e-04 5.589690211797e-03 0.0 
0.0 0.0 -8.590670690980e-04 
-1.045250008444e-03 -1.524643402440e-04 0.0 
-1.524643402440e-04 5.354709247412e-03 0.0 
0.0 0.0 -8.213578559547e-04 
-9.891061891856e-04 -1.661511418362e-04 0.0 
-1.661511418362e-04 4.952759689804e-03 0.0 
0.0 0.0 -7.608744282309e-04 
-1.097326614700e-03 -1.343981642378e-04 0.0 
-1.343981642378e-04 5.787368511626e-03 0.0 
0.0 0.0 -8.866101721103e-04 
-1.072266853954e-03 -7.465649989587e-05 0.0 
-7.465649989587e-05 5.530930704335e-03 0.0 
0.0 0.0 -8.437388122980e-04 
-8.749604405334e-04 5.210753762548e-05 0.0 
5.210753762548e-05 4.958547900325e-03 0.0 
0.0 0.0 -7.509531518293e-04 
2.931250951271e-05 -1.468193730782e-04 0.0 
-1.468193730782e-04 5.197092075325e-05 0.0 
0.0 0.0 -3.483575582827e-05 
8.911840808785e-05 -5.611142441010e-04 0.0 
-5.611142441010e-04 2.292660682549e-04 0.0 
0.0 0.0 -1.364504898612e-04 
-1.613477578931e-05 -6.217163821683e-04 0.0 
-6.217163821683e-04 4.356228314527e-04 0.0 
0.0 0.0 -1.797805952843e-04 
7.026081585524e-05 -9.442279566568e-04 0.0 
-9.442279566568e-04 4.994486354165e-04 0.0 
0.0 0.0 -2.441611934022e-04 
2.189035585349e-04 -7.936262830972e-04 0.0 
-7.936262830972e-04 2.241675290565e-04 0.0 
0.0 0.0 -1.898876089678e-04 
1.395294056137e-04 -1.221624346892e-03 0.0 
-1.221624346892e-03 5.704290544817e-04 0.0 
0.0 0.0 -3.042679114694e-04 
3.315217795862e-04 -9.867447375553e-04 0.0 
-9.867447375553e-04 2.187882668786e-04 0.0 
0.0 0.0 -2.358471627707e-04 
1.282773509924e-04 -3.069727312294e-04 0.0 
-3.069727312294e-04 5.087018620754e-05 0.0 
0.0 0.0 -7.677751594282e-05 
7.207324065744e-06 -2.363709633052e-04 0.0 
-2.363709633052e-04 2.192194981731e-04 0.0 
0.0 0.0 -7.709394943614e-05 
-1.151589919320e-04 -5.038932235898e-04 0.0 
-5.038932235898e-04 5.668379900610e-04 0.0 
0.0 0.0 -1.836804426236e-04 
6.886756343239e-05 -1.585111183501e-04 0.0 
-1.585111183501e-04 2.318919381609e-04 0.0 
0.0 0.0 -9.135678087991e-05 
-1.673787199121e-04 -3.772506028182e-04 0.0 
-3.772506028182e-04 6.235391984471e-04 0.0 
0.0 0.0 -1.587652100407e-04 
-2.237013217840e-04 -7.835370290226e-04 0.0 
-7.835370290226e-04 9.699234306887e-04 0.0 
0.0 0.0 -2.864776706126e-04 
-5.080022175142e-04 -5.846720249242e-04 0.0 
-5.846720249242e-04 1.713553650264e-03 0.0 
0.0 0.0 -2.934437995798e-04 
-1.342924257900e-03 -1.540329825018e-04 0.0 
-1.540329825018e-04 8.463979425849e-03 0.0 
0.0 0.0 -1.294874803588e-03 
-9.061604714287e-04 -5.353468138170e-05 0.0 
-5.353468138170e-05 4.292677537748e-03 0.0 
0.0 0.0 -6.595503360071e-04 
-8.748353904416e-04 -9.535674848835e-05 0.0 
-9.535674848835e-05 4.090451847143e-03 0.0 
0.0 0.0 -6.264797819744e-04 
-7.893986596546e-04 -8.988273420556e-05 0.0 
-8.988273420556e-05 3.635662269298e-03 0.0 
0.0 0.0 -5.641716646261e-04 
-8.342340843015e-04 -1.796315714393e-04 0.0 
-1.796315714393e-04 3.876399492582e-03 0.0 
0.0 0.0 -5.974662984275e-04 
-9.399601535283e-04 -9.182592719562e-05 0.0 
-9.182592719562e-05 4.459086163681e-03 0.0 
0.0 0.0 -6.865721209800e-04 
-7.450408717977e-04 -3.664071909045e-05 0.0 
-3.664071909045e-05 3.403705623677e-03 0.0 
0.0 0.0 -5.286920563404e-04 
-7.105002771536e-04 -7.510162605901e-05 0.0 
-7.510162605901e-05 3.252942810076e-03 0.0 
0.0 0.0 -5.038291843518e-04 
2.269617952537e-04 -4.679297531140e-06 0.0 
-4.679297531140e-06 2.031304943507e-04 0.0 
0.0 0.0 -1.081843495454e-04 
-2.992668304113e-05 -2.428217344695e-05 0.0 
-2.428217344695e-05 6.247499294921e-04 0.0 
0.0 0.0 -1.462425310096e-04 
1.120520427136e-05 2.490769659488e-05 0.0 
2.490769659488e-05 5.748679317617e-04 0.0 
0.0 0.0 -1.469788961115e-04 
-1.839676854865e-04 -1.370350569834e-05 0.0 
-1.370350569834e-05 1.050348992839e-03 0.0 
0.0 0.0 -1.976702944042e-04 
-1.665493073749e-04 -4.078238753771e-05 0.0 
-4.078238753771e-05 1.038427513794e-03 0.0 
0.0 0.0 -1.960684762570e-04 
-2.740272711721e-05 -1.675532894322e-05 0.0 
-1.675532894322e-05 6.301608269895e-04 0.0 
0.0 0.0 -1.451566722079e-04 
-4.295295916181e-05 -1.396627582879e-05 0.0 
-1.396627582879e-05 6.314478061460e-04 0.0 
0.0 0.0 -1.432903851643e-04 
2.178107760258e-04 -4.669961674357e-06 0.0 
-4.669961674357e-06 1.968060237393e-04 0.0 
0.0 0.0 -1.026933745538e-04 
-6.199861096773e-05 -4.121287758313e-05 0.0 
-4.121287758313e-05 6.332661626784e-04 0.0 
0.0 0.0 -1.376693440338e-04 
-1.958490001476e-04 -5.849411118292e-05 0.0 
-5.849411118292e-05 1.056235548644e-03 0.0 
0.0 0.0 -1.994574706984e-04 
2.194500295117e-04 -1.953547163157e-05 0.0 
-1.953547163157e-05 1.758186835889e-04 0.0 
0.0 0.0 -9.526841721624e-05 
-1.134405852345e-03 -1.685214623059e-05 0.0 
-1.685214623059e-05 7.114171974622e-03 0.0 
0.0 0.0 -1.060427308513e-03 
-1.169096287658e-03 2.563616812788e-06 0.0 
2.563616812788e-06 7.355225522955e-03 0.0 
0.0 0.0 -1.097082233180e-03 
-1.287656187300e-03 -3.057563853945e-04 0.0 
-3.057563853945e-04 8.295106043806e-03 0.0 
0.0 0.0 -1.300897016293e-03 
-8.709102074234e-04 1.634655957137e-05 0.0 
1.634655957137e-05 5.013561359335e-03 0.0 
0.0 0.0 -7.584009903415e-04 
6.085248323127e-05 -7.529385077948e-05 0.0 
-7.529385077948e-05 2.498450074273e-04 0.0 
0.0 0.0 -6.778662807072e-05 
-1.318321890589e-03 9.119227365237e-05 0.0 
9.119227365237e-05 8.702564910127e-03 0.0 
0.0 0.0 -1.292107529982e-03 
-1.321891599576e-03 1.523434658018e-04 0.0 
1.523434658018e-04 8.753789560532e-03 0.0 
0.0 0.0 -1.303172775453e-03 
-1.317386328466e-03 1.502744807486e-04 0.0 
1.502744807486e-04 8.760593080467e-03 0.0 
0.0 0.0 -1.304823151597e-03 
-1.303300137320e-03 -3.518320858820e-05 0.0 
-3.518320858820e-05 7.809809152570e-03 0.0 
0.0 0.0 -1.191058493115e-03 
-1.309915312802e-03 -8.055064126037e-05 0.0 
-8.055064126037e-05 8.016669059363e-03 0.0 
0.0 0.0 -1.224322658093e-03 
-1.321803447330e-03 5.837335499168e-05 0.0 
5.837335499168e-05 8.713282635678e-03 0.0 
0.0 0.0 -1.294569364341e-03 
-6.481855202900e-04 -6.246003181782e-04 0.0 
-6.246003181782e-04 2.746907491681e-03 0.0 
0.0 0.0 -4.512809064328e-04 
-1.269733092336e-03 3.949450849478e-04 0.0 
3.949450849478e-04 8.134082373248e-03 0.0 
0.0 0.0 -1.225740639889e-03 
-1.236917440076e-03 9.455704594097e-05 0.0 
9.455704594097e-05 7.907876475173e-03 0.0 
0.0 0.0 -1.178628832109e-03 
2.863499120991e-04 1.225469476951e-03 0.0 
1.225469476951e-03 5.011020420815e-04 0.0 
0.0 0.0 -3.087973448475e-04 
-5.572892816396e-04 -1.058232484237e-03 0.0 
-1.058232484237e-03 2.439571083886e-03 0.0 
0.0 0.0 -4.373623857420e-04 
-1.169344627949e-03 -1.527368028486e-04 0.0 
-1.527368028486e-04 6.463252890075e-03 0.0 
0.0 0.0 -9.899674718230e-04 
-1.002156622739e-03 -4.217657770794e-04 0.0 
-4.217657770794e-04 5.766816978775e-03 0.0 
0.0 0.0 -9.123979313600e-04 
-1.240362622181e-03 -2.107518773901e-04 0.0 
-2.107518773901e-04 7.344433125846e-03 0.0 
0.0 0.0 -1.130390451587e-03 
-1.097029052933e-03 -2.727822285369e-04 0.0 
-2.727822285369e-04 6.025349028311e-03 0.0 
0.0 0.0 -9.322225209316e-04 
-1.160816713283e-03 -2.966491095374e-04 0.0 
-2.966491095374e-04 6.897592609693e-03 0.0 
0.0 0.0 -1.073123358692e-03 
-1.146188823319e-03 -9.619145093431e-05 0.0 
-9.619145093431e-05 7.734668514319e-03 0.0 
0.0 0.0 -1.244129926109e-03 
-3.611510593238e-04 -8.758097138839e-05 0.0 
-8.758097138839e-05 1.751553404855e-03 0.0 
0.0 0.0 -2.939217362394e-04 
-1.042524547902e-03 8.542519018607e-05 0.0 
8.542519018607e-05 6.249309917826e-03 0.0 
0.0 0.0 -9.364826870394e-04 
-1.011646579925e-03 4.950052888461e-05 0.0 
4.950052888461e-05 6.088183350352e-03 0.0 
0.0 0.0 -9.130351872960e-04 
-1.156492778501e-03 8.389467150956e-05 0.0 
8.389467150956e-05 7.209321502601e-03 0.0 
0.0 0.0 -1.075939795031e-03 
-6.797233321873e-04 -3.445526981405e-04 0.0 
-3.445526981405e-04 2.970604433142e-03 0.0 
0.0 0.0 -4.709579147287e-04 
-9.579355913964e-04 -2.329193078104e-04 0.0 
-2.329193078104e-04 4.740187249377e-03 0.0 
0.0 0.0 -7.304257169629e-04 
-4.699094320929e-04 -2.864685390476e-04 0.0 
-2.864685390476e-04 1.870719163436e-03 0.0 
0.0 0.0 -3.104331955072e-04 
-1.225720132749e-03 4.922764523725e-04 0.0 
4.922764523725e-04 8.004298524687e-03 0.0 
0.0 0.0 -1.251461238623e-03 
-8.642142966185e-04 4.736706847914e-04 0.0 
4.736706847914e-04 4.810262753378e-03 0.0 
0.0 0.0 -7.590395520047e-04 
-6.299061308779e-04 -6.905248015396e-04 0.0 
-6.905248015396e-04 4.426299320179e-03 0.0 
0.0 0.0 -7.694287042311e-04 
-7.912081179997e-04 -5.380011954616e-04 0.0 
-5.380011954616e-04 3.827422774339e-03 0.0 
0.0 0.0 -6.120242822960e-04 
-6.551443874445e-04 -7.576014874881e-04 0.0 
-7.576014874881e-04 2.929641818478e-03 0.0 
0.0 0.0 -4.894362539292e-04 
-4.890802463817e-04 -1.241731719978e-03 0.0 
-1.241731719978e-03 2.147525315431e-03 0.0 
0.0 0.0 -4.100935076628e-04 
-5.488809187293e-04 8.195138113053e-04 0.0 
8.195138113053e-04 3.940420057434e-03 0.0 
0.0 0.0 -6.990242139688e-04 
-7.645737241242e-04 -6.835179970588e-04 0.0 
-6.835179970588e-04 4.369038504805e-03 0.0 
0.0 0.0 -7.237531747479e-04 
-9.990166317683e-04 -3.989427530334e-04 0.0 
-3.989427530334e-04 6.371965153356e-03 0.0 
0.0 0.0 -1.024340108609e-03 
-1.185317591363e-03 7.742475138516e-05 0.0 
7.742475138516e-05 7.460446495103e-03 0.0 
0.0 0.0 -1.112552678551e-03 
1.197712392318e-04 -3.148981806786e-05 0.0 
-3.148981806786e-05 2.711258731277e-04 0.0 
0.0 0.0 -9.959518537181e-05 
-1.003340353985e-03 -3.675015482303e-04 0.0 
-3.675015482303e-04 6.579336743889e-03 0.0 
0.0 0.0 -1.061672265243e-03 
-8.749171253014e-04 -5.429443966133e-04 0.0 
-5.429443966133e-04 5.259260617559e-03 0.0 
0.0 0.0 -8.552253422611e-04 
-1.075058534600e-03 1.329625948637e-04 0.0 
1.329625948637e-04 6.404878824914e-03 0.0 
0.0 0.0 -9.599091010803e-04 
-8.098069298724e-04 1.009136731454e-04 0.0 
1.009136731454e-04 6.303475721426e-03 0.0 
0.0 0.0 -1.062640036239e-03 
-7.822393088759e-05 -1.437936820334e-03 0.0 
-1.437936820334e-03 1.036179245632e-03 0.0 
0.0 0.0 -3.732485265440e-04 
-1.183046367818e-03 1.393767940647e-04 0.0 
1.393767940647e-04 7.358067127657e-03 0.0 
0.0 0.0 -1.098747615487e-03 
-1.275160361241e-03 2.646540278175e-04 0.0 
2.646540278175e-04 8.092932724066e-03 0.0 
0.0 0.0 -1.212453547082e-03 
-1.010608018996e-03 1.134796452945e-04 0.0 
1.134796452945e-04 5.876477578498e-03 0.0 
0.0 0.0 -8.875094802107e-04 
-3.432304284614e-04 -2.023305734104e-04 0.0 
-2.023305734104e-04 1.413096543350e-03 0.0 
0.0 0.0 -2.442495876194e-04 
-9.871354508553e-04 6.543929527951e-05 0.0 
6.543929527951e-05 5.785148960874e-03 0.0 
0.0 0.0 -8.692469099983e-04 
-1.129933755956e-03 -2.589669323117e-04 0.0 
-2.589669323117e-04 7.495462082173e-03 0.0 
0.0 0.0 -1.202705989510e-03 
-1.175984421816e-03 2.539870060864e-04 0.0 
2.539870060864e-04 7.167724276723e-03 0.0 
0.0 0.0 -1.078220320736e-03 
-6.238127593336e-04 -2.578427228971e-04 0.0 
-2.578427228971e-04 2.729809833616e-03 0.0 
0.0 0.0 -4.336020471383e-04 
-3.693103125981e-04 -1.184898620339e-04 0.0 
-1.184898620339e-04 4.215512874596e-03 0.0 
0.0 0.0 -7.943514531093e-04 
-7.354883692347e-04 6.882867699015e-04 0.0 
6.882867699015e-04 4.480048918178e-03 0.0 
0.0 0.0 -7.428158978947e-04 
-8.300346150545e-04 1.997478973446e-04 0.0 
1.997478973446e-04 4.462946677923e-03 0.0 
0.0 0.0 -6.865907729104e-04 
-1.263662037140e-03 1.212955651983e-04 0.0 
1.212955651983e-04 8.095770653682e-03 0.0 
0.0 0.0 -1.206557591227e-03 
-5.452830500886e-04 5.833267200760e-04 0.0 
5.833267200760e-04 4.601923753795e-03 0.0 
0.0 0.0 -8.172945450071e-04 
-9.138715469007e-04 -2.809485115349e-05 0.0 
-2.809485115349e-05 6.748408724194e-03 0.0 
0.0 0.0 -1.120054252910e-03 
-5.855153319979e-04 -8.409325156636e-05 0.0 
-8.409325156636e-05 5.239197065772e-03 0.0 
0.0 0.0 -9.240809108919e-04 
-6.615538158736e-04 -2.024673927750e-04 0.0 
-2.024673927750e-04 2.941778370234e-03 0.0 
0.0 0.0 -4.629711029823e-04 
-1.130081472427e-03 -3.415372177863e-04 0.0 
-3.415372177863e-04 7.089023572073e-03 0.0 
0.0 0.0 -1.118919378802e-03 
-3.597542210602e-04 3.380969491909e-04 0.0 
3.380969491909e-04 4.095727105777e-03 0.0 
0.0 0.0 -7.743986277066e-04 
-1.231879397795e-03 1.563825567224e-04 0.0 
1.563825567224e-04 7.806451874477e-03 0.0 
0.0 0.0 -1.164614768973e-03 
-1.000367767849e-03 5.022961011040e-04 0.0 
5.022961011040e-04 6.477016694026e-03 0.0 
0.0 0.0 -1.031533309622e-03 
-8.496720980242e-05 7.949215026050e-05 0.0 
7.949215026050e-05 2.913474260951e-03 0.0 
0.0 0.0 -6.375205594687e-04 
-1.204201749293e-03 1.997899091721e-04 0.0 
1.997899091721e-04 7.486324816343e-03 0.0 
0.0 0.0 -1.121170216299e-03 
-5.130508831761e-04 -5.977004884583e-04 0.0 
-5.977004884583e-04 4.307094875234e-03 0.0 
0.0 0.0 -7.773091661689e-04 
-8.763670238880e-04 1.763080225343e-04 0.0 
1.763080225343e-04 6.599584220336e-03 0.0 
0.0 0.0 -1.099429584637e-03 
-8.205770634544e-04 5.305467903750e-04 0.0 
5.305467903750e-04 4.538492374159e-03 0.0 
0.0 0.0 -7.240542973723e-04 
-8.884268788469e-04 5.588484511591e-04 0.0 
5.588484511591e-04 5.612213355160e-03 0.0 
0.0 0.0 -9.041109700986e-04 
-1.050324174142e-03 4.352582260935e-04 0.0 
4.352582260935e-04 6.327572321714e-03 0.0 
0.0 0.0 -9.824247929831e-04 
-7.337998657639e-04 6.243333749199e-04 0.0 
6.243333749199e-04 5.125520163039e-03 0.0 
0.0 0.0 -8.608216255090e-04 
-1.153567602020e-03 -9.301724894271e-05 0.0 
-9.301724894271e-05 6.238376526397e-03 0.0 
0.0 0.0 -9.534332399069e-04 
-1.070854558502e-03 -3.525098866510e-04 0.0 
-3.525098866510e-04 6.838133072795e-03 0.0 
0.0 0.0 -1.090315851396e-03 
5.426530316348e-04 -6.124034834809e-04 0.0 
-6.124034834809e-04 -4.758177895350e-06 0.0 
0.0 0.0 -2.305263658883e-04 
-4.860442792995e-04 1.001524898596e-03 0.0 
1.001524898596e-03 3.110766909182e-03 0.0 
0.0 0.0 -5.719042557127e-04 
-1.067589445178e-03 1.583535090986e-04 0.0 
1.583535090986e-04 6.341569706464e-03 0.0 
0.0 0.0 -9.536514739466e-04 
-1.085608803619e-03 4.567018534179e-04 0.0 
4.567018534179e-04 7.206759563006e-03 0.0 
0.0 0.0 -1.150585697120e-03 
-1.272662540904e-03 1.837479624771e-04 0.0 
1.837479624771e-04 8.251575577157e-03 0.0 
0.0 0.0 -1.229329624135e-03 
-7.006581247961e-04 7.305782553014e-04 0.0 
7.305782553014e-04 4.076422328874e-03 0.0 
0.0 0.0 -6.801182747099e-04 
-1.119652443645e-03 -3.456160390905e-04 0.0 
-3.456160390905e-04 6.872141672148e-03 0.0 
0.0 0.0 -1.081576975854e-03 
-1.253042370701e-03 2.293393647918e-04 0.0 
2.293393647918e-04 7.917666161319e-03 0.0 
0.0 0.0 -1.185355684152e-03 
-8.328019205503e-04 -6.002544778108e-04 0.0 
-6.002544778108e-04 4.632328502255e-03 0.0 
0.0 0.0 -7.524367508395e-04 
-4.433075112401e-04 -2.566605040482e-05 0.0 
-2.566605040482e-05 2.036859959460e-03 0.0 
0.0 0.0 -3.333104686742e-04 
3.205177984844e-04 9.975801435051e-04 0.0 
9.975801435051e-04 2.379341149770e-04 0.0 
0.0 0.0 -2.393365343406e-04 
1.591584715393e-04 1.779286051982e-04 0.0 
1.779286051982e-04 1.786654556165e-03 0.0 
0.0 0.0 -5.092532232582e-04 
-4.531066397313e-04 5.570531624296e-04 0.0 
5.570531624296e-04 4.269383883647e-03 0.0 
0.0 0.0 -7.817448632792e-04 
-8.859078879477e-04 -5.417175315324e-04 0.0 
-5.417175315324e-04 5.072763910333e-03 0.0 
0.0 0.0 -8.181699076277e-04 
-1.293553667002e-03 3.539056233938e-04 0.0 
3.539056233938e-04 8.270227580961e-03 0.0 
0.0 0.0 -1.242275372262e-03 
-1.167568761218e-03 -3.100043251916e-04 0.0 
-3.100043251916e-04 7.110149870389e-03 0.0 
0.0 0.0 -1.110186454522e-03 
-8.720271584818e-04 -3.155671013640e-04 0.0 
-3.155671013640e-04 6.271566388977e-03 0.0 
0.0 0.0 -1.040857148505e-03 
3.090009603171e-05 6.438382974465e-04 0.0 
6.438382974465e-04 3.706853633849e-04 0.0 
0.0 0.0 -1.721080540357e-04 
-8.582532174726e-04 2.712256844373e-04 0.0 
2.712256844373e-04 4.619700861909e-03 0.0 
0.0 0.0 -7.126371066839e-04 
-1.210346144101e-03 -2.749948472322e-04 0.0 
-2.749948472322e-04 7.344160972203e-03 0.0 
0.0 0.0 -1.139074001596e-03 
-4.392212359222e-04 -2.427188308892e-04 0.0 
-2.427188308892e-04 4.468278991880e-03 0.0 
0.0 0.0 -8.223634564932e-04 
-9.190954487653e-04 1.036306006856e-04 0.0 
1.036306006856e-04 6.792229327511e-03 0.0 
0.0 0.0 -1.126725356868e-03 
-1.012271879397e-03 -9.648706787801e-05 0.0 
-9.648706787801e-05 5.106630196527e-03 0.0 
0.0 0.0 -7.817916451012e-04 
-1.209813015887e-03 4.617447502893e-04 0.0 
4.617447502893e-04 7.951412152162e-03 0.0 
0.0 0.0 -1.249754184115e-03 
-7.319316117329e-04 4.292603822642e-04 0.0 
4.292603822642e-04 3.626422685243e-03 0.0 
0.0 0.0 -5.757576642514e-04 
-1.253262516526e-03 -2.397729583392e-04 0.0 
-2.397729583392e-04 7.583908034255e-03 0.0 
0.0 0.0 -1.168790087466e-03 
-8.256776309677e-04 -1.881926819914e-04 0.0 
-1.881926819914e-04 6.244322400387e-03 0.0 
0.0 0.0 -1.047452346298e-03 
-1.833871752581e-04 1.076533841658e-03 0.0 
1.076533841658e-03 2.371953294675e-03 0.0 
0.0 0.0 -5.248669331578e-04 
-8.489436119586e-04 9.726246538456e-06 0.0 
9.726246538456e-06 4.964532206226e-03 0.0 
0.0 0.0 -7.498068730476e-04 
-1.301937909208e-03 -2.238090825597e-04 0.0 
-2.238090825597e-04 8.094251106337e-03 0.0 
0.0 0.0 -1.243807156011e-03 
-9.340333835081e-04 -1.610113385009e-04 0.0 
-1.610113385009e-04 6.744276922541e-03 0.0 
0.0 0.0 -1.114542488500e-03 
-7.941362751269e-04 5.664211877541e-04 0.0 
5.664211877541e-04 5.563587855978e-03 0.0 
0.0 0.0 -9.240346875991e-04 
-4.168495056098e-04 -3.974139927462e-04 0.0 
-3.974139927462e-04 4.226500375937e-03 0.0 
0.0 0.0 -7.856950878877e-04 
-7.739148085239e-04 2.464793331539e-04 0.0 
2.464793331539e-04 3.977512213385e-03 0.0 
0.0 0.0 -6.191377506773e-04 
-9.472802509339e-04 -4.715703841177e-04 0.0 
-4.715703841177e-04 5.324567248990e-03 0.0 
0.0 0.0 -8.467704336814e-04 
-9.485585464614e-04 5.193393053567e-04 0.0 
5.193393053567e-04 5.905682896343e-03 0.0 
0.0 0.0 -9.395224721591e-04 
-1.324920476103e-03 3.053746754946e-04 0.0 
3.053746754946e-04 8.723243834592e-03 0.0 
0.0 0.0 -1.306889097489e-03 
-9.807951782906e-04 -9.587801094059e-05 0.0 
-9.587801094059e-05 6.970713904845e-03 0.0 
0.0 0.0 -1.148622835147e-03 
-1.082939420670e-03 2.819860490732e-04 0.0 
2.819860490732e-04 6.381972856138e-03 0.0 
0.0 0.0 -9.696660045843e-04 
-9.493777168521e-04 -4.444219031776e-04 0.0 
-4.444219031776e-04 5.127854127799e-03 0.0 
0.0 0.0 -8.097439408559e-04 
-7.160311725792e-04 3.654432579295e-04 0.0 
3.654432579295e-04 5.714883805619e-03 0.0 
0.0 0.0 -9.749840279683e-04 
-1.676636515260e-04 -4.941269470984e-05 0.0 
-4.941269470984e-05 1.033199140519e-03 0.0 
0.0 0.0 -1.970089232863e-04 
-7.962185908535e-04 3.303377500728e-04 0.0 
3.303377500728e-04 4.131190544581e-03 0.0 
0.0 0.0 -6.447622526173e-04 
-1.000272012546e-03 -3.719800608836e-04 0.0 
-3.719800608836e-04 5.362836932527e-03 0.0 
0.0 0.0 -8.382314227178e-04 
1.017392588855e-04 -1.736220687656e-04 0.0 
-1.736220687656e-04 2.043177635858e-03 0.0 
0.0 0.0 -5.374563060555e-04 
-5.079147546005e-04 -4.709528610388e-04 0.0 
-4.709528610388e-04 4.508844721117e-03 0.0 
0.0 0.0 -8.136389561866e-04 
-1.114056657132e-03 2.887883130746e-04 0.0 
2.887883130746e-04 7.664610237433e-03 0.0 
0.0 0.0 -1.234277959947e-03 
-1.046296347188e-03 -3.017965079923e-04 0.0 
-3.017965079923e-04 5.590796710732e-03 0.0 
0.0 0.0 -8.668853676281e-04 
-2.327182499333e-05 -1.637556316808e-04 0.0 
-1.637556316808e-04 2.609999917965e-03 0.0 
0.0 0.0 -6.015264011954e-04 
-1.086733608739e-03 -2.340312705235e-04 0.0 
-2.340312705235e-04 5.809878777498e-03 0.0 
0.0 0.0 -8.955981815692e-04 
-7.133441625448e-04 3.191920090799e-04 0.0 
3.191920090799e-04 3.492826899708e-03 0.0 
0.0 0.0 -5.519888345566e-04 
-1.102733663682e-03 3.164092702850e-04 0.0 
3.164092702850e-04 6.555228391521e-03 0.0 
0.0 0.0 -9.983267706061e-04 
-1.119318067822e-03 -1.714358954242e-04 0.0 
-1.714358954242e-04 6.018884976543e-03 0.0 
0.0 0.0 -9.243533921793e-04 
-1.001908002250e-03 4.984942752457e-04 0.0 
4.984942752457e-04 6.334427631463e-03 0.0 
0.0 0.0 -1.003151257071e-03 
-2.279098310875e-04 -1.251804773978e-04 0.0 
-1.251804773978e-04 1.119603241316e-03 0.0 
0.0 0.0 -2.040322045631e-04 
-7.855046317287e-04 5.237977796601e-04 0.0 
5.237977796601e-04 5.697841480735e-03 0.0 
0.0 0.0 -9.517466134248e-04 
-1.278300960589e-03 -7.889376224299e-05 0.0 
-7.889376224299e-05 7.564162797006e-03 0.0 
0.0 0.0 -1.155419075730e-03 
-6.039386638838e-04 -9.352834442183e-04 0.0 
-9.352834442183e-04 3.237374525321e-03 0.0 
0.0 0.0 -5.654343806685e-04 
-5.996382576729e-04 -5.078678615237e-04 0.0 
-5.078678615237e-04 4.794693511813e-03 0.0 
0.0 0.0 -8.420324705410e-04 
-1.153622144798e-03 3.409444967982e-04 0.0 
3.409444967982e-04 6.992756961225e-03 0.0 
0.0 0.0 -1.063653581392e-03 
-6.588103306477e-04 3.969496556601e-04 0.0 
3.969496556601e-04 3.002666315313e-03 0.0 
0.0 0.0 -4.839843007303e-04 
-6.880791710433e-04 -4.312562534369e-04 0.0 
-4.312562534369e-04 5.283404868934e-03 0.0 
0.0 0.0 -9.074658271045e-04 
-1.060052777402e-03 4.844888623504e-04 0.0 
4.844888623504e-04 6.770757776904e-03 0.0 
0.0 0.0 -1.067288052377e-03 
-7.837482685475e-04 4.743739920089e-04 0.0 
4.743739920089e-04 5.847117456295e-03 0.0 
0.0 0.0 -9.801762873724e-04 
-5.364910550697e-04 4.803545642860e-04 0.0 
4.803545642860e-04 4.747968314780e-03 0.0 
0.0 0.0 -8.455731917576e-04 
-7.785051872343e-04 -3.658858697108e-04 0.0 
-3.658858697108e-04 5.776530662371e-03 0.0 
0.0 0.0 -9.738262179588e-04 
-6.715128569437e-04 5.603668306290e-04 0.0 
5.603668306290e-04 3.116619739403e-03 0.0 
0.0 0.0 -5.057041985798e-04 
-6.174255134183e-04 -7.382519752092e-04 0.0 
-7.382519752092e-04 2.524949954393e-03 0.0 
0.0 0.0 -4.238464704258e-04 
-5.725994882734e-04 -6.885730532868e-04 0.0 
-6.885730532868e-04 2.123374709043e-03 0.0 
0.0 0.0 -3.586180353125e-04 
-1.087968519769e-04 -3.894502741245e-04 0.0 
-3.894502741245e-04 2.894305128247e-03 0.0 
0.0 0.0 -6.294631353604e-04 
-1.113989301634e-03 4.730580331504e-04 0.0 
4.730580331504e-04 7.064599777148e-03 0.0 
0.0 0.0 -1.103081964739e-03 
-2.909493422495e-04 -6.727813062534e-05 0.0 
-6.727813062534e-05 1.456560370235e-03 0.0 
0.0 0.0 -2.521214004998e-04 
-1.130223577437e-03 3.874695664211e-04 0.0 
3.874695664211e-04 6.879711460710e-03 0.0 
0.0 0.0 -1.054898413167e-03 
-4.747914815808e-04 -7.007316897934e-04 0.0 
-7.007316897934e-04 1.510403036883e-03 0.0 
0.0 0.0 -2.740243446916e-04 
-1.059034309075e-04 -6.476895754937e-04 0.0 
-6.476895754937e-04 2.671993736935e-03 0.0 
0.0 0.0 -5.935709857392e-04 
-8.832674525435e-04 3.712236152595e-04 0.0 
3.712236152595e-04 6.508434955568e-03 0.0 
0.0 0.0 -1.077081564483e-03 
-1.023005590377e-03 -4.065847446542e-05 0.0 
-4.065847446542e-05 6.235882102629e-03 0.0 
0.0 0.0 -9.315431351609e-04 
-2.271455064543e-04 -7.649077538712e-04 0.0 
-7.649077538712e-04 3.005124294304e-03 0.0 
0.0 0.0 -6.211106552582e-04 
-5.539372237771e-04 -2.705347043382e-05 0.0 
-2.705347043382e-05 2.503628127068e-03 0.0 
0.0 0.0 -3.989951351066e-04 
-2.711318037513e-04 -9.555117866304e-04 0.0 
-9.555117866304e-04 2.849172517321e-03 0.0 
0.0 0.0 -5.850331209179e-04 
-6.241921201683e-04 4.180601427792e-04 0.0 
4.180601427792e-04 5.227484326245e-03 0.0 
0.0 0.0 -9.098959706900e-04 
-3.942802621189e-04 -9.538191986641e-04 0.0 
-9.538191986641e-04 3.188718869022e-03 0.0 
0.0 0.0 -6.124823626799e-04 
-4.550624226044e-04 -1.036578340992e-03 0.0 
-1.036578340992e-03 3.064317854104e-03 0.0 
0.0 0.0 -5.760838601101e-04 
-1.286542940212e-03 9.779925010804e-05 0.0 
9.779925010804e-05 8.362389009926e-03 0.0 
0.0 0.0 -1.242975171717e-03 
-5.556616817437e-04 -9.487474711726e-04 0.0 
-9.487474711726e-04 3.373317672553e-03 0.0 
0.0 0.0 -6.030381679152e-04 
-1.312957018488e-03 1.762534641485e-05 0.0 
1.762534641485e-05 8.791531742823e-03 0.0 
0.0 0.0 -1.305370344976e-03 
-1.342889913941e-03 -8.887845541572e-05 0.0 
-8.887845541572e-05 8.517788746463e-03 0.0 
0.0 0.0 -1.298405437673e-03 
-9.001399359898e-04 -3.115200366471e-05 0.0 
-3.115200366471e-05 5.327299192951e-03 0.0 
0.0 0.0 -7.997855503562e-04 
-6.119585369169e-04 5.319683456807e-04 0.0 
5.319683456807e-04 2.524442221547e-03 0.0 
0.0 0.0 -4.121418992062e-04 
0.0 0.0 0.0 
0.0 0.0 0.0 
0.0 0.0 0.0 
-6.013216908629e-04 7.353591052882e-04 0.0 
7.353591052882e-04 2.570270979253e-03 0.0 
0.0 0.0 -4.369243393394e-04 
-5.755877201232e-04 -1.006492197580e-03 0.0 
-1.006492197580e-03 2.831071537896e-03 0.0 
0.0 0.0 -5.013603847490e-04 
-1.101076468124e-03 4.427543157598e-04 0.0 
4.427543157598e-04 6.753747619027e-03 0.0 
0.0 0.0 -1.045752072333e-03 
-9.001350944238e-04 1.690426372956e-05 0.0 
1.690426372956e-05 5.335483219367e-03 0.0 
0.0 0.0 -8.029817139903e-04 
-6.111138971153e-04 -8.912307338130e-04 0.0 
-8.912307338130e-04 2.695444832232e-03 0.0 
0.0 0.0 -4.630712860745e-04 
-1.275916597091e-03 4.598087248478e-04 0.0 
4.598087248478e-04 8.197933557976e-03 0.0 
0.0 0.0 -1.250093291501e-03 
-1.277155987315e-03 4.247176035906e-04 0.0 
4.247176035906e-04 8.290214574666e-03 0.0 
0.0 0.0 -1.306737725957e-03 
-1.108220863065e-03 9.376951406301e-06 0.0 
9.376951406301e-06 6.884195681395e-03 0.0 
0.0 0.0 -1.028769680629e-03 
-9.736500693663e-04 5.157775084853e-05 0.0 
5.157775084853e-05 6.985202160712e-03 0.0 
0.0 0.0 -1.152835590205e-03 
-7.921204258207e-04 4.078698397503e-04 0.0 
4.078698397503e-04 6.023879636983e-03 0.0 
0.0 0.0 -1.010595862668e-03 
-1.241857793517e-03 -4.299570159508e-06 0.0 
-4.299570159508e-06 7.958618347353e-03 0.0 
0.0 0.0 -1.185717314024e-03 
-8.475222208266e-04 -3.781329079989e-05 0.0 
-3.781329079989e-05 4.928212699674e-03 0.0 
0.0 0.0 -7.451086181774e-04 
-1.664286133127e-04 -2.725892507630e-04 0.0 
-2.725892507630e-04 6.325537652716e-04 0.0 
0.0 0.0 -1.414044378648e-04 
-1.183800202695e-03 -4.172593709851e-05 0.0 
-4.172593709851e-05 6.467154125527e-03 0.0 
0.0 0.0 -9.879584850274e-04 
-5.708971627680e-04 6.741264129118e-04 0.0 
6.741264129118e-04 2.024843560255e-03 0.0 
0.0 0.0 -3.437331075899e-04 
-5.495900722021e-04 1.011381174664e-03 0.0 
1.011381174664e-03 1.944401710747e-03 0.0 
0.0 0.0 -3.524505972177e-04 
-2.853835512823e-04 1.205712139992e-03 0.0 
1.205712139992e-03 1.304597058130e-03 0.0 
0.0 0.0 -3.593644486456e-04 
-7.020460695734e-04 -1.440442927613e-04 0.0 
-1.440442927613e-04 3.119459023260e-03 0.0 
0.0 0.0 -4.856826860430e-04 
-8.782495870591e-05 -9.084916110393e-04 0.0 
-9.084916110393e-04 7.572036747300e-04 0.0 
0.0 0.0 -2.846511604759e-04 
-4.893890858810e-04 8.969022950391e-04 0.0 
8.969022950391e-04 1.589417859757e-03 0.0 
0.0 0.0 -3.076864852448e-04 
-1.137014357475e-03 7.152136645660e-05 0.0 
7.152136645660e-05 7.697731072351e-03 0.0 
0.0 0.0 -1.245112051941e-03 
-9.139609418570e-04 1.641183808410e-05 0.0 
1.641183808410e-05 5.327038428336e-03 0.0 
0.0 0.0 -8.050116406322e-04 
-9.540345071131e-04 3.841934886618e-04 0.0 
3.841934886618e-04 6.790550876670e-03 0.0 
0.0 0.0 -1.110409235593e-03 
-1.902162665021e-04 9.339845454039e-04 0.0 
9.339845454039e-04 9.942126500714e-04 0.0 
0.0 0.0 -3.261355004832e-04 
-1.296828862309e-03 2.341461600450e-04 0.0 
2.341461600450e-04 8.351041898143e-03 0.0 
0.0 0.0 -1.247366155457e-03 
-1.168645139073e-03 3.735588726833e-04 0.0 
3.735588726833e-04 7.817174461527e-03 0.0 
0.0 0.0 -1.246608778627e-03 
-1.314967464086e-03 -3.318256949741e-04 0.0 
-3.318256949741e-04 8.403481236488e-03 0.0 
0.0 0.0 -1.306249356034e-03 
-1.050201848033e-03 3.696451559178e-04 0.0 
3.696451559178e-04 7.268871172990e-03 0.0 
0.0 0.0 -1.176371721005e-03 
6.114555871551e-05 1.042784162236e-03 0.0 
1.042784162236e-03 5.736687994652e-04 0.0 
0.0 0.0 -2.720632963632e-04 
-9.766098877979e-04 1.041630930997e-04 0.0 
1.041630930997e-04 5.685157012225e-03 0.0 
0.0 0.0 -8.603500797662e-04 
-1.246724541881e-03 4.866961176123e-04 0.0 
4.866961176123e-04 8.045633532487e-03 0.0 
0.0 0.0 -1.250827372426e-03 
-1.145993633532e-03 3.235835733547e-05 0.0 
3.235835733547e-05 7.250949289083e-03 0.0 
0.0 0.0 -1.080253149739e-03 
-1.318596932855e-03 -2.303003049155e-04 0.0 
-2.303003049155e-04 8.477981163117e-03 0.0 
0.0 0.0 -1.309985050881e-03 
-9.104561560587e-04 8.791536920609e-05 0.0 
8.791536920609e-05 5.249520802984e-03 0.0 
0.0 0.0 -7.979019438933e-04 
-1.287101829326e-03 7.929734908006e-05 0.0 
7.929734908006e-05 8.412586601378e-03 0.0 
0.0 0.0 -1.252774941638e-03 
4.187865149814e-04 -7.886444366699e-04 0.0 
-7.886444366699e-04 6.898920111237e-05 0.0 
0.0 0.0 -2.090467354688e-04 
-1.285197150188e-03 5.312445103222e-05 0.0 
5.312445103222e-05 8.412445019205e-03 0.0 
0.0 0.0 -1.254166199180e-03 
-1.155435508235e-03 4.462044169920e-04 0.0 
4.462044169920e-04 7.190167035892e-03 0.0 
0.0 0.0 -1.110316242656e-03 
-9.785241987209e-04 6.006269753900e-05 0.0 
6.006269753900e-05 5.897359505691e-03 0.0 
0.0 0.0 -8.840149073763e-04 
-9.814056690218e-04 2.078101741112e-04 0.0 
2.078101741112e-04 5.639397818750e-03 0.0 
0.0 0.0 -8.570326279659e-04 
-1.319590243869e-03 -1.168373964399e-04 0.0 
-1.168373964399e-04 8.200864803592e-03 0.0 
0.0 0.0 -1.256337174517e-03 
-1.298927049123e-03 3.872456439500e-04 0.0 
3.872456439500e-04 8.256979916972e-03 0.0 
0.0 0.0 -1.249505442739e-03 
1.588810044440e-04 6.739000714330e-04 0.0 
6.739000714330e-04 2.144145137498e-04 0.0 
0.0 0.0 -1.599837935116e-04 
-1.096094038579e-03 6.855172835755e-05 0.0 
6.855172835755e-05 6.864639960432e-03 0.0 
0.0 0.0 -1.024357608964e-03 
-8.327401503038e-04 -2.617825635292e-04 0.0 
-2.617825635292e-04 3.865808984588e-03 0.0 
0.0 0.0 -5.984289768806e-04 
4.595402762325e-05 -8.016720020432e-05 0.0 
-8.016720020432e-05 3.015012832340e-06 0.0 
0.0 0.0 -2.098673162382e-05 
-1.235862100260e-03 -2.625570613708e-04 0.0 
-2.625570613708e-04 7.934382526740e-03 0.0 
0.0 0.0 -1.249521112489e-03 
-1.211535382329e-03 4.565569816846e-04 0.0 
4.565569816846e-04 7.603855218494e-03 0.0 
0.0 0.0 -1.172189067419e-03 
-1.321360973485e-03 -1.598454139055e-04 0.0 
-1.598454139055e-04 8.157812717265e-03 0.0 
0.0 0.0 -1.251863004148e-03 
-1.704574328015e-04 2.300128264431e-05 0.0 
2.300128264431e-05 1.030856563870e-03 0.0 
0.0 0.0 -1.953152674555e-04 
-1.117901966883e-04 -9.482210033707e-05 0.0 
-9.482210033707e-05 5.817955991869e-04 0.0 
0.0 0.0 -1.292073282250e-04 
-1.214101423412e-03 -2.486194593532e-04 0.0 
-2.486194593532e-04 7.945028851660e-03 0.0 
0.0 0.0 -1.258522865334e-03 
-1.271219324857e-03 4.971693506933e-04 0.0 
4.971693506933e-04 8.177840067003e-03 0.0 
0.0 0.0 -1.257106814994e-03 
2.594232538172e-04 -1.339851872499e-03 0.0 
-1.339851872499e-03 5.141638941498e-04 0.0 
0.0 0.0 -3.217126346404e-04 
-1.334345376368e-03 2.157790183719e-04 0.0 
2.157790183719e-04 8.827191171129e-03 0.0 
0.0 0.0 -1.314710167832e-03 
5.758992691219e-05 1.629967515181e-04 0.0 
1.629967515181e-04 3.408863824387e-05 0.0 
0.0 0.0 -3.929081363831e-05 
-8.415723991859e-04 3.409357994461e-05 0.0 
3.409357994461e-05 4.862419417103e-03 0.0 
0.0 0.0 -7.389643750272e-04 
-5.632071603276e-05 -7.908255579780e-05 0.0 
-7.908255579780e-05 5.951715054384e-04 0.0 
0.0 0.0 -1.313337839019e-04 
-1.324427323831e-03 -2.984557275517e-04 0.0 
-2.984557275517e-04 8.505668996389e-03 0.0 
0.0 0.0 -1.308531455474e-03 
-1.300676432775e-03 1.886676363898e-04 0.0 
1.886676363898e-04 8.425576722081e-03 0.0 
0.0 0.0 -1.254845750201e-03 
-8.984019564796e-04 -1.237198133233e-04 0.0 
-1.237198133233e-04 4.265458849472e-03 0.0 
0.0 0.0 -6.564513288157e-04 
-8.888014077326e-04 1.812789084724e-04 0.0 
1.812789084724e-04 4.952376261473e-03 0.0 
0.0 0.0 -7.541421605440e-04 
-6.276097559503e-04 -6.715782605664e-05 0.0 
-6.715782605664e-05 2.832069501594e-03 0.0 
0.0 0.0 -4.426424662127e-04 
-1.151816338705e-03 4.986859032723e-04 0.0 
4.986859032723e-04 7.600283655027e-03 0.0 
0.0 0.0 -1.203498912175e-03 
-2.674740073154e-04 -5.400123392678e-04 0.0 
-5.400123392678e-04 9.299090651865e-04 0.0 
0.0 0.0 -2.264474151299e-04 
-1.303841109802e-03 1.085882883771e-04 0.0 
1.085882883771e-04 8.492357544012e-03 0.0 
0.0 0.0 -1.260296891839e-03 
-1.191687690371e-03 -1.792572912051e-04 0.0 
-1.792572912051e-04 7.902409115589e-03 0.0 
0.0 0.0 -1.261416966621e-03 
-1.308215205254e-03 3.369873735607e-04 0.0 
3.369873735607e-04 8.413847692259e-03 0.0 
0.0 0.0 -1.260618436842e-03 
-1.275370929010e-03 2.203297067690e-04 0.0 
2.203297067690e-04 8.294911698725e-03 0.0 
0.0 0.0 -1.317725628150e-03 
1.222313271005e-05 1.128127362180e-05 0.0 
1.128127362180e-05 -2.314647535049e-06 0.0 
0.0 0.0 -4.246493646427e-06 
-1.211818034300e-03 4.006014363556e-04 0.0 
4.006014363556e-04 7.983414665776e-03 0.0 
0.0 0.0 -1.263090216482e-03 
-1.073154055867e-03 -5.044780342709e-05 0.0 
-5.044780342709e-05 7.404491594172e-03 0.0 
0.0 0.0 -1.202239909569e-03 
-8.482969471247e-04 5.756566432870e-05 0.0 
5.756566432870e-05 4.934073378721e-03 0.0 
0.0 0.0 -7.439744481034e-04 
-1.294789794099e-03 4.128632800208e-04 0.0 
4.128632800208e-04 8.301439097425e-03 0.0 
0.0 0.0 -1.252574368527e-03 
-7.632240259174e-04 -1.247615584578e-04 0.0 
-1.247615584578e-04 3.481612275262e-03 0.0 
0.0 0.0 -5.383891422301e-04 
-3.003096040968e-04 -1.615487937268e-04 0.0 
-1.615487937268e-04 1.430206630076e-03 0.0 
0.0 0.0 -2.492021827984e-04 
-1.313629829914e-03 -1.230146382652e-05 0.0 
-1.230146382652e-05 8.822541585775e-03 0.0 
0.0 0.0 -1.313490227100e-03 
3.521894490725e-04 2.496501878917e-05 0.0 
2.496501878917e-05 9.304235532549e-05 0.0 
0.0 0.0 -1.179496830025e-04 
-8.447146323437e-04 -2.046082411215e-05 0.0 
-2.046082411215e-05 4.909462012842e-03 0.0 
0.0 0.0 -7.402411036050e-04 
-1.348085845692e-03 2.530918264864e-06 0.0 
2.530918264864e-06 8.606464988216e-03 0.0 
0.0 0.0 -1.313492844077e-03 
-2.497229854947e-04 -6.189559134779e-05 0.0 
-6.189559134779e-05 1.337406434444e-03 0.0 
0.0 0.0 -2.401910970207e-04 
-9.421911629794e-04 -1.661669992897e-05 0.0 
-1.661669992897e-05 5.655702660019e-03 0.0 
0.0 0.0 -8.489638187885e-04 
-1.276280445523e-03 4.696432845470e-04 0.0 
4.696432845470e-04 8.231682282445e-03 0.0 
0.0 0.0 -1.260211869575e-03 
-1.042131282941e-03 -3.353944901092e-05 0.0 
-3.353944901092e-05 5.231045184564e-03 0.0 
0.0 0.0 -7.986629621775e-04 
-1.208709146256e-03 -3.512840286861e-05 0.0 
-3.512840286861e-05 7.690123470060e-03 0.0 
0.0 0.0 -1.148445367820e-03 
-1.362273016930e-05 -1.182361291552e-03 0.0 
-1.182361291552e-03 7.884965128820e-04 0.0 
0.0 0.0 -3.320887640197e-04 
0.0 0.0 0.0 
0.0 0.0 0.0 
0.0 0.0 0.0 
-1.052359765526e-03 -2.552934865100e-05 0.0 
-2.552934865100e-05 6.469023319650e-03 0.0 
0.0 0.0 -9.668795991591e-04 
-1.182130655930e-03 3.563594059290e-04 0.0 
3.563594059290e-04 7.870829341615e-03 0.0 
0.0 0.0 -1.258714341260e-03 
-1.311624000118e-03 2.599452204782e-04 0.0 
2.599452204782e-04 8.471619375797e-03 0.0 
0.0 0.0 -1.263997700767e-03 
-1.012178473530e-03 6.922432419418e-05 0.0 
6.922432419418e-05 6.158161253950e-03 0.0 
0.0 0.0 -9.199601189493e-04 
2.647470927745e-04 7.455276449397e-04 0.0 
7.455276449397e-04 1.486685304712e-04 0.0 
0.0 0.0 -1.771781242482e-04 
-1.250478637346e-03 4.824320061321e-04 0.0 
4.824320061321e-04 7.958988352162e-03 0.0 
0.0 0.0 -1.221038716794e-03 
-9.320485300336e-04 -1.667751956757e-04 0.0 
-1.667751956757e-04 4.597200132756e-03 0.0 
0.0 0.0 -7.060606045914e-04 
-1.200656783891e-03 4.721645169611e-04 0.0 
4.721645169611e-04 7.751960834764e-03 0.0 
0.0 0.0 -1.208939113964e-03 
-1.070653970758e-03 3.740030437558e-05 0.0 
3.740030437558e-05 7.401065294209e-03 0.0 
0.0 0.0 -1.203806565432e-03 
-6.260151560107e-06 1.768428321689e-04 0.0 
1.768428321689e-04 2.124323563503e-05 0.0 
0.0 0.0 -6.421321746397e-06 
-1.092227246100e-03 -1.750499239164e-05 0.0 
-1.750499239164e-05 5.615262148534e-03 0.0 
0.0 0.0 -8.562696210230e-04 
-5.708960077967e-05 -1.112001135559e-04 0.0 
-1.112001135559e-04 5.586929987395e-04 0.0 
0.0 0.0 -1.274563633148e-04 
-1.286136249812e-03 -3.205909886145e-04 0.0 
-3.205909886145e-04 8.133690929480e-03 0.0 
0.0 0.0 -1.263714160583e-03 
-9.761535132734e-04 -1.267872809360e-04 0.0 
-1.267872809360e-04 4.804162128704e-03 0.0 
0.0 0.0 -7.344436328926e-04 
-6.504713678435e-04 1.757607887326e-04 0.0 
1.757607887326e-04 3.347632261764e-03 0.0 
0.0 0.0 -5.225385819232e-04 
-6.144712139930e-04 -6.417158408879e-06 0.0 
-6.417158408879e-06 3.367933189460e-03 0.0 
0.0 0.0 -5.266666666667e-04 
-7.109436799071e-04 1.285541719908e-04 0.0 
1.285541719908e-04 3.807150921548e-03 0.0 
0.0 0.0 -5.860204081633e-04 
-6.853888581673e-04 6.201834011282e-06 0.0 
6.201834011282e-06 3.914136364457e-03 0.0 
0.0 0.0 -5.933333333333e-04 
-7.741251423872e-04 1.050422606297e-04 0.0 
1.050422606297e-04 4.286196800977e-03 0.0 
0.0 0.0 -6.525251918948e-04 
-7.681459693767e-04 3.705640173290e-05 0.0 
3.705640173290e-05 4.300928271438e-03 0.0 
0.0 0.0 -6.600000000000e-04 

SCALARS node_materi_plasti_kappa_shear float
LOOKUP_TABLE default
4.018595016637e-04
3.089753889168e-03
5.782851735544e-03
5.918183804685e-03
3.534406101045e-04
5.777185496190e-04
8.655346567894e-04
1.225178696612e-03
1.561289241519e-03
1.871659154863e-03
2.181083715770e-03
2.488964856422e-03
2.787137593187e-03
3.091771098928e-03
3.420472284368e-03
3.710467865470e-03
3.939561491463e-03
4.240577622205e-03
4.533842638206e-03
4.816933074020e-03
5.104668969230e-03
5.391975952764e-03
5.664103688175e-03
5.924781152092e-03
5.917884078783e-03
5.912198488963e-03
5.915363934694e-03
5.905144694759e-03
5.903457440159e-03
5.903348825921e-03
5.903761712110e-03
5.904265203747e-03
5.905318048855e-03
5.891395232290e-03
5.888128140164e-03
5.888680312796e-03
5.877931512601e-03
5.860031142375e-03
5.843163873243e-03
5.826784160533e-03
5.822850206754e-03
5.815960623432e-03
5.800025919692e-03
5.784362356774e-03
5.761776212317e-03
5.737855144386e-03
5.711749137531e-03
5.696108572039e-03
5.671644922163e-03
5.650827538949e-03
5.628366488181e-03
5.614080868870e-03
5.604140386821e-03
5.593036124330e-03
5.565915778014e-03
5.555192109801e-03
5.573004876633e-03
5.580306717995e-03
5.596307166112e-03
5.614091302201e-03
5.629810666475e-03
5.640837494200e-03
5.663093814390e-03
5.686920133380e-03
5.716693701825e-03
5.739758391817e-03
5.726679333637e-03
5.759394314008e-03
5.766547388258e-03
5.773558049937e-03
5.793695355299e-03
5.800384027879e-03
3.373278433029e-03
3.702017582457e-03
4.003145076898e-03
4.293988028575e-03
4.595203178701e-03
4.888984289506e-03
5.184208240141e-03
5.464856448975e-03
5.776378587400e-03
0.0
3.081614032412e-03
4.378618974845e-04
9.313671065223e-04
1.273596264124e-03
1.475817609515e-03
1.691520661011e-03
1.947957693993e-03
2.229183482126e-03
2.435412037652e-03
2.742854806992e-03
2.302182741058e-03
2.464376355407e-03
2.763613688910e-03
3.033283060944e-03
3.047551184854e-03
3.052691208087e-03
3.048980415926e-03
3.100970999415e-03
3.055386088565e-03
3.048944342912e-03
3.057111577284e-03
3.066860764030e-03
3.068512091509e-03
3.063486917503e-03
3.060147944086e-03
3.055345893607e-03
3.060924048497e-03
0.0
0.0
0.0
0.0
3.010556392941e-05
1.524327839584e-04
1.995857095858e-04
2.767971837970e-04
3.769179784358e-04
3.253807271213e-04
3.117581124918e-04
3.606568275965e-04
3.857262083461e-04
3.906419353076e-04
3.716692121618e-04
3.690405021818e-04
3.649158742688e-04
3.750961897123e-04
3.950523640767e-04
2.202657979881e-03
2.317406614729e-03
2.336206069708e-03
2.335584715628e-03
2.332821622506e-03
2.332120648017e-03
2.334593950698e-03
2.334706384694e-03
2.333789482046e-03
2.331672143501e-03
2.331067128179e-03
2.331446735933e-03
2.329565800791e-03
2.327819199784e-03
2.326571364245e-03
2.325787968514e-03
2.324203596953e-03
2.299523341183e-03
2.257208025420e-03
2.461087216651e-03
2.449937346399e-03
2.449035342414e-03
2.450513446923e-03
2.450644149295e-03
2.452642955489e-03
2.454778138053e-03
2.455902509536e-03
2.454538383279e-03
2.457438007012e-03
2.459393424546e-03
2.458960398410e-03
2.459214310986e-03
2.454295807747e-03
2.458028484257e-03
2.475695803071e-03
2.389521690566e-03
2.696529334491e-03
2.782001887569e-03
2.769038020761e-03
2.765913210012e-03
2.768177298346e-03
2.769449690573e-03
2.765618434112e-03
2.764713207464e-03
2.764281696244e-03
2.762786239059e-03
2.760748228383e-03
2.759266427299e-03
2.760944420823e-03
2.756978941966e-03
2.764313748951e-03
2.781014989081e-03
3.275121979669e-04
6.987967846243e-04
1.138663496479e-03
1.416159959173e-03
1.577549707535e-03
1.821953157934e-03
2.097239974907e-03
2.307577703393e-03
2.604607703320e-03
2.917242865590e-03
9.738600395070e-04
5.435588587201e-03
2.909988311951e-04
3.769847250246e-05
5.523350165746e-03
1.570944169196e-03
3.259014405966e-03
5.458606763578e-03
1.964336709912e-03
5.566973844380e-03
2.569306611317e-03
5.632953359091e-03
2.974125210141e-04
5.671758588449e-03
3.203440197606e-03
2.038890301765e-03
4.045860618713e-03
5.716180375961e-03
5.780776132195e-03
5.820339983969e-03
5.787783236705e-03
5.807930197893e-03
3.336276229903e-03
3.342041558882e-03
3.361792062102e-03
4.441169448529e-03
5.674307051814e-03
0.0
3.209899088955e-04
4.945795996265e-03
3.327462179656e-03
1.042267579418e-03
5.707024864185e-03
5.532622783008e-03
5.619797893241e-03
5.423578043402e-03
5.471772884167e-03
3.436383270430e-04
3.333005330644e-03
5.529223749367e-03
5.037839075619e-03
2.638587871684e-04
2.642361659730e-03
5.873210275008e-03
1.763677943653e-03
1.340334044123e-03
2.263467496582e-03
2.874799860949e-03
4.483052924419e-04
3.869122312403e-03
5.743109238437e-03
3.290788311207e-04
5.592525333234e-03
3.331816214928e-03
3.445762685372e-03
3.598635432457e-03
3.735913935782e-03
3.890935618439e-03
4.012600674009e-03
3.849474617287e-03
4.126514031565e-03
3.959165169884e-03
4.176038116471e-03
4.235988580971e-03
4.064707878218e-03
4.341402437136e-03
4.167240197337e-03
3.894151677151e-03
3.992834958239e-03
3.721936449487e-03
3.816849981585e-03
4.088667098279e-03
3.907021233887e-03
3.638494610824e-03
3.722863223661e-03
3.459179651477e-03
3.537390187834e-03
3.278134638251e-03
3.349761859775e-03
3.611638012721e-03
3.416809574398e-03
3.159803868816e-03
3.218051688491e-03
2.967054440755e-03
3.013255720382e-03
3.274741419647e-03
3.060407839341e-03
2.799033525006e-03
2.837141687482e-03
2.575225456547e-03
2.604333461748e-03
2.339006943104e-03
2.356936139518e-03
2.652093179226e-03
2.407825459181e-03
2.096105658174e-03
2.161022888784e-03
2.499076110119e-03
2.280206439540e-03
2.629068977315e-03
2.442266900798e-03
2.092139772061e-03
2.292183785287e-03
2.630236405014e-03
2.506325631077e-03
2.190661895186e-03
2.422274426006e-03
2.721982461051e-03
2.641933182030e-03
2.372758104436e-03
2.584384885052e-03
2.850333968712e-03
2.779077813445e-03
2.534557373612e-03
2.709557774217e-03
2.962454448322e-03
2.875190167875e-03
3.136631662821e-03
2.629761375739e-03
2.778979644167e-03
2.533618166994e-03
2.669371918058e-03
3.335780224915e-03
2.417052975495e-03
2.301133563289e-03
2.544153619348e-03
2.809569658580e-03
2.280488059570e-03
2.403129281843e-03
2.126768242516e-03
2.337020972949e-03
4.180692697777e-03
2.249003779132e-03
1.959755581014e-03
1.842529391951e-03
1.658290441270e-03
4.057689887828e-03
4.345234894460e-03
4.214494829484e-03
4.512207963410e-03
4.386116896851e-03
1.781237856866e-03
4.515858041588e-03
4.632785065629e-03
3.375865563346e-03
2.914340702826e-03
2.837997481989e-03
2.532048550751e-03
2.378710134929e-03
2.668313152737e-03
3.233044162886e-03
3.411145406702e-03
3.516648249659e-03
3.695606962542e-03
3.809881520442e-03
3.987932871345e-03
3.868387923180e-03
4.160380401702e-03
4.035401995459e-03
4.109927676280e-03
3.929071965478e-03
4.326541573449e-03
4.196853341751e-03
4.486612097014e-03
4.352559495553e-03
4.065464170358e-03
4.216259007439e-03
3.932665926102e-03
2.974206145827e-03
3.176937453123e-03
3.316135238148e-03
3.514584502752e-03
3.655690360847e-03
3.851432524779e-03
3.992906615051e-03
3.810423676568e-03
4.443438443787e-03
1.828572061533e-03
1.806415762240e-03
1.513365747016e-03
1.563989916259e-03
1.243214007741e-03
1.411260727777e-03
1.087408529277e-03
9.280634857496e-04
7.696745497683e-04
7.727047061156e-04
6.380213861808e-04
9.424950275726e-04
3.683920707972e-03
3.721810168106e-03
4.055539867157e-03
3.931687734683e-03
1.545289606018e-03
4.502587431745e-03
4.237803823005e-03
4.054767645798e-03
4.147689587509e-03
1.469037962723e-03
1.381279309045e-03
1.636872751770e-03
4.676612476866e-03
4.548915297300e-03
4.373011447568e-03
1.596671411329e-03
4.457517107573e-03
6.726180917699e-04
4.361759767158e-03
4.647438517847e-03
3.749070434487e-03
4.262666346844e-03
4.139562493484e-03
1.058263721451e-03
1.328795762681e-03
1.257951778391e-03
1.615059101371e-03
1.617776829754e-03
1.784704992927e-03
1.664404533731e-03
1.851897133188e-03
1.923512677117e-03
1.920863832566e-03
1.732826179112e-03
1.789080397445e-03
4.789640175199e-03
4.933105548269e-04
3.623293427982e-03
4.549397453839e-03
4.326717748868e-03
4.840106465985e-03
4.712783082347e-03
4.418649943636e-03
4.585859736983e-03
4.878747721020e-03
4.750919794657e-03
4.456475978691e-03
4.618929314417e-03
4.321775629010e-03
4.485087669046e-03
4.780485262660e-03
4.648645754832e-03
4.352908180169e-03
4.515438133183e-03
4.218119818909e-03
4.376442562231e-03
4.677698654010e-03
1.280455175298e-03
3.975684030661e-03
4.313430537097e-03
2.531248625096e-03
2.795187276442e-03
2.950421176089e-03
3.091354176801e-03
4.540325048563e-03
4.842133621751e-03
1.627886023255e-03
1.806948227217e-03
4.964897247722e-03
4.505647349825e-03
4.219641279943e-03
2.730984817609e-03
2.680252985846e-03
2.508656173216e-03
2.453261305901e-03
2.619408054872e-03
2.295804407583e-03
3.740263927181e-03
4.943332949813e-03
1.736869985241e-03
1.441819622179e-03
4.792252417499e-03
3.639826983595e-03
3.882064491805e-03
3.960472891563e-03
4.161603615821e-03
4.245857029619e-03
4.449138486875e-03
4.538270851724e-03
4.336412104351e-03
4.467009293726e-03
4.637465802825e-03
4.227760771006e-03
3.603493058884e-03
2.015316274690e-03
1.151528373984e-03
1.494680084950e-03
1.401763515938e-03
1.725734234278e-03
4.692766413527e-03
4.744201478353e-03
4.646812231519e-03
2.391216520205e-03
2.541437442855e-03
4.590954612420e-03
4.090617543142e-03
4.159541705089e-03
4.020881279016e-03
1.028169191453e-03
1.414727337198e-03
5.043491496533e-03
1.828932906125e-03
1.917980713017e-03
4.157180774186e-04
1.730461438410e-04
4.691724722002e-03
4.992960999119e-03
3.232526540781e-03
3.376337074583e-03
4.517813292037e-03
1.573664134280e-03
5.136914764881e-03
3.818178697522e-03
3.485662865048e-03
2.929371560799e-03
1.726704283358e-03
1.445214139705e-03
2.001081890038e-03
1.816948000307e-03
1.537558582793e-03
4.841861112859e-03
5.166500773962e-03
4.432736485775e-03
4.128543821065e-03
4.737743923515e-03
1.242267063270e-03
4.872712079514e-03
4.648563616368e-03
4.934717953700e-03
4.841015803806e-03
1.998284811115e-03
2.023831337705e-03
1.929656289699e-03
2.012827717834e-03
3.685637869250e-03
2.160195855781e-03
3.453630867072e-03
3.353268669804e-03
3.189580292168e-03
2.780580474833e-03
2.697012491619e-03
1.850761695031e-03
3.058179809856e-03
3.092459470665e-03
3.782098167745e-03
3.330348654579e-03
5.071602464651e-03
5.237586080772e-03
4.054791370477e-03
3.911736450825e-03
1.227723328770e-03
1.121568548935e-03
3.305144710569e-03
4.722576138819e-03
5.125546474561e-03
5.249094215458e-03
5.084093944170e-03
4.665047890294e-03
1.576387794071e-03
3.131769936580e-03
4.332121020711e-04
3.548502236301e-03
8.886689387002e-04
4.364114879908e-03
4.929747689709e-03
5.074378233997e-03
4.790835636385e-03
3.303647652991e-03
3.622953727387e-03
3.407028331039e-03
3.087385769992e-03
2.928470296600e-03
3.025957624230e-03
2.770242371404e-03
2.146257545189e-03
2.105072283453e-03
5.074226657025e-03
4.945890381019e-03
5.132442016699e-03
5.036778597884e-03
4.913108523956e-03
4.718978319234e-03
1.854189815065e-03
2.451969709865e-03
5.326205974981e-03
3.245806195750e-03
5.032929921038e-03
4.895632072523e-03
8.703516401931e-05
5.025155932237e-04
5.299729360747e-03
1.862195518962e-03
1.925793576571e-03
1.786850721610e-03
5.508894573325e-03
3.317615670200e-03
5.206554443836e-03
2.947814730022e-03
5.436495255461e-03
3.710224019945e-03
2.542778381884e-03
4.340023150483e-03
5.139724345049e-03
5.473155703650e-03
3.856151046115e-03
3.706636097451e-03
3.986363479487e-03
8.597848081307e-04
4.948557720353e-04
5.105588847389e-03
2.215579397184e-03
2.383580716268e-03
1.610091948116e-03
1.853488942061e-03
3.371371645262e-03
3.226095624709e-03
4.460118615317e-03
4.646317835839e-03
4.077799721508e-03
3.673670130341e-03
3.349970931866e-03
3.156166832522e-03
5.356340387661e-03
5.560199060828e-03
2.148566688317e-03
1.947252295954e-03
2.277219304698e-03
5.452662980312e-03
5.357012637058e-03
5.217066698957e-03
7.819578528788e-04
1.028971749725e-03
1.479365826605e-03
1.088843442230e-03
5.358763484459e-03
5.206986646545e-03
5.554350471510e-03
1.646365469631e-03
4.227084436487e-03
4.981659535795e-03
4.824566320776e-03
5.205837116450e-03
4.665431215243e-03
4.979351549170e-03
5.045785100976e-03
6.553725280401e-06
5.354913579491e-03
3.735880701652e-03
0.0
3.596581939605e-03
3.776236102998e-03
3.431628553560e-03
1.322961065373e-03
3.627378963851e-03
3.821605526455e-03
5.613183195734e-04
5.602994573649e-03
5.605292770001e-04
6.792338181858e-04
5.201033617940e-03
5.054577875216e-03
5.350694268135e-03
5.195925285154e-03
4.911596497334e-03
5.072562886383e-03
3.571136890228e-03
5.391533904623e-03
5.225263310295e-03
5.570873285067e-03
2.672019548462e-03
2.112700823482e-03
2.016942320669e-03
1.807045388934e-03
5.367508392991e-03
5.211741918196e-03
4.791087967570e-03
4.504528282397e-03
3.617380192862e-03
3.592243224651e-03
3.871542763848e-03
3.825760515629e-03
4.113486033420e-03
4.067343757730e-03
4.345783660312e-03
5.267440361509e-03
1.658829135304e-03
2.980180790998e-03
5.045745089381e-03
4.837810433997e-03
2.604840179930e-03
2.359528337880e-03
5.236949940379e-03
2.139698474170e-03
5.776025953178e-03
4.548865527355e-06
9.778909536362e-05
2.339238525722e-03
2.860933532174e-03
2.233233218599e-03
2.157897013088e-03
4.004695448910e-03
9.235095768594e-04
1.682665914814e-03
4.384602592843e-03
1.382892764948e-03
4.658101181556e-03
2.105930324669e-03
3.025966663440e-03
1.860371278765e-03
2.156903041045e-03
3.791766830717e-03
3.575521711054e-03
3.414449332742e-03
2.082739350568e-03
2.302944948856e-03
2.030320299130e-03
3.548903922870e-03
4.919586046203e-03
5.037796762255e-03
5.310613898604e-03
5.154282845663e-03
4.869442501820e-03
4.979196796726e-03
5.263482143390e-03
5.097588445123e-03
5.433286767238e-03
5.203085790594e-03
4.911819673152e-03
5.013424306316e-03
5.289013913456e-03
4.727439554445e-03
5.236156713520e-03
2.555895745055e-03
9.111497954274e-05
4.210174297477e-04
3.201712461661e-03
5.730004135783e-03
5.767445976811e-03
1.691075707631e-03
5.643473628579e-03
3.519780408461e-03
1.047073323882e-03
5.592957634279e-03
4.751520745493e-03
4.579435651060e-03
4.463201836768e-03
5.793236110746e-03
4.123046406902e-03
5.509305537426e-03
3.389446893060e-03
3.279327038173e-03
2.961278145953e-03
4.801619878836e-03
5.436694213567e-03
5.157649565966e-03
5.160321964187e-03
4.861485784401e-03
5.448713258893e-03
5.717599457513e-03
5.706213826985e-03
1.828494135708e-03
1.709398695910e-03
1.898258451700e-03
1.622333472901e-03
1.412743391040e-03
1.316736111381e-03
1.628168335130e-03
1.039665837843e-03
4.929832743955e-03
5.492129088288e-03
3.625564248662e-03
3.432597322909e-03
3.134856267973e-03
2.952066020253e-03
3.078747520708e-03
3.351373813983e-03
2.815770384213e-03
4.041389319165e-03
5.510043080626e-03
3.303884447530e-03
2.928688293770e-03
3.336341398281e-03
3.593836274312e-03
3.598511107039e-03
3.869249033601e-03
3.623805167776e-03
3.516608453604e-03
3.658527646077e-03
3.515347475486e-03
3.794985028764e-03
3.639781273070e-03
3.373627075467e-03
3.921733030934e-03
3.752559113767e-03
3.333440693931e-03
1.541531548536e-04
5.940250931269e-04
7.027142990941e-04
1.021409890230e-03
8.359819815989e-04
1.303920167999e-03
1.039423496534e-03
3.284076278483e-04
3.019271284436e-04
6.566057884129e-04
3.288717913001e-04
5.940028616348e-04
1.062033452019e-03
1.367334253023e-03
5.652286702244e-03
2.938936405259e-03
2.805289880450e-03
2.499233211098e-03
2.662705054473e-03
3.052456379495e-03
2.341669267002e-03
2.236323217213e-03
3.229285700949e-04
4.419598349488e-04
4.410447408450e-04
7.207625795544e-04
7.074768685298e-04
4.420400412776e-04
4.449633113941e-04
3.145644272533e-04
4.504548672275e-04
7.268015370500e-04
3.062409538729e-04
4.745527215494e-03
4.902505264739e-03
5.544916367284e-03
3.368924595429e-03
2.544811655954e-04
5.780998861492e-03
5.813842834379e-03
5.817013326087e-03
5.233971751005e-03
5.365637462079e-03
5.788240472877e-03
2.014050555547e-03
5.434538857935e-03
5.267458791713e-03
1.311421764019e-03
2.008026884127e-03
4.362324178154e-03
3.910057017267e-03
4.933262515921e-03
4.079022426720e-03
4.641099795521e-03
5.158355521769e-03
1.213464950072e-03
4.185417172818e-03
4.076798602367e-03
4.811798339392e-03
2.086149546152e-03
3.238993663622e-03
1.348867022610e-03
5.359250132040e-03
3.285416912687e-03
3.046769336548e-03
2.677719312106e-03
2.168475210699e-03
1.957305737071e-03
2.768223087164e-03
3.036664388310e-03
4.286179880856e-03
4.975421168353e-03
3.166773246265e-04
4.414552831620e-03
3.582806630633e-03
4.292263749295e-03
4.187531334711e-03
1.624964030413e-03
4.913094015127e-03
5.399859365631e-03
3.948537402346e-03
1.019982226970e-03
3.882948642930e-03
5.011342776407e-03
4.799927772923e-03
1.909455734444e-03
2.789026983488e-03
3.096861197051e-03
3.026441214717e-03
5.391810110936e-03
3.115333052868e-03
4.488935570888e-03
3.471918703045e-03
2.042934957486e-03
4.758450757248e-03
2.730164700612e-03
5.205251802628e-03
4.359423513210e-03
1.928746000249e-03
5.001431347950e-03
2.931441338209e-03
4.390043822392e-03
3.117148399214e-03
3.803735016467e-03
4.266483966727e-03
3.482072113493e-03
4.216350577803e-03
4.589726999369e-03
7.822158450212e-04
2.336975079915e-03
4.252864040516e-03
4.830810690924e-03
5.492998307562e-03
2.853919931406e-03
4.620197000946e-03
5.283300374483e-03
3.195345026289e-03
1.407849422888e-03
1.052568637253e-03
1.231938885888e-03
2.888387059379e-03
3.468984859371e-03
5.520066455693e-03
4.776767016044e-03
4.191097730844e-03
7.054263323161e-04
3.137270481220e-03
4.930209733183e-03
2.967745864271e-03
4.518076980286e-03
3.471719766141e-03
5.320909655121e-03
2.513659337608e-03
5.087932046228e-03
4.157539429139e-03
1.929448282595e-03
3.328255837959e-03
5.415880323612e-03
4.493880815661e-03
3.756679585458e-03
2.829619919497e-03
2.715238429679e-03
3.628276273172e-03
3.993174405771e-03
5.804322562982e-03
4.644362204700e-03
4.291233033703e-03
3.502523749532e-03
3.813462889229e-03
7.047390220056e-04
2.825859966298e-03
3.651715310585e-03
1.384942781952e-03
3.032571676708e-03
5.114951343620e-03
3.797843583975e-03
1.739058177563e-03
3.939088055833e-03
2.408697712716e-03
4.407302233334e-03
4.073717321279e-03
4.269608694399e-03
7.894202949830e-04
3.833002126981e-03
5.075427847675e-03
2.404246341971e-03
3.233663163957e-03
4.694223929722e-03
2.107126776239e-03
3.545482769992e-03
4.553232214609e-03
3.920507140127e-03
3.187539066147e-03
3.865534957540e-03
2.217505343363e-03
1.917452006600e-03
1.657786857477e-03
1.956380160446e-03
4.746672213180e-03
1.005389459169e-03
4.623386601130e-03
1.307883538802e-03
1.891532021104e-03
4.345633367675e-03
4.169109331877e-03
2.143128441899e-03
1.729669733719e-03
2.136474112095e-03
3.495395175694e-03
2.347008504077e-03
2.321698774103e-03
5.562109209316e-03
2.479278600157e-03
5.832033053261e-03
5.683459550606e-03
3.569571471478e-03
1.841669118824e-03
0.0
1.939425135395e-03
2.198379986357e-03
4.544915456455e-03
3.572687871250e-03
2.077081277084e-03
5.482725273702e-03
5.548817509373e-03
4.594253848124e-03
4.650854355195e-03
4.026711817750e-03
5.298348689818e-03
3.310673635212e-03
5.319704039765e-04
4.366888493405e-03
1.596020396402e-03
1.727925572495e-03
1.537504339033e-03
2.155926239816e-03
1.066640011348e-03
1.470469770676e-03
5.133441966827e-03
3.576035110635e-03
4.538549050418e-03
1.190734353883e-03
5.563426082931e-03
5.226029974004e-03
5.618784336637e-03
4.858869215134e-03
1.131768423013e-03
3.817527287724e-03
5.388671225134e-03
4.831755994393e-03
5.661150035348e-03
3.527768805689e-03
5.594510040717e-03
8.645247776374e-04
5.592056671628e-03
4.830647828208e-03
3.948871847594e-03
3.795468355754e-03
5.483498521481e-03
5.518494078473e-03
7.078378622743e-04
4.578727725803e-03
2.665021533502e-03
8.704557035291e-05
5.306855478618e-03
5.101857700586e-03
5.457161495010e-03
7.154962728763e-04
4.367291898862e-04
5.308036467257e-03
5.475077044311e-03
1.415797628064e-03
5.866481278788e-03
1.720779943565e-04
3.266292359391e-03
4.330017662913e-04
5.682371966829e-03
5.607182569852e-03
2.919687531898e-03
3.339776257796e-03
1.951427265437e-03
5.094079203513e-03
8.720869757284e-04
5.646101319162e-03
5.274827266557e-03
5.610655463052e-03
5.543108792546e-03
1.443335536966e-05
5.340000167234e-03
4.934198621273e-03
3.315096198721e-03
5.545224744200e-03
2.394333441960e-03
1.003430899199e-03
5.853061777030e-03
3.546391892630e-04
3.294611847679e-03
5.738597030996e-03
9.205396441291e-04
3.785517905279e-03
5.505285211454e-03
3.560630679607e-03
5.121626185149e-03
1.319457347623e-03
0.0
4.321439572445e-03
5.262500811899e-03
5.642111831980e-03
4.116674015646e-03
7.838175614556e-04
5.331973850864e-03
3.136604846599e-03
5.194131730829e-03
4.931303994474e-03
1.791005229996e-04
3.813324024854e-03
4.130724803800e-04
5.442551602023e-03
3.274124271133e-03
2.280891741688e-03
2.288799502470e-03
2.577527492663e-03
2.642045162662e-03
2.890176481776e-03
2.907269203429e-03

SCALARS node_materi_plasti_phimob float
LOOKUP_TABLE default
1.963495450476e+01
-1.482847519959e-01
2.059664568629e+01
1.875705338598e+01
-2.747145840940e+01
-1.978498648834e+00
5.881654997707e+00
1.036675871382e+01
1.300718067939e+01
1.472904415194e+01
1.608610356819e+01
1.719204530869e+01
1.806674100800e+01
1.880717763915e+01
1.942467048200e+01
1.979228576134e+01
2.003279122289e+01
2.029385235687e+01
2.045690826991e+01
2.055038592283e+01
2.060690044374e+01
2.063108326656e+01
2.062420914518e+01
1.879703966834e+01
1.878998204489e+01
1.880585749506e+01
1.882505090905e+01
1.882326764182e+01
1.886707497417e+01
1.889925666269e+01
1.896338202396e+01
1.904064465041e+01
1.912742260103e+01
1.919799378380e+01
1.933680837386e+01
1.947247295236e+01
1.964186629814e+01
1.978849932499e+01
2.001258550286e+01
2.022367586954e+01
2.043426651053e+01
2.070839443883e+01
2.094673040504e+01
2.113891502377e+01
2.125118182680e+01
2.138397717352e+01
2.145661971899e+01
2.149054737788e+01
2.149288657548e+01
2.149066514090e+01
2.144686294908e+01
2.140212855094e+01
2.130549697968e+01
2.127244837262e+01
2.122001359951e+01
2.113553903621e+01
2.106767943809e+01
2.100673861150e+01
2.093700991672e+01
2.089474174565e+01
2.084462373784e+01
2.080997170545e+01
2.077735361357e+01
2.073559971549e+01
2.069123963462e+01
2.066515330967e+01
2.068154960142e+01
2.062517039349e+01
2.062808552653e+01
2.061144160765e+01
2.060368360397e+01
2.060421505654e+01
5.636467945454e+00
9.255317318412e+00
1.169867312077e+01
1.346407358123e+01
1.486777560166e+01
1.597548894475e+01
1.690306609869e+01
1.768529340415e+01
1.835837270584e+01
1.630585842319e+01
2.254685770086e-01
3.120648376897e+01
2.586644921109e+01
2.329134634984e+01
2.046158498328e+01
1.692001186774e+01
1.440930639387e+01
3.931814253035e+00
-1.076232008125e+01
-6.141343851509e+00
-3.414452559525e+01
-2.705590327953e+01
-1.113553551279e+01
-1.291842009809e+00
-9.331871305174e-01
-9.278008389601e-01
-1.019327983319e+00
-1.857326919769e-01
-1.021035013452e+00
-1.146995999766e+00
-1.141251678435e+00
-1.082988134960e+00
-1.157923523324e+00
-1.246058882636e+00
-1.299228894262e+00
-1.227022425615e+00
-8.826255867127e-01
9.153341908848e+00
7.301599297149e+00
7.788819322142e+00
9.024850924515e+00
8.685521424603e+00
-5.966535277947e+00
-3.565779044876e+01
-5.208732599805e+01
-5.892805581057e+01
-5.977291046522e+01
-5.970673257098e+01
-5.805546275824e+01
-7.768610883643e+00
8.999999999681e+01
8.997616478722e+01
8.966299188930e+01
8.918078109378e+01
8.875650850721e+01
8.867634009482e+01
-1.813562854288e+01
-3.272654002698e+01
-4.030478947497e+01
-4.458616758198e+01
-4.528105961039e+01
-4.480687821580e+01
-4.368792656529e+01
-4.235266936514e+01
-4.096372329448e+01
-3.960671292545e+01
-3.842477780419e+01
-3.746700330832e+01
-3.661437979072e+01
-3.593399203585e+01
-3.543067109459e+01
-3.511733329366e+01
-3.497555235240e+01
-3.488836744961e+01
-3.423674458279e+01
-2.642467716001e+01
-2.709828817201e+01
-2.721515474950e+01
-2.729802727208e+01
-2.743348823420e+01
-2.761361186472e+01
-2.784436574378e+01
-2.813370704528e+01
-2.846263518800e+01
-2.881150991681e+01
-2.918704278322e+01
-2.951891328752e+01
-2.968937756916e+01
-2.934714276700e+01
-2.816000771703e+01
-2.376654161290e+01
-2.164981259350e+01
-1.026790783129e+01
-1.002498563289e+01
-1.171334469655e+01
-1.205000581699e+01
-1.204386971025e+01
-1.200238900847e+01
-1.203740866873e+01
-1.205195358964e+01
-1.199837139431e+01
-1.201368296238e+01
-1.202834949931e+01
-1.203757393738e+01
-1.203010655025e+01
-1.207177427585e+01
-1.174336085625e+01
-1.092862019066e+01
3.309086831579e+01
2.807378605490e+01
2.416779522677e+01
2.165850451633e+01
2.011218058959e+01
1.679232658147e+01
1.317383550300e+01
-4.339829717109e+00
-7.486608682280e+00
-2.286614670514e+00
2.440458587020e+01
2.156191807412e+01
-3.889401932923e+01
1.186025633708e+01
2.115149571195e+01
1.958932345176e+01
1.916578672535e+01
2.178279350735e+01
1.600111682717e+01
2.160944258739e+01
7.748535910769e-01
2.082468175847e+01
1.020662890951e+01
2.088769883950e+01
3.757071274722e+00
1.550859944071e+01
2.018061070202e+01
1.993038191592e+01
1.907887322292e+01
1.852889046498e+01
1.852174316110e+01
1.878327857373e+01
4.468278839392e+00
4.414243967794e+00
4.891393671554e+00
1.420845018124e+01
2.070325347025e+01
1.071350459811e+01
3.618897691698e+01
2.059247413401e+01
4.597282422175e+00
8.406340769411e+00
1.932069965702e+01
2.172942570844e+01
2.132645302586e+01
2.177201931946e+01
2.137120483144e+01
-7.407792035419e+00
4.161054812076e+00
2.104383118960e+01
1.644935450896e+01
-3.890806842945e+01
1.768247706883e+01
1.860319369509e+01
1.791836740753e+01
2.185415656486e+01
1.120021678829e+01
6.232727609008e-01
2.987308996656e+01
1.075003203196e+01
2.065027964621e+01
3.493851581508e+01
1.799941508180e+01
5.403368847197e+00
7.716855652740e+00
8.629801235925e+00
1.067218904604e+01
1.139488364274e+01
1.275497266932e+01
1.228143909296e+01
1.399041457168e+01
1.372318670309e+01
1.331252514158e+01
1.511098948400e+01
1.498620950987e+01
1.610664257137e+01
1.607683814765e+01
1.499109658077e+01
1.615016451463e+01
1.512036614148e+01
1.631720451274e+01
1.711066142755e+01
1.757046226117e+01
1.690846744205e+01
1.853134413471e+01
1.808366885334e+01
1.965044325524e+01
1.938956227703e+01
2.083147170132e+01
2.091756979102e+01
2.199767004199e+01
2.204338041373e+01
2.309917796901e+01
2.324449166056e+01
2.419028618861e+01
2.391241978056e+01
2.489514160539e+01
2.525415087602e+01
2.585003930909e+01
2.627855458021e+01
2.675732058533e+01
2.725256916251e+01
2.759642982013e+01
2.697812895104e+01
2.766315071419e+01
2.833809830238e+01
2.821957246144e+01
2.750092346673e+01
2.786937275771e+01
2.715603864924e+01
2.734972967483e+01
2.803090151425e+01
2.732698149607e+01
2.672218091740e+01
2.655248456464e+01
2.704056168457e+01
2.613515139877e+01
2.576602423509e+01
2.526838910380e+01
2.545031159391e+01
2.454578008644e+01
2.447486563955e+01
2.375671434604e+01
2.359392415393e+01
2.285867679300e+01
2.308661114671e+01
2.226240053216e+01
2.252241716608e+01
2.179599601076e+01
2.132374525395e+01
2.059783285889e+01
2.029335925110e+01
2.450347629760e+01
1.931121929696e+01
1.952837068160e+01
1.921242730644e+01
2.008995705272e+01
1.798797171381e+01
1.811357409454e+01
1.667134277326e+01
2.661142681837e+01
1.818107901408e+01
1.702856377367e+01
1.538739518674e+01
1.469300097089e+01
1.314961321553e+01
1.221238530567e+01
1.392007951903e+01
1.293613473242e+01
1.452633088574e+01
1.372770167100e+01
1.411921755304e+01
1.623892093071e+01
1.529339374894e+01
1.616136159115e+01
2.203687639810e+01
2.679134148371e+01
1.825341426303e+01
1.735183430188e+01
1.842001508504e+01
2.315676534141e+01
2.262539761084e+01
2.310308016163e+01
2.260567819925e+01
2.295297776341e+01
2.249150811071e+01
2.217587738978e+01
2.208932509333e+01
2.180918768390e+01
2.272865204378e+01
2.320860379354e+01
2.174332314657e+01
2.150003594113e+01
2.144956286142e+01
2.124354380737e+01
2.121209406754e+01
2.100303131969e+01
2.089210286327e+01
2.646149878104e+01
2.610269950875e+01
2.578898784371e+01
2.543589415273e+01
2.513311224521e+01
2.478727113555e+01
2.448843144964e+01
2.475300332579e+01
1.698295985222e+01
2.893844814144e+01
2.896882524383e+01
2.963009986784e+01
2.949203562875e+01
3.024144893091e+01
2.980035397474e+01
3.056531192030e+01
3.073001212488e+01
3.075151166734e+01
3.056854679240e+01
3.034969507355e+01
2.970540268681e+01
2.193585212781e+01
2.499681754109e+01
2.437021846809e+01
2.449941906778e+01
1.197422008900e+01
2.103566509737e+01
2.288252842579e+01
2.336574042289e+01
2.412215238115e+01
1.163641312993e+01
2.953628582260e+01
2.867456124718e+01
1.512237022960e+01
1.444252117888e+01
2.294750020946e+01
1.286606416453e+01
2.193226893476e+01
3.012926031608e+01
2.083839023436e+01
2.087567940516e+01
2.179156847477e+01
2.390915590785e+01
2.396327168614e+01
2.965640390111e+01
2.838378163973e+01
2.779043680573e+01
2.590515254157e+01
2.667901526766e+01
2.418858051354e+01
2.225822956970e+01
2.067519950839e+01
2.261072850999e+01
1.946413429017e+01
1.580014912575e+01
1.552848949942e+01
2.101186516165e+01
2.962475425446e+01
1.363719639211e+01
2.251061063020e+01
2.384569166576e+01
1.569825443834e+01
1.511644488723e+01
1.374511866085e+01
1.452664180680e+01
1.575198039263e+01
1.523434090163e+01
1.391320361200e+01
1.469237103105e+01
1.325193339107e+01
1.411801577525e+01
1.539061432433e+01
1.488799978193e+01
1.350502460950e+01
1.434587477126e+01
1.282239634692e+01
1.373790949200e+01
1.508526165663e+01
1.008240676159e+01
2.432115658577e+01
2.370774825286e+01
1.771433555699e+01
1.858375345617e+01
1.923281359364e+01
1.927539758794e+01
1.453862806588e+01
1.574722453706e+01
2.769479433994e+01
2.684259694861e+01
1.627326909193e+01
2.072052187576e+01
2.062211908023e+01
2.329210249739e+01
2.189555684930e+01
2.314103575403e+01
2.147923157525e+01
2.021503905926e+01
2.262429587280e+01
2.374032834879e+01
1.602375452815e+01
1.390342805510e+01
1.055118568378e+01
2.076806711938e+01
2.492519989474e+01
2.099577262770e+01
2.187506856589e+01
2.107716363670e+01
2.182137890960e+01
2.116394460039e+01
2.177604334632e+01
2.237691964958e+01
2.342943612923e+01
2.221639934817e+01
1.301779066586e+01
2.510481126018e+01
2.135857245985e+01
8.147935571675e+00
1.081984699776e+01
1.149479557673e+01
1.384362784626e+01
2.249508516995e+01
2.125401065613e+01
2.059666330590e+01
1.960361187441e+01
1.820324893066e+01
2.331748169103e+01
1.197757177963e+01
1.227349336099e+01
1.142753561900e+01
7.535241908352e+00
1.110077773414e+01
1.633547728220e+01
2.757608083531e+01
2.576588508648e+01
2.878523887928e+01
2.748902428001e+01
1.522437222543e+01
1.629731682604e+01
1.980436853188e+01
1.980372899123e+01
2.292380209438e+01
1.144015732339e+01
1.672731384927e+01
2.443058340722e+01
2.498185494682e+01
1.867475809146e+01
2.494956126894e+01
2.551847116366e+01
2.362090732953e+01
1.554350373954e+01
1.268569736371e+01
2.240880581409e+01
1.677837688513e+01
2.274463935136e+01
2.303788944917e+01
2.245228534286e+01
6.288704021788e+00
2.209915515940e+01
2.065319642455e+01
2.081875080586e+01
2.014016262932e+01
2.648289932301e+01
2.468636410567e+01
2.344193669531e+01
2.251888509162e+01
1.193565082187e+01
2.539791820064e+01
1.384593980080e+01
1.189668029875e+01
1.223313542669e+01
1.872575964538e+01
1.650464825139e+01
2.860868822012e+01
2.629965262180e+01
1.986968538997e+01
2.109320456841e+01
2.366953747926e+01
1.644738552036e+01
1.698401588121e+01
1.174869906411e+01
1.081208857604e+01
8.088994315349e+00
5.801219370812e+00
2.205435917470e+01
2.211669225728e+01
1.674781630078e+01
1.725005836956e+01
1.683284421635e+01
2.282553061861e+01
2.933191243429e+01
2.602717791948e+01
2.827933373256e+01
2.361508240866e+01
2.164719914492e+00
1.780334505023e+01
2.068551873617e+01
2.076014687542e+01
2.290256988675e+01
6.830462856024e+00
2.410705956700e+01
2.488441581607e+01
9.579400385049e+00
1.015977956173e+01
1.296809868807e+01
1.157587241934e+01
2.251827214213e+01
2.049679178811e+01
2.134727886472e+01
2.205860643198e+01
2.054965259537e+01
1.980581825698e+01
2.272589229094e+01
2.312660459930e+01
1.464072985597e+01
1.582968821526e+01
1.726028470734e+01
9.351229352448e+00
2.173159946271e+01
2.176344342270e+01
2.397146577873e+01
2.517498592421e+01
1.720508619227e+01
2.087953177734e+01
2.009673295454e+01
2.154343516320e+01
2.062252672168e+01
4.564660316446e+00
2.067400702995e+01
1.707688554462e+01
1.756648405149e+01
2.440040497047e+01
2.449983240959e+01
2.338129080097e+01
1.675653889373e+01
1.766334516234e+01
1.014046456295e+01
8.904278499410e+00
1.108791843636e+01
2.893824606297e+01
2.711873067548e+01
1.659174415515e+01
1.649100496398e+01
1.708267240547e+01
1.218839216258e+01
1.566406652673e+01
2.034616406503e+01
2.050161459883e+01
1.875738439604e+01
1.841696922107e+01
2.013116727451e+01
2.442765987167e+01
2.490507450993e+01
2.551836630357e+01
1.734678369837e+01
1.787577425732e+01
2.420412263891e+01
2.539470402051e+01
2.167472361278e+01
1.765818861462e+01
2.073027654337e+01
2.082395843040e+01
-1.791902222023e+00
3.122588020817e+00
2.271259774109e+01
2.430219165538e+01
1.773421451932e+01
1.739077349549e+01
1.815109512094e+01
1.349361631939e+01
2.332207513477e+01
2.225779282298e+01
2.270542882540e+01
2.181177365483e+01
2.297627198925e+01
2.251256381914e+01
2.213838199428e+01
1.973416545642e+01
1.740481880545e+01
9.243469672187e+00
1.528659476107e+01
7.949432519827e+00
9.725573335612e+00
6.089988809671e+00
1.116537549637e+01
8.038460856951e+00
9.784374662906e+00
-1.064754855504e+01
1.807671158828e+01
-8.083808777239e+00
-2.137455437647e+00
2.143338188263e+01
2.146480075650e+01
2.118966177446e+01
2.121617819919e+01
2.142670203902e+01
2.118797402620e+01
7.433678103472e+00
2.098232595254e+01
2.098099995613e+01
2.085646392585e+01
7.489401853761e+00
2.171129850211e+01
1.924784800939e+01
1.775802618406e+01
2.044380917859e+01
1.962916745372e+01
2.060762431939e+01
2.052476640614e+01
8.225784986660e+00
8.132430797736e+00
1.067049755991e+01
1.040992402030e+01
1.236425865946e+01
1.211767937384e+01
1.370204520966e+01
2.183623724016e+01
1.956314434194e+01
5.831476607007e+00
2.250047427765e+01
2.290331081921e+01
1.375551639800e+01
1.290049147940e+01
2.159667506822e+01
2.673449984888e+01
1.858187310540e+01
1.482827806917e+01
2.107328378144e+01
2.563707165532e+01
1.457158382549e+01
2.066566898891e+01
1.867616949693e+01
2.392734922881e+01
4.507705903669e-01
2.197444839602e+01
1.382212334713e+01
2.085184405697e+01
2.052242977233e+01
2.763771600948e+01
1.909055429368e+01
2.434194345421e+01
2.369430007114e+01
1.359643821722e+01
1.001298646745e+01
9.543721687789e+00
2.815857559445e+01
1.744650974181e+01
1.637264375655e+01
1.536423646007e+01
1.642594390042e+01
1.705019223568e+01
1.790363870167e+01
1.764006922478e+01
1.674290814527e+01
1.739744672555e+01
1.819402080294e+01
1.801815826391e+01
1.884727022818e+01
1.858098898141e+01
1.786944554977e+01
1.844227638388e+01
1.910066611662e+01
1.776443691116e+01
2.209759624321e+01
2.553222757994e+01
2.471926933655e+01
2.571218051924e+01
1.760873410484e+01
1.966857480810e+01
1.919988245812e+01
2.883131689098e+01
2.110262626903e+01
1.179266206782e+01
3.002072792760e+01
2.147576141784e+01
1.603192564393e+01
1.566257927493e+01
1.481000774831e+01
1.896215379341e+01
1.203571682324e+01
2.173302826033e+01
2.563957737890e+01
2.571765078534e+01
2.634648357672e+01
1.719552339042e+01
2.164664541156e+01
2.221958157193e+01
2.211992620367e+01
2.279859646663e+01
2.148407073121e+01
2.033178565892e+01
2.065768727005e+01
2.502212537055e+01
2.677226280312e+01
2.667129991753e+01
2.790714222734e+01
2.825708956872e+01
2.911715677684e+01
2.852589170809e+01
3.015983938467e+01
1.901407157356e+01
2.129767979668e+01
2.347603780983e+01
2.405586081164e+01
2.430572553191e+01
1.995739894287e+01
2.070264724067e+01
2.110688741412e+01
1.919528063794e+01
2.255200003941e+01
2.121360145648e+01
2.552340639811e+01
2.096824805123e+01
4.260369429432e+00
7.802322797615e+00
8.078681291583e+00
1.057606775459e+01
7.987971736427e+00
2.024712619500e+01
2.019003520925e+01
1.982454327261e+01
2.015931876806e+01
1.984850374885e+01
1.946077419160e+01
2.014144220440e+01
1.988933754972e+01
4.226079051016e+00
1.036622884493e+01
1.261927574194e+01
1.767959005719e+00
1.278219237565e+01
2.006080475633e+01
1.923364880221e+01
2.380611895500e+01
1.972793575397e+01
-2.444851180250e+01
-5.861740451770e+00
-3.472887008574e+01
-1.076719407899e+01
3.848825521799e+00
9.034898738419e+00
2.068551783982e+01
1.847722368512e+01
1.819167562829e+01
1.729364010544e+01
1.787947399280e+01
1.882605230684e+01
1.671362956351e+01
1.633280546209e+01
3.592833292586e+01
-8.170608000384e+00
-9.907108604894e+00
2.892777439599e+00
2.509719305786e+00
-8.281021028043e+00
-8.761137377533e+00
3.617483309221e+01
-9.677869873734e+00
1.913013775408e+00
3.535798628394e+01
1.545785367428e+01
1.604176890191e+01
2.109192396544e+01
4.847370894901e+00
-3.905062515192e+01
1.840575911017e+01
1.854985735954e+01
1.854228534084e+01
2.062434262679e+01
2.063934205876e+01
1.842628002139e+01
1.627918450122e+01
1.838403369420e+01
1.710449861911e+01
2.837730364085e+01
1.819021482440e+01
2.055067091766e+01
2.147305495230e+01
2.087188392282e+01
2.073907191960e+01
2.120563975136e+01
2.206382034699e+01
9.979815331398e+00
1.253116235985e+01
1.202717429151e+01
1.557215003169e+01
1.598672391900e+01
1.937398140822e+01
1.011152792800e+01
2.125498480763e+01
1.424097106879e+01
2.377166762320e+01
1.917919944702e+01
1.790976043753e+01
1.865324212234e+01
2.441072142837e+01
2.178656332891e+01
2.230436789307e+01
1.618553781770e+01
-3.434487760483e+01
2.244587331730e+01
2.217288031601e+01
1.303631793374e+01
2.414977351302e+01
1.691033248562e+01
1.587160549653e+01
1.763147406968e+01
1.090948810034e+01
5.531821609939e+00
1.044782646423e+01
2.198706554279e+01
1.578247907248e+01
1.491250089700e+01
2.668008275215e+01
2.072156770742e+01
1.953170431425e+00
1.745059873088e+01
2.537177974401e+01
2.348940842364e+01
2.538652674133e+01
1.558924046562e+01
2.171909705391e+01
2.697848242843e+01
1.686393159997e+01
2.036705589231e+01
2.859561284970e+01
1.625087883188e+01
2.500778641048e+01
2.375190098311e+01
1.537256183140e+01
1.989533576923e+01
1.700456843630e+01
2.291730508880e+01
2.037121880352e+01
2.205923342577e+01
2.916144014061e+01
2.430895398569e+01
1.289784789992e+01
2.174705111410e+01
1.770552293269e+01
2.055282220038e+01
2.161027496624e+01
1.720709924404e+01
2.140755766504e+01
1.194699969044e+01
2.653400541624e+01
3.006500000568e+01
2.620610300187e+01
2.166818359512e+01
1.831386809157e+01
2.133701705643e+01
2.342128329209e+01
2.646965893225e+01
6.076060666553e+00
2.111499240063e+01
2.612151586205e+01
2.351822612554e+01
1.951354150276e+01
2.152539909500e+01
1.013036110436e+01
2.095405957972e+01
2.386418353340e+01
2.779655688384e+01
4.665675423296e+00
2.083493886330e+01
2.326372036048e+01
2.273039938397e+01
2.604237034638e+01
-9.496454247963e-02
2.135038343465e+01
1.895911752915e+01
1.887417347260e+01
2.307531284966e+01
1.435451101919e+01
2.086564244049e+01
2.452130663581e+01
2.138183836899e+00
6.160496678680e+00
2.068238365170e+01
2.942940033849e+01
2.535229248759e+01
2.239437559861e+01
2.054947914892e+01
2.872376892465e+01
2.045658382758e+01
4.478835483990e+00
1.534513723988e+01
2.038744458194e+01
1.937153750842e+01
1.816417477623e+00
2.332171500538e+01
2.063611258900e+01
2.104758024956e+01
2.468525015083e+01
1.646612343759e+01
1.427161459937e+01
2.430859525984e+01
1.976804197040e+01
2.371613428903e+01
2.564080699671e+01
2.388863622338e+01
1.514470535949e+01
1.591312039737e+01
1.305981362262e+01
2.792937734800e+01
1.928945649080e+01
7.789499564783e+00
1.705155033689e+01
7.485558807099e+00
2.749606825428e+01
2.343426195007e+01
1.273455744517e+01
2.644727356369e+01
1.401627526777e+01
2.551377864485e+01
2.507605665769e+01
2.448227505762e+01
2.321433673167e+01
1.788700115871e+01
2.241639456748e+01
1.851218586804e+01
2.063389963145e+01
7.845149477295e+00
1.726044226855e+01
1.015530806829e+01
1.738676641661e+01
1.990949967516e+01
1.773318872000e+01
7.961147667936e+00
1.795746730184e+01
1.935975351231e+01
2.167357339453e+01
1.486426829809e+01
2.320031156955e+01
2.391979201215e+01
1.724842225860e+01
4.221658643402e+00
-1.252537872352e+01
2.039855124126e+01
1.959136034222e+01
1.878529558250e+01
2.006817953769e+01
1.610399892180e+01
6.512053919035e+00
2.081958466119e+01
2.229122120978e+01
7.593384481338e+00
2.293012267086e+01
2.270530821141e+01
1.803233891382e+01
2.212922029257e+01
2.090781212123e+01
2.254765668181e+01
2.261858577801e+01
1.000894581886e+01
2.096073898810e+01
1.574375784583e+01
2.076988314500e+01
7.057562453200e+00
1.799153365343e+01
2.723103515621e+01
1.800904713810e+01
1.836806947878e+01
1.117499660773e+01
1.027578561012e+01
2.065510456457e+01
1.884460358283e+01
2.543734339601e+01
1.476505060803e+01
1.804575800963e+01
1.872597227104e+01
2.138313535125e+01
1.899059101346e+01
2.076031647612e+01
2.928998206287e+00
-1.425673193263e+01
2.157530318259e+01
2.016488464771e+01
2.443854899755e+01
1.875867334651e+01
2.507039407702e+01
3.552421948078e+00
-1.210067793566e+01
2.071725197562e+01
1.802434809873e+01
1.855190844094e+01
4.907523560765e+00
1.513149912898e+01
2.173834329196e+01
-7.900549380846e-01
1.808842838565e+01
2.179233091734e+01
1.842519589830e+01
2.161994332899e+01
1.651370755593e+01
2.192781672242e+01
2.256533337518e+01
4.248703743005e+00
1.856762772421e+01
1.699392443173e+01
6.628049231882e+00
1.858027071094e+01
1.654983609620e+01
4.130086217316e+00
2.061763044409e+01
6.541300456852e+00
1.003704783964e+01
1.982167453909e+01
1.961473362896e+01
1.676827538521e+01
1.281987808579e+01
1.033157819663e+01
1.359312970634e+01
2.214425535725e+01
1.829533751635e+01
1.233831177588e+01
2.557541493611e+01
1.952920023589e+01
1.899342975333e+01
2.099829058826e+01
2.270352217522e+01
2.501487640845e+01
1.993804968908e+01
-1.416424945072e+01
2.103919200765e+01
1.921903207751e+01
-2.082720523922e+01
-3.291569683760e+01
-1.206838733817e+01
-1.865212053235e+01
-4.222848665640e+00
-4.712715257752e+00

SCALARS node_materi_stress_average_a_sig float
LOOKUP_TABLE default
-3.374641752724e+00
-4.239854674069e+01
-2.410593090519e+02
-1.551540503668e+02
-1.024905325929e+01
-2.230160775016e+01
-3.420438236685e+01
-4.751390311504e+01
-6.028561706913e+01
-7.291299179798e+01
-8.542085071234e+01
-9.784676625452e+01
-1.102409193699e+02
-1.226863061718e+02
-1.354065885474e+02
-1.478655379943e+02
-1.591990414881e+02
-1.715900449892e+02
-1.843340449909e+02
-1.967149763880e+02
-2.091835984631e+02
-2.217571133002e+02
-2.338002807297e+02
-1.558135794513e+02
-1.551592596996e+02
-1.554095172631e+02
-1.555113504363e+02
-1.553998569189e+02
-1.560524836082e+02
-1.567673954959e+02
-1.570023836196e+02
-1.582136576124e+02
-1.589329167796e+02
-1.596992998713e+02
-1.612808012106e+02
-1.633788085447e+02
-1.648188999502e+02
-1.669725190106e+02
-1.689146704262e+02
-1.718308959771e+02
-1.758595199358e+02
-1.796701953186e+02
-1.837593139518e+02
-1.878251078417e+02
-1.922057276260e+02
-1.966096679710e+02
-2.010984780908e+02
-2.057262785257e+02
-2.102874240388e+02
-2.145303971221e+02
-2.185412599827e+02
-2.220931507480e+02
-2.259420688035e+02
-2.287977053779e+02
-2.309226178565e+02
-2.334454367816e+02
-2.355494802041e+02
-2.373102577777e+02
-2.387364167593e+02
-2.397546545342e+02
-2.404228211588e+02
-2.407766325355e+02
-2.408974593263e+02
-2.413461635305e+02
-2.420201590860e+02
-2.422288398128e+02
-2.405390017442e+02
-2.418496974224e+02
-2.412155222560e+02
-2.414866811060e+02
-2.418316228436e+02
-2.417148250970e+02
-5.465505037442e+01
-6.663747107410e+01
-7.855282137212e+01
-9.014450032508e+01
-1.019419009637e+02
-1.138440837814e+02
-1.254168609367e+02
-1.367962995029e+02
-1.486638717694e+02
-5.686758346767e+01
-4.831491747441e+01
-3.173490725519e+01
-2.901602620305e+01
-2.751965003423e+01
-2.525773565914e+01
-2.406006611078e+01
-2.385665544518e+01
-2.376624567828e+01
-2.372752495850e+01
-3.558402886388e+01
-1.061894096270e+01
-1.817926807918e+01
-3.008365696728e+01
-4.089230891950e+01
-4.167630107562e+01
-4.169855964214e+01
-4.163806122005e+01
-4.340537568083e+01
-4.203463392828e+01
-4.214157074143e+01
-4.240797660223e+01
-4.291122510297e+01
-4.320189318608e+01
-4.364249065933e+01
-4.415417155646e+01
-4.500706729826e+01
-4.616979346085e+01
-7.850995378612e+01
-8.856153801060e+01
-9.018828732423e+01
-8.172853894954e+01
-5.122595286393e+01
-2.184621512357e+01
-1.136626681191e+01
-7.998966041328e+00
-6.317337133034e+00
-5.632500781654e+00
-5.194276117773e+00
-4.998324721737e+00
-4.552653266688e+00
-3.903018218086e+00
-3.669275150774e+00
-3.518539014775e+00
-3.325696890323e+00
-3.009702631238e+00
-2.713271728155e+00
-1.250673331372e+01
-1.229717262969e+01
-1.103315835001e+01
-1.019180724380e+01
-1.002143533686e+01
-1.003957959646e+01
-1.021286282300e+01
-1.043111741688e+01
-1.067065755697e+01
-1.091358593743e+01
-1.113907931668e+01
-1.132943804090e+01
-1.149813535039e+01
-1.163344888221e+01
-1.173417666420e+01
-1.178702155498e+01
-1.179050051093e+01
-1.152602680760e+01
-1.048690741921e+01
-1.811734488072e+01
-1.794652067307e+01
-1.789752267768e+01
-1.787472713627e+01
-1.784515594257e+01
-1.779720725249e+01
-1.774674739746e+01
-1.767563523936e+01
-1.760542054215e+01
-1.755182330375e+01
-1.752304653079e+01
-1.754643902772e+01
-1.765931345927e+01
-1.789753307892e+01
-1.847970311032e+01
-2.036155903988e+01
-1.914283746142e+01
-3.240754190451e+01
-3.366004813341e+01
-3.200082186525e+01
-3.141221534802e+01
-3.101019098072e+01
-3.073287347573e+01
-3.049918264714e+01
-3.034956440955e+01
-3.032259195097e+01
-3.021865348576e+01
-3.015709937776e+01
-3.012437205460e+01
-3.009387093547e+01
-3.005066669981e+01
-3.014190169097e+01
-3.017603290683e+01
-3.748545440349e+01
-3.024366315305e+01
-2.800388014958e+01
-2.691026232635e+01
-2.535673070416e+01
-2.396583615794e+01
-2.504520959577e+01
-2.102126786580e+01
-3.108601053587e+01
-4.316080258401e+01
-3.446815735071e+01
-2.283173210348e+02
-1.202827167226e+01
-6.393763303104e+01
-2.346502062626e+02
-3.099642772386e+01
-1.295359914669e+02
-2.171958520728e+02
-2.966264791460e+01
-2.026021057438e+02
-3.559037608466e+01
-2.368680120040e+02
-8.695644029509e+00
-1.853765895336e+02
-5.567967327918e+01
-7.979545960686e+01
-1.634445510691e+02
-1.734133810274e+02
-1.619314575687e+02
-1.516226106478e+02
-1.524477001729e+02
-1.568588775768e+02
-5.795532744121e+01
-5.463843852872e+01
-5.441894617715e+01
-9.615108501469e+01
-2.361773840486e+02
-7.660989467080e+01
-8.465985635805e+00
-2.025130104911e+02
-5.236985881810e+01
-4.080405942017e+01
-1.649638200336e+02
-2.111433666720e+02
-1.939219800694e+02
-2.222023026857e+02
-2.321532544259e+02
-2.359127425202e+01
-5.548997419338e+01
-2.336820978256e+02
-1.193177784572e+02
-1.031960353361e+01
-1.041300727252e+02
-1.527420182704e+02
-3.111483774650e+01
-3.232882859803e+01
-3.194607114858e+01
-4.460550274952e+01
-3.948464085074e+01
-7.360889867506e+01
-2.381059171097e+02
-7.768604607136e+00
-1.420186881397e+02
-6.107418211677e+01
-6.810353349972e+01
-7.266453862345e+01
-8.107229982540e+01
-8.611651626615e+01
-9.367072308333e+01
-8.901026238932e+01
-1.015381635553e+02
-9.707293623625e+01
-9.879271193051e+01
-1.095377884786e+02
-1.053242640800e+02
-1.176820377785e+02
-1.137134868845e+02
-1.013949209769e+02
-1.099858634692e+02
-9.770479838254e+01
-1.065027616911e+02
-1.185969421258e+02
-1.152588059214e+02
-1.032379547384e+02
-1.120690058302e+02
-1.002267636624e+02
-1.090953656934e+02
-9.744533083273e+01
-1.062937226881e+02
-1.177970656752e+02
-1.149082402761e+02
-1.036355014978e+02
-1.121272481200e+02
-1.011197337794e+02
-1.094305132784e+02
-1.203883332557e+02
-1.174937629507e+02
-1.067733959200e+02
-1.146147401761e+02
-1.041539413811e+02
-1.117501535290e+02
-1.015595715309e+02
-1.088302139237e+02
-1.190577997225e+02
-1.158229538042e+02
-1.058543432480e+02
-1.124358861674e+02
-1.225559578204e+02
-1.187474970030e+02
-1.290601389392e+02
-1.248475370875e+02
-1.147593827877e+02
-1.204198371524e+02
-1.307762759998e+02
-1.259379107181e+02
-1.157230497313e+02
-1.208629067661e+02
-1.313982837538e+02
-1.259944310390e+02
-1.154911206922e+02
-1.203312695783e+02
-1.312025500974e+02
-1.252514143327e+02
-1.143600762686e+02
-1.190660320609e+02
-1.302985028429e+02
-1.239025367708e+02
-1.354197919140e+02
-1.125490581904e+02
-1.172769729818e+02
-1.057498672579e+02
-1.104696052565e+02
-1.284358452568e+02
-9.876802193186e+01
-9.437558825104e+01
-1.035155237596e+02
-1.154175672860e+02
-9.162267242540e+01
-9.643263970136e+01
-8.435871484679e+01
-9.378501441619e+01
-1.272186553899e+02
-8.925440799335e+01
-7.700703866231e+01
-7.219009316424e+01
-6.468294798538e+01
-9.155195906144e+01
-1.037944030639e+02
-9.631421912732e+01
-1.088235636529e+02
-1.018426506293e+02
-6.960882957983e+01
-1.219336324681e+02
-1.159992971716e+02
-9.116710751166e+01
-9.252373057225e+01
-1.330975127172e+02
-1.014046760555e+02
-9.430999561136e+01
-1.065064433359e+02
-1.417687926570e+02
-1.470959761638e+02
-1.534354287014e+02
-1.589208384415e+02
-1.652829051795e+02
-1.708933182283e+02
-1.643923913452e+02
-1.764677477656e+02
-1.698540114706e+02
-1.772987381842e+02
-1.714983957816e+02
-1.820076720620e+02
-1.753014225235e+02
-1.875171393420e+02
-1.807336528183e+02
-1.685188692244e+02
-1.738839112385e+02
-1.617180100482e+02
-1.397780542401e+02
-1.440180875698e+02
-1.508615029168e+02
-1.552918857227e+02
-1.622894166967e+02
-1.668817426137e+02
-1.740165537810e+02
-1.691276472957e+02
-1.259203218385e+02
-1.027630688397e+02
-9.632869733721e+01
-9.360857389049e+01
-8.733844379176e+01
-8.505799011277e+01
-7.895648388530e+01
-7.725284661336e+01
-8.260347563310e+01
-7.570138724244e+01
-7.983957925476e+01
-7.376595807158e+01
-7.652650159782e+01
-1.263308723224e+02
-1.595780726952e+02
-1.713489482686e+02
-1.637017776151e+02
-5.988173542329e+01
-1.861583418684e+02
-1.835933166198e+02
-1.775586158398e+02
-1.810138750208e+02
-5.726866499591e+01
-7.145803095982e+01
-7.227082636322e+01
-1.139544609197e+02
-1.071792764299e+02
-1.898013785485e+02
-6.228699119885e+01
-1.886578360229e+02
-7.043361311948e+01
-1.792623252798e+02
-1.915625874362e+02
-1.578158112603e+02
-1.756979901736e+02
-1.677136741193e+02
-8.378406716687e+01
-7.935451804167e+01
-7.241151226277e+01
-7.449223385397e+01
-8.250492854207e+01
-7.661507798342e+01
-6.825130312194e+01
-6.986295244255e+01
-7.944410489502e+01
-7.242670992748e+01
-6.228629805461e+01
-6.478699863301e+01
-1.984365561302e+02
-6.899555823582e+01
-8.888014678936e+01
-1.958553813051e+02
-1.859232975362e+02
-1.191707326544e+02
-1.126126944050e+02
-1.005182202949e+02
-1.062117812398e+02
-1.181499807249e+02
-1.119275324745e+02
-9.993305629243e+01
-1.058051724850e+02
-9.377542437624e+01
-9.979215912865e+01
-1.117077658283e+02
-1.058485735842e+02
-9.389985530900e+01
-1.000594712192e+02
-8.807537121835e+01
-9.430801865816e+01
-1.062533372936e+02
-5.023062133544e+01
-1.758425916972e+02
-1.879711609150e+02
-9.979783770645e+01
-1.115272089965e+02
-1.186264683731e+02
-1.239726021156e+02
-1.005281912106e+02
-1.124312640685e+02
-6.493224552363e+01
-6.502488489464e+01
-1.258765596277e+02
-1.846741690122e+02
-1.723874226316e+02
-9.032340081866e+01
-8.158007233787e+01
-7.972442506976e+01
-7.066437012235e+01
-7.244082184189e+01
-6.916322680232e+01
-1.655196789080e+02
-1.176811464473e+02
-6.760210268830e+01
-5.538405053922e+01
-1.969730248543e+02
-1.640558620867e+02
-1.294033702209e+02
-1.379157469225e+02
-1.411565840753e+02
-1.496884070558e+02
-1.530255423291e+02
-1.615586199510e+02
-1.581382854488e+02
-1.799033574119e+02
-1.700502544150e+02
-8.847789779548e+01
-1.519777179691e+02
-8.284922871159e+01
-4.491357668183e+01
-5.328983131828e+01
-5.482844512360e+01
-6.740060109289e+01
-2.022066536282e+02
-1.649150815938e+02
-1.562479690836e+02
-6.138688937197e+01
-6.300055293170e+01
-1.879451834257e+02
-8.948205222467e+01
-8.781837360748e+01
-8.156747327626e+01
-4.127816994793e+01
-5.142357978181e+01
-1.237640720823e+02
-7.329620521089e+01
-6.558652237111e+01
-6.633540288331e+01
-6.656880261229e+01
-1.066719414650e+02
-1.184652936881e+02
-1.308485478343e+02
-1.361414663223e+02
-1.959366438452e+02
-5.667917644784e+01
-1.242632114513e+02
-1.704968592950e+02
-1.588201229968e+02
-1.168746336113e+02
-5.763659516883e+01
-5.871368905575e+01
-8.946191116236e+01
-6.823065614205e+01
-6.005008376063e+01
-2.084221457373e+02
-1.298663408482e+02
-1.665463219296e+02
-1.546023803916e+02
-1.787158064826e+02
-4.471796291522e+01
-2.084548066856e+02
-1.901031605155e+02
-1.676302351478e+02
-1.594874556620e+02
-7.442521674369e+01
-6.650153773340e+01
-5.752561362965e+01
-5.812302394535e+01
-8.435628933106e+01
-7.586565272093e+01
-8.517804612989e+01
-7.605201673275e+01
-7.251068628816e+01
-7.432729197220e+01
-6.476935330474e+01
-8.946842387314e+01
-1.369553065711e+02
-1.256200041376e+02
-1.564298523544e+02
-1.479175527825e+02
-1.234129965556e+02
-1.293772045305e+02
-8.183714502044e+01
-7.601262474498e+01
-4.741151772490e+01
-4.289944706210e+01
-1.406203635151e+02
-2.017684892719e+02
-1.307823656802e+02
-1.374301086638e+02
-1.326654655675e+02
-2.018220347317e+02
-9.951549948491e+01
-1.462716132849e+02
-6.687848859823e+01
-1.315577006252e+02
-3.483120538983e+01
-1.305793798006e+02
-2.024683284311e+02
-2.092440406400e+02
-1.921610631832e+02
-6.335706265938e+01
-1.396064481484e+02
-1.362973317241e+02
-6.307454800350e+01
-5.963206668142e+01
-6.945970235485e+01
-5.706382275707e+01
-9.330486243928e+01
-8.653715347871e+01
-1.776889410900e+02
-1.819497636348e+02
-1.709857508428e+02
-1.630801612747e+02
-2.003588810646e+02
-1.956602198231e+02
-7.220699133575e+01
-5.332236821908e+01
-1.354111490192e+02
-6.698669268926e+01
-2.141386002643e+02
-2.076061105408e+02
-6.723214443400e+01
-6.258101333841e+01
-1.303882281030e+02
-4.910605913358e+01
-4.913906596265e+01
-4.911856013691e+01
-2.275958176447e+02
-5.200414219158e+01
-2.148539299670e+02
-7.653218883949e+01
-1.362293240776e+02
-1.476048400595e+02
-8.805982041740e+01
-1.894606540803e+02
-1.240056323952e+02
-1.367414891027e+02
-7.551215745838e+01
-6.893637845924e+01
-8.150679527776e+01
-6.571299080279e+01
-6.103932424677e+01
-1.236204213053e+02
-8.714870836883e+01
-9.353172512800e+01
-5.999664140181e+01
-7.167611653138e+01
-1.376965249269e+02
-1.324907132462e+02
-1.391555396156e+02
-1.425266960028e+02
-1.325509524344e+02
-1.650257122746e+02
-1.534469083211e+02
-1.475155723412e+02
-1.347050092891e+02
-1.419891200225e+02
-9.958070817537e+01
-9.549839570850e+01
-9.726271147232e+01
-1.414382229071e+02
-2.214018753848e+02
-2.159589286406e+02
-3.025960586575e+01
-3.844539981348e+01
-5.058307534878e+01
-5.239068644655e+01
-1.438692704216e+02
-1.398092296270e+02
-1.496288531954e+02
-6.414945874942e+01
-1.628889920858e+02
-2.138786443561e+02
-2.070056146542e+02
-2.220638359910e+02
-1.837941540523e+02
-1.959125787788e+02
-1.908176677113e+02
-7.082779893865e+01
-1.325288632295e+02
-6.908959731413e+01
-7.320294929630e+01
-6.337069048608e+01
-7.013040053856e+01
-5.695964741247e+01
-5.183759897745e+01
-6.716257435264e+01
-7.552428754101e+01
-2.366052055475e+01
-1.464840468399e+02
-2.273652278330e+01
-2.736270487285e+01
-2.200396111118e+02
-2.132456365094e+02
-2.253131733167e+02
-2.184284757566e+02
-2.064643659094e+02
-2.121969779334e+02
-6.245832802507e+01
-2.258805156632e+02
-2.180485186450e+02
-2.316215448349e+02
-4.664081771618e+01
-5.877916879239e+01
-4.952861662300e+01
-3.920159396154e+01
-1.760605138915e+02
-1.656027841853e+02
-1.959379195756e+02
-1.835063913451e+02
-6.365042523310e+01
-6.286837114757e+01
-7.381308552305e+01
-7.220504679595e+01
-8.314693815464e+01
-8.142904789253e+01
-9.255695648331e+01
-1.940316105820e+02
-4.059559875952e+01
-5.371500837294e+01
-2.081362018846e+02
-2.023003459214e+02
-5.481360305805e+01
-4.307553777259e+01
-2.224794194714e+02
-8.377792186647e+01
-1.539654861066e+02
-6.296994867978e+01
-6.277993532940e+01
-8.571813764002e+01
-6.694378606290e+01
-5.978552607611e+01
-5.090119350842e+01
-1.770225124455e+02
-3.482508309884e+01
-4.967610606354e+01
-9.411085463166e+01
-4.213459981266e+01
-1.900243968361e+02
-9.160713538624e+01
-8.583583051435e+01
-5.730957492871e+01
-6.781735435996e+01
-9.282130389096e+01
-7.614315670680e+01
-7.151268896341e+01
-9.894583633017e+01
-5.180649898605e+01
-3.978115236557e+01
-9.425742898811e+01
-1.279967711659e+02
-1.351929064481e+02
-1.465345625962e+02
-1.426426360122e+02
-1.308850308072e+02
-1.385293528286e+02
-1.500373248186e+02
-1.467496586983e+02
-1.601574909530e+02
-1.547027069298e+02
-1.424005022218e+02
-1.501729525847e+02
-1.616678724193e+02
-1.381675200218e+02
-2.128516600866e+02
-9.614024153940e+01
-6.605677189220e+01
-5.579916386282e+01
-8.836343168548e+01
-1.696660205915e+02
-1.639604259446e+02
-8.056487414143e+01
-1.894765028270e+02
-8.007404085988e+01
-7.093209891612e+01
-1.982868419747e+02
-1.233545193186e+02
-1.186558985761e+02
-1.111268676330e+02
-1.603392858996e+02
-8.809356646240e+01
-2.145163281020e+02
-1.480976834476e+02
-1.406239848604e+02
-1.296384359143e+02
-1.343068261869e+02
-2.260086023915e+02
-2.165736820711e+02
-2.185431133020e+02
-2.061995062723e+02
-2.302225195057e+02
-1.777822718277e+02
-1.818958582343e+02
-8.584062484115e+01
-9.156665928850e+01
-1.010078729610e+02
-9.663611096670e+01
-8.768222813728e+01
-9.215910887796e+01
-1.011065209649e+02
-8.748863517410e+01
-1.543719659150e+02
-2.333975510115e+02
-1.595958215388e+02
-1.537833300549e+02
-1.423585871860e+02
-1.204934018361e+02
-1.273345227002e+02
-1.392545136519e+02
-1.135357971604e+02
-1.463057393073e+02
-2.342772443259e+02
-1.526083159085e+02
-1.222331600776e+02
-5.665744117962e+01
-6.868341909401e+01
-7.039719218724e+01
-8.197368162266e+01
-6.867484915818e+01
-1.429471149456e+02
-1.482276868784e+02
-1.414869094876e+02
-1.535375633782e+02
-1.465409650966e+02
-1.353649584205e+02
-1.586526144689e+02
-1.508257140696e+02
-5.497054789196e+01
-3.980107015479e+01
-4.219255575645e+01
-3.307350519978e+01
-4.738504819223e+01
-5.458137328745e+01
-5.931962971255e+01
-6.273812718012e+01
-5.472743912480e+01
-1.738748231187e+01
-2.808586361080e+01
-1.378096127991e+01
-2.465270742971e+01
-3.941919364224e+01
-5.136785980492e+01
-2.345299203007e+02
-1.163806299141e+02
-1.104369743180e+02
-9.857019308339e+01
-1.050896353599e+02
-1.212371237097e+02
-9.192992612144e+01
-8.756231043473e+01
-8.286848314249e+00
-1.827442471078e+01
-1.719245887025e+01
-2.898429128253e+01
-2.897662068740e+01
-1.866540159748e+01
-1.887119293754e+01
-8.569827137061e+00
-1.905939560392e+01
-2.999915576009e+01
-8.515580842580e+00
-1.080303277468e+02
-1.144031450802e+02
-2.348099126920e+02
-5.526895555231e+01
-1.126157300868e+01
-1.494685420906e+02
-1.527185807498e+02
-1.523473273569e+02
-2.151621585143e+02
-2.213599968947e+02
-1.493285916542e+02
-7.963096904593e+01
-1.540529846599e+02
-1.296429940564e+02
-6.533934989392e+01
-7.936605878716e+01
-1.778304902512e+02
-1.631775885147e+02
-2.037891764877e+02
-1.670435439927e+02
-1.930003580299e+02
-2.195277722748e+02
-4.785328073772e+01
-8.770413517825e+01
-8.231139365964e+01
-1.119319533234e+02
-8.195963268308e+01
-1.297561240027e+02
-5.222961745652e+01
-1.865710613706e+02
-8.189779173756e+01
-1.364599443779e+02
-1.084678332026e+02
-8.706871614862e+01
-7.572751518862e+01
-9.865506563823e+01
-1.289015211015e+02
-1.830065596549e+02
-1.180335880429e+02
-1.086036309622e+01
-1.894724741345e+02
-1.524463379855e+02
-9.406797345423e+01
-1.787468108931e+02
-6.102475179064e+01
-1.176852376113e+02
-1.416735877771e+02
-8.222469243738e+01
-3.966891397877e+01
-7.530826499842e+01
-2.147851718956e+02
-1.208811009905e+02
-7.469351884134e+01
-1.353699012509e+02
-9.488344395106e+01
-4.994812393512e+01
-1.348579630947e+02
-1.253093382064e+02
-1.931481589615e+02
-1.575321974463e+02
-7.996207606355e+01
-2.009511192402e+02
-1.261912480487e+02
-1.294177184467e+02
-1.444155651857e+02
-1.088865218542e+02
-1.243941523155e+02
-1.368389632123e+02
-1.833949554669e+02
-7.903469719277e+01
-1.207808561173e+02
-1.221237015467e+02
-1.233243377440e+02
-1.710648670494e+02
-1.952561984992e+02
-7.110081870410e+01
-7.781179158258e+01
-9.488129373635e+01
-1.732282347966e+02
-1.408927295328e+02
-8.359544697416e+01
-1.942390085853e+02
-1.356842107180e+02
-1.340381637223e+02
-5.494630629092e+01
-6.016832920499e+01
-9.071188769263e+01
-1.221954324769e+02
-1.458910804980e+02
-1.524246680291e+02
-1.997741691628e+02
-1.835484145742e+02
-3.636809155829e+01
-5.832689783673e+01
-2.053037147368e+02
-1.415122836599e+02
-1.906929922773e+02
-1.392439604383e+02
-1.904177844778e+02
-4.453761635984e+01
-2.109485799927e+02
-1.826234259210e+02
-8.214302760281e+01
-5.242121735407e+01
-2.250360419788e+02
-1.950387768986e+02
-1.347093488236e+02
-1.365607352467e+02
-3.948409531005e+01
-1.511794253884e+02
-1.239211127519e+02
-1.586670809919e+02
-2.000772588762e+02
-1.062086888367e+02
-1.444597897647e+02
-1.556789602026e+02
-2.929392989633e+01
-4.971109428166e+01
-1.496971781028e+02
-9.602914271970e+01
-1.422618698842e+02
-2.042912564466e+02
-1.549832433063e+02
-1.051466145262e+02
-1.602830571056e+02
-3.249238806261e+01
-1.140209107902e+02
-1.655874118317e+02
-1.358093664262e+02
-3.142238599081e+01
-1.429407467054e+02
-2.085297849697e+02
-1.013614122610e+02
-1.479599310973e+02
-1.264104992436e+02
-3.028848073926e+01
-1.594436493049e+02
-1.477184638155e+02
-1.510655493098e+02
-1.329894718742e+02
-1.713193250184e+02
-4.188055087515e+01
-7.532670750686e+01
-6.353318238156e+01
-1.105270053054e+02
-1.510692894991e+02
-3.961959884168e+01
-1.300680092813e+02
-4.766186734127e+01
-1.059770858676e+02
-1.715696780675e+02
-8.514993537485e+01
-1.107436814022e+02
-6.746723947330e+01
-1.053666226157e+02
-1.441314397246e+02
-1.098202267666e+02
-1.037611102333e+02
-1.411235823626e+02
-1.080715927212e+02
-1.513690076279e+02
-2.352380305480e+02
-6.150173046071e+01
-2.799627376233e+01
-7.987289037543e+01
-4.230967809031e+01
-9.035742603386e+01
-1.341762999562e+02
-6.201729066538e+01
-8.307847910490e+01
-1.666996744657e+02
-2.071209551754e+02
-1.023088638998e+02
-1.975580041270e+02
-1.594217770957e+02
-1.299105372047e+02
-5.198782502184e+01
-2.303745832735e+01
-1.773795441451e+02
-2.870404658475e+01
-4.022550465593e+01
-4.118066931071e+01
-8.407637865019e+01
-4.137402519644e+01
-3.176113417092e+01
-2.137515841751e+02
-6.435880013576e+01
-1.749997504420e+02
-3.312792031120e+01
-1.467292767487e+02
-2.011420771627e+02
-2.364510751678e+02
-1.874917443905e+02
-4.375006883587e+01
-7.818927406612e+01
-1.823176244987e+02
-1.118330304585e+02
-2.374319927434e+02
-6.417902187187e+01
-1.420848533124e+02
-6.731993061325e+01
-1.419533477354e+02
-1.462473215905e+02
-7.700660162668e+01
-8.041232073922e+01
-2.272156925936e+02
-1.597742283674e+02
-4.749745068757e+01
-1.018959461313e+02
-1.053288347141e+02
-6.566810782068e+01
-2.249849637978e+02
-1.574501626442e+02
-2.264056051913e+02
-2.848594268990e+01
-1.922799207221e+01
-2.256389068671e+02
-1.749292113569e+02
-6.740202989935e+01
-1.563770284843e+02
-5.221843077900e+01
-5.116964614170e+01
-1.843606462380e+01
-2.371626249725e+02
-1.444951496673e+02
-1.159149442434e+02
-5.973277367320e+01
-7.598134154357e+01
-1.836620868643e+02
-3.330359949894e+01
-1.446411674355e+02
-2.241946046369e+02
-1.537306894753e+02
-2.234811777753e+02
-7.196459446429e+01
-2.010445975146e+02
-2.103814167113e+02
-5.161445836498e+01
-1.562058011276e+02
-9.403600606585e+01
-3.976683941734e+01
-1.524513389285e+02
-6.497503134385e+00
-5.068690644383e+01
-2.379113691529e+02
-3.741202523015e+01
-7.031723585599e+01
-1.718798394566e+02
-1.423473269925e+02
-1.232875959166e+02
-5.189644869077e+01
-7.932794378515e+01
-9.140337356450e+01
-2.066392691653e+02
-1.509776016268e+02
-8.345686269302e+01
-5.458575971942e+01
-1.667063530246e+02
-1.253780911046e+02
-1.770569966344e+02
-2.071456727615e+02
-4.783824603965e+01
-1.530593465026e+02
-1.743023713780e+01
-2.284887090215e+02
-1.305666830541e+02
-1.319451801025e+01
-1.193309664836e+01
-2.707662594359e+01
-2.450821074390e+01
-3.996940806455e+01
-3.570648733883e+01

SCALARS node_materi_stress_size_dev_sd_sig float
LOOKUP_TABLE default
6.381843380885e+00
2.191317818327e+01
1.827092557406e+02
1.167806281909e+02
1.314208865710e+01
2.238008815480e+01
3.018076994444e+01
3.951398605986e+01
4.877241234871e+01
5.801470683431e+01
6.750123896869e+01
7.715472777237e+01
8.684680309277e+01
9.669739039730e+01
1.067697311641e+02
1.161741034434e+02
1.246067892095e+02
1.339414267606e+02
1.432594279721e+02
1.521152569045e+02
1.609109807450e+02
1.696493706655e+02
1.778784354724e+02
1.174579991496e+02
1.170699737172e+02
1.172879575850e+02
1.174590262345e+02
1.172888858426e+02
1.178875928519e+02
1.183242758962e+02
1.188375610273e+02
1.198824275388e+02
1.207742282455e+02
1.214239058448e+02
1.231214097261e+02
1.249284699745e+02
1.267877183224e+02
1.287493342784e+02
1.310235959728e+02
1.338054400153e+02
1.373680515721e+02
1.410912169652e+02
1.449021529863e+02
1.485421768466e+02
1.520848782657e+02
1.557605198903e+02
1.592451618766e+02
1.626613189639e+02
1.658876081708e+02
1.688660071151e+02
1.714762317010e+02
1.737490329890e+02
1.759618142916e+02
1.777909635491e+02
1.789984546399e+02
1.803184429574e+02
1.814253801168e+02
1.823249590281e+02
1.829426366913e+02
1.834198895215e+02
1.836123464979e+02
1.836694213625e+02
1.835760320470e+02
1.836599695976e+02
1.838845346567e+02
1.838864884312e+02
1.828055993662e+02
1.834081698536e+02
1.829882933497e+02
1.830838767384e+02
1.832785082736e+02
1.832014183265e+02
3.081512966728e+01
4.011588279283e+01
4.947231763550e+01
5.888012043304e+01
6.872910489037e+01
7.874560465230e+01
8.899269074219e+01
9.937815117724e+01
1.101607626388e+02
4.615205207576e+01
2.193502627732e+01
4.663991330682e+01
4.206216917401e+01
3.920497219202e+01
3.575096960026e+01
3.317175880484e+01
3.176022246928e+01
2.550849001867e+01
1.543666925471e+01
1.599411123262e+01
8.537278953442e+00
7.589431949465e+00
1.319703497902e+01
2.063860475441e+01
2.107520906649e+01
2.106831453528e+01
2.090992752725e+01
2.196732041743e+01
2.088403471265e+01
2.067561538439e+01
2.067284215575e+01
2.075161701479e+01
2.060134848167e+01
2.044492883997e+01
2.035414996184e+01
2.041374385723e+01
2.079101872836e+01
3.625326906243e+01
3.338225074473e+01
3.389660915157e+01
3.394147481049e+01
3.363780129387e+01
2.144707523041e+01
7.742142704198e+00
4.289688412520e+00
3.810323346593e+00
3.648292275782e+00
3.911604857204e+00
4.670571635809e+00
4.880493574895e+00
4.787253326734e+00
5.305983319676e+00
5.850478924907e+00
6.168919072871e+00
6.086464019388e+00
5.685844558252e+00
1.545097466052e+01
8.648434089122e+00
5.969602804336e+00
5.122940578990e+00
4.994443934574e+00
5.071055894827e+00
5.275411430992e+00
5.548515406309e+00
5.855070009974e+00
6.176808422510e+00
6.467298055032e+00
6.709850120597e+00
6.938115480946e+00
7.126620081522e+00
7.269738892214e+00
7.368380101366e+00
7.429964981118e+00
7.683952883987e+00
8.747027727327e+00
7.468109725744e+00
7.380572913842e+00
7.351725606951e+00
7.325706223069e+00
7.304527785257e+00
7.270792309133e+00
7.234117036601e+00
7.189908147501e+00
7.153266251374e+00
7.113727377700e+00
7.083715587483e+00
7.079395695162e+00
7.113714308658e+00
7.234082911320e+00
7.561504596495e+00
8.842606673361e+00
1.028413275360e+01
1.337548235646e+01
1.392082569583e+01
1.318042284931e+01
1.307106813472e+01
1.306869223248e+01
1.309498896262e+01
1.308575305715e+01
1.309492909577e+01
1.313535323990e+01
1.314035077328e+01
1.314302141947e+01
1.314837293494e+01
1.316359886518e+01
1.313563923277e+01
1.321422229575e+01
1.331604457203e+01
5.183506555592e+01
4.394951621206e+01
4.042418830735e+01
3.756468035752e+01
3.568011611268e+01
3.312051690646e+01
3.149709848883e+01
1.951352389905e+01
1.551705887345e+01
1.901175001473e+01
4.418188941375e+01
1.789268077401e+02
7.209589796988e+00
4.103074327579e+01
1.812402830138e+02
3.808706900328e+01
1.021523649432e+02
1.721554597004e+02
3.508842722320e+01
1.610037705982e+02
2.452549474967e+01
1.810518016111e+02
9.222499053780e+00
1.458087204829e+02
2.691453104606e+01
6.319186633141e+01
1.280053666344e+02
1.337215951633e+02
1.222158260366e+02
1.129664130082e+02
1.131434041874e+02
1.173089496904e+02
2.837452637512e+01
2.829294851893e+01
2.939751415226e+01
6.378951799241e+01
1.799317666515e+02
4.142644639944e+01
1.086988517054e+01
1.562724931122e+02
2.883413326630e+01
3.480739394289e+01
1.252352686214e+02
1.676127656526e+02
1.536359575875e+02
1.756486278432e+02
1.806460022904e+02
1.984050965833e+01
2.776983793928e+01
1.799959413511e+02
8.365741782148e+01
8.545615637429e+00
8.210914863722e+01
1.142031593733e+02
3.712200255043e+01
4.090919260737e+01
3.240276243653e+01
2.271939854857e+01
5.075246775436e+01
4.544164712320e+01
1.809743315602e+02
1.075518033452e+01
1.041615617382e+02
3.003773450511e+01
3.567809585135e+01
3.850205059735e+01
4.577784498827e+01
4.914023173170e+01
5.606910788304e+01
5.320724586562e+01
6.372735800336e+01
6.142410929084e+01
5.966325463382e+01
7.201033017897e+01
7.021721368452e+01
8.074297963441e+01
7.938448598656e+01
6.930716149770e+01
7.880291445015e+01
6.918225417061e+01
7.890599704127e+01
8.830050179053e+01
8.851038048619e+01
7.956344123814e+01
8.913415870881e+01
8.057463366521e+01
9.002146977496e+01
8.173792178426e+01
9.102496987276e+01
9.917452287526e+01
9.999604902238e+01
9.204669396876e+01
1.008013097069e+02
9.299044270887e+01
1.014932338920e+02
1.091222321101e+02
1.095171056225e+02
1.020013383005e+02
1.097092761947e+02
1.023021747178e+02
1.096546879276e+02
1.023690540984e+02
1.092567227595e+02
1.162526322094e+02
1.153164875653e+02
1.084595452989e+02
1.138234678669e+02
1.205618967140e+02
1.183194949129e+02
1.250457170960e+02
1.220693925327e+02
1.153368094188e+02
1.183002459088e+02
1.252170510823e+02
1.207605585310e+02
1.136393130028e+02
1.154854175006e+02
1.229351502564e+02
1.172081968391e+02
1.093812119161e+02
1.107945522957e+02
1.189910569215e+02
1.123818212925e+02
1.037424727157e+02
1.053079001856e+02
1.142268256036e+02
1.071921614392e+02
1.162908940900e+02
9.782722384523e+01
9.992862945574e+01
9.013769350026e+01
9.259174077598e+01
1.169363665654e+02
8.249482614478e+01
8.010044495148e+01
8.535556190942e+01
9.539838716634e+01
7.507846822051e+01
7.833896661067e+01
6.803105209710e+01
9.456822448109e+01
9.768998249494e+01
7.164489824519e+01
6.142901754548e+01
5.759076344785e+01
5.121488254469e+01
5.326686950991e+01
6.381665441322e+01
5.739908994261e+01
6.833173090636e+01
6.239043579962e+01
5.525864193839e+01
8.294199642944e+01
7.481970841194e+01
7.086403233144e+01
8.408724725325e+01
1.273343278356e+02
8.176566277027e+01
7.536426729535e+01
8.537709883002e+01
1.229384481150e+02
1.251242432771e+02
1.314069599579e+02
1.336834230444e+02
1.396229644420e+02
1.419772852282e+02
1.360762802628e+02
1.444243183537e+02
1.385976948159e+02
1.475860807109e+02
1.451975224974e+02
1.469767697217e+02
1.412469868648e+02
1.496433060448e+02
1.440255849057e+02
1.353674532557e+02
1.382893640141e+02
1.294464237561e+02
1.318181258588e+02
1.341318874840e+02
1.386104756500e+02
1.409356000551e+02
1.453881824862e+02
1.477051557189e+02
1.520937822520e+02
1.493245375089e+02
8.976800379589e+01
1.071357318557e+02
1.015848033278e+02
1.005282129299e+02
9.470482642231e+01
9.402318096393e+01
8.779128224054e+01
8.753200591786e+01
9.265139118025e+01
8.629504033800e+01
8.990769731589e+01
8.361206671973e+01
8.535178198760e+01
1.079885270427e+02
1.427654293912e+02
1.495764860642e+02
1.441662686999e+02
4.717081771611e+01
1.469417364193e+02
1.528356776554e+02
1.503319822163e+02
1.560038038675e+02
4.545586208095e+01
8.071366641198e+01
8.011967878793e+01
7.319809578343e+01
6.746903050134e+01
1.576835892028e+02
4.958072595505e+01
1.525081080370e+02
7.992808185738e+01
1.413509393228e+02
1.500020537598e+02
1.299689367523e+02
1.510960084205e+02
1.452375981825e+02
9.181845663247e+01
8.575073228867e+01
7.860425965247e+01
7.764352015617e+01
8.539599324668e+01
7.645225958249e+01
6.743320060215e+01
6.601084587628e+01
7.579532538233e+01
6.563834626630e+01
5.425845842202e+01
5.496324625836e+01
1.553643226024e+02
7.753588073831e+01
5.947220457030e+01
1.602142309995e+02
1.585946610978e+02
7.836069852106e+01
7.282066336136e+01
6.221686871096e+01
6.773410104562e+01
7.844178920058e+01
7.338754509175e+01
6.298695568861e+01
6.860367282706e+01
5.846187228577e+01
6.405680361819e+01
7.432161939320e+01
6.976689649765e+01
5.973184095493e+01
6.535691871500e+01
5.549954065328e+01
6.098100007035e+01
7.104919871600e+01
4.033263915280e+01
1.528408844829e+02
1.595599893037e+02
7.952114963551e+01
8.896048323401e+01
9.523325882424e+01
9.883843825791e+01
6.653669682069e+01
7.682796375292e+01
7.247223690043e+01
7.134391243472e+01
8.438713851604e+01
1.445932895827e+02
1.357627179497e+02
8.507325502913e+01
7.601417418425e+01
7.693272234284e+01
6.760304563092e+01
6.675958302499e+01
6.833660128702e+01
1.427399668851e+02
8.017211677830e+01
5.388308666838e+01
4.317757333389e+01
1.532615879167e+02
1.460118778214e+02
1.074227184841e+02
1.160715584734e+02
1.158282036047e+02
1.242837689941e+02
1.243798112095e+02
1.325701672527e+02
1.322888904200e+02
1.523406088472e+02
1.403052448641e+02
5.646058045697e+01
1.371775268933e+02
7.595971753373e+01
3.604642093289e+01
4.247886123397e+01
4.413378013269e+01
5.365327126321e+01
1.647637480603e+02
1.330094591121e+02
1.246178315366e+02
5.848439914365e+01
5.751735415653e+01
1.578807262432e+02
5.195796023074e+01
5.300628400140e+01
4.871177110349e+01
3.414609042693e+01
4.242410998455e+01
8.419913213768e+01
7.930887385209e+01
7.026687122536e+01
7.378619617424e+01
7.169058839594e+01
7.200394233177e+01
8.231817423608e+01
1.049039011425e+02
1.084225746053e+02
1.621026368081e+02
4.489596773647e+01
8.727258702086e+01
1.491526389180e+02
1.421180819746e+02
9.261955587164e+01
6.316513873469e+01
6.456337415066e+01
8.510276051460e+01
5.680384748423e+01
4.821068014090e+01
1.688776107416e+02
8.948029470941e+01
1.397666451515e+02
1.320390289198e+02
1.475013953579e+02
3.287447131612e+01
1.674417258731e+02
1.480356841619e+02
1.332562398299e+02
1.251865519109e+02
7.850940630179e+01
6.944185191619e+01
6.090643424998e+01
6.018963542005e+01
5.109900261570e+01
7.788501607205e+01
5.983581334407e+01
4.996207458102e+01
5.093950195416e+01
6.549094715888e+01
5.608249088377e+01
9.490642153268e+01
1.290198533211e+02
1.016128036125e+02
1.265073082484e+02
1.292102594981e+02
8.491141623120e+01
9.094413215507e+01
5.003086950205e+01
4.585281457266e+01
3.691201241347e+01
3.268138411602e+01
1.185832828912e+02
1.627201226091e+02
8.953846311081e+01
9.588080777721e+01
9.083181483296e+01
1.659925594996e+02
1.051373718605e+02
1.357077025066e+02
7.353313597960e+01
1.167170194261e+02
2.718924867448e+01
9.792145755039e+01
1.566672585414e+02
1.616758665557e+02
1.592248572747e+02
3.331649132060e+01
1.243204035400e+02
1.241747992934e+02
4.098944846252e+01
4.259428509863e+01
5.254440123069e+01
4.485873043975e+01
8.569385323601e+01
7.685737726493e+01
1.423264480040e+02
1.482352525257e+02
1.345304262591e+02
1.263792209013e+02
1.644602054870e+02
1.627918870055e+02
5.748792545958e+01
4.853549964307e+01
9.525271071599e+01
4.036347327214e+01
1.697450582313e+02
1.652576343795e+02
6.670988968059e+01
6.583141211391e+01
9.305511498027e+01
5.179387331263e+01
5.098724479159e+01
5.268641919546e+01
1.736097358599e+02
2.873779909676e+01
1.651209761082e+02
6.399952323623e+01
9.815106944441e+01
1.314035633978e+02
8.576735125073e+01
1.592862972621e+02
8.743967686399e+01
9.917625713621e+01
4.340951567772e+01
3.911132651007e+01
4.741964881240e+01
7.422603847448e+01
6.707529113591e+01
8.604741837048e+01
6.930981665966e+01
7.433944916805e+01
4.757398335646e+01
5.893055507005e+01
1.111546641762e+02
1.080950215257e+02
1.070801963103e+02
1.077462784102e+02
1.070011067072e+02
1.449231741749e+02
1.376431378815e+02
1.350340459204e+02
9.572626116688e+01
1.030408224151e+02
9.400128161352e+01
9.339293452949e+01
8.672114075175e+01
1.008651788875e+02
1.699027511032e+02
1.666126961226e+02
2.296946718738e+01
2.837050357691e+01
5.531188075895e+01
5.790374630376e+01
1.024412114650e+02
9.793247151349e+01
1.085765546589e+02
5.143756709895e+01
1.392131878937e+02
1.721034866397e+02
1.692422934464e+02
1.757686984654e+02
1.533702651754e+02
1.602600595062e+02
1.549402882346e+02
6.243847578393e+01
9.543942111799e+01
4.019442033579e+01
5.436338668230e+01
3.623950247417e+01
4.171824421453e+01
3.177424617590e+01
4.236332260546e+01
3.665724761325e+01
4.220979356215e+01
1.695621934232e+01
1.066075471932e+02
1.863215317173e+01
2.262259077739e+01
1.724558483738e+02
1.678290345081e+02
1.749293721104e+02
1.702528551646e+02
1.628744653648e+02
1.657621839935e+02
3.486341670764e+01
1.742652925193e+02
1.688252783265e+02
1.775921794052e+02
3.488452521136e+01
5.958798054539e+01
5.035370907809e+01
4.220468280344e+01
1.376001581516e+02
1.274032972759e+02
1.518366601223e+02
1.429768800927e+02
3.713036084389e+01
3.678184907542e+01
4.517587009699e+01
4.416161656807e+01
5.278687409191e+01
5.153240306847e+01
6.048520849722e+01
1.559354256397e+02
4.477878774398e+01
3.132573121485e+01
1.690968087928e+02
1.667002424041e+02
4.674881937660e+01
3.973906824298e+01
1.749868379585e+02
8.660127035716e+01
1.142577293050e+02
4.670088211973e+01
5.894754401473e+01
8.612636581345e+01
5.436668539367e+01
5.888370676371e+01
5.050313280797e+01
1.521756030892e+02
2.462439729757e+01
5.385662143871e+01
6.141312008924e+01
4.750944254428e+01
1.474192847796e+02
9.483596278316e+01
7.355265481192e+01
6.196131335623e+01
6.897423357239e+01
5.998428194498e+01
4.302254256483e+01
4.115630002121e+01
1.021400374163e+02
4.963057266536e+01
4.138745368225e+01
6.976282779552e+01
8.617817636453e+01
9.344091502342e+01
1.049981742944e+02
1.011385587341e+02
8.953862854277e+01
9.751949796080e+01
1.091272017119e+02
1.061740153061e+02
1.197607317559e+02
1.148690829624e+02
1.031142233034e+02
1.115907312195e+02
1.224018006424e+02
1.005725085108e+02
1.705798841487e+02
9.420891745899e+01
6.682884665876e+01
6.151485277884e+01
7.219442894281e+01
1.301566071766e+02
1.240460436145e+02
8.758410215691e+01
1.495641165913e+02
4.998396749145e+01
8.066497286945e+01
1.573617866630e+02
8.188372476308e+01
7.798177371953e+01
7.056567290629e+01
1.204162164888e+02
5.202397095061e+01
1.700227936075e+02
1.358998524152e+02
1.301788706030e+02
1.232044254957e+02
9.433483706487e+01
1.777277999837e+02
1.738599686142e+02
1.747931777865e+02
1.690778001695e+02
1.798684124761e+02
1.383142594897e+02
1.424523481066e+02
8.503288302970e+01
9.303591441940e+01
1.006005915603e+02
9.960878269518e+01
9.264600470575e+01
9.820362056069e+01
1.047735285447e+02
9.604428938678e+01
1.176634702174e+02
1.811325377406e+02
1.373143691620e+02
1.349693042046e+02
1.270597918498e+02
9.843998541103e+01
1.051664104546e+02
1.146148334663e+02
9.182563610878e+01
1.242966100419e+02
1.813087191474e+02
1.391038291978e+02
1.024079635210e+02
2.798204708341e+01
3.601196926550e+01
3.681087759712e+01
4.567055738907e+01
3.655836771481e+01
1.143918833318e+02
1.177678164577e+02
1.120461042254e+02
1.212430522653e+02
1.154919787352e+02
1.068487952703e+02
1.246281235442e+02
1.184970270111e+02
2.790187400082e+01
3.409318483637e+01
3.918134075979e+01
2.654235014117e+01
4.238440113868e+01
5.407529440402e+01
5.696101038468e+01
6.518339933189e+01
5.268204722593e+01
1.071155274340e+01
1.938856713570e+01
7.547635519546e+00
1.593165257301e+01
2.887537069120e+01
3.940859021907e+01
1.787033448615e+02
9.177222582180e+01
8.727744361089e+01
7.781476343988e+01
8.319339119183e+01
9.580472922547e+01
7.257706944243e+01
6.922045813086e+01
1.106726107321e+01
1.918029164367e+01
1.847907397302e+01
2.663431636012e+01
2.624564653091e+01
1.908703853603e+01
1.883330277859e+01
1.050404757139e+01
1.838185890820e+01
2.606730112207e+01
9.840626742038e+00
7.378618735913e+01
7.933971290376e+01
1.810385512836e+02
2.920440381589e+01
7.860168251591e+00
1.109519364968e+02
1.135456505672e+02
1.133692311718e+02
1.650924959618e+02
1.694176585346e+02
1.111070257124e+02
6.453481054559e+01
1.126139266551e+02
9.198852093600e+01
7.350729049755e+01
6.785303726191e+01
1.392055430297e+02
1.326039669643e+02
1.584354698943e+02
1.325459000324e+02
1.524369707890e+02
1.752131217064e+02
3.919194961951e+01
5.413008598031e+01
5.123503438977e+01
7.554910422611e+01
6.532505436316e+01
1.029057036862e+02
4.125434948077e+01
1.481714066896e+02
6.092328703081e+01
1.208918521796e+02
8.849155595720e+01
7.210235023006e+01
6.637703396267e+01
9.374210670915e+01
1.094077438393e+02
1.500108082959e+02
8.140264145741e+01
1.020751061047e+01
1.552924059363e+02
1.274679144050e+02
5.746894974823e+01
1.543827239980e+02
5.531483951804e+01
7.912556613184e+01
1.006955266447e+02
4.680324797330e+01
3.160977821526e+01
4.448937668282e+01
1.714410876524e+02
7.941884353827e+01
5.930928693468e+01
1.288724255100e+02
8.293979658994e+01
2.416753307767e+01
9.665043104706e+01
1.169583992984e+02
1.625155103819e+02
1.425395635761e+02
6.344696742291e+01
1.603252368250e+02
1.221639128298e+02
9.000503922032e+01
1.157674394475e+02
1.116701461202e+02
8.376966353682e+01
1.249758019826e+02
1.562890729886e+02
6.241605358386e+01
9.842929428773e+01
8.867049270303e+01
1.085817817497e+02
1.338855375668e+02
1.577849308041e+02
7.902262218613e+01
7.754777996599e+01
5.694876984054e+01
1.407573187699e+02
1.010725414219e+02
7.489418653159e+01
1.550813289075e+02
9.490364210679e+01
1.119042844545e+02
4.477595751247e+01
6.652517119746e+01
9.878181450674e+01
1.167631109911e+02
1.210841186254e+02
1.112966964871e+02
1.577621854385e+02
1.550351969146e+02
4.661768254679e+01
3.161069570545e+01
1.606099621223e+02
1.321627164557e+02
1.607999167896e+02
1.095674955209e+02
1.520293723195e+02
3.761026787450e+01
1.637755962780e+02
1.561688062416e+02
8.714456013476e+01
2.893968137750e+01
1.729327039952e+02
1.629388614162e+02
1.163953140163e+02
1.279136001629e+02
2.266108133091e+01
1.237392269326e+02
9.788944430577e+01
1.189189165248e+02
1.658400054154e+02
6.674842057506e+01
1.174420957561e+02
1.380453083664e+02
2.605674895928e+01
3.247055964976e+01
1.204321632793e+02
1.022546373603e+02
1.303248130121e+02
1.658115833164e+02
1.235900228463e+02
1.087207560964e+02
1.268718160378e+02
2.775707149905e+01
7.463534445685e+01
1.302242136101e+02
1.068537415776e+02
2.639808017894e+01
1.243344284040e+02
1.605983667535e+02
8.817924790227e+01
1.326237921073e+02
8.598621846493e+01
3.412362536283e+01
1.401922540213e+02
1.160042604953e+02
1.317381773771e+02
1.238423374364e+02
1.476936921016e+02
4.136613195114e+01
6.141531332609e+01
5.053466863246e+01
1.114796313824e+02
1.165971069455e+02
3.372066189672e+01
9.171203155576e+01
3.585728418498e+01
1.066037403107e+02
1.461245201866e+02
5.464934016540e+01
1.080569366554e+02
5.395298138295e+01
1.014930378054e+02
1.309153063521e+02
1.025150268743e+02
9.490333530970e+01
1.027859431923e+02
9.616323853205e+01
1.127710270336e+02
1.789171243811e+02
3.599153776101e+01
3.501355420368e+01
4.037735528365e+01
4.383536531245e+01
7.824668613919e+01
9.881186896288e+01
3.625492686948e+01
6.972927451457e+01
1.268297952115e+02
1.644992412388e+02
6.882962315080e+01
1.645330161586e+02
1.387774343247e+02
9.323739690012e+01
2.793588911328e+01
1.510565331258e+01
1.382844959517e+02
3.675607830375e+01
4.372047143333e+01
4.597936232324e+01
6.675590004858e+01
3.291501190326e+01
3.943919840655e+01
1.721699576482e+02
3.520140592079e+01
1.466971999407e+02
4.229797412751e+01
1.062850872589e+02
1.623230185850e+02
1.812061205663e+02
1.542806553349e+02
4.997410736584e+01
4.313074516784e+01
1.439774353416e+02
7.663959678628e+01
1.811466705133e+02
3.380721433346e+01
1.041088668543e+02
7.307968855932e+01
1.041834832218e+02
1.092611918483e+02
4.729565560397e+01
4.426218743196e+01
1.735177272630e+02
1.193400134631e+02
5.455669849193e+01
6.808159930774e+01
8.371723064024e+01
5.765721501821e+01
1.756875188347e+02
1.193459909772e+02
1.735031391039e+02
2.638385411263e+01
1.523616217742e+01
1.771286180894e+02
1.357174736860e+02
6.983328270917e+01
1.169757633694e+02
5.658732845887e+01
2.667740089500e+01
1.710530242465e+01
1.806779613518e+02
1.053092825397e+02
9.165793529905e+01
2.924065547433e+01
6.039105158700e+01
1.481352518721e+02
2.278925374812e+01
1.059558821274e+02
1.772055553557e+02
1.128682452813e+02
1.758201225602e+02
5.609782347446e+01
1.613496480470e+02
1.710536402846e+02
2.804025728000e+01
1.153378279561e+02
7.440955555595e+01
3.260019670889e+01
1.138881314687e+02
9.513144829440e+00
2.785666260908e+01
1.806660024212e+02
3.171330524414e+01
4.270163662119e+01
1.323115897879e+02
1.119422404606e+02
8.722482989038e+01
4.502676517127e+01
3.936207705262e+01
5.968204278413e+01
1.663513967449e+02
1.104535747071e+02
5.264114471091e+01
6.070318801481e+01
1.277463164254e+02
9.894659518761e+01
1.404791051587e+02
1.693509164058e+02
5.152601539298e+01
1.201453089090e+02
1.577873677786e+01
1.763785793049e+02
1.029683340166e+02
1.342217720570e+01
8.084754787678e+00
1.264066931871e+01
9.887254924651e+00
1.714907425388e+01
1.705543040592e+01

SCALARS node_materi_strain_total_average_a_ept float
LOOKUP_TABLE default
1.742887011932e-04
3.463039353003e-03
2.535280114130e-03
4.909184344560e-03
2.101895559247e-04
3.124989722875e-04
4.080188687566e-04
5.262713370794e-04
6.392220228877e-04
7.553661744837e-04
8.741353245481e-04
9.951419965334e-04
1.119498010078e-03
1.246577131282e-03
1.378037979239e-03
1.509960270232e-03
1.633036727458e-03
1.765790306602e-03
1.904750067439e-03
2.040585478453e-03
2.178484190471e-03
2.318699178317e-03
2.455204357991e-03
4.918124142006e-03
4.908536481221e-03
4.907703153985e-03
4.902606221334e-03
4.888824703460e-03
4.885671048796e-03
4.870666417257e-03
4.851204442087e-03
4.833567134329e-03
4.809158883343e-03
4.769241082562e-03
4.736018444471e-03
4.685508101155e-03
4.630603134304e-03
4.561646427292e-03
4.484545388665e-03
4.394738854308e-03
4.296459531001e-03
4.193577365320e-03
4.083140285547e-03
3.961400348804e-03
3.830038731796e-03
3.699418040107e-03
3.566057306128e-03
3.435073979264e-03
3.309498971350e-03
3.185658028642e-03
3.074526282029e-03
2.964508952157e-03
2.872532330106e-03
2.784599693692e-03
2.702633866948e-03
2.633853650668e-03
2.587331937438e-03
2.547604711754e-03
2.513283656148e-03
2.500350433997e-03
2.480345874446e-03
2.476725609232e-03
2.469977799392e-03
2.476006965351e-03
2.492449286696e-03
2.503824375849e-03
2.492555639774e-03
2.519154247163e-03
2.517843562531e-03
2.527717091466e-03
2.539007506477e-03
2.541070879885e-03
3.611173721203e-03
3.756381565866e-03
3.902363870618e-03
4.047232172392e-03
4.196122069030e-03
4.347114412279e-03
4.497863204117e-03
4.651949639282e-03
4.804233755398e-03
-1.365932303705e-03
3.278193692803e-03
-3.484244376877e-04
1.618221666998e-04
6.535745830430e-04
1.153093249837e-03
1.665217837659e-03
2.155422271696e-03
2.628153155701e-03
2.968729858985e-03
3.124610222134e-03
3.072990753948e-03
3.169571040344e-03
3.314726766148e-03
3.445099085038e-03
3.453992919601e-03
3.452705079908e-03
3.448235210003e-03
3.464311214987e-03
3.443204313612e-03
3.435721913911e-03
3.430445008824e-03
3.422570753157e-03
3.409109831241e-03
3.393860710860e-03
3.373907993743e-03
3.349491083778e-03
3.320837375011e-03
-1.965195917294e-03
-2.231125533252e-03
-2.286204871285e-03
-2.060808126724e-03
-1.228296205553e-03
-4.288802515717e-04
-1.208711450783e-04
1.657141457451e-05
8.759425917696e-05
1.017268129660e-04
1.177309558773e-04
1.351677756865e-04
1.471418626774e-04
1.589511776000e-04
1.597278601067e-04
1.622633222346e-04
1.649459549804e-04
1.681472277866e-04
1.727429635814e-04
2.930795346141e-03
3.043038992182e-03
3.104573671626e-03
3.125065951838e-03
3.136443012461e-03
3.137990184427e-03
3.137792677750e-03
3.134965841865e-03
3.130881382977e-03
3.126467450420e-03
3.122464848344e-03
3.118851581172e-03
3.115602450665e-03
3.112689079840e-03
3.110678943660e-03
3.109539435229e-03
3.109179883769e-03
3.100853207140e-03
3.075829580866e-03
3.171503971260e-03
3.175789251208e-03
3.176678833222e-03
3.176974253233e-03
3.177392654654e-03
3.177847365932e-03
3.178431196805e-03
3.178576701348e-03
3.178287877833e-03
3.177709647449e-03
3.176157884372e-03
3.172621787384e-03
3.166023062518e-03
3.154082059427e-03
3.137989659222e-03
3.107078271901e-03
3.057800802758e-03
3.172299902512e-03
3.216870597937e-03
3.244056998660e-03
3.264016717263e-03
3.278651105697e-03
3.289393502591e-03
3.296829497380e-03
3.302983621554e-03
3.308372240175e-03
3.310961829574e-03
3.313668138677e-03
3.315207359438e-03
3.316627641628e-03
3.317075182488e-03
3.317352211823e-03
3.316381905100e-03
-7.217372633121e-04
-8.900028698666e-05
4.121618793667e-04
8.987493522016e-04
1.400151496552e-03
1.919279502957e-03
2.362308557498e-03
2.854673057233e-03
3.056493134022e-03
3.209353292865e-03
5.170383680965e-05
2.587959345477e-03
5.749391463318e-05
-1.409328889383e-03
2.445903795727e-03
1.068869910519e-03
1.316233065209e-03
2.877504169689e-03
2.024513421913e-03
3.321428338607e-03
2.834584601681e-03
2.455589275735e-03
1.611027574463e-04
3.825413664054e-03
3.259357691335e-03
8.190513426877e-04
1.676943565457e-03
4.154995280961e-03
4.509896924841e-03
4.808925223614e-03
4.742840343458e-03
4.666815374798e-03
3.426630439127e-03
3.531472983604e-03
3.575840526846e-03
4.122912277348e-03
2.463898805196e-03
-1.751542564686e-03
1.883464624330e-04
2.103986514099e-03
3.577303020818e-03
4.659251361345e-04
4.332455563427e-03
3.096845022704e-03
3.574446826249e-03
2.718157963100e-03
2.503935850172e-03
-2.842270387371e-04
3.486753930039e-03
2.417408289229e-03
4.417414571692e-03
1.235253935008e-04
1.056712717750e-03
4.847492014118e-03
1.559387219107e-03
5.650063791458e-04
2.448614063042e-03
3.069628848087e-03
-5.481044861649e-04
3.841269469940e-03
2.497188662627e-03
1.916427268738e-04
4.721344214763e-03
3.339990704856e-03
3.336302554489e-03
3.441161467638e-03
3.426955938462e-03
3.540294717308e-03
3.528794232271e-03
3.406383621802e-03
3.511322898307e-03
3.379293204204e-03
3.647825855632e-03
3.488274303908e-03
3.347065674286e-03
3.460072584395e-03
3.311064452685e-03
3.200377531030e-03
3.157349897007e-03
3.047355203074e-03
2.997637852175e-03
3.114032612117e-03
2.949118003383e-03
2.831126755617e-03
2.779423423844e-03
2.657843893689e-03
2.604334581919e-03
2.476801139392e-03
2.423783654968e-03
2.556437431898e-03
2.377403572827e-03
2.238655621308e-03
2.194932657708e-03
2.048662889263e-03
2.008468631013e-03
2.158414812174e-03
1.977169035247e-03
1.817354779650e-03
1.793699621418e-03
1.622781168814e-03
1.608986697571e-03
1.425947169174e-03
1.422237402950e-03
1.604366013478e-03
1.428347832782e-03
1.234668560688e-03
1.253986287068e-03
1.444782159166e-03
1.283779037965e-03
1.469773219100e-03
1.322069952022e-03
1.130242899383e-03
1.182631749413e-03
1.366338407642e-03
1.239013388790e-03
1.052776478693e-03
1.122140334636e-03
1.298754424635e-03
1.191877337818e-03
1.016348631839e-03
1.095331117514e-03
1.262069048362e-03
1.171545423958e-03
1.008319972231e-03
1.089301447018e-03
1.245697074398e-03
1.166442321150e-03
1.317180777290e-03
1.013607512393e-03
1.093103720603e-03
9.445863793812e-04
1.025248362672e-03
2.129511114190e-03
8.822282810285e-04
7.973017764718e-04
9.621728261602e-04
1.101528068570e-03
8.245808695277e-04
9.027628877581e-04
7.709435462164e-04
1.438248404660e-03
3.070964618754e-03
8.460813068668e-04
7.195585686877e-04
6.431775132681e-04
5.980192198310e-04
3.648434887901e-03
3.769253766902e-03
3.760522908021e-03
3.888792148064e-03
3.873975436375e-03
6.688454185765e-04
3.606533639670e-03
3.896610189243e-03
2.717774928001e-03
2.097052209279e-03
1.623301458246e-03
9.759835704672e-04
9.166445960976e-04
1.044874249226e-03
1.399226169726e-03
1.465330637170e-03
1.548908119396e-03
1.610339929996e-03
1.694329383386e-03
1.752068385523e-03
1.671492424934e-03
1.810328255263e-03
1.732368660324e-03
1.835513231839e-03
1.781962484111e-03
1.869034701407e-03
1.793168709130e-03
1.928592008923e-03
1.854103215756e-03
1.718363501469e-03
1.780046367380e-03
1.645169904362e-03
1.643772112970e-03
1.791260758223e-03
1.807111589193e-03
1.948844573668e-03
1.960615507115e-03
2.096960567441e-03
2.104243575697e-03
1.977839651235e-03
3.426771415051e-03
1.049260706466e-03
1.026456070243e-03
8.275392557867e-04
8.013723187266e-04
5.851918049666e-04
5.568396048210e-04
3.171792957877e-04
3.726756672647e-04
7.775365554004e-05
1.737068228014e-04
-1.337568536610e-04
-2.589002039613e-06
2.513516083166e-03
2.094392993745e-03
2.237540429003e-03
2.242115793088e-03
5.219364517373e-04
1.915299592381e-03
1.921988845993e-03
1.872545517613e-03
2.118236324412e-03
5.527954695677e-04
2.892521913182e-04
5.517620489154e-04
4.006897115815e-03
3.985693858486e-03
2.011049046414e-03
6.190934736396e-04
1.946433084801e-03
-2.261735272346e-04
1.841509585611e-03
1.976245166490e-03
1.593914725102e-03
2.381200413624e-03
2.391231057101e-03
2.853398357731e-04
1.428287310780e-04
-1.256266778917e-04
4.469558518324e-05
2.930754389747e-04
2.053019360838e-04
-1.470257655641e-05
1.555248228386e-04
3.562706779713e-04
3.071230353555e-04
1.360645258486e-04
2.802509824012e-04
2.049863119356e-03
-4.172957319428e-04
3.097798092145e-03
2.056686371564e-03
2.237601163323e-03
4.124366485265e-03
4.096542872150e-03
3.958402195799e-03
4.063515651830e-03
4.206555589337e-03
4.168082035672e-03
4.025729677906e-03
4.125594176013e-03
3.983686349769e-03
4.079409578987e-03
4.225167910252e-03
4.174967019887e-03
4.029586215117e-03
4.121871839124e-03
3.976469311930e-03
4.065579527120e-03
4.214007427755e-03
5.100288226838e-04
1.999741629886e-03
2.137282234429e-03
9.853832670848e-04
1.110516783681e-03
1.176131517675e-03
1.241928163942e-03
4.153926920719e-03
4.305390308037e-03
2.989034850484e-04
5.732639371121e-04
4.146775609855e-03
1.902886324031e-03
1.768670590089e-03
1.897847911668e-03
1.951443546961e-03
1.740592931578e-03
1.797966801557e-03
2.015718269589e-03
1.571200824481e-03
1.728410588858e-03
4.323756292576e-03
5.606374387344e-04
4.398662503631e-04
2.037720396485e-03
1.854774860117e-03
2.688266467888e-03
2.647569578785e-03
2.819307530871e-03
2.779299209626e-03
2.949787127396e-03
2.908639630492e-03
2.743016879694e-03
2.527824814927e-03
2.872155914496e-03
4.004654588989e-03
2.095303882852e-03
4.905556444915e-04
4.449097210736e-04
1.453857598874e-04
5.658858420025e-04
6.810392049627e-04
2.142931106811e-03
3.079888664780e-03
3.120026812432e-03
1.872291818532e-03
2.093190049003e-03
2.511480713301e-03
3.748818618213e-03
3.888220003067e-03
3.845941068834e-03
4.465554818191e-04
1.527930603268e-05
4.315190111343e-03
8.029216760694e-04
8.347961310739e-04
-5.138459655970e-04
-7.458161515797e-04
4.241476299241e-03
4.393021486856e-03
1.308847704116e-03
1.373077980059e-03
2.104069724890e-03
2.657847463693e-04
4.457795176388e-03
1.886470156141e-03
1.736893103309e-03
1.174166571646e-03
3.444354473303e-04
5.668114083250e-05
5.553676593724e-04
4.040213736137e-04
6.240015595608e-04
2.232130088521e-03
4.354327678447e-03
2.710245359364e-03
2.577877008730e-03
2.837236043380e-03
1.567781572464e-04
2.187906497935e-03
1.964378309824e-03
3.246532772511e-03
3.289578497850e-03
1.043871323744e-03
1.087622062789e-03
8.875490850918e-04
1.147434519145e-03
3.280788929381e-03
1.280719740807e-03
2.946533771764e-03
3.006721222190e-03
2.854403468229e-03
2.222040917936e-03
2.302843287220e-03
1.016584643807e-03
1.781062102287e-03
1.242720411173e-03
1.582610645187e-03
1.486688584687e-03
4.374371449862e-03
4.476029401301e-03
3.887029768524e-03
3.833414047191e-03
4.087580588498e-04
3.290519180040e-04
1.386422816098e-03
2.103603490089e-03
4.269138860345e-03
4.293012150148e-03
4.163612334245e-03
2.198044822797e-03
8.691505158566e-04
1.670098994279e-03
-5.745777119358e-04
2.302759434182e-03
3.070702215729e-04
3.234349924483e-03
2.100195950846e-03
2.172537371506e-03
2.651044438790e-03
3.230173748372e-03
2.276093545752e-03
2.109002215839e-03
2.925937133990e-03
2.774431046598e-03
2.687933874303e-03
2.595273847834e-03
6.690168971248e-04
6.068614876334e-04
3.219547962069e-03
2.996295124871e-03
3.419427429933e-03
3.465912987640e-03
2.632036017270e-03
2.499303559455e-03
7.368771065657e-04
2.183005069312e-03
4.467111152353e-03
3.064430652992e-03
2.228577610251e-03
2.156214261617e-03
-9.754596763538e-04
-6.702632206129e-04
4.547747671489e-03
9.513808191279e-04
1.210694661705e-03
6.874503885648e-04
2.383086082567e-03
3.577501222727e-03
2.237162053001e-03
2.420838693068e-03
4.614578542978e-03
2.257773201039e-03
1.689187504278e-03
2.066100221557e-03
4.470859788236e-03
4.639597846307e-03
3.755527864021e-03
3.706014507426e-03
3.789775532362e-03
-2.543581857749e-04
-5.483267406091e-04
4.421189662308e-03
8.592212936288e-04
9.360228008907e-04
3.761749909479e-04
5.122314710315e-04
1.377231303815e-03
1.310845677272e-03
3.196308203737e-03
3.361001322574e-03
2.860634118888e-03
1.777521436572e-03
1.624988449799e-03
1.579911587856e-03
4.524719126178e-03
4.642338058810e-03
7.438483309478e-04
6.379039180842e-04
7.692045990687e-04
4.507262319967e-03
2.307803581168e-03
2.242485353784e-03
2.381812589650e-04
2.455849437943e-04
1.422309030334e-04
-1.454042934517e-04
4.309191309907e-03
4.173953897101e-03
4.452238949669e-03
6.700557224545e-04
2.556433197892e-03
2.317646888515e-03
2.297326569742e-03
2.369129797395e-03
2.670577956260e-03
2.781798414831e-03
2.956367064088e-03
-1.221814396818e-03
4.592579624381e-03
3.740644147145e-03
-1.439261391405e-03
3.687801106948e-03
3.775088849205e-03
3.621093799786e-03
5.582700151098e-04
3.642173287861e-03
3.692744228899e-03
1.513463070512e-04
4.624800692796e-03
2.178738996401e-04
2.790698803821e-04
2.287650314872e-03
2.211107879757e-03
2.334924842032e-03
2.259778333490e-03
2.134798768386e-03
2.196050961249e-03
3.651280548737e-03
2.341290104702e-03
2.260148659828e-03
2.409139705300e-03
2.707380457980e-03
1.391160191706e-03
1.468691654204e-03
1.303523424408e-03
3.622261060492e-03
3.630708402882e-03
2.030247172490e-03
1.893753787406e-03
3.705745902780e-03
3.703751181119e-03
3.833072390654e-03
3.820361791207e-03
3.951648726788e-03
3.935288254164e-03
4.070548704282e-03
3.134465681407e-03
7.535406202223e-04
2.998250971908e-03
2.611154076847e-03
2.480849570164e-03
2.396888070111e-03
2.297687167664e-03
2.329167661783e-03
1.243652611680e-03
4.683397261580e-03
-1.388896547358e-03
-1.043731167663e-03
1.466475978048e-03
2.502388440167e-03
1.635150573880e-03
1.725108610104e-03
1.925388860498e-03
1.680319768389e-04
4.151375118186e-04
4.081375825107e-03
2.279600931105e-04
1.966503406468e-03
1.228676096211e-03
2.349582096814e-03
6.210708297805e-04
1.335334976734e-03
3.241926014290e-03
3.313286590012e-03
3.191972376106e-03
1.226369404906e-03
1.965491327811e-03
1.822440236411e-03
2.887183163260e-03
4.031965719199e-03
4.035984278101e-03
4.174288424468e-03
4.031052765440e-03
3.894581882719e-03
3.884709556227e-03
4.027899916391e-03
3.872295300896e-03
4.041035035112e-03
3.847478943044e-03
3.711124845594e-03
3.682006504942e-03
3.802437220326e-03
3.550302418612e-03
2.732127528110e-03
1.647517466722e-03
-9.034627764301e-04
-6.433988979437e-04
2.538907354436e-03
4.250647315576e-03
4.434895409501e-03
7.922889103909e-04
3.699040984281e-03
3.146979255292e-03
2.185474606761e-05
3.447598744092e-03
3.898643779448e-03
3.762902026757e-03
3.768986625836e-03
4.571142531760e-03
3.824032843670e-03
2.993821099380e-03
1.942438390096e-03
1.939867088609e-03
1.776622978024e-03
3.733628968937e-03
2.643820228289e-03
2.524365737127e-03
2.473312781797e-03
2.390791439620e-03
2.541161080799e-03
4.061868856640e-03
3.953886383789e-03
4.287964424787e-04
5.253825882429e-04
7.386888445039e-04
6.411307708440e-04
4.049169106368e-04
5.434890115188e-04
7.751629882596e-04
4.512518373217e-04
3.495015389649e-03
2.481532139519e-03
1.636906994420e-03
1.578479694237e-03
1.423253094309e-03
1.173929896994e-03
1.241612806252e-03
1.381095119082e-03
1.108555668402e-03
2.610497581287e-03
2.460394782979e-03
1.701284867979e-03
1.169019449267e-03
3.459530935958e-03
3.539943660003e-03
3.495198856158e-03
3.626523754886e-03
3.587168331746e-03
1.441555324829e-03
1.504166593804e-03
1.435442632715e-03
1.565425102417e-03
1.493294401299e-03
1.373635527925e-03
1.623439551467e-03
1.540674080873e-03
3.507858079736e-03
-7.361000183458e-04
-4.483123755011e-04
-1.955950667239e-04
-2.548272915622e-04
-4.483998361771e-04
-2.092998481780e-04
-3.798917904908e-04
-8.083690196689e-04
-1.081342104946e-04
-5.151869688262e-05
5.657994041378e-06
4.047513802279e-05
4.724239739953e-05
3.520843991331e-04
2.451705643682e-03
1.180885015544e-03
1.117062858071e-03
9.988521552327e-04
1.056774129746e-03
1.230690420470e-03
9.359949468677e-04
8.894095989181e-04
1.927586144198e-04
2.706761519774e-04
2.670249959004e-04
3.620085847155e-04
3.560363428715e-04
2.670443777460e-04
2.591230008020e-04
1.821336391042e-04
2.493600745213e-04
3.418831604996e-04
1.722651841904e-04
4.272360954522e-03
4.354481486636e-03
2.436481806288e-03
3.556827632061e-03
8.889548397051e-05
4.793901978450e-03
4.778445488697e-03
4.800367056912e-03
2.244249021390e-03
2.312042399903e-03
4.812355218152e-03
6.902637925138e-04
4.166517813263e-03
4.517428441849e-03
1.808454198112e-05
5.555887395790e-04
1.830104817570e-03
1.656585192865e-03
2.110042163929e-03
1.707169201089e-03
1.988976989246e-03
2.420513377994e-03
5.147664211459e-04
3.937009398196e-03
3.920162140143e-03
4.270234239007e-03
7.906041801904e-04
1.310493608513e-03
4.840905335877e-04
3.399381798321e-03
2.784383910386e-03
1.331453845288e-03
1.037495189302e-03
7.412924271385e-04
4.416599340784e-04
1.852610143504e-03
1.240658015703e-03
1.890286237222e-03
4.364688457301e-03
1.494378361084e-04
1.972205257041e-03
1.530116640222e-03
3.925450754505e-03
2.235619265673e-03
-2.312790045651e-05
4.271583105521e-03
4.414673960074e-03
3.724623233668e-03
3.778100480702e-04
3.795129764484e-03
2.265545916848e-03
4.022629973349e-03
7.359598691277e-04
1.501738530632e-03
2.289818944871e-03
3.169752358350e-03
4.571722923569e-03
1.954881718543e-03
2.252277195784e-03
1.828550978262e-03
8.003861157814e-04
2.079992191932e-03
1.609995263251e-03
4.421236622956e-03
2.989912229662e-03
1.084575676059e-03
4.240492486543e-03
1.359965920313e-03
2.372132620660e-03
2.609762443067e-03
2.732105290582e-03
3.272352417306e-03
2.337143664574e-03
1.758150497453e-03
2.024951246211e-03
-2.977429758646e-04
1.517225490766e-03
3.853860734970e-03
3.031670255262e-03
4.573590789663e-03
2.154411966709e-03
2.003452170941e-03
4.387851842931e-03
1.312119359950e-03
5.902794361310e-04
-2.244282367605e-04
6.336645648334e-04
1.780049642761e-03
1.453817176764e-03
4.330054796296e-03
2.062259242438e-03
1.967285541820e-03
-2.252150446572e-04
3.119395250363e-03
2.122987002143e-03
1.538953414632e-03
2.363969394307e-03
1.418349830641e-03
3.275940824371e-03
2.513726687276e-03
2.186647921212e-03
2.031296407848e-03
1.021153747298e-03
3.580775878330e-03
2.339956837442e-03
2.166204015995e-03
2.475519107427e-03
1.414517234079e-03
2.968423124517e-03
1.519274268513e-03
2.903201915150e-03
4.627208891604e-03
2.262137959001e-03
3.640220576877e-03
1.447061891981e-03
2.247543189896e-03
3.501627599717e-04
2.867617177929e-03
1.511198448620e-03
6.992544671111e-04
1.465966017303e-03
2.764918599040e-03
1.574151582264e-03
9.237427607126e-04
1.635935552395e-03
2.677752514612e-03
3.626352252349e-03
1.697069392737e-03
3.029457501506e-03
3.372396442477e-04
2.442203215760e-03
2.169366169374e-03
8.597906413050e-04
1.520693719269e-03
3.751477310383e-03
2.251291789937e-03
1.675051497799e-03
3.158627337753e-03
2.418034295627e-03
1.943083573157e-03
1.824402025459e-03
2.084519708159e-03
6.041394100489e-04
4.735748310883e-04
9.862094051927e-04
3.328210040002e-03
4.503991538273e-04
3.580285557199e-03
2.594238100604e-04
8.549405186812e-04
2.543050019400e-03
3.982454014337e-03
9.361591459593e-04
7.035240351198e-04
8.325136838061e-04
2.098183307264e-03
9.231297463695e-04
8.409859492724e-04
4.667973463263e-03
9.302781417246e-04
4.840980874024e-03
2.468423762370e-03
3.692379136260e-03
1.809414535023e-03
-1.817144254212e-03
1.570457821530e-03
7.068762798775e-04
3.392727190911e-03
3.697341304967e-03
6.524850770585e-04
3.970258569827e-03
3.205927132001e-03
4.198714749707e-03
2.357592982530e-03
2.403429438953e-03
4.561003540386e-03
3.557209027698e-03
9.183964053905e-05
1.828566999990e-03
1.295650872629e-03
1.012287852556e-03
4.901930508133e-04
8.499587618832e-04
-8.110338432248e-05
8.156764674517e-04
2.570201364438e-03
3.637627139478e-03
2.688669400476e-03
3.127610719374e-04
4.533232187041e-03
2.943209387392e-03
2.446500477605e-03
2.812746307374e-03
-5.165112884189e-05
3.643996576321e-03
3.516414316809e-03
4.311814599432e-03
2.462644635779e-03
3.582201796303e-03
4.707884654987e-03
-3.847030879256e-04
4.718935457072e-03
3.521007591199e-03
3.863954706938e-03
3.551276414471e-03
2.374136701107e-03
4.164009857625e-03
-3.940512572109e-04
4.185189233048e-03
1.052176681233e-03
-1.172582661590e-03
2.338624447775e-03
3.650825389747e-03
2.358427241343e-03
3.615286870142e-04
1.667087412274e-04
2.376997064073e-03
3.780739797281e-03
-1.703284976206e-04
4.758889788945e-03
-8.325883040817e-04
3.528358095108e-03
2.297738306979e-04
2.469845613399e-03
4.653769300757e-03
1.171321539695e-03
3.390139567126e-03
7.796409162275e-04
3.127105794381e-03
9.813435937392e-05
4.698336583428e-03
2.423246962305e-03
4.429929071648e-03
2.826754767755e-03
-1.372714707370e-03
3.069238470289e-03
2.369252059424e-03
3.563189939094e-03
4.290711358117e-03
9.482260769540e-04
4.199719826337e-04
4.862830460469e-03
1.872104746731e-04
3.562248250800e-03
2.500398534925e-03
4.236404063933e-04
3.798641081240e-03
3.893842019117e-03
1.451468502740e-03
4.472806833703e-03
-1.096137215826e-04
-1.850337019087e-03
4.060306996561e-03
2.870535201566e-03
4.538362030124e-03
3.947389627517e-03
-3.646296051101e-04
3.753638519367e-03
1.266382238853e-03
3.364721454304e-03
2.463063105782e-03
-9.761266044788e-04
1.565221610301e-03
2.060876745872e-04
2.365834566678e-03
1.324220599274e-03
2.999959065902e-03
3.090715858977e-03
3.097905540645e-03
3.247141326704e-03
3.225243408394e-03
3.383198882763e-03

SCALARS node_materi_strain_total_size_dev_sd_ept float
LOOKUP_TABLE default
6.935701302664e-04
9.686001573029e-03
6.203540727348e-03
1.210932198102e-02
4.452855040404e-04
3.966441156343e-04
7.210973275899e-04
1.131603313545e-03
1.515734948739e-03
1.861746528085e-03
2.183443184824e-03
2.485176142686e-03
2.773927549535e-03
3.062294906561e-03
3.361685814118e-03
3.655253082955e-03
3.930579916952e-03
4.244231633937e-03
4.582107381635e-03
4.923633006654e-03
5.279823385913e-03
5.647319402890e-03
5.997629787382e-03
1.210851411751e-02
1.209433701472e-02
1.209622555144e-02
1.208925095563e-02
1.207988066133e-02
1.207674901214e-02
1.206516658084e-02
1.204075120023e-02
1.202376144042e-02
1.198745109004e-02
1.195131483128e-02
1.190472417721e-02
1.184350790637e-02
1.176115801442e-02
1.167230978615e-02
1.154799410849e-02
1.141614018839e-02
1.125914117527e-02
1.107610830370e-02
1.086865176664e-02
1.062377212895e-02
1.036130241187e-02
1.006612315013e-02
9.749457328376e-03
9.421181274839e-03
9.080721340443e-03
8.728034357659e-03
8.368527949351e-03
8.012649466542e-03
7.700736378307e-03
7.363336427610e-03
7.037261712052e-03
6.754858367281e-03
6.545630293978e-03
6.361817562535e-03
6.228387507416e-03
6.128860666900e-03
6.059706127720e-03
6.013580662598e-03
5.999313428199e-03
6.018842513706e-03
6.061009036489e-03
6.089650594397e-03
6.065942729367e-03
6.142780261289e-03
6.153723941953e-03
6.183014013393e-03
6.212429247923e-03
6.221391720250e-03
1.001914438892e-02
1.034470238332e-02
1.064527264988e-02
1.092065808309e-02
1.118124272870e-02
1.141979782793e-02
1.163669080341e-02
1.183019726576e-02
1.201642750784e-02
3.908759636653e-03
9.998537745967e-03
4.481350962673e-03
4.807865022951e-03
5.483131775366e-03
6.114965327576e-03
6.845103189627e-03
7.800425115503e-03
9.028552566228e-03
9.286341548738e-03
9.616584767452e-03
8.808035371501e-03
8.991886766072e-03
9.325277449612e-03
9.639936336103e-03
9.666764304713e-03
9.676674870799e-03
9.680298895684e-03
9.736869101339e-03
9.709814622718e-03
9.720909028115e-03
9.740818194477e-03
9.775530067418e-03
9.798890862300e-03
9.822501697108e-03
9.852650088231e-03
9.884772421854e-03
9.927562480460e-03
2.992264769180e-03
2.749639174636e-03
2.826189179391e-03
2.828434318521e-03
2.874092081670e-03
1.990274646203e-03
7.965971657734e-04
2.192397199650e-04
1.949002761961e-04
2.715869324028e-04
3.326041859424e-04
4.180657423099e-04
5.008677611028e-04
5.752911884631e-04
5.856930193763e-04
5.965178281100e-04
6.125728116597e-04
6.512305876283e-04
6.900124207410e-04
9.041350406765e-03
8.772371241687e-03
8.660279509870e-03
8.618336501744e-03
8.607965038100e-03
8.616233782029e-03
8.636895712411e-03
8.660054871993e-03
8.684006574553e-03
8.707099373773e-03
8.728993611673e-03
8.748026110648e-03
8.762812112797e-03
8.774795993173e-03
8.784000238115e-03
8.791079645956e-03
8.794919623491e-03
8.794652423130e-03
8.777351799332e-03
8.990419280828e-03
8.981615877686e-03
8.977652482330e-03
8.973837944264e-03
8.969832826801e-03
8.966083270914e-03
8.961158381397e-03
8.955136286259e-03
8.946397897010e-03
8.939500245264e-03
8.934166730382e-03
8.930947138191e-03
8.933476405905e-03
8.942726858439e-03
8.967118354058e-03
9.051315071416e-03
9.067214253745e-03
9.497572013296e-03
9.522725975877e-03
9.469478184856e-03
9.436625289885e-03
9.414239208580e-03
9.396199373978e-03
9.381350861228e-03
9.370942088692e-03
9.361477845581e-03
9.353446374912e-03
9.346910093633e-03
9.341841942564e-03
9.340217053436e-03
9.337215664288e-03
9.337216187132e-03
9.336373895500e-03
4.723047352705e-03
4.583024712853e-03
5.119089369655e-03
5.842145516025e-03
6.517491092555e-03
7.318995376101e-03
8.456123428375e-03
9.295619520822e-03
9.511781671293e-03
9.844668103366e-03
4.707009959371e-03
6.302566500580e-03
4.070828978230e-04
3.192777741262e-03
5.756041675137e-03
5.942108502334e-03
3.215406475863e-03
7.480966269653e-03
7.500806589540e-03
9.008975339141e-03
9.337455032602e-03
5.875493055721e-03
3.316958192088e-04
1.038212075509e-02
1.013584028503e-02
2.040374908285e-03
4.026212403857e-03
1.112836514457e-02
1.172605049756e-02
1.203835789883e-02
1.200430405345e-02
1.192836369075e-02
1.025702243786e-02
1.013919538140e-02
1.008124642260e-02
1.105730729916e-02
5.972262437151e-03
3.085296696808e-03
4.317320521702e-04
5.080507859985e-03
9.983909740264e-03
9.307779521519e-04
1.147237852581e-02
8.291857837191e-03
9.741686825424e-03
6.827656478689e-03
5.981201084932e-03
2.001848800995e-03
1.018879954423e-02
5.691028961895e-03
1.152927981336e-02
2.069180773217e-04
2.630523502196e-03
1.206673493594e-02
6.626280445946e-03
5.277676091756e-03
8.622475241680e-03
9.779480173656e-03
4.647912344517e-03
1.052178901913e-02
6.096547252362e-03
4.890717027449e-04
1.191069022460e-02
1.030239904206e-02
1.037453596919e-02
1.053904330065e-02
1.057268572700e-02
1.077044268445e-02
1.075089658810e-02
1.052698199703e-02
1.067377251742e-02
1.040271749618e-02
1.095214939546e-02
1.053397537673e-02
1.021307851525e-02
1.033898205725e-02
9.970949623380e-03
9.845066147721e-03
9.552405024018e-03
9.426873525008e-03
9.083336482846e-03
9.228828289444e-03
8.715952566680e-03
8.563920108348e-03
8.162828979811e-03
8.006067295219e-03
7.578910789225e-03
7.419944331955e-03
6.975710656743e-03
7.156837974816e-03
6.540454042273e-03
6.366891336152e-03
5.921195334231e-03
5.762149711971e-03
5.307272877177e-03
5.493463247842e-03
4.873485149214e-03
4.707127031251e-03
4.270776154961e-03
4.137590015719e-03
3.700496254049e-03
3.618947219771e-03
3.178462090482e-03
3.296133692366e-03
2.777204468726e-03
2.739587928530e-03
2.351262447026e-03
2.436592659310e-03
2.034730578079e-03
2.179407298597e-03
1.814874900331e-03
1.798476081566e-03
1.628223132804e-03
1.713756176211e-03
1.581174089170e-03
1.645380618790e-03
1.631924461208e-03
1.654320306204e-03
1.719457155427e-03
1.803628428640e-03
1.874446094811e-03
1.885922667418e-03
2.013083899336e-03
2.054092149356e-03
2.155220509494e-03
2.201400386403e-03
2.304942284034e-03
2.422253744810e-03
2.275409586061e-03
2.388346254179e-03
2.351313480479e-03
2.434227327154e-03
5.094558029200e-03
2.368357040621e-03
2.355735625763e-03
2.431824294490e-03
2.556743270892e-03
2.323319869304e-03
2.379300466408e-03
2.222104017504e-03
4.081538019886e-03
8.888357848480e-03
2.278719043767e-03
2.070070406094e-03
2.039928215462e-03
1.824105582257e-03
1.093854777376e-02
1.112788298878e-02
1.108999010740e-02
1.128823950313e-02
1.123756612162e-02
1.877255995786e-03
1.066094068653e-02
1.129553171830e-02
8.431066345869e-03
6.226215421744e-03
2.663005795321e-03
2.471216690060e-03
2.368180662826e-03
2.588557728747e-03
2.358100900507e-03
2.629048054446e-03
2.616290903135e-03
2.916420102451e-03
2.957295736204e-03
3.270563539435e-03
3.217602528521e-03
3.581370476130e-03
3.513855401389e-03
3.361759998446e-03
3.048424287878e-03
3.883905040150e-03
3.801194951023e-03
4.175029450304e-03
4.076501440879e-03
3.729840213547e-03
3.984797791506e-03
3.661465079857e-03
2.469146467112e-03
2.997284070257e-03
2.858382296175e-03
3.406487938913e-03
3.313858045510e-03
3.870947247393e-03
3.816760136769e-03
3.304521241877e-03
1.010045183601e-02
2.430556480950e-03
2.843156133016e-03
2.674104625990e-03
3.085768378214e-03
3.063531115834e-03
3.452213658865e-03
3.576044733578e-03
3.230647368002e-03
3.873615714909e-03
3.537890055560e-03
4.228706151188e-03
3.908437059667e-03
6.748668877722e-03
3.998677293425e-03
4.469780177146e-03
4.616949630733e-03
1.802971552895e-03
4.337244796340e-03
3.505066627096e-03
3.203176938403e-03
3.840991252258e-03
1.579624172196e-03
3.903739240258e-03
3.852112890191e-03
1.142707573808e-02
1.136571871711e-02
3.709797149148e-03
1.657024490180e-03
3.989726123471e-03
4.407033379620e-03
4.225888332902e-03
4.580619091286e-03
3.188155259857e-03
5.094740324073e-03
5.248507282460e-03
3.199499446233e-03
3.530522044237e-03
4.097540456113e-03
3.713413590989e-03
3.169007999980e-03
3.340476835910e-03
3.694628510762e-03
3.346347015982e-03
3.005187320736e-03
2.996063190480e-03
3.098141580498e-03
2.795893451915e-03
4.712652861798e-03
4.555818106030e-03
9.731893288744e-03
4.002753017315e-03
4.359704773994e-03
1.154942395985e-02
1.148017045127e-02
1.126819200052e-02
1.138184223869e-02
1.158108396674e-02
1.148487959192e-02
1.126130240018e-02
1.136900075885e-02
1.112336266175e-02
1.123794009917e-02
1.147007330226e-02
1.134573657803e-02
1.109586695265e-02
1.121208851026e-02
1.094676872464e-02
1.107044398564e-02
1.132321814249e-02
1.325055070788e-03
3.375255835634e-03
3.940292583736e-03
2.486018151352e-03
2.720282427946e-03
2.812762115848e-03
2.972432725585e-03
1.118967623104e-02
1.143128708023e-02
4.217303413316e-03
4.245550932105e-03
1.158511641066e-02
4.452641740852e-03
4.115651508422e-03
5.642528293245e-03
6.112504612150e-03
5.557513932828e-03
6.019447174489e-03
6.582637340482e-03
5.501776734708e-03
2.743494046319e-03
1.156430383748e-02
2.051799421063e-03
1.819449296422e-03
4.808540439124e-03
2.854410930830e-03
7.369627100112e-03
6.993039318637e-03
7.615869650497e-03
7.274229829554e-03
7.897096629508e-03
7.595381846762e-03
6.965839995320e-03
5.734190856428e-03
7.335386423246e-03
1.092115986599e-02
4.188748971212e-03
2.721736875882e-03
1.235828121325e-03
2.644375133565e-03
1.415207718402e-03
1.755422462912e-03
4.250519723610e-03
8.219002415385e-03
8.494764704182e-03
6.487348991180e-03
7.044247316134e-03
5.613875669678e-03
1.100830689917e-02
1.100241647646e-02
1.084072966291e-02
1.006461137601e-03
2.943183665228e-03
1.167258770961e-02
3.962111541867e-03
4.392970513232e-03
4.502558876477e-03
4.430046479709e-03
1.130377017987e-02
1.153175871240e-02
3.051556905725e-03
3.232880627071e-03
3.984610179569e-03
2.444453060185e-03
1.164354600459e-02
2.982283302305e-03
2.488009923800e-03
2.867833786105e-03
4.485283041875e-03
4.421928779251e-03
2.618587396657e-03
2.543574285205e-03
1.533612352281e-03
4.563031813135e-03
1.174279848814e-02
6.700779303034e-03
6.326723816953e-03
7.114611826871e-03
2.132282350063e-03
4.542642991996e-03
4.664977185176e-03
8.806086485637e-03
9.056623221254e-03
4.214595689418e-03
4.661728779416e-03
4.809419933701e-03
5.108978908339e-03
1.027101663769e-02
4.579214915023e-03
9.317829429823e-03
9.627235532877e-03
9.215965461402e-03
7.158303990657e-03
7.617742938008e-03
3.290837987757e-03
3.220562586824e-03
2.874545650985e-03
3.418244700988e-03
2.325016861709e-03
1.166804411708e-02
1.175199654956e-02
1.081538042342e-02
1.065100687944e-02
1.484655434456e-03
1.482120636271e-03
2.662994658837e-03
4.303193460512e-03
1.169608510910e-02
1.170962944985e-02
1.158737876435e-02
4.320679013380e-03
2.303456300546e-03
2.375111995153e-03
4.533863961292e-03
5.725819187781e-03
1.080161723231e-03
9.390886545851e-03
5.021479876135e-03
5.177796927144e-03
6.247743705912e-03
1.017925210573e-02
5.369918887453e-03
4.735265782916e-03
9.518794237362e-03
9.119154574217e-03
8.734163187450e-03
8.627208202444e-03
2.444168130614e-03
2.520748230431e-03
8.624145982879e-03
7.751583926459e-03
9.348108417268e-03
9.587006450930e-03
6.164610187060e-03
5.538784722939e-03
1.862976630120e-03
7.504506633130e-03
1.182562402161e-02
9.849656567789e-03
4.826539188625e-03
4.609661426128e-03
4.324644880721e-03
4.434427695395e-03
1.173820491660e-02
5.208779963564e-03
5.517777019180e-03
4.939586886651e-03
5.811625358941e-03
9.952625444108e-03
5.387538177169e-03
7.742870628733e-03
1.183611607829e-02
5.061413884750e-03
5.083724681110e-03
3.740788277808e-03
1.162139545551e-02
1.183687976109e-02
1.070233989824e-02
1.051909301414e-02
1.086328784730e-02
4.458043636676e-03
4.485323367388e-03
1.165453770663e-02
2.232264067401e-03
2.373680928498e-03
2.262283784931e-03
2.356310381951e-03
3.108186113568e-03
2.908121887526e-03
9.085134232731e-03
9.581210836327e-03
7.974346912970e-03
2.672821316769e-03
2.226715828339e-03
2.060571736244e-03
1.182663292600e-02
1.191641122694e-02
2.277522185590e-03
2.417145231264e-03
2.345466626676e-03
1.187330650125e-02
5.553002723578e-03
5.339372973885e-03
1.025292149695e-03
1.491829104834e-03
4.570688733748e-03
4.493559951750e-03
1.168104565953e-02
1.155585500518e-02
1.180113276981e-02
1.629192402758e-03
6.074925763087e-03
4.922062077674e-03
4.718435975450e-03
5.241208755718e-03
6.360267027217e-03
6.858477647722e-03
7.589190002223e-03
4.102347116447e-03
1.176464674674e-02
1.048844606111e-02
3.713780487553e-03
1.031385461476e-02
1.048245155630e-02
1.012509153162e-02
1.273877749241e-03
1.050006501822e-02
1.072242758210e-02
8.369111586624e-04
1.193464802762e-02
6.236591847741e-04
7.194061058298e-04
5.111998364542e-03
4.898450703654e-03
5.376593960668e-03
5.165254676725e-03
4.720885541482e-03
5.006313913626e-03
1.032694537695e-02
5.493702731569e-03
5.282154316041e-03
5.756315042827e-03
9.032834130417e-03
5.500112556367e-03
5.913316036745e-03
5.956013882293e-03
9.910333638099e-03
1.004221610852e-02
4.870796507455e-03
4.525035264966e-03
1.029731425160e-02
1.026183937526e-02
1.055211624277e-02
1.050026939284e-02
1.077626588216e-02
1.072072186122e-02
1.098678628273e-02
8.286210256721e-03
5.281309946682e-03
9.718387093792e-03
6.119639788962e-03
5.486829791218e-03
8.068302779017e-03
7.993906352657e-03
5.183319039645e-03
4.110622734474e-03
1.196162091249e-02
3.718091696288e-03
4.215140900879e-03
4.557378107438e-03
8.192543364156e-03
5.954094912750e-03
6.418085842019e-03
3.182580878500e-03
1.531091408161e-03
4.727227794385e-03
1.103433203416e-02
4.749871511337e-03
4.729469732571e-03
3.638151782378e-03
7.282736197895e-03
4.611915125521e-03
5.050393488674e-03
1.009049234461e-02
1.036739609296e-02
1.012567562385e-02
3.174099825821e-03
6.951012723812e-03
6.860555439057e-03
8.954146648952e-03
1.143731735494e-02
1.138421231141e-02
1.147951803988e-02
1.129534993385e-02
1.118073506434e-02
1.106567676524e-02
1.117993047163e-02
1.092118416354e-02
1.108072627356e-02
1.074230550288e-02
1.059781418404e-02
1.039664143936e-02
1.054682441120e-02
1.024189848701e-02
6.765435521445e-03
4.598904725639e-03
4.293251031524e-03
4.640212005148e-03
7.868859824373e-03
1.130878081305e-02
1.163265309733e-02
3.522554281152e-03
1.007509255176e-02
9.973578220849e-03
4.124355231460e-03
9.386797957271e-03
1.126024380364e-02
1.105060281116e-02
1.111456316565e-02
1.181759177271e-02
1.101586065748e-02
7.937083777889e-03
3.578411620700e-03
3.817486657303e-03
3.515081698844e-03
1.078516206843e-02
6.546473723389e-03
5.816942411089e-03
5.612447467412e-03
5.108812374127e-03
6.108247288685e-03
1.091805810212e-02
1.067773561705e-02
2.862613166529e-03
2.624209756849e-03
2.162414306557e-03
2.346152264197e-03
2.891456127231e-03
2.592946179073e-03
2.106540982904e-03
2.893951749037e-03
9.801691945163e-03
5.876843062093e-03
2.647934151411e-03
2.351246934731e-03
2.053896971421e-03
2.707136503495e-03
2.715761818866e-03
2.918558357049e-03
2.665479788809e-03
6.640389642025e-03
5.804008010200e-03
2.383887216925e-03
2.538871855532e-03
1.023371015289e-02
1.054220045829e-02
1.056806341644e-02
1.082643229928e-02
1.055053404589e-02
3.309736855188e-03
3.506447473896e-03
3.409314858761e-03
3.694859059565e-03
3.571058361691e-03
3.307071397099e-03
3.869153429247e-03
3.705893474865e-03
1.016442793845e-02
2.916425193032e-03
3.359150761017e-03
2.508310288347e-03
3.396359227876e-03
3.958339824269e-03
3.761607099122e-03
4.272499343022e-03
4.004417069324e-03
1.157627171370e-03
1.810125880505e-03
6.644629100337e-04
1.308625500572e-03
2.213136462751e-03
1.891061246042e-03
5.962420384269e-03
2.912873823070e-03
2.769646033210e-03
2.498174335522e-03
2.632762039682e-03
3.017975439192e-03
2.342866553217e-03
2.233663999816e-03
4.551121007876e-04
3.376313517271e-04
3.379285504157e-04
5.732846037933e-04
5.780593361163e-04
3.383355134743e-04
3.392808388615e-04
4.031295819900e-04
3.540391860697e-04
6.670610728345e-04
3.746322091150e-04
1.130790316801e-02
1.143836585247e-02
5.736739611835e-03
1.013510640336e-02
2.719515406136e-04
1.201801145926e-02
1.202829458048e-02
1.203646048443e-02
5.446874996461e-03
5.610260061609e-03
1.202163581274e-02
2.207475632667e-03
1.139861359826e-02
1.174201520670e-02
4.299548266348e-03
2.492580536938e-03
4.324922439966e-03
3.463580860472e-03
4.952618630259e-03
3.894571164131e-03
4.452441857692e-03
5.393568861175e-03
1.173211249176e-03
1.097152960402e-02
1.079263536147e-02
1.144851281603e-02
2.136607252660e-03
3.144980414993e-03
1.521638869096e-03
9.197844416909e-03
8.842622830009e-03
2.105640531583e-03
2.535064810525e-03
2.315771783908e-03
2.700114367674e-03
5.170674584042e-03
2.489410491659e-03
3.677463589695e-03
1.154763445353e-02
2.396662869592e-04
3.813878333672e-03
2.908073461278e-03
1.114509686667e-02
4.379861604323e-03
3.439511522870e-03
1.157955128899e-02
1.180056628023e-02
1.087934829491e-02
1.141561548930e-03
1.067043848614e-02
4.828630746083e-03
1.145214030179e-02
1.959051951432e-03
2.025993213377e-03
6.823052589883e-03
9.957961719343e-03
1.182372846104e-02
4.471363926352e-03
4.424674675303e-03
2.811223256962e-03
2.064047295481e-03
4.434126918874e-03
2.945033349559e-03
1.175681038531e-02
8.216776526802e-03
2.074237808639e-03
1.165289717682e-02
1.821832408004e-03
4.985577723994e-03
8.311577222477e-03
7.762166805917e-03
9.690201089108e-03
6.121063693522e-03
4.191879234824e-03
4.127102651609e-03
4.445266782858e-03
5.044149475271e-03
1.114203608205e-02
7.949012093366e-03
1.189966900134e-02
6.694472160602e-03
4.289768006850e-03
1.178612283511e-02
2.697239517395e-03
1.360724215842e-03
4.481510312057e-03
2.697557513063e-03
3.868989247736e-03
2.914145476803e-03
1.163534307631e-02
4.577306805927e-03
3.432937819539e-03
4.555641213374e-03
9.963634545767e-03
4.851639580870e-03
1.988112796770e-03
4.925267999228e-03
3.428020156093e-03
8.790645601866e-03
8.531693994761e-03
5.114611997642e-03
3.530003519277e-03
3.755797999226e-03
9.972423976839e-03
5.583349049662e-03
4.115668703625e-03
6.360750112838e-03
1.737715003166e-03
9.583300676302e-03
3.168156821413e-03
8.342386595297e-03
1.187997127874e-02
4.535362196563e-03
1.090895139199e-02
3.144342479152e-03
4.810770426649e-03
6.037155281157e-04
9.420583640542e-03
3.369676206329e-03
2.371242054844e-03
1.871155951339e-03
6.799899664600e-03
3.589595693683e-03
1.994033152985e-03
3.800270424800e-03
9.026932084927e-03
1.081169473086e-02
4.000764030106e-03
8.547021882527e-03
7.798368163399e-04
6.003742211177e-03
5.233175855325e-03
2.318032826701e-03
2.084715068197e-03
1.094050702580e-02
8.037956484142e-03
2.462386257435e-03
8.783919201839e-03
5.696865371121e-03
4.116919418948e-03
2.919317852414e-03
7.452886514517e-03
2.246541850691e-03
2.120768198449e-03
1.768866534205e-03
9.319865111424e-03
9.083216246861e-04
1.046630561408e-02
1.991346307463e-03
1.918198500668e-03
5.887415917116e-03
1.080482979665e-02
1.816010283725e-03
1.714197611879e-03
2.051757996593e-03
4.431688910843e-03
2.016553466412e-03
2.209569017084e-03
1.190665488662e-02
2.211756006081e-03
1.205059087163e-02
6.025945327378e-03
1.020818303443e-02
7.080804882455e-03
2.908681404051e-03
6.323256589663e-03
2.402593183621e-03
9.841526010758e-03
1.022837463312e-02
2.370762217725e-03
1.085203475108e-02
8.662996226038e-03
1.119656882517e-02
4.934927555615e-03
5.448642016793e-03
1.172110364949e-02
9.995645116987e-03
9.869246260640e-04
4.388118587754e-03
6.250846951582e-03
5.570543348746e-03
4.986232344565e-03
2.155789835391e-03
2.741578927989e-03
5.610734627256e-03
6.021286222225e-03
1.040514180768e-02
6.501153361156e-03
4.953034292078e-03
1.187966179577e-02
7.566116442324e-03
5.833223361461e-03
6.972853457129e-03
4.632994604815e-03
1.077338570120e-02
9.572422481367e-03
1.139869617175e-02
5.926724905316e-03
1.043117782252e-02
1.191705401086e-02
4.443394059447e-03
1.191292387241e-02
1.001819252773e-02
1.064465103837e-02
1.074594331367e-02
5.762285045100e-03
1.130218163215e-02
4.609019991500e-03
1.119620323115e-02
2.618067449942e-03
4.071337046833e-03
5.305810193564e-03
1.020051163017e-02
5.680973489247e-03
5.503001257592e-04
5.121442295438e-04
5.354849544624e-03
1.034456080660e-02
4.047327032219e-03
1.201170523593e-02
4.539965464872e-03
1.000093887149e-02
3.658766104077e-04
5.971280698405e-03
1.194039542494e-02
2.882397259531e-03
1.028384840510e-02
1.946906050801e-03
8.262978744908e-03
1.680192808615e-03
1.195146785135e-02
5.475411063511e-03
1.174364977572e-02
7.344193236042e-03
3.840600248873e-03
8.082289021044e-03
5.065838835510e-03
9.970049343331e-03
1.152847534483e-02
2.389232316530e-03
1.013144089406e-03
1.206628210715e-02
5.667819518179e-04
9.913946387765e-03
6.115019911973e-03
8.502416294972e-04
1.044246594670e-02
1.063321446674e-02
3.518146820646e-03
1.160464296037e-02
3.288258329545e-03
2.942391313482e-03
1.095535023171e-02
7.313016881965e-03
1.187216991704e-02
1.079370641521e-02
4.515536312042e-03
1.036339152452e-02
3.079455892990e-03
9.137507938422e-03
5.458539091088e-03
4.456450802215e-03
3.775994825887e-03
3.692146603959e-04
5.543959709925e-03
3.219915264854e-03
9.077614234836e-03
8.824250719934e-03
9.381429496390e-03
9.168469067266e-03
9.749734345427e-03
9.493772075864e-03


CELL_DATA 2039

SCALARS element_number int
LOOKUP_TABLE default
407
408
409
410
411
412
413
414
415
416
417
418
419
420
421
422
423
424
425
426
427
428
429
430
431
432
433
434
435
436
437
438
439
440
441
442
443
444
445
446
447
448
449
450
451
452
453
454
455
456
457
458
459
460
461
462
463
464
465
466
467
468
469
470
471
472
473
474
475
476
477
478
479
480
481
482
483
484
485
486
487
488
489
490
491
492
493
494
495
496
497
498
499
500
501
502
503
504
505
506
507
508
509
510
511
512
513
514
515
516
517
518
519
520
521
522
523
524
525
526
527
528
529
530
531
532
533
534
535
536
537
538
539
540
541
542
543
544
545
546
547
548
549
550
551
552
553
554
555
556
557
558
559
560
561
562
563
564
565
566
567
568
569
570
571
572
573
574
575
576
577
578
579
580
581
582
583
584
585
586
587
588
589
590
591
592
593
594
595
596
597
598
599
600
601
602
603
604
605
606
607
608
609
610
611
612
613
614
615
616
617
618
619
620
621
622
623
624
625
626
627
628
629
630
631
632
633
634
635
636
637
638
639
640
641
642
643
644
645
646
647
648
649
650
651
652
653
654
655
656
657
658
659
660
661
662
663
664
665
666
667
668
669
670
671
672
673
674
675
676
677
678
679
680
681
682
683
684
685
686
687
688
689
690
691
692
693
694
695
696
697
698
699
700
701
702
703
704
705
706
707
708
709
710
711
712
713
714
715
716
717
718
719
720
721
722
723
724
725
726
727
728
729
730
731
732
733
734
735
736
737
738
739
740
741
742
743
744
745
746
747
748
749
750
751
752
753
754
755
756
757
758
759
760
761
762
763
764
765
766
767
768
769
770
771
772
773
774
775
776
777
778
779
780
781
782
783
784
785
786
787
788
789
790
791
792
793
794
795
796
797
798
799
800
801
802
803
804
805
806
807
808
809
810
811
812
813
814
815
816
817
818
819
820
821
822
823
824
825
826
827
828
829
830
831
832
833
834
835
836
837
838
839
840
841
842
843
844
845
846
847
848
849
850
851
852
853
854
855
856
857
858
859
860
861
862
863
864
865
866
867
868
869
870
871
872
873
874
875
876
877
878
879
880
881
882
883
884
885
886
887
888
889
890
891
892
893
894
895
896
897
898
899
900
901
902
903
904
905
906
907
908
909
910
911
912
913
914
915
916
917
918
919
920
921
922
923
924
925
926
927
928
929
930
931
932
933
934
935
936
937
938
939
940
941
942
943
944
945
946
947
948
949
950
951
952
953
954
955
956
957
958
959
960
961
962
963
964
965
966
967
968
969
970
971
972
973
974
975
976
977
978
979
980
981
982
983
984
985
986
987
988
989
990
991
992
993
994
995
996
997
998
999
1000
1001
1002
1003
1004
1005
1006
1007
1008
1009
1010
1011
1012
1013
1014
1015
1016
1017
1018
1019
1020
1021
1022
1023
1024
1025
1026
1027
1028
1029
1030
1031
1032
1033
1034
1035
1036
1037
1038
1039
1040
1041
1042
1043
1044
1045
1046
1047
1048
1049
1050
1051
1052
1053
1054
1055
1056
1057
1058
1059
1060
1061
1062
1063
1064
1065
1066
1067
1068
1069
1070
1071
1072
1073
1074
1075
1076
1077
1078
1079
1080
1081
1082
1083
1084
1085
1086
1087
1088
1089
1090
1091
1092
1093
1094
1095
1096
1097
1098
1099
1100
1101
1102
1103
1104
1105
1106
1107
1108
1109
1110
1111
1112
1113
1114
1115
1116
1117
1118
1119
1120
1121
1122
1123
1124
1125
1126
1127
1128
1129
1130
1131
1132
1133
1134
1135
1136
1137
1138
1139
1140
1141
1142
1143
1144
1145
1146
1147
1148
1149
1150
1151
1152
1153
1154
1155
1156
1157
1158
1159
1160
1161
1162
1163
1164
1165
1166
1167
1168
1169
1170
1171
1172
1173
1174
1175
1176
1177
1178
1179
1180
1181
1182
1183
1184
1185
1186
1187
1188
1189
1190
1191
1192
1193
1194
1195
1196
1197
1198
1199
1200
1201
1202
1203
1204
1205
1206
1207
1208
1209
1210
1211
1212
1213
1214
1215
1216
1217
1218
1219
1220
1221
1222
1223
1224
1225
1226
1227
1228
1229
1230
1231
1232
1233
1234
1235
1236
1237
1238
1239
1240
1241
1242
1243
1244
1245
1246
1247
1248
1249
1250
1251
1252
1253
1254
1255
1256
1257
1258
1259
1260
1261
1262
1263
1264
1265
1266
1267
1268
1269
1270
1271
1272
1273
1274
1275
1276
1277
1278
1279
1280
1281
1282
1283
1284
1285
1286
1287
1288
1289
1290
1291
1292
1293
1294
1295
1296
1297
1298
1299
1300
1301
1302
1303
1304
1305
1306
1307
1308
1309
1310
1311
1312
1313
1314
1315
1316
1317
1318
1319
1320
1321
1322
1323
1324
1325
1326
1327
1328
1329
1330
1331
1332
1333
1334
1335
1336
1337
1338
1339
1340
1341
1342
1343
1344
1345
1346
1347
1348
1349
1350
1351
1352
1353
1354
1355
1356
1357
1358
1359
1360
1361
1362
1363
1364
1365
1366
1367
1368
1369
1370
1371
1372
1373
1374
1375
1376
1377
1378
1379
1380
1381
1382
1383
1384
1385
1386
1387
1388
1389
1390
1391
1392
1393
1394
1395
1396
1397
1398
1399
1400
1401
1402
1403
1404
1405
1406
1407
1408
1409
1410
1411
1412
1413
1414
1415
1416
1417
1418
1419
1420
1421
1422
1423
1424
1425
1426
1427
1428
1429
1430
1431
1432
1433
1434
1435
1436
1437
1438
1439
1440
1441
1442
1443
1444
1445
1446
1447
1448
1449
1450
1451
1452
1453
1454
1455
1456
1457
1458
1459
1460
1461
1462
1463
1464
1465
1466
1467
1468
1469
1470
1471
1472
1473
1474
1475
1476
1477
1478
1479
1480
1481
1482
1483
1484
1485
1486
1487
1488
1489
1490
1491
1492
1493
1494
1495
1496
1497
1498
1499
1500
1501
1502
1503
1504
1505
1506
1507
1508
1509
1510
1511
1512
1513
1514
1515
1516
1517
1518
1519
1520
1521
1522
1523
1524
1525
1526
1527
1528
1529
1530
1531
1532
1533
1534
1535
1536
1537
1538
1539
1540
1541
1542
1543
1544
1545
1546
1547
1548
1549
1550
1551
1552
1553
1554
1555
1556
1557
1558
1559
1560
1561
1562
1563
1564
1565
1566
1567
1568
1569
1570
1571
1572
1573
1574
1575
1576
1577
1578
1579
1580
1581
1582
1583
1584
1585
1586
1587
1588
1589
1590
1591
1592
1593
1594
1595
1596
1597
1598
1599
1600
1601
1602
1603
1604
1605
1606
1607
1608
1609
1610
1611
1612
1613
1614
1615
1616
1617
1618
1619
1620
1621
1622
1623
1624
1625
1626
1627
1628
1629
1630
1631
1632
1633
1634
1635
1636
1637
1638
1639
1640
1641
1642
1643
1644
1645
1646
1647
1648
1649
1650
1651
1652
1653
1654
1655
1656
1657
1658
1659
1660
1661
1662
1663
1664
1665
1666
1667
1668
1669
1670
1671
1672
1673
1674
1675
1676
1677
1678
1679
1680
1681
1682
1683
1684
1685
1686
1687
1688
1689
1690
1691
1692
1693
1694
1695
1696
1697
1698
1699
1700
1701
1702
1703
1704
1705
1706
1707
1708
1709
1710
1711
1712
1713
1714
1715
1716
1717
1718
1719
1720
1721
1722
1723
1724
1725
1726
1727
1728
1729
1730
1731
1732
1733
1734
1735
1736
1737
1738
1739
1740
1741
1742
1743
1744
1745
1746
1747
1748
1749
1750
1751
1752
1753
1754
1755
1756
1757
1758
1759
1760
1761
1762
1763
1764
1765
1766
1767
1768
1769
1770
1771
1772
1773
1774
1775
1776
1777
1778
1779
1780
1781
1782
1783
1784
1785
1786
1787
1788
1789
1790
1791
1792
1793
1794
1795
1796
1797
1798
1799
1800
1801
1802
1803
1804
1805
1806
1807
1808
1809
1810
1811
1812
1813
1814
1815
1816
1817
1818
1819
1820
1821
1822
1823
1824
1825
1826
1827
1828
1829
1830
1831
1832
1833
1834
1835
1836
1837
1838
1839
1840
1841
1842
1843
1844
1845
1846
1847
1848
1849
1850
1851
1852
1853
1854
1855
1856
1857
1858
1859
1860
1861
1862
1863
1864
1865
1866
1867
1868
1869
1870
1871
1872
1873
1874
1875
1876
1877
1878
1879
1880
1881
1882
1883
1884
1885
1886
1887
1888
1889
1890
1891
1892
1893
1894
1895
1896
1897
1898
1899
1900
1901
1902
1903
1904
1905
1906
1907
1908
1909
1910
1911
1912
1913
1914
1915
1916
1917
1918
1919
1920
1921
1922
1923
1924
1925
1926
1927
1928
1929
1930
1931
1932
1933
1934
1935
1936
1937
1938
1939
1940
1941
1942
1943
1944
1945
1946
1947
1948
1949
1950
1951
1952
1953
1954
1955
1956
1957
1958
1959
1960
1961
1962
1963
1964
1965
1966
1967
1968
1969
1970
1971
1972
1973
1974
1975
1976
1977
1978
1979
1980
1981
1982
1983
1984
1985
1986
1987
1988
1989
1990
1991
1992
1993
1994
1995
1996
1997
1998
1999
2000
2001
2002
2003
2004
2005
2006
2007
2008
2009
2010
2011
2012
2013
2014
2015
2016
2017
2018
2019
2020
2021
2022
2023
2024
2025
2026
2027
2028
2029
2030
2031
2032
2033
2034
2035
2036
2037
2038
2039
2040
2041
2042
2043
2044
2045
2046
2047
2048
2049
2050
2051
2052
2053
2054
2055
2056
2057
2058
2059
2060
2061
2062
2063
2064
2065
2066
2067
2068
2069
2070
2071
2072
2073
2074
2075
2076
2077
2078
2079
2080
2081
2082
2083
2084
2085
2086
2087
2088
2089
2090
2091
2092
2093
2094
2095
2096
2097
2098
2099
2100
2101
2102
2103
2104
2105
2106
2107
2108
2109
2110
2111
2112
2113
2114
2115
2116
2117
2118
2119
2120
2121
2122
2123
2124
2125
2126
2127
2128
2129
2130
2131
2132
2133
2134
2135
2136
2137
2138
2139
2140
2141
2142
2143
2144
2145
2146
2147
2148
2149
2150
2151
2152
2153
2154
2155
2156
2157
2158
2159
2160
2161
2162
2163
2164
2165
2166
2167
2168
2169
2170
2171
2172
2173
2174
2175
2176
2177
2178
2179
2180
2181
2182
2183
2184
2185
2186
2187
2188
2189
2190
2191
2192
2193
2194
2195
2196
2197
2198
2199
2200
2201
2202
2203
2204
2205
2206
2207
2208
2209
2210
2211
2212
2213
2214
2215
2216
2217
2218
2219
2220
2221
2222
2223
2224
2225
2226
2227
2228
2229
2230
2231
2232
2233
2234
2235
2236
2237
2238
2239
2240
2241
2242
2243
2244
2245
2246
2247
2248
2249
2250
2251
2252
2253
2254
2255
2256
2257
2258
2259
2260
2261
2262
2263
2264
2265
2266
2267
2268
2269
2270
2271
2272
2273
2274
2275
2276
2277
2278
2279
2280
2281
2282
2283
2284
2285
2286
2287
2288
2289
2290
2291
2292
2293
2294
2295
2296
2297
2298
2299
2300
2301
2302
2303
2304
2305
2306
2307
2308
2309
2310
2311
2312
2313
2314
2315
2316
2317
2318
2319
2320
2321
2322
2323
2324
2325
2711
2712
2713
2714
2715
2716
2717
2718
2719
2720
2721
2722
2723
2724
2725
2726
2727
2728
2729
2730
2731
2732
2733
2734
2735
2736
2737
2738
2739
2740
2741
2742
2743
2744
2745
2746
2747
2748
2749
2750
2751
2752
2753
2754
2755
2756
2757
2758
2759
2760
2761
2762
2763
2764
2765
2766
2767
2768
2769
2770
2771
2772
2773
2774
2775
2776
2777
2778
2779
2780
2781
2782
2783
2784
2785
2786
2787
2788
2789
2790
2791
2792
2793
2794
2795
2796
2797
2798
2799
2800
2801
2802
2803
2804
2805
2806
2807
2808
2809
2810
2811
2812
2813
2814
2815
2816
2817
2818
2819
2820
2821
2822
2823
2824
2825
2826
2827
2828
2829
2830

SCALARS element_group int
LOOKUP_TABLE default
0
0
0
0
0
0
0
0
0
0
0
0
0
0
0
0
0
0
0
0
0
0
0
0
0
0
0
0
0
0
0
0
0
0
0
0
0
0
0
0
0
0
0
0
0
0
0
0
0
0
0
0
0
0
0
0
0
0
0
0
0
0
0
0
0
0
0
0
0
0
0
0
0
0
0
0
0
0
0
0
0
0
0
0
0
0
0
0
0
0
0
0
0
0
0
0
0
0
0
0
0
0
0
0
0
0
0
0
0
0
0
0
0
0
0
0
0
0
0
0
0
0
0
0
0
0
0
0
0
0
0
0
0
0
0
0
0
0
0
0
0
0
0
0
0
0
0
0
0
0
0
0
0
0
0
0
0
0
0
0
0
0
0
0
0
0
0
0
0
0
0
0
0
0
0
0
0
0
0
0
0
0
0
0
0
0
0
0
0
0
0
0
0
0
0
0
0
0
0
0
0
0
0
0
0
0
0
0
0
0
0
0
0
0
0
0
0
0
0
0
0
0
0
0
0
0
0
0
0
0
0
0
0
0
0
0
0
0
0
0
0
0
0
0
0
0
0
0
0
0
0
0
0
0
0
0
0
0
0
0
0
0
0
0
0
0
0
0
0
0
0
0
0
0
0
0
0
0
0
0
0
0
0
0
0
0
0
0
0
0
0
0
0
0
0
0
0
0
0
0
0
0
0
0
0
0
0
0
0
0
0
0
0
0
0
0
0
0
0
0
0
0
0
0
0
0
0
0
0
0
0
0
0
0
0
0
0
0
0
0
0
0
0
0
0
0
0
0
0
0
0
0
0
0
0
0
0
0
0
0
0
0
0
0
0
0
0
0
0
0
0
0
0
0
0
0
0
0
0
0
0
0
0
0
0
0
0
0
0
0
0
0
0
0
0
0
0
0
0
0
0
0
0
0
0
0
0
0
0
0
0
0
0
0
0
0
0
0
0
0
0
0
0
0
0
0
0
0
0
0
0
0
0
0
0
0
0
0
0
0
0
0
0
0
0
0
0
0
0
0
0
0
0
0
0
0
0
0
0
0
0
0
0
0
0
0
0
0
0
0
0
0
0
0
0
0
0
0
0
0
0
0
0
0
0
0
0
0
0
0
0
0
0
0
0
0
0
0
0
0
0
0
0
0
0
0
0
0
0
0
0
0
0
0
0
0
0
0
0
0
0
0
0
0
0
0
0
0
0
0
0
0
0
0
0
0
0
0
0
0
0
0
0
0
0
0
0
0
0
0
0
0
0
0
0
0
0
0
0
0
0
0
0
0
0
0
0
0
0
0
0
0
0
0
0
0
0
0
0
0
0
0
0
0
0
0
0
0
0
0
0
0
0
0
0
0
0
0
0
0
0
0
0
0
0
0
0
0
0
0
0
0
0
0
0
0
0
0
0
0
0
0
0
0
0
0
0
0
0
0
0
0
0
0
0
0
0
0
0
0
0
0
0
0
0
0
0
0
0
0
0
0
0
0
0
0
0
0
0
0
0
0
0
0
0
0
0
0
0
0
0
0
0
0
0
0
0
0
0
0
0
0
0
0
0
0
0
0
0
0
0
0
0
0
0
0
0
0
0
0
0
0
0
0
0
0
0
0
0
0
0
0
0
0
0
0
0
0
0
0
0
0
0
0
0
0
0
0
0
0
0
0
0
0
0
0
0
0
0
0
0
0
0
0
0
0
0
0
0
0
0
0
0
0
0
0
0
0
0
0
0
0
0
0
0
0
0
0
0
0
0
0
0
0
0
0
0
0
0
0
0
0
0
0
0
0
0
0
0
0
0
0
0
0
0
0
0
0
0
0
0
0
0
0
0
0
0
0
0
0
0
0
0
0
0
0
0
0
0
0
0
0
0
0
0
0
0
0
0
0
0
0
0
0
0
0
0
0
0
0
0
0
0
0
0
0
0
0
0
0
0
0
0
0
0
0
0
0
0
0
0
0
0
0
0
0
0
0
0
0
0
0
0
0
0
0
0
0
0
0
0
0
0
0
0
0
0
0
0
0
0
0
0
0
0
0
0
0
0
0
0
0
0
0
0
0
0
0
0
0
0
0
0
0
0
0
0
0
0
0
0
0
0
0
0
0
0
0
0
0
0
0
0
0
0
0
0
0
0
0
0
0
0
0
0
0
0
0
0
0
0
0
0
0
0
0
0
0
0
0
0
0
0
0
0
0
0
0
0
0
0
0
0
0
0
0
0
0
0
0
0
0
0
0
0
0
0
0
0
0
0
0
0
0
0
0
0
0
0
0
0
0
0
0
0
0
0
0
0
0
0
0
0
0
0
0
0
0
0
0
0
0
0
0
0
0
0
0
0
0
0
0
0
0
0
0
0
0
0
0
0
0
0
0
0
0
0
0
0
0
0
0
0
0
0
0
0
0
0
0
0
0
0
0
0
0
0
0
0
0
0
0
0
0
0
0
0
0
0
0
0
0
0
0
0
0
0
0
0
0
0
0
0
0
0
0
0
0
0
0
0
0
0
0
0
0
0
0
0
0
0
0
0
0
0
0
0
0
0
0
0
0
0
0
0
0
0
0
0
0
0
0
0
0
0
0
0
0
0
0
0
0
0
0
0
0
0
0
0
0
0
0
0
0
0
0
0
0
0
0
0
0
0
0
0
0
0
0
0
0
0
0
0
0
0
0
0
0
0
0
0
0
0
0
0
0
0
0
0
0
0
0
0
0
0
0
0
0
0
0
0
0
0
0
0
0
0
0
0
0
0
0
0
0
0
0
0
0
0
0
0
0
0
0
0
0
0
0
0
0
0
0
0
0
0
0
0
0
0
0
0
0
0
0
0
0
0
0
0
0
0
0
0
0
0
0
0
0
0
0
0
0
0
0
0
0
0
0
0
0
0
0
0
0
0
0
0
0
0
0
0
0
0
0
0
0
0
0
0
0
0
0
0
0
0
0
0
0
0
0
0
0
0
0
0
0
0
0
0
0
0
0
0
0
0
0
0
0
0
0
0
0
0
0
0
0
0
0
0
0
0
0
0
0
0
0
0
0
0
0
0
0
0
0
0
0
0
0
0
0
0
0
0
0
0
0
0
0
0
0
0
0
0
0
0
0
0
0
0
0
0
0
0
0
0
0
0
0
0
0
0
0
0
0
0
0
0
0
0
0
0
0
0
0
0
0
0
0
0
0
0
0
0
0
0
0
0
0
0
0
0
0
0
0
0
0
0
0
0
0
0
0
0
0
0
0
0
0
0
0
0
0
0
0
0
0
0
0
0
0
0
0
0
0
0
0
0
0
0
0
0
0
0
0
0
0
0
0
0
0
0
0
0
0
0
0
0
0
0
0
0
0
0
0
0
0
0
0
0
0
0
0
0
0
0
0
0
0
0
0
0
0
0
0
0
0
0
0
0
0
0
0
0
0
0
0
0
0
0
0
0
0
0
0
0
0
0
0
0
0
0
0
0
0
0
0
0
0
0
0
0
0
0
0
0
0
0
0
0
0
0
0
0
0
0
0
0
0
0
0
0
0
0
0
0
0
0
0
0
0
0
0
0
0
0
0
0
0
0
0
0
0
0
0
0
0
0
0
0
0
0
0
0
0
0
0
0
0
0
0
0
0
0
0
0
0
0
0
0
0
0
0
0
0
0
0
0
0
0
0
0
0
0
0
0
0
0
0
0
0
0
0
0
0
0
0
0
0
0
0
0
0
0
0
0
0
0
0
0
0
0
0
0
0
0
0
0
0
0
0
0
0
0
0
0
0
0
0
0
0
0
0
0
0
0
0
0
0
0
0
0
0
0
0
0
0
0
0
0
0
0
0
0
0
0
0
0
0
0
0
0
0
0
0
0
0
0
0
0
0
0
0
0
0
0
0
0
0
0
0
0
0
0
0
0
0
0
0
0
0
0
0
0
0
0
0
0
0
0
0
0
0
0
0
0
0
0
0
0
0
0
0
0
0
0
0
0
0
0
0
0
0
0
0
0
0
0
0
0
0
0
0
0
0
0
0
0
0
0
0
0
0
0
0
0
0
0
0
0
0
0
0
0
0
0
0
0
0
0
0
0
0
0
0
0
0
0
0
0
0
0
0
0
0
0
0
0
0
0
0
0
0
0
0
0
0
0
0
0
0
0
0
0
0
0
0
0
0
0
0
0
0
0
0
0
0
0
0
0
0
0
0
0
0
0
0
0
0
0
0
0
0
0
0
0
0
0
0
0
0
0
0
0
0
0
0
0
0
0
0
0
0
0
0
0
0
0
0
0
0
0
0
0
0
0
0
0
0
0
0
0
0
0
0
0
0
0
0
0
0
0
0
0
0
0
0
0
0
0
0
0
0
0
0
0
0
0
0
0
0
0
0
0
0
0
0
0
0
0
0
0
0
0
0
0
0
0
0
0
0
0
0
0
0
0
0
0
0
0
0
0
0
0
0
0
0
0
0
0
0
0
0
0
0
0
0
0
0
0
0
0
0
0
0
0
0
0
0
0
0
0
0
0
0
0
0
0
0
0
0
0
0
0
0
0
0
0
0
0
0
0
0
0
0
0
0
0
0
0
0
0
0
0
0
0
0
0
0
0
0
0
0
0
0
0
0
0
0
0
0
0
0
0
0
0
0
0
0
0


VECTORS element_materi_velocity float
6.486196231672e-04 2.454203138031e-03 0.0 
7.129829236748e-04 2.139757401135e-03 0.0 
8.095109032370e-04 7.552242618641e-04 0.0 
1.090361971549e-04 1.486103435508e-03 0.0 
9.749758399855e-04 8.385775392230e-03 0.0 
7.488374482428e-05 1.045155864724e-04 0.0 
7.395696942167e-04 8.323772526731e-03 0.0 
5.342610851711e-04 1.823844727969e-03 0.0 
8.162399488729e-04 8.373453089152e-03 0.0 
1.609227126819e-04 1.520473566619e-03 0.0 
5.789765947990e-05 -1.168587632791e-04 0.0 
3.417046578115e-04 1.806609864109e-03 0.0 
2.510447139257e-05 -4.509934489542e-06 0.0 
1.526804518793e-03 7.307176175605e-03 0.0 
2.064804073756e-05 -1.610710447143e-06 0.0 
8.852998044406e-05 1.048887244211e-03 0.0 
1.237106514139e-03 8.656594003430e-03 0.0 
9.969938919175e-05 4.009213834641e-05 0.0 
4.540989665571e-05 -3.336555969255e-04 0.0 
3.527209436411e-05 -3.268080378824e-04 0.0 
1.922162519436e-04 1.557277537396e-03 0.0 
1.182543645774e-03 3.569406403989e-03 0.0 
1.397775134308e-03 3.681505698352e-03 0.0 
4.126588634081e-04 3.678610812199e-05 0.0 
1.840483140959e-03 6.120643856338e-03 0.0 
6.364402633158e-05 -1.020119401836e-04 0.0 
1.827098895517e-03 8.824379401024e-03 0.0 
7.616755578906e-04 2.900063522804e-04 0.0 
1.953248815884e-03 6.025275778135e-03 0.0 
3.351687258119e-04 3.348000142104e-05 0.0 
2.310226018908e-04 -2.773864970358e-04 0.0 
1.580617478285e-04 -3.906969946760e-04 0.0 
9.433255952367e-04 9.511333564381e-04 0.0 
1.782565905248e-05 -4.013663756959e-05 0.0 
1.464769693652e-04 3.751195080919e-06 0.0 
3.945997386998e-05 5.880517159913e-07 0.0 
3.591231137216e-05 2.957401426614e-07 0.0 
4.669819390950e-04 9.738435008915e-05 0.0 
6.114416680209e-04 9.285176417453e-03 0.0 
5.576997876292e-04 9.296597955273e-03 0.0 
1.987751949577e-03 5.610837776915e-03 0.0 
1.480079017878e-04 1.044321060372e-05 0.0 
1.640604859561e-04 1.246450996927e-03 0.0 
1.964812509017e-03 8.366104558618e-03 0.0 
5.740212873867e-05 2.108248548103e-03 0.0 
1.948695614955e-04 1.067353125816e-03 0.0 
1.863576448041e-04 -2.723207682198e-04 0.0 
6.550721838378e-05 1.789295929674e-03 0.0 
1.288112569451e-04 -2.911505180267e-04 0.0 
1.468613720885e-03 7.795539653991e-03 0.0 
1.690119480885e-03 4.601699685294e-03 0.0 
4.545270724582e-05 -3.176917549405e-04 0.0 
3.495752662508e-04 -2.666772878665e-04 0.0 
1.729999732711e-03 5.479809069316e-03 0.0 
6.451149454140e-04 9.027957850597e-04 0.0 
7.946505893695e-05 -2.901852759714e-04 0.0 
3.631670488923e-05 -3.102722468434e-04 0.0 
3.616863584709e-05 -4.085880232375e-05 0.0 
9.883957276483e-05 -3.558072082425e-04 0.0 
1.067577277506e-04 1.057105919037e-03 0.0 
5.817732625967e-05 -2.027325292158e-04 0.0 
9.623828703307e-04 2.865826043665e-04 0.0 
1.417453263557e-03 1.552775062513e-03 0.0 
3.085616897762e-04 -2.761822082403e-04 0.0 
4.112078374051e-05 -4.183966676216e-06 0.0 
1.442260541593e-03 4.444726816561e-03 0.0 
6.150570241438e-05 -1.742134751597e-04 0.0 
9.707926322075e-04 8.655884100151e-04 0.0 
2.405879666150e-04 -3.745192304209e-04 0.0 
7.757570245841e-04 4.411614251096e-04 0.0 
9.551990609793e-05 -8.761504369949e-05 0.0 
1.121578612351e-04 2.872466875485e-04 0.0 
9.956695406954e-04 3.826729258786e-04 0.0 
7.814516464294e-06 -3.590776684950e-04 0.0 
7.102687899991e-05 -2.804708809283e-04 0.0 
3.872209622245e-04 1.346561037081e-03 0.0 
7.947765468132e-04 1.078079725890e-03 0.0 
6.785091540689e-05 6.570032809309e-04 0.0 
1.107987494930e-04 -3.549268904826e-04 0.0 
3.976576852256e-05 7.822987883207e-04 0.0 
2.497979194225e-04 -3.687541284432e-04 0.0 
1.180065624337e-03 8.406772900876e-03 0.0 
1.101403369020e-03 2.968151808516e-03 0.0 
8.412966543139e-04 2.881091178714e-03 0.0 
9.340165692161e-04 7.813437896150e-03 0.0 
8.560189223957e-04 7.787100964338e-03 0.0 
5.566208839271e-05 -7.508278827497e-05 0.0 
9.644918943463e-06 -4.992148157927e-05 0.0 
2.183940306175e-03 2.335484305870e-03 0.0 
1.048847125931e-03 8.341134467525e-03 0.0 
1.653897051764e-04 -3.891677001786e-04 0.0 
2.018293956366e-03 7.634245334713e-03 0.0 
1.696217152078e-04 4.228515965290e-03 0.0 
2.046975677970e-04 4.574015480119e-03 0.0 
2.239540018828e-04 5.293747817670e-04 0.0 
3.415057627711e-04 7.683522701559e-05 0.0 
1.319555496798e-03 8.393454408105e-03 0.0 
1.687402838104e-04 9.181674257673e-06 0.0 
1.214067075061e-04 6.724088619713e-03 0.0 
1.271374586895e-03 1.708987138977e-03 0.0 
9.349441897406e-04 8.879915932016e-03 0.0 
2.658745864372e-05 -1.579151661324e-06 0.0 
1.462507582502e-03 3.334303622017e-04 0.0 
9.229090924838e-04 2.566385450009e-04 0.0 
8.983938280831e-04 7.687918737821e-04 0.0 
1.691195147816e-04 -2.961349205162e-04 0.0 
2.950233481170e-05 -1.536721733258e-05 0.0 
1.732022677347e-04 3.641403814381e-03 0.0 
9.634949734585e-05 -2.637340743483e-04 0.0 
4.979322451784e-05 -6.716630163003e-07 0.0 
2.353984285169e-03 2.564031693948e-03 0.0 
1.248111314902e-05 -3.638924442031e-04 0.0 
1.502984984868e-03 6.506756277812e-04 0.0 
2.337052097143e-03 7.539651287125e-03 0.0 
1.245966429882e-04 -2.494456594380e-04 0.0 
1.044583167316e-03 1.581879716066e-03 0.0 
1.352352747682e-03 1.307405393161e-03 0.0 
1.031658176090e-04 4.554751721311e-06 0.0 
1.532829622656e-04 7.139808227993e-03 0.0 
1.147923867609e-03 1.206645894863e-03 0.0 
2.120497382332e-04 -3.812621266474e-04 0.0 
2.069865572808e-03 7.765209167824e-03 0.0 
1.372163795317e-04 3.336665896804e-03 0.0 
1.107120744979e-03 1.009803969006e-03 0.0 
-4.772245317799e-06 3.711499606455e-04 0.0 
2.307321879843e-03 7.057483891877e-03 0.0 
1.084685767023e-04 -2.552913286612e-04 0.0 
2.132369579555e-03 7.203707115022e-03 0.0 
2.967857832787e-04 9.488843091176e-04 0.0 
6.493353695211e-05 3.200408738380e-04 0.0 
8.952856241361e-05 -1.010659032457e-04 0.0 
8.608037577080e-05 1.471278754260e-03 0.0 
2.313558981435e-03 3.014054569941e-03 0.0 
2.191340587139e-03 6.498470517089e-03 0.0 
1.594085128703e-04 5.365452973872e-06 0.0 
1.718034924353e-05 -4.457352160361e-06 0.0 
7.862243276643e-05 -7.509378594961e-05 0.0 
2.486485291148e-03 3.148325391789e-03 0.0 
2.295390701703e-04 2.373146339953e-05 0.0 
2.291798118946e-03 3.857608508726e-03 0.0 
2.232864359216e-04 1.076598136082e-03 0.0 
9.217256753968e-04 5.618157452141e-04 0.0 
1.623767775102e-03 7.211361443375e-03 0.0 
3.906854962994e-04 5.554548049586e-03 0.0 
2.204705601637e-03 3.320474064165e-03 0.0 
1.971772988572e-03 6.487853609514e-03 0.0 
2.540461746044e-03 2.837380735769e-03 0.0 
1.178907183857e-03 7.469289686066e-04 0.0 
7.018243404513e-04 8.809604351620e-03 0.0 
1.428896980853e-03 5.205684872379e-04 0.0 
1.593194499260e-04 -3.900689299438e-04 0.0 
1.722263030840e-04 8.047329433866e-03 0.0 
4.011459456953e-05 -3.417104264883e-04 0.0 
2.347819455241e-03 7.391689926435e-03 0.0 
1.825364817103e-04 1.868468689897e-05 0.0 
9.260764769695e-04 9.306279216292e-04 0.0 
4.200236812194e-05 -6.257952813500e-05 0.0 
2.970922719430e-04 1.355563731065e-03 0.0 
1.534023450110e-03 3.899420663718e-04 0.0 
4.015039063331e-04 8.477041255207e-03 0.0 
1.291928320403e-03 4.650256039418e-04 0.0 
4.055227320420e-05 -3.145862429971e-05 0.0 
2.229602601053e-04 -3.803187065086e-04 0.0 
4.141857261598e-05 -1.536127266625e-05 0.0 
2.696373016115e-03 5.952746337971e-03 0.0 
5.687186600303e-05 -2.340372188428e-06 0.0 
1.703383732078e-04 8.547571674765e-03 0.0 
1.016921275941e-03 6.823048621977e-04 0.0 
2.246469012541e-03 7.827130825570e-03 0.0 
3.712330094209e-05 -1.204074541814e-04 0.0 
2.515195375503e-04 1.571021769547e-03 0.0 
1.235937585773e-03 3.583512701725e-04 0.0 
3.440009893875e-04 5.028769384918e-03 0.0 
4.566647295851e-04 8.817071613321e-03 0.0 
1.272060246888e-03 6.627373612807e-04 0.0 
2.217250255607e-03 7.624594331821e-03 0.0 
1.878609345588e-03 1.286709797406e-03 0.0 
1.273641515799e-04 -2.327233455024e-04 0.0 
5.960785096635e-04 2.139300448431e-04 0.0 
9.110140838526e-04 4.957478032675e-04 0.0 
8.960652932134e-04 1.721585338093e-03 0.0 
1.126696853907e-04 -2.232515293099e-04 0.0 
6.512885572477e-04 6.235179445507e-05 0.0 
2.145371059142e-03 4.264769632608e-03 0.0 
6.750512888402e-04 1.590032491268e-03 0.0 
2.493329730202e-03 6.923701798834e-03 0.0 
1.429648551318e-03 7.292139731573e-04 0.0 
1.593809953272e-04 1.143533571152e-03 0.0 
2.207361357449e-03 3.004375806340e-03 0.0 
2.812877936364e-05 -2.269193834235e-05 0.0 
1.207404304018e-04 8.430473737616e-04 0.0 
1.066344608103e-03 2.242712413703e-04 0.0 
2.139992315982e-03 2.460238920147e-03 0.0 
-1.508357375437e-04 1.573851831020e-04 0.0 
2.201217157489e-03 4.962555385993e-03 0.0 
6.627732352037e-04 1.178912491477e-05 0.0 
1.240722271373e-04 -3.737600722548e-04 0.0 
9.061832687359e-04 1.106219020916e-03 0.0 
2.104586618018e-03 4.818043127530e-03 0.0 
4.724769183791e-04 -2.755941951513e-04 0.0 
7.045281478150e-04 2.296424530267e-05 0.0 
2.068351129559e-03 7.124176315383e-03 0.0 
1.786710165927e-03 6.621973861457e-03 0.0 
3.109937549557e-04 2.779763928519e-05 0.0 
3.235484725928e-04 -3.277824885524e-04 0.0 
2.477685634813e-03 2.218642444351e-03 0.0 
2.823812322302e-03 4.994516512560e-03 0.0 
1.987861793342e-03 4.418047491078e-03 0.0 
2.699818073989e-03 5.760021169191e-03 0.0 
2.588007783195e-03 6.536450030248e-03 0.0 
1.523669346713e-03 2.666258643013e-04 0.0 
2.070024365025e-03 1.529385259376e-03 0.0 
-4.224275844753e-05 8.507830392602e-05 0.0 
9.543362721533e-04 2.048383449535e-03 0.0 
1.349146640867e-03 2.021233182012e-03 0.0 
2.446476403382e-03 2.460795583896e-03 0.0 
2.028571462178e-03 2.698548484309e-03 0.0 
2.300100706388e-04 7.484366856388e-05 0.0 
6.495563866118e-04 -1.604125830098e-05 0.0 
5.135082264195e-04 8.693887903429e-03 0.0 
1.110572175607e-03 3.128522487192e-04 0.0 
6.255040126674e-04 -4.381296674440e-05 0.0 
1.453565830518e-04 -3.860616765329e-04 0.0 
1.952821097144e-03 3.921933598467e-03 0.0 
1.378309793580e-04 -3.870752020713e-04 0.0 
1.176722794240e-04 -3.680549453882e-04 0.0 
9.367510998979e-05 9.919967819008e-04 0.0 
2.908566138930e-04 -3.479030052144e-04 0.0 
1.800403420301e-03 3.524807284489e-03 0.0 
2.839070857561e-04 -3.567362623393e-04 0.0 
3.654059053285e-04 5.612124475131e-04 0.0 
3.173334399273e-04 -3.301099126815e-04 0.0 
2.230449955606e-04 -3.766362394127e-04 0.0 
7.071000743530e-04 5.086095764262e-05 0.0 
2.762911444810e-03 5.534508138713e-03 0.0 
4.912116846672e-05 -4.030630732261e-06 0.0 
-1.039271474185e-04 9.294952129698e-05 0.0 
5.901895797680e-04 5.256777714619e-04 0.0 
1.302166699324e-03 3.097892168525e-04 0.0 
1.892025599403e-03 4.034942639508e-03 0.0 
6.919506398441e-04 -6.194786056969e-06 0.0 
6.183871334092e-05 -9.593046097234e-07 0.0 
2.297310004334e-03 3.444622544392e-03 0.0 
7.371537834597e-04 1.247888349676e-04 0.0 
6.655124357088e-04 3.820663527548e-05 0.0 
4.667502564218e-05 -8.855008296281e-05 0.0 
2.655875249365e-03 2.921051915377e-03 0.0 
2.186166598002e-03 4.200932286672e-03 0.0 
8.236085268742e-04 2.559037015335e-04 0.0 
1.242325571484e-03 2.234148801355e-04 0.0 
4.755731413295e-04 6.045017508503e-04 0.0 
2.720040336384e-03 4.989968643549e-03 0.0 
1.809172014551e-04 4.894690217856e-04 0.0 
2.380336049661e-03 1.918197622134e-03 0.0 
1.412265241414e-03 1.472820332605e-04 0.0 
3.903619865804e-04 7.874819939145e-03 0.0 
2.297036600522e-04 -3.655680164333e-04 0.0 
2.614815791281e-03 6.089368456289e-03 0.0 
7.596701968079e-04 2.015129487334e-04 0.0 
3.790371549212e-04 3.841550279714e-05 0.0 
2.614848085236e-04 -2.586313694032e-04 0.0 
1.705164516883e-03 3.597236235323e-03 0.0 
2.815182879696e-03 4.856584394916e-03 0.0 
1.241424004009e-03 9.125920275673e-04 0.0 
1.541304808951e-03 3.178103085699e-03 0.0 
2.266380603634e-03 2.866808668978e-03 0.0 
2.798000548937e-03 3.358963982751e-03 0.0 
7.202080763728e-05 1.558862975401e-06 0.0 
1.397675544125e-03 1.289928736703e-04 0.0 
2.863805551612e-03 3.733992010832e-03 0.0 
1.645685656933e-03 7.161812603460e-04 0.0 
1.446326902974e-03 1.657808276000e-04 0.0 
5.330676902351e-04 1.325763706617e-05 0.0 
1.824881893542e-03 7.948592714942e-03 0.0 
1.225147644836e-03 1.175775316592e-04 0.0 
6.194604882969e-04 -2.247060862347e-04 0.0 
2.221321316477e-03 3.583537406778e-03 0.0 
-1.119397482998e-04 4.046929355626e-05 0.0 
2.594722546884e-03 5.814475138316e-03 0.0 
8.129681300139e-04 8.335759427205e-05 0.0 
5.818856949358e-04 4.131711522442e-04 0.0 
5.213973862469e-04 -4.325467684529e-05 0.0 
2.728145169314e-03 4.484327132331e-03 0.0 
1.806817136229e-04 -3.873231003018e-04 0.0 
1.658719389773e-03 2.532412672940e-03 0.0 
1.408611605928e-03 1.489142966432e-04 0.0 
2.757727060077e-03 5.203850852290e-03 0.0 
1.873908074512e-03 7.327074020512e-03 0.0 
1.738251155048e-04 -3.840225565333e-06 0.0 
6.459813866636e-04 -1.964967670187e-04 0.0 
5.336053475423e-04 -2.644201278812e-04 0.0 
1.180626200228e-03 2.220923870543e-03 0.0 
2.277073657967e-03 4.064963631813e-03 0.0 
1.577583922373e-03 2.161212120539e-03 0.0 
1.129946849709e-03 8.144754414733e-05 0.0 
1.131868890429e-03 1.833959261066e-04 0.0 
2.345491875499e-04 1.106361580931e-05 0.0 
1.690740005222e-03 6.412906197778e-04 0.0 
1.841555149074e-04 4.819188219426e-04 0.0 
3.333678110563e-04 4.412907479230e-04 0.0 
4.121395039556e-04 4.218008157204e-04 0.0 
2.392902104356e-03 1.730182099681e-03 0.0 
6.378572285226e-04 9.896667064310e-05 0.0 
4.708357691129e-04 2.847094220817e-04 0.0 
2.845246613952e-03 3.335589893431e-03 0.0 
5.554065471588e-04 1.467063069138e-04 0.0 
5.563940713355e-04 -2.408677808376e-04 0.0 
2.727654861507e-03 3.321949055874e-03 0.0 
2.907460598991e-04 1.307519989146e-03 0.0 
9.522210330450e-04 1.874137042366e-04 0.0 
1.602379661068e-03 3.272247542964e-04 0.0 
2.783210655021e-04 4.159203732936e-04 0.0 
1.191777960483e-04 1.775053888271e-05 0.0 
5.647811525729e-04 2.258070996217e-04 0.0 
2.664694624287e-03 2.621298444470e-03 0.0 
3.079730828771e-04 -3.713062381917e-05 0.0 
9.793273543479e-04 -2.167604023106e-05 0.0 
1.287690158205e-03 1.874190132479e-04 0.0 
5.664674933635e-04 -2.696104975350e-04 0.0 
2.853016212679e-03 4.584683555588e-03 0.0 
3.770209390399e-04 2.620722444609e-04 0.0 
9.803027303415e-04 7.788521774837e-05 0.0 
1.334417797967e-03 1.022027979470e-04 0.0 
2.872225172622e-04 3.207585866734e-04 0.0 
1.344727517047e-03 5.774978029582e-03 0.0 
6.673171648359e-04 -3.558198284493e-05 0.0 
6.109294332484e-04 7.967995595890e-04 0.0 
1.315747832845e-03 6.288188396776e-03 0.0 
3.740655022041e-04 1.846895152250e-04 0.0 
5.857563544841e-04 -7.258491508811e-06 0.0 
4.016793685551e-04 3.164044036592e-04 0.0 
1.620994596852e-03 6.208329041046e-03 0.0 
2.379482641995e-03 2.404634695663e-03 0.0 
3.498761360248e-04 8.253124791508e-04 0.0 
2.758266893420e-03 5.162863947820e-03 0.0 
2.869818853284e-03 4.111127511925e-03 0.0 
2.854376163923e-03 4.021595118459e-03 0.0 
2.151024110524e-03 1.565597693121e-03 0.0 
3.355364562573e-04 1.342692391673e-04 0.0 
2.020479915810e-03 6.404101548188e-03 0.0 
2.516692680413e-03 6.669345393654e-03 0.0 
1.082032682022e-03 1.112700717071e-04 0.0 
2.569925624305e-04 -3.642585227631e-04 0.0 
2.604880282306e-03 6.242696771941e-03 0.0 
7.398145167359e-04 7.068536431542e-04 0.0 
3.443481635774e-04 8.783287124205e-03 0.0 
5.400922616736e-04 -2.868535175101e-04 0.0 
9.160153636906e-04 1.131535350141e-04 0.0 
1.980283783310e-03 3.348346596010e-03 0.0 
7.199503678926e-04 5.712922744940e-04 0.0 
2.824036327247e-03 4.643589146035e-03 0.0 
1.287390030598e-03 9.289266281148e-05 0.0 
6.349339394102e-04 -1.639425137147e-04 0.0 
2.463792612740e-04 7.333901457081e-05 0.0 
2.400890502859e-03 5.115946029879e-03 0.0 
6.238689703760e-04 -1.454465587128e-04 0.0 
4.726507831952e-04 -2.889330244180e-04 0.0 
6.343678298372e-04 1.353174062770e-03 0.0 
6.211105341203e-04 9.584269096034e-04 0.0 
1.943464483523e-03 2.189535983282e-03 0.0 
2.728583114898e-03 2.666040169705e-03 0.0 
1.812682291397e-03 3.448225039173e-03 0.0 
2.677501280453e-03 5.184208770666e-03 0.0 
1.819800682936e-04 3.698057910046e-05 0.0 
4.637299050698e-04 8.868359920640e-05 0.0 
1.891062875904e-03 2.290278410083e-03 0.0 
2.047908229448e-03 3.822605506190e-03 0.0 
6.551229677686e-04 -1.795756983908e-04 0.0 
1.631976382705e-03 1.671628339567e-03 0.0 
6.211735367724e-04 3.362270303313e-05 0.0 
7.841302833855e-04 2.064876633276e-05 0.0 
2.580490352397e-03 2.295474125317e-03 0.0 
1.026325094776e-03 -2.729082175314e-05 0.0 
3.257638071825e-04 -2.265698691206e-04 0.0 
1.691181463627e-03 2.542402481913e-03 0.0 
6.015230577005e-04 -1.818417550811e-04 0.0 
1.909715408427e-03 1.247991467036e-03 0.0 
2.838747079512e-03 3.758293594051e-03 0.0 
1.665422666422e-03 1.282621346588e-03 0.0 
4.109254741374e-04 3.667241878426e-04 0.0 
3.856521589999e-04 4.478724745465e-04 0.0 
9.414066774618e-04 1.078349273406e-03 0.0 
6.531042054733e-04 -1.425843624791e-04 0.0 
1.449437724952e-03 3.221231264143e-03 0.0 
4.764488459666e-04 7.400621703172e-04 0.0 
9.386025789381e-04 1.742281116953e-05 0.0 
3.767604403514e-04 -2.151655664817e-05 0.0 
1.888529698714e-03 2.693002631512e-03 0.0 
1.643535566986e-03 8.122456556632e-03 0.0 
1.516501161406e-03 6.251052723646e-03 0.0 
3.076862353138e-04 4.112192914944e-05 0.0 
2.026650604799e-03 1.979211553107e-03 0.0 
2.642038105899e-03 5.271245642478e-03 0.0 
2.829328873515e-03 3.590073089484e-03 0.0 
4.445342545840e-04 -6.022442684270e-05 0.0 
1.878472149891e-04 -3.748812642715e-04 0.0 
1.489702878195e-03 4.615614267952e-04 0.0 
2.086414852983e-03 1.203616010929e-03 0.0 
1.608845230498e-03 5.167779267704e-04 0.0 
-2.602969995395e-05 4.648906714446e-04 0.0 
3.255202014379e-04 7.612863380766e-03 0.0 
2.473576189817e-04 -3.710787328095e-04 0.0 
6.852417762433e-04 3.476756986879e-04 0.0 
6.427156431313e-05 1.017023409694e-05 0.0 
1.371937671154e-03 1.930899037176e-04 0.0 
2.416153927322e-03 6.953293846123e-03 0.0 
2.711149130502e-05 -3.441034857222e-04 0.0 
2.249327932429e-03 1.828148805737e-03 0.0 
1.418963331295e-03 3.574564901792e-04 0.0 
2.779593094023e-03 4.198843990635e-03 0.0 
3.848249877101e-04 2.370035154275e-04 0.0 
2.726345901359e-03 5.643949983527e-03 0.0 
2.812297020321e-03 3.003736061388e-03 0.0 
3.561357294678e-04 -2.279272905563e-04 0.0 
1.720278734096e-03 3.057377656102e-03 0.0 
6.241826773701e-04 -1.268276271163e-04 0.0 
3.927952897623e-04 2.169168180709e-04 0.0 
2.087085406174e-04 1.742979218883e-04 0.0 
1.576382224921e-04 2.227928231425e-04 0.0 
2.099225704357e-04 2.293745497661e-04 0.0 
2.748830477214e-03 3.746669485453e-03 0.0 
1.805071964801e-03 2.980245059900e-03 0.0 
1.767977922536e-03 1.817130264488e-03 0.0 
1.747355528412e-03 1.519707901055e-03 0.0 
1.714334987548e-03 1.967819354558e-03 0.0 
2.783641109386e-04 -2.394312091646e-04 0.0 
1.763592074722e-03 2.465761833607e-03 0.0 
3.563854677092e-04 1.580635961304e-04 0.0 
1.449629690809e-03 2.716453577089e-03 0.0 
1.433962663794e-03 1.820334338866e-04 0.0 
1.533364712536e-03 2.668157098327e-03 0.0 
2.070516413763e-03 8.912346106678e-04 0.0 
1.960011094925e-03 1.127580928374e-03 0.0 
1.978935233827e-03 3.140917587712e-03 0.0 
3.778738697041e-04 2.587649513419e-04 0.0 
4.298065099833e-04 1.033571814221e-03 0.0 
1.484943004841e-03 1.189172115749e-03 0.0 
1.080081339466e-03 4.712455711322e-04 0.0 
3.067853147124e-04 -2.413286221614e-04 0.0 
4.653763863457e-04 -3.142568693496e-04 0.0 
2.349217617586e-04 3.119289389046e-05 0.0 
8.320123646251e-04 4.963820574093e-04 0.0 
1.929708279377e-04 1.421064817709e-04 0.0 
6.929519828911e-04 8.459492385188e-04 0.0 
2.698812964050e-03 2.384627718994e-03 0.0 
1.638659643345e-04 -3.744202870007e-04 0.0 
2.007748766078e-04 1.170377527375e-04 0.0 
2.993429310728e-04 5.087777282414e-05 0.0 
4.881255723211e-04 -3.008593457929e-04 0.0 
1.300212544838e-03 1.228454635198e-04 0.0 
2.339630558718e-04 6.340648839984e-05 0.0 
1.423861929138e-04 -3.784380703002e-04 0.0 
1.754086157525e-03 1.161787630658e-03 0.0 
2.767219212217e-03 2.677256701665e-03 0.0 
2.570024167590e-03 2.060660034226e-03 0.0 
2.790109427405e-03 3.002808567490e-03 0.0 
4.724467825174e-04 3.791893531331e-04 0.0 
1.820450890496e-04 8.481044989162e-05 0.0 
1.076825482100e-03 2.318710639585e-05 0.0 
1.875221029513e-04 -6.572617482905e-05 0.0 
9.365731594318e-05 1.446724990660e-06 0.0 
1.566385438329e-04 -3.799137634402e-04 0.0 
2.535145672765e-03 4.576062562318e-03 0.0 
2.556576241005e-04 -3.038087205198e-04 0.0 
2.533080592837e-03 6.716958619404e-03 0.0 
1.558891236872e-04 2.825243648557e-05 0.0 
1.611960775977e-04 6.101609292854e-05 0.0 
2.828944080712e-03 4.357219044479e-03 0.0 
1.929528017671e-04 -3.183249013660e-04 0.0 
1.358815517031e-04 -8.037580292459e-05 0.0 
2.348259539992e-04 -3.209329725536e-04 0.0 
3.013531741999e-04 -2.219121781372e-05 0.0 
1.705873669495e-03 8.353333701667e-03 0.0 
2.415118196654e-03 6.635242307985e-03 0.0 
1.283224505475e-04 3.988447015587e-05 0.0 
1.532808842934e-03 8.502093427216e-03 0.0 
2.959931273574e-04 4.451152355641e-04 0.0 
1.949547187643e-03 7.812471943842e-04 0.0 
1.375428668090e-03 6.805358094084e-03 0.0 
7.970316308001e-04 1.227755334833e-03 0.0 
1.372591370073e-03 1.652747358987e-04 0.0 
3.057106805358e-04 8.658148838071e-05 0.0 
1.159062451453e-04 2.995194398490e-05 0.0 
2.022169335200e-04 1.924262659544e-04 0.0 
1.757295885642e-04 2.184979247805e-04 0.0 
5.826492221586e-04 -1.317188147412e-04 0.0 
2.332703606748e-04 -2.509148121119e-04 0.0 
1.866842199331e-03 9.440824687897e-04 0.0 
5.515460682648e-04 -1.157303444085e-04 0.0 
9.993113675701e-05 2.153611401035e-05 0.0 
6.697482472849e-04 2.547915771169e-04 0.0 
6.539918534178e-04 -2.318833067871e-04 0.0 
6.489513846876e-04 -2.542292231965e-04 0.0 
1.219175615192e-03 6.290290421266e-03 0.0 
1.033373394841e-04 1.380393960067e-05 0.0 
1.776837311110e-04 -3.333704741300e-04 0.0 
7.384019215060e-05 1.280797139545e-05 0.0 
5.644550527707e-04 -2.861726474144e-04 0.0 
1.840501111023e-04 1.199657626900e-04 0.0 
1.807216053619e-03 1.731560448590e-03 0.0 
1.302985459013e-04 -3.700478185657e-04 0.0 
1.731138335529e-03 8.718573295295e-04 0.0 
1.278068918631e-03 2.781545099621e-03 0.0 
1.920204131545e-04 9.987906533339e-05 0.0 
2.773134173494e-03 3.473522510322e-03 0.0 
1.746520298539e-03 5.957699040673e-04 0.0 
2.091105840616e-04 2.963201264784e-04 0.0 
4.654756867632e-04 6.362128410902e-05 0.0 
5.526466418791e-04 -2.930247525049e-04 0.0 
6.159940868707e-04 -2.699234795920e-04 0.0 
1.203945634295e-04 -3.104214826742e-04 0.0 
1.743403786596e-04 7.325314623873e-05 0.0 
4.584812731421e-04 5.621994651407e-05 0.0 
5.531612235151e-04 7.884299659857e-06 0.0 
1.324283062946e-03 7.372994556597e-03 0.0 
3.901828791820e-04 -3.359732206810e-04 0.0 
6.237875822775e-04 -2.532353710438e-04 0.0 
2.826212625216e-03 3.281203365548e-03 0.0 
1.180568107266e-04 3.345454441494e-05 0.0 
2.239198686102e-04 -2.354959278715e-04 0.0 
5.936576370233e-04 -7.052219908334e-05 0.0 
2.289420590097e-03 1.341218010352e-03 0.0 
8.576707185423e-04 -8.146006741576e-05 0.0 
7.162791855864e-04 -2.131919968818e-04 0.0 
6.330514285695e-04 -1.057062034140e-04 0.0 
2.295142602333e-03 1.489850128886e-03 0.0 
2.288049148228e-03 1.305038393073e-03 0.0 
1.287977171086e-03 1.753868502759e-04 0.0 
2.100113893403e-03 1.084447917618e-03 0.0 
3.971998867769e-04 -2.454684868847e-04 0.0 
8.056076578080e-04 3.852721008209e-04 0.0 
2.598975694200e-04 -2.531366937334e-04 0.0 
1.875226030279e-03 6.815588369286e-04 0.0 
1.299418756877e-03 6.888051177454e-05 0.0 
1.381117564637e-04 2.297820549239e-05 0.0 
1.257436768925e-03 2.310378154785e-03 0.0 
3.556525936559e-04 -3.463961904723e-04 0.0 
8.204893153659e-05 1.544446509012e-05 0.0 
3.449647048265e-04 5.294264777878e-05 0.0 
1.636721420968e-03 4.602113430741e-04 0.0 
1.454337506098e-04 -3.304514579277e-04 0.0 
9.096748685616e-05 1.092469402707e-05 0.0 
1.484795895337e-03 2.189085204254e-03 0.0 
4.884410100383e-04 -3.123070814897e-04 0.0 
5.490623173517e-05 7.580304785772e-06 0.0 
5.554055539750e-04 -9.578552943039e-05 0.0 
2.015145631550e-03 2.450076641774e-03 0.0 
2.495563705349e-03 6.076400537543e-03 0.0 
1.324961205988e-03 7.880405654103e-05 0.0 
5.932653197403e-04 -1.686359087882e-04 0.0 
9.225438814363e-04 -4.044905997160e-05 0.0 
2.207804290374e-03 4.700256015402e-03 0.0 
2.567733179604e-03 3.612647171837e-03 0.0 
1.326393535186e-03 2.371739235070e-04 0.0 
3.098530204528e-04 7.037286186409e-03 0.0 
3.660220328443e-04 -2.444862414174e-04 0.0 
1.232373221099e-03 1.132064467623e-04 0.0 
5.221188837780e-04 -3.010038374257e-04 0.0 
2.904730299417e-04 -1.133514650303e-04 0.0 
1.131329336984e-04 -3.498019701175e-04 0.0 
9.704039613266e-04 5.454564144852e-04 0.0 
5.355529871108e-04 -2.982286878373e-04 0.0 
3.136525838168e-04 -2.098979051669e-04 0.0 
1.820168448819e-03 6.300397893464e-04 0.0 
5.953774590682e-04 -9.065257606082e-05 0.0 
1.182370435657e-03 6.794537046247e-03 0.0 
4.632526808785e-04 -3.212012887692e-04 0.0 
4.843110774888e-05 6.223634814902e-06 0.0 
2.715261468453e-03 2.394916757056e-03 0.0 
2.703389965378e-04 -1.921004956512e-04 0.0 
2.624458288633e-03 2.105071902668e-03 0.0 
2.841660349581e-04 -2.085240633744e-04 0.0 
1.306983375593e-04 -3.629088835951e-04 0.0 
2.452220339247e-03 5.755128259245e-03 0.0 
8.056416305828e-05 -2.380767216317e-04 0.0 
1.242835207822e-04 -3.870677057341e-04 0.0 
2.278476109958e-04 -2.056285820157e-04 0.0 
5.478223244403e-04 -5.714479907162e-05 0.0 
3.495308106306e-04 3.071580741075e-03 0.0 
9.490305076674e-04 -7.463540220783e-05 0.0 
9.117517304518e-04 -6.598533623932e-05 0.0 
2.282108066266e-03 7.545497005611e-03 0.0 
1.478684925622e-03 9.128586079495e-03 0.0 
5.134046365962e-04 9.302318230162e-04 0.0 
2.479785504701e-03 1.795812830808e-03 0.0 
1.173977108525e-04 -3.871315891032e-04 0.0 
2.101384210754e-04 -3.759096342630e-04 0.0 
1.571076747645e-04 -3.570626455687e-04 0.0 
3.188975730178e-04 -3.386639499119e-04 0.0 
1.860958603182e-03 1.183427456916e-03 0.0 
4.009585084343e-04 3.102981888394e-03 0.0 
3.208744574340e-04 -3.460387956596e-05 0.0 
2.777687999758e-04 -3.113669113349e-04 0.0 
2.623614946323e-04 -1.138762168285e-04 0.0 
4.815085312603e-04 1.250659010222e-05 0.0 
3.087360907330e-04 -9.038370373628e-05 0.0 
5.711226080563e-05 -2.370671450842e-04 0.0 
4.146599568883e-05 -2.713239677311e-04 0.0 
8.172171902617e-05 8.497903882010e-06 0.0 
4.253637910728e-05 4.701059212172e-06 0.0 
5.836098097576e-05 -2.116418668601e-04 0.0 
2.418376061588e-04 -1.909184139641e-04 0.0 
5.699021305919e-04 -1.521689451775e-04 0.0 
4.679028399872e-04 3.033679702160e-05 0.0 
2.174569804387e-04 -3.692946124966e-04 0.0 
4.879074806372e-04 -7.218941778624e-06 0.0 
1.053532295502e-04 -3.684631688651e-04 0.0 
2.400390209668e-04 -2.215852146596e-04 0.0 
3.296656237882e-04 -1.942086990953e-04 0.0 
8.290178278742e-05 -3.692678154051e-04 0.0 
4.689418221471e-05 -2.237573305957e-04 0.0 
1.177743080746e-03 2.332341498873e-03 0.0 
1.013953233420e-04 -3.834254461377e-04 0.0 
1.632150148314e-03 8.944527239321e-03 0.0 
1.665016375302e-03 9.129024928113e-03 0.0 
9.820174903803e-04 3.850253872942e-06 0.0 
2.067230888680e-05 -2.717239980051e-04 0.0 
4.798368998498e-04 -3.151019800376e-04 0.0 
3.705834313485e-04 4.484066690135e-04 0.0 
1.991753291388e-04 -1.003250971227e-05 0.0 
6.790256667698e-04 3.050947186069e-04 0.0 
7.323340232807e-04 3.723845183496e-03 0.0 
7.776782664942e-04 1.030317041016e-03 0.0 
1.903912240881e-04 -3.853312106283e-04 0.0 
2.668358568840e-03 4.646254958022e-03 0.0 
1.075178437310e-03 9.311568853296e-03 0.0 
1.002931355707e-03 9.632774808134e-03 0.0 
1.095424343206e-04 -3.832822934459e-04 0.0 
1.027729110474e-04 -3.740348889850e-04 0.0 
5.051132036598e-05 -3.541982450207e-04 0.0 
2.314923462049e-04 -3.419524419527e-04 0.0 
7.218312475944e-05 -3.698676183603e-04 0.0 
4.743713147709e-05 -1.971870292933e-04 0.0 
5.798405102562e-05 -2.575375345334e-04 0.0 
2.549203584277e-04 -3.215364690071e-04 0.0 
2.804717410602e-04 5.907082919753e-03 0.0 
1.377277356943e-03 9.488458011715e-03 0.0 
1.683986541950e-03 1.153541693855e-03 0.0 
5.169866856801e-04 -8.101483159661e-05 0.0 
2.484321156614e-04 6.807231405233e-03 0.0 
1.082135333385e-05 -2.603168672454e-04 0.0 
6.190025146018e-05 -3.593304230804e-04 0.0 
6.291086786934e-05 2.640202087200e-04 0.0 
1.443086503383e-04 5.481448300172e-04 0.0 
1.227797048165e-03 7.360071484270e-03 0.0 
1.205013187644e-03 9.296487238085e-03 0.0 
5.390405939595e-05 -2.603949425733e-04 0.0 
9.197965590088e-05 5.244691203849e-04 0.0 
2.537523969772e-04 -3.335899851788e-04 0.0 
1.515688128493e-03 9.340142746565e-03 0.0 
1.336785836437e-03 9.243447817368e-03 0.0 
2.509690768946e-03 6.350317639028e-03 0.0 
1.383549048653e-04 2.223224124216e-04 0.0 
1.126777805005e-04 5.210703428245e-04 0.0 
9.241672448338e-05 -3.741876830113e-04 0.0 
9.201786963531e-05 -3.791272682044e-04 0.0 
1.907398752640e-04 -3.801803761339e-04 0.0 
3.608255601183e-04 -1.950083729565e-04 0.0 
1.901642101839e-05 -9.269444906975e-06 0.0 
2.159008422539e-05 -2.246416658431e-04 0.0 
9.102073858081e-05 3.883691374229e-03 0.0 
8.903537719711e-05 -3.048227997034e-04 0.0 
8.719675611666e-04 -3.216735308392e-05 0.0 
8.941489082545e-05 -3.204888748007e-04 0.0 
5.908662439250e-05 -2.793552952410e-04 0.0 
8.166685696529e-04 -7.042116728094e-05 0.0 
7.710908864706e-05 -1.366432996519e-05 0.0 
2.337584394256e-04 6.240546680845e-03 0.0 
2.693489246641e-03 3.702599656314e-03 0.0 
6.148350802891e-05 -3.652861493196e-04 0.0 
2.135692616181e-04 -9.959896383338e-05 0.0 
2.129062677392e-05 3.139882677293e-04 0.0 
4.217364172869e-05 5.317835726715e-04 0.0 
1.248892932905e-03 9.572598014177e-03 0.0 
9.202433364254e-04 8.549698674760e-06 0.0 
4.976691263117e-05 2.570501341046e-04 0.0 
1.677337213014e-03 5.200530260087e-04 0.0 
3.729702295249e-05 -3.557945718618e-04 0.0 
5.125717111466e-05 -3.667519326565e-04 0.0 
3.845961713244e-05 -3.623925332584e-04 0.0 
1.158219205856e-05 -2.358915740974e-04 0.0 
1.512069398742e-05 -1.765122630816e-07 0.0 
1.125987906189e-05 1.449454044522e-03 0.0 
5.160314625282e-05 -3.722426712058e-04 0.0 
2.438814065748e-05 -1.957362277641e-04 0.0 
5.097864902064e-06 -8.733577590207e-08 0.0 
2.150114373711e-05 7.479953106439e-08 0.0 
7.372517384277e-05 6.610943570757e-06 0.0 
5.023101185760e-05 4.862309953564e-03 0.0 
2.019811878283e-05 3.390756527473e-03 0.0 
1.002282908536e-05 -8.917648717949e-08 0.0 
1.147831465175e-05 1.639760182439e-07 0.0 
4.449195160777e-05 3.883888008529e-03 0.0 
3.992408761529e-05 -3.750223628561e-04 0.0 
7.699133621396e-04 9.659543679349e-03 0.0 
1.126305169987e-03 9.616842342437e-03 0.0 
7.228813413130e-05 -3.751979507243e-04 0.0 
1.973796344847e-05 1.097954927581e-06 0.0 
6.797394388059e-05 5.091615049727e-06 0.0 
3.343410995671e-05 2.277516148807e-06 0.0 
6.193449253893e-05 -3.761072202330e-04 0.0 
8.260793731120e-05 -3.795377329622e-04 0.0 
3.918533991889e-05 3.796844669838e-06 0.0 
3.453983392388e-05 2.814098900919e-06 0.0 
2.593717903266e-05 5.366075431075e-03 0.0 
4.135622581080e-04 9.661869423470e-03 0.0 
2.429383282494e-05 4.367505931196e-03 0.0 
3.078934264510e-05 7.350380723385e-03 0.0 
1.774737109821e-04 9.646970643096e-03 0.0 
1.304108465271e-04 -3.902807053265e-04 0.0 
1.457009446040e-04 -3.928606591804e-04 0.0 
1.462384649898e-04 -3.899249552837e-04 0.0 
1.411596058987e-04 -3.827718398068e-04 0.0 
1.231719998831e-05 -1.816355296743e-04 0.0 
1.207094066917e-05 -2.094935999460e-04 0.0 
1.492982875722e-04 -3.917471599127e-04 0.0 
1.226593572158e-05 -9.987639708589e-05 0.0 
1.485332646258e-04 -3.874102446729e-04 0.0 
1.117961406478e-04 2.421280942184e-04 0.0 
4.221274326972e-05 2.674189862803e-04 0.0 
8.139778246897e-05 2.841246212973e-04 0.0 
8.539899323998e-06 -3.348381610642e-04 0.0 
9.850955552958e-06 -2.824433960936e-04 0.0 
3.951837408044e-05 3.222069425556e-04 0.0 
8.180740109014e-06 -3.042596095101e-05 0.0 
2.088301495476e-05 2.177953049422e-04 0.0 
5.919482954061e-06 -1.499109653466e-05 0.0 
3.542642507259e-06 -4.890154154885e-06 0.0 
2.365313272773e-05 -2.230598652107e-04 0.0 
8.173111735015e-05 5.896259288359e-04 0.0 
6.040138903520e-05 5.400022474978e-04 0.0 
1.410022306307e-05 -2.238143974781e-05 0.0 
9.462125461320e-06 -9.203822703601e-06 0.0 
1.248360597642e-04 -7.399000346768e-05 0.0 
1.130022226520e-04 -3.391439533704e-04 0.0 
1.980457041677e-04 -2.336200330047e-04 0.0 
1.105211671779e-04 -3.788313214862e-04 0.0 
1.840706057915e-04 -1.205251917658e-05 0.0 
2.678560545501e-04 -2.232986143313e-04 0.0 
1.423833692416e-04 -3.701300276995e-05 0.0 
2.281830948963e-04 -3.522242695865e-04 0.0 
1.350194703343e-04 -3.747876537284e-04 0.0 
9.729789891155e-05 -2.016339858988e-05 0.0 
2.007211361791e-04 -2.042763921094e-04 0.0 
4.469256465249e-05 -2.489903016823e-04 0.0 
1.244889034631e-04 -3.807238407317e-05 0.0 
1.277307643063e-04 2.457456819638e-03 0.0 
2.240354539241e-05 -2.485121960805e-04 0.0 
5.347446197786e-04 -3.912269104243e-05 0.0 
3.804135962806e-04 -1.104349811946e-04 0.0 
1.474918125959e-04 -7.335241645908e-05 0.0 
1.063470723183e-04 -6.200769919401e-05 0.0 
9.872111630099e-04 -7.452772623220e-06 0.0 
2.481899387199e-03 4.015510794550e-03 0.0 
1.806565682985e-03 7.024066505869e-04 0.0 
2.395414401267e-04 -9.908561177649e-05 0.0 
8.767209020624e-05 -2.996505960230e-05 0.0 
6.933448335265e-05 -5.158542358081e-05 0.0 
3.033717805795e-04 -3.566152807835e-04 0.0 
2.445289278322e-04 2.534271652669e-03 0.0 
3.081522110163e-04 3.517816598109e-03 0.0 
5.330645174468e-04 8.164054687850e-03 0.0 
2.672200145987e-04 -8.330415614302e-05 0.0 
1.917860845107e-04 -8.568535383379e-05 0.0 
1.656695204363e-04 2.508939003970e-03 0.0 
2.111277826282e-04 3.015106538815e-03 0.0 
4.078167701297e-04 -1.264006150204e-04 0.0 
6.530741812942e-05 -1.451191900056e-05 0.0 
6.616886190355e-04 3.699294468242e-03 0.0 
4.924089421019e-05 -5.152852797684e-05 0.0 
1.333916006900e-04 -7.645221146918e-06 0.0 
2.862127892751e-04 2.558657570925e-03 0.0 
5.338791134051e-04 5.099811698699e-03 0.0 
5.111232781903e-04 -6.250447821532e-05 0.0 
1.190654146060e-04 -3.233397899451e-04 0.0 
3.085858668041e-04 -3.617791980709e-04 0.0 
1.819879356040e-04 -3.849760652645e-04 0.0 
1.376618962040e-04 -3.435078535267e-04 0.0 
2.563284218036e-04 3.014287731230e-03 0.0 
6.980943394093e-05 -2.198456784307e-05 0.0 
1.500134050734e-04 -3.658056588901e-04 0.0 
1.675020422079e-03 1.990567153887e-03 0.0 
6.305064336986e-04 7.668899902509e-03 0.0 
1.664042654458e-04 -4.725719241621e-05 0.0 
8.957009091992e-05 -3.997707786849e-05 0.0 
4.631219043460e-04 -3.114543102066e-04 0.0 
7.221469069090e-05 -4.076921673295e-05 0.0 
6.014158463476e-04 8.183563372098e-03 0.0 
1.220791546266e-03 1.379326656995e-04 0.0 
1.007148321211e-04 -3.293383101657e-06 0.0 
6.436098518092e-05 -3.172683519897e-04 0.0 
1.724962097785e-04 -2.944184428243e-06 0.0 
4.144189356406e-04 4.548922798537e-03 0.0 
9.470582949586e-05 -3.104648460985e-04 0.0 
3.342360665556e-04 -3.477613068352e-04 0.0 
1.063269389807e-04 -1.573624549406e-04 0.0 
7.149439594670e-04 6.176621648643e-03 0.0 
2.473295335440e-04 -2.807780570907e-04 0.0 
3.078589603616e-04 3.995501186140e-03 0.0 
4.552513715305e-04 5.557477407695e-03 0.0 
2.268558129099e-04 -1.748903918746e-04 0.0 
8.505630163812e-05 -6.264742141360e-05 0.0 
1.079806542619e-04 -5.015356249676e-05 0.0 
3.556054905078e-04 4.512900712940e-03 0.0 
1.435167062381e-04 -3.457860329266e-04 0.0 
1.872753742426e-04 -1.886803762406e-04 0.0 
1.124421972048e-03 2.589810955455e-04 0.0 
4.783096897016e-04 4.096500196272e-03 0.0 
1.870383817077e-04 -2.183571298866e-04 0.0 
3.492813203742e-04 -1.117150916102e-04 0.0 
2.297811511436e-04 -5.527510228684e-06 0.0 
4.673803097514e-04 5.067720828624e-03 0.0 
1.450253515513e-04 -1.303917463650e-04 0.0 
1.558554499569e-04 -3.792601780801e-04 0.0 
4.371853457983e-04 -1.097450534973e-04 0.0 
1.033588846592e-04 -2.899147938448e-05 0.0 
5.887236221962e-04 5.621358109074e-03 0.0 
7.605872356400e-05 -1.300974445857e-04 0.0 
7.356914660998e-04 7.195567957926e-03 0.0 
4.525872732594e-04 5.544521091973e-06 0.0 
1.837865003551e-04 -1.584909925341e-04 0.0 
1.272126723521e-04 -4.922244891926e-05 0.0 
1.008115239821e-04 -3.207824943769e-04 0.0 
1.467519817886e-04 -6.136053566733e-06 0.0 
1.994200558103e-04 -1.740045440574e-04 0.0 
7.548339801335e-05 -3.089658657737e-04 0.0 
1.612038275803e-04 -1.872979893119e-04 0.0 
2.157000867065e-04 -2.636072088652e-04 0.0 
2.329552823960e-04 -3.185994991515e-04 0.0 
1.003178550133e-04 -1.287104274993e-04 0.0 
1.364506759453e-04 -3.900848299254e-04 0.0 
1.451844846368e-04 -3.920394941532e-04 0.0 
1.678276798312e-04 -8.629299893271e-05 0.0 
1.236081521556e-04 -3.333168991552e-04 0.0 
2.412877566004e-04 -8.426820848186e-05 0.0 
2.935852334345e-04 -9.759680763943e-05 0.0 
3.439708432587e-04 -2.591849956201e-04 0.0 
4.206725528735e-04 -3.332511085326e-04 0.0 
5.728027557383e-04 3.190919491877e-03 0.0 
1.085625735529e-04 1.400843495239e-04 0.0 
1.828823165076e-04 -2.467442133787e-04 0.0 
4.376288211502e-04 2.272579557565e-05 0.0 
1.115930180669e-04 -3.404188226420e-04 0.0 
6.904473584122e-04 6.669428478985e-03 0.0 
7.024373768284e-04 7.701479755379e-03 0.0 
2.027732479069e-04 -3.671911508460e-04 0.0 
2.970840054991e-04 -7.887063299195e-06 0.0 
8.294817370911e-04 4.723692665997e-03 0.0 
1.409054905343e-04 -3.363661031854e-04 0.0 
6.003772732840e-04 2.750350986588e-03 0.0 
5.396996432503e-04 2.723103015391e-03 0.0 
1.558992638633e-04 -3.292634375107e-04 0.0 
9.862329639054e-04 1.324908141303e-03 0.0 
2.123061164760e-04 -3.389085652957e-04 0.0 
1.482348432402e-04 -6.043899860791e-05 0.0 
1.415545244836e-04 -1.430964807986e-04 0.0 
1.411772374950e-03 2.237707224466e-03 0.0 
5.120708265908e-04 3.163355324197e-03 0.0 
1.927473445906e-04 -7.183889616033e-05 0.0 
2.162768381716e-04 -7.093510286529e-05 0.0 
2.072890436825e-04 -3.587876858620e-04 0.0 
1.695319705554e-04 -5.953312340808e-05 0.0 
7.522562830816e-04 4.699943280882e-03 0.0 
1.161390851238e-04 -1.430447619008e-04 0.0 
6.604379551148e-04 5.653514599471e-03 0.0 
6.756255482545e-04 4.184992624046e-03 0.0 
1.344511904178e-03 1.091637612104e-04 0.0 
4.712171930272e-04 3.614194669963e-03 0.0 
1.485864699537e-04 -2.015596600983e-04 0.0 
1.573791805336e-04 -1.580177011067e-04 0.0 
1.748502320551e-04 -2.731282071784e-04 0.0 
3.812506356934e-04 -2.908558327666e-04 0.0 
6.731698080157e-04 5.162924986271e-03 0.0 
5.338955317094e-04 -1.917932696004e-04 0.0 
1.923779744736e-04 -3.244167315184e-04 0.0 
1.796923246952e-04 -3.784091055295e-04 0.0 
7.476158152917e-04 5.191226801851e-03 0.0 
2.126010912166e-04 -3.276091386662e-04 0.0 
1.843481547994e-04 -9.818152240255e-07 0.0 
5.410364961174e-04 4.613083501557e-03 0.0 
1.866903072833e-04 -4.611152437167e-05 0.0 
2.657824617541e-04 4.048754553714e-05 0.0 
1.609752621446e-04 -2.170227848042e-04 0.0 
1.745571131172e-04 -3.324483830795e-04 0.0 
1.844071379748e-04 -3.720349020080e-04 0.0 
2.651084113024e-04 -6.866320732736e-05 0.0 
5.046408877959e-04 6.080599237282e-03 0.0 
1.652041729795e-04 -3.815132861176e-04 0.0 
2.224586715388e-04 -2.781268680576e-04 0.0 
7.199421464290e-05 -3.260922415139e-04 0.0 
7.916193747586e-04 6.206139284100e-03 0.0 
1.911862069817e-04 -2.613125049988e-04 0.0 
3.220733667383e-04 -9.651207909617e-05 0.0 
1.510102950753e-04 -2.699432035823e-04 0.0 
3.596707384004e-04 3.550723689699e-03 0.0 
2.311759381385e-04 -3.057267764109e-04 0.0 
3.447077131831e-04 -6.327851152976e-05 0.0 
2.915949508093e-04 -3.637075947140e-04 0.0 
3.214169006249e-04 -8.070888160362e-05 0.0 
1.213043871335e-04 -1.715453384328e-04 0.0 
2.362468211064e-04 -5.617581886942e-05 0.0 
7.506945444398e-04 -1.871905130102e-04 0.0 
8.922232196162e-05 -3.281074035764e-04 0.0 
5.921452312295e-04 7.130912015397e-03 0.0 
8.201732612928e-04 -4.666472921681e-05 0.0 
2.002870551276e-03 1.474309703991e-03 0.0 
5.716143348079e-04 6.112389068587e-03 0.0 
3.417792236746e-04 -3.533217677774e-04 0.0 
1.062263036995e-03 5.770654665227e-03 0.0 
9.546107849671e-05 -3.377666226314e-04 0.0 
2.383090850846e-04 -1.682674725153e-05 0.0 
8.669768801233e-04 -8.694888541559e-06 0.0 
1.259613259491e-03 1.959575200906e-04 0.0 
4.374533218948e-04 2.206686192421e-03 0.0 
5.306386642271e-04 -1.555358155073e-04 0.0 
1.594415944766e-04 -3.491168866946e-04 0.0 
4.460391524259e-04 -1.065256449308e-04 0.0 
2.468749991856e-04 -2.553011804489e-06 0.0 
4.527220225180e-04 -3.205154618743e-04 0.0 
2.133475059740e-04 -5.748366206851e-05 0.0 
6.086128578094e-04 4.644040298732e-03 0.0 
4.189439347876e-04 -3.261960643431e-04 0.0 
3.818959453882e-04 -9.344807841573e-05 0.0 
1.053351698706e-03 7.291510805064e-03 0.0 
1.078654618879e-04 -3.015023301090e-04 0.0 
2.516881698066e-04 -2.950165867176e-04 0.0 
2.192249753917e-03 1.147514326878e-03 0.0 
2.908171640248e-04 -6.715266133122e-05 0.0 
1.922086387786e-03 2.096093917222e-03 0.0 
2.004083134512e-03 9.138527966888e-04 0.0 
9.054011321490e-04 5.239110999989e-03 0.0 
6.188320666716e-04 6.637352389326e-03 0.0 
1.092502372755e-03 6.786345584786e-03 0.0 
1.469411893266e-04 -1.721488657012e-04 0.0 
3.724941903589e-04 -1.073112217298e-05 0.0 
5.132207416695e-04 -1.194812970512e-04 0.0 
8.126027570109e-04 7.231508604464e-03 0.0 
1.501354668797e-03 1.513764707882e-03 0.0 
1.277427358489e-03 2.511375189388e-04 0.0 
3.501072033685e-04 -7.892499133875e-05 0.0 
6.064281302582e-04 4.157391457476e-03 0.0 
3.496062173967e-04 -2.747987921685e-04 0.0 
2.987445935679e-04 -2.858319132288e-04 0.0 
1.913062931576e-04 -3.557569705233e-04 0.0 
4.809784254520e-04 -8.514069892373e-05 0.0 
2.671981574568e-04 -2.684802795198e-04 0.0 
8.921192405301e-04 5.735468863532e-03 0.0 
1.038511444318e-03 6.273370538870e-03 0.0 
1.203882120944e-03 1.928036518366e-06 0.0 
3.019559427438e-04 -3.136835836495e-04 0.0 
8.454773656588e-04 -1.001769950400e-05 0.0 
2.763159556123e-04 -2.977197517861e-04 0.0 
3.255005834429e-04 -2.879995369876e-04 0.0 
1.930141146425e-04 -3.461496775907e-04 0.0 
4.570297917913e-04 -1.344300036856e-05 0.0 
4.973461285035e-04 -2.444810550499e-04 0.0 
5.317592718918e-04 3.644129133992e-03 0.0 
5.617570650475e-04 -2.241917220875e-04 0.0 
4.810719671515e-04 -1.036623494002e-04 0.0 
5.151008121660e-04 -1.749464929869e-04 0.0 
1.732218961525e-03 5.123571748411e-04 0.0 
1.754882280267e-04 -3.428819025223e-04 0.0 
3.180055199934e-04 -4.058664542125e-06 0.0 
2.760225606529e-04 4.555025484270e-06 0.0 
2.333274240123e-03 1.314584257674e-03 0.0 
3.786658464621e-04 -2.761683907632e-04 0.0 
5.050604291984e-04 -1.388366377137e-04 0.0 
8.115593776823e-04 5.711334050509e-03 0.0 
3.151060474121e-04 -2.573847977998e-04 0.0 
1.668677980221e-03 9.691519527351e-04 0.0 
2.084718033430e-04 -3.027514467828e-04 0.0 
3.987249075008e-04 -3.393852891621e-04 0.0 
4.042083262567e-04 -2.615368396821e-04 0.0 
1.900280308575e-04 -3.124317623756e-04 0.0 
1.331838600674e-04 -3.153465336730e-04 0.0 
4.781807585462e-04 -1.767992192630e-04 0.0 
4.137007353261e-04 -9.123278953988e-05 0.0 
1.810715462417e-03 9.898412939021e-04 0.0 
1.403535021619e-04 -3.922916753542e-04 0.0 
7.328683445673e-04 -2.111946607917e-04 0.0 
6.087183169380e-04 -2.347124663892e-04 0.0 
4.360366454841e-04 -2.617582606422e-04 0.0 
9.527944310520e-04 6.255576983853e-03 0.0 
5.120668640824e-04 -2.105953176315e-04 0.0 
2.041131730059e-04 -2.893900680563e-04 0.0 
4.626478737922e-04 -2.456164778021e-04 0.0 
4.181909328785e-04 4.064430363326e-03 0.0 
1.810186132470e-04 -2.866861110435e-04 0.0 
1.573667385912e-04 -3.733912654378e-04 0.0 
1.738136343005e-04 -3.613957034530e-04 0.0 
4.141901581740e-04 -3.327489512355e-04 0.0 
3.539495114404e-04 -3.036907450437e-04 0.0 
6.829136361260e-04 -2.083364849297e-04 0.0 
5.242759204970e-04 -2.268503164941e-04 0.0 
2.913520397953e-04 -3.661887675045e-04 0.0 
1.594748222353e-04 -3.580233946927e-04 0.0 
1.475286607138e-03 6.787551169898e-03 0.0 
1.690282765839e-04 -3.094209536345e-04 0.0 
4.818800509734e-04 -2.833299894071e-05 0.0 
1.901991541419e-03 9.474593220363e-04 0.0 
2.579913115605e-03 4.998770773303e-03 0.0 
9.262235726816e-04 3.288742980036e-03 0.0 
1.662768060604e-03 9.859309241635e-04 0.0 
1.275702843851e-03 5.593325536441e-05 0.0 
2.156428738705e-03 1.138795677638e-03 0.0 
3.416823520383e-04 -3.533317891732e-04 0.0 
4.197585756425e-04 -2.294518005400e-04 0.0 
1.457922227198e-03 3.129871558061e-04 0.0 
4.776028939509e-04 -2.786866871965e-04 0.0 
2.842004254403e-04 -3.623053716012e-04 0.0 
2.939854316751e-04 -2.708309705894e-04 0.0 
5.702396493437e-04 -2.392062384785e-04 0.0 
6.408935078216e-04 -2.151174877311e-04 0.0 
1.643774893104e-04 -2.970366810288e-04 0.0 
5.727965729188e-04 -1.888495557314e-04 0.0 
6.898243262256e-04 -2.209361552479e-04 0.0 
8.190346375265e-04 -1.762730897413e-04 0.0 
3.272590882552e-04 -3.022040478595e-04 0.0 
1.033205167258e-03 5.057329320019e-05 0.0 
9.898279153479e-04 5.256503246668e-03 0.0 
8.720734588253e-04 -1.672626408312e-04 0.0 
3.982951873619e-04 -5.918724282435e-06 0.0 
3.994284304752e-04 -3.362960962466e-04 0.0 
3.582098737149e-04 2.349274454018e-05 0.0 
6.291068250223e-04 -2.004125470887e-04 0.0 
1.434063175003e-03 9.130351202558e-04 0.0 
2.744141915277e-03 2.643391492417e-03 0.0 
3.608442585274e-04 -3.495351359127e-04 0.0 
2.650647335901e-03 4.263658601075e-03 0.0 
1.192825101732e-03 2.801768953064e-03 0.0 
6.989252211152e-04 -1.729074165686e-04 0.0 
1.208428019989e-03 5.286561326085e-04 0.0 
2.661160341766e-03 3.570371246169e-03 0.0 
2.184272725734e-03 1.415314538722e-03 0.0 
3.053834901766e-04 -3.615279904715e-04 0.0 
4.753593844727e-04 1.374742011490e-03 0.0 
2.609590222514e-04 -3.727312506120e-04 0.0 
7.161565334852e-04 1.232870397129e-04 0.0 
3.784400198856e-04 2.637673906170e-03 0.0 
9.044146512110e-04 3.071897855138e-05 0.0 
8.440340646148e-04 6.734886760980e-03 0.0 
9.639884702675e-04 3.774156823065e-03 0.0 
7.716883449031e-04 -1.892207890580e-04 0.0 
1.229629002286e-03 2.922471481855e-05 0.0 
7.309353147292e-04 2.330158227177e-03 0.0 
3.733469734545e-04 -6.071749409400e-05 0.0 
1.081318387540e-03 4.768764925564e-03 0.0 
7.677226599089e-04 -3.636893211312e-05 0.0 
3.583188786132e-04 -3.462269301365e-04 0.0 
1.162073639213e-03 4.273982429827e-03 0.0 
8.027910747647e-04 3.442148563089e-04 0.0 
2.935350816147e-04 8.636963356595e-06 0.0 
4.533782434303e-04 -2.293783704973e-04 0.0 
9.246492580603e-04 6.760189647711e-03 0.0 
9.712155972769e-04 7.283148423006e-03 0.0 
5.884490498424e-04 -2.049930093559e-04 0.0 
4.427961289780e-04 -7.091988994164e-05 0.0 
4.661395353276e-04 -4.976550984195e-05 0.0 
1.714302748934e-04 -3.692701699537e-04 0.0 
6.916322450811e-04 -3.263960581672e-06 0.0 
9.729291862794e-04 -1.202650119667e-04 0.0 
8.236599136426e-04 -1.847109748817e-04 0.0 
1.897215198498e-03 8.495224304153e-04 0.0 
5.858090772398e-04 1.856471955112e-03 0.0 
1.616132480115e-03 2.064094094679e-03 0.0 
4.290102591775e-04 2.668112877943e-03 0.0 
2.214404546461e-03 2.591572103750e-03 0.0 
1.414531847744e-03 3.737389836451e-03 0.0 
4.105512535777e-04 -7.414868502713e-05 0.0 
5.467168156732e-04 2.278305432562e-03 0.0 
1.364706117004e-03 4.754077951724e-03 0.0 
4.758674417271e-04 -2.119879488825e-04 0.0 
1.028855227772e-03 -9.396834555600e-05 0.0 
1.071855332104e-03 4.272688265143e-03 0.0 
7.983285639872e-04 2.797432781409e-03 0.0 
8.234964065091e-04 4.233292724414e-03 0.0 
9.935027738023e-04 4.759393116040e-03 0.0 
3.242803695884e-04 -1.876866256496e-05 0.0 
8.852921685523e-04 1.662785320973e-04 0.0 
3.993227565873e-04 -2.353853791493e-05 0.0 
4.416375363372e-04 -1.247065676324e-04 0.0 
2.406992893514e-03 5.774845328377e-03 0.0 
9.300400104291e-04 7.031162057105e-05 0.0 
1.883737523075e-03 4.509373843052e-03 0.0 
1.527203709460e-04 -3.182209772084e-04 0.0 
9.193803925012e-04 -1.421475130865e-04 0.0 
9.238995863248e-04 -1.010447352405e-04 0.0 
1.217795885512e-03 5.624917292552e-05 0.0 
5.335001102705e-04 -1.980273806459e-04 0.0 
9.744673762793e-04 -1.222953225691e-04 0.0 
1.165819492824e-03 8.012253775162e-05 0.0 
2.740868350312e-03 4.175655674730e-03 0.0 
4.607760557341e-04 -1.950386271276e-04 0.0 
1.445622906561e-03 5.755649280638e-03 0.0 
8.542059454484e-04 8.893930560750e-03 0.0 
-1.123919710875e-04 6.175576398414e-04 0.0 
4.685100385917e-04 -1.411986127643e-04 0.0 
8.286231527263e-04 3.339002874082e-05 0.0 
1.333360305621e-03 1.798604205697e-03 0.0 
1.188311729391e-03 -2.786414181866e-06 0.0 
4.571682200006e-04 -1.597505168339e-04 0.0 
1.153059144967e-03 5.779383086162e-03 0.0 
-8.252231108101e-05 9.948222510999e-04 0.0 
9.583895558820e-04 5.055341162595e-05 0.0 
1.129313498521e-03 -5.031540170255e-06 0.0 
2.815780495752e-03 4.194334685590e-03 0.0 
4.338206463434e-04 -5.405505424114e-05 0.0 
4.584983504196e-04 -2.978828851330e-04 0.0 
4.499740127724e-04 -3.361613859653e-05 0.0 
3.847334350098e-04 1.007485800522e-05 0.0 
1.093594929774e-03 7.612785730505e-05 0.0 
9.030906600214e-04 4.251600927779e-03 0.0 
1.669381810557e-03 5.891111251878e-04 0.0 
3.613190379582e-04 4.835671220750e-06 0.0 
-1.082519485981e-05 1.549507998832e-03 0.0 
1.263535791485e-03 5.272300445036e-03 0.0 
1.019292752722e-03 2.503649798145e-04 0.0 
8.830394119222e-04 3.762441295225e-03 0.0 
1.164064671477e-03 5.311806462310e-05 0.0 
1.086246163270e-03 -6.492883407827e-05 0.0 
2.666731430273e-04 -1.604848119065e-04 0.0 
2.490091828522e-04 -1.040754133715e-04 0.0 
7.041257900171e-04 3.242718178328e-03 0.0 
1.280896018356e-04 -3.038267221154e-04 0.0 
1.794273708520e-04 2.360604830344e-03 0.0 
1.883122279192e-03 7.744380245059e-04 0.0 
3.874958669694e-04 2.179260222654e-03 0.0 
3.918672758382e-04 -3.246852219858e-04 0.0 
2.360101819054e-03 1.396740551757e-03 0.0 
1.266632849075e-03 4.767756058159e-03 0.0 
3.759684276719e-04 -1.784119995427e-04 0.0 
5.148920222722e-04 -2.288440871863e-04 0.0 
1.068757642343e-03 4.759992922219e-04 0.0 
2.966932385441e-04 -3.541300899584e-04 0.0 
4.086725054949e-04 -3.097695663324e-04 0.0 
3.485457227679e-04 -3.348061735448e-04 0.0 
1.195033898290e-03 2.590351110510e-05 0.0 
2.582354936851e-04 4.466691012471e-04 0.0 
7.663955255904e-04 3.684216133287e-03 0.0 
2.570629620685e-04 -1.428411697216e-05 0.0 
1.109668752522e-03 3.475321429610e-06 0.0 
1.566898614402e-03 5.205038544692e-03 0.0 
3.701745394217e-04 -1.242902632199e-04 0.0 
3.342357455754e-04 1.780387598000e-05 0.0 
3.345128298554e-04 -3.462478497920e-04 0.0 
1.357765123976e-04 -2.807813194638e-04 0.0 
1.133255443055e-03 1.268826146065e-04 0.0 
7.149292066733e-04 -1.869632624651e-04 0.0 
1.071629736645e-03 2.244100854713e-04 0.0 
1.414817383797e-03 9.912006760118e-04 0.0 
1.753457923459e-03 4.085688901275e-03 0.0 
7.439772156205e-04 1.400103030664e-04 0.0 
1.168439637058e-03 5.274603477126e-03 0.0 
1.392286279304e-03 1.750253744428e-03 0.0 
1.226341434235e-03 3.775396995790e-03 0.0 
1.267438659500e-03 3.276379664516e-03 0.0 
4.641364383156e-04 1.243246487517e-04 0.0 
2.582935368412e-04 -2.744911640079e-05 0.0 
1.351091291917e-03 4.253810833909e-03 0.0 
1.487563380652e-03 2.107136775187e-04 0.0 
1.116599103016e-03 6.144266229522e-03 0.0 
6.280736365020e-04 1.294519441174e-04 0.0 
5.867315396799e-04 -7.628746720197e-05 0.0 
1.429753254407e-04 -2.943168930452e-04 0.0 
1.152945237333e-03 2.215415553269e-04 0.0 
1.716264045749e-05 -3.277695025680e-04 0.0 
1.907825751510e-03 6.846968014221e-04 0.0 
9.838732468684e-04 9.236536006306e-05 0.0 
1.022548396106e-03 2.365659738543e-03 0.0 
9.762507812587e-04 1.898359036144e-03 0.0 
1.072612554838e-03 9.816171522282e-05 0.0 
1.007413844765e-03 3.295182477559e-03 0.0 
1.253715915459e-03 9.251249217477e-05 0.0 
2.066491356549e-03 1.105311974526e-03 0.0 
1.484821969382e-03 8.158423473092e-03 0.0 
1.620998973937e-03 1.428893197419e-03 0.0 
1.841566453454e-03 8.811547020035e-03 0.0 
1.919802867439e-03 8.836829104735e-03 0.0 
1.270741842950e-03 4.386271028527e-05 0.0 
1.942277162390e-03 8.747400041551e-03 0.0 
1.810589195755e-03 4.916936737341e-04 0.0 
1.556537964567e-03 3.605255087260e-04 0.0 
1.019891137198e-03 -9.267521360565e-05 0.0 
4.539580058937e-04 -2.426476690965e-04 0.0 
1.146986685723e-03 -3.021052253877e-05 0.0 
7.282909747972e-04 2.783411415906e-03 0.0 
1.460798775958e-03 1.586459170480e-03 0.0 
3.091889993773e-04 -5.082475514145e-05 0.0 
9.280891704923e-04 1.917167286731e-04 0.0 
7.606598971087e-04 -1.775890610495e-04 0.0 
1.178020956962e-03 3.290234400368e-03 0.0 
1.078820262696e-03 -6.566601273029e-05 0.0 
2.025365749838e-04 -2.104869482157e-05 0.0 
1.135397049459e-03 3.781890485273e-03 0.0 
1.511287096298e-03 3.702465289520e-03 0.0 
1.041004416542e-03 2.603941532380e-05 0.0 
1.206077435214e-03 2.130135189016e-05 0.0 
1.772378663956e-03 8.958841769871e-04 0.0 
2.770185734646e-03 2.915484324258e-03 0.0 
4.394576013656e-04 -2.689379220630e-04 0.0 
5.693269384415e-04 -1.221728842420e-04 0.0 
1.509888868075e-03 8.920142289277e-04 0.0 
2.452707231635e-03 1.611003401417e-03 0.0 
1.531860333887e-04 -1.541243069731e-05 0.0 
1.449864002888e-03 4.229658410422e-03 0.0 
1.144220999092e-03 -2.290775224610e-05 0.0 
2.430886122339e-03 1.487259945827e-03 0.0 
8.410154194214e-04 6.793875339668e-05 0.0 
7.752369251464e-04 3.263006086692e-03 0.0 
1.646922501437e-03 9.091879299417e-04 0.0 
1.654510507481e-03 5.678670553072e-03 0.0 
5.877838510024e-04 1.708544383943e-05 0.0 
1.123990393596e-03 -3.566215189102e-05 0.0 
7.935734663896e-04 5.085159464102e-05 0.0 
2.001090921690e-03 8.213940289361e-04 0.0 
8.012088338289e-04 2.352345911219e-03 0.0 
1.430495436062e-03 8.487066910538e-04 0.0 
1.087650171977e-03 -3.214436672794e-06 0.0 
4.966438762228e-04 -1.386607205399e-04 0.0 
1.511983623154e-03 5.050702455202e-04 0.0 
1.947213122939e-03 6.598840961828e-04 0.0 
1.191358390754e-03 3.667071969664e-05 0.0 
1.099639357711e-03 2.458950630014e-05 0.0 
5.494238696071e-04 -1.539966393704e-05 0.0 
4.831629607273e-04 -1.781200205754e-04 0.0 
1.099587266721e-03 -3.458607416596e-05 0.0 
2.614425125162e-03 3.801877220096e-03 0.0 
1.386911027940e-04 -1.684619145934e-05 0.0 
2.590363724038e-03 3.152984177853e-03 0.0 
1.731662633847e-03 6.680908881707e-04 0.0 
2.580417512677e-03 4.496825243120e-03 0.0 
2.348055104473e-03 5.953666923852e-03 0.0 
2.663503868128e-03 2.339415161955e-03 0.0 
9.730047966369e-04 1.653428114436e-04 0.0 
2.965686970592e-04 -3.731914787366e-05 0.0 
1.567872993448e-03 4.695670483271e-03 0.0 
9.062999135179e-04 1.911453422372e-03 0.0 
2.489254190488e-03 5.220727990843e-03 0.0 
9.422728599349e-04 -5.580145231916e-05 0.0 
1.396337284902e-03 4.814850196547e-04 0.0 
6.035193820572e-04 2.291077953516e-03 0.0 
1.730259958318e-03 4.581304929238e-04 0.0 
1.889944454912e-03 6.139821690257e-04 0.0 
1.055362722486e-03 -4.273652840650e-05 0.0 
1.651447586872e-03 4.147789777029e-03 0.0 
2.021546416895e-03 1.905387423256e-03 0.0 
1.752362534041e-03 4.406358628044e-04 0.0 
1.929174162364e-03 1.625192422080e-03 0.0 
1.154819144726e-03 1.762920380704e-04 0.0 
1.055394701828e-03 3.616616447169e-04 0.0 
1.020570675728e-03 -9.009251604614e-05 0.0 
2.518515360832e-04 -1.502455817483e-04 0.0 
1.112522460885e-03 1.854338007425e-03 0.0 
2.293345513512e-03 2.349257773725e-03 0.0 
8.412757125762e-04 -1.419606983374e-04 0.0 
1.210450008005e-03 3.990259172682e-04 0.0 
1.672701328879e-03 4.648726396808e-03 0.0 
3.621340200235e-04 -4.554846939799e-05 0.0 
1.386490181947e-03 2.293240155919e-04 0.0 
1.995082560305e-04 -1.619122866462e-04 0.0 
9.726943469367e-05 -1.124360345278e-05 0.0 
2.317637473728e-03 1.250406484856e-03 0.0 
1.428973953358e-03 2.644058380400e-04 0.0 
1.571490427840e-03 7.449834685697e-04 0.0 
1.030624240717e-04 -1.401716775875e-04 0.0 
3.903628175121e-04 -4.211482463063e-05 0.0 
8.716902127166e-04 2.343418772604e-04 0.0 
1.764032184552e-03 5.618024261974e-03 0.0 
3.674658521620e-04 -1.446588195188e-04 0.0 
1.075195924596e-03 -5.375023427575e-05 0.0 
1.850123836796e-04 -2.289943876212e-05 0.0 
1.898739732907e-03 5.904874727850e-04 0.0 
9.775811489892e-04 -7.137342313621e-05 0.0 
2.346914120366e-03 1.285212099422e-03 0.0 
2.039168420179e-04 -2.038135633069e-04 0.0 
2.091286243752e-03 1.009862549108e-03 0.0 
1.095646953110e-03 1.446713171628e-04 0.0 
1.213244456226e-03 7.796376271975e-04 0.0 
1.849217583226e-03 8.478167058927e-04 0.0 
6.995646139350e-04 -1.263298687251e-04 0.0 
2.839887529626e-04 -5.291501467804e-05 0.0 
5.284307337577e-04 1.831413046955e-03 0.0 
5.160050448489e-04 1.227225131307e-04 0.0 
1.097117299265e-03 1.879124778750e-04 0.0 
1.337244020246e-03 1.303736302143e-04 0.0 
2.257170432509e-03 1.156030753175e-03 0.0 
1.111630329882e-04 -1.917977811587e-05 0.0 
8.165250746796e-05 -1.575736293908e-04 0.0 
1.948574903403e-03 8.767362298524e-04 0.0 
1.462504448928e-03 5.239293589658e-03 0.0 
2.376257500877e-04 -2.965105450653e-05 0.0 
3.720304503112e-04 -2.774767954983e-05 0.0 
3.512726156172e-04 9.368301824799e-03 0.0 
2.347851808813e-04 9.363261509585e-03 0.0 
2.499972816092e-03 3.562512512533e-03 0.0 
2.146802845661e-03 1.017551760045e-03 0.0 
3.138477443728e-04 -1.288977597451e-04 0.0 
2.597631562074e-03 2.275011134208e-03 0.0 
1.769446279889e-03 4.522066031391e-04 0.0 
5.639707463412e-04 5.786065798867e-05 0.0 
1.407475773366e-03 1.973436720428e-04 0.0 
2.316767294676e-04 4.664747830439e-04 0.0 
2.296627418666e-03 6.892271549779e-03 0.0 
1.800328149014e-03 5.050984750328e-04 0.0 
3.999824448837e-04 -1.439934300865e-04 0.0 
6.688605519768e-04 -5.666181690531e-05 0.0 
4.261577164691e-04 -1.955745131826e-04 0.0 
2.269871814732e-03 1.142452452253e-03 0.0 
2.576665780413e-03 1.880144621424e-03 0.0 
1.781248626904e-03 5.097448167130e-03 0.0 
2.482036944351e-03 1.992410637366e-03 0.0 
2.374293647227e-03 1.902220178423e-03 0.0 
5.260350912331e-05 -3.474548339488e-04 0.0 
4.076294346741e-04 -2.125972649802e-04 0.0 
2.193546627711e-03 2.017055817783e-03 0.0 
2.709455999169e-03 3.079224377998e-03 0.0 
2.614355685160e-03 2.934984284812e-03 0.0 
8.099775849774e-04 1.246407726618e-04 0.0 
8.622741133488e-06 -3.196892870890e-04 0.0 
4.085303118146e-04 -2.254226679848e-04 0.0 
2.170412064827e-03 1.030488209136e-03 0.0 
3.751844424321e-04 -2.120550004638e-04 0.0 
2.015088075435e-03 8.507165911995e-03 0.0 
2.040500893701e-03 8.494640772618e-03 0.0 
1.890274484514e-03 5.020196489128e-03 0.0 
3.805491443208e-04 1.774809707198e-04 0.0 
3.570576356697e-04 -1.614928004909e-04 0.0 
7.811654727960e-04 1.815700176960e-05 0.0 
4.191271786499e-04 -1.917117260042e-04 0.0 
6.413469533018e-04 2.581998267609e-04 0.0 
1.029455082591e-03 2.827605375267e-03 0.0 
2.838146092189e-04 -1.767392919243e-04 0.0 
2.507006638910e-04 -4.161134551598e-05 0.0 
9.640052563563e-05 -3.628967641957e-04 0.0 
7.562305946380e-04 -1.493530307484e-05 0.0 
2.225118555681e-03 1.077857825709e-03 0.0 
7.400335084013e-05 -3.581926934254e-04 0.0 
9.497923551705e-04 2.826059962975e-03 0.0 
3.655972877688e-04 -1.667976356913e-04 0.0 
2.709623808618e-03 2.830055915869e-03 0.0 
2.495153386304e-03 1.650923323592e-03 0.0 
8.576803668835e-04 -1.521661414470e-04 0.0 
6.765886131159e-04 -9.917856971156e-05 0.0 
9.485960795030e-04 2.377641424894e-03 0.0 
6.346731954627e-04 -6.389964316986e-05 0.0 
2.039287489337e-03 7.841677317665e-04 0.0 
2.075283991490e-03 8.749630321233e-04 0.0 
-1.240961433131e-04 4.751603897773e-04 0.0 
3.070011923110e-04 -1.790612445845e-04 0.0 
1.625939042242e-03 6.441051135148e-04 0.0 
2.286515474383e-03 5.584973896959e-03 0.0 
1.448011880699e-03 5.415401246663e-04 0.0 
9.021341447583e-04 3.252169077768e-04 0.0 
1.959988602960e-03 2.800504967042e-03 0.0 
1.529927089486e-03 6.702746336163e-04 0.0 
2.226369186299e-03 7.877498041433e-03 0.0 
1.678041367410e-03 7.215327258901e-04 0.0 
2.286674847572e-04 -4.336160371123e-05 0.0 
2.095585878970e-03 8.799273061970e-04 0.0 
4.088555917807e-04 -1.784358752523e-04 0.0 
4.224613925001e-04 -1.608512867682e-04 0.0 
1.183123045183e-03 1.829963555868e-03 0.0 
6.974655786161e-04 -1.361082206522e-04 0.0 
2.431824620360e-03 1.471466088497e-03 0.0 
1.523564683449e-03 2.245366269182e-04 0.0 
5.714107495663e-04 -3.241341462869e-05 0.0 
1.645896395680e-03 3.645432961969e-04 0.0 
7.461654252338e-04 -1.439008017742e-04 0.0 
1.006820399079e-03 -5.471390746219e-05 0.0 
8.594572798793e-04 -8.160732249319e-05 0.0 
2.617707683196e-03 2.493559056282e-03 0.0 
8.219393158005e-04 -1.219096460292e-04 0.0 
2.620822463598e-03 2.108092198853e-03 0.0 
9.255108951973e-04 1.404283153616e-04 0.0 
9.904512062091e-04 1.313772608854e-04 0.0 
1.567671942486e-03 3.190841437660e-04 0.0 
1.985823717087e-03 5.445404505768e-03 0.0 
1.980683796496e-04 -3.325205664232e-05 0.0 
1.789905173082e-04 -3.469413410367e-05 0.0 
2.207802969446e-04 2.143877744928e-04 0.0 
2.520473379313e-03 1.858680304349e-03 0.0 
1.084763982703e-04 -1.008321741799e-05 0.0 
1.566290765594e-03 3.251760966750e-03 0.0 
2.766012807827e-04 -1.449368374629e-04 0.0 
-8.945763950652e-05 5.178514710152e-04 0.0 
1.514395907434e-04 -2.577527698551e-05 0.0 
7.271515942975e-04 -8.343054395767e-05 0.0 
6.720552216176e-05 -1.446429534374e-04 0.0 
1.502480640959e-03 3.169810792169e-04 0.0 
2.096011580324e-03 5.334577496145e-03 0.0 
2.177185739131e-03 5.733240474326e-03 0.0 
2.169097080678e-03 9.628771426736e-04 0.0 
1.798051726605e-03 8.017442867028e-03 0.0 
1.942378190926e-03 8.364416338996e-03 0.0 
1.351184845144e-04 -2.694847760725e-05 0.0 
6.799302020540e-04 -7.750238644489e-05 0.0 
8.699440295792e-04 -1.171196718783e-04 0.0 
8.036905149786e-04 -1.758635636159e-06 0.0 
1.003893245858e-03 -8.827733497797e-05 0.0 
8.112703696751e-04 -6.069915347078e-05 0.0 
1.698131962211e-03 8.611041651058e-03 0.0 
2.272907692586e-03 6.531968443946e-03 0.0 
2.960516111285e-04 9.656168447299e-03 0.0 
9.393203881848e-04 1.077922031694e-04 0.0 
1.490041796536e-03 2.395654472971e-04 0.0 
6.611216338677e-04 1.463742771844e-04 0.0 
5.650473890555e-05 -3.131214310494e-05 0.0 
1.038419244481e-03 -6.019205637755e-05 0.0 
9.029456029625e-05 -4.297618610691e-06 0.0 
8.181073933478e-04 -1.657279806587e-04 0.0 
8.582335617534e-04 2.064480737764e-04 0.0 
2.078394087670e-03 8.247122257438e-04 0.0 
1.912694017408e-03 6.723221106777e-04 0.0 
5.464051775846e-04 2.931873572775e-05 0.0 
4.398153232781e-04 -2.767572277450e-04 0.0 
2.502810862231e-03 1.681084824897e-03 0.0 
9.471634791138e-04 -1.092085190953e-04 0.0 
2.585261754361e-03 1.894512265400e-03 0.0 
1.026892532591e-03 3.668697421019e-04 0.0 
1.726855633620e-03 5.126081652972e-04 0.0 
9.096125766755e-04 -1.354888988427e-04 0.0 
3.441679015016e-04 -1.283461148683e-04 0.0 
2.649502766985e-03 2.129728584706e-03 0.0 
-4.086164058787e-05 2.642449024939e-04 0.0 
1.510824133856e-03 2.355819779415e-04 0.0 
2.762246492182e-05 5.042184934811e-04 0.0 
1.447140311072e-04 -3.630248415994e-04 0.0 
3.059918913021e-04 -1.450717922901e-04 0.0 
1.991106216367e-03 1.166705532583e-03 0.0 
2.308558987932e-03 5.068523806649e-03 0.0 
1.357062712144e-03 6.349438427492e-03 0.0 
1.198805888198e-04 2.243466888255e-04 0.0 
-1.388755459232e-04 3.582131124256e-04 0.0 
1.599572223765e-03 7.334070813511e-03 0.0 
8.409939390122e-04 -1.061850700221e-04 0.0 
2.382157370974e-04 -1.598179935439e-04 0.0 
2.550390775033e-03 5.772915673460e-03 0.0 
7.204160940466e-04 -2.331478920835e-04 0.0 
7.120812350594e-04 -1.138238515870e-04 0.0 
2.184573693091e-03 9.926661546520e-04 0.0 
1.446154177731e-03 2.408924880653e-04 0.0 
1.873687743800e-03 1.573259172259e-03 0.0 
3.015675047619e-04 1.575422540658e-04 0.0 
3.136546876106e-04 -1.774736535759e-04 0.0 
2.205893207378e-04 -1.441475177950e-04 0.0 
2.997418420819e-04 -3.263492269938e-04 0.0 
2.183454131768e-03 7.765507135113e-03 0.0 
2.407132469264e-03 4.902816565141e-03 0.0 
2.074936964983e-05 -6.169464649159e-05 0.0 
8.430526543684e-05 -3.635486167095e-04 0.0 
4.761891310883e-05 -1.068859331493e-04 0.0 
2.399984983727e-04 -3.632010075998e-04 0.0 
1.935958410950e-04 -1.437063646023e-04 0.0 
9.060928890617e-04 -1.469998428029e-04 0.0 
7.044308962866e-04 -2.357034867845e-04 0.0 
7.149281106378e-04 -1.776725036994e-04 0.0 
2.563455985441e-04 -1.292875567161e-04 0.0 
2.435688464121e-03 3.742014664946e-03 0.0 
1.759846625122e-04 -1.287397231912e-04 0.0 
9.540974278752e-04 -1.171938499247e-04 0.0 
2.466702790569e-03 1.666889249699e-03 0.0 
1.365950204085e-03 7.843551110797e-03 0.0 
1.340034718204e-03 2.948187164565e-04 0.0 
1.503506657222e-04 -1.286031308149e-04 0.0 
2.287910444291e-04 -1.291650554108e-04 0.0 
1.049122687954e-03 3.966977751074e-03 0.0 
8.693331617464e-04 -1.713103030798e-04 0.0 
1.326586983604e-04 -1.143666936726e-04 0.0 
5.426297931520e-05 5.850855247370e-03 0.0 
5.911514292764e-05 6.825760933228e-03 0.0 
1.241677184291e-03 5.117664002612e-03 0.0 
2.088347620086e-04 -1.142670675800e-04 0.0 
5.984160064481e-04 -2.769223751092e-04 0.0 
1.652310512269e-04 5.892122542010e-04 0.0 
8.198222149261e-04 1.823708327092e-04 0.0 
2.624953125371e-04 -3.706487863162e-04 0.0 
6.082415910927e-04 -2.689135433910e-04 0.0 
1.562710856466e-03 2.612186400165e-04 0.0 
1.242614164203e-03 7.326684339089e-03 0.0 
1.080413270112e-04 -1.145257092547e-04 0.0 
1.882440710299e-05 -2.926407389817e-04 0.0 
2.199009214835e-03 7.430333217419e-03 0.0 
1.830218597344e-04 -1.142828885530e-04 0.0 
7.916015354249e-04 -1.544359186232e-04 0.0 
3.259038319384e-04 -1.613541283854e-04 0.0 
1.054682897816e-05 1.479300043450e-04 0.0 
7.068642837753e-05 2.993253290090e-03 0.0 
7.342224646989e-04 -2.206648727350e-04 0.0 
6.913229675889e-04 7.603854787203e-05 0.0 
1.833506706273e-03 5.790883171049e-04 0.0 
1.637979546644e-04 -1.002224299053e-04 0.0 
1.390687900804e-04 -1.004428274012e-04 0.0 
8.429291076675e-04 -1.708036208180e-04 0.0 
2.168270109402e-04 -3.788771703510e-04 0.0 
7.490461835992e-06 2.153825001253e-04 0.0 
1.204427624156e-04 -8.715098343716e-05 0.0 
5.823788496797e-04 3.926480677591e-05 0.0 
5.006894099034e-04 -2.973690254557e-04 0.0 
2.349552958782e-03 1.463518506028e-03 0.0 
1.253077491043e-03 2.612353692846e-03 0.0 
2.447560166120e-03 1.807402770609e-03 0.0 
1.848626366625e-04 1.298655099157e-05 0.0 
-6.656839441649e-05 -6.606146722490e-05 0.0 
1.062076246867e-05 2.597271724261e-04 0.0 
4.083411179201e-06 -1.207352729992e-07 0.0 
3.638037331160e-05 8.371807521958e-03 0.0 
6.129756544415e-04 -2.476426949094e-04 0.0 
2.012084639979e-03 7.607031636625e-04 0.0 
9.309411032457e-04 -1.094884628840e-04 0.0 
1.449893068702e-04 -3.705182458437e-04 0.0 
-1.072130633747e-04 3.915725412339e-04 0.0 
3.039668502335e-04 2.147201099940e-03 0.0 
2.479910949967e-03 4.214546014552e-03 0.0 
2.029491520489e-03 8.350267439868e-03 0.0 
3.014095264151e-04 1.088703730849e-04 0.0 
1.759619268352e-05 -3.113083143063e-04 0.0 
2.685358993649e-04 8.773875031227e-05 0.0 
2.397284831670e-03 4.398580119034e-03 0.0 
5.033964952965e-04 -2.594598052963e-04 0.0 
2.010369461091e-03 7.352770951877e-04 0.0 
5.762812641229e-04 -2.654260573851e-04 0.0 
2.378136018608e-04 7.645591962225e-04 0.0 
5.053546373881e-04 -2.860882249495e-04 0.0 
2.420613602490e-03 3.127553254618e-03 0.0 
5.599748286927e-05 -2.253951248125e-05 0.0 
6.898007923820e-04 -2.407591551853e-04 0.0 
2.312947044340e-03 1.574658094154e-03 0.0 
-2.348895457357e-05 -1.164578982676e-04 0.0 
8.151101569368e-04 -1.943735201413e-04 0.0 
2.062789810374e-03 3.245247151457e-03 0.0 
4.105717932819e-04 -2.912232487883e-04 0.0 
4.345103838883e-04 -3.144784323057e-04 0.0 
1.922789472726e-03 6.253359778126e-04 0.0 
3.306676534620e-04 -3.142042147359e-04 0.0 
3.631468266812e-04 2.555530721515e-03 0.0 
6.397097687044e-04 3.199584156400e-03 0.0 
3.791389678515e-04 -3.169105201268e-04 0.0 
7.907672763582e-04 -1.182909713938e-04 0.0 
1.630914332916e-03 3.254912394560e-04 0.0 
2.268710425746e-03 1.422564884224e-03 0.0 
1.286414791053e-03 1.181484798217e-03 0.0 
1.063770819186e-03 4.752014231488e-03 0.0 
1.021451699808e-04 4.840259247117e-03 0.0 
1.207719589195e-03 6.663999434531e-04 0.0 
8.581148501125e-04 -1.342188156029e-04 0.0 
4.544660790060e-06 6.091230144234e-04 0.0 
1.502733399083e-03 2.783863556717e-03 0.0 
7.230975658997e-04 -1.507980900656e-04 0.0 
2.389124382119e-03 2.071138855121e-03 0.0 
7.700431897739e-04 -1.417007935359e-04 0.0 
1.689952883063e-04 1.296981479746e-04 0.0 
7.676618226918e-04 -8.195909735175e-05 0.0 
3.339974160715e-04 9.791570006049e-04 0.0 
1.550211463839e-03 2.511803172467e-04 0.0 
7.584373089272e-04 -1.051038988583e-04 0.0 
1.845317340478e-03 5.575282527145e-04 0.0 
3.823237417780e-04 6.045745479556e-03 0.0 
3.524529964398e-04 -3.166035423923e-04 0.0 
1.098531832191e-04 4.448053277301e-04 0.0 
7.246473377621e-04 -6.900286681370e-05 0.0 
4.646551582963e-04 1.252842901135e-03 0.0 
3.536320730679e-05 -6.410541000103e-05 0.0 
2.655530674806e-05 1.955336770979e-03 0.0 
3.549354646900e-05 2.921602351770e-03 0.0 
1.657997367481e-04 -3.845404430784e-04 0.0 
7.212034833392e-04 -4.716913963920e-05 0.0 
2.701524092494e-04 -3.467583877121e-04 0.0 
2.743867378633e-04 -3.360860708509e-04 0.0 
2.025503797964e-03 1.283548701375e-03 0.0 
1.763040938945e-03 4.716219367571e-04 0.0 
2.117269233036e-03 1.230601068157e-03 0.0 
7.718582815238e-04 -2.127437691527e-04 0.0 
6.565384814901e-04 9.707899510974e-03 0.0 
1.278916658221e-04 7.626923373517e-06 0.0 
2.462088170547e-04 -3.545341296737e-04 0.0 
7.945764377261e-04 8.163486981524e-05 0.0 
1.684396026429e-03 3.661865642892e-04 0.0 
6.322373899940e-05 -3.333632035078e-04 0.0 
2.513759611779e-03 2.572134002539e-03 0.0 
9.181782854222e-04 -1.482254859375e-04 0.0 
2.001602354001e-04 -3.678417946810e-04 0.0 
7.415544260452e-04 -2.160183247264e-04 0.0 
1.110445070637e-05 -7.309650458312e-05 0.0 
2.464269293831e-03 2.949530893864e-03 0.0 
2.490932109880e-04 -3.752628727806e-04 0.0 
4.522579857250e-05 -1.478912412808e-04 0.0 
2.222773257883e-03 1.642091664391e-03 0.0 
1.268344832451e-03 2.997937629189e-04 0.0 
4.393740352527e-04 -3.032379470233e-04 0.0 
3.814110390320e-05 -2.920137122232e-04 0.0 
1.642839330369e-03 3.285576551782e-04 0.0 
2.832580028254e-05 6.360328452963e-03 0.0 
1.960774563772e-04 -3.480020282492e-04 0.0 
8.407172239865e-04 4.034657032636e-04 0.0 
7.546627365727e-04 7.920078321828e-04 0.0 
1.273717709987e-04 7.715611368658e-03 0.0 
5.345832319834e-04 1.416401690361e-03 0.0 
7.651780310455e-04 6.191948177645e-04 0.0 
7.776677411507e-04 -2.071288861416e-04 0.0 
6.506838814495e-04 -2.510001745636e-04 0.0 
3.886750576272e-04 6.684523751906e-05 0.0 
-6.258553142732e-05 -1.832168055069e-05 0.0 
8.973451550030e-06 -3.022609774966e-04 0.0 
3.330464143692e-05 -1.368944233315e-04 0.0 
4.099566404406e-04 -3.043651387998e-04 0.0 
6.328613857797e-04 -2.658771426192e-04 0.0 
7.962143866583e-05 1.670363972560e-03 0.0 
1.913437824644e-04 2.047606012266e-03 0.0 
1.174601243148e-03 7.837528571248e-03 0.0 
8.007914992182e-04 -1.950924810141e-04 0.0 
1.008390135974e-04 -2.904737205993e-04 0.0 
1.545846217659e-03 4.561917486470e-04 0.0 
4.248349266442e-05 2.454140069248e-06 0.0 
5.617963917267e-05 3.633701290474e-06 0.0 
6.520615354248e-04 -2.406473865694e-04 0.0 
1.469970511653e-03 8.322714988018e-03 0.0 
2.184710088941e-05 -1.291451194543e-04 0.0 
-1.917672679769e-05 1.073301660890e-03 0.0 
3.013346293268e-04 -3.020736887768e-04 0.0 
2.804111803774e-05 1.341053061680e-03 0.0 
1.669662922114e-03 3.635198830983e-04 0.0 
5.325715120036e-04 -2.923320345115e-04 0.0 
6.818038813567e-04 -2.476272915228e-04 0.0 
1.504526276410e-04 -2.414826992193e-04 0.0 
8.133513158530e-05 2.642557461173e-03 0.0 
5.729248547493e-04 -2.763441178725e-04 0.0 
2.631673174266e-04 2.099585912014e-03 0.0 
2.135209746192e-04 3.512393695343e-03 0.0 
3.191138924260e-05 5.737154401553e-04 0.0 
9.181276081264e-06 -2.080710489012e-07 0.0 
6.716971595670e-05 7.824511550535e-03 0.0 
5.405931488618e-04 -2.701331735179e-04 0.0 
3.606211236806e-04 2.967009573942e-03 0.0 
5.388088715862e-04 -2.568435831314e-04 0.0 
1.593617039515e-05 7.117172911706e-07 0.0 
-7.204183566665e-05 6.695013612132e-04 0.0 
-5.064513617277e-05 8.527687866702e-04 0.0 
7.746456778545e-04 1.072320951121e-04 0.0 
1.096845565165e-03 8.741392646391e-03 0.0 
1.565311485015e-04 2.012244566696e-03 0.0 
2.195903433227e-03 1.499537446879e-03 0.0 
1.067010784025e-03 2.829533746155e-04 0.0 
2.054820976396e-03 1.875059036462e-03 0.0 
4.342962778316e-04 7.497572816656e-03 0.0 
3.741492018437e-04 -3.280687494634e-04 0.0 
4.001032230683e-04 -3.267638534189e-04 0.0 
1.268855263399e-04 5.327119671321e-03 0.0 
1.238019331395e-03 3.381540378854e-04 0.0 
1.794566539735e-03 8.682042979050e-03 0.0 
2.307956709779e-04 8.805203294567e-03 0.0 
2.774516067985e-04 7.944893104310e-03 0.0 
4.979570261144e-04 7.616319347913e-03 0.0 
2.544991563758e-04 -2.276791159420e-04 0.0 
3.428123308570e-04 -3.386432330885e-04 0.0 
2.385750552581e-04 1.276972751426e-03 0.0 
4.876605409763e-04 6.572490687674e-03 0.0 
3.574808711593e-04 8.525105699014e-05 0.0 
1.366820965112e-03 1.182183103652e-03 0.0 
2.516943800365e-03 2.379877236138e-03 0.0 
7.830309621040e-04 1.944069419408e-03 0.0 
1.501232974180e-04 -2.302383352901e-04 0.0 
1.454869828154e-04 -2.560801487706e-04 0.0 
2.225995933194e-04 6.886579624811e-06 0.0 
1.007527380193e-04 -2.378804078373e-04 0.0 
4.701066055595e-05 -3.005978832752e-04 0.0 
1.402134488174e-04 4.785428015640e-05 0.0 
1.429733948458e-05 -3.415638932073e-04 0.0 
2.851376491854e-04 8.513095531687e-03 0.0 
4.846798372471e-04 5.843088307789e-05 0.0 
1.673022812829e-04 -3.872866416342e-04 0.0 
1.254085104665e-04 -3.833518168234e-04 0.0 
1.501571226890e-04 4.863469555343e-04 0.0 
9.489823575804e-04 9.412720024697e-03 0.0 
3.578188382435e-04 1.371995670667e-03 0.0 
5.065984701724e-04 8.033137919665e-05 0.0 
8.303888200714e-04 9.429586835384e-03 0.0 
-1.301310313565e-05 -2.051537555646e-05 0.0 
5.531190657388e-05 1.075994430446e-03 0.0 
1.327765345204e-04 -3.590734687605e-04 0.0 
3.936401796480e-04 1.799703890643e-03 0.0 
1.238850789732e-05 4.194057178407e-07 0.0 
1.224883468341e-03 1.321595863171e-03 0.0 
3.532394552386e-04 -2.360408352050e-04 0.0 
1.686233142947e-03 7.554081723227e-03 0.0 
9.088603264241e-05 -2.262441980918e-04 0.0 
1.477429913856e-03 3.979149681655e-04 0.0 
1.910565184292e-04 4.777487001702e-05 0.0 
1.227367779212e-04 4.345258590448e-03 0.0 
1.750814100409e-04 3.935904004247e-05 0.0 
1.542771919003e-04 -2.096991434598e-04 0.0 
7.580664766364e-05 3.372424726407e-07 0.0 
3.903657182987e-04 -2.823493736129e-04 0.0 
6.553091066212e-05 -3.467652253018e-04 0.0 
2.601891650128e-04 3.077049550625e-05 0.0 
6.428369410155e-04 1.110461406110e-03 0.0 
3.275458620448e-04 9.520063753688e-04 0.0 
6.356014357120e-04 8.701975049857e-03 0.0 
2.168411299185e-03 6.652928196729e-03 0.0 
2.542190758016e-04 6.360195840516e-04 0.0 
8.847501316092e-04 6.851873131761e-04 0.0 
7.425999480957e-05 -2.602422015084e-04 0.0 
9.126571384181e-05 2.458862951560e-04 0.0 
1.334224160495e-03 3.463783104578e-04 0.0 
5.251292152449e-04 9.714507927065e-03 0.0 
8.587302847927e-04 1.523752679202e-03 0.0 
4.474265134333e-06 5.454569957847e-04 0.0 
4.474265134333e-06 2.301081135224e-04 0.0 
1.359960849370e-05 -3.734627531651e-04 0.0 
4.666596684722e-06 -3.690181487981e-04 0.0 
2.843021104275e-05 9.341590479352e-03 0.0 
6.795641222521e-05 9.681071962394e-03 0.0 
1.581282375199e-06 -1.784499193863e-07 0.0 
1.581282375199e-06 -7.976093902828e-07 0.0 
2.645785914941e-05 -3.648383943150e-04 0.0 
1.738011878597e-05 -1.956903270366e-04 0.0 
7.503094262726e-05 -6.583642524587e-06 0.0 
1.111676803393e-03 4.077193027723e-04 0.0 
1.169860876174e-04 -3.484231618314e-04 0.0 
1.281240884459e-04 -1.060970639863e-06 0.0 
1.956502857954e-05 -1.133875937340e-04 0.0 
2.076447620472e-05 -1.673286409195e-04 0.0 
3.322260580834e-04 6.185320600038e-03 0.0 
2.814189553425e-04 -3.391027961479e-04 0.0 
1.651958174518e-03 4.407739861417e-04 0.0 
1.206787522376e-04 -3.616082229590e-04 0.0 
1.248109992927e-04 -1.983000494829e-04 0.0 
1.170770906830e-03 9.322792108617e-04 0.0 
1.529542768617e-05 2.417994745729e-03 0.0 
3.998472619827e-05 -1.642249465041e-04 0.0 
2.116452483154e-04 7.174674121571e-03 0.0 
1.208129216430e-03 5.622131729457e-04 0.0 
1.888896174253e-03 1.488509845024e-03 0.0 
2.244066586137e-03 1.930695716799e-03 0.0 
7.162742971391e-04 9.394722256770e-03 0.0 
1.598371179687e-03 3.540666192373e-04 0.0 
1.043895791190e-03 1.470821035066e-03 0.0 
6.726907574498e-05 -2.997149051564e-04 0.0 
1.589210445560e-04 -3.877031548045e-04 0.0 
1.428451240946e-03 6.923699347434e-04 0.0 
8.390481700501e-04 9.943458009592e-05 0.0 
2.489647786520e-04 -3.362849862870e-04 0.0 
1.754262997662e-04 5.433468172100e-03 0.0 
4.096829311963e-05 -1.174503923223e-06 0.0 
1.348219588986e-03 5.564455769097e-04 0.0 
1.152631200808e-03 4.778971151823e-04 0.0 
2.337038642795e-05 -8.744868091436e-05 0.0 
-3.696054178671e-05 1.397315944239e-04 0.0 
3.978502768518e-05 1.924021416853e-03 0.0 
4.707512268854e-04 1.055534041786e-03 0.0 
1.797597426426e-03 7.163440173832e-03 0.0 
1.676332845637e-03 4.213478219920e-04 0.0 
3.046556753199e-04 1.748700757772e-03 0.0 
3.451523869986e-04 6.575601519084e-05 0.0 
1.832732544366e-04 -3.586378040889e-04 0.0 
1.820317671022e-04 -3.837622222331e-04 0.0 
-5.400164321030e-05 1.243260069558e-03 0.0 
2.910116049461e-04 4.985879491985e-03 0.0 
1.138643405019e-04 -2.792625390243e-04 0.0 
7.329492196555e-04 1.543730397622e-03 0.0 
7.085583845203e-05 -3.407284244236e-04 0.0 
5.970009203416e-04 1.040279298812e-04 0.0 
1.090023956590e-03 7.777159353503e-03 0.0 
4.970112076750e-04 1.462354731670e-04 0.0 
1.457631115781e-03 4.478677470380e-04 0.0 
1.979791890958e-03 6.961216589773e-03 0.0 
2.054999427601e-04 1.781849137284e-05 0.0 
5.685324275736e-04 1.119369014707e-03 0.0 
4.528115886185e-05 1.260375887515e-03 0.0 
-9.914648574515e-05 7.878516260701e-04 0.0 
7.153064438503e-04 1.920319318025e-03 0.0 
7.100974380804e-04 3.563136461205e-04 0.0 
5.963468148156e-04 9.458648754318e-05 0.0 
1.293009982878e-03 3.813666939841e-04 0.0 
2.274552921595e-05 1.356185141667e-06 0.0 
2.237609034599e-03 2.071934790940e-03 0.0 
-1.347076612107e-04 2.033095714640e-04 0.0 
1.259068006133e-04 3.543684188861e-04 0.0 
1.659300292521e-03 1.374744437733e-03 0.0 
1.676743298892e-03 6.649012755067e-03 0.0 
3.885678097171e-05 -9.316082569828e-06 0.0 
1.161475213355e-03 3.561100900798e-04 0.0 
8.005617136547e-05 3.053719375677e-06 0.0 
2.584283631399e-04 3.989259475787e-03 0.0 
4.424520699120e-04 1.185592679530e-04 0.0 
2.515889611384e-04 1.379064846212e-05 0.0 
2.688752280475e-04 1.771837430105e-05 0.0 
8.288747094717e-05 -2.702257685333e-04 0.0 
3.567413384362e-05 1.809672218751e-06 0.0 
1.375355073835e-03 8.704197445951e-03 0.0 
1.901899167220e-04 2.038396022981e-03 0.0 
1.968518248416e-04 -3.795965198656e-04 0.0 
1.215344145493e-04 2.835123961267e-03 0.0 
2.650874582343e-04 5.386753910296e-03 0.0 
1.357195662487e-05 -3.530580244762e-04 0.0 
3.052402266162e-04 -2.145935021176e-04 0.0 
2.076486958388e-03 1.649070635087e-03 0.0 
2.615351869470e-04 1.036116817187e-03 0.0 
9.563657098748e-05 1.945937701116e-03 0.0 
5.580697061590e-04 1.403991057107e-04 0.0 
5.279471525461e-04 7.097840145049e-03 0.0 
1.500395297025e-04 -3.902979301533e-04 0.0 
5.917774335659e-05 1.120678100848e-05 0.0 
1.511590756060e-04 -3.876085153847e-04 0.0 
2.110651156939e-04 -3.821450242701e-04 0.0 
-1.590810507038e-04 2.638540042985e-04 0.0 
1.120174401784e-04 -2.078697471767e-04 0.0 
4.893367541349e-05 -9.021673542323e-06 0.0 
1.215258913651e-03 1.411863496327e-03 0.0 
2.134228975820e-03 6.222893254003e-03 0.0 
1.610230293211e-04 -2.446968607466e-04 0.0 
2.143735463465e-04 3.606941093123e-06 0.0 
4.454310287433e-04 4.393123272887e-05 0.0 
6.130230185835e-04 1.881631632179e-04 0.0 
1.092530508945e-03 5.335534427792e-04 0.0 
1.687810777254e-03 1.235656365763e-03 0.0 
1.904450833567e-04 -3.850803340824e-04 0.0 
1.079056784333e-04 -1.775777980216e-04 0.0 
6.873573065734e-05 -8.020748562997e-06 0.0 
2.638610844532e-05 -3.514442200238e-04 0.0 
5.757440160578e-06 -3.475609073581e-04 0.0 
-5.131710493197e-05 3.405229116727e-04 0.0 
1.615660692272e-04 -3.855951330917e-04 0.0 
1.531162878248e-04 1.385534317078e-05 0.0 
7.228140516772e-04 4.575369008654e-04 0.0 
2.716968978758e-04 1.747080606831e-03 0.0 
5.026045209999e-04 1.631209847781e-04 0.0 
5.366486774175e-04 4.742799267665e-05 0.0 
4.299092701894e-04 6.540566288057e-03 0.0 
6.875934022000e-05 2.022223342371e-04 0.0 
3.786851659592e-04 -3.039848199458e-04 0.0 
8.855211946096e-04 9.742047377094e-03 0.0 
2.254853516861e-04 -3.483084692185e-04 0.0 
1.195014333941e-04 -3.789647282329e-04 0.0 
2.386682254907e-05 5.833817360846e-07 0.0 
1.880708536794e-03 8.092804303533e-03 0.0 
7.554182128474e-05 -3.523709067187e-04 0.0 
7.890092915080e-05 -2.131191578088e-04 0.0 
8.503198162505e-04 5.807895654278e-04 0.0 
4.422260433928e-04 1.844075159587e-03 0.0 
5.453060205966e-04 8.496915074829e-04 0.0 
4.996133915520e-05 -2.814163390612e-04 0.0 
8.166291842145e-05 -4.737521099881e-05 0.0 
1.073043863533e-04 2.876814878933e-06 0.0 
1.509502760301e-05 4.898352859485e-04 0.0 
5.664693554399e-06 -2.991851923855e-07 0.0 
6.481058435435e-05 8.801294533558e-03 0.0 
4.060726288701e-04 4.838663035995e-05 0.0 
8.828278301065e-05 -3.506372740495e-04 0.0 
6.836325848449e-04 1.564364708307e-03 0.0 
1.329161396242e-04 -3.835551885618e-04 0.0 
1.928763070514e-04 2.355177531340e-05 0.0 
7.186982500890e-04 1.088874132198e-03 0.0 
-6.829310370856e-07 3.040438117953e-05 0.0 
1.318406705367e-03 5.051386803351e-04 0.0 
2.531855088446e-04 4.463769109654e-03 0.0 
1.701791431067e-04 9.888639444496e-04 0.0 
7.515027328394e-05 1.782292603212e-05 0.0 
1.032971684992e-04 5.833950194065e-03 0.0 
7.053015802211e-04 5.023626617608e-04 0.0 
9.153082762394e-04 1.501694994569e-03 0.0 
2.079967501444e-04 5.128137232243e-03 0.0 
1.111142027926e-03 7.850247371911e-04 0.0 
8.850040231877e-05 -2.498471371649e-04 0.0 
4.617986293203e-04 9.416885080991e-03 0.0 
8.676455637217e-04 2.880669146955e-04 0.0 
1.573414419623e-05 1.043826720583e-03 0.0 
2.757635449409e-05 -3.719774853634e-04 0.0 
1.262705373911e-04 9.395684808712e-03 0.0 
5.123924882457e-06 -2.147666459344e-06 0.0 
1.316124374100e-04 -3.507411680857e-04 0.0 
5.377773255547e-04 7.504255083197e-05 0.0 
1.121109531242e-03 1.488083705106e-03 0.0 
1.980621084526e-04 1.285721452661e-03 0.0 
8.586507063063e-05 -3.431166814847e-04 0.0 
6.177820928137e-05 2.112899302417e-04 0.0 
8.447276216414e-06 -1.532255519721e-04 0.0 
1.019197876644e-04 3.462210831493e-03 0.0 
-2.462756052230e-05 -1.544840517938e-04 0.0 
4.251594253104e-04 8.779343871562e-04 0.0 
1.858037062215e-04 6.025548611246e-03 0.0 
2.748116468718e-04 -3.516812971776e-04 0.0 
3.469336612401e-04 6.748839142307e-03 0.0 
6.689510537009e-04 2.282961863805e-04 0.0 
1.574636907437e-05 -1.391250396072e-04 0.0 
-1.254795329763e-04 2.935065928170e-04 0.0 
1.043509777887e-04 -2.687289820015e-04 0.0 
1.117915547261e-04 -1.834348514283e-04 0.0 
7.299092857961e-06 -1.253679995949e-04 0.0 
7.415976420051e-04 1.881281108316e-04 0.0 
5.806164723502e-05 -1.867960257654e-04 0.0 
7.392096408939e-05 -1.694579161003e-04 0.0 
1.464148536504e-04 -3.817951862025e-04 0.0 
1.387635930886e-04 1.108890343244e-07 0.0 
1.465546516082e-03 7.626172792004e-04 0.0 
1.639086903860e-04 1.982814882184e-04 0.0 
2.635490666490e-05 9.882050107467e-04 0.0 
9.207336061658e-06 -1.649242261447e-06 0.0 
1.231247095202e-04 8.854344055400e-03 0.0 
1.396515540450e-04 6.241751086142e-03 0.0 
8.012629634565e-05 -1.907004485410e-04 0.0 
8.908256319478e-05 -1.811362546455e-04 0.0 
5.423290640896e-05 -1.728609453701e-04 0.0 
6.801705208364e-04 9.643691982530e-05 0.0 
2.422245743977e-04 -3.566704668105e-04 0.0 
1.258616228382e-03 6.570535258216e-04 0.0 
2.249975584673e-04 7.736758626290e-03 0.0 
5.111313445910e-04 1.157784730785e-03 0.0 
6.413195428949e-04 8.304308286588e-05 0.0 
4.065351334764e-04 6.947169214175e-03 0.0 
1.486495943983e-03 1.149444864313e-03 0.0 
7.585551414326e-04 2.057301872552e-04 0.0 
5.771777711678e-04 1.615037825643e-04 0.0 
-8.336158608372e-05 2.505880124466e-04 0.0 
1.499797998263e-03 1.095106119578e-03 0.0 
1.275155044183e-03 8.795939546121e-04 0.0 
1.379563057487e-04 -3.801956814448e-04 0.0 
9.004172876275e-05 -2.025687430176e-04 0.0 
-8.251685442473e-05 1.935272001569e-04 0.0 
1.252144567117e-03 9.536897312096e-04 0.0 
2.115880424871e-04 1.265735602714e-02 0.0 
2.406694541134e-04 1.231731977020e-02 0.0 
3.335151829285e-04 1.266361478552e-02 0.0 
3.594948014944e-04 1.232704959907e-02 0.0 
4.457479029030e-04 1.267115186884e-02 0.0 
4.759883178149e-04 1.233367917747e-02 0.0 
5.581994175628e-04 1.267605787148e-02 0.0 
5.888162751733e-04 1.233862105796e-02 0.0 
6.669081387801e-04 1.267866795959e-02 0.0 
6.961669366327e-04 1.234101809012e-02 0.0 
7.685675238474e-04 1.267737265572e-02 0.0 
7.957195104801e-04 1.233888379338e-02 0.0 
8.600854494187e-04 1.266931008745e-02 0.0 
8.851355894606e-04 1.232866504339e-02 0.0 
9.387233115944e-04 1.265052568107e-02 0.0 
8.250325771693e-04 9.513024501982e-03 0.0 
9.621383818278e-04 1.230637687645e-02 0.0 
9.782635295580e-04 9.705230363590e-03 0.0 
1.001605077181e-03 1.261683127854e-02 0.0 
1.024200906434e-03 1.226720010140e-02 0.0 
1.045031963910e-03 1.256254231418e-02 0.0 
1.068423669311e-03 1.220415528216e-02 0.0 
1.065303460964e-03 1.247932625486e-02 0.0 
1.092802088992e-03 1.210740063938e-02 0.0 
4.107546159489e-04 9.679147055548e-03 0.0 
1.059717065849e-03 1.235618248964e-02 0.0 
1.096356846506e-03 1.196449715302e-02 0.0 
1.026341715417e-03 1.217951201033e-02 0.0 
1.079419311602e-03 1.176012979735e-02 0.0 
9.641880473784e-04 1.193376665461e-02 0.0 
1.045066081032e-03 1.147458641779e-02 0.0 
8.746249730542e-04 1.159325351041e-02 0.0 
1.001011724478e-03 1.107453453827e-02 0.0 
9.641163818173e-04 1.051521578643e-02 0.0 
7.676635376429e-04 1.112325706342e-02 0.0 
1.100567688717e-03 8.810348988427e-03 0.0 
6.688604236914e-04 1.046339888065e-02 0.0 
6.862897274969e-04 8.976471541993e-03 0.0 
2.699894125890e-05 1.248316133921e-02 0.0 
1.340729937382e-04 1.248374831052e-02 0.0 
7.332618693475e-05 1.213748315793e-02 0.0 
8.774574806232e-05 1.282942649180e-02 0.0 
7.135859485993e-04 8.317159552235e-03 0.0 
1.668748474539e-04 1.129248296408e-02 0.0 
2.165338985338e-04 1.163680730180e-02 0.0 
2.900705546714e-04 1.130293027663e-02 0.0 
3.401857288168e-04 1.164687755859e-02 0.0 
4.085601737451e-04 1.131209270455e-02 0.0 
4.581096613346e-04 1.165479205366e-02 0.0 
5.229273086172e-04 1.131975566793e-02 0.0 
5.714228227079e-04 1.166120597821e-02 0.0 
6.331663438355e-04 1.132569319522e-02 0.0 
6.798185941534e-04 1.166545840549e-02 0.0 
7.387673979950e-04 1.132851292999e-02 0.0 
7.822677271069e-04 1.166558375228e-02 0.0 
8.388986819579e-04 1.132553062827e-02 0.0 
1.476977855945e-03 9.791477354081e-03 0.0 
8.774006053730e-04 1.165818562531e-02 0.0 
9.326463438773e-04 1.131315274522e-02 0.0 
1.301776446931e-03 1.001716492709e-02 0.0 
9.637963981982e-04 1.163948335868e-02 0.0 
1.019147568422e-03 1.128705592496e-02 0.0 
1.521766212919e-03 9.826734776836e-03 0.0 
1.040085381305e-03 1.160431826559e-02 0.0 
1.097872390430e-03 1.124093301878e-02 0.0 
1.105379620960e-03 1.154542782257e-02 0.0 
1.169062482383e-03 1.116626041452e-02 0.0 
1.159605158762e-03 1.145306225862e-02 0.0 
1.625577183986e-03 9.318289989813e-03 0.0 
1.233925477028e-03 1.105196497808e-02 0.0 
1.203762187915e-03 1.131461802222e-02 0.0 
1.240793763515e-03 1.111433149132e-02 0.0 
1.295121508739e-03 1.088383457350e-02 0.0 
1.277470842368e-03 1.083066970527e-02 0.0 
1.357967260627e-03 1.064405163605e-02 0.0 
1.322490292623e-03 1.043095717191e-02 0.0 
1.428508302535e-03 1.030575943153e-02 0.0 
1.450375774973e-03 9.543977562817e-03 0.0 
2.126156119175e-05 1.145345441157e-02 0.0 
1.077579742174e-04 1.145779401381e-02 0.0 
6.758880686761e-05 1.179588945588e-02 0.0 
6.143072854158e-05 1.111535896949e-02 0.0 
1.422118815725e-03 9.283859905101e-03 0.0 
1.600738029605e-04 1.061254157461e-02 0.0 
1.995380202445e-04 1.027603257574e-02 0.0 
2.798757208754e-04 1.062209694005e-02 0.0 
3.190778418602e-04 1.028594194511e-02 0.0 
3.976471205844e-04 1.063199042766e-02 0.0 
4.369105323435e-04 1.029578452852e-02 0.0 
5.126412327868e-04 1.064085041967e-02 0.0 
5.526235444759e-04 1.030455816070e-02 0.0 
6.246531414338e-04 1.064795062596e-02 0.0 
6.661365850036e-04 1.031108134518e-02 0.0 
7.335985912468e-04 1.065187843894e-02 0.0 
7.776395527338e-04 1.031351802731e-02 0.0 
1.692205584663e-03 9.531540507341e-03 0.0 
8.394393143330e-04 1.065009939435e-02 0.0 
1.684400717466e-03 9.473875218369e-03 0.0 
8.868454982770e-04 1.030858558810e-02 0.0 
9.415506044061e-04 1.063898394193e-02 0.0 
9.941752988655e-04 1.029250051436e-02 0.0 
1.040622208560e-03 1.061424188393e-02 0.0 
1.100504998079e-03 1.025978966684e-02 0.0 
1.136817367066e-03 1.056921846106e-02 0.0 
1.206497284235e-03 1.020238191275e-02 0.0 
1.610829854082e-03 9.798158849993e-03 0.0 
1.231235169021e-03 1.049492906242e-02 0.0 
1.314122338199e-03 1.011015535819e-02 0.0 
1.326269969826e-03 1.038038942976e-02 0.0 
1.426428191442e-03 9.970248750350e-03 0.0 
1.547569183508e-03 9.765432534966e-03 0.0 
1.425443019469e-03 1.021104084996e-02 0.0 
1.534421169890e-03 9.967946403247e-03 0.0 
1.804624767378e-03 9.186210187207e-03 0.0 
1.723249036796e-03 9.452828529859e-03 0.0 
1.948940257341e-05 1.043559444661e-02 0.0 
9.918477110569e-05 1.043864073360e-02 0.0 
5.901560375587e-05 1.009808810146e-02 0.0 
5.965856992323e-05 1.077614707876e-02 0.0 
1.740203405546e-03 9.356206716320e-03 0.0 

VECTORS element_materi_displacement float
0.0 0.0 0.0 
0.0 0.0 0.0 
0.0 0.0 0.0 
0.0 0.0 0.0 
0.0 0.0 0.0 
0.0 0.0 0.0 
0.0 0.0 0.0 
0.0 0.0 0.0 
0.0 0.0 0.0 
0.0 0.0 0.0 
0.0 0.0 0.0 
0.0 0.0 0.0 
0.0 0.0 0.0 
0.0 0.0 0.0 
0.0 0.0 0.0 
0.0 0.0 0.0 
0.0 0.0 0.0 
0.0 0.0 0.0 
0.0 0.0 0.0 
0.0 0.0 0.0 
0.0 0.0 0.0 
0.0 0.0 0.0 
0.0 0.0 0.0 
0.0 0.0 0.0 
0.0 0.0 0.0 
0.0 0.0 0.0 
0.0 0.0 0.0 
0.0 0.0 0.0 
0.0 0.0 0.0 
0.0 0.0 0.0 
0.0 0.0 0.0 
0.0 0.0 0.0 
0.0 0.0 0.0 
0.0 0.0 0.0 
0.0 0.0 0.0 
0.0 0.0 0.0 
0.0 0.0 0.0 
0.0 0.0 0.0 
0.0 0.0 0.0 
0.0 0.0 0.0 
0.0 0.0 0.0 
0.0 0.0 0.0 
0.0 0.0 0.0 
0.0 0.0 0.0 
0.0 0.0 0.0 
0.0 0.0 0.0 
0.0 0.0 0.0 
0.0 0.0 0.0 
0.0 0.0 0.0 
0.0 0.0 0.0 
0.0 0.0 0.0 
0.0 0.0 0.0 
0.0 0.0 0.0 
0.0 0.0 0.0 
0.0 0.0 0.0 
0.0 0.0 0.0 
0.0 0.0 0.0 
0.0 0.0 0.0 
0.0 0.0 0.0 
0.0 0.0 0.0 
0.0 0.0 0.0 
0.0 0.0 0.0 
0.0 0.0 0.0 
0.0 0.0 0.0 
0.0 0.0 0.0 
0.0 0.0 0.0 
0.0 0.0 0.0 
0.0 0.0 0.0 
0.0 0.0 0.0 
0.0 0.0 0.0 
0.0 0.0 0.0 
0.0 0.0 0.0 
0.0 0.0 0.0 
0.0 0.0 0.0 
0.0 0.0 0.0 
0.0 0.0 0.0 
0.0 0.0 0.0 
0.0 0.0 0.0 
0.0 0.0 0.0 
0.0 0.0 0.0 
0.0 0.0 0.0 
0.0 0.0 0.0 
0.0 0.0 0.0 
0.0 0.0 0.0 
0.0 0.0 0.0 
0.0 0.0 0.0 
0.0 0.0 0.0 
0.0 0.0 0.0 
0.0 0.0 0.0 
0.0 0.0 0.0 
0.0 0.0 0.0 
0.0 0.0 0.0 
0.0 0.0 0.0 
0.0 0.0 0.0 
0.0 0.0 0.0 
0.0 0.0 0.0 
0.0 0.0 0.0 
0.0 0.0 0.0 
0.0 0.0 0.0 
0.0 0.0 0.0 
0.0 0.0 0.0 
0.0 0.0 0.0 
0.0 0.0 0.0 
0.0 0.0 0.0 
0.0 0.0 0.0 
0.0 0.0 0.0 
0.0 0.0 0.0 
0.0 0.0 0.0 
0.0 0.0 0.0 
0.0 0.0 0.0 
0.0 0.0 0.0 
0.0 0.0 0.0 
0.0 0.0 0.0 
0.0 0.0 0.0 
0.0 0.0 0.0 
0.0 0.0 0.0 
0.0 0.0 0.0 
0.0 0.0 0.0 
0.0 0.0 0.0 
0.0 0.0 0.0 
0.0 0.0 0.0 
0.0 0.0 0.0 
0.0 0.0 0.0 
0.0 0.0 0.0 
0.0 0.0 0.0 
0.0 0.0 0.0 
0.0 0.0 0.0 
0.0 0.0 0.0 
0.0 0.0 0.0 
0.0 0.0 0.0 
0.0 0.0 0.0 
0.0 0.0 0.0 
0.0 0.0 0.0 
0.0 0.0 0.0 
0.0 0.0 0.0 
0.0 0.0 0.0 
0.0 0.0 0.0 
0.0 0.0 0.0 
0.0 0.0 0.0 
0.0 0.0 0.0 
0.0 0.0 0.0 
0.0 0.0 0.0 
0.0 0.0 0.0 
0.0 0.0 0.0 
0.0 0.0 0.0 
0.0 0.0 0.0 
0.0 0.0 0.0 
0.0 0.0 0.0 
0.0 0.0 0.0 
0.0 0.0 0.0 
0.0 0.0 0.0 
0.0 0.0 0.0 
0.0 0.0 0.0 
0.0 0.0 0.0 
0.0 0.0 0.0 
0.0 0.0 0.0 
0.0 0.0 0.0 
0.0 0.0 0.0 
0.0 0.0 0.0 
0.0 0.0 0.0 
0.0 0.0 0.0 
0.0 0.0 0.0 
0.0 0.0 0.0 
0.0 0.0 0.0 
0.0 0.0 0.0 
0.0 0.0 0.0 
0.0 0.0 0.0 
0.0 0.0 0.0 
0.0 0.0 0.0 
0.0 0.0 0.0 
0.0 0.0 0.0 
0.0 0.0 0.0 
0.0 0.0 0.0 
0.0 0.0 0.0 
0.0 0.0 0.0 
0.0 0.0 0.0 
0.0 0.0 0.0 
0.0 0.0 0.0 
0.0 0.0 0.0 
0.0 0.0 0.0 
0.0 0.0 0.0 
0.0 0.0 0.0 
0.0 0.0 0.0 
0.0 0.0 0.0 
0.0 0.0 0.0 
0.0 0.0 0.0 
0.0 0.0 0.0 
0.0 0.0 0.0 
0.0 0.0 0.0 
0.0 0.0 0.0 
0.0 0.0 0.0 
0.0 0.0 0.0 
0.0 0.0 0.0 
0.0 0.0 0.0 
0.0 0.0 0.0 
0.0 0.0 0.0 
0.0 0.0 0.0 
0.0 0.0 0.0 
0.0 0.0 0.0 
0.0 0.0 0.0 
0.0 0.0 0.0 
0.0 0.0 0.0 
0.0 0.0 0.0 
0.0 0.0 0.0 
0.0 0.0 0.0 
0.0 0.0 0.0 
0.0 0.0 0.0 
0.0 0.0 0.0 
0.0 0.0 0.0 
0.0 0.0 0.0 
0.0 0.0 0.0 
0.0 0.0 0.0 
0.0 0.0 0.0 
0.0 0.0 0.0 
0.0 0.0 0.0 
0.0 0.0 0.0 
0.0 0.0 0.0 
0.0 0.0 0.0 
0.0 0.0 0.0 
0.0 0.0 0.0 
0.0 0.0 0.0 
0.0 0.0 0.0 
0.0 0.0 0.0 
0.0 0.0 0.0 
0.0 0.0 0.0 
0.0 0.0 0.0 
0.0 0.0 0.0 
0.0 0.0 0.0 
0.0 0.0 0.0 
0.0 0.0 0.0 
0.0 0.0 0.0 
0.0 0.0 0.0 
0.0 0.0 0.0 
0.0 0.0 0.0 
0.0 0.0 0.0 
0.0 0.0 0.0 
0.0 0.0 0.0 
0.0 0.0 0.0 
0.0 0.0 0.0 
0.0 0.0 0.0 
0.0 0.0 0.0 
0.0 0.0 0.0 
0.0 0.0 0.0 
0.0 0.0 0.0 
0.0 0.0 0.0 
0.0 0.0 0.0 
0.0 0.0 0.0 
0.0 0.0 0.0 
0.0 0.0 0.0 
0.0 0.0 0.0 
0.0 0.0 0.0 
0.0 0.0 0.0 
0.0 0.0 0.0 
0.0 0.0 0.0 
0.0 0.0 0.0 
0.0 0.0 0.0 
0.0 0.0 0.0 
0.0 0.0 0.0 
0.0 0.0 0.0 
0.0 0.0 0.0 
0.0 0.0 0.0 
0.0 0.0 0.0 
0.0 0.0 0.0 
0.0 0.0 0.0 
0.0 0.0 0.0 
0.0 0.0 0.0 
0.0 0.0 0.0 
0.0 0.0 0.0 
0.0 0.0 0.0 
0.0 0.0 0.0 
0.0 0.0 0.0 
0.0 0.0 0.0 
0.0 0.0 0.0 
0.0 0.0 0.0 
0.0 0.0 0.0 
0.0 0.0 0.0 
0.0 0.0 0.0 
0.0 0.0 0.0 
0.0 0.0 0.0 
0.0 0.0 0.0 
0.0 0.0 0.0 
0.0 0.0 0.0 
0.0 0.0 0.0 
0.0 0.0 0.0 
0.0 0.0 0.0 
0.0 0.0 0.0 
0.0 0.0 0.0 
0.0 0.0 0.0 
0.0 0.0 0.0 
0.0 0.0 0.0 
0.0 0.0 0.0 
0.0 0.0 0.0 
0.0 0.0 0.0 
0.0 0.0 0.0 
0.0 0.0 0.0 
0.0 0.0 0.0 
0.0 0.0 0.0 
0.0 0.0 0.0 
0.0 0.0 0.0 
0.0 0.0 0.0 
0.0 0.0 0.0 
0.0 0.0 0.0 
0.0 0.0 0.0 
0.0 0.0 0.0 
0.0 0.0 0.0 
0.0 0.0 0.0 
0.0 0.0 0.0 
0.0 0.0 0.0 
0.0 0.0 0.0 
0.0 0.0 0.0 
0.0 0.0 0.0 
0.0 0.0 0.0 
0.0 0.0 0.0 
0.0 0.0 0.0 
0.0 0.0 0.0 
0.0 0.0 0.0 
0.0 0.0 0.0 
0.0 0.0 0.0 
0.0 0.0 0.0 
0.0 0.0 0.0 
0.0 0.0 0.0 
0.0 0.0 0.0 
0.0 0.0 0.0 
0.0 0.0 0.0 
0.0 0.0 0.0 
0.0 0.0 0.0 
0.0 0.0 0.0 
0.0 0.0 0.0 
0.0 0.0 0.0 
0.0 0.0 0.0 
0.0 0.0 0.0 
0.0 0.0 0.0 
0.0 0.0 0.0 
0.0 0.0 0.0 
0.0 0.0 0.0 
0.0 0.0 0.0 
0.0 0.0 0.0 
0.0 0.0 0.0 
0.0 0.0 0.0 
0.0 0.0 0.0 
0.0 0.0 0.0 
0.0 0.0 0.0 
0.0 0.0 0.0 
0.0 0.0 0.0 
0.0 0.0 0.0 
0.0 0.0 0.0 
0.0 0.0 0.0 
0.0 0.0 0.0 
0.0 0.0 0.0 
0.0 0.0 0.0 
0.0 0.0 0.0 
0.0 0.0 0.0 
0.0 0.0 0.0 
0.0 0.0 0.0 
0.0 0.0 0.0 
0.0 0.0 0.0 
0.0 0.0 0.0 
0.0 0.0 0.0 
0.0 0.0 0.0 
0.0 0.0 0.0 
0.0 0.0 0.0 
0.0 0.0 0.0 
0.0 0.0 0.0 
0.0 0.0 0.0 
0.0 0.0 0.0 
0.0 0.0 0.0 
0.0 0.0 0.0 
0.0 0.0 0.0 
0.0 0.0 0.0 
0.0 0.0 0.0 
0.0 0.0 0.0 
0.0 0.0 0.0 
0.0 0.0 0.0 
0.0 0.0 0.0 
0.0 0.0 0.0 
0.0 0.0 0.0 
0.0 0.0 0.0 
0.0 0.0 0.0 
0.0 0.0 0.0 
0.0 0.0 0.0 
0.0 0.0 0.0 
0.0 0.0 0.0 
0.0 0.0 0.0 
0.0 0.0 0.0 
0.0 0.0 0.0 
0.0 0.0 0.0 
0.0 0.0 0.0 
0.0 0.0 0.0 
0.0 0.0 0.0 
0.0 0.0 0.0 
0.0 0.0 0.0 
0.0 0.0 0.0 
0.0 0.0 0.0 
0.0 0.0 0.0 
0.0 0.0 0.0 
0.0 0.0 0.0 
0.0 0.0 0.0 
0.0 0.0 0.0 
0.0 0.0 0.0 
0.0 0.0 0.0 
0.0 0.0 0.0 
0.0 0.0 0.0 
0.0 0.0 0.0 
0.0 0.0 0.0 
0.0 0.0 0.0 
0.0 0.0 0.0 
0.0 0.0 0.0 
0.0 0.0 0.0 
0.0 0.0 0.0 
0.0 0.0 0.0 
0.0 0.0 0.0 
0.0 0.0 0.0 
0.0 0.0 0.0 
0.0 0.0 0.0 
0.0 0.0 0.0 
0.0 0.0 0.0 
0.0 0.0 0.0 
0.0 0.0 0.0 
0.0 0.0 0.0 
0.0 0.0 0.0 
0.0 0.0 0.0 
0.0 0.0 0.0 
0.0 0.0 0.0 
0.0 0.0 0.0 
0.0 0.0 0.0 
0.0 0.0 0.0 
0.0 0.0 0.0 
0.0 0.0 0.0 
0.0 0.0 0.0 
0.0 0.0 0.0 
0.0 0.0 0.0 
0.0 0.0 0.0 
0.0 0.0 0.0 
0.0 0.0 0.0 
0.0 0.0 0.0 
0.0 0.0 0.0 
0.0 0.0 0.0 
0.0 0.0 0.0 
0.0 0.0 0.0 
0.0 0.0 0.0 
0.0 0.0 0.0 
0.0 0.0 0.0 
0.0 0.0 0.0 
0.0 0.0 0.0 
0.0 0.0 0.0 
0.0 0.0 0.0 
0.0 0.0 0.0 
0.0 0.0 0.0 
0.0 0.0 0.0 
0.0 0.0 0.0 
0.0 0.0 0.0 
0.0 0.0 0.0 
0.0 0.0 0.0 
0.0 0.0 0.0 
0.0 0.0 0.0 
0.0 0.0 0.0 
0.0 0.0 0.0 
0.0 0.0 0.0 
0.0 0.0 0.0 
0.0 0.0 0.0 
0.0 0.0 0.0 
0.0 0.0 0.0 
0.0 0.0 0.0 
0.0 0.0 0.0 
0.0 0.0 0.0 
0.0 0.0 0.0 
0.0 0.0 0.0 
0.0 0.0 0.0 
0.0 0.0 0.0 
0.0 0.0 0.0 
0.0 0.0 0.0 
0.0 0.0 0.0 
0.0 0.0 0.0 
0.0 0.0 0.0 
0.0 0.0 0.0 
0.0 0.0 0.0 
0.0 0.0 0.0 
0.0 0.0 0.0 
0.0 0.0 0.0 
0.0 0.0 0.0 
0.0 0.0 0.0 
0.0 0.0 0.0 
0.0 0.0 0.0 
0.0 0.0 0.0 
0.0 0.0 0.0 
0.0 0.0 0.0 
0.0 0.0 0.0 
0.0 0.0 0.0 
0.0 0.0 0.0 
0.0 0.0 0.0 
0.0 0.0 0.0 
0.0 0.0 0.0 
0.0 0.0 0.0 
0.0 0.0 0.0 
0.0 0.0 0.0 
0.0 0.0 0.0 
0.0 0.0 0.0 
0.0 0.0 0.0 
0.0 0.0 0.0 
0.0 0.0 0.0 
0.0 0.0 0.0 
0.0 0.0 0.0 
0.0 0.0 0.0 
0.0 0.0 0.0 
0.0 0.0 0.0 
0.0 0.0 0.0 
0.0 0.0 0.0 
0.0 0.0 0.0 
0.0 0.0 0.0 
0.0 0.0 0.0 
0.0 0.0 0.0 
0.0 0.0 0.0 
0.0 0.0 0.0 
0.0 0.0 0.0 
0.0 0.0 0.0 
0.0 0.0 0.0 
0.0 0.0 0.0 
0.0 0.0 0.0 
0.0 0.0 0.0 
0.0 0.0 0.0 
0.0 0.0 0.0 
0.0 0.0 0.0 
0.0 0.0 0.0 
0.0 0.0 0.0 
0.0 0.0 0.0 
0.0 0.0 0.0 
0.0 0.0 0.0 
0.0 0.0 0.0 
0.0 0.0 0.0 
0.0 0.0 0.0 
0.0 0.0 0.0 
0.0 0.0 0.0 
0.0 0.0 0.0 
0.0 0.0 0.0 
0.0 0.0 0.0 
0.0 0.0 0.0 
0.0 0.0 0.0 
0.0 0.0 0.0 
0.0 0.0 0.0 
0.0 0.0 0.0 
0.0 0.0 0.0 
0.0 0.0 0.0 
0.0 0.0 0.0 
0.0 0.0 0.0 
0.0 0.0 0.0 
0.0 0.0 0.0 
0.0 0.0 0.0 
0.0 0.0 0.0 
0.0 0.0 0.0 
0.0 0.0 0.0 
0.0 0.0 0.0 
0.0 0.0 0.0 
0.0 0.0 0.0 
0.0 0.0 0.0 
0.0 0.0 0.0 
0.0 0.0 0.0 
0.0 0.0 0.0 
0.0 0.0 0.0 
0.0 0.0 0.0 
0.0 0.0 0.0 
0.0 0.0 0.0 
0.0 0.0 0.0 
0.0 0.0 0.0 
0.0 0.0 0.0 
0.0 0.0 0.0 
0.0 0.0 0.0 
0.0 0.0 0.0 
0.0 0.0 0.0 
0.0 0.0 0.0 
0.0 0.0 0.0 
0.0 0.0 0.0 
0.0 0.0 0.0 
0.0 0.0 0.0 
0.0 0.0 0.0 
0.0 0.0 0.0 
0.0 0.0 0.0 
0.0 0.0 0.0 
0.0 0.0 0.0 
0.0 0.0 0.0 
0.0 0.0 0.0 
0.0 0.0 0.0 
0.0 0.0 0.0 
0.0 0.0 0.0 
0.0 0.0 0.0 
0.0 0.0 0.0 
0.0 0.0 0.0 
0.0 0.0 0.0 
0.0 0.0 0.0 
0.0 0.0 0.0 
0.0 0.0 0.0 
0.0 0.0 0.0 
0.0 0.0 0.0 
0.0 0.0 0.0 
0.0 0.0 0.0 
0.0 0.0 0.0 
0.0 0.0 0.0 
0.0 0.0 0.0 
0.0 0.0 0.0 
0.0 0.0 0.0 
0.0 0.0 0.0 
0.0 0.0 0.0 
0.0 0.0 0.0 
0.0 0.0 0.0 
0.0 0.0 0.0 
0.0 0.0 0.0 
0.0 0.0 0.0 
0.0 0.0 0.0 
0.0 0.0 0.0 
0.0 0.0 0.0 
0.0 0.0 0.0 
0.0 0.0 0.0 
0.0 0.0 0.0 
0.0 0.0 0.0 
0.0 0.0 0.0 
0.0 0.0 0.0 
0.0 0.0 0.0 
0.0 0.0 0.0 
0.0 0.0 0.0 
0.0 0.0 0.0 
0.0 0.0 0.0 
0.0 0.0 0.0 
0.0 0.0 0.0 
0.0 0.0 0.0 
0.0 0.0 0.0 
0.0 0.0 0.0 
0.0 0.0 0.0 
0.0 0.0 0.0 
0.0 0.0 0.0 
0.0 0.0 0.0 
0.0 0.0 0.0 
0.0 0.0 0.0 
0.0 0.0 0.0 
0.0 0.0 0.0 
0.0 0.0 0.0 
0.0 0.0 0.0 
0.0 0.0 0.0 
0.0 0.0 0.0 
0.0 0.0 0.0 
0.0 0.0 0.0 
0.0 0.0 0.0 
0.0 0.0 0.0 
0.0 0.0 0.0 
0.0 0.0 0.0 
0.0 0.0 0.0 
0.0 0.0 0.0 
0.0 0.0 0.0 
0.0 0.0 0.0 
0.0 0.0 0.0 
0.0 0.0 0.0 
0.0 0.0 0.0 
0.0 0.0 0.0 
0.0 0.0 0.0 
0.0 0.0 0.0 
0.0 0.0 0.0 
0.0 0.0 0.0 
0.0 0.0 0.0 
0.0 0.0 0.0 
0.0 0.0 0.0 
0.0 0.0 0.0 
0.0 0.0 0.0 
0.0 0.0 0.0 
0.0 0.0 0.0 
0.0 0.0 0.0 
0.0 0.0 0.0 
0.0 0.0 0.0 
0.0 0.0 0.0 
0.0 0.0 0.0 
0.0 0.0 0.0 
0.0 0.0 0.0 
0.0 0.0 0.0 
0.0 0.0 0.0 
0.0 0.0 0.0 
0.0 0.0 0.0 
0.0 0.0 0.0 
0.0 0.0 0.0 
0.0 0.0 0.0 
0.0 0.0 0.0 
0.0 0.0 0.0 
0.0 0.0 0.0 
0.0 0.0 0.0 
0.0 0.0 0.0 
0.0 0.0 0.0 
0.0 0.0 0.0 
0.0 0.0 0.0 
0.0 0.0 0.0 
0.0 0.0 0.0 
0.0 0.0 0.0 
0.0 0.0 0.0 
0.0 0.0 0.0 
0.0 0.0 0.0 
0.0 0.0 0.0 
0.0 0.0 0.0 
0.0 0.0 0.0 
0.0 0.0 0.0 
0.0 0.0 0.0 
0.0 0.0 0.0 
0.0 0.0 0.0 
0.0 0.0 0.0 
0.0 0.0 0.0 
0.0 0.0 0.0 
0.0 0.0 0.0 
0.0 0.0 0.0 
0.0 0.0 0.0 
0.0 0.0 0.0 
0.0 0.0 0.0 
0.0 0.0 0.0 
0.0 0.0 0.0 
0.0 0.0 0.0 
0.0 0.0 0.0 
0.0 0.0 0.0 
0.0 0.0 0.0 
0.0 0.0 0.0 
0.0 0.0 0.0 
0.0 0.0 0.0 
0.0 0.0 0.0 
0.0 0.0 0.0 
0.0 0.0 0.0 
0.0 0.0 0.0 
0.0 0.0 0.0 
0.0 0.0 0.0 
0.0 0.0 0.0 
0.0 0.0 0.0 
0.0 0.0 0.0 
0.0 0.0 0.0 
0.0 0.0 0.0 
0.0 0.0 0.0 
0.0 0.0 0.0 
0.0 0.0 0.0 
0.0 0.0 0.0 
0.0 0.0 0.0 
0.0 0.0 0.0 
0.0 0.0 0.0 
0.0 0.0 0.0 
0.0 0.0 0.0 
0.0 0.0 0.0 
0.0 0.0 0.0 
0.0 0.0 0.0 
0.0 0.0 0.0 
0.0 0.0 0.0 
0.0 0.0 0.0 
0.0 0.0 0.0 
0.0 0.0 0.0 
0.0 0.0 0.0 
0.0 0.0 0.0 
0.0 0.0 0.0 
0.0 0.0 0.0 
0.0 0.0 0.0 
0.0 0.0 0.0 
0.0 0.0 0.0 
0.0 0.0 0.0 
0.0 0.0 0.0 
0.0 0.0 0.0 
0.0 0.0 0.0 
0.0 0.0 0.0 
0.0 0.0 0.0 
0.0 0.0 0.0 
0.0 0.0 0.0 
0.0 0.0 0.0 
0.0 0.0 0.0 
0.0 0.0 0.0 
0.0 0.0 0.0 
0.0 0.0 0.0 
0.0 0.0 0.0 
0.0 0.0 0.0 
0.0 0.0 0.0 
0.0 0.0 0.0 
0.0 0.0 0.0 
0.0 0.0 0.0 
0.0 0.0 0.0 
0.0 0.0 0.0 
0.0 0.0 0.0 
0.0 0.0 0.0 
0.0 0.0 0.0 
0.0 0.0 0.0 
0.0 0.0 0.0 
0.0 0.0 0.0 
0.0 0.0 0.0 
0.0 0.0 0.0 
0.0 0.0 0.0 
0.0 0.0 0.0 
0.0 0.0 0.0 
0.0 0.0 0.0 
0.0 0.0 0.0 
0.0 0.0 0.0 
0.0 0.0 0.0 
0.0 0.0 0.0 
0.0 0.0 0.0 
0.0 0.0 0.0 
0.0 0.0 0.0 
0.0 0.0 0.0 
0.0 0.0 0.0 
0.0 0.0 0.0 
0.0 0.0 0.0 
0.0 0.0 0.0 
0.0 0.0 0.0 
0.0 0.0 0.0 
0.0 0.0 0.0 
0.0 0.0 0.0 
0.0 0.0 0.0 
0.0 0.0 0.0 
0.0 0.0 0.0 
0.0 0.0 0.0 
0.0 0.0 0.0 
0.0 0.0 0.0 
0.0 0.0 0.0 
0.0 0.0 0.0 
0.0 0.0 0.0 
0.0 0.0 0.0 
0.0 0.0 0.0 
0.0 0.0 0.0 
0.0 0.0 0.0 
0.0 0.0 0.0 
0.0 0.0 0.0 
0.0 0.0 0.0 
0.0 0.0 0.0 
0.0 0.0 0.0 
0.0 0.0 0.0 
0.0 0.0 0.0 
0.0 0.0 0.0 
0.0 0.0 0.0 
0.0 0.0 0.0 
0.0 0.0 0.0 
0.0 0.0 0.0 
0.0 0.0 0.0 
0.0 0.0 0.0 
0.0 0.0 0.0 
0.0 0.0 0.0 
0.0 0.0 0.0 
0.0 0.0 0.0 
0.0 0.0 0.0 
0.0 0.0 0.0 
0.0 0.0 0.0 
0.0 0.0 0.0 
0.0 0.0 0.0 
0.0 0.0 0.0 
0.0 0.0 0.0 
0.0 0.0 0.0 
0.0 0.0 0.0 
0.0 0.0 0.0 
0.0 0.0 0.0 
0.0 0.0 0.0 
0.0 0.0 0.0 
0.0 0.0 0.0 
0.0 0.0 0.0 
0.0 0.0 0.0 
0.0 0.0 0.0 
0.0 0.0 0.0 
0.0 0.0 0.0 
0.0 0.0 0.0 
0.0 0.0 0.0 
0.0 0.0 0.0 
0.0 0.0 0.0 
0.0 0.0 0.0 
0.0 0.0 0.0 
0.0 0.0 0.0 
0.0 0.0 0.0 
0.0 0.0 0.0 
0.0 0.0 0.0 
0.0 0.0 0.0 
0.0 0.0 0.0 
0.0 0.0 0.0 
0.0 0.0 0.0 
0.0 0.0 0.0 
0.0 0.0 0.0 
0.0 0.0 0.0 
0.0 0.0 0.0 
0.0 0.0 0.0 
0.0 0.0 0.0 
0.0 0.0 0.0 
0.0 0.0 0.0 
0.0 0.0 0.0 
0.0 0.0 0.0 
0.0 0.0 0.0 
0.0 0.0 0.0 
0.0 0.0 0.0 
0.0 0.0 0.0 
0.0 0.0 0.0 
0.0 0.0 0.0 
0.0 0.0 0.0 
0.0 0.0 0.0 
0.0 0.0 0.0 
0.0 0.0 0.0 
0.0 0.0 0.0 
0.0 0.0 0.0 
0.0 0.0 0.0 
0.0 0.0 0.0 
0.0 0.0 0.0 
0.0 0.0 0.0 
0.0 0.0 0.0 
0.0 0.0 0.0 
0.0 0.0 0.0 
0.0 0.0 0.0 
0.0 0.0 0.0 
0.0 0.0 0.0 
0.0 0.0 0.0 
0.0 0.0 0.0 
0.0 0.0 0.0 
0.0 0.0 0.0 
0.0 0.0 0.0 
0.0 0.0 0.0 
0.0 0.0 0.0 
0.0 0.0 0.0 
0.0 0.0 0.0 
0.0 0.0 0.0 
0.0 0.0 0.0 
0.0 0.0 0.0 
0.0 0.0 0.0 
0.0 0.0 0.0 
0.0 0.0 0.0 
0.0 0.0 0.0 
0.0 0.0 0.0 
0.0 0.0 0.0 
0.0 0.0 0.0 
0.0 0.0 0.0 
0.0 0.0 0.0 
0.0 0.0 0.0 
0.0 0.0 0.0 
0.0 0.0 0.0 
0.0 0.0 0.0 
0.0 0.0 0.0 
0.0 0.0 0.0 
0.0 0.0 0.0 
0.0 0.0 0.0 
0.0 0.0 0.0 
0.0 0.0 0.0 
0.0 0.0 0.0 
0.0 0.0 0.0 
0.0 0.0 0.0 
0.0 0.0 0.0 
0.0 0.0 0.0 
0.0 0.0 0.0 
0.0 0.0 0.0 
0.0 0.0 0.0 
0.0 0.0 0.0 
0.0 0.0 0.0 
0.0 0.0 0.0 
0.0 0.0 0.0 
0.0 0.0 0.0 
0.0 0.0 0.0 
0.0 0.0 0.0 
0.0 0.0 0.0 
0.0 0.0 0.0 
0.0 0.0 0.0 
0.0 0.0 0.0 
0.0 0.0 0.0 
0.0 0.0 0.0 
0.0 0.0 0.0 
0.0 0.0 0.0 
0.0 0.0 0.0 
0.0 0.0 0.0 
0.0 0.0 0.0 
0.0 0.0 0.0 
0.0 0.0 0.0 
0.0 0.0 0.0 
0.0 0.0 0.0 
0.0 0.0 0.0 
0.0 0.0 0.0 
0.0 0.0 0.0 
0.0 0.0 0.0 
0.0 0.0 0.0 
0.0 0.0 0.0 
0.0 0.0 0.0 
0.0 0.0 0.0 
0.0 0.0 0.0 
0.0 0.0 0.0 
0.0 0.0 0.0 
0.0 0.0 0.0 
0.0 0.0 0.0 
0.0 0.0 0.0 
0.0 0.0 0.0 
0.0 0.0 0.0 
0.0 0.0 0.0 
0.0 0.0 0.0 
0.0 0.0 0.0 
0.0 0.0 0.0 
0.0 0.0 0.0 
0.0 0.0 0.0 
0.0 0.0 0.0 
0.0 0.0 0.0 
0.0 0.0 0.0 
0.0 0.0 0.0 
0.0 0.0 0.0 
0.0 0.0 0.0 
0.0 0.0 0.0 
0.0 0.0 0.0 
0.0 0.0 0.0 
0.0 0.0 0.0 
0.0 0.0 0.0 
0.0 0.0 0.0 
0.0 0.0 0.0 
0.0 0.0 0.0 
0.0 0.0 0.0 
0.0 0.0 0.0 
0.0 0.0 0.0 
0.0 0.0 0.0 
0.0 0.0 0.0 
0.0 0.0 0.0 
0.0 0.0 0.0 
0.0 0.0 0.0 
0.0 0.0 0.0 
0.0 0.0 0.0 
0.0 0.0 0.0 
0.0 0.0 0.0 
0.0 0.0 0.0 
0.0 0.0 0.0 
0.0 0.0 0.0 
0.0 0.0 0.0 
0.0 0.0 0.0 
0.0 0.0 0.0 
0.0 0.0 0.0 
0.0 0.0 0.0 
0.0 0.0 0.0 
0.0 0.0 0.0 
0.0 0.0 0.0 
0.0 0.0 0.0 
0.0 0.0 0.0 
0.0 0.0 0.0 
0.0 0.0 0.0 
0.0 0.0 0.0 
0.0 0.0 0.0 
0.0 0.0 0.0 
0.0 0.0 0.0 
0.0 0.0 0.0 
0.0 0.0 0.0 
0.0 0.0 0.0 
0.0 0.0 0.0 
0.0 0.0 0.0 
0.0 0.0 0.0 
0.0 0.0 0.0 
0.0 0.0 0.0 
0.0 0.0 0.0 
0.0 0.0 0.0 
0.0 0.0 0.0 
0.0 0.0 0.0 
0.0 0.0 0.0 
0.0 0.0 0.0 
0.0 0.0 0.0 
0.0 0.0 0.0 
0.0 0.0 0.0 
0.0 0.0 0.0 
0.0 0.0 0.0 
0.0 0.0 0.0 
0.0 0.0 0.0 
0.0 0.0 0.0 
0.0 0.0 0.0 
0.0 0.0 0.0 
0.0 0.0 0.0 
0.0 0.0 0.0 
0.0 0.0 0.0 
0.0 0.0 0.0 
0.0 0.0 0.0 
0.0 0.0 0.0 
0.0 0.0 0.0 
0.0 0.0 0.0 
0.0 0.0 0.0 
0.0 0.0 0.0 
0.0 0.0 0.0 
0.0 0.0 0.0 
0.0 0.0 0.0 
0.0 0.0 0.0 
0.0 0.0 0.0 
0.0 0.0 0.0 
0.0 0.0 0.0 
0.0 0.0 0.0 
0.0 0.0 0.0 
0.0 0.0 0.0 
0.0 0.0 0.0 
0.0 0.0 0.0 
0.0 0.0 0.0 
0.0 0.0 0.0 
0.0 0.0 0.0 
0.0 0.0 0.0 
0.0 0.0 0.0 
0.0 0.0 0.0 
0.0 0.0 0.0 
0.0 0.0 0.0 
0.0 0.0 0.0 
0.0 0.0 0.0 
0.0 0.0 0.0 
0.0 0.0 0.0 
0.0 0.0 0.0 
0.0 0.0 0.0 
0.0 0.0 0.0 
0.0 0.0 0.0 
0.0 0.0 0.0 
0.0 0.0 0.0 
0.0 0.0 0.0 
0.0 0.0 0.0 
0.0 0.0 0.0 
0.0 0.0 0.0 
0.0 0.0 0.0 
0.0 0.0 0.0 
0.0 0.0 0.0 
0.0 0.0 0.0 
0.0 0.0 0.0 
0.0 0.0 0.0 
0.0 0.0 0.0 
0.0 0.0 0.0 
0.0 0.0 0.0 
0.0 0.0 0.0 
0.0 0.0 0.0 
0.0 0.0 0.0 
0.0 0.0 0.0 
0.0 0.0 0.0 
0.0 0.0 0.0 
0.0 0.0 0.0 
0.0 0.0 0.0 
0.0 0.0 0.0 
0.0 0.0 0.0 
0.0 0.0 0.0 
0.0 0.0 0.0 
0.0 0.0 0.0 
0.0 0.0 0.0 
0.0 0.0 0.0 
0.0 0.0 0.0 
0.0 0.0 0.0 
0.0 0.0 0.0 
0.0 0.0 0.0 
0.0 0.0 0.0 
0.0 0.0 0.0 
0.0 0.0 0.0 
0.0 0.0 0.0 
0.0 0.0 0.0 
0.0 0.0 0.0 
0.0 0.0 0.0 
0.0 0.0 0.0 
0.0 0.0 0.0 
0.0 0.0 0.0 
0.0 0.0 0.0 
0.0 0.0 0.0 
0.0 0.0 0.0 
0.0 0.0 0.0 
0.0 0.0 0.0 
0.0 0.0 0.0 
0.0 0.0 0.0 
0.0 0.0 0.0 
0.0 0.0 0.0 
0.0 0.0 0.0 
0.0 0.0 0.0 
0.0 0.0 0.0 
0.0 0.0 0.0 
0.0 0.0 0.0 
0.0 0.0 0.0 
0.0 0.0 0.0 
0.0 0.0 0.0 
0.0 0.0 0.0 
0.0 0.0 0.0 
0.0 0.0 0.0 
0.0 0.0 0.0 
0.0 0.0 0.0 
0.0 0.0 0.0 
0.0 0.0 0.0 
0.0 0.0 0.0 
0.0 0.0 0.0 
0.0 0.0 0.0 
0.0 0.0 0.0 
0.0 0.0 0.0 
0.0 0.0 0.0 
0.0 0.0 0.0 
0.0 0.0 0.0 
0.0 0.0 0.0 
0.0 0.0 0.0 
0.0 0.0 0.0 
0.0 0.0 0.0 
0.0 0.0 0.0 
0.0 0.0 0.0 
0.0 0.0 0.0 
0.0 0.0 0.0 
0.0 0.0 0.0 
0.0 0.0 0.0 
0.0 0.0 0.0 
0.0 0.0 0.0 
0.0 0.0 0.0 
0.0 0.0 0.0 
0.0 0.0 0.0 
0.0 0.0 0.0 
0.0 0.0 0.0 
0.0 0.0 0.0 
0.0 0.0 0.0 
0.0 0.0 0.0 
0.0 0.0 0.0 
0.0 0.0 0.0 
0.0 0.0 0.0 
0.0 0.0 0.0 
0.0 0.0 0.0 
0.0 0.0 0.0 
0.0 0.0 0.0 
0.0 0.0 0.0 
0.0 0.0 0.0 
0.0 0.0 0.0 
0.0 0.0 0.0 
0.0 0.0 0.0 
0.0 0.0 0.0 
0.0 0.0 0.0 
0.0 0.0 0.0 
0.0 0.0 0.0 
0.0 0.0 0.0 
0.0 0.0 0.0 
0.0 0.0 0.0 
0.0 0.0 0.0 
0.0 0.0 0.0 
0.0 0.0 0.0 
0.0 0.0 0.0 
0.0 0.0 0.0 
0.0 0.0 0.0 
0.0 0.0 0.0 
0.0 0.0 0.0 
0.0 0.0 0.0 
0.0 0.0 0.0 
0.0 0.0 0.0 
0.0 0.0 0.0 
0.0 0.0 0.0 
0.0 0.0 0.0 
0.0 0.0 0.0 
0.0 0.0 0.0 
0.0 0.0 0.0 
0.0 0.0 0.0 
0.0 0.0 0.0 
0.0 0.0 0.0 
0.0 0.0 0.0 
0.0 0.0 0.0 
0.0 0.0 0.0 
0.0 0.0 0.0 
0.0 0.0 0.0 
0.0 0.0 0.0 
0.0 0.0 0.0 
0.0 0.0 0.0 
0.0 0.0 0.0 
0.0 0.0 0.0 
0.0 0.0 0.0 
0.0 0.0 0.0 
0.0 0.0 0.0 
0.0 0.0 0.0 
0.0 0.0 0.0 
0.0 0.0 0.0 
0.0 0.0 0.0 
0.0 0.0 0.0 
0.0 0.0 0.0 
0.0 0.0 0.0 
0.0 0.0 0.0 
0.0 0.0 0.0 
0.0 0.0 0.0 
0.0 0.0 0.0 
0.0 0.0 0.0 
0.0 0.0 0.0 
0.0 0.0 0.0 
0.0 0.0 0.0 
0.0 0.0 0.0 
0.0 0.0 0.0 
0.0 0.0 0.0 
0.0 0.0 0.0 
0.0 0.0 0.0 
0.0 0.0 0.0 
0.0 0.0 0.0 
0.0 0.0 0.0 
0.0 0.0 0.0 
0.0 0.0 0.0 
0.0 0.0 0.0 
0.0 0.0 0.0 
0.0 0.0 0.0 
0.0 0.0 0.0 
0.0 0.0 0.0 
0.0 0.0 0.0 
0.0 0.0 0.0 
0.0 0.0 0.0 
0.0 0.0 0.0 
0.0 0.0 0.0 
0.0 0.0 0.0 
0.0 0.0 0.0 
0.0 0.0 0.0 
0.0 0.0 0.0 
0.0 0.0 0.0 
0.0 0.0 0.0 
0.0 0.0 0.0 
0.0 0.0 0.0 
0.0 0.0 0.0 
0.0 0.0 0.0 
0.0 0.0 0.0 
0.0 0.0 0.0 
0.0 0.0 0.0 
0.0 0.0 0.0 
0.0 0.0 0.0 
0.0 0.0 0.0 
0.0 0.0 0.0 
0.0 0.0 0.0 
0.0 0.0 0.0 
0.0 0.0 0.0 
0.0 0.0 0.0 
0.0 0.0 0.0 
0.0 0.0 0.0 
0.0 0.0 0.0 
0.0 0.0 0.0 
0.0 0.0 0.0 
0.0 0.0 0.0 
0.0 0.0 0.0 
0.0 0.0 0.0 
0.0 0.0 0.0 
0.0 0.0 0.0 
0.0 0.0 0.0 
0.0 0.0 0.0 
0.0 0.0 0.0 
0.0 0.0 0.0 
0.0 0.0 0.0 
0.0 0.0 0.0 
0.0 0.0 0.0 
0.0 0.0 0.0 
0.0 0.0 0.0 
0.0 0.0 0.0 
0.0 0.0 0.0 
0.0 0.0 0.0 
0.0 0.0 0.0 
0.0 0.0 0.0 
0.0 0.0 0.0 
0.0 0.0 0.0 
0.0 0.0 0.0 
0.0 0.0 0.0 
0.0 0.0 0.0 
0.0 0.0 0.0 
0.0 0.0 0.0 
0.0 0.0 0.0 
0.0 0.0 0.0 
0.0 0.0 0.0 
0.0 0.0 0.0 
0.0 0.0 0.0 
0.0 0.0 0.0 
0.0 0.0 0.0 
0.0 0.0 0.0 
0.0 0.0 0.0 
0.0 0.0 0.0 
0.0 0.0 0.0 
0.0 0.0 0.0 
0.0 0.0 0.0 
0.0 0.0 0.0 
0.0 0.0 0.0 
0.0 0.0 0.0 
0.0 0.0 0.0 
0.0 0.0 0.0 
0.0 0.0 0.0 
0.0 0.0 0.0 
0.0 0.0 0.0 
0.0 0.0 0.0 
0.0 0.0 0.0 
0.0 0.0 0.0 
0.0 0.0 0.0 
0.0 0.0 0.0 
0.0 0.0 0.0 
0.0 0.0 0.0 
0.0 0.0 0.0 
0.0 0.0 0.0 
0.0 0.0 0.0 
0.0 0.0 0.0 
0.0 0.0 0.0 
0.0 0.0 0.0 
0.0 0.0 0.0 
0.0 0.0 0.0 
0.0 0.0 0.0 
0.0 0.0 0.0 
0.0 0.0 0.0 
0.0 0.0 0.0 
0.0 0.0 0.0 
0.0 0.0 0.0 
0.0 0.0 0.0 
0.0 0.0 0.0 
0.0 0.0 0.0 
0.0 0.0 0.0 
0.0 0.0 0.0 
0.0 0.0 0.0 
0.0 0.0 0.0 
0.0 0.0 0.0 
0.0 0.0 0.0 
0.0 0.0 0.0 
0.0 0.0 0.0 
0.0 0.0 0.0 
0.0 0.0 0.0 
0.0 0.0 0.0 
0.0 0.0 0.0 
0.0 0.0 0.0 
0.0 0.0 0.0 
0.0 0.0 0.0 
0.0 0.0 0.0 
0.0 0.0 0.0 
0.0 0.0 0.0 
0.0 0.0 0.0 
0.0 0.0 0.0 
0.0 0.0 0.0 
0.0 0.0 0.0 
0.0 0.0 0.0 
0.0 0.0 0.0 
0.0 0.0 0.0 
0.0 0.0 0.0 
0.0 0.0 0.0 
0.0 0.0 0.0 
0.0 0.0 0.0 
0.0 0.0 0.0 
0.0 0.0 0.0 
0.0 0.0 0.0 
0.0 0.0 0.0 
0.0 0.0 0.0 
0.0 0.0 0.0 
0.0 0.0 0.0 
0.0 0.0 0.0 
0.0 0.0 0.0 
0.0 0.0 0.0 
0.0 0.0 0.0 
0.0 0.0 0.0 
0.0 0.0 0.0 
0.0 0.0 0.0 
0.0 0.0 0.0 
0.0 0.0 0.0 
0.0 0.0 0.0 
0.0 0.0 0.0 
0.0 0.0 0.0 
0.0 0.0 0.0 
0.0 0.0 0.0 
0.0 0.0 0.0 
0.0 0.0 0.0 
0.0 0.0 0.0 
0.0 0.0 0.0 
0.0 0.0 0.0 
0.0 0.0 0.0 
0.0 0.0 0.0 
0.0 0.0 0.0 
0.0 0.0 0.0 
0.0 0.0 0.0 
0.0 0.0 0.0 
0.0 0.0 0.0 
0.0 0.0 0.0 
0.0 0.0 0.0 
0.0 0.0 0.0 
0.0 0.0 0.0 
0.0 0.0 0.0 
0.0 0.0 0.0 
0.0 0.0 0.0 
0.0 0.0 0.0 
0.0 0.0 0.0 
0.0 0.0 0.0 
0.0 0.0 0.0 
0.0 0.0 0.0 
0.0 0.0 0.0 
0.0 0.0 0.0 
0.0 0.0 0.0 
0.0 0.0 0.0 
0.0 0.0 0.0 
0.0 0.0 0.0 
0.0 0.0 0.0 
0.0 0.0 0.0 
0.0 0.0 0.0 
0.0 0.0 0.0 
0.0 0.0 0.0 
0.0 0.0 0.0 
0.0 0.0 0.0 
0.0 0.0 0.0 
0.0 0.0 0.0 
0.0 0.0 0.0 
0.0 0.0 0.0 
0.0 0.0 0.0 
0.0 0.0 0.0 
0.0 0.0 0.0 
0.0 0.0 0.0 
0.0 0.0 0.0 
0.0 0.0 0.0 
0.0 0.0 0.0 
0.0 0.0 0.0 
0.0 0.0 0.0 
0.0 0.0 0.0 
0.0 0.0 0.0 
0.0 0.0 0.0 
0.0 0.0 0.0 
0.0 0.0 0.0 
0.0 0.0 0.0 
0.0 0.0 0.0 
0.0 0.0 0.0 
0.0 0.0 0.0 
0.0 0.0 0.0 
0.0 0.0 0.0 
0.0 0.0 0.0 
0.0 0.0 0.0 
0.0 0.0 0.0 
0.0 0.0 0.0 
0.0 0.0 0.0 
0.0 0.0 0.0 
0.0 0.0 0.0 
0.0 0.0 0.0 
0.0 0.0 0.0 
0.0 0.0 0.0 
0.0 0.0 0.0 
0.0 0.0 0.0 
0.0 0.0 0.0 
0.0 0.0 0.0 
0.0 0.0 0.0 
0.0 0.0 0.0 
0.0 0.0 0.0 
0.0 0.0 0.0 
0.0 0.0 0.0 
0.0 0.0 0.0 
0.0 0.0 0.0 
0.0 0.0 0.0 
0.0 0.0 0.0 
0.0 0.0 0.0 
0.0 0.0 0.0 
0.0 0.0 0.0 
0.0 0.0 0.0 
0.0 0.0 0.0 
0.0 0.0 0.0 
0.0 0.0 0.0 
0.0 0.0 0.0 
0.0 0.0 0.0 
0.0 0.0 0.0 
0.0 0.0 0.0 
0.0 0.0 0.0 
0.0 0.0 0.0 
0.0 0.0 0.0 
0.0 0.0 0.0 
0.0 0.0 0.0 
0.0 0.0 0.0 
0.0 0.0 0.0 
0.0 0.0 0.0 
0.0 0.0 0.0 
0.0 0.0 0.0 
0.0 0.0 0.0 
0.0 0.0 0.0 
0.0 0.0 0.0 
0.0 0.0 0.0 
0.0 0.0 0.0 
0.0 0.0 0.0 
0.0 0.0 0.0 
0.0 0.0 0.0 
0.0 0.0 0.0 
0.0 0.0 0.0 
0.0 0.0 0.0 
0.0 0.0 0.0 
0.0 0.0 0.0 
0.0 0.0 0.0 
0.0 0.0 0.0 
0.0 0.0 0.0 
0.0 0.0 0.0 
0.0 0.0 0.0 
0.0 0.0 0.0 
0.0 0.0 0.0 
0.0 0.0 0.0 
0.0 0.0 0.0 
0.0 0.0 0.0 
0.0 0.0 0.0 
0.0 0.0 0.0 
0.0 0.0 0.0 
0.0 0.0 0.0 
0.0 0.0 0.0 
0.0 0.0 0.0 
0.0 0.0 0.0 
0.0 0.0 0.0 
0.0 0.0 0.0 
0.0 0.0 0.0 
0.0 0.0 0.0 
0.0 0.0 0.0 
0.0 0.0 0.0 
0.0 0.0 0.0 
0.0 0.0 0.0 
0.0 0.0 0.0 
0.0 0.0 0.0 
0.0 0.0 0.0 
0.0 0.0 0.0 
0.0 0.0 0.0 
0.0 0.0 0.0 
0.0 0.0 0.0 
0.0 0.0 0.0 
0.0 0.0 0.0 
0.0 0.0 0.0 
0.0 0.0 0.0 
0.0 0.0 0.0 
0.0 0.0 0.0 
0.0 0.0 0.0 
0.0 0.0 0.0 
0.0 0.0 0.0 
0.0 0.0 0.0 
0.0 0.0 0.0 
0.0 0.0 0.0 
0.0 0.0 0.0 
0.0 0.0 0.0 
0.0 0.0 0.0 
0.0 0.0 0.0 
0.0 0.0 0.0 
0.0 0.0 0.0 
0.0 0.0 0.0 
0.0 0.0 0.0 
0.0 0.0 0.0 
0.0 0.0 0.0 
0.0 0.0 0.0 
0.0 0.0 0.0 
0.0 0.0 0.0 
0.0 0.0 0.0 
0.0 0.0 0.0 
0.0 0.0 0.0 
0.0 0.0 0.0 
0.0 0.0 0.0 
0.0 0.0 0.0 
0.0 0.0 0.0 
0.0 0.0 0.0 
0.0 0.0 0.0 
0.0 0.0 0.0 
0.0 0.0 0.0 
0.0 0.0 0.0 
0.0 0.0 0.0 
0.0 0.0 0.0 
0.0 0.0 0.0 
0.0 0.0 0.0 
0.0 0.0 0.0 
0.0 0.0 0.0 
0.0 0.0 0.0 
0.0 0.0 0.0 
0.0 0.0 0.0 
0.0 0.0 0.0 
0.0 0.0 0.0 
0.0 0.0 0.0 
0.0 0.0 0.0 
0.0 0.0 0.0 
0.0 0.0 0.0 
0.0 0.0 0.0 
0.0 0.0 0.0 
0.0 0.0 0.0 
0.0 0.0 0.0 
0.0 0.0 0.0 
0.0 0.0 0.0 
0.0 0.0 0.0 
0.0 0.0 0.0 
0.0 0.0 0.0 
0.0 0.0 0.0 
0.0 0.0 0.0 
0.0 0.0 0.0 
0.0 0.0 0.0 
0.0 0.0 0.0 
0.0 0.0 0.0 
0.0 0.0 0.0 
0.0 0.0 0.0 
0.0 0.0 0.0 
0.0 0.0 0.0 
0.0 0.0 0.0 
0.0 0.0 0.0 
0.0 0.0 0.0 
0.0 0.0 0.0 
0.0 0.0 0.0 
0.0 0.0 0.0 
0.0 0.0 0.0 
0.0 0.0 0.0 
0.0 0.0 0.0 
0.0 0.0 0.0 
0.0 0.0 0.0 
0.0 0.0 0.0 
0.0 0.0 0.0 
0.0 0.0 0.0 
0.0 0.0 0.0 
0.0 0.0 0.0 
0.0 0.0 0.0 
0.0 0.0 0.0 
0.0 0.0 0.0 
0.0 0.0 0.0 
0.0 0.0 0.0 
0.0 0.0 0.0 
0.0 0.0 0.0 
0.0 0.0 0.0 
0.0 0.0 0.0 
0.0 0.0 0.0 
0.0 0.0 0.0 
0.0 0.0 0.0 
0.0 0.0 0.0 
0.0 0.0 0.0 
0.0 0.0 0.0 
0.0 0.0 0.0 
0.0 0.0 0.0 
0.0 0.0 0.0 
0.0 0.0 0.0 
0.0 0.0 0.0 
0.0 0.0 0.0 
0.0 0.0 0.0 
0.0 0.0 0.0 
0.0 0.0 0.0 
0.0 0.0 0.0 
0.0 0.0 0.0 
0.0 0.0 0.0 
0.0 0.0 0.0 
0.0 0.0 0.0 
0.0 0.0 0.0 
0.0 0.0 0.0 
0.0 0.0 0.0 
0.0 0.0 0.0 
0.0 0.0 0.0 
0.0 0.0 0.0 
0.0 0.0 0.0 
0.0 0.0 0.0 
0.0 0.0 0.0 
0.0 0.0 0.0 
0.0 0.0 0.0 
0.0 0.0 0.0 
0.0 0.0 0.0 
0.0 0.0 0.0 
0.0 0.0 0.0 
0.0 0.0 0.0 
0.0 0.0 0.0 
0.0 0.0 0.0 
0.0 0.0 0.0 
0.0 0.0 0.0 
0.0 0.0 0.0 
0.0 0.0 0.0 
0.0 0.0 0.0 
0.0 0.0 0.0 
0.0 0.0 0.0 
0.0 0.0 0.0 
0.0 0.0 0.0 
0.0 0.0 0.0 
0.0 0.0 0.0 
0.0 0.0 0.0 
0.0 0.0 0.0 
0.0 0.0 0.0 
0.0 0.0 0.0 
0.0 0.0 0.0 
0.0 0.0 0.0 
0.0 0.0 0.0 
0.0 0.0 0.0 
0.0 0.0 0.0 
0.0 0.0 0.0 
0.0 0.0 0.0 
0.0 0.0 0.0 
0.0 0.0 0.0 
0.0 0.0 0.0 
0.0 0.0 0.0 
0.0 0.0 0.0 
0.0 0.0 0.0 
0.0 0.0 0.0 
0.0 0.0 0.0 
0.0 0.0 0.0 
0.0 0.0 0.0 
0.0 0.0 0.0 
0.0 0.0 0.0 
0.0 0.0 0.0 
0.0 0.0 0.0 
0.0 0.0 0.0 
0.0 0.0 0.0 
0.0 0.0 0.0 
0.0 0.0 0.0 
0.0 0.0 0.0 
0.0 0.0 0.0 
0.0 0.0 0.0 
0.0 0.0 0.0 
0.0 0.0 0.0 
0.0 0.0 0.0 
0.0 0.0 0.0 
0.0 0.0 0.0 
0.0 0.0 0.0 
0.0 0.0 0.0 
0.0 0.0 0.0 
0.0 0.0 0.0 
0.0 0.0 0.0 
0.0 0.0 0.0 
0.0 0.0 0.0 
0.0 0.0 0.0 
0.0 0.0 0.0 
0.0 0.0 0.0 
0.0 0.0 0.0 
0.0 0.0 0.0 
0.0 0.0 0.0 
0.0 0.0 0.0 
0.0 0.0 0.0 
0.0 0.0 0.0 
0.0 0.0 0.0 
0.0 0.0 0.0 
0.0 0.0 0.0 
0.0 0.0 0.0 
0.0 0.0 0.0 
0.0 0.0 0.0 
0.0 0.0 0.0 
0.0 0.0 0.0 
0.0 0.0 0.0 
0.0 0.0 0.0 
0.0 0.0 0.0 
0.0 0.0 0.0 
0.0 0.0 0.0 
0.0 0.0 0.0 
0.0 0.0 0.0 
0.0 0.0 0.0 
0.0 0.0 0.0 
0.0 0.0 0.0 
0.0 0.0 0.0 
0.0 0.0 0.0 
0.0 0.0 0.0 
0.0 0.0 0.0 
0.0 0.0 0.0 
0.0 0.0 0.0 
0.0 0.0 0.0 
0.0 0.0 0.0 
0.0 0.0 0.0 
0.0 0.0 0.0 
0.0 0.0 0.0 
0.0 0.0 0.0 
0.0 0.0 0.0 
0.0 0.0 0.0 
0.0 0.0 0.0 
0.0 0.0 0.0 
0.0 0.0 0.0 
0.0 0.0 0.0 
0.0 0.0 0.0 
0.0 0.0 0.0 
0.0 0.0 0.0 
0.0 0.0 0.0 
0.0 0.0 0.0 
0.0 0.0 0.0 
0.0 0.0 0.0 
0.0 0.0 0.0 
0.0 0.0 0.0 
0.0 0.0 0.0 
0.0 0.0 0.0 
0.0 0.0 0.0 
0.0 0.0 0.0 
0.0 0.0 0.0 
0.0 0.0 0.0 
0.0 0.0 0.0 
0.0 0.0 0.0 
0.0 0.0 0.0 
0.0 0.0 0.0 
0.0 0.0 0.0 
0.0 0.0 0.0 
0.0 0.0 0.0 
0.0 0.0 0.0 
0.0 0.0 0.0 
0.0 0.0 0.0 
0.0 0.0 0.0 
0.0 0.0 0.0 
0.0 0.0 0.0 
0.0 0.0 0.0 
0.0 0.0 0.0 
0.0 0.0 0.0 
0.0 0.0 0.0 
0.0 0.0 0.0 
0.0 0.0 0.0 
0.0 0.0 0.0 
0.0 0.0 0.0 
0.0 0.0 0.0 
0.0 0.0 0.0 
0.0 0.0 0.0 
0.0 0.0 0.0 
0.0 0.0 0.0 
0.0 0.0 0.0 
0.0 0.0 0.0 
0.0 0.0 0.0 
0.0 0.0 0.0 
0.0 0.0 0.0 
0.0 0.0 0.0 
0.0 0.0 0.0 
0.0 0.0 0.0 
0.0 0.0 0.0 
0.0 0.0 0.0 
0.0 0.0 0.0 
0.0 0.0 0.0 
0.0 0.0 0.0 
0.0 0.0 0.0 
0.0 0.0 0.0 
0.0 0.0 0.0 
0.0 0.0 0.0 
0.0 0.0 0.0 
0.0 0.0 0.0 
0.0 0.0 0.0 
0.0 0.0 0.0 
0.0 0.0 0.0 
0.0 0.0 0.0 
0.0 0.0 0.0 
0.0 0.0 0.0 
0.0 0.0 0.0 
0.0 0.0 0.0 
0.0 0.0 0.0 
0.0 0.0 0.0 
0.0 0.0 0.0 
0.0 0.0 0.0 
0.0 0.0 0.0 
0.0 0.0 0.0 
0.0 0.0 0.0 
0.0 0.0 0.0 
0.0 0.0 0.0 
0.0 0.0 0.0 
0.0 0.0 0.0 
0.0 0.0 0.0 
0.0 0.0 0.0 
0.0 0.0 0.0 
0.0 0.0 0.0 
0.0 0.0 0.0 
0.0 0.0 0.0 
0.0 0.0 0.0 
0.0 0.0 0.0 
0.0 0.0 0.0 
0.0 0.0 0.0 
0.0 0.0 0.0 
0.0 0.0 0.0 
0.0 0.0 0.0 
0.0 0.0 0.0 
0.0 0.0 0.0 
0.0 0.0 0.0 
0.0 0.0 0.0 
0.0 0.0 0.0 
0.0 0.0 0.0 
0.0 0.0 0.0 
0.0 0.0 0.0 
0.0 0.0 0.0 
0.0 0.0 0.0 
0.0 0.0 0.0 
0.0 0.0 0.0 
0.0 0.0 0.0 
0.0 0.0 0.0 
0.0 0.0 0.0 
0.0 0.0 0.0 
0.0 0.0 0.0 
0.0 0.0 0.0 
0.0 0.0 0.0 
0.0 0.0 0.0 
0.0 0.0 0.0 
0.0 0.0 0.0 
0.0 0.0 0.0 
0.0 0.0 0.0 
0.0 0.0 0.0 
0.0 0.0 0.0 
0.0 0.0 0.0 
0.0 0.0 0.0 
0.0 0.0 0.0 
0.0 0.0 0.0 
0.0 0.0 0.0 
0.0 0.0 0.0 
0.0 0.0 0.0 
0.0 0.0 0.0 
0.0 0.0 0.0 
0.0 0.0 0.0 
0.0 0.0 0.0 
0.0 0.0 0.0 
0.0 0.0 0.0 
0.0 0.0 0.0 
0.0 0.0 0.0 
0.0 0.0 0.0 
0.0 0.0 0.0 
0.0 0.0 0.0 
0.0 0.0 0.0 
0.0 0.0 0.0 
0.0 0.0 0.0 
0.0 0.0 0.0 
0.0 0.0 0.0 
0.0 0.0 0.0 
0.0 0.0 0.0 
0.0 0.0 0.0 
0.0 0.0 0.0 
0.0 0.0 0.0 
0.0 0.0 0.0 
0.0 0.0 0.0 
0.0 0.0 0.0 
0.0 0.0 0.0 
0.0 0.0 0.0 
0.0 0.0 0.0 
0.0 0.0 0.0 
0.0 0.0 0.0 
0.0 0.0 0.0 
0.0 0.0 0.0 
0.0 0.0 0.0 
0.0 0.0 0.0 
0.0 0.0 0.0 
0.0 0.0 0.0 
0.0 0.0 0.0 
0.0 0.0 0.0 
0.0 0.0 0.0 
0.0 0.0 0.0 
0.0 0.0 0.0 
0.0 0.0 0.0 
0.0 0.0 0.0 
0.0 0.0 0.0 
0.0 0.0 0.0 
0.0 0.0 0.0 
0.0 0.0 0.0 
0.0 0.0 0.0 
0.0 0.0 0.0 
0.0 0.0 0.0 
0.0 0.0 0.0 
0.0 0.0 0.0 
0.0 0.0 0.0 
0.0 0.0 0.0 
0.0 0.0 0.0 
0.0 0.0 0.0 
0.0 0.0 0.0 
0.0 0.0 0.0 
0.0 0.0 0.0 
0.0 0.0 0.0 
0.0 0.0 0.0 
0.0 0.0 0.0 
0.0 0.0 0.0 
0.0 0.0 0.0 
0.0 0.0 0.0 
0.0 0.0 0.0 
0.0 0.0 0.0 
0.0 0.0 0.0 
0.0 0.0 0.0 
0.0 0.0 0.0 
0.0 0.0 0.0 
0.0 0.0 0.0 
0.0 0.0 0.0 
0.0 0.0 0.0 
0.0 0.0 0.0 
0.0 0.0 0.0 
0.0 0.0 0.0 
0.0 0.0 0.0 
0.0 0.0 0.0 
0.0 0.0 0.0 
0.0 0.0 0.0 
0.0 0.0 0.0 
0.0 0.0 0.0 
0.0 0.0 0.0 
0.0 0.0 0.0 
0.0 0.0 0.0 
0.0 0.0 0.0 
0.0 0.0 0.0 
0.0 0.0 0.0 
0.0 0.0 0.0 
0.0 0.0 0.0 
0.0 0.0 0.0 
0.0 0.0 0.0 
0.0 0.0 0.0 
0.0 0.0 0.0 
0.0 0.0 0.0 
0.0 0.0 0.0 
0.0 0.0 0.0 
0.0 0.0 0.0 
0.0 0.0 0.0 
0.0 0.0 0.0 
0.0 0.0 0.0 
0.0 0.0 0.0 
0.0 0.0 0.0 
0.0 0.0 0.0 
0.0 0.0 0.0 
0.0 0.0 0.0 
0.0 0.0 0.0 
0.0 0.0 0.0 
0.0 0.0 0.0 
0.0 0.0 0.0 
0.0 0.0 0.0 
0.0 0.0 0.0 
0.0 0.0 0.0 
0.0 0.0 0.0 
0.0 0.0 0.0 
0.0 0.0 0.0 

TENSORS element_materi_stress float
-3.532169568482e+01 2.594167605637e+01 0.0 
2.594167605637e+01 -4.534155914518e+01 0.0 
0.0 0.0 -2.379897644900e+01 
-3.666126215049e+01 2.514203541524e+01 0.0 
2.514203541524e+01 -4.659823895856e+01 0.0 
0.0 0.0 -2.457785033271e+01 
-1.173513942632e+02 2.511244147317e+01 0.0 
2.511244147317e+01 -2.637766016923e+02 0.0 
0.0 0.0 -1.139383987867e+02 
-1.019512221724e+02 3.103121568822e+00 0.0 
3.103121568822e+00 -2.285600249929e+02 0.0 
0.0 0.0 -9.875337414959e+01 
-5.406314912763e+01 1.467504501563e-01 0.0 
1.467504501563e-01 -8.932160334303e+01 0.0 
0.0 0.0 -4.261542574120e+01 
-3.809943726236e+01 3.187814196602e+01 0.0 
3.187814196602e+01 -1.040010166102e+02 0.0 
0.0 0.0 -4.331289398267e+01 
-5.313830811394e+01 -3.638763218470e-01 0.0 
-3.638763218470e-01 -8.945099661132e+01 0.0 
0.0 0.0 -4.237679141758e+01 
-3.865550949999e+01 2.754220500071e+01 0.0 
2.754220500071e+01 -5.264097297503e+01 0.0 
0.0 0.0 -2.698894474251e+01 
-5.432771835517e+01 2.068422137321e+00 0.0 
2.068422137321e+00 -9.032912153819e+01 0.0 
0.0 0.0 -4.299705196801e+01 
-1.012723524565e+02 2.953680461132e+00 0.0 
2.953680461132e+00 -2.268677741077e+02 0.0 
0.0 0.0 -9.804203796924e+01 
-1.047928745091e+02 -1.177959570510e+00 0.0 
-1.177959570510e+00 -2.570596884284e+02 0.0 
0.0 0.0 -1.081557688812e+02 
-3.271442907425e+01 2.402554608819e+01 0.0 
2.402554608819e+01 -3.898633745504e+01 0.0 
0.0 0.0 -2.111022995879e+01 
-1.562235270337e+02 -3.511090400258e-01 0.0 
-3.511090400258e-01 -3.698029421428e+02 0.0 
0.0 0.0 -1.574079407529e+02 
-6.551312088697e+01 3.350886477591e+00 0.0 
3.350886477591e+00 -1.080260968698e+02 0.0 
0.0 0.0 -5.166176532703e+01 
-1.603994684392e+02 1.578227555901e+00 0.0 
1.578227555901e+00 -3.780203769385e+02 0.0 
0.0 0.0 -1.611259536133e+02 
-1.034662544292e+02 2.305748640644e+00 0.0 
2.305748640644e+00 -2.367520642763e+02 0.0 
0.0 0.0 -1.016654956117e+02 
-5.402790199940e+01 1.620084709862e+00 0.0 
1.620084709862e+00 -8.570180592377e+01 0.0 
0.0 0.0 -4.151891237695e+01 
-2.952534220677e+01 1.678576037042e+01 0.0 
1.678576037042e+01 -1.078935139507e+02 0.0 
0.0 0.0 -4.356501363351e+01 
-2.862009470517e+01 -2.343400000930e-01 0.0 
-2.343400000930e-01 -7.729969394008e+01 0.0 
0.0 0.0 -3.137593659357e+01 
-3.082686385206e+01 -1.252876553951e+00 0.0 
-1.252876553951e+00 -8.016528034244e+01 0.0 
0.0 0.0 -3.289764325835e+01 
-1.029560403222e+02 5.102348881133e+00 0.0 
5.102348881133e+00 -2.280977122718e+02 0.0 
0.0 0.0 -9.891612577818e+01 
-3.559214873410e+01 2.284418256456e+01 0.0 
2.284418256456e+01 -4.266071216130e+01 0.0 
0.0 0.0 -2.307585826862e+01 
-4.017392715466e+01 2.574671426994e+01 0.0 
2.574671426994e+01 -4.857322116922e+01 0.0 
0.0 0.0 -2.622414449716e+01 
-1.401892383033e+02 1.320411488682e+01 0.0 
1.320411488682e+01 -3.533080106682e+02 0.0 
0.0 0.0 -1.476491746915e+02 
-7.566767136707e+01 6.834003651450e+00 0.0 
6.834003651450e+00 -1.286660592226e+02 0.0 
0.0 0.0 -6.090011917690e+01 
-1.107996756195e+02 1.732099601757e-01 0.0 
1.732099601757e-01 -2.710368114799e+02 0.0 
0.0 0.0 -1.141509461298e+02 
-5.211659623230e+01 4.898201205607e+00 0.0 
4.898201205607e+00 -7.150653870450e+01 0.0 
0.0 0.0 -3.668694048104e+01 
-1.336069275769e+02 3.111494641991e+01 0.0 
3.111494641991e+01 -3.206160800689e+02 0.0 
0.0 0.0 -1.358669022937e+02 
-7.908644710813e+01 1.024288785909e+01 0.0 
1.024288785909e+01 -1.305451928741e+02 0.0 
0.0 0.0 -6.248949199466e+01 
-1.444492475257e+02 1.147618846387e+01 0.0 
1.147618846387e+01 -3.612728857439e+02 0.0 
0.0 0.0 -1.513166399809e+02 
-3.674600915640e+01 -2.272448135630e+01 0.0 
-2.272448135630e+01 -9.892034880010e+01 0.0 
0.0 0.0 -3.978682072133e+01 
-1.028328270120e+01 -1.866818421990e+00 0.0 
-1.866818421990e+00 -2.635291799667e+01 0.0 
0.0 0.0 -1.059086020936e+01 
-1.197004133761e+02 2.543579046923e+01 0.0 
2.543579046923e+01 -2.636845825147e+02 0.0 
0.0 0.0 -1.146154987672e+02 
-1.330380787475e+02 8.586224041470e-01 0.0 
8.586224041470e-01 -3.200864333115e+02 0.0 
0.0 0.0 -1.355373536177e+02 
-1.535507295738e+02 6.218136228893e+00 0.0 
6.218136228893e+00 -3.705891900720e+02 0.0 
0.0 0.0 -1.568419758938e+02 
-1.634580592566e+02 1.402796538416e+00 0.0 
1.402796538416e+00 -3.871393260423e+02 0.0 
0.0 0.0 -1.647792155897e+02 
-1.638656575539e+02 4.233122983204e+00 0.0 
4.233122983204e+00 -3.870642495874e+02 0.0 
0.0 0.0 -1.648789721424e+02 
-1.423431070176e+02 2.124379552370e+01 0.0 
2.124379552370e+01 -3.531448450080e+02 0.0 
0.0 0.0 -1.482463856077e+02 
-4.512708542164e+01 1.455010582918e+00 0.0 
1.455010582918e+00 -7.080727223715e+01 0.0 
0.0 0.0 -3.438030729764e+01 
-4.472196033976e+01 -1.280217286896e+00 0.0 
-1.280217286896e+00 -7.127800428446e+01 0.0 
0.0 0.0 -3.439998938726e+01 
-4.522075950659e+01 2.254241396560e+01 0.0 
2.254241396560e+01 -4.961901894440e+01 0.0 
0.0 0.0 -2.805193353530e+01 
-1.565068338521e+02 7.798253656312e+00 0.0 
7.798253656312e+00 -3.751333340287e+02 0.0 
0.0 0.0 -1.590920503643e+02 
-3.616770910691e+01 2.631231534208e+01 0.0 
2.631231534208e+01 -4.608943813314e+01 0.0 
0.0 0.0 -2.427714417202e+01 
-5.437946401119e+01 4.672483132427e+00 0.0 
4.672483132427e+00 -7.188062682552e+01 0.0 
0.0 0.0 -3.747802725101e+01 
-9.842829500413e+01 1.242867206445e+00 0.0 
1.242867206445e+00 -2.169868764468e+02 0.0 
0.0 0.0 -9.422455143527e+01 
-3.755835304525e+01 2.751783389016e+01 0.0 
2.751783389016e+01 -4.652605761442e+01 0.0 
0.0 0.0 -2.482532319790e+01 
-3.347256779170e+01 -2.624788533690e+01 0.0 
-2.624788533690e+01 -9.736245006765e+01 0.0 
0.0 0.0 -4.033242109240e+01 
-9.736983409426e+01 1.057660063433e+00 0.0 
1.057660063433e+00 -2.181522934423e+02 0.0 
0.0 0.0 -9.425663826096e+01 
-3.472877647610e+01 -2.449063029859e+01 0.0 
-2.449063029859e+01 -5.664937682617e+01 0.0 
0.0 0.0 -2.886338128366e+01 
-6.317012880179e+01 4.311368517502e+00 0.0 
4.311368517502e+00 -9.945353839609e+01 0.0 
0.0 0.0 -4.838710015936e+01 
-4.334218089130e+01 2.424586182096e+01 0.0 
2.424586182096e+01 -5.016276572766e+01 0.0 
0.0 0.0 -2.765148398569e+01 
-3.822531684172e+01 -5.245002523802e-01 0.0 
-5.245002523802e-01 -9.733042798786e+01 0.0 
0.0 0.0 -4.026672344888e+01 
-3.573886990616e+01 -1.851371298428e+01 0.0 
-1.851371298428e+01 -1.290097381667e+02 0.0 
0.0 0.0 -4.957317906743e+01 
-3.977647137477e+01 1.922941538334e+01 0.0 
1.922941538334e+01 -4.371569737520e+01 0.0 
0.0 0.0 -2.464765062499e+01 
-1.119562306998e+02 1.943781117425e+01 0.0 
1.943781117425e+01 -2.498361932720e+02 0.0 
0.0 0.0 -1.081377271915e+02 
-5.206117283099e+01 -1.120963026603e+00 0.0 
-1.120963026603e+00 -1.292877934069e+02 0.0 
0.0 0.0 -5.400468987136e+01 
-3.995449796196e+01 -1.469614121894e+00 0.0 
-1.469614121894e+00 -1.006282169989e+02 0.0 
0.0 0.0 -4.177481448825e+01 
-1.326805094036e+02 -7.322919403353e-01 0.0 
-7.322919403353e-01 -3.199958135022e+02 0.0 
0.0 0.0 -1.354028968717e+02 
-2.149766237325e+01 -1.736540865894e+00 0.0 
-1.736540865894e+00 -5.936639536816e+01 0.0 
0.0 0.0 -2.385921732242e+01 
-1.042554718239e+02 4.222105316702e+00 0.0 
4.222105316702e+00 -2.371292437600e+02 0.0 
0.0 0.0 -1.020154146752e+02 
-5.749134181579e+01 -2.295968317080e+01 0.0 
-2.295968317080e+01 -9.787518637359e+01 0.0 
0.0 0.0 -4.763985874000e+01 
-1.274022574248e+02 2.561464570429e+01 0.0 
2.561464570429e+01 -3.189437874814e+02 0.0 
0.0 0.0 -1.335038134719e+02 
-4.518076165177e+01 2.747227577650e+01 0.0 
2.747227577650e+01 -1.047823028416e+02 0.0 
0.0 0.0 -4.458891934800e+01 
-3.128341528216e+01 -1.792366511962e+01 0.0 
-1.792366511962e+01 -1.132127653947e+02 0.0 
0.0 0.0 -4.308297871686e+01 
-1.559948715467e+02 1.884306785913e+00 0.0 
1.884306785913e+00 -3.698121403853e+02 0.0 
0.0 0.0 -1.573421035796e+02 
-3.846272995506e+01 2.153658605759e+01 0.0 
2.153658605759e+01 -4.244006647662e+01 0.0 
0.0 0.0 -2.387083892950e+01 
-4.851728282765e+01 -9.163949825522e+00 0.0 
-9.163949825522e+00 -1.206156023205e+02 0.0 
0.0 0.0 -5.197475242710e+01 
-1.222209543175e+02 2.746307020725e+01 0.0 
2.746307020725e+01 -2.684299830681e+02 0.0 
0.0 0.0 -1.167952812157e+02 
-3.573699607578e+01 -1.109341435793e+01 0.0 
-1.109341435793e+01 -7.124433827017e+01 0.0 
0.0 0.0 -3.072281691219e+01 
-1.265193035726e+02 2.954004686230e+01 0.0 
2.954004686230e+01 -2.928760434860e+02 0.0 
0.0 0.0 -1.254186041176e+02 
-1.153562915452e+02 2.521587743143e-01 0.0 
2.521587743143e-01 -2.820283927794e+02 0.0 
0.0 0.0 -1.188154052974e+02 
-1.090176890871e+02 1.262929824508e+01 0.0 
1.262929824508e+01 -2.557079412033e+02 0.0 
0.0 0.0 -1.090176890871e+02 
-1.281796158559e+02 2.824548813896e+01 0.0 
2.824548813896e+01 -3.064712016094e+02 0.0 
0.0 0.0 -1.299952452396e+02 
-6.380166777723e+00 -1.155849947943e+00 0.0 
-1.155849947943e+00 -2.999994326256e+01 0.0 
0.0 0.0 -1.051403301209e+01 
-5.428737451008e+01 -2.287486803958e+00 0.0 
-2.287486803958e+00 -1.346724955073e+02 0.0 
0.0 0.0 -5.628796100521e+01 
-1.062375036559e+02 9.963903247662e+00 0.0 
9.963903247662e+00 -2.333827530477e+02 0.0 
0.0 0.0 -1.014860770111e+02 
-1.169109951466e+02 2.123766890931e+01 0.0 
2.123766890931e+01 -2.539897347055e+02 0.0 
0.0 0.0 -1.108702189556e+02 
-3.969353001810e+01 2.867515911340e+01 0.0 
2.867515911340e+01 -4.778387673937e+01 0.0 
0.0 0.0 -2.421042686455e+01 
-2.274418666392e+01 -1.714457127924e+00 0.0 
-1.714457127924e+00 -5.926494995345e+01 0.0 
0.0 0.0 -2.420274098521e+01 
-3.890419292907e+01 2.823692242104e+01 0.0 
2.823692242104e+01 -4.768099054518e+01 0.0 
0.0 0.0 -2.401683958737e+01 
-3.887431502062e+01 -1.490417254598e+01 0.0 
-1.490417254598e+01 -7.118977355237e+01 0.0 
0.0 0.0 -3.111996403421e+01 
-5.410237613332e+01 1.270297198021e+00 0.0 
1.270297198021e+00 -8.509115495118e+01 0.0 
0.0 0.0 -4.135805932535e+01 
-3.928205186293e+01 2.674506518154e+01 0.0 
2.674506518154e+01 -4.945421556346e+01 0.0 
0.0 0.0 -2.622088022792e+01 
-3.309696839957e+01 2.277149269763e+01 0.0 
2.277149269763e+01 -3.902324818631e+01 0.0 
0.0 0.0 -2.123606497576e+01 
-5.951983058413e+01 2.514677335459e+00 0.0 
2.514677335459e+00 -1.008286711169e+02 0.0 
0.0 0.0 -4.770455051031e+01 
-5.785758760536e+01 3.467091610514e-01 0.0 
3.467091610514e-01 -1.000848186428e+02 0.0 
0.0 0.0 -4.698272187446e+01 
-1.192574769487e+02 5.930694453232e-01 0.0 
5.930694453232e-01 -2.902102976577e+02 0.0 
0.0 0.0 -1.224403323819e+02 
-1.290155831583e+02 -8.479458884146e-01 0.0 
-8.479458884146e-01 -3.115682056970e+02 0.0 
0.0 0.0 -1.317751366566e+02 
-1.051530096307e+02 2.468806015892e+01 0.0 
2.468806015892e+01 -2.121228013525e+02 0.0 
0.0 0.0 -9.478274329497e+01 
-5.543159534840e+01 2.567825166663e+00 0.0 
2.567825166663e+00 -8.912052048065e+01 0.0 
0.0 0.0 -4.296563474871e+01 
-1.638743955770e+01 -2.525538651196e+00 0.0 
-2.525538651196e+00 -2.616249671364e+01 0.0 
0.0 0.0 -1.271864522440e+01 
-6.210379347314e+01 6.161589176898e+00 0.0 
6.161589176898e+00 -9.001799691550e+01 0.0 
0.0 0.0 -4.523653711659e+01 
-8.143679533884e+01 1.409305735614e+00 0.0 
1.409305735614e+00 -1.690317859101e+02 0.0 
0.0 0.0 -7.474057437468e+01 
-8.125265635423e+01 8.433864692974e-01 0.0 
8.433864692974e-01 -1.656233445914e+02 0.0 
0.0 0.0 -7.366280028369e+01 
-1.148509775331e+02 1.403869481154e+01 0.0 
1.403869481154e+01 -2.590704317620e+02 0.0 
0.0 0.0 -1.117764227885e+02 
-1.488677416222e+02 2.458598996145e+01 0.0 
2.458598996145e+01 -3.582101634715e+02 0.0 
0.0 0.0 -1.517233715281e+02 
-5.560987825355e+01 2.356721713367e+00 0.0 
2.356721713367e+00 -8.503580793747e+01 0.0 
0.0 0.0 -4.179370585731e+01 
-1.529937235461e+02 7.261713549832e+00 0.0 
7.261713549832e+00 -3.738274342697e+02 0.0 
0.0 0.0 -1.576463473447e+02 
-6.369348903656e+01 8.439893781769e-01 0.0 
8.439893781769e-01 -1.199414381045e+02 0.0 
0.0 0.0 -5.469047814233e+01 
-4.369742136281e+01 2.908026095618e+01 0.0 
2.908026095618e+01 -8.690688122879e+01 0.0 
0.0 0.0 -3.878129077748e+01 
-5.075270807415e+01 1.564299941291e+00 0.0 
1.564299941291e+00 -8.036374575123e+01 0.0 
0.0 0.0 -3.893493614761e+01 
-1.599141409727e+02 1.489428823119e-01 0.0 
1.489428823119e-01 -3.776850537210e+02 0.0 
0.0 0.0 -1.608797584081e+02 
-1.041086485561e+02 2.349462110500e+01 0.0 
2.349462110500e+01 -2.791190935710e+02 0.0 
0.0 0.0 -1.145683226381e+02 
-1.294077821988e+02 2.707299397571e+01 0.0 
2.707299397571e+01 -3.201251643533e+02 0.0 
0.0 0.0 -1.344598839656e+02 
-4.062169300832e+01 2.840961309053e+01 0.0 
2.840961309053e+01 -1.047095991030e+02 0.0 
0.0 0.0 -4.319938763338e+01 
-4.730120739060e+01 -2.920370964436e+01 0.0 
-2.920370964436e+01 -7.760071310552e+01 0.0 
0.0 0.0 -3.652443770125e+01 
-1.467534500034e+02 1.209970686820e+00 0.0 
1.209970686820e+00 -3.496694318656e+02 0.0 
0.0 0.0 -1.485268645607e+02 
-8.799677320856e+01 1.276976353828e+00 0.0 
1.276976353828e+00 -1.850768681674e+02 0.0 
0.0 0.0 -8.152209241280e+01 
-5.369442339021e+01 -3.403002576100e+01 0.0 
-3.403002576100e+01 -7.550954915190e+01 0.0 
0.0 0.0 -3.915961861686e+01 
-1.595067499281e+02 2.436621612352e+00 0.0 
2.436621612352e+00 -3.762904510645e+02 0.0 
0.0 0.0 -1.603391602978e+02 
-9.960677133270e+01 2.228945234125e+01 0.0 
2.228945234125e+01 -2.034113979336e+02 0.0 
0.0 0.0 -9.050545077988e+01 
-4.017633046490e+00 6.840196917273e-01 0.0 
6.840196917273e-01 -2.184899066224e+01 0.0 
0.0 0.0 -6.729702132180e+00 
-5.244592174757e+01 2.529149612271e+01 0.0 
2.529149612271e+01 -1.582567266243e+02 0.0 
0.0 0.0 -6.281079451155e+01 
-5.896817984800e+01 1.221282831602e+01 0.0 
1.221282831602e+01 -7.543591697886e+01 0.0 
0.0 0.0 -3.992122904806e+01 
-6.597840076581e+01 -2.257553495383e+00 0.0 
-2.257553495383e+00 -1.643473602971e+02 0.0 
0.0 0.0 -6.869772831887e+01 
-4.043703634034e+01 2.692000556669e+01 0.0 
2.692000556669e+01 -8.433123448397e+01 0.0 
0.0 0.0 -3.703048124729e+01 
-4.571103860616e+01 2.913094624386e+01 0.0 
2.913094624386e+01 -1.051866133171e+02 0.0 
0.0 0.0 -4.486929557698e+01 
-1.575494384350e+02 4.407248486192e+00 0.0 
4.407248486192e+00 -3.768766529109e+02 0.0 
0.0 0.0 -1.599278274038e+02 
-6.138096914372e+01 -4.020328372975e-01 0.0 
-4.020328372975e-01 -1.132872870777e+02 0.0 
0.0 0.0 -5.200047686642e+01 
-4.275128522716e+01 2.769652061387e+01 0.0 
2.769652061387e+01 -1.044751782756e+02 0.0 
0.0 0.0 -4.376793905081e+01 
-2.884119228273e+01 -5.908097746908e+00 0.0 
-5.908097746908e+00 -6.329178274390e+01 0.0 
0.0 0.0 -2.723989250799e+01 
-6.232895918159e+01 6.608092398217e+00 0.0 
6.608092398217e+00 -9.141029425440e+01 0.0 
0.0 0.0 -4.572177603080e+01 
-8.758773031820e+01 1.615956684942e+00 0.0 
1.615956684942e+00 -1.864088921904e+02 0.0 
0.0 0.0 -8.179898675258e+01 
-4.310781982821e+01 2.879336803385e+01 0.0 
2.879336803385e+01 -1.047031035488e+02 0.0 
0.0 0.0 -4.394327701309e+01 
-4.200997066639e+01 3.122356853125e+01 0.0 
3.122356853125e+01 -5.178529166077e+01 0.0 
0.0 0.0 -2.698255373758e+01 
-5.251547168155e+01 1.680005943018e+01 0.0 
1.680005943018e+01 -6.037257746325e+01 0.0 
0.0 0.0 -3.346641474344e+01 
-6.585829639957e+01 -2.711549507112e+00 0.0 
-2.711549507112e+00 -1.630993002293e+02 0.0 
0.0 0.0 -6.828727898865e+01 
-4.431079301018e+01 1.295394367299e+01 0.0 
1.295394367299e+01 -4.861868064366e+01 0.0 
0.0 0.0 -2.747884209615e+01 
-1.068343843476e+02 9.783911658332e+00 0.0 
9.783911658332e+00 -2.420092929598e+02 0.0 
0.0 0.0 -1.042531031922e+02 
-4.078617849538e+01 3.429714054057e+01 0.0 
3.429714054057e+01 -7.618844779009e+01 0.0 
0.0 0.0 -3.456079984198e+01 
-1.098098360853e+02 -1.369466891120e+00 0.0 
-1.369466891120e+00 -2.695590704723e+02 0.0 
0.0 0.0 -1.134106719673e+02 
-1.012409316166e+02 1.239674113464e+00 0.0 
1.239674113464e+00 -2.283349579494e+02 0.0 
0.0 0.0 -9.847276686980e+01 
-5.599566239482e+01 2.614593887189e+01 0.0 
2.614593887189e+01 -1.075865547892e+02 0.0 
0.0 0.0 -4.867466515520e+01 
-4.921292542060e+01 1.945944921001e+01 0.0 
1.945944921001e+01 -5.454679659561e+01 0.0 
0.0 0.0 -3.072791660486e+01 
-1.520707055827e+02 4.742476093167e+00 0.0 
4.742476093167e+00 -3.699973828254e+02 0.0 
0.0 0.0 -1.562204265224e+02 
-1.566662272202e+02 1.531540420098e+00 0.0 
1.531540420098e+00 -3.705046306620e+02 0.0 
0.0 0.0 -1.577512573647e+02 
-1.187289754165e+02 -1.072133364472e+00 0.0 
-1.072133364472e+00 -2.900483010076e+02 0.0 
0.0 0.0 -1.222331829272e+02 
-5.927857520278e+01 2.814982811287e+01 0.0 
2.814982811287e+01 -1.092858252510e+02 0.0 
0.0 0.0 -5.016932013614e+01 
-1.508726979210e+02 1.157141779873e+01 0.0 
1.157141779873e+01 -3.724435867594e+02 0.0 
0.0 0.0 -1.565948854041e+02 
-5.243912580427e+01 2.430183458304e+01 0.0 
2.430183458304e+01 -8.829682478449e+01 0.0 
0.0 0.0 -4.182078517663e+01 
-1.039730463328e+02 6.963903222308e+00 0.0 
6.963903222308e+00 -2.350798731165e+02 0.0 
0.0 0.0 -1.013158758348e+02 
-1.266174137592e+02 3.075908552998e+01 0.0 
3.075908552998e+01 -2.908596978858e+02 0.0 
0.0 0.0 -1.248431334935e+02 
-6.771185560020e+01 6.090197345762e+00 0.0 
6.090197345762e+00 -1.081690049788e+02 0.0 
0.0 0.0 -5.236425817370e+01 
-7.370515445205e+01 9.010900961669e-01 0.0 
9.010900961669e-01 -1.443566840101e+02 0.0 
0.0 0.0 -6.501855153863e+01 
-5.219972361834e+01 2.789292475579e+01 0.0 
2.789292475579e+01 -8.840994774430e+01 0.0 
0.0 0.0 -4.178290140879e+01 
-4.204652923562e+01 1.572872996114e+01 0.0 
1.572872996114e+01 -4.534611779284e+01 0.0 
0.0 0.0 -2.581779410854e+01 
-6.321004494571e+01 2.629787196759e+01 0.0 
2.629787196759e+01 -1.276938946515e+02 0.0 
0.0 0.0 -5.687118187916e+01 
-4.429501056378e+01 2.805968426325e+01 0.0 
2.805968426325e+01 -1.234260256074e+02 0.0 
0.0 0.0 -4.991631085136e+01 
-5.057641249391e+01 1.331305244278e+00 0.0 
1.331305244278e+00 -8.301627491076e+01 0.0 
0.0 0.0 -3.967780622140e+01 
-5.116274336444e+01 2.558613929718e+01 0.0 
2.558613929718e+01 -1.577624203752e+02 0.0 
0.0 0.0 -6.227754912188e+01 
-1.167755460233e+01 -1.032705002659e+00 0.0 
-1.032705002659e+00 -2.517629281249e+01 0.0 
0.0 0.0 -1.103159609789e+01 
-5.518501221286e+01 2.621802232326e-01 0.0 
2.621802232326e-01 -9.797553721310e+01 0.0 
0.0 0.0 -4.554816482779e+01 
-2.128945982941e+01 -6.461360841434e-01 0.0 
-6.461360841434e-01 -6.015270368895e+01 0.0 
0.0 0.0 -2.403264905551e+01 
-5.591225864322e+01 1.425549628878e+01 0.0 
1.425549628878e+01 -6.806586636731e+01 0.0 
0.0 0.0 -3.679343750316e+01 
-1.557153136297e+02 1.077911851370e+01 0.0 
1.077911851370e+01 -3.745684092062e+02 0.0 
0.0 0.0 -1.586851168508e+02 
-4.092467830489e+01 2.779387540786e+01 0.0 
2.779387540786e+01 -1.047740768432e+02 0.0 
0.0 0.0 -4.330962654443e+01 
-1.236999163497e+02 -9.759407406824e-01 0.0 
-9.759407406824e-01 -3.002734058994e+02 0.0 
0.0 0.0 -1.267919966747e+02 
-3.721102265909e+01 2.681112712574e+01 0.0 
2.681112712574e+01 -4.576330920396e+01 0.0 
0.0 0.0 -2.449229955892e+01 
-1.032138692373e+02 2.250430410435e+01 0.0 
2.250430410435e+01 -2.786090920280e+02 0.0 
0.0 0.0 -1.141468883796e+02 
-4.967583617162e+01 2.121184088456e-01 0.0 
2.121184088456e-01 -8.439985283506e+01 0.0 
0.0 0.0 -3.982270670200e+01 
-4.880995479464e+01 2.428730253158e+01 0.0 
2.428730253158e+01 -1.572356486379e+02 0.0 
0.0 0.0 -6.141368102977e+01 
-1.373188422915e+02 1.127171183753e+00 0.0 
1.127171183753e+00 -3.298134202478e+02 0.0 
0.0 0.0 -1.397396787618e+02 
-3.470041323791e+01 -9.354948434967e+00 0.0 
-9.354948434967e+00 -6.416527704153e+01 0.0 
0.0 0.0 -2.869587725373e+01 
-1.463794751692e+02 -4.595123886906e-01 0.0 
-4.595123886906e-01 -3.492576778362e+02 0.0 
0.0 0.0 -1.482911459016e+02 
-6.646560953613e+01 1.535173788183e+01 0.0 
1.535173788183e+01 -1.019268514774e+02 0.0 
0.0 0.0 -5.011773830407e+01 
-1.572282386254e+02 1.716894586460e+00 0.0 
1.716894586460e+00 -3.746420910959e+02 0.0 
0.0 0.0 -1.591610989164e+02 
-4.892559684533e+01 -1.248328349289e-02 0.0 
-1.248328349289e-02 -8.339636841350e+01 0.0 
0.0 0.0 -3.929658957765e+01 
-4.251294168646e+01 2.670072837342e+01 0.0 
2.670072837342e+01 -1.227358719493e+02 0.0 
0.0 0.0 -4.917464409073e+01 
-5.125267173341e+01 8.863133170146e+00 0.0 
8.863133170146e+00 -6.318620003171e+01 0.0 
0.0 0.0 -3.393166152953e+01 
-1.051950299912e+02 1.553338581161e-01 0.0 
1.553338581161e-01 -2.584755137899e+02 0.0 
0.0 0.0 -1.087011631343e+02 
-3.663355477450e+01 2.635503249658e+01 0.0 
2.635503249658e+01 -4.570875471575e+01 0.0 
0.0 0.0 -2.430269284707e+01 
-4.724802044080e+01 2.380903747655e+01 0.0 
2.380903747655e+01 -1.564793179095e+02 0.0 
0.0 0.0 -6.071820150509e+01 
-7.802127984028e+01 2.583508755847e+00 0.0 
2.583508755847e+00 -1.554635401398e+02 0.0 
0.0 0.0 -6.964544599403e+01 
-4.938386540951e+01 -3.769283487927e-01 0.0 
-3.769283487927e-01 -8.315540867679e+01 0.0 
0.0 0.0 -3.936178222589e+01 
-4.695741452922e+01 2.599820068665e+01 0.0 
2.599820068665e+01 -1.403673114446e+02 0.0 
0.0 0.0 -5.579741779213e+01 
-4.762578508518e+01 1.055120605870e+01 0.0 
1.055120605870e+01 -5.486448917914e+01 0.0 
0.0 0.0 -3.034708227930e+01 
-1.112810049819e+02 2.643329214688e+01 0.0 
2.643329214688e+01 -2.505816055318e+02 0.0 
0.0 0.0 -1.081587831541e+02 
-7.377279985860e+01 -2.303520543410e+00 0.0 
-2.303520543410e+00 -1.825368715298e+02 0.0 
0.0 0.0 -7.649290141652e+01 
-1.367368096406e+02 2.888676794390e+01 0.0 
2.888676794390e+01 -3.256791211144e+02 0.0 
0.0 0.0 -1.383247792265e+02 
-1.288321782182e+02 3.180291856926e+01 0.0 
3.180291856926e+01 -2.972324257613e+02 0.0 
0.0 0.0 -1.274193811938e+02 
-3.981574470567e+01 2.828471626278e+01 0.0 
2.828471626278e+01 -6.774572577365e+01 0.0 
0.0 0.0 -3.186844114380e+01 
-7.387346850990e+01 -2.414676176639e+00 0.0 
-2.414676176639e+00 -1.827817984280e+02 0.0 
0.0 0.0 -7.659658008138e+01 
-1.279204399665e+02 1.514339475377e+01 0.0 
1.514339475377e+01 -3.340419322230e+02 0.0 
0.0 0.0 -1.381887116568e+02 
-4.875922349819e+01 2.581519695676e+01 0.0 
2.581519695676e+01 -6.900480998344e+01 0.0 
0.0 0.0 -3.492921004449e+01 
-3.654672439250e+01 2.551946106789e+01 0.0 
2.551946106789e+01 -6.442521998448e+01 0.0 
0.0 0.0 -2.989158331309e+01 
-6.105967451353e+01 1.149513763222e+01 0.0 
1.149513763222e+01 -8.691665850559e+01 0.0 
0.0 0.0 -4.399289990574e+01 
-4.922398817806e+01 2.761371587345e+01 0.0 
2.761371587345e+01 -1.415306239316e+02 0.0 
0.0 0.0 -5.682638363291e+01 
-1.023050191070e+02 4.398286149353e+00 0.0 
4.398286149353e+00 -2.333834465943e+02 0.0 
0.0 0.0 -1.003065397104e+02 
-9.859271076038e+01 1.927060230514e+01 0.0 
1.927060230514e+01 -1.947975639685e+02 0.0 
0.0 0.0 -8.761708241866e+01 
-1.419626063347e+02 -7.720147346268e-01 0.0 
-7.720147346268e-01 -3.396855769919e+02 0.0 
0.0 0.0 -1.440944549980e+02 
-3.907594097305e+01 2.844043740989e+01 0.0 
2.844043740989e+01 -4.701452919558e+01 0.0 
0.0 0.0 -2.471314898488e+01 
-4.349654953450e+01 2.154602820388e+01 0.0 
2.154602820388e+01 -1.555285461835e+02 0.0 
0.0 0.0 -5.930752871539e+01 
-1.025626437999e+02 2.147906928022e+01 0.0 
2.147906928022e+01 -2.098641244675e+02 0.0 
0.0 0.0 -9.332803048022e+01 
-7.932426601163e+01 2.618238706362e+01 0.0 
2.618238706362e+01 -7.884050843925e+01 0.0 
0.0 0.0 -4.771739068777e+01 
-4.847038308551e+01 2.156427145806e+01 0.0 
2.156427145806e+01 -6.876518552378e+01 0.0 
0.0 0.0 -3.477067058279e+01 
-1.190510972558e+02 1.039237120379e+01 0.0 
1.039237120379e+01 -3.192624549019e+02 0.0 
0.0 0.0 -1.310940656473e+02 
-1.381784115145e+01 -1.114943411626e+00 0.0 
-1.114943411626e+00 -4.243753209418e+01 0.0 
0.0 0.0 -1.647661197369e+01 
-1.147957255208e+02 2.124020027601e+01 0.0 
2.124020027601e+01 -2.519993556921e+02 0.0 
0.0 0.0 -1.096385243639e+02 
-8.585687126275e+01 1.190113103788e+01 0.0 
1.190113103788e+01 -1.538536009642e+02 0.0 
0.0 0.0 -7.151314166808e+01 
-6.300633009218e+01 -9.630555980378e+00 0.0 
-9.630555980378e+00 -1.809955076722e+02 0.0 
0.0 0.0 -7.280055132931e+01 
-1.162707555988e+02 9.481995645857e+00 0.0 
9.481995645857e+00 -3.179850314684e+02 0.0 
0.0 0.0 -1.298767361202e+02 
-6.995919057879e+01 8.418706628231e+00 0.0 
8.418706628231e+00 -1.078247421455e+02 0.0 
0.0 0.0 -5.293517981729e+01 
-7.483132523153e+01 7.793966641737e+00 0.0 
7.793966641737e+00 -1.215421798075e+02 0.0 
0.0 0.0 -5.851205151172e+01 
-1.465985181335e+02 1.205753393022e+01 0.0 
1.205753393022e+01 -3.619452362949e+02 0.0 
0.0 0.0 -1.521631263285e+02 
-5.221242618484e+01 -1.040356842913e+01 0.0 
-1.040356842913e+01 -1.339501314811e+02 0.0 
0.0 0.0 -5.544876729978e+01 
-6.633623145162e+01 2.705479133666e+01 0.0 
2.705479133666e+01 -1.460795739159e+02 0.0 
0.0 0.0 -6.332474161025e+01 
-7.121831542955e+01 1.880631858766e+01 0.0 
1.880631858766e+01 -1.182664010650e+02 0.0 
0.0 0.0 -5.644541494837e+01 
-9.188313714727e+01 1.428491256522e+01 0.0 
1.428491256522e+01 -1.648981014937e+02 0.0 
0.0 0.0 -7.663437159229e+01 
-7.204838941791e+01 1.780668428624e+01 0.0 
1.780668428624e+01 -1.102916216839e+02 0.0 
0.0 0.0 -5.430200333055e+01 
-6.386361967952e+01 1.623473869323e+01 0.0 
1.623473869323e+01 -8.807988388941e+01 0.0 
0.0 0.0 -4.518305107068e+01 
-8.944612684358e+01 2.084343459618e+01 0.0 
2.084343459618e+01 -2.567715611127e+02 0.0 
0.0 0.0 -1.034653063869e+02 
-1.082937804152e+02 2.778593457651e+01 0.0 
2.778593457651e+01 -2.352453828259e+02 0.0 
0.0 0.0 -1.026617489723e+02 
-5.682277743657e+01 2.459849149042e+01 0.0 
2.459849149042e+01 -9.357157915902e+01 0.0 
0.0 0.0 -4.624211408384e+01 
-3.897855532385e+01 2.674552792385e+01 0.0 
2.674552792385e+01 -6.765910112399e+01 0.0 
0.0 0.0 -3.159129693435e+01 
-4.263628838362e+01 2.692241089288e+01 0.0 
2.692241089288e+01 -8.595411592109e+01 0.0 
0.0 0.0 -3.817712129141e+01 
-6.219372741706e+01 2.904005587360e+01 0.0 
2.904005587360e+01 -1.277960288994e+02 0.0 
0.0 0.0 -5.659692689495e+01 
-1.042562300937e+02 2.158552753144e+01 0.0 
2.158552753144e+01 -2.045562437645e+02 0.0 
0.0 0.0 -9.224374215746e+01 
-3.197345579848e+01 2.411261330050e+01 0.0 
2.411261330050e+01 -1.207660960041e+02 0.0 
0.0 0.0 -4.643053328298e+01 
-1.146462240844e+02 7.987509417531e+00 0.0 
7.987509417531e+00 -3.106094944903e+02 0.0 
0.0 0.0 -1.271767155724e+02 
-4.953670101194e+01 1.240418062389e+00 0.0 
1.240418062389e+00 -8.196545960707e+01 0.0 
0.0 0.0 -3.905064818570e+01 
-4.555376123095e+01 2.280770267870e+01 0.0 
2.280770267870e+01 -1.566562080711e+02 0.0 
0.0 0.0 -6.026299079063e+01 
-1.105847468028e+02 5.664427182212e+00 0.0 
5.664427182212e+00 -3.014509348182e+02 0.0 
0.0 0.0 -1.232107044863e+02 
-9.239918196368e+00 -1.959066487930e-01 0.0 
-1.959066487930e-01 -2.839944482276e+01 0.0 
0.0 0.0 -1.089180890574e+01 
-9.285061305260e+01 1.368854292122e+01 0.0 
1.368854292122e+01 -1.752842484293e+02 0.0 
0.0 0.0 -8.004045844458e+01 
-7.302306856762e+00 -1.323754983431e+00 0.0 
-1.323754983431e+00 -2.397262376497e+01 0.0 
0.0 0.0 -8.743720638564e+00 
-1.541350710737e+01 -1.316298810987e+00 0.0 
-1.316298810987e+00 -4.308373462556e+01 0.0 
0.0 0.0 -1.714917251988e+01 
-3.703843261543e+01 2.698199140225e+01 0.0 
2.698199140225e+01 -4.649009131880e+01 0.0 
0.0 0.0 -2.409863544092e+01 
-4.614337071781e+01 -1.033310845011e+01 0.0 
-1.033310845011e+01 -1.131722819746e+02 0.0 
0.0 0.0 -4.739469580771e+01 
-9.851943881910e+01 1.588454736594e+01 0.0 
1.588454736594e+01 -1.860451357113e+02 0.0 
0.0 0.0 -8.496937235913e+01 
-4.505534538015e+01 -9.601324022164e+00 0.0 
-9.601324022164e+00 -1.080711271579e+02 0.0 
0.0 0.0 -4.553794176142e+01 
-3.782044784366e+01 2.890781426101e+01 0.0 
2.890781426101e+01 -8.753243227963e+01 0.0 
0.0 0.0 -3.651903484470e+01 
-4.356319035744e+01 -2.232967787844e+01 0.0 
-2.232967787844e+01 -1.107209073482e+02 0.0 
0.0 0.0 -4.455826291093e+01 
-3.464285014695e+01 -8.423762660826e+00 0.0 
-8.423762660826e+00 -7.173090644983e+01 0.0 
0.0 0.0 -3.142854072786e+01 
-1.209868098982e+02 1.186920261866e+01 0.0 
1.186920261866e+01 -3.256606765727e+02 0.0 
0.0 0.0 -1.335942459413e+02 
-6.824703410296e+01 2.004167577547e+01 0.0 
2.004167577547e+01 -1.029499887201e+02 0.0 
0.0 0.0 -5.095910684693e+01 
-1.555810093449e+02 2.490921263138e-01 0.0 
2.490921263138e-01 -3.697638179011e+02 0.0 
0.0 0.0 -1.572034481738e+02 
-6.211986978770e+01 1.092363151742e+01 0.0 
1.092363151742e+01 -1.096752959516e+02 0.0 
0.0 0.0 -5.208024924663e+01 
-3.787452602542e+01 2.752343848897e+01 0.0 
2.752343848897e+01 -1.056974166760e+02 0.0 
0.0 0.0 -4.267158281042e+01 
-5.111314624811e+01 2.179975410730e+01 0.0 
2.179975410730e+01 -1.731631739219e+02 0.0 
0.0 0.0 -6.688289605099e+01 
-4.463529892583e+01 2.311455235861e+01 0.0 
2.311455235861e+01 -6.704904706878e+01 0.0 
0.0 0.0 -3.310530379838e+01 
-1.116970328759e+02 7.139662553286e+00 0.0 
7.139662553286e+00 -3.092652559256e+02 0.0 
0.0 0.0 -1.258886866405e+02 
-1.580161610647e+02 1.389045338260e+00 0.0 
1.389045338260e+00 -3.765631997542e+02 0.0 
0.0 0.0 -1.599738082457e+02 
-9.757665547768e+01 2.022122037173e+01 0.0 
2.022122037173e+01 -1.826932408570e+02 0.0 
0.0 0.0 -8.368096890039e+01 
-3.503887985300e+01 1.983367307469e+01 0.0 
1.983367307469e+01 -1.389175746089e+02 0.0 
0.0 0.0 -5.178693633856e+01 
-1.233607910228e+02 1.263920900101e+01 0.0 
1.263920900101e+01 -3.266856425614e+02 0.0 
0.0 0.0 -1.346139300753e+02 
-1.143071564424e+02 -1.381437691458e+00 0.0 
-1.381437691458e+00 -2.792943352302e+02 0.0 
0.0 0.0 -1.176804475018e+02 
-6.651789477441e+01 2.821191243236e+01 0.0 
2.821191243236e+01 -1.298260553490e+02 0.0 
0.0 0.0 -5.850318503703e+01 
-9.023975323925e+01 1.432977405731e+01 0.0 
1.432977405731e+01 -1.665107362606e+02 0.0 
0.0 0.0 -7.662514684995e+01 
-1.332837548617e+02 2.815627369192e+01 0.0 
2.815627369192e+01 -3.220979598994e+02 0.0 
0.0 0.0 -1.362145144283e+02 
-4.970008870337e+01 2.095504769325e+01 0.0 
2.095504769325e+01 -1.723860588075e+02 0.0 
0.0 0.0 -6.622584425326e+01 
-3.613844411564e+01 2.858992689108e+01 0.0 
2.858992689108e+01 -8.557061729731e+01 0.0 
0.0 0.0 -3.611271842389e+01 
-7.969800335082e+01 1.913074770474e+01 0.0 
1.913074770474e+01 -1.319008167427e+02 0.0 
0.0 0.0 -6.307964602807e+01 
-1.132015218365e+02 1.194787525015e+01 0.0 
1.194787525015e+01 -2.576938025272e+02 0.0 
0.0 0.0 -1.108685973091e+02 
-6.505977498244e+01 2.924551442645e+01 0.0 
2.924551442645e+01 -1.459317321034e+02 0.0 
0.0 0.0 -6.289745212574e+01 
-6.770901011416e+01 1.779679683107e+01 0.0 
1.779679683107e+01 -2.192215110760e+02 0.0 
0.0 0.0 -8.567915635703e+01 
-5.716339580213e+01 7.313391443833e-01 0.0 
7.313391443833e-01 -1.017847183700e+02 0.0 
0.0 0.0 -4.728443425165e+01 
-3.845304691914e+01 -1.516310677314e+01 0.0 
-1.516310677314e+01 -6.888355768235e+01 0.0 
0.0 0.0 -2.967302000661e+01 
-6.916920561479e+01 1.337875426700e+01 0.0 
1.337875426700e+01 -1.080712918467e+02 0.0 
0.0 0.0 -5.277214923845e+01 
-3.824264456928e+01 2.218068608259e+01 0.0 
2.218068608259e+01 -1.407826945757e+02 0.0 
0.0 0.0 -5.330760174349e+01 
-3.155659460072e+01 2.000180815619e+01 0.0 
2.000180815619e+01 -1.309854547603e+02 0.0 
0.0 0.0 -4.958076559810e+01 
-3.522841216881e+01 -2.354607846867e+01 0.0 
-2.354607846867e+01 -1.224972777739e+02 0.0 
0.0 0.0 -4.795980221684e+01 
-9.513240126501e+01 1.313023925107e+01 0.0 
1.313023925107e+01 -1.840973685794e+02 0.0 
0.0 0.0 -8.336893095332e+01 
-7.606696225875e+01 2.097544992142e+01 0.0 
2.097544992142e+01 -1.253247746993e+02 0.0 
0.0 0.0 -6.001752108742e+01 
-4.535304464616e+01 2.726925004929e+01 0.0 
2.726925004929e+01 -1.236918106638e+02 0.0 
0.0 0.0 -5.031345659300e+01 
-1.006339063016e+02 1.519758843609e+01 0.0 
1.519758843609e+01 -1.949982937993e+02 0.0 
0.0 0.0 -8.828966003028e+01 
-1.013652899491e+02 2.248971595643e+01 0.0 
2.248971595643e+01 -1.969023902470e+02 0.0 
0.0 0.0 -8.908030405881e+01 
-7.094547895933e+01 2.696633745995e+01 0.0 
2.696633745995e+01 -1.326308511863e+02 0.0 
0.0 0.0 -6.067289904370e+01 
-1.593809611887e+02 3.136363751888e+00 0.0 
3.136363751888e+00 -3.773735918556e+02 0.0 
0.0 0.0 -1.606263659133e+02 
-7.181927404747e+01 1.594332461942e+01 0.0 
1.594332461942e+01 -2.320262778639e+02 0.0 
0.0 0.0 -9.075366557340e+01 
-7.534838682346e+01 2.537079883984e+01 0.0 
2.537079883984e+01 -1.362949336811e+02 0.0 
0.0 0.0 -6.309299615137e+01 
-5.517702739770e+01 2.696255965039e+01 0.0 
2.696255965039e+01 -1.595143242570e+02 0.0 
0.0 0.0 -6.400740549640e+01 
-7.614622847790e+01 1.813539976666e+01 0.0 
1.813539976666e+01 -2.359267515951e+02 0.0 
0.0 0.0 -9.322189402189e+01 
-3.208946500724e+01 1.604570650466e+01 0.0 
1.604570650466e+01 -1.412183231255e+02 0.0 
0.0 0.0 -5.159233643983e+01 
-5.923798790510e+01 4.254403270017e+00 0.0 
4.254403270017e+00 -8.723480986291e+01 0.0 
0.0 0.0 -4.354183933040e+01 
-5.254068589740e+01 1.773793452982e+01 0.0 
1.773793452982e+01 -1.866068507040e+02 0.0 
0.0 0.0 -7.134426098043e+01 
-4.103772934309e+01 -5.248449922724e+00 0.0 
-5.248449922724e+00 -1.652240243695e+02 0.0 
0.0 0.0 -6.147852611377e+01 
-9.459184316847e+01 1.692514318171e+01 0.0 
1.692514318171e+01 -1.805404193780e+02 0.0 
0.0 0.0 -8.213967876394e+01 
-1.113358226150e+02 4.374389181488e+00 0.0 
4.374389181488e+00 -1.014013025989e+02 0.0 
0.0 0.0 -6.409487873654e+01 
-7.547854435990e+01 1.610330040448e+01 0.0 
1.610330040448e+01 -1.178769429985e+02 0.0 
0.0 0.0 -5.760664620753e+01 
-3.891598725255e+01 1.796872143260e+01 0.0 
1.796872143260e+01 -1.552519367987e+02 0.0 
0.0 0.0 -5.785037721537e+01 
-3.508131753530e+01 2.697537893406e+01 0.0 
2.697537893406e+01 -1.044023463525e+02 0.0 
0.0 0.0 -4.144509916633e+01 
-2.974581752080e+01 1.130017291188e+01 0.0 
1.130017291188e+01 -1.386426810845e+02 0.0 
0.0 0.0 -4.978680752241e+01 
-8.197893569968e+01 1.804667315665e+01 0.0 
1.804667315665e+01 -1.454534500803e+02 0.0 
0.0 0.0 -6.782971573399e+01 
-1.978689701069e+01 -3.920771794636e+00 0.0 
-3.920771794636e+00 -4.259926213213e+01 0.0 
0.0 0.0 -1.831584774285e+01 
-4.555516819253e+01 2.650426951261e+01 0.0 
2.650426951261e+01 -8.662080877365e+01 0.0 
0.0 0.0 -3.925279308986e+01 
-8.034976793057e+01 1.626403565526e+01 0.0 
1.626403565526e+01 -2.485847513419e+02 0.0 
0.0 0.0 -9.828035578173e+01 
-7.424762408904e+01 1.675980461187e+01 0.0 
1.675980461187e+01 -1.235100701951e+02 0.0 
0.0 0.0 -5.892730828523e+01 
-6.764919608353e+01 6.578142760675e+00 0.0 
6.578142760675e+00 -1.065411111304e+02 0.0 
0.0 0.0 -5.185709216418e+01 
-3.140306815360e+01 2.053738496580e+01 0.0 
2.053738496580e+01 -1.245236381576e+02 0.0 
0.0 0.0 -4.812564744463e+01 
-3.684045324156e+01 -1.665883167573e+00 0.0 
-1.665883167573e+00 -1.642362092227e+02 0.0 
0.0 0.0 -5.992299873929e+01 
-4.125009498821e+01 -1.073850169128e+01 0.0 
-1.073850169128e+01 -1.558760870511e+02 0.0 
0.0 0.0 -5.873785461179e+01 
-4.115288635161e+01 2.836394336186e+01 0.0 
2.836394336186e+01 -6.731691911723e+01 0.0 
0.0 0.0 -3.214094164065e+01 
-9.349807127880e+01 1.775263732086e+01 0.0 
1.775263732086e+01 -1.688035365091e+02 0.0 
0.0 0.0 -7.829048233636e+01 
-4.602011477361e+01 2.913092220439e+01 0.0 
2.913092220439e+01 -8.738089222091e+01 0.0 
0.0 0.0 -3.962030209836e+01 
-4.973454645859e+01 1.618157626852e+01 0.0 
1.618157626852e+01 -1.846825054996e+02 0.0 
0.0 0.0 -6.992511558746e+01 
-4.741625012172e+01 1.964993607906e+01 0.0 
1.964993607906e+01 -1.715115226365e+02 0.0 
0.0 0.0 -6.527833182746e+01 
-2.657993272309e+01 1.474970814593e+01 0.0 
1.474970814593e+01 -1.118657280056e+02 0.0 
0.0 0.0 -4.261275008812e+01 
-5.917894855609e+01 2.483373936193e+01 0.0 
2.483373936193e+01 -1.763345921057e+02 0.0 
0.0 0.0 -7.025406219853e+01 
-3.769044004264e+01 2.898896790000e+01 0.0 
2.898896790000e+01 -6.844648804648e+01 0.0 
0.0 0.0 -3.017049302688e+01 
-1.208371745585e+02 2.223127366241e+01 0.0 
2.223127366241e+01 -2.711584297118e+02 0.0 
0.0 0.0 -1.171986812811e+02 
-1.234322988093e+02 2.626059497002e+01 0.0 
2.626059497002e+01 -2.786529375606e+02 0.0 
0.0 0.0 -1.202255709110e+02 
-6.934612818838e+01 2.720041490024e+01 0.0 
2.720041490024e+01 -1.639225406724e+02 0.0 
0.0 0.0 -6.958060065823e+01 
-3.523537995399e+01 1.964186382632e+01 0.0 
1.964186382632e+01 -1.411795196150e+02 0.0 
0.0 0.0 -5.252446987070e+01 
-3.268486877392e+01 2.571443548521e+01 0.0 
2.571443548521e+01 -1.056632395043e+02 0.0 
0.0 0.0 -4.110443248348e+01 
-7.892833542066e+01 2.367928589800e+01 0.0 
2.367928589800e+01 -1.529734858233e+02 0.0 
0.0 0.0 -6.917054637317e+01 
-3.161251094769e+01 2.157799164416e+01 0.0 
2.157799164416e+01 -1.232894636901e+02 0.0 
0.0 0.0 -4.607059239134e+01 
-3.520233006163e+01 -7.471908544861e+00 0.0 
-7.471908544861e+00 -1.540402918605e+02 0.0 
0.0 0.0 -5.637278657665e+01 
-6.737958740430e+01 2.505373300168e+01 0.0 
2.505373300168e+01 -1.293848053169e+02 0.0 
0.0 0.0 -5.862931781637e+01 
-1.069066964212e+02 7.834845494284e+00 0.0 
7.834845494284e+00 -2.370831591579e+02 0.0 
0.0 0.0 -1.027969566737e+02 
-4.221078524135e+01 2.069817746471e+01 0.0 
2.069817746471e+01 -1.560049528611e+02 0.0 
0.0 0.0 -5.906472143074e+01 
-8.930827014119e+01 2.053101562145e+01 0.0 
2.053101562145e+01 -2.566591570303e+02 0.0 
0.0 0.0 -1.033902281514e+02 
-3.847856949738e+01 2.962523763144e+01 0.0 
2.962523763144e+01 -8.979101722947e+01 0.0 
0.0 0.0 -3.664392548704e+01 
-1.589060404771e+02 1.593614744771e+01 0.0 
1.593614744771e+01 -3.833877843874e+02 0.0 
0.0 0.0 -1.622881474593e+02 
-3.559851455431e+01 2.409554957616e+01 0.0 
2.409554957616e+01 -1.255589620487e+02 0.0 
0.0 0.0 -4.794724298090e+01 
-7.062947994740e+01 2.625081850816e+01 0.0 
2.625081850816e+01 -1.477823076998e+02 0.0 
0.0 0.0 -6.512353629415e+01 
-2.961072130217e+01 1.538757625118e+01 0.0 
1.538757625118e+01 -1.337359191836e+02 0.0 
0.0 0.0 -5.008916815685e+01 
-9.048825477261e+01 7.947549437715e+00 0.0 
7.947549437715e+00 -2.734841775078e+02 0.0 
0.0 0.0 -1.087917296841e+02 
-5.362033545421e+01 1.888145646741e+01 0.0 
1.888145646741e+01 -1.873249670290e+02 0.0 
0.0 0.0 -7.188359074496e+01 
-3.970686777590e+01 -1.012611774046e+01 0.0 
-1.012611774046e+01 -1.570603366807e+02 0.0 
0.0 0.0 -5.863016133699e+01 
-7.203300048590e+01 2.311645318993e+01 0.0 
2.311645318993e+01 -1.194038272550e+02 0.0 
0.0 0.0 -5.703104832228e+01 
-1.299165540501e+02 3.137631407397e+01 0.0 
3.137631407397e+01 -2.977369404655e+02 0.0 
0.0 0.0 -1.278960483547e+02 
-4.382368810227e+01 1.685688144213e+01 0.0 
1.685688144213e+01 -1.697263115065e+02 0.0 
0.0 0.0 -6.366499988263e+01 
-8.085510887687e+01 1.604791118592e+01 0.0 
1.604791118592e+01 -2.487557239031e+02 0.0 
0.0 0.0 -9.848324983399e+01 
-3.413583852722e+01 2.699986665996e+01 0.0 
2.699986665996e+01 -8.810222826108e+01 0.0 
0.0 0.0 -3.565360749385e+01 
-7.671944378920e+01 4.845960472023e+00 0.0 
4.845960472023e+00 -1.388690306385e+02 0.0 
0.0 0.0 -6.427654232830e+01 
-1.074668103392e+02 4.857817141845e+00 0.0 
4.857817141845e+00 -2.999790586778e+02 0.0 
0.0 0.0 -1.218337607051e+02 
-3.801876539733e+01 2.858795684109e+01 0.0 
2.858795684109e+01 -8.548746492016e+01 0.0 
0.0 0.0 -3.665186909525e+01 
-7.486660472662e+01 5.652446495707e+00 0.0 
5.652446495707e+00 -1.306075050928e+02 0.0 
0.0 0.0 -6.124223294581e+01 
-1.362907586462e+02 3.373074693990e+01 0.0 
3.373074693990e+01 -3.182688795734e+02 0.0 
0.0 0.0 -1.359678914659e+02 
-1.180500641960e+02 6.450926546274e+00 0.0 
6.450926546274e+00 -3.182960381936e+02 0.0 
0.0 0.0 -1.305038307169e+02 
-1.280825098831e+02 2.989336534389e+01 0.0 
2.989336534389e+01 -2.911858912746e+02 0.0 
0.0 0.0 -1.253805203473e+02 
-7.702327959634e+01 7.571474637671e+00 0.0 
7.571474637671e+00 -1.303550229685e+02 0.0 
0.0 0.0 -6.181349076945e+01 
-1.012715462521e+02 2.529438749388e+01 0.0 
2.529438749388e+01 -2.049819352863e+02 0.0 
0.0 0.0 -9.147604446152e+01 
-3.724929601888e+01 2.872590723461e+01 0.0 
2.872590723461e+01 -6.635970666484e+01 0.0 
0.0 0.0 -3.068270080512e+01 
-6.441970806305e+01 2.242070507337e+01 0.0 
2.242070507337e+01 -9.763774591342e+01 0.0 
0.0 0.0 -4.821723619294e+01 
-7.530084203184e+01 2.159214227911e+01 0.0 
2.159214227911e+01 -1.355030830264e+02 0.0 
0.0 0.0 -6.284117751746e+01 
-7.957122530535e+01 2.357853874316e+01 0.0 
2.357853874316e+01 -1.411110601795e+02 0.0 
0.0 0.0 -6.580468564546e+01 
-6.084203758680e+01 2.931339485380e+01 0.0 
2.931339485380e+01 -1.446020725047e+02 0.0 
0.0 0.0 -6.123323302745e+01 
-1.408826052379e+02 3.351096556786e+01 0.0 
3.351096556786e+01 -3.326726156081e+02 0.0 
0.0 0.0 -1.416665662538e+02 
-7.431017765382e+01 8.114384701124e+00 0.0 
8.114384701124e+00 -1.222107372924e+02 0.0 
0.0 0.0 -5.855627448385e+01 
-6.746377343331e+01 1.429779192155e+01 0.0 
1.429779192155e+01 -9.666526758745e+01 0.0 
0.0 0.0 -4.883871230623e+01 
-4.584327374982e+01 1.805304223952e+01 0.0 
1.805304223952e+01 -1.704983410483e+02 0.0 
0.0 0.0 -6.450248443943e+01 
-4.066601102282e+01 -9.835526681266e+00 0.0 
-9.835526681266e+00 -9.265554575489e+01 0.0 
0.0 0.0 -3.959646703331e+01 
-6.047337385348e+01 1.877082442639e+01 0.0 
1.877082442639e+01 -8.133269235815e+01 0.0 
0.0 0.0 -4.214181986349e+01 
-3.922004081062e+01 2.749537874250e+01 0.0 
2.749537874250e+01 -1.046590743127e+02 0.0 
0.0 0.0 -4.276373453700e+01 
-4.978410120729e+01 3.488337897795e-01 0.0 
3.488337897795e-01 -8.414325369848e+01 0.0 
0.0 0.0 -3.977820647173e+01 
-4.627129607129e+01 -1.204611034697e+01 0.0 
-1.204611034697e+01 -1.594359867874e+02 0.0 
0.0 0.0 -6.131218485760e+01 
-3.994427333733e+01 1.870196678732e+01 0.0 
1.870196678732e+01 -1.546352208438e+02 0.0 
0.0 0.0 -5.797384825433e+01 
-9.709395697769e+01 1.608371838463e+01 0.0 
1.608371838463e+01 -1.885540346284e+02 0.0 
0.0 0.0 -8.529439748184e+01 
-3.784335865395e+01 2.773883500849e+01 0.0 
2.773883500849e+01 -1.041192130347e+02 0.0 
0.0 0.0 -4.218877150659e+01 
-6.751892084463e+01 2.096207016978e+01 0.0 
2.096207016978e+01 -1.138724075807e+02 0.0 
0.0 0.0 -5.401739852761e+01 
-8.483547662057e+01 1.421096948985e+01 0.0 
1.421096948985e+01 -2.601593481539e+02 0.0 
0.0 0.0 -1.030984474323e+02 
-8.238583766352e+01 -3.031612906464e+00 0.0 
-3.031612906464e+00 -2.430655816278e+02 0.0 
0.0 0.0 -9.723542578739e+01 
-1.476600783913e+02 3.030307836074e+01 0.0 
3.030307836074e+01 -3.533488871218e+02 0.0 
0.0 0.0 -1.499026896539e+02 
-5.258532497129e+01 2.406840316155e+01 0.0 
2.406840316155e+01 -7.167510970636e+01 0.0 
0.0 0.0 -3.687813040330e+01 
-3.375217595375e+01 3.371881944397e+00 0.0 
3.371881944397e+00 -1.588326793220e+02 0.0 
0.0 0.0 -5.737545658274e+01 
-6.311265302503e+01 -9.577024026144e+00 0.0 
-9.577024026144e+00 -1.772631593567e+02 0.0 
0.0 0.0 -7.171274371451e+01 
-3.828355630124e+01 2.793639527578e+01 0.0 
2.793639527578e+01 -6.565907535860e+01 0.0 
0.0 0.0 -3.078278949795e+01 
-3.819242121284e+01 2.772679374308e+01 0.0 
2.772679374308e+01 -8.542592767230e+01 0.0 
0.0 0.0 -3.668550466554e+01 
-1.078466843257e+02 2.365742860684e+01 0.0 
2.365742860684e+01 -2.188320444695e+02 0.0 
0.0 0.0 -9.760361863855e+01 
-7.395665146327e+01 2.806070618387e+01 0.0 
2.806070618387e+01 -1.502486082209e+02 0.0 
0.0 0.0 -6.686157790526e+01 
-4.591074204148e+01 2.705702459179e+01 0.0 
2.705702459179e+01 -6.806198496456e+01 0.0 
0.0 0.0 -3.379181810181e+01 
-5.953340165543e+01 2.003786916667e+01 0.0 
2.003786916667e+01 -9.205997141429e+01 0.0 
0.0 0.0 -4.507801192092e+01 
-1.541709818520e+02 2.257477634495e+01 0.0 
2.257477634495e+01 -3.732009329435e+02 0.0 
0.0 0.0 -1.578115744386e+02 
-1.423622627719e+02 2.240439989587e+01 0.0 
2.240439989587e+01 -3.537557930913e+02 0.0 
0.0 0.0 -1.484354167590e+02 
-1.051404646788e+02 2.066227049917e+01 0.0 
2.066227049917e+01 -2.167627412946e+02 0.0 
0.0 0.0 -9.617096179200e+01 
-9.632209373651e+01 1.675218972587e+01 0.0 
1.675218972587e+01 -1.775145402053e+02 0.0 
0.0 0.0 -8.175099018255e+01 
-8.118981005624e+01 -2.460419017856e+00 0.0 
-2.460419017856e+00 -2.378007183854e+02 0.0 
0.0 0.0 -9.529715853250e+01 
-4.861106041256e+01 2.944910080936e+01 0.0 
2.944910080936e+01 -1.062731048167e+02 0.0 
0.0 0.0 -4.606524956879e+01 
-3.186144637463e+01 1.623272060428e+01 0.0 
1.623272060428e+01 -1.389777565287e+02 0.0 
0.0 0.0 -5.085176087099e+01 
-3.662676610557e+01 1.508560333252e+01 0.0 
1.508560333252e+01 -1.536500033730e+02 0.0 
0.0 0.0 -5.668303084356e+01 
-6.944388574808e+01 2.886153752026e+01 0.0 
2.886153752026e+01 -1.478306985375e+02 0.0 
0.0 0.0 -6.478237528567e+01 
-8.737088369190e+01 9.396768763911e+00 0.0 
9.396768763911e+00 -2.649691739312e+02 0.0 
0.0 0.0 -1.053020172869e+02 
-7.865494867893e+01 -4.703474576558e+00 0.0 
-4.703474576558e+00 -2.036472472013e+02 0.0 
0.0 0.0 -8.429065876407e+01 
-1.033578857365e+02 1.780619146681e+01 0.0 
1.780619146681e+01 -2.103157437209e+02 0.0 
0.0 0.0 -9.370208883722e+01 
-3.587132075075e+01 -1.185075902506e+00 0.0 
-1.185075902506e+00 -1.587153135927e+02 0.0 
0.0 0.0 -5.797599030304e+01 
-5.681128239557e+01 2.895320128399e+01 0.0 
2.895320128399e+01 -1.435551493880e+02 0.0 
0.0 0.0 -5.970992953507e+01 
-7.137088807054e+01 2.339430732201e+01 0.0 
2.339430732201e+01 -1.318252747260e+02 0.0 
0.0 0.0 -6.055884883896e+01 
-5.083957300351e+01 2.915529708669e+01 0.0 
2.915529708669e+01 -1.247717401714e+02 0.0 
0.0 0.0 -5.228339395248e+01 
-1.265781654855e+02 2.828244224701e+01 0.0 
2.828244224701e+01 -2.851910620995e+02 0.0 
0.0 0.0 -1.231307682755e+02 
-1.213044778024e+02 2.395197059121e+01 0.0 
2.395197059121e+01 -2.742151834334e+02 0.0 
0.0 0.0 -1.182558983708e+02 
-1.178633911624e+02 2.404330083152e+01 0.0 
2.404330083152e+01 -2.538943322771e+02 0.0 
0.0 0.0 -1.111273170319e+02 
-8.918641481980e+01 -3.600662348188e-01 0.0 
-3.600662348188e-01 -2.556347766487e+02 0.0 
0.0 0.0 -1.030463574406e+02 
-9.720193558034e+01 1.262850951471e+01 0.0 
1.262850951471e+01 -1.930688662506e+02 0.0 
0.0 0.0 -8.668124054928e+01 
-3.759925876766e+01 2.819139067121e+01 0.0 
2.819139067121e+01 -8.612647024519e+01 0.0 
0.0 0.0 -3.671771870386e+01 
-4.240546895273e+01 1.451699011923e+01 0.0 
1.451699011923e+01 -1.686108970174e+02 0.0 
0.0 0.0 -6.290490979105e+01 
-2.749260814772e+01 1.204098630615e+01 0.0 
1.204098630615e+01 -1.254207432454e+02 0.0 
0.0 0.0 -4.581147321834e+01 
-4.896648714458e+01 2.861205145969e+01 0.0 
2.861205145969e+01 -8.789500195832e+01 0.0 
0.0 0.0 -4.065844673087e+01 
-5.840914999865e+01 3.409916498346e+00 0.0 
3.409916498346e+00 -8.657309089086e+01 0.0 
0.0 0.0 -4.309467226685e+01 
-7.363762070036e+01 4.828001952214e+00 0.0 
4.828001952214e+00 -1.285398948293e+02 0.0 
0.0 0.0 -6.025325465889e+01 
-1.476267626378e+02 1.578877612134e+01 0.0 
1.578877612134e+01 -3.671837699006e+02 0.0 
0.0 0.0 -1.540431597615e+02 
-1.059159335013e+02 2.320645232195e+01 0.0 
2.320645232195e+01 -2.246384652219e+02 0.0 
0.0 0.0 -9.876631961694e+01 
-7.748136907407e+01 1.510875566936e+01 0.0 
1.510875566936e+01 -1.300824344411e+02 0.0 
0.0 0.0 -6.186914105456e+01 
-8.263776745196e+01 2.211833751930e+01 0.0 
2.211833751930e+01 -1.567494786563e+02 0.0 
0.0 0.0 -7.141617383248e+01 
-2.973580094146e+01 1.096952814759e+01 0.0 
1.096952814759e+01 -1.406806016410e+02 0.0 
0.0 0.0 -5.225363389175e+01 
-2.962965690474e+01 -9.910799376309e+00 0.0 
-9.910799376309e+00 -4.724464986855e+01 0.0 
0.0 0.0 -2.137661310423e+01 
-5.502320900354e+01 2.349037369223e+01 0.0 
2.349037369223e+01 -1.747176015445e+02 0.0 
0.0 0.0 -6.852224316442e+01 
-6.350425572277e+01 2.863368269819e+01 0.0 
2.863368269819e+01 -1.621466914134e+02 0.0 
0.0 0.0 -6.729528414086e+01 
-5.769939721722e+01 2.502518496663e+01 0.0 
2.502518496663e+01 -1.757458168140e+02 0.0 
0.0 0.0 -6.963356420935e+01 
-4.113592138227e+01 3.169602598202e+01 0.0 
3.169602598202e+01 -5.164606356244e+01 0.0 
0.0 0.0 -2.694238185209e+01 
-5.604696040773e+01 1.188324663936e-01 0.0 
1.188324663936e-01 -1.006929113847e+02 0.0 
0.0 0.0 -4.662196153774e+01 
-3.785134055843e+01 -8.416307079209e+00 0.0 
-8.416307079209e+00 -8.580449988157e+01 0.0 
0.0 0.0 -3.669675213200e+01 
-3.793581694822e+01 2.539416346871e+01 0.0 
2.539416346871e+01 -1.240487410205e+02 0.0 
0.0 0.0 -4.819536739060e+01 
-1.643216803449e+02 1.636392639069e+01 0.0 
1.636392639069e+01 -3.847505874714e+02 0.0 
0.0 0.0 -1.643216803449e+02 
-9.454637222050e+01 1.931107790225e+01 0.0 
1.931107790225e+01 -2.705286953006e+02 0.0 
0.0 0.0 -1.091225202563e+02 
-6.365741610093e+01 9.930542796374e+00 0.0 
9.930542796374e+00 -9.428179446665e+01 0.0 
0.0 0.0 -4.698176317027e+01 
-2.022117784052e+01 -1.037773094052e+00 0.0 
-1.037773094052e+00 -5.926556834534e+01 0.0 
0.0 0.0 -2.344602385576e+01 
-6.212391792073e+01 2.753044652708e+01 0.0 
2.753044652708e+01 -1.447963225793e+02 0.0 
0.0 0.0 -6.167607215001e+01 
-5.362727713325e+01 2.319443113936e+01 0.0 
2.319443113936e+01 -1.740653785428e+02 0.0 
0.0 0.0 -6.790779670281e+01 
-8.342907927999e+01 2.184068353298e+01 0.0 
2.184068353298e+01 -1.467596429016e+02 0.0 
0.0 0.0 -6.865661665447e+01 
-1.316613663323e+02 3.230186682435e+01 0.0 
3.230186682435e+01 -3.043423760734e+02 0.0 
0.0 0.0 -1.304011227217e+02 
-6.303331343378e+01 1.762649684862e+01 0.0 
1.762649684862e+01 -9.627341494390e+01 0.0 
0.0 0.0 -4.739201851330e+01 
-7.841608958584e+01 2.694967649145e+01 0.0 
2.694967649145e+01 -1.533570626422e+02 0.0 
0.0 0.0 -6.913194566843e+01 
-7.612253758911e+01 -6.553115808606e+00 0.0 
-6.553115808606e+00 -2.021771465504e+02 0.0 
0.0 0.0 -8.308990524186e+01 
-9.937345743497e+01 1.551225297727e+01 0.0 
1.551225297727e+01 -1.969036906212e+02 0.0 
0.0 0.0 -8.848314441685e+01 
-9.089147877140e+01 -1.130364865233e+00 0.0 
-1.130364865233e+00 -2.614880087215e+02 0.0 
0.0 0.0 -1.053138462479e+02 
-1.345374224759e+02 3.342234819984e+01 0.0 
3.342234819984e+01 -3.112791152024e+02 0.0 
0.0 0.0 -1.333449613035e+02 
-1.220105245905e+02 2.752549280484e+01 0.0 
2.752549280484e+01 -2.860245573779e+02 0.0 
0.0 0.0 -1.220105245905e+02 
-1.135720978827e+02 2.013809897930e+01 0.0 
2.013809897930e+01 -2.663348950597e+02 0.0 
0.0 0.0 -1.135720978827e+02 
-1.165485798870e+02 2.383272194342e+01 0.0 
2.383272194342e+01 -2.732800197364e+02 0.0 
0.0 0.0 -1.165485798870e+02 
-8.608803624584e+01 2.057391444887e+01 0.0 
2.057391444887e+01 -1.614326571265e+02 0.0 
0.0 0.0 -7.385620801171e+01 
-1.025905610215e+02 1.823859135367e+01 0.0 
1.823859135367e+01 -1.987800353114e+02 0.0 
0.0 0.0 -9.001117889986e+01 
-1.089364394078e+02 2.286850882909e+01 0.0 
2.286850882909e+01 -2.320441935465e+02 0.0 
0.0 0.0 -1.018941898863e+02 
-5.147827383687e+01 2.776394253114e+01 0.0 
2.776394253114e+01 -1.248008535016e+02 0.0 
0.0 0.0 -5.248373820154e+01 
-4.850441010934e+01 2.747146469271e+01 0.0 
2.747146469271e+01 -1.058711145045e+02 0.0 
0.0 0.0 -4.591265738415e+01 
-7.494086691624e+01 -4.472411763501e+00 0.0 
-4.472411763501e+00 -1.911139894459e+02 0.0 
0.0 0.0 -7.941645690864e+01 
-1.065737677917e+02 2.070573304097e+01 0.0 
2.070573304097e+01 -2.122939747000e+02 0.0 
0.0 0.0 -9.526032274751e+01 
-1.385168944076e+02 3.383771425878e+01 0.0 
3.383771425878e+01 -3.254279010849e+02 0.0 
0.0 0.0 -1.387834386478e+02 
-1.013071873327e+02 1.485789185661e+01 0.0 
1.485789185661e+01 -2.053241085777e+02 0.0 
0.0 0.0 -9.158938877313e+01 
-8.510730054928e+01 1.865019449743e+01 0.0 
1.865019449743e+01 -2.530700888076e+02 0.0 
0.0 0.0 -1.010532168071e+02 
-1.045599546532e+02 1.746048394473e+01 0.0 
1.746048394473e+01 -2.072141961243e+02 0.0 
0.0 0.0 -9.313224523326e+01 
-9.487085810089e+01 2.757891851416e+01 0.0 
2.757891851416e+01 -2.368928705888e+02 0.0 
0.0 0.0 -9.912911860692e+01 
-6.082744899582e+01 2.700362473915e+01 0.0 
2.700362473915e+01 -1.613106231629e+02 0.0 
0.0 0.0 -6.624142164763e+01 
-4.869644147782e+01 2.567905948420e+01 0.0 
2.567905948420e+01 -8.734056473846e+01 0.0 
0.0 0.0 -4.041110186488e+01 
-3.664197613476e+01 2.783501480540e+01 0.0 
2.783501480540e+01 -1.107707216644e+02 0.0 
0.0 0.0 -4.308192263595e+01 
-1.064051563518e+02 1.256650737572e+01 0.0 
1.256650737572e+01 -2.400267787046e+02 0.0 
0.0 0.0 -1.035295805169e+02 
-4.827324392779e+01 2.766647314142e+01 0.0 
2.766647314142e+01 -1.243673279146e+02 0.0 
0.0 0.0 -5.139217155273e+01 
-1.261675813118e+02 2.867066203044e+01 0.0 
2.867066203044e+01 -2.980392719315e+02 0.0 
0.0 0.0 -1.268620559730e+02 
-7.294107448390e+01 -6.487994874566e+00 0.0 
-6.487994874566e+00 -1.898334003826e+02 0.0 
0.0 0.0 -7.843234245995e+01 
-4.647868796936e+01 -1.512367110816e+01 0.0 
-1.512367110816e+01 -1.459050301266e+02 0.0 
0.0 0.0 -5.731511542879e+01 
-1.534944683092e+02 1.407866091942e+01 0.0 
1.407866091942e+01 -3.710559959904e+02 0.0 
0.0 0.0 -1.569651392899e+02 
-4.018058779427e+01 2.623840101548e+01 0.0 
2.623840101548e+01 -1.230800733278e+02 0.0 
0.0 0.0 -4.857819833662e+01 
-1.248470530316e+02 2.910082359187e+01 0.0 
2.910082359187e+01 -2.926431237403e+02 0.0 
0.0 0.0 -1.248470530316e+02 
-1.134178811708e+02 2.098050351344e+01 0.0 
2.098050351344e+01 -2.534570627949e+02 0.0 
0.0 0.0 -1.096624831897e+02 
-7.806395243134e+01 2.609976027642e+01 0.0 
2.609976027642e+01 -1.677001402446e+02 0.0 
0.0 0.0 -7.332922780279e+01 
-2.167817760868e+01 -5.800605524113e+00 0.0 
-5.800605524113e+00 -2.506730637669e+01 0.0 
0.0 0.0 -1.396206279791e+01 
-1.307863198205e+02 3.116201683085e+01 0.0 
3.116201683085e+01 -3.065014129145e+02 0.0 
0.0 0.0 -1.307863198205e+02 
-1.509732094074e+02 1.823846258027e+01 0.0 
1.823846258027e+01 -3.652654833915e+02 0.0 
0.0 0.0 -1.544716078397e+02 
-3.945166437921e+01 -1.414656525827e+01 0.0 
-1.414656525827e+01 -1.431369472035e+02 0.0 
0.0 0.0 -5.437658347481e+01 
-9.006949113929e+01 1.682094334597e+01 0.0 
1.682094334597e+01 -2.657958255660e+02 0.0 
0.0 0.0 -1.063595950116e+02 
-1.493869424340e+02 2.856233850209e+01 0.0 
2.856233850209e+01 -3.590600063836e+02 0.0 
0.0 0.0 -1.521340846453e+02 
-8.902961400941e+00 -8.340224381353e-01 0.0 
-8.340224381353e-01 -9.482547933487e+00 0.0 
0.0 0.0 -6.085565943116e+00 
-5.431287193811e+01 2.740256059915e+01 0.0 
2.740256059915e+01 -1.430528869432e+02 0.0 
0.0 0.0 -5.880972766440e+01 
-8.229666017690e+01 2.509636359069e+01 0.0 
2.509636359069e+01 -1.703719226113e+02 0.0 
0.0 0.0 -7.540057483646e+01 
-7.371856669255e+01 2.681927717633e+01 0.0 
2.681927717633e+01 -1.656186777496e+02 0.0 
0.0 0.0 -7.140117333264e+01 
-7.483141610611e+01 2.510426890353e+01 0.0 
2.510426890353e+01 -1.500268137336e+02 0.0 
0.0 0.0 -6.705746895191e+01 
-3.694112426779e+01 2.756713769413e+01 0.0 
2.756713769413e+01 -1.075263090014e+02 0.0 
0.0 0.0 -4.253265927911e+01 
-1.373100349901e+02 3.205057247627e+01 0.0 
3.205057247627e+01 -3.217234149769e+02 0.0 
0.0 0.0 -1.373100349901e+02 
-4.894910586629e+01 1.436440891651e+01 0.0 
1.436440891651e+01 -1.839405802211e+02 0.0 
0.0 0.0 -6.946690582622e+01 
-2.638873182178e+01 4.335341563719e+00 0.0 
4.335341563719e+00 -1.182215760888e+02 0.0 
0.0 0.0 -4.545274733025e+01 
-1.567134442248e+02 3.483365295809e+00 0.0 
3.483365295809e+00 -3.764687039193e+02 0.0 
0.0 0.0 -1.595546444432e+02 
-1.414939963105e+01 -3.662737341881e+00 0.0 
-3.662737341881e+00 -2.648224336985e+01 0.0 
0.0 0.0 -1.178949290027e+01 
-5.584049159379e+01 2.240245781257e+01 0.0 
2.240245781257e+01 -8.950964101144e+01 0.0 
0.0 0.0 -4.320503978157e+01 
-3.462613556138e+01 -2.318340650441e+01 0.0 
-2.318340650441e+01 -9.826020970416e+01 0.0 
0.0 0.0 -4.064080744747e+01 
-5.758147633625e+01 1.338123811162e+01 0.0 
1.338123811162e+01 -7.912694813554e+01 0.0 
0.0 0.0 -4.061252734154e+01 
-1.560016539421e+02 2.026318439537e+01 0.0 
2.026318439537e+01 -3.771634689301e+02 0.0 
0.0 0.0 -1.595495368616e+02 
-1.440384929028e+02 3.141201302454e+01 0.0 
3.141201302454e+01 -3.374231501065e+02 0.0 
0.0 0.0 -1.440384929028e+02 
-7.871258662213e+01 1.973336847610e+01 0.0 
1.973336847610e+01 -1.399822618016e+02 0.0 
0.0 0.0 -6.520845452712e+01 
-3.398419698604e+01 -2.390632518677e+01 0.0 
-2.390632518677e+01 -6.694534993803e+01 0.0 
0.0 0.0 -3.038207608410e+01 
-3.006022718685e+01 9.576530786370e+00 0.0 
9.576530786370e+00 -1.239500478608e+02 0.0 
0.0 0.0 -4.854579848101e+01 
-4.393187819390e+01 -2.580024427525e+01 0.0 
-2.580024427525e+01 -8.775961815427e+01 0.0 
0.0 0.0 -3.788747127788e+01 
-1.329075822595e+02 4.299477488522e+00 0.0 
4.299477488522e+00 -3.338350666658e+02 0.0 
0.0 0.0 -1.396227946776e+02 
-5.845385292868e+01 3.948699745003e+00 0.0 
3.948699745003e+00 -8.767252299893e+01 0.0 
0.0 0.0 -4.343791277828e+01 
-7.047145022660e+01 1.291005127262e+01 0.0 
1.291005127262e+01 -1.045029009693e+02 0.0 
0.0 0.0 -5.209230535876e+01 
-1.501836566066e+02 2.953319165362e+01 0.0 
2.953319165362e+01 -3.517618654153e+02 0.0 
0.0 0.0 -1.501836566066e+02 
-5.661105397565e+01 3.209501849820e+00 0.0 
3.209501849820e+00 -8.683823205502e+01 0.0 
0.0 0.0 -4.263478580920e+01 
-1.182974578553e+02 1.991606386966e+01 0.0 
1.991606386966e+01 -2.674131983808e+02 0.0 
0.0 0.0 -1.153131968708e+02 
-9.930287989410e+01 2.543528312536e+01 0.0 
2.543528312536e+01 -2.524053874530e+02 0.0 
0.0 0.0 -1.051124802041e+02 
-6.853708311754e+01 3.247599837920e+00 0.0 
3.247599837920e+00 -1.182851415456e+02 0.0 
0.0 0.0 -5.564666739895e+01 
-3.916394040941e+01 2.772219638477e+01 0.0 
2.772219638477e+01 -8.503274931161e+01 0.0 
0.0 0.0 -3.685900691631e+01 
-8.937052633202e+01 1.670585832417e+01 0.0 
1.670585832417e+01 -2.654760539000e+02 0.0 
0.0 0.0 -1.060539740696e+02 
-2.817221312914e+01 1.920283851857e+01 0.0 
1.920283851857e+01 -1.092183905990e+02 0.0 
0.0 0.0 -4.093128660645e+01 
-1.553292655124e+02 2.645892472975e+01 0.0 
2.645892472975e+01 -3.637682861956e+02 0.0 
0.0 0.0 -1.553292655124e+02 
-1.191823254622e+02 2.564707557846e+01 0.0 
2.564707557846e+01 -2.794254260786e+02 0.0 
0.0 0.0 -1.191823254622e+02 
-1.150952218583e+02 2.205134051095e+01 0.0 
2.205134051095e+01 -2.698888510026e+02 0.0 
0.0 0.0 -1.150952218583e+02 
-9.462203684723e+01 -3.276249001343e-01 0.0 
-3.276249001343e-01 -2.632405516288e+02 0.0 
0.0 0.0 -1.069587765428e+02 
-7.093402242895e+01 -3.976051266593e+00 0.0 
-3.976051266593e+00 -1.785740934478e+02 0.0 
0.0 0.0 -7.445243476302e+01 
-5.928087502834e+01 2.795444776142e+01 0.0 
2.795444776142e+01 -1.608639516500e+02 0.0 
0.0 0.0 -6.564344800351e+01 
-9.643231494833e+01 -1.174034216079e+00 0.0 
-1.174034216079e+00 -2.689919294035e+02 0.0 
0.0 0.0 -1.092272733055e+02 
-1.594436776988e+02 2.278113124343e+01 0.0 
2.278113124343e+01 -3.733685812971e+02 0.0 
0.0 0.0 -1.594436776988e+02 
-3.469537144913e+01 2.395571950901e+01 0.0 
2.395571950901e+01 -1.223676183942e+02 0.0 
0.0 0.0 -4.671889695299e+01 
-4.092656760381e+01 -5.263483886760e+00 0.0 
-5.263483886760e+00 -1.688275361693e+02 0.0 
0.0 0.0 -6.252623113194e+01 
-4.555407173061e+01 -7.551114653955e+00 0.0 
-7.551114653955e+00 -1.731950518346e+02 0.0 
0.0 0.0 -6.522473706955e+01 
-7.205636617333e+01 3.450396141017e+00 0.0 
3.450396141017e+00 -1.290528022360e+02 0.0 
0.0 0.0 -5.993275052280e+01 
-1.603857238873e+02 1.384129681605e+01 0.0 
1.384129681605e+01 -3.857545520947e+02 0.0 
0.0 0.0 -1.634420827946e+02 
-4.578153367614e+01 -2.343528846873e+01 0.0 
-2.343528846873e+01 -6.212527302835e+01 0.0 
0.0 0.0 -3.090065940762e+01 
-1.629454161202e+02 1.839066456093e+01 0.0 
1.839066456093e+01 -3.815393042804e+02 0.0 
0.0 0.0 -1.629454161202e+02 
-4.454353029298e+01 -1.137151201054e+01 0.0 
-1.137151201054e+01 -1.605807042093e+02 0.0 
0.0 0.0 -6.113727035068e+01 
-1.279877814368e+02 3.038344875946e+01 0.0 
3.038344875946e+01 -2.999714900191e+02 0.0 
0.0 0.0 -1.279877814368e+02 
-1.117202569126e+02 2.568224160449e+01 0.0 
2.568224160449e+01 -2.339088187427e+02 0.0 
0.0 0.0 -1.032887226966e+02 
-7.674979717402e+00 -5.710794050179e-01 0.0 
-5.710794050179e-01 -7.118156897653e+00 0.0 
0.0 0.0 -1.777020428134e+00 
-5.671861317516e+01 2.634570559476e+01 0.0 
2.634570559476e+01 -1.600339516312e+02 0.0 
0.0 0.0 -6.462576944191e+01 
-1.026449266313e+02 1.460949893629e+01 0.0 
1.460949893629e+01 -2.043945766594e+02 0.0 
0.0 0.0 -9.171185098722e+01 
-1.341421531761e+02 3.185862299560e+01 0.0 
3.185862299560e+01 -3.143316907443e+02 0.0 
0.0 0.0 -1.341421531761e+02 
-8.687622486233e+01 2.406896980620e+01 0.0 
2.406896980620e+01 -1.624258084784e+02 0.0 
0.0 0.0 -7.439061000221e+01 
-1.032739918646e+02 2.466687246289e+01 0.0 
2.466687246289e+01 -2.674116265557e+02 0.0 
0.0 0.0 -1.108056855261e+02 
-3.824862614075e+01 3.055917151586e+01 0.0 
3.055917151586e+01 -9.400715747523e+01 0.0 
0.0 0.0 -3.906640195271e+01 
-1.410579695196e+02 1.600162401396e+01 0.0 
1.600162401396e+01 -3.524111909374e+02 0.0 
0.0 0.0 -1.476407481371e+02 
-4.941625613674e+01 -1.163486380738e+01 0.0 
-1.163486380738e+01 -1.648947860468e+02 0.0 
0.0 0.0 -6.389331265508e+01 
-5.126640637010e+01 -9.122330503470e+00 0.0 
-9.122330503470e+00 -1.753220454755e+02 0.0 
0.0 0.0 -6.757653555367e+01 
-4.948684788997e+01 -2.541688881736e+01 0.0 
-2.541688881736e+01 -4.870488871814e+01 0.0 
0.0 0.0 -2.856492062213e+01 
-1.406495193200e+02 3.189163222394e+01 0.0 
3.189163222394e+01 -3.295155450800e+02 0.0 
0.0 0.0 -1.406495193200e+02 
-2.967462127052e+01 1.772280637368e+01 0.0 
1.772280637368e+01 -1.247430381534e+02 0.0 
0.0 0.0 -4.576701432116e+01 
-1.250750121041e+02 9.557441428509e+00 0.0 
9.557441428509e+00 -3.287464207954e+02 0.0 
0.0 0.0 -1.357464298698e+02 
-6.593623272201e+01 4.360579147155e+00 0.0 
4.360579147155e+00 -1.088719355240e+02 0.0 
0.0 0.0 -5.204245047380e+01 
-5.191309037116e+01 -1.263986402570e+01 0.0 
-1.263986402570e+01 -1.384671406134e+02 0.0 
0.0 0.0 -5.671406929537e+01 
-4.621014059182e+01 -7.799449591744e+00 0.0 
-7.799449591744e+00 -1.705457677129e+02 0.0 
0.0 0.0 -6.462677249142e+01 
-8.278649956658e+01 2.554908518304e+01 0.0 
2.554908518304e+01 -1.574767257919e+02 0.0 
0.0 0.0 -7.167896760754e+01 
-1.528839629344e+02 2.816773770485e+01 0.0 
2.816773770485e+01 -3.580625801803e+02 0.0 
0.0 0.0 -1.528839629344e+02 
-7.328776768724e+01 -5.079982092601e+00 0.0 
-5.079982092601e+00 -1.857346155384e+02 0.0 
0.0 0.0 -7.730671496770e+01 
-1.068151647255e+02 3.497359702712e+00 0.0 
3.497359702712e+00 -2.917209306177e+02 0.0 
0.0 0.0 -1.191608286030e+02 
-7.228906550935e+01 2.684053704590e+01 0.0 
2.684053704590e+01 -1.810875830413e+02 0.0 
0.0 0.0 -7.561299456518e+01 
-8.947854088478e+01 5.135873980888e+00 0.0 
5.135873980888e+00 -2.663783520283e+02 0.0 
0.0 0.0 -1.063570678739e+02 
-4.671231429167e+01 -2.969363438778e+00 0.0 
-2.969363438778e+00 -1.792863456782e+02 0.0 
0.0 0.0 -6.739959799097e+01 
-9.772244912666e+01 1.625319143406e+00 0.0 
1.625319143406e+00 -2.735914762458e+02 0.0 
0.0 0.0 -1.109941776117e+02 
-6.787907185299e+01 2.895628253103e+01 0.0 
2.895628253103e+01 -1.636346853811e+02 0.0 
0.0 0.0 -6.905412717023e+01 
-9.582764890108e+01 2.833938592361e+01 0.0 
2.833938592361e+01 -2.237977288561e+02 0.0 
0.0 0.0 -9.548761332715e+01 
-9.891428804169e+01 1.728916638938e+01 0.0 
1.728916638938e+01 -2.826379058482e+02 0.0 
0.0 0.0 -1.140656581670e+02 
-6.784573714563e+01 2.652893028153e+01 0.0 
2.652893028153e+01 -1.794795599081e+02 0.0 
0.0 0.0 -7.379758911612e+01 
-7.175226471606e+01 -7.591315097873e+00 0.0 
-7.591315097873e+00 -1.946653382092e+02 0.0 
0.0 0.0 -7.952528087759e+01 
-3.777873413051e+01 2.557932529306e+01 0.0 
2.557932529306e+01 -1.219251013317e+02 0.0 
0.0 0.0 -4.751115063867e+01 
-6.946025941663e+01 -6.113194099583e+00 0.0 
-6.113194099583e+00 -1.774900147729e+02 0.0 
0.0 0.0 -7.368508225685e+01 
-9.884077194662e+01 2.684065837394e+01 0.0 
2.684065837394e+01 -2.525641482633e+02 0.0 
0.0 0.0 -1.050214760630e+02 
-7.596575375651e+01 1.360065470642e+01 0.0 
1.360065470642e+01 -2.435480502610e+02 0.0 
0.0 0.0 -9.545414120526e+01 
-1.575617395670e+02 1.817055928357e+01 0.0 
1.817055928357e+01 -3.805315197831e+02 0.0 
0.0 0.0 -1.610279778050e+02 
-1.065676495215e+02 1.678744564309e+01 0.0 
1.678744564309e+01 -2.159850368629e+02 0.0 
0.0 0.0 -9.636580591532e+01 
-4.666662847150e+01 -1.358964673158e+01 0.0 
-1.358964673158e+01 -1.219484749886e+02 0.0 
0.0 0.0 -5.018453103802e+01 
-1.614301849491e+02 2.049811889973e+01 0.0 
2.049811889973e+01 -3.780037648813e+02 0.0 
0.0 0.0 -1.614301849491e+02 
-1.461477107888e+02 1.801631683708e+01 0.0 
1.801631683708e+01 -3.643111715223e+02 0.0 
0.0 0.0 -1.527376646933e+02 
-6.195963225626e+01 2.294810955450e+01 0.0 
2.294810955450e+01 -1.918439866258e+02 0.0 
0.0 0.0 -7.574108566462e+01 
-3.101731326936e+01 -1.623176232817e+01 0.0 
-1.623176232817e+01 -3.132725163695e+01 0.0 
0.0 0.0 -1.857779957599e+01 
-1.611932470978e+02 1.188521984054e+01 0.0 
1.188521984054e+01 -3.874136507929e+02 0.0 
0.0 0.0 -1.641820693672e+02 
-1.082796909717e+02 1.968331250908e+01 0.0 
1.968331250908e+01 -2.197770928434e+02 0.0 
0.0 0.0 -9.801703514453e+01 
-4.417762057303e+01 -1.420159118806e+01 0.0 
-1.420159118806e+01 -1.465070807384e+02 0.0 
0.0 0.0 -5.680541039344e+01 
-1.653422460418e+02 1.434175569850e+01 0.0 
1.434175569850e+01 -3.871319074309e+02 0.0 
0.0 0.0 -1.653422460418e+02 
-1.033141811853e+02 1.539491640007e+00 0.0 
1.539491640007e+00 -2.815412667748e+02 0.0 
0.0 0.0 -1.150566343880e+02 
-5.205231929940e+01 2.701954975560e+01 0.0 
2.701954975560e+01 -1.066028816171e+02 0.0 
0.0 0.0 -4.719656027494e+01 
-7.264230973254e+01 1.201339088671e+01 0.0 
1.201339088671e+01 -1.158551186036e+02 0.0 
0.0 0.0 -5.614922850083e+01 
-7.212029156267e+01 1.537903027139e+01 0.0 
1.537903027139e+01 -2.320524190602e+02 0.0 
0.0 0.0 -9.085181318687e+01 
-8.641427272907e+01 -2.290627925219e+00 0.0 
-2.290627925219e+00 -2.449283365112e+02 0.0 
0.0 0.0 -9.900278277207e+01 
-9.293306418702e+01 7.992574767618e+00 0.0 
7.992574767618e+00 -2.745291993005e+02 0.0 
0.0 0.0 -1.098386790463e+02 
-8.932439903002e+01 1.514358439791e+01 0.0 
1.514358439791e+01 -1.559877647121e+02 0.0 
0.0 0.0 -7.319364912263e+01 
-5.980342619811e+01 2.476965557130e+01 0.0 
2.476965557130e+01 -1.088499461021e+02 0.0 
0.0 0.0 -5.019601169007e+01 
-1.036654834440e+02 1.943897352353e+01 0.0 
1.943897352353e+01 -2.877066103282e+02 0.0 
0.0 0.0 -1.170116281317e+02 
-6.330876658232e+01 7.010108577547e-01 0.0 
7.010108577547e-01 -1.176381130553e+02 0.0 
0.0 0.0 -5.388406389128e+01 
-7.467869500092e+01 -5.848815031248e+00 0.0 
-5.848815031248e+00 -1.962807184896e+02 0.0 
0.0 0.0 -8.088782404716e+01 
-9.417944938192e+01 1.493182218345e+01 0.0 
1.493182218345e+01 -2.770779879759e+02 0.0 
0.0 0.0 -1.109772312073e+02 
-5.515676566985e+01 -1.167477769233e+01 0.0 
-1.167477769233e+01 -1.673287651026e+02 0.0 
0.0 0.0 -6.634565923174e+01 
-1.047465547171e+02 -2.378420732111e+00 0.0 
-2.378420732111e+00 -2.686209944153e+02 0.0 
0.0 0.0 -1.116102647397e+02 
-9.971027228472e+00 -1.314553202535e+00 0.0 
-1.314553202535e+00 -8.884722787691e+00 0.0 
0.0 0.0 -5.256725004849e+00 
-4.087216941477e+01 2.688591843641e+01 0.0 
2.688591843641e+01 -1.220820532128e+02 0.0 
0.0 0.0 -4.848626678828e+01 
-5.084022020707e+01 -1.222571099951e+01 0.0 
-1.222571099951e+01 -1.630798830885e+02 0.0 
0.0 0.0 -6.377603098869e+01 
-8.045494709147e+01 -5.555491835681e+00 0.0 
-5.555491835681e+00 -2.099387771283e+02 0.0 
0.0 0.0 -8.671811726592e+01 
-6.629907704256e+01 2.434306797969e+01 0.0 
2.434306797969e+01 -1.938095929105e+02 0.0 
0.0 0.0 -7.763260098591e+01 
-9.989546040675e+01 6.485131705267e-01 0.0 
6.485131705267e-01 -2.799032980154e+02 0.0 
0.0 0.0 -1.135396275267e+02 
-7.016441191919e+01 4.271114048994e+00 0.0 
4.271114048994e+00 -1.210282416859e+02 0.0 
0.0 0.0 -5.695779608154e+01 
-5.030756408634e+01 -1.410761404916e+01 0.0 
-1.410761404916e+01 -1.491248237422e+02 0.0 
0.0 0.0 -5.942971634858e+01 
-1.661297675098e+02 1.247390756278e+01 0.0 
1.247390756278e+01 -3.889694575228e+02 0.0 
0.0 0.0 -1.661297675098e+02 
-8.145926394022e+01 2.790104384609e+01 0.0 
2.790104384609e+01 -1.705661767597e+02 0.0 
0.0 0.0 -7.520763220998e+01 
-8.473853912574e+01 -4.653575312192e+00 0.0 
-4.653575312192e+00 -2.177500138803e+02 0.0 
0.0 0.0 -9.034656590181e+01 
-7.690279447033e+01 2.859159292271e+01 0.0 
2.859159292271e+01 -1.677055798127e+02 0.0 
0.0 0.0 -7.298251228491e+01 
-8.264405585794e+01 -3.679741758256e+00 0.0 
-3.679741758256e+00 -2.112668450571e+02 0.0 
0.0 0.0 -8.777327027451e+01 
-1.409434776140e+01 -1.013947886644e+00 0.0 
-1.013947886644e+00 -9.547049414374e+00 0.0 
0.0 0.0 -7.666665131981e+00 
-7.869229372197e+01 1.451073553757e+01 0.0 
1.451073553757e+01 -1.261090284871e+02 0.0 
0.0 0.0 -6.104039666273e+01 
-6.943230744989e+01 -2.545216475783e+00 0.0 
-2.545216475783e+00 -1.716518408847e+02 0.0 
0.0 0.0 -7.192524450039e+01 
-5.172337803472e-01 -2.829511004656e-01 0.0 
-2.829511004656e-01 -9.032241775100e+00 0.0 
0.0 0.0 -2.464306337679e+00 
-8.102277068784e+01 -4.565733918108e+00 0.0 
-4.565733918108e+00 -2.056949168100e+02 0.0 
0.0 0.0 -8.561530624936e+01 
-1.094365980428e+02 2.310478566244e+00 0.0 
2.310478566244e+00 -2.983202093163e+02 0.0 
0.0 0.0 -1.219270422077e+02 
-9.101021897826e+01 2.966776291355e+00 0.0 
2.966776291355e+00 -1.938975047214e+02 0.0 
0.0 0.0 -8.507231710991e+01 
-8.392255325563e+01 6.356984435896e+00 0.0 
6.356984435896e+00 -2.576222464505e+02 0.0 
0.0 0.0 -1.020634399118e+02 
-8.653928798234e+01 5.133309406441e+00 0.0 
5.133309406441e+00 -2.651358230885e+02 0.0 
0.0 0.0 -1.051025333213e+02 
-6.239741353772e+01 1.060623026528e+01 0.0 
1.060623026528e+01 -8.447048034992e+01 0.0 
0.0 0.0 -4.366036816629e+01 
-4.834895915102e+01 1.560133036268e+00 0.0 
1.560133036268e+00 -6.780183902910e+01 0.0 
0.0 0.0 -3.444523945403e+01 
-1.095840281435e+02 1.625573892053e+01 0.0 
1.625573892053e+01 -2.449360118238e+02 0.0 
0.0 0.0 -1.059560119902e+02 
-7.236450479088e+01 2.893240781553e+01 0.0 
2.893240781553e+01 -1.654368813128e+02 0.0 
0.0 0.0 -7.094041583111e+01 
-2.182175406490e+00 -3.027823333316e-01 0.0 
-3.027823333316e-01 -7.089777722896e+00 0.0 
0.0 0.0 -1.657553038656e+00 
-3.144148496607e+01 -5.649811734722e+00 0.0 
-5.649811734722e+00 -7.118233058805e+01 0.0 
0.0 0.0 -3.038714466624e+01 
-2.652975143593e+01 -9.654993520425e+00 0.0 
-9.654993520425e+00 -2.764677779031e+01 0.0 
0.0 0.0 -1.617455312662e+01 
-5.149265185236e+01 -9.908145312041e+00 0.0 
-9.908145312041e+00 -1.290600307724e+02 0.0 
0.0 0.0 -5.376580478743e+01 
-1.122578790860e+02 2.868493203621e+01 0.0 
2.868493203621e+01 -2.511409954489e+02 0.0 
0.0 0.0 -1.086196623605e+02 
-9.266411513947e+01 4.787361449856e+00 0.0 
4.787361449856e+00 -1.949132613545e+02 0.0 
0.0 0.0 -8.587321294819e+01 
-1.262799475329e+02 1.675902176107e+00 0.0 
1.675902176107e+00 -3.218592102753e+02 0.0 
0.0 0.0 -1.340417473425e+02 
-5.658430427880e+01 -6.758467907946e+00 0.0 
-6.758467907946e+00 -1.423393962114e+02 0.0 
0.0 0.0 -5.927711014707e+01 
-1.069272373974e+02 -7.586347127685e-01 0.0 
-7.586347127685e-01 -2.699175881177e+02 0.0 
0.0 0.0 -1.126534476545e+02 
-1.289176475471e+02 7.832642835662e+00 0.0 
7.832642835662e+00 -3.363460608852e+02 0.0 
0.0 0.0 -1.391791125297e+02 
-2.624288568738e+01 3.865783607663e+00 0.0 
3.865783607663e+00 -1.266138480657e+02 0.0 
0.0 0.0 -4.702269685513e+01 
-6.964519430724e+01 -1.457305161999e-01 0.0 
-1.457305161999e-01 -1.718047173494e+02 0.0 
0.0 0.0 -7.203497349698e+01 
-5.724543439839e+01 -1.782648962754e+00 0.0 
-1.782648962754e+00 -1.410015689344e+02 0.0 
0.0 0.0 -5.907410099984e+01 
-1.620213460273e+02 9.949290330691e+00 0.0 
9.949290330691e+00 -3.885365968309e+02 0.0 
0.0 0.0 -1.647673828575e+02 
-1.667170610018e+02 1.065489426581e+01 0.0 
1.065489426581e+01 -3.903398090041e+02 0.0 
0.0 0.0 -1.667170610018e+02 
-7.735784153862e+01 -3.328375239211e-01 0.0 
-3.328375239211e-01 -1.910510856901e+02 0.0 
0.0 0.0 -8.012267816863e+01 
-8.672741214188e+01 -2.741445234840e+00 0.0 
-2.741445234840e+00 -2.190108650071e+02 0.0 
0.0 0.0 -9.132148314470e+01 
-8.778185352200e+01 -2.953980402739e+00 0.0 
-2.953980402739e+00 -2.502961967277e+02 0.0 
0.0 0.0 -1.010234150749e+02 
-1.336408309840e+02 1.013956470419e+01 0.0 
1.013956470419e+01 -3.451627811557e+02 0.0 
0.0 0.0 -1.432410836419e+02 
-3.562600306599e+01 -7.613265215617e+00 0.0 
-7.613265215617e+00 -7.913783620946e+01 0.0 
0.0 0.0 -3.402915178263e+01 
-1.240515676239e+02 5.737118616942e+00 0.0 
5.737118616942e+00 -3.267934031764e+02 0.0 
0.0 0.0 -1.348534912401e+02 
-1.358974460226e+01 -1.341011948639e+00 0.0 
-1.341011948639e+00 -4.293944709208e+01 0.0 
0.0 0.0 -1.655875750830e+01 
-7.864580272541e+01 -3.448515858720e+00 0.0 
-3.448515858720e+00 -1.989186551246e+02 0.0 
0.0 0.0 -8.286933735499e+01 
-8.635539841071e+01 -3.631485686639e+00 0.0 
-3.631485686639e+00 -2.235621666948e+02 0.0 
0.0 0.0 -9.257526953167e+01 
-5.671573004608e+00 -5.504896927345e-01 0.0 
-5.504896927345e-01 -2.569001895873e+01 0.0 
0.0 0.0 -9.154299069266e+00 
-7.368375533961e+01 -1.773398429719e+00 0.0 
-1.773398429719e+00 -1.811802341689e+02 0.0 
0.0 0.0 -7.605919685256e+01 
-1.028070960500e+02 1.447098813790e+01 0.0 
1.447098813790e+01 -2.138190165982e+02 0.0 
0.0 0.0 -9.458783379446e+01 
-1.386356529448e+00 -2.906973318185e-01 0.0 
-2.906973318185e-01 -7.595610038626e+00 0.0 
0.0 0.0 -1.515226617750e+00 
-5.014118109566e+01 2.282386610448e+00 0.0 
2.282386610448e+00 -6.850852348295e+01 0.0 
0.0 0.0 -3.519491137358e+01 
-4.996350126032e+01 3.139550386018e+00 0.0 
3.139550386018e+00 -6.992109608224e+01 0.0 
0.0 0.0 -3.556537920277e+01 
-9.673401956073e+01 1.083709123016e+01 0.0 
1.083709123016e+01 -2.819506383193e+02 0.0 
0.0 0.0 -1.132053973640e+02 
-5.703551294964e+01 4.291623623894e-01 0.0 
4.291623623894e-01 -1.407951422326e+02 0.0 
0.0 0.0 -5.894919655467e+01 
-4.871864503099e+01 -1.350243963393e+01 0.0 
-1.350243963393e+01 -1.509971287484e+02 0.0 
0.0 0.0 -5.951473213382e+01 
-3.484747308708e+01 2.804887864248e+01 0.0 
2.804887864248e+01 -8.677273675737e+01 0.0 
0.0 0.0 -3.608606295333e+01 
-1.415385873348e+02 2.434901293893e+00 0.0 
2.434901293893e+00 -3.480965942731e+02 0.0 
0.0 0.0 -1.464905544824e+02 
-1.319357535745e+02 3.012331208707e+01 0.0 
3.012331208707e+01 -3.097564285142e+02 0.0 
0.0 0.0 -1.321076546266e+02 
-9.090075797039e+01 6.586470075590e+00 0.0 
6.586470075590e+00 -1.827216601530e+02 0.0 
0.0 0.0 -8.168672543703e+01 
-3.934648895086e+01 2.847839273489e+01 0.0 
2.847839273489e+01 -8.524625486094e+01 0.0 
0.0 0.0 -3.697782314354e+01 
-2.676159862140e+01 -6.402897889532e+00 0.0 
-6.402897889532e+00 -4.953051344208e+01 0.0 
0.0 0.0 -2.201056772962e+01 
-6.023510869479e+01 2.473009577508e+01 0.0 
2.473009577508e+01 -9.322699044015e+01 0.0 
0.0 0.0 -4.563862974048e+01 
-4.595397311184e+01 4.360028907076e-01 0.0 
4.360028907076e-01 -6.807679770239e+01 0.0 
0.0 0.0 -3.380923124427e+01 
-4.453173878295e+01 4.801943991422e-01 0.0 
4.801943991422e-01 -6.785303504652e+01 0.0 
0.0 0.0 -3.331543214884e+01 
6.191013498211e-03 -3.402412443395e-01 0.0 
-3.402412443395e-01 -9.223540419281e+00 0.0 
0.0 0.0 -2.379427597312e+00 
-6.132462730555e+00 -6.555609431321e-01 0.0 
-6.555609431321e-01 -2.554520550091e+01 0.0 
0.0 0.0 -9.390030508848e+00 
-1.313251245029e+01 -3.107968553846e-01 0.0 
-3.107968553846e-01 -4.217716802540e+01 0.0 
0.0 0.0 -1.619290414271e+01 
-4.487395654311e+01 -7.657772549621e+00 0.0 
-7.657772549621e+00 -1.079398006807e+02 0.0 
0.0 0.0 -4.544412716716e+01 
-5.777473406865e+00 -4.186621316021e-01 0.0 
-4.186621316021e-01 -2.572880950291e+01 0.0 
0.0 0.0 -8.458929180890e+00 
-8.137435881730e+01 -1.646847768809e+00 0.0 
-1.646847768809e+00 -2.014298898804e+02 0.0 
0.0 0.0 -8.444127460930e+01 
-4.850471953679e+01 -1.265276341220e+01 0.0 
-1.265276341220e+01 -6.031331082796e+01 0.0 
0.0 0.0 -3.321374447458e+01 
-5.176949368506e+01 -7.944378230762e+00 0.0 
-7.944378230762e+00 -1.285649693694e+02 0.0 
0.0 0.0 -5.370033891634e+01 
-6.939561898251e+01 6.730474128471e-01 0.0 
6.730474128471e-01 -1.346121902751e+02 0.0 
0.0 0.0 -6.080234277729e+01 
-4.692391976585e+01 1.284798137686e+00 0.0 
1.284798137686e+00 -6.822519472655e+01 0.0 
0.0 0.0 -3.414473434772e+01 
-1.158166265879e+02 2.858335395674e+01 0.0 
2.858335395674e+01 -2.553853154366e+02 0.0 
0.0 0.0 -1.109605826073e+02 
-1.055801821920e+02 4.931753888239e-01 0.0 
4.931753888239e-01 -2.876334280895e+02 0.0 
0.0 0.0 -1.175640830844e+02 
-6.226596065517e+01 2.337863855345e-01 0.0 
2.337863855345e-01 -1.168054808532e+02 0.0 
0.0 0.0 -5.332143245251e+01 
-6.105201266884e+01 -1.154747354502e+00 0.0 
-1.154747354502e+00 -1.505763835448e+02 0.0 
0.0 0.0 -6.308851886410e+01 
-1.247381228258e+01 -6.261301617796e-01 0.0 
-6.261301617796e-01 -4.270486690022e+01 0.0 
0.0 0.0 -1.615360375484e+01 
-1.076514216061e+02 8.276585771329e+00 0.0 
8.276585771329e+00 -2.525199837475e+02 0.0 
0.0 0.0 -1.076514216061e+02 
-1.118238589101e+02 9.132792561014e+00 0.0 
9.132792561014e+00 -2.546081791338e+02 0.0 
0.0 0.0 -1.095296114132e+02 
-6.345682776502e+01 1.801231571010e+00 0.0 
1.801231571010e+00 -1.075386282610e+02 0.0 
0.0 0.0 -5.089863680780e+01 
-4.643619534700e+01 6.620156043308e-01 0.0 
6.620156043308e-01 -6.771145935219e+01 0.0 
0.0 0.0 -3.384429640976e+01 
-6.199495244632e+01 -5.997815590772e-01 0.0 
-5.997815590772e-01 -1.527795670035e+02 0.0 
0.0 0.0 -6.403235583495e+01 
-1.107103651496e+02 6.422905553064e+00 0.0 
6.422905553064e+00 -2.530254489914e+02 0.0 
0.0 0.0 -1.087207442423e+02 
-4.923755618462e+01 -6.741844560631e+00 0.0 
-6.741844560631e+00 -1.213279291887e+02 0.0 
0.0 0.0 -5.076964561199e+01 
-4.823239633174e+01 2.064154797196e+00 0.0 
2.064154797196e+00 -6.874299901035e+01 0.0 
0.0 0.0 -3.469261860263e+01 
-4.770061623225e+01 9.993013320351e-01 0.0 
9.993013320351e-01 -6.772296440684e+01 0.0 
0.0 0.0 -3.422707419173e+01 
-5.435418173034e+01 1.593696696257e+01 0.0 
1.593696696257e+01 -7.336730279185e+01 0.0 
0.0 0.0 -3.791644535666e+01 
-1.125078051429e+02 1.837620006674e+01 0.0 
1.837620006674e+01 -2.638515453334e+02 0.0 
0.0 0.0 -1.125078051429e+02 
-1.121422873207e+02 7.615324207394e+00 0.0 
7.615324207394e+00 -2.542943605791e+02 0.0 
0.0 0.0 -1.095309943700e+02 
-6.034430625583e+00 -5.443381294402e-01 0.0 
-5.443381294402e-01 -2.552793790576e+01 0.0 
0.0 0.0 -8.500486737634e+00 
2.552324935727e-01 -2.887326495615e-01 0.0 
-2.887326495615e-01 -9.277816000483e+00 0.0 
0.0 0.0 -2.199865045935e+00 
-2.809681933145e+01 -5.908493361579e+00 0.0 
-5.908493361579e+00 -5.894609697840e+01 0.0 
0.0 0.0 -2.570030509753e+01 
-8.373182552226e+01 -5.374231116258e+00 0.0 
-5.374231116258e+00 -2.220783943025e+02 0.0 
0.0 0.0 -9.134306594743e+01 
-1.514817877117e+02 -6.953674118939e-01 0.0 
-6.953674118939e-01 -3.597700708416e+02 0.0 
0.0 0.0 -1.529755575660e+02 
-8.748807397017e+01 -2.260306202417e+01 0.0 
-2.260306202417e+01 -7.747346572730e+01 0.0 
0.0 0.0 -4.976450374364e+01 
-8.490573675155e+01 1.464762322435e+00 0.0 
1.464762322435e+00 -1.777823490172e+02 0.0 
0.0 0.0 -7.840642573062e+01 
-3.106188262578e+01 -9.900549854875e+00 0.0 
-9.900549854875e+00 -1.060657694042e+01 0.0 
0.0 0.0 -1.308148791060e+01 
-9.589909469447e+01 6.622628722452e+00 0.0 
6.622628722452e+00 -2.823680287219e+02 0.0 
0.0 0.0 -1.130801370249e+02 
-1.755085731904e+01 -4.754669876515e+00 0.0 
-4.754669876515e+00 -1.214551460320e+01 0.0 
0.0 0.0 -7.893859218104e+00 
-4.455293013622e+01 -2.345805295084e+01 0.0 
-2.345805295084e+01 -3.566899072603e+01 0.0 
0.0 0.0 -2.405383663270e+01 
-9.197031057099e+01 3.977294688370e+00 0.0 
3.977294688370e+00 -2.733993255161e+02 0.0 
0.0 0.0 -1.092108908261e+02 
-1.462440345421e+02 1.765227862283e-01 0.0 
1.765227862283e-01 -3.504831809190e+02 0.0 
0.0 0.0 -1.486181646383e+02 
-6.957817408505e+01 1.127597933870e+00 0.0 
1.127597933870e+00 -1.336077982725e+02 0.0 
0.0 0.0 -6.055579170728e+01 
-6.347084380514e+01 2.683578313172e+01 0.0 
2.683578313172e+01 -1.114718313604e+02 0.0 
0.0 0.0 -5.208280254965e+01 
-5.174953023357e+00 -3.075947767563e-01 0.0 
-3.075947767563e-01 -2.568304691381e+01 0.0 
0.0 0.0 -8.972230256937e+00 
-1.112972886207e+02 -2.623762633957e-01 0.0 
-2.623762633957e-01 -2.775775918626e+02 0.0 
0.0 0.0 -1.162624641450e+02 
-1.064075052621e+02 2.587282929736e+00 0.0 
2.587282929736e+00 -2.496175122783e+02 0.0 
0.0 0.0 -1.064075052621e+02 
-1.097131422599e+02 3.520333583007e+00 0.0 
3.520333583007e+00 -2.517340618081e+02 0.0 
0.0 0.0 -1.080341612204e+02 
-4.591436762215e+01 7.969773850750e-01 0.0 
7.969773850750e-01 -6.791350168736e+01 0.0 
0.0 0.0 -3.374836079285e+01 
-1.001543171745e+02 9.265030961407e+00 0.0 
9.265030961407e+00 -2.906616035078e+02 0.0 
0.0 0.0 -1.168447762047e+02 
-1.074883285154e+02 6.721000665810e+00 0.0 
6.721000665810e+00 -2.521394332026e+02 0.0 
0.0 0.0 -1.074883285154e+02 
-1.034045321417e+02 2.601555405894e+01 0.0 
2.601555405894e+01 -2.677474512357e+02 0.0 
0.0 0.0 -1.109455950132e+02 
-1.167679415565e+01 -5.389874748353e-01 0.0 
-5.389874748353e-01 -4.158122195333e+01 0.0 
0.0 0.0 -1.557740483269e+01 
-5.420228578301e+00 -3.039988261617e-01 0.0 
-3.039988261617e-01 -2.548859555085e+01 0.0 
0.0 0.0 -8.263873832211e+00 
-4.599680883521e+00 1.308946834799e-02 0.0 
1.308946834799e-02 -2.514372537874e+01 0.0 
0.0 0.0 -8.523021878677e+00 
-6.944611044082e+01 -1.106960659273e+00 0.0 
-1.106960659273e+00 -1.709322560932e+02 0.0 
0.0 0.0 -7.171350996020e+01 
-1.656699655012e+02 1.632763963269e+00 0.0 
1.632763963269e+00 -3.904658596037e+02 0.0 
0.0 0.0 -1.664407475315e+02 
-1.018427303997e+02 1.097846990795e+00 0.0 
1.097846990795e+00 -2.290836096715e+02 0.0 
0.0 0.0 -9.887790202137e+01 
9.374808925986e-01 -5.101984169470e-02 0.0 
-5.101984169470e-02 -9.227643491762e+00 0.0 
0.0 0.0 -1.920904192587e+00 
-8.181782959640e+01 4.118108896153e-01 0.0 
4.118108896153e-01 -2.016241900602e+02 0.0 
0.0 0.0 -8.463260589698e+01 
-1.674567374449e+02 9.440333736270e-01 0.0 
9.440333736270e-01 -3.920657207048e+02 0.0 
0.0 0.0 -1.674567374449e+02 
-1.651447098985e+02 1.415025334868e+00 0.0 
1.415025334868e+00 -3.900930029688e+02 0.0 
0.0 0.0 -1.661713138602e+02 
-1.624751477531e+02 8.405097174952e+00 0.0 
8.405097174952e+00 -3.891342555929e+02 0.0 
0.0 0.0 -1.650828210038e+02 
-7.765369469102e+01 -5.137192672518e-01 0.0 
-5.137192672518e-01 -1.578683495839e+02 0.0 
0.0 0.0 -7.025661328248e+01 
-8.856424983946e+01 9.621184881083e-01 0.0 
9.621184881083e-01 -1.882297442784e+02 0.0 
0.0 0.0 -8.263819823536e+01 
-1.667286988593e+02 1.386943274385e+00 0.0 
1.386943274385e+00 -3.903669640050e+02 0.0 
0.0 0.0 -1.667286988593e+02 
-1.671629950429e+02 1.967410056836e+00 0.0 
1.967410056836e+00 -3.913803217668e+02 0.0 
0.0 0.0 -1.671629950429e+02 
-8.491633685465e+01 -2.400726265153e-01 0.0 
-2.400726265153e-01 -1.778728037768e+02 0.0 
0.0 0.0 -7.843674218944e+01 
1.206670770770e-02 -3.470559087143e-01 0.0 
-3.470559087143e-01 -6.681659259086e+00 0.0 
0.0 0.0 -8.967268245037e-01 
-4.339070182539e+01 1.427456035962e-01 0.0 
1.427456035962e-01 -6.691462387663e+01 0.0 
0.0 0.0 -3.269159771061e+01 
-4.516312527054e+01 4.086520100629e-01 0.0 
4.086520100629e-01 -6.793700192669e+01 0.0 
0.0 0.0 -3.353003815917e+01 
6.363898900719e-01 -1.683242869215e-01 0.0 
-1.683242869215e-01 -9.246160184650e+00 0.0 
0.0 0.0 -2.064354810516e+00 
-1.676592250685e+02 4.059383395379e+00 0.0 
4.059383395379e+00 -3.925381918265e+02 0.0 
0.0 0.0 -1.676592250685e+02 
-1.627774620523e+02 6.787222594753e+00 0.0 
6.787222594753e+00 -3.893438405758e+02 0.0 
0.0 0.0 -1.652363907884e+02 
-1.670295628671e+02 6.172751413423e+00 0.0 
6.172751413423e+00 -3.910689800232e+02 0.0 
0.0 0.0 -1.670295628671e+02 
-3.110782626345e-01 -1.207225266593e-01 0.0 
-1.207225266593e-01 -7.768735651113e+00 0.0 
0.0 0.0 -1.230123599760e+00 
-7.274632634157e-01 -2.716507690820e-01 0.0 
-2.716507690820e-01 -7.857881626400e+00 0.0 
0.0 0.0 -1.361864504490e+00 
-1.669321847015e+02 9.035017579063e+00 0.0 
9.035017579063e+00 -3.908417643034e+02 0.0 
0.0 0.0 -1.669321847015e+02 
-1.671364618684e+02 7.589656009839e+00 0.0 
7.589656009839e+00 -3.913184110263e+02 0.0 
0.0 0.0 -1.671364618684e+02 
-7.382769677758e+01 9.802059607415e-01 0.0 
9.802059607415e-01 -1.478336664976e+02 0.0 
0.0 0.0 -6.609840898254e+01 
-4.246164317992e+01 -9.595094061791e-02 0.0 
-9.595094061791e-02 -6.656959827784e+01 0.0 
0.0 0.0 -3.230937243733e+01 
-8.151304515147e+01 9.888483584642e-01 0.0 
9.888483584642e-01 -1.679782462782e+02 0.0 
0.0 0.0 -7.444738742889e+01 
-5.862094905200e+01 9.041459339615e-01 0.0 
9.041459339615e-01 -1.080667034892e+02 0.0 
0.0 0.0 -4.960629576237e+01 
-4.249949655896e+01 -7.717020702439e-02 0.0 
-7.717020702439e-02 -6.674566923364e+01 0.0 
0.0 0.0 -3.237354973778e+01 
-2.999659560797e+00 -3.960675083429e-01 0.0 
-3.960675083429e-01 -7.256680083319e+00 0.0 
0.0 0.0 -1.927536257492e+00 
-4.187049306024e+00 3.359902116855e-02 0.0 
3.359902116855e-02 -7.896967273926e+00 0.0 
0.0 0.0 -2.310675561585e+00 
-4.802316326806e+00 -1.745444437219e-01 0.0 
-1.745444437219e-01 -7.740665211476e+00 0.0 
0.0 0.0 -2.561012492259e+00 
-6.085560799189e+00 -4.425723986523e-01 0.0 
-4.425723986523e-01 -7.678058542996e+00 0.0 
0.0 0.0 -2.051182534385e+00 
-8.590991877420e+01 -1.203111928134e+00 0.0 
-1.203111928134e+00 -2.119002115714e+02 0.0 
0.0 0.0 -8.894303910369e+01 
-7.770445296622e+01 -1.118617635670e+00 0.0 
-1.118617635670e+00 -1.913332089900e+02 0.0 
0.0 0.0 -8.031129858687e+01 
-3.503918779480e+00 -4.626838928697e-01 0.0 
-4.626838928697e-01 -9.321290002787e+00 0.0 
0.0 0.0 -4.424590105615e+00 
-1.111626360212e+02 -1.030348855317e+00 0.0 
-1.030348855317e+00 -2.714472348329e+02 0.0 
0.0 0.0 -1.143829612562e+02 
-5.390758640189e+00 -7.878761659935e-01 0.0 
-7.878761659935e-01 -9.379912094427e+00 0.0 
0.0 0.0 -5.003040393158e+00 
-1.099659724724e+02 1.448276755072e+01 0.0 
1.448276755072e+01 -2.579206024356e+02 0.0 
0.0 0.0 -1.099659724724e+02 
-1.069768547362e+02 5.559282478268e+00 0.0 
5.559282478268e+00 -2.509459943845e+02 0.0 
0.0 0.0 -1.069768547362e+02 
-1.079777637291e+02 9.682917647494e+00 0.0 
9.682917647494e+00 -2.532814487013e+02 0.0 
0.0 0.0 -1.079777637291e+02 
-2.549394998318e+01 -1.274451165396e+00 0.0 
-1.274451165396e+00 -6.917551519925e+01 0.0 
0.0 0.0 -2.800083955473e+01 
-5.265230393738e+01 -1.167334009390e+00 0.0 
-1.167334009390e+00 -1.301868419060e+02 0.0 
0.0 0.0 -5.445174375300e+01 
-1.065931976313e+02 4.436408288901e+00 0.0 
4.436408288901e+00 -2.500507944730e+02 0.0 
0.0 0.0 -1.065931976313e+02 
-1.380193323936e+02 -7.910106764950e-01 0.0 
-7.910106764950e-01 -3.310683570705e+02 0.0 
0.0 0.0 -1.403263068392e+02 
-1.074088693716e+02 3.560004468950e+00 0.0 
3.560004468950e+00 -2.519540285338e+02 0.0 
0.0 0.0 -1.074088693716e+02 
-1.471706323712e+02 -8.074017072283e-01 0.0 
-8.074017072283e-01 -3.506554156355e+02 0.0 
0.0 0.0 -1.489478144020e+02 
-1.565068868472e+02 -8.818925712170e-01 0.0 
-8.818925712170e-01 -3.701696475943e+02 0.0 
0.0 0.0 -1.576029603325e+02 
-7.357752427489e+01 4.502505861272e-01 0.0 
4.502505861272e-01 -1.811358890265e+02 0.0 
0.0 0.0 -7.601402399042e+01 
-1.102391397898e+02 5.197898115400e+00 0.0 
5.197898115400e+00 -2.519622591933e+02 0.0 
0.0 0.0 -1.082604196949e+02 
-1.096038468330e+02 3.625585232220e+00 0.0 
3.625585232220e+00 -2.519293815621e+02 0.0 
0.0 0.0 -1.080599685185e+02 
-1.422429910547e+02 1.011876209653e+00 0.0 
1.011876209653e+00 -3.399604916036e+02 0.0 
0.0 0.0 -1.442610447975e+02 
-1.516694312838e+02 1.063189721803e+00 0.0 
1.063189721803e+00 -3.599926168076e+02 0.0 
0.0 0.0 -1.530986144274e+02 
-1.198833171628e+02 4.396326444518e-01 0.0 
4.396326444518e-01 -2.933289087568e+02 0.0 
0.0 0.0 -1.235636677759e+02 
-2.136611076686e+01 -3.506146974102e+00 0.0 
-3.506146974102e+00 -9.416365358484e+00 0.0 
0.0 0.0 -9.811219020483e+00 
-7.430344919201e+01 -2.978718475685e+00 0.0 
-2.978718475685e+00 -1.865904203290e+02 0.0 
0.0 0.0 -7.786816085632e+01 
-6.251942077828e+00 -5.042908613039e-01 0.0 
-5.042908613039e-01 -2.507376327259e+01 0.0 
0.0 0.0 -8.484210365622e+00 
-1.428599134641e+02 3.693765549020e+00 0.0 
3.693765549020e+00 -3.488422736892e+02 0.0 
0.0 0.0 -1.471106561460e+02 
-7.699527806894e+01 -5.450509524080e+00 0.0 
-5.450509524080e+00 -1.977849028024e+02 0.0 
0.0 0.0 -8.203405426140e+01 
-1.323292556080e+02 -1.853852900363e-01 0.0 
-1.853852900363e-01 -3.231978935655e+02 0.0 
0.0 0.0 -1.362581447521e+02 
-4.155913361633e+01 -6.138703808953e+00 0.0 
-6.138703808953e+00 -1.001039109751e+02 0.0 
0.0 0.0 -4.209891337743e+01 
-1.609859806452e+01 -2.346692702801e+00 0.0 
-2.346692702801e+00 -4.159484713500e+01 0.0 
0.0 0.0 -1.690803355985e+01 
-1.424705223709e+02 1.810663876133e+00 0.0 
1.810663876133e+00 -3.428913534921e+02 0.0 
0.0 0.0 -1.452085627589e+02 
-8.271010776630e+01 -2.494196866036e+00 0.0 
-2.494196866036e+00 -2.068856444953e+02 0.0 
0.0 0.0 -8.647872567848e+01 
-6.502599945236e+01 -1.831897662729e+00 0.0 
-1.831897662729e+00 -1.608984767285e+02 0.0 
0.0 0.0 -6.737734285424e+01 
-1.334183847696e+02 1.341744387572e+00 0.0 
1.341744387572e+00 -3.240063029868e+02 0.0 
0.0 0.0 -1.368274063269e+02 
-9.427975937024e+01 1.054949637351e+00 0.0 
1.054949637351e+00 -2.062579274006e+02 0.0 
0.0 0.0 -8.976130603127e+01 
-6.534396116206e+01 4.499626320430e-01 0.0 
4.499626320430e-01 -1.609730424677e+02 0.0 
0.0 0.0 -6.749510108894e+01 
-1.163904065058e+02 5.209003896757e+00 0.0 
5.209003896757e+00 -3.098909143291e+02 0.0 
0.0 0.0 -1.274843962505e+02 
-1.035548465974e+02 -2.045194140911e+00 0.0 
-2.045194140911e+00 -2.726270499669e+02 0.0 
0.0 0.0 -1.124545689693e+02 
-1.186545085371e+02 -1.258291315042e+00 0.0 
-1.258291315042e+00 -2.924333567604e+02 0.0 
0.0 0.0 -1.229263595892e+02 
-1.231440494616e+02 -9.565173700525e-01 0.0 
-9.565173700525e-01 -3.008961611915e+02 0.0 
0.0 0.0 -1.268120631959e+02 
-4.599197273499e+01 1.278051161740e+01 0.0 
1.278051161740e+01 -1.814214258192e+02 0.0 
0.0 0.0 -6.782401956624e+01 
-5.614352143703e+01 2.649109650762e+01 0.0 
2.649109650762e+01 -9.047098139063e+01 0.0 
0.0 0.0 -4.358435084830e+01 
-6.191179892959e+01 2.645964246397e+01 0.0 
2.645964246397e+01 -1.774011687275e+02 0.0 
0.0 0.0 -7.139389029714e+01 
-1.094740801382e+02 -1.933770101740e+00 0.0 
-1.933770101740e+00 -2.764361763563e+02 0.0 
0.0 0.0 -1.153730769483e+02 
-1.377445458766e+02 1.403169245719e+00 0.0 
1.403169245719e+00 -3.321261516548e+02 0.0 
0.0 0.0 -1.405612092594e+02 
-1.275928767402e+02 -8.430396126592e-01 0.0 
-8.430396126592e-01 -3.096228420581e+02 0.0 
0.0 0.0 -1.307647156395e+02 
-4.439648535257e+01 -1.210603614446e+01 0.0 
-1.210603614446e+01 -1.071762875360e+02 0.0 
0.0 0.0 -4.507183186656e+01 
-9.467181113403e+01 2.414629854428e+00 0.0 
2.414629854428e+00 -2.052784549325e+02 0.0 
0.0 0.0 -8.958507981995e+01 
-8.758155720742e+01 1.929511948073e+00 0.0 
1.929511948073e+00 -1.846430236244e+02 0.0 
0.0 0.0 -8.126737424956e+01 
-5.378245545720e+01 -3.543518675187e-01 0.0 
-3.543518675187e-01 -9.326424355873e+01 0.0 
0.0 0.0 -4.371400970478e+01 
-1.135625449554e+02 -1.347719343434e+00 0.0 
-1.347719343434e+00 -2.880353705371e+02 0.0 
0.0 0.0 -1.200793746478e+02 
-1.141179989450e+02 -1.554455654181e+00 0.0 
-1.554455654181e+00 -2.843971660590e+02 0.0 
0.0 0.0 -1.191545495012e+02 
-9.538153153633e+01 2.944306903248e+00 0.0 
2.944306903248e+00 -2.074794012983e+02 0.0 
0.0 0.0 -9.045827985040e+01 
-9.119321416557e+01 1.677711933809e+00 0.0 
1.677711933809e+00 -1.956867410013e+02 0.0 
0.0 0.0 -8.566398655007e+01 
-1.014800220841e+02 -1.079084982347e+00 0.0 
-1.079084982347e+00 -2.666793775348e+02 0.0 
0.0 0.0 -1.100478198857e+02 
-1.468538796219e+02 1.677199928833e+00 0.0 
1.677199928833e+00 -3.509364460742e+02 0.0 
0.0 0.0 -1.489370977088e+02 
-8.847019527372e+01 4.661385583472e+00 0.0 
4.661385583472e+00 -1.813624669469e+02 0.0 
0.0 0.0 -8.054979866617e+01 
-1.281514744842e+02 8.014344763136e-01 0.0 
8.014344763136e-01 -3.098600304599e+02 0.0 
0.0 0.0 -1.310034514832e+02 
-1.481043619058e+02 3.563021038578e+00 0.0 
3.563021038578e+00 -3.575539840577e+02 0.0 
0.0 0.0 -1.512975037891e+02 
-9.577631541917e+01 4.423661015723e+00 0.0 
4.423661015723e+00 -2.062223212480e+02 0.0 
0.0 0.0 -9.019959100014e+01 
-7.875424967383e+01 3.391241393012e+00 0.0 
3.391241393012e+00 -1.543415047739e+02 0.0 
0.0 0.0 -6.952872633431e+01 
-1.124677812158e+02 3.260085928842e+00 0.0 
3.260085928842e+00 -2.998108256252e+02 0.0 
0.0 0.0 -1.232835820523e+02 
-4.072055593127e+01 -3.616710199897e+00 0.0 
-3.616710199897e+00 -1.007541743654e+02 0.0 
0.0 0.0 -4.204241908900e+01 
-4.272973437275e+01 -1.390387406996e+01 0.0 
-1.390387406996e+01 -1.011006935444e+02 0.0 
0.0 0.0 -4.274912837516e+01 
-2.153234591481e+01 -3.043500464000e+00 0.0 
-3.043500464000e+00 -4.861009282560e+01 0.0 
0.0 0.0 -2.064273162212e+01 
-3.173062090544e+01 -1.247150444570e+01 0.0 
-1.247150444570e+01 -3.392819653803e+01 0.0 
0.0 0.0 -1.837122361740e+01 
-9.223500450894e+01 3.430138185840e+00 0.0 
3.430138185840e+00 -1.963749773105e+02 0.0 
0.0 0.0 -8.618299454584e+01 
-1.414167604665e+02 -2.541769067623e-01 0.0 
-2.541769067623e-01 -3.395863925910e+02 0.0 
0.0 0.0 -1.439009459173e+02 
-2.051795301357e+01 -6.899278504320e+00 0.0 
-6.899278504320e+00 -2.848517871808e+01 0.0 
0.0 0.0 -1.357619399375e+01 
-1.103507051109e+02 2.281317576031e+01 0.0 
2.281317576031e+01 -2.255818114427e+02 0.0 
0.0 0.0 -1.003797549661e+02 
-5.811535327733e+01 8.082669954686e-02 0.0 
8.082669954686e-02 -1.022804698001e+02 0.0 
0.0 0.0 -4.771874692323e+01 
-1.290688828091e+02 1.288108927807e+00 0.0 
1.288108927807e+00 -3.161995558710e+02 0.0 
0.0 0.0 -1.331805316040e+02 
-1.321173078510e+02 -5.791126171196e-01 0.0 
-5.791126171196e-01 -3.202066741548e+02 0.0 
0.0 0.0 -1.352971946017e+02 
-5.291133799576e+01 -1.239269634610e+01 0.0 
-1.239269634610e+01 -1.561118861380e+02 0.0 
0.0 0.0 -6.230696724014e+01 
-1.328575602442e+02 1.055021504998e+00 0.0 
1.055021504998e+00 -3.208572281359e+02 0.0 
0.0 0.0 -1.357144365141e+02 
-5.470856800031e+01 1.757950654563e+00 0.0 
1.757950654563e+00 -9.359405428523e+01 0.0 
0.0 0.0 -4.409078668566e+01 
-9.972384077542e+01 1.770208519211e+01 0.0 
1.770208519211e+01 -2.830682623745e+02 0.0 
0.0 0.0 -1.144376309450e+02 
-1.524265149708e+02 1.623717481220e+00 0.0 
1.623717481220e+00 -3.653490139528e+02 0.0 
0.0 0.0 -1.549326586771e+02 
-3.851530113726e+01 -2.090953102631e+00 0.0 
-2.090953102631e+00 -9.702306251604e+01 0.0 
0.0 0.0 -4.026150909599e+01 
-1.476238631681e+02 4.724270017936e+00 0.0 
4.724270017936e+00 -3.596082041877e+02 0.0 
0.0 0.0 -1.517696202067e+02 
-8.213838776029e+01 3.140934790602e+00 0.0 
3.140934790602e+00 -1.653460182726e+02 0.0 
0.0 0.0 -7.384532180987e+01 
-4.404751538883e+01 -3.083166822475e+00 0.0 
-3.083166822475e+00 -1.092870108570e+02 0.0 
0.0 0.0 -4.560035787373e+01 
-4.914912526211e+01 -1.159900756644e+01 0.0 
-1.159900756644e+01 -1.233964553427e+02 0.0 
0.0 0.0 -5.136367418145e+01 
-9.320090122052e+01 -2.225092237298e+00 0.0 
-2.225092237298e+00 -2.308335399297e+02 0.0 
0.0 0.0 -9.681033234506e+01 
-6.998758768348e+01 1.543229132142e+00 0.0 
1.543229132142e+00 -1.315995758850e+02 0.0 
0.0 0.0 -6.007614907053e+01 
-6.211140478316e+01 -6.591370064675e+00 0.0 
-6.591370064675e+00 -1.570941495570e+02 0.0 
0.0 0.0 -6.536166630206e+01 
-8.545720389295e+01 2.963327701051e+00 0.0 
2.963327701051e+00 -1.762419082160e+02 0.0 
0.0 0.0 -7.810973363269e+01 
-7.462780306299e+01 2.709879540142e+00 0.0 
2.709879540142e+00 -1.446578277415e+02 0.0 
0.0 0.0 -6.538568924135e+01 
-8.901601899176e+01 -3.796154800953e+00 0.0 
-3.796154800953e+00 -2.257860814826e+02 0.0 
0.0 0.0 -9.404063014230e+01 
-1.238814640751e+02 6.680834937747e-01 0.0 
6.680834937747e-01 -3.013768190661e+02 0.0 
0.0 0.0 -1.271774849424e+02 
-1.286954617974e+02 9.703623389633e-01 0.0 
9.703623389633e-01 -3.127953162071e+02 0.0 
0.0 0.0 -1.320472334014e+02 
-8.049002614237e+01 1.318898165731e+00 0.0 
1.318898165731e+00 -1.642756088975e+02 0.0 
0.0 0.0 -7.302969051197e+01 
-3.374073242757e+01 -2.415642916864e+00 0.0 
-2.415642916864e+00 -8.423628375044e+01 0.0 
0.0 0.0 -3.499310485340e+01 
-8.514090798974e+01 -3.639739883389e+00 0.0 
-3.639739883389e+00 -2.140176311859e+02 0.0 
0.0 0.0 -8.934756175270e+01 
-1.185853196168e+02 2.221650929442e+01 0.0 
2.221650929442e+01 -3.102039354376e+02 0.0 
0.0 0.0 -1.282367765163e+02 
-8.595619524545e+01 4.076536297952e+00 0.0 
4.076536297952e+00 -1.746226726814e+02 0.0 
0.0 0.0 -7.777366037804e+01 
-7.704336635203e+01 -4.287729350749e+00 0.0 
-4.287729350749e+00 -1.935289684575e+02 0.0 
0.0 0.0 -8.077170044287e+01 
-1.062932461615e+02 -6.068238979867e-01 0.0 
-6.068238979867e-01 -2.741167007172e+02 0.0 
0.0 0.0 -1.137229840636e+02 
-1.428656064811e+02 5.305177883236e+00 0.0 
5.305177883236e+00 -3.520335597168e+02 0.0 
0.0 0.0 -1.480697498594e+02 
-7.727796813961e+01 1.603435949302e+00 0.0 
1.603435949302e+00 -1.534146567652e+02 0.0 
0.0 0.0 -6.880778747145e+01 
-3.212664225348e+01 -8.325387487258e+00 0.0 
-8.325387487258e+00 -1.211069396757e+02 0.0 
0.0 0.0 -4.808142946772e+01 
-1.824654454114e+01 -1.670977477668e+00 0.0 
-1.670977477668e+00 -4.677355705458e+01 0.0 
0.0 0.0 -1.910603047872e+01 
-2.867784266923e+01 4.299154945807e+00 0.0 
4.299154945807e+00 -1.385013445886e+02 0.0 
0.0 0.0 -4.945409594278e+01 
-1.369001884923e+02 -2.169945010703e-01 0.0 
-2.169945010703e-01 -3.314178758365e+02 0.0 
0.0 0.0 -1.400954192986e+02 
-7.357939413491e+01 1.633764691187e+00 0.0 
1.633764691187e+00 -1.424765571201e+02 0.0 
0.0 0.0 -6.441678537651e+01 
-1.025135047446e+02 1.437580101296e-01 0.0 
1.437580101296e-01 -2.513918082388e+02 0.0 
0.0 0.0 -1.057715938950e+02 
-6.226783475584e+01 7.522986712235e-01 0.0 
7.522986712235e-01 -1.117690035119e+02 0.0 
0.0 0.0 -5.181105148031e+01 
-1.309945711745e+02 8.761590718423e+00 0.0 
8.761590718423e+00 -3.374199340943e+02 0.0 
0.0 0.0 -1.401243515806e+02 
-9.322317697355e+01 -3.048330683384e+00 0.0 
-3.048330683384e+00 -2.339350920009e+02 0.0 
0.0 0.0 -9.774748069233e+01 
-1.277166779379e+02 -6.729484228158e-01 0.0 
-6.729484228158e-01 -3.120200719557e+02 0.0 
0.0 0.0 -1.315210249681e+02 
-4.029615384318e+01 -1.383751429227e+00 0.0 
-1.383751429227e+00 -1.010923272767e+02 0.0 
0.0 0.0 -4.201654433597e+01 
-1.470602129112e+02 1.937444627159e+00 0.0 
1.937444627159e+00 -3.572033447571e+02 0.0 
0.0 0.0 -1.508790673005e+02 
-9.066499147478e+01 -1.874833764428e+00 0.0 
-1.874833764428e+00 -2.269179296719e+02 0.0 
0.0 0.0 -9.487487634400e+01 
-4.372498018726e+01 -7.681269962207e-01 0.0 
-7.681269962207e-01 -1.096659376908e+02 0.0 
0.0 0.0 -4.561727536342e+01 
-8.641691595343e+01 -1.565326073314e+00 0.0 
-1.565326073314e+00 -2.150431522360e+02 0.0 
0.0 0.0 -9.003802045682e+01 
-6.567381091966e+01 -5.505678225952e+00 0.0 
-5.505678225952e+00 -1.652263529832e+02 0.0 
0.0 0.0 -6.887004917084e+01 
-5.214292421397e+01 -5.543507831180e+00 0.0 
-5.543507831180e+00 -1.292602846390e+02 0.0 
0.0 0.0 -5.402096265588e+01 
-1.014214640136e+02 -1.822314597925e+00 0.0 
-1.822314597925e+00 -2.503867366604e+02 0.0 
0.0 0.0 -1.051424602022e+02 
-1.846417482451e+00 -5.241564049994e-02 0.0 
-5.241564049994e-02 -9.588936014900e+00 0.0 
0.0 0.0 -3.099086950830e+00 
-2.893110885968e+00 -4.909989158171e-01 0.0 
-4.909989158171e-01 -9.712743740144e+00 0.0 
0.0 0.0 -3.728812677589e+00 
-1.156007770805e+02 1.346524929203e-01 0.0 
1.346524929203e-01 -2.853970211244e+02 0.0 
0.0 0.0 -1.198993394614e+02 
-3.697824071850e+01 -1.935062991822e+00 0.0 
-1.935062991822e+00 -9.278496668665e+01 0.0 
0.0 0.0 -3.852896222155e+01 
-1.155816086403e+02 2.271974466985e-01 0.0 
2.271974466985e-01 -2.892374141390e+02 0.0 
0.0 0.0 -1.210457068338e+02 
-1.109990494094e+02 -1.696193997139e-01 0.0 
-1.696193997139e-01 -2.816457242844e+02 0.0 
0.0 0.0 -1.173934321081e+02 
-6.888104064310e+01 -7.606637195042e+00 0.0 
-7.606637195042e+00 -1.820671935443e+02 0.0 
0.0 0.0 -7.488447025622e+01 
-4.400788854193e+01 -1.565938314409e+01 0.0 
-1.565938314409e+01 -1.313569635651e+02 0.0 
0.0 0.0 -5.220945563210e+01 
-9.361677403305e+01 6.346901430610e+00 0.0 
6.346901430610e+00 -1.936051296249e+02 0.0 
0.0 0.0 -8.576657109737e+01 
-3.115405943720e+01 2.730822080982e+01 0.0 
2.730822080982e+01 -9.565992657185e+01 0.0 
0.0 0.0 -3.936769342919e+01 
-6.933021659161e+01 -4.487952664774e+00 0.0 
-4.487952664774e+00 -1.737533174935e+02 0.0 
0.0 0.0 -7.252506022552e+01 
-1.357423790708e+02 1.092879428627e+01 0.0 
1.092879428627e+01 -3.459563546283e+02 0.0 
0.0 0.0 -1.441096201097e+02 
-3.195367132407e+01 -3.169471818103e+00 0.0 
-3.169471818103e+00 -7.993416310568e+01 0.0 
0.0 0.0 -3.316635032893e+01 
-6.756480958883e+01 2.607943451510e+00 0.0 
2.607943451510e+00 -1.234913723984e+02 0.0 
0.0 0.0 -5.691685459617e+01 
-5.945784723233e+01 1.987228939393e+00 0.0 
1.987228939393e+00 -1.032158081896e+02 0.0 
0.0 0.0 -4.840209662659e+01 
-3.349625057776e+01 -4.975860883823e+00 0.0 
-4.975860883823e+00 -7.887505096320e+01 0.0 
0.0 0.0 -3.331139046229e+01 
-1.375140285137e+02 5.746862506955e+00 0.0 
5.746862506955e+00 -3.441222112102e+02 0.0 
0.0 0.0 -1.440908719172e+02 
-8.394346728519e+01 5.505683003020e+00 0.0 
5.505683003020e+00 -1.623521948442e+02 0.0 
0.0 0.0 -7.348869863882e+01 
-3.768597830783e+01 -4.133477138378e+00 0.0 
-4.133477138378e+00 -9.244837579839e+01 0.0 
0.0 0.0 -3.864030623187e+01 
-9.729467262050e+01 7.588618386623e+00 0.0 
7.588618386623e+00 -2.029961706946e+02 0.0 
0.0 0.0 -8.968725299454e+01 
-9.469453705563e+01 5.848759456174e+00 0.0 
5.848759456174e+00 -2.015058652144e+02 0.0 
0.0 0.0 -8.846012068100e+01 
-4.213272426465e+01 -2.923911263983e+00 0.0 
-2.923911263983e+00 -1.042465589268e+02 0.0 
0.0 0.0 -4.351378495744e+01 
-4.122383961759e+01 2.906940670477e+01 0.0 
2.906940670477e+01 -8.496215271639e+01 0.0 
0.0 0.0 -3.745579770019e+01 
-4.432462109801e+01 -5.159073387203e+00 0.0 
-5.159073387203e+00 -1.082655518173e+02 0.0 
0.0 0.0 -4.537705187458e+01 
-1.244959177927e+02 7.900825536062e-01 0.0 
7.900825536062e-01 -3.048093618390e+02 0.0 
0.0 0.0 -1.283915838895e+02 
-9.736740703694e+01 -2.394649388212e+00 0.0 
-2.394649388212e+00 -2.422045131932e+02 0.0 
0.0 0.0 -1.014715760690e+02 
-1.048521518467e+02 1.731557773936e+01 0.0 
1.731557773936e+01 -2.177434751490e+02 0.0 
0.0 0.0 -9.637868809871e+01 
-9.142385523866e+01 4.397116426630e+00 0.0 
4.397116426630e+00 -1.923440132340e+02 0.0 
0.0 0.0 -8.473036054179e+01 
-1.200778129976e+02 5.435034641384e-01 0.0 
5.435034641384e-01 -2.969670618341e+02 0.0 
0.0 0.0 -1.247134624495e+02 
-1.184006081316e+02 -1.059963249126e+00 0.0 
-1.059963249126e+00 -2.959047325016e+02 0.0 
0.0 0.0 -1.238916021899e+02 
-3.767155995830e+01 -6.868684999972e+00 0.0 
-6.868684999972e+00 -8.738395195087e+01 0.0 
0.0 0.0 -3.711665357275e+01 
-1.231199585842e+02 -8.399019510326e-01 0.0 
-8.399019510326e-01 -3.038689469362e+02 0.0 
0.0 0.0 -1.276966716561e+02 
-8.154291922610e+01 3.544156679648e+00 0.0 
3.544156679648e+00 -1.610023909005e+02 0.0 
0.0 0.0 -7.236359303797e+01 
-9.851031015973e+01 -5.022967886676e-01 0.0 
-5.022967886676e-01 -2.431085785538e+02 0.0 
0.0 0.0 -1.020856666141e+02 
-7.538831332166e+01 3.433556536517e+00 0.0 
3.433556536517e+00 -1.435464197585e+02 0.0 
0.0 0.0 -6.528041992405e+01 
-8.688891052783e+01 5.370024805750e+00 0.0 
5.370024805750e+00 -1.731609155309e+02 0.0 
0.0 0.0 -7.761494781763e+01 
-6.386500986358e+01 1.578362950830e+01 0.0 
1.578362950830e+01 -2.158714409708e+02 0.0 
0.0 0.0 -8.352093525032e+01 
-8.780881530642e+01 3.254557837257e+00 0.0 
3.254557837257e+00 -1.828715902323e+02 0.0 
0.0 0.0 -8.080412166160e+01 
-8.136737853148e+01 -3.416284801039e+00 0.0 
-3.416284801039e+00 -2.032518460729e+02 0.0 
0.0 0.0 -8.498576738130e+01 
-9.455219478039e+01 -1.110567407391e+00 0.0 
-1.110567407391e+00 -2.349343468563e+02 0.0 
0.0 0.0 -9.844596249102e+01 
-6.166498396947e+01 -4.958014136675e+00 0.0 
-4.958014136675e+00 -1.535280960674e+02 0.0 
0.0 0.0 -6.415792401105e+01 
-6.399041881991e+01 -8.342069926237e+00 0.0 
-8.342069926237e+00 -1.694101915240e+02 0.0 
0.0 0.0 -6.962018310316e+01 
-7.753448294084e+01 2.487013612576e+00 0.0 
2.487013612576e+00 -1.516552899287e+02 0.0 
0.0 0.0 -6.835693186087e+01 
-8.365975345411e+01 -3.873678595327e+00 0.0 
-3.873678595327e+00 -2.334501220552e+02 0.0 
0.0 0.0 -9.473296265280e+01 
-4.730390072496e+01 -4.207827981241e+00 0.0 
-4.207827981241e+00 -1.165620471385e+02 0.0 
0.0 0.0 -4.875978435905e+01 
-2.460009065089e+01 -3.353262045112e+00 0.0 
-3.353262045112e+00 -5.793441567263e+01 0.0 
0.0 0.0 -2.436035189706e+01 
-7.968151196944e+01 4.367918640606e+00 0.0 
4.367918640606e+00 -1.528835228307e+02 0.0 
0.0 0.0 -6.936951044003e+01 
-4.756333563363e+01 -6.646402921214e+00 0.0 
-6.646402921214e+00 -1.161308669129e+02 0.0 
0.0 0.0 -4.870826076397e+01 
-1.469323553252e+02 3.521040179958e+00 0.0 
3.521040179958e+00 -3.591408471350e+02 0.0 
0.0 0.0 -1.514219607380e+02 
-8.092306192727e+01 2.432050788989e+00 0.0 
2.432050788989e+00 -1.625810021328e+02 0.0 
0.0 0.0 -7.265121921801e+01 
-1.276184272552e+02 -2.589082386228e-01 0.0 
-2.589082386228e-01 -3.152485421678e+02 0.0 
0.0 0.0 -1.324600908269e+02 
-1.522862770708e+02 1.622379228638e+01 0.0 
1.622379228638e+01 -3.684359518324e+02 0.0 
0.0 0.0 -1.558166686709e+02 
-7.825413004403e+01 -1.984793200890e+00 0.0 
-1.984793200890e+00 -1.947298263622e+02 0.0 
0.0 0.0 -8.149518692188e+01 
-4.277914612419e+01 -5.354955818706e+00 0.0 
-5.354955818706e+00 -1.039830593658e+02 0.0 
0.0 0.0 -4.362866164701e+01 
-2.977755596256e+01 -5.652522980581e+00 0.0 
-5.652522980581e+00 -6.673423188987e+01 0.0 
0.0 0.0 -2.855353635573e+01 
-1.198303791495e+02 9.328365516779e-01 0.0 
9.328365516779e-01 -3.007469273449e+02 0.0 
0.0 0.0 -1.257731919483e+02 
-6.975479499386e+01 9.099352722877e-01 0.0 
9.099352722877e-01 -1.334687575815e+02 0.0 
0.0 0.0 -6.056706577262e+01 
-2.099676168477e+01 -4.041047168252e+00 0.0 
-4.041047168252e+00 -4.708658374281e+01 0.0 
0.0 0.0 -2.002500362827e+01 
-6.323145405745e+01 -4.361596730813e+00 0.0 
-4.361596730813e+00 -1.580592243082e+02 0.0 
0.0 0.0 -6.598720350969e+01 
-3.526623072727e+01 -6.135092501160e-01 0.0 
-6.135092501160e-01 -8.988782096781e+01 0.0 
0.0 0.0 -3.714621550852e+01 
-7.202760612883e+01 3.369882401826e+00 0.0 
3.369882401826e+00 -1.327707771482e+02 0.0 
0.0 0.0 -6.103951498312e+01 
-6.690617109132e+01 -3.279269915494e+00 0.0 
-3.279269915494e+00 -1.662365161794e+02 0.0 
0.0 0.0 -6.954280618121e+01 
-1.086193052335e+02 -1.677786953031e+00 0.0 
-1.677786953031e+00 -2.802958387155e+02 0.0 
0.0 0.0 -1.162745431847e+02 
-6.188262395287e+01 -2.482594398452e+00 0.0 
-2.482594398452e+00 -1.539902802525e+02 0.0 
0.0 0.0 -6.436187126161e+01 
-8.908377180885e+01 3.842753126224e+00 0.0 
3.842753126224e+00 -1.856387361242e+02 0.0 
0.0 0.0 -8.201675237993e+01 
-5.486430259071e+01 -6.809831535471e+00 0.0 
-6.809831535471e+00 -1.366854940955e+02 0.0 
0.0 0.0 -5.706493900586e+01 
-1.190925174827e+02 1.744264517798e+00 0.0 
1.744264517798e+00 -3.044009610234e+02 0.0 
0.0 0.0 -1.266480435518e+02 
-4.343061940607e+01 -1.145498579391e+01 0.0 
-1.145498579391e+01 -1.019469836558e+02 0.0 
0.0 0.0 -4.321328091857e+01 
-1.150240424912e+02 6.739903156405e-01 0.0 
6.739903156405e-01 -2.931350595761e+02 0.0 
0.0 0.0 -1.220477306202e+02 
-9.039953347925e+01 -9.884255190276e-01 0.0 
-9.884255190276e-01 -2.237488423555e+02 0.0 
0.0 0.0 -9.384451275042e+01 
-1.227212887920e+02 -3.800617454005e-01 0.0 
-3.800617454005e-01 -3.073425757418e+02 0.0 
0.0 0.0 -1.286191593601e+02 
-4.295413039421e+01 -1.993694685054e-01 0.0 
-1.993694685054e-01 -1.782433111859e+02 0.0 
0.0 0.0 -6.595923247403e+01 
-3.537981859045e+01 -2.851018737088e+00 0.0 
-2.851018737088e+00 -8.912269288772e+01 0.0 
0.0 0.0 -3.695075344345e+01 
-6.344447693720e+01 1.991875847499e+00 0.0 
1.991875847499e+00 -1.143003858475e+02 0.0 
0.0 0.0 -5.292345883540e+01 
-9.866347642363e+01 6.900933063174e+00 0.0 
6.900933063174e+00 -2.835995073259e+02 0.0 
0.0 0.0 -1.142788951249e+02 
-5.804847053203e+01 2.763572894925e+01 0.0 
2.763572894925e+01 -1.438172975943e+02 0.0 
0.0 0.0 -6.015973043791e+01 
-7.114698758572e+01 2.705361313972e+00 0.0 
2.705361313972e+00 -1.341489875398e+02 0.0 
0.0 0.0 -6.118879253766e+01 
-4.688182711233e+01 -1.360036362501e+01 0.0 
-1.360036362501e+01 -1.177550007681e+02 0.0 
0.0 0.0 -4.899104836414e+01 
-7.525506458221e+01 3.534401766221e+00 0.0 
3.534401766221e+00 -1.396250568736e+02 0.0 
0.0 0.0 -6.406403643673e+01 
-3.116670595470e+01 -9.680144796175e-01 0.0 
-9.680144796175e-01 -8.082576948860e+01 0.0 
0.0 0.0 -3.319774263299e+01 
-1.380338447622e+02 4.017431144142e+00 0.0 
4.017431144142e+00 -3.415788736427e+02 0.0 
0.0 0.0 -1.434838155215e+02 
-1.024718089104e+02 9.593356754982e+00 0.0 
9.593356754982e+00 -2.917146530053e+02 0.0 
0.0 0.0 -1.178559385747e+02 
-1.044003734166e+02 2.007556012964e+01 0.0 
2.007556012964e+01 -2.881451820905e+02 0.0 
0.0 0.0 -1.173636666521e+02 
-9.990043970393e+01 7.283676225049e+00 0.0 
7.283676225049e+00 -2.144882488559e+02 0.0 
0.0 0.0 -9.391660656795e+01 
-9.154471825301e+01 -1.980158789200e+00 0.0 
-1.980158789200e+00 -2.521012659114e+02 0.0 
0.0 0.0 -1.026937952493e+02 
-3.475003056602e+01 -4.714677724488e+00 0.0 
-4.714677724488e+00 -8.393906550337e+01 0.0 
0.0 0.0 -3.520672882082e+01 
-1.050618162556e+02 8.915909597324e-02 0.0 
8.915909597324e-02 -2.781165533196e+02 0.0 
0.0 0.0 -1.145535108726e+02 
-1.413962899534e+02 4.040530519554e+00 0.0 
4.040530519554e+00 -3.511305508539e+02 0.0 
0.0 0.0 -1.473580522422e+02 
-5.387715914608e+01 -1.272447618832e+01 0.0 
-1.272447618832e+01 -1.533479989443e+02 0.0 
0.0 0.0 -6.176754742711e+01 
-1.245132980499e+02 1.146843661215e+00 0.0 
1.146843661215e+00 -3.084353679624e+02 0.0 
0.0 0.0 -1.294845998037e+02 
-8.281024779966e+01 4.285370433703e+00 0.0 
4.285370433703e+00 -1.636944626000e+02 0.0 
0.0 0.0 -7.355141311989e+01 
-3.984578610655e+01 -1.678582807736e+01 0.0 
-1.678582807736e+01 -1.275656267997e+02 0.0 
0.0 0.0 -4.982342387188e+01 
-1.101028505992e+02 3.818144551572e-01 0.0 
3.818144551572e-01 -2.855953889744e+02 0.0 
0.0 0.0 -1.183094718721e+02 
-6.492744613069e+01 3.232133869824e+00 0.0 
3.232133869824e+00 -1.112334620003e+02 0.0 
0.0 0.0 -5.244827243929e+01 
-4.892027616941e+01 -1.644223244560e+00 0.0 
-1.644223244560e+00 -1.214645029662e+02 0.0 
0.0 0.0 -5.071543374068e+01 
-5.980665449254e+01 -5.506292632821e+00 0.0 
-5.506292632821e+00 -1.500953203604e+02 0.0 
0.0 0.0 -6.257059245589e+01 
-7.073870073983e+01 2.823670427714e+01 0.0 
2.823670427714e+01 -1.807152683203e+02 0.0 
0.0 0.0 -7.503619071803e+01 
-1.176882921001e+02 -5.426775082140e-01 0.0 
-5.426775082140e-01 -2.995140857595e+02 0.0 
0.0 0.0 -1.247607133579e+02 
-5.174115680271e+01 2.940604252853e+01 0.0 
2.940604252853e+01 -1.069511467346e+02 0.0 
0.0 0.0 -4.720769106119e+01 
-6.626147104397e+01 2.752430305618e+01 0.0 
2.752430305618e+01 -1.790208116492e+02 0.0 
0.0 0.0 -7.318468480795e+01 
-7.841905878027e+01 3.559207509517e+00 0.0 
3.559207509517e+00 -1.502591327823e+02 0.0 
0.0 0.0 -6.820345746878e+01 
-6.592694107627e+01 8.032785645406e-01 0.0 
8.032785645406e-01 -1.224943476998e+02 0.0 
0.0 0.0 -5.612638663282e+01 
-6.737789811404e+01 2.206699918889e+00 0.0 
2.206699918889e+00 -1.194544206509e+02 0.0 
0.0 0.0 -5.564969562949e+01 
-8.930813739425e+01 -2.786746478381e+00 0.0 
-2.786746478381e+00 -2.227273648682e+02 0.0 
0.0 0.0 -9.321065067873e+01 
-1.320398738254e+02 6.206450685737e+00 0.0 
6.206450685737e+00 -3.361267714061e+02 0.0 
0.0 0.0 -1.400499935695e+02 
-9.990126547976e+01 -1.610122465487e-01 0.0 
-1.610122465487e-01 -2.706795332640e+02 0.0 
0.0 0.0 -1.107742396231e+02 
-6.384919024722e+01 2.467558642601e+00 0.0 
2.467558642601e+00 -1.127231126227e+02 0.0 
0.0 0.0 -5.257169086098e+01 
-1.149613249556e+02 2.543766348316e+01 0.0 
2.543766348316e+01 -2.415987605048e+02 0.0 
0.0 0.0 -1.065680256381e+02 
-1.092612850419e+02 2.224910364691e+01 0.0 
2.224910364691e+01 -2.928318206407e+02 0.0 
0.0 0.0 -1.202279317048e+02 
-1.125368137189e+02 -7.379695115748e-01 0.0 
-7.379695115748e-01 -2.917697853027e+02 0.0 
0.0 0.0 -1.208919797065e+02 
-8.468515884318e+01 3.453784834859e+00 0.0 
3.453784834859e+00 -1.719019749909e+02 0.0 
0.0 0.0 -7.657614015024e+01 
-6.749520368910e+01 -6.913131655569e+00 0.0 
-6.913131655569e+00 -1.761450010498e+02 0.0 
0.0 0.0 -7.269206142167e+01 
-6.385639724694e+01 -6.361501014752e+00 0.0 
-6.361501014752e+00 -1.630493287230e+02 0.0 
0.0 0.0 -6.767171779098e+01 
-3.594612593727e+01 -4.291518923235e+00 0.0 
-4.291518923235e+00 -8.722053336378e+01 0.0 
0.0 0.0 -3.654999779031e+01 
-1.087009832669e+02 1.544989513383e+00 0.0 
1.544989513383e+00 -2.891845097365e+02 0.0 
0.0 0.0 -1.189656479010e+02 
-6.735299077873e+01 -5.113878920195e+00 0.0 
-5.113878920195e+00 -1.707031217759e+02 0.0 
0.0 0.0 -7.101683376638e+01 
-7.649925253060e+01 4.405907458789e+00 0.0 
4.405907458789e+00 -1.420773816412e+02 0.0 
0.0 0.0 -6.517299025155e+01 
-7.326851097879e+01 4.406684366543e+00 0.0 
4.406684366543e+00 -1.313911966298e+02 0.0 
0.0 0.0 -6.099791228257e+01 
-6.835805482510e+01 1.222884661917e+01 0.0 
1.222884661917e+01 -2.274683969856e+02 0.0 
0.0 0.0 -8.834793554321e+01 
-5.536716382466e+01 -8.998427225879e+00 0.0 
-8.998427225879e+00 -1.413616962151e+02 0.0 
0.0 0.0 -5.861865801192e+01 
-4.027001332840e+01 1.329716349191e+01 0.0 
1.329716349191e+01 -1.672871166523e+02 0.0 
0.0 0.0 -6.186713899421e+01 
-5.866394677759e+01 -7.752310822104e+00 0.0 
-7.752310822104e+00 -1.491128071643e+02 0.0 
0.0 0.0 -6.193302618256e+01 
-6.197983724924e+01 -8.457186574424e+00 0.0 
-8.457186574424e+00 -1.617912773861e+02 0.0 
0.0 0.0 -6.673133439061e+01 
-4.004985728469e+01 -6.132590775858e+00 0.0 
-6.132590775858e+00 -9.563887186628e+01 0.0 
0.0 0.0 -4.030661874529e+01 
-1.263978850223e+02 6.749835335227e+00 0.0 
6.749835335227e+00 -3.279993750914e+02 0.0 
0.0 0.0 -1.359191780341e+02 
-6.975268959625e+01 -7.950917849610e+00 0.0 
-7.950917849610e+00 -2.003237240554e+02 0.0 
0.0 0.0 -8.062292409549e+01 
-8.978812373371e+01 5.131457650108e+00 0.0 
5.131457650108e+00 -1.840298943693e+02 0.0 
0.0 0.0 -8.174540543090e+01 
-7.205036433551e+01 -6.728532188988e+00 0.0 
-6.728532188988e+00 -2.127617727416e+02 0.0 
0.0 0.0 -8.504364112314e+01 
-1.019007290133e+02 -1.094004124234e+00 0.0 
-1.094004124234e+00 -2.765183637465e+02 0.0 
0.0 0.0 -1.131257278279e+02 
-8.482620712172e+01 -4.450812538868e+00 0.0 
-4.450812538868e+00 -2.386297801705e+02 0.0 
0.0 0.0 -9.663679618767e+01 
-6.481928713805e+01 2.462727922851e+01 0.0 
2.462727922851e+01 -1.932437221071e+02 0.0 
0.0 0.0 -7.701890277354e+01 
-3.905303702845e+01 -3.661855241545e+00 0.0 
-3.661855241545e+00 -9.580190787975e+01 0.0 
0.0 0.0 -4.005648347246e+01 
-1.356639245138e+02 4.585787289126e+00 0.0 
4.585787289126e+00 -3.430346812457e+02 0.0 
0.0 0.0 -1.432095817278e+02 
-1.427121953938e+02 7.479636058051e+00 0.0 
7.479636058051e+00 -3.550521340099e+02 0.0 
0.0 0.0 -1.489292988211e+02 
-9.210706744844e+01 2.636241750879e+01 0.0 
2.636241750879e+01 -2.208079631630e+02 0.0 
0.0 0.0 -9.347450918344e+01 
-6.484660651669e+01 -8.814763305421e+00 0.0 
-8.814763305421e+00 -1.746024701689e+02 0.0 
0.0 0.0 -7.143472300568e+01 
-9.311950707259e+01 -2.732812042048e+00 0.0 
-2.732812042048e+00 -2.576255320379e+02 0.0 
0.0 0.0 -1.048235117332e+02 
-7.416668358071e+01 2.429038405084e+00 0.0 
2.429038405084e+00 -1.407562254101e+02 0.0 
0.0 0.0 -6.407687269724e+01 
-7.117942609515e+01 -5.643165067840e+00 0.0 
-5.643165067840e+00 -1.834721183781e+02 0.0 
0.0 0.0 -7.599546334199e+01 
-5.299973586740e+01 2.837127900663e+01 0.0 
2.837127900663e+01 -1.427104673134e+02 0.0 
0.0 0.0 -5.831306095425e+01 
-5.525119367830e+01 -4.455583223053e+00 0.0 
-4.455583223053e+00 -1.373699477464e+02 0.0 
0.0 0.0 -5.738634242742e+01 
-4.911078984122e+01 -1.457031279829e+01 0.0 
-1.457031279829e+01 -1.337596711624e+02 0.0 
0.0 0.0 -5.446113830108e+01 
-7.073455106521e+01 -7.064021379036e+00 0.0 
-7.064021379036e+00 -1.892762204591e+02 0.0 
0.0 0.0 -7.760323145730e+01 
-5.052430363845e+01 -5.686900961643e+00 0.0 
-5.686900961643e+00 -1.244388573888e+02 0.0 
0.0 0.0 -5.208894830818e+01 
-4.544419945634e+01 -2.259772361063e+00 0.0 
-2.259772361063e+00 -1.128266808013e+02 0.0 
0.0 0.0 -4.708126407730e+01 
-8.848880453795e+01 -3.260738077994e+00 0.0 
-3.260738077994e+00 -2.404431211035e+02 0.0 
0.0 0.0 -9.827957769242e+01 
-1.072711985055e+02 -9.342840880944e-01 0.0 
-9.342840880944e-01 -2.841064853578e+02 0.0 
0.0 0.0 -1.170133051590e+02 
-1.117723727006e+02 2.710854771860e+01 0.0 
2.710854771860e+01 -2.621159681517e+02 0.0 
0.0 0.0 -1.117665022557e+02 
-3.327515699511e+00 -4.460873750315e-01 0.0 
-4.460873750315e-01 -8.710263736591e+00 0.0 
0.0 0.0 -2.217783614297e+00 
-6.396058660649e+01 -4.331989437059e+00 0.0 
-4.331989437059e+00 -2.116544577590e+02 0.0 
0.0 0.0 -8.228451330965e+01 
-6.699414385602e+01 -7.037927555587e+00 0.0 
-7.037927555587e+00 -2.062800469315e+02 0.0 
0.0 0.0 -8.158225723625e+01 
-6.737097819434e+01 -8.655223425911e+00 0.0 
-8.655223425911e+00 -1.875201625383e+02 0.0 
0.0 0.0 -7.606734221979e+01 
-7.079979020360e+01 2.343854875453e+00 0.0 
2.343854875453e+00 -1.300014310399e+02 0.0 
0.0 0.0 -5.984036637305e+01 
-7.703204511749e+01 -6.211910457718e+00 0.0 
-6.211910457718e+00 -2.195226972919e+02 0.0 
0.0 0.0 -8.856642272283e+01 
-5.815383863543e+01 -5.799349460177e+00 0.0 
-5.799349460177e+00 -1.449534340643e+02 0.0 
0.0 0.0 -6.053218180993e+01 
-7.364009540618e+01 -6.705002545336e+00 0.0 
-6.705002545336e+00 -2.022445582138e+02 0.0 
0.0 0.0 -8.236539608600e+01 
-8.414134145742e+01 2.264282967631e+00 0.0 
2.264282967631e+00 -1.735491498514e+02 0.0 
0.0 0.0 -7.690714739265e+01 
-5.844789877700e+01 -3.472585830654e+00 0.0 
-3.472585830654e+00 -1.455950812584e+02 0.0 
0.0 0.0 -6.081289401062e+01 
-2.336969754247e+01 -3.935805677836e+00 0.0 
-3.935805677836e+00 -5.499987596791e+01 0.0 
0.0 0.0 -2.311087205311e+01 
-3.213964850633e+01 -5.145540662579e+00 0.0 
-5.145540662579e+00 -7.546334562368e+01 0.0 
0.0 0.0 -3.188089823900e+01 
-4.791881110547e+01 -1.414368929566e+01 0.0 
-1.414368929566e+01 -1.364618767076e+02 0.0 
0.0 0.0 -5.491420634393e+01 
-5.834371166312e+01 -9.764468337675e+00 0.0 
-9.764468337675e+00 -1.544370455613e+02 0.0 
0.0 0.0 -6.343422716732e+01 
-6.916726229556e+01 -4.888177932250e+00 0.0 
-4.888177932250e+00 -2.180457592269e+02 0.0 
0.0 0.0 -8.576390645675e+01 
-7.626889744233e+01 -5.804336937594e+00 0.0 
-5.804336937594e+00 -2.147635749226e+02 0.0 
0.0 0.0 -8.690974170949e+01 
-4.166776372561e+01 -1.321385798743e+01 0.0 
-1.321385798743e+01 -9.522518007974e+01 0.0 
0.0 0.0 -4.029221407060e+01 
-2.995508711433e+01 -2.620004194697e+00 0.0 
-2.620004194697e+00 -7.506796180096e+01 0.0 
0.0 0.0 -3.110691467459e+01 
-7.146077756374e+01 5.804332372780e+00 0.0 
5.804332372780e+00 -1.195128133429e+02 0.0 
0.0 0.0 -5.689207727198e+01 
-5.048815482026e+01 -3.306327696772e+00 0.0 
-3.306327696772e+00 -1.249430035244e+02 0.0 
0.0 0.0 -5.222934750339e+01 
-1.194532017130e+02 3.821733047833e+00 0.0 
3.821733047833e+00 -3.166861193220e+02 0.0 
0.0 0.0 -1.304417963105e+02 
-1.079742926290e+02 2.668830839836e+01 0.0 
2.668830839836e+01 -2.589016943820e+02 0.0 
0.0 0.0 -1.096627961033e+02 
-8.308951377332e+01 1.746233159728e+01 0.0 
1.746233159728e+01 -1.392942128142e+02 0.0 
0.0 0.0 -6.631511797626e+01 
-9.353124807879e+01 7.902626517831e+00 0.0 
7.902626517831e+00 -1.907233409724e+02 0.0 
0.0 0.0 -8.487637671536e+01 
-1.152311623756e+02 2.726977743396e+01 0.0 
2.726977743396e+01 -2.656560532330e+02 0.0 
0.0 0.0 -1.138661646826e+02 
-6.385242711013e+01 1.485386377842e+01 0.0 
1.485386377842e+01 -2.156667066443e+02 0.0 
0.0 0.0 -8.345574012632e+01 
-9.996474014609e+01 2.637777850197e+01 0.0 
2.637777850197e+01 -2.398413347885e+02 0.0 
0.0 0.0 -1.015418224804e+02 
-4.530736761796e+01 -1.618168158000e+01 0.0 
-1.618168158000e+01 -1.132971103196e+02 0.0 
0.0 0.0 -4.686706217358e+01 
-7.787166212723e+01 -5.642814052245e+00 0.0 
-5.642814052245e+00 -2.089721096664e+02 0.0 
0.0 0.0 -8.565313153810e+01 
-5.776546143167e+01 2.117325723835e+01 0.0 
2.117325723835e+01 -1.897757919177e+02 0.0 
0.0 0.0 -7.386237600481e+01 
-3.487575329952e+01 -1.287379735384e+01 0.0 
-1.287379735384e+01 -1.410718805368e+02 0.0 
0.0 0.0 -5.234310746350e+01 
-4.230310461449e+01 -1.615368870683e+01 0.0 
-1.615368870683e+01 -9.115907905108e+01 0.0 
0.0 0.0 -3.828125162872e+01 
-6.568911755046e+01 -7.242981541197e+00 0.0 
-7.242981541197e+00 -1.695320797319e+02 0.0 
0.0 0.0 -7.016635918470e+01 
-7.156843032605e+01 -6.461756003594e+00 0.0 
-6.461756003594e+00 -2.083549795359e+02 0.0 
0.0 0.0 -8.357702295858e+01 
-7.371682205406e+01 -4.637795717102e+00 0.0 
-4.637795717102e+00 -2.200291269004e+02 0.0 
0.0 0.0 -8.772378468633e+01 
-5.367689865665e+01 -4.770030966174e+00 0.0 
-4.770030966174e+00 -1.328292249619e+02 0.0 
0.0 0.0 -5.555183708557e+01 
-7.963060789981e+01 -4.819310859759e+00 0.0 
-4.819310859759e+00 -2.315355532032e+02 0.0 
0.0 0.0 -9.294984833089e+01 
-6.857419967610e+01 -4.575457784289e+00 0.0 
-4.575457784289e+00 -2.135431180353e+02 0.0 
0.0 0.0 -8.423519531343e+01 
-6.637974044564e+01 -1.271582035793e+00 0.0 
-1.271582035793e+00 -2.221241769406e+02 0.0 
0.0 0.0 -8.615117521588e+01 
-6.055635643352e+01 -7.744731613508e+00 0.0 
-7.744731613508e+00 -1.558052605334e+02 0.0 
0.0 0.0 -6.450848509007e+01 
-1.008565126673e+02 1.360289061556e+01 0.0 
1.360289061556e+01 -2.887237799679e+02 0.0 
0.0 0.0 -1.164740877906e+02 
-8.098654598496e+01 5.618390705579e+00 0.0 
5.618390705579e+00 -1.516926847208e+02 0.0 
0.0 0.0 -6.940376921172e+01 
-6.138377183658e+01 3.106725439626e-01 0.0 
3.106725439626e-01 -2.152130403484e+02 0.0 
0.0 0.0 -8.257904365549e+01 
-1.299363570714e+02 5.164147771132e+00 0.0 
5.164147771132e+00 -3.350090637673e+02 0.0 
0.0 0.0 -1.390836262516e+02 
-4.623708069134e+01 -1.654392069873e+01 0.0 
-1.654392069873e+01 -1.303272994519e+02 0.0 
0.0 0.0 -5.256931404299e+01 
-1.401903466058e+02 9.177958331842e+00 0.0 
9.177958331842e+00 -3.547869388930e+02 0.0 
0.0 0.0 -1.480931856496e+02 
-7.440826480861e+01 -5.010104142468e+00 0.0 
-5.010104142468e+00 -2.246286729878e+02 0.0 
0.0 0.0 -8.931108133891e+01 
-1.185957612973e+02 2.767467892521e+01 0.0 
2.767467892521e+01 -2.711150921091e+02 0.0 
0.0 0.0 -1.165132560219e+02 
-8.591955120405e+01 2.691938108720e+01 0.0 
2.691938108720e+01 -1.741181937352e+02 0.0 
0.0 0.0 -7.761132348178e+01 
-4.358056453667e+01 -1.559820605695e+01 0.0 
-1.559820605695e+01 -1.159171038562e+02 0.0 
0.0 0.0 -4.744930051787e+01 
-8.699945966029e+01 2.020622743748e+01 0.0 
2.020622743748e+01 -1.533088789379e+02 0.0 
0.0 0.0 -7.169250157944e+01 
-9.923688151402e+01 1.213240576041e+01 0.0 
1.213240576041e+01 -2.024973321166e+02 0.0 
0.0 0.0 -9.012026408918e+01 
-7.697452707411e+01 -2.838700284493e+00 0.0 
-2.838700284493e+00 -2.359312880350e+02 0.0 
0.0 0.0 -9.347174453274e+01 
-4.527298033597e+01 2.616335740442e+01 0.0 
2.616335740442e+01 -1.396869410522e+02 0.0 
0.0 0.0 -5.508797641644e+01 
-9.063054094605e+01 2.258339308804e+01 0.0 
2.258339308804e+01 -1.681100918913e+02 0.0 
0.0 0.0 -7.722218985121e+01 
-6.499626822641e+01 2.725987857664e+01 0.0 
2.725987857664e+01 -1.624823642468e+02 0.0 
0.0 0.0 -6.784358974197e+01 
-4.166188580987e+01 -1.590648000388e+01 0.0 
-1.590648000388e+01 -9.457619907935e+01 0.0 
0.0 0.0 -4.011679107024e+01 
-1.056194830277e+02 1.052869695196e+01 0.0 
1.052869695196e+01 -2.330345345464e+02 0.0 
0.0 0.0 -1.011962052722e+02 
-4.033653035660e+01 -1.294442623731e+01 0.0 
-1.294442623731e+01 -7.975784521527e+01 0.0 
0.0 0.0 -3.495091516207e+01 
-1.314186237551e+02 2.114971885833e+01 0.0 
2.114971885833e+01 -3.357052817278e+02 0.0 
0.0 0.0 -1.397371716449e+02 
-9.426468119301e+01 4.055517457266e+00 0.0 
4.055517457266e+00 -2.031275701018e+02 0.0 
0.0 0.0 -8.881767538843e+01 
-1.065996141813e+02 1.227241942984e+01 0.0 
1.227241942984e+01 -2.991746290264e+02 0.0 
0.0 0.0 -1.213322729623e+02 
-6.635528857346e+01 1.339086546866e+00 0.0 
1.339086546866e+00 -1.205696955854e+02 0.0 
0.0 0.0 -5.567749524765e+01 
-9.245768411720e+01 8.399711444612e+00 0.0 
8.399711444612e+00 -1.821392837463e+02 0.0 
0.0 0.0 -8.197909035905e+01 
-7.053622698505e+01 -1.773660837966e+00 0.0 
-1.773660837966e+00 -2.237662038131e+02 0.0 
0.0 0.0 -8.789072923943e+01 
-7.688108672668e+01 1.311272283392e+01 0.0 
1.311272283392e+01 -2.438378981041e+02 0.0 
0.0 0.0 -9.581569544925e+01 
-9.984216774587e+01 9.231700712781e+00 0.0 
9.231700712781e+00 -2.115324935418e+02 0.0 
0.0 0.0 -9.301239838631e+01 
-1.165769114125e+02 4.386484800619e-01 0.0 
4.386484800619e-01 -3.030441287541e+02 0.0 
0.0 0.0 -1.254863120500e+02 
-8.553547626134e+01 7.028261415049e+00 0.0 
7.028261415049e+00 -1.615704261790e+02 0.0 
0.0 0.0 -7.373177073209e+01 
-1.015404836248e+02 5.582881459053e+00 0.0 
5.582881459053e+00 -2.910952605799e+02 0.0 
0.0 0.0 -1.173907232614e+02 
-4.071832217399e+01 -1.735763778387e+01 0.0 
-1.735763778387e+01 -1.112991150896e+02 0.0 
0.0 0.0 -4.520523117908e+01 
-9.005038599783e+01 8.674791379670e+00 0.0 
8.674791379670e+00 -1.716923610305e+02 0.0 
0.0 0.0 -7.812282410850e+01 
-1.325359244163e+02 3.172879119003e+01 0.0 
3.172879119003e+01 -3.133655991598e+02 0.0 
0.0 0.0 -1.333704570729e+02 
-1.413703864103e+02 6.245564906238e+00 0.0 
6.245564906238e+00 -3.540972422682e+02 0.0 
0.0 0.0 -1.482402886035e+02 
-7.444003029236e+01 -7.129330442117e+00 0.0 
-7.129330442117e+00 -2.071931934758e+02 0.0 
0.0 0.0 -8.408996713043e+01 
-6.845181121353e+01 3.373287601890e+00 0.0 
3.373287601890e+00 -1.217351594125e+02 0.0 
0.0 0.0 -5.665609118782e+01 
-6.266776866903e+01 1.169980504653e+00 0.0 
1.169980504653e+00 -1.099330426281e+02 0.0 
0.0 0.0 -5.138024338915e+01 
-7.870826676472e+01 -4.351460131780e+00 0.0 
-4.351460131780e+00 -2.265956149035e+02 0.0 
0.0 0.0 -9.119116450046e+01 
-1.111271410862e+02 4.313909735895e-01 0.0 
4.313909735895e-01 -2.953248518650e+02 0.0 
0.0 0.0 -1.215355978854e+02 
-1.151844197982e+02 2.022493627039e+00 0.0 
2.022493627039e+00 -3.062093908297e+02 0.0 
0.0 0.0 -1.260181431883e+02 
-2.731307135510e+01 -2.980092968118e+00 0.0 
-2.980092968118e+00 -6.629199625601e+01 0.0 
0.0 0.0 -2.768152028333e+01 
-3.556516993929e+01 1.435028895545e+01 0.0 
1.435028895545e+01 -1.538693564702e+02 0.0 
0.0 0.0 -5.643035792284e+01 
-6.442244474401e+01 3.908523677049e+00 0.0 
3.908523677049e+00 -2.238285620115e+02 0.0 
0.0 0.0 -8.607530202665e+01 
-6.516753244540e+01 -6.834982115134e-01 0.0 
-6.834982115134e-01 -2.165739009783e+02 0.0 
0.0 0.0 -8.412243002712e+01 
-6.348340861554e+01 2.585948419650e+01 0.0 
2.585948419650e+01 -1.779407103016e+02 0.0 
0.0 0.0 -7.202723567515e+01 
-1.046970532628e+02 1.076754785500e+01 0.0 
1.076754785500e+01 -2.230887714906e+02 0.0 
0.0 0.0 -9.793574742600e+01 
-1.071738476107e+02 2.034287132329e+01 0.0 
2.034287132329e+01 -2.238196270609e+02 0.0 
0.0 0.0 -9.889804240149e+01 
-9.614358898211e+01 5.875317583283e+00 0.0 
5.875317583283e+00 -2.041340168802e+02 0.0 
0.0 0.0 -8.968328175871e+01 
-5.526259569781e+01 2.902685058710e+01 0.0 
2.902685058710e+01 -1.076444037394e+02 0.0 
0.0 0.0 -4.847209983117e+01 
-9.301351833140e+01 1.044128554891e+01 0.0 
1.044128554891e+01 -1.813889989037e+02 0.0 
0.0 0.0 -8.192075517052e+01 
-1.139614426769e+02 1.630753143374e+00 0.0 
1.630753143374e+00 -2.967872544847e+02 0.0 
0.0 0.0 -1.228246091485e+02 
-9.859140797755e+01 7.090505189886e+00 0.0 
7.090505189886e+00 -2.119538623866e+02 0.0 
0.0 0.0 -9.276358110923e+01 
-8.754531774312e+01 8.932361412495e+00 0.0 
8.932361412495e+00 -1.613472374862e+02 0.0 
0.0 0.0 -7.426776656879e+01 
-8.083336427734e+01 -4.988180007940e+00 0.0 
-4.988180007940e+00 -2.214048698119e+02 0.0 
0.0 0.0 -9.027147022676e+01 
-5.994102706642e+01 6.365443408003e+00 0.0 
6.365443408003e+00 -2.155156824993e+02 0.0 
0.0 0.0 -8.223701286971e+01 
-8.687782280487e+01 6.430896754036e+00 0.0 
6.430896754036e+00 -1.699673357620e+02 0.0 
0.0 0.0 -7.665354757006e+01 
-9.885217441317e+01 9.710951225611e+00 0.0 
9.710951225611e+00 -2.028450004167e+02 0.0 
0.0 0.0 -9.010915244895e+01 
-8.557875206757e+01 4.775313795389e+00 0.0 
4.775313795389e+00 -1.706444345890e+02 0.0 
0.0 0.0 -7.646695599697e+01 
-8.264908361681e+01 4.883950626775e+00 0.0 
4.883950626775e+00 -1.599844305394e+02 0.0 
0.0 0.0 -7.239005424685e+01 
-1.308787008061e+02 3.041182975041e+00 0.0 
3.041182975041e+00 -3.326829953865e+02 0.0 
0.0 0.0 -1.386685088578e+02 
-1.257203683853e+02 2.219427347963e+01 0.0 
2.219427347963e+01 -3.237690364822e+02 0.0 
0.0 0.0 -1.344468214603e+02 
-1.252470508020e+02 3.388238066933e+00 0.0 
3.388238066933e+00 -3.247366027806e+02 0.0 
0.0 0.0 -1.345950960748e+02 
-9.838561829861e+01 -2.411507951204e+00 0.0 
-2.411507951204e+00 -2.650672880556e+02 0.0 
0.0 0.0 -1.086358719063e+02 
-5.102201268742e+01 1.853649550707e+01 0.0 
1.853649550707e+01 -6.913192798473e+01 0.0 
0.0 0.0 -3.564618220164e+01 
-1.109663916171e+02 1.487953503130e+01 0.0 
1.487953503130e+01 -3.059632713992e+02 0.0 
0.0 0.0 -1.246788989049e+02 
-8.840102887451e+01 1.133650895437e+01 0.0 
1.133650895437e+01 -1.628144858862e+02 0.0 
0.0 0.0 -7.496465442823e+01 
-4.578961341444e+01 -4.587308317317e+00 0.0 
-4.587308317317e+00 -1.124693479279e+02 0.0 
0.0 0.0 -4.707768840270e+01 
-6.740383673843e+01 2.879241480639e+00 0.0 
2.879241480639e+00 -2.248529514646e+02 0.0 
0.0 0.0 -8.727703646092e+01 
-7.767206049708e+01 3.597025380765e+00 0.0 
3.597025380765e+00 -2.482113616449e+02 0.0 
0.0 0.0 -9.736502664258e+01 
-8.586472235209e+01 1.408006410122e+01 0.0 
1.408006410122e+01 -2.605690551002e+02 0.0 
0.0 0.0 -1.035301332357e+02 
-3.186818193157e+01 -3.010667483983e+00 0.0 
-3.010667483983e+00 -1.510676270239e+02 0.0 
0.0 0.0 -5.432977266682e+01 
-6.217161889533e+01 4.965358634025e+00 0.0 
4.965358634025e+00 -2.161206588515e+02 0.0 
0.0 0.0 -8.308768332404e+01 
-9.531358045265e+01 1.511410654970e+01 0.0 
1.511410654970e+01 -2.775976466516e+02 0.0 
0.0 0.0 -1.114733681313e+02 
-6.375257562670e+01 2.305095160967e+01 0.0 
2.305095160967e+01 -1.108205210993e+02 0.0 
0.0 0.0 -5.197192901779e+01 
-8.196075013550e+01 -5.552240437599e+00 0.0 
-5.552240437599e+00 -2.266379114239e+02 0.0 
0.0 0.0 -9.217959846783e+01 
-7.998813766036e+01 7.336517520276e+00 0.0 
7.336517520276e+00 -1.405791749341e+02 0.0 
0.0 0.0 -6.577019377833e+01 
-4.937218360963e+01 -1.237286079280e-01 0.0 
-1.237286079280e-01 -7.983263490649e+01 0.0 
0.0 0.0 -3.836144555484e+01 
-3.950742360891e+01 2.813659321951e+01 0.0 
2.813659321951e+01 -2.848268990428e+01 0.0 
0.0 0.0 -1.910584595789e+01 
-9.656737290617e+01 -1.552700694734e+00 0.0 
-1.552700694734e+00 -2.593449528166e+02 0.0 
0.0 0.0 -1.063736977168e+02 
-1.103380420531e+02 1.056494776484e+01 0.0 
1.056494776484e+01 -3.080708858949e+02 0.0 
0.0 0.0 -1.251226783844e+02 
-1.092197351021e+02 1.939085214925e+01 0.0 
1.939085214925e+01 -2.312877231288e+02 0.0 
0.0 0.0 -1.017522374693e+02 
-7.177301091660e+01 1.063280474825e+01 0.0 
1.063280474825e+01 -2.378246092174e+02 0.0 
0.0 0.0 -9.247928604019e+01 
-8.994544151164e+01 -3.967146524020e+00 0.0 
-3.967146524020e+00 -2.459229665174e+02 0.0 
0.0 0.0 -1.003605224087e+02 
-7.798723517297e+01 5.656336946280e+00 0.0 
5.656336946280e+00 -1.411316603176e+02 0.0 
0.0 0.0 -6.533566864718e+01 
-3.739444488346e+01 2.586374483377e+01 0.0 
2.586374483377e+01 -2.672525668002e+01 0.0 
0.0 0.0 -1.764962502038e+01 
-1.046674781499e+02 1.186062457537e+01 0.0 
1.186062457537e+01 -2.982667055232e+02 0.0 
0.0 0.0 -1.204802551019e+02 
-8.199134593677e+01 1.110529241273e+01 0.0 
1.110529241273e+01 -2.547834032010e+02 0.0 
0.0 0.0 -1.006324247413e+02 
-6.786906628416e+01 2.514925896710e+01 0.0 
2.514925896710e+01 -1.148938540656e+02 0.0 
0.0 0.0 -5.442887610492e+01 
-1.179211259792e+02 3.121667590146e+00 0.0 
3.121667590146e+00 -3.076071197898e+02 0.0 
0.0 0.0 -1.272584737307e+02 
-4.228622328463e+01 -1.531214662456e+01 0.0 
-1.531214662456e+01 -1.438306284377e+02 0.0 
0.0 0.0 -5.543505551669e+01 
-1.220508378309e+02 4.830457631841e+00 0.0 
4.830457631841e+00 -3.180067563608e+02 0.0 
0.0 0.0 -1.316172782575e+02 
-1.349063725470e+02 7.011940591562e+00 0.0 
7.011940591562e+00 -3.450212118561e+02 0.0 
0.0 0.0 -1.435782753209e+02 
-9.926304699617e+01 1.330463589773e+01 0.0 
1.330463589773e+01 -2.879841427988e+02 0.0 
0.0 0.0 -1.157741569385e+02 
-8.821157912473e+01 6.848233959907e+00 0.0 
6.848233959907e+00 -1.721194854578e+02 0.0 
0.0 0.0 -7.769931937475e+01 
-1.080899097097e+02 2.720934900254e+01 0.0 
2.720934900254e+01 -2.713117622752e+02 0.0 
0.0 0.0 -1.134205015955e+02 
-1.369830227551e+02 8.188345220684e+00 0.0 
8.188345220684e+00 -3.461178245189e+02 0.0 
0.0 0.0 -1.445302541822e+02 
-3.508070852994e+01 2.407723711739e+01 0.0 
2.407723711739e+01 -2.569346813780e+01 0.0 
0.0 0.0 -1.783225300032e+01 
-8.282605475733e+01 7.152634483366e+00 0.0 
7.152634483366e+00 -1.510921220461e+02 0.0 
0.0 0.0 -6.977545304104e+01 
-1.245974083919e+02 2.518271539077e+01 0.0 
2.518271539077e+01 -3.154815107102e+02 0.0 
0.0 0.0 -1.316236757306e+02 
-8.955888080789e+01 6.242849920419e+00 0.0 
6.242849920419e+00 -1.805404996907e+02 0.0 
0.0 0.0 -8.062981414957e+01 
-8.962990219913e+01 1.234527179279e+01 0.0 
1.234527179279e+01 -2.709490090292e+02 0.0 
0.0 0.0 -1.077736733685e+02 
-6.501352390702e+01 8.734647931430e+00 0.0 
8.734647931430e+00 -2.222061477812e+02 0.0 
0.0 0.0 -8.576590150647e+01 
-9.271584035649e+01 -3.737483212978e+00 0.0 
-3.737483212978e+00 -2.375218017847e+02 0.0 
0.0 0.0 -9.867129264236e+01 
-2.683518107176e+01 6.739451193065e+00 0.0 
6.739451193065e+00 -1.302382623581e+02 0.0 
0.0 0.0 -4.847474940531e+01 
-9.227622937305e+01 5.957194426239e+00 0.0 
5.957194426239e+00 -1.911970318091e+02 0.0 
0.0 0.0 -8.464197835463e+01 
-4.910766345543e+01 -3.919171116728e+00 0.0 
-3.919171116728e+00 -1.211241853905e+02 0.0 
0.0 0.0 -5.066955465377e+01 
-3.225653519201e+01 2.214038586743e+01 0.0 
2.214038586743e+01 -2.425693701881e+01 0.0 
0.0 0.0 -1.655404166325e+01 
-1.036104110935e+02 2.775517518663e+01 0.0 
2.775517518663e+01 -2.559044139295e+02 0.0 
0.0 0.0 -1.074544475069e+02 
-9.803715992019e+01 5.281385249076e+00 0.0 
5.281385249076e+00 -2.133292032177e+02 0.0 
0.0 0.0 -9.300990894137e+01 
-4.391794002040e+01 -1.862010851113e+01 0.0 
-1.862010851113e+01 -1.287491868644e+02 0.0 
0.0 0.0 -5.080985954931e+01 
-7.532464586989e+01 2.858827131488e+01 0.0 
2.858827131488e+01 -1.826430912419e+02 0.0 
0.0 0.0 -7.699032113355e+01 
-8.420838186888e+01 6.539770807438e+00 0.0 
6.539770807438e+00 -1.595334891203e+02 0.0 
0.0 0.0 -7.272256129675e+01 
-8.985171161866e+01 -3.287587424142e+00 0.0 
-3.287587424142e+00 -2.356650319649e+02 0.0 
0.0 0.0 -9.725502307505e+01 
-3.598337887627e+01 -7.723416250031e+00 0.0 
-7.723416250031e+00 -1.519625082055e+02 0.0 
0.0 0.0 -5.598376612452e+01 
-4.393891253942e+01 2.520938033930e+01 0.0 
2.520938033930e+01 -1.401460207231e+02 0.0 
0.0 0.0 -5.482547997875e+01 
-4.093520413227e+01 -1.770532036861e+01 0.0 
-1.770532036861e+01 -9.030787327460e+01 0.0 
0.0 0.0 -3.792164098612e+01 
-3.608045723348e+01 -1.665211576296e+01 0.0 
-1.665211576296e+01 -1.258761925112e+02 0.0 
0.0 0.0 -4.818699492342e+01 
-3.765378161136e+01 -1.846153080242e+01 0.0 
-1.846153080242e+01 -1.084110074908e+02 0.0 
0.0 0.0 -4.320404224018e+01 
-8.046151385768e+01 1.145358654644e+01 0.0 
1.145358654644e+01 -2.542090132544e+02 0.0 
0.0 0.0 -1.000011581336e+02 
-1.181284587695e+02 1.797766207747e+01 0.0 
1.797766207747e+01 -2.651537907469e+02 0.0 
0.0 0.0 -1.145846748549e+02 
-2.995872030136e+01 2.041360907703e+01 0.0 
2.041360907703e+01 -2.275166086906e+01 0.0 
0.0 0.0 -1.541311435112e+01 
-1.364269022603e+02 2.725456796459e+00 0.0 
2.725456796459e+00 -3.405988056891e+02 0.0 
0.0 0.0 -1.427077123848e+02 
-5.254364644840e+01 1.264530356542e+01 0.0 
1.264530356542e+01 -1.962019338215e+02 0.0 
0.0 0.0 -7.422367408098e+01 
-8.499205938655e+01 9.254719780056e+00 0.0 
9.254719780056e+00 -1.512828456212e+02 0.0 
0.0 0.0 -7.048247150234e+01 
-2.753316897722e+01 4.097882481977e+00 0.0 
4.097882481977e+00 -1.378828967470e+02 0.0 
0.0 0.0 -5.104558688933e+01 
-1.419472894070e+02 1.011677909375e+01 0.0 
1.011677909375e+01 -3.554621419609e+02 0.0 
0.0 0.0 -1.488228294104e+02 
-4.501087799461e+01 -1.927434633792e+01 0.0 
-1.927434633792e+01 -1.110356300345e+02 0.0 
0.0 0.0 -4.514961875334e+01 
-5.751459723887e+01 -3.997145491246e+00 0.0 
-3.997145491246e+00 -1.420257576548e+02 0.0 
0.0 0.0 -5.946210646809e+01 
-1.039850136828e+02 1.575373244566e+01 0.0 
1.575373244566e+01 -2.942426110514e+02 0.0 
0.0 0.0 -1.190682874203e+02 
-7.586934739084e+01 -2.312590894347e+00 0.0 
-2.312590894347e+00 -2.307352482872e+02 0.0 
0.0 0.0 -9.158137870342e+01 
-1.197652095728e+02 2.322904983526e+01 0.0 
2.322904983526e+01 -3.108941162739e+02 0.0 
0.0 0.0 -1.287977977540e+02 
-4.760273346813e+01 2.869876051558e+01 0.0 
2.869876051558e+01 -1.242676332240e+02 0.0 
0.0 0.0 -5.116111000763e+01 
-9.417012425472e+01 1.355661906926e+01 0.0 
1.355661906926e+01 -1.738941850161e+02 0.0 
0.0 0.0 -8.001929278124e+01 
-1.304121014901e+02 2.006406613751e+01 0.0 
2.006406613751e+01 -3.350409242261e+02 0.0 
0.0 0.0 -1.392359077149e+02 
-7.970907782348e+01 4.898283811120e+00 0.0 
4.898283811120e+00 -1.494078835154e+02 0.0 
0.0 0.0 -6.833508840166e+01 
-1.118268738127e+02 2.208560539355e+01 0.0 
2.208560539355e+01 -2.329720746122e+02 0.0 
0.0 0.0 -1.030396845275e+02 
-9.438624078191e+01 1.049621081238e+01 0.0 
1.049621081238e+01 -1.820682782837e+02 0.0 
0.0 0.0 -8.253635571968e+01 
-9.858458064922e+01 1.247307195620e+01 0.0 
1.247307195620e+01 -1.929716698510e+02 0.0 
0.0 0.0 -8.706687515008e+01 
-3.378523207971e+01 2.252302008679e+01 0.0 
2.252302008679e+01 -1.277576983151e+02 0.0 
0.0 0.0 -4.801392832124e+01 
-1.316155679887e+02 1.535453234405e+00 0.0 
1.535453234405e+00 -3.296241255783e+02 0.0 
0.0 0.0 -1.379719080701e+02 
-8.869334256502e+01 8.417059656400e+00 0.0 
8.417059656400e+00 -1.702354906449e+02 0.0 
0.0 0.0 -7.727864996298e+01 
-6.811265685243e+01 1.835607017378e+01 0.0 
1.835607017378e+01 -2.195042714073e+02 0.0 
0.0 0.0 -8.588507847792e+01 
-3.756447457007e+01 1.859535390214e+01 0.0 
1.859535390214e+01 -2.335659196170e+01 0.0 
0.0 0.0 -1.787631995953e+01 
-1.371497880211e+02 2.350972606252e+01 0.0 
2.350972606252e+01 -3.416107079530e+02 0.0 
0.0 0.0 -1.432281487922e+02 
-3.222142429659e+01 9.618245487560e+00 0.0 
9.618245487560e+00 -1.517408728229e+02 0.0 
0.0 0.0 -5.478868913585e+01 
-5.393742127440e+01 -2.414567191273e+00 0.0 
-2.414567191273e+00 -1.334277133504e+02 0.0 
0.0 0.0 -5.580954038744e+01 
-1.137884170272e+02 2.012683301999e+01 0.0 
2.012683301999e+01 -3.053063790929e+02 0.0 
0.0 0.0 -1.253284388360e+02 
-3.048875399915e+01 5.451811279792e-01 0.0 
5.451811279792e-01 -8.039836188026e+01 0.0 
0.0 0.0 -3.286613476382e+01 
-6.924314492395e+01 2.607233707221e+01 0.0 
2.607233707221e+01 -1.952199249094e+02 0.0 
0.0 0.0 -7.893892095002e+01 
-1.093573778441e+02 1.434067397594e+01 0.0 
1.434067397594e+01 -3.051765682640e+02 0.0 
0.0 0.0 -1.239601838324e+02 
-1.040378653302e+02 1.378543884043e+01 0.0 
1.378543884043e+01 -2.132450580259e+02 0.0 
0.0 0.0 -9.478487700682e+01 
-1.079087718937e+02 1.606293090332e+01 0.0 
1.606293090332e+01 -2.252769870913e+02 0.0 
0.0 0.0 -9.955572769551e+01 
-1.052190989767e+02 1.621237388585e+01 0.0 
1.621237388585e+01 -2.948617550716e+02 0.0 
0.0 0.0 -1.196242562145e+02 
-9.658679304842e+01 1.013343981206e+01 0.0 
1.013343981206e+01 -1.924043882400e+02 0.0 
0.0 0.0 -8.629735438653e+01 
-5.646160459002e+01 1.584214818500e+01 0.0 
1.584214818500e+01 -2.000856615197e+02 0.0 
0.0 0.0 -7.656417983291e+01 
-1.040971705783e+02 2.853687206676e+01 0.0 
2.853687206676e+01 -2.434084547078e+02 0.0 
0.0 0.0 -1.038516875858e+02 
-3.315161688903e+01 8.314147943114e+00 0.0 
8.314147943114e+00 -2.503957945113e+01 0.0 
0.0 0.0 -1.705735890205e+01 
-1.122681253150e+02 2.464848406091e+01 0.0 
2.464848406091e+01 -2.457474550966e+02 0.0 
0.0 0.0 -1.070046741235e+02 
-3.998122510894e+01 5.448472693108e+00 0.0 
5.448472693108e+00 -4.197337441388e+01 0.0 
0.0 0.0 -2.418637985685e+01 
-4.417967380533e+01 4.684435574230e+00 0.0 
4.684435574230e+00 -5.124002498874e+01 0.0 
0.0 0.0 -2.822590963822e+01 
-6.758220908377e+01 1.310376517286e+01 0.0 
1.310376517286e+01 -2.273230109698e+02 0.0 
0.0 0.0 -8.807156601608e+01 
-4.817786503888e+01 4.139870250147e+00 0.0 
4.139870250147e+00 -6.145291064037e+01 0.0 
0.0 0.0 -3.248923270378e+01 
-8.072001301121e+01 2.422663017092e+01 0.0 
2.422663017092e+01 -2.282677954119e+02 0.0 
0.0 0.0 -9.229634252693e+01 
-6.054424838049e+01 2.279024103744e+01 0.0 
2.279024103744e+01 -1.912098490255e+02 0.0 
0.0 0.0 -7.512622922181e+01 
-7.009949203946e+01 6.455395969964e+00 0.0 
6.455395969964e+00 -2.320163507098e+02 0.0 
0.0 0.0 -9.023475282479e+01 
-3.128407907033e+01 -9.679939581752e+00 0.0 
-9.679939581752e+00 -1.399336726837e+02 0.0 
0.0 0.0 -5.060579023758e+01 
-6.358242520502e+01 9.907005686755e+00 0.0 
9.907005686755e+00 -2.218544073011e+02 0.0 
0.0 0.0 -8.523104975184e+01 
-9.600162562896e+01 7.575849208957e+00 0.0 
7.575849208957e+00 -2.012680504617e+02 0.0 
0.0 0.0 -8.878090282719e+01 
-1.117179862172e+02 2.239287364870e+01 0.0 
2.239287364870e+01 -2.399913490989e+02 0.0 
0.0 0.0 -1.051128005948e+02 
-1.219035527011e+02 4.678571488062e-01 0.0 
4.678571488062e-01 -3.107858681681e+02 0.0 
0.0 0.0 -1.294068262607e+02 
-1.244394062762e+02 2.110489322910e+01 0.0 
2.110489322910e+01 -3.229936405884e+02 0.0 
0.0 0.0 -1.338299140594e+02 
-7.160152506336e+01 -2.299038327635e+00 0.0 
-2.299038327635e+00 -2.289304946313e+02 0.0 
0.0 0.0 -8.975960590840e+01 
-9.526333933085e+01 1.007587318843e+01 0.0 
1.007587318843e+01 -1.911445935211e+02 0.0 
0.0 0.0 -8.552237985559e+01 
-6.789093687732e+01 7.380479777983e+00 0.0 
7.380479777983e+00 -2.312779142900e+02 0.0 
0.0 0.0 -8.935065535021e+01 
-1.368264548288e+02 1.376035101498e+00 0.0 
1.376035101498e+00 -3.374551410501e+02 0.0 
0.0 0.0 -1.418844787637e+02 
-9.106826177188e+01 8.205285410150e+00 0.0 
8.205285410150e+00 -1.802700583135e+02 0.0 
0.0 0.0 -8.100149602560e+01 
-9.644650613728e+01 1.298824283659e+01 0.0 
1.298824283659e+01 -1.833025714516e+02 0.0 
0.0 0.0 -8.352472327668e+01 
-9.474691513848e+01 1.069459354388e+01 0.0 
1.069459354388e+01 -2.810773647242e+02 0.0 
0.0 0.0 -1.123472839588e+02 
-5.976702957626e+01 1.277533706262e+01 0.0 
1.277533706262e+01 -2.115287175602e+02 0.0 
0.0 0.0 -8.098872414095e+01 
-1.121752535024e+02 2.889429039908e+01 0.0 
2.889429039908e+01 -2.624598734602e+02 0.0 
0.0 0.0 -1.119905380888e+02 
-8.619964626093e+01 2.391753564720e+01 0.0 
2.391753564720e+01 -1.736556044420e+02 0.0 
0.0 0.0 -7.755657521087e+01 
-3.740335714595e+01 -1.409933609250e+01 0.0 
-1.409933609250e+01 -1.420365021771e+02 0.0 
0.0 0.0 -5.341808377948e+01 
-3.196613445130e+01 4.467716694989e+00 0.0 
4.467716694989e+00 -1.502492641960e+02 0.0 
0.0 0.0 -5.412040594614e+01 
-5.059190592685e+01 2.679618400898e+01 0.0 
2.679618400898e+01 -1.419326889598e+02 0.0 
0.0 0.0 -5.735737846600e+01 
-7.677050987662e+01 2.683671151442e+01 0.0 
2.683671151442e+01 -1.829066833283e+02 0.0 
0.0 0.0 -7.750315796148e+01 
-1.418810066420e+02 1.168389843603e+00 0.0 
1.168389843603e+00 -3.455186038982e+02 0.0 
0.0 0.0 -1.458198831620e+02 
-9.206152407580e+01 1.089771317162e+01 0.0 
1.089771317162e+01 -1.720908751996e+02 0.0 
0.0 0.0 -7.884571978261e+01 
-6.031951766135e+01 1.144770576469e+01 0.0 
1.144770576469e+01 -2.114718976680e+02 0.0 
0.0 0.0 -8.113742459880e+01 
-8.773758913912e+01 2.837206831972e+01 0.0 
2.837206831972e+01 -2.042190958676e+02 0.0 
0.0 0.0 -8.718700550201e+01 
-1.150613683345e+02 1.308294655097e+01 0.0 
1.308294655097e+01 -3.156455904362e+02 0.0 
0.0 0.0 -1.288120876312e+02 
-9.490093203252e+01 8.068256722884e+00 0.0 
8.068256722884e+00 -1.926838161580e+02 0.0 
0.0 0.0 -8.587542445716e+01 
-1.159021526160e+02 2.929724312060e+01 0.0 
2.929724312060e+01 -2.662540953055e+02 0.0 
0.0 0.0 -1.142468743764e+02 
-7.875171193776e+01 6.811494315317e+00 0.0 
6.811494315317e+00 -1.395088900598e+02 0.0 
0.0 0.0 -6.507818059927e+01 
-1.228448310174e+02 8.652635825589e+00 0.0 
8.652635825589e+00 -3.276035921951e+02 0.0 
0.0 0.0 -1.347345269637e+02 
-7.327807212272e+01 9.902633607520e+00 0.0 
9.902633607520e+00 -2.383051935745e+02 0.0 
0.0 0.0 -9.307497970917e+01 
-1.169217875780e+02 1.366395386790e+01 0.0 
1.366395386790e+01 -3.165163514787e+02 0.0 
0.0 0.0 -1.296314417170e+02 
-7.073958439126e+01 2.538420745592e+01 0.0 
2.538420745592e+01 -1.957071827173e+02 0.0 
0.0 0.0 -7.953403013256e+01 
-1.024647340807e+02 1.137364483356e+01 0.0 
1.137364483356e+01 -2.129646414285e+02 0.0 
0.0 0.0 -9.422881265278e+01 
-1.206256899035e+02 3.005772226759e+01 0.0 
3.005772226759e+01 -2.721919701200e+02 0.0 
0.0 0.0 -1.174452980070e+02 
-8.531631095603e+01 9.557377014173e+00 0.0 
9.557377014173e+00 -2.641349724013e+02 0.0 
0.0 0.0 -1.044353850072e+02 
-3.012470917294e+01 3.353590827531e+00 0.0 
3.353590827531e+00 -1.472558799907e+02 0.0 
0.0 0.0 -5.267896454889e+01 
-1.122782549914e+02 2.514815895380e+01 0.0 
2.514815895380e+01 -2.856402387103e+02 0.0 
0.0 0.0 -1.189755481105e+02 
-7.707509977067e+01 2.578468143108e+01 0.0 
2.578468143108e+01 -2.130688362956e+02 0.0 
0.0 0.0 -8.664318081987e+01 
-5.612874786161e+01 1.450407564205e+01 0.0 
1.450407564205e+01 -1.996458068539e+02 0.0 
0.0 0.0 -7.633236641466e+01 
-9.118311329120e+01 1.233500838570e+01 0.0 
1.233500838570e+01 -2.716053711152e+02 0.0 
0.0 0.0 -1.084365453219e+02 
-1.205910150677e+02 7.296668986140e+00 0.0 
7.296668986140e+00 -3.195333337679e+02 0.0 
0.0 0.0 -1.316373046507e+02 
-3.168893316255e+01 -2.577003756766e+00 0.0 
-2.577003756766e+00 -1.465002300678e+02 0.0 
0.0 0.0 -5.273938692217e+01 
-7.636733535694e+01 8.456177953590e+00 0.0 
8.456177953590e+00 -2.475221149016e+02 0.0 
0.0 0.0 -9.676683507755e+01 
-8.915989486240e+01 1.917957691430e+01 0.0 
1.917957691430e+01 -1.668314503994e+02 0.0 
0.0 0.0 -7.639740357854e+01 
-1.430630572673e+02 2.663062156168e+00 0.0 
2.663062156168e+00 -3.463199170704e+02 0.0 
0.0 0.0 -1.464148923013e+02 
-9.305656751953e+01 2.143882542388e+01 0.0 
2.143882542388e+01 -1.824142548147e+02 0.0 
0.0 0.0 -8.224124670027e+01 
-1.078351495376e+02 2.576439515768e+01 0.0 
2.576439515768e+01 -2.709027306151e+02 0.0 
0.0 0.0 -1.132213640458e+02 
-8.490743008864e+01 1.659340746271e+01 0.0 
1.659340746271e+01 -1.517384586082e+02 0.0 
0.0 0.0 -7.059376660904e+01 
-7.492328264307e+01 1.072493603138e+01 0.0 
1.072493603138e+01 -1.236614218777e+02 0.0 
0.0 0.0 -5.917541135624e+01 
-8.959077142810e+01 2.514644999411e+01 0.0 
2.514644999411e+01 -1.905322834189e+02 0.0 
0.0 0.0 -8.363691645410e+01 
-1.193438904346e+02 1.892350792339e+01 0.0 
1.892350792339e+01 -3.174972647644e+02 0.0 
0.0 0.0 -1.306523465597e+02 
-1.284236677812e+02 2.975140973353e+00 0.0 
2.975140973353e+00 -3.230626719672e+02 0.0 
0.0 0.0 -1.350459019245e+02 
-8.623040792785e+01 8.705929933682e+00 0.0 
8.705929933682e+00 -1.604592974163e+02 0.0 
0.0 0.0 -7.360691160326e+01 
-1.051493266064e+02 1.385312588467e+01 0.0 
1.385312588467e+01 -2.237067429815e+02 0.0 
0.0 0.0 -9.825682087638e+01 
-8.030772780081e+01 1.374523957713e+01 0.0 
1.374523957713e+01 -1.373864449679e+02 0.0 
0.0 0.0 -6.490825183063e+01 
-4.580860013805e+01 1.037090120210e+01 0.0 
1.037090120210e+01 -1.807895670967e+02 0.0 
0.0 0.0 -6.757945017042e+01 
-1.174187758677e+02 2.787565103402e+01 0.0 
2.787565103402e+01 -2.900062524591e+02 0.0 
0.0 0.0 -1.218275084980e+02 
-1.011906106989e+02 9.322622084338e+00 0.0 
9.322622084338e+00 -2.134293840357e+02 0.0 
0.0 0.0 -9.398599842039e+01 
-6.925140868866e+01 2.250700756979e+01 0.0 
2.250700756979e+01 -2.086839852705e+02 0.0 
0.0 0.0 -8.298061818776e+01 
-7.377759874310e+01 2.391513038437e+01 0.0 
2.391513038437e+01 -2.111128406652e+02 0.0 
0.0 0.0 -8.506713182248e+01 
-5.280054709987e+01 1.081544547615e+01 0.0 
1.081544547615e+01 -1.959005232578e+02 0.0 
0.0 0.0 -7.421032110730e+01 
-9.072461252669e+01 1.083549031466e+01 0.0 
1.083549031466e+01 -1.719137040901e+02 0.0 
0.0 0.0 -7.839149498505e+01 
-5.513559870385e+01 2.769211529098e+01 0.0 
2.769211529098e+01 -1.255782114761e+02 0.0 
0.0 0.0 -5.381414305398e+01 
-8.527034821279e+01 2.207783913734e+01 0.0 
2.207783913734e+01 -2.428183985060e+02 0.0 
0.0 0.0 -9.802662401564e+01 
-5.433968686451e+01 2.948087429360e+01 0.0 
2.948087429360e+01 -1.255883000475e+02 0.0 
0.0 0.0 -5.357839607360e+01 
-1.088533147246e+02 1.803310948844e+01 0.0 
1.803310948844e+01 -2.999823411393e+02 0.0 
0.0 0.0 -1.222506967592e+02 
-1.270386867579e+02 2.864258357688e+01 0.0 
2.864258357688e+01 -3.080817121038e+02 0.0 
0.0 0.0 -1.301361196585e+02 
-5.725210706048e+01 7.635889497743e+00 0.0 
7.635889497743e+00 -2.065431663060e+02 0.0 
0.0 0.0 -7.873858200994e+01 
-2.740111662895e+01 -6.448768946020e+00 0.0 
-6.448768946020e+00 -1.262996957958e+02 0.0 
0.0 0.0 -4.730408620234e+01 
-1.069940355409e+02 1.670668097333e+01 0.0 
1.670668097333e+01 -2.268344133768e+02 0.0 
0.0 0.0 -9.974853467531e+01 
-5.915873242725e+01 2.718204070612e+01 0.0 
2.718204070612e+01 -1.264165692846e+02 0.0 
0.0 0.0 -5.527259051356e+01 
-7.442876601975e+01 5.799999740656e-01 0.0 
5.799999740656e-01 -2.390075522432e+02 0.0 
0.0 0.0 -9.363089547890e+01 
-1.217905935255e+02 2.598354672007e+01 0.0 
2.598354672007e+01 -3.042699424410e+02 0.0 
0.0 0.0 -1.274181607899e+02 
-8.967372850977e+01 1.133049150760e+01 0.0 
1.133049150760e+01 -1.623714066262e+02 0.0 
0.0 0.0 -7.521354054079e+01 
-1.232474834295e+02 3.043140319043e+00 0.0 
3.043140319043e+00 -3.153546551735e+02 0.0 
0.0 0.0 -1.311806415809e+02 
-5.644361223777e+01 2.049940922272e+01 0.0 
2.049940922272e+01 -1.890703143857e+02 0.0 
0.0 0.0 -7.325417798705e+01 
-2.615284654060e+01 -3.523436166331e+00 0.0 
-3.523436166331e+00 -1.243338438949e+02 0.0 
0.0 0.0 -4.726452495698e+01 
-1.477940668834e+02 2.518760155345e+00 0.0 
2.518760155345e+00 -3.553512891486e+02 0.0 
0.0 0.0 -1.505436068096e+02 
-7.982850768548e+01 2.643941519722e+01 0.0 
2.643941519722e+01 -1.996263718692e+02 0.0 
0.0 0.0 -8.343646386639e+01 
-9.915867648363e+01 2.146681815353e+01 0.0 
2.146681815353e+01 -2.746476629719e+02 0.0 
0.0 0.0 -1.117419018366e+02 
-1.162235225437e+02 2.751619914567e+01 0.0 
2.751619914567e+01 -2.781905457000e+02 0.0 
0.0 0.0 -1.179242204731e+02 
-4.107006171573e+01 -8.425421852306e-01 0.0 
-8.425421852306e-01 -1.239469001965e+02 0.0 
0.0 0.0 -5.135856279838e+01 
-1.207888365772e+02 1.820883964449e+00 0.0 
1.820883964449e+00 -3.140421824546e+02 0.0 
0.0 0.0 -1.300493057095e+02 
-3.843820891061e+01 2.255029839005e+01 0.0 
2.255029839005e+01 -1.389766369522e+02 0.0 
0.0 0.0 -5.282445375884e+01 
-8.253067165664e+01 9.537525483402e+00 0.0 
9.537525483402e+00 -1.415591956208e+02 0.0 
0.0 0.0 -6.682696018322e+01 
-9.791266958810e+01 -1.939962886923e+00 0.0 
-1.939962886923e+00 -2.549859528574e+02 0.0 
0.0 0.0 -1.054695867336e+02 
-5.595180395252e+01 9.309089593800e+00 0.0 
9.309089593800e+00 -2.063905597875e+02 0.0 
0.0 0.0 -7.830270912201e+01 
-1.382756778031e+02 2.770604146241e+00 0.0 
2.770604146241e+00 -3.383771809933e+02 0.0 
0.0 0.0 -1.425958576389e+02 
-8.169569517173e+01 2.362881010374e+01 0.0 
2.362881010374e+01 -2.285510062340e+02 0.0 
0.0 0.0 -9.267401042172e+01 
-4.889063532767e+01 8.887184834397e+00 0.0 
8.887184834397e+00 -1.914808768725e+02 0.0 
0.0 0.0 -7.171145366006e+01 
-8.310987600842e+01 2.828004421942e+01 0.0 
2.828004421942e+01 -2.016679913424e+02 0.0 
0.0 0.0 -8.503336020524e+01 
-3.226622218059e+01 -1.926696882244e+01 0.0 
-1.926696882244e+01 -1.212811368682e+02 0.0 
0.0 0.0 -4.717255434781e+01 
-9.955294544224e+01 2.814755992349e+01 0.0 
2.814755992349e+01 -2.400124421013e+02 0.0 
0.0 0.0 -1.014696162631e+02 
-1.098641458419e+02 1.869480814349e+01 0.0 
1.869480814349e+01 -3.005527739633e+02 0.0 
0.0 0.0 -1.227250759415e+02 
-1.217866178748e+02 2.900283477239e+01 0.0 
2.900283477239e+01 -2.736133180637e+02 0.0 
0.0 0.0 -1.182199807815e+02 
-1.081476190572e+02 2.847131519064e+01 0.0 
2.847131519064e+01 -2.593279894807e+02 0.0 
0.0 0.0 -1.098426825614e+02 
-3.709177499624e+01 4.942114678036e+00 0.0 
4.942114678036e+00 -1.631462161981e+02 0.0 
0.0 0.0 -5.967139735831e+01 
-1.240814185208e+02 1.851104835308e+00 0.0 
1.851104835308e+00 -3.120199855522e+02 0.0 
0.0 0.0 -1.304304212219e+02 
-1.021364761881e+02 8.876160798023e+00 0.0 
8.876160798023e+00 -2.218859477656e+02 0.0 
0.0 0.0 -9.680672718613e+01 
-1.419877695098e+02 2.567567334292e+01 0.0 
2.567567334292e+01 -3.461151212124e+02 0.0 
0.0 0.0 -1.460308672167e+02 
-1.147421439689e+02 2.103163093156e+01 0.0 
2.103163093156e+01 -3.059042053347e+02 0.0 
0.0 0.0 -1.257939047911e+02 
-5.984736979720e+01 1.766246269600e+01 0.0 
1.766246269600e+01 -2.028280687873e+02 0.0 
0.0 0.0 -7.840263157534e+01 
-9.118830135846e+01 2.811213010570e+01 0.0 
2.811213010570e+01 -2.207517748345e+02 0.0 
0.0 0.0 -9.318202285788e+01 
-1.414903094736e+02 3.683765916171e-01 0.0 
3.683765916171e-01 -3.421201377191e+02 0.0 
0.0 0.0 -1.446831341578e+02 
-9.395333173390e+01 -2.451089016469e-01 0.0 
-2.451089016469e-01 -2.316687051176e+02 0.0 
0.0 0.0 -9.728661105546e+01 
-1.037833130784e+02 2.615370248115e+01 0.0 
2.615370248115e+01 -2.556493589344e+02 0.0 
0.0 0.0 -1.074298016038e+02 
-8.153820064113e+01 6.660675128040e+00 0.0 
6.660675128040e+00 -1.493903057063e+02 0.0 
0.0 0.0 -6.887855190424e+01 
-1.334238706025e+02 2.890634112832e+00 0.0 
2.890634112832e+00 -3.306882807623e+02 0.0 
0.0 0.0 -1.388336454094e+02 
-1.275495064973e+02 4.539849567454e+00 0.0 
4.539849567454e+00 -3.259673506236e+02 0.0 
0.0 0.0 -1.356550571363e+02 
-4.235919314172e+01 7.404552882304e-02 0.0 
7.404552882304e-02 -6.683703943923e+01 0.0 
0.0 0.0 -3.235886977428e+01 
-4.223543762443e+01 -1.335503281257e-01 0.0 
-1.335503281257e-01 -6.682947966649e+01 0.0 
0.0 0.0 -3.231947518728e+01 
-9.427460511593e+01 2.135555976986e+01 0.0 
2.135555976986e+01 -1.750129562017e+02 0.0 
0.0 0.0 -8.038626839530e+01 
-9.560563208283e+01 2.602187300771e+01 0.0 
2.602187300771e+01 -2.368643542276e+02 0.0 
0.0 0.0 -9.934099589314e+01 
-1.024972967422e+02 -1.329464782882e+00 0.0 
-1.329464782882e+00 -2.624527708255e+02 0.0 
0.0 0.0 -1.090850202703e+02 
-9.336314497621e+01 2.700708267120e+01 0.0 
2.700708267120e+01 -1.946558131626e+02 0.0 
0.0 0.0 -8.600568744165e+01 
-7.704430475020e+01 2.219592746468e+01 0.0 
2.219592746468e+01 -2.256531473528e+02 0.0 
0.0 0.0 -9.040923563089e+01 
-1.320908299382e+02 1.326173819024e+01 0.0 
1.326173819024e+01 -3.421005867688e+02 0.0 
0.0 0.0 -1.418574250121e+02 
-6.057619148091e+01 1.851873750062e+01 0.0 
1.851873750062e+01 -2.033203770605e+02 0.0 
0.0 0.0 -7.876897056241e+01 
-1.156537795728e+02 1.605292984841e+01 0.0 
1.605292984841e+01 -2.615765793532e+02 0.0 
0.0 0.0 -1.127691076778e+02 
-6.740518499832e+01 9.018431888533e+00 0.0 
9.018431888533e+00 -1.029491106508e+02 0.0 
0.0 0.0 -5.070628869475e+01 
-7.253665362974e+01 2.436660358510e+01 0.0 
2.436660358510e+01 -2.106856355967e+02 0.0 
0.0 0.0 -8.456668676794e+01 
-9.499126782776e+01 -3.425179884901e+00 0.0 
-3.425179884901e+00 -2.534063551338e+02 0.0 
0.0 0.0 -1.041192868885e+02 
-3.363545065766e+01 1.048464735238e+01 0.0 
1.048464735238e+01 -1.521868370179e+02 0.0 
0.0 0.0 -5.534668630268e+01 
-8.536149489467e+01 -4.138264763693e+00 0.0 
-4.138264763693e+00 -2.283923947928e+02 0.0 
0.0 0.0 -9.372616690625e+01 
-8.759498678838e+01 2.614415493138e+01 0.0 
2.614415493138e+01 -2.181853186129e+02 0.0 
0.0 0.0 -9.133409162040e+01 
-8.118984888627e+01 2.655800578420e+01 0.0 
2.655800578420e+01 -1.849937152033e+02 0.0 
0.0 0.0 -7.945506922687e+01 
-8.370667371129e+01 9.033275991346e+00 0.0 
9.033275991346e+00 -1.509082740853e+02 0.0 
0.0 0.0 -6.998448433897e+01 
-9.681886934898e+01 2.534978304562e+01 0.0 
2.534978304562e+01 -2.105986602871e+02 0.0 
0.0 0.0 -9.182525889082e+01 
-1.007665354974e+02 2.725779288677e+01 0.0 
2.725779288677e+01 -2.150544808870e+02 0.0 
0.0 0.0 -9.434630491533e+01 
-2.045239632674e+01 -2.979679580560e-01 0.0 
-2.979679580560e-01 -5.932007170275e+01 0.0 
0.0 0.0 -2.353174040885e+01 
-7.909902595499e+01 -6.250421439195e+00 0.0 
-6.250421439195e+00 -2.144696391684e+02 0.0 
0.0 0.0 -8.767059953702e+01 
-5.810296401073e+01 2.945786294944e+01 0.0 
2.945786294944e+01 -1.263466936678e+02 0.0 
0.0 0.0 -5.493489730354e+01 
-8.976766044312e+01 2.265943999927e+01 0.0 
2.265943999927e+01 -1.776034827897e+02 0.0 
0.0 0.0 -7.981134296983e+01 
-9.414732136923e+01 2.464879704182e+01 0.0 
2.464879704182e+01 -1.837879411453e+02 0.0 
0.0 0.0 -8.298057875435e+01 
-1.249831299145e+02 1.770169710060e+01 0.0 
1.770169710060e+01 -3.284756687193e+02 0.0 
0.0 0.0 -1.356376395901e+02 
-3.466425283873e+01 -1.179955340426e+00 0.0 
-1.179955340426e+00 -8.964464920357e+01 0.0 
0.0 0.0 -3.689267061269e+01 
-3.250845701263e+01 -1.014327140884e+01 0.0 
-1.014327140884e+01 -1.396490671535e+02 0.0 
0.0 0.0 -5.166391054953e+01 
-7.526799306630e+01 2.607310527074e+01 0.0 
2.607310527074e+01 -1.976121933697e+02 0.0 
0.0 0.0 -8.146405593080e+01 
-8.211395333032e+01 -4.608704808891e+00 0.0 
-4.608704808891e+00 -2.161022025792e+02 0.0 
0.0 0.0 -8.906484677285e+01 
-4.945066402157e+01 9.785085090645e+00 0.0 
9.785085090645e+00 -5.495980378427e+01 0.0 
0.0 0.0 -3.092314034175e+01 
-5.273762027258e+01 8.438313673711e+00 0.0 
8.438313673711e+00 -6.424359136769e+01 0.0 
0.0 0.0 -3.469436349208e+01 
-8.719073229809e+01 1.185454660343e+01 0.0 
1.185454660343e+01 -1.528650023925e+02 0.0 
0.0 0.0 -7.161672040718e+01 
-3.073683262763e+01 2.293696944431e+01 0.0 
2.293696944431e+01 -1.074955269234e+02 0.0 
0.0 0.0 -4.096675334844e+01 
-9.166086776353e+01 -4.122721143520e+00 0.0 
-4.122721143520e+00 -2.416581863877e+02 0.0 
0.0 0.0 -9.959571624536e+01 
-1.125764722669e+02 1.116704335972e+01 0.0 
1.116704335972e+01 -3.091505201210e+02 0.0 
0.0 0.0 -1.261180977164e+02 
-2.872899911721e+01 -3.870784241349e+00 0.0 
-3.870784241349e+00 -1.397351314858e+02 0.0 
0.0 0.0 -5.124413646940e+01 
-1.343891886861e+02 2.980214861451e+01 0.0 
2.980214861451e+01 -3.177082984066e+02 0.0 
0.0 0.0 -1.352292461278e+02 
-1.003230500796e+02 1.181837643153e+01 0.0 
1.181837643153e+01 -2.024632142962e+02 0.0 
0.0 0.0 -9.043587931274e+01 
-9.056956448712e+01 -2.757214028391e+00 0.0 
-2.757214028391e+00 -2.310929824279e+02 0.0 
0.0 0.0 -9.609876407451e+01 
-1.271027445084e+02 4.897524453874e-01 0.0 
4.897524453874e-01 -3.185775955118e+02 0.0 
0.0 0.0 -1.333041020061e+02 
-1.420674218044e+01 -9.732304237645e-01 0.0 
-9.732304237645e-01 -4.249597333026e+01 0.0 
0.0 0.0 -1.661081465321e+01 
-1.084260907626e+02 8.626886816644e+00 0.0 
8.626886816644e+00 -3.011163088317e+02 0.0 
0.0 0.0 -1.224627198783e+02 
-7.842030511181e+01 2.787561669678e+01 0.0 
2.787561669678e+01 -1.993296010745e+02 0.0 
0.0 0.0 -8.292497185591e+01 
-1.384878364259e+01 -7.987975048134e-01 0.0 
-7.987975048134e-01 -4.238203484380e+01 0.0 
0.0 0.0 -1.646924554592e+01 
-9.732662170629e+01 9.760355111744e+00 0.0 
9.760355111744e+00 -2.009218849950e+02 0.0 
0.0 0.0 -8.907455201039e+01 
-2.878104049313e+01 -4.012672562901e+00 0.0 
-4.012672562901e+00 -1.352205474571e+02 0.0 
0.0 0.0 -4.999435058650e+01 
-9.011433244757e+01 2.578422901600e+01 0.0 
2.578422901600e+01 -1.784341091519e+02 0.0 
0.0 0.0 -8.016453247984e+01 
-7.993354139468e+01 2.861246288447e+01 0.0 
2.861246288447e+01 -1.848560676218e+02 0.0 
0.0 0.0 -7.903688270494e+01 
-7.276933117805e+01 1.371264010435e+00 0.0 
1.371264010435e+00 -2.328915136121e+02 0.0 
0.0 0.0 -9.129825343704e+01 
-9.410135534718e+01 9.372909417664e-01 0.0 
9.372909417664e-01 -2.719122785697e+02 0.0 
0.0 0.0 -1.094040901751e+02 
-1.011046355432e+02 1.169826942651e+01 0.0 
1.169826942651e+01 -2.118066891608e+02 0.0 
0.0 0.0 -9.347339741121e+01 
-1.035170833027e+02 2.662066479472e+00 0.0 
2.662066479472e+00 -2.901450571929e+02 0.0 
0.0 0.0 -1.176986421487e+02 
-7.838300599658e+01 2.496562915835e+01 0.0 
2.496562915835e+01 -2.134455396631e+02 0.0 
0.0 0.0 -8.714856369790e+01 
-7.378048238315e+01 2.714910985204e+01 0.0 
2.714910985204e+01 -1.972082969269e+02 0.0 
0.0 0.0 -8.089663379301e+01 
-4.112776150387e+01 2.979996579930e+01 0.0 
2.979996579930e+01 -2.900470340990e+01 0.0 
0.0 0.0 -2.050821906274e+01 
-2.648899519248e+01 -4.119554669300e+00 0.0 
-4.119554669300e+00 -1.302035135930e+02 0.0 
0.0 0.0 -4.833742623865e+01 
-1.124540724248e+02 2.821465663317e+01 0.0 
2.821465663317e+01 -2.747972936995e+02 0.0 
0.0 0.0 -1.157754098373e+02 
-8.166844881269e+01 1.357138956215e+01 0.0 
1.357138956215e+01 -1.346163784224e+02 0.0 
0.0 0.0 -6.448544817052e+01 
-1.164193864972e+02 2.652903233928e+01 0.0 
2.652903233928e+01 -2.892343112664e+02 0.0 
0.0 0.0 -1.212961093291e+02 
-4.111296549910e+01 2.394150065270e+01 0.0 
2.394150065270e+01 -1.404121537544e+02 0.0 
0.0 0.0 -5.405753577604e+01 
-1.010805992874e+02 1.851934475018e+01 0.0 
1.851934475018e+01 -2.023548724835e+02 0.0 
0.0 0.0 -9.063064153126e+01 
-1.168527552789e+02 2.918108569020e+01 0.0 
2.918108569020e+01 -2.786328901009e+02 0.0 
0.0 0.0 -1.182456936139e+02 
-5.504146279334e+01 7.464522240962e+00 0.0 
7.464522240962e+00 -7.273975255307e+01 0.0 
0.0 0.0 -3.793436460392e+01 
-1.121420270263e+02 2.658025298910e+01 0.0 
2.658025298910e+01 -2.742572819833e+02 0.0 
0.0 0.0 -1.155197927029e+02 
-1.289339871883e+02 1.924137704531e+00 0.0 
1.924137704531e+00 -3.196780337968e+02 0.0 
0.0 0.0 -1.341836062956e+02 
-9.099396274518e+01 2.546690184650e+01 0.0 
2.546690184650e+01 -2.339756187370e+02 0.0 
0.0 0.0 -9.709087444465e+01 
-8.684447628170e+01 -4.847287360841e+00 0.0 
-4.847287360841e+00 -2.340490395902e+02 0.0 
0.0 0.0 -9.586805476158e+01 
-9.323405766554e+01 -2.595391697958e+00 0.0 
-2.595391697958e+00 -2.476168825241e+02 0.0 
0.0 0.0 -1.018552820569e+02 
-1.107318862389e+02 1.941569946978e+01 0.0 
1.941569946978e+01 -2.295521611487e+02 0.0 
0.0 0.0 -1.016852142163e+02 
-8.526907365261e+01 -8.958014753707e-01 0.0 
-8.958014753707e-01 -2.538617191446e+02 0.0 
0.0 0.0 -1.013392378392e+02 
-8.435918570293e+01 2.652732400193e+01 0.0 
2.652732400193e+01 -2.018559758694e+02 0.0 
0.0 0.0 -8.546454847171e+01 
-7.616498750167e+01 1.836139214462e+01 0.0 
1.836139214462e+01 -2.359753190848e+02 0.0 
0.0 0.0 -9.324209197594e+01 
-1.135748155145e+02 4.286747179603e+00 0.0 
4.286747179603e+00 -3.085032043062e+02 0.0 
0.0 0.0 -1.262234059462e+02 
-6.809469708389e+01 2.254582949760e+01 0.0 
2.254582949760e+01 -2.082013947440e+02 0.0 
0.0 0.0 -8.248882754835e+01 
-3.939429869685e+01 3.863212045247e+00 0.0 
3.863212045247e+00 -1.717400820871e+02 0.0 
0.0 0.0 -6.294031423520e+01 
-8.130974223978e+01 6.620364275588e+00 0.0 
6.620364275588e+00 -2.565799677103e+02 0.0 
0.0 0.0 -1.009669129850e+02 
-4.250572868603e+01 8.710482192621e+00 0.0 
8.710482192621e+00 -1.772673109314e+02 0.0 
0.0 0.0 -6.553191188522e+01 
-9.330479783435e+01 2.425590801758e+01 0.0 
2.425590801758e+01 -1.940694121409e+02 0.0 
0.0 0.0 -8.581226299259e+01 
-4.330097540649e+01 5.675889853822e+00 0.0 
5.675889853822e+00 -1.769290622633e+02 0.0 
0.0 0.0 -6.566901130093e+01 
-8.908363335356e+01 2.780901480485e+01 0.0 
2.780901480485e+01 -1.908343870035e+02 0.0 
0.0 0.0 -8.357540610710e+01 
-1.204582867175e+02 1.980217095815e+01 0.0 
1.980217095815e+01 -3.181630824725e+02 0.0 
0.0 0.0 -1.311864107570e+02 
-1.142653147124e+02 1.668118211742e+01 0.0 
1.668118211742e+01 -3.115341577749e+02 0.0 
0.0 0.0 -1.273398417462e+02 
-6.483819938166e+01 2.072888981322e+01 0.0 
2.072888981322e+01 -2.061290686588e+02 0.0 
0.0 0.0 -8.089018041213e+01 
-8.104603094666e+01 9.411794714276e+00 0.0 
9.411794714276e+00 -1.416556981720e+02 0.0 
0.0 0.0 -6.641051873560e+01 
-1.321643970178e+02 4.796314485592e-01 0.0 
4.796314485592e-01 -3.264466704992e+02 0.0 
0.0 0.0 -1.371833202551e+02 
-1.336450171223e+02 1.947692819654e+00 0.0 
1.947692819654e+00 -3.274111978975e+02 0.0 
0.0 0.0 -1.379168645060e+02 
-3.387652580783e+01 2.572595938535e+01 0.0 
2.572595938535e+01 -9.084123911169e+01 0.0 
0.0 0.0 -3.649809746230e+01 
-9.286833561481e+01 2.591930661195e+01 0.0 
2.591930661195e+01 -2.071384643832e+02 0.0 
0.0 0.0 -8.960203999941e+01 
-1.472652958757e+02 7.668010268457e-01 0.0 
7.668010268457e-01 -3.545581061856e+02 0.0 
0.0 0.0 -1.501470206184e+02 
-4.241782211624e+01 2.494984727115e+01 0.0 
2.494984727115e+01 -6.704689035982e+01 0.0 
0.0 0.0 -3.243941374282e+01 
-9.861104468877e+01 -1.769973398965e+00 0.0 
-1.769973398965e+00 -2.505964067488e+02 0.0 
0.0 0.0 -1.043622354313e+02 
-4.403413381183e+01 2.954490320986e+01 0.0 
2.954490320986e+01 -2.950908289561e+01 0.0 
0.0 0.0 -2.091310822244e+01 
-1.370436597129e+02 4.341064701699e-01 0.0 
4.341064701699e-01 -3.343665873546e+02 0.0 
0.0 0.0 -1.410230741202e+02 
-3.692391103624e+01 8.903435005580e+00 0.0 
8.903435005580e+00 -1.639507783158e+02 0.0 
0.0 0.0 -5.986240680561e+01 
-9.640851278131e+01 -1.432692526764e+00 0.0 
-1.432692526764e+00 -2.374775081830e+02 0.0 
0.0 0.0 -9.976580628929e+01 
-9.847044544750e+01 2.075683052852e+01 0.0 
2.075683052852e+01 -2.742334149976e+02 0.0 
0.0 0.0 -1.114111581335e+02 
-8.473784345205e+01 1.248810354270e+01 0.0 
1.248810354270e+01 -1.437968941481e+02 0.0 
0.0 0.0 -6.816042128004e+01 
-7.881520317421e+01 1.016390608770e+01 0.0 
1.016390608770e+01 -1.327683961332e+02 0.0 
0.0 0.0 -6.307507979222e+01 
-8.299904702486e+01 2.570510578427e+01 0.0 
2.570510578427e+01 -2.157557165567e+02 0.0 
0.0 0.0 -8.922642907446e+01 
-4.364790413061e+01 1.344424910839e+01 0.0 
1.344424910839e+01 -3.732868443037e+01 0.0 
0.0 0.0 -2.389297656830e+01 
-4.626703401548e+01 1.113244776462e+01 0.0 
1.113244776462e+01 -4.592143491691e+01 0.0 
0.0 0.0 -2.725654067972e+01 
-1.381332635435e+02 1.877321968547e+00 0.0 
1.877321968547e+00 -3.351669558184e+02 0.0 
0.0 0.0 -1.415900658086e+02 
-1.010034963816e+02 3.827129047999e+00 0.0 
3.827129047999e+00 -2.833290426398e+02 0.0 
0.0 0.0 -1.148997617064e+02 
-8.087816331726e+01 3.304871706759e+00 0.0 
3.304871706759e+00 -2.494984602897e+02 0.0 
0.0 0.0 -9.871298708210e+01 
-1.057831115458e+02 8.077728240532e+00 0.0 
8.077728240532e+00 -2.998940735052e+02 0.0 
0.0 0.0 -1.213031555153e+02 
-7.262390370699e+01 5.276449753728e+00 0.0 
5.276449753728e+00 -2.400171547378e+02 0.0 
0.0 0.0 -9.339231753344e+01 
-3.938876841346e+01 1.019806970188e+01 0.0 
1.019806970188e+01 -1.662179994824e+02 0.0 
0.0 0.0 -6.128203036876e+01 
-3.555011006656e+01 6.075264088217e+00 0.0 
6.075264088217e+00 -3.152604736243e+01 0.0 
0.0 0.0 -1.972284722870e+01 
-7.353588562709e+01 1.151094664579e+01 0.0 
1.151094664579e+01 -1.136377023520e+02 0.0 
0.0 0.0 -5.575207639372e+01 
-4.252304229204e+01 -2.923827373140e-02 0.0 
-2.923827373140e-02 -6.706153392145e+01 0.0 
0.0 0.0 -3.247537286405e+01 
-1.155295353337e+02 1.738569105145e+01 0.0 
1.738569105145e+01 -3.122136444643e+02 0.0 
0.0 0.0 -1.279229539394e+02 
-6.385560812336e+01 2.031958802982e+01 0.0 
2.031958802982e+01 -2.056272498554e+02 0.0 
0.0 0.0 -8.044485739363e+01 
-1.352952403604e+02 2.231878256846e+01 0.0 
2.231878256846e+01 -3.404933743123e+02 0.0 
0.0 0.0 -1.423365844018e+02 
-1.368216845949e+02 -6.835438227764e-01 0.0 
-6.835438227764e-01 -3.292604504231e+02 0.0 
0.0 0.0 -1.394246405054e+02 
-7.849372055854e+01 7.941406067113e+00 0.0 
7.941406067113e+00 -2.483064438294e+02 0.0 
0.0 0.0 -9.764004931637e+01 
-1.530776482564e+02 3.166828996385e+00 0.0 
3.166828996385e+00 -3.658619788486e+02 0.0 
0.0 0.0 -1.552818881315e+02 
-4.795994199778e+01 1.959884405311e+00 0.0 
1.959884405311e+00 -1.860403837908e+02 0.0 
0.0 0.0 -6.980009773657e+01 
-1.288975269694e+02 2.321280908935e+01 0.0 
2.321280908935e+01 -3.275582666699e+02 0.0 
0.0 0.0 -1.365367380918e+02 
-8.173990389973e+01 2.686491396980e+01 0.0 
2.686491396980e+01 -2.154718221514e+02 0.0 
0.0 0.0 -8.876351781534e+01 
-9.462118961815e+01 2.455286213575e+01 0.0 
2.455286213575e+01 -2.491445108530e+02 0.0 
0.0 0.0 -1.027297101413e+02 
-1.295609181020e+02 1.174124505458e+01 0.0 
1.174124505458e+01 -3.367082678002e+02 0.0 
0.0 0.0 -1.394807557707e+02 
-6.690332761831e+01 -8.348727105638e+00 0.0 
-8.348727105638e+00 -1.829236052912e+02 0.0 
0.0 0.0 -7.454807987286e+01 
-8.871719203776e+01 2.636786402507e+01 0.0 
2.636786402507e+01 -2.043093485115e+02 0.0 
0.0 0.0 -8.750796216479e+01 
-7.542264064649e+01 4.643312110231e+00 0.0 
4.643312110231e+00 -2.410652092445e+02 0.0 
0.0 0.0 -9.454635496729e+01 
-8.451693711965e+01 2.834800995033e+01 0.0 
2.834800995033e+01 -1.875079719618e+02 0.0 
0.0 0.0 -8.120747272443e+01 
-4.175061274991e+01 2.450251539557e+01 0.0 
2.450251539557e+01 -1.390697704348e+02 0.0 
0.0 0.0 -5.384611495542e+01 
-9.843194386027e+01 2.356085359358e+01 0.0 
2.356085359358e+01 -2.636659643975e+02 0.0 
0.0 0.0 -1.082293724773e+02 
-6.928608978471e+01 1.978558824615e+00 0.0 
1.978558824615e+00 -2.315559549386e+02 0.0 
0.0 0.0 -8.985261341700e+01 
-9.993881487638e+01 -2.880868098384e+00 0.0 
-2.880868098384e+00 -2.610018525666e+02 0.0 
0.0 0.0 -1.078822002329e+02 
-8.549736509988e+01 2.595568227181e+01 0.0 
2.595568227181e+01 -1.874671040264e+02 0.0 
0.0 0.0 -8.148934073787e+01 
-4.503065251854e+01 3.623561111168e+01 0.0 
3.623561111168e+01 -5.636774816791e+01 0.0 
0.0 0.0 -3.014659062297e+01 
-8.478958220584e+01 1.852971767448e+01 0.0 
1.852971767448e+01 -2.529118093137e+02 0.0 
0.0 0.0 -1.009104174559e+02 
-4.087314149449e+01 2.989730044760e+01 0.0 
2.989730044760e+01 -4.937981338607e+01 0.0 
0.0 0.0 -2.515011207887e+01 
-2.602912394124e+01 -3.891161484074e+00 0.0 
-3.891161484074e+00 -6.403021328012e+01 0.0 
0.0 0.0 -2.661780116641e+01 
-9.631895498777e+01 -3.436957404754e+00 0.0 
-3.436957404754e+00 -2.492100410535e+02 0.0 
0.0 0.0 -1.032586988124e+02 
-1.083002819228e+02 2.868433587934e+01 0.0 
2.868433587934e+01 -2.470471503859e+02 0.0 
0.0 0.0 -1.062042296926e+02 
-8.324059131435e+01 1.272109189136e+01 0.0 
1.272109189136e+01 -1.450788506888e+02 0.0 
0.0 0.0 -6.809583260095e+01 
-3.982929593792e+01 1.978429367259e+01 0.0 
1.978429367259e+01 -2.557793972890e+01 0.0 
0.0 0.0 -1.922217070005e+01 
-1.113096608257e+02 1.620804739062e+01 0.0 
1.620804739062e+01 -2.610558752600e+02 0.0 
0.0 0.0 -1.113096608257e+02 
-4.275297391000e+01 3.182974338359e+01 0.0 
3.182974338359e+01 -2.904648942746e+01 0.0 
0.0 0.0 -2.186061923527e+01 
-4.115492761892e+01 1.592531930485e+01 0.0 
1.592531930485e+01 -3.023142133830e+01 0.0 
0.0 0.0 -2.101590468717e+01 
-8.295934916640e+01 2.331266157998e+00 0.0 
2.331266157998e+00 -2.560732645805e+02 0.0 
0.0 0.0 -1.013097841241e+02 
-9.470120512461e+01 -1.938238405148e+00 0.0 
-1.938238405148e+00 -2.387830972550e+02 0.0 
0.0 0.0 -9.964529071389e+01 
-5.671374089655e+01 2.138136443349e+01 0.0 
2.138136443349e+01 -7.598720222494e+01 0.0 
0.0 0.0 -3.941028293645e+01 
-5.198853264147e+01 -5.271401510693e+00 0.0 
-5.271401510693e+00 -1.893648034408e+02 0.0 
0.0 0.0 -7.200600082469e+01 
-9.201946780975e+01 1.875216695618e+00 0.0 
1.875216695618e+00 -2.654753019019e+02 0.0 
0.0 0.0 -1.068484309135e+02 
-8.648746359495e+01 2.764473754340e+01 0.0 
2.764473754340e+01 -2.180376618709e+02 0.0 
0.0 0.0 -9.095753763975e+01 
-9.393651433299e+01 1.894158931304e+01 0.0 
1.894158931304e+01 -2.701983871154e+02 0.0 
0.0 0.0 -1.088404704345e+02 
-1.094670579553e+02 2.489603999884e+01 0.0 
2.489603999884e+01 -2.394414033366e+02 0.0 
0.0 0.0 -1.042725383876e+02 
-3.534783391810e+01 2.750571387891e+01 0.0 
2.750571387891e+01 -1.158224153201e+02 0.0 
0.0 0.0 -4.555269819813e+01 
-8.824279624328e+01 -4.519648884451e+00 0.0 
-4.519648884451e+00 -2.297168662345e+02 0.0 
0.0 0.0 -9.498789874334e+01 
-9.713361257236e+01 -3.035281581630e+00 0.0 
-3.035281581630e+00 -2.455163475170e+02 0.0 
0.0 0.0 -1.023949880268e+02 
-5.356389761636e+01 -8.078937702893e+00 0.0 
-8.078937702893e+00 -1.348331723010e+02 0.0 
0.0 0.0 -5.611912097521e+01 
-5.835999573358e+01 6.487415761631e+00 0.0 
6.487415761631e+00 -8.161557012271e+01 0.0 
0.0 0.0 -4.159266975689e+01 
-8.613699733140e+01 1.618588338719e+01 0.0 
1.618588338719e+01 -1.470039304701e+02 0.0 
0.0 0.0 -6.954227834046e+01 
-1.240824736655e+02 8.165115563115e-01 0.0 
8.165115563115e-01 -3.005012622827e+02 0.0 
0.0 0.0 -1.269751207845e+02 
-1.288339360270e+01 -9.583059401998e-01 0.0 
-9.583059401998e-01 -4.252702829526e+01 0.0 
0.0 0.0 -1.622312656939e+01 
-5.085115106595e+01 -7.369617764686e+00 0.0 
-7.369617764686e+00 -1.182282144159e+02 0.0 
0.0 0.0 -5.210220095335e+01 
-3.958711770977e+01 -7.292560046560e+00 0.0 
-7.292560046560e+00 -9.283181421520e+01 0.0 
0.0 0.0 -3.932567957749e+01 
-9.879353019914e+01 -1.223468309982e+00 0.0 
-1.223468309982e+00 -2.466428159832e+02 0.0 
0.0 0.0 -1.032309038547e+02 
-5.480454894467e+01 3.472360108336e+00 0.0 
3.472360108336e+00 -2.007931778781e+02 0.0 
0.0 0.0 -7.627931804684e+01 
-5.187636511750e+01 -5.197331395260e+00 0.0 
-5.197331395260e+00 -1.855238410315e+02 0.0 
0.0 0.0 -7.082006184469e+01 
-4.165426625969e+01 3.797901570286e-01 0.0 
3.797901570286e-01 -1.719524659351e+02 0.0 
0.0 0.0 -6.368201965845e+01 
-1.009158471644e+02 -2.816724876344e+00 0.0 
-2.816724876344e+00 -2.569832188172e+02 0.0 
0.0 0.0 -1.069697197945e+02 
-9.193519387148e+01 1.790383698783e+01 0.0 
1.790383698783e+01 -1.730637939514e+02 0.0 
0.0 0.0 -7.909969634686e+01 
-1.014680733122e+02 -2.421895693542e+00 0.0 
-2.421895693542e+00 -2.536242679058e+02 0.0 
0.0 0.0 -1.061277023654e+02 
-5.253383792022e+01 5.439072866611e+00 0.0 
5.439072866611e+00 -2.002928361985e+02 0.0 
0.0 0.0 -7.544800223561e+01 
-9.237277804672e+01 2.825830969966e+01 0.0 
2.825830969966e+01 -2.073634286369e+02 0.0 
0.0 0.0 -8.952086200509e+01 
-6.046438929849e+01 2.093090894116e+00 0.0 
2.093090894116e+00 -9.833580019122e+01 0.0 
0.0 0.0 -4.724005684691e+01 
-1.084951801459e+02 2.128896681583e+01 0.0 
2.128896681583e+01 -2.923371661767e+02 0.0 
0.0 0.0 -1.198497038968e+02 
-1.028412502134e+02 -5.941044548009e-01 0.0 
-5.941044548009e-01 -2.546428421684e+02 0.0 
0.0 0.0 -1.068452277145e+02 
-1.028641274399e+02 -1.113409807503e+00 0.0 
-1.113409807503e+00 -2.582337627230e+02 0.0 
0.0 0.0 -1.079293670489e+02 
-3.480934074329e+01 2.317866160053e+01 0.0 
2.317866160053e+01 -2.512104855661e+01 0.0 
0.0 0.0 -1.757911678997e+01 
-5.989002067333e+01 1.044578261305e+00 0.0 
1.044578261305e+00 -2.090572780296e+02 0.0 
0.0 0.0 -8.028418961089e+01 
-1.057182792735e+02 -1.877196052468e+00 0.0 
-1.877196052468e+00 -2.617463046454e+02 0.0 
0.0 0.0 -1.098393751757e+02 
-7.054904430286e+01 -4.004945599355e-01 0.0 
-4.004945599355e-01 -1.383482264180e+02 0.0 
0.0 0.0 -6.226918121625e+01 
-6.359626552403e+01 -5.367954258330e-01 0.0 
-5.367954258330e-01 -1.200246308717e+02 0.0 
0.0 0.0 -5.468626891872e+01 
-3.605690958050e+01 2.292845278502e+01 0.0 
2.292845278502e+01 -2.389124616984e+01 0.0 
0.0 0.0 -1.758444672510e+01 
-1.054506773546e+02 -2.273929888194e+00 0.0 
-2.273929888194e+00 -2.649410046756e+02 0.0 
0.0 0.0 -1.107175046090e+02 
-5.604288329554e+01 -9.507034942117e+00 0.0 
-9.507034942117e+00 -1.799966328063e+02 0.0 
0.0 0.0 -7.041185483055e+01 
-3.930012125343e+01 2.964557142570e+01 0.0 
2.964557142570e+01 -6.891615485617e+01 0.0 
0.0 0.0 -3.023705919210e+01 
-1.305314513415e+02 2.428696771433e+01 0.0 
2.428696771433e+01 -3.285900060728e+02 0.0 
0.0 0.0 -1.373364372243e+02 
-3.970730389680e+01 -1.129529793198e+01 0.0 
-1.129529793198e+01 -8.584461720011e+01 0.0 
0.0 0.0 -3.721710471757e+01 
-5.538577615722e+01 -9.230652140480e+00 0.0 
-9.230652140480e+00 -1.828035518290e+02 0.0 
0.0 0.0 -7.105679839587e+01 
-8.042678688002e+01 2.053685907549e+01 0.0 
2.053685907549e+01 -2.394941089936e+02 0.0 
0.0 0.0 -9.557626876207e+01 
-3.114120246500e+01 1.082792416953e+01 0.0 
1.082792416953e+01 -1.808137647157e+01 0.0 
0.0 0.0 -1.436677368097e+01 
-1.069089494312e+02 -5.191632356937e-02 0.0 
-5.191632356937e-02 -2.628942421941e+02 0.0 
0.0 0.0 -1.105409574876e+02 
-4.849162673766e+01 6.006028648482e-01 0.0 
6.006028648482e-01 -1.207129581672e+02 0.0 
0.0 0.0 -5.036137547145e+01 
-6.452825116557e+01 9.189034327205e+00 0.0 
9.189034327205e+00 -9.017858782788e+01 0.0 
0.0 0.0 -4.601205169803e+01 
-1.070520734841e+02 -5.549261056433e-01 0.0 
-5.549261056433e-01 -2.660476910746e+02 0.0 
0.0 0.0 -1.115299293676e+02 
-7.821495190995e+01 3.648205782585e-01 0.0 
3.648205782585e-01 -2.405565229796e+02 0.0 
0.0 0.0 -9.523144246687e+01 
-9.430818022726e+01 -2.498054430415e+00 0.0 
-2.498054430415e+00 -2.431541482710e+02 0.0 
0.0 0.0 -1.008386985495e+02 
-3.938226930921e+01 2.914016991750e+01 0.0 
2.914016991750e+01 -8.159334802381e+01 0.0 
0.0 0.0 -3.748707525781e+01 
-9.125181250715e+01 1.480788584831e+00 0.0 
1.480788584831e+00 -1.970916303448e+02 0.0 
0.0 0.0 -8.610303285559e+01 
-6.342046883015e+01 -4.034177196991e+00 0.0 
-4.034177196991e+00 -2.072682920071e+02 0.0 
0.0 0.0 -8.080662825116e+01 
-1.258657471425e+02 1.447215851630e+01 0.0 
1.447215851630e+01 -3.332125589175e+02 0.0 
0.0 0.0 -1.373234918180e+02 
-9.413012275459e+01 2.576061981313e+01 0.0 
2.576061981313e+01 -2.492582442394e+02 0.0 
0.0 0.0 -1.026165100982e+02 
-1.098884899215e+02 -1.821153578426e+00 0.0 
-1.821153578426e+00 -2.729889827739e+02 0.0 
0.0 0.0 -1.144632418086e+02 
-1.111781462792e+02 -1.183384987293e-01 0.0 
-1.183384987293e-01 -2.739536204097e+02 0.0 
0.0 0.0 -1.151395300067e+02 
-4.959722935707e+01 1.184112641208e+00 0.0 
1.184112641208e+00 -1.929200858222e+02 0.0 
0.0 0.0 -7.235519455379e+01 
-3.572919487639e+01 -1.090677796609e+01 0.0 
-1.090677796609e+01 -5.946596446438e+01 0.0 
0.0 0.0 -2.702032614854e+01 
-3.778014693095e+01 3.442163203332e+01 0.0 
3.442163203332e+01 -8.488771306191e+01 0.0 
0.0 0.0 -3.820173750918e+01 
-1.142901905900e+02 -1.438746381724e+00 0.0 
-1.438746381724e+00 -2.811516093485e+02 0.0 
0.0 0.0 -1.182325399815e+02 
-1.272839858520e+02 1.110544964121e+01 0.0 
1.110544964121e+01 -3.357656969738e+02 0.0 
0.0 0.0 -1.385149048477e+02 
-5.924114193262e+01 -1.073603534013e+01 0.0 
-1.073603534013e+01 -1.720981853896e+02 0.0 
0.0 0.0 -6.900179819667e+01 
-9.630750551299e+01 2.629301060463e+01 0.0 
2.629301060463e+01 -2.235996875852e+02 0.0 
0.0 0.0 -9.557215792946e+01 
-3.930297298441e+01 2.525265292266e+01 0.0 
2.525265292266e+01 -6.558278643756e+01 0.0 
0.0 0.0 -3.106572782659e+01 
-9.676841042092e+01 2.787229549725e+01 0.0 
2.787229549725e+01 -2.110824550775e+02 0.0 
0.0 0.0 -9.195525964952e+01 
-1.523458507829e+02 8.032253562587e+00 0.0 
8.032253562587e+00 -3.736497753155e+02 0.0 
0.0 0.0 -1.573986878295e+02 
-1.173989218295e+02 -1.366032179026e+00 0.0 
-1.366032179026e+00 -1.026841934213e+02 0.0 
0.0 0.0 -6.630180558570e+01 
-1.070071742545e+02 1.641386968911e+00 0.0 
1.641386968911e+00 -2.510167399271e+02 0.0 
0.0 0.0 -1.070071742545e+02 
-1.671147323869e+02 5.582529627293e-01 0.0 
5.582529627293e-01 -3.912677089028e+02 0.0 
0.0 0.0 -1.671147323869e+02 
-5.089590187436e+01 7.679149986200e-01 0.0 
7.679149986200e-01 -8.819869824426e+01 0.0 
0.0 0.0 -4.132838003559e+01 
-6.685006364269e+01 -6.914546432536e+00 0.0 
-6.914546432536e+00 -2.024522182590e+02 0.0 
0.0 0.0 -8.039068457049e+01 
-9.010228432729e+01 2.675513616744e+01 0.0 
2.675513616744e+01 -2.339034463432e+02 0.0 
0.0 0.0 -9.680171920113e+01 
-5.002874882598e+01 6.601443476437e+00 0.0 
6.601443476437e+00 -1.914400446028e+02 0.0 
0.0 0.0 -7.204063802864e+01 
-2.122397217631e+01 -1.717035373720e+00 0.0 
-1.717035373720e+00 -5.522404614166e+01 0.0 
0.0 0.0 -2.253440549539e+01 
-4.733827892734e+01 3.149070009240e+01 0.0 
3.149070009240e+01 -3.117070107489e+01 0.0 
0.0 0.0 -2.280441874525e+01 
-9.873848443644e+01 5.245803625032e+00 0.0 
5.245803625032e+00 -2.150014159650e+02 0.0 
0.0 0.0 -9.372197012042e+01 
-9.046647490056e+01 1.893212640272e+01 0.0 
1.893212640272e+01 -1.608246284909e+02 0.0 
0.0 0.0 -7.498733101742e+01 
-5.666972275502e+01 7.769718781757e+00 0.0 
7.769718781757e+00 -7.488909100835e+01 0.0 
0.0 0.0 -3.906764412901e+01 
-1.434267194871e+02 3.288026393926e+01 0.0 
3.288026393926e+01 -3.399260706938e+02 0.0 
0.0 0.0 -1.446058370543e+02 
-3.960052428725e+01 6.325758316138e-01 0.0 
6.325758316138e-01 -1.007140178342e+02 0.0 
0.0 0.0 -4.169436263644e+01 
-1.454028971285e+02 3.170521551981e+01 0.0 
3.170521551981e+01 -3.468404430777e+02 0.0 
0.0 0.0 -1.472730020619e+02 
-8.777620992808e+01 1.541379192432e+01 0.0 
1.541379192432e+01 -1.588271585148e+02 0.0 
0.0 0.0 -7.358101053288e+01 
-6.943414106495e+01 -7.737844905386e+00 0.0 
-7.737844905386e+00 -1.961026090477e+02 0.0 
0.0 0.0 -7.926102503379e+01 
-8.635573096776e+01 2.467795621396e+01 0.0 
2.467795621396e+01 -2.312298639543e+02 0.0 
0.0 0.0 -9.487567847663e+01 
-6.021385211370e+01 -9.105557729443e+00 0.0 
-9.105557729443e+00 -1.881186433822e+02 0.0 
0.0 0.0 -7.409974864878e+01 
-3.762721411226e+01 2.846022640266e+01 0.0 
2.846022640266e+01 -6.692817648895e+01 0.0 
0.0 0.0 -3.023239310648e+01 
-5.867238129413e+01 -1.055310825136e+01 0.0 
-1.055310825136e+01 -1.751742858385e+02 0.0 
0.0 0.0 -6.975400013978e+01 
-9.590298973648e+01 2.018235075162e+01 0.0 
2.018235075162e+01 -1.880405978838e+02 0.0 
0.0 0.0 -8.478307628610e+01 
-1.420376592696e+02 1.345002241558e+00 0.0 
1.345002241558e+00 -3.402213630141e+02 0.0 
0.0 0.0 -1.442777066851e+02 
-5.689042100400e+01 -6.469566761931e+00 0.0 
-6.469566761931e+00 -1.946925538366e+02 0.0 
0.0 0.0 -7.507489245218e+01 
-1.003117066470e+02 2.608644130636e+01 0.0 
2.608644130636e+01 -2.268958066016e+02 0.0 
0.0 0.0 -9.776225397456e+01 
-7.507266089680e+01 -2.974777147818e+00 0.0 
-2.974777147818e+00 -1.125939937384e+02 0.0 
0.0 0.0 -5.680125191380e+01 
-5.405882230017e+01 -1.395533847622e+00 0.0 
-1.395533847622e+00 -1.994031050264e+02 0.0 
0.0 0.0 -7.563857819797e+01 
-1.003574756844e+02 1.925144846990e+01 0.0 
1.925144846990e+01 -1.907475192185e+02 0.0 
0.0 0.0 -8.693149847087e+01 
-6.082478026300e+01 -1.000906954793e+01 0.0 
-1.000906954793e+01 -1.676717726502e+02 0.0 
0.0 0.0 -6.814896587397e+01 
-5.732545387346e+01 -1.127742326051e+01 0.0 
-1.127742326051e+01 -1.582079576514e+02 0.0 
0.0 0.0 -6.426002345745e+01 
-8.536136815868e+01 2.564574380416e+01 0.0 
2.564574380416e+01 -2.310364440856e+02 0.0 
0.0 0.0 -9.451934367330e+01 
-3.516746415879e+01 -1.878344797489e+01 0.0 
-1.878344797489e+01 -1.074491891021e+02 0.0 
0.0 0.0 -4.187604057358e+01 
-3.349033769062e+01 2.290178187347e+01 0.0 
2.290178187347e+01 -2.416855745894e+01 0.0 
0.0 0.0 -1.689766854487e+01 
-3.509918844705e+01 2.460225796781e+01 0.0 
2.460225796781e+01 -2.571043653098e+01 0.0 
0.0 0.0 -1.784288749341e+01 
-5.485665686619e+01 -1.110372852663e+01 0.0 
-1.110372852663e+01 -1.478998115148e+02 0.0 
0.0 0.0 -6.042694051429e+01 
-8.640694370679e+01 2.389549599341e+00 0.0 
2.389549599341e+00 -2.575416374674e+02 0.0 
0.0 0.0 -1.027845743523e+02 
-7.249484306166e+01 2.047748685786e+01 0.0 
2.047748685786e+01 -2.226913281804e+02 0.0 
0.0 0.0 -8.815585137263e+01 
-1.003138993838e+02 2.831783781376e+01 0.0 
2.831783781376e+01 -2.272610572207e+02 0.0 
0.0 0.0 -9.787248698135e+01 
-1.142812495827e+02 2.449394206035e+01 0.0 
2.449394206035e+01 -2.528826427174e+02 0.0 
0.0 0.0 -1.097491676900e+02 
-3.101441295623e+01 1.951120615741e+01 0.0 
1.951120615741e+01 -2.242935427084e+01 0.0 
0.0 0.0 -1.563313016812e+01 
-7.805353983648e+01 1.476602709528e+00 0.0 
1.476602709528e+00 -1.582572563382e+02 0.0 
0.0 0.0 -7.049323885241e+01 
-1.216329544103e+02 2.825003572516e+01 0.0 
2.825003572516e+01 -2.837098348622e+02 0.0 
0.0 0.0 -1.212028367818e+02 
-4.565796284457e+01 4.574796138522e+00 0.0 
4.574796138522e+00 -1.856535567956e+02 0.0 
0.0 0.0 -6.899345589206e+01 
-3.982023006273e+01 2.941942310867e+01 0.0 
2.941942310867e+01 -4.931038759671e+01 0.0 
0.0 0.0 -2.476032747435e+01 
-4.342802549780e+01 2.786727833398e+01 0.0 
2.786727833398e+01 -6.821593038360e+01 0.0 
0.0 0.0 -3.309318676442e+01 
-8.365978110423e+01 -1.829137098456e-01 0.0 
-1.829137098456e-01 -2.480055251325e+02 0.0 
0.0 0.0 -9.909959187102e+01 
-1.001663340018e+02 2.469228011686e+01 0.0 
2.469228011686e+01 -2.143343934042e+02 0.0 
0.0 0.0 -9.395021822180e+01 
-7.975055791203e+01 -3.616355441467e-01 0.0 
-3.616355441467e-01 -2.463097211122e+02 0.0 
0.0 0.0 -9.741808370726e+01 
-3.258074386106e+01 2.571863525146e+01 0.0 
2.571863525146e+01 -9.459360325699e+01 0.0 
0.0 0.0 -3.779171532151e+01 
-9.521604907244e+01 4.320476380501e+00 0.0 
4.320476380501e+00 -2.748494867413e+02 0.0 
0.0 0.0 -1.106196607441e+02 
-3.721313942969e+01 2.793128779736e+01 0.0 
2.793128779736e+01 -6.640284371541e+01 0.0 
0.0 0.0 -3.068479494353e+01 
-7.184576274947e+01 2.034039700438e+01 0.0 
2.034039700438e+01 -2.223878311205e+02 0.0 
0.0 0.0 -8.787007816098e+01 
-8.838547529364e+01 1.428491094581e+00 0.0 
1.428491094581e+00 -2.638369186475e+02 0.0 
0.0 0.0 -1.052667181823e+02 
-8.991660942843e+01 2.353110463997e+01 0.0 
2.353110463997e+01 -2.459659088826e+02 0.0 
0.0 0.0 -1.003647554933e+02 
-7.003728855290e+01 1.856432553913e+00 0.0 
1.856432553913e+00 -1.335719981236e+02 0.0 
0.0 0.0 -6.068278600294e+01 
-5.757881000847e+01 -9.328142876930e+00 0.0 
-9.328142876930e+00 -1.494033210043e+02 0.0 
0.0 0.0 -6.169463930382e+01 
-3.972931644943e+01 3.099976953848e+01 0.0 
3.099976953848e+01 -7.112238895427e+01 0.0 
0.0 0.0 -3.182848909116e+01 
-9.763771823639e+01 3.168824066289e+00 0.0 
3.168824066289e+00 -2.817608612731e+02 0.0 
0.0 0.0 -1.134195738528e+02 
-3.680092199053e+01 2.704865161934e+01 0.0 
2.704865161934e+01 -6.538097560922e+01 0.0 
0.0 0.0 -3.025456927993e+01 
-4.823838558276e+01 9.815843001759e+00 0.0 
9.815843001759e+00 -1.201441449902e+02 0.0 
0.0 0.0 -5.192254749792e+01 
-9.712585512195e+01 -2.314073547553e-02 0.0 
-2.314073547553e-02 -2.160328984250e+02 0.0 
0.0 0.0 -9.354762606409e+01 
-9.130046701708e+01 -2.422743586990e-01 0.0 
-2.422743586990e-01 -1.972099039483e+02 0.0 
0.0 0.0 -8.615311128961e+01 
-1.828041857080e+01 -3.445695673033e+00 0.0 
-3.445695673033e+00 -2.482044351020e+01 0.0 
0.0 0.0 -1.284213612961e+01 
-1.045925081932e+02 6.163404464581e+00 0.0 
6.163404464581e+00 -2.924925670133e+02 0.0 
0.0 0.0 -1.187255225619e+02 
-4.680799575932e+01 -8.127002273434e+00 0.0 
-8.127002273434e+00 -1.141161527512e+02 0.0 
0.0 0.0 -4.787724455315e+01 
-4.890279013279e+01 -9.199902136427e+00 0.0 
-9.199902136427e+00 -1.205764331666e+02 0.0 
0.0 0.0 -5.044376698982e+01 
-1.078141629636e+02 2.652255139197e+01 0.0 
2.652255139197e+01 -2.466417272845e+02 0.0 
0.0 0.0 -1.059367670744e+02 
-8.937579195550e+01 2.426687613035e+01 0.0 
2.426687613035e+01 -2.458791337661e+02 0.0 
0.0 0.0 -1.001764777165e+02 
-1.040174602290e+02 2.654043225143e+01 0.0 
2.654043225143e+01 -2.430095992768e+02 0.0 
0.0 0.0 -1.037081178517e+02 
-5.818173602267e+01 -2.860316532863e+00 0.0 
-2.860316532863e+00 -2.007551278979e+02 0.0 
0.0 0.0 -7.728105917617e+01 
-4.305499168396e+01 9.412050810643e-03 0.0 
9.412050810643e-03 -6.686200735630e+01 0.0 
0.0 0.0 -3.257509971208e+01 
-1.569464706890e+02 6.792980132615e+00 0.0 
6.792980132615e+00 -3.754669543276e+02 0.0 
0.0 0.0 -1.593240275050e+02 
-4.246761229792e+01 -8.731288692609e+00 0.0 
-8.731288692609e+00 -9.996199669549e+01 0.0 
0.0 0.0 -4.232888269802e+01 
-1.214851950454e+02 1.614731572680e+01 0.0 
1.614731572680e+01 -3.228868203351e+02 0.0 
0.0 0.0 -1.329116046141e+02 
-7.620113656195e+01 2.246688682871e+01 0.0 
2.246688682871e+01 -2.253599940918e+02 0.0 
0.0 0.0 -9.006833919612e+01 
-2.984402360925e+01 -1.970283930189e+00 0.0 
-1.970283930189e+00 -7.659340767623e+01 0.0 
0.0 0.0 -3.153122938564e+01 
-9.661804334901e+01 2.321160665861e+01 0.0 
2.321160665861e+01 -1.982067188916e+02 0.0 
0.0 0.0 -8.804742867219e+01 
-5.674957114600e+01 2.555125150929e+00 0.0 
2.555125150929e+00 -2.081039904475e+02 0.0 
0.0 0.0 -7.905606847804e+01 
-3.217994281757e+01 -1.183214241718e+01 0.0 
-1.183214241718e+01 -4.648692865920e+01 0.0 
0.0 0.0 -2.245052586389e+01 
-4.725152990156e+01 -3.213940173077e+00 0.0 
-3.213940173077e+00 -1.839750817216e+02 0.0 
0.0 0.0 -6.896798348695e+01 
-1.201068733834e+02 -8.865881116234e-01 0.0 
-8.865881116234e-01 -2.918074517503e+02 0.0 
0.0 0.0 -1.231742975401e+02 
-9.787361778823e+01 2.351202651307e+01 0.0 
2.351202651307e+01 -1.899821866970e+02 0.0 
0.0 0.0 -8.595674134556e+01 
-3.626914474846e+01 -9.682544751906e+00 0.0 
-9.682544751906e+00 -7.948460575518e+01 0.0 
0.0 0.0 -3.430151086029e+01 
-9.746547376028e+01 -5.517876059342e-02 0.0 
-5.517876059342e-02 -2.383469109988e+02 0.0 
0.0 0.0 -1.003437154277e+02 
-1.040352007854e+02 2.577183271813e+01 0.0 
2.577183271813e+01 -2.307171605193e+02 0.0 
0.0 0.0 -1.000257083914e+02 
-1.140883021464e+02 2.416477914334e+01 0.0 
2.416477914334e+01 -2.972585868380e+02 0.0 
0.0 0.0 -1.230040666953e+02 
-5.687359630419e+01 -1.117977092798e+01 0.0 
-1.117977092798e+01 -1.615685815866e+02 0.0 
0.0 0.0 -6.513265336724e+01 
-4.859583085331e+01 -1.727100709371e+00 0.0 
-1.727100709371e+00 -1.208312001581e+02 0.0 
0.0 0.0 -5.042810930342e+01 
-8.064225160369e+01 2.037944862875e+01 0.0 
2.037944862875e+01 -2.395544915056e+02 0.0 
0.0 0.0 -9.565902293280e+01 
-6.668409035687e+01 8.847389585469e-01 0.0 
8.847389585469e-01 -1.277576625131e+02 0.0 
0.0 0.0 -5.793252586100e+01 
-3.384898597102e+01 -1.714801450380e+01 0.0 
-1.714801450380e+01 -5.034159967796e+01 0.0 
0.0 0.0 -2.448228102420e+01 
-1.306953552664e+02 3.183996543956e+01 0.0 
3.183996543956e+01 -3.059373116398e+02 0.0 
0.0 0.0 -1.305898000719e+02 
-1.146523738512e+02 2.348230408759e+01 0.0 
2.348230408759e+01 -2.594403962283e+02 0.0 
0.0 0.0 -1.118278310238e+02 
-5.586696963506e+01 8.944611921306e-01 0.0 
8.944611921306e-01 -1.000904249440e+02 0.0 
0.0 0.0 -4.638721837372e+01 
-1.086775853452e+02 1.293409639655e+01 0.0 
1.293409639655e+01 -2.348221176909e+02 0.0 
0.0 0.0 -1.026499109108e+02 
-1.194086752366e+02 2.638448236275e+01 0.0 
2.638448236275e+01 -2.726941872443e+02 0.0 
0.0 0.0 -1.172308587443e+02 
-5.890395754784e+01 -3.207805301507e+00 0.0 
-3.207805301507e+00 -2.055770108648e+02 0.0 
0.0 0.0 -7.894429052379e+01 
-6.193954724299e+01 -6.966316684456e+00 0.0 
-6.966316684456e+00 -1.966916697650e+02 0.0 
0.0 0.0 -7.718936510239e+01 
-1.448584654855e+02 2.024395740152e+01 0.0 
2.024395740152e+01 -3.606648710836e+02 0.0 
0.0 0.0 -1.512570009707e+02 
-7.013133592789e+01 4.270898914370e+00 0.0 
4.270898914370e+00 -1.093196680148e+02 0.0 
0.0 0.0 -5.438591336561e+01 
-4.376700373232e+01 -1.173883036235e+00 0.0 
-1.173883036235e+00 -1.098945933517e+02 0.0 
0.0 0.0 -4.569847912520e+01 
-9.848581483421e+01 -1.276323071097e+00 0.0 
-1.276323071097e+00 -2.425895545499e+02 0.0 
0.0 0.0 -1.019226108152e+02 
-6.065591897493e+01 -9.827933421588e+00 0.0 
-9.827933421588e+00 -1.635126292413e+02 0.0 
0.0 0.0 -6.685056446486e+01 
-5.041059390276e+01 -8.778372773873e+00 0.0 
-8.778372773873e+00 -1.777376910553e+02 0.0 
0.0 0.0 -6.804448548741e+01 
-3.463769621009e+01 2.391340990755e+01 0.0 
2.391340990755e+01 -2.410202493031e+01 0.0 
0.0 0.0 -1.722191634212e+01 
-3.669626455455e+01 2.588683199145e+01 0.0 
2.588683199145e+01 -2.698951135442e+01 0.0 
0.0 0.0 -1.870573277269e+01 
-6.156034228994e+01 3.043907768323e+00 0.0 
3.043907768323e+00 -1.013546582923e+02 0.0 
0.0 0.0 -4.847450017467e+01 
-5.298236074957e+01 -8.776374734274e-01 0.0 
-8.776374734274e-01 -1.938598830846e+02 0.0 
0.0 0.0 -7.365267315025e+01 
-5.200895929827e+01 -3.085097952603e+00 0.0 
-3.085097952603e+00 -1.289828894233e+02 0.0 
0.0 0.0 -5.389755461646e+01 
-1.074824759549e+02 2.395778380132e+01 0.0 
2.395778380132e+01 -2.815564141333e+02 0.0 
0.0 0.0 -1.163116670265e+02 
-1.650015225756e+02 4.604332366226e+00 0.0 
4.604332366226e+00 -3.913168598991e+02 0.0 
0.0 0.0 -1.664955147424e+02 
-1.636995897444e+02 6.021648980542e+00 0.0 
6.021648980542e+00 -3.900515436579e+02 0.0 
0.0 0.0 -1.657253400207e+02 
-6.195340167976e+01 -6.999371699676e+00 0.0 
-6.999371699676e+00 -2.003652623733e+02 0.0 
0.0 0.0 -7.829559921592e+01 
-5.587407456075e+01 1.863577625601e+00 0.0 
1.863577625601e+00 -8.491970134014e+01 0.0 
0.0 0.0 -4.183813277027e+01 
-7.339533386346e+01 -1.985524364116e-01 0.0 
-1.985524364116e-01 -1.093031015344e+02 0.0 
0.0 0.0 -5.579181457646e+01 
-3.950444097832e+01 2.687832262060e+01 0.0 
2.687832262060e+01 -2.684520775366e+01 0.0 
0.0 0.0 -1.869365043068e+01 
-4.051772124673e+01 -2.301262710315e+01 0.0 
-2.301262710315e+01 -1.133614897488e+02 0.0 
0.0 0.0 -4.494771376228e+01 
-3.759567258124e+01 2.578192876925e+01 0.0 
2.578192876925e+01 -2.640281012382e+01 0.0 
0.0 0.0 -1.872322400249e+01 
-8.481179873778e+01 2.251536142171e+01 0.0 
2.251536142171e+01 -2.426962979724e+02 0.0 
0.0 0.0 -9.785242901306e+01 
-5.413420923530e+01 -1.123566590964e+01 0.0 
-1.123566590964e+01 -1.698364104411e+02 0.0 
0.0 0.0 -6.679118590292e+01 
-5.697175012756e+01 -6.451630307485e+00 0.0 
-6.451630307485e+00 -1.912055498100e+02 0.0 
0.0 0.0 -7.405318998127e+01 
-3.990397042659e+01 -2.846533842902e+01 0.0 
-2.846533842902e+01 -9.933651907430e+01 0.0 
0.0 0.0 -4.189394223365e+01 
-9.127698498559e+01 1.092040835716e+00 0.0 
1.092040835716e+00 -2.000134268624e+02 0.0 
0.0 0.0 -8.698712355441e+01 
-6.063263998658e+01 -9.242716671782e+00 0.0 
-9.242716671782e+00 -1.850272826442e+02 0.0 
0.0 0.0 -7.329797678923e+01 
-9.727624168992e+01 3.576771866554e+00 0.0 
3.576771866554e+00 -2.140108643804e+02 0.0 
0.0 0.0 -9.298613182111e+01 
-8.773978250597e+01 2.269998577953e+00 0.0 
2.269998577953e+00 -1.845894015403e+02 0.0 
0.0 0.0 -8.129875521389e+01 
-1.095338691620e+02 1.779690082197e+00 0.0 
1.779690082197e+00 -2.515197662673e+02 0.0 
0.0 0.0 -1.079160906288e+02 
-1.661430379791e+02 5.164302740081e-01 0.0 
5.164302740081e-01 -3.910940668834e+02 0.0 
0.0 0.0 -1.667711314587e+02 
-5.591026637556e+01 -4.933031711052e-01 0.0 
-4.933031711052e-01 -1.005668960930e+02 0.0 
0.0 0.0 -4.654314874056e+01 
-6.509182647390e+01 -8.623858399956e+00 0.0 
-8.623858399956e+00 -1.902975906529e+02 0.0 
0.0 0.0 -7.621682513804e+01 
-3.028947268977e+01 2.128484086374e+01 0.0 
2.128484086374e+01 -2.303092533215e+01 0.0 
0.0 0.0 -1.559611940658e+01 
-6.504272704695e+01 -8.641541502471e+00 0.0 
-8.641541502471e+00 -1.940288414979e+02 0.0 
0.0 0.0 -7.732147056344e+01 
-1.677175397650e+02 3.444768897837e+00 0.0 
3.444768897837e+00 -3.926742594516e+02 0.0 
0.0 0.0 -1.677175397650e+02 
-4.230007080069e+01 2.843211834862e+01 0.0 
2.843211834862e+01 -2.815663960027e+01 0.0 
0.0 0.0 -1.939945862078e+01 
-4.052626045716e+01 2.724041248350e+01 0.0 
2.724041248350e+01 -2.726227586685e+01 0.0 
0.0 0.0 -1.828495110375e+01 
-1.257903966981e+02 1.852014019034e+01 0.0 
1.852014019034e+01 -3.289144734507e+02 0.0 
0.0 0.0 -1.360114610446e+02 
-5.310480478067e+01 1.210215205926e+00 0.0 
1.210215205926e+00 -8.507178312949e+01 0.0 
0.0 0.0 -4.105297637305e+01 
-9.738534787094e+01 2.004623505862e+00 0.0 
2.004623505862e+00 -2.158666907080e+02 0.0 
0.0 0.0 -9.357561157368e+01 
-1.044568710039e+02 2.812541764028e+01 0.0 
2.812541764028e+01 -2.311090068330e+02 0.0 
0.0 0.0 -1.002697633511e+02 
-1.229233289640e+02 2.386109683679e+01 0.0 
2.386109683679e+01 -3.143071865450e+02 0.0 
0.0 0.0 -1.307691546527e+02 
-1.087041336257e+02 2.639062228892e+01 0.0 
2.639062228892e+01 -2.268867201322e+02 0.0 
0.0 0.0 -1.002772561274e+02 
-5.800462794688e+01 -6.493137686185e-02 0.0 
-6.493137686185e-02 -1.039751280584e+02 0.0 
0.0 0.0 -4.819392680158e+01 
-5.478840070771e+01 -1.097109735781e+01 0.0 
-1.097109735781e+01 -1.437497873590e+02 0.0 
0.0 0.0 -5.916145642003e+01 
-5.146847676531e+01 -1.255380372911e+01 0.0 
-1.255380372911e+01 -1.420417050086e+02 0.0 
0.0 0.0 -5.765305453217e+01 
-7.413901654767e+01 -9.957008555402e-02 0.0 
-9.957008555402e-02 -1.474773505636e+02 0.0 
0.0 0.0 -6.608491013339e+01 
-1.186637828714e+02 2.593664694325e+01 0.0 
2.593664694325e+01 -3.008192467970e+02 0.0 
0.0 0.0 -1.254449089005e+02 
-5.182550652582e+01 3.262244875566e+00 0.0 
3.262244875566e+00 -6.980398876189e+01 0.0 
0.0 0.0 -3.608884858631e+01 
-4.941917530965e+01 6.467156798339e-02 0.0 
6.467156798339e-02 -8.359103948305e+01 0.0 
0.0 0.0 -3.950306443781e+01 
-5.619484104550e+01 5.927103195149e-01 0.0 
5.927103195149e-01 -9.955032354044e+01 0.0 
0.0 0.0 -4.632354937578e+01 
-5.897436505381e+01 1.721729178125e+00 0.0 
1.721729178125e+00 -1.052869650371e+02 0.0 
0.0 0.0 -4.887839902726e+01 
-2.739115849808e+01 -1.419872765763e+01 0.0 
-1.419872765763e+01 -1.154299619534e+02 0.0 
0.0 0.0 -4.409203056868e+01 
-4.939077457462e+01 -1.180305871873e+01 0.0 
-1.180305871873e+01 -1.277807545113e+02 0.0 
0.0 0.0 -5.275145872578e+01 
-1.058913323669e+02 6.266726387176e+00 0.0 
6.266726387176e+00 -2.365619194803e+02 0.0 
0.0 0.0 -1.023359755542e+02 
-6.704120620083e+01 2.137286263466e+00 0.0 
2.137286263466e+00 -1.246843565453e+02 0.0 
0.0 0.0 -5.711766882385e+01 
-1.467933536137e+02 2.364891894586e+01 0.0 
2.364891894586e+01 -3.570117737124e+02 0.0 
0.0 0.0 -1.507415381978e+02 
-1.188055344119e+02 2.746968584897e+01 0.0 
2.746968584897e+01 -2.567288332187e+02 0.0 
0.0 0.0 -1.122603102892e+02 
-9.740831435645e+01 2.616710693979e+01 0.0 
2.616710693979e+01 -1.993275798039e+02 0.0 
0.0 0.0 -8.862076824809e+01 
-1.053809288468e+02 1.296325521741e+01 0.0 
1.296325521741e+01 -2.223162440193e+02 0.0 
0.0 0.0 -9.790915185982e+01 
-7.278116091345e+01 -3.513074722762e+00 0.0 
-3.513074722762e+00 -1.810844137682e+02 0.0 
0.0 0.0 -7.575967240449e+01 
-6.630147892049e+01 -3.814650316699e+00 0.0 
-3.814650316699e+00 -1.653989055842e+02 0.0 
0.0 0.0 -6.911011535141e+01 
-1.468174160527e+02 5.627245899314e+00 0.0 
5.627245899314e+00 -3.605574817305e+02 0.0 
0.0 0.0 -1.518124693350e+02 
-4.057524038397e+01 -1.990638489558e+01 0.0 
-1.990638489558e+01 -9.893719949342e+01 0.0 
0.0 0.0 -4.324810974044e+01 
-4.659855142153e+01 -6.508505226029e-01 0.0 
-6.508505226029e-01 -1.162189096647e+02 0.0 
0.0 0.0 -4.844523832588e+01 
-1.471833968928e+02 3.072048857345e+01 0.0 
3.072048857345e+01 -3.447612594166e+02 0.0 
0.0 0.0 -1.471833968928e+02 
-2.010863799295e+01 7.334694375605e-01 0.0 
7.334694375605e-01 -5.779028288096e+01 0.0 
0.0 0.0 -2.296967626217e+01 
-4.931421829968e+01 6.731660448012e-02 0.0 
6.731660448012e-02 -8.358088004979e+01 0.0 
0.0 0.0 -3.946852950484e+01 
-1.376899984018e+02 1.606416882676e+01 0.0 
1.606416882676e+01 -3.518533009255e+02 0.0 
0.0 0.0 -1.464629897982e+02 
-1.914778340233e+01 -4.019542984629e+00 0.0 
-4.019542984629e+00 -4.015990020741e+01 0.0 
0.0 0.0 -1.739230508292e+01 
-6.316754048104e+00 -5.473558156342e-01 0.0 
-5.473558156342e-01 -2.374967780060e+01 0.0 
0.0 0.0 -8.138884798035e+00 
-1.130207189141e+02 1.098701117075e+01 0.0 
1.098701117075e+01 -2.563615367675e+02 0.0 
0.0 0.0 -1.104146767045e+02 
-4.443976374604e+01 -1.783364569720e-01 0.0 
-1.783364569720e-01 -6.687483280458e+01 0.0 
0.0 0.0 -3.299437896519e+01 
-1.054614134492e+02 7.990796023374e+00 0.0 
7.990796023374e+00 -2.334434358900e+02 0.0 
0.0 0.0 -1.012714548018e+02 
-1.399084090951e+02 1.755727825192e+01 0.0 
1.755727825192e+01 -3.500963364204e+02 0.0 
0.0 0.0 -1.466014236547e+02 
-4.405568182968e+01 4.018214074519e-01 0.0 
4.018214074519e-01 -6.660292630389e+01 0.0 
0.0 0.0 -3.279758244007e+01 
-7.030280990357e+01 6.875416929356e+00 0.0 
6.875416929356e+00 -1.078533601548e+02 0.0 
0.0 0.0 -5.450788865139e+01 
-1.020739582979e+02 2.028887316439e+00 0.0 
2.028887316439e+00 -2.334796713344e+02 0.0 
0.0 0.0 -1.002660888897e+02 
-2.458091952760e+01 -1.331862016034e+00 0.0 
-1.331862016034e+00 -6.359516353281e+01 0.0 
0.0 0.0 -2.605282491812e+01 
-9.990108555417e+01 6.881282288395e+00 0.0 
6.881282288395e+00 -2.207103785820e+02 0.0 
0.0 0.0 -9.578343924084e+01 
-1.675015081022e+02 2.394408330994e+00 0.0 
2.394408330994e+00 -3.921701855718e+02 0.0 
0.0 0.0 -1.675015081022e+02 
-1.139797114674e+02 2.346072911069e+01 0.0 
2.346072911069e+01 -2.447363616185e+02 0.0 
0.0 0.0 -1.072148219258e+02 
-2.901108467858e+01 -1.122495770968e+01 0.0 
-1.122495770968e+01 -1.277152020540e+02 0.0 
0.0 0.0 -4.813919328454e+01 
-6.552961914570e+01 4.967439848553e+00 0.0 
4.967439848553e+00 -1.047181265933e+02 0.0 
0.0 0.0 -5.067432372170e+01 
-7.413301210834e+01 -1.207555675393e+00 0.0 
-1.207555675393e+00 -1.839410748877e+02 0.0 
0.0 0.0 -7.702222609882e+01 
-1.083959245533e+02 2.483613228859e+01 0.0 
2.483613228859e+01 -2.820407698908e+02 0.0 
0.0 0.0 -1.167310083332e+02 
-1.523424125710e+02 2.719191745123e+01 0.0 
2.719191745123e+01 -3.648470587968e+02 0.0 
0.0 0.0 -1.547568414103e+02 
-8.178485949074e+01 4.190304997906e-01 0.0 
4.190304997906e-01 -1.690644741080e+02 0.0 
0.0 0.0 -7.485480007963e+01 
-1.532599429742e+02 2.408578031863e+01 0.0 
2.408578031863e+01 -3.699846127745e+02 0.0 
0.0 0.0 -1.565733667246e+02 
-3.172502873163e+01 -1.487069509456e+01 0.0 
-1.487069509456e+01 -1.151626489738e+02 0.0 
0.0 0.0 -4.623999646066e+01 
-1.585280856425e+02 3.737159176375e+00 0.0 
3.737159176375e+00 -3.775638027832e+02 0.0 
0.0 0.0 -1.604275665277e+02 
-3.290617161852e+01 -1.492675656514e+01 0.0 
-1.492675656514e+01 -1.257323790456e+02 0.0 
0.0 0.0 -4.707848309849e+01 
-2.085327271439e+01 -1.378277883893e+00 0.0 
-1.378277883893e+00 -5.777243162367e+01 0.0 
0.0 0.0 -2.318771130142e+01 
-1.502450252072e+02 1.435987377020e+01 0.0 
1.435987377020e+01 -3.705139406413e+02 0.0 
0.0 0.0 -1.558276897546e+02 
-1.145514009291e+02 1.784487811557e+01 0.0 
1.784487811557e+01 -2.485451590449e+02 0.0 
0.0 0.0 -1.085289679922e+02 
-1.084675988614e+02 1.149373730756e+01 0.0 
1.149373730756e+01 -2.426930032456e+02 0.0 
0.0 0.0 -1.049481806321e+02 
-4.950579926704e+01 -3.908775683209e-01 0.0 
-3.908775683209e-01 -8.222659147144e+01 0.0 
0.0 0.0 -3.911971722154e+01 
-6.982666044567e+01 7.787925309789e+00 0.0 
7.787925309789e+00 -1.102592643011e+02 0.0 
0.0 0.0 -5.362577742402e+01 
-3.734788008478e+01 2.874441513248e+01 0.0 
2.874441513248e+01 -6.703753895870e+01 0.0 
0.0 0.0 -3.053203370281e+01 
-1.248438894483e+02 2.912993401539e+01 0.0 
2.912993401539e+01 -2.779844884554e+02 0.0 
0.0 0.0 -1.204485133711e+02 
-6.213660894233e+01 -2.390861939777e+00 0.0 
-2.390861939777e+00 -1.529454305877e+02 0.0 
0.0 0.0 -6.412461185901e+01 
-3.254896708018e+01 2.881137209682e+01 0.0 
2.881137209682e+01 -7.425635197478e+01 0.0 
0.0 0.0 -3.214011629058e+01 
-1.130835172870e+02 2.334253395901e+01 0.0 
2.334253395901e+01 -2.966761612735e+02 0.0 
0.0 0.0 -1.225279035682e+02 
-4.264291508543e+01 1.575681883875e-01 0.0 
1.575681883875e-01 -6.620810589096e+01 0.0 
0.0 0.0 -3.225530629292e+01 
-1.075503848930e+02 1.597461488755e+01 0.0 
1.597461488755e+01 -2.336043674238e+02 0.0 
0.0 0.0 -1.019464256950e+02 
-1.085174231016e+02 8.666335315001e-01 0.0 
8.666335315001e-01 -2.495449011855e+02 0.0 
0.0 0.0 -1.070186972861e+02 
-1.071946032218e+02 7.493629077369e-01 0.0 
7.493629077369e-01 -2.514540741842e+02 0.0 
0.0 0.0 -1.071946032218e+02 
-1.729606774384e-01 2.536258949675e-01 0.0 
2.536258949675e-01 -6.377705425859e+00 0.0 
0.0 0.0 -9.461739727153e-01 
-2.544359726157e-01 -5.699364769091e-01 0.0 
-5.699364769091e-01 -1.070058313040e+01 0.0 
0.0 0.0 -1.795991337318e+00 
-4.296296061224e+01 6.435527977525e-01 0.0 
6.435527977525e-01 -6.871556671692e+01 0.0 
0.0 0.0 -3.310355819875e+01 
-4.169754579263e+01 -1.088440420741e-01 0.0 
-1.088440420741e-01 -6.621899733740e+01 0.0 
0.0 0.0 -3.197496293901e+01 
-1.672669072674e+02 2.216026728230e-01 0.0 
2.216026728230e-01 -3.916227836240e+02 0.0 
0.0 0.0 -1.672669072674e+02 
-1.654489306895e+02 -6.949114820219e-01 0.0 
-6.949114820219e-01 -3.888581894277e+02 0.0 
0.0 0.0 -1.658921360352e+02 
-4.740532072988e+00 -7.659420339393e-01 0.0 
-7.659420339393e-01 -2.315411723785e+01 0.0 
0.0 0.0 -7.367435246170e+00 
-7.112991782379e+01 -4.738694769913e+00 0.0 
-4.738694769913e+00 -1.130920992723e+02 0.0 
0.0 0.0 -5.576703147605e+01 
-1.509670334604e+02 9.519736323056e-01 0.0 
9.519736323056e-01 -3.602291371581e+02 0.0 
0.0 0.0 -1.529588511856e+02 
-1.254909622918e+02 2.784353563177e+01 0.0 
2.784353563177e+01 -3.076532783307e+02 0.0 
0.0 0.0 -1.295432721868e+02 
-2.909679286929e+01 -1.639695113896e+00 0.0 
-1.639695113896e+00 -7.468599473678e+01 0.0 
0.0 0.0 -3.073483628182e+01 
-1.519749230981e+02 4.112923384997e+00 0.0 
4.112923384997e+00 -3.652920000612e+02 0.0 
0.0 0.0 -1.547800769478e+02 
-1.057840819971e+02 7.317435918123e-02 0.0 
7.317435918123e-02 -2.587269788377e+02 0.0 
0.0 0.0 -1.089533182504e+02 
-9.070495492524e+01 5.289926870226e-01 0.0 
5.289926870226e-01 -2.235815195881e+02 0.0 
0.0 0.0 -9.388594235400e+01 
-6.998689889987e+01 6.468531787986e-01 0.0 
6.468531787986e-01 -1.346283385741e+02 0.0 
0.0 0.0 -6.098457124220e+01 
-4.079414473455e+01 -2.017282325026e+01 0.0 
-2.017282325026e+01 -8.955701775476e+01 0.0 
0.0 0.0 -3.701301866157e+01 
-9.871945709185e+01 2.451597480238e+01 0.0 
2.451597480238e+01 -2.639643035870e+02 0.0 
0.0 0.0 -1.084051282036e+02 
-2.274335446033e+01 -2.368628022669e+00 0.0 
-2.368628022669e+00 -5.987338199809e+01 0.0 
0.0 0.0 -2.438502093753e+01 
-8.250869465719e+01 -1.238130086638e+00 0.0 
-1.238130086638e+00 -2.040347234327e+02 0.0 
0.0 0.0 -8.556302542697e+01 
-1.176299257784e+02 2.624226509906e+01 0.0 
2.624226509906e+01 -2.640851291223e+02 0.0 
0.0 0.0 -1.141145164702e+02 
-9.528630886947e+01 9.623577363735e-01 0.0 
9.623577363735e-01 -2.086029786861e+02 0.0 
0.0 0.0 -9.076678626667e+01 
-9.063951192260e+01 -1.013542176217e+00 0.0 
-1.013542176217e+00 -2.223371872002e+02 0.0 
0.0 0.0 -9.349300973685e+01 
-6.169339761640e+01 1.117057175722e+00 0.0 
1.117057175722e+00 -1.139974760032e+02 0.0 
0.0 0.0 -5.230726208587e+01 
-1.245314910455e+02 3.023744063118e+01 0.0 
3.023744063118e+01 -2.950389412858e+02 0.0 
0.0 0.0 -1.254711296994e+02 
-1.122082368365e+02 2.765251896642e+01 0.0 
2.765251896642e+01 -2.411798923996e+02 0.0 
0.0 0.0 -1.056164387708e+02 
-1.048331457340e+02 2.683748262992e+01 0.0 
2.683748262992e+01 -2.202816561267e+02 0.0 
0.0 0.0 -9.713444055821e+01 
-4.340672657359e+01 8.764480910510e-02 0.0 
8.764480910510e-02 -6.681481960543e+01 0.0 
0.0 0.0 -3.266646385371e+01 
-9.405675403855e+01 2.290981824606e+01 0.0 
2.290981824606e+01 -2.605140169053e+02 0.0 
0.0 0.0 -1.059712312832e+02 
-1.088006704906e+02 1.900688623490e+01 0.0 
1.900688623490e+01 -2.366490837124e+02 0.0 
0.0 0.0 -1.032349262609e+02 
-4.639763347907e+01 -2.076994217026e+00 0.0 
-2.076994217026e+00 -1.157865929510e+02 0.0 
0.0 0.0 -4.825526792902e+01 
-1.144445014663e+01 -2.169464203932e+00 0.0 
-2.169464203932e+00 -2.585183270496e+01 0.0 
0.0 0.0 -1.078888485548e+01 
-1.198592265765e+02 2.931724232672e+01 0.0 
2.931724232672e+01 -2.798027810438e+02 0.0 
0.0 0.0 -1.194986022861e+02 
-1.197882200266e+02 1.545196986016e+01 0.0 
1.545196986016e+01 -3.220947520167e+02 0.0 
0.0 0.0 -1.321648916130e+02 
-3.791429628559e+01 -2.119878458520e+01 0.0 
-2.119878458520e+01 -8.045403307644e+01 0.0 
0.0 0.0 -3.471161390283e+01 
-7.519803661609e+01 1.387586253531e+00 0.0 
1.387586253531e+00 -1.489226528775e+02 0.0 
0.0 0.0 -6.683620684809e+01 
-1.586512961578e+02 1.798936425418e+00 0.0 
1.798936425418e+00 -3.748425662994e+02 0.0 
0.0 0.0 -1.596481587372e+02 
-1.201862243658e+02 2.735861387887e+01 0.0 
2.735861387887e+01 -2.916680288307e+02 0.0 
0.0 0.0 -1.231562759590e+02 
-1.258018495675e+02 3.035033950236e+01 0.0 
3.035033950236e+01 -3.015185541795e+02 0.0 
0.0 0.0 -1.277961211241e+02 
-1.147739593173e+02 7.889981343652e-01 0.0 
7.889981343652e-01 -2.795560023122e+02 0.0 
0.0 0.0 -1.178989884889e+02 
-4.206532991989e+01 2.923050726198e+01 0.0 
2.923050726198e+01 -9.808654063357e+01 0.0 
0.0 0.0 -4.339773701709e+01 
-3.286059311688e+01 2.339060308720e+01 0.0 
2.339060308720e+01 -2.340983286903e+01 0.0 
0.0 0.0 -1.648112779577e+01 
-3.791274201656e+01 2.828448666308e+01 0.0 
2.828448666308e+01 -6.578816732714e+01 0.0 
0.0 0.0 -3.071027280311e+01 
-6.654141619035e+01 5.306409665675e+00 0.0 
5.306409665675e+00 -1.042864575732e+02 0.0 
0.0 0.0 -5.084836212907e+01 
-9.389845361817e+01 2.215805742140e+01 0.0 
2.215805742140e+01 -2.603170568622e+02 0.0 
0.0 0.0 -1.058646531441e+02 
-1.011023996814e+02 6.313273791792e+00 0.0 
6.313273791792e+00 -2.228593041264e+02 0.0 
0.0 0.0 -9.678851114235e+01 
-1.484900532913e+02 1.969025475959e+01 0.0 
1.969025475959e+01 -3.609729629560e+02 0.0 
0.0 0.0 -1.524389048742e+02 
-3.638789762338e+01 -1.473980254866e+01 0.0 
-1.473980254866e+01 -5.184963771423e+01 0.0 
0.0 0.0 -2.430173757701e+01 
-2.342569904541e+01 -6.395680973579e+00 0.0 
-6.395680973579e+00 -4.330850969418e+01 0.0 
0.0 0.0 -1.937048891651e+01 
-3.628620887869e+01 2.504564951720e+01 0.0 
2.504564951720e+01 -2.641255735567e+01 0.0 
0.0 0.0 -1.816545832718e+01 
-7.694915263825e+01 3.503934043365e-01 0.0 
3.503934043365e-01 -1.543874556323e+02 0.0 
0.0 0.0 -6.900098248115e+01 
-5.760487047915e+01 -1.806195012464e+00 0.0 
-1.806195012464e+00 -1.428945241793e+02 0.0 
0.0 0.0 -5.974981839754e+01 
-1.080201474282e+02 1.477116162252e+01 0.0 
1.477116162252e+01 -2.318152638654e+02 0.0 
0.0 0.0 -1.015506233881e+02 
-2.677486908384e+01 -4.314624512001e-01 0.0 
-4.314624512001e-01 -7.145278983041e+01 0.0 
0.0 0.0 -2.906829767427e+01 
-1.363058918274e+02 1.873480688473e+01 0.0 
1.873480688473e+01 -3.444826992050e+02 0.0 
0.0 0.0 -1.438365773097e+02 
-5.943589409937e+01 1.152296275842e+00 0.0 
1.152296275842e+00 -9.986687206120e+01 0.0 
0.0 0.0 -4.739082984817e+01 
-1.417956364960e+02 2.723645825028e+01 0.0 
2.723645825028e+01 -3.394303625567e+02 0.0 
0.0 0.0 -1.439677997158e+02 
-1.132137016321e+02 2.674194291055e+01 0.0 
2.674194291055e+01 -2.864617905906e+02 0.0 
0.0 0.0 -1.195026476668e+02 
-6.883575041000e+01 7.421541365858e+00 0.0 
7.421541365858e+00 -1.056303658061e+02 0.0 
0.0 0.0 -5.193983486482e+01 
-1.522992598528e+02 1.054400172089e+01 0.0 
1.054400172089e+01 -3.736083073905e+02 0.0 
0.0 0.0 -1.573722701730e+02 
-1.122370918989e+02 1.569859857772e+01 0.0 
1.569859857772e+01 -2.463496368249e+02 0.0 
0.0 0.0 -1.071760186171e+02 
-1.048189167872e+02 1.056206594760e+00 0.0 
1.056206594760e+00 -2.355390869189e+02 0.0 
0.0 0.0 -1.017074011118e+02 
-3.840565340220e+01 2.671725060412e+01 0.0 
2.671725060412e+01 -2.796921573814e+01 0.0 
0.0 0.0 -1.781723819428e+01 
-1.025626484576e+02 1.114927698859e+01 0.0 
1.114927698859e+01 -2.209153173271e+02 0.0 
0.0 0.0 -9.664338973541e+01 
-1.291920571188e+02 2.990956499294e+01 0.0 
2.990956499294e+01 -3.018649342449e+02 0.0 
0.0 0.0 -1.289170974091e+02 
-1.350357361766e+02 1.968495211339e+01 0.0 
1.968495211339e+01 -3.445499917891e+02 0.0 
0.0 0.0 -1.434757183897e+02 
-1.169249521686e+02 2.445307995887e+01 0.0 
2.445307995887e+01 -2.996008843525e+02 0.0 
0.0 0.0 -1.245577509563e+02 
-1.675794367524e+02 4.986361733716e+00 0.0 
4.986361733716e+00 -3.923520190889e+02 0.0 
0.0 0.0 -1.675794367524e+02 
-1.032116881308e+02 2.396432447718e+01 0.0 
2.396432447718e+01 -2.190304902101e+02 0.0 
0.0 0.0 -9.627265350227e+01 
-5.626251949118e+01 2.086238995482e+01 0.0 
2.086238995482e+01 -7.282061557535e+01 0.0 
0.0 0.0 -3.927668342048e+01 
-3.706682308925e+01 2.947013188532e+01 0.0 
2.947013188532e+01 -6.997779096463e+01 0.0 
0.0 0.0 -3.033575454850e+01 
-1.148966235546e+02 2.728743733248e+01 0.0 
2.728743733248e+01 -2.475689654711e+02 0.0 
0.0 0.0 -1.083396767077e+02 
-7.114653360161e+01 5.237764691496e+00 0.0 
5.237764691496e+00 -1.192458743484e+02 0.0 
0.0 0.0 -5.671772238500e+01 
-1.512148245811e+02 1.535323980776e+00 0.0 
1.535323980776e+00 -3.591066811676e+02 0.0 
0.0 0.0 -1.526964517246e+02 
-1.234637549382e+02 2.749429333215e+01 0.0 
2.749429333215e+01 -3.053035634664e+02 0.0 
0.0 0.0 -1.282301955214e+02 
-1.594583207000e+02 4.300514264281e+00 0.0 
4.300514264281e+00 -3.783435162052e+02 0.0 
0.0 0.0 -1.609405510716e+02 
-8.477452764721e+01 1.018620324537e+00 0.0 
1.018620324537e+00 -1.756174940606e+02 0.0 
0.0 0.0 -7.771760651233e+01 
-1.441731937774e+02 2.603402825061e+01 0.0 
2.603402825061e+01 -3.456767849056e+02 0.0 
0.0 0.0 -1.465549936049e+02 
-1.477969276993e+02 9.064298796975e+00 0.0 
9.064298796975e+00 -3.631914253325e+02 0.0 
0.0 0.0 -1.528965059095e+02 
-1.464170425948e+02 8.151012364382e+00 0.0 
8.151012364382e+00 -3.624838004354e+02 0.0 
0.0 0.0 -1.522702529091e+02 
-5.988115539490e+01 -1.316884769071e+00 0.0 
-1.316884769071e+00 -1.481448440125e+02 0.0 
0.0 0.0 -6.200779982223e+01 
-1.655885221476e+02 3.746143679422e+00 0.0 
3.746143679422e+00 -3.917142296758e+02 0.0 
0.0 0.0 -1.667908255470e+02 
-5.477530418219e+01 2.090695164001e+00 0.0 
2.090695164001e+00 -8.442701402148e+01 0.0 
0.0 0.0 -4.136069546110e+01 
-9.886414843248e+01 3.755931014929e+00 0.0 
3.755931014929e+00 -2.168042969883e+02 0.0 
0.0 0.0 -9.430053362623e+01 
-2.730899338841e+01 -7.635966046790e+00 0.0 
-7.635966046790e+00 -4.316889797467e+01 0.0 
0.0 0.0 -1.984354394300e+01 
-9.407964440682e+01 1.873663400421e+00 0.0 
1.873663400421e+00 -2.015640869662e+02 0.0 
0.0 0.0 -8.829311941192e+01 
-7.640731640907e+01 1.266329778717e+00 0.0 
1.266329778717e+00 -1.508831967508e+02 0.0 
0.0 0.0 -6.778715394797e+01 
-1.187155340077e+01 5.275657362914e-01 0.0 
5.275657362914e-01 -4.191289834589e+01 0.0 
0.0 0.0 -1.573533552400e+01 
-3.218102094323e+01 -1.461529019293e+01 0.0 
-1.461529019293e+01 -1.307924036260e+02 0.0 
0.0 0.0 -4.942025673840e+01 
-1.069755972645e+02 2.528633855313e+01 0.0 
2.528633855313e+01 -2.345890464241e+02 0.0 
0.0 0.0 -1.020693931066e+02 
-1.041722907705e+02 8.170674443002e+00 0.0 
8.170674443002e+00 -2.361559609783e+02 0.0 
0.0 0.0 -1.016984755246e+02 
-9.903824133373e+01 2.172133838706e+00 0.0 
2.172133838706e+00 -2.194138128645e+02 0.0 
0.0 0.0 -9.513561625946e+01 
-1.392476536451e+02 2.481336857869e+01 0.0 
2.481336857869e+01 -3.449626035212e+02 0.0 
0.0 0.0 -1.448630771499e+02 
-6.189405959822e+01 9.037484831072e-02 0.0 
9.037484831072e-02 -1.132370721427e+02 0.0 
0.0 0.0 -5.213933952229e+01 
-8.264037388257e+00 -1.032009387489e+00 0.0 
-1.032009387489e+00 -2.494353539234e+01 0.0 
0.0 0.0 -9.453628071289e+00 
-3.940752801978e+01 2.181298741711e+01 0.0 
2.181298741711e+01 -1.118435899448e+02 0.0 
0.0 0.0 -4.694829702519e+01 
-1.156819879299e+01 -2.516758120154e+00 0.0 
-2.516758120154e+00 -2.853328596187e+01 0.0 
0.0 0.0 -1.163044542646e+01 
-2.906819409146e+01 -7.209397908149e+00 0.0 
-7.209397908149e+00 -5.782416733447e+01 0.0 
0.0 0.0 -2.544921466963e+01 
-4.832017659638e+01 3.920789174883e+01 0.0 
3.920789174883e+01 -5.715352830264e+01 0.0 
0.0 0.0 -3.209256268439e+01 
-8.060587554006e+01 -2.545857414507e+00 0.0 
-2.545857414507e+00 -1.985457091493e+02 0.0 
0.0 0.0 -8.334547540682e+01 
-1.508374844603e+02 -9.531963687918e-03 0.0 
-9.531963687918e-03 -3.588980783682e+02 0.0 
0.0 0.0 -1.525206688486e+02 
-1.126592536248e+02 2.198000083144e+01 0.0 
2.198000083144e+01 -2.444764342731e+02 0.0 
0.0 0.0 -1.067407063694e+02 
-7.729462632734e+01 1.082199503280e+01 0.0 
1.082199503280e+01 -1.232214166457e+02 0.0 
0.0 0.0 -5.975481289192e+01 
-7.009783584157e+01 -2.089768673956e+00 0.0 
-2.089768673956e+00 -1.745719422989e+02 0.0 
0.0 0.0 -7.300093344215e+01 
-1.475209370228e+02 6.593920719891e+00 0.0 
6.593920719891e+00 -3.613203070053e+02 0.0 
0.0 0.0 -1.522523732084e+02 
-1.377086284176e+02 1.257961915584e+01 0.0 
1.257961915584e+01 -3.525001135247e+02 0.0 
0.0 0.0 -1.466626225827e+02 
-1.377310473039e+02 2.885530219112e+01 0.0 
2.885530219112e+01 -3.361920842543e+02 0.0 
0.0 0.0 -1.417769394675e+02 
-1.249269213186e+02 2.906089032111e+01 0.0 
2.906089032111e+01 -2.922071933601e+02 0.0 
0.0 0.0 -1.247402344036e+02 
-1.135458702794e+02 2.633639808940e+01 0.0 
2.633639808940e+01 -2.542017844557e+02 0.0 
0.0 0.0 -1.099242964205e+02 
-2.652541202093e+01 -6.526726962817e+00 0.0 
-6.526726962817e+00 -4.241525668927e+01 0.0 
0.0 0.0 -1.963012922690e+01 
-4.122925146633e+01 -1.830735418307e+01 0.0 
-1.830735418307e+01 -1.119452134975e+02 0.0 
0.0 0.0 -4.771479578534e+01 
-1.511914380983e+02 2.010120514040e+00 0.0 
2.010120514040e+00 -3.608142009888e+02 0.0 
0.0 0.0 -1.532016917261e+02 
-1.253525264974e+01 -3.943466334095e-01 0.0 
-3.943466334095e-01 -4.136278309775e+01 0.0 
0.0 0.0 -1.576941072425e+01 
-1.578275074717e+01 -1.318153427597e+00 0.0 
-1.318153427597e+00 -4.937151035160e+01 0.0 
0.0 0.0 -1.914627832963e+01 
-4.236187464536e+01 3.434353630867e+01 0.0 
3.434353630867e+01 -5.567702107087e+01 0.0 
0.0 0.0 -2.967416181753e+01 
-1.531444480020e+01 -1.562466825965e+00 0.0 
-1.562466825965e+00 -3.840964584948e+01 0.0 
0.0 0.0 -1.571722719490e+01 
-1.568961704906e+02 9.330951192995e+00 0.0 
9.330951192995e+00 -3.763757501107e+02 0.0 
0.0 0.0 -1.595815761804e+02 
-1.252083450049e+02 2.947030495383e+01 0.0 
2.947030495383e+01 -2.874101154763e+02 0.0 
0.0 0.0 -1.233855381443e+02 
-9.989170301090e+01 4.619631393918e+00 0.0 
4.619631393918e+00 -2.224807307195e+02 0.0 
0.0 0.0 -9.631173011913e+01 
-1.402085522642e+02 2.845527671389e+01 0.0 
2.845527671389e+01 -3.348141817648e+02 0.0 
0.0 0.0 -1.421068202087e+02 
-1.334473543220e+02 1.395106271206e+01 0.0 
1.395106271206e+01 -3.428019152631e+02 0.0 
0.0 0.0 -1.424747808755e+02 
-6.635824717567e+01 1.113458088742e-01 0.0 
1.113458088742e-01 -1.246606202663e+02 0.0 
0.0 0.0 -5.690566023259e+01 
-1.092820792230e+02 1.123429896291e+01 0.0 
1.123429896291e+01 -2.563248515204e+02 0.0 
0.0 0.0 -1.092820792230e+02 
-4.196257080823e+01 -1.987271280687e+01 0.0 
-1.987271280687e+01 -1.300242635108e+02 0.0 
0.0 0.0 -5.031210498040e+01 
-4.362997288780e+01 1.703090942428e-01 0.0 
1.703090942428e-01 -6.603300556761e+01 0.0 
0.0 0.0 -3.249889353662e+01 
-4.444935809127e+01 -2.138687808990e+01 0.0 
-2.138687808990e+01 -7.378197128670e+01 0.0 
0.0 0.0 -3.324867139775e+01 
-6.579469468580e+00 -9.484700091808e-01 0.0 
-9.484700091808e-01 -2.460740602466e+01 0.0 
0.0 0.0 -9.538282246155e+00 
-1.658572266381e+02 1.988370041451e+00 0.0 
1.988370041451e+00 -3.911948988793e+02 0.0 
0.0 0.0 -1.667156376552e+02 
-6.117390817440e+01 5.819847566735e+00 0.0 
5.819847566735e+00 -9.036765472251e+01 0.0 
0.0 0.0 -4.506246886908e+01 
-2.037093382785e+01 -1.288776691001e+00 0.0 
-1.288776691001e+00 -5.757261748532e+01 0.0 
0.0 0.0 -2.298306539395e+01 
-7.674005650830e+01 -2.483205923684e+00 0.0 
-2.483205923684e+00 -1.903523703237e+02 0.0 
0.0 0.0 -7.972772804961e+01 
-1.261333224958e+02 3.008563808593e+01 0.0 
3.008563808593e+01 -2.859323717211e+02 0.0 
0.0 0.0 -1.232197082651e+02 
-1.025070701035e+02 8.380828976301e+00 0.0 
8.380828976301e+00 -2.224486975626e+02 0.0 
0.0 0.0 -9.708673029981e+01 
-1.104288805286e+02 1.795588708376e+01 0.0 
1.795588708376e+01 -2.485308372955e+02 0.0 
0.0 0.0 -1.072879153473e+02 
-5.443957423601e+01 -4.051530317069e-01 0.0 
-4.051530317069e-01 -1.347183692766e+02 0.0 
0.0 0.0 -5.634738305379e+01 
-4.100916253403e+01 2.800967760948e+00 0.0 
2.800967760948e+00 -1.214810634736e+02 0.0 
0.0 0.0 -5.067690074576e+01 
-1.567332909492e+02 5.072127055551e+00 0.0 
5.072127055551e+00 -3.768219267897e+02 0.0 
0.0 0.0 -1.596665653217e+02 
-1.103056420475e+02 9.547129807544e-01 0.0 
9.547129807544e-01 -2.526542394896e+02 0.0 
0.0 0.0 -1.084879644611e+02 
-1.660596714324e+02 4.414065363256e-01 0.0 
4.414065363256e-01 -3.910016009039e+02 0.0 
0.0 0.0 -1.667183817009e+02 
-4.791091065642e+01 -4.625958061306e-01 0.0 
-4.625958061306e-01 -8.062015679565e+01 0.0 
0.0 0.0 -3.815932023562e+01 
-1.430079721929e+02 1.433596141645e+01 0.0 
1.433596141645e+01 -3.558156469139e+02 0.0 
0.0 0.0 -1.492470857320e+02 
-2.176485151140e+01 -8.473271314830e-01 0.0 
-8.473271314830e-01 -5.853799748811e+01 0.0 
0.0 0.0 -2.369085469985e+01 
-1.058203454548e+02 1.302320904393e+01 0.0 
1.302320904393e+01 -2.310771988815e+02 0.0 
0.0 0.0 -1.006692633009e+02 
-7.076694006478e+00 -7.037756225433e-01 0.0 
-7.037756225433e-01 -2.338896942138e+01 0.0 
0.0 0.0 -9.099862953362e+00 
-1.555481658086e+02 1.260987221082e+01 0.0 
1.260987221082e+01 -3.745099802368e+02 0.0 
0.0 0.0 -1.586174438136e+02 
-1.145936575705e+02 1.913681175416e+01 0.0 
1.913681175416e+01 -2.510149750591e+02 0.0 
0.0 0.0 -1.092825897889e+02 
-4.591030440777e+01 1.350713028129e+01 0.0 
1.350713028129e+01 -1.185258219282e+02 0.0 
0.0 0.0 -5.069711210455e+01 
-1.209381854800e+02 2.895324995375e+01 0.0 
2.895324995375e+01 -2.928084863843e+02 0.0 
0.0 0.0 -1.237240015593e+02 
-8.158030536262e+01 2.180359261484e+00 0.0 
2.180359261484e+00 -1.655837639688e+02 0.0 
0.0 0.0 -7.374922079943e+01 
-1.035658243280e+02 6.060382750198e+00 0.0 
6.060382750198e+00 -2.363984670964e+02 0.0 
0.0 0.0 -1.015892874273e+02 
-1.582551128999e+02 2.481222133733e+01 0.0 
2.481222133733e+01 -3.705952634331e+02 0.0 
0.0 0.0 -1.582551128999e+02 
-7.075726268790e+01 1.564277680967e+00 0.0 
1.564277680967e+00 -1.384037651894e+02 0.0 
0.0 0.0 -6.234830836318e+01 
-1.226151407077e+02 2.823363823010e+01 0.0 
2.823363823010e+01 -2.814883871535e+02 0.0 
0.0 0.0 -1.208310583584e+02 
-1.106530130220e+02 1.800815949817e+01 0.0 
1.800815949817e+01 -2.358814335633e+02 0.0 
0.0 0.0 -1.035603339756e+02 
-7.466898362847e+01 8.828916984732e-01 0.0 
8.828916984732e-01 -1.499247415642e+02 0.0 
0.0 0.0 -6.697811755779e+01 
-1.203708861091e+02 2.764162289837e+01 0.0 
2.764162289837e+01 -2.713612277224e+02 0.0 
0.0 0.0 -1.171196341494e+02 
-6.600781261328e+01 -1.262800349634e+00 0.0 
-1.262800349634e+00 -1.623413041586e+02 0.0 
0.0 0.0 -6.810473503158e+01 
-4.215902850340e+01 1.403270096270e-01 0.0 
1.403270096270e-01 -6.603845540202e+01 0.0 
0.0 0.0 -3.205924517163e+01 
-1.310029067779e+02 2.755459696429e+01 0.0 
2.755459696429e+01 -3.212580178624e+02 0.0 
0.0 0.0 -1.352782773921e+02 
-1.039835121882e+02 2.683135791837e-01 0.0 
2.683135791837e-01 -2.371623203183e+02 0.0 
0.0 0.0 -1.019437497519e+02 
9.999999480232e-01 -7.133291542355e-04 0.0 
-7.133291542355e-04 -8.789731883305e+00 0.0 
0.0 0.0 -1.566554166222e+00 
-4.178219699635e+01 -2.287132213632e-01 0.0 
-2.287132213632e-01 -6.637844822833e+01 0.0 
0.0 0.0 -3.204819356740e+01 
-1.604752867539e+02 7.521133512143e-01 0.0 
7.521133512143e-01 -3.780814637388e+02 0.0 
0.0 0.0 -1.611670251478e+02 
-2.990684101075e+01 -3.384726741827e+00 0.0 
-3.384726741827e+00 -7.389502390862e+01 0.0 
0.0 0.0 -3.074055947581e+01 
-1.358314528709e+02 1.745714664485e+01 0.0 
1.745714664485e+01 -3.490324043084e+02 0.0 
0.0 0.0 -1.450591571538e+02 
-1.138451934416e+02 2.114186986230e+01 0.0 
2.114186986230e+01 -2.400473872580e+02 0.0 
0.0 0.0 -1.057677742099e+02 
-1.056875885237e+02 5.995343575260e+00 0.0 
5.995343575260e+00 -2.360357395377e+02 0.0 
0.0 0.0 -1.021169984184e+02 
-2.727593604046e+01 -2.274142373474e+00 0.0 
-2.274142373474e+00 -7.083997612710e+01 0.0 
0.0 0.0 -2.903477365027e+01 
-4.201637455631e+01 3.444474334941e+01 0.0 
3.444474334941e+01 -8.635429481611e+01 0.0 
0.0 0.0 -3.768947118354e+01 
-9.405922173542e+01 -1.565438952038e+00 0.0 
-1.565438952038e+00 -2.321974787337e+02 0.0 
0.0 0.0 -9.747701014074e+01 
-8.778311980211e+01 8.037830370920e-01 0.0 
8.037830370920e-01 -1.870303168079e+02 0.0 
0.0 0.0 -8.204403098300e+01 
-1.188183268380e+02 -3.904591955015e+00 0.0 
-3.904591955015e+00 -9.704119163876e+01 0.0 
0.0 0.0 -6.498224005582e+01 
-1.082379180461e+02 1.479721112117e+01 0.0 
1.479721112117e+01 -2.445521363142e+02 0.0 
0.0 0.0 -1.054370163081e+02 
-6.802042004899e+01 4.500138112442e-01 0.0 
4.500138112442e-01 -1.321848833354e+02 0.0 
0.0 0.0 -5.966159101533e+01 
-4.402203830692e+01 -1.981307862252e+01 0.0 
-1.981307862252e+01 -9.049295797431e+01 0.0 
0.0 0.0 -3.809431766513e+01 
-6.301966871682e+01 5.098930156534e-01 0.0 
5.098930156534e-01 -1.182644424199e+02 0.0 
0.0 0.0 -5.398523334101e+01 
-1.365117216833e+02 3.093981136039e+01 0.0 
3.093981136039e+01 -3.281835908037e+02 0.0 
0.0 0.0 -1.390085937461e+02 
-9.908389702450e+01 1.040304532974e+00 0.0 
1.040304532974e+00 -2.433176176998e+02 0.0 
0.0 0.0 -1.023204544173e+02 
-4.924524126491e+01 3.445320772382e+01 0.0 
3.445320772382e+01 -3.182906653898e+01 0.0 
0.0 0.0 -2.506843167133e+01 
-5.904366324707e+01 -2.925362455170e+00 0.0 
-2.925362455170e+00 -1.471108851744e+02 0.0 
0.0 0.0 -6.144636452645e+01 
-8.614137748284e+01 -2.192154592042e+00 0.0 
-2.192154592042e+00 -2.135214428048e+02 0.0 
0.0 0.0 -8.949884608629e+01 
-1.033654548327e+02 -1.548697074972e+00 0.0 
-1.548697074972e+00 -2.525839007040e+02 0.0 
0.0 0.0 -1.063848066610e+02 
-1.345601017592e+02 2.617479790286e+01 0.0 
2.617479790286e+01 -3.322552046553e+02 0.0 
0.0 0.0 -1.396445919244e+02 
-8.405782815020e+01 -1.807558629310e-01 0.0 
-1.807558629310e-01 -2.080295263066e+02 0.0 
0.0 0.0 -8.722620633705e+01 
-8.957948318534e+01 -1.436751998524e+00 0.0 
-1.436751998524e+00 -2.207114304353e+02 0.0 
0.0 0.0 -9.268727408620e+01 
-1.476338842435e+01 -2.554372115249e+00 0.0 
-2.554372115249e+00 -3.732777235896e+01 0.0 
0.0 0.0 -1.522734823499e+01 
-1.509800647092e+02 3.210825807787e+00 0.0 
3.210825807787e+00 -3.651604518986e+02 0.0 
0.0 0.0 -1.544421549823e+02 
-1.186556248926e+02 2.813231279289e+01 0.0 
2.813231279289e+01 -2.794687624762e+02 0.0 
0.0 0.0 -1.190373162106e+02 
-3.849234862967e+01 3.165223840162e+01 0.0 
3.165223840162e+01 -1.014510700570e+02 0.0 
0.0 0.0 -4.268965932528e+01 
-1.034303958119e+02 1.199413344091e+00 0.0 
1.199413344091e+00 -2.363452607039e+02 0.0 
0.0 0.0 -1.015326969547e+02 
-1.602976535496e+02 -3.012776484680e-01 0.0 
-3.012776484680e-01 -3.775571566851e+02 0.0 
0.0 0.0 -1.609564430704e+02 
-4.843196943721e+01 6.535054170643e-01 0.0 
6.535054170643e-01 -8.166862947111e+01 0.0 
0.0 0.0 -3.863017967250e+01 
-6.865221610261e+01 3.935357624569e-01 0.0 
3.935357624569e-01 -1.324371679288e+02 0.0 
0.0 0.0 -5.992681520943e+01 
-8.425659104474e+01 -2.029271592992e+00 0.0 
-2.029271592992e+00 -2.078192503672e+02 0.0 
0.0 0.0 -8.722275242357e+01 
-8.742055996477e+01 -8.696909111244e-01 0.0 
-8.696909111244e-01 -2.149510458051e+02 0.0 
0.0 0.0 -9.031148173097e+01 
-8.969942448092e+01 -6.595757870425e-01 0.0 
-6.595757870425e-01 -2.215519724227e+02 0.0 
0.0 0.0 -9.297541907108e+01 
-1.299498034917e+02 1.668464390124e+01 0.0 
1.668464390124e+01 -3.373161698481e+02 0.0 
0.0 0.0 -1.397797920019e+02 
-3.713791376041e+01 -1.729971912820e+01 0.0 
-1.729971912820e+01 -6.717258960507e+01 0.0 
0.0 0.0 -2.960278785820e+01 
-1.236733699395e+02 3.091130850915e+01 0.0 
3.091130850915e+01 -2.863394953810e+02 0.0 
0.0 0.0 -1.226038595961e+02 
-5.501329357800e+01 4.785099226511e-03 0.0 
4.785099226511e-03 -9.840081552975e+01 0.0 
0.0 0.0 -4.562423273233e+01 
-1.116149242905e+02 1.459326504734e+01 0.0 
1.459326504734e+01 -2.438630480735e+02 0.0 
0.0 0.0 -1.062433917092e+02 
-1.318850256192e+02 1.704348960220e+01 0.0 
1.704348960220e+01 -3.380755099360e+02 0.0 
0.0 0.0 -1.405881606666e+02 
-6.466457800754e+01 1.110242363097e+00 0.0 
1.110242363097e+00 -1.193101811059e+02 0.0 
0.0 0.0 -5.479242773402e+01 
-1.155728245662e+02 2.638388239496e+01 0.0 
2.638388239496e+01 -2.577448855091e+02 0.0 
0.0 0.0 -1.115953130226e+02 
-1.332800127205e+02 2.490703801507e+01 0.0 
2.490703801507e+01 -3.310883660769e+02 0.0 
0.0 0.0 -1.389105136392e+02 
-1.392204284991e+02 2.819602771815e+01 0.0 
2.819602771815e+01 -3.413733715782e+02 0.0 
0.0 0.0 -1.437781400232e+02 
-4.639952513551e+01 3.777081229742e+01 0.0 
3.777081229742e+01 -6.849992797600e+01 0.0 
0.0 0.0 -3.544981256312e+01 
-1.173370540291e+02 2.804874648229e+01 0.0 
2.804874648229e+01 -2.587607305269e+02 0.0 
0.0 0.0 -1.124293353668e+02 
-1.209831260595e+02 2.827866208071e+01 0.0 
2.827866208071e+01 -2.736664843073e+02 0.0 
0.0 0.0 -1.179948831100e+02 
-1.309973058215e+01 -9.758914839757e-01 0.0 
-9.758914839757e-01 -3.799234517353e+01 0.0 
0.0 0.0 -1.492762272670e+01 
-8.015588231651e+01 -1.016409937436e+00 0.0 
-1.016409937436e+00 -1.978893396523e+02 0.0 
0.0 0.0 -8.301356659064e+01 
-5.151094241580e+01 3.773595752111e+01 0.0 
3.773595752111e+01 -6.709911908573e+01 0.0 
0.0 0.0 -3.654553787291e+01 
-1.212906104875e+02 2.888190730076e+01 0.0 
2.888190730076e+01 -2.679854748125e+02 0.0 
0.0 0.0 -1.163828255900e+02 
-1.746793016335e+01 4.797677100257e-01 0.0 
4.797677100257e-01 -8.006337524062e+00 0.0 
0.0 0.0 -7.242280306224e+00 
-1.816541298962e+01 -6.123280954458e-02 0.0 
-6.123280954458e-02 -9.861925315718e+00 0.0 
0.0 0.0 -8.008201491603e+00 
-1.757438058513e+01 1.683124741371e-01 0.0 
1.683124741371e-01 -9.642660551653e+00 0.0 
0.0 0.0 -7.765112341035e+00 
-1.806397497041e+01 2.467263208596e-02 0.0 
2.467263208596e-02 -9.911941445477e+00 0.0 
0.0 0.0 -7.992774924766e+00 
-1.762917834387e+01 2.412166994225e-02 0.0 
2.412166994225e-02 -9.727483025261e+00 0.0 
0.0 0.0 -7.806998410739e+00 
-1.794834563020e+01 -7.806624802090e-02 0.0 
-7.806624802090e-02 -9.943501814938e+00 0.0 
0.0 0.0 -7.967554233541e+00 
-1.750969494138e+01 -4.940146253150e-02 0.0 
-4.940146253150e-02 -9.767330086497e+00 0.0 
0.0 0.0 -7.783107508363e+00 
-1.788502299147e+01 -1.581637354735e-01 0.0 
-1.581637354735e-01 -9.983739422473e+00 0.0 
0.0 0.0 -7.960628724184e+00 
-1.726530744761e+01 -9.562777887279e-02 0.0 
-9.562777887279e-02 -9.748589708857e+00 0.0 
0.0 0.0 -7.704169146941e+00 
-1.779749172964e+01 -2.398017168429e-01 0.0 
-2.398017168429e-01 -1.002918728469e+01 0.0 
0.0 0.0 -7.948003704301e+00 
-1.690845613513e+01 -1.273892403385e-01 0.0 
-1.273892403385e-01 -9.713306109368e+00 0.0 
0.0 0.0 -7.586528673349e+00 
-1.769016716485e+01 -3.218157819828e-01 0.0 
-3.218157819828e-01 -1.008215653953e+01 0.0 
0.0 0.0 -7.931697111314e+00 
-1.645529334438e+01 -1.402982783916e-01 0.0 
-1.402982783916e-01 -9.676173132504e+00 0.0 
0.0 0.0 -7.439439943065e+00 
-1.754040206276e+01 -3.842070840898e-01 0.0 
-3.842070840898e-01 -1.012825580729e+01 0.0 
0.0 0.0 -7.900597361018e+00 
-1.592999281966e+01 -1.503757960183e-01 0.0 
-1.503757960183e-01 -9.627530808884e+00 0.0 
0.0 0.0 -7.267257088563e+00 
-2.155109355276e+01 4.953928787685e+00 0.0 
4.953928787685e+00 -1.314277398114e+01 0.0 
0.0 0.0 -1.000816026017e+01 
-1.744371156193e+01 -4.545116075017e-01 0.0 
-4.545116075017e-01 -1.018369674712e+01 0.0 
0.0 0.0 -7.888222492714e+00 
-2.590712963710e+01 2.705000323476e+00 0.0 
2.705000323476e+00 -1.105486955055e+01 0.0 
0.0 0.0 -1.068859975630e+01 
-1.531240214904e+01 -1.773385385547e-01 0.0 
-1.773385385547e-01 -9.542445798081e+00 0.0 
0.0 0.0 -7.056454384135e+00 
-1.729589627556e+01 -5.517852108927e-01 0.0 
-5.517852108927e-01 -1.024967861527e+01 0.0 
0.0 0.0 -7.863672467249e+00 
-1.458318947529e+01 -1.896914368002e-01 0.0 
-1.896914368002e-01 -9.495059561257e+00 0.0 
0.0 0.0 -6.823474710963e+00 
-1.716260257471e+01 -6.183849213353e-01 0.0 
-6.183849213353e-01 -1.031813975047e+01 0.0 
0.0 0.0 -7.844222697555e+00 
-1.379220575509e+01 -1.788227709466e-01 0.0 
-1.788227709466e-01 -9.445662892948e+00 0.0 
0.0 0.0 -6.571360594412e+00 
-1.714449307355e+01 -6.559345208231e-01 0.0 
-6.559345208231e-01 -1.039287463816e+01 0.0 
0.0 0.0 -7.861210313513e+00 
-1.335585421844e+01 1.349241728894e+00 0.0 
1.349241728894e+00 -5.927477252525e+00 0.0 
0.0 0.0 -5.384999441289e+00 
-1.298508923633e+01 -1.511196087778e-01 0.0 
-1.511196087778e-01 -9.378179597690e+00 0.0 
0.0 0.0 -6.308980650206e+00 
-1.725652275264e+01 -6.684356068085e-01 0.0 
-6.684356068085e-01 -1.047434970768e+01 0.0 
0.0 0.0 -7.919261738095e+00 
-1.220918199870e+01 -9.559345876136e-02 0.0 
-9.559345876136e-02 -9.324188558497e+00 0.0 
0.0 0.0 -6.060011167158e+00 
-1.757480235609e+01 -6.218823063857e-01 0.0 
-6.218823063857e-01 -1.055747139909e+01 0.0 
0.0 0.0 -8.039682126554e+00 
-1.153509849493e+01 -3.381331725567e-02 0.0 
-3.381331725567e-02 -9.227115937446e+00 0.0 
0.0 0.0 -5.828664329713e+00 
-1.840946766925e+01 -5.744848768134e-01 0.0 
-5.744848768134e-01 -1.070004227405e+01 0.0 
0.0 0.0 -8.332852982990e+00 
-1.107749850964e+01 2.145325875910e-01 0.0 
2.145325875910e-01 -9.353021754477e+00 0.0 
0.0 0.0 -5.729156079235e+00 
-1.940978745103e+01 -1.583907326192e-01 0.0 
-1.583907326192e-01 -1.078453839859e+01 0.0 
0.0 0.0 -8.658297754888e+00 
-2.168363275334e+01 5.005570831739e-01 0.0 
5.005570831739e-01 -1.096201801415e+01 0.0 
0.0 0.0 -9.393695230246e+00 
-1.138044526727e+01 6.624135128606e-01 0.0 
6.624135128606e-01 -9.476451076074e+00 0.0 
0.0 0.0 -5.857068903003e+00 
-3.264866081230e+01 8.626265308889e+00 0.0 
8.626265308889e+00 -1.323625547164e+01 0.0 
0.0 0.0 -1.336547488518e+01 
-1.321594188009e+01 1.945407499035e+00 0.0 
1.945407499035e+00 -1.058799189375e+01 0.0 
0.0 0.0 -6.741180132151e+00 
-2.404558794802e+01 2.609524487727e+00 0.0 
2.609524487727e+00 7.281110722503e-01 0.0 
0.0 0.0 -6.395989371823e+00 
-1.829920217199e+01 1.494002441734e+00 0.0 
1.494002441734e+00 -1.026439961510e+01 0.0 
0.0 0.0 -8.169080536129e+00 
-1.861596751246e+01 -1.277303994086e+00 0.0 
-1.277303994086e+00 -8.372228892384e+00 0.0 
0.0 0.0 -7.696458921454e+00 
-2.023786538227e+01 2.231887003939e-01 0.0 
2.231887003939e-01 -1.453048744686e+01 0.0 
0.0 0.0 -1.003050584874e+01 
-1.677921479935e+01 -6.322465664069e-02 0.0 
-6.322465664069e-02 -4.283064779869e+00 0.0 
0.0 0.0 -5.918683873764e+00 
-3.420221101697e+01 9.587186952067e+00 0.0 
9.587186952067e+00 -1.085840641661e+01 0.0 
0.0 0.0 -1.311818523007e+01 
-2.704281647531e+01 2.637913443841e-01 0.0 
2.637913443841e-01 -3.122116238203e+01 0.0 
0.0 0.0 -1.707919365720e+01 
-2.653169653499e+01 -2.471206925385e-01 0.0 
-2.471206925385e-01 -2.938325358823e+01 0.0 
0.0 0.0 -1.637448503696e+01 
-2.646281719316e+01 1.233307408771e-02 0.0 
1.233307408771e-02 -2.931025828399e+01 0.0 
0.0 0.0 -1.633192264315e+01 
-2.629963563474e+01 -5.781285457370e-02 0.0 
-5.781285457370e-02 -2.912848299558e+01 0.0 
0.0 0.0 -1.622843558910e+01 
-2.643240796570e+01 -1.163603500037e-01 0.0 
-1.163603500037e-01 -2.919934805169e+01 0.0 
0.0 0.0 -1.628952680522e+01 
-2.619290332520e+01 -1.545109139275e-01 0.0 
-1.545109139275e-01 -2.918080310327e+01 0.0 
0.0 0.0 -1.621211192854e+01 
-2.644165637990e+01 -1.413342320817e-01 0.0 
-1.413342320817e-01 -2.928012864740e+01 0.0 
0.0 0.0 -1.631653550819e+01 
-2.608716908436e+01 -2.294516753907e-01 0.0 
-2.294516753907e-01 -2.912208030587e+01 0.0 
0.0 0.0 -1.616277481707e+01 
-2.659108719406e+01 -2.132891313734e-01 0.0 
-2.132891313734e-01 -2.932221123836e+01 0.0 
0.0 0.0 -1.637398952973e+01 
-2.597980063379e+01 -3.387285093548e-01 0.0 
-3.387285093548e-01 -2.912124139437e+01 0.0 
0.0 0.0 -1.613031260845e+01 
-2.665520797338e+01 -2.735767021360e-01 0.0 
-2.735767021360e-01 -2.936000525097e+01 0.0 
0.0 0.0 -1.640456396731e+01 
-2.583807103762e+01 -4.319198396535e-01 0.0 
-4.319198396535e-01 -2.909393224266e+01 0.0 
0.0 0.0 -1.607960098408e+01 
-2.683344662275e+01 -3.303112079509e-01 0.0 
-3.303112079509e-01 -2.942456680747e+01 0.0 
0.0 0.0 -1.647740402907e+01 
-3.275272142184e+01 4.923854094290e+00 0.0 
4.923854094290e+00 -3.371313582284e+01 0.0 
0.0 0.0 -1.953975717341e+01 
-2.568216984728e+01 -5.151221494090e-01 0.0 
-5.151221494090e-01 -2.912571397116e+01 0.0 
0.0 0.0 -1.604236514553e+01 
-2.697195666936e+01 -3.021790728721e-01 0.0 
-3.021790728721e-01 -2.947213749873e+01 0.0 
0.0 0.0 -1.653322825043e+01 
-2.848422570023e+01 3.087110587397e+00 0.0 
3.087110587397e+00 -2.683006822355e+01 0.0 
0.0 0.0 -1.619428817713e+01 
-2.549953434063e+01 -5.604892319507e-01 0.0 
-5.604892319507e-01 -2.898061656409e+01 0.0 
0.0 0.0 -1.594404527142e+01 
-2.725899272564e+01 -3.840884812232e-01 0.0 
-3.840884812232e-01 -2.949337184276e+01 0.0 
0.0 0.0 -1.662570937052e+01 
-3.517895954565e+01 3.026631206876e+00 0.0 
3.026631206876e+00 -3.116282682774e+01 0.0 
0.0 0.0 -1.950253591202e+01 
-2.533817438199e+01 -6.370135355092e-01 0.0 
-6.370135355092e-01 -2.901499419692e+01 0.0 
0.0 0.0 -1.590595057367e+01 
-2.753936933503e+01 -3.914449871481e-01 0.0 
-3.914449871481e-01 -2.958263299355e+01 0.0 
0.0 0.0 -1.673660069857e+01 
-2.520587860627e+01 -6.331568906497e-01 0.0 
-6.331568906497e-01 -2.908578382410e+01 0.0 
0.0 0.0 -1.588749872911e+01 
-2.799228271164e+01 -2.793694638990e-01 0.0 
-2.793694638990e-01 -2.968829840694e+01 0.0 
0.0 0.0 -1.690417433558e+01 
-2.515670167930e+01 -5.306360868384e-01 0.0 
-5.306360868384e-01 -2.908802805158e+01 0.0 
0.0 0.0 -1.587341891927e+01 
-3.843784835507e+01 6.167220806839e+00 0.0 
6.167220806839e+00 -3.443581521367e+01 0.0 
0.0 0.0 -2.146209907062e+01 
-2.867883055494e+01 -1.302737587865e-01 0.0 
-1.302737587865e-01 -2.979265996282e+01 0.0 
0.0 0.0 -1.714144715533e+01 
-2.527199666099e+01 -3.311541280169e-01 0.0 
-3.311541280169e-01 -2.917712216049e+01 0.0 
0.0 0.0 -1.593473564644e+01 
-2.565759408021e+01 5.896929019419e-02 0.0 
5.896929019419e-02 -2.941731875537e+01 0.0 
0.0 0.0 -1.612247385067e+01 
-2.951605315943e+01 1.257747156808e-01 0.0 
1.257747156808e-01 -2.992312323149e+01 0.0 
0.0 0.0 -1.743175291728e+01 
-2.647905553894e+01 7.125011254274e-01 0.0 
7.125011254274e-01 -2.952908063666e+01 0.0 
0.0 0.0 -1.640244085268e+01 
-3.056399528500e+01 6.743095437124e-01 0.0 
6.743095437124e-01 -3.000710789643e+01 0.0 
0.0 0.0 -1.777133095443e+01 
-2.812724804639e+01 1.965631762613e+00 0.0 
1.965631762613e+00 -3.112527978776e+01 0.0 
0.0 0.0 -1.737575835025e+01 
-3.230406954367e+01 1.145806846449e+00 0.0 
1.145806846449e+00 -3.041987653238e+01 0.0 
0.0 0.0 -1.841718382282e+01 
-3.305057108884e+01 4.034975059050e+00 0.0 
4.034975059050e+00 -2.346446903790e+01 0.0 
0.0 0.0 -1.655451203802e+01 
-2.700988337029e+01 1.376788391481e+00 0.0 
1.376788391481e+00 -2.903716171044e+01 0.0 
0.0 0.0 -1.641411352422e+01 
-2.664063754074e+01 -1.501442594928e+00 0.0 
-1.501442594928e+00 -3.119747809292e+01 0.0 
0.0 0.0 -1.695143469010e+01 
-2.470547892065e+01 7.234893559573e-02 0.0 
7.234893559573e-02 -2.495491903640e+01 0.0 
0.0 0.0 -1.449811938711e+01 
-2.883636590412e+01 -2.603955090993e-01 0.0 
-2.603955090993e-01 -3.507848229117e+01 0.0 
0.0 0.0 -1.877445445859e+01 
-3.331650246361e+01 7.051069329608e+00 0.0 
7.051069329608e+00 -2.834340614575e+01 0.0 
0.0 0.0 -1.809797258281e+01 
-3.411232006181e+01 3.578407543553e-01 0.0 
3.578407543553e-01 -4.771667075054e+01 0.0 
0.0 0.0 -2.414869724371e+01 
-3.483763446992e+01 -3.109725538207e-02 0.0 
-3.109725538207e-02 -4.886799102586e+01 0.0 
0.0 0.0 -2.471168764873e+01 
-3.484357688275e+01 -6.173434380060e-02 0.0 
-6.173434380060e-02 -4.886536422635e+01 0.0 
0.0 0.0 -2.471268233273e+01 
-3.472569074077e+01 -4.408952092015e-02 0.0 
-4.408952092015e-02 -4.886771363515e+01 0.0 
0.0 0.0 -2.467802131278e+01 
-3.488198492288e+01 -1.179103125970e-01 0.0 
-1.179103125970e-01 -4.891502761843e+01 0.0 
0.0 0.0 -2.473910376239e+01 
-3.495477833605e+01 -1.646371289032e-01 0.0 
-1.646371289032e-01 -4.905358030882e+01 0.0 
0.0 0.0 -2.480250759346e+01 
-3.492449146740e+01 -6.862354955228e-02 0.0 
-6.862354955228e-02 -4.907341051822e+01 0.0 
0.0 0.0 -2.479937059569e+01 
-3.527375330783e+01 -9.451799164101e-02 0.0 
-9.451799164101e-02 -4.901339507658e+01 0.0 
0.0 0.0 -2.488614451532e+01 
-3.496413584820e+01 -1.579331081265e-01 0.0 
-1.579331081265e-01 -4.885932476467e+01 0.0 
0.0 0.0 -2.474703818386e+01 
-3.543128872835e+01 -2.720219723767e-01 0.0 
-2.720219723767e-01 -4.907336712654e+01 0.0 
0.0 0.0 -2.495139675647e+01 
-3.506514037558e+01 -1.598930705093e-01 0.0 
-1.598930705093e-01 -4.898318085609e+01 0.0 
0.0 0.0 -2.481449636950e+01 
-3.575929833758e+01 -2.618592060668e-01 0.0 
-2.618592060668e-01 -4.910801573841e+01 0.0 
0.0 0.0 -2.506019422280e+01 
-4.261279594548e+01 4.414446412810e+00 0.0 
4.414446412810e+00 -5.346975375378e+01 0.0 
0.0 0.0 -2.842476490978e+01 
-3.519726673101e+01 -1.730709452076e-01 0.0 
-1.730709452076e-01 -4.894014706007e+01 0.0 
0.0 0.0 -2.484122413733e+01 
-4.326404393907e+01 2.389034715516e+00 0.0 
2.389034715516e+00 -5.085058335362e+01 0.0 
0.0 0.0 -2.783438818781e+01 
-3.644503499892e+01 -3.747786325876e-01 0.0 
-3.747786325876e-01 -4.926815049357e+01 0.0 
0.0 0.0 -2.531395564775e+01 
-3.533977931286e+01 -1.548827546233e-01 0.0 
-1.548827546233e-01 -4.899705700025e+01 0.0 
0.0 0.0 -2.490105089393e+01 
-3.650265209720e+01 -2.613376549197e-01 0.0 
-2.613376549197e-01 -4.911849944642e+01 0.0 
0.0 0.0 -2.528634546309e+01 
-3.556417165311e+01 -1.324617596902e-01 0.0 
-1.324617596902e-01 -4.887212267351e+01 0.0 
0.0 0.0 -2.493088829799e+01 
-3.716162530268e+01 -3.415864678931e-01 0.0 
-3.415864678931e-01 -4.926683533502e+01 0.0 
0.0 0.0 -2.552853819131e+01 
-3.591784019252e+01 1.065824179838e-02 0.0 
1.065824179838e-02 -4.913239832769e+01 0.0 
0.0 0.0 -2.511507155606e+01 
-3.800756572385e+01 -1.587847277398e-01 0.0 
-1.587847277398e-01 -4.946429725798e+01 0.0 
0.0 0.0 -2.584155889455e+01 
-3.934020228393e+01 2.991101287864e+00 0.0 
2.991101287864e+00 -4.683751959299e+01 0.0 
0.0 0.0 -2.545331656308e+01 
-3.641667859983e+01 2.756248463482e-01 0.0 
2.756248463482e-01 -4.934522214605e+01 0.0 
0.0 0.0 -2.532857022377e+01 
-3.892692509090e+01 1.912602705597e-01 0.0 
1.912602705597e-01 -4.956554048501e+01 0.0 
0.0 0.0 -2.614773967277e+01 
-3.710744178206e+01 6.401624937663e-01 0.0 
6.401624937663e-01 -4.945941949277e+01 0.0 
0.0 0.0 -2.557005838245e+01 
-4.010286911944e+01 5.709167439294e-01 0.0 
5.709167439294e-01 -4.977410218164e+01 0.0 
0.0 0.0 -2.656309139032e+01 
-4.149413046566e+01 1.241766756749e+00 0.0 
1.241766756749e+00 -5.015923089470e+01 0.0 
0.0 0.0 -2.709600840811e+01 
-3.807857081136e+01 1.204190259292e+00 0.0 
1.204190259292e+00 -4.990233108599e+01 0.0 
0.0 0.0 -2.599427056920e+01 
-3.945716460961e+01 2.162083516409e+00 0.0 
2.162083516409e+00 -5.075783632053e+01 0.0 
0.0 0.0 -2.666450027904e+01 
-4.682788208570e+01 4.771322963272e+00 0.0 
4.771322963272e+00 -5.452771567743e+01 0.0 
0.0 0.0 -3.000667932894e+01 
-4.211821951116e+01 3.457389900528e+00 0.0 
3.457389900528e+00 -4.444506251460e+01 0.0 
0.0 0.0 -2.556898460773e+01 
-3.416016677292e+01 1.254275326988e+00 0.0 
1.254275326988e+00 -4.904627314575e+01 0.0 
0.0 0.0 -2.456193197560e+01 
-3.439196695039e+01 -1.590721954595e+00 0.0 
-1.590721954595e+00 -4.767251637301e+01 0.0 
0.0 0.0 -2.421934499702e+01 
-3.626272071448e+01 -1.007796424052e-01 0.0 
-1.007796424052e-01 -5.353773882172e+01 0.0 
0.0 0.0 -2.654013786086e+01 
-3.238923078112e+01 -2.944543006714e-01 0.0 
-2.944543006714e-01 -4.336850033751e+01 0.0 
0.0 0.0 -2.232731933559e+01 
-4.212843382724e+01 5.588393883007e+00 0.0 
5.588393883007e+00 -4.737826681812e+01 0.0 
0.0 0.0 -2.645201019361e+01 

TENSORS element_materi_strain_total float
-1.223179880480e-03 2.660533128763e-03 0.0 
2.660533128763e-03 6.402695766913e-03 0.0 
0.0 0.0 0.0 
-1.201978751984e-03 2.383346811994e-03 0.0 
2.383346811994e-03 6.212287367814e-03 0.0 
0.0 0.0 0.0 
-2.996518550250e-04 2.376498649241e-03 0.0 
2.376498649241e-03 1.278904733639e-02 0.0 
0.0 0.0 0.0 
-3.174333781517e-04 2.080739010973e-04 0.0 
2.080739010973e-04 1.446197536626e-02 0.0 
0.0 0.0 0.0 
-1.107754296412e-03 1.513835109526e-04 0.0 
1.513835109526e-04 1.205370486589e-02 0.0 
0.0 0.0 0.0 
8.100576515995e-04 2.957768542102e-03 0.0 
2.957768542102e-03 -3.168662228204e-03 0.0 
0.0 0.0 0.0 
-1.025963654898e-03 1.184747171897e-04 0.0 
1.184747171897e-04 1.204459942287e-02 0.0 
0.0 0.0 0.0 
-1.217635479296e-03 2.793651010202e-03 0.0 
2.793651010202e-03 5.635584244397e-03 0.0 
0.0 0.0 0.0 
-1.102097613527e-03 5.467759438339e-05 0.0 
5.467759438339e-05 1.205162208512e-02 0.0 
0.0 0.0 0.0 
-3.083326247223e-04 4.098164969807e-04 0.0 
4.098164969807e-04 1.442832334544e-02 0.0 
0.0 0.0 0.0 
7.952844414705e-05 -7.395228310201e-05 0.0 
-7.395228310201e-05 4.758951565081e-03 0.0 
0.0 0.0 0.0 
-1.210945257002e-03 2.421099478230e-03 0.0 
2.421099478230e-03 5.421235223052e-03 0.0 
0.0 0.0 0.0 
3.553125326383e-05 3.630182309725e-05 0.0 
3.630182309725e-05 7.125834920856e-03 0.0 
0.0 0.0 0.0 
-1.320299367089e-03 4.430922598296e-04 0.0 
4.430922598296e-04 1.236819518782e-02 0.0 
0.0 0.0 0.0 
2.173828148577e-05 -1.365280743176e-05 0.0 
-1.365280743176e-05 7.292463721030e-03 0.0 
0.0 0.0 0.0 
-1.914265070623e-04 3.357911382075e-04 0.0 
3.357911382075e-04 1.456683567688e-02 0.0 
0.0 0.0 0.0 
-1.224134403979e-03 1.780050472190e-04 0.0 
1.780050472190e-04 1.195807347782e-02 0.0 
0.0 0.0 0.0 
1.216771523651e-03 1.454765898770e-03 0.0 
1.454765898770e-03 -3.547694146070e-03 0.0 
0.0 0.0 0.0 
1.645313900525e-04 -9.247618404902e-05 0.0 
-9.247618404902e-05 1.377229928681e-03 0.0 
0.0 0.0 0.0 
8.281361855977e-05 -8.380900437013e-05 0.0 
-8.380900437013e-05 1.474117036981e-03 0.0 
0.0 0.0 0.0 
-3.767069441423e-04 3.740505177625e-04 0.0 
3.740505177625e-04 1.443482618352e-02 0.0 
0.0 0.0 0.0 
-1.246847237251e-03 2.255434300497e-03 0.0 
2.255434300497e-03 7.576624020495e-03 0.0 
0.0 0.0 0.0 
-1.388320952213e-03 2.431091898306e-03 0.0 
2.431091898306e-03 8.079049257846e-03 0.0 
0.0 0.0 0.0 
7.702851619666e-04 9.977904852260e-04 0.0 
9.977904852260e-04 6.232921608884e-03 0.0 
0.0 0.0 0.0 
-1.389043786162e-03 7.916387296554e-04 0.0 
7.916387296554e-04 1.257308992142e-02 0.0 
0.0 0.0 0.0 
7.582920571947e-05 -1.055354630029e-04 0.0 
-1.055354630029e-04 4.981080731402e-03 0.0 
0.0 0.0 0.0 
-1.481627793736e-03 4.905364300074e-04 0.0 
4.905364300074e-04 1.152242165275e-02 0.0 
0.0 0.0 0.0 
2.339725947993e-04 2.941489369090e-03 0.0 
2.941489369090e-03 9.597592787189e-03 0.0 
0.0 0.0 0.0 
-1.570335231270e-03 8.617642504293e-04 0.0 
8.617642504293e-04 1.256739472087e-02 0.0 
0.0 0.0 0.0 
6.777988007705e-04 9.857585974732e-04 0.0 
9.857585974732e-04 6.488497369271e-03 0.0 
0.0 0.0 0.0 
8.755222620154e-04 -2.513415005088e-03 0.0 
-2.513415005088e-03 -2.146307721082e-03 0.0 
0.0 0.0 0.0 
8.009978351309e-05 -1.985222690366e-04 0.0 
-1.985222690366e-04 3.415691906592e-04 0.0 
0.0 0.0 0.0 
-5.080485429231e-04 2.454274253605e-03 0.0 
2.454274253605e-03 1.292327667139e-02 0.0 
0.0 0.0 0.0 
6.066840858177e-05 -3.386438526799e-05 0.0 
-3.386438526799e-05 6.035215320017e-03 0.0 
0.0 0.0 0.0 
3.175906531125e-04 2.802988420951e-04 0.0 
2.802988420951e-04 6.721608653249e-03 0.0 
0.0 0.0 0.0 
6.704981212824e-05 1.734893010867e-04 0.0 
1.734893010867e-04 7.383764901834e-03 0.0 
0.0 0.0 0.0 
6.865579433568e-05 2.977511673022e-05 0.0 
2.977511673022e-05 7.374900820783e-03 0.0 
0.0 0.0 0.0 
6.235691101151e-04 2.010919176575e-03 0.0 
2.010919176575e-03 7.382049908773e-03 0.0 
0.0 0.0 0.0 
-1.027821125109e-03 -2.554450816879e-05 0.0 
-2.554450816879e-05 1.162331445560e-02 0.0 
0.0 0.0 0.0 
-9.889222933125e-04 7.278534987973e-05 0.0 
7.278534987973e-05 1.163916581381e-02 0.0 
0.0 0.0 0.0 
-1.653152817837e-03 2.078444202901e-03 0.0 
2.078444202901e-03 9.626754600079e-03 0.0 
0.0 0.0 0.0 
2.642307099197e-04 5.455184651384e-04 0.0 
5.455184651384e-04 6.806153850324e-03 0.0 
0.0 0.0 0.0 
-1.237710310331e-03 2.831485968594e-03 0.0 
2.831485968594e-03 4.027906525757e-03 0.0 
0.0 0.0 0.0 
-1.597128574801e-03 5.068726809707e-04 0.0 
5.068726809707e-04 1.160331367566e-02 0.0 
0.0 0.0 0.0 
-4.229334686655e-04 6.831685386385e-05 0.0 
6.831685386385e-05 1.429637716882e-02 0.0 
0.0 0.0 0.0 
-1.361275207035e-03 2.827299217889e-03 0.0 
2.827299217889e-03 4.027781472612e-03 0.0 
0.0 0.0 0.0 
8.919000384353e-04 -2.414985915446e-03 0.0 
-2.414985915446e-03 -2.841267673844e-03 0.0 
0.0 0.0 0.0 
-2.880196793826e-04 1.376363640163e-04 0.0 
1.376363640163e-04 1.431548207828e-02 0.0 
0.0 0.0 0.0 
-5.057462128665e-04 -2.124564461082e-03 0.0 
-2.124564461082e-03 -1.137292862820e-03 0.0 
0.0 0.0 0.0 
-1.396017453780e-03 3.372555502777e-04 0.0 
3.372555502777e-04 1.222242802569e-02 0.0 
0.0 0.0 0.0 
-1.534192599382e-03 2.265498830232e-03 0.0 
2.265498830232e-03 8.819798248592e-03 0.0 
0.0 0.0 0.0 
8.056255955879e-05 -9.546636782813e-05 0.0 
-9.546636782813e-05 1.806021718711e-03 0.0 
0.0 0.0 0.0 
1.836545552583e-03 -2.179562269310e-03 0.0 
-2.179562269310e-03 -2.744204466550e-03 0.0 
0.0 0.0 0.0 
-1.460352470415e-03 1.907880241363e-03 0.0 
1.907880241363e-03 9.061123863951e-03 0.0 
0.0 0.0 0.0 
-3.427950032507e-04 1.855951335686e-03 0.0 
1.855951335686e-03 1.368433848177e-02 0.0 
0.0 0.0 0.0 
-2.303063443865e-05 -2.210072232506e-04 0.0 
-2.210072232506e-04 2.418073784887e-03 0.0 
0.0 0.0 0.0 
2.007191456443e-05 -8.874381816217e-05 0.0 
-8.874381816217e-05 1.891725745294e-03 0.0 
0.0 0.0 0.0 
7.486961614078e-05 -3.262647576444e-06 0.0 
-3.262647576444e-06 6.036055033855e-03 0.0 
0.0 0.0 0.0 
2.036958917415e-04 -1.815375621028e-04 0.0 
-1.815375621028e-04 9.842854479476e-04 0.0 
0.0 0.0 0.0 
-2.244061866195e-04 2.999805572573e-04 0.0 
2.999805572573e-04 1.456734717409e-02 0.0 
0.0 0.0 0.0 
-8.537951999015e-04 -1.989839208136e-03 0.0 
-1.989839208136e-03 -3.461148149480e-03 0.0 
0.0 0.0 0.0 
6.353781470432e-04 2.522058414289e-03 0.0 
2.522058414289e-03 8.035760217582e-03 0.0 
0.0 0.0 0.0 
-1.134134476596e-04 2.907322491046e-03 0.0 
2.907322491046e-03 5.266452929864e-03 0.0 
0.0 0.0 0.0 
1.683629632836e-03 -2.128467415893e-03 0.0 
-2.128467415893e-03 -2.324005473510e-03 0.0 
0.0 0.0 0.0 
5.487146420435e-05 -7.756455552497e-06 0.0 
-7.756455552497e-06 7.067770798786e-03 0.0 
0.0 0.0 0.0 
-1.433303832049e-03 2.118430075364e-03 0.0 
2.118430075364e-03 8.359246480448e-03 0.0 
0.0 0.0 0.0 
2.996473652854e-04 -7.942089848786e-04 0.0 
-7.942089848786e-04 -4.878638359117e-03 0.0 
0.0 0.0 0.0 
-5.111434238623e-04 2.572936649994e-03 0.0 
2.572936649994e-03 1.264894671198e-02 0.0 
0.0 0.0 0.0 
-4.349310191984e-04 -1.493717937764e-03 0.0 
-1.493717937764e-03 8.113593746630e-04 0.0 
0.0 0.0 0.0 
-8.846860641787e-05 2.801916288937e-03 0.0 
2.801916288937e-03 1.121729753978e-02 0.0 
0.0 0.0 0.0 
1.095139603329e-04 -1.340649894528e-04 0.0 
-1.340649894528e-04 5.159182651963e-03 0.0 
0.0 0.0 0.0 
0.0 1.214957776188e-03 0.0 
1.214957776188e-03 1.445495059298e-02 0.0 
0.0 0.0 0.0 
1.976380689224e-04 2.671002828769e-03 0.0 
2.671002828769e-03 9.254261612281e-03 0.0 
0.0 0.0 0.0 
4.665245616453e-04 -5.602144083725e-06 0.0 
-5.602144083725e-06 2.940133174392e-04 0.0 
0.0 0.0 0.0 
-4.246359231919e-05 -1.865282191209e-04 0.0 
-1.865282191209e-04 2.539215831649e-03 0.0 
0.0 0.0 0.0 
-4.448644515437e-04 8.710837255612e-04 0.0 
8.710837255612e-04 1.436900927420e-02 0.0 
0.0 0.0 0.0 
-5.826839615665e-04 2.027814404360e-03 0.0 
2.027814404360e-03 1.356150483548e-02 0.0 
0.0 0.0 0.0 
-1.223151740475e-03 3.011683601124e-03 0.0 
3.011683601124e-03 2.391359283940e-03 0.0 
0.0 0.0 0.0 
8.609307397145e-05 -1.927336936005e-04 0.0 
-1.927336936005e-04 1.062693201577e-03 0.0 
0.0 0.0 0.0 
-1.151942359458e-03 3.027896248694e-03 0.0 
3.027896248694e-03 2.392014369747e-03 0.0 
0.0 0.0 0.0 
-6.039677692321e-04 -1.729008931608e-03 0.0 
-1.729008931608e-03 8.485962952194e-04 0.0 
0.0 0.0 0.0 
-1.210567620612e-03 1.558646189032e-04 0.0 
1.558646189032e-04 1.197813461212e-02 0.0 
0.0 0.0 0.0 
-1.330409959252e-03 2.553510274148e-03 0.0 
2.553510274148e-03 7.307656677025e-03 0.0 
0.0 0.0 0.0 
-1.209752897149e-03 2.237058077697e-03 0.0 
2.237058077697e-03 6.884990378704e-03 0.0 
0.0 0.0 0.0 
-1.162829133583e-03 1.219929167894e-04 0.0 
1.219929167894e-04 1.227461690963e-02 0.0 
0.0 0.0 0.0 
-1.058220207020e-03 1.644712998822e-04 0.0 
1.644712998822e-04 1.227418220120e-02 0.0 
0.0 0.0 0.0 
7.914782107665e-05 -8.327000647794e-05 0.0 
-8.327000647794e-05 5.379422364492e-03 0.0 
0.0 0.0 0.0 
6.673677307956e-05 1.534898921979e-05 0.0 
1.534898921979e-05 5.863960750578e-03 0.0 
0.0 0.0 0.0 
-9.723231571682e-04 2.243130908113e-03 0.0 
2.243130908113e-03 1.184100658813e-02 0.0 
0.0 0.0 0.0 
-1.198800128060e-03 1.035836965587e-04 0.0 
1.035836965587e-04 1.204419623464e-02 0.0 
0.0 0.0 0.0 
-3.143751170175e-04 -2.581184065634e-04 0.0 
-2.581184065634e-04 5.223654170263e-04 0.0 
0.0 0.0 0.0 
-1.598758588797e-03 6.256081176034e-04 0.0 
6.256081176034e-04 1.194544512930e-02 0.0 
0.0 0.0 0.0 
-6.629680254385e-04 7.904948674362e-05 0.0 
7.904948674362e-05 1.351965083985e-02 0.0 
0.0 0.0 0.0 
-7.369080293318e-04 1.450041646331e-04 0.0 
1.450041646331e-04 1.346406123656e-02 0.0 
0.0 0.0 0.0 
-3.007394547812e-04 1.341089262849e-03 0.0 
1.341089262849e-03 1.440939978252e-02 0.0 
0.0 0.0 0.0 
3.048203393454e-04 2.161022476350e-03 0.0 
2.161022476350e-03 7.982683302870e-03 0.0 
0.0 0.0 0.0 
-1.309785876226e-03 1.864252897551e-04 0.0 
1.864252897551e-04 1.198346192468e-02 0.0 
0.0 0.0 0.0 
4.116447571874e-04 4.734427273066e-04 0.0 
4.734427273066e-04 6.838587656410e-03 0.0 
0.0 0.0 0.0 
-8.642776282756e-04 -1.785901201617e-07 0.0 
-1.785901201617e-07 1.260644762810e-02 0.0 
0.0 0.0 0.0 
-5.353161510574e-04 2.865043127585e-03 0.0 
2.865043127585e-03 5.910267637834e-03 0.0 
0.0 0.0 0.0 
-1.132922612400e-03 6.514668278011e-05 0.0 
6.514668278011e-05 1.184698179342e-02 0.0 
0.0 0.0 0.0 
2.321187494925e-05 4.256584140453e-05 0.0 
4.256584140453e-05 7.288947379866e-03 0.0 
0.0 0.0 0.0 
1.124034214420e-03 2.108595636554e-03 0.0 
2.108595636554e-03 6.302128258772e-03 0.0 
0.0 0.0 0.0 
5.428786406434e-04 2.418727137044e-03 0.0 
2.418727137044e-03 8.052779487167e-03 0.0 
0.0 0.0 0.0 
2.443177130151e-04 2.950057782021e-03 0.0 
2.950057782021e-03 3.534563300742e-03 0.0 
0.0 0.0 0.0 
-5.320992899708e-04 -2.960954973740e-03 0.0 
-2.960954973740e-03 -1.334236011215e-03 0.0 
0.0 0.0 0.0 
4.613966641176e-05 -3.250965193688e-05 0.0 
-3.250965193688e-05 6.666627401405e-03 0.0 
0.0 0.0 0.0 
-6.414346976373e-04 1.653685099617e-04 0.0 
1.653685099617e-04 1.378891546680e-02 0.0 
0.0 0.0 0.0 
-1.132853306853e-03 -3.057506333014e-03 0.0 
-3.057506333014e-03 -2.055052325692e-03 0.0 
0.0 0.0 0.0 
7.360797995970e-05 5.533637698896e-05 0.0 
5.533637698896e-05 7.133096393519e-03 0.0 
0.0 0.0 0.0 
-8.547440698802e-04 2.226268062611e-03 0.0 
2.226268062611e-03 1.136018241947e-02 0.0 
0.0 0.0 0.0 
5.913801088731e-04 1.178660216984e-05 0.0 
1.178660216984e-05 7.700787321574e-05 0.0 
0.0 0.0 0.0 
1.064672966318e-03 2.757385330404e-03 0.0 
2.757385330404e-03 3.530552347843e-03 0.0 
0.0 0.0 0.0 
-1.801291991711e-03 1.106976126879e-03 0.0 
1.106976126879e-03 1.128281031581e-02 0.0 
0.0 0.0 0.0 
9.309510295985e-08 -3.304760868436e-04 0.0 
-3.304760868436e-04 3.027351082034e-03 0.0 
0.0 0.0 0.0 
-3.895268181566e-04 2.829571077876e-03 0.0 
2.829571077876e-03 5.069984477587e-03 0.0 
0.0 0.0 0.0 
-1.158440645936e-04 2.870684832362e-03 0.0 
2.870684832362e-03 5.269201619916e-03 0.0 
0.0 0.0 0.0 
1.881007951450e-04 2.867246384443e-04 0.0 
2.867246384443e-04 6.967577361261e-03 0.0 
0.0 0.0 0.0 
-8.885996692720e-04 6.307082251512e-05 0.0 
6.307082251512e-05 1.248154639344e-02 0.0 
0.0 0.0 0.0 
4.618752010899e-05 2.995640927394e-03 0.0 
2.995640927394e-03 4.400427676586e-03 0.0 
0.0 0.0 0.0 
-3.176731869126e-04 -8.759775093126e-04 0.0 
-8.759775093126e-04 1.096919400129e-03 0.0 
0.0 0.0 0.0 
-1.569452252066e-03 7.278783440962e-04 0.0 
7.278783440962e-04 1.175803170753e-02 0.0 
0.0 0.0 0.0 
-5.358228944564e-04 1.085413126388e-04 0.0 
1.085413126388e-04 1.380980807355e-02 0.0 
0.0 0.0 0.0 
5.619433184845e-05 2.889671190132e-03 0.0 
2.889671190132e-03 4.405512621888e-03 0.0 
0.0 0.0 0.0 
-1.016256894040e-03 3.157994024238e-03 0.0 
3.157994024238e-03 5.624926366690e-04 0.0 
0.0 0.0 0.0 
-1.811261346441e-03 1.531161405878e-03 0.0 
1.531161405878e-03 1.059754913375e-02 0.0 
0.0 0.0 0.0 
-3.599671202226e-05 -2.972592159469e-04 0.0 
-2.972592159469e-04 2.997888614368e-03 0.0 
0.0 0.0 0.0 
-1.604338639964e-03 1.338508642147e-03 0.0 
1.338508642147e-03 1.034613719490e-02 0.0 
0.0 0.0 0.0 
-2.468341552100e-04 1.035231794516e-03 0.0 
1.035231794516e-03 1.439854705089e-02 0.0 
0.0 0.0 0.0 
-1.224200928523e-04 3.441512522129e-03 0.0 
3.441512522129e-03 -7.068908021272e-04 0.0 
0.0 0.0 0.0 
1.148444768795e-04 -1.033408632277e-04 0.0 
-1.033408632277e-04 4.977690915685e-03 0.0 
0.0 0.0 0.0 
-2.860502993153e-04 2.458995854278e-04 0.0 
2.458995854278e-04 1.446309388823e-02 0.0 
0.0 0.0 0.0 
-7.352471617846e-04 2.635121198615e-03 0.0 
2.635121198615e-03 7.803399883499e-03 0.0 
0.0 0.0 0.0 
-1.766088412746e-03 1.778325931714e-03 0.0 
1.778325931714e-03 1.016725363961e-02 0.0 
0.0 0.0 0.0 
3.828030140647e-04 3.821041289105e-04 0.0 
3.821041289105e-04 6.723647988172e-03 0.0 
0.0 0.0 0.0 
2.700067480021e-05 -3.523368266317e-05 0.0 
-3.523368266317e-05 7.139564117324e-03 0.0 
0.0 0.0 0.0 
1.134529373474e-04 -6.539928279988e-05 0.0 
-6.539928279988e-05 5.379900016547e-03 0.0 
0.0 0.0 0.0 
-8.953938020789e-04 2.632220200626e-03 0.0 
2.632220200626e-03 8.583400591165e-03 0.0 
0.0 0.0 0.0 
5.704847041632e-04 9.354966612972e-04 0.0 
9.354966612972e-04 6.867768393775e-03 0.0 
0.0 0.0 0.0 
-1.047661850313e-03 2.437236078873e-03 0.0 
2.437236078873e-03 8.396940089417e-03 0.0 
0.0 0.0 0.0 
-2.240907990572e-04 6.716106064984e-04 0.0 
6.716106064984e-04 1.446937599050e-02 0.0 
0.0 0.0 0.0 
-1.679898299007e-04 2.961700932641e-03 0.0 
2.961700932641e-03 1.140381464929e-02 0.0 
0.0 0.0 0.0 
-1.467444441426e-03 4.601236434886e-04 0.0 
4.601236434886e-04 1.237303735433e-02 0.0 
0.0 0.0 0.0 
-8.307357114961e-04 1.970126586929e-04 0.0 
1.970126586929e-04 1.309567927038e-02 0.0 
0.0 0.0 0.0 
-1.034042274872e-03 2.604814644957e-03 0.0 
2.604814644957e-03 8.389891484650e-03 0.0 
0.0 0.0 0.0 
-1.565466245933e-03 1.598371974622e-03 0.0 
1.598371974622e-03 9.769909492407e-03 0.0 
0.0 0.0 0.0 
-6.282910772111e-04 2.650098531172e-03 0.0 
2.650098531172e-03 8.041341251699e-03 0.0 
0.0 0.0 0.0 
5.745799079200e-04 2.889889591522e-03 0.0 
2.889889591522e-03 3.788646710200e-03 0.0 
0.0 0.0 0.0 
-1.052014870977e-03 3.045092787321e-05 0.0 
3.045092787321e-05 1.188765703394e-02 0.0 
0.0 0.0 0.0 
1.192379303956e-03 2.569033080371e-03 0.0 
2.569033080371e-03 3.553163324853e-03 0.0 
0.0 0.0 0.0 
-4.764976440719e-05 -1.479842642670e-04 0.0 
-1.479842642670e-04 4.195825106983e-04 0.0 
0.0 0.0 0.0 
-9.383333524210e-04 1.983682100742e-05 0.0 
1.983682100742e-05 1.216991837897e-02 0.0 
0.0 0.0 0.0 
1.636204518569e-04 -7.231497831131e-05 0.0 
-7.231497831131e-05 1.058980792009e-03 0.0 
0.0 0.0 0.0 
-1.816006408296e-03 1.294639771636e-03 0.0 
1.294639771636e-03 1.094197836945e-02 0.0 
0.0 0.0 0.0 
3.154584996432e-04 8.325279995647e-04 0.0 
8.325279995647e-04 6.831873743426e-03 0.0 
0.0 0.0 0.0 
1.802426149795e-04 3.070501099821e-03 0.0 
3.070501099821e-03 3.525750969504e-03 0.0 
0.0 0.0 0.0 
8.305460035141e-05 -1.702343495186e-05 0.0 
-1.702343495186e-05 5.620295054757e-03 0.0 
0.0 0.0 0.0 
-1.333654881222e-03 2.668659868134e-03 0.0 
2.668659868134e-03 4.801204613153e-03 0.0 
0.0 0.0 0.0 
1.143691059490e-03 2.268088807644e-03 0.0 
2.268088807644e-03 6.287668312350e-03 0.0 
0.0 0.0 0.0 
-9.663518615934e-04 2.725835762971e-05 0.0 
2.725835762971e-05 1.190607835865e-02 0.0 
0.0 0.0 0.0 
1.317938582595e-03 2.704391687982e-03 0.0 
2.704391687982e-03 2.610813224251e-03 0.0 
0.0 0.0 0.0 
6.451306627908e-05 -4.893901813686e-05 0.0 
-4.893901813686e-05 6.222704022407e-03 0.0 
0.0 0.0 0.0 
-6.387502864658e-04 -1.056191978440e-03 0.0 
-1.056191978440e-03 1.133836265856e-03 0.0 
0.0 0.0 0.0 
6.534515630907e-05 2.217386651749e-05 0.0 
2.217386651749e-05 6.660795145232e-03 0.0 
0.0 0.0 0.0 
-1.554019362377e-03 1.573824190254e-03 0.0 
1.573824190254e-03 1.092250997898e-02 0.0 
0.0 0.0 0.0 
9.329868946972e-05 4.231284703660e-05 0.0 
4.231284703660e-05 7.141695852065e-03 0.0 
0.0 0.0 0.0 
-9.371307120111e-04 1.330543847479e-05 0.0 
1.330543847479e-05 1.186791171646e-02 0.0 
0.0 0.0 0.0 
6.570320356909e-04 2.964920816698e-03 0.0 
2.964920816698e-03 2.822977891226e-03 0.0 
0.0 0.0 0.0 
-1.631183093800e-03 9.570495617236e-04 0.0 
9.570495617236e-04 1.106560744705e-02 0.0 
0.0 0.0 0.0 
4.719123897723e-05 -7.735551945781e-05 0.0 
-7.735551945781e-05 4.764465475792e-03 0.0 
0.0 0.0 0.0 
-1.282983574494e-03 2.787509516331e-03 0.0 
2.787509516331e-03 4.833433217987e-03 0.0 
0.0 0.0 0.0 
1.474553438193e-03 2.432150033891e-03 0.0 
2.432150033891e-03 2.646997670139e-03 0.0 
0.0 0.0 0.0 
-8.172668532973e-04 1.291431288690e-04 0.0 
1.291431288690e-04 1.328467606631e-02 0.0 
0.0 0.0 0.0 
-9.851805470952e-04 5.100136686211e-05 0.0 
5.100136686211e-05 1.188408240174e-02 0.0 
0.0 0.0 0.0 
8.963761043568e-04 2.854388524798e-03 0.0 
2.854388524798e-03 3.133526338521e-03 0.0 
0.0 0.0 0.0 
-1.649369235605e-03 1.110679020840e-03 0.0 
1.110679020840e-03 1.075663422595e-02 0.0 
0.0 0.0 0.0 
-2.750814058878e-04 2.629150857339e-03 0.0 
2.629150857339e-03 1.049559096900e-02 0.0 
0.0 0.0 0.0 
-1.923588599517e-07 -3.387127102478e-04 0.0 
-3.387127102478e-04 3.292588295743e-03 0.0 
0.0 0.0 0.0 
1.851187214179e-04 2.746353628871e-03 0.0 
2.746353628871e-03 9.365245233408e-03 0.0 
0.0 0.0 0.0 
-1.285406652968e-04 2.999224096853e-03 0.0 
2.999224096853e-03 1.101566269814e-02 0.0 
0.0 0.0 0.0 
-8.500178643879e-04 2.794418162229e-03 0.0 
2.794418162229e-03 5.772449124491e-03 0.0 
0.0 0.0 0.0 
1.436033386892e-05 -2.657731581208e-04 0.0 
-2.657731581208e-04 3.378714735523e-03 0.0 
0.0 0.0 0.0 
1.069868775452e-03 1.191053719294e-03 0.0 
1.191053719294e-03 5.833745788998e-03 0.0 
0.0 0.0 0.0 
-1.353139256454e-03 2.395968558505e-03 0.0 
2.395968558505e-03 9.002452347033e-03 0.0 
0.0 0.0 0.0 
-7.448644958968e-04 2.684195212483e-03 0.0 
2.684195212483e-03 4.958402639248e-03 0.0 
0.0 0.0 0.0 
-1.623162853202e-03 1.212241814664e-03 0.0 
1.212241814664e-03 1.116164865524e-02 0.0 
0.0 0.0 0.0 
7.944300794251e-04 2.798066011439e-03 0.0 
2.798066011439e-03 4.095375619167e-03 0.0 
0.0 0.0 0.0 
-2.036092404575e-04 4.949010428445e-04 0.0 
4.949010428445e-04 1.449411162168e-02 0.0 
0.0 0.0 0.0 
-1.030241889498e-03 1.946332429723e-03 0.0 
1.946332429723e-03 1.210913788643e-02 0.0 
0.0 0.0 0.0 
5.783423221195e-05 1.875023739069e-05 0.0 
1.875023739069e-05 6.466303922878e-03 0.0 
0.0 0.0 0.0 
-1.338336436852e-03 2.951147362139e-03 0.0 
2.951147362139e-03 3.244466979845e-03 0.0 
0.0 0.0 0.0 
1.769340042490e-03 2.240320411225e-03 0.0 
2.240320411225e-03 1.729656171551e-03 0.0 
0.0 0.0 0.0 
-8.611572459467e-04 2.154278148126e-03 0.0 
2.154278148126e-03 1.186195758709e-02 0.0 
0.0 0.0 0.0 
-2.739262528068e-03 2.269140212181e-03 0.0 
2.269140212181e-03 -2.465106299623e-03 0.0 
0.0 0.0 0.0 
-1.336019412250e-03 2.147306461188e-03 0.0 
2.147306461188e-03 9.007194630122e-03 0.0 
0.0 0.0 0.0 
1.239265254633e-03 6.850616548089e-04 0.0 
6.850616548089e-04 4.994297227844e-03 0.0 
0.0 0.0 0.0 
2.745006617271e-04 -1.694705090180e-04 0.0 
-1.694705090180e-04 6.435722095715e-04 0.0 
0.0 0.0 0.0 
-4.637665106603e-04 2.154670742452e-03 0.0 
2.154670742452e-03 1.325322774818e-02 0.0 
0.0 0.0 0.0 
-1.350718044068e-03 1.254790527792e-03 0.0 
1.254790527792e-03 1.256513821196e-02 0.0 
0.0 0.0 0.0 
8.555573279319e-04 -1.199004926629e-03 0.0 
-1.199004926629e-03 2.077980776907e-03 0.0 
0.0 0.0 0.0 
1.389425250863e-03 8.632021949440e-04 0.0 
8.632021949440e-04 4.982011109997e-03 0.0 
0.0 0.0 0.0 
-1.613866611320e-03 8.220671639530e-04 0.0 
8.220671639530e-04 1.208231063061e-02 0.0 
0.0 0.0 0.0 
-1.528130299562e-03 6.797987138980e-04 0.0 
6.797987138980e-04 1.250894120685e-02 0.0 
0.0 0.0 0.0 
5.703904728389e-04 8.827248999792e-04 0.0 
8.827248999792e-04 6.463408956185e-03 0.0 
0.0 0.0 0.0 
1.010435232347e-04 -1.207370975862e-03 0.0 
-1.207370975862e-03 1.956071877482e-03 0.0 
0.0 0.0 0.0 
-3.009965886145e-04 2.744204281518e-03 0.0 
2.744204281518e-03 7.496665302857e-03 0.0 
0.0 0.0 0.0 
-1.402901490451e-03 1.897475333581e-03 0.0 
1.897475333581e-03 1.059053674065e-02 0.0 
0.0 0.0 0.0 
-1.438545644938e-03 1.273170638823e-03 0.0 
1.273170638823e-03 1.284521804308e-02 0.0 
0.0 0.0 0.0 
-1.684960866450e-03 1.611036058248e-03 0.0 
1.611036058248e-03 1.132438838566e-02 0.0 
0.0 0.0 0.0 
-1.769510900919e-03 1.474711011146e-03 0.0 
1.474711011146e-03 1.116314020799e-02 0.0 
0.0 0.0 0.0 
1.503999396338e-03 1.889486895613e-03 0.0 
1.889486895613e-03 5.036337473125e-03 0.0 
0.0 0.0 0.0 
-5.165483976717e-04 2.539756927162e-03 0.0 
2.539756927162e-03 1.077788195521e-02 0.0 
0.0 0.0 0.0 
-9.169908239031e-04 2.131869262503e-03 0.0 
2.131869262503e-03 -3.127920815373e-03 0.0 
0.0 0.0 0.0 
-7.715957319081e-04 2.729728524420e-03 0.0 
2.729728524420e-03 5.764236270476e-03 0.0 
0.0 0.0 0.0 
-5.029151659373e-04 2.787437465564e-03 0.0 
2.787437465564e-03 5.922698664203e-03 0.0 
0.0 0.0 0.0 
-5.529448574164e-04 2.737299504810e-03 0.0 
2.737299504810e-03 8.029132826627e-03 0.0 
0.0 0.0 0.0 
-1.128556895058e-03 1.950074103422e-03 0.0 
1.950074103422e-03 1.250514116007e-02 0.0 
0.0 0.0 0.0 
1.901677653237e-03 2.414202974013e-03 0.0 
2.414202974013e-03 -3.263315237086e-03 0.0 
0.0 0.0 0.0 
1.273099504459e-03 4.431423961707e-04 0.0 
4.431423961707e-04 4.640092715032e-03 0.0 
0.0 0.0 0.0 
-1.009890832757e-03 -1.832540902320e-06 0.0 
-1.832540902320e-06 1.185810759703e-02 0.0 
0.0 0.0 0.0 
1.576967063590e-03 2.591499726214e-03 0.0 
2.591499726214e-03 1.681158852238e-03 0.0 
0.0 0.0 0.0 
1.261045847595e-03 2.084810857367e-04 0.0 
2.084810857367e-04 4.348501183758e-03 0.0 
0.0 0.0 0.0 
1.980140093061e-04 -1.298726007570e-04 0.0 
-1.298726007570e-04 4.103243288236e-04 0.0 
0.0 0.0 0.0 
-1.205654803579e-03 1.426233261944e-03 0.0 
1.426233261944e-03 1.279390550319e-02 0.0 
0.0 0.0 0.0 
3.277992757338e-04 -1.421374493076e-04 0.0 
-1.421374493076e-04 2.218306379267e-04 0.0 
0.0 0.0 0.0 
1.483170032754e-04 -1.413079549035e-04 0.0 
-1.413079549035e-04 7.021994775436e-04 0.0 
0.0 0.0 0.0 
-1.188119788295e-03 2.934192952118e-03 0.0 
2.934192952118e-03 3.243513093413e-03 0.0 
0.0 0.0 0.0 
-1.070589261973e-04 -1.201419224954e-03 0.0 
-1.201419224954e-03 1.738257585697e-03 0.0 
0.0 0.0 0.0 
-1.277663323679e-03 1.426594815422e-03 0.0 
1.426594815422e-03 1.308202466541e-02 0.0 
0.0 0.0 0.0 
-1.569232994766e-04 -1.327691304341e-03 0.0 
-1.327691304341e-03 1.492720113202e-03 0.0 
0.0 0.0 0.0 
3.317512594680e-05 3.286562410916e-03 0.0 
3.286562410916e-03 1.460726351405e-03 0.0 
0.0 0.0 0.0 
5.798603435812e-04 -2.690712459445e-03 0.0 
-2.690712459445e-03 -1.125006239633e-03 0.0 
0.0 0.0 0.0 
-5.123651992200e-04 -9.327668529378e-04 0.0 
-9.327668529378e-04 1.289209362827e-03 0.0 
0.0 0.0 0.0 
1.294237624215e-03 1.086992756694e-03 0.0 
1.086992756694e-03 5.364072028119e-03 0.0 
0.0 0.0 0.0 
-1.640378316201e-03 1.818227019257e-03 0.0 
1.818227019257e-03 1.091305170658e-02 0.0 
0.0 0.0 0.0 
7.337464348378e-05 5.715384296673e-05 0.0 
5.715384296673e-05 7.071334241793e-03 0.0 
0.0 0.0 0.0 
-8.701004468927e-04 9.467147315100e-04 0.0 
9.467147315100e-04 -4.522097792888e-03 0.0 
0.0 0.0 0.0 
4.870654950886e-04 3.187544523732e-03 0.0 
3.187544523732e-03 1.579777466957e-03 0.0 
0.0 0.0 0.0 
1.683088160754e-03 2.429996060184e-03 0.0 
2.429996060184e-03 2.210419841250e-03 0.0 
0.0 0.0 0.0 
-1.144352736800e-03 2.323697887692e-03 0.0 
2.323697887692e-03 8.210965974328e-03 0.0 
0.0 0.0 0.0 
1.439140575862e-03 6.128695992847e-04 0.0 
6.128695992847e-04 4.628253710889e-03 0.0 
0.0 0.0 0.0 
1.121206780399e-04 9.340482900572e-05 0.0 
9.340482900572e-05 7.150648023790e-03 0.0 
0.0 0.0 0.0 
-1.306683494626e-03 1.824306308838e-03 0.0 
1.824306308838e-03 1.229794424450e-02 0.0 
0.0 0.0 0.0 
1.960679006511e-03 2.164617919914e-03 0.0 
2.164617919914e-03 2.340160520291e-04 0.0 
0.0 0.0 0.0 
1.163740788993e-03 9.392358824411e-04 0.0 
9.392358824411e-04 5.365090185554e-03 0.0 
0.0 0.0 0.0 
8.060851878589e-05 -3.050645502748e-05 0.0 
-3.050645502748e-05 5.196035353920e-03 0.0 
0.0 0.0 0.0 
-7.771059661349e-04 2.633594065690e-03 0.0 
2.633594065690e-03 8.796939039266e-03 0.0 
0.0 0.0 0.0 
-1.279012829809e-03 1.487899612695e-03 0.0 
1.487899612695e-03 1.246856831356e-02 0.0 
0.0 0.0 0.0 
3.208625901054e-04 2.558055507134e-03 0.0 
2.558055507134e-03 8.644666668487e-03 0.0 
0.0 0.0 0.0 
1.827360521095e-03 2.108554917543e-03 0.0 
2.108554917543e-03 2.256882685181e-03 0.0 
0.0 0.0 0.0 
-1.977972903999e-05 3.115465886073e-03 0.0 
3.115465886073e-03 2.464008266320e-03 0.0 
0.0 0.0 0.0 
-1.573220829026e-03 1.731149394891e-03 0.0 
1.731149394891e-03 1.150370230423e-02 0.0 
0.0 0.0 0.0 
-2.284062959115e-04 1.206809776007e-03 0.0 
1.206809776007e-03 1.449536523178e-02 0.0 
0.0 0.0 0.0 
-2.071149357655e-04 2.772190883592e-03 0.0 
2.772190883592e-03 7.492765676525e-03 0.0 
0.0 0.0 0.0 
1.956703273920e-03 1.653436987443e-03 0.0 
1.653436987443e-03 3.163592303832e-03 0.0 
0.0 0.0 0.0 
-9.685660784974e-04 4.728276955614e-05 0.0 
4.728276955614e-05 1.225785363086e-02 0.0 
0.0 0.0 0.0 
-5.539461011705e-04 -1.881777086665e-03 0.0 
-1.881777086665e-03 4.399761851852e-04 0.0 
0.0 0.0 0.0 
-1.565851311768e-03 1.390852645774e-03 0.0 
1.390852645774e-03 1.135839907719e-02 0.0 
0.0 0.0 0.0 
1.686953508855e-03 2.635859088440e-03 0.0 
2.635859088440e-03 1.644900414879e-04 0.0 
0.0 0.0 0.0 
2.183577197515e-03 2.243547417411e-03 0.0 
2.243547417411e-03 -2.777510787155e-03 0.0 
0.0 0.0 0.0 
1.681813470631e-03 -2.347427071861e-03 0.0 
-2.347427071861e-03 -3.479954652543e-03 0.0 
0.0 0.0 0.0 
-1.111061057635e-03 1.369278591458e-03 0.0 
1.369278591458e-03 1.308871569124e-02 0.0 
0.0 0.0 0.0 
-1.522082249831e-03 1.910139010454e-03 0.0 
1.910139010454e-03 1.106038670522e-02 0.0 
0.0 0.0 0.0 
4.682442389516e-04 2.960584927267e-03 0.0 
2.960584927267e-03 3.777967245240e-03 0.0 
0.0 0.0 0.0 
-1.166399333930e-03 1.358469829934e-03 0.0 
1.358469829934e-03 1.335789816821e-02 0.0 
0.0 0.0 0.0 
-1.149676626187e-03 2.036318764408e-03 0.0 
2.036318764408e-03 1.209206039509e-02 0.0 
0.0 0.0 0.0 
-9.849795611344e-04 2.498114718667e-03 0.0 
2.498114718667e-03 9.505249820564e-03 0.0 
0.0 0.0 0.0 
1.183407476280e-04 1.703403752755e-04 0.0 
1.703403752755e-04 7.060052768098e-03 0.0 
0.0 0.0 0.0 
2.021715414486e-03 1.659856010987e-03 0.0 
1.659856010987e-03 3.036564078276e-03 0.0 
0.0 0.0 0.0 
-1.164966252404e-03 2.333848776270e-03 0.0 
2.333848776270e-03 1.015565551776e-02 0.0 
0.0 0.0 0.0 
9.346000641424e-04 2.682039805844e-03 0.0 
2.682039805844e-03 4.462624653341e-03 0.0 
0.0 0.0 0.0 
1.846225575826e-03 1.648356856423e-03 0.0 
1.648356856423e-03 3.760739339500e-03 0.0 
0.0 0.0 0.0 
2.339379948102e-03 2.010041898341e-03 0.0 
2.010041898341e-03 -2.036977039968e-03 0.0 
0.0 0.0 0.0 
-1.517111834455e-03 4.571078540108e-04 0.0 
4.571078540108e-04 1.196001749826e-02 0.0 
0.0 0.0 0.0 
2.088718046193e-03 1.738623599650e-03 0.0 
1.738623599650e-03 1.971014228560e-03 0.0 
0.0 0.0 0.0 
2.401266336889e-03 -9.262538936886e-04 0.0 
-9.262538936886e-04 -1.265315188108e-03 0.0 
0.0 0.0 0.0 
-1.171190705842e-03 1.726384818571e-03 0.0 
1.726384818571e-03 1.231528084857e-02 0.0 
0.0 0.0 0.0 
-4.094215136136e-03 3.791137290623e-04 0.0 
3.791137290623e-04 -2.995981052041e-03 0.0 
0.0 0.0 0.0 
-1.695059949605e-03 1.441893807240e-03 0.0 
1.441893807240e-03 1.169317044131e-02 0.0 
0.0 0.0 0.0 
2.147374327120e-03 2.137364944364e-03 0.0 
2.137364944364e-03 -2.533127831539e-04 0.0 
0.0 0.0 0.0 
7.204695105278e-04 2.982794152782e-03 0.0 
2.982794152782e-03 1.607099239574e-03 0.0 
0.0 0.0 0.0 
2.601893108908e-03 1.216595475375e-03 0.0 
1.216595475375e-03 -1.904221723828e-03 0.0 
0.0 0.0 0.0 
-1.338157003631e-03 1.827332240478e-03 0.0 
1.827332240478e-03 1.126363671398e-02 0.0 
0.0 0.0 0.0 
-2.159198535215e-04 -5.565683313893e-04 0.0 
-5.565683313893e-04 7.449095990137e-04 0.0 
0.0 0.0 0.0 
-6.669274691706e-04 2.703023324067e-03 0.0 
2.703023324067e-03 6.768162165371e-03 0.0 
0.0 0.0 0.0 
1.901699684346e-03 1.658698420719e-03 0.0 
1.658698420719e-03 3.665514299029e-03 0.0 
0.0 0.0 0.0 
-1.456115132460e-03 1.706169126619e-03 0.0 
1.706169126619e-03 1.109521049594e-02 0.0 
0.0 0.0 0.0 
-1.525198839985e-03 6.403642468292e-04 0.0 
6.403642468292e-04 1.219008921578e-02 0.0 
0.0 0.0 0.0 
1.850229179813e-03 1.908297312640e-03 0.0 
1.908297312640e-03 -4.082685398457e-03 0.0 
0.0 0.0 0.0 
2.694406168696e-03 -2.403045143679e-04 0.0 
-2.403045143679e-04 -1.372751927664e-03 0.0 
0.0 0.0 0.0 
2.045367870602e-03 -1.616945165636e-03 0.0 
-1.616945165636e-03 -1.411370781436e-03 0.0 
0.0 0.0 0.0 
-9.417098250679e-04 2.732537542871e-03 0.0 
2.732537542871e-03 6.603400363790e-03 0.0 
0.0 0.0 0.0 
-1.432976414844e-03 1.588640139022e-03 0.0 
1.588640139022e-03 1.245104113118e-02 0.0 
0.0 0.0 0.0 
-6.764746672463e-04 2.803121312817e-03 0.0 
2.803121312817e-03 6.753234383415e-03 0.0 
0.0 0.0 0.0 
2.219191810987e-03 1.817013088410e-03 0.0 
1.817013088410e-03 1.088742797097e-03 0.0 
0.0 0.0 0.0 
1.946276730995e-03 2.228910669141e-03 0.0 
2.228910669141e-03 1.313468554315e-03 0.0 
0.0 0.0 0.0 
1.955818025289e-03 1.519548946010e-03 0.0 
1.519548946010e-03 -2.956760546969e-03 0.0 
0.0 0.0 0.0 
1.145441168310e-03 2.660414212940e-03 0.0 
2.660414212940e-03 3.975978792509e-03 0.0 
0.0 0.0 0.0 
-4.508865749249e-04 3.183407509479e-03 0.0 
3.183407509479e-03 1.449017885593e-03 0.0 
0.0 0.0 0.0 
-3.266728283604e-04 2.124198227669e-03 0.0 
2.124198227669e-03 1.378139286082e-02 0.0 
0.0 0.0 0.0 
-3.233104080195e-04 2.488241288072e-03 0.0 
2.488241288072e-03 1.329522902653e-02 0.0 
0.0 0.0 0.0 
2.512915633068e-05 2.774833189217e-03 0.0 
2.774833189217e-03 6.991621748676e-03 0.0 
0.0 0.0 0.0 
2.006457784223e-03 2.396815524882e-03 0.0 
2.396815524882e-03 -9.235196980580e-04 0.0 
0.0 0.0 0.0 
1.017814562736e-03 2.930500141185e-03 0.0 
2.930500141185e-03 5.259330447061e-04 0.0 
0.0 0.0 0.0 
-9.271670405676e-04 2.372356321206e-03 0.0 
2.372356321206e-03 9.741573154098e-03 0.0 
0.0 0.0 0.0 
1.746084091068e-03 2.439672645684e-03 0.0 
2.439672645684e-03 -2.608923896423e-04 0.0 
0.0 0.0 0.0 
2.489005442064e-03 -9.563377929034e-04 0.0 
-9.563377929034e-04 -1.516592251763e-03 0.0 
0.0 0.0 0.0 
-8.477144866184e-04 2.510872220552e-03 0.0 
2.510872220552e-03 8.819318827074e-03 0.0 
0.0 0.0 0.0 
-4.173204463339e-04 7.397320077800e-04 0.0 
7.397320077800e-04 1.445708101096e-02 0.0 
0.0 0.0 0.0 
1.857964167650e-03 2.407430192791e-03 0.0 
2.407430192791e-03 7.238717076292e-04 0.0 
0.0 0.0 0.0 
1.477465184432e-03 2.084845761278e-03 0.0 
2.084845761278e-03 5.012951278097e-03 0.0 
0.0 0.0 0.0 
2.545101795322e-04 3.310461334763e-03 0.0 
3.310461334763e-03 3.816739572202e-04 0.0 
0.0 0.0 0.0 
3.591026164864e-04 1.325315869738e-03 0.0 
1.325315869738e-03 7.523682280921e-03 0.0 
0.0 0.0 0.0 
1.412515748332e-03 2.921892800488e-03 0.0 
2.921892800488e-03 -3.365990591305e-04 0.0 
0.0 0.0 0.0 
-5.338153731430e-04 2.644081217117e-03 0.0 
2.644081217117e-03 8.292866936538e-03 0.0 
0.0 0.0 0.0 
2.476188857973e-03 1.590461829444e-03 0.0 
1.590461829444e-03 -3.777327768125e-03 0.0 
0.0 0.0 0.0 
1.918187195795e-03 7.114596960464e-04 0.0 
7.114596960464e-04 3.463976331920e-03 0.0 
0.0 0.0 0.0 
1.972506833421e-03 2.089579208664e-03 0.0 
2.089579208664e-03 1.915828307639e-03 0.0 
0.0 0.0 0.0 
2.153923298152e-03 -1.304819771364e-03 0.0 
-1.304819771364e-03 -7.292894644856e-04 0.0 
0.0 0.0 0.0 
-1.426825740154e-03 2.113073934599e-03 0.0 
2.113073934599e-03 1.056298659448e-02 0.0 
0.0 0.0 0.0 
-1.885621019696e-04 2.971891428982e-03 0.0 
2.971891428982e-03 1.231513897881e-02 0.0 
0.0 0.0 0.0 
2.210360573774e-03 1.948122973379e-03 0.0 
1.948122973379e-03 4.218640529872e-04 0.0 
0.0 0.0 0.0 
1.901484205385e-03 1.402441830826e-03 0.0 
1.402441830826e-03 3.701587865090e-03 0.0 
0.0 0.0 0.0 
4.270370912276e-04 3.107777585433e-03 0.0 
3.107777585433e-03 4.085540107914e-04 0.0 
0.0 0.0 0.0 
-1.189192751878e-03 5.942603017341e-04 0.0 
5.942603017341e-04 1.294101801885e-02 0.0 
0.0 0.0 0.0 
1.444520927060e-03 3.673418335383e-04 0.0 
3.673418335383e-04 4.327705275589e-03 0.0 
0.0 0.0 0.0 
-1.811981510352e-04 3.018465052008e-03 0.0 
3.018465052008e-03 3.375535235864e-03 0.0 
0.0 0.0 0.0 
-1.310914472912e-03 4.586553300630e-04 0.0 
4.586553300630e-04 1.281088263554e-02 0.0 
0.0 0.0 0.0 
-2.381416324171e-05 3.203207415904e-03 0.0 
3.203207415904e-03 1.110622345818e-02 0.0 
0.0 0.0 0.0 
1.245225992017e-03 5.198556123262e-04 0.0 
5.198556123262e-04 4.926495665219e-03 0.0 
0.0 0.0 0.0 
-2.519332596712e-04 2.835036648646e-03 0.0 
2.835036648646e-03 1.267059046441e-02 0.0 
0.0 0.0 0.0 
-1.436133636702e-03 6.312027282431e-04 0.0 
6.312027282431e-04 1.272307953073e-02 0.0 
0.0 0.0 0.0 
-9.177134295396e-04 2.313835609800e-03 0.0 
2.313835609800e-03 1.134313534748e-02 0.0 
0.0 0.0 0.0 
-7.331166727697e-04 3.040635970562e-03 0.0 
3.040635970562e-03 3.299181479154e-03 0.0 
0.0 0.0 0.0 
-1.545074034925e-03 2.047965861806e-03 0.0 
2.047965861806e-03 1.040539328657e-02 0.0 
0.0 0.0 0.0 
-1.183475650466e-03 2.167665751786e-03 0.0 
2.167665751786e-03 1.017945425173e-02 0.0 
0.0 0.0 0.0 
-1.303398407808e-03 2.156544282622e-03 0.0 
2.156544282622e-03 1.073184112614e-02 0.0 
0.0 0.0 0.0 
4.268075994762e-05 2.814324258165e-03 0.0 
2.814324258165e-03 6.677851021243e-03 0.0 
0.0 0.0 0.0 
8.328766210774e-05 3.156382592237e-03 0.0 
3.156382592237e-03 1.028466701892e-02 0.0 
0.0 0.0 0.0 
-1.478627782935e-03 8.740503677839e-04 0.0 
8.740503677839e-04 1.233877433758e-02 0.0 
0.0 0.0 0.0 
-1.770125548325e-03 1.287208594316e-03 0.0 
1.287208594316e-03 1.149304730790e-02 0.0 
0.0 0.0 0.0 
2.101338346179e-03 1.827940331380e-03 0.0 
1.827940331380e-03 1.373320426648e-03 0.0 
0.0 0.0 0.0 
-3.436466369384e-04 -1.118718581336e-03 0.0 
-1.118718581336e-03 1.530047231703e-03 0.0 
0.0 0.0 0.0 
-1.741530683964e-03 1.701396826155e-03 0.0 
1.701396826155e-03 1.074674292007e-02 0.0 
0.0 0.0 0.0 
3.229883737590e-04 3.097396955403e-03 0.0 
3.097396955403e-03 2.578706379100e-03 0.0 
0.0 0.0 0.0 
-9.701723463577e-04 1.472440525343e-05 0.0 
1.472440525343e-05 1.189272739553e-02 0.0 
0.0 0.0 0.0 
1.686635342341e-03 -1.771642337066e-03 0.0 
-1.771642337066e-03 -6.574240629339e-04 0.0 
0.0 0.0 0.0 
2.064986276742e-03 1.964107094520e-03 0.0 
1.964107094520e-03 7.860765375662e-04 0.0 
0.0 0.0 0.0 
-1.109687740051e-03 1.653354482610e-03 0.0 
1.653354482610e-03 1.267877239101e-02 0.0 
0.0 0.0 0.0 
4.594480357611e-04 2.975797012228e-03 0.0 
2.975797012228e-03 2.593962681913e-03 0.0 
0.0 0.0 0.0 
-1.289864015940e-03 2.107011141019e-03 0.0 
2.107011141019e-03 1.000939582403e-02 0.0 
0.0 0.0 0.0 
1.934388997070e-03 1.417139136566e-03 0.0 
1.417139136566e-03 3.673499106667e-03 0.0 
0.0 0.0 0.0 
1.454599140861e-03 -4.783950196451e-04 0.0 
-4.783950196451e-04 2.891216417413e-03 0.0 
0.0 0.0 0.0 
2.580760000299e-04 2.820649102413e-03 0.0 
2.820649102413e-03 9.133232313263e-03 0.0 
0.0 0.0 0.0 
-1.518464733526e-03 2.210686228902e-03 0.0 
2.210686228902e-03 9.697049826733e-03 0.0 
0.0 0.0 0.0 
2.794921046453e-03 4.056200333515e-04 0.0 
4.056200333515e-04 -1.870657909214e-03 0.0 
0.0 0.0 0.0 
7.440002286214e-04 -1.419242806653e-03 0.0 
-1.419242806653e-03 1.674544976788e-03 0.0 
0.0 0.0 0.0 
-8.267081595598e-04 2.823265281484e-03 0.0 
2.823265281484e-03 4.938857671387e-03 0.0 
0.0 0.0 0.0 
-2.165005599218e-04 3.063192526543e-03 0.0 
3.063192526543e-03 3.370720953780e-03 0.0 
0.0 0.0 0.0 
-9.603001889414e-04 2.149967139450e-03 0.0 
2.149967139450e-03 1.229459342415e-02 0.0 
0.0 0.0 0.0 
-6.753756295590e-04 2.610599997164e-03 0.0 
2.610599997164e-03 9.028163379158e-03 0.0 
0.0 0.0 0.0 
-1.209415466469e-03 2.521291799533e-03 0.0 
2.521291799533e-03 8.194667154680e-03 0.0 
0.0 0.0 0.0 
-1.385647558838e-03 2.018650082365e-03 0.0 
2.018650082365e-03 9.858343081497e-03 0.0 
0.0 0.0 0.0 
3.780614792974e-04 2.024539257946e-03 0.0 
2.024539257946e-03 7.972651177056e-03 0.0 
0.0 0.0 0.0 
6.405887341729e-04 1.940253239629e-03 0.0 
1.940253239629e-03 7.406858486323e-03 0.0 
0.0 0.0 0.0 
-8.361226483449e-04 2.079362871175e-03 0.0 
2.079362871175e-03 1.230848648201e-02 0.0 
0.0 0.0 0.0 
-1.371649551007e-03 1.503457956342e-03 0.0 
1.503457956342e-03 1.278172451609e-02 0.0 
0.0 0.0 0.0 
1.394323284002e-03 -6.502989978066e-04 0.0 
-6.502989978066e-04 2.513911498998e-03 0.0 
0.0 0.0 0.0 
-2.863385014559e-04 2.867558439736e-03 0.0 
2.867558439736e-03 6.132491401924e-03 0.0 
0.0 0.0 0.0 
2.287029063608e-03 1.779324457749e-03 0.0 
1.779324457749e-03 -8.275204890361e-04 0.0 
0.0 0.0 0.0 
2.350871006239e-03 1.580304064389e-03 0.0 
1.580304064389e-03 -1.692665145522e-04 0.0 
0.0 0.0 0.0 
-4.460849941155e-04 2.710299571225e-03 0.0 
2.710299571225e-03 8.282625879498e-03 0.0 
0.0 0.0 0.0 
1.908976764322e-03 6.484214449415e-04 0.0 
6.484214449415e-04 3.299540381598e-03 0.0 
0.0 0.0 0.0 
3.397582590186e-04 -7.863458391067e-04 0.0 
-7.863458391067e-04 3.109296173337e-03 0.0 
0.0 0.0 0.0 
-9.117607600991e-04 1.813077631225e-03 0.0 
1.813077631225e-03 1.288255515245e-02 0.0 
0.0 0.0 0.0 
2.652317647222e-03 -3.970514883800e-04 0.0 
-3.970514883800e-04 -1.744960875269e-03 0.0 
0.0 0.0 0.0 
2.941097554607e-04 2.819921013434e-03 0.0 
2.819921013434e-03 5.839208823355e-03 0.0 
0.0 0.0 0.0 
-1.033825487342e-03 2.343803591419e-03 0.0 
2.343803591419e-03 9.535359523495e-03 0.0 
0.0 0.0 0.0 
1.306104711503e-04 2.861382302242e-03 0.0 
2.861382302242e-03 5.539756551525e-03 0.0 
0.0 0.0 0.0 
-3.030158588544e-04 2.682640178540e-03 0.0 
2.682640178540e-03 1.299423063359e-02 0.0 
0.0 0.0 0.0 
-3.053343558903e-04 2.315255106350e-03 0.0 
2.315255106350e-03 1.353762733638e-02 0.0 
0.0 0.0 0.0 
-6.173237913079e-04 2.174239364556e-03 0.0 
2.174239364556e-03 1.325117256054e-02 0.0 
0.0 0.0 0.0 
1.364462495006e-03 -4.211158462356e-04 0.0 
-4.211158462356e-04 3.028228203751e-03 0.0 
0.0 0.0 0.0 
-9.945528481888e-04 1.320567290101e-03 0.0 
1.320567290101e-03 1.336204180748e-02 0.0 
0.0 0.0 0.0 
-1.408865756900e-04 3.185760961419e-03 0.0 
3.185760961419e-03 2.456256052655e-03 0.0 
0.0 0.0 0.0 
2.352218571009e-03 1.454944027097e-03 0.0 
1.454944027097e-03 4.967372605909e-04 0.0 
0.0 0.0 0.0 
2.414020447913e-03 1.399642657709e-03 0.0 
1.399642657709e-03 -2.635563725826e-03 0.0 
0.0 0.0 0.0 
-8.475960490929e-04 2.708014526570e-03 0.0 
2.708014526570e-03 7.568523361016e-03 0.0 
0.0 0.0 0.0 
-1.447914977344e-03 3.412426664900e-04 0.0 
3.412426664900e-04 1.199643389427e-02 0.0 
0.0 0.0 0.0 
-1.274457336719e-03 5.966208432393e-04 0.0 
5.966208432393e-04 1.272598361776e-02 0.0 
0.0 0.0 0.0 
6.526507825260e-04 1.324638781205e-03 0.0 
1.324638781205e-03 6.963181390133e-03 0.0 
0.0 0.0 0.0 
-6.650172437900e-04 2.327755376772e-03 0.0 
2.327755376772e-03 1.158346135551e-02 0.0 
0.0 0.0 0.0 
-1.476276116377e-03 1.549778185219e-03 0.0 
1.549778185219e-03 1.153081423021e-02 0.0 
0.0 0.0 0.0 
-1.062505526173e-03 2.217272930486e-03 0.0 
2.217272930486e-03 1.037655806380e-02 0.0 
0.0 0.0 0.0 
2.679772271288e-03 1.424541863793e-03 0.0 
1.424541863793e-03 -3.118981917493e-03 0.0 
0.0 0.0 0.0 
-6.893715717671e-04 -1.196536643266e-03 0.0 
-1.196536643266e-03 6.397681939876e-04 0.0 
0.0 0.0 0.0 
1.413984050158e-03 2.565348438324e-03 0.0 
2.565348438324e-03 3.098702066204e-03 0.0 
0.0 0.0 0.0 
3.992154732504e-04 2.761435711879e-03 0.0 
2.761435711879e-03 6.170526276068e-03 0.0 
0.0 0.0 0.0 
1.280802715207e-03 2.470492866982e-03 0.0 
2.470492866982e-03 4.002412948160e-03 0.0 
0.0 0.0 0.0 
-9.491217180201e-04 3.177151058892e-03 0.0 
3.177151058892e-03 5.628715543473e-04 0.0 
0.0 0.0 0.0 
-9.234513939711e-04 5.766590884586e-05 0.0 
5.766590884586e-05 1.224152486443e-02 0.0 
0.0 0.0 0.0 
-3.078280393572e-04 -1.170013541645e-03 0.0 
-1.170013541645e-03 1.328577043470e-03 0.0 
0.0 0.0 0.0 
1.118835865913e-03 2.995210198579e-03 0.0 
2.995210198579e-03 7.961727708394e-04 0.0 
0.0 0.0 0.0 
0.0 1.380809473044e-03 0.0 
1.380809473044e-03 7.583023656198e-03 0.0 
0.0 0.0 0.0 
1.559270561700e-03 1.705847789416e-03 0.0 
1.705847789416e-03 4.961994631346e-03 0.0 
0.0 0.0 0.0 
-1.606493922262e-03 1.068869782977e-03 0.0 
1.068869782977e-03 1.151912350562e-02 0.0 
0.0 0.0 0.0 
2.974895075873e-04 -3.392895349485e-05 0.0 
-3.392895349485e-05 9.598848319781e-04 0.0 
0.0 0.0 0.0 
-5.775533559993e-05 2.822251975282e-03 0.0 
2.822251975282e-03 6.677235975404e-03 0.0 
0.0 0.0 0.0 
1.553012048106e-03 2.313745981411e-03 0.0 
2.313745981411e-03 3.133419573430e-03 0.0 
0.0 0.0 0.0 
-1.396284297914e-03 1.985794776346e-03 0.0 
1.985794776346e-03 1.124374777160e-02 0.0 
0.0 0.0 0.0 
-1.192791687437e-04 3.089076181311e-03 0.0 
3.089076181311e-03 1.191739604014e-02 0.0 
0.0 0.0 0.0 
-1.489662729101e-03 1.789976750082e-03 0.0 
1.789976750082e-03 1.043432417387e-02 0.0 
0.0 0.0 0.0 
-8.803701849154e-04 2.489205148634e-03 0.0 
2.489205148634e-03 9.726365731099e-03 0.0 
0.0 0.0 0.0 
4.825620363043e-04 -7.784021124570e-04 0.0 
-7.784021124570e-04 3.107307825287e-03 0.0 
0.0 0.0 0.0 
-1.025761163932e-03 1.595710432852e-03 0.0 
1.595710432852e-03 1.301084583691e-02 0.0 
0.0 0.0 0.0 
1.407179464576e-03 -2.699061225580e-04 0.0 
-2.699061225580e-04 3.386250607159e-03 0.0 
0.0 0.0 0.0 
-9.726203543947e-05 3.166082917588e-03 0.0 
3.166082917588e-03 1.152364766187e-02 0.0 
0.0 0.0 0.0 
0.0 2.621956767564e-03 0.0 
2.621956767564e-03 1.282910897769e-02 0.0 
0.0 0.0 0.0 
0.0 1.923729786998e-03 0.0 
1.923729786998e-03 1.390440133937e-02 0.0 
0.0 0.0 0.0 
0.0 2.273921818913e-03 0.0 
2.273921818913e-03 1.343291904368e-02 0.0 
0.0 0.0 0.0 
-1.154695819529e-03 2.067132275622e-03 0.0 
2.067132275622e-03 1.094658160234e-02 0.0 
0.0 0.0 0.0 
-1.185886584548e-03 1.648690822027e-03 0.0 
1.648690822027e-03 1.300461828425e-02 0.0 
0.0 0.0 0.0 
-6.528926607049e-04 2.291985315820e-03 0.0 
2.291985315820e-03 1.206548161277e-02 0.0 
0.0 0.0 0.0 
6.243887445634e-05 2.908423845058e-03 0.0 
2.908423845058e-03 5.534275548780e-03 0.0 
0.0 0.0 0.0 
-3.048743592047e-04 2.844743908941e-03 0.0 
2.844743908941e-03 6.135440008895e-03 0.0 
0.0 0.0 0.0 
2.067919654183e-04 -7.337098390485e-04 0.0 
-7.337098390485e-04 3.061996294690e-03 0.0 
0.0 0.0 0.0 
-1.066556627311e-03 1.872161855275e-03 0.0 
1.872161855275e-03 1.287465934091e-02 0.0 
0.0 0.0 0.0 
3.360409208564e-05 3.197995182331e-03 0.0 
3.197995182331e-03 1.068667338964e-02 0.0 
0.0 0.0 0.0 
-9.152684766403e-04 1.531788757041e-03 0.0 
1.531788757041e-03 1.330816107528e-02 0.0 
0.0 0.0 0.0 
1.713570095833e-03 1.666514380486e-03 0.0 
1.666514380486e-03 4.361653789315e-03 0.0 
0.0 0.0 0.0 
-1.078925504002e-03 1.576534640709e-03 0.0 
1.576534640709e-03 1.330281636836e-02 0.0 
0.0 0.0 0.0 
4.755563707188e-04 2.559937049254e-03 0.0 
2.559937049254e-03 7.705096719116e-03 0.0 
0.0 0.0 0.0 
5.384164766824e-04 2.822999406758e-03 0.0 
2.822999406758e-03 5.316749707524e-03 0.0 
0.0 0.0 0.0 
-8.432883378549e-04 2.589067706825e-03 0.0 
2.589067706825e-03 7.580968134659e-03 0.0 
0.0 0.0 0.0 
1.068088133423e-03 3.177805138398e-03 0.0 
3.177805138398e-03 -7.305061369618e-04 0.0 
0.0 0.0 0.0 
-2.780113563469e-04 1.261127625666e-03 0.0 
1.261127625666e-03 1.421537359397e-02 0.0 
0.0 0.0 0.0 
2.741339852674e-04 2.948622886986e-03 0.0 
2.948622886986e-03 4.669637058850e-03 0.0 
0.0 0.0 0.0 
1.141282057953e-04 2.710660059979e-03 0.0 
2.710660059979e-03 9.717054639483e-03 0.0 
0.0 0.0 0.0 
3.107945938567e-04 -7.453348291629e-04 0.0 
-7.453348291629e-04 3.063154733112e-03 0.0 
0.0 0.0 0.0 
1.169711714673e-03 -2.146175731835e-03 0.0 
-2.146175731835e-03 -4.385209137798e-04 0.0 
0.0 0.0 0.0 
3.662939327507e-04 1.189236464909e-03 0.0 
1.189236464909e-03 6.914026941816e-03 0.0 
0.0 0.0 0.0 
8.719854615260e-04 3.005671031339e-03 0.0 
3.005671031339e-03 1.836276477076e-03 0.0 
0.0 0.0 0.0 
0.0 2.768840467512e-03 0.0 
2.768840467512e-03 1.249443010545e-02 0.0 
0.0 0.0 0.0 
-3.677147320794e-04 1.997694500642e-03 0.0 
1.997694500642e-03 1.349275826391e-02 0.0 
0.0 0.0 0.0 
-4.491408647058e-04 2.622682427570e-03 0.0 
2.622682427570e-03 8.567827995952e-03 0.0 
0.0 0.0 0.0 
-6.508438200776e-04 -5.882267881974e-04 0.0 
-5.882267881974e-04 6.729669992154e-04 0.0 
0.0 0.0 0.0 
0.0 2.962230133794e-03 0.0 
2.962230133794e-03 1.172723068021e-02 0.0 
0.0 0.0 0.0 
3.696561347628e-04 1.583163950530e-03 0.0 
1.583163950530e-03 7.178175077578e-03 0.0 
0.0 0.0 0.0 
1.670476092937e-03 -1.793286919692e-03 0.0 
-1.793286919692e-03 -4.945402348314e-04 0.0 
0.0 0.0 0.0 
1.745880985853e-03 1.455079484231e-03 0.0 
1.455079484231e-03 4.318510874623e-03 0.0 
0.0 0.0 0.0 
2.768782644231e-04 2.641956665366e-03 0.0 
2.641956665366e-03 8.793454646464e-03 0.0 
0.0 0.0 0.0 
-2.441742730115e-04 -7.228194463839e-05 0.0 
-7.228194463839e-05 1.995196179174e-04 0.0 
0.0 0.0 0.0 
4.299090010216e-04 2.889500788054e-03 0.0 
2.889500788054e-03 4.975376033842e-03 0.0 
0.0 0.0 0.0 
-6.522499174029e-04 2.513532543949e-03 0.0 
2.513532543949e-03 9.296977049713e-03 0.0 
0.0 0.0 0.0 
-2.197282874233e-04 2.712763850982e-03 0.0 
2.712763850982e-03 7.794739666935e-03 0.0 
0.0 0.0 0.0 
-7.448577846818e-04 2.519592504733e-03 0.0 
2.519592504733e-03 9.041259502698e-03 0.0 
0.0 0.0 0.0 
7.337037265975e-04 3.237890655613e-03 0.0 
3.237890655613e-03 4.812736631212e-04 0.0 
0.0 0.0 0.0 
0.0 3.033206080902e-03 0.0 
3.033206080902e-03 1.089562078650e-02 0.0 
0.0 0.0 0.0 
2.313390227127e-03 1.382915897501e-03 0.0 
1.382915897501e-03 1.156419601834e-03 0.0 
0.0 0.0 0.0 
1.880273701605e-03 3.832366256891e-04 0.0 
3.832366256891e-04 -3.827765354953e-03 0.0 
0.0 0.0 0.0 
2.161265961338e-04 1.770868387072e-04 0.0 
1.770868387072e-04 7.032203369889e-03 0.0 
0.0 0.0 0.0 
-2.510873106438e-04 -4.636070871431e-04 0.0 
-4.636070871431e-04 3.839812853381e-04 0.0 
0.0 0.0 0.0 
-1.225443945939e-03 2.247097897803e-03 0.0 
2.247097897803e-03 9.172696339410e-03 0.0 
0.0 0.0 0.0 
9.040981490978e-04 -2.349678463055e-03 0.0 
-2.349678463055e-03 -1.962562152559e-03 0.0 
0.0 0.0 0.0 
-1.610141194257e-03 1.393081692305e-03 0.0 
1.393081692305e-03 1.078522595318e-02 0.0 
0.0 0.0 0.0 
3.739371035407e-04 1.765435708514e-03 0.0 
1.765435708514e-03 7.775361802360e-03 0.0 
0.0 0.0 0.0 
0.0 2.962213444822e-03 0.0 
2.962213444822e-03 1.006909364543e-02 0.0 
0.0 0.0 0.0 
-1.281107822559e-03 1.989306706042e-03 0.0 
1.989306706042e-03 1.075495160166e-02 0.0 
0.0 0.0 0.0 
-6.301410580778e-06 -2.380014730430e-03 0.0 
-2.380014730430e-03 -8.571786939449e-04 0.0 
0.0 0.0 0.0 
1.606148006697e-03 8.305263124201e-04 0.0 
8.305263124201e-04 -4.492176708810e-03 0.0 
0.0 0.0 0.0 
-7.106267613166e-05 -2.854220961211e-03 0.0 
-2.854220961211e-03 -9.917018714083e-04 0.0 
0.0 0.0 0.0 
5.869444830204e-04 1.038714327445e-04 0.0 
1.038714327445e-04 5.637981529055e-03 0.0 
0.0 0.0 0.0 
-1.441060013494e-03 4.212884668166e-04 0.0 
4.212884668166e-04 1.189765586859e-02 0.0 
0.0 0.0 0.0 
-1.744643057077e-03 1.136810496168e-03 0.0 
1.136810496168e-03 1.179674865352e-02 0.0 
0.0 0.0 0.0 
0.0 2.760812020543e-03 0.0 
2.760812020543e-03 9.311856306321e-03 0.0 
0.0 0.0 0.0 
-1.365100876899e-03 3.102128959289e-04 0.0 
3.102128959289e-04 1.192916192567e-02 0.0 
0.0 0.0 0.0 
-2.918218715762e-04 1.916584357026e-03 0.0 
1.916584357026e-03 1.398528152509e-02 0.0 
0.0 0.0 0.0 
6.149390667849e-04 2.550066329969e-03 0.0 
2.550066329969e-03 7.380960316525e-03 0.0 
0.0 0.0 0.0 
-1.237840474613e-03 4.389518265366e-04 0.0 
4.389518265366e-04 1.259147244370e-02 0.0 
0.0 0.0 0.0 
-3.234615243511e-04 2.980869755411e-03 0.0 
2.980869755411e-03 4.207045775909e-03 0.0 
0.0 0.0 0.0 
1.758341496886e-03 1.674903386914e-03 0.0 
1.674903386914e-03 4.287759621627e-03 0.0 
0.0 0.0 0.0 
1.775862137031e-03 2.282349619814e-03 0.0 
2.282349619814e-03 -1.875113597744e-03 0.0 
0.0 0.0 0.0 
0.0 2.431450431660e-03 0.0 
2.431450431660e-03 8.642675739880e-03 0.0 
0.0 0.0 0.0 
0.0 2.456849536087e-03 0.0 
2.456849536087e-03 1.314781202658e-02 0.0 
0.0 0.0 0.0 
0.0 2.095505292635e-03 0.0 
2.095505292635e-03 1.369569647381e-02 0.0 
0.0 0.0 0.0 
1.174371024181e-03 -4.084288399852e-04 0.0 
-4.084288399852e-04 3.408081616916e-03 0.0 
0.0 0.0 0.0 
1.027994317060e-04 -6.524807514912e-04 0.0 
-6.524807514912e-04 2.992224421526e-03 0.0 
0.0 0.0 0.0 
6.659845187871e-04 2.735909053811e-03 0.0 
2.735909053811e-03 5.329348729987e-03 0.0 
0.0 0.0 0.0 
1.209764082469e-03 -2.643918361475e-04 0.0 
-2.643918361475e-04 3.755328075266e-03 0.0 
0.0 0.0 0.0 
0.0 2.051286490573e-03 0.0 
2.051286490573e-03 8.117353558691e-03 0.0 
0.0 0.0 0.0 
1.395838743920e-03 2.652730263923e-03 0.0 
2.652730263923e-03 8.456930508820e-04 0.0 
0.0 0.0 0.0 
2.470790772636e-03 -7.049006272924e-04 0.0 
-7.049006272924e-04 -7.642587599431e-04 0.0 
0.0 0.0 0.0 
2.188782529268e-03 -1.002315714982e-03 0.0 
-1.002315714982e-03 -1.242493633595e-04 0.0 
0.0 0.0 0.0 
-1.163607894088e-03 4.510048280831e-04 0.0 
4.510048280831e-04 1.281127651682e-02 0.0 
0.0 0.0 0.0 
2.922634317730e-04 1.093723275799e-03 0.0 
1.093723275799e-03 7.442486509604e-03 0.0 
0.0 0.0 0.0 
-1.002219058712e-03 -2.484297179033e-03 0.0 
-2.484297179033e-03 -2.604376695007e-04 0.0 
0.0 0.0 0.0 
0.0 1.592084584106e-03 0.0 
1.592084584106e-03 7.699745362624e-03 0.0 
0.0 0.0 0.0 
1.817110151763e-03 -1.456732446719e-03 0.0 
-1.456732446719e-03 -1.762712649933e-05 0.0 
0.0 0.0 0.0 
0.0 2.888540450635e-03 0.0 
2.888540450635e-03 1.212725558763e-02 0.0 
0.0 0.0 0.0 
-7.916414871630e-04 2.347141598839e-03 0.0 
2.347141598839e-03 1.205707863676e-02 0.0 
0.0 0.0 0.0 
4.404637114643e-04 -6.665335421420e-05 0.0 
-6.665335421420e-05 -2.652933258962e-05 0.0 
0.0 0.0 0.0 
7.966805621029e-04 2.802677545462e-03 0.0 
2.802677545462e-03 4.445141724527e-03 0.0 
0.0 0.0 0.0 
-1.033459235953e-03 1.299309073335e-03 0.0 
1.299309073335e-03 1.360447682369e-02 0.0 
0.0 0.0 0.0 
0.0 3.019048196343e-03 0.0 
3.019048196343e-03 1.131673227952e-02 0.0 
0.0 0.0 0.0 
-1.178171071422e-03 2.199417260892e-03 0.0 
2.199417260892e-03 1.092927833841e-02 0.0 
0.0 0.0 0.0 
7.876930623225e-04 2.467314690715e-03 0.0 
2.467314690715e-03 7.117226423733e-03 0.0 
0.0 0.0 0.0 
5.514859732181e-04 3.251916656248e-03 0.0 
3.251916656248e-03 -8.178652778738e-04 0.0 
0.0 0.0 0.0 
7.062561497917e-04 1.384092369426e-03 0.0 
1.384092369426e-03 6.525262617758e-03 0.0 
0.0 0.0 0.0 
1.513315215941e-03 -1.487402779492e-03 0.0 
-1.487402779492e-03 6.259136003501e-04 0.0 
0.0 0.0 0.0 
1.791092635804e-03 -1.417406735010e-03 0.0 
-1.417406735010e-03 -6.704446853101e-05 0.0 
0.0 0.0 0.0 
-1.592601767273e-03 -2.489890582989e-03 0.0 
-2.489890582989e-03 -3.628526505459e-04 0.0 
0.0 0.0 0.0 
0.0 3.013167970634e-03 0.0 
3.013167970634e-03 1.047861748692e-02 0.0 
0.0 0.0 0.0 
2.092663445103e-03 2.047308178354e-03 0.0 
2.047308178354e-03 -1.444665795341e-03 0.0 
0.0 0.0 0.0 
1.081536053751e-03 6.075265267345e-04 0.0 
6.075265267345e-04 5.271718387541e-03 0.0 
0.0 0.0 0.0 
-1.330109975220e-03 3.128206634057e-04 0.0 
3.128206634057e-04 1.242182339570e-02 0.0 
0.0 0.0 0.0 
3.360656456741e-04 -1.774235452327e-03 0.0 
-1.774235452327e-03 1.125685220768e-03 0.0 
0.0 0.0 0.0 
2.097603706827e-03 -1.257439369953e-03 0.0 
-1.257439369953e-03 -6.826265899728e-04 0.0 
0.0 0.0 0.0 
-1.050042833108e-03 2.347674056732e-03 0.0 
2.347674056732e-03 1.035886725233e-02 0.0 
0.0 0.0 0.0 
0.0 2.603677835408e-03 0.0 
2.603677835408e-03 8.967571918647e-03 0.0 
0.0 0.0 0.0 
1.348572569151e-04 -5.480416688986e-04 0.0 
-5.480416688986e-04 3.229348268554e-03 0.0 
0.0 0.0 0.0 
1.206633609099e-03 -1.035390419225e-05 0.0 
-1.035390419225e-05 4.108163199386e-03 0.0 
0.0 0.0 0.0 
3.420012979356e-04 2.749839004218e-03 0.0 
2.749839004218e-03 6.521249369356e-03 0.0 
0.0 0.0 0.0 
1.760318480884e-03 1.759434475538e-04 0.0 
1.759434475538e-04 3.142520230638e-03 0.0 
0.0 0.0 0.0 
2.368474572665e-03 -6.660433232262e-04 0.0 
-6.660433232262e-04 -4.878846269289e-04 0.0 
0.0 0.0 0.0 
1.301595955687e-03 -2.075082483255e-04 0.0 
-2.075082483255e-04 3.559966093242e-03 0.0 
0.0 0.0 0.0 
1.363350041399e-04 2.758625487277e-03 0.0 
2.758625487277e-03 6.993290084258e-03 0.0 
0.0 0.0 0.0 
9.313862256333e-06 2.621626242017e-03 0.0 
2.621626242017e-03 8.796828127798e-03 0.0 
0.0 0.0 0.0 
1.590237718573e-03 1.708990089352e-03 0.0 
1.708990089352e-03 4.904631210713e-03 0.0 
0.0 0.0 0.0 
6.058856359032e-04 2.750004108278e-03 0.0 
2.750004108278e-03 5.691918974731e-03 0.0 
0.0 0.0 0.0 
5.858690590128e-04 -9.166426988093e-04 0.0 
-9.166426988093e-04 2.794328145123e-03 0.0 
0.0 0.0 0.0 
1.085595800149e-03 2.766104999518e-03 0.0 
2.766104999518e-03 1.869641554004e-03 0.0 
0.0 0.0 0.0 
1.690413619138e-04 -6.785753632595e-04 0.0 
-6.785753632595e-04 2.995767302942e-03 0.0 
0.0 0.0 0.0 
6.714189665948e-04 2.479315693452e-03 0.0 
2.479315693452e-03 7.392954236803e-03 0.0 
0.0 0.0 0.0 
2.079431678503e-03 1.380760836819e-03 0.0 
1.380760836819e-03 3.033291476379e-03 0.0 
0.0 0.0 0.0 
3.613342263227e-04 1.537257449717e-03 0.0 
1.537257449717e-03 7.641884191800e-03 0.0 
0.0 0.0 0.0 
-9.575120496971e-04 1.509648588138e-03 0.0 
1.509648588138e-03 1.357734074851e-02 0.0 
0.0 0.0 0.0 
1.714030507347e-04 -1.651083682570e-03 0.0 
-1.651083682570e-03 1.355670389014e-03 0.0 
0.0 0.0 0.0 
0.0 1.814204476211e-03 0.0 
1.814204476211e-03 7.855638587488e-03 0.0 
0.0 0.0 0.0 
7.068522967673e-04 1.552492309556e-03 0.0 
1.552492309556e-03 7.100602587401e-03 0.0 
0.0 0.0 0.0 
1.446652899592e-03 2.453555556571e-03 0.0 
2.453555556571e-03 3.600085604240e-03 0.0 
0.0 0.0 0.0 
-9.431242940676e-04 -1.609619882840e-03 0.0 
-1.609619882840e-03 4.644671624774e-04 0.0 
0.0 0.0 0.0 
3.167643548847e-04 9.129406650016e-04 0.0 
9.129406650016e-04 7.395446708587e-03 0.0 
0.0 0.0 0.0 
-9.703760558413e-04 1.793600245397e-03 0.0 
1.793600245397e-03 1.320886041626e-02 0.0 
0.0 0.0 0.0 
1.333589690873e-03 -1.793528191190e-03 0.0 
-1.793528191190e-03 2.409291134138e-04 0.0 
0.0 0.0 0.0 
0.0 1.166101070750e-03 0.0 
1.166101070750e-03 7.462633852180e-03 0.0 
0.0 0.0 0.0 
1.116175783929e-03 -2.076363258509e-04 0.0 
-2.076363258509e-04 3.920321550231e-03 0.0 
0.0 0.0 0.0 
-5.137988679370e-04 2.751674053222e-03 0.0 
2.751674053222e-03 6.973717298814e-03 0.0 
0.0 0.0 0.0 
-1.557574253019e-03 1.256296039000e-03 0.0 
1.256296039000e-03 1.171841767675e-02 0.0 
0.0 0.0 0.0 
2.036929360400e-03 1.363190476816e-03 0.0 
1.363190476816e-03 3.073934863947e-03 0.0 
0.0 0.0 0.0 
1.199528660947e-03 -6.245343533736e-04 0.0 
-6.245343533736e-04 2.913701667357e-03 0.0 
0.0 0.0 0.0 
1.777677238596e-03 4.844636717130e-04 0.0 
4.844636717130e-04 3.501846787103e-03 0.0 
0.0 0.0 0.0 
-1.519418733202e-03 1.351435539750e-03 0.0 
1.351435539750e-03 1.255220428376e-02 0.0 
0.0 0.0 0.0 
-9.411741301315e-04 2.485772474650e-03 0.0 
2.485772474650e-03 8.603553866670e-03 0.0 
0.0 0.0 0.0 
1.396970673067e-03 1.927492478602e-03 0.0 
1.927492478602e-03 5.538403034641e-03 0.0 
0.0 0.0 0.0 
-9.284234708350e-04 5.835259114705e-05 0.0 
5.835259114705e-05 1.257255057882e-02 0.0 
0.0 0.0 0.0 
4.160244364506e-04 -9.327703346224e-04 0.0 
-9.327703346224e-04 2.797707267348e-03 0.0 
0.0 0.0 0.0 
1.767341905346e-03 1.466200165652e-03 0.0 
1.466200165652e-03 4.304726267629e-03 0.0 
0.0 0.0 0.0 
1.119311817302e-03 -1.706702998465e-03 0.0 
-1.706702998465e-03 6.553924904027e-04 0.0 
0.0 0.0 0.0 
4.867677166742e-04 -3.078937345525e-04 0.0 
-3.078937345525e-04 4.526284014693e-03 0.0 
0.0 0.0 0.0 
-1.371044758304e-04 -1.720859193298e-04 0.0 
-1.720859193298e-04 9.466544513415e-05 0.0 
0.0 0.0 0.0 
8.133772796004e-04 2.839346036540e-03 0.0 
2.839346036540e-03 2.841561500793e-03 0.0 
0.0 0.0 0.0 
1.376389735736e-03 -1.788155714464e-03 0.0 
-1.788155714464e-03 3.160646092404e-05 0.0 
0.0 0.0 0.0 
3.939791560899e-04 -6.483621007324e-04 0.0 
-6.483621007324e-04 3.397909509526e-03 0.0 
0.0 0.0 0.0 
1.178245218061e-03 2.565683452288e-03 0.0 
2.565683452288e-03 4.438423699673e-03 0.0 
0.0 0.0 0.0 
1.325461352056e-03 -7.627900957718e-05 0.0 
-7.627900957718e-05 3.899830293849e-03 0.0 
0.0 0.0 0.0 
-1.261328917751e-03 3.260453663188e-04 0.0 
3.260453663188e-04 1.265768561027e-02 0.0 
0.0 0.0 0.0 
9.052239578211e-04 -2.006906692495e-03 0.0 
-2.006906692495e-03 2.766776851506e-04 0.0 
0.0 0.0 0.0 
0.0 9.874886359119e-04 0.0 
9.874886359119e-04 7.422169111778e-03 0.0 
0.0 0.0 0.0 
-5.848075387279e-04 2.587785268624e-03 0.0 
2.587785268624e-03 9.286489862470e-03 0.0 
0.0 0.0 0.0 
3.158603558744e-04 -5.279616190336e-04 0.0 
-5.279616190336e-04 3.668752201857e-03 0.0 
0.0 0.0 0.0 
-3.613316182814e-04 2.672467603205e-03 0.0 
2.672467603205e-03 8.560442995553e-03 0.0 
0.0 0.0 0.0 
2.726126573669e-04 -6.513454564111e-04 0.0 
-6.513454564111e-04 3.399025777745e-03 0.0 
0.0 0.0 0.0 
-5.570658278830e-04 -8.787548350913e-05 0.0 
-8.787548350913e-05 3.347132108751e-04 0.0 
0.0 0.0 0.0 
-1.672201349217e-03 1.298775342505e-03 0.0 
1.298775342505e-03 1.201688079474e-02 0.0 
0.0 0.0 0.0 
-2.845393672934e-05 -1.899703477250e-04 0.0 
-1.899703477250e-04 3.199350690644e-03 0.0 
0.0 0.0 0.0 
4.443878510991e-04 -1.538670519230e-05 0.0 
-1.538670519230e-05 -8.819460546172e-05 0.0 
0.0 0.0 0.0 
1.990103105152e-04 -4.889587476858e-04 0.0 
-4.889587476858e-04 3.569047102812e-03 0.0 
0.0 0.0 0.0 
1.207699028080e-03 9.944818065128e-05 0.0 
9.944818065128e-05 4.431057634115e-03 0.0 
0.0 0.0 0.0 
-5.733674723861e-04 3.963826534142e-04 0.0 
3.963826534142e-04 1.393591104476e-02 0.0 
0.0 0.0 0.0 
1.923142297569e-03 3.195988148814e-04 0.0 
3.195988148814e-04 2.878733814379e-03 0.0 
0.0 0.0 0.0 
1.938408591620e-03 4.070141559519e-04 0.0 
4.070141559519e-04 3.101482217641e-03 0.0 
0.0 0.0 0.0 
-1.777307828952e-03 9.549143680308e-04 0.0 
9.549143680308e-04 1.155502134153e-02 0.0 
0.0 0.0 0.0 
-1.358209231766e-03 1.694482245647e-04 0.0 
1.694482245647e-04 1.162583397155e-02 0.0 
0.0 0.0 0.0 
-3.146366610824e-04 1.548259863833e-03 0.0 
1.548259863833e-03 1.402015569345e-02 0.0 
0.0 0.0 0.0 
-1.196953580022e-04 2.726758116245e-03 0.0 
2.726758116245e-03 7.792493242156e-03 0.0 
0.0 0.0 0.0 
7.103465706604e-04 -3.479830742786e-05 0.0 
-3.479830742786e-05 -1.778140202707e-04 0.0 
0.0 0.0 0.0 
-2.643104841269e-04 -8.031278560634e-04 0.0 
-8.031278560634e-04 1.264583951210e-03 0.0 
0.0 0.0 0.0 
-8.525295057011e-04 -9.692237254485e-04 0.0 
-9.692237254485e-04 6.348516580998e-04 0.0 
0.0 0.0 0.0 
2.222208366520e-05 -1.362366410866e-03 0.0 
-1.362366410866e-03 1.678253568795e-03 0.0 
0.0 0.0 0.0 
-3.247129789785e-04 2.624407704669e-03 0.0 
2.624407704669e-03 1.049582287779e-02 0.0 
0.0 0.0 0.0 
-6.586854727744e-04 3.601638356900e-04 0.0 
3.601638356900e-04 1.394055186649e-02 0.0 
0.0 0.0 0.0 
6.726089435265e-04 6.589479855796e-05 0.0 
6.589479855796e-05 5.422577341258e-03 0.0 
0.0 0.0 0.0 
4.756031328768e-05 -9.780316997473e-04 0.0 
-9.780316997473e-04 2.204069176710e-03 0.0 
0.0 0.0 0.0 
3.609201491248e-04 -3.457531345464e-04 0.0 
-3.457531345464e-04 4.533194792553e-03 0.0 
0.0 0.0 0.0 
1.029206425784e-03 6.563791964648e-04 0.0 
6.563791964648e-04 5.526403822009e-03 0.0 
0.0 0.0 0.0 
2.569844606922e-03 3.648429301585e-04 0.0 
3.648429301585e-04 -3.575722702121e-03 0.0 
0.0 0.0 0.0 
-2.936166936851e-05 -1.624822735437e-04 0.0 
-1.624822735437e-04 3.198856378948e-03 0.0 
0.0 0.0 0.0 
-3.916689086969e-05 -9.825391036534e-05 0.0 
-9.825391036534e-05 2.660814303996e-03 0.0 
0.0 0.0 0.0 
2.524679477729e-04 7.286643427467e-04 0.0 
7.286643427467e-04 7.356714213490e-03 0.0 
0.0 0.0 0.0 
0.0 7.947041470395e-04 0.0 
7.947041470395e-04 7.368773730724e-03 0.0 
0.0 0.0 0.0 
-1.243649845795e-05 -1.556287505866e-04 0.0 
-1.556287505866e-04 3.535539681371e-03 0.0 
0.0 0.0 0.0 
2.140258881573e-04 -5.286963272856e-04 0.0 
-5.286963272856e-04 3.669457379214e-03 0.0 
0.0 0.0 0.0 
1.253988362612e-03 -4.600760033718e-04 0.0 
-4.600760033718e-04 3.278786863591e-03 0.0 
0.0 0.0 0.0 
9.839155334435e-04 8.779832556306e-04 0.0 
8.779832556306e-04 5.867885416075e-03 0.0 
0.0 0.0 0.0 
-3.689340087213e-04 -8.139284598690e-04 0.0 
-8.139284598690e-04 1.426194118106e-03 0.0 
0.0 0.0 0.0 
1.063867181165e-03 4.481020755512e-04 0.0 
4.481020755512e-04 5.226946730557e-03 0.0 
0.0 0.0 0.0 
3.299297218997e-04 -1.244132388238e-04 0.0 
-1.244132388238e-04 6.109704339075e-04 0.0 
0.0 0.0 0.0 
1.630781303203e-04 -5.997864173237e-04 0.0 
-5.997864173237e-04 3.322678571526e-03 0.0 
0.0 0.0 0.0 
4.034183885469e-04 -6.735511691282e-04 0.0 
-6.735511691282e-04 3.461704020131e-03 0.0 
0.0 0.0 0.0 
3.794765964575e-04 -4.486922380646e-05 0.0 
-4.486922380646e-05 2.294352166874e-04 0.0 
0.0 0.0 0.0 
-2.150664167977e-05 -1.011291671002e-04 0.0 
-1.011291671002e-04 3.380509992336e-03 0.0 
0.0 0.0 0.0 
-7.783012821735e-04 1.483140743270e-03 0.0 
1.483140743270e-03 1.358059661985e-02 0.0 
0.0 0.0 0.0 
6.946467640301e-04 -2.085682335077e-05 0.0 
-2.085682335077e-05 -1.720535496206e-04 0.0 
0.0 0.0 0.0 
-1.433326200561e-03 2.530792322322e-04 0.0 
2.530792322322e-04 1.162508131663e-02 0.0 
0.0 0.0 0.0 
-1.380690218984e-03 3.320288680064e-04 0.0 
3.320288680064e-04 1.152851423585e-02 0.0 
0.0 0.0 0.0 
1.741610652821e-03 7.862361896601e-04 0.0 
7.862361896601e-04 3.929770204300e-03 0.0 
0.0 0.0 0.0 
-3.382211980463e-05 -6.376710367185e-05 0.0 
-6.376710367185e-05 2.662084042063e-03 0.0 
0.0 0.0 0.0 
1.062240265810e-03 -1.693660785855e-03 0.0 
-1.693660785855e-03 8.560278349790e-04 0.0 
0.0 0.0 0.0 
1.567558075954e-04 3.172440072209e-03 0.0 
3.172440072209e-03 1.475000011956e-03 0.0 
0.0 0.0 0.0 
4.101099953588e-04 1.466990250178e-04 0.0 
1.466990250178e-04 6.217295813581e-03 0.0 
0.0 0.0 0.0 
2.483784098128e-05 2.846442819835e-03 0.0 
2.846442819835e-03 1.032321065548e-02 0.0 
0.0 0.0 0.0 
-8.836784489329e-04 5.370817987076e-04 0.0 
5.370817987076e-04 1.372158021995e-02 0.0 
0.0 0.0 0.0 
-2.942828493986e-04 2.932709090458e-03 0.0 
2.932709090458e-03 4.212977364222e-03 0.0 
0.0 0.0 0.0 
-5.083721860683e-04 -6.390771755232e-04 0.0 
-6.390771755232e-04 9.422428008019e-04 0.0 
0.0 0.0 0.0 
-1.403659306304e-03 2.271393599889e-03 0.0 
2.271393599889e-03 9.825723262618e-03 0.0 
0.0 0.0 0.0 
-1.160585959284e-03 5.504938719908e-05 0.0 
5.504938719908e-05 1.161033350034e-02 0.0 
0.0 0.0 0.0 
-1.096539989763e-03 4.096411475541e-05 0.0 
4.096411475541e-05 1.157152212083e-02 0.0 
0.0 0.0 0.0 
4.822972560090e-04 -2.195228276575e-05 0.0 
-2.195228276575e-05 -9.987227984776e-05 0.0 
0.0 0.0 0.0 
3.301034325280e-04 -6.004144668533e-05 0.0 
-6.004144668533e-05 2.506022266882e-04 0.0 
0.0 0.0 0.0 
2.788173631008e-04 -6.185387621642e-05 0.0 
-6.185387621642e-05 6.305703915985e-04 0.0 
0.0 0.0 0.0 
-1.727738162648e-04 -8.225867144936e-04 0.0 
-8.225867144936e-04 1.884556392463e-03 0.0 
0.0 0.0 0.0 
5.500582747744e-04 -3.972486188942e-05 0.0 
-3.972486188942e-05 1.666142509313e-04 0.0 
0.0 0.0 0.0 
-4.493508705794e-06 -9.401118418866e-05 0.0 
-9.401118418866e-05 3.740431610131e-03 0.0 
0.0 0.0 0.0 
-1.325217838725e-03 -1.096572829057e-03 0.0 
-1.096572829057e-03 -1.856071767494e-03 0.0 
0.0 0.0 0.0 
-4.811142761241e-05 -8.701548095911e-04 0.0 
-8.701548095911e-04 2.168156442144e-03 0.0 
0.0 0.0 0.0 
-8.235676449112e-04 1.004116136892e-04 0.0 
1.004116136892e-04 1.290370174500e-02 0.0 
0.0 0.0 0.0 
-1.238390078135e-03 1.529524213442e-04 0.0 
1.529524213442e-04 1.156396167622e-02 0.0 
0.0 0.0 0.0 
-4.275694989165e-04 2.613582681166e-03 0.0 
2.613582681166e-03 1.108049213898e-02 0.0 
0.0 0.0 0.0 
1.130303867465e-03 -8.403222474680e-05 0.0 
-8.403222474680e-05 4.252218682568e-03 0.0 
0.0 0.0 0.0 
-8.719526809907e-04 6.756449687861e-05 0.0 
6.756449687861e-05 1.255901271570e-02 0.0 
0.0 0.0 0.0 
-4.189195972237e-05 -1.673468243066e-05 0.0 
-1.673468243066e-05 2.841986812408e-03 0.0 
0.0 0.0 0.0 
4.130948110068e-04 -7.329525044475e-05 0.0 
-7.329525044475e-05 5.730731820528e-04 0.0 
0.0 0.0 0.0 
0.0 7.910622781192e-04 0.0 
7.910622781192e-04 1.466111471101e-02 0.0 
0.0 0.0 0.0 
-2.319148468186e-04 8.845927439654e-04 0.0 
8.845927439654e-04 1.463162560515e-02 0.0 
0.0 0.0 0.0 
-1.194869108340e-03 3.147540656713e-04 0.0 
3.147540656713e-04 1.242148982339e-02 0.0 
0.0 0.0 0.0 
-1.231045526345e-03 7.633438789707e-05 0.0 
7.633438789707e-05 1.161342616118e-02 0.0 
0.0 0.0 0.0 
-3.534135988992e-05 -1.460368970153e-04 0.0 
-1.460368970153e-04 2.866751427754e-03 0.0 
0.0 0.0 0.0 
-1.928969857821e-04 6.124637613769e-04 0.0 
6.124637613769e-04 1.472143109163e-02 0.0 
0.0 0.0 0.0 
-5.941062755155e-05 -9.556922045263e-04 0.0 
-9.556922045263e-04 1.944608157892e-03 0.0 
0.0 0.0 0.0 
-1.303020299765e-03 2.236298971138e-04 0.0 
2.236298971138e-04 1.154602147036e-02 0.0 
0.0 0.0 0.0 
-1.280676982667e-03 1.200475020528e-04 0.0 
1.200475020528e-04 1.161800680939e-02 0.0 
0.0 0.0 0.0 
-1.567333395485e-03 1.628433839097e-03 0.0 
1.628433839097e-03 1.033602915598e-02 0.0 
0.0 0.0 0.0 
0.0 1.751439011872e-03 0.0 
1.751439011872e-03 1.407756721586e-02 0.0 
0.0 0.0 0.0 
-2.199131583037e-04 7.482125958822e-04 0.0 
7.482125958822e-04 1.468477393932e-02 0.0 
0.0 0.0 0.0 
5.258172192817e-04 -5.046650446234e-05 0.0 
-5.046650446234e-05 1.738304002361e-04 0.0 
0.0 0.0 0.0 
5.257872252857e-04 -1.840590976636e-05 0.0 
-1.840590976636e-05 -1.129438532733e-04 0.0 
0.0 0.0 0.0 
-4.107550938848e-04 -6.049173296939e-04 0.0 
-6.049173296939e-04 1.106366197381e-03 0.0 
0.0 0.0 0.0 
5.554580750702e-04 -6.512465977981e-04 0.0 
-6.512465977981e-04 3.457544530474e-03 0.0 
0.0 0.0 0.0 
3.490061219114e-05 3.090962492799e-05 0.0 
3.090962492799e-05 6.913694316705e-03 0.0 
0.0 0.0 0.0 
-3.269376086299e-03 -1.958932042095e-03 0.0 
-1.958932042095e-03 -2.162207115434e-03 0.0 
0.0 0.0 0.0 
-6.352891902761e-04 2.770971446813e-05 0.0 
2.770971446813e-05 1.366311119330e-02 0.0 
0.0 0.0 0.0 
-1.558300875316e-03 -8.580476540892e-04 0.0 
-8.580476540892e-04 7.179823193859e-04 0.0 
0.0 0.0 0.0 
1.779683924623e-03 5.594941235516e-04 0.0 
5.594941235516e-04 3.717066152297e-03 0.0 
0.0 0.0 0.0 
-6.858904630488e-04 -5.810524118152e-04 0.0 
-5.810524118152e-04 1.080797968573e-04 0.0 
0.0 0.0 0.0 
-1.741748251515e-03 -2.076115220560e-03 0.0 
-2.076115220560e-03 -7.000447905090e-04 0.0 
0.0 0.0 0.0 
1.772554271236e-03 2.755346229469e-04 0.0 
2.755346229469e-04 3.407842307090e-03 0.0 
0.0 0.0 0.0 
1.128214594712e-04 2.603040244920e-05 0.0 
2.603040244920e-05 6.619387164018e-03 0.0 
0.0 0.0 0.0 
-8.748575740299e-04 6.132697320128e-05 0.0 
6.132697320128e-05 1.287467957830e-02 0.0 
0.0 0.0 0.0 
-1.100865080226e-03 2.486710843954e-03 0.0 
2.486710843954e-03 9.321714941734e-03 0.0 
0.0 0.0 0.0 
4.134343993993e-04 -3.614426636260e-05 0.0 
-3.614426636260e-05 2.146362978130e-04 0.0 
0.0 0.0 0.0 
2.766957789488e-04 -2.720671140930e-04 0.0 
-2.720671140930e-04 4.814139135127e-03 0.0 
0.0 0.0 0.0 
0.0 2.386715993483e-04 0.0 
2.386715993483e-04 1.476874728893e-02 0.0 
0.0 0.0 0.0 
-1.673635511306e-04 2.646363942830e-04 0.0 
2.646363942830e-04 1.477692094370e-02 0.0 
0.0 0.0 0.0 
-1.180474375141e-03 1.033527122874e-04 0.0 
1.033527122874e-04 1.156534543183e-02 0.0 
0.0 0.0 0.0 
1.737056300609e-03 8.379240309007e-04 0.0 
8.379240309007e-04 4.090843868331e-03 0.0 
0.0 0.0 0.0 
0.0 6.600568183670e-04 0.0 
6.600568183670e-04 1.471002226329e-02 0.0 
0.0 0.0 0.0 
8.126787363563e-04 2.376302986411e-03 0.0 
2.376302986411e-03 7.130312091549e-03 0.0 
0.0 0.0 0.0 
4.247938200559e-04 -3.462774335209e-05 0.0 
-3.462774335209e-05 5.491907663564e-04 0.0 
0.0 0.0 0.0 
5.744127206493e-04 -3.147895719876e-05 0.0 
-3.147895719876e-05 1.557508347347e-04 0.0 
0.0 0.0 0.0 
4.311136083768e-04 -1.522937440224e-05 0.0 
-1.522937440224e-05 2.132825404482e-04 0.0 
0.0 0.0 0.0 
-3.476443251171e-05 -1.591640039988e-05 0.0 
-1.591640039988e-05 3.205636048764e-03 0.0 
0.0 0.0 0.0 
2.118893015379e-05 -8.901209655401e-07 0.0 
-8.901209655401e-07 7.571786748771e-03 0.0 
0.0 0.0 0.0 
-2.793111055569e-04 -1.918487538004e-05 0.0 
-1.918487538004e-05 1.447337880750e-02 0.0 
0.0 0.0 0.0 
5.753836483791e-04 -9.130467121283e-06 0.0 
-9.130467121283e-06 -1.402156482582e-04 0.0 
0.0 0.0 0.0 
-7.122494507183e-06 -7.047328810517e-05 0.0 
-7.047328810517e-05 3.740397664850e-03 0.0 
0.0 0.0 0.0 
0.0 1.944791303066e-05 0.0 
1.944791303066e-05 7.610029000594e-03 0.0 
0.0 0.0 0.0 
3.422586284385e-05 3.724206837057e-05 0.0 
3.724206837057e-05 7.542183342356e-03 0.0 
0.0 0.0 0.0 
2.649721754413e-04 5.722232562003e-04 0.0 
5.722232562003e-04 7.341762308352e-03 0.0 
0.0 0.0 0.0 
-7.274947806808e-04 6.647498521580e-05 0.0 
6.647498521580e-05 1.331927200118e-02 0.0 
0.0 0.0 0.0 
-5.686507353754e-04 -2.339047261824e-05 0.0 
-2.339047261824e-05 1.383575921144e-02 0.0 
0.0 0.0 0.0 
0.0 3.162358213453e-05 0.0 
3.162358213453e-05 7.546449143674e-03 0.0 
0.0 0.0 0.0 
0.0 5.097571520967e-05 0.0 
5.097571520967e-05 7.537733713905e-03 0.0 
0.0 0.0 0.0 
-6.220068363789e-04 7.215649242662e-05 0.0 
7.215649242662e-05 1.366467476890e-02 0.0 
0.0 0.0 0.0 
7.751614302629e-04 1.776478000986e-05 0.0 
1.776478000986e-05 -2.293569817136e-04 0.0 
0.0 0.0 0.0 
-1.034975705363e-03 2.058455513126e-05 0.0 
2.058455513126e-05 1.154923740252e-02 0.0 
0.0 0.0 0.0 
-1.137766816542e-03 7.227538619665e-05 0.0 
7.227538619665e-05 1.158278775346e-02 0.0 
0.0 0.0 0.0 
5.502800606370e-04 -1.111316531917e-05 0.0 
-1.111316531917e-05 -1.230523809128e-04 0.0 
0.0 0.0 0.0 
0.0 2.071220708176e-04 0.0 
2.071220708176e-04 7.457220479719e-03 0.0 
0.0 0.0 0.0 
2.037496584533e-04 4.346536046505e-04 0.0 
4.346536046505e-04 7.342117492132e-03 0.0 
0.0 0.0 0.0 
0.0 3.815011328198e-04 0.0 
3.815011328198e-04 7.345294022669e-03 0.0 
0.0 0.0 0.0 
7.166890582717e-04 -5.207448484471e-06 0.0 
-5.207448484471e-06 -1.843364568621e-04 0.0 
0.0 0.0 0.0 
7.016810058988e-04 -1.393736390999e-05 0.0 
-1.393736390999e-05 -1.767476922094e-04 0.0 
0.0 0.0 0.0 
0.0 6.457742644339e-04 0.0 
6.457742644339e-04 7.345156978027e-03 0.0 
0.0 0.0 0.0 
0.0 4.989074745890e-04 0.0 
4.989074745890e-04 7.338639021271e-03 0.0 
0.0 0.0 0.0 
-7.766077299314e-04 -2.958620678095e-05 0.0 
-2.958620678095e-05 1.313567582877e-02 0.0 
0.0 0.0 0.0 
-9.830462022449e-04 1.064171774484e-05 0.0 
1.064171774484e-05 1.152567776357e-02 0.0 
0.0 0.0 0.0 
-6.784975448348e-04 -2.641627746865e-05 0.0 
-2.641627746865e-05 1.349275084676e-02 0.0 
0.0 0.0 0.0 
-8.994287583413e-04 -3.319055613400e-05 0.0 
-3.319055613400e-05 1.237213490939e-02 0.0 
0.0 0.0 0.0 
-9.595213520280e-04 1.067365298488e-06 0.0 
1.067365298488e-06 1.151445397840e-02 0.0 
0.0 0.0 0.0 
7.060788716118e-04 -3.063560549455e-05 0.0 
-3.063560549455e-05 -1.642440692384e-04 0.0 
0.0 0.0 0.0 
5.800140115655e-04 -4.121158291812e-05 0.0 
-4.121158291812e-05 -8.974662765593e-05 0.0 
0.0 0.0 0.0 
4.907579059863e-04 -5.615014885819e-05 0.0 
-5.615014885819e-05 -7.694801898783e-05 0.0 
0.0 0.0 0.0 
4.759923633035e-04 -6.552149719411e-05 0.0 
-6.552149719411e-05 -5.692375449151e-05 0.0 
0.0 0.0 0.0 
2.450300697676e-06 -4.285518075138e-06 0.0 
-4.285518075138e-06 3.933822691375e-03 0.0 
0.0 0.0 0.0 
-1.623874021228e-05 -1.248588155808e-05 0.0 
-1.248588155808e-05 3.565884759336e-03 0.0 
0.0 0.0 0.0 
7.979151493176e-05 -4.009927071538e-05 0.0 
-4.009927071538e-05 7.570981705585e-05 0.0 
0.0 0.0 0.0 
6.183304930474e-05 9.182922905502e-06 0.0 
9.182922905502e-06 5.043845198180e-03 0.0 
0.0 0.0 0.0 
-3.360224807603e-05 -6.828260105277e-05 0.0 
-6.828260105277e-05 1.162650689599e-04 0.0 
0.0 0.0 0.0 
0.0 1.396256011133e-03 0.0 
1.396256011133e-03 1.435955882234e-02 0.0 
0.0 0.0 0.0 
0.0 5.474263489738e-04 0.0 
5.474263489738e-04 1.473248307003e-02 0.0 
0.0 0.0 0.0 
0.0 9.332218498611e-04 0.0 
9.332218498611e-04 1.460001450944e-02 0.0 
0.0 0.0 0.0 
1.879869052432e-04 -8.609015067891e-06 0.0 
-8.609015067891e-06 1.210738493240e-03 0.0 
0.0 0.0 0.0 
-2.631593474200e-05 -1.576286857712e-05 0.0 
-1.576286857712e-05 2.465177080731e-03 0.0 
0.0 0.0 0.0 
0.0 4.294348090611e-04 0.0 
4.294348090611e-04 1.473898333010e-02 0.0 
0.0 0.0 0.0 
5.618494761572e-05 1.896025238486e-05 0.0 
1.896025238486e-05 6.282503106208e-03 0.0 
0.0 0.0 0.0 
0.0 3.356340588583e-04 0.0 
3.356340588583e-04 1.479102370436e-02 0.0 
0.0 0.0 0.0 
3.659761093444e-05 2.494392976248e-05 0.0 
2.494392976248e-05 6.716166471889e-03 0.0 
0.0 0.0 0.0 
1.639234853124e-05 3.341417538200e-05 0.0 
3.341417538200e-05 7.155823600686e-03 0.0 
0.0 0.0 0.0 
-2.553557941853e-05 -7.437789574577e-05 0.0 
-7.437789574577e-05 3.380500034744e-03 0.0 
0.0 0.0 0.0 
-2.079237667568e-04 4.886350559738e-04 0.0 
4.886350559738e-04 1.473587969777e-02 0.0 
0.0 0.0 0.0 
-1.652399736526e-04 4.168348897895e-04 0.0 
4.168348897895e-04 1.475868893121e-02 0.0 
0.0 0.0 0.0 
4.550305236317e-05 -3.204064293429e-05 0.0 
-3.204064293429e-05 6.469402525224e-03 0.0 
0.0 0.0 0.0 
2.627413330747e-05 -2.804788338220e-05 0.0 
-2.804788338220e-05 6.917038439507e-03 0.0 
0.0 0.0 0.0 
1.500261571834e-04 -1.487427044368e-04 0.0 
-1.487427044368e-04 5.328790046517e-03 0.0 
0.0 0.0 0.0 
-1.001423951353e-03 -3.038660710888e-04 0.0 
-3.038660710888e-04 5.338333425355e-04 0.0 
0.0 0.0 0.0 
7.678391611488e-05 -5.263470441170e-04 0.0 
-5.263470441170e-04 3.226575087525e-03 0.0 
0.0 0.0 0.0 
4.845811357954e-04 -6.968821849081e-05 0.0 
-6.968821849081e-05 1.956095267632e-04 0.0 
0.0 0.0 0.0 
3.334741781671e-04 8.214697166303e-05 0.0 
8.214697166303e-05 6.224023358536e-03 0.0 
0.0 0.0 0.0 
2.514979472819e-04 -6.113392431248e-04 0.0 
-6.113392431248e-04 3.323921078446e-03 0.0 
0.0 0.0 0.0 
2.296755975706e-04 -3.520705175821e-05 0.0 
-3.520705175821e-05 5.927615134781e-03 0.0 
0.0 0.0 0.0 
-1.387101297925e-04 -8.658756331881e-04 0.0 
-8.658756331881e-04 1.686124527903e-03 0.0 
0.0 0.0 0.0 
6.322203317799e-05 -1.972696299815e-04 0.0 
-1.972696299815e-04 6.992070398546e-04 0.0 
0.0 0.0 0.0 
1.345090584188e-04 -3.558396520113e-05 0.0 
-3.558396520113e-05 6.377106328246e-03 0.0 
0.0 0.0 0.0 
1.265787569922e-04 -4.782376616524e-04 0.0 
-4.782376616524e-04 3.567792507662e-03 0.0 
0.0 0.0 0.0 
-4.189286804457e-05 -1.026929220058e-04 0.0 
-1.026929220058e-04 3.023076155865e-03 0.0 
0.0 0.0 0.0 
1.701775129677e-04 -8.227476862677e-05 0.0 
-8.227476862677e-05 5.935461695519e-03 0.0 
0.0 0.0 0.0 
-4.285794596910e-04 2.092489131810e-04 0.0 
2.092489131810e-04 1.412800260542e-02 0.0 
0.0 0.0 0.0 
-3.835329075275e-05 -7.156568898369e-05 0.0 
-7.156568898369e-05 3.023664790615e-03 0.0 
0.0 0.0 0.0 
1.081779300104e-03 1.678114813961e-04 0.0 
1.678114813961e-04 4.672367518412e-03 0.0 
0.0 0.0 0.0 
7.350349555699e-04 -3.118504703253e-04 0.0 
-3.118504703253e-04 4.332991449369e-03 0.0 
0.0 0.0 0.0 
2.140233446897e-04 -1.176605815298e-04 0.0 
-1.176605815298e-04 5.323618064235e-03 0.0 
0.0 0.0 0.0 
1.524337002201e-04 -7.196619941037e-05 0.0 
-7.196619941037e-05 5.562096778378e-03 0.0 
0.0 0.0 0.0 
2.441932350694e-03 1.453053601451e-03 0.0 
1.453053601451e-03 3.006932454555e-04 0.0 
0.0 0.0 0.0 
-1.223865303526e-03 2.454451650568e-03 0.0 
2.454451650568e-03 9.143190530305e-03 0.0 
0.0 0.0 0.0 
1.008422262692e-03 2.586628791535e-03 0.0 
2.586628791535e-03 4.863967932485e-03 0.0 
0.0 0.0 0.0 
3.802630711074e-04 -2.374425461535e-04 0.0 
-2.374425461535e-04 4.808188365621e-03 0.0 
0.0 0.0 0.0 
1.153023117109e-04 -6.110101172314e-05 0.0 
-6.110101172314e-05 6.186580246464e-03 0.0 
0.0 0.0 0.0 
1.055999195148e-04 -3.208881930192e-05 0.0 
-3.208881930192e-05 5.790251134493e-03 0.0 
0.0 0.0 0.0 
-1.572705206684e-04 -1.423130389330e-03 0.0 
-1.423130389330e-03 1.509113065038e-03 0.0 
0.0 0.0 0.0 
-4.727568766940e-04 3.549963565381e-04 0.0 
3.549963565381e-04 1.410787600519e-02 0.0 
0.0 0.0 0.0 
-6.149851000308e-04 3.030540530548e-04 0.0 
3.030540530548e-04 1.378989305822e-02 0.0 
0.0 0.0 0.0 
-9.776181108433e-04 9.762099298702e-05 0.0 
9.762099298702e-05 1.210310364982e-02 0.0 
0.0 0.0 0.0 
4.681234426365e-04 -1.965247076322e-04 0.0 
-1.965247076322e-04 4.946813069358e-03 0.0 
0.0 0.0 0.0 
2.895475579219e-04 -1.738738615479e-04 0.0 
-1.738738615479e-04 5.073609304094e-03 0.0 
0.0 0.0 0.0 
-4.888735105926e-04 1.732290819581e-04 0.0 
1.732290819581e-04 1.413935280836e-02 0.0 
0.0 0.0 0.0 
-5.374457292094e-04 2.651724633738e-04 0.0 
2.651724633738e-04 1.396531335648e-02 0.0 
0.0 0.0 0.0 
7.056365500175e-04 -4.427375842748e-04 0.0 
-4.427375842748e-04 4.012718509226e-03 0.0 
0.0 0.0 0.0 
8.689369634429e-05 -2.969625579720e-05 0.0 
-2.969625579720e-05 6.624449721826e-03 0.0 
0.0 0.0 0.0 
-7.609157047928e-04 5.609179307344e-04 0.0 
5.609179307344e-04 1.371834678039e-02 0.0 
0.0 0.0 0.0 
7.677438333897e-05 -6.135666732818e-05 0.0 
-6.135666732818e-05 5.790223601234e-03 0.0 
0.0 0.0 0.0 
2.352521230702e-04 5.972123893889e-05 0.0 
5.972123893889e-05 6.535762046965e-03 0.0 
0.0 0.0 0.0 
-5.417397238922e-04 3.200857796241e-04 0.0 
3.200857796241e-04 1.411413052190e-02 0.0 
0.0 0.0 0.0 
-8.925197736744e-04 2.230513431634e-04 0.0 
2.230513431634e-04 1.327146086764e-02 0.0 
0.0 0.0 0.0 
1.026708954186e-03 -2.388213145046e-05 0.0 
-2.388213145046e-05 4.450750759037e-03 0.0 
0.0 0.0 0.0 
-4.544138036189e-05 -3.136146023978e-04 0.0 
-3.136146023978e-04 1.884284300458e-03 0.0 
0.0 0.0 0.0 
-2.125953443702e-04 -1.679607618527e-03 0.0 
-1.679607618527e-03 1.231187890827e-03 0.0 
0.0 0.0 0.0 
-1.871606368821e-04 -5.002209990664e-04 0.0 
-5.002209990664e-04 9.218440630425e-04 0.0 
0.0 0.0 0.0 
-1.006798001735e-03 -1.372664957438e-03 0.0 
-1.372664957438e-03 2.105426848154e-04 0.0 
0.0 0.0 0.0 
-5.823588477731e-04 2.251785371802e-04 0.0 
2.251785371802e-04 1.396930995738e-02 0.0 
0.0 0.0 0.0 
1.015089880496e-04 6.100773803037e-06 0.0 
6.100773803037e-06 6.411449148428e-03 0.0 
0.0 0.0 0.0 
-5.632173019254e-04 -8.246335260245e-04 0.0 
-8.246335260245e-04 3.631169340654e-04 0.0 
0.0 0.0 0.0 
-9.281110191846e-04 2.073653908792e-03 0.0 
2.073653908792e-03 1.271876815783e-02 0.0 
0.0 0.0 0.0 
-9.843371105858e-04 1.301098857586e-04 0.0 
1.301098857586e-04 1.230241536230e-02 0.0 
0.0 0.0 0.0 
2.399991584172e-04 -1.138864416934e-04 0.0 
-1.138864416934e-04 5.675267742656e-03 0.0 
0.0 0.0 0.0 
1.319777782569e-04 -2.825632684374e-05 0.0 
-2.825632684374e-05 5.978866142407e-03 0.0 
0.0 0.0 0.0 
8.545476491781e-04 -1.546533597741e-03 0.0 
-1.546533597741e-03 1.359308046532e-03 0.0 
0.0 0.0 0.0 
9.442402574211e-05 -7.018915177303e-05 0.0 
-7.018915177303e-05 5.985090038585e-03 0.0 
0.0 0.0 0.0 
-1.023001701883e-03 3.075147959362e-05 0.0 
3.075147959362e-05 1.210162456744e-02 0.0 
0.0 0.0 0.0 
1.568028954610e-03 1.521409694801e-03 0.0 
1.521409694801e-03 4.932349658504e-03 0.0 
0.0 0.0 0.0 
1.845204558628e-04 1.214562611168e-04 0.0 
1.214562611168e-04 6.818648317499e-03 0.0 
0.0 0.0 0.0 
1.643805610829e-05 -1.602381030766e-04 0.0 
-1.602381030766e-04 1.818989793059e-03 0.0 
0.0 0.0 0.0 
3.422771616348e-04 1.701332816443e-04 0.0 
1.701332816443e-04 6.458503795548e-03 0.0 
0.0 0.0 0.0 
-8.024950006186e-04 2.073309425659e-04 0.0 
2.073309425659e-04 1.345866940387e-02 0.0 
0.0 0.0 0.0 
-3.214497151960e-05 -2.440079600431e-04 0.0 
-2.440079600431e-04 2.056728537377e-03 0.0 
0.0 0.0 0.0 
3.444380909068e-05 -1.601271009480e-03 0.0 
-1.601271009480e-03 1.349441205474e-03 0.0 
0.0 0.0 0.0 
8.434234600041e-05 -1.802873412510e-04 0.0 
-1.802873412510e-04 4.225937672576e-03 0.0 
0.0 0.0 0.0 
-9.641641061237e-04 2.673736909263e-04 0.0 
2.673736909263e-04 1.288273989107e-02 0.0 
0.0 0.0 0.0 
7.452256003804e-05 -7.205795547219e-04 0.0 
-7.205795547219e-04 2.680498929350e-03 0.0 
0.0 0.0 0.0 
-7.123519236755e-04 1.819757096186e-04 0.0 
1.819757096186e-04 1.364407696026e-02 0.0 
0.0 0.0 0.0 
-8.887799704115e-04 1.469889176559e-04 0.0 
1.469889176559e-04 1.309387843968e-02 0.0 
0.0 0.0 0.0 
2.476312768913e-04 -4.176628626493e-04 0.0 
-4.176628626493e-04 3.924183462262e-03 0.0 
0.0 0.0 0.0 
1.052416060541e-04 -1.007227505206e-04 0.0 
-1.007227505206e-04 5.564204734108e-03 0.0 
0.0 0.0 0.0 
1.378872322673e-04 -1.019968967415e-04 0.0 
-1.019968967415e-04 5.750736486813e-03 0.0 
0.0 0.0 0.0 
-7.311728375263e-04 2.493048565603e-04 0.0 
2.493048565603e-04 1.345234299098e-02 0.0 
0.0 0.0 0.0 
-2.945757204720e-06 -3.845499247103e-04 0.0 
-3.845499247103e-04 1.543734317368e-03 0.0 
0.0 0.0 0.0 
1.526577320559e-04 -3.785909480333e-04 0.0 
-3.785909480333e-04 3.802633753651e-03 0.0 
0.0 0.0 0.0 
1.010538476874e-03 2.182294859463e-03 0.0 
2.182294859463e-03 6.779486951004e-03 0.0 
0.0 0.0 0.0 
-7.908598373639e-04 2.926543004808e-04 0.0 
2.926543004808e-04 1.361634956562e-02 0.0 
0.0 0.0 0.0 
1.051820813387e-04 -4.275451063338e-04 0.0 
-4.275451063338e-04 3.449435327878e-03 0.0 
0.0 0.0 0.0 
5.726042671301e-04 -3.724369380363e-04 0.0 
-3.724369380363e-04 4.343752945341e-03 0.0 
0.0 0.0 0.0 
4.583389206829e-04 2.000032820522e-04 0.0 
2.000032820522e-04 6.176190074474e-03 0.0 
0.0 0.0 0.0 
-8.106006560181e-04 2.632960131054e-04 0.0 
2.632960131054e-04 1.326648943110e-02 0.0 
0.0 0.0 0.0 
1.438664286639e-03 -7.306834929106e-04 0.0 
-7.306834929106e-04 -4.325299424576e-03 0.0 
0.0 0.0 0.0 
3.731339669333e-05 -3.066078057081e-04 0.0 
-3.066078057081e-04 8.284880642957e-04 0.0 
0.0 0.0 0.0 
2.776870784249e-03 3.583713545059e-04 0.0 
3.583713545059e-04 -2.943670720773e-03 0.0 
0.0 0.0 0.0 
1.570712678425e-04 -9.783867137564e-06 0.0 
-9.783867137564e-06 6.178593296284e-03 0.0 
0.0 0.0 0.0 
-8.901253736592e-04 2.694093501386e-04 0.0 
2.694093501386e-04 1.307724222586e-02 0.0 
0.0 0.0 0.0 
6.817643911283e-05 -1.499161650570e-04 0.0 
-1.499161650570e-04 4.594682246380e-03 0.0 
0.0 0.0 0.0 
-1.008659556859e-03 1.841523393784e-04 0.0 
1.841523393784e-04 1.250205314312e-02 0.0 
0.0 0.0 0.0 
9.104942379070e-04 5.300268872765e-04 0.0 
5.300268872765e-04 5.545330584256e-03 0.0 
0.0 0.0 0.0 
1.893819905601e-04 -3.158071088169e-04 0.0 
-3.158071088169e-04 4.163180809249e-03 0.0 
0.0 0.0 0.0 
1.924091702723e-04 -5.947447856897e-05 0.0 
-5.947447856897e-05 5.743903995928e-03 0.0 
0.0 0.0 0.0 
2.117372368660e-05 -2.667529283533e-04 0.0 
-2.667529283533e-04 1.876263176958e-03 0.0 
0.0 0.0 0.0 
2.901779380693e-04 1.429812923306e-04 0.0 
1.429812923306e-04 6.539197015864e-03 0.0 
0.0 0.0 0.0 
1.616003953087e-04 -4.171737389237e-04 0.0 
-4.171737389237e-04 3.924640108564e-03 0.0 
0.0 0.0 0.0 
1.332069789539e-05 -2.040614854827e-04 0.0 
-2.040614854827e-04 2.050242600166e-03 0.0 
0.0 0.0 0.0 
9.095436896156e-05 -3.689456920649e-04 0.0 
-3.689456920649e-04 3.801469555620e-03 0.0 
0.0 0.0 0.0 
6.252953239660e-05 -5.882195227453e-04 0.0 
-5.882195227453e-04 2.899194692429e-03 0.0 
0.0 0.0 0.0 
-3.097513345285e-05 -8.072702348571e-04 0.0 
-8.072702348571e-04 2.158229409175e-03 0.0 
0.0 0.0 0.0 
1.063274472997e-04 -1.434996222830e-04 0.0 
-1.434996222830e-04 4.593084393660e-03 0.0 
0.0 0.0 0.0 
3.757175386234e-04 8.923059842247e-06 0.0 
8.923059842247e-06 -4.550536872816e-05 0.0 
0.0 0.0 0.0 
2.630755505348e-04 -4.550903576438e-05 0.0 
-4.550903576438e-05 1.093725490575e-05 0.0 
0.0 0.0 0.0 
2.068214131459e-04 -2.066681797451e-04 0.0 
-2.066681797451e-04 5.079133752780e-03 0.0 
0.0 0.0 0.0 
2.211780194572e-05 -3.231769484995e-04 0.0 
-3.231769484995e-04 1.709676224973e-03 0.0 
0.0 0.0 0.0 
3.526486958974e-04 -2.437016239055e-04 0.0 
-2.437016239055e-04 4.954741046381e-03 0.0 
0.0 0.0 0.0 
4.547681690752e-04 -3.051812054123e-04 0.0 
-3.051812054123e-04 4.657830493322e-03 0.0 
0.0 0.0 0.0 
3.787228080219e-04 -8.905537174205e-04 0.0 
-8.905537174205e-04 2.783592504692e-03 0.0 
0.0 0.0 0.0 
7.863715262222e-04 -1.957821073940e-03 0.0 
-1.957821073940e-03 5.929548536465e-04 0.0 
0.0 0.0 0.0 
-7.534011164968e-04 5.087218530122e-04 0.0 
5.087218530122e-04 1.389713485985e-02 0.0 
0.0 0.0 0.0 
1.023444168230e-03 2.518159877674e-03 0.0 
2.518159877674e-03 -2.485762700937e-03 0.0 
0.0 0.0 0.0 
4.879323096540e-05 -4.683298016272e-04 0.0 
-4.683298016272e-04 3.106489845218e-03 0.0 
0.0 0.0 0.0 
8.510150065182e-04 7.624689065963e-04 0.0 
7.624689065963e-04 5.857572320747e-03 0.0 
0.0 0.0 0.0 
4.519946956050e-06 -2.537646260653e-04 0.0 
-2.537646260653e-04 1.483161219232e-03 0.0 
0.0 0.0 0.0 
-1.034166503564e-03 1.572260319621e-04 0.0 
1.572260319621e-04 1.270960691085e-02 0.0 
0.0 0.0 0.0 
-1.061568903941e-03 8.058498821806e-05 0.0 
8.058498821806e-05 1.230938340445e-02 0.0 
0.0 0.0 0.0 
-1.669055166563e-04 -7.082827339150e-04 0.0 
-7.082827339150e-04 1.406934277953e-03 0.0 
0.0 0.0 0.0 
6.013195029761e-04 2.476373130190e-04 0.0 
2.476373130190e-04 5.857329317798e-03 0.0 
0.0 0.0 0.0 
-1.004687431873e-03 4.333223841066e-04 0.0 
4.333223841066e-04 1.339991522760e-02 0.0 
0.0 0.0 0.0 
-7.597497290945e-05 -3.821668134532e-04 0.0 
-3.821668134532e-04 1.722524861855e-03 0.0 
0.0 0.0 0.0 
-7.274979690850e-04 6.380539105993e-04 0.0 
6.380539105993e-04 1.401607569299e-02 0.0 
0.0 0.0 0.0 
-6.016226878828e-04 6.613998011258e-04 0.0 
6.613998011258e-04 1.401166570436e-02 0.0 
0.0 0.0 0.0 
-3.348511053891e-05 -4.691284359452e-04 0.0 
-4.691284359452e-04 1.900420296350e-03 0.0 
0.0 0.0 0.0 
-4.397152769522e-04 2.893042397352e-03 0.0 
2.893042397352e-03 5.064004226357e-03 0.0 
0.0 0.0 0.0 
-8.965801282235e-05 -7.441831396233e-04 0.0 
-7.441831396233e-04 1.871816569035e-03 0.0 
0.0 0.0 0.0 
1.952967234806e-04 -1.405594781307e-04 0.0 
-1.405594781307e-04 5.500732132567e-03 0.0 
0.0 0.0 0.0 
1.419908291862e-04 -2.239471535155e-04 0.0 
-2.239471535155e-04 4.386675886063e-03 0.0 
0.0 0.0 0.0 
-8.031759461372e-04 1.757142845635e-03 0.0 
1.757142845635e-03 1.321390696216e-02 0.0 
0.0 0.0 0.0 
-6.458708222977e-04 5.330953693616e-04 0.0 
5.330953693616e-04 1.389390310929e-02 0.0 
0.0 0.0 0.0 
2.664195975659e-04 -1.886652110060e-04 0.0 
-1.886652110060e-04 5.236096517858e-03 0.0 
0.0 0.0 0.0 
3.596425916341e-04 -1.448533077086e-04 0.0 
-1.448533077086e-04 5.228842950679e-03 0.0 
0.0 0.0 0.0 
-2.596666608650e-04 -7.151646595774e-04 0.0 
-7.151646595774e-04 1.581299441013e-03 0.0 
0.0 0.0 0.0 
2.678682993924e-04 -9.939208805791e-05 0.0 
-9.939208805791e-05 5.494005833268e-03 0.0 
0.0 0.0 0.0 
-8.843141955659e-04 4.567484177269e-04 0.0 
4.567484177269e-04 1.339676946212e-02 0.0 
0.0 0.0 0.0 
9.010446544888e-05 -2.251321571929e-04 0.0 
-2.251321571929e-04 4.387170743994e-03 0.0 
0.0 0.0 0.0 
-9.792669189249e-04 2.323392665404e-04 0.0 
2.323392665404e-04 1.308185753440e-02 0.0 
0.0 0.0 0.0 
-8.916753083760e-04 4.172800672191e-04 0.0 
4.172800672191e-04 1.358349967266e-02 0.0 
0.0 0.0 0.0 
2.115199217050e-03 1.679675826585e-03 0.0 
1.679675826585e-03 2.395389170373e-03 0.0 
0.0 0.0 0.0 
-6.785849651153e-04 4.252384705161e-04 0.0 
4.252384705161e-04 1.376002950900e-02 0.0 
0.0 0.0 0.0 
7.442124051193e-05 -3.201590397608e-04 0.0 
-3.201590397608e-04 3.678725412431e-03 0.0 
0.0 0.0 0.0 
1.200840464031e-04 -3.157386470654e-04 0.0 
-3.157386470654e-04 4.163598315392e-03 0.0 
0.0 0.0 0.0 
-8.563644098514e-06 -4.820764765808e-04 0.0 
-4.820764765808e-04 2.777605625323e-03 0.0 
0.0 0.0 0.0 
3.731099180793e-04 -1.221883999379e-03 0.0 
-1.221883999379e-03 2.155134412824e-03 0.0 
0.0 0.0 0.0 
-8.883778313348e-04 3.543464465923e-04 0.0 
3.543464465923e-04 1.324273214006e-02 0.0 
0.0 0.0 0.0 
1.007954851810e-03 -7.827788486847e-04 0.0 
-7.827788486847e-04 2.844782341776e-03 0.0 
0.0 0.0 0.0 
-5.411844075354e-05 -6.308973274016e-04 0.0 
-6.308973274016e-04 2.056190708386e-03 0.0 
0.0 0.0 0.0 
-1.189479600878e-04 -4.854375839618e-04 0.0 
-4.854375839618e-04 1.090238493760e-03 0.0 
0.0 0.0 0.0 
-9.933350764431e-04 3.244712397500e-04 0.0 
3.244712397500e-04 1.324657622843e-02 0.0 
0.0 0.0 0.0 
-1.159728273288e-04 -6.965317182171e-04 0.0 
-6.965317182171e-04 2.066730113150e-03 0.0 
0.0 0.0 0.0 
4.079438318914e-04 2.528666066770e-04 0.0 
2.528666066770e-04 6.450049308737e-03 0.0 
0.0 0.0 0.0 
-7.979819905463e-04 3.467073495624e-04 0.0 
3.467073495624e-04 1.342897430470e-02 0.0 
0.0 0.0 0.0 
3.189224817715e-04 -6.173069472224e-05 0.0 
-6.173069472224e-05 5.666898130229e-03 0.0 
0.0 0.0 0.0 
3.671046654001e-04 1.372788596589e-03 0.0 
1.372788596589e-03 7.008614770026e-03 0.0 
0.0 0.0 0.0 
5.840676702173e-05 -4.108491586453e-04 0.0 
-4.108491586453e-04 3.446449446826e-03 0.0 
0.0 0.0 0.0 
-1.199010870194e-04 -5.271399066973e-04 0.0 
-5.271399066973e-04 1.909888500150e-03 0.0 
0.0 0.0 0.0 
-2.783740755022e-04 -5.510089597822e-04 0.0 
-5.510089597822e-04 1.236844624642e-03 0.0 
0.0 0.0 0.0 
4.276659434324e-04 -1.912008844536e-04 0.0 
-1.912008844536e-04 5.100724262437e-03 0.0 
0.0 0.0 0.0 
-8.926482461509e-04 2.024814997945e-04 0.0 
2.024814997945e-04 1.290473309615e-02 0.0 
0.0 0.0 0.0 
-1.679023718568e-04 -3.766742856863e-04 0.0 
-3.766742856863e-04 8.486531371006e-04 0.0 
0.0 0.0 0.0 
4.242302691448e-05 -6.798171512838e-04 0.0 
-6.798171512838e-04 2.674427834453e-03 0.0 
0.0 0.0 0.0 
8.399867415032e-05 -1.684409589356e-04 0.0 
-1.684409589356e-04 1.651776696509e-03 0.0 
0.0 0.0 0.0 
-1.060198773878e-03 2.350349137371e-04 0.0 
2.350349137371e-04 1.288680491374e-02 0.0 
0.0 0.0 0.0 
3.403696470428e-05 -5.538600393539e-04 0.0 
-5.538600393539e-04 2.894103838012e-03 0.0 
0.0 0.0 0.0 
5.935233144845e-04 -2.531526455823e-04 0.0 
-2.531526455823e-04 4.648718280521e-03 0.0 
0.0 0.0 0.0 
-8.178373321677e-06 -4.412512265772e-04 0.0 
-4.412512265772e-04 2.773345053239e-03 0.0 
0.0 0.0 0.0 
-6.868651148291e-04 2.642045306011e-04 0.0 
2.642045306011e-04 1.379526572314e-02 0.0 
0.0 0.0 0.0 
-2.476678255314e-05 -7.286088541411e-04 0.0 
-7.286088541411e-04 2.374523370114e-03 0.0 
0.0 0.0 0.0 
6.287588648806e-04 -1.436191914556e-04 0.0 
-1.436191914556e-04 4.941599927973e-03 0.0 
0.0 0.0 0.0 
-2.189112720402e-04 -1.573976350842e-03 0.0 
-1.573976350842e-03 1.214680731458e-03 0.0 
0.0 0.0 0.0 
5.463065487077e-04 -2.378862520492e-04 0.0 
-2.378862520492e-04 4.790690419287e-03 0.0 
0.0 0.0 0.0 
6.463076364605e-05 -2.605325555948e-04 0.0 
-2.605325555948e-04 4.028229754870e-03 0.0 
0.0 0.0 0.0 
4.263056165583e-04 -9.450160029280e-05 0.0 
-9.450160029280e-05 5.386920905203e-03 0.0 
0.0 0.0 0.0 
2.621041242927e-03 -9.493032362309e-05 0.0 
-9.493032362309e-05 -5.687114551742e-04 0.0 
0.0 0.0 0.0 
1.252351881931e-05 -2.072785184420e-04 0.0 
-2.072785184420e-04 1.662717568887e-03 0.0 
0.0 0.0 0.0 
-1.009981756788e-03 9.585286859267e-05 0.0 
9.585286859267e-05 1.252528535325e-02 0.0 
0.0 0.0 0.0 
1.616450097274e-03 3.559389093430e-04 0.0 
3.559389093430e-04 3.748225560565e-03 0.0 
0.0 0.0 0.0 
1.909592155913e-04 2.871456019648e-03 0.0 
2.871456019648e-03 5.832520405379e-03 0.0 
0.0 0.0 0.0 
-9.649613947642e-04 1.562903925407e-04 0.0 
1.562903925407e-04 1.290626284240e-02 0.0 
0.0 0.0 0.0 
4.512730812456e-05 -1.881941366292e-03 0.0 
-1.881941366292e-03 9.500944123657e-04 0.0 
0.0 0.0 0.0 
-1.075762529582e-03 4.576549391144e-04 0.0 
4.576549391144e-04 1.301230640129e-02 0.0 
0.0 0.0 0.0 
8.817549639906e-05 -2.182490953973e-04 0.0 
-2.182490953973e-04 1.466773558092e-03 0.0 
0.0 0.0 0.0 
4.527632656861e-04 8.391975067166e-05 0.0 
8.391975067166e-05 5.950053752484e-03 0.0 
0.0 0.0 0.0 
1.607391825174e-03 6.427513627521e-04 0.0 
6.427513627521e-04 4.120837000532e-03 0.0 
0.0 0.0 0.0 
1.381596746395e-03 1.763750632541e-03 0.0 
1.763750632541e-03 5.561209574767e-03 0.0 
0.0 0.0 0.0 
-5.803943819146e-04 5.965907999717e-04 0.0 
5.965907999717e-04 1.419407521297e-02 0.0 
0.0 0.0 0.0 
1.018891742474e-03 -5.752851671165e-04 0.0 
-5.752851671165e-04 3.297453458708e-03 0.0 
0.0 0.0 0.0 
-1.222179233823e-04 -4.426740328123e-04 0.0 
-4.426740328123e-04 1.557828384935e-03 0.0 
0.0 0.0 0.0 
8.304561582659e-04 -3.348194585248e-04 0.0 
-3.348194585248e-04 4.126915509490e-03 0.0 
0.0 0.0 0.0 
5.336014725692e-04 2.975556248658e-04 0.0 
2.975556248658e-04 6.160631015926e-03 0.0 
0.0 0.0 0.0 
7.127025234386e-04 -1.815868338227e-03 0.0 
-1.815868338227e-03 8.757215239248e-04 0.0 
0.0 0.0 0.0 
3.255470985926e-04 -1.494553686974e-04 0.0 
-1.494553686974e-04 5.395882260793e-03 0.0 
0.0 0.0 0.0 
-8.936838667145e-04 3.117984228490e-04 0.0 
3.117984228490e-04 1.343338178642e-02 0.0 
0.0 0.0 0.0 
1.063019314347e-03 -2.119046700621e-03 0.0 
-2.119046700621e-03 -7.743064843602e-05 0.0 
0.0 0.0 0.0 
6.806001414870e-04 -2.869647918222e-04 0.0 
-2.869647918222e-04 4.466389945806e-03 0.0 
0.0 0.0 0.0 
-1.193719580808e-03 2.216815508090e-04 0.0 
2.216815508090e-04 1.247749400720e-02 0.0 
0.0 0.0 0.0 
-1.595926930442e-05 -3.083449886484e-04 0.0 
-3.083449886484e-04 2.254786639505e-03 0.0 
0.0 0.0 0.0 
4.742046347350e-05 -8.209199847345e-04 0.0 
-8.209199847345e-04 2.445184932453e-03 0.0 
0.0 0.0 0.0 
4.623170463360e-04 2.695781508703e-03 0.0 
2.695781508703e-03 6.528360169059e-03 0.0 
0.0 0.0 0.0 
5.510027226348e-04 -1.319069987878e-04 0.0 
-1.319069987878e-04 5.090870098436e-03 0.0 
0.0 0.0 0.0 
-4.762410694522e-04 2.817645033175e-03 0.0 
2.817645033175e-03 6.964256146644e-03 0.0 
0.0 0.0 0.0 
7.341901581854e-04 2.658312165783e-03 0.0 
2.658312165783e-03 5.704903881427e-03 0.0 
0.0 0.0 0.0 
-9.827624023921e-04 4.597585911867e-04 0.0 
4.597585911867e-04 1.320749358169e-02 0.0 
0.0 0.0 0.0 
-9.530859654616e-04 1.988116873839e-04 0.0 
1.988116873839e-04 1.270450847265e-02 0.0 
0.0 0.0 0.0 
-1.127305079624e-03 3.308548043407e-04 0.0 
3.308548043407e-04 1.265646933069e-02 0.0 
0.0 0.0 0.0 
1.138331120383e-04 -2.775851855355e-04 0.0 
-2.775851855355e-04 4.031369453253e-03 0.0 
0.0 0.0 0.0 
7.591845364145e-04 2.818367587339e-04 0.0 
2.818367587339e-04 5.555584292152e-03 0.0 
0.0 0.0 0.0 
9.954862576553e-04 -3.773796955524e-04 0.0 
-3.773796955524e-04 3.773406659219e-03 0.0 
0.0 0.0 0.0 
-1.099830794495e-03 1.514137777705e-04 0.0 
1.514137777705e-04 1.250609512259e-02 0.0 
0.0 0.0 0.0 
-7.724690725687e-04 2.288934580024e-03 0.0 
2.288934580024e-03 1.253728903365e-02 0.0 
0.0 0.0 0.0 
1.171580703617e-03 1.974837861557e-03 0.0 
1.974837861557e-03 6.211349789483e-03 0.0 
0.0 0.0 0.0 
6.924695295365e-04 -1.711903669433e-04 0.0 
-1.711903669433e-04 4.779554088594e-03 0.0 
0.0 0.0 0.0 
-7.820712360370e-04 4.448140455573e-04 0.0 
4.448140455573e-04 1.357990458275e-02 0.0 
0.0 0.0 0.0 
3.103407708729e-04 -1.043485086552e-03 0.0 
-1.043485086552e-03 2.483210051004e-03 0.0 
0.0 0.0 0.0 
1.559616454023e-04 -9.492698205352e-04 0.0 
-9.492698205352e-04 2.481667822109e-03 0.0 
0.0 0.0 0.0 
-1.040718053654e-04 -6.282819030809e-04 0.0 
-6.282819030809e-04 1.567016134422e-03 0.0 
0.0 0.0 0.0 
9.403696822399e-04 -1.937017388755e-04 0.0 
-1.937017388755e-04 4.269927786120e-03 0.0 
0.0 0.0 0.0 
1.295501467489e-04 -7.933251136745e-04 0.0 
-7.933251136745e-04 2.744725027990e-03 0.0 
0.0 0.0 0.0 
-1.088199446926e-03 3.293324257317e-04 0.0 
3.293324257317e-04 1.305473260402e-02 0.0 
0.0 0.0 0.0 
-1.177297091960e-03 3.295804636478e-04 0.0 
3.295804636478e-04 1.285777445432e-02 0.0 
0.0 0.0 0.0 
2.185866807270e-03 1.028118409647e-03 0.0 
1.028118409647e-03 2.426183280291e-03 0.0 
0.0 0.0 0.0 
9.094829793144e-05 -1.027108164221e-03 0.0 
-1.027108164221e-03 2.210902698248e-03 0.0 
0.0 0.0 0.0 
2.460395339145e-03 1.565510470629e-03 0.0 
1.565510470629e-03 -4.436029103879e-04 0.0 
0.0 0.0 0.0 
8.364452633391e-05 -8.666240660263e-04 0.0 
-8.666240660263e-04 2.452048541821e-03 0.0 
0.0 0.0 0.0 
2.469844745956e-04 -9.778770422922e-04 0.0 
-9.778770422922e-04 2.485538813430e-03 0.0 
0.0 0.0 0.0 
-1.784367427524e-04 -6.215700527978e-04 0.0 
-6.215700527978e-04 1.747360234298e-03 0.0 
0.0 0.0 0.0 
9.278360478999e-04 3.270018444490e-04 0.0 
3.270018444490e-04 5.245245841048e-03 0.0 
0.0 0.0 0.0 
9.702206429438e-04 -1.005393237572e-03 0.0 
-1.005393237572e-03 2.420218001127e-03 0.0 
0.0 0.0 0.0 
-7.755050561162e-04 3.920637719450e-04 0.0 
3.920637719450e-04 1.376426350554e-02 0.0 
0.0 0.0 0.0 
1.229567343856e-03 -8.846830723369e-04 0.0 
-8.846830723369e-04 2.400519599999e-03 0.0 
0.0 0.0 0.0 
1.023030673005e-03 -2.417390022854e-04 0.0 
-2.417390022854e-04 4.111595800785e-03 0.0 
0.0 0.0 0.0 
1.072872470137e-03 -6.104756821262e-04 0.0 
-6.104756821262e-04 3.210407049142e-03 0.0 
0.0 0.0 0.0 
1.307930689718e-03 2.391182630511e-03 0.0 
2.391182630511e-03 4.464022103047e-03 0.0 
0.0 0.0 0.0 
-6.372686836742e-05 -5.464686791768e-04 0.0 
-5.464686791768e-04 1.734173810983e-03 0.0 
0.0 0.0 0.0 
6.961827314516e-04 3.331787266153e-04 0.0 
3.331787266153e-04 5.840716222894e-03 0.0 
0.0 0.0 0.0 
5.802550876788e-04 3.905973015309e-04 0.0 
3.905973015309e-04 6.166493216137e-03 0.0 
0.0 0.0 0.0 
1.648674612247e-04 2.645065210114e-03 0.0 
2.645065210114e-03 8.057577785781e-03 0.0 
0.0 0.0 0.0 
4.577702577642e-04 -1.047393550308e-03 0.0 
-1.047393550308e-03 2.482935393683e-03 0.0 
0.0 0.0 0.0 
1.066067663817e-03 -4.208104071242e-04 0.0 
-4.208104071242e-04 3.648720342216e-03 0.0 
0.0 0.0 0.0 
-9.742441110238e-04 3.545329264998e-04 0.0 
3.545329264998e-04 1.305142798214e-02 0.0 
0.0 0.0 0.0 
2.556791087027e-04 -8.813566254544e-04 0.0 
-8.813566254544e-04 2.782905488129e-03 0.0 
0.0 0.0 0.0 
5.438640795803e-04 2.813150413303e-03 0.0 
2.813150413303e-03 4.986472997145e-03 0.0 
0.0 0.0 0.0 
-1.580244432975e-05 -6.746688587218e-04 0.0 
-6.746688587218e-04 2.366142897489e-03 0.0 
0.0 0.0 0.0 
4.388182194981e-04 -2.038912585055e-03 0.0 
-2.038912585055e-03 6.075300165522e-04 0.0 
0.0 0.0 0.0 
5.047731907266e-04 -1.090616953445e-03 0.0 
-1.090616953445e-03 2.459196643393e-03 0.0 
0.0 0.0 0.0 
-7.794021946139e-05 -5.819240572984e-04 0.0 
-5.819240572984e-04 2.249813585944e-03 0.0 
0.0 0.0 0.0 
-1.885976020333e-05 -3.872976232289e-04 0.0 
-3.872976232289e-04 2.076031308614e-03 0.0 
0.0 0.0 0.0 
8.461086176186e-04 -6.979125573549e-04 0.0 
-6.979125573549e-04 3.225142183207e-03 0.0 
0.0 0.0 0.0 
8.502888640041e-04 -2.087216435320e-04 0.0 
-2.087216435320e-04 4.453398288182e-03 0.0 
0.0 0.0 0.0 
2.165045997105e-05 2.676771130115e-03 0.0 
2.676771130115e-03 9.537290626696e-03 0.0 
0.0 0.0 0.0 
5.698684942124e-04 -3.831380394639e-05 0.0 
-3.831380394639e-05 -1.176387023840e-04 0.0 
0.0 0.0 0.0 
1.919704226185e-03 -6.376516925397e-04 0.0 
-6.376516925397e-04 1.519538815296e-03 0.0 
0.0 0.0 0.0 
1.440727825778e-03 -9.358951603854e-04 0.0 
-9.358951603854e-04 1.965361597706e-03 0.0 
0.0 0.0 0.0 
7.070555772897e-04 -1.059118785114e-03 0.0 
-1.059118785114e-03 2.453596163195e-03 0.0 
0.0 0.0 0.0 
-1.054075203621e-03 3.456023582474e-04 0.0 
3.456023582474e-04 1.285553232739e-02 0.0 
0.0 0.0 0.0 
1.041450373255e-03 -8.069420668772e-04 0.0 
-8.069420668772e-04 2.799422580854e-03 0.0 
0.0 0.0 0.0 
-1.198446305517e-05 -5.996502038563e-04 0.0 
-5.996502038563e-04 2.576873199254e-03 0.0 
0.0 0.0 0.0 
7.269627731934e-04 -1.075295655909e-03 0.0 
-1.075295655909e-03 2.432360396263e-03 0.0 
0.0 0.0 0.0 
-7.070546067527e-04 3.302936875439e-04 0.0 
3.302936875439e-04 1.361170199163e-02 0.0 
0.0 0.0 0.0 
-1.102939870889e-05 -5.552957926396e-04 0.0 
-5.552957926396e-04 2.569985522133e-03 0.0 
0.0 0.0 0.0 
-1.125294587422e-04 -3.567361051609e-04 0.0 
-3.567361051609e-04 9.993943716295e-04 0.0 
0.0 0.0 0.0 
-1.885538808818e-04 -5.008805300537e-04 0.0 
-5.008805300537e-04 1.399036754157e-03 0.0 
0.0 0.0 0.0 
5.950306580274e-04 -1.749007386367e-03 0.0 
-1.749007386367e-03 1.120702535777e-03 0.0 
0.0 0.0 0.0 
2.979387671005e-04 -1.150971592277e-03 0.0 
-1.150971592277e-03 2.204016857532e-03 0.0 
0.0 0.0 0.0 
1.687822425567e-03 -6.966714681832e-04 0.0 
-6.966714681832e-04 1.980416904332e-03 0.0 
0.0 0.0 0.0 
9.608732584008e-04 -9.954297441752e-04 0.0 
-9.954297441752e-04 2.420479917033e-03 0.0 
0.0 0.0 0.0 
-2.196783638274e-04 -1.812186987278e-03 0.0 
-1.812186987278e-03 8.603209306535e-04 0.0 
0.0 0.0 0.0 
-2.131607229772e-05 -4.219333378296e-04 0.0 
-4.219333378296e-04 1.386537578831e-03 0.0 
0.0 0.0 0.0 
-1.407772807793e-03 4.513423232391e-04 0.0 
4.513423232391e-04 1.259156034892e-02 0.0 
0.0 0.0 0.0 
-3.539551586607e-05 -5.280359916574e-04 0.0 
-5.280359916574e-04 2.241355861857e-03 0.0 
0.0 0.0 0.0 
1.059885164810e-03 2.555974563941e-04 0.0 
2.555974563941e-04 4.976502409428e-03 0.0 
0.0 0.0 0.0 
1.955185446791e-04 2.648576183989e-03 0.0 
2.648576183989e-03 8.841495588540e-03 0.0 
0.0 0.0 0.0 
-1.585555992603e-03 1.573487817036e-03 0.0 
1.573487817036e-03 1.189175059507e-02 0.0 
0.0 0.0 0.0 
-8.264429708710e-04 8.700869369911e-04 0.0 
8.700869369911e-04 1.374216221404e-02 0.0 
0.0 0.0 0.0 
-1.017088979183e-04 2.688091878298e-03 0.0 
2.688091878298e-03 1.019025186851e-02 0.0 
0.0 0.0 0.0 
2.151984102132e-03 1.345046784695e-03 0.0 
1.345046784695e-03 2.445297846820e-03 0.0 
0.0 0.0 0.0 
1.865659458344e-04 2.632516895894e-03 0.0 
2.632516895894e-03 8.441660937002e-03 0.0 
0.0 0.0 0.0 
1.167168770058e-04 -2.201499937209e-03 0.0 
-2.201499937209e-03 4.222297655305e-04 0.0 
0.0 0.0 0.0 
6.030028478621e-04 -9.365738016734e-04 0.0 
-9.365738016734e-04 2.802820157190e-03 0.0 
0.0 0.0 0.0 
1.710396198437e-03 2.300500986699e-03 0.0 
2.300500986699e-03 2.760190704997e-03 0.0 
0.0 0.0 0.0 
2.061593388272e-03 -1.656756632067e-03 0.0 
-1.656756632067e-03 -1.316253110129e-03 0.0 
0.0 0.0 0.0 
-2.089291386168e-04 -2.107139204653e-03 0.0 
-2.107139204653e-03 3.853928770869e-04 0.0 
0.0 0.0 0.0 
2.059360411781e-04 -8.214160922482e-04 0.0 
-8.214160922482e-04 2.748571342746e-03 0.0 
0.0 0.0 0.0 
1.142380350183e-03 -1.086768499846e-03 0.0 
-1.086768499846e-03 1.993589953099e-03 0.0 
0.0 0.0 0.0 
1.390635443362e-03 -8.936723747753e-04 0.0 
-8.936723747753e-04 2.013850558163e-03 0.0 
0.0 0.0 0.0 
-5.530434194767e-05 -4.766172955823e-04 0.0 
-4.766172955823e-04 2.434160560118e-03 0.0 
0.0 0.0 0.0 
1.261961962929e-03 -6.679515187911e-04 0.0 
-6.679515187911e-04 2.825741623578e-03 0.0 
0.0 0.0 0.0 
1.613150042840e-03 -8.920140378847e-04 0.0 
-8.920140378847e-04 1.565823573305e-03 0.0 
0.0 0.0 0.0 
2.094956512286e-03 -2.879746420060e-04 0.0 
-2.879746420060e-04 1.644037142868e-03 0.0 
0.0 0.0 0.0 
1.826863553656e-04 -1.122647151569e-03 0.0 
-1.122647151569e-03 2.200442986263e-03 0.0 
0.0 0.0 0.0 
1.656770411275e-03 1.076431884996e-03 0.0 
1.076431884996e-03 4.416658890994e-03 0.0 
0.0 0.0 0.0 
-1.113031654739e-03 4.449047067796e-04 0.0 
4.449047067796e-04 1.320964325636e-02 0.0 
0.0 0.0 0.0 
2.289432187799e-03 -9.526913717300e-05 0.0 
-9.526913717300e-05 1.233591526789e-03 0.0 
0.0 0.0 0.0 
8.799556517820e-04 3.918394472282e-04 0.0 
3.918394472282e-04 5.538231317687e-03 0.0 
0.0 0.0 0.0 
6.068715382650e-04 -2.308058580346e-03 0.0 
-2.308058580346e-03 -4.652562871388e-05 0.0 
0.0 0.0 0.0 
7.880907887867e-04 7.893752434519e-04 0.0 
7.893752434519e-04 6.165862557779e-03 0.0 
0.0 0.0 0.0 
1.465741705788e-03 -7.015022591314e-04 0.0 
-7.015022591314e-04 2.415649767643e-03 0.0 
0.0 0.0 0.0 
-1.589878464043e-04 2.755426513436e-03 0.0 
2.755426513436e-03 1.083768904674e-02 0.0 
0.0 0.0 0.0 
-7.797811025536e-04 2.481929310323e-03 0.0 
2.481929310323e-03 9.963680365566e-03 0.0 
0.0 0.0 0.0 
2.486584955403e-04 -1.922328506867e-03 0.0 
-1.922328506867e-03 9.550928613351e-04 0.0 
0.0 0.0 0.0 
-1.444899559695e-03 1.830426062332e-03 0.0 
1.830426062332e-03 1.169554682207e-02 0.0 
0.0 0.0 0.0 
-8.626163373351e-04 1.272450054466e-03 0.0 
1.272450054466e-03 1.360718811339e-02 0.0 
0.0 0.0 0.0 
1.664671976846e-03 -4.663693447540e-04 0.0 
-4.663693447540e-04 2.484056524900e-03 0.0 
0.0 0.0 0.0 
1.052439459015e-03 2.701318498803e-03 0.0 
2.701318498803e-03 3.154900254567e-03 0.0 
0.0 0.0 0.0 
-1.262367986444e-03 2.054460861747e-03 0.0 
2.054460861747e-03 1.144093682996e-02 0.0 
0.0 0.0 0.0 
2.813064529501e-04 2.813148606826e-03 0.0 
2.813148606826e-03 6.163395399564e-03 0.0 
0.0 0.0 0.0 
-2.342567765292e-04 -1.942142322204e-03 0.0 
-1.942142322204e-03 8.816196265669e-04 0.0 
0.0 0.0 0.0 
-4.079327161560e-04 1.127365803249e-03 0.0 
1.127365803249e-03 1.424491327092e-02 0.0 
0.0 0.0 0.0 
-5.913260937119e-04 -1.514248657536e-03 0.0 
-1.514248657536e-03 1.122743734899e-03 0.0 
0.0 0.0 0.0 
8.998876199620e-04 1.808416553431e-03 0.0 
1.808416553431e-03 6.780968199382e-03 0.0 
0.0 0.0 0.0 
-5.312000587674e-04 4.980451581537e-04 0.0 
4.980451581537e-04 1.406636372546e-02 0.0 
0.0 0.0 0.0 
1.550113785955e-03 9.211652537431e-04 0.0 
9.211652537431e-04 4.557629376384e-03 0.0 
0.0 0.0 0.0 
-1.032069422999e-03 2.596383030033e-04 0.0 
2.596383030033e-04 1.267832500997e-02 0.0 
0.0 0.0 0.0 
-1.002206200810e-03 7.073176906025e-04 0.0 
7.073176906025e-04 1.365222094554e-02 0.0 
0.0 0.0 0.0 
1.823941481359e-03 -5.759354689965e-04 0.0 
-5.759354689965e-04 1.692612716621e-03 0.0 
0.0 0.0 0.0 
2.049695961015e-03 1.092860047504e-03 0.0 
1.092860047504e-03 3.074118896887e-03 0.0 
0.0 0.0 0.0 
-6.368639315806e-04 9.967150892862e-04 0.0 
9.967150892862e-04 1.399856835604e-02 0.0 
0.0 0.0 0.0 
7.768499897816e-04 -6.248117836988e-05 0.0 
-6.248117836988e-05 4.928067541567e-03 0.0 
0.0 0.0 0.0 
-1.129924818638e-03 5.802733346580e-04 0.0 
5.802733346580e-04 1.334584220833e-02 0.0 
0.0 0.0 0.0 
1.617422113907e-03 4.454902440487e-04 0.0 
4.454902440487e-04 4.009481754960e-03 0.0 
0.0 0.0 0.0 
3.821864984637e-04 -2.180673747635e-03 0.0 
-2.180673747635e-03 4.173096130535e-04 0.0 
0.0 0.0 0.0 
-1.135583317243e-03 7.356626010581e-04 0.0 
7.356626010581e-04 1.345900879233e-02 0.0 
0.0 0.0 0.0 
1.267252423309e-04 2.998589942195e-03 0.0 
2.998589942195e-03 1.008459293830e-02 0.0 
0.0 0.0 0.0 
6.559527961392e-04 5.093631273152e-04 0.0 
5.093631273152e-04 6.139198815963e-03 0.0 
0.0 0.0 0.0 
8.114238233146e-04 -8.897944300230e-04 0.0 
-8.897944300230e-04 2.794478194289e-03 0.0 
0.0 0.0 0.0 
-1.133346335890e-03 2.280929417977e-04 0.0 
2.280929417977e-04 1.268147962460e-02 0.0 
0.0 0.0 0.0 
-1.090854615761e-03 2.423546286138e-04 0.0 
2.423546286138e-04 1.247478740248e-02 0.0 
0.0 0.0 0.0 
1.189348801747e-03 -8.523986211116e-04 0.0 
-8.523986211116e-04 2.440444683926e-03 0.0 
0.0 0.0 0.0 
9.477293097715e-04 -7.713521441621e-05 0.0 
-7.713521441621e-05 4.595587454625e-03 0.0 
0.0 0.0 0.0 
1.019357129838e-03 7.869267535573e-05 0.0 
7.869267535573e-05 4.767019156485e-03 0.0 
0.0 0.0 0.0 
-5.817452939316e-05 -4.668493894873e-04 0.0 
-4.668493894873e-04 1.222260295774e-03 0.0 
0.0 0.0 0.0 
2.431468792883e-03 1.746709822814e-03 0.0 
1.746709822814e-03 -1.221163661035e-03 0.0 
0.0 0.0 0.0 
2.339946415044e-03 3.172602987259e-04 0.0 
3.172602987259e-04 1.540721144232e-03 0.0 
0.0 0.0 0.0 
2.042159505212e-03 -4.453947037234e-04 0.0 
-4.453947037234e-04 1.294062314034e-03 0.0 
0.0 0.0 0.0 
8.738299442885e-04 2.720222206835e-03 0.0 
2.720222206835e-03 4.844962229896e-03 0.0 
0.0 0.0 0.0 
-6.249966355729e-04 9.377722820790e-04 0.0 
9.377722820790e-04 1.419135495343e-02 0.0 
0.0 0.0 0.0 
-7.799878941760e-04 2.035784269541e-03 0.0 
2.035784269541e-03 1.272265804575e-02 0.0 
0.0 0.0 0.0 
-6.228415447248e-04 4.662716901686e-04 0.0 
4.662716901686e-04 1.406899012555e-02 0.0 
0.0 0.0 0.0 
-6.850370068889e-04 2.741869279961e-03 0.0 
2.741869279961e-03 7.793688705755e-03 0.0 
0.0 0.0 0.0 
-1.051070403782e-03 1.112277208856e-03 0.0 
1.112277208856e-03 1.336709378376e-02 0.0 
0.0 0.0 0.0 
7.771735169708e-04 -1.704506438784e-04 0.0 
-1.704506438784e-04 4.610757895947e-03 0.0 
0.0 0.0 0.0 
-5.635318123095e-04 7.966234611194e-04 0.0 
7.966234611194e-04 1.411189051357e-02 0.0 
0.0 0.0 0.0 
-1.260334238660e-03 7.610924270034e-04 0.0 
7.610924270034e-04 1.325648455819e-02 0.0 
0.0 0.0 0.0 
8.047639089652e-04 -8.873307165476e-04 0.0 
-8.873307165476e-04 2.813307911054e-03 0.0 
0.0 0.0 0.0 
2.434651423695e-03 6.188612408365e-04 0.0 
6.188612408365e-04 1.267142981521e-03 0.0 
0.0 0.0 0.0 
-9.787971801574e-04 7.323919124613e-04 0.0 
7.323919124613e-04 1.345885752968e-02 0.0 
0.0 0.0 0.0 
-8.325122680501e-04 8.281239890974e-04 0.0 
8.281239890974e-04 1.393456265915e-02 0.0 
0.0 0.0 0.0 
-8.752946455062e-04 5.755366043776e-04 0.0 
5.755366043776e-04 1.353347675686e-02 0.0 
0.0 0.0 0.0 
-9.855118975797e-04 5.863202501083e-04 0.0 
5.863202501083e-04 1.334464979408e-02 0.0 
0.0 0.0 0.0 
7.012480552511e-04 1.982377478529e-04 0.0 
1.982377478529e-04 5.621856421820e-03 0.0 
0.0 0.0 0.0 
9.449285594949e-04 1.930556175871e-03 0.0 
1.930556175871e-03 6.762152148369e-03 0.0 
0.0 0.0 0.0 
8.770761474020e-04 2.212184716055e-04 0.0 
2.212184716055e-04 5.298181106151e-03 0.0 
0.0 0.0 0.0 
8.925239165642e-04 -3.691045274131e-04 0.0 
-3.691045274131e-04 3.999909360822e-03 0.0 
0.0 0.0 0.0 
-1.474722307065e-03 1.865261963959e-03 0.0 
1.865261963959e-03 9.778599984051e-03 0.0 
0.0 0.0 0.0 
1.447138802387e-03 1.195163635728e-03 0.0 
1.195163635728e-03 5.037760950021e-03 0.0 
0.0 0.0 0.0 
-1.269623375239e-03 1.199947491367e-03 0.0 
1.199947491367e-03 1.285485882201e-02 0.0 
0.0 0.0 0.0 
-8.221454544077e-05 -4.416239193476e-04 0.0 
-4.416239193476e-04 2.084603500771e-03 0.0 
0.0 0.0 0.0 
2.154904041174e-03 -3.733704826976e-05 0.0 
-3.733704826976e-05 1.599041294421e-03 0.0 
0.0 0.0 0.0 
2.075643746974e-03 2.483537676229e-04 0.0 
2.483537676229e-04 2.488814958029e-03 0.0 
0.0 0.0 0.0 
1.896928009236e-03 1.169399375986e-03 0.0 
1.169399375986e-03 3.709412071445e-03 0.0 
0.0 0.0 0.0 
2.757479688403e-03 -3.811306422403e-04 0.0 
-3.811306422403e-04 -2.257975853353e-03 0.0 
0.0 0.0 0.0 
2.303493836922e-03 2.206927583332e-04 0.0 
2.206927583332e-04 1.335161300858e-03 0.0 
0.0 0.0 0.0 
1.724398108621e-03 1.254041739272e-03 0.0 
1.254041739272e-03 4.336420394077e-03 0.0 
0.0 0.0 0.0 
-1.136064547954e-03 2.310209164637e-03 0.0 
2.310209164637e-03 9.347003110800e-03 0.0 
0.0 0.0 0.0 
8.752903353766e-04 -7.146520348090e-04 0.0 
-7.146520348090e-04 3.167751368022e-03 0.0 
0.0 0.0 0.0 
-1.348066190276e-03 6.102218788209e-04 0.0 
6.102218788209e-04 1.293991815548e-02 0.0 
0.0 0.0 0.0 
-1.061887668943e-03 9.242816047183e-05 0.0 
9.242816047183e-05 1.184765355390e-02 0.0 
0.0 0.0 0.0 
-1.619508038942e-03 2.781795611287e-03 0.0 
2.781795611287e-03 1.685821594667e-03 0.0 
0.0 0.0 0.0 
8.541005024658e-04 -5.121016369288e-04 0.0 
-5.121016369288e-04 3.663905895628e-03 0.0 
0.0 0.0 0.0 
1.530015535124e-03 9.607486781116e-04 0.0 
9.607486781116e-04 4.716411609736e-03 0.0 
0.0 0.0 0.0 
-6.985495335533e-04 1.962237500461e-03 0.0 
1.962237500461e-03 1.307015710014e-02 0.0 
0.0 0.0 0.0 
2.221584482712e-03 1.064406985163e-03 0.0 
1.064406985163e-03 2.455784333746e-03 0.0 
0.0 0.0 0.0 
9.016753445910e-04 -5.391281593595e-04 0.0 
-5.391281593595e-04 3.570606199055e-03 0.0 
0.0 0.0 0.0 
-1.215672373856e-03 4.517294206179e-04 0.0 
4.517294206179e-04 1.301342162869e-02 0.0 
0.0 0.0 0.0 
-1.695421600309e-03 2.687775966906e-03 0.0 
2.687775966906e-03 3.237756688950e-03 0.0 
0.0 0.0 0.0 
1.649122995024e-03 1.108998526230e-03 0.0 
1.108998526230e-03 4.528772195025e-03 0.0 
0.0 0.0 0.0 
2.003718560507e-03 8.524453378769e-04 0.0 
8.524453378769e-04 3.152307942050e-03 0.0 
0.0 0.0 0.0 
-1.286059091901e-03 2.310333711128e-03 0.0 
2.310333711128e-03 9.979772418464e-03 0.0 
0.0 0.0 0.0 
8.554658885496e-04 -2.628569117787e-05 0.0 
-2.628569117787e-05 4.783799502218e-03 0.0 
0.0 0.0 0.0 
1.514882389223e-03 -2.165743155932e-03 0.0 
-2.165743155932e-03 -1.248642826167e-03 0.0 
0.0 0.0 0.0 
9.077109417441e-04 1.399807017600e-04 0.0 
1.399807017600e-04 4.994961231642e-03 0.0 
0.0 0.0 0.0 
8.471801735528e-04 5.762489234697e-04 0.0 
5.762489234697e-04 5.817109862224e-03 0.0 
0.0 0.0 0.0 
1.730987331472e-03 1.275850298044e-03 0.0 
1.275850298044e-03 4.386333762313e-03 0.0 
0.0 0.0 0.0 
-1.008807883991e-03 5.616507969936e-04 0.0 
5.616507969936e-04 1.353561246772e-02 0.0 
0.0 0.0 0.0 
5.861955152586e-04 2.488488871711e-03 0.0 
2.488488871711e-03 7.854868050170e-03 0.0 
0.0 0.0 0.0 
7.391797125993e-04 4.671003814764e-04 0.0 
4.671003814764e-04 5.831382581925e-03 0.0 
0.0 0.0 0.0 
-1.749036697337e-03 2.521488622586e-03 0.0 
2.521488622586e-03 4.738948602931e-03 0.0 
0.0 0.0 0.0 
-1.244031311657e-03 5.956652278572e-04 0.0 
5.956652278572e-04 1.314775939761e-02 0.0 
0.0 0.0 0.0 
7.606567295357e-04 2.248414610578e-03 0.0 
2.248414610578e-03 7.410730691068e-03 0.0 
0.0 0.0 0.0 
-8.573086828427e-04 7.146328056028e-04 0.0 
7.146328056028e-04 1.365085036076e-02 0.0 
0.0 0.0 0.0 
1.914646788286e-03 1.197264492686e-03 0.0 
1.197264492686e-03 3.753048817168e-03 0.0 
0.0 0.0 0.0 
2.279537713403e-03 6.442813396408e-04 0.0 
6.442813396408e-04 1.838112463857e-03 0.0 
0.0 0.0 0.0 
3.589454563306e-04 -4.347784169982e-04 0.0 
-4.347784169982e-04 4.030488523008e-03 0.0 
0.0 0.0 0.0 
2.435322165023e-03 6.538963892699e-04 0.0 
6.538963892699e-04 -4.196642146746e-03 0.0 
0.0 0.0 0.0 
-7.328704668035e-04 6.882722614380e-04 0.0 
6.882722614380e-04 1.383386923396e-02 0.0 
0.0 0.0 0.0 
-5.898489596090e-05 -3.537918733095e-04 0.0 
-3.537918733095e-04 2.260828280080e-03 0.0 
0.0 0.0 0.0 
-1.577612134300e-03 2.257418609382e-03 0.0 
2.257418609382e-03 6.116258547014e-03 0.0 
0.0 0.0 0.0 
4.346794794861e-04 2.559060719743e-03 0.0 
2.559060719743e-03 8.121321981198e-03 0.0 
0.0 0.0 0.0 
-4.840793326570e-04 6.177704134761e-04 0.0 
6.177704134761e-04 1.419097009737e-02 0.0 
0.0 0.0 0.0 
9.118148494394e-04 -2.500242500357e-03 0.0 
-2.500242500357e-03 -8.656503748226e-04 0.0 
0.0 0.0 0.0 
1.968608189067e-04 2.701798761916e-03 0.0 
2.701798761916e-03 7.332076960123e-03 0.0 
0.0 0.0 0.0 
-1.094761094133e-03 7.454225203385e-04 0.0 
7.454225203385e-04 1.325773733885e-02 0.0 
0.0 0.0 0.0 
5.490890442543e-04 -6.595682680124e-04 0.0 
-6.595682680124e-04 3.518342524544e-03 0.0 
0.0 0.0 0.0 
2.423560890500e-03 -1.215000733884e-03 0.0 
-1.215000733884e-03 -2.124323033702e-03 0.0 
0.0 0.0 0.0 
1.135966620154e-03 2.845204616574e-03 0.0 
2.845204616574e-03 2.181571232488e-03 0.0 
0.0 0.0 0.0 
-1.320927395989e-04 -2.165308714138e-03 0.0 
-2.165308714138e-03 3.945629868940e-04 0.0 
0.0 0.0 0.0 
1.404567219626e-03 -2.123315873631e-03 0.0 
-2.123315873631e-03 -9.142517327005e-04 0.0 
0.0 0.0 0.0 
6.520033105935e-04 -2.356139109326e-03 0.0 
-2.356139109326e-03 -2.685735365128e-04 0.0 
0.0 0.0 0.0 
2.077720804678e-03 1.126049070480e-03 0.0 
1.126049070480e-03 3.111134575667e-03 0.0 
0.0 0.0 0.0 
-3.065629751010e-04 1.727481792094e-03 0.0 
1.727481792094e-03 1.415706053265e-02 0.0 
0.0 0.0 0.0 
-1.450623810094e-03 2.049275915577e-03 0.0 
2.049275915577e-03 7.542000497519e-03 0.0 
0.0 0.0 0.0 
5.411949238743e-04 1.718428704044e-04 0.0 
1.718428704044e-04 5.935220991667e-03 0.0 
0.0 0.0 0.0 
2.388406414269e-03 1.389910963322e-03 0.0 
1.389910963322e-03 1.016718738278e-03 0.0 
0.0 0.0 0.0 
-1.375450012963e-03 7.905205747211e-04 0.0 
7.905205747211e-04 1.304366237533e-02 0.0 
0.0 0.0 0.0 
2.839037226529e-03 4.909577128626e-04 0.0 
4.909577128626e-04 -3.775590850759e-03 0.0 
0.0 0.0 0.0 
6.814503869470e-04 6.611005662160e-04 0.0 
6.611005662160e-04 6.158625426875e-03 0.0 
0.0 0.0 0.0 
2.796191133605e-04 -2.488711514510e-03 0.0 
-2.488711514510e-03 -2.551972379429e-04 0.0 
0.0 0.0 0.0 
-4.260934533673e-05 -3.718802470541e-04 0.0 
-3.718802470541e-04 2.635514435643e-03 0.0 
0.0 0.0 0.0 
1.577695155790e-03 1.528037255492e-03 0.0 
1.528037255492e-03 4.930894800758e-03 0.0 
0.0 0.0 0.0 
1.604391888504e-03 -6.396497774863e-04 0.0 
-6.396497774863e-04 2.101770892415e-03 0.0 
0.0 0.0 0.0 
9.727949726284e-04 2.054963420285e-03 0.0 
2.054963420285e-03 6.796218732711e-03 0.0 
0.0 0.0 0.0 
3.512231030891e-04 2.873798881192e-03 0.0 
2.873798881192e-03 4.678729503507e-03 0.0 
0.0 0.0 0.0 
-1.339128997913e-03 1.204287650881e-03 0.0 
1.204287650881e-03 1.311593788441e-02 0.0 
0.0 0.0 0.0 
9.367766329935e-04 1.924826140362e-03 0.0 
1.924826140362e-03 6.762947843420e-03 0.0 
0.0 0.0 0.0 
-1.090621831593e-03 5.910977331936e-04 0.0 
5.910977331936e-04 1.314779601956e-02 0.0 
0.0 0.0 0.0 
-8.363123005506e-04 2.011086965698e-03 0.0 
2.011086965698e-03 1.306360289394e-02 0.0 
0.0 0.0 0.0 
-1.124398165479e-03 9.084972912428e-04 0.0 
9.084972912428e-04 1.354409433543e-02 0.0 
0.0 0.0 0.0 
-1.091536056045e-03 1.095983454095e-03 0.0 
1.095983454095e-03 1.359488727394e-02 0.0 
0.0 0.0 0.0 
1.782741525005e-03 2.702291418195e-03 0.0 
2.702291418195e-03 -1.554241001335e-03 0.0 
0.0 0.0 0.0 
5.238786195880e-04 6.126015785179e-05 0.0 
6.126015785179e-05 5.728134741453e-03 0.0 
0.0 0.0 0.0 
-1.083581627888e-03 9.205549345211e-04 0.0 
9.205549345211e-04 1.333265596161e-02 0.0 
0.0 0.0 0.0 
1.893037529834e-03 1.939458160683e-03 0.0 
1.939458160683e-03 3.124114865967e-03 0.0 
0.0 0.0 0.0 
-1.893131358417e-03 1.853948235052e-03 0.0 
1.853948235052e-03 9.106557287594e-03 0.0 
0.0 0.0 0.0 
6.801567081993e-04 2.044555341723e-03 0.0 
2.044555341723e-03 7.352722327497e-03 0.0 
0.0 0.0 0.0 
2.692836558355e-03 1.201124405726e-03 0.0 
1.201124405726e-03 -2.138081737518e-03 0.0 
0.0 0.0 0.0 
-2.598085759020e-05 -4.284501951738e-04 0.0 
-4.284501951738e-04 2.427038049866e-03 0.0 
0.0 0.0 0.0 
1.204688392915e-03 1.974338431532e-03 0.0 
1.974338431532e-03 6.140063382299e-03 0.0 
0.0 0.0 0.0 
1.346188641269e-04 -2.672573945769e-05 0.0 
-2.672573945769e-05 1.465492107425e-03 0.0 
0.0 0.0 0.0 
1.034986916639e-03 2.510108900220e-03 0.0 
2.510108900220e-03 5.290290470686e-03 0.0 
0.0 0.0 0.0 
1.521418034556e-03 1.360833053316e-03 0.0 
1.360833053316e-03 5.015307114649e-03 0.0 
0.0 0.0 0.0 
-8.764060616473e-04 1.230607008222e-03 0.0 
1.230607008222e-03 1.383054800964e-02 0.0 
0.0 0.0 0.0 
-7.951887810063e-04 1.448366990926e-03 0.0 
1.448366990926e-03 1.382277474480e-02 0.0 
0.0 0.0 0.0 
1.528549017791e-03 1.346624590131e-03 0.0 
1.346624590131e-03 4.957564857031e-03 0.0 
0.0 0.0 0.0 
-9.802621628247e-04 8.710488417527e-04 0.0 
8.710488417527e-04 1.374259380267e-02 0.0 
0.0 0.0 0.0 
2.182929654929e-03 1.730265028725e-03 0.0 
1.730265028725e-03 1.747544439260e-03 0.0 
0.0 0.0 0.0 
1.826733047405e-05 2.625944994451e-03 0.0 
2.625944994451e-03 9.161445069295e-03 0.0 
0.0 0.0 0.0 
-1.574129251027e-03 9.315469812994e-04 0.0 
9.315469812994e-04 1.029838950428e-02 0.0 
0.0 0.0 0.0 
-5.000148111265e-04 2.443719877066e-03 0.0 
2.443719877066e-03 1.181089198255e-02 0.0 
0.0 0.0 0.0 
-1.544905257247e-03 6.588798499253e-04 0.0 
6.588798499253e-04 1.086031168379e-02 0.0 
0.0 0.0 0.0 
-1.510725760053e-03 5.660468694698e-04 0.0 
5.660468694698e-04 1.109943675608e-02 0.0 
0.0 0.0 0.0 
2.205338481671e-03 1.360986976773e-03 0.0 
1.360986976773e-03 2.377266625605e-03 0.0 
0.0 0.0 0.0 
-1.522696879665e-03 5.396091810322e-04 0.0 
5.396091810322e-04 1.131544082633e-02 0.0 
0.0 0.0 0.0 
1.239929922096e-03 2.277966267718e-03 0.0 
2.277966267718e-03 5.425576551288e-03 0.0 
0.0 0.0 0.0 
1.577184569386e-03 2.229301019440e-03 0.0 
2.229301019440e-03 3.633217660743e-03 0.0 
0.0 0.0 0.0 
2.187342282876e-03 3.644238329688e-04 0.0 
3.644238329688e-04 2.005155438615e-03 0.0 
0.0 0.0 0.0 
2.486867110672e-03 -1.235168965788e-03 0.0 
-1.235168965788e-03 -2.320176668336e-03 0.0 
0.0 0.0 0.0 
2.348345496779e-03 1.015147403108e-03 0.0 
1.015147403108e-03 1.781423379618e-03 0.0 
0.0 0.0 0.0 
-6.917056583102e-04 8.392956826295e-04 0.0 
8.392956826295e-04 1.393273461737e-02 0.0 
0.0 0.0 0.0 
-6.117720673225e-04 2.265556574851e-03 0.0 
2.265556574851e-03 1.253836436279e-02 0.0 
0.0 0.0 0.0 
6.211295699117e-04 -4.529408128882e-05 0.0 
-4.529408128882e-05 5.245920349213e-03 0.0 
0.0 0.0 0.0 
9.841185703725e-04 2.045944154651e-03 0.0 
2.045944154651e-03 6.744758149644e-03 0.0 
0.0 0.0 0.0 
1.880667548648e-03 -4.081768228958e-04 0.0 
-4.081768228958e-04 2.063951565650e-03 0.0 
0.0 0.0 0.0 
-9.219894627166e-04 1.078771060031e-03 0.0 
1.078771060031e-03 1.359634641663e-02 0.0 
0.0 0.0 0.0 
2.312884245090e-03 7.079534311078e-04 0.0 
7.079534311078e-04 1.953109890281e-03 0.0 
0.0 0.0 0.0 
3.958162655429e-04 6.457814433185e-05 0.0 
6.457814433185e-05 6.025300524551e-03 0.0 
0.0 0.0 0.0 
-9.582671721163e-04 8.983241652233e-04 0.0 
8.983241652233e-04 1.354471632782e-02 0.0 
0.0 0.0 0.0 
-1.223917298325e-03 1.147154549248e-03 0.0 
1.147154549248e-03 1.336342535477e-02 0.0 
0.0 0.0 0.0 
1.846780706468e-03 1.003948513079e-03 0.0 
1.003948513079e-03 3.895984335041e-03 0.0 
0.0 0.0 0.0 
2.307619707989e-03 1.362366935731e-03 0.0 
1.362366935731e-03 1.706836402785e-03 0.0 
0.0 0.0 0.0 
1.854998861317e-05 2.656842073198e-03 0.0 
2.656842073198e-03 9.538634141675e-03 0.0 
0.0 0.0 0.0 
-8.162967827522e-04 2.392695394419e-03 0.0 
2.392695394419e-03 9.975925647655e-03 0.0 
0.0 0.0 0.0 
1.943382155499e-03 -2.028470625047e-03 0.0 
-2.028470625047e-03 -2.190143852838e-03 0.0 
0.0 0.0 0.0 
2.756914632132e-03 3.337293212504e-04 0.0 
3.337293212504e-04 -1.999595067022e-03 0.0 
0.0 0.0 0.0 
6.671296274090e-04 2.878949027327e-03 0.0 
2.878949027327e-03 4.083830356010e-03 0.0 
0.0 0.0 0.0 
8.709476919067e-05 2.723014352140e-03 0.0 
2.723014352140e-03 7.329648696351e-03 0.0 
0.0 0.0 0.0 
2.846481244463e-04 6.697558189669e-05 0.0 
6.697558189669e-05 6.313543113810e-03 0.0 
0.0 0.0 0.0 
-1.254051972093e-03 9.467418622958e-04 0.0 
9.467418622958e-04 1.333014665141e-02 0.0 
0.0 0.0 0.0 
2.304161329899e-03 9.774627343605e-04 0.0 
9.774627343605e-04 1.765755404126e-03 0.0 
0.0 0.0 0.0 
-1.460551946242e-05 2.640987504286e-03 0.0 
2.640987504286e-03 8.446819426524e-03 0.0 
0.0 0.0 0.0 
1.427044692627e-03 1.223138630747e-03 0.0 
1.223138630747e-03 5.169205639991e-03 0.0 
0.0 0.0 0.0 
-8.648315651029e-04 6.757437531116e-04 0.0 
6.757437531116e-04 1.383589855330e-02 0.0 
0.0 0.0 0.0 
-1.457994079224e-04 2.712576921428e-03 0.0 
2.712576921428e-03 1.018774470538e-02 0.0 
0.0 0.0 0.0 
-1.297366082012e-03 7.699637799469e-04 0.0 
7.699637799469e-04 1.282361516683e-02 0.0 
0.0 0.0 0.0 
1.200757288853e-03 7.458799488375e-04 0.0 
7.458799488375e-04 5.249921611920e-03 0.0 
0.0 0.0 0.0 
2.148890597714e-03 7.456615331901e-04 0.0 
7.456615331901e-04 2.504195253044e-03 0.0 
0.0 0.0 0.0 
1.330075056255e-03 1.054645453002e-03 0.0 
1.054645453002e-03 5.184963200894e-03 0.0 
0.0 0.0 0.0 
9.084920193172e-04 2.639113428275e-03 0.0 
2.639113428275e-03 5.271720624890e-03 0.0 
0.0 0.0 0.0 
-7.845523659584e-04 9.976008894659e-04 0.0 
9.976008894659e-04 1.399886507965e-02 0.0 
0.0 0.0 0.0 
-2.637109969119e-04 2.746091874441e-03 0.0 
2.746091874441e-03 1.083835850151e-02 0.0 
0.0 0.0 0.0 
2.020816050452e-03 9.015060927152e-04 0.0 
9.015060927152e-04 3.259225403645e-03 0.0 
0.0 0.0 0.0 
2.849123183279e-03 4.419455908565e-04 0.0 
4.419455908565e-04 -2.853293571856e-03 0.0 
0.0 0.0 0.0 
6.973601323204e-04 2.485756637149e-03 0.0 
2.485756637149e-03 7.616358513057e-03 0.0 
0.0 0.0 0.0 
1.024255189746e-03 2.447727138942e-03 0.0 
2.447727138942e-03 5.733439945834e-03 0.0 
0.0 0.0 0.0 
2.244545579276e-03 1.350351676520e-03 0.0 
1.350351676520e-03 1.806412554580e-03 0.0 
0.0 0.0 0.0 
1.840523408548e-03 9.627419680727e-04 0.0 
9.627419680727e-04 3.788526173798e-03 0.0 
0.0 0.0 0.0 
1.100634976697e-03 3.789020569441e-04 0.0 
3.789020569441e-04 4.945394991108e-03 0.0 
0.0 0.0 0.0 
2.734743254420e-03 -5.474344558821e-04 0.0 
-5.474344558821e-04 -2.692293364770e-03 0.0 
0.0 0.0 0.0 
2.175290309232e-03 8.023065194814e-04 0.0 
8.023065194814e-04 2.613456316214e-03 0.0 
0.0 0.0 0.0 
-1.203988631586e-03 1.931862221714e-03 0.0 
1.931862221714e-03 1.145712569598e-02 0.0 
0.0 0.0 0.0 
2.226861559294e-04 -1.622431847228e-06 0.0 
-1.622431847228e-06 6.323446757084e-03 0.0 
0.0 0.0 0.0 
-1.016720304614e-03 2.143796637233e-03 0.0 
2.143796637233e-03 1.115528923786e-02 0.0 
0.0 0.0 0.0 
5.679848584086e-04 2.563438876750e-03 0.0 
2.563438876750e-03 7.844061877200e-03 0.0 
0.0 0.0 0.0 
-1.353943011128e-03 1.688284514087e-03 0.0 
1.688284514087e-03 1.171387952257e-02 0.0 
0.0 0.0 0.0 
-1.512015762937e-03 1.148558233393e-03 0.0 
1.148558233393e-03 1.203947716644e-02 0.0 
0.0 0.0 0.0 
-5.563553603333e-04 2.513145161186e-03 0.0 
2.513145161186e-03 9.567621293306e-03 0.0 
0.0 0.0 0.0 
1.180908164663e-03 1.836551518616e-03 0.0 
1.836551518616e-03 6.140173343635e-03 0.0 
0.0 0.0 0.0 
5.517890383615e-04 -1.823263979696e-05 0.0 
-1.823263979696e-05 5.436711824799e-03 0.0 
0.0 0.0 0.0 
-1.197535296658e-03 9.464589122181e-04 0.0 
9.464589122181e-04 1.310578541247e-02 0.0 
0.0 0.0 0.0 
-6.503029651607e-04 1.426803375556e-03 0.0 
1.426803375556e-03 1.382490905456e-02 0.0 
0.0 0.0 0.0 
-1.461215534640e-03 1.422672717547e-03 0.0 
1.422672717547e-03 1.191175464982e-02 0.0 
0.0 0.0 0.0 
2.489396912292e-03 9.388194379373e-04 0.0 
9.388194379373e-04 3.829544436329e-04 0.0 
0.0 0.0 0.0 
4.845840824215e-04 2.534714678856e-03 0.0 
2.534714678856e-03 8.319835232699e-03 0.0 
0.0 0.0 0.0 
-6.815797825812e-04 7.834225895764e-04 0.0 
7.834225895764e-04 1.411380785621e-02 0.0 
0.0 0.0 0.0 
1.441241179776e-03 2.368077843305e-03 0.0 
2.368077843305e-03 4.111046935887e-03 0.0 
0.0 0.0 0.0 
1.177741175979e-03 2.487230283539e-03 0.0 
2.487230283539e-03 4.915657732317e-03 0.0 
0.0 0.0 0.0 
2.405332742080e-03 9.452311246763e-04 0.0 
9.452311246763e-04 1.086214682304e-03 0.0 
0.0 0.0 0.0 
-1.167817506269e-03 1.151382856577e-03 0.0 
1.151382856577e-03 1.312219765643e-02 0.0 
0.0 0.0 0.0 
-1.626228314175e-04 2.852824950077e-03 0.0 
2.852824950077e-03 6.387284468704e-03 0.0 
0.0 0.0 0.0 
1.336768844917e-03 2.260527712861e-03 0.0 
2.260527712861e-03 5.166974830302e-03 0.0 
0.0 0.0 0.0 
-9.009183597919e-05 2.853105527238e-03 0.0 
2.853105527238e-03 6.386911000714e-03 0.0 
0.0 0.0 0.0 
1.399430042412e-03 1.763024947509e-03 0.0 
1.763024947509e-03 5.520466682946e-03 0.0 
0.0 0.0 0.0 
3.446776702081e-04 2.620191883434e-03 0.0 
2.620191883434e-03 8.783333752676e-03 0.0 
0.0 0.0 0.0 
2.394312594656e-03 5.509983461460e-04 0.0 
5.509983461460e-04 1.154830284179e-03 0.0 
0.0 0.0 0.0 
2.301216171208e-03 -6.785561675715e-04 0.0 
-6.785561675715e-04 -3.980285730989e-03 0.0 
0.0 0.0 0.0 
-6.793583561576e-04 1.706684161339e-03 0.0 
1.706684161339e-03 1.351416135724e-02 0.0 
0.0 0.0 0.0 
-4.024057178588e-04 2.761646772841e-03 0.0 
2.761646772841e-03 7.223452839720e-03 0.0 
0.0 0.0 0.0 
2.011277101412e-03 -8.701604023769e-05 0.0 
-8.701604023769e-05 2.231682380223e-03 0.0 
0.0 0.0 0.0 
6.050572101890e-04 2.557550217928e-03 0.0 
2.557550217928e-03 8.106404599982e-03 0.0 
0.0 0.0 0.0 
-1.371265629621e-03 9.905571963187e-04 0.0 
9.905571963187e-04 1.310115733258e-02 0.0 
0.0 0.0 0.0 
6.955014533265e-04 -2.236284650194e-05 0.0 
-2.236284650194e-05 5.114280681826e-03 0.0 
0.0 0.0 0.0 
1.841812835725e-03 2.016606608814e-03 0.0 
2.016606608814e-03 2.802131335103e-03 0.0 
0.0 0.0 0.0 
2.016680661121e-03 -3.132806832304e-04 0.0 
-3.132806832304e-04 -4.280826354653e-03 0.0 
0.0 0.0 0.0 
1.460925977710e-04 -1.122688394822e-05 0.0 
-1.122688394822e-05 6.624933761898e-03 0.0 
0.0 0.0 0.0 
3.808160574994e-04 2.689815157203e-03 0.0 
2.689815157203e-03 6.898070314156e-03 0.0 
0.0 0.0 0.0 
1.346114965432e-03 1.915439832223e-03 0.0 
1.915439832223e-03 5.616450217603e-03 0.0 
0.0 0.0 0.0 
1.894436113394e-04 2.715425247730e-03 0.0 
2.715425247730e-03 9.260902780589e-03 0.0 
0.0 0.0 0.0 
8.916700938297e-04 -7.302032271998e-05 0.0 
-7.302032271998e-05 -4.684644913105e-03 0.0 
0.0 0.0 0.0 
8.409272777392e-04 7.071596936840e-05 0.0 
7.071596936840e-05 5.099011757677e-03 0.0 
0.0 0.0 0.0 
1.634307299425e-03 2.423066256945e-03 0.0 
2.423066256945e-03 1.253794245175e-03 0.0 
0.0 0.0 0.0 
-1.485160975129e-03 8.216529446689e-04 0.0 
8.216529446689e-04 1.281837432537e-02 0.0 
0.0 0.0 0.0 
5.739613385023e-04 -5.148261817587e-04 0.0 
-5.148261817587e-04 3.919013499852e-03 0.0 
0.0 0.0 0.0 
2.456722915392e-03 9.816219184205e-04 0.0 
9.816219184205e-04 1.083026696248e-03 0.0 
0.0 0.0 0.0 
3.154423597060e-04 -3.526265311678e-06 0.0 
-3.526265311678e-06 6.036280253758e-03 0.0 
0.0 0.0 0.0 
1.147677662725e-03 2.427248522686e-03 0.0 
2.427248522686e-03 5.403388798813e-03 0.0 
0.0 0.0 0.0 
2.547725023591e-03 9.726189465379e-04 0.0 
9.726189465379e-04 3.575083348293e-04 0.0 
0.0 0.0 0.0 
2.316556781599e-04 2.651361184384e-03 0.0 
2.651361184384e-03 7.687448083114e-03 0.0 
0.0 0.0 0.0 
1.701649590494e-03 -1.821713722228e-03 0.0 
-1.821713722228e-03 -4.007609257935e-03 0.0 
0.0 0.0 0.0 
2.378936063465e-04 2.601172134946e-03 0.0 
2.601172134946e-03 8.445702840144e-03 0.0 
0.0 0.0 0.0 
1.364217599927e-03 1.600667819022e-03 0.0 
1.600667819022e-03 5.544969576665e-03 0.0 
0.0 0.0 0.0 
-3.225632053347e-04 2.679578890255e-03 0.0 
2.679578890255e-03 1.137810287124e-02 0.0 
0.0 0.0 0.0 
2.123706995498e-04 2.614772916711e-03 0.0 
2.614772916711e-03 8.846086107966e-03 0.0 
0.0 0.0 0.0 
2.676165892996e-03 3.493698554820e-04 0.0 
3.493698554820e-04 -1.123234063362e-03 0.0 
0.0 0.0 0.0 
4.966231336361e-04 -1.152499335800e-04 0.0 
-1.152499335800e-04 5.257699372507e-03 0.0 
0.0 0.0 0.0 
-4.859261055329e-04 9.567108506775e-04 0.0 
9.567108506775e-04 1.419055668179e-02 0.0 
0.0 0.0 0.0 
4.445489639058e-04 2.266662514662e-03 0.0 
2.266662514662e-03 7.954897759634e-03 0.0 
0.0 0.0 0.0 
1.175485749497e-03 1.839459878072e-03 0.0 
1.839459878072e-03 6.160362673197e-03 0.0 
0.0 0.0 0.0 
2.038448381394e-03 1.681737699254e-03 0.0 
1.681737699254e-03 2.568053933495e-03 0.0 
0.0 0.0 0.0 
2.438387341710e-04 2.615195197004e-03 0.0 
2.615195197004e-03 8.061212485456e-03 0.0 
0.0 0.0 0.0 
1.754054061698e-04 1.391406163218e-05 0.0 
1.391406163218e-05 6.368249485237e-03 0.0 
0.0 0.0 0.0 
4.995779522554e-05 -1.776106773322e-04 0.0 
-1.776106773322e-04 4.225735448597e-03 0.0 
0.0 0.0 0.0 
3.941924549233e-04 2.604861234905e-03 0.0 
2.604861234905e-03 8.114969168372e-03 0.0 
0.0 0.0 0.0 
-1.202243016914e-03 7.566472779010e-04 0.0 
7.566472779010e-04 1.304695065892e-02 0.0 
0.0 0.0 0.0 
4.259530662720e-04 -9.517018685562e-06 0.0 
-9.517018685562e-06 5.739574249732e-03 0.0 
0.0 0.0 0.0 
7.419240553457e-04 1.225510672119e-04 0.0 
1.225510672119e-04 5.314260431946e-03 0.0 
0.0 0.0 0.0 
-9.698185199345e-04 3.885462971145e-06 0.0 
3.885462971145e-06 1.152912747316e-02 0.0 
0.0 0.0 0.0 
-9.576918307649e-04 6.759155399607e-06 0.0 
6.759155399607e-06 1.152048876900e-02 0.0 
0.0 0.0 0.0 
-1.307897025363e-03 1.931505694959e-03 0.0 
1.931505694959e-03 1.189109456432e-02 0.0 
0.0 0.0 0.0 
4.042368109347e-04 2.610278785394e-03 0.0 
2.610278785394e-03 7.697836958723e-03 0.0 
0.0 0.0 0.0 
4.600314416638e-04 -4.268171191327e-04 0.0 
-4.268171191327e-04 4.236473888101e-03 0.0 
0.0 0.0 0.0 
-6.841746101888e-04 2.484210814227e-03 0.0 
2.484210814227e-03 1.021627275783e-02 0.0 
0.0 0.0 0.0 
1.402410970699e-03 2.300756498038e-03 0.0 
2.300756498038e-03 4.631665593260e-03 0.0 
0.0 0.0 0.0 
9.870612127252e-04 1.179395450540e-03 0.0 
1.179395450540e-03 5.972907900353e-03 0.0 
0.0 0.0 0.0 
1.950249087667e-03 1.999580445677e-03 0.0 
1.999580445677e-03 2.521036169710e-03 0.0 
0.0 0.0 0.0 
-2.802645250740e-04 1.525393825911e-03 0.0 
1.525393825911e-03 1.430336356599e-02 0.0 
0.0 0.0 0.0 
-1.574536148236e-03 9.663685588482e-04 0.0 
9.663685588482e-04 1.180405139680e-02 0.0 
0.0 0.0 0.0 
1.289668229190e-03 2.324898712629e-03 0.0 
2.324898712629e-03 4.939788283480e-03 0.0 
0.0 0.0 0.0 
7.476557788637e-04 -4.616997232678e-04 0.0 
-4.616997232678e-04 3.909316817400e-03 0.0 
0.0 0.0 0.0 
2.598553700398e-03 1.054144444851e-03 0.0 
1.054144444851e-03 -1.113969196690e-03 0.0 
0.0 0.0 0.0 
6.683173342137e-04 -7.731349699563e-04 0.0 
-7.731349699563e-04 3.178052628885e-03 0.0 
0.0 0.0 0.0 
4.007934674521e-04 2.641251955885e-03 0.0 
2.641251955885e-03 7.291498849091e-03 0.0 
0.0 0.0 0.0 
-1.523277390577e-04 2.675865428813e-03 0.0 
2.675865428813e-03 8.112173680919e-03 0.0 
0.0 0.0 0.0 
-1.300539490895e-03 9.786601637301e-04 0.0 
9.786601637301e-04 1.286628072944e-02 0.0 
0.0 0.0 0.0 
-4.607096384517e-04 2.527533839959e-03 0.0 
2.527533839959e-03 9.852805782662e-03 0.0 
0.0 0.0 0.0 
-5.932224898766e-04 2.502628361257e-03 0.0 
2.502628361257e-03 1.047964505943e-02 0.0 
0.0 0.0 0.0 
2.808507921799e-04 -9.188057782312e-05 0.0 
-9.188057782312e-05 9.652766450943e-04 0.0 
0.0 0.0 0.0 
6.744109847832e-04 -7.698431372089e-04 0.0 
-7.698431372089e-04 3.138224788701e-03 0.0 
0.0 0.0 0.0 
-3.234133826453e-04 2.807342017052e-03 0.0 
2.807342017052e-03 7.217855939417e-03 0.0 
0.0 0.0 0.0 
-9.390039037527e-04 2.264126727646e-03 0.0 
2.264126727646e-03 1.059444339659e-02 0.0 
0.0 0.0 0.0 
-1.050367610576e-03 2.252824610650e-03 0.0 
2.252824610650e-03 1.113395743949e-02 0.0 
0.0 0.0 0.0 
1.111844957371e-03 1.682444533179e-03 0.0 
1.682444533179e-03 6.170929037801e-03 0.0 
0.0 0.0 0.0 
7.323413512528e-05 -1.555485690231e-05 0.0 
-1.555485690231e-05 1.664371528554e-03 0.0 
0.0 0.0 0.0 
2.471467345004e-03 -1.498718405881e-03 0.0 
-1.498718405881e-03 -3.049777473791e-03 0.0 
0.0 0.0 0.0 
6.410578310734e-04 2.679192270060e-03 0.0 
2.679192270060e-03 6.093039402215e-03 0.0 
0.0 0.0 0.0 
4.961163112498e-04 -8.012689445717e-04 0.0 
-8.012689445717e-04 3.143976227493e-03 0.0 
0.0 0.0 0.0 
-1.770980577554e-03 8.481962803156e-04 0.0 
8.481962803156e-04 1.104412152720e-02 0.0 
0.0 0.0 0.0 
-1.720293478920e-03 7.427611031161e-04 0.0 
7.427611031161e-04 1.128818281714e-02 0.0 
0.0 0.0 0.0 
-1.472809858803e-03 1.045699714133e-03 0.0 
1.045699714133e-03 1.285901109901e-02 0.0 
0.0 0.0 0.0 
1.363891719371e-03 2.716530676522e-03 0.0 
2.716530676522e-03 -6.545675066992e-04 0.0 
0.0 0.0 0.0 
5.975320326308e-04 -5.182825654193e-04 0.0 
-5.182825654193e-04 3.831131466911e-03 0.0 
0.0 0.0 0.0 
1.408865909474e-03 7.955964692942e-04 0.0 
7.955964692942e-04 4.742171920496e-03 0.0 
0.0 0.0 0.0 
2.796939426782e-03 -4.753747810262e-04 0.0 
-4.753747810262e-04 -3.273113358542e-03 0.0 
0.0 0.0 0.0 
8.878415583102e-05 2.797858472208e-03 0.0 
2.797858472208e-03 9.841776911040e-03 0.0 
0.0 0.0 0.0 
-9.391341993894e-04 1.044392598851e-03 0.0 
1.044392598851e-03 1.380338523797e-02 0.0 
0.0 0.0 0.0 
3.215779835486e-04 -5.548278096762e-04 0.0 
-5.548278096762e-04 3.756149222902e-03 0.0 
0.0 0.0 0.0 
4.838122739557e-04 -2.495289676406e-05 0.0 
-2.495289676406e-05 5.550912837516e-03 0.0 
0.0 0.0 0.0 
2.098791060350e-04 -1.015477648011e-04 0.0 
-1.015477648011e-04 6.621346823428e-04 0.0 
0.0 0.0 0.0 
1.445291590696e-03 5.266458499354e-04 0.0 
5.266458499354e-04 4.360600584369e-03 0.0 
0.0 0.0 0.0 
4.919532816117e-04 2.635186856308e-03 0.0 
2.635186856308e-03 6.905461762612e-03 0.0 
0.0 0.0 0.0 
2.694384589759e-04 -7.754880668355e-05 0.0 
-7.754880668355e-05 6.355023329578e-04 0.0 
0.0 0.0 0.0 
-7.816164508336e-04 1.040762636827e-03 0.0 
1.040762636827e-03 1.380339625061e-02 0.0 
0.0 0.0 0.0 
2.723043871045e-03 -6.396898294051e-04 0.0 
-6.396898294051e-04 -3.589419245501e-03 0.0 
0.0 0.0 0.0 
-9.354443802372e-04 2.367104168479e-03 0.0 
2.367104168479e-03 1.057868994478e-02 0.0 
0.0 0.0 0.0 
-5.658634842587e-05 2.680621267433e-03 0.0 
2.680621267433e-03 8.111098774624e-03 0.0 
0.0 0.0 0.0 
1.970740145451e-03 -2.232288490395e-04 0.0 
-2.232288490395e-04 1.918712084429e-03 0.0 
0.0 0.0 0.0 
1.523429019898e-03 -5.028041090699e-05 0.0 
-5.028041090699e-05 3.535995115267e-03 0.0 
0.0 0.0 0.0 
-7.269453407032e-04 1.224669339901e-03 0.0 
1.224669339901e-03 1.383077189247e-02 0.0 
0.0 0.0 0.0 
1.404688421604e-03 1.355305992323e-04 0.0 
1.355305992323e-04 4.085460900654e-03 0.0 
0.0 0.0 0.0 
9.120014489123e-04 2.567242381399e-03 0.0 
2.567242381399e-03 5.715978999216e-03 0.0 
0.0 0.0 0.0 
7.612173564668e-04 2.588938913225e-03 0.0 
2.588938913225e-03 6.105684739135e-03 0.0 
0.0 0.0 0.0 
-1.642131750867e-03 2.832549703234e-03 0.0 
2.832549703234e-03 9.614838442518e-04 0.0 
0.0 0.0 0.0 
2.581052867866e-03 -4.324268737207e-04 0.0 
-4.324268737207e-04 -3.843179407448e-03 0.0 
0.0 0.0 0.0 
3.745428623274e-04 2.592183096929e-03 0.0 
2.592183096929e-03 8.544894539705e-03 0.0 
0.0 0.0 0.0 
-1.628238461201e-03 1.195465114926e-03 0.0 
1.195465114926e-03 1.231919588491e-02 0.0 
0.0 0.0 0.0 
5.027595644693e-04 2.613641664330e-03 0.0 
2.613641664330e-03 8.305361232884e-03 0.0 
0.0 0.0 0.0 
1.399281979626e-03 2.774043837747e-03 0.0 
2.774043837747e-03 1.201985308972e-03 0.0 
0.0 0.0 0.0 
-9.837641526599e-04 1.876804948625e-03 0.0 
1.876804948625e-03 1.251815806225e-02 0.0 
0.0 0.0 0.0 
1.705821365650e-04 2.673209283000e-03 0.0 
2.673209283000e-03 9.264003046797e-03 0.0 
0.0 0.0 0.0 
-1.612820481951e-03 8.370679828916e-04 0.0 
8.370679828916e-04 1.132267897101e-02 0.0 
0.0 0.0 0.0 
3.603179709772e-04 2.620365045179e-03 0.0 
2.620365045179e-03 8.540091348744e-03 0.0 
0.0 0.0 0.0 
3.804253178874e-04 -8.902122303166e-05 0.0 
-8.902122303166e-05 5.561693676404e-03 0.0 
0.0 0.0 0.0 
6.424983045661e-04 2.572604816916e-03 0.0 
2.572604816916e-03 6.940222505539e-03 0.0 
0.0 0.0 0.0 
7.279405799545e-04 -6.162645816801e-04 0.0 
-6.162645816801e-04 3.510675449471e-03 0.0 
0.0 0.0 0.0 
7.019445919025e-04 -6.067492423102e-04 0.0 
-6.067492423102e-04 3.582106057466e-03 0.0 
0.0 0.0 0.0 
-8.559722827325e-04 1.750274643047e-03 0.0 
1.750274643047e-03 1.350499625163e-02 0.0 
0.0 0.0 0.0 
1.610337593473e-03 -2.510120007757e-04 0.0 
-2.510120007757e-04 3.002333903469e-03 0.0 
0.0 0.0 0.0 
1.333224232911e-04 2.677273436929e-03 0.0 
2.677273436929e-03 7.684367547177e-03 0.0 
0.0 0.0 0.0 
1.809411043776e-03 1.905650780112e-03 0.0 
1.905650780112e-03 3.728591851761e-03 0.0 
0.0 0.0 0.0 
1.246696685307e-03 3.027307371711e-04 0.0 
3.027307371711e-04 4.651725988912e-03 0.0 
0.0 0.0 0.0 
1.551712357049e-03 2.160619244289e-03 0.0 
2.160619244289e-03 4.140721500924e-03 0.0 
0.0 0.0 0.0 
2.718111561478e-03 4.262268408349e-04 0.0 
4.262268408349e-04 -9.875295408892e-04 0.0 
0.0 0.0 0.0 
2.077265422682e-03 5.829945599817e-04 0.0 
5.829945599817e-04 2.833890580392e-03 0.0 
0.0 0.0 0.0 
2.619039764840e-03 9.944571732604e-04 0.0 
9.944571732604e-04 -4.099161522723e-04 0.0 
0.0 0.0 0.0 
-7.028793257785e-04 2.421368134400e-03 0.0 
2.421368134400e-03 1.022532857081e-02 0.0 
0.0 0.0 0.0 
2.590006299238e-03 3.964363234636e-04 0.0 
3.964363234636e-04 -3.168475284258e-04 0.0 
0.0 0.0 0.0 
-5.059629722266e-04 2.569352522784e-03 0.0 
2.569352522784e-03 9.559756378176e-03 0.0 
0.0 0.0 0.0 
1.133725566592e-03 1.695059603932e-03 0.0 
1.695059603932e-03 6.162221996511e-03 0.0 
0.0 0.0 0.0 
1.361110521487e-03 1.601915795864e-03 0.0 
1.601915795864e-03 5.555315254351e-03 0.0 
0.0 0.0 0.0 
1.700709565065e-03 2.209535044676e-03 0.0 
2.209535044676e-03 3.312068120094e-03 0.0 
0.0 0.0 0.0 
-1.381576778361e-03 1.018981630624e-03 0.0 
1.018981630624e-03 1.260472766887e-02 0.0 
0.0 0.0 0.0 
3.632730061831e-04 -6.904819662828e-06 0.0 
-6.904819662828e-06 5.842182532368e-03 0.0 
0.0 0.0 0.0 
2.811392386839e-04 -6.719119921093e-05 0.0 
-6.719119921093e-05 5.852395541747e-03 0.0 
0.0 0.0 0.0 
7.244266716984e-04 2.866149470347e-03 0.0 
2.866149470347e-03 -7.531685631208e-04 0.0 
0.0 0.0 0.0 
-2.942332714883e-04 2.590258050549e-03 0.0 
2.590258050549e-03 9.170560515121e-03 0.0 
0.0 0.0 0.0 
1.873637079712e-04 7.031708025121e-05 0.0 
7.031708025121e-05 6.605861587204e-03 0.0 
0.0 0.0 0.0 
-1.016074576869e-03 2.512766456786e-03 0.0 
2.512766456786e-03 7.420302065840e-03 0.0 
0.0 0.0 0.0 
3.508727132500e-04 -4.508010049777e-04 0.0 
-4.508010049777e-04 4.133833014290e-03 0.0 
0.0 0.0 0.0 
-1.876509250617e-03 2.872099556302e-03 0.0 
2.872099556302e-03 1.689841018628e-03 0.0 
0.0 0.0 0.0 
2.615382162636e-04 7.453455753657e-06 0.0 
7.453455753657e-06 6.117190738598e-03 0.0 
0.0 0.0 0.0 
2.667776168971e-03 1.063892220269e-03 0.0 
1.063892220269e-03 -1.233468014733e-03 0.0 
0.0 0.0 0.0 
6.512389008528e-05 -1.082051346041e-04 0.0 
-1.082051346041e-04 4.388656335000e-03 0.0 
0.0 0.0 0.0 
1.355435302790e-03 2.090988565348e-03 0.0 
2.090988565348e-03 5.595454980324e-03 0.0 
0.0 0.0 0.0 
-1.563275430290e-03 1.106235869809e-03 0.0 
1.106235869809e-03 1.259416309100e-02 0.0 
0.0 0.0 0.0 
-1.473326691215e-03 1.081755856818e-03 0.0 
1.081755856818e-03 1.233334664222e-02 0.0 
0.0 0.0 0.0 
6.512893963240e-04 2.618450853111e-03 0.0 
2.618450853111e-03 6.510841394602e-03 0.0 
0.0 0.0 0.0 
-1.885863581232e-03 1.199124961242e-03 0.0 
1.199124961242e-03 1.054162537542e-02 0.0 
0.0 0.0 0.0 
-1.810357932810e-03 1.003853235436e-03 0.0 
1.003853235436e-03 1.080746851744e-02 0.0 
0.0 0.0 0.0 
1.997982333646e-04 -5.035703157267e-05 0.0 
-5.035703157267e-05 6.127095934321e-03 0.0 
0.0 0.0 0.0 
1.392178944842e-03 1.782607890056e-05 0.0 
1.782607890056e-05 3.767987693863e-03 0.0 
0.0 0.0 0.0 
1.877276704416e-03 -1.641206092156e-05 0.0 
-1.641206092156e-05 2.533857423682e-03 0.0 
0.0 0.0 0.0 
1.596697815494e-03 7.088057968106e-04 0.0 
7.088057968106e-04 4.337314390648e-03 0.0 
0.0 0.0 0.0 
2.216863530302e-03 4.512484437053e-04 0.0 
4.512484437053e-04 2.196811522080e-03 0.0 
0.0 0.0 0.0 
2.556510423549e-03 9.688143703074e-04 0.0 
9.688143703074e-04 -3.506526443877e-04 0.0 
0.0 0.0 0.0 
-1.506012458503e-03 7.057321445872e-04 0.0 
7.057321445872e-04 1.064940498840e-02 0.0 
0.0 0.0 0.0 
-1.695951619890e-03 1.024010581771e-03 0.0 
1.024010581771e-03 1.206655339445e-02 0.0 
0.0 0.0 0.0 
-9.726707398457e-04 3.233696997248e-06 0.0 
3.233696997248e-06 1.152938784356e-02 0.0 
0.0 0.0 0.0 
1.307084742888e-03 1.450595845995e-03 0.0 
1.450595845995e-03 5.577020106229e-03 0.0 
0.0 0.0 0.0 
1.803451849823e-03 1.948816553363e-03 0.0 
1.948816553363e-03 3.349312459532e-03 0.0 
0.0 0.0 0.0 
7.539022741234e-04 2.135921151561e-03 0.0 
2.135921151561e-03 7.333963081338e-03 0.0 
0.0 0.0 0.0 
8.791818291076e-05 9.417861175540e-07 0.0 
9.417861175540e-07 6.216026080321e-03 0.0 
0.0 0.0 0.0 
2.056840404149e-03 5.086903913694e-04 0.0 
5.086903913694e-04 2.660453761780e-03 0.0 
0.0 0.0 0.0 
1.436551546143e-04 4.154365901297e-05 0.0 
4.154365901297e-05 6.827288332454e-03 0.0 
0.0 0.0 0.0 
2.493504168239e-03 -7.857805521011e-05 0.0 
-7.857805521011e-05 -9.866631406785e-05 0.0 
0.0 0.0 0.0 
7.885811973452e-04 2.248748594774e-03 0.0 
2.248748594774e-03 7.350693411613e-03 0.0 
0.0 0.0 0.0 
7.568422501132e-04 2.532223847428e-03 0.0 
2.532223847428e-03 6.523218100051e-03 0.0 
0.0 0.0 0.0 
8.493091409079e-04 2.473623885254e-03 0.0 
2.473623885254e-03 6.636717684734e-03 0.0 
0.0 0.0 0.0 
1.019708036328e-03 8.417891136149e-04 0.0 
8.417891136149e-04 5.625166907380e-03 0.0 
0.0 0.0 0.0 
6.102928354741e-04 -1.255621631736e-03 0.0 
-1.255621631736e-03 2.087878711899e-03 0.0 
0.0 0.0 0.0 
-9.435148827297e-05 2.646538894231e-03 0.0 
2.646538894231e-03 8.446445620986e-03 0.0 
0.0 0.0 0.0 
2.048319560926e-03 1.453711717928e-04 0.0 
1.453711717928e-04 2.244381864121e-03 0.0 
0.0 0.0 0.0 
-2.929440826521e-04 2.636689185480e-03 0.0 
2.636689185480e-03 8.854482934824e-03 0.0 
0.0 0.0 0.0 
1.333724723873e-03 2.583913741471e-03 0.0 
2.583913741471e-03 2.218715889138e-03 0.0 
0.0 0.0 0.0 
1.022657670603e-03 2.375543686642e-03 0.0 
2.375543686642e-03 6.415660732026e-03 0.0 
0.0 0.0 0.0 
2.192069798223e-03 8.185947313995e-05 0.0 
8.185947313995e-05 1.868534445539e-03 0.0 
0.0 0.0 0.0 
6.095149891687e-04 -3.835409567447e-04 0.0 
-3.835409567447e-04 4.228263951399e-03 0.0 
0.0 0.0 0.0 
-3.708626695736e-04 2.600850998472e-03 0.0 
2.600850998472e-03 8.859618672474e-03 0.0 
0.0 0.0 0.0 
-1.028119671216e-03 3.422991557922e-03 0.0 
3.422991557922e-03 -5.037251560867e-04 0.0 
0.0 0.0 0.0 
1.700428216390e-03 1.894494837912e-03 0.0 
1.894494837912e-03 4.330909667428e-03 0.0 
0.0 0.0 0.0 
-1.127156607977e-03 3.109958023728e-03 0.0 
3.109958023728e-03 1.510132595028e-03 0.0 
0.0 0.0 0.0 
-5.664423480223e-05 -3.291433373828e-04 0.0 
-3.291433373828e-04 1.165111374568e-03 0.0 
0.0 0.0 0.0 
4.815148182813e-04 -4.245864765872e-04 0.0 
-4.245864765872e-04 4.128240263139e-03 0.0 
0.0 0.0 0.0 
-1.701239074265e-04 2.632304756638e-03 0.0 
2.632304756638e-03 9.839326620187e-03 0.0 
0.0 0.0 0.0 
-1.423742153537e-03 1.323321144955e-03 0.0 
1.323321144955e-03 1.225553680104e-02 0.0 
0.0 0.0 0.0 
-1.970062746739e-03 1.786254163371e-03 0.0 
1.786254163371e-03 9.749989537415e-03 0.0 
0.0 0.0 0.0 
0.0 1.563878102153e-03 0.0 
1.563878102153e-03 1.424150813698e-02 0.0 
0.0 0.0 0.0 
-1.731025149098e-03 2.847449551669e-03 0.0 
2.847449551669e-03 2.911521786264e-04 0.0 
0.0 0.0 0.0 
-1.917822451154e-03 1.461662367483e-03 0.0 
1.461662367483e-03 1.021291620570e-02 0.0 
0.0 0.0 0.0 
1.903638494922e-03 9.842361426652e-05 0.0 
9.842361426652e-05 2.814571620660e-03 0.0 
0.0 0.0 0.0 
2.499984345807e-04 -4.462651934498e-04 0.0 
-4.462651934498e-04 4.033093284041e-03 0.0 
0.0 0.0 0.0 
-1.653524189960e-03 1.955238999504e-03 0.0 
1.955238999504e-03 1.026880838610e-02 0.0 
0.0 0.0 0.0 
2.186550746656e-03 -7.399038080086e-04 0.0 
-7.399038080086e-04 4.626202019591e-04 0.0 
0.0 0.0 0.0 
1.493014672343e-03 -1.851143962055e-04 0.0 
-1.851143962055e-04 3.199841372390e-03 0.0 
0.0 0.0 0.0 
4.944812591772e-04 2.587804570413e-03 0.0 
2.587804570413e-03 7.298979953184e-03 0.0 
0.0 0.0 0.0 
1.566078298151e-03 1.905189834198e-03 0.0 
1.905189834198e-03 4.935126643200e-03 0.0 
0.0 0.0 0.0 
-4.925203296312e-04 2.480698552867e-03 0.0 
2.480698552867e-03 1.132137251716e-02 0.0 
0.0 0.0 0.0 
1.438871144189e-03 2.941788013623e-03 0.0 
2.941788013623e-03 -2.005986724278e-03 0.0 
0.0 0.0 0.0 
4.512660153735e-04 -5.392603750498e-04 0.0 
-5.392603750498e-04 3.752966901943e-03 0.0 
0.0 0.0 0.0 
2.793924232101e-04 -3.378623605466e-04 0.0 
-3.378623605466e-04 4.291285162136e-03 0.0 
0.0 0.0 0.0 
4.275035521184e-05 -1.152645548126e-03 0.0 
-1.152645548126e-03 1.951154532574e-03 0.0 
0.0 0.0 0.0 
-1.593774807269e-03 7.651899497434e-04 0.0 
7.651899497434e-04 1.159039398812e-02 0.0 
0.0 0.0 0.0 
-1.565872380650e-03 1.448134708406e-03 0.0 
1.448134708406e-03 1.223873652611e-02 0.0 
0.0 0.0 0.0 
6.827853875668e-05 -4.232558964094e-05 0.0 
-4.232558964094e-05 5.620929235742e-03 0.0 
0.0 0.0 0.0 
3.798130658565e-04 -9.588186232632e-05 0.0 
-9.588186232632e-05 5.822219125158e-04 0.0 
0.0 0.0 0.0 
1.084243235754e-04 -6.387002062728e-04 0.0 
-6.387002062728e-04 -4.536315365786e-03 0.0 
0.0 0.0 0.0 
-2.140256736194e-04 -1.008834345832e-03 0.0 
-1.008834345832e-03 1.510017519063e-03 0.0 
0.0 0.0 0.0 
1.900969147905e-04 -3.478400902225e-04 0.0 
-3.478400902225e-04 4.293511585329e-03 0.0 
0.0 0.0 0.0 
2.404520190694e-03 7.403933785131e-05 0.0 
7.403933785131e-05 6.379245231125e-04 0.0 
0.0 0.0 0.0 
2.111724398870e-03 -9.495320773311e-04 0.0 
-9.495320773311e-04 1.125346714703e-06 0.0 
0.0 0.0 0.0 
2.573436938639e-03 -2.360930788706e-04 0.0 
-2.360930788706e-04 -8.876918672954e-04 0.0 
0.0 0.0 0.0 
3.799943822345e-04 -3.366227773169e-04 0.0 
-3.366227773169e-04 4.408864419365e-03 0.0 
0.0 0.0 0.0 
-1.206282822945e-03 1.814495707603e-03 0.0 
1.814495707603e-03 1.191292996131e-02 0.0 
0.0 0.0 0.0 
2.126824308579e-04 -2.502650617887e-04 0.0 
-2.502650617887e-04 4.534973795639e-03 0.0 
0.0 0.0 0.0 
2.541061448212e-03 5.409898219369e-04 0.0 
5.409898219369e-04 5.607121632074e-04 0.0 
0.0 0.0 0.0 
-2.424689478522e-04 2.611371169405e-03 0.0 
2.611371169405e-03 9.167593783182e-03 0.0 
0.0 0.0 0.0 
-1.256105510929e-03 3.099691107913e-04 0.0 
3.099691107913e-04 1.222206230776e-02 0.0 
0.0 0.0 0.0 
1.190341342852e-03 2.116417147762e-03 0.0 
2.116417147762e-03 6.193895544824e-03 0.0 
0.0 0.0 0.0 
1.417562336841e-04 -2.598113602636e-04 0.0 
-2.598113602636e-04 4.537065851311e-03 0.0 
0.0 0.0 0.0 
2.712584650562e-04 -3.585734071841e-04 0.0 
-3.585734071841e-04 4.413545797656e-03 0.0 
0.0 0.0 0.0 
-1.692501818757e-03 2.125770022996e-03 0.0 
2.125770022996e-03 8.221955212047e-03 0.0 
0.0 0.0 0.0 
2.244300142497e-03 -2.299288159695e-04 0.0 
-2.299288159695e-04 9.362181578636e-04 0.0 
0.0 0.0 0.0 
1.581303275513e-04 -1.719592555840e-04 0.0 
-1.719592555840e-04 4.763629604250e-03 0.0 
0.0 0.0 0.0 
-8.116167562978e-04 5.334686821002e-05 0.0 
5.334686821002e-05 1.296201468435e-02 0.0 
0.0 0.0 0.0 
-8.764286583490e-04 4.590677979314e-05 0.0 
4.590677979314e-05 1.260937381823e-02 0.0 
0.0 0.0 0.0 
-1.790015960359e-03 2.099600903762e-03 0.0 
2.099600903762e-03 9.059396684110e-03 0.0 
0.0 0.0 0.0 
2.931478330002e-04 -2.554659884055e-04 0.0 
-2.554659884055e-04 4.672846088730e-03 0.0 
0.0 0.0 0.0 
1.511093964697e-03 -1.460611232062e-03 0.0 
-1.460611232062e-03 5.217531348980e-04 0.0 
0.0 0.0 0.0 
-4.956226352490e-04 3.265331254120e-03 0.0 
3.265331254120e-03 1.450144756955e-03 0.0 
0.0 0.0 0.0 
7.447551253701e-04 2.141573503263e-03 0.0 
2.141573503263e-03 7.375466890047e-03 0.0 
0.0 0.0 0.0 
-4.733118689703e-04 -1.315242869984e-03 0.0 
-1.315242869984e-03 1.353903289642e-03 0.0 
0.0 0.0 0.0 
1.623461560005e-03 -1.204020616261e-03 0.0 
-1.204020616261e-03 1.041867669418e-03 0.0 
0.0 0.0 0.0 
1.630116748149e-03 1.888888521925e-03 0.0 
1.888888521925e-03 4.468747283611e-03 0.0 
0.0 0.0 0.0 
-1.592011665341e-03 1.141598103778e-03 0.0 
1.141598103778e-03 9.937719960886e-03 0.0 
0.0 0.0 0.0 
1.045901585002e-04 -1.826898451518e-04 0.0 
-1.826898451518e-04 4.767125902548e-03 0.0 
0.0 0.0 0.0 
-8.238716558640e-06 -5.910661209179e-05 0.0 
-5.910661209179e-05 2.284281220073e-03 0.0 
0.0 0.0 0.0 
-1.730015350190e-03 8.123056750139e-04 0.0 
8.123056750139e-04 1.181487820920e-02 0.0 
0.0 0.0 0.0 
2.048754679429e-04 -2.760349359925e-04 0.0 
-2.760349359925e-04 4.677112516413e-03 0.0 
0.0 0.0 0.0 
1.768891400338e-03 -3.412659639125e-04 0.0 
-3.412659639125e-04 2.276109564147e-03 0.0 
0.0 0.0 0.0 
4.437916533344e-04 -5.513536774397e-04 0.0 
-5.513536774397e-04 3.837467490255e-03 0.0 
0.0 0.0 0.0 
-3.457242975757e-05 2.610002148090e-03 0.0 
2.610002148090e-03 -2.178018212206e-03 0.0 
0.0 0.0 0.0 
-5.351091860178e-04 3.656902855573e-05 0.0 
3.656902855573e-05 1.398315525560e-02 0.0 
0.0 0.0 0.0 
1.850121330572e-03 -8.271722887443e-04 0.0 
-8.271722887443e-04 1.112382963518e-03 0.0 
0.0 0.0 0.0 
1.175166745596e-03 1.353228866321e-03 0.0 
1.353228866321e-03 5.842139084240e-03 0.0 
0.0 0.0 0.0 
9.120003003351e-04 2.381961671836e-03 0.0 
2.381961671836e-03 6.653157111178e-03 0.0 
0.0 0.0 0.0 
2.204487925395e-04 -1.830263188929e-04 0.0 
-1.830263188929e-04 4.920667978955e-03 0.0 
0.0 0.0 0.0 
1.511809938015e-04 -2.012567922951e-04 0.0 
-2.012567922951e-04 4.924315950158e-03 0.0 
0.0 0.0 0.0 
2.540083857369e-03 4.426981939509e-05 0.0 
4.426981939509e-05 1.633874683695e-04 0.0 
0.0 0.0 0.0 
-7.843090168711e-04 -1.257509629816e-03 0.0 
-1.257509629816e-03 9.722369855372e-04 0.0 
0.0 0.0 0.0 
1.639901061123e-04 3.058542394539e-03 0.0 
3.058542394539e-03 -2.268741547479e-03 0.0 
0.0 0.0 0.0 
1.607402107640e-04 -1.199664062469e-04 0.0 
-1.199664062469e-04 5.156303916840e-03 0.0 
0.0 0.0 0.0 
1.131844860210e-03 9.895824087612e-04 0.0 
9.895824087612e-04 5.630443765334e-03 0.0 
0.0 0.0 0.0 
9.110337992360e-04 -1.574751320284e-03 0.0 
-1.574751320284e-03 1.200783537758e-03 0.0 
0.0 0.0 0.0 
-4.269977559990e-05 2.628762994257e-03 0.0 
2.628762994257e-03 8.796093803420e-03 0.0 
0.0 0.0 0.0 
-8.609189384170e-04 2.578546501461e-03 0.0 
2.578546501461e-03 6.635524124158e-03 0.0 
0.0 0.0 0.0 
-4.356934470334e-04 2.564756789273e-03 0.0 
2.564756789273e-03 9.847475710207e-03 0.0 
0.0 0.0 0.0 
4.743213947893e-04 6.065292877806e-04 0.0 
6.065292877806e-04 6.821280924162e-03 0.0 
0.0 0.0 0.0 
-4.428416741130e-03 -1.183894555156e-04 0.0 
-1.183894555156e-04 -2.913185403375e-03 0.0 
0.0 0.0 0.0 
0.0 1.416334210731e-04 0.0 
1.416334210731e-04 1.479324018883e-02 0.0 
0.0 0.0 0.0 
0.0 9.105743118472e-06 0.0 
9.105743118472e-06 7.612574555145e-03 0.0 
0.0 0.0 0.0 
-9.316817637917e-04 -3.149262411813e-05 0.0 
-3.149262411813e-05 1.196483773627e-02 0.0 
0.0 0.0 0.0 
1.350206777748e-03 -1.148415312347e-03 0.0 
-1.148415312347e-03 1.535683350858e-03 0.0 
0.0 0.0 0.0 
7.266840567621e-04 2.494227116281e-03 0.0 
2.494227116281e-03 6.952599094111e-03 0.0 
0.0 0.0 0.0 
2.496314292058e-03 4.666538576428e-04 0.0 
4.666538576428e-04 4.386009923041e-04 0.0 
0.0 0.0 0.0 
9.482344165646e-05 -2.898845182724e-04 0.0 
-2.898845182724e-04 9.706352247647e-04 0.0 
0.0 0.0 0.0 
-1.977684222932e-03 2.994172964568e-03 0.0 
2.994172964568e-03 9.623851608302e-04 0.0 
0.0 0.0 0.0 
-5.002885174568e-04 4.246703542112e-04 0.0 
4.246703542112e-04 1.423849880874e-02 0.0 
0.0 0.0 0.0 
-1.459420329398e-03 1.701046579314e-03 0.0 
1.701046579314e-03 1.209479228421e-02 0.0 
0.0 0.0 0.0 
-1.707716590367e-03 6.728355292648e-04 0.0 
6.728355292648e-04 1.153133056703e-02 0.0 
0.0 0.0 0.0 
1.465784860903e-04 3.088296799963e-03 0.0 
3.088296799963e-03 9.889592878700e-03 0.0 
0.0 0.0 0.0 
4.350206972559e-05 -4.829477127905e-05 0.0 
-4.829477127905e-05 1.888498551733e-03 0.0 
0.0 0.0 0.0 
1.818235985338e-04 2.963890228990e-03 0.0 
2.963890228990e-03 9.497016620992e-03 0.0 
0.0 0.0 0.0 
-1.335545253825e-03 1.580579793902e-03 0.0 
1.580579793902e-03 1.211445109399e-02 0.0 
0.0 0.0 0.0 
8.746343081918e-04 -1.209266902710e-03 0.0 
-1.209266902710e-03 2.028177708653e-03 0.0 
0.0 0.0 0.0 
8.908334292137e-04 2.510564157979e-03 0.0 
2.510564157979e-03 6.170854190039e-03 0.0 
0.0 0.0 0.0 
1.376255087797e-03 -1.180432362043e-03 0.0 
-1.180432362043e-03 1.549167896959e-03 0.0 
0.0 0.0 0.0 
-6.024960896611e-04 3.169509372184e-03 0.0 
3.169509372184e-03 2.399058439142e-03 0.0 
0.0 0.0 0.0 
1.034120926657e-03 -1.328312432802e-03 0.0 
-1.328312432802e-03 1.659603637265e-03 0.0 
0.0 0.0 0.0 
-1.042152414614e-03 2.032518781774e-03 0.0 
2.032518781774e-03 1.165737273565e-02 0.0 
0.0 0.0 0.0 
7.462544499259e-05 -4.395216562441e-05 0.0 
-4.395216562441e-05 6.419758727366e-03 0.0 
0.0 0.0 0.0 
1.930086428814e-03 -8.860353712353e-04 0.0 
-8.860353712353e-04 9.857007450740e-04 0.0 
0.0 0.0 0.0 
-2.217203143022e-04 2.598867064815e-03 0.0 
2.598867064815e-03 9.492810299081e-03 0.0 
0.0 0.0 0.0 
-1.583522111859e-03 -2.578140194776e-04 0.0 
-2.578140194776e-04 -4.400949504656e-03 0.0 
0.0 0.0 0.0 
2.368303704309e-03 -2.832013199943e-04 0.0 
-2.832013199943e-04 5.856368205515e-04 0.0 
0.0 0.0 0.0 
-1.264405769301e-03 1.732615720758e-03 0.0 
1.732615720758e-03 1.266577229206e-02 0.0 
0.0 0.0 0.0 
5.584204908526e-04 -1.213253834680e-03 0.0 
-1.213253834680e-03 2.152391233682e-03 0.0 
0.0 0.0 0.0 
5.665119533373e-04 -1.612566816583e-03 0.0 
-1.612566816583e-03 1.369867002527e-03 0.0 
0.0 0.0 0.0 
9.833630516412e-04 2.403285184928e-03 0.0 
2.403285184928e-03 6.187816748974e-03 0.0 
0.0 0.0 0.0 
1.039861127126e-03 -2.298089741646e-03 0.0 
-2.298089741646e-03 -1.176515859921e-03 0.0 
0.0 0.0 0.0 
-1.685650259706e-03 2.191211408068e-03 0.0 
2.191211408068e-03 6.789976077875e-03 0.0 
0.0 0.0 0.0 
-1.674033008884e-03 2.287644297507e-03 0.0 
2.287644297507e-03 7.512183540030e-03 0.0 
0.0 0.0 0.0 
3.687858479275e-04 -1.337593327152e-03 0.0 
-1.337593327152e-03 1.892523074948e-03 0.0 
0.0 0.0 0.0 
1.687296050643e-03 -1.247320484392e-04 0.0 
-1.247320484392e-04 2.858327025687e-03 0.0 
0.0 0.0 0.0 
1.653918621971e-03 2.144853815900e-03 0.0 
2.144853815900e-03 3.873328372189e-03 0.0 
0.0 0.0 0.0 
-1.993812223194e-04 2.606224223683e-03 0.0 
2.606224223683e-03 9.491897894685e-03 0.0 
0.0 0.0 0.0 
-4.200093949006e-04 2.404431547413e-03 0.0 
2.404431547413e-03 1.229154839070e-02 0.0 
0.0 0.0 0.0 
-1.483600636806e-03 1.925158063758e-03 0.0 
1.925158063758e-03 8.261571001360e-03 0.0 
0.0 0.0 0.0 
-7.327999234498e-04 1.092228236221e-05 0.0 
1.092228236221e-05 1.332353686108e-02 0.0 
0.0 0.0 0.0 
-3.147185603947e-05 2.748364027336e-03 0.0 
2.748364027336e-03 1.053828996995e-02 0.0 
0.0 0.0 0.0 
2.636361339587e-03 4.747696918320e-04 0.0 
4.747696918320e-04 -1.864344362564e-04 0.0 
0.0 0.0 0.0 
-1.033517376030e-03 3.104827912567e-03 0.0 
3.104827912567e-03 1.509915658779e-03 0.0 
0.0 0.0 0.0 
-1.052350828141e-03 2.644915241153e-03 0.0 
2.644915241153e-03 7.397121093646e-03 0.0 
0.0 0.0 0.0 
1.564611960680e-03 -4.031574625094e-04 0.0 
-4.031574625094e-04 2.645802698171e-03 0.0 
0.0 0.0 0.0 
-5.806438769692e-04 2.463808238824e-03 0.0 
2.463808238824e-03 1.048450965432e-02 0.0 
0.0 0.0 0.0 
1.811548506656e-03 -1.957538029416e-04 0.0 
-1.957538029416e-04 2.612912038674e-03 0.0 
0.0 0.0 0.0 
1.030086719040e-03 2.725052589551e-03 0.0 
2.725052589551e-03 -1.798066215928e-03 0.0 
0.0 0.0 0.0 
1.576971218749e-03 7.494003989547e-05 0.0 
7.494003989547e-05 3.439291271213e-03 0.0 
0.0 0.0 0.0 
-7.288150027618e-04 3.093141548137e-03 0.0 
3.093141548137e-03 3.301888897211e-03 0.0 
0.0 0.0 0.0 
1.731735280688e-03 1.907792654355e-03 0.0 
1.907792654355e-03 3.906783046562e-03 0.0 
0.0 0.0 0.0 
1.717219066911e-03 4.751370182343e-06 0.0 
4.751370182343e-06 3.169242057745e-03 0.0 
0.0 0.0 0.0 
1.091697603165e-03 2.387761296485e-03 0.0 
2.387761296485e-03 5.904625472622e-03 0.0 
0.0 0.0 0.0 
-8.832479886635e-04 9.213649007199e-05 0.0 
9.213649007199e-05 1.288622571376e-02 0.0 
0.0 0.0 0.0 
2.145166835494e-04 -1.319644966531e-03 0.0 
-1.319644966531e-03 1.890790754001e-03 0.0 
0.0 0.0 0.0 
-3.013492732652e-04 3.299330385258e-03 0.0 
3.299330385258e-03 4.243957036134e-04 0.0 
0.0 0.0 0.0 
1.595045377843e-03 1.924190041423e-04 0.0 
1.924190041423e-04 3.740711149320e-03 0.0 
0.0 0.0 0.0 
-7.178123187581e-04 2.920394261947e-03 0.0 
2.920394261947e-03 4.119878469570e-03 0.0 
0.0 0.0 0.0 
3.192940326466e-04 8.507063934858e-04 0.0 
8.507063934858e-04 -4.692455233444e-03 0.0 
0.0 0.0 0.0 
-3.420625768918e-04 9.101752820986e-05 0.0 
9.101752820986e-05 1.429024286882e-02 0.0 
0.0 0.0 0.0 
-4.965167289472e-04 8.048754427161e-05 0.0 
8.048754427161e-05 1.398487833026e-02 0.0 
0.0 0.0 0.0 
-4.606149808235e-04 -3.654619516652e-04 0.0 
-3.654619516652e-04 5.870492975064e-04 0.0 
0.0 0.0 0.0 
1.439865523211e-03 2.638617157920e-04 0.0 
2.638617157920e-04 4.031525212923e-03 0.0 
0.0 0.0 0.0 
-1.019544870959e-04 -1.122606470920e-03 0.0 
-1.122606470920e-03 1.721648921100e-03 0.0 
0.0 0.0 0.0 
-8.486690047271e-05 -1.026071534583e-03 0.0 
-1.026071534583e-03 1.956987246887e-03 0.0 
0.0 0.0 0.0 
-1.565193695486e-04 2.634218970977e-03 0.0 
2.634218970977e-03 9.839190364571e-03 0.0 
0.0 0.0 0.0 
1.158928189076e-03 2.250591206319e-03 0.0 
2.250591206319e-03 5.922936147920e-03 0.0 
0.0 0.0 0.0 
-1.266234933017e-06 2.640273773731e-03 0.0 
2.640273773731e-03 9.159694396012e-03 0.0 
0.0 0.0 0.0 
2.089763358139e-03 -6.827645536451e-04 0.0 
-6.827645536451e-04 6.614998837877e-04 0.0 
0.0 0.0 0.0 
-1.009256490890e-03 1.776920222560e-05 0.0 
1.776920222560e-05 1.154222994883e-02 0.0 
0.0 0.0 0.0 
2.072875961350e-04 4.263453195179e-04 0.0 
4.263453195179e-04 6.837527287567e-03 0.0 
0.0 0.0 0.0 
-2.447132873504e-04 -9.595861135432e-04 0.0 
-9.595861135432e-04 1.699977899502e-03 0.0 
0.0 0.0 0.0 
1.199790411073e-03 1.319500263462e-03 0.0 
1.319500263462e-03 5.650680476655e-03 0.0 
0.0 0.0 0.0 
1.490482237884e-03 2.112618335725e-03 0.0 
2.112618335725e-03 4.661886651472e-03 0.0 
0.0 0.0 0.0 
9.462193571341e-05 -1.286907960179e-04 0.0 
-1.286907960179e-04 1.397758863894e-03 0.0 
0.0 0.0 0.0 
-8.031196673566e-04 2.318297977143e-03 0.0 
2.318297977143e-03 1.081937229062e-02 0.0 
0.0 0.0 0.0 
2.446860124440e-03 1.816664347842e-04 0.0 
1.816664347842e-04 8.637013174040e-04 0.0 
0.0 0.0 0.0 
-7.457220939449e-04 -1.320866182283e-03 0.0 
-1.320866182283e-03 7.935623167783e-04 0.0 
0.0 0.0 0.0 
2.429507000359e-03 -4.817317227799e-04 0.0 
-4.817317227799e-04 -6.863511194377e-05 0.0 
0.0 0.0 0.0 
7.030316801115e-05 1.000755180929e-05 0.0 
1.000755180929e-05 5.452542140780e-03 0.0 
0.0 0.0 0.0 
-1.120988724427e-03 2.138752534362e-03 0.0 
2.138752534362e-03 1.163360254239e-02 0.0 
0.0 0.0 0.0 
-3.788300186363e-04 -1.352352062897e-03 0.0 
-1.352352062897e-03 1.095941818725e-03 0.0 
0.0 0.0 0.0 
3.679452329575e-05 -9.734224672875e-05 0.0 
-9.734224672875e-05 4.386643102843e-03 0.0 
0.0 0.0 0.0 
-3.654988023635e-04 2.567463675090e-03 0.0 
2.567463675090e-03 1.015627195437e-02 0.0 
0.0 0.0 0.0 
9.632382484812e-04 2.174397589666e-03 0.0 
2.174397589666e-03 6.866650130990e-03 0.0 
0.0 0.0 0.0 
6.901229446510e-04 -1.380961753841e-03 0.0 
-1.380961753841e-03 1.781238080686e-03 0.0 
0.0 0.0 0.0 
-2.146704895034e-05 -9.009803212915e-05 0.0 
-9.009803212915e-05 2.283596990714e-03 0.0 
0.0 0.0 0.0 
1.581138837975e-03 2.103340364959e-03 0.0 
2.103340364959e-03 4.439364340793e-03 0.0 
0.0 0.0 0.0 
-8.416104870852e-04 -3.015705346735e-05 0.0 
-3.015705346735e-05 1.275723401172e-02 0.0 
0.0 0.0 0.0 
-6.348007067489e-04 -1.836941736317e-03 0.0 
-1.836941736317e-03 3.992548826601e-04 0.0 
0.0 0.0 0.0 
1.398331686442e-06 3.017670263494e-03 0.0 
3.017670263494e-03 1.055102893120e-02 0.0 
0.0 0.0 0.0 
-2.828748732507e-04 2.249943269513e-03 0.0 
2.249943269513e-03 1.307895752396e-02 0.0 
0.0 0.0 0.0 
-9.090490296723e-04 -1.529867686608e-05 0.0 
-1.529867686608e-05 1.220955948441e-02 0.0 
0.0 0.0 0.0 
-5.622001503017e-04 1.124891002729e-03 0.0 
1.124891002729e-03 1.424604469140e-02 0.0 
0.0 0.0 0.0 
-2.028653304067e-04 2.558359159693e-03 0.0 
2.558359159693e-03 1.242660066106e-02 0.0 
0.0 0.0 0.0 
2.153337247705e-03 -5.050098695708e-04 0.0 
-5.050098695708e-04 1.051671767786e-03 0.0 
0.0 0.0 0.0 
1.586165348878e-03 -1.163564676902e-03 0.0 
-1.163564676902e-03 1.039320283037e-03 0.0 
0.0 0.0 0.0 
6.498385993920e-04 1.769063602168e-03 0.0 
1.769063602168e-03 7.301483932135e-03 0.0 
0.0 0.0 0.0 
-1.364603288732e-03 3.701445725787e-04 0.0 
3.701445725787e-04 -4.283728177852e-03 0.0 
0.0 0.0 0.0 
7.631905737604e-06 -1.507181500333e-05 0.0 
-1.507181500333e-05 2.075760015113e-03 0.0 
0.0 0.0 0.0 
4.796935903761e-05 -3.293019600017e-05 0.0 
-3.293019600017e-05 4.493950835962e-03 0.0 
0.0 0.0 0.0 
4.547163430859e-04 -1.414099066620e-03 0.0 
-1.414099066620e-03 1.789087592912e-03 0.0 
0.0 0.0 0.0 
1.898305174949e-03 -1.154551346257e-03 0.0 
-1.154551346257e-03 4.803620454839e-04 0.0 
0.0 0.0 0.0 
-1.786559038926e-03 2.350349946608e-03 0.0 
2.350349946608e-03 5.397865462568e-03 0.0 
0.0 0.0 0.0 
-1.796315716462e-03 2.479107189446e-03 0.0 
2.479107189446e-03 6.082411853420e-03 0.0 
0.0 0.0 0.0 
-1.251130255126e-03 2.210186100275e-04 0.0 
2.210186100275e-04 1.227729625404e-02 0.0 
0.0 0.0 0.0 
2.315830316131e-03 -4.366691922439e-04 0.0 
-4.366691922439e-04 2.450026707284e-04 0.0 
0.0 0.0 0.0 
-4.706591122494e-05 -2.721096998145e-04 0.0 
-2.721096998145e-04 2.423276510725e-03 0.0 
0.0 0.0 0.0 
9.168302965774e-04 2.386615820847e-03 0.0 
2.386615820847e-03 6.949538304198e-03 0.0 
0.0 0.0 0.0 
1.324094673387e-04 2.327958289594e-04 0.0 
2.327958289594e-04 7.431914519564e-03 0.0 
0.0 0.0 0.0 
1.574697644582e-04 3.175927508758e-04 0.0 
3.175927508758e-04 7.370799787386e-03 0.0 
0.0 0.0 0.0 
1.677086983574e-03 -9.435872194973e-04 0.0 
-9.435872194973e-04 1.495194632016e-03 0.0 
0.0 0.0 0.0 
-1.329183991456e-03 2.570844923721e-04 0.0 
2.570844923721e-04 1.196691872409e-02 0.0 
0.0 0.0 0.0 
-1.525638338206e-03 -1.720787782234e-05 0.0 
-1.720787782234e-05 -3.786332106847e-03 0.0 
0.0 0.0 0.0 
-1.928897743437e-03 2.666019717155e-03 0.0 
2.666019717155e-03 4.000146107225e-03 0.0 
0.0 0.0 0.0 
9.865384161438e-04 -2.695029629177e-03 0.0 
-2.695029629177e-03 -1.917148788391e-03 0.0 
0.0 0.0 0.0 
-1.911915334857e-03 2.546505200184e-03 0.0 
2.546505200184e-03 4.742159804119e-03 0.0 
0.0 0.0 0.0 
1.398242264980e-03 2.082229921550e-03 0.0 
2.082229921550e-03 5.187598839444e-03 0.0 
0.0 0.0 0.0 
1.253700014315e-03 -1.431561865602e-03 0.0 
-1.431561865602e-03 1.181534645370e-03 0.0 
0.0 0.0 0.0 
1.844062017354e-03 -1.106061830070e-03 0.0 
-1.106061830070e-03 5.230679359023e-04 0.0 
0.0 0.0 0.0 
5.741087787605e-04 -2.707497597794e-03 0.0 
-2.707497597794e-03 -3.091825127199e-03 0.0 
0.0 0.0 0.0 
-4.321124271733e-04 1.235601282545e-04 0.0 
1.235601282545e-04 1.404684573147e-02 0.0 
0.0 0.0 0.0 
1.266794143341e-03 -1.421231393333e-03 0.0 
-1.421231393333e-03 1.075131701021e-03 0.0 
0.0 0.0 0.0 
-4.095774697559e-04 4.558339712311e-04 0.0 
4.558339712311e-04 1.423311470096e-02 0.0 
0.0 0.0 0.0 
-6.099598953303e-04 1.448928268358e-04 0.0 
1.448928268358e-04 1.378289768464e-02 0.0 
0.0 0.0 0.0 
-1.659656962493e-04 2.013667677617e-04 0.0 
2.013667677617e-04 1.478080654948e-02 0.0 
0.0 0.0 0.0 
1.683820459353e-05 1.192427608552e-05 0.0 
1.192427608552e-05 7.611625797963e-03 0.0 
0.0 0.0 0.0 
-9.199906703363e-04 3.628188616918e-05 0.0 
3.628188616918e-05 1.222156263960e-02 0.0 
0.0 0.0 0.0 
1.052766581219e-03 -1.329847315111e-03 0.0 
-1.329847315111e-03 1.576855115967e-03 0.0 
0.0 0.0 0.0 
-1.440049132658e-03 2.136984905282e-03 0.0 
2.136984905282e-03 6.784037440702e-03 0.0 
0.0 0.0 0.0 
1.157747810959e-03 -1.106775561973e-03 0.0 
-1.106775561973e-03 2.009017151883e-03 0.0 
0.0 0.0 0.0 
0.0 1.466427162062e-04 0.0 
1.466427162062e-04 7.485504410628e-03 0.0 
0.0 0.0 0.0 
-1.879979186181e-03 2.803877121512e-03 0.0 
2.803877121512e-03 2.457878818891e-03 0.0 
0.0 0.0 0.0 
-1.887369842954e-03 2.732100939380e-03 0.0 
2.732100939380e-03 3.242305356751e-03 0.0 
0.0 0.0 0.0 
1.068056120830e-03 1.573146869501e-03 0.0 
1.573146869501e-03 6.179770824736e-03 0.0 
0.0 0.0 0.0 
-1.153492357965e-03 1.391248874812e-04 0.0 
1.391248874812e-04 1.194135088469e-02 0.0 
0.0 0.0 0.0 
-3.697766246901e-04 3.076502644061e-04 0.0 
3.076502644061e-04 1.427556089254e-02 0.0 
0.0 0.0 0.0 
-3.741767810461e-04 2.578919208413e-03 0.0 
2.578919208413e-03 1.015556033459e-02 0.0 
0.0 0.0 0.0 
8.150833801441e-04 2.335492598318e-03 0.0 
2.335492598318e-03 7.387940960998e-03 0.0 
0.0 0.0 0.0 
-7.903054979770e-04 2.398184513167e-03 0.0 
2.398184513167e-03 1.156851787818e-02 0.0 
0.0 0.0 0.0 
-9.361866449548e-04 9.658816788979e-05 0.0 
9.658816788979e-05 1.231499120057e-02 0.0 
0.0 0.0 0.0 
2.606106086807e-04 -1.536699935250e-03 0.0 
-1.536699935250e-03 1.542945570824e-03 0.0 
0.0 0.0 0.0 
4.652913596384e-04 -1.536747986007e-03 0.0 
-1.536747986007e-03 1.542072658578e-03 0.0 
0.0 0.0 0.0 
-7.628023710786e-04 9.235524898421e-05 0.0 
9.235524898421e-05 1.313886464875e-02 0.0 
0.0 0.0 0.0 
7.375719391831e-04 2.317659486783e-03 0.0 
2.317659486783e-03 7.496747092809e-03 0.0 
0.0 0.0 0.0 
-1.493404110033e-03 3.628620653859e-04 0.0 
3.628620653859e-04 1.160730983539e-02 0.0 
0.0 0.0 0.0 
-9.576970566346e-04 1.360715582029e-05 0.0 
1.360715582029e-05 1.187508374655e-02 0.0 
0.0 0.0 0.0 
-9.464424375021e-04 2.591988906221e-05 0.0 
2.591988906221e-05 1.220912005293e-02 0.0 
0.0 0.0 0.0 
-9.957164011974e-04 4.302848313386e-05 0.0 
4.302848313386e-05 1.233595759666e-02 0.0 
0.0 0.0 0.0 
1.927367538328e-03 -1.429254109347e-03 0.0 
-1.429254109347e-03 -3.329459593458e-03 0.0 
0.0 0.0 0.0 
1.317756476324e-04 -1.414887491622e-03 0.0 
-1.414887491622e-03 1.685192146315e-03 0.0 
0.0 0.0 0.0 
-3.565591779666e-04 6.570346322989e-04 0.0 
6.570346322989e-04 1.448583007172e-02 0.0 
0.0 0.0 0.0 
-9.536357794073e-04 9.601555720716e-05 0.0 
9.601555720716e-05 1.272257406317e-02 0.0 
0.0 0.0 0.0 
4.024225294181e-04 2.235696501979e-03 0.0 
2.235696501979e-03 7.962559200756e-03 0.0 
0.0 0.0 0.0 
-6.137807431073e-04 2.527099976694e-03 0.0 
2.527099976694e-03 1.224313948796e-02 0.0 
0.0 0.0 0.0 
-8.232895584322e-04 2.398400658295e-03 0.0 
2.398400658295e-03 1.080465631535e-02 0.0 
0.0 0.0 0.0 
-7.198612464669e-04 1.170252397235e-03 0.0 
1.170252397235e-03 1.402950310788e-02 0.0 
0.0 0.0 0.0 
4.201519678615e-05 -3.597417327671e-04 0.0 
-3.597417327671e-04 3.301528640199e-03 0.0 
0.0 0.0 0.0 
-1.272128026153e-05 -3.881581395620e-04 0.0 
-3.881581395620e-04 3.004344981359e-03 0.0 
0.0 0.0 0.0 
4.459641419117e-04 4.127310066916e-04 0.0 
4.127310066916e-04 6.386603540350e-03 0.0 
0.0 0.0 0.0 
2.316486775604e-04 -1.725220024283e-03 0.0 
-1.725220024283e-03 -3.617927038336e-03 0.0 
0.0 0.0 0.0 
1.635718769921e-05 -1.081620694182e-04 0.0 
-1.081620694182e-04 2.181712797011e-03 0.0 
0.0 0.0 0.0 
0.0 2.876248643719e-03 0.0 
2.876248643719e-03 9.680225731931e-03 0.0 
0.0 0.0 0.0 
2.376083327851e-04 -2.494761404663e-05 0.0 
-2.494761404663e-05 9.693155982982e-04 0.0 
0.0 0.0 0.0 
-9.435129082799e-04 2.094903357175e-05 0.0 
2.094903357175e-05 1.187871398395e-02 0.0 
0.0 0.0 0.0 
8.862994583838e-04 1.344507269789e-03 0.0 
1.344507269789e-03 6.519409721949e-03 0.0 
0.0 0.0 0.0 
-2.176256757984e-04 -4.046285759988e-04 0.0 
-4.046285759988e-04 6.967623170147e-04 0.0 
0.0 0.0 0.0 
4.475679183336e-04 -1.020083024034e-04 0.0 
-1.020083024034e-04 1.837684506636e-04 0.0 
0.0 0.0 0.0 
-2.438389411954e-04 1.003491982438e-03 0.0 
1.003491982438e-03 1.458540821947e-02 0.0 
0.0 0.0 0.0 
-1.095244701266e-03 4.162981717191e-05 0.0 
4.162981717191e-05 1.157063091863e-02 0.0 
0.0 0.0 0.0 
-3.906213574407e-04 8.933687322360e-04 0.0 
8.933687322360e-04 1.437182951555e-02 0.0 
0.0 0.0 0.0 
6.776307143819e-04 1.550336947787e-03 0.0 
1.550336947787e-03 6.670225405112e-03 0.0 
0.0 0.0 0.0 
-1.081541879740e-03 1.697186585932e-05 0.0 
1.697186585932e-05 1.155796287114e-02 0.0 
0.0 0.0 0.0 
-1.368893175189e-03 5.958694672108e-04 0.0 
5.958694672108e-04 -3.703708247597e-03 0.0 
0.0 0.0 0.0 
-1.779205315935e-04 1.454780033186e-04 0.0 
1.454780033186e-04 1.454723983122e-02 0.0 
0.0 0.0 0.0 
6.089074184534e-05 -2.789396692599e-04 0.0 
-2.789396692599e-04 1.162498707268e-03 0.0 
0.0 0.0 0.0 
-4.069117067268e-04 7.354690420955e-04 0.0 
7.354690420955e-04 1.425713182319e-02 0.0 
0.0 0.0 0.0 
0.0 8.587402565847e-05 0.0 
8.587402565847e-05 7.530791937582e-03 0.0 
0.0 0.0 0.0 
-6.527891177138e-04 2.159506498505e-03 0.0 
2.159506498505e-03 1.290914670476e-02 0.0 
0.0 0.0 0.0 
2.329459557174e-03 -1.336098195912e-03 0.0 
-1.336098195912e-03 -3.076841848773e-03 0.0 
0.0 0.0 0.0 
-1.413570569196e-03 5.121079982092e-04 0.0 
5.121079982092e-04 1.221389153198e-02 0.0 
0.0 0.0 0.0 
-1.745817124099e-05 -2.420948431760e-04 0.0 
-2.420948431760e-04 3.367434442990e-03 0.0 
0.0 0.0 0.0 
9.016497521415e-04 2.249122333480e-03 0.0 
2.249122333480e-03 6.959844873285e-03 0.0 
0.0 0.0 0.0 
2.625790095960e-04 2.442653296051e-03 0.0 
2.442653296051e-03 8.542213449805e-03 0.0 
0.0 0.0 0.0 
-6.818901057806e-04 1.102022039965e-04 0.0 
1.102022039965e-04 1.351712989158e-02 0.0 
0.0 0.0 0.0 
3.280294309200e-04 2.233905716590e-03 0.0 
2.233905716590e-03 8.210691481946e-03 0.0 
0.0 0.0 0.0 
1.257963869849e-03 -1.288793574862e-03 0.0 
-1.288793574862e-03 -4.089429155323e-03 0.0 
0.0 0.0 0.0 
1.444974525262e-04 1.155455854977e-04 0.0 
1.155455854977e-04 7.088764951540e-03 0.0 
0.0 0.0 0.0 
1.808217953562e-03 -1.998492985208e-03 0.0 
-1.998492985208e-03 -1.756075566258e-03 0.0 
0.0 0.0 0.0 
1.732103777963e-04 -1.003433299728e-04 0.0 
-1.003433299728e-04 9.979876688226e-04 0.0 
0.0 0.0 0.0 
5.599688999560e-04 1.120761021557e-03 0.0 
1.120761021557e-03 6.937523783916e-03 0.0 
0.0 0.0 0.0 
-5.668652542716e-04 1.681057880366e-03 0.0 
1.681057880366e-03 1.395085060875e-02 0.0 
0.0 0.0 0.0 
-3.358677142479e-04 1.020926721151e-03 0.0 
1.020926721151e-03 1.439845301736e-02 0.0 
0.0 0.0 0.0 
-9.991946542343e-04 7.897711762085e-05 0.0 
7.897711762085e-05 1.188082103058e-02 0.0 
0.0 0.0 0.0 
-1.538680627437e-03 8.733482122547e-04 0.0 
8.733482122547e-04 1.211438155044e-02 0.0 
0.0 0.0 0.0 
-6.385034416071e-04 3.115805346829e-03 0.0 
3.115805346829e-03 2.396483788313e-03 0.0 
0.0 0.0 0.0 
-3.985022455989e-04 2.728058520015e-03 0.0 
2.728058520015e-03 1.231113382807e-02 0.0 
0.0 0.0 0.0 
-3.515010987565e-05 -1.904043686027e-04 0.0 
-1.904043686027e-04 2.864927471636e-03 0.0 
0.0 0.0 0.0 
3.438624706043e-04 2.883010581005e-03 0.0 
2.883010581005e-03 -8.553079924197e-04 0.0 
0.0 0.0 0.0 
9.916091916351e-04 2.298431906737e-03 0.0 
2.298431906737e-03 6.850149419953e-03 0.0 
0.0 0.0 0.0 
-9.939254633650e-04 8.426009080310e-06 0.0 
8.426009080310e-06 1.151608195106e-02 0.0 
0.0 0.0 0.0 
-5.272035011207e-04 1.614497007950e-03 0.0 
1.614497007950e-03 1.374652104903e-02 0.0 
0.0 0.0 0.0 
-1.374517834724e-04 -1.660411774453e-05 0.0 
-1.660411774453e-05 1.477967480767e-02 0.0 
0.0 0.0 0.0 
0.0 6.872589173600e-05 0.0 
6.872589173600e-05 1.481288304316e-02 0.0 
0.0 0.0 0.0 
7.977834886557e-04 3.029981979458e-05 0.0 
3.029981979458e-05 -2.148314236458e-04 0.0 
0.0 0.0 0.0 
6.583291703632e-04 -2.978614163582e-05 0.0 
-2.978614163582e-05 -1.955490282142e-04 0.0 
0.0 0.0 0.0 
-9.473706895992e-04 -2.858435010597e-05 0.0 
-2.858435010597e-05 1.155044878068e-02 0.0 
0.0 0.0 0.0 
-9.649299018823e-04 4.358948672601e-06 0.0 
4.358948672601e-06 1.150212139541e-02 0.0 
0.0 0.0 0.0 
0.0 5.426458855170e-06 0.0 
5.426458855170e-06 7.627627267878e-03 0.0 
0.0 0.0 0.0 
1.085291771030e-05 2.721338434222e-05 0.0 
2.721338434222e-05 7.573200499194e-03 0.0 
0.0 0.0 0.0 
5.924058466076e-04 8.795927576333e-06 0.0 
8.795927576333e-06 7.570092556741e-05 0.0 
0.0 0.0 0.0 
-1.331450150137e-03 -4.106868800592e-04 0.0 
-4.106868800592e-04 -4.534469708101e-03 0.0 
0.0 0.0 0.0 
9.796672940166e-05 4.704716618318e-05 0.0 
4.704716618318e-05 6.801464098131e-03 0.0 
0.0 0.0 0.0 
4.267744308306e-04 2.761275056149e-03 0.0 
2.761275056149e-03 8.809993228731e-03 0.0 
0.0 0.0 0.0 
1.026888777840e-04 -2.683851277839e-04 0.0 
-2.683851277839e-04 1.336118426112e-03 0.0 
0.0 0.0 0.0 
2.190011962673e-04 1.449652713540e-04 0.0 
1.449652713540e-04 6.684547219326e-03 0.0 
0.0 0.0 0.0 
5.885617134105e-05 -3.430077821094e-05 0.0 
-3.430077821094e-05 4.804000718799e-03 0.0 
0.0 0.0 0.0 
9.857501506172e-06 -6.486191502983e-05 0.0 
-6.486191502983e-05 4.128459242100e-03 0.0 
0.0 0.0 0.0 
-8.903241087895e-04 1.198760710059e-04 0.0 
1.198760710059e-04 1.290344073631e-02 0.0 
0.0 0.0 0.0 
1.809154036336e-05 -2.413893799476e-03 0.0 
-2.413893799476e-03 -2.052882331718e-04 0.0 
0.0 0.0 0.0 
1.042195667895e-03 2.239779060872e-03 0.0 
2.239779060872e-03 6.433070065578e-03 0.0 
0.0 0.0 0.0 
1.331816597598e-04 -2.529566099732e-04 0.0 
-2.529566099732e-04 1.020517188991e-03 0.0 
0.0 0.0 0.0 
5.084943047606e-05 -2.967547673664e-04 0.0 
-2.967547673664e-04 3.676555529456e-03 0.0 
0.0 0.0 0.0 
-3.132423818877e-04 2.557766552195e-03 0.0 
2.557766552195e-03 1.200282869687e-02 0.0 
0.0 0.0 0.0 
-4.383577993696e-04 -2.175439030417e-05 0.0 
-2.175439030417e-05 1.416365655904e-02 0.0 
0.0 0.0 0.0 
3.521198231660e-05 -6.498452400829e-05 0.0 
-6.498452400829e-05 4.126699479668e-03 0.0 
0.0 0.0 0.0 
-9.156551608110e-04 1.151825818156e-05 0.0 
1.151825818156e-05 1.249571709656e-02 0.0 
0.0 0.0 0.0 
9.745032654607e-05 2.910739231263e-03 0.0 
2.910739231263e-03 9.936367746174e-03 0.0 
0.0 0.0 0.0 
-6.101900581259e-04 2.519151757068e-03 0.0 
2.519151757068e-03 1.131639003748e-02 0.0 
0.0 0.0 0.0 
-7.187535805437e-04 2.449630659575e-03 0.0 
2.449630659575e-03 1.105169259688e-02 0.0 
0.0 0.0 0.0 
-1.038921370296e-03 1.983027707795e-05 0.0 
1.983027707795e-05 1.155132145803e-02 0.0 
0.0 0.0 0.0 
1.276394759881e-03 2.082669444890e-03 0.0 
2.082669444890e-03 5.733968918764e-03 0.0 
0.0 0.0 0.0 
-5.293845183333e-04 1.883905409090e-03 0.0 
1.883905409090e-03 1.338024750372e-02 0.0 
0.0 0.0 0.0 
-2.857534401901e-05 -1.793317404742e-04 0.0 
-1.793317404742e-04 2.194135278134e-03 0.0 
0.0 0.0 0.0 
-2.701535374194e-05 -2.969090903530e-04 0.0 
-2.969090903530e-04 3.455007511601e-04 0.0 
0.0 0.0 0.0 
-1.610353549519e-05 2.709007370982e-03 0.0 
2.709007370982e-03 9.903289913298e-03 0.0 
0.0 0.0 0.0 
1.282811531042e-03 1.454776264357e-03 0.0 
1.454776264357e-03 5.641558437692e-03 0.0 
0.0 0.0 0.0 
9.293614590966e-05 -2.362414496317e-03 0.0 
-2.362414496317e-03 -5.673967127439e-04 0.0 
0.0 0.0 0.0 
-8.169169866742e-04 5.029530273285e-05 0.0 
5.029530273285e-05 1.316208848915e-02 0.0 
0.0 0.0 0.0 
4.000757279043e-05 3.900007156685e-05 0.0 
3.900007156685e-05 7.150466513645e-03 0.0 
0.0 0.0 0.0 
3.095956734127e-04 2.658294715646e-03 0.0 
2.658294715646e-03 8.953384976249e-03 0.0 
0.0 0.0 0.0 
2.097735778019e-04 2.858039489630e-03 0.0 
2.858039489630e-03 9.500634104896e-03 0.0 
0.0 0.0 0.0 
6.711207662824e-05 -5.266011901276e-05 0.0 
-5.266011901276e-05 5.196477126517e-03 0.0 
0.0 0.0 0.0 
1.154752817580e-04 2.533310629372e-03 0.0 
2.533310629372e-03 -3.567810575845e-03 0.0 
0.0 0.0 0.0 
-1.621489316871e-03 2.356773277814e-03 0.0 
2.356773277814e-03 5.398110236170e-03 0.0 
0.0 0.0 0.0 
-7.972577684937e-04 2.898323537231e-03 0.0 
2.898323537231e-03 4.119046856312e-03 0.0 
0.0 0.0 0.0 
-1.460299169029e-03 5.481240346709e-04 0.0 
5.481240346709e-04 1.226605327468e-02 0.0 
0.0 0.0 0.0 
1.253746945311e-03 2.249587208610e-03 0.0 
2.249587208610e-03 5.713941415581e-03 0.0 
0.0 0.0 0.0 
-4.229533242395e-04 5.255164303793e-04 0.0 
5.255164303793e-04 1.432694419719e-02 0.0 
0.0 0.0 0.0 
4.072507192476e-04 1.788532049161e-03 0.0 
1.788532049161e-03 7.326709496350e-03 0.0 
0.0 0.0 0.0 
-8.609337239424e-04 -1.711453369437e-03 0.0 
-1.711453369437e-03 3.310153713247e-04 0.0 
0.0 0.0 0.0 
-4.819435750908e-04 -7.900652872028e-04 0.0 
-7.900652872028e-04 6.798094005620e-04 0.0 
0.0 0.0 0.0 
-1.727470294866e-03 2.623434096111e-03 0.0 
2.623434096111e-03 3.996058089825e-03 0.0 
0.0 0.0 0.0 
-7.546492786806e-04 1.884452885071e-04 0.0 
1.884452885071e-04 1.327251005230e-02 0.0 
0.0 0.0 0.0 
-2.934356773077e-05 -3.345798417605e-04 0.0 
-3.345798417605e-04 2.625450015395e-03 0.0 
0.0 0.0 0.0 
-6.134519062636e-04 1.339916922394e-03 0.0 
1.339916922394e-03 1.401993655800e-02 0.0 
0.0 0.0 0.0 
1.809629082772e-04 -1.458624456917e-04 0.0 
-1.458624456917e-04 1.252153014514e-03 0.0 
0.0 0.0 0.0 
7.765912442483e-04 1.724419734496e-03 0.0 
1.724419734496e-03 6.757656568164e-03 0.0 
0.0 0.0 0.0 
-1.138150533444e-03 2.226313888534e-04 0.0 
2.226313888534e-04 1.227557000189e-02 0.0 
0.0 0.0 0.0 
2.517864789062e-04 2.540161013332e-03 0.0 
2.540161013332e-03 8.661542503968e-03 0.0 
0.0 0.0 0.0 
6.848984742187e-04 2.410942919833e-03 0.0 
2.410942919833e-03 7.630456868785e-03 0.0 
0.0 0.0 0.0 
-1.575998479554e-03 6.841104355154e-04 0.0 
6.841104355154e-04 1.224028976392e-02 0.0 
0.0 0.0 0.0 
4.988418911804e-04 7.650022243790e-04 0.0 
7.650022243790e-04 6.851557183120e-03 0.0 
0.0 0.0 0.0 
-4.889457090920e-04 1.550202021211e-03 0.0 
1.550202021211e-03 1.406846501245e-02 0.0 
0.0 0.0 0.0 
-2.880749866816e-04 1.371597340308e-04 0.0 
1.371597340308e-04 1.456279261019e-02 0.0 
0.0 0.0 0.0 
-1.642451062503e-03 2.744079273145e-03 0.0 
2.744079273145e-03 2.454637374366e-03 0.0 
0.0 0.0 0.0 
-5.617882793681e-04 1.169815659572e-03 0.0 
1.169815659572e-03 1.402930948691e-02 0.0 
0.0 0.0 0.0 
-1.934866967890e-05 2.850877565015e-03 0.0 
2.850877565015e-03 1.076060821963e-02 0.0 
0.0 0.0 0.0 
8.839855088938e-04 1.695981466070e-03 0.0 
1.695981466070e-03 6.764805151456e-03 0.0 
0.0 0.0 0.0 
8.060214890913e-04 2.426378386309e-03 0.0 
2.426378386309e-03 7.470731506690e-03 0.0 
0.0 0.0 0.0 
0.0 2.892782632956e-04 0.0 
2.892782632956e-04 7.410499113645e-03 0.0 
0.0 0.0 0.0 
-6.490778357713e-04 2.398779457716e-03 0.0 
2.398779457716e-03 1.105832118037e-02 0.0 
0.0 0.0 0.0 
-1.472105792794e-03 1.808073796084e-03 0.0 
1.808073796084e-03 -2.428963606299e-03 0.0 
0.0 0.0 0.0 
-1.872181870506e-04 3.199681005986e-03 0.0 
3.199681005986e-03 4.208007665201e-04 0.0 
0.0 0.0 0.0 
-6.263892249665e-04 2.503776324884e-03 0.0 
2.503776324884e-03 1.180068331345e-02 0.0 
0.0 0.0 0.0 
-1.354337321123e-03 6.078874525618e-04 0.0 
6.078874525618e-04 1.252180707732e-02 0.0 
0.0 0.0 0.0 
5.145364186987e-05 -2.315389564322e-05 0.0 
-2.315389564322e-05 6.849876291879e-03 0.0 
0.0 0.0 0.0 
5.290058799647e-04 2.472791696767e-03 0.0 
2.472791696767e-03 8.119534791424e-03 0.0 
0.0 0.0 0.0 
1.315679717870e-04 2.035130343197e-04 0.0 
2.035130343197e-04 7.029076550774e-03 0.0 
0.0 0.0 0.0 
-6.582503845498e-04 2.289373600514e-04 0.0 
2.289373600514e-04 1.363824762700e-02 0.0 
0.0 0.0 0.0 
2.477784263824e-04 2.405597881967e-03 0.0 
2.405597881967e-03 8.348816181292e-03 0.0 
0.0 0.0 0.0 
4.921100351649e-04 5.710572748983e-04 0.0 
5.710572748983e-04 6.429723971297e-03 0.0 
0.0 0.0 0.0 
5.669319234991e-04 6.656504807333e-04 0.0 
6.656504807333e-04 6.420980817086e-03 0.0 
0.0 0.0 0.0 
-3.389492171668e-05 -2.323052480692e-04 0.0 
-2.323052480692e-04 2.747699378434e-03 0.0 
0.0 0.0 0.0 
1.183091741859e-04 1.587247034531e-04 0.0 
1.587247034531e-04 7.473385318112e-03 0.0 
0.0 0.0 0.0 
-1.275432175260e-03 2.310599857499e-04 0.0 
2.310599857499e-04 1.190468096997e-02 0.0 
0.0 0.0 0.0 
-4.275879017980e-04 2.664979333257e-04 0.0 
2.664979333257e-04 1.428084455761e-02 0.0 
0.0 0.0 0.0 
-5.761137718148e-04 -9.216494120746e-04 0.0 
-9.216494120746e-04 8.749523380183e-04 0.0 
0.0 0.0 0.0 
-5.377524413454e-04 1.159784528893e-04 0.0 
1.159784528893e-04 1.405363418597e-02 0.0 
0.0 0.0 0.0 
-8.282795652874e-04 1.102581562760e-04 0.0 
1.102581562760e-04 1.319072989431e-02 0.0 
0.0 0.0 0.0 
4.109502233611e-04 6.839656601608e-06 0.0 
6.839656601608e-06 5.744821588989e-04 0.0 
0.0 0.0 0.0 
2.232418607846e-03 -1.613735032531e-03 0.0 
-1.613735032531e-03 -3.661423907225e-03 0.0 
0.0 0.0 0.0 
-4.554870128954e-04 2.527869976497e-03 0.0 
2.527869976497e-03 1.077817674646e-02 0.0 
0.0 0.0 0.0 
-2.450834089436e-04 7.813110591024e-04 0.0 
7.813110591024e-04 1.444637019907e-02 0.0 
0.0 0.0 0.0 
-3.893813886943e-04 1.213661411099e-04 0.0 
1.213661411099e-04 1.432487033384e-02 0.0 
0.0 0.0 0.0 
5.912961948300e-04 2.413543972758e-03 0.0 
2.413543972758e-03 7.957467197079e-03 0.0 
0.0 0.0 0.0 
-9.433205830491e-04 1.476859640082e-04 0.0 
1.476859640082e-04 1.251718842057e-02 0.0 
0.0 0.0 0.0 
2.734760294076e-04 -1.140270666872e-04 0.0 
-1.140270666872e-04 2.365978118055e-04 0.0 
0.0 0.0 0.0 
7.358814455849e-04 1.918662093537e-03 0.0 
1.918662093537e-03 -3.975343984419e-03 0.0 
0.0 0.0 0.0 
-1.099157377926e-05 -1.742981594557e-04 0.0 
-1.742981594557e-04 4.246892718882e-04 0.0 
0.0 0.0 0.0 
-4.543229673323e-04 -1.016686705808e-03 0.0 
-1.016686705808e-03 9.683580529707e-04 0.0 
0.0 0.0 0.0 
-1.406393205706e-03 3.398017284899e-03 0.0 
3.398017284899e-03 -1.781559300853e-03 0.0 
0.0 0.0 0.0 
1.475855691679e-05 -2.549855565381e-04 0.0 
-2.549855565381e-04 3.628316777666e-03 0.0 
0.0 0.0 0.0 
7.401692554398e-05 2.998385557543e-05 0.0 
2.998385557543e-05 6.848744066185e-03 0.0 
0.0 0.0 0.0 
-5.545822982527e-04 2.191668252337e-03 0.0 
2.191668252337e-03 1.291321302717e-02 0.0 
0.0 0.0 0.0 
-1.643950618288e-03 9.548771857142e-04 0.0 
9.548771857142e-04 1.234451405404e-02 0.0 
0.0 0.0 0.0 
2.382128168832e-05 -4.488436112607e-04 0.0 
-4.488436112607e-04 3.103821284699e-03 0.0 
0.0 0.0 0.0 
4.324827737765e-04 3.372399850309e-04 0.0 
3.372399850309e-04 6.412817961048e-03 0.0 
0.0 0.0 0.0 
9.166794909650e-04 1.146003826940e-03 0.0 
1.146003826940e-03 6.267557142708e-03 0.0 
0.0 0.0 0.0 
4.148468891871e-04 2.744255308772e-03 0.0 
2.744255308772e-03 8.807188175672e-03 0.0 
0.0 0.0 0.0 
-6.573552871592e-06 2.736685720964e-03 0.0 
2.736685720964e-03 1.021865106467e-02 0.0 
0.0 0.0 0.0 
-3.337767565865e-04 2.613451045251e-03 0.0 
2.613451045251e-03 1.108039829664e-02 0.0 
0.0 0.0 0.0 
-5.729054747136e-04 -7.159141342453e-04 0.0 
-7.159141342453e-04 8.462534193432e-04 0.0 
0.0 0.0 0.0 
5.620805076474e-04 -1.586637362533e-03 0.0 
-1.586637362533e-03 -4.039174078356e-03 0.0 
0.0 0.0 0.0 
8.922938269884e-05 -2.119297857263e-06 0.0 
-2.119297857263e-06 6.817570896659e-03 0.0 
0.0 0.0 0.0 
3.043304985686e-04 -2.609175655354e-05 0.0 
-2.609175655354e-05 6.023486644935e-04 0.0 
0.0 0.0 0.0 
3.080144565721e-04 6.564582399698e-06 0.0 
6.564582399698e-06 7.585060326707e-04 0.0 
0.0 0.0 0.0 
-8.694490464043e-04 3.199434911810e-03 0.0 
3.199434911810e-03 -4.617921356755e-04 0.0 
0.0 0.0 0.0 
2.515249249879e-05 -2.769523189115e-04 0.0 
-2.769523189115e-04 7.006376990832e-04 0.0 
0.0 0.0 0.0 
2.494522353371e-04 6.808302791044e-04 0.0 
6.808302791044e-04 6.849755585462e-03 0.0 
0.0 0.0 0.0 
-1.746509887224e-04 2.759553217336e-03 0.0 
2.759553217336e-03 1.171571001092e-02 0.0 
0.0 0.0 0.0 
-3.678253429477e-04 5.521598379044e-04 0.0 
5.521598379044e-04 1.432843379072e-02 0.0 
0.0 0.0 0.0 
1.844242567020e-04 2.666151288392e-03 0.0 
2.666151288392e-03 9.041417265090e-03 0.0 
0.0 0.0 0.0 
9.202075883377e-04 1.083510682251e-03 0.0 
1.083510682251e-03 5.985262743729e-03 0.0 
0.0 0.0 0.0 
-8.985167984435e-04 1.587648470965e-04 0.0 
1.587648470965e-04 1.272825651323e-02 0.0 
0.0 0.0 0.0 
0.0 1.078379582126e-03 0.0 
1.078379582126e-03 1.456052042125e-02 0.0 
0.0 0.0 0.0 
1.270860870627e-03 -2.516100197604e-03 0.0 
-2.516100197604e-03 -1.773616355418e-03 0.0 
0.0 0.0 0.0 
-1.052242962036e-03 2.803575634575e-05 0.0 
2.803575634575e-05 1.152598211391e-02 0.0 
0.0 0.0 0.0 
-6.778015010217e-04 -2.430674476166e-03 0.0 
-2.430674476166e-03 -1.018197589608e-05 0.0 
0.0 0.0 0.0 
2.569742684897e-04 -6.836718351672e-05 0.0 
-6.836718351672e-05 2.611212431933e-04 0.0 
0.0 0.0 0.0 
7.015741276306e-05 6.773958594646e-05 0.0 
6.773958594646e-05 7.533705160216e-03 0.0 
0.0 0.0 0.0 
-1.530898699878e-03 5.533588114927e-04 0.0 
5.533588114927e-04 1.185726022697e-02 0.0 
0.0 0.0 0.0 
2.685383498466e-04 -1.248233995662e-04 0.0 
-1.248233995662e-04 9.222937982543e-04 0.0 
0.0 0.0 0.0 
-2.927140694942e-06 -1.703867238742e-04 0.0 
-1.703867238742e-04 3.537584317160e-03 0.0 
0.0 0.0 0.0 
-2.618552588224e-04 2.868973954360e-03 0.0 
2.868973954360e-03 1.190119348959e-02 0.0 
0.0 0.0 0.0 
-5.295464724269e-04 7.241852759581e-04 0.0 
7.241852759581e-04 1.426361035447e-02 0.0 
0.0 0.0 0.0 
-3.061750554495e-04 1.716995372088e-03 0.0 
1.716995372088e-03 1.387571181336e-02 0.0 
0.0 0.0 0.0 
-2.361991939848e-05 -1.329537140869e-04 0.0 
-1.329537140869e-04 2.539601161126e-03 0.0 
0.0 0.0 0.0 
8.378706450163e-04 2.427505392822e-04 0.0 
2.427505392822e-04 -4.463838885398e-03 0.0 
0.0 0.0 0.0 
2.319918198004e-04 2.219452493470e-04 0.0 
2.219452493470e-04 6.985601445735e-03 0.0 
0.0 0.0 0.0 
-1.485636853542e-04 1.059214951240e-04 0.0 
1.059214951240e-04 1.480555773142e-02 0.0 
0.0 0.0 0.0 
7.199109573364e-06 -6.192741292993e-07 0.0 
-6.192741292993e-07 7.622236986366e-03 0.0 
0.0 0.0 0.0 
-9.415756675900e-04 2.608354744538e-05 0.0 
2.608354744538e-05 1.180590509485e-02 0.0 
0.0 0.0 0.0 
6.410586478658e-04 1.203817621363e-03 0.0 
1.203817621363e-03 6.442336984341e-03 0.0 
0.0 0.0 0.0 
1.675830354706e-04 -1.391568302698e-04 0.0 
-1.391568302698e-04 1.017543597545e-03 0.0 
0.0 0.0 0.0 
-5.045966964666e-04 1.343232909885e-03 0.0 
1.343232909885e-03 1.402002687548e-02 0.0 
0.0 0.0 0.0 
2.185078317245e-04 -8.542876825521e-05 0.0 
-8.542876825521e-05 2.721353017454e-04 0.0 
0.0 0.0 0.0 
2.932014962862e-04 1.006939060080e-03 0.0 
1.006939060080e-03 6.919661557414e-03 0.0 
0.0 0.0 0.0 
-5.133873028408e-04 1.892177621950e-03 0.0 
1.892177621950e-03 1.372787068820e-02 0.0 
0.0 0.0 0.0 
4.148566670543e-04 1.170617957711e-03 0.0 
1.170617957711e-03 -4.694383874798e-03 0.0 
0.0 0.0 0.0 
2.948645870551e-04 2.669875683815e-03 0.0 
2.669875683815e-03 8.949666655532e-03 0.0 
0.0 0.0 0.0 
-7.327037415894e-04 1.137054397494e-04 0.0 
1.137054397494e-04 1.346111470881e-02 0.0 
0.0 0.0 0.0 
-1.903837061220e-04 5.724660692712e-04 0.0 
5.724660692712e-04 1.451901749518e-02 0.0 
0.0 0.0 0.0 
0.0 2.252364703874e-03 0.0 
2.252364703874e-03 8.405322771670e-03 0.0 
0.0 0.0 0.0 
-8.168879030684e-04 -9.006182846715e-06 0.0 
-9.006182846715e-06 1.296126643263e-02 0.0 
0.0 0.0 0.0 
-1.658688194245e-04 2.692073017403e-03 0.0 
2.692073017403e-03 1.210347713880e-02 0.0 
0.0 0.0 0.0 
-6.791817542184e-04 1.644171000946e-03 0.0 
1.644171000946e-03 1.374079478327e-02 0.0 
0.0 0.0 0.0 
-7.450869411446e-04 9.265752479516e-05 0.0 
9.265752479516e-05 1.318705015977e-02 0.0 
0.0 0.0 0.0 
-2.920593723348e-04 2.621629641845e-03 0.0 
2.621629641845e-03 1.173791731117e-02 0.0 
0.0 0.0 0.0 
-2.360836789927e-05 -2.386730640015e-04 0.0 
-2.386730640015e-04 3.020184981149e-03 0.0 
0.0 0.0 0.0 
-9.912099460848e-04 3.235170043930e-06 0.0 
3.235170043930e-06 1.151954040538e-02 0.0 
0.0 0.0 0.0 
4.299670948298e-04 2.665527127901e-03 0.0 
2.665527127901e-03 8.659958531099e-03 0.0 
0.0 0.0 0.0 
-1.898022057384e-04 8.932517157832e-05 0.0 
8.932517157832e-05 1.459161527818e-02 0.0 
0.0 0.0 0.0 
5.965559487440e-04 6.740997114642e-06 0.0 
6.740997114642e-06 -1.706257900704e-04 0.0 
0.0 0.0 0.0 
-9.522029677184e-04 8.297748473945e-06 0.0 
8.297748473945e-06 1.150329971112e-02 0.0 
0.0 0.0 0.0 
1.296166148879e-05 -1.485252936748e-05 0.0 
-1.485252936748e-05 7.327608194308e-03 0.0 
0.0 0.0 0.0 
-2.792116074668e-05 -3.156021989697e-04 0.0 
-3.156021989697e-04 1.362819022943e-03 0.0 
0.0 0.0 0.0 
9.243553763900e-04 1.535776726946e-03 0.0 
1.535776726946e-03 6.628244376810e-03 0.0 
0.0 0.0 0.0 
-7.458941003945e-04 1.947357639158e-03 0.0 
1.947357639158e-03 1.336237584350e-02 0.0 
0.0 0.0 0.0 
-3.530161268296e-04 4.997581022787e-04 0.0 
4.997581022787e-04 1.450556087471e-02 0.0 
0.0 0.0 0.0 
1.088653131975e-04 -1.836184722267e-04 0.0 
-1.836184722267e-04 1.265468032174e-03 0.0 
0.0 0.0 0.0 
1.550897763722e-04 3.455889935922e-03 0.0 
3.455889935922e-03 -1.667808052886e-03 0.0 
0.0 0.0 0.0 
2.171972368870e-05 2.055944732485e-05 0.0 
2.055944732485e-05 4.306032353786e-03 0.0 
0.0 0.0 0.0 
-5.791151432616e-04 1.226035575503e-04 0.0 
1.226035575503e-04 1.381857135121e-02 0.0 
0.0 0.0 0.0 
-4.665794187785e-03 -3.383979694347e-04 0.0 
-3.383979694347e-04 -2.583975892760e-03 0.0 
0.0 0.0 0.0 
-2.707104731613e-04 1.406724709062e-03 0.0 
1.406724709062e-03 1.416032745086e-02 0.0 
0.0 0.0 0.0 
-8.114688843980e-04 6.645744558370e-05 0.0 
6.645744558370e-05 1.285180440699e-02 0.0 
0.0 0.0 0.0 
-1.506564407513e-04 -2.404632226654e-03 0.0 
-2.404632226654e-03 -2.036250753991e-04 0.0 
0.0 0.0 0.0 
-8.925395524076e-04 8.866738142448e-05 0.0 
8.866738142448e-05 1.259795676002e-02 0.0 
0.0 0.0 0.0 
2.623474838892e-04 2.844156971896e-03 0.0 
2.844156971896e-03 9.272898099270e-03 0.0 
0.0 0.0 0.0 
3.463893867117e-05 -6.396167671941e-05 0.0 
-6.396167671941e-05 4.498456006445e-03 0.0 
0.0 0.0 0.0 
-2.156839753385e-03 3.381488463734e-03 0.0 
3.381488463734e-03 2.890298606064e-04 0.0 
0.0 0.0 0.0 
-3.844232558881e-05 -2.725751146571e-04 0.0 
-2.725751146571e-04 2.759783145826e-03 0.0 
0.0 0.0 0.0 
6.014656221232e-05 -2.309932041472e-04 0.0 
-2.309932041472e-04 3.917699769766e-03 0.0 
0.0 0.0 0.0 
5.012263179793e-05 2.991438177347e-05 0.0 
2.991438177347e-05 4.678672777696e-03 0.0 
0.0 0.0 0.0 
5.380519380147e-04 2.355056465911e-03 0.0 
2.355056465911e-03 7.934910749416e-03 0.0 
0.0 0.0 0.0 
1.225175903952e-05 -1.435969455474e-04 0.0 
-1.435969455474e-04 3.838068405962e-03 0.0 
0.0 0.0 0.0 
4.690178106070e-05 -1.420617459384e-04 0.0 
-1.420617459384e-04 4.083712878487e-03 0.0 
0.0 0.0 0.0 
1.157692173304e-05 -2.292944147313e-04 0.0 
-2.292944147313e-04 6.157748177347e-04 0.0 
0.0 0.0 0.0 
2.612775572568e-04 1.999243047993e-04 0.0 
1.999243047993e-04 6.696124773207e-03 0.0 
0.0 0.0 0.0 
3.344340406874e-05 2.760036578754e-03 0.0 
2.760036578754e-03 9.908543216985e-03 0.0 
0.0 0.0 0.0 
7.739436562928e-04 3.102757653656e-03 0.0 
3.102757653656e-03 -1.988925905020e-03 0.0 
0.0 0.0 0.0 
-1.535486130951e-04 7.187571615634e-05 0.0 
7.187571615634e-05 1.458209233426e-02 0.0 
0.0 0.0 0.0 
8.566408987054e-06 2.546681988387e-05 0.0 
2.546681988387e-05 7.315724978375e-03 0.0 
0.0 0.0 0.0 
-9.516337199736e-04 -1.824284217810e-05 0.0 
-1.824284217810e-05 1.182966172670e-02 0.0 
0.0 0.0 0.0 
-8.514484575486e-04 5.638124388098e-05 0.0 
5.638124388098e-05 1.285010557366e-02 0.0 
0.0 0.0 0.0 
1.900901247631e-05 -1.643356275743e-04 0.0 
-1.643356275743e-04 3.840360686929e-03 0.0 
0.0 0.0 0.0 
3.576567173402e-05 -1.965939950826e-04 0.0 
-1.965939950826e-04 3.902379058475e-03 0.0 
0.0 0.0 0.0 
1.299043177072e-05 -1.189705547573e-04 0.0 
-1.189705547573e-04 4.071869303182e-03 0.0 
0.0 0.0 0.0 
1.003463465490e-03 1.550421858661e-03 0.0 
1.550421858661e-03 6.257333564611e-03 0.0 
0.0 0.0 0.0 
-4.330091886638e-04 -1.999799482194e-03 0.0 
-1.999799482194e-03 4.927256176352e-04 0.0 
0.0 0.0 0.0 
-9.241426187934e-05 2.861072587464e-03 0.0 
2.861072587464e-03 1.048816749306e-02 0.0 
0.0 0.0 0.0 
-9.114310747711e-04 4.195676593409e-05 0.0 
4.195676593409e-05 1.218594315217e-02 0.0 
0.0 0.0 0.0 
-5.144499073485e-04 1.326351757742e-03 0.0 
1.326351757742e-03 1.419882924740e-02 0.0 
0.0 0.0 0.0 
8.937927080162e-04 1.424701339319e-03 0.0 
1.424701339319e-03 6.242110315563e-03 0.0 
0.0 0.0 0.0 
-9.451835672653e-04 8.062915398245e-05 0.0 
8.062915398245e-05 1.260477670501e-02 0.0 
0.0 0.0 0.0 
-3.783323167252e-04 2.574948107486e-03 0.0 
2.574948107486e-03 1.155395200518e-02 0.0 
0.0 0.0 0.0 
5.661145917963e-04 2.383449495355e-03 0.0 
2.383449495355e-03 7.923949689209e-03 0.0 
0.0 0.0 0.0 
4.564041904571e-04 2.610773272497e-03 0.0 
2.610773272497e-03 8.493238865007e-03 0.0 
0.0 0.0 0.0 
-9.016039439395e-04 3.306958788884e-03 0.0 
3.306958788884e-03 -1.778208872295e-03 0.0 
0.0 0.0 0.0 
-4.685418106679e-04 2.596747173743e-03 0.0 
2.596747173743e-03 1.155181134223e-02 0.0 
0.0 0.0 0.0 
-2.796819618619e-04 2.787377603480e-03 0.0 
2.787377603480e-03 1.141537863583e-02 0.0 
0.0 0.0 0.0 
2.379906415941e-04 -1.899211248512e-04 0.0 
-1.899211248512e-04 5.773613524860e-04 0.0 
0.0 0.0 0.0 
1.194432399076e-05 -2.139270293294e-04 0.0 
-2.139270293294e-04 3.637094919252e-03 0.0 
0.0 0.0 0.0 
-1.282050766512e-03 3.283524548140e-03 0.0 
3.283524548140e-03 -1.723203686005e-03 0.0 
0.0 0.0 0.0 
-4.647350089110e-04 2.692395322389e-03 0.0 
2.692395322389e-03 1.192886896659e-02 0.0 
0.0 0.0 0.0 
-9.696248783135e-04 2.439021576405e-07 0.0 
2.439021576405e-07 1.024250584262e-02 0.0 
0.0 0.0 0.0 
-9.712926266242e-04 1.333974280223e-05 0.0 
1.333974280223e-05 1.026889308269e-02 0.0 
0.0 0.0 0.0 
-9.323946174489e-04 5.377506159182e-06 0.0 
5.377506159182e-06 1.026959206134e-02 0.0 
0.0 0.0 0.0 
-9.605556939712e-04 -7.511954486061e-06 0.0 
-7.511954486061e-06 1.026984188024e-02 0.0 
0.0 0.0 0.0 
-9.331554223738e-04 -4.865237302110e-06 0.0 
-4.865237302110e-06 1.026929074614e-02 0.0 
0.0 0.0 0.0 
-9.552177763676e-04 -1.644427220697e-05 0.0 
-1.644427220697e-05 1.026631899004e-02 0.0 
0.0 0.0 0.0 
-9.265960959511e-04 -1.235278389070e-05 0.0 
-1.235278389070e-05 1.026521447558e-02 0.0 
0.0 0.0 0.0 
-9.507508710670e-04 -2.444732206435e-05 0.0 
-2.444732206435e-05 1.026254253347e-02 0.0 
0.0 0.0 0.0 
-9.143541123668e-04 -1.677023871858e-05 0.0 
-1.677023871858e-05 1.026005456328e-02 0.0 
0.0 0.0 0.0 
-9.473926536283e-04 -3.165325065882e-05 0.0 
-3.165325065882e-05 1.025862378904e-02 0.0 
0.0 0.0 0.0 
-8.966651305171e-04 -1.982939393371e-05 0.0 
-1.982939393371e-05 1.025393526275e-02 0.0 
0.0 0.0 0.0 
-9.426999657084e-04 -3.876233716302e-05 0.0 
-3.876233716302e-05 1.025402836613e-02 0.0 
0.0 0.0 0.0 
-8.739964383871e-04 -2.132131175874e-05 0.0 
-2.132131175874e-05 1.024581996171e-02 0.0 
0.0 0.0 0.0 
-9.388400126206e-04 -4.571289225967e-05 0.0 
-4.571289225967e-05 1.024829332042e-02 0.0 
0.0 0.0 0.0 
-8.469109280186e-04 -2.241831826339e-05 0.0 
-2.241831826339e-05 1.023529832744e-02 0.0 
0.0 0.0 0.0 
-1.212241970364e-03 4.519652508471e-04 0.0 
4.519652508471e-04 1.023581240819e-02 0.0 
0.0 0.0 0.0 
-9.324169913322e-04 -5.230709699250e-05 0.0 
-5.230709699250e-05 1.024032779969e-02 0.0 
0.0 0.0 0.0 
-1.424739599233e-03 3.264601056086e-04 0.0 
3.264601056086e-04 1.039179780874e-02 0.0 
0.0 0.0 0.0 
-8.146589714352e-04 -2.159176104480e-05 0.0 
-2.159176104480e-05 1.022054439876e-02 0.0 
0.0 0.0 0.0 
-9.275537891082e-04 -5.602001111280e-05 0.0 
-5.602001111280e-05 1.023240535860e-02 0.0 
0.0 0.0 0.0 
-7.769896059098e-04 -1.894914256748e-05 0.0 
-1.894914256748e-05 1.020445966288e-02 0.0 
0.0 0.0 0.0 
-9.259581015908e-04 -5.836909229574e-05 0.0 
-5.836909229574e-05 1.022560230131e-02 0.0 
0.0 0.0 0.0 
-7.362179023189e-04 -1.433798987928e-05 0.0 
-1.433798987928e-05 1.018703609242e-02 0.0 
0.0 0.0 0.0 
-9.283022091581e-04 -5.843033026996e-05 0.0 
-5.843033026996e-05 1.021942812623e-02 0.0 
0.0 0.0 0.0 
-8.052225102955e-04 2.251793642674e-04 0.0 
2.251793642674e-04 9.960884989456e-03 0.0 
0.0 0.0 0.0 
-6.944364627394e-04 -6.438202451639e-06 0.0 
-6.438202451639e-06 1.016718493236e-02 0.0 
0.0 0.0 0.0 
-9.391141952244e-04 -5.372494176289e-05 0.0 
-5.372494176289e-05 1.021482912616e-02 0.0 
0.0 0.0 0.0 
-6.543116666397e-04 5.912740158931e-06 0.0 
5.912740158931e-06 1.014598236583e-02 0.0 
0.0 0.0 0.0 
-9.643458899569e-04 -4.384028639838e-05 0.0 
-4.384028639838e-05 1.021229289066e-02 0.0 
0.0 0.0 0.0 
-6.191883629116e-04 2.548652896613e-05 0.0 
2.548652896613e-05 1.012148232285e-02 0.0 
0.0 0.0 0.0 
-1.006618925361e-03 -1.406131819434e-05 0.0 
-1.406131819434e-05 1.022338757737e-02 0.0 
0.0 0.0 0.0 
-6.012501105318e-04 6.088265121775e-05 0.0 
6.088265121775e-05 1.011017461073e-02 0.0 
0.0 0.0 0.0 
-1.096077030737e-03 2.283371144673e-05 0.0 
2.283371144673e-05 1.024265357429e-02 0.0 
0.0 0.0 0.0 
-1.182761652651e-03 1.263186513474e-04 0.0 
1.263186513474e-04 1.028365539481e-02 0.0 
0.0 0.0 0.0 
-6.190947261789e-04 1.192701572068e-04 0.0 
1.192701572068e-04 1.008918724897e-02 0.0 
0.0 0.0 0.0 
-1.776436236928e-03 8.716846830043e-04 0.0 
8.716846830043e-04 1.057399332767e-02 0.0 
0.0 0.0 0.0 
-7.259704463264e-04 2.498483656573e-04 0.0 
2.498483656573e-04 1.009614722602e-02 0.0 
0.0 0.0 0.0 
-1.609866715758e-03 3.227355064901e-04 0.0 
3.227355064901e-04 1.063258549885e-02 0.0 
0.0 0.0 0.0 
-1.018560526372e-03 -5.585944002059e-05 0.0 
-5.585944002059e-05 1.030412835426e-02 0.0 
0.0 0.0 0.0 
-9.820680659055e-04 6.498362245092e-05 0.0 
6.498362245092e-05 1.023927663360e-02 0.0 
0.0 0.0 0.0 
-9.763689619713e-04 -1.610116961199e-06 0.0 
-1.610116961199e-06 1.036980617832e-02 0.0 
0.0 0.0 0.0 
-1.024405761176e-03 1.229570030115e-05 0.0 
1.229570030115e-05 1.017678245697e-02 0.0 
0.0 0.0 0.0 
-1.935880133998e-03 9.493424276625e-04 0.0 
9.493424276625e-04 1.013465698702e-02 0.0 
0.0 0.0 0.0 
-9.711318778429e-04 -2.157922542751e-05 0.0 
-2.157922542751e-05 1.074266670382e-02 0.0 
0.0 0.0 0.0 
-9.712926266242e-04 -3.673966773180e-06 0.0 
-3.673966773180e-06 1.070910508092e-02 0.0 
0.0 0.0 0.0 
-9.691057689271e-04 -1.271123100662e-05 0.0 
-1.271123100662e-05 1.070803430638e-02 0.0 
0.0 0.0 0.0 
-9.605556939712e-04 -1.436222488537e-05 0.0 
-1.436222488537e-05 1.070393713775e-02 0.0 
0.0 0.0 0.0 
-9.715295760677e-04 -1.354381175361e-05 0.0 
-1.354381175361e-05 1.070416700039e-02 0.0 
0.0 0.0 0.0 
-9.552177763676e-04 -2.001949720229e-05 0.0 
-2.001949720229e-05 1.070289518256e-02 0.0 
0.0 0.0 0.0 
-9.762163595141e-04 -1.926017689007e-05 0.0 
-1.926017689007e-05 1.070336448399e-02 0.0 
0.0 0.0 0.0 
-9.507508710670e-04 -2.811924153716e-05 0.0 
-2.811924153716e-05 1.069995064290e-02 0.0 
0.0 0.0 0.0 
-9.802863157927e-04 -2.227074003210e-05 0.0 
-2.227074003210e-05 1.070230953271e-02 0.0 
0.0 0.0 0.0 
-9.473926536283e-04 -3.472516568063e-05 0.0 
-3.472516568063e-05 1.070051419992e-02 0.0 
0.0 0.0 0.0 
-9.910022708118e-04 -2.728924152819e-05 0.0 
-2.728924152819e-05 1.070449672870e-02 0.0 
0.0 0.0 0.0 
-9.426999657084e-04 -4.206708227252e-05 0.0 
-4.206708227252e-05 1.069750688024e-02 0.0 
0.0 0.0 0.0 
-1.000691332875e-03 -2.801933311269e-05 0.0 
-2.801933311269e-05 1.070574935912e-02 0.0 
0.0 0.0 0.0 
-1.353535255273e-03 4.336758949206e-04 0.0 
4.336758949206e-04 1.068719029675e-02 0.0 
0.0 0.0 0.0 
-9.388400126206e-04 -4.668738281230e-05 0.0 
-4.668738281230e-05 1.069813138279e-02 0.0 
0.0 0.0 0.0 
-1.018098213533e-03 -3.273527691886e-05 0.0 
-3.273527691886e-05 1.070908507695e-02 0.0 
0.0 0.0 0.0 
-1.182761652651e-03 3.531263001615e-04 0.0 
3.531263001615e-04 1.049473295086e-02 0.0 
0.0 0.0 0.0 
-9.324169913322e-04 -5.178002311506e-05 0.0 
-5.178002311506e-05 1.069076786643e-02 0.0 
0.0 0.0 0.0 
-1.034985099060e-03 -3.037767177139e-05 0.0 
-3.037767177139e-05 1.070928538869e-02 0.0 
0.0 0.0 0.0 
-1.462118391559e-03 3.406236452114e-04 0.0 
3.406236452114e-04 1.080738833053e-02 0.0 
0.0 0.0 0.0 
-9.275537891082e-04 -5.140172702141e-05 0.0 
-5.140172702141e-05 1.068543662019e-02 0.0 
0.0 0.0 0.0 
-1.059794425422e-03 -2.374327914713e-05 0.0 
-2.374327914713e-05 1.071314579681e-02 0.0 
0.0 0.0 0.0 
-9.259581015908e-04 -4.564452637240e-05 0.0 
-4.564452637240e-05 1.068153172703e-02 0.0 
0.0 0.0 0.0 
-1.092016701410e-03 -1.392584329165e-05 0.0 
-1.392584329165e-05 1.071943714701e-02 0.0 
0.0 0.0 0.0 
-9.283022091581e-04 -3.221585348584e-05 0.0 
-3.221585348584e-05 1.067456174993e-02 0.0 
0.0 0.0 0.0 
-1.568830037827e-03 6.339931995868e-04 0.0 
6.339931995868e-04 1.083948248908e-02 0.0 
0.0 0.0 0.0 
-1.133414298659e-03 5.596005096371e-06 0.0 
5.596005096371e-06 1.072680276850e-02 0.0 
0.0 0.0 0.0 
-9.391141952244e-04 -6.052563095482e-06 0.0 
-6.052563095482e-06 1.066706903990e-02 0.0 
0.0 0.0 0.0 
-9.643458899569e-04 3.672244037079e-05 0.0 
3.672244037079e-05 1.066149742094e-02 0.0 
0.0 0.0 0.0 
-1.189626755835e-03 3.829188291718e-05 0.0 
3.829188291718e-05 1.073760287467e-02 0.0 
0.0 0.0 0.0 
-1.006618925361e-03 1.114594598141e-04 0.0 
1.114594598141e-04 1.063535383808e-02 0.0 
0.0 0.0 0.0 
-1.269991775187e-03 8.195829271241e-05 0.0 
8.195829271241e-05 1.075057278851e-02 0.0 
0.0 0.0 0.0 
-1.096077030737e-03 2.449289298798e-04 0.0 
2.449289298798e-04 1.063626165351e-02 0.0 
0.0 0.0 0.0 
-1.318925152921e-03 1.855904564317e-04 0.0 
1.855904564317e-04 1.076154978767e-02 0.0 
0.0 0.0 0.0 
-1.505707683813e-03 4.147868634360e-04 0.0 
4.147868634360e-04 1.076429538063e-02 0.0 
0.0 0.0 0.0 
-9.516671892663e-04 -6.069169604644e-05 0.0 
-6.069169604644e-05 1.067932224608e-02 0.0 
0.0 0.0 0.0 
-9.895940397198e-04 5.219750454362e-05 0.0 
5.219750454362e-05 1.074702248219e-02 0.0 
0.0 0.0 0.0 
-9.763689619713e-04 -1.019087961695e-05 0.0 
-1.019087961695e-05 1.060456134505e-02 0.0 
0.0 0.0 0.0 
-9.652930269461e-04 3.988005139957e-06 0.0 
3.988005139957e-06 1.081771306503e-02 0.0 
0.0 0.0 0.0 
-1.424739599233e-03 7.023739004097e-04 0.0 
7.023739004097e-04 1.045646632251e-02 0.0 
0.0 0.0 0.0 
-9.711318778429e-04 -2.676389949959e-05 0.0 
-2.676389949959e-05 1.110243892139e-02 0.0 
0.0 0.0 0.0 
-9.595213520280e-04 -6.481002001194e-06 0.0 
-6.481002001194e-06 1.113033373672e-02 0.0 
0.0 0.0 0.0 
-9.691057689271e-04 -1.229019943922e-05 0.0 
-1.229019943922e-05 1.113105033578e-02 0.0 
0.0 0.0 0.0 
-9.726707398457e-04 -1.046641550025e-05 0.0 
-1.046641550025e-05 1.113733967280e-02 0.0 
0.0 0.0 0.0 
-9.715295760677e-04 -1.041636283193e-05 0.0 
-1.041636283193e-05 1.113732195549e-02 0.0 
0.0 0.0 0.0 
-9.830462022449e-04 -1.249573313763e-05 0.0 
-1.249573313763e-05 1.114261870993e-02 0.0 
0.0 0.0 0.0 
-9.762163595141e-04 -1.318375491954e-05 0.0 
-1.318375491954e-05 1.114268606671e-02 0.0 
0.0 0.0 0.0 
-9.939254633650e-04 -2.055300445828e-05 0.0 
-2.055300445828e-05 1.114299852022e-02 0.0 
0.0 0.0 0.0 
-9.802863157927e-04 -1.171760278170e-05 0.0 
-1.171760278170e-05 1.114010490840e-02 0.0 
0.0 0.0 0.0 
-1.009256490890e-03 -1.761838880834e-05 0.0 
-1.761838880834e-05 1.115003355952e-02 0.0 
0.0 0.0 0.0 
-9.910022708118e-04 -1.288330985965e-05 0.0 
-1.288330985965e-05 1.114779388466e-02 0.0 
0.0 0.0 0.0 
-1.034975705363e-03 -2.552319498459e-05 0.0 
-2.552319498459e-05 1.115544942507e-02 0.0 
0.0 0.0 0.0 
-1.437845088939e-03 3.703107834402e-04 0.0 
3.703107834402e-04 1.115563036634e-02 0.0 
0.0 0.0 0.0 
-1.000691332875e-03 -9.454159274126e-06 0.0 
-9.454159274126e-06 1.114737953299e-02 0.0 
0.0 0.0 0.0 
-1.481627793736e-03 2.834683688453e-04 0.0 
2.834683688453e-04 1.124077774649e-02 0.0 
0.0 0.0 0.0 
-1.052242962036e-03 -1.852430606755e-05 0.0 
-1.852430606755e-05 1.116365365219e-02 0.0 
0.0 0.0 0.0 
-1.018098213533e-03 -4.924520910872e-06 0.0 
-4.924520910872e-06 1.115536338660e-02 0.0 
0.0 0.0 0.0 
-1.096539989763e-03 -2.260909827081e-05 0.0 
-2.260909827081e-05 1.117176678508e-02 0.0 
0.0 0.0 0.0 
-1.034985099060e-03 5.522865152772e-06 0.0 
5.522865152772e-06 1.115256029049e-02 0.0 
0.0 0.0 0.0 
-1.137766816542e-03 -1.026273179972e-05 0.0 
-1.026273179972e-05 1.118148777757e-02 0.0 
0.0 0.0 0.0 
-1.059794425422e-03 2.177891470237e-05 0.0 
2.177891470237e-05 1.115589473370e-02 0.0 
0.0 0.0 0.0 
-1.180474375141e-03 7.911392171160e-06 0.0 
7.911392171160e-06 1.119235743974e-02 0.0 
0.0 0.0 0.0 
-1.318925152921e-03 3.378342432900e-04 0.0 
3.378342432900e-04 1.097502464650e-02 0.0 
0.0 0.0 0.0 
-1.092016701410e-03 4.859939160577e-05 0.0 
4.859939160577e-05 1.115677093275e-02 0.0 
0.0 0.0 0.0 
-1.238390078135e-03 3.733133449934e-05 0.0 
3.733133449934e-05 1.120347309618e-02 0.0 
0.0 0.0 0.0 
-1.133414298659e-03 9.140271442943e-05 0.0 
9.140271442943e-05 1.115222849562e-02 0.0 
0.0 0.0 0.0 
-1.303020299765e-03 8.843850753164e-05 0.0 
8.843850753164e-05 1.121326946366e-02 0.0 
0.0 0.0 0.0 
-1.380690218984e-03 1.707951855851e-04 0.0 
1.707951855851e-04 1.122478214304e-02 0.0 
0.0 0.0 0.0 
-1.189626755835e-03 1.579386417418e-04 0.0 
1.579386417418e-04 1.114354487236e-02 0.0 
0.0 0.0 0.0 
-1.269991775187e-03 2.518052314536e-04 0.0 
2.518052314536e-04 1.113929904734e-02 0.0 
0.0 0.0 0.0 
-1.550421478982e-03 4.977410942675e-04 0.0 
4.977410942675e-04 1.125221691450e-02 0.0 
0.0 0.0 0.0 
-1.504472130579e-03 3.591676491829e-04 0.0 
3.591676491829e-04 1.113171282481e-02 0.0 
0.0 0.0 0.0 
-9.744201286983e-04 -5.336896986363e-05 0.0 
-5.336896986363e-05 1.113026768485e-02 0.0 
0.0 0.0 0.0 
-9.560712442993e-04 5.771334820094e-05 0.0 
5.771334820094e-05 1.109745664330e-02 0.0 
0.0 0.0 0.0 
-9.649299018823e-04 1.848937800014e-07 0.0 
1.848937800014e-07 1.122528499715e-02 0.0 
0.0 0.0 0.0 
-9.652930269461e-04 6.171215222595e-06 0.0 
6.171215222595e-06 1.100609156968e-02 0.0 
0.0 0.0 0.0 
-1.462118391559e-03 5.533892279727e-04 0.0 
5.533892279727e-04 1.095209725247e-02 0.0 
0.0 0.0 0.0 

TENSORS element_materi_strain_plasti float
-6.466164772809e-04 8.245090744215e-04 0.0 
8.245090744215e-04 2.707374572581e-03 0.0 
0.0 0.0 -4.220722639049e-04 
-5.850828050599e-04 4.087408186800e-04 0.0 
4.087408186800e-04 2.442724633431e-03 0.0 
0.0 0.0 -4.303330772826e-04 
-1.282095494807e-03 4.001741098009e-04 0.0 
4.001741098009e-04 8.226379453025e-03 0.0 
0.0 0.0 -1.278236581085e-03 
-1.295884943363e-03 -1.217266030679e-04 0.0 
-1.217266030679e-04 8.480174258718e-03 0.0 
0.0 0.0 -1.255598393855e-03 
-9.118044046819e-04 2.773302772114e-04 0.0 
2.773302772114e-04 5.301634366726e-03 0.0 
0.0 0.0 -7.961861350945e-04 
2.510626383067e-04 3.899924767601e-04 0.0 
3.899924767601e-04 -1.017744063527e-06 0.0 
0.0 0.0 -1.071620975328e-04 
-8.944012644099e-04 3.000213301662e-04 0.0 
3.000213301662e-04 5.255597081572e-03 0.0 
0.0 0.0 -8.011023898636e-04 
-6.111001276048e-04 8.133198202813e-04 0.0 
8.133198202813e-04 2.541489709150e-03 0.0 
0.0 0.0 -4.045669272905e-04 
-9.178969371214e-04 -2.491713150355e-04 0.0 
-2.491713150355e-04 5.331335701126e-03 0.0 
0.0 0.0 -7.977904104816e-04 
-1.281432177268e-03 3.076617140319e-04 0.0 
3.076617140319e-04 8.397045163972e-03 0.0 
0.0 0.0 -1.253060141438e-03 
-1.093573439511e-03 5.627509268443e-05 0.0 
5.627509268443e-05 5.667510059544e-03 0.0 
0.0 0.0 -8.816510380685e-04 
-5.787511837025e-04 6.777709678412e-04 0.0 
6.777709678412e-04 2.088119972159e-03 0.0 
0.0 0.0 -3.735031833740e-04 
-1.326305648993e-03 1.334625464656e-04 0.0 
1.334625464656e-04 8.251440389062e-03 0.0 
0.0 0.0 -1.259187713256e-03 
-9.724653634380e-04 3.053641968768e-04 0.0 
3.053641968768e-04 5.663135226582e-03 0.0 
0.0 0.0 -8.526168115438e-04 
-1.330762641967e-03 -3.008650578863e-04 0.0 
-3.008650578863e-04 8.383102825445e-03 0.0 
0.0 0.0 -1.289538875031e-03 
-1.321345684109e-03 2.719191787034e-04 0.0 
2.719191787034e-04 8.617215783831e-03 0.0 
0.0 0.0 -1.285984941237e-03 
-9.140896497734e-04 7.519541139523e-05 0.0 
7.519541139523e-05 5.296976735505e-03 0.0 
0.0 0.0 -7.740676797406e-04 
0.0 0.0 0.0 
0.0 0.0 0.0 
0.0 0.0 0.0 
-3.519099227855e-04 -1.443334347486e-04 0.0 
-1.443334347486e-04 1.817532010240e-03 0.0 
0.0 0.0 -2.776016825098e-04 
-3.997644766498e-04 4.954726061119e-05 0.0 
4.954726061119e-05 1.673764597630e-03 0.0 
0.0 0.0 -3.031105466646e-04 
-1.276969282696e-03 -1.363061038713e-04 0.0 
-1.363061038713e-04 8.471794626493e-03 0.0 
0.0 0.0 -1.250388265701e-03 
-6.432162703731e-04 5.512102898043e-04 0.0 
5.512102898043e-04 2.885045796034e-03 0.0 
0.0 0.0 -4.811142067971e-04 
-6.884954101540e-04 3.994199898237e-04 0.0 
3.994199898237e-04 3.234457200495e-03 0.0 
0.0 0.0 -5.091556215902e-04 
-1.086615628820e-03 -2.931322765965e-04 0.0 
-2.931322765965e-04 7.458132473520e-03 0.0 
0.0 0.0 -1.210372970477e-03 
-1.022288100468e-03 3.987168263927e-04 0.0 
3.987168263927e-04 6.009421001038e-03 0.0 
0.0 0.0 -9.130988374533e-04 
-1.132573975630e-03 -2.410939857696e-04 0.0 
-2.410939857696e-04 6.073086075411e-03 0.0 
0.0 0.0 -9.179597371190e-04 
-8.591992327558e-04 1.320513177097e-04 0.0 
1.320513177097e-04 4.879471040969e-03 0.0 
0.0 0.0 -7.148082707961e-04 
-1.227939719405e-03 4.897213587292e-04 0.0 
4.897213587292e-04 8.231185118654e-03 0.0 
0.0 0.0 -1.266047838742e-03 
-1.043323281561e-03 -5.190539471628e-05 0.0 
-5.190539471628e-05 6.052750555350e-03 0.0 
0.0 0.0 -9.113908267906e-04 
-1.155289536852e-03 -1.768880545786e-05 0.0 
-1.768880545786e-05 7.700571454284e-03 0.0 
0.0 0.0 -1.237914324842e-03 
3.591818895870e-04 -1.087919908418e-03 0.0 
-1.087919908418e-03 2.306926407283e-04 0.0 
0.0 0.0 -2.528033701351e-04 
-5.253251415500e-05 -7.346267826167e-05 0.0 
-7.346267826167e-05 5.706227414438e-04 0.0 
0.0 0.0 -1.059755802940e-04 
-1.328657286874e-03 4.996781592111e-04 0.0 
4.996781592111e-04 8.531045122136e-03 0.0 
0.0 0.0 -1.261301343383e-03 
-1.246135843572e-03 -2.165566539215e-04 0.0 
-2.165566539215e-04 7.113329539199e-03 0.0 
0.0 0.0 -1.090200430068e-03 
-1.222640564805e-03 -5.172125954847e-04 0.0 
-5.172125954847e-04 8.023175699372e-03 0.0 
0.0 0.0 -1.254989870190e-03 
-1.362336754091e-03 1.038272021812e-04 0.0 
1.038272021812e-04 8.593232231463e-03 0.0 
0.0 0.0 -1.314886350686e-03 
-1.333817909252e-03 -6.741910836282e-04 0.0 
-6.741910836282e-04 8.572481383167e-03 0.0 
0.0 0.0 -1.314653105918e-03 
-1.152787385481e-03 3.395804623759e-04 0.0 
3.395804623759e-04 7.780236807800e-03 0.0 
0.0 0.0 -1.264739017786e-03 
-8.345100331917e-04 -3.032908507100e-04 0.0 
-3.032908507100e-04 4.793915913410e-03 0.0 
0.0 0.0 -7.380763454961e-04 
-8.314689275844e-04 3.674750294880e-04 0.0 
3.674750294880e-04 4.862282802739e-03 0.0 
0.0 0.0 -7.371174501546e-04 
-7.446435526587e-04 2.495366517639e-04 0.0 
2.495366517639e-04 3.730189536197e-03 0.0 
0.0 0.0 -5.794556523337e-04 
-1.240577876015e-03 -2.606603701506e-04 0.0 
-2.606603701506e-04 7.945807599574e-03 0.0 
0.0 0.0 -1.280756488215e-03 
-5.279799311040e-04 1.102170611227e-03 0.0 
1.102170611227e-03 1.773978523889e-03 0.0 
0.0 0.0 -3.207852484642e-04 
-8.673432961900e-04 2.038482856540e-04 0.0 
2.038482856540e-04 4.641456270313e-03 0.0 
0.0 0.0 -7.350059072715e-04 
-1.271467539957e-03 -7.879660805606e-05 0.0 
-7.879660805606e-05 8.302426141521e-03 0.0 
0.0 0.0 -1.212858513926e-03 
-5.775885694842e-04 8.848405614820e-04 0.0 
8.848405614820e-04 1.777381832978e-03 0.0 
0.0 0.0 -3.198426158856e-04 
2.130878448261e-04 -2.803383724960e-04 0.0 
-2.803383724960e-04 -1.640750498908e-05 0.0 
0.0 0.0 -8.429157421588e-05 
-1.252952730617e-03 9.194498370430e-05 0.0 
9.194498370430e-05 8.113365198973e-03 0.0 
0.0 0.0 -1.234743356787e-03 
1.618564024127e-06 -4.086337075163e-06 0.0 
-4.086337075163e-06 6.435399236607e-07 0.0 
0.0 0.0 -9.694731204804e-07 
-9.377652680597e-04 -7.279277581159e-05 0.0 
-7.279277581159e-05 5.473641853479e-03 0.0 
0.0 0.0 -8.229436299569e-04 
-7.184238485782e-04 3.283816114982e-04 0.0 
3.283816114982e-04 3.500159598670e-03 0.0 
0.0 0.0 -5.440916476828e-04 
-4.407403860860e-04 -1.000193585770e-04 0.0 
-1.000193585770e-04 2.276874889741e-03 0.0 
0.0 0.0 -3.443810396916e-04 
3.693556118723e-04 -1.150080954677e-03 0.0 
-1.150080954677e-03 2.564828416198e-04 0.0 
0.0 0.0 -2.682164800680e-04 
-6.981340931129e-04 4.826618162809e-04 0.0 
4.826618162809e-04 3.375109354798e-03 0.0 
0.0 0.0 -5.489460876789e-04 
-1.294047200749e-03 3.426820678350e-04 0.0 
3.426820678350e-04 8.360890520438e-03 0.0 
0.0 0.0 -1.282189168212e-03 
-6.426921289281e-04 -2.477141885566e-04 0.0 
-2.477141885566e-04 2.972149177427e-03 0.0 
0.0 0.0 -4.512233509908e-04 
-5.071100590753e-04 7.724547813732e-05 0.0 
7.724547813732e-05 2.167123717160e-03 0.0 
0.0 0.0 -3.694212080277e-04 
-1.248804674603e-03 1.204053078386e-04 0.0 
1.204053078386e-04 7.152497866114e-03 0.0 
0.0 0.0 -1.087734043504e-03 
-2.199405617637e-04 -6.207470745057e-05 0.0 
-6.207470745057e-05 1.342683867831e-03 0.0 
0.0 0.0 -2.189683579105e-04 
-1.315587936217e-03 -1.318704737137e-04 0.0 
-1.318704737137e-04 8.629398526663e-03 0.0 
0.0 0.0 -1.285320035817e-03 
0.0 0.0 0.0 
0.0 0.0 0.0 
0.0 0.0 0.0 
-1.104248090582e-03 6.042449065024e-04 0.0 
6.042449065024e-04 7.502345308807e-03 0.0 
0.0 0.0 -1.210824713543e-03 
-6.118289487359e-04 1.052783847498e-03 0.0 
1.052783847498e-03 3.133960488999e-03 0.0 
0.0 0.0 -5.497085007362e-04 
3.930006713422e-04 -1.150166211052e-03 0.0 
-1.150166211052e-03 2.323329664583e-04 0.0 
0.0 0.0 -2.680001304859e-04 
-1.319367167403e-03 -3.421260873299e-04 0.0 
-3.421260873299e-04 8.223808012733e-03 0.0 
0.0 0.0 -1.257478522087e-03 
-6.824305458781e-04 5.038519007458e-04 0.0 
5.038519007458e-04 3.122644429912e-03 0.0 
0.0 0.0 -5.137572693775e-04 
0.0 0.0 0.0 
0.0 0.0 0.0 
0.0 0.0 0.0 
-1.302579274791e-03 3.856077973971e-04 0.0 
3.856077973971e-04 8.474035595977e-03 0.0 
0.0 0.0 -1.261660853087e-03 
-3.055720632183e-04 -1.064577386819e-03 0.0 
-1.064577386819e-03 1.239084830307e-03 0.0 
0.0 0.0 -3.052032381971e-04 
-1.275451108923e-03 4.835577884085e-04 0.0 
4.835577884085e-04 8.123671911160e-03 0.0 
0.0 0.0 -1.282376455277e-03 
-1.145904955508e-03 -3.118374997867e-04 0.0 
-3.118374997867e-04 6.272168097955e-03 0.0 
0.0 0.0 -9.556290573178e-04 
-1.338499280800e-03 2.408371898962e-04 0.0 
2.408371898962e-04 8.775782511843e-03 0.0 
0.0 0.0 -1.338499280800e-03 
-1.192625588921e-03 4.461210467852e-04 0.0 
4.461210467852e-04 7.634783606740e-03 0.0 
0.0 0.0 -1.232909111256e-03 
-2.127254236185e-05 1.891430361426e-04 0.0 
1.891430361426e-04 5.160571140730e-04 0.0 
0.0 0.0 -1.295286970291e-04 
-6.935849542252e-04 2.344127444435e-05 0.0 
2.344127444435e-05 2.990888035910e-03 0.0 
0.0 0.0 -4.777371989943e-04 
-1.295701123542e-03 1.509088819434e-05 0.0 
1.509088819434e-05 8.469943460322e-03 0.0 
0.0 0.0 -1.262626981217e-03 
-1.324502073679e-03 3.744328644392e-04 0.0 
3.744328644392e-04 8.596934185840e-03 0.0 
0.0 0.0 -1.265352048664e-03 
-2.411922616665e-04 1.053006289260e-03 0.0 
1.053006289260e-03 1.157414957781e-03 0.0 
0.0 0.0 -3.599094611647e-04 
-2.769907565586e-04 -8.829481836090e-05 0.0 
-8.829481836090e-05 1.134623594574e-03 0.0 
0.0 0.0 -2.366757893512e-04 
-2.181753936334e-04 1.161392611074e-03 0.0 
1.161392611074e-03 1.149876313961e-03 0.0 
0.0 0.0 -3.564703237892e-04 
-2.758740996359e-04 -8.746279552454e-04 0.0 
-8.746279552454e-04 1.152039496951e-03 0.0 
0.0 0.0 -3.439500825601e-04 
-8.978965614641e-04 9.154439014956e-05 0.0 
9.154439014956e-05 5.029293334098e-03 0.0 
0.0 0.0 -7.918363975426e-04 
-6.733819819602e-04 4.712092501630e-04 0.0 
4.712092501630e-04 3.018715837704e-03 0.0 
0.0 0.0 -4.749402310763e-04 
-6.256408849580e-04 5.270574211380e-04 0.0 
5.270574211380e-04 2.559551606748e-03 0.0 
0.0 0.0 -4.438329512050e-04 
-9.725152992593e-04 -1.918915712341e-04 0.0 
-1.918915712341e-04 5.553894553160e-03 0.0 
0.0 0.0 -8.336771054075e-04 
-9.515395304919e-04 2.688463451821e-04 0.0 
2.688463451821e-04 5.521722972354e-03 0.0 
0.0 0.0 -8.358076868167e-04 
-1.183410575090e-03 -2.693387168119e-04 0.0 
-2.693387168119e-04 6.452199734420e-03 0.0 
0.0 0.0 -9.867109252839e-04 
-1.231001359755e-03 1.776752657648e-04 0.0 
1.776752657648e-04 6.972617785685e-03 0.0 
0.0 0.0 -1.058576829647e-03 
-1.159508113008e-03 2.069980553471e-04 0.0 
2.069980553471e-04 7.153965750682e-03 0.0 
0.0 0.0 -1.085941371602e-03 
-9.167398449037e-04 -2.379223024375e-04 0.0 
-2.379223024375e-04 5.214431434648e-03 0.0 
0.0 0.0 -7.983229688164e-04 
-9.629239381275e-05 -7.847678025284e-05 0.0 
-7.847678025284e-05 3.293444492904e-04 0.0 
0.0 0.0 -9.987945234756e-05 
-9.298280525189e-04 1.832074445445e-04 0.0 
1.832074445445e-04 5.072594773826e-03 0.0 
0.0 0.0 -7.928983479555e-04 
-1.152068192651e-03 -8.618068735251e-05 0.0 
-8.618068735251e-05 7.066072062095e-03 0.0 
0.0 0.0 -1.069439317440e-03 
-1.125567912536e-03 1.438213412546e-04 0.0 
1.438213412546e-04 7.130378012797e-03 0.0 
0.0 0.0 -1.046447409317e-03 
-1.354248964991e-03 2.488047583645e-04 0.0 
2.488047583645e-04 9.041954327214e-03 0.0 
0.0 0.0 -1.319970921405e-03 
-1.236862548615e-03 6.047335938228e-05 0.0 
6.047335938228e-05 8.106142459015e-03 0.0 
0.0 0.0 -1.294194962782e-03 
-9.013588349204e-04 -3.564785080674e-05 0.0 
-3.564785080674e-05 5.032133509131e-03 0.0 
0.0 0.0 -7.889745663688e-04 
-1.254766552398e-03 -3.118115606911e-04 0.0 
-3.118115606911e-04 8.236373731402e-03 0.0 
0.0 0.0 -1.263183913703e-03 
-9.880175404899e-04 -1.466486724576e-04 0.0 
-1.466486724576e-04 5.952185502159e-03 0.0 
0.0 0.0 -9.040008563810e-04 
-6.291314004619e-04 6.895076894316e-04 0.0 
6.895076894316e-04 3.149500208419e-03 0.0 
0.0 0.0 -5.198799001330e-04 
-8.730449846052e-04 -1.408519575968e-04 0.0 
-1.408519575968e-04 5.083535477325e-03 0.0 
0.0 0.0 -7.643292725053e-04 
-1.347992785810e-03 5.931491654167e-05 0.0 
5.931491654167e-05 8.400156878011e-03 0.0 
0.0 0.0 -1.287517816355e-03 
-8.262228282774e-04 1.447902815746e-04 0.0 
1.447902815746e-04 6.297334361413e-03 0.0 
0.0 0.0 -1.043751955586e-03 
-1.104569420112e-03 1.448019849648e-04 0.0 
1.448019849648e-04 7.556047747294e-03 0.0 
0.0 0.0 -1.209599240962e-03 
-4.538367894760e-04 9.757826283504e-04 0.0 
9.757826283504e-04 2.565554738313e-03 0.0 
0.0 0.0 -4.747543016519e-04 
2.029884590449e-04 -8.599336091252e-04 0.0 
-8.599336091252e-04 2.611091082078e-04 0.0 
0.0 0.0 -1.988989573940e-04 
-1.297459135418e-03 -2.747475562559e-04 0.0 
-2.747475562559e-04 7.787009671767e-03 0.0 
0.0 0.0 -1.189902873528e-03 
-1.189086276409e-03 1.093944519264e-04 0.0 
1.093944519264e-04 7.587261230545e-03 0.0 
0.0 0.0 -1.108790581071e-03 
7.624507231963e-05 -2.164748674539e-04 0.0 
-2.164748674539e-04 4.178589710884e-05 0.0 
0.0 0.0 -5.058470118363e-05 
-1.283662232086e-03 -3.116749921630e-04 0.0 
-3.116749921630e-04 8.203749873262e-03 0.0 
0.0 0.0 -1.285127980003e-03 
-1.117454671525e-03 5.890310527375e-04 0.0 
5.890310527375e-04 6.771147145683e-03 0.0 
0.0 0.0 -1.051491716222e-03 
2.129630744421e-04 -9.499020889305e-05 0.0 
-9.499020889305e-05 2.730652041404e-04 0.0 
0.0 0.0 -1.433710470045e-04 
-4.646091997464e-04 1.130911332871e-03 0.0 
1.130911332871e-03 3.315295093012e-03 0.0 
0.0 0.0 -6.309931931857e-04 
-8.659480951891e-04 9.706201231431e-05 0.0 
9.706201231431e-05 4.691930850523e-03 0.0 
0.0 0.0 -7.153918394734e-04 
-8.128195131981e-04 -2.696429011542e-04 0.0 
-2.696429011542e-04 3.582326768313e-03 0.0 
0.0 0.0 -5.772375537024e-04 
-5.795319369569e-04 9.930078575254e-04 0.0 
9.930078575254e-04 2.722691248666e-03 0.0 
0.0 0.0 -4.852398935310e-04 
-5.900753072712e-04 6.920056491215e-04 0.0 
6.920056491215e-04 3.182816884513e-03 0.0 
0.0 0.0 -5.471823052058e-04 
-1.301859315623e-03 -1.904737940513e-04 0.0 
-1.904737940513e-04 8.142812636608e-03 0.0 
0.0 0.0 -1.283833066805e-03 
-9.523212659311e-04 1.958273368285e-04 0.0 
1.958273368285e-04 5.865970295395e-03 0.0 
0.0 0.0 -8.766975940251e-04 
-5.541698138184e-04 1.190551615049e-03 0.0 
1.190551615049e-03 2.836925707114e-03 0.0 
0.0 0.0 -5.122473358773e-04 
-4.084206622420e-04 -7.278847424947e-04 0.0 
-7.278847424947e-04 1.354708172608e-03 0.0 
0.0 0.0 -2.295267891405e-04 
-9.046551402062e-04 3.103540058347e-04 0.0 
3.103540058347e-04 5.221480629983e-03 0.0 
0.0 0.0 -7.744920945421e-04 
-1.163420538902e-03 -6.301653344554e-05 0.0 
-6.301653344554e-05 7.412623996309e-03 0.0 
0.0 0.0 -1.129288753466e-03 
-5.271843801054e-04 7.884919210617e-04 0.0 
7.884919210617e-04 2.864417005275e-03 0.0 
0.0 0.0 -5.109724225979e-04 
5.534592465795e-05 9.039028363928e-04 0.0 
9.039028363928e-04 4.831251439840e-04 0.0 
0.0 0.0 -2.307733151323e-04 
-8.073832098114e-04 1.503125105248e-04 0.0 
1.503125105248e-04 4.217521397372e-03 0.0 
0.0 0.0 -6.470401313397e-04 
-8.043937078593e-04 -1.245165173277e-04 0.0 
-1.245165173277e-04 3.751204721582e-03 0.0 
0.0 0.0 -5.578851714504e-04 
-7.622885537649e-04 4.316670476422e-04 0.0 
4.316670476422e-04 3.890857300125e-03 0.0 
0.0 0.0 -6.167189930163e-04 
-1.313795093192e-03 3.745855682538e-04 0.0 
3.745855682538e-04 8.614675897131e-03 0.0 
0.0 0.0 -1.290671971449e-03 
1.991130479106e-04 9.381873505590e-04 0.0 
9.381873505590e-04 3.095528624407e-04 0.0 
0.0 0.0 -2.179996758648e-04 
-1.118912346163e-03 3.069253467211e-05 0.0 
3.069253467211e-05 5.953637467028e-03 0.0 
0.0 0.0 -9.216843799351e-04 
-1.302832962065e-03 2.769223245220e-04 0.0 
2.769223245220e-04 8.470819943817e-03 0.0 
0.0 0.0 -1.256690274141e-03 
-7.596340248727e-04 7.382796594352e-04 0.0 
7.382796594352e-04 4.031537584483e-03 0.0 
0.0 0.0 -6.588732905211e-04 
-7.779772953584e-04 1.836806670251e-04 0.0 
1.836806670251e-04 3.983301519145e-03 0.0 
0.0 0.0 -6.139229799761e-04 
-1.231803605678e-03 -5.782093166128e-05 0.0 
-5.782093166128e-05 8.028152931577e-03 0.0 
0.0 0.0 -1.254964138299e-03 
-1.328106245368e-03 -3.359343714767e-04 0.0 
-3.359343714767e-04 8.269862829300e-03 0.0 
0.0 0.0 -1.261070974318e-03 
-1.177616370787e-03 5.503788424212e-05 0.0 
5.503788424212e-05 6.447345049328e-03 0.0 
0.0 0.0 -9.873713238705e-04 
-7.975389004980e-04 3.851368616877e-04 0.0 
3.851368616877e-04 4.370903509068e-03 0.0 
0.0 0.0 -6.916138708610e-04 
-1.195768822005e-03 -1.347190958518e-04 0.0 
-1.347190958518e-04 8.136693957771e-03 0.0 
0.0 0.0 -1.270330610962e-03 
-7.600104695776e-04 6.621541633523e-04 0.0 
6.621541633523e-04 3.915062890853e-03 0.0 
0.0 0.0 -6.326048069937e-04 
-1.276977184880e-03 1.361446544635e-04 0.0 
1.361446544635e-04 8.444479482518e-03 0.0 
0.0 0.0 -1.283174495648e-03 
-1.281656246909e-03 5.918270400850e-04 0.0 
5.918270400850e-04 8.394460336114e-03 0.0 
0.0 0.0 -1.267437373369e-03 
-9.916900482218e-04 -1.353869196216e-04 0.0 
-1.353869196216e-04 5.594925371490e-03 0.0 
0.0 0.0 -8.543707170918e-04 
-1.059679930627e-03 2.378363673836e-04 0.0 
2.378363673836e-04 6.573353481791e-03 0.0 
0.0 0.0 -9.817831382938e-04 
-7.605699351815e-04 3.748556655775e-04 0.0 
3.748556655775e-04 3.967103975153e-03 0.0 
0.0 0.0 -6.293189184696e-04 
-7.420000060583e-04 4.704307559795e-04 0.0 
4.704307559795e-04 3.646692949105e-03 0.0 
0.0 0.0 -5.830241378053e-04 
-8.001161774359e-04 7.418992546282e-04 0.0 
7.418992546282e-04 4.429271101410e-03 0.0 
0.0 0.0 -7.211932326589e-04 
-4.509036314279e-04 9.161005774141e-04 0.0 
9.161005774141e-04 2.969896787124e-03 0.0 
0.0 0.0 -5.383041810906e-04 
-8.768683131663e-04 -1.698577199285e-04 0.0 
-1.698577199285e-04 5.218733852389e-03 0.0 
0.0 0.0 -7.693993191400e-04 
-3.984078038155e-04 7.031353492297e-04 0.0 
7.031353492297e-04 3.390130310364e-03 0.0 
0.0 0.0 -6.275039421266e-04 
-8.830553488541e-05 -1.169663280731e-04 0.0 
-1.169663280731e-04 3.137961635653e-04 0.0 
0.0 0.0 -9.663884086279e-05 
-9.202478516251e-04 -5.770930012148e-06 0.0 
-5.770930012148e-06 5.620779502953e-03 0.0 
0.0 0.0 -8.171079392438e-04 
-3.114395398576e-04 -3.263303537109e-05 0.0 
-3.263303537109e-05 1.213615237241e-03 0.0 
0.0 0.0 -2.373169254524e-04 
-8.400103073364e-04 1.183268532165e-04 0.0 
1.183268532165e-04 4.465364634510e-03 0.0 
0.0 0.0 -6.809683978454e-04 
-1.226720591274e-03 -2.033245432446e-04 0.0 
-2.033245432446e-04 7.901279716244e-03 0.0 
0.0 0.0 -1.284796145094e-03 
-5.032521871548e-04 1.323397128945e-03 0.0 
1.323397128945e-03 2.524146629484e-03 0.0 
0.0 0.0 -4.767992880414e-04 
-1.206015416419e-03 1.351161918146e-04 0.0 
1.351161918146e-04 6.706761080456e-03 0.0 
0.0 0.0 -1.021089721936e-03 
-5.854397783758e-04 6.900577011398e-04 0.0 
6.900577011398e-04 2.034319527358e-03 0.0 
0.0 0.0 -3.540742325023e-04 
-8.487428613626e-04 6.354315705334e-04 0.0 
6.354315705334e-04 6.259047629254e-03 0.0 
0.0 0.0 -1.044905595188e-03 
-9.023795236384e-04 1.774952439286e-05 0.0 
1.774952439286e-05 5.056579998417e-03 0.0 
0.0 0.0 -7.899655494116e-04 
-3.675306969511e-04 1.198984270489e-03 0.0 
1.198984270489e-03 2.958001668599e-03 0.0 
0.0 0.0 -5.931463391684e-04 
-1.266256333575e-03 -2.932543747909e-04 0.0 
-2.932543747909e-04 7.348938270472e-03 0.0 
0.0 0.0 -1.120963572432e-03 
-3.905834582402e-04 -4.908595614848e-04 0.0 
-4.908595614848e-04 1.232002034576e-03 0.0 
0.0 0.0 -2.722262904030e-04 
-1.289444217002e-03 1.239965470747e-04 0.0 
1.239965470747e-04 7.777003841897e-03 0.0 
0.0 0.0 -1.189111243166e-03 
-9.083262515729e-04 4.866804809917e-04 0.0 
4.866804809917e-04 4.963586243701e-03 0.0 
0.0 0.0 -7.711223959738e-04 
-1.340203078278e-03 -2.129693675799e-04 0.0 
-2.129693675799e-04 8.439560912258e-03 0.0 
0.0 0.0 -1.265987209193e-03 
-8.868772565118e-04 2.877464608834e-05 0.0 
2.877464608834e-05 5.056912107765e-03 0.0 
0.0 0.0 -7.842605076999e-04 
-4.245977401382e-04 1.301715382003e-03 0.0 
1.301715382003e-03 2.484999694538e-03 0.0 
0.0 0.0 -5.042822341261e-04 
-8.141088315077e-04 3.778227072886e-04 0.0 
3.778227072886e-04 4.370548075301e-03 0.0 
0.0 0.0 -6.840799553763e-04 
-1.128956121950e-03 -1.816355743224e-04 0.0 
-1.816355743224e-04 5.879621026637e-03 0.0 
0.0 0.0 -8.722824885218e-04 
-5.657686865338e-04 1.006813399921e-03 0.0 
1.006813399921e-03 2.114854539436e-03 0.0 
0.0 0.0 -3.514598124168e-04 
-2.840077947560e-04 7.374002385130e-04 0.0 
7.374002385130e-04 3.016923521918e-03 0.0 
0.0 0.0 -5.911455407098e-04 
-1.107826402130e-03 -1.895219266089e-04 0.0 
-1.895219266089e-04 6.838398808500e-03 0.0 
0.0 0.0 -1.016465148841e-03 
-8.846022414820e-04 1.673369808483e-04 0.0 
1.673369808483e-04 5.274165376609e-03 0.0 
0.0 0.0 -7.680022369673e-04 
-4.363801896578e-04 1.202422263910e-03 0.0 
1.202422263910e-03 2.876866297868e-03 0.0 
0.0 0.0 -5.666226778950e-04 
-8.017363352442e-04 3.924823248397e-04 0.0 
3.924823248397e-04 4.130177357856e-03 0.0 
0.0 0.0 -6.498546761489e-04 
-1.141214369151e-03 6.765310758862e-04 0.0 
6.765310758862e-04 7.271411604946e-03 0.0 
0.0 0.0 -1.136725521675e-03 
-8.548535662047e-04 -2.781485263044e-04 0.0 
-2.781485263044e-04 4.164865359686e-03 0.0 
0.0 0.0 -6.189190723244e-04 
-1.237707508229e-03 4.856674807990e-04 0.0 
4.856674807990e-04 7.956457412847e-03 0.0 
0.0 0.0 -1.285202198870e-03 
-1.271584492805e-03 4.859423083683e-04 0.0 
4.859423083683e-04 8.362652585957e-03 0.0 
0.0 0.0 -1.265486236287e-03 
-6.208228587870e-04 6.861521722427e-04 0.0 
6.861521722427e-04 2.794482215749e-03 0.0 
0.0 0.0 -4.595713030950e-04 
-8.601834141272e-04 -1.130024456241e-04 0.0 
-1.130024456241e-04 3.988529893684e-03 0.0 
0.0 0.0 -6.385407451345e-04 
-9.728705791535e-04 -2.427476520657e-04 0.0 
-2.427476520657e-04 7.014843591236e-03 0.0 
0.0 0.0 -1.152822474774e-03 
-7.582637832037e-04 3.173029778375e-04 0.0 
3.173029778375e-04 3.850177976745e-03 0.0 
0.0 0.0 -6.037256927378e-04 
-5.932602371824e-04 9.450171731982e-04 0.0 
9.450171731982e-04 2.345539596427e-03 0.0 
0.0 0.0 -4.251746348339e-04 
-8.883854653183e-04 4.319931064094e-04 0.0 
4.319931064094e-04 4.807571306798e-03 0.0 
0.0 0.0 -7.443430781256e-04 
-4.655628622191e-04 8.097546048135e-04 0.0 
8.097546048135e-04 3.367415080588e-03 0.0 
0.0 0.0 -6.011186688906e-04 
-1.309467600587e-03 2.274324864678e-04 0.0 
2.274324864678e-04 8.467271508597e-03 0.0 
0.0 0.0 -1.279059907835e-03 
-1.139712663312e-03 5.524271265546e-04 0.0 
5.524271265546e-04 6.895093066062e-03 0.0 
0.0 0.0 -1.060691896764e-03 
-1.282894195515e-03 1.713163621167e-04 0.0 
1.713163621167e-04 7.580646218946e-03 0.0 
0.0 0.0 -1.155968210243e-03 
-4.263760736077e-04 9.726189065638e-04 0.0 
9.726189065638e-04 1.483303861492e-03 0.0 
0.0 0.0 -3.328149423972e-04 
-1.567783780417e-04 7.459959337790e-04 0.0 
7.459959337790e-04 2.633807870816e-03 0.0 
0.0 0.0 -5.558335581882e-04 
-1.150277857659e-03 5.855176210150e-04 0.0 
5.855176210150e-04 7.056066340815e-03 0.0 
0.0 0.0 -1.089453766084e-03 
0.0 0.0 0.0 
0.0 0.0 0.0 
0.0 0.0 0.0 
-7.560981228119e-04 5.568058696449e-04 0.0 
5.568058696449e-04 3.796632807166e-03 0.0 
0.0 0.0 -6.073871274648e-04 
-8.851342185419e-04 -4.312210323728e-04 0.0 
-4.312210323728e-04 6.519433320506e-03 0.0 
0.0 0.0 -1.080675545910e-03 
-1.164869828715e-04 -1.456841600207e-04 0.0 
-1.456841600207e-04 9.923335266216e-04 0.0 
0.0 0.0 -1.605608400042e-04 
-1.274326596506e-03 6.277067703956e-04 0.0 
6.277067703956e-04 8.332587857653e-03 0.0 
0.0 0.0 -1.257517519450e-03 
-1.082557255636e-03 4.467183423513e-04 0.0 
4.467183423513e-04 6.398503814141e-03 0.0 
0.0 0.0 -9.749624431058e-04 
-5.927975267284e-04 -7.287134833264e-04 0.0 
-7.287134833264e-04 3.408230795765e-03 0.0 
0.0 0.0 -5.995223474422e-04 
-8.718953006962e-04 8.285847793953e-05 0.0 
8.285847793953e-05 6.481498684251e-03 0.0 
0.0 0.0 -1.082135573043e-03 
-9.644421873602e-04 1.848918456793e-04 0.0 
1.848918456793e-04 5.622214910538e-03 0.0 
0.0 0.0 -8.259898420369e-04 
-9.976541713563e-04 8.643209894894e-06 0.0 
8.643209894894e-06 5.944166007327e-03 0.0 
0.0 0.0 -8.838609275114e-04 
-1.149666595734e-03 -3.245227479459e-04 0.0 
-3.245227479459e-04 7.662117469895e-03 0.0 
0.0 0.0 -1.237791025003e-03 
-6.377976835771e-04 -6.114567573414e-04 0.0 
-6.114567573414e-04 2.689173763955e-03 0.0 
0.0 0.0 -4.583583101839e-04 
-7.880409547895e-04 7.989113980148e-04 0.0 
7.989113980148e-04 4.542855302031e-03 0.0 
0.0 0.0 -7.480401524272e-04 
-9.214234162490e-04 5.351887786335e-04 0.0 
5.351887786335e-04 5.111262659093e-03 0.0 
0.0 0.0 -7.988399675000e-04 
-1.125534786672e-03 7.028976634264e-05 0.0 
7.028976634264e-05 6.721724443554e-03 0.0 
0.0 0.0 -1.008548823165e-03 
-9.505406595461e-04 1.355801735478e-04 0.0 
1.355801735478e-04 5.273089753614e-03 0.0 
0.0 0.0 -8.035999206669e-04 
-8.920793708860e-04 1.354006487991e-04 0.0 
1.354006487991e-04 4.845817227354e-03 0.0 
0.0 0.0 -7.415510827328e-04 
-6.524274381720e-04 1.661117945530e-04 0.0 
1.661117945530e-04 5.489508378744e-03 0.0 
0.0 0.0 -9.414312740916e-04 
-1.133549865804e-03 2.632851943964e-04 0.0 
2.632851943964e-04 7.143578184647e-03 0.0 
0.0 0.0 -1.105110859848e-03 
0.0 0.0 0.0 
0.0 0.0 0.0 
0.0 0.0 0.0 
-5.963424256803e-04 8.235655420392e-04 0.0 
8.235655420392e-04 2.727118741511e-03 0.0 
0.0 0.0 -4.649757541953e-04 
-6.413935052421e-04 9.083237096949e-04 0.0 
9.083237096949e-04 3.060885376631e-03 0.0 
0.0 0.0 -5.249394872960e-04 
-7.860598654059e-04 4.409893248632e-04 0.0 
4.409893248632e-04 4.491993588337e-03 0.0 
0.0 0.0 -7.181710532390e-04 
-1.182550884137e-03 1.586567680609e-04 0.0 
1.586567680609e-04 7.254490089636e-03 0.0 
0.0 0.0 -1.095076276885e-03 
4.583279132942e-04 6.488863092727e-04 0.0 
6.488863092727e-04 -1.405418918228e-05 0.0 
0.0 0.0 -1.904030246194e-04 
-8.562318666799e-04 -4.982168400307e-04 0.0 
-4.982168400307e-04 6.277290697447e-03 0.0 
0.0 0.0 -1.043355442177e-03 
-8.774345447710e-04 -2.186708792855e-04 0.0 
-2.186708792855e-04 5.055368522856e-03 0.0 
0.0 0.0 -7.763349569542e-04 
-2.555112241128e-04 1.229664321452e-03 0.0 
1.229664321452e-03 2.574406854457e-03 0.0 
0.0 0.0 -5.576783925304e-04 
-8.394427967850e-04 -5.648718734432e-04 0.0 
-5.648718734432e-04 6.055308780542e-03 0.0 
0.0 0.0 -1.006238978475e-03 
-7.021339785738e-05 -2.257880490566e-04 0.0 
-2.257880490566e-04 5.234298020475e-04 0.0 
0.0 0.0 -1.250635456846e-04 
-1.135452312747e-03 4.797857508760e-04 0.0 
4.797857508760e-04 6.834881249119e-03 0.0 
0.0 0.0 -1.040010908530e-03 
8.624072222387e-05 -5.482403482058e-05 0.0 
-5.482403482058e-05 4.623552898900e-04 0.0 
0.0 0.0 -1.166360257537e-04 
-1.840491842350e-04 -5.445744923588e-05 0.0 
-5.445744923588e-05 7.493422687288e-04 0.0 
0.0 0.0 -1.819418517600e-04 
-3.913654307844e-04 1.191507394513e-03 0.0 
1.191507394513e-03 1.470311877001e-03 0.0 
0.0 0.0 -3.246947309473e-04 
-6.091026736672e-04 -6.117663185554e-04 0.0 
-6.117663185554e-04 2.275310364661e-03 0.0 
0.0 0.0 -3.935955730116e-04 
-1.177121720242e-03 9.986808741325e-05 0.0 
9.986808741325e-05 7.155425965963e-03 0.0 
0.0 0.0 -1.073797489760e-03 
-5.625078577902e-04 -9.911531115061e-04 0.0 
-9.911531115061e-04 2.166295973773e-03 0.0 
0.0 0.0 -3.637595386041e-04 
-2.431075708166e-04 1.562437016590e-03 0.0 
1.562437016590e-03 1.376800568989e-03 0.0 
0.0 0.0 -3.890718233399e-04 
1.128852675938e-04 -1.510947419960e-03 0.0 
-1.510947419960e-03 7.754974600039e-04 0.0 
0.0 0.0 -3.807354546848e-04 
-5.007957256990e-04 -4.054148446658e-04 0.0 
-4.054148446658e-04 1.463133010542e-03 0.0 
0.0 0.0 -2.670040094673e-04 
-9.159310068133e-04 1.166570594862e-04 0.0 
1.166570594862e-04 6.711157580750e-03 0.0 
0.0 0.0 -1.117524173959e-03 
-9.108885203266e-04 1.625635707661e-04 0.0 
1.625635707661e-04 5.002433540525e-03 0.0 
0.0 0.0 -7.687972329812e-04 
-1.323980336649e-03 7.113171737239e-05 0.0 
7.113171737239e-05 8.245489008711e-03 0.0 
0.0 0.0 -1.256743614961e-03 
0.0 0.0 0.0 
0.0 0.0 0.0 
0.0 0.0 0.0 
-3.330839468946e-04 1.604359709376e-03 0.0 
1.604359709376e-03 1.727019779997e-03 0.0 
0.0 0.0 -4.044045206172e-04 
-3.067142002033e-04 1.081368075103e-03 0.0 
1.081368075103e-03 3.044773964149e-03 0.0 
0.0 0.0 -6.230907113744e-04 
-7.160262700323e-04 6.408733665596e-04 0.0 
6.408733665596e-04 3.506266837881e-03 0.0 
0.0 0.0 -5.709397776106e-04 
-8.360378415299e-04 -1.180231066695e-05 0.0 
-1.180231066695e-05 6.234265106431e-03 0.0 
0.0 0.0 -1.045235091131e-03 
-1.333473067012e-03 -5.395820062031e-05 0.0 
-5.395820062031e-05 8.405361436706e-03 0.0 
0.0 0.0 -1.275930989368e-03 
-1.131889764436e-03 1.436010865761e-04 0.0 
1.436010865761e-04 6.812686989612e-03 0.0 
0.0 0.0 -1.029499106509e-03 
5.269662907404e-05 8.913991735483e-04 0.0 
8.913991735483e-04 1.741226620489e-03 0.0 
0.0 0.0 -4.564841486881e-04 
-9.276981546427e-04 -3.123244619600e-04 0.0 
-3.123244619600e-04 6.731635440410e-03 0.0 
0.0 0.0 -1.116166892424e-03 
-1.162987388940e-03 1.784362897977e-04 0.0 
1.784362897977e-04 6.231822734238e-03 0.0 
0.0 0.0 -9.512440159151e-04 
-8.362061665926e-04 3.771233097708e-04 0.0 
3.771233097708e-04 4.773003845214e-03 0.0 
0.0 0.0 -7.537083776970e-04 
-1.102280810414e-03 4.919717221224e-04 0.0 
4.919717221224e-04 6.560511914991e-03 0.0 
0.0 0.0 -1.003200534345e-03 
-1.172867451038e-03 2.356902410022e-04 0.0 
2.356902410022e-04 7.744999640819e-03 0.0 
0.0 0.0 -1.239730878702e-03 
-2.254924367537e-04 5.849015682570e-04 0.0 
5.849015682570e-04 3.115409937203e-03 0.0 
0.0 0.0 -6.206208101913e-04 
-3.928189268474e-04 1.275344444358e-03 0.0 
1.275344444358e-03 1.843263560049e-03 0.0 
0.0 0.0 -3.752687577596e-04 
-9.992253787165e-04 1.463025209614e-04 0.0 
1.463025209614e-04 5.687199852232e-03 0.0 
0.0 0.0 -8.662621843288e-04 
-1.349788229223e-03 3.426545086550e-04 0.0 
3.426545086550e-04 9.036920857709e-03 0.0 
0.0 0.0 -1.323568725688e-03 
-7.650406542385e-04 4.751592665984e-04 0.0 
4.751592665984e-04 4.601158149833e-03 0.0 
0.0 0.0 -7.453270327204e-04 
-3.775537039009e-04 2.220958575008e-04 0.0 
2.220958575008e-04 4.208109464666e-03 0.0 
0.0 0.0 -7.768443034385e-04 
-9.417507759690e-04 -3.219991258082e-05 0.0 
-3.219991258082e-05 5.716819141930e-03 0.0 
0.0 0.0 -8.293613651800e-04 
-1.509886751970e-04 -1.135282332652e-03 0.0 
-1.135282332652e-03 1.017427284165e-03 0.0 
0.0 0.0 -3.579782397794e-04 
-9.508294649731e-04 4.627212186017e-04 0.0 
4.627212186017e-04 5.212868888400e-03 0.0 
0.0 0.0 -8.060563724883e-04 
-7.773528700208e-05 1.427065922566e-03 0.0 
1.427065922566e-03 1.665502982993e-03 0.0 
0.0 0.0 -4.590591740919e-04 
3.797527258111e-04 1.020114754415e-03 0.0 
1.020114754415e-03 1.842831286956e-04 0.0 
0.0 0.0 -2.417296519314e-04 
4.052395816326e-04 -6.135338758200e-04 0.0 
-6.135338758200e-04 -1.137161459364e-06 0.0 
0.0 0.0 -1.731867515028e-04 
-1.167546277040e-03 4.626490460642e-04 0.0 
4.626490460642e-04 7.101376568989e-03 0.0 
0.0 0.0 -1.075985979751e-03 
-9.623797546726e-04 1.845333678616e-04 0.0 
1.845333678616e-04 5.429528329259e-03 0.0 
0.0 0.0 -8.312490730234e-04 
-5.046075129470e-04 1.194499845990e-03 0.0 
1.194499845990e-03 2.882799900291e-03 0.0 
0.0 0.0 -5.429493831729e-04 
-1.206327788760e-03 8.269099761282e-05 0.0 
8.269099761282e-05 7.415962584707e-03 0.0 
0.0 0.0 -1.109763131677e-03 
-1.142751356386e-03 1.744200963682e-04 0.0 
1.744200963682e-04 6.974478761757e-03 0.0 
0.0 0.0 -1.057773507355e-03 
-8.833943353455e-04 3.220642776102e-04 0.0 
3.220642776102e-04 5.046401869676e-03 0.0 
0.0 0.0 -7.887050335656e-04 
-1.278006429871e-03 -2.029556331096e-04 0.0 
-2.029556331096e-04 8.153709597249e-03 0.0 
0.0 0.0 -1.288412101370e-03 
-4.271610777015e-04 5.562024212731e-04 0.0 
5.562024212731e-04 4.316314637617e-03 0.0 
0.0 0.0 -8.078958932737e-04 
-9.266589239438e-04 2.700924202998e-04 0.0 
2.700924202998e-04 5.312918686649e-03 0.0 
0.0 0.0 -8.238265297874e-04 
-4.963470151794e-04 6.905692722870e-04 0.0 
6.905692722870e-04 3.767490595173e-03 0.0 
0.0 0.0 -6.656476441012e-04 
-4.749686160319e-04 1.532444199585e-04 0.0 
1.532444199585e-04 4.696915836540e-03 0.0 
0.0 0.0 -8.413031780454e-04 
2.625503227397e-04 1.238828002540e-03 0.0 
1.238828002540e-03 6.651443892644e-04 0.0 
0.0 0.0 -3.865807678710e-04 
-9.465847814334e-04 1.767858078852e-04 0.0 
1.767858078852e-04 5.036126749418e-03 0.0 
0.0 0.0 -7.898058234521e-04 
-1.895610884557e-04 4.026718807994e-04 0.0 
4.026718807994e-04 3.226201886936e-03 0.0 
0.0 0.0 -6.486359607860e-04 
1.616252847495e-04 -9.427764674384e-04 0.0 
-9.427764674384e-04 1.519153345857e-03 0.0 
0.0 0.0 -4.681053320140e-04 
-1.124321372716e-03 5.190781523116e-04 0.0 
5.190781523116e-04 6.737556221388e-03 0.0 
0.0 0.0 -1.032318248600e-03 
0.0 0.0 0.0 
0.0 0.0 0.0 
0.0 0.0 0.0 
-9.848011893069e-04 9.254887770331e-05 0.0 
9.254887770331e-05 5.522315715833e-03 0.0 
0.0 0.0 -8.386390795737e-04 
1.936986156422e-05 1.160151507078e-03 0.0 
1.160151507078e-03 1.716486351178e-03 0.0 
0.0 0.0 -4.870240021111e-04 
-2.325836748457e-04 1.289855956993e-03 0.0 
1.289855956993e-03 1.788704446122e-03 0.0 
0.0 0.0 -4.015254440178e-04 
4.595658441768e-04 4.744943126908e-04 0.0 
4.744943126908e-04 7.528832652437e-04 0.0 
0.0 0.0 -4.054414645912e-04 
-1.008402327414e-03 5.265744671369e-04 0.0 
5.265744671369e-04 5.786538932645e-03 0.0 
0.0 0.0 -8.965110541436e-04 
-2.494216096235e-04 -4.335362183750e-04 0.0 
-4.335362183750e-04 9.422411490062e-04 0.0 
0.0 0.0 -1.609926926485e-04 
-6.820720035477e-04 8.119732659470e-04 0.0 
8.119732659470e-04 3.361151585438e-03 0.0 
0.0 0.0 -5.613503766092e-04 
-5.249648680804e-04 4.982973278599e-04 0.0 
4.982973278599e-04 4.821038106347e-03 0.0 
0.0 0.0 -8.726802719924e-04 
-9.620382926610e-04 5.073054538474e-04 0.0 
5.073054538474e-04 5.367475776694e-03 0.0 
0.0 0.0 -8.336838631977e-04 
-9.866522304222e-04 1.405170818081e-04 0.0 
1.405170818081e-04 5.654603971252e-03 0.0 
0.0 0.0 -8.301023967811e-04 
2.987392461190e-04 2.567812312072e-04 0.0 
2.567812312072e-04 -6.027321301994e-05 0.0 
0.0 0.0 -1.021997284710e-04 
2.232246709604e-04 -1.918559463565e-04 0.0 
-1.918559463565e-04 1.424673883171e-03 0.0 
0.0 0.0 -4.706942212664e-04 
9.862482380878e-05 -1.372550038116e-03 0.0 
-1.372550038116e-03 1.318021718147e-03 0.0 
0.0 0.0 -4.311372127493e-04 
-6.563785485795e-04 5.486582363547e-04 0.0 
5.486582363547e-04 3.058796699974e-03 0.0 
0.0 0.0 -4.957039317942e-04 
-1.115649045089e-03 1.001564757614e-04 0.0 
1.001564757614e-04 6.632881085886e-03 0.0 
0.0 0.0 -1.000663671924e-03 
-6.796028561542e-04 5.568827768722e-04 0.0 
5.568827768722e-04 3.430251503350e-03 0.0 
0.0 0.0 -5.577786207633e-04 
-1.458115086374e-04 8.292196236090e-04 0.0 
8.292196236090e-04 2.768893991105e-03 0.0 
0.0 0.0 -6.151539951222e-04 
-1.886011553539e-04 1.051832417911e-03 0.0 
1.051832417911e-03 2.651380485181e-03 0.0 
0.0 0.0 -5.868308051845e-04 
4.119056616429e-04 4.824818133927e-04 0.0 
4.824818133927e-04 -5.163543584123e-05 0.0 
0.0 0.0 -1.544015253436e-04 
-5.103402652263e-04 1.016313603146e-03 0.0 
1.016313603146e-03 3.773155867782e-03 0.0 
0.0 0.0 -6.959382511914e-04 
-1.626884107157e-04 1.342060582958e-03 0.0 
1.342060582958e-03 1.124683386977e-03 0.0 
0.0 0.0 -3.635305771564e-04 
-1.332783064049e-03 3.949756871870e-04 0.0 
3.949756871870e-04 8.970989248616e-03 0.0 
0.0 0.0 -1.321446319728e-03 
-1.363423366848e-03 4.246461146743e-04 0.0 
4.246461146743e-04 8.919856195938e-03 0.0 
0.0 0.0 -1.318029376683e-03 
-7.707229978672e-04 8.349277957258e-04 0.0 
8.349277957258e-04 4.657152987880e-03 0.0 
0.0 0.0 -7.755312068111e-04 
8.477148352467e-05 1.389041319869e-03 0.0 
1.389041319869e-03 1.180405502280e-03 0.0 
0.0 0.0 -4.232985079168e-04 
-7.785189424599e-05 1.403831464932e-03 0.0 
1.403831464932e-03 1.344103223027e-03 0.0 
0.0 0.0 -3.659709354871e-04 
-9.354111606034e-04 6.403030867596e-04 0.0 
6.403030867596e-04 5.396292848320e-03 0.0 
0.0 0.0 -8.539191708180e-04 
9.999732188838e-05 1.139160073047e-03 0.0 
1.139160073047e-03 1.275333839354e-03 0.0 
0.0 0.0 -3.930530440640e-04 
2.202450365264e-04 -6.175447713642e-04 0.0 
-6.175447713642e-04 1.218766433543e-03 0.0 
0.0 0.0 -4.339875075689e-04 
-8.457389435740e-04 6.790973874792e-04 0.0 
6.790973874792e-04 4.708791579724e-03 0.0 
0.0 0.0 -7.563811545761e-04 
-1.327783261122e-03 1.214241298840e-04 0.0 
1.214241298840e-04 8.708921592335e-03 0.0 
0.0 0.0 -1.266640259566e-03 
-1.253349979010e-04 1.227176291700e-03 0.0 
1.227176291700e-03 2.155279357023e-03 0.0 
0.0 0.0 -5.226246958029e-04 
-6.857827131982e-04 6.109821481705e-04 0.0 
6.109821481705e-04 5.443563599872e-03 0.0 
0.0 0.0 -9.428115367421e-04 
1.005352414743e-05 1.485881480078e-03 0.0 
1.485881480078e-03 9.313511271753e-04 0.0 
0.0 0.0 -4.034591362812e-04 
-1.256876494634e-03 -1.116338181287e-04 0.0 
-1.116338181287e-04 8.512233064138e-03 0.0 
0.0 0.0 -1.322863172658e-03 
-5.368107279651e-05 1.667223674443e-03 0.0 
1.667223674443e-03 1.192784921883e-03 0.0 
0.0 0.0 -3.959736908235e-04 
-8.401524306230e-04 7.380205594863e-04 0.0 
7.380205594863e-04 4.834030021030e-03 0.0 
0.0 0.0 -7.835188407615e-04 
5.148731166168e-04 5.137437753511e-04 0.0 
5.137437753511e-04 -7.966675073375e-05 0.0 
0.0 0.0 -1.865170139499e-04 
-5.892765440231e-04 4.534415622219e-05 0.0 
4.534415622219e-05 5.187712345136e-03 0.0 
0.0 0.0 -9.211625808215e-04 
-2.619705547916e-04 9.063726296434e-04 0.0 
9.063726296434e-04 3.144147236726e-03 0.0 
0.0 0.0 -6.516619296807e-04 
5.136778266446e-05 -8.544458010471e-04 0.0 
-8.544458010471e-04 1.672478035934e-03 0.0 
0.0 0.0 -4.625367401933e-04 
-9.230469363571e-04 2.192959829449e-04 0.0 
2.192959829449e-04 5.165828729947e-03 0.0 
0.0 0.0 -7.963903837170e-04 
-1.338316942917e-03 5.052217518095e-04 0.0 
5.052217518095e-04 8.833234944730e-03 0.0 
0.0 0.0 -1.324865334549e-03 
-6.025361920258e-05 9.743864967892e-04 0.0 
9.743864967892e-04 2.246037318888e-03 0.0 
0.0 0.0 -5.510338386786e-04 
-4.966114613551e-04 2.324572275960e-05 0.0 
2.324572275960e-05 4.887340644677e-03 0.0 
0.0 0.0 -8.703234504572e-04 
-4.984372673971e-05 1.535578283139e-03 0.0 
1.535578283139e-03 1.001433575544e-03 0.0 
0.0 0.0 -3.453408408593e-04 
-1.068497402403e-03 3.485541216510e-04 0.0 
3.485541216510e-04 6.344714792472e-03 0.0 
0.0 0.0 -9.576894438039e-04 
-8.089599515326e-04 -1.073379708431e-04 0.0 
-1.073379708431e-04 5.996798576901e-03 0.0 
0.0 0.0 -1.008345180213e-03 
-4.736853950805e-04 1.081684251561e-03 0.0 
1.081684251561e-03 2.201297944192e-03 0.0 
0.0 0.0 -4.109515902261e-04 
-1.055848474588e-03 -6.244673246336e-05 0.0 
-6.244673246336e-05 6.209225770776e-03 0.0 
0.0 0.0 -9.257128893455e-04 
-1.318413144677e-03 5.597520288916e-04 0.0 
5.597520288916e-04 8.736177841961e-03 0.0 
0.0 0.0 -1.322580803729e-03 
-9.099621181087e-04 -7.844937670166e-05 0.0 
-7.844937670166e-05 6.486423483438e-03 0.0 
0.0 0.0 -1.075861678316e-03 
-1.339852007458e-03 4.885566376854e-04 0.0 
4.885566376854e-04 8.877779505668e-03 0.0 
0.0 0.0 -1.322091174222e-03 
-1.037601774292e-03 -4.998348071014e-05 0.0 
-4.998348071014e-05 6.134914618430e-03 0.0 
0.0 0.0 -9.196498359204e-04 
-1.117033596766e-03 2.433107206605e-04 0.0 
2.433107206605e-04 6.851288038562e-03 0.0 
0.0 0.0 -1.048263655743e-03 
-5.132028134043e-04 1.102114687126e-03 0.0 
1.102114687126e-03 1.849180492075e-03 0.0 
0.0 0.0 -3.491910591611e-04 
-8.752311967057e-04 2.096761775609e-04 0.0 
2.096761775609e-04 4.753971328354e-03 0.0 
0.0 0.0 -7.343713905235e-04 
-9.300305532746e-04 5.926935085268e-04 0.0 
5.926935085268e-04 5.253991145748e-03 0.0 
0.0 0.0 -8.263924940540e-04 
-9.692706598054e-04 2.261418497641e-04 0.0 
2.261418497641e-04 5.579447270465e-03 0.0 
0.0 0.0 -8.589723558544e-04 
-7.013973697775e-04 5.476600750058e-04 0.0 
5.476600750058e-04 4.307373761106e-03 0.0 
0.0 0.0 -7.101745248689e-04 
-1.306990612628e-03 5.041978193775e-04 0.0 
5.041978193775e-04 8.672501482610e-03 0.0 
0.0 0.0 -1.322334986692e-03 
-9.943643695485e-04 3.416073873728e-04 0.0 
3.416073873728e-04 5.867113055505e-03 0.0 
0.0 0.0 -8.810748613436e-04 
-9.323244271653e-04 9.613325556177e-05 0.0 
9.613325556177e-05 5.115490294310e-03 0.0 
0.0 0.0 -7.763708431881e-04 
-1.001832059306e-04 5.266866745758e-04 0.0 
5.266866745758e-04 2.724835239940e-03 0.0 
0.0 0.0 -5.843899590101e-04 
-5.790296725673e-04 -5.326125379184e-04 0.0 
-5.326125379184e-04 1.882091514832e-03 0.0 
0.0 0.0 -3.280768480529e-04 
-8.597084284199e-04 1.491840850699e-04 0.0 
1.491840850699e-04 4.593177939361e-03 0.0 
0.0 0.0 -7.069124235890e-04 
-4.246089693938e-04 1.428928262105e-03 0.0 
1.428928262105e-03 2.122954743528e-03 0.0 
0.0 0.0 -4.404772202000e-04 
-8.726090169173e-04 -3.101571305491e-05 0.0 
-3.101571305491e-05 5.309765821533e-03 0.0 
0.0 0.0 -7.696142143080e-04 
-7.647244692159e-05 -1.455292213990e-03 0.0 
-1.455292213990e-03 1.759408115361e-03 0.0 
0.0 0.0 -4.595640944490e-04 
-1.784270519959e-05 6.865399459055e-04 0.0 
6.865399459055e-04 2.226340647437e-03 0.0 
0.0 0.0 -5.202658224677e-04 
-1.156111700983e-03 5.188644452185e-04 0.0 
5.188644452185e-04 7.007873302369e-03 0.0 
0.0 0.0 -1.069052450572e-03 
-3.544111730508e-04 1.143529289652e-03 0.0 
1.143529289652e-03 2.186339618849e-03 0.0 
0.0 0.0 -4.372567615832e-04 
-8.838010647401e-04 5.805967859428e-04 0.0 
5.805967859428e-04 4.846530847442e-03 0.0 
0.0 0.0 -7.640689829422e-04 
-5.498264973309e-04 3.710435615581e-04 0.0 
3.710435615581e-04 5.012164832543e-03 0.0 
0.0 0.0 -9.014246907137e-04 
-6.358980608267e-04 -4.313104688366e-04 0.0 
-4.313104688366e-04 4.627036023584e-03 0.0 
0.0 0.0 -8.035328976187e-04 
-1.261046308643e-03 3.887646222973e-04 0.0 
3.887646222973e-04 8.565225437675e-03 0.0 
0.0 0.0 -1.324762665914e-03 
-7.961969453534e-04 2.495159098011e-04 0.0 
2.495159098011e-04 4.113140991581e-03 0.0 
0.0 0.0 -6.390224077203e-04 
3.053061856643e-04 2.267805296744e-04 0.0 
2.267805296744e-04 1.077273840324e-03 0.0 
0.0 0.0 -4.422638729430e-04 
-5.704666668683e-04 -1.178468115440e-03 0.0 
-1.178468115440e-03 3.201154498828e-03 0.0 
0.0 0.0 -5.691257024010e-04 
-5.951122843918e-04 8.042220484985e-04 0.0 
8.042220484985e-04 2.449547643677e-03 0.0 
0.0 0.0 -4.184705811166e-04 
-5.000320666269e-04 1.320407470952e-03 0.0 
1.320407470952e-03 2.143724443106e-03 0.0 
0.0 0.0 -4.141309408042e-04 
-1.196454144110e-03 1.993133203818e-04 0.0 
1.993133203818e-04 7.413315256709e-03 0.0 
0.0 0.0 -1.123886314723e-03 
-8.766172246535e-04 3.573442557890e-04 0.0 
3.573442557890e-04 5.175634424808e-03 0.0 
0.0 0.0 -8.161479701220e-04 
-7.263474599636e-04 3.526993364896e-04 0.0 
3.526993364896e-04 3.570072660402e-03 0.0 
0.0 0.0 -5.672387349321e-04 
-8.352265289735e-04 5.640695091739e-04 0.0 
5.640695091739e-04 4.443467777814e-03 0.0 
0.0 0.0 -7.023794137935e-04 
-1.258131779879e-03 1.361172827669e-04 0.0 
1.361172827669e-04 8.496942290822e-03 0.0 
0.0 0.0 -1.320675234999e-03 
-1.143815948478e-03 -2.922836025442e-06 0.0 
-2.922836025442e-06 7.935052382313e-03 0.0 
0.0 0.0 -1.258064670439e-03 
-1.185356167607e-03 5.772655224951e-04 0.0 
5.772655224951e-04 7.334174599953e-03 0.0 
0.0 0.0 -1.126590436115e-03 
-1.146342777142e-03 1.032030268662e-04 0.0 
1.032030268662e-04 6.902588040038e-03 0.0 
0.0 0.0 -1.037522200811e-03 
-6.004564824823e-04 -8.741253658515e-04 0.0 
-8.741253658515e-04 4.400886106663e-03 0.0 
0.0 0.0 -7.721428985420e-04 
-6.499827822082e-04 6.306060725170e-04 0.0 
6.306060725170e-04 3.517235102446e-03 0.0 
0.0 0.0 -5.842812205453e-04 
2.208852054121e-04 7.449773440899e-04 0.0 
7.449773440899e-04 1.272300042131e-03 0.0 
0.0 0.0 -4.203166018452e-04 
1.283124150736e-04 5.457702178093e-04 0.0 
5.457702178093e-04 1.800318710438e-03 0.0 
0.0 0.0 -4.843489805398e-04 
-8.229602156181e-04 4.179326389388e-04 0.0 
4.179326389388e-04 4.894594765891e-03 0.0 
0.0 0.0 -7.808727949117e-04 
-5.351512224979e-04 -3.319303625282e-04 0.0 
-3.319303625282e-04 5.022677570586e-03 0.0 
0.0 0.0 -8.900964085843e-04 
-8.296790490015e-04 -7.574227516101e-04 0.0 
-7.574227516101e-04 4.266073095582e-03 0.0 
0.0 0.0 -6.810091006415e-04 
-1.209161835961e-03 5.397487415350e-04 0.0 
5.397487415350e-04 7.456423275886e-03 0.0 
0.0 0.0 -1.134236807130e-03 
2.970140770782e-04 -5.886898203256e-04 0.0 
-5.886898203256e-04 1.178529551260e-03 0.0 
0.0 0.0 -4.395655422792e-04 
-6.321441937111e-04 6.212871376415e-04 0.0 
6.212871376415e-04 4.001931118120e-03 0.0 
0.0 0.0 -6.750378637491e-04 
-8.881105026694e-04 6.325939136900e-04 0.0 
6.325939136900e-04 4.979851951469e-03 0.0 
0.0 0.0 -7.913284153978e-04 
-6.067465934174e-04 6.691797761234e-04 0.0 
6.691797761234e-04 3.597583737962e-03 0.0 
0.0 0.0 -6.122259156574e-04 
-1.324329620218e-03 4.629903675986e-04 0.0 
4.629903675986e-04 8.904888157841e-03 0.0 
0.0 0.0 -1.320088186226e-03 
-1.359586791555e-03 4.788353102242e-04 0.0 
4.788353102242e-04 8.942288232093e-03 0.0 
0.0 0.0 -1.318462653075e-03 
-1.290025244180e-03 1.809732516489e-04 0.0 
1.809732516489e-04 8.380056929833e-03 0.0 
0.0 0.0 -1.256494544188e-03 
-6.742581298534e-04 -7.798202117693e-04 0.0 
-7.798202117693e-04 4.873866166937e-03 0.0 
0.0 0.0 -8.375255977276e-04 
-1.194824314076e-03 4.521929309845e-04 0.0 
4.521929309845e-04 7.360058874814e-03 0.0 
0.0 0.0 -1.112065035246e-03 
-4.430818055786e-04 1.485014206495e-03 0.0 
1.485014206495e-03 1.784679357047e-03 0.0 
0.0 0.0 -3.785953687517e-04 
2.729854799726e-05 3.936097668604e-04 0.0 
3.936097668604e-04 2.328364048534e-03 0.0 
0.0 0.0 -5.483018170244e-04 
5.295881833206e-04 7.121810223511e-04 0.0 
7.121810223511e-04 1.629388308909e-04 0.0 
0.0 0.0 -2.967972918049e-04 
-7.211884972610e-04 4.566068001278e-04 0.0 
4.566068001278e-04 3.698308171073e-03 0.0 
0.0 0.0 -5.936226173563e-04 
-9.121582442551e-04 9.143313993339e-05 0.0 
9.143313993339e-05 5.030258123682e-03 0.0 
0.0 0.0 -7.914980036671e-04 
-1.035929216748e-03 3.563880147614e-04 0.0 
3.563880147614e-04 6.090521981813e-03 0.0 
0.0 0.0 -9.214502702889e-04 
-1.168840555119e-03 -8.744363195648e-05 0.0 
-8.744363195648e-05 8.066384051930e-03 0.0 
0.0 0.0 -1.265403586923e-03 
-1.162609015209e-03 6.330590177409e-04 0.0 
6.330590177409e-04 7.197897661744e-03 0.0 
0.0 0.0 -1.117224974728e-03 
-9.919773035698e-04 4.807053877499e-04 0.0 
4.807053877499e-04 5.626646372679e-03 0.0 
0.0 0.0 -8.687609488834e-04 
-9.791621869581e-04 6.007006909595e-04 0.0 
6.007006909595e-04 5.670050972566e-03 0.0 
0.0 0.0 -8.891947744737e-04 
4.804557488344e-04 9.476988486698e-04 0.0 
9.476988486698e-04 9.767658471986e-05 0.0 
0.0 0.0 -2.477710000947e-04 
-2.208441256582e-04 -6.752013946383e-04 0.0 
-6.752013946383e-04 8.882775518556e-04 0.0 
0.0 0.0 -2.467363499356e-04 
-4.153429420499e-04 1.059032103328e-03 0.0 
1.059032103328e-03 3.417216683434e-03 0.0 
0.0 0.0 -6.594106982652e-04 
-6.669546155335e-04 5.596997560711e-04 0.0 
5.596997560711e-04 4.411048143991e-03 0.0 
0.0 0.0 -7.376142925499e-04 
-4.466823138591e-04 6.032870064143e-04 0.0 
6.032870064143e-04 3.840807050757e-03 0.0 
0.0 0.0 -6.931905564144e-04 
6.417191678250e-05 8.603242808997e-04 0.0 
8.603242808997e-04 4.417253736716e-04 0.0 
0.0 0.0 -2.168131244803e-04 
-9.528466809374e-04 9.473419018348e-05 0.0 
9.473419018348e-05 5.427141204722e-03 0.0 
0.0 0.0 -8.462285223656e-04 
-5.049741343807e-04 -8.812005228938e-04 0.0 
-8.812005228938e-04 1.770302560701e-03 0.0 
0.0 0.0 -2.972104253142e-04 
-2.017300964170e-04 1.588765395916e-03 0.0 
1.588765395916e-03 1.677129549565e-03 0.0 
0.0 0.0 -4.314049239902e-04 
-1.341153861134e-03 -7.479496163087e-05 0.0 
-7.479496163087e-05 8.257374884626e-03 0.0 
0.0 0.0 -1.341153861134e-03 
-6.757643640114e-04 6.444207577368e-05 0.0 
6.444207577368e-05 5.692433792017e-03 0.0 
0.0 0.0 -9.717687626070e-04 
-9.402714050330e-04 4.164454812488e-04 0.0 
4.164454812488e-04 5.059115903313e-03 0.0 
0.0 0.0 -7.790007367612e-04 
-1.996455075654e-04 1.120227626459e-04 0.0 
1.120227626459e-04 1.363834974093e-03 0.0 
0.0 0.0 -2.176483604987e-04 
-7.316139978666e-04 8.725598858698e-04 0.0 
8.725598858698e-04 4.250250205740e-03 0.0 
0.0 0.0 -7.126719623954e-04 
-3.416312472277e-04 6.071238986655e-04 0.0 
6.071238986655e-04 3.482434275960e-03 0.0 
0.0 0.0 -6.569982659716e-04 
-1.010067214733e-03 1.858710736428e-04 0.0 
1.858710736428e-04 5.842461225268e-03 0.0 
0.0 0.0 -8.940630110299e-04 
-1.333890643160e-03 5.791621130684e-04 0.0 
5.791621130684e-04 8.805315107962e-03 0.0 
0.0 0.0 -1.323832587333e-03 
-8.707338927728e-04 5.246940464045e-04 0.0 
5.246940464045e-04 4.704277736275e-03 0.0 
0.0 0.0 -7.366500567795e-04 
-9.271217876491e-04 3.071330387493e-04 0.0 
3.071330387493e-04 5.453258810761e-03 0.0 
0.0 0.0 -8.513774089097e-04 
-8.050460189817e-04 -4.209308180889e-04 0.0 
-4.209308180889e-04 4.202095383354e-03 0.0 
0.0 0.0 -6.837695253815e-04 
-1.187192617587e-03 5.026303496447e-04 0.0 
5.026303496447e-04 7.280339694805e-03 0.0 
0.0 0.0 -1.105258581891e-03 
-7.119244178252e-04 -3.438823351423e-04 0.0 
-3.438823351423e-04 5.099696206057e-03 0.0 
0.0 0.0 -8.691653677727e-04 
-1.316090240167e-03 5.389588138701e-04 0.0 
5.389588138701e-04 8.780826577697e-03 0.0 
0.0 0.0 -1.322174839672e-03 
-1.340103718614e-03 4.728281156223e-04 0.0 
4.728281156223e-04 8.628873091994e-03 0.0 
0.0 0.0 -1.340103718614e-03 
-1.341028575724e-03 3.568557509173e-04 0.0 
3.568557509173e-04 8.716110367900e-03 0.0 
0.0 0.0 -1.341028575724e-03 
-1.338044909071e-03 4.168385009661e-04 0.0 
4.168385009661e-04 8.630348436964e-03 0.0 
0.0 0.0 -1.338044909071e-03 
-1.019072052988e-03 5.681193801066e-04 0.0 
5.681193801066e-04 5.940654999783e-03 0.0 
0.0 0.0 -9.244680137507e-04 
-1.198675717763e-03 1.360258094172e-04 0.0 
1.360258094172e-04 7.335887667339e-03 0.0 
0.0 0.0 -1.103002250422e-03 
-1.198479165231e-03 6.200957679300e-04 0.0 
6.200957679300e-04 7.509008113829e-03 0.0 
0.0 0.0 -1.155914796392e-03 
-6.394343852437e-04 1.004430984718e-03 0.0 
1.004430984718e-03 3.542163334784e-03 0.0 
0.0 0.0 -6.147330147620e-04 
-6.675475430971e-04 9.277672711453e-04 0.0 
9.277672711453e-04 3.456421744926e-03 0.0 
0.0 0.0 -5.872917534094e-04 
-8.247859078912e-04 -6.922016390902e-04 0.0 
-6.922016390902e-04 4.077408079033e-03 0.0 
0.0 0.0 -6.436934073013e-04 
-1.217910302125e-03 1.553299834490e-04 0.0 
1.553299834490e-04 7.518311075799e-03 0.0 
0.0 0.0 -1.131852245309e-03 
-1.311936692750e-03 5.307865598084e-04 0.0 
5.307865598084e-04 8.695029491200e-03 0.0 
0.0 0.0 -1.322440284024e-03 
-1.214240069695e-03 4.882095922708e-04 0.0 
4.882095922708e-04 7.535305569948e-03 0.0 
0.0 0.0 -1.141180801552e-03 
-5.747438901480e-04 1.003283814169e-04 0.0 
1.003283814169e-04 5.194431951746e-03 0.0 
0.0 0.0 -9.063345769726e-04 
-1.227388762698e-03 1.265853976664e-04 0.0 
1.265853976664e-04 7.592479060989e-03 0.0 
0.0 0.0 -1.138864741757e-03 
-8.838474672112e-04 3.395282227197e-04 0.0 
3.395282227197e-04 6.126324240512e-03 0.0 
0.0 0.0 -9.903545940741e-04 
-6.357684789507e-04 9.653705253964e-04 0.0 
9.653705253964e-04 4.033111277517e-03 0.0 
0.0 0.0 -7.049739924763e-04 
-7.219643329354e-04 7.270984363887e-04 0.0 
7.270984363887e-04 3.640512255542e-03 0.0 
0.0 0.0 -5.967387615352e-04 
1.271449544166e-04 1.530874377193e-03 0.0 
1.530874377193e-03 7.660888374693e-04 0.0 
0.0 0.0 -3.828144822368e-04 
-1.311008186282e-03 3.440606395408e-04 0.0 
3.440606395408e-04 8.440809804770e-03 0.0 
0.0 0.0 -1.282213402295e-03 
-5.754210014705e-04 1.101723762793e-03 0.0 
1.101723762793e-03 3.231346314138e-03 0.0 
0.0 0.0 -5.792479259103e-04 
-1.176826657867e-03 4.517387013495e-04 0.0 
4.517387013495e-04 7.668341186852e-03 0.0 
0.0 0.0 -1.230767059693e-03 
-8.116549819174e-04 -3.660838800677e-04 0.0 
-3.660838800677e-04 4.013024169842e-03 0.0 
0.0 0.0 -6.465396845166e-04 
-1.917368362491e-04 -1.670915138255e-03 0.0 
-1.670915138255e-03 1.673857297907e-03 0.0 
0.0 0.0 -4.222915044375e-04 
-1.218810452461e-03 -6.182829621563e-05 0.0 
-6.182829621563e-05 7.834853919449e-03 0.0 
0.0 0.0 -1.284312900220e-03 
-3.227899414303e-04 1.463352553329e-03 0.0 
1.463352553329e-03 2.102017459643e-03 0.0 
0.0 0.0 -4.669824892858e-04 
-1.341987455608e-03 4.935381790995e-04 0.0 
4.935381790995e-04 8.595598521703e-03 0.0 
0.0 0.0 -1.341987455608e-03 
-1.324901016307e-03 3.587683922887e-04 0.0 
3.587683922887e-04 8.344464300183e-03 0.0 
0.0 0.0 -1.282654109251e-03 
-8.850522684098e-04 7.214064072268e-04 0.0 
7.214064072268e-04 5.245748206413e-03 0.0 
0.0 0.0 -8.462542048450e-04 
-8.057611890132e-05 -1.710152855484e-04 0.0 
-1.710152855484e-04 3.103213667799e-04 0.0 
0.0 0.0 -9.846224909082e-05 
-1.340954708392e-03 5.230440169069e-04 0.0 
5.230440169069e-04 8.529172830874e-03 0.0 
0.0 0.0 -1.340954708391e-03 
-1.218199846518e-03 4.994387147233e-06 0.0 
4.994387147233e-06 7.808383985296e-03 0.0 
0.0 0.0 -1.284661450484e-03 
-4.838292351495e-05 -1.134502527952e-03 0.0 
-1.134502527952e-03 1.589566893982e-03 0.0 
0.0 0.0 -4.253660281670e-04 
-6.012411031331e-04 -5.471211505195e-06 0.0 
-5.471211505195e-06 5.388600975266e-03 0.0 
0.0 0.0 -9.353130867196e-04 
-1.284222320321e-03 3.331079903689e-04 0.0 
3.331079903689e-04 8.551492227036e-03 0.0 
0.0 0.0 -1.323014926434e-03 
0.0 0.0 0.0 
0.0 0.0 0.0 
0.0 0.0 0.0 
-6.023691884067e-04 1.029224405588e-03 0.0 
1.029224405588e-03 3.627406800571e-03 0.0 
0.0 0.0 -6.425506931502e-04 
-9.361925531562e-04 6.770287321789e-04 0.0 
6.770287321789e-04 5.532046743254e-03 0.0 
0.0 0.0 -8.816033652580e-04 
-8.298014528126e-04 7.768529914015e-04 0.0 
7.768529914015e-04 4.954128457589e-03 0.0 
0.0 0.0 -8.109139232486e-04 
-8.897770840316e-04 6.877783995216e-04 0.0 
6.877783995216e-04 5.117343312454e-03 0.0 
0.0 0.0 -8.186613860469e-04 
-1.469792992645e-04 1.697477444243e-03 0.0 
1.697477444243e-03 1.268784698810e-03 0.0 
0.0 0.0 -3.960833248805e-04 
-1.341360672448e-03 5.109795992512e-04 0.0 
5.109795992512e-04 8.445730971081e-03 0.0 
0.0 0.0 -1.341360672448e-03 
-7.719693981544e-05 2.760009161414e-04 0.0 
2.760009161414e-04 2.850848330235e-03 0.0 
0.0 0.0 -6.123778370825e-04 
1.753729935007e-04 1.501404700023e-05 0.0 
1.501404700023e-05 -5.243892185942e-05 0.0 
0.0 0.0 -5.268603070342e-05 
-1.302465582654e-03 -2.496096405259e-04 0.0 
-2.496096405259e-04 8.365120953103e-03 0.0 
0.0 0.0 -1.272354826527e-03 
-1.485058388714e-04 -2.923397016935e-04 0.0 
-2.923397016935e-04 5.768067641682e-04 0.0 
0.0 0.0 -1.019437782286e-04 
-7.982614346128e-04 6.111031080938e-04 0.0 
6.111031080938e-04 4.181968739078e-03 0.0 
0.0 0.0 -6.678899790658e-04 
2.246133581427e-04 -6.808997986787e-04 0.0 
-6.808997986787e-04 1.445508393424e-04 0.0 
0.0 0.0 -1.582132274936e-04 
-8.489872345980e-04 4.667487785959e-04 0.0 
4.667487785959e-04 4.536973076965e-03 0.0 
0.0 0.0 -7.094882865497e-04 
-1.255369180247e-03 1.858612183135e-05 0.0 
1.858612183135e-05 8.476379217670e-03 0.0 
0.0 0.0 -1.321823097425e-03 
-1.341255375116e-03 4.796779653900e-04 0.0 
4.796779653900e-04 8.398188684786e-03 0.0 
0.0 0.0 -1.341255375116e-03 
-9.721290586981e-04 5.581628762271e-04 0.0 
5.581628762271e-04 5.522703984207e-03 0.0 
0.0 0.0 -8.613793510407e-04 
1.600321873614e-04 -6.162664284866e-04 0.0 
-6.162664284866e-04 1.802849776087e-04 0.0 
0.0 0.0 -1.458502135586e-04 
3.109225001715e-06 1.120621869491e-06 0.0 
1.120621869491e-06 -8.787071989545e-07 0.0 
0.0 0.0 -9.559362011831e-07 
1.535176122475e-04 -1.236399581379e-03 0.0 
-1.236399581379e-03 5.447751134409e-04 0.0 
0.0 0.0 -2.992683110093e-04 
-1.116873810569e-03 -5.374998991881e-04 0.0 
-5.374998991881e-04 7.110713391746e-03 0.0 
0.0 0.0 -1.121833217354e-03 
-9.101085565852e-04 1.581356444995e-04 0.0 
1.581356444995e-04 5.291968435283e-03 0.0 
0.0 0.0 -7.704300227928e-04 
-9.627171074924e-04 3.587877174801e-05 0.0 
3.587877174801e-05 5.332601127641e-03 0.0 
0.0 0.0 -8.109332722942e-04 
-1.342502730507e-03 4.025374877915e-04 0.0 
4.025374877915e-04 8.333596175980e-03 0.0 
0.0 0.0 -1.342502730507e-03 
-9.258687689408e-04 6.411213788910e-05 0.0 
6.411213788910e-05 5.298171403091e-03 0.0 
0.0 0.0 -7.720444664677e-04 
-1.356038484680e-03 3.810509766439e-04 0.0 
3.810509766439e-04 8.994012411350e-03 0.0 
0.0 0.0 -1.322852565091e-03 
-9.095582700075e-04 6.913502515422e-04 0.0 
6.913502515422e-04 6.199031272495e-03 0.0 
0.0 0.0 -1.020998643257e-03 
-1.011415993933e-03 3.149863478337e-04 0.0 
3.149863478337e-04 5.896378527379e-03 0.0 
0.0 0.0 -8.907448815977e-04 
-5.714615022677e-04 1.156558804127e-03 0.0 
1.156558804127e-03 2.460117787699e-03 0.0 
0.0 0.0 -4.477608806526e-04 
-6.254234584821e-04 4.541246643039e-04 0.0 
4.541246643039e-04 5.320880420055e-03 0.0 
0.0 0.0 -9.378661514434e-04 
3.838669366307e-04 1.236207229742e-03 0.0 
1.236207229742e-03 2.839536722242e-04 0.0 
0.0 0.0 -2.862088323664e-04 
-1.340754991027e-03 2.766872434976e-04 0.0 
2.766872434976e-04 8.283487658048e-03 0.0 
0.0 0.0 -1.340754991027e-03 
-1.339984467612e-03 4.682059719065e-04 0.0 
4.682059719065e-04 8.622431533437e-03 0.0 
0.0 0.0 -1.339984467612e-03 
-1.340417744004e-03 3.687782300389e-04 0.0 
3.687782300389e-04 8.691962583590e-03 0.0 
0.0 0.0 -1.340417744004e-03 
-7.614631425941e-04 -7.600693639472e-04 0.0 
-7.600693639472e-04 5.166067953467e-03 0.0 
0.0 0.0 -8.666500598261e-04 
-8.083534389449e-04 -6.157792834396e-04 0.0 
-6.157792834396e-04 3.875634950425e-03 0.0 
0.0 0.0 -6.062238016986e-04 
-5.875577080076e-04 6.263804956418e-04 0.0 
6.263804956418e-04 4.098789747432e-03 0.0 
0.0 0.0 -7.021192356133e-04 
-7.972896345738e-04 -3.252844081748e-04 0.0 
-3.252844081748e-04 5.374062371917e-03 0.0 
0.0 0.0 -8.981573260837e-04 
-1.339627896631e-03 1.538435656171e-04 0.0 
1.538435656171e-04 8.249387984378e-03 0.0 
0.0 0.0 -1.339627896631e-03 
-7.499431316127e-05 1.153135812952e-03 0.0 
1.153135812952e-03 1.745463721331e-03 0.0 
0.0 0.0 -4.287941800800e-04 
9.963389295363e-05 -4.974640475465e-04 0.0 
-4.974640475465e-04 1.806583108532e-03 0.0 
0.0 0.0 -4.991860405784e-04 
-4.325429609303e-05 -6.957715566116e-04 0.0 
-6.957715566116e-04 2.198402972482e-03 0.0 
0.0 0.0 -5.272458293186e-04 
-1.040852931917e-03 3.039409917234e-04 0.0 
3.039409917234e-04 6.156930146379e-03 0.0 
0.0 0.0 -9.279583942086e-04 
-1.296158163173e-03 -2.117115631842e-04 0.0 
-2.117115631842e-04 8.526713660580e-03 0.0 
0.0 0.0 -1.323537156312e-03 
5.620572206728e-05 -9.064776901539e-04 0.0 
-9.064776901539e-04 4.833799193028e-04 0.0 
0.0 0.0 -2.312509891586e-04 
-1.340775759057e-03 -3.546022348326e-06 0.0 
-3.546022348326e-06 8.220355043040e-03 0.0 
0.0 0.0 -1.340775759057e-03 
-1.115561951243e-04 -9.424028116119e-04 0.0 
-9.424028116119e-04 2.079879554815e-03 0.0 
0.0 0.0 -4.905422085546e-04 
-1.342877878941e-03 5.106164496302e-04 0.0 
5.106164496302e-04 8.578886692927e-03 0.0 
0.0 0.0 -1.342877878941e-03 
-1.213674372651e-03 2.426946528992e-04 0.0 
2.426946528992e-04 7.585431715108e-03 0.0 
0.0 0.0 -1.152765850879e-03 
7.551303923517e-04 -3.431961155864e-05 0.0 
-3.431961155864e-05 -8.356761588733e-06 0.0 
0.0 0.0 -1.964897908492e-04 
-5.576622204016e-04 1.038766121166e-03 0.0 
1.038766121166e-03 3.693734829533e-03 0.0 
0.0 0.0 -6.690559060524e-04 
-1.231945608432e-03 6.630499771306e-05 0.0 
6.630499771306e-05 7.672705385687e-03 0.0 
0.0 0.0 -1.146019594970e-03 
-1.341220131281e-03 5.159350734492e-04 0.0 
5.159350734492e-04 8.502743697499e-03 0.0 
0.0 0.0 -1.341220131281e-03 
-1.018091222593e-03 2.268797553762e-04 0.0 
2.268797553762e-04 5.997567393014e-03 0.0 
0.0 0.0 -9.220067723808e-04 
-9.140544266384e-04 6.590381545290e-04 0.0 
6.590381545290e-04 6.350398110146e-03 0.0 
0.0 0.0 -1.049000704964e-03 
1.948485511646e-04 1.206910249746e-03 0.0 
1.206910249746e-03 4.719329916516e-04 0.0 
0.0 0.0 -2.857635183498e-04 
-1.092933677572e-03 -5.430090234947e-06 0.0 
-5.430090234947e-06 7.417148133219e-03 0.0 
0.0 0.0 -1.228682347183e-03 
-2.597655749325e-04 -9.580958323714e-04 0.0 
-9.580958323714e-04 2.468405464320e-03 0.0 
0.0 0.0 -5.184025592846e-04 
-1.467448334793e-04 -1.253609516085e-03 0.0 
-1.253609516085e-03 2.277465230796e-03 0.0 
0.0 0.0 -5.242929400402e-04 
8.350711239017e-05 -5.741871043008e-04 0.0 
-5.741871043008e-04 2.364507936714e-04 0.0 
0.0 0.0 -1.371248168835e-04 
-1.341079611575e-03 4.984530224516e-04 0.0 
4.984530224516e-04 8.418558490732e-03 0.0 
0.0 0.0 -1.341079611575e-03 
3.309852724411e-04 1.022663251937e-03 0.0 
1.022663251937e-03 7.457111261596e-04 0.0 
0.0 0.0 -3.670041082731e-04 
-9.538216450079e-04 -4.415701274725e-04 0.0 
-4.415701274725e-04 6.798030040948e-03 0.0 
0.0 0.0 -1.110501492391e-03 
-9.815143922996e-04 -1.301923920288e-04 0.0 
-1.301923920288e-04 5.716261133104e-03 0.0 
0.0 0.0 -8.555322119248e-04 
-5.211778943541e-04 -1.357561140200e-03 0.0 
-1.357561140200e-03 2.381396269316e-03 0.0 
0.0 0.0 -4.411586999297e-04 
5.027865284567e-06 -1.162974144005e-03 0.0 
-1.162974144005e-03 1.893137919142e-03 0.0 
0.0 0.0 -4.964677435772e-04 
-9.740976170288e-04 2.668400150695e-04 0.0 
2.668400150695e-04 5.727433876448e-03 0.0 
0.0 0.0 -8.867075537039e-04 
-1.342259935407e-03 3.249478019742e-04 0.0 
3.249478019742e-04 8.304746317588e-03 0.0 
0.0 0.0 -1.342259935407e-03 
-8.513383339797e-04 -2.155531084130e-04 0.0 
-2.155531084130e-04 4.042684079104e-03 0.0 
0.0 0.0 -6.378868265889e-04 
-8.326579327741e-04 -6.269168235212e-04 0.0 
-6.269168235212e-04 5.839362625743e-03 0.0 
0.0 0.0 -9.693340058278e-04 
-7.491524898005e-04 8.473182538136e-04 0.0 
8.473182538136e-04 4.765927930056e-03 0.0 
0.0 0.0 -8.030799362305e-04 
-5.836032186753e-04 -5.383312615796e-04 0.0 
-5.383312615796e-04 5.022073810354e-03 0.0 
0.0 0.0 -8.811160271665e-04 
4.293152286994e-05 -8.173969837308e-04 0.0 
-8.173969837308e-04 2.098601697323e-03 0.0 
0.0 0.0 -5.326451291888e-04 
-7.517931783722e-04 -6.967384815080e-04 0.0 
-6.967384815080e-04 5.353981326588e-03 0.0 
0.0 0.0 -9.031726653527e-04 
-7.384492594484e-04 4.981620025079e-04 0.0 
4.981620025079e-04 4.715692557206e-03 0.0 
0.0 0.0 -7.729461360948e-04 
-9.594660891244e-04 3.310922572756e-04 0.0 
3.310922572756e-04 6.288208991268e-03 0.0 
0.0 0.0 -9.982497011217e-04 
-7.260155598219e-04 4.211913378779e-04 0.0 
4.211913378779e-04 5.817009197579e-03 0.0 
0.0 0.0 -1.003134534203e-03 
-6.776109950317e-04 9.016603010913e-04 0.0 
9.016603010913e-04 4.450317334473e-03 0.0 
0.0 0.0 -7.676694601592e-04 
-7.429113511031e-04 -5.174574473206e-04 0.0 
-5.174574473206e-04 3.948133648233e-03 0.0 
0.0 0.0 -6.551190094499e-04 
-2.218900255169e-04 1.098460281572e-03 0.0 
1.098460281572e-03 2.169381084645e-03 0.0 
0.0 0.0 -4.640097282922e-04 
-8.062369115313e-04 -2.975304159245e-04 0.0 
-2.975304159245e-04 3.811084005570e-03 0.0 
0.0 0.0 -6.091269606258e-04 
-8.824461864644e-04 3.062506020875e-04 0.0 
3.062506020875e-04 6.271794679198e-03 0.0 
0.0 0.0 -1.018204129641e-03 
-4.460788929649e-04 4.040748578588e-04 0.0 
4.040748578588e-04 4.503525698480e-03 0.0 
0.0 0.0 -8.365169925761e-04 
-1.261002707828e-03 -7.504870971913e-05 0.0 
-7.504870971913e-05 8.505176480558e-03 0.0 
0.0 0.0 -1.321929620191e-03 
-1.247677519614e-03 1.094732648068e-04 0.0 
1.094732648068e-04 7.850453942976e-03 0.0 
0.0 0.0 -1.174325249119e-03 
-5.404813862772e-04 -9.466285983316e-04 0.0 
-9.466285983316e-04 2.223885193950e-03 0.0 
0.0 0.0 -4.069995479128e-04 
-1.341047338368e-03 7.540167646977e-05 0.0 
7.540167646977e-05 8.197352777791e-03 0.0 
0.0 0.0 -1.341047338368e-03 
-1.130691151971e-03 -1.784363264906e-05 0.0 
-1.784363264906e-05 8.053842301100e-03 0.0 
0.0 0.0 -1.266414110344e-03 
-4.715184922734e-04 9.294387903624e-04 0.0 
9.294387903624e-04 3.876101003561e-03 0.0 
0.0 0.0 -7.237787631415e-04 
3.035840363914e-05 -4.057342954642e-04 0.0 
-4.057342954642e-04 2.137280708151e-04 0.0 
0.0 0.0 -1.046084890518e-04 
-1.265736625837e-03 -2.342234423567e-04 0.0 
-2.342234423567e-04 8.560274388960e-03 0.0 
0.0 0.0 -1.323469717371e-03 
-1.248103745975e-03 1.754263225543e-04 0.0 
1.754263225543e-04 7.767855351365e-03 0.0 
0.0 0.0 -1.167157861819e-03 
-2.143426304924e-04 -1.125447243117e-03 0.0 
-1.125447243117e-03 2.012406359622e-03 0.0 
0.0 0.0 -4.535238702637e-04 
-1.341709311524e-03 -1.537021795728e-04 0.0 
-1.537021795728e-04 8.247140811223e-03 0.0 
0.0 0.0 -1.341709311524e-03 
-8.340634901946e-04 -6.821178693031e-04 0.0 
-6.821178693031e-04 5.639816405277e-03 0.0 
0.0 0.0 -9.325599965574e-04 
-7.159156796781e-04 8.199594821406e-04 0.0 
8.199594821406e-04 3.747642167749e-03 0.0 
0.0 0.0 -6.229492605273e-04 
-9.690599654105e-04 4.302709909689e-04 0.0 
4.302709909689e-04 5.467189617691e-03 0.0 
0.0 0.0 -8.408860858065e-04 
-3.919357097026e-04 6.068237325883e-05 0.0 
6.068237325883e-05 4.381455962217e-03 0.0 
0.0 0.0 -8.054665293395e-04 
-6.923438558252e-04 -8.520265330426e-04 0.0 
-8.520265330426e-04 4.695093275442e-03 0.0 
0.0 0.0 -8.008683130455e-04 
-6.056515233478e-04 -4.164522829612e-04 0.0 
-4.164522829612e-04 5.267235237804e-03 0.0 
0.0 0.0 -9.181754741429e-04 
-1.093523269899e-03 7.798311719689e-05 0.0 
7.798311719689e-05 6.464920900132e-03 0.0 
0.0 0.0 -9.721028620036e-04 
-8.031200443167e-04 6.781379836070e-04 0.0 
6.781379836070e-04 4.309322447368e-03 0.0 
0.0 0.0 -6.945885048819e-04 
-7.991042375162e-04 4.855628797920e-04 0.0 
4.855628797920e-04 6.126908297853e-03 0.0 
0.0 0.0 -1.039409037654e-03 
-9.955657075652e-04 -4.803366383392e-06 0.0 
-4.803366383392e-06 6.069270927012e-03 0.0 
0.0 0.0 -8.839498032872e-04 
-7.742968154824e-04 -8.517460638285e-04 0.0 
-8.517460638285e-04 4.014337168077e-03 0.0 
0.0 0.0 -6.521967345917e-04 
-6.549358325978e-04 3.442178195061e-04 0.0 
3.442178195061e-04 5.516212137862e-03 0.0 
0.0 0.0 -9.664699797409e-04 
-3.659361313914e-04 -1.389777863593e-03 0.0 
-1.389777863593e-03 2.536314572587e-03 0.0 
0.0 0.0 -5.155438399970e-04 
-1.017459211522e-03 -2.035278755390e-04 0.0 
-2.035278755390e-04 5.749338419273e-03 0.0 
0.0 0.0 -9.093720595694e-04 
2.256137386907e-04 -1.163159502201e-04 0.0 
-1.163159502201e-04 1.137935582799e-04 0.0 
0.0 0.0 -4.585464485956e-05 
-3.462420398140e-04 1.018466210769e-03 0.0 
1.018466210769e-03 2.570297332312e-03 0.0 
0.0 0.0 -4.997308803768e-04 
-2.322903734365e-04 -1.457188189013e-03 0.0 
-1.457188189013e-03 2.158535862862e-03 0.0 
0.0 0.0 -4.875765080988e-04 
-8.614851687078e-04 -3.337722832802e-04 0.0 
-3.337722832802e-04 4.446512628758e-03 0.0 
0.0 0.0 -7.126562430121e-04 
-5.635163873739e-04 9.119017880977e-04 0.0 
9.119017880977e-04 4.220442908307e-03 0.0 
0.0 0.0 -7.595228636782e-04 
-7.920931595490e-04 -2.649669687123e-04 0.0 
-2.649669687123e-04 5.573841345894e-03 0.0 
0.0 0.0 -9.350600278798e-04 
-1.013052504013e-03 -8.823570252137e-05 0.0 
-8.823570252137e-05 6.008966805305e-03 0.0 
0.0 0.0 -8.962969588583e-04 
-3.359179918489e-04 -1.568493616469e-03 0.0 
-1.568493616469e-03 2.089144442065e-03 0.0 
0.0 0.0 -4.505554202764e-04 
-1.341827844788e-03 -1.871667057256e-04 0.0 
-1.871667057256e-04 8.296019085882e-03 0.0 
0.0 0.0 -1.341827844788e-03 
-9.219930325587e-04 3.393896039245e-04 0.0 
3.393896039245e-04 5.591653643792e-03 0.0 
0.0 0.0 -8.789935771182e-04 
-9.115582794458e-04 -2.493035172872e-04 0.0 
-2.493035172872e-04 4.677595953812e-03 0.0 
0.0 0.0 -7.413896480605e-04 
-8.652400327000e-04 3.890590998056e-04 0.0 
3.890590998056e-04 5.305115327796e-03 0.0 
0.0 0.0 -8.436662038215e-04 
-8.817818309206e-04 -6.648690080579e-04 0.0 
-6.648690080579e-04 4.510392914982e-03 0.0 
0.0 0.0 -7.098625721847e-04 
0.0 0.0 0.0 
0.0 0.0 0.0 
0.0 0.0 0.0 
-1.015724792628e-03 8.235652516451e-05 0.0 
8.235652516451e-05 5.775865579893e-03 0.0 
0.0 0.0 -8.733545218784e-04 
-8.401387806922e-04 6.123016035238e-05 0.0 
6.123016035238e-05 3.850164849745e-03 0.0 
0.0 0.0 -5.956302995864e-04 
2.119608216236e-04 1.827144702945e-05 0.0 
1.827144702945e-05 -6.337242555222e-05 0.0 
0.0 0.0 -6.368074117344e-05 
-9.031369501237e-04 -1.865236162329e-04 0.0 
-1.865236162329e-04 4.464828183770e-03 0.0 
0.0 0.0 -7.041275119738e-04 
-8.760607814048e-04 -2.015865901798e-04 0.0 
-2.015865901798e-04 6.047567037496e-03 0.0 
0.0 0.0 -1.001254648526e-03 
-1.205696135514e-03 2.785240829935e-04 0.0 
2.785240829935e-04 7.656838420364e-03 0.0 
0.0 0.0 -1.146946825052e-03 
-5.022948978825e-04 -4.626796724593e-04 0.0 
-4.626796724593e-04 4.761985454285e-03 0.0 
0.0 0.0 -8.532270185794e-04 
-5.545620008577e-04 -7.574531854601e-05 0.0 
-7.574531854601e-05 4.939516714005e-03 0.0 
0.0 0.0 -8.841559964380e-04 
-9.029537400273e-04 7.141549008008e-05 0.0 
7.141549008008e-05 4.945239925053e-03 0.0 
0.0 0.0 -7.495231765994e-04 
-8.844827213453e-04 6.847338950965e-05 0.0 
6.847338950965e-05 4.625730514937e-03 0.0 
0.0 0.0 -7.312625299844e-04 
-1.286320179804e-03 2.788583147739e-04 0.0 
2.788583147739e-04 8.406193484283e-03 0.0 
0.0 0.0 -1.286111585339e-03 
-8.045597696771e-04 4.385655444655e-04 0.0 
4.385655444655e-04 5.012857215938e-03 0.0 
0.0 0.0 -8.082854548548e-04 
6.621891051064e-04 -1.711434374491e-05 0.0 
-1.711434374491e-05 -4.360569155907e-05 0.0 
0.0 0.0 -9.362473743294e-05 
-4.298982998579e-04 -6.269550114416e-04 0.0 
-6.269550114416e-04 1.549337747066e-03 0.0 
0.0 0.0 -2.569639750501e-04 
-5.557804512661e-05 -2.649152406900e-04 0.0 
-2.649152406900e-04 2.900758507811e-04 0.0 
0.0 0.0 -1.004990595662e-04 
-6.031978273067e-04 -1.007320967644e-03 0.0 
-1.007320967644e-03 2.552633295107e-03 0.0 
0.0 0.0 -4.284133232656e-04 
-1.143923933864e-03 2.767605230601e-04 0.0 
2.767605230601e-04 7.311015416728e-03 0.0 
0.0 0.0 -1.134523071099e-03 
-1.214790267536e-03 -1.094816465951e-04 0.0 
-1.094816465951e-04 7.712260942966e-03 0.0 
0.0 0.0 -1.144649651339e-03 
-1.087508141976e-03 -1.587001134092e-04 0.0 
-1.587001134092e-04 6.822768700719e-03 0.0 
0.0 0.0 -1.087427768671e-03 
-6.685965332887e-04 -7.845956287838e-04 0.0 
-7.845956287838e-04 2.990542570396e-03 0.0 
0.0 0.0 -4.827803379924e-04 
-1.041668217069e-03 -5.600095855462e-04 0.0 
-5.600095855462e-04 5.820984951314e-03 0.0 
0.0 0.0 -9.063168105749e-04 
-1.002226704218e-03 -4.489969858519e-05 0.0 
-4.489969858519e-05 6.971386371707e-03 0.0 
0.0 0.0 -1.142106164841e-03 
5.911862038656e-04 5.961670165533e-05 0.0 
5.961670165533e-05 -1.764561884350e-04 0.0 
0.0 0.0 -1.777414351845e-04 
-8.306874199400e-04 -2.997045909462e-04 0.0 
-2.997045909462e-04 3.873272421704e-03 0.0 
0.0 0.0 -5.942115541274e-04 
-6.956533125248e-04 1.124846661467e-04 0.0 
1.124846661467e-04 3.135833764917e-03 0.0 
0.0 0.0 -4.980019828625e-04 
-1.307918774452e-03 -2.672149718263e-04 0.0 
-2.672149718263e-04 8.583156667318e-03 0.0 
0.0 0.0 -1.322396863610e-03 
-1.341641872583e-03 -2.574400453278e-04 0.0 
-2.574400453278e-04 8.313092341430e-03 0.0 
0.0 0.0 -1.341641872583e-03 
-9.100844780323e-04 -2.535656636935e-04 0.0 
-2.535656636935e-04 4.283598396940e-03 0.0 
0.0 0.0 -6.580288049735e-04 
-9.226849417219e-04 -5.822088138657e-04 0.0 
-5.822088138657e-04 4.742725005737e-03 0.0 
0.0 0.0 -7.385580096348e-04 
-7.259593438489e-04 -4.081287369355e-04 0.0 
-4.081287369355e-04 4.909588067259e-03 0.0 
0.0 0.0 -8.323457052078e-04 
-1.025384663725e-03 -1.558037465639e-06 0.0 
-1.558037465639e-06 7.232536331843e-03 0.0 
0.0 0.0 -1.177278300149e-03 
-5.185769804222e-04 -3.082242823645e-04 0.0 
-3.082242823645e-04 1.649765607481e-03 0.0 
0.0 0.0 -2.880367495917e-04 
-9.770068768367e-04 -9.822974250100e-05 0.0 
-9.822974250100e-05 6.742502940673e-03 0.0 
0.0 0.0 -1.104707344597e-03 
-8.864038043829e-05 -1.638440655004e-05 0.0 
-1.638440655004e-05 9.863844244365e-04 0.0 
0.0 0.0 -1.612556504808e-04 
-8.754272683905e-04 -6.018300858025e-04 0.0 
-6.018300858025e-04 4.312432546832e-03 0.0 
0.0 0.0 -6.724657308136e-04 
-8.826884309659e-04 -7.176448192389e-04 0.0 
-7.176448192389e-04 4.701849927849e-03 0.0 
0.0 0.0 -7.470513223635e-04 
-3.546308527174e-05 5.679765794383e-06 0.0 
5.679765794383e-06 2.993710717870e-04 0.0 
0.0 0.0 -1.131034227923e-04 
-8.541374211011e-04 1.051307269510e-04 0.0 
1.051307269510e-04 4.063038016891e-03 0.0 
0.0 0.0 -6.267591816330e-04 
-1.242827358992e-03 4.579768759709e-04 0.0 
4.579768759709e-04 7.784562517271e-03 0.0 
0.0 0.0 -1.176862138969e-03 
5.856171802454e-04 8.673890813667e-06 0.0 
8.673890813667e-06 6.976119991761e-06 0.0 
0.0 0.0 -9.786084279852e-05 
-8.702582028195e-04 1.105447853201e-04 0.0 
1.105447853201e-04 4.607072405037e-03 0.0 
0.0 0.0 -7.322753781719e-04 
-8.459002629386e-04 1.198690024363e-04 0.0 
1.198690024363e-04 4.870014320209e-03 0.0 
0.0 0.0 -7.130472889423e-04 
-6.411087712709e-04 -3.059567672411e-04 0.0 
-3.059567672411e-04 5.528224217795e-03 0.0 
0.0 0.0 -9.552000144736e-04 
-6.940260095912e-04 -2.019223501579e-04 0.0 
-2.019223501579e-04 3.181147651246e-03 0.0 
0.0 0.0 -4.943513106837e-04 
-3.551699552598e-04 -1.046898701828e-03 0.0 
-1.046898701828e-03 2.386678131376e-03 0.0 
0.0 0.0 -4.817493388239e-04 
-2.903941216122e-04 1.483074513055e-03 0.0 
1.483074513055e-03 1.457235103792e-03 0.0 
0.0 0.0 -3.398054741319e-04 
-1.199955943827e-03 -1.286515075727e-04 0.0 
-1.286515075727e-04 7.503949585872e-03 0.0 
0.0 0.0 -1.180895453064e-03 
-1.276254635442e-03 4.715115445783e-04 0.0 
4.715115445783e-04 8.059382999082e-03 0.0 
0.0 0.0 -1.286194385238e-03 
-1.186217889961e-03 -6.749121568718e-05 0.0 
-6.749121568718e-05 7.409362913807e-03 0.0 
0.0 0.0 -1.101088927253e-03 
-5.347000365982e-04 9.291634402025e-04 0.0 
9.291634402025e-04 2.503086312716e-03 0.0 
0.0 0.0 -4.457015571677e-04 
-3.190037393042e-04 -1.683187168607e-04 0.0 
-1.683187168607e-04 9.740026393817e-04 0.0 
0.0 0.0 -2.223875638571e-04 
-8.385442436261e-04 2.562372654306e-04 0.0 
2.562372654306e-04 4.497930936177e-03 0.0 
0.0 0.0 -6.999131133628e-04 
-8.425527780140e-04 3.452494000883e-05 0.0 
3.452494000883e-05 4.643700331840e-03 0.0 
0.0 0.0 -7.345111139194e-04 
-8.389403033821e-04 -1.305466340479e-06 0.0 
-1.305466340479e-06 4.908724598573e-03 0.0 
0.0 0.0 -7.144802219087e-04 
2.118993314013e-04 1.507058348733e-05 0.0 
1.507058348733e-05 -6.339593750257e-05 0.0 
0.0 0.0 -6.364431167088e-05 
-5.587289192583e-05 -6.452329894431e-06 0.0 
-6.452329894431e-06 2.977317204857e-04 0.0 
0.0 0.0 -1.036537836685e-04 
-1.659582098733e-04 -6.983629749951e-05 0.0 
-6.983629749951e-05 7.156238265913e-04 0.0 
0.0 0.0 -1.795416262981e-04 
-6.042827533109e-04 -3.178261870528e-04 0.0 
-3.178261870528e-04 2.298196668838e-03 0.0 
0.0 0.0 -3.820941496288e-04 
1.745656339544e-04 -6.881620967810e-06 0.0 
-6.881620967810e-06 5.205015129475e-04 0.0 
0.0 0.0 -1.430998070712e-04 
-9.621077650285e-04 9.743124488288e-05 0.0 
9.743124488288e-05 4.540703172736e-03 0.0 
0.0 0.0 -6.918148876825e-04 
0.0 0.0 0.0 
0.0 0.0 0.0 
0.0 0.0 0.0 
-6.636885702572e-04 -3.632840591834e-04 0.0 
-3.632840591834e-04 2.727769964994e-03 0.0 
0.0 0.0 -4.482372226011e-04 
-1.037073112810e-03 8.416167581821e-05 0.0 
8.416167581821e-05 6.231636848545e-03 0.0 
0.0 0.0 -9.582560723523e-04 
-8.428951159850e-04 8.320649882269e-05 0.0 
8.320649882269e-05 4.895786071823e-03 0.0 
0.0 0.0 -7.120344407548e-04 
-1.176195464104e-03 2.727173431630e-04 0.0 
2.727173431630e-04 7.571205441829e-03 0.0 
0.0 0.0 -1.169483110168e-03 
-8.724458015180e-04 -2.535481835564e-04 0.0 
-2.535481835564e-04 5.840199633402e-03 0.0 
0.0 0.0 -9.641449249716e-04 
-9.956049472303e-04 9.460602026458e-05 0.0 
9.460602026458e-05 5.823804297189e-03 0.0 
0.0 0.0 -8.988447104697e-04 
-7.453270263773e-04 1.666868432523e-04 0.0 
1.666868432523e-04 3.393805001824e-03 0.0 
0.0 0.0 -5.269378630653e-04 
-6.611997545445e-05 -3.806127284770e-05 0.0 
-3.806127284770e-05 9.766559638682e-04 0.0 
0.0 0.0 -1.602995255322e-04 
-1.340974968048e-03 1.475163558745e-04 0.0 
1.475163558745e-04 8.789407210591e-03 0.0 
0.0 0.0 -1.340974968048e-03 
-1.353375445294e-03 1.861681106883e-04 0.0 
1.861681106883e-04 9.067632799309e-03 0.0 
0.0 0.0 -1.320295381545e-03 
-9.653313430370e-04 3.172946590342e-04 0.0 
3.172946590342e-04 5.653212768820e-03 0.0 
0.0 0.0 -8.588387843224e-04 
-8.723549553050e-04 3.791940437681e-05 0.0 
3.791940437681e-05 4.638744233564e-03 0.0 
0.0 0.0 -7.326073368542e-04 
-7.433675000171e-04 -1.881116571238e-04 0.0 
-1.881116571238e-04 3.464526545461e-03 0.0 
0.0 0.0 -5.314511797787e-04 
-1.343039576571e-03 1.116238935560e-04 0.0 
1.116238935560e-04 9.058435864628e-03 0.0 
0.0 0.0 -1.322576402756e-03 
-6.088517818817e-04 -7.427980185432e-04 0.0 
-7.427980185432e-04 2.573085079122e-03 0.0 
0.0 0.0 -4.166600706249e-04 
-8.421343191380e-04 8.947296271354e-05 0.0 
8.947296271354e-05 4.867861189812e-03 0.0 
0.0 0.0 -7.125614225629e-04 
-8.442475580862e-04 6.688277321944e-05 0.0 
6.688277321944e-05 4.629764896323e-03 0.0 
0.0 0.0 -7.312775522649e-04 
-8.183075665077e-04 4.944600713478e-04 0.0 
4.944600713478e-04 4.297011605974e-03 0.0 
0.0 0.0 -6.755779900756e-04 
-1.341823989366e-03 3.176700121755e-04 0.0 
3.176700121755e-04 8.755155514573e-03 0.0 
0.0 0.0 -1.341823989366e-03 
-1.316183787817e-03 1.764356624828e-04 0.0 
1.764356624828e-04 9.061441417317e-03 0.0 
0.0 0.0 -1.322582685247e-03 
1.706419388007e-04 -6.581066488368e-06 0.0 
-6.581066488368e-06 5.083643028934e-04 0.0 
0.0 0.0 -1.414504174366e-04 
2.407344509661e-04 1.323517305793e-05 0.0 
1.323517305793e-05 -7.208659109850e-05 0.0 
0.0 0.0 -7.227765422896e-05 
-4.260081866660e-04 -1.856958100474e-04 0.0 
-1.856958100474e-04 1.223914747001e-03 0.0 
0.0 0.0 -2.229509930541e-04 
-8.539532720431e-04 -3.709598021116e-04 0.0 
-3.709598021116e-04 4.637819177533e-03 0.0 
0.0 0.0 -7.497705102653e-04 
-1.319228459702e-03 1.823496012509e-04 0.0 
1.823496012509e-04 8.037185883931e-03 0.0 
0.0 0.0 -1.224669017856e-03 
0.0 0.0 0.0 
0.0 0.0 0.0 
0.0 0.0 0.0 
-1.164534197096e-03 -1.984727069524e-04 0.0 
-1.984727069524e-04 7.327097077271e-03 0.0 
0.0 0.0 -1.092518628634e-03 
0.0 0.0 0.0 
0.0 0.0 0.0 
0.0 0.0 0.0 
-6.586480689669e-04 -2.893406478862e-05 0.0 
-2.893406478862e-05 5.445033550024e-03 0.0 
0.0 0.0 -9.493083249531e-04 
6.413544779552e-05 -3.379620450346e-04 0.0 
-3.379620450346e-04 1.394736970074e-04 0.0 
0.0 0.0 -8.691392457031e-05 
1.450430834232e-05 -8.616792963926e-05 0.0 
-8.616792963926e-05 3.294529381564e-05 0.0 
0.0 0.0 -2.033554378198e-05 
-6.338862404721e-04 -1.383285000905e-04 0.0 
-1.383285000905e-04 5.212576859225e-03 0.0 
0.0 0.0 -9.122568895951e-04 
-1.285900318349e-03 2.146352195215e-05 0.0 
2.146352195215e-05 7.759528202279e-03 0.0 
0.0 0.0 -1.192963836147e-03 
-1.029044917040e-03 -7.279636213487e-05 0.0 
-7.279636213487e-05 6.446740060124e-03 0.0 
0.0 0.0 -9.361271490834e-04 
-8.407421483093e-04 3.218859450769e-04 0.0 
3.218859450769e-04 4.639661762171e-03 0.0 
0.0 0.0 -7.268406435589e-04 
-3.072399208747e-05 -1.897210475410e-05 0.0 
-1.897210475410e-05 2.991997316549e-04 0.0 
0.0 0.0 -1.150610312432e-04 
-1.088521664505e-03 -4.986556758640e-04 0.0 
-4.986556758640e-04 6.052818965112e-03 0.0 
0.0 0.0 -9.349022313484e-04 
-1.337797817327e-03 2.888082420915e-05 0.0 
2.888082420915e-05 8.797778454419e-03 0.0 
0.0 0.0 -1.337797817327e-03 
-1.344206616167e-03 -8.091836582187e-05 0.0 
-8.091836582187e-05 9.064612422815e-03 0.0 
0.0 0.0 -1.322354755130e-03 
-8.386635614455e-04 6.856267782852e-05 0.0 
6.856267782852e-05 4.896920748213e-03 0.0 
0.0 0.0 -7.125764448434e-04 
-6.958258556128e-04 6.990936182405e-05 0.0 
6.990936182405e-05 5.692375670829e-03 0.0 
0.0 0.0 -9.863757069361e-04 
-1.341607717199e-03 1.551401879936e-04 0.0 
1.551401879936e-04 8.810609962061e-03 0.0 
0.0 0.0 -1.341607717199e-03 
-8.875903164710e-04 2.432432692731e-04 0.0 
2.432432692731e-04 6.412529175352e-03 0.0 
0.0 0.0 -1.046710270629e-03 
-7.224987108801e-05 2.416900893393e-05 0.0 
2.416900893393e-05 9.236508622773e-04 0.0 
0.0 0.0 -1.589907658001e-04 
1.844060408699e-04 -1.026478452949e-05 0.0 
-1.026478452949e-05 5.130263938471e-04 0.0 
0.0 0.0 -1.435574244405e-04 
-2.891409061342e-05 -3.272758998480e-05 0.0 
-3.272758998480e-05 3.203427987140e-04 0.0 
0.0 0.0 -1.200048127433e-04 
-8.246082063499e-04 1.600403801409e-04 0.0 
1.600403801409e-04 3.844559296729e-03 0.0 
0.0 0.0 -5.933358154923e-04 
-1.368440753648e-03 -2.847926622310e-04 0.0 
-2.847926622310e-04 8.814363085181e-03 0.0 
0.0 0.0 -1.322828574513e-03 
-1.280689091558e-03 -2.286632291646e-04 0.0 
-2.286632291646e-04 8.487923234130e-03 0.0 
0.0 0.0 -1.258329778789e-03 
2.520020944074e-04 -9.417495015486e-06 0.0 
-9.417495015486e-06 -7.547411903337e-05 0.0 
0.0 0.0 -7.565484658888e-05 
-9.449458894061e-04 -2.123271304103e-04 0.0 
-2.123271304103e-04 4.512069341782e-03 0.0 
0.0 0.0 -6.938761155152e-04 
-1.344798314370e-03 -1.247366253674e-04 0.0 
-1.247366253674e-04 8.595631148609e-03 0.0 
0.0 0.0 -1.344798314369e-03 
-1.373531731671e-03 -1.707869213026e-04 0.0 
-1.707869213026e-04 8.832402882049e-03 0.0 
0.0 0.0 -1.318785251170e-03 
-1.282177360506e-03 -3.124369979244e-04 0.0 
-3.124369979244e-04 8.610103347005e-03 0.0 
0.0 0.0 -1.321151187552e-03 
-1.113562773683e-03 2.219946434219e-04 0.0 
2.219946434219e-04 6.878878469590e-03 0.0 
0.0 0.0 -1.027148381742e-03 
-1.180769122149e-03 -2.135481498419e-04 0.0 
-2.135481498419e-04 7.573759840694e-03 0.0 
0.0 0.0 -1.125709525796e-03 
-1.338030260144e-03 -1.771563366243e-04 0.0 
-1.771563366243e-04 8.542675147626e-03 0.0 
0.0 0.0 -1.338030260144e-03 
-1.340754991027e-03 -2.390663127656e-04 0.0 
-2.390663127656e-04 8.545998822267e-03 0.0 
0.0 0.0 -1.340754991027e-03 
-1.152960594027e-03 1.859255734492e-04 0.0 
1.859255734492e-04 7.333872638941e-03 0.0 
0.0 0.0 -1.092518628634e-03 
6.040404689232e-04 9.568591753019e-05 0.0 
9.568591753019e-05 -6.408932826674e-05 0.0 
0.0 0.0 -9.235885521468e-05 
-8.216739313019e-04 1.642653897250e-05 0.0 
1.642653897250e-05 4.866544847831e-03 0.0 
0.0 0.0 -7.139539158865e-04 
-8.429301589013e-04 7.371775731573e-05 0.0 
7.371775731573e-05 4.924292125164e-03 0.0 
0.0 0.0 -7.133642253441e-04 
2.432336519054e-04 6.949879094711e-06 0.0 
6.949879094711e-06 -7.294262653964e-05 0.0 
0.0 0.0 -7.298186801390e-05 
-1.342313591240e-03 -2.893823135638e-04 0.0 
-2.893823135638e-04 8.501007321383e-03 0.0 
0.0 0.0 -1.342313591240e-03 
-1.327713446301e-03 -3.071447071229e-04 0.0 
-3.071447071229e-04 8.654446540322e-03 0.0 
0.0 0.0 -1.318355947622e-03 
-1.337959751097e-03 -3.069413126871e-04 0.0 
-3.069413126871e-04 8.377273660842e-03 0.0 
0.0 0.0 -1.337959751097e-03 
5.382873424725e-04 1.051034098534e-05 0.0 
1.051034098534e-05 3.447207322761e-05 0.0 
0.0 0.0 -9.875111991497e-05 
5.465365996427e-04 1.921140548757e-05 0.0 
1.921140548757e-05 3.586604406774e-05 0.0 
0.0 0.0 -1.001629653630e-04 
-1.340754991027e-03 -2.745211848364e-04 0.0 
-2.745211848364e-04 8.326750669152e-03 0.0 
0.0 0.0 -1.340754991027e-03 
-1.340396196526e-03 -3.177254258607e-04 0.0 
-3.177254258607e-04 8.348861196928e-03 0.0 
0.0 0.0 -1.340396196526e-03 
-1.100408733265e-03 -2.290747800904e-04 0.0 
-2.290747800904e-04 6.654648242085e-03 0.0 
0.0 0.0 -9.936726122374e-04 
-8.156679351147e-04 3.791493186346e-05 0.0 
3.791493186346e-05 4.866771241895e-03 0.0 
0.0 0.0 -7.124851972278e-04 
-1.126282978383e-03 -2.242329370711e-04 0.0 
-2.242329370711e-04 7.103431173965e-03 0.0 
0.0 0.0 -1.060142436171e-03 
-9.808195587630e-04 -2.230997408213e-04 0.0 
-2.230997408213e-04 5.708119715060e-03 0.0 
0.0 0.0 -8.626607521899e-04 
-7.941305620824e-04 1.551089981454e-05 0.0 
1.551089981454e-05 4.869359917574e-03 0.0 
0.0 0.0 -7.121912678902e-04 
7.040827403612e-04 7.380490456996e-06 0.0 
7.380490456996e-06 -3.505683220774e-05 0.0 
0.0 0.0 -9.491348420367e-05 
6.357527662839e-04 -8.824699617213e-05 0.0 
-8.824699617213e-05 3.733323429846e-05 0.0 
0.0 0.0 -1.068803031330e-04 
5.856552846093e-04 -8.204592747125e-05 0.0 
-8.204592747125e-05 2.270090481133e-05 0.0 
0.0 0.0 -9.934895370439e-05 
6.682124726064e-04 -5.433044528850e-05 0.0 
-5.433044528850e-05 2.762423436657e-05 0.0 
0.0 0.0 -1.574260069802e-04 
-9.875526380001e-04 1.999683647263e-04 0.0 
1.999683647263e-04 4.756922496595e-03 0.0 
0.0 0.0 -7.271325101417e-04 
-9.022422993743e-04 1.689219604000e-04 0.0 
1.689219604000e-04 4.293373185727e-03 0.0 
0.0 0.0 -6.600769387058e-04 
0.0 0.0 0.0 
0.0 0.0 0.0 
0.0 0.0 0.0 
-1.139432736752e-03 1.969596473993e-04 0.0 
1.969596473993e-04 6.092355855196e-03 0.0 
0.0 0.0 -9.221709323543e-04 
0.0 0.0 0.0 
0.0 0.0 0.0 
0.0 0.0 0.0 
-1.341471640605e-03 2.821656468085e-04 0.0 
2.821656468085e-04 8.748357117342e-03 0.0 
0.0 0.0 -1.341471640605e-03 
-1.340968685557e-03 1.312437350478e-04 0.0 
1.312437350478e-04 8.782913575074e-03 0.0 
0.0 0.0 -1.340968685557e-03 
-1.339320413496e-03 1.880713074898e-04 0.0 
1.880713074898e-04 8.789181418084e-03 0.0 
0.0 0.0 -1.339320413496e-03 
-2.891904725790e-04 2.036868385329e-04 0.0 
2.036868385329e-04 1.487086439737e-03 0.0 
0.0 0.0 -2.599136149544e-04 
-6.430141663801e-04 1.708121578067e-04 0.0 
1.708121578067e-04 2.925097320677e-03 0.0 
0.0 0.0 -4.607467809507e-04 
-1.337132911908e-03 8.989218137943e-05 0.0 
8.989218137943e-05 8.798780956337e-03 0.0 
0.0 0.0 -1.337132911908e-03 
-1.268709771428e-03 1.750290220288e-04 0.0 
1.750290220288e-04 7.410750387042e-03 0.0 
0.0 0.0 -1.124956933753e-03 
-1.344556937803e-03 5.420067643192e-05 0.0 
5.420067643192e-05 8.841140369170e-03 0.0 
0.0 0.0 -1.344556937803e-03 
-1.309963082983e-03 1.898374887779e-04 0.0 
1.898374887779e-04 7.848623061347e-03 0.0 
0.0 0.0 -1.192538251246e-03 
-1.338506523092e-03 2.196897297750e-04 0.0 
2.196897297750e-04 8.286254789378e-03 0.0 
0.0 0.0 -1.259905836238e-03 
-8.634449756302e-04 -2.267992264203e-04 0.0 
-2.267992264203e-04 4.063283112415e-03 0.0 
0.0 0.0 -6.267460875326e-04 
-1.354536289335e-03 7.630110527830e-05 0.0 
7.630110527830e-05 9.083283423121e-03 0.0 
0.0 0.0 -1.318101597465e-03 
-1.353127036110e-03 2.052350059942e-04 0.0 
2.052350059942e-04 9.070380165704e-03 0.0 
0.0 0.0 -1.321689849711e-03 
-1.286890123680e-03 -2.394731622084e-04 0.0 
-2.394731622084e-04 7.571755325092e-03 0.0 
0.0 0.0 -1.157495185000e-03 
-1.323365826624e-03 -2.403819852103e-04 0.0 
-2.403819852103e-04 8.033634754339e-03 0.0 
0.0 0.0 -1.225777420818e-03 
-1.161453211646e-03 -3.736884005785e-04 0.0 
-3.736884005785e-04 6.493225178424e-03 0.0 
0.0 0.0 -9.925156490314e-04 
0.0 0.0 0.0 
0.0 0.0 0.0 
0.0 0.0 0.0 
-8.671818712195e-04 -5.363828857818e-04 0.0 
-5.363828857818e-04 4.105500038503e-03 0.0 
0.0 0.0 -6.350241097613e-04 
1.538446466672e-04 -5.196602102228e-05 0.0 
-5.196602102228e-05 5.032465276658e-04 0.0 
0.0 0.0 -1.372732375194e-04 
-1.212742551210e-03 -4.759587518373e-04 0.0 
-4.759587518373e-04 7.564630454968e-03 0.0 
0.0 0.0 -1.177819030284e-03 
-8.605651419967e-04 -2.779235020759e-04 0.0 
-2.779235020759e-04 4.247159815615e-03 0.0 
0.0 0.0 -6.753691525988e-04 
-1.209845026625e-03 -3.828065324347e-05 0.0 
-3.828065324347e-05 7.089490121300e-03 0.0 
0.0 0.0 -1.099016898379e-03 
-5.359685570494e-04 -6.677092728244e-04 0.0 
-6.677092728244e-04 2.153205781578e-03 0.0 
0.0 0.0 -3.504775146279e-04 
-1.805242587165e-04 1.222080852242e-05 0.0 
1.222080852242e-05 7.550645308543e-04 0.0 
0.0 0.0 -1.735952156319e-04 
-1.264456075116e-03 -3.850163355986e-04 0.0 
-3.850163355986e-04 7.592925326403e-03 0.0 
0.0 0.0 -1.161668299909e-03 
-9.012428398998e-04 -5.241478665253e-04 0.0 
-5.241478665253e-04 4.532812848754e-03 0.0 
0.0 0.0 -7.012080445024e-04 
-8.068122859681e-04 1.121430841948e-04 0.0 
1.121430841948e-04 3.618999234990e-03 0.0 
0.0 0.0 -5.611363230934e-04 
-1.221373729773e-03 -3.971185644326e-04 0.0 
-3.971185644326e-04 7.158861497178e-03 0.0 
0.0 0.0 -1.096102707776e-03 
-1.225888037185e-03 2.356398892211e-04 0.0 
2.356398892211e-04 7.926332987898e-03 0.0 
0.0 0.0 -1.188907866872e-03 
-7.850590963075e-04 -2.211249008548e-04 0.0 
-2.211249008548e-04 3.627921543623e-03 0.0 
0.0 0.0 -5.602736785587e-04 
-9.153466014746e-04 -5.672710459790e-04 0.0 
-5.672710459790e-04 6.328544019957e-03 0.0 
0.0 0.0 -1.035646790376e-03 
-9.544485914901e-04 -2.692006228927e-04 0.0 
-2.692006228927e-04 5.706833288183e-03 0.0 
0.0 0.0 -9.181742748318e-04 
-1.151482432891e-03 -1.721733511891e-05 0.0 
-1.721733511891e-05 6.426989542900e-03 0.0 
0.0 0.0 -9.952786863929e-04 
-1.189685403522e-03 2.186394532171e-05 0.0 
2.186394532171e-05 6.656907816596e-03 0.0 
0.0 0.0 -1.024224580100e-03 
-2.906015399770e-05 6.908185225539e-04 0.0 
6.908185225539e-04 2.388123543614e-03 0.0 
0.0 0.0 -5.788817793163e-04 
-8.005376655691e-04 3.171132398136e-04 0.0 
3.171132398136e-04 4.241491794382e-03 0.0 
0.0 0.0 -6.651338130661e-04 
-5.426647513542e-04 5.869195559815e-04 0.0 
5.869195559815e-04 4.187651392435e-03 0.0 
0.0 0.0 -7.293057621918e-04 
-1.068839531754e-03 -1.396982746719e-04 0.0 
-1.396982746719e-04 5.983670003937e-03 0.0 
0.0 0.0 -9.378562126457e-04 
-1.253909417431e-03 -3.654180260376e-04 0.0 
-3.654180260376e-04 7.384129283890e-03 0.0 
0.0 0.0 -1.125100902632e-03 
-1.223048658493e-03 8.194922759041e-05 0.0 
8.194922759041e-05 6.885373196445e-03 0.0 
0.0 0.0 -1.053755873404e-03 
-5.843499511654e-04 -7.478811802874e-04 0.0 
-7.478811802874e-04 2.078474299742e-03 0.0 
0.0 0.0 -3.685493992842e-04 
-1.215420929976e-03 2.914568716421e-04 0.0 
2.914568716421e-04 7.912104441246e-03 0.0 
0.0 0.0 -1.183514100502e-03 
-1.184839979766e-03 2.716593684437e-04 0.0 
2.716593684437e-04 7.456605698874e-03 0.0 
0.0 0.0 -1.117084069417e-03 
-9.160676408920e-04 2.566629763440e-04 0.0 
2.566629763440e-04 5.389449650205e-03 0.0 
0.0 0.0 -8.110481619253e-04 
-1.072043250355e-03 -1.594447290691e-04 0.0 
-1.594447290691e-04 6.194419037886e-03 0.0 
0.0 0.0 -9.753747863247e-04 
-1.113512703567e-03 -7.830874303778e-05 0.0 
-7.830874303778e-05 6.209473753146e-03 0.0 
0.0 0.0 -9.665592132828e-04 
-1.247553885459e-03 -1.638883659802e-04 0.0 
-1.638883659802e-04 8.032779373469e-03 0.0 
0.0 0.0 -1.185362187646e-03 
-1.209218779800e-03 2.395415248872e-04 0.0 
2.395415248872e-04 7.733666527183e-03 0.0 
0.0 0.0 -1.150972777267e-03 
-9.235989750770e-04 -6.984337716094e-04 0.0 
-6.984337716094e-04 5.520417486699e-03 0.0 
0.0 0.0 -8.866930489607e-04 
-1.284523920474e-03 -3.501071659254e-04 0.0 
-3.501071659254e-04 7.805517890163e-03 0.0 
0.0 0.0 -1.190872049285e-03 
-1.177897572884e-03 3.138623603337e-04 0.0 
3.138623603337e-04 7.354283994280e-03 0.0 
0.0 0.0 -1.103416240745e-03 
-1.224145241381e-03 -2.616286438841e-04 0.0 
-2.616286438841e-04 6.885317791912e-03 0.0 
0.0 0.0 -1.053748284807e-03 
-1.251504070725e-03 -4.981478354757e-04 0.0 
-4.981478354757e-04 7.817749108824e-03 0.0 
0.0 0.0 -1.210017230578e-03 
-1.240161038229e-03 -1.265963501437e-04 0.0 
-1.265963501437e-04 7.971776447579e-03 0.0 
0.0 0.0 -1.181737430652e-03 
-1.104792332721e-03 -1.417124884619e-04 0.0 
-1.417124884619e-04 6.803117520475e-03 0.0 
0.0 0.0 -1.011817915138e-03 
-9.092260506378e-04 -6.128458239001e-04 0.0 
-6.128458239001e-04 6.116526816133e-03 0.0 
0.0 0.0 -9.985655989919e-04 
-5.244393316962e-04 -3.327701467077e-07 0.0 
-3.327701467077e-07 2.217192403788e-03 0.0 
0.0 0.0 -3.644364776638e-04 
-5.557520001356e-04 -9.492103982614e-04 0.0 
-9.492103982614e-04 1.854328414375e-03 0.0 
0.0 0.0 -3.414758422231e-04 
-2.976977379688e-04 -4.729019177062e-04 0.0 
-4.729019177062e-04 1.065430610337e-03 0.0 
0.0 0.0 -1.876370064529e-04 
-1.394869518500e-05 -5.836024776206e-04 0.0 
-5.836024776206e-04 3.988673203720e-04 0.0 
0.0 0.0 -1.649651250801e-04 
-1.208849354757e-03 -1.442002111852e-04 0.0 
-1.442002111852e-04 7.751975943977e-03 0.0 
0.0 0.0 -1.150998037120e-03 
-1.270626804187e-03 5.625887811154e-05 0.0 
5.625887811154e-05 7.521765115722e-03 0.0 
0.0 0.0 -1.156839719840e-03 
-1.128430539847e-04 -4.533921113002e-04 0.0 
-4.533921113002e-04 5.125802596057e-04 0.0 
0.0 0.0 -1.512448671109e-04 
-1.224260673069e-03 1.930240191298e-04 0.0 
1.930240191298e-04 7.672098389018e-03 0.0 
0.0 0.0 -1.160298666437e-03 
-9.269777591648e-04 2.462098102623e-04 0.0 
2.462098102623e-04 5.566246555216e-03 0.0 
0.0 0.0 -8.436798659344e-04 
-1.183821186611e-03 -4.510450975400e-04 0.0 
-4.510450975400e-04 6.938898886609e-03 0.0 
0.0 0.0 -1.067477449466e-03 
-1.234042430495e-03 4.386686661325e-05 0.0 
4.386686661325e-05 7.085000705368e-03 0.0 
0.0 0.0 -1.090430023688e-03 
-4.688031105262e-04 -9.449998288247e-04 0.0 
-9.449998288247e-04 2.708853865005e-03 0.0 
0.0 0.0 -5.090628918580e-04 
-1.241127751091e-03 -3.232486977457e-04 0.0 
-3.232486977457e-04 7.146083644213e-03 0.0 
0.0 0.0 -1.087955833448e-03 
-9.128116180444e-04 -2.432084876036e-04 0.0 
-2.432084876036e-04 5.398327604704e-03 0.0 
0.0 0.0 -8.100176300978e-04 
-7.075550094797e-04 -2.554204369629e-05 0.0 
-2.554204369629e-05 5.888227624213e-03 0.0 
0.0 0.0 -1.000388816061e-03 
-1.275643571196e-03 -3.853184117788e-05 0.0 
-3.853184117788e-05 7.999890426169e-03 0.0 
0.0 0.0 -1.242964905849e-03 
-4.891437223720e-04 4.195566496952e-05 0.0 
4.195566496952e-05 2.125578513997e-03 0.0 
0.0 0.0 -3.542437553904e-04 
-1.232067324065e-03 -4.786069064869e-04 0.0 
-4.786069064869e-04 7.807210147599e-03 0.0 
0.0 0.0 -1.215045542354e-03 
-1.132051344136e-03 -1.297668119058e-04 0.0 
-1.297668119058e-04 7.059354268222e-03 0.0 
0.0 0.0 -1.048288725887e-03 
-5.597857793191e-04 4.639966247623e-05 0.0 
4.639966247623e-05 2.420049368412e-03 0.0 
0.0 0.0 -3.930611257745e-04 
-5.609737831535e-04 -1.192047374110e-03 0.0 
-1.192047374110e-03 2.290088636828e-03 0.0 
0.0 0.0 -4.034900192350e-04 
-1.019435653485e-03 2.510797196313e-05 0.0 
2.510797196313e-05 5.114500101547e-03 0.0 
0.0 0.0 -7.909606353592e-04 
-1.046153520856e-03 2.672543322815e-04 0.0 
2.672543322815e-04 6.254372891690e-03 0.0 
0.0 0.0 -9.409807611877e-04 
-7.501439557546e-04 -2.986549649001e-04 0.0 
-2.986549649001e-04 3.375633566619e-03 0.0 
0.0 0.0 -5.429771841545e-04 
-1.160690986180e-03 -1.496920489451e-04 0.0 
-1.496920489451e-04 7.303854633305e-03 0.0 
0.0 0.0 -1.085119818393e-03 
-1.069476201499e-03 -1.757346183128e-04 0.0 
-1.757346183128e-04 6.567285104211e-03 0.0 
0.0 0.0 -9.816794289629e-04 
-9.579280571301e-04 -1.773255598002e-04 0.0 
-1.773255598002e-04 4.907486764764e-03 0.0 
0.0 0.0 -7.700930343086e-04 
-1.202171244896e-03 -3.172466399621e-04 0.0 
-3.172466399621e-04 6.703539097156e-03 0.0 
0.0 0.0 -1.021757709120e-03 
-1.211296574698e-03 -3.721899322367e-04 0.0 
-3.721899322367e-04 6.940479911899e-03 0.0 
0.0 0.0 -1.058696934625e-03 
-1.135291475184e-03 2.700006977273e-04 0.0 
2.700006977273e-04 6.997454425646e-03 0.0 
0.0 0.0 -1.050681058959e-03 
-4.173596233207e-04 -3.503884104976e-04 0.0 
-3.503884104976e-04 1.875894239502e-03 0.0 
0.0 0.0 -3.058749225436e-04 
-9.447771700352e-04 -1.262936496125e-04 0.0 
-1.262936496125e-04 4.694024374325e-03 0.0 
0.0 0.0 -7.328582426338e-04 
-9.670495794898e-04 5.137281078932e-04 0.0 
5.137281078932e-04 6.920842306521e-03 0.0 
0.0 0.0 -1.141128458404e-03 
-1.159905672637e-03 -1.212910240168e-04 0.0 
-1.212910240168e-04 7.261813298966e-03 0.0 
0.0 0.0 -1.078198857115e-03 
-8.846237530489e-04 -1.118837918711e-04 0.0 
-1.118837918711e-04 4.234828904613e-03 0.0 
0.0 0.0 -6.666835465145e-04 
-9.866099674588e-04 -6.396910670883e-04 0.0 
-6.396910670883e-04 5.776957758952e-03 0.0 
0.0 0.0 -9.153036164073e-04 
-1.180273166295e-03 -5.195576023231e-04 0.0 
-5.195576023231e-04 7.573511676705e-03 0.0 
0.0 0.0 -1.187586327529e-03 
-1.090487437882e-03 2.486631283317e-04 0.0 
2.486631283317e-04 6.750183946417e-03 0.0 
0.0 0.0 -1.013969106439e-03 
4.266683345687e-05 -1.829982136319e-05 0.0 
-1.829982136319e-05 -1.175196824510e-05 0.0 
0.0 0.0 -1.324922794790e-05 
-2.207289874608e-04 -3.235795152871e-04 0.0 
-3.235795152871e-04 1.003256593638e-03 0.0 
0.0 0.0 -1.835536028976e-04 
6.095472518787e-04 -2.844414826135e-05 0.0 
-2.844414826135e-05 2.461208838896e-04 0.0 
0.0 0.0 -3.667149153293e-04 
-1.247686431213e-03 1.804464591039e-05 0.0 
1.804464591039e-05 7.316811787833e-03 0.0 
0.0 0.0 -1.127837695838e-03 
-1.073532930030e-03 2.556328204713e-04 0.0 
2.556328204713e-04 6.504084694261e-03 0.0 
0.0 0.0 -9.775003154318e-04 
-1.065496431756e-03 -3.247503852032e-04 0.0 
-3.247503852032e-04 5.643495466523e-03 0.0 
0.0 0.0 -8.513051444990e-04 
-9.769664875946e-04 2.379062424114e-04 0.0 
2.379062424114e-04 5.801214914582e-03 0.0 
0.0 0.0 -8.745614812816e-04 
-1.019950067796e-03 -4.586219499737e-04 0.0 
-4.586219499737e-04 7.042194348422e-03 0.0 
0.0 0.0 -1.139196670502e-03 
-1.001595776578e-03 -1.032368991806e-04 0.0 
-1.032368991806e-04 5.128573561517e-03 0.0 
0.0 0.0 -7.988714448434e-04 
-1.198933731184e-03 -2.304563849884e-06 0.0 
-2.304563849884e-06 6.870961844438e-03 0.0 
0.0 0.0 -1.061632825506e-03 
-4.894390167554e-04 -2.936556089740e-04 0.0 
-2.936556089740e-04 2.281659796893e-03 0.0 
0.0 0.0 -3.615122310665e-04 
-1.252320573339e-03 -4.986115071304e-05 0.0 
-4.986115071304e-05 7.805865228042e-03 0.0 
0.0 0.0 -1.211531131004e-03 
-9.705690281363e-04 -5.093762920131e-04 0.0 
-5.093762920131e-04 4.972659776742e-03 0.0 
0.0 0.0 -7.673127347790e-04 
-5.395948498915e-04 -2.749809582872e-04 0.0 
-2.749809582872e-04 2.502960479934e-03 0.0 
0.0 0.0 -3.889166325194e-04 
-9.539878925134e-04 -4.665681980887e-04 0.0 
-4.665681980887e-04 4.746329446601e-03 0.0 
0.0 0.0 -7.311132045151e-04 
-7.861451495527e-04 -2.221214863257e-04 0.0 
-2.221214863257e-04 3.593397886981e-03 0.0 
0.0 0.0 -5.716673668464e-04 
-6.390151670991e-04 -6.536657789763e-04 0.0 
-6.536657789763e-04 2.791763486177e-03 0.0 
0.0 0.0 -4.452767020142e-04 
-1.072653987371e-03 2.886861907429e-05 0.0 
2.886861907429e-05 5.536656976787e-03 0.0 
0.0 0.0 -8.564950983273e-04 
2.053402963574e-04 2.693149737115e-05 0.0 
2.693149737115e-05 -6.111100134196e-05 0.0 
0.0 0.0 -6.181255500660e-05 
1.464512989776e-04 -5.911592787119e-06 0.0 
-5.911592787119e-06 -4.332551876097e-05 0.0 
0.0 0.0 -4.419676295000e-05 
-1.129321225881e-03 -4.366761249298e-04 0.0 
-4.366761249298e-04 6.278524906094e-03 0.0 
0.0 0.0 -9.636005660098e-04 
-4.459230001805e-04 -3.109429784165e-04 0.0 
-3.109429784165e-04 2.087500805873e-03 0.0 
0.0 0.0 -3.336449385292e-04 
-1.093345380725e-03 -5.267841385720e-04 0.0 
-5.267841385720e-04 6.263877748210e-03 0.0 
0.0 0.0 -9.724388998541e-04 
-1.043259012928e-03 -5.809617148742e-04 0.0 
-5.809617148742e-04 6.025832941714e-03 0.0 
0.0 0.0 -9.438473481109e-04 
-7.593501897991e-04 -4.626236543671e-04 0.0 
-4.626236543671e-04 3.770567817408e-03 0.0 
0.0 0.0 -6.177757646845e-04 
-3.406532554668e-04 -1.201349069570e-03 0.0 
-1.201349069570e-03 1.971960000255e-03 0.0 
0.0 0.0 -4.162223005415e-04 
-1.210770017431e-03 -8.268587528123e-05 0.0 
-8.268587528123e-05 7.661732423863e-03 0.0 
0.0 0.0 -1.137719822027e-03 
2.217423052273e-04 3.028948149786e-04 0.0 
3.028948149786e-04 -1.208394326889e-05 0.0 
0.0 0.0 -8.985358369644e-05 
-8.285748112363e-04 -1.587478080269e-04 0.0 
-1.587478080269e-04 3.819529826762e-03 0.0 
0.0 0.0 -6.004815939294e-04 
-1.049679539983e-03 -3.693865297615e-04 0.0 
-3.693865297615e-04 7.240151455212e-03 0.0 
0.0 0.0 -1.175533656463e-03 
-3.983359874590e-04 4.184586300730e-05 0.0 
4.184586300730e-05 1.714439103962e-03 0.0 
0.0 0.0 -2.977570873278e-04 
-1.020229649597e-03 -1.375914676709e-04 0.0 
-1.375914676709e-04 6.101662351483e-03 0.0 
0.0 0.0 -9.088859120638e-04 
-9.450324784717e-04 -1.832830397253e-04 0.0 
-1.832830397253e-04 5.623770961517e-03 0.0 
0.0 0.0 -8.416286270284e-04 
-4.351237697251e-04 -5.540829146340e-04 0.0 
-5.540829146340e-04 1.723099038299e-03 0.0 
0.0 0.0 -2.842394630762e-04 
-1.127395628762e-03 -5.008482085009e-04 0.0 
-5.008482085009e-04 7.317936875090e-03 0.0 
0.0 0.0 -1.158722036769e-03 
-1.133506044246e-03 -8.767361897690e-05 0.0 
-8.767361897690e-05 6.959505034578e-03 0.0 
0.0 0.0 -1.034898561726e-03 
-4.951489600236e-04 -4.786425625421e-05 0.0 
-4.786425625421e-05 2.022039619189e-03 0.0 
0.0 0.0 -3.364655670308e-04 
-1.234708714507e-03 -3.925269914934e-05 0.0 
-3.925269914934e-05 7.851562311589e-03 0.0 
0.0 0.0 -1.166520446339e-03 
-1.230308234664e-03 3.090146298482e-04 0.0 
3.090146298482e-04 7.789607374426e-03 0.0 
0.0 0.0 -1.169001632583e-03 
-5.233675107163e-04 -4.314455861334e-04 0.0 
-4.314455861334e-04 2.327927411805e-03 0.0 
0.0 0.0 -3.701904734684e-04 
-5.932851689167e-04 7.473876325445e-04 0.0 
7.473876325445e-04 2.806018980480e-03 0.0 
0.0 0.0 -4.801335248058e-04 
-5.599793527513e-04 -5.941268921314e-04 0.0 
-5.941268921314e-04 2.361270480637e-03 0.0 
0.0 0.0 -3.791106726259e-04 
-1.172251179922e-03 -4.180665988864e-04 0.0 
-4.180665988864e-04 6.718010438057e-03 0.0 
0.0 0.0 -1.029923508343e-03 
-1.041340644124e-03 -3.282174640750e-05 0.0 
-3.282174640750e-05 5.343281569417e-03 0.0 
0.0 0.0 -8.276368238623e-04 
-1.238338552957e-03 5.129188831147e-04 0.0 
5.129188831147e-04 7.705442663502e-03 0.0 
0.0 0.0 -1.169529464977e-03 
-1.205798657677e-03 3.040238914407e-04 0.0 
3.040238914407e-04 7.606656415098e-03 0.0 
0.0 0.0 -1.140030709108e-03 
-1.136504455291e-03 -4.715376891294e-04 0.0 
-4.715376891294e-04 6.495059726217e-03 0.0 
0.0 0.0 -1.001167767022e-03 
-1.120337032388e-03 -1.059796522353e-04 0.0 
-1.059796522353e-04 6.426005632212e-03 0.0 
0.0 0.0 -1.004093472296e-03 
-5.274441073591e-04 -2.397572524931e-04 0.0 
-2.397572524931e-04 1.862294635062e-03 0.0 
0.0 0.0 -3.158693332420e-04 
-1.161634108540e-03 -5.320117127017e-05 0.0 
-5.320117127017e-05 6.648981173758e-03 0.0 
0.0 0.0 -1.032853941699e-03 
-1.125917341076e-03 2.991763443149e-04 0.0 
2.991763443149e-04 6.905438798140e-03 0.0 
0.0 0.0 -1.037144748481e-03 
-1.044631038411e-03 -3.631995376833e-04 0.0 
-3.631995376833e-04 5.407625222663e-03 0.0 
0.0 0.0 -8.248712778174e-04 
-1.078523674622e-03 -1.304712665821e-04 0.0 
-1.304712665821e-04 6.557738951195e-03 0.0 
0.0 0.0 -9.752741834902e-04 
-1.159347625089e-03 -9.624416522510e-05 0.0 
-9.624416522510e-05 7.210996352120e-03 0.0 
0.0 0.0 -1.071415751597e-03 
-3.318515090644e-04 6.235225383972e-04 0.0 
6.235225383972e-04 3.802912303128e-03 0.0 
0.0 0.0 -7.435371925968e-04 
-1.181769783394e-03 2.863535825742e-04 0.0 
2.863535825742e-04 7.408927706841e-03 0.0 
0.0 0.0 -1.110258267496e-03 
-9.356896319010e-04 -4.816204734149e-05 0.0 
-4.816204734149e-05 4.523878489702e-03 0.0 
0.0 0.0 -6.965171720950e-04 
-1.013439798328e-03 -4.389789435164e-04 0.0 
-4.389789435164e-04 5.194362623047e-03 0.0 
0.0 0.0 -7.960639764766e-04 
-7.588476473929e-04 -1.047638361378e-04 0.0 
-1.047638361378e-04 3.390478407872e-03 0.0 
0.0 0.0 -5.342291996904e-04 
-6.729613587978e-04 -9.978092115441e-04 0.0 
-9.978092115441e-04 3.336051263368e-03 0.0 
0.0 0.0 -5.581583723280e-04 
-1.100329888420e-03 2.776105336716e-04 0.0 
2.776105336716e-04 6.705832396393e-03 0.0 
0.0 0.0 -1.007339817349e-03 
-7.155066052029e-04 -8.941200741794e-04 0.0 
-8.941200741794e-04 4.520636252880e-03 0.0 
0.0 0.0 -7.637833264599e-04 
-5.880444497108e-04 -5.324378047215e-04 0.0 
-5.324378047215e-04 2.570561499900e-03 0.0 
0.0 0.0 -4.077494273363e-04 
-3.167379964521e-04 -3.896430801043e-04 0.0 
-3.896430801043e-04 1.286713823890e-03 0.0 
0.0 0.0 -2.185673950299e-04 
-1.104743277708e-03 -1.081634182050e-04 0.0 
-1.081634182050e-04 6.759513962222e-03 0.0 
0.0 0.0 -1.005115000480e-03 
-6.259157449930e-04 -2.410202634238e-04 0.0 
-2.410202634238e-04 2.506664290233e-03 0.0 
0.0 0.0 -4.107160730352e-04 
-1.199872170886e-03 -1.045804178386e-04 0.0 
-1.045804178386e-04 7.736983325214e-03 0.0 
0.0 0.0 -1.218716866995e-03 
-1.124972404341e-03 2.718592290333e-04 0.0 
2.718592290333e-04 6.955187210285e-03 0.0 
0.0 0.0 -1.043883448597e-03 
-1.171061824699e-03 -7.858396141652e-05 0.0 
-7.858396141652e-05 6.870002089505e-03 0.0 
0.0 0.0 -1.070373463590e-03 
-1.223592225032e-03 -6.654680312814e-05 0.0 
-6.654680312814e-05 7.796071319491e-03 0.0 
0.0 0.0 -1.284729618418e-03 
-8.862225412837e-04 -4.776674958030e-04 0.0 
-4.776674958030e-04 4.314456893826e-03 0.0 
0.0 0.0 -6.637377122259e-04 
-5.666876201447e-04 -1.260874714856e-04 0.0 
-1.260874714856e-04 2.263003673050e-03 0.0 
0.0 0.0 -3.731618544808e-04 
-4.219134531154e-04 -1.222472695970e-04 0.0 
-1.222472695970e-04 1.397809828057e-03 0.0 
0.0 0.0 -2.496210768721e-04 
-1.097286575279e-03 -5.440934378647e-04 0.0 
-5.440934378647e-04 6.473058930747e-03 0.0 
0.0 0.0 -1.009908742814e-03 
-1.043727317765e-03 2.472408857258e-04 0.0 
2.472408857258e-04 6.306661261885e-03 0.0 
0.0 0.0 -9.473489374553e-04 
-2.695681844680e-04 -5.290039554231e-05 0.0 
-5.290039554231e-05 9.382689285882e-04 0.0 
0.0 0.0 -1.858848441742e-04 
-7.364560019705e-04 -6.036242025600e-04 0.0 
-6.036242025600e-04 3.440005901319e-03 0.0 
0.0 0.0 -5.400474096907e-04 
-4.035403746382e-04 -2.305403145177e-04 0.0 
-2.305403145177e-04 2.024884021199e-03 0.0 
0.0 0.0 -3.246070344129e-04 
-1.046680963677e-03 -1.140431221757e-04 0.0 
-1.140431221757e-04 6.307213054075e-03 0.0 
0.0 0.0 -9.387834224272e-04 
-7.632592856577e-04 -5.393132933556e-04 0.0 
-5.393132933556e-04 3.657861775186e-03 0.0 
0.0 0.0 -5.687878759048e-04 
-1.016724206552e-03 -2.154888859726e-04 0.0 
-2.154888859726e-04 5.955453979487e-03 0.0 
0.0 0.0 -9.467935652645e-04 
-7.568020148065e-04 -4.521860907560e-04 0.0 
-4.521860907560e-04 3.415229586271e-03 0.0 
0.0 0.0 -5.337555413937e-04 
-1.189199624854e-03 -1.376681473433e-04 0.0 
-1.376681473433e-04 7.515170933533e-03 0.0 
0.0 0.0 -1.114809527198e-03 
-6.923550043241e-04 -2.768469088006e-04 0.0 
-2.768469088006e-04 2.945508556802e-03 0.0 
0.0 0.0 -4.768663991247e-04 
-1.044644236131e-03 -5.895775659962e-04 0.0 
-5.895775659962e-04 6.433247658548e-03 0.0 
0.0 0.0 -1.018590841688e-03 
-5.377186267121e-04 -1.162421830740e-03 0.0 
-1.162421830740e-03 1.924594638442e-03 0.0 
0.0 0.0 -3.376433569222e-04 
-1.043635089924e-03 -5.925974921427e-04 0.0 
-5.925974921427e-04 6.227817584456e-03 0.0 
0.0 0.0 -9.812220007866e-04 
-9.943565397434e-04 -3.497380212248e-04 0.0 
-3.497380212248e-04 4.987357588882e-03 0.0 
0.0 0.0 -7.604224332210e-04 
-1.126398211161e-03 -1.231258313828e-04 0.0 
-1.231258313828e-04 6.641179692916e-03 0.0 
0.0 0.0 -1.041555045145e-03 
9.223743664251e-05 -1.553032727052e-04 0.0 
-1.553032727052e-04 2.018845935385e-03 0.0 
0.0 0.0 -5.350282927002e-04 
-4.513551852745e-04 7.961954421125e-05 0.0 
7.961954421125e-05 1.942718085049e-03 0.0 
0.0 0.0 -3.277310168338e-04 
-9.768870302484e-04 -1.535527430477e-04 0.0 
-1.535527430477e-04 5.889109902335e-03 0.0 
0.0 0.0 -8.787268422831e-04 
-6.833158998415e-04 -4.842839122641e-04 0.0 
-4.842839122641e-04 5.519329349180e-03 0.0 
0.0 0.0 -9.464297096767e-04 
-6.696248071327e-04 9.527190214271e-04 0.0 
9.527190214271e-04 3.942995259938e-03 0.0 
0.0 0.0 -6.776081642141e-04 
-1.047238839157e-03 -1.563485093405e-04 0.0 
-1.563485093405e-04 6.341652196106e-03 0.0 
0.0 0.0 -9.453210152248e-04 
-5.135632802951e-04 -1.406486370917e-03 0.0 
-1.406486370917e-03 1.993823835031e-03 0.0 
0.0 0.0 -3.758914132629e-04 
-1.070153882220e-03 3.026802387506e-04 0.0 
3.026802387506e-04 6.407668419037e-03 0.0 
0.0 0.0 -9.642804585795e-04 
-3.826150946160e-04 -2.687090143275e-04 0.0 
-2.687090143275e-04 1.814458781029e-03 0.0 
0.0 0.0 -2.947674122297e-04 
-1.169970312209e-03 -5.285152303079e-04 0.0 
-5.285152303079e-04 7.359319887074e-03 0.0 
0.0 0.0 -1.150402778756e-03 
-7.093705364921e-04 -3.773457786927e-04 0.0 
-3.773457786927e-04 5.766663180528e-03 0.0 
0.0 0.0 -9.834711240942e-04 
-7.789396793629e-04 4.773750927831e-05 0.0 
4.773750927831e-05 6.190226744614e-03 0.0 
0.0 0.0 -1.037051012011e-03 
-1.266259122541e-03 -6.932227906498e-05 0.0 
-6.932227906498e-05 8.127793637496e-03 0.0 
0.0 0.0 -1.204463612412e-03 
-7.768385389529e-04 -8.073428107716e-04 0.0 
-8.073428107716e-04 4.980090398291e-03 0.0 
0.0 0.0 -8.294769417472e-04 
-4.699473644088e-04 -6.813726004672e-05 0.0 
-6.813726004672e-05 1.813879272209e-03 0.0 
0.0 0.0 -3.081489256106e-04 
-9.161062287207e-04 -6.850931603516e-04 0.0 
-6.850931603516e-04 5.713761905663e-03 0.0 
0.0 0.0 -9.239488535170e-04 
-1.173047693050e-03 -1.052473736579e-04 0.0 
-1.052473736579e-04 7.508097487322e-03 0.0 
0.0 0.0 -1.189963100592e-03 
-4.497409859123e-04 -1.426160803811e-03 0.0 
-1.426160803811e-03 2.458822638814e-03 0.0 
0.0 0.0 -4.786098583285e-04 
-1.143974714499e-03 -4.976969720053e-04 0.0 
-4.976969720053e-04 6.710156245847e-03 0.0 
0.0 0.0 -1.038675661098e-03 
-1.132883010551e-03 -1.192006961438e-04 0.0 
-1.192006961438e-04 7.009605316192e-03 0.0 
0.0 0.0 -1.041631482750e-03 
-1.897791220570e-04 -1.328549867833e-03 0.0 
-1.328549867833e-03 1.573915984256e-03 0.0 
0.0 0.0 -3.880698300753e-04 
-9.832169528241e-04 -6.401107558717e-04 0.0 
-6.401107558717e-04 5.975097252107e-03 0.0 
0.0 0.0 -9.525765839929e-04 
-9.785039199354e-04 -1.168734358181e-04 0.0 
-1.168734358181e-04 5.790498942477e-03 0.0 
0.0 0.0 -8.663127257150e-04 
-5.996048706546e-04 -3.316912815730e-04 0.0 
-3.316912815730e-04 2.740125406625e-03 0.0 
0.0 0.0 -4.280652785065e-04 
-7.035123059792e-04 -6.874159131133e-04 0.0 
-6.874159131133e-04 3.217847307373e-03 0.0 
0.0 0.0 -5.113914792957e-04 
-7.105655773308e-04 4.972009427012e-04 0.0 
4.972009427012e-04 4.827811336805e-03 0.0 
0.0 0.0 -8.004334922225e-04 
-1.074750193164e-03 -1.697498961518e-04 0.0 
-1.697498961518e-04 6.403492678198e-03 0.0 
0.0 0.0 -1.012809740122e-03 
-7.035308576129e-04 5.382426947374e-04 0.0 
5.382426947374e-04 3.806026837703e-03 0.0 
0.0 0.0 -6.201901524263e-04 
-6.308101104936e-04 5.457451351616e-04 0.0 
5.457451351616e-04 4.514197146446e-03 0.0 
0.0 0.0 -7.649884091348e-04 
-1.098080609149e-03 3.025878807238e-04 0.0 
3.025878807238e-04 6.656267622990e-03 0.0 
0.0 0.0 -1.000670320419e-03 
-1.014704614523e-03 2.583884235807e-04 0.0 
2.583884235807e-04 6.049064620228e-03 0.0 
0.0 0.0 -9.110000341593e-04 
-1.009261189838e-03 2.792149560740e-04 0.0 
2.792149560740e-04 5.955274274962e-03 0.0 
0.0 0.0 -8.984003255416e-04 
-9.871449342436e-04 -7.213431481816e-05 0.0 
-7.213431481816e-05 4.924174820230e-03 0.0 
0.0 0.0 -7.627602282935e-04 
-1.065656897570e-03 -5.121112680600e-04 0.0 
-5.121112680600e-04 7.066736918301e-03 0.0 
0.0 0.0 -1.130631056169e-03 
-8.421677165309e-04 -7.268506017030e-04 0.0 
-7.268506017030e-04 5.443918430101e-03 0.0 
0.0 0.0 -8.953295484280e-04 
-9.945000348060e-04 -1.248826091764e-04 0.0 
-1.248826091764e-04 5.857149722276e-03 0.0 
0.0 0.0 -8.720525204519e-04 
-1.238633943108e-03 1.686741563001e-04 0.0 
1.686741563001e-04 7.876441362665e-03 0.0 
0.0 0.0 -1.193584144721e-03 
-8.522957180035e-04 9.316442431589e-05 0.0 
9.316442431589e-05 6.488948212224e-03 0.0 
0.0 0.0 -1.073433710836e-03 
-1.015779217143e-03 -2.144660185469e-04 0.0 
-2.144660185469e-04 6.157749518334e-03 0.0 
0.0 0.0 -9.841343610905e-04 
-1.152967284980e-03 2.909720530725e-04 0.0 
2.909720530725e-04 7.156656236309e-03 0.0 
0.0 0.0 -1.073677668998e-03 
-7.263162190416e-04 -8.886940194724e-04 0.0 
-8.886940194724e-04 3.588121008828e-03 0.0 
0.0 0.0 -5.862626530915e-04 
-7.235359723586e-04 -7.958794651799e-04 0.0 
-7.958794651799e-04 3.410683047674e-03 0.0 
0.0 0.0 -5.488365039436e-04 
-4.694757851361e-04 -5.127005261343e-04 0.0 
-5.127005261343e-04 1.922171349029e-03 0.0 
0.0 0.0 -3.130684191733e-04 
-9.104943950573e-04 -6.552016600707e-04 0.0 
-6.552016600707e-04 5.911258485735e-03 0.0 
0.0 0.0 -9.612598090090e-04 
-7.654832124176e-04 -7.002445478485e-04 0.0 
-7.002445478485e-04 3.645865785489e-03 0.0 
0.0 0.0 -5.775003002374e-04 
-1.075243583964e-03 -1.050257747268e-04 0.0 
-1.050257747268e-04 6.505297040680e-03 0.0 
0.0 0.0 -9.686535345556e-04 
-1.046091552134e-03 -1.046643629052e-04 0.0 
-1.046643629052e-04 6.253743570569e-03 0.0 
0.0 0.0 -9.322463471790e-04 
-3.156258732897e-04 -6.342992802894e-05 0.0 
-6.342992802894e-05 4.063447682096e-03 0.0 
0.0 0.0 -7.690363516573e-04 
-6.768678335791e-04 -4.944889426237e-04 0.0 
-4.944889426237e-04 2.924353115240e-03 0.0 
0.0 0.0 -4.860199686152e-04 
7.378566886558e-05 8.261792693270e-04 0.0 
8.261792693270e-04 1.831438910589e-03 0.0 
0.0 0.0 -5.148587792422e-04 
-7.140205863396e-04 -3.895142562213e-04 0.0 
-3.895142562213e-04 3.153467660833e-03 0.0 
0.0 0.0 -5.143448975765e-04 
-7.166082742774e-04 -4.898417450174e-04 0.0 
-4.898417450174e-04 3.345585253682e-03 0.0 
0.0 0.0 -5.517963299543e-04 
-5.453825262275e-04 -1.801577044467e-04 0.0 
-1.801577044467e-04 2.063785108327e-03 0.0 
0.0 0.0 -3.446931235564e-04 
-9.991919087570e-04 -5.159677692080e-04 0.0 
-5.159677692080e-04 6.812973713771e-03 0.0 
0.0 0.0 -1.101849228969e-03 
-6.361621297383e-04 -6.326273812119e-04 0.0 
-6.326273812119e-04 3.840813039186e-03 0.0 
0.0 0.0 -6.642957827475e-04 
-1.186458515100e-03 -1.053251154620e-04 0.0 
-1.053251154620e-04 7.463739247015e-03 0.0 
0.0 0.0 -1.107989045227e-03 
-5.978205852497e-04 -6.030872319160e-04 0.0 
-6.030872319160e-04 3.997835835114e-03 0.0 
0.0 0.0 -7.013039408444e-04 
-8.766496605348e-04 -2.938506230370e-04 0.0 
-2.938506230370e-04 5.643098139245e-03 0.0 
0.0 0.0 -9.268471029391e-04 
-7.458770769302e-04 -4.494771908485e-04 0.0 
-4.494771908485e-04 4.730820068739e-03 0.0 
0.0 0.0 -7.951651613512e-04 
-5.061128914291e-04 5.136368614140e-04 0.0 
5.136368614140e-04 4.289096613619e-03 0.0 
0.0 0.0 -7.567435594048e-04 
-4.924031779586e-04 -4.582157831525e-04 0.0 
-4.582157831525e-04 2.128157277405e-03 0.0 
0.0 0.0 -3.417109511102e-04 
-1.119466152649e-03 -1.285123435513e-04 0.0 
-1.285123435513e-04 7.241871223374e-03 0.0 
0.0 0.0 -1.161691925552e-03 
-1.157276862038e-03 -5.152756470004e-04 0.0 
-5.152756470004e-04 7.595110461611e-03 0.0 
0.0 0.0 -1.198716319349e-03 
-9.186810373389e-04 7.206447187045e-04 0.0 
7.206447187045e-04 5.929294122594e-03 0.0 
0.0 0.0 -9.650368815299e-04 
-7.024384046348e-04 -5.668947943432e-04 0.0 
-5.668947943432e-04 3.521466880882e-03 0.0 
0.0 0.0 -5.892385666867e-04 
-8.092329254756e-04 -3.679333936268e-04 0.0 
-3.679333936268e-04 5.184879506691e-03 0.0 
0.0 0.0 -8.609535187098e-04 
-1.070645862318e-03 2.880325294516e-04 0.0 
2.880325294516e-04 6.451710160525e-03 0.0 
0.0 0.0 -9.708520278613e-04 
-7.765899253724e-04 -7.845646391497e-04 0.0 
-7.845646391497e-04 3.835907640370e-03 0.0 
0.0 0.0 -6.148791393494e-04 
-5.560475869297e-04 7.086124654578e-04 0.0 
7.086124654578e-04 3.695652655845e-03 0.0 
0.0 0.0 -6.394234923164e-04 
-6.747584532598e-04 -5.770366254477e-04 0.0 
-5.770366254477e-04 3.009985049056e-03 0.0 
0.0 0.0 -4.739097840058e-04 
-4.381090568186e-04 -1.552304285074e-03 0.0 
-1.552304285074e-03 2.041510460725e-03 0.0 
0.0 0.0 -4.132304097957e-04 
-7.141863963918e-04 -9.568035345241e-04 0.0 
-9.568035345241e-04 3.752753679619e-03 0.0 
0.0 0.0 -6.236739531379e-04 
-6.528961987011e-04 -1.781186145787e-04 0.0 
-1.781186145787e-04 2.715857529516e-03 0.0 
0.0 0.0 -4.393534411964e-04 
-5.596275213697e-04 -3.829013705402e-04 0.0 
-3.829013705402e-04 2.536190508459e-03 0.0 
0.0 0.0 -3.988888273503e-04 
-7.947060353366e-04 -8.306305145241e-04 0.0 
-8.306305145241e-04 4.800715564885e-03 0.0 
0.0 0.0 -7.922809795675e-04 
-9.495117069836e-04 -2.555007117944e-04 0.0 
-2.555007117944e-04 5.904688651206e-03 0.0 
0.0 0.0 -9.554846610150e-04 
-1.106451546740e-03 6.547273223382e-04 0.0 
6.547273223382e-04 7.113693437201e-03 0.0 
0.0 0.0 -1.128610778606e-03 
5.517197538679e-04 6.942037793557e-07 0.0 
6.942037793557e-07 5.222913432921e-05 0.0 
0.0 0.0 -1.143255210630e-04 
-3.502562365249e-04 -5.244252159893e-04 0.0 
-5.244252159893e-04 3.531851922803e-03 0.0 
0.0 0.0 -6.818868151027e-04 
-4.968184483203e-04 -6.518828778024e-04 0.0 
-6.518828778024e-04 3.693766435261e-03 0.0 
0.0 0.0 -6.732431144785e-04 
-6.734388902022e-04 -6.179988430692e-04 0.0 
-6.179988430692e-04 3.684173063462e-03 0.0 
0.0 0.0 -6.268095852860e-04 
-1.038674892423e-03 2.849365380829e-04 0.0 
2.849365380829e-04 6.200994707550e-03 0.0 
0.0 0.0 -9.344164207832e-04 
-6.877399303223e-04 -5.371529877498e-04 0.0 
-5.371529877498e-04 4.282013621242e-03 0.0 
0.0 0.0 -7.295442444478e-04 
-7.236126278911e-04 -1.940798346154e-04 0.0 
-1.940798346154e-04 3.162977138653e-03 0.0 
0.0 0.0 -5.055050897130e-04 
-6.903954199582e-04 -9.883908706268e-04 0.0 
-9.883908706268e-04 3.912237901394e-03 0.0 
0.0 0.0 -6.611654675676e-04 
-1.160544064243e-03 2.681116606983e-04 0.0 
2.681116606983e-04 7.207667667947e-03 0.0 
0.0 0.0 -1.080452943103e-03 
-7.185620229440e-04 -5.086767079658e-04 0.0 
-5.086767079658e-04 3.228512561114e-03 0.0 
0.0 0.0 -5.025663706543e-04 
-3.033530584322e-04 -3.126589283008e-05 0.0 
-3.126589283008e-05 1.124202721504e-03 0.0 
0.0 0.0 -2.132551421006e-04 
-4.445863950683e-04 -1.098673452603e-04 0.0 
-1.098673452603e-04 1.624443337862e-03 0.0 
0.0 0.0 -2.784575373548e-04 
-4.556609783406e-04 -1.046441961485e-03 0.0 
-1.046441961485e-03 2.312897280805e-03 0.0 
0.0 0.0 -4.444240490352e-04 
-6.671697262521e-04 -6.094353393578e-04 0.0 
-6.094353393578e-04 3.102567689836e-03 0.0 
0.0 0.0 -5.239304829885e-04 
-4.604694554278e-04 -5.460587614430e-04 0.0 
-5.460587614430e-04 3.852686059404e-03 0.0 
0.0 0.0 -7.099160536912e-04 
-6.597409171735e-04 -9.847744191674e-04 0.0 
-9.847744191674e-04 4.070104714955e-03 0.0 
0.0 0.0 -6.984076724203e-04 
-4.347846215514e-04 -1.333971923402e-03 0.0 
-1.333971923402e-03 1.612936656771e-03 0.0 
0.0 0.0 -3.343205611582e-04 
-3.976613437580e-04 -3.897326152451e-04 0.0 
-3.897326152451e-04 1.671878635782e-03 0.0 
0.0 0.0 -2.765202162382e-04 
-1.033660003461e-03 -1.033996314703e-04 0.0 
-1.033996314703e-04 5.926247048388e-03 0.0 
0.0 0.0 -8.885078876198e-04 
-6.226964712633e-04 -4.829751825411e-04 0.0 
-4.829751825411e-04 2.780306463648e-03 0.0 
0.0 0.0 -4.363975895258e-04 
-9.598608129298e-04 -1.512388155027e-04 0.0 
-1.512388155027e-04 6.520728160314e-03 0.0 
0.0 0.0 -1.067401112627e-03 
-1.044199175907e-03 6.711789122637e-04 0.0 
6.711789122637e-04 6.814869566682e-03 0.0 
0.0 0.0 -1.093380752811e-03 
-1.033158695296e-03 1.201714905428e-04 0.0 
1.201714905428e-04 5.943900742884e-03 0.0 
0.0 0.0 -9.013836717722e-04 
-1.202438437016e-03 3.703852775580e-04 0.0 
3.703852775580e-04 7.497052002657e-03 0.0 
0.0 0.0 -1.126084317643e-03 
-1.147719962247e-03 6.494223347106e-04 0.0 
6.494223347106e-04 7.391690108111e-03 0.0 
0.0 0.0 -1.164310864388e-03 
-2.878547429469e-04 1.154238477974e-04 0.0 
1.154238477974e-04 3.877857573592e-03 0.0 
0.0 0.0 -7.408850503417e-04 
-9.791568623396e-04 6.928855181129e-04 0.0 
6.928855181129e-04 6.367692588182e-03 0.0 
0.0 0.0 -1.029042339204e-03 
-3.868820834042e-04 -1.598175067219e-03 0.0 
-1.598175067219e-03 1.640588266591e-03 0.0 
0.0 0.0 -3.684254322556e-04 
-7.608485108981e-04 -8.950598342909e-04 0.0 
-8.950598342909e-04 4.184728790858e-03 0.0 
0.0 0.0 -6.894573431515e-04 
-3.726378683448e-04 9.309707187506e-04 0.0 
9.309707187506e-04 3.521132831243e-03 0.0 
0.0 0.0 -6.879681371099e-04 
1.475700378225e-04 -1.082055056136e-03 0.0 
-1.082055056136e-03 1.153328364632e-03 0.0 
0.0 0.0 -4.001859895708e-04 
-2.322378270667e-04 -1.414305700121e-03 0.0 
-1.414305700121e-03 1.285051000812e-03 0.0 
0.0 0.0 -3.718692805502e-04 
-7.624977688682e-04 -3.873820506890e-04 0.0 
-3.873820506890e-04 3.581246965727e-03 0.0 
0.0 0.0 -5.804062017457e-04 
-5.687072458126e-04 -1.053499292402e-03 0.0 
-1.053499292402e-03 3.769545573336e-03 0.0 
0.0 0.0 -6.703429011759e-04 
-5.303660715231e-04 -9.834601585863e-04 0.0 
-9.834601585863e-04 3.928073668805e-03 0.0 
0.0 0.0 -7.070647534220e-04 
-6.858142190642e-04 -1.264292236945e-04 0.0 
-1.264292236945e-04 2.925987856864e-03 0.0 
0.0 0.0 -4.680152132766e-04 
-6.589899224581e-04 -5.005558218905e-04 0.0 
-5.005558218905e-04 4.450521373462e-03 0.0 
0.0 0.0 -7.666177146937e-04 
-4.231487579380e-04 -9.909487264928e-04 0.0 
-9.909487264928e-04 3.613001704936e-03 0.0 
0.0 0.0 -6.790125122095e-04 
-3.369199789232e-04 -3.555417311412e-04 0.0 
-3.555417311412e-04 3.718100603305e-03 0.0 
0.0 0.0 -7.183521444552e-04 
-6.803758157452e-04 -9.028741567956e-04 0.0 
-9.028741567956e-04 3.171875899076e-03 0.0 
0.0 0.0 -5.205443542100e-04 
-6.888642757158e-04 -2.049706033719e-04 0.0 
-2.049706033719e-04 5.802071078045e-03 0.0 
0.0 0.0 -9.921115096417e-04 
-1.107658319106e-03 -8.404497540785e-05 0.0 
-8.404497540785e-05 6.709473481144e-03 0.0 
0.0 0.0 -9.984673180476e-04 
-2.379293217191e-04 -2.443881819662e-04 0.0 
-2.443881819662e-04 3.409073247204e-03 0.0 
0.0 0.0 -6.904379518788e-04 
-1.046303389369e-03 -1.114400525399e-04 0.0 
-1.114400525399e-04 6.996162598283e-03 0.0 
0.0 0.0 -1.133495712197e-03 
-3.268910950442e-04 -1.748504239578e-03 0.0 
-1.748504239578e-03 1.649599373731e-03 0.0 
0.0 0.0 -3.849690761666e-04 
-1.105326955299e-03 -1.209562394880e-05 0.0 
-1.209562394880e-05 7.506917461540e-03 0.0 
0.0 0.0 -1.208505026952e-03 
-5.639712272191e-04 -5.345864669018e-04 0.0 
-5.345864669018e-04 4.155944038547e-03 0.0 
0.0 0.0 -7.381355003807e-04 
-1.181963174499e-03 7.139086798359e-04 0.0 
7.139086798359e-04 7.734753846791e-03 0.0 
0.0 0.0 -1.203459118631e-03 
-9.741416899861e-04 2.978325655321e-04 0.0 
2.978325655321e-04 5.872577927131e-03 0.0 
0.0 0.0 -9.144069900286e-04 
-4.654888822043e-04 -1.140967963864e-03 0.0 
-1.140967963864e-03 1.931638852762e-03 0.0 
0.0 0.0 -3.788569260403e-04 
-1.047582909248e-03 1.584393688340e-04 0.0 
1.584393688340e-04 6.105623494628e-03 0.0 
0.0 0.0 -9.292863832265e-04 
-1.220879085669e-03 4.419497771274e-04 0.0 
4.419497771274e-04 7.616026390278e-03 0.0 
0.0 0.0 -1.148369591821e-03 
-5.398601850951e-04 -4.406973068625e-04 0.0 
-4.406973068625e-04 4.330390544396e-03 0.0 
0.0 0.0 -7.747733155264e-04 
-3.603331338578e-04 8.676550475076e-04 0.0 
8.676550475076e-04 2.963522800416e-03 0.0 
0.0 0.0 -5.621395992319e-04 
-1.057553285601e-03 1.944669215669e-04 0.0 
1.944669215669e-04 6.263161490160e-03 0.0 
0.0 0.0 -9.572423940436e-04 
-7.057059362099e-04 9.012515937016e-04 0.0 
9.012515937016e-04 4.348665847300e-03 0.0 
0.0 0.0 -7.402445244775e-04 
-4.362988120307e-04 -1.127161443736e-03 0.0 
-1.127161443736e-03 1.552148016574e-03 0.0 
0.0 0.0 -3.359502462693e-04 
-1.283659217910e-03 4.297574681589e-04 0.0 
4.297574681589e-04 8.390487106861e-03 0.0 
0.0 0.0 -1.259077240559e-03 
-4.445080952730e-04 -7.847967672699e-04 0.0 
-7.847967672699e-04 1.460661056520e-03 0.0 
0.0 0.0 -3.199353184197e-04 
-1.015479846412e-03 -4.911816191570e-05 0.0 
-4.911816191570e-05 7.389564650234e-03 0.0 
0.0 0.0 -1.194426649262e-03 
-1.235108043989e-03 2.931339570481e-04 0.0 
2.931339570481e-04 7.856142431297e-03 0.0 
0.0 0.0 -1.175981821618e-03 
-7.472334457018e-04 -2.848888603521e-04 0.0 
-2.848888603521e-04 6.030064979728e-03 0.0 
0.0 0.0 -1.020516803968e-03 
-1.010840280569e-03 2.871682712165e-04 0.0 
2.871682712165e-04 5.990467797945e-03 0.0 
0.0 0.0 -9.041796124736e-04 
-1.188290086785e-03 -4.131460252783e-05 0.0 
-4.131460252783e-05 7.360236208895e-03 0.0 
0.0 0.0 -1.094228678348e-03 
-3.956150081579e-04 -8.444363927456e-04 0.0 
-8.444363927456e-04 3.798159061747e-03 0.0 
0.0 0.0 -7.154996274706e-04 
-4.250562518241e-04 -8.715186287138e-05 0.0 
-8.715186287138e-05 4.576837397274e-03 0.0 
0.0 0.0 -8.337527902170e-04 
-1.236732889268e-03 3.932687216903e-04 0.0 
3.932687216903e-04 7.932024372295e-03 0.0 
0.0 0.0 -1.191782302182e-03 
-1.016762164362e-03 -2.009947599505e-04 0.0 
-2.009947599505e-04 6.362580938042e-03 0.0 
0.0 0.0 -1.021464098896e-03 
-1.135162035509e-03 -5.768530929233e-05 0.0 
-5.768530929233e-05 6.910041935378e-03 0.0 
0.0 0.0 -1.028225029406e-03 
-7.343430317228e-04 -7.671896480506e-05 0.0 
-7.671896480506e-05 5.717453709460e-03 0.0 
0.0 0.0 -9.780777104595e-04 
-3.572725597686e-04 -1.352690279400e-03 0.0 
-1.352690279400e-03 1.583802329561e-03 0.0 
0.0 0.0 -3.505936111242e-04 
-1.159722748538e-03 -3.230530369319e-05 0.0 
-3.230530369319e-05 7.104974861712e-03 0.0 
0.0 0.0 -1.057861461704e-03 
-1.213686028729e-03 4.975227447854e-04 0.0 
4.975227447854e-04 8.277647080915e-03 0.0 
0.0 0.0 -1.268085107495e-03 
-1.141634375887e-03 -6.383832911746e-05 0.0 
-6.383832911746e-05 7.496062386317e-03 0.0 
0.0 0.0 -1.202195648613e-03 
-7.172722051064e-04 -5.438382500790e-04 0.0 
-5.438382500790e-04 4.116936776522e-03 0.0 
0.0 0.0 -6.923681691211e-04 
-1.013061704463e-03 -1.285173007321e-04 0.0 
-1.285173007321e-04 6.040176746182e-03 0.0 
0.0 0.0 -9.020111041354e-04 
-9.803558555424e-04 2.819126364211e-04 0.0 
2.819126364211e-04 5.747481973327e-03 0.0 
0.0 0.0 -8.677534307045e-04 
-6.277772364563e-04 -9.505441527148e-04 0.0 
-9.505441527148e-04 4.228315103377e-03 0.0 
0.0 0.0 -7.352749011056e-04 
-9.471295400473e-04 -2.290448642546e-04 0.0 
-2.290448642546e-04 6.104893151692e-03 0.0 
0.0 0.0 -9.927925938930e-04 
-9.496787292750e-04 -1.931802113086e-04 0.0 
-1.931802113086e-04 6.308676304585e-03 0.0 
0.0 0.0 -1.030113165296e-03 
-3.367468350593e-04 -4.171493311675e-04 0.0 
-4.171493311675e-04 1.462207300335e-03 0.0 
0.0 0.0 -2.466400652194e-04 
1.723252799300e-04 1.006036226683e-03 0.0 
1.006036226683e-03 1.258635118435e-03 0.0 
0.0 0.0 -4.508272210452e-04 
-2.636139264689e-04 -4.295683990350e-05 0.0 
-4.295683990350e-05 3.648292398008e-03 0.0 
0.0 0.0 -7.269793770173e-04 
-2.881552402748e-04 -7.723163841178e-04 0.0 
-7.723163841178e-04 3.494059092135e-03 0.0 
0.0 0.0 -6.875569550716e-04 
-5.987135522067e-04 9.581338196100e-04 0.0 
9.581338196100e-04 4.121697912248e-03 0.0 
0.0 0.0 -7.320784846625e-04 
-1.264443641134e-03 9.169602624826e-06 0.0 
9.169602624826e-06 8.228641212544e-03 0.0 
0.0 0.0 -1.225426844749e-03 
-1.225437596415e-03 5.454708430458e-04 0.0 
5.454708430458e-04 7.618255897701e-03 0.0 
0.0 0.0 -1.162686153705e-03 
-1.236580353686e-03 -8.584500076515e-05 0.0 
-8.584500076515e-05 7.903871079557e-03 0.0 
0.0 0.0 -1.173632101657e-03 
-7.521471418708e-04 4.524177914914e-04 0.0 
4.524177914914e-04 4.089944836528e-03 0.0 
0.0 0.0 -6.556197767577e-04 
-1.172411158405e-03 4.147315892345e-04 0.0 
4.147315892345e-04 7.176351707369e-03 0.0 
0.0 0.0 -1.082713561900e-03 
-9.808832725520e-04 -6.235651659416e-04 0.0 
-6.235651659416e-04 6.175367423925e-03 0.0 
0.0 0.0 -9.899156953211e-04 
-1.256868554146e-03 3.642260226585e-04 0.0 
3.642260226585e-04 8.010570571666e-03 0.0 
0.0 0.0 -1.198415070424e-03 
-1.131244473165e-03 -2.609112415896e-05 0.0 
-2.609112415896e-05 6.847199996424e-03 0.0 
0.0 0.0 -1.021631336281e-03 
-7.398403296460e-04 -9.100435650523e-04 0.0 
-9.100435650523e-04 4.351978419830e-03 0.0 
0.0 0.0 -7.266350563285e-04 
-1.966131980491e-04 1.343789576191e-04 0.0 
1.343789576191e-04 3.379385752975e-03 0.0 
0.0 0.0 -6.989458521267e-04 
-1.152804453403e-03 3.500950542230e-04 0.0 
3.500950542230e-04 7.051163395974e-03 0.0 
0.0 0.0 -1.060111126929e-03 
-1.235067592862e-03 -2.698356757779e-05 0.0 
-2.698356757779e-05 7.807694952398e-03 0.0 
0.0 0.0 -1.160283895044e-03 
-1.152447904070e-03 3.233521508878e-04 0.0 
3.233521508878e-04 7.106400049278e-03 0.0 
0.0 0.0 -1.066842251349e-03 
-1.126824314787e-03 3.260890582423e-04 0.0 
3.260890582423e-04 6.856832929645e-03 0.0 
0.0 0.0 -1.030428295937e-03 
-1.098624795041e-03 -1.306628866347e-04 0.0 
-1.306628866347e-04 7.036525786255e-03 0.0 
0.0 0.0 -1.124756152480e-03 
-9.788942539780e-04 1.410494860673e-05 0.0 
1.410494860673e-05 7.171321125896e-03 0.0 
0.0 0.0 -1.167530213646e-03 
-1.029227773633e-03 -1.448576550575e-04 0.0 
-1.448576550575e-04 6.777818390463e-03 0.0 
0.0 0.0 -1.096139997395e-03 
-8.853909467236e-04 -3.202143432842e-04 0.0 
-3.202143432842e-04 5.450131718365e-03 0.0 
0.0 0.0 -8.895595506238e-04 
-7.841401063913e-04 5.175313733597e-04 0.0 
5.175313733597e-04 4.039507771945e-03 0.0 
0.0 0.0 -6.419897747600e-04 
-7.984394936658e-04 -1.887921339689e-04 0.0 
-1.887921339689e-04 6.295485930606e-03 0.0 
0.0 0.0 -1.057160997780e-03 
-1.115933343197e-03 4.349000973092e-04 0.0 
4.349000973092e-04 6.664037002129e-03 0.0 
0.0 0.0 -1.010795753303e-03 
-5.956699057430e-04 -8.811439702695e-05 0.0 
-8.811439702695e-05 2.473036601140e-03 0.0 
0.0 0.0 -4.018221946533e-04 
-2.915622310354e-04 -5.737426198503e-04 0.0 
-5.737426198503e-04 3.731241780433e-03 0.0 
0.0 0.0 -7.241222962603e-04 
-4.504794563628e-04 -1.267768640868e-04 0.0 
-1.267768640868e-04 4.437238068048e-03 0.0 
0.0 0.0 -8.193994707270e-04 
-5.327307368017e-04 -1.017456922387e-04 0.0 
-1.017456922387e-04 5.084928060617e-03 0.0 
0.0 0.0 -8.986564694586e-04 
3.950181268846e-04 -2.404122539236e-04 0.0 
-2.404122539236e-04 7.824137722745e-04 0.0 
0.0 0.0 -4.157903644632e-04 
-2.054344188629e-04 -4.192766465647e-04 0.0 
-4.192766465647e-04 3.464515105753e-03 0.0 
0.0 0.0 -6.962026719631e-04 
-6.398120247413e-04 -1.116949900707e-04 0.0 
-1.116949900707e-04 5.588791715487e-03 0.0 
0.0 0.0 -9.636952012155e-04 
-8.444842612221e-04 6.249200502653e-04 0.0 
6.249200502653e-04 4.582153886631e-03 0.0 
0.0 0.0 -7.294090860403e-04 
-7.683331433156e-04 -4.669157271009e-04 0.0 
-4.669157271009e-04 4.555612432421e-03 0.0 
0.0 0.0 -7.579899565570e-04 
-1.071508205892e-03 -5.121927920590e-05 0.0 
-5.121927920590e-05 6.390736393491e-03 0.0 
0.0 0.0 -9.556638187253e-04 
-8.714266706773e-04 2.063026129845e-04 0.0 
2.063026129845e-04 5.095248433608e-03 0.0 
0.0 0.0 -7.638029664831e-04 
-6.864860403863e-05 6.865817311915e-04 0.0 
6.865817311915e-04 5.756289586921e-04 0.0 
0.0 0.0 -2.172772948515e-04 
-8.538627514522e-04 -7.550684867704e-04 0.0 
-7.550684867704e-04 5.254936553017e-03 0.0 
0.0 0.0 -8.580817703278e-04 
-8.031553766191e-04 9.023974365030e-05 0.0 
9.023974365030e-05 6.192888911591e-03 0.0 
0.0 0.0 -1.051835763028e-03 
-1.248237691654e-03 5.633939617195e-04 0.0 
5.633939617195e-04 7.887034516043e-03 0.0 
0.0 0.0 -1.196871286280e-03 
-3.729352427207e-04 2.857944806302e-04 0.0 
2.857944806302e-04 4.199383336330e-03 0.0 
0.0 0.0 -7.999758813884e-04 
-8.246860114036e-04 -3.906175878888e-04 0.0 
-3.906175878888e-04 5.000590526334e-03 0.0 
0.0 0.0 -8.237210115815e-04 
-1.081299147246e-03 -7.697289611938e-05 0.0 
-7.697289611938e-05 6.459732028031e-03 0.0 
0.0 0.0 -9.620958722924e-04 
-2.880056971411e-04 8.925028292911e-04 0.0 
8.925028292911e-04 1.145866698786e-03 0.0 
0.0 0.0 -3.038018182983e-04 
-7.446793118804e-04 1.621554593950e-04 0.0 
1.621554593950e-04 5.956534969945e-03 0.0 
0.0 0.0 -1.023361637732e-03 
-4.737891057000e-04 -2.200266757859e-04 0.0 
-2.200266757859e-04 4.791461031182e-03 0.0 
0.0 0.0 -8.619475031457e-04 
-8.828155885906e-04 2.614625346270e-04 0.0 
2.614625346270e-04 4.904715470600e-03 0.0 
0.0 0.0 -7.615729788896e-04 
-9.809961927394e-04 -5.936604313144e-04 0.0 
-5.936604313144e-04 6.379528294436e-03 0.0 
0.0 0.0 -1.027225276160e-03 
-1.932500912873e-05 -1.677380896941e-03 0.0 
-1.677380896941e-03 1.233986358287e-03 0.0 
0.0 0.0 -3.946419382404e-04 
-9.859370989770e-04 -5.573179193325e-04 0.0 
-5.573179193325e-04 6.591591148133e-03 0.0 
0.0 0.0 -1.064556537081e-03 
-1.075263487039e-03 -6.290518893134e-05 0.0 
-6.290518893134e-05 7.229861812646e-03 0.0 
0.0 0.0 -1.170878753521e-03 
-6.948674803166e-04 2.455637071473e-04 0.0 
2.455637071473e-04 5.729378568502e-03 0.0 
0.0 0.0 -9.948919501216e-04 
-1.162320360260e-03 -6.372562573002e-05 0.0 
-6.372562573002e-05 7.161310363851e-03 0.0 
0.0 0.0 -1.064574987933e-03 
-9.584753352366e-04 2.606905829813e-04 0.0 
2.606905829813e-04 6.727836890182e-03 0.0 
0.0 0.0 -1.082686220397e-03 
-1.082949588594e-03 -4.851124086325e-04 0.0 
-4.851124086325e-04 7.296469259281e-03 0.0 
0.0 0.0 -1.168035910845e-03 
-5.459113610208e-04 8.695894781593e-04 0.0 
8.695894781593e-04 1.682549247342e-03 0.0 
0.0 0.0 -2.917408095836e-04 
-1.104897704515e-03 -4.845952140230e-05 0.0 
-4.845952140230e-05 6.655011128943e-03 0.0 
0.0 0.0 -9.919185416031e-04 
-1.022193057884e-03 1.318252200891e-04 0.0 
1.318252200891e-04 7.257050403107e-03 0.0 
0.0 0.0 -1.173906618061e-03 
-1.179945511942e-03 3.471716249997e-04 0.0 
3.471716249997e-04 7.305593288174e-03 0.0 
0.0 0.0 -1.096489272820e-03 
-5.875834666640e-04 2.546818746217e-04 0.0 
2.546818746217e-04 5.224796690614e-03 0.0 
0.0 0.0 -9.297700869391e-04 
-2.515263867691e-04 -2.254429621664e-04 0.0 
-2.254429621664e-04 3.754254559254e-03 0.0 
0.0 0.0 -7.325247082200e-04 
-9.641389493889e-04 -2.217264104135e-04 0.0 
-2.217264104135e-04 5.113633075458e-03 0.0 
0.0 0.0 -8.069452076110e-04 
4.285236195004e-04 1.396212384085e-04 0.0 
1.396212384085e-04 -1.219952762883e-04 0.0 
0.0 0.0 -1.313692899480e-04 
-1.204146700831e-03 3.439641556613e-04 0.0 
3.439641556613e-04 7.554548687955e-03 0.0 
0.0 0.0 -1.132911322290e-03 
-6.253175333027e-04 -2.826075305287e-05 0.0 
-2.826075305287e-05 2.680000675139e-03 0.0 
0.0 0.0 -4.309687334850e-04 
-5.749579867921e-04 6.771703350766e-04 0.0 
6.771703350766e-04 2.115308728038e-03 0.0 
0.0 0.0 -3.582286249851e-04 
-9.529535044554e-04 3.072244071368e-04 0.0 
3.072244071368e-04 6.570888144221e-03 0.0 
0.0 0.0 -1.054483161448e-03 
-1.255167442230e-03 3.201007171124e-04 0.0 
3.201007171124e-04 8.070344212991e-03 0.0 
0.0 0.0 -1.206783194404e-03 
-8.215496895040e-05 -1.772999525451e-03 0.0 
-1.772999525451e-03 1.193950944070e-03 0.0 
0.0 0.0 -3.966701258844e-04 
-7.833558623484e-04 4.482971625863e-04 0.0 
4.482971625863e-04 5.133302818514e-03 0.0 
0.0 0.0 -8.358581584049e-04 
-1.123137751770e-03 3.572847673877e-04 0.0 
3.572847673877e-04 6.794615582447e-03 0.0 
0.0 0.0 -1.023814440555e-03 
-8.765385540671e-04 -7.492880491734e-04 0.0 
-7.492880491734e-04 4.884441485584e-03 0.0 
0.0 0.0 -7.840072721007e-04 
2.874574446344e-04 -1.091275984428e-03 0.0 
-1.091275984428e-03 9.021895657290e-04 0.0 
0.0 0.0 -4.027365510179e-04 
-3.368056399330e-04 1.320783307670e-03 0.0 
1.320783307670e-03 2.512908282168e-03 0.0 
0.0 0.0 -5.292697486782e-04 
-2.272190685037e-04 -1.261695231052e-03 0.0 
-1.261695231052e-03 1.204255834380e-03 0.0 
0.0 0.0 -3.563018015714e-04 
-5.481856080813e-06 -1.360265015014e-03 0.0 
-1.360265015014e-03 1.114057395476e-03 0.0 
0.0 0.0 -3.608158092454e-04 
-1.672715856143e-04 -1.512279546231e-03 0.0 
-1.512279546231e-03 1.180506359655e-03 0.0 
0.0 0.0 -3.382523083772e-04 
-4.805060594133e-04 2.668098062439e-04 0.0 
2.668098062439e-04 4.715407643663e-03 0.0 
0.0 0.0 -8.647910268431e-04 
-1.323581223665e-03 3.388354907586e-04 0.0 
3.388354907586e-04 9.015003947055e-03 0.0 
0.0 0.0 -1.324146187826e-03 
-6.144383844702e-04 5.601929244688e-04 0.0 
5.601929244688e-04 2.582601934857e-03 0.0 
0.0 0.0 -4.244337567297e-04 
-1.156564282164e-03 -1.287267705775e-04 0.0 
-1.287267705775e-04 7.284536477905e-03 0.0 
0.0 0.0 -1.153422328581e-03 
-1.335800596959e-04 5.879693086389e-04 0.0 
5.879693086389e-04 2.932124141139e-03 0.0 
0.0 0.0 -6.430507458085e-04 
-1.103593163525e-03 -2.311027910085e-05 0.0 
-2.311027910085e-05 6.594057391582e-03 0.0 
0.0 0.0 -9.856407671940e-04 
6.097401795475e-04 2.716157955159e-04 0.0 
2.716157955159e-04 -1.627804699296e-04 0.0 
0.0 0.0 -1.915541612648e-04 
-1.121189365028e-03 -4.313739104837e-04 0.0 
-4.313739104837e-04 7.519397857683e-03 0.0 
0.0 0.0 -1.206759618350e-03 
-1.369628119913e-04 -1.636536330447e-03 0.0 
-1.636536330447e-03 1.233538073419e-03 0.0 
0.0 0.0 -4.045577262616e-04 
-7.109907021558e-04 -5.092194229215e-05 0.0 
-5.092194229215e-05 3.143336407810e-03 0.0 
0.0 0.0 -4.995972236199e-04 
-7.610689947692e-04 3.254275537369e-04 0.0 
3.254275537369e-04 6.017676875730e-03 0.0 
0.0 0.0 -1.031547093314e-03 
-5.009347095537e-04 -8.784504666191e-04 0.0 
-8.784504666191e-04 4.097798542798e-03 0.0 
0.0 0.0 -7.436172176343e-04 
-9.490922030985e-04 8.355820245776e-05 0.0 
8.355820245776e-05 6.977686204134e-03 0.0 
0.0 0.0 -1.139062866688e-03 
-5.334594474911e-04 7.731459396832e-04 0.0 
7.731459396832e-04 3.293236008727e-03 0.0 
0.0 0.0 -5.762899171568e-04 
-1.157169932203e-03 5.876132975745e-05 0.0 
5.876132975745e-05 6.976179943537e-03 0.0 
0.0 0.0 -1.044446328659e-03 
-1.026845760321e-03 3.718808168871e-04 0.0 
3.718808168871e-04 7.294887320679e-03 0.0 
0.0 0.0 -1.198892520503e-03 
-1.098955546930e-03 3.331596057930e-04 0.0 
3.331596057930e-04 6.603659082882e-03 0.0 
0.0 0.0 -9.940794652285e-04 
-1.269540035819e-03 1.940023298487e-04 0.0 
1.940023298487e-04 7.944098741491e-03 0.0 
0.0 0.0 -1.194784139986e-03 
-1.184726223875e-03 -2.348624992811e-06 0.0 
-2.348624992811e-06 7.294407597930e-03 0.0 
0.0 0.0 -1.087318097122e-03 
-1.210012004909e-03 2.996776911562e-05 0.0 
2.996776911562e-05 7.486490191622e-03 0.0 
0.0 0.0 -1.116677092124e-03 
1.863822195981e-04 1.500592688013e-03 0.0 
1.500592688013e-03 6.610975863953e-04 0.0 
0.0 0.0 -3.632056311400e-04 
-1.142912226621e-03 -1.436249115933e-04 0.0 
-1.436249115933e-04 7.061947710655e-03 0.0 
0.0 0.0 -1.115908039155e-03 
-1.147672819159e-03 3.821528619329e-04 0.0 
3.821528619329e-04 6.988478452450e-03 0.0 
0.0 0.0 -1.053364550114e-03 
-4.264879333549e-04 6.971974912426e-04 0.0 
6.971974912426e-04 4.141626674137e-03 0.0 
0.0 0.0 -7.792489223127e-04 
-6.776919640089e-04 4.847017937331e-04 0.0 
4.847017937331e-04 3.056038122043e-03 0.0 
0.0 0.0 -4.908673385051e-04 
-1.078927379078e-03 1.409149927546e-05 0.0 
1.409149927546e-05 7.640444635147e-03 0.0 
0.0 0.0 -1.232292820449e-03 
3.227356576489e-04 7.350862602758e-04 0.0 
7.350862602758e-04 8.113095771019e-04 0.0 
0.0 0.0 -4.142712813041e-04 
-6.537509052586e-04 -4.383754105270e-04 0.0 
-4.383754105270e-04 2.983336896445e-03 0.0 
0.0 0.0 -4.655197245388e-04 
-9.005107576278e-04 4.600258062660e-04 0.0 
4.600258062660e-04 6.613923225017e-03 0.0 
0.0 0.0 -1.105063927110e-03 
-3.654007350969e-04 -1.479495410984e-04 0.0 
-1.479495410984e-04 1.815899396191e-03 0.0 
0.0 0.0 -2.939799329518e-04 
-5.977371900919e-04 5.010127079244e-04 0.0 
5.010127079244e-04 4.620714897895e-03 0.0 
0.0 0.0 -7.924235178053e-04 
-8.040024099011e-04 2.359492841355e-04 0.0 
2.359492841355e-04 6.229578808837e-03 0.0 
0.0 0.0 -1.059843925468e-03 
-1.255635553756e-03 7.173795077006e-05 0.0 
7.173795077006e-05 7.907591642771e-03 0.0 
0.0 0.0 -1.181155146799e-03 
-1.282202030770e-03 1.124926252761e-04 0.0 
1.124926252761e-04 8.112071435222e-03 0.0 
0.0 0.0 -1.210943746944e-03 
-7.487229487199e-04 -1.168956266195e-04 0.0 
-1.168956266195e-04 6.087931342050e-03 0.0 
0.0 0.0 -1.028825005900e-03 
-1.212248021085e-03 -1.436521725135e-05 0.0 
-1.436521725135e-05 7.552882477900e-03 0.0 
0.0 0.0 -1.123737208958e-03 
-2.386760142168e-04 7.145577053840e-04 0.0 
7.145577053840e-04 3.288051445445e-03 0.0 
0.0 0.0 -6.793824814286e-04 
-1.022910334669e-03 3.054988306638e-04 0.0 
3.054988306638e-04 6.728691543712e-03 0.0 
0.0 0.0 -1.062452857821e-03 
-7.369445152822e-04 4.219749857923e-04 0.0 
4.219749857923e-04 3.529735228100e-03 0.0 
0.0 0.0 -5.576509564599e-04 
-1.225600923705e-03 6.150358502408e-04 0.0 
6.150358502408e-04 7.637406645108e-03 0.0 
0.0 0.0 -1.181751882508e-03 
-8.003950005641e-04 3.733577663785e-04 0.0 
3.733577663785e-04 4.007249233080e-03 0.0 
0.0 0.0 -6.243763318321e-04 
-7.858165178840e-04 3.201249060732e-04 0.0 
3.201249060732e-04 4.232155620723e-03 0.0 
0.0 0.0 -6.577503189808e-04 
-3.421685830446e-04 4.506546569180e-04 0.0 
4.506546569180e-04 3.987712693438e-03 0.0 
0.0 0.0 -7.717627972493e-04 
-8.541855867529e-04 3.616408520390e-04 0.0 
3.616408520390e-04 4.495910448337e-03 0.0 
0.0 0.0 -6.911701761307e-04 
-6.466553023066e-04 3.566499724765e-04 0.0 
3.566499724765e-04 5.190189138744e-03 0.0 
0.0 0.0 -8.833033330409e-04 
-4.075558796588e-04 5.082935923898e-04 0.0 
5.082935923898e-04 3.946901844573e-03 0.0 
0.0 0.0 -7.209687761305e-04 
-3.183347553168e-04 -3.900876355230e-04 0.0 
-3.900876355230e-04 3.990865140146e-03 0.0 
0.0 0.0 -7.606211034647e-04 
4.197691498195e-04 -7.924817374046e-04 0.0 
-7.924817374046e-04 5.841418248199e-04 0.0 
0.0 0.0 -3.925496596906e-04 
-2.632176995851e-04 3.130804871778e-04 0.0 
3.130804871778e-04 3.673894068274e-03 0.0 
0.0 0.0 -7.353490689725e-04 
-1.228427596361e-03 3.654441690398e-04 0.0 
3.654441690398e-04 7.753036613507e-03 0.0 
0.0 0.0 -1.162517914204e-03 
-1.234586540092e-03 6.496817172604e-04 0.0 
6.496817172604e-04 7.840810725913e-03 0.0 
0.0 0.0 -1.195263893373e-03 
-1.079254607357e-03 -1.716834017040e-04 0.0 
-1.716834017040e-04 6.610697418479e-03 0.0 
0.0 0.0 -1.050100468764e-03 
-9.999924356562e-04 4.337068162590e-04 0.0 
4.337068162590e-04 7.101876474641e-03 0.0 
0.0 0.0 -1.170266998156e-03 
-4.393592797757e-04 -4.178536690016e-04 0.0 
-4.178536690016e-04 4.023524415681e-03 0.0 
0.0 0.0 -7.463264885205e-04 
-1.196792592392e-03 4.110574340668e-04 0.0 
4.110574340668e-04 7.430663622206e-03 0.0 
0.0 0.0 -1.119019617531e-03 
-3.103812770642e-04 1.366237006987e-04 0.0 
1.366237006987e-04 3.912213435347e-03 0.0 
0.0 0.0 -7.634232545038e-04 
-1.186941185396e-03 -1.093564622626e-04 0.0 
-1.093564622626e-04 7.299889317220e-03 0.0 
0.0 0.0 -1.144395376583e-03 
-1.175446045210e-03 3.743988593539e-04 0.0 
3.743988593539e-04 7.239811730626e-03 0.0 
0.0 0.0 -1.089631904438e-03 
-1.184480952279e-03 4.301367348574e-05 0.0 
4.301367348574e-05 7.231184503722e-03 0.0 
0.0 0.0 -1.080451501872e-03 
-6.366755747078e-04 1.541674785508e-04 0.0 
1.541674785508e-04 5.452650900242e-03 0.0 
0.0 0.0 -9.580909834143e-04 
-2.389238927474e-04 5.103421139426e-04 0.0 
5.103421139426e-04 3.464348160629e-03 0.0 
0.0 0.0 -7.073300717972e-04 
-1.091479932409e-03 3.053404772209e-04 0.0 
3.053404772209e-04 7.161436277653e-03 0.0 
0.0 0.0 -1.126038590206e-03 
-9.842000416471e-04 6.396846099915e-04 0.0 
6.396846099915e-04 5.813603015757e-03 0.0 
0.0 0.0 -9.169694165663e-04 
1.883793847700e-04 -1.613056327393e-03 0.0 
-1.613056327393e-03 7.099727485344e-04 0.0 
0.0 0.0 -3.670597958229e-04 
4.158840995285e-04 -1.069455846307e-04 0.0 
-1.069455846307e-04 9.093131002263e-04 0.0 
0.0 0.0 -4.209936697170e-04 
-5.253520320544e-04 1.113226159763e-03 0.0 
1.113226159763e-03 3.274387380493e-03 0.0 
0.0 0.0 -6.061407060701e-04 
-8.148800044768e-04 7.943320417803e-04 0.0 
7.943320417803e-04 5.072587073095e-03 0.0 
0.0 0.0 -8.384786063130e-04 
-1.230266496445e-03 -6.856974243120e-05 0.0 
-6.856974243120e-05 7.537797729461e-03 0.0 
0.0 0.0 -1.173545322487e-03 
-1.159784806983e-03 4.546774843698e-06 0.0 
4.546774843698e-06 7.042624556690e-03 0.0 
0.0 0.0 -1.051102540299e-03 
-2.045778073669e-04 -2.934353049160e-05 0.0 
-2.934353049160e-05 3.544788899175e-03 0.0 
0.0 0.0 -7.045205360201e-04 
-9.013823451461e-04 3.641498331546e-04 0.0 
3.641498331546e-04 5.853350218943e-03 0.0 
0.0 0.0 -9.344940742331e-04 
-8.532834150583e-04 1.785665259931e-04 0.0 
1.785665259931e-04 6.467721788847e-03 0.0 
0.0 0.0 -1.088599101970e-03 
-1.213199839846e-03 -4.701032574329e-05 0.0 
-4.701032574329e-05 7.611187462875e-03 0.0 
0.0 0.0 -1.130578931274e-03 
-1.163123546776e-03 3.469650352866e-04 0.0 
3.469650352866e-04 7.457428311297e-03 0.0 
0.0 0.0 -1.160781586281e-03 
-1.064121038643e-03 3.592685452389e-04 0.0 
3.592685452389e-04 6.295822569873e-03 0.0 
0.0 0.0 -9.517943393003e-04 
-9.431187375283e-04 -8.030312093777e-06 0.0 
-8.030312093777e-06 6.723807310886e-03 0.0 
0.0 0.0 -1.113435711030e-03 
-3.640285380992e-04 -2.251334255899e-04 0.0 
-2.251334255899e-04 4.276860424883e-03 0.0 
0.0 0.0 -7.971871449874e-04 
-8.575470034421e-04 -2.591277644309e-04 0.0 
-2.591277644309e-04 6.522660233149e-03 0.0 
0.0 0.0 -1.086118700983e-03 
-6.488096190532e-04 8.782975641900e-04 0.0 
8.782975641900e-04 4.555098411154e-03 0.0 
0.0 0.0 -7.951163407912e-04 
-1.259477151619e-03 2.377000778179e-05 0.0 
2.377000778179e-05 7.994105241717e-03 0.0 
0.0 0.0 -1.188704642750e-03 
-1.188566355983e-03 2.821785558319e-04 0.0 
2.821785558319e-04 7.789552889991e-03 0.0 
0.0 0.0 -1.200489323427e-03 
-5.291595357548e-04 1.464001696405e-04 0.0 
1.464001696405e-04 4.944674619640e-03 0.0 
0.0 0.0 -8.929891684399e-04 
5.077877396978e-04 3.026021049410e-04 0.0 
3.026021049410e-04 3.943566526323e-04 0.0 
0.0 0.0 -3.866333109986e-04 
-9.967575789130e-04 6.124990556396e-04 0.0 
6.124990556396e-04 6.815699392306e-03 0.0 
0.0 0.0 -1.113685640909e-03 
-6.605390437865e-04 4.261094964972e-04 0.0 
4.261094964972e-04 5.059149157301e-03 0.0 
0.0 0.0 -8.555605426019e-04 
-1.830081198130e-04 1.866635750844e-04 0.0 
1.866635750844e-04 3.368216116446e-03 0.0 
0.0 0.0 -6.765734244908e-04 
-5.817203437329e-04 -2.125841840423e-04 0.0 
-2.125841840423e-04 5.299242741235e-03 0.0 
0.0 0.0 -9.269463096178e-04 
-9.296871453603e-04 -5.069518437094e-04 0.0 
-5.069518437094e-04 6.554705833196e-03 0.0 
0.0 0.0 -1.072977024862e-03 
5.145493605139e-04 -6.481882605914e-04 0.0 
-6.481882605914e-04 5.138628621790e-04 0.0 
0.0 0.0 -3.958212347391e-04 
-4.207868633399e-04 1.388755270071e-04 0.0 
1.388755270071e-04 4.431893145968e-03 0.0 
0.0 0.0 -8.281205301186e-04 
-1.057518774056e-03 5.392644449481e-04 0.0 
5.392644449481e-04 6.206831668111e-03 0.0 
0.0 0.0 -9.596127204057e-04 
-1.238644968873e-03 -4.648423040969e-04 0.0 
-4.648423040969e-04 7.603472997752e-03 0.0 
0.0 0.0 -1.170838755190e-03 
-1.067041670428e-03 5.715302009941e-04 0.0 
5.715302009941e-04 6.356528225694e-03 0.0 
0.0 0.0 -9.876491701491e-04 
-9.841945622355e-04 6.610492595006e-04 0.0 
6.610492595006e-04 6.661208694162e-03 0.0 
0.0 0.0 -1.085374163265e-03 
-1.045085745863e-03 5.003784013052e-04 0.0 
5.003784013052e-04 6.049842854282e-03 0.0 
0.0 0.0 -9.316602363005e-04 
-1.022837492668e-03 4.381275546802e-04 0.0 
4.381275546802e-04 5.716010034056e-03 0.0 
0.0 0.0 -8.756372412555e-04 
-9.850681647526e-04 6.675723233926e-04 0.0 
6.675723233926e-04 5.952563133260e-03 0.0 
0.0 0.0 -9.447135688329e-04 
-9.326630633240e-04 3.930283305116e-04 0.0 
3.930283305116e-04 6.810995827980e-03 0.0 
0.0 0.0 -1.133505030480e-03 
-1.106660061021e-03 -5.521563816417e-04 0.0 
-5.521563816417e-04 6.894855264338e-03 0.0 
0.0 0.0 -1.084522140297e-03 
-1.120799229937e-03 3.838899692646e-04 0.0 
3.838899692646e-04 6.737454909863e-03 0.0 
0.0 0.0 -1.017300281410e-03 
-1.265839226480e-03 4.523982644349e-04 0.0 
4.523982644349e-04 8.063487692737e-03 0.0 
0.0 0.0 -1.212886757924e-03 
-1.030324522425e-03 4.628372417255e-04 0.0 
4.628372417255e-04 5.887641382241e-03 0.0 
0.0 0.0 -9.037302385344e-04 
2.653135269755e-05 8.001600084414e-05 0.0 
8.001600084414e-05 2.476344782206e-03 0.0 
0.0 0.0 -5.760585567884e-04 
-1.044239643313e-03 2.376498451470e-04 0.0 
2.376498451470e-04 7.187723140536e-03 0.0 
0.0 0.0 -1.146733564437e-03 
-1.253924981079e-03 -4.907598213233e-05 0.0 
-4.907598213233e-05 8.057805599269e-03 0.0 
0.0 0.0 -1.196744929305e-03 
-5.355464959753e-04 8.349410411799e-04 0.0 
8.349410411799e-04 4.335085481445e-03 0.0 
0.0 0.0 -7.869228524964e-04 
-6.233378135021e-04 8.291713004523e-04 0.0 
8.291713004523e-04 4.669146782253e-03 0.0 
0.0 0.0 -8.226527892688e-04 
-9.042297380501e-05 1.578503348626e-05 0.0 
1.578503348626e-05 3.015977975308e-03 0.0 
0.0 0.0 -6.402419685743e-04 
-1.145557266538e-03 4.246140586136e-04 0.0 
4.246140586136e-04 6.921583184568e-03 0.0 
0.0 0.0 -1.046609947212e-03 
-6.981713726155e-04 9.056832497172e-04 0.0 
9.056832497172e-04 3.852457966674e-03 0.0 
0.0 0.0 -6.500746975200e-04 
-6.825381544126e-04 6.942299752500e-04 0.0 
6.942299752500e-04 5.269578602974e-03 0.0 
0.0 0.0 -9.137630964162e-04 
-6.717413934869e-04 5.961928435860e-04 0.0 
5.961928435860e-04 3.907642713709e-03 0.0 
0.0 0.0 -6.476280927198e-04 
-8.299310340804e-04 4.003109170218e-04 0.0 
4.003109170218e-04 6.314977660297e-03 0.0 
0.0 0.0 -1.068254633495e-03 
-1.134995185088e-03 2.756692802088e-04 0.0 
2.756692802088e-04 7.594750376581e-03 0.0 
0.0 0.0 -1.211228670573e-03 
-1.360533559688e-04 -2.215574873168e-04 0.0 
-2.215574873168e-04 3.223027219763e-03 0.0 
0.0 0.0 -6.682047883386e-04 
4.373904628404e-04 -2.393257178328e-04 0.0 
-2.393257178328e-04 -1.132865459339e-04 0.0 
0.0 0.0 -1.389016786742e-04 
-1.258599255868e-03 5.175436206336e-04 0.0 
5.175436206336e-04 7.974357198458e-03 0.0 
0.0 0.0 -1.207184308065e-03 
-7.509449296831e-04 8.117398232865e-04 0.0 
8.117398232865e-04 4.141196512392e-03 0.0 
0.0 0.0 -6.853381776776e-04 
-4.357225566231e-04 -2.745654093134e-04 0.0 
-2.745654093134e-04 4.218247831069e-03 0.0 
0.0 0.0 -7.828151049093e-04 
-1.060590658414e-03 6.112856710438e-04 0.0 
6.112856710438e-04 7.289270463529e-03 0.0 
0.0 0.0 -1.177925372349e-03 
-1.133119087327e-03 1.716253131945e-05 0.0 
1.716253131945e-05 6.790529249754e-03 0.0 
0.0 0.0 -1.015069748350e-03 
-1.047918274143e-03 -5.722033483047e-04 0.0 
-5.722033483047e-04 6.640384232334e-03 0.0 
0.0 0.0 -1.055879354346e-03 
-3.002045645479e-04 4.799822856897e-04 0.0 
4.799822856897e-04 3.594772661625e-03 0.0 
0.0 0.0 -6.851017020021e-04 
1.437633437549e-04 -1.583243096343e-05 0.0 
-1.583243096343e-05 -4.287346076812e-05 0.0 
0.0 0.0 -4.323852128003e-05 
-1.294332022630e-03 -4.590388614896e-04 0.0 
-4.590388614896e-04 7.891763322768e-03 0.0 
0.0 0.0 -1.202131160132e-03 
-7.979241755136e-04 7.967983468878e-04 0.0 
7.967983468878e-04 5.189819245057e-03 0.0 
0.0 0.0 -8.660506973337e-04 
-7.515738742409e-04 1.099645178349e-04 0.0 
1.099645178349e-04 5.981619188890e-03 0.0 
0.0 0.0 -1.007142642412e-03 
-1.115772722662e-03 6.613759768766e-04 0.0 
6.613759768766e-04 7.287802445254e-03 0.0 
0.0 0.0 -1.157822513452e-03 
0.0 0.0 0.0 
0.0 0.0 0.0 
0.0 0.0 0.0 
-1.020410346766e-03 -1.741879484343e-04 0.0 
-1.741879484343e-04 6.569036879710e-03 0.0 
0.0 0.0 -1.058763633038e-03 
-1.044584882710e-04 9.374141262810e-04 0.0 
9.374141262810e-04 2.179572843365e-03 0.0 
0.0 0.0 -4.919579008500e-04 
-1.074016419554e-03 -9.865194451983e-06 0.0 
-9.865194451983e-06 6.344021920267e-03 0.0 
0.0 0.0 -9.498437721210e-04 
-9.305727240655e-04 -6.933921297842e-04 0.0 
-6.933921297842e-04 5.329347824549e-03 0.0 
0.0 0.0 -8.496012432876e-04 
-1.513106441094e-04 3.496683072490e-04 0.0 
3.496683072490e-04 3.137268859880e-03 0.0 
0.0 0.0 -6.709551114794e-04 
-1.200608795278e-03 -4.872905826385e-04 0.0 
-4.872905826385e-04 7.367763642178e-03 0.0 
0.0 0.0 -1.141635569211e-03 
-6.896908437113e-04 7.588366273899e-04 0.0 
7.588366273899e-04 5.123258515759e-03 0.0 
0.0 0.0 -8.859145181037e-04 
-3.682506920307e-05 4.047925217802e-04 0.0 
4.047925217802e-04 2.589749957424e-03 0.0 
0.0 0.0 -6.067458373204e-04 
-8.340011645670e-04 4.008480374015e-04 0.0 
4.008480374015e-04 5.557081142302e-03 0.0 
0.0 0.0 -8.989548790023e-04 
3.022096838876e-04 -3.038195152345e-04 0.0 
-3.038195152345e-04 -5.124151784210e-05 0.0 
0.0 0.0 -1.075577854481e-04 
-9.546355211556e-04 3.234338831530e-04 0.0 
3.234338831530e-04 6.429567223705e-03 0.0 
0.0 0.0 -1.026417656363e-03 
-8.158927749848e-04 -3.909777349409e-05 0.0 
-3.909777349409e-05 6.386420010715e-03 0.0 
0.0 0.0 -1.065496432940e-03 
-1.247055565640e-03 3.319997532961e-04 0.0 
3.319997532961e-04 7.921779384989e-03 0.0 
0.0 0.0 -1.233600908384e-03 
-1.025284337354e-03 2.945178670449e-04 0.0 
2.945178670449e-04 6.877652576001e-03 0.0 
0.0 0.0 -1.090749533212e-03 
2.434503745851e-04 -1.578934998957e-04 0.0 
-1.578934998957e-04 1.529841444305e-03 0.0 
0.0 0.0 -4.758149136988e-04 
-1.100855494631e-03 -5.513580386133e-04 0.0 
-5.513580386133e-04 6.680884096093e-03 0.0 
0.0 0.0 -1.047231727503e-03 
-1.252169978070e-03 3.748871630309e-04 0.0 
3.748871630309e-04 8.183246127380e-03 0.0 
0.0 0.0 -1.228155452712e-03 
-1.172998084832e-03 8.287498321717e-05 0.0 
8.287498321717e-05 7.902166307926e-03 0.0 
0.0 0.0 -1.267145247477e-03 
-8.845763971731e-04 3.343706134047e-05 0.0 
3.343706134047e-05 6.685188464531e-03 0.0 
0.0 0.0 -1.102242875413e-03 
-2.824655770355e-04 3.019818645340e-04 0.0 
3.019818645340e-04 3.719180698001e-03 0.0 
0.0 0.0 -7.127912709901e-04 
-8.914221389397e-04 3.576211756874e-04 0.0 
3.576211756874e-04 5.989320852496e-03 0.0 
0.0 0.0 -9.624716764950e-04 
-1.265622827008e-03 -3.602381928261e-05 0.0 
-3.602381928261e-05 7.525688479598e-03 0.0 
0.0 0.0 -1.164316760544e-03 
-1.026823558190e-03 -3.127358117122e-04 0.0 
-3.127358117122e-04 5.188290229651e-03 0.0 
0.0 0.0 -7.878971455476e-04 
-9.790335059978e-04 6.764140397440e-04 0.0 
6.764140397440e-04 6.506573428341e-03 0.0 
0.0 0.0 -1.057196955382e-03 
-1.092783271967e-03 3.587775336083e-04 0.0 
3.587775336083e-04 6.543365283594e-03 0.0 
0.0 0.0 -9.877098122506e-04 
-1.155871143424e-03 -5.200772835953e-04 0.0 
-5.200772835953e-04 7.131963810306e-03 0.0 
0.0 0.0 -1.112977059762e-03 
-1.053791982519e-03 -5.418051239347e-04 0.0 
-5.418051239347e-04 6.849369446006e-03 0.0 
0.0 0.0 -1.093234982489e-03 
-8.344751970142e-04 -5.063632387036e-06 0.0 
-5.063632387036e-06 4.624983012521e-03 0.0 
0.0 0.0 -7.313513689239e-04 
-8.293658591313e-04 3.666703434100e-05 0.0 
3.666703434100e-05 4.623218336322e-03 0.0 
0.0 0.0 -7.310574395863e-04 
-1.097030069405e-03 1.613810298079e-04 0.0 
1.613810298079e-04 6.539696336596e-03 0.0 
0.0 0.0 -9.927888931629e-04 
-9.125545325387e-04 7.100995827850e-04 0.0 
7.100995827850e-04 6.060357295598e-03 0.0 
0.0 0.0 -9.930598132463e-04 
-9.889474269995e-04 -6.231936758992e-04 0.0 
-6.231936758992e-04 5.582412655685e-03 0.0 
0.0 0.0 -8.780428295617e-04 
-1.024071250989e-03 2.871939654452e-04 0.0 
2.871939654452e-04 6.293682207182e-03 0.0 
0.0 0.0 -9.775429604617e-04 
-6.061110354643e-04 7.542189021973e-04 0.0 
7.542189021973e-04 4.796279324774e-03 0.0 
0.0 0.0 -8.502279965035e-04 
-1.039665177067e-03 6.008961477256e-05 0.0 
6.008961477256e-05 7.149947818513e-03 0.0 
0.0 0.0 -1.180288150054e-03 
-3.419429553988e-04 7.892463912468e-04 0.0 
7.892463912468e-04 3.645374748844e-03 0.0 
0.0 0.0 -7.154845226688e-04 
-1.354053466570e-03 2.682798114320e-04 0.0 
2.682798114320e-04 9.013564030942e-03 0.0 
0.0 0.0 -1.323793839065e-03 
-9.392924140877e-04 3.695422570173e-04 0.0 
3.695422570173e-04 5.310514062737e-03 0.0 
0.0 0.0 -8.119939454945e-04 
-5.728660710208e-04 4.262528038404e-04 0.0 
4.262528038404e-04 4.737723853376e-03 0.0 
0.0 0.0 -8.199314282332e-04 
-8.958346709753e-04 -3.297015998196e-04 0.0 
-3.297015998196e-04 5.260659561238e-03 0.0 
0.0 0.0 -8.523954645778e-04 
2.690092700999e-04 2.909500152897e-04 0.0 
2.909500152897e-04 1.354854423747e-03 0.0 
0.0 0.0 -4.479040077299e-04 
-8.117880315537e-04 -8.289707142058e-04 0.0 
-8.289707142058e-04 4.623452632362e-03 0.0 
0.0 0.0 -7.551671247638e-04 
-8.525904846397e-04 7.508503903319e-04 0.0 
7.508503903319e-04 5.621343722007e-03 0.0 
0.0 0.0 -9.293281999836e-04 
-8.758111121474e-04 7.483431883641e-04 0.0 
7.483431883641e-04 5.371889788881e-03 0.0 
0.0 0.0 -8.738309435711e-04 
-1.092742745582e-03 3.915524889603e-04 0.0 
3.915524889603e-04 6.485907170089e-03 0.0 
0.0 0.0 -9.814596669550e-04 
-1.035952161766e-03 6.611052853446e-04 0.0 
6.611052853446e-04 6.380857888035e-03 0.0 
0.0 0.0 -1.008022096355e-03 
-1.077652724168e-03 2.805726221407e-04 0.0 
2.805726221407e-04 6.715783923999e-03 0.0 
0.0 0.0 -1.040850218070e-03 
-2.023974518503e-04 -1.321133762499e-04 0.0 
-1.321133762499e-04 1.384394093772e-03 0.0 
0.0 0.0 -2.163717569139e-04 
-7.893601242255e-04 -4.562798916239e-04 0.0 
-4.562798916239e-04 4.381521976835e-03 0.0 
0.0 0.0 -7.209013985657e-04 
-7.313998078972e-04 5.086544562021e-04 0.0 
5.086544562021e-04 4.197814066076e-03 0.0 
0.0 0.0 -6.825522065409e-04 
-1.028318523239e-03 6.006171887521e-04 0.0 
6.006171887521e-04 6.085692307244e-03 0.0 
0.0 0.0 -9.521954671713e-04 
-1.067646735267e-03 2.331910673829e-04 0.0 
2.331910673829e-04 6.426373394987e-03 0.0 
0.0 0.0 -9.850634846466e-04 
-9.716546386639e-04 2.965949022534e-04 0.0 
2.965949022534e-04 6.988702290933e-03 0.0 
0.0 0.0 -1.160108757481e-03 
-4.472950566148e-04 1.734158785359e-04 0.0 
1.734158785359e-04 1.999281221139e-03 0.0 
0.0 0.0 -3.273996513303e-04 
5.013762340144e-04 -1.239269767564e-03 0.0 
-1.239269767564e-03 2.218446430556e-04 0.0 
0.0 0.0 -3.099518044586e-04 
-7.265319955109e-04 8.390462931927e-04 0.0 
8.390462931927e-04 4.877510016991e-03 0.0 
0.0 0.0 -8.305977116616e-04 
-8.244303094237e-04 -8.036957222691e-04 0.0 
-8.036957222691e-04 4.446645084886e-03 0.0 
0.0 0.0 -7.181358556540e-04 
-8.207218427826e-04 3.111449193745e-07 0.0 
3.111449193745e-07 4.297525914166e-03 0.0 
0.0 0.0 -6.554599841463e-04 
-8.454650530547e-04 2.288116945552e-05 0.0 
2.288116945552e-05 4.550895634799e-03 0.0 
0.0 0.0 -6.889204951115e-04 
-1.102411452052e-03 3.661135033764e-05 0.0 
3.661135033764e-05 6.536305471285e-03 0.0 
0.0 0.0 -9.793492904611e-04 
1.401876311920e-04 1.457319982698e-03 0.0 
1.457319982698e-03 8.276000244946e-04 0.0 
0.0 0.0 -3.371109590423e-04 
-9.056307504124e-04 -3.219601326285e-04 0.0 
-3.219601326285e-04 5.073216074597e-03 0.0 
0.0 0.0 -8.154759146177e-04 
-8.139515461008e-04 -3.444279104295e-04 0.0 
-3.444279104295e-04 6.262709696181e-03 0.0 
0.0 0.0 -1.049209916622e-03 
5.784646720155e-04 -2.798136268851e-04 0.0 
-2.798136268851e-04 4.491531344292e-05 0.0 
0.0 0.0 -2.671628509107e-04 
-1.269607203850e-03 4.300111845681e-04 0.0 
4.300111845681e-04 8.005085435650e-03 0.0 
0.0 0.0 -1.285586381397e-03 
-1.234701409080e-03 4.026661623699e-05 0.0 
4.026661623699e-05 7.724712803764e-03 0.0 
0.0 0.0 -1.152455342817e-03 
-9.332307083252e-04 -6.317385210980e-04 0.0 
-6.317385210980e-04 4.943755293323e-03 0.0 
0.0 0.0 -7.756113943005e-04 
-1.132361128818e-03 -1.347962173953e-04 0.0 
-1.347962173953e-04 6.852501733015e-03 0.0 
0.0 0.0 -1.078722419643e-03 
-1.782286125890e-04 -3.440225614963e-05 0.0 
-3.440225614963e-05 7.356149739106e-04 0.0 
0.0 0.0 -1.797547709840e-04 
-7.836878423569e-04 -4.420353483476e-04 0.0 
-4.420353483476e-04 6.015976224596e-03 0.0 
0.0 0.0 -1.012471576362e-03 
-7.618878641414e-04 4.386001518409e-04 0.0 
4.386001518409e-04 5.252415903850e-03 0.0 
0.0 0.0 -8.634366945984e-04 
-1.365202202974e-04 -1.663937919944e-05 0.0 
-1.663937919944e-05 7.240163383166e-04 0.0 
0.0 0.0 -1.788519809851e-04 
-1.221296204116e-03 3.897303876191e-04 0.0 
3.897303876191e-04 7.675470665632e-03 0.0 
0.0 0.0 -1.154859126927e-03 
6.541694671517e-04 -5.838497479074e-04 0.0 
-5.838497479074e-04 -1.165985658389e-04 0.0 
0.0 0.0 -2.303875291341e-04 
-1.022773715161e-03 2.649419741859e-04 0.0 
2.649419741859e-04 6.147018606592e-03 0.0 
0.0 0.0 -9.496453321265e-04 
-8.501477431051e-04 4.017489682252e-04 0.0 
4.017489682252e-04 5.430956065029e-03 0.0 
0.0 0.0 -8.712718144564e-04 
-3.870813166907e-04 -6.841434598879e-04 0.0 
-6.841434598879e-04 4.009053170529e-03 0.0 
0.0 0.0 -7.519815330289e-04 
-7.080628147866e-04 -2.630245850535e-04 0.0 
-2.630245850535e-04 5.293137348391e-03 0.0 
0.0 0.0 -9.052548162676e-04 
-1.248469741651e-03 4.216386458729e-04 0.0 
4.216386458729e-04 7.872413297340e-03 0.0 
0.0 0.0 -1.182898372388e-03 
-7.959805508824e-04 -1.903636579771e-04 0.0 
-1.903636579771e-04 5.775075989453e-03 0.0 
0.0 0.0 -9.716005391689e-04 
-7.058567601375e-04 8.071090420181e-04 0.0 
8.071090420181e-04 4.993912000440e-03 0.0 
0.0 0.0 -8.581765416018e-04 
-6.834773769761e-04 4.720321187624e-04 0.0 
4.720321187624e-04 4.941232986507e-03 0.0 
0.0 0.0 -8.279616112546e-04 
1.200725464498e-05 4.997720012563e-04 0.0 
4.997720012563e-04 2.980647594779e-04 0.0 
0.0 0.0 -1.328880060527e-04 
5.267325684764e-04 -1.507976047628e-04 0.0 
-1.507976047628e-04 -1.515568147922e-04 0.0 
0.0 0.0 -1.607896087218e-04 
-1.031637425544e-03 2.938257107745e-04 0.0 
2.938257107745e-04 7.016823171402e-03 0.0 
0.0 0.0 -1.118331045454e-03 
-1.047581819557e-03 3.855603907834e-05 0.0 
3.855603907834e-05 6.024362043911e-03 0.0 
0.0 0.0 -9.085367473448e-04 
-1.068580773740e-03 6.289177231850e-04 0.0 
6.289177231850e-04 7.124997701846e-03 0.0 
0.0 0.0 -1.148691026115e-03 
-2.168784888490e-04 1.398227562360e-03 0.0 
1.398227562360e-03 2.112550911132e-03 0.0 
0.0 0.0 -4.942977111402e-04 
-1.176051745943e-03 5.435901405529e-04 0.0 
5.435901405529e-04 7.176283028080e-03 0.0 
0.0 0.0 -1.097950598811e-03 
-1.105546950119e-03 2.883637130323e-04 0.0 
2.883637130323e-04 7.335184708628e-03 0.0 
0.0 0.0 -1.155407764312e-03 
-8.481473499091e-04 3.802854440165e-04 0.0 
3.802854440165e-04 4.634623972028e-03 0.0 
0.0 0.0 -7.179420443741e-04 
-1.053414342459e-03 6.334862389143e-04 0.0 
6.334862389143e-04 6.950110385841e-03 0.0 
0.0 0.0 -1.120992621467e-03 
-1.150488405997e-03 -5.115596481821e-04 0.0 
-5.115596481821e-04 6.921289775542e-03 0.0 
0.0 0.0 -1.075946734593e-03 
-8.430169137080e-04 7.309466471044e-04 0.0 
7.309466471044e-04 5.750606817071e-03 0.0 
0.0 0.0 -9.571162043194e-04 
-8.407412319889e-04 -3.923326874810e-04 0.0 
-3.923326874810e-04 4.820090656330e-03 0.0 
0.0 0.0 -7.866383436874e-04 
-8.661293961769e-04 -7.636305903076e-04 0.0 
-7.636305903076e-04 5.068827859701e-03 0.0 
0.0 0.0 -8.209012074946e-04 
-1.276631957823e-03 1.351613779989e-04 0.0 
1.351613779989e-04 8.067600813718e-03 0.0 
0.0 0.0 -1.204704583718e-03 
-6.220699559740e-04 -3.467517458204e-04 0.0 
-3.467517458204e-04 4.812375804049e-03 0.0 
0.0 0.0 -8.396599866114e-04 
-8.640312315529e-04 7.564773801915e-04 0.0 
7.564773801915e-04 5.496513579944e-03 0.0 
0.0 0.0 -9.015555482168e-04 
-5.139647083066e-04 6.286602551559e-04 0.0 
6.286602551559e-04 4.638431100819e-03 0.0 
0.0 0.0 -8.433600309793e-04 
-8.878790724241e-04 -1.375747034556e-04 0.0 
-1.375747034556e-04 6.258870962336e-03 0.0 
0.0 0.0 -1.038364586984e-03 
-4.800211114771e-04 4.132947089942e-04 0.0 
4.132947089942e-04 4.403087062058e-03 0.0 
0.0 0.0 -7.842421616061e-04 
1.708764263770e-04 1.828302604937e-04 0.0 
1.828302604937e-04 1.696323968062e-03 0.0 
0.0 0.0 -5.065804551108e-04 
-4.825363659521e-04 1.845931219475e-05 0.0 
1.845931219475e-05 4.680497453253e-03 0.0 
0.0 0.0 -8.561803240471e-04 
8.082119994225e-05 4.790974331332e-04 0.0 
4.790974331332e-04 2.023860804843e-03 0.0 
0.0 0.0 -5.426160209679e-04 
-1.033438603377e-03 6.383788790857e-04 0.0 
6.383788790857e-04 6.235509335954e-03 0.0 
0.0 0.0 -9.799122972177e-04 
1.114946380246e-04 -1.909482610686e-04 0.0 
-1.909482610686e-04 2.113077183239e-03 0.0 
0.0 0.0 -5.399485503623e-04 
-9.706412986079e-04 3.184758127264e-04 0.0 
3.184758127264e-04 6.013389094156e-03 0.0 
0.0 0.0 -9.420580210740e-04 
-9.265946290547e-04 -4.225709154865e-05 0.0 
-4.225709154865e-05 6.885841307398e-03 0.0 
0.0 0.0 -1.130549445556e-03 
-8.685442447111e-04 3.124266913747e-04 0.0 
3.124266913747e-04 6.514082051094e-03 0.0 
0.0 0.0 -1.096529089934e-03 
-4.417150057457e-04 8.260625217284e-04 0.0 
8.260625217284e-04 3.995231427087e-03 0.0 
0.0 0.0 -7.512528815036e-04 
-1.059191105034e-03 4.065855107728e-04 0.0 
4.065855107728e-04 6.228287830528e-03 0.0 
0.0 0.0 -9.460253849645e-04 
-1.179141908394e-03 -9.694575707592e-05 0.0 
-9.694575707592e-05 7.087490944073e-03 0.0 
0.0 0.0 -1.107441567342e-03 
-1.193835214950e-03 -4.719824871619e-04 0.0 
-4.719824871619e-04 7.155436910273e-03 0.0 
0.0 0.0 -1.104747680386e-03 
1.944125303692e-04 1.273132647232e-03 0.0 
1.273132647232e-03 5.121470870520e-04 0.0 
0.0 0.0 -3.028112646091e-04 
-9.836336619932e-04 6.878362883605e-04 0.0 
6.878362883605e-04 6.089006481299e-03 0.0 
0.0 0.0 -9.724793438395e-04 
-1.268204156625e-03 7.721982515826e-06 0.0 
7.721982515826e-06 7.786698253164e-03 0.0 
0.0 0.0 -1.205818386895e-03 
-6.870681417228e-04 7.008927199053e-04 0.0 
7.008927199053e-04 3.265237971609e-03 0.0 
0.0 0.0 -5.357889572170e-04 
-9.885170178391e-04 -5.948066208015e-04 0.0 
-5.948066208015e-04 5.380783060798e-03 0.0 
0.0 0.0 -8.409532000723e-04 
-7.799555259594e-05 6.230825562270e-04 0.0 
6.230825562270e-04 5.570487652900e-04 0.0 
0.0 0.0 -2.053085197260e-04 
-1.219579480668e-03 -6.033820998881e-05 0.0 
-6.033820998881e-05 7.313003609483e-03 0.0 
0.0 0.0 -1.136235114959e-03 
2.012100085966e-04 5.845223729044e-04 0.0 
5.845223729044e-04 1.434306137738e-03 0.0 
0.0 0.0 -4.785631936960e-04 
-1.042459381450e-03 3.192310209748e-05 0.0 
3.192310209748e-05 5.237687487302e-03 0.0 
0.0 0.0 -8.166178341775e-04 
-7.748148319910e-04 5.841265057534e-04 0.0 
5.841265057534e-04 5.931280080680e-03 0.0 
0.0 0.0 -1.008721701990e-03 
-1.070450976463e-03 4.786712554870e-05 0.0 
4.786712554870e-05 6.281594191104e-03 0.0 
0.0 0.0 -9.438854677472e-04 
-1.019990029507e-03 4.017679917675e-04 0.0 
4.017679917675e-04 5.968797618871e-03 0.0 
0.0 0.0 -9.108073647307e-04 
-7.821076712380e-04 7.813500369489e-04 0.0 
7.813500369489e-04 5.311710917371e-03 0.0 
0.0 0.0 -8.936906232635e-04 
-7.622603984916e-04 6.791341036292e-05 0.0 
6.791341036292e-05 3.813852506224e-03 0.0 
0.0 0.0 -5.884905393267e-04 
-7.846644250761e-04 7.808219167046e-05 0.0 
7.808219167046e-05 4.065403212213e-03 0.0 
0.0 0.0 -6.218825813656e-04 
-1.233191643352e-03 -4.261165376934e-04 0.0 
-4.261165376934e-04 7.382821542764e-03 0.0 
0.0 0.0 -1.133400347077e-03 
-7.515727621129e-04 -6.277168771854e-04 0.0 
-6.277168771854e-04 5.560136738189e-03 0.0 
0.0 0.0 -9.394087121358e-04 
-4.848945124793e-04 -6.056685510147e-04 0.0 
-6.056685510147e-04 4.517787566476e-03 0.0 
0.0 0.0 -8.164864906097e-04 
-7.633590365807e-04 1.747203192895e-05 0.0 
1.747203192895e-05 5.952051370355e-03 0.0 
0.0 0.0 -1.014986374720e-03 
-3.745762426959e-04 -1.208773656876e-05 0.0 
-1.208773656876e-05 4.169816033916e-03 0.0 
0.0 0.0 -7.915105747055e-04 
1.470981817100e-04 1.699633256222e-04 0.0 
1.699633256222e-04 1.922517798804e-03 0.0 
0.0 0.0 -5.119962057136e-04 
-7.251559287553e-04 3.584185138835e-04 0.0 
3.584185138835e-04 3.747261506519e-03 0.0 
0.0 0.0 -5.908395828668e-04 
-9.989176313813e-04 5.279041160422e-05 0.0 
5.279041160422e-05 5.610761613461e-03 0.0 
0.0 0.0 -8.442294783838e-04 
-8.140722277822e-04 1.153536144127e-05 0.0 
1.153536144127e-05 4.902728731460e-03 0.0 
0.0 0.0 -7.121995050294e-04 
-8.606102061483e-04 -1.123280902614e-04 0.0 
-1.123280902614e-04 6.585165240131e-03 0.0 
0.0 0.0 -1.093598669875e-03 
-3.829181500835e-04 3.755711815579e-04 0.0 
3.755711815579e-04 4.064228922124e-03 0.0 
0.0 0.0 -7.486350631497e-04 
-1.089919498544e-03 4.032533245885e-04 0.0 
4.032533245885e-04 7.584210826506e-03 0.0 
0.0 0.0 -1.233571955743e-03 
-1.258849103109e-03 1.203645015164e-04 0.0 
1.203645015164e-04 7.318640773608e-03 0.0 
0.0 0.0 -1.121177773779e-03 
-4.277541990728e-04 -3.591296022275e-04 0.0 
-3.591296022275e-04 4.511429067315e-03 0.0 
0.0 0.0 -8.252461108756e-04 
-1.288851597356e-03 -4.658297080141e-04 0.0 
-4.658297080141e-04 8.043612715449e-03 0.0 
0.0 0.0 -1.241472629463e-03 
3.242839641495e-05 -4.968694073408e-04 0.0 
-4.968694073408e-04 2.366486634827e-03 0.0 
0.0 0.0 -5.682622744621e-04 
-1.077966235092e-03 4.739436140623e-04 0.0 
4.739436140623e-04 7.389804662751e-03 0.0 
0.0 0.0 -1.204482468497e-03 
-7.429375265798e-04 4.078626067565e-04 0.0 
4.078626067565e-04 5.376339153074e-03 0.0 
0.0 0.0 -8.910665706739e-04 
-8.382327257171e-04 6.914183336446e-04 0.0 
6.914183336446e-04 5.885419181804e-03 0.0 
0.0 0.0 -9.848034212814e-04 
-9.867962554531e-04 -3.515709155634e-04 0.0 
-3.515709155634e-04 7.009894236266e-03 0.0 
0.0 0.0 -1.146785027167e-03 
-6.480751664788e-04 -1.064130565160e-03 0.0 
-1.064130565160e-03 3.485571623010e-03 0.0 
0.0 0.0 -5.958228065582e-04 
-9.264979844569e-04 7.226480241174e-04 0.0 
7.226480241174e-04 5.798649245259e-03 0.0 
0.0 0.0 -9.369464185080e-04 
-3.976862535672e-04 -5.140984221878e-04 0.0 
-5.140984221878e-04 4.248707874465e-03 0.0 
0.0 0.0 -7.886172400246e-04 
-9.126908566727e-04 3.597233129020e-04 0.0 
3.597233129020e-04 5.721921232905e-03 0.0 
0.0 0.0 -9.065670216064e-04 
-2.413614743732e-04 9.207248143764e-04 0.0 
9.207248143764e-04 2.576101931259e-03 0.0 
0.0 0.0 -5.268093404353e-04 
-8.396821970539e-04 6.672060837292e-04 0.0 
6.672060837292e-04 6.048287273264e-03 0.0 
0.0 0.0 -1.013229387512e-03 
-3.452329379355e-04 -1.792312499866e-04 0.0 
-1.792312499866e-04 3.927967745038e-03 0.0 
0.0 0.0 -7.548706880268e-04 
-9.599399109740e-04 -2.677314431030e-04 0.0 
-2.677314431030e-04 5.510906117541e-03 0.0 
0.0 0.0 -8.810281692460e-04 
-9.326422123301e-04 7.027170698306e-04 0.0 
7.027170698306e-04 5.663041666324e-03 0.0 
0.0 0.0 -9.091416541300e-04 
1.310354464969e-04 5.651438564875e-04 0.0 
5.651438564875e-04 1.741573510573e-04 0.0 
0.0 0.0 -1.307969132375e-04 
-6.049604556670e-04 5.771719455814e-04 0.0 
5.771719455814e-04 5.135535656328e-03 0.0 
0.0 0.0 -9.082496170556e-04 
-8.264119998562e-05 1.037717303205e-03 0.0 
1.037717303205e-03 8.249845298322e-04 0.0 
0.0 0.0 -3.181471413628e-04 
-3.486990110529e-04 1.618131580726e-05 0.0 
1.618131580726e-05 1.379681923450e-03 0.0 
0.0 0.0 -2.410360834028e-04 
-9.637368636999e-04 -2.534336696837e-04 0.0 
-2.534336696837e-04 5.310722216845e-03 0.0 
0.0 0.0 -8.438072171805e-04 
-1.086820871417e-03 2.926579608564e-04 0.0 
2.926579608564e-04 7.015412211803e-03 0.0 
0.0 0.0 -1.098354823938e-03 
-1.049951667635e-03 4.416530287396e-04 0.0 
4.416530287396e-04 6.131491265693e-03 0.0 
0.0 0.0 -9.387552692590e-04 
-7.056421761476e-04 1.432307568262e-04 0.0 
1.432307568262e-04 3.346065552913e-03 0.0 
0.0 0.0 -5.215302833573e-04 
-1.342322198460e-03 3.183613232645e-04 0.0 
3.183613232645e-04 8.773669276182e-03 0.0 
0.0 0.0 -1.342322198460e-03 
3.836307119602e-05 1.777435835148e-04 0.0 
1.777435835148e-04 5.796280456300e-05 0.0 
0.0 0.0 -4.128251818244e-05 
-7.274210317143e-04 1.629360554579e-04 0.0 
1.629360554579e-04 3.588533030425e-03 0.0 
0.0 0.0 -5.549805679787e-04 
-5.340066039334e-04 -2.072389055199e-04 0.0 
-2.072389055199e-04 4.712236291548e-03 0.0 
0.0 0.0 -8.472740691906e-04 
-9.827474692013e-04 -5.565690633406e-04 0.0 
-5.565690633406e-04 5.178751046310e-03 0.0 
0.0 0.0 -8.042584860449e-04 
-8.272148132873e-04 2.043748305373e-04 0.0 
2.043748305373e-04 4.358943672927e-03 0.0 
0.0 0.0 -6.733236465360e-04 
-1.391682779442e-04 -5.660980208305e-04 0.0 
-5.660980208305e-04 2.708178146588e-03 0.0 
0.0 0.0 -5.908717820549e-04 
-6.655440375533e-04 -6.952663529849e-04 0.0 
-6.952663529849e-04 5.066823485387e-03 0.0 
0.0 0.0 -8.733819075714e-04 
-8.196031050189e-04 3.838546333042e-04 0.0 
3.838546333042e-04 5.685766128825e-03 0.0 
0.0 0.0 -9.266779469803e-04 
-6.990167424859e-04 5.271708541357e-04 0.0 
5.271708541357e-04 5.638282256463e-03 0.0 
0.0 0.0 -9.734188451722e-04 
-1.186630910785e-03 6.460835059358e-04 0.0 
6.460835059358e-04 7.362442267771e-03 0.0 
0.0 0.0 -1.144302277022e-03 
2.969246869216e-04 1.115918954902e-03 0.0 
1.115918954902e-03 3.039667145196e-04 0.0 
0.0 0.0 -2.575248863319e-04 
-9.117889324076e-04 -2.951149434616e-04 0.0 
-2.951149434616e-04 4.877432515646e-03 0.0 
0.0 0.0 -7.784793977761e-04 
-1.012208946591e-03 -1.496092469439e-04 0.0 
-1.496092469439e-04 5.343186025449e-03 0.0 
0.0 0.0 -8.356154970834e-04 
-6.331046465697e-04 -9.049418944168e-04 0.0 
-9.049418944168e-04 2.758073297942e-03 0.0 
0.0 0.0 -4.544023106810e-04 
-8.924169308789e-04 4.058945008041e-04 0.0 
4.058945008041e-04 4.880366770900e-03 0.0 
0.0 0.0 -7.518103749233e-04 
-1.063894881261e-03 9.071629636426e-05 0.0 
9.071629636426e-05 6.191505659791e-03 0.0 
0.0 0.0 -9.362314798257e-04 
-1.205869425098e-03 -2.261798490425e-04 0.0 
-2.261798490425e-04 6.678201842620e-03 0.0 
0.0 0.0 -1.023451880212e-03 
-7.015472354662e-05 -2.565736168466e-05 0.0 
-2.565736168466e-05 9.612203433626e-04 0.0 
0.0 0.0 -1.605242656235e-04 
0.0 0.0 0.0 
0.0 0.0 0.0 
0.0 0.0 0.0 
-5.147384921578e-04 -7.536249502610e-04 0.0 
-7.536249502610e-04 1.966691460963e-03 0.0 
0.0 0.0 -3.233707900025e-04 
-1.027484224102e-03 -4.836123400480e-04 0.0 
-4.836123400480e-04 5.407088060702e-03 0.0 
0.0 0.0 -8.330087554115e-04 
-8.882847245791e-05 -4.537970764089e-04 0.0 
-4.537970764089e-04 2.924964268328e-03 0.0 
0.0 0.0 -6.322020076307e-04 
-9.059460685547e-05 -9.981933794838e-04 0.0 
-9.981933794838e-04 2.441338825064e-03 0.0 
0.0 0.0 -5.605319560360e-04 
1.602068840710e-04 -5.380164516261e-04 0.0 
-5.380164516261e-04 1.784200169895e-03 0.0 
0.0 0.0 -5.041580933422e-04 
-1.016808142495e-03 -1.850132427343e-04 0.0 
-1.850132427343e-04 5.546831112907e-03 0.0 
0.0 0.0 -8.721335634590e-04 
-1.089492890547e-03 5.256596706488e-04 0.0 
5.256596706488e-04 6.464473810732e-03 0.0 
0.0 0.0 -9.956198530692e-04 
-1.055480845035e-03 -8.073487003007e-05 0.0 
-8.073487003007e-05 5.564073531230e-03 0.0 
0.0 0.0 -8.643287579461e-04 
-7.969352206199e-05 1.392070136612e-04 0.0 
1.392070136612e-04 2.839214225501e-03 0.0 
0.0 0.0 -6.348607296063e-04 
-9.652452647080e-04 3.246353242036e-04 0.0 
3.246353242036e-04 6.148089658116e-03 0.0 
0.0 0.0 -9.699423737970e-04 
-9.336187348190e-04 2.571357999357e-04 0.0 
2.571357999357e-04 5.466318221896e-03 0.0 
0.0 0.0 -8.236220363599e-04 
-8.699149514131e-04 5.427467141130e-04 0.0 
5.427467141130e-04 6.422709640429e-03 0.0 
0.0 0.0 -1.076197569190e-03 
-1.067019444508e-03 -4.166446150284e-04 0.0 
-4.166446150284e-04 5.628158977285e-03 0.0 
0.0 0.0 -8.617642947636e-04 
-1.037211549759e-03 -5.241557810677e-04 0.0 
-5.241557810677e-04 5.613837274242e-03 0.0 
0.0 0.0 -8.694825820363e-04 
-6.540642588821e-04 2.339053685670e-04 0.0 
2.339053685670e-04 2.854376740045e-03 0.0 
0.0 0.0 -4.548485160793e-04 
-1.830897456311e-04 -6.409178638984e-04 0.0 
-6.409178638984e-04 3.204685697947e-03 0.0 
0.0 0.0 -6.598952468721e-04 
-1.092100602406e-03 -1.853786207342e-05 0.0 
-1.853786207342e-05 5.772593500168e-03 0.0 
0.0 0.0 -8.930692851043e-04 
-1.055598751707e-03 1.761127934755e-04 0.0 
1.761127934755e-04 6.440216787672e-03 0.0 
0.0 0.0 -9.615701295831e-04 
-1.001453888758e-03 1.848581000640e-04 0.0 
1.848581000640e-04 6.057549413992e-03 0.0 
0.0 0.0 -8.972249362023e-04 
-6.770179440789e-04 2.249366581215e-04 0.0 
2.249366581215e-04 3.121369932688e-03 0.0 
0.0 0.0 -4.879487645214e-04 
-1.064022376908e-03 -1.167841295241e-04 0.0 
-1.167841295241e-04 5.775583557860e-03 0.0 
0.0 0.0 -9.007118478549e-04 
-2.859853618183e-04 -1.273336407491e-03 0.0 
-1.273336407491e-03 2.641008784054e-03 0.0 
0.0 0.0 -5.517684601482e-04 
-1.131468898778e-04 1.392096794452e-03 0.0 
1.392096794452e-03 1.091258670637e-03 0.0 
0.0 0.0 -4.029896332773e-04 
-1.047918758114e-03 7.340593604257e-05 0.0 
7.340593604257e-05 7.456724692606e-03 0.0 
0.0 0.0 -1.202908440308e-03 
-5.627131210403e-04 -6.726340984242e-04 0.0 
-6.726340984242e-04 1.683903901649e-03 0.0 
0.0 0.0 -3.052185142706e-04 
-3.169146226738e-04 -8.080615281722e-04 0.0 
-8.080615281722e-04 2.922160059008e-03 0.0 
0.0 0.0 -5.822209219963e-04 
-5.594905133051e-04 2.180548040984e-04 0.0 
2.180548040984e-04 5.015163126877e-03 0.0 
0.0 0.0 -8.766521650092e-04 
-6.622241155769e-04 4.063560181711e-04 0.0 
4.063560181711e-04 3.270370974807e-03 0.0 
0.0 0.0 -5.239962781855e-04 
-1.100749507766e-03 -3.563808608849e-04 0.0 
-3.563808608849e-04 5.849825024464e-03 0.0 
0.0 0.0 -8.905656347129e-04 
-5.985345031535e-04 -2.223177207573e-04 0.0 
-2.223177207573e-04 2.732572505037e-03 0.0 
0.0 0.0 -4.282508963332e-04 
-9.076266712888e-04 3.184539997902e-05 0.0 
3.184539997902e-05 5.036430824459e-03 0.0 
0.0 0.0 -7.823486082854e-04 
-1.081370140730e-03 -4.558826803401e-04 0.0 
-4.558826803401e-04 5.841011814907e-03 0.0 
0.0 0.0 -8.981647654366e-04 
-4.858836919803e-04 -7.457674947231e-04 0.0 
-7.457674947231e-04 4.297440458521e-03 0.0 
0.0 0.0 -7.800125773855e-04 
-9.348538294518e-04 -6.697112536075e-04 0.0 
-6.697112536075e-04 5.140798604724e-03 0.0 
0.0 0.0 -8.126672281948e-04 
8.703935028516e-05 1.690415104804e-04 0.0 
1.690415104804e-04 1.245018223099e-05 0.0 
0.0 0.0 -4.263837107835e-05 
-1.241448931941e-03 -1.835319642593e-04 0.0 
-1.835319642593e-04 7.812891284508e-03 0.0 
0.0 0.0 -1.152567315725e-03 
-3.081364130084e-04 -9.550871966768e-04 0.0 
-9.550871966768e-04 3.298658843063e-03 0.0 
0.0 0.0 -6.514572604261e-04 
-9.718772757445e-04 1.979502564842e-04 0.0 
1.979502564842e-04 7.009305473662e-03 0.0 
0.0 0.0 -1.154039482800e-03 
-8.056057162638e-04 2.987492427290e-04 0.0 
2.987492427290e-04 5.959106481257e-03 0.0 
0.0 0.0 -9.821191134873e-04 
-1.105426206004e-03 -5.038601752530e-05 0.0 
-5.038601752530e-05 5.994681172748e-03 0.0 
0.0 0.0 -9.293965016571e-04 
-1.119004413752e-03 -3.820015781438e-04 0.0 
-3.820015781438e-04 6.058753668650e-03 0.0 
0.0 0.0 -9.268654845074e-04 
-3.123142997184e-05 -1.167065523526e-04 0.0 
-1.167065523526e-04 2.573595127563e-03 0.0 
0.0 0.0 -5.989583036242e-04 
-3.157644098559e-04 -6.245110788433e-04 0.0 
-6.245110788433e-04 1.110181514534e-03 0.0 
0.0 0.0 -2.862240160649e-04 
8.762727446403e-05 1.506685699699e-04 0.0 
1.506685699699e-04 5.297682451361e-06 0.0 
0.0 0.0 -3.982498153517e-05 
-1.139236581336e-03 9.449893671701e-06 0.0 
9.449893671701e-06 6.206332100994e-03 0.0 
0.0 0.0 -9.583065114985e-04 
-9.895576341864e-04 5.422021304530e-05 0.0 
5.422021304530e-05 6.999392542925e-03 0.0 
0.0 0.0 -1.148056181429e-03 
-4.775145294270e-04 -1.288589848279e-03 0.0 
-1.288589848279e-03 2.885723426917e-03 0.0 
0.0 0.0 -5.426247857783e-04 
-9.796725008080e-04 7.000708170444e-04 0.0 
7.000708170444e-04 6.228639819323e-03 0.0 
0.0 0.0 -1.000702849114e-03 
-6.472337897981e-04 7.799664963271e-04 0.0 
7.799664963271e-04 2.970737159620e-03 0.0 
0.0 0.0 -5.002094317253e-04 
-1.024167741003e-03 2.983156923563e-04 0.0 
2.983156923563e-04 6.439902929080e-03 0.0 
0.0 0.0 -1.005614027492e-03 
-1.230125729383e-03 -1.791987086205e-04 0.0 
-1.791987086205e-04 8.178224384408e-03 0.0 
0.0 0.0 -1.266534580134e-03 
0.0 0.0 0.0 
0.0 0.0 0.0 
0.0 0.0 0.0 
-1.341620833825e-03 -1.240232465015e-06 0.0 
-1.240232465015e-06 8.838044206909e-03 0.0 
0.0 0.0 -1.341620833825e-03 
-1.340051318819e-03 -7.855236063614e-05 0.0 
-7.855236063614e-05 8.625114056382e-03 0.0 
0.0 0.0 -1.340051318819e-03 
-8.980163173550e-04 -1.960905146637e-04 0.0 
-1.960905146637e-04 5.236321733421e-03 0.0 
0.0 0.0 -7.955197795907e-04 
-4.661383092836e-04 -1.098309243055e-03 0.0 
-1.098309243055e-03 3.461471777819e-03 0.0 
0.0 0.0 -6.428246066218e-04 
-8.082931774475e-04 3.508972968720e-04 0.0 
3.508972968720e-04 5.820381814417e-03 0.0 
0.0 0.0 -9.543595451431e-04 
-1.549769366622e-05 -2.109424872969e-04 0.0 
-2.109424872969e-04 2.675607327827e-03 0.0 
0.0 0.0 -6.041149214933e-04 
-2.283359273976e-04 -2.821495717667e-04 0.0 
-2.821495717667e-04 1.216165341166e-03 0.0 
0.0 0.0 -2.095884814006e-04 
5.244130076389e-06 5.299579131201e-04 0.0 
5.299579131201e-04 3.292147719476e-04 0.0 
0.0 0.0 -1.433395294388e-04 
-1.275023357737e-03 -5.993191991654e-05 0.0 
-5.993191991654e-05 8.163058981243e-03 0.0 
0.0 0.0 -1.209499414335e-03 
-1.082712059579e-03 1.205245821570e-04 0.0 
1.205245821570e-04 6.373245931173e-03 0.0 
0.0 0.0 -9.648175333861e-04 
-9.046820331639e-04 -1.080196974861e-06 0.0 
-1.080196974861e-06 4.867817697865e-03 0.0 
0.0 0.0 -7.224789237173e-04 
-1.279272833011e-03 4.773478504551e-04 0.0 
4.773478504551e-04 8.632757308161e-03 0.0 
0.0 0.0 -1.323661129950e-03 
-4.995343539176e-04 -2.062360200378e-04 0.0 
-2.062360200378e-04 2.288215934898e-03 0.0 
0.0 0.0 -3.615704333793e-04 
-1.305160647697e-03 4.322097678811e-04 0.0 
4.322097678811e-04 8.590809380930e-03 0.0 
0.0 0.0 -1.324908485340e-03 
-1.072336849723e-03 4.894356542548e-04 0.0 
4.894356542548e-04 6.310526310337e-03 0.0 
0.0 0.0 -9.670422101491e-04 
-6.106684104583e-04 -1.077307355153e-03 0.0 
-1.077307355153e-03 3.630162810958e-03 0.0 
0.0 0.0 -6.336394413500e-04 
-7.688592567693e-04 7.436159055388e-04 0.0 
7.436159055388e-04 5.436722305107e-03 0.0 
0.0 0.0 -9.212972352143e-04 
-4.366727405360e-04 -7.825680509829e-04 0.0 
-7.825680509829e-04 3.244703639757e-03 0.0 
0.0 0.0 -6.094834619596e-04 
-3.265911223950e-04 1.405912834574e-03 0.0 
1.405912834574e-03 1.452640584362e-03 0.0 
0.0 0.0 -3.649795199019e-04 
-4.990879049153e-04 -8.274194353689e-04 0.0 
-8.274194353689e-04 3.123468955199e-03 0.0 
0.0 0.0 -5.728018649490e-04 
-1.102176339442e-03 5.667634332671e-04 0.0 
5.667634332671e-04 6.620528006741e-03 0.0 
0.0 0.0 -1.023749757194e-03 
-1.274902778913e-03 -3.210380531188e-04 0.0 
-3.210380531188e-04 7.572738005346e-03 0.0 
0.0 0.0 -1.155390781228e-03 
-2.640863970045e-04 -6.506791704026e-04 0.0 
-6.506791704026e-04 3.044637194059e-03 0.0 
0.0 0.0 -6.181853003094e-04 
-1.037039327620e-03 6.760843031957e-04 0.0 
6.760843031957e-04 6.523249431128e-03 0.0 
0.0 0.0 -1.036271578259e-03 
0.0 0.0 0.0 
0.0 0.0 0.0 
0.0 0.0 0.0 
-1.285700230911e-04 -3.245101064007e-04 0.0 
-3.245101064007e-04 2.885767451406e-03 0.0 
0.0 0.0 -6.266282162577e-04 
-1.167206438241e-03 1.283137067331e-04 0.0 
1.283137067331e-04 7.080432372571e-03 0.0 
0.0 0.0 -1.066385360782e-03 
-6.379492421497e-04 -6.916022810517e-04 0.0 
-6.916022810517e-04 3.261870100237e-03 0.0 
0.0 0.0 -5.616069800515e-04 
-5.397721604140e-04 -1.270380268010e-03 0.0 
-1.270380268010e-03 2.784654802048e-03 0.0 
0.0 0.0 -5.052880831394e-04 
-7.290893412698e-04 3.613081104682e-04 0.0 
3.613081104682e-04 5.503308908361e-03 0.0 
0.0 0.0 -9.187611816440e-04 
1.265644672670e-04 -1.340381834312e-03 0.0 
-1.340381834312e-03 6.478378418571e-04 0.0 
0.0 0.0 -3.318867039103e-04 
-6.343393029067e-04 4.127806247347e-04 0.0 
4.127806247347e-04 2.352701282119e-03 0.0 
0.0 0.0 -3.867203691650e-04 
-5.980790938116e-04 3.108972139281e-04 0.0 
3.108972139281e-04 2.666414110552e-03 0.0 
0.0 0.0 -4.195921675762e-04 
-6.113097074720e-04 -7.505403763561e-04 0.0 
-7.505403763561e-04 2.857444945758e-03 0.0 
0.0 0.0 -4.973376392308e-04 
-5.765164058635e-04 -6.636526940974e-04 0.0 
-6.636526940974e-04 4.795423287764e-03 0.0 
0.0 0.0 -8.444178005646e-04 
-5.181015510014e-04 7.402765764373e-04 0.0 
7.402765764373e-04 4.473477357902e-03 0.0 
0.0 0.0 -8.147327860212e-04 
-1.021689517365e-03 3.040232263138e-04 0.0 
3.040232263138e-04 6.577677469830e-03 0.0 
0.0 0.0 -1.033897369924e-03 
-1.251489828841e-03 5.632464710331e-04 0.0 
5.632464710331e-04 7.903464121438e-03 0.0 
0.0 0.0 -1.224260864640e-03 
-6.076375545199e-04 4.683737268985e-04 0.0 
4.683737268985e-04 2.798103792701e-03 0.0 
0.0 0.0 -4.570814260163e-04 
-1.106194698900e-03 -2.340999049272e-04 0.0 
-2.340999049272e-04 6.875726326228e-03 0.0 
0.0 0.0 -1.028620860735e-03 
-1.222609548103e-03 6.000551956434e-04 0.0 
6.000551956434e-04 7.771092725331e-03 0.0 
0.0 0.0 -1.228414553209e-03 
4.319177178305e-05 1.565747196534e-04 0.0 
1.565747196534e-04 2.280131923741e-03 0.0 
0.0 0.0 -5.707601703556e-04 
-5.280303941059e-05 1.110289152965e-03 0.0 
1.110289152965e-03 8.099165551708e-04 0.0 
0.0 0.0 -3.244772210401e-04 
-6.896815476543e-04 4.595022377507e-04 0.0 
4.595022377507e-04 3.325524470954e-03 0.0 
0.0 0.0 -5.330167430730e-04 
-5.818026759286e-04 -7.746098819789e-04 0.0 
-7.746098819789e-04 4.581482398683e-03 0.0 
0.0 0.0 -8.082977034869e-04 
-1.084938189841e-03 6.476212573913e-04 0.0 
6.476212573913e-04 6.662130643566e-03 0.0 
0.0 0.0 -1.043024347135e-03 
-5.304647567233e-04 -3.288241115645e-04 0.0 
-3.288241115645e-04 4.511932891327e-03 0.0 
0.0 0.0 -8.108276944599e-04 
3.467916788336e-04 9.922084021829e-04 0.0 
9.922084021829e-04 1.937891863132e-04 0.0 
0.0 0.0 -2.316775136343e-04 
-6.676153210682e-04 -5.990024928293e-04 0.0 
-5.990024928293e-04 5.284713461811e-03 0.0 
0.0 0.0 -9.096068616062e-04 
-5.138764303910e-04 1.344859878066e-03 0.0 
1.344859878066e-03 1.832201827426e-03 0.0 
0.0 0.0 -3.508512830963e-04 
-4.693960867252e-04 2.899164946168e-04 0.0 
2.899164946168e-04 4.538651858574e-03 0.0 
0.0 0.0 -8.123573650817e-04 
-6.214317139948e-04 -2.381023826960e-04 0.0 
-2.381023826960e-04 5.000123203670e-03 0.0 
0.0 0.0 -8.756097305517e-04 
-7.629475729046e-04 6.967977887081e-04 0.0 
6.967977887081e-04 5.582110193462e-03 0.0 
0.0 0.0 -9.491391837787e-04 
-1.021932421091e-03 -1.375086625343e-04 0.0 
-1.375086625343e-04 6.258245616270e-03 0.0 
0.0 0.0 -9.494079867578e-04 
-6.355506189440e-04 -1.022411834394e-03 0.0 
-1.022411834394e-03 2.931807144820e-03 0.0 
0.0 0.0 -4.933620968966e-04 
6.896550266056e-05 1.225367383845e-03 0.0 
1.225367383845e-03 6.646895526308e-04 0.0 
0.0 0.0 -3.144235951249e-04 
-7.142483767440e-04 -1.644248298722e-04 0.0 
-1.644248298722e-04 5.495494976155e-03 0.0 
0.0 0.0 -9.415329344942e-04 
-5.361770105980e-04 1.152355576541e-03 0.0 
1.152355576541e-03 2.110820043480e-03 0.0 
0.0 0.0 -3.857152600925e-04 
0.0 0.0 0.0 
0.0 0.0 0.0 
0.0 0.0 0.0 
-1.255338616422e-03 1.860461172355e-04 0.0 
1.860461172355e-04 8.124850663151e-03 0.0 
0.0 0.0 -1.223389224544e-03 
-1.207848204117e-03 2.029693107177e-04 0.0 
2.029693107177e-04 7.752368092309e-03 0.0 
0.0 0.0 -1.157435638217e-03 
-8.808053059829e-05 -1.336699866714e-04 0.0 
-1.336699866714e-04 3.185750404010e-04 0.0 
0.0 0.0 -9.878336134402e-05 
-7.608266853486e-04 -5.406000089435e-04 0.0 
-5.406000089435e-04 5.776368912984e-03 0.0 
0.0 0.0 -9.758309632658e-04 
-5.833464932258e-04 -8.365325477788e-04 0.0 
-8.365325477788e-04 2.366888082298e-03 0.0 
0.0 0.0 -3.887237773309e-04 
-6.380037561636e-04 -4.574933655184e-04 0.0 
-4.574933655184e-04 2.507620922393e-03 0.0 
0.0 0.0 -4.195855280820e-04 
-1.094549564148e-03 6.711957006790e-04 0.0 
6.711957006790e-04 6.969957179569e-03 0.0 
0.0 0.0 -1.100737838324e-03 
-7.238835271569e-04 2.949238833770e-04 0.0 
2.949238833770e-04 5.642634368299e-03 0.0 
0.0 0.0 -9.467522836136e-04 
-1.039311302789e-03 6.802059572137e-04 0.0 
6.802059572137e-04 6.671189751840e-03 0.0 
0.0 0.0 -1.064854740548e-03 
-1.894001647684e-04 -8.697409082608e-04 0.0 
-8.697409082608e-04 2.974808611893e-03 0.0 
0.0 0.0 -6.238888496032e-04 
-8.115909482746e-04 3.390698231069e-05 0.0 
3.390698231069e-05 4.912143948728e-03 0.0 
0.0 0.0 -7.105917616147e-04 
-1.280305692054e-03 -3.247592506175e-04 0.0 
-3.247592506175e-04 7.975043847607e-03 0.0 
0.0 0.0 -1.281538364137e-03 
-5.868717402319e-04 -4.057488537009e-04 0.0 
-4.057488537009e-04 2.082970857728e-03 0.0 
0.0 0.0 -3.541816848729e-04 
-9.117200011925e-04 -1.598675323878e-04 0.0 
-1.598675323878e-04 6.764763677517e-03 0.0 
0.0 0.0 -1.121221582973e-03 
-5.590520355925e-04 3.309762878068e-04 0.0 
3.309762878068e-04 4.865889443216e-03 0.0 
0.0 0.0 -8.477100451819e-04 
-3.408380194667e-04 8.413428919704e-05 0.0 
8.413428919704e-05 1.600517951916e-03 0.0 
0.0 0.0 -2.892354545592e-04 
-1.075499676593e-03 6.132508001275e-04 0.0 
6.132508001275e-04 6.500844839128e-03 0.0 
0.0 0.0 -1.015166614560e-03 
-1.491725305372e-04 -7.955548992598e-05 0.0 
-7.955548992598e-05 3.115280814632e-03 0.0 
0.0 0.0 -6.628028861993e-04 
-1.315718485168e-04 -5.908276789213e-04 0.0 
-5.908276789213e-04 6.660589264853e-04 0.0 
0.0 0.0 -2.290658905579e-04 
-1.579860261374e-05 -4.063804822263e-04 0.0 
-4.063804822263e-04 2.360331977056e-03 0.0 
0.0 0.0 -5.632129589051e-04 
-1.187081976134e-03 1.736903763000e-04 0.0 
1.736903763000e-04 6.532498131095e-03 0.0 
0.0 0.0 -9.915417172310e-04 
-1.109173126604e-03 2.020871397918e-04 0.0 
2.020871397918e-04 6.702082758585e-03 0.0 
0.0 0.0 -1.020980360542e-03 
-4.812617878824e-04 -1.026396368797e-03 0.0 
-1.026396368797e-03 1.558368541222e-03 0.0 
0.0 0.0 -2.729600395538e-04 
-1.020281891755e-03 -1.851201749546e-04 0.0 
-1.851201749546e-04 5.386783464776e-03 0.0 
0.0 0.0 -8.076288038732e-04 
-1.089791995769e-03 6.678096790371e-04 0.0 
6.678096790371e-04 6.824575659747e-03 0.0 
0.0 0.0 -1.071782534217e-03 
-9.193547229402e-04 1.602334611530e-04 0.0 
1.602334611530e-04 6.776867929495e-03 0.0 
0.0 0.0 -1.109893377180e-03 
-5.608358153244e-04 -8.240965468318e-04 0.0 
-8.240965468318e-04 2.993251789866e-03 0.0 
0.0 0.0 -5.351738145117e-04 
-6.136579298705e-04 1.191680586993e-04 0.0 
1.191680586993e-04 2.664357051373e-03 0.0 
0.0 0.0 -4.333934152438e-04 
-5.989414354875e-04 6.742429676008e-04 0.0 
6.742429676008e-04 4.956197001293e-03 0.0 
0.0 0.0 -8.786267582723e-04 
-1.011039081455e-03 -2.136688597495e-04 0.0 
-2.136688597495e-04 6.164847278727e-03 0.0 
0.0 0.0 -9.278975173457e-04 
-2.430528072630e-05 -7.015609586409e-04 0.0 
-7.015609586409e-04 4.939718425864e-04 0.0 
0.0 0.0 -2.012856693686e-04 
-1.258632814515e-03 5.164131841311e-04 0.0 
5.164131841311e-04 8.325970250847e-03 0.0 
0.0 0.0 -1.269179263065e-03 
-1.319279019144e-03 4.296204971761e-04 0.0 
4.296204971761e-04 8.281943168671e-03 0.0 
0.0 0.0 -1.281197857596e-03 
-9.262453737932e-04 -1.856372937015e-04 0.0 
-1.856372937015e-04 5.467657039050e-03 0.0 
0.0 0.0 -8.387747867703e-04 
-1.294839307706e-03 7.871963389556e-06 0.0 
7.871963389556e-06 8.477109428305e-03 0.0 
0.0 0.0 -1.255037608383e-03 
-1.299621148244e-03 5.434080431767e-04 0.0 
5.434080431767e-04 8.249757004039e-03 0.0 
0.0 0.0 -1.285499913836e-03 
-2.377664936208e-04 -4.540001535470e-04 0.0 
-4.540001535470e-04 3.213325829595e-03 0.0 
0.0 0.0 -6.542748834104e-04 
-3.508305791302e-04 -1.119634461832e-03 0.0 
-1.119634461832e-03 3.128022697751e-03 0.0 
0.0 0.0 -6.153450468602e-04 
-1.170236808513e-03 2.917458807146e-05 0.0 
2.917458807146e-05 8.079333353292e-03 0.0 
0.0 0.0 -1.265535665854e-03 
0.0 0.0 0.0 
0.0 0.0 0.0 
0.0 0.0 0.0 
-5.539334103609e-04 1.733294296074e-04 0.0 
1.733294296074e-04 2.467698966066e-03 0.0 
0.0 0.0 -3.941707820484e-04 
-1.082833857300e-03 1.553689403231e-04 0.0 
1.553689403231e-04 5.370486721227e-03 0.0 
0.0 0.0 -8.329475646481e-04 
-6.135075657535e-04 -1.124689673499e-03 0.0 
-1.124689673499e-03 3.074168344220e-03 0.0 
0.0 0.0 -5.313546330462e-04 
-1.846585695015e-04 -7.875180783751e-04 0.0 
-7.875180783751e-04 2.568069228426e-03 0.0 
0.0 0.0 -5.546931404481e-04 
-5.968432958156e-04 5.557088425757e-04 0.0 
5.557088425757e-04 1.865682370622e-03 0.0 
0.0 0.0 -3.196518454468e-04 
-5.899426228830e-04 4.711635003752e-04 0.0 
4.711635003752e-04 2.207717411959e-03 0.0 
0.0 0.0 -3.528063275151e-04 
-9.460265979009e-04 -8.557345978762e-05 0.0 
-8.557345978762e-05 5.600872725538e-03 0.0 
0.0 0.0 -8.290026594306e-04 
-7.188891017228e-05 -7.212145557604e-04 0.0 
-7.212145557604e-04 2.661537409605e-03 0.0 
0.0 0.0 -5.962921515785e-04 
-6.690915239770e-04 -9.469087844433e-06 0.0 
-9.469087844433e-06 2.860475934858e-03 0.0 
0.0 0.0 -4.583473518421e-04 
-9.261983765854e-04 6.205491161324e-04 0.0 
6.205491161324e-04 6.527766796007e-03 0.0 
0.0 0.0 -1.077832113627e-03 
-1.322048612324e-03 -3.324926188937e-04 0.0 
-3.324926188937e-04 8.713395146875e-03 0.0 
0.0 0.0 -1.324978758543e-03 
-1.338720177887e-03 -4.085669882089e-04 0.0 
-4.085669882089e-04 8.670321911685e-03 0.0 
0.0 0.0 -1.320624918399e-03 
-3.849795069765e-04 -6.739500110508e-04 0.0 
-6.739500110508e-04 3.380834248484e-03 0.0 
0.0 0.0 -6.457427040837e-04 
-9.004898588244e-04 1.911488629734e-04 0.0 
1.911488629734e-04 5.018763151201e-03 0.0 
0.0 0.0 -7.877541558771e-04 
0.0 0.0 0.0 
0.0 0.0 0.0 
0.0 0.0 0.0 
-4.359472798887e-04 6.731301800727e-04 0.0 
6.731301800727e-04 1.407239997486e-03 0.0 
0.0 0.0 -3.106513839132e-04 
2.755733972267e-04 -1.401203893809e-03 0.0 
-1.401203893809e-03 4.875020493235e-04 0.0 
0.0 0.0 -3.270323342358e-04 
-5.716509711487e-04 6.241427470327e-04 0.0 
6.241427470327e-04 1.685665452150e-03 0.0 
0.0 0.0 -2.953478464511e-04 
-6.435501651802e-04 2.617971966709e-04 0.0 
2.617971966709e-04 5.324938194352e-03 0.0 
0.0 0.0 -9.116044729693e-04 
-3.892042169670e-04 -9.156083068677e-04 0.0 
-9.156083068677e-04 2.815259890772e-03 0.0 
0.0 0.0 -5.459662534218e-04 
-2.243152923797e-04 -1.093841073510e-03 0.0 
-1.093841073510e-03 2.791137140625e-03 0.0 
0.0 0.0 -5.879858557453e-04 
2.757241657395e-04 -4.810032012259e-04 0.0 
-4.810032012259e-04 1.809007699404e-05 0.0 
0.0 0.0 -1.259203897429e-04 
-1.236651515782e-03 5.783317831820e-05 0.0 
5.783317831820e-05 7.720546241133e-03 0.0 
0.0 0.0 -1.176327079312e-03 
-4.101458141136e-04 -1.240391896891e-03 0.0 
-1.240391896891e-03 2.995120791313e-03 0.0 
0.0 0.0 -5.792774345575e-04 
-1.250725797448e-03 2.916941522596e-04 0.0 
2.916941522596e-04 8.087181627586e-03 0.0 
0.0 0.0 -1.212957849656e-03 
-1.169197980018e-03 -1.036807665068e-04 0.0 
-1.036807665068e-04 7.436974066249e-03 0.0 
0.0 0.0 -1.117460450001e-03 
-1.345176874521e-03 9.425392127595e-05 0.0 
9.425392127595e-05 9.101263988686e-03 0.0 
0.0 0.0 -1.319418651152e-03 
-1.362446196829e-03 -6.566602865704e-05 0.0 
-6.566602865704e-05 8.851718670119e-03 0.0 
0.0 0.0 -1.324849633189e-03 
-9.396876737499e-04 1.580696553299e-04 0.0 
1.580696553299e-04 5.609093298548e-03 0.0 
0.0 0.0 -8.315138651140e-04 
-5.177493296675e-04 -1.164892507562e-03 0.0 
-1.164892507562e-03 3.321630420665e-03 0.0 
0.0 0.0 -6.063493599945e-04 
-5.551169256274e-04 5.845973941815e-04 0.0 
5.845973941815e-04 2.336169535734e-03 0.0 
0.0 0.0 -3.884917441798e-04 
-5.432002518243e-04 -7.156839301842e-04 0.0 
-7.156839301842e-04 3.555258553905e-03 0.0 
0.0 0.0 -6.367902913543e-04 
-1.343328350294e-03 -3.038078432126e-04 0.0 
-3.038078432126e-04 8.521823212692e-03 0.0 
0.0 0.0 -1.343328350294e-03 
-1.737665181201e-04 6.795203959292e-04 0.0 
6.795203959292e-04 8.236163112488e-04 0.0 
0.0 0.0 -2.785070541980e-04 
-2.927518060600e-04 7.425303816206e-04 0.0 
7.425303816206e-04 1.136932491594e-03 0.0 
0.0 0.0 -3.329621070679e-04 
-9.737974110450e-04 -6.386389399083e-05 0.0 
-6.386389399083e-05 7.060307194164e-03 0.0 
0.0 0.0 -1.156027955174e-03 
-8.805235058694e-04 6.847913926848e-05 0.0 
6.847913926848e-05 5.301659598337e-03 0.0 
0.0 0.0 -7.715229432315e-04 
-1.258879221168e-03 2.678324544629e-04 0.0 
2.678324544629e-04 8.150871359494e-03 0.0 
0.0 0.0 -1.219279742240e-03 
-1.080906081071e-03 2.827660258438e-04 0.0 
2.827660258438e-04 6.867060617251e-03 0.0 
0.0 0.0 -1.069611963270e-03 
-1.039924564934e-03 5.350617449269e-04 0.0 
5.350617449269e-04 7.190727662860e-03 0.0 
0.0 0.0 -1.175036385391e-03 
-1.173553033698e-03 2.219944962555e-04 0.0 
2.219944962555e-04 7.297927893888e-03 0.0 
0.0 0.0 -1.113576918908e-03 
-9.402009665324e-04 2.044311077690e-04 0.0 
2.044311077690e-04 5.536177417769e-03 0.0 
0.0 0.0 -8.542750875040e-04 
-5.858259911149e-04 -1.171742995146e-03 0.0 
-1.171742995146e-03 2.676462786012e-03 0.0 
0.0 0.0 -4.674384380614e-04 
-5.422750806607e-04 -8.975033256362e-04 0.0 
-8.975033256362e-04 2.600446559473e-03 0.0 
0.0 0.0 -4.715697005044e-04 
-1.061085808578e-03 2.019693127978e-04 0.0 
2.019693127978e-04 6.591258911724e-03 0.0 
0.0 0.0 -9.963059934038e-04 
-9.926320276344e-04 1.396335034036e-04 0.0 
1.396335034036e-04 7.047433757094e-03 0.0 
0.0 0.0 -1.142506377625e-03 
-8.640826483478e-04 1.602683523403e-04 0.0 
1.602683523403e-04 4.592644147598e-03 0.0 
0.0 0.0 -7.345222264051e-04 
-8.659076808803e-04 1.600457319012e-05 0.0 
1.600457319012e-05 5.296211653200e-03 0.0 
0.0 0.0 -7.676068998053e-04 
-9.151607957151e-04 -5.089667725815e-05 0.0 
-5.089667725815e-05 5.629549572959e-03 0.0 
0.0 0.0 -8.242303029217e-04 
-9.674728246486e-04 -2.123760912739e-04 0.0 
-2.123760912739e-04 5.717004610309e-03 0.0 
0.0 0.0 -8.467401457521e-04 
3.499479768906e-04 -3.973954247046e-04 0.0 
-3.973954247046e-04 -4.658979670494e-05 0.0 
0.0 0.0 -1.300106486510e-04 
-5.930015542773e-04 -7.839114719970e-04 0.0 
-7.839114719970e-04 2.465147057737e-03 0.0 
0.0 0.0 -4.335179088089e-04 
-1.317738620986e-03 2.278366908206e-04 0.0 
2.278366908206e-04 8.695066743648e-03 0.0 
0.0 0.0 -1.269310366786e-03 
-1.008653577782e-03 -1.784318379198e-04 0.0 
-1.784318379198e-04 6.114212471042e-03 0.0 
0.0 0.0 -9.150577043801e-04 
-1.235075525051e-03 3.722470533434e-04 0.0 
3.722470533434e-04 8.051470811527e-03 0.0 
0.0 0.0 -1.295322057178e-03 
-1.262105533747e-03 2.927877395666e-04 0.0 
2.927877395666e-04 8.092325804024e-03 0.0 
0.0 0.0 -1.215577547940e-03 
-1.074267791218e-03 2.611694470269e-04 0.0 
2.611694470269e-04 6.569995446378e-03 0.0 
0.0 0.0 -1.012565562176e-03 
-1.287214307820e-03 9.354055678567e-05 0.0 
9.354055678567e-05 8.149418825250e-03 0.0 
0.0 0.0 -1.214907066889e-03 
-8.465721316982e-04 -1.105505135888e-04 0.0 
-1.105505135888e-04 3.950044235392e-03 0.0 
0.0 0.0 -6.304496659280e-04 
-8.228220456719e-04 -1.151102242294e-04 0.0 
-1.151102242294e-04 3.762441621980e-03 0.0 
0.0 0.0 -5.666856080635e-04 
-1.213791714024e-03 -1.499272758312e-04 0.0 
-1.499272758312e-04 7.648587280659e-03 0.0 
0.0 0.0 -1.226851238141e-03 
0.0 0.0 0.0 
0.0 0.0 0.0 
0.0 0.0 0.0 
-5.508530862849e-04 -1.035100482519e-04 0.0 
-1.035100482519e-04 2.701800587875e-03 0.0 
0.0 0.0 -4.071640756073e-04 
-1.342405754833e-03 4.276126013738e-04 0.0 
4.276126013738e-04 8.356626582993e-03 0.0 
0.0 0.0 -1.342405754833e-03 
-2.369285988354e-04 -1.770299306038e-04 0.0 
-1.770299306038e-04 1.161644229230e-03 0.0 
0.0 0.0 -2.265802816212e-04 
-8.772316900263e-04 3.022985570029e-05 0.0 
3.022985570029e-05 5.030285682320e-03 0.0 
0.0 0.0 -7.870118106326e-04 
-1.087488399424e-03 -9.544139039346e-05 0.0 
-9.544139039346e-05 7.678102904648e-03 0.0 
0.0 0.0 -1.213461936786e-03 
-2.217204533164e-04 -1.125363679953e-04 0.0 
-1.125363679953e-04 8.293133150009e-04 0.0 
0.0 0.0 -1.562362318669e-04 
1.575931452750e-04 -1.091415967636e-04 0.0 
-1.091415967636e-04 4.514811203493e-04 0.0 
0.0 0.0 -1.320567747312e-04 
-1.342371808075e-03 1.025686952786e-04 0.0 
1.025686952786e-04 9.039344740884e-03 0.0 
0.0 0.0 -1.324389858384e-03 
-8.327656305072e-04 1.141712868856e-04 0.0 
1.141712868856e-04 4.641243707897e-03 0.0 
0.0 0.0 -7.294542769151e-04 
-1.288909957265e-03 4.016661537540e-04 0.0 
4.016661537540e-04 8.513544320093e-03 0.0 
0.0 0.0 -1.261418349269e-03 
-1.134288891980e-03 5.741233190870e-05 0.0 
5.741233190870e-05 7.407101021319e-03 0.0 
0.0 0.0 -1.231858344535e-03 
-8.347679035328e-04 -3.570531223968e-05 0.0 
-3.570531223968e-05 4.629434413509e-03 0.0 
0.0 0.0 -7.289279708929e-04 
0.0 0.0 0.0 
0.0 0.0 0.0 
0.0 0.0 0.0 
-1.305379233758e-03 -6.071779487898e-05 0.0 
-6.071779487898e-05 8.461113597457e-03 0.0 
0.0 0.0 -1.284140717546e-03 
-3.100289480378e-04 -3.270232557407e-04 0.0 
-3.270232557407e-04 1.355870936008e-03 0.0 
0.0 0.0 -2.433545560381e-04 
-1.282233343865e-03 2.781824875359e-04 0.0 
2.781824875359e-04 8.180219452641e-03 0.0 
0.0 0.0 -1.232184317627e-03 
-1.343095105526e-03 -2.432827260553e-04 0.0 
-2.432827260553e-04 8.545412507579e-03 0.0 
0.0 0.0 -1.343095105526e-03 
-1.292199045367e-03 2.524866178233e-04 0.0 
2.524866178233e-04 8.014541847179e-03 0.0 
0.0 0.0 -1.225700354592e-03 
4.686342162084e-04 -7.265370554805e-04 0.0 
-7.265370554805e-04 5.162950173449e-06 0.0 
0.0 0.0 -2.030559284494e-04 
-9.540260339352e-04 1.631930893359e-04 0.0 
1.631930893359e-04 5.653552826698e-03 0.0 
0.0 0.0 -8.279144014868e-04 
-8.950557039055e-04 -2.748800359507e-04 0.0 
-2.748800359507e-04 4.199615522516e-03 0.0 
0.0 0.0 -6.271989868224e-04 
-8.983235361331e-04 1.933150702715e-04 0.0 
1.933150702715e-04 6.546966492063e-03 0.0 
0.0 0.0 -1.077599360682e-03 
-1.273669225217e-03 1.720409005563e-04 0.0 
1.720409005563e-04 8.518730660981e-03 0.0 
0.0 0.0 -1.326997735404e-03 
-1.142899871982e-03 1.477724546960e-04 0.0 
1.477724546960e-04 7.166026161736e-03 0.0 
0.0 0.0 -1.061614915164e-03 
-1.285004601792e-03 2.929428446180e-04 0.0 
2.929428446180e-04 8.490810498827e-03 0.0 
0.0 0.0 -1.325870641008e-03 
0.0 0.0 0.0 
0.0 0.0 0.0 
0.0 0.0 0.0 
-1.297780734717e-03 -4.166830862430e-04 0.0 
-4.166830862430e-04 8.366714279713e-03 0.0 
0.0 0.0 -1.277656510522e-03 
2.368160629241e-04 -1.409681499125e-03 0.0 
-1.409681499125e-03 7.013780298968e-04 0.0 
0.0 0.0 -3.431348957073e-04 
-2.589194545670e-04 3.821483992917e-05 0.0 
3.821483992917e-05 1.124631262589e-03 0.0 
0.0 0.0 -2.298118214877e-04 
-1.194197405020e-03 -2.475227437211e-04 0.0 
-2.475227437211e-04 8.105636908586e-03 0.0 
0.0 0.0 -1.270335377537e-03 
-1.315524425911e-03 2.690035540339e-04 0.0 
2.690035540339e-04 8.643806800304e-03 0.0 
0.0 0.0 -1.270603359501e-03 
-1.320702306464e-03 4.960564232440e-05 0.0 
4.960564232440e-05 8.625092567998e-03 0.0 
0.0 0.0 -1.289850838753e-03 
-8.753308640926e-04 2.257063470840e-04 0.0 
2.257063470840e-04 5.095730312348e-03 0.0 
0.0 0.0 -7.762633204682e-04 
-9.835570351374e-04 3.967893708127e-04 0.0 
3.967893708127e-04 5.483942639045e-03 0.0 
0.0 0.0 -8.489529362435e-04 
-3.868195665134e-04 1.249245404028e-03 0.0 
1.249245404028e-03 1.493087960549e-03 0.0 
0.0 0.0 -3.390228113434e-04 
-1.290611125717e-03 4.069284773612e-04 0.0 
4.069284773612e-04 8.488337706707e-03 0.0 
0.0 0.0 -1.273041473476e-03 
-7.431920671866e-04 3.360733235591e-05 0.0 
3.360733235591e-05 3.408921231342e-03 0.0 
0.0 0.0 -5.357483711987e-04 
2.011032744506e-04 7.720499985605e-04 0.0 
7.720499985605e-04 2.146802318038e-04 0.0 
0.0 0.0 -1.781929312519e-04 
-9.370458151346e-04 5.508245939114e-04 0.0 
5.508245939114e-04 6.747683680752e-03 0.0 
0.0 0.0 -1.110141529071e-03 
-8.032989009541e-04 -1.045980115988e-05 0.0 
-1.045980115988e-05 4.870464455063e-03 0.0 
0.0 0.0 -7.096328662732e-04 
-1.279256756890e-03 4.600607687250e-04 0.0 
4.600607687250e-04 8.175326591168e-03 0.0 
0.0 0.0 -1.237729719596e-03 
-1.329072194852e-03 -1.834247142824e-04 0.0 
-1.834247142824e-04 8.977472730193e-03 0.0 
0.0 0.0 -1.321509982054e-03 
-1.343732204276e-03 7.562212797617e-06 0.0 
7.562212797617e-06 8.849786333364e-03 0.0 
0.0 0.0 -1.343732204276e-03 
6.465688167897e-04 1.663781779480e-05 0.0 
1.663781779480e-05 -3.978289505741e-05 0.0 
0.0 0.0 -8.420285294201e-05 
3.868700612373e-04 3.921670605925e-05 0.0 
3.921670605925e-05 -6.204561696291e-05 0.0 
0.0 0.0 -1.378576441850e-04 
-8.247124983758e-04 -1.687178518224e-04 0.0 
-1.687178518224e-04 4.737962601015e-03 0.0 
0.0 0.0 -7.318233512793e-04 
-8.319071836255e-04 2.758419797137e-05 0.0 
2.758419797137e-05 4.882188569804e-03 0.0 
0.0 0.0 -7.096011290571e-04 
-1.343732204276e-03 -2.755821224564e-05 0.0 
-2.755821224564e-05 8.606219025581e-03 0.0 
0.0 0.0 -1.343732204276e-03 
-1.349068194299e-03 1.748780922349e-04 0.0 
1.748780922349e-04 8.742452044457e-03 0.0 
0.0 0.0 -1.321509982054e-03 
2.267983165528e-04 1.503551410355e-04 0.0 
1.503551410355e-04 3.801820683437e-04 0.0 
0.0 0.0 -1.379425883790e-04 
0.0 0.0 0.0 
0.0 0.0 0.0 
0.0 0.0 0.0 
-1.304839210467e-03 -7.091443056662e-05 0.0 
-7.091443056662e-05 7.889011230752e-03 0.0 
0.0 0.0 -1.230181737024e-03 
-1.133789878205e-03 6.963372694564e-04 0.0 
6.963372694564e-04 7.661762773916e-03 0.0 
0.0 0.0 -1.209364118140e-03 
-3.105423637276e-04 -2.525564358258e-04 0.0 
-2.525564358258e-04 1.694140784916e-03 0.0 
0.0 0.0 -2.712674790923e-04 
-1.264304018708e-03 -4.229761773583e-04 0.0 
-4.229761773583e-04 7.912894217144e-03 0.0 
0.0 0.0 -1.240191881334e-03 
-1.104648569634e-03 -8.128511201330e-05 0.0 
-8.128511201330e-05 5.687324916732e-03 0.0 
0.0 0.0 -8.888375990210e-04 
-1.026907705388e-03 -2.214158958103e-04 0.0 
-2.214158958103e-04 5.060294452777e-03 0.0 
0.0 0.0 -7.610796297342e-04 
-1.050200639505e-03 1.276309243533e-04 0.0 
1.276309243533e-04 6.471471583772e-03 0.0 
0.0 0.0 -9.400782610458e-04 
-2.965318753647e-05 -1.331164902240e-03 0.0 
-1.331164902240e-03 9.056852696167e-04 0.0 
0.0 0.0 -3.754423208915e-04 
-8.088866268099e-04 2.301224893319e-04 0.0 
2.301224893319e-04 6.098327421906e-03 0.0 
0.0 0.0 -1.011657465016e-03 
-2.272445053013e-04 -9.535102935050e-05 0.0 
-9.535102935050e-05 1.388764162386e-03 0.0 
0.0 0.0 -2.181484037039e-04 
-9.136007493904e-04 -3.789003197154e-04 0.0 
-3.789003197154e-04 4.494388172482e-03 0.0 
0.0 0.0 -6.997415131527e-04 
-1.249092671204e-03 5.668738205519e-04 0.0 
5.668738205519e-04 7.979681115669e-03 0.0 
0.0 0.0 -1.240519096027e-03 
-1.238391952882e-03 -2.103174549131e-04 0.0 
-2.103174549131e-04 8.038627661496e-03 0.0 
0.0 0.0 -1.191726112421e-03 
-9.811853638777e-04 4.571159586099e-05 0.0 
4.571159586099e-05 4.872542694396e-03 0.0 
0.0 0.0 -7.690942022927e-04 
-9.767560317632e-04 -1.705867274286e-04 0.0 
-1.705867274286e-04 5.944945665690e-03 0.0 
0.0 0.0 -8.745659502648e-04 
-1.201104368766e-03 5.803220864547e-04 0.0 
5.803220864547e-04 7.939240582663e-03 0.0 
0.0 0.0 -1.217119345310e-03 
-1.179845702415e-03 2.452002266232e-04 0.0 
2.452002266232e-04 7.438662012216e-03 0.0 
0.0 0.0 -1.140944809982e-03 
-1.127959464392e-03 2.474309966313e-04 0.0 
2.474309966313e-04 7.001139959042e-03 0.0 
0.0 0.0 -1.076426999079e-03 
-8.393109454079e-04 2.446878724435e-05 0.0 
2.446878724435e-05 4.620539471492e-03 0.0 
0.0 0.0 -7.312123441678e-04 
-7.325714353874e-04 1.943037271299e-04 0.0 
1.943037271299e-04 5.805049329063e-03 0.0 
0.0 0.0 -9.763781674015e-04 
-1.278424948200e-03 4.732838707970e-04 0.0 
4.732838707970e-04 8.049805466019e-03 0.0 
0.0 0.0 -1.231404929774e-03 
-6.063671140810e-04 1.348850002822e-06 0.0 
1.348850002822e-06 2.558361798436e-03 0.0 
0.0 0.0 -4.167967844002e-04 
-7.171547725390e-05 -2.177777186911e-04 0.0 
-2.177777186911e-04 5.764019490181e-04 0.0 
0.0 0.0 -1.015157820784e-04 
-1.170824655935e-03 3.363594053323e-04 0.0 
3.363594053323e-04 7.539332247117e-03 0.0 
0.0 0.0 -1.185975225609e-03 
-9.133715629689e-04 2.312110862865e-04 0.0 
2.312110862865e-04 6.719277881344e-03 0.0 
0.0 0.0 -1.123538223191e-03 
1.132049243546e-04 -1.050372997865e-03 0.0 
-1.050372997865e-03 4.871548077874e-04 0.0 
0.0 0.0 -2.572970280609e-04 
-1.081558890546e-03 -1.399243451463e-04 0.0 
-1.399243451463e-04 6.772240372319e-03 0.0 
0.0 0.0 -9.893338170986e-04 
-1.329126769976e-03 -2.338155039388e-04 0.0 
-2.338155039388e-04 8.188960966632e-03 0.0 
0.0 0.0 -1.282739585886e-03 
-1.129882241773e-03 5.744296922873e-04 0.0 
5.744296922873e-04 7.355375345581e-03 0.0 
0.0 0.0 -1.182073443778e-03 
-1.178192896547e-03 4.553534655183e-04 0.0 
4.553534655183e-04 7.891430484162e-03 0.0 
0.0 0.0 -1.215129606110e-03 
-1.157436434489e-03 -2.420799146488e-04 0.0 
-2.420799146488e-04 6.201441230335e-03 0.0 
0.0 0.0 -9.537126495859e-04 
0.0 0.0 0.0 
0.0 0.0 0.0 
0.0 0.0 0.0 
-5.231800249051e-04 6.591753538455e-04 0.0 
6.591753538455e-04 1.847843507099e-03 0.0 
0.0 0.0 -3.212443691966e-04 
-5.564787132596e-04 8.940027195274e-04 0.0 
8.940027195274e-04 2.137708509351e-03 0.0 
0.0 0.0 -3.834349432650e-04 
-9.473774776597e-04 1.764703939582e-04 0.0 
1.764703939582e-04 5.384019631323e-03 0.0 
0.0 0.0 -8.471429939415e-04 
-7.614839710960e-04 6.584444641784e-04 0.0 
6.584444641784e-04 5.752238999582e-03 0.0 
0.0 0.0 -9.781602908260e-04 
-1.285624241878e-03 -4.326792981855e-05 0.0 
-4.326792981855e-05 8.288168648148e-03 0.0 
0.0 0.0 -1.236541257690e-03 
-1.217308294029e-03 1.640866066604e-04 0.0 
1.640866066604e-04 7.793774931469e-03 0.0 
0.0 0.0 -1.282325209426e-03 
-8.954075940437e-05 -8.680076304404e-04 0.0 
-8.680076304404e-04 7.337139848585e-04 0.0 
0.0 0.0 -2.760742394804e-04 
-3.009716750380e-04 -4.715458723185e-04 0.0 
-4.715458723185e-04 9.308600569539e-04 0.0 
0.0 0.0 -1.704796444516e-04 
-4.318023328758e-04 9.056222759074e-04 0.0 
9.056222759074e-04 1.421929475039e-03 0.0 
0.0 0.0 -2.747970858071e-04 
-1.085049996288e-03 3.161557202625e-04 0.0 
3.161557202625e-04 6.749947888276e-03 0.0 
0.0 0.0 -1.019242131223e-03 
-7.105673598930e-04 -3.560858813606e-04 0.0 
-3.560858813606e-04 3.243394900527e-03 0.0 
0.0 0.0 -4.953283059016e-04 
-1.294058250345e-03 1.194991635526e-04 0.0 
1.194991635526e-04 8.278027413572e-03 0.0 
0.0 0.0 -1.241298427557e-03 
-2.801916649698e-04 -2.169380665087e-04 0.0 
-2.169380665087e-04 1.598671665654e-03 0.0 
0.0 0.0 -2.623907620757e-04 
-1.097220766083e-03 2.014729423047e-04 0.0 
2.014729423047e-04 7.397517373048e-03 0.0 
0.0 0.0 -1.221152601860e-03 
-9.286181991470e-04 2.455314232276e-04 0.0 
2.455314232276e-04 5.488935049062e-03 0.0 
0.0 0.0 -8.343732341398e-04 
-1.223283272536e-03 3.593359299497e-04 0.0 
3.593359299497e-04 7.932879470025e-03 0.0 
0.0 0.0 -1.286815605725e-03 
-9.712654839318e-04 1.866157351704e-04 0.0 
1.866157351704e-04 6.891208363551e-03 0.0 
0.0 0.0 -1.111121968474e-03 
-9.581999826764e-04 8.182036761545e-05 0.0 
8.182036761545e-05 5.388937206970e-03 0.0 
0.0 0.0 -8.465141837044e-04 
-1.209961591988e-03 -2.976225161964e-04 0.0 
-2.976225161964e-04 8.170684166123e-03 0.0 
0.0 0.0 -1.269142588751e-03 
-1.323046623582e-03 3.793136222843e-04 0.0 
3.793136222843e-04 8.658663539059e-03 0.0 
0.0 0.0 -1.272727265576e-03 
-1.289749640490e-03 9.124365830308e-05 0.0 
9.124365830308e-05 8.709454540694e-03 0.0 
0.0 0.0 -1.271339345674e-03 
-1.626085801218e-04 8.571684415748e-04 0.0 
8.571684415748e-04 8.875192706734e-04 0.0 
0.0 0.0 -3.044868356389e-04 
-1.267095409920e-03 4.070899744542e-04 0.0 
4.070899744542e-04 8.089876134210e-03 0.0 
0.0 0.0 -1.218309553141e-03 
-1.282164121305e-03 5.174305312528e-04 0.0 
5.174305312528e-04 8.083053308233e-03 0.0 
0.0 0.0 -1.286645293131e-03 
-1.059215435768e-03 -2.009543418023e-05 0.0 
-2.009543418023e-05 7.573607372665e-03 0.0 
0.0 0.0 -1.211735819529e-03 
-9.987418032593e-04 6.142229130813e-04 0.0 
6.142229130813e-04 6.982246170552e-03 0.0 
0.0 0.0 -1.143254064081e-03 
-1.342665167303e-03 -2.857461739196e-04 0.0 
-2.857461739196e-04 8.440143907241e-03 0.0 
0.0 0.0 -1.342665167303e-03 
-1.126760089934e-03 6.437426727216e-04 0.0 
6.437426727216e-04 6.937086787485e-03 0.0 
0.0 0.0 -1.079065255302e-03 
0.0 0.0 0.0 
0.0 0.0 0.0 
0.0 0.0 0.0 
6.191816026709e-05 1.291205818517e-03 0.0 
1.291205818517e-03 7.179353342320e-04 0.0 
0.0 0.0 -3.342229262139e-04 
-1.235056862706e-03 2.777301788060e-04 0.0 
2.777301788060e-04 7.736779237008e-03 0.0 
0.0 0.0 -1.176936364471e-03 
-9.923017078165e-04 3.078956919309e-04 0.0 
3.078956919309e-04 5.849121224287e-03 0.0 
0.0 0.0 -8.884613587993e-04 
-1.298948170332e-03 -3.124306146209e-04 0.0 
-3.124306146209e-04 7.977511740223e-03 0.0 
0.0 0.0 -1.221994126432e-03 
-1.061095181676e-03 1.799058826279e-04 0.0 
1.799058826279e-04 7.334426391334e-03 0.0 
0.0 0.0 -1.177009544428e-03 
-1.289141827740e-03 -3.383964038360e-04 0.0 
-3.383964038360e-04 8.125835853115e-03 0.0 
0.0 0.0 -1.292249833993e-03 
-1.132172011691e-03 2.813138638496e-04 0.0 
2.813138638496e-04 7.272270790879e-03 0.0 
0.0 0.0 -1.085521458831e-03 
-1.247617681667e-03 2.986308671608e-04 0.0 
2.986308671608e-04 7.907076372021e-03 0.0 
0.0 0.0 -1.288973456333e-03 
-1.183175849056e-03 -4.290305750124e-04 0.0 
-4.290305750124e-04 7.735436170610e-03 0.0 
0.0 0.0 -1.233322439334e-03 
-1.175389870133e-03 -8.154118169286e-05 0.0 
-8.154118169286e-05 7.695545006504e-03 0.0 
0.0 0.0 -1.235043566395e-03 
-7.287005066558e-04 -2.363504694994e-04 0.0 
-2.363504694994e-04 3.412626924282e-03 0.0 
0.0 0.0 -5.104964012366e-04 
-1.311532395302e-03 -3.318821641935e-04 0.0 
-3.318821641935e-04 8.754426494470e-03 0.0 
0.0 0.0 -1.325641941534e-03 
-8.790480836699e-04 9.973280973964e-05 0.0 
9.973280973964e-05 5.256747279211e-03 0.0 
0.0 0.0 -7.662153309039e-04 
-1.249481013832e-03 -1.180321759362e-04 0.0 
-1.180321759362e-04 8.200814515591e-03 0.0 
0.0 0.0 -1.217406395242e-03 
-1.652940304057e-04 -5.197313760388e-04 0.0 
-5.197313760388e-04 7.163944105236e-04 0.0 
0.0 0.0 -2.361858771934e-04 
-1.199456095747e-03 -9.281141696113e-05 0.0 
-9.281141696113e-05 7.932283218576e-03 0.0 
0.0 0.0 -1.163202487293e-03 
-1.073812189916e-03 1.019150907596e-06 0.0 
1.019150907596e-06 6.842466406292e-03 0.0 
0.0 0.0 -9.926133712568e-04 
-8.677292434787e-05 -7.776541442063e-05 0.0 
-7.776541442063e-05 9.098025117225e-04 0.0 
0.0 0.0 -1.628620303624e-04 
5.265410319422e-04 -6.941530982861e-04 0.0 
-6.941530982861e-04 -3.231659341297e-05 0.0 
0.0 0.0 -2.118104736554e-04 
-1.137863848184e-03 6.727746037847e-04 0.0 
6.727746037847e-04 7.103743294949e-03 0.0 
0.0 0.0 -1.107581195644e-03 
-1.316054950297e-03 1.463718814179e-04 0.0 
1.463718814179e-04 8.450854861123e-03 0.0 
0.0 0.0 -1.285368862661e-03 
-1.275071184009e-03 -1.337709164893e-04 0.0 
-1.337709164893e-04 8.307471815085e-03 0.0 
0.0 0.0 -1.223917301752e-03 
-1.160153297854e-03 5.261040585439e-04 0.0 
5.261040585439e-04 7.939180437513e-03 0.0 
0.0 0.0 -1.264779455601e-03 
-9.786681000752e-04 2.797069543092e-04 0.0 
2.797069543092e-04 5.828399650514e-03 0.0 
0.0 0.0 -8.807565902733e-04 
6.088519586403e-05 -4.917250620978e-05 0.0 
-4.917250620978e-05 4.869793999348e-04 0.0 
0.0 0.0 -1.094929743475e-04 
6.111566355022e-05 5.640636810902e-05 0.0 
5.640636810902e-05 -1.157323767526e-05 0.0 
0.0 0.0 -2.123246823212e-05 
-1.420251948107e-04 8.764175524857e-05 0.0 
8.764175524857e-05 4.773240057954e-04 0.0 
0.0 0.0 -1.256389127973e-04 
-3.632499277279e-04 -7.837444408696e-04 0.0 
-7.837444408696e-04 1.194209396961e-03 0.0 
0.0 0.0 -2.225718436208e-04 
0.0 0.0 0.0 
0.0 0.0 0.0 
0.0 0.0 0.0 
-8.980038842560e-04 -6.868916122841e-05 0.0 
-6.868916122841e-05 4.504377363934e-03 0.0 
0.0 0.0 -6.753304527203e-04 
-1.294165048711e-03 6.161991819009e-05 0.0 
6.161991819009e-05 7.969168976077e-03 0.0 
0.0 0.0 -1.222305993939e-03 
-1.264474650052e-03 5.734696938905e-04 0.0 
5.734696938905e-04 8.077312517039e-03 0.0 
0.0 0.0 -1.222833113937e-03 
-1.006464770387e-03 3.394189907578e-05 0.0 
3.394189907578e-05 5.834781281692e-03 0.0 
0.0 0.0 -8.826313165011e-04 
-8.266334947460e-04 -5.354606523691e-04 0.0 
-5.354606523691e-04 3.869366937566e-03 0.0 
0.0 0.0 -5.988529843847e-04 
-1.198642937147e-03 -4.684662880526e-04 0.0 
-4.684662880526e-04 7.783754842457e-03 0.0 
0.0 0.0 -1.221067908166e-03 
-1.068035990990e-03 1.115403335333e-04 0.0 
1.115403335333e-04 7.531635864011e-03 0.0 
0.0 0.0 -1.208702654310e-03 
-1.208049507468e-03 4.869249044164e-04 0.0 
4.869249044164e-04 8.191633662499e-03 0.0 
0.0 0.0 -1.272252409145e-03 
-1.227816291176e-03 4.361504529360e-04 0.0 
4.361504529360e-04 7.755209047765e-03 0.0 
0.0 0.0 -1.237422270938e-03 
-1.191139084829e-03 6.619264216725e-04 0.0 
6.619264216725e-04 7.533865048847e-03 0.0 
0.0 0.0 -1.171232062679e-03 
-1.920899935495e-04 -3.005289282689e-04 0.0 
-3.005289282689e-04 6.978999469600e-04 0.0 
0.0 0.0 -2.167756943188e-04 
0.0 0.0 0.0 
0.0 0.0 0.0 
0.0 0.0 0.0 
-1.308655472056e-03 -3.526594848147e-04 0.0 
-3.526594848147e-04 8.026041467974e-03 0.0 
0.0 0.0 -1.223662873675e-03 
-1.521155326843e-04 1.616990335056e-05 0.0 
1.616990335056e-05 7.009749630609e-04 0.0 
0.0 0.0 -1.761523314621e-04 
-1.768246005743e-04 2.416090922495e-04 0.0 
2.416090922495e-04 1.018026141244e-03 0.0 
0.0 0.0 -1.933333333332e-04 
1.266269026244e-04 4.459901967828e-04 0.0 
4.459901967828e-04 1.149333659383e-04 0.0 
0.0 0.0 -1.035258293840e-04 
-1.677849962930e-04 -2.830770546558e-04 0.0 
-2.830770546558e-04 8.015651116380e-04 0.0 
0.0 0.0 -1.580296812506e-04 
-1.271854076500e-03 -2.557043152436e-04 0.0 
-2.557043152436e-04 7.945254530657e-03 0.0 
0.0 0.0 -1.288571152055e-03 
-1.306788030849e-03 4.109202426763e-04 0.0 
4.109202426763e-04 8.216249132470e-03 0.0 
0.0 0.0 -1.290113636706e-03 
-1.294468783320e-03 3.035835675296e-04 0.0 
3.035835675296e-04 8.293038568859e-03 0.0 
0.0 0.0 -1.236907757659e-03 
-1.272697522653e-03 4.000546130429e-04 0.0 
4.000546130429e-04 7.992915461605e-03 0.0 
0.0 0.0 -1.292605224168e-03 
-1.039048517881e-03 -2.511628389219e-04 0.0 
-2.511628389219e-04 7.217306455236e-03 0.0 
0.0 0.0 -1.176879138244e-03 
-9.963056410622e-04 2.982297539881e-04 0.0 
2.982297539881e-04 6.108837095234e-03 0.0 
0.0 0.0 -9.170130443517e-04 
-1.345069444888e-03 2.094806773474e-04 0.0 
2.094806773474e-04 8.819921791921e-03 0.0 
0.0 0.0 -1.345069444888e-03 
1.552293122710e-04 -1.587596842018e-03 0.0 
-1.587596842018e-03 7.594496357434e-04 0.0 
0.0 0.0 -3.920052634347e-04 
-7.958568066072e-04 2.655126968941e-05 0.0 
2.655126968941e-05 4.862635053177e-03 0.0 
0.0 0.0 -7.083073883397e-04 
-3.709027017310e-05 -1.154290083415e-03 0.0 
-1.154290083415e-03 8.071251517729e-04 0.0 
0.0 0.0 -3.300149492570e-04 
-8.078687300304e-05 2.766710122456e-05 0.0 
2.766710122456e-05 2.705585081320e-04 0.0 
0.0 0.0 -8.133070076957e-05 
-1.328088305276e-03 -2.091716352919e-04 0.0 
-2.091716352919e-04 8.801339781229e-03 0.0 
0.0 0.0 -1.323850096553e-03 
-9.077000763770e-04 9.794404475146e-05 0.0 
9.794404475146e-05 5.306610706151e-03 0.0 
0.0 0.0 -7.731261162940e-04 
-1.693805322071e-04 -2.625883935893e-05 0.0 
-2.625883935893e-05 1.305243597625e-03 0.0 
0.0 0.0 -2.115341463249e-04 
-9.189085389785e-04 8.964891235688e-05 0.0 
8.964891235688e-05 4.273021875062e-03 0.0 
0.0 0.0 -6.570498647039e-04 
-1.286146232063e-03 5.231039738263e-04 0.0 
5.231039738263e-04 8.474365430469e-03 0.0 
0.0 0.0 -1.276804206569e-03 
-1.288400651325e-03 -4.306470642738e-06 0.0 
-4.306470642738e-06 8.274343384212e-03 0.0 
0.0 0.0 -1.228616961883e-03 
-1.323624610775e-03 3.216369829918e-04 0.0 
3.216369829918e-04 8.408100187569e-03 0.0 
0.0 0.0 -1.289666537713e-03 
-6.585033223124e-04 -1.956809026779e-04 0.0 
-1.956809026779e-04 3.104860358543e-03 0.0 
0.0 0.0 -4.695399720401e-04 
0.0 0.0 0.0 
0.0 0.0 0.0 
0.0 0.0 0.0 
-1.295369683638e-03 -4.352781909349e-04 0.0 
-4.352781909349e-04 8.328377963407e-03 0.0 
0.0 0.0 -1.273144391159e-03 
-1.316384665971e-03 4.635940691717e-05 0.0 
4.635940691717e-05 9.091692367136e-03 0.0 
0.0 0.0 -1.325353038101e-03 
-1.373672636792e-03 -7.774901455504e-05 0.0 
-7.774901455504e-05 8.873813327291e-03 0.0 
0.0 0.0 -1.323783523096e-03 
-8.637809619907e-04 1.323503679534e-04 0.0 
1.323503679534e-04 5.089707097874e-03 0.0 
0.0 0.0 -7.673431308700e-04 
-1.131532193974e-03 -7.726473612601e-05 0.0 
-7.726473612601e-05 7.445464928452e-03 0.0 
0.0 0.0 -1.231867668451e-03 
-2.317572587520e-04 -1.314436244158e-04 0.0 
-1.314436244158e-04 1.130415722071e-03 0.0 
0.0 0.0 -2.324200178898e-04 
-1.299745087394e-03 4.291095854891e-04 0.0 
4.291095854891e-04 8.286657472724e-03 0.0 
0.0 0.0 -1.241575510934e-03 
-4.846130298420e-05 -4.886976193625e-05 0.0 
-4.886976193625e-05 2.622595636012e-04 0.0 
0.0 0.0 -9.162782597871e-05 
-1.263516092246e-03 -1.718330630488e-04 0.0 
-1.718330630488e-04 7.907025787409e-03 0.0 
0.0 0.0 -1.290713494763e-03 
-1.321680158597e-03 4.673078731777e-04 0.0 
4.673078731777e-04 8.597815189326e-03 0.0 
0.0 0.0 -1.268585396830e-03 
0.0 0.0 0.0 
0.0 0.0 0.0 
0.0 0.0 0.0 
-1.124591088079e-03 3.211880423142e-04 0.0 
3.211880423142e-04 7.458066064736e-03 0.0 
0.0 0.0 -1.178018281593e-03 
-1.107869427890e-03 -1.505180591586e-04 0.0 
-1.505180591586e-04 7.012739571933e-03 0.0 
0.0 0.0 -1.053859681778e-03 
-1.308771083341e-03 9.446579517484e-05 0.0 
9.446579517484e-05 8.493525012630e-03 0.0 
0.0 0.0 -1.289687241943e-03 
-1.346242744377e-03 2.039443759450e-04 0.0 
2.039443759450e-04 8.307404063276e-03 0.0 
0.0 0.0 -1.346242744377e-03 
-1.050842893348e-03 -2.891538303944e-04 0.0 
-2.891538303944e-04 6.421171579649e-03 0.0 
0.0 0.0 -9.627310317561e-04 
-1.303758961951e-03 4.903154082554e-04 0.0 
4.903154082554e-04 8.278630388455e-03 0.0 
0.0 0.0 -1.292510612804e-03 
-1.300990074097e-03 1.669276888751e-04 0.0 
1.669276888751e-04 8.244189692926e-03 0.0 
0.0 0.0 -1.236507170568e-03 
-1.088170666265e-03 3.228048852164e-05 0.0 
3.228048852164e-05 6.587667922864e-03 0.0 
0.0 0.0 -1.009625451247e-03 
-1.257890102395e-03 4.520446479729e-04 0.0 
4.520446479729e-04 7.985706155656e-03 0.0 
0.0 0.0 -1.247605899893e-03 
-7.721939041237e-04 -2.584607340664e-04 0.0 
-2.584607340664e-04 3.598089332548e-03 0.0 
0.0 0.0 -5.668522599723e-04 
-8.446801208318e-04 -1.785300824749e-05 0.0 
-1.785300824749e-05 4.608085736335e-03 0.0 
0.0 0.0 -7.287847301676e-04 
-1.179784032877e-03 5.549241153248e-04 0.0 
5.549241153248e-04 7.775803262496e-03 0.0 
0.0 0.0 -1.239219007812e-03 
-1.299529222104e-03 1.321426560981e-04 0.0 
1.321426560981e-04 8.646134742124e-03 0.0 
0.0 0.0 -1.286506427510e-03 
2.877469763408e-04 1.360563794935e-05 0.0 
1.360563794935e-05 -8.620698383632e-05 0.0 
0.0 0.0 -8.637428250191e-05 
-8.370484008237e-04 5.623912198418e-05 0.0 
5.623912198418e-05 4.626828224470e-03 0.0 
0.0 0.0 -7.284590636140e-04 
-1.335071484274e-03 -1.600713729454e-04 0.0 
-1.600713729454e-04 8.440371416104e-03 0.0 
0.0 0.0 -1.288082484959e-03 
-3.767414468585e-04 -4.451842935601e-05 0.0 
-4.451842935601e-05 1.577633672495e-03 0.0 
0.0 0.0 -2.765646858065e-04 
-1.088631360797e-03 4.564803545026e-05 0.0 
4.564803545026e-05 7.667059339477e-03 0.0 
0.0 0.0 -1.213252366005e-03 
-1.271794335805e-03 2.301245021833e-04 0.0 
2.301245021833e-04 8.183403677429e-03 0.0 
0.0 0.0 -1.225943235494e-03 
-1.312602819485e-03 -3.967668182090e-05 0.0 
-3.967668182090e-05 8.691988746778e-03 0.0 
0.0 0.0 -1.269037835114e-03 
-3.083660169777e-04 2.694773361529e-05 0.0 
2.694773361529e-05 1.528069924280e-03 0.0 
0.0 0.0 -2.647987373252e-04 
3.113151605038e-04 9.413576912784e-04 0.0 
9.413576912784e-04 1.991549585730e-04 0.0 
0.0 0.0 -2.187729081758e-04 
-1.068435724364e-03 3.124616463362e-04 0.0 
3.124616463362e-04 5.213213290896e-03 0.0 
0.0 0.0 -7.939471195916e-04 
-1.202568648909e-03 1.058847220047e-04 0.0 
1.058847220047e-04 7.572272609772e-03 0.0 
0.0 0.0 -1.120841203304e-03 
0.0 0.0 0.0 
0.0 0.0 0.0 
0.0 0.0 0.0 
-1.320199164535e-03 2.485994904543e-04 0.0 
2.485994904543e-04 8.472368730029e-03 0.0 
0.0 0.0 -1.292233508669e-03 
-1.037229848653e-03 5.491249721839e-05 0.0 
5.491249721839e-05 6.181123680978e-03 0.0 
0.0 0.0 -9.501928138396e-04 
-2.112219927373e-05 -1.374997492072e-03 0.0 
-1.374997492072e-03 9.175924767207e-04 0.0 
0.0 0.0 -3.842015474773e-04 
-1.012609583766e-03 8.895330680236e-05 0.0 
8.895330680236e-05 5.872726185200e-03 0.0 
0.0 0.0 -9.030544305944e-04 
-1.225691657466e-03 3.254133079920e-04 0.0 
3.254133079920e-04 8.211721301461e-03 0.0 
0.0 0.0 -1.271643562581e-03 
-1.073143154962e-03 -3.082428058209e-04 0.0 
-3.082428058209e-04 5.482950483311e-03 0.0 
0.0 0.0 -8.272804529250e-04 
-7.113824802759e-05 7.910875886741e-04 0.0 
7.910875886741e-04 9.358956445158e-05 0.0 
0.0 0.0 -9.621992753141e-06 
-7.676399437614e-04 -3.808740375144e-05 0.0 
-3.808740375144e-05 3.237219166554e-03 0.0 
0.0 0.0 -5.209635072927e-04 
-9.628338005869e-04 -8.201294567373e-05 0.0 
-8.201294567373e-05 4.764994978367e-03 0.0 
0.0 0.0 -7.319997505002e-04 
-1.071554526652e-03 3.282695898754e-04 0.0 
3.282695898754e-04 5.655927594763e-03 0.0 
0.0 0.0 -8.599999999992e-04 
-1.135384068353e-03 1.731479619930e-04 0.0 
1.731479619930e-04 7.715574497297e-03 0.0 
0.0 0.0 -1.232780192057e-03 
-9.798919804233e-04 -2.558628748534e-04 0.0 
-2.558628748534e-04 4.608642650891e-03 0.0 
0.0 0.0 -7.175509632692e-04 
-9.821029958470e-04 -3.508647879924e-05 0.0 
-3.508647879924e-05 4.890525845077e-03 0.0 
0.0 0.0 -7.596628988333e-04 
-1.837560013843e-04 -1.583099615282e-05 0.0 
-1.583099615282e-05 7.060885550868e-04 0.0 
0.0 0.0 -1.551230728613e-04 
-1.279400136320e-03 -1.566945304177e-04 0.0 
-1.566945304177e-04 7.936225660633e-03 0.0 
0.0 0.0 -1.240629869904e-03 
-1.185998620198e-03 6.438056067403e-04 0.0 
6.438056067403e-04 7.550199019485e-03 0.0 
0.0 0.0 -1.186362110037e-03 
2.427830448571e-04 7.191273176983e-04 0.0 
7.191273176983e-04 1.478022189351e-04 0.0 
0.0 0.0 -1.673936844824e-04 
-1.279430862365e-03 -6.414688066309e-05 0.0 
-6.414688066309e-05 8.547621756056e-03 0.0 
0.0 0.0 -1.290349483557e-03 
-1.338884708819e-03 1.031550988355e-04 0.0 
1.031550988355e-04 8.369469127644e-03 0.0 
0.0 0.0 -1.290356026000e-03 
-8.661241169029e-04 -1.497599566473e-04 0.0 
-1.497599566473e-04 5.210623571048e-03 0.0 
0.0 0.0 -7.639788432047e-04 
-1.031081386504e-03 4.454962226943e-05 0.0 
4.454962226943e-05 6.379322053578e-03 0.0 
0.0 0.0 -9.358343396975e-04 
-9.489099175762e-04 2.306915430345e-05 0.0 
2.306915430345e-05 4.686801294291e-03 0.0 
0.0 0.0 -7.108516105536e-04 
-9.490845872611e-04 -2.424415655702e-04 0.0 
-2.424415655702e-04 4.770889395299e-03 0.0 
0.0 0.0 -7.343037059241e-04 
-1.020778085259e-03 -1.236146397605e-04 0.0 
-1.236146397605e-04 5.063951457963e-03 0.0 
0.0 0.0 -7.498489858827e-04 
-1.029397936689e-03 2.088387744417e-04 0.0 
2.088387744417e-04 7.190812739883e-03 0.0 
0.0 0.0 -1.180929064624e-03 
-9.345291821784e-05 -1.000980982166e-03 0.0 
-1.000980982166e-03 8.249248585122e-04 0.0 
0.0 0.0 -3.134879744119e-04 
-1.217539983379e-03 3.641850333419e-04 0.0 
3.641850333419e-04 7.975823276789e-03 0.0 
0.0 0.0 -1.217816617926e-03 
-9.353852917844e-04 8.308411466891e-05 0.0 
8.308411466891e-05 5.379160797006e-03 0.0 
0.0 0.0 -8.376728236383e-04 
-1.321070874734e-03 1.232042406106e-04 0.0 
1.232042406106e-04 8.662379723599e-03 0.0 
0.0 0.0 -1.272153791098e-03 
-1.041736228558e-03 -1.048021857426e-04 0.0 
-1.048021857426e-04 7.166745997700e-03 0.0 
0.0 0.0 -1.181257232468e-03 
-9.798440822242e-04 -3.118370163861e-05 0.0 
-3.118370163861e-05 6.079525789277e-03 0.0 
0.0 0.0 -8.902468719969e-04 
-1.234647512165e-03 5.766899331800e-04 0.0 
5.766899331800e-04 7.752454878246e-03 0.0 
0.0 0.0 -1.201032862555e-03 
-1.158629351689e-03 4.496790680983e-04 0.0 
4.496790680983e-04 7.611289473110e-03 0.0 
0.0 0.0 -1.236767197193e-03 
-1.208868880085e-03 3.342350738492e-04 0.0 
3.342350738492e-04 8.181025928136e-03 0.0 
0.0 0.0 -1.270271405117e-03 
3.097542277649e-05 6.697677954973e-05 0.0 
6.697677954973e-05 7.281263968878e-06 0.0 
0.0 0.0 -1.639572289087e-05 
-1.241892221072e-03 3.317116238901e-04 0.0 
3.317116238901e-04 7.798927866879e-03 0.0 
0.0 0.0 -1.198686027802e-03 
-1.247779771289e-03 6.731204463031e-04 0.0 
6.731204463031e-04 8.074479962319e-03 0.0 
0.0 0.0 -1.227078865044e-03 
-6.925802389634e-05 -2.106877258132e-04 0.0 
-2.106877258132e-04 8.393317830722e-04 0.0 
0.0 0.0 -1.488313462956e-04 
-9.198582411310e-04 -2.516763361700e-04 0.0 
-2.516763361700e-04 4.361749592167e-03 0.0 
0.0 0.0 -6.841365946973e-04 
8.862067450557e-06 2.614979262087e-05 0.0 
2.614979262087e-05 5.345349754713e-06 0.0 
0.0 0.0 -6.088893087973e-06 
-1.270183579808e-03 3.785933793144e-04 0.0 
3.785933793144e-04 8.183372897712e-03 0.0 
0.0 0.0 -1.230789928678e-03 
-5.989574462514e-04 -8.267193208917e-05 0.0 
-8.267193208917e-05 3.437613023720e-03 0.0 
0.0 0.0 -5.155555555556e-04 
-6.287787412402e-04 3.729317259218e-05 0.0 
3.729317259218e-05 3.247326925229e-03 0.0 
0.0 0.0 -5.377777777778e-04 
-5.978135918495e-04 -1.841914986540e-05 0.0 
-1.841914986540e-05 3.561201795145e-03 0.0 
0.0 0.0 -5.155555555556e-04 
-6.254961344599e-04 -1.930049853369e-05 0.0 
-1.930049853369e-05 3.253947423147e-03 0.0 
0.0 0.0 -5.377777777778e-04 
-5.974553837247e-04 -1.391156406088e-05 0.0 
-1.391156406088e-05 3.564621634950e-03 0.0 
0.0 0.0 -5.155555555556e-04 
-6.279936331018e-04 -1.935706142364e-05 0.0 
-1.935706142364e-05 3.255345558208e-03 0.0 
0.0 0.0 -5.377777777778e-04 
-5.991807406452e-04 -1.614264760927e-05 0.0 
-1.614264760927e-05 3.566069321236e-03 0.0 
0.0 0.0 -5.155555555556e-04 
-6.284144790130e-04 -2.147959664662e-05 0.0 
-2.147959664662e-05 3.255656571766e-03 0.0 
0.0 0.0 -5.377777777778e-04 
-6.012776818642e-04 -1.696499576587e-05 0.0 
-1.696499576587e-05 3.566126567533e-03 0.0 
0.0 0.0 -5.155555555556e-04 
-6.315481358764e-04 -2.174087039821e-05 0.0 
-2.174087039821e-05 3.256770810453e-03 0.0 
0.0 0.0 -5.377777777778e-04 
-6.043203060517e-04 -1.757798620874e-05 0.0 
-1.757798620874e-05 3.567144862765e-03 0.0 
0.0 0.0 -5.155555555556e-04 
-6.347436721796e-04 -2.174327211569e-05 0.0 
-2.174327211569e-05 3.258179294352e-03 0.0 
0.0 0.0 -5.377777777778e-04 
-6.081780324954e-04 -1.832425526294e-05 0.0 
-1.832425526294e-05 3.568559060354e-03 0.0 
0.0 0.0 -5.155555555556e-04 
-6.411680495803e-04 -2.482988994377e-05 0.0 
-2.482988994377e-05 3.259134830210e-03 0.0 
0.0 0.0 -5.377777777778e-04 
-6.116960535458e-04 -1.877149855028e-05 0.0 
-1.877149855028e-05 3.568744272090e-03 0.0 
0.0 0.0 -5.155555555556e-04 
-7.366276609701e-04 4.524951182864e-05 0.0 
4.524951182864e-05 3.507320200516e-03 0.0 
0.0 0.0 -5.247732426303e-04 
-6.420523831112e-04 -2.583218201805e-05 0.0 
-2.583218201805e-05 3.257046679515e-03 0.0 
0.0 0.0 -5.377777777778e-04 
-6.435781206746e-04 1.840534884814e-04 0.0 
1.840534884814e-04 3.241318968686e-03 0.0 
0.0 0.0 -5.377777777778e-04 
-6.146990540326e-04 -1.244484207344e-05 0.0 
-1.244484207344e-05 3.564885876854e-03 0.0 
0.0 0.0 -5.155555555556e-04 
-6.478721701654e-04 -1.639725233752e-05 0.0 
-1.639725233752e-05 3.256970335869e-03 0.0 
0.0 0.0 -5.377777777778e-04 
-6.200365485572e-04 -5.018436089581e-06 0.0 
-5.018436089581e-06 3.564885905457e-03 0.0 
0.0 0.0 -5.155555555556e-04 
-6.561429566816e-04 -9.551464893355e-06 0.0 
-9.551464893355e-06 3.257786223678e-03 0.0 
0.0 0.0 -5.377777777778e-04 
-6.259668772823e-04 2.319967205521e-06 0.0 
2.319967205521e-06 3.565031180513e-03 0.0 
0.0 0.0 -5.155555555556e-04 
-6.615288143992e-04 -3.165343597244e-06 0.0 
-3.165343597244e-06 3.256616812139e-03 0.0 
0.0 0.0 -5.377777777778e-04 
-6.169661166839e-04 2.164901621932e-04 0.0 
2.164901621932e-04 3.318852114050e-03 0.0 
0.0 0.0 -5.025510204081e-04 
-6.313959408309e-04 1.331766061821e-05 0.0 
1.331766061821e-05 3.562071063365e-03 0.0 
0.0 0.0 -5.155555555556e-04 
-6.676626850749e-04 8.412288321031e-06 0.0 
8.412288321031e-06 3.254047861299e-03 0.0 
0.0 0.0 -5.377777777778e-04 
-6.369390834618e-04 2.839501316983e-05 0.0 
2.839501316983e-05 3.557766628637e-03 0.0 
0.0 0.0 -5.155555555556e-04 
-6.757465811746e-04 2.011236031009e-05 0.0 
2.011236031009e-05 3.248279072062e-03 0.0 
0.0 0.0 -5.377777777778e-04 
-6.401862908150e-04 5.683403292324e-05 0.0 
5.683403292324e-05 3.544903684413e-03 0.0 
0.0 0.0 -5.155555555556e-04 
-6.710900969960e-04 7.145474225899e-05 0.0 
7.145474225899e-05 3.246321760371e-03 0.0 
0.0 0.0 -5.377777777778e-04 
-6.532826554523e-04 8.457965391973e-05 0.0 
8.457965391973e-05 3.553131858142e-03 0.0 
0.0 0.0 -5.155555555556e-04 
-7.020590348485e-04 7.312181654746e-05 0.0 
7.312181654746e-05 3.244705541191e-03 0.0 
0.0 0.0 -5.377777777778e-04 
-6.554115117610e-04 1.658740749447e-04 0.0 
1.658740749447e-04 3.237354480524e-03 0.0 
0.0 0.0 -5.377777777778e-04 
-6.559576634980e-04 1.237219721845e-04 0.0 
1.237219721845e-04 3.531755926188e-03 0.0 
0.0 0.0 -5.155555555556e-04 
-6.411111436525e-04 2.481500458011e-04 0.0 
2.481500458011e-04 3.407080026122e-03 0.0 
0.0 0.0 -5.358843537414e-04 
-6.803799837275e-04 1.624927648151e-04 0.0 
1.624927648151e-04 3.558426467577e-03 0.0 
0.0 0.0 -5.155555555556e-04 
-6.071805500676e-04 1.931534351074e-04 0.0 
1.931534351074e-04 3.157276706367e-03 0.0 
0.0 0.0 -5.269457109130e-04 
-6.672833179301e-04 -3.706793032750e-04 0.0 
-3.706793032750e-04 3.459056007774e-03 0.0 
0.0 0.0 -5.266666666667e-04 
-5.623773213514e-04 3.513666038768e-04 0.0 
3.513666038768e-04 3.271176697744e-03 0.0 
0.0 0.0 -5.266666666667e-04 
-6.406200246206e-04 -4.190627532400e-05 0.0 
-4.190627532400e-05 3.422026805713e-03 0.0 
0.0 0.0 -5.488888888889e-04 
-5.876041920701e-04 3.555034108668e-05 0.0 
3.555034108668e-05 3.319473246611e-03 0.0 
0.0 0.0 -5.044444444444e-04 
-6.130423435783e-04 2.369057836334e-04 0.0 
2.369057836334e-04 3.223253934296e-03 0.0 
0.0 0.0 -5.044444444444e-04 
-7.120623447180e-04 -8.888228388160e-05 0.0 
-8.888228388160e-05 3.852748437753e-03 0.0 
0.0 0.0 -6.044444444444e-04 
-6.732231856846e-04 3.548631982699e-05 0.0 
3.548631982699e-05 4.032087244247e-03 0.0 
0.0 0.0 -5.822222222222e-04 
-6.955393523700e-04 -2.756019485512e-05 0.0 
-2.756019485512e-05 3.717267839696e-03 0.0 
0.0 0.0 -6.044444444444e-04 
-6.699405789043e-04 -1.870355497797e-05 0.0 
-1.870355497797e-05 4.017496801865e-03 0.0 
0.0 0.0 -5.822222222222e-04 
-6.969243199369e-04 -6.918496173235e-06 0.0 
-6.918496173235e-06 3.707462619531e-03 0.0 
0.0 0.0 -6.044444444444e-04 
-6.724380775462e-04 -1.325710265715e-05 0.0 
-1.325710265715e-05 4.022403973257e-03 0.0 
0.0 0.0 -5.822222222222e-04 
-7.031503284102e-04 -1.402242021930e-05 0.0 
-1.402242021930e-05 3.711320333832e-03 0.0 
0.0 0.0 -6.044444444444e-04 
-6.728589234574e-04 -1.646685933992e-05 0.0 
-1.646685933992e-05 4.018646007482e-03 0.0 
0.0 0.0 -5.822222222222e-04 
-6.992489626615e-04 -7.571363959488e-06 0.0 
-7.571363959488e-06 3.708933191906e-03 0.0 
0.0 0.0 -6.044444444444e-04 
-6.759925803209e-04 -1.073738973976e-05 0.0 
-1.073738973976e-05 4.021950250257e-03 0.0 
0.0 0.0 -5.822222222222e-04 
-7.070575680629e-04 -7.158521352799e-06 0.0 
-7.158521352799e-06 3.711746084396e-03 0.0 
0.0 0.0 -6.044444444444e-04 
-6.791881166240e-04 -9.268059005098e-06 0.0 
-9.268059005098e-06 4.020971144871e-03 0.0 
0.0 0.0 -5.822222222222e-04 
-7.076120858666e-04 1.215276486099e-06 0.0 
1.215276486099e-06 3.712281244356e-03 0.0 
0.0 0.0 -6.044444444444e-04 
-7.999876507941e-04 1.388374683100e-05 0.0 
1.388374683100e-05 3.980152954303e-03 0.0 
0.0 0.0 -5.915759637188e-04 
-6.856124940247e-04 -4.086926393719e-06 0.0 
-4.086926393719e-06 4.027577169899e-03 0.0 
0.0 0.0 -5.822222222222e-04 
-7.178528616705e-04 -1.309284787321e-05 0.0 
-1.309284787321e-05 3.714901656250e-03 0.0 
0.0 0.0 -6.044444444444e-04 
-6.869874754798e-04 1.711534318409e-04 0.0 
1.711534318409e-04 3.792214840593e-03 0.0 
0.0 0.0 -5.693537414966e-04 
-6.864968275557e-04 -6.408579358670e-06 0.0 
-6.408579358670e-06 4.016159600688e-03 0.0 
0.0 0.0 -5.822222222222e-04 
-7.178783193932e-04 5.819993202574e-06 0.0 
5.819993202574e-06 3.708927247396e-03 0.0 
0.0 0.0 -6.044444444444e-04 
-7.079394544223e-04 1.566312145644e-04 0.0 
1.566312145644e-04 3.702391321003e-03 0.0 
0.0 0.0 -6.044444444444e-04 
-6.923166146099e-04 7.612225445440e-06 0.0 
7.612225445440e-06 4.017109289765e-03 0.0 
0.0 0.0 -5.822222222222e-04 
-7.279989213735e-04 2.036390614473e-05 0.0 
2.036390614473e-05 3.710913040149e-03 0.0 
0.0 0.0 -6.044444444444e-04 
-7.005874011261e-04 1.845814163449e-05 0.0 
1.845814163449e-05 4.020938657480e-03 0.0 
0.0 0.0 -5.822222222222e-04 
-7.354917532623e-04 2.057235382585e-05 0.0 
2.057235382585e-05 3.711839010969e-03 0.0 
0.0 0.0 -6.044444444444e-04 
-7.059732588437e-04 2.754521474697e-05 0.0 
2.754521474697e-05 4.015383430286e-03 0.0 
0.0 0.0 -5.822222222222e-04 
-7.002855080047e-04 1.990014593216e-04 0.0 
1.990014593216e-04 3.872918840521e-03 0.0 
0.0 0.0 -6.026870748299e-04 
-7.379521818036e-04 3.377279504907e-05 0.0 
3.377279504907e-05 3.707685656258e-03 0.0 
0.0 0.0 -6.044444444444e-04 
-7.121071295194e-04 4.529492266530e-05 0.0 
4.529492266530e-05 4.010298093341e-03 0.0 
0.0 0.0 -5.822222222222e-04 
-7.201910256190e-04 6.322353710792e-05 0.0 
6.322353710792e-05 4.009272868238e-03 0.0 
0.0 0.0 -5.822222222222e-04 
-7.467651792935e-04 5.478281511635e-05 0.0 
5.478281511635e-05 3.704632746345e-03 0.0 
0.0 0.0 -6.044444444444e-04 
-7.155345414404e-04 9.941872455418e-05 0.0 
9.941872455418e-05 3.968551508246e-03 0.0 
0.0 0.0 -5.822222222222e-04 
-7.657386443158e-04 4.703626451468e-05 0.0 
4.703626451468e-05 3.695451234596e-03 0.0 
0.0 0.0 -6.044444444444e-04 
-7.465034792929e-04 1.491483542401e-04 0.0 
1.491483542401e-04 4.023442400313e-03 0.0 
0.0 0.0 -5.822222222222e-04 
-7.198395015582e-04 1.725743928124e-04 0.0 
1.725743928124e-04 3.686227600280e-03 0.0 
0.0 0.0 -6.044444444444e-04 
-6.565140853496e-04 1.301780499699e-04 0.0 
1.301780499699e-04 3.583317050774e-03 0.0 
0.0 0.0 -5.804648526077e-04 
-6.267004692735e-04 -3.600267132829e-04 0.0 
-3.600267132829e-04 3.813319755553e-03 0.0 
0.0 0.0 -5.933333333333e-04 
-7.431964593305e-04 3.646450588748e-04 0.0 
3.646450588748e-04 4.021679577105e-03 0.0 
0.0 0.0 -5.933333333333e-04 
-6.628422468428e-04 -3.292224140382e-05 0.0 
-3.292224140382e-05 3.861928425764e-03 0.0 
0.0 0.0 -5.711111111111e-04 
-7.088162572225e-04 5.311123185713e-05 0.0 
5.311123185713e-05 3.959617699405e-03 0.0 
0.0 0.0 -6.155555555556e-04 
-6.769114540080e-04 1.825624503540e-04 0.0 
1.825624503540e-04 3.695515009073e-03 0.0 
0.0 0.0 -5.711111111111e-04 
-7.565067891625e-04 -1.155535297541e-04 0.0 
-1.155535297541e-04 4.407218847534e-03 0.0 
0.0 0.0 -6.488888888889e-04 
-7.530504053033e-04 -7.571813069496e-06 0.0 
-7.571813069496e-06 4.174991140514e-03 0.0 
0.0 0.0 -6.711111111111e-04 
-7.399837968145e-04 -1.387977928634e-05 0.0 
-1.387977928634e-05 4.486504988785e-03 0.0 
0.0 0.0 -6.488888888889e-04 
-7.729838338639e-04 -1.329064737435e-05 0.0 
-1.329064737435e-05 4.184890785187e-03 0.0 
0.0 0.0 -6.711111111111e-04 
-7.413687643813e-04 -3.949381470416e-07 0.0 
-3.949381470416e-07 4.494790911899e-03 0.0 
0.0 0.0 -6.488888888889e-04 
-7.742938489980e-04 3.545636067961e-06 0.0 
3.545636067961e-06 4.195489456373e-03 0.0 
0.0 0.0 -6.711111111111e-04 
-7.475947728547e-04 -1.447276125001e-05 0.0 
-1.447276125001e-05 4.508658415556e-03 0.0 
0.0 0.0 -6.488888888889e-04 
-7.647771457920e-04 -2.472289036545e-05 0.0 
-2.472289036545e-05 4.185138013304e-03 0.0 
0.0 0.0 -6.711111111111e-04 
-7.436934071060e-04 3.939866511849e-06 0.0 
3.939866511849e-06 4.492058634297e-03 0.0 
0.0 0.0 -6.488888888889e-04 
-7.721102977711e-04 1.191369759528e-05 0.0 
1.191369759528e-05 4.191715436034e-03 0.0 
0.0 0.0 -6.711111111111e-04 
-7.515020125074e-04 1.948179168996e-06 0.0 
1.948179168996e-06 4.504635429055e-03 0.0 
0.0 0.0 -6.488888888889e-04 
-7.788311265265e-04 -5.657460917598e-06 0.0 
-5.657460917598e-06 4.190705067530e-03 0.0 
0.0 0.0 -6.711111111111e-04 
-8.662964799625e-04 -2.454914467333e-05 0.0 
-2.454914467333e-05 4.459732268515e-03 0.0 
0.0 0.0 -6.580807474504e-04 
-7.520565303110e-04 1.109064528774e-05 0.0 
1.109064528774e-05 4.498175075181e-03 0.0 
0.0 0.0 -6.488888888889e-04 
-8.155020730708e-04 1.528373870012e-04 0.0 
1.528373870012e-04 4.186625771973e-03 0.0 
0.0 0.0 -6.711111111111e-04 
-7.586605293786e-04 2.791301751342e-05 0.0 
2.791301751342e-05 4.190794983268e-03 0.0 
0.0 0.0 -6.711111111111e-04 
-7.622973061150e-04 1.699730231297e-05 0.0 
1.699730231297e-05 4.505906138033e-03 0.0 
0.0 0.0 -6.488888888889e-04 
-7.955711925846e-04 8.033031112466e-08 0.0 
8.033031112466e-08 4.188331241414e-03 0.0 
0.0 0.0 -6.711111111111e-04 
-7.623227638377e-04 3.400576865185e-05 0.0 
3.400576865185e-05 4.489689491926e-03 0.0 
0.0 0.0 -6.488888888889e-04 
-8.006770446683e-04 3.868285750203e-05 0.0 
3.868285750203e-05 4.189917974469e-03 0.0 
0.0 0.0 -6.711111111111e-04 
-7.724433658179e-04 4.171040082635e-05 0.0 
4.171040082635e-05 4.499618609463e-03 0.0 
0.0 0.0 -6.488888888889e-04 
-7.971982277132e-04 4.334547048389e-05 0.0 
4.334547048389e-05 4.190772542348e-03 0.0 
0.0 0.0 -6.711111111111e-04 
-7.512535823419e-04 1.572109300169e-04 0.0 
1.572109300169e-04 4.272969555894e-03 0.0 
0.0 0.0 -6.358585252281e-04 
-7.799361977067e-04 4.942380984451e-05 0.0 
4.942380984451e-05 4.500436321571e-03 0.0 
0.0 0.0 -6.488888888889e-04 
-8.019717863413e-04 4.151088876834e-05 0.0 
4.151088876834e-05 4.184126944351e-03 0.0 
0.0 0.0 -6.711111111111e-04 
-7.823966262481e-04 7.184392993936e-05 0.0 
7.184392993936e-05 4.484862014071e-03 0.0 
0.0 0.0 -6.488888888889e-04 
-8.006840076862e-04 7.791811278218e-05 0.0 
7.791811278218e-05 4.176001510023e-03 0.0 
0.0 0.0 -6.711111111111e-04 
-8.039640851074e-04 1.263508000003e-04 0.0 
1.263508000003e-04 4.174705869658e-03 0.0 
0.0 0.0 -6.711111111111e-04 
-7.912096237380e-04 1.071509718730e-04 0.0 
1.071509718730e-04 4.477799006040e-03 0.0 
0.0 0.0 -6.488888888889e-04 
-8.101830887602e-04 1.288493200629e-04 0.0 
1.288493200629e-04 4.489610393156e-03 0.0 
0.0 0.0 -6.488888888889e-04 
-7.617757652904e-04 1.684528749010e-04 0.0 
1.684528749010e-04 4.355354044839e-03 0.0 
0.0 0.0 -6.691918585615e-04 
-7.171747419539e-04 1.190543822742e-04 0.0 
1.190543822742e-04 4.056731334660e-03 0.0 
0.0 0.0 -6.469696363393e-04 
-8.025731129306e-04 -3.241456630719e-04 0.0 
-3.241456630719e-04 4.358910586267e-03 0.0 
0.0 0.0 -6.600000000000e-04 
-7.344440083408e-04 3.911518351984e-04 0.0 
3.911518351984e-04 4.236731495882e-03 0.0 
0.0 0.0 -6.600000000000e-04 
-8.045282767906e-04 1.783825891024e-05 0.0 
1.783825891024e-05 4.360632635982e-03 0.0 
0.0 0.0 -6.822222222222e-04 
-7.310384794447e-04 6.338117589491e-05 0.0 
6.338117589491e-05 4.247438367621e-03 0.0 
0.0 0.0 -6.377777777778e-04 
-7.412727877556e-04 1.381235162240e-04 0.0 
1.381235162240e-04 4.183483937710e-03 0.0 
0.0 0.0 -6.377777777778e-04 

SCALARS element_materi_plasti_kappa_shear float
LOOKUP_TABLE default
2.048251484052e-03
1.753493670412e-03
5.503175940454e-03
5.633931869583e-03
3.565227349428e-03
4.312193749308e-04
3.536826958687e-03
1.942063469917e-03
3.582504689508e-03
5.588174946625e-03
3.844209359202e-03
1.631469581520e-03
5.512057153720e-03
3.809200862045e-03
5.604521952288e-03
5.734301458091e-03
3.547028291065e-03
0.0
1.240065727301e-03
1.171297693899e-03
5.622446392520e-03
2.066758337528e-03
2.250687853245e-03
4.978061567755e-03
4.048291547957e-03
4.106723662793e-03
3.275000549148e-03
5.494131578830e-03
4.059702375831e-03
5.136982028010e-03
1.134770329222e-03
3.832632936293e-04
5.695120532744e-03
4.786861567557e-03
5.372391993924e-03
5.735141668293e-03
5.753517229623e-03
5.201200685639e-03
3.236338684528e-03
3.281036968799e-03
2.549446708275e-03
5.321786045187e-03
1.684174276636e-03
3.149604634892e-03
5.511212370387e-03
1.565690788834e-03
3.220151479938e-04
5.403179619290e-03
4.290285994599e-06
3.669652725762e-03
2.409350294786e-03
1.545192749097e-03
1.201581906209e-03
2.359715905779e-03
5.581390730101e-03
2.049040073899e-03
1.507776831990e-03
4.806180650684e-03
9.040347839122e-04
5.734539432203e-03
0.0
5.036447355686e-03
2.389363153128e-03
1.200719454992e-03
5.502622384469e-03
2.208078500699e-03
0.0
5.645939813078e-03
1.388688876148e-03
5.450080675048e-03
4.240450452081e-03
5.844447616816e-03
5.127619557211e-03
3.940968838014e-04
2.067872878458e-03
5.628694369718e-03
5.723406412390e-03
1.349407449673e-03
8.084468878613e-04
1.429030436915e-03
1.215963319167e-03
3.393097464491e-03
2.129508046084e-03
1.864830702236e-03
3.733526205207e-03
3.714125906962e-03
4.361075697200e-03
4.690746124938e-03
4.783172209268e-03
3.514212606547e-03
2.589608648574e-04
3.431550400288e-03
4.721859888672e-03
4.746077057757e-03
5.997543046696e-03
5.411150761547e-03
3.393913313148e-03
5.491004293201e-03
3.985594967259e-03
2.258571385844e-03
3.410992711845e-03
5.611034212900e-03
4.179507938013e-03
5.032886742806e-03
2.003062331599e-03
8.956760759699e-04
5.221382607798e-03
5.045193140480e-03
2.261908350145e-04
5.486842463624e-03
4.573653062054e-03
3.479980613032e-04
2.502076270832e-03
3.167763418157e-03
2.487000496226e-03
2.126059688753e-03
2.273861626040e-03
5.451016480833e-03
3.919789090778e-03
2.281181173819e-03
1.213076248653e-03
3.513689619667e-03
4.941959880695e-03
2.106608397091e-03
9.726897685994e-04
2.859921274722e-03
2.565005698292e-03
2.680460766149e-03
5.737782286007e-03
9.785758943601e-04
4.027728111069e-03
5.636355074510e-03
2.835365156538e-03
2.709046400113e-03
5.353249069116e-03
5.532349028915e-03
4.348743351020e-03
2.978900291729e-03
5.411429688504e-03
2.744221608962e-03
5.616125922486e-03
5.613692443859e-03
3.766204035722e-03
4.391065799997e-03
2.718404295077e-03
2.533253388883e-03
3.087137023846e-03
2.200470782986e-03
3.492820352654e-03
2.363376362537e-03
2.621382727248e-04
3.747049311015e-03
8.605114628174e-04
3.020514546332e-03
5.290806449770e-03
2.186313469297e-03
4.518027699077e-03
1.606142966517e-03
4.209701847449e-03
3.408465456370e-03
2.321856290079e-03
4.941287181334e-03
1.029170670083e-03
5.207270841350e-03
3.386399557435e-03
5.629077659096e-03
3.402534046100e-03
2.143777464895e-03
2.980585492464e-03
3.978529564445e-03
1.797981043136e-03
2.131947395522e-03
4.565545625096e-03
3.526561441315e-03
2.292273163024e-03
2.831954602171e-03
4.902639283245e-03
2.846109516762e-03
5.344131269157e-03
5.581762834167e-03
2.045482988632e-03
2.739998364567e-03
4.670836610536e-03
2.636378907130e-03
1.901753547338e-03
3.276383508295e-03
2.394214224877e-03
5.640432630144e-03
4.649191975422e-03
5.084010659975e-03
1.450852845402e-03
1.891185196908e-03
4.756649167095e-03
0.0
2.645910748192e-03
4.353987082835e-03
6.693198157630e-04
5.577145383260e-03
4.311674069402e-03
2.424063329831e-03
4.308254875087e-03
3.768016172911e-03
3.975429040763e-03
5.123403257528e-03
1.968551576487e-03
3.168679698929e-03
3.489417411141e-03
4.497775965736e-03
3.554143506731e-03
3.272990497602e-03
3.636148199777e-03
4.777873359821e-03
0.0
2.054332000673e-03
2.292338041600e-03
3.059823040950e-03
4.848669964181e-03
7.411939793981e-04
4.203239612195e-03
3.403528574950e-03
2.120618832016e-03
4.069098148087e-03
4.246264766717e-04
4.599464078276e-03
3.476148306084e-04
5.410341703710e-04
1.592193211171e-03
1.719248331945e-03
4.782293510667e-03
1.815734887217e-03
1.844404593867e-03
1.618505664870e-03
1.146822852731e-03
4.464359441945e-03
3.377702223347e-03
5.506088258921e-03
0.0
2.009805297429e-03
2.302243100894e-03
2.481153461484e-03
4.143768537590e-03
5.606441244158e-03
4.559795208237e-03
1.455328493326e-03
4.488396010045e-03
4.213382192652e-03
3.236971907541e-03
4.423237357451e-03
5.173514376653e-03
2.134179776736e-03
1.811135889082e-03
3.825403090103e-03
5.999008670889e-03
3.128792099484e-03
2.778892560238e-03
3.812433277429e-03
1.356034459876e-03
3.547869395678e-03
1.821956586395e-03
1.071898620409e-03
6.878759182499e-04
4.770342255613e-03
3.657761913000e-03
2.301185800403e-03
4.951131887675e-03
4.665409177491e-03
3.411799966359e-03
5.452188912108e-03
2.908585602061e-03
3.583300261965e-03
2.605219249823e-03
3.100950466365e-03
1.347698524684e-03
3.414342947476e-03
2.155049212513e-03
1.385737165103e-03
4.542488046730e-03
0.0
3.716563633638e-03
1.636449720064e-03
1.774524551335e-03
8.033729531877e-04
3.926631031118e-03
7.929613934373e-04
2.439400741018e-03
3.230296274809e-03
3.653257839111e-03
3.792551444783e-03
3.394897168044e-04
9.779464977480e-04
1.639638944485e-03
2.170597973029e-03
4.441924025952e-03
2.403845489855e-03
2.012179680430e-03
2.055407645936e-03
5.690441180567e-04
2.724975474439e-03
1.566269675286e-03
5.958720739140e-03
5.939193914372e-03
3.244445123059e-03
1.612814842720e-03
1.675996184199e-03
3.688319290741e-03
1.425607672630e-03
1.036406456605e-03
3.253099720127e-03
5.778400585500e-03
1.895871873376e-03
3.666527252036e-03
1.635469508028e-03
5.660443835014e-03
1.865154342382e-03
3.342266076335e-03
6.537557986608e-04
3.435463054255e-03
2.276354288028e-03
1.404210939028e-03
3.486331641573e-03
5.890375541845e-03
1.783256592408e-03
3.221814678744e-03
1.690872941280e-03
4.262668196764e-03
3.989554513863e-03
1.870987437432e-03
4.157903845114e-03
5.833143474624e-03
4.319705339619e-03
5.914245466119e-03
4.107732014025e-03
4.587246752330e-03
1.718940221779e-03
3.216971996294e-03
3.590070658515e-03
3.756282744682e-03
2.945710028405e-03
5.788099092437e-03
3.944002213719e-03
3.448909530710e-03
1.863265499764e-03
1.455277505311e-03
3.108638757878e-03
2.053960887931e-03
3.540174196265e-03
1.877423184664e-03
1.615583361797e-03
4.717172209803e-03
1.879339039984e-03
3.325468032698e-03
3.338062058546e-03
3.118061036031e-03
5.704944762881e-03
2.801276760200e-03
7.929235320681e-04
2.475643465383e-03
1.888885188254e-03
2.000012791094e-03
4.954048188006e-03
3.495259464146e-03
2.461309541375e-03
3.062435080318e-03
5.651875251926e-03
5.274977967438e-03
4.935750800823e-03
4.617112825186e-03
3.065607714073e-03
2.469090313365e-03
1.133689513580e-03
1.302424423879e-03
3.315397022365e-03
3.332601828915e-03
2.997347446124e-03
5.010744987465e-03
1.001431061527e-03
2.758819764694e-03
3.419306053386e-03
2.519448693487e-03
5.922741708314e-03
5.955236189705e-03
5.576307705796e-03
3.343577244616e-03
4.936203495640e-03
1.952709186338e-03
1.572206337786e-03
8.348386301078e-04
2.556685105345e-03
3.397790353165e-03
4.097341444589e-03
5.360765443340e-03
4.855340331116e-03
3.816589750238e-03
3.860243568889e-03
1.042497557085e-03
9.358115372942e-04
2.519797185523e-03
3.004979550758e-03
2.619929927174e-03
9.216036177596e-04
3.654326841485e-03
1.535889856870e-03
1.965274985910e-03
5.542217875605e-03
3.765591558978e-03
3.443419406157e-03
9.148022967595e-04
3.000502477848e-03
2.382905503139e-03
3.927650911988e-03
5.879566310260e-03
3.223720713770e-03
3.674901719203e-03
2.887355925381e-03
4.891146742092e-03
3.418978839809e-03
5.856068981647e-03
5.774980459743e-03
5.817447372982e-03
5.770330115021e-03
4.031402203216e-03
4.901935106937e-03
5.053219238746e-03
2.608302338338e-03
2.534090737438e-03
2.864377718296e-03
5.021604322951e-03
5.804877108405e-03
5.054229152364e-03
3.432032663523e-03
5.068372728808e-03
4.092526629085e-03
2.882253780089e-03
2.587573265554e-03
1.635529725768e-03
5.632439227330e-03
2.459501711046e-03
5.142282866551e-03
2.763464966764e-03
2.028101785968e-03
5.246511047736e-03
2.055425638514e-03
5.758655944435e-03
5.581996474530e-03
3.601464432629e-03
2.874317802878e-04
5.722474487266e-03
5.230794359339e-03
1.560316552400e-03
3.558601806016e-03
5.699626342238e-03
0.0
2.660857434825e-03
3.779907730678e-03
3.423227498078e-03
3.515796245568e-03
1.920364726314e-03
5.673636790495e-03
1.884624729070e-03
1.324523675438e-04
5.578498981548e-03
5.002872014388e-04
2.903489307071e-03
7.102088304152e-04
3.105385424469e-03
5.637939698663e-03
5.643493109987e-03
3.759896198982e-03
6.466604743843e-04
2.581016059907e-06
1.306561031608e-03
4.781936084338e-03
3.544667014514e-03
3.591768567503e-03
5.600982036969e-03
3.550458207037e-03
5.978204257671e-03
4.194064998041e-03
3.966369650588e-03
2.069110227023e-03
3.555873876722e-03
1.287977702152e-03
5.563443599679e-03
5.770828452205e-03
5.803925315002e-03
3.535689664887e-03
2.718540240995e-03
2.810036151372e-03
3.607200195359e-03
5.538358032675e-03
1.640374573165e-03
1.295740147429e-03
1.612091026105e-03
4.134625190794e-03
5.683102620147e-03
9.751937677048e-04
5.520122581297e-03
1.677390207142e-03
5.751046272795e-03
5.068488904679e-03
5.986160827208e-04
2.695519082935e-03
5.116907936890e-03
5.706785168037e-03
4.029434435152e-03
4.284615340903e-03
1.266337359964e-03
4.952953356985e-03
1.912176692629e-03
1.970550124934e-03
6.041211163242e-04
5.656733513692e-03
1.182133657821e-03
4.542952953281e-03
3.833323984522e-03
2.139158319596e-03
1.714726693588e-03
3.853402172132e-03
5.579172664692e-03
2.774393020232e-03
3.942313972036e-03
3.310099650091e-03
3.368941039505e-03
1.606723124076e-03
3.637032700867e-03
3.197994162511e-03
4.208731222359e-03
3.883013032915e-03
3.120071939876e-03
2.732828783826e-03
1.823514764933e-03
2.627670573605e-03
4.181475254094e-03
3.004073412555e-03
5.656674172997e-03
5.232907453581e-03
1.823811427345e-03
5.507514049442e-03
5.342333532244e-03
2.747952667688e-03
4.382088383837e-04
5.694608369003e-03
5.185125812822e-03
1.765229900577e-03
5.538258443366e-03
3.827720443377e-03
2.679180912128e-03
3.704599732640e-03
2.883358424601e-03
3.255701293151e-03
3.509234741566e-03
4.329946724555e-03
2.998532943868e-03
4.098742247155e-03
4.047052255275e-03
2.859932710936e-03
3.672333583242e-03
2.211642543694e-03
3.881327088903e-03
2.317754686702e-04
2.007422663305e-03
2.062503183499e-03
3.040900024033e-03
2.964066277893e-03
3.726763647670e-03
4.021852142269e-03
2.125448120930e-03
5.567560434823e-03
3.763638072718e-03
3.188675817690e-03
3.577463415310e-03
3.136039882304e-03
0.0
3.881554513065e-03
2.640906468370e-03
1.601175916693e-04
3.049084665278e-03
4.039018151325e-03
5.107511769800e-03
3.179382722343e-03
3.272183804054e-03
3.333812579699e-03
3.138774507408e-03
5.602858950170e-03
3.388266387592e-03
4.889835681516e-04
1.262830355438e-03
3.403732711760e-04
2.039797041705e-03
4.886593675055e-03
5.135074580473e-03
4.569733804699e-03
2.205347307067e-03
3.963428270317e-03
4.644691033612e-03
4.480010223363e-04
2.667099209261e-03
2.160248377513e-03
5.721042981994e-03
5.580105102775e-03
2.939481999310e-03
3.271315706566e-03
3.310083848978e-03
4.812160421875e-03
1.230172725071e-03
4.495251994924e-03
6.428633528680e-04
2.999374668151e-03
3.265631012540e-03
2.192679874259e-04
2.777613716051e-03
5.213183738870e-03
4.661553375830e-04
3.125223871850e-03
3.264611202798e-03
3.668691180679e-03
2.191299816666e-03
1.929490898902e-03
1.801992614561e-03
5.021357309615e-03
5.413378247578e-03
4.938730896674e-03
1.962629389648e-03
7.396549693112e-04
3.052559415623e-03
3.136955965337e-03
3.283077438816e-03
1.598687307509e-04
2.193472717883e-04
5.176799582362e-04
1.646399827615e-03
4.476010659487e-04
3.103497725519e-03
0.0
1.933359932912e-03
4.174873570305e-03
3.277162825819e-03
5.055738530347e-03
3.910516641519e-03
3.910699350519e-03
2.335203039295e-03
6.321407009922e-04
5.850638891353e-03
6.009929428425e-03
3.804106063636e-03
3.142498704503e-03
2.378074668671e-03
6.000434500276e-03
1.932646254916e-03
3.261134435714e-03
3.129035808385e-03
2.954670140417e-03
5.838142907149e-03
5.995969196951e-03
4.354125543212e-04
1.813212541407e-04
9.186762200650e-04
3.162862848184e-03
5.377931686408e-03
0.0
4.886021985717e-03
0.0
3.610910406558e-03
3.669816600871e-04
9.031669178812e-05
3.461382625694e-03
5.195804270535e-03
4.290192669085e-03
3.148248508174e-03
2.197475915269e-04
4.109795966881e-03
5.851848957564e-03
6.003781657386e-03
3.276367122740e-03
3.775548124396e-03
5.863438389457e-03
4.268339267121e-03
6.020741917649e-04
4.453789533022e-04
2.347376138707e-04
2.636386499780e-03
5.872831094669e-03
5.638106297545e-03
1.897411018069e-04
3.087998710897e-03
5.740465009782e-03
5.879140074132e-03
5.731117611362e-03
4.595061384764e-03
5.043133831470e-03
5.707378045359e-03
5.713124045283e-03
4.886059613206e-03
4.831364360602e-04
3.253485872106e-03
3.293767224568e-03
1.826916767147e-04
5.690406926254e-03
5.768685902519e-03
5.617484584069e-03
4.524110312699e-04
4.596449148217e-04
5.588283914655e-03
5.603110956582e-03
4.452788727497e-03
3.251601896083e-03
4.737759423841e-03
3.834702661819e-03
3.246459497800e-03
5.228246461019e-04
4.912700086981e-04
4.440043287774e-04
5.321378525866e-04
3.250169139528e-03
2.937145446359e-03
0.0
4.118703550062e-03
0.0
5.832195033359e-03
5.846499430745e-03
5.850716816551e-03
1.037380994288e-03
2.016748291347e-03
5.852662976723e-03
4.973191529565e-03
5.880964851940e-03
5.257570989653e-03
5.538666694917e-03
2.787880833422e-03
6.016271676808e-03
6.012463975420e-03
5.083244388473e-03
5.379690173722e-03
4.387421699504e-03
0.0
2.857162677749e-03
4.252814149356e-04
5.079913712272e-03
2.910266083999e-03
4.760106554014e-03
1.643649883448e-03
5.383120855226e-04
5.098955867833e-03
3.125495581336e-03
2.489884669676e-03
4.818967528395e-03
5.278656552725e-03
2.495305030192e-03
4.255398696545e-03
3.844899893988e-03
4.331079183945e-03
4.483284984887e-03
1.722961733981e-03
2.890176896868e-03
2.847631786202e-03
4.036906121347e-03
4.963877593991e-03
4.634026856991e-03
1.657361628813e-03
5.268660436221e-03
4.977116357189e-03
3.619668627054e-03
4.170717328187e-03
4.186883659402e-03
5.342654512254e-03
5.152017188017e-03
3.775019514809e-03
5.233037882857e-03
4.914729909785e-03
4.640974992131e-03
5.247897151359e-03
5.303240859678e-03
4.541244193091e-03
4.128098936937e-03
1.538774070067e-03
1.637170348017e-03
8.927698521496e-04
6.525183474627e-04
5.158931490191e-03
5.044076979222e-03
5.868956833529e-04
5.121589647054e-03
3.733179451095e-03
4.678226682694e-03
4.762287906690e-03
2.074136809097e-03
4.809627862755e-03
3.622602601676e-03
3.895447150765e-03
5.345962366384e-03
1.472811966339e-03
5.235843009349e-03
4.707105507548e-03
1.674998648871e-03
1.997272543898e-03
3.477442011437e-03
4.193455430159e-03
2.343630985594e-03
4.867641149368e-03
4.387482060233e-03
3.338211884839e-03
4.524321097962e-03
4.677832988923e-03
4.679006337696e-03
1.339663578638e-03
3.198638979897e-03
4.633717260275e-03
4.840387351562e-03
2.897016443790e-03
3.936845676204e-03
5.082736818756e-03
4.511744960806e-03
3.674133562234e-05
7.677090780190e-04
5.119753373391e-04
4.910516809545e-03
4.354991661180e-03
3.826914815962e-03
3.891439679493e-03
4.711856603342e-03
3.483739004670e-03
4.620031677450e-03
1.591598461033e-03
5.218249190632e-03
3.412412426767e-03
1.736686848489e-03
3.262202328444e-03
2.478917580480e-03
2.035103586398e-03
3.755154455874e-03
1.564516804578e-04
1.127981756129e-04
4.252374733298e-03
1.464746990371e-03
4.246030270520e-03
4.094375942875e-03
2.616673579752e-03
1.812766898726e-03
5.102254688752e-03
3.465488540583e-04
2.625027282395e-03
4.837002714089e-03
1.192572476611e-03
4.082383260840e-03
3.767466409166e-03
1.326156531730e-03
4.910591653427e-03
4.645125771511e-03
1.410538395916e-03
5.226535373693e-03
5.199234746316e-03
1.660825990561e-03
2.070362284012e-03
1.741360747490e-03
4.534233564243e-03
3.626195608604e-03
5.169455195403e-03
5.078103462266e-03
4.392922361779e-03
4.325015664707e-03
1.344427675979e-03
4.473065100284e-03
4.621187335039e-03
3.681381110048e-03
4.381240135388e-03
4.808400950473e-03
2.590644772933e-03
4.947620929573e-03
3.085734269789e-03
3.550246213813e-03
2.335827574008e-03
2.490782004144e-03
4.488879741826e-03
3.165999505287e-03
1.852051741299e-03
9.795830009428e-04
4.513242120104e-03
1.766306002376e-03
5.166203144739e-03
4.649805208552e-03
4.614388070238e-03
5.225667178668e-03
2.979037457551e-03
1.585841628710e-03
1.011992460365e-03
4.379665078225e-03
4.223445145250e-03
6.765581779648e-04
2.432707948999e-03
1.398956561073e-03
4.216513153533e-03
2.555838114567e-03
4.011146820245e-03
2.390150431536e-03
5.006027676208e-03
2.059652164516e-03
4.350001019912e-03
1.794811250637e-03
4.222069039724e-03
3.406036415107e-03
4.462021920913e-03
1.339917336666e-03
1.350299010952e-03
3.939048831294e-03
3.691324572910e-03
2.830557802011e-03
4.239747352825e-03
1.991260803131e-03
4.297758287115e-03
1.272590086592e-03
4.947061823839e-03
3.839114394118e-03
4.100469873386e-03
5.406352818554e-03
3.435279919526e-03
1.276251192001e-03
3.890812531652e-03
5.018055530162e-03
2.209550982896e-03
4.531906710769e-03
4.676467859059e-03
1.712191406574e-03
4.059355262125e-03
3.877866350654e-03
1.909658390552e-03
2.315039142321e-03
3.261954618660e-03
4.303145841247e-03
2.635421671348e-03
3.059028444222e-03
4.459399445595e-03
4.056901073063e-03
3.999117941319e-03
3.350783493908e-03
4.741842824469e-03
3.716486713275e-03
3.922920566098e-03
5.252343855285e-03
4.304735037625e-03
4.138095280470e-03
4.783696522489e-03
2.607621039471e-03
2.469838949813e-03
1.432823964346e-03
4.007204605408e-03
2.590823974833e-03
4.347452842024e-03
4.183394403681e-03
2.669547662572e-03
2.085784252471e-03
1.474019061621e-03
2.212107321881e-03
2.350809507915e-03
1.463075537230e-03
4.569504511566e-03
2.669001313969e-03
4.972812165115e-03
2.750604982809e-03
3.790160523716e-03
3.207941504412e-03
2.889645016640e-03
1.541106990513e-03
4.841361927258e-03
5.091339779464e-03
4.032052527629e-03
2.472525954974e-03
3.495149155929e-03
4.324118500003e-03
2.732643322525e-03
2.578422691737e-03
2.150698556139e-03
2.106845042594e-03
2.726649439388e-03
1.894721435353e-03
1.784390543315e-03
3.334917325845e-03
3.967235808941e-03
4.797201624805e-03
4.779022984785e-04
2.400918837851e-03
2.556449603619e-03
2.577694805080e-03
4.159825931864e-03
2.931072335017e-03
2.192293877224e-03
2.827325159198e-03
4.815904702500e-03
2.276675714296e-03
8.000720813987e-04
1.154840506689e-03
1.907795704096e-03
2.221538328191e-03
2.622719745119e-03
2.913483858148e-03
1.764083930753e-03
1.225103944880e-03
3.978408581491e-03
1.973233867528e-03
4.352924711069e-03
4.600918209764e-03
3.992519858041e-03
5.014455028265e-03
4.977573847805e-03
2.548565445421e-03
4.312209701199e-03
1.977881610171e-03
2.972886214248e-03
2.522487306746e-03
1.343329153242e-03
1.686644144900e-03
2.487335316614e-03
2.744769011227e-03
2.804656212940e-03
2.029273826370e-03
3.023258905964e-03
2.603498899914e-03
2.484258941744e-03
2.359041018273e-03
3.843548607210e-03
4.482822863784e-03
2.260889845850e-03
4.670023540639e-03
2.097337949930e-03
5.002347225511e-03
2.827679967364e-03
5.203491602561e-03
3.947077556837e-03
1.774963125665e-03
4.099246498151e-03
5.100371074435e-03
2.915547663855e-03
2.161634842982e-03
4.202460859535e-03
3.063723291001e-03
1.589122566935e-03
5.594818322494e-03
1.323577671794e-03
4.905374215111e-03
5.240056690777e-03
4.004250475148e-03
4.022036132739e-03
4.908739948371e-03
2.656489500895e-03
3.014023661640e-03
5.295279977407e-03
4.266560699203e-03
4.614700973159e-03
3.798037729663e-03
1.755388368310e-03
4.742604083367e-03
5.518069405150e-03
5.004957839638e-03
2.836493463262e-03
4.042556476747e-03
3.862526569830e-03
2.990307102709e-03
4.091149418794e-03
4.218450148723e-03
1.096098833511e-03
1.326857373094e-03
2.403878583947e-03
2.433427464003e-03
2.925956778214e-03
5.469614393342e-03
5.117047102826e-03
5.259865256129e-03
2.804866215072e-03
4.812380906171e-03
4.181034339560e-03
5.346185944049e-03
4.575117160927e-03
3.073764877658e-03
2.227900412936e-03
4.723026116701e-03
5.199457669429e-03
4.754736712479e-03
4.593382364392e-03
4.706207203460e-03
4.760938801400e-03
4.529156841862e-03
3.673004527565e-03
2.793183285108e-03
4.176641122849e-03
4.482872570103e-03
1.720752477746e-03
2.523073950019e-03
2.936964334964e-03
3.355527503238e-03
6.764221038374e-04
2.312131514981e-03
3.694823953479e-03
3.162738673778e-03
3.106094428709e-03
4.275586722866e-03
3.420444478414e-03
8.056313501550e-04
3.608028323112e-03
4.113825723424e-03
5.289575565494e-03
2.786040332148e-03
3.385556211389e-03
4.320502265356e-03
1.220460717409e-03
3.955179298540e-03
3.165570628649e-03
3.317308554295e-03
4.304146306300e-03
1.881742204703e-03
4.432932293431e-03
4.823215265074e-03
3.806542070162e-03
4.778108728743e-03
4.481570645652e-03
4.886746565618e-03
1.498086320626e-03
4.448193879400e-03
4.826216477314e-03
4.887560636574e-03
3.468158111994e-03
2.473653699252e-03
3.471604947544e-03
3.515654411098e-04
5.048129172683e-03
1.854985291829e-03
1.640845901064e-03
4.384273219759e-03
5.379705512614e-03
1.962931709496e-03
3.460402464098e-03
4.556944250926e-03
3.383719843055e-03
1.271639043889e-03
2.155596217495e-03
1.530379692595e-03
1.562946298421e-03
1.725992673060e-03
3.128123404018e-03
5.978757202265e-03
1.878932715142e-03
4.874265144995e-03
2.021312508689e-03
4.410645559788e-03
5.446402050903e-04
5.032053835528e-03
1.857540691758e-03
2.167450437020e-03
4.007316872521e-03
2.865792508923e-03
4.633094935503e-03
2.352487737097e-03
4.663962013380e-03
4.869204411424e-03
4.429689118342e-03
5.301599282418e-03
4.867555126114e-03
4.994292368552e-03
1.585731642834e-03
4.731482311295e-03
4.686031286375e-03
2.832067385881e-03
2.158927091379e-03
5.079003029780e-03
9.596911832810e-04
2.094098399874e-03
4.422688948064e-03
1.248071604353e-03
3.111224166074e-03
4.143397073039e-03
5.269510986050e-03
5.404504160547e-03
4.032131518506e-03
5.035214563043e-03
2.288963266599e-03
4.497236254835e-03
2.449891336582e-03
5.141368132138e-03
2.751749660152e-03
2.878729614698e-03
2.670941398415e-03
3.064327322831e-03
3.458691017845e-03
2.658280149013e-03
2.653753714281e-03
9.811593336372e-04
2.441082358799e-03
5.179437752949e-03
5.268578940823e-03
4.434728242993e-03
4.747389467129e-03
2.702179599475e-03
4.975773677779e-03
2.582283479392e-03
4.888861475010e-03
4.848446586375e-03
4.829227704648e-03
3.615324373437e-03
2.341624150185e-03
4.784583869030e-03
3.957491419921e-03
1.700601644229e-03
7.020950745825e-04
2.481218771102e-03
3.497363371298e-03
5.046415826891e-03
4.704605430921e-03
2.322695645322e-03
3.926363227239e-03
4.300034730448e-03
5.071297943610e-03
4.988482903574e-03
4.232489050894e-03
4.476485377380e-03
2.821806331728e-03
4.336206174646e-03
3.171626869689e-03
5.322298740710e-03
5.194634648291e-03
3.273686732189e-03
5.984151931342e-04
4.585743008913e-03
3.386888275758e-03
2.214504551746e-03
3.505745048799e-03
4.392421827443e-03
8.649412715447e-04
2.929672516780e-03
4.200855765301e-03
5.106738436651e-03
4.301405107970e-03
4.492473167653e-03
4.094600791655e-03
3.873742424529e-03
4.049253002460e-03
4.546913092459e-03
4.646225374320e-03
4.523702894857e-03
5.390087395959e-03
3.985020216099e-03
1.618655921059e-03
4.788488793259e-03
5.359924628782e-03
3.005660619524e-03
3.223226449347e-03
1.971525089256e-03
4.648699280585e-03
2.766011387022e-03
3.573201295524e-03
2.703531881720e-03
4.214659544868e-03
5.069771484117e-03
2.121431133427e-03
4.058193802695e-04
5.341003982022e-03
2.920796651996e-03
2.806031036896e-03
4.893352200413e-03
4.541058644014e-03
4.477853504311e-03
2.415871683082e-03
1.091173224408e-04
5.297107160487e-03
3.566992170965e-03
3.964772993216e-03
4.908749566295e-03
0.0
4.396335016970e-03
1.721264210827e-03
4.247426129010e-03
3.657351708374e-03
2.094475387503e-03
4.954039962137e-03
3.497476297263e-03
1.752352387144e-03
3.730384878291e-03
3.763523260525e-04
4.296335070821e-03
4.232332728487e-03
5.300157964833e-03
4.591233936654e-03
1.028298279476e-03
4.511210016349e-03
5.453521427974e-03
5.267588892161e-03
4.434702429965e-03
2.462650568201e-03
4.009248660887e-03
5.046804183108e-03
3.535212461732e-03
4.396897747975e-03
4.393389450935e-03
4.800902351973e-03
4.606296382436e-03
3.122680214006e-03
3.120274423476e-03
4.382256899136e-03
4.111044512030e-03
3.813633009546e-03
4.221320453715e-03
3.279774802709e-03
4.769766446077e-03
2.542727818688e-03
5.983048558159e-03
3.591210545370e-03
3.168624506568e-03
3.557292247720e-03
9.531416278352e-04
3.230009085735e-03
3.834311612934e-03
3.683361306900e-03
4.361379102542e-03
4.324884584529e-03
4.497716242812e-03
9.296305416927e-04
3.000738260246e-03
2.877206011432e-03
4.129391706328e-03
4.309346871824e-03
4.660717579237e-03
1.390083491195e-03
1.337430359801e-03
3.372007376568e-03
3.118387867984e-03
2.908488767762e-03
3.071482520293e-03
4.375276169837e-03
1.579296571718e-03
3.441254145347e-03
4.169540997438e-03
5.233780527266e-04
5.376588438414e-03
5.149299469470e-03
3.407577951504e-03
4.596633708749e-03
5.291684185247e-04
4.017860612446e-03
3.529401166009e-03
5.097626183355e-04
5.132298664917e-03
7.847782572497e-04
4.127046447011e-03
3.654659147826e-03
2.736631618381e-03
3.532903553380e-03
5.264031271081e-03
3.850209962935e-03
3.431861875086e-03
3.323620881928e-03
5.457679815637e-04
4.250590229059e-04
4.681238603658e-03
4.043631383605e-03
4.795280597812e-03
2.001212315519e-03
4.830518942522e-03
4.896214853729e-03
3.151597474926e-03
4.683508434643e-03
4.666996016599e-03
3.909137558089e-03
3.276352252530e-03
3.497938959203e-03
5.375951367089e-03
3.220959364287e-03
3.760026043850e-03
3.137860209432e-03
4.172566943858e-03
2.940253828481e-03
1.143043258969e-03
3.094440534048e-03
1.421741084883e-03
4.229813709731e-03
1.395709131982e-03
4.036588971796e-03
4.570721815773e-03
4.340933322801e-03
2.781057843546e-03
4.194893651729e-03
4.753168581798e-03
4.818117472809e-03
1.337755850323e-03
4.137746118188e-03
5.209940225679e-03
2.346590375691e-03
3.683805328026e-03
7.449910221542e-04
4.902778118811e-03
1.132231217255e-03
3.562582783365e-03
3.984078078079e-03
4.208916939956e-03
4.023939684233e-03
3.635866043279e-03
2.594201963328e-03
2.755506096816e-03
4.964224152630e-03
3.752359726194e-03
3.049378824758e-03
3.951824469440e-03
2.751998479851e-03
1.270610342763e-03
2.569385874887e-03
3.772607831583e-03
3.271605333460e-03
4.369076492911e-03
2.705575969413e-03
5.066065955323e-03
4.914430261524e-03
2.994647378897e-03
5.394625854804e-03
1.628019428153e-03
4.948546199405e-03
3.599675338089e-03
3.985333370223e-03
4.676994841526e-03
2.599416272208e-03
3.952410327413e-03
2.849041735521e-03
3.845590045576e-03
1.946537266926e-03
4.082691990806e-03
2.599671966463e-03
3.723013565829e-03
3.865662068831e-03
5.887470109934e-04
3.453775351858e-03
1.200495782290e-03
9.684342886303e-04
3.597379235346e-03
4.690298881192e-03
4.138119897075e-03
2.292437587727e-03
5.849140828973e-03
1.853697180041e-04
2.448985812848e-03
3.130150269506e-03
3.550843563428e-03
2.957877931277e-03
1.876075245636e-03
3.442132234492e-03
3.806568376354e-03
3.777536702449e-03
4.965844843458e-03
1.161492389179e-03
3.317749060185e-03
3.622478808600e-03
2.112089838123e-03
3.317999481308e-03
4.153535609678e-03
4.505816054949e-03
6.237202834362e-04
0.0
1.573012222717e-03
3.691965033318e-03
1.969230988537e-03
1.898292932230e-03
1.294352397267e-03
3.753016074333e-03
4.366198405172e-03
3.768697917664e-03
1.871438903480e-03
4.121048902823e-03
3.672677354322e-03
4.305538666813e-03
3.830322098392e-03
3.828543141580e-03
1.984443132618e-03
2.202423137924e-03
3.907189118964e-03
4.304428646692e-03
4.049985857339e-03
2.152295599124e-03
3.904305982153e-03
2.181745308855e-03
1.601820863611e-03
4.956049478681e-03
1.401476559850e-03
2.111889315513e-03
3.321047263052e-03
2.268346872781e-03
3.969667780703e-03
1.889119106674e-03
3.396365532197e-03
3.971070620537e-03
2.946304068913e-03
3.537025974587e-03
1.811375157662e-04
5.205294236013e-03
2.387586220924e-03
4.665614783562e-03
3.968807703245e-03
4.049703598051e-03
4.107544981389e-03
1.695791505847e-03
1.026663475019e-03
1.642477002780e-04
4.189723483469e-03
4.659166707092e-03
2.346343365981e-03
4.226192121581e-03
2.191228217425e-03
4.314363055978e-03
5.445403603490e-03
0.0
5.877232482387e-03
5.753927133567e-03
3.517916756623e-03
2.567108847699e-03
3.885798105456e-03
1.761253100682e-03
8.753437067106e-04
5.824479928858e-04
5.430593790634e-03
4.272773126407e-03
3.281421806576e-03
5.755399577457e-03
1.584674166795e-03
5.735458500835e-03
4.260634587508e-03
2.681067374150e-03
3.703032091483e-03
2.313425682848e-03
1.747876205062e-03
2.269306335304e-03
4.472296584069e-03
5.084185534072e-03
2.122483088170e-03
4.416764738030e-03
0.0
1.927997949303e-03
4.734679441239e-03
2.334640526172e-03
2.293466231138e-03
3.672079540127e-03
1.427206149762e-03
1.708336649171e-03
1.861547325864e-03
2.108699433633e-03
3.250126257064e-03
3.062054677212e-03
4.401537229797e-03
5.307742241175e-03
1.980497234217e-03
4.592105580898e-03
5.228738582180e-03
1.508615138678e-03
1.258398003978e-03
2.320259230208e-03
3.145384584978e-03
4.507488684930e-03
3.013439603112e-03
1.036494360999e-03
3.559288459622e-03
1.877421539577e-03
3.009312651742e-03
3.329936939808e-03
3.782961951353e-03
4.184693822016e-03
2.263846250652e-03
1.320964814853e-03
3.656275706454e-03
1.881021925859e-03
0.0
5.409655559408e-03
5.162683398980e-03
2.729094268368e-04
3.875711687704e-03
1.849949503547e-03
1.815075747793e-03
4.705943890402e-03
3.753312262213e-03
4.510634549489e-03
2.148267383418e-03
3.276008673573e-03
5.353793394855e-03
1.533498694127e-03
4.496561684191e-03
3.235629882712e-03
1.109441694527e-03
4.399839461738e-03
2.050705679004e-03
7.682699673756e-04
1.606426913977e-03
4.404965734731e-03
4.489139406804e-03
1.520865044627e-03
3.643992042795e-03
4.612769071813e-03
4.502280914076e-03
2.204419621287e-03
1.846579794431e-03
3.359329712729e-03
4.124746711535e-03
7.891390788467e-04
5.560751100390e-03
5.548964266607e-03
3.671227968295e-03
5.630388145665e-03
5.535998868057e-03
2.170965590618e-03
2.370185578734e-03
5.368043001177e-03
0.0
1.709110066567e-03
3.659126116834e-03
2.387294836944e-03
1.879148258664e-03
1.458848135816e-03
1.621284849436e-03
3.747506275773e-03
1.892131702059e-03
1.979788942566e-03
4.392042265884e-03
5.804343183406e-03
5.787944820255e-03
2.351876001022e-03
3.390799711467e-03
0.0
1.230366790518e-03
1.463542949792e-03
1.380432272447e-03
3.535543274713e-03
2.106380670562e-03
2.153393122630e-03
5.222734221172e-04
5.154439084150e-03
2.367565598648e-03
5.388275058918e-03
4.954992804617e-03
6.024570796398e-03
5.886693922548e-03
3.753433328928e-03
2.527170991278e-03
1.725379432797e-03
2.498420104998e-03
5.703744763384e-03
9.120404607056e-04
1.119100263323e-03
4.692417281221e-03
3.538901703328e-03
5.427938698995e-03
4.594213998741e-03
4.821231617115e-03
4.878843592402e-03
3.720203756123e-03
2.190074141244e-03
2.006325653896e-03
4.404135688044e-03
4.687878422867e-03
3.117837671459e-03
3.529702774384e-03
3.752961490192e-03
3.830800216791e-03
4.743220089301e-04
1.891519218785e-03
5.771465514508e-03
4.089532321688e-03
5.391930956668e-03
5.395352371543e-03
4.403465603732e-03
5.428295798469e-03
2.711349306453e-03
2.579117857356e-03
5.122665484976e-03
0.0
1.840758435860e-03
5.616042079043e-03
8.237432765106e-04
3.385098086166e-03
5.098464473505e-03
5.994795909040e-04
3.983112400915e-04
5.989580935828e-03
3.133104392698e-03
5.665785838847e-03
4.960111850706e-03
3.124857482388e-03
0.0
5.632893496604e-03
9.982363891210e-04
5.455855807356e-03
5.714313673249e-03
5.360106047106e-03
8.140468256158e-04
3.782530279231e-03
2.880362090628e-03
4.355508239889e-03
5.671711904199e-03
4.776155304540e-03
5.663484683731e-03
0.0
5.589551347142e-03
1.512890600852e-03
7.914478455334e-04
5.397054391262e-03
5.743402050252e-03
5.733536642357e-03
3.426595864351e-03
3.717007925183e-03
1.646038233533e-03
5.655472529231e-03
2.339881504149e-03
8.036133470504e-04
4.521262599813e-03
3.249064134649e-03
5.466053350078e-03
5.951132079152e-03
5.885235530218e-03
4.854921181183e-04
3.182268852091e-04
3.189601210708e-03
3.264417416490e-03
5.744673122169e-03
5.821030348919e-03
4.049503436329e-04
0.0
5.287127657436e-03
5.147388720085e-03
1.173728759617e-03
5.308389383186e-03
3.861412420017e-03
3.447396140137e-03
4.313090326591e-03
1.487039342624e-03
4.054223007771e-03
9.352616087626e-04
3.085786119638e-03
5.355845819130e-03
5.346807489972e-03
3.320434685778e-03
3.970741636665e-03
5.313594699531e-03
4.970757498224e-03
4.685070856500e-03
3.121604600955e-03
3.851714109814e-03
5.392942080288e-03
1.774965986013e-03
4.406585063081e-04
5.044417363226e-03
4.474595389771e-03
1.114377206921e-03
4.510176921097e-03
5.486912845254e-03
4.947561165270e-03
5.266766084571e-03
4.198063581823e-03
0.0
1.470518372103e-03
1.753101937549e-03
3.631135606701e-03
3.881045925371e-03
5.513487264780e-03
5.223998920856e-03
1.020852490991e-03
8.247746946980e-04
1.369961284446e-03
4.515742145024e-03
2.251628283077e-03
5.512574297706e-03
1.101239483144e-03
4.944710226892e-03
3.686457503037e-03
5.316904859013e-03
4.584108386174e-03
3.633631005452e-03
5.441228742427e-03
5.760973095862e-03
5.768457653903e-03
1.076429508706e-03
5.403578302253e-03
5.433000637951e-03
5.028809833893e-03
4.690494387880e-03
5.655330995816e-03
4.686381379503e-03
0.0
1.396280660218e-03
5.170660034106e-03
3.932337476204e-03
5.342833454285e-03
4.884276764452e-03
5.447158665414e-03
4.847067005331e-03
5.305854444718e-03
5.181492536697e-03
5.139590615884e-03
2.342515450525e-03
5.825123485814e-03
3.511800923746e-03
5.448173838807e-03
7.428025292534e-04
5.262596336557e-03
4.547206860874e-03
6.035790654862e-04
8.086025518277e-04
4.796988799160e-03
5.631992981559e-03
5.519397513834e-03
5.310091205385e-03
3.912116890080e-03
3.336829723450e-04
7.216677684815e-05
3.636648382109e-04
1.164636641950e-03
0.0
3.057585890836e-03
5.327921971227e-03
5.411971840112e-03
3.914684461503e-03
2.701530490713e-03
5.213565150943e-03
5.007366373899e-03
5.467264405238e-03
5.207424473042e-03
5.074998992932e-03
6.015575377216e-04
0.0
5.376601054342e-03
4.998770260557e-04
7.354796995695e-04
4.650576109338e-04
6.246802752465e-04
5.332466837785e-03
5.508668632613e-03
5.527152150685e-03
5.370182133116e-03
4.813648012505e-03
4.090345476850e-03
5.872497858860e-03
1.688844706779e-03
3.242062731608e-03
1.296527781915e-03
2.048831776387e-04
5.850745223492e-03
3.550974671321e-03
8.641995463890e-04
2.926275799080e-03
5.656777809006e-03
5.503877635999e-03
5.618051296971e-03
2.129346423962e-03
0.0
5.566911874099e-03
6.011875443670e-03
5.902551827901e-03
3.412317331757e-03
4.981747800379e-03
7.975484814361e-04
5.534656444521e-03
1.991551371557e-04
5.305266967479e-03
5.730842396305e-03
0.0
4.981060490428e-03
4.675346069498e-03
5.654646432844e-03
5.577265656584e-03
4.298496663279e-03
5.550848395389e-03
5.494928221657e-03
4.409266495861e-03
5.352947711999e-03
2.479552746464e-03
3.115289873894e-03
5.217348424536e-03
5.739897385503e-03
2.165285380515e-04
3.124201721815e-03
5.632614020689e-03
1.101480850632e-03
5.091661295346e-03
5.450633370530e-03
5.763755232995e-03
1.048262864143e-03
9.819337037052e-04
3.563851573438e-03
5.043841388328e-03
0.0
5.651156742465e-03
4.142985444651e-03
1.530326117569e-03
3.945008028744e-03
5.471691496627e-03
3.728983518662e-03
7.971668758967e-04
2.244711810372e-03
3.243419354848e-03
3.838568504311e-03
5.141366330764e-03
3.163902532595e-03
3.328394715870e-03
5.059368158880e-04
5.311799105867e-03
5.084872395273e-03
7.504975414657e-04
5.677168446605e-03
5.592115835301e-03
3.482521557627e-03
4.251403145156e-03
3.187364706085e-03
3.251257493807e-03
3.439701907309e-03
4.794833467625e-03
1.169016289084e-03
5.320349723071e-03
3.618781519640e-03
5.751198579347e-03
4.781103524799e-03
4.050232424032e-03
5.211038119852e-03
5.105861927613e-03
5.449330151016e-03
7.104254593757e-05
5.217846714948e-03
5.418217703554e-03
5.880291415762e-04
2.994215514378e-03
2.729319316385e-05
5.459819003965e-03
2.308296873625e-03
2.212383277902e-03
2.377889872021e-03
2.214994051217e-03
2.379726867620e-03
2.216547427580e-03
2.381089610341e-03
2.216872246426e-03
2.381752235969e-03
2.218454871060e-03
2.383250492322e-03
2.220224400099e-03
2.385222509952e-03
2.222734674364e-03
2.386383023483e-03
2.391862537500e-03
2.221806440899e-03
2.220677278307e-03
2.385011920154e-03
2.223422370937e-03
2.386582139412e-03
2.226346237541e-03
2.388440069183e-03
2.227280475162e-03
2.250484607725e-03
2.388398609737e-03
2.227668810492e-03
2.387714431866e-03
2.226868736979e-03
2.381778775207e-03
2.225381309291e-03
2.391304783019e-03
2.233950156438e-03
2.220516966315e-03
2.381499207426e-03
2.320752866227e-03
2.406602035383e-03
2.160466955302e-03
2.371949036351e-03
2.230910756870e-03
2.319921770893e-03
2.232416445766e-03
2.197022376616e-03
2.606499819159e-03
2.690961257714e-03
2.522000530317e-03
2.681395089224e-03
2.516611695707e-03
2.684936923134e-03
2.520724084807e-03
2.682910389250e-03
2.518155025397e-03
2.685720127669e-03
2.522107693972e-03
2.686100147812e-03
2.522572435250e-03
2.701698277203e-03
2.691814660839e-03
2.527183984821e-03
2.558519512118e-03
2.685492272813e-03
2.523715955889e-03
2.521830125806e-03
2.687781338981e-03
2.527976907291e-03
2.692519047907e-03
2.530769531241e-03
2.691005186238e-03
2.620190236794e-03
2.529256469091e-03
2.690152839742e-03
2.692355677766e-03
2.530525369073e-03
2.668560171641e-03
2.530830175599e-03
2.711856376190e-03
2.517118108963e-03
2.429701944538e-03
2.579121291386e-03
2.733210654048e-03
2.586513323000e-03
2.669335382215e-03
2.501112406734e-03
2.952964194819e-03
2.821859864007e-03
2.991596827692e-03
2.833511162691e-03
2.996758346163e-03
2.839990296122e-03
3.006645179008e-03
2.831291115803e-03
2.995872769527e-03
2.837184649027e-03
3.005449104704e-03
2.838583631022e-03
3.016774272030e-03
3.001904421592e-03
2.851312415787e-03
2.832771918756e-03
3.009442756207e-03
2.842210225621e-03
3.000234049433e-03
2.844919680408e-03
3.009082672670e-03
2.844437144164e-03
2.872310885887e-03
3.011912840164e-03
2.842005763748e-03
3.004113999591e-03
2.837696132236e-03
2.839675268707e-03
3.003734450339e-03
3.017107183080e-03
2.932857225621e-03
2.738763543566e-03
2.957508157439e-03
2.875589959643e-03
2.947488772035e-03
2.848489924599e-03
2.817296966531e-03

SCALARS element_materi_plasti_phimob float
LOOKUP_TABLE default
1.747858166634e+01
1.557737654153e+01
1.938473907918e+01
1.803453693671e+01
7.383605829452e+00
2.722959599804e+01
7.557425007324e+00
1.806520034801e+01
7.629095473126e+00
1.798841118234e+01
2.005793910298e+01
1.586544642155e+01
2.065004314099e+01
9.739722274882e+00
2.061433948848e+01
1.836809174164e+01
6.521989677906e+00
2.499551074010e+01
1.043142484461e+01
1.032196975976e+01
1.795077899812e+01
1.250494264768e+01
1.516679428629e+01
2.226549424051e+01
1.190304861766e+01
2.023874221848e+01
3.162068696154e+00
2.187717987125e+01
1.204121124817e+01
2.209677952400e+01
2.119239479060e+01
-1.892295865787e+01
1.907854544337e+01
2.053717473659e+01
2.118595677468e+01
2.081513312706e+01
2.076311826563e+01
2.220629765280e+01
3.576899006629e+00
3.798766505187e+00
9.537007789642e+00
2.107694436398e+01
1.766942055047e+01
2.909694128817e+00
1.761488894740e+01
1.901703595979e+01
2.511263677204e+01
1.776746182782e+01
1.573939950349e+01
8.489652660430e+00
1.212367654706e+01
1.272141962586e+01
2.649713955529e+01
6.069637646874e+00
1.875820090811e+01
1.546112045749e+01
1.295141142673e+01
2.059568184074e+01
5.806972175691e+00
1.834290853215e+01
1.180515182087e+01
2.246405012158e+01
2.069635032609e+01
2.557009757848e+01
2.069138144381e+01
9.741468910840e+00
1.560493367727e+01
1.919416826321e+01
7.633986075254e+00
2.073410042033e+01
2.040588974906e+01
1.929792761791e+01
2.147298304918e+01
-9.291387975021e+00
1.586555248729e+01
1.807786414272e+01
1.868454884367e+01
1.984752216967e+01
4.745217096435e+00
1.947585424013e+01
8.634404268268e+00
6.339652614477e+00
1.686129241311e+01
1.342716392522e+01
9.155816012092e+00
9.190640437773e+00
2.041679951000e+01
2.052345737286e+01
1.754612795093e+01
7.203087666532e+00
-2.075421130000e+01
6.853603442238e+00
1.556404426656e+01
1.527143496538e+01
1.885031454232e+01
2.165958675326e+01
6.147555945173e+00
2.153798757792e+01
1.186379441261e+01
1.979379204675e+01
5.602395205556e+00
2.066276223014e+01
2.364952621520e+01
2.228871457684e+01
2.358793540440e+01
1.730691646303e+01
2.062351719587e+01
1.628778678698e+01
1.953196440953e+01
2.062811657890e+01
1.731665809067e+01
-2.239289626587e+01
2.533610916938e+01
5.727135195113e+00
1.766350736314e+01
1.925416218899e+01
2.151801511083e+01
2.099714447173e+01
1.111062974226e+01
2.198516521149e+01
4.467188191136e+00
7.195552925975e+00
1.642837833061e+01
2.251873305311e+01
2.219378990636e+01
5.554003369844e+00
1.748131415008e+01
1.399473855533e+00
1.848507388354e+01
2.534859432114e+01
2.030322575068e+01
1.806646199840e+01
1.581963498887e+01
6.156881018742e+00
2.136512893025e+01
2.063534879297e+01
2.051165696950e+01
1.600052347627e+01
2.186987561815e+01
1.278469410252e+01
1.828311502721e+01
2.066295927764e+01
9.674444449278e+00
1.387883230110e+01
1.550999604883e+01
2.500065065389e+00
1.657527512250e+01
2.456510048456e+01
6.350418101886e+00
2.590009275318e+01
-2.199889103837e+01
9.144713825334e+00
6.395137138504e+00
5.436573976284e+00
2.122121129500e+01
2.305265157912e+01
2.050081877793e+01
1.810522179376e+01
2.372296380643e+01
6.838686973892e+00
2.650806157441e+01
2.060931984528e+01
4.982915454937e+00
2.065216490324e+01
1.022584321364e+01
2.086187816128e+01
6.695152042173e+00
2.472667597658e+01
2.248464999600e+00
2.012232846218e+01
1.759344035978e+01
2.697915483656e+01
1.462945475509e+01
6.558528656010e+00
2.520104643285e+01
1.272805886512e+00
1.948678152575e+01
1.827539512553e+01
2.152586583768e+01
2.089889099170e+01
1.881607573514e+01
1.828649221931e+01
2.303000219275e+01
1.285985786284e+01
1.696479562127e+01
7.453385295057e+00
2.491457828352e+01
1.828493483186e+01
1.668694183340e+01
2.062385799517e+01
1.983531251902e+01
2.803852759204e+01
1.742900960522e+01
1.056794850334e+01
8.851308855162e+00
2.335295190490e+01
-1.309626660547e+00
1.873096160406e+01
1.406550459489e+01
2.208818555014e+01
2.378707359315e+01
9.596031931403e+00
1.108314003441e+01
2.179768553749e+01
1.741598681493e+01
1.865476564509e+01
1.246097589257e+01
1.469153689662e+01
1.128371702225e+01
8.698816249177e+00
2.479716443840e+01
1.870407690751e+01
1.232325766565e+01
1.751038383708e+01
1.842582169481e+01
1.812591619832e+01
1.699898960284e+01
2.936454412213e+01
2.342897035667e+01
6.230766256858e+00
2.754211354659e+01
2.340475037999e+01
-1.509406025740e+01
1.543425508636e+01
-2.088555606592e+01
-2.139547794663e+00
1.836180883497e+01
1.497286133280e+01
1.590109846637e+01
1.388779217608e+01
2.280938913990e+01
1.986916497427e+01
6.746864920948e+00
2.356252452684e+01
1.121741491761e+01
2.075052063857e+01
1.071090347371e+01
2.474920962383e+01
2.732501043098e+01
1.134067792461e+01
2.391639229328e+01
2.088051489017e+01
1.601241100776e+01
2.925881409271e+01
2.320342030500e+01
2.035099862343e+01
1.658732607583e+01
1.497734710006e+01
2.180891598595e+01
2.765298646124e+01
2.323696312624e+01
1.317590095218e+01
1.885319709451e+01
1.983344659692e+01
2.667941466535e+01
9.628374975719e+00
8.680204681856e+00
1.045960462453e+01
2.847460827669e+01
2.996482915411e+01
2.737474267874e+01
1.589518893653e+01
1.311623669274e+01
2.371470392908e+01
1.632634212874e+01
1.680427524395e+01
1.513816380041e+01
2.073384662270e+01
2.670549241322e+01
1.482914129322e+01
2.485111989772e+01
2.601671974928e+01
3.047451966448e+01
6.338841141692e+00
2.797647645025e+01
2.844683008766e+01
1.588090576968e+01
6.181173749499e+00
1.157638149329e+01
2.951363436098e+01
2.586320874948e+01
3.045804070013e+01
1.415000538689e+01
-4.624286144899e+00
1.686406707199e+01
2.603885694274e+01
1.245178466811e+01
9.445864480303e+00
2.897354578218e+01
3.033208350737e+01
2.714053553121e+01
1.825678147883e+01
1.512916765197e+01
1.882964667281e+01
2.866626906924e+01
2.828850318945e+01
2.734558513855e+01
2.515064228713e+01
2.073266283594e+01
1.921131288422e+01
1.971250638986e+01
2.031106709356e+01
2.950465430003e+01
2.686440415166e+01
1.566248981543e+01
2.899533507199e+01
2.968200037848e+01
1.494238484146e+01
1.819155342375e+01
2.855199499815e+01
2.479330559092e+01
2.334932876498e+01
2.150803527411e+01
2.795886253294e+01
1.722221363635e+01
3.041987724624e+01
2.548424737676e+01
2.780690974354e+01
2.808011702180e+01
1.324552719131e+01
2.069132731258e+01
2.918941686912e+01
2.589584928362e+01
2.355120621575e+01
1.298644213691e+01
2.394077018883e+01
2.212816852339e+01
1.218351011826e+01
2.144033413753e+01
2.337561293808e+01
2.031795225660e+01
1.202443950510e+01
1.746550195654e+01
2.051400484719e+01
1.149452524108e+01
1.424885175855e+01
1.462797603188e+01
2.119232623626e+01
2.172590082004e+01
1.126372320983e+01
9.140963722089e+00
2.856030865296e+01
1.132030402759e+01
8.803868249259e+00
2.378374229354e+01
6.755134649525e+00
2.552123059698e+01
2.902337801898e+01
1.620655091475e+01
2.462816184960e+01
1.269219334902e+01
2.588681555065e+01
2.420412059813e+01
2.186546041781e+01
1.032416921875e+01
3.113746098072e+01
2.142883633286e+01
1.900835201491e+01
2.129327407633e+01
1.766234948341e+01
1.713104115735e+01
1.499786993015e+01
1.062292096596e+01
2.179179027170e+01
2.231011719316e+01
1.759157457369e+01
1.550050526376e+01
2.390497151309e+01
2.053552953926e+01
3.022782788859e+01
2.989714750395e+01
1.848690795096e+01
2.546733509672e+01
2.013532504378e+01
1.721767292732e+01
2.984817684258e+01
2.246788937244e+01
1.451427838785e+01
2.221162472294e+01
1.990468010215e+01
1.948932114165e+01
1.872059179752e+01
2.377170631356e+01
1.635552025687e+01
2.212537475529e+01
2.932445633311e+01
2.922787664900e+01
1.723791339423e+01
6.205850461768e+00
1.200757417478e+01
2.214135994158e+01
1.808069438009e+01
1.266651617087e+01
1.547869134627e+01
3.082794811540e+01
2.506234615278e-01
2.626974223936e+01
2.249755732695e+01
2.568565913287e+01
2.330353582645e+01
9.568879734421e+00
9.904103737053e+00
2.687071251705e+01
2.077961052999e+01
2.476510433244e+01
8.190751355285e+00
6.723257887279e+00
2.011461167189e+01
2.668649907576e+01
1.456109081776e+01
2.101634255431e+01
1.026944520092e+01
1.609430542805e+01
2.076858956086e+01
1.656978995704e+01
2.397770941393e+01
2.116772704652e+01
2.081012635954e+01
1.997627787269e+01
2.037052814888e+01
1.540727279825e+01
1.657935417529e+01
1.823254562320e+01
2.129680436314e+01
1.934053096673e+01
1.936367810575e+01
1.723637844239e+01
2.161400953945e+01
1.693982120895e+01
2.538012219542e+01
1.692342270488e+01
2.205038266622e+01
2.290076769364e+01
1.504000251905e+01
2.653953839545e+01
1.847026617534e+01
2.261706538924e+01
2.117190906144e+01
1.988999584444e+01
2.339583244169e+01
2.140577159538e+01
2.582019979059e+01
2.099710470035e+01
1.887800375304e+01
1.780889194879e+01
-1.762934049752e+01
2.124864331481e+01
2.153174820052e+01
2.617889849701e+01
2.524684183194e+01
2.187958755888e+01
-5.496384536635e+01
2.285428625548e+01
1.678597416278e+01
1.903232668376e+01
1.594704003548e+01
2.564330053179e+01
2.137442226397e+01
2.865811580997e+01
2.693010768979e+01
2.109213350432e+01
-1.885277277201e+01
1.124794260033e+01
2.258502368190e+01
6.891988284087e+00
2.168038514829e+01
2.136431396005e+01
1.412361078563e+01
1.691844017600e+01
2.661814247945e+01
1.724941665444e+01
2.178963564431e+01
6.522588662906e+00
9.724732847572e+00
2.127124830309e+01
6.517521714158e+00
1.914453972382e+01
2.232160377033e+01
1.105991359158e+01
2.069717344671e+01
2.538897846901e+01
2.730676406776e+01
2.112291796762e+01
2.058799306990e+01
2.017790721805e+01
2.321240576419e+01
1.857914987906e+01
2.369868679690e+01
2.338502990814e+01
2.097325776738e+01
2.785509320873e+01
2.913718227130e+01
2.779113047105e+01
1.220782163166e+01
2.138353818168e+01
1.077148719698e+01
2.083123920089e+01
2.645656346658e+01
2.115175920219e+01
1.826594625576e+01
-6.046403613286e+01
2.412604149350e+01
1.676704777750e+01
2.133717511906e+01
1.574793770482e+01
2.281544244095e+01
2.481226124809e+01
2.214003507195e+01
2.501221840407e+01
2.572866314046e+01
1.269144054740e+01
2.138142735356e+01
2.917115328246e+01
2.294767501310e+01
9.890073802881e+00
1.894041912614e+01
2.705587212184e+01
1.587504660355e+01
2.120388012633e+01
1.905115886293e+01
2.327500316161e+01
2.163917556811e+01
2.492918534306e+01
2.803665055732e+01
2.355689703678e+01
2.126023344698e+01
2.048507588069e+01
2.474389759469e+01
2.282724058391e+01
2.108774299290e+01
2.666381798831e+01
1.898840441007e+01
2.261597005533e+01
2.657595224370e+01
2.159218858339e+01
1.727252576496e+01
1.777320635792e+01
2.089499275945e+01
2.225848884880e+01
2.587505116541e+01
2.287970564770e+00
2.132668609159e+01
1.748931973389e+01
2.443731535977e+01
2.073257003041e+01
2.304408891175e+01
1.768752168029e+01
1.098548476195e+01
2.656504509825e+01
2.329329636821e+01
2.496653076383e+01
1.419089754815e+01
1.392739246001e+01
2.425099049328e+01
1.155922342621e+01
2.030498673831e+01
2.521809142347e+01
2.300868502075e+01
2.136233510753e+01
-5.231385651722e+01
2.557146931931e+01
2.414291186130e+01
2.053538674339e+01
2.483913238404e+01
2.368009582418e+01
1.132125718347e+01
2.207996271666e+01
2.069492153808e+01
1.768355191987e+01
2.035367600603e+01
1.882063174283e+01
2.002562850010e+01
-4.348408534407e+01
1.201643067481e+01
1.782184938706e+01
8.999999999681e+01
1.972444064694e+01
2.331585859354e+01
1.669701274501e+01
2.550930932496e+01
2.557788964985e+01
6.627453110470e+00
1.958413600876e+00
1.858899861056e+01
2.001885969187e+01
8.999999999681e+01
6.609902097917e+00
-9.767510650669e+00
1.650497854812e+01
1.961748398454e+01
1.665114681633e+01
2.198817817174e+01
1.698896163277e+01
2.099007085556e+01
2.280909981153e+01
2.915564586880e+01
1.774444900355e+01
1.611000610063e+01
2.123679102987e+01
2.066261760728e+01
1.851825990890e+01
1.992507461691e+01
2.355798641756e+01
2.270565887302e+01
8.401785919551e+00
2.289945092699e+01
-5.338565093073e-01
1.939491315002e+01
2.065641283223e+01
-1.621564001461e+01
1.806538834607e+01
1.733580816109e+01
8.999999999681e+01
1.990146291636e+00
2.633874768714e+00
2.487045136812e+01
1.612500519006e+01
2.304435061465e+01
2.374958955401e+01
2.140350516725e+01
2.120756958039e+01
1.592018837285e+01
2.126753867292e+01
-6.269863127852e-01
1.194064263345e+01
2.420268537724e+00
2.593459222950e+00
8.992849436805e+01
-1.695675432063e+01
-9.782777977528e-01
1.352190829719e+01
-1.627405389785e+01
1.892509520274e+01
2.932539879698e+00
1.595737064476e+01
1.319523949493e+01
2.339908978123e+00
1.926987152917e+01
2.313094801607e+01
1.156034784402e+01
1.670172246898e+01
2.671791538625e-01
1.903210193205e+01
1.875293237075e+01
9.864934290337e+00
2.206030758310e+00
1.679892036812e+01
1.871794879507e+01
1.507927749392e+01
2.367695845246e+00
2.002370940122e+00
7.029619876057e+00
1.980478129791e+01
1.869595099589e+01
-1.690776354442e+01
8.898897567428e+01
2.926791960530e+00
2.124289107606e+01
2.064058335712e+01
9.743944804665e+00
1.598546247902e+01
-2.078050859997e+00
2.498037956257e+01
-2.920163456329e+01
1.338007958945e+01
2.500039544976e+01
2.077517324012e+01
1.304993382891e+01
1.420246901233e+01
-1.572006119555e+01
2.082341295922e+01
1.882964065206e+01
1.869938997566e+01
2.378261892773e+00
2.484094182483e+01
1.896971706014e+01
2.295607652563e+01
-8.188979119636e-02
-1.636242192390e+01
-1.614817644777e+01
1.766026176190e+01
2.071981851180e+01
1.806341205543e+01
8.638419128792e+01
1.881463739090e+01
2.056336607764e+01
2.077211530901e+01
2.118138082393e+01
1.489043655905e+01
1.647786628350e+01
2.055114023350e+01
2.056100103708e+01
1.598801120063e+01
8.988533423690e+01
2.446125732208e+00
2.509503471347e+00
8.754234328771e+01
2.058248376230e+01
2.112524173347e+01
2.059274739121e+01
8.999999999681e+01
8.999999999681e+01
2.063446257637e+01
2.061407171604e+01
1.425230089582e+01
2.485954954393e+00
1.546058935011e+01
1.059297549648e+01
2.545382598921e+00
8.999999999681e+01
-6.105441311425e+01
-6.161427497400e+01
-6.135628593250e+01
1.914557431260e+01
1.846132121394e+01
-5.645150962470e+01
2.020469178210e+01
-5.634817048915e+01
1.944573919115e+01
1.891355906730e+01
1.910511176909e+01
8.559340407953e+00
1.543158304553e+01
1.886957450116e+01
2.059052565902e+01
1.888854185748e+01
2.063189094494e+01
2.063343731430e+01
1.807864004816e+01
1.868666935701e+01
1.871703636853e+01
2.059828472724e+01
2.062792154042e+01
2.059707056522e+01
-2.545788026575e+01
1.879234058439e+01
-1.800395362085e+01
2.124269820552e+01
1.979437941979e+01
2.094683116139e+01
1.244259089726e+01
-3.978670437658e+00
2.080690463323e+01
1.935354348998e+01
1.733197155809e+01
2.081750046636e+01
1.726485830535e+01
1.721415169520e+01
2.294044741206e+01
2.206552817954e+01
2.076506336842e+01
2.067203327182e+01
2.941438472855e+01
1.338726187645e+01
2.463853558479e+01
2.111506458946e+01
2.073354174163e+01
2.061800587136e+01
1.462009259587e+01
1.717451251687e+01
1.629463241541e+01
8.340841637224e+00
2.140445394714e+01
2.091836758179e+01
1.726537404086e+01
1.680066140795e+01
2.191030225393e+01
2.071138955349e+01
1.598848705038e+01
2.053162065821e+01
2.104368260848e+01
1.716548044225e+01
1.445336247502e+01
2.280562825406e+01
1.274321537454e+01
1.432599903626e+01
-1.388232732845e+00
-2.688597635645e+00
1.677471566020e+01
2.071101354677e+01
-1.297914040163e+01
1.780280618040e+01
9.586682085001e+00
2.093932305914e+01
2.072006633566e+01
2.200569651286e+01
2.064067519855e+01
8.304209207755e+00
2.461799159501e+01
2.092555173349e+01
1.251469579781e+01
2.129893232450e+01
1.518052568768e+01
1.372759749337e+01
1.650613186813e+01
1.974468132153e+01
1.274711586947e+01
1.789169316487e+01
1.581961644254e+01
1.383358926725e+01
2.022517382905e+01
2.056969664983e+01
2.069870122009e+01
1.522379936307e+01
1.035955217731e+01
1.969854519002e+01
2.323157817168e+01
1.565274580966e+01
1.908048482758e+01
2.158266247836e+01
2.151825762248e+01
1.448556702107e+01
2.435622746122e+01
-1.121096627121e+00
3.026063041397e+01
2.082285853732e+01
1.368304680228e+01
1.993691753786e+01
1.074339850541e+01
2.252678664854e+01
2.014631872679e+01
2.081573441522e+01
1.292241825383e+01
2.118191862946e+01
1.989943341836e+01
1.389537252973e+01
1.944894296498e+01
1.807518033165e+01
1.567994922070e+01
2.008831569816e+01
-5.517802146353e+01
-5.498416397627e+01
2.069850714100e+01
1.181833144939e+01
2.108973027040e+01
2.131090963518e+01
2.004671169529e+01
2.172997819106e+01
1.650340129106e+01
2.712663385618e+01
1.829974171191e+01
2.240657244720e+01
9.686062156775e+00
1.193853863401e+01
9.609410472620e+00
8.595183411882e+00
2.182744589194e+01
1.477421970480e+01
1.151910084024e+01
1.688003257963e+01
1.695838328917e+01
1.309669553012e+01
2.074652904930e+01
1.349008460038e+01
2.077452841382e+01
2.010858926704e+01
1.752159391564e+01
1.656516462104e+01
2.091371598608e+01
2.115789653121e+01
1.015342784497e+01
2.096015891504e+01
1.483657425405e+01
1.992082487921e+01
1.363949577911e+01
1.546672491914e+01
2.737081618526e+01
1.614754822151e+01
1.923159612761e+01
1.990776418127e+01
1.723031831904e+01
1.964794415360e+01
1.428548669947e+01
2.268773006351e+01
1.438419498190e+01
2.804457344573e+00
1.422924620273e+01
1.442941556840e+01
2.136754505547e+01
1.503212494859e+01
2.113012404679e+01
2.147745846281e+01
1.883927292748e+01
1.295311425346e+01
5.469195490417e+00
2.133011527223e+01
1.301008668788e+01
-1.954191566124e+00
1.752077542302e+01
1.164050722573e+01
1.270068212332e+01
1.772251914032e+01
2.170576368145e+01
1.712676611879e+01
1.625752931588e+01
1.642782597557e+01
2.183222330261e+01
1.338597820761e+01
2.159524735369e+01
1.954403052064e+01
2.136629477732e+01
2.958265087252e+01
1.141359288179e+01
1.103012546099e+01
2.443674891185e+01
2.154499656041e+01
1.296180469848e+01
1.664961437147e+01
1.319712197697e+01
1.038515334406e+01
2.150162932546e+01
2.440864847230e+01
2.416742766663e+01
1.740842736439e+01
2.275894916676e+01
9.964239944640e+00
2.228316080261e+01
2.168790134926e+01
2.112690867669e+01
2.111277204595e+01
1.498173192308e+01
2.336154302471e+01
2.191102708796e+01
1.036850210472e+01
1.483281678224e+01
1.726870472582e+01
2.241835435750e+01
2.165372575711e+01
1.925981379792e+01
2.354339505175e+01
1.406412873320e+01
1.196437629818e+01
1.135193042048e+01
1.972136946599e+01
2.217224139422e+01
2.271614390099e+01
1.073084813687e+01
1.840563325903e+01
2.366726686000e+01
2.199489732240e+01
1.552823469312e+01
1.947860735849e+01
1.837681734839e+01
1.052221503898e+01
2.258520776995e+01
1.846528236953e+01
1.337580477383e+01
1.241300037370e+01
2.698774552187e+01
1.752839971771e+01
3.000418068635e+01
1.770524443996e+01
1.900459148418e+01
1.171509385522e+01
2.256263792465e+01
2.261213854145e+01
1.609051459418e+01
2.356279340063e+01
2.285644807355e+01
2.301231780002e+01
2.533588470190e+01
1.192577603384e+01
2.205753535706e+01
2.182007150727e+01
2.078353968401e+01
2.028732752914e+01
2.298796581212e+01
1.342812098291e+01
1.939413343362e+01
2.370494337236e+01
1.621701553979e+01
1.957119654801e+01
2.055477919248e+01
1.518596983410e+01
1.405319766862e+01
2.220667905667e+01
2.239449587929e+01
2.063199720816e+01
-5.812781118421e+01
2.603964462460e+01
2.434768897855e+01
2.151503299373e+01
1.245373773204e+01
2.289980957431e+01
1.684536781294e+01
2.156464703375e+01
1.570724399780e+01
1.671684478433e+01
1.909692557788e+00
7.913681818428e+00
2.059903801201e+01
1.912502959649e+01
2.514552046490e+01
2.247566331314e+01
1.286323722855e+01
8.628160876916e+00
1.102439562644e+01
1.512948659440e+01
2.290486910404e+01
2.110434463406e+01
1.339273075760e+01
1.633578993627e+01
2.025488918725e+01
2.725942440670e+01
2.094607841025e+01
1.709576590838e+01
2.117450975013e+01
2.686844367462e+01
2.807385783329e+01
1.268366335176e+01
1.897370251869e+01
2.309456863927e+01
2.393793003046e+01
1.582565894843e+01
2.363031223241e+01
2.472695488720e+01
2.654385934035e+01
1.832381565984e+01
2.466290234115e+01
1.400780675671e+01
2.737683084082e+01
2.245743183716e+01
2.065973932608e+01
2.227456631567e+01
2.433394673107e+01
2.012436260251e+01
1.689793161107e+01
1.838597831851e+01
1.462963536473e+01
1.681712744062e+01
2.492160388733e+01
2.596254171862e+01
1.571736118910e+01
2.161772119891e+01
1.385034213334e+01
1.811499754103e+01
9.253448929393e+00
2.279265094730e+01
1.707858472649e+01
2.426937235873e+01
1.163161111557e+01
1.578769702489e+01
2.538512628423e+01
2.630168427113e+01
1.726873505369e+01
2.222175793157e+01
1.459395848984e+01
2.446031833675e+01
1.934214744895e+01
1.514928463159e+01
2.154326497039e+01
2.195811342841e+01
2.204575956073e+01
1.159701743145e+01
1.038102565165e+01
2.326335829626e+01
2.264818710272e+01
2.281752095019e+01
5.880262287417e+00
3.040004570216e+01
2.747343108453e+01
2.622494920730e+01
2.399930251019e+01
1.763208603149e+01
1.781843809149e+01
1.701750595135e+01
1.773282087708e+01
1.575191017463e+01
2.218154903612e+01
1.734921275728e+01
1.445880632018e+01
2.197638516960e+01
2.807183726930e+01
1.521665411298e+01
1.679629941724e+01
1.535749164478e+01
1.465751370041e+01
2.205848498438e+01
2.295974141345e+01
2.245563728026e+01
2.249075013533e+01
7.566979174881e+00
2.404160826212e+01
1.463700808406e+01
1.396584412425e+01
2.656975513431e+01
2.617820165644e+01
2.564118918518e+01
3.076430744394e+01
2.729309621998e+01
2.499737842315e+01
1.310288354582e+01
2.235158133237e+01
1.295246529148e+01
5.640515662833e+00
2.669100430421e+01
2.229960047089e+01
2.419682881932e+01
1.803066198069e+01
2.702691996551e+01
2.248687335856e+01
1.314982857967e+01
2.317912791915e+01
2.460586502424e+01
2.592434328814e+01
1.354564682485e+01
2.238442016968e+01
2.507945212563e+01
2.251084624086e+01
2.239466625009e+01
2.495611223725e+01
1.529306564642e+01
2.235601299474e+01
2.212953743227e+01
2.010300854310e+01
1.381731296758e+01
2.268715964322e+01
1.585715643527e+01
2.562504850199e+01
2.724512522633e+01
2.073933074248e+01
2.988667155009e+01
1.643382053909e+01
1.478252150497e+01
1.672914481094e+01
2.192941775552e+01
1.745121277027e+01
2.205685378473e+01
2.128540064954e+01
1.450964847044e+01
2.125423226924e+01
2.886502514661e+01
2.636067527191e+01
1.395176311038e+01
2.505890320749e+01
2.075370066417e+01
2.631470651822e+01
1.900551882067e+01
1.347716753449e+01
2.169893504382e+01
2.872801207012e+01
1.372705081610e+01
3.088358360305e+01
2.204114341153e+01
1.787721280169e+01
1.632814507195e+01
2.456677488350e+01
2.460522121046e+01
2.312026487739e+01
2.339209254308e+01
1.520127502370e+01
2.286866061783e+01
1.387299216839e+01
1.804794417287e+01
1.568907390804e+01
1.622975329977e+01
2.884422472808e+01
2.164737825872e+01
1.513702998152e+01
2.664035091858e+01
9.675584241184e+00
2.234950922272e+01
3.124010213211e+01
1.571829654135e+01
2.366585350916e+01
1.061972568728e+01
2.434255821294e+01
2.429682258213e+01
1.718434068769e+01
1.767800092637e+01
2.436727825093e+01
1.626763063848e+01
2.803974765907e+01
2.063648968895e+01
-8.685912276230e+00
1.873888840694e+01
-6.090108953587e+00
-3.225663243320e+00
2.729070180180e+01
8.970159575919e-02
2.447141873817e+01
2.628593219322e+01
2.667391643142e+01
2.947380992995e+01
2.776302648035e+01
1.686801053874e+01
1.841404046376e+01
2.185034183185e+01
2.307879415317e+01
2.570786715139e+01
1.628452486931e+01
2.734097181740e+01
2.135497680686e+01
1.575482601158e+01
1.571825560218e+01
2.526848703766e+01
2.801104396976e+01
2.078853844252e+01
1.658747945555e+01
2.706746101886e+01
3.061728690050e+01
2.406620224109e+01
2.047409375788e+01
2.112582831178e+01
1.509723439679e+01
2.769359861989e+01
2.033068197777e+01
2.395387579887e+01
1.636791034078e+01
2.040637044868e+01
1.292952083360e+01
2.326614229978e+01
2.657244288397e+01
2.366536402364e+01
2.377879338792e+01
1.721079911472e+01
2.008152071266e+01
2.593989463862e+01
3.110506174194e+01
2.258327685035e+01
2.400556674810e+01
2.795996875560e+01
2.528874493009e+01
2.298418722806e+01
2.993898684472e+01
2.662889575926e+01
1.545189150249e+01
2.099230021342e+01
1.643910844971e+01
2.222307088060e+01
1.432433158626e+01
1.164459100991e+01
1.749504953432e+01
2.350494707047e+01
2.168882587941e+01
1.448896878019e+01
1.771802522411e+01
1.305109069922e+01
2.914669833302e+01
2.214534566259e+01
1.728460284431e+01
2.544867364011e+01
2.449650763955e+01
2.841341880424e+01
1.519829248683e+01
1.985981586711e+01
2.455283778960e+01
2.099773982140e+01
2.412810779551e+01
2.186500304583e+01
2.793125640137e+01
2.851510194514e+01
1.785164521904e+01
1.820714260468e+01
2.604643775030e+01
2.234598902154e+01
1.447955993696e+01
2.201228649138e+01
2.717556558891e+01
2.862789455438e+01
2.091261673687e+01
2.164185960545e+01
2.421205105769e+01
2.127411881391e+01
1.931550429946e+01
2.237800662697e+01
2.816547159836e+01
1.293892911546e+01
2.147669222579e+01
2.851139254903e+01
2.117873959512e+01
2.414304565496e+01
2.927005910273e+01
2.129142237706e+01
2.726011760495e+01
2.130423995572e+01
2.399711127320e+01
1.985806491149e+01
2.131935219234e+01
3.012366428695e+01
2.153350331173e+01
1.771197435854e+01
2.197732153476e+01
2.357528912251e+01
2.733790330873e+01
2.129458130073e+01
2.091075890338e+01
1.964328464520e+01
2.167316272102e+01
1.374603677849e+01
2.141002447028e+01
2.212880863586e+01
2.605536346377e+00
2.625742785596e+00
1.581826315634e+01
2.164946658880e+01
2.120573085689e+01
1.757845719638e+01
2.499622595099e+01
2.283576620016e+01
2.724197617026e+01
1.895756719190e+01
9.151751692694e+00
2.490809305381e+01
2.204329775659e+01
3.059133543435e+01
2.157476308317e+01
2.164423819721e+01
1.937427752831e+01
1.380218054370e+01
1.820972931664e+01
1.816329802447e+01
6.526125745630e+00
2.159638107746e+01
1.960744304518e+01
1.646623638134e+01
1.668311236268e+01
2.324794616525e+01
1.192121004624e+01
2.872340978131e+01
2.270273606381e+01
2.087727818770e+01
8.912394542213e-01
2.234757724807e+00
1.383966923919e+01
2.696640115952e+01
2.152862110171e+01
2.383127824924e+01
3.046687697430e+01
2.138239624322e+01
1.671821041350e+01
2.047691165830e+01
2.153157604547e+01
-1.648755222022e+00
2.391753536963e+01
2.229849400756e+01
-1.439495559899e+00
1.679100715034e+01
2.944303086329e+01
1.674559559623e+01
2.018247012681e+01
2.582251546765e+01
2.427482612158e+01
1.725294109376e+01
2.386497432919e+01
2.352654432571e+01
2.332454836914e+01
2.971706109981e+01
2.986449169641e+01
2.183348164478e+01
1.259459353277e+01
2.215720805595e+01
2.742678142274e+01
1.693649346249e+01
2.135993497027e+01
3.843088458130e+00
2.167777488366e+01
2.128216200464e+01
2.244165860754e+01
2.189980029662e+01
2.180645792078e+01
1.783563215947e+01
2.462933298696e+01
2.063017222940e+01
2.603818930210e+01
2.339340866093e+01
2.578100072698e+01
3.035010732551e+01
2.613512617654e+01
3.000511788198e+01
1.735945517177e+01
2.935512628096e+01
1.820716049304e+01
2.338568138149e+01
2.392026925547e+01
2.637369342692e+01
1.309176963036e+01
2.126462341619e+01
2.107786221728e+01
2.323097050999e+01
1.888301004475e+01
2.093163113940e+01
1.403246127746e+01
2.079561192014e+01
2.781329276068e+01
2.105060065000e+01
3.067022301462e+01
1.975699841111e+01
2.427968565819e+01
1.319498866903e+01
1.233625781493e+01
2.256901454479e+01
2.976928554366e-01
-1.933879762597e-02
2.092644983527e+01
2.379017361940e+01
2.538788141303e+01
2.437986979020e+01
2.679679706328e+01
2.988576124405e+01
-9.074424424577e+00
1.051014328933e+01
2.659475306820e+00
2.375038483286e+01
2.659831245806e+01
2.252734733875e+01
2.065044250222e+01
2.606747255760e+01
2.086700573022e+01
2.853481961715e+01
2.272632147533e+01
2.308249322178e+01
2.303821378256e+01
2.281803526706e+01
2.091717838005e+01
1.970680693055e+01
2.604218839347e+01
1.914760582251e+01
2.705445214520e+01
2.348636369151e+01
2.677699739739e+01
2.167092795440e+01
1.835310584593e+01
2.744109145753e+01
2.544045486385e+01
2.103546723237e+01
5.695665614054e+00
2.122283311649e+01
2.007308098346e+01
1.349290868975e+01
1.112520327949e+01
1.960711873852e+01
3.413085333679e+01
2.980921027591e+00
2.552773043409e+01
2.035681753739e+01
9.256022777022e+00
2.742144113995e+01
2.412469299704e+01
2.217008403481e+01
2.485704326197e+01
1.864319200123e+01
2.801044945314e+01
2.096167185291e+01
2.057535204107e+01
1.669579834768e+01
5.442274488390e+00
1.373022140949e+01
2.044582524766e+01
-3.040546542030e-01
1.361962667018e+01
1.122643172746e+01
2.027966161737e+01
2.791053511050e+01
2.686793114504e+01
2.916754336489e+01
2.098264555385e+01
1.560422603237e+01
2.046036533905e+01
2.881923180372e+01
1.945701603810e+01
8.502490021222e+00
2.372010983246e+01
2.023751212395e+01
2.064454411525e+01
1.837055948361e+01
2.708932341615e+01
2.037715772176e+01
1.352332479285e+01
1.188644881083e+01
1.846573010431e+01
2.079687910627e+01
2.456253815649e+01
2.067550918671e+01
2.257130099972e+01
1.001208223126e+01
2.525295883984e+01
2.539156165863e+01
-5.339821905048e+00
2.022351291820e+01
1.480147901513e+01
7.164170422027e+00
2.054007267451e+01
2.509033941660e+01
2.099749535260e+01
2.133694465036e+01
1.689422651903e+01
2.561442434159e+01
2.333042086031e+01
2.331527019904e+01
2.065719205481e+01
2.046720305139e+01
2.886355400949e+01
4.285192072166e+00
2.760005447717e+01
2.054767830054e+01
2.315469879298e+01
2.211416194915e+01
2.002388313593e+01
1.549692643371e+01
1.871306749934e+01
2.164328046335e+01
6.693782449703e+00
1.884676195759e+01
2.055657281126e+01
7.607726330635e+00
2.384428171151e+01
2.284417135447e+01
2.862831843711e+01
3.163466505032e+00
2.977153687030e+01
1.749964017044e+01
1.483758926178e+01
4.305152270778e+00
2.178099879208e+01
1.314626159677e+01
2.186740014528e+01
1.460652371570e+01
2.207879356547e+01
2.327497454045e+01
2.420907437019e+01
2.004466821603e+01
2.283462073232e+01
1.650740831043e+01
2.065737309221e+01
2.631201561949e+01
1.938696897259e+01
8.950945321258e+00
2.796981087657e+01
1.628099894936e+01
2.066473490433e+01
2.043761342616e+01
2.365786996097e+01
2.210447974216e+01
1.849665354130e+01
2.136557495892e+01
1.940384934001e+01
2.474229700680e+01
2.584452606887e+01
1.976527935979e+01
1.892183782952e+01
1.138019216350e+01
1.489292975298e+01
2.074676533383e+01
2.958615456993e+01
2.072403126964e+01
1.680581509868e+01
2.440261789241e+01
1.802367491992e+01
2.531906890472e+01
2.479569909120e+01
2.433734770882e+01
1.960603567465e+01
2.599873441181e+01
2.489349111705e+01
2.379979019480e+01
1.300072088077e+01
1.836953248852e+01
2.209587164747e+01
2.443103999513e+01
1.870372672916e+01
1.573437744433e+01
1.765644787158e+01
1.689531172713e+01
-2.163041554957e+01
2.390010882772e+01
1.446379817020e+01
1.542529917047e+01
1.985715396383e+01
2.401739506347e+01
2.034552887825e+01
2.657955117205e+01
2.487188721220e+00
2.101591757729e+01
1.248769430157e+01
2.339426313946e+01
2.525215902329e+01
9.362235724463e+00
1.728755543356e+01
2.815945228064e+01
5.385846670210e-01
2.855408679746e+01
2.040144218919e+01
1.670582282017e+01
8.800198307254e+00
1.959456878856e+01
1.889100289870e+01
2.317154352471e+01
2.122741272333e+01
1.481240037434e+01
2.531967151554e+01
1.261659505500e+01
5.588063848230e+00
2.128485273476e+01
1.934298476413e+01
9.481093601445e+00
1.804813519436e+01
1.997062543487e+01
2.700290459454e+01
2.473652564456e+01
2.229891245481e+01
9.029841692244e+00
1.395407039517e+01
1.986727299565e+01
1.995913360664e+01
2.646532909419e+01
2.089051797194e+01
2.321616852304e+01
9.002529646657e+00
2.758358839463e+01
1.548070213528e+01
2.315284520463e+01
2.090186483488e+01
2.102468144857e+01
2.527230444599e+01
6.047848547365e+00
8.297830391521e+00
2.499673761599e+01
2.230833604525e+01
2.317433149152e+01
2.471418187883e+01
2.380983007870e+01
2.575330451450e+01
2.313763804139e+01
1.709363820101e+01
2.357850533362e+01
1.753512681415e+01
1.627882835344e+01
1.869354352502e+01
2.069111192300e+01
9.565250128122e+00
2.273982792604e+01
1.553423725100e+01
2.332810329805e+01
2.057896009289e+01
2.686018382784e+01
2.527609825992e+01
2.316787973905e+01
6.488018747001e+00
1.763065917254e+01
1.918023966449e+01
2.282260908418e+01
1.816151880270e+01
9.926012311368e+00
1.855791398003e+01
1.987107497479e+01
1.417727095753e+01
2.267564787742e+01
2.321932117402e+00
6.666946086590e+00
9.322291087989e+00
1.005728409555e+01
2.747339959634e+01
1.749254263941e+01
1.821526242286e+01
1.216235507639e+01
2.186551495695e+01
1.892108251402e+01
1.748545567220e+01
1.759525893948e+01
1.838321950761e+01
1.779920687381e+01
2.152114110715e+01
1.753905933433e+01
1.443202879849e+01
2.133334697433e+01
5.793529660505e+00
6.681217364871e+00
2.269556631953e+01
-6.217273698491e+00
-2.065314270079e+01
1.878567909147e+01
2.240761055090e+00
1.810205046252e+01
2.222344822283e+01
2.210838580600e+00
8.760752508764e+00
1.829229532025e+01
6.035582210827e+00
1.777721316896e+01
2.056898692011e+01
1.853192725919e+01
2.853583453025e+01
9.240762047110e+00
1.837748909642e+01
2.307233468733e+01
2.173052758427e+01
1.552969270386e+01
2.178104196333e+01
2.467397198544e+01
2.088745980853e+01
2.644496601874e+01
5.214663190085e+00
2.190746785146e+01
1.847576449836e+01
1.843827357235e+01
6.288450244374e+00
9.937354947808e+00
2.053021089456e+01
1.967091856771e+01
1.681437970775e+01
2.419146286551e+01
2.326909363427e+01
2.315604344113e+00
1.814939613358e+01
1.866413766082e+01
1.884996911114e+01
8.999999999681e+01
-5.073009098730e+01
3.194421797810e+00
2.494015195455e+00
2.055908083576e+01
2.063421053682e+01
-2.027151831339e+01
9.608877773412e+00
2.076280880625e+01
2.206016490618e+01
8.906981339524e+00
2.101168876077e+01
2.001415162561e+01
1.943807521135e+01
1.312918330511e+01
1.527901305810e+01
2.354186689308e+01
5.248052906314e+00
1.897724870966e+01
1.947988846455e+01
1.733602028545e+01
1.929115775514e+01
1.119223642851e+01
2.138357805014e+01
1.866782320688e+01
1.812082405175e+01
2.405337142900e+00
2.418858980770e+01
1.831955046021e+01
1.444676973772e+01
-2.021262586583e+01
2.086077055268e+01
2.363719537909e+01
1.524010745932e+01
1.422712608437e+01
2.065088651191e+01
2.167597923010e+01
2.170466137449e+01
2.027542309933e+01
2.231538397330e+01
2.039122843479e+01
1.961033278718e+01
9.060029991911e+00
2.413611969230e+01
1.780363562382e+01
2.168204363461e+01
4.416340710649e+00
-3.660042542898e+00
2.169817351438e+01
1.461291008921e+01
1.639296075795e+01
1.798485568654e+01
8.807410745406e+00
2.247561003211e+01
8.933633732024e+00
2.159474172933e+01
2.260418209189e+01
9.235456699857e+00
2.169818770097e+01
1.846262476706e+01
1.820083602387e+01
2.404815950123e+01
1.767437875243e+01
2.103752989904e+01
2.275719572119e+01
2.280663252961e+01
2.058937030669e+01
1.801612028602e+01
8.203740527915e+00
2.173425573428e+01
1.876341845653e+01
1.098635257157e+01
2.063439496236e+01
2.222828590121e+01
2.080374575281e+01
1.581544667674e+01
2.158748602762e+01
2.161918702943e+01
2.177974570501e+01
1.663685119020e+01
2.083401607381e+01
6.100265091809e+00
1.758459435520e+01
-3.081216573503e+00
1.696988503095e+01
1.430852260368e+01
6.379710385510e-02
2.793499699813e+01
1.859893852409e+01
1.834349040761e+01
1.771818052018e+01
2.231619892138e+01
1.103429752715e+01
-2.003647416524e+01
2.203719494388e+01
-1.610805612128e+01
2.776483291723e+00
3.014588623833e+01
1.873008202304e+01
2.067770612163e+01
1.854896864994e+01
1.134636126171e+01
1.810746117805e+01
2.147550156361e+01
2.262322069865e+01
2.217829111879e+01
2.093873444869e+01
1.935693774797e+01
-4.270690937911e+00
1.959507876693e+01
2.077548826258e+01
-1.227688544868e+00
3.292094924664e+00
2.601873712989e+01
-6.922964639780e+00
2.113611501420e+01
2.049642042342e+01
1.785301314294e+01
2.159941253633e+01
2.266546508020e+01
1.222115978178e+01
1.923114309067e+01
2.370627504539e+01
2.067599236312e+00
1.092563891896e+01
-1.912348033641e+01
2.074552322329e+01
7.002290054004e+00
5.468121102790e+00
1.862261802770e+01
2.024748844639e+01
1.770743303079e+01
1.875331980912e+01
1.577112291855e+01
1.876111438390e+01
2.113006591271e+01
1.869438793630e+01
2.069699152259e+01
6.107255707917e+00
2.200664857734e+01
4.946315179035e+00
1.805342278647e+01
-2.204350630634e+01
2.128984605558e+01
1.862958813956e+01
1.727509849877e+01
2.177792789982e+01
1.524500602591e+01
1.837171774389e+01
2.106304538716e+01
1.351443812923e+01
2.034278568138e+01
1.811791091090e+01
1.438737935595e+01
1.977951439059e+01
1.725027060805e+01
2.339852952855e+00
2.211804788957e+01
1.834756840126e+01
8.614368605074e+01
2.539883679959e+00
2.060497958442e+01
8.204412606310e+00
2.286485663270e+01
1.822507396009e+01
1.819851299476e+01
8.269992066944e+00
2.526767361444e+01
1.969036192206e+01
1.645524884445e+01
7.721730195467e+00
1.862321270687e+01
1.304406989010e+01
1.373114030507e+01
1.169162405760e+01
2.193441608145e+01
1.980696510101e+01
3.499586537224e+01
1.678680650258e+01
1.932070066042e+01
1.987953026096e+01
2.224776332173e+01
1.911023468240e+01
1.935950689426e+01
-7.302483451729e+00
2.115832610767e+01
2.095070936921e+01
2.649560525324e+01
1.834529044521e+01
2.059288974083e+01
6.314854705439e+00
1.300274347047e+01
1.903724518109e+01
1.915244110754e+01
1.943573252229e+01
2.297858231037e+01
8.923490687493e+00
2.085766052059e+01
9.256565600660e+00
1.835257163482e+01
2.269352798902e+01
1.164887085413e+01
1.929126717371e+01
2.230281481350e+01
2.226701370203e+01
2.688045563262e+01
1.922090749443e+01
1.994486043676e+01
-5.495641172192e+00
1.874286083822e+01
2.484843427112e+01
1.940945168395e+01
-3.521020578741e+01
-3.411480234787e+01
-3.534009421355e+01
-3.434170249538e+01
-3.524486034828e+01
-3.459391390682e+01
-3.551322562588e+01
-3.473222612071e+01
-3.604656153719e+01
-3.491984695223e+01
-3.683556761813e+01
-3.514783125402e+01
-3.785974050000e+01
-3.546785919889e+01
-3.907341022608e+01
-2.373559610008e+01
-3.566978001074e+01
-1.967130942715e+01
-4.053114317575e+01
-3.597237732017e+01
-4.231661828044e+01
-3.624998322487e+01
-4.432456837813e+01
-3.628543243233e+01
-4.431276831134e+01
-4.644800728495e+01
-3.604770636942e+01
-4.856806604152e+01
-3.539156462168e+01
-5.046100398421e+01
-3.366759688190e+01
-5.171457796507e+01
-3.172806991596e+01
-2.741202729067e+01
-5.031585486491e+01
-4.900047831671e+00
-4.318648626933e+01
-1.036040871380e+01
-3.329413185248e+01
-3.250510862295e+01
-3.086862753695e+01
-3.499491933802e+01
2.662913965075e-01
-1.742071708046e+01
-1.946537890186e+01
-1.957038483456e+01
-1.975736623884e+01
-1.969316004899e+01
-1.965992545872e+01
-1.959274186357e+01
-1.969613065675e+01
-1.955958575698e+01
-1.964657838137e+01
-1.951156962864e+01
-1.962027735391e+01
-1.945100790591e+01
-1.081158400019e+01
-1.951947824993e+01
-1.943070333215e+01
-1.729282879911e+01
-1.964101125387e+01
-1.942627928951e+01
-1.231493676799e+01
-1.953522007799e+01
-1.936663319694e+01
-1.942822740048e+01
-1.937517340201e+01
-1.945887186147e+01
-7.399556143134e+00
-1.943775872784e+01
-1.943570304911e+01
-1.926359903080e+01
-1.942962630246e+01
-1.908088926803e+01
-1.821820281536e+01
-1.649048965148e+01
-1.627842261974e+01
-1.276958041025e+01
-1.902400045414e+01
-1.677572372802e+01
-2.503685327453e+01
-1.377190467269e+01
-9.566643364502e+00
-5.034090633008e+00
-4.483460803306e+00
-4.486132884300e+00
-4.460129786835e+00
-4.463471861601e+00
-4.394169992914e+00
-4.377170075725e+00
-4.486040082636e+00
-4.513775188595e+00
-4.478772149756e+00
-4.459815890497e+00
-4.526273636785e+00
-2.308784254596e+00
-4.513153358523e+00
-4.481742631843e+00
-4.567112552410e+00
-4.508772966928e+00
-4.673444065623e+00
-4.631510629756e+00
-4.716205346403e+00
-4.548603471788e+00
-4.776528444180e+00
-5.802923614192e+00
-4.519168135388e+00
-4.901198527267e+00
-4.571047607497e+00
-4.989145655053e+00
-4.927952244250e+00
-4.436753559980e+00
-4.003934226453e+00
-2.097809766008e+00
-6.681877027763e+00
-4.148178826800e+00
-4.971226932237e+00
-2.133397174449e+00
-7.598058097522e+00
-4.038797306559e+00


