# vtk DataFile Version 2.0
Calculation C:\Users\NickSteudtner\Documents\GitHub\TOCHNOG\standsicherheit_phiC at time 1.146863162816e+01 
ASCII
DATASET UNSTRUCTURED_GRID
Field FieldData 1
Time 1 1 double
1.146863162816e+01

POINTS 1028 float
0.0 0.0 0.0 
5.000000000000e+01 -1.000000000000e+01 0.0 
0.0 -2.000000000000e+01 0.0 
5.000000000000e+01 -2.000000000000e+01 0.0 
0.0 -9.999999999991e-01 0.0 
0.0 -1.999999999998e+00 0.0 
0.0 -2.999999999997e+00 0.0 
0.0 -3.999999999994e+00 0.0 
0.0 -4.999999999991e+00 0.0 
0.0 -5.999999999988e+00 0.0 
0.0 -6.999999999985e+00 0.0 
0.0 -7.999999999982e+00 0.0 
0.0 -8.999999999983e+00 0.0 
0.0 -9.999999999985e+00 0.0 
0.0 -1.099999999999e+01 0.0 
0.0 -1.199999999999e+01 0.0 
0.0 -1.299999999999e+01 0.0 
0.0 -1.399999999999e+01 0.0 
0.0 -1.499999999999e+01 0.0 
0.0 -1.599999999999e+01 0.0 
0.0 -1.700000000000e+01 0.0 
0.0 -1.800000000000e+01 0.0 
0.0 -1.900000000000e+01 0.0 
4.900000000001e+01 -2.000000000000e+01 0.0 
4.800000000001e+01 -2.000000000000e+01 0.0 
4.700000000002e+01 -2.000000000000e+01 0.0 
4.600000000003e+01 -2.000000000000e+01 0.0 
4.500000000004e+01 -2.000000000000e+01 0.0 
4.400000000004e+01 -2.000000000000e+01 0.0 
4.300000000005e+01 -2.000000000000e+01 0.0 
4.200000000006e+01 -2.000000000000e+01 0.0 
4.100000000006e+01 -2.000000000000e+01 0.0 
4.000000000007e+01 -2.000000000000e+01 0.0 
3.900000000008e+01 -2.000000000000e+01 0.0 
3.800000000009e+01 -2.000000000000e+01 0.0 
3.700000000009e+01 -2.000000000000e+01 0.0 
3.600000000010e+01 -2.000000000000e+01 0.0 
3.500000000011e+01 -2.000000000000e+01 0.0 
3.400000000011e+01 -2.000000000000e+01 0.0 
3.300000000012e+01 -2.000000000000e+01 0.0 
3.200000000013e+01 -2.000000000000e+01 0.0 
3.100000000013e+01 -2.000000000000e+01 0.0 
3.000000000013e+01 -2.000000000000e+01 0.0 
2.900000000013e+01 -2.000000000000e+01 0.0 
2.800000000013e+01 -2.000000000000e+01 0.0 
2.700000000013e+01 -2.000000000000e+01 0.0 
2.600000000013e+01 -2.000000000000e+01 0.0 
2.500000000013e+01 -2.000000000000e+01 0.0 
2.400000000013e+01 -2.000000000000e+01 0.0 
2.300000000013e+01 -2.000000000000e+01 0.0 
2.200000000013e+01 -2.000000000000e+01 0.0 
2.100000000013e+01 -2.000000000000e+01 0.0 
2.000000000013e+01 -2.000000000000e+01 0.0 
1.900000000013e+01 -2.000000000000e+01 0.0 
1.800000000013e+01 -2.000000000000e+01 0.0 
1.700000000012e+01 -2.000000000000e+01 0.0 
1.600000000011e+01 -2.000000000000e+01 0.0 
1.500000000011e+01 -2.000000000000e+01 0.0 
1.400000000010e+01 -2.000000000000e+01 0.0 
1.300000000009e+01 -2.000000000000e+01 0.0 
1.200000000009e+01 -2.000000000000e+01 0.0 
1.100000000008e+01 -2.000000000000e+01 0.0 
1.000000000007e+01 -2.000000000000e+01 0.0 
9.000000000064e+00 -2.000000000000e+01 0.0 
8.000000000057e+00 -2.000000000000e+01 0.0 
7.000000000050e+00 -2.000000000000e+01 0.0 
6.000000000043e+00 -2.000000000000e+01 0.0 
5.000000000036e+00 -2.000000000000e+01 0.0 
4.000000000028e+00 -2.000000000000e+01 0.0 
3.000000000021e+00 -2.000000000000e+01 0.0 
2.000000000014e+00 -2.000000000000e+01 0.0 
1.000000000007e+00 -2.000000000000e+01 0.0 
5.000000000000e+01 -1.100000000000e+01 0.0 
5.000000000000e+01 -1.200000000000e+01 0.0 
5.000000000000e+01 -1.300000000000e+01 0.0 
5.000000000000e+01 -1.400000000000e+01 0.0 
5.000000000000e+01 -1.500000000000e+01 0.0 
5.000000000000e+01 -1.600000000000e+01 0.0 
5.000000000000e+01 -1.700000000000e+01 0.0 
5.000000000000e+01 -1.800000000000e+01 0.0 
5.000000000000e+01 -1.900000000000e+01 0.0 
2.000000000000e+01 0.0 0.0 
3.500000000000e+01 -1.000000000000e+01 0.0 
2.150000000000e+01 -1.000000000000e+00 0.0 
2.300000000000e+01 -2.000000000000e+00 0.0 
2.450000000000e+01 -3.000000000000e+00 0.0 
2.600000000000e+01 -4.000000000000e+00 0.0 
2.750000000000e+01 -5.000000000000e+00 0.0 
2.900000000000e+01 -6.000000000000e+00 0.0 
3.050000000000e+01 -7.000000000000e+00 0.0 
3.200000000000e+01 -8.000000000000e+00 0.0 
3.350000000000e+01 -9.000000000000e+00 0.0 
4.900000000000e+01 -1.000000000000e+01 0.0 
4.800000000000e+01 -1.000000000000e+01 0.0 
4.700000000000e+01 -1.000000000000e+01 0.0 
4.600000000000e+01 -1.000000000000e+01 0.0 
4.500000000000e+01 -1.000000000000e+01 0.0 
4.400000000000e+01 -1.000000000000e+01 0.0 
4.300000000000e+01 -1.000000000000e+01 0.0 
4.200000000000e+01 -1.000000000000e+01 0.0 
4.100000000000e+01 -1.000000000000e+01 0.0 
4.000000000000e+01 -1.000000000000e+01 0.0 
3.900000000000e+01 -1.000000000000e+01 0.0 
3.800000000000e+01 -1.000000000000e+01 0.0 
3.700000000000e+01 -1.000000000000e+01 0.0 
3.600000000000e+01 -1.000000000000e+01 0.0 
1.900000000000e+01 0.0 0.0 
1.800000000000e+01 0.0 0.0 
1.700000000000e+01 0.0 0.0 
1.600000000000e+01 0.0 0.0 
1.500000000000e+01 0.0 0.0 
1.400000000000e+01 0.0 0.0 
1.300000000000e+01 0.0 0.0 
1.200000000000e+01 0.0 0.0 
1.100000000000e+01 0.0 0.0 
1.000000000000e+01 0.0 0.0 
9.000000000000e+00 0.0 0.0 
8.000000000000e+00 0.0 0.0 
7.000000000000e+00 0.0 0.0 
6.000000000000e+00 0.0 0.0 
5.000000000000e+00 0.0 0.0 
4.000000000000e+00 0.0 0.0 
3.000000000000e+00 0.0 0.0 
2.000000000000e+00 0.0 0.0 
1.000000000000e+00 0.0 0.0 
2.075000000000e+01 -5.000000000006e-01 0.0 
2.225000000000e+01 -1.500000000000e+00 0.0 
2.375000000000e+01 -2.500000000000e+00 0.0 
2.525000000000e+01 -3.500000000000e+00 0.0 
2.675000000000e+01 -4.500000000000e+00 0.0 
2.825000000000e+01 -5.500000000000e+00 0.0 
2.975000000000e+01 -6.500000000000e+00 0.0 
3.125000000000e+01 -7.500000000000e+00 0.0 
3.275000000000e+01 -8.500000000000e+00 0.0 
3.425000000000e+01 -9.500000000000e+00 0.0 
2.226951693683e+01 -2.403913980114e+00 0.0 
1.650149491944e+01 -1.913490915758e+01 0.0 
1.050042386896e+01 -8.504605092970e-01 0.0 
1.553146524712e+01 -8.281255032105e-01 0.0 
1.150000000008e+01 -1.913397459621e+01 0.0 
2.530060260647e+01 -4.428336431260e+00 0.0 
8.651114563942e-01 -1.052096295641e+01 0.0 
2.050000000013e+01 -1.913397459622e+01 0.0 
2.819198729811e+01 -6.399519052838e+00 0.0 
2.445670302931e+01 -1.915649188023e+01 0.0 
3.117591465718e+01 -8.394293040695e+00 0.0 
7.465053044742e+00 -1.920411160581e+01 0.0 
6.398295709691e+00 -8.230098819370e-01 0.0 
2.849659607461e+01 -1.914296187762e+01 0.0 
3.418732642882e+01 -1.040265792588e+01 0.0 
8.386450935063e-01 -6.533605142809e+00 0.0 
9.178661865596e-01 -1.329769195597e+01 0.0 
3.149448624493e+01 -1.910466733764e+01 0.0 
3.552916747426e+01 -1.914628590759e+01 0.0 
4.449210346537e+01 -1.914359085008e+01 0.0 
4.140975975145e+01 -1.906941860733e+01 0.0 
3.847475958753e+01 -1.916622382724e+01 0.0 
3.653774794640e+01 -1.088712800241e+01 0.0 
4.047886341787e+01 -1.090139014048e+01 0.0 
4.348006339825e+01 -1.092792621489e+01 0.0 
4.919519968029e+01 -1.451526755068e+01 0.0 
4.500000000032e+00 -1.913397459621e+01 0.0 
1.856136921614e+01 -8.212235170404e-01 0.0 
3.499895312306e+00 -8.661165539723e-01 0.0 
9.076088696565e-01 -1.642306201891e+01 0.0 
4.655174095477e+01 -1.086183387525e+01 0.0 
9.430688970604e-01 -3.496112672958e+00 0.0 
3.353992337063e+01 -1.901202090820e+01 0.0 
2.249746016977e+01 -1.921262287282e+01 0.0 
2.650122741777e+01 -1.916123026018e+01 0.0 
1.863571384842e+01 -1.908325534840e+01 0.0 
1.450089971693e+01 -1.917691901860e+01 0.0 
1.350044695317e+01 -8.659695299584e-01 0.0 
3.849987469880e+01 -1.084154983397e+01 0.0 
9.454419857884e+00 -1.900818879936e+01 0.0 
4.917398660523e+01 -1.645692866081e+01 0.0 
8.500000000000e+00 -8.660254037844e-01 0.0 
8.660319230785e-01 -8.500111697188e+00 0.0 
4.649022621545e+01 -1.930506220113e+01 0.0 
2.667688107845e+01 -5.420288124331e+00 0.0 
2.379251615665e+01 -3.412225477429e+00 0.0 
2.966631491830e+01 -7.389030232731e+00 0.0 
3.267915035995e+01 -9.396934932445e+00 0.0 
2.074836922338e+01 -1.320054020319e+00 0.0 
4.915985743621e+01 -1.261973384855e+01 0.0 
2.527129768623e+00 -1.931592414663e+01 0.0 
1.538676247410e+00 -8.436956619311e-01 0.0 
4.908096641539e+01 -1.842484004551e+01 0.0 
3.478612492673e+01 -1.090889364140e+01 0.0 
3.409757055860e+01 -1.131991530427e+01 0.0 
3.501895309466e+01 -1.177687842717e+01 0.0 
3.407758073088e+01 -1.224293381580e+01 0.0 
3.484541875390e+01 -1.277051428430e+01 0.0 
3.400322025842e+01 -1.319022775640e+01 0.0 
3.321672625034e+01 -1.266779191233e+01 0.0 
3.315244139236e+01 -1.360984106532e+01 0.0 
3.236335186892e+01 -1.308463225210e+01 0.0 
3.478337442841e+01 -1.372341158982e+01 0.0 
3.230105923633e+01 -1.403023731610e+01 0.0 
3.150954055289e+01 -1.350301767700e+01 0.0 
3.144604792090e+01 -1.444931742516e+01 0.0 
3.065653897123e+01 -1.392357262981e+01 0.0 
3.071897610812e+01 -1.297447031198e+01 0.0 
2.986790411740e+01 -1.339226181535e+01 0.0 
2.993181466745e+01 -1.244703272398e+01 0.0 
2.908023061869e+01 -1.286254537734e+01 0.0 
2.901619051372e+01 -1.380881655279e+01 0.0 
2.822986160390e+01 -1.327695262116e+01 0.0 
2.829453476870e+01 -1.233265343811e+01 0.0 
2.744542905518e+01 -1.274510491105e+01 0.0 
2.751120089246e+01 -1.180368086886e+01 0.0 
2.666218649885e+01 -1.221619339205e+01 0.0 
2.672371209234e+01 -1.127125228527e+01 0.0 
2.587763216302e+01 -1.168539979114e+01 0.0 
2.581165585299e+01 -1.262994410089e+01 0.0 
2.502890882577e+01 -1.209827323619e+01 0.0 
2.509631327757e+01 -1.115492410304e+01 0.0 
2.424662989877e+01 -1.156630981079e+01 0.0 
2.431704046904e+01 -1.062389179334e+01 0.0 
2.346445438728e+01 -1.103427680694e+01 0.0 
2.339382552877e+01 -1.197964871788e+01 0.0 
2.260936050780e+01 -1.144513277642e+01 0.0 
2.268075012022e+01 -1.049911928216e+01 0.0 
2.182525737661e+01 -1.090920811464e+01 0.0 
2.189682319817e+01 -9.961716944568e+00 0.0 
2.104174127792e+01 -1.037266986667e+01 0.0 
2.111304367575e+01 -9.424179358711e+00 0.0 
2.025306185381e+01 -9.832727364719e+00 0.0 
2.018141124247e+01 -1.079140628871e+01 0.0 
1.938594498257e+01 -1.025147354112e+01 0.0 
1.946106490453e+01 -9.288010758448e+00 0.0 
1.858929958352e+01 -9.706319802516e+00 0.0 
1.851540991219e+01 -1.067205988724e+01 0.0 
1.771485303178e+01 -1.012504443115e+01 0.0 
1.764134552256e+01 -1.109360378538e+01 0.0 
1.683745148095e+01 -1.054496365337e+01 0.0 
1.691852964353e+01 -9.582555261178e+00 0.0 
1.603603813062e+01 -1.000160132379e+01 0.0 
1.595824239350e+01 -1.096750698862e+01 0.0 
1.515080624291e+01 -1.041639501931e+01 0.0 
1.523171602559e+01 -9.451711491453e+00 0.0 
1.434621060709e+01 -9.871956467464e+00 0.0 
1.426777178765e+01 -1.083749501371e+01 0.0 
1.345775282374e+01 -1.028803175500e+01 0.0 
1.354103873368e+01 -9.324918457162e+00 0.0 
1.265072018622e+01 -9.742612837270e+00 0.0 
1.257285762070e+01 -1.071557782384e+01 0.0 
1.175874815690e+01 -1.015972324288e+01 0.0 
1.184203019714e+01 -9.193604071377e+00 0.0 
1.094927709905e+01 -9.612103238656e+00 0.0 
1.086938022910e+01 -1.058685085646e+01 0.0 
1.005424098961e+01 -1.002939116380e+01 0.0 
9.977974613295e+00 -1.101324897989e+01 0.0 
1.012915646404e+01 -9.051815821181e+00 0.0 
9.237127782494e+00 -9.471239055559e+00 0.0 
9.308426593771e+00 -8.483376461131e+00 0.0 
8.418806073345e+00 -8.910712374517e+00 0.0 
2.253688464062e+01 -1.239459402279e+01 0.0 
8.495126726666e+00 -7.921646665254e+00 0.0 
9.389727383206e+00 -7.512103628377e+00 0.0 
7.601560812974e+00 -8.349460349344e+00 0.0 
7.525680547759e+00 -9.339736686940e+00 0.0 
7.677888324502e+00 -7.359727833346e+00 0.0 
6.782001206724e+00 -7.788454494773e+00 0.0 
6.858778622885e+00 -6.797338062822e+00 0.0 
2.196596590865e+01 -8.979025665442e+00 0.0 
2.816540108272e+01 -1.422634142353e+01 0.0 
5.961601194403e+00 -7.226824010712e+00 0.0 
6.038171749656e+00 -6.234825887079e+00 0.0 
6.936257279557e+00 -5.805287640737e+00 0.0 
6.115068918323e+00 -5.242109758768e+00 0.0 
3.564391741903e+01 -1.329240553876e+01 0.0 
3.558115605778e+01 -1.425902892003e+01 0.0 
3.645445282201e+01 -1.381970786460e+01 0.0 
3.639744204358e+01 -1.479198128612e+01 0.0 
3.727266909778e+01 -1.435399586226e+01 0.0 
5.216667013081e+00 -5.671788584287e+00 0.0 
3.220697293295e+01 -1.499594545107e+01 0.0 
3.551112158269e+01 -1.523479869250e+01 0.0 
2.836056961467e+01 -1.139032434851e+01 0.0 
2.516730388602e+01 -1.021382726837e+01 0.0 
1.844436907403e+01 -1.164097215196e+01 0.0 
5.885434318740e+00 -8.218694781467e+00 0.0 
5.064071066867e+00 -7.656614643901e+00 0.0 
4.988089103470e+00 -8.649722082718e+00 0.0 
1.079421050408e+01 -1.157014985435e+01 0.0 
9.902420005256e+00 -1.199903342656e+01 0.0 
1.071994252214e+01 -1.255727909771e+01 0.0 
9.826974788171e+00 -1.298659581767e+01 0.0 
1.064607883789e+01 -1.354595476388e+01 0.0 
9.751541265343e+00 -1.397556905071e+01 0.0 
8.932296185869e+00 -1.341553353988e+01 0.0 
8.856399248106e+00 -1.440570715508e+01 0.0 
8.036186803543e+00 -1.384470558472e+01 0.0 
1.057112875118e+01 -1.453516759081e+01 0.0 
1.146582585687e+01 -1.410539926903e+01 0.0 
7.959894480382e+00 -1.483563350928e+01 0.0 
7.138792279156e+00 -1.427465094140e+01 0.0 
7.062506792418e+00 -1.526615385482e+01 0.0 
6.240693558277e+00 -1.470508863040e+01 0.0 
6.316957575451e+00 -1.371212581281e+01 0.0 
5.418183007107e+00 -1.414253605022e+01 0.0 
5.494748364428e+00 -1.314886770603e+01 0.0 
1.756825565873e+01 -1.206433872514e+01 0.0 
1.837565773345e+01 -1.261356468266e+01 0.0 
1.749574831391e+01 -1.303769280014e+01 0.0 
1.830539187332e+01 -1.358828364284e+01 0.0 
1.742278925170e+01 -1.401367746928e+01 0.0 
1.823303007798e+01 -1.456432294258e+01 0.0 
1.734941694138e+01 -1.499213734361e+01 0.0 
1.653760041637e+01 -1.443920312098e+01 0.0 
3.056237977307e+01 -1.487132260174e+01 0.0 
1.866469084762e+01 -8.742953000418e+00 0.0 
1.953669694916e+01 -8.326038909849e+00 0.0 
1.874194303780e+01 -7.780688158966e+00 0.0 
1.961032016741e+01 -7.366854697285e+00 0.0 
1.881715755159e+01 -6.821102209649e+00 0.0 
1.968369797150e+01 -6.407747217358e+00 0.0 
1.889237123259e+01 -5.858375520026e+00 0.0 
1.802038875366e+01 -6.276202618170e+00 0.0 
1.809793837984e+01 -5.307629520489e+00 0.0 
1.721985207997e+01 -5.728242054488e+00 0.0 
1.729850893523e+01 -4.756990819347e+00 0.0 
1.641745664240e+01 -5.174636548624e+00 0.0 
2.495978509456e+01 -1.304406404294e+01 0.0 
1.911567814831e+01 -1.413854250293e+01 0.0 
1.904387332608e+01 -1.511463127723e+01 0.0 
1.992115934240e+01 -1.468788025898e+01 0.0 
7.013706899628e+00 -4.812582868662e+00 0.0 
5.342091874585e+00 -1.513658157269e+01 0.0 
1.139098043784e+01 -1.509488509480e+01 0.0 
1.228151810610e+01 -1.465617481983e+01 0.0 
1.646373110164e+01 -1.541993323337e+01 0.0 
5.293328636712e+00 -4.678385108584e+00 0.0 
1.975965862987e+01 -5.448124345648e+00 0.0 
2.054318374236e+01 -5.992561293251e+00 0.0 
3.721453439063e+01 -1.533216152738e+01 0.0 
3.809302733893e+01 -1.489235527381e+01 0.0 
1.220852788900e+01 -1.565304565230e+01 0.0 
4.394120899730e+00 -5.108397613210e+00 0.0 
8.779354620288e+00 -1.539524721159e+01 0.0 
1.817791047702e+01 -4.338570146253e+00 0.0 
4.518860013839e+00 -1.457343189307e+01 0.0 
4.442712140414e+00 -1.556841391069e+01 0.0 
8.115343466391e+00 -1.285760324283e+01 0.0 
1.985334703171e+01 -1.566478400426e+01 0.0 
2.071953850276e+01 -1.522074243119e+01 0.0 
1.634012953883e+01 -6.154777738301e+00 0.0 
1.553479994708e+01 -5.593730508879e+00 0.0 
1.561265946942e+01 -4.617761762647e+00 0.0 
1.470674212978e+01 -5.064576488228e+00 0.0 
1.464498299883e+01 -6.026514471420e+00 0.0 
1.383271561817e+01 -5.467796261169e+00 0.0 
1.389241253067e+01 -4.504338666645e+00 0.0 
1.301868735463e+01 -4.907185188626e+00 0.0 
1.294514184846e+01 -5.888160903592e+00 0.0 
1.212955968622e+01 -5.328262335277e+00 0.0 
1.220721122383e+01 -4.341264976687e+00 0.0 
1.131324345897e+01 -4.766773516508e+00 0.0 
5.266597955397e+00 -1.613148974258e+01 0.0 
1.737805990867e+01 -3.786677807525e+00 0.0 
3.078438094513e+01 -1.203225297748e+01 0.0 
1.131569882285e+01 -1.608511932110e+01 0.0 
1.728478341782e+01 -1.596017432313e+01 0.0 
3.803465906019e+01 -1.587509751228e+01 0.0 
3.891681276677e+01 -1.543395196905e+01 0.0 
3.897340985302e+01 -1.444710288980e+01 0.0 
3.980095968193e+01 -1.499059496613e+01 0.0 
3.974334598189e+01 -1.597921884150e+01 0.0 
4.062964983717e+01 -1.553518690417e+01 0.0 
4.068729602479e+01 -1.454434445295e+01 0.0 
4.151772679790e+01 -1.508974196007e+01 0.0 
4.157505195739e+01 -1.409694289912e+01 0.0 
4.240699932656e+01 -1.464347955968e+01 0.0 
4.234898051011e+01 -1.563721375790e+01 0.0 
4.323934606035e+01 -1.519082036405e+01 0.0 
4.329740528208e+01 -1.419587509788e+01 0.0 
4.413056841369e+01 -1.474359631875e+01 0.0 
4.418850110108e+01 -1.374786684042e+01 0.0 
4.502219770667e+01 -1.429605103525e+01 0.0 
4.496411937907e+01 -1.529215882720e+01 0.0 
4.490027319897e+00 -4.154167794594e+00 0.0 
1.565080385988e+01 -1.486411982419e+01 0.0 
1.557610691279e+01 -1.584855627870e+01 0.0 
4.195350646612e+00 -8.089117689096e+00 0.0 
4.124027797830e+00 -9.082831955007e+00 0.0 
4.917944318925e+00 -9.643530901533e+00 0.0 
4.020105689502e+00 -1.007439673661e+01 0.0 
4.587185899277e+01 -1.484039992728e+01 0.0 
4.580078661551e+01 -1.584043391042e+01 0.0 
2.061956522375e+01 -5.046701343981e+00 0.0 
2.139572955529e+01 -5.579553449826e+00 0.0 
3.715344357292e+01 -1.631485124583e+01 0.0 
3.618886196443e+00 -1.500471207167e+01 0.0 
3.695606940204e+00 -1.400939692294e+01 0.0 
2.438890661143e+01 -9.686110599723e+00 0.0 
2.523267572778e+01 -9.276766000622e+00 0.0 
2.446094171539e+01 -8.751904591412e+00 0.0 
2.529089822738e+01 -8.321495612547e+00 0.0 
2.606882688827e+01 -8.864724051119e+00 0.0 
2.452116646430e+01 -7.792756462004e+00 0.0 
1.235543269617e+01 -1.365845617339e+01 0.0 
4.318116874181e+01 -1.618567469992e+01 0.0 
7.835066111909e+00 -5.376366223896e+00 0.0 
7.905687335704e+00 -4.382539065697e+00 0.0 
3.542640009567e+00 -1.600035116542e+01 0.0 
1.572431503071e+01 -1.388358386695e+01 0.0 
2.574684696680e+01 -1.357896141127e+01 0.0 
2.488842657651e+01 -1.399674354505e+01 0.0 
2.568301775611e+01 -1.453552048595e+01 0.0 
2.481535572009e+01 -1.495542756508e+01 0.0 
2.561729699688e+01 -1.549784648532e+01 0.0 
2.474623061296e+01 -1.592058894178e+01 0.0 
2.394234041695e+01 -1.537572575827e+01 0.0 
2.065825452567e+01 -1.621899055217e+01 0.0 
2.387180528935e+01 -1.634552264687e+01 0.0 
4.585364400844e+01 -1.383912334080e+01 0.0 
1.998744432052e+01 -1.370317155541e+01 0.0 
1.205356951443e+01 -6.313580285498e+00 0.0 
5.396543905849e+00 -3.731818611283e+00 0.0 
1.139652573295e+01 -3.745819399350e+00 0.0 
3.574124306703e+00 -4.551456826011e+00 0.0 
3.494140761930e+00 -5.539787055649e+00 0.0 
1.213651452413e+01 -1.664505033022e+01 0.0 
2.555045568519e+01 -1.646529356744e+01 0.0 
2.641671114986e+01 -1.603899382371e+01 0.0 
2.612920721894e+01 -7.906435260873e+00 0.0 
2.690339829698e+01 -8.456969591431e+00 0.0 
1.978024383368e+01 -1.664410216353e+01 0.0 
3.732829979082e+01 -1.336926601859e+01 0.0 
4.074336584605e+01 -1.355133328401e+01 0.0 
4.163204691081e+01 -1.310280943992e+01 0.0 
3.773826114429e+00 -3.493444309145e+00 0.0 
1.228783001032e+01 -3.374822835872e+00 0.0 
4.057110462520e+01 -1.652588478000e+01 0.0 
2.132535497898e+01 -6.523623360525e+00 0.0 
2.216932532211e+01 -6.110044769206e+00 0.0 
1.825781152128e+01 -3.370146817147e+00 0.0 
1.745679445888e+01 -2.812942552063e+00 0.0 
4.666517057280e+01 -1.539981381543e+01 0.0 
4.660575894464e+01 -1.639014410186e+01 0.0 
4.838230979954e+00 -1.063643436446e+01 0.0 
3.938942630206e+00 -1.106778981745e+01 0.0 
1.302967218620e+01 -1.621373452436e+01 0.0 
1.049548003190e+01 -4.204825123240e+00 0.0 
4.573571907195e+01 -1.683820511148e+01 0.0 
1.483686335807e+01 -1.430849689310e+01 0.0 
1.490982658890e+01 -1.332679386284e+01 0.0 
3.190805600162e+00 -9.510968358545e+00 0.0 
2.146625721848e+01 -4.642437303115e+00 0.0 
2.069866208266e+01 -4.111852942193e+00 0.0 
1.286859345584e+01 -6.873252723348e+00 0.0 
1.041794493184e+01 -5.194814260291e+00 0.0 
2.671081808965e+00 -4.976806516331e+00 0.0 
1.295786792925e+01 -1.720506531799e+01 0.0 
3.968438206511e+01 -1.696869067241e+01 0.0 
2.308550456051e+01 -1.579963151273e+01 0.0 
2.315593682844e+01 -1.482967445235e+01 0.0 
2.299471449450e+01 -1.677069968132e+01 0.0 
1.057344714696e+01 -3.214252277840e+00 0.0 
1.124057603753e+01 -1.707713739755e+01 0.0 
2.718402535754e+00 -1.543629882103e+01 0.0 
2.638549692805e+01 -1.696744916809e+01 0.0 
2.723416349007e+01 -1.658104204545e+01 0.0 
2.210193351704e+01 -7.046769643417e+00 0.0 
2.295180925161e+01 -6.657397605239e+00 0.0 
2.301355235833e+01 -5.709111896800e+00 0.0 
2.379052718281e+01 -6.254965406962e+00 0.0 
3.243528601237e+01 -1.214181853533e+01 0.0 
2.287977995457e+01 -7.583722368300e+00 0.0 
2.999876029544e+01 -1.150837653096e+01 0.0 
3.084435366963e+01 -1.109693775882e+01 0.0 
3.006650579669e+01 -1.057778994262e+01 0.0 
2.683802665066e+01 -9.386863216633e+00 0.0 
2.768641973621e+01 -8.988883915666e+00 0.0 
2.040296980397e+01 -7.903629133404e+00 0.0 
1.925235024054e+01 -1.218872783130e+01 0.0 
5.735667000424e+00 -1.020577277283e+01 0.0 
6.396559909872e+00 -1.272326295703e+01 0.0 
1.161199420714e+01 -1.212812778229e+01 0.0 
4.229046132615e+01 -1.663084237572e+01 0.0 
4.312275399692e+01 -1.718087491556e+01 0.0 
4.335502068163e+01 -1.320039231514e+01 0.0 
4.424630298089e+01 -1.275160688731e+01 0.0 
7.090116643816e+00 -3.818998061530e+00 0.0 
7.989472176569e+00 -3.389238711200e+00 0.0 
9.085824861778e+00 -1.144036167408e+01 0.0 
1.041972423731e+01 -1.651614080893e+01 0.0 
3.797525112640e+01 -1.686052038746e+01 0.0 
3.709114253394e+01 -1.730125999865e+01 0.0 
3.626966748340e+01 -1.675477052919e+01 0.0 
1.385164591440e+01 -1.677597757552e+01 0.0 
1.787152588784e+01 -8.198993896093e+00 0.0 
1.668849729812e+01 -1.248560611628e+01 0.0 
1.659546177905e+01 -3.232482605530e+00 0.0 
2.332214717345e+01 -1.292598167641e+01 0.0 
7.168238450786e+00 -2.824711686516e+00 0.0 
2.894878403906e+01 -1.475427524446e+01 0.0 
2.646763248247e+00 -1.643270107952e+01 0.0 
3.467431944285e+00 -1.699648837348e+01 0.0 
2.059475877282e+01 -1.719473628526e+01 0.0 
3.333868355437e+01 -1.080596971682e+01 0.0 
2.246451062637e+01 -1.334557761546e+01 0.0 
2.167821896388e+01 -1.280847834858e+01 0.0 
3.089653185767e+01 -1.017198487212e+01 0.0 
3.012604365669e+01 -9.657298805968e+00 0.0 
2.929627299435e+01 -1.006100135274e+01 0.0 
2.936201435219e+01 -9.136748899251e+00 0.0 
1.198219052702e+01 -7.291887238230e+00 0.0 
1.116702076035e+01 -6.731976101053e+00 0.0 
2.551388807505e+01 -1.746927036981e+01 0.0 
2.378639090370e+01 -1.728678807149e+01 0.0 
2.718543627188e+01 -1.748668016909e+01 0.0 
2.804681050301e+01 -1.712626668293e+01 0.0 
1.970737034667e+01 -1.762317646822e+01 0.0 
1.889535776135e+01 -1.707158098231e+01 0.0 
2.593777711283e+00 -5.971157087874e+00 0.0 
2.773468281110e+01 -8.067164273938e+00 0.0 
4.051205884347e+01 -1.751819982458e+01 0.0 
3.166903145421e+01 -1.068032992414e+01 0.0 
1.033042452886e+01 -1.748285844336e+01 0.0 
9.519274604626e+00 -1.694349240233e+01 0.0 
1.668308673328e+01 -2.255861778986e+00 0.0 
1.570531902832e+01 -2.676795860126e+00 0.0 
4.655826903379e+01 -1.736656245706e+01 0.0 
2.384148070773e+01 -5.328744256413e+00 0.0 
2.460255123641e+01 -5.852182672816e+00 0.0 
2.306638135119e+01 -4.798935440613e+00 0.0 
8.467720450578e-01 -1.849576263072e+01 0.0 
4.849657322345e+01 -1.084860705506e+01 0.0 
2.565860899507e+00 -1.742859793981e+01 0.0 
2.764418872564e+01 -9.927142821799e+00 0.0 
4.565165880064e+01 -1.785336695404e+01 0.0 
2.162231831329e+01 -1.376528337468e+01 0.0 
2.360646352969e+01 -9.136041963102e+00 0.0 
1.392738739903e+01 -1.578285505772e+01 0.0 
4.756405947478e+01 -1.683706841809e+01 0.0 
4.740895034054e+01 -1.793766756892e+01 0.0 
4.080779328826e+01 -1.257387192544e+01 0.0 
4.168907939671e+01 -1.210739129181e+01 0.0 
3.991197722154e+01 -1.300815793917e+01 0.0 
1.905536506762e+01 -3.940076697685e+00 0.0 
1.923879596617e+01 -2.875000734166e+00 0.0 
4.401386745746e+01 -1.673483229438e+01 0.0 
4.247233362525e+00 -7.094581653070e+00 0.0 
3.286051630211e+00 -7.635300020553e+00 0.0 
9.609533347623e+00 -4.594311677967e+00 0.0 
9.523554636369e+00 -5.595597029530e+00 0.0 
5.660336628893e+00 -1.119290329628e+01 0.0 
6.558070063295e+00 -1.076385809362e+01 0.0 
2.809866407414e+01 -1.518037766799e+01 0.0 
2.888868674504e+01 -1.570360690070e+01 0.0 
2.654431550819e+01 -1.411217777162e+01 0.0 
1.402158265969e+01 -1.375404617952e+01 0.0 
1.409592494026e+01 -1.277071998942e+01 0.0 
1.499355196178e+01 -1.235270737023e+01 0.0 
4.221535326155e+01 -1.759335617494e+01 0.0 
4.305583287033e+01 -1.822663146802e+01 0.0 
1.280748808359e+01 -7.834332838285e+00 0.0 
1.368988389326e+01 -7.420529606172e+00 0.0 
1.110091796060e+01 -7.683966794328e+00 0.0 
3.963446145980e+01 -1.794331310122e+01 0.0 
3.423932362213e+00 -1.796415590455e+01 0.0 
4.280814572302e+00 -1.752272834860e+01 0.0 
8.050136380041e+00 -2.421582378631e+00 0.0 
8.888674091650e+00 -2.984264211327e+00 0.0 
2.152839430898e+01 -3.732609965436e+00 0.0 
2.077799585292e+01 -3.183896021866e+00 0.0 
3.618719395821e+01 -1.770276572576e+01 0.0 
3.538165138340e+01 -1.718709995539e+01 0.0 
3.702925326420e+01 -1.828844288807e+01 0.0 
1.756739438711e+00 -5.353284859169e+00 0.0 
2.233710191104e+01 -1.527265621324e+01 0.0 
1.389483555057e+01 -1.771797164730e+01 0.0 
1.475634224300e+01 -1.728357428390e+01 0.0 
1.298797563052e+01 -1.825968924755e+01 0.0 
2.145331271866e+01 -1.673705379077e+01 0.0 
2.133282821169e+01 -1.769400773673e+01 0.0 
2.292139194136e+01 -1.774915400288e+01 0.0 
1.750750053243e+01 -1.861475593469e+00 0.0 
4.830478841772e+01 -1.752611802221e+01 0.0 
4.341203507805e+01 -1.220326745522e+01 0.0 
1.685254151866e+01 -1.443085301632e+00 0.0 
4.431538535165e+01 -1.171841387375e+01 0.0 
4.511308610496e+01 -1.229557320599e+01 0.0 
4.510133242889e+01 -1.123680627466e+01 0.0 
1.846818030617e+00 -4.410877617069e+00 0.0 
3.995468694584e+01 -1.186571542989e+01 0.0 
3.901387459804e+01 -1.242507616755e+01 0.0 
8.966735877533e+00 -1.837818700423e+00 0.0 
4.049310011091e+01 -1.848269508791e+01 0.0 
7.278862053803e+00 -1.918523922691e+00 0.0 
6.429715522129e+00 -2.316676521184e+00 0.0 
9.443505505022e+00 -1.792198868094e+01 0.0 
8.620386951051e+00 -1.737590365556e+01 0.0 
8.571868171503e+00 -1.834436667826e+01 0.0 
7.758629848526e+00 -1.775677907213e+01 0.0 
7.806648388584e+00 -1.680761266021e+01 0.0 
6.908555145436e+00 -1.723746463044e+01 0.0 
4.251709122090e+01 -1.156937480156e+01 0.0 
6.931136405615e+00 -1.832465719263e+01 0.0 
6.015545461353e+00 -1.768865355295e+01 0.0 
5.960535926343e+00 -1.872011001764e+01 0.0 
3.023253444786e+01 -8.761960642196e+00 0.0 
2.454622702599e+01 -6.749421992767e+00 0.0 
2.537499741604e+01 -6.347634963783e+00 0.0 
2.544077378460e+01 -5.431358513649e+00 0.0 
2.801367161747e+01 -1.820907270221e+01 0.0 
2.884507806914e+01 -1.762032095326e+01 0.0 
1.821474531936e+00 -1.588901260460e+01 0.0 
1.821006262604e+00 -1.489370287756e+01 0.0 
4.599962488908e+01 -1.176478780598e+01 0.0 
4.705457470007e+01 -1.172182804229e+01 0.0 
4.667668314802e+01 -1.263464558483e+01 0.0 
4.759648056504e+01 -1.252380987933e+01 0.0 
4.728041618103e+01 -1.341928568376e+01 0.0 
4.825209352360e+01 -1.330491640804e+01 0.0 
4.778118233428e+01 -1.420151961695e+01 0.0 
2.388192727579e+01 -1.826934810142e+01 0.0 
2.381714684947e+01 -4.385917965223e+00 0.0 
3.172733219247e+01 -9.758744265248e+00 0.0 
1.882012070658e+01 -1.805540597212e+01 0.0 
1.805667505243e+01 -1.742221226236e+01 0.0 
2.852599958080e+01 -8.597196079481e+00 0.0 
2.856486123437e+01 -7.661382718527e+00 0.0 
1.111792842875e+01 -1.818223852980e+01 0.0 
2.203322722466e+01 -7.986646678802e+00 0.0 
3.955703676900e+01 -1.903246763601e+01 0.0 
1.944842206513e+01 -8.038750575182e-01 0.0 
1.909882767783e+01 -1.746322740933e+00 0.0 
2.281147422941e+01 -8.525912918334e+00 0.0 
2.850633001468e+01 -9.533271335986e+00 0.0 
2.532883344309e+01 -7.308951659710e+00 0.0 
2.620475466461e+01 -6.979208585400e+00 0.0 
1.396278270396e+01 -1.475095389807e+01 0.0 
9.791001166724e+00 -2.554159793552e+00 0.0 
2.229293380421e+01 -4.269762271052e+00 0.0 
4.677238984118e+01 -1.430071795514e+01 0.0 
2.228658385918e+01 -3.344747535984e+00 0.0 
8.940223674553e-01 -1.543595733415e+01 0.0 
2.118566862474e+01 -8.435876987696e+00 0.0 
2.678325936437e+01 -1.032621195706e+01 0.0 
2.223400220487e+01 -5.179046761770e+00 0.0 
2.375370625384e+01 -7.251580562134e+00 0.0 
3.156971327386e+01 -1.255534750737e+01 0.0 
3.328226391312e+01 -1.172914813316e+01 0.0 
3.250948774219e+01 -1.120157009348e+01 0.0 
2.032993445717e+01 -8.867880112202e+00 0.0 
2.697226974856e+01 -7.536633082045e+00 0.0 
2.707377810386e+01 -6.590835263295e+00 0.0 
2.914099246827e+01 -1.191678458549e+01 0.0 
3.544824072239e+01 -1.621126558525e+01 0.0 
3.456511855436e+01 -1.665054783843e+01 0.0 
3.448395810225e+01 -1.759117813016e+01 0.0 
3.368378673938e+01 -1.708037781328e+01 0.0 
3.375560452567e+01 -1.610973066913e+01 0.0 
3.288001547988e+01 -1.654324255651e+01 0.0 
3.282475929147e+01 -1.749725654692e+01 0.0 
3.199880906313e+01 -1.697294088625e+01 0.0 
3.197001272932e+01 -1.811667776864e+01 0.0 
3.111884713021e+01 -1.742166785755e+01 0.0 
3.120418962865e+01 -1.642155709385e+01 0.0 
3.034666704371e+01 -1.683123833816e+01 0.0 
3.026224379976e+01 -1.772592851714e+01 0.0 
3.046632362943e+01 -1.582232843075e+01 0.0 
1.961344017324e+01 -1.857459447985e+01 0.0 
2.274975894774e+01 -9.532738811922e+00 0.0 
1.833923246887e+01 -2.396746883672e+00 0.0 
1.988859500848e+01 -2.249244376594e+00 0.0 
2.758045562861e+01 -1.086434261689e+01 0.0 
3.247300178163e+01 -1.909930104252e+01 0.0 
3.461947482503e+01 -1.911879848019e+01 0.0 
2.047161538662e+01 -6.941478180358e+00 0.0 
2.750230940214e+01 -1.915490590764e+01 0.0 
3.165081350803e+01 -1.161860780120e+01 0.0 
1.897456727641e+01 -4.889634688522e+00 0.0 
2.549338539756e+01 -1.914858252089e+01 0.0 
3.462873135081e+01 -1.567482276144e+01 0.0 
3.384432415243e+01 -1.512280684518e+01 0.0 
3.471433767690e+01 -1.469086942990e+01 0.0 
3.651470373046e+01 -1.918207952149e+01 0.0 
3.901742690249e+01 -1.345028556517e+01 0.0 
2.153224102692e+01 -1.920169709333e+01 0.0 
1.918382939341e+01 -1.316226275662e+01 0.0 
2.005389162382e+01 -1.271962165174e+01 0.0 
2.011472087878e+01 -1.175029352900e+01 0.0 
3.210679478412e+01 -1.598038618242e+01 0.0 
1.752175226543e+01 -1.914713022656e+01 0.0 
1.696897240059e+01 -1.832772588765e+01 0.0 
1.599682523337e+01 -1.832599992024e+01 0.0 
1.644507199462e+01 -1.743697981535e+01 0.0 
1.549987712903e+01 -1.915192375101e+01 0.0 
3.050250861901e+01 -1.918943550234e+01 0.0 
2.949944061527e+01 -1.922950455235e+01 0.0 
1.375892575273e+01 -6.447160534926e+00 0.0 
1.457223670180e+01 -7.006709243857e+00 0.0 
1.450818793236e+01 -7.965943451779e+00 0.0 
1.538804712402e+01 -7.553409623699e+00 0.0 
1.545817644768e+01 -6.580929593419e+00 0.0 
1.626506893751e+01 -7.129032608911e+00 0.0 
1.619833811522e+01 -8.086588580887e+00 0.0 
1.714448609609e+01 -6.697429609777e+00 0.0 
2.887616543568e+01 -1.668015232137e+01 0.0 
1.349814589130e+01 -1.918225301544e+01 0.0 
1.153887772210e+01 -1.311384581217e+01 0.0 
1.242708159886e+01 -1.267046795531e+01 0.0 
1.249799674267e+01 -1.169005616014e+01 0.0 
6.631723893693e+00 -9.774184881867e+00 0.0 
7.451471631867e+00 -1.033148796006e+01 0.0 
7.377795355458e+00 -1.132196345268e+01 0.0 
5.810931797536e+00 -9.211654212252e+00 0.0 
2.402683899133e+01 -1.441378562320e+01 0.0 
1.249768692036e+01 -1.917388426624e+01 0.0 
1.580373499437e+01 -1.290751860664e+01 0.0 
8.344650507834e+00 -9.898403995170e+00 0.0 
3.750622115305e+01 -1.086526401533e+01 0.0 
3.699391251667e+01 -1.171695900794e+01 0.0 
3.606517829518e+01 -1.173717504500e+01 0.0 
3.650257641795e+01 -1.270047380221e+01 0.0 
3.808951488918e+01 -1.183518714175e+01 0.0 
4.760380962420e+00 -1.162484888315e+01 0.0 
3.861210370848e+00 -1.205657631736e+01 0.0 
3.038284309476e+00 -1.149851280664e+01 0.0 
2.961598794889e+00 -1.248856794980e+01 0.0 
2.138953225512e+00 -1.193212674534e+01 0.0 
2.227383593457e+00 -1.096258903918e+01 0.0 
2.043265419276e+00 -1.292158472959e+01 0.0 
1.252449446028e+00 -1.225502002753e+01 0.0 
3.949985210740e+01 -1.086594001795e+01 0.0 
1.453499444792e+01 -8.768805922472e-01 0.0 
1.403518950933e+01 -1.749965556633e+00 0.0 
1.300715031023e+01 -1.714737233040e+00 0.0 
1.350929389899e+01 -2.527443911291e+00 0.0 
1.449600910711e+01 -2.595486162864e+00 0.0 
1.395693872901e+01 -3.484211041558e+00 0.0 
1.495105865208e+01 -3.364609636216e+00 0.0 
1.508822528740e+01 -1.766586020494e+00 0.0 
1.250223858430e+01 -8.634590186802e-01 0.0 
1.200279523409e+01 -1.709044504992e+00 0.0 
1.150086239419e+01 -8.592789190668e-01 0.0 
1.101482754194e+01 -1.677730591922e+00 0.0 
1.148018564526e+01 -2.659323866909e+00 0.0 
8.800552119754e+00 -3.989875954728e+00 0.0 
3.452790439430e+00 -1.901136170646e+01 0.0 
8.658451825200e-01 -9.503462241795e+00 0.0 
1.694787786797e+00 -9.000589234502e+00 0.0 
1.703436717094e+00 -8.038819004041e+00 0.0 
2.594197971110e+00 -8.563955242845e+00 0.0 
1.630513735412e+00 -9.907244747511e+00 0.0 
8.566859292791e-01 -7.512203837972e+00 0.0 
1.685461277022e+00 -7.164280248030e+00 0.0 
2.506394468801e+00 -8.623386730818e-01 0.0 
2.007475081581e+00 -1.727729545205e+00 0.0 
9.211534699767e-01 -1.628791366312e+00 0.0 
1.500000000020e+00 -2.598063549486e+00 0.0 
2.482078929963e+00 -2.553580088725e+00 0.0 
2.999795253092e+00 -1.732169015019e+00 0.0 
3.999712607169e+00 -1.728832897453e+00 0.0 
4.499752199340e+00 -8.656478679175e-01 0.0 
4.964377774841e+00 -1.730129617941e+00 0.0 
4.425017908337e+00 -2.597541756243e+00 0.0 
5.446573195014e+00 -8.410144840023e-01 0.0 
4.915722346614e+01 -1.550640962770e+01 0.0 
4.826794919243e+01 -1.600000000000e+01 0.0 
1.053139533193e+01 -1.911782884365e+01 0.0 
4.156049861949e+01 -1.095160998589e+01 0.0 
9.494526624416e+00 -8.650570090219e-01 0.0 
4.555762166964e+01 -1.897098103585e+01 0.0 
4.250656411371e+01 -1.914387356218e+01 0.0 
4.350906466345e+01 -1.917234727395e+01 0.0 
8.759665722424e-01 -1.746422130609e+01 0.0 
1.698936011838e+00 -1.795012186674e+01 0.0 
4.742476811029e+01 -1.900090177972e+01 0.0 
7.749196752349e+00 -6.368049313489e+00 0.0 
3.361572113416e+01 -1.798765193915e+01 0.0 
4.484660149212e+01 -1.728661231383e+01 0.0 
1.984038172228e+01 -4.502575320116e+00 0.0 
1.035080352627e+01 -6.166639575753e+00 0.0 
2.753558010652e+00 -1.444909521181e+01 0.0 
7.217069543032e+00 -1.328635391078e+01 0.0 
4.364336727739e+00 -1.655585677381e+01 0.0 
4.595208426108e+00 -1.357919665443e+01 0.0 
6.164967006980e+00 -1.569873454630e+01 0.0 
1.487855768353e+01 -1.826523774028e+01 0.0 
2.791876456372e+00 -4.019632415181e+00 0.0 
4.246464893515e+01 -1.364898659620e+01 0.0 
4.503855590351e+01 -1.329552780944e+01 0.0 
4.407239109604e+01 -1.573900004093e+01 0.0 
5.141054449252e+00 -6.664290382472e+00 0.0 
3.141083947149e+00 -1.055790764912e+01 0.0 
6.196463198741e+00 -4.256497932609e+00 0.0 
2.599618716181e+01 -1.836893455464e+01 0.0 
2.923057372337e+01 -1.098461757645e+01 0.0 
1.168343877486e+01 -1.114079645041e+01 0.0 
6.706222096238e+00 -8.780364234441e+00 0.0 
8.567858614669e+00 -6.943121440850e+00 0.0 
1.123755132901e+01 -5.753525820030e+00 0.0 
2.353456234423e+01 -1.008536320953e+01 0.0 
9.162073319168e+00 -1.045593739109e+01 0.0 
9.676343469685e+00 -1.496493008366e+01 0.0 
4.490637882905e+01 -1.628778970202e+01 0.0 
7.398129387772e+00 -9.639977982323e-01 0.0 
1.049641705805e+01 -1.552503975272e+01 0.0 
9.010356286268e+00 -1.242805042052e+01 0.0 
3.985573925497e+01 -1.399863651620e+01 0.0 
1.816196318262e+01 -1.554066497931e+01 0.0 
1.306332244168e+01 -3.963646550326e+00 0.0 
4.145850903932e+01 -1.608094559275e+01 0.0 
3.794664933633e+01 -1.779020121986e+01 0.0 
3.819614412903e+01 -1.290749321016e+01 0.0 
6.270014188119e+00 -3.255093186826e+00 0.0 
4.251165370388e+01 -1.263870364997e+01 0.0 
1.207347709171e+01 -1.763942826023e+01 0.0 
3.633240829927e+01 -1.577330481104e+01 0.0 
4.319052668832e+00 -6.101812561904e+00 0.0 
1.676492415806e+01 -1.151547901392e+01 0.0 
2.594059220037e+01 -1.074225223009e+01 0.0 
3.340750911501e+01 -9.898764354137e+00 0.0 
4.397619591281e+01 -1.769773736461e+01 0.0 
2.175611595028e+01 -1.185718747128e+01 0.0 
1.641818733106e+01 -1.640685203215e+01 0.0 
1.661211421753e+01 -1.346121366338e+01 0.0 
3.428853504935e+00 -6.551993389271e+00 0.0 
8.700728832502e+00 -1.638460872825e+01 0.0 
1.931369795309e+01 -1.121629383702e+01 0.0 
4.139798872363e+01 -1.706922153459e+01 0.0 
2.647837478700e+01 -1.507353829290e+01 0.0 
1.779469616424e+01 -9.161615782908e+00 0.0 
3.885879219319e+01 -1.642026488918e+01 0.0 
1.338194936770e+01 -1.125916521471e+01 0.0 
1.897071181111e+01 -1.609204322578e+01 0.0 
2.844308548793e+01 -1.046221003096e+01 0.0 
2.659854702194e+01 -1.316109415760e+01 0.0 
2.979604503271e+01 -1.433296157755e+01 0.0 
2.417694041347e+01 -1.251231397779e+01 0.0 
1.807401327411e+00 -1.388891148480e+01 0.0 
9.599810618782e+00 -1.595439365034e+01 0.0 
1.652144692160e+01 -4.205392788472e+00 0.0 
2.367839450246e+01 -8.188385218643e+00 0.0 
3.814894930468e+01 -1.390748338767e+01 0.0 
2.466448215774e+01 -1.685878545680e+01 0.0 
4.134044524611e+01 -1.806610045954e+01 0.0 
2.600511411958e+01 -9.801774120648e+00 0.0 
7.882158050716e+00 -1.582364037353e+01 0.0 
3.881607873422e+01 -1.737970515013e+01 0.0 
8.270182347708e+00 -1.088622154920e+01 0.0 
8.672520392520e-01 -4.532984309881e+00 0.0 
1.993447205337e+01 -3.579061902667e+00 0.0 
1.794616079549e+01 -7.238038888498e+00 0.0 
2.097277068165e+01 -1.132450168636e+01 0.0 
8.194803300681e+00 -1.187214224265e+01 0.0 
3.522279404911e+01 -1.823342818178e+01 0.0 
6.984481050295e+00 -1.625271465557e+01 0.0 
1.309433007797e+01 -1.521718594215e+01 0.0 
2.150246167611e+01 -1.885399038185e+00 0.0 
3.250689370209e+01 -1.028789870535e+01 0.0 
6.085886272238e+00 -1.668342132851e+01 0.0 
1.588455661727e+01 -1.193498985921e+01 0.0 
1.809323400821e+01 -1.651110084195e+01 0.0 
1.348885082381e+00 -1.136065576512e+01 0.0 
2.497670221995e+01 -1.834631276173e+01 0.0 
2.937062818424e+01 -8.233711194470e+00 0.0 
5.185823744469e+00 -1.711566910207e+01 0.0 
1.477497877209e+01 -1.530177014512e+01 0.0 
2.125346158933e+01 -7.473003997367e+00 0.0 
4.751561118290e+01 -1.084897772632e+01 0.0 
5.056026576843e+00 -1.825750475525e+01 0.0 
1.473948554523e+01 -1.634577436309e+01 0.0 
2.410566630936e+01 -1.345970002612e+01 0.0 
1.507337507513e+01 -1.138527895328e+01 0.0 
3.189857338687e+01 -8.887781229006e+00 0.0 
7.298712468334e+00 -1.230231046246e+01 0.0 
2.738235495295e+01 -1.368931690364e+01 0.0 
3.750141041969e+01 -1.920449893070e+01 0.0 
1.557271965640e+01 -1.683317951731e+01 0.0 
3.393731848929e+01 -1.413034777044e+01 0.0 
6.482156824153e+00 -1.174575135362e+01 0.0 
2.077971718439e+01 -1.421279621836e+01 0.0 
3.455084320178e+00 -2.562590040585e+00 0.0 
3.099056096250e+01 -9.270280416035e+00 0.0 
5.580176125418e+00 -1.217387969259e+01 0.0 
1.707247630389e+01 -7.660651981710e+00 0.0 
1.418658814174e+01 -1.180390575393e+01 0.0 
2.049103025389e+01 -1.811296706038e+01 0.0 
4.680386172316e+00 -1.260396879301e+01 0.0 
1.699679896554e+01 -8.624561788199e+00 0.0 
3.779470168555e+00 -1.303424899720e+01 0.0 
3.036589870126e+01 -7.879832518349e+00 0.0 
3.306993001774e+01 -1.457671062095e+01 0.0 
2.840150110165e+00 -1.346530088269e+01 0.0 
2.732011135052e+01 -1.464591214560e+01 0.0 
5.423639259568e+00 -2.659711955016e+00 0.0 
2.324455961696e+01 -1.387269388211e+01 0.0 
1.752768355571e+00 -1.693128613594e+01 0.0 
1.020244783051e+01 -8.076834012808e+00 0.0 
1.330873875224e+01 -1.222417528206e+01 0.0 
3.297727364880e+01 -1.555480372087e+01 0.0 
2.890929955439e+01 -6.868664170731e+00 0.0 
1.323294664622e+01 -1.320754260334e+01 0.0 
2.726532861246e+01 -1.560593120806e+01 0.0 
2.240020643398e+01 -1.429299177247e+01 0.0 
2.090445823633e+01 -1.228128621332e+01 0.0 
1.315809881502e+01 -1.420739326938e+01 0.0 
2.781328038068e+01 -7.181956082300e+00 0.0 
8.614200829057e+00 -5.936933226306e+00 0.0 
8.714765730069e+00 -4.979270529687e+00 0.0 
1.611881701099e+01 -9.041973294003e+00 0.0 
2.806830314340e+01 -1.614622947108e+01 0.0 
2.084435391396e+00 -3.385085422913e+00 0.0 
3.133211811152e+01 -1.542347619750e+01 0.0 
9.693114650768e+00 -3.590281506442e+00 0.0 
1.531883592202e+01 -8.504584946143e+00 0.0 
2.151589117094e+01 -1.578915763018e+01 0.0 
4.918943882696e+01 -1.355538828056e+01 0.0 
1.443236615188e+01 -8.918701794549e+00 0.0 
8.276250966452e-01 -5.537685192197e+00 0.0 
1.362790867918e+01 -8.374718262212e+00 0.0 
2.083767477370e+01 -1.324843956035e+01 0.0 
1.273834678703e+01 -8.790890389337e+00 0.0 
1.192275845670e+01 -8.242261327467e+00 0.0 
4.477236023583e+01 -1.824312396664e+01 0.0 
1.102989384254e+01 -8.649855800911e+00 0.0 
4.849096516045e+01 -1.917293752213e+01 0.0 
1.588996752238e+00 -1.910230934687e+01 0.0 
4.904245197583e+01 -1.159839008158e+01 0.0 
2.753852929608e+01 -5.782128488093e+00 0.0 
1.756133602833e+01 -8.306130313187e-01 0.0 
2.615423700951e+01 -6.153865090092e+00 0.0 
1.028818761294e+01 -7.122020845892e+00 0.0 
2.970818901196e+01 -1.527821347593e+01 0.0 
4.801461623449e+01 -1.164472570985e+01 0.0 
9.455722100419e+00 -6.546069291118e+00 0.0 
3.089099236677e+01 -1.835339328261e+01 0.0 
2.350000000013e+01 -1.920825896750e+01 0.0 
4.830620531887e+01 -1.506626155470e+01 0.0 
1.725381944701e+01 -1.688794487850e+01 0.0 
2.156246225273e+01 -1.475893794002e+01 0.0 
4.919319648787e+01 -1.742767505896e+01 0.0 
4.437935623576e+01 -1.077662927266e+01 0.0 
1.001520521978e+01 -1.652692675208e+00 0.0 
9.067160240050e-01 -1.441937727541e+01 0.0 
2.603365149390e+01 -4.755996613848e+00 0.0 
2.458344439002e+01 -4.873645517696e+00 0.0 
2.304312390142e+01 -3.836552768096e+00 0.0 
2.546923202198e+00 -6.902480355749e+00 0.0 
1.251534969393e+01 -2.490989965776e+00 0.0 
2.454061833377e+01 -3.933354231935e+00 0.0 
1.788186558740e+01 -1.827424884923e+01 0.0 
4.090785243552e+01 -1.166553231904e+01 0.0 
2.230128851568e+01 -1.623015738726e+01 0.0 
2.302362347568e+01 -2.916239960270e+00 0.0 
3.878119254461e+01 -1.830091164002e+01 0.0 
2.210081359958e+01 -1.829238229150e+01 0.0 
8.443704882233e+00 -1.921993252862e+01 0.0 
2.218405824691e+01 -1.724557581508e+01 0.0 
2.151157503963e+01 -2.790636689331e+00 0.0 
3.741658958955e+01 -1.250400191722e+01 0.0 
2.697247663737e+01 -1.838290202309e+01 0.0 
4.743362342862e+01 -1.585850773010e+01 0.0 
6.671345075358e+00 -1.924977576322e+01 0.0 
3.900825404537e+01 -1.157220003875e+01 0.0 
4.649692961375e+01 -1.836335837481e+01 0.0 
1.578831424832e+01 -3.678284023361e+00 0.0 
4.814208768888e+01 -1.841249298770e+01 0.0 
2.964123298315e+01 -1.625739458193e+01 0.0 
4.580760351902e+01 -1.284294554687e+01 0.0 
3.561520879615e+01 -1.245548941949e+01 0.0 
2.555418095658e+00 -1.841101588290e+01 0.0 
3.288468366144e+01 -1.834258164109e+01 0.0 
2.065894391445e+01 -2.240688571739e+00 0.0 
4.739171429915e+01 -1.496536413446e+01 0.0 
3.478086729185e+00 -8.576434653209e+00 0.0 
1.606010630246e+01 -1.588421807951e+00 0.0 
1.018329200594e+01 -1.834320874317e+01 0.0 
2.957213339430e+01 -1.720496954591e+01 0.0 
4.142712790164e+00 -1.837794506222e+01 0.0 
6.698721532573e-01 -2.499999999997e+00 0.0 
8.037039123140e+00 -1.571229354954e+00 0.0 
1.203541361428e+01 -1.847784298001e+01 0.0 
2.899968332038e+01 -1.848264722179e+01 0.0 
1.469229460948e+01 -4.219485753730e+00 0.0 
4.049590781957e+01 -1.932812501995e+01 0.0 
1.996211678340e+01 -1.506329754720e+00 0.0 
4.250588298353e+01 -1.067383247529e+01 0.0 
5.831497011152e+00 -1.635396227234e+00 0.0 
5.317606125670e+00 -1.923927974868e+01 0.0 
4.208546426993e+01 -1.842830665025e+01 0.0 
2.327553405011e+00 -9.459409929662e+00 0.0 
3.568351902251e+01 -1.096637218582e+01 0.0 
1.682104374890e+00 -6.231413350963e+00 0.0 
2.451812238018e+01 -1.766524914339e+01 0.0 
1.058003429638e+01 -2.391839617098e+00 0.0 
4.399988753123e+01 -1.851998776342e+01 0.0 
1.400000000010e+01 -1.852293523028e+01 0.0 
3.604719565984e+01 -1.850662876800e+01 0.0 
1.951297136734e+01 -1.938092349694e+01 0.0 
1.821365318472e+01 -1.531276353287e+00 0.0 
2.298031859732e+01 -1.854635324722e+01 0.0 
1.552168066204e+01 -1.764280741977e+01 0.0 
4.572957713638e+01 -1.073347898229e+01 0.0 
3.429637429624e+01 -1.838861552790e+01 0.0 
2.427434426052e+00 -7.705577451869e+00 0.0 
4.662792031485e+00 -3.359424455416e+00 0.0 
4.926794919243e+01 -1.926794919243e+01 0.0 
7.320508075690e-01 -7.320508075688e-01 0.0 
4.926794919243e+01 -1.073205080757e+01 0.0 
7.320508075705e-01 -1.926794919243e+01 0.0 
2.917460242467e+00 -3.202866455310e+00 0.0 
4.838200575963e+01 -1.232674147454e+01 0.0 
2.998445708009e+01 -1.854403752148e+01 0.0 
5.949940090766e-01 -1.152762038165e+01 0.0 
4.844763495759e+01 -1.678092548787e+01 0.0 
1.301685480160e+01 -3.170056592566e+00 0.0 
1.650046335855e+01 -6.731535384067e-01 0.0 
4.854881540991e+01 -1.405224059779e+01 0.0 
2.119545114693e+01 -1.846813384545e+01 0.0 
3.797852849897e+01 -1.857978513215e+01 0.0 
4.649823708745e+01 -1.338351810816e+01 0.0 
2.012685900976e+01 -2.889659035009e+00 0.0 
2.953271913273e+01 -1.791558075192e+01 0.0 
2.408509097292e+00 -1.021949208421e+01 0.0 
2.642589566221e+01 -1.773216561448e+01 0.0 
1.730010270775e+01 -1.763165076721e+01 0.0 
2.017406551304e+01 -8.513536440582e-01 0.0 
5.254761581934e-01 -1.249999999999e+01 0.0 
6.640448215642e+00 -1.545337834885e+00 0.0 
7.843361506349e+00 -1.852719839527e+01 0.0 
1.588442191088e+00 -1.066158564320e+01 0.0 

CELLS 1919 7676 
3 179 649 925 
3 649 179 927 
3 659 152 670 
3 772 537 961 
3 539 599 765 
3 629 542 668 
3 159 581 583 
3 179 606 927 
3 581 159 599 
3 532 767 961 
3 151 726 727 
3 606 179 941 
3 771 923 967 
3 588 719 809 
3 923 185 967 
3 178 772 961 
3 587 158 728 
3 542 629 667 
3 166 586 908 
3 586 166 846 
3 767 532 920 
3 897 143 903 
3 624 897 903 
3 574 573 783 
3 273 429 718 
3 726 151 835 
3 105 82 988 
3 618 144 860 
3 271 273 718 
3 783 573 993 
3 523 733 735 
3 176 589 766 
3 659 670 968 
3 19 164 639 
3 174 593 595 
3 602 66 959 
3 66 602 985 
3 621 170 665 
3 585 96 938 
3 96 585 999 
3 861 603 887 
3 139 625 764 
3 942 140 946 
3 82 188 988 
3 580 187 937 
3 619 942 946 
3 733 523 736 
3 187 580 963 
3 729 730 736 
3 719 588 960 
3 181 624 861 
3 571 586 846 
3 349 962 980 
3 181 861 887 
3 671 153 851 
3 944 516 989 
3 571 846 915 
3 164 609 639 
3 432 760 878 
3 767 178 961 
3 138 972 1013 
3 952 578 954 
3 398 426 632 
3 962 735 980 
3 743 562 967 
3 624 181 897 
3 972 582 1013 
3 152 659 932 
3 459 420 741 
3 148 607 673 
3 835 778 889 
3 33 32 627 
3 618 860 990 
3 4 5 753 
3 750 944 989 
3 590 155 841 
3 671 851 1000 
3 638 943 950 
3 760 432 1002 
3 943 180 950 
3 420 433 741 
3 158 587 948 
3 143 649 903 
3 649 143 925 
3 599 539 811 
3 581 599 811 
3 610 835 940 
3 18 19 639 
3 664 661 909 
3 539 765 948 
3 766 589 939 
3 190 717 988 
3 763 934 958 
3 958 934 970 
3 156 33 627 
3 665 170 995 
3 587 728 960 
3 764 625 973 
3 184 616 913 
3 632 426 633 
3 765 599 983 
3 185 743 967 
3 346 912 936 
3 577 952 954 
3 467 465 643 
3 730 733 736 
3 770 771 893 
3 536 763 958 
3 138 729 736 
3 866 161 985 
3 311 664 909 
3 4 753 1004 
3 534 630 666 
3 501 817 855 
3 545 747 971 
3 605 632 633 
3 400 398 632 
3 174 595 953 
3 616 184 1008 
3 604 400 632 
3 635 565 910 
3 188 190 988 
3 763 536 1011 
3 400 604 643 
3 955 854 969 
3 620 870 879 
3 747 545 1001 
3 870 145 879 
3 155 590 981 
3 567 955 969 
3 726 835 889 
3 537 772 963 
3 474 531 631 
3 145 603 879 
3 593 174 973 
3 771 528 923 
3 610 778 835 
3 631 531 831 
3 575 703 993 
3 507 623 631 
3 557 768 769 
3 607 148 979 
3 809 719 956 
3 416 388 637 
3 623 474 631 
3 603 145 887 
3 531 669 831 
3 643 469 838 
3 159 583 938 
3 630 265 666 
3 589 176 977 
3 924 930 1008 
3 754 166 908 
3 182 620 855 
3 703 575 712 
3 604 467 643 
3 639 610 940 
3 606 140 942 
3 912 572 936 
3 165 611 612 
3 626 265 630 
3 609 164 893 
3 459 635 910 
3 771 530 893 
3 646 519 674 
3 161 866 975 
3 924 529 930 
3 465 469 643 
3 817 182 855 
3 151 727 1024 
3 140 606 941 
3 265 626 640 
3 388 439 637 
3 611 165 999 
3 469 630 838 
3 620 182 870 
3 513 702 907 
3 747 448 971 
3 144 618 933 
3 673 607 957 
3 605 633 927 
3 448 747 987 
3 690 820 874 
3 623 507 861 
3 606 605 927 
3 646 501 855 
3 630 534 838 
3 154 767 920 
3 277 686 896 
3 164 770 893 
3 619 180 943 
3 475 640 864 
3 661 686 909 
3 81 106 628 
3 507 603 861 
3 863 535 867 
3 759 891 984 
3 774 167 1000 
3 272 197 679 
3 894 253 921 
3 383 863 867 
3 717 190 966 
3 718 429 956 
3 573 575 993 
3 904 795 931 
3 641 212 669 
3 471 361 674 
3 278 272 679 
3 468 646 674 
3 519 646 855 
3 417 877 917 
3 702 551 907 
3 628 162 629 
3 633 649 927 
3 633 426 648 
3 531 641 669 
3 686 656 896 
3 542 541 847 
3 535 634 853 
3 585 611 999 
3 640 626 864 
3 331 853 902 
3 591 801 1025 
3 677 278 679 
3 801 147 1025 
3 759 760 891 
3 180 619 946 
3 904 547 905 
3 651 278 677 
3 547 546 905 
3 527 636 642 
3 353 734 806 
3 565 742 910 
3 820 383 874 
3 519 471 674 
3 562 743 975 
3 106 162 628 
3 436 466 642 
3 226 265 640 
3 624 623 861 
3 634 535 863 
3 602 866 985 
3 888 277 896 
3 335 317 672 
3 383 867 874 
3 835 151 940 
3 669 279 831 
3 678 679 875 
3 578 952 997 
3 226 640 647 
3 466 527 642 
3 196 468 644 
3 627 32 981 
3 212 641 816 
3 685 228 824 
3 612 611 613 
3 741 433 945 
3 468 645 646 
3 435 335 672 
3 541 675 776 
3 523 735 962 
3 278 651 813 
3 361 644 674 
3 400 643 838 
3 651 490 813 
3 686 277 909 
3 279 650 792 
3 146 600 959 
3 476 685 824 
3 204 470 650 
3 534 666 797 
3 476 684 685 
3 318 334 675 
3 716 157 717 
3 230 227 647 
3 347 698 699 
3 678 888 896 
3 106 107 162 
3 468 194 645 
3 317 315 672 
3 391 436 642 
3 320 318 675 
3 199 196 644 
3 589 635 939 
3 427 517 648 
3 476 683 684 
3 644 468 674 
3 716 717 718 
3 437 542 667 
3 347 699 701 
3 348 351 698 
3 633 648 649 
3 678 875 888 
3 426 427 648 
3 313 230 647 
3 640 475 647 
3 437 541 542 
3 666 222 797 
3 566 636 638 
3 37 153 671 
3 39 167 670 
3 213 212 816 
3 334 317 335 
3 390 391 449 
3 205 204 650 
3 334 335 390 
3 347 348 698 
3 279 792 831 
3 768 557 986 
3 672 475 864 
3 877 533 917 
3 566 449 636 
3 171 57 691 
3 390 335 391 
3 210 279 669 
3 437 341 541 
3 713 406 821 
3 227 226 647 
3 351 695 698 
3 470 361 471 
3 42 692 693 
3 315 313 475 
3 476 304 683 
3 450 449 566 
3 681 366 804 
3 853 634 902 
3 466 467 525 
3 540 681 804 
3 169 45 673 
3 443 535 853 
3 41 152 692 
3 809 429 839 
3 664 311 929 
3 527 525 619 
3 472 471 504 
3 204 361 470 
3 204 202 361 
3 280 816 842 
3 144 47 676 
3 271 718 966 
3 645 501 646 
3 475 313 647 
3 546 742 905 
3 504 519 620 
3 466 465 467 
3 165 612 865 
3 351 694 695 
3 315 475 672 
3 655 677 678 
3 436 465 466 
3 470 471 472 
3 304 306 683 
3 479 706 793 
3 50 168 682 
3 507 505 603 
3 319 321 701 
3 560 894 921 
3 526 605 606 
3 525 467 526 
3 661 658 686 
3 210 208 279 
3 517 623 624 
3 472 504 505 
3 54 170 687 
3 170 621 947 
3 658 656 686 
3 678 677 679 
3 706 246 793 
3 398 399 426 
3 318 317 334 
3 316 315 317 
3 212 210 669 
3 493 713 821 
3 261 707 708 
3 654 652 655 
3 321 347 701 
3 395 280 396 
3 650 470 792 
3 397 396 398 
3 152 40 670 
3 167 38 671 
3 167 774 968 
3 479 705 706 
3 490 392 813 
3 466 525 527 
3 314 313 315 
3 541 341 675 
3 427 474 517 
3 715 716 719 
3 681 809 839 
3 691 689 783 
3 662 661 664 
3 196 194 468 
3 203 202 204 
3 341 320 675 
3 738 740 741 
3 265 224 666 
3 218 216 280 
3 224 222 666 
3 135 854 955 
3 612 613 614 
3 742 546 910 
3 391 435 436 
3 57 56 691 
3 325 327 417 
3 189 501 645 
3 166 754 976 
3 816 641 842 
3 226 224 265 
3 202 199 644 
3 148 43 693 
3 504 471 519 
3 208 205 650 
3 261 708 714 
3 652 651 677 
3 479 704 705 
3 44 148 673 
3 41 40 152 
3 37 36 153 
3 39 38 167 
3 201 199 202 
3 655 652 677 
3 660 658 661 
3 398 396 399 
3 426 399 427 
3 710 707 794 
3 654 655 656 
3 46 169 676 
3 569 490 651 
3 683 417 684 
3 569 651 652 
3 410 408 711 
3 218 280 395 
3 517 474 623 
3 390 449 450 
3 156 627 951 
3 397 398 400 
3 791 510 860 
3 707 261 794 
3 352 355 694 
3 171 691 783 
3 436 464 465 
3 42 41 692 
3 167 671 1000 
3 209 208 210 
3 738 739 740 
3 44 43 148 
3 136 687 688 
3 351 352 694 
3 306 325 683 
3 142 51 682 
3 114 137 739 
3 395 396 397 
3 207 205 208 
3 211 210 212 
3 279 208 650 
3 449 391 642 
3 46 45 169 
3 312 230 313 
3 438 437 667 
3 600 146 1026 
3 739 137 740 
3 506 505 507 
3 733 734 735 
3 620 519 855 
3 136 55 687 
3 48 47 144 
3 361 202 644 
3 730 732 733 
3 579 438 667 
3 733 732 734 
3 823 521 836 
3 715 157 716 
3 191 189 645 
3 50 49 168 
3 173 715 719 
3 153 36 680 
3 413 410 711 
3 540 588 681 
3 526 604 605 
3 325 417 683 
3 541 776 847 
3 52 51 142 
3 40 39 670 
3 38 37 671 
3 479 287 704 
3 282 284 710 
3 218 395 797 
3 287 289 704 
3 54 53 170 
3 391 335 435 
3 698 697 699 
3 695 696 697 
3 430 540 804 
3 58 171 703 
3 730 731 732 
3 56 55 136 
3 694 559 695 
3 43 42 693 
3 660 661 662 
3 113 114 739 
3 395 534 797 
3 489 392 490 
3 45 44 673 
3 201 202 203 
3 456 413 457 
3 450 566 567 
3 689 688 690 
3 451 558 559 
3 695 559 696 
3 729 172 730 
3 47 46 676 
3 675 334 776 
3 443 491 535 
3 540 587 588 
3 777 509 796 
3 695 697 698 
3 203 204 205 
3 51 50 682 
3 284 386 710 
3 295 331 401 
3 215 213 216 
3 554 447 555 
3 699 697 700 
3 704 401 705 
3 216 213 816 
3 552 409 826 
3 325 326 327 
3 217 216 218 
3 254 256 714 
3 436 435 464 
3 282 710 794 
3 457 413 711 
3 281 304 476 
3 56 136 691 
3 568 490 569 
3 452 777 796 
3 55 54 687 
3 136 688 689 
3 223 222 224 
3 730 172 731 
3 59 703 712 
3 653 652 654 
3 355 451 694 
3 58 57 171 
3 289 295 704 
3 427 473 474 
3 194 191 645 
3 281 476 824 
3 285 479 793 
3 447 406 713 
3 679 197 875 
3 506 631 831 
3 327 345 346 
3 614 613 615 
3 256 261 714 
3 306 308 325 
3 451 508 558 
3 478 300 779 
3 112 113 737 
3 465 464 469 
3 451 559 694 
3 707 549 708 
3 221 219 222 
3 295 401 704 
3 430 538 540 
3 355 418 451 
3 59 58 703 
3 207 208 209 
3 477 548 549 
3 209 210 211 
3 477 549 707 
3 737 113 739 
3 193 191 194 
3 746 745 747 
3 147 119 761 
3 386 441 477 
3 295 330 331 
3 775 445 800 
3 555 713 857 
3 555 447 713 
3 189 149 501 
3 173 103 715 
3 570 680 873 
3 211 212 213 
3 119 120 761 
3 565 485 742 
3 731 737 738 
3 547 904 931 
3 463 513 907 
3 543 775 800 
3 340 823 836 
3 264 262 773 
3 302 300 478 
3 443 454 491 
3 360 341 437 
3 177 745 746 
3 150 749 750 
3 139 60 712 
3 60 59 712 
3 745 744 748 
3 477 441 548 
3 285 287 479 
3 491 573 574 
3 485 404 742 
3 338 423 443 
3 759 757 760 
3 386 477 710 
3 708 549 709 
3 163 756 757 
3 177 744 745 
3 489 490 568 
3 120 121 758 
3 104 157 715 
3 104 105 157 
3 406 310 821 
3 150 10 749 
3 451 418 508 
3 636 449 642 
3 596 594 597 
3 676 169 791 
3 480 374 807 
3 526 467 604 
3 589 565 635 
3 472 505 506 
3 100 158 765 
3 99 100 765 
3 120 758 761 
3 758 757 759 
3 752 754 755 
3 328 269 403 
3 163 751 756 
3 744 141 748 
3 138 110 729 
3 269 264 773 
3 617 615 637 
3 102 103 173 
3 513 608 702 
3 289 294 295 
3 614 615 616 
3 10 11 749 
3 752 755 756 
3 30 29 768 
3 155 30 768 
3 540 538 587 
3 158 101 728 
3 749 746 750 
3 28 154 769 
3 403 269 773 
3 103 104 715 
3 102 173 728 
3 504 620 879 
3 36 35 680 
3 768 29 769 
3 163 757 758 
3 121 163 758 
3 564 485 565 
3 708 709 845 
3 770 528 771 
3 109 110 138 
3 175 762 763 
3 111 172 729 
3 446 406 447 
3 111 112 172 
3 110 111 729 
3 553 447 554 
3 499 562 563 
3 616 615 617 
3 792 506 831 
3 751 752 756 
3 301 302 781 
3 25 24 772 
3 178 25 772 
3 101 102 728 
3 382 310 406 
3 29 28 769 
3 456 457 572 
3 752 753 754 
3 751 186 752 
3 752 186 753 
3 11 12 177 
3 185 69 743 
3 80 79 187 
3 123 186 751 
3 13 141 744 
3 70 69 185 
3 68 161 743 
3 61 139 764 
3 76 160 762 
3 78 77 175 
3 69 68 743 
3 68 67 161 
3 175 77 762 
3 123 124 186 
3 97 98 159 
3 100 101 158 
3 163 122 751 
3 65 64 146 
3 174 62 764 
3 63 62 174 
3 122 123 751 
3 121 122 163 
3 61 60 139 
3 62 61 764 
3 76 75 160 
3 94 95 165 
3 77 76 762 
3 74 73 184 
3 92 93 529 
3 118 119 147 
3 116 117 176 
3 115 116 766 
3 114 115 137 
3 13 14 141 
3 12 13 744 
3 116 176 766 
3 16 17 151 
3 137 115 766 
3 34 33 156 
3 28 27 154 
3 31 30 155 
3 6 7 166 
3 9 10 150 
3 27 26 767 
3 19 20 164 
3 26 25 178 
3 20 21 770 
3 21 22 528 
3 177 12 744 
3 154 27 767 
3 26 178 767 
3 164 20 770 
3 21 528 770 
3 393 394 778 
3 172 112 737 
3 284 385 386 
3 758 759 761 
3 596 597 598 
3 477 707 710 
3 359 343 780 
3 328 403 404 
3 891 592 984 
3 499 563 780 
3 386 387 441 
3 177 746 749 
3 343 405 780 
3 536 537 580 
3 11 177 749 
3 331 330 338 
3 293 291 344 
3 393 342 394 
3 461 393 778 
3 312 313 314 
3 506 507 631 
3 222 219 797 
3 301 300 302 
3 405 498 499 
3 609 461 610 
3 452 546 547 
3 524 445 532 
3 440 389 445 
3 585 584 611 
3 299 297 300 
3 342 301 781 
3 536 524 537 
3 440 524 536 
3 344 291 803 
3 499 530 562 
3 402 374 480 
3 609 610 639 
3 600 598 601 
3 532 445 775 
3 379 377 380 
3 295 294 330 
3 339 421 422 
3 358 444 452 
3 564 565 589 
3 731 172 737 
3 440 445 524 
3 499 498 530 
3 738 737 739 
3 657 656 658 
3 583 483 584 
3 329 343 359 
3 405 461 498 
3 508 509 560 
3 498 461 609 
3 583 584 585 
3 325 308 326 
3 600 601 602 
3 571 453 586 
3 595 594 596 
3 388 380 389 
3 422 453 516 
3 452 547 777 
3 724 722 725 
3 376 378 482 
3 263 267 282 
3 439 389 440 
3 379 388 416 
3 548 441 720 
3 610 461 778 
3 405 393 461 
3 388 389 439 
3 381 333 419 
3 441 387 442 
3 414 500 576 
3 380 787 800 
3 386 385 387 
3 293 344 779 
3 593 521 594 
3 379 380 388 
3 522 438 579 
3 496 591 592 
3 322 320 341 
3 405 499 780 
3 378 377 379 
3 726 724 727 
3 482 483 581 
3 443 423 454 
3 720 442 721 
3 343 393 405 
3 422 421 453 
3 596 598 600 
3 441 442 720 
3 516 453 571 
3 442 387 789 
3 282 283 284 
3 268 264 269 
3 723 724 726 
3 118 147 801 
3 176 117 801 
3 394 342 781 
3 339 381 421 
3 299 300 301 
3 300 297 779 
3 256 260 261 
3 355 356 418 
3 402 480 481 
3 668 542 1018 
3 284 384 385 
3 491 454 573 
3 421 381 432 
3 482 378 483 
3 581 483 583 
3 484 404 485 
3 520 487 521 
3 373 371 374 
3 339 333 381 
3 556 480 825 
3 481 480 556 
3 276 333 339 
3 605 604 632 
3 270 269 328 
3 343 342 393 
3 721 722 723 
3 569 652 653 
3 402 481 543 
3 329 301 342 
3 299 301 329 
3 328 404 484 
3 329 342 343 
3 373 374 375 
3 723 722 724 
3 376 377 378 
3 375 374 402 
3 228 229 824 
3 787 543 800 
3 387 448 789 
3 721 442 722 
3 384 283 544 
3 258 255 259 
3 376 375 377 
3 250 252 285 
3 268 270 276 
3 496 485 564 
3 373 375 376 
3 268 269 270 
3 593 594 595 
3 380 377 787 
3 329 359 782 
3 136 689 691 
3 387 385 448 
3 276 270 333 
3 484 485 496 
3 298 297 299 
3 379 416 786 
3 496 564 591 
3 282 267 283 
3 586 453 784 
3 376 482 785 
3 284 283 384 
3 297 293 779 
3 384 544 545 
3 445 389 800 
3 267 264 268 
3 292 296 340 
3 452 444 546 
3 296 293 297 
3 725 722 789 
3 298 299 782 
3 699 700 881 
3 453 421 784 
3 584 483 786 
3 446 447 553 
3 396 280 842 
3 378 379 786 
3 358 452 796 
3 370 372 430 
3 421 432 784 
3 597 594 823 
3 382 406 446 
3 327 326 345 
3 481 556 557 
3 285 286 287 
3 419 333 790 
3 290 288 291 
3 520 521 593 
3 508 418 509 
3 299 329 782 
3 377 375 787 
3 352 354 355 
3 292 291 293 
3 538 431 539 
3 422 516 822 
3 263 264 267 
3 215 216 217 
3 296 297 298 
3 427 399 473 
3 217 218 219 
3 372 371 373 
3 483 378 786 
3 430 431 538 
3 722 442 789 
3 460 362 487 
3 287 288 289 
3 482 581 811 
3 659 658 660 
3 346 345 414 
3 292 293 296 
3 375 402 787 
3 256 258 260 
3 260 262 263 
3 328 484 790 
3 289 290 294 
3 263 282 794 
3 372 373 785 
3 430 372 431 
3 232 234 281 
3 773 262 795 
3 314 315 316 
3 263 262 264 
3 260 258 262 
3 270 328 790 
3 338 362 423 
3 251 249 253 
3 402 543 787 
3 247 249 250 
3 289 288 290 
3 285 252 286 
3 221 222 223 
3 333 270 790 
3 460 487 520 
3 460 520 625 
3 407 409 552 
3 256 255 258 
3 287 286 288 
3 373 376 785 
3 261 260 794 
3 395 397 534 
3 267 268 788 
3 418 356 796 
3 254 255 256 
3 268 276 788 
3 339 422 814 
3 286 252 486 
3 290 291 292 
3 425 462 463 
3 117 118 801 
3 243 241 244 
3 247 245 248 
3 254 253 255 
3 431 372 785 
3 250 251 252 
3 283 267 788 
3 251 253 254 
3 389 380 800 
3 544 283 788 
3 496 592 810 
3 790 484 810 
3 509 418 796 
3 258 259 795 
3 243 245 246 
3 250 249 251 
3 358 420 444 
3 419 790 810 
3 681 588 809 
3 788 276 814 
3 338 330 362 
3 411 424 425 
3 195 194 196 
3 434 368 455 
3 463 512 513 
3 229 232 824 
3 409 411 826 
3 356 357 358 
3 254 714 798 
3 225 224 226 
3 348 350 351 
3 420 357 433 
3 260 263 794 
3 247 248 249 
3 246 245 247 
3 544 788 814 
3 250 285 793 
3 243 244 245 
3 239 241 242 
3 262 258 795 
3 309 307 310 
3 370 371 372 
3 239 237 240 
3 423 362 460 
3 355 354 356 
3 573 454 575 
3 246 247 793 
3 513 607 608 
3 206 205 207 
3 356 358 796 
3 198 196 199 
3 488 392 489 
3 246 706 829 
3 469 626 630 
3 200 199 201 
3 280 216 816 
3 358 357 420 
3 590 561 627 
3 444 420 459 
3 621 515 622 
3 775 543 818 
3 332 310 382 
3 785 482 811 
3 369 368 434 
3 242 241 243 
3 281 303 304 
3 518 455 561 
3 292 340 799 
3 367 369 370 
3 446 553 634 
3 356 354 357 
3 367 365 368 
3 676 791 860 
3 460 625 812 
3 251 254 798 
3 431 785 811 
3 539 431 811 
3 247 250 793 
3 294 290 799 
3 330 294 802 
3 484 496 810 
3 316 317 318 
3 235 237 238 
3 239 240 241 
3 219 218 797 
3 518 561 590 
3 654 656 657 
3 543 481 818 
3 474 473 531 
3 364 336 392 
3 290 292 799 
3 556 825 841 
3 337 365 366 
3 252 251 798 
3 235 233 236 
3 367 368 369 
3 434 455 518 
3 374 371 807 
3 370 369 371 
3 521 487 836 
3 514 428 515 
3 487 362 802 
3 291 288 803 
3 603 505 879 
3 309 332 363 
3 274 272 278 
3 276 339 814 
3 238 237 239 
3 555 857 869 
3 304 305 306 
3 321 323 347 
3 235 236 237 
3 306 307 308 
3 472 506 792 
3 486 252 798 
3 366 681 839 
3 599 159 983 
3 84 126 135 
3 288 286 803 
3 332 382 383 
3 653 654 774 
3 281 234 303 
3 286 486 803 
3 370 430 804 
3 85 127 180 
3 309 310 332 
3 305 303 493 
3 470 472 792 
3 294 799 802 
3 351 350 352 
3 362 330 802 
3 454 423 812 
3 308 307 309 
3 371 369 807 
3 415 413 456 
3 423 460 812 
3 86 128 140 
3 366 367 804 
3 576 500 577 
3 369 434 807 
3 306 305 307 
3 234 233 235 
3 876 548 880 
3 360 437 438 
3 480 807 825 
3 814 422 822 
3 87 129 179 
3 412 410 413 
3 481 557 818 
3 352 353 354 
3 214 213 215 
3 366 365 367 
3 845 709 850 
3 347 323 348 
3 469 464 626 
3 433 357 806 
3 352 350 353 
3 354 353 806 
3 304 303 305 
3 680 35 873 
3 88 130 143 
3 594 521 823 
3 231 230 312 
3 275 337 839 
3 322 341 360 
3 575 454 812 
3 357 354 806 
3 545 544 822 
3 326 308 805 
3 243 246 829 
3 414 428 500 
3 397 400 838 
3 274 278 813 
3 514 515 621 
3 367 370 804 
3 654 657 774 
3 365 364 828 
3 364 392 488 
3 334 390 776 
3 597 823 843 
3 337 364 365 
3 228 685 849 
3 89 131 181 
3 514 621 665 
3 319 318 320 
3 544 814 822 
3 414 345 428 
3 166 7 846 
3 220 219 221 
3 309 363 805 
3 488 489 808 
3 489 568 570 
3 308 309 805 
3 455 368 828 
3 229 227 230 
3 411 425 826 
3 90 132 145 
3 660 662 663 
3 91 133 182 
3 134 91 817 
3 232 281 824 
3 82 134 149 
3 502 257 503 
3 223 224 225 
3 235 238 815 
3 348 323 349 
3 232 233 234 
3 434 518 825 
3 657 658 659 
3 340 296 843 
3 500 428 514 
3 242 243 829 
3 364 488 828 
3 234 235 815 
3 598 597 852 
3 368 365 828 
3 392 336 813 
3 310 307 821 
3 229 231 232 
3 425 424 462 
3 203 205 206 
3 348 349 350 
3 319 320 321 
3 534 397 838 
3 211 213 214 
3 601 598 856 
3 337 336 364 
3 232 231 233 
3 407 552 832 
3 363 332 820 
3 807 434 825 
3 463 462 512 
3 429 275 839 
3 535 491 867 
3 303 234 815 
3 332 383 820 
3 217 219 220 
3 561 455 844 
3 513 512 607 
3 305 493 821 
3 321 320 322 
3 415 456 458 
3 220 257 495 
3 229 230 231 
3 307 305 821 
3 338 443 853 
3 321 322 323 
3 493 303 815 
3 198 199 200 
3 601 856 862 
3 200 201 311 
3 412 413 415 
3 195 196 198 
3 192 191 193 
3 206 207 266 
3 515 428 830 
3 823 340 843 
3 275 336 337 
3 489 570 808 
3 193 194 195 
3 312 314 492 
3 415 458 511 
3 825 518 841 
3 221 223 819 
3 220 221 257 
3 231 312 827 
3 336 274 813 
3 473 399 842 
3 502 503 533 
3 399 396 842 
3 345 326 830 
3 511 578 618 
3 236 233 827 
3 360 438 494 
3 568 569 851 
3 531 473 641 
3 869 242 882 
3 511 458 578 
3 275 274 336 
3 799 340 836 
3 225 226 227 
3 494 438 522 
3 862 563 866 
3 214 215 324 
3 327 346 877 
3 462 424 510 
3 522 579 582 
3 802 799 836 
3 435 672 864 
3 273 275 429 
3 344 850 871 
3 233 231 827 
3 598 852 856 
3 495 257 502 
3 312 492 827 
3 214 324 407 
3 494 522 523 
3 409 410 411 
3 326 805 830 
3 608 607 979 
3 411 412 424 
3 319 701 848 
3 296 298 843 
3 518 590 841 
3 665 142 883 
3 428 345 830 
3 228 227 229 
3 407 408 409 
3 780 563 862 
3 724 725 859 
3 411 410 412 
3 337 366 839 
3 597 843 852 
3 487 802 836 
3 94 165 865 
3 529 93 865 
3 198 200 277 
3 409 408 410 
3 478 779 871 
3 206 266 497 
3 503 257 819 
3 690 874 998 
3 225 227 228 
3 34 156 873 
3 190 189 191 
3 257 221 819 
3 344 803 850 
3 316 318 319 
3 486 798 845 
3 407 324 408 
3 209 211 832 
3 273 274 275 
3 497 266 550 
3 497 550 551 
3 755 754 908 
3 798 714 845 
3 641 473 842 
3 201 203 833 
3 311 201 833 
3 622 515 858 
3 7 8 846 
3 349 323 837 
3 215 217 834 
3 714 708 845 
3 91 182 817 
3 149 134 817 
3 273 272 274 
3 390 450 776 
3 850 709 871 
3 383 382 863 
3 323 322 837 
3 144 676 860 
3 828 488 844 
3 549 548 876 
3 843 298 852 
3 760 757 878 
3 446 634 863 
3 324 215 834 
3 756 755 878 
3 455 828 844 
3 322 360 837 
3 203 206 833 
3 211 214 832 
3 239 242 869 
3 705 401 898 
3 488 808 844 
3 401 331 902 
3 220 495 834 
3 217 220 834 
3 126 83 854 
3 360 494 837 
3 412 415 840 
3 192 193 197 
3 415 511 840 
3 464 435 864 
3 656 655 896 
3 510 424 840 
3 501 149 817 
3 424 412 840 
3 298 782 852 
3 711 408 868 
3 486 845 850 
3 803 486 850 
3 569 653 851 
3 706 705 895 
3 214 407 832 
3 685 684 901 
3 331 338 853 
3 819 223 849 
3 848 701 881 
3 713 493 857 
3 492 314 848 
3 206 497 833 
3 492 848 881 
3 266 207 872 
3 515 830 858 
3 830 805 858 
3 223 225 849 
3 271 272 273 
3 852 782 856 
3 782 359 856 
3 450 567 847 
3 266 872 890 
3 601 862 866 
3 517 624 903 
3 478 876 880 
3 135 126 854 
3 856 359 862 
3 316 319 848 
3 727 724 859 
3 877 346 936 
3 271 197 272 
3 192 197 271 
3 324 834 868 
3 90 145 870 
3 182 133 870 
3 359 780 862 
3 898 401 902 
3 555 869 882 
3 382 446 863 
3 815 238 857 
3 314 316 848 
3 133 90 870 
3 190 191 192 
3 93 94 865 
3 805 363 858 
3 225 228 849 
3 514 665 883 
3 498 609 893 
3 493 815 857 
3 602 601 866 
3 881 700 885 
3 577 500 883 
3 834 495 868 
3 457 711 892 
3 491 574 867 
3 255 253 894 
3 832 552 872 
3 857 238 869 
3 209 832 872 
3 626 464 864 
3 572 457 900 
3 238 239 869 
3 779 344 871 
3 207 209 872 
3 969 183 982 
3 684 417 917 
3 638 135 955 
3 419 810 891 
3 478 871 876 
3 425 463 899 
3 197 193 875 
3 89 181 887 
3 35 34 873 
3 83 125 183 
3 145 132 887 
3 554 555 882 
3 548 720 880 
3 505 504 879 
3 911 696 914 
3 895 705 898 
3 408 324 868 
3 417 327 877 
3 662 964 974 
3 776 450 847 
3 709 549 876 
3 880 720 884 
3 773 795 904 
3 188 149 189 
3 193 195 875 
3 18 639 940 
3 757 756 878 
3 582 579 926 
3 742 404 905 
3 720 721 884 
3 236 885 906 
3 697 696 911 
3 701 699 881 
3 302 478 880 
3 198 277 888 
3 884 721 886 
3 236 827 885 
3 872 552 890 
3 588 587 960 
3 346 414 912 
3 721 723 886 
3 302 880 884 
3 88 143 897 
3 240 237 906 
3 886 723 889 
3 160 75 913 
3 74 184 913 
3 181 131 897 
3 781 302 884 
3 559 558 916 
3 638 636 943 
3 500 514 883 
3 546 444 910 
3 916 558 918 
3 901 684 917 
3 132 89 887 
3 723 726 889 
3 9 150 915 
3 188 189 190 
3 781 884 886 
3 242 829 882 
3 871 709 876 
3 629 668 982 
3 937 175 1011 
3 244 241 914 
3 820 690 935 
3 457 892 900 
3 394 781 886 
3 394 886 889 
3 885 700 906 
3 459 741 991 
3 668 969 982 
3 778 394 889 
3 867 574 874 
3 508 560 919 
3 552 826 890 
3 649 648 903 
3 550 266 890 
3 625 139 978 
3 107 108 926 
3 24 23 922 
3 71 70 923 
3 73 72 924 
3 248 245 918 
3 711 868 892 
3 827 492 885 
3 810 592 891 
3 83 183 854 
3 775 818 920 
3 195 198 888 
3 82 149 188 
3 48 144 933 
3 846 8 915 
3 168 49 933 
3 875 195 888 
3 253 249 921 
3 868 495 892 
3 248 918 919 
3 527 619 943 
3 919 560 921 
3 277 200 909 
3 530 498 893 
3 244 914 916 
3 550 890 899 
3 926 108 1013 
3 240 906 911 
3 655 678 896 
3 259 255 894 
3 560 509 928 
3 495 502 892 
3 734 353 980 
3 87 179 925 
3 143 130 925 
3 259 928 931 
3 554 882 895 
3 819 849 901 
3 890 826 899 
3 659 660 932 
3 131 88 897 
3 762 160 934 
3 607 512 957 
3 492 881 885 
3 135 638 950 
3 648 517 903 
3 829 706 895 
3 497 551 929 
3 882 829 895 
3 542 847 1018 
3 553 554 898 
3 619 525 942 
3 849 685 901 
3 554 895 898 
3 892 502 900 
3 416 637 1017 
3 795 259 931 
3 566 638 955 
3 553 898 902 
3 526 606 942 
3 926 579 996 
3 187 79 937 
3 78 175 937 
3 740 137 939 
3 634 553 902 
3 403 904 905 
3 403 773 904 
3 899 463 907 
3 502 533 900 
3 826 425 899 
3 240 911 914 
3 96 97 938 
3 174 764 973 
3 404 403 905 
3 363 820 935 
3 503 819 901 
3 586 784 908 
3 311 833 929 
3 237 236 906 
3 738 741 945 
3 700 697 911 
3 17 18 940 
3 200 311 909 
3 444 459 910 
3 727 859 1010 
3 551 550 907 
3 414 576 912 
3 894 560 928 
3 915 150 989 
3 503 901 917 
3 75 74 913 
3 732 731 945 
3 791 169 957 
3 670 167 968 
3 184 924 1008 
3 627 561 951 
3 692 152 932 
3 241 240 914 
3 244 916 918 
3 688 687 947 
3 162 107 926 
3 8 9 915 
3 727 1010 1024 
3 259 894 928 
3 696 559 916 
3 86 140 941 
3 179 129 941 
3 587 538 948 
3 906 700 911 
3 822 516 944 
3 456 572 949 
3 146 64 953 
3 63 174 953 
3 245 244 918 
3 173 719 960 
3 582 926 1013 
3 85 180 946 
3 735 734 980 
3 140 128 946 
3 533 503 917 
3 558 508 919 
3 914 696 916 
3 736 523 972 
3 580 937 1011 
3 918 558 919 
3 532 775 920 
3 440 536 958 
3 772 24 922 
3 70 185 923 
3 184 73 924 
3 248 919 921 
3 130 87 925 
3 249 248 921 
3 66 65 959 
3 84 135 950 
3 180 127 950 
3 622 858 935 
3 765 158 948 
3 537 524 961 
3 550 899 907 
3 576 577 954 
3 662 664 964 
3 613 611 965 
3 928 777 931 
3 509 777 928 
3 934 160 1014 
3 949 576 954 
3 157 105 988 
3 529 865 930 
3 612 614 930 
3 611 584 965 
3 494 523 962 
3 777 547 931 
3 557 769 992 
3 786 416 965 
3 142 665 995 
3 660 663 932 
3 833 497 929 
3 844 808 951 
3 448 385 971 
3 384 545 971 
3 625 520 973 
3 138 736 972 
3 571 915 989 
3 49 48 933 
3 6 166 976 
3 865 612 930 
3 689 690 998 
3 564 589 977 
3 147 761 984 
3 31 155 981 
3 99 765 983 
3 841 155 986 
3 688 947 1022 
3 159 98 983 
3 162 926 996 
3 772 922 963 
3 419 891 1002 
3 557 556 986 
3 67 66 985 
3 657 659 968 
3 349 837 962 
3 719 716 956 
3 747 745 987 
3 572 912 949 
3 52 142 995 
3 763 762 934 
3 170 53 995 
3 523 522 972 
3 600 602 959 
3 350 349 980 
3 755 908 1007 
3 171 783 993 
3 680 570 994 
3 590 627 981 
3 583 585 938 
3 190 192 966 
3 636 527 943 
3 692 932 1009 
3 750 746 1001 
3 567 969 1018 
3 912 576 949 
3 95 96 999 
3 570 568 994 
3 3 80 1003 
3 23 3 1003 
3 124 0 1004 
3 0 4 1004 
3 72 1 1005 
3 1 92 1005 
3 2 71 1006 
3 22 2 1006 
3 753 186 1004 
3 109 138 1013 
3 866 563 975 
3 511 618 990 
3 432 381 1002 
3 596 600 1026 
3 16 151 1024 
3 141 14 1010 
3 637 615 1017 
3 806 734 1012 
3 572 900 936 
3 891 760 1002 
3 789 448 1020 
3 932 663 1009 
3 79 78 937 
3 859 141 1010 
3 614 616 1008 
3 510 791 1021 
3 964 702 974 
3 929 551 964 
3 97 159 938 
3 533 877 936 
3 851 653 1000 
3 516 571 989 
3 137 766 939 
3 462 510 1021 
3 858 363 935 
3 734 732 1012 
3 617 934 1014 
3 743 161 975 
3 510 840 990 
3 860 510 990 
3 151 17 940 
3 628 629 982 
3 129 86 941 
3 525 526 942 
3 716 718 956 
3 900 533 936 
3 818 557 992 
3 687 170 947 
3 731 738 945 
3 740 939 991 
3 128 85 946 
3 637 439 970 
3 545 822 944 
3 808 570 1016 
3 908 784 1007 
3 621 622 947 
3 538 539 948 
3 682 168 952 
3 458 456 949 
3 718 717 966 
3 712 575 978 
3 570 873 1016 
3 922 187 963 
3 127 84 950 
3 561 844 951 
3 169 673 957 
3 947 622 1022 
3 458 949 954 
3 64 63 953 
3 664 929 964 
3 81 628 1023 
3 567 566 955 
3 663 662 974 
3 429 809 956 
3 530 771 967 
3 578 458 954 
3 146 953 1026 
3 439 440 958 
3 142 682 1015 
3 812 625 978 
3 575 812 978 
3 944 750 1001 
3 65 146 959 
3 728 173 960 
3 524 532 961 
3 741 740 991 
3 536 580 1011 
3 617 637 970 
3 753 5 976 
3 837 494 962 
3 551 702 964 
3 155 768 986 
3 580 537 963 
3 883 142 1015 
3 584 786 965 
3 176 801 977 
3 667 629 996 
3 801 591 977 
3 635 459 991 
3 125 81 1023 
3 448 987 1020 
3 562 530 967 
3 774 657 968 
3 192 271 966 
3 385 384 971 
3 520 593 973 
3 574 783 998 
3 952 168 997 
3 791 957 1021 
3 702 608 974 
3 939 635 991 
3 522 582 972 
3 563 562 975 
3 754 753 976 
3 5 6 976 
3 854 183 969 
3 591 564 977 
3 139 712 978 
3 148 693 979 
3 920 818 992 
3 168 933 997 
3 874 574 998 
3 965 416 1017 
3 32 31 981 
3 353 350 980 
3 98 99 983 
3 732 945 1012 
3 761 759 984 
3 161 67 985 
3 717 157 988 
3 878 755 1007 
3 745 748 987 
3 979 693 1009 
3 556 841 986 
3 153 680 994 
3 150 750 989 
3 579 667 996 
3 953 595 1026 
3 922 23 1003 
3 71 923 1006 
3 924 72 1005 
3 783 689 998 
3 432 878 1007 
3 951 808 1016 
3 147 984 1025 
3 703 171 993 
3 851 153 994 
3 629 162 996 
3 840 511 990 
3 439 958 970 
3 769 154 992 
3 53 52 995 
3 160 913 1014 
3 693 692 1009 
3 568 851 994 
3 934 617 970 
3 979 1009 1019 
3 746 747 1001 
3 165 95 999 
3 618 578 997 
3 80 187 1003 
3 186 124 1004 
3 92 529 1005 
3 528 22 1006 
3 381 419 1002 
3 690 688 1022 
3 653 774 1000 
3 154 920 992 
3 784 432 1007 
3 969 668 1018 
3 14 15 1010 
3 175 763 1011 
3 108 109 1013 
3 873 156 1016 
3 616 617 1014 
3 433 806 1012 
3 615 613 1017 
3 933 618 997 
3 1010 15 1024 
3 183 125 1023 
3 545 944 1001 
3 725 789 1020 
3 15 16 1024 
3 577 883 1015 
3 748 141 1027 
3 859 725 1027 
3 592 591 1025 
3 595 596 1026 
3 512 462 1021 
3 847 567 1018 
3 187 922 1003 
3 923 528 1006 
3 529 924 1005 
3 913 616 1014 
3 1020 748 1027 
3 725 1020 1027 
3 141 859 1027 
3 622 935 1022 
3 945 433 1012 
3 957 512 1021 
3 930 614 1008 
3 156 951 1016 
3 935 690 1022 
3 613 965 1017 
3 663 974 1019 
3 952 577 1015 
3 682 952 1015 
3 982 183 1023 
3 974 608 1019 
3 608 979 1019 
3 984 592 1025 
3 987 748 1020 
3 628 982 1023 
3 1009 663 1019 

CELL_TYPES 1919
5
5
5
5
5
5
5
5
5
5
5
5
5
5
5
5
5
5
5
5
5
5
5
5
5
5
5
5
5
5
5
5
5
5
5
5
5
5
5
5
5
5
5
5
5
5
5
5
5
5
5
5
5
5
5
5
5
5
5
5
5
5
5
5
5
5
5
5
5
5
5
5
5
5
5
5
5
5
5
5
5
5
5
5
5
5
5
5
5
5
5
5
5
5
5
5
5
5
5
5
5
5
5
5
5
5
5
5
5
5
5
5
5
5
5
5
5
5
5
5
5
5
5
5
5
5
5
5
5
5
5
5
5
5
5
5
5
5
5
5
5
5
5
5
5
5
5
5
5
5
5
5
5
5
5
5
5
5
5
5
5
5
5
5
5
5
5
5
5
5
5
5
5
5
5
5
5
5
5
5
5
5
5
5
5
5
5
5
5
5
5
5
5
5
5
5
5
5
5
5
5
5
5
5
5
5
5
5
5
5
5
5
5
5
5
5
5
5
5
5
5
5
5
5
5
5
5
5
5
5
5
5
5
5
5
5
5
5
5
5
5
5
5
5
5
5
5
5
5
5
5
5
5
5
5
5
5
5
5
5
5
5
5
5
5
5
5
5
5
5
5
5
5
5
5
5
5
5
5
5
5
5
5
5
5
5
5
5
5
5
5
5
5
5
5
5
5
5
5
5
5
5
5
5
5
5
5
5
5
5
5
5
5
5
5
5
5
5
5
5
5
5
5
5
5
5
5
5
5
5
5
5
5
5
5
5
5
5
5
5
5
5
5
5
5
5
5
5
5
5
5
5
5
5
5
5
5
5
5
5
5
5
5
5
5
5
5
5
5
5
5
5
5
5
5
5
5
5
5
5
5
5
5
5
5
5
5
5
5
5
5
5
5
5
5
5
5
5
5
5
5
5
5
5
5
5
5
5
5
5
5
5
5
5
5
5
5
5
5
5
5
5
5
5
5
5
5
5
5
5
5
5
5
5
5
5
5
5
5
5
5
5
5
5
5
5
5
5
5
5
5
5
5
5
5
5
5
5
5
5
5
5
5
5
5
5
5
5
5
5
5
5
5
5
5
5
5
5
5
5
5
5
5
5
5
5
5
5
5
5
5
5
5
5
5
5
5
5
5
5
5
5
5
5
5
5
5
5
5
5
5
5
5
5
5
5
5
5
5
5
5
5
5
5
5
5
5
5
5
5
5
5
5
5
5
5
5
5
5
5
5
5
5
5
5
5
5
5
5
5
5
5
5
5
5
5
5
5
5
5
5
5
5
5
5
5
5
5
5
5
5
5
5
5
5
5
5
5
5
5
5
5
5
5
5
5
5
5
5
5
5
5
5
5
5
5
5
5
5
5
5
5
5
5
5
5
5
5
5
5
5
5
5
5
5
5
5
5
5
5
5
5
5
5
5
5
5
5
5
5
5
5
5
5
5
5
5
5
5
5
5
5
5
5
5
5
5
5
5
5
5
5
5
5
5
5
5
5
5
5
5
5
5
5
5
5
5
5
5
5
5
5
5
5
5
5
5
5
5
5
5
5
5
5
5
5
5
5
5
5
5
5
5
5
5
5
5
5
5
5
5
5
5
5
5
5
5
5
5
5
5
5
5
5
5
5
5
5
5
5
5
5
5
5
5
5
5
5
5
5
5
5
5
5
5
5
5
5
5
5
5
5
5
5
5
5
5
5
5
5
5
5
5
5
5
5
5
5
5
5
5
5
5
5
5
5
5
5
5
5
5
5
5
5
5
5
5
5
5
5
5
5
5
5
5
5
5
5
5
5
5
5
5
5
5
5
5
5
5
5
5
5
5
5
5
5
5
5
5
5
5
5
5
5
5
5
5
5
5
5
5
5
5
5
5
5
5
5
5
5
5
5
5
5
5
5
5
5
5
5
5
5
5
5
5
5
5
5
5
5
5
5
5
5
5
5
5
5
5
5
5
5
5
5
5
5
5
5
5
5
5
5
5
5
5
5
5
5
5
5
5
5
5
5
5
5
5
5
5
5
5
5
5
5
5
5
5
5
5
5
5
5
5
5
5
5
5
5
5
5
5
5
5
5
5
5
5
5
5
5
5
5
5
5
5
5
5
5
5
5
5
5
5
5
5
5
5
5
5
5
5
5
5
5
5
5
5
5
5
5
5
5
5
5
5
5
5
5
5
5
5
5
5
5
5
5
5
5
5
5
5
5
5
5
5
5
5
5
5
5
5
5
5
5
5
5
5
5
5
5
5
5
5
5
5
5
5
5
5
5
5
5
5
5
5
5
5
5
5
5
5
5
5
5
5
5
5
5
5
5
5
5
5
5
5
5
5
5
5
5
5
5
5
5
5
5
5
5
5
5
5
5
5
5
5
5
5
5
5
5
5
5
5
5
5
5
5
5
5
5
5
5
5
5
5
5
5
5
5
5
5
5
5
5
5
5
5
5
5
5
5
5
5
5
5
5
5
5
5
5
5
5
5
5
5
5
5
5
5
5
5
5
5
5
5
5
5
5
5
5
5
5
5
5
5
5
5
5
5
5
5
5
5
5
5
5
5
5
5
5
5
5
5
5
5
5
5
5
5
5
5
5
5
5
5
5
5
5
5
5
5
5
5
5
5
5
5
5
5
5
5
5
5
5
5
5
5
5
5
5
5
5
5
5
5
5
5
5
5
5
5
5
5
5
5
5
5
5
5
5
5
5
5
5
5
5
5
5
5
5
5
5
5
5
5
5
5
5
5
5
5
5
5
5
5
5
5
5
5
5
5
5
5
5
5
5
5
5
5
5
5
5
5
5
5
5
5
5
5
5
5
5
5
5
5
5
5
5
5
5
5
5
5
5
5
5
5
5
5
5
5
5
5
5
5
5
5
5
5
5
5
5
5
5
5
5
5
5
5
5
5
5
5
5
5
5
5
5
5
5
5
5
5
5
5
5
5
5
5
5
5
5
5
5
5
5
5
5
5
5
5
5
5
5
5
5
5
5
5
5
5
5
5
5
5
5
5
5
5
5
5
5
5
5
5
5
5
5
5
5
5
5
5
5
5
5
5
5
5
5
5
5
5
5
5
5
5
5
5
5
5
5
5
5
5
5
5
5
5
5
5
5
5
5
5
5
5
5
5
5
5
5
5
5
5
5
5
5
5
5
5
5
5
5
5
5
5
5
5
5
5
5
5
5
5
5
5
5
5
5
5
5
5
5
5
5
5
5
5
5
5
5
5
5
5
5
5
5
5
5
5
5
5
5
5
5
5
5
5
5
5
5
5
5
5
5
5
5
5
5
5
5
5
5
5
5
5
5
5
5
5
5
5
5
5
5
5
5
5
5
5
5
5
5
5
5
5
5
5
5
5
5
5
5
5
5
5
5
5
5
5
5
5
5
5
5
5
5
5
5
5
5
5
5
5
5
5
5
5
5
5
5
5
5
5
5
5
5
5
5
5
5
5
5
5
5
5
5
5
5
5
5
5
5
5
5
5
5
5
5
5
5
5
5
5
5
5
5
5
5
5
5
5
5
5
5
5
5
5
5
5
5
5
5
5
5
5
5
5
5
5
5
5
5
5
5
5
5
5
5
5
5
5
5
5
5
5
5
5
5
5
5
5
5
5
5
5
5
5
5
5
5
5
5
5
5
5
5
5
5
5
5
5
5
5
5
5
5
5
5
5
5
5
5
5
5
5
5
5
5
5
5
5
5
5
5
5
5
5
5
5
5
5
5
5
5
5
5
5
5
5
5
5
5
5
5
5
5
5
5
5
5
5
5
5
5
5
5
5
5
5
5
5
5
5
5
5
5
5
5
5
5
5
5
5
5
5
5
5
5
5
5
5
5
5
5
5
5
5
5
5
5
5
5
5
5
5
5
5
5
5
5
5
5
5
5
5
5
5
5
5
5
5
5
5
5
5
5
5
5
5
5
5
5
5
5
5
5
5
5
5
5
5
5
5
5
5
5
5
5
5
5
5
5
5
5
5
5
5
5
5
5
5
5
5
5
5
5
5
5
5
5
5
5
5
5
5
5
5
5
5
5
5
5
5
5
5
5
5
5
5
5
5
5
5
5
5
5
5
5
5
5
5
5
5
5
5
5
5
5
5
5
5
5
5
5
5
5
5
5
5
5
5
5
5
5
5
5
5
5
5
5
5
5
5
5
5
5
5
5
5
5
5
5
5
5
5
5
5
5
5
5
5
5
5
5
5
5
5
5
5
5
5
5
5
5
5
5
5
5
5
5
5
5
5
5
5
5
5
5
5
5
5
5
5
5
5
5
5
5
5
5
5
5
5
5
5
5
5
5
5
5
5
5
5
5
5
5
5
5
5
5
5
5
5
5
5
5
5

POINT_DATA 1028

VECTORS coord float
0.0 0.0 0.0 
5.000000000000e+01 -1.000000000000e+01 0.0 
0.0 -2.000000000000e+01 0.0 
5.000000000000e+01 -2.000000000000e+01 0.0 
0.0 -9.999999999991e-01 0.0 
0.0 -1.999999999998e+00 0.0 
0.0 -2.999999999997e+00 0.0 
0.0 -3.999999999994e+00 0.0 
0.0 -4.999999999991e+00 0.0 
0.0 -5.999999999988e+00 0.0 
0.0 -6.999999999985e+00 0.0 
0.0 -7.999999999982e+00 0.0 
0.0 -8.999999999983e+00 0.0 
0.0 -9.999999999985e+00 0.0 
0.0 -1.099999999999e+01 0.0 
0.0 -1.199999999999e+01 0.0 
0.0 -1.299999999999e+01 0.0 
0.0 -1.399999999999e+01 0.0 
0.0 -1.499999999999e+01 0.0 
0.0 -1.599999999999e+01 0.0 
0.0 -1.700000000000e+01 0.0 
0.0 -1.800000000000e+01 0.0 
0.0 -1.900000000000e+01 0.0 
4.900000000001e+01 -2.000000000000e+01 0.0 
4.800000000001e+01 -2.000000000000e+01 0.0 
4.700000000002e+01 -2.000000000000e+01 0.0 
4.600000000003e+01 -2.000000000000e+01 0.0 
4.500000000004e+01 -2.000000000000e+01 0.0 
4.400000000004e+01 -2.000000000000e+01 0.0 
4.300000000005e+01 -2.000000000000e+01 0.0 
4.200000000006e+01 -2.000000000000e+01 0.0 
4.100000000006e+01 -2.000000000000e+01 0.0 
4.000000000007e+01 -2.000000000000e+01 0.0 
3.900000000008e+01 -2.000000000000e+01 0.0 
3.800000000009e+01 -2.000000000000e+01 0.0 
3.700000000009e+01 -2.000000000000e+01 0.0 
3.600000000010e+01 -2.000000000000e+01 0.0 
3.500000000011e+01 -2.000000000000e+01 0.0 
3.400000000011e+01 -2.000000000000e+01 0.0 
3.300000000012e+01 -2.000000000000e+01 0.0 
3.200000000013e+01 -2.000000000000e+01 0.0 
3.100000000013e+01 -2.000000000000e+01 0.0 
3.000000000013e+01 -2.000000000000e+01 0.0 
2.900000000013e+01 -2.000000000000e+01 0.0 
2.800000000013e+01 -2.000000000000e+01 0.0 
2.700000000013e+01 -2.000000000000e+01 0.0 
2.600000000013e+01 -2.000000000000e+01 0.0 
2.500000000013e+01 -2.000000000000e+01 0.0 
2.400000000013e+01 -2.000000000000e+01 0.0 
2.300000000013e+01 -2.000000000000e+01 0.0 
2.200000000013e+01 -2.000000000000e+01 0.0 
2.100000000013e+01 -2.000000000000e+01 0.0 
2.000000000013e+01 -2.000000000000e+01 0.0 
1.900000000013e+01 -2.000000000000e+01 0.0 
1.800000000013e+01 -2.000000000000e+01 0.0 
1.700000000012e+01 -2.000000000000e+01 0.0 
1.600000000011e+01 -2.000000000000e+01 0.0 
1.500000000011e+01 -2.000000000000e+01 0.0 
1.400000000010e+01 -2.000000000000e+01 0.0 
1.300000000009e+01 -2.000000000000e+01 0.0 
1.200000000009e+01 -2.000000000000e+01 0.0 
1.100000000008e+01 -2.000000000000e+01 0.0 
1.000000000007e+01 -2.000000000000e+01 0.0 
9.000000000064e+00 -2.000000000000e+01 0.0 
8.000000000057e+00 -2.000000000000e+01 0.0 
7.000000000050e+00 -2.000000000000e+01 0.0 
6.000000000043e+00 -2.000000000000e+01 0.0 
5.000000000036e+00 -2.000000000000e+01 0.0 
4.000000000028e+00 -2.000000000000e+01 0.0 
3.000000000021e+00 -2.000000000000e+01 0.0 
2.000000000014e+00 -2.000000000000e+01 0.0 
1.000000000007e+00 -2.000000000000e+01 0.0 
5.000000000000e+01 -1.100000000000e+01 0.0 
5.000000000000e+01 -1.200000000000e+01 0.0 
5.000000000000e+01 -1.300000000000e+01 0.0 
5.000000000000e+01 -1.400000000000e+01 0.0 
5.000000000000e+01 -1.500000000000e+01 0.0 
5.000000000000e+01 -1.600000000000e+01 0.0 
5.000000000000e+01 -1.700000000000e+01 0.0 
5.000000000000e+01 -1.800000000000e+01 0.0 
5.000000000000e+01 -1.900000000000e+01 0.0 
2.000000000000e+01 0.0 0.0 
3.500000000000e+01 -1.000000000000e+01 0.0 
2.150000000000e+01 -1.000000000000e+00 0.0 
2.300000000000e+01 -2.000000000000e+00 0.0 
2.450000000000e+01 -3.000000000000e+00 0.0 
2.600000000000e+01 -4.000000000000e+00 0.0 
2.750000000000e+01 -5.000000000000e+00 0.0 
2.900000000000e+01 -6.000000000000e+00 0.0 
3.050000000000e+01 -7.000000000000e+00 0.0 
3.200000000000e+01 -8.000000000000e+00 0.0 
3.350000000000e+01 -9.000000000000e+00 0.0 
4.900000000000e+01 -1.000000000000e+01 0.0 
4.800000000000e+01 -1.000000000000e+01 0.0 
4.700000000000e+01 -1.000000000000e+01 0.0 
4.600000000000e+01 -1.000000000000e+01 0.0 
4.500000000000e+01 -1.000000000000e+01 0.0 
4.400000000000e+01 -1.000000000000e+01 0.0 
4.300000000000e+01 -1.000000000000e+01 0.0 
4.200000000000e+01 -1.000000000000e+01 0.0 
4.100000000000e+01 -1.000000000000e+01 0.0 
4.000000000000e+01 -1.000000000000e+01 0.0 
3.900000000000e+01 -1.000000000000e+01 0.0 
3.800000000000e+01 -1.000000000000e+01 0.0 
3.700000000000e+01 -1.000000000000e+01 0.0 
3.600000000000e+01 -1.000000000000e+01 0.0 
1.900000000000e+01 0.0 0.0 
1.800000000000e+01 0.0 0.0 
1.700000000000e+01 0.0 0.0 
1.600000000000e+01 0.0 0.0 
1.500000000000e+01 0.0 0.0 
1.400000000000e+01 0.0 0.0 
1.300000000000e+01 0.0 0.0 
1.200000000000e+01 0.0 0.0 
1.100000000000e+01 0.0 0.0 
1.000000000000e+01 0.0 0.0 
9.000000000000e+00 0.0 0.0 
8.000000000000e+00 0.0 0.0 
7.000000000000e+00 0.0 0.0 
6.000000000000e+00 0.0 0.0 
5.000000000000e+00 0.0 0.0 
4.000000000000e+00 0.0 0.0 
3.000000000000e+00 0.0 0.0 
2.000000000000e+00 0.0 0.0 
1.000000000000e+00 0.0 0.0 
2.075000000000e+01 -5.000000000006e-01 0.0 
2.225000000000e+01 -1.500000000000e+00 0.0 
2.375000000000e+01 -2.500000000000e+00 0.0 
2.525000000000e+01 -3.500000000000e+00 0.0 
2.675000000000e+01 -4.500000000000e+00 0.0 
2.825000000000e+01 -5.500000000000e+00 0.0 
2.975000000000e+01 -6.500000000000e+00 0.0 
3.125000000000e+01 -7.500000000000e+00 0.0 
3.275000000000e+01 -8.500000000000e+00 0.0 
3.425000000000e+01 -9.500000000000e+00 0.0 
2.226951693683e+01 -2.403913980114e+00 0.0 
1.650149491944e+01 -1.913490915758e+01 0.0 
1.050042386896e+01 -8.504605092970e-01 0.0 
1.553146524712e+01 -8.281255032105e-01 0.0 
1.150000000008e+01 -1.913397459621e+01 0.0 
2.530060260647e+01 -4.428336431260e+00 0.0 
8.651114563942e-01 -1.052096295641e+01 0.0 
2.050000000013e+01 -1.913397459622e+01 0.0 
2.819198729811e+01 -6.399519052838e+00 0.0 
2.445670302931e+01 -1.915649188023e+01 0.0 
3.117591465718e+01 -8.394293040695e+00 0.0 
7.465053044742e+00 -1.920411160581e+01 0.0 
6.398295709691e+00 -8.230098819370e-01 0.0 
2.849659607461e+01 -1.914296187762e+01 0.0 
3.418732642882e+01 -1.040265792588e+01 0.0 
8.386450935063e-01 -6.533605142809e+00 0.0 
9.178661865596e-01 -1.329769195597e+01 0.0 
3.149448624493e+01 -1.910466733764e+01 0.0 
3.552916747426e+01 -1.914628590759e+01 0.0 
4.449210346537e+01 -1.914359085008e+01 0.0 
4.140975975145e+01 -1.906941860733e+01 0.0 
3.847475958753e+01 -1.916622382724e+01 0.0 
3.653774794640e+01 -1.088712800241e+01 0.0 
4.047886341787e+01 -1.090139014048e+01 0.0 
4.348006339825e+01 -1.092792621489e+01 0.0 
4.919519968029e+01 -1.451526755068e+01 0.0 
4.500000000032e+00 -1.913397459621e+01 0.0 
1.856136921614e+01 -8.212235170404e-01 0.0 
3.499895312306e+00 -8.661165539723e-01 0.0 
9.076088696565e-01 -1.642306201891e+01 0.0 
4.655174095477e+01 -1.086183387525e+01 0.0 
9.430688970604e-01 -3.496112672958e+00 0.0 
3.353992337063e+01 -1.901202090820e+01 0.0 
2.249746016977e+01 -1.921262287282e+01 0.0 
2.650122741777e+01 -1.916123026018e+01 0.0 
1.863571384842e+01 -1.908325534840e+01 0.0 
1.450089971693e+01 -1.917691901860e+01 0.0 
1.350044695317e+01 -8.659695299584e-01 0.0 
3.849987469880e+01 -1.084154983397e+01 0.0 
9.454419857884e+00 -1.900818879936e+01 0.0 
4.917398660523e+01 -1.645692866081e+01 0.0 
8.500000000000e+00 -8.660254037844e-01 0.0 
8.660319230785e-01 -8.500111697188e+00 0.0 
4.649022621545e+01 -1.930506220113e+01 0.0 
2.667688107845e+01 -5.420288124331e+00 0.0 
2.379251615665e+01 -3.412225477429e+00 0.0 
2.966631491830e+01 -7.389030232731e+00 0.0 
3.267915035995e+01 -9.396934932445e+00 0.0 
2.074836922338e+01 -1.320054020319e+00 0.0 
4.915985743621e+01 -1.261973384855e+01 0.0 
2.527129768623e+00 -1.931592414663e+01 0.0 
1.538676247410e+00 -8.436956619311e-01 0.0 
4.908096641539e+01 -1.842484004551e+01 0.0 
3.478612492673e+01 -1.090889364140e+01 0.0 
3.409757055860e+01 -1.131991530427e+01 0.0 
3.501895309466e+01 -1.177687842717e+01 0.0 
3.407758073088e+01 -1.224293381580e+01 0.0 
3.484541875390e+01 -1.277051428430e+01 0.0 
3.400322025842e+01 -1.319022775640e+01 0.0 
3.321672625034e+01 -1.266779191233e+01 0.0 
3.315244139236e+01 -1.360984106532e+01 0.0 
3.236335186892e+01 -1.308463225210e+01 0.0 
3.478337442841e+01 -1.372341158982e+01 0.0 
3.230105923633e+01 -1.403023731610e+01 0.0 
3.150954055289e+01 -1.350301767700e+01 0.0 
3.144604792090e+01 -1.444931742516e+01 0.0 
3.065653897123e+01 -1.392357262981e+01 0.0 
3.071897610812e+01 -1.297447031198e+01 0.0 
2.986790411740e+01 -1.339226181535e+01 0.0 
2.993181466745e+01 -1.244703272398e+01 0.0 
2.908023061869e+01 -1.286254537734e+01 0.0 
2.901619051372e+01 -1.380881655279e+01 0.0 
2.822986160390e+01 -1.327695262116e+01 0.0 
2.829453476870e+01 -1.233265343811e+01 0.0 
2.744542905518e+01 -1.274510491105e+01 0.0 
2.751120089246e+01 -1.180368086886e+01 0.0 
2.666218649885e+01 -1.221619339205e+01 0.0 
2.672371209234e+01 -1.127125228527e+01 0.0 
2.587763216302e+01 -1.168539979114e+01 0.0 
2.581165585299e+01 -1.262994410089e+01 0.0 
2.502890882577e+01 -1.209827323619e+01 0.0 
2.509631327757e+01 -1.115492410304e+01 0.0 
2.424662989877e+01 -1.156630981079e+01 0.0 
2.431704046904e+01 -1.062389179334e+01 0.0 
2.346445438728e+01 -1.103427680694e+01 0.0 
2.339382552877e+01 -1.197964871788e+01 0.0 
2.260936050780e+01 -1.144513277642e+01 0.0 
2.268075012022e+01 -1.049911928216e+01 0.0 
2.182525737661e+01 -1.090920811464e+01 0.0 
2.189682319817e+01 -9.961716944568e+00 0.0 
2.104174127792e+01 -1.037266986667e+01 0.0 
2.111304367575e+01 -9.424179358711e+00 0.0 
2.025306185381e+01 -9.832727364719e+00 0.0 
2.018141124247e+01 -1.079140628871e+01 0.0 
1.938594498257e+01 -1.025147354112e+01 0.0 
1.946106490453e+01 -9.288010758448e+00 0.0 
1.858929958352e+01 -9.706319802516e+00 0.0 
1.851540991219e+01 -1.067205988724e+01 0.0 
1.771485303178e+01 -1.012504443115e+01 0.0 
1.764134552256e+01 -1.109360378538e+01 0.0 
1.683745148095e+01 -1.054496365337e+01 0.0 
1.691852964353e+01 -9.582555261178e+00 0.0 
1.603603813062e+01 -1.000160132379e+01 0.0 
1.595824239350e+01 -1.096750698862e+01 0.0 
1.515080624291e+01 -1.041639501931e+01 0.0 
1.523171602559e+01 -9.451711491453e+00 0.0 
1.434621060709e+01 -9.871956467464e+00 0.0 
1.426777178765e+01 -1.083749501371e+01 0.0 
1.345775282374e+01 -1.028803175500e+01 0.0 
1.354103873368e+01 -9.324918457162e+00 0.0 
1.265072018622e+01 -9.742612837270e+00 0.0 
1.257285762070e+01 -1.071557782384e+01 0.0 
1.175874815690e+01 -1.015972324288e+01 0.0 
1.184203019714e+01 -9.193604071377e+00 0.0 
1.094927709905e+01 -9.612103238656e+00 0.0 
1.086938022910e+01 -1.058685085646e+01 0.0 
1.005424098961e+01 -1.002939116380e+01 0.0 
9.977974613295e+00 -1.101324897989e+01 0.0 
1.012915646404e+01 -9.051815821181e+00 0.0 
9.237127782494e+00 -9.471239055559e+00 0.0 
9.308426593771e+00 -8.483376461131e+00 0.0 
8.418806073345e+00 -8.910712374517e+00 0.0 
2.253688464062e+01 -1.239459402279e+01 0.0 
8.495126726666e+00 -7.921646665254e+00 0.0 
9.389727383206e+00 -7.512103628377e+00 0.0 
7.601560812974e+00 -8.349460349344e+00 0.0 
7.525680547759e+00 -9.339736686940e+00 0.0 
7.677888324502e+00 -7.359727833346e+00 0.0 
6.782001206724e+00 -7.788454494773e+00 0.0 
6.858778622885e+00 -6.797338062822e+00 0.0 
2.196596590865e+01 -8.979025665442e+00 0.0 
2.816540108272e+01 -1.422634142353e+01 0.0 
5.961601194403e+00 -7.226824010712e+00 0.0 
6.038171749656e+00 -6.234825887079e+00 0.0 
6.936257279557e+00 -5.805287640737e+00 0.0 
6.115068918323e+00 -5.242109758768e+00 0.0 
3.564391741903e+01 -1.329240553876e+01 0.0 
3.558115605778e+01 -1.425902892003e+01 0.0 
3.645445282201e+01 -1.381970786460e+01 0.0 
3.639744204358e+01 -1.479198128612e+01 0.0 
3.727266909778e+01 -1.435399586226e+01 0.0 
5.216667013081e+00 -5.671788584287e+00 0.0 
3.220697293295e+01 -1.499594545107e+01 0.0 
3.551112158269e+01 -1.523479869250e+01 0.0 
2.836056961467e+01 -1.139032434851e+01 0.0 
2.516730388602e+01 -1.021382726837e+01 0.0 
1.844436907403e+01 -1.164097215196e+01 0.0 
5.885434318740e+00 -8.218694781467e+00 0.0 
5.064071066867e+00 -7.656614643901e+00 0.0 
4.988089103470e+00 -8.649722082718e+00 0.0 
1.079421050408e+01 -1.157014985435e+01 0.0 
9.902420005256e+00 -1.199903342656e+01 0.0 
1.071994252214e+01 -1.255727909771e+01 0.0 
9.826974788171e+00 -1.298659581767e+01 0.0 
1.064607883789e+01 -1.354595476388e+01 0.0 
9.751541265343e+00 -1.397556905071e+01 0.0 
8.932296185869e+00 -1.341553353988e+01 0.0 
8.856399248106e+00 -1.440570715508e+01 0.0 
8.036186803543e+00 -1.384470558472e+01 0.0 
1.057112875118e+01 -1.453516759081e+01 0.0 
1.146582585687e+01 -1.410539926903e+01 0.0 
7.959894480382e+00 -1.483563350928e+01 0.0 
7.138792279156e+00 -1.427465094140e+01 0.0 
7.062506792418e+00 -1.526615385482e+01 0.0 
6.240693558277e+00 -1.470508863040e+01 0.0 
6.316957575451e+00 -1.371212581281e+01 0.0 
5.418183007107e+00 -1.414253605022e+01 0.0 
5.494748364428e+00 -1.314886770603e+01 0.0 
1.756825565873e+01 -1.206433872514e+01 0.0 
1.837565773345e+01 -1.261356468266e+01 0.0 
1.749574831391e+01 -1.303769280014e+01 0.0 
1.830539187332e+01 -1.358828364284e+01 0.0 
1.742278925170e+01 -1.401367746928e+01 0.0 
1.823303007798e+01 -1.456432294258e+01 0.0 
1.734941694138e+01 -1.499213734361e+01 0.0 
1.653760041637e+01 -1.443920312098e+01 0.0 
3.056237977307e+01 -1.487132260174e+01 0.0 
1.866469084762e+01 -8.742953000418e+00 0.0 
1.953669694916e+01 -8.326038909849e+00 0.0 
1.874194303780e+01 -7.780688158966e+00 0.0 
1.961032016741e+01 -7.366854697285e+00 0.0 
1.881715755159e+01 -6.821102209649e+00 0.0 
1.968369797150e+01 -6.407747217358e+00 0.0 
1.889237123259e+01 -5.858375520026e+00 0.0 
1.802038875366e+01 -6.276202618170e+00 0.0 
1.809793837984e+01 -5.307629520489e+00 0.0 
1.721985207997e+01 -5.728242054488e+00 0.0 
1.729850893523e+01 -4.756990819347e+00 0.0 
1.641745664240e+01 -5.174636548624e+00 0.0 
2.495978509456e+01 -1.304406404294e+01 0.0 
1.911567814831e+01 -1.413854250293e+01 0.0 
1.904387332608e+01 -1.511463127723e+01 0.0 
1.992115934240e+01 -1.468788025898e+01 0.0 
7.013706899628e+00 -4.812582868662e+00 0.0 
5.342091874585e+00 -1.513658157269e+01 0.0 
1.139098043784e+01 -1.509488509480e+01 0.0 
1.228151810610e+01 -1.465617481983e+01 0.0 
1.646373110164e+01 -1.541993323337e+01 0.0 
5.293328636712e+00 -4.678385108584e+00 0.0 
1.975965862987e+01 -5.448124345648e+00 0.0 
2.054318374236e+01 -5.992561293251e+00 0.0 
3.721453439063e+01 -1.533216152738e+01 0.0 
3.809302733893e+01 -1.489235527381e+01 0.0 
1.220852788900e+01 -1.565304565230e+01 0.0 
4.394120899730e+00 -5.108397613210e+00 0.0 
8.779354620288e+00 -1.539524721159e+01 0.0 
1.817791047702e+01 -4.338570146253e+00 0.0 
4.518860013839e+00 -1.457343189307e+01 0.0 
4.442712140414e+00 -1.556841391069e+01 0.0 
8.115343466391e+00 -1.285760324283e+01 0.0 
1.985334703171e+01 -1.566478400426e+01 0.0 
2.071953850276e+01 -1.522074243119e+01 0.0 
1.634012953883e+01 -6.154777738301e+00 0.0 
1.553479994708e+01 -5.593730508879e+00 0.0 
1.561265946942e+01 -4.617761762647e+00 0.0 
1.470674212978e+01 -5.064576488228e+00 0.0 
1.464498299883e+01 -6.026514471420e+00 0.0 
1.383271561817e+01 -5.467796261169e+00 0.0 
1.389241253067e+01 -4.504338666645e+00 0.0 
1.301868735463e+01 -4.907185188626e+00 0.0 
1.294514184846e+01 -5.888160903592e+00 0.0 
1.212955968622e+01 -5.328262335277e+00 0.0 
1.220721122383e+01 -4.341264976687e+00 0.0 
1.131324345897e+01 -4.766773516508e+00 0.0 
5.266597955397e+00 -1.613148974258e+01 0.0 
1.737805990867e+01 -3.786677807525e+00 0.0 
3.078438094513e+01 -1.203225297748e+01 0.0 
1.131569882285e+01 -1.608511932110e+01 0.0 
1.728478341782e+01 -1.596017432313e+01 0.0 
3.803465906019e+01 -1.587509751228e+01 0.0 
3.891681276677e+01 -1.543395196905e+01 0.0 
3.897340985302e+01 -1.444710288980e+01 0.0 
3.980095968193e+01 -1.499059496613e+01 0.0 
3.974334598189e+01 -1.597921884150e+01 0.0 
4.062964983717e+01 -1.553518690417e+01 0.0 
4.068729602479e+01 -1.454434445295e+01 0.0 
4.151772679790e+01 -1.508974196007e+01 0.0 
4.157505195739e+01 -1.409694289912e+01 0.0 
4.240699932656e+01 -1.464347955968e+01 0.0 
4.234898051011e+01 -1.563721375790e+01 0.0 
4.323934606035e+01 -1.519082036405e+01 0.0 
4.329740528208e+01 -1.419587509788e+01 0.0 
4.413056841369e+01 -1.474359631875e+01 0.0 
4.418850110108e+01 -1.374786684042e+01 0.0 
4.502219770667e+01 -1.429605103525e+01 0.0 
4.496411937907e+01 -1.529215882720e+01 0.0 
4.490027319897e+00 -4.154167794594e+00 0.0 
1.565080385988e+01 -1.486411982419e+01 0.0 
1.557610691279e+01 -1.584855627870e+01 0.0 
4.195350646612e+00 -8.089117689096e+00 0.0 
4.124027797830e+00 -9.082831955007e+00 0.0 
4.917944318925e+00 -9.643530901533e+00 0.0 
4.020105689502e+00 -1.007439673661e+01 0.0 
4.587185899277e+01 -1.484039992728e+01 0.0 
4.580078661551e+01 -1.584043391042e+01 0.0 
2.061956522375e+01 -5.046701343981e+00 0.0 
2.139572955529e+01 -5.579553449826e+00 0.0 
3.715344357292e+01 -1.631485124583e+01 0.0 
3.618886196443e+00 -1.500471207167e+01 0.0 
3.695606940204e+00 -1.400939692294e+01 0.0 
2.438890661143e+01 -9.686110599723e+00 0.0 
2.523267572778e+01 -9.276766000622e+00 0.0 
2.446094171539e+01 -8.751904591412e+00 0.0 
2.529089822738e+01 -8.321495612547e+00 0.0 
2.606882688827e+01 -8.864724051119e+00 0.0 
2.452116646430e+01 -7.792756462004e+00 0.0 
1.235543269617e+01 -1.365845617339e+01 0.0 
4.318116874181e+01 -1.618567469992e+01 0.0 
7.835066111909e+00 -5.376366223896e+00 0.0 
7.905687335704e+00 -4.382539065697e+00 0.0 
3.542640009567e+00 -1.600035116542e+01 0.0 
1.572431503071e+01 -1.388358386695e+01 0.0 
2.574684696680e+01 -1.357896141127e+01 0.0 
2.488842657651e+01 -1.399674354505e+01 0.0 
2.568301775611e+01 -1.453552048595e+01 0.0 
2.481535572009e+01 -1.495542756508e+01 0.0 
2.561729699688e+01 -1.549784648532e+01 0.0 
2.474623061296e+01 -1.592058894178e+01 0.0 
2.394234041695e+01 -1.537572575827e+01 0.0 
2.065825452567e+01 -1.621899055217e+01 0.0 
2.387180528935e+01 -1.634552264687e+01 0.0 
4.585364400844e+01 -1.383912334080e+01 0.0 
1.998744432052e+01 -1.370317155541e+01 0.0 
1.205356951443e+01 -6.313580285498e+00 0.0 
5.396543905849e+00 -3.731818611283e+00 0.0 
1.139652573295e+01 -3.745819399350e+00 0.0 
3.574124306703e+00 -4.551456826011e+00 0.0 
3.494140761930e+00 -5.539787055649e+00 0.0 
1.213651452413e+01 -1.664505033022e+01 0.0 
2.555045568519e+01 -1.646529356744e+01 0.0 
2.641671114986e+01 -1.603899382371e+01 0.0 
2.612920721894e+01 -7.906435260873e+00 0.0 
2.690339829698e+01 -8.456969591431e+00 0.0 
1.978024383368e+01 -1.664410216353e+01 0.0 
3.732829979082e+01 -1.336926601859e+01 0.0 
4.074336584605e+01 -1.355133328401e+01 0.0 
4.163204691081e+01 -1.310280943992e+01 0.0 
3.773826114429e+00 -3.493444309145e+00 0.0 
1.228783001032e+01 -3.374822835872e+00 0.0 
4.057110462520e+01 -1.652588478000e+01 0.0 
2.132535497898e+01 -6.523623360525e+00 0.0 
2.216932532211e+01 -6.110044769206e+00 0.0 
1.825781152128e+01 -3.370146817147e+00 0.0 
1.745679445888e+01 -2.812942552063e+00 0.0 
4.666517057280e+01 -1.539981381543e+01 0.0 
4.660575894464e+01 -1.639014410186e+01 0.0 
4.838230979954e+00 -1.063643436446e+01 0.0 
3.938942630206e+00 -1.106778981745e+01 0.0 
1.302967218620e+01 -1.621373452436e+01 0.0 
1.049548003190e+01 -4.204825123240e+00 0.0 
4.573571907195e+01 -1.683820511148e+01 0.0 
1.483686335807e+01 -1.430849689310e+01 0.0 
1.490982658890e+01 -1.332679386284e+01 0.0 
3.190805600162e+00 -9.510968358545e+00 0.0 
2.146625721848e+01 -4.642437303115e+00 0.0 
2.069866208266e+01 -4.111852942193e+00 0.0 
1.286859345584e+01 -6.873252723348e+00 0.0 
1.041794493184e+01 -5.194814260291e+00 0.0 
2.671081808965e+00 -4.976806516331e+00 0.0 
1.295786792925e+01 -1.720506531799e+01 0.0 
3.968438206511e+01 -1.696869067241e+01 0.0 
2.308550456051e+01 -1.579963151273e+01 0.0 
2.315593682844e+01 -1.482967445235e+01 0.0 
2.299471449450e+01 -1.677069968132e+01 0.0 
1.057344714696e+01 -3.214252277840e+00 0.0 
1.124057603753e+01 -1.707713739755e+01 0.0 
2.718402535754e+00 -1.543629882103e+01 0.0 
2.638549692805e+01 -1.696744916809e+01 0.0 
2.723416349007e+01 -1.658104204545e+01 0.0 
2.210193351704e+01 -7.046769643417e+00 0.0 
2.295180925161e+01 -6.657397605239e+00 0.0 
2.301355235833e+01 -5.709111896800e+00 0.0 
2.379052718281e+01 -6.254965406962e+00 0.0 
3.243528601237e+01 -1.214181853533e+01 0.0 
2.287977995457e+01 -7.583722368300e+00 0.0 
2.999876029544e+01 -1.150837653096e+01 0.0 
3.084435366963e+01 -1.109693775882e+01 0.0 
3.006650579669e+01 -1.057778994262e+01 0.0 
2.683802665066e+01 -9.386863216633e+00 0.0 
2.768641973621e+01 -8.988883915666e+00 0.0 
2.040296980397e+01 -7.903629133404e+00 0.0 
1.925235024054e+01 -1.218872783130e+01 0.0 
5.735667000424e+00 -1.020577277283e+01 0.0 
6.396559909872e+00 -1.272326295703e+01 0.0 
1.161199420714e+01 -1.212812778229e+01 0.0 
4.229046132615e+01 -1.663084237572e+01 0.0 
4.312275399692e+01 -1.718087491556e+01 0.0 
4.335502068163e+01 -1.320039231514e+01 0.0 
4.424630298089e+01 -1.275160688731e+01 0.0 
7.090116643816e+00 -3.818998061530e+00 0.0 
7.989472176569e+00 -3.389238711200e+00 0.0 
9.085824861778e+00 -1.144036167408e+01 0.0 
1.041972423731e+01 -1.651614080893e+01 0.0 
3.797525112640e+01 -1.686052038746e+01 0.0 
3.709114253394e+01 -1.730125999865e+01 0.0 
3.626966748340e+01 -1.675477052919e+01 0.0 
1.385164591440e+01 -1.677597757552e+01 0.0 
1.787152588784e+01 -8.198993896093e+00 0.0 
1.668849729812e+01 -1.248560611628e+01 0.0 
1.659546177905e+01 -3.232482605530e+00 0.0 
2.332214717345e+01 -1.292598167641e+01 0.0 
7.168238450786e+00 -2.824711686516e+00 0.0 
2.894878403906e+01 -1.475427524446e+01 0.0 
2.646763248247e+00 -1.643270107952e+01 0.0 
3.467431944285e+00 -1.699648837348e+01 0.0 
2.059475877282e+01 -1.719473628526e+01 0.0 
3.333868355437e+01 -1.080596971682e+01 0.0 
2.246451062637e+01 -1.334557761546e+01 0.0 
2.167821896388e+01 -1.280847834858e+01 0.0 
3.089653185767e+01 -1.017198487212e+01 0.0 
3.012604365669e+01 -9.657298805968e+00 0.0 
2.929627299435e+01 -1.006100135274e+01 0.0 
2.936201435219e+01 -9.136748899251e+00 0.0 
1.198219052702e+01 -7.291887238230e+00 0.0 
1.116702076035e+01 -6.731976101053e+00 0.0 
2.551388807505e+01 -1.746927036981e+01 0.0 
2.378639090370e+01 -1.728678807149e+01 0.0 
2.718543627188e+01 -1.748668016909e+01 0.0 
2.804681050301e+01 -1.712626668293e+01 0.0 
1.970737034667e+01 -1.762317646822e+01 0.0 
1.889535776135e+01 -1.707158098231e+01 0.0 
2.593777711283e+00 -5.971157087874e+00 0.0 
2.773468281110e+01 -8.067164273938e+00 0.0 
4.051205884347e+01 -1.751819982458e+01 0.0 
3.166903145421e+01 -1.068032992414e+01 0.0 
1.033042452886e+01 -1.748285844336e+01 0.0 
9.519274604626e+00 -1.694349240233e+01 0.0 
1.668308673328e+01 -2.255861778986e+00 0.0 
1.570531902832e+01 -2.676795860126e+00 0.0 
4.655826903379e+01 -1.736656245706e+01 0.0 
2.384148070773e+01 -5.328744256413e+00 0.0 
2.460255123641e+01 -5.852182672816e+00 0.0 
2.306638135119e+01 -4.798935440613e+00 0.0 
8.467720450578e-01 -1.849576263072e+01 0.0 
4.849657322345e+01 -1.084860705506e+01 0.0 
2.565860899507e+00 -1.742859793981e+01 0.0 
2.764418872564e+01 -9.927142821799e+00 0.0 
4.565165880064e+01 -1.785336695404e+01 0.0 
2.162231831329e+01 -1.376528337468e+01 0.0 
2.360646352969e+01 -9.136041963102e+00 0.0 
1.392738739903e+01 -1.578285505772e+01 0.0 
4.756405947478e+01 -1.683706841809e+01 0.0 
4.740895034054e+01 -1.793766756892e+01 0.0 
4.080779328826e+01 -1.257387192544e+01 0.0 
4.168907939671e+01 -1.210739129181e+01 0.0 
3.991197722154e+01 -1.300815793917e+01 0.0 
1.905536506762e+01 -3.940076697685e+00 0.0 
1.923879596617e+01 -2.875000734166e+00 0.0 
4.401386745746e+01 -1.673483229438e+01 0.0 
4.247233362525e+00 -7.094581653070e+00 0.0 
3.286051630211e+00 -7.635300020553e+00 0.0 
9.609533347623e+00 -4.594311677967e+00 0.0 
9.523554636369e+00 -5.595597029530e+00 0.0 
5.660336628893e+00 -1.119290329628e+01 0.0 
6.558070063295e+00 -1.076385809362e+01 0.0 
2.809866407414e+01 -1.518037766799e+01 0.0 
2.888868674504e+01 -1.570360690070e+01 0.0 
2.654431550819e+01 -1.411217777162e+01 0.0 
1.402158265969e+01 -1.375404617952e+01 0.0 
1.409592494026e+01 -1.277071998942e+01 0.0 
1.499355196178e+01 -1.235270737023e+01 0.0 
4.221535326155e+01 -1.759335617494e+01 0.0 
4.305583287033e+01 -1.822663146802e+01 0.0 
1.280748808359e+01 -7.834332838285e+00 0.0 
1.368988389326e+01 -7.420529606172e+00 0.0 
1.110091796060e+01 -7.683966794328e+00 0.0 
3.963446145980e+01 -1.794331310122e+01 0.0 
3.423932362213e+00 -1.796415590455e+01 0.0 
4.280814572302e+00 -1.752272834860e+01 0.0 
8.050136380041e+00 -2.421582378631e+00 0.0 
8.888674091650e+00 -2.984264211327e+00 0.0 
2.152839430898e+01 -3.732609965436e+00 0.0 
2.077799585292e+01 -3.183896021866e+00 0.0 
3.618719395821e+01 -1.770276572576e+01 0.0 
3.538165138340e+01 -1.718709995539e+01 0.0 
3.702925326420e+01 -1.828844288807e+01 0.0 
1.756739438711e+00 -5.353284859169e+00 0.0 
2.233710191104e+01 -1.527265621324e+01 0.0 
1.389483555057e+01 -1.771797164730e+01 0.0 
1.475634224300e+01 -1.728357428390e+01 0.0 
1.298797563052e+01 -1.825968924755e+01 0.0 
2.145331271866e+01 -1.673705379077e+01 0.0 
2.133282821169e+01 -1.769400773673e+01 0.0 
2.292139194136e+01 -1.774915400288e+01 0.0 
1.750750053243e+01 -1.861475593469e+00 0.0 
4.830478841772e+01 -1.752611802221e+01 0.0 
4.341203507805e+01 -1.220326745522e+01 0.0 
1.685254151866e+01 -1.443085301632e+00 0.0 
4.431538535165e+01 -1.171841387375e+01 0.0 
4.511308610496e+01 -1.229557320599e+01 0.0 
4.510133242889e+01 -1.123680627466e+01 0.0 
1.846818030617e+00 -4.410877617069e+00 0.0 
3.995468694584e+01 -1.186571542989e+01 0.0 
3.901387459804e+01 -1.242507616755e+01 0.0 
8.966735877533e+00 -1.837818700423e+00 0.0 
4.049310011091e+01 -1.848269508791e+01 0.0 
7.278862053803e+00 -1.918523922691e+00 0.0 
6.429715522129e+00 -2.316676521184e+00 0.0 
9.443505505022e+00 -1.792198868094e+01 0.0 
8.620386951051e+00 -1.737590365556e+01 0.0 
8.571868171503e+00 -1.834436667826e+01 0.0 
7.758629848526e+00 -1.775677907213e+01 0.0 
7.806648388584e+00 -1.680761266021e+01 0.0 
6.908555145436e+00 -1.723746463044e+01 0.0 
4.251709122090e+01 -1.156937480156e+01 0.0 
6.931136405615e+00 -1.832465719263e+01 0.0 
6.015545461353e+00 -1.768865355295e+01 0.0 
5.960535926343e+00 -1.872011001764e+01 0.0 
3.023253444786e+01 -8.761960642196e+00 0.0 
2.454622702599e+01 -6.749421992767e+00 0.0 
2.537499741604e+01 -6.347634963783e+00 0.0 
2.544077378460e+01 -5.431358513649e+00 0.0 
2.801367161747e+01 -1.820907270221e+01 0.0 
2.884507806914e+01 -1.762032095326e+01 0.0 
1.821474531936e+00 -1.588901260460e+01 0.0 
1.821006262604e+00 -1.489370287756e+01 0.0 
4.599962488908e+01 -1.176478780598e+01 0.0 
4.705457470007e+01 -1.172182804229e+01 0.0 
4.667668314802e+01 -1.263464558483e+01 0.0 
4.759648056504e+01 -1.252380987933e+01 0.0 
4.728041618103e+01 -1.341928568376e+01 0.0 
4.825209352360e+01 -1.330491640804e+01 0.0 
4.778118233428e+01 -1.420151961695e+01 0.0 
2.388192727579e+01 -1.826934810142e+01 0.0 
2.381714684947e+01 -4.385917965223e+00 0.0 
3.172733219247e+01 -9.758744265248e+00 0.0 
1.882012070658e+01 -1.805540597212e+01 0.0 
1.805667505243e+01 -1.742221226236e+01 0.0 
2.852599958080e+01 -8.597196079481e+00 0.0 
2.856486123437e+01 -7.661382718527e+00 0.0 
1.111792842875e+01 -1.818223852980e+01 0.0 
2.203322722466e+01 -7.986646678802e+00 0.0 
3.955703676900e+01 -1.903246763601e+01 0.0 
1.944842206513e+01 -8.038750575182e-01 0.0 
1.909882767783e+01 -1.746322740933e+00 0.0 
2.281147422941e+01 -8.525912918334e+00 0.0 
2.850633001468e+01 -9.533271335986e+00 0.0 
2.532883344309e+01 -7.308951659710e+00 0.0 
2.620475466461e+01 -6.979208585400e+00 0.0 
1.396278270396e+01 -1.475095389807e+01 0.0 
9.791001166724e+00 -2.554159793552e+00 0.0 
2.229293380421e+01 -4.269762271052e+00 0.0 
4.677238984118e+01 -1.430071795514e+01 0.0 
2.228658385918e+01 -3.344747535984e+00 0.0 
8.940223674553e-01 -1.543595733415e+01 0.0 
2.118566862474e+01 -8.435876987696e+00 0.0 
2.678325936437e+01 -1.032621195706e+01 0.0 
2.223400220487e+01 -5.179046761770e+00 0.0 
2.375370625384e+01 -7.251580562134e+00 0.0 
3.156971327386e+01 -1.255534750737e+01 0.0 
3.328226391312e+01 -1.172914813316e+01 0.0 
3.250948774219e+01 -1.120157009348e+01 0.0 
2.032993445717e+01 -8.867880112202e+00 0.0 
2.697226974856e+01 -7.536633082045e+00 0.0 
2.707377810386e+01 -6.590835263295e+00 0.0 
2.914099246827e+01 -1.191678458549e+01 0.0 
3.544824072239e+01 -1.621126558525e+01 0.0 
3.456511855436e+01 -1.665054783843e+01 0.0 
3.448395810225e+01 -1.759117813016e+01 0.0 
3.368378673938e+01 -1.708037781328e+01 0.0 
3.375560452567e+01 -1.610973066913e+01 0.0 
3.288001547988e+01 -1.654324255651e+01 0.0 
3.282475929147e+01 -1.749725654692e+01 0.0 
3.199880906313e+01 -1.697294088625e+01 0.0 
3.197001272932e+01 -1.811667776864e+01 0.0 
3.111884713021e+01 -1.742166785755e+01 0.0 
3.120418962865e+01 -1.642155709385e+01 0.0 
3.034666704371e+01 -1.683123833816e+01 0.0 
3.026224379976e+01 -1.772592851714e+01 0.0 
3.046632362943e+01 -1.582232843075e+01 0.0 
1.961344017324e+01 -1.857459447985e+01 0.0 
2.274975894774e+01 -9.532738811922e+00 0.0 
1.833923246887e+01 -2.396746883672e+00 0.0 
1.988859500848e+01 -2.249244376594e+00 0.0 
2.758045562861e+01 -1.086434261689e+01 0.0 
3.247300178163e+01 -1.909930104252e+01 0.0 
3.461947482503e+01 -1.911879848019e+01 0.0 
2.047161538662e+01 -6.941478180358e+00 0.0 
2.750230940214e+01 -1.915490590764e+01 0.0 
3.165081350803e+01 -1.161860780120e+01 0.0 
1.897456727641e+01 -4.889634688522e+00 0.0 
2.549338539756e+01 -1.914858252089e+01 0.0 
3.462873135081e+01 -1.567482276144e+01 0.0 
3.384432415243e+01 -1.512280684518e+01 0.0 
3.471433767690e+01 -1.469086942990e+01 0.0 
3.651470373046e+01 -1.918207952149e+01 0.0 
3.901742690249e+01 -1.345028556517e+01 0.0 
2.153224102692e+01 -1.920169709333e+01 0.0 
1.918382939341e+01 -1.316226275662e+01 0.0 
2.005389162382e+01 -1.271962165174e+01 0.0 
2.011472087878e+01 -1.175029352900e+01 0.0 
3.210679478412e+01 -1.598038618242e+01 0.0 
1.752175226543e+01 -1.914713022656e+01 0.0 
1.696897240059e+01 -1.832772588765e+01 0.0 
1.599682523337e+01 -1.832599992024e+01 0.0 
1.644507199462e+01 -1.743697981535e+01 0.0 
1.549987712903e+01 -1.915192375101e+01 0.0 
3.050250861901e+01 -1.918943550234e+01 0.0 
2.949944061527e+01 -1.922950455235e+01 0.0 
1.375892575273e+01 -6.447160534926e+00 0.0 
1.457223670180e+01 -7.006709243857e+00 0.0 
1.450818793236e+01 -7.965943451779e+00 0.0 
1.538804712402e+01 -7.553409623699e+00 0.0 
1.545817644768e+01 -6.580929593419e+00 0.0 
1.626506893751e+01 -7.129032608911e+00 0.0 
1.619833811522e+01 -8.086588580887e+00 0.0 
1.714448609609e+01 -6.697429609777e+00 0.0 
2.887616543568e+01 -1.668015232137e+01 0.0 
1.349814589130e+01 -1.918225301544e+01 0.0 
1.153887772210e+01 -1.311384581217e+01 0.0 
1.242708159886e+01 -1.267046795531e+01 0.0 
1.249799674267e+01 -1.169005616014e+01 0.0 
6.631723893693e+00 -9.774184881867e+00 0.0 
7.451471631867e+00 -1.033148796006e+01 0.0 
7.377795355458e+00 -1.132196345268e+01 0.0 
5.810931797536e+00 -9.211654212252e+00 0.0 
2.402683899133e+01 -1.441378562320e+01 0.0 
1.249768692036e+01 -1.917388426624e+01 0.0 
1.580373499437e+01 -1.290751860664e+01 0.0 
8.344650507834e+00 -9.898403995170e+00 0.0 
3.750622115305e+01 -1.086526401533e+01 0.0 
3.699391251667e+01 -1.171695900794e+01 0.0 
3.606517829518e+01 -1.173717504500e+01 0.0 
3.650257641795e+01 -1.270047380221e+01 0.0 
3.808951488918e+01 -1.183518714175e+01 0.0 
4.760380962420e+00 -1.162484888315e+01 0.0 
3.861210370848e+00 -1.205657631736e+01 0.0 
3.038284309476e+00 -1.149851280664e+01 0.0 
2.961598794889e+00 -1.248856794980e+01 0.0 
2.138953225512e+00 -1.193212674534e+01 0.0 
2.227383593457e+00 -1.096258903918e+01 0.0 
2.043265419276e+00 -1.292158472959e+01 0.0 
1.252449446028e+00 -1.225502002753e+01 0.0 
3.949985210740e+01 -1.086594001795e+01 0.0 
1.453499444792e+01 -8.768805922472e-01 0.0 
1.403518950933e+01 -1.749965556633e+00 0.0 
1.300715031023e+01 -1.714737233040e+00 0.0 
1.350929389899e+01 -2.527443911291e+00 0.0 
1.449600910711e+01 -2.595486162864e+00 0.0 
1.395693872901e+01 -3.484211041558e+00 0.0 
1.495105865208e+01 -3.364609636216e+00 0.0 
1.508822528740e+01 -1.766586020494e+00 0.0 
1.250223858430e+01 -8.634590186802e-01 0.0 
1.200279523409e+01 -1.709044504992e+00 0.0 
1.150086239419e+01 -8.592789190668e-01 0.0 
1.101482754194e+01 -1.677730591922e+00 0.0 
1.148018564526e+01 -2.659323866909e+00 0.0 
8.800552119754e+00 -3.989875954728e+00 0.0 
3.452790439430e+00 -1.901136170646e+01 0.0 
8.658451825200e-01 -9.503462241795e+00 0.0 
1.694787786797e+00 -9.000589234502e+00 0.0 
1.703436717094e+00 -8.038819004041e+00 0.0 
2.594197971110e+00 -8.563955242845e+00 0.0 
1.630513735412e+00 -9.907244747511e+00 0.0 
8.566859292791e-01 -7.512203837972e+00 0.0 
1.685461277022e+00 -7.164280248030e+00 0.0 
2.506394468801e+00 -8.623386730818e-01 0.0 
2.007475081581e+00 -1.727729545205e+00 0.0 
9.211534699767e-01 -1.628791366312e+00 0.0 
1.500000000020e+00 -2.598063549486e+00 0.0 
2.482078929963e+00 -2.553580088725e+00 0.0 
2.999795253092e+00 -1.732169015019e+00 0.0 
3.999712607169e+00 -1.728832897453e+00 0.0 
4.499752199340e+00 -8.656478679175e-01 0.0 
4.964377774841e+00 -1.730129617941e+00 0.0 
4.425017908337e+00 -2.597541756243e+00 0.0 
5.446573195014e+00 -8.410144840023e-01 0.0 
4.915722346614e+01 -1.550640962770e+01 0.0 
4.826794919243e+01 -1.600000000000e+01 0.0 
1.053139533193e+01 -1.911782884365e+01 0.0 
4.156049861949e+01 -1.095160998589e+01 0.0 
9.494526624416e+00 -8.650570090219e-01 0.0 
4.555762166964e+01 -1.897098103585e+01 0.0 
4.250656411371e+01 -1.914387356218e+01 0.0 
4.350906466345e+01 -1.917234727395e+01 0.0 
8.759665722424e-01 -1.746422130609e+01 0.0 
1.698936011838e+00 -1.795012186674e+01 0.0 
4.742476811029e+01 -1.900090177972e+01 0.0 
7.749196752349e+00 -6.368049313489e+00 0.0 
3.361572113416e+01 -1.798765193915e+01 0.0 
4.484660149212e+01 -1.728661231383e+01 0.0 
1.984038172228e+01 -4.502575320116e+00 0.0 
1.035080352627e+01 -6.166639575753e+00 0.0 
2.753558010652e+00 -1.444909521181e+01 0.0 
7.217069543032e+00 -1.328635391078e+01 0.0 
4.364336727739e+00 -1.655585677381e+01 0.0 
4.595208426108e+00 -1.357919665443e+01 0.0 
6.164967006980e+00 -1.569873454630e+01 0.0 
1.487855768353e+01 -1.826523774028e+01 0.0 
2.791876456372e+00 -4.019632415181e+00 0.0 
4.246464893515e+01 -1.364898659620e+01 0.0 
4.503855590351e+01 -1.329552780944e+01 0.0 
4.407239109604e+01 -1.573900004093e+01 0.0 
5.141054449252e+00 -6.664290382472e+00 0.0 
3.141083947149e+00 -1.055790764912e+01 0.0 
6.196463198741e+00 -4.256497932609e+00 0.0 
2.599618716181e+01 -1.836893455464e+01 0.0 
2.923057372337e+01 -1.098461757645e+01 0.0 
1.168343877486e+01 -1.114079645041e+01 0.0 
6.706222096238e+00 -8.780364234441e+00 0.0 
8.567858614669e+00 -6.943121440850e+00 0.0 
1.123755132901e+01 -5.753525820030e+00 0.0 
2.353456234423e+01 -1.008536320953e+01 0.0 
9.162073319168e+00 -1.045593739109e+01 0.0 
9.676343469685e+00 -1.496493008366e+01 0.0 
4.490637882905e+01 -1.628778970202e+01 0.0 
7.398129387772e+00 -9.639977982323e-01 0.0 
1.049641705805e+01 -1.552503975272e+01 0.0 
9.010356286268e+00 -1.242805042052e+01 0.0 
3.985573925497e+01 -1.399863651620e+01 0.0 
1.816196318262e+01 -1.554066497931e+01 0.0 
1.306332244168e+01 -3.963646550326e+00 0.0 
4.145850903932e+01 -1.608094559275e+01 0.0 
3.794664933633e+01 -1.779020121986e+01 0.0 
3.819614412903e+01 -1.290749321016e+01 0.0 
6.270014188119e+00 -3.255093186826e+00 0.0 
4.251165370388e+01 -1.263870364997e+01 0.0 
1.207347709171e+01 -1.763942826023e+01 0.0 
3.633240829927e+01 -1.577330481104e+01 0.0 
4.319052668832e+00 -6.101812561904e+00 0.0 
1.676492415806e+01 -1.151547901392e+01 0.0 
2.594059220037e+01 -1.074225223009e+01 0.0 
3.340750911501e+01 -9.898764354137e+00 0.0 
4.397619591281e+01 -1.769773736461e+01 0.0 
2.175611595028e+01 -1.185718747128e+01 0.0 
1.641818733106e+01 -1.640685203215e+01 0.0 
1.661211421753e+01 -1.346121366338e+01 0.0 
3.428853504935e+00 -6.551993389271e+00 0.0 
8.700728832502e+00 -1.638460872825e+01 0.0 
1.931369795309e+01 -1.121629383702e+01 0.0 
4.139798872363e+01 -1.706922153459e+01 0.0 
2.647837478700e+01 -1.507353829290e+01 0.0 
1.779469616424e+01 -9.161615782908e+00 0.0 
3.885879219319e+01 -1.642026488918e+01 0.0 
1.338194936770e+01 -1.125916521471e+01 0.0 
1.897071181111e+01 -1.609204322578e+01 0.0 
2.844308548793e+01 -1.046221003096e+01 0.0 
2.659854702194e+01 -1.316109415760e+01 0.0 
2.979604503271e+01 -1.433296157755e+01 0.0 
2.417694041347e+01 -1.251231397779e+01 0.0 
1.807401327411e+00 -1.388891148480e+01 0.0 
9.599810618782e+00 -1.595439365034e+01 0.0 
1.652144692160e+01 -4.205392788472e+00 0.0 
2.367839450246e+01 -8.188385218643e+00 0.0 
3.814894930468e+01 -1.390748338767e+01 0.0 
2.466448215774e+01 -1.685878545680e+01 0.0 
4.134044524611e+01 -1.806610045954e+01 0.0 
2.600511411958e+01 -9.801774120648e+00 0.0 
7.882158050716e+00 -1.582364037353e+01 0.0 
3.881607873422e+01 -1.737970515013e+01 0.0 
8.270182347708e+00 -1.088622154920e+01 0.0 
8.672520392520e-01 -4.532984309881e+00 0.0 
1.993447205337e+01 -3.579061902667e+00 0.0 
1.794616079549e+01 -7.238038888498e+00 0.0 
2.097277068165e+01 -1.132450168636e+01 0.0 
8.194803300681e+00 -1.187214224265e+01 0.0 
3.522279404911e+01 -1.823342818178e+01 0.0 
6.984481050295e+00 -1.625271465557e+01 0.0 
1.309433007797e+01 -1.521718594215e+01 0.0 
2.150246167611e+01 -1.885399038185e+00 0.0 
3.250689370209e+01 -1.028789870535e+01 0.0 
6.085886272238e+00 -1.668342132851e+01 0.0 
1.588455661727e+01 -1.193498985921e+01 0.0 
1.809323400821e+01 -1.651110084195e+01 0.0 
1.348885082381e+00 -1.136065576512e+01 0.0 
2.497670221995e+01 -1.834631276173e+01 0.0 
2.937062818424e+01 -8.233711194470e+00 0.0 
5.185823744469e+00 -1.711566910207e+01 0.0 
1.477497877209e+01 -1.530177014512e+01 0.0 
2.125346158933e+01 -7.473003997367e+00 0.0 
4.751561118290e+01 -1.084897772632e+01 0.0 
5.056026576843e+00 -1.825750475525e+01 0.0 
1.473948554523e+01 -1.634577436309e+01 0.0 
2.410566630936e+01 -1.345970002612e+01 0.0 
1.507337507513e+01 -1.138527895328e+01 0.0 
3.189857338687e+01 -8.887781229006e+00 0.0 
7.298712468334e+00 -1.230231046246e+01 0.0 
2.738235495295e+01 -1.368931690364e+01 0.0 
3.750141041969e+01 -1.920449893070e+01 0.0 
1.557271965640e+01 -1.683317951731e+01 0.0 
3.393731848929e+01 -1.413034777044e+01 0.0 
6.482156824153e+00 -1.174575135362e+01 0.0 
2.077971718439e+01 -1.421279621836e+01 0.0 
3.455084320178e+00 -2.562590040585e+00 0.0 
3.099056096250e+01 -9.270280416035e+00 0.0 
5.580176125418e+00 -1.217387969259e+01 0.0 
1.707247630389e+01 -7.660651981710e+00 0.0 
1.418658814174e+01 -1.180390575393e+01 0.0 
2.049103025389e+01 -1.811296706038e+01 0.0 
4.680386172316e+00 -1.260396879301e+01 0.0 
1.699679896554e+01 -8.624561788199e+00 0.0 
3.779470168555e+00 -1.303424899720e+01 0.0 
3.036589870126e+01 -7.879832518349e+00 0.0 
3.306993001774e+01 -1.457671062095e+01 0.0 
2.840150110165e+00 -1.346530088269e+01 0.0 
2.732011135052e+01 -1.464591214560e+01 0.0 
5.423639259568e+00 -2.659711955016e+00 0.0 
2.324455961696e+01 -1.387269388211e+01 0.0 
1.752768355571e+00 -1.693128613594e+01 0.0 
1.020244783051e+01 -8.076834012808e+00 0.0 
1.330873875224e+01 -1.222417528206e+01 0.0 
3.297727364880e+01 -1.555480372087e+01 0.0 
2.890929955439e+01 -6.868664170731e+00 0.0 
1.323294664622e+01 -1.320754260334e+01 0.0 
2.726532861246e+01 -1.560593120806e+01 0.0 
2.240020643398e+01 -1.429299177247e+01 0.0 
2.090445823633e+01 -1.228128621332e+01 0.0 
1.315809881502e+01 -1.420739326938e+01 0.0 
2.781328038068e+01 -7.181956082300e+00 0.0 
8.614200829057e+00 -5.936933226306e+00 0.0 
8.714765730069e+00 -4.979270529687e+00 0.0 
1.611881701099e+01 -9.041973294003e+00 0.0 
2.806830314340e+01 -1.614622947108e+01 0.0 
2.084435391396e+00 -3.385085422913e+00 0.0 
3.133211811152e+01 -1.542347619750e+01 0.0 
9.693114650768e+00 -3.590281506442e+00 0.0 
1.531883592202e+01 -8.504584946143e+00 0.0 
2.151589117094e+01 -1.578915763018e+01 0.0 
4.918943882696e+01 -1.355538828056e+01 0.0 
1.443236615188e+01 -8.918701794549e+00 0.0 
8.276250966452e-01 -5.537685192197e+00 0.0 
1.362790867918e+01 -8.374718262212e+00 0.0 
2.083767477370e+01 -1.324843956035e+01 0.0 
1.273834678703e+01 -8.790890389337e+00 0.0 
1.192275845670e+01 -8.242261327467e+00 0.0 
4.477236023583e+01 -1.824312396664e+01 0.0 
1.102989384254e+01 -8.649855800911e+00 0.0 
4.849096516045e+01 -1.917293752213e+01 0.0 
1.588996752238e+00 -1.910230934687e+01 0.0 
4.904245197583e+01 -1.159839008158e+01 0.0 
2.753852929608e+01 -5.782128488093e+00 0.0 
1.756133602833e+01 -8.306130313187e-01 0.0 
2.615423700951e+01 -6.153865090092e+00 0.0 
1.028818761294e+01 -7.122020845892e+00 0.0 
2.970818901196e+01 -1.527821347593e+01 0.0 
4.801461623449e+01 -1.164472570985e+01 0.0 
9.455722100419e+00 -6.546069291118e+00 0.0 
3.089099236677e+01 -1.835339328261e+01 0.0 
2.350000000013e+01 -1.920825896750e+01 0.0 
4.830620531887e+01 -1.506626155470e+01 0.0 
1.725381944701e+01 -1.688794487850e+01 0.0 
2.156246225273e+01 -1.475893794002e+01 0.0 
4.919319648787e+01 -1.742767505896e+01 0.0 
4.437935623576e+01 -1.077662927266e+01 0.0 
1.001520521978e+01 -1.652692675208e+00 0.0 
9.067160240050e-01 -1.441937727541e+01 0.0 
2.603365149390e+01 -4.755996613848e+00 0.0 
2.458344439002e+01 -4.873645517696e+00 0.0 
2.304312390142e+01 -3.836552768096e+00 0.0 
2.546923202198e+00 -6.902480355749e+00 0.0 
1.251534969393e+01 -2.490989965776e+00 0.0 
2.454061833377e+01 -3.933354231935e+00 0.0 
1.788186558740e+01 -1.827424884923e+01 0.0 
4.090785243552e+01 -1.166553231904e+01 0.0 
2.230128851568e+01 -1.623015738726e+01 0.0 
2.302362347568e+01 -2.916239960270e+00 0.0 
3.878119254461e+01 -1.830091164002e+01 0.0 
2.210081359958e+01 -1.829238229150e+01 0.0 
8.443704882233e+00 -1.921993252862e+01 0.0 
2.218405824691e+01 -1.724557581508e+01 0.0 
2.151157503963e+01 -2.790636689331e+00 0.0 
3.741658958955e+01 -1.250400191722e+01 0.0 
2.697247663737e+01 -1.838290202309e+01 0.0 
4.743362342862e+01 -1.585850773010e+01 0.0 
6.671345075358e+00 -1.924977576322e+01 0.0 
3.900825404537e+01 -1.157220003875e+01 0.0 
4.649692961375e+01 -1.836335837481e+01 0.0 
1.578831424832e+01 -3.678284023361e+00 0.0 
4.814208768888e+01 -1.841249298770e+01 0.0 
2.964123298315e+01 -1.625739458193e+01 0.0 
4.580760351902e+01 -1.284294554687e+01 0.0 
3.561520879615e+01 -1.245548941949e+01 0.0 
2.555418095658e+00 -1.841101588290e+01 0.0 
3.288468366144e+01 -1.834258164109e+01 0.0 
2.065894391445e+01 -2.240688571739e+00 0.0 
4.739171429915e+01 -1.496536413446e+01 0.0 
3.478086729185e+00 -8.576434653209e+00 0.0 
1.606010630246e+01 -1.588421807951e+00 0.0 
1.018329200594e+01 -1.834320874317e+01 0.0 
2.957213339430e+01 -1.720496954591e+01 0.0 
4.142712790164e+00 -1.837794506222e+01 0.0 
6.698721532573e-01 -2.499999999997e+00 0.0 
8.037039123140e+00 -1.571229354954e+00 0.0 
1.203541361428e+01 -1.847784298001e+01 0.0 
2.899968332038e+01 -1.848264722179e+01 0.0 
1.469229460948e+01 -4.219485753730e+00 0.0 
4.049590781957e+01 -1.932812501995e+01 0.0 
1.996211678340e+01 -1.506329754720e+00 0.0 
4.250588298353e+01 -1.067383247529e+01 0.0 
5.831497011152e+00 -1.635396227234e+00 0.0 
5.317606125670e+00 -1.923927974868e+01 0.0 
4.208546426993e+01 -1.842830665025e+01 0.0 
2.327553405011e+00 -9.459409929662e+00 0.0 
3.568351902251e+01 -1.096637218582e+01 0.0 
1.682104374890e+00 -6.231413350963e+00 0.0 
2.451812238018e+01 -1.766524914339e+01 0.0 
1.058003429638e+01 -2.391839617098e+00 0.0 
4.399988753123e+01 -1.851998776342e+01 0.0 
1.400000000010e+01 -1.852293523028e+01 0.0 
3.604719565984e+01 -1.850662876800e+01 0.0 
1.951297136734e+01 -1.938092349694e+01 0.0 
1.821365318472e+01 -1.531276353287e+00 0.0 
2.298031859732e+01 -1.854635324722e+01 0.0 
1.552168066204e+01 -1.764280741977e+01 0.0 
4.572957713638e+01 -1.073347898229e+01 0.0 
3.429637429624e+01 -1.838861552790e+01 0.0 
2.427434426052e+00 -7.705577451869e+00 0.0 
4.662792031485e+00 -3.359424455416e+00 0.0 
4.926794919243e+01 -1.926794919243e+01 0.0 
7.320508075690e-01 -7.320508075688e-01 0.0 
4.926794919243e+01 -1.073205080757e+01 0.0 
7.320508075705e-01 -1.926794919243e+01 0.0 
2.917460242467e+00 -3.202866455310e+00 0.0 
4.838200575963e+01 -1.232674147454e+01 0.0 
2.998445708009e+01 -1.854403752148e+01 0.0 
5.949940090766e-01 -1.152762038165e+01 0.0 
4.844763495759e+01 -1.678092548787e+01 0.0 
1.301685480160e+01 -3.170056592566e+00 0.0 
1.650046335855e+01 -6.731535384067e-01 0.0 
4.854881540991e+01 -1.405224059779e+01 0.0 
2.119545114693e+01 -1.846813384545e+01 0.0 
3.797852849897e+01 -1.857978513215e+01 0.0 
4.649823708745e+01 -1.338351810816e+01 0.0 
2.012685900976e+01 -2.889659035009e+00 0.0 
2.953271913273e+01 -1.791558075192e+01 0.0 
2.408509097292e+00 -1.021949208421e+01 0.0 
2.642589566221e+01 -1.773216561448e+01 0.0 
1.730010270775e+01 -1.763165076721e+01 0.0 
2.017406551304e+01 -8.513536440582e-01 0.0 
5.254761581934e-01 -1.249999999999e+01 0.0 
6.640448215642e+00 -1.545337834885e+00 0.0 
7.843361506349e+00 -1.852719839527e+01 0.0 
1.588442191088e+00 -1.066158564320e+01 0.0 

SCALARS node_number int
LOOKUP_TABLE default
1
2
3
4
5
6
7
8
9
10
11
12
13
14
15
16
17
18
19
20
21
22
23
24
25
26
27
28
29
30
31
32
33
34
35
36
37
38
39
40
41
42
43
44
45
46
47
48
49
50
51
52
53
54
55
56
57
58
59
60
61
62
63
64
65
66
67
68
69
70
71
72
73
74
75
76
77
78
79
80
81
82
84
85
86
87
88
89
90
91
92
93
104
105
106
107
108
109
110
111
112
113
114
115
116
117
118
119
120
121
122
123
124
125
126
127
128
129
130
131
132
133
134
135
136
362
363
364
365
366
367
368
369
370
371
372
373
374
375
376
377
378
379
380
381
382
383
384
385
386
387
388
389
390
391
392
393
394
395
396
397
398
399
400
401
402
403
404
405
406
407
408
409
410
411
412
413
414
415
416
417
418
419
420
421
422
423
424
425
426
427
428
429
430
431
432
433
434
435
436
437
438
439
440
441
442
443
444
445
446
447
448
449
450
451
452
453
454
455
456
457
458
459
460
461
462
463
464
465
466
467
468
469
470
471
472
473
474
475
476
477
478
479
480
481
482
483
484
485
486
487
488
489
490
491
492
493
494
495
496
497
498
499
500
501
502
503
504
505
506
507
508
509
510
511
512
513
514
515
516
517
518
519
520
521
522
523
524
525
526
527
528
529
530
531
532
533
534
535
536
537
538
539
540
541
542
543
544
545
546
547
548
549
550
551
552
553
554
555
556
557
558
559
560
561
562
563
564
565
566
567
568
569
570
571
572
573
574
575
576
577
578
579
580
581
582
583
584
585
586
587
588
589
590
591
592
593
594
595
596
597
598
599
600
601
602
603
604
605
606
607
608
609
610
611
612
613
614
615
616
617
618
619
620
621
622
623
624
625
626
627
628
629
630
631
632
633
634
635
636
637
638
639
640
641
642
643
644
645
646
647
648
649
650
651
652
653
654
655
656
657
658
659
660
661
662
663
664
665
666
667
668
669
670
671
672
673
674
675
676
677
678
679
680
681
682
683
684
685
686
687
688
689
690
691
692
693
694
695
696
697
698
699
700
701
702
703
704
705
706
707
708
709
710
711
712
713
714
715
716
717
718
719
720
721
722
723
724
725
726
727
728
729
730
731
732
733
734
735
736
737
738
739
740
741
742
743
744
745
746
747
748
749
750
751
752
753
754
755
756
757
758
759
760
761
762
763
764
765
766
767
768
769
770
771
772
773
774
775
776
777
778
779
780
781
782
783
784
785
786
787
788
789
790
791
792
793
794
795
796
797
798
799
800
801
802
803
804
805
806
807
808
809
810
811
812
813
814
815
816
817
818
819
820
821
822
823
824
825
826
827
828
829
830
831
832
833
834
835
836
837
838
839
840
841
842
843
844
845
846
847
848
849
850
851
852
853
854
855
856
857
858
859
860
861
862
863
864
865
866
867
868
869
870
871
872
873
874
875
876
877
878
879
880
881
882
883
884
885
886
887
888
889
890
891
892
893
894
895
896
897
898
899
900
901
902
903
904
905
906
907
908
909
910
911
912
913
914
915
916
917
918
919
920
921
922
923
924
925
926
927
928
929
930
931
932
933
934
935
936
937
938
939
940
941
942
943
944
945
946
947
948
949
950
951
952
953
954
955
956
957
958
959
960
961
962
963
964
965
966
967
968
969
970
971
972
973
974
975
976
977
978
979
980
981
982
983
984
985
986
987
988
989
990
991
992
993
994
995
996
997
998
999
1000
1001
1002
1003
1004
1005
1006
1007
1008
1009
1010
1011
1012
1013
1014
1015
1016
1017
1018
1019
1020
1021
1022
1023
1024
1025
1026
1027
1028
1029
1030
1031
1032
1033
1034
1035
1036
1037
1038
1039
1040
1041
1042
1043
1044
1045
1046
1047
1048
1049
1050
1051
1052
1053
1054
1055
1056
1057
1058
1059
1060
1061
1062
1063
1064
1065
1066
1067
1068
1069
1070
1071
1072
1073
1074
1075
1076
1077
1078
1079
1080
1081
1082
1083
1084
1085
1086
1087
1088
1089
1090
1091
1092
1093
1094
1095
1096
1097
1098
1099
1100
1101
1102
1103
1104
1105
1106
1107
1108
1109
1110
1111
1112
1113
1114
1115
1116
1117
1118
1119
1120
1121
1122
1123
1124
1125
1126
1127
1128
1129
1130
1131
1132
1133
1134
1135
1136
1137
1138
1139
1140
1141
1142
1143
1144
1145
1146
1147
1148
1149
1150
1151
1152
1153
1154
1155
1156
1157
1158
1159
1160
1161
1162
1163
1164
1165
1166
1167
1168
1169
1170
1171
1172
1173
1174
1175
1176
1177
1178
1179
1180
1181
1182
1183
1184
1185
1186
1187
1188
1189
1190
1191
1192
1193
1194
1195
1196
1197
1198
1199
1200
1201
1202
1203
1204
1205
1206
1207
1208
1209
1210
1211
1212
1213
1214
1215
1216
1217
1218
1219
1220
1221
1222
1223
1224
1225
1226
1227
1228
1229
1230
1231
1232
1233
1234
1235
1236
1237
1238
1239
1240
1241
1242
1243
1244
1245
1246
1247
1248
1249
1250
1251
1252
1253
1254
1255
1256
1257
1258
1259
1260
1261
1262
1263
1264

VECTORS node_mesh_deformation float
0.0 7.203645187898e-02 0.0 
0.000000000000e+00 1.628850389024e-01 0.0 
0.0 0.000000000000e+00 0.0 
0.000000000000e+00 0.000000000000e+00 0.0 
0.0 7.260169744730e-02 0.0 
0.0 7.332661293647e-02 0.0 
0.0 7.353687870920e-02 0.0 
0.0 7.318823253804e-02 0.0 
0.0 7.221088521822e-02 0.0 
0.0 7.053175207322e-02 0.0 
0.0 6.815824222796e-02 0.0 
0.0 6.520468579170e-02 0.0 
0.0 6.180877706116e-02 0.0 
0.0 5.799576748570e-02 0.0 
0.0 5.376971207849e-02 0.0 
0.0 4.916809170780e-02 0.0 
0.0 4.420546436389e-02 0.0 
0.0 3.891186906496e-02 0.0 
0.0 3.323822454425e-02 0.0 
0.0 2.721073544092e-02 0.0 
0.0 2.089617535483e-02 0.0 
0.0 1.431257750485e-02 0.0 
0.0 7.375015239724e-03 0.0 
0.000000000000e+00 0.000000000000e+00 0.0 
0.000000000000e+00 0.000000000000e+00 0.0 
0.000000000000e+00 0.000000000000e+00 0.0 
0.000000000000e+00 0.000000000000e+00 0.0 
0.000000000000e+00 0.000000000000e+00 0.0 
0.000000000000e+00 0.000000000000e+00 0.0 
0.000000000000e+00 0.000000000000e+00 0.0 
0.000000000000e+00 0.000000000000e+00 0.0 
0.000000000000e+00 0.000000000000e+00 0.0 
0.000000000000e+00 0.000000000000e+00 0.0 
0.000000000000e+00 0.000000000000e+00 0.0 
0.000000000000e+00 0.000000000000e+00 0.0 
0.000000000000e+00 0.000000000000e+00 0.0 
0.000000000000e+00 0.000000000000e+00 0.0 
0.000000000000e+00 0.000000000000e+00 0.0 
0.000000000000e+00 0.000000000000e+00 0.0 
0.000000000000e+00 0.000000000000e+00 0.0 
0.000000000000e+00 0.000000000000e+00 0.0 
0.000000000000e+00 0.000000000000e+00 0.0 
0.000000000000e+00 0.000000000000e+00 0.0 
0.000000000000e+00 0.000000000000e+00 0.0 
0.000000000000e+00 0.000000000000e+00 0.0 
0.000000000000e+00 0.000000000000e+00 0.0 
0.000000000000e+00 0.000000000000e+00 0.0 
0.000000000000e+00 0.000000000000e+00 0.0 
0.000000000000e+00 0.000000000000e+00 0.0 
0.000000000000e+00 0.000000000000e+00 0.0 
0.000000000000e+00 0.000000000000e+00 0.0 
0.000000000000e+00 0.000000000000e+00 0.0 
0.000000000000e+00 0.000000000000e+00 0.0 
0.000000000000e+00 0.000000000000e+00 0.0 
0.000000000000e+00 0.000000000000e+00 0.0 
0.000000000000e+00 0.000000000000e+00 0.0 
0.000000000000e+00 0.000000000000e+00 0.0 
0.000000000000e+00 0.000000000000e+00 0.0 
0.000000000000e+00 0.000000000000e+00 0.0 
0.000000000000e+00 0.000000000000e+00 0.0 
0.000000000000e+00 0.000000000000e+00 0.0 
0.000000000000e+00 0.000000000000e+00 0.0 
0.000000000000e+00 0.000000000000e+00 0.0 
0.000000000000e+00 0.000000000000e+00 0.0 
0.000000000000e+00 0.000000000000e+00 0.0 
0.000000000000e+00 0.000000000000e+00 0.0 
0.000000000000e+00 0.000000000000e+00 0.0 
0.000000000000e+00 0.000000000000e+00 0.0 
0.000000000000e+00 0.000000000000e+00 0.0 
0.000000000000e+00 0.000000000000e+00 0.0 
0.000000000000e+00 0.000000000000e+00 0.0 
0.000000000000e+00 0.000000000000e+00 0.0 
0.000000000000e+00 1.482035086339e-01 0.0 
0.000000000000e+00 1.330999413105e-01 0.0 
0.000000000000e+00 1.175960432587e-01 0.0 
0.000000000000e+00 1.017185842499e-01 0.0 
0.000000000000e+00 8.548525912061e-02 0.0 
0.000000000000e+00 6.892723384760e-02 0.0 
0.000000000000e+00 5.207144939296e-02 0.0 
0.000000000000e+00 3.494750967798e-02 0.0 
0.000000000000e+00 1.758811768088e-02 0.0 
-2.341933112472e-03 7.899487314150e-02 0.0 
2.564979311894e-02 1.520808080255e-01 0.0 
1.482903110972e-03 8.940999156772e-02 0.0 
5.546377143723e-03 1.016894812286e-01 0.0 
1.033097173757e-02 1.147899270123e-01 0.0 
1.609908288291e-02 1.276672770242e-01 0.0 
2.223904804554e-02 1.389811152768e-01 0.0 
2.786624783168e-02 1.472664225542e-01 0.0 
3.175064129337e-02 1.528001072718e-01 0.0 
3.315255994023e-02 1.560539507182e-01 0.0 
3.147393358866e-02 1.565591709213e-01 0.0 
1.596604799090e-03 1.629642975759e-01 0.0 
3.130385557718e-03 1.629746131661e-01 0.0 
4.676315223314e-03 1.630448183109e-01 0.0 
6.230635405849e-03 1.631447242446e-01 0.0 
7.790455165534e-03 1.632229322517e-01 0.0 
9.343620864207e-03 1.632946000508e-01 0.0 
1.089443576655e-02 1.633099945205e-01 0.0 
1.243157220243e-02 1.632360867954e-01 0.0 
1.396180652942e-02 1.630120245020e-01 0.0 
1.549010072052e-02 1.625926008242e-01 0.0 
1.701286471581e-02 1.618331912544e-01 0.0 
1.858749599022e-02 1.606212071042e-01 0.0 
2.031934853121e-02 1.588093495484e-01 0.0 
2.243797548714e-02 1.564774924668e-01 0.0 
-1.189327978988e-03 7.316989085880e-02 0.0 
3.930974020854e-04 6.824868057964e-02 0.0 
2.177604184283e-03 6.426786555492e-02 0.0 
4.105927749560e-03 6.126738522972e-02 0.0 
5.921350676386e-03 5.929553753056e-02 0.0 
7.618886643625e-03 5.830578741630e-02 0.0 
9.112984978769e-03 5.824798511981e-02 0.0 
1.030201560195e-02 5.902032237140e-02 0.0 
1.110992141573e-02 6.042310817916e-02 0.0 
1.153169133357e-02 6.220733794715e-02 0.0 
1.162756782404e-02 6.411560594483e-02 0.0 
1.151050010272e-02 6.605557702363e-02 0.0 
1.126808010150e-02 6.788833033632e-02 0.0 
1.043321907264e-02 6.944470709508e-02 0.0 
8.551845714326e-03 7.017903581280e-02 0.0 
6.953613338458e-03 7.077124407544e-02 0.0 
5.308962236649e-03 7.121821413439e-02 0.0 
3.688038465556e-03 7.153434265151e-02 0.0 
1.669669810029e-03 7.193467030092e-02 0.0 
-3.665706716696e-04 8.394688336377e-02 0.0 
3.466057977121e-03 9.538138667581e-02 0.0 
7.853783533353e-03 1.081589135619e-01 0.0 
1.314069661796e-02 1.213494031516e-01 0.0 
1.918570490114e-02 1.338280308059e-01 0.0 
2.531821473881e-02 1.436477926594e-01 0.0 
3.010345690338e-02 1.503023552736e-01 0.0 
3.281375328109e-02 1.547044861083e-01 0.0 
3.276166053593e-02 1.566095498680e-01 0.0 
2.924669928191e-02 1.554013364807e-01 0.0 
8.688559442515e-03 9.362391168776e-02 0.0 
3.107947177153e-03 7.997099724413e-03 0.0 
1.016505052799e-02 6.108983324664e-02 0.0 
6.670403867311e-03 5.960488601146e-02 0.0 
1.548898812423e-03 7.299495983720e-03 0.0 
1.994356435076e-02 1.173545125425e-01 0.0 
-1.238145497950e-04 5.577361072253e-02 0.0 
4.722479245643e-03 8.818599419921e-03 0.0 
3.103431222424e-02 1.360982341772e-01 0.0 
6.139487484599e-03 9.502079107861e-03 0.0 
3.487965741451e-02 1.444821200993e-01 0.0 
6.898954240269e-04 6.365833660755e-03 0.0 
9.486179968764e-03 6.902923631747e-02 0.0 
7.661841041081e-03 1.062224600789e-02 0.0 
2.848006468810e-02 1.414099737611e-01 0.0 
3.232668466268e-04 6.923377677067e-02 0.0 
-1.918653331601e-04 4.262260637466e-02 0.0 
8.886932166892e-03 1.200559938600e-02 0.0 
7.012715347443e-03 1.315637664155e-02 0.0 
1.631857687279e-03 1.497396001059e-02 0.0 
3.182642939706e-03 1.601230135503e-02 0.0 
4.614753010834e-03 1.386273069441e-02 0.0 
2.284646992489e-02 1.445382802519e-01 0.0 
1.513421307610e-02 1.495515333254e-01 0.0 
1.013931908016e-02 1.496837480011e-01 0.0 
1.015626257093e-03 9.340187707242e-02 0.0 
3.480232208517e-04 6.657422610161e-03 0.0 
3.292172274843e-03 7.033593615655e-02 0.0 
5.756356129218e-03 7.150123660940e-02 0.0 
-1.042819875963e-04 2.458872995007e-02 0.0 
5.292351385215e-03 1.504483896481e-01 0.0 
1.155271898161e-03 7.339680040133e-02 0.0 
9.545790071869e-03 1.416031792794e-02 0.0 
5.032938695482e-03 8.426894921360e-03 0.0 
6.805198777730e-03 9.876931284044e-03 0.0 
4.161536879202e-03 8.901910447985e-03 0.0 
2.292779207457e-03 7.302973249786e-03 0.0 
8.682417056320e-03 5.762161725011e-02 0.0 
1.870181111857e-02 1.488786466163e-01 0.0 
1.250638006143e-03 8.068453244146e-03 0.0 
7.786073247900e-04 6.125722461670e-02 0.0 
1.008377713291e-02 6.504946465536e-02 0.0 
1.406185797603e-05 6.345538220932e-02 0.0 
8.001596357161e-04 1.220815041482e-02 0.0 
2.611355071098e-02 1.271587975198e-01 0.0 
1.385300346293e-02 1.053681641014e-01 0.0 
3.419068702658e-02 1.413889268268e-01 0.0 
3.288218392937e-02 1.448011093459e-01 0.0 
3.918071350579e-03 8.320292592903e-02 0.0 
1.215170328102e-03 1.235544504057e-01 0.0 
1.515263063192e-04 5.163998358281e-03 0.0 
2.431344982183e-03 7.233517415283e-02 0.0 
4.313240643725e-04 2.758910757990e-02 0.0 
2.768268349735e-02 1.374327698280e-01 0.0 
3.004787399970e-02 1.281704280161e-01 0.0 
2.807389038389e-02 1.257553587621e-01 0.0 
3.059101791649e-02 1.150311346962e-01 0.0 
2.865308972144e-02 1.104489749313e-01 0.0 
3.037785063830e-02 1.012425590405e-01 0.0 
3.246206507176e-02 1.053306033082e-01 0.0 
3.173605400851e-02 9.210788934975e-02 0.0 
3.390165408243e-02 9.599324893055e-02 0.0 
2.801705619022e-02 9.611616200104e-02 0.0 
3.270818215829e-02 8.316159528318e-02 0.0 
3.495761070685e-02 8.690884839251e-02 0.0 
3.332658583924e-02 7.446104043101e-02 0.0 
3.565474369010e-02 7.808777003641e-02 0.0 
3.688375001536e-02 8.994642901658e-02 0.0 
3.766161835939e-02 8.109550827324e-02 0.0 
3.847003071424e-02 9.228412730285e-02 0.0 
3.932465026412e-02 8.342414107027e-02 0.0 
3.813136488031e-02 7.257763301200e-02 0.0 
3.987212200919e-02 7.494919890942e-02 0.0 
4.063389870825e-02 8.512562008142e-02 0.0 
4.124572100768e-02 7.672660122231e-02 0.0 
4.156973257543e-02 8.620640854957e-02 0.0 
4.221331344199e-02 7.785552784800e-02 0.0 
4.209920091299e-02 8.662537050096e-02 0.0 
4.262522767501e-02 7.810378998713e-02 0.0 
4.242497018130e-02 6.973802270061e-02 0.0 
4.271463244535e-02 6.998725341723e-02 0.0 
4.244271200892e-02 7.752394748387e-02 0.0 
4.243924765224e-02 6.956500853364e-02 0.0 
4.173509541537e-02 7.633132778825e-02 0.0 
4.166816133000e-02 6.865155687936e-02 0.0 
4.179990675815e-02 6.240490042331e-02 0.0 
4.085408688236e-02 6.194229611101e-02 0.0 
4.045634267595e-02 6.739806028154e-02 0.0 
3.946441163901e-02 6.122634376221e-02 0.0 
3.884765596846e-02 6.591581779355e-02 0.0 
3.767564958468e-02 6.033557500823e-02 0.0 
3.689020723346e-02 6.428699603774e-02 0.0 
3.553041006250e-02 5.934738406133e-02 0.0 
3.472530620336e-02 5.659265327955e-02 0.0 
3.252266123242e-02 5.616148618397e-02 0.0 
3.309601829063e-02 5.834374803438e-02 0.0 
3.008313474452e-02 5.572675159928e-02 0.0 
2.870959530714e-02 5.403816010851e-02 0.0 
2.642611642549e-02 5.402735171579e-02 0.0 
2.497219383344e-02 5.219024897464e-02 0.0 
2.288153558593e-02 5.253435073704e-02 0.0 
2.401043480300e-02 5.403100942155e-02 0.0 
2.066407401926e-02 5.286845540859e-02 0.0 
1.963168335750e-02 5.104826438324e-02 0.0 
1.760316537867e-02 5.169505217822e-02 0.0 
1.836307624473e-02 5.323405486327e-02 0.0 
1.550590637903e-02 5.233110861299e-02 0.0 
1.481889229408e-02 5.047351732996e-02 0.0 
1.289999612013e-02 5.137680210824e-02 0.0 
1.338380932822e-02 5.299485918042e-02 0.0 
1.096477584230e-02 5.228252940758e-02 0.0 
1.053981883205e-02 5.033568505132e-02 0.0 
8.766282801771e-03 5.150371446837e-02 0.0 
9.061941230906e-03 5.324415964745e-02 0.0 
7.050103421861e-03 5.270704500542e-02 0.0 
6.789706178665e-03 5.062983665175e-02 0.0 
5.245596234118e-03 5.209760851979e-02 0.0 
5.038744344537e-03 4.966000004129e-02 0.0 
5.455566078009e-03 5.406363265783e-02 0.0 
3.858860803778e-03 5.369594002575e-02 0.0 
4.111996809755e-03 5.564034613128e-02 0.0 
2.741087216270e-03 5.550986756364e-02 0.0 
3.916038093888e-02 5.706967384609e-02 0.0 
3.145135999850e-03 5.748090713195e-02 0.0 
4.474742635827e-03 5.721622150227e-02 0.0 
1.992757624291e-03 5.759527164722e-02 0.0 
1.583065352700e-03 5.524177166843e-02 0.0 
2.576657127480e-03 5.960842889273e-02 0.0 
1.616932069461e-03 5.993293590923e-02 0.0 
2.373272940493e-03 6.196007744723e-02 0.0 
3.704999784915e-02 7.074402728582e-02 0.0 
3.832133840649e-02 6.439517252294e-02 0.0 
1.550213292115e-03 6.242772203264e-02 0.0 
2.425405032776e-03 6.439574552402e-02 0.0 
3.289289753811e-03 6.365357053526e-02 0.0 
3.463867602548e-03 6.600521749234e-02 0.0 
2.637467032126e-02 1.051557815600e-01 0.0 
2.541584898191e-02 9.020646939919e-02 0.0 
2.393503484355e-02 9.905420995149e-02 0.0 
2.262963947719e-02 8.366033794811e-02 0.0 
2.134213172656e-02 9.215435641593e-02 0.0 
2.609382879212e-03 6.676595752466e-02 0.0 
3.068170713558e-02 6.975602543355e-02 0.0 
2.360984288273e-02 7.498572928879e-02 0.0 
4.060294192809e-02 9.497734269898e-02 0.0 
4.139752726095e-02 8.467018791666e-02 0.0 
2.687253335126e-02 5.180735470123e-02 0.0 
8.447650046470e-04 6.006094213023e-02 0.0 
8.833602970011e-04 6.264784721805e-02 0.0 
2.942046847565e-04 5.992466185720e-02 0.0 
6.488760082364e-03 4.802160439051e-02 0.0 
4.827436304051e-03 4.669461413264e-02 0.0 
6.136017829903e-03 4.483384285357e-02 0.0 
4.594537561918e-03 4.315446643740e-02 0.0 
5.723440708191e-03 4.103035371086e-02 0.0 
4.327372809422e-03 3.900015660373e-02 0.0 
3.325760770558e-03 4.131844024820e-02 0.0 
3.195698986257e-03 3.681626563225e-02 0.0 
2.319688667368e-03 3.931525778984e-02 0.0 
5.243184949903e-03 3.657966196392e-02 0.0 
6.755820764518e-03 3.880654869695e-02 0.0 
2.301123844102e-03 3.448803039953e-02 0.0 
1.546982103676e-03 3.715172968907e-02 0.0 
1.613335919101e-03 3.202630428301e-02 0.0 
9.743097867823e-04 3.485006092005e-02 0.0 
7.966984586947e-04 3.976333950411e-02 0.0 
3.475692769364e-04 3.762416845468e-02 0.0 
1.270786236098e-04 4.237548409161e-02 0.0 
2.326336877364e-02 4.965764032821e-02 0.0 
2.476498816274e-02 4.883462017059e-02 0.0 
2.128674056299e-02 4.640852238396e-02 0.0 
2.235712889686e-02 4.510502255189e-02 0.0 
1.905652394674e-02 4.239775469949e-02 0.0 
1.967486252648e-02 4.057588592285e-02 0.0 
1.657068401345e-02 3.760132952037e-02 0.0 
1.605833255435e-02 3.970918316736e-02 0.0 
3.364544979361e-02 6.587942964371e-02 0.0 
3.044363027810e-02 5.739525147332e-02 0.0 
3.209278760426e-02 6.101665014531e-02 0.0 
2.939834285879e-02 5.949151729820e-02 0.0 
2.989457365046e-02 6.395348586378e-02 0.0 
2.718738936471e-02 6.190302022506e-02 0.0 
2.693916560455e-02 6.685902371838e-02 0.0 
2.420231482474e-02 6.437426681197e-02 0.0 
2.440608782380e-02 6.004928061936e-02 0.0 
2.145593288671e-02 6.210580046490e-02 0.0 
2.158084125151e-02 5.845172384775e-02 0.0 
1.874240355710e-02 6.010124334367e-02 0.0 
1.876093463120e-02 5.716568183243e-02 0.0 
4.213581080917e-02 6.206783768228e-02 0.0 
2.308331634434e-02 4.357692906533e-02 0.0 
1.990443232481e-02 3.846668727419e-02 0.0 
2.339279849500e-02 4.175998382991e-02 0.0 
4.359482200712e-03 6.503439776744e-02 0.0 
5.596388316285e-04 3.243283679531e-02 0.0 
6.021409504871e-03 3.401675905118e-02 0.0 
7.644813799640e-03 3.649160496284e-02 0.0 
1.375951644686e-02 3.463628846170e-02 0.0 
3.726161240816e-03 6.823172102407e-02 0.0 
2.340636487965e-02 6.964042915488e-02 0.0 
2.614830481381e-02 7.271102275569e-02 0.0 
1.974935660228e-02 7.636302833848e-02 0.0 
1.868578993767e-02 8.461247024528e-02 0.0 
6.618534882971e-03 3.129114713187e-02 0.0 
2.836067385542e-03 6.897329583712e-02 0.0 
2.992971088757e-03 3.171941844887e-02 0.0 
1.794423175000e-02 6.418410588941e-02 0.0 
4.538579243096e-05 3.536832479529e-02 0.0 
2.852831419391e-04 2.990706534840e-02 0.0 
2.302777766316e-03 4.356979179944e-02 0.0 
1.969145603082e-02 3.602323485070e-02 0.0 
2.329954249459e-02 3.968965771030e-02 0.0 
2.080511357098e-02 5.606509774986e-02 0.0 
1.793322478588e-02 5.542442097122e-02 0.0 
1.602517213431e-02 5.620854997660e-02 0.0 
1.519843561737e-02 5.498431646193e-02 0.0 
1.612310219015e-02 5.482968452438e-02 0.0 
1.350720257956e-02 5.503267087874e-02 0.0 
1.277768431313e-02 5.515905013786e-02 0.0 
1.128297003763e-02 5.556678893549e-02 0.0 
1.147712421815e-02 5.548690594904e-02 0.0 
9.545765952298e-03 5.633518135256e-02 0.0 
9.572225882909e-03 5.653692117453e-02 0.0 
8.156713427734e-03 5.759811166693e-02 0.0 
7.268186330522e-04 2.676682405157e-02 0.0 
1.535656606690e-02 6.185070701030e-02 0.0 
3.727621627857e-02 1.014933173053e-01 0.0 
5.168073517218e-03 2.853406051463e-02 0.0 
1.387705869877e-02 3.207973638492e-02 0.0 
1.683784827514e-02 6.849054062583e-02 0.0 
1.601502225274e-02 7.655368926314e-02 0.0 
1.740121039758e-02 9.277771538699e-02 0.0 
1.497607632337e-02 8.450857591537e-02 0.0 
1.338288630250e-02 6.807323883964e-02 0.0 
1.259401384232e-02 7.592049131086e-02 0.0 
1.379339225317e-02 9.232297069772e-02 0.0 
1.164402644383e-02 8.363857044369e-02 0.0 
1.252688618595e-02 9.994964225141e-02 0.0 
1.058491136607e-02 9.120428342130e-02 0.0 
9.571680311218e-03 7.472432269205e-02 0.0 
8.709288340746e-03 8.228738416735e-02 0.0 
9.456901836607e-03 9.863040684298e-02 0.0 
7.748050394426e-03 8.973041475300e-02 0.0 
8.285144224125e-03 1.059103939161e-01 0.0 
6.712073206387e-03 9.705393093986e-02 0.0 
6.133492662578e-03 8.070712100348e-02 0.0 
3.948827668040e-03 7.017205872657e-02 0.0 
1.335514273494e-02 3.703728591563e-02 0.0 
1.124404963980e-02 3.167523290182e-02 0.0 
4.049535909294e-04 6.250623270944e-02 0.0 
-4.670177856436e-05 5.945748921354e-02 0.0 
-1.259843524837e-04 5.677415812497e-02 0.0 
-3.336013934856e-04 5.596821142383e-02 0.0 
5.205441319660e-03 8.816278058781e-02 0.0 
4.643732025997e-03 7.159701848965e-02 0.0 
2.226952582699e-02 7.563832049949e-02 0.0 
2.502014023345e-02 7.928927496215e-02 0.0 
1.737603761531e-02 6.036370363354e-02 0.0 
-1.208290796701e-04 3.299591453722e-02 0.0 
-3.544294048354e-04 3.831771213356e-02 0.0 
4.028936218178e-02 8.271326434969e-02 0.0 
3.958882518541e-02 9.138329393980e-02 0.0 
3.812301345551e-02 8.873470606237e-02 0.0 
3.700118498677e-02 9.780498034718e-02 0.0 
3.846672290810e-02 1.006872809828e-01 0.0 
3.520541572915e-02 9.445367716681e-02 0.0 
8.556648204866e-03 4.097647435787e-02 0.0 
7.619923566516e-03 6.564701429284e-02 0.0 
4.225618234964e-03 6.273479652289e-02 0.0 
5.282664166327e-03 6.390336232444e-02 0.0 
1.009546297963e-04 2.730798967582e-02 0.0 
1.524392828774e-02 4.161856780683e-02 0.0 
4.140851454560e-02 6.095254285582e-02 0.0 
3.926564918738e-02 5.462871411596e-02 0.0 
3.808970510346e-02 5.263009815316e-02 0.0 
3.412830577894e-02 4.769279301553e-02 0.0 
3.242946507986e-02 4.487055265179e-02 0.0 
2.814095092269e-02 4.027860287641e-02 0.0 
2.978619514123e-02 4.325536943026e-02 0.0 
1.898285333870e-02 3.316253976832e-02 0.0 
2.405747434030e-02 3.573604970608e-02 0.0 
5.709685015226e-03 1.044153290499e-01 0.0 
2.681338323456e-02 4.667296807842e-02 0.0 
9.465160036921e-03 5.600808881957e-02 0.0 
4.902126302758e-03 6.922463384596e-02 0.0 
8.545857921025e-03 5.799429064305e-02 0.0 
3.034750749213e-03 7.093764056584e-02 0.0 
2.026204801695e-03 6.942990446145e-02 0.0 
5.452545864490e-03 2.539578264381e-02 0.0 
2.591813639308e-02 3.664925426381e-02 0.0 
3.016860536999e-02 4.142982538577e-02 0.0 
3.603507218322e-02 1.073388278107e-01 0.0 
3.732931986091e-02 1.103557656678e-01 0.0 
1.568492482332e-02 2.939330917873e-02 0.0 
2.215417741738e-02 1.079036439710e-01 0.0 
1.449092354907e-02 1.084757759206e-01 0.0 
1.299715309425e-02 1.159528195243e-01 0.0 
4.309127656502e-03 7.189037484592e-02 0.0 
9.582138176357e-03 5.681492737679e-02 0.0 
1.085207900957e-02 5.928909356097e-02 0.0 
2.880795968588e-02 7.599203141270e-02 0.0 
2.772972616780e-02 8.312295907753e-02 0.0 
1.408788959583e-02 6.614284621432e-02 0.0 
1.174577100942e-02 6.350175579646e-02 0.0 
3.877064872967e-03 7.893321991404e-02 0.0 
3.343058090060e-03 6.237755816836e-02 0.0 
-3.512748048236e-04 5.318576509003e-02 0.0 
-4.981861718152e-04 5.203667891082e-02 0.0 
6.993561653477e-03 2.834823124636e-02 0.0 
7.347683334006e-03 5.921762450501e-02 0.0 
3.868388839955e-03 5.477704760660e-02 0.0 
1.265540424395e-02 3.920908754478e-02 0.0 
1.417555041376e-02 4.335921721879e-02 0.0 
-1.912316884529e-04 5.873626664991e-02 0.0 
2.112171946851e-02 8.206061240807e-02 0.0 
1.825092757721e-02 7.814667724699e-02 0.0 
1.150212384840e-02 5.523586915586e-02 0.0 
6.758628945960e-03 5.861880895275e-02 0.0 
2.116897179596e-03 7.123462758851e-02 0.0 
5.473782382351e-03 2.200458982324e-02 0.0 
1.116852559484e-02 5.143811726246e-02 0.0 
2.572483959339e-02 3.897345481203e-02 0.0 
3.088539353458e-02 4.569342579521e-02 0.0 
2.019868006364e-02 3.136778760604e-02 0.0 
8.010061194152e-03 5.968384789267e-02 0.0 
4.164451365279e-03 2.234513317758e-02 0.0 
-2.065631777515e-04 3.055299807541e-02 0.0 
2.350914220534e-02 3.287223759028e-02 0.0 
2.742249348398e-02 3.744195829543e-02 0.0 
3.134526757018e-02 7.938540686589e-02 0.0 
3.039568261321e-02 8.704084642114e-02 0.0 
2.689574895924e-02 9.068725994721e-02 0.0 
2.964066846921e-02 9.512672255274e-02 0.0 
3.423053030661e-02 1.086416245099e-01 0.0 
3.376825474377e-02 8.275200665414e-02 0.0 
3.847503051072e-02 1.031569727326e-01 0.0 
3.689006651580e-02 1.127134498014e-01 0.0 
3.769945456672e-02 1.136995742387e-01 0.0 
3.943147488322e-02 1.029397243988e-01 0.0 
3.801917879489e-02 1.123645458875e-01 0.0 
3.246651344422e-02 6.619604964882e-02 0.0 
2.853302039737e-02 5.133580859896e-02 0.0 
1.851296542643e-05 5.410860565402e-02 0.0 
6.185134779759e-04 4.418440923336e-02 0.0 
7.943162039279e-03 4.637793595607e-02 0.0 
8.142387513935e-03 5.797898734936e-02 0.0 
6.165328482631e-03 4.875038545627e-02 0.0 
9.907272341941e-03 1.146368022489e-01 0.0 
8.593939640441e-03 1.217328930229e-01 0.0 
5.582029046367e-03 6.610949516260e-02 0.0 
6.496593834818e-03 6.480366332803e-02 0.0 
3.537223088626e-03 4.855463194046e-02 0.0 
3.969249412378e-03 2.568280890726e-02 0.0 
1.424181690316e-02 5.218090759957e-02 0.0 
1.418465295431e-02 4.418942829181e-02 0.0 
1.757144577150e-02 5.220357700239e-02 0.0 
7.094917460625e-03 2.515662138718e-02 0.0 
2.766067825420e-02 5.656582076566e-02 0.0 
1.994676130207e-02 4.755854661093e-02 0.0 
1.297130533611e-02 5.995245139176e-02 0.0 
3.976672059910e-02 5.674739583983e-02 0.0 
6.882672816249e-03 6.687469101421e-02 0.0 
3.614646766549e-02 6.142101743750e-02 0.0 
-1.244142620038e-05 2.464105998094e-02 0.0 
2.570736700971e-04 2.121192265704e-02 0.0 
1.447387330045e-02 2.589601777750e-02 0.0 
3.119668076046e-02 1.310529421457e-01 0.0 
3.564070860997e-02 5.254455963752e-02 0.0 
3.506436253264e-02 5.328571221139e-02 0.0 
3.583346970007e-02 1.235120272279e-01 0.0 
3.646374949198e-02 1.237414214836e-01 0.0 
3.814401451738e-02 1.140124791789e-01 0.0 
3.681740478492e-02 1.233548221825e-01 0.0 
9.375761383412e-03 5.542002559226e-02 0.0 
7.628136250876e-03 5.645584819128e-02 0.0 
1.894266346713e-02 2.734351060249e-02 0.0 
1.818670041657e-02 2.763160599150e-02 0.0 
2.046626246699e-02 2.841236867926e-02 0.0 
2.416914643916e-02 3.286833330405e-02 0.0 
1.143892336527e-02 2.188662535238e-02 0.0 
1.268829019117e-02 2.563930553238e-02 0.0 
1.317470165608e-03 6.950157742924e-02 0.0 
3.645209809994e-02 1.197916632811e-01 0.0 
8.539946137567e-03 4.244642062190e-02 0.0 
3.494460490669e-02 1.226380586736e-01 0.0 
3.118282599088e-03 1.939713108746e-02 0.0 
2.991975763303e-03 2.274771071422e-02 0.0 
9.812969442493e-03 6.134851414540e-02 0.0 
1.098847505605e-02 5.827396704338e-02 0.0 
2.647534431865e-03 4.578942115600e-02 0.0 
2.596434622450e-02 9.879333986381e-02 0.0 
2.883515870399e-02 1.036890248097e-01 0.0 
2.288516755919e-02 9.386347605569e-02 0.0 
6.723373639728e-05 1.095555661572e-02 0.0 
2.309157970885e-03 1.505200613091e-01 0.0 
1.585426949489e-04 1.831835237952e-02 0.0 
3.983611822780e-02 1.041450961667e-01 0.0 
2.877696909863e-03 3.740602795886e-02 0.0 
3.137884277740e-02 4.893698836907e-02 0.0 
3.873205707332e-02 8.045901534675e-02 0.0 
8.816136224123e-03 3.122664761171e-02 0.0 
2.138435525261e-03 5.483335808147e-02 0.0 
1.592974574002e-03 3.600196035275e-02 0.0 
1.471577475503e-02 1.240468977066e-01 0.0 
1.313708941288e-02 1.315861796265e-01 0.0 
1.643153885814e-02 1.167046164937e-01 0.0 
1.674515084062e-02 6.909290120947e-02 0.0 
1.214980929299e-02 7.175620410751e-02 0.0 
5.830244455126e-03 5.643708065795e-02 0.0 
1.010689872038e-03 6.512269520523e-02 0.0 
4.472690654342e-04 6.477645661195e-02 0.0 
6.223008728364e-03 6.047902853556e-02 0.0 
5.488603047830e-03 5.959537622337e-02 0.0 
-8.855802594443e-05 5.054652818407e-02 0.0 
4.923489861266e-04 5.163639389914e-02 0.0 
3.597726488393e-02 5.343405657965e-02 0.0 
3.335143087126e-02 4.992243409801e-02 0.0 
4.008305398515e-02 5.913759501248e-02 0.0 
1.171067148062e-02 4.120607111621e-02 0.0 
1.290540014072e-02 4.496873861021e-02 0.0 
1.552002647148e-02 4.679537300260e-02 0.0 
6.352728051141e-03 4.154710295706e-02 0.0 
4.244668163729e-03 3.077802824537e-02 0.0 
1.145921954560e-02 5.465972900696e-02 0.0 
1.385398343564e-02 5.472894530843e-02 0.0 
7.454293793284e-03 5.555119549305e-02 0.0 
8.358850068852e-03 3.491643923149e-02 0.0 
3.421257035976e-04 1.484693082880e-02 0.0 
5.088056398570e-04 1.792389370966e-02 0.0 
7.769895390981e-03 6.541549786603e-02 0.0 
7.393912426652e-03 6.331711830859e-02 0.0 
1.659876908205e-02 8.461639631471e-02 0.0 
1.364434123090e-02 8.054146499419e-02 0.0 
1.391926280354e-02 3.683027891908e-02 0.0 
1.742365192580e-02 4.421534731812e-02 0.0 
1.014824813847e-02 2.791554154971e-02 0.0 
1.287375199982e-03 7.127368417130e-02 0.0 
2.679453835055e-02 4.154485756050e-02 0.0 
5.366850701002e-03 1.872019761416e-02 0.0 
7.083688588187e-03 2.208611107926e-02 0.0 
3.695745481695e-03 1.446913471758e-02 0.0 
1.795415293213e-02 3.018768715548e-02 0.0 
1.293863936169e-02 2.236293637126e-02 0.0 
1.435136303884e-02 2.287956314649e-02 0.0 
8.253061709762e-03 6.472923990263e-02 0.0 
1.191551612315e-03 4.307649721482e-02 0.0 
1.011133999790e-02 1.302833738088e-01 0.0 
7.166525842607e-03 6.268641794949e-02 0.0 
8.705308247272e-03 1.377165217912e-01 0.0 
7.327396102788e-03 1.288041039634e-01 0.0 
7.522717923273e-03 1.449538072349e-01 0.0 
1.835498079848e-03 7.248134319136e-02 0.0 
1.641013270620e-02 1.346446806751e-01 0.0 
1.841955350167e-02 1.251710792320e-01 0.0 
8.834888053187e-03 6.384881952049e-02 0.0 
5.687414979349e-03 2.595002423227e-02 0.0 
8.159287610431e-03 6.718639700520e-02 0.0 
7.256231018327e-03 6.856172420103e-02 0.0 
2.272152298268e-03 1.611845574609e-02 0.0 
2.221986505907e-03 1.969785254347e-02 0.0 
1.594915251163e-03 1.293599456647e-02 0.0 
1.633880929871e-03 1.695946588740e-02 0.0 
1.984413852492e-03 2.319818652348e-02 0.0 
1.437036575470e-03 2.024764283358e-02 0.0 
1.170240088473e-02 1.399748461251e-01 0.0 
1.100332530165e-03 1.284773475113e-02 0.0 
1.021602231433e-03 1.708348644986e-02 0.0 
7.166418321791e-04 9.808234812148e-03 0.0 
3.584769200521e-02 1.333624206193e-01 0.0 
3.193894919819e-02 9.955285485171e-02 0.0 
3.129456201230e-02 1.087170227061e-01 0.0 
2.673951494735e-02 1.138291621878e-01 0.0 
1.539712450847e-02 2.127000275205e-02 0.0 
2.091036100256e-02 2.838256396061e-02 0.0 
-2.079121353897e-04 2.789395635388e-02 0.0 
-3.449625754388e-04 3.371235752302e-02 0.0 
6.040694760323e-03 1.369023369858e-01 0.0 
4.426066753595e-03 1.374711912905e-01 0.0 
4.847213169974e-03 1.234450091090e-01 0.0 
3.500844783879e-03 1.251147112273e-01 0.0 
3.785681167329e-03 1.110692754624e-01 0.0 
2.435569034482e-03 1.128377411020e-01 0.0 
2.902602462669e-03 9.852102248448e-02 0.0 
1.192496157717e-02 1.848263949191e-02 0.0 
2.042005819558e-02 1.020954998226e-01 0.0 
3.419138808593e-02 1.337987032263e-01 0.0 
8.635043616763e-03 1.791635336986e-02 0.0 
1.029356619582e-02 2.259456725307e-02 0.0 
3.687879014741e-02 1.218559441361e-01 0.0 
3.556565558008e-02 1.296618975631e-01 0.0 
2.819103933698e-03 1.463884595936e-02 0.0 
3.444784329007e-02 7.531592333872e-02 0.0 
4.484790879957e-03 1.632299874882e-02 0.0 
2.383456719162e-03 7.521985560218e-02 0.0 
7.085496876002e-03 7.239011731480e-02 0.0 
3.664229685177e-02 7.809383518400e-02 0.0 
3.825088219055e-02 1.135844498396e-01 0.0 
3.413691513112e-02 1.036998499910e-01 0.0 
3.374835411038e-02 1.132472663691e-01 0.0 
1.036146486220e-02 3.668491409577e-02 0.0 
8.278451428568e-03 6.174006823349e-02 0.0 
1.973880397384e-02 8.909794662071e-02 0.0 
4.234726756394e-03 9.694794187487e-02 0.0 
1.428764102163e-02 9.155576990586e-02 0.0 
-1.970776272516e-04 3.062213575706e-02 0.0 
3.485512573264e-02 6.850106388654e-02 0.0 
4.117839002217e-02 9.500511146743e-02 0.0 
2.405612511889e-02 8.624553758243e-02 0.0 
3.304280992456e-02 9.087132588926e-02 0.0 
3.576161724554e-02 9.913716277553e-02 0.0 
3.232713570463e-02 1.183800164635e-01 0.0 
3.364557851575e-02 1.210941819166e-01 0.0 
3.460653268478e-02 6.267781499115e-02 0.0 
3.545803933302e-02 1.170283354681e-01 0.0 
3.262820327712e-02 1.239008713055e-01 0.0 
3.972498265982e-02 9.395670088418e-02 0.0 
2.094472110642e-02 5.965505341750e-02 0.0 
2.097060808067e-02 5.137021366613e-02 0.0 
1.699883495321e-02 3.676013721122e-02 0.0 
2.061994115790e-02 4.336444684928e-02 0.0 
2.442583166571e-02 5.798210696034e-02 0.0 
2.425781555168e-02 4.973561348944e-02 0.0 
1.991010550276e-02 3.568837404310e-02 0.0 
2.375998522001e-02 4.176422285608e-02 0.0 
1.755662132791e-02 2.549615771917e-02 0.0 
2.276154103308e-02 3.364253651293e-02 0.0 
2.737243308350e-02 4.751045173495e-02 0.0 
2.678848683347e-02 3.986444418134e-02 0.0 
2.080308909766e-02 2.855668410132e-02 0.0 
3.078830163582e-02 5.340075581837e-02 0.0 
7.014163024813e-03 1.378933522075e-02 0.0 
3.898689204414e-02 7.283852887056e-02 0.0 
1.013034831090e-02 6.779683861614e-02 0.0 
9.115734370685e-03 7.637061542842e-02 0.0 
4.110419966934e-02 9.535859538428e-02 0.0 
8.885079883569e-03 1.245770973899e-02 0.0 
7.957085807867e-03 1.314696503317e-02 0.0 
2.957854532831e-02 6.956451624734e-02 0.0 
7.211016005439e-03 1.023358106927e-02 0.0 
3.567541070960e-02 1.111313343457e-01 0.0 
2.063347101094e-02 6.682783976009e-02 0.0 
6.547408526558e-03 9.801765434979e-03 0.0 
2.421634061229e-02 6.638441320758e-02 0.0 
2.731480115092e-02 7.274518020327e-02 0.0 
2.654929642652e-02 8.145114917913e-02 0.0 
6.043393001868e-03 1.296895479232e-02 0.0 
1.817367464393e-02 1.089218491283e-01 0.0 
4.737873695571e-03 8.356948301966e-03 0.0 
2.596852622845e-02 4.785372077170e-02 0.0 
2.988930303420e-02 5.075675507336e-02 0.0 
3.260331180520e-02 5.395989169028e-02 0.0 
2.770895662903e-02 5.590681402878e-02 0.0 
3.436564626664e-03 8.033070053681e-03 0.0 
6.130545467258e-03 1.499757996344e-02 0.0 
5.435551048521e-03 1.470916962057e-02 0.0 
8.476137368024e-03 2.175466701817e-02 0.0 
2.704178861343e-03 7.708585927535e-03 0.0 
7.832683494016e-03 1.059702279219e-02 0.0 
7.186349067617e-03 9.827766630718e-03 0.0 
1.381643574171e-02 5.498521547832e-02 0.0 
1.643984589524e-02 5.473639013003e-02 0.0 
1.637401314594e-02 5.439930025329e-02 0.0 
1.920555147381e-02 5.469976175260e-02 0.0 
1.896470164953e-02 5.499317048323e-02 0.0 
2.186085330804e-02 5.532543034090e-02 0.0 
2.200221521767e-02 5.479424407799e-02 0.0 
2.370479776294e-02 5.697638934157e-02 0.0 
2.818333470995e-02 3.868265418676e-02 0.0 
1.991361616142e-03 7.152292514750e-03 0.0 
7.395977004165e-03 4.292581203717e-02 0.0 
9.339325804790e-03 4.473893387238e-02 0.0 
9.997924282786e-03 4.783922093564e-02 0.0 
6.741471409377e-04 5.477469441865e-02 0.0 
1.358319207284e-03 5.250826585529e-02 0.0 
1.285277663048e-03 4.937061416128e-02 0.0 
3.423886753628e-04 5.728242534129e-02 0.0 
3.524004670095e-02 4.987960694486e-02 0.0 
1.729103554821e-03 7.086113824776e-03 0.0 
1.692546947119e-02 4.546037867504e-02 0.0 
2.483335816773e-03 5.319194845602e-02 0.0 
2.072066282152e-02 1.470205221716e-01 0.0 
2.282504405291e-02 1.330111819742e-01 0.0 
2.524722281908e-02 1.301303712881e-01 0.0 
2.448531942246e-02 1.165918525737e-01 0.0 
2.034541685696e-02 1.332288675724e-01 0.0 
-4.199001559293e-04 4.923424090042e-02 0.0 
-5.558968734150e-04 4.774927046633e-02 0.0 
-4.773353522820e-04 5.068448927227e-02 0.0 
-5.335555329227e-04 4.611098613842e-02 0.0 
-3.850695116339e-04 4.909446655304e-02 0.0 
-3.301712112709e-04 5.343375014384e-02 0.0 
-4.030346114057e-04 4.430048531892e-02 0.0 
-2.430045303461e-04 4.781362802641e-02 0.0 
1.687190466708e-02 1.495132740088e-01 0.0 
7.772292074421e-03 5.809330828471e-02 0.0 
9.186733862794e-03 5.710240546261e-02 0.0 
9.361315033006e-03 5.721248724916e-02 0.0 
1.002160282763e-02 5.636986327769e-02 0.0 
1.045474700151e-02 5.664121932687e-02 0.0 
1.154047154202e-02 5.553846485727e-02 0.0 
1.225778250089e-02 5.641333873614e-02 0.0 
8.908359886746e-03 5.809705425591e-02 0.0 
9.392241020823e-03 5.809188473078e-02 0.0 
9.419798984544e-03 5.817300984864e-02 0.0 
9.895451711611e-03 5.933648804974e-02 0.0 
9.377600749149e-03 5.982216598269e-02 0.0 
8.933212673194e-03 5.838007428872e-02 0.0 
6.175662523678e-03 6.259338660942e-02 0.0 
2.899042078064e-04 7.484075151169e-03 0.0 
-6.506355819424e-05 5.984834372670e-02 0.0 
-5.021249316739e-05 6.143563606132e-02 0.0 
1.228914998945e-04 6.467292637753e-02 0.0 
3.452551630145e-05 6.247303370783e-02 0.0 
-1.675920719615e-04 5.804659545257e-02 0.0 
1.339460059790e-04 6.659071698780e-02 0.0 
3.711327000269e-04 6.727642282071e-02 0.0 
4.193560860788e-03 7.188886003733e-02 0.0 
3.003287596969e-03 7.290444398870e-02 0.0 
1.413920534379e-03 7.302036905671e-02 0.0 
2.093493803087e-03 7.334066995203e-02 0.0 
3.391363300332e-03 7.299961252050e-02 0.0 
4.565112614134e-03 7.239050396657e-02 0.0 
5.976976074245e-03 7.180918096894e-02 0.0 
7.240857194279e-03 7.095646625804e-02 0.0 
7.258204898178e-03 7.117896447948e-02 0.0 
5.831435927400e-03 7.165411699429e-02 0.0 
8.767582648096e-03 7.042102416393e-02 0.0 
9.401372140019e-04 7.714107534713e-02 0.0 
1.798429759866e-03 6.892743166783e-02 0.0 
1.340503917472e-03 7.316563794802e-03 0.0 
1.331311817226e-02 1.491657068056e-01 0.0 
1.021217563496e-02 6.306494676716e-02 0.0 
1.519857781062e-03 1.801969452422e-02 0.0 
2.440308353513e-03 1.483620958390e-02 0.0 
1.930628132122e-03 1.442263079720e-02 0.0 
1.840026340461e-05 1.791190424023e-02 0.0 
1.245096083313e-04 1.475105564163e-02 0.0 
8.118300808633e-04 1.754614894215e-02 0.0 
3.318015626765e-03 6.132588942926e-02 0.0 
1.622466170460e-02 2.960051637970e-02 0.0 
4.235468592022e-03 4.708717389029e-02 0.0 
1.949885024716e-02 7.221721223179e-02 0.0 
6.312567142622e-03 5.783217772427e-02 0.0 
-3.939238035637e-04 3.607084588731e-02 0.0 
1.436389123484e-03 4.174153463057e-02 0.0 
4.563442897627e-04 2.406427247778e-02 0.0 
-1.834320018670e-04 4.040345028717e-02 0.0 
1.097195451433e-03 2.944694089829e-02 0.0 
4.859403968837e-03 1.488534698203e-02 0.0 
2.965913437755e-03 7.229239246595e-02 0.0 
1.122129862920e-02 1.073807380958e-01 0.0 
7.149929768723e-03 1.131258156115e-01 0.0 
6.940329100956e-03 7.322909645596e-02 0.0 
1.652020219406e-03 6.491105219376e-02 0.0 
-3.815899353063e-04 5.467026651192e-02 0.0 
4.637331565691e-03 6.725455963055e-02 0.0 
1.272963414842e-02 1.843498998374e-02 0.0 
3.929489727659e-02 1.042308449614e-01 0.0 
8.398250199816e-03 4.922848298126e-02 0.0 
1.045601378984e-03 5.754778415267e-02 0.0 
3.682179990763e-03 5.913475381026e-02 0.0 
7.854710100233e-03 5.712472640601e-02 0.0 
4.057188741294e-02 7.471985531006e-02 0.0 
3.671628635438e-03 5.135871533527e-02 0.0 
3.997725578113e-03 3.421743628551e-02 0.0 
5.314066472138e-03 6.405856851624e-02 0.0 
9.654973319484e-03 6.719997663980e-02 0.0 
4.670864647077e-03 3.146702102891e-02 0.0 
3.429905089050e-03 4.521975629150e-02 0.0 
1.598098342051e-02 1.007626916065e-01 0.0 
1.672968872418e-02 3.523221287013e-02 0.0 
1.080109594379e-02 5.571038756359e-02 0.0 
1.030509307520e-02 6.707841429175e-02 0.0 
1.104419584673e-02 3.670866724354e-02 0.0 
2.025543146734e-02 1.166018836034e-01 0.0 
5.937472413954e-03 6.817141600974e-02 0.0 
1.156255160774e-02 1.234369778775e-01 0.0 
4.110167068486e-03 1.876215348052e-02 0.0 
2.051912414389e-02 6.798953786317e-02 0.0 
1.829794240615e-03 6.726934076560e-02 0.0 
2.154025604755e-02 5.038325679462e-02 0.0 
4.203527981274e-02 8.603168094210e-02 0.0 
3.099858250140e-02 1.435876329186e-01 0.0 
4.439546220254e-03 3.997432432117e-02 0.0 
3.810955322969e-02 5.713791328957e-02 0.0 
1.125478106378e-02 2.875196976148e-02 0.0 
1.811831677248e-02 4.400611380325e-02 0.0 
1.173416466522e-03 6.738768691811e-02 0.0 
2.677775391106e-03 2.602095635110e-02 0.0 
3.078081735514e-02 5.402532169595e-02 0.0 
8.482766370655e-03 5.034525170268e-02 0.0 
3.632894462466e-02 4.996430879935e-02 0.0 
2.748480365291e-02 5.533814426913e-02 0.0 
1.395285613467e-02 6.015436014361e-02 0.0 
1.228727823325e-02 4.919829069249e-02 0.0 
1.643840512021e-02 3.249577362575e-02 0.0 
3.976802455224e-02 1.044987574869e-01 0.0 
4.154157693197e-02 6.869393270579e-02 0.0 
3.606267785907e-02 6.965770823610e-02 0.0 
4.224779518765e-02 6.249407342485e-02 0.0 
-3.814391463235e-04 3.929224924353e-02 0.0 
3.565829429341e-03 2.880056211206e-02 0.0 
1.614061039678e-02 5.849804686655e-02 0.0 
3.618240731015e-02 8.585193200470e-02 0.0 
1.981258499238e-02 1.005995018547e-01 0.0 
2.206627171846e-02 3.227657793757e-02 0.0 
6.127628940710e-03 3.329050411131e-02 0.0 
4.064633616788e-02 9.355702987949e-02 0.0 
2.200245098383e-03 2.911361498009e-02 0.0 
1.126417911683e-02 4.406971502648e-02 0.0 
2.348436315755e-03 5.046122598108e-02 0.0 
8.569846643161e-04 7.266082988357e-02 0.0 
1.546157641078e-02 7.451047569194e-02 0.0 
2.658955211807e-02 5.813447905063e-02 0.0 
3.661502867279e-02 5.695106307803e-02 0.0 
2.299051536905e-03 4.727353724719e-02 0.0 
1.274426201291e-02 2.745652504428e-02 0.0 
1.588622155134e-03 2.640074831037e-02 0.0 
8.335546785180e-03 3.396682683009e-02 0.0 
6.363299365585e-03 8.813082449542e-02 0.0 
3.283599510484e-02 1.326024614236e-01 0.0 
1.128509651092e-03 2.359050900912e-02 0.0 
1.839539788021e-02 4.859709790485e-02 0.0 
1.353715220062e-02 2.909618639650e-02 0.0 
-2.292699400894e-04 5.197877935530e-02 0.0 
1.218533536241e-02 1.824637268983e-02 0.0 
3.606988993749e-02 1.314933696725e-01 0.0 
7.903570355676e-04 2.069432104631e-02 0.0 
1.094641480272e-02 3.427182034268e-02 0.0 
3.211595925202e-02 7.238387264873e-02 0.0 
3.810133335982e-03 1.505538621201e-01 0.0 
6.631857857924e-04 1.306215395518e-02 0.0 
8.982967601789e-03 2.825038034289e-02 0.0 
3.982280654484e-02 5.597552159669e-02 0.0 
1.665762747535e-02 4.955654426616e-02 0.0 
3.426078111664e-02 1.449357731951e-01 0.0 
1.330887282738e-03 4.580742355447e-02 0.0 
4.014412449395e-02 6.688781437101e-02 0.0 
5.097760793142e-03 1.294538108266e-02 0.0 
9.028300348010e-03 2.554202052417e-02 0.0 
2.929075072404e-02 8.747537698124e-02 0.0 
4.986550491379e-04 4.811202102479e-02 0.0 
2.732160190000e-02 4.536049082108e-02 0.0 
4.690764162598e-03 7.237724314009e-02 0.0 
3.520251333174e-02 1.339098901178e-01 0.0 
-3.291453592702e-05 4.663555666888e-02 0.0 
2.478207103236e-02 5.586643021875e-02 0.0 
1.395715024558e-02 4.802857837960e-02 0.0 
9.972280963783e-03 1.819175374273e-02 0.0 
-3.518125185922e-04 4.497976049045e-02 0.0 
2.476896860561e-02 5.501386722266e-02 0.0 
-5.011471319518e-04 4.318392514253e-02 0.0 
3.489600387019e-02 1.428708731087e-01 0.0 
3.015296677230e-02 7.831532648026e-02 0.0 
-5.194542928124e-04 4.127836132718e-02 0.0 
3.824593051792e-02 5.655910863698e-02 0.0 
6.314784001376e-03 7.009783970300e-02 0.0 
3.575045501746e-02 5.149627252618e-02 0.0 
-1.625328454957e-05 2.144000441535e-02 0.0 
5.684831765961e-03 5.563502535209e-02 0.0 
1.153526426058e-02 4.645909439370e-02 0.0 
2.768473416174e-02 6.418365514238e-02 0.0 
3.279058329727e-02 1.391051348519e-01 0.0 
1.061870000727e-02 4.304353734954e-02 0.0 
3.407650184575e-02 4.672720970708e-02 0.0 
3.143149200557e-02 4.756285460313e-02 0.0 
3.405291412117e-02 5.373809371410e-02 0.0 
9.546824036022e-03 3.888933269767e-02 0.0 
3.457949315576e-02 1.267571961133e-01 0.0 
4.358542363011e-03 6.060267298185e-02 0.0 
5.186947045070e-03 6.166974501454e-02 0.0 
2.149568108651e-02 5.407864972117e-02 0.0 
3.132870964619e-02 4.292372087460e-02 0.0 
2.558206724060e-03 7.303722735542e-02 0.0 
3.085270427847e-02 6.126537012877e-02 0.0 
7.112986678292e-03 6.116330244952e-02 0.0 
1.894403990628e-02 5.419733848286e-02 0.0 
2.258857578492e-02 3.704152340361e-02 0.0 
1.105874272916e-03 1.088306078173e-01 0.0 
1.604265018405e-02 5.362366350357e-02 0.0 
5.674668061038e-04 7.128654125964e-02 0.0 
1.372825806415e-02 5.409023917753e-02 0.0 
3.082045333872e-02 4.995344063278e-02 0.0 
1.129202918868e-02 5.369315573573e-02 0.0 
9.271068873609e-03 5.451903535558e-02 0.0 
2.973222201568e-03 3.062297959666e-02 0.0 
7.272448222860e-03 5.431509031968e-02 0.0 
4.003809618567e-04 1.454124885779e-02 0.0 
1.207446976519e-04 6.709680898268e-03 0.0 
1.436117228586e-03 1.392401307468e-01 0.0 
2.785538752613e-02 1.339816807566e-01 0.0 
4.404332896200e-03 6.575657740399e-02 0.0 
3.059325927662e-02 1.173288234845e-01 0.0 
5.982171253972e-03 5.684783413526e-02 0.0 
3.366941528749e-02 5.784029998198e-02 0.0 
2.984239827136e-03 1.385796589982e-01 0.0 
4.920785769992e-03 5.852522973093e-02 0.0 
1.566075376815e-02 2.136279464386e-02 0.0 
5.412863654918e-03 8.695331175247e-03 0.0 
2.016274006372e-03 8.441689381241e-02 0.0 
1.108598962456e-02 2.604783313850e-02 0.0 
2.723280436715e-02 4.353821401174e-02 0.0 
5.894224210721e-04 4.477364545707e-02 0.0 
8.706069279839e-03 1.518684634348e-01 0.0 
9.287155598518e-03 6.176520701870e-02 0.0 
-2.088141259461e-04 3.652041658341e-02 0.0 
2.178917075552e-02 1.238459290546e-01 0.0 
2.341202429608e-02 1.077108857759e-01 0.0 
1.708610051078e-02 9.676295094573e-02 0.0 
6.918068730002e-04 6.739481011218e-02 0.0 
9.564901455208e-03 5.706042525482e-02 0.0 
1.693529758902e-02 1.112885864320e-01 0.0 
6.983503891018e-03 1.574841048653e-02 0.0 
1.455623976948e-02 1.381588177077e-01 0.0 
2.197244941191e-02 3.484322336200e-02 0.0 
1.121434042835e-02 9.932212739233e-02 0.0 
8.043666472204e-03 2.853451314853e-02 0.0 
1.039093150727e-02 1.744315080683e-02 0.0 
8.190870442473e-04 6.298982464244e-03 0.0 
1.637740753243e-02 2.674055805781e-02 0.0 
1.136191485089e-02 8.657553260922e-02 0.0 
2.211973774826e-02 1.216702909272e-01 0.0 
1.325439018192e-02 1.873501998989e-02 0.0 
2.753215414664e-03 7.130377058002e-02 0.0 
5.484173614221e-04 5.923802769495e-03 0.0 
1.821146616315e-02 1.383668838692e-01 0.0 
1.780475360192e-03 2.861439139297e-02 0.0 
1.382298158964e-02 5.734074862969e-02 0.0 
8.944717125985e-04 2.778925637154e-02 0.0 
3.027417154279e-02 4.538123266126e-02 0.0 
6.112833448753e-03 1.202328676006e-01 0.0 
2.672766114895e-02 1.177536931847e-01 0.0 
2.328101622151e-04 1.167077795842e-02 0.0 
1.504221155601e-02 2.330896841101e-02 0.0 
8.768726332971e-03 8.135303306664e-02 0.0 
3.165409837912e-03 8.608705390854e-02 0.0 
8.883605934784e-05 6.172110189657e-02 0.0 
8.079944634421e-03 6.021381453137e-02 0.0 
2.195435183484e-03 1.321724740676e-02 0.0 
2.468578819183e-02 3.385025693714e-02 0.0 
4.552446095243e-04 1.207814305900e-02 0.0 
9.343781974459e-04 7.344137024630e-02 0.0 
8.929041138590e-03 6.582561447792e-02 0.0 
2.813061409258e-03 1.253829632675e-02 0.0 
1.365890270975e-02 1.865871960987e-02 0.0 
1.375522218295e-02 5.538778781546e-02 0.0 
2.744602112180e-03 1.144640358421e-02 0.0 
5.438659360539e-03 7.772347277010e-02 0.0 
1.171569376705e-02 1.534041117076e-01 0.0 
7.939611030501e-03 6.988372631617e-02 0.0 
3.765701398226e-04 5.927502532128e-03 0.0 
4.518170212499e-03 2.716786989703e-02 0.0 
-1.511028477874e-04 5.944002143927e-02 0.0 
2.531120259033e-02 1.403798282471e-01 0.0 
7.781674870786e-04 6.961515630851e-02 0.0 
1.653385260994e-02 2.471547213177e-02 0.0 
8.738142331183e-03 6.025595354148e-02 0.0 
3.001302429638e-03 2.578321538648e-02 0.0 
3.702220672693e-03 1.259452275935e-02 0.0 
1.021424114393e-02 2.370315467422e-02 0.0 
3.081465384955e-03 6.185113346802e-03 0.0 
6.611826499658e-03 6.809530679248e-02 0.0 
9.457482265415e-03 1.529534646583e-02 0.0 
6.973066640413e-03 1.981482011232e-02 0.0 
6.589941462842e-03 1.524142883911e-01 0.0 
1.298135997858e-02 2.420172404945e-02 0.0 
3.071951197966e-04 6.524871758893e-02 0.0 
4.994265993290e-03 7.073393097241e-02 0.0 
1.705126545204e-04 1.288823964056e-02 0.0 
1.129010978520e-03 7.241714102256e-02 0.0 
1.121845345438e-03 1.522009980707e-01 0.0 
4.324089620911e-05 5.457414097602e-03 0.0 
3.595044313873e-03 7.266771407297e-02 0.0 
2.369388813115e-03 1.281170562145e-01 0.0 
1.360260896466e-02 1.845109049817e-02 0.0 
-1.094351242823e-04 5.135605082795e-02 0.0 
1.363584247223e-03 5.577764170254e-02 0.0 
1.023190788311e-02 5.618565893109e-02 0.0 
5.140788046003e-03 6.211003506072e-02 0.0 
1.914187289657e-03 1.008991047058e-01 0.0 
8.706056924439e-03 1.534245541892e-02 0.0 
7.702860628982e-03 2.353976014571e-02 0.0 
4.923264970792e-03 1.116660359850e-01 0.0 
1.218246802736e-02 7.687783896067e-02 0.0 
1.884987803204e-02 2.562926547128e-02 0.0 
-2.759790152411e-04 5.646293999921e-02 0.0 
1.786597934411e-02 2.530404522533e-02 0.0 
8.735707077623e-03 2.061082145259e-02 0.0 
1.996630231758e-03 7.972323867694e-02 0.0 
-1.042710473306e-04 4.670749425768e-02 0.0 
8.454702510337e-03 6.849328621569e-02 0.0 
1.233322439853e-03 1.148950266775e-02 0.0 
-2.285769881247e-04 5.495943235504e-02 0.0 

VECTORS node_bounda_dof_materi_velocity_x float
1.000000000000e+00 0.0 0.0 
1.000000000000e+00 0.0 0.0 
1.000000000000e+00 0.0 0.0 
1.000000000000e+00 0.0 0.0 
1.000000000000e+00 0.0 0.0 
1.000000000000e+00 0.0 0.0 
1.000000000000e+00 0.0 0.0 
1.000000000000e+00 0.0 0.0 
1.000000000000e+00 0.0 0.0 
1.000000000000e+00 0.0 0.0 
1.000000000000e+00 0.0 0.0 
1.000000000000e+00 0.0 0.0 
1.000000000000e+00 0.0 0.0 
1.000000000000e+00 0.0 0.0 
1.000000000000e+00 0.0 0.0 
1.000000000000e+00 0.0 0.0 
1.000000000000e+00 0.0 0.0 
1.000000000000e+00 0.0 0.0 
1.000000000000e+00 0.0 0.0 
1.000000000000e+00 0.0 0.0 
1.000000000000e+00 0.0 0.0 
1.000000000000e+00 0.0 0.0 
1.000000000000e+00 0.0 0.0 
1.000000000000e+00 0.0 0.0 
1.000000000000e+00 0.0 0.0 
1.000000000000e+00 0.0 0.0 
1.000000000000e+00 0.0 0.0 
1.000000000000e+00 0.0 0.0 
1.000000000000e+00 0.0 0.0 
1.000000000000e+00 0.0 0.0 
1.000000000000e+00 0.0 0.0 
1.000000000000e+00 0.0 0.0 
1.000000000000e+00 0.0 0.0 
1.000000000000e+00 0.0 0.0 
1.000000000000e+00 0.0 0.0 
1.000000000000e+00 0.0 0.0 
1.000000000000e+00 0.0 0.0 
1.000000000000e+00 0.0 0.0 
1.000000000000e+00 0.0 0.0 
1.000000000000e+00 0.0 0.0 
1.000000000000e+00 0.0 0.0 
1.000000000000e+00 0.0 0.0 
1.000000000000e+00 0.0 0.0 
1.000000000000e+00 0.0 0.0 
1.000000000000e+00 0.0 0.0 
1.000000000000e+00 0.0 0.0 
1.000000000000e+00 0.0 0.0 
1.000000000000e+00 0.0 0.0 
1.000000000000e+00 0.0 0.0 
1.000000000000e+00 0.0 0.0 
1.000000000000e+00 0.0 0.0 
1.000000000000e+00 0.0 0.0 
1.000000000000e+00 0.0 0.0 
1.000000000000e+00 0.0 0.0 
1.000000000000e+00 0.0 0.0 
1.000000000000e+00 0.0 0.0 
1.000000000000e+00 0.0 0.0 
1.000000000000e+00 0.0 0.0 
1.000000000000e+00 0.0 0.0 
1.000000000000e+00 0.0 0.0 
1.000000000000e+00 0.0 0.0 
1.000000000000e+00 0.0 0.0 
1.000000000000e+00 0.0 0.0 
1.000000000000e+00 0.0 0.0 
1.000000000000e+00 0.0 0.0 
1.000000000000e+00 0.0 0.0 
1.000000000000e+00 0.0 0.0 
1.000000000000e+00 0.0 0.0 
1.000000000000e+00 0.0 0.0 
1.000000000000e+00 0.0 0.0 
1.000000000000e+00 0.0 0.0 
1.000000000000e+00 0.0 0.0 
1.000000000000e+00 0.0 0.0 
1.000000000000e+00 0.0 0.0 
1.000000000000e+00 0.0 0.0 
1.000000000000e+00 0.0 0.0 
1.000000000000e+00 0.0 0.0 
1.000000000000e+00 0.0 0.0 
1.000000000000e+00 0.0 0.0 
1.000000000000e+00 0.0 0.0 
1.000000000000e+00 0.0 0.0 
0.0 0.0 0.0 
0.0 0.0 0.0 
0.0 0.0 0.0 
0.0 0.0 0.0 
0.0 0.0 0.0 
0.0 0.0 0.0 
0.0 0.0 0.0 
0.0 0.0 0.0 
0.0 0.0 0.0 
0.0 0.0 0.0 
0.0 0.0 0.0 
0.0 0.0 0.0 
0.0 0.0 0.0 
0.0 0.0 0.0 
0.0 0.0 0.0 
0.0 0.0 0.0 
0.0 0.0 0.0 
0.0 0.0 0.0 
0.0 0.0 0.0 
0.0 0.0 0.0 
0.0 0.0 0.0 
0.0 0.0 0.0 
0.0 0.0 0.0 
0.0 0.0 0.0 
0.0 0.0 0.0 
0.0 0.0 0.0 
0.0 0.0 0.0 
0.0 0.0 0.0 
0.0 0.0 0.0 
0.0 0.0 0.0 
0.0 0.0 0.0 
0.0 0.0 0.0 
0.0 0.0 0.0 
0.0 0.0 0.0 
0.0 0.0 0.0 
0.0 0.0 0.0 
0.0 0.0 0.0 
0.0 0.0 0.0 
0.0 0.0 0.0 
0.0 0.0 0.0 
0.0 0.0 0.0 
0.0 0.0 0.0 
0.0 0.0 0.0 
0.0 0.0 0.0 
0.0 0.0 0.0 
0.0 0.0 0.0 
0.0 0.0 0.0 
0.0 0.0 0.0 
0.0 0.0 0.0 
0.0 0.0 0.0 
0.0 0.0 0.0 
0.0 0.0 0.0 
0.0 0.0 0.0 
0.0 0.0 0.0 
0.0 0.0 0.0 
0.0 0.0 0.0 
0.0 0.0 0.0 
0.0 0.0 0.0 
0.0 0.0 0.0 
0.0 0.0 0.0 
0.0 0.0 0.0 
0.0 0.0 0.0 
0.0 0.0 0.0 
0.0 0.0 0.0 
0.0 0.0 0.0 
0.0 0.0 0.0 
0.0 0.0 0.0 
0.0 0.0 0.0 
0.0 0.0 0.0 
0.0 0.0 0.0 
0.0 0.0 0.0 
0.0 0.0 0.0 
0.0 0.0 0.0 
0.0 0.0 0.0 
0.0 0.0 0.0 
0.0 0.0 0.0 
0.0 0.0 0.0 
0.0 0.0 0.0 
0.0 0.0 0.0 
0.0 0.0 0.0 
0.0 0.0 0.0 
0.0 0.0 0.0 
0.0 0.0 0.0 
0.0 0.0 0.0 
0.0 0.0 0.0 
0.0 0.0 0.0 
0.0 0.0 0.0 
0.0 0.0 0.0 
0.0 0.0 0.0 
0.0 0.0 0.0 
0.0 0.0 0.0 
0.0 0.0 0.0 
0.0 0.0 0.0 
0.0 0.0 0.0 
0.0 0.0 0.0 
0.0 0.0 0.0 
0.0 0.0 0.0 
0.0 0.0 0.0 
0.0 0.0 0.0 
0.0 0.0 0.0 
0.0 0.0 0.0 
0.0 0.0 0.0 
0.0 0.0 0.0 
0.0 0.0 0.0 
0.0 0.0 0.0 
0.0 0.0 0.0 
0.0 0.0 0.0 
0.0 0.0 0.0 
0.0 0.0 0.0 
0.0 0.0 0.0 
0.0 0.0 0.0 
0.0 0.0 0.0 
0.0 0.0 0.0 
0.0 0.0 0.0 
0.0 0.0 0.0 
0.0 0.0 0.0 
0.0 0.0 0.0 
0.0 0.0 0.0 
0.0 0.0 0.0 
0.0 0.0 0.0 
0.0 0.0 0.0 
0.0 0.0 0.0 
0.0 0.0 0.0 
0.0 0.0 0.0 
0.0 0.0 0.0 
0.0 0.0 0.0 
0.0 0.0 0.0 
0.0 0.0 0.0 
0.0 0.0 0.0 
0.0 0.0 0.0 
0.0 0.0 0.0 
0.0 0.0 0.0 
0.0 0.0 0.0 
0.0 0.0 0.0 
0.0 0.0 0.0 
0.0 0.0 0.0 
0.0 0.0 0.0 
0.0 0.0 0.0 
0.0 0.0 0.0 
0.0 0.0 0.0 
0.0 0.0 0.0 
0.0 0.0 0.0 
0.0 0.0 0.0 
0.0 0.0 0.0 
0.0 0.0 0.0 
0.0 0.0 0.0 
0.0 0.0 0.0 
0.0 0.0 0.0 
0.0 0.0 0.0 
0.0 0.0 0.0 
0.0 0.0 0.0 
0.0 0.0 0.0 
0.0 0.0 0.0 
0.0 0.0 0.0 
0.0 0.0 0.0 
0.0 0.0 0.0 
0.0 0.0 0.0 
0.0 0.0 0.0 
0.0 0.0 0.0 
0.0 0.0 0.0 
0.0 0.0 0.0 
0.0 0.0 0.0 
0.0 0.0 0.0 
0.0 0.0 0.0 
0.0 0.0 0.0 
0.0 0.0 0.0 
0.0 0.0 0.0 
0.0 0.0 0.0 
0.0 0.0 0.0 
0.0 0.0 0.0 
0.0 0.0 0.0 
0.0 0.0 0.0 
0.0 0.0 0.0 
0.0 0.0 0.0 
0.0 0.0 0.0 
0.0 0.0 0.0 
0.0 0.0 0.0 
0.0 0.0 0.0 
0.0 0.0 0.0 
0.0 0.0 0.0 
0.0 0.0 0.0 
0.0 0.0 0.0 
0.0 0.0 0.0 
0.0 0.0 0.0 
0.0 0.0 0.0 
0.0 0.0 0.0 
0.0 0.0 0.0 
0.0 0.0 0.0 
0.0 0.0 0.0 
0.0 0.0 0.0 
0.0 0.0 0.0 
0.0 0.0 0.0 
0.0 0.0 0.0 
0.0 0.0 0.0 
0.0 0.0 0.0 
0.0 0.0 0.0 
0.0 0.0 0.0 
0.0 0.0 0.0 
0.0 0.0 0.0 
0.0 0.0 0.0 
0.0 0.0 0.0 
0.0 0.0 0.0 
0.0 0.0 0.0 
0.0 0.0 0.0 
0.0 0.0 0.0 
0.0 0.0 0.0 
0.0 0.0 0.0 
0.0 0.0 0.0 
0.0 0.0 0.0 
0.0 0.0 0.0 
0.0 0.0 0.0 
0.0 0.0 0.0 
0.0 0.0 0.0 
0.0 0.0 0.0 
0.0 0.0 0.0 
0.0 0.0 0.0 
0.0 0.0 0.0 
0.0 0.0 0.0 
0.0 0.0 0.0 
0.0 0.0 0.0 
0.0 0.0 0.0 
0.0 0.0 0.0 
0.0 0.0 0.0 
0.0 0.0 0.0 
0.0 0.0 0.0 
0.0 0.0 0.0 
0.0 0.0 0.0 
0.0 0.0 0.0 
0.0 0.0 0.0 
0.0 0.0 0.0 
0.0 0.0 0.0 
0.0 0.0 0.0 
0.0 0.0 0.0 
0.0 0.0 0.0 
0.0 0.0 0.0 
0.0 0.0 0.0 
0.0 0.0 0.0 
0.0 0.0 0.0 
0.0 0.0 0.0 
0.0 0.0 0.0 
0.0 0.0 0.0 
0.0 0.0 0.0 
0.0 0.0 0.0 
0.0 0.0 0.0 
0.0 0.0 0.0 
0.0 0.0 0.0 
0.0 0.0 0.0 
0.0 0.0 0.0 
0.0 0.0 0.0 
0.0 0.0 0.0 
0.0 0.0 0.0 
0.0 0.0 0.0 
0.0 0.0 0.0 
0.0 0.0 0.0 
0.0 0.0 0.0 
0.0 0.0 0.0 
0.0 0.0 0.0 
0.0 0.0 0.0 
0.0 0.0 0.0 
0.0 0.0 0.0 
0.0 0.0 0.0 
0.0 0.0 0.0 
0.0 0.0 0.0 
0.0 0.0 0.0 
0.0 0.0 0.0 
0.0 0.0 0.0 
0.0 0.0 0.0 
0.0 0.0 0.0 
0.0 0.0 0.0 
0.0 0.0 0.0 
0.0 0.0 0.0 
0.0 0.0 0.0 
0.0 0.0 0.0 
0.0 0.0 0.0 
0.0 0.0 0.0 
0.0 0.0 0.0 
0.0 0.0 0.0 
0.0 0.0 0.0 
0.0 0.0 0.0 
0.0 0.0 0.0 
0.0 0.0 0.0 
0.0 0.0 0.0 
0.0 0.0 0.0 
0.0 0.0 0.0 
0.0 0.0 0.0 
0.0 0.0 0.0 
0.0 0.0 0.0 
0.0 0.0 0.0 
0.0 0.0 0.0 
0.0 0.0 0.0 
0.0 0.0 0.0 
0.0 0.0 0.0 
0.0 0.0 0.0 
0.0 0.0 0.0 
0.0 0.0 0.0 
0.0 0.0 0.0 
0.0 0.0 0.0 
0.0 0.0 0.0 
0.0 0.0 0.0 
0.0 0.0 0.0 
0.0 0.0 0.0 
0.0 0.0 0.0 
0.0 0.0 0.0 
0.0 0.0 0.0 
0.0 0.0 0.0 
0.0 0.0 0.0 
0.0 0.0 0.0 
0.0 0.0 0.0 
0.0 0.0 0.0 
0.0 0.0 0.0 
0.0 0.0 0.0 
0.0 0.0 0.0 
0.0 0.0 0.0 
0.0 0.0 0.0 
0.0 0.0 0.0 
0.0 0.0 0.0 
0.0 0.0 0.0 
0.0 0.0 0.0 
0.0 0.0 0.0 
0.0 0.0 0.0 
0.0 0.0 0.0 
0.0 0.0 0.0 
0.0 0.0 0.0 
0.0 0.0 0.0 
0.0 0.0 0.0 
0.0 0.0 0.0 
0.0 0.0 0.0 
0.0 0.0 0.0 
0.0 0.0 0.0 
0.0 0.0 0.0 
0.0 0.0 0.0 
0.0 0.0 0.0 
0.0 0.0 0.0 
0.0 0.0 0.0 
0.0 0.0 0.0 
0.0 0.0 0.0 
0.0 0.0 0.0 
0.0 0.0 0.0 
0.0 0.0 0.0 
0.0 0.0 0.0 
0.0 0.0 0.0 
0.0 0.0 0.0 
0.0 0.0 0.0 
0.0 0.0 0.0 
0.0 0.0 0.0 
0.0 0.0 0.0 
0.0 0.0 0.0 
0.0 0.0 0.0 
0.0 0.0 0.0 
0.0 0.0 0.0 
0.0 0.0 0.0 
0.0 0.0 0.0 
0.0 0.0 0.0 
0.0 0.0 0.0 
0.0 0.0 0.0 
0.0 0.0 0.0 
0.0 0.0 0.0 
0.0 0.0 0.0 
0.0 0.0 0.0 
0.0 0.0 0.0 
0.0 0.0 0.0 
0.0 0.0 0.0 
0.0 0.0 0.0 
0.0 0.0 0.0 
0.0 0.0 0.0 
0.0 0.0 0.0 
0.0 0.0 0.0 
0.0 0.0 0.0 
0.0 0.0 0.0 
0.0 0.0 0.0 
0.0 0.0 0.0 
0.0 0.0 0.0 
0.0 0.0 0.0 
0.0 0.0 0.0 
0.0 0.0 0.0 
0.0 0.0 0.0 
0.0 0.0 0.0 
0.0 0.0 0.0 
0.0 0.0 0.0 
0.0 0.0 0.0 
0.0 0.0 0.0 
0.0 0.0 0.0 
0.0 0.0 0.0 
0.0 0.0 0.0 
0.0 0.0 0.0 
0.0 0.0 0.0 
0.0 0.0 0.0 
0.0 0.0 0.0 
0.0 0.0 0.0 
0.0 0.0 0.0 
0.0 0.0 0.0 
0.0 0.0 0.0 
0.0 0.0 0.0 
0.0 0.0 0.0 
0.0 0.0 0.0 
0.0 0.0 0.0 
0.0 0.0 0.0 
0.0 0.0 0.0 
0.0 0.0 0.0 
0.0 0.0 0.0 
0.0 0.0 0.0 
0.0 0.0 0.0 
0.0 0.0 0.0 
0.0 0.0 0.0 
0.0 0.0 0.0 
0.0 0.0 0.0 
0.0 0.0 0.0 
0.0 0.0 0.0 
0.0 0.0 0.0 
0.0 0.0 0.0 
0.0 0.0 0.0 
0.0 0.0 0.0 
0.0 0.0 0.0 
0.0 0.0 0.0 
0.0 0.0 0.0 
0.0 0.0 0.0 
0.0 0.0 0.0 
0.0 0.0 0.0 
0.0 0.0 0.0 
0.0 0.0 0.0 
0.0 0.0 0.0 
0.0 0.0 0.0 
0.0 0.0 0.0 
0.0 0.0 0.0 
0.0 0.0 0.0 
0.0 0.0 0.0 
0.0 0.0 0.0 
0.0 0.0 0.0 
0.0 0.0 0.0 
0.0 0.0 0.0 
0.0 0.0 0.0 
0.0 0.0 0.0 
0.0 0.0 0.0 
0.0 0.0 0.0 
0.0 0.0 0.0 
0.0 0.0 0.0 
0.0 0.0 0.0 
0.0 0.0 0.0 
0.0 0.0 0.0 
0.0 0.0 0.0 
0.0 0.0 0.0 
0.0 0.0 0.0 
0.0 0.0 0.0 
0.0 0.0 0.0 
0.0 0.0 0.0 
0.0 0.0 0.0 
0.0 0.0 0.0 
0.0 0.0 0.0 
0.0 0.0 0.0 
0.0 0.0 0.0 
0.0 0.0 0.0 
0.0 0.0 0.0 
0.0 0.0 0.0 
0.0 0.0 0.0 
0.0 0.0 0.0 
0.0 0.0 0.0 
0.0 0.0 0.0 
0.0 0.0 0.0 
0.0 0.0 0.0 
0.0 0.0 0.0 
0.0 0.0 0.0 
0.0 0.0 0.0 
0.0 0.0 0.0 
0.0 0.0 0.0 
0.0 0.0 0.0 
0.0 0.0 0.0 
0.0 0.0 0.0 
0.0 0.0 0.0 
0.0 0.0 0.0 
0.0 0.0 0.0 
0.0 0.0 0.0 
0.0 0.0 0.0 
0.0 0.0 0.0 
0.0 0.0 0.0 
0.0 0.0 0.0 
0.0 0.0 0.0 
0.0 0.0 0.0 
0.0 0.0 0.0 
0.0 0.0 0.0 
0.0 0.0 0.0 
0.0 0.0 0.0 
0.0 0.0 0.0 
0.0 0.0 0.0 
0.0 0.0 0.0 
0.0 0.0 0.0 
0.0 0.0 0.0 
0.0 0.0 0.0 
0.0 0.0 0.0 
0.0 0.0 0.0 
0.0 0.0 0.0 
0.0 0.0 0.0 
0.0 0.0 0.0 
0.0 0.0 0.0 
0.0 0.0 0.0 
0.0 0.0 0.0 
0.0 0.0 0.0 
0.0 0.0 0.0 
0.0 0.0 0.0 
0.0 0.0 0.0 
0.0 0.0 0.0 
0.0 0.0 0.0 
0.0 0.0 0.0 
0.0 0.0 0.0 
0.0 0.0 0.0 
0.0 0.0 0.0 
0.0 0.0 0.0 
0.0 0.0 0.0 
0.0 0.0 0.0 
0.0 0.0 0.0 
0.0 0.0 0.0 
0.0 0.0 0.0 
0.0 0.0 0.0 
0.0 0.0 0.0 
0.0 0.0 0.0 
0.0 0.0 0.0 
0.0 0.0 0.0 
0.0 0.0 0.0 
0.0 0.0 0.0 
0.0 0.0 0.0 
0.0 0.0 0.0 
0.0 0.0 0.0 
0.0 0.0 0.0 
0.0 0.0 0.0 
0.0 0.0 0.0 
0.0 0.0 0.0 
0.0 0.0 0.0 
0.0 0.0 0.0 
0.0 0.0 0.0 
0.0 0.0 0.0 
0.0 0.0 0.0 
0.0 0.0 0.0 
0.0 0.0 0.0 
0.0 0.0 0.0 
0.0 0.0 0.0 
0.0 0.0 0.0 
0.0 0.0 0.0 
0.0 0.0 0.0 
0.0 0.0 0.0 
0.0 0.0 0.0 
0.0 0.0 0.0 
0.0 0.0 0.0 
0.0 0.0 0.0 
0.0 0.0 0.0 
0.0 0.0 0.0 
0.0 0.0 0.0 
0.0 0.0 0.0 
0.0 0.0 0.0 
0.0 0.0 0.0 
0.0 0.0 0.0 
0.0 0.0 0.0 
0.0 0.0 0.0 
0.0 0.0 0.0 
0.0 0.0 0.0 
0.0 0.0 0.0 
0.0 0.0 0.0 
0.0 0.0 0.0 
0.0 0.0 0.0 
0.0 0.0 0.0 
0.0 0.0 0.0 
0.0 0.0 0.0 
0.0 0.0 0.0 
0.0 0.0 0.0 
0.0 0.0 0.0 
0.0 0.0 0.0 
0.0 0.0 0.0 
0.0 0.0 0.0 
0.0 0.0 0.0 
0.0 0.0 0.0 
0.0 0.0 0.0 
0.0 0.0 0.0 
0.0 0.0 0.0 
0.0 0.0 0.0 
0.0 0.0 0.0 
0.0 0.0 0.0 
0.0 0.0 0.0 
0.0 0.0 0.0 
0.0 0.0 0.0 
0.0 0.0 0.0 
0.0 0.0 0.0 
0.0 0.0 0.0 
0.0 0.0 0.0 
0.0 0.0 0.0 
0.0 0.0 0.0 
0.0 0.0 0.0 
0.0 0.0 0.0 
0.0 0.0 0.0 
0.0 0.0 0.0 
0.0 0.0 0.0 
0.0 0.0 0.0 
0.0 0.0 0.0 
0.0 0.0 0.0 
0.0 0.0 0.0 
0.0 0.0 0.0 
0.0 0.0 0.0 
0.0 0.0 0.0 
0.0 0.0 0.0 
0.0 0.0 0.0 
0.0 0.0 0.0 
0.0 0.0 0.0 
0.0 0.0 0.0 
0.0 0.0 0.0 
0.0 0.0 0.0 
0.0 0.0 0.0 
0.0 0.0 0.0 
0.0 0.0 0.0 
0.0 0.0 0.0 
0.0 0.0 0.0 
0.0 0.0 0.0 
0.0 0.0 0.0 
0.0 0.0 0.0 
0.0 0.0 0.0 
0.0 0.0 0.0 
0.0 0.0 0.0 
0.0 0.0 0.0 
0.0 0.0 0.0 
0.0 0.0 0.0 
0.0 0.0 0.0 
0.0 0.0 0.0 
0.0 0.0 0.0 
0.0 0.0 0.0 
0.0 0.0 0.0 
0.0 0.0 0.0 
0.0 0.0 0.0 
0.0 0.0 0.0 
0.0 0.0 0.0 
0.0 0.0 0.0 
0.0 0.0 0.0 
0.0 0.0 0.0 
0.0 0.0 0.0 
0.0 0.0 0.0 
0.0 0.0 0.0 
0.0 0.0 0.0 
0.0 0.0 0.0 
0.0 0.0 0.0 
0.0 0.0 0.0 
0.0 0.0 0.0 
0.0 0.0 0.0 
0.0 0.0 0.0 
0.0 0.0 0.0 
0.0 0.0 0.0 
0.0 0.0 0.0 
0.0 0.0 0.0 
0.0 0.0 0.0 
0.0 0.0 0.0 
0.0 0.0 0.0 
0.0 0.0 0.0 
0.0 0.0 0.0 
0.0 0.0 0.0 
0.0 0.0 0.0 
0.0 0.0 0.0 
0.0 0.0 0.0 
0.0 0.0 0.0 
0.0 0.0 0.0 
0.0 0.0 0.0 
0.0 0.0 0.0 
0.0 0.0 0.0 
0.0 0.0 0.0 
0.0 0.0 0.0 
0.0 0.0 0.0 
0.0 0.0 0.0 
0.0 0.0 0.0 
0.0 0.0 0.0 
0.0 0.0 0.0 
0.0 0.0 0.0 
0.0 0.0 0.0 
0.0 0.0 0.0 
0.0 0.0 0.0 
0.0 0.0 0.0 
0.0 0.0 0.0 
0.0 0.0 0.0 
0.0 0.0 0.0 
0.0 0.0 0.0 
0.0 0.0 0.0 
0.0 0.0 0.0 
0.0 0.0 0.0 
0.0 0.0 0.0 
0.0 0.0 0.0 
0.0 0.0 0.0 
0.0 0.0 0.0 
0.0 0.0 0.0 
0.0 0.0 0.0 
0.0 0.0 0.0 
0.0 0.0 0.0 
0.0 0.0 0.0 
0.0 0.0 0.0 
0.0 0.0 0.0 
0.0 0.0 0.0 
0.0 0.0 0.0 
0.0 0.0 0.0 
0.0 0.0 0.0 
0.0 0.0 0.0 
0.0 0.0 0.0 
0.0 0.0 0.0 
0.0 0.0 0.0 
0.0 0.0 0.0 
0.0 0.0 0.0 
0.0 0.0 0.0 
0.0 0.0 0.0 
0.0 0.0 0.0 
0.0 0.0 0.0 
0.0 0.0 0.0 
0.0 0.0 0.0 
0.0 0.0 0.0 
0.0 0.0 0.0 
0.0 0.0 0.0 
0.0 0.0 0.0 
0.0 0.0 0.0 
0.0 0.0 0.0 
0.0 0.0 0.0 
0.0 0.0 0.0 
0.0 0.0 0.0 
0.0 0.0 0.0 
0.0 0.0 0.0 
0.0 0.0 0.0 
0.0 0.0 0.0 
0.0 0.0 0.0 
0.0 0.0 0.0 
0.0 0.0 0.0 
0.0 0.0 0.0 
0.0 0.0 0.0 
0.0 0.0 0.0 
0.0 0.0 0.0 
0.0 0.0 0.0 
0.0 0.0 0.0 
0.0 0.0 0.0 
0.0 0.0 0.0 
0.0 0.0 0.0 
0.0 0.0 0.0 
0.0 0.0 0.0 
0.0 0.0 0.0 
0.0 0.0 0.0 
0.0 0.0 0.0 
0.0 0.0 0.0 
0.0 0.0 0.0 
0.0 0.0 0.0 
0.0 0.0 0.0 
0.0 0.0 0.0 
0.0 0.0 0.0 
0.0 0.0 0.0 
0.0 0.0 0.0 
0.0 0.0 0.0 
0.0 0.0 0.0 
0.0 0.0 0.0 
0.0 0.0 0.0 
0.0 0.0 0.0 
0.0 0.0 0.0 
0.0 0.0 0.0 
0.0 0.0 0.0 
0.0 0.0 0.0 
0.0 0.0 0.0 
0.0 0.0 0.0 
0.0 0.0 0.0 
0.0 0.0 0.0 
0.0 0.0 0.0 
0.0 0.0 0.0 
0.0 0.0 0.0 
0.0 0.0 0.0 
0.0 0.0 0.0 
0.0 0.0 0.0 
0.0 0.0 0.0 
0.0 0.0 0.0 
0.0 0.0 0.0 
0.0 0.0 0.0 
0.0 0.0 0.0 
0.0 0.0 0.0 
0.0 0.0 0.0 
0.0 0.0 0.0 
0.0 0.0 0.0 
0.0 0.0 0.0 
0.0 0.0 0.0 
0.0 0.0 0.0 
0.0 0.0 0.0 
0.0 0.0 0.0 
0.0 0.0 0.0 
0.0 0.0 0.0 
0.0 0.0 0.0 
0.0 0.0 0.0 
0.0 0.0 0.0 
0.0 0.0 0.0 
0.0 0.0 0.0 
0.0 0.0 0.0 
0.0 0.0 0.0 
0.0 0.0 0.0 
0.0 0.0 0.0 
0.0 0.0 0.0 
0.0 0.0 0.0 
0.0 0.0 0.0 
0.0 0.0 0.0 
0.0 0.0 0.0 
0.0 0.0 0.0 
0.0 0.0 0.0 
0.0 0.0 0.0 
0.0 0.0 0.0 
0.0 0.0 0.0 
0.0 0.0 0.0 
0.0 0.0 0.0 
0.0 0.0 0.0 
0.0 0.0 0.0 
0.0 0.0 0.0 
0.0 0.0 0.0 
0.0 0.0 0.0 
0.0 0.0 0.0 
0.0 0.0 0.0 
0.0 0.0 0.0 
0.0 0.0 0.0 
0.0 0.0 0.0 
0.0 0.0 0.0 
0.0 0.0 0.0 
0.0 0.0 0.0 
0.0 0.0 0.0 
0.0 0.0 0.0 
0.0 0.0 0.0 
0.0 0.0 0.0 
0.0 0.0 0.0 
0.0 0.0 0.0 
0.0 0.0 0.0 
0.0 0.0 0.0 
0.0 0.0 0.0 
0.0 0.0 0.0 
0.0 0.0 0.0 
0.0 0.0 0.0 
0.0 0.0 0.0 
0.0 0.0 0.0 
0.0 0.0 0.0 
0.0 0.0 0.0 
0.0 0.0 0.0 
0.0 0.0 0.0 
0.0 0.0 0.0 
0.0 0.0 0.0 
0.0 0.0 0.0 
0.0 0.0 0.0 
0.0 0.0 0.0 
0.0 0.0 0.0 
0.0 0.0 0.0 
0.0 0.0 0.0 
0.0 0.0 0.0 
0.0 0.0 0.0 
0.0 0.0 0.0 
0.0 0.0 0.0 
0.0 0.0 0.0 
0.0 0.0 0.0 
0.0 0.0 0.0 
0.0 0.0 0.0 
0.0 0.0 0.0 
0.0 0.0 0.0 
0.0 0.0 0.0 
0.0 0.0 0.0 
0.0 0.0 0.0 
0.0 0.0 0.0 
0.0 0.0 0.0 
0.0 0.0 0.0 
0.0 0.0 0.0 
0.0 0.0 0.0 
0.0 0.0 0.0 
0.0 0.0 0.0 
0.0 0.0 0.0 
0.0 0.0 0.0 
0.0 0.0 0.0 
0.0 0.0 0.0 
0.0 0.0 0.0 
0.0 0.0 0.0 
0.0 0.0 0.0 
0.0 0.0 0.0 
0.0 0.0 0.0 
0.0 0.0 0.0 
0.0 0.0 0.0 
0.0 0.0 0.0 
0.0 0.0 0.0 
0.0 0.0 0.0 
0.0 0.0 0.0 
0.0 0.0 0.0 
0.0 0.0 0.0 
0.0 0.0 0.0 
0.0 0.0 0.0 
0.0 0.0 0.0 
0.0 0.0 0.0 
0.0 0.0 0.0 
0.0 0.0 0.0 
0.0 0.0 0.0 
0.0 0.0 0.0 
0.0 0.0 0.0 
0.0 0.0 0.0 
0.0 0.0 0.0 
0.0 0.0 0.0 
0.0 0.0 0.0 
0.0 0.0 0.0 
0.0 0.0 0.0 
0.0 0.0 0.0 
0.0 0.0 0.0 
0.0 0.0 0.0 
0.0 0.0 0.0 
0.0 0.0 0.0 
0.0 0.0 0.0 
0.0 0.0 0.0 
0.0 0.0 0.0 
0.0 0.0 0.0 
0.0 0.0 0.0 
0.0 0.0 0.0 
0.0 0.0 0.0 
0.0 0.0 0.0 
0.0 0.0 0.0 
0.0 0.0 0.0 
0.0 0.0 0.0 
0.0 0.0 0.0 
0.0 0.0 0.0 
0.0 0.0 0.0 
0.0 0.0 0.0 
0.0 0.0 0.0 
0.0 0.0 0.0 
0.0 0.0 0.0 
0.0 0.0 0.0 
0.0 0.0 0.0 
0.0 0.0 0.0 
0.0 0.0 0.0 
0.0 0.0 0.0 
0.0 0.0 0.0 
0.0 0.0 0.0 
0.0 0.0 0.0 
0.0 0.0 0.0 
0.0 0.0 0.0 
0.0 0.0 0.0 
0.0 0.0 0.0 
0.0 0.0 0.0 
0.0 0.0 0.0 
0.0 0.0 0.0 
0.0 0.0 0.0 
0.0 0.0 0.0 
0.0 0.0 0.0 
0.0 0.0 0.0 
0.0 0.0 0.0 
0.0 0.0 0.0 
0.0 0.0 0.0 
0.0 0.0 0.0 
0.0 0.0 0.0 
0.0 0.0 0.0 
0.0 0.0 0.0 
0.0 0.0 0.0 
0.0 0.0 0.0 
0.0 0.0 0.0 
0.0 0.0 0.0 
0.0 0.0 0.0 
0.0 0.0 0.0 
0.0 0.0 0.0 
0.0 0.0 0.0 
0.0 0.0 0.0 
0.0 0.0 0.0 
0.0 0.0 0.0 

VECTORS node_bounda_dof_materi_velocity_y float
0.0 0.0 0.0 
0.0 0.0 0.0 
0.0 1.000000000000e+00 0.0 
0.0 1.000000000000e+00 0.0 
0.0 0.0 0.0 
0.0 0.0 0.0 
0.0 0.0 0.0 
0.0 0.0 0.0 
0.0 0.0 0.0 
0.0 0.0 0.0 
0.0 0.0 0.0 
0.0 0.0 0.0 
0.0 0.0 0.0 
0.0 0.0 0.0 
0.0 0.0 0.0 
0.0 0.0 0.0 
0.0 0.0 0.0 
0.0 0.0 0.0 
0.0 0.0 0.0 
0.0 0.0 0.0 
0.0 0.0 0.0 
0.0 0.0 0.0 
0.0 0.0 0.0 
0.0 1.000000000000e+00 0.0 
0.0 1.000000000000e+00 0.0 
0.0 1.000000000000e+00 0.0 
0.0 1.000000000000e+00 0.0 
0.0 1.000000000000e+00 0.0 
0.0 1.000000000000e+00 0.0 
0.0 1.000000000000e+00 0.0 
0.0 1.000000000000e+00 0.0 
0.0 1.000000000000e+00 0.0 
0.0 1.000000000000e+00 0.0 
0.0 1.000000000000e+00 0.0 
0.0 1.000000000000e+00 0.0 
0.0 1.000000000000e+00 0.0 
0.0 1.000000000000e+00 0.0 
0.0 1.000000000000e+00 0.0 
0.0 1.000000000000e+00 0.0 
0.0 1.000000000000e+00 0.0 
0.0 1.000000000000e+00 0.0 
0.0 1.000000000000e+00 0.0 
0.0 1.000000000000e+00 0.0 
0.0 1.000000000000e+00 0.0 
0.0 1.000000000000e+00 0.0 
0.0 1.000000000000e+00 0.0 
0.0 1.000000000000e+00 0.0 
0.0 1.000000000000e+00 0.0 
0.0 1.000000000000e+00 0.0 
0.0 1.000000000000e+00 0.0 
0.0 1.000000000000e+00 0.0 
0.0 1.000000000000e+00 0.0 
0.0 1.000000000000e+00 0.0 
0.0 1.000000000000e+00 0.0 
0.0 1.000000000000e+00 0.0 
0.0 1.000000000000e+00 0.0 
0.0 1.000000000000e+00 0.0 
0.0 1.000000000000e+00 0.0 
0.0 1.000000000000e+00 0.0 
0.0 1.000000000000e+00 0.0 
0.0 1.000000000000e+00 0.0 
0.0 1.000000000000e+00 0.0 
0.0 1.000000000000e+00 0.0 
0.0 1.000000000000e+00 0.0 
0.0 1.000000000000e+00 0.0 
0.0 1.000000000000e+00 0.0 
0.0 1.000000000000e+00 0.0 
0.0 1.000000000000e+00 0.0 
0.0 1.000000000000e+00 0.0 
0.0 1.000000000000e+00 0.0 
0.0 1.000000000000e+00 0.0 
0.0 1.000000000000e+00 0.0 
0.0 0.0 0.0 
0.0 0.0 0.0 
0.0 0.0 0.0 
0.0 0.0 0.0 
0.0 0.0 0.0 
0.0 0.0 0.0 
0.0 0.0 0.0 
0.0 0.0 0.0 
0.0 0.0 0.0 
0.0 0.0 0.0 
0.0 0.0 0.0 
0.0 0.0 0.0 
0.0 0.0 0.0 
0.0 0.0 0.0 
0.0 0.0 0.0 
0.0 0.0 0.0 
0.0 0.0 0.0 
0.0 0.0 0.0 
0.0 0.0 0.0 
0.0 0.0 0.0 
0.0 0.0 0.0 
0.0 0.0 0.0 
0.0 0.0 0.0 
0.0 0.0 0.0 
0.0 0.0 0.0 
0.0 0.0 0.0 
0.0 0.0 0.0 
0.0 0.0 0.0 
0.0 0.0 0.0 
0.0 0.0 0.0 
0.0 0.0 0.0 
0.0 0.0 0.0 
0.0 0.0 0.0 
0.0 0.0 0.0 
0.0 0.0 0.0 
0.0 0.0 0.0 
0.0 0.0 0.0 
0.0 0.0 0.0 
0.0 0.0 0.0 
0.0 0.0 0.0 
0.0 0.0 0.0 
0.0 0.0 0.0 
0.0 0.0 0.0 
0.0 0.0 0.0 
0.0 0.0 0.0 
0.0 0.0 0.0 
0.0 0.0 0.0 
0.0 0.0 0.0 
0.0 0.0 0.0 
0.0 0.0 0.0 
0.0 0.0 0.0 
0.0 0.0 0.0 
0.0 0.0 0.0 
0.0 0.0 0.0 
0.0 0.0 0.0 
0.0 0.0 0.0 
0.0 0.0 0.0 
0.0 0.0 0.0 
0.0 0.0 0.0 
0.0 0.0 0.0 
0.0 0.0 0.0 
0.0 0.0 0.0 
0.0 0.0 0.0 
0.0 0.0 0.0 
0.0 0.0 0.0 
0.0 0.0 0.0 
0.0 0.0 0.0 
0.0 0.0 0.0 
0.0 0.0 0.0 
0.0 0.0 0.0 
0.0 0.0 0.0 
0.0 0.0 0.0 
0.0 0.0 0.0 
0.0 0.0 0.0 
0.0 0.0 0.0 
0.0 0.0 0.0 
0.0 0.0 0.0 
0.0 0.0 0.0 
0.0 0.0 0.0 
0.0 0.0 0.0 
0.0 0.0 0.0 
0.0 0.0 0.0 
0.0 0.0 0.0 
0.0 0.0 0.0 
0.0 0.0 0.0 
0.0 0.0 0.0 
0.0 0.0 0.0 
0.0 0.0 0.0 
0.0 0.0 0.0 
0.0 0.0 0.0 
0.0 0.0 0.0 
0.0 0.0 0.0 
0.0 0.0 0.0 
0.0 0.0 0.0 
0.0 0.0 0.0 
0.0 0.0 0.0 
0.0 0.0 0.0 
0.0 0.0 0.0 
0.0 0.0 0.0 
0.0 0.0 0.0 
0.0 0.0 0.0 
0.0 0.0 0.0 
0.0 0.0 0.0 
0.0 0.0 0.0 
0.0 0.0 0.0 
0.0 0.0 0.0 
0.0 0.0 0.0 
0.0 0.0 0.0 
0.0 0.0 0.0 
0.0 0.0 0.0 
0.0 0.0 0.0 
0.0 0.0 0.0 
0.0 0.0 0.0 
0.0 0.0 0.0 
0.0 0.0 0.0 
0.0 0.0 0.0 
0.0 0.0 0.0 
0.0 0.0 0.0 
0.0 0.0 0.0 
0.0 0.0 0.0 
0.0 0.0 0.0 
0.0 0.0 0.0 
0.0 0.0 0.0 
0.0 0.0 0.0 
0.0 0.0 0.0 
0.0 0.0 0.0 
0.0 0.0 0.0 
0.0 0.0 0.0 
0.0 0.0 0.0 
0.0 0.0 0.0 
0.0 0.0 0.0 
0.0 0.0 0.0 
0.0 0.0 0.0 
0.0 0.0 0.0 
0.0 0.0 0.0 
0.0 0.0 0.0 
0.0 0.0 0.0 
0.0 0.0 0.0 
0.0 0.0 0.0 
0.0 0.0 0.0 
0.0 0.0 0.0 
0.0 0.0 0.0 
0.0 0.0 0.0 
0.0 0.0 0.0 
0.0 0.0 0.0 
0.0 0.0 0.0 
0.0 0.0 0.0 
0.0 0.0 0.0 
0.0 0.0 0.0 
0.0 0.0 0.0 
0.0 0.0 0.0 
0.0 0.0 0.0 
0.0 0.0 0.0 
0.0 0.0 0.0 
0.0 0.0 0.0 
0.0 0.0 0.0 
0.0 0.0 0.0 
0.0 0.0 0.0 
0.0 0.0 0.0 
0.0 0.0 0.0 
0.0 0.0 0.0 
0.0 0.0 0.0 
0.0 0.0 0.0 
0.0 0.0 0.0 
0.0 0.0 0.0 
0.0 0.0 0.0 
0.0 0.0 0.0 
0.0 0.0 0.0 
0.0 0.0 0.0 
0.0 0.0 0.0 
0.0 0.0 0.0 
0.0 0.0 0.0 
0.0 0.0 0.0 
0.0 0.0 0.0 
0.0 0.0 0.0 
0.0 0.0 0.0 
0.0 0.0 0.0 
0.0 0.0 0.0 
0.0 0.0 0.0 
0.0 0.0 0.0 
0.0 0.0 0.0 
0.0 0.0 0.0 
0.0 0.0 0.0 
0.0 0.0 0.0 
0.0 0.0 0.0 
0.0 0.0 0.0 
0.0 0.0 0.0 
0.0 0.0 0.0 
0.0 0.0 0.0 
0.0 0.0 0.0 
0.0 0.0 0.0 
0.0 0.0 0.0 
0.0 0.0 0.0 
0.0 0.0 0.0 
0.0 0.0 0.0 
0.0 0.0 0.0 
0.0 0.0 0.0 
0.0 0.0 0.0 
0.0 0.0 0.0 
0.0 0.0 0.0 
0.0 0.0 0.0 
0.0 0.0 0.0 
0.0 0.0 0.0 
0.0 0.0 0.0 
0.0 0.0 0.0 
0.0 0.0 0.0 
0.0 0.0 0.0 
0.0 0.0 0.0 
0.0 0.0 0.0 
0.0 0.0 0.0 
0.0 0.0 0.0 
0.0 0.0 0.0 
0.0 0.0 0.0 
0.0 0.0 0.0 
0.0 0.0 0.0 
0.0 0.0 0.0 
0.0 0.0 0.0 
0.0 0.0 0.0 
0.0 0.0 0.0 
0.0 0.0 0.0 
0.0 0.0 0.0 
0.0 0.0 0.0 
0.0 0.0 0.0 
0.0 0.0 0.0 
0.0 0.0 0.0 
0.0 0.0 0.0 
0.0 0.0 0.0 
0.0 0.0 0.0 
0.0 0.0 0.0 
0.0 0.0 0.0 
0.0 0.0 0.0 
0.0 0.0 0.0 
0.0 0.0 0.0 
0.0 0.0 0.0 
0.0 0.0 0.0 
0.0 0.0 0.0 
0.0 0.0 0.0 
0.0 0.0 0.0 
0.0 0.0 0.0 
0.0 0.0 0.0 
0.0 0.0 0.0 
0.0 0.0 0.0 
0.0 0.0 0.0 
0.0 0.0 0.0 
0.0 0.0 0.0 
0.0 0.0 0.0 
0.0 0.0 0.0 
0.0 0.0 0.0 
0.0 0.0 0.0 
0.0 0.0 0.0 
0.0 0.0 0.0 
0.0 0.0 0.0 
0.0 0.0 0.0 
0.0 0.0 0.0 
0.0 0.0 0.0 
0.0 0.0 0.0 
0.0 0.0 0.0 
0.0 0.0 0.0 
0.0 0.0 0.0 
0.0 0.0 0.0 
0.0 0.0 0.0 
0.0 0.0 0.0 
0.0 0.0 0.0 
0.0 0.0 0.0 
0.0 0.0 0.0 
0.0 0.0 0.0 
0.0 0.0 0.0 
0.0 0.0 0.0 
0.0 0.0 0.0 
0.0 0.0 0.0 
0.0 0.0 0.0 
0.0 0.0 0.0 
0.0 0.0 0.0 
0.0 0.0 0.0 
0.0 0.0 0.0 
0.0 0.0 0.0 
0.0 0.0 0.0 
0.0 0.0 0.0 
0.0 0.0 0.0 
0.0 0.0 0.0 
0.0 0.0 0.0 
0.0 0.0 0.0 
0.0 0.0 0.0 
0.0 0.0 0.0 
0.0 0.0 0.0 
0.0 0.0 0.0 
0.0 0.0 0.0 
0.0 0.0 0.0 
0.0 0.0 0.0 
0.0 0.0 0.0 
0.0 0.0 0.0 
0.0 0.0 0.0 
0.0 0.0 0.0 
0.0 0.0 0.0 
0.0 0.0 0.0 
0.0 0.0 0.0 
0.0 0.0 0.0 
0.0 0.0 0.0 
0.0 0.0 0.0 
0.0 0.0 0.0 
0.0 0.0 0.0 
0.0 0.0 0.0 
0.0 0.0 0.0 
0.0 0.0 0.0 
0.0 0.0 0.0 
0.0 0.0 0.0 
0.0 0.0 0.0 
0.0 0.0 0.0 
0.0 0.0 0.0 
0.0 0.0 0.0 
0.0 0.0 0.0 
0.0 0.0 0.0 
0.0 0.0 0.0 
0.0 0.0 0.0 
0.0 0.0 0.0 
0.0 0.0 0.0 
0.0 0.0 0.0 
0.0 0.0 0.0 
0.0 0.0 0.0 
0.0 0.0 0.0 
0.0 0.0 0.0 
0.0 0.0 0.0 
0.0 0.0 0.0 
0.0 0.0 0.0 
0.0 0.0 0.0 
0.0 0.0 0.0 
0.0 0.0 0.0 
0.0 0.0 0.0 
0.0 0.0 0.0 
0.0 0.0 0.0 
0.0 0.0 0.0 
0.0 0.0 0.0 
0.0 0.0 0.0 
0.0 0.0 0.0 
0.0 0.0 0.0 
0.0 0.0 0.0 
0.0 0.0 0.0 
0.0 0.0 0.0 
0.0 0.0 0.0 
0.0 0.0 0.0 
0.0 0.0 0.0 
0.0 0.0 0.0 
0.0 0.0 0.0 
0.0 0.0 0.0 
0.0 0.0 0.0 
0.0 0.0 0.0 
0.0 0.0 0.0 
0.0 0.0 0.0 
0.0 0.0 0.0 
0.0 0.0 0.0 
0.0 0.0 0.0 
0.0 0.0 0.0 
0.0 0.0 0.0 
0.0 0.0 0.0 
0.0 0.0 0.0 
0.0 0.0 0.0 
0.0 0.0 0.0 
0.0 0.0 0.0 
0.0 0.0 0.0 
0.0 0.0 0.0 
0.0 0.0 0.0 
0.0 0.0 0.0 
0.0 0.0 0.0 
0.0 0.0 0.0 
0.0 0.0 0.0 
0.0 0.0 0.0 
0.0 0.0 0.0 
0.0 0.0 0.0 
0.0 0.0 0.0 
0.0 0.0 0.0 
0.0 0.0 0.0 
0.0 0.0 0.0 
0.0 0.0 0.0 
0.0 0.0 0.0 
0.0 0.0 0.0 
0.0 0.0 0.0 
0.0 0.0 0.0 
0.0 0.0 0.0 
0.0 0.0 0.0 
0.0 0.0 0.0 
0.0 0.0 0.0 
0.0 0.0 0.0 
0.0 0.0 0.0 
0.0 0.0 0.0 
0.0 0.0 0.0 
0.0 0.0 0.0 
0.0 0.0 0.0 
0.0 0.0 0.0 
0.0 0.0 0.0 
0.0 0.0 0.0 
0.0 0.0 0.0 
0.0 0.0 0.0 
0.0 0.0 0.0 
0.0 0.0 0.0 
0.0 0.0 0.0 
0.0 0.0 0.0 
0.0 0.0 0.0 
0.0 0.0 0.0 
0.0 0.0 0.0 
0.0 0.0 0.0 
0.0 0.0 0.0 
0.0 0.0 0.0 
0.0 0.0 0.0 
0.0 0.0 0.0 
0.0 0.0 0.0 
0.0 0.0 0.0 
0.0 0.0 0.0 
0.0 0.0 0.0 
0.0 0.0 0.0 
0.0 0.0 0.0 
0.0 0.0 0.0 
0.0 0.0 0.0 
0.0 0.0 0.0 
0.0 0.0 0.0 
0.0 0.0 0.0 
0.0 0.0 0.0 
0.0 0.0 0.0 
0.0 0.0 0.0 
0.0 0.0 0.0 
0.0 0.0 0.0 
0.0 0.0 0.0 
0.0 0.0 0.0 
0.0 0.0 0.0 
0.0 0.0 0.0 
0.0 0.0 0.0 
0.0 0.0 0.0 
0.0 0.0 0.0 
0.0 0.0 0.0 
0.0 0.0 0.0 
0.0 0.0 0.0 
0.0 0.0 0.0 
0.0 0.0 0.0 
0.0 0.0 0.0 
0.0 0.0 0.0 
0.0 0.0 0.0 
0.0 0.0 0.0 
0.0 0.0 0.0 
0.0 0.0 0.0 
0.0 0.0 0.0 
0.0 0.0 0.0 
0.0 0.0 0.0 
0.0 0.0 0.0 
0.0 0.0 0.0 
0.0 0.0 0.0 
0.0 0.0 0.0 
0.0 0.0 0.0 
0.0 0.0 0.0 
0.0 0.0 0.0 
0.0 0.0 0.0 
0.0 0.0 0.0 
0.0 0.0 0.0 
0.0 0.0 0.0 
0.0 0.0 0.0 
0.0 0.0 0.0 
0.0 0.0 0.0 
0.0 0.0 0.0 
0.0 0.0 0.0 
0.0 0.0 0.0 
0.0 0.0 0.0 
0.0 0.0 0.0 
0.0 0.0 0.0 
0.0 0.0 0.0 
0.0 0.0 0.0 
0.0 0.0 0.0 
0.0 0.0 0.0 
0.0 0.0 0.0 
0.0 0.0 0.0 
0.0 0.0 0.0 
0.0 0.0 0.0 
0.0 0.0 0.0 
0.0 0.0 0.0 
0.0 0.0 0.0 
0.0 0.0 0.0 
0.0 0.0 0.0 
0.0 0.0 0.0 
0.0 0.0 0.0 
0.0 0.0 0.0 
0.0 0.0 0.0 
0.0 0.0 0.0 
0.0 0.0 0.0 
0.0 0.0 0.0 
0.0 0.0 0.0 
0.0 0.0 0.0 
0.0 0.0 0.0 
0.0 0.0 0.0 
0.0 0.0 0.0 
0.0 0.0 0.0 
0.0 0.0 0.0 
0.0 0.0 0.0 
0.0 0.0 0.0 
0.0 0.0 0.0 
0.0 0.0 0.0 
0.0 0.0 0.0 
0.0 0.0 0.0 
0.0 0.0 0.0 
0.0 0.0 0.0 
0.0 0.0 0.0 
0.0 0.0 0.0 
0.0 0.0 0.0 
0.0 0.0 0.0 
0.0 0.0 0.0 
0.0 0.0 0.0 
0.0 0.0 0.0 
0.0 0.0 0.0 
0.0 0.0 0.0 
0.0 0.0 0.0 
0.0 0.0 0.0 
0.0 0.0 0.0 
0.0 0.0 0.0 
0.0 0.0 0.0 
0.0 0.0 0.0 
0.0 0.0 0.0 
0.0 0.0 0.0 
0.0 0.0 0.0 
0.0 0.0 0.0 
0.0 0.0 0.0 
0.0 0.0 0.0 
0.0 0.0 0.0 
0.0 0.0 0.0 
0.0 0.0 0.0 
0.0 0.0 0.0 
0.0 0.0 0.0 
0.0 0.0 0.0 
0.0 0.0 0.0 
0.0 0.0 0.0 
0.0 0.0 0.0 
0.0 0.0 0.0 
0.0 0.0 0.0 
0.0 0.0 0.0 
0.0 0.0 0.0 
0.0 0.0 0.0 
0.0 0.0 0.0 
0.0 0.0 0.0 
0.0 0.0 0.0 
0.0 0.0 0.0 
0.0 0.0 0.0 
0.0 0.0 0.0 
0.0 0.0 0.0 
0.0 0.0 0.0 
0.0 0.0 0.0 
0.0 0.0 0.0 
0.0 0.0 0.0 
0.0 0.0 0.0 
0.0 0.0 0.0 
0.0 0.0 0.0 
0.0 0.0 0.0 
0.0 0.0 0.0 
0.0 0.0 0.0 
0.0 0.0 0.0 
0.0 0.0 0.0 
0.0 0.0 0.0 
0.0 0.0 0.0 
0.0 0.0 0.0 
0.0 0.0 0.0 
0.0 0.0 0.0 
0.0 0.0 0.0 
0.0 0.0 0.0 
0.0 0.0 0.0 
0.0 0.0 0.0 
0.0 0.0 0.0 
0.0 0.0 0.0 
0.0 0.0 0.0 
0.0 0.0 0.0 
0.0 0.0 0.0 
0.0 0.0 0.0 
0.0 0.0 0.0 
0.0 0.0 0.0 
0.0 0.0 0.0 
0.0 0.0 0.0 
0.0 0.0 0.0 
0.0 0.0 0.0 
0.0 0.0 0.0 
0.0 0.0 0.0 
0.0 0.0 0.0 
0.0 0.0 0.0 
0.0 0.0 0.0 
0.0 0.0 0.0 
0.0 0.0 0.0 
0.0 0.0 0.0 
0.0 0.0 0.0 
0.0 0.0 0.0 
0.0 0.0 0.0 
0.0 0.0 0.0 
0.0 0.0 0.0 
0.0 0.0 0.0 
0.0 0.0 0.0 
0.0 0.0 0.0 
0.0 0.0 0.0 
0.0 0.0 0.0 
0.0 0.0 0.0 
0.0 0.0 0.0 
0.0 0.0 0.0 
0.0 0.0 0.0 
0.0 0.0 0.0 
0.0 0.0 0.0 
0.0 0.0 0.0 
0.0 0.0 0.0 
0.0 0.0 0.0 
0.0 0.0 0.0 
0.0 0.0 0.0 
0.0 0.0 0.0 
0.0 0.0 0.0 
0.0 0.0 0.0 
0.0 0.0 0.0 
0.0 0.0 0.0 
0.0 0.0 0.0 
0.0 0.0 0.0 
0.0 0.0 0.0 
0.0 0.0 0.0 
0.0 0.0 0.0 
0.0 0.0 0.0 
0.0 0.0 0.0 
0.0 0.0 0.0 
0.0 0.0 0.0 
0.0 0.0 0.0 
0.0 0.0 0.0 
0.0 0.0 0.0 
0.0 0.0 0.0 
0.0 0.0 0.0 
0.0 0.0 0.0 
0.0 0.0 0.0 
0.0 0.0 0.0 
0.0 0.0 0.0 
0.0 0.0 0.0 
0.0 0.0 0.0 
0.0 0.0 0.0 
0.0 0.0 0.0 
0.0 0.0 0.0 
0.0 0.0 0.0 
0.0 0.0 0.0 
0.0 0.0 0.0 
0.0 0.0 0.0 
0.0 0.0 0.0 
0.0 0.0 0.0 
0.0 0.0 0.0 
0.0 0.0 0.0 
0.0 0.0 0.0 
0.0 0.0 0.0 
0.0 0.0 0.0 
0.0 0.0 0.0 
0.0 0.0 0.0 
0.0 0.0 0.0 
0.0 0.0 0.0 
0.0 0.0 0.0 
0.0 0.0 0.0 
0.0 0.0 0.0 
0.0 0.0 0.0 
0.0 0.0 0.0 
0.0 0.0 0.0 
0.0 0.0 0.0 
0.0 0.0 0.0 
0.0 0.0 0.0 
0.0 0.0 0.0 
0.0 0.0 0.0 
0.0 0.0 0.0 
0.0 0.0 0.0 
0.0 0.0 0.0 
0.0 0.0 0.0 
0.0 0.0 0.0 
0.0 0.0 0.0 
0.0 0.0 0.0 
0.0 0.0 0.0 
0.0 0.0 0.0 
0.0 0.0 0.0 
0.0 0.0 0.0 
0.0 0.0 0.0 
0.0 0.0 0.0 
0.0 0.0 0.0 
0.0 0.0 0.0 
0.0 0.0 0.0 
0.0 0.0 0.0 
0.0 0.0 0.0 
0.0 0.0 0.0 
0.0 0.0 0.0 
0.0 0.0 0.0 
0.0 0.0 0.0 
0.0 0.0 0.0 
0.0 0.0 0.0 
0.0 0.0 0.0 
0.0 0.0 0.0 
0.0 0.0 0.0 
0.0 0.0 0.0 
0.0 0.0 0.0 
0.0 0.0 0.0 
0.0 0.0 0.0 
0.0 0.0 0.0 
0.0 0.0 0.0 
0.0 0.0 0.0 
0.0 0.0 0.0 
0.0 0.0 0.0 
0.0 0.0 0.0 
0.0 0.0 0.0 
0.0 0.0 0.0 
0.0 0.0 0.0 
0.0 0.0 0.0 
0.0 0.0 0.0 
0.0 0.0 0.0 
0.0 0.0 0.0 
0.0 0.0 0.0 
0.0 0.0 0.0 
0.0 0.0 0.0 
0.0 0.0 0.0 
0.0 0.0 0.0 
0.0 0.0 0.0 
0.0 0.0 0.0 
0.0 0.0 0.0 
0.0 0.0 0.0 
0.0 0.0 0.0 
0.0 0.0 0.0 
0.0 0.0 0.0 
0.0 0.0 0.0 
0.0 0.0 0.0 
0.0 0.0 0.0 
0.0 0.0 0.0 
0.0 0.0 0.0 
0.0 0.0 0.0 
0.0 0.0 0.0 
0.0 0.0 0.0 
0.0 0.0 0.0 
0.0 0.0 0.0 
0.0 0.0 0.0 
0.0 0.0 0.0 
0.0 0.0 0.0 
0.0 0.0 0.0 
0.0 0.0 0.0 
0.0 0.0 0.0 
0.0 0.0 0.0 
0.0 0.0 0.0 
0.0 0.0 0.0 
0.0 0.0 0.0 
0.0 0.0 0.0 
0.0 0.0 0.0 
0.0 0.0 0.0 
0.0 0.0 0.0 
0.0 0.0 0.0 
0.0 0.0 0.0 
0.0 0.0 0.0 
0.0 0.0 0.0 
0.0 0.0 0.0 
0.0 0.0 0.0 
0.0 0.0 0.0 
0.0 0.0 0.0 
0.0 0.0 0.0 
0.0 0.0 0.0 
0.0 0.0 0.0 
0.0 0.0 0.0 
0.0 0.0 0.0 
0.0 0.0 0.0 
0.0 0.0 0.0 
0.0 0.0 0.0 
0.0 0.0 0.0 
0.0 0.0 0.0 
0.0 0.0 0.0 
0.0 0.0 0.0 
0.0 0.0 0.0 
0.0 0.0 0.0 
0.0 0.0 0.0 
0.0 0.0 0.0 
0.0 0.0 0.0 
0.0 0.0 0.0 
0.0 0.0 0.0 
0.0 0.0 0.0 
0.0 0.0 0.0 
0.0 0.0 0.0 
0.0 0.0 0.0 
0.0 0.0 0.0 
0.0 0.0 0.0 
0.0 0.0 0.0 
0.0 0.0 0.0 
0.0 0.0 0.0 
0.0 0.0 0.0 
0.0 0.0 0.0 
0.0 0.0 0.0 
0.0 0.0 0.0 
0.0 0.0 0.0 
0.0 0.0 0.0 
0.0 0.0 0.0 
0.0 0.0 0.0 
0.0 0.0 0.0 
0.0 0.0 0.0 
0.0 0.0 0.0 
0.0 0.0 0.0 
0.0 0.0 0.0 
0.0 0.0 0.0 
0.0 0.0 0.0 
0.0 0.0 0.0 
0.0 0.0 0.0 
0.0 0.0 0.0 
0.0 0.0 0.0 
0.0 0.0 0.0 
0.0 0.0 0.0 
0.0 0.0 0.0 
0.0 0.0 0.0 
0.0 0.0 0.0 
0.0 0.0 0.0 
0.0 0.0 0.0 
0.0 0.0 0.0 
0.0 0.0 0.0 
0.0 0.0 0.0 
0.0 0.0 0.0 
0.0 0.0 0.0 
0.0 0.0 0.0 
0.0 0.0 0.0 
0.0 0.0 0.0 
0.0 0.0 0.0 
0.0 0.0 0.0 
0.0 0.0 0.0 
0.0 0.0 0.0 
0.0 0.0 0.0 
0.0 0.0 0.0 
0.0 0.0 0.0 
0.0 0.0 0.0 
0.0 0.0 0.0 
0.0 0.0 0.0 
0.0 0.0 0.0 
0.0 0.0 0.0 
0.0 0.0 0.0 
0.0 0.0 0.0 
0.0 0.0 0.0 
0.0 0.0 0.0 
0.0 0.0 0.0 
0.0 0.0 0.0 
0.0 0.0 0.0 
0.0 0.0 0.0 
0.0 0.0 0.0 
0.0 0.0 0.0 
0.0 0.0 0.0 
0.0 0.0 0.0 
0.0 0.0 0.0 
0.0 0.0 0.0 
0.0 0.0 0.0 
0.0 0.0 0.0 
0.0 0.0 0.0 
0.0 0.0 0.0 
0.0 0.0 0.0 
0.0 0.0 0.0 
0.0 0.0 0.0 
0.0 0.0 0.0 
0.0 0.0 0.0 
0.0 0.0 0.0 
0.0 0.0 0.0 
0.0 0.0 0.0 
0.0 0.0 0.0 
0.0 0.0 0.0 
0.0 0.0 0.0 
0.0 0.0 0.0 
0.0 0.0 0.0 
0.0 0.0 0.0 
0.0 0.0 0.0 
0.0 0.0 0.0 
0.0 0.0 0.0 
0.0 0.0 0.0 
0.0 0.0 0.0 
0.0 0.0 0.0 
0.0 0.0 0.0 
0.0 0.0 0.0 
0.0 0.0 0.0 
0.0 0.0 0.0 
0.0 0.0 0.0 
0.0 0.0 0.0 
0.0 0.0 0.0 
0.0 0.0 0.0 
0.0 0.0 0.0 
0.0 0.0 0.0 
0.0 0.0 0.0 
0.0 0.0 0.0 
0.0 0.0 0.0 
0.0 0.0 0.0 
0.0 0.0 0.0 
0.0 0.0 0.0 
0.0 0.0 0.0 
0.0 0.0 0.0 
0.0 0.0 0.0 
0.0 0.0 0.0 
0.0 0.0 0.0 
0.0 0.0 0.0 
0.0 0.0 0.0 
0.0 0.0 0.0 
0.0 0.0 0.0 
0.0 0.0 0.0 
0.0 0.0 0.0 
0.0 0.0 0.0 
0.0 0.0 0.0 
0.0 0.0 0.0 
0.0 0.0 0.0 
0.0 0.0 0.0 
0.0 0.0 0.0 
0.0 0.0 0.0 
0.0 0.0 0.0 
0.0 0.0 0.0 
0.0 0.0 0.0 
0.0 0.0 0.0 
0.0 0.0 0.0 
0.0 0.0 0.0 
0.0 0.0 0.0 
0.0 0.0 0.0 
0.0 0.0 0.0 
0.0 0.0 0.0 
0.0 0.0 0.0 
0.0 0.0 0.0 
0.0 0.0 0.0 
0.0 0.0 0.0 
0.0 0.0 0.0 
0.0 0.0 0.0 
0.0 0.0 0.0 
0.0 0.0 0.0 
0.0 0.0 0.0 
0.0 0.0 0.0 
0.0 0.0 0.0 
0.0 0.0 0.0 
0.0 0.0 0.0 
0.0 0.0 0.0 
0.0 0.0 0.0 
0.0 0.0 0.0 
0.0 0.0 0.0 
0.0 0.0 0.0 
0.0 0.0 0.0 
0.0 0.0 0.0 
0.0 0.0 0.0 
0.0 0.0 0.0 
0.0 0.0 0.0 
0.0 0.0 0.0 
0.0 0.0 0.0 
0.0 0.0 0.0 
0.0 0.0 0.0 
0.0 0.0 0.0 
0.0 0.0 0.0 
0.0 0.0 0.0 
0.0 0.0 0.0 
0.0 0.0 0.0 
0.0 0.0 0.0 
0.0 0.0 0.0 
0.0 0.0 0.0 
0.0 0.0 0.0 
0.0 0.0 0.0 
0.0 0.0 0.0 
0.0 0.0 0.0 
0.0 0.0 0.0 
0.0 0.0 0.0 
0.0 0.0 0.0 
0.0 0.0 0.0 
0.0 0.0 0.0 
0.0 0.0 0.0 
0.0 0.0 0.0 
0.0 0.0 0.0 
0.0 0.0 0.0 
0.0 0.0 0.0 
0.0 0.0 0.0 
0.0 0.0 0.0 
0.0 0.0 0.0 
0.0 0.0 0.0 
0.0 0.0 0.0 
0.0 0.0 0.0 
0.0 0.0 0.0 
0.0 0.0 0.0 
0.0 0.0 0.0 

SCALARS node_boundary float
LOOKUP_TABLE default
1.000000000000e+00 
1.000000000000e+00 
1.000000000000e+00 
1.000000000000e+00 
1.000000000000e+00 
1.000000000000e+00 
1.000000000000e+00 
1.000000000000e+00 
1.000000000000e+00 
1.000000000000e+00 
1.000000000000e+00 
1.000000000000e+00 
1.000000000000e+00 
1.000000000000e+00 
1.000000000000e+00 
1.000000000000e+00 
1.000000000000e+00 
1.000000000000e+00 
1.000000000000e+00 
1.000000000000e+00 
1.000000000000e+00 
1.000000000000e+00 
1.000000000000e+00 
1.000000000000e+00 
1.000000000000e+00 
1.000000000000e+00 
1.000000000000e+00 
1.000000000000e+00 
1.000000000000e+00 
1.000000000000e+00 
1.000000000000e+00 
1.000000000000e+00 
1.000000000000e+00 
1.000000000000e+00 
1.000000000000e+00 
1.000000000000e+00 
1.000000000000e+00 
1.000000000000e+00 
1.000000000000e+00 
1.000000000000e+00 
1.000000000000e+00 
1.000000000000e+00 
1.000000000000e+00 
1.000000000000e+00 
1.000000000000e+00 
1.000000000000e+00 
1.000000000000e+00 
1.000000000000e+00 
1.000000000000e+00 
1.000000000000e+00 
1.000000000000e+00 
1.000000000000e+00 
1.000000000000e+00 
1.000000000000e+00 
1.000000000000e+00 
1.000000000000e+00 
1.000000000000e+00 
1.000000000000e+00 
1.000000000000e+00 
1.000000000000e+00 
1.000000000000e+00 
1.000000000000e+00 
1.000000000000e+00 
1.000000000000e+00 
1.000000000000e+00 
1.000000000000e+00 
1.000000000000e+00 
1.000000000000e+00 
1.000000000000e+00 
1.000000000000e+00 
1.000000000000e+00 
1.000000000000e+00 
1.000000000000e+00 
1.000000000000e+00 
1.000000000000e+00 
1.000000000000e+00 
1.000000000000e+00 
1.000000000000e+00 
1.000000000000e+00 
1.000000000000e+00 
1.000000000000e+00 
1.000000000000e+00 
1.000000000000e+00 
1.000000000000e+00 
1.000000000000e+00 
1.000000000000e+00 
1.000000000000e+00 
1.000000000000e+00 
1.000000000000e+00 
1.000000000000e+00 
1.000000000000e+00 
1.000000000000e+00 
1.000000000000e+00 
1.000000000000e+00 
1.000000000000e+00 
1.000000000000e+00 
1.000000000000e+00 
1.000000000000e+00 
1.000000000000e+00 
1.000000000000e+00 
1.000000000000e+00 
1.000000000000e+00 
1.000000000000e+00 
1.000000000000e+00 
1.000000000000e+00 
1.000000000000e+00 
1.000000000000e+00 
1.000000000000e+00 
1.000000000000e+00 
1.000000000000e+00 
1.000000000000e+00 
1.000000000000e+00 
1.000000000000e+00 
1.000000000000e+00 
1.000000000000e+00 
1.000000000000e+00 
1.000000000000e+00 
1.000000000000e+00 
1.000000000000e+00 
1.000000000000e+00 
1.000000000000e+00 
1.000000000000e+00 
1.000000000000e+00 
1.000000000000e+00 
1.000000000000e+00 
1.000000000000e+00 
1.000000000000e+00 
1.000000000000e+00 
1.000000000000e+00 
1.000000000000e+00 
1.000000000000e+00 
1.000000000000e+00 
1.000000000000e+00 
1.000000000000e+00 
1.000000000000e+00 
0.0
0.0
0.0
0.0
0.0
0.0
0.0
0.0
0.0
0.0
0.0
0.0
0.0
0.0
0.0
0.0
0.0
0.0
0.0
0.0
0.0
0.0
0.0
0.0
0.0
0.0
0.0
0.0
0.0
0.0
0.0
0.0
0.0
0.0
0.0
0.0
0.0
0.0
0.0
0.0
0.0
0.0
0.0
0.0
0.0
0.0
0.0
0.0
0.0
0.0
0.0
0.0
0.0
0.0
0.0
0.0
0.0
0.0
0.0
0.0
0.0
0.0
0.0
0.0
0.0
0.0
0.0
0.0
0.0
0.0
0.0
0.0
0.0
0.0
0.0
0.0
0.0
0.0
0.0
0.0
0.0
0.0
0.0
0.0
0.0
0.0
0.0
0.0
0.0
0.0
0.0
0.0
0.0
0.0
0.0
0.0
0.0
0.0
0.0
0.0
0.0
0.0
0.0
0.0
0.0
0.0
0.0
0.0
0.0
0.0
0.0
0.0
0.0
0.0
0.0
0.0
0.0
0.0
0.0
0.0
0.0
0.0
0.0
0.0
0.0
0.0
0.0
0.0
0.0
0.0
0.0
0.0
0.0
0.0
0.0
0.0
0.0
0.0
0.0
0.0
0.0
0.0
0.0
0.0
0.0
0.0
0.0
0.0
0.0
0.0
0.0
0.0
0.0
0.0
0.0
0.0
0.0
0.0
0.0
0.0
0.0
0.0
0.0
0.0
0.0
0.0
0.0
0.0
0.0
0.0
0.0
0.0
0.0
0.0
0.0
0.0
0.0
0.0
0.0
0.0
0.0
0.0
0.0
0.0
0.0
0.0
0.0
0.0
0.0
0.0
0.0
0.0
0.0
0.0
0.0
0.0
0.0
0.0
0.0
0.0
0.0
0.0
0.0
0.0
0.0
0.0
0.0
0.0
0.0
0.0
0.0
0.0
0.0
0.0
0.0
0.0
0.0
0.0
0.0
0.0
0.0
0.0
0.0
0.0
0.0
0.0
0.0
0.0
0.0
0.0
0.0
0.0
0.0
0.0
0.0
0.0
0.0
0.0
0.0
0.0
0.0
0.0
0.0
0.0
0.0
0.0
0.0
0.0
0.0
0.0
0.0
0.0
0.0
0.0
0.0
0.0
0.0
0.0
0.0
0.0
0.0
0.0
0.0
0.0
0.0
0.0
0.0
0.0
0.0
0.0
0.0
0.0
0.0
0.0
0.0
0.0
0.0
0.0
0.0
0.0
0.0
0.0
0.0
0.0
0.0
0.0
0.0
0.0
0.0
0.0
0.0
0.0
0.0
0.0
0.0
0.0
0.0
0.0
0.0
0.0
0.0
0.0
0.0
0.0
0.0
0.0
0.0
0.0
0.0
0.0
0.0
0.0
0.0
0.0
0.0
0.0
0.0
0.0
0.0
0.0
0.0
0.0
0.0
0.0
0.0
0.0
0.0
0.0
0.0
0.0
0.0
0.0
0.0
0.0
0.0
0.0
0.0
0.0
0.0
0.0
0.0
0.0
0.0
0.0
0.0
0.0
0.0
0.0
0.0
0.0
0.0
0.0
0.0
0.0
0.0
0.0
0.0
0.0
0.0
0.0
0.0
0.0
0.0
0.0
0.0
0.0
0.0
0.0
0.0
0.0
0.0
0.0
0.0
0.0
0.0
0.0
0.0
0.0
0.0
0.0
0.0
0.0
0.0
0.0
0.0
0.0
0.0
0.0
0.0
0.0
0.0
0.0
0.0
0.0
0.0
0.0
0.0
0.0
0.0
0.0
0.0
0.0
0.0
0.0
0.0
0.0
0.0
0.0
0.0
0.0
0.0
0.0
0.0
0.0
0.0
0.0
0.0
0.0
0.0
0.0
0.0
0.0
0.0
0.0
0.0
0.0
0.0
0.0
0.0
0.0
0.0
0.0
0.0
0.0
0.0
0.0
0.0
0.0
0.0
0.0
0.0
0.0
0.0
0.0
0.0
0.0
0.0
0.0
0.0
0.0
0.0
0.0
0.0
0.0
0.0
0.0
0.0
0.0
0.0
0.0
0.0
0.0
0.0
0.0
0.0
0.0
0.0
0.0
0.0
0.0
0.0
0.0
0.0
0.0
0.0
0.0
0.0
0.0
0.0
0.0
0.0
0.0
0.0
0.0
0.0
0.0
0.0
0.0
0.0
0.0
0.0
0.0
0.0
0.0
0.0
0.0
0.0
0.0
0.0
0.0
0.0
0.0
0.0
0.0
0.0
0.0
0.0
0.0
0.0
0.0
0.0
0.0
0.0
0.0
0.0
0.0
0.0
0.0
0.0
0.0
0.0
0.0
0.0
0.0
0.0
0.0
0.0
0.0
0.0
0.0
0.0
0.0
0.0
0.0
0.0
0.0
0.0
0.0
0.0
0.0
0.0
0.0
0.0
0.0
0.0
0.0
0.0
0.0
0.0
0.0
0.0
0.0
0.0
0.0
0.0
0.0
0.0
0.0
0.0
0.0
0.0
0.0
0.0
0.0
0.0
0.0
0.0
0.0
0.0
0.0
0.0
0.0
0.0
0.0
0.0
0.0
0.0
0.0
0.0
0.0
0.0
0.0
0.0
0.0
0.0
0.0
0.0
0.0
0.0
0.0
0.0
0.0
0.0
0.0
0.0
0.0
0.0
0.0
0.0
0.0
0.0
0.0
0.0
0.0
0.0
0.0
0.0
0.0
0.0
0.0
0.0
0.0
0.0
0.0
0.0
0.0
0.0
0.0
0.0
0.0
0.0
0.0
0.0
0.0
0.0
0.0
0.0
0.0
0.0
0.0
0.0
0.0
0.0
0.0
0.0
0.0
0.0
0.0
0.0
0.0
0.0
0.0
0.0
0.0
0.0
0.0
0.0
0.0
0.0
0.0
0.0
0.0
0.0
0.0
0.0
0.0
0.0
0.0
0.0
0.0
0.0
0.0
0.0
0.0
0.0
0.0
0.0
0.0
0.0
0.0
0.0
0.0
0.0
0.0
0.0
0.0
0.0
0.0
0.0
0.0
0.0
0.0
0.0
0.0
0.0
0.0
0.0
0.0
0.0
0.0
0.0
0.0
0.0
0.0
0.0
0.0
0.0
0.0
0.0
0.0
0.0
0.0
0.0
0.0
0.0
0.0
0.0
0.0
0.0
0.0
0.0
0.0
0.0
0.0
0.0
0.0
0.0
0.0
0.0
0.0
0.0
0.0
0.0
0.0
0.0
0.0
0.0
0.0
0.0
0.0
0.0
0.0
0.0
0.0
0.0
0.0
0.0
0.0
0.0
0.0
0.0
0.0
0.0
0.0
0.0
0.0
0.0
0.0
0.0
0.0
0.0
0.0
0.0
0.0
0.0
0.0
0.0
0.0
0.0
0.0
0.0
0.0
0.0
0.0
0.0
0.0
0.0
0.0
0.0
0.0
0.0
0.0
0.0
0.0
0.0
0.0
0.0
0.0
0.0
0.0
0.0
0.0
0.0
0.0
0.0
0.0
0.0
0.0
0.0
0.0
0.0
0.0
0.0
0.0
0.0
0.0
0.0
0.0
0.0
0.0
0.0
0.0
0.0
0.0
0.0
0.0
0.0
0.0
0.0
0.0
0.0
0.0
0.0
0.0
0.0
0.0
0.0
0.0
0.0
0.0
0.0
0.0
0.0
0.0
0.0
0.0
0.0
0.0
0.0
0.0
0.0
0.0
0.0
0.0
0.0
0.0
0.0
0.0
0.0
0.0
0.0
0.0
0.0
0.0
0.0
0.0
0.0
0.0
0.0
0.0
0.0
0.0
0.0
0.0
0.0
0.0
0.0
0.0
0.0
0.0
0.0
0.0
0.0
0.0
0.0
0.0
0.0
0.0
0.0
0.0
0.0
0.0
0.0
0.0
0.0
0.0
0.0
0.0
0.0
0.0
0.0
0.0
0.0
0.0
0.0
0.0
0.0
0.0
0.0
0.0
0.0
0.0
0.0

VECTORS node_force_gravity float
0.0 -1.962000000000e+01 0.0 
0.0 -1.962000000000e+01 0.0 
0.0 -1.962000000000e+01 0.0 
0.0 -1.962000000000e+01 0.0 
0.0 -1.962000000000e+01 0.0 
0.0 -1.962000000000e+01 0.0 
0.0 -1.962000000000e+01 0.0 
0.0 -1.962000000000e+01 0.0 
0.0 -1.962000000000e+01 0.0 
0.0 -1.962000000000e+01 0.0 
0.0 -1.962000000000e+01 0.0 
0.0 -1.962000000000e+01 0.0 
0.0 -1.962000000000e+01 0.0 
0.0 -1.962000000000e+01 0.0 
0.0 -1.962000000000e+01 0.0 
0.0 -1.962000000000e+01 0.0 
0.0 -1.962000000000e+01 0.0 
0.0 -1.962000000000e+01 0.0 
0.0 -1.962000000000e+01 0.0 
0.0 -1.962000000000e+01 0.0 
0.0 -1.962000000000e+01 0.0 
0.0 -1.962000000000e+01 0.0 
0.0 -1.962000000000e+01 0.0 
0.0 -1.962000000000e+01 0.0 
0.0 -1.962000000000e+01 0.0 
0.0 -1.962000000000e+01 0.0 
0.0 -1.962000000000e+01 0.0 
0.0 -1.962000000000e+01 0.0 
0.0 -1.962000000000e+01 0.0 
0.0 -1.962000000000e+01 0.0 
0.0 -1.962000000000e+01 0.0 
0.0 -1.962000000000e+01 0.0 
0.0 -1.962000000000e+01 0.0 
0.0 -1.962000000000e+01 0.0 
0.0 -1.962000000000e+01 0.0 
0.0 -1.962000000000e+01 0.0 
0.0 -1.962000000000e+01 0.0 
0.0 -1.962000000000e+01 0.0 
0.0 -1.962000000000e+01 0.0 
0.0 -1.962000000000e+01 0.0 
0.0 -1.962000000000e+01 0.0 
0.0 -1.962000000000e+01 0.0 
0.0 -1.962000000000e+01 0.0 
0.0 -1.962000000000e+01 0.0 
0.0 -1.962000000000e+01 0.0 
0.0 -1.962000000000e+01 0.0 
0.0 -1.962000000000e+01 0.0 
0.0 -1.962000000000e+01 0.0 
0.0 -1.962000000000e+01 0.0 
0.0 -1.962000000000e+01 0.0 
0.0 -1.962000000000e+01 0.0 
0.0 -1.962000000000e+01 0.0 
0.0 -1.962000000000e+01 0.0 
0.0 -1.962000000000e+01 0.0 
0.0 -1.962000000000e+01 0.0 
0.0 -1.962000000000e+01 0.0 
0.0 -1.962000000000e+01 0.0 
0.0 -1.962000000000e+01 0.0 
0.0 -1.962000000000e+01 0.0 
0.0 -1.962000000000e+01 0.0 
0.0 -1.962000000000e+01 0.0 
0.0 -1.962000000000e+01 0.0 
0.0 -1.962000000000e+01 0.0 
0.0 -1.962000000000e+01 0.0 
0.0 -1.962000000000e+01 0.0 
0.0 -1.962000000000e+01 0.0 
0.0 -1.962000000000e+01 0.0 
0.0 -1.962000000000e+01 0.0 
0.0 -1.962000000000e+01 0.0 
0.0 -1.962000000000e+01 0.0 
0.0 -1.962000000000e+01 0.0 
0.0 -1.962000000000e+01 0.0 
0.0 -1.962000000000e+01 0.0 
0.0 -1.962000000000e+01 0.0 
0.0 -1.962000000000e+01 0.0 
0.0 -1.962000000000e+01 0.0 
0.0 -1.962000000000e+01 0.0 
0.0 -1.962000000000e+01 0.0 
0.0 -1.962000000000e+01 0.0 
0.0 -1.962000000000e+01 0.0 
0.0 -1.962000000000e+01 0.0 
0.0 -1.962000000000e+01 0.0 
0.0 -1.962000000000e+01 0.0 
0.0 -1.962000000000e+01 0.0 
0.0 -1.962000000000e+01 0.0 
0.0 -1.962000000000e+01 0.0 
0.0 -1.962000000000e+01 0.0 
0.0 -1.962000000000e+01 0.0 
0.0 -1.962000000000e+01 0.0 
0.0 -1.962000000000e+01 0.0 
0.0 -1.962000000000e+01 0.0 
0.0 -1.962000000000e+01 0.0 
0.0 -1.962000000000e+01 0.0 
0.0 -1.962000000000e+01 0.0 
0.0 -1.962000000000e+01 0.0 
0.0 -1.962000000000e+01 0.0 
0.0 -1.962000000000e+01 0.0 
0.0 -1.962000000000e+01 0.0 
0.0 -1.962000000000e+01 0.0 
0.0 -1.962000000000e+01 0.0 
0.0 -1.962000000000e+01 0.0 
0.0 -1.962000000000e+01 0.0 
0.0 -1.962000000000e+01 0.0 
0.0 -1.962000000000e+01 0.0 
0.0 -1.962000000000e+01 0.0 
0.0 -1.962000000000e+01 0.0 
0.0 -1.962000000000e+01 0.0 
0.0 -1.962000000000e+01 0.0 
0.0 -1.962000000000e+01 0.0 
0.0 -1.962000000000e+01 0.0 
0.0 -1.962000000000e+01 0.0 
0.0 -1.962000000000e+01 0.0 
0.0 -1.962000000000e+01 0.0 
0.0 -1.962000000000e+01 0.0 
0.0 -1.962000000000e+01 0.0 
0.0 -1.962000000000e+01 0.0 
0.0 -1.962000000000e+01 0.0 
0.0 -1.962000000000e+01 0.0 
0.0 -1.962000000000e+01 0.0 
0.0 -1.962000000000e+01 0.0 
0.0 -1.962000000000e+01 0.0 
0.0 -1.962000000000e+01 0.0 
0.0 -1.962000000000e+01 0.0 
0.0 -1.962000000000e+01 0.0 
0.0 -1.962000000000e+01 0.0 
0.0 -1.962000000000e+01 0.0 
0.0 -1.962000000000e+01 0.0 
0.0 -1.962000000000e+01 0.0 
0.0 -1.962000000000e+01 0.0 
0.0 -1.962000000000e+01 0.0 
0.0 -1.962000000000e+01 0.0 
0.0 -1.962000000000e+01 0.0 
0.0 -1.962000000000e+01 0.0 
0.0 -1.962000000000e+01 0.0 
0.0 -1.962000000000e+01 0.0 
0.0 -1.962000000000e+01 0.0 
0.0 -1.962000000000e+01 0.0 
0.0 -1.962000000000e+01 0.0 
0.0 -1.962000000000e+01 0.0 
0.0 -1.962000000000e+01 0.0 
0.0 -1.962000000000e+01 0.0 
0.0 -1.962000000000e+01 0.0 
0.0 -1.962000000000e+01 0.0 
0.0 -1.962000000000e+01 0.0 
0.0 -1.962000000000e+01 0.0 
0.0 -1.962000000000e+01 0.0 
0.0 -1.962000000000e+01 0.0 
0.0 -1.962000000000e+01 0.0 
0.0 -1.962000000000e+01 0.0 
0.0 -1.962000000000e+01 0.0 
0.0 -1.962000000000e+01 0.0 
0.0 -1.962000000000e+01 0.0 
0.0 -1.962000000000e+01 0.0 
0.0 -1.962000000000e+01 0.0 
0.0 -1.962000000000e+01 0.0 
0.0 -1.962000000000e+01 0.0 
0.0 -1.962000000000e+01 0.0 
0.0 -1.962000000000e+01 0.0 
0.0 -1.962000000000e+01 0.0 
0.0 -1.962000000000e+01 0.0 
0.0 -1.962000000000e+01 0.0 
0.0 -1.962000000000e+01 0.0 
0.0 -1.962000000000e+01 0.0 
0.0 -1.962000000000e+01 0.0 
0.0 -1.962000000000e+01 0.0 
0.0 -1.962000000000e+01 0.0 
0.0 -1.962000000000e+01 0.0 
0.0 -1.962000000000e+01 0.0 
0.0 -1.962000000000e+01 0.0 
0.0 -1.962000000000e+01 0.0 
0.0 -1.962000000000e+01 0.0 
0.0 -1.962000000000e+01 0.0 
0.0 -1.962000000000e+01 0.0 
0.0 -1.962000000000e+01 0.0 
0.0 -1.962000000000e+01 0.0 
0.0 -1.962000000000e+01 0.0 
0.0 -1.962000000000e+01 0.0 
0.0 -1.962000000000e+01 0.0 
0.0 -1.962000000000e+01 0.0 
0.0 -1.962000000000e+01 0.0 
0.0 -1.962000000000e+01 0.0 
0.0 -1.962000000000e+01 0.0 
0.0 -1.962000000000e+01 0.0 
0.0 -1.962000000000e+01 0.0 
0.0 -1.962000000000e+01 0.0 
0.0 -1.962000000000e+01 0.0 
0.0 -1.962000000000e+01 0.0 
0.0 -1.962000000000e+01 0.0 
0.0 -1.962000000000e+01 0.0 
0.0 -1.962000000000e+01 0.0 
0.0 -1.962000000000e+01 0.0 
0.0 -1.962000000000e+01 0.0 
0.0 -1.962000000000e+01 0.0 
0.0 -1.962000000000e+01 0.0 
0.0 -1.962000000000e+01 0.0 
0.0 -1.962000000000e+01 0.0 
0.0 -1.962000000000e+01 0.0 
0.0 -1.962000000000e+01 0.0 
0.0 -1.962000000000e+01 0.0 
0.0 -1.962000000000e+01 0.0 
0.0 -1.962000000000e+01 0.0 
0.0 -1.962000000000e+01 0.0 
0.0 -1.962000000000e+01 0.0 
0.0 -1.962000000000e+01 0.0 
0.0 -1.962000000000e+01 0.0 
0.0 -1.962000000000e+01 0.0 
0.0 -1.962000000000e+01 0.0 
0.0 -1.962000000000e+01 0.0 
0.0 -1.962000000000e+01 0.0 
0.0 -1.962000000000e+01 0.0 
0.0 -1.962000000000e+01 0.0 
0.0 -1.962000000000e+01 0.0 
0.0 -1.962000000000e+01 0.0 
0.0 -1.962000000000e+01 0.0 
0.0 -1.962000000000e+01 0.0 
0.0 -1.962000000000e+01 0.0 
0.0 -1.962000000000e+01 0.0 
0.0 -1.962000000000e+01 0.0 
0.0 -1.962000000000e+01 0.0 
0.0 -1.962000000000e+01 0.0 
0.0 -1.962000000000e+01 0.0 
0.0 -1.962000000000e+01 0.0 
0.0 -1.962000000000e+01 0.0 
0.0 -1.962000000000e+01 0.0 
0.0 -1.962000000000e+01 0.0 
0.0 -1.962000000000e+01 0.0 
0.0 -1.962000000000e+01 0.0 
0.0 -1.962000000000e+01 0.0 
0.0 -1.962000000000e+01 0.0 
0.0 -1.962000000000e+01 0.0 
0.0 -1.962000000000e+01 0.0 
0.0 -1.962000000000e+01 0.0 
0.0 -1.962000000000e+01 0.0 
0.0 -1.962000000000e+01 0.0 
0.0 -1.962000000000e+01 0.0 
0.0 -1.962000000000e+01 0.0 
0.0 -1.962000000000e+01 0.0 
0.0 -1.962000000000e+01 0.0 
0.0 -1.962000000000e+01 0.0 
0.0 -1.962000000000e+01 0.0 
0.0 -1.962000000000e+01 0.0 
0.0 -1.962000000000e+01 0.0 
0.0 -1.962000000000e+01 0.0 
0.0 -1.962000000000e+01 0.0 
0.0 -1.962000000000e+01 0.0 
0.0 -1.962000000000e+01 0.0 
0.0 -1.962000000000e+01 0.0 
0.0 -1.962000000000e+01 0.0 
0.0 -1.962000000000e+01 0.0 
0.0 -1.962000000000e+01 0.0 
0.0 -1.962000000000e+01 0.0 
0.0 -1.962000000000e+01 0.0 
0.0 -1.962000000000e+01 0.0 
0.0 -1.962000000000e+01 0.0 
0.0 -1.962000000000e+01 0.0 
0.0 -1.962000000000e+01 0.0 
0.0 -1.962000000000e+01 0.0 
0.0 -1.962000000000e+01 0.0 
0.0 -1.962000000000e+01 0.0 
0.0 -1.962000000000e+01 0.0 
0.0 -1.962000000000e+01 0.0 
0.0 -1.962000000000e+01 0.0 
0.0 -1.962000000000e+01 0.0 
0.0 -1.962000000000e+01 0.0 
0.0 -1.962000000000e+01 0.0 
0.0 -1.962000000000e+01 0.0 
0.0 -1.962000000000e+01 0.0 
0.0 -1.962000000000e+01 0.0 
0.0 -1.962000000000e+01 0.0 
0.0 -1.962000000000e+01 0.0 
0.0 -1.962000000000e+01 0.0 
0.0 -1.962000000000e+01 0.0 
0.0 -1.962000000000e+01 0.0 
0.0 -1.962000000000e+01 0.0 
0.0 -1.962000000000e+01 0.0 
0.0 -1.962000000000e+01 0.0 
0.0 -1.962000000000e+01 0.0 
0.0 -1.962000000000e+01 0.0 
0.0 -1.962000000000e+01 0.0 
0.0 -1.962000000000e+01 0.0 
0.0 -1.962000000000e+01 0.0 
0.0 -1.962000000000e+01 0.0 
0.0 -1.962000000000e+01 0.0 
0.0 -1.962000000000e+01 0.0 
0.0 -1.962000000000e+01 0.0 
0.0 -1.962000000000e+01 0.0 
0.0 -1.962000000000e+01 0.0 
0.0 -1.962000000000e+01 0.0 
0.0 -1.962000000000e+01 0.0 
0.0 -1.962000000000e+01 0.0 
0.0 -1.962000000000e+01 0.0 
0.0 -1.962000000000e+01 0.0 
0.0 -1.962000000000e+01 0.0 
0.0 -1.962000000000e+01 0.0 
0.0 -1.962000000000e+01 0.0 
0.0 -1.962000000000e+01 0.0 
0.0 -1.962000000000e+01 0.0 
0.0 -1.962000000000e+01 0.0 
0.0 -1.962000000000e+01 0.0 
0.0 -1.962000000000e+01 0.0 
0.0 -1.962000000000e+01 0.0 
0.0 -1.962000000000e+01 0.0 
0.0 -1.962000000000e+01 0.0 
0.0 -1.962000000000e+01 0.0 
0.0 -1.962000000000e+01 0.0 
0.0 -1.962000000000e+01 0.0 
0.0 -1.962000000000e+01 0.0 
0.0 -1.962000000000e+01 0.0 
0.0 -1.962000000000e+01 0.0 
0.0 -1.962000000000e+01 0.0 
0.0 -1.962000000000e+01 0.0 
0.0 -1.962000000000e+01 0.0 
0.0 -1.962000000000e+01 0.0 
0.0 -1.962000000000e+01 0.0 
0.0 -1.962000000000e+01 0.0 
0.0 -1.962000000000e+01 0.0 
0.0 -1.962000000000e+01 0.0 
0.0 -1.962000000000e+01 0.0 
0.0 -1.962000000000e+01 0.0 
0.0 -1.962000000000e+01 0.0 
0.0 -1.962000000000e+01 0.0 
0.0 -1.962000000000e+01 0.0 
0.0 -1.962000000000e+01 0.0 
0.0 -1.962000000000e+01 0.0 
0.0 -1.962000000000e+01 0.0 
0.0 -1.962000000000e+01 0.0 
0.0 -1.962000000000e+01 0.0 
0.0 -1.962000000000e+01 0.0 
0.0 -1.962000000000e+01 0.0 
0.0 -1.962000000000e+01 0.0 
0.0 -1.962000000000e+01 0.0 
0.0 -1.962000000000e+01 0.0 
0.0 -1.962000000000e+01 0.0 
0.0 -1.962000000000e+01 0.0 
0.0 -1.962000000000e+01 0.0 
0.0 -1.962000000000e+01 0.0 
0.0 -1.962000000000e+01 0.0 
0.0 -1.962000000000e+01 0.0 
0.0 -1.962000000000e+01 0.0 
0.0 -1.962000000000e+01 0.0 
0.0 -1.962000000000e+01 0.0 
0.0 -1.962000000000e+01 0.0 
0.0 -1.962000000000e+01 0.0 
0.0 -1.962000000000e+01 0.0 
0.0 -1.962000000000e+01 0.0 
0.0 -1.962000000000e+01 0.0 
0.0 -1.962000000000e+01 0.0 
0.0 -1.962000000000e+01 0.0 
0.0 -1.962000000000e+01 0.0 
0.0 -1.962000000000e+01 0.0 
0.0 -1.962000000000e+01 0.0 
0.0 -1.962000000000e+01 0.0 
0.0 -1.962000000000e+01 0.0 
0.0 -1.962000000000e+01 0.0 
0.0 -1.962000000000e+01 0.0 
0.0 -1.962000000000e+01 0.0 
0.0 -1.962000000000e+01 0.0 
0.0 -1.962000000000e+01 0.0 
0.0 -1.962000000000e+01 0.0 
0.0 -1.962000000000e+01 0.0 
0.0 -1.962000000000e+01 0.0 
0.0 -1.962000000000e+01 0.0 
0.0 -1.962000000000e+01 0.0 
0.0 -1.962000000000e+01 0.0 
0.0 -1.962000000000e+01 0.0 
0.0 -1.962000000000e+01 0.0 
0.0 -1.962000000000e+01 0.0 
0.0 -1.962000000000e+01 0.0 
0.0 -1.962000000000e+01 0.0 
0.0 -1.962000000000e+01 0.0 
0.0 -1.962000000000e+01 0.0 
0.0 -1.962000000000e+01 0.0 
0.0 -1.962000000000e+01 0.0 
0.0 -1.962000000000e+01 0.0 
0.0 -1.962000000000e+01 0.0 
0.0 -1.962000000000e+01 0.0 
0.0 -1.962000000000e+01 0.0 
0.0 -1.962000000000e+01 0.0 
0.0 -1.962000000000e+01 0.0 
0.0 -1.962000000000e+01 0.0 
0.0 -1.962000000000e+01 0.0 
0.0 -1.962000000000e+01 0.0 
0.0 -1.962000000000e+01 0.0 
0.0 -1.962000000000e+01 0.0 
0.0 -1.962000000000e+01 0.0 
0.0 -1.962000000000e+01 0.0 
0.0 -1.962000000000e+01 0.0 
0.0 -1.962000000000e+01 0.0 
0.0 -1.962000000000e+01 0.0 
0.0 -1.962000000000e+01 0.0 
0.0 -1.962000000000e+01 0.0 
0.0 -1.962000000000e+01 0.0 
0.0 -1.962000000000e+01 0.0 
0.0 -1.962000000000e+01 0.0 
0.0 -1.962000000000e+01 0.0 
0.0 -1.962000000000e+01 0.0 
0.0 -1.962000000000e+01 0.0 
0.0 -1.962000000000e+01 0.0 
0.0 -1.962000000000e+01 0.0 
0.0 -1.962000000000e+01 0.0 
0.0 -1.962000000000e+01 0.0 
0.0 -1.962000000000e+01 0.0 
0.0 -1.962000000000e+01 0.0 
0.0 -1.962000000000e+01 0.0 
0.0 -1.962000000000e+01 0.0 
0.0 -1.962000000000e+01 0.0 
0.0 -1.962000000000e+01 0.0 
0.0 -1.962000000000e+01 0.0 
0.0 -1.962000000000e+01 0.0 
0.0 -1.962000000000e+01 0.0 
0.0 -1.962000000000e+01 0.0 
0.0 -1.962000000000e+01 0.0 
0.0 -1.962000000000e+01 0.0 
0.0 -1.962000000000e+01 0.0 
0.0 -1.962000000000e+01 0.0 
0.0 -1.962000000000e+01 0.0 
0.0 -1.962000000000e+01 0.0 
0.0 -1.962000000000e+01 0.0 
0.0 -1.962000000000e+01 0.0 
0.0 -1.962000000000e+01 0.0 
0.0 -1.962000000000e+01 0.0 
0.0 -1.962000000000e+01 0.0 
0.0 -1.962000000000e+01 0.0 
0.0 -1.962000000000e+01 0.0 
0.0 -1.962000000000e+01 0.0 
0.0 -1.962000000000e+01 0.0 
0.0 -1.962000000000e+01 0.0 
0.0 -1.962000000000e+01 0.0 
0.0 -1.962000000000e+01 0.0 
0.0 -1.962000000000e+01 0.0 
0.0 -1.962000000000e+01 0.0 
0.0 -1.962000000000e+01 0.0 
0.0 -1.962000000000e+01 0.0 
0.0 -1.962000000000e+01 0.0 
0.0 -1.962000000000e+01 0.0 
0.0 -1.962000000000e+01 0.0 
0.0 -1.962000000000e+01 0.0 
0.0 -1.962000000000e+01 0.0 
0.0 -1.962000000000e+01 0.0 
0.0 -1.962000000000e+01 0.0 
0.0 -1.962000000000e+01 0.0 
0.0 -1.962000000000e+01 0.0 
0.0 -1.962000000000e+01 0.0 
0.0 -1.962000000000e+01 0.0 
0.0 -1.962000000000e+01 0.0 
0.0 -1.962000000000e+01 0.0 
0.0 -1.962000000000e+01 0.0 
0.0 -1.962000000000e+01 0.0 
0.0 -1.962000000000e+01 0.0 
0.0 -1.962000000000e+01 0.0 
0.0 -1.962000000000e+01 0.0 
0.0 -1.962000000000e+01 0.0 
0.0 -1.962000000000e+01 0.0 
0.0 -1.962000000000e+01 0.0 
0.0 -1.962000000000e+01 0.0 
0.0 -1.962000000000e+01 0.0 
0.0 -1.962000000000e+01 0.0 
0.0 -1.962000000000e+01 0.0 
0.0 -1.962000000000e+01 0.0 
0.0 -1.962000000000e+01 0.0 
0.0 -1.962000000000e+01 0.0 
0.0 -1.962000000000e+01 0.0 
0.0 -1.962000000000e+01 0.0 
0.0 -1.962000000000e+01 0.0 
0.0 -1.962000000000e+01 0.0 
0.0 -1.962000000000e+01 0.0 
0.0 -1.962000000000e+01 0.0 
0.0 -1.962000000000e+01 0.0 
0.0 -1.962000000000e+01 0.0 
0.0 -1.962000000000e+01 0.0 
0.0 -1.962000000000e+01 0.0 
0.0 -1.962000000000e+01 0.0 
0.0 -1.962000000000e+01 0.0 
0.0 -1.962000000000e+01 0.0 
0.0 -1.962000000000e+01 0.0 
0.0 -1.962000000000e+01 0.0 
0.0 -1.962000000000e+01 0.0 
0.0 -1.962000000000e+01 0.0 
0.0 -1.962000000000e+01 0.0 
0.0 -1.962000000000e+01 0.0 
0.0 -1.962000000000e+01 0.0 
0.0 -1.962000000000e+01 0.0 
0.0 -1.962000000000e+01 0.0 
0.0 -1.962000000000e+01 0.0 
0.0 -1.962000000000e+01 0.0 
0.0 -1.962000000000e+01 0.0 
0.0 -1.962000000000e+01 0.0 
0.0 -1.962000000000e+01 0.0 
0.0 -1.962000000000e+01 0.0 
0.0 -1.962000000000e+01 0.0 
0.0 -1.962000000000e+01 0.0 
0.0 -1.962000000000e+01 0.0 
0.0 -1.962000000000e+01 0.0 
0.0 -1.962000000000e+01 0.0 
0.0 -1.962000000000e+01 0.0 
0.0 -1.962000000000e+01 0.0 
0.0 -1.962000000000e+01 0.0 
0.0 -1.962000000000e+01 0.0 
0.0 -1.962000000000e+01 0.0 
0.0 -1.962000000000e+01 0.0 
0.0 -1.962000000000e+01 0.0 
0.0 -1.962000000000e+01 0.0 
0.0 -1.962000000000e+01 0.0 
0.0 -1.962000000000e+01 0.0 
0.0 -1.962000000000e+01 0.0 
0.0 -1.962000000000e+01 0.0 
0.0 -1.962000000000e+01 0.0 
0.0 -1.962000000000e+01 0.0 
0.0 -1.962000000000e+01 0.0 
0.0 -1.962000000000e+01 0.0 
0.0 -1.962000000000e+01 0.0 
0.0 -1.962000000000e+01 0.0 
0.0 -1.962000000000e+01 0.0 
0.0 -1.962000000000e+01 0.0 
0.0 -1.962000000000e+01 0.0 
0.0 -1.962000000000e+01 0.0 
0.0 -1.962000000000e+01 0.0 
0.0 -1.962000000000e+01 0.0 
0.0 -1.962000000000e+01 0.0 
0.0 -1.962000000000e+01 0.0 
0.0 -1.962000000000e+01 0.0 
0.0 -1.962000000000e+01 0.0 
0.0 -1.962000000000e+01 0.0 
0.0 -1.962000000000e+01 0.0 
0.0 -1.962000000000e+01 0.0 
0.0 -1.962000000000e+01 0.0 
0.0 -1.962000000000e+01 0.0 
0.0 -1.962000000000e+01 0.0 
0.0 -1.962000000000e+01 0.0 
0.0 -1.962000000000e+01 0.0 
0.0 -1.962000000000e+01 0.0 
0.0 -1.962000000000e+01 0.0 
0.0 -1.962000000000e+01 0.0 
0.0 -1.962000000000e+01 0.0 
0.0 -1.962000000000e+01 0.0 
0.0 -1.962000000000e+01 0.0 
0.0 -1.962000000000e+01 0.0 
0.0 -1.962000000000e+01 0.0 
0.0 -1.962000000000e+01 0.0 
0.0 -1.962000000000e+01 0.0 
0.0 -1.962000000000e+01 0.0 
0.0 -1.962000000000e+01 0.0 
0.0 -1.962000000000e+01 0.0 
0.0 -1.962000000000e+01 0.0 
0.0 -1.962000000000e+01 0.0 
0.0 -1.962000000000e+01 0.0 
0.0 -1.962000000000e+01 0.0 
0.0 -1.962000000000e+01 0.0 
0.0 -1.962000000000e+01 0.0 
0.0 -1.962000000000e+01 0.0 
0.0 -1.962000000000e+01 0.0 
0.0 -1.962000000000e+01 0.0 
0.0 -1.962000000000e+01 0.0 
0.0 -1.962000000000e+01 0.0 
0.0 -1.962000000000e+01 0.0 
0.0 -1.962000000000e+01 0.0 
0.0 -1.962000000000e+01 0.0 
0.0 -1.962000000000e+01 0.0 
0.0 -1.962000000000e+01 0.0 
0.0 -1.962000000000e+01 0.0 
0.0 -1.962000000000e+01 0.0 
0.0 -1.962000000000e+01 0.0 
0.0 -1.962000000000e+01 0.0 
0.0 -1.962000000000e+01 0.0 
0.0 -1.962000000000e+01 0.0 
0.0 -1.962000000000e+01 0.0 
0.0 -1.962000000000e+01 0.0 
0.0 -1.962000000000e+01 0.0 
0.0 -1.962000000000e+01 0.0 
0.0 -1.962000000000e+01 0.0 
0.0 -1.962000000000e+01 0.0 
0.0 -1.962000000000e+01 0.0 
0.0 -1.962000000000e+01 0.0 
0.0 -1.962000000000e+01 0.0 
0.0 -1.962000000000e+01 0.0 
0.0 -1.962000000000e+01 0.0 
0.0 -1.962000000000e+01 0.0 
0.0 -1.962000000000e+01 0.0 
0.0 -1.962000000000e+01 0.0 
0.0 -1.962000000000e+01 0.0 
0.0 -1.962000000000e+01 0.0 
0.0 -1.962000000000e+01 0.0 
0.0 -1.962000000000e+01 0.0 
0.0 -1.962000000000e+01 0.0 
0.0 -1.962000000000e+01 0.0 
0.0 -1.962000000000e+01 0.0 
0.0 -1.962000000000e+01 0.0 
0.0 -1.962000000000e+01 0.0 
0.0 -1.962000000000e+01 0.0 
0.0 -1.962000000000e+01 0.0 
0.0 -1.962000000000e+01 0.0 
0.0 -1.962000000000e+01 0.0 
0.0 -1.962000000000e+01 0.0 
0.0 -1.962000000000e+01 0.0 
0.0 -1.962000000000e+01 0.0 
0.0 -1.962000000000e+01 0.0 
0.0 -1.962000000000e+01 0.0 
0.0 -1.962000000000e+01 0.0 
0.0 -1.962000000000e+01 0.0 
0.0 -1.962000000000e+01 0.0 
0.0 -1.962000000000e+01 0.0 
0.0 -1.962000000000e+01 0.0 
0.0 -1.962000000000e+01 0.0 
0.0 -1.962000000000e+01 0.0 
0.0 -1.962000000000e+01 0.0 
0.0 -1.962000000000e+01 0.0 
0.0 -1.962000000000e+01 0.0 
0.0 -1.962000000000e+01 0.0 
0.0 -1.962000000000e+01 0.0 
0.0 -1.962000000000e+01 0.0 
0.0 -1.962000000000e+01 0.0 
0.0 -1.962000000000e+01 0.0 
0.0 -1.962000000000e+01 0.0 
0.0 -1.962000000000e+01 0.0 
0.0 -1.962000000000e+01 0.0 
0.0 -1.962000000000e+01 0.0 
0.0 -1.962000000000e+01 0.0 
0.0 -1.962000000000e+01 0.0 
0.0 -1.962000000000e+01 0.0 
0.0 -1.962000000000e+01 0.0 
0.0 -1.962000000000e+01 0.0 
0.0 -1.962000000000e+01 0.0 
0.0 -1.962000000000e+01 0.0 
0.0 -1.962000000000e+01 0.0 
0.0 -1.962000000000e+01 0.0 
0.0 -1.962000000000e+01 0.0 
0.0 -1.962000000000e+01 0.0 
0.0 -1.962000000000e+01 0.0 
0.0 -1.962000000000e+01 0.0 
0.0 -1.962000000000e+01 0.0 
0.0 -1.962000000000e+01 0.0 
0.0 -1.962000000000e+01 0.0 
0.0 -1.962000000000e+01 0.0 
0.0 -1.962000000000e+01 0.0 
0.0 -1.962000000000e+01 0.0 
0.0 -1.962000000000e+01 0.0 
0.0 -1.962000000000e+01 0.0 
0.0 -1.962000000000e+01 0.0 
0.0 -1.962000000000e+01 0.0 
0.0 -1.962000000000e+01 0.0 
0.0 -1.962000000000e+01 0.0 
0.0 -1.962000000000e+01 0.0 
0.0 -1.962000000000e+01 0.0 
0.0 -1.962000000000e+01 0.0 
0.0 -1.962000000000e+01 0.0 
0.0 -1.962000000000e+01 0.0 
0.0 -1.962000000000e+01 0.0 
0.0 -1.962000000000e+01 0.0 
0.0 -1.962000000000e+01 0.0 
0.0 -1.962000000000e+01 0.0 
0.0 -1.962000000000e+01 0.0 
0.0 -1.962000000000e+01 0.0 
0.0 -1.962000000000e+01 0.0 
0.0 -1.962000000000e+01 0.0 
0.0 -1.962000000000e+01 0.0 
0.0 -1.962000000000e+01 0.0 
0.0 -1.962000000000e+01 0.0 
0.0 -1.962000000000e+01 0.0 
0.0 -1.962000000000e+01 0.0 
0.0 -1.962000000000e+01 0.0 
0.0 -1.962000000000e+01 0.0 
0.0 -1.962000000000e+01 0.0 
0.0 -1.962000000000e+01 0.0 
0.0 -1.962000000000e+01 0.0 
0.0 -1.962000000000e+01 0.0 
0.0 -1.962000000000e+01 0.0 
0.0 -1.962000000000e+01 0.0 
0.0 -1.962000000000e+01 0.0 
0.0 -1.962000000000e+01 0.0 
0.0 -1.962000000000e+01 0.0 
0.0 -1.962000000000e+01 0.0 
0.0 -1.962000000000e+01 0.0 
0.0 -1.962000000000e+01 0.0 
0.0 -1.962000000000e+01 0.0 
0.0 -1.962000000000e+01 0.0 
0.0 -1.962000000000e+01 0.0 
0.0 -1.962000000000e+01 0.0 
0.0 -1.962000000000e+01 0.0 
0.0 -1.962000000000e+01 0.0 
0.0 -1.962000000000e+01 0.0 
0.0 -1.962000000000e+01 0.0 
0.0 -1.962000000000e+01 0.0 
0.0 -1.962000000000e+01 0.0 
0.0 -1.962000000000e+01 0.0 
0.0 -1.962000000000e+01 0.0 
0.0 -1.962000000000e+01 0.0 
0.0 -1.962000000000e+01 0.0 
0.0 -1.962000000000e+01 0.0 
0.0 -1.962000000000e+01 0.0 
0.0 -1.962000000000e+01 0.0 
0.0 -1.962000000000e+01 0.0 
0.0 -1.962000000000e+01 0.0 
0.0 -1.962000000000e+01 0.0 
0.0 -1.962000000000e+01 0.0 
0.0 -1.962000000000e+01 0.0 
0.0 -1.962000000000e+01 0.0 
0.0 -1.962000000000e+01 0.0 
0.0 -1.962000000000e+01 0.0 
0.0 -1.962000000000e+01 0.0 
0.0 -1.962000000000e+01 0.0 
0.0 -1.962000000000e+01 0.0 
0.0 -1.962000000000e+01 0.0 
0.0 -1.962000000000e+01 0.0 
0.0 -1.962000000000e+01 0.0 
0.0 -1.962000000000e+01 0.0 
0.0 -1.962000000000e+01 0.0 
0.0 -1.962000000000e+01 0.0 
0.0 -1.962000000000e+01 0.0 
0.0 -1.962000000000e+01 0.0 
0.0 -1.962000000000e+01 0.0 
0.0 -1.962000000000e+01 0.0 
0.0 -1.962000000000e+01 0.0 
0.0 -1.962000000000e+01 0.0 
0.0 -1.962000000000e+01 0.0 
0.0 -1.962000000000e+01 0.0 
0.0 -1.962000000000e+01 0.0 
0.0 -1.962000000000e+01 0.0 
0.0 -1.962000000000e+01 0.0 
0.0 -1.962000000000e+01 0.0 
0.0 -1.962000000000e+01 0.0 
0.0 -1.962000000000e+01 0.0 
0.0 -1.962000000000e+01 0.0 
0.0 -1.962000000000e+01 0.0 
0.0 -1.962000000000e+01 0.0 
0.0 -1.962000000000e+01 0.0 
0.0 -1.962000000000e+01 0.0 
0.0 -1.962000000000e+01 0.0 
0.0 -1.962000000000e+01 0.0 
0.0 -1.962000000000e+01 0.0 
0.0 -1.962000000000e+01 0.0 
0.0 -1.962000000000e+01 0.0 
0.0 -1.962000000000e+01 0.0 
0.0 -1.962000000000e+01 0.0 
0.0 -1.962000000000e+01 0.0 
0.0 -1.962000000000e+01 0.0 
0.0 -1.962000000000e+01 0.0 
0.0 -1.962000000000e+01 0.0 
0.0 -1.962000000000e+01 0.0 
0.0 -1.962000000000e+01 0.0 
0.0 -1.962000000000e+01 0.0 
0.0 -1.962000000000e+01 0.0 
0.0 -1.962000000000e+01 0.0 
0.0 -1.962000000000e+01 0.0 
0.0 -1.962000000000e+01 0.0 
0.0 -1.962000000000e+01 0.0 
0.0 -1.962000000000e+01 0.0 
0.0 -1.962000000000e+01 0.0 
0.0 -1.962000000000e+01 0.0 
0.0 -1.962000000000e+01 0.0 
0.0 -1.962000000000e+01 0.0 
0.0 -1.962000000000e+01 0.0 
0.0 -1.962000000000e+01 0.0 
0.0 -1.962000000000e+01 0.0 
0.0 -1.962000000000e+01 0.0 
0.0 -1.962000000000e+01 0.0 
0.0 -1.962000000000e+01 0.0 
0.0 -1.962000000000e+01 0.0 
0.0 -1.962000000000e+01 0.0 
0.0 -1.962000000000e+01 0.0 
0.0 -1.962000000000e+01 0.0 
0.0 -1.962000000000e+01 0.0 
0.0 -1.962000000000e+01 0.0 
0.0 -1.962000000000e+01 0.0 
0.0 -1.962000000000e+01 0.0 
0.0 -1.962000000000e+01 0.0 
0.0 -1.962000000000e+01 0.0 
0.0 -1.962000000000e+01 0.0 
0.0 -1.962000000000e+01 0.0 
0.0 -1.962000000000e+01 0.0 
0.0 -1.962000000000e+01 0.0 
0.0 -1.962000000000e+01 0.0 
0.0 -1.962000000000e+01 0.0 
0.0 -1.962000000000e+01 0.0 
0.0 -1.962000000000e+01 0.0 
0.0 -1.962000000000e+01 0.0 
0.0 -1.962000000000e+01 0.0 
0.0 -1.962000000000e+01 0.0 
0.0 -1.962000000000e+01 0.0 
0.0 -1.962000000000e+01 0.0 
0.0 -1.962000000000e+01 0.0 
0.0 -1.962000000000e+01 0.0 
0.0 -1.962000000000e+01 0.0 
0.0 -1.962000000000e+01 0.0 
0.0 -1.962000000000e+01 0.0 
0.0 -1.962000000000e+01 0.0 
0.0 -1.962000000000e+01 0.0 
0.0 -1.962000000000e+01 0.0 
0.0 -1.962000000000e+01 0.0 
0.0 -1.962000000000e+01 0.0 
0.0 -1.962000000000e+01 0.0 
0.0 -1.962000000000e+01 0.0 
0.0 -1.962000000000e+01 0.0 
0.0 -1.962000000000e+01 0.0 
0.0 -1.962000000000e+01 0.0 
0.0 -1.962000000000e+01 0.0 
0.0 -1.962000000000e+01 0.0 
0.0 -1.962000000000e+01 0.0 
0.0 -1.962000000000e+01 0.0 
0.0 -1.962000000000e+01 0.0 
0.0 -1.962000000000e+01 0.0 
0.0 -1.962000000000e+01 0.0 
0.0 -1.962000000000e+01 0.0 
0.0 -1.962000000000e+01 0.0 
0.0 -1.962000000000e+01 0.0 
0.0 -1.962000000000e+01 0.0 
0.0 -1.962000000000e+01 0.0 
0.0 -1.962000000000e+01 0.0 
0.0 -1.962000000000e+01 0.0 
0.0 -1.962000000000e+01 0.0 
0.0 -1.962000000000e+01 0.0 
0.0 -1.962000000000e+01 0.0 
0.0 -1.962000000000e+01 0.0 
0.0 -1.962000000000e+01 0.0 
0.0 -1.962000000000e+01 0.0 
0.0 -1.962000000000e+01 0.0 
0.0 -1.962000000000e+01 0.0 
0.0 -1.962000000000e+01 0.0 
0.0 -1.962000000000e+01 0.0 
0.0 -1.962000000000e+01 0.0 
0.0 -1.962000000000e+01 0.0 
0.0 -1.962000000000e+01 0.0 
0.0 -1.962000000000e+01 0.0 
0.0 -1.962000000000e+01 0.0 
0.0 -1.962000000000e+01 0.0 
0.0 -1.962000000000e+01 0.0 
0.0 -1.962000000000e+01 0.0 
0.0 -1.962000000000e+01 0.0 
0.0 -1.962000000000e+01 0.0 
0.0 -1.962000000000e+01 0.0 
0.0 -1.962000000000e+01 0.0 
0.0 -1.962000000000e+01 0.0 
0.0 -1.962000000000e+01 0.0 
0.0 -1.962000000000e+01 0.0 
0.0 -1.962000000000e+01 0.0 
0.0 -1.962000000000e+01 0.0 
0.0 -1.962000000000e+01 0.0 
0.0 -1.962000000000e+01 0.0 
0.0 -1.962000000000e+01 0.0 
0.0 -1.962000000000e+01 0.0 
0.0 -1.962000000000e+01 0.0 
0.0 -1.962000000000e+01 0.0 
0.0 -1.962000000000e+01 0.0 
0.0 -1.962000000000e+01 0.0 
0.0 -1.962000000000e+01 0.0 
0.0 -1.962000000000e+01 0.0 
0.0 -1.962000000000e+01 0.0 
0.0 -1.962000000000e+01 0.0 
0.0 -1.962000000000e+01 0.0 
0.0 -1.962000000000e+01 0.0 
0.0 -1.962000000000e+01 0.0 
0.0 -1.962000000000e+01 0.0 
0.0 -1.962000000000e+01 0.0 
0.0 -1.962000000000e+01 0.0 
0.0 -1.962000000000e+01 0.0 
0.0 -1.962000000000e+01 0.0 
0.0 -1.962000000000e+01 0.0 
0.0 -1.962000000000e+01 0.0 
0.0 -1.962000000000e+01 0.0 
0.0 -1.962000000000e+01 0.0 
0.0 -1.962000000000e+01 0.0 
0.0 -1.962000000000e+01 0.0 
0.0 -1.962000000000e+01 0.0 
0.0 -1.962000000000e+01 0.0 
0.0 -1.962000000000e+01 0.0 
0.0 -1.962000000000e+01 0.0 
0.0 -1.962000000000e+01 0.0 
0.0 -1.962000000000e+01 0.0 
0.0 -1.962000000000e+01 0.0 
0.0 -1.962000000000e+01 0.0 
0.0 -1.962000000000e+01 0.0 
0.0 -1.962000000000e+01 0.0 
0.0 -1.962000000000e+01 0.0 
0.0 -1.962000000000e+01 0.0 
0.0 -1.962000000000e+01 0.0 
0.0 -1.962000000000e+01 0.0 
0.0 -1.962000000000e+01 0.0 
0.0 -1.962000000000e+01 0.0 
0.0 -1.962000000000e+01 0.0 
0.0 -1.962000000000e+01 0.0 
0.0 -1.962000000000e+01 0.0 
0.0 -1.962000000000e+01 0.0 
0.0 -1.962000000000e+01 0.0 
0.0 -1.962000000000e+01 0.0 
0.0 -1.962000000000e+01 0.0 
0.0 -1.962000000000e+01 0.0 
0.0 -1.962000000000e+01 0.0 
0.0 -1.962000000000e+01 0.0 
0.0 -1.962000000000e+01 0.0 
0.0 -1.962000000000e+01 0.0 
0.0 -1.962000000000e+01 0.0 
0.0 -1.962000000000e+01 0.0 
0.0 -1.962000000000e+01 0.0 
0.0 -1.962000000000e+01 0.0 
0.0 -1.962000000000e+01 0.0 
0.0 -1.962000000000e+01 0.0 
0.0 -1.962000000000e+01 0.0 
0.0 -1.962000000000e+01 0.0 
0.0 -1.962000000000e+01 0.0 
0.0 -1.962000000000e+01 0.0 
0.0 -1.962000000000e+01 0.0 
0.0 -1.962000000000e+01 0.0 
0.0 -1.962000000000e+01 0.0 
0.0 -1.962000000000e+01 0.0 
0.0 -1.962000000000e+01 0.0 
0.0 -1.962000000000e+01 0.0 
0.0 -1.962000000000e+01 0.0 
0.0 -1.962000000000e+01 0.0 
0.0 -1.962000000000e+01 0.0 
0.0 -1.962000000000e+01 0.0 
0.0 -1.962000000000e+01 0.0 
0.0 -1.962000000000e+01 0.0 
0.0 -1.962000000000e+01 0.0 
0.0 -1.962000000000e+01 0.0 
0.0 -1.962000000000e+01 0.0 
0.0 -1.962000000000e+01 0.0 
0.0 -1.962000000000e+01 0.0 
0.0 -1.962000000000e+01 0.0 
0.0 -1.962000000000e+01 0.0 
0.0 -1.962000000000e+01 0.0 
0.0 -1.962000000000e+01 0.0 
0.0 -1.962000000000e+01 0.0 
0.0 -1.962000000000e+01 0.0 
0.0 -1.962000000000e+01 0.0 
0.0 -1.962000000000e+01 0.0 
0.0 -1.962000000000e+01 0.0 
0.0 -1.962000000000e+01 0.0 
0.0 -1.962000000000e+01 0.0 
0.0 -1.962000000000e+01 0.0 
0.0 -1.962000000000e+01 0.0 
0.0 -1.962000000000e+01 0.0 
0.0 -1.962000000000e+01 0.0 
0.0 -1.962000000000e+01 0.0 
0.0 -1.962000000000e+01 0.0 
0.0 -1.962000000000e+01 0.0 
0.0 -1.962000000000e+01 0.0 
0.0 -1.962000000000e+01 0.0 
0.0 -1.962000000000e+01 0.0 
0.0 -1.962000000000e+01 0.0 
0.0 -1.962000000000e+01 0.0 
0.0 -1.962000000000e+01 0.0 
0.0 -1.962000000000e+01 0.0 
0.0 -1.962000000000e+01 0.0 
0.0 -1.962000000000e+01 0.0 
0.0 -1.962000000000e+01 0.0 
0.0 -1.962000000000e+01 0.0 
0.0 -1.962000000000e+01 0.0 
0.0 -1.962000000000e+01 0.0 
0.0 -1.962000000000e+01 0.0 
0.0 -1.962000000000e+01 0.0 
0.0 -1.962000000000e+01 0.0 
0.0 -1.962000000000e+01 0.0 
0.0 -1.962000000000e+01 0.0 
0.0 -1.962000000000e+01 0.0 
0.0 -1.962000000000e+01 0.0 
0.0 -1.962000000000e+01 0.0 
0.0 -1.962000000000e+01 0.0 
0.0 -1.962000000000e+01 0.0 
0.0 -1.962000000000e+01 0.0 
0.0 -1.962000000000e+01 0.0 
0.0 -1.962000000000e+01 0.0 
0.0 -1.962000000000e+01 0.0 
0.0 -1.962000000000e+01 0.0 
0.0 -1.962000000000e+01 0.0 
0.0 -1.962000000000e+01 0.0 
0.0 -1.962000000000e+01 0.0 
0.0 -1.962000000000e+01 0.0 
0.0 -1.962000000000e+01 0.0 
0.0 -1.962000000000e+01 0.0 
0.0 -1.962000000000e+01 0.0 
0.0 -1.962000000000e+01 0.0 
0.0 -1.962000000000e+01 0.0 
0.0 -1.962000000000e+01 0.0 
0.0 -1.962000000000e+01 0.0 
0.0 -1.962000000000e+01 0.0 
0.0 -1.962000000000e+01 0.0 
0.0 -1.962000000000e+01 0.0 
0.0 -1.962000000000e+01 0.0 
0.0 -1.962000000000e+01 0.0 
0.0 -1.962000000000e+01 0.0 
0.0 -1.962000000000e+01 0.0 
0.0 -1.962000000000e+01 0.0 
0.0 -1.962000000000e+01 0.0 
0.0 -1.962000000000e+01 0.0 
0.0 -1.962000000000e+01 0.0 
0.0 -1.962000000000e+01 0.0 
0.0 -1.962000000000e+01 0.0 
0.0 -1.962000000000e+01 0.0 
0.0 -1.962000000000e+01 0.0 
0.0 -1.962000000000e+01 0.0 
0.0 -1.962000000000e+01 0.0 
0.0 -1.962000000000e+01 0.0 
0.0 -1.962000000000e+01 0.0 
0.0 -1.962000000000e+01 0.0 
0.0 -1.962000000000e+01 0.0 
0.0 -1.962000000000e+01 0.0 
0.0 -1.962000000000e+01 0.0 
0.0 -1.962000000000e+01 0.0 
0.0 -1.962000000000e+01 0.0 
0.0 -1.962000000000e+01 0.0 
0.0 -1.962000000000e+01 0.0 
0.0 -1.962000000000e+01 0.0 
0.0 -1.962000000000e+01 0.0 
0.0 -1.962000000000e+01 0.0 
0.0 -1.962000000000e+01 0.0 
0.0 -1.962000000000e+01 0.0 
0.0 -1.962000000000e+01 0.0 
0.0 -1.962000000000e+01 0.0 
0.0 -1.962000000000e+01 0.0 
0.0 -1.962000000000e+01 0.0 
0.0 -1.962000000000e+01 0.0 
0.0 -1.962000000000e+01 0.0 
0.0 -1.962000000000e+01 0.0 
0.0 -1.962000000000e+01 0.0 
0.0 -1.962000000000e+01 0.0 
0.0 -1.962000000000e+01 0.0 
0.0 -1.962000000000e+01 0.0 
0.0 -1.962000000000e+01 0.0 
0.0 -1.962000000000e+01 0.0 
0.0 -1.962000000000e+01 0.0 
0.0 -1.962000000000e+01 0.0 
0.0 -1.962000000000e+01 0.0 
0.0 -1.962000000000e+01 0.0 
0.0 -1.962000000000e+01 0.0 
0.0 -1.962000000000e+01 0.0 
0.0 -1.962000000000e+01 0.0 
0.0 -1.962000000000e+01 0.0 
0.0 -1.962000000000e+01 0.0 
0.0 -1.962000000000e+01 0.0 

VECTORS node_rhside_materi_fixed float
5.745568597643e-01 0.0 0.0 
1.419659028252e+01 0.0 0.0 
-8.890799300025e+01 -2.002096268040e+02 0.0 
4.257756394852e+01 -1.026272266940e+02 0.0 
1.337032964664e-01 0.0 0.0 
-8.060026222286e+00 0.0 0.0 
-1.688020673521e+01 0.0 0.0 
-2.659859202996e+01 0.0 0.0 
-3.591026731960e+01 0.0 0.0 
-4.530163005172e+01 0.0 0.0 
-5.490851198814e+01 0.0 0.0 
-6.578373004413e+01 0.0 0.0 
-7.646623060355e+01 0.0 0.0 
-8.641713871396e+01 0.0 0.0 
-9.640803191355e+01 0.0 0.0 
-1.061058239742e+02 0.0 0.0 
-1.149784319096e+02 0.0 0.0 
-1.245551142230e+02 0.0 0.0 
-1.340095860430e+02 0.0 0.0 
-1.437675078646e+02 0.0 0.0 
-1.533343446571e+02 0.0 0.0 
-1.627301954666e+02 0.0 0.0 
-1.723412845774e+02 0.0 0.0 
1.650950229649e+00 -2.038651643974e+02 0.0 
2.920657426218e+00 -2.055783204728e+02 0.0 
7.373910547456e+00 -2.048523508682e+02 0.0 
6.437096617063e+00 -2.052987434295e+02 0.0 
1.093461883778e+01 -2.071197777033e+02 0.0 
1.295603040064e+01 -2.070761436384e+02 0.0 
1.544757191593e+01 -2.092556149944e+02 0.0 
1.857794650239e+01 -2.116051006326e+02 0.0 
2.379952372272e+01 -2.134530633742e+02 0.0 
2.413453599757e+01 -2.152920838024e+02 0.0 
3.110246642451e+01 -2.221482264640e+02 0.0 
3.478704273277e+01 -2.244881628386e+02 0.0 
3.884772554939e+01 -2.314779337196e+02 0.0 
4.195743359218e+01 -2.363226843616e+02 0.0 
4.578137299941e+01 -2.440395403757e+02 0.0 
4.795007211566e+01 -2.519604486888e+02 0.0 
4.848147586097e+01 -2.571974875172e+02 0.0 
4.812851277747e+01 -2.653556220886e+02 0.0 
4.642047063753e+01 -2.704461234865e+02 0.0 
4.542483956392e+01 -2.772620925012e+02 0.0 
4.431384108195e+01 -2.845701106596e+02 0.0 
4.286944067299e+01 -2.915937688560e+02 0.0 
4.151847400295e+01 -2.983475899942e+02 0.0 
3.976160897131e+01 -3.050552495423e+02 0.0 
3.816484686376e+01 -3.112285446889e+02 0.0 
3.651284222781e+01 -3.170940190789e+02 0.0 
3.459424454759e+01 -3.234761155685e+02 0.0 
3.235313786720e+01 -3.297011527662e+02 0.0 
3.045446078710e+01 -3.351852615676e+02 0.0 
2.800581457927e+01 -3.410092510671e+02 0.0 
2.558643390330e+01 -3.470758403410e+02 0.0 
2.338543377400e+01 -3.517250481089e+02 0.0 
2.093029681604e+01 -3.569362800478e+02 0.0 
1.883479594622e+01 -3.612114040339e+02 0.0 
1.688208919060e+01 -3.653551749187e+02 0.0 
1.466798048362e+01 -3.692623949121e+02 0.0 
1.296556036845e+01 -3.730239258249e+02 0.0 
1.110675450911e+01 -3.760937715242e+02 0.0 
9.627566340800e+00 -3.794595860394e+02 0.0 
8.355039238801e+00 -3.822669153153e+02 0.0 
6.981935569814e+00 -3.848710074040e+02 0.0 
5.700261683897e+00 -3.873143893092e+02 0.0 
4.942472702823e+00 -3.897457650243e+02 0.0 
3.941027793190e+00 -3.919005378369e+02 0.0 
2.905166469572e+00 -3.936414402930e+02 0.0 
2.451319267672e+00 -3.957021117465e+02 0.0 
2.274197691356e+00 -3.972870014855e+02 0.0 
1.158899151644e+00 -3.988854597479e+02 0.0 
6.605904568477e-01 -3.995488791727e+02 0.0 
3.250109795180e+01 0.0 0.0 
4.057372022672e+01 0.0 0.0 
4.800010664198e+01 0.0 0.0 
5.489191558482e+01 0.0 0.0 
6.148517733209e+01 0.0 0.0 
6.800840506869e+01 0.0 0.0 
7.350870661626e+01 0.0 0.0 
7.802955944921e+01 0.0 0.0 
8.383062022862e+01 0.0 0.0 
0.0 0.0 0.0 
0.0 0.0 0.0 
0.0 0.0 0.0 
0.0 0.0 0.0 
0.0 0.0 0.0 
0.0 0.0 0.0 
0.0 0.0 0.0 
0.0 0.0 0.0 
0.0 0.0 0.0 
0.0 0.0 0.0 
0.0 0.0 0.0 
0.0 0.0 0.0 
0.0 0.0 0.0 
0.0 0.0 0.0 
0.0 0.0 0.0 
0.0 0.0 0.0 
0.0 0.0 0.0 
0.0 0.0 0.0 
0.0 0.0 0.0 
0.0 0.0 0.0 
0.0 0.0 0.0 
0.0 0.0 0.0 
0.0 0.0 0.0 
0.0 0.0 0.0 
0.0 0.0 0.0 
0.0 0.0 0.0 
0.0 0.0 0.0 
0.0 0.0 0.0 
0.0 0.0 0.0 
0.0 0.0 0.0 
0.0 0.0 0.0 
0.0 0.0 0.0 
0.0 0.0 0.0 
0.0 0.0 0.0 
0.0 0.0 0.0 
0.0 0.0 0.0 
0.0 0.0 0.0 
0.0 0.0 0.0 
0.0 0.0 0.0 
0.0 0.0 0.0 
0.0 0.0 0.0 
0.0 0.0 0.0 
0.0 0.0 0.0 
0.0 0.0 0.0 
0.0 0.0 0.0 
0.0 0.0 0.0 
0.0 0.0 0.0 
0.0 0.0 0.0 
0.0 0.0 0.0 
0.0 0.0 0.0 
0.0 0.0 0.0 
0.0 0.0 0.0 
0.0 0.0 0.0 
0.0 0.0 0.0 
0.0 0.0 0.0 
0.0 0.0 0.0 
0.0 0.0 0.0 
0.0 0.0 0.0 
0.0 0.0 0.0 
0.0 0.0 0.0 
0.0 0.0 0.0 
0.0 0.0 0.0 
0.0 0.0 0.0 
0.0 0.0 0.0 
0.0 0.0 0.0 
0.0 0.0 0.0 
0.0 0.0 0.0 
0.0 0.0 0.0 
0.0 0.0 0.0 
0.0 0.0 0.0 
0.0 0.0 0.0 
0.0 0.0 0.0 
0.0 0.0 0.0 
0.0 0.0 0.0 
0.0 0.0 0.0 
0.0 0.0 0.0 
0.0 0.0 0.0 
0.0 0.0 0.0 
0.0 0.0 0.0 
0.0 0.0 0.0 
0.0 0.0 0.0 
0.0 0.0 0.0 
0.0 0.0 0.0 
0.0 0.0 0.0 
0.0 0.0 0.0 
0.0 0.0 0.0 
0.0 0.0 0.0 
0.0 0.0 0.0 
0.0 0.0 0.0 
0.0 0.0 0.0 
0.0 0.0 0.0 
0.0 0.0 0.0 
0.0 0.0 0.0 
0.0 0.0 0.0 
0.0 0.0 0.0 
0.0 0.0 0.0 
0.0 0.0 0.0 
0.0 0.0 0.0 
0.0 0.0 0.0 
0.0 0.0 0.0 
0.0 0.0 0.0 
0.0 0.0 0.0 
0.0 0.0 0.0 
0.0 0.0 0.0 
0.0 0.0 0.0 
0.0 0.0 0.0 
0.0 0.0 0.0 
0.0 0.0 0.0 
0.0 0.0 0.0 
0.0 0.0 0.0 
0.0 0.0 0.0 
0.0 0.0 0.0 
0.0 0.0 0.0 
0.0 0.0 0.0 
0.0 0.0 0.0 
0.0 0.0 0.0 
0.0 0.0 0.0 
0.0 0.0 0.0 
0.0 0.0 0.0 
0.0 0.0 0.0 
0.0 0.0 0.0 
0.0 0.0 0.0 
0.0 0.0 0.0 
0.0 0.0 0.0 
0.0 0.0 0.0 
0.0 0.0 0.0 
0.0 0.0 0.0 
0.0 0.0 0.0 
0.0 0.0 0.0 
0.0 0.0 0.0 
0.0 0.0 0.0 
0.0 0.0 0.0 
0.0 0.0 0.0 
0.0 0.0 0.0 
0.0 0.0 0.0 
0.0 0.0 0.0 
0.0 0.0 0.0 
0.0 0.0 0.0 
0.0 0.0 0.0 
0.0 0.0 0.0 
0.0 0.0 0.0 
0.0 0.0 0.0 
0.0 0.0 0.0 
0.0 0.0 0.0 
0.0 0.0 0.0 
0.0 0.0 0.0 
0.0 0.0 0.0 
0.0 0.0 0.0 
0.0 0.0 0.0 
0.0 0.0 0.0 
0.0 0.0 0.0 
0.0 0.0 0.0 
0.0 0.0 0.0 
0.0 0.0 0.0 
0.0 0.0 0.0 
0.0 0.0 0.0 
0.0 0.0 0.0 
0.0 0.0 0.0 
0.0 0.0 0.0 
0.0 0.0 0.0 
0.0 0.0 0.0 
0.0 0.0 0.0 
0.0 0.0 0.0 
0.0 0.0 0.0 
0.0 0.0 0.0 
0.0 0.0 0.0 
0.0 0.0 0.0 
0.0 0.0 0.0 
0.0 0.0 0.0 
0.0 0.0 0.0 
0.0 0.0 0.0 
0.0 0.0 0.0 
0.0 0.0 0.0 
0.0 0.0 0.0 
0.0 0.0 0.0 
0.0 0.0 0.0 
0.0 0.0 0.0 
0.0 0.0 0.0 
0.0 0.0 0.0 
0.0 0.0 0.0 
0.0 0.0 0.0 
0.0 0.0 0.0 
0.0 0.0 0.0 
0.0 0.0 0.0 
0.0 0.0 0.0 
0.0 0.0 0.0 
0.0 0.0 0.0 
0.0 0.0 0.0 
0.0 0.0 0.0 
0.0 0.0 0.0 
0.0 0.0 0.0 
0.0 0.0 0.0 
0.0 0.0 0.0 
0.0 0.0 0.0 
0.0 0.0 0.0 
0.0 0.0 0.0 
0.0 0.0 0.0 
0.0 0.0 0.0 
0.0 0.0 0.0 
0.0 0.0 0.0 
0.0 0.0 0.0 
0.0 0.0 0.0 
0.0 0.0 0.0 
0.0 0.0 0.0 
0.0 0.0 0.0 
0.0 0.0 0.0 
0.0 0.0 0.0 
0.0 0.0 0.0 
0.0 0.0 0.0 
0.0 0.0 0.0 
0.0 0.0 0.0 
0.0 0.0 0.0 
0.0 0.0 0.0 
0.0 0.0 0.0 
0.0 0.0 0.0 
0.0 0.0 0.0 
0.0 0.0 0.0 
0.0 0.0 0.0 
0.0 0.0 0.0 
0.0 0.0 0.0 
0.0 0.0 0.0 
0.0 0.0 0.0 
0.0 0.0 0.0 
0.0 0.0 0.0 
0.0 0.0 0.0 
0.0 0.0 0.0 
0.0 0.0 0.0 
0.0 0.0 0.0 
0.0 0.0 0.0 
0.0 0.0 0.0 
0.0 0.0 0.0 
0.0 0.0 0.0 
0.0 0.0 0.0 
0.0 0.0 0.0 
0.0 0.0 0.0 
0.0 0.0 0.0 
0.0 0.0 0.0 
0.0 0.0 0.0 
0.0 0.0 0.0 
0.0 0.0 0.0 
0.0 0.0 0.0 
0.0 0.0 0.0 
0.0 0.0 0.0 
0.0 0.0 0.0 
0.0 0.0 0.0 
0.0 0.0 0.0 
0.0 0.0 0.0 
0.0 0.0 0.0 
0.0 0.0 0.0 
0.0 0.0 0.0 
0.0 0.0 0.0 
0.0 0.0 0.0 
0.0 0.0 0.0 
0.0 0.0 0.0 
0.0 0.0 0.0 
0.0 0.0 0.0 
0.0 0.0 0.0 
0.0 0.0 0.0 
0.0 0.0 0.0 
0.0 0.0 0.0 
0.0 0.0 0.0 
0.0 0.0 0.0 
0.0 0.0 0.0 
0.0 0.0 0.0 
0.0 0.0 0.0 
0.0 0.0 0.0 
0.0 0.0 0.0 
0.0 0.0 0.0 
0.0 0.0 0.0 
0.0 0.0 0.0 
0.0 0.0 0.0 
0.0 0.0 0.0 
0.0 0.0 0.0 
0.0 0.0 0.0 
0.0 0.0 0.0 
0.0 0.0 0.0 
0.0 0.0 0.0 
0.0 0.0 0.0 
0.0 0.0 0.0 
0.0 0.0 0.0 
0.0 0.0 0.0 
0.0 0.0 0.0 
0.0 0.0 0.0 
0.0 0.0 0.0 
0.0 0.0 0.0 
0.0 0.0 0.0 
0.0 0.0 0.0 
0.0 0.0 0.0 
0.0 0.0 0.0 
0.0 0.0 0.0 
0.0 0.0 0.0 
0.0 0.0 0.0 
0.0 0.0 0.0 
0.0 0.0 0.0 
0.0 0.0 0.0 
0.0 0.0 0.0 
0.0 0.0 0.0 
0.0 0.0 0.0 
0.0 0.0 0.0 
0.0 0.0 0.0 
0.0 0.0 0.0 
0.0 0.0 0.0 
0.0 0.0 0.0 
0.0 0.0 0.0 
0.0 0.0 0.0 
0.0 0.0 0.0 
0.0 0.0 0.0 
0.0 0.0 0.0 
0.0 0.0 0.0 
0.0 0.0 0.0 
0.0 0.0 0.0 
0.0 0.0 0.0 
0.0 0.0 0.0 
0.0 0.0 0.0 
0.0 0.0 0.0 
0.0 0.0 0.0 
0.0 0.0 0.0 
0.0 0.0 0.0 
0.0 0.0 0.0 
0.0 0.0 0.0 
0.0 0.0 0.0 
0.0 0.0 0.0 
0.0 0.0 0.0 
0.0 0.0 0.0 
0.0 0.0 0.0 
0.0 0.0 0.0 
0.0 0.0 0.0 
0.0 0.0 0.0 
0.0 0.0 0.0 
0.0 0.0 0.0 
0.0 0.0 0.0 
0.0 0.0 0.0 
0.0 0.0 0.0 
0.0 0.0 0.0 
0.0 0.0 0.0 
0.0 0.0 0.0 
0.0 0.0 0.0 
0.0 0.0 0.0 
0.0 0.0 0.0 
0.0 0.0 0.0 
0.0 0.0 0.0 
0.0 0.0 0.0 
0.0 0.0 0.0 
0.0 0.0 0.0 
0.0 0.0 0.0 
0.0 0.0 0.0 
0.0 0.0 0.0 
0.0 0.0 0.0 
0.0 0.0 0.0 
0.0 0.0 0.0 
0.0 0.0 0.0 
0.0 0.0 0.0 
0.0 0.0 0.0 
0.0 0.0 0.0 
0.0 0.0 0.0 
0.0 0.0 0.0 
0.0 0.0 0.0 
0.0 0.0 0.0 
0.0 0.0 0.0 
0.0 0.0 0.0 
0.0 0.0 0.0 
0.0 0.0 0.0 
0.0 0.0 0.0 
0.0 0.0 0.0 
0.0 0.0 0.0 
0.0 0.0 0.0 
0.0 0.0 0.0 
0.0 0.0 0.0 
0.0 0.0 0.0 
0.0 0.0 0.0 
0.0 0.0 0.0 
0.0 0.0 0.0 
0.0 0.0 0.0 
0.0 0.0 0.0 
0.0 0.0 0.0 
0.0 0.0 0.0 
0.0 0.0 0.0 
0.0 0.0 0.0 
0.0 0.0 0.0 
0.0 0.0 0.0 
0.0 0.0 0.0 
0.0 0.0 0.0 
0.0 0.0 0.0 
0.0 0.0 0.0 
0.0 0.0 0.0 
0.0 0.0 0.0 
0.0 0.0 0.0 
0.0 0.0 0.0 
0.0 0.0 0.0 
0.0 0.0 0.0 
0.0 0.0 0.0 
0.0 0.0 0.0 
0.0 0.0 0.0 
0.0 0.0 0.0 
0.0 0.0 0.0 
0.0 0.0 0.0 
0.0 0.0 0.0 
0.0 0.0 0.0 
0.0 0.0 0.0 
0.0 0.0 0.0 
0.0 0.0 0.0 
0.0 0.0 0.0 
0.0 0.0 0.0 
0.0 0.0 0.0 
0.0 0.0 0.0 
0.0 0.0 0.0 
0.0 0.0 0.0 
0.0 0.0 0.0 
0.0 0.0 0.0 
0.0 0.0 0.0 
0.0 0.0 0.0 
0.0 0.0 0.0 
0.0 0.0 0.0 
0.0 0.0 0.0 
0.0 0.0 0.0 
0.0 0.0 0.0 
0.0 0.0 0.0 
0.0 0.0 0.0 
0.0 0.0 0.0 
0.0 0.0 0.0 
0.0 0.0 0.0 
0.0 0.0 0.0 
0.0 0.0 0.0 
0.0 0.0 0.0 
0.0 0.0 0.0 
0.0 0.0 0.0 
0.0 0.0 0.0 
0.0 0.0 0.0 
0.0 0.0 0.0 
0.0 0.0 0.0 
0.0 0.0 0.0 
0.0 0.0 0.0 
0.0 0.0 0.0 
0.0 0.0 0.0 
0.0 0.0 0.0 
0.0 0.0 0.0 
0.0 0.0 0.0 
0.0 0.0 0.0 
0.0 0.0 0.0 
0.0 0.0 0.0 
0.0 0.0 0.0 
0.0 0.0 0.0 
0.0 0.0 0.0 
0.0 0.0 0.0 
0.0 0.0 0.0 
0.0 0.0 0.0 
0.0 0.0 0.0 
0.0 0.0 0.0 
0.0 0.0 0.0 
0.0 0.0 0.0 
0.0 0.0 0.0 
0.0 0.0 0.0 
0.0 0.0 0.0 
0.0 0.0 0.0 
0.0 0.0 0.0 
0.0 0.0 0.0 
0.0 0.0 0.0 
0.0 0.0 0.0 
0.0 0.0 0.0 
0.0 0.0 0.0 
0.0 0.0 0.0 
0.0 0.0 0.0 
0.0 0.0 0.0 
0.0 0.0 0.0 
0.0 0.0 0.0 
0.0 0.0 0.0 
0.0 0.0 0.0 
0.0 0.0 0.0 
0.0 0.0 0.0 
0.0 0.0 0.0 
0.0 0.0 0.0 
0.0 0.0 0.0 
0.0 0.0 0.0 
0.0 0.0 0.0 
0.0 0.0 0.0 
0.0 0.0 0.0 
0.0 0.0 0.0 
0.0 0.0 0.0 
0.0 0.0 0.0 
0.0 0.0 0.0 
0.0 0.0 0.0 
0.0 0.0 0.0 
0.0 0.0 0.0 
0.0 0.0 0.0 
0.0 0.0 0.0 
0.0 0.0 0.0 
0.0 0.0 0.0 
0.0 0.0 0.0 
0.0 0.0 0.0 
0.0 0.0 0.0 
0.0 0.0 0.0 
0.0 0.0 0.0 
0.0 0.0 0.0 
0.0 0.0 0.0 
0.0 0.0 0.0 
0.0 0.0 0.0 
0.0 0.0 0.0 
0.0 0.0 0.0 
0.0 0.0 0.0 
0.0 0.0 0.0 
0.0 0.0 0.0 
0.0 0.0 0.0 
0.0 0.0 0.0 
0.0 0.0 0.0 
0.0 0.0 0.0 
0.0 0.0 0.0 
0.0 0.0 0.0 
0.0 0.0 0.0 
0.0 0.0 0.0 
0.0 0.0 0.0 
0.0 0.0 0.0 
0.0 0.0 0.0 
0.0 0.0 0.0 
0.0 0.0 0.0 
0.0 0.0 0.0 
0.0 0.0 0.0 
0.0 0.0 0.0 
0.0 0.0 0.0 
0.0 0.0 0.0 
0.0 0.0 0.0 
0.0 0.0 0.0 
0.0 0.0 0.0 
0.0 0.0 0.0 
0.0 0.0 0.0 
0.0 0.0 0.0 
0.0 0.0 0.0 
0.0 0.0 0.0 
0.0 0.0 0.0 
0.0 0.0 0.0 
0.0 0.0 0.0 
0.0 0.0 0.0 
0.0 0.0 0.0 
0.0 0.0 0.0 
0.0 0.0 0.0 
0.0 0.0 0.0 
0.0 0.0 0.0 
0.0 0.0 0.0 
0.0 0.0 0.0 
0.0 0.0 0.0 
0.0 0.0 0.0 
0.0 0.0 0.0 
0.0 0.0 0.0 
0.0 0.0 0.0 
0.0 0.0 0.0 
0.0 0.0 0.0 
0.0 0.0 0.0 
0.0 0.0 0.0 
0.0 0.0 0.0 
0.0 0.0 0.0 
0.0 0.0 0.0 
0.0 0.0 0.0 
0.0 0.0 0.0 
0.0 0.0 0.0 
0.0 0.0 0.0 
0.0 0.0 0.0 
0.0 0.0 0.0 
0.0 0.0 0.0 
0.0 0.0 0.0 
0.0 0.0 0.0 
0.0 0.0 0.0 
0.0 0.0 0.0 
0.0 0.0 0.0 
0.0 0.0 0.0 
0.0 0.0 0.0 
0.0 0.0 0.0 
0.0 0.0 0.0 
0.0 0.0 0.0 
0.0 0.0 0.0 
0.0 0.0 0.0 
0.0 0.0 0.0 
0.0 0.0 0.0 
0.0 0.0 0.0 
0.0 0.0 0.0 
0.0 0.0 0.0 
0.0 0.0 0.0 
0.0 0.0 0.0 
0.0 0.0 0.0 
0.0 0.0 0.0 
0.0 0.0 0.0 
0.0 0.0 0.0 
0.0 0.0 0.0 
0.0 0.0 0.0 
0.0 0.0 0.0 
0.0 0.0 0.0 
0.0 0.0 0.0 
0.0 0.0 0.0 
0.0 0.0 0.0 
0.0 0.0 0.0 
0.0 0.0 0.0 
0.0 0.0 0.0 
0.0 0.0 0.0 
0.0 0.0 0.0 
0.0 0.0 0.0 
0.0 0.0 0.0 
0.0 0.0 0.0 
0.0 0.0 0.0 
0.0 0.0 0.0 
0.0 0.0 0.0 
0.0 0.0 0.0 
0.0 0.0 0.0 
0.0 0.0 0.0 
0.0 0.0 0.0 
0.0 0.0 0.0 
0.0 0.0 0.0 
0.0 0.0 0.0 
0.0 0.0 0.0 
0.0 0.0 0.0 
0.0 0.0 0.0 
0.0 0.0 0.0 
0.0 0.0 0.0 
0.0 0.0 0.0 
0.0 0.0 0.0 
0.0 0.0 0.0 
0.0 0.0 0.0 
0.0 0.0 0.0 
0.0 0.0 0.0 
0.0 0.0 0.0 
0.0 0.0 0.0 
0.0 0.0 0.0 
0.0 0.0 0.0 
0.0 0.0 0.0 
0.0 0.0 0.0 
0.0 0.0 0.0 
0.0 0.0 0.0 
0.0 0.0 0.0 
0.0 0.0 0.0 
0.0 0.0 0.0 
0.0 0.0 0.0 
0.0 0.0 0.0 
0.0 0.0 0.0 
0.0 0.0 0.0 
0.0 0.0 0.0 
0.0 0.0 0.0 
0.0 0.0 0.0 
0.0 0.0 0.0 
0.0 0.0 0.0 
0.0 0.0 0.0 
0.0 0.0 0.0 
0.0 0.0 0.0 
0.0 0.0 0.0 
0.0 0.0 0.0 
0.0 0.0 0.0 
0.0 0.0 0.0 
0.0 0.0 0.0 
0.0 0.0 0.0 
0.0 0.0 0.0 
0.0 0.0 0.0 
0.0 0.0 0.0 
0.0 0.0 0.0 
0.0 0.0 0.0 
0.0 0.0 0.0 
0.0 0.0 0.0 
0.0 0.0 0.0 
0.0 0.0 0.0 
0.0 0.0 0.0 
0.0 0.0 0.0 
0.0 0.0 0.0 
0.0 0.0 0.0 
0.0 0.0 0.0 
0.0 0.0 0.0 
0.0 0.0 0.0 
0.0 0.0 0.0 
0.0 0.0 0.0 
0.0 0.0 0.0 
0.0 0.0 0.0 
0.0 0.0 0.0 
0.0 0.0 0.0 
0.0 0.0 0.0 
0.0 0.0 0.0 
0.0 0.0 0.0 
0.0 0.0 0.0 
0.0 0.0 0.0 
0.0 0.0 0.0 
0.0 0.0 0.0 
0.0 0.0 0.0 
0.0 0.0 0.0 
0.0 0.0 0.0 
0.0 0.0 0.0 
0.0 0.0 0.0 
0.0 0.0 0.0 
0.0 0.0 0.0 
0.0 0.0 0.0 
0.0 0.0 0.0 
0.0 0.0 0.0 
0.0 0.0 0.0 
0.0 0.0 0.0 
0.0 0.0 0.0 
0.0 0.0 0.0 
0.0 0.0 0.0 
0.0 0.0 0.0 
0.0 0.0 0.0 
0.0 0.0 0.0 
0.0 0.0 0.0 
0.0 0.0 0.0 
0.0 0.0 0.0 
0.0 0.0 0.0 
0.0 0.0 0.0 
0.0 0.0 0.0 
0.0 0.0 0.0 
0.0 0.0 0.0 
0.0 0.0 0.0 
0.0 0.0 0.0 
0.0 0.0 0.0 
0.0 0.0 0.0 
0.0 0.0 0.0 
0.0 0.0 0.0 
0.0 0.0 0.0 
0.0 0.0 0.0 
0.0 0.0 0.0 
0.0 0.0 0.0 
0.0 0.0 0.0 
0.0 0.0 0.0 
0.0 0.0 0.0 
0.0 0.0 0.0 
0.0 0.0 0.0 
0.0 0.0 0.0 
0.0 0.0 0.0 
0.0 0.0 0.0 
0.0 0.0 0.0 
0.0 0.0 0.0 
0.0 0.0 0.0 
0.0 0.0 0.0 
0.0 0.0 0.0 
0.0 0.0 0.0 
0.0 0.0 0.0 
0.0 0.0 0.0 
0.0 0.0 0.0 
0.0 0.0 0.0 
0.0 0.0 0.0 
0.0 0.0 0.0 
0.0 0.0 0.0 
0.0 0.0 0.0 
0.0 0.0 0.0 
0.0 0.0 0.0 
0.0 0.0 0.0 
0.0 0.0 0.0 
0.0 0.0 0.0 
0.0 0.0 0.0 
0.0 0.0 0.0 
0.0 0.0 0.0 
0.0 0.0 0.0 
0.0 0.0 0.0 
0.0 0.0 0.0 
0.0 0.0 0.0 
0.0 0.0 0.0 
0.0 0.0 0.0 
0.0 0.0 0.0 
0.0 0.0 0.0 
0.0 0.0 0.0 
0.0 0.0 0.0 
0.0 0.0 0.0 
0.0 0.0 0.0 
0.0 0.0 0.0 
0.0 0.0 0.0 
0.0 0.0 0.0 
0.0 0.0 0.0 
0.0 0.0 0.0 
0.0 0.0 0.0 
0.0 0.0 0.0 
0.0 0.0 0.0 
0.0 0.0 0.0 
0.0 0.0 0.0 
0.0 0.0 0.0 
0.0 0.0 0.0 
0.0 0.0 0.0 
0.0 0.0 0.0 
0.0 0.0 0.0 
0.0 0.0 0.0 
0.0 0.0 0.0 
0.0 0.0 0.0 
0.0 0.0 0.0 
0.0 0.0 0.0 
0.0 0.0 0.0 
0.0 0.0 0.0 
0.0 0.0 0.0 
0.0 0.0 0.0 
0.0 0.0 0.0 
0.0 0.0 0.0 
0.0 0.0 0.0 
0.0 0.0 0.0 
0.0 0.0 0.0 
0.0 0.0 0.0 
0.0 0.0 0.0 
0.0 0.0 0.0 
0.0 0.0 0.0 
0.0 0.0 0.0 
0.0 0.0 0.0 
0.0 0.0 0.0 
0.0 0.0 0.0 
0.0 0.0 0.0 
0.0 0.0 0.0 
0.0 0.0 0.0 
0.0 0.0 0.0 
0.0 0.0 0.0 
0.0 0.0 0.0 
0.0 0.0 0.0 
0.0 0.0 0.0 
0.0 0.0 0.0 
0.0 0.0 0.0 
0.0 0.0 0.0 
0.0 0.0 0.0 
0.0 0.0 0.0 
0.0 0.0 0.0 
0.0 0.0 0.0 
0.0 0.0 0.0 
0.0 0.0 0.0 
0.0 0.0 0.0 
0.0 0.0 0.0 
0.0 0.0 0.0 
0.0 0.0 0.0 
0.0 0.0 0.0 
0.0 0.0 0.0 
0.0 0.0 0.0 
0.0 0.0 0.0 
0.0 0.0 0.0 
0.0 0.0 0.0 
0.0 0.0 0.0 
0.0 0.0 0.0 
0.0 0.0 0.0 
0.0 0.0 0.0 
0.0 0.0 0.0 
0.0 0.0 0.0 
0.0 0.0 0.0 
0.0 0.0 0.0 
0.0 0.0 0.0 
0.0 0.0 0.0 
0.0 0.0 0.0 
0.0 0.0 0.0 
0.0 0.0 0.0 
0.0 0.0 0.0 
0.0 0.0 0.0 
0.0 0.0 0.0 
0.0 0.0 0.0 
0.0 0.0 0.0 
0.0 0.0 0.0 
0.0 0.0 0.0 
0.0 0.0 0.0 
0.0 0.0 0.0 
0.0 0.0 0.0 
0.0 0.0 0.0 
0.0 0.0 0.0 
0.0 0.0 0.0 
0.0 0.0 0.0 
0.0 0.0 0.0 
0.0 0.0 0.0 
0.0 0.0 0.0 
0.0 0.0 0.0 
0.0 0.0 0.0 
0.0 0.0 0.0 
0.0 0.0 0.0 
0.0 0.0 0.0 
0.0 0.0 0.0 
0.0 0.0 0.0 
0.0 0.0 0.0 
0.0 0.0 0.0 
0.0 0.0 0.0 
0.0 0.0 0.0 
0.0 0.0 0.0 
0.0 0.0 0.0 
0.0 0.0 0.0 
0.0 0.0 0.0 
0.0 0.0 0.0 
0.0 0.0 0.0 
0.0 0.0 0.0 
0.0 0.0 0.0 
0.0 0.0 0.0 
0.0 0.0 0.0 
0.0 0.0 0.0 
0.0 0.0 0.0 
0.0 0.0 0.0 
0.0 0.0 0.0 
0.0 0.0 0.0 
0.0 0.0 0.0 
0.0 0.0 0.0 
0.0 0.0 0.0 
0.0 0.0 0.0 
0.0 0.0 0.0 
0.0 0.0 0.0 
0.0 0.0 0.0 
0.0 0.0 0.0 
0.0 0.0 0.0 
0.0 0.0 0.0 
0.0 0.0 0.0 
0.0 0.0 0.0 
0.0 0.0 0.0 
0.0 0.0 0.0 
0.0 0.0 0.0 
0.0 0.0 0.0 
0.0 0.0 0.0 
0.0 0.0 0.0 
0.0 0.0 0.0 
0.0 0.0 0.0 
0.0 0.0 0.0 
0.0 0.0 0.0 
0.0 0.0 0.0 
0.0 0.0 0.0 
0.0 0.0 0.0 
0.0 0.0 0.0 
0.0 0.0 0.0 
0.0 0.0 0.0 
0.0 0.0 0.0 
0.0 0.0 0.0 
0.0 0.0 0.0 
0.0 0.0 0.0 
0.0 0.0 0.0 
0.0 0.0 0.0 
0.0 0.0 0.0 
0.0 0.0 0.0 
0.0 0.0 0.0 
0.0 0.0 0.0 
0.0 0.0 0.0 
0.0 0.0 0.0 
0.0 0.0 0.0 
0.0 0.0 0.0 
0.0 0.0 0.0 
0.0 0.0 0.0 
0.0 0.0 0.0 
0.0 0.0 0.0 
0.0 0.0 0.0 
0.0 0.0 0.0 
0.0 0.0 0.0 
0.0 0.0 0.0 
0.0 0.0 0.0 
0.0 0.0 0.0 
0.0 0.0 0.0 
0.0 0.0 0.0 
0.0 0.0 0.0 
0.0 0.0 0.0 
0.0 0.0 0.0 
0.0 0.0 0.0 
0.0 0.0 0.0 
0.0 0.0 0.0 
0.0 0.0 0.0 
0.0 0.0 0.0 
0.0 0.0 0.0 
0.0 0.0 0.0 
0.0 0.0 0.0 
0.0 0.0 0.0 
0.0 0.0 0.0 
0.0 0.0 0.0 
0.0 0.0 0.0 
0.0 0.0 0.0 
0.0 0.0 0.0 
0.0 0.0 0.0 
0.0 0.0 0.0 
0.0 0.0 0.0 
0.0 0.0 0.0 

VECTORS node_materi_velocity float
0.0 -1.624850635726e-01 0.0 
0.0 9.430051604954e-03 0.0 
0.0 0.0 0.0 
0.0 0.0 0.0 
0.0 -1.509051074715e-01 0.0 
0.0 -1.203475046917e-01 0.0 
0.0 -9.160931359057e-02 0.0 
0.0 -6.706224109836e-02 0.0 
0.0 -5.179575498039e-02 0.0 
0.0 -4.240086039071e-02 0.0 
0.0 -3.705891386721e-02 0.0 
0.0 -3.846114201026e-02 0.0 
0.0 -4.123494335742e-02 0.0 
0.0 -4.449586057609e-02 0.0 
0.0 -4.795790728007e-02 0.0 
0.0 -4.739307714593e-02 0.0 
0.0 -4.590869976287e-02 0.0 
0.0 -4.364450338623e-02 0.0 
0.0 -4.170720788011e-02 0.0 
0.0 -3.595578762224e-02 0.0 
0.0 -2.639734923729e-02 0.0 
0.0 -1.594372170632e-02 0.0 
0.0 -7.082511921156e-03 0.0 
0.0 0.0 0.0 
0.0 0.0 0.0 
0.0 0.0 0.0 
0.0 0.0 0.0 
0.0 0.0 0.0 
0.0 0.0 0.0 
0.0 0.0 0.0 
0.0 0.0 0.0 
0.0 0.0 0.0 
0.0 0.0 0.0 
0.0 0.0 0.0 
0.0 0.0 0.0 
0.0 0.0 0.0 
0.0 0.0 0.0 
0.0 0.0 0.0 
0.0 0.0 0.0 
0.0 0.0 0.0 
0.0 0.0 0.0 
0.0 0.0 0.0 
0.0 0.0 0.0 
0.0 0.0 0.0 
0.0 0.0 0.0 
0.0 0.0 0.0 
0.0 0.0 0.0 
0.0 0.0 0.0 
0.0 0.0 0.0 
0.0 0.0 0.0 
0.0 0.0 0.0 
0.0 0.0 0.0 
0.0 0.0 0.0 
0.0 0.0 0.0 
0.0 0.0 0.0 
0.0 0.0 0.0 
0.0 0.0 0.0 
0.0 0.0 0.0 
0.0 0.0 0.0 
0.0 0.0 0.0 
0.0 0.0 0.0 
0.0 0.0 0.0 
0.0 0.0 0.0 
0.0 0.0 0.0 
0.0 0.0 0.0 
0.0 0.0 0.0 
0.0 0.0 0.0 
0.0 0.0 0.0 
0.0 0.0 0.0 
0.0 0.0 0.0 
0.0 0.0 0.0 
0.0 0.0 0.0 
0.0 7.514066721791e-03 0.0 
0.0 5.671820330539e-03 0.0 
0.0 3.953669147457e-03 0.0 
0.0 2.389313147297e-03 0.0 
0.0 1.052436565383e-03 0.0 
0.0 -3.749600349172e-06 0.0 
0.0 -7.098418276794e-04 0.0 
0.0 -9.905508967726e-04 0.0 
0.0 -7.733443708971e-04 0.0 
1.888800373016e-01 -2.348133070183e-01 0.0 
8.879086930706e-02 1.695654661177e-02 0.0 
1.901827802733e-01 -2.402281411859e-01 0.0 
1.973391369547e-01 -2.323749787121e-01 0.0 
2.180196918958e-01 -1.939353204040e-01 0.0 
2.554439853739e-01 -1.472228511765e-01 0.0 
2.922064655980e-01 -1.065510793172e-01 0.0 
3.107972582153e-01 -6.460677446135e-02 0.0 
3.022156279032e-01 -2.465448124089e-02 0.0 
2.617142206048e-01 5.873265311383e-03 0.0 
1.874043857337e-01 2.905214229863e-02 0.0 
4.572478730124e-03 9.509135834097e-03 0.0 
9.153795590043e-03 9.700168916780e-03 0.0 
1.375707037747e-02 1.003343408883e-02 0.0 
1.838343378756e-02 1.051116457141e-02 0.0 
2.303317257774e-02 1.108834837286e-02 0.0 
2.768124363912e-02 1.175751656888e-02 0.0 
3.231986383129e-02 1.248429311783e-02 0.0 
3.692066615430e-02 1.320097443158e-02 0.0 
4.148842261958e-02 1.383883213386e-02 0.0 
4.601447050519e-02 1.430123011298e-02 0.0 
5.055957172691e-02 1.440958423596e-02 0.0 
5.544786906147e-02 1.433662125470e-02 0.0 
6.128167622946e-02 1.459618777660e-02 0.0 
6.963645317849e-02 2.569485287989e-02 0.0 
1.858780407905e-01 -2.292800757372e-01 0.0 
1.802865075900e-01 -2.233765720533e-01 0.0 
1.733084886685e-01 -2.191357628694e-01 0.0 
1.662825123568e-01 -2.165180912752e-01 0.0 
1.598337395155e-01 -2.151471303089e-01 0.0 
1.543736314249e-01 -2.148545093083e-01 0.0 
1.513474626870e-01 -2.127302130438e-01 0.0 
1.500781170413e-01 -2.059252966137e-01 0.0 
1.477006494462e-01 -1.949956308964e-01 0.0 
1.444406051711e-01 -1.833195077977e-01 0.0 
1.415830485477e-01 -1.722356434803e-01 0.0 
1.389308833482e-01 -1.618531439291e-01 0.0 
1.365028158811e-01 -1.529332330018e-01 0.0 
1.279473193840e-01 -1.513121126117e-01 0.0 
9.392617646241e-02 -1.643676018771e-01 0.0 
9.374569676709e-02 -1.602162843627e-01 0.0 
8.456061701112e-02 -1.641840317593e-01 0.0 
5.725684880329e-02 -1.662028304492e-01 0.0 
3.051564065307e-02 -1.656978406044e-01 0.0 
1.889170599370e-01 -2.381412908961e-01 0.0 
1.925480081747e-01 -2.383042693122e-01 0.0 
2.056401750443e-01 -2.196210467478e-01 0.0 
2.357119718756e-01 -1.682553915857e-01 0.0 
2.750487719082e-01 -1.254564689827e-01 0.0 
3.058775420975e-01 -8.315932850728e-02 0.0 
3.099896359275e-01 -4.377608729788e-02 0.0 
2.863924711303e-01 -1.273839491007e-02 0.0 
2.284354598685e-01 1.989880026676e-02 0.0 
1.394611351268e-01 2.901090225600e-02 0.0 
2.005098092196e-01 -2.383438579389e-01 0.0 
6.446259633374e-03 -7.970319088416e-03 0.0 
1.364435372466e-01 -1.876204036371e-01 0.0 
1.613646458063e-01 -2.134382949576e-01 0.0 
-3.722583423418e-04 -6.007366291496e-03 0.0 
2.678554122951e-01 -1.663542071854e-01 0.0 
-5.146979370409e-03 -4.657829118792e-02 0.0 
1.310031118531e-02 -7.985820712519e-03 0.0 
3.099666159686e-01 -8.590217662219e-02 0.0 
1.715098746285e-02 -6.895723853583e-03 0.0 
2.454020233673e-01 -1.972835099588e-02 0.0 
-5.902675455298e-06 -5.076415481531e-03 0.0 
1.282185989874e-01 -1.481316787760e-01 0.0 
2.128751094602e-02 -6.208777932030e-03 0.0 
8.750290260882e-02 7.263136866907e-03 0.0 
2.341698072012e-03 -3.946120403399e-02 0.0 
-4.927118827553e-03 -4.562040956810e-02 0.0 
2.428559911714e-02 -4.682664210495e-03 0.0 
3.603761764475e-02 -7.874346526490e-03 0.0 
5.742097656203e-03 -2.347558243538e-03 0.0 
1.308402273845e-02 -2.759868324628e-03 0.0 
2.320773357955e-02 -5.079542697189e-03 0.0 
5.837453855617e-02 1.412091942286e-02 0.0 
4.343354105588e-02 1.234569338295e-02 0.0 
2.943864523139e-02 1.028556126184e-02 0.0 
2.822931016943e-03 1.679249431010e-03 0.0 
2.114582690395e-03 -5.674160915513e-03 0.0 
1.804434531255e-01 -2.244568794700e-01 0.0 
9.144669716919e-02 -1.580192365378e-01 0.0 
2.349268806668e-03 -3.019048475938e-02 0.0 
1.540963292433e-02 8.538943245501e-03 0.0 
2.088532373379e-02 -8.160680562534e-02 0.0 
4.091489454390e-02 -1.087747775756e-02 0.0 
1.409467961963e-02 -7.105104510707e-03 0.0 
1.875692488329e-02 -6.812292291784e-03 0.0 
1.094194031720e-02 -8.596481535806e-03 0.0 
2.509152804166e-03 -6.875950097019e-03 0.0 
1.489392900997e-01 -2.127643504391e-01 0.0 
5.234693409315e-02 1.282279852670e-02 0.0 
-8.662252078772e-04 -6.448784390501e-03 0.0 
2.181066445595e-03 -3.896903705932e-04 0.0 
1.310643364690e-01 -1.660945513502e-01 0.0 
-3.424083069556e-03 -4.036294460696e-02 0.0 
2.889726270741e-03 -1.544358264246e-03 0.0 
3.007306643635e-01 -1.272891105036e-01 0.0 
2.273542774460e-01 -2.185675155404e-01 0.0 
2.930843594272e-01 -4.855993918834e-02 0.0 
1.704935022528e-01 8.064117067063e-03 0.0 
1.894502520548e-01 -2.381799990464e-01 0.0 
3.440153703196e-03 4.622503273318e-03 0.0 
1.970087965552e-03 -4.685944416970e-03 0.0 
4.525696200435e-02 -1.562929648984e-01 0.0 
1.289470341342e-03 -1.038289926603e-03 0.0 
7.767842134427e-02 6.543625255725e-03 0.0 
8.144273501647e-02 4.593794328165e-03 0.0 
7.502528595921e-02 4.197536311035e-03 0.0 
8.261953763136e-02 1.183891874573e-03 0.0 
7.757713302975e-02 1.346161300376e-03 0.0 
8.470037070586e-02 -2.616720982816e-03 0.0 
9.076392360824e-02 -4.087453644181e-03 0.0 
9.244935061092e-02 -8.179736342221e-03 0.0 
9.917475440908e-02 -1.090589762972e-02 0.0 
7.860635813066e-02 -1.614860843947e-03 0.0 
1.004985593395e-01 -1.496801621692e-02 0.0 
1.075980727101e-01 -1.902790150663e-02 0.0 
1.088777208669e-01 -2.289626612516e-02 0.0 
1.163243162437e-01 -2.763308584961e-02 0.0 
1.140874990599e-01 -2.374298204759e-02 0.0 
1.232697882197e-01 -3.281717889482e-02 0.0 
1.203923972447e-01 -2.827757331734e-02 0.0 
1.299334774808e-01 -3.869724692779e-02 0.0 
1.329883787135e-01 -4.335614447812e-02 0.0 
1.397202906069e-01 -4.947440704665e-02 0.0 
1.363701166543e-01 -4.474340155699e-02 0.0 
1.461250641039e-01 -5.524984904340e-02 0.0 
1.424163946459e-01 -5.083513966292e-02 0.0 
1.500827436487e-01 -6.618757457244e-02 0.0 
1.457152499854e-01 -6.353349655136e-02 0.0 
1.532320427244e-01 -7.776350696559e-02 0.0 
1.577482142515e-01 -7.994941165462e-02 0.0 
1.607403491075e-01 -9.015427049295e-02 0.0 
1.562607613180e-01 -8.851688463410e-02 0.0 
1.631132727350e-01 -1.008474155335e-01 0.0 
1.582621496760e-01 -1.004588254562e-01 0.0 
1.637209355514e-01 -1.137180146581e-01 0.0 
1.676006720965e-01 -1.110624715046e-01 0.0 
1.634132686949e-01 -1.223684184243e-01 0.0 
1.619721132940e-01 -1.290822571742e-01 0.0 
1.571618588166e-01 -1.345134207245e-01 0.0 
1.584325638547e-01 -1.448508321398e-01 0.0 
1.500707662444e-01 -1.460287419340e-01 0.0 
1.541159326732e-01 -1.590108459886e-01 0.0 
1.431988164335e-01 -1.559503452343e-01 0.0 
1.206860775151e-01 -1.295941597141e-01 0.0 
1.183121004379e-01 -1.405968134138e-01 0.0 
1.372869135560e-01 -1.640303060290e-01 0.0 
1.163373271801e-01 -1.494249549143e-01 0.0 
1.104810414200e-01 -1.370395467451e-01 0.0 
1.072645027682e-01 -1.429736487684e-01 0.0 
9.179067628271e-02 -1.235118967011e-01 0.0 
9.040131654811e-02 -1.290103110976e-01 0.0 
1.052609755150e-01 -1.464740808212e-01 0.0 
9.018258736778e-02 -1.322257110737e-01 0.0 
7.932992585521e-02 -1.190926295411e-01 0.0 
8.015347779564e-02 -1.218979991798e-01 0.0 
9.126960436425e-02 -1.335934611256e-01 0.0 
8.196997060453e-02 -1.231919656012e-01 0.0 
7.177849089632e-02 -1.128173285063e-01 0.0 
7.412393532347e-02 -1.142954924036e-01 0.0 
8.421080885940e-02 -1.239382787632e-01 0.0 
7.641741601081e-02 -1.154867467256e-01 0.0 
6.639440508338e-02 -1.056872025484e-01 0.0 
6.834159739835e-02 -1.070599793818e-01 0.0 
7.790471127652e-02 -1.171978601165e-01 0.0 
6.908854982209e-02 -1.088379064948e-01 0.0 
5.820126691613e-02 -9.668997616050e-02 0.0 
5.774619017052e-02 -9.804431198066e-02 0.0 
4.518103865751e-02 -8.324980635871e-02 0.0 
6.807023434999e-02 -1.116510584005e-01 0.0 
5.501551986690e-02 -1.002849712193e-01 0.0 
6.480640282597e-02 -1.158385342208e-01 0.0 
4.961746784195e-02 -1.037426656411e-01 0.0 
1.247251775791e-01 -8.948928448529e-02 0.0 
5.929244637103e-02 -1.210431346976e-01 0.0 
7.224486539119e-02 -1.295568494803e-01 0.0 
4.208841138311e-02 -1.078566073239e-01 0.0 
3.063473859043e-02 -8.776458093622e-02 0.0 
5.312654500951e-02 -1.255307612725e-01 0.0 
3.500715570175e-02 -1.100132545034e-01 0.0 
4.924474808338e-02 -1.262348747414e-01 0.0 
1.530880575266e-01 -1.501694152409e-01 0.0 
1.436357117946e-01 -5.474295412200e-02 0.0 
3.140974369165e-02 -1.073681493418e-01 0.0 
4.850133961057e-02 -1.220983531671e-01 0.0 
6.299587977370e-02 -1.387812766071e-01 0.0 
6.652819360420e-02 -1.327759201418e-01 0.0 
7.214529916032e-02 2.312222030959e-03 0.0 
7.212328320595e-02 -5.345525181985e-04 0.0 
6.623255879688e-02 3.093832540799e-03 0.0 
6.516566796103e-02 3.066724458378e-04 0.0 
5.986383326152e-02 3.325108634990e-03 0.0 
5.193810239926e-02 -1.125933616218e-01 0.0 
1.009913159549e-01 -1.916312405491e-02 0.0 
7.074867702332e-02 -3.474891743558e-03 0.0 
1.327988959081e-01 -4.026511068675e-02 0.0 
1.516997009184e-01 -8.698213466297e-02 0.0 
9.402675132866e-02 -1.159557545214e-01 0.0 
1.469493708546e-02 -9.053572270573e-02 0.0 
1.225726025385e-02 -8.519397221649e-02 0.0 
-3.585136304910e-03 -7.124282793787e-02 0.0 
4.548900371755e-02 -8.321670883983e-02 0.0 
3.156829120952e-02 -6.803141886393e-02 0.0 
3.197553789134e-02 -6.885241729850e-02 0.0 
1.868196647375e-02 -5.353895137516e-02 0.0 
1.922110625075e-02 -5.462023742199e-02 0.0 
8.569774548967e-03 -4.126215936289e-02 0.0 
7.879456512920e-03 -4.002099675342e-02 0.0 
1.695346078194e-03 -3.111143222519e-02 0.0 
1.351478255061e-03 -3.036333411109e-02 0.0 
9.085543357004e-03 -4.194518245159e-02 0.0 
1.951455860119e-02 -5.481308113177e-02 0.0 
-9.952367473251e-04 -2.496445720986e-02 0.0 
-6.647762627665e-04 -2.524439103736e-02 0.0 
-6.703783475083e-04 -2.187709865340e-02 0.0 
8.296649098575e-05 -2.310310744582e-02 0.0 
-7.989243448307e-04 -2.622434282074e-02 0.0 
-1.534030862428e-04 -2.525988267192e-02 0.0 
-2.796394973856e-03 -2.933027477222e-02 0.0 
8.115858081960e-02 -1.077717193478e-01 0.0 
8.309941321951e-02 -9.948951868654e-02 0.0 
7.107824281043e-02 -9.240967431433e-02 0.0 
7.235065043981e-02 -8.357894594414e-02 0.0 
6.163067748390e-02 -7.776478919301e-02 0.0 
6.207666279642e-02 -6.872800034281e-02 0.0 
5.203523306764e-02 -6.342684541426e-02 0.0 
5.187160391484e-02 -7.186702255872e-02 0.0 
1.181243064153e-01 -3.195452989192e-02 0.0 
1.327489108531e-01 -1.698310514557e-01 0.0 
1.459708976588e-01 -1.793628695640e-01 0.0 
1.429816907188e-01 -1.849706101137e-01 0.0 
1.466072695781e-01 -1.867512539489e-01 0.0 
1.460917420612e-01 -1.926131581944e-01 0.0 
1.461581718756e-01 -1.917079510856e-01 0.0 
1.478764796414e-01 -1.967405592557e-01 0.0 
1.475165005082e-01 -1.943169846995e-01 0.0 
1.520838410824e-01 -1.975244522149e-01 0.0 
1.500509246983e-01 -1.937915379736e-01 0.0 
1.554671755535e-01 -1.982382035740e-01 0.0 
1.514938494279e-01 -1.933320670908e-01 0.0 
1.683332250039e-01 -9.338250653233e-02 0.0 
7.326730769008e-02 -7.397392694024e-02 0.0 
6.183018722543e-02 -5.932315980583e-02 0.0 
7.332021722382e-02 -6.403149869942e-02 0.0 
7.671338270260e-02 -1.465658775534e-01 0.0 
1.447942416830e-03 -2.196960267655e-02 0.0 
9.712253011213e-03 -4.164303360518e-02 0.0 
1.993116849765e-02 -5.378115021446e-02 0.0 
4.201449372994e-02 -5.728232923516e-02 0.0 
7.299651343141e-02 -1.226035168599e-01 0.0 
1.490875085108e-01 -1.978898491270e-01 0.0 
1.478388891452e-01 -1.880458275454e-01 0.0 
5.792550162203e-02 6.292739108960e-04 0.0 
5.323797365181e-02 2.880287919940e-03 0.0 
1.057953268034e-02 -4.005039171849e-02 0.0 
5.688668367767e-02 -1.003225717970e-01 0.0 
-1.317572376832e-03 -2.480630231980e-02 0.0 
1.594395636361e-01 -2.012061571465e-01 0.0 
5.994264046255e-04 -2.523540308392e-02 0.0 
3.185750248692e-03 -2.168888799908e-02 0.0 
6.625841798519e-03 -3.869207688251e-02 0.0 
6.046854146496e-02 -4.992649582851e-02 0.0 
7.222907876810e-02 -5.456779409408e-02 0.0 
1.431770613047e-01 -1.849960975161e-01 0.0 
1.435072371364e-01 -1.843924050413e-01 0.0 
1.512298189529e-01 -1.939948168931e-01 0.0 
1.410540412635e-01 -1.854975933490e-01 0.0 
1.300306164395e-01 -1.713280822924e-01 0.0 
1.270568618450e-01 -1.719800254838e-01 0.0 
1.363227379452e-01 -1.867506843070e-01 0.0 
1.226105694210e-01 -1.732317860120e-01 0.0 
1.139520084581e-01 -1.596256368474e-01 0.0 
1.101694084143e-01 -1.620279922274e-01 0.0 
1.181907603315e-01 -1.747490643243e-01 0.0 
1.058779457923e-01 -1.652586201934e-01 0.0 
2.548490697659e-03 -1.880629991935e-02 0.0 
1.619036864045e-01 -2.047953041532e-01 0.0 
1.109584328038e-01 -2.002898515411e-02 0.0 
3.145645827251e-03 -3.035678822079e-02 0.0 
4.179994412904e-02 -4.921331761548e-02 0.0 
5.045445003584e-02 3.427611194098e-04 0.0 
4.641605160881e-02 2.024110842738e-03 0.0 
4.866641186618e-02 4.553150174667e-03 0.0 
4.245917826087e-02 3.313495052461e-03 0.0 
3.943980662122e-02 9.355636201084e-04 0.0 
3.617728437303e-02 2.054295497570e-03 0.0 
3.863808388798e-02 4.284982862794e-03 0.0 
3.295606053350e-02 2.849573537935e-03 0.0 
3.495668109311e-02 4.957591642719e-03 0.0 
2.974740648229e-02 3.415423892998e-03 0.0 
2.736611808104e-02 1.491553409350e-03 0.0 
2.464066521700e-02 1.985495940342e-03 0.0 
2.652840783586e-02 3.855095561155e-03 0.0 
2.180399666752e-02 2.415945571187e-03 0.0 
2.327794698670e-02 4.240601346368e-03 0.0 
1.885808234683e-02 2.838941470435e-03 0.0 
1.729276985307e-02 1.173295371716e-03 0.0 
7.718202499806e-02 -1.128014351833e-01 0.0 
4.193108452523e-02 -6.492309813085e-02 0.0 
3.182077161601e-02 -4.999316653009e-02 0.0 
-4.056455289667e-03 -6.422287090551e-02 0.0 
-1.759473742522e-02 -5.475944386550e-02 0.0 
-1.489648037556e-02 -5.798772966173e-02 0.0 
-2.194318084555e-02 -5.232024383478e-02 0.0 
1.460099015704e-02 1.651872932267e-03 0.0 
1.309450568127e-02 1.930220516169e-04 0.0 
1.595467427052e-01 -2.002917227544e-01 0.0 
1.585414169431e-01 -1.880904923447e-01 0.0 
5.454257847821e-02 -1.849353009658e-03 0.0 
1.595083436766e-03 -2.646961499840e-02 0.0 
-3.387296253569e-03 -3.164524470013e-02 0.0 
1.534663483723e-01 -1.004157227019e-01 0.0 
1.469908646336e-01 -8.544096754050e-02 0.0 
1.491886545771e-01 -1.006561904548e-01 0.0 
1.519434733023e-01 -8.833116429817e-02 0.0 
1.455705304230e-01 -7.309208561558e-02 0.0 
1.563455287913e-01 -1.069912291852e-01 0.0 
3.143768850096e-02 -6.829775324654e-02 0.0 
2.200365631072e-02 2.801180307624e-04 0.0 
7.344313254199e-02 -1.495018323612e-01 0.0 
8.405238529524e-02 -1.558049938919e-01 0.0 
4.641799995024e-03 -2.202812092257e-02 0.0 
5.158598954298e-02 -7.939571773729e-02 0.0 
1.662271796066e-01 -8.426697922930e-02 0.0 
1.135556618459e-01 -5.822203602564e-02 0.0 
1.078149206384e-01 -4.866223558931e-02 0.0 
1.149985000376e-01 -5.826899829648e-02 0.0 
1.084519891960e-01 -4.899691496598e-02 0.0 
8.410858735473e-02 -3.963192993568e-02 0.0 
9.033905645428e-02 -4.776709487956e-02 0.0 
5.753019477679e-02 -4.105093576623e-02 0.0 
7.146287479138e-02 -3.638308845961e-02 0.0 
1.606119852827e-02 3.323935425993e-03 0.0 
8.646817670282e-02 -7.979772825694e-02 0.0 
1.021649727133e-01 -1.493075417209e-01 0.0 
9.028628596018e-02 -1.300835917051e-01 0.0 
1.132259418552e-01 -1.779851941352e-01 0.0 
5.768612746345e-02 -9.127043257301e-02 0.0 
3.802648314480e-02 -7.647927650151e-02 0.0 
4.206657672501e-03 -2.807303539263e-02 0.0 
7.668412708211e-02 -3.187370647930e-02 0.0 
9.968562864817e-02 -4.056270538591e-02 0.0 
1.831668909646e-01 -8.820029283512e-02 0.0 
1.678117865873e-01 -6.760528219532e-02 0.0 
4.741449975150e-02 -3.708772584704e-02 0.0 
6.048643858901e-02 6.257108153583e-03 0.0 
4.014710702119e-02 6.542870531585e-03 0.0 
3.621453016867e-02 7.083540579665e-03 0.0 
7.876524112451e-02 -1.105688029335e-01 0.0 
1.261493351325e-01 -1.872974931782e-01 0.0 
3.248761429205e-02 -3.874797372359e-05 0.0 
1.469363846611e-01 -1.759847777225e-01 0.0 
1.579354026498e-01 -1.739252630112e-01 0.0 
1.701184577094e-01 -2.112963444608e-01 0.0 
1.682108532805e-01 -2.096179462867e-01 0.0 
1.086043314455e-02 7.035522106634e-04 0.0 
9.410310879147e-03 -4.824194535258e-04 0.0 
-1.657649614228e-02 -4.848738588949e-02 0.0 
-2.002113262594e-02 -4.876273941517e-02 0.0 
1.164687515997e-02 -3.705858557245e-02 0.0 
1.005172225422e-01 -1.697735080366e-01 0.0 
1.105361194897e-02 -1.012596831777e-03 0.0 
4.175883969820e-02 -7.154451696376e-02 0.0 
5.162421630884e-02 -8.559481561123e-02 0.0 
-1.646955620164e-02 -4.860134494052e-02 0.0 
1.948565098241e-01 -2.169113369194e-01 0.0 
1.895451066700e-01 -2.262004723176e-01 0.0 
1.047103930904e-01 -1.467088226322e-01 0.0 
9.397762558739e-02 -1.577846392849e-01 0.0 
3.593533780314e-02 -7.220187531917e-02 0.0 
5.365381023027e-03 -2.468853623209e-02 0.0 
3.494971069837e-02 -1.354030397103e-03 0.0 
7.784882185812e-02 -4.370754414437e-02 0.0 
9.580429938045e-02 -5.580546633597e-02 0.0 
5.936644893105e-02 -3.211267308596e-02 0.0 
1.063878850681e-01 -1.817015782615e-01 0.0 
-2.035430780836e-04 -2.110103765259e-02 0.0 
2.095197042019e-03 -2.851085866379e-02 0.0 
6.883853733841e-02 -2.621347365177e-02 0.0 
8.808502039246e-02 -3.414501434738e-02 0.0 
1.469598405680e-01 -1.612947802631e-01 0.0 
1.582370517702e-01 -1.554480112658e-01 0.0 
2.016299264158e-01 -1.888000667091e-01 0.0 
2.041843989882e-01 -1.628136594786e-01 0.0 
9.666375787127e-02 -6.324771079637e-03 0.0 
1.480930110319e-01 -1.428600629642e-01 0.0 
1.172473376936e-01 -2.301148747105e-02 0.0 
1.075076026708e-01 -1.665020262008e-02 0.0 
1.144305626944e-01 -1.583395751308e-02 0.0 
1.395316654054e-01 -5.889678494700e-02 0.0 
1.524905878001e-01 -4.746247208852e-02 0.0 
1.480852572284e-01 -1.773479321480e-01 0.0 
9.662616184987e-02 -1.066928538086e-01 0.0 
-6.529992100448e-03 -5.598042746097e-02 0.0 
-1.707783257962e-03 -3.086442582652e-02 0.0 
4.468929713032e-02 -8.295852647025e-02 0.0 
2.402776450386e-02 -2.280400326166e-04 0.0 
1.848016281638e-02 -1.139760017477e-03 0.0 
2.782649351467e-02 5.802606398525e-03 0.0 
2.429617123530e-02 6.138974818762e-03 0.0 
9.107203966594e-02 -1.504559904297e-01 0.0 
9.651471654008e-02 -1.588118944115e-01 0.0 
2.993363851787e-02 -6.709563853440e-02 0.0 
-9.706255658131e-04 -2.311413407253e-02 0.0 
4.608732703101e-02 -2.013120158032e-03 0.0 
4.941300359111e-02 -4.048306993376e-03 0.0 
5.874427383270e-02 -4.927453282943e-03 0.0 
1.269430251032e-02 -3.268189870639e-02 0.0 
1.300582841090e-01 -1.731393501390e-01 0.0 
6.999574480179e-02 -1.000472715656e-01 0.0 
1.629375844171e-01 -2.065738561512e-01 0.0 
1.230655323950e-01 -7.756683134456e-02 0.0 
1.047164309866e-01 -1.522955014486e-01 0.0 
1.360549094137e-01 -4.857295426354e-02 0.0 
5.133068881445e-03 -2.253109823336e-02 0.0 
5.647646983042e-03 -1.752207437429e-02 0.0 
4.314065958686e-02 -2.917844470234e-02 0.0 
8.574597378900e-02 3.347536154351e-03 0.0 
1.257828555109e-01 -8.587801511948e-02 0.0 
1.250846159006e-01 -9.704974516910e-02 0.0 
1.156838747571e-01 -1.611688625121e-02 0.0 
1.406605986591e-01 -1.666278368651e-02 0.0 
1.217334424627e-01 -2.658823712382e-02 0.0 
1.677018371160e-01 -3.379983267853e-02 0.0 
9.400738730984e-02 -1.373164161143e-01 0.0 
9.167483997033e-02 -1.411847981385e-01 0.0 
5.493771934867e-02 -2.180988412032e-02 0.0 
5.269725393829e-02 -2.579559288975e-02 0.0 
5.908105876909e-02 -2.145826942931e-02 0.0 
7.613677141582e-02 -2.764291648602e-02 0.0 
3.377735326659e-02 -2.503901470299e-02 0.0 
3.773371890583e-02 -3.274886255135e-02 0.0 
1.873591511696e-02 -5.583794173984e-02 0.0 
2.177853962248e-01 -6.819267754356e-02 0.0 
2.730814727465e-02 -1.861847851861e-03 0.0 
9.989506412248e-02 -8.188587025781e-03 0.0 
-1.802725335260e-03 -1.637413387819e-02 0.0 
-2.214630553011e-03 -1.837808698628e-02 0.0 
1.641826031205e-01 -2.106699517577e-01 0.0 
1.568125244202e-01 -2.091642340922e-01 0.0 
7.540146315399e-03 -1.297003164848e-03 0.0 
2.533033406227e-01 -1.991292974183e-01 0.0 
2.609270670069e-01 -1.699716285800e-01 0.0 
2.422075418205e-01 -2.222465563814e-01 0.0 
2.267518833213e-03 -1.093603400573e-02 0.0 
6.690797086573e-03 7.941507116875e-03 0.0 
6.076678502753e-03 -1.701943425285e-02 0.0 
1.346515791605e-01 -4.351994220879e-02 0.0 
8.508336029240e-03 -1.922393217931e-03 0.0 
1.013143662737e-01 -7.480619575365e-02 0.0 
1.532453712063e-01 -1.171697499770e-01 0.0 
2.120048895478e-02 -4.680303913994e-02 0.0 
6.002880220986e-03 -7.670511847880e-04 0.0 
4.589762592201e-03 -1.218760035288e-03 0.0 
4.090774064437e-02 8.696696116379e-03 0.0 
3.696175035564e-02 9.159529859116e-03 0.0 
4.519387232741e-02 8.093322780941e-03 0.0 
1.710350290486e-01 -2.100133543320e-01 0.0 
1.819265822354e-01 -2.207154786893e-01 0.0 
1.699575311064e-02 -7.361699290026e-04 0.0 
1.229546176277e-02 -7.620765316376e-02 0.0 
-5.035506100628e-03 -5.152385360506e-02 0.0 
8.995117548993e-02 -1.624177629513e-01 0.0 
8.368965441485e-02 -1.521261145444e-01 0.0 
-8.433397296485e-03 -4.336044475894e-02 0.0 
2.863594300862e-03 -5.269982004853e-02 0.0 
1.478897241957e-01 -6.095246102004e-02 0.0 
1.392493959243e-01 -5.466092138880e-02 0.0 
1.626269117587e-01 -7.478137191474e-02 0.0 
4.188963694131e-02 -7.669243326475e-02 0.0 
5.231762534245e-02 -9.016955427518e-02 0.0 
6.094540801587e-02 -9.840828454711e-02 0.0 
1.975024107011e-02 -1.546001913913e-03 0.0 
1.367329164175e-02 -2.164526179960e-03 0.0 
9.504624400185e-02 -1.349618103158e-01 0.0 
1.060568950706e-01 -1.456494516158e-01 0.0 
8.520542777019e-02 -1.304650357890e-01 0.0 
2.879641840176e-02 -3.519689583971e-03 0.0 
5.125870362942e-03 -1.272597477819e-02 0.0 
4.492878293016e-03 -1.418970614290e-02 0.0 
1.098890848085e-01 -1.603476913464e-01 0.0 
1.027135090966e-01 -1.669916205973e-01 0.0 
2.135251803939e-01 -2.392532261324e-01 0.0 
1.979689748142e-01 -2.376247605857e-01 0.0 
5.332742601851e-02 -7.292412422490e-03 0.0 
6.342208291966e-02 -9.123256470372e-03 0.0 
4.188578790206e-02 -5.890306713979e-03 0.0 
1.639988785659e-02 -5.488617891735e-02 0.0 
8.285649407344e-02 -5.128604856075e-02 0.0 
7.020541379575e-03 -2.097783291994e-02 0.0 
1.419926778431e-02 -2.828044820329e-02 0.0 
1.957416100352e-03 -1.389110626276e-02 0.0 
5.346496037796e-02 -3.343125032827e-02 0.0 
3.784308100850e-02 -2.273356703741e-02 0.0 
4.107199095852e-02 -2.129633904309e-02 0.0 
1.711784371446e-01 -2.146473402334e-01 0.0 
3.383116935182e-03 -1.015973832730e-03 0.0 
2.869150887946e-02 7.776063620245e-03 0.0 
1.678680937018e-01 -2.141976828322e-01 0.0 
2.495473360573e-02 8.132609092340e-03 0.0 
2.085401046870e-02 6.524349735883e-03 0.0 
2.175546700619e-02 8.583678833108e-03 0.0 
2.856649721797e-02 -7.307225772929e-02 0.0 
4.565073950719e-02 1.062199003127e-02 0.0 
5.030664855896e-02 9.660145040216e-03 0.0 
1.195692536514e-01 -1.705458506008e-01 0.0 
2.044463641084e-02 -3.137249370958e-03 0.0 
1.167550170786e-01 -1.535643882805e-01 0.0 
1.117470866392e-01 -1.459290631570e-01 0.0 
-1.762451093348e-03 -1.286230890792e-02 0.0 
-1.887570441733e-03 -1.515038997507e-02 0.0 
-1.144107719750e-03 -1.008805355916e-02 0.0 
-9.418046586171e-04 -1.280634641816e-02 0.0 
-1.377020364155e-03 -1.701003042660e-02 0.0 
4.885623781596e-05 -1.470326655928e-02 0.0 
3.343155299489e-02 9.700374238540e-03 0.0 
2.897752668810e-04 -9.874405420424e-03 0.0 
1.623418700539e-03 -1.276820475592e-02 0.0 
1.394074755981e-03 -7.760230400730e-03 0.0 
2.113535799733e-01 -2.632497395599e-02 0.0 
2.050052811862e-01 -1.362305827093e-01 0.0 
2.634856622149e-01 -1.434129713312e-01 0.0 
2.891580969184e-01 -1.594266042477e-01 0.0 
4.333063515177e-02 -1.430714411041e-02 0.0 
6.533920322575e-02 -2.108155113538e-02 0.0 
2.158323870195e-03 -2.992383874237e-02 0.0 
-2.944859256116e-03 -3.736565596793e-02 0.0 
1.733781570066e-02 7.068102521748e-03 0.0 
1.272233701464e-02 6.695806441027e-03 0.0 
1.375741314441e-02 5.163884746429e-03 0.0 
9.955001682022e-03 5.050781259854e-03 0.0 
1.067764688229e-02 3.593174375448e-03 0.0 
6.880978251020e-03 3.571640661570e-03 0.0 
8.123837042160e-03 2.242727897799e-03 0.0 
3.372586695391e-02 -1.546703111374e-02 0.0 
2.541353478529e-01 -2.147278506667e-01 0.0 
1.432338982484e-01 -6.929509928348e-03 0.0 
2.436689661182e-02 -2.019574196598e-02 0.0 
2.921961085430e-02 -2.834706076670e-02 0.0 
1.946022648614e-01 -5.087204258792e-02 0.0 
2.665630294422e-01 -6.870549212943e-02 0.0 
-1.094273897404e-03 -1.255984259551e-02 0.0 
1.482401768229e-01 -1.553077919569e-01 0.0 
1.954397312751e-02 -5.965975504022e-03 0.0 
1.851660305436e-01 -2.306466399652e-01 0.0 
1.822965861707e-01 -2.253352597122e-01 0.0 
1.506945998749e-01 -1.373664717951e-01 0.0 
1.355745572747e-01 -3.595913984117e-02 0.0 
1.973215231678e-01 -1.106845030167e-01 0.0 
2.507558413994e-01 -1.166434988837e-01 0.0 
3.130565188635e-02 -6.206635999060e-02 0.0 
1.125056189604e-01 -1.781414901990e-01 0.0 
2.309190814598e-01 -2.322397536252e-01 0.0 
1.186625836261e-02 2.295873062152e-03 0.0 
2.149572074001e-01 -2.366752035745e-01 0.0 
-1.586045233148e-03 -3.783069173701e-02 0.0 
1.501999024610e-01 -1.652209773211e-01 0.0 
1.405986552062e-01 -6.057369218013e-02 0.0 
1.983816432377e-01 -2.045881023164e-01 0.0 
1.583443042878e-01 -1.296599006032e-01 0.0 
1.054188400081e-01 -1.528231868957e-02 0.0 
8.774597316921e-02 3.425294438227e-04 0.0 
9.126726431023e-02 -6.161729730876e-04 0.0 
1.498415989228e-01 -1.706848452793e-01 0.0 
2.360159804360e-01 -9.159437310864e-02 0.0 
2.936708274043e-01 -1.107131067018e-01 0.0 
1.268707024715e-01 -3.417271024957e-02 0.0 
6.780238400744e-02 -6.342283997632e-03 0.0 
7.315981883120e-02 -1.112473489175e-02 0.0 
6.898532664413e-02 -1.381086588283e-02 0.0 
7.871160843379e-02 -1.712836995312e-02 0.0 
8.287812404305e-02 -1.372008572358e-02 0.0 
8.962580449876e-02 -2.080552268101e-02 0.0 
8.410535835413e-02 -2.521553148852e-02 0.0 
9.690422681094e-02 -2.761970854454e-02 0.0 
7.575091838958e-02 -2.351392991566e-02 0.0 
9.865498352283e-02 -3.243416828925e-02 0.0 
1.086370052085e-01 -3.256282948026e-02 0.0 
1.148444060703e-01 -4.063136013438e-02 0.0 
6.286416259500e-02 -1.661906376944e-02 0.0 
1.189161991534e-01 -3.660224057792e-02 0.0 
1.976415053659e-02 -1.387968201307e-02 0.0 
1.562211009650e-01 -1.327905222993e-01 0.0 
1.758791126599e-01 -2.170283907417e-01 0.0 
1.877801434255e-01 -2.309772722645e-01 0.0 
1.378894238934e-01 -4.669772039731e-02 0.0 
3.154231081224e-02 -1.098834555226e-02 0.0 
3.818549390134e-02 -1.019445636726e-02 0.0 
1.461499691717e-01 -1.821282113765e-01 0.0 
1.989869148823e-02 -6.671142350420e-03 0.0 
1.018061787840e-01 -1.157280403893e-02 0.0 
1.536132374401e-01 -2.008061235163e-01 0.0 
1.816793787086e-02 -6.809012718060e-03 0.0 
7.665619444754e-02 -8.076536561177e-03 0.0 
8.505957351530e-02 -1.000008019653e-02 0.0 
7.834107507160e-02 -4.780238233093e-03 0.0 
3.302867421679e-02 -7.606158032078e-03 0.0 
4.980502872538e-02 7.146499806301e-03 0.0 
1.320427650545e-02 -7.361720978980e-03 0.0 
8.503431687465e-02 -8.997388498189e-02 0.0 
9.917552430654e-02 -9.644692547154e-02 0.0 
1.187336130918e-01 -1.193323820759e-01 0.0 
1.000212110738e-01 -2.344782294949e-02 0.0 
8.334563078376e-03 -8.207313400184e-03 0.0 
1.517691115310e-02 -1.719415226847e-02 0.0 
1.154536631032e-02 -1.670445287286e-02 0.0 
2.158709212696e-02 -2.815111064323e-02 0.0 
4.380462401731e-03 -7.398931972412e-03 0.0 
2.237080778828e-02 -5.619750036097e-03 0.0 
2.017635699468e-02 -5.497821462568e-03 0.0 
1.167365287136e-01 -1.581114654397e-01 0.0 
1.178049303357e-01 -1.578150488238e-01 0.0 
1.060022338173e-01 -1.460107453891e-01 0.0 
1.172621827431e-01 -1.585386994494e-01 0.0 
1.308129304075e-01 -1.713550137476e-01 0.0 
1.299355036962e-01 -1.726368881092e-01 0.0 
1.159767443542e-01 -1.594911753117e-01 0.0 
1.420529031120e-01 -1.865432483993e-01 0.0 
8.048416508840e-02 -2.486592520760e-02 0.0 
1.233243211811e-03 -6.255737066005e-03 0.0 
3.173577554408e-02 -6.906018592004e-02 0.0 
4.360628747516e-02 -8.218827166634e-02 0.0 
5.545321047326e-02 -9.472489938502e-02 0.0 
1.084748779061e-02 -7.072693413547e-02 0.0 
1.971914558401e-02 -6.800996345897e-02 0.0 
1.036490631529e-02 -5.067404865210e-02 0.0 
1.704050304350e-03 -7.314341864856e-02 0.0 
1.203939056318e-01 -6.716126954036e-02 0.0 
1.876517337272e-04 -6.068076477884e-03 0.0 
6.060795582495e-02 -9.300617959054e-02 0.0 
3.821148368302e-02 -8.505403252676e-02 0.0 
5.622012708365e-02 1.280675870960e-02 0.0 
6.060834946106e-02 1.145726652593e-02 0.0 
6.765640022616e-02 7.503646591480e-03 0.0 
6.612795007378e-02 6.327989998108e-03 0.0 
5.504548872859e-02 1.105740674103e-02 0.0 
-1.351508090290e-02 -4.125833564360e-02 0.0 
-1.430215162703e-02 -4.487672153336e-02 0.0 
-1.729173834238e-02 -4.998585914345e-02 0.0 
-1.602833357792e-02 -4.634908613464e-02 0.0 
-1.256627310300e-02 -4.834721814519e-02 0.0 
-1.329103974157e-02 -4.988586554259e-02 0.0 
-1.101149190912e-02 -4.682652464266e-02 0.0 
-7.144667473206e-03 -4.759682133441e-02 0.0 
4.798237298150e-02 1.275879659328e-02 0.0 
1.551999936299e-01 -2.125428690083e-01 0.0 
1.492146639266e-01 -2.093097863388e-01 0.0 
1.413752194250e-01 -2.108754529677e-01 0.0 
1.463660672486e-01 -2.071676568229e-01 0.0 
1.505050305763e-01 -2.066351739310e-01 0.0 
1.442709375052e-01 -2.015589031331e-01 0.0 
1.496839806699e-01 -2.038252038379e-01 0.0 
1.561058908278e-01 -2.102393778625e-01 0.0 
1.445102619932e-01 -2.095228560381e-01 0.0 
1.333159096109e-01 -2.038823640908e-01 0.0 
1.404904853872e-01 -1.994849170595e-01 0.0 
1.281676490968e-01 -1.913359987668e-01 0.0 
1.170333256568e-01 -1.920299935341e-01 0.0 
9.010857842964e-02 -1.630428347162e-01 0.0 
3.022470469895e-03 -6.636638208481e-03 0.0 
-4.530214012466e-03 -4.335744161837e-02 0.0 
-8.052115610075e-03 -4.331975170827e-02 0.0 
-5.271117280955e-03 -4.085498672861e-02 0.0 
-1.128356894794e-02 -4.457014913166e-02 0.0 
-8.937575310398e-03 -4.579435189311e-02 0.0 
-1.148523100174e-03 -3.821652471776e-02 0.0 
-1.157183985595e-03 -3.942261933358e-02 0.0 
7.156301313424e-02 -1.558845848417e-01 0.0 
5.679062178037e-02 -1.323746752878e-01 0.0 
2.713999017927e-02 -1.333984988233e-01 0.0 
4.017090652495e-02 -1.076989695078e-01 0.0 
6.061609382336e-02 -1.182000043810e-01 0.0 
7.794383376043e-02 -1.397763147412e-01 0.0 
9.081595208136e-02 -1.526154296562e-01 0.0 
9.233106498358e-02 -1.615303884381e-01 0.0 
1.106920913530e-01 -1.392201251512e-01 0.0 
9.997877463842e-02 -1.294834111129e-01 0.0 
1.188270317483e-01 -1.477352283058e-01 0.0 
2.622535928350e-03 4.713022818200e-04 0.0 
5.015432254083e-03 -4.434101147648e-05 0.0 
-7.179336264807e-04 -5.974882498148e-03 0.0 
3.836942968626e-02 1.161853229721e-02 0.0 
1.331502619881e-01 -1.767101885371e-01 0.0 
5.221092167728e-03 -2.554543535037e-03 0.0 
9.369808121677e-03 -2.581090799534e-03 0.0 
7.089239456096e-03 -2.443351348046e-03 0.0 
3.357281272202e-03 -2.045230042804e-02 0.0 
4.940048886611e-03 -1.488657314213e-02 0.0 
2.630210104831e-03 -9.765121015858e-04 0.0 
6.354881560959e-02 -1.394192642230e-01 0.0 
7.437405624255e-02 -1.940836718062e-02 0.0 
1.244382889991e-02 -1.512031122174e-03 0.0 
1.620076498284e-01 -2.097622839464e-01 0.0 
8.796272112339e-02 -1.464454028814e-01 0.0 
-3.402304954310e-03 -3.506271824638e-02 0.0 
5.330387170186e-04 -2.989711605083e-02 0.0 
4.475858213473e-03 -1.816839331192e-02 0.0 
-3.023570753601e-03 -2.994365090690e-02 0.0 
7.394079981124e-04 -1.999463933288e-02 0.0 
7.868553881236e-03 -1.631344087497e-02 0.0 
5.133308409474e-02 -9.219797298252e-02 0.0 
3.136675021161e-02 5.432963528308e-03 0.0 
2.016221714352e-02 4.656827753394e-03 0.0 
1.974977437286e-02 7.270738348368e-04 0.0 
3.085044529133e-02 -1.003312915310e-01 0.0 
-1.813816740681e-02 -5.131018278866e-02 0.0 
8.365345157555e-02 -1.391130448105e-01 0.0 
3.603201694403e-02 -1.349846653608e-02 0.0 
1.235838085392e-01 -2.960150088300e-02 0.0 
5.718258318759e-02 -9.574216396696e-02 0.0 
2.160133336470e-02 -9.065509064157e-02 0.0 
6.721459664014e-02 -1.355350115115e-01 0.0 
9.853970327097e-02 -1.530112469185e-01 0.0 
1.583559117369e-01 -1.152011037093e-01 0.0 
4.302663638778e-02 -8.363013477566e-02 0.0 
1.950651126618e-03 -3.163206319401e-02 0.0 
1.518169546172e-02 -3.003709414427e-04 0.0 
1.283105810218e-01 -1.552951121771e-01 0.0 
2.391796411231e-03 -3.147825813921e-02 0.0 
1.749282505093e-02 -5.206400311913e-02 0.0 
4.428749140876e-02 5.738997649782e-03 0.0 
5.165179630232e-02 -5.460297134654e-02 0.0 
1.307102944322e-01 -1.864113813921e-01 0.0 
2.998837999628e-02 8.634474214329e-04 0.0 
3.989117117710e-02 -4.009150191410e-03 0.0 
5.491138474879e-02 8.398552614461e-03 0.0 
9.936255596585e-02 -1.431351597253e-01 0.0 
3.248594420374e-02 7.504465221638e-03 0.0 
8.200438304904e-04 -1.811476811908e-02 0.0 
6.274099615567e-02 -2.408934302889e-03 0.0 
3.473539733020e-02 -8.818870013534e-02 0.0 
7.976758349082e-02 -1.144100287982e-01 0.0 
1.487873103101e-01 -7.561406005187e-02 0.0 
1.285313536165e-01 1.254801001256e-02 0.0 
1.350753567783e-02 -1.823983070138e-03 0.0 
1.245999250853e-01 -1.031203235738e-01 0.0 
3.165475240665e-02 -4.255820375795e-02 0.0 
6.097247767714e-02 -8.601291158900e-02 0.0 
1.703885132619e-02 -6.335527888260e-02 0.0 
-2.172751390809e-03 -1.992078636753e-02 0.0 
1.144466664335e-01 -1.289872189297e-01 0.0 
2.583487374501e-02 -8.575482989136e-04 0.0 
1.014379254771e-01 -4.001758128164e-02 0.0 
1.151717914828e-01 -1.555913635365e-01 0.0 
4.276011803173e-02 -3.900356633673e-04 0.0 
6.413982869676e-02 -1.043029066977e-01 0.0 
5.019443283342e-02 -4.572306230994e-02 0.0 
1.286393998580e-01 -3.615724073682e-02 0.0 
1.545882414821e-01 -6.923598495861e-02 0.0 
1.257428926119e-01 -3.732383627408e-02 0.0 
1.690893309259e-01 -1.017408141295e-01 0.0 
-9.536426970613e-03 -4.423984586923e-02 0.0 
-1.357849407350e-03 -2.430674004619e-02 0.0 
1.562443109378e-01 -1.992153857564e-01 0.0 
1.495686302207e-01 -1.200165484073e-01 0.0 
5.468503712201e-02 5.578075056671e-03 0.0 
6.480306274777e-02 -2.926344661454e-02 0.0 
2.023185939216e-02 -2.168658106574e-03 0.0 
1.437554465690e-01 -7.302950396568e-02 0.0 
-1.571346956597e-03 -2.097129697943e-02 0.0 
3.749638420393e-02 -2.574232372634e-03 0.0 
2.622327710370e-02 -6.677984749462e-02 0.0 
1.118239638360e-02 -6.072365412214e-02 0.0 
1.840261978650e-01 -2.251019508182e-01 0.0 
1.415991201237e-01 -1.871556573307e-01 0.0 
1.230015686937e-01 -1.169087352134e-01 0.0 
1.506423430358e-02 -5.077977909002e-02 0.0 
5.850381279639e-02 -1.284062368057e-02 0.0 
-3.627241705801e-04 -1.847899105086e-02 0.0 
2.043580625890e-02 -5.106768705870e-02 0.0 
1.935606079077e-01 -2.405361314643e-01 0.0 
1.096666115492e-01 2.491498045856e-03 0.0 
1.296949272647e-03 -1.667486541311e-02 0.0 
6.958545463716e-02 -1.060616082465e-01 0.0 
4.048479484299e-02 -4.090020128929e-02 0.0 
-8.299386198507e-03 -4.833325254586e-02 0.0 
3.456404237330e-02 -1.383221258972e-02 0.0 
2.402821843003e-01 -4.752308777780e-02 0.0 
3.128195936840e-03 -1.534100884490e-02 0.0 
3.161718166535e-02 -5.663443673404e-02 0.0 
1.466805850689e-01 -1.701519696054e-01 0.0 
1.107874616938e-02 8.191652901898e-03 0.0 
2.836607399583e-03 -1.036120327087e-02 0.0 
2.173488395509e-02 -4.117805198934e-02 0.0 
1.189520241053e-01 -6.767054225109e-02 0.0 
7.013873327351e-02 -1.102579666868e-01 0.0 
2.115014901778e-01 -4.102437609717e-03 0.0 
4.098040866814e-03 -3.804877773367e-02 0.0 
1.500954662689e-01 -6.038765050964e-02 0.0 
2.673450951784e-02 -6.432890857855e-03 0.0 
2.253252676350e-02 -3.565744896324e-02 0.0 
8.549861013814e-02 -6.198289185214e-03 0.0 
-8.604784516169e-04 -3.945713285907e-02 0.0 
8.716837505680e-02 -6.985852245077e-02 0.0 
7.624483968343e-02 -1.320271792015e-01 0.0 
1.770081250287e-01 -1.937581791627e-02 0.0 
-6.604039217755e-03 -3.465659496523e-02 0.0 
1.293147518347e-01 -1.738290126184e-01 0.0 
6.215587600226e-02 -1.020749535454e-01 0.0 
2.907472209697e-02 -1.888167866298e-02 0.0 
-7.750617426004e-03 -3.585792447203e-02 0.0 
1.150054198788e-01 -1.587908954547e-01 0.0 
-9.501504421755e-03 -3.818391066052e-02 0.0 
2.737863904664e-01 -3.087444387735e-02 0.0 
9.303074126190e-02 -1.223618603915e-02 0.0 
-1.085478729134e-02 -4.177089239429e-02 0.0 
1.560278907828e-01 -6.736367494746e-02 0.0 
1.070809498969e-01 -1.348433019514e-01 0.0 
1.243630765375e-01 -7.607374595916e-02 0.0 
5.227491789242e-03 -2.263024119274e-02 0.0 
7.606171976590e-02 -1.239959516225e-01 0.0 
5.378752362270e-02 -9.318024146853e-02 0.0 
9.224288406679e-02 -1.638746890519e-02 0.0 
3.052200929051e-01 -6.866710716358e-02 0.0 
4.262359903129e-02 -8.027538436962e-02 0.0 
9.411502791964e-02 -3.431949532770e-02 0.0 
9.976382213461e-02 -6.471895785097e-02 0.0 
1.225241539362e-01 -1.084543591537e-01 0.0 
3.116968783255e-02 -6.593139313976e-02 0.0 
2.806620549246e-01 -8.727753914934e-02 0.0 
7.434668323747e-02 -1.473703436509e-01 0.0 
8.150239492983e-02 -1.563816666115e-01 0.0 
1.046472458277e-01 -1.476392511323e-01 0.0 
8.707640721725e-02 -2.967950003188e-02 0.0 
4.384888290652e-02 -9.728042513177e-02 0.0 
1.095718994873e-01 -2.745289562352e-02 0.0 
9.763279659836e-02 -1.717245585463e-01 0.0 
1.051912027380e-01 -1.470861058630e-01 0.0 
6.893470260361e-02 -4.534512080439e-02 0.0 
3.118676850039e-03 3.087432079661e-03 0.0 
9.294578436070e-02 -1.337008362798e-01 0.0 
5.608241817922e-03 -4.718661820228e-02 0.0 
9.458297346006e-02 -1.339206539732e-01 0.0 
1.007893940825e-01 -8.548485597570e-02 0.0 
8.583746302458e-02 -1.249367755403e-01 0.0 
8.631205302784e-02 -1.270220023751e-01 0.0 
9.290858288737e-03 -2.312553096708e-03 0.0 
7.786236170150e-02 -1.198112434550e-01 0.0 
1.287950755268e-03 -7.811847152280e-04 0.0 
2.111343719268e-03 -6.097896610536e-03 0.0 
4.132490244407e-03 6.450188277229e-03 0.0 
3.080521492827e-01 -1.057557327051e-01 0.0 
1.742987805780e-01 -2.186885264073e-01 0.0 
2.892501930897e-01 -1.354755566633e-01 0.0 
8.243916333540e-02 -1.353924969847e-01 0.0 
1.280452280635e-01 -4.231172264426e-02 0.0 
8.572920352591e-03 6.549798295623e-03 0.0 
7.812503642746e-02 -1.416137635973e-01 0.0 
4.682534949093e-02 -1.099101641971e-02 0.0 
1.508839029434e-02 -6.908817821045e-03 0.0 
5.619139473296e-03 9.735788812385e-04 0.0 
3.139490867177e-02 -3.573347340730e-02 0.0 
8.571675938389e-02 -5.982960854522e-02 0.0 
1.672277990523e-03 -9.066786214341e-04 0.0 
2.538990134514e-02 9.951881219105e-03 0.0 
1.246315237420e-01 -1.810187572714e-01 0.0 
-5.901708647543e-03 -4.326791141125e-02 0.0 
2.806991402056e-01 -1.461630623510e-01 0.0 
2.730377824217e-01 -1.880919654634e-01 0.0 
2.324109728637e-01 -2.309668764964e-01 0.0 
3.867647834927e-03 -4.581151052564e-02 0.0 
1.322805358381e-01 -2.020732765576e-01 0.0 
2.478819965310e-01 -1.924190050660e-01 0.0 
1.857599321238e-02 -1.775394534362e-02 0.0 
4.105789834643e-02 1.056019980405e-02 0.0 
6.589923635580e-02 -3.896381605268e-02 0.0 
2.119735789051e-01 -2.322381512048e-01 0.0 
3.053913540910e-02 -4.352672185813e-03 0.0 
2.964482310249e-02 -1.617767027200e-02 0.0 
-4.241536724256e-04 -4.976328870361e-03 0.0 
4.772537005809e-02 -2.715384099611e-02 0.0 
2.007930368476e-01 -2.406241400248e-01 0.0 
5.944688553647e-02 9.211014004400e-03 0.0 
3.725986607679e-02 -1.343997155066e-02 0.0 
7.679497005376e-03 1.099166103261e-04 0.0 
4.518220251872e-04 -4.842685769014e-03 0.0 
5.036302713562e-02 1.147210499972e-02 0.0 
5.310266867964e-03 -1.706971512156e-03 0.0 
1.551979729954e-01 -2.007171628825e-01 0.0 
2.680804318979e-03 -1.068983277592e-03 0.0 
1.281686120628e-01 -4.789299642769e-02 0.0 
1.731429177006e-02 5.144699060587e-03 0.0 
7.186454367924e-02 4.318296330146e-03 0.0 
4.695354872927e-03 -1.089663551098e-02 0.0 
6.496756956899e-02 -2.077709304571e-02 0.0 
1.923283348605e-01 -2.377824881776e-01 0.0 
8.842431350134e-03 1.225450199274e-03 0.0 
-1.370816475852e-02 -4.978981573977e-02 0.0 
1.623033992849e-01 -2.122547336876e-01 0.0 
-1.377288191260e-03 -1.086790594306e-02 0.0 
7.197014106996e-02 -2.018282405274e-02 0.0 
3.748304191217e-03 -1.004612630527e-02 0.0 
1.822357517160e-02 -1.071844305274e-01 0.0 
1.217908602971e-01 -1.609289682972e-01 0.0 
1.237976276610e-04 -1.122018653819e-02 0.0 
3.962346789856e-02 -1.173843327572e-02 0.0 
1.468291172876e-01 -1.960543808963e-01 0.0 
1.387297853155e-02 -3.286877719997e-03 0.0 
1.871370582578e-01 -2.333422467227e-01 0.0 
3.414376184374e-02 1.150449149467e-02 0.0 
1.192481154403e-01 -1.412618707522e-01 0.0 
1.316307728535e-03 -4.901025240892e-03 0.0 
1.536124551312e-02 -2.254309373705e-03 0.0 
-1.195879259637e-02 -4.606889477273e-02 0.0 
6.824114196747e-02 7.977112362508e-03 0.0 
7.048177079745e-03 -4.397271828387e-02 0.0 
4.759430373645e-02 -2.094957136033e-02 0.0 
1.162659487424e-01 -1.848641712382e-01 0.0 
9.719389680224e-03 -2.322426795802e-03 0.0 
4.033338846869e-03 -1.268155231168e-02 0.0 
4.754323135000e-02 -9.994372730120e-03 0.0 
8.304247681457e-03 -5.702303435695e-03 0.0 
1.768055181380e-01 -2.198812723976e-01 0.0 
2.677180548365e-02 -1.332092353812e-02 0.0 
1.527951286699e-02 -2.469897563280e-02 0.0 
1.921551454071e-02 9.213571635642e-03 0.0 
6.214001121234e-02 -1.566768375210e-02 0.0 
-5.221608142898e-03 -4.350358778701e-02 0.0 
9.205574949306e-02 -1.232482029489e-01 0.0 
5.417132587321e-04 -6.600498584784e-04 0.0 
1.988665255378e-02 -1.550005670663e-01 0.0 
3.268530211993e-03 8.064119633349e-03 0.0 
9.155843742932e-04 -4.940630766604e-03 0.0 
6.036262586457e-02 -1.122114025678e-01 0.0 
6.753913432615e-03 5.241974450735e-03 0.0 
4.056026905780e-02 -1.112485553534e-02 0.0 
-3.498504380543e-03 -4.804823646414e-02 0.0 
3.809820711064e-03 -6.294559675441e-04 0.0 
1.372325602680e-01 -1.957975236072e-01 0.0 
1.678659358218e-01 -2.156625148671e-01 0.0 
5.362173025800e-03 2.378173558683e-03 0.0 
2.503314491167e-02 -1.470786502469e-02 0.0 
3.216048032232e-02 -5.454783786216e-03 0.0 
1.388152621404e-02 3.909617245950e-03 0.0 
1.904907717278e-01 -2.314146448019e-01 0.0 
5.812474669881e-02 -1.674422345485e-02 0.0 
-1.348523899985e-02 -4.824592014293e-02 0.0 
5.135310875101e-02 -1.913057965736e-02 0.0 
2.347418770703e-02 -2.580116967181e-02 0.0 
1.875331869062e-01 -2.352167885313e-01 0.0 
-2.981493816207e-03 -4.689444380152e-02 0.0 
1.208806247275e-01 -1.486598553679e-01 0.0 
-5.221911120172e-04 -8.898560397474e-03 0.0 
-9.226024458012e-03 -4.797244316808e-02 0.0 

VECTORS node_materi_displacement float
0.0 7.203645187898e-02 0.0 
0.0 1.628850389024e-01 0.0 
0.0 0.0 0.0 
0.0 0.0 0.0 
0.0 7.260169744730e-02 0.0 
0.0 7.332661293647e-02 0.0 
0.0 7.353687870920e-02 0.0 
0.0 7.318823253804e-02 0.0 
0.0 7.221088521822e-02 0.0 
0.0 7.053175207322e-02 0.0 
0.0 6.815824222796e-02 0.0 
0.0 6.520468579170e-02 0.0 
0.0 6.180877706116e-02 0.0 
0.0 5.799576748570e-02 0.0 
0.0 5.376971207849e-02 0.0 
0.0 4.916809170780e-02 0.0 
0.0 4.420546436389e-02 0.0 
0.0 3.891186906496e-02 0.0 
0.0 3.323822454425e-02 0.0 
0.0 2.721073544092e-02 0.0 
0.0 2.089617535483e-02 0.0 
0.0 1.431257750485e-02 0.0 
0.0 7.375015239726e-03 0.0 
0.0 0.0 0.0 
0.0 0.0 0.0 
0.0 0.0 0.0 
0.0 0.0 0.0 
0.0 0.0 0.0 
0.0 0.0 0.0 
0.0 0.0 0.0 
0.0 0.0 0.0 
0.0 0.0 0.0 
0.0 0.0 0.0 
0.0 0.0 0.0 
0.0 0.0 0.0 
0.0 0.0 0.0 
0.0 0.0 0.0 
0.0 0.0 0.0 
0.0 0.0 0.0 
0.0 0.0 0.0 
0.0 0.0 0.0 
0.0 0.0 0.0 
0.0 0.0 0.0 
0.0 0.0 0.0 
0.0 0.0 0.0 
0.0 0.0 0.0 
0.0 0.0 0.0 
0.0 0.0 0.0 
0.0 0.0 0.0 
0.0 0.0 0.0 
0.0 0.0 0.0 
0.0 0.0 0.0 
0.0 0.0 0.0 
0.0 0.0 0.0 
0.0 0.0 0.0 
0.0 0.0 0.0 
0.0 0.0 0.0 
0.0 0.0 0.0 
0.0 0.0 0.0 
0.0 0.0 0.0 
0.0 0.0 0.0 
0.0 0.0 0.0 
0.0 0.0 0.0 
0.0 0.0 0.0 
0.0 0.0 0.0 
0.0 0.0 0.0 
0.0 0.0 0.0 
0.0 0.0 0.0 
0.0 0.0 0.0 
0.0 0.0 0.0 
0.0 0.0 0.0 
0.0 0.0 0.0 
0.0 1.482035086339e-01 0.0 
0.0 1.330999413105e-01 0.0 
0.0 1.175960432587e-01 0.0 
0.0 1.017185842499e-01 0.0 
0.0 8.548525912061e-02 0.0 
0.0 6.892723384760e-02 0.0 
0.0 5.207144939296e-02 0.0 
0.0 3.494750967799e-02 0.0 
0.0 1.758811768088e-02 0.0 
-2.341933112472e-03 7.899487314150e-02 0.0 
2.564979311895e-02 1.520808080255e-01 0.0 
1.482903110972e-03 8.940999156772e-02 0.0 
5.546377143722e-03 1.016894812286e-01 0.0 
1.033097173757e-02 1.147899270123e-01 0.0 
1.609908288291e-02 1.276672770242e-01 0.0 
2.223904804554e-02 1.389811152768e-01 0.0 
2.786624783168e-02 1.472664225542e-01 0.0 
3.175064129337e-02 1.528001072718e-01 0.0 
3.315255994023e-02 1.560539507182e-01 0.0 
3.147393358866e-02 1.565591709213e-01 0.0 
1.596604799090e-03 1.629642975759e-01 0.0 
3.130385557719e-03 1.629746131661e-01 0.0 
4.676315223316e-03 1.630448183109e-01 0.0 
6.230635405850e-03 1.631447242446e-01 0.0 
7.790455165535e-03 1.632229322517e-01 0.0 
9.343620864208e-03 1.632946000508e-01 0.0 
1.089443576655e-02 1.633099945205e-01 0.0 
1.243157220243e-02 1.632360867954e-01 0.0 
1.396180652943e-02 1.630120245020e-01 0.0 
1.549010072052e-02 1.625926008242e-01 0.0 
1.701286471581e-02 1.618331912544e-01 0.0 
1.858749599022e-02 1.606212071042e-01 0.0 
2.031934853121e-02 1.588093495484e-01 0.0 
2.243797548714e-02 1.564774924668e-01 0.0 
-1.189327978988e-03 7.316989085880e-02 0.0 
3.930974020839e-04 6.824868057964e-02 0.0 
2.177604184283e-03 6.426786555492e-02 0.0 
4.105927749559e-03 6.126738522972e-02 0.0 
5.921350676386e-03 5.929553753056e-02 0.0 
7.618886643626e-03 5.830578741630e-02 0.0 
9.112984978769e-03 5.824798511981e-02 0.0 
1.030201560195e-02 5.902032237140e-02 0.0 
1.110992141573e-02 6.042310817916e-02 0.0 
1.153169133357e-02 6.220733794715e-02 0.0 
1.162756782404e-02 6.411560594483e-02 0.0 
1.151050010272e-02 6.605557702363e-02 0.0 
1.126808010150e-02 6.788833033632e-02 0.0 
1.043321907264e-02 6.944470709508e-02 0.0 
8.551845714326e-03 7.017903581280e-02 0.0 
6.953613338458e-03 7.077124407544e-02 0.0 
5.308962236649e-03 7.121821413439e-02 0.0 
3.688038465556e-03 7.153434265151e-02 0.0 
1.669669810029e-03 7.193467030092e-02 0.0 
-3.665706716694e-04 8.394688336377e-02 0.0 
3.466057977121e-03 9.538138667581e-02 0.0 
7.853783533353e-03 1.081589135619e-01 0.0 
1.314069661796e-02 1.213494031516e-01 0.0 
1.918570490114e-02 1.338280308059e-01 0.0 
2.531821473881e-02 1.436477926594e-01 0.0 
3.010345690338e-02 1.503023552736e-01 0.0 
3.281375328109e-02 1.547044861083e-01 0.0 
3.276166053593e-02 1.566095498680e-01 0.0 
2.924669928191e-02 1.554013364807e-01 0.0 
8.688559442514e-03 9.362391168776e-02 0.0 
3.107947177152e-03 7.997099724413e-03 0.0 
1.016505052799e-02 6.108983324664e-02 0.0 
6.670403867311e-03 5.960488601146e-02 0.0 
1.548898812423e-03 7.299495983721e-03 0.0 
1.994356435076e-02 1.173545125425e-01 0.0 
-1.238145497950e-04 5.577361072253e-02 0.0 
4.722479245645e-03 8.818599419920e-03 0.0 
3.103431222424e-02 1.360982341772e-01 0.0 
6.139487484598e-03 9.502079107863e-03 0.0 
3.487965741451e-02 1.444821200993e-01 0.0 
6.898954240266e-04 6.365833660755e-03 0.0 
9.486179968765e-03 6.902923631747e-02 0.0 
7.661841041083e-03 1.062224600789e-02 0.0 
2.848006468810e-02 1.414099737611e-01 0.0 
3.232668466268e-04 6.923377677067e-02 0.0 
-1.918653331601e-04 4.262260637466e-02 0.0 
8.886932166891e-03 1.200559938600e-02 0.0 
7.012715347442e-03 1.315637664155e-02 0.0 
1.631857687279e-03 1.497396001059e-02 0.0 
3.182642939707e-03 1.601230135503e-02 0.0 
4.614753010834e-03 1.386273069441e-02 0.0 
2.284646992488e-02 1.445382802519e-01 0.0 
1.513421307610e-02 1.495515333254e-01 0.0 
1.013931908016e-02 1.496837480011e-01 0.0 
1.015626257095e-03 9.340187707242e-02 0.0 
3.480232208515e-04 6.657422610161e-03 0.0 
3.292172274842e-03 7.033593615655e-02 0.0 
5.756356129218e-03 7.150123660940e-02 0.0 
-1.042819875963e-04 2.458872995007e-02 0.0 
5.292351385213e-03 1.504483896481e-01 0.0 
1.155271898161e-03 7.339680040133e-02 0.0 
9.545790071870e-03 1.416031792794e-02 0.0 
5.032938695482e-03 8.426894921359e-03 0.0 
6.805198777731e-03 9.876931284043e-03 0.0 
4.161536879202e-03 8.901910447984e-03 0.0 
2.292779207457e-03 7.302973249786e-03 0.0 
8.682417056321e-03 5.762161725011e-02 0.0 
1.870181111857e-02 1.488786466163e-01 0.0 
1.250638006143e-03 8.068453244144e-03 0.0 
7.786073247884e-04 6.125722461670e-02 0.0 
1.008377713291e-02 6.504946465536e-02 0.0 
1.406185797603e-05 6.345538220932e-02 0.0 
8.001596357140e-04 1.220815041482e-02 0.0 
2.611355071098e-02 1.271587975198e-01 0.0 
1.385300346294e-02 1.053681641014e-01 0.0 
3.419068702658e-02 1.413889268268e-01 0.0 
3.288218392937e-02 1.448011093459e-01 0.0 
3.918071350580e-03 8.320292592903e-02 0.0 
1.215170328102e-03 1.235544504057e-01 0.0 
1.515263063194e-04 5.163998358280e-03 0.0 
2.431344982183e-03 7.233517415283e-02 0.0 
4.313240643760e-04 2.758910757990e-02 0.0 
2.768268349736e-02 1.374327698280e-01 0.0 
3.004787399970e-02 1.281704280161e-01 0.0 
2.807389038389e-02 1.257553587621e-01 0.0 
3.059101791648e-02 1.150311346962e-01 0.0 
2.865308972144e-02 1.104489749313e-01 0.0 
3.037785063830e-02 1.012425590405e-01 0.0 
3.246206507176e-02 1.053306033082e-01 0.0 
3.173605400851e-02 9.210788934975e-02 0.0 
3.390165408243e-02 9.599324893055e-02 0.0 
2.801705619022e-02 9.611616200104e-02 0.0 
3.270818215829e-02 8.316159528318e-02 0.0 
3.495761070685e-02 8.690884839251e-02 0.0 
3.332658583924e-02 7.446104043101e-02 0.0 
3.565474369009e-02 7.808777003641e-02 0.0 
3.688375001536e-02 8.994642901658e-02 0.0 
3.766161835939e-02 8.109550827324e-02 0.0 
3.847003071424e-02 9.228412730285e-02 0.0 
3.932465026412e-02 8.342414107027e-02 0.0 
3.813136488031e-02 7.257763301200e-02 0.0 
3.987212200919e-02 7.494919890942e-02 0.0 
4.063389870825e-02 8.512562008142e-02 0.0 
4.124572100768e-02 7.672660122231e-02 0.0 
4.156973257543e-02 8.620640854957e-02 0.0 
4.221331344199e-02 7.785552784801e-02 0.0 
4.209920091299e-02 8.662537050096e-02 0.0 
4.262522767502e-02 7.810378998713e-02 0.0 
4.242497018130e-02 6.973802270061e-02 0.0 
4.271463244535e-02 6.998725341724e-02 0.0 
4.244271200892e-02 7.752394748387e-02 0.0 
4.243924765223e-02 6.956500853364e-02 0.0 
4.173509541537e-02 7.633132778825e-02 0.0 
4.166816133000e-02 6.865155687936e-02 0.0 
4.179990675815e-02 6.240490042331e-02 0.0 
4.085408688236e-02 6.194229611101e-02 0.0 
4.045634267594e-02 6.739806028154e-02 0.0 
3.946441163901e-02 6.122634376221e-02 0.0 
3.884765596846e-02 6.591581779354e-02 0.0 
3.767564958469e-02 6.033557500823e-02 0.0 
3.689020723346e-02 6.428699603774e-02 0.0 
3.553041006250e-02 5.934738406133e-02 0.0 
3.472530620336e-02 5.659265327955e-02 0.0 
3.252266123242e-02 5.616148618397e-02 0.0 
3.309601829063e-02 5.834374803438e-02 0.0 
3.008313474452e-02 5.572675159928e-02 0.0 
2.870959530714e-02 5.403816010851e-02 0.0 
2.642611642549e-02 5.402735171579e-02 0.0 
2.497219383344e-02 5.219024897464e-02 0.0 
2.288153558593e-02 5.253435073704e-02 0.0 
2.401043480300e-02 5.403100942155e-02 0.0 
2.066407401926e-02 5.286845540860e-02 0.0 
1.963168335750e-02 5.104826438324e-02 0.0 
1.760316537867e-02 5.169505217822e-02 0.0 
1.836307624473e-02 5.323405486326e-02 0.0 
1.550590637903e-02 5.233110861299e-02 0.0 
1.481889229408e-02 5.047351732996e-02 0.0 
1.289999612013e-02 5.137680210824e-02 0.0 
1.338380932822e-02 5.299485918042e-02 0.0 
1.096477584230e-02 5.228252940758e-02 0.0 
1.053981883205e-02 5.033568505132e-02 0.0 
8.766282801771e-03 5.150371446837e-02 0.0 
9.061941230906e-03 5.324415964745e-02 0.0 
7.050103421860e-03 5.270704500542e-02 0.0 
6.789706178664e-03 5.062983665175e-02 0.0 
5.245596234118e-03 5.209760851979e-02 0.0 
5.038744344537e-03 4.966000004129e-02 0.0 
5.455566078010e-03 5.406363265783e-02 0.0 
3.858860803778e-03 5.369594002575e-02 0.0 
4.111996809754e-03 5.564034613128e-02 0.0 
2.741087216271e-03 5.550986756364e-02 0.0 
3.916038093888e-02 5.706967384609e-02 0.0 
3.145135999850e-03 5.748090713195e-02 0.0 
4.474742635826e-03 5.721622150227e-02 0.0 
1.992757624291e-03 5.759527164722e-02 0.0 
1.583065352701e-03 5.524177166843e-02 0.0 
2.576657127480e-03 5.960842889273e-02 0.0 
1.616932069461e-03 5.993293590923e-02 0.0 
2.373272940493e-03 6.196007744723e-02 0.0 
3.704999784915e-02 7.074402728582e-02 0.0 
3.832133840650e-02 6.439517252294e-02 0.0 
1.550213292115e-03 6.242772203264e-02 0.0 
2.425405032776e-03 6.439574552402e-02 0.0 
3.289289753811e-03 6.365357053526e-02 0.0 
3.463867602548e-03 6.600521749235e-02 0.0 
2.637467032126e-02 1.051557815600e-01 0.0 
2.541584898191e-02 9.020646939919e-02 0.0 
2.393503484354e-02 9.905420995149e-02 0.0 
2.262963947719e-02 8.366033794811e-02 0.0 
2.134213172656e-02 9.215435641592e-02 0.0 
2.609382879212e-03 6.676595752466e-02 0.0 
3.068170713558e-02 6.975602543355e-02 0.0 
2.360984288273e-02 7.498572928880e-02 0.0 
4.060294192809e-02 9.497734269898e-02 0.0 
4.139752726095e-02 8.467018791666e-02 0.0 
2.687253335126e-02 5.180735470123e-02 0.0 
8.447650046472e-04 6.006094213023e-02 0.0 
8.833602970014e-04 6.264784721805e-02 0.0 
2.942046847562e-04 5.992466185720e-02 0.0 
6.488760082365e-03 4.802160439051e-02 0.0 
4.827436304051e-03 4.669461413264e-02 0.0 
6.136017829902e-03 4.483384285357e-02 0.0 
4.594537561917e-03 4.315446643740e-02 0.0 
5.723440708191e-03 4.103035371086e-02 0.0 
4.327372809422e-03 3.900015660373e-02 0.0 
3.325760770558e-03 4.131844024820e-02 0.0 
3.195698986256e-03 3.681626563225e-02 0.0 
2.319688667368e-03 3.931525778985e-02 0.0 
5.243184949902e-03 3.657966196392e-02 0.0 
6.755820764517e-03 3.880654869695e-02 0.0 
2.301123844102e-03 3.448803039954e-02 0.0 
1.546982103676e-03 3.715172968907e-02 0.0 
1.613335919101e-03 3.202630428301e-02 0.0 
9.743097867826e-04 3.485006092005e-02 0.0 
7.966984586949e-04 3.976333950411e-02 0.0 
3.475692769361e-04 3.762416845468e-02 0.0 
1.270786236095e-04 4.237548409161e-02 0.0 
2.326336877364e-02 4.965764032821e-02 0.0 
2.476498816274e-02 4.883462017059e-02 0.0 
2.128674056299e-02 4.640852238396e-02 0.0 
2.235712889686e-02 4.510502255189e-02 0.0 
1.905652394674e-02 4.239775469949e-02 0.0 
1.967486252648e-02 4.057588592285e-02 0.0 
1.657068401345e-02 3.760132952037e-02 0.0 
1.605833255435e-02 3.970918316736e-02 0.0 
3.364544979361e-02 6.587942964371e-02 0.0 
3.044363027810e-02 5.739525147332e-02 0.0 
3.209278760426e-02 6.101665014531e-02 0.0 
2.939834285879e-02 5.949151729820e-02 0.0 
2.989457365046e-02 6.395348586378e-02 0.0 
2.718738936471e-02 6.190302022506e-02 0.0 
2.693916560455e-02 6.685902371838e-02 0.0 
2.420231482474e-02 6.437426681197e-02 0.0 
2.440608782380e-02 6.004928061936e-02 0.0 
2.145593288671e-02 6.210580046490e-02 0.0 
2.158084125151e-02 5.845172384775e-02 0.0 
1.874240355710e-02 6.010124334367e-02 0.0 
1.876093463120e-02 5.716568183243e-02 0.0 
4.213581080917e-02 6.206783768228e-02 0.0 
2.308331634434e-02 4.357692906533e-02 0.0 
1.990443232481e-02 3.846668727419e-02 0.0 
2.339279849500e-02 4.175998382991e-02 0.0 
4.359482200712e-03 6.503439776744e-02 0.0 
5.596388316285e-04 3.243283679531e-02 0.0 
6.021409504871e-03 3.401675905118e-02 0.0 
7.644813799639e-03 3.649160496284e-02 0.0 
1.375951644686e-02 3.463628846170e-02 0.0 
3.726161240816e-03 6.823172102407e-02 0.0 
2.340636487965e-02 6.964042915488e-02 0.0 
2.614830481381e-02 7.271102275569e-02 0.0 
1.974935660228e-02 7.636302833848e-02 0.0 
1.868578993767e-02 8.461247024528e-02 0.0 
6.618534882972e-03 3.129114713187e-02 0.0 
2.836067385542e-03 6.897329583712e-02 0.0 
2.992971088756e-03 3.171941844887e-02 0.0 
1.794423175000e-02 6.418410588941e-02 0.0 
4.538579243131e-05 3.536832479529e-02 0.0 
2.852831419391e-04 2.990706534840e-02 0.0 
2.302777766316e-03 4.356979179944e-02 0.0 
1.969145603082e-02 3.602323485070e-02 0.0 
2.329954249459e-02 3.968965771030e-02 0.0 
2.080511357098e-02 5.606509774986e-02 0.0 
1.793322478588e-02 5.542442097122e-02 0.0 
1.602517213431e-02 5.620854997660e-02 0.0 
1.519843561737e-02 5.498431646193e-02 0.0 
1.612310219015e-02 5.482968452438e-02 0.0 
1.350720257956e-02 5.503267087874e-02 0.0 
1.277768431313e-02 5.515905013786e-02 0.0 
1.128297003763e-02 5.556678893549e-02 0.0 
1.147712421815e-02 5.548690594904e-02 0.0 
9.545765952297e-03 5.633518135256e-02 0.0 
9.572225882909e-03 5.653692117453e-02 0.0 
8.156713427734e-03 5.759811166693e-02 0.0 
7.268186330523e-04 2.676682405157e-02 0.0 
1.535656606690e-02 6.185070701030e-02 0.0 
3.727621627857e-02 1.014933173053e-01 0.0 
5.168073517218e-03 2.853406051463e-02 0.0 
1.387705869877e-02 3.207973638492e-02 0.0 
1.683784827514e-02 6.849054062583e-02 0.0 
1.601502225273e-02 7.655368926314e-02 0.0 
1.740121039758e-02 9.277771538699e-02 0.0 
1.497607632337e-02 8.450857591537e-02 0.0 
1.338288630250e-02 6.807323883964e-02 0.0 
1.259401384232e-02 7.592049131085e-02 0.0 
1.379339225317e-02 9.232297069772e-02 0.0 
1.164402644383e-02 8.363857044369e-02 0.0 
1.252688618595e-02 9.994964225141e-02 0.0 
1.058491136607e-02 9.120428342130e-02 0.0 
9.571680311221e-03 7.472432269205e-02 0.0 
8.709288340748e-03 8.228738416735e-02 0.0 
9.456901836605e-03 9.863040684298e-02 0.0 
7.748050394425e-03 8.973041475300e-02 0.0 
8.285144224124e-03 1.059103939161e-01 0.0 
6.712073206389e-03 9.705393093986e-02 0.0 
6.133492662577e-03 8.070712100348e-02 0.0 
3.948827668040e-03 7.017205872657e-02 0.0 
1.335514273494e-02 3.703728591563e-02 0.0 
1.124404963980e-02 3.167523290182e-02 0.0 
4.049535909294e-04 6.250623270944e-02 0.0 
-4.670177856403e-05 5.945748921354e-02 0.0 
-1.259843524839e-04 5.677415812497e-02 0.0 
-3.336013934852e-04 5.596821142383e-02 0.0 
5.205441319662e-03 8.816278058781e-02 0.0 
4.643732025993e-03 7.159701848965e-02 0.0 
2.226952582699e-02 7.563832049949e-02 0.0 
2.502014023345e-02 7.928927496215e-02 0.0 
1.737603761531e-02 6.036370363354e-02 0.0 
-1.208290796703e-04 3.299591453722e-02 0.0 
-3.544294048354e-04 3.831771213356e-02 0.0 
4.028936218178e-02 8.271326434969e-02 0.0 
3.958882518541e-02 9.138329393980e-02 0.0 
3.812301345551e-02 8.873470606237e-02 0.0 
3.700118498678e-02 9.780498034718e-02 0.0 
3.846672290810e-02 1.006872809828e-01 0.0 
3.520541572915e-02 9.445367716681e-02 0.0 
8.556648204866e-03 4.097647435787e-02 0.0 
7.619923566513e-03 6.564701429284e-02 0.0 
4.225618234965e-03 6.273479652289e-02 0.0 
5.282664166327e-03 6.390336232444e-02 0.0 
1.009546297964e-04 2.730798967582e-02 0.0 
1.524392828774e-02 4.161856780683e-02 0.0 
4.140851454561e-02 6.095254285582e-02 0.0 
3.926564918738e-02 5.462871411596e-02 0.0 
3.808970510346e-02 5.263009815316e-02 0.0 
3.412830577894e-02 4.769279301553e-02 0.0 
3.242946507986e-02 4.487055265179e-02 0.0 
2.814095092269e-02 4.027860287641e-02 0.0 
2.978619514123e-02 4.325536943026e-02 0.0 
1.898285333870e-02 3.316253976832e-02 0.0 
2.405747434030e-02 3.573604970608e-02 0.0 
5.709685015226e-03 1.044153290499e-01 0.0 
2.681338323456e-02 4.667296807842e-02 0.0 
9.465160036921e-03 5.600808881957e-02 0.0 
4.902126302758e-03 6.922463384596e-02 0.0 
8.545857921024e-03 5.799429064305e-02 0.0 
3.034750749214e-03 7.093764056584e-02 0.0 
2.026204801694e-03 6.942990446145e-02 0.0 
5.452545864489e-03 2.539578264381e-02 0.0 
2.591813639308e-02 3.664925426382e-02 0.0 
3.016860536999e-02 4.142982538577e-02 0.0 
3.603507218322e-02 1.073388278107e-01 0.0 
3.732931986091e-02 1.103557656678e-01 0.0 
1.568492482332e-02 2.939330917873e-02 0.0 
2.215417741738e-02 1.079036439710e-01 0.0 
1.449092354907e-02 1.084757759206e-01 0.0 
1.299715309425e-02 1.159528195243e-01 0.0 
4.309127656502e-03 7.189037484592e-02 0.0 
9.582138176357e-03 5.681492737679e-02 0.0 
1.085207900958e-02 5.928909356097e-02 0.0 
2.880795968588e-02 7.599203141270e-02 0.0 
2.772972616780e-02 8.312295907753e-02 0.0 
1.408788959583e-02 6.614284621432e-02 0.0 
1.174577100942e-02 6.350175579646e-02 0.0 
3.877064872968e-03 7.893321991404e-02 0.0 
3.343058090063e-03 6.237755816836e-02 0.0 
-3.512748048236e-04 5.318576509003e-02 0.0 
-4.981861718153e-04 5.203667891082e-02 0.0 
6.993561653477e-03 2.834823124636e-02 0.0 
7.347683334006e-03 5.921762450501e-02 0.0 
3.868388839955e-03 5.477704760660e-02 0.0 
1.265540424395e-02 3.920908754478e-02 0.0 
1.417555041376e-02 4.335921721879e-02 0.0 
-1.912316884527e-04 5.873626664991e-02 0.0 
2.112171946851e-02 8.206061240807e-02 0.0 
1.825092757721e-02 7.814667724699e-02 0.0 
1.150212384840e-02 5.523586915586e-02 0.0 
6.758628945960e-03 5.861880895275e-02 0.0 
2.116897179595e-03 7.123462758851e-02 0.0 
5.473782382352e-03 2.200458982324e-02 0.0 
1.116852559484e-02 5.143811726246e-02 0.0 
2.572483959340e-02 3.897345481203e-02 0.0 
3.088539353457e-02 4.569342579521e-02 0.0 
2.019868006364e-02 3.136778760604e-02 0.0 
8.010061194152e-03 5.968384789267e-02 0.0 
4.164451365279e-03 2.234513317758e-02 0.0 
-2.065631777517e-04 3.055299807541e-02 0.0 
2.350914220534e-02 3.287223759028e-02 0.0 
2.742249348398e-02 3.744195829543e-02 0.0 
3.134526757018e-02 7.938540686589e-02 0.0 
3.039568261322e-02 8.704084642114e-02 0.0 
2.689574895924e-02 9.068725994721e-02 0.0 
2.964066846921e-02 9.512672255274e-02 0.0 
3.423053030661e-02 1.086416245099e-01 0.0 
3.376825474377e-02 8.275200665414e-02 0.0 
3.847503051072e-02 1.031569727326e-01 0.0 
3.689006651579e-02 1.127134498014e-01 0.0 
3.769945456672e-02 1.136995742387e-01 0.0 
3.943147488322e-02 1.029397243988e-01 0.0 
3.801917879489e-02 1.123645458875e-01 0.0 
3.246651344422e-02 6.619604964882e-02 0.0 
2.853302039737e-02 5.133580859896e-02 0.0 
1.851296542622e-05 5.410860565402e-02 0.0 
6.185134779759e-04 4.418440923336e-02 0.0 
7.943162039280e-03 4.637793595607e-02 0.0 
8.142387513936e-03 5.797898734936e-02 0.0 
6.165328482628e-03 4.875038545627e-02 0.0 
9.907272341942e-03 1.146368022489e-01 0.0 
8.593939640443e-03 1.217328930229e-01 0.0 
5.582029046367e-03 6.610949516260e-02 0.0 
6.496593834818e-03 6.480366332803e-02 0.0 
3.537223088627e-03 4.855463194046e-02 0.0 
3.969249412378e-03 2.568280890726e-02 0.0 
1.424181690316e-02 5.218090759958e-02 0.0 
1.418465295431e-02 4.418942829181e-02 0.0 
1.757144577150e-02 5.220357700239e-02 0.0 
7.094917460626e-03 2.515662138717e-02 0.0 
2.766067825420e-02 5.656582076566e-02 0.0 
1.994676130206e-02 4.755854661093e-02 0.0 
1.297130533611e-02 5.995245139176e-02 0.0 
3.976672059910e-02 5.674739583983e-02 0.0 
6.882672816249e-03 6.687469101421e-02 0.0 
3.614646766549e-02 6.142101743751e-02 0.0 
-1.244142620053e-05 2.464105998094e-02 0.0 
2.570736700971e-04 2.121192265704e-02 0.0 
1.447387330044e-02 2.589601777750e-02 0.0 
3.119668076046e-02 1.310529421457e-01 0.0 
3.564070860997e-02 5.254455963752e-02 0.0 
3.506436253264e-02 5.328571221139e-02 0.0 
3.583346970007e-02 1.235120272279e-01 0.0 
3.646374949198e-02 1.237414214836e-01 0.0 
3.814401451738e-02 1.140124791789e-01 0.0 
3.681740478492e-02 1.233548221825e-01 0.0 
9.375761383411e-03 5.542002559227e-02 0.0 
7.628136250876e-03 5.645584819128e-02 0.0 
1.894266346713e-02 2.734351060249e-02 0.0 
1.818670041657e-02 2.763160599150e-02 0.0 
2.046626246699e-02 2.841236867926e-02 0.0 
2.416914643916e-02 3.286833330405e-02 0.0 
1.143892336527e-02 2.188662535238e-02 0.0 
1.268829019117e-02 2.563930553238e-02 0.0 
1.317470165608e-03 6.950157742924e-02 0.0 
3.645209809994e-02 1.197916632811e-01 0.0 
8.539946137566e-03 4.244642062190e-02 0.0 
3.494460490669e-02 1.226380586736e-01 0.0 
3.118282599087e-03 1.939713108746e-02 0.0 
2.991975763303e-03 2.274771071423e-02 0.0 
9.812969442493e-03 6.134851414540e-02 0.0 
1.098847505605e-02 5.827396704338e-02 0.0 
2.647534431864e-03 4.578942115600e-02 0.0 
2.596434622450e-02 9.879333986381e-02 0.0 
2.883515870399e-02 1.036890248097e-01 0.0 
2.288516755919e-02 9.386347605569e-02 0.0 
6.723373639727e-05 1.095555661572e-02 0.0 
2.309157970882e-03 1.505200613091e-01 0.0 
1.585426949487e-04 1.831835237952e-02 0.0 
3.983611822780e-02 1.041450961667e-01 0.0 
2.877696909864e-03 3.740602795885e-02 0.0 
3.137884277740e-02 4.893698836907e-02 0.0 
3.873205707332e-02 8.045901534675e-02 0.0 
8.816136224123e-03 3.122664761171e-02 0.0 
2.138435525261e-03 5.483335808147e-02 0.0 
1.592974574002e-03 3.600196035275e-02 0.0 
1.471577475502e-02 1.240468977066e-01 0.0 
1.313708941288e-02 1.315861796265e-01 0.0 
1.643153885814e-02 1.167046164937e-01 0.0 
1.674515084062e-02 6.909290120947e-02 0.0 
1.214980929299e-02 7.175620410751e-02 0.0 
5.830244455124e-03 5.643708065795e-02 0.0 
1.010689872037e-03 6.512269520523e-02 0.0 
4.472690654342e-04 6.477645661195e-02 0.0 
6.223008728363e-03 6.047902853556e-02 0.0 
5.488603047831e-03 5.959537622337e-02 0.0 
-8.855802594481e-05 5.054652818407e-02 0.0 
4.923489861270e-04 5.163639389914e-02 0.0 
3.597726488393e-02 5.343405657965e-02 0.0 
3.335143087126e-02 4.992243409801e-02 0.0 
4.008305398515e-02 5.913759501248e-02 0.0 
1.171067148062e-02 4.120607111621e-02 0.0 
1.290540014072e-02 4.496873861021e-02 0.0 
1.552002647148e-02 4.679537300260e-02 0.0 
6.352728051138e-03 4.154710295707e-02 0.0 
4.244668163725e-03 3.077802824537e-02 0.0 
1.145921954560e-02 5.465972900696e-02 0.0 
1.385398343564e-02 5.472894530843e-02 0.0 
7.454293793284e-03 5.555119549305e-02 0.0 
8.358850068850e-03 3.491643923149e-02 0.0 
3.421257035975e-04 1.484693082880e-02 0.0 
5.088056398571e-04 1.792389370966e-02 0.0 
7.769895390981e-03 6.541549786603e-02 0.0 
7.393912426651e-03 6.331711830859e-02 0.0 
1.659876908205e-02 8.461639631471e-02 0.0 
1.364434123090e-02 8.054146499419e-02 0.0 
1.391926280354e-02 3.683027891908e-02 0.0 
1.742365192580e-02 4.421534731812e-02 0.0 
1.014824813847e-02 2.791554154970e-02 0.0 
1.287375199982e-03 7.127368417130e-02 0.0 
2.679453835055e-02 4.154485756050e-02 0.0 
5.366850701002e-03 1.872019761416e-02 0.0 
7.083688588186e-03 2.208611107926e-02 0.0 
3.695745481694e-03 1.446913471758e-02 0.0 
1.795415293213e-02 3.018768715548e-02 0.0 
1.293863936169e-02 2.236293637126e-02 0.0 
1.435136303884e-02 2.287956314649e-02 0.0 
8.253061709763e-03 6.472923990263e-02 0.0 
1.191551612312e-03 4.307649721482e-02 0.0 
1.011133999790e-02 1.302833738088e-01 0.0 
7.166525842606e-03 6.268641794949e-02 0.0 
8.705308247271e-03 1.377165217912e-01 0.0 
7.327396102785e-03 1.288041039634e-01 0.0 
7.522717923270e-03 1.449538072349e-01 0.0 
1.835498079848e-03 7.248134319136e-02 0.0 
1.641013270620e-02 1.346446806751e-01 0.0 
1.841955350167e-02 1.251710792320e-01 0.0 
8.834888053187e-03 6.384881952049e-02 0.0 
5.687414979345e-03 2.595002423227e-02 0.0 
8.159287610431e-03 6.718639700520e-02 0.0 
7.256231018327e-03 6.856172420103e-02 0.0 
2.272152298268e-03 1.611845574609e-02 0.0 
2.221986505907e-03 1.969785254347e-02 0.0 
1.594915251162e-03 1.293599456647e-02 0.0 
1.633880929872e-03 1.695946588740e-02 0.0 
1.984413852492e-03 2.319818652349e-02 0.0 
1.437036575470e-03 2.024764283358e-02 0.0 
1.170240088473e-02 1.399748461251e-01 0.0 
1.100332530166e-03 1.284773475113e-02 0.0 
1.021602231433e-03 1.708348644985e-02 0.0 
7.166418321792e-04 9.808234812147e-03 0.0 
3.584769200521e-02 1.333624206193e-01 0.0 
3.193894919819e-02 9.955285485171e-02 0.0 
3.129456201230e-02 1.087170227061e-01 0.0 
2.673951494735e-02 1.138291621878e-01 0.0 
1.539712450847e-02 2.127000275205e-02 0.0 
2.091036100257e-02 2.838256396061e-02 0.0 
-2.079121353896e-04 2.789395635388e-02 0.0 
-3.449625754388e-04 3.371235752302e-02 0.0 
6.040694760326e-03 1.369023369858e-01 0.0 
4.426066753594e-03 1.374711912905e-01 0.0 
4.847213169977e-03 1.234450091090e-01 0.0 
3.500844783882e-03 1.251147112273e-01 0.0 
3.785681167330e-03 1.110692754624e-01 0.0 
2.435569034481e-03 1.128377411020e-01 0.0 
2.902602462672e-03 9.852102248448e-02 0.0 
1.192496157716e-02 1.848263949191e-02 0.0 
2.042005819558e-02 1.020954998226e-01 0.0 
3.419138808592e-02 1.337987032263e-01 0.0 
8.635043616763e-03 1.791635336986e-02 0.0 
1.029356619582e-02 2.259456725307e-02 0.0 
3.687879014741e-02 1.218559441361e-01 0.0 
3.556565558008e-02 1.296618975631e-01 0.0 
2.819103933698e-03 1.463884595936e-02 0.0 
3.444784329007e-02 7.531592333872e-02 0.0 
4.484790879958e-03 1.632299874882e-02 0.0 
2.383456719164e-03 7.521985560218e-02 0.0 
7.085496876001e-03 7.239011731480e-02 0.0 
3.664229685177e-02 7.809383518400e-02 0.0 
3.825088219055e-02 1.135844498396e-01 0.0 
3.413691513112e-02 1.036998499910e-01 0.0 
3.374835411038e-02 1.132472663691e-01 0.0 
1.036146486220e-02 3.668491409577e-02 0.0 
8.278451428567e-03 6.174006823349e-02 0.0 
1.973880397384e-02 8.909794662071e-02 0.0 
4.234726756391e-03 9.694794187487e-02 0.0 
1.428764102163e-02 9.155576990586e-02 0.0 
-1.970776272516e-04 3.062213575706e-02 0.0 
3.485512573264e-02 6.850106388654e-02 0.0 
4.117839002217e-02 9.500511146743e-02 0.0 
2.405612511889e-02 8.624553758243e-02 0.0 
3.304280992456e-02 9.087132588926e-02 0.0 
3.576161724554e-02 9.913716277553e-02 0.0 
3.232713570462e-02 1.183800164635e-01 0.0 
3.364557851575e-02 1.210941819166e-01 0.0 
3.460653268478e-02 6.267781499115e-02 0.0 
3.545803933302e-02 1.170283354681e-01 0.0 
3.262820327712e-02 1.239008713055e-01 0.0 
3.972498265982e-02 9.395670088418e-02 0.0 
2.094472110642e-02 5.965505341750e-02 0.0 
2.097060808067e-02 5.137021366613e-02 0.0 
1.699883495320e-02 3.676013721123e-02 0.0 
2.061994115790e-02 4.336444684928e-02 0.0 
2.442583166571e-02 5.798210696034e-02 0.0 
2.425781555168e-02 4.973561348944e-02 0.0 
1.991010550276e-02 3.568837404310e-02 0.0 
2.375998522001e-02 4.176422285608e-02 0.0 
1.755662132790e-02 2.549615771917e-02 0.0 
2.276154103308e-02 3.364253651293e-02 0.0 
2.737243308350e-02 4.751045173495e-02 0.0 
2.678848683347e-02 3.986444418134e-02 0.0 
2.080308909766e-02 2.855668410132e-02 0.0 
3.078830163582e-02 5.340075581837e-02 0.0 
7.014163024813e-03 1.378933522075e-02 0.0 
3.898689204414e-02 7.283852887055e-02 0.0 
1.013034831090e-02 6.779683861614e-02 0.0 
9.115734370683e-03 7.637061542842e-02 0.0 
4.110419966934e-02 9.535859538428e-02 0.0 
8.885079883570e-03 1.245770973898e-02 0.0 
7.957085807868e-03 1.314696503317e-02 0.0 
2.957854532831e-02 6.956451624734e-02 0.0 
7.211016005439e-03 1.023358106927e-02 0.0 
3.567541070960e-02 1.111313343457e-01 0.0 
2.063347101094e-02 6.682783976009e-02 0.0 
6.547408526559e-03 9.801765434978e-03 0.0 
2.421634061229e-02 6.638441320759e-02 0.0 
2.731480115092e-02 7.274518020327e-02 0.0 
2.654929642652e-02 8.145114917913e-02 0.0 
6.043393001864e-03 1.296895479232e-02 0.0 
1.817367464392e-02 1.089218491283e-01 0.0 
4.737873695573e-03 8.356948301966e-03 0.0 
2.596852622845e-02 4.785372077170e-02 0.0 
2.988930303420e-02 5.075675507336e-02 0.0 
3.260331180520e-02 5.395989169028e-02 0.0 
2.770895662904e-02 5.590681402878e-02 0.0 
3.436564626665e-03 8.033070053681e-03 0.0 
6.130545467257e-03 1.499757996344e-02 0.0 
5.435551048520e-03 1.470916962057e-02 0.0 
8.476137368025e-03 2.175466701817e-02 0.0 
2.704178861344e-03 7.708585927535e-03 0.0 
7.832683494017e-03 1.059702279219e-02 0.0 
7.186349067616e-03 9.827766630717e-03 0.0 
1.381643574171e-02 5.498521547832e-02 0.0 
1.643984589524e-02 5.473639013003e-02 0.0 
1.637401314594e-02 5.439930025329e-02 0.0 
1.920555147381e-02 5.469976175260e-02 0.0 
1.896470164953e-02 5.499317048323e-02 0.0 
2.186085330804e-02 5.532543034090e-02 0.0 
2.200221521767e-02 5.479424407799e-02 0.0 
2.370479776294e-02 5.697638934157e-02 0.0 
2.818333470995e-02 3.868265418676e-02 0.0 
1.991361616143e-03 7.152292514752e-03 0.0 
7.395977004166e-03 4.292581203717e-02 0.0 
9.339325804790e-03 4.473893387238e-02 0.0 
9.997924282786e-03 4.783922093564e-02 0.0 
6.741471409381e-04 5.477469441865e-02 0.0 
1.358319207284e-03 5.250826585529e-02 0.0 
1.285277663048e-03 4.937061416128e-02 0.0 
3.423886753625e-04 5.728242534129e-02 0.0 
3.524004670095e-02 4.987960694486e-02 0.0 
1.729103554822e-03 7.086113824775e-03 0.0 
1.692546947119e-02 4.546037867504e-02 0.0 
2.483335816774e-03 5.319194845602e-02 0.0 
2.072066282152e-02 1.470205221716e-01 0.0 
2.282504405291e-02 1.330111819742e-01 0.0 
2.524722281908e-02 1.301303712881e-01 0.0 
2.448531942246e-02 1.165918525737e-01 0.0 
2.034541685696e-02 1.332288675724e-01 0.0 
-4.199001559290e-04 4.923424090042e-02 0.0 
-5.558968734151e-04 4.774927046633e-02 0.0 
-4.773353522822e-04 5.068448927227e-02 0.0 
-5.335555329226e-04 4.611098613842e-02 0.0 
-3.850695116337e-04 4.909446655304e-02 0.0 
-3.301712112708e-04 5.343375014384e-02 0.0 
-4.030346114055e-04 4.430048531892e-02 0.0 
-2.430045303461e-04 4.781362802641e-02 0.0 
1.687190466708e-02 1.495132740088e-01 0.0 
7.772292074422e-03 5.809330828471e-02 0.0 
9.186733862794e-03 5.710240546261e-02 0.0 
9.361315033005e-03 5.721248724916e-02 0.0 
1.002160282763e-02 5.636986327769e-02 0.0 
1.045474700150e-02 5.664121932687e-02 0.0 
1.154047154202e-02 5.553846485727e-02 0.0 
1.225778250089e-02 5.641333873614e-02 0.0 
8.908359886746e-03 5.809705425591e-02 0.0 
9.392241020823e-03 5.809188473078e-02 0.0 
9.419798984544e-03 5.817300984864e-02 0.0 
9.895451711611e-03 5.933648804974e-02 0.0 
9.377600749149e-03 5.982216598269e-02 0.0 
8.933212673194e-03 5.838007428872e-02 0.0 
6.175662523677e-03 6.259338660942e-02 0.0 
2.899042078063e-04 7.484075151168e-03 0.0 
-6.506355819423e-05 5.984834372670e-02 0.0 
-5.021249316731e-05 6.143563606132e-02 0.0 
1.228914998946e-04 6.467292637753e-02 0.0 
3.452551630157e-05 6.247303370783e-02 0.0 
-1.675920719615e-04 5.804659545257e-02 0.0 
1.339460059791e-04 6.659071698781e-02 0.0 
3.711327000268e-04 6.727642282071e-02 0.0 
4.193560860788e-03 7.188886003733e-02 0.0 
3.003287596969e-03 7.290444398870e-02 0.0 
1.413920534379e-03 7.302036905671e-02 0.0 
2.093493803087e-03 7.334066995203e-02 0.0 
3.391363300332e-03 7.299961252050e-02 0.0 
4.565112614134e-03 7.239050396657e-02 0.0 
5.976976074244e-03 7.180918096894e-02 0.0 
7.240857194279e-03 7.095646625804e-02 0.0 
7.258204898178e-03 7.117896447948e-02 0.0 
5.831435927400e-03 7.165411699429e-02 0.0 
8.767582648096e-03 7.042102416393e-02 0.0 
9.401372140050e-04 7.714107534713e-02 0.0 
1.798429759865e-03 6.892743166783e-02 0.0 
1.340503917472e-03 7.316563794802e-03 0.0 
1.331311817226e-02 1.491657068056e-01 0.0 
1.021217563496e-02 6.306494676716e-02 0.0 
1.519857781059e-03 1.801969452422e-02 0.0 
2.440308353516e-03 1.483620958390e-02 0.0 
1.930628132125e-03 1.442263079720e-02 0.0 
1.840026340462e-05 1.791190424023e-02 0.0 
1.245096083313e-04 1.475105564163e-02 0.0 
8.118300808667e-04 1.754614894214e-02 0.0 
3.318015626765e-03 6.132588942926e-02 0.0 
1.622466170460e-02 2.960051637970e-02 0.0 
4.235468592023e-03 4.708717389029e-02 0.0 
1.949885024716e-02 7.221721223179e-02 0.0 
6.312567142622e-03 5.783217772427e-02 0.0 
-3.939238035635e-04 3.607084588731e-02 0.0 
1.436389123483e-03 4.174153463057e-02 0.0 
4.563442897628e-04 2.406427247778e-02 0.0 
-1.834320018672e-04 4.040345028717e-02 0.0 
1.097195451433e-03 2.944694089829e-02 0.0 
4.859403968837e-03 1.488534698203e-02 0.0 
2.965913437755e-03 7.229239246595e-02 0.0 
1.122129862919e-02 1.073807380958e-01 0.0 
7.149929768726e-03 1.131258156115e-01 0.0 
6.940329100953e-03 7.322909645596e-02 0.0 
1.652020219405e-03 6.491105219376e-02 0.0 
-3.815899353064e-04 5.467026651192e-02 0.0 
4.637331565692e-03 6.725455963055e-02 0.0 
1.272963414842e-02 1.843498998374e-02 0.0 
3.929489727659e-02 1.042308449614e-01 0.0 
8.398250199817e-03 4.922848298126e-02 0.0 
1.045601378985e-03 5.754778415267e-02 0.0 
3.682179990763e-03 5.913475381026e-02 0.0 
7.854710100232e-03 5.712472640601e-02 0.0 
4.057188741295e-02 7.471985531006e-02 0.0 
3.671628635437e-03 5.135871533527e-02 0.0 
3.997725578113e-03 3.421743628551e-02 0.0 
5.314066472138e-03 6.405856851624e-02 0.0 
9.654973319484e-03 6.719997663980e-02 0.0 
4.670864647077e-03 3.146702102891e-02 0.0 
3.429905089049e-03 4.521975629150e-02 0.0 
1.598098342051e-02 1.007626916065e-01 0.0 
1.672968872418e-02 3.523221287013e-02 0.0 
1.080109594379e-02 5.571038756359e-02 0.0 
1.030509307520e-02 6.707841429175e-02 0.0 
1.104419584673e-02 3.670866724354e-02 0.0 
2.025543146734e-02 1.166018836034e-01 0.0 
5.937472413955e-03 6.817141600974e-02 0.0 
1.156255160774e-02 1.234369778775e-01 0.0 
4.110167068487e-03 1.876215348052e-02 0.0 
2.051912414389e-02 6.798953786317e-02 0.0 
1.829794240615e-03 6.726934076560e-02 0.0 
2.154025604755e-02 5.038325679462e-02 0.0 
4.203527981274e-02 8.603168094210e-02 0.0 
3.099858250140e-02 1.435876329186e-01 0.0 
4.439546220252e-03 3.997432432117e-02 0.0 
3.810955322969e-02 5.713791328957e-02 0.0 
1.125478106378e-02 2.875196976148e-02 0.0 
1.811831677248e-02 4.400611380325e-02 0.0 
1.173416466522e-03 6.738768691811e-02 0.0 
2.677775391106e-03 2.602095635110e-02 0.0 
3.078081735514e-02 5.402532169595e-02 0.0 
8.482766370653e-03 5.034525170269e-02 0.0 
3.632894462466e-02 4.996430879935e-02 0.0 
2.748480365291e-02 5.533814426912e-02 0.0 
1.395285613467e-02 6.015436014361e-02 0.0 
1.228727823325e-02 4.919829069249e-02 0.0 
1.643840512021e-02 3.249577362575e-02 0.0 
3.976802455224e-02 1.044987574869e-01 0.0 
4.154157693196e-02 6.869393270579e-02 0.0 
3.606267785907e-02 6.965770823610e-02 0.0 
4.224779518765e-02 6.249407342485e-02 0.0 
-3.814391463234e-04 3.929224924353e-02 0.0 
3.565829429342e-03 2.880056211206e-02 0.0 
1.614061039678e-02 5.849804686655e-02 0.0 
3.618240731015e-02 8.585193200470e-02 0.0 
1.981258499238e-02 1.005995018547e-01 0.0 
2.206627171846e-02 3.227657793757e-02 0.0 
6.127628940709e-03 3.329050411131e-02 0.0 
4.064633616788e-02 9.355702987949e-02 0.0 
2.200245098383e-03 2.911361498009e-02 0.0 
1.126417911683e-02 4.406971502648e-02 0.0 
2.348436315755e-03 5.046122598108e-02 0.0 
8.569846643160e-04 7.266082988357e-02 0.0 
1.546157641078e-02 7.451047569194e-02 0.0 
2.658955211807e-02 5.813447905063e-02 0.0 
3.661502867279e-02 5.695106307803e-02 0.0 
2.299051536905e-03 4.727353724719e-02 0.0 
1.274426201291e-02 2.745652504428e-02 0.0 
1.588622155135e-03 2.640074831037e-02 0.0 
8.335546785180e-03 3.396682683009e-02 0.0 
6.363299365585e-03 8.813082449542e-02 0.0 
3.283599510484e-02 1.326024614236e-01 0.0 
1.128509651093e-03 2.359050900912e-02 0.0 
1.839539788021e-02 4.859709790485e-02 0.0 
1.353715220061e-02 2.909618639650e-02 0.0 
-2.292699400895e-04 5.197877935530e-02 0.0 
1.218533536241e-02 1.824637268983e-02 0.0 
3.606988993749e-02 1.314933696725e-01 0.0 
7.903570355674e-04 2.069432104631e-02 0.0 
1.094641480272e-02 3.427182034269e-02 0.0 
3.211595925202e-02 7.238387264873e-02 0.0 
3.810133335980e-03 1.505538621201e-01 0.0 
6.631857857925e-04 1.306215395518e-02 0.0 
8.982967601789e-03 2.825038034289e-02 0.0 
3.982280654485e-02 5.597552159669e-02 0.0 
1.665762747535e-02 4.955654426616e-02 0.0 
3.426078111664e-02 1.449357731951e-01 0.0 
1.330887282738e-03 4.580742355447e-02 0.0 
4.014412449395e-02 6.688781437101e-02 0.0 
5.097760793141e-03 1.294538108266e-02 0.0 
9.028300348010e-03 2.554202052417e-02 0.0 
2.929075072404e-02 8.747537698124e-02 0.0 
4.986550491378e-04 4.811202102479e-02 0.0 
2.732160190000e-02 4.536049082108e-02 0.0 
4.690764162598e-03 7.237724314009e-02 0.0 
3.520251333174e-02 1.339098901178e-01 0.0 
-3.291453592733e-05 4.663555666888e-02 0.0 
2.478207103235e-02 5.586643021875e-02 0.0 
1.395715024558e-02 4.802857837960e-02 0.0 
9.972280963782e-03 1.819175374274e-02 0.0 
-3.518125185923e-04 4.497976049045e-02 0.0 
2.476896860561e-02 5.501386722266e-02 0.0 
-5.011471319516e-04 4.318392514253e-02 0.0 
3.489600387019e-02 1.428708731087e-01 0.0 
3.015296677230e-02 7.831532648026e-02 0.0 
-5.194542928124e-04 4.127836132718e-02 0.0 
3.824593051792e-02 5.655910863698e-02 0.0 
6.314784001377e-03 7.009783970300e-02 0.0 
3.575045501746e-02 5.149627252618e-02 0.0 
-1.625328454966e-05 2.144000441535e-02 0.0 
5.684831765961e-03 5.563502535209e-02 0.0 
1.153526426058e-02 4.645909439370e-02 0.0 
2.768473416174e-02 6.418365514238e-02 0.0 
3.279058329727e-02 1.391051348519e-01 0.0 
1.061870000727e-02 4.304353734954e-02 0.0 
3.407650184575e-02 4.672720970708e-02 0.0 
3.143149200557e-02 4.756285460313e-02 0.0 
3.405291412117e-02 5.373809371410e-02 0.0 
9.546824036021e-03 3.888933269767e-02 0.0 
3.457949315576e-02 1.267571961133e-01 0.0 
4.358542363012e-03 6.060267298185e-02 0.0 
5.186947045070e-03 6.166974501454e-02 0.0 
2.149568108651e-02 5.407864972117e-02 0.0 
3.132870964619e-02 4.292372087460e-02 0.0 
2.558206724060e-03 7.303722735542e-02 0.0 
3.085270427847e-02 6.126537012877e-02 0.0 
7.112986678292e-03 6.116330244952e-02 0.0 
1.894403990627e-02 5.419733848286e-02 0.0 
2.258857578492e-02 3.704152340361e-02 0.0 
1.105874272915e-03 1.088306078173e-01 0.0 
1.604265018405e-02 5.362366350357e-02 0.0 
5.674668061037e-04 7.128654125964e-02 0.0 
1.372825806415e-02 5.409023917753e-02 0.0 
3.082045333872e-02 4.995344063278e-02 0.0 
1.129202918868e-02 5.369315573573e-02 0.0 
9.271068873610e-03 5.451903535558e-02 0.0 
2.973222201569e-03 3.062297959666e-02 0.0 
7.272448222859e-03 5.431509031969e-02 0.0 
4.003809618542e-04 1.454124885779e-02 0.0 
1.207446976519e-04 6.709680898269e-03 0.0 
1.436117228587e-03 1.392401307468e-01 0.0 
2.785538752614e-02 1.339816807566e-01 0.0 
4.404332896201e-03 6.575657740399e-02 0.0 
3.059325927662e-02 1.173288234845e-01 0.0 
5.982171253972e-03 5.684783413526e-02 0.0 
3.366941528750e-02 5.784029998198e-02 0.0 
2.984239827135e-03 1.385796589982e-01 0.0 
4.920785769992e-03 5.852522973093e-02 0.0 
1.566075376815e-02 2.136279464386e-02 0.0 
5.412863654918e-03 8.695331175247e-03 0.0 
2.016274006370e-03 8.441689381241e-02 0.0 
1.108598962456e-02 2.604783313849e-02 0.0 
2.723280436714e-02 4.353821401174e-02 0.0 
5.894224210706e-04 4.477364545707e-02 0.0 
8.706069279835e-03 1.518684634348e-01 0.0 
9.287155598517e-03 6.176520701870e-02 0.0 
-2.088141259461e-04 3.652041658341e-02 0.0 
2.178917075552e-02 1.238459290546e-01 0.0 
2.341202429608e-02 1.077108857759e-01 0.0 
1.708610051078e-02 9.676295094573e-02 0.0 
6.918068730002e-04 6.739481011218e-02 0.0 
9.564901455209e-03 5.706042525482e-02 0.0 
1.693529758902e-02 1.112885864320e-01 0.0 
6.983503891017e-03 1.574841048653e-02 0.0 
1.455623976948e-02 1.381588177077e-01 0.0 
2.197244941191e-02 3.484322336200e-02 0.0 
1.121434042835e-02 9.932212739233e-02 0.0 
8.043666472202e-03 2.853451314853e-02 0.0 
1.039093150727e-02 1.744315080683e-02 0.0 
8.190870442479e-04 6.298982464243e-03 0.0 
1.637740753243e-02 2.674055805781e-02 0.0 
1.136191485089e-02 8.657553260922e-02 0.0 
2.211973774825e-02 1.216702909272e-01 0.0 
1.325439018192e-02 1.873501998989e-02 0.0 
2.753215414667e-03 7.130377058002e-02 0.0 
5.484173614219e-04 5.923802769496e-03 0.0 
1.821146616315e-02 1.383668838692e-01 0.0 
1.780475360192e-03 2.861439139297e-02 0.0 
1.382298158964e-02 5.734074862969e-02 0.0 
8.944717125964e-04 2.778925637154e-02 0.0 
3.027417154279e-02 4.538123266127e-02 0.0 
6.112833448753e-03 1.202328676006e-01 0.0 
2.672766114896e-02 1.177536931847e-01 0.0 
2.328101622150e-04 1.167077795842e-02 0.0 
1.504221155601e-02 2.330896841101e-02 0.0 
8.768726332969e-03 8.135303306664e-02 0.0 
3.165409837912e-03 8.608705390854e-02 0.0 
8.883605934791e-05 6.172110189657e-02 0.0 
8.079944634420e-03 6.021381453137e-02 0.0 
2.195435183484e-03 1.321724740676e-02 0.0 
2.468578819183e-02 3.385025693714e-02 0.0 
4.552446095247e-04 1.207814305900e-02 0.0 
9.343781974459e-04 7.344137024630e-02 0.0 
8.929041138589e-03 6.582561447792e-02 0.0 
2.813061409258e-03 1.253829632674e-02 0.0 
1.365890270975e-02 1.865871960987e-02 0.0 
1.375522218295e-02 5.538778781546e-02 0.0 
2.744602112181e-03 1.144640358421e-02 0.0 
5.438659360539e-03 7.772347277010e-02 0.0 
1.171569376705e-02 1.534041117076e-01 0.0 
7.939611030501e-03 6.988372631617e-02 0.0 
3.765701398226e-04 5.927502532127e-03 0.0 
4.518170212498e-03 2.716786989703e-02 0.0 
-1.511028477875e-04 5.944002143927e-02 0.0 
2.531120259033e-02 1.403798282471e-01 0.0 
7.781674870786e-04 6.961515630851e-02 0.0 
1.653385260993e-02 2.471547213177e-02 0.0 
8.738142331182e-03 6.025595354148e-02 0.0 
3.001302429636e-03 2.578321538648e-02 0.0 
3.702220672694e-03 1.259452275935e-02 0.0 
1.021424114393e-02 2.370315467422e-02 0.0 
3.081465384957e-03 6.185113346803e-03 0.0 
6.611826499659e-03 6.809530679248e-02 0.0 
9.457482265416e-03 1.529534646583e-02 0.0 
6.973066640414e-03 1.981482011232e-02 0.0 
6.589941462839e-03 1.524142883911e-01 0.0 
1.298135997858e-02 2.420172404945e-02 0.0 
3.071951197965e-04 6.524871758893e-02 0.0 
4.994265993290e-03 7.073393097241e-02 0.0 
1.705126545228e-04 1.288823964056e-02 0.0 
1.129010978520e-03 7.241714102256e-02 0.0 
1.121845345440e-03 1.522009980707e-01 0.0 
4.324089620911e-05 5.457414097601e-03 0.0 
3.595044313873e-03 7.266771407297e-02 0.0 
2.369388813113e-03 1.281170562145e-01 0.0 
1.360260896466e-02 1.845109049817e-02 0.0 
-1.094351242823e-04 5.135605082795e-02 0.0 
1.363584247226e-03 5.577764170254e-02 0.0 
1.023190788311e-02 5.618565893109e-02 0.0 
5.140788046003e-03 6.211003506072e-02 0.0 
1.914187289654e-03 1.008991047058e-01 0.0 
8.706056924440e-03 1.534245541892e-02 0.0 
7.702860628979e-03 2.353976014571e-02 0.0 
4.923264970791e-03 1.116660359850e-01 0.0 
1.218246802736e-02 7.687783896067e-02 0.0 
1.884987803204e-02 2.562926547128e-02 0.0 
-2.759790152413e-04 5.646293999921e-02 0.0 
1.786597934411e-02 2.530404522533e-02 0.0 
8.735707077622e-03 2.061082145259e-02 0.0 
1.996630231760e-03 7.972323867694e-02 0.0 
-1.042710473306e-04 4.670749425768e-02 0.0 
8.454702510337e-03 6.849328621569e-02 0.0 
1.233322439853e-03 1.148950266775e-02 0.0 
-2.285769881246e-04 5.495943235504e-02 0.0 

TENSORS node_materi_stress float
9.978115098806e-01 -8.984344277229e-02 0.0 
-8.984344277229e-02 -8.693953211341e+00 0.0 
0.0 0.0 1.000000000000e+00 
-2.883854469595e+01 1.163946204422e-01 0.0 
1.163946204422e-01 -8.847101231652e+00 0.0 
0.0 0.0 -1.090569377828e+01 
-1.771328881550e+02 -1.400515077776e-01 0.0 
-1.400515077776e-01 -3.916290592729e+02 0.0 
0.0 0.0 -1.771320123317e+02 
-8.486129738141e+01 1.181981293851e+00 0.0 
1.181981293851e+00 -1.947062156094e+02 0.0 
0.0 0.0 -8.347025389724e+01 
-6.939996628878e-01 -1.449838072979e-01 0.0 
-1.449838072979e-01 -2.108565257964e+01 0.0 
0.0 0.0 -4.208973923636e+00 
-8.178274875422e+00 -4.450262148959e-01 0.0 
-4.450262148959e-01 -4.011603742735e+01 0.0 
0.0 0.0 -1.408829369083e+01 
-1.708640052664e+01 -3.331361116298e-01 0.0 
-3.331361116298e-01 -5.864214557749e+01 0.0 
0.0 0.0 -2.231856383124e+01 
-2.665669869816e+01 -3.088336547313e-01 0.0 
-3.088336547313e-01 -7.855166302150e+01 0.0 
0.0 0.0 -3.116250851590e+01 
-3.611473924907e+01 -3.315301149792e-01 0.0 
-3.315301149792e-01 -9.821298928855e+01 0.0 
0.0 0.0 -3.989831856129e+01 
-4.554503438618e+01 -4.341671248765e-01 0.0 
-4.341671248765e-01 -1.178247099282e+02 0.0 
0.0 0.0 -4.861092329432e+01 
-5.515382258750e+01 -6.379649975312e-01 0.0 
-6.379649975312e-01 -1.376284784550e+02 0.0 
0.0 0.0 -5.743469031274e+01 
-6.577898973342e+01 -7.383422935482e-01 0.0 
-7.383422935482e-01 -1.579846587039e+02 0.0 
0.0 0.0 -6.672909453120e+01 
-7.645797101710e+01 -7.611304891525e-01 0.0 
-7.611304891525e-01 -1.784213050506e+02 0.0 
0.0 0.0 -7.606378282032e+01 
-8.647954190420e+01 -8.059513576376e-01 0.0 
-8.059513576376e-01 -1.991335280530e+02 0.0 
0.0 0.0 -8.528392098717e+01 
-9.624373217818e+01 -9.213010738649e-01 0.0 
-9.213010738649e-01 -2.203381814002e+02 0.0 
0.0 0.0 -9.488652397207e+01 
-1.060197352149e+02 -8.644372513566e-01 0.0 
-8.644372513566e-01 -2.408723830476e+02 0.0 
0.0 0.0 -1.046710670337e+02 
-1.147684976470e+02 -1.057718307017e+00 0.0 
-1.057718307017e+00 -2.595104140183e+02 0.0 
0.0 0.0 -1.136270430230e+02 
-1.240181923179e+02 -6.219708255812e-01 0.0 
-6.219708255812e-01 -2.800600528878e+02 0.0 
0.0 0.0 -1.235034515737e+02 
-1.336885202191e+02 -5.639250368098e-01 0.0 
-5.639250368098e-01 -3.010646372600e+02 0.0 
0.0 0.0 -1.335994684462e+02 
-1.433697755431e+02 -4.990656000798e-01 0.0 
-4.990656000798e-01 -3.213853304389e+02 0.0 
0.0 0.0 -1.433666380408e+02 
-1.530684621091e+02 -3.096871250240e-01 0.0 
-3.096871250240e-01 -3.415646941197e+02 0.0 
0.0 0.0 -1.530664187056e+02 
-1.626876411034e+02 -1.950750414218e-01 0.0 
-1.950750414218e-01 -3.615738392229e+02 0.0 
0.0 0.0 -1.626851268488e+02 
-1.717096918658e+02 -1.834324702298e-01 0.0 
-1.834324702298e-01 -3.803434534261e+02 0.0 
0.0 0.0 -1.717075714947e+02 
-8.499289770228e+01 2.090891601270e+00 0.0 
2.090891601270e+00 -1.960289772013e+02 0.0 
0.0 0.0 -8.390656247108e+01 
-8.453301433482e+01 3.795392936759e+00 0.0 
3.795392936759e+00 -1.950737919964e+02 0.0 
0.0 0.0 -8.348204189936e+01 
-8.491704812589e+01 5.931418545090e+00 0.0 
5.931418545090e+00 -1.955646951941e+02 0.0 
0.0 0.0 -8.374452299598e+01 
-8.515470163810e+01 7.552445629817e+00 0.0 
7.552445629817e+00 -1.959215968629e+02 0.0 
0.0 0.0 -8.392288955029e+01 
-8.590346696915e+01 9.762479940155e+00 0.0 
9.762479940155e+00 -1.958304438058e+02 0.0 
0.0 0.0 -8.412017323249e+01 
-8.698386167137e+01 1.215316753210e+01 0.0 
1.215316753210e+01 -1.972158802819e+02 0.0 
0.0 0.0 -8.485992258598e+01 
-8.885140216505e+01 1.480010749273e+01 0.0 
1.480010749273e+01 -1.988079658339e+02 0.0 
0.0 0.0 -8.589781039967e+01 
-9.012757482338e+01 1.777884931732e+01 0.0 
1.777884931732e+01 -1.999897467583e+02 0.0 
0.0 0.0 -8.663519647449e+01 
-9.323167670980e+01 2.112448972744e+01 0.0 
2.112448972744e+01 -2.033290593755e+02 0.0 
0.0 0.0 -8.862610894211e+01 
-9.508308529308e+01 2.397393770858e+01 0.0 
2.397393770858e+01 -2.055725063291e+02 0.0 
0.0 0.0 -9.009243562959e+01 
-9.904305984261e+01 2.776596216425e+01 0.0 
2.776596216425e+01 -2.084921616385e+02 0.0 
0.0 0.0 -9.230422084192e+01 
-1.040632286553e+02 3.171414656688e+01 0.0 
3.171414656688e+01 -2.132173306580e+02 0.0 
0.0 0.0 -9.548965997428e+01 
-1.103305315796e+02 3.573446427421e+01 0.0 
3.573446427421e+01 -2.198149866716e+02 0.0 
0.0 0.0 -9.966621362920e+01 
-1.156238144259e+02 3.906617223708e+01 0.0 
3.906617223708e+01 -2.250666462484e+02 0.0 
0.0 0.0 -1.030895838887e+02 
-1.221263961758e+02 4.248502867144e+01 0.0 
4.248502867144e+01 -2.326289307278e+02 0.0 
0.0 0.0 -1.076556822913e+02 
-1.271192487317e+02 4.469827984729e+01 0.0 
4.469827984729e+01 -2.394541263743e+02 0.0 
0.0 0.0 -1.114923608732e+02 
-1.309245392081e+02 4.560628763993e+01 0.0 
4.560628763993e+01 -2.468476022187e+02 0.0 
0.0 0.0 -1.151279922525e+02 
-1.351270251491e+02 4.610865725571e+01 0.0 
4.610865725571e+01 -2.563585976127e+02 0.0 
0.0 0.0 -1.195800150586e+02 
-1.372062608512e+02 4.553406892384e+01 0.0 
4.553406892384e+01 -2.631642453550e+02 0.0 
0.0 0.0 -1.224644543018e+02 
-1.394087854363e+02 4.467066989781e+01 0.0 
4.467066989781e+01 -2.707813080836e+02 0.0 
0.0 0.0 -1.256523411410e+02 
-1.413128554129e+02 4.350470388485e+01 0.0 
4.350470388485e+01 -2.780824748619e+02 0.0 
0.0 0.0 -1.286407817104e+02 
-1.430469199491e+02 4.221940592747e+01 0.0 
4.221940592747e+01 -2.849343210487e+02 0.0 
0.0 0.0 -1.314281607439e+02 
-1.448310109002e+02 4.079712219098e+01 0.0 
4.079712219098e+01 -2.918845718982e+02 0.0 
0.0 0.0 -1.342637272891e+02 
-1.464983838489e+02 3.917856812423e+01 0.0 
3.917856812423e+01 -2.986302950355e+02 0.0 
0.0 0.0 -1.369950027932e+02 
-1.480683003138e+02 3.755683776915e+01 0.0 
3.755683776915e+01 -3.048706315222e+02 0.0 
0.0 0.0 -1.395305678633e+02 
-1.496834164807e+02 3.586347505162e+01 0.0 
3.586347505162e+01 -3.110635035095e+02 0.0 
0.0 0.0 -1.420653976766e+02 
-1.514804722335e+02 3.392699868885e+01 0.0 
3.392699868885e+01 -3.177396190954e+02 0.0 
0.0 0.0 -1.448161763533e+02 
-1.530495614420e+02 3.186731929604e+01 0.0 
3.186731929604e+01 -3.237891842926e+02 0.0 
0.0 0.0 -1.472895397785e+02 
-1.544229646109e+02 2.971456804427e+01 0.0 
2.971456804427e+01 -3.292312634969e+02 0.0 
0.0 0.0 -1.495021568535e+02 
-1.564113605571e+02 2.758218263272e+01 0.0 
2.758218263272e+01 -3.357266938488e+02 0.0 
0.0 0.0 -1.522563946170e+02 
-1.577971395143e+02 2.497432402275e+01 0.0 
2.497432402275e+01 -3.410968612875e+02 0.0 
0.0 0.0 -1.544496835928e+02 
-1.589764621410e+02 2.278775587477e+01 0.0 
2.278775587477e+01 -3.453799120228e+02 0.0 
0.0 0.0 -1.562230196400e+02 
-1.606336792338e+02 2.037563687146e+01 0.0 
2.037563687146e+01 -3.506370627943e+02 0.0 
0.0 0.0 -1.584677394649e+02 
-1.619909450105e+02 1.826124269528e+01 0.0 
1.826124269528e+01 -3.548378144658e+02 0.0 
0.0 0.0 -1.602721259537e+02 
-1.634767442514e+02 1.622850687536e+01 0.0 
1.622850687536e+01 -3.590897461652e+02 0.0 
0.0 0.0 -1.621348556558e+02 
-1.648737756213e+02 1.417306887790e+01 0.0 
1.417306887790e+01 -3.630104851248e+02 0.0 
0.0 0.0 -1.638612469496e+02 
-1.662003436767e+02 1.237712096560e+01 0.0 
1.237712096560e+01 -3.665331124396e+02 0.0 
0.0 0.0 -1.654355173958e+02 
-1.672764151942e+02 1.062037117490e+01 0.0 
1.062037117490e+01 -3.694048871686e+02 0.0 
0.0 0.0 -1.667171687209e+02 
-1.684012635452e+02 9.128609677211e+00 0.0 
9.128609677211e+00 -3.722049805104e+02 0.0 
0.0 0.0 -1.679913841810e+02 
-1.693473268066e+02 7.694163512750e+00 0.0 
7.694163512750e+00 -3.745415612641e+02 0.0 
0.0 0.0 -1.690570804592e+02 
-1.706028498211e+02 6.433587447116e+00 0.0 
6.433587447116e+00 -3.774252778624e+02 0.0 
0.0 0.0 -1.704008668184e+02 
-1.719754903289e+02 5.242736187391e+00 0.0 
5.242736187391e+00 -3.804943125662e+02 0.0 
0.0 0.0 -1.718428375957e+02 
-1.731027555799e+02 4.544000497627e+00 0.0 
4.544000497627e+00 -3.829432208634e+02 0.0 
0.0 0.0 -1.730038269759e+02 
-1.727949220419e+02 3.383537109182e+00 0.0 
3.383537109182e+00 -3.824274647585e+02 0.0 
0.0 0.0 -1.727364521362e+02 
-1.747174447077e+02 2.627950007405e+00 0.0 
2.627950007405e+00 -3.865058987694e+02 0.0 
0.0 0.0 -1.746846369429e+02 
-1.750775680052e+02 2.085679033009e+00 0.0 
2.085679033009e+00 -3.872915676742e+02 0.0 
0.0 0.0 -1.750566134593e+02 
-1.761756205776e+02 1.687475610832e+00 0.0 
1.687475610832e+00 -3.895967469351e+02 0.0 
0.0 0.0 -1.761614580547e+02 
-1.771216712024e+02 9.910102688610e-01 0.0 
9.910102688610e-01 -3.915937832397e+02 0.0 
0.0 0.0 -1.771169185837e+02 
-1.774400751633e+02 5.629105810199e-01 0.0 
5.629105810199e-01 -3.922656215342e+02 0.0 
0.0 0.0 -1.774383964781e+02 
-3.324499228489e+01 2.267968011823e-01 0.0 
2.267968011823e-01 -2.052043234319e+01 0.0 
0.0 0.0 -1.572962738842e+01 
-4.077077999402e+01 3.670526538307e-01 0.0 
3.670526538307e-01 -4.021658532264e+01 0.0 
0.0 0.0 -2.389620959500e+01 
-4.818274485015e+01 4.283752595148e-01 0.0 
4.283752595148e-01 -5.993005761988e+01 0.0 
0.0 0.0 -3.203384074101e+01 
-5.500923074287e+01 5.412129005106e-01 0.0 
5.412129005106e-01 -7.940844815506e+01 0.0 
0.0 0.0 -3.992530366938e+01 
-6.157049951631e+01 5.795190202558e-01 0.0 
5.795190202558e-01 -9.955937932029e+01 0.0 
0.0 0.0 -4.793896365098e+01 
-6.796981828175e+01 7.180955914664e-01 0.0 
7.180955914664e-01 -1.200687626579e+02 0.0 
0.0 0.0 -5.601157428188e+01 
-7.347303035326e+01 7.497943116564e-01 0.0 
7.497943116564e-01 -1.405543581915e+02 0.0 
0.0 0.0 -6.380821656342e+01 
-7.826998842527e+01 9.415533351786e-01 0.0 
9.415533351786e-01 -1.610155978342e+02 0.0 
0.0 0.0 -7.138567587783e+01 
-8.343714314471e+01 1.039561448048e+00 0.0 
1.039561448048e+00 -1.825788994378e+02 0.0 
0.0 0.0 -7.940481277476e+01 
-1.926666421882e+01 6.357042695461e+00 0.0 
6.357042695461e+00 -7.186342992986e+00 0.0 
0.0 0.0 -7.918357063492e+00 
-4.901980347328e+01 1.372219362314e+01 0.0 
1.372219362314e+01 -2.119945349268e+01 0.0 
0.0 0.0 -2.066577708979e+01 
-2.183109257628e+01 1.363351991629e+01 0.0 
1.363351991629e+01 -1.595723123411e+01 0.0 
0.0 0.0 -1.097235648193e+01 
-2.225463584547e+01 1.451443164962e+01 0.0 
1.451443164962e+01 -1.863650648432e+01 0.0 
0.0 0.0 -1.186734269894e+01 
-2.155365215452e+01 1.451173338190e+01 0.0 
1.451173338190e+01 -1.877396212381e+01 0.0 
0.0 0.0 -1.169828428350e+01 
-2.003378898969e+01 1.403496008882e+01 0.0 
1.403496008882e+01 -1.774792826912e+01 0.0 
0.0 0.0 -1.093451517764e+01 
-1.978403796215e+01 1.400059015073e+01 0.0 
1.400059015073e+01 -1.752229198237e+01 0.0 
0.0 0.0 -1.079189898336e+01 
-2.044845197396e+01 1.415110034515e+01 0.0 
1.415110034515e+01 -1.781428070228e+01 0.0 
0.0 0.0 -1.107881980287e+01 
-2.109835106614e+01 1.433776515717e+01 0.0 
1.433776515717e+01 -1.828816424304e+01 0.0 
0.0 0.0 -1.141595459275e+01 
-2.264236497955e+01 1.451250456386e+01 0.0 
1.451250456386e+01 -1.825600522346e+01 0.0 
0.0 0.0 -1.186951106090e+01 
-2.799600196342e+01 1.491938021894e+01 0.0 
1.491938021894e+01 -1.856401034131e+01 0.0 
0.0 0.0 -1.356800369142e+01 
-2.819565219913e+01 -1.899390631486e-02 0.0 
-1.899390631486e-02 -7.376624708091e+00 0.0 
0.0 0.0 -1.027168307217e+01 
-2.830433800673e+01 9.359917079237e-02 0.0 
9.359917079237e-02 -8.130360012053e+00 0.0 
0.0 0.0 -1.053040940563e+01 
-2.836461914634e+01 -4.895096053860e-02 0.0 
-4.895096053860e-02 -8.169406792878e+00 0.0 
0.0 0.0 -1.056020778176e+01 
-2.831604430385e+01 -2.571349843802e-03 0.0 
-2.571349843802e-03 -7.517294679014e+00 0.0 
0.0 0.0 -1.035000169486e+01 
-2.966296995193e+01 4.491164383293e-04 0.0 
4.491164383293e-04 -1.011078740551e+01 0.0 
0.0 0.0 -1.153212720723e+01 
-2.878358663473e+01 -8.867206038886e-02 0.0 
-8.867206038886e-02 -8.113501319253e+00 0.0 
0.0 0.0 -1.066912638619e+01 
-2.883100294338e+01 3.480460200294e-02 0.0 
3.480460200294e-02 -7.744762556865e+00 0.0 
0.0 0.0 -1.057272965007e+01 
-2.889757985514e+01 -1.531593233756e-01 0.0 
-1.531593233756e-01 -8.041013628648e+00 0.0 
0.0 0.0 -1.068157804514e+01 
-2.941061286681e+01 4.013025301538e-02 0.0 
4.013025301538e-02 -9.004646479894e+00 0.0 
0.0 0.0 -1.112457780401e+01 
-2.967259887955e+01 5.052237920102e-02 0.0 
5.052237920102e-02 -8.713020385917e+00 0.0 
0.0 0.0 -1.111568577964e+01 
-3.042399408313e+01 4.699210493968e-01 0.0 
4.699210493968e-01 -8.624485389117e+00 0.0 
0.0 0.0 -1.131454384168e+01 
-3.237039005268e+01 1.286495863615e+00 0.0 
1.286495863615e+00 -8.974952685092e+00 0.0 
0.0 0.0 -1.200360282133e+01 
-3.649642786959e+01 2.715871710225e+00 0.0 
2.715871710225e+00 -9.278693612170e+00 0.0 
0.0 0.0 -1.333253644453e+01 
-4.289172166628e+01 6.383209573371e+00 0.0 
6.383209573371e+00 -1.215327442453e+01 0.0 
0.0 0.0 -1.611349882724e+01 
-2.278280629738e+01 3.131769230471e+00 0.0 
3.131769230471e+00 -6.343221085773e+00 0.0 
0.0 0.0 -8.651708056563e+00 
-2.725405117998e+01 1.400284796029e+00 0.0 
1.400284796029e+00 -7.130293796171e+00 0.0 
0.0 0.0 -1.023217422044e+01 
-2.993332280936e+01 2.436993101616e-01 0.0 
2.436993101616e-01 -6.888289770907e+00 0.0 
0.0 0.0 -1.094690228183e+01 
-3.003173363004e+01 1.176113802372e-01 0.0 
1.176113802372e-01 -6.816162476256e+00 0.0 
0.0 0.0 -1.095451094762e+01 
-2.810756906273e+01 -5.817263778436e-01 0.0 
-5.817263778436e-01 -7.733180486278e+00 0.0 
0.0 0.0 -1.067500331975e+01 
-2.563969215144e+01 -1.472541410796e+00 0.0 
-1.472541410796e+00 -8.201588597125e+00 0.0 
0.0 0.0 -1.007936757148e+01 
-2.190913440391e+01 -2.123088126226e+00 0.0 
-2.123088126226e+00 -8.151154370020e+00 0.0 
0.0 0.0 -8.943578693139e+00 
-1.709109139577e+01 -2.586249599988e+00 0.0 
-2.586249599988e+00 -8.192931999611e+00 0.0 
0.0 0.0 -7.509955678364e+00 
-1.167803390225e+01 -2.619616267376e+00 0.0 
-2.619616267376e+00 -8.439047667279e+00 0.0 
0.0 0.0 -5.958428851789e+00 
-6.875253324008e+00 -2.170165721377e+00 0.0 
-2.170165721377e+00 -8.609750116990e+00 0.0 
0.0 0.0 -4.569447423224e+00 
-2.887795474891e+00 -1.518302627625e+00 0.0 
-1.518302627625e+00 -8.745846909142e+00 0.0 
0.0 0.0 -3.415768538855e+00 
-5.620067930396e-01 -9.079274305045e-01 0.0 
-9.079274305045e-01 -9.492747307006e+00 0.0 
0.0 0.0 -2.953095474682e+00 
9.075975181898e-01 -2.061686996937e-01 0.0 
-2.061686996937e-01 -8.937803342542e+00 0.0 
0.0 0.0 -1.340992871913e+00 
9.985820901062e-01 5.230527948396e-02 0.0 
5.230527948396e-02 -7.814896579904e+00 0.0 
0.0 0.0 3.338017496964e-01 
9.273939393224e-01 1.988169143938e-02 0.0 
1.988169143938e-02 -7.869312784032e+00 0.0 
0.0 0.0 9.660161407307e-01 
9.271596626314e-01 -1.077177578607e-01 0.0 
-1.077177578607e-01 -8.218333317670e+00 0.0 
0.0 0.0 9.660161407307e-01 
9.993953160639e-01 1.548658585302e-02 0.0 
1.548658585302e-02 -8.362495855233e+00 0.0 
0.0 0.0 1.000000000000e+00 
9.995665932206e-01 1.618476100329e-02 0.0 
1.618476100329e-02 -7.883698255646e+00 0.0 
0.0 0.0 1.000000000000e+00 
9.996889308946e-01 -2.263328124205e-02 0.0 
-2.263328124205e-02 -7.030108262215e+00 0.0 
0.0 0.0 1.000000000000e+00 
-1.981601754012e+01 1.083505891133e+01 0.0 
1.083505891133e+01 -1.125847330471e+01 0.0 
0.0 0.0 -9.014746300237e+00 
-2.230205266413e+01 1.441437416019e+01 0.0 
1.441437416019e+01 -1.815695881618e+01 0.0 
0.0 0.0 -1.173770344409e+01 
-2.201155140488e+01 1.451999376145e+01 0.0 
1.451999376145e+01 -1.873781692219e+01 0.0 
0.0 0.0 -1.182481049812e+01 
-2.105263394427e+01 1.441437487460e+01 0.0 
1.441437487460e+01 -1.879207468702e+01 0.0 
0.0 0.0 -1.155341258939e+01 
-2.046859038562e+01 1.421134877953e+01 0.0 
1.421134877953e+01 -1.802807934933e+01 0.0 
0.0 0.0 -1.114900092048e+01 
-1.982754295030e+01 1.405340541298e+01 0.0 
1.405340541298e+01 -1.773985606989e+01 0.0 
0.0 0.0 -1.087021970606e+01 
-2.045752422627e+01 1.420084048578e+01 0.0 
1.420084048578e+01 -1.804360983415e+01 0.0 
0.0 0.0 -1.115034021813e+01 
-2.148277519745e+01 1.437116705740e+01 0.0 
1.437116705740e+01 -1.819997596853e+01 0.0 
0.0 0.0 -1.150482534980e+01 
-2.445522894850e+01 1.465084443380e+01 0.0 
1.465084443380e+01 -1.817852361690e+01 0.0 
0.0 0.0 -1.239012576962e+01 
-3.681463319275e+01 1.473129142965e+01 0.0 
1.473129142965e+01 -1.919183839375e+01 0.0 
0.0 0.0 -1.640194147595e+01 
-2.295442253592e+01 1.478090428688e+01 0.0 
1.478090428688e+01 -2.621686930067e+01 0.0 
0.0 0.0 -1.435138755098e+01 
-1.571067623717e+02 1.871378052072e+01 0.0 
1.871378052072e+01 -3.442470880531e+02 0.0 
0.0 0.0 -1.552482632061e+02 
-1.001874854861e+01 -3.800457556178e+00 0.0 
-3.800457556178e+00 -1.726682048501e+01 0.0 
0.0 0.0 -8.172970734941e+00 
-2.488399398851e+01 -6.629038156202e-01 0.0 
-6.629038156202e-01 -1.538364040166e+01 0.0 
0.0 0.0 -1.206719804762e+01 
-1.637073576966e+02 9.347172349976e+00 0.0 
9.347172349976e+00 -3.623414762608e+02 0.0 
0.0 0.0 -1.632653835272e+02 
-2.324045822460e+01 1.601468202795e+01 0.0 
1.601468202795e+01 -2.821877991587e+01 0.0 
0.0 0.0 -1.503777144214e+01 
-9.177836412670e+01 -7.806855660339e-01 0.0 
-7.806855660339e-01 -2.106966868280e+02 0.0 
0.0 0.0 -9.042966526375e+01 
-1.505728511895e+02 2.770620124025e+01 0.0 
2.770620124025e+01 -3.229641675483e+02 0.0 
0.0 0.0 -1.462176482923e+02 
-2.522659371693e+01 1.657227507011e+01 0.0 
1.657227507011e+01 -2.888502475705e+01 0.0 
0.0 0.0 -1.583348554219e+01 
-1.445674473868e+02 3.595343433747e+01 0.0 
3.595343433747e+01 -2.994026898928e+02 0.0 
0.0 0.0 -1.366188872379e+02 
-2.979476635619e+01 1.788284738090e+01 0.0 
1.788284738090e+01 -3.042806629469e+01 0.0 
0.0 0.0 -1.766684979526e+01 
-1.688250419150e+02 4.453439161252e+00 0.0 
4.453439161252e+00 -3.740451248225e+02 0.0 
0.0 0.0 -1.687263569545e+02 
-6.398536907260e-01 -4.280548835876e-01 0.0 
-4.280548835876e-01 -1.634506115735e+01 0.0 
0.0 0.0 -4.285681478656e+00 
-1.377728593174e+02 4.197308477296e+01 0.0 
4.197308477296e+01 -2.728222592361e+02 0.0 
0.0 0.0 -1.257838307783e+02 
-5.252075415490e+01 1.943683349859e+01 0.0 
1.943683349859e+01 -3.346718636083e+01 0.0 
0.0 0.0 -2.539638215472e+01 
-5.086446951186e+01 -2.249822213259e-01 0.0 
-2.249822213259e-01 -1.288427738741e+02 0.0 
0.0 0.0 -5.351217301579e+01 
-1.177535943110e+02 -7.821738407070e-01 0.0 
-7.821738407070e-01 -2.666971119337e+02 0.0 
0.0 0.0 -1.170809912272e+02 
-1.316512728095e+02 4.482272939834e+01 0.0 
4.482272939834e+01 -2.508669989658e+02 0.0 
0.0 0.0 -1.166688030820e+02 
-1.143703996950e+02 3.907669330284e+01 0.0 
3.907669330284e+01 -2.217911117260e+02 0.0 
0.0 0.0 -1.016192799687e+02 
-8.622807591211e+01 1.076835235466e+01 0.0 
1.076835235466e+01 -1.887746654671e+02 0.0 
0.0 0.0 -8.210082241376e+01 
-9.092323410243e+01 1.865942105375e+01 0.0 
1.865942105375e+01 -1.917796414631e+02 0.0 
0.0 0.0 -8.441086266967e+01 
-1.002320249660e+02 2.918840578486e+01 0.0 
2.918840578486e+01 -2.048723005029e+02 0.0 
0.0 0.0 -9.150065847033e+01 
-4.634784447485e+01 6.315633632910e+00 0.0 
6.315633632910e+00 -2.036366127449e+01 0.0 
0.0 0.0 -1.961345172480e+01 
-3.553673871746e+01 5.194037070039e-01 0.0 
5.194037070039e-01 -1.766207273827e+01 0.0 
0.0 0.0 -1.555964343672e+01 
-3.419702077496e+01 3.272643698324e-01 0.0 
3.272643698324e-01 -1.879417851876e+01 0.0 
0.0 0.0 -1.549735978812e+01 
-5.848969264210e+01 7.107429277390e-01 0.0 
7.107429277390e-01 -8.953846171262e+01 0.0 
0.0 0.0 -4.400844630642e+01 
-1.709357372662e+02 2.200084957844e+00 0.0 
2.200084957844e+00 -3.786658129932e+02 0.0 
0.0 0.0 -1.709116716987e+02 
-2.317079158614e+01 3.016759041750e+00 0.0 
3.016759041750e+00 -1.460024431812e+01 0.0 
0.0 0.0 -1.133157464499e+01 
-5.922587595848e-02 -2.449725953858e-02 0.0 
-2.449725953858e-02 -1.711865505507e+01 0.0 
0.0 0.0 -3.188630498494e+00 
-1.477880608828e+02 -3.892168141309e-01 0.0 
-3.892168141309e-01 -3.305752486639e+02 0.0 
0.0 0.0 -1.477844828710e+02 
-3.188005343052e+01 -6.403310871895e-03 0.0 
-6.403310871895e-03 -1.647703559972e+01 0.0 
0.0 0.0 -1.410712670907e+01 
-2.180485056306e+01 2.182302846838e-02 0.0 
2.182302846838e-02 -6.847727454264e+01 0.0 
0.0 0.0 -2.668463753171e+01 
-1.229497306419e+02 4.327560978677e+01 0.0 
4.327560978677e+01 -2.324749305422e+02 0.0 
0.0 0.0 -1.078729787902e+02 
-1.481586505091e+02 3.218990552902e+01 0.0 
3.218990552902e+01 -3.126208098097e+02 0.0 
0.0 0.0 -1.420759617544e+02 
-1.414342634151e+02 3.923137269948e+01 0.0 
3.923137269948e+01 -2.868185271877e+02 0.0 
0.0 0.0 -1.315163181566e+02 
-1.530992008733e+02 2.330868252232e+01 0.0 
2.330868252232e+01 -3.324180391729e+02 0.0 
0.0 0.0 -1.501069756763e+02 
-1.602076642942e+02 1.471501323199e+01 0.0 
1.471501323199e+01 -3.529667457537e+02 0.0 
0.0 0.0 -1.590857571099e+02 
-2.040061873694e+01 -3.113446979153e+00 0.0 
-3.113446979153e+00 -1.645622122300e+01 0.0 
0.0 0.0 -1.104625361220e+01 
-3.828834109989e+01 1.782244406933e+00 0.0 
1.782244406933e+00 -1.761521363277e+01 0.0 
0.0 0.0 -1.637106641980e+01 
-1.647579922826e+02 6.422494176067e+00 0.0 
6.422494176067e+00 -3.652416941858e+02 0.0 
0.0 0.0 -1.645480108231e+02 
-7.058310657161e+01 1.140198778445e+00 0.0 
1.140198778445e+00 -1.297966164899e+02 0.0 
0.0 0.0 -5.971391691847e+01 
-4.387137023905e+00 -2.276698558232e+00 0.0 
-2.276698558232e+00 -1.771910670086e+01 0.0 
0.0 0.0 -6.632741916937e+00 
-7.130764527087e+01 -7.322494230838e-01 0.0 
-7.322494230838e-01 -1.685104858145e+02 0.0 
0.0 0.0 -7.154543932562e+01 
-8.531055085763e+01 6.546035454823e+00 0.0 
6.546035454823e+00 -1.905394381837e+02 0.0 
0.0 0.0 -8.235499671239e+01 
-2.471538756919e+01 1.660663817876e+01 0.0 
1.660663817876e+01 -3.083191381999e+01 0.0 
0.0 0.0 -1.626419041675e+01 
-2.316591498796e+01 1.589855979784e+01 0.0 
1.589855979784e+01 -2.816987353207e+01 0.0 
0.0 0.0 -1.500073655601e+01 
-2.702383333319e+01 1.715408550624e+01 0.0 
1.715408550624e+01 -2.993807701411e+01 0.0 
0.0 0.0 -1.668857310419e+01 
-3.574313777126e+01 1.885272610310e+01 0.0 
1.885272610310e+01 -3.056188478274e+01 0.0 
0.0 0.0 -1.949150676620e+01 
-2.087009757089e+01 1.123243421342e+01 0.0 
1.123243421342e+01 -1.870720483002e+01 0.0 
0.0 0.0 -1.152245875396e+01 
-4.526333787516e+01 2.496512297427e-01 0.0 
2.496512297427e-01 -5.158701737818e+01 0.0 
0.0 0.0 -2.865510657600e+01 
-1.739831611211e+02 1.221194169551e+00 0.0 
1.221194169551e+00 -3.850517818430e+02 0.0 
0.0 0.0 -1.739741821171e+02 
2.958045584812e-01 -2.477386993129e-01 0.0 
-2.477386993129e-01 -1.594158911721e+01 0.0 
0.0 0.0 -2.482454303357e+00 
-8.044359685459e+01 1.562603757712e+00 0.0 
1.562603757712e+00 -1.704853683745e+02 0.0 
0.0 0.0 -7.487868956873e+01 
-5.582508797873e+01 1.721604551459e+01 0.0 
1.721604551459e+01 -3.456822230686e+01 0.0 
0.0 0.0 -2.671799308568e+01 
-6.382965504657e+01 2.279818708008e+01 0.0 
2.279818708008e+01 -5.420305974649e+01 0.0 
0.0 0.0 -3.500981443792e+01 
-6.600596606478e+01 1.904987265019e+01 0.0 
1.904987265019e+01 -5.488846379642e+01 0.0 
0.0 0.0 -3.586832895836e+01 
-7.183590450086e+01 2.475441491444e+01 0.0 
2.475441491444e+01 -7.720159637320e+01 0.0 
0.0 0.0 -4.431125026222e+01 
-7.431720462090e+01 2.247942837736e+01 0.0 
2.247942837736e+01 -8.051182854639e+01 0.0 
0.0 0.0 -4.604870995019e+01 
-7.920479520204e+01 2.664381499511e+01 0.0 
2.664381499511e+01 -9.978837777589e+01 0.0 
0.0 0.0 -5.329795189338e+01 
-7.658203291022e+01 2.811095630722e+01 0.0 
2.811095630722e+01 -9.739718595898e+01 0.0 
0.0 0.0 -5.179376566076e+01 
-8.391713629924e+01 2.973256733190e+01 0.0 
2.973256733190e+01 -1.190274481863e+02 0.0 
0.0 0.0 -6.048337534566e+01 
-8.104454101110e+01 3.049925000616e+01 0.0 
3.049925000616e+01 -1.167658765328e+02 0.0 
0.0 0.0 -5.894312526318e+01 
-8.210576452905e+01 2.493899640671e+01 0.0 
2.493899640671e+01 -1.039614017133e+02 0.0 
0.0 0.0 -5.542014987271e+01 
-8.855761495904e+01 3.214049218524e+01 0.0 
3.214049218524e+01 -1.378728205171e+02 0.0 
0.0 0.0 -6.752913064285e+01 
-8.561083228311e+01 3.244588415669e+01 0.0 
3.244588415669e+01 -1.354230695381e+02 0.0 
0.0 0.0 -6.591017054638e+01 
-9.332582253316e+01 3.417852605747e+01 0.0 
3.417852605747e+01 -1.562407364456e+02 0.0 
0.0 0.0 -7.446996769362e+01 
-9.038070517106e+01 3.411804982008e+01 0.0 
3.411804982008e+01 -1.536320324929e+02 0.0 
0.0 0.0 -7.280382129918e+01 
-8.269970868147e+01 3.249284639462e+01 0.0 
3.249284639462e+01 -1.334571465215e+02 0.0 
0.0 0.0 -6.444705656089e+01 
-8.738279356338e+01 3.378625893076e+01 0.0 
3.378625893076e+01 -1.513641602612e+02 0.0 
0.0 0.0 -7.122408614736e+01 
-7.974537583136e+01 3.229086945410e+01 0.0 
3.229086945410e+01 -1.316243412755e+02 0.0 
0.0 0.0 -6.301091513205e+01 
-8.433261035906e+01 3.321218895510e+01 0.0 
3.321218895510e+01 -1.493697865014e+02 0.0 
0.0 0.0 -6.971071905813e+01 
-9.225814495104e+01 3.475881397678e+01 0.0 
3.475881397678e+01 -1.687278520477e+02 0.0 
0.0 0.0 -7.789579909961e+01 
-8.909195751619e+01 3.379170310179e+01 0.0 
3.379170310179e+01 -1.666585146362e+02 0.0 
0.0 0.0 -7.632514164572e+01 
-8.113870668396e+01 3.238901613168e+01 0.0 
3.238901613168e+01 -1.476838869641e+02 0.0 
0.0 0.0 -6.824677809441e+01 
-8.571291157279e+01 3.253575541777e+01 0.0 
3.253575541777e+01 -1.645137787212e+02 0.0 
0.0 0.0 -7.466800708820e+01 
-7.780092086110e+01 3.131395336975e+01 0.0 
3.131395336975e+01 -1.461600302035e+02 0.0 
0.0 0.0 -6.678828531938e+01 
-8.228773087698e+01 3.095208537160e+01 0.0 
3.095208537160e+01 -1.612721623743e+02 0.0 
0.0 0.0 -7.266796797539e+01 
-7.440377591064e+01 2.988246938364e+01 0.0 
2.988246938364e+01 -1.434309657068e+02 0.0 
0.0 0.0 -6.495042248524e+01 
-7.889948726558e+01 2.906117114369e+01 0.0 
2.906117114369e+01 -1.576840631846e+02 0.0 
0.0 0.0 -7.057506513504e+01 
-8.673954728600e+01 2.998389381893e+01 0.0 
2.998389381893e+01 -1.750670647987e+02 0.0 
0.0 0.0 -7.814198362541e+01 
-8.317728765794e+01 2.763643583263e+01 0.0 
2.763643583263e+01 -1.716388770426e+02 0.0 
0.0 0.0 -7.604484941015e+01 
-7.548672698676e+01 2.681556406550e+01 0.0 
2.681556406550e+01 -1.547202916682e+02 0.0 
0.0 0.0 -6.866210559649e+01 
-7.959107560668e+01 2.500512634012e+01 0.0 
2.500512634012e+01 -1.683979061226e+02 0.0 
0.0 0.0 -7.399669451878e+01 
-7.204239543165e+01 2.433350796825e+01 0.0 
2.433350796825e+01 -1.518462714884e+02 0.0 
0.0 0.0 -6.676660007601e+01 
-7.596377606896e+01 2.219924169742e+01 0.0 
2.219924169742e+01 -1.649416665754e+02 0.0 
0.0 0.0 -7.187163279330e+01 
-8.276396926879e+01 2.217792652807e+01 0.0 
2.217792652807e+01 -1.804216323375e+02 0.0 
0.0 0.0 -7.855568048190e+01 
-7.916613637511e+01 1.927975625625e+01 0.0 
1.927975625625e+01 -1.763999468923e+02 0.0 
0.0 0.0 -7.626982498022e+01 
-7.225643077213e+01 1.927180016429e+01 0.0 
1.927180016429e+01 -1.610154408361e+02 0.0 
0.0 0.0 -6.958156148247e+01 
-7.556277753169e+01 1.636483937893e+01 0.0 
1.636483937893e+01 -1.719421335464e+02 0.0 
0.0 0.0 -7.385147332341e+01 
-6.848727572850e+01 1.629313371659e+01 0.0 
1.629313371659e+01 -1.565276681061e+02 0.0 
0.0 0.0 -6.710448315038e+01 
-7.198610070855e+01 1.352568097249e+01 0.0 
1.352568097249e+01 -1.670281231598e+02 0.0 
0.0 0.0 -7.130426716050e+01 
-6.467782961051e+01 1.333436657734e+01 0.0 
1.333436657734e+01 -1.514308454498e+02 0.0 
0.0 0.0 -6.443260251810e+01 
-6.838700687594e+01 1.080783790872e+01 0.0 
1.080783790872e+01 -1.615581908011e+02 0.0 
0.0 0.0 -6.858355930312e+01 
-7.682628265822e+01 1.213373514377e+01 0.0 
1.213373514377e+01 -1.785425676767e+02 0.0 
0.0 0.0 -7.621065510049e+01 
-7.344370405183e+01 9.723324441555e+00 0.0 
9.723324441555e+00 -1.730078565562e+02 0.0 
0.0 0.0 -7.353546818241e+01 
-6.482800684783e+01 8.288812804502e+00 0.0 
8.288812804502e+00 -1.556612662082e+02 0.0 
0.0 0.0 -6.574678191682e+01 
-6.998229444571e+01 7.460899400003e+00 0.0 
7.460899400003e+00 -1.669497053782e+02 0.0 
0.0 0.0 -7.067959994717e+01 
-7.898667767645e+01 9.176902756826e+00 0.0 
9.176902756826e+00 -1.850078379282e+02 0.0 
0.0 0.0 -7.879835468139e+01 
-7.544172817048e+01 7.025227254314e+00 0.0 
7.025227254314e+00 -1.785976839456e+02 0.0 
0.0 0.0 -7.581182363482e+01 
-8.430604844331e+01 8.536232199790e+00 0.0 
8.536232199790e+00 -1.965140710212e+02 0.0 
0.0 0.0 -8.389167364075e+01 
-8.066734450765e+01 6.468877232133e+00 0.0 
6.468877232133e+00 -1.897583656709e+02 0.0 
0.0 0.0 -8.072771305358e+01 
-7.184138821090e+01 5.065861639573e+00 0.0 
5.065861639573e+00 -1.717878411794e+02 0.0 
0.0 0.0 -7.268876881709e+01 
-7.695410551221e+01 4.590688125245e+00 0.0 
4.590688125245e+00 -1.825998059277e+02 0.0 
0.0 0.0 -7.746617343198e+01 
-8.573511585575e+01 5.870548652375e+00 0.0 
5.870548652375e+00 -2.005576888561e+02 0.0 
0.0 0.0 -8.557883254582e+01 
-8.191853891453e+01 4.099640572323e+00 0.0 
4.099640572323e+00 -1.930768115032e+02 0.0 
0.0 0.0 -8.211108679246e+01 
-7.314965404821e+01 2.913788466423e+00 0.0 
2.913788466423e+00 -1.750439391891e+02 0.0 
0.0 0.0 -7.405807797119e+01 
-7.803342863546e+01 2.521778520373e+00 0.0 
2.521778520373e+00 -1.852784835308e+02 0.0 
0.0 0.0 -7.859357364986e+01 
-8.682419893499e+01 3.622613784160e+00 0.0 
3.622613784160e+00 -2.034013125828e+02 0.0 
0.0 0.0 -8.680383761153e+01 
-8.284839496840e+01 2.129347222452e+00 0.0 
2.129347222452e+00 -1.953540991091e+02 0.0 
0.0 0.0 -8.308601015552e+01 
-7.406404256394e+01 1.125109715087e+00 0.0 
1.125109715087e+00 -1.771668091660e+02 0.0 
0.0 0.0 -7.496925551898e+01 
-7.878590064603e+01 8.004613584059e-01 0.0 
8.004613584059e-01 -1.870099442383e+02 0.0 
0.0 0.0 -7.933875346531e+01 
-8.761375509534e+01 1.708255428235e+00 0.0 
1.708255428235e+00 -2.053155398516e+02 0.0 
0.0 0.0 -8.766024808449e+01 
-8.343160881814e+01 4.333022296460e-01 0.0 
4.333022296460e-01 -1.966880383241e+02 0.0 
0.0 0.0 -8.367829898852e+01 
-7.462419362408e+01 -3.889755539472e-01 0.0 
-3.889755539472e-01 -1.783677062215e+02 0.0 
0.0 0.0 -7.549756995367e+01 
-7.916141671867e+01 -7.101181880889e-01 0.0 
-7.101181880889e-01 -1.877972927694e+02 0.0 
0.0 0.0 -7.968761284643e+01 
-8.803857436240e+01 2.651126523312e-02 0.0 
2.651126523312e-02 -2.062770827268e+02 0.0 
0.0 0.0 -8.809941896674e+01 
-8.364556370753e+01 -1.052532216612e+00 0.0 
-1.052532216612e+00 -1.971102237265e+02 0.0 
0.0 0.0 -8.387572041014e+01 
-9.258589969812e+01 -3.900668145502e-01 0.0 
-3.900668145502e-01 -2.157331382559e+02 0.0 
0.0 0.0 -9.258034056118e+01 
-7.472397429082e+01 -1.709172640296e+00 0.0 
-1.709172640296e+00 -1.784956136024e+02 0.0 
0.0 0.0 -7.556587636796e+01 
-7.912301609105e+01 -1.975355236773e+00 0.0 
-1.975355236773e+00 -1.876229736653e+02 0.0 
0.0 0.0 -7.962379692691e+01 
-7.013909607407e+01 -2.565310291389e+00 0.0 
-2.565310291389e+00 -1.688405335131e+02 0.0 
0.0 0.0 -7.129388887615e+01 
-7.449970706827e+01 -2.746411083369e+00 0.0 
-2.746411083369e+00 -1.778925024957e+02 0.0 
0.0 0.0 -7.531766286918e+01 
-8.682058990117e+01 2.001761159358e+01 0.0 
2.001761159358e+01 -1.924145467119e+02 0.0 
0.0 0.0 -8.340228352458e+01 
-6.546490016322e+01 -3.254630067027e+00 0.0 
-3.254630067027e+00 -1.589737446271e+02 0.0 
0.0 0.0 -6.693159343710e+01 
-6.122995275456e+01 -3.154450078335e+00 0.0 
-3.154450078335e+00 -1.501682633985e+02 0.0 
0.0 0.0 -6.301946484590e+01 
-6.977969834448e+01 -3.363525872280e+00 0.0 
-3.363525872280e+00 -1.679425005211e+02 0.0 
0.0 0.0 -7.091665965968e+01 
-7.888119299368e+01 -2.931173240574e+00 0.0 
-2.931173240574e+00 -1.869864342260e+02 0.0 
0.0 0.0 -7.936028816590e+01 
-6.066148945365e+01 -3.757490836009e+00 0.0 
-3.757490836009e+00 -1.488352872587e+02 0.0 
0.0 0.0 -6.244903301371e+01 
-6.489826250139e+01 -3.781004718478e+00 0.0 
-3.781004718478e+00 -1.576648612291e+02 0.0 
0.0 0.0 -6.636893711914e+01 
-5.564212221282e+01 -3.990073329665e+00 0.0 
-3.990073329665e+00 -1.382871293953e+02 0.0 
0.0 0.0 -5.777877548244e+01 
-6.093964903506e+01 1.604783698951e+01 0.0 
1.604783698951e+01 -1.401925440536e+02 0.0 
0.0 0.0 -5.993965792660e+01 
-9.732350990111e+01 3.531487009160e+01 0.0 
3.531487009160e+01 -1.855067792113e+02 0.0 
0.0 0.0 -8.446539633404e+01 
-5.975186742434e+01 -3.840185275951e+00 0.0 
-3.840185275951e+00 -1.469024865701e+02 0.0 
0.0 0.0 -6.159630619835e+01 
-5.022139551857e+01 -3.708203008667e+00 0.0 
-3.708203008667e+00 -1.270411956898e+02 0.0 
0.0 0.0 -5.277877736250e+01 
-4.621564138256e+01 -4.022957014895e+00 0.0 
-4.022957014895e+00 -1.185764634000e+02 0.0 
0.0 0.0 -4.903763143478e+01 
-4.059613769174e+01 -3.449105989749e+00 0.0 
-3.449105989749e+00 -1.070079306438e+02 0.0 
0.0 0.0 -4.388122050065e+01 
-7.714203513145e+01 2.077388311782e+01 0.0 
2.077388311782e+01 -8.635234463650e+01 0.0 
0.0 0.0 -4.864831393039e+01 
-8.411359112894e+01 2.317611920132e+01 0.0 
2.317611920132e+01 -1.093325900870e+02 0.0 
0.0 0.0 -5.763385436480e+01 
-7.848798602064e+01 1.869278771877e+01 0.0 
1.869278771877e+01 -9.189686826503e+01 0.0 
0.0 0.0 -5.071545628570e+01 
-8.569981080323e+01 2.170014877015e+01 0.0 
2.170014877015e+01 -1.155259966719e+02 0.0 
0.0 0.0 -5.996774224254e+01 
-8.019863645171e+01 1.729338064311e+01 0.0 
1.729338064311e+01 -9.983837188482e+01 0.0 
0.0 0.0 -5.361110250096e+01 
-4.446223819816e+01 -2.985025576037e+00 0.0 
-2.985025576037e+00 -1.152102395209e+02 0.0 
0.0 0.0 -4.750174331573e+01 
-9.620152623753e+01 3.396690931099e+01 0.0 
3.396690931099e+01 -1.594719832092e+02 0.0 
0.0 0.0 -7.630205283401e+01 
-9.084634172176e+01 2.577447403305e+01 0.0 
2.577447403305e+01 -1.322832272916e+02 0.0 
0.0 0.0 -6.653887070400e+01 
-7.333997355948e+01 3.111358859850e+01 0.0 
3.111358859850e+01 -1.287007867227e+02 0.0 
0.0 0.0 -6.021222808465e+01 
-6.777941217277e+01 2.585677570766e+01 0.0 
2.585677570766e+01 -1.377575903721e+02 0.0 
0.0 0.0 -6.126110076345e+01 
-8.787763611089e+01 1.077714759324e+01 0.0 
1.077714759324e+01 -2.028449059060e+02 0.0 
0.0 0.0 -8.695837910982e+01 
-6.909715728012e+01 -3.745592568264e+00 0.0 
-3.745592568264e+00 -1.664258860595e+02 0.0 
0.0 0.0 -7.025691300190e+01 
-6.380812602942e+01 -3.620919435122e+00 0.0 
-3.620919435122e+00 -1.554116069747e+02 0.0 
0.0 0.0 -6.536591990124e+01 
-7.329542833027e+01 -3.562820145782e+00 0.0 
-3.562820145782e+00 -1.752143857371e+02 0.0 
0.0 0.0 -7.415294422021e+01 
-9.695442876668e+01 7.741461101845e-01 0.0 
7.741461101845e-01 -2.248087553933e+02 0.0 
0.0 0.0 -9.694492487464e+01 
-1.015350404770e+02 2.971714592956e-01 0.0 
2.971714592956e-01 -2.343502025498e+02 0.0 
0.0 0.0 -1.015295906213e+02 
-1.058790039919e+02 1.534721885966e+00 0.0 
1.534721885966e+00 -2.433349105955e+02 0.0 
0.0 0.0 -1.058566865872e+02 
-1.104799937570e+02 1.007745209652e+00 0.0 
1.007745209652e+00 -2.529370746373e+02 0.0 
0.0 0.0 -1.104676794579e+02 
-1.147981573397e+02 2.312093088848e+00 0.0 
2.312093088848e+00 -2.618289429121e+02 0.0 
0.0 0.0 -1.147562595538e+02 
-1.194308095938e+02 1.755750855621e+00 0.0 
1.755750855621e+00 -2.715159520554e+02 0.0 
0.0 0.0 -1.194050761132e+02 
-1.150644995300e+02 5.454640104562e-01 0.0 
5.454640104562e-01 -2.624900857831e+02 0.0 
0.0 0.0 -1.150573635947e+02 
-1.240743908445e+02 1.299460395352e+00 0.0 
1.299460395352e+00 -2.812057463404e+02 0.0 
0.0 0.0 -1.240583449087e+02 
-1.196689916080e+02 1.883484259648e-01 0.0 
1.883484259648e-01 -2.720748036608e+02 0.0 
0.0 0.0 -1.196638296540e+02 
-1.237131476410e+02 3.120873607633e+00 0.0 
3.120873607633e+00 -2.802942052314e+02 0.0 
0.0 0.0 -1.236451409491e+02 
-1.190043957811e+02 3.772790436577e+00 0.0 
3.772790436577e+00 -2.704003598258e+02 0.0 
0.0 0.0 -1.189044704755e+02 
-1.287272787674e+02 9.375051606959e-01 0.0 
9.375051606959e-01 -2.909021831328e+02 0.0 
0.0 0.0 -1.287167915368e+02 
-1.242782433187e+02 -8.702728746903e-02 0.0 
-8.702728746903e-02 -2.816647152558e+02 0.0 
0.0 0.0 -1.242735270255e+02 
-1.333652245432e+02 6.300797161319e-01 0.0 
6.300797161319e-01 -3.005606888635e+02 0.0 
0.0 0.0 -1.333580731048e+02 
-1.288695585797e+02 -3.075770220244e-01 0.0 
-3.075770220244e-01 -2.912152703503e+02 0.0 
0.0 0.0 -1.288646244869e+02 
-1.197160497670e+02 -9.519845236369e-01 0.0 
-9.519845236369e-01 -2.721576592806e+02 0.0 
0.0 0.0 -1.197060056042e+02 
-1.242404145021e+02 -1.076253369578e+00 0.0 
-1.076253369578e+00 -2.815663705145e+02 0.0 
0.0 0.0 -1.242293188648e+02 
-1.150550664892e+02 -1.620880553018e+00 0.0 
-1.620880553018e+00 -2.624273068094e+02 0.0 
0.0 0.0 -1.150339202744e+02 
-9.309858489851e+01 9.984104910389e+00 0.0 
9.984104910389e+00 -2.142764147258e+02 0.0 
0.0 0.0 -9.227386257278e+01 
-9.667611288681e+01 1.228799234364e+01 0.0 
1.228799234364e+01 -2.205130258555e+02 0.0 
0.0 0.0 -9.545998067862e+01 
-1.019060159100e+02 1.143618333871e+01 0.0 
1.143618333871e+01 -2.320415324180e+02 0.0 
0.0 0.0 -1.009005263612e+02 
-1.054923855665e+02 1.379393736531e+01 0.0 
1.379393736531e+01 -2.382014452308e+02 0.0 
0.0 0.0 -1.040646150975e+02 
-1.106972730820e+02 1.285973863598e+01 0.0 
1.285973863598e+01 -2.497683704796e+02 0.0 
0.0 0.0 -1.095095120644e+02 
-1.142817188395e+02 1.526197283449e+01 0.0 
1.526197283449e+01 -2.558426104691e+02 0.0 
0.0 0.0 -1.126451629011e+02 
-1.194478555819e+02 1.424412658727e+01 0.0 
1.424412658727e+01 -2.674175104789e+02 0.0 
0.0 0.0 -1.180800685679e+02 
-1.158005354403e+02 1.190466967594e+01 0.0 
1.190466967594e+01 -2.610315408080e+02 0.0 
0.0 0.0 -1.148228041305e+02 
-9.835451998934e+01 3.596830400768e+01 0.0 
3.596830400768e+01 -1.741261889192e+02 0.0 
0.0 0.0 -8.134421267256e+01 
-6.122105325462e+01 5.945361526297e+00 0.0 
5.945361526297e+00 -1.492443676012e+02 0.0 
0.0 0.0 -6.273962625674e+01 
-5.698437781759e+01 7.701668959261e+00 0.0 
7.701668959261e+00 -1.394290360751e+02 0.0 
0.0 0.0 -5.852402416782e+01 
-5.313718794986e+01 5.154708096659e+00 0.0 
5.154708096659e+00 -1.326132564260e+02 0.0 
0.0 0.0 -5.532513331275e+01 
-4.942518860120e+01 7.562529831607e+00 0.0 
7.562529831607e+00 -1.235328385950e+02 0.0 
0.0 0.0 -5.148740815886e+01 
-4.540070933559e+01 4.916453570115e+00 0.0 
4.916453570115e+00 -1.164824651583e+02 0.0 
0.0 0.0 -4.816495234816e+01 
-4.180466620987e+01 7.417826057609e+00 0.0 
7.417826057609e+00 -1.074848239250e+02 0.0 
0.0 0.0 -4.438684704046e+01 
-3.768176283218e+01 4.837219985705e+00 0.0 
4.837219985705e+00 -1.003212983477e+02 0.0 
0.0 0.0 -4.100091835395e+01 
-4.132471843791e+01 2.498414367997e+00 0.0 
2.498414367997e+00 -1.087703792463e+02 0.0 
0.0 0.0 -4.462852930526e+01 
-3.348541431161e+01 2.431215652673e+00 0.0 
2.431215652673e+00 -9.242795808833e+01 0.0 
0.0 0.0 -3.737401171998e+01 
-3.722164400207e+01 3.294424181740e-01 0.0 
3.294424181740e-01 -1.005239321523e+02 0.0 
0.0 0.0 -4.092367284631e+01 
-2.923391433427e+01 1.659698776955e-01 0.0 
1.659698776955e-01 -8.389838566297e+01 0.0 
0.0 0.0 -3.353968999917e+01 
-3.308873465916e+01 -1.524934765853e+00 0.0 
-1.524934765853e+00 -9.182108541438e+01 0.0 
0.0 0.0 -3.707294602206e+01 
-9.004912310876e+01 2.771209769133e+01 0.0 
2.771209769133e+01 -1.878014593541e+02 0.0 
0.0 0.0 -8.296820926099e+01 
-1.090084034012e+02 1.628596284822e+01 0.0 
1.628596284822e+01 -2.439111561918e+02 0.0 
0.0 0.0 -1.070597083199e+02 
-1.178069382084e+02 1.781867309303e+01 0.0 
1.781867309303e+01 -2.614767592099e+02 0.0 
0.0 0.0 -1.156187124119e+02 
-1.124331073533e+02 1.888916707730e+01 0.0 
1.888916707730e+01 -2.491097184335e+02 0.0 
0.0 0.0 -1.098592146466e+02 
-3.665444053896e+01 -3.867354871274e+00 0.0 
-3.867354871274e+00 -9.862122013069e+01 0.0 
0.0 0.0 -4.018269820090e+01 
-1.334357554982e+02 -4.883416812756e-01 0.0 
-4.883416812756e-01 -3.007124229020e+02 0.0 
0.0 0.0 -1.334302304802e+02 
-1.278910483346e+02 4.656377741373e+00 0.0 
4.656377741373e+00 -2.887607662322e+02 0.0 
0.0 0.0 -1.277501111211e+02 
-1.230972563449e+02 5.391895967839e+00 0.0 
5.391895967839e+00 -2.786275414537e+02 0.0 
0.0 0.0 -1.229041192496e+02 
-1.245286558985e+02 1.321965395440e+01 0.0 
1.321965395440e+01 -2.787061767704e+02 0.0 
0.0 0.0 -1.233943455836e+02 
-3.484671164549e+01 -2.618620628874e+00 0.0 
-2.618620628874e+00 -9.523806605885e+01 0.0 
0.0 0.0 -3.862543331130e+01 
-3.414232239525e+01 7.244494231317e+00 0.0 
7.244494231317e+00 -9.129647353603e+01 0.0 
0.0 0.0 -3.723163877938e+01 
-3.810803936245e+01 9.813915249319e+00 0.0 
9.813915249319e+00 -9.746043973554e+01 0.0 
0.0 0.0 -4.027054372940e+01 
-8.690478012137e+01 2.043944150470e+01 0.0 
2.043944150470e+01 -1.227324161875e+02 0.0 
0.0 0.0 -6.249115889265e+01 
-8.142216800117e+01 1.625615152825e+01 0.0 
1.625615152825e+01 -1.081397766984e+02 0.0 
0.0 0.0 -5.646858340987e+01 
-1.319901013885e+02 6.351179767880e+00 0.0 
6.351179767880e+00 -2.969492876761e+02 0.0 
0.0 0.0 -1.317392193978e+02 
-3.865793294843e+01 -2.139166245988e+00 0.0 
-2.139166245988e+00 -1.032985502214e+02 0.0 
0.0 0.0 -4.218694495096e+01 
-1.330905567759e+02 2.106290483983e+00 0.0 
2.106290483983e+00 -2.999126745627e+02 0.0 
0.0 0.0 -1.330585283350e+02 
-2.562043602904e+01 2.411616530229e+00 0.0 
2.411616530229e+00 -7.599671700744e+01 0.0 
0.0 0.0 -3.008514591094e+01 
-1.287347582746e+02 -1.171365837465e+00 0.0 
-1.171365837465e+00 -2.909133017805e+02 0.0 
0.0 0.0 -1.287228293479e+02 
-1.379926891314e+02 -6.087747730953e-01 0.0 
-6.087747730953e-01 -3.101913054381e+02 0.0 
0.0 0.0 -1.379868979055e+02 
-1.106251589470e+02 -5.103229526618e-01 0.0 
-5.103229526618e-01 -2.532568657979e+02 0.0 
0.0 0.0 -1.106186255398e+02 
-1.212856887516e+02 2.047977925075e+01 0.0 
2.047977925075e+01 -2.667023979985e+02 0.0 
0.0 0.0 -1.184445550168e+02 
-1.158204430412e+02 2.157056880643e+01 0.0 
2.157056880643e+01 -2.539085779907e+02 0.0 
0.0 0.0 -1.125168277673e+02 
-4.161740920640e+01 -7.780943301281e-01 0.0 
-7.780943301281e-01 -1.096692612287e+02 0.0 
0.0 0.0 -4.498600113053e+01 
-3.760574963576e+01 -2.023756134358e+00 0.0 
-2.023756134358e+00 -1.011543446879e+02 0.0 
0.0 0.0 -4.122802829708e+01 
-2.917216484690e+01 -2.849649469356e+00 0.0 
-2.849649469356e+00 -8.332649406082e+01 0.0 
0.0 0.0 -3.334959767232e+01 
-3.416570976555e+01 -3.243307252973e+00 0.0 
-3.243307252973e+00 -9.361386506051e+01 0.0 
0.0 0.0 -3.793387244782e+01 
-4.270007608772e+01 -2.117356922831e+00 0.0 
-2.117356922831e+00 -1.117457789142e+02 0.0 
0.0 0.0 -4.593375650058e+01 
-3.852661584506e+01 -3.332075224681e+00 0.0 
-3.332075224681e+00 -1.027374262481e+02 0.0 
0.0 0.0 -4.197921262796e+01 
-2.973173120090e+01 -4.524980802782e+00 0.0 
-4.524980802782e+00 -8.379297243866e+01 0.0 
0.0 0.0 -3.365741109187e+01 
-3.446289191809e+01 -4.167241725446e+00 0.0 
-4.167241725446e+00 -9.391004165495e+01 0.0 
0.0 0.0 -3.811188007191e+01 
-4.344226606366e+01 -3.063222354034e+00 0.0 
-3.063222354034e+00 -1.130845113045e+02 0.0 
0.0 0.0 -4.655803321044e+01 
-3.918436749961e+01 -3.942543313338e+00 0.0 
-3.942543313338e+00 -1.038998612823e+02 0.0 
0.0 0.0 -4.252526863458e+01 
-3.022961392979e+01 -4.976225580892e+00 0.0 
-4.976225580892e+00 -8.461012494230e+01 0.0 
0.0 0.0 -3.405192166163e+01 
-3.471874162845e+01 -4.523533776673e+00 0.0 
-4.523533776673e+00 -9.429571020635e+01 0.0 
0.0 0.0 -3.830433555044e+01 
-1.425983995640e+02 1.598774818201e-01 0.0 
1.598774818201e-01 -3.197773098421e+02 0.0 
0.0 0.0 -1.425941771636e+02 
-2.180656429699e+01 2.510992775995e-01 0.0 
2.510992775995e-01 -6.732276008434e+01 0.0 
0.0 0.0 -2.633879731440e+01 
-7.542027966205e+01 3.112552877393e+01 0.0 
3.112552877393e+01 -1.133634167659e+02 0.0 
0.0 0.0 -5.623510892838e+01 
-1.367731601922e+02 5.590851343470e+00 0.0 
5.590851343470e+00 -3.070873191526e+02 0.0 
0.0 0.0 -1.365832872605e+02 
-1.280775618841e+02 1.560457423044e+01 0.0 
1.560457423044e+01 -2.848150877418e+02 0.0 
0.0 0.0 -1.265297143714e+02 
-8.771260976429e+01 1.945555357983e+01 0.0 
1.945555357983e+01 -1.307367410962e+02 0.0 
0.0 0.0 -6.513480525815e+01 
-8.238038016466e+01 1.553774868691e+01 0.0 
1.553774868691e+01 -1.171151800916e+02 0.0 
0.0 0.0 -5.944866807689e+01 
-7.541524671634e+01 1.223043962227e+01 0.0 
1.223043962227e+01 -9.483153116721e+01 0.0 
0.0 0.0 -5.067403336507e+01 
-7.674410966792e+01 1.189454685589e+01 0.0 
1.189454685589e+01 -1.047147390683e+02 0.0 
0.0 0.0 -5.403765462086e+01 
-8.306868951941e+01 1.504118572388e+01 0.0 
1.504118572388e+01 -1.266875481353e+02 0.0 
0.0 0.0 -6.252687129642e+01 
-7.786447374662e+01 1.166522383565e+01 0.0 
1.166522383565e+01 -1.148524042621e+02 0.0 
0.0 0.0 -5.741506340263e+01 
-7.092935190113e+01 8.753122962380e+00 0.0 
8.753122962380e+00 -9.332677569157e+01 0.0 
0.0 0.0 -4.887683827781e+01 
-7.257713403803e+01 8.751498392699e+00 0.0 
8.751498392699e+00 -1.038107917458e+02 0.0 
0.0 0.0 -5.251637773514e+01 
-6.517337297151e+01 6.178393142329e+00 0.0 
6.178393142329e+00 -8.273973845752e+01 0.0 
0.0 0.0 -4.397393342871e+01 
-6.732420319584e+01 6.358570680295e+00 0.0 
6.358570680295e+00 -9.346257828975e+01 0.0 
0.0 0.0 -4.783603444568e+01 
-7.406599204570e+01 8.712517571584e+00 0.0 
8.712517571584e+00 -1.144475873014e+02 0.0 
0.0 0.0 -5.615407380414e+01 
-6.931088952723e+01 6.470230453088e+00 0.0 
6.470230453088e+00 -1.043533979023e+02 0.0 
0.0 0.0 -5.169928622886e+01 
-6.220636976844e+01 4.461254648910e+00 0.0 
4.461254648910e+00 -8.371561565424e+01 0.0 
0.0 0.0 -4.337659562680e+01 
-6.466154798363e+01 4.657518274404e+00 0.0 
4.657518274404e+00 -9.466100948568e+01 0.0 
0.0 0.0 -4.739676724079e+01 
-5.731118089204e+01 3.036069191447e+00 0.0 
3.036069191447e+00 -7.427841000028e+01 0.0 
0.0 0.0 -3.907687726770e+01 
-6.020979404074e+01 3.261396283168e+00 0.0 
3.261396283168e+00 -8.516958649752e+01 0.0 
0.0 0.0 -4.321381416148e+01 
-6.700539246948e+01 4.641341746780e+00 0.0 
4.641341746780e+00 -1.057311310525e+02 0.0 
0.0 0.0 -5.142095705660e+01 
-2.936585929124e+01 -1.778302278989e+00 0.0 
-1.778302278989e+00 -8.401267877193e+01 0.0 
0.0 0.0 -3.361356141895e+01 
-1.208501186213e+02 1.094522419022e+01 0.0 
1.094522419022e+01 -2.720962812107e+02 0.0 
0.0 0.0 -1.200542500593e+02 
-1.296442527280e+02 1.220885260258e+01 0.0 
1.220885260258e+01 -2.899688762833e+02 0.0 
0.0 0.0 -1.287114891345e+02 
-6.800932148984e+01 -3.216310115433e+00 0.0 
-3.216310115433e+00 -1.642514439994e+02 0.0 
0.0 0.0 -6.927822964678e+01 
-7.741764216103e+01 -3.199978742564e+00 0.0 
-3.199978742564e+00 -1.835539999459e+02 0.0 
0.0 0.0 -7.789149263207e+01 
-8.265782271794e+01 -3.438320933631e+00 0.0 
-3.438320933631e+00 -1.947531438438e+02 0.0 
0.0 0.0 -8.284847253603e+01 
-8.701229110517e+01 -3.168435371964e+00 0.0 
-3.168435371964e+00 -2.036819799656e+02 0.0 
0.0 0.0 -8.696325007832e+01 
-6.292835541244e+01 3.241228955386e+00 0.0 
3.241228955386e+00 -9.614204441483e+01 0.0 
0.0 0.0 -4.732111994818e+01 
-6.919421673193e+01 4.401757440388e+00 0.0 
4.401757440388e+00 -1.168979674164e+02 0.0 
0.0 0.0 -5.542765524449e+01 
-3.053736166350e+01 9.488350146299e+00 0.0 
9.488350146299e+00 -8.130282072038e+01 0.0 
0.0 0.0 -3.315205471516e+01 
-3.430625119427e+01 1.188515277559e+01 0.0 
1.188515277559e+01 -8.646750570040e+01 0.0 
0.0 0.0 -3.583212706840e+01 
-9.274179032897e+01 2.351213884929e+01 0.0 
2.351213884929e+01 -1.455057594987e+02 0.0 
0.0 0.0 -7.107426494830e+01 
-1.332561129378e+02 -1.184021968933e+00 0.0 
-1.184021968933e+00 -3.003206798258e+02 0.0 
0.0 0.0 -1.332447325877e+02 
-1.239401136429e+02 -1.656774793011e+00 0.0 
-1.656774793011e+00 -2.809142365117e+02 0.0 
0.0 0.0 -1.239201149783e+02 
-6.439192014373e+01 2.348184571028e+01 0.0 
2.348184571028e+01 -1.351472240460e+02 0.0 
0.0 0.0 -5.946174325692e+01 
-6.033650117085e+01 2.499210047875e+01 0.0 
2.499210047875e+01 -1.207631786967e+02 0.0 
0.0 0.0 -5.392990396028e+01 
-5.695364304653e+01 2.274202785911e+01 0.0 
2.274202785911e+01 -1.183342462938e+02 0.0 
0.0 0.0 -5.218636680210e+01 
-5.238942545654e+01 2.376427486763e+01 0.0 
2.376427486763e+01 -1.029899318671e+02 0.0 
0.0 0.0 -4.621380719710e+01 
-5.580479913011e+01 2.579373505849e+01 0.0 
2.579373505849e+01 -1.050380048174e+02 0.0 
0.0 0.0 -4.785284118426e+01 
-4.893235608321e+01 2.159664561142e+01 0.0 
2.159664561142e+01 -1.006964958623e+02 0.0 
0.0 0.0 -4.448865558367e+01 
-1.141762408930e+02 4.451538735742e+00 0.0 
4.451538735742e+00 -2.602282724381e+02 0.0 
0.0 0.0 -1.140347062576e+02 
-7.545916522773e+01 8.578168338503e+00 0.0 
8.578168338503e+00 -1.253641552445e+02 0.0 
0.0 0.0 -5.984699614167e+01 
-4.216052847229e+01 -4.316688567820e+00 0.0 
-4.316688567820e+00 -1.099882005677e+02 0.0 
0.0 0.0 -4.524461871201e+01 
-3.272108500386e+01 -4.320046938442e+00 0.0 
-4.320046938442e+00 -9.018571350110e+01 0.0 
0.0 0.0 -3.647203955149e+01 
-1.425489182044e+02 -6.535241839052e-01 0.0 
-6.535241839052e-01 -3.196693935035e+02 0.0 
0.0 0.0 -1.425430786770e+02 
-1.120744552948e+02 9.692094136537e+00 0.0 
9.692094136537e+00 -2.542433518642e+02 0.0 
0.0 0.0 -1.114093918371e+02 
-9.372040051912e+01 3.012854806833e+01 0.0 
3.012854806833e+01 -1.916892832971e+02 0.0 
0.0 0.0 -8.529835896711e+01 
-9.707670289641e+01 2.786124956589e+01 0.0 
2.786124956589e+01 -2.039953657037e+02 0.0 
0.0 0.0 -9.023946233176e+01 
-1.006561362097e+02 3.015175083325e+01 0.0 
3.015175083325e+01 -2.081943677881e+02 0.0 
0.0 0.0 -9.275287872927e+01 
-1.056751729389e+02 2.918393833639e+01 0.0 
2.918393833639e+01 -2.215758039596e+02 0.0 
0.0 0.0 -9.872651321319e+01 
-1.091416936504e+02 3.135018862796e+01 0.0 
3.135018862796e+01 -2.258454373049e+02 0.0 
0.0 0.0 -1.012375317390e+02 
-1.147166703136e+02 3.090652875130e+01 0.0 
3.090652875130e+01 -2.394540386712e+02 0.0 
0.0 0.0 -1.074658885953e+02 
-1.112436622995e+02 2.855528481371e+01 0.0 
2.855528481371e+01 -2.352342558206e+02 0.0 
0.0 0.0 -1.049684570872e+02 
-1.247169263167e+02 2.321399870343e+01 0.0 
2.321399870343e+01 -2.715128441788e+02 0.0 
0.0 0.0 -1.211201822408e+02 
-1.201686781474e+02 3.022973086094e+01 0.0 
3.022973086094e+01 -2.528697723303e+02 0.0 
0.0 0.0 -1.135912198204e+02 
-5.597634470018e+01 2.108286420803e+00 0.0 
2.108286420803e+00 -7.554329582509e+01 0.0 
0.0 0.0 -3.905589215758e+01 
-1.035589538664e+02 1.727841081774e+01 0.0 
1.727841081774e+01 -2.314818498396e+02 0.0 
0.0 0.0 -1.012554470233e+02 
-4.820906863315e+01 -2.975805217729e+00 0.0 
-2.975805217729e+00 -1.230547079537e+02 0.0 
0.0 0.0 -5.097913297604e+01 
-2.530414514190e+01 -2.129778404219e+00 0.0 
-2.129778404219e+00 -7.543657580538e+01 0.0 
0.0 0.0 -2.982221628419e+01 
-2.536217723721e+01 -5.349977167596e+00 0.0 
-5.349977167596e+00 -7.406537317540e+01 0.0 
0.0 0.0 -2.942826512378e+01 
-3.245924168577e+01 -9.570799872808e-01 0.0 
-9.570799872808e-01 -9.051338522882e+01 0.0 
0.0 0.0 -3.649178807438e+01 
-4.229708430202e+01 -1.527400918231e+00 0.0 
-1.527400918231e+00 -1.109595669660e+02 0.0 
0.0 0.0 -4.557699538041e+01 
-1.408649612758e+02 7.361604217798e+00 0.0 
7.361604217798e+00 -3.152066682038e+02 0.0 
0.0 0.0 -1.405475846960e+02 
-1.181914286082e+02 3.305168391855e+01 0.0 
3.305168391855e+01 -2.438267830580e+02 0.0 
0.0 0.0 -1.100135466302e+02 
-1.125991066887e+02 3.341644213628e+01 0.0 
3.341644213628e+01 -2.301098202218e+02 0.0 
0.0 0.0 -1.037432149856e+02 
-4.684819844781e+01 2.362666498818e+01 0.0 
2.362666498818e+01 -8.660590322050e+01 0.0 
0.0 0.0 -3.963623050049e+01 
-5.039103209166e+01 2.544773345603e+01 0.0 
2.544773345603e+01 -8.878767765359e+01 0.0 
0.0 0.0 -4.135361292358e+01 
-1.300831432010e+02 2.201769583562e+01 0.0 
2.201769583562e+01 -2.842191708880e+02 0.0 
0.0 0.0 -1.269873558838e+02 
-7.239483544565e+01 1.389278701957e+01 0.0 
1.389278701957e+01 -7.666656740297e+01 0.0 
0.0 0.0 -4.431842085459e+01 
-6.283281164386e+01 5.949033513953e+00 0.0 
5.949033513953e+00 -7.218628651972e+01 0.0 
0.0 0.0 -4.010572944907e+01 
-5.660677372903e+01 3.808819070690e+00 0.0 
3.808819070690e+00 -6.201429882668e+01 0.0 
0.0 0.0 -3.518632176672e+01 
-2.188773845918e+01 -3.788854678291e-01 0.0 
-3.788854678291e-01 -6.859990552697e+01 0.0 
0.0 0.0 -2.674629319585e+01 
-2.132831736557e+01 -5.958416824918e+00 0.0 
-5.958416824918e+00 -6.497497813566e+01 0.0 
0.0 0.0 -2.549098865037e+01 
-8.360990526498e+01 1.458307428752e+01 0.0 
1.458307428752e+01 -1.366782974052e+02 0.0 
0.0 0.0 -6.568646080107e+01 
-4.192293162967e+01 1.242710900289e+01 0.0 
1.242710900289e+01 -1.027341849220e+02 0.0 
0.0 0.0 -4.299713496551e+01 
-3.792721249264e+01 1.432443319810e+01 0.0 
1.432443319810e+01 -9.075626239859e+01 0.0 
0.0 0.0 -3.820504246737e+01 
-2.059775678208e+01 2.903041432834e+00 0.0 
2.903041432834e+00 -5.942965108298e+01 0.0 
0.0 0.0 -2.360822235952e+01 
-1.907429854728e+01 1.237545857418e+00 0.0 
1.237545857418e+00 -5.046229505178e+01 0.0 
0.0 0.0 -2.046097807972e+01 
-6.558176428111e+01 2.926856056337e+00 0.0 
2.926856056337e+00 -1.069756159457e+02 0.0 
0.0 0.0 -5.136721406805e+01 
-7.148715781033e+01 3.912264998962e+00 0.0 
3.912264998962e+00 -1.277032164097e+02 0.0 
0.0 0.0 -5.935711226601e+01 
-9.200702327103e+01 -3.066549195155e+00 0.0 
-3.066549195155e+00 -2.142953513010e+02 0.0 
0.0 0.0 -9.192638115156e+01 
-9.639357699167e+01 -2.794939718690e+00 0.0 
-2.794939718690e+00 -2.233352942133e+02 0.0 
0.0 0.0 -9.626406538308e+01 
-1.360055560149e+02 8.211789812622e+00 0.0 
8.211789812622e+00 -3.048248281579e+02 0.0 
0.0 0.0 -1.355995798793e+02 
-3.020435374251e+01 -5.004404214427e+00 0.0 
-5.004404214427e+00 -8.453781601964e+01 0.0 
0.0 0.0 -3.402265092865e+01 
-7.493670617014e+01 5.666400634640e+00 0.0 
5.666400634640e+00 -1.378884832092e+02 0.0 
0.0 0.0 -6.344755681379e+01 
-1.170488466828e+02 8.825498798785e+00 0.0 
8.825498798785e+00 -2.650018717374e+02 0.0 
0.0 0.0 -1.165170138938e+02 
-1.082508476000e+02 7.648116005971e+00 0.0 
7.648116005971e+00 -2.470228328344e+02 0.0 
0.0 0.0 -1.078239635384e+02 
-8.174955011514e+01 -2.875083227823e+00 0.0 
-2.875083227823e+00 -1.913022886165e+02 0.0 
0.0 0.0 -8.151555161950e+01 
-2.640921752066e+01 1.101360678912e+01 0.0 
1.101360678912e+01 -6.987238023249e+01 0.0 
0.0 0.0 -2.848447932595e+01 
-2.319286595595e+01 8.979385884370e+00 0.0 
8.979385884370e+00 -6.488786153107e+01 0.0 
0.0 0.0 -2.602421824611e+01 
-5.245729197895e+01 -2.041494018273e+00 0.0 
-2.041494018273e+00 -1.320945785950e+02 0.0 
0.0 0.0 -5.496556117220e+01 
-3.931352911378e+01 -4.344574896354e+00 0.0 
-4.344574896354e+00 -1.040173847102e+02 0.0 
0.0 0.0 -4.259927414718e+01 
-3.617911554815e+01 -3.775593723653e-01 0.0 
-3.775593723653e-01 -9.831930107677e+01 0.0 
0.0 0.0 -3.994952498748e+01 
-1.448228315458e+02 9.312695111473e+00 0.0 
9.312695111473e+00 -3.228966863851e+02 0.0 
0.0 0.0 -1.443290216457e+02 
-8.821099337577e+01 1.805697407486e+01 0.0 
1.805697407486e+01 -1.487448372475e+02 0.0 
0.0 0.0 -7.068674918697e+01 
-1.167741546268e+02 2.773835429852e+01 0.0 
2.773835429852e+01 -2.488046693663e+02 0.0 
0.0 0.0 -1.111694841267e+02 
-1.078353531410e+02 2.604275747189e+01 0.0 
2.604275747189e+01 -2.311903350017e+02 0.0 
0.0 0.0 -1.025491226378e+02 
-1.256573983986e+02 2.926502814132e+01 0.0 
2.926502814132e+01 -2.665234611780e+02 0.0 
0.0 0.0 -1.198057207039e+02 
-2.128386540831e+01 -5.698428702700e+00 0.0 
-5.698428702700e+00 -6.509650168227e+01 0.0 
0.0 0.0 -2.551411012717e+01 
-1.457813314292e+02 6.587295628052e+00 0.0 
6.587295628052e+00 -3.256478833473e+02 0.0 
0.0 0.0 -1.455333587908e+02 
-1.377666103075e+02 -1.081429461521e+00 0.0 
-1.081429461521e+00 -3.097095299926e+02 0.0 
0.0 0.0 -1.377570960577e+02 
-1.212979833819e+02 3.514035047168e+01 0.0 
3.514035047168e+01 -2.472954944616e+02 0.0 
0.0 0.0 -1.121481785491e+02 
-1.160354144701e+02 3.544140592519e+01 0.0 
3.544140592519e+01 -2.342659645584e+02 0.0 
0.0 0.0 -1.062085626071e+02 
-4.559166976296e+01 1.503575759880e+01 0.0 
1.503575759880e+01 -1.071706332350e+02 0.0 
0.0 0.0 -4.542869089938e+01 
-4.157132936732e+01 1.675644772562e+01 0.0 
1.675644772562e+01 -9.457918983359e+01 0.0 
0.0 0.0 -4.044515576027e+01 
-3.316913865368e+01 1.525564740094e+01 0.0 
1.525564740094e+01 -7.741440440267e+01 0.0 
0.0 0.0 -3.277506291691e+01 
-3.646708976624e+01 1.738449432389e+01 0.0 
1.738449432389e+01 -8.020844362601e+01 0.0 
0.0 0.0 -3.460266001768e+01 
-7.375115502448e+01 2.891981937034e+01 0.0 
2.891981937034e+01 -9.579323118935e+01 0.0 
0.0 0.0 -5.046331586415e+01 
-4.937082900408e+01 1.768185847813e+01 0.0 
1.768185847813e+01 -1.112517946777e+02 0.0 
0.0 0.0 -4.778678710454e+01 
-7.223341019495e+01 3.105989277783e+01 0.0 
3.105989277783e+01 -1.118662222714e+02 0.0 
0.0 0.0 -5.482988973991e+01 
-6.825367207719e+01 3.035391831881e+01 0.0 
3.035391831881e+01 -9.336593976395e+01 0.0 
0.0 0.0 -4.808588355234e+01 
-6.465439754911e+01 3.037274431012e+01 0.0 
3.037274431012e+01 -9.277759743140e+01 0.0 
0.0 0.0 -4.682959849415e+01 
-5.892453605178e+01 2.747422969007e+01 0.0 
2.747422969007e+01 -1.071812333979e+02 0.0 
0.0 0.0 -4.943173083491e+01 
-5.376440034780e+01 2.711155682037e+01 0.0 
2.711155682037e+01 -9.045747790634e+01 0.0 
0.0 0.0 -4.286656347624e+01 
-5.332348472909e+01 1.035191824827e+01 0.0 
1.035191824827e+01 -1.297468871258e+02 0.0 
0.0 0.0 -5.452111155647e+01 
-9.135821933108e+01 1.316524732048e+01 0.0 
1.316524732048e+01 -2.086722564706e+02 0.0 
0.0 0.0 -8.990725178732e+01 
-8.760602339632e+01 -3.141526826138e+00 0.0 
-3.141526826138e+00 -2.051198620349e+02 0.0 
0.0 0.0 -8.760255592437e+01 
-1.105821642118e+02 -1.549701696136e+00 0.0 
-1.549701696136e+00 -2.531241338509e+02 0.0 
0.0 0.0 -1.105615766273e+02 
-1.012105640671e+02 2.081804420565e+00 0.0 
2.081804420565e+00 -2.335752407174e+02 0.0 
0.0 0.0 -1.011726627188e+02 
-7.968373042926e+01 1.111895882012e+01 0.0 
1.111895882012e+01 -1.356518024660e+02 0.0 
0.0 0.0 -6.420065986858e+01 
-8.057589003525e+01 1.068997657905e+01 0.0 
1.068997657905e+01 -1.467225074917e+02 0.0 
0.0 0.0 -6.778951925809e+01 
-5.426257766990e+01 2.687676810778e+00 0.0 
2.687676810778e+00 -6.340886500176e+01 0.0 
0.0 0.0 -3.490143280150e+01 
-4.938667797778e+01 1.674124625342e+00 0.0 
1.674124625342e+00 -5.411607926783e+01 0.0 
0.0 0.0 -3.065082717369e+01 
-2.699192361472e+01 -3.596019506663e+00 0.0 
-3.596019506663e+00 -7.846801886513e+01 0.0 
0.0 0.0 -3.123798274396e+01 
-2.308117035961e+01 -4.187481181795e+00 0.0 
-4.187481181795e+00 -6.992056187367e+01 0.0 
0.0 0.0 -2.750051966998e+01 
-9.710494306787e+01 -7.841816748014e-01 0.0 
-7.841816748014e-01 -2.251230540555e+02 0.0 
0.0 0.0 -9.709582440652e+01 
-1.415361372683e+02 4.911740638305e+00 0.0 
4.911740638305e+00 -3.171386008724e+02 0.0 
0.0 0.0 -1.413926727406e+02 
-9.275887498086e+01 2.252596431713e+01 0.0 
2.252596431713e+01 -1.530202367986e+02 0.0 
0.0 0.0 -7.333373353385e+01 
-9.748318389316e+01 2.669397600457e+01 0.0 
2.669397600457e+01 -1.679801522785e+02 0.0 
0.0 0.0 -7.923900085150e+01 
-9.758144262913e+01 2.757346989357e+01 0.0 
2.757346989357e+01 -1.610507503354e+02 0.0 
0.0 0.0 -7.718965788936e+01 
-1.398406603575e+02 1.025497532113e+01 0.0 
1.025497532113e+01 -3.121558272416e+02 0.0 
0.0 0.0 -1.392246073902e+02 
-5.761450645329e+01 3.853562288148e+00 0.0 
3.853562288148e+00 -1.424391247535e+02 0.0 
0.0 0.0 -5.961608936205e+01 
-9.825115303181e+01 9.217826781624e+00 0.0 
9.217826781624e+00 -2.254665849145e+02 0.0 
0.0 0.0 -9.757946236516e+01 
-1.881521192682e+01 -1.331156949894e+00 0.0 
-1.331156949894e+00 -5.815221820750e+01 0.0 
0.0 0.0 -2.269022904030e+01 
-9.018381029843e+01 2.271015161788e+01 0.0 
2.271015161788e+01 -1.963668037007e+02 0.0 
0.0 0.0 -8.567102770885e+01 
-1.772538431611e+01 -3.309253540183e+00 0.0 
-3.309253540183e+00 -5.834482674481e+01 0.0 
0.0 0.0 -2.242106331828e+01 
-1.004894524247e+02 3.649326047629e+01 0.0 
3.649326047629e+01 -1.880408555139e+02 0.0 
0.0 0.0 -8.615909238158e+01 
-1.471757109592e+02 -6.135235817197e-01 0.0 
-6.135235817197e-01 -3.292948240313e+02 0.0 
0.0 0.0 -1.471700017421e+02 
-1.517838954712e+02 -8.021384866029e-02 0.0 
-8.021384866029e-02 -3.388868758137e+02 0.0 
0.0 0.0 -1.517800474549e+02 
-1.333985472739e+02 2.474457983571e+01 0.0 
2.474457983571e+01 -2.887637807692e+02 0.0 
0.0 0.0 -1.295390756496e+02 
-6.301887403544e+01 2.539465467234e+01 0.0 
2.539465467234e+01 -5.526660698357e+01 0.0 
0.0 0.0 -3.508564430570e+01 
-9.555839446678e+01 2.168793048486e+01 0.0 
2.168793048486e+01 -2.096213754929e+02 0.0 
0.0 0.0 -9.156119069224e+01 
-9.229620210710e+01 1.903613804890e+01 0.0 
1.903613804890e+01 -2.055171954569e+02 0.0 
0.0 0.0 -8.919976741682e+01 
-5.901634747036e+01 2.901116928060e+01 0.0 
2.901116928060e+01 -7.392411966287e+01 0.0 
0.0 0.0 -3.948214013997e+01 
-5.462537554512e+01 2.820441228189e+01 0.0 
2.820441228189e+01 -7.327703718567e+01 0.0 
0.0 0.0 -3.797072381923e+01 
-6.087140278717e+01 2.970943455213e+01 0.0 
2.970943455213e+01 -9.191746287368e+01 0.0 
0.0 0.0 -4.543665969825e+01 
-5.073936879753e+01 2.696408147196e+01 0.0 
2.696408147196e+01 -7.256452987127e+01 0.0 
0.0 0.0 -3.659116960064e+01 
-5.711533531702e+01 -2.085387422747e+00 0.0 
-2.085387422747e+00 -1.417903346727e+02 0.0 
0.0 0.0 -5.927170099693e+01 
-5.273382256892e+01 -2.942489391791e+00 0.0 
-2.942489391791e+00 -1.325013325895e+02 0.0 
0.0 0.0 -5.517054654754e+01 
-1.276704506263e+02 3.486739599128e+01 0.0 
3.486739599128e+01 -2.625803372142e+02 0.0 
0.0 0.0 -1.191791312059e+02 
-1.287770881139e+02 3.171973618375e+01 0.0 
3.171973618375e+01 -2.700613927874e+02 0.0 
0.0 0.0 -1.219670888677e+02 
-1.246650971565e+02 3.716189622174e+01 0.0 
3.716189622174e+01 -2.513567663639e+02 0.0 
0.0 0.0 -1.145597720488e+02 
-1.196893238490e+02 3.752056466784e+01 0.0 
3.752056466784e+01 -2.386940115744e+02 0.0 
0.0 0.0 -1.088334996723e+02 
-1.387291524231e+02 2.344285003989e+01 0.0 
2.344285003989e+01 -3.015116870858e+02 0.0 
0.0 0.0 -1.354081867367e+02 
-1.351452562786e+02 2.073662512033e+01 0.0 
2.073662512033e+01 -2.961534877980e+02 0.0 
0.0 0.0 -1.325051738674e+02 
-4.562184660622e+01 -9.009541427600e-01 0.0 
-9.009541427600e-01 -1.179560225960e+02 0.0 
0.0 0.0 -4.867336076068e+01 
-4.392535775320e+01 2.400838308173e+01 0.0 
2.400838308173e+01 -7.158198051337e+01 0.0 
0.0 0.0 -3.425220147997e+01 
-8.829893712005e+01 1.743313437572e+01 0.0 
1.743313437572e+01 -1.585810014778e+02 0.0 
0.0 0.0 -7.366398157935e+01 
-6.375542846368e+01 2.928437642420e+01 0.0 
2.928437642420e+01 -7.428822485207e+01 0.0 
0.0 0.0 -4.101309599473e+01 
-1.503511261664e+02 5.872264625106e+00 0.0 
5.872264625106e+00 -3.353256269344e+02 0.0 
0.0 0.0 -1.501587609043e+02 
-1.463142325822e+02 4.336104650129e+00 0.0 
4.336104650129e+00 -3.271817130729e+02 0.0 
0.0 0.0 -1.462043140924e+02 
-1.937240102184e+01 6.813718993589e-02 0.0 
6.813718993589e-02 -4.108613223717e+01 0.0 
0.0 0.0 -1.773755997770e+01 
-1.721921802839e+01 -2.934864888103e+00 0.0 
-2.934864888103e+00 -4.802629409293e+01 0.0 
0.0 0.0 -1.917365363640e+01 
-7.691691614423e+01 4.924791791235e+00 0.0 
4.924791791235e+00 -1.491027239294e+02 0.0 
0.0 0.0 -6.740589202209e+01 
-2.893608459504e+01 1.622994502426e+01 0.0 
1.622994502426e+01 -6.285790605027e+01 0.0 
0.0 0.0 -2.713819719359e+01 
-3.150530060172e+01 1.777878162029e+01 0.0 
1.777878162029e+01 -6.433764872311e+01 0.0 
0.0 0.0 -2.835288479745e+01 
-2.600844794051e+01 1.451570137229e+01 0.0 
1.451570137229e+01 -6.056657677945e+01 0.0 
0.0 0.0 -2.557250741599e+01 
-1.669628811783e+02 1.838111873695e-01 0.0 
1.838111873695e-01 -3.704650833882e+02 0.0 
0.0 0.0 -1.669595693979e+02 
-3.149125754065e+01 1.677970012686e-01 0.0 
1.677970012686e-01 -1.586161016269e+01 0.0 
0.0 0.0 -1.380586031100e+01 
-1.565371864231e+02 -8.238390571752e-02 0.0 
-8.238390571752e-02 -3.487755626209e+02 0.0 
0.0 0.0 -1.565335026365e+02 
-6.215529152654e+01 2.897842157779e+01 0.0 
2.897842157779e+01 -1.091268969595e+02 0.0 
0.0 0.0 -5.098465654582e+01 
-8.013317802427e+01 6.875219384322e+00 0.0 
6.875219384322e+00 -1.595505314982e+02 0.0 
0.0 0.0 -7.150511285673e+01 
-1.012146958068e+02 2.086903870072e+01 0.0 
2.086903870072e+01 -2.229486444737e+02 0.0 
0.0 0.0 -9.772412524878e+01 
-6.077083134548e+01 2.094248311789e+01 0.0 
2.094248311789e+01 -1.318499534608e+02 0.0 
0.0 0.0 -5.738623544188e+01 
-1.310987168624e+02 9.136077900893e+00 0.0 
9.136077900893e+00 -2.942729961481e+02 0.0 
0.0 0.0 -1.305809886926e+02 
-7.354255215307e+01 3.175856856347e+00 0.0 
3.175856856347e+00 -1.377680679605e+02 0.0 
0.0 0.0 -6.299318603408e+01 
-7.891124682722e+01 3.887986744326e+00 0.0 
3.887986744326e+00 -1.608697330607e+02 0.0 
0.0 0.0 -7.153429396639e+01 
-5.340583137480e+01 3.399111646411e+00 0.0 
3.399111646411e+00 -5.140220349144e+01 0.0 
0.0 0.0 -3.104241045987e+01 
-4.696100643827e+01 1.940519979164e+00 0.0 
1.940519979164e+00 -4.121730804574e+01 0.0 
0.0 0.0 -2.605349434520e+01 
-5.991467801414e+01 5.679511420086e+00 0.0 
5.679511420086e+00 -6.115341428337e+01 0.0 
0.0 0.0 -3.592042768925e+01 
-2.291294640882e+01 4.901752035534e+00 0.0 
4.901752035534e+00 -6.771710299451e+01 0.0 
0.0 0.0 -2.678901482100e+01 
-1.999469034735e+01 5.441905180305e+00 0.0 
5.441905180305e+00 -4.877043585179e+01 0.0 
0.0 0.0 -2.022953785974e+01 
-7.672861642000e+01 8.203311841279e+00 0.0 
8.203311841279e+00 -1.363246519771e+02 0.0 
0.0 0.0 -6.351598051913e+01 
-5.814818375464e+01 -2.970726921167e+00 0.0 
-2.970726921167e+00 -1.437493962750e+02 0.0 
0.0 0.0 -6.016927400890e+01 
-6.291063976186e+01 -2.632087613433e+00 0.0 
-2.632087613433e+00 -1.534226545065e+02 0.0 
0.0 0.0 -6.449998828049e+01 
-3.432359810492e+01 -4.800025334995e+00 0.0 
-4.800025334995e+00 -9.333186242092e+01 0.0 
0.0 0.0 -3.789663815775e+01 
-4.342762204341e+01 -4.269279253380e+00 0.0 
-4.269279253380e+00 -1.126661004657e+02 0.0 
0.0 0.0 -4.642811675274e+01 
-9.679696593662e+01 -2.663524412087e+00 0.0 
-2.663524412087e+00 -2.243288578964e+02 0.0 
0.0 0.0 -9.673800858242e+01 
-9.237396668427e+01 -2.615289769381e+00 0.0 
-2.615289769381e+00 -2.151274407454e+02 0.0 
0.0 0.0 -9.231490032376e+01 
-1.046063404649e+02 3.606488803650e+01 0.0 
3.606488803650e+01 -2.035732748113e+02 0.0 
0.0 0.0 -9.242234774922e+01 
-1.077700834598e+02 3.755503753251e+01 0.0 
3.755503753251e+01 -2.067027679017e+02 0.0 
0.0 0.0 -9.436838900054e+01 
-9.742991519786e+01 3.226966056326e+01 0.0 
3.226966056326e+01 -1.959626694344e+02 0.0 
0.0 0.0 -8.779170566341e+01 
-1.131888225306e+02 6.875922915078e+00 0.0 
6.875922915078e+00 -2.575839254580e+02 0.0 
0.0 0.0 -1.128556692402e+02 
-1.043611801716e+02 5.790162454242e+00 0.0 
5.790162454242e+00 -2.394648758586e+02 0.0 
0.0 0.0 -1.041075414514e+02 
-9.948246857010e+01 6.483694087105e+00 0.0 
6.483694087105e+00 -2.290814462922e+02 0.0 
0.0 0.0 -9.915275288313e+01 
-8.395722607371e+01 1.341065759918e+01 0.0 
1.341065759918e+01 -1.568049662093e+02 0.0 
0.0 0.0 -7.182865768491e+01 
-8.510202473830e+01 1.271674383261e+01 0.0 
1.271674383261e+01 -1.705027996808e+02 0.0 
0.0 0.0 -7.628144732572e+01 
-6.129567039822e+01 -1.053733177189e+00 0.0 
-1.053733177189e+00 -1.506052120115e+02 0.0 
0.0 0.0 -6.317026472291e+01 
-5.653350155136e+01 -9.629582193809e-01 0.0 
-9.629582193809e-01 -1.407001888980e+02 0.0 
0.0 0.0 -5.877010713481e+01 
-6.154861697160e+01 -2.182682853698e+00 0.0 
-2.182682853698e+00 -1.510097341894e+02 0.0 
0.0 0.0 -6.336750534829e+01 
-9.228579385495e+01 2.104902017125e+01 0.0 
2.104902017125e+01 -1.709646018087e+02 0.0 
0.0 0.0 -7.857511869910e+01 
-1.608565543702e+02 4.908480729749e-01 0.0 
4.908480729749e-01 -3.577579338503e+02 0.0 
0.0 0.0 -1.608518551196e+02 
-1.561839742447e+02 6.908974631735e-01 0.0 
6.908974631735e-01 -3.480325259527e+02 0.0 
0.0 0.0 -1.561776101576e+02 
-1.462820471379e+01 -3.848011898725e+00 0.0 
-3.848011898725e+00 -4.996674667368e+01 0.0 
0.0 0.0 -1.897848541624e+01 
-1.915675016557e+01 -4.714255339191e+00 0.0 
-4.714255339191e+00 -6.099095945344e+01 0.0 
0.0 0.0 -2.364431288570e+01 
-2.148436564076e+01 1.089089541260e+01 0.0 
1.089089541260e+01 -5.357105449106e+01 0.0 
0.0 0.0 -2.211662603954e+01 
-2.052299738901e+01 9.137492619366e+00 0.0 
9.137492619366e+00 -4.894724705638e+01 0.0 
0.0 0.0 -2.044107333362e+01 
-1.019851098217e+02 3.074839723101e+01 0.0 
3.074839723101e+01 -1.831140125781e+02 0.0 
0.0 0.0 -8.512973671992e+01 
-1.025827405082e+02 3.153739318003e+01 0.0 
3.153739318003e+01 -1.778131509094e+02 0.0 
0.0 0.0 -8.371876742528e+01 
-1.017137463833e+02 3.040978309321e+01 0.0 
3.040978309321e+01 -1.923138165761e+02 0.0 
0.0 0.0 -8.780826888779e+01 
-3.900603695272e+01 -7.032624251748e-02 0.0 
-7.032624251748e-02 -1.042347575929e+02 0.0 
0.0 0.0 -4.257223836370e+01 
-1.134163487221e+02 2.521993621805e+01 0.0 
2.521993621805e+01 -2.446248122067e+02 0.0 
0.0 0.0 -1.087224141926e+02 
-1.481466803315e+02 1.149628807967e+01 0.0 
1.149628807967e+01 -3.290652790982e+02 0.0 
0.0 0.0 -1.474107020014e+02 
-1.430723642687e+02 1.252400210084e+01 0.0 
1.252400210084e+01 -3.180022905775e+02 0.0 
0.0 0.0 -1.421717953897e+02 
-1.541277485142e+02 1.069537083361e+01 0.0 
1.069537083361e+01 -3.418821864765e+02 0.0 
0.0 0.0 -1.535133840164e+02 
-1.279748398851e+02 2.585352333100e+01 0.0 
2.585352333100e+01 -2.758050346441e+02 0.0 
0.0 0.0 -1.235712910822e+02 
-1.365599066575e+02 2.729636203108e+01 0.0 
2.729636203108e+01 -2.929377237387e+02 0.0 
0.0 0.0 -1.319204500481e+02 
-1.343853101416e+02 3.075727388761e+01 0.0 
3.075727388761e+01 -2.839396765813e+02 0.0 
0.0 0.0 -1.282932992741e+02 
-2.018421862606e+01 1.948433972690e+00 0.0 
1.948433972690e+00 -3.369938761639e+01 0.0 
0.0 0.0 -1.576508187273e+01 
-7.666231107251e+01 2.520909714746e+00 0.0 
2.520909714746e+00 -1.532424116787e+02 0.0 
0.0 0.0 -6.857141682536e+01 
-4.521763938876e+01 1.278902840866e+00 0.0 
1.278902840866e+00 -4.242792664585e+01 0.0 
0.0 0.0 -2.589366981038e+01 
-2.238157207944e+01 1.025474697558e+00 0.0 
1.025474697558e+00 -2.653895645282e+01 0.0 
0.0 0.0 -1.441654935063e+01 
-4.045189955775e+01 6.714105470433e-01 0.0 
6.714105470433e-01 -3.351125773308e+01 0.0 
0.0 0.0 -2.178894718725e+01 
-4.465665498731e+01 9.885485923153e-01 0.0 
9.885485923153e-01 -4.487718565654e+01 0.0 
0.0 0.0 -2.646015219315e+01 
-3.553929276438e+01 3.364232764336e-01 0.0 
3.364232764336e-01 -2.349229648351e+01 0.0 
0.0 0.0 -1.730947677437e+01 
-2.977934974070e+01 6.148247618557e-02 0.0 
6.148247618557e-02 -8.504411208052e+01 0.0 
0.0 0.0 -3.404703854637e+01 
-4.792160977507e+01 2.778985034995e+00 0.0 
2.778985034995e+00 -3.718997080655e+01 0.0 
0.0 0.0 -2.513347417448e+01 
-5.699827377452e+01 5.769402422502e+00 0.0 
5.769402422502e+00 -5.073789514472e+01 0.0 
0.0 0.0 -3.192085067577e+01 
-1.110983987417e+01 -4.398319947558e+00 0.0 
-4.398319947558e+00 -3.759102910239e+01 0.0 
0.0 0.0 -1.432087395174e+01 
-9.105524250262e+01 1.994855613039e+01 0.0 
1.994855613039e+01 -1.802308721170e+02 0.0 
0.0 0.0 -8.098583438587e+01 
-9.662546968819e+00 -2.668114002439e+00 0.0 
-2.668114002439e+00 -3.913184557532e+01 0.0 
0.0 0.0 -1.423688690610e+01 
-1.252511641945e+01 -2.222622074321e+00 0.0 
-2.222622074321e+00 -4.723339193063e+01 0.0 
0.0 0.0 -1.752755250502e+01 
-1.551788870708e+02 5.244877504763e+00 0.0 
5.244877504763e+00 -3.454980313271e+02 0.0 
0.0 0.0 -1.550285001314e+02 
-1.509766317174e+02 3.746888301551e+00 0.0 
3.746888301551e+00 -3.369702007464e+02 0.0 
0.0 0.0 -1.508957324179e+02 
-1.595826809633e+02 4.688735021075e+00 0.0 
4.688735021075e+00 -3.547588676192e+02 0.0 
0.0 0.0 -1.594646636215e+02 
-1.553255003262e+02 3.259936343477e+00 0.0 
3.259936343477e+00 -3.460811371012e+02 0.0 
0.0 0.0 -1.552654002797e+02 
-1.466926469978e+02 2.488123991254e+00 0.0 
2.488123991254e+00 -3.281870559749e+02 0.0 
0.0 0.0 -1.466535449613e+02 
-1.515166211498e+02 2.176891614952e+00 0.0 
2.176891614952e+00 -3.382487863396e+02 0.0 
0.0 0.0 -1.514861249878e+02 
-4.084039527085e+01 9.478801387455e-01 0.0 
9.478801387455e-01 -3.127749377679e+01 0.0 
0.0 0.0 -2.123536671429e+01 
-1.613890468357e+02 3.202350931752e+00 0.0 
3.202350931752e+00 -3.587074531113e+02 0.0 
0.0 0.0 -1.613329838603e+02 
-1.564907663498e+02 1.857214873333e+00 0.0 
1.857214873333e+00 -3.486185867247e+02 0.0 
0.0 0.0 -1.564674710087e+02 
-1.662336941466e+02 2.809570433822e+00 0.0 
2.809570433822e+00 -3.688209645923e+02 0.0 
0.0 0.0 -1.661890858560e+02 
-4.143227096986e+01 2.326275576006e+01 0.0 
2.326275576006e+01 -5.241284144036e+01 0.0 
0.0 0.0 -2.775353372307e+01 
-3.968625008208e+01 1.951835979063e+01 0.0 
1.951835979063e+01 -8.215107571453e+01 0.0 
0.0 0.0 -3.615119773898e+01 
-3.439352516942e+01 1.938384416109e+01 0.0 
1.938384416109e+01 -6.605805369770e+01 0.0 
0.0 0.0 -2.973547366014e+01 
-2.766119524539e+01 1.792781781457e+01 0.0 
1.792781781457e+01 -4.625021467417e+01 0.0 
0.0 0.0 -2.177342297587e+01 
-1.296676689245e+02 3.951350059819e+01 0.0 
3.951350059819e+01 -2.585008374361e+02 0.0 
0.0 0.0 -1.185031274683e+02 
-1.224746378877e+02 3.931764157671e+01 0.0 
3.931764157671e+01 -2.414976238404e+02 0.0 
0.0 0.0 -1.106479205887e+02 
-1.425218583134e+02 -8.044872803300e-01 0.0 
-8.044872803300e-01 -3.196101569565e+02 0.0 
0.0 0.0 -1.425150629091e+02 
-1.329328448184e+02 -1.073491700879e+00 0.0 
-1.073491700879e+00 -2.996535104377e+02 0.0 
0.0 0.0 -1.329231913056e+02 
-3.973401904885e+01 4.656677739856e-01 0.0 
4.656677739856e-01 -3.466066404641e+01 0.0 
0.0 0.0 -2.191840492858e+01 
-3.883171960159e+01 3.813366989600e-01 0.0 
3.813366989600e-01 -3.361370340320e+01 0.0 
0.0 0.0 -2.133362690144e+01 
-4.610096043123e+01 6.844401040521e-01 0.0 
6.844401040521e-01 -5.153200860640e+01 0.0 
0.0 0.0 -2.888989071129e+01 
-4.466071401872e+01 5.836155185553e-01 0.0 
5.836155185553e-01 -4.906150285248e+01 0.0 
0.0 0.0 -2.771666506136e+01 
-5.160222293868e+01 9.604522929273e-01 0.0 
9.604522929273e-01 -6.720643037378e+01 0.0 
0.0 0.0 -3.524259599374e+01 
-5.025805912225e+01 7.333038997228e-01 0.0 
7.333038997228e-01 -6.446549520067e+01 0.0 
0.0 0.0 -3.401706629688e+01 
-5.705894731778e+01 1.401656472194e+00 0.0 
1.401656472194e+00 -8.311977475632e+01 0.0 
0.0 0.0 -4.165361662223e+01 
-1.375746692430e+02 3.344852007761e+01 0.0 
3.344852007761e+01 -2.873415655058e+02 0.0 
0.0 0.0 -1.304331196316e+02 
-2.522505312019e+01 1.663597337066e+01 0.0 
1.663597337066e+01 -4.622890847472e+01 0.0 
0.0 0.0 -2.103618847847e+01 
-4.973959164233e+01 2.546908164957e+01 0.0 
2.546908164957e+01 -5.332226097740e+01 0.0 
0.0 0.0 -3.051855578592e+01 
-1.437470231643e+02 2.205910928321e+01 0.0 
2.205910928321e+01 -3.134539078786e+02 0.0 
0.0 0.0 -1.409142075974e+02 
-1.395510948749e+02 1.940921442609e+01 0.0 
1.940921442609e+01 -3.065647335650e+02 0.0 
0.0 0.0 -1.373154766558e+02 
-4.713732916420e+01 2.548631112765e+01 0.0 
2.548631112765e+01 -7.187364087966e+01 0.0 
0.0 0.0 -3.530329101316e+01 
-3.597230882066e+01 2.134297576244e+01 0.0 
2.134297576244e+01 -5.164707724320e+01 0.0 
0.0 0.0 -2.588581581916e+01 
-1.555751647673e+02 7.644849244521e+00 0.0 
7.644849244521e+00 -3.458246202816e+02 0.0 
0.0 0.0 -1.552631756845e+02 
-5.314619208573e+01 1.553594771624e+01 0.0 
1.553594771624e+01 -1.235140688226e+02 0.0 
0.0 0.0 -5.259807827249e+01 
-9.593951805328e+01 2.467065361734e+01 0.0 
2.467065361734e+01 -1.968979952997e+02 0.0 
0.0 0.0 -8.765858541833e+01 
-2.057966329680e+01 5.371645266686e+00 0.0 
5.371645266686e+00 -1.360241475838e+01 0.0 
0.0 0.0 -1.021632899566e+01 
-2.071747759153e+01 5.222262742289e+00 0.0 
5.222262742289e+00 -2.967356960850e+01 0.0 
0.0 0.0 -1.482960881485e+01 
-5.690022935251e+01 1.824938203626e+01 0.0 
1.824938203626e+01 -1.277779246663e+02 0.0 
0.0 0.0 -5.500344620565e+01 
-5.720463166978e+01 2.859499759032e+01 0.0 
2.859499759032e+01 -9.116784091734e+01 0.0 
0.0 0.0 -4.411174177614e+01 
-4.321714915110e+01 2.163669631373e+01 0.0 
2.163669631373e+01 -8.432952186245e+01 0.0 
0.0 0.0 -3.786400130406e+01 
-3.784603812123e+01 2.112812978464e+01 0.0 
2.112812978464e+01 -6.829572516922e+01 0.0 
0.0 0.0 -3.144252898713e+01 
-1.220986610276e+02 7.991715007200e+00 0.0 
7.991715007200e+00 -2.758470180617e+02 0.0 
0.0 0.0 -1.216772445947e+02 
-1.614974929783e+01 -5.509167338935e+00 0.0 
-5.509167338935e+00 -5.283201877822e+01 0.0 
0.0 0.0 -2.029453042281e+01 
-2.345256867034e+01 1.278411012349e+01 0.0 
1.278411012349e+01 -5.746147834813e+01 0.0 
0.0 0.0 -2.387421410554e+01 
-5.863439898257e+01 1.873269276412e+00 0.0 
1.873269276412e+00 -8.542634344616e+01 0.0 
0.0 0.0 -4.281822272862e+01 
-2.309407787061e+01 1.426940992355e+01 0.0 
1.426940992355e+01 -4.234450152171e+01 0.0 
0.0 0.0 -1.923157381770e+01 
-1.380755664793e+02 -5.547215075832e-01 0.0 
-5.547215075832e-01 -3.103651072208e+02 0.0 
0.0 0.0 -1.380702276826e+02 
-5.719160994001e+01 1.322102717068e+01 0.0 
1.322102717068e+01 -1.353282052061e+02 0.0 
0.0 0.0 -5.735594454384e+01 
-6.669119570386e+01 2.879323477867e+01 0.0 
2.879323477867e+01 -1.254161896729e+02 0.0 
0.0 0.0 -5.723221561302e+01 
-2.980907973322e+01 1.314618582304e+01 0.0 
1.314618582304e+01 -7.390439658695e+01 0.0 
0.0 0.0 -3.071404289605e+01 
-4.532670401754e+01 1.924016962682e+01 0.0 
1.924016962682e+01 -9.797647764091e+01 0.0 
0.0 0.0 -4.259095449753e+01 
-7.815090296900e+01 3.088857354270e+01 0.0 
3.088857354270e+01 -1.148908228800e+02 0.0 
0.0 0.0 -5.751251775471e+01 
-6.919355813405e+01 2.637423850275e+01 0.0 
2.637423850275e+01 -7.553122002324e+01 0.0 
0.0 0.0 -4.301743344719e+01 
-6.798912660331e+01 2.810867234731e+01 0.0 
2.810867234731e+01 -7.537387558784e+01 0.0 
0.0 0.0 -4.260890065734e+01 
-6.083098448191e+01 1.046070576518e+01 0.0 
1.046070576518e+01 -1.457000344671e+02 0.0 
0.0 0.0 -6.155930568470e+01 
-4.054877009628e+01 2.244895661167e+01 0.0 
2.244895661167e+01 -6.987592656150e+01 0.0 
0.0 0.0 -3.272740899734e+01 
-3.074900524939e+01 1.929133283969e+01 0.0 
1.929133283969e+01 -4.817241881263e+01 0.0 
0.0 0.0 -2.327642721860e+01 
-7.657468844263e+01 3.184975437729e+01 0.0 
3.184975437729e+01 -1.299714301237e+02 0.0 
0.0 0.0 -6.156383556991e+01 
-9.696869969824e+01 2.845986906434e+01 0.0 
2.845986906434e+01 -1.550603648884e+02 0.0 
0.0 0.0 -7.520871937600e+01 
-1.017285840803e+02 3.217226674262e+01 0.0 
3.217226674262e+01 -1.722699658654e+02 0.0 
0.0 0.0 -8.179956498372e+01 
-1.073481394283e+02 3.527392828971e+01 0.0 
3.527392828971e+01 -1.943798505379e+02 0.0 
0.0 0.0 -9.011839698987e+01 
-1.068299481615e+02 3.581305312594e+01 0.0 
3.581305312594e+01 -1.898657942350e+02 0.0 
0.0 0.0 -8.860872271895e+01 
-1.006631266821e+02 3.299562897863e+01 0.0 
3.299562897863e+01 -1.676813917988e+02 0.0 
0.0 0.0 -8.010335554426e+01 
-1.058539138656e+02 3.613799955130e+01 0.0 
3.613799955130e+01 -1.854075512534e+02 0.0 
0.0 0.0 -8.697843953571e+01 
-1.114374692397e+02 3.893939036266e+01 0.0 
3.893939036266e+01 -2.067865010428e+02 0.0 
0.0 0.0 -9.552560550563e+01 
-1.118165719862e+02 3.941741593908e+01 0.0 
3.941741593908e+01 -2.044391656319e+02 0.0 
0.0 0.0 -9.484573116732e+01 
-1.206578096968e+02 4.243805250492e+01 0.0 
4.243805250492e+01 -2.279793502426e+02 0.0 
0.0 0.0 -1.055749901983e+02 
-1.168841468635e+02 4.108275898499e+01 0.0 
4.108275898499e+01 -2.204633735402e+02 0.0 
0.0 0.0 -1.017669123040e+02 
-1.092888048746e+02 3.891322282158e+01 0.0 
3.891322282158e+01 -1.994944316821e+02 0.0 
0.0 0.0 -9.237217879523e+01 
-1.136127325370e+02 3.973712234226e+01 0.0 
3.973712234226e+01 -2.149354444770e+02 0.0 
0.0 0.0 -9.882625799184e+01 
-1.211836876634e+02 4.111917194430e+01 0.0 
4.111917194430e+01 -2.338546261952e+02 0.0 
0.0 0.0 -1.077475527906e+02 
-1.067423892447e+02 3.830765739902e+01 0.0 
3.830765739902e+01 -1.951190948464e+02 0.0 
0.0 0.0 -9.018123759462e+01 
-1.472866447688e+02 2.477263628412e+01 0.0 
2.477263628412e+01 -3.186948747804e+02 0.0 
0.0 0.0 -1.437647879370e+02 
-6.471972725433e+01 1.888234053429e+01 0.0 
1.888234053429e+01 -1.446277070446e+02 0.0 
0.0 0.0 -6.240423028968e+01 
-2.024250257463e+01 3.385716259517e+00 0.0 
3.385716259517e+00 -4.224091523440e+01 0.0 
0.0 0.0 -1.834502534271e+01 
-2.064954998066e+01 7.069743813555e+00 0.0 
7.069743813555e+00 -3.667490269066e+01 0.0 
0.0 0.0 -1.679733580139e+01 
-6.999883051643e+01 3.012411711716e+01 0.0 
3.012411711716e+01 -1.276004212167e+02 0.0 
0.0 0.0 -5.887977551993e+01 
-1.285165170711e+02 4.468963015711e+01 0.0 
4.468963015711e+01 -2.431227811272e+02 0.0 
0.0 0.0 -1.131369910433e+02 
-1.198320889808e+02 4.186239489550e+01 0.0 
4.186239489550e+01 -2.283671570132e+02 0.0 
0.0 0.0 -1.055272787871e+02 
-4.571843183108e+01 1.010881373869e+01 0.0 
1.010881373869e+01 -1.136340796462e+02 0.0 
0.0 0.0 -4.740575344318e+01 
-1.394961452714e+02 4.070393248194e+01 0.0 
4.070393248194e+01 -2.795134763825e+02 0.0 
0.0 0.0 -1.285155630635e+02 
-7.139349107847e+01 2.957076600536e+01 0.0 
2.957076600536e+01 -9.431448084523e+01 0.0 
0.0 0.0 -4.931239157711e+01 
-2.990547118680e+01 4.778708488675e+00 0.0 
4.778708488675e+00 -8.399102176296e+01 0.0 
0.0 0.0 -3.376894788493e+01 
-1.429964863908e+02 3.763703681642e+01 0.0 
3.763703681642e+01 -2.931697611142e+02 0.0 
0.0 0.0 -1.340853879459e+02 
-9.576265197318e+01 2.950864520963e+01 0.0 
2.950864520963e+01 -1.497627287505e+02 0.0 
0.0 0.0 -7.325761421710e+01 
-9.385929767038e+01 3.055802135236e+01 0.0 
3.055802135236e+01 -1.450020881171e+02 0.0 
0.0 0.0 -7.125841573624e+01 
-8.909126735983e+01 2.711359335493e+01 0.0 
2.711359335493e+01 -1.268777406868e+02 0.0 
0.0 0.0 -6.439070241400e+01 
-1.101297880473e+02 3.619195036360e+01 0.0 
3.619195036360e+01 -2.159033871418e+02 0.0 
0.0 0.0 -9.816438972358e+01 
-6.689750841335e+01 8.844803126516e+00 0.0 
8.844803126516e+00 -7.258109950338e+01 0.0 
0.0 0.0 -4.144358237502e+01 
-1.494936962629e+02 3.030901489839e+01 0.0 
3.030901489839e+01 -3.178165570403e+02 0.0 
0.0 0.0 -1.441961556424e+02 
-1.001712608923e+02 1.472662329314e+01 0.0 
1.472662329314e+01 -2.262727648564e+02 0.0 
0.0 0.0 -9.846453998884e+01 
-9.472201746548e+01 1.566190496667e+01 0.0 
1.566190496667e+01 -2.139291158821e+02 0.0 
0.0 0.0 -9.268815390412e+01 
-8.579297010679e+01 1.393089233090e+01 0.0 
1.393089233090e+01 -1.962621901111e+02 0.0 
0.0 0.0 -8.427364604318e+01 
-1.039015544659e+02 3.622392150967e+01 0.0 
3.622392150967e+01 -1.816222442718e+02 0.0 
0.0 0.0 -8.525713962130e+01 
-1.555131373594e+02 2.085628779867e+01 0.0 
2.085628779867e+01 -3.394425894159e+02 0.0 
0.0 0.0 -1.531711398478e+02 
-1.491899840995e+02 1.845391664717e+01 0.0 
1.845391664717e+01 -3.276678969995e+02 0.0 
0.0 0.0 -1.472957519923e+02 
-1.506256447382e+02 1.654671594006e+01 0.0 
1.654671594006e+01 -3.318579172698e+02 0.0 
0.0 0.0 -1.491221051331e+02 
-1.421445502111e+02 1.611333315465e+01 0.0 
1.611333315465e+01 -3.142105035176e+02 0.0 
0.0 0.0 -1.406395971610e+02 
-1.585390849116e+02 1.662464878164e+01 0.0 
1.662464878164e+01 -3.484856248143e+02 0.0 
0.0 0.0 -1.570892833178e+02 
-1.339817195806e+02 4.406867791748e+01 0.0 
4.406867791748e+01 -2.587356111558e+02 0.0 
0.0 0.0 -1.199798837614e+02 
-1.363122162353e+02 4.324973743367e+01 0.0 
4.324973743367e+01 -2.664632600080e+02 0.0 
0.0 0.0 -1.232452174933e+02 
-4.756765145718e+01 -2.123578590824e+00 0.0 
-2.123578590824e+00 -1.218941858554e+02 0.0 
0.0 0.0 -5.043855119376e+01 
-5.164799556462e+01 -8.882856991034e-01 0.0 
-8.882856991034e-01 -1.305378340028e+02 0.0 
0.0 0.0 -5.425574887023e+01 
-6.054884601314e+01 3.168932676587e-01 0.0 
3.168932676587e-01 -1.490833323504e+02 0.0 
0.0 0.0 -6.248965350908e+01 
-5.551286140068e+01 4.403212948623e-01 0.0 
4.403212948623e-01 -1.386051876301e+02 0.0 
0.0 0.0 -5.783541470924e+01 
-4.649452104339e+01 -8.666119901914e-01 0.0 
-8.666119901914e-01 -1.198196523652e+02 0.0 
0.0 0.0 -4.949425202257e+01 
-5.036402681759e+01 4.309750445408e-01 0.0 
4.309750445408e-01 -1.278906523434e+02 0.0 
0.0 0.0 -5.307640374829e+01 
-5.928404013173e+01 1.883848945772e+00 0.0 
1.883848945772e+00 -1.463311556591e+02 0.0 
0.0 0.0 -6.128455873725e+01 
-4.547278129089e+01 8.951975376034e-01 0.0 
8.951975376034e-01 -1.176783647175e+02 0.0 
0.0 0.0 -4.854534380251e+01 
-1.145877666888e+02 3.812786608166e+01 0.0 
3.812786608166e+01 -2.247367942315e+02 0.0 
0.0 0.0 -1.026461504011e+02 
-1.615380899203e+02 1.270591723050e+01 0.0 
1.270591723050e+01 -3.566394138290e+02 0.0 
0.0 0.0 -1.607099899882e+02 
-1.101057314105e+02 2.919201084673e+00 0.0 
2.919201084673e+00 -2.519943865202e+02 0.0 
0.0 0.0 -1.100401371471e+02 
-1.052929545978e+02 3.530009248707e+00 0.0 
3.530009248707e+00 -2.418867089140e+02 0.0 
0.0 0.0 -1.051962757141e+02 
-9.645304344070e+01 2.616785127120e+00 0.0 
2.616785127120e+00 -2.236134617075e+02 0.0 
0.0 0.0 -9.639410532194e+01 
-8.326878243470e+01 -3.058970053290e+00 0.0 
-3.058970053290e+00 -1.961023479151e+02 0.0 
0.0 0.0 -8.345116209857e+01 
-8.798163714346e+01 -2.450127770272e+00 0.0 
-2.450127770272e+00 -2.060054385529e+02 0.0 
0.0 0.0 -8.799890529611e+01 
-9.704966346960e+01 -1.955569387997e+00 0.0 
-1.955569387997e+00 -2.249325757889e+02 0.0 
0.0 0.0 -9.701604017139e+01 
-7.841489741349e+01 -3.490562660372e+00 0.0 
-3.490562660372e+00 -1.859073990881e+02 0.0 
0.0 0.0 -7.889668895048e+01 
-1.022037715971e+02 2.678039743587e+01 0.0 
2.678039743587e+01 -2.174813963195e+02 0.0 
0.0 0.0 -9.627030582780e+01 
-1.627593909530e+02 1.111205058491e+01 0.0 
1.111205058491e+01 -3.597958520004e+02 0.0 
0.0 0.0 -1.621312042152e+02 
-1.033019414629e+02 8.438849214731e+00 0.0 
8.438849214731e+00 -2.363796757949e+02 0.0 
0.0 0.0 -1.027620672073e+02 
-8.354669883582e+01 -2.234669140868e+00 0.0 
-2.234669140868e+00 -1.968003739262e+02 0.0 
0.0 0.0 -8.375135051041e+01 
-4.164183558256e+01 3.471155533858e+00 0.0 
3.471155533858e+00 -1.881059956802e+01 0.0 
0.0 0.0 -1.773573054518e+01 
-5.609658946068e+01 8.481247269322e+00 0.0 
8.481247269322e+00 -3.907073048382e+01 0.0 
0.0 0.0 -2.815019598335e+01 
-6.240038635249e+01 1.365986182360e+01 0.0 
1.365986182360e+01 -4.480549004918e+01 0.0 
0.0 0.0 -3.176176292050e+01 
-6.925060089710e+01 1.509617395073e+01 0.0 
1.509617395073e+01 -6.479727639723e+01 0.0 
0.0 0.0 -3.981436318830e+01 
-5.318323430027e+01 5.879483160975e+00 0.0 
5.879483160975e+00 -3.904884624245e+01 0.0 
0.0 0.0 -2.726962416282e+01 
-1.012290493606e+02 -2.590574020009e+00 0.0 
-2.590574020009e+00 -2.335646219095e+02 0.0 
0.0 0.0 -1.011752165396e+02 
-1.056057558073e+02 -2.429019795016e+00 0.0 
-2.429019795016e+00 -2.426926667442e+02 0.0 
0.0 0.0 -1.055594760304e+02 
-1.007876998477e+02 -2.404173733273e+00 0.0 
-2.404173733273e+00 -2.317244827680e+02 0.0 
0.0 0.0 -1.002889042925e+02 
-1.099293549595e+02 -2.065431508355e+00 0.0 
-2.065431508355e+00 -2.512923672048e+02 0.0 
0.0 0.0 -1.096878255567e+02 
-1.049369302438e+02 -1.737686208808e+00 0.0 
-1.737686208808e+00 -2.393236900209e+02 0.0 
0.0 0.0 -1.039321645849e+02 
-9.635731118059e+01 -1.945106214877e+00 0.0 
-1.945106214877e+00 -2.209133501154e+02 0.0 
0.0 0.0 -9.510429731431e+01 
-1.140313952961e+02 -1.471600740270e+00 0.0 
-1.471600740270e+00 -2.591855211457e+02 0.0 
0.0 0.0 -1.134751174138e+02 
-1.082609954862e+02 -1.119986650596e+00 0.0 
-1.119986650596e+00 -2.459125270115e+02 0.0 
0.0 0.0 -1.070916810116e+02 
-3.676038907763e+01 1.128394722763e+00 0.0 
1.128394722763e+00 -1.738311143377e+01 0.0 
0.0 0.0 -1.584305015342e+01 
-2.287109371455e+01 -2.003922350750e+00 0.0 
-2.003922350750e+00 -1.634229560939e+01 0.0 
0.0 0.0 -1.175387660338e+01 
-1.746686591519e+01 -4.496506273087e+00 0.0 
-4.496506273087e+00 -3.201698462444e+01 0.0 
0.0 0.0 -1.457309798739e+01 
-1.575873049156e+01 -5.664503341968e+00 0.0 
-5.664503341968e+00 -3.221464476455e+01 0.0 
0.0 0.0 -1.412056204001e+01 
-1.521923234658e+01 -6.358170925568e+00 0.0 
-6.358170925568e+00 -4.726148744433e+01 0.0 
0.0 0.0 -1.834421593727e+01 
-1.597514121633e+01 -4.852261119590e+00 0.0 
-4.852261119590e+00 -4.791431940855e+01 0.0 
0.0 0.0 -1.876683818746e+01 
-2.040614294676e+01 -5.313627789379e+00 0.0 
-5.313627789379e+00 -6.350599461501e+01 0.0 
0.0 0.0 -2.477364126853e+01 
-1.893824286040e+01 -4.436754097655e+00 0.0 
-4.436754097655e+00 -6.020709578856e+01 0.0 
0.0 0.0 -2.334360159469e+01 
-1.910942396367e+01 -2.817508752559e+00 0.0 
-2.817508752559e+00 -3.190691480791e+01 0.0 
0.0 0.0 -1.504532798186e+01 
-1.709240231688e+01 -3.886536441994e+00 0.0 
-3.886536441994e+00 -1.642848196523e+01 0.0 
0.0 0.0 -1.004697118789e+01 
-1.396059043769e+01 -6.135396610947e+00 0.0 
-6.135396610947e+00 -3.290701219043e+01 0.0 
0.0 0.0 -1.379704113614e+01 
-1.341620986404e+01 -4.263173945986e+00 0.0 
-4.263173945986e+00 -1.677504611292e+01 0.0 
0.0 0.0 -9.052578118230e+00 
-1.276598178489e+01 -6.221982192418e+00 0.0 
-6.221982192418e+00 -3.368761055835e+01 0.0 
0.0 0.0 -1.367092714670e+01 
-1.626223535680e+01 -6.398305018050e+00 0.0 
-6.398305018050e+00 -5.201956765360e+01 0.0 
0.0 0.0 -2.008454090312e+01 
-2.884317858268e+01 -4.745397291175e+00 0.0 
-4.745397291175e+00 -8.181704483603e+01 0.0 
0.0 0.0 -3.279806702561e+01 
-1.705732947758e+02 1.341089438090e+00 0.0 
1.341089438090e+00 -3.779498331373e+02 0.0 
0.0 0.0 -1.705615665166e+02 
-8.142496699215e+01 -8.411345764967e-01 0.0 
-8.411345764967e-01 -1.888077212693e+02 0.0 
0.0 0.0 -8.066980647844e+01 
-7.651494672506e+01 -1.646127507072e+00 0.0 
-1.646127507072e+00 -1.794113371987e+02 0.0 
0.0 0.0 -7.637788517712e+01 
-6.666200777737e+01 -1.458943906117e+00 0.0 
-1.458943906117e+00 -1.598502381951e+02 0.0 
0.0 0.0 -6.755367379173e+01 
-7.218203583778e+01 -2.227235032793e+00 0.0 
-2.227235032793e+00 -1.714989545557e+02 0.0 
0.0 0.0 -7.270429711804e+01 
-8.528986025063e+01 -1.630904735513e+00 0.0 
-1.630904735513e+00 -1.973004010813e+02 0.0 
0.0 0.0 -8.437707839958e+01 
-6.070118525574e+01 -6.189245832237e-01 0.0 
-6.189245832237e-01 -1.485192241545e+02 0.0 
0.0 0.0 -6.236612282308e+01 
-5.722192988223e+01 -1.070273649960e+00 0.0 
-1.070273649960e+00 -1.417069932962e+02 0.0 
0.0 0.0 -5.927867695353e+01 
-5.213457065485e-03 -6.275218932947e-02 0.0 
-6.275218932947e-02 -1.706572670310e+01 0.0 
0.0 0.0 -3.042242043971e+00 
-4.851219921303e+00 -1.560212837380e-01 0.0 
-1.560212837380e-01 -3.323193292342e+01 0.0 
0.0 0.0 -1.092751869274e+01 
-4.330483038879e+00 -1.699112580312e-01 0.0 
-1.699112580312e-01 -3.212022299148e+01 0.0 
0.0 0.0 -9.979442510195e+00 
-1.305843700529e+01 -5.211702940117e-02 0.0 
-5.211702940117e-02 -5.030617174165e+01 0.0 
0.0 0.0 -1.860938262408e+01 
-1.275041132643e+01 -1.598636596555e-01 0.0 
-1.598636596555e-01 -4.966131666697e+01 0.0 
0.0 0.0 -1.832351839802e+01 
-5.117163885859e+00 -1.277740692948e-01 0.0 
-1.277740692948e-01 -3.378627423723e+01 0.0 
0.0 0.0 -1.134081621082e+01 
-5.023968317701e+00 1.911894706013e-01 0.0 
1.911894706013e-01 -3.358503146634e+01 0.0 
0.0 0.0 -1.121099117015e+01 
1.489454519572e-01 2.307577521326e-01 0.0 
2.307577521326e-01 -1.653584518612e+01 0.0 
0.0 0.0 -2.781210132496e+00 
-5.165131923258e+00 -1.270752332308e-01 0.0 
-1.270752332308e-01 -3.379434875777e+01 0.0 
0.0 0.0 -1.119623196728e+01 
-1.341010598412e+01 -3.484407517833e-01 0.0 
-3.484407517833e-01 -5.097336211614e+01 0.0 
0.0 0.0 -1.891504043008e+01 
1.771161353355e-01 7.149914348173e-02 0.0 
7.149914348173e-02 -1.636442674873e+01 0.0 
0.0 0.0 -3.224335838947e+00 
-6.497169090108e+01 9.249039500448e-01 0.0 
9.249039500448e-01 -1.099632117218e+02 0.0 
0.0 0.0 -5.208047078687e+01 
-6.823286068464e+01 1.932301513025e+00 0.0 
1.932301513025e+00 -1.210674578287e+02 0.0 
0.0 0.0 -5.639009555400e+01 
-1.646048091032e+02 8.074682961610e+00 0.0 
8.074682961610e+00 -3.645605714715e+02 0.0 
0.0 0.0 -1.642771569987e+02 
-3.557341772384e+01 6.164303493607e-01 0.0 
6.164303493607e-01 -1.925629511327e+01 0.0 
0.0 0.0 -1.604891385113e+01 
-6.972833424564e+00 -3.119222912965e+00 0.0 
-3.119222912965e+00 -1.769613983902e+01 0.0 
0.0 0.0 -7.384855622915e+00 
-8.470369041829e+01 8.162760077015e+00 0.0 
8.162760077015e+00 -1.844644141745e+02 0.0 
0.0 0.0 -8.035043137784e+01 
-8.930056557381e+01 1.568436508467e+01 0.0 
1.568436508467e+01 -1.915141467888e+02 0.0 
0.0 0.0 -8.384441370879e+01 
-8.763846189054e+01 1.305567378917e+01 0.0 
1.305567378917e+01 -1.903045397328e+02 0.0 
0.0 0.0 -8.298290048700e+01 
-1.575223175865e+02 -1.443193924884e-01 0.0 
-1.443193924884e-01 -3.508270186426e+02 0.0 
0.0 0.0 -1.575193176218e+02 
-1.619452632533e+02 8.835439460090e-02 0.0 
8.835439460090e-02 -3.600250716725e+02 0.0 
0.0 0.0 -1.619413163367e+02 
-8.347629948644e+01 4.493081186816e+00 0.0 
4.493081186816e+00 -1.841272877204e+02 0.0 
0.0 0.0 -7.988107616206e+01 
-5.144483869045e+01 -4.091168562868e+00 0.0 
-4.091168562868e+00 -1.294907030502e+02 0.0 
0.0 0.0 -5.388066252220e+01 
-1.142045589491e+02 3.971071961516e+01 0.0 
3.971071961516e+01 -2.122606029283e+02 0.0 
0.0 0.0 -9.815189863316e+01 
-7.805376827729e+01 7.626654383031e+00 0.0 
7.626654383031e+00 -1.474950774347e+02 0.0 
0.0 0.0 -6.726465371358e+01 
-2.662021910007e+01 7.134355448872e+00 0.0 
7.134355448872e+00 -7.526954216531e+01 0.0 
0.0 0.0 -3.016692837961e+01 
-4.822028088826e+01 -3.664984078072e+00 0.0 
-3.664984078072e+00 -1.228931801582e+02 0.0 
0.0 0.0 -5.093403831393e+01 
-1.283880902448e+02 -1.491800841389e+00 0.0 
-1.491800841389e+00 -2.901803361420e+02 0.0 
0.0 0.0 -1.283723309153e+02 
-1.151807324292e+02 -7.717922226271e-01 0.0 
-7.717922226271e-01 -2.627277486510e+02 0.0 
0.0 0.0 -1.151722543353e+02 
-1.471356741538e+02 9.847633551452e-03 0.0 
9.847633551452e-03 -3.292177109006e+02 0.0 
0.0 0.0 -1.471319695186e+02 
-1.195156879428e+02 -1.647744437984e+00 0.0 
-1.647744437984e+00 -2.717079424251e+02 0.0 
0.0 0.0 -1.194949603533e+02 
-1.379878031241e+02 3.662462345265e-01 0.0 
3.662462345265e-01 -3.101826157177e+02 0.0 
0.0 0.0 -1.379824906039e+02 
-1.515493360074e+02 1.412115805102e+01 0.0 
1.412115805102e+01 -3.350593289532e+02 0.0 
0.0 0.0 -1.504613020863e+02 
-2.674763091127e+01 1.894078540081e-02 0.0 
1.894078540081e-02 -7.871016131962e+01 0.0 
0.0 0.0 -3.123733766927e+01 
-5.954409206141e+01 4.157243059883e+00 0.0 
4.157243059883e+00 -7.276451873213e+01 0.0 
0.0 0.0 -3.929258323806e+01 
-5.275686108748e+01 1.953470362287e+00 0.0 
1.953470362287e+00 -6.495796878690e+01 0.0 
0.0 0.0 -3.491444896232e+01 
-7.117921862512e+01 6.413400427888e+00 0.0 
6.413400427888e+00 -1.153731309185e+02 0.0 
0.0 0.0 -5.556570486308e+01 
-5.413883723896e+01 -3.354031172656e+00 0.0 
-3.354031172656e+00 -1.353079977365e+02 0.0 
0.0 0.0 -5.643405049265e+01 
-9.180008315177e+01 -2.612900771122e+00 0.0 
-2.612900771122e+00 -2.125220053990e+02 0.0 
0.0 0.0 -9.115023345234e+01 
-3.091362410766e+01 -3.074620419346e+00 0.0 
-3.074620419346e+00 -8.688353657266e+01 0.0 
0.0 0.0 -3.493914820409e+01 
-1.349841897776e+02 3.708036092418e+01 0.0 
3.708036092418e+01 -2.756692220064e+02 0.0 
0.0 0.0 -1.258027554251e+02 
-6.891068473588e+01 3.069133040755e+01 0.0 
3.069133040755e+01 -1.106659605205e+02 0.0 
0.0 0.0 -5.347299357692e+01 
-9.231308493486e+01 1.254025763904e+00 0.0 
1.254025763904e+00 -2.151285953386e+02 0.0 
0.0 0.0 -9.229551015908e+01 
-7.409736217130e+01 -3.474374438479e+00 0.0 
-3.474374438479e+00 -1.769156837479e+02 0.0 
0.0 0.0 -7.490391377577e+01 
-5.642112842728e+01 -3.741723901041e+00 0.0 
-3.741723901041e+00 -1.399926349189e+02 0.0 
0.0 0.0 -5.852412900386e+01 
-4.380298223535e+01 -3.725758975503e+00 0.0 
-3.725758975503e+00 -1.136424455508e+02 0.0 
0.0 0.0 -4.683362833584e+01 
-6.848300897834e+01 2.168699236065e+01 0.0 
2.168699236065e+01 -1.485757061394e+02 0.0 
0.0 0.0 -6.471761453531e+01 
-8.811531840237e+01 -1.390750829667e+00 0.0 
-1.390750829667e+00 -2.063882231765e+02 0.0 
0.0 0.0 -8.816031031630e+01 
-1.283965075826e+02 2.563182684657e+00 0.0 
2.563182684657e+00 -2.901038168201e+02 0.0 
0.0 0.0 -1.283502218987e+02 
-7.295933497647e+01 6.167513935971e+00 0.0 
6.167513935971e+00 -1.265172092696e+02 0.0 
0.0 0.0 -5.944296327382e+01 
-3.050402959313e+00 -1.536502845852e+00 0.0 
-1.536502845852e+00 -1.987989076485e+01 0.0 
0.0 0.0 -6.706904080173e+00 
-1.326342644298e+02 3.987118867195e+00 0.0 
3.987118867195e+00 -2.987488261894e+02 0.0 
0.0 0.0 -1.325325566101e+02 
-1.060794765100e+02 -1.438357320167e-01 0.0 
-1.438357320167e-01 -2.438054831443e+02 0.0 
0.0 0.0 -1.060745384856e+02 
-6.908188848630e+01 8.747059700103e+00 0.0 
8.747059700103e+00 -8.297938372961e+01 0.0 
0.0 0.0 -4.521838166477e+01 
-1.230078237183e+02 1.667589827532e+01 0.0 
1.667589827532e+01 -2.733758355074e+02 0.0 
0.0 0.0 -1.211701415560e+02 
-2.596130714352e+01 -5.240684490313e+00 0.0 
-5.240684490313e+00 -7.541486264103e+01 0.0 
0.0 0.0 -3.001285093536e+01 
-7.886788857256e+01 1.139618801462e+01 0.0 
1.139618801462e+01 -1.252185434444e+02 0.0 
0.0 0.0 -6.082592960508e+01 
-9.637138733915e+01 2.547920845376e+01 0.0 
2.547920845376e+01 -1.744562864205e+02 0.0 
0.0 0.0 -8.084830212789e+01 
-6.462688500689e+01 9.386935898391e+00 0.0 
9.386935898391e+00 -6.239893578496e+01 0.0 
0.0 0.0 -3.770774623756e+01 
-2.132172777686e+01 -2.714808829649e+00 0.0 
-2.714808829649e+00 -6.679376712300e+01 0.0 
0.0 0.0 -2.603464846996e+01 
-5.069593193283e+01 2.268580848078e+00 0.0 
2.268580848078e+00 -5.218276649117e+01 0.0 
0.0 0.0 -3.046360952720e+01 
-1.497095620707e+02 8.406041576132e+00 0.0 
8.406041576132e+00 -3.333776234602e+02 0.0 
0.0 0.0 -1.493180689168e+02 
-9.202737451388e+01 2.455589357883e+01 0.0 
2.455589357883e+01 -1.384250851571e+02 0.0 
0.0 0.0 -6.873573790128e+01 
-4.833827905907e+01 -2.525511813518e+00 0.0 
-2.525511813518e+00 -1.233941871640e+02 0.0 
0.0 0.0 -5.111973986691e+01 
-8.945215989042e+01 7.838007351091e+00 0.0 
7.838007351091e+00 -2.076157260415e+02 0.0 
0.0 0.0 -8.896741633102e+01 
-7.110347206320e+01 2.804338294990e+01 0.0 
2.804338294990e+01 -1.402554596435e+02 0.0 
0.0 0.0 -6.300767951201e+01 
-4.241182050469e+01 1.936021714279e+01 0.0 
1.936021714279e+01 -3.085048140088e+01 0.0 
0.0 0.0 -2.157869057167e+01 
-8.106621562843e+01 9.751892122915e+00 0.0 
9.751892122915e+00 -1.570907360006e+02 0.0 
0.0 0.0 -7.104708548872e+01 
-8.347619819411e+01 1.730739665423e+01 0.0 
1.730739665423e+01 -1.881772950227e+02 0.0 
0.0 0.0 -8.109604796505e+01 
-1.332053104317e+02 1.456664189098e+01 0.0 
1.456664189098e+01 -2.962420033257e+02 0.0 
0.0 0.0 -1.319041149674e+02 
-1.070364996739e+02 1.057298438356e+01 0.0 
1.057298438356e+01 -2.432751972927e+02 0.0 
0.0 0.0 -1.062130769209e+02 
-5.215604671039e+01 -2.043358602527e+00 0.0 
-2.043358602527e+00 -1.314328955425e+02 0.0 
0.0 0.0 -5.467668267588e+01 
-1.420910313760e+02 2.938782030029e+00 0.0 
2.938782030029e+00 -3.185670684278e+02 0.0 
0.0 0.0 -1.420365625846e+02 
-8.244751836358e+01 1.149433486371e+01 0.0 
1.149433486371e+01 -1.909228320333e+02 0.0 
0.0 0.0 -8.161530296682e+01 
-8.409022550439e+01 1.404730470857e+01 0.0 
1.404730470857e+01 -1.469256403380e+02 0.0 
0.0 0.0 -6.890475975272e+01 
-1.042240454317e+02 3.222633787065e+01 0.0 
3.222633787065e+01 -2.125844530817e+02 0.0 
0.0 0.0 -9.533591680702e+01 
-6.645493923072e+01 5.393432568198e+00 0.0 
5.393432568198e+00 -1.604215844307e+02 0.0 
0.0 0.0 -6.766295709841e+01 
-8.801622417814e+01 1.868877774708e+01 0.0 
1.868877774708e+01 -1.393015354666e+02 0.0 
0.0 0.0 -6.779532789341e+01 
-9.164821180082e+01 3.129186879212e+00 0.0 
3.129186879212e+00 -2.135365425874e+02 0.0 
0.0 0.0 -9.156280886555e+01 
-1.265431799973e+02 1.930395452559e+01 0.0 
1.930395452559e+01 -2.789388986150e+02 0.0 
0.0 0.0 -1.241239043256e+02 
-6.554877954822e+01 3.000890466754e+01 0.0 
3.000890466754e+01 -1.098670243163e+02 0.0 
0.0 0.0 -5.222474115935e+01 
-9.026825461160e+01 3.198194777048e+01 0.0 
3.198194777048e+01 -1.789633837442e+02 0.0 
0.0 0.0 -8.036949150674e+01 
-9.532141037439e+01 3.549799602652e+01 0.0 
3.549799602652e+01 -1.711827499514e+02 0.0 
0.0 0.0 -7.955124809775e+01 
-8.638670937984e+01 2.501666124729e+01 0.0 
2.501666124729e+01 -1.841457701445e+02 0.0 
0.0 0.0 -8.075974385729e+01 
-1.233387369978e+02 -1.341004032273e+00 0.0 
-1.341004032273e+00 -2.794641871922e+02 0.0 
0.0 0.0 -1.232207706717e+02 
-1.373684493252e+02 3.431529521339e+00 0.0 
3.431529521339e+00 -3.086809175299e+02 0.0 
0.0 0.0 -1.372939001878e+02 
-2.497275395745e+01 -1.749904298759e+00 0.0 
-1.749904298759e+00 -7.485804169394e+01 0.0 
0.0 0.0 -2.954923869542e+01 
-5.329900390711e+01 2.031269825199e+01 0.0 
2.031269825199e+01 -1.151695823791e+02 0.0 
0.0 0.0 -5.014057588587e+01 
-7.382708760897e+01 1.284766744311e+01 0.0 
1.284766744311e+01 -8.536228135586e+01 0.0 
0.0 0.0 -4.735681068945e+01 
-1.235157758296e+02 3.255025621922e+01 0.0 
3.255025621922e+01 -2.568909124494e+02 0.0 
0.0 0.0 -1.159832865708e+02 
-8.817578148340e+01 1.645197048974e+01 0.0 
1.645197048974e+01 -1.686602557956e+02 0.0 
0.0 0.0 -7.665081118371e+01 
-6.357633542744e+01 2.706413308775e+01 0.0 
2.706413308775e+01 -1.228446677794e+02 0.0 
0.0 0.0 -5.552630096205e+01 
-1.377611995045e+02 1.714146831411e+00 0.0 
1.714146831411e+00 -3.096590593616e+02 0.0 
0.0 0.0 -1.377389543902e+02 
-9.224489251339e+01 2.166933021080e+01 0.0 
2.166933021080e+01 -1.610861663407e+02 0.0 
0.0 0.0 -7.559931765624e+01 
-9.259334997838e+01 -1.699682900308e+00 0.0 
-1.699682900308e+00 -2.156819213300e+02 0.0 
0.0 0.0 -9.256613190770e+01 
-3.219616877387e+01 7.937980450342e-02 0.0 
7.937980450342e-02 -9.007387769706e+01 0.0 
0.0 0.0 -3.628101394128e+01 
-2.142301402238e+01 7.160766398096e+00 0.0 
7.160766398096e+00 -5.903544792950e+01 0.0 
0.0 0.0 -2.373753858557e+01 
-4.929821917258e+01 2.881264255865e+00 0.0 
2.881264255865e+00 -1.253270428240e+02 0.0 
0.0 0.0 -5.198757859896e+01 
-8.015459610101e+01 1.466847372076e+01 0.0 
1.466847372076e+01 -1.835736697452e+02 0.0 
0.0 0.0 -7.871847975386e+01 
-1.016085359826e+02 -1.135227155846e+00 0.0 
-1.135227155846e+00 -2.344766665407e+02 0.0 
0.0 0.0 -1.015945066129e+02 
-1.079540759855e+02 3.574652949826e+01 0.0 
3.574652949826e+01 -2.033048361557e+02 0.0 
0.0 0.0 -9.338313356572e+01 
-1.424061279675e+02 1.368454771389e+00 0.0 
1.368454771389e+00 -3.193426893649e+02 0.0 
0.0 0.0 -1.423906593448e+02 
-1.271309839092e+02 7.177784046663e+00 0.0 
7.177784046663e+00 -2.865986842448e+02 0.0 
0.0 0.0 -1.268014488409e+02 
-2.206695332432e+01 1.334208886767e+01 0.0 
1.334208886767e+01 -2.353643589404e+01 0.0 
0.0 0.0 -1.328101676551e+01 
-5.605264311159e+01 2.619033182050e+01 0.0 
2.619033182050e+01 -5.405457104792e+01 0.0 
0.0 0.0 -3.263216424785e+01 
-1.471039259093e+02 1.098248595817e+00 0.0 
1.098248595817e+00 -3.291281175161e+02 0.0 
0.0 0.0 -1.470925764800e+02 
-9.452436386404e+01 7.166747627429e+00 0.0 
7.166747627429e+00 -2.184908546960e+02 0.0 
0.0 0.0 -9.410493542143e+01 
-1.315294466860e+02 1.804650080533e+01 0.0 
1.804650080533e+01 -2.904993643671e+02 0.0 
0.0 0.0 -1.294957299323e+02 
-9.944096440373e+01 -1.296651720980e+00 0.0 
-1.296651720980e+00 -2.267737902884e+02 0.0 
0.0 0.0 -9.789917285531e+01 
-1.364107425341e+02 3.556395072564e+01 0.0 
3.556395072564e+01 -2.814882931938e+02 0.0 
0.0 0.0 -1.281550161134e+02 
-3.850837828316e+01 2.229215030585e+01 0.0 
2.229215030585e+01 -5.209131824939e+01 0.0 
0.0 0.0 -2.677990895976e+01 
-1.518912882954e+02 8.660262517779e-01 0.0 
8.660262517779e-01 -3.390956865118e+02 0.0 
0.0 0.0 -1.518827015701e+02 
-1.259400520604e+02 1.003852911334e+01 0.0 
1.003852911334e+01 -2.831449883591e+02 0.0 
0.0 0.0 -1.252935903990e+02 
-4.948759805099e+01 1.282702507267e+01 0.0 
1.282702507267e+01 -1.189427090886e+02 0.0 
0.0 0.0 -5.012909214188e+01 
-3.182910872348e+01 1.105533321838e-01 0.0 
1.105533321838e-01 -1.666568152179e+01 0.0 
0.0 0.0 -1.414843707358e+01 
-1.622808945448e+02 1.629135282821e+00 0.0 
1.629135282821e+00 -3.606836835426e+02 0.0 
0.0 0.0 -1.622640931081e+02 
-1.348051862652e+02 1.126881485171e+01 0.0 
1.126881485171e+01 -3.012122733958e+02 0.0 
0.0 0.0 -1.340370846116e+02 
-9.358659868940e+01 2.534779283678e+01 0.0 
2.534779283678e+01 -2.001371371968e+02 0.0 
0.0 0.0 -8.791189762068e+01 
-9.071569168790e+01 5.301219404613e+00 0.0 
5.301219404613e+00 -2.111242261438e+02 0.0 
0.0 0.0 -9.049096742071e+01 
-3.209331813786e+01 1.830114066336e+01 0.0 
1.830114066336e+01 -3.040700283785e+01 0.0 
0.0 0.0 -1.835009629271e+01 
-1.061089584799e+02 -1.400744430869e+00 0.0 
-1.400744430869e+00 -2.438253972832e+02 0.0 
0.0 0.0 -1.060905747201e+02 
-9.387560332911e+01 3.380305755220e+01 0.0 
3.380305755220e+01 -1.827073004475e+02 0.0 
0.0 0.0 -8.258012192528e+01 
-1.048593732289e+02 3.286018786985e+01 0.0 
3.286018786985e+01 -2.104623066882e+02 0.0 
0.0 0.0 -9.472710546191e+01 
-1.381671445904e+02 1.351474483490e+01 0.0 
1.351474483490e+01 -3.072396158735e+02 0.0 
0.0 0.0 -1.370852807834e+02 
-8.672005434346e+01 2.852069096453e+01 0.0 
2.852069096453e+01 -1.222455967392e+02 0.0 
0.0 0.0 -6.228969532480e+01 
-1.014857866801e+02 -2.109851923393e+00 0.0 
-2.109851923393e+00 -2.341504328102e+02 0.0 
0.0 0.0 -1.014487461999e+02 
-1.068358053149e+02 1.990264181813e+01 0.0 
1.990264181813e+01 -2.361346190215e+02 0.0 
0.0 0.0 -1.038297642975e+02 
-1.286326537651e+01 5.320717831945e-02 0.0 
5.320717831945e-02 -4.989903444046e+01 0.0 
0.0 0.0 -1.842868994509e+01 
-4.495607410436e+01 2.428421035792e+01 0.0 
2.428421035792e+01 -5.272095136517e+01 0.0 
0.0 0.0 -2.890310764086e+01 
-1.059310338160e+02 -2.144761185476e+00 0.0 
-2.144761185476e+00 -2.433992918644e+02 0.0 
0.0 0.0 -1.058944789485e+02 
-5.401501014028e+01 2.023723446293e+00 0.0 
2.023723446293e+00 -1.353368668753e+02 0.0 
0.0 0.0 -5.640556310468e+01 
-9.559518022454e+01 4.714153604797e+00 0.0 
4.714153604797e+00 -2.214501203242e+02 0.0 
0.0 0.0 -9.541328422697e+01 
-1.417632690505e+02 2.612006415349e+01 0.0 
2.612006415349e+01 -3.054854671222e+02 0.0 
0.0 0.0 -1.376832702846e+02 
-1.103743416113e+02 -2.119039811939e+00 0.0 
-2.119039811939e+00 -2.526496945439e+02 0.0 
0.0 0.0 -1.103400832298e+02 
-6.290069558968e+01 3.539284281137e+00 0.0 
3.539284281137e+00 -1.535546442982e+02 0.0 
0.0 0.0 -6.453660196637e+01 
-1.147723227842e+02 -2.029317958797e+00 0.0 
-2.029317958797e+00 -2.618109435936e+02 0.0 
0.0 0.0 -1.147420290749e+02 
-2.828522421314e+01 1.750676322825e+01 0.0 
1.750676322825e+01 -3.026112705811e+01 0.0 
0.0 0.0 -1.716390538138e+01 
-9.140826270239e+01 3.150004958039e+01 0.0 
3.150004958039e+01 -1.410004395858e+02 0.0 
0.0 0.0 -6.932261068645e+01 
-1.190050444212e+02 -1.771259730235e+00 0.0 
-1.771259730235e+00 -2.706383301190e+02 0.0 
0.0 0.0 -1.189819370872e+02 
-1.011099542263e+02 3.426815739968e+01 0.0 
3.426815739968e+01 -2.000976925524e+02 0.0 
0.0 0.0 -9.024607263876e+01 
-1.509138058239e+01 -1.556632203133e+00 0.0 
-1.556632203133e+00 -5.404278802490e+01 0.0 
0.0 0.0 -2.034025058219e+01 
-9.885045416057e+01 2.425899377443e+01 0.0 
2.425899377443e+01 -2.135909774235e+02 0.0 
0.0 0.0 -9.391865794453e+01 
-1.521642750718e+02 -4.508862046375e-01 0.0 
-4.508862046375e-01 -3.396755329727e+02 0.0 
0.0 0.0 -1.521595702170e+02 
-6.583727030003e+01 -2.356129416987e+00 0.0 
-2.356129416987e+00 -1.599146989588e+02 0.0 
0.0 0.0 -6.732559077766e+01 
-1.004246181590e+02 4.122876857696e+00 0.0 
4.122876857696e+00 -2.316416888953e+02 0.0 
0.0 0.0 -1.002897894630e+02 
-9.870583977375e+01 3.357085929960e+01 0.0 
3.357085929960e+01 -1.633111844508e+02 0.0 
0.0 0.0 -7.820510726737e+01 
-2.595963590358e+01 1.680967778673e+01 0.0 
1.680967778673e+01 -2.937016456736e+01 0.0 
0.0 0.0 -1.619894014128e+01 
-1.092559767591e+02 5.120974050749e+00 0.0 
5.120974050749e+00 -2.498366175337e+02 0.0 
0.0 0.0 -1.090637575175e+02 
-1.078215699728e+02 3.427750735718e+01 0.0 
3.427750735718e+01 -2.169284659962e+02 0.0 
0.0 0.0 -9.791342884423e+01 
-1.044904189231e+02 2.351209284207e+01 0.0 
2.351209284207e+01 -2.270596856609e+02 0.0 
0.0 0.0 -1.001222065484e+02 
-8.906125030933e+01 1.644847656951e+01 0.0 
1.644847656951e+01 -2.011017517647e+02 0.0 
0.0 0.0 -8.679155396835e+01 
-1.181702348281e+02 6.136986457746e+00 0.0 
6.136986457746e+00 -2.681808099824e+02 0.0 
0.0 0.0 -1.179130963834e+02 
-3.391260474034e+01 2.049456484912e+01 0.0 
2.049456484912e+01 -5.134315662231e+01 0.0 
0.0 0.0 -2.517672840880e+01 
-4.733841190099e+01 -4.206892332353e+00 0.0 
-4.206892332353e+00 -1.208712500497e+02 0.0 
0.0 0.0 -5.006289858522e+01 
-3.820768304746e+01 -4.549375662593e+00 0.0 
-4.549375662593e+00 -1.016099992947e+02 0.0 
0.0 0.0 -4.154530470264e+01 
-6.816431927138e+01 3.287961148614e+00 0.0 
3.287961148614e+00 -1.645836093349e+02 0.0 
0.0 0.0 -6.942437858189e+01 
-1.113687358338e+02 3.635079713995e+01 0.0 
3.635079713995e+01 -2.209685328484e+02 0.0 
0.0 0.0 -1.003777559915e+02 
-2.078700090016e+01 1.011370246714e-01 0.0 
1.011370246714e-01 -6.636556799891e+01 0.0 
0.0 0.0 -2.574577066972e+01 
-1.013082046736e+02 3.627307183628e+01 0.0 
3.627307183628e+01 -1.776496206706e+02 0.0 
0.0 0.0 -8.328734760326e+01 
-2.503738506963e+01 -5.198804027544e+00 0.0 
-5.198804027544e+00 -7.349816027745e+01 0.0 
0.0 0.0 -2.916066360412e+01 
-6.440236421553e+01 1.719909066993e+00 0.0 
1.719909066993e+00 -1.570057288335e+02 0.0 
0.0 0.0 -6.602242791471e+01 
-1.191629068087e+02 2.426851183968e+01 0.0 
2.426851183968e+01 -2.583380308215e+02 0.0 
0.0 0.0 -1.150399471049e+02 
-5.231288001788e+01 5.787558799024e-01 0.0 
5.787558799024e-01 -7.084757473386e+01 0.0 
0.0 0.0 -3.654813642552e+01 
-6.929936030207e+01 1.431988429808e+00 0.0 
1.431988429808e+00 -1.672270804411e+02 0.0 
0.0 0.0 -7.055793222294e+01 
-4.151680399226e+01 2.393958483040e-02 0.0 
2.393958483040e-02 -1.094547235538e+02 0.0 
0.0 0.0 -4.489145826383e+01 
-6.533318928902e+01 1.099090171512e-01 0.0 
1.099090171512e-01 -1.590410430623e+02 0.0 
0.0 0.0 -6.691226970541e+01 
-9.798587546433e+01 1.822998026335e+01 0.0 
1.822998026335e+01 -2.186505021681e+02 0.0 
0.0 0.0 -9.528052915880e+01 
-7.003175433201e+01 -1.145234102255e-01 0.0 
-1.145234102255e-01 -1.688171705675e+02 0.0 
0.0 0.0 -7.125467746984e+01 
-6.588223942819e+01 -1.221821484698e+00 0.0 
-1.221821484698e+00 -1.601381816134e+02 0.0 
0.0 0.0 -6.740612631247e+01 
-8.251321415809e+01 9.051826633703e+00 0.0 
9.051826633703e+00 -1.688022050096e+02 0.0 
0.0 0.0 -7.499462575032e+01 
-7.033790401390e+01 -1.444062264884e+00 0.0 
-1.444062264884e+00 -1.693927107866e+02 0.0 
0.0 0.0 -7.151918444015e+01 
-8.439038878526e+01 2.674267284074e+00 0.0 
2.674267284074e+00 -1.876427359192e+02 0.0 
0.0 0.0 -8.120993741133e+01 
-1.723925645673e+02 6.555517179943e-01 0.0 
6.555517179943e-01 -3.817575487004e+02 0.0 
0.0 0.0 -1.723883431400e+02 
-3.771047195936e+01 2.309278306093e-01 0.0 
2.309278306093e-01 -3.156463381205e+01 0.0 
0.0 0.0 -2.038253173142e+01 
-2.266980691629e+01 1.558781595128e+01 0.0 
1.558781595128e+01 -2.580596511470e+01 0.0 
0.0 0.0 -1.414273160930e+01 
-2.480400664302e+01 1.544732164819e+00 0.0 
1.544732164819e+00 -1.645413097934e+01 0.0 
0.0 0.0 -1.224199381614e+01 
-3.105774692836e+01 1.919848134242e+01 0.0 
1.919848134242e+01 -5.206806050507e+01 0.0 
0.0 0.0 -2.453774223003e+01 
-5.703741064138e+01 -3.013247129896e+00 0.0 
-3.013247129896e+00 -1.414590077118e+02 0.0 
0.0 0.0 -5.914892550595e+01 
-1.036609740753e+02 3.750460442713e+01 0.0 
3.750460442713e+01 -1.911701689207e+02 0.0 
0.0 0.0 -8.804934289882e+01 
-3.811460752570e+01 2.299452066397e-01 0.0 
2.299452066397e-01 -3.227228998630e+01 0.0 
0.0 0.0 -2.071606925360e+01 
-5.236111735778e+01 -3.740122168766e+00 0.0 
-3.740122168766e+00 -1.315184098537e+02 0.0 
0.0 0.0 -5.476385816343e+01 
-1.252537464934e+02 4.257372219192e+01 0.0 
4.257372219192e+01 -2.404265794763e+02 0.0 
0.0 0.0 -1.112024363074e+02 
-1.465029974883e+02 3.426190767422e+01 0.0 
3.426190767422e+01 -3.062031213036e+02 0.0 
0.0 0.0 -1.394549861085e+02 
-6.211959694043e+01 1.433359960259e+00 0.0 
1.433359960259e+00 -9.992869860127e+01 0.0 
0.0 0.0 -4.821448866251e+01 
-1.362742369918e+02 1.695775901783e+01 0.0 
1.695775901783e+01 -3.012930224627e+02 0.0 
0.0 0.0 -1.345402204570e+02 
-1.101743430528e+02 2.259702965800e+01 0.0 
2.259702965800e+01 -2.405803982686e+02 0.0 
0.0 0.0 -1.063569093675e+02 
-7.521670838081e+01 1.297541596836e+00 0.0 
1.297541596836e+00 -1.486840012670e+02 0.0 
0.0 0.0 -6.677021289434e+01 
-3.214484287593e+01 3.451798684582e-01 0.0 
3.451798684582e-01 -1.522791736150e+01 0.0 
0.0 0.0 -1.381182807123e+01 
-1.156991925407e+01 -5.360823792407e+00 0.0 
-5.360823792407e+00 -3.408357954710e+01 0.0 
0.0 0.0 -1.341907681583e+01 
-1.282972633695e+02 -6.589254489455e-01 0.0 
-6.589254489455e-01 -2.896718867982e+02 0.0 
0.0 0.0 -1.281247801609e+02 
-2.203067890067e+01 1.540317464148e+01 0.0 
1.540317464148e+01 -2.517176450188e+01 0.0 
0.0 0.0 -1.376073302077e+01 
-2.668510391113e+01 1.739226877080e+01 0.0 
1.739226877080e+01 -4.685119413326e+01 0.0 
0.0 0.0 -2.166088941332e+01 
-2.396200007498e+01 1.574187034241e+01 0.0 
1.574187034241e+01 -4.484151111035e+01 0.0 
0.0 0.0 -2.024105335560e+01 
-5.490408826009e+01 -1.489549400141e+00 0.0 
-1.489549400141e+00 -1.371126260167e+02 0.0 
0.0 0.0 -5.720501428304e+01 
-1.504476551224e+01 -6.647962443258e+00 0.0 
-6.647962443258e+00 -4.797892133825e+01 0.0 
0.0 0.0 -1.850710605515e+01 
-2.311894619445e+01 1.599128094977e+01 0.0 
1.599128094977e+01 -2.844489849904e+01 0.0 
0.0 0.0 -1.506915340805e+01 
-1.473917483206e+02 2.043532995013e+01 0.0 
2.043532995013e+01 -3.224861177225e+02 0.0 
0.0 0.0 -1.450297200886e+02 
-4.413919630245e+01 1.825073032444e+00 0.0 
1.825073032444e+00 -3.324995635118e+01 0.0 
0.0 0.0 -2.281674579609e+01 
-1.222651917124e+02 2.682455166716e+01 0.0 
2.682455166716e+01 -2.621481373248e+02 0.0 
0.0 0.0 -1.172840252815e+02 
-2.312763989360e+01 1.548072220128e+01 0.0 
1.548072220128e+01 -2.740939478092e+01 0.0 
0.0 0.0 -1.476111040235e+01 
-9.551539219436e+01 2.480171436508e+01 0.0 
2.480171436508e+01 -1.830471219974e+02 0.0 
0.0 0.0 -8.316875425752e+01 
-1.406914652984e+02 2.989202355315e+01 0.0 
2.989202355315e+01 -2.989776665494e+02 0.0 
0.0 0.0 -1.352225843004e+02 
-1.676192810843e+02 5.452897280493e+00 0.0 
5.452897280493e+00 -3.713833473590e+02 0.0 
0.0 0.0 -1.674707772611e+02 
-1.312461352103e+02 2.830081175144e+01 0.0 
2.830081175144e+01 -2.801186190695e+02 0.0 
0.0 0.0 -1.260336897107e+02 
-2.237319326913e+01 1.227014949194e+01 0.0 
1.227014949194e+01 -3.855780656765e+01 0.0 
0.0 0.0 -1.787929995103e+01 
-6.369682260991e+01 1.061590772338e+01 0.0 
1.061590772338e+01 -5.551885055074e+01 0.0 
0.0 0.0 -3.536470194819e+01 
-1.331891470845e+02 3.852799954328e+01 0.0 
3.852799954328e+01 -2.688394457017e+02 0.0 
0.0 0.0 -1.230027449874e+02 
-6.780260465597e+01 2.533397669648e+00 0.0 
2.533397669648e+00 -1.161736745890e+02 0.0 
0.0 0.0 -5.479288377348e+01 
-1.699214362159e+02 3.731064716277e+00 0.0 
3.731064716277e+00 -3.764111811806e+02 0.0 
0.0 0.0 -1.698504266872e+02 
-4.697930625921e+01 3.084390219068e+00 0.0 
3.084390219068e+00 -3.164985443227e+01 0.0 
0.0 0.0 -2.318874820744e+01 
-8.127446488799e+01 5.764569811552e+00 0.0 
5.764569811552e+00 -1.706261863397e+02 0.0 
0.0 0.0 -7.517019536832e+01 
-2.095501233968e+01 -3.285879423653e+00 0.0 
-3.285879423653e+00 -6.590994560317e+01 0.0 
0.0 0.0 -2.565948738286e+01 
-8.045282051525e+01 2.870056914537e+00 0.0 
2.870056914537e+00 -1.704341526575e+02 0.0 
0.0 0.0 -7.486609195182e+01 
-1.108600040932e+02 3.881423465782e+01 0.0 
3.881423465782e+01 -2.105854025226e+02 0.0 
0.0 0.0 -9.655575349240e+01 
-4.877075503576e+01 1.129200878568e+00 0.0 
1.129200878568e+00 -5.643364919214e+01 0.0 
0.0 0.0 -3.116132126837e+01 
-7.011027083140e+01 1.823484384458e+01 0.0 
1.823484384458e+01 -6.575080004488e+01 0.0 
0.0 0.0 -4.035832126289e+01 
-1.658532988917e+02 5.267567411118e-01 0.0 
5.267567411118e-01 -3.681528664365e+02 0.0 
0.0 0.0 -1.658486969742e+02 
-1.195501004827e+02 4.252251966567e+01 0.0 
4.252251966567e+01 -2.254055496812e+02 0.0 
0.0 0.0 -1.044390997302e+02 
-2.120019500509e+01 9.639887302001e+00 0.0 
9.639887302001e+00 -3.374969430052e+01 0.0 
0.0 0.0 -1.608496679168e+01 
-6.261314809546e+01 1.873348457408e+00 0.0 
1.873348457408e+00 -9.887747484233e+01 0.0 
0.0 0.0 -4.804718688134e+01 
-7.245223140391e+01 -2.874213384665e+00 0.0 
-2.874213384665e+00 -1.729086757606e+02 0.0 
0.0 0.0 -7.320827214936e+01 
-2.127755159253e+01 -7.334316263367e-01 0.0 
-7.334316263367e-01 -2.924033757152e+01 0.0 
0.0 0.0 -1.494780652018e+01 
-1.580202716833e+02 6.499228288054e+00 0.0 
6.499228288054e+00 -3.511871931910e+02 0.0 
0.0 0.0 -1.577979054002e+02 
-1.174900403140e+02 3.956896616899e+01 0.0 
3.956896616899e+01 -2.284550387229e+02 0.0 
0.0 0.0 -1.047954731677e+02 
-1.639654910904e+02 1.062013205847e+00 0.0 
1.062013205847e+00 -3.642153180117e+02 0.0 
0.0 0.0 -1.639575200996e+02 
-1.280514998910e+01 -9.800219599350e-02 0.0 
-9.800219599350e-02 -4.976028052728e+01 0.0 
0.0 0.0 -1.836962915491e+01 
-8.303190189029e+00 -3.284825625274e+00 0.0 
-3.284825625274e+00 -3.249537880150e+01 0.0 
0.0 0.0 -1.192148918701e+01 
-1.570872287742e+02 9.385921843334e+00 0.0 
9.385921843334e+00 -3.485046723134e+02 0.0 
0.0 0.0 -1.566241281483e+02 
-1.299857455565e+02 4.122097344256e+01 0.0 
4.122097344256e+01 -2.555871595641e+02 0.0 
0.0 0.0 -1.176604766757e+02 
-2.601560481263e+01 -4.143235735431e+00 0.0 
-4.143235735431e+00 -7.614237790229e+01 0.0 
0.0 0.0 -3.024739481448e+01 
-9.446444897689e+01 2.243575580034e+01 0.0 
2.243575580034e+01 -2.007841633087e+02 0.0 
0.0 0.0 -8.831191556867e+01 
-2.020572835529e+01 7.905066456416e+00 0.0 
7.905066456416e+00 -2.366251011373e+01 0.0 
0.0 0.0 -1.284227552575e+01 
-3.199512521945e+01 1.001272072502e-01 0.0 
1.001272072502e-01 -1.316083220335e+01 0.0 
0.0 0.0 -1.314678722684e+01 
-5.626319775242e+00 -1.005056006453e+00 0.0 
-1.005056006453e+00 -3.327568651558e+01 0.0 
0.0 0.0 -1.144637149192e+01 
-1.710283454953e+02 2.795706613456e+00 0.0 
2.795706613456e+00 -3.788045667859e+02 0.0 
0.0 0.0 -1.709867823853e+02 
-8.715443662012e+01 1.517936710892e+01 0.0 
1.517936710892e+01 -1.755759433627e+02 0.0 
0.0 0.0 -7.841911399484e+01 
-8.106578198860e+01 -2.279972055142e+00 0.0 
-2.279972055142e+00 -1.888803769951e+02 0.0 
0.0 0.0 -8.058384769512e+01 
-5.333641175688e+01 1.174884109122e+01 0.0 
1.174884109122e+01 -2.734422128997e+01 0.0 
0.0 0.0 -2.380418991406e+01 
-4.806438636218e+01 -4.468409109881e-01 0.0 
-4.468409109881e-01 -1.230726200531e+02 0.0 
0.0 0.0 -5.094110192457e+01 
-1.308866946405e+02 3.366444094308e+01 0.0 
3.366444094308e+01 -2.719161188372e+02 0.0 
0.0 0.0 -1.232540924090e+02 
-1.453987539838e+01 -6.305319111206e+00 0.0 
-6.305319111206e+00 -4.762359454582e+01 0.0 
0.0 0.0 -1.824904098326e+01 
-8.468503897975e+01 1.108525114024e+01 0.0 
1.108525114024e+01 -1.755137918128e+02 0.0 
0.0 0.0 -7.765964923777e+01 
-1.549989503775e+02 1.276598468294e+01 0.0 
1.276598468294e+01 -3.429119254009e+02 0.0 
0.0 0.0 -1.541305162772e+02 
-1.057817162617e+02 3.407051073428e+01 0.0 
3.407051073428e+01 -2.030751620101e+02 0.0 
0.0 0.0 -9.253392619590e+01 
-1.541715780649e+02 2.589886084202e+01 0.0 
2.589886084202e+01 -3.324893121544e+02 0.0 
0.0 0.0 -1.504782567922e+02 
-2.175721126812e+01 3.158999909552e+00 0.0 
3.158999909552e+00 -2.755994867104e+01 0.0 
0.0 0.0 -1.449700228867e+01 
-1.413645356601e+02 3.217131986744e+01 0.0 
3.217131986744e+01 -2.975910257785e+02 0.0 
0.0 0.0 -1.349909267324e+02 
-1.451288328741e+02 1.449934963100e+01 0.0 
1.449934963100e+01 -3.213846134467e+02 0.0 
0.0 0.0 -1.439374756784e+02 
-3.161542719282e+01 -6.792271467440e-02 0.0 
-6.792271467440e-02 -1.500513052041e+01 0.0 
0.0 0.0 -1.358616731397e+01 
-1.122418288170e+02 3.854732811201e+01 0.0 
3.854732811201e+01 -2.136395909131e+02 0.0 
0.0 0.0 -9.803466033289e+01 
-6.292953018512e+01 -2.022084927767e+00 0.0 
-2.022084927767e+00 -1.530043880349e+02 0.0 
0.0 0.0 -6.438017546601e+01 
-2.125392205273e+01 -1.155412510744e+00 0.0 
-1.155412510744e+00 -6.723637405381e+01 0.0 
0.0 0.0 -2.614708883196e+01 
-8.446452527041e+01 1.423408447186e+00 0.0 
1.423408447186e+00 -1.895967162273e+02 0.0 
0.0 0.0 -8.181837244932e+01 
6.598945081642e-01 -1.499637858846e-01 0.0 
-1.499637858846e-01 -1.423896289551e+01 0.0 
0.0 0.0 -1.124747526973e+00 
-3.079743459278e+01 5.726000703258e-02 0.0 
5.726000703258e-02 -1.387166062108e+01 0.0 
0.0 0.0 -1.300072856416e+01 
-1.746719737061e+02 1.786846698350e-01 0.0 
1.786846698350e-01 -3.865082834910e+02 0.0 
0.0 0.0 -1.746706491672e+02 
-1.897557410752e+01 -1.415561587394e-01 0.0 
-1.415561587394e-01 -6.259188230250e+01 0.0 
0.0 0.0 -2.407023692301e+01 
-4.343462100139e+01 4.494352982203e-01 0.0 
4.494352982203e-01 -4.596962455621e+01 0.0 
0.0 0.0 -2.642127366728e+01 
-1.284104828792e+02 4.213254161452e+01 0.0 
4.213254161452e+01 -2.495599711459e+02 0.0 
0.0 0.0 -1.151923735856e+02 
-1.018044895382e+02 -6.142568550990e-01 0.0 
-6.142568550990e-01 -2.317602282734e+02 0.0 
0.0 0.0 -1.002938829616e+02 
-7.237509776011e+01 2.246889969934e+00 0.0 
2.246889969934e+00 -1.367733830881e+02 0.0 
0.0 0.0 -6.234454425446e+01 
-1.862803704979e+01 -6.148472323244e+00 0.0 
-6.148472323244e+00 -5.899088317567e+01 0.0 
0.0 0.0 -2.288567606764e+01 
-2.606704116205e+01 4.007443640940e-01 0.0 
4.007443640940e-01 -1.400066978093e+01 0.0 
0.0 0.0 -1.203758592043e+01 
-5.608386569077e+01 1.039999775857e+00 0.0 
1.039999775857e+00 -8.128939100853e+01 0.0 
0.0 0.0 -4.081197700979e+01 
-1.438310356315e+02 2.829709923076e+01 0.0 
2.829709923076e+01 -3.077013366528e+02 0.0 
0.0 0.0 -1.390739343470e+02 
-9.898589290540e+01 2.831816301434e+01 0.0 
2.831816301434e+01 -1.930372350858e+02 0.0 
0.0 0.0 -8.721534683761e+01 
-5.244556596295e+01 1.242931737298e+00 0.0 
1.242931737298e+00 -6.737606581960e+01 0.0 
0.0 0.0 -3.554648953476e+01 
-2.068576474700e+01 7.588701998909e+00 0.0 
7.588701998909e+00 -4.555211725047e+01 0.0 
0.0 0.0 -1.947136459924e+01 
-1.240586284868e+02 4.067621679796e+01 0.0 
4.067621679796e+01 -2.422476985377e+02 0.0 
0.0 0.0 -1.114056648607e+02 
-8.860150779770e+01 -2.132160097222e+00 0.0 
-2.132160097222e+00 -2.044069609580e+02 0.0 
0.0 0.0 -8.750254062671e+01 
-1.283268964440e+02 3.672968916032e+01 0.0 
3.672968916032e+01 -2.608149470827e+02 0.0 
0.0 0.0 -1.188191171981e+02 
-1.427781944892e+02 1.829481660130e+01 0.0 
1.829481660130e+01 -3.142005015193e+02 0.0 
0.0 0.0 -1.408420599481e+02 
-1.965048351228e+01 8.498638536346e+00 0.0 
8.498638536346e+00 -1.303987973558e+01 0.0 
0.0 0.0 -9.674187951465e+00 
-1.099620408039e+02 -5.557294835822e-01 0.0 
-5.557294835822e-01 -2.494865244403e+02 0.0 
0.0 0.0 -1.088080353457e+02 
-5.955116190826e+00 -1.550407697213e+00 0.0 
-1.550407697213e+00 -3.131340139113e+01 0.0 
0.0 0.0 -1.088210682409e+01 
-1.624677938737e+02 4.239431392820e+00 0.0 
4.239431392820e+00 -3.608373382182e+02 0.0 
0.0 0.0 -1.623746525027e+02 
-9.261945763285e+01 -1.496910456521e+00 0.0 
-1.496910456521e+00 -2.126272821681e+02 0.0 
0.0 0.0 -9.125781399214e+01 

TENSORS node_materi_strain_total float
1.605963743920e-03 -4.895993269910e-06 0.0 
-4.895993269910e-06 -5.935290937262e-04 0.0 
0.0 0.0 0.0 
-1.564537020040e-03 -2.549554818046e-05 0.0 
-2.549554818046e-05 1.467773006658e-02 0.0 
0.0 0.0 0.0 
2.953408135198e-05 3.475480482047e-05 0.0 
3.475480482047e-05 7.414990768003e-03 0.0 
0.0 0.0 0.0 
-1.164623088725e-04 5.384488489471e-05 0.0 
5.384488489471e-05 1.759689021996e-02 0.0 
0.0 0.0 0.0 
1.538969596116e-03 -1.400597965396e-05 0.0 
-1.400597965396e-05 -6.546677266704e-04 0.0 
0.0 0.0 0.0 
1.471879117952e-03 -9.986166212620e-06 0.0 
-9.986166212620e-06 -4.578242018401e-04 0.0 
0.0 0.0 0.0 
1.305034907830e-03 6.108150183964e-06 0.0 
6.108150183964e-06 4.768738069857e-05 0.0 
0.0 0.0 0.0 
1.109344909436e-03 1.150519470391e-05 0.0 
1.150519470391e-05 6.826074314740e-04 0.0 
0.0 0.0 0.0 
8.416262519351e-04 -2.279892249279e-07 0.0 
-2.279892249279e-07 1.344371586486e-03 0.0 
0.0 0.0 0.0 
5.388121107602e-04 -8.361474875428e-06 0.0 
-8.361474875428e-06 2.037061533122e-03 0.0 
0.0 0.0 0.0 
2.722902705659e-04 -2.002746419841e-05 0.0 
-2.002746419841e-05 2.674640474550e-03 0.0 
0.0 0.0 0.0 
8.645984229864e-05 -3.145519458987e-05 0.0 
-3.145519458987e-05 3.173798836122e-03 0.0 
0.0 0.0 0.0 
-2.939783280398e-05 -3.346889030006e-05 0.0 
-3.346889030006e-05 3.601314649378e-03 0.0 
0.0 0.0 0.0 
-1.088554070712e-04 -2.832689024966e-05 0.0 
-2.832689024966e-05 4.014608995427e-03 0.0 
0.0 0.0 0.0 
-1.619507062633e-04 -1.748293687763e-05 0.0 
-1.748293687763e-05 4.417274720436e-03 0.0 
0.0 0.0 0.0 
-1.909607130032e-04 -8.929920614408e-06 0.0 
-8.929920614408e-06 4.784600441210e-03 0.0 
0.0 0.0 0.0 
-2.046014997660e-04 -5.934784369546e-06 0.0 
-5.934784369546e-06 5.113286576916e-03 0.0 
0.0 0.0 0.0 
-2.205392098826e-04 -2.071891532371e-05 0.0 
-2.071891532371e-05 5.469545799130e-03 0.0 
0.0 0.0 0.0 
-2.251457614513e-04 -1.755442886863e-05 0.0 
-1.755442886863e-05 5.834806063991e-03 0.0 
0.0 0.0 0.0 
-1.650262832550e-04 -1.146703357813e-05 0.0 
-1.146703357813e-05 6.151240741078e-03 0.0 
0.0 0.0 0.0 
-4.489164753807e-05 1.979350187264e-06 0.0 
1.979350187264e-06 6.437094236965e-03 0.0 
0.0 0.0 0.0 
5.041560847256e-05 1.910888670392e-05 0.0 
1.910888670392e-05 6.755085713856e-03 0.0 
0.0 0.0 0.0 
6.842542773292e-05 3.095702460035e-05 0.0 
3.095702460035e-05 7.144892771045e-03 0.0 
0.0 0.0 0.0 
-8.530336013313e-05 1.779882036369e-04 0.0 
1.779882036369e-04 1.759474315342e-02 0.0 
0.0 0.0 0.0 
-9.362905844205e-05 3.274084203153e-04 0.0 
3.274084203153e-04 1.757184358886e-02 0.0 
0.0 0.0 0.0 
-9.747927113761e-05 4.827199132207e-04 0.0 
4.827199132207e-04 1.756438734385e-02 0.0 
0.0 0.0 0.0 
-9.559208244033e-05 6.718675291519e-04 0.0 
6.718675291519e-04 1.753713818007e-02 0.0 
0.0 0.0 0.0 
-1.258405414188e-04 8.479623938229e-04 0.0 
8.479623938229e-04 1.749825979098e-02 0.0 
0.0 0.0 0.0 
-1.219380300114e-04 1.067333799906e-03 0.0 
1.067333799906e-03 1.745542106552e-02 0.0 
0.0 0.0 0.0 
-1.448545247199e-04 1.310664186228e-03 0.0 
1.310664186228e-03 1.737718038081e-02 0.0 
0.0 0.0 0.0 
-1.548855646921e-04 1.582646945009e-03 0.0 
1.582646945009e-03 1.726882631704e-02 0.0 
0.0 0.0 0.0 
-1.861606984573e-04 1.885671171977e-03 0.0 
1.885671171977e-03 1.712902726620e-02 0.0 
0.0 0.0 0.0 
-1.533817564805e-04 2.213916381457e-03 0.0 
2.213916381457e-03 1.694715595753e-02 0.0 
0.0 0.0 0.0 
-2.486763744034e-04 2.572913557290e-03 0.0 
2.572913557290e-03 1.675042807758e-02 0.0 
0.0 0.0 0.0 
-2.434090860110e-04 3.031472825356e-03 0.0 
3.031472825356e-03 1.645266398038e-02 0.0 
0.0 0.0 0.0 
-2.670973157515e-04 3.508540727726e-03 0.0 
3.508540727726e-03 1.606252403450e-02 0.0 
0.0 0.0 0.0 
-2.330723090663e-04 3.968151202401e-03 0.0 
3.968151202401e-03 1.562849320285e-02 0.0 
0.0 0.0 0.0 
-2.584637865281e-04 4.401067244327e-03 0.0 
4.401067244327e-03 1.515041588651e-02 0.0 
0.0 0.0 0.0 
-1.802975329502e-04 4.767312877954e-03 0.0 
4.767312877954e-03 1.460612760098e-02 0.0 
0.0 0.0 0.0 
-5.971369368118e-05 4.954926210643e-03 0.0 
4.954926210643e-03 1.408473486248e-02 0.0 
0.0 0.0 0.0 
-1.871786081564e-05 5.011988889023e-03 0.0 
5.011988889023e-03 1.362267299941e-02 0.0 
0.0 0.0 0.0 
7.506769373703e-05 4.946373945458e-03 0.0 
4.946373945458e-03 1.324431044255e-02 0.0 
0.0 0.0 0.0 
8.830169550992e-05 4.790008764168e-03 0.0 
4.790008764168e-03 1.291562182224e-02 0.0 
0.0 0.0 0.0 
1.044075302005e-04 4.613812603453e-03 0.0 
4.613812603453e-03 1.257166838936e-02 0.0 
0.0 0.0 0.0 
1.161496178904e-04 4.409069295630e-03 0.0 
4.409069295630e-03 1.225215184695e-02 0.0 
0.0 0.0 0.0 
1.175990960506e-04 4.208337310727e-03 0.0 
4.208337310727e-03 1.194246054841e-02 0.0 
0.0 0.0 0.0 
1.183130731273e-04 3.987537842433e-03 0.0 
3.987537842433e-03 1.164380044748e-02 0.0 
0.0 0.0 0.0 
1.121010013797e-04 3.777632481068e-03 0.0 
3.777632481068e-03 1.139079824568e-02 0.0 
0.0 0.0 0.0 
1.255682878164e-04 3.571749685778e-03 0.0 
3.571749685778e-03 1.112736364032e-02 0.0 
0.0 0.0 0.0 
1.167220277141e-04 3.344128246563e-03 0.0 
3.344128246563e-03 1.084276394307e-02 0.0 
0.0 0.0 0.0 
1.251224717409e-04 3.112346249633e-03 0.0 
3.112346249633e-03 1.058397166162e-02 0.0 
0.0 0.0 0.0 
1.291150678125e-04 2.882365898007e-03 0.0 
2.882365898007e-03 1.032219840658e-02 0.0 
0.0 0.0 0.0 
1.162051871317e-04 2.637180085452e-03 0.0 
2.637180085452e-03 1.009176667780e-02 0.0 
0.0 0.0 0.0 
1.191015903117e-04 2.404543484768e-03 0.0 
2.404543484768e-03 9.834164231824e-03 0.0 
0.0 0.0 0.0 
1.355604803608e-04 2.176457933975e-03 0.0 
2.176457933975e-03 9.559469978002e-03 0.0 
0.0 0.0 0.0 
1.225548274252e-04 1.928921795125e-03 0.0 
1.928921795125e-03 9.330680766971e-03 0.0 
0.0 0.0 0.0 
1.151633441136e-04 1.717648437886e-03 0.0 
1.717648437886e-03 9.167084536888e-03 0.0 
0.0 0.0 0.0 
1.123364601875e-04 1.524240908486e-03 0.0 
1.524240908486e-03 8.981624169671e-03 0.0 
0.0 0.0 0.0 
9.556677056318e-05 1.322553435928e-03 0.0 
1.322553435928e-03 8.809621875275e-03 0.0 
0.0 0.0 0.0 
9.369185136957e-05 1.155132609042e-03 0.0 
1.155132609042e-03 8.661957804457e-03 0.0 
0.0 0.0 0.0 
8.604286407706e-05 9.908862216000e-04 0.0 
9.908862216000e-04 8.502652409257e-03 0.0 
0.0 0.0 0.0 
8.087582005086e-05 8.463675512091e-04 0.0 
8.463675512091e-04 8.360336904210e-03 0.0 
0.0 0.0 0.0 
7.479298287016e-05 7.171083970051e-04 0.0 
7.171083970051e-04 8.213241637627e-03 0.0 
0.0 0.0 0.0 
6.003056814966e-05 5.901313192675e-04 0.0 
5.901313192675e-04 8.107177059134e-03 0.0 
0.0 0.0 0.0 
4.920899620608e-05 4.907596891444e-04 0.0 
4.907596891444e-04 8.037721969710e-03 0.0 
0.0 0.0 0.0 
4.428156035119e-05 4.145240741468e-04 0.0 
4.145240741468e-04 7.944781214403e-03 0.0 
0.0 0.0 0.0 
6.493632881327e-05 3.070968395428e-04 0.0 
3.070968395428e-04 7.754465198251e-03 0.0 
0.0 0.0 0.0 
3.121227827914e-05 2.429961235441e-04 0.0 
2.429961235441e-04 7.742447084884e-03 0.0 
0.0 0.0 0.0 
3.201924084554e-05 1.908635198819e-04 0.0 
1.908635198819e-04 7.628294690057e-03 0.0 
0.0 0.0 0.0 
2.080512258917e-05 1.329753174911e-04 0.0 
1.329753174911e-04 7.560193840553e-03 0.0 
0.0 0.0 0.0 
2.360740182294e-05 9.726335296083e-05 0.0 
9.726335296083e-05 7.508463434846e-03 0.0 
0.0 0.0 0.0 
2.460100776447e-05 4.977480793865e-05 0.0 
4.977480793865e-05 7.463754755608e-03 0.0 
0.0 0.0 0.0 
-1.517550806630e-03 -1.961683582551e-05 0.0 
-1.961683582551e-05 1.491399060107e-02 0.0 
0.0 0.0 0.0 
-1.475533842361e-03 -1.266047271880e-05 0.0 
-1.266047271880e-05 1.532294768691e-02 0.0 
0.0 0.0 0.0 
-1.408154080453e-03 -6.123155858157e-06 0.0 
-6.123155858157e-06 1.570624865115e-02 0.0 
0.0 0.0 0.0 
-1.314462517404e-03 7.300196241026e-07 0.0 
7.300196241026e-07 1.606155211257e-02 0.0 
0.0 0.0 0.0 
-1.188713351590e-03 9.565603413472e-06 0.0 
9.565603413472e-06 1.639860092050e-02 0.0 
0.0 0.0 0.0 
-1.028243767673e-03 1.764763840535e-05 0.0 
1.764763840535e-05 1.670841672344e-02 0.0 
0.0 0.0 0.0 
-8.327962118272e-04 2.532982227606e-05 0.0 
2.532982227606e-05 1.698696878869e-02 0.0 
0.0 0.0 0.0 
-5.907614023481e-04 3.592530096689e-05 0.0 
3.592530096689e-05 1.723731700791e-02 0.0 
0.0 0.0 0.0 
-3.408037171333e-04 3.964600937532e-05 0.0 
3.964600937532e-05 1.746392974548e-02 0.0 
0.0 0.0 0.0 
-9.716467523631e-04 5.671476286414e-04 0.0 
5.671476286414e-04 5.635390912819e-04 0.0 
0.0 0.0 0.0 
-3.171682232706e-03 2.016459144300e-03 0.0 
2.016459144300e-03 1.504692916865e-02 0.0 
0.0 0.0 0.0 
-9.800042056347e-04 1.366944759027e-03 0.0 
1.366944759027e-03 1.275697709869e-03 0.0 
0.0 0.0 0.0 
-1.009394277648e-03 1.938737632424e-03 0.0 
1.938737632424e-03 2.613442903417e-03 0.0 
0.0 0.0 0.0 
-9.834247008315e-04 2.134803917485e-03 0.0 
2.134803917485e-03 4.020630037574e-03 0.0 
0.0 0.0 0.0 
-9.232928290811e-04 2.080506124922e-03 0.0 
2.080506124922e-03 5.362559269094e-03 0.0 
0.0 0.0 0.0 
-8.732130306116e-04 1.812810191673e-03 0.0 
1.812810191673e-03 6.738472650992e-03 0.0 
0.0 0.0 0.0 
-9.092111548947e-04 1.977856375029e-03 0.0 
1.977856375029e-03 8.174038424363e-03 0.0 
0.0 0.0 0.0 
-1.016368417336e-03 2.715605973942e-03 0.0 
2.715605973942e-03 9.645212999400e-03 0.0 
0.0 0.0 0.0 
-1.291379133283e-03 3.582036307729e-03 0.0 
3.582036307729e-03 1.126680224695e-02 0.0 
0.0 0.0 0.0 
-2.079934094787e-03 4.181274007349e-03 0.0 
4.181274007349e-03 1.326787871045e-02 0.0 
0.0 0.0 0.0 
-1.560596782489e-03 1.419900455923e-05 0.0 
1.419900455923e-05 1.467751958083e-02 0.0 
0.0 0.0 0.0 
-1.536614405632e-03 1.724030471824e-05 0.0 
1.724030471824e-05 1.466459693374e-02 0.0 
0.0 0.0 0.0 
-1.546389861275e-03 7.353920528111e-07 0.0 
7.353920528111e-07 1.466624703288e-02 0.0 
0.0 0.0 0.0 
-1.559606178931e-03 -2.267908853469e-06 0.0 
-2.267908853469e-06 1.466434126290e-02 0.0 
0.0 0.0 0.0 
-1.563196976974e-03 5.040926450372e-06 0.0 
5.040926450372e-06 1.471683283937e-02 0.0 
0.0 0.0 0.0 
-1.568109623271e-03 -2.753413345080e-06 0.0 
-2.753413345080e-06 1.468196612615e-02 0.0 
0.0 0.0 0.0 
-1.571052411274e-03 -5.956577586835e-06 0.0 
-5.956577586835e-06 1.467153021280e-02 0.0 
0.0 0.0 0.0 
-1.569150794123e-03 -3.596929815549e-06 0.0 
-3.596929815549e-06 1.468023159509e-02 0.0 
0.0 0.0 0.0 
-1.585658655590e-03 2.647141730824e-06 0.0 
2.647141730824e-06 1.470547833432e-02 0.0 
0.0 0.0 0.0 
-1.615413428935e-03 1.011100859721e-05 0.0 
1.011100859721e-05 1.470959631988e-02 0.0 
0.0 0.0 0.0 
-1.649816044338e-03 4.556758588909e-05 0.0 
4.556758588909e-05 1.471364559628e-02 0.0 
0.0 0.0 0.0 
-1.768877948232e-03 1.112076095467e-04 0.0 
1.112076095467e-04 1.473722053705e-02 0.0 
0.0 0.0 0.0 
-2.002180141470e-03 2.371394956763e-04 0.0 
2.371394956763e-04 1.482774476896e-02 0.0 
0.0 0.0 0.0 
-2.673907365018e-03 7.329218829370e-04 0.0 
7.329218829370e-04 1.520841925682e-02 0.0 
0.0 0.0 0.0 
-1.220804038516e-03 2.634696178033e-04 0.0 
2.634696178033e-04 6.790471474531e-04 0.0 
0.0 0.0 0.0 
-1.479676410790e-03 1.189966308084e-04 0.0 
1.189966308084e-04 7.683979883236e-04 0.0 
0.0 0.0 0.0 
-1.642228609525e-03 2.453436051837e-05 0.0 
2.453436051837e-05 8.222442619829e-04 0.0 
0.0 0.0 0.0 
-1.644938238750e-03 -2.645526117289e-07 0.0 
-2.645526117289e-07 8.233032155581e-04 0.0 
0.0 0.0 0.0 
-1.514058647278e-03 -6.586611425607e-05 0.0 
-6.586611425607e-05 7.732630146071e-04 0.0 
0.0 0.0 0.0 
-1.359640402333e-03 -1.306894442507e-04 0.0 
-1.306894442507e-04 7.089150091639e-04 0.0 
0.0 0.0 0.0 
-1.131336559830e-03 -1.837213872317e-04 0.0 
-1.837213872317e-04 6.114828795541e-04 0.0 
0.0 0.0 0.0 
-8.320899022720e-04 -2.248121504285e-04 0.0 
-2.248121504285e-04 4.753651507735e-04 0.0 
0.0 0.0 0.0 
-4.960085428332e-04 -2.289101610268e-04 0.0 
-2.289101610268e-04 3.184371764244e-04 0.0 
0.0 0.0 0.0 
-1.957398025542e-04 -1.920282537719e-04 0.0 
-1.920282537719e-04 1.816904591222e-04 0.0 
0.0 0.0 0.0 
4.954408071186e-05 -1.397186399975e-04 0.0 
-1.397186399975e-04 7.971801331985e-05 0.0 
0.0 0.0 0.0 
1.967722398518e-04 -7.636134524198e-05 0.0 
-7.636134524198e-05 1.069847316411e-05 0.0 
0.0 0.0 0.0 
5.023650916229e-04 -7.641306608297e-06 0.0 
-7.641306608297e-06 -1.117888969082e-04 0.0 
0.0 0.0 0.0 
1.147620730906e-03 8.378944041896e-06 0.0 
8.378944041896e-06 -3.757036807231e-04 0.0 
0.0 0.0 0.0 
1.692230473875e-03 7.982690705863e-06 0.0 
7.982690705863e-06 -6.045081810780e-04 0.0 
0.0 0.0 0.0 
1.575783614722e-03 -5.841469929188e-06 0.0 
-5.841469929188e-06 -5.563285106193e-04 0.0 
0.0 0.0 0.0 
1.613361612062e-03 5.862192709513e-06 0.0 
5.862192709513e-06 -5.782251087293e-04 0.0 
0.0 0.0 0.0 
1.823235811441e-03 8.206540781822e-06 0.0 
8.206540781822e-06 -6.722670802856e-04 0.0 
0.0 0.0 0.0 
1.774009118938e-03 -5.312791025983e-06 0.0 
-5.312791025983e-06 -6.479998267789e-04 0.0 
0.0 0.0 0.0 
-9.389620949459e-04 9.880855632304e-04 0.0 
9.880855632304e-04 7.859003638050e-04 0.0 
0.0 0.0 0.0 
-1.004435653116e-03 1.713070550318e-03 0.0 
1.713070550318e-03 1.918848775942e-03 0.0 
0.0 0.0 0.0 
-1.005840779970e-03 2.073892649481e-03 0.0 
2.073892649481e-03 3.323287596586e-03 0.0 
0.0 0.0 0.0 
-9.402418278361e-04 2.101349076308e-03 0.0 
2.101349076308e-03 4.703410388896e-03 0.0 
0.0 0.0 0.0 
-9.338012025991e-04 2.042192969821e-03 0.0 
2.042192969821e-03 6.089739435909e-03 0.0 
0.0 0.0 0.0 
-8.609806458209e-04 1.925614695589e-03 0.0 
1.925614695589e-03 7.462862248071e-03 0.0 
0.0 0.0 0.0 
-9.309744791573e-04 2.296116579655e-03 0.0 
2.296116579655e-03 8.892546382401e-03 0.0 
0.0 0.0 0.0 
-1.107043147698e-03 3.164834358990e-03 0.0 
3.164834358990e-03 1.042900507378e-02 0.0 
0.0 0.0 0.0 
-1.578910826645e-03 3.937428495107e-03 0.0 
3.937428495107e-03 1.220117091198e-02 0.0 
0.0 0.0 0.0 
-3.019099109037e-03 3.842595962515e-03 0.0 
3.842595962515e-03 1.459438493660e-02 0.0 
0.0 0.0 0.0 
-7.906856163985e-04 1.526087245591e-03 0.0 
1.526087245591e-03 2.271191566228e-03 0.0 
0.0 0.0 0.0 
3.581515174146e-04 1.801762628414e-03 0.0 
1.801762628414e-03 8.869010396339e-03 0.0 
0.0 0.0 0.0 
-1.598960252960e-04 -3.350356339403e-04 0.0 
-3.350356339403e-04 2.980556063578e-04 0.0 
0.0 0.0 0.0 
-1.109425520599e-03 -7.201132951021e-05 0.0 
-7.201132951021e-05 7.522876412005e-04 0.0 
0.0 0.0 0.0 
2.459360526038e-04 8.953187214877e-04 0.0 
8.953187214877e-04 8.124609952522e-03 0.0 
0.0 0.0 0.0 
-7.253901299462e-04 1.963741971103e-03 0.0 
1.963741971103e-03 4.957048220200e-03 0.0 
0.0 0.0 0.0 
-1.346790312113e-04 -7.184224925786e-05 0.0 
-7.184224925786e-05 4.222791560229e-03 0.0 
0.0 0.0 0.0 
4.336099845660e-04 2.766264175294e-03 0.0 
2.766264175294e-03 9.709271713517e-03 0.0 
0.0 0.0 0.0 
-7.696436631363e-04 2.200501849194e-03 0.0 
2.200501849194e-03 7.584454793352e-03 0.0 
0.0 0.0 0.0 
3.622682746572e-04 3.693272838452e-03 0.0 
3.693272838452e-03 1.087032713645e-02 0.0 
0.0 0.0 0.0 
-1.100521222611e-03 3.580373577106e-03 0.0 
3.580373577106e-03 1.056157423652e-02 0.0 
0.0 0.0 0.0 
1.431189585926e-04 4.213355166012e-04 0.0 
4.213355166012e-04 7.739928110991e-03 0.0 
0.0 0.0 0.0 
5.948472260353e-04 -3.464270328146e-05 0.0 
-3.464270328146e-05 -3.844986269774e-05 0.0 
0.0 0.0 0.0 
3.214711555595e-04 4.530425863473e-03 0.0 
4.530425863473e-03 1.207391703717e-02 0.0 
0.0 0.0 0.0 
-2.929858258531e-03 2.719034178610e-03 0.0 
2.719034178610e-03 1.434399321255e-02 0.0 
0.0 0.0 0.0 
3.735726996155e-04 -1.605559749291e-05 0.0 
-1.605559749291e-05 2.397936062430e-03 0.0 
0.0 0.0 0.0 
-2.032607788005e-04 -6.188008980083e-05 0.0 
-6.188008980083e-05 5.225217282185e-03 0.0 
0.0 0.0 0.0 
3.408690259667e-05 4.904334217703e-03 0.0 
4.904334217703e-03 1.328039483868e-02 0.0 
0.0 0.0 0.0 
-7.037394053234e-04 3.726568368525e-03 0.0 
3.726568368525e-03 1.567548310216e-02 0.0 
0.0 0.0 0.0 
-3.516443123038e-04 9.266955999905e-04 0.0 
9.266955999905e-04 1.742411047405e-02 0.0 
0.0 0.0 0.0 
-5.257691570030e-04 1.635030331683e-03 0.0 
1.635030331683e-03 1.721944137380e-02 0.0 
0.0 0.0 0.0 
-6.467312197382e-04 2.593490936568e-03 0.0 
2.593490936568e-03 1.671529371205e-02 0.0 
0.0 0.0 0.0 
-2.413064061583e-03 5.868494342102e-04 0.0 
5.868494342102e-04 1.514596906940e-02 0.0 
0.0 0.0 0.0 
-1.730698699520e-03 5.082567678807e-05 0.0 
5.082567678807e-05 1.493942472241e-02 0.0 
0.0 0.0 0.0 
-1.617263968652e-03 2.215616290614e-05 0.0 
2.215616290614e-05 1.493045978681e-02 0.0 
0.0 0.0 0.0 
-1.257640936638e-03 4.427112038794e-05 0.0 
4.427112038794e-05 1.623974270030e-02 0.0 
0.0 0.0 0.0 
8.963845566175e-05 1.966356723349e-04 0.0 
1.966356723349e-04 7.460930607312e-03 0.0 
0.0 0.0 0.0 
-1.020918646901e-03 2.523059696869e-04 0.0 
2.523059696869e-04 7.506691955570e-04 0.0 
0.0 0.0 0.0 
1.528826244540e-03 6.756771529903e-06 0.0 
6.756771529903e-06 -6.384839224301e-04 0.0 
0.0 0.0 0.0 
-5.781511124077e-05 -3.606650310257e-05 0.0 
-3.606650310257e-05 6.258914247391e-03 0.0 
0.0 0.0 0.0 
-1.548494685322e-03 9.251453168484e-06 0.0 
9.251453168484e-06 1.485134896999e-02 0.0 
0.0 0.0 0.0 
1.201477510166e-03 5.576445655826e-06 0.0 
5.576445655826e-06 3.696174445898e-04 0.0 
0.0 0.0 0.0 
-5.838710449549e-04 4.353572203626e-03 0.0 
4.353572203626e-03 1.463809179708e-02 0.0 
0.0 0.0 0.0 
3.597046195859e-04 3.243543190847e-03 0.0 
3.243543190847e-03 1.035650444170e-02 0.0 
0.0 0.0 0.0 
3.441628414098e-04 4.122356390502e-03 0.0 
4.122356390502e-03 1.143416863595e-02 0.0 
0.0 0.0 0.0 
4.423838611255e-04 2.301797172561e-03 0.0 
2.301797172561e-03 9.229595049490e-03 0.0 
0.0 0.0 0.0 
3.026582271208e-04 1.400085726081e-03 0.0 
1.400085726081e-03 8.551665325710e-03 0.0 
0.0 0.0 0.0 
-8.148581458720e-04 -2.685814676320e-04 0.0 
-2.685814676320e-04 6.482244694687e-04 0.0 
0.0 0.0 0.0 
-1.896823578195e-03 1.615819914144e-04 0.0 
1.615819914144e-04 1.496375826391e-02 0.0 
0.0 0.0 0.0 
2.303690794308e-04 6.110785314811e-04 0.0 
6.110785314811e-04 7.784716625469e-03 0.0 
0.0 0.0 0.0 
-9.472973124041e-04 8.366169993085e-05 0.0 
8.366169993085e-05 1.684729167277e-02 0.0 
0.0 0.0 0.0 
1.952864414756e-04 -2.047249013602e-04 0.0 
-2.047249013602e-04 1.443496141122e-04 0.0 
0.0 0.0 0.0 
2.292746248633e-05 -6.669735806964e-05 0.0 
-6.669735806964e-05 3.383072997003e-03 0.0 
0.0 0.0 0.0 
-2.608150140088e-04 5.624882455897e-04 0.0 
5.624882455897e-04 1.750143611288e-02 0.0 
0.0 0.0 0.0 
-6.668784686827e-04 2.106089535950e-03 0.0 
2.106089535950e-03 6.193261888769e-03 0.0 
0.0 0.0 0.0 
-7.593389860743e-04 1.802924370568e-03 0.0 
1.802924370568e-03 3.591965536363e-03 0.0 
0.0 0.0 0.0 
-8.400399787052e-04 2.791351955699e-03 0.0 
2.791351955699e-03 8.985171894219e-03 0.0 
0.0 0.0 0.0 
-1.804908993897e-03 3.909675403561e-03 0.0 
3.909675403561e-03 1.246292479307e-02 0.0 
0.0 0.0 0.0 
-8.219816002344e-04 9.855797968867e-04 0.0 
9.855797968867e-04 1.126765045078e-03 0.0 
0.0 0.0 0.0 
-1.440501760026e-03 1.754769523564e-05 0.0 
1.754769523564e-05 1.555049492943e-02 0.0 
0.0 0.0 0.0 
6.146179266255e-05 1.038170484494e-04 0.0 
1.038170484494e-04 7.397920291911e-03 0.0 
0.0 0.0 0.0 
1.733862331160e-03 -3.460894738585e-05 0.0 
-3.460894738585e-05 -7.267831239045e-04 0.0 
0.0 0.0 0.0 
-4.723736945067e-04 1.353587900246e-04 0.0 
1.353587900246e-04 1.733947843626e-02 0.0 
0.0 0.0 0.0 
-2.688812594009e-03 1.708750428977e-03 0.0 
1.708750428977e-03 1.461693610329e-02 0.0 
0.0 0.0 0.0 
-2.497483037724e-03 1.978325949980e-03 0.0 
1.978325949980e-03 1.403284021133e-02 0.0 
0.0 0.0 0.0 
-2.606570837408e-03 1.661854801372e-03 0.0 
1.661854801372e-03 1.471034147496e-02 0.0 
0.0 0.0 0.0 
-2.391557760863e-03 2.141327155494e-03 0.0 
2.141327155494e-03 1.416906897122e-02 0.0 
0.0 0.0 0.0 
-2.451937667988e-03 1.948279688259e-03 0.0 
1.948279688259e-03 1.476033066287e-02 0.0 
0.0 0.0 0.0 
-2.251381574935e-03 2.305415234548e-03 0.0 
2.305415234548e-03 1.430957282880e-02 0.0 
0.0 0.0 0.0 
-2.152868499885e-03 2.432711285457e-03 0.0 
2.432711285457e-03 1.365818086953e-02 0.0 
0.0 0.0 0.0 
-2.034283396709e-03 2.572313371357e-03 0.0 
2.572313371357e-03 1.385804525519e-02 0.0 
0.0 0.0 0.0 
-1.919924289344e-03 2.640454524065e-03 0.0 
2.640454524065e-03 1.318306382027e-02 0.0 
0.0 0.0 0.0 
-2.308784611875e-03 2.156636138488e-03 0.0 
2.156636138488e-03 1.487633492723e-02 0.0 
0.0 0.0 0.0 
-1.825315758094e-03 2.780116496904e-03 0.0 
2.780116496904e-03 1.342571072952e-02 0.0 
0.0 0.0 0.0 
-1.710953407622e-03 2.808811338576e-03 0.0 
2.808811338576e-03 1.275390188008e-02 0.0 
0.0 0.0 0.0 
-1.636182840498e-03 2.957722587693e-03 0.0 
2.957722587693e-03 1.302265068113e-02 0.0 
0.0 0.0 0.0 
-1.526507692540e-03 2.953409477808e-03 0.0 
2.953409477808e-03 1.235855450402e-02 0.0 
0.0 0.0 0.0 
-1.585949662953e-03 2.814324089693e-03 0.0 
2.814324089693e-03 1.206047916710e-02 0.0 
0.0 0.0 0.0 
-1.404371524953e-03 2.926572309030e-03 0.0 
2.926572309030e-03 1.167775845690e-02 0.0 
0.0 0.0 0.0 
-1.453583616045e-03 2.798254720136e-03 0.0 
2.798254720136e-03 1.135733782159e-02 0.0 
0.0 0.0 0.0 
-1.270734236970e-03 2.877629107324e-03 0.0 
2.877629107324e-03 1.098015657310e-02 0.0 
0.0 0.0 0.0 
-1.248358674236e-03 3.011282028860e-03 0.0 
3.011282028860e-03 1.133414639559e-02 0.0 
0.0 0.0 0.0 
-1.109537195868e-03 2.926976727662e-03 0.0 
2.926976727662e-03 1.063525951330e-02 0.0 
0.0 0.0 0.0 
-1.120519279017e-03 2.806438553940e-03 0.0 
2.806438553940e-03 1.025829537849e-02 0.0 
0.0 0.0 0.0 
-9.369990267009e-04 2.835245492947e-03 0.0 
2.835245492947e-03 9.910962465965e-03 0.0 
0.0 0.0 0.0 
-9.418011836975e-04 2.726682996948e-03 0.0 
2.726682996948e-03 9.508597601399e-03 0.0 
0.0 0.0 0.0 
-6.604579161008e-04 2.802255806192e-03 0.0 
2.802255806192e-03 9.124794700458e-03 0.0 
0.0 0.0 0.0 
-6.437183499075e-04 2.726950524734e-03 0.0 
2.726950524734e-03 8.680344976943e-03 0.0 
0.0 0.0 0.0 
-2.723632909822e-04 2.804428384367e-03 0.0 
2.804428384367e-03 8.237002871244e-03 0.0 
0.0 0.0 0.0 
-2.868419751871e-04 2.861263550377e-03 0.0 
2.861263550377e-03 8.698334688101e-03 0.0 
0.0 0.0 0.0 
1.231062499440e-04 2.782759684024e-03 0.0 
2.782759684024e-03 7.787193333941e-03 0.0 
0.0 0.0 0.0 
9.801567862231e-05 2.719110988050e-03 0.0 
2.719110988050e-03 7.345978116430e-03 0.0 
0.0 0.0 0.0 
4.954681115034e-04 2.626805975018e-03 0.0 
2.626805975018e-03 6.908320317520e-03 0.0 
0.0 0.0 0.0 
3.999860613181e-04 2.546090665928e-03 0.0 
2.546090665928e-03 6.521070309422e-03 0.0 
0.0 0.0 0.0 
8.226374231867e-04 2.413434986037e-03 0.0 
2.413434986037e-03 6.080996744419e-03 0.0 
0.0 0.0 0.0 
1.488874726282e-03 2.652621276090e-03 0.0 
2.652621276090e-03 5.964946702274e-03 0.0 
0.0 0.0 0.0 
1.838639049275e-03 2.395889155768e-03 0.0 
2.395889155768e-03 5.132704048189e-03 0.0 
0.0 0.0 0.0 
1.120566681614e-03 2.161487387345e-03 0.0 
2.161487387345e-03 5.294867915879e-03 0.0 
0.0 0.0 0.0 
2.158355872011e-03 2.111741661952e-03 0.0 
2.111741661952e-03 4.343187287903e-03 0.0 
0.0 0.0 0.0 
1.396640305091e-03 1.885504268589e-03 0.0 
1.885504268589e-03 4.549126990674e-03 0.0 
0.0 0.0 0.0 
2.443112719232e-03 1.813264791944e-03 0.0 
1.813264791944e-03 3.603788418189e-03 0.0 
0.0 0.0 0.0 
1.646355227970e-03 1.595554168758e-03 0.0 
1.595554168758e-03 3.851602288162e-03 0.0 
0.0 0.0 0.0 
2.678630064757e-03 1.502965666258e-03 0.0 
1.502965666258e-03 2.926303419850e-03 0.0 
0.0 0.0 0.0 
3.399256039588e-03 1.792732161909e-03 0.0 
1.792732161909e-03 2.665018947230e-03 0.0 
0.0 0.0 0.0 
3.508809336384e-03 1.460462044355e-03 0.0 
1.460462044355e-03 2.109978162970e-03 0.0 
0.0 0.0 0.0 
2.851354654681e-03 1.190093409304e-03 0.0 
1.190093409304e-03 2.321090025182e-03 0.0 
0.0 0.0 0.0 
3.553492734149e-03 1.133328698975e-03 0.0 
1.133328698975e-03 1.634049789883e-03 0.0 
0.0 0.0 0.0 
3.663704996970e-03 1.356831810582e-03 0.0 
1.356831810582e-03 1.935394774224e-03 0.0 
0.0 0.0 0.0 
3.629885623342e-03 1.040920929125e-03 0.0 
1.040920929125e-03 1.550909119077e-03 0.0 
0.0 0.0 0.0 
3.427712605029e-03 1.206040196282e-03 0.0 
1.206040196282e-03 2.177270676002e-03 0.0 
0.0 0.0 0.0 
3.378134248692e-03 9.163661035991e-04 0.0 
9.163661035991e-04 1.822605265902e-03 0.0 
0.0 0.0 0.0 
3.552987290114e-03 7.482197247582e-04 0.0 
7.482197247582e-04 1.229658039234e-03 0.0 
0.0 0.0 0.0 
3.292371609616e-03 6.494548312234e-04 0.0 
6.494548312234e-04 1.523280295131e-03 0.0 
0.0 0.0 0.0 
3.079711138633e-03 7.969158406381e-04 0.0 
7.969158406381e-04 2.158550883422e-03 0.0 
0.0 0.0 0.0 
2.999036659853e-03 5.559870188775e-04 0.0 
5.559870188775e-04 1.863773153398e-03 0.0 
0.0 0.0 0.0 
3.175256303398e-03 4.074864944980e-04 0.0 
4.074864944980e-04 1.272810049649e-03 0.0 
0.0 0.0 0.0 
2.891343305395e-03 3.395840928217e-04 0.0 
3.395840928217e-04 1.614738946128e-03 0.0 
0.0 0.0 0.0 
2.724630525320e-03 4.727565481755e-04 0.0 
4.727565481755e-04 2.196602632678e-03 0.0 
0.0 0.0 0.0 
2.627801898029e-03 2.764614310379e-04 0.0 
2.764614310379e-04 1.945785302315e-03 0.0 
0.0 0.0 0.0 
2.756134287962e-03 1.463425626535e-04 0.0 
1.463425626535e-04 1.408359252418e-03 0.0 
0.0 0.0 0.0 
2.502361305469e-03 1.008251927819e-04 0.0 
1.008251927819e-04 1.739571973240e-03 0.0 
0.0 0.0 0.0 
2.384056029792e-03 2.154907387670e-04 0.0 
2.154907387670e-04 2.272116040379e-03 0.0 
0.0 0.0 0.0 
2.263382658386e-03 5.313823837009e-05 0.0 
5.313823837009e-05 2.066754497611e-03 0.0 
0.0 0.0 0.0 
2.332249226956e-03 -5.570981349533e-05 0.0 
-5.570981349533e-05 1.588326246664e-03 0.0 
0.0 0.0 0.0 
2.092305315552e-03 -8.990959197314e-05 0.0 
-8.990959197314e-05 1.924287215227e-03 0.0 
0.0 0.0 0.0 
2.027620112495e-03 5.260047371309e-06 0.0 
5.260047371309e-06 2.403420315625e-03 0.0 
0.0 0.0 0.0 
1.850933634811e-03 -1.242095494362e-04 0.0 
-1.242095494362e-04 2.272038037294e-03 0.0 
0.0 0.0 0.0 
1.782967912467e-03 -4.053168440479e-05 0.0 
-4.053168440479e-05 2.757681020214e-03 0.0 
0.0 0.0 0.0 
1.857488050301e-03 -2.103298879037e-04 0.0 
-2.103298879037e-04 1.853101141237e-03 0.0 
0.0 0.0 0.0 
1.609991077298e-03 -2.297126464277e-04 0.0 
-2.297126464277e-04 2.215838621694e-03 0.0 
0.0 0.0 0.0 
1.554062824317e-03 -3.029686817382e-04 0.0 
-3.029686817382e-04 1.860294327326e-03 0.0 
0.0 0.0 0.0 
1.304234533974e-03 -3.071134908552e-04 0.0 
-3.071134908552e-04 2.235070450878e-03 0.0 
0.0 0.0 0.0 
2.740040447798e-03 2.757118868696e-03 0.0 
2.757118868696e-03 4.736769184163e-03 0.0 
0.0 0.0 0.0 
1.207561124625e-03 -3.626039362685e-04 0.0 
-3.626039362685e-04 1.922829767302e-03 0.0 
0.0 0.0 0.0 
1.442034565204e-03 -3.726780742364e-04 0.0 
-3.726780742364e-04 1.567335886021e-03 0.0 
0.0 0.0 0.0 
9.738189403670e-04 -3.553507578897e-04 0.0 
-3.553507578897e-04 2.290320033622e-03 0.0 
0.0 0.0 0.0 
1.041161754757e-03 -3.104811727174e-04 0.0 
-3.104811727174e-04 2.632267755900e-03 0.0 
0.0 0.0 0.0 
8.780157266911e-04 -3.912636750131e-04 0.0 
-3.912636750131e-04 1.981238995619e-03 0.0 
0.0 0.0 0.0 
6.805260856847e-04 -3.751509821874e-04 0.0 
-3.751509821874e-04 2.324779283381e-03 0.0 
0.0 0.0 0.0 
6.211320027807e-04 -3.887762279061e-04 0.0 
-3.887762279061e-04 1.990021105488e-03 0.0 
0.0 0.0 0.0 
1.052299995244e-03 1.770175324971e-03 0.0 
1.770175324971e-03 4.355542495004e-03 0.0 
0.0 0.0 0.0 
-1.113290788440e-03 3.062010968902e-03 0.0 
3.062010968902e-03 1.102684240578e-02 0.0 
0.0 0.0 0.0 
4.813342153532e-04 -3.611062636805e-04 0.0 
-3.611062636805e-04 2.291335470962e-03 0.0 
0.0 0.0 0.0 
4.790154278881e-04 -3.472408825734e-04 0.0 
-3.472408825734e-04 1.922530332184e-03 0.0 
0.0 0.0 0.0 
5.564189381086e-04 -3.837006968385e-04 0.0 
-3.837006968385e-04 1.676072398747e-03 0.0 
0.0 0.0 0.0 
4.654696854335e-04 -3.179258736340e-04 0.0 
-3.179258736340e-04 1.576355967465e-03 0.0 
0.0 0.0 0.0 
-2.460112307693e-03 1.790690024989e-03 0.0 
1.790690024989e-03 1.521732133038e-02 0.0 
0.0 0.0 0.0 
-2.292684432828e-03 2.009013579976e-03 0.0 
2.009013579976e-03 1.535588245020e-02 0.0 
0.0 0.0 0.0 
-2.402784881329e-03 1.615803313492e-03 0.0 
1.615803313492e-03 1.562597020659e-02 0.0 
0.0 0.0 0.0 
-2.230508472857e-03 1.879469163228e-03 0.0 
1.879469163228e-03 1.577208716332e-02 0.0 
0.0 0.0 0.0 
-2.302725371490e-03 1.494150560290e-03 0.0 
1.494150560290e-03 1.596279218991e-02 0.0 
0.0 0.0 0.0 
4.336534018441e-04 -2.765669403870e-04 0.0 
-2.765669403870e-04 1.790426389414e-03 0.0 
0.0 0.0 0.0 
-1.724231608789e-03 2.939861882888e-03 0.0 
2.939861882888e-03 1.366136342623e-02 0.0 
0.0 0.0 0.0 
-2.106359767086e-03 2.235436513750e-03 0.0 
2.235436513750e-03 1.550065957061e-02 0.0 
0.0 0.0 0.0 
-1.140963423336e-03 2.697130058462e-03 0.0 
2.697130058462e-03 9.894262571372e-03 0.0 
0.0 0.0 0.0 
9.240561411733e-05 2.658139169181e-03 0.0 
2.658139169181e-03 6.891121175293e-03 0.0 
0.0 0.0 0.0 
3.432794093122e-03 1.513515222352e-03 0.0 
1.513515222352e-03 2.594095893636e-03 0.0 
0.0 0.0 0.0 
4.753761980778e-04 -3.562511902833e-04 0.0 
-3.562511902833e-04 2.683142149690e-03 0.0 
0.0 0.0 0.0 
3.371374080354e-04 -3.288945332164e-04 0.0 
-3.288945332164e-04 2.606361562150e-03 0.0 
0.0 0.0 0.0 
2.807552143846e-04 -3.289487564013e-04 0.0 
-3.289487564013e-04 3.032174086284e-03 0.0 
0.0 0.0 0.0 
1.910470038406e-03 9.592011222773e-05 0.0 
9.592011222773e-05 2.942994748609e-03 0.0 
0.0 0.0 0.0 
1.662910481573e-03 4.102762163592e-05 0.0 
4.102762163592e-05 3.300020754640e-03 0.0 
0.0 0.0 0.0 
1.748807414515e-03 1.819388033369e-04 0.0 
1.819388033369e-04 3.532033557051e-03 0.0 
0.0 0.0 0.0 
1.501626489973e-03 1.194524068645e-04 0.0 
1.194524068645e-04 3.887216299568e-03 0.0 
0.0 0.0 0.0 
1.551769727910e-03 2.630375628489e-04 0.0 
2.630375628489e-04 4.160337271773e-03 0.0 
0.0 0.0 0.0 
1.312012941411e-03 1.961860951852e-04 0.0 
1.961860951852e-04 4.504917802523e-03 0.0 
0.0 0.0 0.0 
1.256449726028e-03 6.588232577138e-05 0.0 
6.588232577138e-05 4.242525248784e-03 0.0 
0.0 0.0 0.0 
1.086000556702e-03 1.414614361490e-04 0.0 
1.414614361490e-04 4.835020352826e-03 0.0 
0.0 0.0 0.0 
1.024983578866e-03 2.497181299759e-05 0.0 
2.497181299759e-05 4.582457301753e-03 0.0 
0.0 0.0 0.0 
1.331224528212e-03 3.414203971870e-04 0.0 
3.414203971870e-04 4.814953769381e-03 0.0 
0.0 0.0 0.0 
1.570033437538e-03 4.217592211909e-04 0.0 
4.217592211909e-04 4.477564324041e-03 0.0 
0.0 0.0 0.0 
8.813515981293e-04 9.856850111615e-05 0.0 
9.856850111615e-05 5.141316074490e-03 0.0 
0.0 0.0 0.0 
8.173879320445e-04 -5.369262902391e-06 0.0 
-5.369262902391e-06 4.896983578875e-03 0.0 
0.0 0.0 0.0 
7.016554683952e-04 6.410888965069e-05 0.0 
6.410888965069e-05 5.421153462936e-03 0.0 
0.0 0.0 0.0 
6.398390715038e-04 -2.895858214508e-05 0.0 
-2.895858214508e-05 5.183277547136e-03 0.0 
0.0 0.0 0.0 
7.105923449329e-04 -9.205913775542e-05 0.0 
-9.205913775542e-05 4.707008416646e-03 0.0 
0.0 0.0 0.0 
5.348662376586e-04 -1.032944508384e-04 0.0 
-1.032944508384e-04 4.999751986232e-03 0.0 
0.0 0.0 0.0 
5.500185913495e-04 -1.569681981195e-04 0.0 
-1.569681981195e-04 4.584510260254e-03 0.0 
0.0 0.0 0.0 
3.140558185915e-03 1.342117889791e-03 0.0 
1.342117889791e-03 2.900646210108e-03 0.0 
0.0 0.0 0.0 
3.106241790310e-03 1.637535692310e-03 0.0 
1.637535692310e-03 3.362513499203e-03 0.0 
0.0 0.0 0.0 
2.826595926274e-03 1.464740928533e-03 0.0 
1.464740928533e-03 3.653890550684e-03 0.0 
0.0 0.0 0.0 
2.753927235621e-03 1.747770218815e-03 0.0 
1.747770218815e-03 4.158353610002e-03 0.0 
0.0 0.0 0.0 
2.484169134961e-03 1.570952328036e-03 0.0 
1.570952328036e-03 4.441212091897e-03 0.0 
0.0 0.0 0.0 
2.371121817349e-03 1.840335434561e-03 0.0 
1.840335434561e-03 4.989327355052e-03 0.0 
0.0 0.0 0.0 
2.122976284332e-03 1.662923225490e-03 0.0 
1.662923225490e-03 5.251047423452e-03 0.0 
0.0 0.0 0.0 
2.225295014621e-03 1.407195833064e-03 0.0 
1.407195833064e-03 4.727467036885e-03 0.0 
0.0 0.0 0.0 
-1.477072383542e-03 3.114365100709e-03 0.0 
3.114365100709e-03 1.265076158360e-02 0.0 
0.0 0.0 0.0 
2.967686434440e-03 8.792027952144e-04 0.0 
8.792027952144e-04 1.790775535007e-03 0.0 
0.0 0.0 0.0 
2.038157471874e-03 9.891123632373e-04 0.0 
9.891123632373e-04 2.623062885852e-03 0.0 
0.0 0.0 0.0 
2.179428149476e-03 6.883544151355e-04 0.0 
6.883544151355e-04 2.091333333005e-03 0.0 
0.0 0.0 0.0 
1.442490266385e-03 8.727124405446e-04 0.0 
8.727124405446e-04 2.688746645846e-03 0.0 
0.0 0.0 0.0 
1.533694121497e-03 5.787594580026e-04 0.0 
5.787594580026e-04 2.221281795560e-03 0.0 
0.0 0.0 0.0 
1.045446200560e-03 7.920713683352e-04 0.0 
7.920713683352e-04 2.566010151528e-03 0.0 
0.0 0.0 0.0 
1.063704490884e-03 5.125209838345e-04 0.0 
5.125209838345e-04 2.173053402681e-03 0.0 
0.0 0.0 0.0 
1.612944403933e-03 3.000050418881e-04 0.0 
3.000050418881e-04 1.787558814045e-03 0.0 
0.0 0.0 0.0 
1.079548613725e-03 2.539136598348e-04 0.0 
2.539136598348e-04 1.806535995503e-03 0.0 
0.0 0.0 0.0 
1.668636140522e-03 3.495277136387e-05 0.0 
3.495277136387e-05 1.394813990156e-03 0.0 
0.0 0.0 0.0 
1.085285237489e-03 7.198787494162e-06 0.0 
7.198787494162e-06 1.471844792757e-03 0.0 
0.0 0.0 0.0 
1.680106123477e-03 -2.071116915159e-04 0.0 
-2.071116915159e-04 1.056575602432e-03 0.0 
0.0 0.0 0.0 
6.652982797897e-04 3.028513339659e-03 0.0 
3.028513339659e-03 7.769996420248e-03 0.0 
0.0 0.0 0.0 
2.632333200819e-03 2.036087143423e-03 0.0 
2.036087143423e-03 4.728118396703e-03 0.0 
0.0 0.0 0.0 
2.214144058705e-03 2.117480221539e-03 0.0 
2.117480221539e-03 5.599555535083e-03 0.0 
0.0 0.0 0.0 
2.471953142989e-03 2.326499920125e-03 0.0 
2.326499920125e-03 5.349932784677e-03 0.0 
0.0 0.0 0.0 
4.941352753103e-04 -3.597743593339e-04 0.0 
-3.597743593339e-04 1.372521677993e-03 0.0 
0.0 0.0 0.0 
4.883482206475e-04 -4.735176019342e-05 0.0 
-4.735176019342e-05 5.450279752402e-03 0.0 
0.0 0.0 0.0 
1.321972724171e-03 5.011972234505e-04 0.0 
5.011972234505e-04 5.166855415887e-03 0.0 
0.0 0.0 0.0 
1.561059276856e-03 5.946693537533e-04 0.0 
5.946693537533e-04 4.832495678960e-03 0.0 
0.0 0.0 0.0 
1.879766423280e-03 1.499121304207e-03 0.0 
1.499121304207e-03 5.526342842961e-03 0.0 
0.0 0.0 0.0 
4.622419516182e-04 -2.399582585258e-04 0.0 
-2.399582585258e-04 1.411815229348e-03 0.0 
0.0 0.0 0.0 
7.355860713185e-04 7.251103120585e-04 0.0 
7.251103120585e-04 2.366120159749e-03 0.0 
0.0 0.0 0.0 
7.664964238172e-04 1.012034648188e-03 0.0 
1.012034648188e-03 2.740814062749e-03 0.0 
0.0 0.0 0.0 
-2.116367524759e-03 1.768305121798e-03 0.0 
1.768305121798e-03 1.611865101201e-02 0.0 
0.0 0.0 0.0 
-2.161103972648e-03 1.404584943714e-03 0.0 
1.404584943714e-03 1.624182544679e-02 0.0 
0.0 0.0 0.0 
1.285970527744e-03 6.749803462079e-04 0.0 
6.749803462079e-04 5.557717517746e-03 0.0 
0.0 0.0 0.0 
4.488445337599e-04 -1.967128218854e-04 0.0 
-1.967128218854e-04 1.613201384785e-03 0.0 
0.0 0.0 0.0 
9.063047468713e-04 2.175044691506e-04 0.0 
2.175044691506e-04 5.436862702244e-03 0.0 
0.0 0.0 0.0 
6.480976832175e-04 2.303773127278e-04 0.0 
2.303773127278e-04 1.729536994081e-03 0.0 
0.0 0.0 0.0 
3.811523175053e-04 -1.099695137029e-04 0.0 
-1.099695137029e-04 5.276105473223e-03 0.0 
0.0 0.0 0.0 
3.612995198855e-04 -5.856136906907e-05 0.0 
-5.856136906907e-05 5.694423360524e-03 0.0 
0.0 0.0 0.0 
1.156529344731e-03 -4.749134612063e-05 0.0 
-4.749134612063e-05 4.036133788252e-03 0.0 
0.0 0.0 0.0 
2.029842074426e-03 2.396233229715e-03 0.0 
2.396233229715e-03 6.251462224891e-03 0.0 
0.0 0.0 0.0 
2.280652116093e-03 2.613736051712e-03 0.0 
2.613736051712e-03 6.012567072282e-03 0.0 
0.0 0.0 0.0 
2.354603868376e-03 -1.151916979825e-04 0.0 
-1.151916979825e-04 8.330710924569e-04 0.0 
0.0 0.0 0.0 
2.302246234664e-03 -3.187392361943e-04 0.0 
-3.187392361943e-04 5.463430076195e-04 0.0 
0.0 0.0 0.0 
1.616800691660e-03 -3.939417582209e-04 0.0 
-3.939417582209e-04 8.026092015086e-04 0.0 
0.0 0.0 0.0 
2.149691879896e-03 -5.034634122864e-04 0.0 
-5.034634122864e-04 3.548971994116e-04 0.0 
0.0 0.0 0.0 
2.750792683712e-03 -3.623410042595e-04 0.0 
-3.623410042595e-04 1.572570864327e-04 0.0 
0.0 0.0 0.0 
2.462312825185e-03 -5.380365000999e-04 0.0 
-5.380365000999e-04 1.251814603823e-04 0.0 
0.0 0.0 0.0 
1.917145791063e-03 -6.705400150409e-04 0.0 
-6.705400150409e-04 2.867492696545e-04 0.0 
0.0 0.0 0.0 
2.068984675898e-03 -6.339242740722e-04 0.0 
-6.339242740722e-04 1.839628356744e-04 0.0 
0.0 0.0 0.0 
2.414889353619e-03 -4.809563596070e-04 0.0 
-4.809563596070e-04 2.261216882956e-04 0.0 
0.0 0.0 0.0 
1.969539236751e-03 -5.721310506794e-04 0.0 
-5.721310506794e-04 3.532164190512e-04 0.0 
0.0 0.0 0.0 
1.581381359019e-03 -6.840691699741e-04 0.0 
-6.840691699741e-04 3.489110628610e-04 0.0 
0.0 0.0 0.0 
1.481236148335e-03 -5.958758317001e-04 0.0 
-5.958758317001e-04 5.354398206837e-04 0.0 
0.0 0.0 0.0 
4.199796310228e-04 1.349322186144e-05 0.0 
1.349322186144e-05 5.918839213038e-03 0.0 
0.0 0.0 0.0 
5.826993587079e-04 1.964676312037e-05 0.0 
1.964676312037e-05 1.454087818818e-03 0.0 
0.0 0.0 0.0 
-1.666967452798e-03 2.696810610722e-03 0.0 
2.696810610722e-03 1.177445098312e-02 0.0 
0.0 0.0 0.0 
1.065013813059e-03 5.812184209511e-04 0.0 
5.812184209511e-04 5.865249672494e-03 0.0 
0.0 0.0 0.0 
1.744566758459e-03 1.745564656504e-03 0.0 
1.745564656504e-03 6.079448750006e-03 0.0 
0.0 0.0 0.0 
-1.956076048259e-03 1.683007564529e-03 0.0 
1.683007564529e-03 1.641032092973e-02 0.0 
0.0 0.0 0.0 
-1.986469121714e-03 1.343387070216e-03 0.0 
1.343387070216e-03 1.647923798424e-02 0.0 
0.0 0.0 0.0 
-2.142085720474e-03 1.059264531146e-03 0.0 
1.059264531146e-03 1.626685828511e-02 0.0 
0.0 0.0 0.0 
-1.968660639343e-03 1.029742062235e-03 0.0 
1.029742062235e-03 1.646620979299e-02 0.0 
0.0 0.0 0.0 
-1.781321558096e-03 1.299842144408e-03 0.0 
1.299842144408e-03 1.668102487039e-02 0.0 
0.0 0.0 0.0 
-1.774691322273e-03 1.009235429622e-03 0.0 
1.009235429622e-03 1.664385194137e-02 0.0 
0.0 0.0 0.0 
-1.913811605421e-03 7.577695543718e-04 0.0 
7.577695543718e-04 1.638368924607e-02 0.0 
0.0 0.0 0.0 
-1.740388402160e-03 7.577226926297e-04 0.0 
7.577226926297e-04 1.655120139879e-02 0.0 
0.0 0.0 0.0 
-1.837819383216e-03 5.346663600149e-04 0.0 
5.346663600149e-04 1.624802366726e-02 0.0 
0.0 0.0 0.0 
-1.689785873459e-03 5.514410897041e-04 0.0 
5.514410897041e-04 1.641553161601e-02 0.0 
0.0 0.0 0.0 
-1.552771795205e-03 7.543817030368e-04 0.0 
7.543817030368e-04 1.670656990292e-02 0.0 
0.0 0.0 0.0 
-1.527202818262e-03 5.596010551663e-04 0.0 
5.596010551663e-04 1.657134064220e-02 0.0 
0.0 0.0 0.0 
-1.634591852912e-03 3.883882150771e-04 0.0 
3.883882150771e-04 1.624938181260e-02 0.0 
0.0 0.0 0.0 
-1.498017507144e-03 4.016915786103e-04 0.0 
4.016915786103e-04 1.641253413841e-02 0.0 
0.0 0.0 0.0 
-1.584543609379e-03 2.636608738406e-04 0.0 
2.636608738406e-04 1.606622781488e-02 0.0 
0.0 0.0 0.0 
-1.472103193304e-03 2.781161482059e-04 0.0 
2.781161482059e-04 1.623734680138e-02 0.0 
0.0 0.0 0.0 
-1.350163080652e-03 4.013881308948e-04 0.0 
4.013881308948e-04 1.656652633987e-02 0.0 
0.0 0.0 0.0 
5.107744153506e-04 -1.626448112072e-04 0.0 
-1.626448112072e-04 1.208118240943e-03 0.0 
0.0 0.0 0.0 
1.972206689590e-03 1.256155964448e-03 0.0 
1.256155964448e-03 5.018158049239e-03 0.0 
0.0 0.0 0.0 
1.623924454980e-03 1.347922912974e-03 0.0 
1.347922912974e-03 5.823893517750e-03 0.0 
0.0 0.0 0.0 
2.069801775315e-04 -2.972222783803e-04 0.0 
-2.972222783803e-04 2.925553259838e-03 0.0 
0.0 0.0 0.0 
1.069500971039e-04 -2.941118308807e-04 0.0 
-2.941118308807e-04 3.365241184477e-03 0.0 
0.0 0.0 0.0 
2.402280445934e-04 -3.109190154725e-04 0.0 
-3.109190154725e-04 3.453296750492e-03 0.0 
0.0 0.0 0.0 
4.170067730937e-05 -2.791443144981e-04 0.0 
-2.791443144981e-04 3.807617030177e-03 0.0 
0.0 0.0 0.0 
-1.350367170101e-03 2.774407853587e-04 0.0 
2.774407853587e-04 1.639963233764e-02 0.0 
0.0 0.0 0.0 
-1.196117114725e-03 3.837487034571e-04 0.0 
3.837487034571e-04 1.671305002519e-02 0.0 
0.0 0.0 0.0 
6.402447699184e-04 9.698435482070e-04 0.0 
9.698435482070e-04 2.367783308566e-03 0.0 
0.0 0.0 0.0 
7.220052249493e-04 1.289034256903e-03 0.0 
1.289034256903e-03 2.723071284551e-03 0.0 
0.0 0.0 0.0 
-1.878073710911e-03 2.035625064754e-03 0.0 
2.035625064754e-03 1.626122831790e-02 0.0 
0.0 0.0 0.0 
2.499992825149e-04 -1.104208704616e-04 0.0 
-1.104208704616e-04 5.531528524597e-03 0.0 
0.0 0.0 0.0 
2.080884728494e-04 -1.504976270312e-04 0.0 
-1.504976270312e-04 5.180046215147e-03 0.0 
0.0 0.0 0.0 
3.529598146168e-04 2.474697163605e-03 0.0 
2.474697163605e-03 6.097098858574e-03 0.0 
0.0 0.0 0.0 
5.259786161153e-05 2.602298869768e-03 0.0 
2.602298869768e-03 6.462286278884e-03 0.0 
0.0 0.0 0.0 
2.878637350523e-04 2.417391358654e-03 0.0 
2.417391358654e-03 5.683033372148e-03 0.0 
0.0 0.0 0.0 
1.701696440473e-04 2.677100526684e-03 0.0 
2.677100526684e-03 5.896443335677e-03 0.0 
0.0 0.0 0.0 
-1.345949864781e-04 2.782708660990e-03 0.0 
2.782708660990e-03 6.775594914836e-03 0.0 
0.0 0.0 0.0 
4.135219981911e-04 2.488206220134e-03 0.0 
2.488206220134e-03 5.090817001382e-03 0.0 
0.0 0.0 0.0 
1.818124312138e-03 5.100586396192e-04 0.0 
5.100586396192e-04 4.130633201954e-03 0.0 
0.0 0.0 0.0 
-1.353135581623e-03 7.408922750591e-04 0.0 
7.408922750591e-04 1.684670417128e-02 0.0 
0.0 0.0 0.0 
6.450272223174e-04 -4.218035960987e-04 0.0 
-4.218035960987e-04 1.430002740068e-03 0.0 
0.0 0.0 0.0 
5.240845853705e-04 -4.040955901509e-04 0.0 
-4.040955901509e-04 1.180564024195e-03 0.0 
0.0 0.0 0.0 
2.636097900031e-04 -6.245406555643e-05 0.0 
-6.245406555643e-05 5.912995137983e-03 0.0 
0.0 0.0 0.0 
2.287031868848e-03 1.158541614894e-03 0.0 
1.158541614894e-03 4.254636126505e-03 0.0 
0.0 0.0 0.0 
2.251103223828e-04 3.124611361077e-03 0.0 
3.124611361077e-03 8.694871460305e-03 0.0 
0.0 0.0 0.0 
1.640625654531e-03 3.461588304955e-03 0.0 
3.461588304955e-03 7.313948951317e-03 0.0 
0.0 0.0 0.0 
1.230979404089e-03 3.597765700440e-03 0.0 
3.597765700440e-03 8.203635057683e-03 0.0 
0.0 0.0 0.0 
2.061090106672e-03 3.735561087650e-03 0.0 
3.735561087650e-03 7.324164647129e-03 0.0 
0.0 0.0 0.0 
1.706804794637e-03 3.895491096443e-03 0.0 
3.895491096443e-03 8.164268867885e-03 0.0 
0.0 0.0 0.0 
1.790188210487e-03 3.764046368914e-03 0.0 
3.764046368914e-03 8.011162049863e-03 0.0 
0.0 0.0 0.0 
2.121876819113e-03 3.571597837817e-03 0.0 
3.571597837817e-03 7.195349621284e-03 0.0 
0.0 0.0 0.0 
1.830828791704e-03 2.675421908274e-03 0.0 
2.675421908274e-03 6.930280966579e-03 0.0 
0.0 0.0 0.0 
1.656877728864e-03 3.552363437768e-03 0.0 
3.552363437768e-03 8.083620247019e-03 0.0 
0.0 0.0 0.0 
-1.456692510162e-03 1.868049108453e-04 0.0 
1.868049108453e-04 1.605044522817e-02 0.0 
0.0 0.0 0.0 
2.888483902518e-03 2.245850921254e-03 0.0 
2.245850921254e-03 4.478610380208e-03 0.0 
0.0 0.0 0.0 
2.193196654674e-03 -4.337811909916e-04 0.0 
-4.337811909916e-04 5.271860693684e-04 0.0 
0.0 0.0 0.0 
4.905733375261e-04 -2.010403201610e-04 0.0 
-2.010403201610e-04 1.042086659245e-03 0.0 
0.0 0.0 0.0 
1.126875183816e-03 -6.544636613754e-04 0.0 
-6.544636613754e-04 4.999668581782e-04 0.0 
0.0 0.0 0.0 
5.761715508923e-04 -8.421880516138e-05 0.0 
-8.421880516138e-05 1.350724458757e-03 0.0 
0.0 0.0 0.0 
4.248727440130e-04 -1.355699369222e-04 0.0 
-1.355699369222e-04 1.843573447408e-03 0.0 
0.0 0.0 0.0 
1.003177214572e-03 7.560954747067e-04 0.0 
7.560954747067e-04 6.288674382155e-03 0.0 
0.0 0.0 0.0 
1.474069967197e-03 3.926881567065e-03 0.0 
3.926881567065e-03 8.816135096435e-03 0.0 
0.0 0.0 0.0 
1.397008735814e-03 4.052707853666e-03 0.0 
4.052707853666e-03 8.950345666158e-03 0.0 
0.0 0.0 0.0 
2.266186835965e-04 3.059497481684e-03 0.0 
3.059497481684e-03 6.038801662480e-03 0.0 
0.0 0.0 0.0 
-1.958240031779e-04 2.990391815420e-03 0.0 
2.990391815420e-03 7.025861980491e-03 0.0 
0.0 0.0 0.0 
1.581790130322e-03 2.451445004405e-03 0.0 
2.451445004405e-03 7.161181119310e-03 0.0 
0.0 0.0 0.0 
-2.420764803945e-03 1.203293145192e-03 0.0 
1.203293145192e-03 1.578824349198e-02 0.0 
0.0 0.0 0.0 
-1.969756041010e-03 5.150109539722e-04 0.0 
5.150109539722e-04 1.607100724680e-02 0.0 
0.0 0.0 0.0 
-1.854881005205e-03 3.310021095210e-04 0.0 
3.310021095210e-04 1.588974056394e-02 0.0 
0.0 0.0 0.0 
8.341179044313e-04 -4.505063204452e-05 0.0 
-4.505063204452e-05 7.300138402525e-04 0.0 
0.0 0.0 0.0 
1.069226930001e-03 -7.158399316822e-04 0.0 
-7.158399316822e-04 4.962526907769e-04 0.0 
0.0 0.0 0.0 
-1.554868137959e-03 1.260571870410e-03 0.0 
1.260571870410e-03 1.685455942809e-02 0.0 
0.0 0.0 0.0 
7.672627622248e-04 1.314535169018e-03 0.0 
1.314535169018e-03 3.168854352611e-03 0.0 
0.0 0.0 0.0 
7.483926196985e-04 1.618750904170e-03 0.0 
1.618750904170e-03 3.166082156277e-03 0.0 
0.0 0.0 0.0 
2.730336740531e-04 2.583443524236e-04 0.0 
2.583443524236e-04 1.489906568840e-03 0.0 
0.0 0.0 0.0 
1.222514354086e-04 1.083307931685e-04 0.0 
1.083307931685e-04 1.230220310323e-03 0.0 
0.0 0.0 0.0 
-1.222844258226e-03 2.631705418684e-04 0.0 
2.631705418684e-04 1.655478968100e-02 0.0 
0.0 0.0 0.0 
-1.044395516661e-03 3.458649321055e-04 0.0 
3.458649321055e-04 1.684858422680e-02 0.0 
0.0 0.0 0.0 
2.311236399715e-04 -2.805526097123e-04 0.0 
-2.805526097123e-04 3.852890502500e-03 0.0 
0.0 0.0 0.0 
3.057198778974e-05 -2.527660204042e-04 0.0 
-2.527660204042e-04 4.188375767009e-03 0.0 
0.0 0.0 0.0 
1.221212289884e-03 8.627244583348e-04 0.0 
8.627244583348e-04 5.995769352174e-03 0.0 
0.0 0.0 0.0 
1.042996418309e-03 -5.801618891984e-04 0.0 
-5.801618891984e-04 6.732525073775e-04 0.0 
0.0 0.0 0.0 
-9.927967168382e-04 4.915617355729e-04 0.0 
4.915617355729e-04 1.698399039110e-02 0.0 
0.0 0.0 0.0 
2.031774533183e-03 1.024413493777e-03 0.0 
1.024413493777e-03 4.563336233562e-03 0.0 
0.0 0.0 0.0 
2.314708397473e-03 9.226452896126e-04 0.0 
9.226452896126e-04 3.833888014230e-03 0.0 
0.0 0.0 0.0 
-9.579163873040e-06 -2.421216301981e-04 0.0 
-2.421216301981e-04 3.677817087075e-03 0.0 
0.0 0.0 0.0 
6.011765944273e-04 1.170898150413e-03 0.0 
1.170898150413e-03 2.388992868870e-03 0.0 
0.0 0.0 0.0 
4.281658013648e-04 8.542401681334e-04 0.0 
8.542401681334e-04 2.094898716770e-03 0.0 
0.0 0.0 0.0 
2.574212686652e-03 -3.169619641537e-04 0.0 
-3.169619641537e-04 4.625139097368e-04 0.0 
0.0 0.0 0.0 
1.300639847562e-03 -5.301687581480e-04 0.0 
-5.301687581480e-04 8.122784503762e-04 0.0 
0.0 0.0 0.0 
6.293216104859e-04 -3.432116074327e-05 0.0 
-3.432116074327e-05 1.497380883822e-03 0.0 
0.0 0.0 0.0 
9.138359845405e-04 9.500287556016e-04 0.0 
9.500287556016e-04 6.757318662668e-03 0.0 
0.0 0.0 0.0 
-1.516689117547e-03 1.561144802716e-03 0.0 
1.561144802716e-03 1.685179381384e-02 0.0 
0.0 0.0 0.0 
1.967948204100e-03 3.335560640862e-03 0.0 
3.335560640862e-03 7.283707097229e-03 0.0 
0.0 0.0 0.0 
2.451307513412e-03 3.344142824681e-03 0.0 
3.344142824681e-03 6.365842966359e-03 0.0 
0.0 0.0 0.0 
1.510424083799e-03 3.334054082707e-03 0.0 
3.334054082707e-03 8.178817126333e-03 0.0 
0.0 0.0 0.0 
6.782989631869e-04 -5.769722458086e-04 0.0 
-5.769722458086e-04 6.470695586786e-04 0.0 
0.0 0.0 0.0 
8.021007860984e-04 6.613605012425e-04 0.0 
6.613605012425e-04 6.574970416488e-03 0.0 
0.0 0.0 0.0 
1.401370065566e-04 -1.005866036931e-04 0.0 
-1.005866036931e-04 5.767243213438e-03 0.0 
0.0 0.0 0.0 
1.192684756825e-03 4.103513268275e-03 0.0 
4.103513268275e-03 9.564679979589e-03 0.0 
0.0 0.0 0.0 
1.131556164572e-03 4.217001511379e-03 0.0 
4.217001511379e-03 9.699324061631e-03 0.0 
0.0 0.0 0.0 
7.217675447801e-04 1.616443034785e-03 0.0 
1.616443034785e-03 3.671134527375e-03 0.0 
0.0 0.0 0.0 
7.089969348821e-04 1.937641787678e-03 0.0 
1.937641787678e-03 3.704777767856e-03 0.0 
0.0 0.0 0.0 
8.111790233613e-04 1.914161533697e-03 0.0 
1.914161533697e-03 3.176869368450e-03 0.0 
0.0 0.0 0.0 
8.177502297156e-04 2.297788956677e-03 0.0 
2.297788956677e-03 3.720063141079e-03 0.0 
0.0 0.0 0.0 
-2.026175510274e-03 2.504137771880e-03 0.0 
2.504137771880e-03 1.294944856094e-02 0.0 
0.0 0.0 0.0 
6.239591184238e-04 1.910174781855e-03 0.0 
1.910174781855e-03 4.259887640613e-03 0.0 
0.0 0.0 0.0 
-1.511597927139e-03 2.691389349726e-03 0.0 
2.691389349726e-03 1.104787308446e-02 0.0 
0.0 0.0 0.0 
-1.751606223815e-03 2.629903815819e-03 0.0 
2.629903815819e-03 1.149220395788e-02 0.0 
0.0 0.0 0.0 
-1.537922548443e-03 2.659388450890e-03 0.0 
2.659388450890e-03 1.069909877498e-02 0.0 
0.0 0.0 0.0 
-5.399704974087e-04 2.692712747554e-03 0.0 
2.692712747554e-03 7.740867516643e-03 0.0 
0.0 0.0 0.0 
-6.493904466512e-04 2.816229388312e-03 0.0 
2.816229388312e-03 8.051219734578e-03 0.0 
0.0 0.0 0.0 
1.336561544256e-03 1.175565534453e-03 0.0 
1.175565534453e-03 3.195232932707e-03 0.0 
0.0 0.0 0.0 
3.385968249767e-03 1.832972866079e-03 0.0 
1.832972866079e-03 3.080028768216e-03 0.0 
0.0 0.0 0.0 
4.918833745235e-04 -2.991042501587e-04 0.0 
-2.991042501587e-04 3.456993861824e-03 0.0 
0.0 0.0 0.0 
7.605896216976e-04 -1.531496357451e-04 0.0 
-1.531496357451e-04 4.254747519336e-03 0.0 
0.0 0.0 0.0 
1.992623381257e-03 2.500658245986e-04 0.0 
2.500658245986e-04 3.184965002510e-03 0.0 
0.0 0.0 0.0 
-1.342122542471e-03 9.617510162210e-04 0.0 
9.617510162210e-04 1.694762469674e-02 0.0 
0.0 0.0 0.0 
-1.109644370706e-03 9.219331269548e-04 0.0 
9.219331269548e-04 1.707478558389e-02 0.0 
0.0 0.0 0.0 
-1.681741416378e-03 2.374991831236e-04 0.0 
2.374991831236e-04 1.588317081806e-02 0.0 
0.0 0.0 0.0 
-1.619306798548e-03 1.455432652595e-04 0.0 
1.455432652595e-04 1.568033826898e-02 0.0 
0.0 0.0 0.0 
4.448172633664e-04 -3.236485827731e-04 0.0 
-3.236485827731e-04 1.067807411712e-03 0.0 
0.0 0.0 0.0 
4.403370588043e-04 -3.708622098632e-04 0.0 
-3.708622098632e-04 9.124602604528e-04 0.0 
0.0 0.0 0.0 
1.528616898738e-03 -8.163564682099e-05 0.0 
-8.163564682099e-05 3.128405074246e-03 0.0 
0.0 0.0 0.0 
8.629360973953e-04 5.010823359440e-04 0.0 
5.010823359440e-04 6.149385757383e-03 0.0 
0.0 0.0 0.0 
-1.683915528019e-03 1.952170186005e-03 0.0 
1.952170186005e-03 1.655188065916e-02 0.0 
0.0 0.0 0.0 
-1.582304955919e-03 2.312064078761e-03 0.0 
2.312064078761e-03 1.638260537411e-02 0.0 
0.0 0.0 0.0 
-1.766857598858e-03 2.388041376702e-03 0.0 
2.388041376702e-03 1.604954610302e-02 0.0 
0.0 0.0 0.0 
1.131456567232e-03 1.067702169141e-03 0.0 
1.067702169141e-03 6.466975122214e-03 0.0 
0.0 0.0 0.0 
3.030333789829e-03 5.838348635788e-04 0.0 
5.838348635788e-04 1.330117203130e-03 0.0 
0.0 0.0 0.0 
2.852644325196e-03 1.190244399766e-03 0.0 
1.190244399766e-03 3.211963247985e-03 0.0 
0.0 0.0 0.0 
4.536129837645e-04 -1.327308123752e-04 0.0 
-1.327308123752e-04 1.235708770040e-03 0.0 
0.0 0.0 0.0 
2.424747369358e-03 3.037943236689e-03 0.0 
3.037943236689e-03 5.542365027708e-03 0.0 
0.0 0.0 0.0 
4.148669234807e-04 -2.899060732224e-04 0.0 
-2.899060732224e-04 7.444334098864e-04 0.0 
0.0 0.0 0.0 
-1.245857015194e-03 3.162037040322e-03 0.0 
3.162037040322e-03 1.170086096793e-02 0.0 
0.0 0.0 0.0 
1.594957380515e-04 -5.728818369461e-05 0.0 
-5.728818369461e-05 6.140291039868e-03 0.0 
0.0 0.0 0.0 
2.299969127260e-04 -8.728339905192e-06 0.0 
-8.728339905192e-06 6.341226959177e-03 0.0 
0.0 0.0 0.0 
1.367315818713e-03 2.709631152173e-03 0.0 
2.709631152173e-03 7.850800707965e-03 0.0 
0.0 0.0 0.0 
-2.491291488606e-03 2.519175744584e-03 0.0 
2.519175744584e-03 1.333133383793e-02 0.0 
0.0 0.0 0.0 
3.041989336916e-03 3.011601445695e-03 0.0 
3.011601445695e-03 4.864364458380e-03 0.0 
0.0 0.0 0.0 
3.258430778239e-03 2.689259358443e-03 0.0 
2.689259358443e-03 4.160226247466e-03 0.0 
0.0 0.0 0.0 
-1.625968373604e-03 2.889354746214e-03 0.0 
2.889354746214e-03 1.106984930494e-02 0.0 
0.0 0.0 0.0 
-1.285591677852e-03 3.029578218502e-03 0.0 
3.029578218502e-03 1.018820673278e-02 0.0 
0.0 0.0 0.0 
-1.286687606573e-03 2.698765869318e-03 0.0 
2.698765869318e-03 9.881989197111e-03 0.0 
0.0 0.0 0.0 
-9.418345890501e-04 3.124130925395e-03 0.0 
3.124130925395e-03 9.277384980276e-03 0.0 
0.0 0.0 0.0 
2.307533868108e-03 -2.996354776682e-04 0.0 
-2.996354776682e-04 8.120873880693e-04 0.0 
0.0 0.0 0.0 
1.934490915550e-03 -3.995918144589e-04 0.0 
-3.995918144589e-04 8.779862670414e-04 0.0 
0.0 0.0 0.0 
1.042555199588e-03 3.914057533635e-03 0.0 
3.914057533635e-03 9.713975634093e-03 0.0 
0.0 0.0 0.0 
1.236680171312e-03 3.560028275650e-03 0.0 
3.560028275650e-03 8.939340091761e-03 0.0 
0.0 0.0 0.0 
9.714849592772e-04 4.269398223744e-03 0.0 
4.269398223744e-03 1.029277481728e-02 0.0 
0.0 0.0 0.0 
9.071238341971e-04 4.387691370801e-03 0.0 
4.387691370801e-03 1.044406627953e-02 0.0 
0.0 0.0 0.0 
1.156958939715e-03 2.489893122170e-03 0.0 
2.489893122170e-03 8.048935779353e-03 0.0 
0.0 0.0 0.0 
1.371449977051e-03 2.242861247102e-03 0.0 
2.242861247102e-03 7.373978318545e-03 0.0 
0.0 0.0 0.0 
4.225895764921e-04 -8.372635068550e-05 0.0 
-8.372635068550e-05 2.044099775240e-03 0.0 
0.0 0.0 0.0 
-2.554743468988e-04 3.142370226488e-03 0.0 
3.142370226488e-03 7.363015559706e-03 0.0 
0.0 0.0 0.0 
-1.258847609875e-03 1.505791166865e-03 0.0 
1.505791166865e-03 1.702103906573e-02 0.0 
0.0 0.0 0.0 
-1.957113965533e-03 2.672510159191e-03 0.0 
2.672510159191e-03 1.193881492721e-02 0.0 
0.0 0.0 0.0 
6.164312164487e-04 5.762429009701e-04 0.0 
5.762429009701e-04 6.824971696242e-03 0.0 
0.0 0.0 0.0 
6.793741454744e-04 4.325609093459e-04 0.0 
4.325609093459e-04 6.423885991543e-03 0.0 
0.0 0.0 0.0 
-1.320037068651e-04 2.669489240286e-06 0.0 
2.669489240286e-06 1.032679468410e-03 0.0 
0.0 0.0 0.0 
2.385174119800e-04 -2.824739196911e-04 0.0 
-2.824739196911e-04 1.044953581486e-03 0.0 
0.0 0.0 0.0 
-8.196283080980e-04 4.276934919714e-04 0.0 
4.276934919714e-04 1.710864603969e-02 0.0 
0.0 0.0 0.0 
4.535672124457e-04 1.969338667803e-03 0.0 
1.969338667803e-03 3.627082990774e-03 0.0 
0.0 0.0 0.0 
4.856780476303e-04 2.359274703259e-03 0.0 
2.359274703259e-03 4.178547023971e-03 0.0 
0.0 0.0 0.0 
3.763925537829e-04 1.579466809986e-03 0.0 
1.579466809986e-03 3.140651884573e-03 0.0 
0.0 0.0 0.0 
7.544389812864e-05 1.799285438997e-05 0.0 
1.799285438997e-05 6.938572530991e-03 0.0 
0.0 0.0 0.0 
-1.533296906670e-03 1.306197474637e-05 0.0 
1.306197474637e-05 1.483932733243e-02 0.0 
0.0 0.0 0.0 
1.393637433624e-04 -8.041883400709e-06 0.0 
-8.041883400709e-06 6.557014945444e-03 0.0 
0.0 0.0 0.0 
-9.168699087148e-04 2.581445428673e-03 0.0 
2.581445428673e-03 8.687224477307e-03 0.0 
0.0 0.0 0.0 
-7.387320243404e-04 5.976793796823e-04 0.0 
5.976793796823e-04 1.722297741542e-02 0.0 
0.0 0.0 0.0 
2.960400066804e-03 2.791222712749e-03 0.0 
2.791222712749e-03 4.890257722580e-03 0.0 
0.0 0.0 0.0 
5.683587190356e-04 2.245953286532e-03 0.0 
2.245953286532e-03 5.351503154311e-03 0.0 
0.0 0.0 0.0 
1.456102568259e-03 9.835937658574e-04 0.0 
9.835937658574e-04 5.678417120975e-03 0.0 
0.0 0.0 0.0 
-9.067158926645e-04 2.668508519283e-04 0.0 
2.668508519283e-04 1.696413256994e-02 0.0 
0.0 0.0 0.0 
-6.441003175727e-04 3.433678598564e-04 0.0 
3.433678598564e-04 1.723546575579e-02 0.0 
0.0 0.0 0.0 
-1.929149498184e-03 2.993822238333e-04 0.0 
2.993822238333e-04 1.569333970776e-02 0.0 
0.0 0.0 0.0 
-1.810736084879e-03 1.591950168125e-04 0.0 
1.591950168125e-04 1.546901002808e-02 0.0 
0.0 0.0 0.0 
-2.078303044276e-03 4.938178238856e-04 0.0 
4.938178238856e-04 1.586997547961e-02 0.0 
0.0 0.0 0.0 
4.032297498207e-04 4.382784818561e-04 0.0 
4.382784818561e-04 1.780246515943e-03 0.0 
0.0 0.0 0.0 
1.299284627792e-05 4.708175439222e-04 0.0 
4.708175439222e-04 1.447809832068e-03 0.0 
0.0 0.0 0.0 
-1.147047398619e-03 7.089674376243e-04 0.0 
7.089674376243e-04 1.697715594732e-02 0.0 
0.0 0.0 0.0 
2.921545902577e-04 -2.673838859513e-04 0.0 
-2.673838859513e-04 2.472696253719e-03 0.0 
0.0 0.0 0.0 
1.798854797854e-04 -2.236927521032e-04 0.0 
-2.236927521032e-04 2.826147228999e-03 0.0 
0.0 0.0 0.0 
9.002419764486e-04 -5.217327227503e-04 0.0 
-5.217327227503e-04 9.264605602511e-04 0.0 
0.0 0.0 0.0 
1.101204822595e-03 -4.849867394168e-04 0.0 
-4.849867394168e-04 1.116787423743e-03 0.0 
0.0 0.0 0.0 
5.112047844755e-04 -2.561541882111e-04 0.0 
-2.561541882111e-04 3.835404396156e-03 0.0 
0.0 0.0 0.0 
7.927565188012e-04 -2.623778210155e-04 0.0 
-2.623778210155e-04 3.424670953005e-03 0.0 
0.0 0.0 0.0 
-6.346206628087e-04 3.425945263064e-03 0.0 
3.425945263064e-03 1.100435980958e-02 0.0 
0.0 0.0 0.0 
-7.800132263293e-04 3.547536825647e-03 0.0 
3.547536825647e-03 1.167484490956e-02 0.0 
0.0 0.0 0.0 
-1.587177368864e-04 3.194935431799e-03 0.0 
3.194935431799e-03 9.548425468340e-03 0.0 
0.0 0.0 0.0 
2.061467621761e-03 8.042288758996e-04 0.0 
8.042288758996e-04 4.152190532424e-03 0.0 
0.0 0.0 0.0 
2.313248063974e-03 7.030433998577e-04 0.0 
7.030433998577e-04 3.459975112496e-03 0.0 
0.0 0.0 0.0 
2.567820973773e-03 8.122795605719e-04 0.0 
8.122795605719e-04 3.144341463477e-03 0.0 
0.0 0.0 0.0 
-1.056646874162e-03 1.157171129299e-03 0.0 
1.157171129299e-03 1.713137756485e-02 0.0 
0.0 0.0 0.0 
-7.685936701673e-04 1.101226506538e-03 0.0 
1.101226506538e-03 1.725650093604e-02 0.0 
0.0 0.0 0.0 
2.613672867611e-03 -1.626532305001e-04 0.0 
-1.626532305001e-04 8.235584372831e-04 0.0 
0.0 0.0 0.0 
2.883230519038e-03 -1.643823380760e-04 0.0 
-1.643823380760e-04 4.819490281629e-04 0.0 
0.0 0.0 0.0 
2.048727128569e-03 -2.934319704030e-04 0.0 
-2.934319704030e-04 1.159242116555e-03 0.0 
0.0 0.0 0.0 
-1.179731404660e-03 1.821097606495e-03 0.0 
1.821097606495e-03 1.698433555700e-02 0.0 
0.0 0.0 0.0 
1.717943464121e-04 5.216008078103e-05 0.0 
5.216008078103e-05 6.799945248555e-03 0.0 
0.0 0.0 0.0 
2.551097203441e-04 5.642280760044e-05 0.0 
5.642280760044e-05 6.592187037952e-03 0.0 
0.0 0.0 0.0 
3.789639734333e-04 -3.415575694579e-04 0.0 
-3.415575694579e-04 6.004544583684e-04 0.0 
0.0 0.0 0.0 
4.422107589815e-04 -4.272480675600e-04 0.0 
-4.272480675600e-04 7.528704070503e-04 0.0 
0.0 0.0 0.0 
1.333031607112e-04 9.918368912745e-04 0.0 
9.918368912745e-04 2.296534102669e-03 0.0 
0.0 0.0 0.0 
1.300998423326e-06 7.869448335952e-04 0.0 
7.869448335952e-04 1.891358454573e-03 0.0 
0.0 0.0 0.0 
-1.462285638001e-03 2.664972419046e-03 0.0 
2.664972419046e-03 1.615771362966e-02 0.0 
0.0 0.0 0.0 
-1.635248572229e-03 2.733232841143e-03 0.0 
2.733232841143e-03 1.578034155799e-02 0.0 
0.0 0.0 0.0 
-1.203256898157e-03 2.635446993209e-03 0.0 
2.635446993209e-03 1.646379380645e-02 0.0 
0.0 0.0 0.0 
6.764894839217e-04 5.137194376796e-08 0.0 
5.137194376796e-08 1.617475086262e-03 0.0 
0.0 0.0 0.0 
2.268707818828e-03 3.114033844895e-03 0.0 
3.114033844895e-03 6.507188032685e-03 0.0 
0.0 0.0 0.0 
8.043724773282e-04 1.160530510470e-03 0.0 
1.160530510470e-03 7.249676352868e-03 0.0 
0.0 0.0 0.0 
1.037386185103e-03 1.299620342455e-03 0.0 
1.299620342455e-03 6.970983051862e-03 0.0 
0.0 0.0 0.0 
5.728235177814e-04 1.052716901650e-03 0.0 
1.052716901650e-03 7.625868610144e-03 0.0 
0.0 0.0 0.0 
1.603980068810e-03 2.923640176708e-03 0.0 
2.923640176708e-03 7.623683050529e-03 0.0 
0.0 0.0 0.0 
1.108147066872e-03 2.927680697348e-03 0.0 
2.927680697348e-03 8.540621076379e-03 0.0 
0.0 0.0 0.0 
1.032282898262e-03 3.332331526728e-03 0.0 
3.332331526728e-03 9.084498622016e-03 0.0 
0.0 0.0 0.0 
-3.841325148407e-04 1.624729068888e-04 0.0 
1.624729068888e-04 9.299067630230e-04 0.0 
0.0 0.0 0.0 
-6.988538620856e-04 2.100806285227e-04 0.0 
2.100806285227e-04 1.715354229953e-02 0.0 
0.0 0.0 0.0 
-1.674812356831e-03 1.100475433364e-04 0.0 
1.100475433364e-04 1.545706234976e-02 0.0 
0.0 0.0 0.0 
-6.867406481361e-04 7.310222676287e-05 0.0 
7.310222676287e-05 8.459183047362e-04 0.0 
0.0 0.0 0.0 
-1.608625682525e-03 5.798086007139e-05 0.0 
5.798086007139e-05 1.524409162051e-02 0.0 
0.0 0.0 0.0 
-1.574832143992e-03 8.481952577859e-05 0.0 
8.481952577859e-05 1.547055214968e-02 0.0 
0.0 0.0 0.0 
-1.574766160088e-03 2.693729520616e-05 0.0 
2.693729520616e-05 1.501107661171e-02 0.0 
0.0 0.0 0.0 
9.445059256036e-04 1.237375102952e-05 0.0 
1.237375102952e-05 9.758341191395e-04 0.0 
0.0 0.0 0.0 
-1.967067969109e-03 2.355232863208e-04 0.0 
2.355232863208e-04 1.541160999567e-02 0.0 
0.0 0.0 0.0 
-2.169378715787e-03 4.922715605374e-04 0.0 
4.922715605374e-04 1.566166225655e-02 0.0 
0.0 0.0 0.0 
2.779206164365e-04 -3.805378061263e-04 0.0 
-3.805378061263e-04 4.333198949645e-04 0.0 
0.0 0.0 0.0 
-8.630134669398e-04 1.730600249876e-03 0.0 
1.730600249876e-03 1.713244668787e-02 0.0 
0.0 0.0 0.0 
3.868494604240e-04 -2.376698817848e-04 0.0 
-2.376698817848e-04 4.191028840506e-04 0.0 
0.0 0.0 0.0 
4.406907657956e-04 -2.012759215909e-04 0.0 
-2.012759215909e-04 5.454100069503e-04 0.0 
0.0 0.0 0.0 
4.710326954882e-04 5.142616280275e-04 0.0 
5.142616280275e-04 7.077094420781e-03 0.0 
0.0 0.0 0.0 
5.291112584579e-04 3.646857649159e-04 0.0 
3.646857649159e-04 6.664452207509e-03 0.0 
0.0 0.0 0.0 
3.481841695333e-04 4.439932182494e-04 0.0 
4.439932182494e-04 7.267083477785e-03 0.0 
0.0 0.0 0.0 
4.049633674175e-04 3.200586448157e-04 0.0 
3.200586448157e-04 6.857643423181e-03 0.0 
0.0 0.0 0.0 
5.677674334853e-04 2.419941377328e-04 0.0 
2.419941377328e-04 6.283808565423e-03 0.0 
0.0 0.0 0.0 
4.355210484407e-04 2.128244198793e-04 0.0 
2.128244198793e-04 6.517116103626e-03 0.0 
0.0 0.0 0.0 
-1.702764881373e-03 7.482180533106e-05 0.0 
7.482180533106e-05 1.522904288115e-02 0.0 
0.0 0.0 0.0 
2.695539518011e-04 3.108599750029e-04 0.0 
3.108599750029e-04 7.164398235746e-03 0.0 
0.0 0.0 0.0 
3.139014974956e-04 1.776307258449e-04 0.0 
1.776307258449e-04 6.745947244198e-03 0.0 
0.0 0.0 0.0 
1.931052636444e-04 2.670693131660e-04 0.0 
2.670693131660e-04 7.364038457041e-03 0.0 
0.0 0.0 0.0 
-8.807644612749e-04 3.499525414253e-03 0.0 
3.499525414253e-03 9.709477447788e-03 0.0 
0.0 0.0 0.0 
7.159333337077e-04 2.639899913375e-03 0.0 
2.639899913375e-03 4.374426606217e-03 0.0 
0.0 0.0 0.0 
4.447935047947e-04 2.733794046777e-03 0.0 
2.733794046777e-03 4.819640465470e-03 0.0 
0.0 0.0 0.0 
-2.007661599242e-04 2.174226320643e-03 0.0 
2.174226320643e-03 5.036812220719e-03 0.0 
0.0 0.0 0.0 
6.899725510385e-04 4.438441837459e-03 0.0 
4.438441837459e-03 1.114332161835e-02 0.0 
0.0 0.0 0.0 
6.961808839661e-04 4.541188836266e-03 0.0 
4.541188836266e-03 1.113911788257e-02 0.0 
0.0 0.0 0.0 
2.372435554228e-05 -7.297998197984e-05 0.0 
-7.297998197984e-05 6.019295260075e-03 0.0 
0.0 0.0 0.0 
-5.452379107427e-05 -9.432198141399e-05 0.0 
-9.432198141399e-05 5.698519000192e-03 0.0 
0.0 0.0 0.0 
-1.549601299276e-03 4.395124427666e-05 0.0 
4.395124427666e-05 1.524045098828e-02 0.0 
0.0 0.0 0.0 
-1.519262583530e-03 2.892354376057e-05 0.0 
2.892354376057e-05 1.520620801640e-02 0.0 
0.0 0.0 0.0 
-1.495824762861e-03 7.521710275759e-05 0.0 
7.521710275759e-05 1.557433564683e-02 0.0 
0.0 0.0 0.0 
-1.472419969956e-03 4.702440258414e-05 0.0 
4.702440258414e-05 1.551742869235e-02 0.0 
0.0 0.0 0.0 
-1.424137570903e-03 9.840539487918e-05 0.0 
9.840539487918e-05 1.586930244530e-02 0.0 
0.0 0.0 0.0 
-1.405005925849e-03 5.647039320568e-05 0.0 
5.647039320568e-05 1.580365024951e-02 0.0 
0.0 0.0 0.0 
-1.332299328373e-03 1.067308222691e-04 0.0 
1.067308222691e-04 1.614447973643e-02 0.0 
0.0 0.0 0.0 
7.766153104582e-04 3.576105131418e-03 0.0 
3.576105131418e-03 9.881200595322e-03 0.0 
0.0 0.0 0.0 
-2.371729452613e-04 1.627360524616e-03 0.0 
1.627360524616e-03 3.701288631955e-03 0.0 
0.0 0.0 0.0 
-1.621680207515e-03 3.380557517748e-03 0.0 
3.380557517748e-03 1.154465591110e-02 0.0 
0.0 0.0 0.0 
9.505218648651e-04 2.279203892680e-03 0.0 
2.279203892680e-03 8.240462863829e-03 0.0 
0.0 0.0 0.0 
1.168481076489e-03 2.047265436377e-03 0.0 
2.047265436377e-03 7.547863193263e-03 0.0 
0.0 0.0 0.0 
-6.033682199641e-04 3.143347130582e-03 0.0 
3.143347130582e-03 8.329826380500e-03 0.0 
0.0 0.0 0.0 
-4.499404581361e-04 3.090585671016e-03 0.0 
3.090585671016e-03 8.010687750012e-03 0.0 
0.0 0.0 0.0 
4.989274423385e-04 7.499778562433e-04 0.0 
7.499778562433e-04 7.386279073922e-03 0.0 
0.0 0.0 0.0 
8.691666349424e-04 1.685262402778e-03 0.0 
1.685262402778e-03 4.022302255426e-03 0.0 
0.0 0.0 0.0 
-6.567325717705e-04 2.170499003705e-03 0.0 
2.170499003705e-03 1.695780741581e-02 0.0 
0.0 0.0 0.0 
-8.885207951821e-04 4.627326149207e-04 0.0 
4.627326149207e-04 7.361323447361e-04 0.0 
0.0 0.0 0.0 
-5.040570301971e-04 4.583650596600e-04 0.0 
4.583650596600e-04 1.037372693584e-03 0.0 
0.0 0.0 0.0 
7.390898624239e-04 1.973092860246e-03 0.0 
1.973092860246e-03 4.645247545759e-03 0.0 
0.0 0.0 0.0 
-1.001030494613e-03 2.741845299697e-03 0.0 
2.741845299697e-03 9.010658907996e-03 0.0 
0.0 0.0 0.0 
5.078097052431e-04 2.894015378572e-03 0.0 
2.894015378572e-03 5.155620983681e-03 0.0 
0.0 0.0 0.0 
3.504524757404e-04 3.100098465321e-03 0.0 
3.100098465321e-03 5.568131513064e-03 0.0 
0.0 0.0 0.0 
1.777379147774e-03 8.995130172235e-04 0.0 
8.995130172235e-04 4.892047789027e-03 0.0 
0.0 0.0 0.0 
4.062149606264e-04 -4.909822931555e-04 0.0 
-4.909822931555e-04 6.473488868362e-04 0.0 
0.0 0.0 0.0 
2.718554370560e-04 1.259649417377e-03 0.0 
1.259649417377e-03 2.704104042187e-03 0.0 
0.0 0.0 0.0 
-1.364291315972e-03 1.766279610180e-04 0.0 
1.766279610180e-04 1.620117138328e-02 0.0 
0.0 0.0 0.0 
-3.352757803935e-04 1.236953292159e-03 0.0 
1.236953292159e-03 2.554472355055e-03 0.0 
0.0 0.0 0.0 
-1.492907778838e-04 -4.773189410711e-05 0.0 
-4.773189410711e-05 5.950650824073e-03 0.0 
0.0 0.0 0.0 
1.206191851431e-03 1.478691975583e-03 0.0 
1.478691975583e-03 3.747799269035e-03 0.0 
0.0 0.0 0.0 
-6.329575736241e-04 2.662001711180e-03 0.0 
2.662001711180e-03 8.244540427652e-03 0.0 
0.0 0.0 0.0 
7.389814018921e-04 1.538633686298e-03 0.0 
1.538633686298e-03 2.740150704740e-03 0.0 
0.0 0.0 0.0 
5.996704131508e-04 2.241826471074e-03 0.0 
2.241826471074e-03 4.356031271080e-03 0.0 
0.0 0.0 0.0 
-1.794385337000e-03 2.675479544563e-03 0.0 
2.675479544563e-03 1.248590599512e-02 0.0 
0.0 0.0 0.0 
-2.278558554860e-03 2.282202215522e-03 0.0 
2.282202215522e-03 1.348195014428e-02 0.0 
0.0 0.0 0.0 
-2.206114858631e-03 2.450846735862e-03 0.0 
2.450846735862e-03 1.273524382299e-02 0.0 
0.0 0.0 0.0 
1.859536842366e-03 1.294767873557e-03 0.0 
1.294767873557e-03 3.209070486814e-03 0.0 
0.0 0.0 0.0 
1.067728172904e-04 3.175797872215e-03 0.0 
3.175797872215e-03 6.424397273582e-03 0.0 
0.0 0.0 0.0 
-1.951758703315e-04 2.655580040729e-03 0.0 
2.655580040729e-03 6.402872312858e-03 0.0 
0.0 0.0 0.0 
-1.304145768841e-03 2.760740859704e-03 0.0 
2.760740859704e-03 1.063704637777e-02 0.0 
0.0 0.0 0.0 
-1.886166096949e-03 2.468933384681e-03 0.0 
2.468933384681e-03 1.564469256443e-02 0.0 
0.0 0.0 0.0 
-1.729963617773e-03 2.792516085460e-03 0.0 
2.792516085460e-03 1.532988622424e-02 0.0 
0.0 0.0 0.0 
-1.493851824456e-03 3.057044142789e-03 0.0 
3.057044142789e-03 1.545363445995e-02 0.0 
0.0 0.0 0.0 
-1.582743263462e-03 3.105895762975e-03 0.0 
3.105895762975e-03 1.499426274313e-02 0.0 
0.0 0.0 0.0 
-1.783569899160e-03 2.860848738607e-03 0.0 
2.860848738607e-03 1.482791077696e-02 0.0 
0.0 0.0 0.0 
-1.635265538777e-03 3.128856831098e-03 0.0 
3.128856831098e-03 1.448529120478e-02 0.0 
0.0 0.0 0.0 
-1.400268432071e-03 3.399133213765e-03 0.0 
3.399133213765e-03 1.465685758129e-02 0.0 
0.0 0.0 0.0 
-1.490123618543e-03 3.425059681400e-03 0.0 
3.425059681400e-03 1.410499169527e-02 0.0 
0.0 0.0 0.0 
-7.145188528715e-04 4.183014273750e-03 0.0 
4.183014273750e-03 1.378374053126e-02 0.0 
0.0 0.0 0.0 
-8.290299160464e-04 3.956321099026e-03 0.0 
3.956321099026e-03 1.329782170122e-02 0.0 
0.0 0.0 0.0 
-1.475439498309e-03 3.376855000939e-03 0.0 
3.376855000939e-03 1.354287267217e-02 0.0 
0.0 0.0 0.0 
-8.673216355028e-04 3.786133731574e-03 0.0 
3.786133731574e-03 1.280725226672e-02 0.0 
0.0 0.0 0.0 
5.625490448287e-05 4.486633376988e-03 0.0 
4.486633376988e-03 1.225142836411e-02 0.0 
0.0 0.0 0.0 
-1.439344610033e-03 3.319487341918e-03 0.0 
3.319487341918e-03 1.294813451078e-02 0.0 
0.0 0.0 0.0 
6.935808635710e-04 2.510801294048e-03 0.0 
2.510801294048e-03 8.934399820327e-03 0.0 
0.0 0.0 0.0 
8.677088588716e-04 2.054027642819e-03 0.0 
2.054027642819e-03 5.026845024745e-03 0.0 
0.0 0.0 0.0 
-1.578946242359e-04 2.973374231459e-04 0.0 
2.973374231459e-04 1.153377363732e-03 0.0 
0.0 0.0 0.0 
-3.383923773904e-04 6.315237764978e-04 0.0 
6.315237764978e-04 1.336826334411e-03 0.0 
0.0 0.0 0.0 
-9.498558035698e-04 2.628650744740e-03 0.0 
2.628650744740e-03 9.117560729535e-03 0.0 
0.0 0.0 0.0 
-1.642971926705e-04 4.803937862164e-03 0.0 
4.803937862164e-03 1.381740097981e-02 0.0 
0.0 0.0 0.0 
-7.186662677214e-04 4.074444662465e-03 0.0 
4.074444662465e-03 1.522945391126e-02 0.0 
0.0 0.0 0.0 
1.016086319180e-03 1.088082888748e-03 0.0 
1.088082888748e-03 2.997935185522e-03 0.0 
0.0 0.0 0.0 
3.468648118779e-04 4.334825302085e-03 0.0 
4.334825302085e-03 1.173736444732e-02 0.0 
0.0 0.0 0.0 
-1.919477683290e-03 2.561552377175e-03 0.0 
2.561552377175e-03 1.224624477273e-02 0.0 
0.0 0.0 0.0 
6.910447351670e-04 4.642180339585e-04 0.0 
4.642180339585e-04 2.038489461869e-03 0.0 
0.0 0.0 0.0 
3.469543086312e-04 3.898258022642e-03 0.0 
3.898258022642e-03 1.115779179303e-02 0.0 
0.0 0.0 0.0 
-1.949876232324e-03 2.561021956737e-03 0.0 
2.561021956737e-03 1.517801038996e-02 0.0 
0.0 0.0 0.0 
-1.958121025400e-03 2.647719369426e-03 0.0 
2.647719369426e-03 1.464971362430e-02 0.0 
0.0 0.0 0.0 
-2.138380299096e-03 2.351212547567e-03 0.0 
2.351212547567e-03 1.502240840164e-02 0.0 
0.0 0.0 0.0 
-7.282724040636e-04 3.356757476834e-03 0.0 
3.356757476834e-03 1.609497928740e-02 0.0 
0.0 0.0 0.0 
-2.208784846777e-03 7.667076526960e-04 0.0 
7.667076526960e-04 1.600183183524e-02 0.0 
0.0 0.0 0.0 
3.769957580020e-04 3.025652524942e-03 0.0 
3.025652524942e-03 1.009503706011e-02 0.0 
0.0 0.0 0.0 
3.020910280365e-03 1.940013669133e-03 0.0 
1.940013669133e-03 3.891501279332e-03 0.0 
0.0 0.0 0.0 
3.286575403760e-03 2.155975809804e-03 0.0 
2.155975809804e-03 3.630023198738e-03 0.0 
0.0 0.0 0.0 
3.565610705409e-03 2.025836990900e-03 0.0 
2.025836990900e-03 2.918054470116e-03 0.0 
0.0 0.0 0.0 
-1.614039615756e-03 3.136671028428e-03 0.0 
3.136671028428e-03 1.389040055118e-02 0.0 
0.0 0.0 0.0 
3.800409672073e-04 2.032545687623e-03 0.0 
2.032545687623e-03 9.053890077599e-03 0.0 
0.0 0.0 0.0 
7.162462446054e-04 1.850700386592e-03 0.0 
1.850700386592e-03 8.217761823944e-03 0.0 
0.0 0.0 0.0 
6.836820269451e-04 1.643194414133e-03 0.0 
1.643194414133e-03 8.056108101030e-03 0.0 
0.0 0.0 0.0 
1.068747524264e-03 1.674422201297e-03 0.0 
1.674422201297e-03 7.334047716656e-03 0.0 
0.0 0.0 0.0 
3.418138587894e-04 1.599513601442e-03 0.0 
1.599513601442e-03 8.693623352220e-03 0.0 
0.0 0.0 0.0 
2.293009491375e-04 4.856110015276e-03 0.0 
4.856110015276e-03 1.282827890766e-02 0.0 
0.0 0.0 0.0 
2.751793875935e-04 4.715353658007e-03 0.0 
4.715353658007e-03 1.246741809530e-02 0.0 
0.0 0.0 0.0 
2.785344110183e-03 -3.535997914712e-04 0.0 
-3.535997914712e-04 1.864480606678e-04 0.0 
0.0 0.0 0.0 
3.063434880646e-03 -1.683136447656e-04 0.0 
-1.683136447656e-04 2.420991805371e-04 0.0 
0.0 0.0 0.0 
3.116547651875e-03 2.557793215960e-05 0.0 
2.557793215960e-05 5.829352803102e-04 0.0 
0.0 0.0 0.0 
3.249625065631e-03 4.262564177528e-05 0.0 
4.262564177528e-05 4.048676943539e-04 0.0 
0.0 0.0 0.0 
2.916543705250e-03 -1.594437734611e-04 0.0 
-1.594437734611e-04 3.456382072116e-04 0.0 
0.0 0.0 0.0 
3.004081729848e-03 5.822471881472e-05 0.0 
5.822471881472e-05 6.080458122090e-04 0.0 
0.0 0.0 0.0 
3.386174772353e-03 2.748649599574e-04 0.0 
2.748649599574e-04 6.220850365184e-04 0.0 
0.0 0.0 0.0 
2.349742711892e-03 1.313171063197e-04 0.0 
1.313171063197e-04 1.188405699348e-03 0.0 
0.0 0.0 0.0 
2.112792563154e-04 4.169759504725e-03 0.0 
4.169759504725e-03 1.117187886783e-02 0.0 
0.0 0.0 0.0 
2.838957872148e-04 1.214796829556e-03 0.0 
1.214796829556e-03 8.410456320278e-03 0.0 
0.0 0.0 0.0 
1.797665420188e-03 3.387954165116e-04 0.0 
3.387954165116e-04 3.812634144083e-03 0.0 
0.0 0.0 0.0 
2.042682613260e-03 4.193083448341e-04 0.0 
4.193083448341e-04 3.467492227642e-03 0.0 
0.0 0.0 0.0 
2.231585894705e-03 3.217996009140e-04 0.0 
3.217996009140e-04 2.847941044289e-03 0.0 
0.0 0.0 0.0 
7.687505947878e-04 -3.079229870768e-04 0.0 
-3.079229870768e-04 3.041240523101e-03 0.0 
0.0 0.0 0.0 
1.075511563887e-03 -2.577416862179e-04 0.0 
-2.577416862179e-04 3.007922181580e-03 0.0 
0.0 0.0 0.0 
1.062921581337e-03 -2.020217821819e-04 0.0 
-2.020217821819e-04 3.430477922068e-03 0.0 
0.0 0.0 0.0 
4.805403909003e-04 -3.337278038752e-04 0.0 
-3.337278038752e-04 3.067952066090e-03 0.0 
0.0 0.0 0.0 
2.426099219856e-03 3.534214765360e-03 0.0 
3.534214765360e-03 6.468680029047e-03 0.0 
0.0 0.0 0.0 
2.603953609072e-04 1.050630329112e-03 0.0 
1.050630329112e-03 8.269034266507e-03 0.0 
0.0 0.0 0.0 
2.574883428499e-03 1.050854333751e-03 0.0 
1.050854333751e-03 3.524915764147e-03 0.0 
0.0 0.0 0.0 
1.348688855943e-03 -2.464496624272e-04 0.0 
-2.464496624272e-04 2.603374350702e-03 0.0 
0.0 0.0 0.0 
-2.074086690778e-03 2.983539541064e-04 0.0 
2.983539541064e-04 1.500636044662e-02 0.0 
0.0 0.0 0.0 
-2.419080596775e-03 7.421414560216e-04 0.0 
7.421414560216e-04 1.536196524218e-02 0.0 
0.0 0.0 0.0 
-2.654212307515e-03 1.174027107752e-03 0.0 
1.174027107752e-03 1.519672786612e-02 0.0 
0.0 0.0 0.0 
-2.537595543025e-03 1.298880247917e-03 0.0 
1.298880247917e-03 1.546707639949e-02 0.0 
0.0 0.0 0.0 
-2.239466541706e-03 4.953319889304e-04 0.0 
4.953319889304e-04 1.541263907099e-02 0.0 
0.0 0.0 0.0 
2.697258835193e-04 -2.410739926026e-04 0.0 
-2.410739926026e-04 4.205003907465e-03 0.0 
0.0 0.0 0.0 
6.928537998748e-05 -2.195791722945e-04 0.0 
-2.195791722945e-04 4.530679618137e-03 0.0 
0.0 0.0 0.0 
-9.339402782123e-05 -2.094182886964e-04 0.0 
-2.094182886964e-04 4.466498356124e-03 0.0 
0.0 0.0 0.0 
-7.682162420673e-05 -1.838237397272e-04 0.0 
-1.838237397272e-04 4.810998206667e-03 0.0 
0.0 0.0 0.0 
-1.534883224702e-04 -1.571306815558e-04 0.0 
-1.571306815558e-04 4.686574205728e-03 0.0 
0.0 0.0 0.0 
-1.227601335224e-04 -1.750778531466e-04 0.0 
-1.750778531466e-04 4.345941035778e-03 0.0 
0.0 0.0 0.0 
-1.668156010127e-04 -1.332935208452e-04 0.0 
-1.332935208452e-04 5.043798065805e-03 0.0 
0.0 0.0 0.0 
-1.821483415746e-04 -9.394057843621e-05 0.0 
-9.394057843621e-05 4.850814811762e-03 0.0 
0.0 0.0 0.0 
-1.808619443067e-03 9.117883670660e-05 0.0 
9.117883670660e-05 1.494924773542e-02 0.0 
0.0 0.0 0.0 
-9.675523624631e-04 -1.777316653793e-04 0.0 
-1.777316653793e-04 7.201064982199e-04 0.0 
0.0 0.0 0.0 
-2.526560651739e-04 -3.845301860642e-04 0.0 
-3.845301860642e-04 7.958004672451e-04 0.0 
0.0 0.0 0.0 
-1.309094296868e-04 -4.985757722252e-04 0.0 
-4.985757722252e-04 6.946556215367e-04 0.0 
0.0 0.0 0.0 
3.972044899514e-04 -5.998295291360e-04 0.0 
-5.998295291360e-04 8.019215231903e-04 0.0 
0.0 0.0 0.0 
3.220748573428e-04 -4.323176147203e-04 0.0 
-4.323176147203e-04 9.135649893495e-04 0.0 
0.0 0.0 0.0 
1.094775668011e-03 -6.407752972381e-04 0.0 
-6.407752972381e-04 6.770901519321e-04 0.0 
0.0 0.0 0.0 
8.249088762905e-04 -4.965843412386e-04 0.0 
-4.965843412386e-04 9.408860570464e-04 0.0 
0.0 0.0 0.0 
-3.548389580190e-04 -2.498538899192e-04 0.0 
-2.498538899192e-04 8.497347189933e-04 0.0 
0.0 0.0 0.0 
-6.118254153496e-04 -3.379932228884e-04 0.0 
-3.379932228884e-04 5.482671228583e-04 0.0 
0.0 0.0 0.0 
1.318597018829e-05 -5.416903387090e-04 0.0 
-5.416903387090e-04 5.853625726207e-04 0.0 
0.0 0.0 0.0 
-3.779883879145e-04 -3.686368167373e-04 0.0 
-3.686368167373e-04 4.194147948938e-04 0.0 
0.0 0.0 0.0 
8.219711670715e-05 -5.393562755278e-04 0.0 
-5.393562755278e-04 4.966508045991e-04 0.0 
0.0 0.0 0.0 
5.788052874558e-04 -6.319911352135e-04 0.0 
-6.319911352135e-04 5.832548445083e-04 0.0 
0.0 0.0 0.0 
5.825231785321e-04 -4.577884375978e-04 0.0 
-4.577884375978e-04 9.838617973325e-04 0.0 
0.0 0.0 0.0 
9.198198116803e-05 1.307657983649e-04 0.0 
1.307657983649e-04 7.315542318473e-03 0.0 
0.0 0.0 0.0 
-6.826022102067e-05 -7.055861785681e-05 0.0 
-7.055861785681e-05 3.796125596652e-03 0.0 
0.0 0.0 0.0 
-2.088506066387e-05 -1.332820509027e-04 0.0 
-1.332820509027e-04 3.570815455903e-03 0.0 
0.0 0.0 0.0 
8.140472586286e-05 -1.175095587238e-04 0.0 
-1.175095587238e-04 3.159092507192e-03 0.0 
0.0 0.0 0.0 
4.753012556412e-05 -1.960440190010e-04 0.0 
-1.960440190010e-04 3.314986978086e-03 0.0 
0.0 0.0 0.0 
-8.969614130435e-05 -1.308770159890e-04 0.0 
-1.308770159890e-04 3.937780890711e-03 0.0 
0.0 0.0 0.0 
1.583297886093e-04 -4.649464580766e-05 0.0 
-4.649464580766e-05 2.942821072395e-03 0.0 
0.0 0.0 0.0 
2.251792811018e-04 -8.158511167981e-05 0.0 
-8.158511167981e-05 2.736094171959e-03 0.0 
0.0 0.0 0.0 
1.667307456778e-03 -6.247317738629e-06 0.0 
-6.247317738629e-06 -7.349715962192e-04 0.0 
0.0 0.0 0.0 
1.540490373776e-03 -2.893183042672e-05 0.0 
-2.893183042672e-05 -6.073522126453e-04 0.0 
0.0 0.0 0.0 
1.506651551838e-03 -2.000320808590e-05 0.0 
-2.000320808590e-05 -5.912084961562e-04 0.0 
0.0 0.0 0.0 
1.353665963083e-03 6.867649329633e-08 0.0 
6.867649329633e-08 -1.467318152831e-04 0.0 
0.0 0.0 0.0 
1.336013070073e-03 -2.102874986368e-05 0.0 
-2.102874986368e-05 -1.107520094887e-04 0.0 
0.0 0.0 0.0 
1.481254052287e-03 -8.464137040639e-06 0.0 
-8.464137040639e-06 -5.695806469269e-04 0.0 
0.0 0.0 0.0 
1.361015365763e-03 2.437343801473e-05 0.0 
2.437343801473e-05 -4.345516867012e-04 0.0 
0.0 0.0 0.0 
1.514010295120e-03 3.366791069113e-05 0.0 
3.366791069113e-05 -5.831980572134e-04 0.0 
0.0 0.0 0.0 
1.015371110353e-03 -7.867032059560e-06 0.0 
-7.867032059560e-06 -9.002806332609e-05 0.0 
0.0 0.0 0.0 
9.073396476132e-04 -2.986396311014e-05 0.0 
-2.986396311014e-05 3.078031335241e-04 0.0 
0.0 0.0 0.0 
1.193777646581e-03 1.442397817812e-05 0.0 
1.442397817812e-05 -3.482154944095e-04 0.0 
0.0 0.0 0.0 
-1.116908469108e-03 6.588732678817e-05 0.0 
6.588732678817e-05 1.656332250454e-02 0.0 
0.0 0.0 0.0 
-1.030536176431e-03 1.561383577476e-04 0.0 
1.561383577476e-04 1.673394849770e-02 0.0 
0.0 0.0 0.0 
2.256851913011e-04 7.606474607694e-04 0.0 
7.606474607694e-04 7.996359028799e-03 0.0 
0.0 0.0 0.0 
-1.686295820489e-03 4.065569052024e-05 0.0 
4.065569052024e-05 1.495788337011e-02 0.0 
0.0 0.0 0.0 
3.784719091524e-05 -2.693200395848e-04 0.0 
-2.693200395848e-04 2.136338474521e-04 0.0 
0.0 0.0 0.0 
-3.766979589380e-04 7.076141975106e-04 0.0 
7.076141975106e-04 1.743060299030e-02 0.0 
0.0 0.0 0.0 
-4.387867347969e-04 1.362054519986e-03 0.0 
1.362054519986e-03 1.731793854517e-02 0.0 
0.0 0.0 0.0 
-3.765536073663e-04 1.140710082036e-03 0.0 
1.140710082036e-03 1.738438792532e-02 0.0 
0.0 0.0 0.0 
3.483641496268e-05 -9.638050589367e-06 0.0 
-9.638050589367e-06 6.575497767618e-03 0.0 
0.0 0.0 0.0 
9.137073929248e-05 8.346255571178e-06 0.0 
8.346255571178e-06 6.761838015120e-03 0.0 
0.0 0.0 0.0 
-3.186047904677e-04 3.923712011525e-04 0.0 
3.923712011525e-04 1.746484753789e-02 0.0 
0.0 0.0 0.0 
7.648035688097e-04 -4.154645649375e-04 0.0 
-4.154645649375e-04 1.696318667403e-03 0.0 
0.0 0.0 0.0 
-1.359762898562e-03 3.507692237356e-03 0.0 
3.507692237356e-03 1.505227273786e-02 0.0 
0.0 0.0 0.0 
-9.380284079481e-04 6.622782054686e-04 0.0 
6.622782054686e-04 1.709908773582e-02 0.0 
0.0 0.0 0.0 
5.277364032230e-04 6.801250498775e-04 0.0 
6.801250498775e-04 2.068826554566e-03 0.0 
0.0 0.0 0.0 
1.513130584333e-03 -4.601721490390e-04 0.0 
-4.601721490390e-04 9.990977855282e-04 0.0 
0.0 0.0 0.0 
6.194634681687e-05 -1.342397340368e-04 0.0 
-1.342397340368e-04 5.451150130265e-03 0.0 
0.0 0.0 0.0 
9.189880795371e-04 -7.436590464421e-05 0.0 
-7.436590464421e-05 4.386352537015e-03 0.0 
0.0 0.0 0.0 
3.263981545231e-04 -9.923650105208e-07 0.0 
-9.923650105208e-07 6.126444748047e-03 0.0 
0.0 0.0 0.0 
3.703766342050e-04 -1.553360681082e-04 0.0 
-1.553360681082e-04 4.888060458564e-03 0.0 
0.0 0.0 0.0 
5.483204813604e-04 3.540095276322e-05 0.0 
3.540095276322e-05 5.679845996132e-03 0.0 
0.0 0.0 0.0 
6.714576922594e-04 1.413200327535e-03 0.0 
1.413200327535e-03 7.834148187099e-03 0.0 
0.0 0.0 0.0 
9.116246985061e-04 -1.477274954312e-06 0.0 
-1.477274954312e-06 8.775960210185e-04 0.0 
0.0 0.0 0.0 
-1.755258283281e-03 3.634617169175e-04 0.0 
3.634617169175e-04 1.607412437993e-02 0.0 
0.0 0.0 0.0 
-1.545310701336e-03 1.725807171834e-04 0.0 
1.725807171834e-04 1.587412465867e-02 0.0 
0.0 0.0 0.0 
-1.353618449818e-03 5.541479679783e-04 0.0 
5.541479679783e-04 1.671732889449e-02 0.0 
0.0 0.0 0.0 
3.950227201765e-04 -3.094174437547e-04 0.0 
-3.094174437547e-04 2.184996935072e-03 0.0 
0.0 0.0 0.0 
-7.089614888939e-05 -2.335562736838e-04 0.0 
-2.335562736838e-04 4.107184655186e-03 0.0 
0.0 0.0 0.0 
4.623287196035e-04 -2.820832160388e-04 0.0 
-2.820832160388e-04 1.228945857521e-03 0.0 
0.0 0.0 0.0 
6.671614799292e-04 4.008443776484e-03 0.0 
4.008443776484e-03 1.062152340622e-02 0.0 
0.0 0.0 0.0 
-1.341110101319e-03 2.659929024204e-03 0.0 
2.659929024204e-03 1.030289899983e-02 0.0 
0.0 0.0 0.0 
2.149504078561e-03 1.550290437575e-04 0.0 
1.550290437575e-04 2.600821101648e-03 0.0 
0.0 0.0 0.0 
7.276681862184e-04 -3.483165063186e-04 0.0 
-3.483165063186e-04 2.678348868466e-03 0.0 
0.0 0.0 0.0 
1.075731218698e-03 -4.108664573194e-04 0.0 
-4.108664573194e-04 1.649474576058e-03 0.0 
0.0 0.0 0.0 
1.751489342137e-03 -5.040377247860e-04 0.0 
-5.040377247860e-04 6.630453826765e-04 0.0 
0.0 0.0 0.0 
6.507562408162e-04 2.319949321531e-03 0.0 
2.319949321531e-03 5.754607196612e-03 0.0 
0.0 0.0 0.0 
1.598894135666e-03 -1.557179957237e-04 0.0 
-1.557179957237e-04 2.641561736743e-03 0.0 
0.0 0.0 0.0 
1.108468716575e-03 2.738543130316e-04 0.0 
2.738543130316e-04 5.136645626455e-03 0.0 
0.0 0.0 0.0 
-1.173535940569e-03 5.331383234849e-04 0.0 
5.331383234849e-04 1.685490980714e-02 0.0 
0.0 0.0 0.0 
3.268893992315e-04 -1.243242668691e-04 0.0 
-1.243242668691e-04 1.111063586470e-04 0.0 
0.0 0.0 0.0 
1.099634546507e-03 4.206760389209e-04 0.0 
4.206760389209e-04 5.480780461782e-03 0.0 
0.0 0.0 0.0 
1.409817895483e-03 -8.047707217542e-06 0.0 
-8.047707217542e-06 3.667427124665e-03 0.0 
0.0 0.0 0.0 
-2.070658906284e-03 7.597343915902e-04 0.0 
7.597343915902e-04 1.620136470251e-02 0.0 
0.0 0.0 0.0 
1.970669665529e-03 1.917621621061e-03 0.0 
1.917621621061e-03 5.842328284676e-03 0.0 
0.0 0.0 0.0 
1.491926092906e-03 -7.148013787766e-04 0.0 
-7.148013787766e-04 3.782139090250e-04 0.0 
0.0 0.0 0.0 
-1.565237272541e-03 9.871460688021e-04 0.0 
9.871460688021e-04 1.680268222117e-02 0.0 
0.0 0.0 0.0 
-1.350368534734e-03 2.211622124669e-03 0.0 
2.211622124669e-03 1.665433211300e-02 0.0 
0.0 0.0 0.0 
-2.329324331008e-03 8.007968362551e-04 0.0 
8.007968362551e-04 1.579473575203e-02 0.0 
0.0 0.0 0.0 
4.576755303302e-04 -2.435590411618e-04 0.0 
-2.435590411618e-04 8.842455222900e-04 0.0 
0.0 0.0 0.0 
-1.760125693732e-03 1.991278108281e-04 0.0 
1.991278108281e-04 1.568103976657e-02 0.0 
0.0 0.0 0.0 
6.982620026250e-04 8.368109512463e-04 0.0 
8.368109512463e-04 7.035448545807e-03 0.0 
0.0 0.0 0.0 
-2.019468246197e-03 2.127920626928e-03 0.0 
2.127920626928e-03 1.591442943833e-02 0.0 
0.0 0.0 0.0 
3.725379016264e-04 -2.328809516964e-04 0.0 
-2.328809516964e-04 2.039016799063e-03 0.0 
0.0 0.0 0.0 
3.129067939197e-03 1.059999760494e-03 0.0 
1.059999760494e-03 2.501936988885e-03 0.0 
0.0 0.0 0.0 
-2.455805735471e-04 2.754533291757e-03 0.0 
2.754533291757e-03 7.766116930924e-03 0.0 
0.0 0.0 0.0 
-2.427483498496e-03 3.695091584541e-03 0.0 
3.695091584541e-03 1.356331209715e-02 0.0 
0.0 0.0 0.0 
-8.763534597518e-04 8.491763289419e-04 0.0 
8.491763289419e-04 1.718285771471e-02 0.0 
0.0 0.0 0.0 
3.004580691203e-03 2.444793237732e-03 0.0 
2.444793237732e-03 3.987741587840e-03 0.0 
0.0 0.0 0.0 
1.505907702718e-03 1.587012437427e-03 0.0 
1.587012437427e-03 6.365200814326e-03 0.0 
0.0 0.0 0.0 
2.548978608481e-03 1.305220448194e-03 0.0 
1.305220448194e-03 3.956111738423e-03 0.0 
0.0 0.0 0.0 
3.092611544974e-04 -1.830071021186e-04 0.0 
-1.830071021186e-04 2.306962579647e-03 0.0 
0.0 0.0 0.0 
7.176586917838e-04 2.915765166403e-04 0.0 
2.915765166403e-04 6.048292317115e-03 0.0 
0.0 0.0 0.0 
3.643826988121e-03 1.688468576273e-03 0.0 
1.688468576273e-03 2.391001518203e-03 0.0 
0.0 0.0 0.0 
-1.316521809355e-03 1.215848137578e-03 0.0 
1.215848137578e-03 1.700540543730e-02 0.0 
0.0 0.0 0.0 
8.827877992023e-04 3.719028195882e-03 0.0 
3.719028195882e-03 9.023930475572e-03 0.0 
0.0 0.0 0.0 
3.542954026712e-03 8.231791746631e-04 0.0 
8.231791746631e-04 1.232546407505e-03 0.0 
0.0 0.0 0.0 
-1.751801611106e-03 1.617012846269e-03 0.0 
1.617012846269e-03 1.665283526842e-02 0.0 
0.0 0.0 0.0 
2.470952901734e-03 3.951332926374e-04 0.0 
3.951332926374e-04 2.521359263012e-03 0.0 
0.0 0.0 0.0 
1.782736427984e-03 2.185751760865e-03 0.0 
2.185751760865e-03 6.490692160639e-03 0.0 
0.0 0.0 0.0 
-1.153558438780e-03 2.608199649913e-03 0.0 
2.608199649913e-03 9.525932004473e-03 0.0 
0.0 0.0 0.0 
-6.680102225675e-04 2.888203497625e-03 0.0 
2.888203497625e-03 9.564602151618e-03 0.0 
0.0 0.0 0.0 
-1.370623456761e-03 3.074760550752e-03 0.0 
3.074760550752e-03 1.200303106597e-02 0.0 
0.0 0.0 0.0 
1.096698467967e-03 2.868354148135e-03 0.0 
2.868354148135e-03 6.847180859778e-03 0.0 
0.0 0.0 0.0 
-1.374107927040e-04 -1.099189464866e-04 0.0 
-1.099189464866e-04 5.388742551721e-03 0.0 
0.0 0.0 0.0 
8.977052599423e-04 3.533290021565e-04 0.0 
3.533290021565e-04 5.776171705202e-03 0.0 
0.0 0.0 0.0 
1.059214164070e-03 -2.101096599146e-04 0.0 
-2.101096599146e-04 1.187596524744e-03 0.0 
0.0 0.0 0.0 
4.813390872159e-04 2.188339583844e-03 0.0 
2.188339583844e-03 4.945000103821e-03 0.0 
0.0 0.0 0.0 
-2.289271978541e-03 1.110863090761e-03 0.0 
1.110863090761e-03 1.604232329315e-02 0.0 
0.0 0.0 0.0 
1.355583713162e-03 3.739112617290e-03 0.0 
3.739112617290e-03 8.843702219194e-03 0.0 
0.0 0.0 0.0 
-9.938135792090e-04 1.429182863313e-03 0.0 
1.429182863313e-03 1.715906082157e-02 0.0 
0.0 0.0 0.0 
-2.467442457489e-04 2.709268491040e-03 0.0 
2.709268491040e-03 7.317130397142e-03 0.0 
0.0 0.0 0.0 
7.274034807029e-04 1.708356890203e-04 0.0 
1.708356890203e-04 5.709151944056e-03 0.0 
0.0 0.0 0.0 
-1.444845207966e-03 1.879193691734e-03 0.0 
1.879193691734e-03 1.678624424423e-02 0.0 
0.0 0.0 0.0 
1.335250307715e-03 -1.820891384200e-04 0.0 
-1.820891384200e-04 3.029220499563e-03 0.0 
0.0 0.0 0.0 
9.311508894294e-04 1.046811781864e-05 0.0 
1.046811781864e-05 1.083249993780e-03 0.0 
0.0 0.0 0.0 
2.448999273649e-04 6.333537103124e-04 0.0 
6.333537103124e-04 1.812307296380e-03 0.0 
0.0 0.0 0.0 
2.285520473822e-03 4.014837101671e-04 0.0 
4.014837101671e-04 1.611797466525e-03 0.0 
0.0 0.0 0.0 
3.228168578168e-03 2.122598724648e-03 0.0 
2.122598724648e-03 3.293843002388e-03 0.0 
0.0 0.0 0.0 
1.267221522309e-03 -1.165475431045e-04 0.0 
-1.165475431045e-04 3.511409957489e-03 0.0 
0.0 0.0 0.0 
-1.270173701236e-03 3.126648836537e-03 0.0 
3.126648836537e-03 1.581508682110e-02 0.0 
0.0 0.0 0.0 
5.732017612076e-04 1.333729799934e-04 0.0 
1.333729799934e-04 5.959436169659e-03 0.0 
0.0 0.0 0.0 
1.524127162572e-03 7.818805590084e-04 0.0 
7.818805590084e-04 5.231364081598e-03 0.0 
0.0 0.0 0.0 
-7.833915440786e-04 1.270428858250e-03 0.0 
1.270428858250e-03 1.656787589010e-03 0.0 
0.0 0.0 0.0 
-2.098873279200e-03 3.070077876947e-03 0.0 
3.070077876947e-03 1.249835804132e-02 0.0 
0.0 0.0 0.0 
4.390202247650e-04 1.037107434040e-04 0.0 
1.037107434040e-04 6.194466763292e-03 0.0 
0.0 0.0 0.0 
2.840519098678e-03 9.310871406004e-04 0.0 
9.310871406004e-04 2.825419900881e-03 0.0 
0.0 0.0 0.0 
1.566288041714e-03 1.987401077288e-03 0.0 
1.987401077288e-03 6.700675655612e-03 0.0 
0.0 0.0 0.0 
-1.538779745977e-04 -1.130879842897e-04 0.0 
-1.130879842897e-04 4.506792807513e-03 0.0 
0.0 0.0 0.0 
7.017025711754e-04 3.804851435187e-03 0.0 
3.804851435187e-03 1.030240909805e-02 0.0 
0.0 0.0 0.0 
-6.290017175703e-04 3.331519066278e-03 0.0 
3.331519066278e-03 8.835060351465e-03 0.0 
0.0 0.0 0.0 
3.427621985426e-04 7.924181031950e-05 0.0 
7.924181031950e-05 6.406998668955e-03 0.0 
0.0 0.0 0.0 
1.715809322652e-03 1.121135637799e-03 0.0 
1.121135637799e-03 5.342769228993e-03 0.0 
0.0 0.0 0.0 
9.616739724491e-04 1.389818787123e-03 0.0 
1.389818787123e-03 3.478245677703e-03 0.0 
0.0 0.0 0.0 
-1.532252058352e-03 1.147080342680e-05 0.0 
1.147080342680e-05 1.484311641862e-02 0.0 
0.0 0.0 0.0 
2.209744747470e-04 1.548004896009e-04 0.0 
1.548004896009e-04 7.000661718000e-03 0.0 
0.0 0.0 0.0 
1.363944993780e-03 1.205410745937e-03 0.0 
1.205410745937e-03 6.160296153978e-03 0.0 
0.0 0.0 0.0 
2.051530566002e-03 3.274984688748e-03 0.0 
3.274984688748e-03 6.411090455931e-03 0.0 
0.0 0.0 0.0 
2.795992884606e-03 6.909930840141e-04 0.0 
6.909930840141e-04 2.488210560188e-03 0.0 
0.0 0.0 0.0 
-1.376764544772e-03 3.806444297257e-03 0.0 
3.806444297257e-03 1.146233494834e-02 0.0 
0.0 0.0 0.0 
1.003833175990e-03 -1.410405757428e-04 0.0 
-1.410405757428e-04 3.895237480939e-03 0.0 
0.0 0.0 0.0 
-9.388726266593e-04 2.954774520536e-03 0.0 
2.954774520536e-03 1.032319252448e-02 0.0 
0.0 0.0 0.0 
-6.842050637202e-04 2.980582179642e-03 0.0 
2.980582179642e-03 1.644088482074e-02 0.0 
0.0 0.0 0.0 
1.245374386742e-03 1.425376002533e-03 0.0 
1.425376002533e-03 6.655526901420e-03 0.0 
0.0 0.0 0.0 
-2.115639155702e-03 2.468207303850e-03 0.0 
2.468207303850e-03 1.447674463070e-02 0.0 
0.0 0.0 0.0 
7.875956494124e-04 -2.106038586988e-04 0.0 
-2.106038586988e-04 3.829930741143e-03 0.0 
0.0 0.0 0.0 
2.717047311706e-03 2.546209800503e-03 0.0 
2.546209800503e-03 5.111548731079e-03 0.0 
0.0 0.0 0.0 
1.266914826523e-03 -1.584140102559e-06 0.0 
-1.584140102559e-06 -3.908730458744e-05 0.0 
0.0 0.0 0.0 
-1.205372802014e-03 3.537745057792e-03 0.0 
3.537745057792e-03 1.061424855569e-02 0.0 
0.0 0.0 0.0 
5.387827183308e-04 -2.078513414425e-04 0.0 
-2.078513414425e-04 4.201438921111e-03 0.0 
0.0 0.0 0.0 
3.043375809470e-03 3.095785804415e-04 0.0 
3.095785804415e-04 9.352416876825e-04 0.0 
0.0 0.0 0.0 
2.532273755080e-03 5.932015224117e-04 0.0 
5.932015224117e-04 2.811260420555e-03 0.0 
0.0 0.0 0.0 
9.298752332420e-04 2.738165280814e-03 0.0 
2.738165280814e-03 8.739414145566e-03 0.0 
0.0 0.0 0.0 
3.255546365434e-04 -1.991209373328e-04 0.0 
-1.991209373328e-04 4.540385465271e-03 0.0 
0.0 0.0 0.0 
3.485823285541e-03 5.367373758722e-04 0.0 
5.367373758722e-04 8.965494052900e-04 0.0 
0.0 0.0 0.0 
1.424694242940e-04 -1.848329365928e-04 0.0 
-1.848329365928e-04 4.850209328546e-03 0.0 
0.0 0.0 0.0 
-9.288436211131e-04 3.197746539163e-03 0.0 
3.197746539163e-03 9.739085569629e-03 0.0 
0.0 0.0 0.0 
-1.914322648151e-03 2.724926980826e-03 0.0 
2.724926980826e-03 1.406468093828e-02 0.0 
0.0 0.0 0.0 
-2.345243167843e-05 -1.583693923935e-04 0.0 
-1.583693923935e-04 5.139596401072e-03 0.0 
0.0 0.0 0.0 
-4.357143855461e-04 3.297250234400e-03 0.0 
3.297250234400e-03 1.029981383953e-02 0.0 
0.0 0.0 0.0 
5.312809062524e-04 -1.499136050463e-04 0.0 
-1.499136050463e-04 6.336816682462e-04 0.0 
0.0 0.0 0.0 
2.764341531116e-03 3.291888915204e-03 0.0 
3.291888915204e-03 5.632186244424e-03 0.0 
0.0 0.0 0.0 
6.908336838150e-05 -3.780534931251e-05 0.0 
-3.780534931251e-05 6.374977481702e-03 0.0 
0.0 0.0 0.0 
1.800807267425e-03 -2.969584123817e-04 0.0 
-2.969584123817e-04 1.503770117011e-03 0.0 
0.0 0.0 0.0 
2.285591858109e-03 5.041009620998e-04 0.0 
5.041009620998e-04 3.133072687468e-03 0.0 
0.0 0.0 0.0 
-1.777312356108e-03 2.906430714105e-03 0.0 
2.906430714105e-03 1.427065515390e-02 0.0 
0.0 0.0 0.0 
-7.825452881064e-04 2.406641472044e-03 0.0 
2.406641472044e-03 8.271038041902e-03 0.0 
0.0 0.0 0.0 
2.065763849578e-03 6.037600201076e-04 0.0 
6.037600201076e-04 3.788030354519e-03 0.0 
0.0 0.0 0.0 
6.064750446845e-04 3.861598930021e-03 0.0 
3.861598930021e-03 9.772932820064e-03 0.0 
0.0 0.0 0.0 
2.739336067085e-03 3.092224522891e-03 0.0 
3.092224522891e-03 5.593276183896e-03 0.0 
0.0 0.0 0.0 
3.435035756272e-03 2.360552142118e-03 0.0 
2.360552142118e-03 3.510118095368e-03 0.0 
0.0 0.0 0.0 
1.811849325443e-03 6.966128847530e-04 0.0 
6.966128847530e-04 4.488713285783e-03 0.0 
0.0 0.0 0.0 
-2.978981383406e-04 2.891220983227e-03 0.0 
2.891220983227e-03 7.223308308880e-03 0.0 
0.0 0.0 0.0 
9.209384357957e-04 -4.471763491128e-04 0.0 
-4.471763491128e-04 1.406207660407e-03 0.0 
0.0 0.0 0.0 
7.563867474220e-04 -4.664981976548e-04 0.0 
-4.664981976548e-04 1.185816567002e-03 0.0 
0.0 0.0 0.0 
3.440407023105e-03 4.790550698477e-04 0.0 
4.790550698477e-04 9.634304082073e-04 0.0 
0.0 0.0 0.0 
3.742790504843e-04 4.020718455805e-03 0.0 
4.020718455805e-03 1.050152620732e-02 0.0 
0.0 0.0 0.0 
1.158511344958e-03 4.984692117760e-06 0.0 
4.984692117760e-06 3.795115834066e-04 0.0 
0.0 0.0 0.0 
-1.561841759907e-03 3.139628438290e-03 0.0 
3.139628438290e-03 1.328515539325e-02 0.0 
0.0 0.0 0.0 
6.509152215262e-04 -5.216710703018e-04 0.0 
-5.216710703018e-04 7.828913981691e-04 0.0 
0.0 0.0 0.0 
3.294328668156e-03 2.392296541378e-04 0.0 
2.392296541378e-04 7.502436778801e-04 0.0 
0.0 0.0 0.0 
2.068839361351e-03 2.894828784785e-03 0.0 
2.894828784785e-03 6.704492635461e-03 0.0 
0.0 0.0 0.0 
-1.366873488597e-03 2.610918474587e-05 0.0 
2.610918474587e-05 1.591140560604e-02 0.0 
0.0 0.0 0.0 
3.030028594537e-03 1.928620688890e-04 0.0 
1.928620688890e-04 1.068766879315e-03 0.0 
0.0 0.0 0.0 
6.543495674293e-04 6.998972580011e-06 0.0 
6.998972580011e-06 1.745639736352e-03 0.0 
0.0 0.0 0.0 
2.849792052168e-03 1.874815833873e-06 0.0 
1.874815833873e-06 9.129763266682e-04 0.0 
0.0 0.0 0.0 
3.140632306057e-03 2.475113496595e-03 0.0 
2.475113496595e-03 4.234476434350e-03 0.0 
0.0 0.0 0.0 
2.583049590579e-03 -2.449789465943e-05 0.0 
-2.449789465943e-05 1.254444300122e-03 0.0 
0.0 0.0 0.0 
2.349555768728e-03 -1.729291472336e-04 0.0 
-1.729291472336e-04 1.168976567111e-03 0.0 
0.0 0.0 0.0 
-6.573533893914e-04 7.817237350222e-04 0.0 
7.817237350222e-04 1.729184690871e-02 0.0 
0.0 0.0 0.0 
2.100175720555e-03 -1.896147496166e-04 0.0 
-1.896147496166e-04 1.509130735694e-03 0.0 
0.0 0.0 0.0 
-2.655400342504e-04 2.252305432404e-04 0.0 
2.252305432404e-04 1.750573401974e-02 0.0 
0.0 0.0 0.0 
6.796411065392e-05 5.533883755692e-05 0.0 
5.533883755692e-05 7.240288864049e-03 0.0 
0.0 0.0 0.0 
-1.504420578193e-03 2.506179376041e-06 0.0 
2.506179376041e-06 1.515523487300e-02 0.0 
0.0 0.0 0.0 
-7.245052050284e-04 2.046264014664e-03 0.0 
2.046264014664e-03 6.962783672337e-03 0.0 
0.0 0.0 0.0 
-1.086112498263e-03 1.355637692950e-04 0.0 
1.355637692950e-04 7.780373759962e-04 0.0 
0.0 0.0 0.0 
-3.376897584018e-05 2.598851396891e-03 0.0 
2.598851396891e-03 5.582986002115e-03 0.0 
0.0 0.0 0.0 
1.684024227759e-03 -3.813378496098e-04 0.0 
-3.813378496098e-04 1.221983275783e-03 0.0 
0.0 0.0 0.0 
-1.356849401876e-03 3.250643138974e-03 0.0 
3.250643138974e-03 1.233688202464e-02 0.0 
0.0 0.0 0.0 
-1.506533468491e-03 2.418703606729e-05 0.0 
2.418703606729e-05 1.517578425012e-02 0.0 
0.0 0.0 0.0 
1.283882701897e-03 -4.338510940307e-04 0.0 
-4.338510940307e-04 1.326898271948e-03 0.0 
0.0 0.0 0.0 
8.340037400730e-05 4.678751796823e-03 0.0 
4.678751796823e-03 1.274216811385e-02 0.0 
0.0 0.0 0.0 
3.605433131197e-04 3.474461315223e-03 0.0 
3.474461315223e-03 1.061411645179e-02 0.0 
0.0 0.0 0.0 
-1.204915569726e-03 1.182683327766e-04 0.0 
1.182683327766e-04 1.642086794542e-02 0.0 
0.0 0.0 0.0 
1.335702603636e-03 1.822619795081e-03 0.0 
1.822619795081e-03 6.928307456762e-03 0.0 
0.0 0.0 0.0 
2.517768113670e-03 2.846362536104e-03 0.0 
2.846362536104e-03 5.790964721599e-03 0.0 
0.0 0.0 0.0 
-7.392301405597e-04 1.027214716773e-04 0.0 
1.027214716773e-04 1.709777274427e-02 0.0 
0.0 0.0 0.0 
-1.584027067352e-03 2.107732584688e-06 0.0 
2.107732584688e-06 1.483732409377e-02 0.0 
0.0 0.0 0.0 
1.634294001845e-04 -4.641780489383e-04 0.0 
-4.641780489383e-04 4.358069490627e-04 0.0 
0.0 0.0 0.0 
-2.003100417602e-04 -5.272079461275e-05 0.0 
-5.272079461275e-05 5.618886721026e-03 0.0 
0.0 0.0 0.0 
-7.508812022727e-04 2.043616309793e-03 0.0 
2.043616309793e-03 5.588277617192e-03 0.0 
0.0 0.0 0.0 
-2.021921869571e-04 1.882378413214e-03 0.0 
1.882378413214e-03 4.311983649070e-03 0.0 
0.0 0.0 0.0 
-2.989247805769e-04 1.396234163309e-03 0.0 
1.396234163309e-03 3.120298420358e-03 0.0 
0.0 0.0 0.0 
2.646416354704e-04 -1.294931916672e-04 0.0 
-1.294931916672e-04 2.537532428364e-03 0.0 
0.0 0.0 0.0 
5.001621330043e-04 -6.439762334021e-04 0.0 
-6.439762334021e-04 6.532017954662e-04 0.0 
0.0 0.0 0.0 
-7.174954133367e-04 1.890971839693e-03 0.0 
1.890971839693e-03 4.262531369292e-03 0.0 
0.0 0.0 0.0 
7.657699642416e-04 2.061837856893e-03 0.0 
2.061837856893e-03 8.322762701002e-03 0.0 
0.0 0.0 0.0 
-1.835608299184e-03 1.345080143013e-04 0.0 
1.345080143013e-04 1.530172826405e-02 0.0 
0.0 0.0 0.0 
1.808474448691e-03 3.128985812535e-03 0.0 
3.128985812535e-03 7.421934676321e-03 0.0 
0.0 0.0 0.0 
-7.700988016836e-04 1.677333509878e-03 0.0 
1.677333509878e-03 2.922575898205e-03 0.0 
0.0 0.0 0.0 
-1.074477768911e-03 2.142168558365e-03 0.0 
2.142168558365e-03 1.685779605802e-02 0.0 
0.0 0.0 0.0 
7.930558225592e-04 3.133029716910e-03 0.0 
3.133029716910e-03 9.393140083749e-03 0.0 
0.0 0.0 0.0 
1.674669671398e-04 5.026528819070e-04 0.0 
5.026528819070e-04 7.814807592449e-03 0.0 
0.0 0.0 0.0 
1.325745940964e-03 3.131173159786e-03 0.0 
3.131173159786e-03 8.349074693525e-03 0.0 
0.0 0.0 0.0 
-3.944490843047e-04 1.061950683510e-03 0.0 
1.061950683510e-03 2.024317124530e-03 0.0 
0.0 0.0 0.0 
-2.439359690365e-03 8.982499661079e-04 0.0 
8.982499661079e-04 1.561958950661e-02 0.0 
0.0 0.0 0.0 
6.600714570486e-04 4.220312539095e-03 0.0 
4.220312539095e-03 1.090821993090e-02 0.0 
0.0 0.0 0.0 
-1.120218488155e-03 2.180234557082e-04 0.0 
2.180234557082e-04 1.667769792293e-02 0.0 
0.0 0.0 0.0 
1.271721202731e-04 3.762360227662e-04 0.0 
3.762360227662e-04 7.682731940769e-03 0.0 
0.0 0.0 0.0 
-2.044557084295e-03 2.664715948616e-04 0.0 
2.664715948616e-04 1.530321304665e-02 0.0 
0.0 0.0 0.0 
-5.304293124553e-04 5.053278254708e-04 0.0 
5.053278254708e-04 1.733327160917e-02 0.0 
0.0 0.0 0.0 
9.719109610564e-04 -3.874376375998e-04 0.0 
-3.874376375998e-04 1.007759383403e-03 0.0 
0.0 0.0 0.0 
-4.836065197601e-04 2.578203743382e-04 0.0 
2.578203743382e-04 1.734038020410e-02 0.0 
0.0 0.0 0.0 
-8.593294722842e-04 3.667946906830e-03 0.0 
3.667946906830e-03 1.226984178270e-02 0.0 
0.0 0.0 0.0 
-1.520944835049e-03 1.126309994204e-04 0.0 
1.126309994204e-04 1.568779114275e-02 0.0 
0.0 0.0 0.0 
-2.566835189966e-03 1.586733681397e-03 0.0 
1.586733681397e-03 1.509548702100e-02 0.0 
0.0 0.0 0.0 
1.076282295751e-04 5.065265144333e-05 0.0 
5.065265144333e-05 6.984082873719e-03 0.0 
0.0 0.0 0.0 
-9.591274168168e-04 4.012043808798e-03 0.0 
4.012043808798e-03 1.446828062231e-02 0.0 
0.0 0.0 0.0 
-4.416246259957e-04 8.434558249646e-04 0.0 
8.434558249646e-04 1.524333429429e-03 0.0 
0.0 0.0 0.0 
-1.252034709546e-03 1.809491273274e-04 0.0 
1.809491273274e-04 1.641609711947e-02 0.0 
0.0 0.0 0.0 
9.023024806738e-05 -2.606241348075e-04 0.0 
-2.606241348075e-04 3.230814985283e-03 0.0 
0.0 0.0 0.0 
-5.416555522680e-04 -7.509308312415e-05 0.0 
-7.509308312415e-05 8.686788886484e-04 0.0 
0.0 0.0 0.0 
4.083206841812e-04 6.445333512032e-04 0.0 
6.445333512032e-04 7.412514999484e-03 0.0 
0.0 0.0 0.0 
1.057843948388e-04 4.311065618436e-03 0.0 
4.311065618436e-03 1.174275437198e-02 0.0 
0.0 0.0 0.0 
1.726596395257e-04 1.159859214229e-04 0.0 
1.159859214229e-04 7.017929871524e-03 0.0 
0.0 0.0 0.0 
1.401019047776e-03 -1.517303781206e-06 0.0 
-1.517303781206e-06 -2.130994961674e-04 0.0 
0.0 0.0 0.0 
3.126342178234e-04 -2.767000497717e-04 0.0 
-2.767000497717e-04 3.192659143296e-04 0.0 
0.0 0.0 0.0 
4.587453265896e-04 9.144442518684e-04 0.0 
9.144442518684e-04 7.699427458686e-03 0.0 
0.0 0.0 0.0 
5.283817297218e-04 4.628712352329e-03 0.0 
4.628712352329e-03 1.174922363088e-02 0.0 
0.0 0.0 0.0 
1.441999748069e-03 -5.456074794347e-04 0.0 
-5.456074794347e-04 6.738793646349e-04 0.0 
0.0 0.0 0.0 
-4.564730429137e-04 1.976275097987e-03 0.0 
1.976275097987e-03 1.708526257905e-02 0.0 
0.0 0.0 0.0 
-6.383121065866e-04 6.796962903973e-04 0.0 
6.796962903973e-04 1.078339113384e-03 0.0 
0.0 0.0 0.0 
-1.621971491829e-03 1.176958599014e-05 0.0 
1.176958599014e-05 1.480862171296e-02 0.0 
0.0 0.0 0.0 
5.671734154427e-04 -9.865182697420e-05 0.0 
-9.865182697420e-05 2.234139625903e-04 0.0 
0.0 0.0 0.0 
9.698992608844e-05 2.320874845935e-04 0.0 
2.320874845935e-04 7.556336041816e-03 0.0 
0.0 0.0 0.0 
-7.651497188260e-04 1.327767644849e-03 0.0 
1.327767644849e-03 1.724594703181e-02 0.0 
0.0 0.0 0.0 
-4.338813698799e-05 -1.789910456056e-04 0.0 
-1.789910456056e-04 3.722399491530e-03 0.0 
0.0 0.0 0.0 
-2.797806300303e-03 1.173009464024e-03 0.0 
1.173009464024e-03 1.509268977902e-02 0.0 
0.0 0.0 0.0 
4.308093494176e-04 -3.079685260671e-05 0.0 
-3.079685260671e-05 2.206421173328e-03 0.0 
0.0 0.0 0.0 
1.025331468156e-03 3.737244843497e-03 0.0 
3.737244843497e-03 9.525809866807e-03 0.0 
0.0 0.0 0.0 
3.542463420835e-04 -5.471237332104e-04 0.0 
-5.471237332104e-04 6.144780483721e-04 0.0 
0.0 0.0 0.0 
-6.185643426140e-04 9.534671906102e-04 0.0 
9.534671906102e-04 1.732083819429e-02 0.0 
0.0 0.0 0.0 
5.327705947223e-04 1.245733568067e-03 0.0 
1.245733568067e-03 7.952396832499e-03 0.0 
0.0 0.0 0.0 
-1.146109786618e-03 2.979523421459e-03 0.0 
2.979523421459e-03 1.616378556083e-02 0.0 
0.0 0.0 0.0 
3.138056504190e-04 2.534473755079e-03 0.0 
2.534473755079e-03 9.740611987839e-03 0.0 
0.0 0.0 0.0 
-6.136484128910e-04 2.908133122097e-04 0.0 
2.908133122097e-04 8.876478788978e-04 0.0 
0.0 0.0 0.0 
6.620599750892e-04 3.351711896618e-03 0.0 
3.351711896618e-03 9.899820725202e-03 0.0 
0.0 0.0 0.0 
9.414990471074e-04 1.498579717455e-03 0.0 
1.498579717455e-03 7.375748990632e-03 0.0 
0.0 0.0 0.0 
-1.563866078315e-03 1.737143587716e-05 0.0 
1.737143587716e-05 1.482639888016e-02 0.0 
0.0 0.0 0.0 
-1.149517798606e-03 3.461230540385e-03 0.0 
3.461230540385e-03 1.539017959976e-02 0.0 
0.0 0.0 0.0 
1.440216482994e-04 -1.621501018903e-04 0.0 
-1.621501018903e-04 2.943726374388e-03 0.0 
0.0 0.0 0.0 
5.514984760555e-04 -1.282302180307e-04 0.0 
-1.282302180307e-04 8.839455736277e-04 0.0 
0.0 0.0 0.0 
-2.148419080846e-04 1.095097411969e-04 0.0 
1.095097411969e-04 1.753447862812e-02 0.0 
0.0 0.0 0.0 
1.600682438176e-03 -2.382832477237e-05 0.0 
-2.382832477237e-05 -6.335548717836e-04 0.0 
0.0 0.0 0.0 
-1.549209561964e-03 -5.998791585932e-06 0.0 
-5.998791585932e-06 1.479661841776e-02 0.0 
0.0 0.0 0.0 
5.732234976956e-05 3.583269297738e-05 0.0 
3.583269297738e-05 7.304243721936e-03 0.0 
0.0 0.0 0.0 
1.148316429435e-03 -1.911000986650e-05 0.0 
-1.911000986650e-05 3.249513611880e-04 0.0 
0.0 0.0 0.0 
-1.470809062046e-03 2.591891274448e-05 0.0 
2.591891274448e-05 1.544853962789e-02 0.0 
0.0 0.0 0.0 
4.133418997731e-04 4.735234300454e-03 0.0 
4.735234300454e-03 1.219627599199e-02 0.0 
0.0 0.0 0.0 
-1.764889707369e-04 -4.860517465546e-05 0.0 
-4.860517465546e-05 4.618704794530e-03 0.0 
0.0 0.0 0.0 
-8.721101860084e-04 1.643061175659e-04 0.0 
1.643061175659e-04 1.695010008873e-02 0.0 
0.0 0.0 0.0 
9.346711609975e-04 -7.006250624937e-04 0.0 
-7.006250624937e-04 6.186016970954e-04 0.0 
0.0 0.0 0.0 
-1.211494466139e-03 3.353679336255e-05 0.0 
3.353679336255e-05 7.622748748265e-04 0.0 
0.0 0.0 0.0 
-1.321275464690e-03 6.971780023589e-05 0.0 
6.971780023589e-05 1.610655586476e-02 0.0 
0.0 0.0 0.0 
7.265727813781e-04 2.938314996107e-03 0.0 
2.938314996107e-03 9.292547042975e-03 0.0 
0.0 0.0 0.0 
-1.028200666386e-03 2.446114655670e-03 0.0 
2.446114655670e-03 1.670964089880e-02 0.0 
0.0 0.0 0.0 
-1.461080921008e-03 1.275489552698e-04 0.0 
1.275489552698e-04 1.588556995723e-02 0.0 
0.0 0.0 0.0 
-9.818303104914e-05 6.343592583808e-04 0.0 
6.343592583808e-04 1.621296211912e-03 0.0 
0.0 0.0 0.0 
5.290892874380e-04 4.652145596671e-03 0.0 
4.652145596671e-03 1.166420095635e-02 0.0 
0.0 0.0 0.0 
-8.134537797722e-05 -1.861467110230e-04 0.0 
-1.861467110230e-04 4.021056003902e-03 0.0 
0.0 0.0 0.0 
8.956572459963e-04 4.109405053997e-03 0.0 
4.109405053997e-03 1.025772590846e-02 0.0 
0.0 0.0 0.0 
1.004652831057e-03 1.891852926404e-03 0.0 
1.891852926404e-03 7.674053039739e-03 0.0 
0.0 0.0 0.0 
-8.568237573308e-04 7.276901799712e-04 0.0 
7.276901799712e-04 7.545268042445e-04 0.0 
0.0 0.0 0.0 
-1.968905156614e-04 -3.894532319682e-05 0.0 
-3.894532319682e-05 4.931545460001e-03 0.0 
0.0 0.0 0.0 
4.267964669899e-04 -1.492901204261e-04 0.0 
-1.492901204261e-04 2.690001878967e-04 0.0 
0.0 0.0 0.0 
2.680338629296e-04 3.915400007326e-04 0.0 
3.915400007326e-04 7.362470136447e-03 0.0 
0.0 0.0 0.0 
-1.232353557836e-04 -1.364721120001e-04 0.0 
-1.364721120001e-04 4.227604264371e-03 0.0 
0.0 0.0 0.0 

TENSORS node_materi_strain_plasti float
1.358185005532e-03 5.780876874044e-06 0.0 
5.780876874044e-06 -3.572806784604e-04 0.0 
0.0 0.0 -2.479684075307e-04 
-7.310688473431e-04 -7.116616390423e-05 0.0 
-7.116616390423e-05 4.756014016849e-03 0.0 
0.0 0.0 -7.207122401682e-04 
-8.427825669057e-04 9.378520432238e-05 0.0 
9.378520432238e-05 8.154934738815e-03 0.0 
0.0 0.0 -8.723925529394e-04 
-1.328526300077e-03 -9.718698781147e-05 0.0 
-9.718698781147e-05 8.927311597372e-03 0.0 
0.0 0.0 -1.332621093165e-03 
1.007331233592e-03 -2.881432709612e-06 0.0 
-2.881432709612e-06 -3.551916995254e-04 0.0 
0.0 0.0 -2.270072599250e-04 
7.977694670412e-04 5.716554482339e-05 0.0 
5.716554482339e-05 -1.221320280570e-04 0.0 
0.0 0.0 -1.619080202416e-04 
6.249716781280e-04 6.995989305043e-05 0.0 
6.995989305043e-05 3.698707257995e-04 0.0 
0.0 0.0 -2.266090766362e-04 
4.250769921527e-04 7.654155622791e-05 0.0 
7.654155622791e-05 1.023632558856e-03 0.0 
0.0 0.0 -2.937643997455e-04 
1.526690892903e-04 5.700924147987e-05 0.0 
5.700924147987e-05 1.690319004645e-03 0.0 
0.0 0.0 -3.610469555860e-04 
-1.546210810567e-04 5.853268522774e-05 0.0 
5.853268522774e-05 2.394136897844e-03 0.0 
0.0 0.0 -4.277228197774e-04 
-4.193969171881e-04 7.052567117525e-05 0.0 
7.052567117525e-05 3.055267658277e-03 0.0 
0.0 0.0 -4.940119848999e-04 
-5.560650258811e-04 6.506894170195e-05 0.0 
6.506894170195e-05 3.586726731214e-03 0.0 
0.0 0.0 -5.601824523721e-04 
-6.219544696600e-04 6.499150418632e-05 0.0 
6.499150418632e-05 4.044891981262e-03 0.0 
0.0 0.0 -6.267196139102e-04 
-6.989301157160e-04 8.304445482453e-05 0.0 
8.304445482453e-05 4.516508974108e-03 0.0 
0.0 0.0 -6.936951881209e-04 
-7.842490883193e-04 1.247263123813e-04 0.0 
1.247263123813e-04 5.007138479930e-03 0.0 
0.0 0.0 -7.399230932522e-04 
-8.342565578048e-04 1.319759490063e-04 0.0 
1.319759490063e-04 5.423214594337e-03 0.0 
0.0 0.0 -7.601804205116e-04 
-8.797869745839e-04 1.714682711438e-04 0.0 
1.714682711438e-04 5.754696884987e-03 0.0 
0.0 0.0 -7.741115422318e-04 
-9.530715776459e-04 6.637044578665e-05 0.0 
6.637044578665e-05 6.181798384356e-03 0.0 
0.0 0.0 -7.771432322578e-04 
-1.003716670003e-03 6.263814864310e-05 0.0 
6.263814864310e-05 6.590026781599e-03 0.0 
0.0 0.0 -7.862887288638e-04 
-9.666586811299e-04 6.357063685756e-05 0.0 
6.357063685756e-05 6.938108262476e-03 0.0 
0.0 0.0 -8.019043147468e-04 
-8.646132201037e-04 5.763780204536e-05 0.0 
5.763780204536e-05 7.242087835324e-03 0.0 
0.0 0.0 -8.198986675364e-04 
-7.883281421680e-04 7.203078058761e-05 0.0 
7.203078058761e-05 7.560852597594e-03 0.0 
0.0 0.0 -8.389616527052e-04 
-7.884483807147e-04 9.370901070720e-05 0.0 
9.370901070720e-05 7.948452317074e-03 0.0 
0.0 0.0 -8.570575739443e-04 
-1.328056332164e-03 -6.444803612929e-06 0.0 
-6.444803612929e-06 8.942057407760e-03 0.0 
0.0 0.0 -1.336902025401e-03 
-1.335490548137e-03 -3.051268407678e-06 0.0 
-3.051268407678e-06 8.928554519845e-03 0.0 
0.0 0.0 -1.332945767435e-03 
-1.330763596633e-03 -6.267272137415e-05 0.0 
-6.267272137415e-05 8.913491219804e-03 0.0 
0.0 0.0 -1.334903170087e-03 
-1.323294934637e-03 3.464448246869e-05 0.0 
3.464448246869e-05 8.907920883196e-03 0.0 
0.0 0.0 -1.334459899807e-03 
-1.303356149218e-03 3.761598018835e-06 0.0 
3.761598018835e-06 8.877534997663e-03 0.0 
0.0 0.0 -1.332067731643e-03 
-1.272914244449e-03 2.811856091359e-05 0.0 
2.811856091359e-05 8.848890973439e-03 0.0 
0.0 0.0 -1.335050935171e-03 
-1.223931695219e-03 5.597640704928e-05 0.0 
5.597640704928e-05 8.818622122801e-03 0.0 
0.0 0.0 -1.335055123498e-03 
-1.185743028818e-03 8.362667501595e-05 0.0 
8.362667501595e-05 8.770130447214e-03 0.0 
0.0 0.0 -1.333530254363e-03 
-1.119412189746e-03 1.097641245318e-04 0.0 
1.097641245318e-04 8.712836833278e-03 0.0 
0.0 0.0 -1.332400697822e-03 
-1.036854059907e-03 2.723502267599e-04 0.0 
2.723502267599e-04 8.621837854592e-03 0.0 
0.0 0.0 -1.315995274263e-03 
-9.683806487741e-04 3.330603394447e-04 0.0 
3.330603394447e-04 8.529897973337e-03 0.0 
0.0 0.0 -1.303736987764e-03 
-7.891962143498e-04 5.658269124521e-04 0.0 
5.658269124521e-04 8.347352420377e-03 0.0 
0.0 0.0 -1.288829747357e-03 
-6.107833416808e-04 8.231076479220e-04 0.0 
8.231076479220e-04 8.184890488724e-03 0.0 
0.0 0.0 -1.267926914962e-03 
-3.965109934761e-04 1.164832550375e-03 0.0 
1.164832550375e-03 7.938711045609e-03 0.0 
0.0 0.0 -1.249738664298e-03 
-2.300271816755e-04 1.438062852270e-03 0.0 
1.438062852270e-03 7.756537381559e-03 0.0 
0.0 0.0 -1.225691931803e-03 
-3.025246450091e-05 1.786923915711e-03 0.0 
1.786923915711e-03 7.518519071795e-03 0.0 
0.0 0.0 -1.204285212624e-03 
1.237241129812e-04 2.004762563699e-03 0.0 
2.004762563699e-03 7.345250198815e-03 0.0 
0.0 0.0 -1.185596262827e-03 
1.642527715470e-04 2.031810520390e-03 0.0 
2.031810520390e-03 7.324948964668e-03 0.0 
0.0 0.0 -1.164436908815e-03 
2.015169745311e-04 2.000175944116e-03 0.0 
2.000175944116e-03 7.282328203747e-03 0.0 
0.0 0.0 -1.151173953484e-03 
1.436375170761e-04 1.837101412715e-03 0.0 
1.837101412715e-03 7.327743373812e-03 0.0 
0.0 0.0 -1.136889350697e-03 
8.157770139498e-05 1.686809866865e-03 0.0 
1.686809866865e-03 7.382323155920e-03 0.0 
0.0 0.0 -1.121076216361e-03 
1.724475219611e-05 1.500108230498e-03 0.0 
1.500108230498e-03 7.444639799390e-03 0.0 
0.0 0.0 -1.105863996812e-03 
-5.835336350212e-05 1.345173441684e-03 0.0 
1.345173441684e-03 7.502116409700e-03 0.0 
0.0 0.0 -1.091783705844e-03 
-1.359274828702e-04 1.184123876666e-03 0.0 
1.184123876666e-03 7.566509732782e-03 0.0 
0.0 0.0 -1.077866914160e-03 
-2.129262898684e-04 1.045413082150e-03 0.0 
1.045413082150e-03 7.648403107831e-03 0.0 
0.0 0.0 -1.064964103632e-03 
-2.672227238256e-04 9.271636959420e-04 0.0 
9.271636959420e-04 7.702450378285e-03 0.0 
0.0 0.0 -1.053019308000e-03 
-3.456347225885e-04 8.075767203913e-04 0.0 
8.075767203913e-04 7.760326381184e-03 0.0 
0.0 0.0 -1.039929059920e-03 
-4.029896908247e-04 7.010238212854e-04 0.0 
7.010238212854e-04 7.825350374849e-03 0.0 
0.0 0.0 -1.027314040070e-03 
-4.593656494260e-04 6.142066683407e-04 0.0 
6.142066683407e-04 7.870974230359e-03 0.0 
0.0 0.0 -1.014950722878e-03 
-5.273643686465e-04 4.934485145670e-04 0.0 
4.934485145670e-04 7.941545633805e-03 0.0 
0.0 0.0 -1.003666603917e-03 
-5.826004336785e-04 4.802041389266e-04 0.0 
4.802041389266e-04 7.980892539441e-03 0.0 
0.0 0.0 -9.918148705203e-04 
-6.051841668235e-04 4.030381829897e-04 0.0 
4.030381829897e-04 7.981172283909e-03 0.0 
0.0 0.0 -9.793763306118e-04 
-6.585113337867e-04 3.260665325299e-04 0.0 
3.260665325299e-04 8.014107669980e-03 0.0 
0.0 0.0 -9.687809411853e-04 
-6.955922103725e-04 2.700148085914e-04 0.0 
2.700148085914e-04 8.066334293540e-03 0.0 
0.0 0.0 -9.597198727356e-04 
-7.222814079137e-04 2.355406252424e-04 0.0 
2.355406252424e-04 8.088652304398e-03 0.0 
0.0 0.0 -9.509148797146e-04 
-7.593076003814e-04 1.884415996875e-04 0.0 
1.884415996875e-04 8.109273639928e-03 0.0 
0.0 0.0 -9.426268558198e-04 
-7.746376451402e-04 1.648975840460e-04 0.0 
1.648975840460e-04 8.139064050188e-03 0.0 
0.0 0.0 -9.346144408532e-04 
-7.929018165046e-04 1.409081062173e-04 0.0 
1.409081062173e-04 8.134069148502e-03 0.0 
0.0 0.0 -9.274127082707e-04 
-8.037346957963e-04 1.104427583683e-04 0.0 
1.104427583683e-04 8.142071566556e-03 0.0 
0.0 0.0 -9.201333940808e-04 
-8.129286962372e-04 1.005617851335e-04 0.0 
1.005617851335e-04 8.136602065444e-03 0.0 
0.0 0.0 -9.128763625509e-04 
-8.300522829920e-04 6.510748103485e-05 0.0 
6.510748103485e-05 8.149622012106e-03 0.0 
0.0 0.0 -9.075880447066e-04 
-8.424871574655e-04 7.277843914100e-05 0.0 
7.277843914100e-05 8.187841169233e-03 0.0 
0.0 0.0 -9.031927238841e-04 
-8.449036521269e-04 4.142139537158e-05 0.0 
4.142139537158e-05 8.206206166529e-03 0.0 
0.0 0.0 -8.977590248304e-04 
-8.210046010630e-04 2.771391349418e-05 0.0 
2.771391349418e-05 8.106465171774e-03 0.0 
0.0 0.0 -8.910083216995e-04 
-8.540021864893e-04 3.048091247120e-05 0.0 
3.048091247120e-05 8.192197802007e-03 0.0 
0.0 0.0 -8.880578043859e-04 
-8.489633489246e-04 2.020934070880e-05 0.0 
2.020934070880e-05 8.163053228121e-03 0.0 
0.0 0.0 -8.827986504121e-04 
-8.578699883737e-04 -2.654513756208e-05 0.0 
-2.654513756208e-05 8.166835368126e-03 0.0 
0.0 0.0 -8.799025296166e-04 
-8.523949766076e-04 2.275159265243e-05 0.0 
2.275159265243e-05 8.191347278676e-03 0.0 
0.0 0.0 -8.764142720586e-04 
-8.493300236537e-04 1.978448500530e-06 0.0 
1.978448500530e-06 8.188580542832e-03 0.0 
0.0 0.0 -8.740765174771e-04 
-7.644479361830e-04 -7.854511718928e-05 0.0 
-7.854511718928e-05 4.967324475694e-03 0.0 
0.0 0.0 -7.648954205800e-04 
-8.429692067441e-04 -8.894340543493e-05 0.0 
-8.894340543493e-05 5.465473064469e-03 0.0 
0.0 0.0 -8.298981322982e-04 
-9.045101262401e-04 -8.649802336555e-05 0.0 
-8.649802336555e-05 5.927599153875e-03 0.0 
0.0 0.0 -8.959277352460e-04 
-9.682355907570e-04 -9.235019684030e-05 0.0 
-9.235019684030e-05 6.375436758553e-03 0.0 
0.0 0.0 -9.610467530554e-04 
-1.034301386645e-03 -8.131875668407e-05 0.0 
-8.131875668407e-05 6.841207604472e-03 0.0 
0.0 0.0 -1.026987810050e-03 
-1.084652817885e-03 -8.917462571015e-05 0.0 
-8.917462571015e-05 7.307643626561e-03 0.0 
0.0 0.0 -1.092790196867e-03 
-1.153469442186e-03 -7.930470280165e-05 0.0 
-7.930470280165e-05 7.768901773096e-03 0.0 
0.0 0.0 -1.158290425478e-03 
-1.218602686822e-03 -9.135197616384e-05 0.0 
-9.135197616384e-05 8.209166370611e-03 0.0 
0.0 0.0 -1.224481705251e-03 
-1.280117147855e-03 -1.008986322443e-04 0.0 
-1.008986322443e-04 8.709401710635e-03 0.0 
0.0 0.0 -1.288782062784e-03 
-1.752208263143e-05 3.240785673633e-05 0.0 
3.240785673633e-05 1.037696529891e-04 0.0 
0.0 0.0 -2.939528373048e-05 
-1.430199098949e-03 1.654404727256e-03 0.0 
1.654404727256e-03 5.417726317524e-03 0.0 
0.0 0.0 -7.158658194789e-04 
-1.477150186996e-04 3.707460658964e-04 0.0 
3.707460658964e-04 5.000909173636e-04 0.0 
0.0 0.0 -1.088012745759e-04 
-2.887200411027e-04 1.361640445581e-03 0.0 
1.361640445581e-03 1.032960725330e-03 0.0 
0.0 0.0 -1.795578361538e-04 
-3.758939995556e-04 1.754240715440e-03 0.0 
1.754240715440e-03 1.528105584755e-03 0.0 
0.0 0.0 -2.466011808795e-04 
-4.455681067791e-04 1.728285834448e-03 0.0 
1.728285834448e-03 1.947415623962e-03 0.0 
0.0 0.0 -3.108790080757e-04 
-4.717078985595e-04 1.198851423887e-03 0.0 
1.198851423887e-03 2.379049932034e-03 0.0 
0.0 0.0 -3.778135794433e-04 
-5.426309330091e-04 1.502855356898e-03 0.0 
1.502855356898e-03 2.868081107793e-03 0.0 
0.0 0.0 -4.454545662751e-04 
-6.893586896579e-04 2.945999320642e-03 0.0 
2.945999320642e-03 3.417632968868e-03 0.0 
0.0 0.0 -5.121313000160e-04 
-9.367254865518e-04 4.648571824387e-03 0.0 
4.648571824387e-03 4.061053373992e-03 0.0 
0.0 0.0 -5.789936928845e-04 
-1.475369789533e-03 5.776522110083e-03 0.0 
5.776522110083e-03 5.005461656966e-03 0.0 
0.0 0.0 -6.458622116531e-04 
-7.239366116730e-04 3.169028621304e-05 0.0 
3.169028621304e-05 4.738774373323e-03 0.0 
0.0 0.0 -7.167504868538e-04 
-7.146899977055e-04 1.825675316581e-05 0.0 
1.825675316581e-05 4.744500994597e-03 0.0 
0.0 0.0 -7.184827375020e-04 
-7.220195667395e-04 9.955617265647e-06 0.0 
9.955617265647e-06 4.744209281667e-03 0.0 
0.0 0.0 -7.186786903937e-04 
-7.195167507077e-04 -4.090117067346e-06 0.0 
-4.090117067346e-06 4.727960284404e-03 0.0 
0.0 0.0 -7.169675978895e-04 
-7.157118783183e-04 1.000400605143e-05 0.0 
1.000400605143e-05 4.806352240840e-03 0.0 
0.0 0.0 -7.238546058846e-04 
-7.167757422873e-04 9.862997110576e-06 0.0 
9.862997110576e-06 4.746941185892e-03 0.0 
0.0 0.0 -7.185860072230e-04 
-7.057318175599e-04 -1.794595285418e-05 0.0 
-1.794595285418e-05 4.734223114170e-03 0.0 
0.0 0.0 -7.170630917064e-04 
-7.078445996438e-04 1.935375642067e-05 0.0 
1.935375642067e-05 4.754253872236e-03 0.0 
0.0 0.0 -7.174139623878e-04 
-7.216541372049e-04 -1.661627061019e-06 0.0 
-1.661627061019e-06 4.777425000758e-03 0.0 
0.0 0.0 -7.207851870574e-04 
-7.266636292901e-04 1.146480479958e-05 0.0 
1.146480479958e-05 4.774807952892e-03 0.0 
0.0 0.0 -7.195160023472e-04 
-7.122931693663e-04 9.682189882716e-06 0.0 
9.682189882716e-06 4.766361153699e-03 0.0 
0.0 0.0 -7.186294792877e-04 
-7.223758526161e-04 -5.773972665906e-07 0.0 
-5.773972665906e-07 4.760731689836e-03 0.0 
0.0 0.0 -7.186194644340e-04 
-7.139375811903e-04 3.527894913579e-06 0.0 
3.527894913579e-06 4.752952638331e-03 0.0 
0.0 0.0 -7.192946965590e-04 
-1.073920647682e-03 3.594207731564e-04 0.0 
3.594207731564e-04 5.120770139916e-03 0.0 
0.0 0.0 -7.207925953812e-04 
-2.592440264170e-05 -1.590076434165e-05 0.0 
-1.590076434165e-05 1.361807839619e-04 0.0 
0.0 0.0 -2.981554499673e-05 
-3.446067835921e-05 -4.722769694990e-06 0.0 
-4.722769694990e-06 1.514232641041e-04 0.0 
0.0 0.0 -3.001360406192e-05 
-2.565561987743e-05 6.827507275393e-06 0.0 
6.827507275393e-06 1.519667526470e-04 0.0 
0.0 0.0 -2.891678940537e-05 
-2.047730287893e-05 -2.091507779790e-05 0.0 
-2.091507779790e-05 1.466127619383e-04 0.0 
0.0 0.0 -2.889836327124e-05 
-3.364373544555e-05 -3.089965635258e-05 0.0 
-3.089965635258e-05 1.595260388365e-04 0.0 
0.0 0.0 -3.040745255895e-05 
-4.176671741931e-05 -6.138377296778e-06 0.0 
-6.138377296778e-06 1.798263625009e-04 0.0 
0.0 0.0 -3.068777868300e-05 
-3.824342451581e-05 5.591674158895e-07 0.0 
5.591674158895e-07 1.791426173783e-04 0.0 
0.0 0.0 -3.058835961954e-05 
-3.226360630243e-05 -1.341036859016e-06 0.0 
-1.341036859016e-06 1.722310666212e-04 0.0 
0.0 0.0 -3.053879953887e-05 
-3.075195274388e-05 -3.753502375185e-06 0.0 
-3.753502375185e-06 1.736984769830e-04 0.0 
0.0 0.0 -3.044251428418e-05 
-2.638860610343e-05 -7.894449171806e-06 0.0 
-7.894449171806e-06 1.709687444738e-04 0.0 
0.0 0.0 -3.048531495051e-05 
-2.681419529694e-05 -1.626482453990e-05 0.0 
-1.626482453990e-05 1.776638784057e-04 0.0 
0.0 0.0 -3.060061046523e-05 
-4.178895109071e-05 4.651397470156e-06 0.0 
4.651397470156e-06 1.936858804511e-04 0.0 
0.0 0.0 -3.133350520012e-05 
2.098084782668e-04 2.045329473032e-05 0.0 
2.045329473032e-05 1.047581222258e-04 0.0 
0.0 0.0 -9.767877954719e-05 
9.067744821323e-04 7.691639639905e-06 0.0 
7.691639639905e-06 -1.731938782024e-04 0.0 
0.0 0.0 -1.832319526044e-04 
1.467054391693e-03 1.251922156223e-05 0.0 
1.251922156223e-05 -3.959935409396e-04 0.0 
0.0 0.0 -2.285233396380e-04 
1.343270857795e-03 6.988138170808e-06 0.0 
6.988138170808e-06 -3.297568756919e-04 0.0 
0.0 0.0 -2.358803183627e-04 
1.373878596448e-03 9.040043871170e-06 0.0 
9.040043871170e-06 -3.392318961889e-04 0.0 
0.0 0.0 -2.395354215545e-04 
1.593649490706e-03 1.360772298974e-05 0.0 
1.360772298974e-05 -4.605400230845e-04 0.0 
0.0 0.0 -2.296238826561e-04 
1.563416632827e-03 -6.702479970011e-06 0.0 
-6.702479970011e-06 -4.661536539837e-04 0.0 
0.0 0.0 -2.106194454338e-04 
-7.404617199042e-05 9.809424849708e-05 0.0 
9.809424849708e-05 2.502246806258e-04 0.0 
0.0 0.0 -7.119425116788e-05 
-2.346263209844e-04 9.276495795354e-04 0.0 
9.276495795354e-04 7.811045043938e-04 0.0 
0.0 0.0 -1.457676002711e-04 
-3.360042041652e-04 1.630986380310e-03 0.0 
1.630986380310e-03 1.286881247742e-03 0.0 
0.0 0.0 -2.130143027807e-04 
-3.971491720898e-04 1.704206507686e-03 0.0 
1.704206507686e-03 1.755003040546e-03 0.0 
0.0 0.0 -2.801731950103e-04 
-4.701965561866e-04 1.621085484524e-03 0.0 
1.621085484524e-03 2.215289398490e-03 0.0 
0.0 0.0 -3.440931072323e-04 
-4.955185208149e-04 1.415305786262e-03 0.0 
1.415305786262e-03 2.653148280002e-03 0.0 
0.0 0.0 -4.108392228286e-04 
-6.029843747990e-04 2.130754141774e-03 0.0 
2.130754141774e-03 3.135774613590e-03 0.0 
0.0 0.0 -4.786325096809e-04 
-7.878300951089e-04 3.838666428030e-03 0.0 
3.838666428030e-03 3.718321715156e-03 0.0 
0.0 0.0 -5.455426008747e-04 
-1.145634716497e-03 5.335377288356e-03 0.0 
5.335377288356e-03 4.476372410439e-03 0.0 
0.0 0.0 -6.123661653548e-04 
-1.929279490322e-03 5.131768077225e-03 0.0 
5.131768077225e-03 5.672918048431e-03 0.0 
0.0 0.0 -6.792803300743e-04 
-2.321171411411e-04 4.901510814566e-04 0.0 
4.901510814566e-04 1.027809523071e-03 0.0 
0.0 0.0 -1.870278901045e-04 
-4.346936256429e-04 3.598032999034e-04 0.0 
3.598032999034e-04 7.697603891179e-03 0.0 
0.0 0.0 -9.539150707431e-04 
-5.711706292193e-05 -1.132529147633e-05 0.0 
-1.132529147633e-05 2.965576224762e-04 0.0 
0.0 0.0 -5.718844814378e-05 
-5.424579011881e-05 -2.911933097958e-05 0.0 
-2.911933097958e-05 2.725297638317e-04 0.0 
0.0 0.0 -5.560925106410e-05 
-6.290715071492e-04 1.704609023130e-04 0.0 
1.704609023130e-04 7.867534599385e-03 0.0 
0.0 0.0 -9.133119877677e-04 
-3.358192322876e-04 1.151605724027e-03 0.0 
1.151605724027e-03 1.947468225755e-03 0.0 
0.0 0.0 -3.213286234882e-04 
-7.420385542936e-04 -8.365667069856e-06 0.0 
-8.365667069856e-06 4.777615505253e-03 0.0 
0.0 0.0 -7.242467578711e-04 
-1.861678533440e-04 7.301201356121e-04 0.0 
7.301201356121e-04 7.463763821529e-03 0.0 
0.0 0.0 -9.972287556700e-04 
-4.053679262362e-04 1.528476019569e-03 0.0 
1.528476019569e-03 2.765143923224e-03 0.0 
0.0 0.0 -4.497936382440e-04 
2.318572699698e-06 1.154617058409e-03 0.0 
1.154617058409e-03 7.323907978356e-03 0.0 
0.0 0.0 -1.048824914857e-03 
-6.352331497583e-04 4.061053608190e-03 0.0 
4.061053608190e-03 3.813040592486e-03 0.0 
0.0 0.0 -5.857980290939e-04 
-7.382997248132e-04 7.074157858531e-05 0.0 
7.074157858531e-05 7.991355997618e-03 0.0 
0.0 0.0 -8.899713799851e-04 
1.696687231403e-04 4.910773258926e-06 0.0 
4.910773258926e-06 1.796222972762e-04 0.0 
0.0 0.0 -1.092067612745e-04 
2.563917096385e-04 1.785517032966e-03 0.0 
1.785517032966e-03 7.101524782586e-03 0.0 
0.0 0.0 -1.104128585976e-03 
-1.299386883658e-03 2.069017217464e-03 0.0 
2.069017217464e-03 5.305824131747e-03 0.0 
0.0 0.0 -7.203075318094e-04 
-3.199423304114e-04 6.885723377319e-06 0.0 
6.885723377319e-06 2.776591301219e-03 0.0 
0.0 0.0 -4.640473930190e-04 
-9.144677632752e-04 1.181661945422e-05 0.0 
1.181661945422e-05 5.905949445827e-03 0.0 
0.0 0.0 -7.694992517314e-04 
1.855089777622e-04 2.039395339694e-03 0.0 
2.039395339694e-03 7.193872255411e-03 0.0 
0.0 0.0 -1.147058634548e-03 
-8.248820201016e-04 6.798432312242e-04 0.0 
6.798432312242e-04 8.254970309592e-03 0.0 
0.0 0.0 -1.226239657721e-03 
-1.297187620892e-03 -1.312320816016e-05 0.0 
-1.312320816016e-05 8.770502973775e-03 0.0 
0.0 0.0 -1.303238611779e-03 
-1.259091035405e-03 3.576101404758e-05 0.0 
3.576101404758e-05 8.703218566521e-03 0.0 
0.0 0.0 -1.297727402575e-03 
-1.170694918663e-03 1.276582037616e-04 0.0 
1.276582037616e-04 8.637840169530e-03 0.0 
0.0 0.0 -1.280682128545e-03 
-8.482844992549e-04 7.898903871590e-05 0.0 
7.898903871590e-05 5.026837899573e-03 0.0 
0.0 0.0 -7.522011426764e-04 
-7.523353912946e-04 1.162137769546e-05 0.0 
1.162137769546e-05 4.926512636401e-03 0.0 
0.0 0.0 -7.529849494387e-04 
-7.546537283985e-04 -1.241349829200e-05 0.0 
-1.241349829200e-05 4.950472109635e-03 0.0 
0.0 0.0 -7.580270452736e-04 
-9.976077557880e-04 -3.465320003220e-05 0.0 
-3.465320003220e-05 6.602229680106e-03 0.0 
0.0 0.0 -9.950081682429e-04 
-7.824029394019e-04 1.192328531022e-05 0.0 
1.192328531022e-05 8.001464695283e-03 0.0 
0.0 0.0 -8.741270775783e-04 
-4.947082956209e-05 -1.829296119630e-05 0.0 
-1.829296119630e-05 2.690780974868e-04 0.0 
0.0 0.0 -5.461765089469e-05 
1.068944939159e-03 1.775973471316e-05 0.0 
1.775973471316e-05 -3.697731841398e-04 0.0 
0.0 0.0 -1.886662380943e-04 
-8.686920789148e-04 -4.668758422464e-06 0.0 
-4.668758422464e-06 7.038737074908e-03 0.0 
0.0 0.0 -8.111870620359e-04 
-7.582082522979e-04 1.961281355476e-05 0.0 
1.961281355476e-05 4.902933380827e-03 0.0 
0.0 0.0 -7.500338828344e-04 
5.191124474567e-04 7.370233043800e-06 0.0 
7.370233043800e-06 7.060099628978e-04 0.0 
0.0 0.0 -2.594501920933e-04 
-4.607139939480e-04 1.206038710879e-03 0.0 
1.206038710879e-03 7.788497705957e-03 0.0 
0.0 0.0 -1.183494776141e-03 
-1.376286312254e-04 9.075027566643e-04 0.0 
9.075027566643e-04 7.464222901873e-03 0.0 
0.0 0.0 -1.024499609546e-03 
1.283500452590e-04 1.444608179761e-03 0.0 
1.444608179761e-03 7.203457179875e-03 0.0 
0.0 0.0 -1.075368051885e-03 
-2.727646109362e-04 5.634227079195e-04 0.0 
5.634227079195e-04 7.529012197214e-03 0.0 
0.0 0.0 -9.744746557972e-04 
-5.367927793727e-04 2.495691586168e-04 0.0 
2.495691586168e-04 7.792146650840e-03 0.0 
0.0 0.0 -9.366829624669e-04 
-6.266603041308e-05 2.501207789151e-06 0.0 
2.501207789151e-06 3.071735198218e-04 0.0 
0.0 0.0 -5.851952868526e-05 
-7.474245186294e-04 1.424161896038e-05 0.0 
1.424161896038e-05 4.916877911110e-03 0.0 
0.0 0.0 -7.500980793755e-04 
-6.480730671309e-04 1.089247391105e-04 0.0 
1.089247391105e-04 7.816844062642e-03 0.0 
0.0 0.0 -8.966405397147e-04 
-1.128899365850e-03 -3.031105506872e-05 0.0 
-3.031105506872e-05 7.537413441575e-03 0.0 
0.0 0.0 -1.123598490052e-03 
-5.732050020511e-05 -1.482205262677e-05 0.0 
-1.482205262677e-05 2.925850224953e-04 0.0 
0.0 0.0 -5.798785095132e-05 
-5.914251289981e-04 -6.471482804739e-06 0.0 
-6.471482804739e-06 3.820964198355e-03 0.0 
0.0 0.0 -5.937437734062e-04 
-1.316648292028e-03 -9.669654323195e-06 0.0 
-9.669654323195e-06 8.856349451900e-03 0.0 
0.0 0.0 -1.311981303940e-03 
-3.241886354975e-04 1.333695120915e-03 0.0 
1.333695120915e-03 2.346003036682e-03 0.0 
0.0 0.0 -3.897472533596e-04 
-3.065697542519e-04 8.500983761775e-04 0.0 
8.500983761775e-04 1.511643489034e-03 0.0 
0.0 0.0 -2.548795656134e-04 
-4.621743240457e-04 2.609329090316e-03 0.0 
2.609329090316e-03 3.230132320458e-03 0.0 
0.0 0.0 -5.178568985205e-04 
-1.049204627911e-03 4.551544949253e-03 0.0 
4.551544949253e-03 4.630239725504e-03 0.0 
0.0 0.0 -6.527703211191e-04 
-1.237086121482e-04 2.420433011423e-05 0.0 
2.420433011423e-05 4.874308111362e-04 0.0 
0.0 0.0 -1.118557093815e-04 
-8.696005125465e-04 -8.177489350786e-06 0.0 
-8.177489350786e-06 5.725890687358e-03 0.0 
0.0 0.0 -8.684787984471e-04 
-8.074200544926e-04 -4.039559156685e-06 0.0 
-4.039559156685e-06 8.087532552336e-03 0.0 
0.0 0.0 -8.696600275013e-04 
1.290238956050e-03 -2.627652022412e-05 0.0 
-2.627652022412e-05 -4.836543501841e-04 0.0 
0.0 0.0 -2.028409404171e-04 
-1.244012605559e-03 -1.337379541827e-07 0.0 
-1.337379541827e-07 8.417025004517e-03 0.0 
0.0 0.0 -1.253930875827e-03 
-9.194248850256e-04 4.333863020919e-04 0.0 
4.333863020919e-04 5.098775424656e-03 0.0 
0.0 0.0 -7.532271817479e-04 
-7.806985373677e-04 4.966139412120e-06 0.0 
4.966139412120e-06 5.109831204569e-03 0.0 
0.0 0.0 -7.809350190597e-04 
-8.062001814621e-04 2.173167671068e-05 0.0 
2.173167671068e-05 5.343609321704e-03 0.0 
0.0 0.0 -8.115578932774e-04 
-8.489268176994e-04 -8.110940848543e-06 0.0 
-8.110940848543e-06 5.566485028911e-03 0.0 
0.0 0.0 -8.428390908522e-04 
-8.804673106023e-04 1.251244415431e-07 0.0 
1.251244415431e-07 5.795279077470e-03 0.0 
0.0 0.0 -8.784658474099e-04 
-9.121627378671e-04 -7.430796722992e-06 0.0 
-7.430796722992e-06 6.000836909727e-03 0.0 
0.0 0.0 -9.060409163497e-04 
-8.756777626728e-04 -7.143189004675e-06 0.0 
-7.143189004675e-06 5.761383353658e-03 0.0 
0.0 0.0 -8.711257577414e-04 
-9.375016757267e-04 -9.018261483621e-06 0.0 
-9.018261483621e-06 6.200512371454e-03 0.0 
0.0 0.0 -9.341442283280e-04 
-9.034456709669e-04 -5.627619604452e-06 0.0 
-5.627619604452e-06 5.955351813444e-03 0.0 
0.0 0.0 -8.989774131092e-04 
-9.375397006910e-04 -9.487100187189e-06 0.0 
-9.487100187189e-06 6.248793060300e-03 0.0 
0.0 0.0 -9.415083590319e-04 
-9.651447206159e-04 -1.078565163385e-05 0.0 
-1.078565163385e-05 6.396664073004e-03 0.0 
0.0 0.0 -9.622976032585e-04 
-9.304266532056e-04 -6.330576673763e-06 0.0 
-6.330576673763e-06 6.148924780633e-03 0.0 
0.0 0.0 -9.268639294333e-04 
-9.923459703203e-04 -8.832674575491e-06 0.0 
-8.832674575491e-06 6.591396283471e-03 0.0 
0.0 0.0 -9.903372159162e-04 
-9.579486406670e-04 -6.976346530314e-06 0.0 
-6.976346530314e-06 6.343540435811e-03 0.0 
0.0 0.0 -9.547708836903e-04 
-8.957338589247e-04 -3.445195682096e-06 0.0 
-3.445195682096e-06 5.904490313780e-03 0.0 
0.0 0.0 -8.916807130883e-04 
-9.234034349690e-04 -3.140263271693e-06 0.0 
-3.140263271693e-06 6.097553141781e-03 0.0 
0.0 0.0 -9.194532194038e-04 
-8.597658352201e-04 -5.745984388102e-07 0.0 
-5.745984388102e-07 5.659471370407e-03 0.0 
0.0 0.0 -8.565021464486e-04 
-8.876676417698e-04 -1.521204235319e-06 0.0 
-1.521204235319e-06 5.852313305850e-03 0.0 
0.0 0.0 -8.841639842141e-04 
-9.508204613182e-04 -2.297031587624e-06 0.0 
-2.297031587624e-06 6.292146332209e-03 0.0 
0.0 0.0 -9.471984275390e-04 
-9.148993498349e-04 -3.275082318902e-06 0.0 
-3.275082318902e-06 6.045345094116e-03 0.0 
0.0 0.0 -9.118195294070e-04 
-8.520584533063e-04 -1.219021611566e-06 0.0 
-1.219021611566e-06 5.605756351829e-03 0.0 
0.0 0.0 -8.488396520500e-04 
-8.561829055518e-04 3.096004681375e-05 0.0 
3.096004681375e-05 5.774537595611e-03 0.0 
0.0 0.0 -8.764089341820e-04 
-8.009350930336e-04 2.561407647192e-05 0.0 
2.561407647192e-05 5.344276303366e-03 0.0 
0.0 0.0 -8.135623229517e-04 
-6.678196223407e-04 2.394834813060e-04 0.0 
2.394834813060e-04 5.375448673746e-03 0.0 
0.0 0.0 -8.410744910442e-04 
-6.025894805352e-04 2.742730229716e-04 0.0 
2.742730229716e-04 4.934394071209e-03 0.0 
0.0 0.0 -7.781617608290e-04 
-3.566099561205e-04 5.715871038281e-04 0.0 
5.715871038281e-04 4.853363871882e-03 0.0 
0.0 0.0 -8.056965831182e-04 
-4.104147418907e-04 5.253188388054e-04 0.0 
5.253188388054e-04 5.283445747757e-03 0.0 
0.0 0.0 -8.686949506212e-04 
-9.199188365654e-05 7.752038237236e-04 0.0 
7.752038237236e-04 4.753276784364e-03 0.0 
0.0 0.0 -8.332427817419e-04 
-8.084844117679e-05 7.901908714140e-04 0.0 
7.901908714140e-04 4.366382611932e-03 0.0 
0.0 0.0 -7.703313069557e-04 
1.825199682503e-04 9.193900510823e-04 0.0 
9.193900510823e-04 4.267302264327e-03 0.0 
0.0 0.0 -7.977945042040e-04 
1.223143463747e-04 8.743732840254e-04 0.0 
8.743732840254e-04 3.952606124436e-03 0.0 
0.0 0.0 -7.349073124327e-04 
4.150506106994e-04 9.790014111870e-04 0.0 
9.790014111870e-04 3.822383789585e-03 0.0 
0.0 0.0 -7.622392297106e-04 
1.028277863925e-03 1.461068620648e-03 0.0 
1.461068620648e-03 3.585582728675e-03 0.0 
0.0 0.0 -8.253152238873e-04 
1.299953201684e-03 1.449953893786e-03 0.0 
1.449953893786e-03 3.101521588500e-03 0.0 
0.0 0.0 -7.896995018144e-04 
6.259753940469e-04 9.825294128797e-04 0.0 
9.825294128797e-04 3.396018029144e-03 0.0 
0.0 0.0 -7.264132926704e-04 
1.552684071015e-03 1.386911164891e-03 0.0 
1.386911164891e-03 2.635256853897e-03 0.0 
0.0 0.0 -7.539848323805e-04 
8.260964623558e-04 9.468653596345e-04 0.0 
9.468653596345e-04 2.980400893759e-03 0.0 
0.0 0.0 -6.903858661722e-04 
1.783969779636e-03 1.282078215324e-03 0.0 
1.282078215324e-03 2.191230078808e-03 0.0 
0.0 0.0 -7.182351804274e-04 
1.013367983258e-03 8.798181307772e-04 0.0 
8.798181307772e-04 2.578753044141e-03 0.0 
0.0 0.0 -6.542402593883e-04 
1.979419209809e-03 1.132572761670e-03 0.0 
1.132572761670e-03 1.780303125378e-03 0.0 
0.0 0.0 -6.821763112594e-04 
2.706520215398e-03 1.482283565566e-03 0.0 
1.482283565566e-03 1.435188395140e-03 0.0 
0.0 0.0 -7.460902125261e-04 
2.790773196460e-03 1.235547852173e-03 0.0 
1.235547852173e-03 1.136419674860e-03 0.0 
0.0 0.0 -7.100832486075e-04 
2.125865074582e-03 9.434592658268e-04 0.0 
9.434592658268e-04 1.418271626095e-03 0.0 
0.0 0.0 -6.458624074531e-04 
2.819280947661e-03 9.734348352826e-04 0.0 
9.734348352826e-04 8.912245915070e-04 0.0 
0.0 0.0 -6.737786430284e-04 
2.941879010536e-03 1.123000476647e-03 0.0 
1.123000476647e-03 1.152820944856e-03 0.0 
0.0 0.0 -7.381473126730e-04 
2.896060672240e-03 8.641358008351e-04 0.0 
8.641358008351e-04 9.811835273101e-04 0.0 
0.0 0.0 -7.017500108595e-04 
2.700418206388e-03 9.324668112669e-04 0.0 
9.324668112669e-04 1.560096013035e-03 0.0 
0.0 0.0 -7.632068815292e-04 
2.643119480162e-03 7.114601536285e-04 0.0 
7.114601536285e-04 1.401635569050e-03 0.0 
0.0 0.0 -7.297828278826e-04 
2.814011148267e-03 6.183567653237e-04 0.0 
6.183567653237e-04 8.474001269490e-04 0.0 
0.0 0.0 -6.655364893108e-04 
2.554585651537e-03 5.031903874044e-04 0.0 
5.031903874044e-04 1.273834107651e-03 0.0 
0.0 0.0 -6.934067383651e-04 
2.341534887727e-03 5.762699148645e-04 0.0 
5.762699148645e-04 1.867101520301e-03 0.0 
0.0 0.0 -7.517208044329e-04 
2.261961026788e-03 4.013696718857e-04 0.0 
4.013696718857e-04 1.731217745787e-03 0.0 
0.0 0.0 -7.203881503104e-04 
2.439412546224e-03 3.099163214827e-04 0.0 
3.099163214827e-04 1.171993114648e-03 0.0 
0.0 0.0 -6.571136838490e-04 
2.157959456491e-03 2.420599087788e-04 0.0 
2.420599087788e-04 1.619699868620e-03 0.0 
0.0 0.0 -6.848379476561e-04 
1.986309537805e-03 3.175933737633e-04 0.0 
3.175933737633e-04 2.169158630468e-03 0.0 
0.0 0.0 -7.400856355479e-04 
1.896182924858e-03 1.838360101842e-04 0.0 
1.838360101842e-04 2.046100139644e-03 0.0 
0.0 0.0 -7.110256569539e-04 
2.029077558693e-03 9.766610802523e-05 0.0 
9.766610802523e-05 1.531678077511e-03 0.0 
0.0 0.0 -6.486049398320e-04 
1.778146770380e-03 6.290375010685e-05 0.0 
6.290375010685e-05 1.949533103054e-03 0.0 
0.0 0.0 -6.763006240845e-04 
1.651182320893e-03 1.348838699732e-04 0.0 
1.348838699732e-04 2.454489242100e-03 0.0 
0.0 0.0 -7.288443165060e-04 
1.540602314775e-03 3.117075693488e-05 0.0 
3.117075693488e-05 2.351240303135e-03 0.0 
0.0 0.0 -7.014005288449e-04 
1.616717655794e-03 -4.399719763981e-05 0.0 
-4.399719763981e-05 1.892659340178e-03 0.0 
0.0 0.0 -6.398389559308e-04 
1.379238312831e-03 -5.673203134420e-05 0.0 
-5.673203134420e-05 2.295972738804e-03 0.0 
0.0 0.0 -6.674633383154e-04 
1.303506402790e-03 5.924808768876e-06 0.0 
5.924808768876e-06 2.750958430893e-03 0.0 
0.0 0.0 -7.188405106629e-04 
1.138849600475e-03 -6.598018132638e-05 0.0 
-6.598018132638e-05 2.699989020562e-03 0.0 
0.0 0.0 -6.921371201097e-04 
1.054858528549e-03 -1.345178762087e-05 0.0 
-1.345178762087e-05 3.157301741092e-03 0.0 
0.0 0.0 -7.285911757865e-04 
1.154313965123e-03 -1.244031848228e-04 0.0 
-1.244031848228e-04 2.297415696000e-03 0.0 
0.0 0.0 -6.302092384919e-04 
9.084911502377e-04 -1.170303851480e-04 0.0 
-1.170303851480e-04 2.709049041023e-03 0.0 
0.0 0.0 -6.580989212857e-04 
8.614290707960e-04 -1.612835796356e-04 0.0 
-1.612835796356e-04 2.365279579747e-03 0.0 
0.0 0.0 -5.925517106747e-04 
6.126339176216e-04 -1.381823939263e-04 0.0 
-1.381823939263e-04 2.781600961341e-03 0.0 
0.0 0.0 -6.207111136070e-04 
2.185478068521e-03 2.044518394505e-03 0.0 
2.044518394505e-03 2.592236745018e-03 0.0 
0.0 0.0 -8.508155985809e-04 
5.254592476790e-04 -1.610719942523e-04 0.0 
-1.610719942523e-04 2.476644432165e-03 0.0 
0.0 0.0 -5.549884598765e-04 
7.593184831972e-04 -1.985848015613e-04 0.0 
-1.985848015613e-04 2.080147949978e-03 0.0 
0.0 0.0 -5.276250340903e-04 
2.919561942549e-04 -1.276903645842e-04 0.0 
-1.276903645842e-04 2.879327525152e-03 0.0 
0.0 0.0 -5.833260987948e-04 
3.502785149710e-04 -1.128923170686e-04 0.0 
-1.128923170686e-04 3.215470533055e-03 0.0 
0.0 0.0 -6.493616581942e-04 
2.057082194370e-04 -1.312289384513e-04 0.0 
-1.312289384513e-04 2.571295448173e-03 0.0 
0.0 0.0 -5.173870653820e-04 
7.158190987536e-06 -9.492781317204e-05 0.0 
-9.492781317204e-05 2.941027383351e-03 0.0 
0.0 0.0 -5.459094278256e-04 
-4.386078702053e-05 -8.593974533679e-05 0.0 
-8.593974533679e-05 2.596652021194e-03 0.0 
0.0 0.0 -4.798161731008e-04 
5.137499750415e-04 7.587255717603e-04 0.0 
7.587255717603e-04 2.904436464908e-03 0.0 
0.0 0.0 -6.252159162693e-04 
-9.729053089492e-04 2.777788594662e-06 0.0 
2.777788594662e-06 6.480512853036e-03 0.0 
0.0 0.0 -9.739843629885e-04 
-1.869667027244e-04 -5.658041286286e-05 0.0 
-5.658041286286e-05 2.912910629221e-03 0.0 
0.0 0.0 -5.084495576641e-04 
-1.849363030381e-04 -5.172657697796e-05 0.0 
-5.172657697796e-05 2.512905658218e-03 0.0 
0.0 0.0 -4.423119711188e-04 
-1.018360148387e-04 -7.008884442849e-05 0.0 
-7.008884442849e-05 2.257883091166e-03 0.0 
0.0 0.0 -4.136824817550e-04 
-1.954278416964e-04 -3.800670904495e-05 0.0 
-3.800670904495e-05 2.127339274864e-03 0.0 
0.0 0.0 -3.761903503575e-04 
-9.032923406135e-04 -1.942635711141e-05 0.0 
-1.942635711141e-05 6.054768473392e-03 0.0 
0.0 0.0 -9.126358703463e-04 
-9.750351070606e-04 8.331650577832e-07 0.0 
8.331650577832e-07 6.501449499714e-03 0.0 
0.0 0.0 -9.772611937912e-04 
-9.426936007589e-04 -8.476577603349e-06 0.0 
-8.476577603349e-06 6.285634427722e-03 0.0 
0.0 0.0 -9.468612964576e-04 
-1.013350986754e-03 -2.420793703442e-06 0.0 
-2.420793703442e-06 6.752430832338e-03 0.0 
0.0 0.0 -1.012955122490e-03 
-9.819905249802e-04 -9.218190891346e-06 0.0 
-9.218190891346e-06 6.546568860747e-03 0.0 
0.0 0.0 -9.835180958883e-04 
-2.345495384557e-04 -3.572944759419e-05 0.0 
-3.572944759419e-05 2.338254438989e-03 0.0 
0.0 0.0 -4.047791634435e-04 
-1.026297749493e-03 -7.873848128132e-06 0.0 
-7.873848128132e-06 6.842470359288e-03 0.0 
0.0 0.0 -1.026687169009e-03 
-1.041976492741e-03 3.297528438809e-06 0.0 
3.297528438809e-06 6.953471480802e-03 0.0 
0.0 0.0 -1.042264213861e-03 
-7.894126093117e-04 1.238093184236e-06 0.0 
1.238093184236e-06 5.169984540206e-03 0.0 
0.0 0.0 -7.861871271282e-04 
-5.028295746455e-05 8.344372157020e-04 0.0 
8.344372157020e-04 3.960959095922e-03 0.0 
0.0 0.0 -7.076088937226e-04 
2.719152243128e-03 1.158991528542e-03 0.0 
1.158991528542e-03 1.755176183956e-03 0.0 
0.0 0.0 -7.933107900874e-04 
-1.997264683518e-04 -6.326633540087e-05 0.0 
-6.326633540087e-05 3.320186093761e-03 0.0 
0.0 0.0 -5.745905038755e-04 
-3.350052796057e-04 -3.016303101166e-05 0.0 
-3.016303101166e-05 3.237113379352e-03 0.0 
0.0 0.0 -5.371338854166e-04 
-3.969080918648e-04 -4.034202086699e-05 0.0 
-4.034202086699e-05 3.690665343379e-03 0.0 
0.0 0.0 -6.033452624549e-04 
1.167648823741e-03 5.765489869014e-05 0.0 
5.765489869014e-05 3.252991322823e-03 0.0 
0.0 0.0 -7.436448853072e-04 
9.143707527372e-04 3.054552366061e-05 0.0 
3.054552366061e-05 3.662823074994e-03 0.0 
0.0 0.0 -7.490120496612e-04 
9.864235536523e-04 9.785914643952e-05 0.0 
9.785914643952e-05 3.799516551830e-03 0.0 
0.0 0.0 -7.643180359333e-04 
7.330776011105e-04 6.422897738931e-05 0.0 
6.422897738931e-05 4.209720340487e-03 0.0 
0.0 0.0 -7.696161281204e-04 
7.702263832441e-04 1.253123236308e-04 0.0 
1.253123236308e-04 4.381814809401e-03 0.0 
0.0 0.0 -7.851744861160e-04 
5.239382316783e-04 8.804204206285e-05 0.0 
8.804204206285e-05 4.785349888791e-03 0.0 
0.0 0.0 -7.903049447220e-04 
4.820612116479e-04 3.721755639702e-05 0.0 
3.721755639702e-05 4.617740768301e-03 0.0 
0.0 0.0 -7.750069621052e-04 
2.919837476891e-04 5.768307043698e-05 0.0 
5.768307043698e-05 5.174360829115e-03 0.0 
0.0 0.0 -7.954074567889e-04 
2.451096193785e-04 1.729656549461e-05 0.0 
1.729656549461e-05 5.011644181696e-03 0.0 
0.0 0.0 -7.803213288426e-04 
5.309638859491e-04 1.418893690509e-04 0.0 
1.418893690509e-04 4.987831820256e-03 0.0 
0.0 0.0 -8.061545555603e-04 
7.774100164565e-04 1.895681000418e-04 0.0 
1.895681000418e-04 4.583932847533e-03 0.0 
0.0 0.0 -8.012836142265e-04 
8.177583257179e-05 3.463610771167e-05 0.0 
3.463610771167e-05 5.539705550701e-03 0.0 
0.0 0.0 -8.004846588785e-04 
3.217994376344e-05 4.346204023184e-06 0.0 
4.346204023184e-06 5.380364761057e-03 0.0 
0.0 0.0 -7.856167336950e-04 
-1.034005363936e-04 1.900396183851e-05 0.0 
1.900396183851e-05 5.876326477965e-03 0.0 
0.0 0.0 -8.056757961183e-04 
-1.507960211813e-04 -4.603813805946e-06 0.0 
-4.603813805946e-06 5.718169824921e-03 0.0 
0.0 0.0 -7.910627140642e-04 
-5.981198780994e-05 -1.910762474712e-05 0.0 
-1.910762474712e-05 5.263596988079e-03 0.0 
0.0 0.0 -7.712748268554e-04 
-2.411895491981e-04 -2.003831761667e-05 0.0 
-2.003831761667e-05 5.601740494810e-03 0.0 
0.0 0.0 -7.770174087487e-04 
-2.057687257011e-04 -3.298376704922e-05 0.0 
-3.298376704922e-05 5.201276733796e-03 0.0 
0.0 0.0 -7.576199889986e-04 
2.411829153727e-03 9.536575951144e-04 0.0 
9.536575951144e-04 2.218150196770e-03 0.0 
0.0 0.0 -8.002049670846e-04 
2.390944948704e-03 1.145152711721e-03 0.0 
1.145152711721e-03 2.447907370974e-03 0.0 
0.0 0.0 -8.206949663154e-04 
2.092305717284e-03 9.472100783558e-04 0.0 
9.472100783558e-04 2.898627216091e-03 0.0 
0.0 0.0 -8.214326365562e-04 
2.035543481025e-03 1.104591294309e-03 0.0 
1.104591294309e-03 3.164874410938e-03 0.0 
0.0 0.0 -8.421238619097e-04 
1.744178682723e-03 9.128832925018e-04 0.0 
9.128832925018e-04 3.608786992058e-03 0.0 
0.0 0.0 -8.429297404296e-04 
1.649177931522e-03 1.035262244478e-03 0.0 
1.035262244478e-03 3.913388310019e-03 0.0 
0.0 0.0 -8.637787338206e-04 
1.376849237752e-03 8.568645091873e-04 0.0 
8.568645091873e-04 4.337201243545e-03 0.0 
0.0 0.0 -8.646685877947e-04 
1.465634369175e-03 7.509155889648e-04 0.0 
7.509155889648e-04 4.040570768283e-03 0.0 
0.0 0.0 -8.443973589593e-04 
-1.020948249731e-03 -5.775826579261e-06 0.0 
-5.775826579261e-06 6.785097853957e-03 0.0 
0.0 0.0 -1.018102500310e-03 
2.226517320108e-03 7.278762592040e-04 0.0 
7.278762592040e-04 1.100687426780e-03 0.0 
0.0 0.0 -6.095594541484e-04 
1.323031583815e-03 6.432687735360e-04 0.0 
6.432687735360e-04 1.837839056607e-03 0.0 
0.0 0.0 -5.816898710390e-04 
1.444354024849e-03 4.832260935168e-04 0.0 
4.832260935168e-04 1.499973298362e-03 0.0 
0.0 0.0 -5.454521931755e-04 
7.461256980441e-04 4.345863769440e-04 0.0 
4.345863769440e-04 2.032406390162e-03 0.0 
0.0 0.0 -5.176388733440e-04 
8.127099957471e-04 3.053336305185e-04 0.0 
3.053336305185e-04 1.748970000514e-03 0.0 
0.0 0.0 -4.814163979944e-04 
3.679406182180e-04 2.983862200183e-04 0.0 
2.983862200183e-04 2.029136069846e-03 0.0 
0.0 0.0 -4.537165770244e-04 
3.588179222578e-04 1.865905034800e-04 0.0 
1.865905034800e-04 1.819649741108e-03 0.0 
0.0 0.0 -4.172264234068e-04 
8.815813461151e-04 1.669515933234e-04 0.0 
1.669515933234e-04 1.462726851867e-03 0.0 
0.0 0.0 -4.450327826477e-04 
3.620116204937e-04 8.641660653947e-05 0.0 
8.641660653947e-05 1.597191631013e-03 0.0 
0.0 0.0 -3.805252178390e-04 
9.392573961083e-04 1.280219024424e-05 0.0 
1.280219024424e-05 1.187329039235e-03 0.0 
0.0 0.0 -4.085362445790e-04 
3.683245219090e-04 -1.437053714556e-05 0.0 
-1.437053714556e-05 1.369822872253e-03 0.0 
0.0 0.0 -3.437934912881e-04 
9.630981363361e-04 -1.499013569506e-04 0.0 
-1.499013569506e-04 9.441456501216e-04 0.0 
0.0 0.0 -3.717096690223e-04 
3.834899412110e-04 1.253596412820e-03 0.0 
1.253596412820e-03 4.654089300417e-03 0.0 
0.0 0.0 -8.954875387187e-04 
1.937652582204e-03 1.249274059820e-03 0.0 
1.249274059820e-03 3.472636803261e-03 0.0 
0.0 0.0 -8.635675256639e-04 
1.518385086492e-03 1.146390440286e-03 0.0 
1.146390440286e-03 4.255790585284e-03 0.0 
0.0 0.0 -8.854052079115e-04 
1.809460832601e-03 1.378877546850e-03 0.0 
1.378877546850e-03 3.810242960775e-03 0.0 
0.0 0.0 -8.855630116425e-04 
-1.591992575329e-04 -4.920720764697e-05 0.0 
-4.920720764697e-05 1.918129415248e-03 0.0 
0.0 0.0 -3.475522021424e-04 
-3.078947729754e-04 -1.005762896573e-05 0.0 
-1.005762896573e-05 6.032957464239e-03 0.0 
0.0 0.0 -7.967218285232e-04 
5.115687572638e-04 1.952889717297e-04 0.0 
1.952889717297e-04 5.217161652158e-03 0.0 
0.0 0.0 -8.226185254107e-04 
7.598365608889e-04 2.547434064145e-04 0.0 
2.547434064145e-04 4.808611982151e-03 0.0 
0.0 0.0 -8.179612642229e-04 
1.111734201859e-03 7.068359229850e-04 0.0 
7.068359229850e-04 4.757244251935e-03 0.0 
0.0 0.0 -8.663391153826e-04 
-2.045060417929e-04 -2.602227471332e-05 0.0 
-2.602227471332e-05 1.915287114231e-03 0.0 
0.0 0.0 -3.392587823741e-04 
7.790481121040e-05 1.945082906887e-04 0.0 
1.945082906887e-04 1.939238743231e-03 0.0 
0.0 0.0 -3.899405068163e-04 
1.529689210709e-04 3.229906531605e-04 0.0 
3.229906531605e-04 2.078391976732e-03 0.0 
0.0 0.0 -4.261104576107e-04 
-1.049394948444e-03 -6.226283885080e-06 0.0 
-6.226283885080e-06 7.001982288460e-03 0.0 
0.0 0.0 -1.048874596840e-03 
-1.017918189327e-03 -8.563044135185e-06 0.0 
-8.563044135185e-06 6.794247194180e-03 0.0 
0.0 0.0 -1.019458214591e-03 
4.680494640986e-04 2.490895326499e-04 0.0 
2.490895326499e-04 5.470876074119e-03 0.0 
0.0 0.0 -8.396641695054e-04 
-2.245779195759e-04 -2.263682779953e-05 0.0 
-2.263682779953e-05 2.110160724603e-03 0.0 
0.0 0.0 -3.675747464493e-04 
9.325369520323e-05 6.991858774427e-05 0.0 
6.991858774427e-05 5.739428401326e-03 0.0 
0.0 0.0 -8.158268498851e-04 
-5.489470498785e-05 4.274109354934e-05 0.0 
4.274109354934e-05 1.630494377609e-03 0.0 
0.0 0.0 -3.160508651072e-04 
-4.008170338798e-04 -1.690228224517e-05 0.0 
-1.690228224517e-05 5.919278579727e-03 0.0 
0.0 0.0 -7.830031917025e-04 
-4.405864934234e-04 -1.160177746830e-05 0.0 
-1.160177746830e-05 6.324568209597e-03 0.0 
0.0 0.0 -8.023879195486e-04 
3.968308115623e-04 -6.526713779889e-06 0.0 
-6.526713779889e-06 4.494258911317e-03 0.0 
0.0 0.0 -7.602647618000e-04 
1.368373064805e-03 1.242638055967e-03 0.0 
1.242638055967e-03 4.617621757548e-03 0.0 
0.0 0.0 -9.077005999674e-04 
1.658730767404e-03 1.488573510310e-03 0.0 
1.488573510310e-03 4.166194747598e-03 0.0 
0.0 0.0 -9.082346724323e-04 
1.625856759847e-03 -9.551371207612e-05 0.0 
-9.551371207612e-05 6.703856495141e-04 0.0 
0.0 0.0 -4.368024751037e-04 
1.588312542317e-03 -2.866940757664e-04 0.0 
-2.866940757664e-04 4.865835110426e-04 0.0 
0.0 0.0 -4.000028750317e-04 
9.185387993892e-04 -2.939442750867e-04 0.0 
-2.939442750867e-04 7.735588915544e-04 0.0 
0.0 0.0 -3.362177140684e-04 
1.458500322328e-03 -4.447535673908e-04 0.0 
-4.447535673908e-04 4.225188077082e-04 0.0 
0.0 0.0 -3.646174584383e-04 
2.042092632785e-03 -3.576734752284e-04 0.0 
-3.576734752284e-04 2.093638835669e-04 0.0 
0.0 0.0 -4.284477484795e-04 
1.771670548171e-03 -4.985132945884e-04 0.0 
-4.985132945884e-04 2.577188591889e-04 0.0 
0.0 0.0 -3.914172224959e-04 
1.249365257671e-03 -5.567500242661e-04 0.0 
-5.567500242661e-04 3.927287199323e-04 0.0 
0.0 0.0 -3.275549428413e-04 
1.398553663607e-03 -5.455266490671e-04 0.0 
-5.455266490671e-04 4.078749607673e-04 0.0 
0.0 0.0 -3.541853722931e-04 
1.725584200604e-03 -4.309541778481e-04 0.0 
-4.309541778481e-04 4.686084523369e-04 0.0 
0.0 0.0 -4.192720002935e-04 
1.298103525818e-03 -4.608879270469e-04 0.0 
-4.608879270469e-04 6.725412058944e-04 0.0 
0.0 0.0 -3.818909459020e-04 
9.337420611046e-04 -5.055925725936e-04 0.0 
-5.055925725936e-04 6.480718910060e-04 0.0 
0.0 0.0 -3.163726278224e-04 
8.262711012854e-04 -4.076724754436e-04 0.0 
-4.076724754436e-04 9.157022575177e-04 0.0 
0.0 0.0 -3.442135738104e-04 
-3.960986304657e-04 -7.256531259286e-07 0.0 
-7.256531259286e-07 6.480556108955e-03 0.0 
0.0 0.0 -8.164442028586e-04 
-8.917979281133e-05 -4.230348543169e-06 0.0 
-4.230348543169e-06 1.445499198735e-03 0.0 
0.0 0.0 -2.790856233436e-04 
-8.331232600789e-04 -1.470432704221e-06 0.0 
-1.470432704221e-06 5.468049203594e-03 0.0 
0.0 0.0 -8.288706041983e-04 
2.374667568728e-04 1.933559423675e-04 0.0 
1.933559423675e-04 5.857770163261e-03 0.0 
0.0 0.0 -8.440027102713e-04 
9.921810915894e-04 7.863364463990e-04 0.0 
7.863364463990e-04 5.079063238088e-03 0.0 
0.0 0.0 -8.865324513018e-04 
-1.084365567575e-03 -6.280824779014e-06 0.0 
-6.280824779014e-06 7.252032631151e-03 0.0 
0.0 0.0 -1.085032576515e-03 
-1.054657705810e-03 -6.435631966192e-06 0.0 
-6.435631966192e-06 7.045218181684e-03 0.0 
0.0 0.0 -1.055603631703e-03 
-9.875851288997e-04 -1.413805567776e-06 0.0 
-1.413805567776e-06 6.584177510452e-03 0.0 
0.0 0.0 -9.897378988699e-04 
-1.026769546168e-03 -2.237330550585e-06 0.0 
-2.237330550585e-06 6.840866959104e-03 0.0 
0.0 0.0 -1.026001677571e-03 
-1.092973095107e-03 -7.454569989633e-06 0.0 
-7.454569989633e-06 7.301089234385e-03 0.0 
0.0 0.0 -1.091942449670e-03 
-1.064751991023e-03 -3.501272267720e-06 0.0 
-3.501272267720e-06 7.095620902661e-03 0.0 
0.0 0.0 -1.062342898562e-03 
-9.988564979816e-04 -1.668871402227e-06 0.0 
-1.668871402227e-06 6.635005463114e-03 0.0 
0.0 0.0 -9.962627399151e-04 
-1.034436478479e-03 -1.481002808393e-06 0.0 
-1.481002808393e-06 6.886326563749e-03 0.0 
0.0 0.0 -1.032646955902e-03 
-9.669903561008e-04 -1.588757973806e-06 0.0 
-1.588757973806e-06 6.424013170772e-03 0.0 
0.0 0.0 -9.664557332607e-04 
-1.003700280699e-03 7.299281571958e-07 0.0 
7.299281571958e-07 6.676052297610e-03 0.0 
0.0 0.0 -1.002889032254e-03 
-1.069539961128e-03 -1.406306334206e-06 0.0 
-1.406306334206e-06 7.137459283332e-03 0.0 
0.0 0.0 -1.069134413525e-03 
-1.040251277345e-03 -2.304501535981e-06 0.0 
-2.304501535981e-06 6.929939891367e-03 0.0 
0.0 0.0 -1.039387411609e-03 
-9.757356294361e-04 3.492291009936e-06 0.0 
3.492291009936e-06 6.469291385121e-03 0.0 
0.0 0.0 -9.730575354659e-04 
-1.011311036558e-03 -3.920010342729e-06 0.0 
-3.920010342729e-06 6.721391753202e-03 0.0 
0.0 0.0 -1.009574527126e-03 
-9.473976655285e-04 1.069754497068e-06 0.0 
1.069754497068e-06 6.259448801403e-03 0.0 
0.0 0.0 -9.431603702596e-04 
-9.787243902099e-04 -9.076392670580e-06 0.0 
-9.076392670580e-06 6.505694726987e-03 0.0 
0.0 0.0 -9.796061197752e-04 
-1.045613844249e-03 -1.722974318908e-06 0.0 
-1.722974318908e-06 6.974649094867e-03 0.0 
0.0 0.0 -1.046101832713e-03 
-1.609555491061e-04 -1.705056072295e-05 0.0 
-1.705056072295e-05 1.672367490764e-03 0.0 
0.0 0.0 -3.035957800550e-04 
1.194804690714e-03 6.151397359249e-04 0.0 
6.151397359249e-04 4.464899481146e-03 0.0 
0.0 0.0 -8.463772742466e-04 
8.361021584760e-04 5.796447081678e-04 0.0 
5.796447081678e-04 5.187724719251e-03 0.0 
0.0 0.0 -8.686618079326e-04 
-4.701239966309e-04 -3.695080341883e-05 0.0 
-3.695080341883e-05 3.563381962546e-03 0.0 
0.0 0.0 -5.671321338944e-04 
-5.666552125104e-04 -3.356067971695e-05 0.0 
-3.356067971695e-05 4.013789388605e-03 0.0 
0.0 0.0 -6.325382687906e-04 
-4.441820634989e-04 -2.586240244895e-05 0.0 
-2.586240244895e-05 4.126123637969e-03 0.0 
0.0 0.0 -6.678871238576e-04 
-6.424041703048e-04 -9.093164522440e-06 0.0 
-9.093164522440e-06 4.498629718409e-03 0.0 
0.0 0.0 -6.883550699408e-04 
-1.013217864429e-03 -6.931448216210e-06 0.0 
-6.931448216210e-06 6.760757040862e-03 0.0 
0.0 0.0 -1.015477767897e-03 
-1.085754476307e-03 4.526117246953e-06 0.0 
4.526117246953e-06 7.228792746516e-03 0.0 
0.0 0.0 -1.082739357160e-03 
5.054760406203e-05 2.950397377222e-04 0.0 
2.950397377222e-04 1.804250276387e-03 0.0 
0.0 0.0 -3.630904347118e-04 
1.909991293292e-04 5.179753660370e-04 0.0 
5.179753660370e-04 1.875448154594e-03 0.0 
0.0 0.0 -3.987635198617e-04 
-1.114604240908e-03 -4.187271034188e-06 0.0 
-4.187271034188e-06 7.457266297093e-03 0.0 
0.0 0.0 -1.114382729655e-03 
-5.379468005654e-04 -1.561126630807e-05 0.0 
-1.561126630807e-05 6.217588506475e-03 0.0 
0.0 0.0 -7.889323800899e-04 
-5.602515472745e-04 -1.382095660699e-05 0.0 
-1.382095660699e-05 5.869876145611e-03 0.0 
0.0 0.0 -7.700732377202e-04 
1.080482809138e-04 8.792077374288e-04 0.0 
8.792077374288e-04 3.592464432461e-03 0.0 
0.0 0.0 -6.721935305596e-04 
-3.712767084736e-05 8.726336565528e-04 0.0 
8.726336565528e-04 3.571674686121e-03 0.0 
0.0 0.0 -6.449639573754e-04 
9.171456785927e-05 8.928312217281e-04 0.0 
8.928312217281e-04 3.232132744153e-03 0.0 
0.0 0.0 -6.093131083769e-04 
1.241600793959e-04 1.235060076312e-03 0.0 
1.235060076312e-03 3.026490080507e-03 0.0 
0.0 0.0 -5.812298138028e-04 
-6.279178640129e-05 1.094503245176e-03 0.0 
1.094503245176e-03 3.435178256484e-03 0.0 
0.0 0.0 -6.173664885638e-04 
2.538278264979e-04 1.232993867623e-03 0.0 
1.232993867623e-03 2.681421482385e-03 0.0 
0.0 0.0 -5.448148816535e-04 
1.033975669986e-03 2.485172317098e-04 0.0 
2.485172317098e-04 4.166027299340e-03 0.0 
0.0 0.0 -7.964149772220e-04 
-1.105789133782e-03 -5.097961888919e-06 0.0 
-5.097961888919e-06 7.391609738888e-03 0.0 
0.0 0.0 -1.105708206284e-03 
-7.547719319481e-06 -9.538117377532e-05 0.0 
-9.538117377532e-05 1.993760142174e-03 0.0 
0.0 0.0 -3.852871208612e-04 
-1.203607313259e-04 -5.938304430524e-05 0.0 
-5.938304430524e-05 1.711339517197e-03 0.0 
0.0 0.0 -3.193625892355e-04 
-5.440119549924e-04 -1.163060590263e-05 0.0 
-1.163060590263e-05 6.589578890437e-03 0.0 
0.0 0.0 -8.081278373679e-04 
1.519991810238e-03 6.371202461224e-04 0.0 
6.371202461224e-04 3.775898448834e-03 0.0 
0.0 0.0 -8.246788916140e-04 
2.807730179599e-05 1.026941056977e-03 0.0 
1.026941056977e-03 5.219485551646e-03 0.0 
0.0 0.0 -9.269432884274e-04 
1.294541214399e-03 2.093893351822e-03 0.0 
2.093893351822e-03 4.102963678437e-03 0.0 
0.0 0.0 -9.386452890682e-04 
9.533972097269e-04 1.969227923117e-03 0.0 
1.969227923117e-03 4.648430452872e-03 0.0 
0.0 0.0 -9.625311759979e-04 
1.702970155181e-03 2.412572863659e-03 0.0 
2.412572863659e-03 4.048659265932e-03 0.0 
0.0 0.0 -9.603371277195e-04 
1.408051641321e-03 2.356949497372e-03 0.0 
2.356949497372e-03 4.548153292574e-03 0.0 
0.0 0.0 -9.837805189735e-04 
1.438379772693e-03 2.170961087603e-03 0.0 
2.170961087603e-03 4.674482662566e-03 0.0 
0.0 0.0 -9.802095200449e-04 
1.708942210426e-03 2.193612974591e-03 0.0 
2.193612974591e-03 4.201647901327e-03 0.0 
0.0 0.0 -9.567857270840e-04 
1.211833366187e-03 1.327084041287e-03 0.0 
1.327084041287e-03 4.983241952065e-03 0.0 
0.0 0.0 -9.307132454260e-04 
1.249652818916e-03 1.864906859640e-03 0.0 
1.864906859640e-03 5.016903234997e-03 0.0 
0.0 0.0 -9.772712982870e-04 
-9.389683298366e-04 8.173508751277e-06 0.0 
8.173508751277e-06 6.277342985551e-03 0.0 
0.0 0.0 -9.487150400336e-04 
2.224490018459e-03 1.496777300766e-03 0.0 
1.496777300766e-03 3.029950821259e-03 0.0 
0.0 0.0 -8.636311437895e-04 
1.505659182156e-03 -3.517561442434e-04 0.0 
-3.517561442434e-04 8.558893548922e-04 0.0 
0.0 0.0 -4.474652294669e-04 
-1.762427264119e-04 -3.291905025734e-05 0.0 
-3.291905025734e-05 1.488499241923e-03 0.0 
0.0 0.0 -2.752498982733e-04 
4.974533388673e-04 -3.815979470341e-04 0.0 
-3.815979470341e-04 8.367970290849e-04 0.0 
0.0 0.0 -2.770275614452e-04 
-1.032906633954e-04 -2.543745860769e-06 0.0 
-2.543745860769e-06 1.759614830290e-03 0.0 
0.0 0.0 -3.299748606085e-04 
-2.555416617554e-04 -6.390381351201e-06 0.0 
-6.390381351201e-06 2.310553412519e-03 0.0 
0.0 0.0 -3.961554456411e-04 
1.693956381884e-04 2.361795516617e-04 0.0 
2.361795516617e-04 6.138486228166e-03 0.0 
0.0 0.0 -8.612875466287e-04 
1.179293318068e-03 2.124804588247e-03 0.0 
2.124804588247e-03 5.143573652796e-03 0.0 
0.0 0.0 -1.003526420556e-03 
1.157606386923e-03 2.313232403710e-03 0.0 
2.313232403710e-03 4.998871311621e-03 0.0 
0.0 0.0 -1.006912963157e-03 
2.976759918832e-04 2.023706365418e-03 0.0 
2.023706365418e-03 2.700454504820e-03 0.0 
0.0 0.0 -5.539799138139e-04 
-3.111472125683e-06 1.569843165128e-03 0.0 
1.569843165128e-03 3.216054434545e-03 0.0 
0.0 0.0 -5.905304635153e-04 
9.202571563713e-04 1.086489397304e-03 0.0 
1.086489397304e-03 5.433148069999e-03 0.0 
0.0 0.0 -9.298345414418e-04 
-9.052603845710e-04 -1.496793008829e-06 0.0 
-1.496793008829e-06 6.089428360264e-03 0.0 
0.0 0.0 -9.177848451843e-04 
-9.302886435713e-04 -1.143901140746e-06 0.0 
-1.143901140746e-06 6.175006027383e-03 0.0 
0.0 0.0 -9.302130594432e-04 
-8.986318941468e-04 1.808913455717e-06 0.0 
1.808913455717e-06 5.958837749668e-03 0.0 
0.0 0.0 -9.001900590098e-04 
1.535210347116e-04 -2.442778299866e-05 0.0 
-2.442778299866e-05 1.070683813364e-03 0.0 
0.0 0.0 -2.595221258752e-04 
4.559023085833e-04 -3.988876137120e-04 0.0 
-3.988876137120e-04 7.290282385452e-04 0.0 
0.0 0.0 -2.525597767350e-04 
-1.129866785975e-03 -6.589135683458e-06 0.0 
-6.589135683458e-06 7.556758245339e-03 0.0 
0.0 0.0 -1.128363834889e-03 
2.125778700444e-04 4.750381108678e-04 0.0 
4.750381108678e-04 2.230510239140e-03 0.0 
0.0 0.0 -4.615872697407e-04 
2.900500439242e-04 7.546000540032e-04 0.0 
7.546000540032e-04 1.987492192148e-03 0.0 
0.0 0.0 -4.342639779644e-04 
-2.386915298640e-04 1.349485648928e-05 0.0 
1.349485648928e-05 1.429642437323e-03 0.0 
0.0 0.0 -2.508181872060e-04 
-2.123142658657e-04 2.153637718006e-06 0.0 
2.153637718006e-06 1.175585796085e-03 0.0 
0.0 0.0 -2.143868084631e-04 
-1.042731456099e-03 1.901936730496e-05 0.0 
1.901936730496e-05 6.995442815012e-03 0.0 
0.0 0.0 -1.051814883004e-03 
-1.110984337992e-03 1.360393105763e-05 0.0 
1.360393105763e-05 7.468547826848e-03 0.0 
0.0 0.0 -1.117859435171e-03 
-4.685357206495e-04 -2.957002559764e-05 0.0 
-2.957002559764e-05 4.534211485838e-03 0.0 
0.0 0.0 -7.066483443083e-04 
-6.733400432826e-04 -2.107582290226e-05 0.0 
-2.107582290226e-05 4.889956260135e-03 0.0 
0.0 0.0 -7.151363704837e-04 
3.988694675463e-04 3.020720158150e-04 0.0 
3.020720158150e-04 5.752837635295e-03 0.0 
0.0 0.0 -8.575274207532e-04 
4.059978621173e-04 -2.928937145629e-04 0.0 
-2.928937145629e-04 1.112787614422e-03 0.0 
0.0 0.0 -3.060794667268e-04 
-1.146252104278e-03 9.473611415302e-07 0.0 
9.473611415302e-07 7.693660702169e-03 0.0 
0.0 0.0 -1.149181664990e-03 
1.250529129366e-03 5.190738624312e-04 0.0 
5.190738624312e-04 4.201072557239e-03 0.0 
0.0 0.0 -8.273375788622e-04 
1.545921906357e-03 5.196171381901e-04 0.0 
5.196171381901e-04 3.540548329154e-03 0.0 
0.0 0.0 -8.057831097905e-04 
-6.497616276194e-04 1.410449909327e-05 0.0 
1.410449909327e-05 4.292861626321e-03 0.0 
0.0 0.0 -6.604623333687e-04 
8.467732209103e-05 4.327711240453e-04 0.0 
4.327711240453e-04 1.609605458471e-03 0.0 
0.0 0.0 -3.366432492119e-04 
-1.181279947725e-04 1.520534496428e-04 0.0 
1.520534496428e-04 1.597008767595e-03 0.0 
0.0 0.0 -3.009099309908e-04 
1.872270767114e-03 -2.800649651400e-04 0.0 
-2.800649651400e-04 7.098751673123e-04 0.0 
0.0 0.0 -4.845585894574e-04 
6.435336815274e-04 -3.072778675947e-04 0.0 
-3.072778675947e-04 1.269065681874e-03 0.0 
0.0 0.0 -3.723415964733e-04 
-5.579250692189e-05 -3.198696943219e-06 0.0 
-3.198696943219e-06 1.885927287566e-03 0.0 
0.0 0.0 -3.583452993329e-04 
7.701394520295e-05 2.858570252145e-04 0.0 
2.858570252145e-04 6.440440946382e-03 0.0 
0.0 0.0 -8.796188973453e-04 
-1.155496536768e-03 -7.585900876950e-06 0.0 
-7.585900876950e-06 7.757441294242e-03 0.0 
0.0 0.0 -1.157575248917e-03 
1.499902622863e-03 1.863139869981e-03 0.0 
1.863139869981e-03 4.562726135576e-03 0.0 
0.0 0.0 -9.537836912488e-04 
1.976530732107e-03 2.174207687567e-03 0.0 
2.174207687567e-03 3.724686053363e-03 0.0 
0.0 0.0 -9.329167582573e-04 
1.042711980284e-03 1.595503287586e-03 0.0 
1.595503287586e-03 5.381748461901e-03 0.0 
0.0 0.0 -9.748575037148e-04 
7.175919021776e-05 -1.662168498159e-04 0.0 
-1.662168498159e-04 1.065350264109e-03 0.0 
0.0 0.0 -2.399185640008e-04 
-4.189639017154e-05 1.809230936226e-04 0.0 
1.809230936226e-04 6.510746832219e-03 0.0 
0.0 0.0 -8.654881382666e-04 
-6.542249863470e-04 -1.372543405593e-05 0.0 
-1.372543405593e-05 6.491488858740e-03 0.0 
0.0 0.0 -7.951865612176e-04 
9.594117213705e-04 2.116032454792e-03 0.0 
2.116032454792e-03 5.549077828633e-03 0.0 
0.0 0.0 -1.026256120960e-03 
9.532067588298e-04 2.290825995724e-03 0.0 
2.290825995724e-03 5.408431244496e-03 0.0 
0.0 0.0 -1.030009900539e-03 
2.390423965894e-04 6.266880857777e-04 0.0 
6.266880857777e-04 2.412869767306e-03 0.0 
0.0 0.0 -4.968499830348e-04 
3.360179996224e-04 9.708326362489e-04 0.0 
9.708326362489e-04 2.154931650688e-03 0.0 
0.0 0.0 -4.705806478706e-04 
4.375065506923e-04 1.184010851231e-03 0.0 
1.184010851231e-03 1.682719119228e-03 0.0 
0.0 0.0 -4.078257031896e-04 
5.355316582428e-04 1.582265563879e-03 0.0 
1.582265563879e-03 1.805996291589e-03 0.0 
0.0 0.0 -4.438024830152e-04 
-8.440631779025e-04 -4.493147098175e-06 0.0 
-4.493147098175e-06 5.518369027804e-03 0.0 
0.0 0.0 -8.361670615231e-04 
2.278511961502e-04 7.554940941667e-04 0.0 
7.554940941667e-04 2.639373213693e-03 0.0 
0.0 0.0 -5.333915535664e-04 
-7.972227851670e-04 -9.360487058662e-07 0.0 
-9.360487058662e-07 5.222669072684e-03 0.0 
0.0 0.0 -7.939299641313e-04 
-7.702508874020e-04 -1.538210288693e-06 0.0 
-1.538210288693e-06 5.031866795854e-03 0.0 
0.0 0.0 -7.665196690739e-04 
-7.250591246054e-04 5.416788802612e-05 0.0 
5.416788802612e-05 4.780590429921e-03 0.0 
0.0 0.0 -7.319524942586e-04 
-3.700480905220e-04 6.232256821636e-04 0.0 
6.232256821636e-04 3.953467772055e-03 0.0 
0.0 0.0 -6.527873785750e-04 
-3.310983553108e-04 9.331222610925e-04 0.0 
9.331222610925e-04 3.755812859796e-03 0.0 
0.0 0.0 -6.261871041946e-04 
6.792707726617e-04 5.567985725391e-04 0.0 
5.567985725391e-04 2.312516563608e-03 0.0 
0.0 0.0 -5.534964465553e-04 
2.692561654066e-03 1.383969529942e-03 0.0 
1.383969529942e-03 1.993101707293e-03 0.0 
0.0 0.0 -8.191571161600e-04 
-2.024588624522e-04 -5.367718378697e-05 0.0 
-5.367718378697e-05 4.103343618785e-03 0.0 
0.0 0.0 -6.946427512112e-04 
1.058207951966e-05 -3.768431082655e-05 0.0 
-3.768431082655e-05 4.828688371640e-03 0.0 
0.0 0.0 -7.517917995073e-04 
1.236688260141e-03 1.392855496327e-04 0.0 
1.392855496327e-04 3.392111318485e-03 0.0 
0.0 0.0 -7.592199046329e-04 
-1.135366159085e-03 -3.784163045636e-06 0.0 
-3.784163045636e-06 7.595187475630e-03 0.0 
0.0 0.0 -1.135109731873e-03 
-1.173430748718e-03 -9.063019793227e-06 0.0 
-9.063019793227e-06 7.855172062360e-03 0.0 
0.0 0.0 -1.171938512032e-03 
-9.103494794309e-04 9.134385712293e-06 0.0 
9.134385712293e-06 6.008446285683e-03 0.0 
0.0 0.0 -9.065739516476e-04 
-8.719468559850e-04 9.049287930908e-07 0.0 
9.049287930908e-07 5.790867004059e-03 0.0 
0.0 0.0 -8.764137937918e-04 
-2.044905103238e-04 -2.398711772459e-05 0.0 
-2.398711772459e-05 1.569320120693e-03 0.0 
0.0 0.0 -2.813159824896e-04 
-1.959301591470e-04 -1.589434821522e-05 0.0 
-1.589434821522e-05 1.389933363377e-03 0.0 
0.0 0.0 -2.532569443854e-04 
7.951190967464e-04 -2.734647000975e-05 0.0 
-2.734647000975e-05 3.573629873274e-03 0.0 
0.0 0.0 -7.342880859755e-04 
2.719041787787e-05 1.507962945819e-04 0.0 
1.507962945819e-04 6.221305263372e-03 0.0 
0.0 0.0 -8.481792719146e-04 
-1.150499129859e-03 -1.601096256561e-07 0.0 
-1.601096256561e-07 7.703368893988e-03 0.0 
0.0 0.0 -1.150095860580e-03 
-1.180515255213e-03 -2.827683268625e-06 0.0 
-2.827683268625e-06 7.908952217123e-03 0.0 
0.0 0.0 -1.179372829571e-03 
-1.142938913333e-03 -3.318694813210e-06 0.0 
-3.318694813210e-06 7.657003561438e-03 0.0 
0.0 0.0 -1.143369325255e-03 
3.089518397587e-04 3.578752826200e-04 0.0 
3.578752826200e-04 6.049564095268e-03 0.0 
0.0 0.0 -8.758959846423e-04 
2.283489261522e-03 4.997189305453e-04 0.0 
4.997189305453e-04 8.275441367204e-04 0.0 
0.0 0.0 -5.733740095480e-04 
2.109370240855e-03 7.827321573846e-04 0.0 
7.827321573846e-04 2.672436495520e-03 0.0 
0.0 0.0 -8.014872754505e-04 
-1.245433336786e-04 -3.472775343531e-05 0.0 
-3.472775343531e-05 1.263246818015e-03 0.0 
0.0 0.0 -2.423215009416e-04 
1.934448662755e-03 2.139460192945e-03 0.0 
2.139460192945e-03 3.051243137985e-03 0.0 
0.0 0.0 -8.814065310333e-04 
-2.083456110893e-04 -6.208199479859e-06 0.0 
-6.208199479859e-06 1.176941278834e-03 0.0 
0.0 0.0 -2.162536877156e-04 
-1.014212058360e-03 -1.424401912203e-06 0.0 
-1.424401912203e-06 6.732806316095e-03 0.0 
0.0 0.0 -1.010319580236e-03 
-6.542358859071e-04 -8.232279891140e-06 0.0 
-8.232279891140e-06 6.860276640493e-03 0.0 
0.0 0.0 -8.142264227705e-04 
-5.969622718411e-04 -3.552946042601e-06 0.0 
-3.552946042601e-06 7.006747313052e-03 0.0 
0.0 0.0 -8.272926793163e-04 
7.492025335800e-04 1.130201799488e-03 0.0 
1.130201799488e-03 5.808869983839e-03 0.0 
0.0 0.0 -9.526008259096e-04 
-8.175068651161e-04 6.366113459625e-04 0.0 
6.366113459625e-04 4.967683260126e-03 0.0 
0.0 0.0 -7.470952864203e-04 
2.499292044899e-03 2.263961607348e-03 0.0 
2.263961607348e-03 2.642252729331e-03 0.0 
0.0 0.0 -8.891216191434e-04 
2.662965710841e-03 2.078921455077e-03 0.0 
2.078921455077e-03 2.272569915220e-03 0.0 
0.0 0.0 -8.638227405570e-04 
-6.378728918530e-04 7.501068171249e-04 0.0 
7.501068171249e-04 4.533319380566e-03 0.0 
0.0 0.0 -7.048691535495e-04 
-5.129415841482e-04 1.170391641476e-03 0.0 
1.170391641476e-03 4.204211108976e-03 0.0 
0.0 0.0 -6.707530558731e-04 
-6.463057288631e-04 2.478964162666e-04 0.0 
2.478964162666e-04 4.494850145704e-03 0.0 
0.0 0.0 -6.972958566626e-04 
-3.516179631614e-04 1.574487728983e-03 0.0 
1.574487728983e-03 3.838293940617e-03 0.0 
0.0 0.0 -6.359606378414e-04 
1.608389347814e-03 -2.378038020603e-04 0.0 
-2.378038020603e-04 1.138736047489e-03 0.0 
0.0 0.0 -5.122594947013e-04 
1.248289290271e-03 -2.891521343407e-04 0.0 
-2.891521343407e-04 1.276390064159e-03 0.0 
0.0 0.0 -4.750188804659e-04 
7.533537360441e-04 1.784433095449e-03 0.0 
1.784433095449e-03 5.967083228537e-03 0.0 
0.0 0.0 -1.025115813313e-03 
8.292562402717e-04 1.621968946115e-03 0.0 
1.621968946115e-03 5.800640327138e-03 0.0 
0.0 0.0 -9.976238657114e-04 
7.977981589096e-04 2.097401102386e-03 0.0 
2.097401102386e-03 5.936320061807e-03 0.0 
0.0 0.0 -1.049481643029e-03 
7.943633642951e-04 2.271818199177e-03 0.0 
2.271818199177e-03 5.805564892152e-03 0.0 
0.0 0.0 -1.053598565209e-03 
4.929278000047e-04 9.163589040927e-04 0.0 
9.163589040927e-04 6.227554587998e-03 0.0 
0.0 0.0 -9.518481658654e-04 
6.704583928267e-04 8.913741400141e-04 0.0 
8.913741400141e-04 5.839506129329e-03 0.0 
0.0 0.0 -9.297987265299e-04 
-2.646100709001e-04 -1.128731662595e-05 0.0 
-1.128731662595e-05 2.476972578226e-03 0.0 
0.0 0.0 -4.227350873389e-04 
1.823983166085e-05 2.123287385475e-03 0.0 
2.123287385475e-03 3.040165297580e-03 0.0 
0.0 0.0 -5.646260317871e-04 
-1.184636686047e-03 -1.016095806200e-05 0.0 
-1.016095806200e-05 8.009054334469e-03 0.0 
0.0 0.0 -1.194151889699e-03 
-7.251987313241e-04 2.690617381874e-04 0.0 
2.690617381874e-04 4.822109311436e-03 0.0 
0.0 0.0 -7.390869131010e-04 
-2.360168839926e-04 1.346266002552e-04 0.0 
1.346266002552e-04 6.843453183794e-03 0.0 
0.0 0.0 -8.691197564912e-04 
-1.634447529049e-04 1.135303460027e-04 0.0 
1.135303460027e-04 6.574301881868e-03 0.0 
0.0 0.0 -8.523451674928e-04 
-1.679677723564e-04 -6.471467774982e-06 0.0 
-6.471467774982e-06 9.157850137994e-04 0.0 
0.0 0.0 -1.776502893165e-04 
-1.343623568782e-04 -5.623792544442e-05 0.0 
-5.623792544442e-05 1.043247528088e-03 0.0 
0.0 0.0 -2.034953494974e-04 
-1.179928424182e-03 1.756406795435e-06 0.0 
1.756406795435e-06 7.951460578279e-03 0.0 
0.0 0.0 -1.184588873336e-03 
2.281915896874e-04 1.125486864736e-03 0.0 
1.125486864736e-03 1.732762325975e-03 0.0 
0.0 0.0 -3.811925308841e-04 
3.430183901506e-04 1.636893925667e-03 0.0 
1.636893925667e-03 1.821726850298e-03 0.0 
0.0 0.0 -4.158690271831e-04 
6.820412338080e-05 6.428787154431e-04 0.0 
6.428787154431e-04 1.676558700690e-03 0.0 
0.0 0.0 -3.459699425273e-04 
-7.738340390690e-04 4.125102969238e-06 0.0 
4.125102969238e-06 7.714784971572e-03 0.0 
0.0 0.0 -8.495649581710e-04 
-7.484881504011e-04 -2.960864060489e-06 0.0 
-2.960864060489e-06 4.893199602045e-03 0.0 
0.0 0.0 -7.479256703001e-04 
-6.937574525627e-04 -1.803889810380e-06 0.0 
-1.803889810380e-06 7.268772873235e-03 0.0 
0.0 0.0 -8.334404574292e-04 
-6.372164440055e-04 1.399644505302e-04 0.0 
1.399644505302e-04 4.434330042494e-03 0.0 
0.0 0.0 -6.884682336192e-04 
-1.207477073685e-03 3.654066082018e-06 0.0 
3.654066082018e-06 8.169097270233e-03 0.0 
0.0 0.0 -1.216510697198e-03 
2.376346084817e-03 1.965145384040e-03 0.0 
1.965145384040e-03 2.919294621118e-03 0.0 
0.0 0.0 -8.865700970198e-04 
2.262937622441e-04 8.618761659616e-04 0.0 
8.618761659616e-04 3.256139624512e-03 0.0 
0.0 0.0 -6.353966017694e-04 
6.474265021082e-04 3.836006955601e-04 0.0 
3.836006955601e-04 5.341871177524e-03 0.0 
0.0 0.0 -8.535458408613e-04 
-1.141578224773e-03 -1.678015124368e-05 0.0 
-1.678015124368e-05 7.703318796330e-03 0.0 
0.0 0.0 -1.149140729088e-03 
-1.226390364052e-03 1.281801736302e-05 0.0 
1.281801736302e-05 8.221773688784e-03 0.0 
0.0 0.0 -1.221625961084e-03 
-8.548571335587e-04 9.585095622166e-06 0.0 
9.585095622166e-06 5.710330831809e-03 0.0 
0.0 0.0 -8.638707813346e-04 
-8.315226367925e-04 -1.796676276346e-05 0.0 
-1.796676276346e-05 5.471080815741e-03 0.0 
0.0 0.0 -8.327709333130e-04 
-8.913153694948e-04 3.187001622880e-06 0.0 
3.187001622880e-06 5.908304703834e-03 0.0 
0.0 0.0 -8.925140200429e-04 
-2.214015103604e-04 2.691994421978e-05 0.0 
2.691994421978e-05 1.632139521893e-03 0.0 
0.0 0.0 -2.887053311254e-04 
-2.259876589125e-04 -1.628476741977e-06 0.0 
-1.628476741977e-06 1.207242233754e-03 0.0 
0.0 0.0 -2.186270541161e-04 
-1.144042553285e-03 -3.972510573140e-06 0.0 
-3.972510573140e-06 7.644643748638e-03 0.0 
0.0 0.0 -1.142090266074e-03 
-3.836204439737e-04 -1.984177223366e-05 0.0 
-1.984177223366e-05 3.054379212712e-03 0.0 
0.0 0.0 -5.006138788623e-04 
-4.937799029855e-04 8.843015455327e-06 0.0 
8.843015455327e-06 3.376539145734e-03 0.0 
0.0 0.0 -5.359218444892e-04 
2.577073982562e-04 -2.114610541014e-04 0.0 
-2.114610541014e-04 1.417317832470e-03 0.0 
0.0 0.0 -3.328711069468e-04 
4.426076540850e-04 -2.299650749145e-04 0.0 
-2.299650749145e-04 1.624319233714e-03 0.0 
0.0 0.0 -3.985542937016e-04 
-2.031441126525e-04 -5.063081166046e-05 0.0 
-5.063081166046e-05 4.473965278959e-03 0.0 
0.0 0.0 -7.194585344922e-04 
8.466571341996e-05 -7.143874867161e-05 0.0 
-7.143874867161e-05 4.027604981241e-03 0.0 
0.0 0.0 -7.132098899583e-04 
-5.928024859667e-04 6.006432664679e-04 0.0 
6.006432664679e-04 6.466982058174e-03 0.0 
0.0 0.0 -1.014127858521e-03 
-6.642268260501e-04 5.855338123257e-04 0.0 
5.855338123257e-04 6.747782294475e-03 0.0 
0.0 0.0 -1.045693786193e-03 
-2.793729420357e-04 7.964630326320e-04 0.0 
7.964630326320e-04 5.735635650699e-03 0.0 
0.0 0.0 -9.559666981348e-04 
1.281308051652e-03 4.166311131856e-04 0.0 
4.166311131856e-04 3.961513899648e-03 0.0 
0.0 0.0 -8.090328552757e-04 
1.547498166104e-03 4.024586409800e-04 0.0 
4.024586409800e-04 3.330935853699e-03 0.0 
0.0 0.0 -7.877319202918e-04 
1.811691716153e-03 5.007188127123e-04 0.0 
5.007188127123e-04 2.913195617569e-03 0.0 
0.0 0.0 -7.847046171568e-04 
-1.205371287344e-03 -1.017172525849e-05 0.0 
-1.017172525849e-05 8.044519540676e-03 0.0 
0.0 0.0 -1.199867006878e-03 
-1.246871842620e-03 -1.782584577441e-06 0.0 
-1.782584577441e-06 8.370823131876e-03 0.0 
0.0 0.0 -1.242728214876e-03 
1.902344781236e-03 -1.426593769541e-04 0.0 
-1.426593769541e-04 1.063835107014e-03 0.0 
0.0 0.0 -5.488632449009e-04 
2.168178732377e-03 -1.618519181260e-04 0.0 
-1.618519181260e-04 6.322458756332e-04 0.0 
0.0 0.0 -5.212126360957e-04 
1.352077278817e-03 -2.085322461649e-04 0.0 
-2.085322461649e-04 1.555388616627e-03 0.0 
0.0 0.0 -5.390128571062e-04 
-1.214529256448e-03 -6.301616693036e-06 0.0 
-6.301616693036e-06 8.215301645721e-03 0.0 
0.0 0.0 -1.223056365294e-03 
-6.739689566524e-04 1.923982891308e-05 0.0 
1.923982891308e-05 7.453576571891e-03 0.0 
0.0 0.0 -8.461705714538e-04 
-5.859821634536e-04 -6.909945082524e-06 0.0 
-6.909945082524e-06 7.178966189413e-03 0.0 
0.0 0.0 -8.416434380117e-04 
-1.861383816900e-04 -1.612640980348e-05 0.0 
-1.612640980348e-05 9.996780479235e-04 0.0 
0.0 0.0 -1.880780275778e-04 
-1.714206003114e-04 -3.735854299353e-05 0.0 
-3.735854299353e-05 1.190316846585e-03 0.0 
0.0 0.0 -2.247092568812e-04 
-1.966124639233e-04 9.591857769765e-05 0.0 
9.591857769765e-05 1.517575107446e-03 0.0 
0.0 0.0 -2.751197234063e-04 
-2.323114884201e-04 -9.942386832929e-06 0.0 
-9.942386832929e-06 1.338584174193e-03 0.0 
0.0 0.0 -2.407125716443e-04 
-1.208745358061e-03 2.226513834248e-07 0.0 
2.226513834248e-07 8.094728759758e-03 0.0 
0.0 0.0 -1.207258722210e-03 
-1.173002429905e-03 -1.580225171847e-08 0.0 
-1.580225171847e-08 7.865013445176e-03 0.0 
0.0 0.0 -1.172631524865e-03 
-1.245587066994e-03 -1.350830728443e-07 0.0 
-1.350830728443e-07 8.403006214559e-03 0.0 
0.0 0.0 -1.247471551777e-03 
-1.273522096909e-05 1.229262592390e-05 0.0 
1.229262592390e-05 1.986071929644e-03 0.0 
0.0 0.0 -3.801539159394e-04 
1.744197506871e-03 1.856612078661e-03 0.0 
1.856612078661e-03 4.111553805313e-03 0.0 
0.0 0.0 -9.313179711802e-04 
-2.993433987757e-05 3.283710871301e-04 0.0 
3.283710871301e-04 6.738958270357e-03 0.0 
0.0 0.0 -8.980916058173e-04 
2.207163717102e-04 4.284136540970e-04 0.0 
4.284136540970e-04 6.347412596381e-03 0.0 
0.0 0.0 -8.947191162406e-04 
-2.778620742022e-04 2.515695254740e-04 0.0 
2.515695254740e-04 7.213787894952e-03 0.0 
0.0 0.0 -9.039305151276e-04 
1.032674089001e-03 1.366002976044e-03 0.0 
1.366002976044e-03 5.363666334079e-03 0.0 
0.0 0.0 -9.529468760608e-04 
5.362153512783e-04 1.123991975975e-03 0.0 
1.123991975975e-03 6.197527286469e-03 0.0 
0.0 0.0 -9.740179550779e-04 
5.639876926914e-04 1.333402246271e-03 0.0 
1.333402246271e-03 6.203049101842e-03 0.0 
0.0 0.0 -9.962694807511e-04 
-1.526588308959e-04 -1.278274148856e-05 0.0 
-1.278274148856e-05 7.096255753314e-04 0.0 
0.0 0.0 -1.515181680101e-04 
-1.197635794990e-03 -1.679642684386e-05 0.0 
-1.679642684386e-05 8.038463106290e-03 0.0 
0.0 0.0 -1.199992767657e-03 
-8.372255126925e-04 -1.581405743953e-06 0.0 
-1.581405743953e-06 5.516497338344e-03 0.0 
0.0 0.0 -8.371571859873e-04 
-1.098991945020e-04 -3.154449405104e-05 0.0 
-3.154449405104e-05 5.330743413541e-04 0.0 
0.0 0.0 -1.134605161963e-04 
-7.981850025034e-04 -4.161080113946e-07 0.0 
-4.161080113946e-07 5.308479178574e-03 0.0 
0.0 0.0 -8.070151920887e-04 
-8.429634412097e-04 -1.709371110808e-06 0.0 
-1.709371110808e-06 5.581100165216e-03 0.0 
0.0 0.0 -8.451615393777e-04 
-7.696584184700e-04 -4.438777502838e-06 0.0 
-4.438777502838e-06 5.046252634616e-03 0.0 
0.0 0.0 -7.748096441827e-04 
2.591096435746e-04 1.409053952021e-05 0.0 
1.409053952021e-05 1.324828294566e-03 0.0 
0.0 0.0 -3.155299188714e-04 
-8.095068364426e-04 -1.064416675758e-05 0.0 
-1.064416675758e-05 5.359424365734e-03 0.0 
0.0 0.0 -8.174106193842e-04 
-8.516632903957e-04 -1.548663215885e-05 0.0 
-1.548663215885e-05 5.659882039523e-03 0.0 
0.0 0.0 -8.556612431672e-04 
-1.425019373392e-04 1.299845324182e-06 0.0 
1.299845324182e-06 7.110074450095e-04 0.0 
0.0 0.0 -1.421329337195e-04 
-1.249632985061e-03 3.450770483260e-06 0.0 
3.450770483260e-06 8.450128189206e-03 0.0 
0.0 0.0 -1.259301554906e-03 
-1.652376678941e-04 -1.286666981350e-05 0.0 
-1.286666981350e-05 7.455520390207e-04 0.0 
0.0 0.0 -1.556443337539e-04 
-1.735115051523e-04 -1.729735029944e-05 0.0 
-1.729735029944e-05 9.373734143985e-04 0.0 
0.0 0.0 -1.806578101979e-04 
-3.887868309251e-04 1.194111552295e-04 0.0 
1.194111552295e-04 7.182476271075e-03 0.0 
0.0 0.0 -8.728530611553e-04 
-3.207768398768e-04 7.991089089632e-05 0.0 
7.991089089632e-05 6.884189947573e-03 0.0 
0.0 0.0 -8.568993709650e-04 
-5.185009922944e-04 7.527236617912e-05 0.0 
7.527236617912e-05 7.441888676753e-03 0.0 
0.0 0.0 -8.769133314539e-04 
-4.512861764449e-04 7.506165676206e-05 0.0 
7.506165676206e-05 7.136971099273e-03 0.0 
0.0 0.0 -8.614582145569e-04 
-2.699344083163e-04 5.271345031492e-05 0.0 
5.271345031492e-05 6.610427070153e-03 0.0 
0.0 0.0 -8.410906849665e-04 
-4.078930448162e-04 4.832095983361e-05 0.0 
4.832095983361e-05 6.909445063173e-03 0.0 
0.0 0.0 -8.460570939570e-04 
-8.022613359355e-04 -1.465561338709e-05 0.0 
-1.465561338709e-05 5.265642214057e-03 0.0 
0.0 0.0 -7.985989294648e-04 
-5.943367015152e-04 6.664578850214e-05 0.0 
6.664578850214e-05 7.510863988211e-03 0.0 
0.0 0.0 -8.687494445193e-04 
-5.358781055955e-04 3.334420697875e-05 0.0 
3.334420697875e-05 7.197154740930e-03 0.0 
0.0 0.0 -8.517985326520e-04 
-6.761102175163e-04 4.714641780291e-05 0.0 
4.714641780291e-05 7.785996682263e-03 0.0 
0.0 0.0 -8.730815330132e-04 
-3.060742465627e-04 2.966839830096e-03 0.0 
2.966839830096e-03 3.642079263146e-03 0.0 
0.0 0.0 -6.108003466767e-04 
5.433687019192e-04 1.896617463040e-03 0.0 
1.896617463040e-03 2.002647676098e-03 0.0 
0.0 0.0 -4.789358348571e-04 
3.957661659270e-04 2.107721772300e-03 0.0 
2.107721772300e-03 1.976112159977e-03 0.0 
0.0 0.0 -4.527251363391e-04 
-7.805893917925e-05 1.240964220094e-03 0.0 
1.240964220094e-03 2.078871571319e-03 0.0 
0.0 0.0 -3.875663759467e-04 
5.808906143117e-04 2.027876904565e-03 0.0 
2.027876904565e-03 6.424100249058e-03 0.0 
0.0 0.0 -1.076675529597e-03 
6.443225057803e-04 2.267319799235e-03 0.0 
2.267319799235e-03 6.141581419425e-03 0.0 
0.0 0.0 -1.076840544099e-03 
-7.782120511071e-04 -6.515502035817e-06 0.0 
-6.515502035817e-06 6.773451409519e-03 0.0 
0.0 0.0 -8.025253416856e-04 
-8.379404777861e-04 -2.572068008990e-06 0.0 
-2.572068008990e-06 6.441286683912e-03 0.0 
0.0 0.0 -7.842533244883e-04 
-8.163996236660e-04 7.186741062486e-06 0.0 
7.186741062486e-06 5.339991771102e-03 0.0 
0.0 0.0 -8.108182148135e-04 
-8.104965103200e-04 -8.251273631931e-06 0.0 
-8.251273631931e-06 5.308853861974e-03 0.0 
0.0 0.0 -8.077352941366e-04 
-8.720514006204e-04 3.179792081281e-05 0.0 
3.179792081281e-05 5.733381675574e-03 0.0 
0.0 0.0 -8.678526801547e-04 
-8.648510791426e-04 -7.111218047978e-06 0.0 
-7.111218047978e-06 5.661166370703e-03 0.0 
0.0 0.0 -8.609153521579e-04 
-9.263549734801e-04 3.033239231763e-05 0.0 
3.033239231763e-05 6.105443762298e-03 0.0 
0.0 0.0 -9.200517378055e-04 
-9.083479877114e-04 -1.416522287393e-05 0.0 
-1.416522287393e-05 6.036653926986e-03 0.0 
0.0 0.0 -9.108947733944e-04 
-9.698621139042e-04 -2.949214397537e-05 0.0 
-2.949214397537e-05 6.467199866666e-03 0.0 
0.0 0.0 -9.726914458129e-04 
3.743451037274e-04 1.354466782716e-03 0.0 
1.354466782716e-03 6.619253502267e-03 0.0 
0.0 0.0 -1.021204506392e-03 
-1.922210584448e-04 3.711523316523e-04 0.0 
3.711523316523e-04 1.778161681779e-03 0.0 
0.0 0.0 -3.180830487989e-04 
-6.341640842177e-04 2.346474216236e-03 0.0 
2.346474216236e-03 4.371345914748e-03 0.0 
0.0 0.0 -6.783069842581e-04 
2.446997195793e-04 7.348288429369e-04 0.0 
7.348288429369e-04 6.621839453138e-03 0.0 
0.0 0.0 -9.513328277487e-04 
4.335530557407e-04 7.302670388984e-04 0.0 
7.302670388984e-04 6.197958688485e-03 0.0 
0.0 0.0 -9.286815997304e-04 
-1.778460289200e-04 1.869066999038e-03 0.0 
1.869066999038e-03 3.444601086945e-03 0.0 
0.0 0.0 -6.000944487132e-04 
-1.159397327412e-04 2.481722209875e-03 0.0 
2.481722209875e-03 3.027729053805e-03 0.0 
0.0 0.0 -5.401620014017e-04 
-3.632785345207e-04 1.748485101030e-04 0.0 
1.748485101030e-04 7.254699028683e-03 0.0 
0.0 0.0 -8.892450307013e-04 
3.566383386303e-04 6.776272014075e-04 0.0 
6.776272014075e-04 2.674580528008e-03 0.0 
0.0 0.0 -5.600314934590e-04 
-1.220689366087e-03 6.475138040450e-05 0.0 
6.475138040450e-05 8.649275663928e-03 0.0 
0.0 0.0 -1.281637622679e-03 
-4.726518995237e-05 -5.619949717463e-06 0.0 
-5.619949717463e-06 2.661811301103e-04 0.0 
0.0 0.0 -5.690003420298e-05 
-1.291194022147e-04 1.153791065658e-05 0.0 
1.153791065658e-05 6.783732708889e-04 0.0 
0.0 0.0 -1.353443326634e-04 
3.065569984016e-04 7.829595008731e-04 0.0 
7.829595008731e-04 2.942145364522e-03 0.0 
0.0 0.0 -5.969207367497e-04 
-5.283355712958e-04 5.272243504062e-04 0.0 
5.272243504062e-04 4.167210022382e-03 0.0 
0.0 0.0 -6.620222007989e-04 
4.560172752708e-04 2.037670062764e-03 0.0 
2.037670062764e-03 2.309052691400e-03 0.0 
0.0 0.0 -5.157319100482e-04 
4.137048890213e-04 2.537987767971e-03 0.0 
2.537987767971e-03 2.224684552074e-03 0.0 
0.0 0.0 -4.917183783407e-04 
9.829186358853e-04 4.137954331989e-04 0.0 
4.137954331989e-04 4.631926965608e-03 0.0 
0.0 0.0 -8.309832694077e-04 
-1.525077618275e-04 -2.704224756217e-05 0.0 
-2.704224756217e-05 1.020814194927e-03 0.0 
0.0 0.0 -1.995083582888e-04 
-7.538062353661e-05 3.033864133478e-04 0.0 
3.033864133478e-04 1.611958556290e-03 0.0 
0.0 0.0 -3.106934562087e-04 
-9.732483420248e-04 2.855591412457e-05 0.0 
2.855591412457e-05 6.524849625930e-03 0.0 
0.0 0.0 -9.796923013958e-04 
-2.492954901946e-04 5.421975703898e-07 0.0 
5.421975703898e-07 1.421478567984e-03 0.0 
0.0 0.0 -2.487700610537e-04 
-9.420932423639e-04 6.879397668719e-07 0.0 
6.879397668719e-07 6.710872645147e-03 0.0 
0.0 0.0 -7.932651601863e-04 
6.027495494022e-04 6.657392415816e-04 0.0 
6.657392415816e-04 2.603262284016e-03 0.0 
0.0 0.0 -5.891999696964e-04 
-5.285293965844e-04 3.331760607238e-04 0.0 
3.331760607238e-04 4.485583481171e-03 0.0 
0.0 0.0 -7.153500975001e-04 
2.883513691439e-04 7.985951632686e-04 0.0 
7.985951632686e-04 1.619182870374e-03 0.0 
0.0 0.0 -3.721998919698e-04 
3.287584031047e-04 1.148690206834e-03 0.0 
1.148690206834e-03 2.390632385250e-03 0.0 
0.0 0.0 -5.080103017801e-04 
-8.695833745558e-04 -3.060324942143e-06 0.0 
-3.060324942143e-06 5.711345853531e-03 0.0 
0.0 0.0 -8.638580894607e-04 
-8.186088136840e-04 -7.130242765284e-06 0.0 
-7.130242765284e-06 5.325410070609e-03 0.0 
0.0 0.0 -8.086477316853e-04 
-7.803358921762e-04 2.952359818963e-05 0.0 
2.952359818963e-05 5.087773032895e-03 0.0 
0.0 0.0 -7.738406155293e-04 
1.178533428129e-03 7.763467478150e-04 0.0 
7.763467478150e-04 2.197582241346e-03 0.0 
0.0 0.0 -6.178822433291e-04 
2.557910139891e-04 2.460443265074e-03 0.0 
2.460443265074e-03 2.586938749534e-03 0.0 
0.0 0.0 -5.288330985435e-04 
-9.276389737476e-06 1.967329055911e-03 0.0 
1.967329055911e-03 2.443056301973e-03 0.0 
0.0 0.0 -4.617239487405e-04 
-8.245081772930e-04 8.576273436567e-07 0.0 
8.576273436567e-07 5.414129368543e-03 0.0 
0.0 0.0 -8.213029907542e-04 
-1.107776256753e-03 4.822798209620e-06 0.0 
4.822798209620e-06 7.407183480602e-03 0.0 
0.0 0.0 -1.107475121065e-03 
-1.139123580733e-03 8.505935532767e-06 0.0 
8.505935532767e-06 7.608538315330e-03 0.0 
0.0 0.0 -1.136341617999e-03 
-1.199876040135e-03 -5.928463898689e-08 0.0 
-5.928463898689e-08 8.046533922637e-03 0.0 
0.0 0.0 -1.199268560344e-03 
-1.168168474149e-03 4.195650786349e-06 0.0 
4.195650786349e-06 7.812169121329e-03 0.0 
0.0 0.0 -1.164598082371e-03 
-1.102136352719e-03 2.455120919180e-06 0.0 
2.455120919180e-06 7.358887921961e-03 0.0 
0.0 0.0 -1.100413285504e-03 
-1.128466826395e-03 -6.206260029616e-06 0.0 
-6.206260029616e-06 7.555420673368e-03 0.0 
0.0 0.0 -1.129075729544e-03 
-1.184273667399e-03 4.877209800235e-05 0.0 
4.877209800235e-05 7.966374737833e-03 0.0 
0.0 0.0 -1.163033425614e-03 
-1.153973130741e-03 1.776726669180e-05 0.0 
1.776726669180e-05 7.744767420222e-03 0.0 
0.0 0.0 -1.134655716502e-03 
-5.493718773645e-04 1.010099446646e-03 0.0 
1.010099446646e-03 7.551025146440e-03 0.0 
0.0 0.0 -1.142030714360e-03 
-6.420016898807e-04 7.916306406537e-04 0.0 
7.916306406537e-04 7.373363550697e-03 0.0 
0.0 0.0 -1.123132102318e-03 
-1.121049228614e-03 8.751379470475e-06 0.0 
8.751379470475e-06 7.490511937288e-03 0.0 
0.0 0.0 -1.111717323854e-03 
-6.894665604979e-04 6.844995904896e-04 0.0 
6.844995904896e-04 7.192199461400e-03 0.0 
0.0 0.0 -1.103639385578e-03 
1.220225552922e-04 1.845943616964e-03 0.0 
1.845943616964e-03 6.727694042964e-03 0.0 
0.0 0.0 -1.098697371494e-03 
-1.085119291287e-03 -1.019265327833e-06 0.0 
-1.019265327833e-06 7.234619214572e-03 0.0 
0.0 0.0 -1.081074490932e-03 
2.561958357457e-05 7.276789655150e-04 0.0 
7.276789655150e-04 7.029408674936e-03 0.0 
0.0 0.0 -9.731888720865e-04 
4.062712149276e-04 8.351162596943e-04 0.0 
8.351162596943e-04 3.229949677840e-03 0.0 
0.0 0.0 -6.621140475474e-04 
-1.785384896329e-04 7.817361308921e-06 0.0 
7.817361308921e-06 9.797346640556e-04 0.0 
0.0 0.0 -1.850918921636e-04 
-1.812548087705e-04 3.762529197936e-05 0.0 
3.762529197936e-05 9.321215546565e-04 0.0 
0.0 0.0 -1.767209935827e-04 
-7.371217791558e-04 3.578785583979e-05 0.0 
3.578785583979e-05 4.907172969297e-03 0.0 
0.0 0.0 -7.509174086159e-04 
5.135533230979e-06 1.861673163763e-03 0.0 
1.861673163763e-03 7.368561329970e-03 0.0 
0.0 0.0 -1.163459529843e-03 
-6.828360588282e-04 8.927408763760e-04 0.0 
8.927408763760e-04 8.095525589931e-03 0.0 
0.0 0.0 -1.203920007895e-03 
3.802824887959e-04 4.239713961229e-04 0.0 
4.239713961229e-04 2.230420053756e-03 0.0 
0.0 0.0 -4.895692906686e-04 
2.092797478237e-04 1.614302307301e-03 0.0 
1.614302307301e-03 7.136899934242e-03 0.0 
0.0 0.0 -1.089235522076e-03 
-8.069978020622e-04 -2.494686579781e-06 0.0 
-2.494686579781e-06 5.276076784830e-03 0.0 
0.0 0.0 -8.012154088905e-04 
3.141527879029e-06 1.001265965467e-04 0.0 
1.001265965467e-04 1.794776022995e-03 0.0 
0.0 0.0 -3.530685601169e-04 
5.733029407883e-05 1.272762997104e-03 0.0 
1.272762997104e-03 7.274123282262e-03 0.0 
0.0 0.0 -1.061919213107e-03 
-1.070880273795e-03 7.212077137725e-06 0.0 
7.212077137725e-06 7.154951258216e-03 0.0 
0.0 0.0 -1.071440646998e-03 
-1.034235002280e-03 -1.284962224460e-06 0.0 
-1.284962224460e-06 6.899499474228e-03 0.0 
0.0 0.0 -1.034857077839e-03 
-1.003722632452e-03 2.735580280870e-06 0.0 
2.735580280870e-06 6.699806917378e-03 0.0 
0.0 0.0 -1.006057961993e-03 
-9.468427756944e-04 4.402435573094e-04 0.0 
4.402435573094e-04 8.413845016821e-03 0.0 
0.0 0.0 -1.255571559682e-03 
-9.260727886855e-04 3.160967958300e-07 0.0 
3.160967958300e-07 6.120955206479e-03 0.0 
0.0 0.0 -9.232948652302e-04 
-1.763617439462e-04 7.977424674965e-04 0.0 
7.977424674965e-04 7.498115169852e-03 0.0 
0.0 0.0 -1.012477689061e-03 
2.326924538233e-03 1.327412634121e-03 0.0 
1.327412634121e-03 2.721104386104e-03 0.0 
0.0 0.0 -8.419015537680e-04 
2.620934532392e-03 1.597221425384e-03 0.0 
1.597221425384e-03 2.270407870026e-03 0.0 
0.0 0.0 -8.419090466861e-04 
2.890923707255e-03 1.636985977777e-03 0.0 
1.636985977777e-03 1.631845537214e-03 0.0 
0.0 0.0 -8.063617503333e-04 
-1.090435695547e-03 -5.471004820643e-06 0.0 
-5.471004820643e-06 7.297274492399e-03 0.0 
0.0 0.0 -1.092245366321e-03 
-3.807024601963e-04 4.500014901440e-04 0.0 
4.500014901440e-04 7.645551835878e-03 0.0 
0.0 0.0 -9.637165450763e-04 
-5.876184266585e-05 5.027218876736e-04 0.0 
5.027218876736e-04 7.028296905130e-03 0.0 
0.0 0.0 -9.391748698924e-04 
-1.159686499132e-04 4.182913986562e-04 0.0 
4.182913986562e-04 7.080375962675e-03 0.0 
0.0 0.0 -9.299574426392e-04 
2.856006690402e-04 5.558666557882e-04 0.0 
5.558666557882e-04 6.351457023583e-03 0.0 
0.0 0.0 -9.135761195657e-04 
-4.771441030013e-04 3.174214140671e-04 0.0 
3.174214140671e-04 7.739181202985e-03 0.0 
0.0 0.0 -9.446074332576e-04 
3.071063620828e-04 2.073649191521e-03 0.0 
2.073649191521e-03 7.078097000724e-03 0.0 
0.0 0.0 -1.135687024714e-03 
2.866568771053e-04 1.934086160845e-03 0.0 
1.934086160845e-03 7.094810155159e-03 0.0 
0.0 0.0 -1.120995734798e-03 
2.080055430685e-03 -3.391126271995e-04 0.0 
-3.391126271995e-04 3.352532320750e-04 0.0 
0.0 0.0 -4.564773689951e-04 
2.343988001471e-03 -1.826577683532e-04 0.0 
-1.826577683532e-04 2.916975943842e-04 0.0 
0.0 0.0 -4.934415926888e-04 
2.390740751620e-03 -3.772302074968e-06 0.0 
-3.772302074968e-06 6.279372713950e-04 0.0 
0.0 0.0 -5.576035839405e-04 
2.518455502623e-03 8.928925774442e-06 0.0 
8.928925774442e-06 3.332388130859e-04 0.0 
0.0 0.0 -5.298816096007e-04 
2.191330257607e-03 -1.686748019557e-04 0.0 
-1.686748019557e-04 2.738582246490e-04 0.0 
0.0 0.0 -4.652367627802e-04 
2.267372877672e-03 4.174709657569e-05 0.0 
4.174709657569e-05 4.157074359064e-04 0.0 
0.0 0.0 -5.016361848483e-04 
2.647063308132e-03 2.231961026477e-04 0.0 
2.231961026477e-04 4.191921786746e-04 0.0 
0.0 0.0 -5.657331850765e-04 
1.610274444445e-03 1.074666394548e-04 0.0 
1.074666394548e-04 9.020876151506e-04 0.0 
0.0 0.0 -4.731795164401e-04 
1.909585495869e-04 1.730688888630e-03 0.0 
1.730688888630e-03 6.243805834809e-03 0.0 
0.0 0.0 -1.055260784998e-03 
-5.729987893209e-04 2.272346724925e-04 0.0 
2.272346724925e-04 7.833880715701e-03 0.0 
0.0 0.0 -9.286632373229e-04 
1.023229466962e-03 1.715959783465e-04 0.0 
1.715959783465e-04 3.971556506176e-03 0.0 
0.0 0.0 -7.801207893866e-04 
1.275859836997e-03 2.267484198922e-04 0.0 
2.267484198922e-04 3.557780752633e-03 0.0 
0.0 0.0 -7.752016128460e-04 
1.482315383577e-03 1.900231131271e-04 0.0 
1.900231131271e-04 2.988053250673e-03 0.0 
0.0 0.0 -7.543784814205e-04 
7.741086345217e-05 -8.562449824996e-05 0.0 
-8.562449824996e-05 3.659027786180e-03 0.0 
0.0 0.0 -6.755334938004e-04 
3.721350702509e-04 -9.079455892195e-05 0.0 
-9.079455892195e-05 3.579757935908e-03 0.0 
0.0 0.0 -7.018799204069e-04 
3.393515525515e-04 -6.507820377773e-05 0.0 
-6.507820377773e-05 3.980615062766e-03 0.0 
0.0 0.0 -7.264840479640e-04 
-2.020091889102e-04 -6.242474661917e-05 0.0 
-6.242474661917e-05 3.717759892222e-03 0.0 
0.0 0.0 -6.407943132712e-04 
2.003677193764e-03 2.426493975170e-03 0.0 
2.426493975170e-03 3.544339647177e-03 0.0 
0.0 0.0 -9.366557260970e-04 
-6.058560897861e-04 1.751718901738e-04 0.0 
1.751718901738e-04 7.860903037758e-03 0.0 
0.0 0.0 -9.206943012965e-04 
1.818345032217e-03 6.389748036147e-04 0.0 
6.389748036147e-04 3.115285770971e-03 0.0 
0.0 0.0 -8.033274984405e-04 
6.475043117999e-04 -1.055566737706e-04 0.0 
-1.055566737706e-04 3.138418603003e-03 0.0 
0.0 0.0 -6.834480656784e-04 
-7.539028914794e-04 -4.959050989122e-06 0.0 
-4.959050989122e-06 4.922681506756e-03 0.0 
0.0 0.0 -7.516786372745e-04 
-8.065421024266e-04 1.420005202741e-05 0.0 
1.420005202741e-05 5.322326400601e-03 0.0 
0.0 0.0 -8.094822736869e-04 
-8.086043951130e-04 -1.965516725366e-05 0.0 
-1.965516725366e-05 5.337498560082e-03 0.0 
0.0 0.0 -8.097394517040e-04 
-8.597670883848e-04 -1.890965562487e-05 0.0 
-1.890965562487e-05 5.752558822544e-03 0.0 
0.0 0.0 -8.733121467894e-04 
-8.092120706639e-04 -2.844643670808e-05 0.0 
-2.844643670808e-05 5.361887279047e-03 0.0 
0.0 0.0 -8.155917408702e-04 
-4.513275868326e-04 -3.311515507035e-05 0.0 
-3.311515507035e-05 4.879853494327e-03 0.0 
0.0 0.0 -7.257189815064e-04 
-6.589860972371e-04 -1.812824678612e-05 0.0 
-1.812824678612e-05 5.236313306618e-03 0.0 
0.0 0.0 -7.322823912160e-04 
-7.816010083573e-04 -2.113130292237e-06 0.0 
-2.113130292237e-06 5.153595916121e-03 0.0 
0.0 0.0 -7.314359286553e-04 
-8.002022179041e-04 -9.639351339698e-06 0.0 
-9.639351339698e-06 5.517873442628e-03 0.0 
0.0 0.0 -7.443131419364e-04 
-8.175012542907e-04 -1.306242025151e-05 0.0 
-1.306242025151e-05 5.338428327185e-03 0.0 
0.0 0.0 -7.510926222530e-04 
-7.535000983078e-04 -1.300396238118e-05 0.0 
-1.300396238118e-05 4.965356878339e-03 0.0 
0.0 0.0 -7.393344998632e-04 
-8.778788579063e-04 -1.150958004365e-05 0.0 
-1.150958004365e-05 5.733493478442e-03 0.0 
0.0 0.0 -7.592740066942e-04 
-8.419049485874e-04 6.249862564246e-06 0.0 
6.249862564246e-06 5.498919710396e-03 0.0 
0.0 0.0 -7.610971948089e-04 
-7.467365547974e-04 -1.323074519904e-05 0.0 
-1.323074519904e-05 4.916042254111e-03 0.0 
0.0 0.0 -7.509531518293e-04 
-6.281984343026e-05 -8.116789961929e-06 0.0 
-8.116789961929e-06 3.039228182762e-04 0.0 
0.0 0.0 -5.875963060191e-05 
-1.355333239518e-04 1.033404853999e-05 0.0 
1.033404853999e-05 6.720001517331e-04 0.0 
0.0 0.0 -1.336704791874e-04 
-1.207432677216e-04 -1.530429850925e-05 0.0 
-1.530429850925e-05 6.527484692059e-04 0.0 
0.0 0.0 -1.318084371690e-04 
-6.909244558509e-05 -9.757609784019e-05 0.0 
-9.757609784019e-05 9.182413796657e-04 0.0 
0.0 0.0 -1.954650243430e-04 
-1.195468098956e-04 -2.357663537834e-05 0.0 
-2.357663537834e-05 9.909023454824e-04 0.0 
0.0 0.0 -1.996745964068e-04 
4.575937123838e-04 -3.605217776505e-04 0.0 
-3.605217776505e-04 7.592446935965e-04 0.0 
0.0 0.0 -2.586654344069e-04 
1.936374576997e-04 -2.241313055504e-04 0.0 
-2.241313055504e-04 9.897576245104e-04 0.0 
0.0 0.0 -2.494736616194e-04 
-1.355920943443e-04 -1.133959606156e-05 0.0 
-1.133959606156e-05 6.743890404386e-04 0.0 
0.0 0.0 -1.329747880817e-04 
-5.916993316135e-05 -2.320129164534e-06 0.0 
-2.320129164534e-06 2.981065881978e-04 0.0 
0.0 0.0 -5.794854899120e-05 
-1.042087198335e-04 -1.991193152054e-05 0.0 
-1.991193152054e-05 6.277356164681e-04 0.0 
0.0 0.0 -1.315689628225e-04 
-5.700489183936e-05 1.676517162921e-06 0.0 
1.676517162921e-06 2.920832994483e-04 0.0 
0.0 0.0 -5.719792189481e-05 
-1.261736063149e-04 -2.356377030799e-07 0.0 
-2.356377030799e-07 6.420374324001e-04 0.0 
0.0 0.0 -1.299421249981e-04 
4.365224977783e-05 -1.549427339651e-04 0.0 
-1.549427339651e-04 8.432120315916e-04 0.0 
0.0 0.0 -2.038865569970e-04 
-5.274888331100e-05 -9.304134472519e-05 0.0 
-9.304134472519e-05 1.483628985857e-03 0.0 
0.0 0.0 -2.925150634556e-04 
-7.749011637785e-04 2.907609412736e-05 0.0 
2.907609412736e-05 7.934586718216e-03 0.0 
0.0 0.0 -8.678995940764e-04 
-6.623633125061e-04 4.679424212470e-06 0.0 
4.679424212470e-06 4.281040174428e-03 0.0 
0.0 0.0 -6.595503360071e-04 
-6.354861751500e-04 1.876466608711e-05 0.0 
1.876466608711e-05 4.076331016795e-03 0.0 
0.0 0.0 -6.264797819744e-04 
-5.600446600074e-04 1.786449294601e-05 0.0 
1.786449294601e-05 3.606391450714e-03 0.0 
0.0 0.0 -5.641716646261e-04 
-5.951988171531e-04 -6.033965651136e-06 0.0 
-6.033965651136e-06 3.859329111364e-03 0.0 
0.0 0.0 -5.974662984275e-04 
-6.971605018600e-04 2.093612217768e-05 0.0 
2.093612217768e-05 4.459125829408e-03 0.0 
0.0 0.0 -6.865721209800e-04 
-5.146568569003e-04 1.429096947679e-05 0.0 
1.429096947679e-05 3.354401065689e-03 0.0 
0.0 0.0 -5.286920563404e-04 
-4.569013160960e-04 2.234387596673e-05 0.0 
2.234387596673e-05 3.172939674065e-03 0.0 
0.0 0.0 -5.038291843518e-04 
1.208038410120e-03 -1.617589326816e-06 0.0 
-1.617589326816e-06 -4.626068899976e-04 0.0 
0.0 0.0 -1.960599024599e-04 
8.666283955384e-04 -3.081997167220e-05 0.0 
-3.081997167220e-05 -3.046912927154e-04 0.0 
0.0 0.0 -1.472494180463e-04 
8.447710199755e-04 -1.055513144638e-05 0.0 
-1.055513144638e-05 -2.562640829303e-04 0.0 
0.0 0.0 -1.723040443484e-04 
6.749137150496e-04 9.170971416128e-06 0.0 
9.170971416128e-06 1.796057865804e-04 0.0 
0.0 0.0 -1.976702944042e-04 
6.569419809446e-04 -1.434779872042e-05 0.0 
-1.434779872042e-05 2.068985062227e-04 0.0 
0.0 0.0 -1.960684762570e-04 
8.050587627972e-04 5.219231263161e-06 0.0 
5.219231263161e-06 -2.534903205795e-04 0.0 
0.0 0.0 -1.368120879926e-04 
6.849098857388e-04 1.560736779189e-05 0.0 
1.560736779189e-05 -1.318762573429e-04 0.0 
0.0 0.0 -1.398968328117e-04 
1.060235513009e-03 2.733781101260e-05 0.0 
2.733781101260e-05 -3.385093769326e-04 0.0 
0.0 0.0 -1.998279647918e-04 
3.449495200564e-04 6.292309640880e-06 0.0 
6.292309640880e-06 2.263717865391e-04 0.0 
0.0 0.0 -1.477262531477e-04 
2.307878582650e-04 6.684707554835e-07 0.0 
6.684707554835e-07 6.404530898719e-04 0.0 
0.0 0.0 -1.994574706984e-04 
7.340670447155e-04 1.645477148607e-05 0.0 
1.645477148607e-05 -1.039846138147e-04 0.0 
0.0 0.0 -1.649180974272e-04 
-1.060096701056e-03 -2.854203109810e-05 0.0 
-2.854203109810e-05 7.080511066382e-03 0.0 
0.0 0.0 -1.060427308513e-03 
-1.101245431622e-03 -2.265554676241e-05 0.0 
-2.265554676241e-05 7.326835296988e-03 0.0 
0.0 0.0 -1.097082233180e-03 
-6.516457875161e-04 1.216832081930e-04 0.0 
1.216832081930e-04 7.883532910098e-03 0.0 
0.0 0.0 -9.057274945415e-04 
-7.525731418622e-04 -2.553654618204e-05 0.0 
-2.553654618204e-05 4.964909214712e-03 0.0 
0.0 0.0 -7.584009903415e-04 
-5.671099606197e-05 2.025225744354e-06 0.0 
2.025225744354e-06 2.971089711715e-04 0.0 
0.0 0.0 -5.884959645353e-05 
-1.291523038748e-03 3.499816719155e-07 0.0 
3.499816719155e-07 8.710976079594e-03 0.0 
0.0 0.0 -1.292107529982e-03 
-1.269093015280e-03 5.485758628626e-06 0.0 
5.485758628626e-06 8.751563222432e-03 0.0 
0.0 0.0 -1.303172775453e-03 
-1.277894770657e-03 1.843670728266e-05 0.0 
1.843670728266e-05 8.764739204273e-03 0.0 
0.0 0.0 -1.304823151597e-03 
-7.949942976751e-04 5.739260185915e-06 0.0 
5.739260185915e-06 7.361647402678e-03 0.0 
0.0 0.0 -8.300907095773e-04 
-7.492621287634e-04 1.377749411533e-06 0.0 
1.377749411533e-06 7.518593988186e-03 0.0 
0.0 0.0 -8.409749341641e-04 
-1.301588133362e-03 5.941663257034e-06 0.0 
5.941663257034e-06 8.722214772172e-03 0.0 
0.0 0.0 -1.294569364341e-03 
1.024179302922e-04 -1.217932456444e-04 0.0 
-1.217932456444e-04 2.277922823105e-03 0.0 
0.0 0.0 -4.512809064328e-04 
-1.153449639741e-03 1.321930747497e-04 0.0 
1.321930747497e-04 8.168814822992e-03 0.0 
0.0 0.0 -1.184917301893e-03 
-1.181600644536e-03 2.602984545223e-06 0.0 
2.602984545223e-06 7.898254142128e-03 0.0 
0.0 0.0 -1.178628832109e-03 
-1.064834223452e-04 1.236284886173e-04 0.0 
1.236284886173e-04 1.748649450551e-03 0.0 
0.0 0.0 -3.268383546744e-04 
8.405758883665e-04 -2.850803912122e-04 0.0 
-2.850803912122e-04 1.459150011640e-03 0.0 
0.0 0.0 -4.373623857420e-04 
-7.132017831614e-04 -9.900655566023e-06 0.0 
-9.900655566023e-06 6.175086177672e-03 0.0 
0.0 0.0 -7.765139385419e-04 
1.539722504004e-04 -1.495449069973e-05 0.0 
-1.495449069973e-05 4.894238339419e-03 0.0 
0.0 0.0 -7.657505972801e-04 
-4.952742951939e-04 -3.691653169960e-06 0.0 
-3.691653169960e-06 6.736806279087e-03 0.0 
0.0 0.0 -8.219935181003e-04 
-3.915247461064e-04 -2.506310029914e-05 0.0 
-2.506310029914e-05 5.543928361271e-03 0.0 
0.0 0.0 -7.636977714002e-04 
-2.622514621531e-04 7.319224875173e-06 0.0 
7.319224875173e-06 6.188887481055e-03 0.0 
0.0 0.0 -8.110323619374e-04 
-1.531291208111e-04 3.787332595602e-04 0.0 
3.787332595602e-04 7.086738389915e-03 0.0 
0.0 0.0 -9.188830862309e-04 
2.285950432401e-04 -6.237619378099e-06 0.0 
-6.237619378099e-06 1.223669763364e-03 0.0 
0.0 0.0 -2.939217362394e-04 
-9.366102056304e-04 6.334636788505e-06 0.0 
6.334636788505e-06 6.210934504197e-03 0.0 
0.0 0.0 -9.364826870394e-04 
-9.120035044512e-04 6.559904903544e-06 0.0 
6.559904903544e-06 6.042070421320e-03 0.0 
0.0 0.0 -9.130351872960e-04 
-1.076387052139e-03 -3.360138210609e-06 0.0 
-3.360138210609e-06 7.184148688862e-03 0.0 
0.0 0.0 -1.075939795031e-03 
-2.748536765381e-04 -3.746948424898e-05 0.0 
-3.746948424898e-05 2.773994890007e-03 0.0 
0.0 0.0 -4.709579147287e-04 
-7.280944327613e-04 -1.420974703971e-05 0.0 
-1.420974703971e-05 4.763685312223e-03 0.0 
0.0 0.0 -7.135185911552e-04 
-1.969832309284e-04 -3.123222605761e-05 0.0 
-3.123222605761e-05 1.731394779028e-03 0.0 
0.0 0.0 -3.104331955072e-04 
4.118733445148e-04 1.589624992777e-03 0.0 
1.589624992777e-03 6.636608628536e-03 0.0 
0.0 0.0 -1.051012445959e-03 
-7.622164195474e-04 2.744443297434e-08 0.0 
2.744443297434e-08 4.979735740211e-03 0.0 
0.0 0.0 -7.590395520047e-04 
1.412465593367e-03 9.269362177176e-05 0.0 
9.269362177176e-05 2.851887029775e-03 0.0 
0.0 0.0 -7.385616324283e-04 
4.574276486844e-05 -9.440810996754e-05 0.0 
-9.440810996754e-05 3.297695647242e-03 0.0 
0.0 0.0 -6.120242822960e-04 
4.040349147980e-04 -1.731674384584e-04 0.0 
-1.731674384584e-04 2.204637533688e-03 0.0 
0.0 0.0 -4.894362539292e-04 
1.078739839098e-03 -3.622772271515e-04 0.0 
-3.622772271515e-04 1.058500434027e-03 0.0 
0.0 0.0 -4.100935076628e-04 
2.780662119102e-04 8.808199672152e-04 0.0 
8.808199672152e-04 3.582636140068e-03 0.0 
0.0 0.0 -6.990242139688e-04 
8.851915178866e-04 -7.037251430505e-05 0.0 
-7.037251430505e-05 3.116052927666e-03 0.0 
0.0 0.0 -7.098033185724e-04 
3.014816724289e-04 1.034236273893e-04 0.0 
1.034236273893e-04 5.374537304311e-03 0.0 
0.0 0.0 -8.109984700854e-04 
-1.114669738223e-03 -2.759101931810e-06 0.0 
-2.759101931810e-06 7.438940293733e-03 0.0 
0.0 0.0 -1.112552678551e-03 
-6.560133969609e-05 1.767862620935e-05 0.0 
1.767862620935e-05 3.436757184416e-04 0.0 
0.0 0.0 -7.559397511979e-05 
2.812855872577e-04 1.502514741948e-04 0.0 
1.502514741948e-04 5.603954073546e-03 0.0 
0.0 0.0 -8.271636369551e-04 
6.556238879597e-04 8.836112447815e-06 0.0 
8.836112447815e-06 4.078224242718e-03 0.0 
0.0 0.0 -7.546219696421e-04 
-9.623974161653e-04 3.311768495871e-06 0.0 
3.311768495871e-06 6.381924133008e-03 0.0 
0.0 0.0 -9.599091010803e-04 
1.244298335913e-03 9.447542077335e-04 0.0 
9.447542077335e-04 4.680197505672e-03 0.0 
0.0 0.0 -8.856371170206e-04 
8.498825275911e-04 -5.212174458988e-04 0.0 
-5.212174458988e-04 5.869848098785e-04 0.0 
0.0 0.0 -2.909097700217e-04 
-1.100348444179e-03 -1.047118262864e-06 0.0 
-1.047118262864e-06 7.347575470432e-03 0.0 
0.0 0.0 -1.098747615487e-03 
-1.217488030174e-03 6.848117353240e-06 0.0 
6.848117353240e-06 8.139341092548e-03 0.0 
0.0 0.0 -1.212453547082e-03 
-8.838417845426e-04 -2.547521654431e-05 0.0 
-2.547521654431e-05 5.856172789859e-03 0.0 
0.0 0.0 -8.875094802107e-04 
-1.950271840244e-04 -1.655121851785e-05 0.0 
-1.655121851785e-05 1.343874912216e-03 0.0 
0.0 0.0 -2.442495876194e-04 
-8.759046619095e-04 5.034941322773e-06 0.0 
5.034941322773e-06 5.740576630140e-03 0.0 
0.0 0.0 -8.692469099983e-04 
-1.510536963778e-04 2.165746959630e-04 0.0 
2.165746959630e-04 6.815520303601e-03 0.0 
0.0 0.0 -8.832451056752e-04 
-1.079080060508e-03 -5.136331410959e-07 0.0 
-5.136331410959e-07 7.205755043523e-03 0.0 
0.0 0.0 -1.078220320736e-03 
-3.021240821909e-04 -2.800652238315e-05 0.0 
-2.800652238315e-05 2.579040238204e-03 0.0 
0.0 0.0 -4.336020471383e-04 
2.393197631332e-03 7.614115801324e-04 0.0 
7.614115801324e-04 2.027006857025e-03 0.0 
0.0 0.0 -7.778814163464e-04 
-2.867611170047e-04 6.482135388659e-04 0.0 
6.482135388659e-04 4.408168638460e-03 0.0 
0.0 0.0 -7.428158978947e-04 
-1.308536343878e-03 4.034412197664e-03 0.0 
4.034412197664e-03 5.101263148273e-03 0.0 
0.0 0.0 -6.865907729104e-04 
-1.214586438871e-03 8.024689911951e-06 0.0 
8.024689911951e-06 8.094834481891e-03 0.0 
0.0 0.0 -1.206557591227e-03 
2.393565832715e-03 1.889637722064e-03 0.0 
1.889637722064e-03 2.172659369405e-03 0.0 
0.0 0.0 -8.172945450070e-04 
7.299517793893e-04 6.491402804175e-04 0.0 
6.491402804175e-04 5.505052987324e-03 0.0 
0.0 0.0 -8.887261968941e-04 
1.797565524909e-03 7.777902699048e-04 0.0 
7.777902699048e-04 3.345667273557e-03 0.0 
0.0 0.0 -8.227763888327e-04 
-3.721650654938e-04 -1.183204646583e-05 0.0 
-1.183204646583e-05 2.824238919672e-03 0.0 
0.0 0.0 -4.629711029823e-04 
-1.139312155316e-04 7.376414807572e-05 0.0 
7.376414807572e-05 6.312007029858e-03 0.0 
0.0 0.0 -8.363105359061e-04 
2.941833551317e-03 1.384585776171e-03 0.0 
1.384585776171e-03 1.369686439254e-03 0.0 
0.0 0.0 -7.741187711892e-04 
-1.165062879850e-03 -3.169874330989e-06 0.0 
-3.169874330989e-06 7.809274989077e-03 0.0 
0.0 0.0 -1.164614768973e-03 
6.677834539181e-04 1.852157827517e-03 0.0 
1.852157827517e-03 5.136895101533e-03 0.0 
0.0 0.0 -9.853088260873e-04 
2.800738585376e-03 7.114967041717e-04 0.0 
7.114967041717e-04 6.930062770707e-04 0.0 
0.0 0.0 -6.375205594687e-04 
-1.120494149395e-03 -5.362450288204e-06 0.0 
-5.362450288204e-06 7.500323563236e-03 0.0 
0.0 0.0 -1.121170216299e-03 
1.728204159895e-03 2.478741928781e-04 0.0 
2.478741928781e-04 2.583913362479e-03 0.0 
0.0 0.0 -7.501503295627e-04 
1.084929451026e-03 1.025484737295e-03 0.0 
1.025484737295e-03 5.054596196933e-03 0.0 
0.0 0.0 -9.074775351781e-04 
-7.228627424501e-04 1.485582411904e-05 0.0 
1.485582411904e-05 4.731503048194e-03 0.0 
0.0 0.0 -7.240542973723e-04 
-7.142283902446e-04 2.328693816986e-04 0.0 
2.328693816986e-04 5.798519230816e-03 0.0 
0.0 0.0 -9.041109700986e-04 
-9.863008524358e-04 -3.464876425115e-06 0.0 
-3.464876425115e-06 6.537147458197e-03 0.0 
0.0 0.0 -9.824247929831e-04 
7.235471877461e-04 1.400487013405e-03 0.0 
1.400487013405e-03 4.102467047540e-03 0.0 
0.0 0.0 -8.608216255090e-04 
-8.952940566986e-04 1.260280595413e-05 0.0 
1.260280595413e-05 6.113766185780e-03 0.0 
0.0 0.0 -7.681070122632e-04 
7.245634254014e-05 1.118595539476e-04 0.0 
1.118595539476e-04 5.970563964050e-03 0.0 
0.0 0.0 -8.317098426430e-04 
3.554520650573e-04 -1.169025747111e-04 0.0 
-1.169025747111e-04 1.161158213844e-03 0.0 
0.0 0.0 -3.071334217218e-04 
1.831652600109e-04 8.558114706750e-04 0.0 
8.558114706750e-04 2.920854419925e-03 0.0 
0.0 0.0 -5.719042557127e-04 
-9.488327861295e-04 -5.202841950026e-06 0.0 
-5.202841950026e-06 6.331676782321e-03 0.0 
0.0 0.0 -9.536514739466e-04 
1.008565757614e-03 1.836180823247e-03 0.0 
1.836180823247e-03 5.444915374803e-03 0.0 
0.0 0.0 -9.998336913167e-04 
-1.224312444037e-03 6.690841738717e-06 0.0 
6.690841738717e-06 8.269264616708e-03 0.0 
0.0 0.0 -1.229329624135e-03 
-2.291928667913e-04 7.274205802035e-04 0.0 
7.274205802035e-04 3.976399675373e-03 0.0 
0.0 0.0 -6.801182747099e-04 
-9.138713655139e-05 4.455259392934e-05 0.0 
4.455259392934e-05 6.074341828307e-03 0.0 
0.0 0.0 -8.207185271606e-04 
-1.187584404498e-03 2.370146928348e-06 0.0 
2.370146928348e-06 7.946791552093e-03 0.0 
0.0 0.0 -1.185355684152e-03 
6.174091573463e-04 -6.956657411993e-05 0.0 
-6.956657411993e-05 3.544044438757e-03 0.0 
0.0 0.0 -7.202000498276e-04 
2.438205062463e-04 7.177069523349e-06 0.0 
7.177069523349e-06 1.425618291176e-03 0.0 
0.0 0.0 -3.333104686742e-04 
-2.211755085484e-04 2.550791162154e-05 0.0 
2.550791162154e-05 1.501359806732e-03 0.0 
0.0 0.0 -2.654833071040e-04 
1.543189433611e-03 3.035482826509e-04 0.0 
3.035482826509e-04 1.185005907076e-03 0.0 
0.0 0.0 -5.092532232582e-04 
2.570887131641e-03 1.702662004365e-03 0.0 
1.702662004365e-03 1.783531382395e-03 0.0 
0.0 0.0 -7.817448632792e-04 
5.281972171141e-04 -3.632237919582e-05 0.0 
-3.632237919582e-05 3.998081501506e-03 0.0 
0.0 0.0 -7.402401839001e-04 
-1.222603402224e-03 5.723256004338e-05 0.0 
5.723256004338e-05 8.323476495453e-03 0.0 
0.0 0.0 -1.215244710704e-03 
-2.512431363440e-04 2.954713294604e-05 0.0 
2.954713294604e-05 6.383736017762e-03 0.0 
0.0 0.0 -8.257855115154e-04 
7.173329463006e-04 3.196118832620e-04 0.0 
3.196118832620e-04 5.060627630516e-03 0.0 
0.0 0.0 -8.353539221891e-04 
-1.738806747303e-04 2.282289794360e-04 0.0 
2.282289794360e-04 7.651397263359e-04 0.0 
0.0 0.0 -1.519369657486e-04 
-7.817355510265e-04 1.600498238341e-03 0.0 
1.600498238341e-03 4.724713803747e-03 0.0 
0.0 0.0 -7.126371066839e-04 
-3.908725961322e-04 1.705839686638e-05 0.0 
1.705839686638e-05 6.678708527569e-03 0.0 
0.0 0.0 -8.308764381029e-04 
2.094530764106e-03 6.199380257797e-04 0.0 
6.199380257797e-04 2.479135837330e-03 0.0 
0.0 0.0 -7.823387995974e-04 
8.349572445930e-04 8.467420149862e-04 0.0 
8.467420149862e-04 5.445974751561e-03 0.0 
0.0 0.0 -9.075862491089e-04 
-7.730645889922e-04 -1.423003609491e-06 0.0 
-1.423003609491e-06 5.106493050145e-03 0.0 
0.0 0.0 -7.528085485903e-04 
3.797983698580e-04 1.445284744596e-03 0.0 
1.445284744596e-03 6.653754893741e-03 0.0 
0.0 0.0 -1.037400491116e-03 
-1.882920404610e-04 2.799065412874e-03 0.0 
2.799065412874e-03 3.314775190379e-03 0.0 
0.0 0.0 -5.757576642514e-04 
-4.928430975322e-04 8.372403664155e-06 0.0 
8.372403664155e-06 6.948170081243e-03 0.0 
0.0 0.0 -8.363494789402e-04 
9.222555385513e-04 5.022595626192e-04 0.0 
5.022595626192e-04 4.903429422243e-03 0.0 
0.0 0.0 -8.495804614244e-04 
3.812108847476e-04 5.562865616496e-04 0.0 
5.562865616496e-04 2.440622082210e-03 0.0 
0.0 0.0 -5.248669331578e-04 
-7.497340550746e-04 3.779029275090e-06 0.0 
3.779029275090e-06 4.910648048132e-03 0.0 
0.0 0.0 -7.498068730476e-04 
-6.363952446221e-04 2.721753017952e-05 0.0 
2.721753017952e-05 7.515374016957e-03 0.0 
0.0 0.0 -8.588258438862e-04 
5.580944294808e-04 4.575602509112e-04 0.0 
4.575602509112e-04 5.634007457159e-03 0.0 
0.0 0.0 -8.724193742841e-04 
1.632288428014e-03 2.156351952456e-03 0.0 
2.156351952456e-03 3.560444049794e-03 0.0 
0.0 0.0 -9.110495639441e-04 
2.052373371288e-03 4.631081378955e-04 0.0 
4.631081378955e-04 2.312627890510e-03 0.0 
0.0 0.0 -7.630956164749e-04 
-8.048230688698e-04 4.440690879532e-03 0.0 
4.440690879532e-03 4.186005006105e-03 0.0 
0.0 0.0 -6.191377506773e-04 
2.593405342363e-04 -3.928545013499e-05 0.0 
-3.928545013499e-05 4.424820564282e-03 0.0 
0.0 0.0 -7.460859009364e-04 
-8.991033243321e-04 5.035239869104e-05 0.0 
5.035239869104e-05 6.194583438999e-03 0.0 
0.0 0.0 -9.391724193388e-04 
-1.077590855621e-03 2.653984618436e-04 0.0 
2.653984618436e-04 8.556861661288e-03 0.0 
0.0 0.0 -1.271515665037e-03 
4.480632578168e-04 5.081962336835e-04 0.0 
5.081962336835e-04 5.925733093451e-03 0.0 
0.0 0.0 -8.910726588662e-04 
-9.680073786691e-04 -7.171826150584e-06 0.0 
-7.171826150584e-06 6.444265355765e-03 0.0 
0.0 0.0 -9.696660045843e-04 
5.825390703094e-05 -5.550005067619e-05 0.0 
-5.550005067619e-05 4.418187098903e-03 0.0 
0.0 0.0 -7.325519173321e-04 
2.091829305016e-03 1.642628352530e-03 0.0 
1.642628352530e-03 3.364102215374e-03 0.0 
0.0 0.0 -8.857415615274e-04 
5.875691072931e-04 -1.239085778049e-05 0.0 
-1.239085778049e-05 2.768842923364e-04 0.0 
0.0 0.0 -1.970089232863e-04 
-4.588779611276e-04 2.866226986877e-03 0.0 
2.866226986877e-03 3.998456808486e-03 0.0 
0.0 0.0 -6.447622526173e-04 
-1.965885329145e-04 -4.394407740246e-05 0.0 
-4.394407740246e-05 4.829641538734e-03 0.0 
0.0 0.0 -7.385393397592e-04 
2.298738246500e-03 2.683784301922e-04 0.0 
2.683784301922e-04 5.982330630267e-04 0.0 
0.0 0.0 -5.374563060555e-04 
1.781045389507e-03 3.692830866586e-04 0.0 
3.692830866586e-04 2.736820433191e-03 0.0 
0.0 0.0 -7.669926853632e-04 
3.097737951893e-04 9.488527750244e-04 0.0 
9.488527750244e-04 6.609623061082e-03 0.0 
0.0 0.0 -9.737013310925e-04 
-4.161701791363e-04 -3.094164059633e-05 0.0 
-3.094164059633e-05 5.206348124582e-03 0.0 
0.0 0.0 -7.446938754133e-04 
2.742518331700e-03 4.599988096806e-04 0.0 
4.599988096806e-04 5.367434573147e-04 0.0 
0.0 0.0 -6.015264011954e-04 
-6.060333583643e-04 -1.791742699406e-05 0.0 
-1.791742699406e-05 5.548943988969e-03 0.0 
0.0 0.0 -7.511282374668e-04 
-5.169848235835e-04 3.360987452096e-03 0.0 
3.360987452096e-03 3.493001097821e-03 0.0 
0.0 0.0 -5.519888345566e-04 
-9.985595773763e-04 -1.015463228061e-05 0.0 
-1.015463228061e-05 6.646851321069e-03 0.0 
0.0 0.0 -9.983267706061e-04 
-7.798748732350e-04 -9.720431546356e-06 0.0 
-9.720431546356e-06 5.854797954995e-03 0.0 
0.0 0.0 -7.584250771689e-04 
-4.784106646854e-04 6.546865195232e-04 0.0 
6.546865195232e-04 6.141755206731e-03 0.0 
0.0 0.0 -9.842326833935e-04 
-1.276533649600e-04 -3.001096154966e-05 0.0 
-3.001096154966e-05 1.044784049399e-03 0.0 
0.0 0.0 -2.040322045631e-04 
2.279099154368e-03 2.378885576172e-03 0.0 
2.378885576172e-03 3.065083242609e-03 0.0 
0.0 0.0 -9.126647154708e-04 
-7.520860996896e-04 2.542910178811e-06 0.0 
2.542910178811e-06 7.131002380556e-03 0.0 
0.0 0.0 -8.215772221530e-04 
1.106385112028e-03 -1.855210591524e-04 0.0 
-1.855210591524e-04 1.958744830022e-03 0.0 
0.0 0.0 -5.654343806685e-04 
1.526571031004e-03 2.935699355323e-04 0.0 
2.935699355323e-04 3.146442540477e-03 0.0 
0.0 0.0 -7.707059807637e-04 
-1.064235786948e-03 -6.087517053106e-06 0.0 
-6.087517053106e-06 7.102031703649e-03 0.0 
0.0 0.0 -1.063653581392e-03 
-4.206026227710e-04 1.899605461055e-03 0.0 
1.899605461055e-03 2.983430615271e-03 0.0 
0.0 0.0 -4.839843007303e-04 
1.290688972055e-03 3.198845380853e-04 0.0 
3.198845380853e-04 3.746221925105e-03 0.0 
0.0 0.0 -7.917338784584e-04 
4.571204270180e-04 1.781763251464e-03 0.0 
1.781763251464e-03 5.551431176854e-03 0.0 
0.0 0.0 -1.008060182141e-03 
2.208216530400e-03 2.109019619822e-03 0.0 
2.109019619822e-03 3.289201361980e-03 0.0 
0.0 0.0 -9.096979424905e-04 
2.795679803808e-03 1.870035012187e-03 0.0 
1.870035012187e-03 1.935154109524e-03 0.0 
0.0 0.0 -8.360629686824e-04 
1.020827302042e-03 3.294814501633e-04 0.0 
3.294814501633e-04 4.385533608954e-03 0.0 
0.0 0.0 -8.133073552756e-04 
-4.649305485349e-05 2.230050725941e-03 0.0 
2.230050725941e-03 2.757873307268e-03 0.0 
0.0 0.0 -5.057041985798e-04 
2.609697860696e-04 -1.651580272844e-04 0.0 
-1.651580272844e-04 1.955747534704e-03 0.0 
0.0 0.0 -4.238464704258e-04 
1.085081686607e-04 -1.444379471268e-04 0.0 
-1.444379471268e-04 1.717437603937e-03 0.0 
0.0 0.0 -3.586180353125e-04 
2.701738747500e-03 3.881968739355e-04 0.0 
3.881968739355e-04 7.447465117571e-04 0.0 
0.0 0.0 -6.294631353604e-04 
2.955203645375e-04 1.740632074019e-03 0.0 
1.740632074019e-03 5.928017721022e-03 0.0 
0.0 0.0 -1.031310272285e-03 
4.766298977627e-04 -7.561033374198e-06 0.0 
-7.561033374198e-06 7.168610782728e-04 0.0 
0.0 0.0 -2.521214004998e-04 
-1.054932560315e-03 -8.075575040895e-06 0.0 
-8.075575040895e-06 7.041307941420e-03 0.0 
0.0 0.0 -1.054898413167e-03 
2.754564810709e-05 -1.422161091626e-04 0.0 
-1.422161091626e-04 1.247878370511e-03 0.0 
0.0 0.0 -2.660187670962e-04 
2.560352161821e-03 1.803417366635e-04 0.0 
1.803417366635e-04 6.721359571598e-04 0.0 
0.0 0.0 -5.935709857392e-04 
1.495058692252e-03 1.583115517358e-03 0.0 
1.583115517358e-03 4.537162375865e-03 0.0 
0.0 0.0 -9.311038434263e-04 
-9.321388457540e-04 -4.809931635802e-05 0.0 
-4.809931635802e-05 6.189086367178e-03 0.0 
0.0 0.0 -9.315431351609e-04 
2.299841706136e-03 1.375128099447e-04 0.0 
1.375128099447e-04 1.097877217938e-03 0.0 
0.0 0.0 -6.211106552582e-04 
-3.711560454685e-05 9.848417122754e-06 0.0 
9.848417122754e-06 2.101857503328e-03 0.0 
0.0 0.0 -3.989951351066e-04 
2.127905295163e-03 -1.530126463846e-05 0.0 
-1.530126463846e-05 1.053672991418e-03 0.0 
0.0 0.0 -5.850331209179e-04 
2.511174073118e-03 1.790363747542e-03 0.0 
1.790363747542e-03 2.580638230098e-03 0.0 
0.0 0.0 -8.639215794179e-04 
1.864580555954e-03 -2.914506487976e-05 0.0 
-2.914506487976e-05 1.481773957731e-03 0.0 
0.0 0.0 -6.124823626799e-04 
1.641401711980e-03 -1.340759037862e-04 0.0 
-1.340759037862e-04 1.487247318314e-03 0.0 
0.0 0.0 -5.760838601101e-04 
-1.248717565768e-03 -5.535813130875e-06 0.0 
-5.535813130875e-06 8.366851373818e-03 0.0 
0.0 0.0 -1.242975171717e-03 
1.394759915698e-03 -1.289253733200e-04 0.0 
-1.289253733200e-04 1.895635334908e-03 0.0 
0.0 0.0 -6.030381679152e-04 
-1.295271260153e-03 -1.307857609192e-05 0.0 
-1.307857609192e-05 8.801391727423e-03 0.0 
0.0 0.0 -1.305370344976e-03 
-7.938548593424e-04 -2.951289338495e-06 0.0 
-2.951289338495e-06 7.990831162512e-03 0.0 
0.0 0.0 -8.621848270259e-04 
-8.024513087945e-04 -3.501513188686e-05 0.0 
-3.501513188686e-05 5.274019348334e-03 0.0 
0.0 0.0 -7.997855503562e-04 
-3.976339109615e-04 1.390639931106e-03 0.0 
1.390639931106e-03 2.550277320585e-03 0.0 
0.0 0.0 -4.121418992062e-04 
-6.508445551723e-05 3.373963354786e-06 0.0 
3.373963354786e-06 3.129607731290e-04 0.0 
0.0 0.0 -6.767973558354e-05 
9.437375867582e-05 1.869966027762e-03 0.0 
1.869966027762e-03 2.198672835199e-03 0.0 
0.0 0.0 -4.369243393394e-04 
9.996658880814e-04 -2.403795300376e-04 0.0 
-2.403795300376e-04 1.683145013802e-03 0.0 
0.0 0.0 -5.013603847490e-04 
-1.049593438910e-03 4.881772467907e-07 0.0 
4.881772467907e-07 6.980157933883e-03 0.0 
0.0 0.0 -1.045752072333e-03 
-8.016418655660e-04 8.516902983695e-06 0.0 
8.516902983695e-06 5.282246051091e-03 0.0 
0.0 0.0 -8.029817139903e-04 
6.125738793327e-04 -2.194143454752e-04 0.0 
-2.194143454752e-04 1.842628080058e-03 0.0 
0.0 0.0 -4.630712860745e-04 
1.776431997247e-04 1.978058413713e-03 0.0 
1.978058413713e-03 6.913510341906e-03 0.0 
0.0 0.0 -1.123537390403e-03 
-6.582339519468e-05 1.010191966915e-03 0.0 
1.010191966915e-03 7.387503370029e-03 0.0 
0.0 0.0 -1.037194361224e-03 
-1.028575866269e-03 -1.191239422521e-05 0.0 
-1.191239422521e-05 6.846657277970e-03 0.0 
0.0 0.0 -1.028769680629e-03 
5.778179544906e-04 7.058946937390e-04 0.0 
7.058946937390e-04 5.831854875765e-03 0.0 
0.0 0.0 -9.081660821618e-04 
1.940048968464e-03 1.775906598156e-03 0.0 
1.775906598156e-03 3.724024147085e-03 0.0 
0.0 0.0 -9.085633979321e-04 
-1.192917845756e-03 -1.946426676376e-05 0.0 
-1.946426676376e-05 7.943592006894e-03 0.0 
0.0 0.0 -1.185717314024e-03 
-7.402744024553e-04 -5.561571203005e-05 0.0 
-5.561571203005e-05 4.875197844443e-03 0.0 
0.0 0.0 -7.451086181774e-04 
-1.274079564101e-04 8.533594738944e-07 0.0 
8.533594738944e-07 6.386951496409e-04 0.0 
0.0 0.0 -1.305770345747e-04 
-9.643843080034e-04 8.772155258396e-06 0.0 
8.772155258396e-06 6.343819513245e-03 0.0 
0.0 0.0 -7.790228109848e-04 
-3.778856669372e-04 1.417349015064e-03 0.0 
1.417349015064e-03 2.111636839298e-03 0.0 
0.0 0.0 -3.437331075899e-04 
-1.192108610308e-04 7.500969061551e-04 0.0 
7.500969061551e-04 1.907501697084e-03 0.0 
0.0 0.0 -3.524505972177e-04 
-2.596833756737e-04 6.387746726817e-05 0.0 
6.387746726817e-05 1.633635741562e-03 0.0 
0.0 0.0 -2.832406441101e-04 
-4.204546392277e-04 -7.978206432223e-07 0.0 
-7.978206432223e-07 3.009967840679e-03 0.0 
0.0 0.0 -4.856826860430e-04 
5.808183419299e-06 -1.356389766394e-04 0.0 
-1.356389766394e-04 8.341103512018e-04 0.0 
0.0 0.0 -1.942844358666e-04 
-3.087369873105e-04 1.010121648092e-03 0.0 
1.010121648092e-03 1.723965327372e-03 0.0 
0.0 0.0 -2.888902821290e-04 
2.312437745051e-05 5.815518557638e-04 0.0 
5.815518557638e-04 6.915172453817e-03 0.0 
0.0 0.0 -9.473547002275e-04 
-7.926742292647e-04 -4.732996368775e-05 0.0 
-4.732996368775e-05 5.282443543312e-03 0.0 
0.0 0.0 -8.050116406322e-04 
1.287101408467e-03 1.608382669430e-03 0.0 
1.608382669430e-03 4.935096859790e-03 0.0 
0.0 0.0 -9.530741309050e-04 
-2.660822431274e-04 6.713418382008e-04 0.0 
6.713418382008e-04 1.270269914761e-03 0.0 
0.0 0.0 -2.210826640180e-04 
-1.251801969841e-03 -1.462670654939e-05 0.0 
-1.462670654939e-05 8.397461752409e-03 0.0 
0.0 0.0 -1.247366155457e-03 
2.685397134960e-04 1.084775351275e-03 0.0 
1.084775351275e-03 6.727513960955e-03 0.0 
0.0 0.0 -9.984857955549e-04 
-7.145794756782e-04 6.013690186175e-05 0.0 
6.013690186175e-05 7.957738598334e-03 0.0 
0.0 0.0 -8.949167741569e-04 
8.027370583758e-04 1.356872282656e-03 0.0 
1.356872282656e-03 5.782182039000e-03 0.0 
0.0 0.0 -9.747541592221e-04 
-2.180388128944e-04 -2.924544915678e-06 0.0 
-2.924544915678e-06 1.180274271759e-03 0.0 
0.0 0.0 -2.130604828246e-04 
-8.442593127821e-04 -4.359073983630e-05 0.0 
-4.359073983630e-05 5.668047935442e-03 0.0 
0.0 0.0 -8.603500797662e-04 
4.783434098096e-04 1.762438490689e-03 0.0 
1.762438490689e-03 6.568761922285e-03 0.0 
0.0 0.0 -1.064549562327e-03 
-1.072962494745e-03 -3.075351322496e-06 0.0 
-3.075351322496e-06 7.220489030587e-03 0.0 
0.0 0.0 -1.080253149739e-03 
-7.532826735717e-04 1.057541613777e-04 0.0 
1.057541613777e-04 8.014916049081e-03 0.0 
0.0 0.0 -8.866089529969e-04 
-7.806106637019e-04 -1.684448248675e-06 0.0 
-1.684448248675e-06 5.212548371629e-03 0.0 
0.0 0.0 -7.979019438933e-04 
-1.254167562389e-03 1.146355027257e-05 0.0 
1.146355027257e-05 8.413941643761e-03 0.0 
0.0 0.0 -1.252774941638e-03 
2.904758611905e-04 -2.053228417663e-04 0.0 
-2.053228417663e-04 1.010804083420e-03 0.0 
0.0 0.0 -2.737139294578e-04 
-1.253589576776e-03 1.816421682347e-05 0.0 
1.816421682347e-05 8.411285343410e-03 0.0 
0.0 0.0 -1.254166199180e-03 
-6.951352290261e-04 6.080931396375e-04 0.0 
6.080931396375e-04 6.989459401971e-03 0.0 
0.0 0.0 -1.075507475481e-03 
-8.788088159188e-04 2.953384655569e-05 0.0 
2.953384655569e-05 5.848517526204e-03 0.0 
0.0 0.0 -8.840149073763e-04 
-8.453655219936e-04 1.276109640112e-05 0.0 
1.276109640112e-05 5.644378390582e-03 0.0 
0.0 0.0 -8.570326279659e-04 
-7.451869537129e-04 1.000080109395e-05 0.0 
1.000080109395e-05 7.678180275603e-03 0.0 
0.0 0.0 -8.532140161314e-04 
-8.088524822687e-04 6.535175422129e-04 0.0 
6.535175422129e-04 7.895790398450e-03 0.0 
0.0 0.0 -1.159345130669e-03 
-1.752421740852e-04 1.599785091568e-05 0.0 
1.599785091568e-05 9.248205746742e-04 0.0 
0.0 0.0 -1.769373265848e-04 
-1.014009013286e-03 3.718452203742e-05 0.0 
3.718452203742e-05 6.827048883928e-03 0.0 
0.0 0.0 -1.024357608964e-03 
-5.737222600858e-04 -2.305128293967e-05 0.0 
-2.305128293967e-05 3.840177621931e-03 0.0 
0.0 0.0 -5.984289768806e-04 
-1.136473903534e-04 -2.305801768327e-05 0.0 
-2.305801768327e-05 5.992740239482e-04 0.0 
0.0 0.0 -1.205697443558e-04 
-4.595509545798e-04 1.625337991437e-04 0.0 
1.625337991437e-04 7.388668762369e-03 0.0 
0.0 0.0 -8.871433832962e-04 
1.279211105378e-04 1.763510434247e-03 0.0 
1.763510434247e-03 6.490066406676e-03 0.0 
0.0 0.0 -1.078059103639e-03 
-6.849607208198e-04 4.788955383238e-05 0.0 
4.788955383238e-05 7.587742123772e-03 0.0 
0.0 0.0 -8.583111795535e-04 
7.234489192838e-04 1.395243974313e-05 0.0 
1.395243974313e-05 1.196765450603e-04 0.0 
0.0 0.0 -1.953152674555e-04 
-1.282550990439e-04 1.596967550411e-05 0.0 
1.596967550411e-05 5.957593377885e-04 0.0 
0.0 0.0 -1.273034037094e-04 
-4.032049630274e-04 2.019953842256e-04 0.0 
2.019953842256e-04 7.412858359788e-03 0.0 
0.0 0.0 -9.020856772000e-04 
4.987052270326e-04 2.112455974614e-03 0.0 
2.112455974614e-03 6.609281080591e-03 0.0 
0.0 0.0 -1.097866472357e-03 
7.717465487987e-04 -3.730540980612e-04 0.0 
-3.730540980612e-04 7.491383113730e-04 0.0 
0.0 0.0 -3.034980657766e-04 
-1.228808189835e-03 6.368585724964e-05 0.0 
6.368585724964e-05 8.782737159071e-03 0.0 
0.0 0.0 -1.305554708967e-03 
-1.230668747668e-04 -1.081893831764e-05 0.0 
-1.081893831764e-05 5.709731362741e-04 0.0 
0.0 0.0 -1.229206800733e-04 
-7.274132408296e-04 6.183789390248e-06 0.0 
6.183789390248e-06 4.811004360547e-03 0.0 
0.0 0.0 -7.389643750272e-04 
-6.197286322202e-05 -2.309394616315e-05 0.0 
-2.309394616315e-05 5.632357888540e-04 0.0 
0.0 0.0 -1.247417965529e-04 
-7.788121464532e-04 -2.041417714536e-05 0.0 
-2.041417714536e-05 8.023564226633e-03 0.0 
0.0 0.0 -8.794042087484e-04 
-1.262934174837e-03 2.444499081752e-05 0.0 
2.444499081752e-05 8.445031740868e-03 0.0 
0.0 0.0 -1.254845750201e-03 
-6.580718270353e-04 3.721306501344e-05 0.0 
3.721306501344e-05 4.264446760778e-03 0.0 
0.0 0.0 -6.564513288157e-04 
-9.924892344691e-04 3.095531389040e-04 0.0 
3.095531389040e-04 5.188168917317e-03 0.0 
0.0 0.0 -7.541421605440e-04 
-2.611484655361e-04 1.585871935785e-05 0.0 
1.585871935785e-05 2.607491550819e-03 0.0 
0.0 0.0 -4.426424662127e-04 
6.708746404259e-04 1.639319923527e-03 0.0 
1.639319923527e-03 6.095083944509e-03 0.0 
0.0 0.0 -1.015949021130e-03 
-1.515503041456e-04 -1.325487145152e-06 0.0 
-1.325487145152e-06 9.262405529100e-04 0.0 
0.0 0.0 -1.843356288727e-04 
-1.269994123481e-03 -1.450914975509e-05 0.0 
-1.450914975509e-05 8.504040731719e-03 0.0 
0.0 0.0 -1.260296891839e-03 
-3.095651802920e-04 2.786964577576e-04 0.0 
2.786964577576e-04 7.344098326766e-03 0.0 
0.0 0.0 -9.176000637094e-04 
-1.240128903466e-03 5.349164897741e-05 0.0 
5.349164897741e-05 8.460492063241e-03 0.0 
0.0 0.0 -1.242160922552e-03 
-3.584994856730e-04 5.798116308739e-04 0.0 
5.798116308739e-04 7.738743973565e-03 0.0 
0.0 0.0 -9.923929797198e-04 
-1.063917710965e-04 3.406664009707e-05 0.0 
3.406664009707e-05 5.707022560972e-04 0.0 
0.0 0.0 -1.219614697575e-04 
1.982997523943e-04 1.127061682879e-03 0.0 
1.127061682879e-03 6.902183498514e-03 0.0 
0.0 0.0 -1.016139663095e-03 
1.347395466424e-04 4.839388322044e-04 0.0 
4.839388322044e-04 6.562038315398e-03 0.0 
0.0 0.0 -9.100104574256e-04 
-7.453046702514e-04 4.651614229788e-05 0.0 
4.651614229788e-05 4.880400084605e-03 0.0 
0.0 0.0 -7.439744481034e-04 
-1.126121937586e-03 2.409242080200e-04 0.0 
2.409242080200e-04 8.264581384935e-03 0.0 
0.0 0.0 -1.207892074269e-03 
-5.200900849416e-04 2.619451703221e-05 0.0 
2.619451703221e-05 3.433710139138e-03 0.0 
0.0 0.0 -5.383891422301e-04 
-1.217781609428e-04 -5.618893419925e-05 0.0 
-5.618893419925e-05 1.302853067010e-03 0.0 
0.0 0.0 -2.492021827984e-04 
-1.298998890690e-03 -2.770464845181e-05 0.0 
-2.770464845181e-05 8.833071909488e-03 0.0 
0.0 0.0 -1.313490227100e-03 
1.202280915430e-03 -2.166292665809e-05 0.0 
-2.166292665809e-05 -3.534685983282e-04 0.0 
0.0 0.0 -2.437325463680e-04 
-7.470694764219e-04 -2.192265105751e-05 0.0 
-2.192265105751e-05 4.855390412225e-03 0.0 
0.0 0.0 -7.402411036050e-04 
-8.082842337309e-04 4.069337651670e-05 0.0 
4.069337651670e-05 8.069043680128e-03 0.0 
0.0 0.0 -8.657213768753e-04 
4.665878884058e-04 -1.368361888485e-05 0.0 
-1.368361888485e-05 6.474852691215e-04 0.0 
0.0 0.0 -2.401910970206e-04 
-8.452827785452e-04 -2.606429286923e-05 0.0 
-2.606429286923e-05 5.603903241888e-03 0.0 
0.0 0.0 -8.489638187885e-04 
4.454486608488e-04 2.167494721057e-03 0.0 
2.167494721057e-03 6.691917431706e-03 0.0 
0.0 0.0 -1.113462711037e-03 
-8.026015217352e-04 9.260838906241e-06 0.0 
9.260838906241e-06 5.219471092273e-03 0.0 
0.0 0.0 -7.570317876335e-04 
-1.151240916671e-03 -6.084869299023e-05 0.0 
-6.084869299023e-05 7.669030971500e-03 0.0 
0.0 0.0 -1.148445367820e-03 
3.277535057950e-04 -3.355149222918e-04 0.0 
-3.355149222918e-04 7.634744819484e-04 0.0 
0.0 0.0 -2.379222736555e-04 
-4.415836387613e-05 -2.388769717852e-06 0.0 
-2.388769717852e-06 2.377389287155e-04 0.0 
0.0 0.0 -4.855001867800e-05 
-9.645913781641e-04 -4.083102734348e-05 0.0 
-4.083102734348e-05 6.424950689754e-03 0.0 
0.0 0.0 -9.668795991591e-04 
1.477553955576e-04 9.717994588815e-04 0.0 
9.717994588815e-04 6.899202642617e-03 0.0 
0.0 0.0 -9.910994971489e-04 
-1.271523811928e-03 -1.625227781233e-05 0.0 
-1.625227781233e-05 8.532130632261e-03 0.0 
0.0 0.0 -1.263437138083e-03 
-9.164544161815e-04 3.965640940801e-05 0.0 
3.965640940801e-05 6.111358236627e-03 0.0 
0.0 0.0 -9.199601189493e-04 
-2.093975888614e-04 -4.665649638259e-05 0.0 
-4.665649638259e-05 1.197818786362e-03 0.0 
0.0 0.0 -2.164625706183e-04 
5.322252017935e-04 2.253746948362e-03 0.0 
2.253746948362e-03 6.383552956792e-03 0.0 
0.0 0.0 -1.093454266572e-03 
-6.921621610821e-04 -2.719005194231e-06 0.0 
-2.719005194231e-06 4.614590635001e-03 0.0 
0.0 0.0 -7.060606045914e-04 
6.758299426844e-04 1.852330653540e-03 0.0 
1.852330653540e-03 6.150654512308e-03 0.0 
0.0 0.0 -1.043834837956e-03 
2.452080022215e-04 6.126043085823e-04 0.0 
6.126043085823e-04 6.468389469565e-03 0.0 
0.0 0.0 -9.272431557266e-04 
-5.670525863277e-05 -1.771698635756e-05 0.0 
-1.771698635756e-05 2.585053466943e-04 0.0 
0.0 0.0 -6.449378323916e-05 
-8.615819454746e-04 1.843579742726e-05 0.0 
1.843579742726e-05 5.574137538706e-03 0.0 
0.0 0.0 -7.647052361968e-04 
-1.225143862683e-04 -2.984290666861e-05 0.0 
-2.984290666861e-05 5.860977302170e-04 0.0 
0.0 0.0 -1.223049983750e-04 
-6.020671871562e-04 4.824522670979e-05 0.0 
4.824522670979e-05 7.602778841964e-03 0.0 
0.0 0.0 -8.781733022393e-04 
-7.340837363581e-04 -1.347974486982e-05 0.0 
-1.347974486982e-05 4.816333449249e-03 0.0 
0.0 0.0 -7.288574961023e-04 

SCALARS node_materi_plasti_kappa_shear float
LOOKUP_TABLE default
1.138772531229e-03
3.167350994499e-03
6.636474599695e-03
5.923852315190e-03
1.228153618542e-03
1.594549923644e-03
1.729877966727e-03
1.921378993500e-03
2.030427112797e-03
2.068013880518e-03
2.164556005632e-03
2.401455262769e-03
2.703248692656e-03
3.016765538726e-03
3.379828902113e-03
3.730905380058e-03
4.024311250693e-03
4.407110911233e-03
4.789147057019e-03
5.198472067644e-03
5.662435403300e-03
6.121090700257e-03
6.496183568860e-03
5.932061195851e-03
5.925336573631e-03
5.926503438854e-03
5.940978141079e-03
5.951458799191e-03
5.983945316071e-03
6.032712216229e-03
6.100038435019e-03
6.192721005687e-03
6.325177720269e-03
6.440195853225e-03
6.731800133225e-03
7.044538168668e-03
7.454367855528e-03
7.769314425123e-03
8.153792868901e-03
8.431096415756e-03
8.482229548569e-03
8.502914174345e-03
8.347517263559e-03
8.183317303289e-03
8.016289438689e-03
7.855419189614e-03
7.694823252980e-03
7.558638394099e-03
7.444633960705e-03
7.327705725496e-03
7.214966089468e-03
7.138885413285e-03
7.045795099733e-03
6.966974753256e-03
6.905852893008e-03
6.827437282874e-03
6.795079277929e-03
6.759000714169e-03
6.728593226355e-03
6.700509337790e-03
6.687079293045e-03
6.655952497065e-03
6.659068194305e-03
6.649255337945e-03
6.643262181115e-03
6.643066092107e-03
6.644774472114e-03
6.629313589220e-03
6.643741045147e-03
6.632882162739e-03
6.652069567115e-03
6.660027049792e-03
3.313640150810e-03
3.643609585951e-03
3.947542440608e-03
4.242858391353e-03
4.550358348147e-03
4.852089997296e-03
5.156894848885e-03
5.448757344777e-03
5.772918013305e-03
9.252120421735e-05
4.936877429812e-03
6.939620264370e-04
1.972794945357e-03
2.671574850997e-03
2.919489475232e-03
2.690328806183e-03
3.341511110377e-03
5.088210441392e-03
7.100797205701e-03
8.593918584161e-03
3.152046145680e-03
3.153038404569e-03
3.155025213965e-03
3.144475046257e-03
3.199485690567e-03
3.155029575277e-03
3.144205499861e-03
3.156818110250e-03
3.174756768148e-03
3.174273239546e-03
3.164951418416e-03
3.164603919994e-03
3.157869572751e-03
3.672791086815e-03
9.621576344538e-05
1.072789967255e-04
1.062126602259e-04
1.062405987733e-04
1.161697218308e-04
1.255618245920e-04
1.234927640208e-04
1.176143698925e-04
1.181040846592e-04
1.155364499888e-04
1.206715439587e-04
1.365993450730e-04
3.120086466936e-04
7.948631522030e-04
1.215944277579e-03
1.150091467726e-03
1.179967758865e-03
1.314711337940e-03
1.270517578884e-03
3.078829324331e-04
1.391146577725e-03
2.376007623352e-03
2.760433418372e-03
3.014661613699e-03
3.094775822703e-03
4.110043717551e-03
6.112739227735e-03
7.943311223821e-03
8.193456514596e-03
1.199100989102e-03
6.912357142140e-03
2.047918518275e-04
1.970502068753e-04
6.699396547655e-03
2.459925799953e-03
3.197139532871e-03
7.256360859375e-03
3.461804098246e-03
7.650962050164e-03
6.591883033090e-03
6.605743310813e-03
3.586515394073e-04
8.251972688430e-03
5.293728121725e-03
2.095498998632e-03
4.166715870165e-03
8.380762409661e-03
6.668863730685e-03
5.837436159114e-03
5.843223865743e-03
6.050645604020e-03
3.398618891888e-03
3.278932509466e-03
3.299538154266e-03
4.392988308338e-03
6.569015551667e-03
1.875803799629e-04
1.165088145909e-03
5.440319547543e-03
3.266764248665e-03
1.817583900559e-03
7.267925084095e-03
7.414882913525e-03
7.928830271943e-03
7.104731281927e-03
6.816340568578e-03
2.124904197991e-04
3.271394634805e-03
6.628762177836e-03
5.005410343617e-03
2.049450714895e-04
2.556345996281e-03
5.880187513365e-03
2.998713001318e-03
1.863869151528e-03
4.837978010315e-03
7.411987585999e-03
4.150816332461e-04
3.812034731290e-03
6.611322316403e-03
1.304613123487e-03
5.582228690945e-03
3.742266982376e-03
3.405879163641e-03
3.554924991576e-03
3.706761369563e-03
3.858428676321e-03
3.994172834541e-03
3.835090176788e-03
4.124628089981e-03
3.963011153955e-03
4.154617485841e-03
4.253890367715e-03
4.090560016023e-03
4.382096032079e-03
4.218726563058e-03
3.929419603329e-03
4.056695462337e-03
3.767499058174e-03
3.894823734663e-03
4.184913419616e-03
4.022005877425e-03
3.732190171091e-03
3.898478213852e-03
3.599090467679e-03
3.993390892391e-03
3.733802317317e-03
4.262573167742e-03
4.522367883374e-03
4.734688478069e-03
4.421119854653e-03
4.843053664619e-03
4.434183656044e-03
4.865555492984e-03
5.985344979389e-03
6.005416195208e-03
4.841591118654e-03
5.990555315288e-03
4.795426295211e-03
5.946748328252e-03
4.727520270648e-03
5.861537335338e-03
7.020709252734e-03
6.810769586894e-03
5.731154218435e-03
6.556897105709e-03
7.074015933786e-03
6.758543482911e-03
6.945447777124e-03
6.633705295183e-03
6.425836373499e-03
6.306282716371e-03
6.469539311546e-03
6.157148298042e-03
5.964923975821e-03
5.832938710866e-03
6.032726159742e-03
5.722912135205e-03
5.492104892413e-03
5.395444823663e-03
5.637543973773e-03
5.313561900100e-03
5.028305994116e-03
4.945523943935e-03
5.238042869981e-03
4.861465391305e-03
5.154423853737e-03
4.514208214041e-03
4.423188704882e-03
4.014482539755e-03
3.920160903054e-03
7.416218577430e-03
3.469442391171e-03
3.556229773505e-03
3.390565123798e-03
3.816919440710e-03
2.938232066671e-03
2.894412792453e-03
2.477391980414e-03
4.079072857535e-03
4.322740656127e-03
2.490126394070e-03
2.126174937002e-03
2.052463322669e-03
1.745471734961e-03
4.024498791055e-03
4.321449536869e-03
4.179690524696e-03
4.487558501959e-03
4.351378253478e-03
1.863695485148e-03
4.547507496043e-03
4.620310667297e-03
3.444574795783e-03
4.145368854845e-03
7.234203375472e-03
2.843733142403e-03
2.501130774228e-03
2.811981620302e-03
5.485944316930e-03
5.401183115217e-03
5.693452449385e-03
5.610091497292e-03
5.868606970473e-03
5.794376443375e-03
5.531472915371e-03
5.737524535438e-03
5.469117003205e-03
6.022856896943e-03
6.099089086300e-03
5.703807420204e-03
5.431986900073e-03
5.696007620711e-03
5.422002318124e-03
5.114835380837e-03
5.102515225925e-03
4.746340511671e-03
7.043397622355e-03
7.292444198789e-03
7.113067074484e-03
7.321379555667e-03
7.149680112954e-03
7.314253037870e-03
7.162739336509e-03
7.002144219383e-03
4.509920023172e-03
5.563923558043e-03
4.518811018862e-03
4.389397246603e-03
3.551080633498e-03
3.378009492661e-03
2.796592787272e-03
2.554493881813e-03
3.218345575437e-03
2.336176509865e-03
3.060112355439e-03
2.132332972524e-03
2.885486401405e-03
5.743939861395e-03
7.493916106625e-03
7.445691831130e-03
7.635632483275e-03
1.628734237091e-03
5.432342682589e-03
6.226635197944e-03
6.305547854018e-03
7.031399940291e-03
1.527875449958e-03
2.139183944412e-03
2.458091549401e-03
4.652375729059e-03
4.515073750359e-03
6.408332876797e-03
1.663825444627e-03
5.937035590683e-03
1.559514436142e-03
5.108302337192e-03
5.465101699753e-03
5.226097228968e-03
7.555364143430e-03
7.750498227474e-03
3.906624407664e-03
3.684580224921e-03
2.671001845711e-03
3.395774091189e-03
4.306922421409e-03
3.854446442199e-03
3.007988705086e-03
3.297702281070e-03
3.947892730966e-03
3.330228335557e-03
2.628957066285e-03
2.654037741165e-03
5.745373296584e-03
1.310964238893e-03
3.641366942474e-03
6.346063073884e-03
7.152741396490e-03
4.817221487039e-03
4.680859314151e-03
4.376749942028e-03
4.546436710308e-03
4.850021688501e-03
4.714841530376e-03
4.411085338888e-03
4.576823668989e-03
4.271643822444e-03
4.438121527056e-03
4.742306724662e-03
4.605607762388e-03
4.302170490177e-03
4.468415119196e-03
4.164526586705e-03
4.326213013675e-03
4.634793358128e-03
1.361543597734e-03
6.873410739754e-03
6.904721900232e-03
2.554967022474e-03
2.794876847193e-03
3.135672796504e-03
3.104526340068e-03
4.493803980505e-03
4.803851567309e-03
2.012448573830e-03
2.449770781575e-03
4.952759396910e-03
5.142342599185e-03
4.727763334010e-03
4.096628270967e-03
3.856487832349e-03
3.767983282461e-03
3.920977089348e-03
3.891319061367e-03
3.812566719708e-03
6.184956597079e-03
4.909939925648e-03
1.996197050886e-03
1.513099312443e-03
5.536582825599e-03
6.811449547677e-03
5.522866287171e-03
7.336156309870e-03
7.202107085846e-03
8.204848655961e-03
8.152754919814e-03
8.195408659674e-03
8.222929393151e-03
7.650062153357e-03
8.024971026299e-03
4.174662190372e-03
7.683138297178e-03
3.873728934005e-03
1.200724155988e-03
1.981142189542e-03
1.570911342129e-03
1.789698334176e-03
6.503286759586e-03
8.173055421364e-03
8.140506470602e-03
4.559845506049e-03
4.219930331520e-03
7.452904239014e-03
4.046495241743e-03
4.106805891897e-03
3.964719198022e-03
1.401183530662e-03
1.790343923937e-03
5.018736248123e-03
2.780471874780e-03
2.873619485982e-03
1.018137010329e-03
8.270248169060e-04
4.649062039121e-03
4.959360782526e-03
3.484887770650e-03
3.469006644062e-03
6.565993028342e-03
2.018186106536e-03
5.108760944893e-03
6.693836628120e-03
6.598223868026e-03
2.863581200615e-03
1.981045545708e-03
1.453627703898e-03
4.433457215533e-03
2.606266806354e-03
1.776948219324e-03
6.636349950623e-03
5.150166074507e-03
8.032445566585e-03
8.229352846951e-03
7.858604590198e-03
1.290327207182e-03
6.472639612098e-03
5.212305006492e-03
8.185418808566e-03
8.171838089291e-03
3.082442786170e-03
3.262004139335e-03
3.162002037025e-03
3.733983556943e-03
3.675799238899e-03
3.358166376644e-03
3.479503618634e-03
3.353779208918e-03
3.249413131248e-03
3.517496973977e-03
3.690603151407e-03
3.731921634458e-03
7.491658797271e-03
3.589088123700e-03
4.791962871357e-03
5.775197232114e-03
5.044158210038e-03
5.215830386065e-03
3.998289725651e-03
3.853491964182e-03
1.212702096815e-03
1.073456440914e-03
5.063548321172e-03
6.310633362742e-03
5.115127262102e-03
5.250667570774e-03
5.084339547061e-03
6.696596573281e-03
5.369544121815e-03
6.872628221993e-03
1.080700443155e-03
7.461718441294e-03
8.397673717164e-04
4.475699055473e-03
5.599911535843e-03
5.880083635367e-03
7.521531320769e-03
3.895598310654e-03
8.150847533181e-03
7.996662923011e-03
3.820223315417e-03
4.091329121837e-03
3.285496663346e-03
4.353449989944e-03
4.319374603172e-03
3.761062819200e-03
8.017843191454e-03
7.887446428612e-03
8.263982017873e-03
8.232899095355e-03
7.352315886935e-03
7.307438953429e-03
1.939468350796e-03
4.630365833814e-03
5.314454420742e-03
3.492329135148e-03
6.442923813552e-03
6.297696867880e-03
6.540445478407e-04
8.477330281565e-04
5.277227190096e-03
2.872592449528e-03
3.550110678739e-03
2.190559289930e-03
6.296793159186e-03
3.257775872683e-03
5.947054699638e-03
3.145289499281e-03
5.420258365801e-03
8.056742681902e-03
3.966966451039e-03
6.653096868762e-03
5.111095174845e-03
5.457139877325e-03
3.797889722828e-03
3.646479732755e-03
3.931549897695e-03
1.237374834619e-03
8.448239735481e-04
5.077361997568e-03
2.249879073041e-03
2.355624844680e-03
1.994572056446e-03
2.533850156032e-03
3.970789486361e-03
4.091527067078e-03
5.363892260737e-03
5.492050710352e-03
5.336259799357e-03
6.490590883224e-03
6.366235430253e-03
6.474796372327e-03
5.341787835815e-03
5.553309217008e-03
4.810683146204e-03
4.923898359849e-03
4.209680899396e-03
5.450349556697e-03
6.202802371180e-03
6.128728412400e-03
7.217816350416e-04
9.604556657677e-04
1.230239378618e-03
9.414255938504e-04
5.373764850267e-03
5.221517258001e-03
5.572702457976e-03
1.948803365361e-03
8.022658140785e-03
6.734032659176e-03
6.837397588074e-03
6.714010850611e-03
7.712465542394e-03
7.532827266915e-03
7.667909107551e-03
5.392140300883e-04
5.334646512646e-03
3.675752576569e-03
3.994140177194e-04
3.535833562514e-03
3.716995656290e-03
3.370679194070e-03
1.853309470659e-03
3.567296707678e-03
3.765939256375e-03
5.161859187924e-04
5.605887865963e-03
5.560267422025e-04
6.696792617405e-04
6.452865633639e-03
6.306409805087e-03
6.495314593853e-03
6.342919735503e-03
6.139546912853e-03
6.186305512548e-03
3.509567093749e-03
6.424473805264e-03
6.236393442905e-03
6.556793159781e-03
5.620051798140e-03
4.198818405222e-03
4.182485431836e-03
2.865175799142e-03
8.297857787454e-03
8.290265346796e-03
5.294878979777e-03
4.863337651309e-03
3.557349194756e-03
3.532569652196e-03
3.813584889458e-03
3.767894522616e-03
4.058668074403e-03
4.012436085661e-03
4.295379223318e-03
7.731789470892e-03
1.686461273639e-03
5.290818745333e-03
7.226213104400e-03
7.181220791376e-03
4.504050538197e-03
4.827615411761e-03
6.602896768999e-03
3.549635650219e-03
5.901511866077e-03
1.858040090612e-04
4.857765212983e-04
3.770783598719e-03
3.416499661431e-03
4.450998606293e-03
4.786250321568e-03
6.588776158485e-03
8.014292965038e-04
1.650969869117e-03
4.334362747608e-03
9.849535248275e-04
5.000137505634e-03
3.911180371660e-03
3.502407730140e-03
2.577101869898e-03
3.601676837045e-03
3.802386178974e-03
3.549362578402e-03
3.416436535536e-03
4.632446249882e-03
4.837684404744e-03
3.971901068372e-03
3.605674145861e-03
4.919767447334e-03
5.053137848748e-03
5.341032503506e-03
5.187217989567e-03
4.888560595271e-03
5.017653317247e-03
5.368659335650e-03
5.186767650346e-03
6.770642653910e-03
6.281563250495e-03
4.990792908063e-03
5.944255200658e-03
7.706023046759e-03
4.809494413317e-03
7.220029305149e-03
4.229342284652e-03
6.965101933152e-04
6.551789095587e-04
3.320208956367e-03
8.118475361203e-03
6.939010126530e-03
3.053471091472e-03
8.099741203018e-03
3.515099545658e-03
1.835296471299e-03
7.772800935979e-03
4.753391499877e-03
4.585238946775e-03
4.452711673430e-03
6.421502993628e-03
4.073161563167e-03
7.337943903958e-03
7.506505080043e-03
7.711055285531e-03
7.607017131531e-03
4.847344029507e-03
6.991669858079e-03
7.005138677628e-03
6.922505772773e-03
7.016388845707e-03
6.866270495291e-03
8.507285145595e-03
8.402681335991e-03
4.493061180621e-03
4.947813226071e-03
5.345358497376e-03
5.317085791837e-03
4.635593382174e-03
4.908520039569e-03
5.654274287805e-03
4.095278260962e-03
7.270406403315e-03
6.773300554199e-03
5.951952781024e-03
6.034937569593e-03
5.852852166424e-03
3.706451767108e-03
4.212294256383e-03
4.562790020843e-03
3.218780349037e-03
8.245199498090e-03
6.733437431205e-03
6.722002375595e-03
4.322228905870e-03
3.276820545210e-03
3.539493379070e-03
3.549133742473e-03
3.824596042644e-03
3.567726925699e-03
3.895530679200e-03
3.873707841539e-03
3.548396170698e-03
3.926605500735e-03
3.671040914127e-03
3.341231279305e-03
4.027930607610e-03
3.795442470672e-03
3.270946734921e-03
2.113632266740e-04
4.663590485079e-04
4.666996563330e-04
8.707787154784e-04
8.312129014739e-04
1.801969533539e-03
1.453605441321e-03
4.717549759513e-04
2.060508248568e-04
4.889073875864e-04
2.016183866916e-04
4.476234575421e-04
1.046305378346e-03
1.443414983922e-03
6.534996120284e-03
2.859709310105e-03
2.724978007808e-03
2.413348020451e-03
2.587622404478e-03
2.979254934651e-03
2.265719997477e-03
2.194638005864e-03
1.282237876489e-03
1.454384476102e-03
1.407115416051e-03
1.621414226405e-03
1.571288388369e-03
1.394322072185e-03
1.274953875568e-03
1.133613562359e-03
9.225178314867e-04
1.152683337463e-03
8.126312445629e-04
4.704546691336e-03
4.866377932286e-03
6.675369408951e-03
3.306461396406e-03
2.060812032613e-04
5.785970966045e-03
5.857994901059e-03
5.844621644580e-03
5.892449690980e-03
6.107849771715e-03
5.787205338867e-03
2.470190139313e-03
5.634717676214e-03
5.244910374536e-03
1.592473999376e-03
3.148847603664e-03
4.769840621906e-03
5.156642968306e-03
5.814308226969e-03
4.729628715041e-03
5.711044951948e-03
6.852099955890e-03
1.690791490522e-03
4.131571153262e-03
4.020912679793e-03
4.773210184270e-03
2.198833058514e-03
3.203128119053e-03
1.386093972662e-03
7.943840564260e-03
3.319123411055e-03
5.563287945084e-03
3.302998352392e-03
2.986253046985e-03
3.249678834258e-03
4.357783106972e-03
4.770143033572e-03
5.967949722836e-03
4.941818270038e-03
2.696477455619e-04
6.167772831762e-03
5.312548115502e-03
4.244105085551e-03
7.283739317016e-03
2.411677455593e-03
4.880974533881e-03
5.403313920794e-03
3.898336749169e-03
1.019796614633e-03
3.824252090180e-03
6.576829193130e-03
4.786917829570e-03
1.954837115593e-03
6.766552261350e-03
4.038323458603e-03
7.079051586489e-03
5.375575519212e-03
7.316303693724e-03
7.038128876886e-03
6.948818997339e-03
2.050329061269e-03
6.128663605956e-03
7.359820347912e-03
5.185084528177e-03
7.116741073650e-03
6.274724545636e-03
4.981119205122e-03
5.933018523034e-03
7.376909226393e-03
3.172044752529e-03
4.288514164428e-03
4.346595079122e-03
5.903705733636e-03
4.429113814796e-03
6.137784621553e-03
1.929635507695e-03
3.603642238288e-03
4.209667670053e-03
8.010900965136e-03
5.486043343848e-03
3.812012345711e-03
5.928066520964e-03
5.276018678210e-03
4.670167822674e-03
1.940993061881e-03
1.103526896549e-03
4.250162879178e-03
7.187700576173e-03
4.967286435102e-03
5.619708969709e-03
5.943767496470e-03
6.490263032741e-03
7.681382496935e-04
4.695350483844e-03
5.979996839263e-03
6.609249037279e-03
7.237462920464e-03
3.445040545861e-03
7.830643216332e-03
5.294768850172e-03
6.064459080846e-03
6.763313454080e-03
3.310627325600e-03
3.268136202907e-03
6.371601230426e-03
6.793874445300e-03
7.433735787922e-03
6.327304419436e-03
7.133855473617e-03
4.870004963239e-03
4.218725465320e-03
6.192744936761e-03
6.901604413275e-03
4.284472671237e-03
4.450555190660e-03
7.827466606323e-03
1.486770748924e-03
5.661998796854e-03
4.366809291773e-03
5.153233608822e-03
6.212121146035e-03
7.407787268813e-03
4.318752119125e-03
5.973594226238e-03
4.304534636186e-03
5.738459510264e-03
4.418520852231e-03
4.326993443288e-03
5.290074171543e-03
8.505072678475e-04
8.235737762319e-03
5.704087217221e-03
4.110364574905e-03
6.118791067238e-03
4.718919712423e-03
3.976836787665e-03
6.272405798227e-03
7.117339166742e-03
8.183446442291e-03
7.818136946761e-03
6.396277723735e-03
4.425736893799e-03
2.483720450418e-03
1.971350333985e-03
6.079963015944e-03
7.167859852975e-03
1.724939181066e-03
4.678560104240e-03
1.383262715915e-03
5.720209092791e-03
7.846579148375e-03
4.115757970203e-03
5.611861933172e-03
2.023707121789e-03
5.234749320962e-03
7.893169672876e-03
5.124571616398e-03
4.700055680731e-03
5.552773111686e-03
4.603480701112e-03
5.832588277671e-03
6.523855281821e-03
3.510356051034e-03
3.114313755519e-03
2.405479085723e-04
3.793102851005e-03
3.654335109921e-03
4.639057668376e-03
3.513173410346e-03
3.056849296110e-03
8.049285226241e-03
7.539924985552e-03
4.549382429435e-03
7.102985882842e-03
7.956839222561e-03
5.275457844279e-03
3.249070074697e-03
4.477567605621e-04
4.587285408306e-03
2.830634457666e-03
2.243764295206e-03
1.212445538372e-03
2.148329679625e-03
9.435270281690e-04
2.173953154251e-03
7.089524143861e-03
3.515193931760e-03
7.876657638698e-03
1.523555127055e-03
5.572156000341e-03
7.524835814950e-03
6.646189870796e-03
7.702737469964e-03
8.277135440665e-04
3.767849181543e-03
8.122926482329e-03
4.792801184414e-03
6.615300203128e-03
3.467504393821e-03
5.585086652784e-03
1.687779985937e-03
5.581941862217e-03
5.686101024255e-03
3.891365713394e-03
3.752927955089e-03
6.299162650993e-03
6.432333838839e-03
6.530334131599e-04
4.532821262706e-03
2.616760866369e-03
4.309456059287e-04
6.563022691289e-03
7.442330509464e-03
6.369864368855e-03
1.665257114105e-03
4.403063957912e-04
6.684191567686e-03
8.398182925425e-03
2.370744371943e-03
5.997726214343e-03
4.092504687394e-04
3.203199811466e-03
4.957922950114e-04
6.588922012113e-03
5.604234858727e-03
2.845335710463e-03
3.666620511206e-03
2.057362191379e-03
7.904809674091e-03
6.800190446387e-04
5.641946929749e-03
6.804145012066e-03
5.700513283299e-03
7.156532182631e-03
4.211607310232e-04
7.600471491277e-03
6.914867928630e-03
3.253953958084e-03
5.841242591230e-03
2.330988075092e-03
1.084917917788e-03
5.854893632795e-03
1.171376798817e-03
3.234858844656e-03
6.592923334200e-03
1.600303801683e-03
3.727440323860e-03
8.426283496591e-03
3.548650188516e-03
5.092976750137e-03
1.547411823675e-03
1.709421506900e-04
4.270563646727e-03
7.421713671862e-03
5.660272970371e-03
4.061400799491e-03
8.220481444570e-04
8.342057110649e-03
3.071062049363e-03
8.124104429574e-03
7.086537302939e-03
2.102243503153e-04
3.865829859611e-03
4.259532598859e-04
6.516521308616e-03
3.215942985819e-03

SCALARS node_materi_plasti_phimob float
LOOKUP_TABLE default
-3.190557587110e+01
6.298473808030e+00
2.053066185060e+01
2.023169909103e+01
6.867952851477e+00
2.053066185060e+01
2.053066185060e+01
2.053066185060e+01
2.053066185060e+01
2.053066185060e+01
2.049354306518e+01
2.018788702494e+01
2.007184297175e+01
2.032439170698e+01
2.050591655568e+01
2.053066185060e+01
2.053066185060e+01
2.053066185060e+01
2.053066185060e+01
2.053066185060e+01
2.053066185060e+01
2.053066185060e+01
2.053066185060e+01
2.030704098789e+01
2.032837922259e+01
2.036199136196e+01
2.039563070648e+01
2.037667345803e+01
2.041026040091e+01
2.041045567703e+01
2.046732301108e+01
2.050041121796e+01
2.053066185060e+01
2.053066185060e+01
2.053066185060e+01
2.053066185060e+01
2.053066185060e+01
2.053066185060e+01
2.053066185060e+01
2.053066185060e+01
2.053066185060e+01
2.053066185060e+01
2.053066185060e+01
2.053066185060e+01
2.053066185060e+01
2.053066185060e+01
2.053066185060e+01
2.053066185060e+01
2.053066185060e+01
2.053066185060e+01
2.053066185060e+01
2.053066185060e+01
2.053066185060e+01
2.053066185060e+01
2.053066185060e+01
2.053066185060e+01
2.053066185060e+01
2.053066185060e+01
2.053066185060e+01
2.053066185060e+01
2.053066185060e+01
2.053066185060e+01
2.053066185060e+01
2.053066185060e+01
2.053066185060e+01
2.053066185060e+01
2.053066185060e+01
2.053066185060e+01
2.053066185060e+01
2.053066185060e+01
2.053066185060e+01
2.053066185060e+01
2.421712906288e+00
2.315538743346e+00
7.261415593044e+00
1.136171899248e+01
1.408697534374e+01
1.599246176465e+01
1.746798458155e+01
1.865802157522e+01
1.962762847689e+01
5.268300201783e+00
2.053066185060e+01
1.984571290960e+01
2.031716542524e+01
2.053066185060e+01
2.031447073898e+01
2.053066185060e+01
2.053066185060e+01
2.053066185060e+01
2.053066185060e+01
2.053066185060e+01
7.971624815383e+00
6.684497613861e+00
6.697920215328e+00
7.870883045853e+00
5.515095344087e+00
7.404770220467e+00
8.177700545427e+00
7.736765293193e+00
6.608728298262e+00
7.444145783843e+00
8.620825282828e+00
1.070960705852e+01
1.542780416236e+01
1.952622769006e+01
3.351888466651e+00
7.115612474398e+00
1.121635846259e+01
1.135594719884e+01
6.516310800362e+00
2.050252794061e+00
-3.786968570411e+00
-1.215799822901e+01
-2.297951831682e+01
-3.182477953857e+01
-3.390818689122e+01
-2.893998878266e+01
-3.021534129637e+01
-3.669833979376e+01
-3.646983387684e+01
-3.432449254550e+01
-3.336321258297e+01
-3.646523634104e+01
-4.158934349406e+01
1.448179479258e+01
2.036219205651e+01
2.036650510391e+01
2.039309603941e+01
2.053066185060e+01
2.053066185060e+01
2.053066185060e+01
2.053066185060e+01
2.053066185060e+01
2.053066185060e+01
1.841315239285e+01
2.053066185060e+01
-1.342691652292e+01
-1.127700429980e+00
2.053066185060e+01
2.042256629479e+01
2.045271000359e+01
2.053066185060e+01
2.053066185060e+01
2.053066185060e+01
2.053066185060e+01
2.053066185060e+01
-8.885213432840e+00
2.053066185060e+01
1.963609440169e+01
2.051948597981e+01
2.053066185060e+01
2.053066185060e+01
2.053066185060e+01
1.992862860082e+01
1.998834563622e+01
2.039076204178e+01
1.508196267661e+01
6.506814523458e+00
5.197298572927e+00
1.285752415722e+01
2.053066185060e+01
-1.744296134450e+00
-5.234268601335e+00
2.053066185060e+01
4.528864845958e+00
2.053066185060e+01
2.053066185060e+01
2.053066185060e+01
2.053066185060e+01
2.053066185060e+01
2.053066185060e+01
-4.405059295225e+00
9.252504804305e+00
2.053066185060e+01
1.675548027630e+01
-1.213487815681e+01
2.009095769851e+01
2.001234265285e+01
2.053066185060e+01
2.038808192598e+01
2.053066185060e+01
2.053066185060e+01
1.148081103402e+01
4.774734301350e+00
2.053066185060e+01
-7.800828977731e+00
1.912299706314e+01
1.764606152815e+01
1.678938965083e+01
1.481445519495e+01
1.608783969798e+01
1.532795563805e+01
1.676589210923e+01
1.720227975492e+01
1.785875353617e+01
1.811847079041e+01
1.635111183254e+01
1.871641277683e+01
1.888166756177e+01
1.940182624966e+01
1.950889963730e+01
1.903046504747e+01
1.960427577193e+01
1.915559900279e+01
1.968913212994e+01
2.005832316790e+01
2.015956055396e+01
1.990653338598e+01
2.040360376916e+01
2.031901077283e+01
2.053066185060e+01
2.053066185060e+01
2.053066185060e+01
2.053066185060e+01
2.053066185060e+01
2.053066185060e+01
2.053066185060e+01
2.053066185060e+01
2.053066185060e+01
2.053066185060e+01
2.053066185060e+01
2.053066185060e+01
2.053066185060e+01
2.053066185060e+01
2.053066185060e+01
2.053066185060e+01
2.053066185060e+01
2.053066185060e+01
2.053066185060e+01
2.053066185060e+01
2.053066185060e+01
2.053066185060e+01
2.053066185060e+01
2.053066185060e+01
2.053066185060e+01
2.053066185060e+01
2.053066185060e+01
2.053066185060e+01
2.053066185060e+01
2.053066185060e+01
2.053066185060e+01
2.053066185060e+01
2.053066185060e+01
2.053066185060e+01
2.053066185060e+01
2.053066185060e+01
2.053066185060e+01
2.053066185060e+01
2.053066185060e+01
2.053066185060e+01
2.053066185060e+01
2.053066185060e+01
2.053066185060e+01
2.053066185060e+01
2.053066185060e+01
2.053066185060e+01
2.053066185060e+01
2.053066185060e+01
2.053066185060e+01
2.053066185060e+01
2.053066185060e+01
2.053066185060e+01
2.053066185060e+01
2.053066185060e+01
2.053066185060e+01
2.039447254084e+01
2.053066185060e+01
2.053066185060e+01
2.053066185060e+01
2.053066185060e+01
1.487847768760e+01
1.606855902672e+01
1.441702512374e+01
1.599276969113e+01
1.440778300872e+01
2.053066185060e+01
1.929486367780e+01
1.727993102212e+01
1.976876299791e+01
2.053066185060e+01
2.053066185060e+01
2.053066185060e+01
2.053066185060e+01
2.053066185060e+01
2.053066185060e+01
2.053066185060e+01
2.053066185060e+01
2.053066185060e+01
2.053066185060e+01
2.053066185060e+01
2.053066185060e+01
2.053066185060e+01
2.053066185060e+01
2.053066185060e+01
2.053066185060e+01
2.053066185060e+01
2.053066185060e+01
2.053066185060e+01
2.053066185060e+01
2.053066185060e+01
2.053066185060e+01
2.053066185060e+01
2.053066185060e+01
2.053066185060e+01
2.053066185060e+01
2.053066185060e+01
2.053066185060e+01
2.053066185060e+01
2.053066185060e+01
2.053066185060e+01
1.994529641022e+01
2.053066185060e+01
2.053066185060e+01
2.053066185060e+01
2.053066185060e+01
2.053066185060e+01
2.053066185060e+01
2.053066185060e+01
2.053066185060e+01
2.053066185060e+01
2.053066185060e+01
2.053066185060e+01
2.053066185060e+01
2.053066185060e+01
2.053066185060e+01
2.053066185060e+01
2.053066185060e+01
2.053066185060e+01
2.053066185060e+01
2.053066185060e+01
2.053066185060e+01
2.053066185060e+01
2.053066185060e+01
2.053066185060e+01
2.053066185060e+01
1.612472524556e+01
1.470611770552e+01
2.053066185060e+01
2.053066185060e+01
2.053066185060e+01
2.053066185060e+01
2.053066185060e+01
2.053066185060e+01
2.053066185060e+01
2.053066185060e+01
2.053066185060e+01
2.053066185060e+01
2.053066185060e+01
2.053066185060e+01
2.053066185060e+01
2.053066185060e+01
2.053066185060e+01
2.053066185060e+01
2.053066185060e+01
2.053066185060e+01
2.053066185060e+01
2.053066185060e+01
2.053066185060e+01
2.053066185060e+01
1.993311327468e+01
1.852188348744e+01
2.053066185060e+01
2.053066185060e+01
1.645837712504e+01
1.525298167132e+01
1.310021585144e+01
1.395708508581e+01
1.595708944420e+01
1.490327722023e+01
1.258574078426e+01
1.380350550832e+01
1.110447464227e+01
1.264556457962e+01
1.494194286827e+01
1.401976861089e+01
1.139442060999e+01
1.301700100030e+01
9.945573633993e+00
1.185511062498e+01
1.437807998161e+01
2.053066185060e+01
2.053066185060e+01
2.053066185060e+01
2.053066185060e+01
2.048115358082e+01
2.053066185060e+01
2.052328786068e+01
1.341093591718e+01
1.554198717947e+01
2.053066185060e+01
2.053066185060e+01
1.755135654303e+01
2.053066185060e+01
2.053066185060e+01
2.053066185060e+01
2.053066185060e+01
2.053066185060e+01
2.053066185060e+01
2.053066185060e+01
2.053066185060e+01
2.053066185060e+01
1.598616249303e+01
2.053066185060e+01
2.053066185060e+01
2.053066185060e+01
2.053066185060e+01
2.053066185060e+01
2.053066185060e+01
2.053066185060e+01
2.053066185060e+01
2.053066185060e+01
2.053066185060e+01
2.053066185060e+01
2.053066185060e+01
2.053066185060e+01
1.037882786271e+01
2.053066185060e+01
2.053066185060e+01
2.053066185060e+01
2.053066185060e+01
2.053066185060e+01
2.053066185060e+01
2.053066185060e+01
2.053066185060e+01
2.053066185060e+01
2.053066185060e+01
2.053066185060e+01
2.053066185060e+01
1.242899038950e+01
9.491524787621e+00
7.405117628636e+00
2.053066185060e+01
2.053066185060e+01
1.670974302259e+01
2.053066185060e+01
2.053066185060e+01
1.726098760050e+01
1.330907086106e+01
1.466365395531e+01
1.647186883088e+01
2.053066185060e+01
2.053066185060e+01
2.053066185060e+01
2.053066185060e+01
1.714778526625e+01
2.053066185060e+01
2.053066185060e+01
2.038223153958e+01
2.053066185060e+01
2.015080177333e+01
2.053066185060e+01
2.053066185060e+01
2.053066185060e+01
2.053066185060e+01
1.754420410978e+01
2.053066185060e+01
2.053066185060e+01
2.053066185060e+01
2.050832552430e+01
2.053066185060e+01
2.053066185060e+01
2.053066185060e+01
2.053066185060e+01
2.053066185060e+01
2.053066185060e+01
2.053066185060e+01
2.053066185060e+01
1.751757228174e+01
2.053066185060e+01
1.879030291374e+01
1.857085631904e+01
1.941337372947e+01
2.053066185060e+01
2.053066185060e+01
2.053066185060e+01
2.053066185060e+01
2.053066185060e+01
2.053066185060e+01
2.053066185060e+01
1.671832386526e+01
1.755731351762e+01
7.586420754869e+00
5.421507777434e+00
2.053066185060e+01
2.050907123487e+01
2.053066185060e+01
2.053066185060e+01
1.788833365640e+01
1.877213000170e+01
1.850512606192e+01
2.053066185060e+01
2.053066185060e+01
2.053066185060e+01
1.813427615888e+01
2.053066185060e+01
2.001257846181e+01
2.037179098175e+01
2.053066185060e+01
2.053066185060e+01
2.053066185060e+01
1.860123011141e+01
2.053066185060e+01
2.053066185060e+01
1.987265216142e+01
2.037992083853e+01
2.001466166669e+01
2.053066185060e+01
2.053066185060e+01
2.053066185060e+01
2.053066185060e+01
2.053066185060e+01
2.053066185060e+01
2.053066185060e+01
2.053066185060e+01
2.053066185060e+01
2.053066185060e+01
2.053066185060e+01
1.816388983139e+01
1.922370543356e+01
2.053066185060e+01
2.053066185060e+01
7.584801881812e+00
1.442988180849e+01
1.790618534098e+01
2.053066185060e+01
2.053066185060e+01
2.053066185060e+01
2.053066185060e+01
4.495052239376e+00
2.053066185060e+01
2.042830860296e+01
1.845326406566e+01
2.053066185060e+01
2.053066185060e+01
2.053066185060e+01
1.721894709715e+01
1.860946935826e+01
6.180824728533e+00
4.654245425880e+00
8.214028141271e+00
1.979569559617e+01
1.279408482026e+01
1.691292998001e+01
2.053066185060e+01
2.047023749435e+01
2.053066185060e+01
2.053066185060e+01
2.053066185060e+01
2.053066185060e+01
2.052645316136e+01
2.052345759689e+01
2.052653931116e+01
2.053066185060e+01
2.053066185060e+01
2.053066185060e+01
1.816857986069e+01
1.896380838469e+01
2.053066185060e+01
2.053066185060e+01
2.053066185060e+01
1.886615034330e+01
2.053066185060e+01
2.053066185060e+01
1.875092525386e+01
2.032645341866e+01
1.838866477810e+01
1.531700257320e+01
1.953313171873e+01
1.932856274174e+01
1.991938322374e+01
2.053066185060e+01
2.053066185060e+01
2.053066185060e+01
2.053066185060e+01
2.053066185060e+01
2.053066185060e+01
2.053066185060e+01
2.053066185060e+01
1.840463739250e+00
1.823473024032e+01
3.862482382380e+00
-3.695271184988e+00
2.706794418879e+00
3.581664050845e+00
2.683666598169e+00
2.053066185060e+01
6.027520256232e+00
7.989013341298e+00
1.342397968258e+01
1.942687830841e+01
1.709260461227e+01
1.928944881960e+01
2.053066185060e+01
2.053066185060e+01
2.053066185060e+01
2.053066185060e+01
2.053066185060e+01
2.053066185060e+01
3.546705004210e+00
2.053066185060e+01
2.053066185060e+01
2.053066185060e+01
2.053066185060e+01
2.053066185060e+01
2.053066185060e+01
2.053066185060e+01
2.053066185060e+01
2.053066185060e+01
2.053066185060e+01
2.053066185060e+01
2.248931277866e+00
1.621169301429e+00
4.498975092342e+00
3.925865316845e+00
8.875639406239e+00
8.307257480063e+00
1.183294877469e+01
2.053066185060e+01
2.047016029932e+01
2.053066185060e+01
2.053066185060e+01
2.053066185060e+01
2.053066185060e+01
2.053066185060e+01
2.053066185060e+01
2.053066185060e+01
2.010812421303e+01
-1.277509800204e+00
1.594986348472e+00
2.053066185060e+01
2.038666709970e+01
2.053066185060e+01
2.053066185060e+01
2.053066185060e+01
1.952900457382e+01
2.000368671694e+01
1.204356233859e+01
1.767711292711e+01
2.053066185060e+01
2.053066185060e+01
2.053066185060e+01
2.053066185060e+01
2.053066185060e+01
1.832847823854e+01
1.665164850011e+01
1.775975254951e+01
2.053066185060e+01
2.053066185060e+01
2.053066185060e+01
1.935068230871e+01
1.835875033922e+01
1.921919280239e+01
2.001375895727e+01
1.992605732312e+01
1.919277169351e+01
1.985843369972e+01
2.037548305449e+01
2.033270967958e+01
2.053066185060e+01
2.053066185060e+01
2.035057491243e+01
2.053066185060e+01
2.053066185060e+01
2.034808647477e+01
2.053066185060e+01
2.053066185060e+01
8.177059772446e+00
6.968708158457e+00
2.026757661111e+01
2.053066185060e+01
2.053066185060e+01
2.053066185060e+01
2.053066185060e+01
1.788490960600e+01
2.053066185060e+01
2.053066185060e+01
1.833061175048e+01
1.839861322536e+01
1.736228521507e+01
2.050130408049e+01
1.040268793141e+01
2.053066185060e+01
2.053066185060e+01
2.053066185060e+01
2.053066185060e+01
1.986063858876e+01
2.053066185060e+01
2.053066185060e+01
2.053066185060e+01
2.053066185060e+01
2.053066185060e+01
2.053066185060e+01
2.053066185060e+01
2.053066185060e+01
2.053066185060e+01
2.053066185060e+01
2.053066185060e+01
2.053066185060e+01
2.053066185060e+01
2.053066185060e+01
2.053066185060e+01
2.053066185060e+01
2.053066185060e+01
2.053066185060e+01
2.053066185060e+01
2.053066185060e+01
2.053066185060e+01
2.053066185060e+01
2.053066185060e+01
2.053066185060e+01
2.053066185060e+01
2.053066185060e+01
2.053066185060e+01
2.053066185060e+01
1.161172515175e+01
1.047161888712e+01
1.293863440262e+01
1.280910235196e+01
8.672214741438e+00
2.053066185060e+01
2.053066185060e+01
2.053066185060e+01
2.053066185060e+01
2.053066185060e+01
2.052544356972e+01
2.053066185060e+01
2.053066185060e+01
7.851394597470e+00
-2.666917536333e+00
4.068559535595e+00
6.016250385199e+00
1.804110196481e+01
1.675523238259e+01
2.051417583519e+01
2.005608079001e+01
2.072505726912e+00
-6.651173993760e+00
8.481210224598e+00
-9.670187043497e+00
1.002213045858e+01
1.955309089709e+01
2.053066185060e+01
2.053066185060e+01
2.020380841158e+01
2.016812147448e+01
2.020286642910e+01
2.028508858601e+01
2.033476280870e+01
2.037562643281e+01
2.045569901164e+01
-4.866616294394e+00
2.053066185060e+01
2.053066185060e+01
2.053066185060e+01
2.053066185060e+01
2.053066185060e+01
2.053066185060e+01
-5.525743253484e+00
2.053066185060e+01
2.053066185060e+01
-6.496949316873e+00
1.512203352449e+01
1.609669408379e+01
2.053066185060e+01
5.698434005008e+00
-1.430613532410e+01
1.973069103545e+01
1.998220254532e+01
1.996150255185e+01
2.053066185060e+01
2.053066185060e+01
1.975431116849e+01
2.053066185060e+01
2.040457567289e+01
1.773767820347e+01
2.053066185060e+01
2.053066185060e+01
2.053066185060e+01
2.053066185060e+01
2.053066185060e+01
2.053066185060e+01
2.053066185060e+01
2.053066185060e+01
2.053066185060e+01
9.458512462444e+00
8.127799068768e+00
1.521435041109e+01
2.053066185060e+01
2.050587420203e+01
2.053066185060e+01
2.053066185060e+01
1.931755856579e+01
2.053066185060e+01
2.053066185060e+01
2.053066185060e+01
2.053066185060e+01
2.053066185060e+01
2.053066185060e+01
2.053066185060e+01
1.625609747946e+01
-4.890884227498e+00
2.053066185060e+01
2.053066185060e+01
1.137232037632e+01
2.053066185060e+01
2.053066185060e+01
1.583398796510e+01
1.908613615315e+01
1.018899532949e+01
2.044510687415e+01
5.390088104276e+00
2.053066185060e+01
1.733808891088e+01
2.053066185060e+01
2.053066185060e+01
2.053066185060e+01
2.053066185060e+01
1.828413576827e+01
2.053066185060e+01
2.053066185060e+01
2.053066185060e+01
2.053066185060e+01
2.053066185060e+01
2.053066185060e+01
1.744784979219e+01
2.053066185060e+01
2.053066185060e+01
1.695102196395e+01
2.053066185060e+01
2.053066185060e+01
1.991989224602e+01
2.052653931116e+01
2.000378511010e+01
2.053066185060e+01
2.053066185060e+01
2.053066185060e+01
2.053066185060e+01
2.053066185060e+01
1.252182210826e+01
2.053066185060e+01
1.876961570400e+01
2.053066185060e+01
2.053066185060e+01
1.833777951493e+01
2.053066185060e+01
2.053066185060e+01
1.803550431698e+01
2.053066185060e+01
2.053066185060e+01
2.053066185060e+01
2.023045749624e+01
2.053066185060e+01
2.053066185060e+01
1.585183896520e+01
2.004190785342e+01
2.053066185060e+01
2.053066185060e+01
2.053066185060e+01
2.052901225836e+01
2.053066185060e+01
2.053066185060e+01
2.053066185060e+01
2.053066185060e+01
2.053066185060e+01
4.038711271157e+00
2.053066185060e+01
2.053066185060e+01
2.053066185060e+01
2.053066185060e+01
2.053066185060e+01
2.053066185060e+01
2.047353135260e+01
2.048721538648e+01
2.053066185060e+01
1.757197791561e+01
2.053066185060e+01
2.053066185060e+01
2.053066185060e+01
2.053066185060e+01
2.053066185060e+01
2.053066185060e+01
2.053066185060e+01
2.053066185060e+01
2.053066185060e+01
2.053066185060e+01
2.053066185060e+01
2.053066185060e+01
1.854241727539e+01
2.053066185060e+01
2.052772926513e+01
2.032572439520e+01
2.053066185060e+01
2.053066185060e+01
2.053066185060e+01
2.053066185060e+01
1.922133452484e+01
2.053066185060e+01
2.053066185060e+01
2.053066185060e+01
2.053066185060e+01
2.053066185060e+01
2.053066185060e+01
2.053066185060e+01
2.053066185060e+01
2.053066185060e+01
2.053066185060e+01
2.053066185060e+01
2.053066185060e+01
1.989839781445e+01
2.053066185060e+01
2.053066185060e+01
2.053066185060e+01
9.782906522825e+00
2.053066185060e+01
2.053066185060e+01
2.053066185060e+01
2.053066185060e+01
2.053066185060e+01
2.053066185060e+01
1.895381410242e+01
2.053066185060e+01
1.986319364088e+01
2.053066185060e+01
1.505391631814e+00
2.053066185060e+01
-9.211410530675e-01
2.053066185060e+01
2.053066185060e+01
2.035368337433e+01
1.397821888273e+00
2.053066185060e+01
2.053066185060e+01
2.053066185060e+01
1.405912849229e+01
2.053066185060e+01
2.053066185060e+01
1.800195596887e+01
4.880598755206e+00
1.067135995880e+01
2.053066185060e+01
2.048348667034e+01
2.053066185060e+01
1.989426904239e+01
2.050466336730e+01
1.885561236258e+01
2.053066185060e+01
2.053066185060e+01
4.891555184284e+00
2.053066185060e+01
1.963471580547e+01
1.953969647804e+01
2.053066185060e+01
2.053066185060e+01
2.053066185060e+01
1.377136324903e+01
1.079260231667e+01
2.053066185060e+01
1.557059804862e+01
2.053066185060e+01
6.921889565778e+00
1.910790975544e+01
2.053066185060e+01
1.913854063347e+01
2.052733189782e+01
5.985211049530e+00
1.392655040309e+01
2.053066185060e+01
2.053066185060e+01
8.499848725579e+00
1.386564856596e+01
2.041840780267e+01
-1.941326336079e+00
2.053066185060e+01
2.053066185060e+01
2.053066185060e+01
2.053066185060e+01
1.268942781647e+01
2.053066185060e+01
2.053066185060e+01
2.053066185060e+01
2.031198902213e+01
2.498883357994e+00
6.778632394235e+00
1.851806790957e+01
2.053066185060e+01
1.923044900195e+01
2.026937894744e+01
1.702665789741e+01
2.053066185060e+01
2.053066185060e+01
1.899321714833e+01
1.927113848114e+01
2.053066185060e+01
2.028335371623e+01
2.053066185060e+01
-1.340269292949e+00
2.053066185060e+01
2.053066185060e+01
4.728945300348e+00
2.047485484498e+01
2.036507273227e+01
2.053066185060e+01
1.996519535782e+01
-1.126836696939e+01
4.897311182819e+00
2.053066185060e+01
2.053066185060e+01
3.096348129903e+00
2.053066185060e+01
2.052901225836e+01
1.726691094719e+01
2.053066185060e+01
-9.707561415803e-02
1.163480423312e+01
2.053066185060e+01
2.000657222703e+01
8.853119878378e+00
1.198178520830e+01
2.053066185060e+01
2.042792745455e+01
2.053066185060e+01
2.053066185060e+01
5.218271905854e+00
2.053066185060e+01
1.502334610722e+01
2.053066185060e+01
2.048455255226e+01

SCALARS node_materi_stress_average_a_sig float
LOOKUP_TABLE default
-2.232047233820e+00
-1.619711323529e+01
-2.486313199199e+02
-1.210125889627e+02
-8.662875388723e+00
-2.079420199787e+01
-3.268236997845e+01
-4.545695674519e+01
-5.807534903297e+01
-7.066022253625e+01
-8.340566378507e+01
-9.683091432285e+01
-1.103143529627e+02
-1.236323303148e+02
-1.371561458502e+02
-1.505210617654e+02
-1.626353182294e+02
-1.758605655931e+02
-1.894508753084e+02
-2.027072480076e+02
-2.158998583115e+02
-2.289822023917e+02
-2.412535722622e+02
-1.216428124582e+02
-1.210296160769e+02
-1.214087554386e+02
-1.216663960171e+02
-1.219513613358e+02
-1.230198881798e+02
-1.245190594662e+02
-1.255841726854e+02
-1.283956150091e+02
-1.302493424173e+02
-1.332798141077e+02
-1.375900730959e+02
-1.432705772935e+02
-1.479266815210e+02
-1.541370030650e+02
-1.593552453264e+02
-1.643000445598e+02
-1.703552126068e+02
-1.742783201693e+02
-1.786141448870e+02
-1.826787039951e+02
-1.864698005805e+02
-1.903264366958e+02
-1.940412272259e+02
-1.974898332331e+02
-2.009374392223e+02
-2.046787558941e+02
-2.080427618377e+02
-2.110521283204e+02
-2.147981496743e+02
-2.177812281315e+02
-2.201931312679e+02
-2.232461604977e+02
-2.257002951433e+02
-2.282337820241e+02
-2.305818358986e+02
-2.327229911707e+02
-2.344661570279e+02
-2.361992094122e+02
-2.376486561766e+02
-2.394763315006e+02
-2.414375468303e+02
-2.430166011397e+02
-2.426529463122e+02
-2.453026601400e+02
-2.458085830462e+02
-2.473112751892e+02
-2.486107910086e+02
-2.490480310585e+02
-2.316501733883e+01
-3.496119163722e+01
-4.671554773701e+01
-5.811432752244e+01
-6.968961416253e+01
-8.135005174050e+01
-9.261186836938e+01
-1.035570873791e+02
-1.151402851191e+02
-1.145712142510e+01
-3.029501135192e+01
-1.625356009744e+01
-1.758616167624e+01
-1.734196618728e+01
-1.623874414548e+01
-1.603274297596e+01
-1.644718415970e+01
-1.693415663398e+01
-1.758929375464e+01
-2.004267199872e+01
-1.528131999313e+01
-1.565503580814e+01
-1.569807790699e+01
-1.539444689257e+01
-1.710196152156e+01
-1.585540478006e+01
-1.571616505011e+01
-1.587339050964e+01
-1.651327905024e+01
-1.650043501504e+01
-1.678767443798e+01
-1.778298185304e+01
-1.970255264210e+01
-2.371949830602e+01
-1.259257847990e+01
-1.487217306553e+01
-1.592283828736e+01
-1.593413568464e+01
-1.550525095626e+01
-1.464021610668e+01
-1.300128915569e+01
-1.093132635791e+01
-8.691836807106e+00
-6.684816954741e+00
-5.016470307629e+00
-4.335949858243e+00
-3.123732898755e+00
-2.160837580034e+00
-1.991967567993e+00
-2.108385838103e+00
-2.121033513056e+00
-1.961377220808e+00
-1.676806443773e+00
-1.336307904836e+01
-1.739890497480e+01
-1.752472627506e+01
-1.713270707356e+01
-1.654855688514e+01
-1.614587290875e+01
-1.655049142618e+01
-1.706252550526e+01
-1.834129277834e+01
-2.413613768748e+01
-2.117422646252e+01
-2.188673712103e+02
-1.181951325619e+01
-1.744494414593e+01
-2.297714058282e+02
-2.216566986087e+01
-1.309682387395e+02
-2.065848890100e+02
-2.331503467206e+01
-1.935296748392e+02
-2.596322748204e+01
-2.371988412307e+02
-7.090198775576e+00
-1.787929831106e+02
-3.712810755682e+01
-7.773980546726e+01
-1.671772324906e+02
-1.663956916191e+02
-1.459269304632e+02
-1.190345212643e+02
-1.223712460784e+02
-1.322016613131e+02
-2.877498582471e+01
-2.291948496415e+01
-2.282951969395e+01
-6.401220022038e+01
-2.401710739860e+02
-1.636753684975e+01
-6.788837143175e+00
-2.087159308059e+02
-2.082140524643e+01
-3.898892087914e+01
-1.544325466581e+02
-2.009518073577e+02
-1.865897029198e+02
-2.118747385742e+02
-2.240867223859e+02
-1.596769785738e+01
-2.409154038415e+01
-2.315158990972e+02
-8.669787999334e+01
-9.579661880569e+00
-1.037878568037e+02
-1.194016619179e+02
-2.393716393531e+01
-2.211217502535e+01
-2.455016115050e+01
-2.859884310673e+01
-1.703325371829e+01
-4.183515394311e+01
-2.443363750271e+02
-6.042746287361e+00
-1.086025515993e+02
-3.903710112375e+01
-5.101417641033e+01
-5.225425293985e+01
-6.444958371209e+01
-6.695924770583e+01
-7.743037495711e+01
-7.525766150999e+01
-8.780931994373e+01
-8.558451426904e+01
-8.049577203836e+01
-9.798652203967e+01
-9.564802412254e+01
-1.080121755575e+02
-1.056055196544e+02
-9.353463725462e+01
-1.033236799906e+02
-9.146021074629e+01
-1.011377053062e+02
-1.129605986994e+02
-1.106918712660e+02
-9.902312391414e+01
-1.082982324607e+02
-9.691641212799e+01
-1.054092870756e+02
-9.426172136757e+01
-1.023862051951e+02
-1.133161985700e+02
-1.102870047036e+02
-9.962304141716e+01
-1.073285587493e+02
-9.688508899868e+01
-1.042590251459e+02
-1.139137606961e+02
-1.106119694159e+02
-1.009511443636e+02
-1.071187948005e+02
-9.737314232833e+01
-1.034394970096e+02
-9.351375919281e+01
-9.950958566006e+01
-1.105265018118e+02
-1.066623429302e+02
-9.541201832429e+01
-1.025371999237e+02
-1.142642900953e+02
-1.099504119170e+02
-1.215705977018e+02
-1.170511410774e+02
-1.054393327358e+02
-1.123400282906e+02
-1.239572124192e+02
-1.190354790701e+02
-1.074172237362e+02
-1.139684952720e+02
-1.256764497098e+02
-1.204295014110e+02
-1.087333690830e+02
-1.150448661166e+02
-1.268631810105e+02
-1.212659820436e+02
-1.094964899331e+02
-1.155487741115e+02
-1.274716920186e+02
-1.215438359480e+02
-1.336331261717e+02
-1.095951547537e+02
-1.154565955611e+02
-1.034245061544e+02
-1.092366241444e+02
-1.208791400459e+02
-9.712341274248e+01
-9.147256033297e+01
-1.028796195084e+02
-1.150759717952e+02
-9.064860324203e+01
-9.631068694987e+01
-8.390267569686e+01
-8.702395033843e+01
-1.224318951488e+02
-8.941688673094e+01
-7.668045619028e+01
-7.127657873913e+01
-6.382842961205e+01
-7.071423123278e+01
-8.369334519359e+01
-7.370010352379e+01
-8.706451657256e+01
-7.788270361250e+01
-6.905807367827e+01
-1.106585207602e+02
-9.655614657244e+01
-8.741766278893e+01
-8.893270110276e+01
-1.258936403756e+02
-1.019266521139e+02
-9.486188430179e+01
-1.075542527625e+02
-1.395693696782e+02
-1.458049445494e+02
-1.516902003915e+02
-1.579615826174e+02
-1.637944532685e+02
-1.701172792541e+02
-1.642039829693e+02
-1.764461606979e+02
-1.704692083076e+02
-1.758841646072e+02
-1.694364086941e+02
-1.827820844790e+02
-1.767388285333e+02
-1.890946621705e+02
-1.829831511390e+02
-1.705265715506e+02
-1.766787012938e+02
-1.641720978576e+02
-1.332162873990e+02
-1.375497064736e+02
-1.449493582297e+02
-1.492528152983e+02
-1.566583852087e+02
-1.609231640699e+02
-1.683151448763e+02
-1.638849601263e+02
-1.179416405270e+02
-9.106834903751e+01
-8.497914602018e+01
-8.035852589620e+01
-7.481514511835e+01
-7.001604228067e+01
-6.455877905844e+01
-5.966799317793e+01
-6.490787566315e+01
-5.442912803997e+01
-5.955641633356e+01
-4.889066333213e+01
-5.399425536520e+01
-1.202729305746e+02
-1.533264226376e+02
-1.649674699434e+02
-1.571340134778e+02
-5.848611962352e+01
-1.891928029602e+02
-1.814673085627e+02
-1.748763056828e+02
-1.755430594175e+02
-5.623673700521e+01
-5.422347823689e+01
-5.861300760913e+01
-9.070945173383e+01
-8.201017603648e+01
-1.868928694875e+02
-6.138114270695e+01
-1.886872532245e+02
-4.390076631581e+01
-1.827902964677e+02
-1.953902974916e+02
-1.581668834282e+02
-1.688108805890e+02
-1.607486162664e+02
-6.542422385521e+01
-5.999604087357e+01
-4.861608552668e+01
-5.523781575796e+01
-6.679320383417e+01
-6.108108490705e+01
-4.906070491048e+01
-5.549493788165e+01
-6.769493685953e+01
-6.186983247218e+01
-4.963055351124e+01
-5.577292912841e+01
-2.016566288565e+02
-3.848937389857e+01
-8.167293511878e+01
-1.934812555351e+02
-1.798074546658e+02
-9.452805203955e+01
-8.631474277773e+01
-7.364027041621e+01
-7.849883445235e+01
-9.076103631706e+01
-8.337731380380e+01
-7.104432195684e+01
-7.630143450631e+01
-6.396234828591e+01
-6.954093864376e+01
-8.155588438375e+01
-7.512119121947e+01
-6.309952701649e+01
-6.890644157003e+01
-5.688882272000e+01
-6.286439823324e+01
-7.471916019287e+01
-4.899736649404e+01
-1.710002166304e+02
-1.827748727153e+02
-1.005129983787e+02
-1.129543782463e+02
-1.200864796992e+02
-1.258858403830e+02
-6.879717325848e+01
-8.050661313093e+01
-4.833074569968e+01
-5.220196132102e+01
-1.031072715920e+02
-1.889405084504e+02
-1.762581550443e+02
-8.633362914889e+01
-7.834319460929e+01
-7.582475204748e+01
-6.719772150693e+01
-6.956521504393e+01
-6.470583584307e+01
-1.628130731962e+02
-8.689010553797e+01
-6.579778258401e+01
-5.312627935215e+01
-2.015871301283e+02
-1.592423996654e+02
-1.235693475945e+02
-1.304371769773e+02
-1.338677942424e+02
-1.419924967039e+02
-1.454082208981e+02
-1.538788658601e+02
-1.504821250691e+02
-1.724499842454e+02
-1.622098900994e+02
-5.685851089428e+01
-1.454320835764e+02
-7.408096985428e+01
-4.352097907716e+01
-4.295193851213e+01
-5.315480499632e+01
-6.627788221614e+01
-1.988730713919e+02
-1.573439194321e+02
-1.488173806320e+02
-5.769677738960e+01
-6.017744088961e+01
-1.804298899910e+02
-6.445994123440e+01
-5.837494253755e+01
-5.126913144081e+01
-3.907797906067e+01
-3.726476138387e+01
-9.532488782376e+01
-6.255141717241e+01
-5.562950578620e+01
-3.454521007486e+01
-2.999919055959e+01
-7.464153143163e+01
-8.618249549534e+01
-1.327429185745e+02
-1.386643121960e+02
-1.921433213507e+02
-4.958827356360e+01
-9.209091539770e+01
-1.661892441047e+02
-1.543658813243e+02
-1.181891301171e+02
-4.158869235970e+01
-3.803498191104e+01
-7.983914391539e+01
-6.197672932371e+01
-5.814931387080e+01
-2.040161798589e+02
-1.025475266034e+02
-1.589161027066e+02
-1.471916035935e+02
-1.706621934268e+02
-3.729815907258e+01
-2.056541911891e+02
-1.950777454526e+02
-1.602472187975e+02
-1.521699805452e+02
-6.606366463244e+01
-5.886522498706e+01
-4.778620199109e+01
-5.042606446998e+01
-7.333590069266e+01
-6.946980359545e+01
-7.964317406876e+01
-6.990183179783e+01
-6.808719782489e+01
-7.184583342821e+01
-6.236281391013e+01
-7.919716113712e+01
-1.299792425297e+02
-1.267761471185e+02
-1.580892915633e+02
-1.453194891678e+02
-9.317873092128e+01
-9.836263892836e+01
-5.085762515772e+01
-4.471786147310e+01
-4.556597507460e+01
-4.016741730109e+01
-1.397746071766e+02
-2.000224702938e+02
-1.063709484378e+02
-1.149007790077e+02
-1.119406169513e+02
-1.970736983298e+02
-8.655657352296e+01
-1.404324001038e+02
-3.321921972487e+01
-1.240738805693e+02
-3.283042479307e+01
-1.248964667734e+02
-2.078801789109e+02
-2.141502729133e+02
-1.839004678976e+02
-5.112370844157e+01
-1.322469868840e+02
-1.290043883270e+02
-5.747420242440e+01
-5.529104551667e+01
-6.607517511970e+01
-5.329835608981e+01
-8.605912366223e+01
-8.013523390200e+01
-1.698099730155e+02
-1.736018565897e+02
-1.635272118564e+02
-1.557389450319e+02
-1.918830087486e+02
-1.879346393147e+02
-7.075040998765e+01
-4.991984658218e+01
-1.068479733924e+02
-5.968558310349e+01
-2.119451713351e+02
-2.065667532492e+02
-2.606536441224e+01
-2.813972191924e+01
-9.780851069857e+01
-3.964406261297e+01
-4.139861137409e+01
-3.738251071198e+01
-2.347958446548e+02
-2.038624267145e+01
-2.206154172268e+02
-7.408894834397e+01
-1.037296074597e+02
-1.406291551764e+02
-8.333567341605e+01
-1.853175672344e+02
-9.143460204922e+01
-1.037717579514e+02
-4.528348177537e+01
-3.807726960974e+01
-5.232950666225e+01
-3.913968807478e+01
-2.966488801963e+01
-9.218974963875e+01
-8.735561801286e+01
-9.361109418293e+01
-5.518403289453e+01
-6.750727975396e+01
-1.392879441385e+02
-1.332721025845e+02
-1.335339876752e+02
-1.362804134540e+02
-1.270614300986e+02
-1.612094724096e+02
-1.493111991605e+02
-1.425722225818e+02
-1.041969499893e+02
-1.106287572483e+02
-9.169038237754e+01
-8.533459919473e+01
-9.197528550308e+01
-1.139418381209e+02
-2.264887811134e+02
-2.201313701183e+02
-2.785781226790e+01
-3.459734083490e+01
-3.239068205712e+01
-2.997043925967e+01
-1.234096197066e+02
-1.213715529476e+02
-1.272786106157e+02
-6.193767763646e+01
-1.555878583738e+02
-2.082075538104e+02
-2.010821500786e+02
-2.165077730024e+02
-1.757837218704e+02
-1.871393601481e+02
-1.822060953324e+02
-2.321622937173e+01
-9.949204652552e+01
-3.784641194833e+01
-2.111235929429e+01
-3.191736815936e+01
-3.866466427900e+01
-2.544702200742e+01
-4.962350012253e+01
-3.674835158537e+01
-4.655233986501e+01
-2.100724764277e+01
-1.174239830018e+02
-2.101042648341e+01
-2.576202028503e+01
-2.185684728431e+02
-2.129475216272e+02
-2.246020707346e+02
-2.188906792357e+02
-2.071777493114e+02
-2.137505108257e+02
-3.111775192064e+01
-2.271431612691e+02
-2.205256080278e+02
-2.337479148650e+02
-4.053288204443e+01
-5.266284117853e+01
-4.339568417575e+01
-3.189494429847e+01
-1.688905446096e+02
-1.582067274390e+02
-2.015490260597e+02
-1.885031821872e+02
-3.210436267461e+01
-3.125968330208e+01
-4.217428658297e+01
-4.047962731085e+01
-5.135041643540e+01
-4.958020687327e+01
-6.061077956544e+01
-1.851164514601e+02
-3.083005002446e+01
-4.452680280188e+01
-1.993717128801e+02
-1.944771016986e+02
-5.143808701901e+01
-3.783506729434e+01
-2.188876535778e+02
-7.641944639360e+01
-1.268320329238e+02
-1.479946901695e+01
-2.174021867163e+01
-7.989386674150e+01
-6.416140478775e+01
-5.513689077254e+01
-4.586143075919e+01
-1.732076412280e+02
-2.975876616629e+01
-3.492942037467e+01
-6.229298838579e+01
-2.822338440334e+01
-1.955036337942e+02
-8.329191989666e+01
-8.311320032991e+01
-4.480917307207e+01
-6.196471205200e+01
-8.351808120125e+01
-6.258073720149e+01
-6.199063428283e+01
-8.936344154456e+01
-4.771736855171e+01
-3.406595042687e+01
-8.936998471209e+01
-1.090792613209e+02
-1.185993716431e+02
-1.306154623187e+02
-1.284348217052e+02
-1.161492913417e+02
-1.260799682182e+02
-1.379165252627e+02
-1.370338229285e+02
-1.514040500459e+02
-1.463714775692e+02
-1.337184717840e+02
-1.424581450020e+02
-1.542619555497e+02
-1.306809072286e+02
-2.032487691621e+02
-9.058388819620e+01
-2.694281438392e+01
-2.470726282424e+01
-8.549300908434e+01
-1.615920964139e+02
-1.512421749270e+02
-6.891942164015e+01
-1.825083949058e+02
-7.167345450027e+01
-4.922181361156e+01
-1.900838784836e+02
-1.062609983136e+02
-1.033732671746e+02
-9.345323682023e+01
-1.413991883042e+02
-6.030739676392e+01
-2.038354696486e+02
-1.416361885792e+02
-1.337797624172e+02
-1.221096020870e+02
-1.235936461196e+02
-2.160422888744e+02
-2.080512110304e+02
-2.105352223804e+02
-1.989982169632e+02
-2.213713310146e+02
-1.708990714993e+02
-1.753402312456e+02
-7.330012950210e+01
-7.881385947922e+01
-9.070727729089e+01
-8.398448791334e+01
-7.193614181039e+01
-7.711036096975e+01
-8.896658484269e+01
-7.056549660362e+01
-1.473235704405e+02
-2.262958312459e+02
-1.573800850259e+02
-1.507919797420e+02
-1.388202034901e+02
-1.209407641495e+02
-1.273286603308e+02
-1.396660931433e+02
-1.144063284840e+02
-1.386518245814e+02
-2.282288157229e+02
-1.474812281550e+02
-1.213661410908e+02
-2.606272189859e+01
-4.110583864261e+01
-4.632254644073e+01
-5.795408016088e+01
-3.983390156851e+01
-1.453229626032e+02
-1.512859661940e+02
-1.442670289694e+02
-1.569698492403e+02
-1.493975949499e+02
-1.374583195368e+02
-1.622306779518e+02
-1.537550678364e+02
-2.332885022161e+01
-1.698908864244e+01
-2.135231617567e+01
-2.069797909871e+01
-2.694164524272e+01
-2.755209960411e+01
-3.622859294343e+01
-3.416298008121e+01
-2.202055558448e+01
-1.452261849000e+01
-2.022154792142e+01
-1.308127803173e+01
-2.004150649665e+01
-2.945544797117e+01
-4.781943014811e+01
-2.396948981433e+02
-1.169674982466e+02
-1.107680563670e+02
-9.802197325472e+01
-1.054617625038e+02
-1.223224465772e+02
-9.052884407778e+01
-8.606920004399e+01
-6.704394068047e+00
-1.633689051249e+01
-1.547671618019e+01
-2.732466379034e+01
-2.691174879714e+01
-1.674808477797e+01
-1.660666365140e+01
-6.389369955553e+00
-1.671857088277e+01
-2.776616951011e+01
-6.470548817447e+00
-7.567179113659e+01
-8.189680468911e+01
-2.311475125244e+02
-2.362620889608e+01
-1.068460962883e+01
-1.165061786569e+02
-1.215530420238e+02
-1.203086340368e+02
-2.219562179503e+02
-2.279705504208e+02
-1.158282211230e+02
-7.827206808762e+01
-1.415390201702e+02
-9.760449980851e+01
-4.401889654833e+01
-7.401583312012e+01
-1.823135857674e+02
-1.643602451385e+02
-2.078284515244e+02
-1.702395302404e+02
-1.953843031486e+02
-2.123566556823e+02
-4.556504330005e+01
-5.720039801054e+01
-5.087642627890e+01
-8.070601813557e+01
-8.196029515604e+01
-1.318241073344e+02
-5.091210296147e+01
-1.788187224030e+02
-7.768321294445e+01
-1.332457301442e+02
-1.086389865650e+02
-8.497929745002e+01
-6.809301870733e+01
-9.392544321767e+01
-1.275546172984e+02
-1.822835154338e+02
-8.630650250663e+01
-9.879065934779e+00
-1.879718824098e+02
-1.519864993800e+02
-6.575988462690e+01
-1.725179335939e+02
-4.379634023997e+01
-8.830412054067e+01
-1.172253252958e+02
-5.491118900980e+01
-3.805004778994e+01
-4.444743598374e+01
-2.108017514826e+02
-9.972939919074e+01
-7.428406869665e+01
-1.286784340876e+02
-9.145553707290e+01
-3.161366415908e+01
-1.030680123726e+02
-1.175831803940e+02
-1.871171429083e+02
-1.521749246292e+02
-7.942187497627e+01
-2.008982207961e+02
-1.183285511212e+02
-9.997354186504e+01
-1.373814717735e+02
-9.817982691993e+01
-9.837102917937e+01
-1.322491877513e+02
-1.765353276460e+02
-7.588018167461e+01
-1.165337099542e+02
-1.153518028079e+02
-1.170974077939e+02
-1.753412316206e+02
-1.944477556810e+02
-4.312667811560e+01
-7.286972072403e+01
-6.884872655142e+01
-1.654633249499e+02
-1.111622828209e+02
-8.064910138963e+01
-1.950530710854e+02
-1.096434588368e+02
-1.336138010720e+02
-5.285035347074e+01
-3.473200017915e+01
-7.553761353183e+01
-1.141489152000e+02
-1.458932363787e+02
-1.348806819023e+02
-2.013798255591e+02
-1.801770389983e+02
-1.962813532796e+01
-4.757979280245e+01
-2.077748733018e+02
-1.357067179938e+02
-1.838415136618e+02
-1.413713091825e+02
-1.820180172804e+02
-3.912653516410e+01
-2.142898921258e+02
-1.781262102728e+02
-7.285313309383e+01
-2.088107577295e+01
-2.284095570652e+02
-1.900181814242e+02
-1.272118778356e+02
-1.307769617508e+02
-2.695013908947e+01
-1.520083101611e+02
-1.197210085673e+02
-1.366829284597e+02
-1.941640137491e+02
-9.041844880249e+01
-1.456949885634e+02
-1.489333962113e+02
-2.706366325402e+01
-4.219337770346e+01
-1.517416015430e+02
-8.191914670676e+01
-1.374861949252e+02
-1.949773354858e+02
-1.577880397950e+02
-9.366398061809e+01
-1.637750984842e+02
-2.523675221754e+01
-1.005771043249e+02
-1.695417705425e+02
-1.304845731391e+02
-2.982480639649e+01
-1.354533631762e+02
-2.146664594205e+02
-9.769252001218e+01
-1.441186988391e+02
-1.134073771640e+02
-2.384291353741e+01
-1.560521172701e+02
-1.408878216044e+02
-1.438907703775e+02
-1.256515186808e+02
-1.680880470646e+02
-3.681082992382e+01
-7.275752017865e+01
-6.045432901493e+01
-1.007241023961e+02
-1.442383415579e+02
-3.763277985626e+01
-1.207483909825e+02
-4.256540298373e+01
-9.581017365458e+01
-1.641802949117e+02
-5.323619705908e+01
-1.023614576554e+02
-6.528766193665e+01
-9.709550068559e+01
-1.373056355971e+02
-1.033678674564e+02
-9.780884911801e+01
-1.087700149727e+02
-1.037499330802e+02
-1.177476873719e+02
-2.421794854692e+02
-2.988587916761e+01
-2.087283454676e+01
-1.783337714617e+01
-3.588784988782e+01
-8.588178128637e+01
-1.276268286316e+02
-3.036765558853e+01
-7.954779512496e+01
-1.589609207590e+02
-1.973870349668e+02
-7.008759473474e+01
-1.907024933038e+02
-1.523705502296e+02
-9.689030751405e+01
-2.039486276955e+01
-1.969085853900e+01
-1.820313101095e+02
-2.032105880777e+01
-3.173239581924e+01
-2.968152151364e+01
-8.307390951994e+01
-2.717693096855e+01
-2.221099936718e+01
-2.049691953772e+02
-3.340196614991e+01
-1.672324514396e+02
-2.176604835896e+01
-1.205770894831e+02
-1.916305720494e+02
-2.354911352348e+02
-1.791328146635e+02
-2.627009992927e+01
-5.152679170295e+01
-1.750104459245e+02
-7.958972100614e+01
-2.387276813612e+02
-3.393930296630e+01
-1.090236155320e+02
-3.750814844190e+01
-1.085843550415e+02
-1.393337200361e+02
-4.545524183209e+01
-5.873979737972e+01
-2.332849541008e+02
-1.497982499647e+02
-2.367828536577e+01
-6.984593660638e+01
-1.061897264380e+02
-2.182189856141e+01
-2.223351234248e+02
-1.502468507349e+02
-2.307127764006e+02
-2.697835322376e+01
-1.757335272585e+01
-2.207386764120e+02
-1.677444605988e+02
-4.413512584313e+01
-1.278535092848e+02
-1.890350466492e+01
-1.943424821655e+01
-1.678279259425e+01
-2.402732315555e+02
-1.137164979926e+02
-1.168433355596e+02
-3.482827432030e+01
-7.402603611327e+01
-1.753523019623e+02
-2.680417030915e+01
-1.126194933434e+02
-2.173471306852e+02
-1.337969348226e+02
-2.123797156705e+02
-2.127138740928e+01
-1.913154960570e+02
-2.034836406664e+02
-2.006890834240e+01
-1.413053600210e+02
-9.343803122868e+01
-3.821246164617e+01
-1.186265379824e+02
-4.901271971441e+00
-1.922327459267e+01
-2.452836354548e+02
-3.521256444434e+01
-3.860850640829e+01
-1.643876092036e+02
-1.446195335910e+02
-9.049767503421e+01
-3.350153209770e+01
-1.736843228780e+01
-5.939507790303e+01
-1.968687688771e+02
-1.264128249429e+02
-5.178937377244e+01
-2.856974886557e+01
-1.592373306284e+02
-1.268370031275e+02
-1.693203202416e+02
-1.992735853189e+02
-1.412151706644e+01
-1.560855335300e+02
-1.605020813535e+01
-2.285599281982e+02
-1.321681845977e+02

SCALARS node_materi_stress_size_dev_sd_sig float
LOOKUP_TABLE default
7.915206211883e+00
1.555167775880e+01
1.751358598898e+02
9.027672774899e+01
1.541777066695e+01
2.403872385151e+01
3.201210161000e+01
4.065994703369e+01
4.923335057225e+01
5.780839165733e+01
6.643482237167e+01
7.490802577819e+01
8.342105079340e+01
9.248059342224e+01
1.018896224145e+02
1.106681789974e+02
1.186594508310e+02
1.276213379618e+02
1.367007233832e+02
1.453520863704e+02
1.539079863178e+02
1.623911615454e+02
1.703498161446e+02
9.115528495526e+01
9.084697170529e+01
9.121242218589e+01
9.157286622938e+01
9.153895529966e+01
9.249444516716e+01
9.338474516593e+01
9.456509662150e+01
9.656927765411e+01
9.834795983180e+01
1.002494344971e+02
1.030900109344e+02
1.067676806116e+02
1.098032163979e+02
1.138249979790e+02
1.172250756979e+02
1.204399489606e+02
1.243693879455e+02
1.269110902950e+02
1.297217650806e+02
1.323572003693e+02
1.348159743614e+02
1.373161546878e+02
1.397261148970e+02
1.419627850035e+02
1.441978496508e+02
1.466234192809e+02
1.488068965797e+02
1.507563606260e+02
1.531853604715e+02
1.551230302771e+02
1.566842349187e+02
1.586673935794e+02
1.602597001250e+02
1.619029160647e+02
1.634266963314e+02
1.648162660583e+02
1.659470767566e+02
1.670721451584e+02
1.680117365565e+02
1.691971341274e+02
1.704704006836e+02
1.714948662071e+02
1.712549922380e+02
1.729778733822e+02
1.733056627536e+02
1.742797419470e+02
1.751232946099e+02
1.754068159181e+02
1.280576518624e+01
1.356737861786e+01
1.981654535623e+01
2.818701138932e+01
3.784026130306e+01
4.817923811136e+01
5.912319503653e+01
7.055275019847e+01
8.265737276227e+01
1.313679351798e+01
3.004440648267e+01
2.075652961341e+01
2.183896101015e+01
2.174444453130e+01
2.094695816632e+01
2.087559496657e+01
2.114723894277e+01
2.146549382256e+01
2.190706562921e+01
2.350614897741e+01
1.594871052760e+01
1.558540693477e+01
1.560527659253e+01
1.595191672593e+01
1.541682532175e+01
1.593700612760e+01
1.618640111671e+01
1.606167699639e+01
1.586701309787e+01
1.622190977749e+01
1.682211874354e+01
1.808549753291e+01
2.111918812082e+01
2.531192684168e+01
1.334322403061e+01
1.544987975891e+01
1.740101897235e+01
1.751296749994e+01
1.559588421458e+01
1.369607583361e+01
1.132932191205e+01
8.397896182791e+00
5.493411805705e+00
4.199483356464e+00
5.060853512019e+00
6.663044114459e+00
7.301932150101e+00
6.941110350372e+00
7.198355130394e+00
7.484727680301e+00
7.644230380144e+00
7.253368434487e+00
6.556507082145e+00
1.731400535483e+01
2.173046411196e+01
2.181175522954e+01
2.155913403967e+01
2.122818226436e+01
2.095052268396e+01
2.121281881213e+01
2.155878746820e+01
2.240798034864e+01
2.605820464253e+01
2.262959873134e+01
1.558276235643e+02
8.666033533811e+00
9.454494789358e+00
1.629020328118e+02
2.452635986333e+01
9.765790590694e+01
1.478545088258e+02
2.529689757481e+01
1.393934419561e+02
2.725872006140e+01
1.677200915497e+02
1.164006910008e+01
1.298368408673e+02
3.381642037695e+01
6.261690243786e+01
1.218924090984e+02
1.217928322533e+02
1.084819452448e+02
8.680992746066e+01
8.912823067796e+01
9.830349508210e+01
2.330802233698e+01
1.554163129529e+01
1.412369753454e+01
3.291274217369e+01
1.696492562206e+02
9.642104721499e+00
1.284350006878e+01
1.492475896257e+02
1.364730250155e+01
3.628018213287e+01
1.139961909517e+02
1.442075890863e+02
1.348929569993e+02
1.512848209389e+02
1.592130120361e+02
7.968510541224e+00
1.759120425779e+01
1.640317082674e+02
5.336591964702e+01
1.059546725217e+01
7.927565017429e+01
8.764099285474e+01
2.566278616623e+01
2.437020811363e+01
2.618164542464e+01
2.913226076245e+01
1.732707421725e+01
1.675379317052e+01
1.723491260314e+02
1.228668971420e+01
7.592491077119e+01
3.234736851272e+01
3.834135808795e+01
3.450134028428e+01
4.299169863304e+01
4.105742280002e+01
5.005185765947e+01
5.121443780683e+01
5.919864012763e+01
5.969137977839e+01
4.925364719901e+01
6.836297434640e+01
6.835649340459e+01
7.747971376945e+01
7.708680155197e+01
6.832905610070e+01
7.665119773811e+01
6.815539347256e+01
7.617413818098e+01
8.476124471910e+01
8.404553495553e+01
7.571659285941e+01
8.317708326692e+01
7.522743717436e+01
8.150659084890e+01
7.387170487922e+01
7.943885060680e+01
8.691824346778e+01
8.484727083411e+01
7.755641275036e+01
8.282728426877e+01
7.569183310898e+01
8.073140614698e+01
8.733568104070e+01
8.508642243687e+01
7.847268054626e+01
8.270536914908e+01
7.603141028720e+01
8.019595129139e+01
7.339771149671e+01
7.751568961751e+01
8.505246839061e+01
8.241165605773e+01
7.471806150524e+01
7.959289821073e+01
8.760949241467e+01
8.466078228279e+01
9.257757105993e+01
8.951650869876e+01
8.157739756993e+01
8.629562255482e+01
9.418273929302e+01
9.086699624008e+01
8.293040400175e+01
8.741022396276e+01
9.533088865362e+01
9.181306813309e+01
8.383105052057e+01
8.814699656542e+01
9.611449560615e+01
9.237497382970e+01
8.435372337151e+01
8.849248357493e+01
9.651651497914e+01
9.256165824469e+01
1.005530819817e+02
8.442219368222e+01
8.843024731600e+01
8.020419789556e+01
8.417757731014e+01
9.210441665507e+01
7.589766900034e+01
7.203666167225e+01
7.983132644276e+01
8.817012095795e+01
7.147286496317e+01
7.534039744721e+01
6.686274912138e+01
6.896314357444e+01
9.243704420129e+01
7.062638534154e+01
6.192800468655e+01
5.824318684291e+01
5.315912445488e+01
4.044601834260e+01
4.910101373776e+01
3.976406292004e+01
4.987931799522e+01
4.092245792780e+01
5.672277910163e+01
7.797196644648e+01
5.948705776946e+01
6.766627021029e+01
7.024382257570e+01
9.547231136464e+01
7.917675298604e+01
7.434271214878e+01
8.302165640805e+01
1.044022411885e+02
1.084461650227e+02
1.122623728331e+02
1.163294773619e+02
1.201117569854e+02
1.242123259666e+02
1.203778721233e+02
1.283169260050e+02
1.244412169428e+02
1.279518147247e+02
1.237701580756e+02
1.324261737203e+02
1.285075006191e+02
1.365203526459e+02
1.325574466520e+02
1.244794344030e+02
1.284696518093e+02
1.203593945662e+02
1.002787173259e+02
1.030878147248e+02
1.078872016997e+02
1.106767944541e+02
1.154801072887e+02
1.182444364203e+02
1.230391970357e+02
1.201669984092e+02
8.641277845856e+01
7.175319772120e+01
6.757960088261e+01
6.443113282948e+01
6.063522553917e+01
5.736598498841e+01
5.364093686347e+01
5.031244997914e+01
5.388710942983e+01
4.674664524399e+01
5.024515500955e+01
4.298413519228e+01
4.646387230448e+01
9.165775300570e+01
1.133170543549e+02
1.208654986328e+02
1.157851854977e+02
4.952147622544e+01
1.365848286540e+02
1.315720438658e+02
1.272974552818e+02
1.277266808628e+02
4.798446851466e+01
4.659772314042e+01
4.958476128645e+01
5.168906429214e+01
4.317406238847e+01
1.350900781572e+02
5.148769373762e+01
1.362553300238e+02
3.958312370117e+01
1.324334575696e+02
1.406045816056e+02
1.164632044938e+02
1.233572150621e+02
1.181279116759e+02
5.425236921667e+01
5.055453083984e+01
4.280403214199e+01
4.729925315459e+01
5.518419841470e+01
5.129368210381e+01
4.310628719002e+01
4.748652083845e+01
5.580269587823e+01
5.183100508794e+01
4.349926765491e+01
4.767976458114e+01
1.446678749593e+02
3.546044145471e+01
6.023339946818e+01
1.393629785824e+02
1.304917924474e+02
5.457581426930e+01
4.657011258571e+01
3.576080849310e+01
3.964419910229e+01
5.098557699053e+01
4.435387316821e+01
3.378095052546e+01
3.859457893991e+01
2.880865797971e+01
3.360244734895e+01
4.398898173012e+01
3.899480620447e+01
2.923389213356e+01
3.445820559438e+01
2.526414386577e+01
3.019912602571e+01
4.008908735417e+01
4.306337591911e+01
1.247819457252e+02
1.324174414083e+02
7.820088580506e+01
8.658551767600e+01
9.157689870850e+01
9.538573357082e+01
3.555864167171e+01
4.604352337533e+01
4.259357326676e+01
4.522022953295e+01
6.353605149645e+01
1.364225705087e+02
1.281984129682e+02
6.847698918732e+01
6.299932532621e+01
6.128905918108e+01
5.540915207902e+01
5.700639065571e+01
5.371866391981e+01
1.194747838469e+02
4.989407386760e+01
5.450883386251e+01
4.587442566692e+01
1.446235997010e+02
1.171574406952e+02
9.386912521999e+01
9.844837772702e+01
1.006784296590e+02
1.059613167164e+02
1.081763616355e+02
1.136722448936e+02
1.114669600474e+02
1.257156437475e+02
1.190719366771e+02
2.599466064893e+01
1.081969659630e+02
6.015968747225e+01
3.933428996822e+01
3.895612623910e+01
4.586347124754e+01
5.481536503209e+01
1.428590053797e+02
1.159189158331e+02
1.103866917735e+02
4.894947570939e+01
5.063427910265e+01
1.308918334086e+02
3.168065930684e+01
2.480266046083e+01
2.077546677664e+01
3.632363003450e+01
3.509207242212e+01
5.613478215952e+01
5.226303922251e+01
4.755261205024e+01
3.082596076439e+01
2.514224428623e+01
4.106579140449e+01
5.186652133283e+01
9.997504501081e+01
1.037756934756e+02
1.384941600093e+02
4.346934088083e+01
5.723934219520e+01
1.216627443003e+02
1.139958089870e+02
8.963738340354e+01
3.800924787889e+01
3.531122676214e+01
6.408920956887e+01
5.190639440624e+01
4.927306469077e+01
1.461931487879e+02
6.330043806160e+01
1.169378911572e+02
1.093348200128e+02
1.245555249374e+02
3.511429114076e+01
1.472567312867e+02
1.404030201415e+02
1.178034437991e+02
1.125615205269e+02
5.465194960593e+01
4.975361435964e+01
4.221720940919e+01
4.400755045704e+01
5.196509569664e+01
5.696624440009e+01
6.031883946216e+01
5.359045722487e+01
5.402122428846e+01
5.854578555369e+01
5.209049498976e+01
6.362353160697e+01
9.816611325753e+01
9.605386451341e+01
1.164140680311e+02
1.081308700599e+02
5.543525897066e+01
6.179249281706e+01
2.093262073941e+01
1.770907072025e+01
4.072706655334e+01
3.705009769751e+01
1.045359555384e+02
1.436055108476e+02
6.684115763370e+01
7.627379377952e+01
7.311780034908e+01
1.416910843724e+02
6.867308315304e+01
1.049589497135e+02
3.071698970387e+01
9.423950699514e+01
3.177112020476e+01
9.352548569230e+01
1.487044952691e+02
1.527705568185e+02
1.331409321085e+02
4.129957682491e+01
9.964394359591e+01
9.752362554732e+01
4.774922177164e+01
4.706283354054e+01
5.372292252348e+01
4.594548212585e+01
6.833721137804e+01
6.429306134525e+01
1.240041635169e+02
1.264600116923e+02
1.199338060216e+02
1.148774329573e+02
1.383196280847e+02
1.357589003010e+02
5.786911178386e+01
4.362868279264e+01
6.877047769566e+01
4.789166907959e+01
1.513376711917e+02
1.478497969158e+02
1.843314506667e+01
2.474571482752e+01
6.356399456260e+01
3.656175900079e+01
3.776821634993e+01
3.503937176749e+01
1.661604076979e+02
1.368032887987e+01
1.569635240499e+02
5.986130755336e+01
6.932331770906e+01
1.050803172399e+02
6.643309412780e+01
1.340671402497e+02
5.741081597862e+01
7.033996546044e+01
1.814737861612e+01
1.552040684420e+01
2.166028030353e+01
3.578504246813e+01
2.463309110953e+01
5.606879640835e+01
6.921040514123e+01
7.335702357148e+01
4.727947906232e+01
5.567704739885e+01
1.042215236011e+02
1.003201166453e+02
1.001690059411e+02
1.017326221241e+02
9.617785971976e+01
1.184342219462e+02
1.107186175043e+02
1.063480118042e+02
6.771002596347e+01
7.576070139702e+01
7.218319392597e+01
6.784083257243e+01
7.237942790518e+01
7.653435290669e+01
1.607727202143e+02
1.566493319312e+02
2.779000419357e+01
3.315798805810e+01
3.017176406913e+01
2.659266345711e+01
8.590635283835e+01
8.334038665697e+01
9.105250127921e+01
5.186456639249e+01
1.147801184794e+02
1.489109960812e+02
1.442899360690e+02
1.542954502485e+02
1.278784558545e+02
1.352438007701e+02
1.320422599883e+02
1.349822524957e+01
6.617472242170e+01
1.488168338835e+01
8.831530180395e+00
1.337404971566e+01
1.501345884222e+01
1.311948492005e+01
4.348613309181e+01
1.659480698982e+01
2.018139967301e+01
2.136301752788e+01
8.224137799045e+01
2.274376183589e+01
2.671931851078e+01
1.556332162927e+02
1.519885489768e+02
1.595467426778e+02
1.558440728228e+02
1.482472958784e+02
1.525097016196e+02
1.392888373336e+01
1.611963275215e+02
1.569032044054e+02
1.654777372064e+02
3.725004282294e+01
4.552488329960e+01
3.914958543048e+01
3.113289121930e+01
1.234097395778e+02
1.164806835247e+02
1.445992405430e+02
1.361392596599e+02
1.299745210600e+01
1.271591818872e+01
1.674508343264e+01
1.595946406994e+01
2.264472126400e+01
2.157123329995e+01
2.970814173599e+01
1.339330757082e+02
3.029804904327e+01
3.997639899513e+01
1.431759122558e+02
1.400049643042e+02
4.467151364861e+01
3.532805298298e+01
1.558410292012e+02
6.172306497455e+01
9.281932906442e+01
1.065635505263e+01
1.289514022011e+01
6.408746591641e+01
5.305733734269e+01
4.721160784817e+01
4.084414951400e+01
1.262144458001e+02
2.945936071887e+01
3.299236715537e+01
3.057486166340e+01
2.671704532537e+01
1.406781879423e+02
6.641737050682e+01
6.623557391042e+01
4.019766074813e+01
5.185924515939e+01
5.997960323142e+01
4.455747045093e+01
4.659334264176e+01
7.056794958956e+01
4.213075705747e+01
3.272184946109e+01
6.792784858983e+01
7.090888163032e+01
8.117568245508e+01
9.346538318372e+01
9.160678280384e+01
7.982550484831e+01
8.983148085121e+01
1.013595397252e+02
1.003328979704e+02
1.118543124925e+02
1.082786457934e+02
9.829180683279e+01
1.055785778822e+02
1.139049046075e+02
9.643914733131e+01
1.456889622050e+02
7.139235158460e+01
1.938489601598e+01
1.795045788214e+01
6.735200658411e+01
1.186737958536e+02
1.119358222500e+02
5.661184256332e+01
1.322455503231e+02
5.255066120243e+01
4.320280186459e+01
1.371599275115e+02
6.952236670974e+01
6.871989064048e+01
5.874648101503e+01
1.049648197608e+02
2.657777132269e+01
1.460781885192e+02
1.057365990622e+02
1.006406335737e+02
9.293655449322e+01
8.859531244247e+01
1.539940363074e+02
1.488123498914e+02
1.504244407512e+02
1.429378113453e+02
1.574511809701e+02
1.247197217692e+02
1.275992255482e+02
5.962561256714e+01
6.338795313302e+01
7.151034831427e+01
6.691947510960e+01
5.869622730836e+01
6.222545268032e+01
7.032168789550e+01
5.775600912741e+01
1.093982644754e+02
1.606468108025e+02
1.159519068068e+02
1.116794570563e+02
1.039160325665e+02
9.215544876991e+01
9.642126087325e+01
1.044663039581e+02
8.771025460692e+01
1.037937110439e+02
1.619011432881e+02
1.095307037931e+02
9.244183932985e+01
1.971645728715e+01
2.325029166502e+01
2.908605272508e+01
3.097222922587e+01
2.014494247834e+01
1.081356058483e+02
1.120025834677e+02
1.071675969619e+02
1.155580688468e+02
1.101662277916e+02
1.022519686440e+02
1.187638344284e+02
1.128835165591e+02
1.656326651768e+01
8.393758369498e+00
1.467061053334e+01
1.626239146768e+01
2.655333155944e+01
2.594061786043e+01
3.438156139986e+01
3.265757356420e+01
1.306695439872e+01
7.776750883622e+00
1.779553491511e+01
8.144681034295e+00
1.889867249183e+01
2.920429539669e+01
4.226836723725e+01
1.693376440307e+02
8.799560565377e+01
8.410278752507e+01
7.575457799422e+01
8.094086502717e+01
9.186009350258e+01
7.103856991803e+01
6.817442432903e+01
1.287072134555e+01
2.113464160479e+01
2.077312180901e+01
2.841894601450e+01
2.814063132538e+01
2.132719922144e+01
2.125112216343e+01
1.260261256889e+01
2.134461677226e+01
2.869243204265e+01
1.235428641405e+01
4.299598773467e+01
4.877605172947e+01
1.637956688506e+02
1.483264366837e+01
9.658484256862e+00
8.408459667676e+01
8.859298890271e+01
8.775464992511e+01
1.578339841963e+02
1.617331459389e+02
8.392843451180e+01
6.301955879277e+01
1.038510464947e+02
6.251510868980e+01
3.966096198928e+01
6.011687813321e+01
1.321260943881e+02
1.204800397715e+02
1.486708735385e+02
1.242947639492e+02
1.405995986473e+02
1.516025235939e+02
4.071827260199e+01
2.455585317768e+01
2.154629172832e+01
4.479807338661e+01
6.552937591704e+01
9.890445784326e+01
4.436130135194e+01
1.298540896970e+02
6.028987589167e+01
1.003012997640e+02
8.376770789235e+01
6.760113349950e+01
5.607566670519e+01
7.367304275698e+01
9.657109045411e+01
1.321021081160e+02
5.091928923178e+01
1.270556681682e+01
1.357906341237e+02
1.124550134894e+02
2.970727705003e+01
1.257630083610e+02
3.953142407809e+01
4.966401384999e+01
7.957347284727e+01
2.495292918308e+01
3.556892304160e+01
1.745621265281e+01
1.505943766879e+02
6.101858860677e+01
6.028540690551e+01
9.731202545493e+01
7.195680820748e+01
3.110497289693e+01
6.795639989449e+01
8.987334446752e+01
1.352315547809e+02
1.125735516413e+02
6.379064839073e+01
1.441742380507e+02
9.038517683149e+01
6.177946301743e+01
1.029553578829e+02
7.661568018595e+01
5.844606631782e+01
9.965459523907e+01
1.283664628665e+02
6.018714088000e+01
8.911160965992e+01
8.555820499132e+01
8.950263901844e+01
1.275381839180e+02
1.399906299275e+02
3.907576727589e+01
5.927998564773e+01
3.300771327999e+01
1.211854495847e+02
7.461080672729e+01
6.456031955822e+01
1.403840292528e+02
7.104354691129e+01
1.005412490392e+02
4.568086816239e+01
3.148361512953e+01
6.114491473818e+01
8.752744868417e+01
1.085039802436e+02
9.841027513311e+01
1.444873742321e+02
1.307342546151e+02
2.043358097069e+01
4.134018029509e+01
1.486348787679e+02
1.018952032114e+02
1.331062209672e+02
1.046180043804e+02
1.319286601813e+02
3.625998934811e+01
1.528601632483e+02
1.294031248308e+02
5.929286993250e+01
1.352707810702e+01
1.620184406409e+02
1.371147566839e+02
9.632373798207e+01
9.869019935137e+01
2.796831122833e+01
1.124699540779e+02
9.110431821296e+01
1.018627031667e+02
1.398035034048e+02
5.869183815283e+01
1.083764368376e+02
1.104664126935e+02
2.824312134229e+01
3.839973075893e+01
1.122982589438e+02
6.550746161256e+01
1.030503478116e+02
1.403243009403e+02
1.162199705679e+02
7.353046005127e+01
1.201031935923e+02
2.669610266587e+01
6.840660282489e+01
1.238428299352e+02
9.836973506303e+01
2.997311256777e+01
1.017221165983e+02
1.531055495838e+02
7.628636555695e+01
1.073518327702e+02
7.873836534663e+01
2.566304505299e+01
1.150902513644e+02
1.052247596853e+02
1.071950575514e+02
9.530365697225e+01
1.228950773970e+02
3.456869860520e+01
5.925794295452e+01
5.086892264692e+01
7.835477133827e+01
1.073985340104e+02
3.536488127910e+01
8.746697682949e+01
3.870153808646e+01
7.499714953302e+01
1.203533945499e+02
2.429350576612e+01
7.947462936329e+01
5.414599975788e+01
7.587586070674e+01
1.029262103951e+02
8.016352610945e+01
7.636468650545e+01
7.481932556223e+01
8.042592704400e+01
8.571661311333e+01
1.709500310268e+02
1.242830387992e+01
2.363935668981e+01
9.302040530792e+00
3.392812145952e+01
6.821752494597e+01
9.482450296790e+01
1.252604346482e+01
6.389272886865e+01
1.169561611326e+02
1.418943439170e+02
3.790148123255e+01
1.375573782025e+02
1.126942937122e+02
6.374103027291e+01
1.443377987474e+01
1.923310121473e+01
1.318355940765e+02
2.332392760871e+01
3.099145826420e+01
2.910796476666e+01
6.623714189212e+01
2.726662640158e+01
2.453841809002e+01
1.468105430999e+02
1.529770869817e+01
1.223315179927e+02
2.370814134148e+01
8.461812600482e+01
1.381561381925e+02
1.666118818638e+02
1.300486667479e+02
2.318819262755e+01
2.550792670806e+01
1.273833454194e+02
4.588072706323e+01
1.687097015372e+02
1.760353981843e+01
7.600925390103e+01
3.525128611659e+01
7.596167730579e+01
1.035886036324e+02
1.839522792186e+01
3.437062043653e+01
1.651804638043e+02
1.109287888013e+02
1.873733041617e+01
3.711263666799e+01
8.181647329264e+01
1.018128362544e+01
1.580784251080e+02
1.112958363437e+02
1.635134511312e+02
2.817845348042e+01
1.902962153854e+01
1.570430605019e+02
1.226735630519e+02
3.974900130314e+01
9.488926996705e+01
1.364047541106e+01
1.538452456753e+01
2.066349682400e+01
1.697116056013e+02
7.898649108924e+01
8.828655437635e+01
2.821636355205e+01
6.010730549657e+01
1.276031879328e+02
2.713974375663e+01
7.876536552400e+01
1.548421593970e+02
9.802326518525e+01
1.516172650068e+02
1.027778586001e+01
1.379566287490e+02
1.458496863872e+02
1.417741519550e+01
1.045039533484e+02
7.301682090811e+01
3.575224096297e+01
8.696380020317e+01
1.150765656253e+01
1.418899532394e+01
1.729643479933e+02
3.372622778285e+01
1.504692887308e+01
1.204954695858e+02
1.067339992395e+02
5.720633500512e+01
3.254583992443e+01
1.075856569126e+01
2.894511894175e+01
1.415575987918e+02
9.127610657069e+01
2.258974555256e+01
2.342040635549e+01
1.171547683234e+02
9.505442448684e+01
1.236941355760e+02
1.431208197239e+02
1.399899494516e+01
1.143979946912e+02
1.914138837572e+01
1.621169938566e+02
9.856930603032e+01

SCALARS node_materi_strain_total_average_a_ept float
LOOKUP_TABLE default
3.374782167311e-04
4.371064348846e-03
2.481508283118e-03
5.826809303697e-03
2.947672898150e-04
3.380183053705e-04
4.509074295094e-04
5.973174469699e-04
7.286659461403e-04
8.586245479609e-04
9.823102483718e-04
1.086752892807e-03
1.190638938858e-03
1.301917862785e-03
1.418441338057e-03
1.531213242736e-03
1.636228359050e-03
1.749668863082e-03
1.869886767513e-03
1.995404819274e-03
2.130734196476e-03
2.268500440776e-03
2.404439399593e-03
5.836479931095e-03
5.826071510139e-03
5.822302690905e-03
5.813848699210e-03
5.790806416521e-03
5.777827678502e-03
5.744108618698e-03
5.704646917449e-03
5.647622189247e-03
5.597924733682e-03
5.500583901059e-03
5.403084964788e-03
5.265142239584e-03
5.131806964595e-03
4.963984033328e-03
4.808610022676e-03
4.675007056268e-03
4.534651712866e-03
4.439792712094e-03
4.334641172585e-03
4.225358639855e-03
4.122767154945e-03
4.020019881488e-03
3.920704506868e-03
3.834299749019e-03
3.750977309380e-03
3.653161990261e-03
3.569698044453e-03
3.483771158129e-03
3.402657288312e-03
3.317755274045e-03
3.231676819454e-03
3.151078531465e-03
3.094082627001e-03
3.031320209953e-03
2.968396215279e-03
2.918549885276e-03
2.862898424445e-03
2.813737574754e-03
2.762678206832e-03
2.722402542428e-03
2.695643655305e-03
2.663020924918e-03
2.606467175688e-03
2.591219787721e-03
2.553437976968e-03
2.526999654381e-03
2.510690278890e-03
2.496118587791e-03
4.465479931479e-03
4.615804614851e-03
4.766031523566e-03
4.915696531722e-03
5.069962522970e-03
5.226724318590e-03
5.384724192288e-03
5.548851868522e-03
5.707708676116e-03
-1.360358870271e-04
3.958415645313e-03
9.856450141146e-05
5.346828752564e-04
1.012401778914e-03
1.479755480004e-03
1.955086540127e-03
2.421609089823e-03
2.876281527355e-03
3.325141037890e-03
3.729314871888e-03
4.372307599447e-03
4.375994176035e-03
4.373285723869e-03
4.368245027989e-03
4.384545287467e-03
4.371285500959e-03
4.366825933844e-03
4.370360266990e-03
4.373273226243e-03
4.364727630314e-03
4.354609850648e-03
4.322780862940e-03
4.275188209164e-03
4.178170630601e-03
-1.805856303541e-04
-2.370928074890e-04
-2.733281158473e-04
-2.738783410641e-04
-2.469318775570e-04
-2.169084643896e-04
-1.732845600919e-04
-1.189082504995e-04
-5.919045546961e-05
-4.683114477334e-06
4.308736467724e-05
6.915690433863e-05
1.301920649049e-04
2.573056833941e-04
3.625740975991e-04
3.398183680343e-04
3.450455011109e-04
3.836562437186e-04
3.753364307197e-04
-5.102057704699e-05
3.048043742751e-04
7.724822722054e-04
1.254389520353e-03
1.718646077770e-03
2.200627200750e-03
2.653857301081e-03
3.107320642027e-03
3.540753361777e-03
3.858428609186e-03
4.935019832764e-04
3.075720637918e-03
4.605319368726e-05
-1.190459597995e-04
2.790182001709e-03
1.410552696751e-03
1.362704176339e-03
3.380960566028e-03
2.271603710072e-03
3.744198470370e-03
3.153684337968e-03
2.627682356528e-03
1.854657877792e-04
4.131796064243e-03
3.804711651339e-03
9.238362540152e-04
1.673985501128e-03
4.438160580427e-03
4.990581232280e-03
5.690822053916e-03
5.564557405598e-03
5.356187497437e-03
4.244301669273e-03
4.402908674296e-03
4.437731939386e-03
4.994033921221e-03
2.516856354324e-03
-9.008315044788e-05
2.967807740367e-04
2.067033045383e-03
4.434284761554e-03
5.236983182520e-04
4.684740250709e-03
3.572069687095e-03
3.926110492452e-03
3.223992970205e-03
2.951441184277e-03
-5.554455880109e-05
4.355644895238e-03
2.671695234967e-03
5.299998120121e-03
1.132120185293e-04
1.135333486496e-03
5.746873699622e-03
1.842127806695e-03
9.442088500964e-04
2.715043971838e-03
3.552671933058e-03
1.015944816146e-04
4.703331056467e-03
2.486460694858e-03
3.356930690852e-04
5.622368247250e-03
3.976041169761e-03
3.845119057868e-03
4.034590212516e-03
3.925837070120e-03
4.102797664961e-03
4.019397084623e-03
3.835104123214e-03
3.941253952827e-03
3.754379843641e-03
4.189183438451e-03
3.866798323808e-03
3.680982824152e-03
3.795489280210e-03
3.610682270495e-03
3.491509834715e-03
3.424462310650e-03
3.301251401848e-03
3.236474112043e-03
3.361929240451e-03
3.175240772478e-03
3.045925366491e-03
2.991321146421e-03
2.855598805901e-03
2.821445594786e-03
2.678875542345e-03
2.654879860087e-03
2.803830904305e-03
2.636766527962e-03
2.481331265017e-03
2.467929476341e-03
2.307018790247e-03
2.301211389202e-03
2.484607142852e-03
2.323781032488e-03
2.138478199164e-03
2.167181053305e-03
1.981922431922e-03
2.015633712474e-03
1.832652505377e-03
1.868311161536e-03
2.021424995606e-03
1.872929166451e-03
1.724148226621e-03
1.729180841344e-03
1.866366590398e-03
1.726931580807e-03
1.868327760343e-03
1.733579838198e-03
1.594215109783e-03
1.605217301583e-03
1.746087340685e-03
1.620936604417e-03
1.482688784349e-03
1.502027417174e-03
1.640411052666e-03
1.524529066781e-03
1.388164513460e-03
1.413977759570e-03
1.552057356724e-03
1.443379051999e-03
1.306858491207e-03
1.338864176926e-03
1.477013476040e-03
1.374323890702e-03
1.513549644227e-03
1.236863063846e-03
1.275276566331e-03
1.138119050548e-03
1.179768328284e-03
2.492269877320e-03
1.043463630642e-03
1.003123483742e-03
1.088046324663e-03
1.224476503552e-03
9.530849074368e-04
1.001768456355e-03
8.703843694230e-04
1.802614163416e-03
3.304517205780e-03
9.242232287719e-04
8.005152533574e-04
7.441637789520e-04
6.806085509662e-04
4.252403007561e-03
4.354399339122e-03
4.407728441752e-03
4.513859563488e-03
4.553355606142e-03
7.413599304193e-04
3.979043939147e-03
4.464766601173e-03
2.917766382679e-03
2.327842263137e-03
2.008963328919e-03
1.052839449256e-03
9.811663233950e-04
1.104309766890e-03
1.617821595672e-03
1.654310412071e-03
1.760280323855e-03
1.796280929847e-03
1.904035666561e-03
1.938976914645e-03
1.832991658271e-03
1.973673636509e-03
1.869146960206e-03
2.048726099198e-03
2.015865920526e-03
2.007555890873e-03
1.904790503640e-03
2.040936310444e-03
1.941038872880e-03
1.805866920526e-03
1.844872741297e-03
1.711509617201e-03
2.013734798674e-03
2.156251763171e-03
2.160162158986e-03
2.304093615208e-03
2.308460408953e-03
2.453483057467e-03
2.458007902595e-03
2.317587350502e-03
3.724563066685e-03
1.586153989816e-03
1.553740119242e-03
1.423587160827e-03
1.377078970744e-03
1.251658639019e-03
1.203818784029e-03
1.078919297855e-03
1.133501072659e-03
9.620282030759e-04
1.021150043559e-03
8.523766767487e-04
9.122272419696e-04
2.811764900013e-03
2.453483865841e-03
2.604566531263e-03
2.607295309222e-03
6.222189844344e-04
1.979542657683e-03
2.162942713353e-03
2.131184985272e-03
2.468703088747e-03
6.246857269887e-04
1.033902077023e-03
1.169103495522e-03
4.667427829083e-03
4.693573824713e-03
2.281229348497e-03
6.873486395149e-04
2.114389149705e-03
7.925448924328e-04
1.885752596909e-03
2.018574293470e-03
1.730887710995e-03
2.760434766439e-03
2.764406396125e-03
1.062558320277e-03
9.495297474277e-04
8.064699643896e-04
8.348630264360e-04
9.693499233817e-04
8.624980951891e-04
7.346316869057e-04
7.509825038575e-04
8.803370139715e-04
7.742518852675e-04
6.434308072935e-04
6.722253230063e-04
2.112939614687e-03
6.789290591752e-04
3.369161176773e-03
2.310087828518e-03
2.608005169488e-03
4.818081627157e-03
4.830922954176e-03
4.708257521546e-03
4.832516384549e-03
4.966567770766e-03
4.956386873034e-03
4.823292546882e-03
4.936937665543e-03
4.803401428014e-03
4.908581914184e-03
5.051266035905e-03
5.014712607978e-03
4.871596653229e-03
4.971505543755e-03
4.827228068500e-03
4.921747869360e-03
5.072121086406e-03
5.729642187645e-04
2.330121579610e-03
2.482605990910e-03
1.044177812457e-03
1.157397093860e-03
1.231174931695e-03
1.283105902496e-03
5.016421722514e-03
5.172310970154e-03
1.002676026162e-03
1.148358836500e-03
4.794384868997e-03
1.927175935704e-03
1.796044895999e-03
2.150019557730e-03
2.171628046832e-03
1.990299035733e-03
2.022204326575e-03
2.213666642786e-03
1.834779666524e-03
1.982919171364e-03
5.164522863219e-03
6.916766541286e-04
5.682162031884e-04
2.058868309329e-03
2.180555998451e-03
2.973327260896e-03
2.984858201949e-03
3.144871487258e-03
3.128418251267e-03
3.290357887508e-03
3.267116753450e-03
3.105742146799e-03
2.920369919428e-03
3.246832658628e-03
4.864584239336e-03
2.455698094242e-03
9.067942413475e-04
5.108866655904e-04
5.422806806646e-04
6.422986698832e-04
7.561487304738e-04
2.430617198909e-03
3.430068354544e-03
3.449118133991e-03
2.088473448692e-03
2.276679325771e-03
2.914323749877e-03
4.455826229346e-03
4.700417068596e-03
4.678286519579e-03
5.213772482279e-04
5.218265402594e-04
5.099897096709e-03
1.312039038279e-03
1.304824925325e-03
5.876467476311e-04
4.508239152438e-04
5.110648474259e-03
5.268062903378e-03
1.361338047490e-03
1.406315918266e-03
2.405660547353e-03
5.720829752288e-04
5.330397891421e-03
2.198370255582e-03
2.049532137234e-03
1.222745974400e-03
9.967231544325e-04
8.410215060450e-04
1.012242198796e-03
7.043060993128e-04
7.089008314360e-04
2.557051549069e-03
5.111701565431e-03
3.083885100443e-03
2.939050159924e-03
3.229747070044e-03
4.417895072885e-04
2.459023734195e-03
1.969126739998e-03
3.585788245471e-03
3.610293408734e-03
1.464300690718e-03
1.471258234246e-03
1.329349463937e-03
1.512604456932e-03
3.641091016890e-03
1.627948919679e-03
3.178758385773e-03
3.246865911356e-03
3.053725408846e-03
2.400299006411e-03
2.467276429309e-03
1.510598158988e-03
2.155332339328e-03
1.316292412116e-03
1.671779047011e-03
1.725862794589e-03
5.201834051422e-03
5.321713737727e-03
4.733809800561e-03
4.687010490145e-03
5.042082250263e-04
4.509324397524e-04
1.552340657662e-03
2.337440618260e-03
4.955988377046e-03
4.933433472731e-03
4.760896168055e-03
2.532810563149e-03
1.453483664320e-03
2.021535857727e-03
5.631072512683e-04
2.655704132355e-03
3.864334444557e-04
3.485001317579e-03
2.099928925973e-03
2.190407957301e-03
3.072705508893e-03
3.613347449774e-03
2.635451265099e-03
2.472885675235e-03
3.147960310446e-03
2.967538351641e-03
2.865100530179e-03
2.778516797075e-03
1.039873752059e-03
9.374923941971e-04
3.585510277893e-03
3.392006754358e-03
3.754753258851e-03
3.783730037908e-03
3.068631573022e-03
2.915142765199e-03
8.222297839106e-04
2.369180404269e-03
5.254063818617e-03
3.327233653894e-03
2.480467637563e-03
2.367753379006e-03
3.002252538482e-04
4.278236644885e-04
5.429672577196e-03
1.360216734406e-03
1.554741690534e-03
1.172348146119e-03
2.338005476373e-03
4.435343475254e-03
2.232126229602e-03
2.590118189531e-03
5.494748463693e-03
2.616885929795e-03
1.973287291115e-03
2.378173229745e-03
5.352472225757e-03
5.530455146071e-03
4.588063403191e-03
4.552757981066e-03
4.597224145112e-03
7.278254219213e-04
4.869342261153e-04
5.276702849567e-03
9.216169479923e-04
1.002010902928e-03
6.089008455666e-04
7.393307487794e-04
1.448869726877e-03
1.405809157269e-03
3.456579715591e-03
3.631610561076e-03
3.129902577151e-03
2.071219384728e-03
1.924407725490e-03
1.904054145750e-03
5.358243563563e-03
5.495969088624e-03
1.145743768298e-03
1.121726515734e-03
1.069323081708e-03
5.268201384114e-03
2.323913198322e-03
2.282432252765e-03
3.264728106006e-04
3.983603886773e-04
8.099457544602e-04
6.308864843321e-04
4.898475997219e-03
4.715030995255e-03
5.086845636098e-03
7.646548567279e-04
2.925298617171e-03
2.684682943399e-03
2.669456412322e-03
2.732897375975e-03
3.075887706446e-03
3.216256047750e-03
3.372260506759e-03
1.819247493941e-04
5.484896145815e-03
4.594083330976e-03
5.305921886671e-05
4.545155312662e-03
4.631906668562e-03
4.478770150542e-03
6.401133482477e-04
4.481514008853e-03
4.497427846923e-03
2.370801704670e-04
5.423144406976e-03
2.686507814915e-04
3.287002575820e-04
2.516042372090e-03
2.397854488656e-03
2.538422549106e-03
2.420868930200e-03
2.283858666303e-03
2.317545717356e-03
4.508759333258e-03
2.477984062516e-03
2.353282913898e-03
2.519047906895e-03
2.942904328838e-03
1.696786646642e-03
1.754811323421e-03
1.612015353598e-03
3.944431389795e-03
3.945099588847e-03
2.014339871872e-03
1.881331736373e-03
4.563616563001e-03
4.562315144290e-03
4.692836961323e-03
4.681669574131e-03
4.815054958134e-03
4.799548107888e-03
4.937393469351e-03
3.552605301927e-03
1.154705228898e-03
3.307658567861e-03
3.063661576232e-03
2.905448089918e-03
2.575486053512e-03
2.520249097292e-03
2.628402172087e-03
1.630489630123e-03
5.433691614680e-03
-5.079615014868e-05
1.777718877956e-04
1.794779136061e-03
2.669876137794e-03
1.887810229641e-03
1.972861329601e-03
2.223142312267e-03
3.511879491542e-04
9.919864930809e-04
4.945626689104e-03
7.397321915538e-04
1.933786682063e-03
1.651330373489e-03
2.537194284676e-03
1.159710702211e-03
1.651900561410e-03
3.563840219373e-03
3.734463863140e-03
3.509709654788e-03
1.689535776393e-03
2.177056696958e-03
2.069232147509e-03
3.110966869643e-03
4.586175489161e-03
4.533307535490e-03
4.653260878499e-03
4.470506493224e-03
4.348113625935e-03
4.283341888667e-03
4.418863049738e-03
4.204956025577e-03
4.356407226131e-03
4.156263928391e-03
4.022477724619e-03
3.979976877071e-03
4.102561089532e-03
3.836263300249e-03
3.209326894633e-03
1.964851294539e-03
3.318275798321e-04
3.328113190069e-04
2.722568308655e-03
4.551034595712e-03
4.836929214513e-03
1.338007168234e-03
4.028076419734e-03
3.442255696479e-03
9.098447323453e-04
3.834915367221e-03
4.409378052545e-03
4.230530866300e-03
4.294676034181e-03
5.122235627779e-03
4.597682329489e-03
3.490677606037e-03
2.304137186566e-03
2.305532867499e-03
2.161221725175e-03
4.092120311808e-03
3.144643681602e-03
2.978002689516e-03
2.913263375992e-03
2.800931746973e-03
3.011812403670e-03
4.352526618934e-03
4.247532494298e-03
9.905973902837e-04
1.101844687061e-03
1.233160977395e-03
1.218164253328e-03
1.087393970820e-03
1.204042514019e-03
1.336086602957e-03
1.179382803747e-03
3.794386041383e-03
2.898117369164e-03
1.870099854757e-03
1.836724946967e-03
1.693175646331e-03
1.269997039296e-03
1.361144581822e-03
1.497799834468e-03
1.182830818997e-03
2.964926416301e-03
2.843143209138e-03
2.033266397549e-03
1.317354402215e-03
4.310757918613e-03
4.314294881801e-03
4.180838519535e-03
4.309826952154e-03
4.391057509763e-03
1.491576596995e-03
1.533321666041e-03
1.457701442768e-03
1.578058860820e-03
1.511028627753e-03
1.407726967418e-03
1.625660821598e-03
1.556222156729e-03
4.380209430786e-03
-8.248195474774e-05
1.810481340237e-04
1.879153972833e-04
3.997086710472e-04
4.118799488974e-04
5.906219399809e-04
5.885983111123e-04
1.649652536581e-04
-2.118609749709e-05
1.995161809363e-04
1.380880232643e-05
1.929493071021e-04
3.873533773214e-04
5.221283252882e-04
2.469174766547e-03
1.242621791877e-03
1.183310131746e-03
1.080165744352e-03
1.120839034550e-03
1.282694916469e-03
1.033716953668e-03
9.870911510201e-04
3.107786201863e-04
3.110460537103e-04
3.051476852272e-04
4.023113825998e-04
4.084203535279e-04
3.038911351199e-04
3.088212263540e-04
3.102707459689e-04
3.084476823422e-04
4.050475937124e-04
2.818540507237e-04
5.148804678477e-03
5.234470773756e-03
2.740681406700e-03
4.423862516540e-03
8.382701278911e-05
5.684635010453e-03
5.626383936790e-03
5.669278105986e-03
2.203444727527e-03
2.284402918138e-03
5.715414249141e-03
8.203740787377e-04
4.564169946433e-03
5.387019775958e-03
8.655209859297e-04
8.374094566203e-04
1.837698825694e-03
1.768446872184e-03
2.150947634190e-03
1.752812364256e-03
2.076055492497e-03
2.835201959786e-03
5.964069065082e-04
4.772955365549e-03
4.776271319110e-03
5.121236814890e-03
8.600065517495e-04
1.345429502099e-03
5.637581923749e-04
3.762894962049e-03
2.987262966171e-03
1.583441726736e-03
1.135339018228e-03
9.084019315852e-04
8.048449082710e-04
2.135121145810e-03
1.413485290803e-03
2.081704781010e-03
5.227124622190e-03
1.459985859595e-04
2.193471669430e-03
1.692415006716e-03
4.710235265410e-03
2.604332650068e-03
6.233800006436e-04
5.079148316210e-03
5.101321192756e-03
4.488470473675e-03
4.473070175401e-04
4.640304690947e-03
2.577903516144e-03
4.631653730711e-03
8.038515668963e-04
1.877001642694e-03
2.506845452459e-03
3.711942866219e-03
5.435501418318e-03
2.330774093014e-03
2.623702839015e-03
2.168363448968e-03
8.720745780482e-04
2.255317002966e-03
2.011609502108e-03
5.229627875982e-03
3.302239424925e-03
1.591833478072e-03
4.967011219103e-03
1.664104054916e-03
2.757809529541e-03
2.790791188564e-03
2.965530643017e-03
3.544135869738e-03
2.647959775915e-03
1.750443919672e-03
2.224625655048e-03
7.489368962713e-04
1.808779730346e-03
4.584350438203e-03
3.399761977452e-03
5.388415747452e-03
2.356795383798e-03
2.145518474920e-03
5.113799678756e-03
1.454823602426e-03
6.714669610699e-04
6.857357412482e-04
1.299105980116e-03
2.174003860185e-03
1.592877159933e-03
4.848304373287e-03
2.177545976956e-03
2.251830414723e-03
2.911320149770e-04
3.466494920705e-03
2.211162329352e-03
1.888646333186e-03
2.755654565775e-03
1.450971610972e-03
3.668037223076e-03
2.735352877965e-03
2.249920289166e-03
2.352859517215e-03
1.479973216717e-03
4.436954786756e-03
2.407212064249e-03
2.508080382586e-03
2.820873673978e-03
1.761401148265e-03
3.361856801190e-03
1.633023552310e-03
3.128106632608e-03
5.252226585673e-03
2.633633762721e-03
4.120368491665e-03
1.539175463518e-03
2.609532014262e-03
4.092758406452e-04
3.136291917891e-03
1.580073879814e-03
1.326205832384e-03
1.781178058545e-03
3.223096459603e-03
1.621980033938e-03
1.460790896944e-03
1.664226250947e-03
2.936747316172e-03
4.050119430043e-03
1.705381323131e-03
3.288033151329e-03
3.883208581662e-04
2.798842591847e-03
2.148020283361e-03
1.101525794812e-03
1.806221515192e-03
4.164447599264e-03
2.496164251265e-03
1.951264734699e-03
3.459802621583e-03
2.777537416994e-03
2.315051283880e-03
2.100187537075e-03
2.308470056847e-03
7.757153654009e-04
6.474011048081e-04
1.467945810437e-03
3.625268419266e-03
5.126743094548e-04
3.907771211113e-03
4.779355398984e-04
1.348190782012e-03
2.924443998937e-03
4.848177372482e-03
1.366265157951e-03
7.999964345939e-04
1.254256126279e-03
2.458369580136e-03
1.279164630234e-03
1.172844111946e-03
5.544831173106e-03
1.203102152083e-03
5.746731328495e-03
2.436084324901e-03
4.550271431602e-03
2.079426155769e-03
-1.026917074224e-04
1.849739008758e-03
9.686691678473e-04
3.660010874255e-03
4.556416927210e-03
8.702603246150e-04
4.275189495952e-03
3.658219921637e-03
5.071984125232e-03
2.754670020132e-03
2.769577611756e-03
5.452847534571e-03
4.417765675473e-03
1.997454497491e-04
1.806192226422e-03
1.612465471640e-03
1.369930487371e-03
9.404578799269e-04
9.340580212782e-04
3.844546428235e-04
1.181678651985e-03
3.029510888415e-03
4.488706654957e-03
3.076803041671e-03
7.174923655070e-04
5.261106096369e-03
3.395398635436e-03
2.660758186530e-03
3.224940211496e-03
5.432893467417e-04
4.393409938750e-03
3.856097129317e-03
5.185826478259e-03
2.603301353681e-03
4.419551987452e-03
5.600947432239e-03
6.598901148197e-04
5.618924561448e-03
3.803504103471e-03
4.722282102566e-03
4.176217277011e-03
2.363903701098e-03
4.503051068498e-03
3.609029344778e-04
5.054687469976e-03
1.107015077783e-03
1.090077787934e-04
2.606945227888e-03
3.949512922273e-03
2.396863170350e-03
3.959731838697e-04
2.106333773843e-04
2.719390928425e-03
4.092535120202e-03
7.052930375680e-04
5.542929845379e-03
1.466756689323e-04
4.395550073712e-03
2.635291260110e-04
2.551108655968e-03
5.493599104326e-03
1.226337118181e-03
4.098294492906e-03
8.790768409152e-04
3.517047111654e-03
3.229081301519e-04
5.567424617225e-03
2.828389142407e-03
5.005891924739e-03
3.351472546086e-03
9.133315533559e-05
3.520626900097e-03
2.772416012580e-03
4.420844267282e-03
4.746887267052e-03
1.029249340896e-03
4.784813498944e-04
5.773212240013e-03
3.223758554642e-04
4.415802951933e-03
2.453855357235e-03
4.910892635410e-04
4.659243521947e-03
4.203205963921e-03
1.480738607931e-03
5.359329967575e-03
5.177576193643e-04
-1.497398637708e-04
4.928426800022e-03
3.339706608118e-03
5.227146744139e-03
4.808163012075e-03
5.077043936209e-04
4.064430081263e-03
1.313236875308e-03
3.717794384819e-03
2.892901956932e-03
-3.409898436210e-05
1.578218314780e-03
2.319322182955e-04
2.543501333126e-03
1.368122969529e-03

SCALARS node_materi_strain_total_size_dev_sd_ept float
LOOKUP_TABLE default
1.609276120832e-03
1.267147289841e-02
6.042493365069e-03
1.441578258164e-02
1.592716647621e-03
1.425994901950e-03
1.046667227904e-03
7.915171351530e-04
9.606287687037e-04
1.492772476257e-03
2.081789034945e-03
2.557216780987e-03
2.952915258090e-03
3.323487527721e-03
3.674673836505e-03
3.986876581827e-03
4.260974314148e-03
4.558662517390e-03
4.858686979449e-03
5.091202032549e-03
5.274288640485e-03
5.495104392531e-03
5.806212616215e-03
1.440319856633e-02
1.439317610312e-02
1.439741699503e-02
1.438960233136e-02
1.438897825199e-02
1.438176339296e-02
1.436797517288e-02
1.433934814603e-02
1.431303019112e-02
1.424858549219e-02
1.425163777642e-02
1.419679800539e-02
1.412552891053e-02
1.402819454732e-02
1.394335965225e-02
1.376436790407e-02
1.348772910645e-02
1.319577344393e-02
1.285361220415e-02
1.250368385241e-02
1.212729621960e-02
1.174805825147e-02
1.138308920271e-02
1.101259421949e-02
1.068636055616e-02
1.035081099664e-02
9.995437150746e-03
9.653044998153e-03
9.315070184319e-03
9.001803489626e-03
8.675605448164e-03
8.339339061622e-03
8.045508940389e-03
7.824914817843e-03
7.600138568073e-03
7.394777718233e-03
7.221714031975e-03
7.048237383159e-03
6.898049919716e-03
6.752351329050e-03
6.647706873514e-03
6.579483413117e-03
6.495392865544e-03
6.320091040609e-03
6.318330106589e-03
6.221304233834e-03
6.167264131709e-03
6.122565128438e-03
6.084518987686e-03
1.284170209453e-02
1.315497205560e-02
1.343592386631e-02
1.368243588928e-02
1.390013577742e-02
1.408095011783e-02
1.422203141176e-02
1.432157137831e-02
1.440049714234e-02
1.359951946375e-03
1.405683809715e-02
2.509132112041e-03
3.809030125983e-03
4.813781620267e-03
5.630052769970e-03
6.424561160804e-03
7.607419340084e-03
9.164779533692e-03
1.100457960996e-02
1.317594276407e-02
1.266942087682e-02
1.264769569648e-02
1.265358607852e-02
1.265822232864e-02
1.270260179252e-02
1.267654138517e-02
1.266943444738e-02
1.267561884825e-02
1.270389169876e-02
1.272122034416e-02
1.274086071146e-02
1.281717712491e-02
1.300582592002e-02
1.368023451574e-02
1.411547554374e-03
1.624672012225e-03
1.774846338492e-03
1.777251275683e-03
1.648047302328e-03
1.498063459864e-03
1.277207188967e-03
9.884377177562e-04
6.646171104322e-04
3.808009966502e-04
2.056273603445e-04
1.901258781585e-04
4.627464755069e-04
1.122367304851e-03
1.683692856686e-03
1.564044145136e-03
1.606293716833e-03
1.826113415412e-03
1.773255839523e-03
1.855830288646e-03
3.206458468027e-03
4.343711659952e-03
5.207396725416e-03
6.118560477212e-03
7.023055196128e-03
8.328236404859e-03
1.005264739670e-02
1.203151753617e-02
1.438678923782e-02
3.116207119930e-03
7.543218327117e-03
5.766618987413e-04
1.328388919850e-03
6.657147725618e-03
5.180936809614e-03
3.505644249423e-03
8.687331394251e-03
7.233268445895e-03
1.017441459339e-02
1.041916371440e-02
6.290299971725e-03
5.045088430692e-04
1.164976897555e-02
1.362692232957e-02
1.824760042615e-03
4.352606863399e-03
1.286014110394e-02
1.411640677154e-02
1.443206298685e-02
1.446510786142e-02
1.439463310070e-02
1.348590937809e-02
1.296264175009e-02
1.290173475481e-02
1.380194548398e-02
6.061943090315e-03
1.307191955087e-03
1.575063881119e-03
5.134401123447e-03
1.280515244571e-02
8.703146963327e-04
1.366314184481e-02
9.494665395773e-03
1.089051303110e-02
8.049551334675e-03
7.142131805939e-03
1.104176243263e-03
1.306328026137e-02
6.323594745811e-03
1.415883707250e-02
3.230283151274e-04
2.754570614461e-03
1.441948003845e-02
6.123082672408e-03
4.159963175843e-03
8.654933928611e-03
1.229995450417e-02
1.963930745702e-03
1.332402283974e-02
6.017233400435e-03
1.788524067825e-03
1.435563371049e-02
1.339020089915e-02
1.290855341785e-02
1.341186512209e-02
1.301599162204e-02
1.345258715094e-02
1.311471744166e-02
1.260527052195e-02
1.275997144323e-02
1.221217331691e-02
1.353847157089e-02
1.241705254282e-02
1.186251715894e-02
1.210560011867e-02
1.154981691959e-02
1.128004040149e-02
1.096773114945e-02
1.068024832228e-02
1.035933436065e-02
1.068874212232e-02
1.006119979641e-02
9.716346958935e-03
9.398849481999e-03
9.039174991439e-03
8.690321769538e-03
8.313011370575e-03
7.906128886804e-03
8.278439445606e-03
7.435416929673e-03
7.091481943200e-03
6.595344556517e-03
6.299404344243e-03
5.780819061858e-03
5.774973455985e-03
5.000593887971e-03
4.991601382417e-03
4.283767083805e-03
4.239264515733e-03
3.652890820265e-03
3.544159465561e-03
3.127996567739e-03
3.581419799727e-03
3.241305074453e-03
2.726218185587e-03
2.982632739895e-03
3.224980559952e-03
2.966739530394e-03
2.987782011649e-03
2.719786289933e-03
2.762404322582e-03
2.504697401492e-03
2.503527376315e-03
2.281185647459e-03
2.332228635329e-03
2.104667099605e-03
2.150076014459e-03
1.967668284368e-03
1.959995443655e-03
1.819410585469e-03
1.926774728775e-03
1.774822045497e-03
1.686634679177e-03
1.648974965504e-03
1.828393131999e-03
1.718333412952e-03
1.978526533661e-03
1.543772102364e-03
1.651834405844e-03
1.474259600876e-03
1.646099968794e-03
5.149173278076e-03
1.466967064219e-03
1.339781023146e-03
1.701441475178e-03
1.925518198379e-03
1.509066459271e-03
1.771601215895e-03
1.541290376382e-03
4.073926067272e-03
1.043182583630e-02
1.783292069431e-03
1.498084479197e-03
1.323606429542e-03
1.230459218149e-03
1.377618846247e-02
1.386540363813e-02
1.403145575948e-02
1.413060245457e-02
1.422600114581e-02
1.377612730261e-03
1.262509521058e-02
1.396062781530e-02
9.391867145434e-03
6.735796072434e-03
3.314674113228e-03
2.086540540840e-03
2.057926964208e-03
2.414708587981e-03
2.116004500841e-03
2.334212064872e-03
2.510783029626e-03
2.777407945051e-03
2.996450827845e-03
3.288426053180e-03
3.083308629449e-03
3.593143307311e-03
3.401414759431e-03
3.549258856778e-03
3.267751937282e-03
3.890822683087e-03
3.709979551551e-03
4.170513408998e-03
3.996816439234e-03
3.590870852703e-03
3.885135133869e-03
3.547074470367e-03
3.116734107579e-03
3.517103407754e-03
3.410658441254e-03
3.880577183557e-03
3.852826909052e-03
4.385263710673e-03
4.414266202583e-03
3.891998115428e-03
1.183236837320e-02
2.452015795614e-03
2.397687686727e-03
1.997859994275e-03
2.268116228709e-03
1.804518619511e-03
2.141163461004e-03
1.699053647982e-03
1.456876168041e-03
1.334708588121e-03
1.266512453416e-03
1.079183389682e-03
1.236294249906e-03
7.445883877010e-03
4.417786111252e-03
4.987344045990e-03
5.016330372882e-03
1.106973898682e-03
4.265296043849e-03
3.861533444370e-03
3.587664352927e-03
4.503912917933e-03
1.073011194170e-03
1.996076374636e-03
2.459186410752e-03
1.432442251315e-02
1.436398538737e-02
4.223874893920e-03
1.209928731462e-03
4.130805768405e-03
1.277925668324e-03
4.163960142863e-03
4.509980829790e-03
2.940158181730e-03
5.641356741018e-03
5.664780754854e-03
1.696353301837e-03
1.759885673737e-03
1.271780175287e-03
1.778507575732e-03
2.243937246193e-03
2.103785280241e-03
1.742948595100e-03
1.851036391113e-03
2.005113431536e-03
1.691187918764e-03
1.521971609372e-03
1.354707233185e-03
4.670745466026e-03
1.035300881820e-03
1.104120963833e-02
4.494610163519e-03
5.068740408278e-03
1.446195573738e-02
1.446054189808e-02
1.431573350297e-02
1.439002374106e-02
1.451924550918e-02
1.443977619408e-02
1.426337704015e-02
1.431780172901e-02
1.409714841995e-02
1.416512265603e-02
1.435663247354e-02
1.421710090658e-02
1.399352095697e-02
1.406379903973e-02
1.381546583675e-02
1.390332369886e-02
1.412146321143e-02
8.879655785827e-04
3.992363375290e-03
4.658182175689e-03
2.346798441173e-03
2.736893493081e-03
2.762052514242e-03
3.117121624281e-03
1.397969664865e-02
1.417013977050e-02
2.209395061417e-03
2.702488361573e-03
1.439735625950e-02
4.420709415409e-03
4.152607237598e-03
5.973248272858e-03
6.415600063838e-03
5.673043719713e-03
6.071474710752e-03
6.834674624888e-03
5.326397403340e-03
3.015314407269e-03
1.437787782843e-02
1.175395558907e-03
1.013100981693e-03
4.724826610398e-03
3.428178422695e-03
8.285881466859e-03
7.309073370103e-03
8.064249779699e-03
7.512610146988e-03
8.212113335518e-03
7.981066702565e-03
7.269878732894e-03
6.333309696827e-03
7.855123497120e-03
1.374103335911e-02
4.516372828235e-03
1.731340975285e-03
7.902060935571e-04
1.222397192991e-03
9.659053213577e-04
1.378678937388e-03
4.896269073433e-03
8.685724566192e-03
8.900559259918e-03
6.492639462477e-03
7.192785536315e-03
6.350109566133e-03
1.408763292489e-02
1.401448976941e-02
1.380161111059e-02
6.459328908169e-04
1.263905756838e-03
1.454802461268e-02
2.986971068094e-03
3.273709280887e-03
1.179773910499e-03
9.706348124913e-04
1.404773090033e-02
1.421081761488e-02
3.081538423613e-03
3.426081456758e-03
4.644091790241e-03
1.110157336152e-03
1.430683108739e-02
3.542950183790e-03
3.026115494691e-03
3.026277069311e-03
2.414608465722e-03
1.977227249407e-03
1.991862705908e-03
1.193933362318e-03
1.064391806798e-03
5.355933449421e-03
1.458660920610e-02
7.116607116582e-03
6.556325200426e-03
7.753222900341e-03
9.793102347291e-04
5.158294669554e-03
4.654953022181e-03
9.381343736525e-03
9.582319897009e-03
3.576509994070e-03
3.904249477438e-03
3.574497049166e-03
4.266536846352e-03
1.202340990785e-02
4.228811893585e-03
1.041700852558e-02
1.083260123861e-02
1.014913285012e-02
7.578238315693e-03
7.927407152781e-03
2.813200759564e-03
3.706017374241e-03
2.678396045615e-03
3.216169631986e-03
2.302999931127e-03
1.448088302968e-02
1.447472360453e-02
1.371091957046e-02
1.351418981728e-02
8.859424778203e-04
8.315875263664e-04
2.215317615390e-03
4.761395277061e-03
1.451677647932e-02
1.444189845334e-02
1.428694516516e-02
5.112391709607e-03
2.301307597947e-03
3.004634643780e-03
9.037181591676e-04
5.822122878163e-03
6.681274635534e-04
1.104642752347e-02
4.950360828698e-03
5.086309982420e-03
7.061463646638e-03
1.254809342750e-02
5.497128080476e-03
4.903426829502e-03
1.059023683100e-02
9.868644240755e-03
9.447197826838e-03
9.127806185963e-03
1.708727320732e-03
1.481818563891e-03
9.355227675397e-03
8.501273569549e-03
1.005216408275e-02
1.026913950792e-02
7.090384862272e-03
6.389296706599e-03
1.530607915909e-03
7.562354077343e-03
1.459519518294e-02
1.128887800800e-02
5.400572076915e-03
5.028251202067e-03
9.019204545315e-04
8.713795442856e-04
1.432827171833e-02
3.945563980155e-03
4.645086379768e-03
3.297210320133e-03
5.634830894761e-03
1.278828217874e-02
5.297814084779e-03
8.337271966528e-03
1.439841433283e-02
5.264614107838e-03
5.231504733328e-03
4.396867674779e-03
1.424076787017e-02
1.435110259333e-02
1.367592084747e-02
1.343268055237e-02
1.390179009453e-02
1.458375263641e-03
1.352163311708e-03
1.438798222690e-02
1.947931199047e-03
2.259970418334e-03
1.049235023549e-03
1.135984426692e-03
2.967358538096e-03
2.562346603486e-03
1.044648505980e-02
1.106863467426e-02
9.067743635756e-03
3.148659067565e-03
2.683477062872e-03
2.631333766646e-03
1.453087635594e-02
1.449779058179e-02
1.903748974394e-03
2.196480154589e-03
1.510951427220e-03
1.460240993857e-02
5.483839199762e-03
5.282034363178e-03
6.463195092666e-04
8.070768425851e-04
2.300278913450e-03
1.903089480342e-03
1.433279260046e-02
1.414000669197e-02
1.444878886952e-02
1.148813532328e-03
6.419721865888e-03
5.854563768152e-03
5.627682317222e-03
6.188072429190e-03
7.028896324017e-03
7.764014292187e-03
8.466768405192e-03
9.827458595655e-04
1.430274171941e-02
1.335788863865e-02
1.090611078747e-03
1.315300038138e-02
1.332174127668e-02
1.294741729278e-02
7.844836487725e-04
1.346276784528e-02
1.377671802407e-02
6.212914151260e-04
1.456104359000e-02
4.709075818852e-04
4.985707993457e-04
5.643107267325e-03
5.264195562283e-03
5.830542627516e-03
5.460249498793e-03
4.927240713408e-03
5.161396603931e-03
1.318512873454e-02
5.759627958398e-03
5.390326734311e-03
5.947452984598e-03
9.672693364791e-03
4.994903102574e-03
5.397772403156e-03
5.202741977439e-03
1.083390943906e-02
1.091411814214e-02
4.906162968176e-03
4.677142033855e-03
1.312237347184e-02
1.308030717342e-02
1.336938972241e-02
1.331198506515e-02
1.357674601719e-02
1.351402214559e-02
1.375894136856e-02
9.271208069799e-03
3.879737181850e-03
1.122245291628e-02
7.144242019523e-03
6.433761927106e-03
8.343376886448e-03
8.026334012900e-03
5.933421170421e-03
3.826107095198e-03
1.445149293957e-02
1.323579325787e-03
1.286702808984e-03
4.499674767659e-03
8.708889224743e-03
5.735631269313e-03
6.218647843092e-03
3.725905302017e-03
8.343856860085e-04
2.758152597602e-03
1.382114213134e-02
2.838350684810e-03
4.921229199972e-03
3.419544129489e-03
7.951950946735e-03
2.958803795419e-03
4.604330407072e-03
1.163319292007e-02
1.247128869245e-02
1.192109440711e-02
2.923228511613e-03
6.872913314480e-03
6.503377056554e-03
1.005269055656e-02
1.405013434970e-02
1.385430786103e-02
1.395632253379e-02
1.366271874523e-02
1.351660809127e-02
1.330549478986e-02
1.346526594957e-02
1.309917406684e-02
1.298315852531e-02
1.252999267155e-02
1.264324484407e-02
1.208002180807e-02
1.182655474829e-02
1.214961498631e-02
7.874862760094e-03
4.783118946100e-03
1.096221015000e-03
1.538495527403e-03
8.695666426106e-03
1.322752636351e-02
1.398096182585e-02
2.648982065521e-03
1.126016257594e-02
1.145559400173e-02
1.606401745308e-03
1.053042252665e-02
1.374641186689e-02
1.337075198747e-02
1.363704875188e-02
1.426192437904e-02
1.409599182121e-02
9.154592017236e-03
3.983697111774e-03
4.162771226423e-03
3.927341923539e-03
1.284482057857e-02
7.791886098105e-03
6.949050428910e-03
6.731059658110e-03
6.082943419397e-03
7.321186335699e-03
1.244778951113e-02
1.207711724826e-02
2.258123279984e-03
2.420272526801e-03
2.343487418391e-03
2.505163141099e-03
2.264787108180e-03
2.247632500748e-03
2.578543899607e-03
1.671901878053e-03
1.079060743068e-02
6.969259799372e-03
2.739621205163e-03
2.535156403643e-03
2.167330721302e-03
2.278393532473e-03
2.186101280877e-03
2.499878723142e-03
2.380909742549e-03
6.807257949859e-03
6.811900740509e-03
2.976764812009e-03
1.873960151431e-03
1.318798006216e-02
1.367859839076e-02
1.372238419264e-02
1.390396339940e-02
1.360923226786e-02
3.346138224842e-03
3.684435139507e-03
3.697480434057e-03
3.968422650933e-03
3.897087888596e-03
3.608114798863e-03
4.192247771558e-03
4.039275902636e-03
1.300803733593e-02
1.223714923529e-03
9.457933804089e-04
9.438764341824e-04
1.020362386169e-03
8.962114519360e-04
1.196523285295e-03
1.009747159898e-03
9.440196537481e-04
9.497681096618e-04
9.001443983995e-04
7.681133691177e-04
8.506118187944e-04
1.011879166521e-03
9.532071300452e-04
5.938800165270e-03
3.129354452198e-03
2.930190917394e-03
2.552221598012e-03
2.701744597177e-03
3.257683622060e-03
2.341767595081e-03
2.151088669974e-03
1.740811709617e-03
1.566337275602e-03
1.530026572270e-03
1.169777085153e-03
1.139148713788e-03
1.497207232813e-03
1.325245061745e-03
1.531603864149e-03
8.682093100659e-04
6.539121181067e-04
1.143875030144e-03
1.400247300822e-02
1.410449370464e-02
6.528082178028e-03
1.295660046395e-02
4.135909741059e-04
1.442303823944e-02
1.445148178116e-02
1.444088059679e-02
5.354723545618e-03
5.484108970243e-03
1.440251501424e-02
1.337386347503e-03
1.380335964465e-02
1.439013472260e-02
1.798974557867e-03
1.267877584659e-03
4.429842523509e-03
3.273144547013e-03
4.874436972681e-03
3.855064063409e-03
4.431003624596e-03
6.457855148815e-03
7.308454948376e-04
1.390608882099e-02
1.363807478749e-02
1.425602780133e-02
1.703789616582e-03
3.398903865414e-03
9.642239101063e-04
1.014489878911e-02
9.763581763114e-03
1.977585166165e-03
2.019583711724e-03
1.319092231620e-03
1.439488163207e-03
5.534174776727e-03
1.894461678822e-03
3.842309093643e-03
1.428513733595e-02
2.935431614266e-04
4.143444626370e-03
2.616282110068e-03
1.419039430231e-02
5.002323302531e-03
1.491631111994e-03
1.446844046237e-02
1.452247859077e-02
1.399081408933e-02
7.139666266672e-04
1.358216004596e-02
5.607927566010e-03
1.421431531557e-02
1.570448676503e-03
2.780026681334e-03
7.529606028615e-03
1.326001339706e-02
1.445083971608e-02
4.537189927021e-03
5.212418498791e-03
3.383771967744e-03
1.789737353745e-03
4.691219812551e-03
3.543514819867e-03
1.455426377338e-02
8.783998025462e-03
2.797345227802e-03
1.454653192687e-02
2.113621181032e-03
5.660893499476e-03
9.072703129643e-03
9.067975235936e-03
1.127727676039e-02
6.595943554170e-03
4.459756788943e-03
4.424120155911e-03
9.684486901946e-04
4.944423249822e-03
1.421323783048e-02
8.563612436625e-03
1.457398669616e-02
7.184573615839e-03
4.401380786830e-03
1.457653833737e-02
2.162370917618e-03
8.295107301693e-04
1.654087976860e-03
1.755233376420e-03
4.012785370900e-03
2.520167453932e-03
1.416912179340e-02
4.653374794449e-03
3.962396690012e-03
2.516416667355e-03
1.197560929583e-02
4.890598382165e-03
2.661660755517e-03
5.698328026510e-03
3.747596800319e-03
9.758192322356e-03
8.843387758755e-03
5.098357821392e-03
4.170759065136e-03
3.211734761655e-03
1.279087413770e-02
5.632229649501e-03
4.883054696302e-03
6.549039858393e-03
2.378257528441e-03
1.132927164476e-02
2.867061771038e-03
9.775275818419e-03
1.434506598784e-02
5.394655578204e-03
1.324023599517e-02
2.875795722410e-03
5.103692116520e-03
1.050754906168e-03
1.047079248190e-02
3.246364087509e-03
2.247671105263e-03
2.345545946364e-03
7.814862340663e-03
3.592760303514e-03
2.670057808678e-03
3.912059234400e-03
9.502118167302e-03
1.292748749779e-02
4.212028791391e-03
9.776821792310e-03
5.257192875621e-04
6.126631349348e-03
5.177450673804e-03
1.428468671930e-03
2.400208674461e-03
1.310256636325e-02
7.868531366180e-03
2.814836474487e-03
9.475822810556e-03
5.896461926384e-03
4.380231178902e-03
3.342083315811e-03
7.279844899694e-03
1.191754159534e-03
1.075238767699e-03
2.599806040619e-03
1.016497801065e-02
8.352978091207e-04
1.236273470764e-02
9.463740472072e-04
2.465172093540e-03
6.350847744963e-03
1.358411069477e-02
2.190362078693e-03
1.247215510917e-03
2.058002005004e-03
4.681451977683e-03
1.827071298407e-03
1.679296749226e-03
1.443699445085e-02
1.554913751991e-03
1.440652386209e-02
5.884641553655e-03
1.303186585221e-02
6.663904087200e-03
1.337946496726e-03
5.866372559616e-03
1.343524457108e-03
1.161834847232e-02
1.304961436517e-02
1.230206593266e-03
1.230119932924e-02
9.837962360652e-03
1.392658003633e-02
5.802138462340e-03
5.750331087187e-03
1.427237747228e-02
1.281036206391e-02
7.265429470045e-04
4.672320620907e-03
5.687290203458e-03
4.482259812940e-03
3.327337503525e-03
1.981224326587e-03
1.030936179450e-03
4.652572302470e-03
7.129047947833e-03
1.330800767223e-02
7.038227598589e-03
3.635520811130e-03
1.454234680520e-02
8.596835051584e-03
6.353399117788e-03
7.737727259861e-03
2.371379022075e-03
1.391508553289e-02
1.050897602207e-02
1.410025450609e-02
6.244366749104e-03
1.341317405145e-02
1.439175235818e-02
9.767501452292e-04
1.436449316537e-02
1.161013364013e-02
1.347388551403e-02
1.368120779063e-02
5.659505868959e-03
1.347633681082e-02
1.884332079903e-03
1.394531191712e-02
2.627871705157e-03
1.011742854504e-03
5.962756125878e-03
1.132599166264e-02
5.663320344864e-03
1.240115351445e-03
4.687189502133e-04
6.243299286514e-03
1.144232791576e-02
1.279272022760e-03
1.441366288448e-02
1.558746428274e-03
1.280483362847e-02
4.274588249499e-04
6.139290227701e-03
1.452567325794e-02
3.067655116128e-03
1.371061100073e-02
1.654527033692e-03
9.089416654651e-03
8.882305557345e-04
1.446456381508e-02
6.529074108225e-03
1.432340005205e-02
8.609762228583e-03
1.143941720929e-03
9.150315719611e-03
6.059761078395e-03
1.279205973608e-02
1.394777533556e-02
2.358132713892e-03
6.569346369843e-04
1.440618422302e-02
1.628782688087e-03
1.276095967033e-02
5.940842686210e-03
8.375251637454e-04
1.325504994034e-02
1.186440332397e-02
3.845847993195e-03
1.421102420979e-02
1.197418196792e-03
1.408461990573e-03
1.372255295679e-02
8.407485230455e-03
1.450058826877e-02
1.360747342984e-02
1.633944123227e-03
1.140437026201e-02
3.327316693836e-03
9.916227974774e-03
6.477035368183e-03
1.535915174513e-03
4.109698386535e-03
3.710980244985e-04
5.930954283356e-03
3.508531411359e-03


CELL_DATA 1919

SCALARS element_number int
LOOKUP_TABLE default
407
408
409
410
411
412
413
414
415
416
417
418
419
420
421
422
423
424
425
426
427
428
429
430
431
432
433
434
435
436
437
438
439
440
441
442
443
444
445
446
447
448
449
450
451
452
453
454
455
456
457
458
459
460
461
462
463
464
465
466
467
468
469
470
471
472
473
474
475
476
477
478
479
480
481
482
483
484
485
486
487
488
489
490
491
492
493
494
495
496
497
498
499
500
501
502
503
504
505
506
507
508
509
510
511
512
513
514
515
516
517
518
519
520
521
522
523
524
525
526
527
528
529
530
531
532
533
534
535
536
537
538
539
540
541
542
543
544
545
546
547
548
549
550
551
552
553
554
555
556
557
558
559
560
561
562
563
564
565
566
567
568
569
570
571
572
573
574
575
576
577
578
579
580
581
582
583
584
585
586
587
588
589
590
591
592
593
594
595
596
597
598
599
600
601
602
603
604
605
606
607
608
609
610
611
612
613
614
615
616
617
618
619
620
621
622
623
624
625
626
627
628
629
630
631
632
633
634
635
636
637
638
639
640
641
642
643
644
645
646
647
648
649
650
651
652
653
654
655
656
657
658
659
660
661
662
663
664
665
666
667
668
669
670
671
672
673
674
675
676
677
678
679
680
681
682
683
684
685
686
687
688
689
690
691
692
693
694
695
696
697
698
699
700
701
702
703
704
705
706
707
708
709
710
711
712
713
714
715
716
717
718
719
720
721
722
723
724
725
726
727
728
729
730
731
732
733
734
735
736
737
738
739
740
741
742
743
744
745
746
747
748
749
750
751
752
753
754
755
756
757
758
759
760
761
762
763
764
765
766
767
768
769
770
771
772
773
774
775
776
777
778
779
780
781
782
783
784
785
786
787
788
789
790
791
792
793
794
795
796
797
798
799
800
801
802
803
804
805
806
807
808
809
810
811
812
813
814
815
816
817
818
819
820
821
822
823
824
825
826
827
828
829
830
831
832
833
834
835
836
837
838
839
840
841
842
843
844
845
846
847
848
849
850
851
852
853
854
855
856
857
858
859
860
861
862
863
864
865
866
867
868
869
870
871
872
873
874
875
876
877
878
879
880
881
882
883
884
885
886
887
888
889
890
891
892
893
894
895
896
897
898
899
900
901
902
903
904
905
906
907
908
909
910
911
912
913
914
915
916
917
918
919
920
921
922
923
924
925
926
927
928
929
930
931
932
933
934
935
936
937
938
939
940
941
942
943
944
945
946
947
948
949
950
951
952
953
954
955
956
957
958
959
960
961
962
963
964
965
966
967
968
969
970
971
972
973
974
975
976
977
978
979
980
981
982
983
984
985
986
987
988
989
990
991
992
993
994
995
996
997
998
999
1000
1001
1002
1003
1004
1005
1006
1007
1008
1009
1010
1011
1012
1013
1014
1015
1016
1017
1018
1019
1020
1021
1022
1023
1024
1025
1026
1027
1028
1029
1030
1031
1032
1033
1034
1035
1036
1037
1038
1039
1040
1041
1042
1043
1044
1045
1046
1047
1048
1049
1050
1051
1052
1053
1054
1055
1056
1057
1058
1059
1060
1061
1062
1063
1064
1065
1066
1067
1068
1069
1070
1071
1072
1073
1074
1075
1076
1077
1078
1079
1080
1081
1082
1083
1084
1085
1086
1087
1088
1089
1090
1091
1092
1093
1094
1095
1096
1097
1098
1099
1100
1101
1102
1103
1104
1105
1106
1107
1108
1109
1110
1111
1112
1113
1114
1115
1116
1117
1118
1119
1120
1121
1122
1123
1124
1125
1126
1127
1128
1129
1130
1131
1132
1133
1134
1135
1136
1137
1138
1139
1140
1141
1142
1143
1144
1145
1146
1147
1148
1149
1150
1151
1152
1153
1154
1155
1156
1157
1158
1159
1160
1161
1162
1163
1164
1165
1166
1167
1168
1169
1170
1171
1172
1173
1174
1175
1176
1177
1178
1179
1180
1181
1182
1183
1184
1185
1186
1187
1188
1189
1190
1191
1192
1193
1194
1195
1196
1197
1198
1199
1200
1201
1202
1203
1204
1205
1206
1207
1208
1209
1210
1211
1212
1213
1214
1215
1216
1217
1218
1219
1220
1221
1222
1223
1224
1225
1226
1227
1228
1229
1230
1231
1232
1233
1234
1235
1236
1237
1238
1239
1240
1241
1242
1243
1244
1245
1246
1247
1248
1249
1250
1251
1252
1253
1254
1255
1256
1257
1258
1259
1260
1261
1262
1263
1264
1265
1266
1267
1268
1269
1270
1271
1272
1273
1274
1275
1276
1277
1278
1279
1280
1281
1282
1283
1284
1285
1286
1287
1288
1289
1290
1291
1292
1293
1294
1295
1296
1297
1298
1299
1300
1301
1302
1303
1304
1305
1306
1307
1308
1309
1310
1311
1312
1313
1314
1315
1316
1317
1318
1319
1320
1321
1322
1323
1324
1325
1326
1327
1328
1329
1330
1331
1332
1333
1334
1335
1336
1337
1338
1339
1340
1341
1342
1343
1344
1345
1346
1347
1348
1349
1350
1351
1352
1353
1354
1355
1356
1357
1358
1359
1360
1361
1362
1363
1364
1365
1366
1367
1368
1369
1370
1371
1372
1373
1374
1375
1376
1377
1378
1379
1380
1381
1382
1383
1384
1385
1386
1387
1388
1389
1390
1391
1392
1393
1394
1395
1396
1397
1398
1399
1400
1401
1402
1403
1404
1405
1406
1407
1408
1409
1410
1411
1412
1413
1414
1415
1416
1417
1418
1419
1420
1421
1422
1423
1424
1425
1426
1427
1428
1429
1430
1431
1432
1433
1434
1435
1436
1437
1438
1439
1440
1441
1442
1443
1444
1445
1446
1447
1448
1449
1450
1451
1452
1453
1454
1455
1456
1457
1458
1459
1460
1461
1462
1463
1464
1465
1466
1467
1468
1469
1470
1471
1472
1473
1474
1475
1476
1477
1478
1479
1480
1481
1482
1483
1484
1485
1486
1487
1488
1489
1490
1491
1492
1493
1494
1495
1496
1497
1498
1499
1500
1501
1502
1503
1504
1505
1506
1507
1508
1509
1510
1511
1512
1513
1514
1515
1516
1517
1518
1519
1520
1521
1522
1523
1524
1525
1526
1527
1528
1529
1530
1531
1532
1533
1534
1535
1536
1537
1538
1539
1540
1541
1542
1543
1544
1545
1546
1547
1548
1549
1550
1551
1552
1553
1554
1555
1556
1557
1558
1559
1560
1561
1562
1563
1564
1565
1566
1567
1568
1569
1570
1571
1572
1573
1574
1575
1576
1577
1578
1579
1580
1581
1582
1583
1584
1585
1586
1587
1588
1589
1590
1591
1592
1593
1594
1595
1596
1597
1598
1599
1600
1601
1602
1603
1604
1605
1606
1607
1608
1609
1610
1611
1612
1613
1614
1615
1616
1617
1618
1619
1620
1621
1622
1623
1624
1625
1626
1627
1628
1629
1630
1631
1632
1633
1634
1635
1636
1637
1638
1639
1640
1641
1642
1643
1644
1645
1646
1647
1648
1649
1650
1651
1652
1653
1654
1655
1656
1657
1658
1659
1660
1661
1662
1663
1664
1665
1666
1667
1668
1669
1670
1671
1672
1673
1674
1675
1676
1677
1678
1679
1680
1681
1682
1683
1684
1685
1686
1687
1688
1689
1690
1691
1692
1693
1694
1695
1696
1697
1698
1699
1700
1701
1702
1703
1704
1705
1706
1707
1708
1709
1710
1711
1712
1713
1714
1715
1716
1717
1718
1719
1720
1721
1722
1723
1724
1725
1726
1727
1728
1729
1730
1731
1732
1733
1734
1735
1736
1737
1738
1739
1740
1741
1742
1743
1744
1745
1746
1747
1748
1749
1750
1751
1752
1753
1754
1755
1756
1757
1758
1759
1760
1761
1762
1763
1764
1765
1766
1767
1768
1769
1770
1771
1772
1773
1774
1775
1776
1777
1778
1779
1780
1781
1782
1783
1784
1785
1786
1787
1788
1789
1790
1791
1792
1793
1794
1795
1796
1797
1798
1799
1800
1801
1802
1803
1804
1805
1806
1807
1808
1809
1810
1811
1812
1813
1814
1815
1816
1817
1818
1819
1820
1821
1822
1823
1824
1825
1826
1827
1828
1829
1830
1831
1832
1833
1834
1835
1836
1837
1838
1839
1840
1841
1842
1843
1844
1845
1846
1847
1848
1849
1850
1851
1852
1853
1854
1855
1856
1857
1858
1859
1860
1861
1862
1863
1864
1865
1866
1867
1868
1869
1870
1871
1872
1873
1874
1875
1876
1877
1878
1879
1880
1881
1882
1883
1884
1885
1886
1887
1888
1889
1890
1891
1892
1893
1894
1895
1896
1897
1898
1899
1900
1901
1902
1903
1904
1905
1906
1907
1908
1909
1910
1911
1912
1913
1914
1915
1916
1917
1918
1919
1920
1921
1922
1923
1924
1925
1926
1927
1928
1929
1930
1931
1932
1933
1934
1935
1936
1937
1938
1939
1940
1941
1942
1943
1944
1945
1946
1947
1948
1949
1950
1951
1952
1953
1954
1955
1956
1957
1958
1959
1960
1961
1962
1963
1964
1965
1966
1967
1968
1969
1970
1971
1972
1973
1974
1975
1976
1977
1978
1979
1980
1981
1982
1983
1984
1985
1986
1987
1988
1989
1990
1991
1992
1993
1994
1995
1996
1997
1998
1999
2000
2001
2002
2003
2004
2005
2006
2007
2008
2009
2010
2011
2012
2013
2014
2015
2016
2017
2018
2019
2020
2021
2022
2023
2024
2025
2026
2027
2028
2029
2030
2031
2032
2033
2034
2035
2036
2037
2038
2039
2040
2041
2042
2043
2044
2045
2046
2047
2048
2049
2050
2051
2052
2053
2054
2055
2056
2057
2058
2059
2060
2061
2062
2063
2064
2065
2066
2067
2068
2069
2070
2071
2072
2073
2074
2075
2076
2077
2078
2079
2080
2081
2082
2083
2084
2085
2086
2087
2088
2089
2090
2091
2092
2093
2094
2095
2096
2097
2098
2099
2100
2101
2102
2103
2104
2105
2106
2107
2108
2109
2110
2111
2112
2113
2114
2115
2116
2117
2118
2119
2120
2121
2122
2123
2124
2125
2126
2127
2128
2129
2130
2131
2132
2133
2134
2135
2136
2137
2138
2139
2140
2141
2142
2143
2144
2145
2146
2147
2148
2149
2150
2151
2152
2153
2154
2155
2156
2157
2158
2159
2160
2161
2162
2163
2164
2165
2166
2167
2168
2169
2170
2171
2172
2173
2174
2175
2176
2177
2178
2179
2180
2181
2182
2183
2184
2185
2186
2187
2188
2189
2190
2191
2192
2193
2194
2195
2196
2197
2198
2199
2200
2201
2202
2203
2204
2205
2206
2207
2208
2209
2210
2211
2212
2213
2214
2215
2216
2217
2218
2219
2220
2221
2222
2223
2224
2225
2226
2227
2228
2229
2230
2231
2232
2233
2234
2235
2236
2237
2238
2239
2240
2241
2242
2243
2244
2245
2246
2247
2248
2249
2250
2251
2252
2253
2254
2255
2256
2257
2258
2259
2260
2261
2262
2263
2264
2265
2266
2267
2268
2269
2270
2271
2272
2273
2274
2275
2276
2277
2278
2279
2280
2281
2282
2283
2284
2285
2286
2287
2288
2289
2290
2291
2292
2293
2294
2295
2296
2297
2298
2299
2300
2301
2302
2303
2304
2305
2306
2307
2308
2309
2310
2311
2312
2313
2314
2315
2316
2317
2318
2319
2320
2321
2322
2323
2324
2325

SCALARS element_group int
LOOKUP_TABLE default
0
0
0
0
0
0
0
0
0
0
0
0
0
0
0
0
0
0
0
0
0
0
0
0
0
0
0
0
0
0
0
0
0
0
0
0
0
0
0
0
0
0
0
0
0
0
0
0
0
0
0
0
0
0
0
0
0
0
0
0
0
0
0
0
0
0
0
0
0
0
0
0
0
0
0
0
0
0
0
0
0
0
0
0
0
0
0
0
0
0
0
0
0
0
0
0
0
0
0
0
0
0
0
0
0
0
0
0
0
0
0
0
0
0
0
0
0
0
0
0
0
0
0
0
0
0
0
0
0
0
0
0
0
0
0
0
0
0
0
0
0
0
0
0
0
0
0
0
0
0
0
0
0
0
0
0
0
0
0
0
0
0
0
0
0
0
0
0
0
0
0
0
0
0
0
0
0
0
0
0
0
0
0
0
0
0
0
0
0
0
0
0
0
0
0
0
0
0
0
0
0
0
0
0
0
0
0
0
0
0
0
0
0
0
0
0
0
0
0
0
0
0
0
0
0
0
0
0
0
0
0
0
0
0
0
0
0
0
0
0
0
0
0
0
0
0
0
0
0
0
0
0
0
0
0
0
0
0
0
0
0
0
0
0
0
0
0
0
0
0
0
0
0
0
0
0
0
0
0
0
0
0
0
0
0
0
0
0
0
0
0
0
0
0
0
0
0
0
0
0
0
0
0
0
0
0
0
0
0
0
0
0
0
0
0
0
0
0
0
0
0
0
0
0
0
0
0
0
0
0
0
0
0
0
0
0
0
0
0
0
0
0
0
0
0
0
0
0
0
0
0
0
0
0
0
0
0
0
0
0
0
0
0
0
0
0
0
0
0
0
0
0
0
0
0
0
0
0
0
0
0
0
0
0
0
0
0
0
0
0
0
0
0
0
0
0
0
0
0
0
0
0
0
0
0
0
0
0
0
0
0
0
0
0
0
0
0
0
0
0
0
0
0
0
0
0
0
0
0
0
0
0
0
0
0
0
0
0
0
0
0
0
0
0
0
0
0
0
0
0
0
0
0
0
0
0
0
0
0
0
0
0
0
0
0
0
0
0
0
0
0
0
0
0
0
0
0
0
0
0
0
0
0
0
0
0
0
0
0
0
0
0
0
0
0
0
0
0
0
0
0
0
0
0
0
0
0
0
0
0
0
0
0
0
0
0
0
0
0
0
0
0
0
0
0
0
0
0
0
0
0
0
0
0
0
0
0
0
0
0
0
0
0
0
0
0
0
0
0
0
0
0
0
0
0
0
0
0
0
0
0
0
0
0
0
0
0
0
0
0
0
0
0
0
0
0
0
0
0
0
0
0
0
0
0
0
0
0
0
0
0
0
0
0
0
0
0
0
0
0
0
0
0
0
0
0
0
0
0
0
0
0
0
0
0
0
0
0
0
0
0
0
0
0
0
0
0
0
0
0
0
0
0
0
0
0
0
0
0
0
0
0
0
0
0
0
0
0
0
0
0
0
0
0
0
0
0
0
0
0
0
0
0
0
0
0
0
0
0
0
0
0
0
0
0
0
0
0
0
0
0
0
0
0
0
0
0
0
0
0
0
0
0
0
0
0
0
0
0
0
0
0
0
0
0
0
0
0
0
0
0
0
0
0
0
0
0
0
0
0
0
0
0
0
0
0
0
0
0
0
0
0
0
0
0
0
0
0
0
0
0
0
0
0
0
0
0
0
0
0
0
0
0
0
0
0
0
0
0
0
0
0
0
0
0
0
0
0
0
0
0
0
0
0
0
0
0
0
0
0
0
0
0
0
0
0
0
0
0
0
0
0
0
0
0
0
0
0
0
0
0
0
0
0
0
0
0
0
0
0
0
0
0
0
0
0
0
0
0
0
0
0
0
0
0
0
0
0
0
0
0
0
0
0
0
0
0
0
0
0
0
0
0
0
0
0
0
0
0
0
0
0
0
0
0
0
0
0
0
0
0
0
0
0
0
0
0
0
0
0
0
0
0
0
0
0
0
0
0
0
0
0
0
0
0
0
0
0
0
0
0
0
0
0
0
0
0
0
0
0
0
0
0
0
0
0
0
0
0
0
0
0
0
0
0
0
0
0
0
0
0
0
0
0
0
0
0
0
0
0
0
0
0
0
0
0
0
0
0
0
0
0
0
0
0
0
0
0
0
0
0
0
0
0
0
0
0
0
0
0
0
0
0
0
0
0
0
0
0
0
0
0
0
0
0
0
0
0
0
0
0
0
0
0
0
0
0
0
0
0
0
0
0
0
0
0
0
0
0
0
0
0
0
0
0
0
0
0
0
0
0
0
0
0
0
0
0
0
0
0
0
0
0
0
0
0
0
0
0
0
0
0
0
0
0
0
0
0
0
0
0
0
0
0
0
0
0
0
0
0
0
0
0
0
0
0
0
0
0
0
0
0
0
0
0
0
0
0
0
0
0
0
0
0
0
0
0
0
0
0
0
0
0
0
0
0
0
0
0
0
0
0
0
0
0
0
0
0
0
0
0
0
0
0
0
0
0
0
0
0
0
0
0
0
0
0
0
0
0
0
0
0
0
0
0
0
0
0
0
0
0
0
0
0
0
0
0
0
0
0
0
0
0
0
0
0
0
0
0
0
0
0
0
0
0
0
0
0
0
0
0
0
0
0
0
0
0
0
0
0
0
0
0
0
0
0
0
0
0
0
0
0
0
0
0
0
0
0
0
0
0
0
0
0
0
0
0
0
0
0
0
0
0
0
0
0
0
0
0
0
0
0
0
0
0
0
0
0
0
0
0
0
0
0
0
0
0
0
0
0
0
0
0
0
0
0
0
0
0
0
0
0
0
0
0
0
0
0
0
0
0
0
0
0
0
0
0
0
0
0
0
0
0
0
0
0
0
0
0
0
0
0
0
0
0
0
0
0
0
0
0
0
0
0
0
0
0
0
0
0
0
0
0
0
0
0
0
0
0
0
0
0
0
0
0
0
0
0
0
0
0
0
0
0
0
0
0
0
0
0
0
0
0
0
0
0
0
0
0
0
0
0
0
0
0
0
0
0
0
0
0
0
0
0
0
0
0
0
0
0
0
0
0
0
0
0
0
0
0
0
0
0
0
0
0
0
0
0
0
0
0
0
0
0
0
0
0
0
0
0
0
0
0
0
0
0
0
0
0
0
0
0
0
0
0
0
0
0
0
0
0
0
0
0
0
0
0
0
0
0
0
0
0
0
0
0
0
0
0
0
0
0
0
0
0
0
0
0
0
0
0
0
0
0
0
0
0
0
0
0
0
0
0
0
0
0
0
0
0
0
0
0
0
0
0
0
0
0
0
0
0
0
0
0
0
0
0
0
0
0
0
0
0
0
0
0
0
0
0
0
0
0
0
0
0
0
0
0
0
0
0
0
0
0
0
0
0
0
0
0
0
0
0
0
0
0
0
0
0
0
0
0
0
0
0
0
0
0
0
0
0
0
0
0
0
0
0
0
0
0
0
0
0
0
0
0
0
0
0
0
0
0
0
0
0
0
0
0
0
0
0
0
0
0
0
0
0
0
0
0
0
0
0
0
0
0
0
0
0
0
0
0
0
0
0
0
0
0
0
0
0
0
0
0
0
0
0
0
0
0
0
0
0
0
0
0
0
0
0
0
0
0
0
0
0
0
0
0
0
0
0
0
0
0
0
0
0
0
0
0
0
0
0
0
0
0
0
0
0
0
0
0
0
0
0
0
0
0
0
0
0
0
0
0
0
0
0
0
0
0
0
0
0
0
0
0
0
0
0
0
0
0
0
0
0
0
0
0
0
0
0
0
0
0
0
0
0
0
0
0
0
0
0
0
0
0
0
0
0
0
0
0
0
0
0
0
0
0
0
0
0
0
0
0
0
0
0
0
0
0
0
0
0
0
0
0
0
0
0
0
0
0
0
0
0
0
0
0
0
0
0
0
0
0
0
0
0
0
0
0
0
0
0
0
0
0
0
0
0
0
0
0
0
0
0
0
0
0
0
0
0
0
0
0
0
0
0
0
0
0
0
0
0
0
0
0
0
0
0
0
0
0
0
0
0
0
0
0
0
0
0
0
0
0
0
0
0
0
0
0
0
0
0
0
0
0
0
0
0
0
0
0
0
0
0
0
0
0
0
0
0
0
0
0
0
0
0
0
0
0
0
0
0
0
0
0
0
0
0
0
0
0
0
0
0
0
0
0
0
0
0
0
0
0
0
0
0
0
0
0
0
0
0
0
0
0
0
0
0
0
0
0
0
0
0
0
0
0
0
0
0
0
0
0
0
0
0
0
0
0
0
0
0
0
0
0
0
0
0
0
0
0
0
0
0
0
0
0
0
0
0
0
0
0
0
0
0
0
0


VECTORS element_materi_velocity float
3.008178803501e-01 -1.145859833035e-01 0.0 
2.945505616192e-01 -1.244925912896e-01 0.0 
4.385960943965e-02 -1.306164655947e-02 0.0 
4.176746521665e-03 -1.300747883010e-03 0.0 
3.625424434559e-02 1.015947879829e-02 0.0 
1.840011039439e-01 -2.256760035553e-01 0.0 
2.769496257219e-02 8.731411324808e-03 0.0 
2.930463181239e-01 -1.407304238049e-01 0.0 
3.052056903524e-02 9.253999706875e-03 0.0 
6.346565021644e-03 -2.061302755041e-03 0.0 
-7.694426069961e-03 -4.668125184839e-02 0.0 
2.901959671625e-01 -1.442929257008e-01 0.0 
3.915582492935e-03 -1.062703508788e-02 0.0 
5.342117401211e-02 9.705368131901e-03 0.0 
2.925595519249e-03 -7.226825512829e-03 0.0 
3.610067747846e-03 -1.409280625996e-03 0.0 
4.568888451486e-02 1.190882666917e-02 0.0 
1.800340936887e-01 -2.210263763811e-01 0.0 
3.110023461943e-02 -8.398649616213e-02 0.0 
2.021140577845e-02 -7.180090582559e-02 0.0 
7.673428828568e-03 -2.263163283225e-03 0.0 
2.986162545995e-01 -8.061560764504e-02 0.0 
2.841483924240e-01 -7.488337948078e-02 0.0 
9.696121015041e-03 -2.185724066607e-02 0.0 
6.428231581989e-02 5.226310230830e-03 0.0 
-8.491679235763e-03 -4.556226002667e-02 0.0 
7.555615481767e-02 1.687617061805e-02 0.0 
2.848029893002e-02 -1.206498918568e-02 0.0 
6.816860267699e-02 3.911348189955e-03 0.0 
6.307478035894e-03 -1.665760870219e-02 0.0 
1.523338452221e-01 -2.065415372870e-01 0.0 
1.279279507028e-01 -1.711168634960e-01 0.0 
5.742026625694e-02 -1.842645617121e-02 0.0 
2.544078578399e-04 -3.465898803954e-02 0.0 
-1.257594673658e-03 -9.799715619194e-03 0.0 
6.152989270560e-04 -4.200972056582e-03 0.0 
9.034608281718e-04 -4.220418547207e-03 0.0 
1.835766248854e-02 -1.422396850495e-02 0.0 
2.339284697636e-02 9.874636141690e-03 0.0 
2.133471804155e-02 9.628532947202e-03 0.0 
2.418073849133e-01 -3.490750187038e-02 0.0 
-7.281552887421e-04 -8.180697128385e-03 0.0 
2.629250637493e-01 -1.822883925716e-01 0.0 
7.823681087293e-02 1.049242807667e-02 0.0 
2.114955089016e-03 -9.869807935888e-04 0.0 
2.583517089352e-01 -1.984129403987e-01 0.0 
1.544744819414e-01 -2.086795952952e-01 0.0 
2.451130531834e-03 -1.041082345642e-03 0.0 
1.535068494614e-01 -2.106973444032e-01 0.0 
5.190505480772e-02 1.072988559365e-02 0.0 
2.666431910565e-01 -5.492950636519e-02 0.0 
1.871626048605e-02 -6.289403025626e-02 0.0 
1.510856364120e-01 -1.969221202240e-01 0.0 
2.690509780646e-01 -4.231915694783e-02 0.0 
4.424230811416e-02 -1.030314219144e-02 0.0 
9.883913343878e-03 -4.854072351645e-02 0.0 
1.106350868604e-02 -5.426548374726e-02 0.0 
9.738491479051e-04 -3.264833841292e-02 0.0 
8.499628514879e-02 -1.240264644160e-01 0.0 
4.473695102144e-03 -1.935291103813e-03 0.0 
1.638446603043e-01 -2.137851811708e-01 0.0 
3.948072803970e-02 -2.154261677040e-02 0.0 
1.774772958116e-01 -9.573865338334e-02 0.0 
1.505703569843e-01 -2.001989158723e-01 0.0 
4.281231901921e-03 -1.008641616588e-02 0.0 
2.882891605915e-01 -6.197751282712e-02 0.0 
1.660124762695e-01 -2.140383104623e-01 0.0 
4.895395566588e-02 -1.306253684862e-02 0.0 
1.122157175267e-01 -1.839055886436e-01 0.0 
2.817227919534e-02 -9.062354797621e-03 0.0 
-7.931173072088e-03 -4.035781883664e-02 0.0 
6.514657709170e-03 -1.988658501341e-03 0.0 
3.862807102122e-02 -1.674960502126e-02 0.0 
9.046663393090e-03 -1.348837036621e-01 0.0 
3.252880309692e-03 -4.306894938103e-02 0.0 
1.792017284715e-02 -2.688591934053e-03 0.0 
5.294310597003e-02 -1.290092126664e-02 0.0 
2.197805863896e-01 -2.332934104252e-01 0.0 
9.026658841866e-02 -1.211001389984e-01 0.0 
2.239129430716e-01 -2.272575144139e-01 0.0 
1.188028675482e-01 -1.857708936158e-01 0.0 
4.338072630317e-02 1.117596107276e-02 0.0 
2.947664994325e-01 -9.463094082443e-02 0.0 
3.038965308852e-01 -1.007903386764e-01 0.0 
3.429308251809e-02 8.788123106431e-03 0.0 
3.153633535936e-02 8.326967693475e-03 0.0 
-6.127664958091e-03 -4.162447108281e-02 0.0 
-5.286817443828e-04 -3.849789574645e-02 0.0 
1.123750346164e-01 -3.220598856057e-02 0.0 
3.879635946277e-02 1.044608732013e-02 0.0 
1.257836797939e-01 -1.760915988031e-01 0.0 
7.030760938428e-02 6.559431755008e-03 0.0 
6.104689577585e-03 3.463848266960e-04 0.0 
7.380355942935e-03 7.696485636129e-04 0.0 
1.425056890235e-02 -3.681839400404e-03 0.0 
1.300344617842e-02 -9.392822328190e-03 0.0 
4.799871320810e-02 1.161763054143e-02 0.0 
-1.063165238382e-03 -9.800877012239e-03 0.0 
4.479936268085e-03 3.760525338183e-03 0.0 
2.104147518439e-01 -1.051760982452e-01 0.0 
3.531491484163e-02 1.094113267681e-02 0.0 
3.229304436125e-03 -7.406406045477e-03 0.0 
7.562684691854e-02 -5.324750781456e-02 0.0 
3.840442472303e-02 -2.202169276851e-02 0.0 
1.735885850154e-01 -1.493071904492e-01 0.0 
1.519418617769e-01 -2.087281127108e-01 0.0 
4.508273982685e-03 -1.932303825430e-02 0.0 
6.232603160148e-03 -2.338251953128e-04 0.0 
1.575568434213e-01 -2.120735139428e-01 0.0 
2.089165939504e-03 -6.978796475759e-03 0.0 
1.155374683520e-01 -3.200322203112e-02 0.0 
1.567554757768e-02 -1.464347244537e-01 0.0 
1.533870240154e-01 -1.291089146905e-01 0.0 
1.079813129849e-01 6.129014737589e-03 0.0 
-1.000907993570e-02 -4.862793949216e-02 0.0 
2.371876755940e-01 -1.235803244106e-01 0.0 
1.685368417538e-01 -1.020022988334e-01 0.0 
-8.114955333510e-04 -7.171055606673e-03 0.0 
5.691681795611e-03 4.478706128541e-03 0.0 
1.862241110484e-01 -1.179687716371e-01 0.0 
1.042839748851e-01 -1.722858897808e-01 0.0 
7.364828309032e-02 6.239424643090e-03 0.0 
4.942711062044e-03 -4.802827212695e-04 0.0 
1.732317047551e-01 -1.242939041659e-01 0.0 
1.955606598719e-01 -2.396475865556e-01 0.0 
1.772478378183e-01 -1.013592181811e-02 0.0 
-7.180227730488e-03 -4.653253017458e-02 0.0 
2.113038795246e-01 -1.440220217396e-02 0.0 
1.580054589361e-02 -3.061331805194e-03 0.0 
1.970301155074e-01 -2.386771295960e-01 0.0 
-1.046756872369e-02 -4.427908763540e-02 0.0 
3.300259005337e-03 -1.088085138155e-03 0.0 
1.409055747451e-01 -4.231385137950e-02 0.0 
2.112545761231e-01 -2.180971428938e-02 0.0 
-1.335321497495e-03 -1.005966641383e-02 0.0 
3.106303813031e-03 -1.064016791947e-02 0.0 
-5.294530393680e-03 -3.888940669451e-02 0.0 
1.329551787644e-01 -3.854544092893e-02 0.0 
2.407999386344e-03 -1.094279854681e-02 0.0 
1.659595530840e-01 -4.021033836921e-02 0.0 
1.004411307317e-02 -2.396322775847e-03 0.0 
3.474720466545e-02 -1.075145177272e-02 0.0 
5.646791967128e-02 9.555657786629e-03 0.0 
1.417614901597e-02 2.423893806804e-03 0.0 
1.608891366454e-01 -4.476455150587e-02 0.0 
2.435139979356e-01 -2.564258960974e-02 0.0 
1.337268009706e-01 -4.212496778097e-02 0.0 
1.520019818468e-01 -1.308455039916e-01 0.0 
2.659442672742e-02 9.456683857761e-03 0.0 
1.533345861221e-01 -1.401088031118e-01 0.0 
1.241414834725e-01 -1.658564567494e-01 0.0 
6.486441343204e-03 6.080653674529e-03 0.0 
3.496837105509e-02 -9.552873342163e-02 0.0 
1.411313373501e-01 1.208701728190e-03 0.0 
1.126103681964e-03 -8.738306602215e-03 0.0 
1.891779948207e-01 -1.429013809303e-01 0.0 
-3.477537712269e-03 -3.948808637206e-02 0.0 
2.766837638784e-01 -1.712909256322e-01 0.0 
7.916931868698e-02 -5.215359263679e-02 0.0 
1.515659521321e-02 7.434284069425e-03 0.0 
1.506742780748e-01 -1.476145596643e-01 0.0 
3.245028155368e-03 -2.758152156483e-02 0.0 
1.055087668756e-01 -1.771892090023e-01 0.0 
5.414739726202e-03 -1.817874952924e-02 0.0 
9.765616907222e-02 -6.792521345931e-03 0.0 
2.899831427065e-03 -8.693830163884e-03 0.0 
6.465402561190e-03 6.980497896576e-03 0.0 
1.548914556966e-01 -1.426559916111e-01 0.0 
1.362304891395e-01 7.701208375160e-03 0.0 
-5.017760038989e-03 -4.670389156801e-02 0.0 
2.792375498064e-01 -1.573146245947e-01 0.0 
1.505093789368e-01 -1.568993948396e-01 0.0 
1.244256055473e-02 1.550432735027e-03 0.0 
1.732098772190e-02 8.273539134297e-03 0.0 
1.494520803758e-01 -1.334143610555e-01 0.0 
1.750762968930e-01 -9.892768236673e-04 0.0 
8.123244790716e-02 -2.739611390850e-02 0.0 
-1.382042996937e-02 -4.765376993732e-02 0.0 
2.198841490370e-02 -9.757190929456e-03 0.0 
3.349639757226e-02 -1.147275267050e-02 0.0 
2.678305655680e-01 -1.318440089594e-01 0.0 
-1.323730591532e-02 -4.641346294830e-02 0.0 
2.525812376570e-02 -3.545558778814e-02 0.0 
2.008620954259e-01 -4.406498768142e-02 0.0 
2.806313174077e-01 -1.461050440808e-01 0.0 
9.555994988282e-02 1.740953742373e-03 0.0 
1.511695337673e-01 -1.248509233932e-01 0.0 
6.751349370889e-03 -2.404884958427e-03 0.0 
9.775180369850e-02 -1.966613863653e-02 0.0 
3.644680622704e-03 -2.442434212672e-02 0.0 
2.379668660542e-01 -2.214207475678e-01 0.0 
1.483219149194e-01 -1.709069596915e-01 0.0 
1.060767052565e-01 -2.782118268442e-02 0.0 
1.866413695452e-01 -2.315800075736e-01 0.0 
2.064458671299e-01 -3.588263147078e-02 0.0 
2.485085152507e-02 -4.820517595444e-02 0.0 
1.123403855634e-01 -1.384417659516e-01 0.0 
5.914298733293e-02 -1.531784289676e-02 0.0 
7.635690546940e-02 -2.309883865079e-03 0.0 
7.399810527246e-02 -1.184860844926e-01 0.0 
2.839094574548e-02 -4.926855175116e-02 0.0 
7.151540995487e-02 5.339826410887e-03 0.0 
6.202042473309e-02 7.265370718697e-03 0.0 
4.337098775599e-03 -1.585016383146e-02 0.0 
7.322877210169e-02 -1.415063729199e-01 0.0 
1.414011096950e-01 -5.693496970960e-02 0.0 
1.067574047528e-01 -1.608399727104e-02 0.0 
7.373767843362e-02 -2.929894164950e-03 0.0 
9.657906698849e-02 -6.171249363883e-03 0.0 
1.002763133273e-01 -2.104420651004e-03 0.0 
9.147531528071e-02 -7.838036889447e-02 0.0 
1.022699894100e-01 -3.640211554276e-02 0.0 
1.826353566133e-01 -2.268129263825e-01 0.0 
2.778922872978e-01 -1.209440540829e-01 0.0 
2.233129042667e-01 -9.881272160916e-02 0.0 
1.377132194200e-01 -5.026378492874e-02 0.0 
9.396329987978e-02 -2.021360484523e-02 0.0 
1.789959363830e-01 -2.186102612798e-01 0.0 
2.431398236668e-02 -5.331236206308e-02 0.0 
1.943626574919e-02 8.288450996833e-03 0.0 
1.483735547843e-01 -1.635602462944e-01 0.0 
2.384555419637e-02 -5.692674347097e-02 0.0 
1.219820742760e-01 -1.525064519418e-01 0.0 
7.524864884749e-02 -5.443888845943e-03 0.0 
1.258032682456e-01 -1.506955487737e-01 0.0 
1.059172719628e-01 -1.345156127385e-01 0.0 
2.431238739433e-01 -2.085714570910e-01 0.0 
7.984624419405e-02 -1.519593749356e-01 0.0 
7.173575182610e-02 -5.964570767456e-03 0.0 
8.504774161154e-02 -1.569751813691e-01 0.0 
2.238360888393e-01 -2.196914707743e-01 0.0 
1.371013232942e-01 -1.915736562774e-01 0.0 
9.681829470820e-02 -1.672530046199e-01 0.0 
2.866935026205e-02 -4.273627308376e-02 0.0 
1.030696151924e-01 -1.213719789493e-02 0.0 
3.965548341352e-03 -9.802913097314e-03 0.0 
1.838291748198e-01 -2.281278650575e-01 0.0 
1.859823241011e-01 -1.891044773456e-01 0.0 
1.524679642203e-01 -1.581337461836e-01 0.0 
2.338158262013e-01 -5.570020749838e-02 0.0 
2.804110750216e-02 -5.516794528819e-02 0.0 
1.848996628033e-03 -7.674152970831e-03 0.0 
9.542164709454e-02 -1.592892633308e-02 0.0 
1.467156767308e-01 -1.872939966691e-01 0.0 
2.536272744487e-02 -4.227622249422e-02 0.0 
-6.788418148570e-03 -4.437605561620e-02 0.0 
1.331092398865e-01 -4.104002394029e-02 0.0 
8.296641957501e-02 -6.992869204944e-03 0.0 
3.249620651489e-02 -1.693164428440e-02 0.0 
1.513858113523e-01 -1.649722228630e-01 0.0 
2.140730371580e-01 -2.052115751356e-01 0.0 
1.004191174295e-01 -1.083766246631e-02 0.0 
1.113898388635e-02 -3.084284408006e-03 0.0 
1.450337385006e-01 -6.657374959445e-02 0.0 
1.179554523468e-01 -1.259712535732e-01 0.0 
1.460585528657e-02 6.309264569735e-03 0.0 
1.251543988758e-01 -1.938002544233e-01 0.0 
9.189233178357e-02 -2.199471536301e-03 0.0 
1.469750809927e-01 -1.820529388814e-01 0.0 
1.622186387724e-01 -2.068605872649e-01 0.0 
1.538981593619e-01 -2.045688669375e-01 0.0 
6.709735239548e-02 -4.075370014693e-03 0.0 
1.060611505320e-01 -1.562803596087e-02 0.0 
1.547528210999e-01 -1.188892260652e-01 0.0 
6.309588466527e-02 -4.559557194488e-03 0.0 
1.035281421720e-01 -2.335461420930e-02 0.0 
1.277511356396e-01 -3.467977393977e-02 0.0 
2.452315388709e-04 -6.597835556989e-03 0.0 
1.099354804584e-01 -1.183374849381e-01 0.0 
1.215034791366e-01 -2.848725701265e-02 0.0 
1.559407946361e-01 -1.217204586619e-01 0.0 
1.048450997494e-01 -1.074907204520e-01 0.0 
1.501924085308e-01 -1.984788439663e-01 0.0 
6.221309608113e-02 1.102727751343e-02 0.0 
1.434424429707e-01 -1.635551655142e-01 0.0 
1.346418318028e-01 -1.763293331243e-01 0.0 
9.011106628133e-02 -1.287457838029e-02 0.0 
1.822026671686e-01 -2.257045090868e-01 0.0 
9.172455154958e-02 -3.356565093332e-03 0.0 
1.463051368751e-01 -1.868624721370e-01 0.0 
1.716194876102e-01 -1.888679525574e-01 0.0 
1.511911860546e-01 -1.983570449956e-01 0.0 
1.040638890424e-01 -1.507203927531e-02 0.0 
1.189021321179e-01 -1.765686993571e-01 0.0 
2.072043877493e-01 -7.579744428251e-02 0.0 
9.361200101035e-02 -9.770455475402e-02 0.0 
1.012962588878e-01 -1.105996460271e-02 0.0 
6.479756658700e-02 8.429634371841e-03 0.0 
1.759747175349e-01 -2.163467379639e-01 0.0 
1.383884893710e-01 -1.813920780082e-01 0.0 
1.347835946611e-01 -1.756918336938e-01 0.0 
2.601475497465e-01 -1.063169928980e-01 0.0 
8.786297497178e-02 -9.478185140298e-03 0.0 
1.956648859960e-01 -8.246664937970e-02 0.0 
1.443664700459e-01 -1.713593402908e-01 0.0 
1.493755862040e-01 -1.710845849161e-01 0.0 
1.743600229978e-01 -2.140083924940e-01 0.0 
1.588497086653e-01 -1.256912943943e-01 0.0 
2.198004897513e-01 -2.360560611107e-01 0.0 
2.474103718203e-02 -6.022934297917e-03 0.0 
2.415240178538e-02 -7.288607769939e-03 0.0 
1.492448676733e-01 -7.230368785627e-02 0.0 
1.476948565105e-01 -1.925478759193e-01 0.0 
1.709815564908e-01 -2.017645173395e-01 0.0 
1.257321923990e-01 -3.371584349823e-02 0.0 
1.521577134538e-01 -1.954091331422e-01 0.0 
1.391657429495e-01 -1.802478387683e-01 0.0 
1.283407014351e-01 -3.534128410219e-02 0.0 
1.280144842552e-02 -2.333308784400e-03 0.0 
1.469719371563e-01 -1.765427043766e-01 0.0 
9.642404513769e-02 -7.671652472671e-02 0.0 
2.131002572259e-01 -2.294681055590e-01 0.0 
2.296538401966e-03 -4.758294023143e-03 0.0 
1.553090162645e-01 -1.921426808815e-01 0.0 
1.377015714825e-01 -4.593265691566e-02 0.0 
1.668643501314e-01 -2.075052853131e-01 0.0 
5.772214101502e-02 -8.613826963894e-02 0.0 
1.490521160098e-01 -1.618820121674e-01 0.0 
1.262161590609e-01 -1.668327149546e-01 0.0 
1.119044577227e-01 -1.989689174841e-02 0.0 
1.418238826099e-02 -3.705857166222e-03 0.0 
1.468878081551e-01 -1.811540185536e-01 0.0 
8.825329731468e-02 -9.871875249235e-02 0.0 
1.993089322960e-01 -2.274550117898e-01 0.0 
4.758631066677e-02 5.812882543583e-03 0.0 
2.763704865927e-02 -5.968848006302e-02 0.0 
2.197058886756e-01 -1.835810078687e-01 0.0 
4.642879748718e-02 6.992940079008e-03 0.0 
1.288520545718e-02 -4.494478214068e-03 0.0 
1.776105679122e-02 -4.497643725703e-02 0.0 
1.555213563514e-02 -3.434138082197e-03 0.0 
5.669428681993e-02 6.744578608238e-03 0.0 
1.216952445441e-01 -3.695616437137e-02 0.0 
2.498820767654e-01 -2.120345681555e-01 0.0 
1.125406800408e-01 -1.620034879479e-02 0.0 
1.161993892474e-01 -2.377268198083e-02 0.0 
1.151461097028e-01 -2.401651350635e-02 0.0 
1.480808192659e-01 -7.854189956017e-02 0.0 
1.177297511124e-02 -4.568245523881e-03 0.0 
7.004593097111e-02 4.319502786405e-03 0.0 
8.825307042281e-02 1.024630875029e-03 0.0 
1.479659179366e-01 -1.757985489971e-01 0.0 
8.718738294980e-02 -1.606140880930e-01 0.0 
1.196042790426e-01 -1.041166106845e-02 0.0 
1.880171257247e-01 -1.690205791512e-01 0.0 
1.307023870279e-02 7.808800862809e-03 0.0 
1.215240251629e-01 -1.624181988520e-01 0.0 
1.469474986594e-01 -1.820757991578e-01 0.0 
8.153129733530e-02 -1.059890082709e-02 0.0 
1.726007936119e-01 -1.727244469954e-01 0.0 
1.130618343529e-01 -1.849854920140e-02 0.0 
8.016146017799e-02 -9.101411653753e-02 0.0 
5.244169693039e-02 -9.114186327408e-02 0.0 
9.099652041695e-03 -4.822275163229e-03 0.0 
1.732386719162e-01 -2.559586344035e-02 0.0 
1.465401094395e-01 -1.915505903575e-01 0.0 
7.970983641253e-02 -1.247574102888e-01 0.0 
2.711902753801e-01 -1.576037347196e-01 0.0 
2.394716022059e-01 -1.773048618256e-01 0.0 
1.018541476977e-01 -2.787678699143e-02 0.0 
1.371951357361e-01 -4.528121730222e-02 0.0 
2.263168968428e-01 -6.259007075363e-02 0.0 
1.235916787035e-01 -1.620454248360e-02 0.0 
6.425501131859e-03 -5.601264978663e-03 0.0 
1.796161004713e-02 -1.551538961514e-02 0.0 
9.551708079450e-02 -2.395768472501e-02 0.0 
8.001894767815e-02 -7.618951663599e-03 0.0 
5.967673291474e-02 -9.871808863347e-02 0.0 
1.602269648966e-01 -8.320784758296e-02 0.0 
1.477073866759e-01 -1.954461198227e-01 0.0 
1.462857278383e-01 -1.903574544096e-01 0.0 
1.420070228416e-01 -5.368878553720e-02 0.0 
6.385872610129e-02 -9.302212091504e-02 0.0 
2.040045732168e-02 -7.550049284355e-02 0.0 
7.824985043601e-02 -1.399106352282e-02 0.0 
1.450936297050e-01 -1.884436279630e-01 0.0 
1.507189713081e-01 -9.094627496846e-02 0.0 
1.225672829015e-01 -2.892856620121e-02 0.0 
1.493743308377e-01 -9.147610743115e-02 0.0 
1.860930330980e-02 -5.223669920917e-03 0.0 
2.636679614841e-02 -7.023978041607e-03 0.0 
6.008550678515e-02 -1.702097932797e-02 0.0 
4.791626502624e-02 -8.662389917387e-02 0.0 
5.867594948886e-02 -3.061913531830e-03 0.0 
2.323802696196e-01 -2.033919735029e-01 0.0 
1.451866193186e-01 -1.836949112089e-01 0.0 
1.613626100416e-01 -2.040085449983e-01 0.0 
1.793625902041e-01 -6.108681060913e-02 0.0 
5.729132175777e-02 1.177381065885e-02 0.0 
5.313381686539e-02 7.041042492478e-03 0.0 
7.931460864430e-03 -1.347227524008e-02 0.0 
1.141325368107e-01 -3.659881006419e-02 0.0 
9.553414529620e-02 -7.106040784513e-03 0.0 
1.192498948414e-01 -2.827924475325e-02 0.0 
1.550455473862e-01 -1.998455776259e-01 0.0 
1.261722947881e-01 -1.957494521306e-01 0.0 
1.559139074487e-01 -1.426035898933e-01 0.0 
1.554075373042e-01 -9.198594825109e-02 0.0 
1.588752593712e-01 -1.355745372044e-01 0.0 
1.982878179916e-01 -2.398347098093e-01 0.0 
1.214491728036e-02 5.636824149103e-03 0.0 
9.256418350598e-02 -1.657283854046e-01 0.0 
1.544710680847e-01 -1.793335110261e-01 0.0 
1.460154133910e-03 -2.466310657471e-03 0.0 
7.768523387224e-02 -7.260105129887e-02 0.0 
8.497822732489e-02 2.761286642113e-03 0.0 
2.642660181011e-02 -9.883006855352e-02 0.0 
1.443804706951e-01 -6.973908539923e-02 0.0 
1.552121846848e-01 -1.513436977898e-01 0.0 
1.090348039260e-01 -1.935106741460e-02 0.0 
1.382128931357e-02 -3.902199798199e-03 0.0 
1.076955138501e-01 -1.365189196569e-02 0.0 
1.310580988689e-01 -3.920445291145e-02 0.0 
2.952178928582e-02 -8.027619230732e-02 0.0 
7.253946576206e-02 -8.514518483521e-03 0.0 
4.001045338318e-02 -7.806899468554e-02 0.0 
1.372873414475e-02 -4.293306760817e-03 0.0 
8.095199705714e-03 -1.560888070165e-03 0.0 
1.201253921492e-02 -2.624782175497e-03 0.0 
1.363829818130e-02 -3.625825919187e-03 0.0 
1.126699626712e-01 -2.346798980128e-02 0.0 
7.756471244059e-02 -1.097378572550e-02 0.0 
1.013987385141e-01 -3.087223543802e-02 0.0 
1.481682894530e-01 -8.228807248475e-02 0.0 
1.655164026583e-01 -7.629922021534e-02 0.0 
1.138429048655e-02 -7.817514780853e-02 0.0 
8.373851232520e-02 -1.721799278590e-02 0.0 
1.230828758472e-02 -4.540435003281e-03 0.0 
6.332291358660e-02 -6.797664583649e-03 0.0 
9.022600596134e-02 -8.873951290346e-02 0.0 
6.812809525277e-02 -8.863425119919e-03 0.0 
1.163160225051e-01 -6.121743462083e-02 0.0 
1.544760663222e-01 -9.595222760703e-02 0.0 
1.882927496288e-01 -5.550906407333e-02 0.0 
1.813161197331e-01 -2.144678439972e-01 0.0 
2.443028070538e-02 -5.132730129008e-03 0.0 
1.524925522236e-01 -9.865952797937e-02 0.0 
4.184459288866e-02 -1.638018774871e-02 0.0 
2.102785324858e-02 -8.304886857109e-02 0.0 
1.192484663389e-01 -1.632390425903e-01 0.0 
4.919389695711e-03 -1.019610764813e-02 0.0 
1.543774316626e-01 -1.635560181800e-01 0.0 
7.456935929427e-03 -1.873250012032e-03 0.0 
4.708013321920e-02 -1.224653929231e-02 0.0 
1.416371918014e-01 -5.027613008777e-02 0.0 
1.339913480316e-01 -1.982344266390e-01 0.0 
7.095836982006e-03 -2.069592644010e-03 0.0 
9.985911288282e-03 -1.112392825236e-02 0.0 
1.246080023327e-01 -1.671398577386e-01 0.0 
7.688409166818e-02 -8.250891928876e-02 0.0 
8.768195896920e-03 -5.115847230500e-03 0.0 
1.415448906934e-01 -1.940336505310e-01 0.0 
1.498819558610e-01 -9.550429356573e-02 0.0 
1.353412949140e-01 -4.430501851048e-02 0.0 
1.460714627600e-01 -6.018540359557e-02 0.0 
1.320132383447e-01 -3.972707416444e-02 0.0 
1.839265233350e-01 -2.031966438602e-01 0.0 
6.252308294431e-03 -2.270764097261e-03 0.0 
1.386689073560e-01 -1.710747423496e-01 0.0 
1.714028078833e-01 -2.126475604964e-01 0.0 
-7.943950686385e-05 -7.949793766476e-03 0.0 
1.350338905769e-01 -1.928137731545e-01 0.0 
1.433652927459e-01 -2.568361782962e-02 0.0 
1.481533162504e-01 -2.040064269673e-01 0.0 
1.175985246400e-01 -4.208866302758e-03 0.0 
4.926940903917e-03 -5.392544162867e-03 0.0 
5.716995820950e-03 -2.298574617861e-03 0.0 
1.101549239573e-01 -1.968476196376e-02 0.0 
1.486952539171e-01 -2.077042056976e-01 0.0 
1.717561343617e-01 -2.137645590873e-01 0.0 
1.470473451100e-01 -2.051205779623e-01 0.0 
-1.915077117057e-03 -2.086853780000e-02 0.0 
5.840100503363e-02 1.279498155280e-02 0.0 
8.393608193901e-02 2.040071882187e-03 0.0 
4.698226539878e-03 -2.368368170236e-03 0.0 
5.453751663513e-02 1.222898799244e-02 0.0 
2.302209728718e-02 -5.160168186189e-03 0.0 
1.085771540412e-01 -5.773245423880e-02 0.0 
4.843518320392e-02 8.299989209153e-03 0.0 
2.431393368027e-01 -1.498717275402e-01 0.0 
8.158993375585e-02 -8.124851339302e-02 0.0 
1.723562922473e-01 -2.149591963656e-01 0.0 
4.366770395103e-03 -2.661940237506e-03 0.0 
1.051410360408e-02 -3.662781850752e-03 0.0 
1.272849796711e-02 -3.398152122420e-03 0.0 
3.613353685525e-02 -7.362370989626e-02 0.0 
4.271283694966e-03 -7.830732309739e-02 0.0 
1.566948032617e-01 -1.053585506225e-01 0.0 
2.764413989539e-02 -6.417761354684e-02 0.0 
3.647313439067e-03 -2.865493845269e-03 0.0 
1.511055635831e-01 -1.840403658708e-01 0.0 
1.260035389489e-01 -1.675102004354e-01 0.0 
1.136897822987e-01 -1.541214978874e-01 0.0 
4.320949025245e-02 6.791730320769e-03 0.0 
1.247465338659e-03 -4.377229054341e-03 0.0 
1.456519835334e-01 -2.091176320431e-01 0.0 
2.148753211125e-03 -2.656773029472e-03 0.0 
1.135327847066e-01 -1.538586552931e-01 0.0 
6.725452331561e-03 -1.832607154189e-03 0.0 
1.073787982672e-01 -3.520945263463e-02 0.0 
1.460897506249e-01 -2.001352815232e-01 0.0 
1.550225437719e-01 -1.109288587961e-01 0.0 
5.423328530067e-02 -3.608371095326e-03 0.0 
6.632897162745e-03 -2.223714116807e-03 0.0 
1.178938678411e-01 -2.806441559734e-02 0.0 
8.799739256428e-02 -4.909336845330e-02 0.0 
2.003464206260e-01 -2.343594863452e-01 0.0 
1.610312319679e-02 -2.068323859485e-02 0.0 
1.019378440543e-01 -1.424400281879e-01 0.0 
1.099546864079e-01 -1.498250819429e-01 0.0 
1.511179825521e-01 -2.115390019288e-01 0.0 
6.055979290286e-03 -2.269670906020e-03 0.0 
1.549027985931e-01 -2.028194188632e-01 0.0 
1.518055554169e-02 -3.884784113959e-02 0.0 
4.705042013119e-02 9.458485950810e-03 0.0 
9.272575478823e-02 -1.468804826461e-01 0.0 
1.219600144954e-01 -1.625695873403e-01 0.0 
1.245318876484e-01 -3.326399971332e-02 0.0 
4.401425501816e-03 -2.453906992993e-03 0.0 
-5.592522125373e-03 -6.745799208272e-02 0.0 
2.362780519993e-02 -5.896399486426e-02 0.0 
1.567443843833e-01 -8.547822069755e-02 0.0 
5.496241655572e-02 -9.139088481117e-02 0.0 
1.210581435978e-01 -1.635555876234e-01 0.0 
3.559325050673e-02 -7.318207027764e-02 0.0 
1.527600381175e-01 -8.063148388385e-02 0.0 
1.239599192914e-01 -5.448706292856e-02 0.0 
6.947257071311e-02 -6.577619514850e-02 0.0 
1.592120612430e-01 -9.660770854128e-02 0.0 
4.761482379729e-02 -9.636055646237e-02 0.0 
1.506105426263e-01 -1.704016069989e-01 0.0 
1.266677358484e-02 -8.477807733195e-02 0.0 
1.021790871555e-01 -5.691127691863e-02 0.0 
9.125077546601e-02 -1.073793756722e-01 0.0 
3.608907345035e-03 -5.123083686943e-03 0.0 
5.849792759029e-02 -7.114374058602e-03 0.0 
9.349334999392e-02 -1.524137630283e-01 0.0 
2.778187692792e-03 -2.735771133395e-03 0.0 
1.105617903226e-02 -1.395630807658e-02 0.0 
1.591888453217e-01 -1.361488366795e-01 0.0 
1.465097244838e-01 -2.109831965819e-01 0.0 
4.736316485129e-04 -4.107937847963e-03 0.0 
7.361891796970e-02 -1.402132357590e-02 0.0 
1.117996434207e-01 -1.548153083064e-01 0.0 
8.363842680555e-04 -2.291983365673e-03 0.0 
2.349048013200e-02 -5.949783482460e-02 0.0 
1.532780132643e-01 -5.798817974361e-02 0.0 
8.704314480294e-02 -8.536774419282e-04 0.0 
1.016998598707e-01 -1.172119424199e-01 0.0 
4.912029467849e-02 -8.730579975901e-02 0.0 
5.460605389226e-02 -8.599890431302e-02 0.0 
8.081534778013e-02 -4.197796087418e-03 0.0 
1.286491331984e-01 -3.290153923394e-02 0.0 
6.867261248563e-02 -5.617526287400e-02 0.0 
1.146335390291e-02 4.602613460577e-03 0.0 
3.948789670513e-02 -9.218709303469e-02 0.0 
6.923154030877e-02 -7.542695774240e-02 0.0 
9.792134146738e-02 -1.396623496874e-01 0.0 
-6.578896285915e-04 -2.899529489936e-02 0.0 
1.486452805738e-01 -2.093927885652e-01 0.0 
1.510966344567e-01 -1.532009514977e-01 0.0 
1.091679389582e-01 -1.501565798959e-01 0.0 
1.114340922516e-02 -6.381223921432e-02 0.0 
1.630354391801e-01 -1.217228967522e-01 0.0 
2.756267421541e-02 -6.405700676612e-02 0.0 
4.208290666432e-02 7.777629809635e-03 0.0 
1.069424580873e-01 -1.518806670669e-01 0.0 
4.110810706038e-04 -2.085245688668e-03 0.0 
1.407384904550e-01 -4.982255254901e-02 0.0 
-4.033265032023e-03 -5.068023075615e-02 0.0 
1.462080674662e-01 -5.742418775958e-02 0.0 
2.393696663673e-03 -5.980239388166e-02 0.0 
1.450262881406e-01 -2.049776899037e-01 0.0 
8.602794398182e-02 -1.840094250808e-03 0.0 
-8.202267279656e-03 -4.291496252285e-02 0.0 
1.249976500399e-01 -1.490596732312e-01 0.0 
-1.266765620610e-02 -5.415184767073e-02 0.0 
1.638599337002e-02 -5.007908831714e-02 0.0 
1.289304543686e-02 -9.416662984646e-04 0.0 
6.371293949266e-02 -9.915869079470e-02 0.0 
5.772586004989e-02 -9.233642658296e-02 0.0 
8.489720380476e-02 5.068155783141e-03 0.0 
5.467164341276e-02 1.332205949700e-02 0.0 
3.388299054556e-02 -6.643118534637e-03 0.0 
1.496766787861e-01 -6.916152602979e-02 0.0 
1.135668425316e-01 -1.544716475982e-01 0.0 
9.644560135544e-02 -1.629487832416e-01 0.0 
1.397337970097e-01 -2.080935576988e-01 0.0 
7.872045802659e-02 -1.470367405976e-01 0.0 
8.376606634184e-02 -3.048914362176e-02 0.0 
1.487375915742e-02 -8.495239975399e-04 0.0 
-1.616057724997e-03 -2.301127624451e-02 0.0 
5.530670290083e-02 -1.303949667456e-01 0.0 
-1.767700858883e-03 -2.880634780649e-02 0.0 
9.902186231107e-03 -3.147634017031e-02 0.0 
1.638205692500e-01 -2.057659352535e-01 0.0 
-5.582438653529e-03 -4.151256101461e-02 0.0 
1.199699541418e-05 -3.903344936178e-02 0.0 
-6.153553620484e-05 -4.025147589793e-03 0.0 
6.255057790907e-05 -2.022692159295e-03 0.0 
-7.173301644313e-03 -4.415718173991e-02 0.0 
-1.051329517974e-02 -4.927608603647e-02 0.0 
4.071794624640e-02 -7.834255086953e-02 0.0 
1.130470389140e-02 -2.731339327654e-02 0.0 
9.022522675499e-02 -1.592199076732e-01 0.0 
8.811021837605e-03 -3.506067089452e-02 0.0 
1.004956060243e-01 -1.404396553068e-01 0.0 
-6.574140723886e-03 -6.237052525709e-02 0.0 
1.098254873339e-02 -5.712794405320e-02 0.0 
8.673549433699e-02 -1.501369936451e-01 0.0 
-5.335470897365e-03 -4.234671264453e-02 0.0 
5.382823448077e-02 -5.422724232936e-03 0.0 
9.333431273769e-02 -1.620380915593e-01 0.0 
5.862544728976e-02 1.384128863636e-02 0.0 
6.309755598804e-02 1.813732002645e-02 0.0 
5.481002371165e-02 -7.909188396167e-02 0.0 
3.977249906127e-04 -3.824554753965e-02 0.0 
1.002942510379e-01 -1.444442601558e-01 0.0 
2.080524115072e-01 -2.179130642870e-01 0.0 
-1.402131821502e-03 -1.498892227328e-02 0.0 
2.431895989939e-02 -9.039923848642e-03 0.0 
2.712742086039e-02 7.089869327222e-04 0.0 
2.233722490605e-01 -1.563386235893e-01 0.0 
1.115961272361e-01 -1.718929871323e-01 0.0 
1.256082012721e-01 -1.969499277447e-02 0.0 
4.109713112058e-02 1.260101927134e-02 0.0 
3.892617282005e-02 1.288611295422e-02 0.0 
1.016947577314e-01 -1.578777395403e-01 0.0 
9.794636947265e-02 -1.511219810818e-01 0.0 
5.252587404289e-02 -1.194245497255e-01 0.0 
7.105079833943e-02 -1.449496621739e-01 0.0 
8.031784802129e-02 -1.512267120403e-01 0.0 
-6.204922897758e-03 -4.524336156647e-02 0.0 
1.587994596506e-01 -2.137094314250e-01 0.0 
5.859648115555e-02 -1.348118051905e-01 0.0 
1.022258076235e-02 2.710591778466e-03 0.0 
5.278479162718e-02 1.385633467246e-02 0.0 
7.398671324332e-02 -2.453013094300e-02 0.0 
1.594040273631e-02 -5.045950033512e-02 0.0 
9.171208938443e-03 4.071865432291e-03 0.0 
-3.828410333912e-04 -3.791219353174e-02 0.0 
6.511684978805e-02 -1.301169981367e-01 0.0 
3.123269373892e-03 -8.603635998446e-04 0.0 
7.484610286710e-03 -1.780319708054e-03 0.0 
4.391745082632e-02 9.137336309531e-03 0.0 
4.581012818086e-02 1.313524002974e-02 0.0 
-2.525608122242e-03 -3.949804359332e-02 0.0 
4.277112370766e-03 -1.596969863861e-03 0.0 
6.666260930842e-02 -1.425674577304e-01 0.0 
5.764989079153e-02 1.391318924697e-02 0.0 
5.029629293385e-02 1.333039311865e-02 0.0 
1.453086326780e-01 -1.414073803194e-02 0.0 
1.100955807226e-02 -2.535386010693e-03 0.0 
5.486349192591e-03 -1.674814049193e-03 0.0 
9.153123807804e-02 -1.573883515440e-01 0.0 
9.250781963995e-02 -1.599219697795e-01 0.0 
1.030391034817e-01 -1.620504021184e-01 0.0 
1.876910966767e-02 -6.182128653523e-02 0.0 
3.521616330675e-03 -1.542496919197e-02 0.0 
1.624936325595e-01 -2.150345055139e-01 0.0 
3.273011542676e-03 1.242363325011e-05 0.0 
1.528376383848e-01 -2.133872429186e-01 0.0 
4.832301518334e-02 -7.884501677076e-02 0.0 
1.515534614039e-01 -2.134496909304e-01 0.0 
1.564691215234e-01 -2.141815028752e-01 0.0 
4.861049286420e-02 -8.415226771705e-02 0.0 
5.088798546333e-03 -1.481258509846e-02 0.0 
8.560820725156e-03 3.135847644939e-03 0.0 
1.246522169533e-01 -3.078232624788e-02 0.0 
6.876582289168e-02 -1.426785249569e-01 0.0 
-1.991122937900e-03 -2.817793611701e-02 0.0 
8.767367016103e-04 -3.255040338619e-04 0.0 
1.839978791857e-03 -8.402901219438e-04 0.0 
4.818547173787e-02 1.382320364741e-02 0.0 
4.846289266102e-02 -7.206194614229e-02 0.0 
2.363079818699e-03 -8.144504493487e-04 0.0 
8.550320510401e-02 -5.026635301370e-02 0.0 
4.136717282820e-02 -1.244907145396e-01 0.0 
5.787019897299e-02 -1.481840750093e-01 0.0 
4.306252465466e-02 -1.406887130032e-01 0.0 
-1.141361023185e-03 -4.001967665821e-02 0.0 
1.664186145149e-03 -3.774194208483e-03 0.0 
4.298234471139e-04 -9.340617314241e-04 0.0 
5.802560798063e-02 -1.594601267298e-01 0.0 
-3.225731127625e-03 -4.481053112746e-02 0.0 
6.566959885174e-04 -1.561981472323e-03 0.0 
1.712351053430e-03 -4.103599707998e-03 0.0 
-3.633973229408e-04 -3.994082929881e-03 0.0 
1.815155648431e-03 1.067662759404e-03 0.0 
7.270221485317e-04 -3.677605995406e-04 0.0 
1.007490156632e-03 -2.212212736160e-03 0.0 
7.048608967985e-04 -1.891386971838e-03 0.0 
1.601200791315e-03 2.595410362588e-05 0.0 
4.434315048690e-02 -1.627312119840e-01 0.0 
2.981325090060e-02 1.150912364952e-02 0.0 
4.364547806022e-02 1.349525187660e-02 0.0 
8.252344243818e-02 -1.593626177130e-01 0.0 
-1.967558485099e-06 -1.692138493844e-03 0.0 
-5.280529447859e-04 -4.141222296216e-03 0.0 
-2.887417359591e-04 -2.149594796834e-03 0.0 
7.112682631622e-02 -1.620904823501e-01 0.0 
8.991767031580e-02 -1.608065175533e-01 0.0 
-1.240861141139e-04 -2.002455430499e-03 0.0 
-2.393112088269e-04 -1.991627499383e-03 0.0 
9.409770056477e-04 1.706999714563e-03 0.0 
1.585004569645e-02 9.694513968578e-03 0.0 
8.741786427832e-04 5.066630822845e-04 0.0 
1.146717901065e-03 4.749330917105e-03 0.0 
6.805690468913e-03 9.050270622584e-03 0.0 
1.308895780842e-01 -1.507923414632e-01 0.0 
1.371927561216e-01 -1.667277795865e-01 0.0 
1.397246385690e-01 -1.774217799383e-01 0.0 
1.428615972880e-01 -1.886451807771e-01 0.0 
-1.715659790136e-03 -4.634401968136e-02 0.0 
-1.510071337489e-03 -4.302941518396e-02 0.0 
1.352658823349e-01 -1.716801277892e-01 0.0 
-1.642372942518e-03 -4.505787090573e-02 0.0 
1.380114681353e-01 -1.825500333240e-01 0.0 
7.735911193182e-03 -1.693180899063e-03 0.0 
1.914032552068e-03 -7.825194145126e-04 0.0 
4.361340912818e-03 -9.199561082092e-04 0.0 
6.961774577929e-03 -8.009278677142e-02 0.0 
7.805660240039e-04 -3.964032609730e-02 0.0 
1.740364055909e-03 -8.515145116789e-04 0.0 
7.830896022227e-04 -3.084787387297e-02 0.0 
9.632420902471e-04 -5.147860880819e-04 0.0 
1.119093757401e-03 -2.093112379055e-02 0.0 
7.558396110709e-04 -1.132075587773e-02 0.0 
-2.651432360674e-03 -4.165177652758e-02 0.0 
3.654396607977e-03 -1.634033926192e-03 0.0 
2.703606146156e-03 -1.366300599761e-03 0.0 
1.902183359623e-03 -2.568004480823e-02 0.0 
1.874933368472e-03 -1.577735204670e-02 0.0 
-1.731505923704e-03 -3.105919264830e-02 0.0 
1.482656715933e-01 -2.116724731736e-01 0.0 
-1.202545136856e-02 -6.133000048837e-02 0.0 
1.072833960283e-01 -1.494952472984e-01 0.0 
-7.566562616519e-04 -1.483988113468e-02 0.0 
2.007181998169e-03 -6.661692674833e-02 0.0 
3.403366386608e-03 -1.955452707679e-02 0.0 
7.806963351328e-02 -1.506242346021e-01 0.0 
1.126920506588e-01 -1.406780786202e-01 0.0 
4.872127829844e-03 -1.662672460971e-02 0.0 
-1.780538578780e-02 -5.293178646200e-02 0.0 
-3.281241150228e-03 -3.981148535111e-02 0.0 
4.101136152396e-03 -2.062846741119e-02 0.0 
4.658586582790e-03 -1.000595017602e-03 0.0 
-1.524202056576e-03 -3.901353711166e-02 0.0 
1.340765139640e-02 -4.515819184604e-02 0.0 
5.285592188833e-03 -3.635880258234e-02 0.0 
-3.975954707259e-04 -2.778342092748e-02 0.0 
9.599184149184e-05 -3.001439730286e-02 0.0 
1.405671664102e-01 -1.780548437111e-01 0.0 
1.416699456178e-01 -3.211573654784e-02 0.0 
1.613496535274e-01 -1.193337918472e-01 0.0 
-1.249574134977e-03 -2.693816675496e-02 0.0 
5.140838619837e-03 -2.069376451007e-02 0.0 
4.362205520328e-04 -3.193345112470e-02 0.0 
8.920615183072e-02 -1.574428389269e-01 0.0 
9.034031431203e-03 -1.410664404852e-03 0.0 
1.118614283646e-02 -4.339980778952e-04 0.0 
1.998243105852e-02 7.392043696913e-03 0.0 
-4.602447055372e-04 -2.485728043464e-02 0.0 
-8.591824784060e-04 -2.681297888758e-02 0.0 
6.044263042862e-03 -1.094271461641e-03 0.0 
7.651112471844e-03 -8.488246010539e-04 0.0 
1.066604112079e-02 -4.359235891835e-02 0.0 
5.616731949579e-03 -1.575582780178e-02 0.0 
2.446584629854e-02 5.145438024987e-04 0.0 
-7.908602063565e-04 -3.504006214910e-02 0.0 
6.540167350788e-04 -1.244862557854e-02 0.0 
1.066859229271e-02 -1.482340390627e-03 0.0 
1.931828295581e-02 2.142727471113e-03 0.0 
1.277078498980e-02 -4.613376572951e-02 0.0 
5.086643142864e-02 -8.935742695718e-02 0.0 
1.001242646406e-01 -1.642722558383e-01 0.0 
1.107239491855e-01 -1.659617208481e-01 0.0 
1.449415905060e-01 -2.110542198149e-01 0.0 
9.334689714505e-03 -9.306731500501e-04 0.0 
5.619131455747e-03 -1.902420228683e-02 0.0 
1.394388856637e-01 -2.042967123961e-01 0.0 
9.021179655461e-02 -2.454692090469e-02 0.0 
2.336830510325e-02 6.931977882328e-03 0.0 
2.394061121060e-03 -2.082159686500e-02 0.0 
3.956688639496e-03 -2.435669260657e-02 0.0 
9.029588501679e-02 -1.363220833472e-01 0.0 
3.128863264553e-03 -2.698859854651e-02 0.0 
2.252140369354e-02 7.746879220444e-03 0.0 
6.572471923731e-02 -6.734169569629e-02 0.0 
1.102422907800e-03 -1.013428019236e-02 0.0 
2.696724095923e-02 -6.672010398860e-02 0.0 
-1.324494273367e-03 -1.268159665080e-02 0.0 
1.499608856379e-02 1.006063451867e-03 0.0 
3.089924535497e-02 -6.817303118684e-02 0.0 
8.854333370854e-02 -1.521187189036e-01 0.0 
-1.438301706232e-02 -4.940631427708e-02 0.0 
2.587761611241e-02 4.632767768683e-03 0.0 
2.703727882629e-02 -1.026390421837e-01 0.0 
1.112174990165e-02 1.380516029182e-04 0.0 
1.650675701071e-02 2.604916609565e-03 0.0 
-1.284165811389e-02 -4.436872209734e-02 0.0 
-1.417322389469e-03 -3.364641095937e-02 0.0 
2.777360157936e-03 -2.566953152825e-02 0.0 
1.285197632762e-02 8.494823981824e-04 0.0 
8.015494146322e-02 -1.218295145828e-01 0.0 
-1.951360320459e-02 -4.985678971314e-02 0.0 
5.137860491387e-02 -3.455354359895e-02 0.0 
1.740807989588e-02 5.333327550368e-04 0.0 
-1.814479954877e-02 -5.502247245400e-02 0.0 
2.836786256866e-03 -3.298417568147e-02 0.0 
-1.954884029364e-03 -1.546359528976e-02 0.0 
1.691728078565e-02 1.888036591473e-03 0.0 
1.678572978485e-01 -2.116450794259e-01 0.0 
1.110728449015e-01 -1.505963176287e-01 0.0 
1.556635267573e-01 -1.989896043118e-01 0.0 
4.921768397180e-03 -1.923952953626e-02 0.0 
2.131334200035e-02 3.165162795997e-03 0.0 
-1.024081082844e-02 -4.759018804076e-02 0.0 
2.693805787648e-02 6.572548279178e-03 0.0 
7.072971285166e-03 -2.994005239905e-02 0.0 
-1.594612171862e-02 -4.496593219737e-02 0.0 
3.140877893494e-03 -2.339554130668e-02 0.0 
4.388264947046e-02 -7.998386146456e-02 0.0 
-2.010577179734e-04 -1.246133946596e-02 0.0 
-1.670423655704e-02 -4.616948698275e-02 0.0 
2.369038025890e-02 -6.097533199212e-02 0.0 
-2.003416029276e-02 -5.079772201287e-02 0.0 
7.789020344800e-03 -8.232417428669e-02 0.0 
5.358065582255e-02 -1.290381681719e-01 0.0 
-1.320203286335e-02 -4.717427630750e-02 0.0 
1.310106652968e-01 -1.521200079850e-01 0.0 
1.327686002797e-01 -1.610809358188e-01 0.0 
-1.937146867515e-03 -2.894143289698e-02 0.0 
6.391827871306e-02 -1.014648131844e-01 0.0 
-2.897869800292e-04 -2.486244431283e-02 0.0 
-3.102206301929e-04 -2.712194996964e-02 0.0 
4.078020593850e-02 -9.978795130038e-02 0.0 
1.087621298619e-01 -1.569870569319e-01 0.0 
2.150386121032e-02 -3.625606731103e-04 0.0 
1.867324991296e-01 -2.277024652519e-01 0.0 
-8.412109673265e-03 -6.340838090296e-02 0.0 
8.360074970975e-03 -2.611608928614e-02 0.0 
7.121113119534e-02 -1.048802235633e-01 0.0 
2.513353724556e-02 5.394060854552e-03 0.0 
2.598080457350e-02 7.349215843783e-03 0.0 
9.054638050042e-02 -1.550242929110e-01 0.0 
-1.662660484695e-03 -1.928878497900e-02 0.0 
3.002319503228e-02 2.585516946761e-03 0.0 
6.902174070238e-02 -1.119091746134e-01 0.0 
2.320429310632e-02 -8.771967484810e-04 0.0 
2.075272279678e-02 -9.712673213354e-04 0.0 
6.060709983611e-02 -1.118398167596e-01 0.0 
2.219374888563e-01 -1.301093523524e-01 0.0 
6.874581869350e-02 -1.393743581008e-01 0.0 
1.793420030028e-03 -2.446463536047e-02 0.0 
-1.587407451578e-02 -4.707055560381e-02 0.0 
6.852240946500e-02 -1.135295241498e-02 0.0 
1.915985741258e-02 -5.319373052389e-04 0.0 
6.313219117377e-04 -2.415496281080e-02 0.0 
4.591686071911e-04 -2.344419759810e-02 0.0 
8.394593588793e-02 -1.509422872917e-01 0.0 
1.744373023383e-03 -2.296463125318e-02 0.0 
2.725139659344e-02 2.297491080897e-03 0.0 
-1.529544834110e-02 -4.822738780776e-02 0.0 
2.387011716336e-02 3.503880826237e-03 0.0 
2.467014653625e-02 1.252389126818e-03 0.0 
1.178149481288e-01 -1.330593973525e-01 0.0 
1.730907431507e-02 -1.031556785361e-04 0.0 
-1.885030148466e-02 -5.074392385465e-02 0.0 
-1.720500753178e-02 -4.787510669732e-02 0.0 
6.832088908985e-03 -7.520816542859e-02 0.0 
6.544790486273e-02 -1.221461727996e-01 0.0 
2.432435657346e-02 2.752179024228e-03 0.0 
4.962376976373e-02 -8.771883045301e-02 0.0 
5.565587853801e-02 -1.224892116436e-01 0.0 
1.037067441117e-01 -1.571516957355e-01 0.0 
2.697215984505e-02 3.085338464831e-03 0.0 
5.934180432949e-02 -1.312185166387e-01 0.0 
-1.598043084944e-03 -1.270025081405e-02 0.0 
1.961551363115e-02 1.438771592580e-03 0.0 
1.578613704200e-03 -2.025684730960e-02 0.0 
7.457362781810e-03 -1.069123464456e-02 0.0 
-1.866915815747e-02 -5.189367754693e-02 0.0 
6.382093647829e-02 -1.226575995412e-01 0.0 
9.743439573086e-02 -1.538544620966e-01 0.0 
-4.173960397630e-04 -2.340819904553e-02 0.0 
1.836049933954e-02 3.606568216607e-03 0.0 
1.104535109579e-01 -1.554025270252e-01 0.0 
1.945398034365e-02 -9.436594808800e-02 0.0 
3.861163970528e-02 -7.915736867699e-02 0.0 
2.857388385405e-02 5.030221829329e-03 0.0 
1.538556219758e-03 -7.355322368662e-02 0.0 
4.065802364378e-04 -2.850161373309e-02 0.0 
1.067833457492e-03 -6.398479255811e-02 0.0 
1.310993769732e-02 -3.733152405341e-04 0.0 
4.305194379520e-02 -1.185671257501e-01 0.0 
-2.058210153210e-04 -2.696073058495e-02 0.0 
9.481534120649e-02 -1.633253034243e-01 0.0 
-1.028449183435e-04 -2.685739411944e-02 0.0 
-1.624031516359e-02 -5.039396915823e-02 0.0 
5.066538052997e-05 -2.165828181070e-02 0.0 
1.250756666283e-01 -1.686523586798e-01 0.0 
4.831818312044e-02 -8.522342695823e-02 0.0 
2.177079961584e-02 5.773384102680e-03 0.0 
4.509089764945e-02 -7.794392194658e-02 0.0 
1.474820040404e-01 -8.181753538972e-02 0.0 
2.076608215902e-02 3.912123523399e-03 0.0 
9.946509155024e-02 -1.586848354656e-01 0.0 
3.791395733409e-02 5.261815012366e-03 0.0 
6.259481756090e-02 -9.801240282969e-02 0.0 
-1.812447398899e-03 -1.736040225640e-02 0.0 
4.509197125547e-02 -7.195444427730e-02 0.0 
6.520631530473e-02 -5.776038477792e-02 0.0 
1.730123184275e-02 -1.616762703783e-03 0.0 
3.634427760614e-02 -7.336684833409e-02 0.0 
8.231208365571e-02 -1.306000511252e-01 0.0 
1.171039917855e-02 -4.494070249716e-02 0.0 
-1.926602327206e-03 -1.587150992413e-02 0.0 
9.594906666449e-02 -1.426029186579e-01 0.0 
7.567723019761e-04 -2.168911648508e-02 0.0 
2.206481208579e-02 1.709505115455e-03 0.0 
1.212064799080e-01 -1.682791494478e-01 0.0 
3.642093615392e-03 -3.383192102990e-02 0.0 
3.802800705623e-02 8.313255518386e-03 0.0 
2.460041652932e-02 -6.522416570798e-02 0.0 
3.855388249226e-02 -1.145387595289e-01 0.0 
1.600381277202e-01 -9.317285688687e-02 0.0 
-7.767971192000e-04 -2.402864896687e-02 0.0 
1.509713274719e-01 -6.653138425264e-02 0.0 
1.616987859875e-01 -1.050080852159e-01 0.0 
3.255338270297e-02 3.740863024551e-03 0.0 
2.257877845517e-02 5.012134639508e-03 0.0 
3.908979261141e-02 7.441035742543e-03 0.0 
-1.848367945837e-02 -5.001959378242e-02 0.0 
6.571590611181e-04 -2.485731998197e-02 0.0 
2.329287020528e-02 -5.900386869855e-02 0.0 
2.966798219929e-02 7.027711746803e-03 0.0 
9.043670957445e-02 -2.785593558315e-02 0.0 
6.340927166995e-02 -4.851507522961e-02 0.0 
6.838625286433e-04 -2.881307451538e-02 0.0 
2.213136530019e-02 9.975626019804e-04 0.0 
5.033277519870e-02 -1.108808025542e-01 0.0 
4.340737069812e-02 -1.144668743666e-01 0.0 
8.381295798136e-02 -1.453783042645e-01 0.0 
1.229214138557e-02 -4.594252641216e-02 0.0 
2.376780871730e-02 -9.706802261691e-02 0.0 
3.202361259567e-02 4.601993021341e-03 0.0 
3.710610609433e-02 6.194667584656e-03 0.0 
9.876615634379e-02 -1.255023993225e-01 0.0 
6.129665241974e-02 -1.334950123357e-01 0.0 
1.452269007861e-01 -1.881116740857e-01 0.0 
4.579281626488e-02 -1.205929635058e-01 0.0 
5.150246758788e-02 -1.181435010980e-01 0.0 
7.563167596078e-02 -1.394849475019e-01 0.0 
5.977278726699e-03 -3.282673844397e-02 0.0 
6.496832478086e-02 -1.061777589586e-01 0.0 
1.958306126474e-02 9.034064553222e-05 0.0 
6.521047137886e-02 -1.041959540123e-01 0.0 
1.549094909116e-02 -4.980711605335e-02 0.0 
4.074611119486e-02 -7.816597802082e-02 0.0 
1.608490802685e-01 -1.286546987744e-01 0.0 
7.439271953705e-02 -1.314974939374e-01 0.0 
-9.922979930522e-04 -2.019643520110e-02 0.0 
-1.033514103582e-03 -1.667833804210e-02 0.0 
1.455563373345e-01 -6.923686224445e-02 0.0 
5.790543901298e-02 -1.135414448532e-01 0.0 
2.740859852487e-02 -6.347426251253e-02 0.0 
2.921418817659e-02 4.234494327487e-03 0.0 
3.144149444608e-02 -9.542542630055e-02 0.0 
1.519667913852e-01 -1.060805543779e-01 0.0 
3.692050953119e-02 -1.099325980133e-01 0.0 
1.036246947995e-01 -1.547822602890e-01 0.0 
5.647979684494e-02 -1.066220570270e-01 0.0 
4.376329576705e-02 -1.116743354400e-01 0.0 
4.321618805089e-02 -8.833018281129e-02 0.0 
3.556098946163e-02 -7.279228791901e-02 0.0 
6.048192380027e-03 -3.746486278050e-02 0.0 
8.553639545968e-02 -3.364039779502e-02 0.0 
1.345814267504e-01 -1.566938297026e-01 0.0 
8.010157159580e-02 -1.204752455893e-01 0.0 
7.422124156189e-02 -1.132481954079e-01 0.0 
6.263071901429e-02 -1.092581879468e-01 0.0 
3.417932049113e-02 5.824698583564e-03 0.0 
5.370949858139e-02 -9.266136483329e-02 0.0 
2.483914974561e-02 -9.763113769643e-02 0.0 
6.027731479580e-02 -1.033267805335e-01 0.0 
1.518965699869e-02 3.553154939635e-04 0.0 
1.846772243598e-02 -8.724430563708e-02 0.0 
1.052753578639e-01 -1.471199081103e-01 0.0 
9.136268240245e-02 -1.442347316552e-01 0.0 
9.745983865153e-02 -1.478345289260e-01 0.0 
6.625063613412e-02 -1.287116652298e-01 0.0 
7.231191880588e-02 -1.118231472259e-01 0.0 
6.167866896958e-02 -1.011907315453e-01 0.0 
1.065403700632e-01 -1.710057741217e-01 0.0 
9.110076450053e-02 -1.374439320803e-01 0.0 
5.167435401104e-02 8.401732486993e-03 0.0 
3.917464834026e-02 -1.003711177627e-01 0.0 
7.812477172936e-03 -3.735007118149e-02 0.0 
9.494058164208e-02 -4.047777561040e-02 0.0 
9.412934287608e-02 -7.724362538707e-03 0.0 
3.562571053721e-02 -1.524049169059e-04 0.0 
7.443428352579e-02 -2.774873342091e-02 0.0 
1.144132694305e-01 -1.355411930295e-01 0.0 
1.059016117705e-01 -4.589224394564e-02 0.0 
1.114127048461e-01 -1.673452255817e-01 0.0 
4.541787997923e-02 -8.965637950723e-02 0.0 
1.542064209241e-01 -1.499634733541e-01 0.0 
1.381972982798e-01 -1.804060268942e-01 0.0 
1.191886791064e-01 -1.800105838792e-01 0.0 
3.289896681652e-02 -1.028416508230e-01 0.0 
7.177828616565e-02 -1.110319153310e-01 0.0 
7.038447283084e-02 -1.094113095519e-01 0.0 
2.596043479477e-02 -8.824254827670e-02 0.0 
5.362428460709e-02 -9.188294965576e-02 0.0 
7.825072006456e-02 -1.179068392975e-01 0.0 
7.796731309883e-02 -1.193024310957e-01 0.0 
5.987786267356e-02 -1.273696358272e-01 0.0 
5.517917148879e-02 -7.101955238866e-02 0.0 
3.551694183820e-02 4.030716014483e-03 0.0 
8.720188984256e-02 -1.292390571264e-01 0.0 
2.382920140556e-03 -2.651028708867e-02 0.0 
1.155773287645e-01 -1.649618050290e-01 0.0 
4.781112834318e-03 -1.985249180493e-02 0.0 
6.397286188977e-02 -1.028297819657e-01 0.0 
6.160220326444e-02 -2.101053724394e-02 0.0 
1.342140489337e-01 -4.384259948419e-02 0.0 
1.048623524926e-01 -1.600992864465e-01 0.0 
1.024237954862e-01 -1.496727178442e-02 0.0 
5.001430303344e-02 -2.636926720355e-03 0.0 
6.199581475113e-02 -1.015716695437e-01 0.0 
1.490092625766e-01 -1.451781089054e-01 0.0 
1.109333699402e-01 -2.318575116047e-02 0.0 
1.522492575155e-01 -8.370435978298e-02 0.0 
1.124315493263e-01 -1.726642928843e-01 0.0 
2.292834264670e-02 -4.207638152984e-03 0.0 
1.067103498218e-01 -1.764867601444e-01 0.0 
3.044007545732e-02 -2.709722176134e-02 0.0 
1.431570589612e-02 -1.357394707105e-03 0.0 
4.527239405667e-02 -6.469081664158e-02 0.0 
3.055972931001e-02 6.246678382824e-03 0.0 
3.603490176210e-02 9.837037146515e-04 0.0 
7.595746560811e-02 -1.167682621704e-01 0.0 
8.609491512259e-02 -1.077389975186e-01 0.0 
3.035142545826e-02 -2.245189277645e-03 0.0 
7.761416093267e-04 -2.918326591300e-02 0.0 
3.909151550729e-02 3.217591137608e-03 0.0 
3.831804284195e-02 -7.010110340637e-02 0.0 
1.169902460556e-01 -1.700029475212e-01 0.0 
4.277167883030e-02 2.091056505102e-03 0.0 
2.958799906273e-02 -1.137989728129e-02 0.0 
-1.592577149990e-04 -1.725854945573e-02 0.0 
5.192944880840e-02 -9.398647265853e-02 0.0 
3.335574152801e-02 6.673656443203e-03 0.0 
3.522074157602e-02 7.915845220140e-03 0.0 
6.124181583402e-02 -9.983070650307e-02 0.0 
6.535323010863e-03 -3.827980166950e-02 0.0 
7.063197593149e-03 -3.835549139866e-02 0.0 
9.838367553945e-02 -1.486288838679e-01 0.0 
1.467087978594e-01 -1.936872228452e-01 0.0 
8.663794325703e-02 -1.267762172375e-01 0.0 
8.446435092147e-02 -1.262278086355e-01 0.0 
1.601129989881e-01 -1.097926479412e-01 0.0 
2.551640069575e-02 -2.839595602263e-03 0.0 
8.414759042889e-02 -2.104980804088e-02 0.0 
1.632781720161e-02 -1.233304338872e-03 0.0 
1.422246107887e-01 -4.995973308144e-02 0.0 
5.430751004536e-02 -2.924393264507e-04 0.0 
4.071923917926e-03 -3.466855159403e-02 0.0 
2.193899140243e-02 -1.524069439800e-03 0.0 
4.944014570894e-02 3.152516312448e-03 0.0 
4.865128840527e-02 -8.830808437168e-02 0.0 
1.009755982771e-01 -1.394860135624e-01 0.0 
3.935875641837e-02 2.101118056713e-03 0.0 
3.158182408835e-02 -1.084875407562e-03 0.0 
3.010351953694e-02 1.734858122906e-03 0.0 
3.592380959817e-02 3.062950632766e-03 0.0 
-1.514368508725e-03 -2.193298703500e-02 0.0 
3.964185730797e-02 -3.162520103380e-02 0.0 
1.522272224223e-03 -2.831639347751e-02 0.0 
1.468474934587e-02 -4.854131708257e-02 0.0 
1.763407678870e-01 -2.078785851959e-02 0.0 
4.528322364220e-02 -5.664083075496e-02 0.0 
6.934587606344e-02 -1.234257271973e-03 0.0 
4.785339446904e-02 -1.003682111847e-01 0.0 
8.322199700621e-02 -1.244054465982e-01 0.0 
6.688986530885e-02 -1.049092864934e-01 0.0 
7.550943548992e-02 -9.182604631501e-02 0.0 
1.482406118103e-01 -1.907065675268e-01 0.0 
9.528162647696e-02 -1.359033676642e-01 0.0 
6.535266357338e-02 -7.669057849332e-02 0.0 
1.199159378988e-01 -2.400789850663e-02 0.0 
3.938043785438e-02 -7.799185988959e-02 0.0 
5.105215923786e-02 5.759241679213e-03 0.0 
3.233798669000e-02 1.049680899835e-02 0.0 
1.967989847830e-01 -2.363410353211e-01 0.0 
2.258102757807e-02 -5.787812445274e-02 0.0 
3.858878329039e-02 -5.739953129870e-02 0.0 
7.402366377349e-02 -1.678253433886e-02 0.0 
8.899200281032e-02 -1.157464568567e-01 0.0 
2.633158492610e-02 -6.239702017249e-02 0.0 
4.102422743931e-02 5.522283681387e-03 0.0 
2.170047147954e-01 -2.107079608974e-01 0.0 
4.864044357080e-02 -6.419206573604e-02 0.0 
7.407752281060e-02 -1.000762217426e-01 0.0 
1.184205696424e-01 -2.281564862238e-02 0.0 
4.475996964951e-03 -3.501850126160e-02 0.0 
1.327138398493e-01 -1.762685670418e-01 0.0 
5.083231749898e-03 -3.449269332172e-02 0.0 
3.464027508673e-03 -2.362544658126e-02 0.0 
5.858085778265e-02 -6.997321165002e-02 0.0 
3.304057496761e-02 1.922438818979e-03 0.0 
7.988358436793e-02 -4.261924249452e-02 0.0 
1.607719474969e-03 -2.242961372143e-02 0.0 
2.530037898482e-01 -1.606108166492e-01 0.0 
4.513769384527e-02 4.535214292303e-03 0.0 
4.481623365777e-02 -2.844775402267e-02 0.0 
3.288442622045e-02 9.596649817597e-04 0.0 
6.835319024471e-02 -8.458446981716e-02 0.0 
9.648549853301e-02 -1.318319521890e-01 0.0 
-5.299304988619e-03 -3.915805752774e-02 0.0 
1.667443324648e-01 -2.085698649669e-01 0.0 
2.661700608172e-02 -7.404697003242e-05 0.0 
2.993357726707e-02 -7.600775183981e-02 0.0 
2.893286339565e-01 -1.197655529345e-01 0.0 
9.648204794886e-02 -4.855600770391e-02 0.0 
1.522033004532e-02 -1.709423089192e-03 0.0 
1.286633897371e-01 -1.773208319343e-01 0.0 
1.572402020278e-01 -8.262239637105e-02 0.0 
4.584721391195e-02 3.296918689955e-03 0.0 
1.721747257419e-02 -5.607789174558e-02 0.0 
1.460593826230e-01 -1.875735232160e-01 0.0 
1.477643428076e-01 -1.531542117280e-01 0.0 
1.250167966321e-01 -1.828193129649e-01 0.0 
1.348112136846e-01 -1.814094343800e-01 0.0 
1.298812005995e-01 -1.821312839037e-01 0.0 
7.844541228318e-02 -9.989030411621e-02 0.0 
1.992106124488e-02 -4.679682963311e-03 0.0 
3.088804720938e-01 -7.788942653028e-02 0.0 
-2.091650795184e-03 -1.781642110962e-02 0.0 
1.287910505297e-01 -1.610954374664e-01 0.0 
5.592894801178e-02 3.927823870534e-03 0.0 
1.589368085313e-01 -2.014132216246e-01 0.0 
2.714280317956e-03 -1.889813687131e-02 0.0 
1.238372080615e-01 -1.781307439095e-01 0.0 
8.099602329444e-03 -6.369559521714e-02 0.0 
5.851954877472e-02 -6.088471049839e-02 0.0 
6.821938970120e-02 -1.080952005499e-01 0.0 
4.936178470505e-02 -3.577236877187e-02 0.0 
1.517009378630e-01 -1.092213226824e-01 0.0 
6.621844704668e-02 -1.859051200203e-03 0.0 
3.195932292808e-02 -2.599453974011e-02 0.0 
4.179491785253e-02 4.445825188345e-03 0.0 
7.906367434349e-02 -2.058408954075e-02 0.0 
4.654353989213e-02 6.589454329268e-04 0.0 
5.036145184835e-02 -1.173237349427e-03 0.0 
1.568806336815e-01 -2.026479519426e-01 0.0 
-1.707039570520e-03 -1.930070459119e-02 0.0 
5.003615843215e-02 1.749053294029e-03 0.0 
1.208070864336e-01 -1.219450923344e-01 0.0 
3.017632077526e-01 -3.899683590904e-02 0.0 
2.596946680500e-02 -1.970481289401e-02 0.0 
1.491589404107e-01 -1.961939987234e-01 0.0 
2.135657013972e-02 -7.591721072723e-02 0.0 
5.513774533108e-02 -4.268838581393e-02 0.0 
1.068924003913e-02 -6.979756694861e-02 0.0 
1.649116254476e-01 -1.157163015290e-01 0.0 
4.849565783300e-02 -5.574771145876e-02 0.0 
4.513050059974e-02 -3.356859114273e-03 0.0 
4.820873917056e-02 -5.743675376615e-03 0.0 
5.525456405546e-02 -6.225260570120e-02 0.0 
3.904987845044e-02 -2.695008134538e-04 0.0 
1.329326101424e-01 -1.535258215590e-01 0.0 
1.031918477737e-01 -4.319240054451e-02 0.0 
2.645029050341e-01 -8.864493531522e-03 0.0 
9.212118406271e-02 -2.989486406436e-02 0.0 
1.954444492850e-01 1.900501987748e-02 0.0 
1.517989581590e-01 2.353701818906e-02 0.0 
1.063181530607e-01 -1.273275067321e-01 0.0 
1.052516356809e-01 1.774352857822e-02 0.0 
1.251975496636e-01 -9.080568159129e-02 0.0 
1.552217296386e-01 -1.417976649328e-01 0.0 
8.316627529805e-02 -1.208376564790e-01 0.0 
1.487436351724e-01 -1.905730963417e-01 0.0 
1.031787401570e-01 -1.345083640715e-01 0.0 
2.854354510390e-02 -9.193813748327e-04 0.0 
8.558683451822e-02 -2.544972331624e-02 0.0 
-1.294718693584e-03 -2.358068550303e-02 0.0 
4.144417086832e-02 -3.043506175079e-02 0.0 
7.001408497218e-02 -1.104719092026e-01 0.0 
4.643396503286e-02 -6.867982339964e-04 0.0 
8.731985877388e-02 -1.223107455323e-01 0.0 
-5.636294323063e-04 -1.673076267891e-02 0.0 
4.287199208726e-02 8.565462664930e-04 0.0 
5.840302541864e-02 -1.209671133884e-03 0.0 
5.815825302530e-02 -7.854824111357e-02 0.0 
1.150434896793e-01 -1.423537716911e-01 0.0 
8.173609768956e-02 -3.288329517233e-02 0.0 
1.287305481380e-01 -3.829019010024e-02 0.0 
1.452636991176e-01 -1.879616050945e-01 0.0 
1.498837554297e-01 -1.952109916294e-01 0.0 
1.506675520014e-01 -1.126141629464e-01 0.0 
1.536876668749e-01 -7.463349773088e-02 0.0 
9.897414036674e-04 -1.471544557610e-02 0.0 
5.387264176989e-02 1.284107650082e-03 0.0 
1.113609571228e-01 -1.431460501426e-01 0.0 
1.611474442825e-01 -7.609477870089e-02 0.0 
3.848973008854e-02 -4.968461686953e-02 0.0 
2.943695601111e-02 -1.094961706807e-05 0.0 
7.200153883332e-02 -2.727225247615e-02 0.0 
5.834510299085e-02 5.053430615081e-03 0.0 
1.854322514006e-02 -4.022099661189e-02 0.0 
8.423894686438e-02 -1.152312149490e-01 0.0 
3.516333925086e-02 -4.994456650774e-02 0.0 
1.648116267943e-01 -1.085426338987e-01 0.0 
3.374750443469e-02 -2.482650784569e-03 0.0 
5.951615511222e-02 -2.113611000858e-02 0.0 
6.734882176312e-02 -9.282328582297e-02 0.0 
1.525339804447e-01 -1.965180645875e-01 0.0 
6.955938186018e-02 -3.740110189665e-02 0.0 
1.384637940235e-01 -9.270619577815e-02 0.0 
1.239787803913e-01 -1.513506914524e-01 0.0 
6.456046599049e-02 -8.539579169878e-02 0.0 
1.422073803307e-02 -4.272555478321e-02 0.0 
1.523373165599e-01 -1.951206028795e-01 0.0 
7.697396970407e-02 -1.074096732372e-01 0.0 
1.056581176388e-01 -1.896406128290e-02 0.0 
2.016187970009e-03 -1.492802633798e-02 0.0 
1.144421145086e-01 -2.749462728890e-02 0.0 
8.197017286679e-02 -4.126070442495e-02 0.0 
9.737422145318e-02 -1.135121672962e-02 0.0 
8.163234712232e-02 -2.888926928898e-05 0.0 
1.387814603717e-01 -4.919116854892e-02 0.0 
4.511421716359e-02 -3.851988356945e-02 0.0 
-1.687223574746e-03 -2.189946188892e-02 0.0 
5.700910284512e-02 2.278223488609e-03 0.0 
4.372998755675e-02 -4.649254632922e-03 0.0 
8.930454830834e-02 -4.961303656406e-03 0.0 
1.352629618936e-01 -1.759803372361e-01 0.0 
6.117552588690e-02 -3.143045147844e-02 0.0 
2.445829347060e-02 -1.629351419116e-03 0.0 
1.483916841989e-01 -1.200007209075e-01 0.0 
1.519130394568e-01 -1.076400581381e-01 0.0 
1.214193431720e-01 -1.582824566355e-01 0.0 
6.194405524624e-02 -4.909959820516e-04 0.0 
1.429525474658e-01 -6.833945817609e-02 0.0 
1.173939458951e-01 -8.591131868074e-02 0.0 
1.454389472085e-01 -7.718751904059e-02 0.0 
5.749772050793e-02 -5.165757264809e-02 0.0 
4.249837061690e-02 -2.085298768219e-02 0.0 
1.092324232553e-01 -1.483463643754e-01 0.0 
1.643507080341e-01 -2.069957021970e-01 0.0 
5.841777391152e-02 -9.752097524478e-03 0.0 
1.382606332574e-01 -5.433013977864e-02 0.0 
6.802436672403e-02 -1.083834162462e-01 0.0 
5.104523127595e-02 -2.640153500627e-02 0.0 
6.098500094819e-02 1.420351663908e-03 0.0 
-2.415902191880e-04 -2.691503518667e-02 0.0 
1.491285051171e-01 -1.536633110523e-01 0.0 
1.651103469394e-01 -2.089539180652e-01 0.0 
3.485893876480e-03 -1.329730608622e-02 0.0 
1.622739294543e-01 -8.782872955997e-02 0.0 
7.757255701624e-02 -6.281927174809e-02 0.0 
6.682012792306e-02 -2.663235475046e-02 0.0 
1.677430446556e-01 -2.131716582744e-01 0.0 
9.948660434997e-04 -2.913902045980e-02 0.0 
1.465889796339e-01 -1.760883195681e-01 0.0 
6.219427688247e-02 4.225349776457e-03 0.0 
8.596038989638e-03 -4.250687790206e-02 0.0 
1.129245404770e-01 -1.493299890731e-01 0.0 
3.276937799609e-04 -1.661904100775e-02 0.0 
1.245245218284e-01 -8.431137698311e-02 0.0 
1.259929954816e-01 -1.661872550437e-01 0.0 
1.641028729540e-01 -8.586629913875e-02 0.0 
1.613109039860e-01 -2.088026806670e-01 0.0 
1.104218032906e-01 -5.197604961726e-02 0.0 
5.455880545372e-02 -5.321639782077e-02 0.0 
4.943110209203e-02 -1.570904284050e-02 0.0 
8.974823454427e-02 -4.016751712699e-02 0.0 
1.437228412480e-01 -1.893386301431e-01 0.0 
-1.078987350477e-03 -2.260428428090e-02 0.0 
2.266154769255e-02 -2.389251776464e-03 0.0 
2.064639460629e-02 -1.358239379619e-02 0.0 
5.269249134996e-02 -4.424576132850e-02 0.0 
1.273989981288e-01 -1.420471061207e-01 0.0 
1.291992540303e-01 -6.371708361475e-02 0.0 
4.032310814443e-03 -1.589970276658e-02 0.0 
-1.138556634769e-02 -4.885544541122e-02 0.0 
1.025196921961e-01 -4.896594773271e-02 0.0 
5.219647421333e-02 4.337171050426e-03 0.0 
-1.103697163777e-03 -1.882010615230e-02 0.0 
2.110714602269e-05 -2.629971075264e-02 0.0 
1.341514982373e-02 8.921343412075e-03 0.0 
8.974446282000e-03 8.611109645184e-03 0.0 
1.034558653871e-01 -1.900913546566e-02 0.0 
1.121230275073e-01 -5.505108997047e-02 0.0 
9.744321086233e-04 -3.293677320367e-02 0.0 
1.375596666406e-01 -4.889068428789e-02 0.0 
1.248032395217e-01 -9.655311774272e-02 0.0 
1.979971058582e-02 -2.950251174642e-02 0.0 
1.379852200643e-01 -1.438577489608e-01 0.0 
1.664741436580e-02 -3.837477851681e-03 0.0 
7.969585286901e-02 3.325074171258e-03 0.0 
1.375794571198e-01 -1.049926754945e-01 0.0 
1.306096705101e-02 -4.717861969722e-02 0.0 
1.471615740703e-01 -1.945569007165e-01 0.0 
3.306118400311e-02 -7.250187360156e-02 0.0 
1.493720221521e-01 -7.862384059576e-02 0.0 
1.502653497449e-01 -6.355780285815e-02 0.0 
6.375402000648e-02 2.241871207209e-03 0.0 
1.425267818013e-01 -5.475612313519e-02 0.0 
1.410646765112e-01 -5.472877889079e-02 0.0 
4.821196108494e-02 -1.077264663402e-01 0.0 
3.582046572483e-02 -7.848800493235e-02 0.0 
1.412952557269e-01 -6.416666036427e-02 0.0 
1.217789990251e-01 -3.259136700617e-02 0.0 
1.200638384236e-01 -3.230381733854e-02 0.0 
3.581270820104e-02 -3.399870820245e-02 0.0 
3.727465461199e-03 -5.986055006696e-02 0.0 
1.529893264395e-01 -1.955140899134e-01 0.0 
1.643143175895e-01 -9.758083338533e-02 0.0 
2.805130212358e-02 -7.328128116012e-02 0.0 
1.621430805343e-01 1.655475645942e-02 0.0 
1.184984637840e-01 1.627401637849e-02 0.0 
6.784050332129e-02 9.553174894794e-04 0.0 
1.703664997346e-01 -2.120848263395e-01 0.0 
9.842393828562e-03 -4.650086849193e-02 0.0 
3.512301260220e-02 -5.718356713166e-02 0.0 
1.544017786397e-01 -1.969285521404e-01 0.0 
2.329432256900e-02 -9.178983053788e-03 0.0 
4.211460975556e-02 -1.659129398011e-03 0.0 
-2.143427149080e-03 -4.517246588885e-02 0.0 
-8.681498248950e-04 -2.044246222790e-02 0.0 
8.901318880107e-02 -1.380420066569e-01 0.0 
3.489389108330e-02 -6.341510456280e-02 0.0 
1.660543016791e-01 -9.509253038492e-02 0.0 
7.160158908907e-02 -1.300011661079e-01 0.0 
3.840207097801e-02 -1.439432811035e-03 0.0 
1.578717242986e-01 -2.007496311612e-01 0.0 
1.273336865150e-01 -3.783238654900e-02 0.0 
1.541397331274e-01 -7.179099039522e-02 0.0 
7.402356732182e-02 -1.149910981243e-01 0.0 
3.922252500247e-02 -7.692046976083e-02 0.0 
4.115829413735e-02 -2.865500907359e-03 0.0 
2.751284827706e-02 -6.267009886692e-02 0.0 
1.532518451391e-01 -9.679003899288e-02 0.0 
1.666010919191e-01 -1.045502337225e-01 0.0 
1.920971321186e-01 -2.396895139875e-01 0.0 
1.603618605865e-01 -2.035281820202e-01 0.0 
7.345817496463e-02 -3.509282166994e-02 0.0 
8.029462062209e-02 -9.618068421289e-04 0.0 
6.298773049248e-02 -3.048070932130e-02 0.0 
1.468589367660e-01 -1.691438425303e-01 0.0 
8.824893753620e-02 -1.697102576993e-02 0.0 
6.547496972618e-02 -2.764901240472e-02 0.0 
1.005934100048e-01 7.719561011273e-03 0.0 
7.519859239487e-02 -3.358969434317e-02 0.0 
-9.789817332531e-05 -2.011690967905e-02 0.0 
1.176338638610e-01 -6.435128260570e-02 0.0 
2.374038330838e-02 -6.155175503968e-02 0.0 
2.083023262412e-02 -5.664647358118e-02 0.0 
6.363707412006e-02 -1.192491534459e-02 0.0 
5.094900719037e-02 -9.003113750663e-02 0.0 
1.595212117801e-01 -7.781745861418e-02 0.0 
1.134777637782e-01 -1.080778889004e-01 0.0 
1.698216914563e-02 -4.829974299722e-02 0.0 
1.349211175319e-01 -1.181808265039e-01 0.0 
1.376555916901e-01 -1.825093061161e-01 0.0 
6.672971842130e-02 -9.970501980086e-02 0.0 
1.382130316505e-01 -1.817552058611e-01 0.0 
1.315953935797e-01 -4.308431167191e-02 0.0 
1.336573853558e-01 -1.780413400294e-01 0.0 
1.444838228901e-01 -5.486833722610e-02 0.0 
4.280431552741e-02 -3.979070871686e-02 0.0 
4.744367465958e-02 -4.707541164859e-02 0.0 
1.434113979182e-01 -1.324836326240e-01 0.0 
7.016704705438e-02 1.623834017853e-03 0.0 
5.578777000597e-04 -1.838283193228e-02 0.0 
1.528282656139e-03 -1.849193488845e-02 0.0 
1.905134264497e-01 -2.296423945739e-01 0.0 
1.499196896154e-01 -6.083142652637e-02 0.0 
2.529407345654e-03 -1.282347229056e-02 0.0 
2.550034935305e-01 -7.472523627411e-02 0.0 
-3.057433642445e-03 -3.499271788361e-02 0.0 
1.955394751007e-01 -2.390614195718e-01 0.0 
2.324545302382e-03 -1.694072472579e-02 0.0 
1.450691208977e-01 -1.913619334082e-01 0.0 
-9.336775591570e-03 -4.809243067516e-02 0.0 
8.170473773627e-02 -6.141864169669e-02 0.0 
7.429164683231e-02 5.426955627138e-05 0.0 
7.610959677357e-02 6.811741624629e-04 0.0 
1.521248600117e-01 -8.759795430430e-02 0.0 
2.395392447166e-01 -5.985841098072e-03 0.0 
2.034768174330e-01 7.953493241369e-03 0.0 
3.384181615991e-03 -1.743856735873e-02 0.0 
3.507699178827e-02 -7.150151025197e-02 0.0 
6.441333909721e-02 -1.035804015931e-01 0.0 
3.843570196293e-02 -6.436735060955e-02 0.0 
7.622765466106e-02 -1.131880888619e-01 0.0 
1.435575176346e-01 -1.882464752129e-01 0.0 
2.338837235504e-01 7.223209322809e-03 0.0 
7.840731887344e-02 2.242529828661e-03 0.0 
1.132987071230e-02 9.308418635835e-03 0.0 
4.464551175812e-02 -4.823883008377e-02 0.0 
1.312528041511e-01 -1.308438789538e-01 0.0 
2.753874196671e-02 -1.926679179301e-02 0.0 
4.172961513627e-03 -2.502839272282e-02 0.0 
7.311626097659e-02 -1.068396362034e-01 0.0 
1.951366952034e-03 -1.029654614251e-02 0.0 
1.200989720225e-01 -1.640370277949e-01 0.0 
3.668615423078e-02 -2.359789680091e-02 0.0 
1.370356291420e-01 -8.232606257504e-02 0.0 
1.135204271833e-01 -6.634682727849e-02 0.0 
1.620948474991e-02 -3.404679963300e-02 0.0 
6.964611898062e-02 -1.171618480812e-01 0.0 
1.557702065032e-01 -6.813500246100e-02 0.0 
7.301803792196e-02 -1.118040681581e-01 0.0 
1.502695906183e-01 -6.162449483722e-02 0.0 
1.472935341533e-01 -1.622515139418e-01 0.0 
9.280820519617e-02 -5.727015758256e-02 0.0 
7.654071230812e-02 -1.170828651359e-01 0.0 
3.752307127450e-03 -3.554599022233e-02 0.0 
1.453136069932e-01 -5.503730219989e-02 0.0 
1.896385483910e-01 -2.364349113156e-01 0.0 
9.547769836396e-02 -8.724316990139e-02 0.0 
2.054200178224e-01 -2.385477338460e-01 0.0 
9.890993060763e-02 -1.360206844606e-01 0.0 
5.099263857448e-04 -3.612344547309e-02 0.0 
9.396189232009e-02 -3.634240502033e-02 0.0 
8.293511299155e-02 -3.476623670659e-03 0.0 
2.896954592656e-01 -3.469628810219e-02 0.0 
8.911503172614e-03 -2.144296952618e-03 0.0 
1.895166974217e-01 -2.388498103761e-01 0.0 
2.685269616546e-01 -2.111372992777e-02 0.0 
5.847296978686e-02 -9.688426412257e-02 0.0 
-9.517505805714e-03 -3.975845845592e-02 0.0 
1.444508661483e-01 -1.738516261800e-02 0.0 
1.013797403053e-01 -1.422658958440e-01 0.0 
4.667247004305e-02 -8.521463250149e-02 0.0 
1.336136369850e-01 -7.309169493635e-02 0.0 
8.231892299448e-02 -7.122924980237e-02 0.0 
1.049943864010e-01 -3.623572687160e-02 0.0 
1.785263181211e-01 -2.203549023607e-01 0.0 
4.122674054846e-03 -4.761033385323e-02 0.0 
-9.289912515554e-03 -3.725761836029e-02 0.0 
6.837003182906e-02 -1.407748731285e-01 0.0 
8.220801965652e-02 6.133518816933e-03 0.0 
8.754944381831e-02 -5.664915503417e-03 0.0 
-2.495917960230e-03 -4.093527034279e-02 0.0 
8.166820850841e-02 -1.414729745330e-01 0.0 
1.711151038081e-01 -2.158445164909e-01 0.0 
8.522111955157e-02 -1.584098317399e-01 0.0 
-1.185594998531e-02 -4.066432721633e-02 0.0 
1.083045470738e-01 -1.509680758028e-01 0.0 
1.094852064328e-01 -1.505451835672e-01 0.0 
1.337677195476e-01 -1.776697163756e-01 0.0 
-3.702739149858e-03 -3.161709852132e-02 0.0 
9.817353885212e-02 -1.545577543699e-02 0.0 
-1.051809115826e-02 -3.963951888864e-02 0.0 
1.118127289588e-01 -1.536187799375e-01 0.0 
1.562500896035e-01 -6.751089912395e-02 0.0 
4.877347173392e-02 1.058474669040e-02 0.0 
6.623132538283e-02 -4.698795022157e-02 0.0 
-1.327732987557e-02 -4.313657277617e-02 0.0 
-5.717017205872e-03 -3.328159806982e-02 0.0 
3.086613223630e-01 -7.305868608237e-02 0.0 
9.536647918658e-02 -1.378194744439e-01 0.0 
-1.212820843034e-02 -4.210129639649e-02 0.0 
1.980535955661e-03 2.385331552656e-03 0.0 
2.186276851078e-03 3.887868166812e-03 0.0 
3.027646960866e-01 -5.366771121660e-02 0.0 
-4.523527717820e-03 -3.171061671705e-02 0.0 
9.856203751084e-02 -1.381773053016e-01 0.0 
2.260957539079e-01 -2.332939445653e-01 0.0 
3.533091165014e-02 -2.436637935610e-02 0.0 
9.603373154348e-02 -1.679719431781e-01 0.0 
9.182222682883e-02 -1.312730799431e-01 0.0 
1.074963574417e-01 -9.679538020031e-02 0.0 
2.874648298333e-01 -2.275577334277e-02 0.0 
-1.263153759280e-02 -4.498216772387e-02 0.0 
2.649979963311e-03 -4.301622754233e-02 0.0 
7.804881410665e-02 5.111651964975e-03 0.0 
-6.758564200453e-03 -3.466182867982e-02 0.0 
6.602473186511e-02 -1.063983962498e-01 0.0 
4.534156243496e-03 -4.272665308161e-02 0.0 
1.857379292847e-01 -2.298849262331e-01 0.0 
2.554388382394e-03 -6.419416531905e-04 0.0 
8.637552127488e-02 -1.269436935480e-01 0.0 
2.821225106846e-02 -3.548092926949e-02 0.0 
1.066437326842e-01 -6.553272338203e-02 0.0 
-5.304123809642e-03 -3.325760208918e-02 0.0 
-7.914529322222e-03 -3.720001591831e-02 0.0 
1.118764700202e-01 -1.553071072996e-01 0.0 
1.132290531558e-01 -1.861985810113e-01 0.0 
1.890818455146e-01 -2.340340023883e-01 0.0 
-5.881462833073e-03 -3.615961844693e-02 0.0 
1.948889283430e-02 -3.503864971862e-02 0.0 
8.850828936929e-02 -1.316011514261e-01 0.0 
1.400309093395e-01 -6.072087604795e-02 0.0 
2.701162875883e-01 -9.652833965324e-02 0.0 
1.491844422577e-01 -6.101969669650e-02 0.0 
-4.475782040282e-04 -9.929131808400e-03 0.0 
1.759645922788e-01 -2.204002871100e-01 0.0 
4.293169184226e-04 -2.603949050760e-04 0.0 
7.037812397559e-04 -2.032632203512e-03 0.0 
1.377496748136e-03 6.545358443186e-03 0.0 
8.005319677064e-02 -1.192071274608e-01 0.0 
1.212363354249e-01 -7.030185258353e-02 0.0 
1.200784984902e-01 -1.625072030434e-01 0.0 
1.060635308340e-01 -1.413025082779e-01 0.0 
1.910645467453e-01 -2.396480905655e-01 0.0 
1.174740762216e-02 -1.882855763007e-03 0.0 
9.532621707078e-02 -1.179464619943e-02 0.0 
8.465739775338e-02 1.025443624480e-02 0.0 
1.074645925240e-02 -4.601513891542e-03 0.0 
5.596879400506e-03 -5.323534243494e-02 0.0 
9.727689971324e-03 -4.671307443917e-03 0.0 
9.032623400365e-02 -8.871403855529e-03 0.0 
7.167371529119e-02 -1.134334027834e-01 0.0 
1.221268776793e-01 -7.377037318493e-02 0.0 
8.335140910965e-02 -1.230522126773e-01 0.0 
2.429179541790e-01 -2.226470945148e-01 0.0 
8.312661416651e-02 -1.257660938730e-01 0.0 
1.064803121031e-01 -2.317076193453e-02 0.0 
5.479079724480e-03 -2.072692455965e-02 0.0 
9.057985556005e-02 -1.305199230054e-01 0.0 
1.326775476327e-01 -5.421187709840e-02 0.0 
1.718244016894e-01 -2.178289347146e-01 0.0 
1.003693509766e-01 -1.427729393737e-01 0.0 
8.672686054172e-02 -1.336921160843e-02 0.0 
7.103766266102e-02 -1.231304451079e-01 0.0 
8.643981035864e-02 -1.356807769707e-01 0.0 
1.244038214812e-01 -7.983953080773e-02 0.0 
1.424742642460e-01 -1.947879894455e-01 0.0 
3.003297597480e-01 -1.131986408420e-01 0.0 
3.079654357829e-01 -9.160574594487e-02 0.0 
7.760302171802e-02 -1.355210366875e-01 0.0 
5.608700832247e-02 -9.514158309638e-02 0.0 
1.233752159051e-01 -1.094944726469e-01 0.0 
1.171936147265e-01 -4.723358385227e-02 0.0 
7.374375046778e-02 -2.231303820820e-02 0.0 
3.086689956826e-01 -5.901665630760e-02 0.0 
3.688202139529e-03 1.041376864689e-03 0.0 
4.655718666588e-02 -1.640179503013e-02 0.0 
1.247928186075e-01 -1.685864194040e-01 0.0 
2.091468651749e-01 -2.357524042394e-01 0.0 
2.448211438618e-01 -8.235486326718e-02 0.0 
5.779352093090e-02 -9.740268251709e-02 0.0 
1.344498444671e-01 -4.851519943220e-02 0.0 
6.002774277390e-02 -9.985270057056e-02 0.0 
1.854811839427e-01 -2.257440247698e-01 0.0 
4.561028710502e-02 -8.237912396985e-02 0.0 
2.601588236324e-01 -2.006497045161e-01 0.0 
1.214197785739e-01 -1.148984921476e-01 0.0 
4.957624933214e-02 -8.787506003777e-02 0.0 
1.166365847277e-01 -7.555690630987e-02 0.0 
1.393632770164e-02 3.176475244698e-03 0.0 
7.252816615293e-02 -1.355685415297e-01 0.0 
2.097584748805e-01 -2.388508565772e-01 0.0 
3.856097460172e-02 -7.429973692471e-02 0.0 
2.743743154490e-01 -1.724967327637e-01 0.0 
1.740942452868e-01 -2.177390463461e-01 0.0 
9.872494439547e-04 -9.785064816031e-04 0.0 
1.284448145373e-03 -6.687369399022e-04 0.0 
1.297475700285e-01 -1.866583865584e-01 0.0 
3.478832555340e-02 -6.823006213170e-02 0.0 
7.643073690310e-02 -1.510846142079e-01 0.0 
7.044621046302e-02 -1.454304800783e-01 0.0 
8.975881850978e-02 -3.271466990232e-02 0.0 
1.089536813064e-01 -7.513438957470e-02 0.0 
9.841286068162e-02 -3.829992733175e-02 0.0 
9.646886382097e-02 -1.381268010895e-01 0.0 
2.536810585400e-02 1.093258205361e-02 0.0 
-9.871490085393e-04 -7.763857610569e-03 0.0 
7.966597092235e-02 -1.538961642882e-01 0.0 
3.494986840248e-02 -4.250166492691e-02 0.0 
1.240695649740e-01 -1.028748092989e-01 0.0 
4.124948807308e-02 -8.751688528119e-02 0.0 
1.239708090302e-01 -3.719669627009e-02 0.0 
1.000302695702e-01 -1.421130143424e-01 0.0 
1.275432570353e-01 -1.993285447275e-01 0.0 
1.128100432784e-01 -1.550386602080e-01 0.0 
-1.967236215848e-03 -4.287320755920e-02 0.0 
1.121913089232e-01 -2.743456388020e-02 0.0 
1.015126347362e-01 -1.743998816148e-01 0.0 
-6.314186017418e-03 -4.799277011481e-02 0.0 
1.247385091124e-01 -4.843096081357e-02 0.0 
5.997661925278e-02 -3.994243563296e-02 0.0 
8.123543695717e-02 -1.299511614654e-01 0.0 
4.999372323226e-03 -4.354018017338e-02 0.0 
1.161327213064e-01 -9.699632009950e-02 0.0 
1.039558950013e-03 3.143471458138e-03 0.0 
1.400072741706e-01 -2.067054621161e-01 0.0 
3.068293596804e-02 -1.125024345951e-02 0.0 
4.580825830838e-02 -1.421430545184e-02 0.0 
4.775519126740e-03 5.438222000427e-03 0.0 
2.629317564612e-02 -4.612779091268e-03 0.0 
3.116058546545e-02 -7.097810222101e-03 0.0 
8.872845310983e-02 -1.301620876689e-01 0.0 
8.821041511468e-02 -1.275985694256e-01 0.0 
1.402915581462e-02 -1.438513700409e-02 0.0 
1.783429137645e-01 -2.221739926435e-01 0.0 
1.869413939307e-03 -4.712774452446e-02 0.0 
-4.541555223319e-03 -4.751316720003e-02 0.0 
7.691524949750e-02 -1.296484326958e-01 0.0 
1.022140341160e-01 -1.418602836594e-01 0.0 
2.679995126249e-01 -1.532467069043e-01 0.0 
2.854928588258e-01 -1.329695472791e-01 0.0 
4.253879283266e-02 9.959628650567e-03 0.0 
1.086050643066e-01 -1.514055107690e-01 0.0 
1.321413809269e-02 -5.500157704936e-02 0.0 
7.553485076246e-02 -4.465246958593e-02 0.0 
-1.433521159603e-04 -3.350914783964e-03 0.0 
-4.301262934343e-04 -3.808371086954e-03 0.0 
8.215522929826e-02 -1.214539336764e-01 0.0 
5.258514998579e-02 1.178410342248e-02 0.0 
1.700109367005e-01 -2.161829080355e-01 0.0 
2.310853219576e-01 -2.016406136701e-01 0.0 
1.469280118209e-01 -2.004794959558e-01 0.0 
2.504831269006e-01 -1.756762012790e-01 0.0 
1.090627920856e-01 -8.578026563282e-02 0.0 
9.178856144651e-02 -1.331000762684e-01 0.0 
9.784366387934e-02 -1.378774118807e-01 0.0 
1.584072715110e-01 -2.105527818807e-01 0.0 
2.955071878923e-03 -8.507028072359e-04 0.0 
8.906525335143e-02 -1.289735294104e-01 0.0 
1.008100773930e-02 -1.915659145604e-03 0.0 
7.697562701836e-03 -3.798513426626e-04 0.0 
1.306053620033e-03 -5.858989389379e-04 0.0 
1.360477228273e-03 -3.594613675835e-03 0.0 
2.524214649201e-03 5.581503960362e-03 0.0 
8.069304200195e-02 -1.213437019822e-01 0.0 
3.020453856594e-01 -9.848871350988e-02 0.0 
7.495187426670e-02 -1.152823366887e-01 0.0 
1.506073417291e-04 -1.614228589671e-03 0.0 
2.032741750265e-01 -2.343189959519e-01 0.0 
2.149893437985e-01 -2.234755711643e-01 0.0 
3.369977145635e-02 -3.499357848776e-02 0.0 
4.095362302952e-02 1.150814182807e-02 0.0 
5.813391925188e-03 -1.407578237430e-03 0.0 
1.096937197775e-01 -4.165048545987e-02 0.0 
4.634447048151e-02 -2.777288612060e-02 0.0 
1.206430724288e-01 -4.170886571333e-02 0.0 
1.613650687171e-02 5.792228776254e-03 0.0 
8.284230696208e-02 -1.411505544878e-01 0.0 
8.735890814304e-02 -1.410075660015e-01 0.0 
4.601414505346e-03 1.677000623644e-03 0.0 
5.569652226395e-02 -3.318296912568e-02 0.0 
6.541737790071e-02 1.593096155509e-02 0.0 
8.780821202849e-03 7.560986104799e-03 0.0 
1.041675301642e-02 6.098795332168e-03 0.0 
1.850203931314e-02 6.245717106072e-03 0.0 
1.583160272776e-01 -2.054850843753e-01 0.0 
8.325913732190e-02 -1.467284270077e-01 0.0 
1.016064025936e-02 -2.310101441270e-03 0.0 
1.784590248062e-02 4.375154079991e-03 0.0 
1.372290313445e-02 -9.189268720428e-03 0.0 
6.944816520292e-02 -2.001474949280e-02 0.0 
1.299476766963e-01 -4.273617106063e-02 0.0 
3.597556359671e-02 -3.645351583286e-03 0.0 
-1.592415279513e-02 -5.105020151526e-02 0.0 
-7.600042049606e-03 -5.517884675011e-02 0.0 
-1.424762474641e-03 -1.326729413892e-02 0.0 
1.599246453063e-01 -2.119774688359e-01 0.0 
9.685435584753e-03 -4.868183846783e-02 0.0 
5.029463431446e-03 -2.302939273682e-03 0.0 
1.303629963513e-02 -9.346684991445e-02 0.0 
1.079133451221e-02 7.145752546183e-03 0.0 
1.613732376809e-02 -2.318484638296e-02 0.0 
1.170830662523e-01 -1.639408367481e-01 0.0 
1.220979153920e-01 -1.457095926113e-01 0.0 
8.985667090001e-03 -2.015582014875e-03 0.0 
3.647795256143e-02 1.210799940782e-02 0.0 
1.622570921458e-02 -2.394278601636e-03 0.0 
1.907569735750e-02 -2.024975576130e-02 0.0 
3.196742363547e-02 1.142478195812e-02 0.0 
1.771825839471e-01 -2.210088927583e-01 0.0 
2.199655059693e-03 -9.422266981354e-04 0.0 
9.647432845003e-02 -1.293916988685e-01 0.0 
1.626159274166e-02 -1.988279155860e-03 0.0 
4.387692428448e-04 -1.633675080297e-03 0.0 
7.494128210423e-02 -2.316885148330e-02 0.0 
1.542240342954e-01 -1.979757885107e-01 0.0 
5.836690790871e-02 1.057522909045e-02 0.0 
-1.043149238480e-02 -4.465293187089e-02 0.0 
7.256347767762e-02 -4.519832847260e-02 0.0 
7.134852955589e-03 -4.562708049405e-03 0.0 
4.419035885243e-03 4.668467171940e-04 0.0 
6.415395999553e-03 -4.766261657167e-03 0.0 
1.610995089419e-01 -2.106963065125e-01 0.0 
7.118906826830e-04 -7.492440530056e-03 0.0 
1.463709925013e-01 -1.918489303795e-01 0.0 
5.494253419815e-02 -1.092306106935e-01 0.0 
4.803681844091e-03 -1.195698109455e-02 0.0 
4.081923115628e-02 -7.830279158726e-03 0.0 
1.795386268997e-02 -4.130034198326e-03 0.0 
2.403336731902e-02 8.889389714851e-03 0.0 
7.482232088940e-02 3.287331313852e-03 0.0 
2.351791987147e-01 -2.284843955010e-01 0.0 
3.658547544567e-02 -9.245207330384e-03 0.0 
-3.883303136483e-03 -4.126039794973e-02 0.0 
1.935960271342e-01 -2.356072978551e-01 0.0 
6.276629977912e-02 -3.924672906178e-02 0.0 
2.021070696867e-02 1.027102819330e-02 0.0 
4.758548175685e-02 -7.725697288863e-03 0.0 
1.805710862440e-04 -4.777980764585e-04 0.0 
1.805710862440e-04 -2.200166194928e-04 0.0 
1.680076440228e-02 -1.610611570811e-01 0.0 
6.628884184593e-03 -1.561302460368e-01 0.0 
1.089510070664e-03 8.336079320031e-03 0.0 
2.613669647372e-03 9.001102357466e-03 0.0 
3.051947914311e-04 -1.646876922201e-03 0.0 
3.051947914311e-04 -4.007714229253e-03 0.0 
3.076120157914e-02 -1.482306769293e-01 0.0 
1.651710313283e-01 -2.152063003666e-01 0.0 
3.692596627939e-03 -1.153234523968e-02 0.0 
4.467247487621e-02 -2.073739845461e-02 0.0 
8.266767187188e-02 -1.155394803552e-01 0.0 
-3.914068345844e-04 -1.052643741202e-02 0.0 
-2.636204214587e-03 -4.614118437750e-02 0.0 
-2.881827916984e-03 -4.752814497738e-02 0.0 
1.214181048631e-02 3.266221561183e-03 0.0 
1.374045974018e-01 -1.945892693775e-01 0.0 
8.944569186398e-02 -5.861153831898e-02 0.0 
9.970515800945e-02 -1.291916386711e-01 0.0 
-1.603098753610e-02 -4.938581595737e-02 0.0 
5.008326038124e-02 -1.291164524150e-02 0.0 
5.574259968408e-04 -8.690237819620e-04 0.0 
-5.648289983153e-03 -4.765326006598e-02 0.0 
7.863297788552e-03 4.621465457386e-03 0.0 
4.744094834790e-02 -1.814631010459e-02 0.0 
9.354097274039e-02 -3.098058189601e-02 0.0 
1.318210786835e-01 -4.828854682025e-02 0.0 
2.750326340522e-02 1.066498634994e-02 0.0 
9.139983357148e-02 -6.816477558321e-02 0.0 
6.320971688429e-02 -1.410639110517e-02 0.0 
1.406132668443e-02 -5.156561298035e-02 0.0 
1.314084409923e-01 -1.817831164819e-01 0.0 
5.837645514603e-02 -2.238464580982e-02 0.0 
3.789321588126e-02 -4.194899743736e-02 0.0 
1.426231883406e-01 -2.015080278544e-01 0.0 
6.368383180419e-03 1.864826779240e-03 0.0 
2.961785783836e-03 -7.452308476421e-03 0.0 
5.577836194430e-02 -2.400763403173e-02 0.0 
4.569868848614e-02 -1.886388935679e-02 0.0 
-3.609609158365e-03 -4.417760812186e-02 0.0 
1.848665583240e-01 -2.297747154667e-01 0.0 
2.703972991626e-01 -1.396141275034e-01 0.0 
2.624227300171e-01 -1.857309638206e-01 0.0 
6.206106169044e-02 8.998756842814e-03 0.0 
9.559831593075e-02 -6.645158738328e-02 0.0 
1.230007233327e-02 -2.103645348633e-03 0.0 
1.261749886932e-02 -1.151924675987e-02 0.0 
1.356572216247e-01 -2.056103645387e-01 0.0 
1.230217071937e-01 -1.857396424255e-01 0.0 
2.338712201008e-01 -1.848699056852e-01 0.0 
1.052304095243e-02 1.408291824030e-03 0.0 
5.290331020162e-03 -5.356354767110e-02 0.0 
3.797914646716e-02 -5.118080230535e-03 0.0 
5.184819762194e-02 -1.005632668940e-01 0.0 
2.405416689283e-02 -2.209891602543e-02 0.0 
3.964246311548e-02 9.472141926515e-03 0.0 
1.898125974253e-02 -1.021483192056e-02 0.0 
6.770483571499e-02 -3.826134442767e-02 0.0 
6.854963132639e-02 6.049977639911e-03 0.0 
7.562884872467e-04 -1.039312309294e-02 0.0 
3.359359258074e-02 -5.925993786017e-03 0.0 
1.752741805196e-03 -9.628193064744e-04 0.0 
2.049842969680e-01 -2.280780588882e-01 0.0 
3.227731267160e-02 -3.482198047472e-03 0.0 
2.530516081611e-02 -8.974468730954e-03 0.0 
2.375659725791e-02 -2.396739192738e-02 0.0 
5.766368511498e-02 -3.274344337825e-02 0.0 
-1.413845574752e-04 -1.658776290120e-03 0.0 
1.250433464266e-01 -4.226898654996e-02 0.0 
1.871930849171e-01 -2.335589118383e-01 0.0 
2.040957306852e-01 -2.391673755810e-01 0.0 
8.322623657842e-02 -2.581108265218e-02 0.0 
5.828156962476e-02 7.955558257481e-03 0.0 
5.237360754097e-03 -1.426754763532e-02 0.0 
4.938793664922e-02 -2.685428437505e-02 0.0 
-3.174158199661e-04 -6.317101583122e-03 0.0 
9.316747009691e-03 1.103497891546e-04 0.0 
1.711257753414e-02 -1.001846890540e-02 0.0 
-5.014414641746e-05 -1.396493241759e-02 0.0 
9.670858528344e-04 -1.440868697334e-02 0.0 
-8.370480978556e-04 -4.291257254874e-02 0.0 
1.486397832440e-04 -3.306367083515e-03 0.0 
5.023077807009e-02 1.235123337323e-02 0.0 
7.119583070868e-03 -1.642122631645e-03 0.0 
1.204889744987e-01 -1.894100545130e-01 0.0 
4.398605955744e-03 -8.041603283539e-04 0.0 
9.610842251634e-03 1.921350386408e-03 0.0 
1.512118845029e-02 -1.203101446808e-01 0.0 
1.581266227834e-01 -2.021688015967e-01 0.0 
1.159673910252e-01 -4.247328100803e-02 0.0 
1.260502545775e-02 -2.531756165956e-03 0.0 
3.551227948787e-03 -1.101239048537e-03 0.0 
2.240272606465e-02 -1.385845480006e-02 0.0 
1.944350646076e-02 5.441958849954e-03 0.0 
1.270552592626e-01 -1.607728772748e-01 0.0 
1.783270723229e-01 -2.207483076172e-01 0.0 
1.222854861325e-01 -1.565961562516e-01 0.0 
1.117198175903e-01 -1.815690798996e-01 0.0 
1.884434280483e-01 -2.360571288152e-01 0.0 
-1.397119593262e-02 -4.763871995206e-02 0.0 
5.299301246207e-03 -1.354734818067e-02 0.0 
7.448232805522e-02 -2.180033057162e-02 0.0 
7.386232528977e-02 2.658893220494e-03 0.0 
-1.178645249114e-02 -5.625737683693e-02 0.0 
-1.647488206623e-03 -1.336811624306e-02 0.0 
1.244911151084e-02 -2.309762157035e-02 0.0 
2.350376940192e-02 -1.220123277361e-02 0.0 
4.154833059061e-02 -1.535633924803e-02 0.0 
7.259783646137e-02 -2.204343346524e-02 0.0 
1.178010304816e-01 -1.813414729029e-01 0.0 
1.647846987024e-01 -2.123741227591e-01 0.0 
4.455684282392e-03 -1.232060240879e-02 0.0 
2.851149062528e-02 -1.160939662862e-01 0.0 
6.074525057201e-03 -1.063804162699e-01 0.0 
1.917797316077e-01 -2.388328728961e-01 0.0 
1.161449873947e-01 -1.582803493080e-01 0.0 
-2.026966031784e-05 -7.765209769191e-03 0.0 
2.702911194642e-02 -7.815010890104e-03 0.0 
1.083926121560e-02 -2.152987654216e-03 0.0 
1.865162513254e-02 -9.111615289957e-03 0.0 
1.733710247160e-02 -2.954562426644e-02 0.0 
1.575233883746e-02 4.126083910843e-03 0.0 
4.624326177184e-03 -1.095625906666e-03 0.0 
1.414019654988e-01 -1.894342195175e-01 0.0 
3.446143060977e-02 1.239658634803e-02 0.0 
1.386263877849e-01 -2.016794856626e-01 0.0 
1.162557461805e-01 -1.427390747364e-01 0.0 
1.143630139643e-03 -3.525062052135e-03 0.0 
6.475736024993e-02 9.867226125617e-03 0.0 
6.574118645712e-02 -1.208128620501e-01 0.0 
-9.649494505615e-03 -4.506099945803e-02 0.0 
3.345336465035e-02 -9.453703424543e-03 0.0 
1.844778199180e-02 -1.989656464731e-03 0.0 
3.886984107051e-02 -8.491625762896e-03 0.0 
2.744230388721e-03 -4.095218055048e-02 0.0 
1.746210226475e-01 -2.171856677909e-01 0.0 
-6.968175013977e-04 -7.987647608998e-03 0.0 
6.098880046666e-04 -4.804115245688e-04 0.0 
1.008976031187e-03 -3.679509125714e-03 0.0 
2.467006818800e-03 7.342791544123e-03 0.0 
1.156447768618e-02 -1.923895646021e-02 0.0 
7.179090222417e-02 -1.182691282343e-01 0.0 
3.419692896951e-02 -4.605535387813e-03 0.0 
1.227824463851e-01 -1.460178016321e-01 0.0 
2.591911620949e-03 -8.604413158233e-03 0.0 
4.736155393038e-02 -1.023644764573e-02 0.0 
1.798485191447e-01 -2.232244705266e-01 0.0 
5.503154014084e-02 -2.533620362154e-02 0.0 
9.127453833353e-03 6.796396734212e-04 0.0 
7.516908930841e-03 -2.371112129129e-03 0.0 
2.768082560486e-03 -1.900767811898e-03 0.0 
3.767926964261e-03 2.381618356451e-03 0.0 
2.770247794692e-02 -7.414142344670e-03 0.0 
5.312482338830e-02 -1.004246961106e-02 0.0 
7.528469288530e-03 1.480585659437e-03 0.0 
4.610282788505e-02 -1.320250408864e-02 0.0 
-7.258764790597e-03 -4.297624121576e-02 0.0 
1.766952708420e-02 9.421226484183e-03 0.0 
3.385655446536e-02 -1.669476456498e-02 0.0 
6.103945333579e-04 -8.238947186594e-04 0.0 
3.188641840373e-02 -1.589971241897e-01 0.0 
4.843935342896e-03 8.504920861440e-03 0.0 
1.061034402502e-03 -7.653058897829e-03 0.0 
8.650802015044e-02 -1.220444099458e-01 0.0 
2.007939699570e-02 -2.371547752783e-02 0.0 
6.849979803301e-02 -1.629563893852e-02 0.0 
8.250781875055e-03 -2.327512712016e-03 0.0 
6.348698369461e-02 -1.049927261613e-01 0.0 
1.901997500046e-01 -2.333914684147e-01 0.0 
-1.166168126848e-03 -4.779974029671e-02 0.0 
3.668773136914e-03 -3.544957832046e-04 0.0 
1.691523122824e-01 -2.171054563372e-01 0.0 
2.736757447324e-02 -5.655739113753e-03 0.0 
6.788996106327e-03 2.730847372684e-03 0.0 
1.313640632776e-01 -1.898354660591e-01 0.0 
1.277219541358e-02 4.222225455943e-03 0.0 
2.519535424396e-02 -1.189892415763e-02 0.0 
-2.159999398917e-03 -4.744525247053e-02 0.0 
1.886334996327e-01 -2.371793594912e-01 0.0 
-2.129822136200e-03 -4.694631730590e-02 0.0 
-1.497148204941e-02 -4.981398949139e-02 0.0 
-9.938312720690e-04 -4.673207357011e-02 0.0 
3.065031600571e-02 -1.877437024169e-02 0.0 
-7.770193046273e-03 -4.678169541637e-02 0.0 
-1.027215013270e-02 -4.873052041885e-02 0.0 
1.164609094818e-01 -1.493844356018e-01 0.0 
-8.693678301282e-04 -1.059765345826e-02 0.0 
5.975756828617e-02 -2.226744091281e-02 0.0 
1.908286481357e-01 -2.313804520686e-01 0.0 
1.039711451781e-03 -8.265081667697e-04 0.0 
1.764815642258e-03 -7.324853794289e-03 0.0 
4.697272514324e-03 7.485271675817e-03 0.0 
5.120609375620e-03 3.012415433305e-03 0.0 
-1.054961292275e-02 -4.733757173471e-02 0.0 
-1.200076773315e-02 -4.870140961787e-02 0.0 
-7.557463342309e-03 -4.762799563396e-02 0.0 
2.802956907770e-02 -2.996056794860e-02 0.0 
1.318874770795e-01 -1.950560977810e-01 0.0 
4.923134453230e-02 -1.800960687911e-02 0.0 
8.427278489076e-03 5.614184668737e-03 0.0 
2.863578310366e-02 -4.962332889739e-03 0.0 
2.548539616859e-02 -2.989525124078e-02 0.0 
1.498441037617e-02 4.739400350989e-03 0.0 
6.431968345459e-02 -1.784870375901e-02 0.0 
3.084034967422e-02 -1.787303411137e-02 0.0 
2.262741483987e-02 -1.274908542522e-02 0.0 
1.880401657396e-01 -2.355796781001e-01 0.0 
6.514469699817e-02 -1.933619954765e-02 0.0 
5.436247260771e-02 -1.652140262198e-02 0.0 
1.172919422690e-01 -1.452835964257e-01 0.0 
-1.146053563554e-02 -4.670305560292e-02 0.0 
1.866120919025e-01 -2.330685584064e-01 0.0 
5.384972611720e-02 -1.482938091988e-02 0.0 

VECTORS element_materi_displacement float
0.0 0.0 0.0 
0.0 0.0 0.0 
0.0 0.0 0.0 
0.0 0.0 0.0 
0.0 0.0 0.0 
0.0 0.0 0.0 
0.0 0.0 0.0 
0.0 0.0 0.0 
0.0 0.0 0.0 
0.0 0.0 0.0 
0.0 0.0 0.0 
0.0 0.0 0.0 
0.0 0.0 0.0 
0.0 0.0 0.0 
0.0 0.0 0.0 
0.0 0.0 0.0 
0.0 0.0 0.0 
0.0 0.0 0.0 
0.0 0.0 0.0 
0.0 0.0 0.0 
0.0 0.0 0.0 
0.0 0.0 0.0 
0.0 0.0 0.0 
0.0 0.0 0.0 
0.0 0.0 0.0 
0.0 0.0 0.0 
0.0 0.0 0.0 
0.0 0.0 0.0 
0.0 0.0 0.0 
0.0 0.0 0.0 
0.0 0.0 0.0 
0.0 0.0 0.0 
0.0 0.0 0.0 
0.0 0.0 0.0 
0.0 0.0 0.0 
0.0 0.0 0.0 
0.0 0.0 0.0 
0.0 0.0 0.0 
0.0 0.0 0.0 
0.0 0.0 0.0 
0.0 0.0 0.0 
0.0 0.0 0.0 
0.0 0.0 0.0 
0.0 0.0 0.0 
0.0 0.0 0.0 
0.0 0.0 0.0 
0.0 0.0 0.0 
0.0 0.0 0.0 
0.0 0.0 0.0 
0.0 0.0 0.0 
0.0 0.0 0.0 
0.0 0.0 0.0 
0.0 0.0 0.0 
0.0 0.0 0.0 
0.0 0.0 0.0 
0.0 0.0 0.0 
0.0 0.0 0.0 
0.0 0.0 0.0 
0.0 0.0 0.0 
0.0 0.0 0.0 
0.0 0.0 0.0 
0.0 0.0 0.0 
0.0 0.0 0.0 
0.0 0.0 0.0 
0.0 0.0 0.0 
0.0 0.0 0.0 
0.0 0.0 0.0 
0.0 0.0 0.0 
0.0 0.0 0.0 
0.0 0.0 0.0 
0.0 0.0 0.0 
0.0 0.0 0.0 
0.0 0.0 0.0 
0.0 0.0 0.0 
0.0 0.0 0.0 
0.0 0.0 0.0 
0.0 0.0 0.0 
0.0 0.0 0.0 
0.0 0.0 0.0 
0.0 0.0 0.0 
0.0 0.0 0.0 
0.0 0.0 0.0 
0.0 0.0 0.0 
0.0 0.0 0.0 
0.0 0.0 0.0 
0.0 0.0 0.0 
0.0 0.0 0.0 
0.0 0.0 0.0 
0.0 0.0 0.0 
0.0 0.0 0.0 
0.0 0.0 0.0 
0.0 0.0 0.0 
0.0 0.0 0.0 
0.0 0.0 0.0 
0.0 0.0 0.0 
0.0 0.0 0.0 
0.0 0.0 0.0 
0.0 0.0 0.0 
0.0 0.0 0.0 
0.0 0.0 0.0 
0.0 0.0 0.0 
0.0 0.0 0.0 
0.0 0.0 0.0 
0.0 0.0 0.0 
0.0 0.0 0.0 
0.0 0.0 0.0 
0.0 0.0 0.0 
0.0 0.0 0.0 
0.0 0.0 0.0 
0.0 0.0 0.0 
0.0 0.0 0.0 
0.0 0.0 0.0 
0.0 0.0 0.0 
0.0 0.0 0.0 
0.0 0.0 0.0 
0.0 0.0 0.0 
0.0 0.0 0.0 
0.0 0.0 0.0 
0.0 0.0 0.0 
0.0 0.0 0.0 
0.0 0.0 0.0 
0.0 0.0 0.0 
0.0 0.0 0.0 
0.0 0.0 0.0 
0.0 0.0 0.0 
0.0 0.0 0.0 
0.0 0.0 0.0 
0.0 0.0 0.0 
0.0 0.0 0.0 
0.0 0.0 0.0 
0.0 0.0 0.0 
0.0 0.0 0.0 
0.0 0.0 0.0 
0.0 0.0 0.0 
0.0 0.0 0.0 
0.0 0.0 0.0 
0.0 0.0 0.0 
0.0 0.0 0.0 
0.0 0.0 0.0 
0.0 0.0 0.0 
0.0 0.0 0.0 
0.0 0.0 0.0 
0.0 0.0 0.0 
0.0 0.0 0.0 
0.0 0.0 0.0 
0.0 0.0 0.0 
0.0 0.0 0.0 
0.0 0.0 0.0 
0.0 0.0 0.0 
0.0 0.0 0.0 
0.0 0.0 0.0 
0.0 0.0 0.0 
0.0 0.0 0.0 
0.0 0.0 0.0 
0.0 0.0 0.0 
0.0 0.0 0.0 
0.0 0.0 0.0 
0.0 0.0 0.0 
0.0 0.0 0.0 
0.0 0.0 0.0 
0.0 0.0 0.0 
0.0 0.0 0.0 
0.0 0.0 0.0 
0.0 0.0 0.0 
0.0 0.0 0.0 
0.0 0.0 0.0 
0.0 0.0 0.0 
0.0 0.0 0.0 
0.0 0.0 0.0 
0.0 0.0 0.0 
0.0 0.0 0.0 
0.0 0.0 0.0 
0.0 0.0 0.0 
0.0 0.0 0.0 
0.0 0.0 0.0 
0.0 0.0 0.0 
0.0 0.0 0.0 
0.0 0.0 0.0 
0.0 0.0 0.0 
0.0 0.0 0.0 
0.0 0.0 0.0 
0.0 0.0 0.0 
0.0 0.0 0.0 
0.0 0.0 0.0 
0.0 0.0 0.0 
0.0 0.0 0.0 
0.0 0.0 0.0 
0.0 0.0 0.0 
0.0 0.0 0.0 
0.0 0.0 0.0 
0.0 0.0 0.0 
0.0 0.0 0.0 
0.0 0.0 0.0 
0.0 0.0 0.0 
0.0 0.0 0.0 
0.0 0.0 0.0 
0.0 0.0 0.0 
0.0 0.0 0.0 
0.0 0.0 0.0 
0.0 0.0 0.0 
0.0 0.0 0.0 
0.0 0.0 0.0 
0.0 0.0 0.0 
0.0 0.0 0.0 
0.0 0.0 0.0 
0.0 0.0 0.0 
0.0 0.0 0.0 
0.0 0.0 0.0 
0.0 0.0 0.0 
0.0 0.0 0.0 
0.0 0.0 0.0 
0.0 0.0 0.0 
0.0 0.0 0.0 
0.0 0.0 0.0 
0.0 0.0 0.0 
0.0 0.0 0.0 
0.0 0.0 0.0 
0.0 0.0 0.0 
0.0 0.0 0.0 
0.0 0.0 0.0 
0.0 0.0 0.0 
0.0 0.0 0.0 
0.0 0.0 0.0 
0.0 0.0 0.0 
0.0 0.0 0.0 
0.0 0.0 0.0 
0.0 0.0 0.0 
0.0 0.0 0.0 
0.0 0.0 0.0 
0.0 0.0 0.0 
0.0 0.0 0.0 
0.0 0.0 0.0 
0.0 0.0 0.0 
0.0 0.0 0.0 
0.0 0.0 0.0 
0.0 0.0 0.0 
0.0 0.0 0.0 
0.0 0.0 0.0 
0.0 0.0 0.0 
0.0 0.0 0.0 
0.0 0.0 0.0 
0.0 0.0 0.0 
0.0 0.0 0.0 
0.0 0.0 0.0 
0.0 0.0 0.0 
0.0 0.0 0.0 
0.0 0.0 0.0 
0.0 0.0 0.0 
0.0 0.0 0.0 
0.0 0.0 0.0 
0.0 0.0 0.0 
0.0 0.0 0.0 
0.0 0.0 0.0 
0.0 0.0 0.0 
0.0 0.0 0.0 
0.0 0.0 0.0 
0.0 0.0 0.0 
0.0 0.0 0.0 
0.0 0.0 0.0 
0.0 0.0 0.0 
0.0 0.0 0.0 
0.0 0.0 0.0 
0.0 0.0 0.0 
0.0 0.0 0.0 
0.0 0.0 0.0 
0.0 0.0 0.0 
0.0 0.0 0.0 
0.0 0.0 0.0 
0.0 0.0 0.0 
0.0 0.0 0.0 
0.0 0.0 0.0 
0.0 0.0 0.0 
0.0 0.0 0.0 
0.0 0.0 0.0 
0.0 0.0 0.0 
0.0 0.0 0.0 
0.0 0.0 0.0 
0.0 0.0 0.0 
0.0 0.0 0.0 
0.0 0.0 0.0 
0.0 0.0 0.0 
0.0 0.0 0.0 
0.0 0.0 0.0 
0.0 0.0 0.0 
0.0 0.0 0.0 
0.0 0.0 0.0 
0.0 0.0 0.0 
0.0 0.0 0.0 
0.0 0.0 0.0 
0.0 0.0 0.0 
0.0 0.0 0.0 
0.0 0.0 0.0 
0.0 0.0 0.0 
0.0 0.0 0.0 
0.0 0.0 0.0 
0.0 0.0 0.0 
0.0 0.0 0.0 
0.0 0.0 0.0 
0.0 0.0 0.0 
0.0 0.0 0.0 
0.0 0.0 0.0 
0.0 0.0 0.0 
0.0 0.0 0.0 
0.0 0.0 0.0 
0.0 0.0 0.0 
0.0 0.0 0.0 
0.0 0.0 0.0 
0.0 0.0 0.0 
0.0 0.0 0.0 
0.0 0.0 0.0 
0.0 0.0 0.0 
0.0 0.0 0.0 
0.0 0.0 0.0 
0.0 0.0 0.0 
0.0 0.0 0.0 
0.0 0.0 0.0 
0.0 0.0 0.0 
0.0 0.0 0.0 
0.0 0.0 0.0 
0.0 0.0 0.0 
0.0 0.0 0.0 
0.0 0.0 0.0 
0.0 0.0 0.0 
0.0 0.0 0.0 
0.0 0.0 0.0 
0.0 0.0 0.0 
0.0 0.0 0.0 
0.0 0.0 0.0 
0.0 0.0 0.0 
0.0 0.0 0.0 
0.0 0.0 0.0 
0.0 0.0 0.0 
0.0 0.0 0.0 
0.0 0.0 0.0 
0.0 0.0 0.0 
0.0 0.0 0.0 
0.0 0.0 0.0 
0.0 0.0 0.0 
0.0 0.0 0.0 
0.0 0.0 0.0 
0.0 0.0 0.0 
0.0 0.0 0.0 
0.0 0.0 0.0 
0.0 0.0 0.0 
0.0 0.0 0.0 
0.0 0.0 0.0 
0.0 0.0 0.0 
0.0 0.0 0.0 
0.0 0.0 0.0 
0.0 0.0 0.0 
0.0 0.0 0.0 
0.0 0.0 0.0 
0.0 0.0 0.0 
0.0 0.0 0.0 
0.0 0.0 0.0 
0.0 0.0 0.0 
0.0 0.0 0.0 
0.0 0.0 0.0 
0.0 0.0 0.0 
0.0 0.0 0.0 
0.0 0.0 0.0 
0.0 0.0 0.0 
0.0 0.0 0.0 
0.0 0.0 0.0 
0.0 0.0 0.0 
0.0 0.0 0.0 
0.0 0.0 0.0 
0.0 0.0 0.0 
0.0 0.0 0.0 
0.0 0.0 0.0 
0.0 0.0 0.0 
0.0 0.0 0.0 
0.0 0.0 0.0 
0.0 0.0 0.0 
0.0 0.0 0.0 
0.0 0.0 0.0 
0.0 0.0 0.0 
0.0 0.0 0.0 
0.0 0.0 0.0 
0.0 0.0 0.0 
0.0 0.0 0.0 
0.0 0.0 0.0 
0.0 0.0 0.0 
0.0 0.0 0.0 
0.0 0.0 0.0 
0.0 0.0 0.0 
0.0 0.0 0.0 
0.0 0.0 0.0 
0.0 0.0 0.0 
0.0 0.0 0.0 
0.0 0.0 0.0 
0.0 0.0 0.0 
0.0 0.0 0.0 
0.0 0.0 0.0 
0.0 0.0 0.0 
0.0 0.0 0.0 
0.0 0.0 0.0 
0.0 0.0 0.0 
0.0 0.0 0.0 
0.0 0.0 0.0 
0.0 0.0 0.0 
0.0 0.0 0.0 
0.0 0.0 0.0 
0.0 0.0 0.0 
0.0 0.0 0.0 
0.0 0.0 0.0 
0.0 0.0 0.0 
0.0 0.0 0.0 
0.0 0.0 0.0 
0.0 0.0 0.0 
0.0 0.0 0.0 
0.0 0.0 0.0 
0.0 0.0 0.0 
0.0 0.0 0.0 
0.0 0.0 0.0 
0.0 0.0 0.0 
0.0 0.0 0.0 
0.0 0.0 0.0 
0.0 0.0 0.0 
0.0 0.0 0.0 
0.0 0.0 0.0 
0.0 0.0 0.0 
0.0 0.0 0.0 
0.0 0.0 0.0 
0.0 0.0 0.0 
0.0 0.0 0.0 
0.0 0.0 0.0 
0.0 0.0 0.0 
0.0 0.0 0.0 
0.0 0.0 0.0 
0.0 0.0 0.0 
0.0 0.0 0.0 
0.0 0.0 0.0 
0.0 0.0 0.0 
0.0 0.0 0.0 
0.0 0.0 0.0 
0.0 0.0 0.0 
0.0 0.0 0.0 
0.0 0.0 0.0 
0.0 0.0 0.0 
0.0 0.0 0.0 
0.0 0.0 0.0 
0.0 0.0 0.0 
0.0 0.0 0.0 
0.0 0.0 0.0 
0.0 0.0 0.0 
0.0 0.0 0.0 
0.0 0.0 0.0 
0.0 0.0 0.0 
0.0 0.0 0.0 
0.0 0.0 0.0 
0.0 0.0 0.0 
0.0 0.0 0.0 
0.0 0.0 0.0 
0.0 0.0 0.0 
0.0 0.0 0.0 
0.0 0.0 0.0 
0.0 0.0 0.0 
0.0 0.0 0.0 
0.0 0.0 0.0 
0.0 0.0 0.0 
0.0 0.0 0.0 
0.0 0.0 0.0 
0.0 0.0 0.0 
0.0 0.0 0.0 
0.0 0.0 0.0 
0.0 0.0 0.0 
0.0 0.0 0.0 
0.0 0.0 0.0 
0.0 0.0 0.0 
0.0 0.0 0.0 
0.0 0.0 0.0 
0.0 0.0 0.0 
0.0 0.0 0.0 
0.0 0.0 0.0 
0.0 0.0 0.0 
0.0 0.0 0.0 
0.0 0.0 0.0 
0.0 0.0 0.0 
0.0 0.0 0.0 
0.0 0.0 0.0 
0.0 0.0 0.0 
0.0 0.0 0.0 
0.0 0.0 0.0 
0.0 0.0 0.0 
0.0 0.0 0.0 
0.0 0.0 0.0 
0.0 0.0 0.0 
0.0 0.0 0.0 
0.0 0.0 0.0 
0.0 0.0 0.0 
0.0 0.0 0.0 
0.0 0.0 0.0 
0.0 0.0 0.0 
0.0 0.0 0.0 
0.0 0.0 0.0 
0.0 0.0 0.0 
0.0 0.0 0.0 
0.0 0.0 0.0 
0.0 0.0 0.0 
0.0 0.0 0.0 
0.0 0.0 0.0 
0.0 0.0 0.0 
0.0 0.0 0.0 
0.0 0.0 0.0 
0.0 0.0 0.0 
0.0 0.0 0.0 
0.0 0.0 0.0 
0.0 0.0 0.0 
0.0 0.0 0.0 
0.0 0.0 0.0 
0.0 0.0 0.0 
0.0 0.0 0.0 
0.0 0.0 0.0 
0.0 0.0 0.0 
0.0 0.0 0.0 
0.0 0.0 0.0 
0.0 0.0 0.0 
0.0 0.0 0.0 
0.0 0.0 0.0 
0.0 0.0 0.0 
0.0 0.0 0.0 
0.0 0.0 0.0 
0.0 0.0 0.0 
0.0 0.0 0.0 
0.0 0.0 0.0 
0.0 0.0 0.0 
0.0 0.0 0.0 
0.0 0.0 0.0 
0.0 0.0 0.0 
0.0 0.0 0.0 
0.0 0.0 0.0 
0.0 0.0 0.0 
0.0 0.0 0.0 
0.0 0.0 0.0 
0.0 0.0 0.0 
0.0 0.0 0.0 
0.0 0.0 0.0 
0.0 0.0 0.0 
0.0 0.0 0.0 
0.0 0.0 0.0 
0.0 0.0 0.0 
0.0 0.0 0.0 
0.0 0.0 0.0 
0.0 0.0 0.0 
0.0 0.0 0.0 
0.0 0.0 0.0 
0.0 0.0 0.0 
0.0 0.0 0.0 
0.0 0.0 0.0 
0.0 0.0 0.0 
0.0 0.0 0.0 
0.0 0.0 0.0 
0.0 0.0 0.0 
0.0 0.0 0.0 
0.0 0.0 0.0 
0.0 0.0 0.0 
0.0 0.0 0.0 
0.0 0.0 0.0 
0.0 0.0 0.0 
0.0 0.0 0.0 
0.0 0.0 0.0 
0.0 0.0 0.0 
0.0 0.0 0.0 
0.0 0.0 0.0 
0.0 0.0 0.0 
0.0 0.0 0.0 
0.0 0.0 0.0 
0.0 0.0 0.0 
0.0 0.0 0.0 
0.0 0.0 0.0 
0.0 0.0 0.0 
0.0 0.0 0.0 
0.0 0.0 0.0 
0.0 0.0 0.0 
0.0 0.0 0.0 
0.0 0.0 0.0 
0.0 0.0 0.0 
0.0 0.0 0.0 
0.0 0.0 0.0 
0.0 0.0 0.0 
0.0 0.0 0.0 
0.0 0.0 0.0 
0.0 0.0 0.0 
0.0 0.0 0.0 
0.0 0.0 0.0 
0.0 0.0 0.0 
0.0 0.0 0.0 
0.0 0.0 0.0 
0.0 0.0 0.0 
0.0 0.0 0.0 
0.0 0.0 0.0 
0.0 0.0 0.0 
0.0 0.0 0.0 
0.0 0.0 0.0 
0.0 0.0 0.0 
0.0 0.0 0.0 
0.0 0.0 0.0 
0.0 0.0 0.0 
0.0 0.0 0.0 
0.0 0.0 0.0 
0.0 0.0 0.0 
0.0 0.0 0.0 
0.0 0.0 0.0 
0.0 0.0 0.0 
0.0 0.0 0.0 
0.0 0.0 0.0 
0.0 0.0 0.0 
0.0 0.0 0.0 
0.0 0.0 0.0 
0.0 0.0 0.0 
0.0 0.0 0.0 
0.0 0.0 0.0 
0.0 0.0 0.0 
0.0 0.0 0.0 
0.0 0.0 0.0 
0.0 0.0 0.0 
0.0 0.0 0.0 
0.0 0.0 0.0 
0.0 0.0 0.0 
0.0 0.0 0.0 
0.0 0.0 0.0 
0.0 0.0 0.0 
0.0 0.0 0.0 
0.0 0.0 0.0 
0.0 0.0 0.0 
0.0 0.0 0.0 
0.0 0.0 0.0 
0.0 0.0 0.0 
0.0 0.0 0.0 
0.0 0.0 0.0 
0.0 0.0 0.0 
0.0 0.0 0.0 
0.0 0.0 0.0 
0.0 0.0 0.0 
0.0 0.0 0.0 
0.0 0.0 0.0 
0.0 0.0 0.0 
0.0 0.0 0.0 
0.0 0.0 0.0 
0.0 0.0 0.0 
0.0 0.0 0.0 
0.0 0.0 0.0 
0.0 0.0 0.0 
0.0 0.0 0.0 
0.0 0.0 0.0 
0.0 0.0 0.0 
0.0 0.0 0.0 
0.0 0.0 0.0 
0.0 0.0 0.0 
0.0 0.0 0.0 
0.0 0.0 0.0 
0.0 0.0 0.0 
0.0 0.0 0.0 
0.0 0.0 0.0 
0.0 0.0 0.0 
0.0 0.0 0.0 
0.0 0.0 0.0 
0.0 0.0 0.0 
0.0 0.0 0.0 
0.0 0.0 0.0 
0.0 0.0 0.0 
0.0 0.0 0.0 
0.0 0.0 0.0 
0.0 0.0 0.0 
0.0 0.0 0.0 
0.0 0.0 0.0 
0.0 0.0 0.0 
0.0 0.0 0.0 
0.0 0.0 0.0 
0.0 0.0 0.0 
0.0 0.0 0.0 
0.0 0.0 0.0 
0.0 0.0 0.0 
0.0 0.0 0.0 
0.0 0.0 0.0 
0.0 0.0 0.0 
0.0 0.0 0.0 
0.0 0.0 0.0 
0.0 0.0 0.0 
0.0 0.0 0.0 
0.0 0.0 0.0 
0.0 0.0 0.0 
0.0 0.0 0.0 
0.0 0.0 0.0 
0.0 0.0 0.0 
0.0 0.0 0.0 
0.0 0.0 0.0 
0.0 0.0 0.0 
0.0 0.0 0.0 
0.0 0.0 0.0 
0.0 0.0 0.0 
0.0 0.0 0.0 
0.0 0.0 0.0 
0.0 0.0 0.0 
0.0 0.0 0.0 
0.0 0.0 0.0 
0.0 0.0 0.0 
0.0 0.0 0.0 
0.0 0.0 0.0 
0.0 0.0 0.0 
0.0 0.0 0.0 
0.0 0.0 0.0 
0.0 0.0 0.0 
0.0 0.0 0.0 
0.0 0.0 0.0 
0.0 0.0 0.0 
0.0 0.0 0.0 
0.0 0.0 0.0 
0.0 0.0 0.0 
0.0 0.0 0.0 
0.0 0.0 0.0 
0.0 0.0 0.0 
0.0 0.0 0.0 
0.0 0.0 0.0 
0.0 0.0 0.0 
0.0 0.0 0.0 
0.0 0.0 0.0 
0.0 0.0 0.0 
0.0 0.0 0.0 
0.0 0.0 0.0 
0.0 0.0 0.0 
0.0 0.0 0.0 
0.0 0.0 0.0 
0.0 0.0 0.0 
0.0 0.0 0.0 
0.0 0.0 0.0 
0.0 0.0 0.0 
0.0 0.0 0.0 
0.0 0.0 0.0 
0.0 0.0 0.0 
0.0 0.0 0.0 
0.0 0.0 0.0 
0.0 0.0 0.0 
0.0 0.0 0.0 
0.0 0.0 0.0 
0.0 0.0 0.0 
0.0 0.0 0.0 
0.0 0.0 0.0 
0.0 0.0 0.0 
0.0 0.0 0.0 
0.0 0.0 0.0 
0.0 0.0 0.0 
0.0 0.0 0.0 
0.0 0.0 0.0 
0.0 0.0 0.0 
0.0 0.0 0.0 
0.0 0.0 0.0 
0.0 0.0 0.0 
0.0 0.0 0.0 
0.0 0.0 0.0 
0.0 0.0 0.0 
0.0 0.0 0.0 
0.0 0.0 0.0 
0.0 0.0 0.0 
0.0 0.0 0.0 
0.0 0.0 0.0 
0.0 0.0 0.0 
0.0 0.0 0.0 
0.0 0.0 0.0 
0.0 0.0 0.0 
0.0 0.0 0.0 
0.0 0.0 0.0 
0.0 0.0 0.0 
0.0 0.0 0.0 
0.0 0.0 0.0 
0.0 0.0 0.0 
0.0 0.0 0.0 
0.0 0.0 0.0 
0.0 0.0 0.0 
0.0 0.0 0.0 
0.0 0.0 0.0 
0.0 0.0 0.0 
0.0 0.0 0.0 
0.0 0.0 0.0 
0.0 0.0 0.0 
0.0 0.0 0.0 
0.0 0.0 0.0 
0.0 0.0 0.0 
0.0 0.0 0.0 
0.0 0.0 0.0 
0.0 0.0 0.0 
0.0 0.0 0.0 
0.0 0.0 0.0 
0.0 0.0 0.0 
0.0 0.0 0.0 
0.0 0.0 0.0 
0.0 0.0 0.0 
0.0 0.0 0.0 
0.0 0.0 0.0 
0.0 0.0 0.0 
0.0 0.0 0.0 
0.0 0.0 0.0 
0.0 0.0 0.0 
0.0 0.0 0.0 
0.0 0.0 0.0 
0.0 0.0 0.0 
0.0 0.0 0.0 
0.0 0.0 0.0 
0.0 0.0 0.0 
0.0 0.0 0.0 
0.0 0.0 0.0 
0.0 0.0 0.0 
0.0 0.0 0.0 
0.0 0.0 0.0 
0.0 0.0 0.0 
0.0 0.0 0.0 
0.0 0.0 0.0 
0.0 0.0 0.0 
0.0 0.0 0.0 
0.0 0.0 0.0 
0.0 0.0 0.0 
0.0 0.0 0.0 
0.0 0.0 0.0 
0.0 0.0 0.0 
0.0 0.0 0.0 
0.0 0.0 0.0 
0.0 0.0 0.0 
0.0 0.0 0.0 
0.0 0.0 0.0 
0.0 0.0 0.0 
0.0 0.0 0.0 
0.0 0.0 0.0 
0.0 0.0 0.0 
0.0 0.0 0.0 
0.0 0.0 0.0 
0.0 0.0 0.0 
0.0 0.0 0.0 
0.0 0.0 0.0 
0.0 0.0 0.0 
0.0 0.0 0.0 
0.0 0.0 0.0 
0.0 0.0 0.0 
0.0 0.0 0.0 
0.0 0.0 0.0 
0.0 0.0 0.0 
0.0 0.0 0.0 
0.0 0.0 0.0 
0.0 0.0 0.0 
0.0 0.0 0.0 
0.0 0.0 0.0 
0.0 0.0 0.0 
0.0 0.0 0.0 
0.0 0.0 0.0 
0.0 0.0 0.0 
0.0 0.0 0.0 
0.0 0.0 0.0 
0.0 0.0 0.0 
0.0 0.0 0.0 
0.0 0.0 0.0 
0.0 0.0 0.0 
0.0 0.0 0.0 
0.0 0.0 0.0 
0.0 0.0 0.0 
0.0 0.0 0.0 
0.0 0.0 0.0 
0.0 0.0 0.0 
0.0 0.0 0.0 
0.0 0.0 0.0 
0.0 0.0 0.0 
0.0 0.0 0.0 
0.0 0.0 0.0 
0.0 0.0 0.0 
0.0 0.0 0.0 
0.0 0.0 0.0 
0.0 0.0 0.0 
0.0 0.0 0.0 
0.0 0.0 0.0 
0.0 0.0 0.0 
0.0 0.0 0.0 
0.0 0.0 0.0 
0.0 0.0 0.0 
0.0 0.0 0.0 
0.0 0.0 0.0 
0.0 0.0 0.0 
0.0 0.0 0.0 
0.0 0.0 0.0 
0.0 0.0 0.0 
0.0 0.0 0.0 
0.0 0.0 0.0 
0.0 0.0 0.0 
0.0 0.0 0.0 
0.0 0.0 0.0 
0.0 0.0 0.0 
0.0 0.0 0.0 
0.0 0.0 0.0 
0.0 0.0 0.0 
0.0 0.0 0.0 
0.0 0.0 0.0 
0.0 0.0 0.0 
0.0 0.0 0.0 
0.0 0.0 0.0 
0.0 0.0 0.0 
0.0 0.0 0.0 
0.0 0.0 0.0 
0.0 0.0 0.0 
0.0 0.0 0.0 
0.0 0.0 0.0 
0.0 0.0 0.0 
0.0 0.0 0.0 
0.0 0.0 0.0 
0.0 0.0 0.0 
0.0 0.0 0.0 
0.0 0.0 0.0 
0.0 0.0 0.0 
0.0 0.0 0.0 
0.0 0.0 0.0 
0.0 0.0 0.0 
0.0 0.0 0.0 
0.0 0.0 0.0 
0.0 0.0 0.0 
0.0 0.0 0.0 
0.0 0.0 0.0 
0.0 0.0 0.0 
0.0 0.0 0.0 
0.0 0.0 0.0 
0.0 0.0 0.0 
0.0 0.0 0.0 
0.0 0.0 0.0 
0.0 0.0 0.0 
0.0 0.0 0.0 
0.0 0.0 0.0 
0.0 0.0 0.0 
0.0 0.0 0.0 
0.0 0.0 0.0 
0.0 0.0 0.0 
0.0 0.0 0.0 
0.0 0.0 0.0 
0.0 0.0 0.0 
0.0 0.0 0.0 
0.0 0.0 0.0 
0.0 0.0 0.0 
0.0 0.0 0.0 
0.0 0.0 0.0 
0.0 0.0 0.0 
0.0 0.0 0.0 
0.0 0.0 0.0 
0.0 0.0 0.0 
0.0 0.0 0.0 
0.0 0.0 0.0 
0.0 0.0 0.0 
0.0 0.0 0.0 
0.0 0.0 0.0 
0.0 0.0 0.0 
0.0 0.0 0.0 
0.0 0.0 0.0 
0.0 0.0 0.0 
0.0 0.0 0.0 
0.0 0.0 0.0 
0.0 0.0 0.0 
0.0 0.0 0.0 
0.0 0.0 0.0 
0.0 0.0 0.0 
0.0 0.0 0.0 
0.0 0.0 0.0 
0.0 0.0 0.0 
0.0 0.0 0.0 
0.0 0.0 0.0 
0.0 0.0 0.0 
0.0 0.0 0.0 
0.0 0.0 0.0 
0.0 0.0 0.0 
0.0 0.0 0.0 
0.0 0.0 0.0 
0.0 0.0 0.0 
0.0 0.0 0.0 
0.0 0.0 0.0 
0.0 0.0 0.0 
0.0 0.0 0.0 
0.0 0.0 0.0 
0.0 0.0 0.0 
0.0 0.0 0.0 
0.0 0.0 0.0 
0.0 0.0 0.0 
0.0 0.0 0.0 
0.0 0.0 0.0 
0.0 0.0 0.0 
0.0 0.0 0.0 
0.0 0.0 0.0 
0.0 0.0 0.0 
0.0 0.0 0.0 
0.0 0.0 0.0 
0.0 0.0 0.0 
0.0 0.0 0.0 
0.0 0.0 0.0 
0.0 0.0 0.0 
0.0 0.0 0.0 
0.0 0.0 0.0 
0.0 0.0 0.0 
0.0 0.0 0.0 
0.0 0.0 0.0 
0.0 0.0 0.0 
0.0 0.0 0.0 
0.0 0.0 0.0 
0.0 0.0 0.0 
0.0 0.0 0.0 
0.0 0.0 0.0 
0.0 0.0 0.0 
0.0 0.0 0.0 
0.0 0.0 0.0 
0.0 0.0 0.0 
0.0 0.0 0.0 
0.0 0.0 0.0 
0.0 0.0 0.0 
0.0 0.0 0.0 
0.0 0.0 0.0 
0.0 0.0 0.0 
0.0 0.0 0.0 
0.0 0.0 0.0 
0.0 0.0 0.0 
0.0 0.0 0.0 
0.0 0.0 0.0 
0.0 0.0 0.0 
0.0 0.0 0.0 
0.0 0.0 0.0 
0.0 0.0 0.0 
0.0 0.0 0.0 
0.0 0.0 0.0 
0.0 0.0 0.0 
0.0 0.0 0.0 
0.0 0.0 0.0 
0.0 0.0 0.0 
0.0 0.0 0.0 
0.0 0.0 0.0 
0.0 0.0 0.0 
0.0 0.0 0.0 
0.0 0.0 0.0 
0.0 0.0 0.0 
0.0 0.0 0.0 
0.0 0.0 0.0 
0.0 0.0 0.0 
0.0 0.0 0.0 
0.0 0.0 0.0 
0.0 0.0 0.0 
0.0 0.0 0.0 
0.0 0.0 0.0 
0.0 0.0 0.0 
0.0 0.0 0.0 
0.0 0.0 0.0 
0.0 0.0 0.0 
0.0 0.0 0.0 
0.0 0.0 0.0 
0.0 0.0 0.0 
0.0 0.0 0.0 
0.0 0.0 0.0 
0.0 0.0 0.0 
0.0 0.0 0.0 
0.0 0.0 0.0 
0.0 0.0 0.0 
0.0 0.0 0.0 
0.0 0.0 0.0 
0.0 0.0 0.0 
0.0 0.0 0.0 
0.0 0.0 0.0 
0.0 0.0 0.0 
0.0 0.0 0.0 
0.0 0.0 0.0 
0.0 0.0 0.0 
0.0 0.0 0.0 
0.0 0.0 0.0 
0.0 0.0 0.0 
0.0 0.0 0.0 
0.0 0.0 0.0 
0.0 0.0 0.0 
0.0 0.0 0.0 
0.0 0.0 0.0 
0.0 0.0 0.0 
0.0 0.0 0.0 
0.0 0.0 0.0 
0.0 0.0 0.0 
0.0 0.0 0.0 
0.0 0.0 0.0 
0.0 0.0 0.0 
0.0 0.0 0.0 
0.0 0.0 0.0 
0.0 0.0 0.0 
0.0 0.0 0.0 
0.0 0.0 0.0 
0.0 0.0 0.0 
0.0 0.0 0.0 
0.0 0.0 0.0 
0.0 0.0 0.0 
0.0 0.0 0.0 
0.0 0.0 0.0 
0.0 0.0 0.0 
0.0 0.0 0.0 
0.0 0.0 0.0 
0.0 0.0 0.0 
0.0 0.0 0.0 
0.0 0.0 0.0 
0.0 0.0 0.0 
0.0 0.0 0.0 
0.0 0.0 0.0 
0.0 0.0 0.0 
0.0 0.0 0.0 
0.0 0.0 0.0 
0.0 0.0 0.0 
0.0 0.0 0.0 
0.0 0.0 0.0 
0.0 0.0 0.0 
0.0 0.0 0.0 
0.0 0.0 0.0 
0.0 0.0 0.0 
0.0 0.0 0.0 
0.0 0.0 0.0 
0.0 0.0 0.0 
0.0 0.0 0.0 
0.0 0.0 0.0 
0.0 0.0 0.0 
0.0 0.0 0.0 
0.0 0.0 0.0 
0.0 0.0 0.0 
0.0 0.0 0.0 
0.0 0.0 0.0 
0.0 0.0 0.0 
0.0 0.0 0.0 
0.0 0.0 0.0 
0.0 0.0 0.0 
0.0 0.0 0.0 
0.0 0.0 0.0 
0.0 0.0 0.0 
0.0 0.0 0.0 
0.0 0.0 0.0 
0.0 0.0 0.0 
0.0 0.0 0.0 
0.0 0.0 0.0 
0.0 0.0 0.0 
0.0 0.0 0.0 
0.0 0.0 0.0 
0.0 0.0 0.0 
0.0 0.0 0.0 
0.0 0.0 0.0 
0.0 0.0 0.0 
0.0 0.0 0.0 
0.0 0.0 0.0 
0.0 0.0 0.0 
0.0 0.0 0.0 
0.0 0.0 0.0 
0.0 0.0 0.0 
0.0 0.0 0.0 
0.0 0.0 0.0 
0.0 0.0 0.0 
0.0 0.0 0.0 
0.0 0.0 0.0 
0.0 0.0 0.0 
0.0 0.0 0.0 
0.0 0.0 0.0 
0.0 0.0 0.0 
0.0 0.0 0.0 
0.0 0.0 0.0 
0.0 0.0 0.0 
0.0 0.0 0.0 
0.0 0.0 0.0 
0.0 0.0 0.0 
0.0 0.0 0.0 
0.0 0.0 0.0 
0.0 0.0 0.0 
0.0 0.0 0.0 
0.0 0.0 0.0 
0.0 0.0 0.0 
0.0 0.0 0.0 
0.0 0.0 0.0 
0.0 0.0 0.0 
0.0 0.0 0.0 
0.0 0.0 0.0 
0.0 0.0 0.0 
0.0 0.0 0.0 
0.0 0.0 0.0 
0.0 0.0 0.0 
0.0 0.0 0.0 
0.0 0.0 0.0 
0.0 0.0 0.0 
0.0 0.0 0.0 
0.0 0.0 0.0 
0.0 0.0 0.0 
0.0 0.0 0.0 
0.0 0.0 0.0 
0.0 0.0 0.0 
0.0 0.0 0.0 
0.0 0.0 0.0 
0.0 0.0 0.0 
0.0 0.0 0.0 
0.0 0.0 0.0 
0.0 0.0 0.0 
0.0 0.0 0.0 
0.0 0.0 0.0 
0.0 0.0 0.0 
0.0 0.0 0.0 
0.0 0.0 0.0 
0.0 0.0 0.0 
0.0 0.0 0.0 
0.0 0.0 0.0 
0.0 0.0 0.0 
0.0 0.0 0.0 
0.0 0.0 0.0 
0.0 0.0 0.0 
0.0 0.0 0.0 
0.0 0.0 0.0 
0.0 0.0 0.0 
0.0 0.0 0.0 
0.0 0.0 0.0 
0.0 0.0 0.0 
0.0 0.0 0.0 
0.0 0.0 0.0 
0.0 0.0 0.0 
0.0 0.0 0.0 
0.0 0.0 0.0 
0.0 0.0 0.0 
0.0 0.0 0.0 
0.0 0.0 0.0 
0.0 0.0 0.0 
0.0 0.0 0.0 
0.0 0.0 0.0 
0.0 0.0 0.0 
0.0 0.0 0.0 
0.0 0.0 0.0 
0.0 0.0 0.0 
0.0 0.0 0.0 
0.0 0.0 0.0 
0.0 0.0 0.0 
0.0 0.0 0.0 
0.0 0.0 0.0 
0.0 0.0 0.0 
0.0 0.0 0.0 
0.0 0.0 0.0 
0.0 0.0 0.0 
0.0 0.0 0.0 
0.0 0.0 0.0 
0.0 0.0 0.0 
0.0 0.0 0.0 
0.0 0.0 0.0 
0.0 0.0 0.0 
0.0 0.0 0.0 
0.0 0.0 0.0 
0.0 0.0 0.0 
0.0 0.0 0.0 
0.0 0.0 0.0 
0.0 0.0 0.0 
0.0 0.0 0.0 
0.0 0.0 0.0 
0.0 0.0 0.0 
0.0 0.0 0.0 
0.0 0.0 0.0 
0.0 0.0 0.0 
0.0 0.0 0.0 
0.0 0.0 0.0 
0.0 0.0 0.0 
0.0 0.0 0.0 
0.0 0.0 0.0 
0.0 0.0 0.0 
0.0 0.0 0.0 
0.0 0.0 0.0 
0.0 0.0 0.0 
0.0 0.0 0.0 
0.0 0.0 0.0 
0.0 0.0 0.0 
0.0 0.0 0.0 
0.0 0.0 0.0 
0.0 0.0 0.0 
0.0 0.0 0.0 
0.0 0.0 0.0 
0.0 0.0 0.0 
0.0 0.0 0.0 
0.0 0.0 0.0 
0.0 0.0 0.0 
0.0 0.0 0.0 
0.0 0.0 0.0 
0.0 0.0 0.0 
0.0 0.0 0.0 
0.0 0.0 0.0 
0.0 0.0 0.0 
0.0 0.0 0.0 
0.0 0.0 0.0 
0.0 0.0 0.0 
0.0 0.0 0.0 
0.0 0.0 0.0 
0.0 0.0 0.0 
0.0 0.0 0.0 
0.0 0.0 0.0 
0.0 0.0 0.0 
0.0 0.0 0.0 
0.0 0.0 0.0 
0.0 0.0 0.0 
0.0 0.0 0.0 
0.0 0.0 0.0 
0.0 0.0 0.0 
0.0 0.0 0.0 
0.0 0.0 0.0 
0.0 0.0 0.0 
0.0 0.0 0.0 
0.0 0.0 0.0 
0.0 0.0 0.0 
0.0 0.0 0.0 
0.0 0.0 0.0 
0.0 0.0 0.0 
0.0 0.0 0.0 
0.0 0.0 0.0 
0.0 0.0 0.0 
0.0 0.0 0.0 
0.0 0.0 0.0 
0.0 0.0 0.0 
0.0 0.0 0.0 
0.0 0.0 0.0 
0.0 0.0 0.0 
0.0 0.0 0.0 
0.0 0.0 0.0 
0.0 0.0 0.0 
0.0 0.0 0.0 
0.0 0.0 0.0 
0.0 0.0 0.0 
0.0 0.0 0.0 
0.0 0.0 0.0 
0.0 0.0 0.0 
0.0 0.0 0.0 
0.0 0.0 0.0 
0.0 0.0 0.0 
0.0 0.0 0.0 
0.0 0.0 0.0 
0.0 0.0 0.0 
0.0 0.0 0.0 
0.0 0.0 0.0 
0.0 0.0 0.0 
0.0 0.0 0.0 
0.0 0.0 0.0 
0.0 0.0 0.0 
0.0 0.0 0.0 
0.0 0.0 0.0 
0.0 0.0 0.0 
0.0 0.0 0.0 
0.0 0.0 0.0 
0.0 0.0 0.0 
0.0 0.0 0.0 
0.0 0.0 0.0 
0.0 0.0 0.0 
0.0 0.0 0.0 
0.0 0.0 0.0 
0.0 0.0 0.0 
0.0 0.0 0.0 
0.0 0.0 0.0 
0.0 0.0 0.0 
0.0 0.0 0.0 
0.0 0.0 0.0 
0.0 0.0 0.0 
0.0 0.0 0.0 
0.0 0.0 0.0 
0.0 0.0 0.0 
0.0 0.0 0.0 
0.0 0.0 0.0 
0.0 0.0 0.0 
0.0 0.0 0.0 
0.0 0.0 0.0 
0.0 0.0 0.0 
0.0 0.0 0.0 
0.0 0.0 0.0 
0.0 0.0 0.0 
0.0 0.0 0.0 
0.0 0.0 0.0 
0.0 0.0 0.0 
0.0 0.0 0.0 
0.0 0.0 0.0 
0.0 0.0 0.0 
0.0 0.0 0.0 
0.0 0.0 0.0 
0.0 0.0 0.0 
0.0 0.0 0.0 
0.0 0.0 0.0 
0.0 0.0 0.0 
0.0 0.0 0.0 
0.0 0.0 0.0 
0.0 0.0 0.0 
0.0 0.0 0.0 
0.0 0.0 0.0 
0.0 0.0 0.0 
0.0 0.0 0.0 
0.0 0.0 0.0 
0.0 0.0 0.0 
0.0 0.0 0.0 
0.0 0.0 0.0 
0.0 0.0 0.0 
0.0 0.0 0.0 
0.0 0.0 0.0 
0.0 0.0 0.0 
0.0 0.0 0.0 
0.0 0.0 0.0 
0.0 0.0 0.0 
0.0 0.0 0.0 
0.0 0.0 0.0 
0.0 0.0 0.0 
0.0 0.0 0.0 
0.0 0.0 0.0 
0.0 0.0 0.0 
0.0 0.0 0.0 
0.0 0.0 0.0 
0.0 0.0 0.0 
0.0 0.0 0.0 
0.0 0.0 0.0 
0.0 0.0 0.0 
0.0 0.0 0.0 
0.0 0.0 0.0 
0.0 0.0 0.0 
0.0 0.0 0.0 
0.0 0.0 0.0 
0.0 0.0 0.0 
0.0 0.0 0.0 
0.0 0.0 0.0 
0.0 0.0 0.0 
0.0 0.0 0.0 
0.0 0.0 0.0 
0.0 0.0 0.0 
0.0 0.0 0.0 
0.0 0.0 0.0 
0.0 0.0 0.0 
0.0 0.0 0.0 
0.0 0.0 0.0 
0.0 0.0 0.0 
0.0 0.0 0.0 
0.0 0.0 0.0 
0.0 0.0 0.0 
0.0 0.0 0.0 
0.0 0.0 0.0 
0.0 0.0 0.0 
0.0 0.0 0.0 
0.0 0.0 0.0 
0.0 0.0 0.0 
0.0 0.0 0.0 
0.0 0.0 0.0 
0.0 0.0 0.0 
0.0 0.0 0.0 
0.0 0.0 0.0 
0.0 0.0 0.0 
0.0 0.0 0.0 
0.0 0.0 0.0 
0.0 0.0 0.0 
0.0 0.0 0.0 
0.0 0.0 0.0 
0.0 0.0 0.0 
0.0 0.0 0.0 
0.0 0.0 0.0 
0.0 0.0 0.0 
0.0 0.0 0.0 
0.0 0.0 0.0 
0.0 0.0 0.0 
0.0 0.0 0.0 
0.0 0.0 0.0 
0.0 0.0 0.0 
0.0 0.0 0.0 
0.0 0.0 0.0 
0.0 0.0 0.0 
0.0 0.0 0.0 
0.0 0.0 0.0 
0.0 0.0 0.0 
0.0 0.0 0.0 
0.0 0.0 0.0 
0.0 0.0 0.0 
0.0 0.0 0.0 
0.0 0.0 0.0 
0.0 0.0 0.0 
0.0 0.0 0.0 
0.0 0.0 0.0 
0.0 0.0 0.0 
0.0 0.0 0.0 
0.0 0.0 0.0 
0.0 0.0 0.0 
0.0 0.0 0.0 
0.0 0.0 0.0 
0.0 0.0 0.0 
0.0 0.0 0.0 
0.0 0.0 0.0 
0.0 0.0 0.0 
0.0 0.0 0.0 
0.0 0.0 0.0 
0.0 0.0 0.0 
0.0 0.0 0.0 
0.0 0.0 0.0 
0.0 0.0 0.0 
0.0 0.0 0.0 
0.0 0.0 0.0 
0.0 0.0 0.0 
0.0 0.0 0.0 
0.0 0.0 0.0 
0.0 0.0 0.0 
0.0 0.0 0.0 
0.0 0.0 0.0 
0.0 0.0 0.0 
0.0 0.0 0.0 
0.0 0.0 0.0 
0.0 0.0 0.0 
0.0 0.0 0.0 
0.0 0.0 0.0 
0.0 0.0 0.0 
0.0 0.0 0.0 
0.0 0.0 0.0 
0.0 0.0 0.0 
0.0 0.0 0.0 
0.0 0.0 0.0 
0.0 0.0 0.0 
0.0 0.0 0.0 
0.0 0.0 0.0 
0.0 0.0 0.0 
0.0 0.0 0.0 
0.0 0.0 0.0 
0.0 0.0 0.0 
0.0 0.0 0.0 
0.0 0.0 0.0 
0.0 0.0 0.0 
0.0 0.0 0.0 
0.0 0.0 0.0 
0.0 0.0 0.0 
0.0 0.0 0.0 
0.0 0.0 0.0 
0.0 0.0 0.0 
0.0 0.0 0.0 
0.0 0.0 0.0 
0.0 0.0 0.0 
0.0 0.0 0.0 
0.0 0.0 0.0 
0.0 0.0 0.0 
0.0 0.0 0.0 
0.0 0.0 0.0 
0.0 0.0 0.0 
0.0 0.0 0.0 
0.0 0.0 0.0 
0.0 0.0 0.0 
0.0 0.0 0.0 
0.0 0.0 0.0 
0.0 0.0 0.0 
0.0 0.0 0.0 
0.0 0.0 0.0 
0.0 0.0 0.0 
0.0 0.0 0.0 
0.0 0.0 0.0 
0.0 0.0 0.0 
0.0 0.0 0.0 
0.0 0.0 0.0 
0.0 0.0 0.0 
0.0 0.0 0.0 
0.0 0.0 0.0 
0.0 0.0 0.0 
0.0 0.0 0.0 
0.0 0.0 0.0 
0.0 0.0 0.0 
0.0 0.0 0.0 
0.0 0.0 0.0 
0.0 0.0 0.0 
0.0 0.0 0.0 
0.0 0.0 0.0 
0.0 0.0 0.0 
0.0 0.0 0.0 
0.0 0.0 0.0 
0.0 0.0 0.0 
0.0 0.0 0.0 
0.0 0.0 0.0 
0.0 0.0 0.0 
0.0 0.0 0.0 
0.0 0.0 0.0 
0.0 0.0 0.0 
0.0 0.0 0.0 
0.0 0.0 0.0 
0.0 0.0 0.0 
0.0 0.0 0.0 
0.0 0.0 0.0 
0.0 0.0 0.0 
0.0 0.0 0.0 
0.0 0.0 0.0 
0.0 0.0 0.0 
0.0 0.0 0.0 
0.0 0.0 0.0 
0.0 0.0 0.0 
0.0 0.0 0.0 
0.0 0.0 0.0 
0.0 0.0 0.0 
0.0 0.0 0.0 
0.0 0.0 0.0 
0.0 0.0 0.0 
0.0 0.0 0.0 
0.0 0.0 0.0 
0.0 0.0 0.0 
0.0 0.0 0.0 
0.0 0.0 0.0 
0.0 0.0 0.0 
0.0 0.0 0.0 
0.0 0.0 0.0 
0.0 0.0 0.0 
0.0 0.0 0.0 
0.0 0.0 0.0 
0.0 0.0 0.0 
0.0 0.0 0.0 
0.0 0.0 0.0 
0.0 0.0 0.0 
0.0 0.0 0.0 
0.0 0.0 0.0 
0.0 0.0 0.0 
0.0 0.0 0.0 
0.0 0.0 0.0 
0.0 0.0 0.0 
0.0 0.0 0.0 
0.0 0.0 0.0 
0.0 0.0 0.0 
0.0 0.0 0.0 
0.0 0.0 0.0 
0.0 0.0 0.0 
0.0 0.0 0.0 
0.0 0.0 0.0 
0.0 0.0 0.0 
0.0 0.0 0.0 
0.0 0.0 0.0 
0.0 0.0 0.0 
0.0 0.0 0.0 
0.0 0.0 0.0 
0.0 0.0 0.0 
0.0 0.0 0.0 
0.0 0.0 0.0 
0.0 0.0 0.0 
0.0 0.0 0.0 
0.0 0.0 0.0 
0.0 0.0 0.0 
0.0 0.0 0.0 
0.0 0.0 0.0 
0.0 0.0 0.0 
0.0 0.0 0.0 
0.0 0.0 0.0 
0.0 0.0 0.0 
0.0 0.0 0.0 
0.0 0.0 0.0 
0.0 0.0 0.0 
0.0 0.0 0.0 
0.0 0.0 0.0 
0.0 0.0 0.0 
0.0 0.0 0.0 
0.0 0.0 0.0 
0.0 0.0 0.0 
0.0 0.0 0.0 
0.0 0.0 0.0 
0.0 0.0 0.0 
0.0 0.0 0.0 
0.0 0.0 0.0 
0.0 0.0 0.0 
0.0 0.0 0.0 
0.0 0.0 0.0 
0.0 0.0 0.0 
0.0 0.0 0.0 
0.0 0.0 0.0 
0.0 0.0 0.0 
0.0 0.0 0.0 
0.0 0.0 0.0 
0.0 0.0 0.0 
0.0 0.0 0.0 
0.0 0.0 0.0 
0.0 0.0 0.0 
0.0 0.0 0.0 
0.0 0.0 0.0 
0.0 0.0 0.0 
0.0 0.0 0.0 
0.0 0.0 0.0 
0.0 0.0 0.0 
0.0 0.0 0.0 
0.0 0.0 0.0 
0.0 0.0 0.0 
0.0 0.0 0.0 
0.0 0.0 0.0 
0.0 0.0 0.0 
0.0 0.0 0.0 
0.0 0.0 0.0 
0.0 0.0 0.0 
0.0 0.0 0.0 
0.0 0.0 0.0 
0.0 0.0 0.0 
0.0 0.0 0.0 
0.0 0.0 0.0 
0.0 0.0 0.0 
0.0 0.0 0.0 
0.0 0.0 0.0 
0.0 0.0 0.0 
0.0 0.0 0.0 
0.0 0.0 0.0 
0.0 0.0 0.0 
0.0 0.0 0.0 
0.0 0.0 0.0 
0.0 0.0 0.0 
0.0 0.0 0.0 
0.0 0.0 0.0 
0.0 0.0 0.0 
0.0 0.0 0.0 
0.0 0.0 0.0 
0.0 0.0 0.0 
0.0 0.0 0.0 
0.0 0.0 0.0 
0.0 0.0 0.0 
0.0 0.0 0.0 
0.0 0.0 0.0 
0.0 0.0 0.0 
0.0 0.0 0.0 
0.0 0.0 0.0 
0.0 0.0 0.0 
0.0 0.0 0.0 
0.0 0.0 0.0 
0.0 0.0 0.0 
0.0 0.0 0.0 
0.0 0.0 0.0 
0.0 0.0 0.0 
0.0 0.0 0.0 
0.0 0.0 0.0 
0.0 0.0 0.0 
0.0 0.0 0.0 
0.0 0.0 0.0 
0.0 0.0 0.0 
0.0 0.0 0.0 
0.0 0.0 0.0 
0.0 0.0 0.0 
0.0 0.0 0.0 
0.0 0.0 0.0 
0.0 0.0 0.0 
0.0 0.0 0.0 
0.0 0.0 0.0 
0.0 0.0 0.0 
0.0 0.0 0.0 
0.0 0.0 0.0 
0.0 0.0 0.0 
0.0 0.0 0.0 
0.0 0.0 0.0 
0.0 0.0 0.0 
0.0 0.0 0.0 
0.0 0.0 0.0 
0.0 0.0 0.0 
0.0 0.0 0.0 
0.0 0.0 0.0 
0.0 0.0 0.0 
0.0 0.0 0.0 
0.0 0.0 0.0 
0.0 0.0 0.0 
0.0 0.0 0.0 
0.0 0.0 0.0 
0.0 0.0 0.0 
0.0 0.0 0.0 
0.0 0.0 0.0 
0.0 0.0 0.0 
0.0 0.0 0.0 
0.0 0.0 0.0 
0.0 0.0 0.0 
0.0 0.0 0.0 
0.0 0.0 0.0 
0.0 0.0 0.0 
0.0 0.0 0.0 
0.0 0.0 0.0 
0.0 0.0 0.0 
0.0 0.0 0.0 
0.0 0.0 0.0 
0.0 0.0 0.0 
0.0 0.0 0.0 
0.0 0.0 0.0 
0.0 0.0 0.0 
0.0 0.0 0.0 
0.0 0.0 0.0 
0.0 0.0 0.0 
0.0 0.0 0.0 
0.0 0.0 0.0 
0.0 0.0 0.0 
0.0 0.0 0.0 
0.0 0.0 0.0 
0.0 0.0 0.0 
0.0 0.0 0.0 
0.0 0.0 0.0 
0.0 0.0 0.0 
0.0 0.0 0.0 
0.0 0.0 0.0 
0.0 0.0 0.0 
0.0 0.0 0.0 
0.0 0.0 0.0 
0.0 0.0 0.0 
0.0 0.0 0.0 
0.0 0.0 0.0 
0.0 0.0 0.0 
0.0 0.0 0.0 
0.0 0.0 0.0 
0.0 0.0 0.0 
0.0 0.0 0.0 
0.0 0.0 0.0 
0.0 0.0 0.0 
0.0 0.0 0.0 
0.0 0.0 0.0 
0.0 0.0 0.0 
0.0 0.0 0.0 
0.0 0.0 0.0 
0.0 0.0 0.0 
0.0 0.0 0.0 
0.0 0.0 0.0 
0.0 0.0 0.0 
0.0 0.0 0.0 
0.0 0.0 0.0 
0.0 0.0 0.0 
0.0 0.0 0.0 
0.0 0.0 0.0 
0.0 0.0 0.0 
0.0 0.0 0.0 
0.0 0.0 0.0 
0.0 0.0 0.0 
0.0 0.0 0.0 
0.0 0.0 0.0 
0.0 0.0 0.0 
0.0 0.0 0.0 
0.0 0.0 0.0 
0.0 0.0 0.0 
0.0 0.0 0.0 
0.0 0.0 0.0 
0.0 0.0 0.0 
0.0 0.0 0.0 
0.0 0.0 0.0 
0.0 0.0 0.0 
0.0 0.0 0.0 
0.0 0.0 0.0 
0.0 0.0 0.0 
0.0 0.0 0.0 
0.0 0.0 0.0 
0.0 0.0 0.0 
0.0 0.0 0.0 
0.0 0.0 0.0 
0.0 0.0 0.0 
0.0 0.0 0.0 
0.0 0.0 0.0 
0.0 0.0 0.0 
0.0 0.0 0.0 
0.0 0.0 0.0 
0.0 0.0 0.0 
0.0 0.0 0.0 
0.0 0.0 0.0 
0.0 0.0 0.0 
0.0 0.0 0.0 
0.0 0.0 0.0 
0.0 0.0 0.0 
0.0 0.0 0.0 
0.0 0.0 0.0 
0.0 0.0 0.0 
0.0 0.0 0.0 
0.0 0.0 0.0 
0.0 0.0 0.0 
0.0 0.0 0.0 
0.0 0.0 0.0 
0.0 0.0 0.0 
0.0 0.0 0.0 
0.0 0.0 0.0 
0.0 0.0 0.0 
0.0 0.0 0.0 
0.0 0.0 0.0 
0.0 0.0 0.0 
0.0 0.0 0.0 
0.0 0.0 0.0 
0.0 0.0 0.0 
0.0 0.0 0.0 
0.0 0.0 0.0 
0.0 0.0 0.0 
0.0 0.0 0.0 
0.0 0.0 0.0 
0.0 0.0 0.0 
0.0 0.0 0.0 
0.0 0.0 0.0 
0.0 0.0 0.0 
0.0 0.0 0.0 
0.0 0.0 0.0 
0.0 0.0 0.0 
0.0 0.0 0.0 
0.0 0.0 0.0 
0.0 0.0 0.0 
0.0 0.0 0.0 
0.0 0.0 0.0 
0.0 0.0 0.0 
0.0 0.0 0.0 
0.0 0.0 0.0 
0.0 0.0 0.0 
0.0 0.0 0.0 
0.0 0.0 0.0 
0.0 0.0 0.0 
0.0 0.0 0.0 
0.0 0.0 0.0 
0.0 0.0 0.0 
0.0 0.0 0.0 
0.0 0.0 0.0 
0.0 0.0 0.0 
0.0 0.0 0.0 
0.0 0.0 0.0 
0.0 0.0 0.0 
0.0 0.0 0.0 
0.0 0.0 0.0 
0.0 0.0 0.0 
0.0 0.0 0.0 
0.0 0.0 0.0 
0.0 0.0 0.0 
0.0 0.0 0.0 
0.0 0.0 0.0 
0.0 0.0 0.0 
0.0 0.0 0.0 
0.0 0.0 0.0 
0.0 0.0 0.0 
0.0 0.0 0.0 
0.0 0.0 0.0 
0.0 0.0 0.0 
0.0 0.0 0.0 
0.0 0.0 0.0 
0.0 0.0 0.0 
0.0 0.0 0.0 
0.0 0.0 0.0 
0.0 0.0 0.0 
0.0 0.0 0.0 
0.0 0.0 0.0 
0.0 0.0 0.0 
0.0 0.0 0.0 
0.0 0.0 0.0 
0.0 0.0 0.0 
0.0 0.0 0.0 
0.0 0.0 0.0 
0.0 0.0 0.0 
0.0 0.0 0.0 
0.0 0.0 0.0 
0.0 0.0 0.0 
0.0 0.0 0.0 
0.0 0.0 0.0 
0.0 0.0 0.0 
0.0 0.0 0.0 
0.0 0.0 0.0 
0.0 0.0 0.0 

TENSORS element_materi_stress float
-2.576068734918e+01 1.767096253791e+01 0.0 
1.767096253791e+01 -3.905476327559e+01 0.0 
0.0 0.0 -1.904463518743e+01 
-2.966014158063e+01 1.910292936253e+01 0.0 
1.910292936253e+01 -4.176465206916e+01 0.0 
0.0 0.0 -2.102743809494e+01 
-1.238363131889e+02 4.271921278903e+01 0.0 
4.271921278903e+01 -2.365117794179e+02 0.0 
0.0 0.0 -1.094713496519e+02 
-8.217549208867e+01 5.189880323214e+00 0.0 
5.189880323214e+00 -1.723508144747e+02 0.0 
0.0 0.0 -7.595789196902e+01 
-4.053286729097e+01 -2.117790589502e-01 0.0 
-2.117790589502e-01 -3.029340962024e+01 0.0 
0.0 0.0 -2.084788307336e+01 
-2.105761960237e+01 6.428407352766e+00 0.0 
6.428407352766e+00 -3.952246867225e+01 0.0 
0.0 0.0 -1.777402648239e+01 
-3.935123538638e+01 -5.528505322288e-01 0.0 
-5.528505322288e-01 -3.055035195607e+01 0.0 
0.0 0.0 -2.057047620273e+01 
-3.064469038652e+01 1.949996837152e+01 0.0 
1.949996837152e+01 -4.515655812952e+01 0.0 
0.0 0.0 -2.234037455481e+01 
-4.087319633708e+01 2.006541959714e+00 0.0 
2.006541959714e+00 -3.158961850122e+01 0.0 
0.0 0.0 -2.133884445149e+01 
-8.138364477709e+01 6.332546723232e+00 0.0 
6.332546723232e+00 -1.703742795595e+02 0.0 
0.0 0.0 -7.512737730096e+01 
-1.127705346342e+02 -1.883262661370e+00 0.0 
-1.883262661370e+00 -2.555182235634e+02 0.0 
0.0 0.0 -1.117144706689e+02 
-2.326479700840e+01 1.672157898766e+01 0.0 
1.672157898766e+01 -3.430199753674e+01 0.0 
0.0 0.0 -1.687003836354e+01 
-1.666811546988e+02 -4.182786855537e-01 0.0 
-4.182786855537e-01 -3.698865622871e+02 0.0 
0.0 0.0 -1.666802937162e+02 
-5.668736371182e+01 5.424374149556e+00 0.0 
5.424374149556e+00 -5.005970431872e+01 0.0 
0.0 0.0 -3.162412040916e+01 
-1.706174729300e+02 1.438893775339e+00 0.0 
1.438893775339e+00 -3.780471187503e+02 0.0 
0.0 0.0 -1.706074921209e+02 
-8.198466965245e+01 5.083538250016e+00 0.0 
5.083538250016e+00 -1.806353991090e+02 0.0 
0.0 0.0 -7.838602062842e+01 
-4.005264013600e+01 1.333717111525e+00 0.0 
1.333717111525e+00 -2.660381714433e+01 0.0 
0.0 0.0 -1.959693718410e+01 
-1.895663963889e+01 4.180565301999e+00 0.0 
4.180565301999e+00 -3.945033139373e+01 0.0 
0.0 0.0 -1.712209130979e+01 
-2.461548888584e+01 6.751966987174e-01 0.0 
6.751966987174e-01 -7.432446201751e+01 0.0 
0.0 0.0 -2.928198527101e+01 
-2.781801968040e+01 -7.757055836987e-01 0.0 
-7.757055836987e-01 -8.098001363789e+01 0.0 
0.0 0.0 -3.223940999549e+01 
-8.458262844372e+01 8.798832686518e+00 0.0 
8.798832686518e+00 -1.723214346519e+02 0.0 
0.0 0.0 -7.667121892868e+01 
-2.525496156520e+01 1.744801084194e+01 0.0 
1.744801084194e+01 -3.603549095868e+01 0.0 
0.0 0.0 -1.798713575716e+01 
-3.450718057362e+01 2.077223856094e+01 0.0 
2.077223856094e+01 -4.443757584633e+01 0.0 
0.0 0.0 -2.328342692599e+01 
-1.479267232133e+02 1.348709337334e+01 0.0 
1.348709337334e+01 -3.277766304319e+02 0.0 
0.0 0.0 -1.469209396140e+02 
-7.139625236362e+01 1.424481107625e+01 0.0 
1.424481107625e+01 -7.731174089565e+01 0.0 
0.0 0.0 -4.421239797778e+01 
-1.191599048247e+02 -5.138401042761e-01 0.0 
-5.138401042761e-01 -2.700236792395e+02 0.0 
0.0 0.0 -1.186762052674e+02 
-5.220671044301e+01 1.063191486935e+01 0.0 
1.063191486935e+01 -1.852316878424e+01 0.0 
0.0 0.0 -2.081896376818e+01 
-1.390789224010e+02 3.508437429557e+01 0.0 
3.508437429557e+01 -2.883324893609e+02 0.0 
0.0 0.0 -1.312431681303e+02 
-7.708469944227e+01 1.990910616069e+01 0.0 
1.990910616069e+01 -8.043745586643e+01 0.0 
0.0 0.0 -4.685664659261e+01 
-1.513511924005e+02 1.192735763085e+01 0.0 
1.192735763085e+01 -3.356305167739e+02 0.0 
0.0 0.0 -1.505824092879e+02 
-1.873092683901e+01 -4.477928002227e+00 0.0 
-4.477928002227e+00 -5.631328419008e+01 0.0 
0.0 0.0 -2.211326330873e+01 
-8.974332907285e+00 -3.923758339409e+00 0.0 
-3.923758339409e+00 -2.735406622287e+01 0.0 
0.0 0.0 -1.049851973905e+01 
-1.288183571432e+02 4.609111076711e+01 0.0 
4.609111076711e+01 -2.398802069837e+02 0.0 
0.0 0.0 -1.121822943596e+02 
-1.431027137834e+02 2.640107356081e-01 0.0 
2.640107356081e-01 -3.208382233427e+02 0.0 
0.0 0.0 -1.431023216191e+02 
-1.603777208342e+02 6.379572402580e+00 0.0 
6.379572402580e+00 -3.561365781520e+02 0.0 
0.0 0.0 -1.601700377065e+02 
-1.707349145726e+02 2.300365719029e+00 0.0 
2.300365719029e+00 -3.782436334327e+02 0.0 
0.0 0.0 -1.707094166932e+02 
-1.717919411287e+02 4.437708805152e+00 0.0 
4.437708805152e+00 -3.802301929920e+02 0.0 
0.0 0.0 -1.716975038511e+02 
-1.483239111696e+02 2.242937413315e+01 0.0 
2.242937413315e+01 -3.229697838321e+02 0.0 
0.0 0.0 -1.454893628780e+02 
-3.095382709097e+01 1.342607992593e+00 0.0 
1.342607992593e+00 -1.218659111283e+01 0.0 
0.0 0.0 -1.254212546114e+01 
-3.063935881189e+01 -1.323354047027e+00 0.0 
-1.323354047027e+00 -1.267941680505e+01 0.0 
0.0 0.0 -1.259563268508e+01 
-3.632085218445e+01 2.118475883761e+01 0.0 
2.118475883761e+01 -4.323931349265e+01 0.0 
0.0 0.0 -2.346804970313e+01 
-1.612720560024e+02 8.125676607853e+00 0.0 
8.125676607853e+00 -3.576026287372e+02 0.0 
0.0 0.0 -1.609363268018e+02 
-2.622387278712e+01 1.783751416191e+01 0.0 
1.783751416191e+01 -3.852716450278e+01 0.0 
0.0 0.0 -1.902531118697e+01 
-4.534127613408e+01 1.137041932004e+01 0.0 
1.137041932004e+01 -1.651036172620e+01 0.0 
0.0 0.0 -1.815549135808e+01 
-7.954914675308e+01 1.942455478882e+00 0.0 
1.942455478882e+00 -1.603359234964e+02 0.0 
0.0 0.0 -7.156552107483e+01 
-2.506899236376e+01 1.740975891060e+01 0.0 
1.740975891060e+01 -3.869996558043e+01 0.0 
0.0 0.0 -1.873068738326e+01 
-1.240577577232e+01 -3.897880921553e+00 0.0 
-3.897880921553e+00 -4.168893134201e+01 0.0 
0.0 0.0 -1.582841213430e+01 
-7.665240110786e+01 2.164137759272e+00 0.0 
2.164137759272e+00 -1.608829513964e+02 0.0 
0.0 0.0 -7.086060575128e+01 
-1.535042418694e+01 -2.920977879205e+00 0.0 
-2.920977879205e+00 -2.479987803427e+01 0.0 
0.0 0.0 -1.203496409766e+01 
-5.463748789608e+01 6.252749227011e+00 0.0 
6.252749227011e+00 -4.153802531219e+01 0.0 
0.0 0.0 -2.845265396248e+01 
-3.585418236164e+01 2.117399595201e+01 0.0 
2.117399595201e+01 -4.458299598236e+01 0.0 
0.0 0.0 -2.373115350320e+01 
-3.377175054720e+01 1.046060121092e+00 0.0 
1.046060121092e+00 -9.334374159670e+01 0.0 
0.0 0.0 -3.773464764317e+01 
-2.433066774608e+01 -4.355439399198e+00 0.0 
-4.355439399198e+00 -7.255832552471e+01 0.0 
0.0 0.0 -2.866669798124e+01 
-2.889016279638e+01 1.871208144834e+01 0.0 
1.871208144834e+01 -3.826865376415e+01 0.0 
0.0 0.0 -1.974764496816e+01 
-1.072239717892e+02 3.610631658388e+01 0.0 
3.610631658388e+01 -2.114328855262e+02 0.0 
0.0 0.0 -9.593646920848e+01 
-4.982740254018e+01 9.659648242170e-02 0.0 
9.659648242170e-02 -1.268001986247e+02 0.0 
0.0 0.0 -5.258828034945e+01 
-3.734454411268e+01 -8.621775898934e-01 0.0 
-8.621775898934e-01 -1.007966393419e+02 0.0 
0.0 0.0 -4.104235503637e+01 
-1.424501817547e+02 -1.288441364097e+00 0.0 
-1.288441364097e+00 -3.194530934093e+02 0.0 
0.0 0.0 -1.424408034163e+02 
-1.614695470083e+01 4.423831297199e-01 0.0 
4.423831297199e-01 -5.672092021780e+01 0.0 
0.0 0.0 -2.146036247559e+01 
-8.361630400262e+01 7.263683081509e+00 0.0 
7.263683081509e+00 -1.813789446785e+02 0.0 
0.0 0.0 -7.909857460433e+01 
-2.759148302315e+01 -5.074646845587e-01 0.0 
-5.074646845587e-01 -2.128966580905e+01 0.0 
0.0 0.0 -1.426434464966e+01 
-1.355481063893e+02 2.874131517526e+01 0.0 
2.874131517526e+01 -2.890954199571e+02 0.0 
0.0 0.0 -1.303445860202e+02 
-4.923676040636e+01 2.354129673278e+01 0.0 
2.354129673278e+01 -9.486911996675e+01 0.0 
0.0 0.0 -4.283176411193e+01 
-2.273135960880e+01 -3.384324543592e+00 0.0 
-3.384324543592e+00 -6.968567308038e+01 0.0 
0.0 0.0 -2.732510980675e+01 
-1.659030519329e+02 1.504313574060e+00 0.0 
1.504313574060e+00 -3.682360929700e+02 0.0 
0.0 0.0 -1.658918682219e+02 
-2.670255973147e+01 1.795499202482e+01 0.0 
1.795499202482e+01 -3.684407455165e+01 0.0 
0.0 0.0 -1.866399028494e+01 
-1.944022631028e+01 2.672166555068e-01 0.0 
2.672166555068e-01 -2.050036029350e+01 0.0 
0.0 0.0 -1.228412993589e+01 
-1.290100034812e+02 4.518535730930e+01 0.0 
4.518535730930e+01 -2.430659159722e+02 0.0 
0.0 0.0 -1.132787382582e+02 
-2.143209247614e+01 -5.606189132988e+00 0.0 
-5.606189132988e+00 -6.557131679069e+01 0.0 
0.0 0.0 -2.570102278005e+01 
-1.359574333216e+02 4.072689701677e+01 0.0 
4.072689701677e+01 -2.710901496579e+02 0.0 
0.0 0.0 -1.246321385934e+02 
-1.244112145201e+02 -1.173399221326e+00 0.0 
-1.173399221326e+00 -2.819289369229e+02 0.0 
0.0 0.0 -1.244024739840e+02 
-9.411197778682e+01 2.450058195978e+01 0.0 
2.450058195978e+01 -2.026831792547e+02 0.0 
0.0 0.0 -8.883916212633e+01 
-1.352585523772e+02 3.440167823071e+01 0.0 
3.440167823071e+01 -2.807248018210e+02 0.0 
0.0 0.0 -1.275330983340e+02 
-3.251686493634e+00 -7.128236878374e-01 0.0 
-7.128236878374e-01 -2.985119517148e+01 0.0 
0.0 0.0 -9.530864499535e+00 
-5.311231667236e+01 -1.933972750602e+00 0.0 
-1.933972750602e+00 -1.334908648706e+02 0.0 
0.0 0.0 -5.558095446288e+01 
-9.155339061799e+01 1.867206486513e+01 0.0 
1.867206486513e+01 -1.802757219049e+02 0.0 
0.0 0.0 -8.114873375688e+01 
-1.166787625098e+02 4.119110504827e+01 0.0 
4.119110504827e+01 -2.222102473086e+02 0.0 
0.0 0.0 -1.025047506069e+02 
-2.246471653455e+01 1.507245499246e+01 0.0 
1.507245499246e+01 -3.621858249782e+01 0.0 
0.0 0.0 -1.720498970971e+01 
-1.774452278951e+01 -6.810197665782e-01 0.0 
-6.810197665782e-01 -6.002538681727e+01 0.0 
0.0 0.0 -2.293097288203e+01 
-2.705930341627e+01 1.810947203387e+01 0.0 
1.810947203387e+01 -3.784596907755e+01 0.0 
0.0 0.0 -1.907158174815e+01 
-1.938003369774e+01 -5.911823472746e+00 0.0 
-5.911823472746e+00 -6.092038198393e+01 0.0 
0.0 0.0 -2.369012470450e+01 
-4.195054196156e+01 9.510217369850e-01 0.0 
9.510217369850e-01 -2.621254586068e+01 0.0 
0.0 0.0 -2.004892634667e+01 
-3.457500116940e+01 2.086728758108e+01 0.0 
2.086728758108e+01 -4.581477663176e+01 0.0 
0.0 0.0 -2.371693334035e+01 
-2.375843185751e+01 1.687425460471e+01 0.0 
1.687425460471e+01 -3.374362189245e+01 0.0 
0.0 0.0 -1.685061612499e+01 
-4.723817964353e+01 2.705677020449e+00 0.0 
2.705677020449e+00 -4.219417267367e+01 0.0 
0.0 0.0 -2.642970569516e+01 
-4.455456476479e+01 2.382425202672e-01 0.0 
2.382425202672e-01 -4.100826009447e+01 0.0 
0.0 0.0 -2.526884745778e+01 
-1.283502726542e+02 -2.601147005825e-01 0.0 
-2.601147005825e-01 -2.901489200060e+02 0.0 
0.0 0.0 -1.283498544833e+02 
-1.386487669056e+02 -1.022133807191e+00 0.0 
-1.022133807191e+00 -3.115553587770e+02 0.0 
0.0 0.0 -1.386427247935e+02 
-1.077669747177e+02 3.930106810731e+01 0.0 
3.930106810731e+01 -1.902318635671e+02 0.0 
0.0 0.0 -8.899965148544e+01 
-4.298444610153e+01 2.554050799527e+00 0.0 
2.554050799527e+00 -3.043535750395e+01 0.0 
0.0 0.0 -2.162594108165e+01 
-7.870281787213e+00 -4.445325493854e+00 0.0 
-4.445325493854e+00 -2.619432374582e+01 0.0 
0.0 0.0 -1.017549687924e+01 
-5.902704670555e+01 1.359701858373e+01 0.0 
1.359701858373e+01 -3.677736905460e+01 0.0 
0.0 0.0 -2.834132472804e+01 
-6.479530599788e+01 2.040777391922e+00 0.0 
2.040777391922e+00 -1.107449181756e+02 0.0 
0.0 0.0 -5.226206725204e+01 
-6.543187531097e+01 1.685038171826e+00 0.0 
1.685038171826e+00 -1.073730298743e+02 0.0 
0.0 0.0 -5.144147155557e+01 
-1.046137896051e+02 3.037724994713e+01 0.0 
3.037724994713e+01 -2.166102087550e+02 0.0 
0.0 0.0 -9.670490931575e+01 
-1.515720631449e+02 2.567332396225e+01 0.0 
2.567332396225e+01 -3.271306827085e+02 0.0 
0.0 0.0 -1.478946794098e+02 
-4.467993173962e+01 2.483219388125e+00 0.0 
2.483219388125e+00 -2.608947371244e+01 0.0 
0.0 0.0 -2.083082163562e+01 
-1.596623505339e+02 7.735312550682e+00 0.0 
7.735312550682e+00 -3.543428949327e+02 0.0 
0.0 0.0 -1.593554842595e+02 
-4.888332497142e+01 9.035535143123e-01 0.0 
9.035535143123e-01 -6.122719457126e+01 0.0 
0.0 0.0 -3.263315586280e+01 
-4.130119642819e+01 2.193295920705e+01 0.0 
2.193295920705e+01 -7.686092932931e+01 0.0 
0.0 0.0 -3.504863772725e+01 
-3.667184468214e+01 1.452333937516e+00 0.0 
1.452333937516e+00 -2.157613477783e+01 0.0 
0.0 0.0 -1.707439383799e+01 
-1.697846644129e+02 2.198989809281e-01 0.0 
2.198989809281e-01 -3.763446656074e+02 0.0 
0.0 0.0 -1.697844303138e+02 
-1.152830645278e+02 2.358331501949e+01 0.0 
2.358331501949e+01 -2.506756428043e+02 0.0 
0.0 0.0 -1.112928116208e+02 
-1.360395170488e+02 2.931448257812e+01 0.0 
2.931448257812e+01 -2.894827474518e+02 0.0 
0.0 0.0 -1.306298645871e+02 
-4.097969154956e+01 1.812613476533e+01 0.0 
1.812613476533e+01 -8.998882564866e+01 0.0 
0.0 0.0 -3.889055515947e+01 
-2.121928514507e+01 -4.351933892453e+00 0.0 
-4.351933892453e+00 -3.957876693557e+01 0.0 
0.0 0.0 -1.783941562419e+01 
-1.573472468949e+02 5.170546252794e-01 0.0 
5.170546252794e-01 -3.504677989992e+02 0.0 
0.0 0.0 -1.573458625597e+02 
-7.133050096841e+01 2.423735605216e+00 0.0 
2.423735605216e+00 -1.273532656261e+02 0.0 
0.0 0.0 -5.920512997835e+01 
-2.634111856584e+01 -2.248503830020e+00 0.0 
-2.248503830020e+00 -2.394049043584e+01 0.0 
0.0 0.0 -1.468448270051e+01 
-1.679230407697e+02 2.409683625663e+00 0.0 
2.409683625663e+00 -3.723852208105e+02 0.0 
0.0 0.0 -1.678946454504e+02 
-1.005461467693e+02 3.546463265695e+01 0.0 
3.546463265695e+01 -1.832316888595e+02 0.0 
0.0 0.0 -8.473335068863e+01 
1.738512498056e-01 4.981656920772e-01 0.0 
4.981656920772e-01 -2.275058303138e+01 0.0 
0.0 0.0 -4.096057271373e+00 
-6.089330579875e+01 1.884887462178e+01 0.0 
1.884887462178e+01 -1.360807923654e+02 0.0 
0.0 0.0 -5.869222944924e+01 
-4.655529284258e+01 2.242952651319e+01 0.0 
2.242952651319e+01 -3.990245360352e+01 0.0 
0.0 0.0 -2.553732393383e+01 
-6.865925288651e+01 -1.969125326073e+00 0.0 
-1.969125326073e+00 -1.643242752599e+02 0.0 
0.0 0.0 -6.949505844394e+01 
-3.825319765905e+01 2.035927088083e+01 0.0 
2.035927088083e+01 -7.468164455179e+01 0.0 
0.0 0.0 -3.348045266325e+01 
-4.728181574458e+01 2.251826263058e+01 0.0 
2.251826263058e+01 -9.314128753616e+01 0.0 
0.0 0.0 -4.172693098422e+01 
-1.638464742207e+02 4.795092461633e+00 0.0 
4.795092461633e+00 -3.636379936584e+02 0.0 
0.0 0.0 -1.637314559128e+02 
-4.680699252515e+01 -2.640482816410e-01 0.0 
-2.640482816410e-01 -5.450646417032e+01 0.0 
0.0 0.0 -2.999403700864e+01 
-4.520378095273e+01 2.123905950035e+01 0.0 
2.123905950035e+01 -9.186249088669e+01 0.0 
0.0 0.0 -4.071988155182e+01 
-2.025111657181e+01 -4.398348022282e+00 0.0 
-4.398348022282e+00 -6.392266053342e+01 0.0 
0.0 0.0 -2.485213313157e+01 
-6.397185535235e+01 1.678876112418e+01 0.0 
1.678876112418e+01 -4.558802138036e+01 0.0 
0.0 0.0 -3.246796301981e+01 
-6.970202470009e+01 2.541409857915e+00 0.0 
2.541409857915e+00 -1.284097430918e+02 0.0 
0.0 0.0 -5.903353033757e+01 
-4.412248539774e+01 2.042555329213e+01 0.0 
2.042555329213e+01 -9.158523487819e+01 0.0 
0.0 0.0 -4.031231608278e+01 
-2.164122980965e+01 1.100152467935e+01 0.0 
1.100152467935e+01 -3.129663526325e+01 0.0 
0.0 0.0 -1.548135952187e+01 
-3.789207737858e+01 2.125348064318e+01 0.0 
2.125348064318e+01 -4.072975976799e+01 0.0 
0.0 0.0 -2.318655114397e+01 
-6.654426890965e+01 -3.031674653955e+00 0.0 
-3.031674653955e+00 -1.612778082580e+02 0.0 
0.0 0.0 -6.794662315028e+01 
-3.644339946100e+01 2.097263104006e+01 0.0 
2.097263104006e+01 -4.101544460788e+01 0.0 
0.0 0.0 -2.283765322067e+01 
-8.899421890063e+01 1.992182622647e+01 0.0 
1.992182622647e+01 -1.895781531901e+02 0.0 
0.0 0.0 -8.317171162724e+01 
-2.206803959663e+01 1.087812989747e+01 0.0 
1.087812989747e+01 -4.112628085279e+01 0.0 
0.0 0.0 -1.855829613483e+01 
-1.177978063819e+02 -2.159580110099e+00 0.0 
-2.159580110099e+00 -2.681025549144e+02 0.0 
0.0 0.0 -1.177667839165e+02 
-8.075734513899e+01 3.106485013263e+00 0.0 
3.106485013263e+00 -1.718318582568e+02 0.0 
0.0 0.0 -7.537676101872e+01 
-5.925697505313e+01 2.876009053374e+01 0.0 
2.876009053374e+01 -1.016715114078e+02 0.0 
0.0 0.0 -4.787854593828e+01 
-3.689878195978e+01 2.119118567437e+01 0.0 
2.119118567437e+01 -4.195495320844e+01 0.0 
0.0 0.0 -2.325612055047e+01 
-1.591633249495e+02 5.154195187538e+00 0.0 
5.154195187538e+00 -3.538299509127e+02 0.0 
0.0 0.0 -1.590269526746e+02 
-1.674469261295e+02 1.334047281531e+00 0.0 
1.334047281531e+00 -3.714553642237e+02 0.0 
0.0 0.0 -1.674382029312e+02 
-1.275433990264e+02 -1.847668342552e+00 0.0 
-1.847668342552e+00 -2.884063222290e+02 0.0 
0.0 0.0 -1.275221795436e+02 
-6.150739439510e+01 3.016139093599e+01 0.0 
3.016139093599e+01 -1.005914240981e+02 0.0 
0.0 0.0 -4.822964554795e+01 
-1.566505486815e+02 1.189689247877e+01 0.0 
1.189689247877e+01 -3.467381231585e+02 0.0 
0.0 0.0 -1.559088592375e+02 
-5.534381781641e+01 2.856767905684e+01 0.0 
2.856767905684e+01 -8.377542306342e+01 0.0 
0.0 0.0 -4.133577226395e+01 
-8.427973404040e+01 1.339238796102e+01 0.0 
1.339238796102e+01 -1.797531230553e+02 0.0 
0.0 0.0 -7.880985712872e+01 
-1.323125725636e+02 4.066842274829e+01 0.0 
4.066842274829e+01 -2.624702841955e+02 0.0 
0.0 0.0 -1.206504479118e+02 
-6.207734555699e+01 9.888478597583e+00 0.0 
9.888478597583e+00 -5.105230055444e+01 0.0 
0.0 0.0 -3.353889383343e+01 
-5.877675057607e+01 1.798555510771e+00 0.0 
1.798555510771e+00 -8.558212649656e+01 0.0 
0.0 0.0 -4.290766312179e+01 
-5.061915016775e+01 2.668971233848e+01 0.0 
2.668971233848e+01 -7.926185153985e+01 0.0 
0.0 0.0 -3.856430051228e+01 
-3.244152860977e+01 1.986209344671e+01 0.0 
1.986209344671e+01 -4.001708789479e+01 0.0 
0.0 0.0 -2.133758495137e+01 
-6.553803815807e+01 2.861268439616e+01 0.0 
2.861268439616e+01 -1.179293493545e+02 0.0 
0.0 0.0 -5.464021625378e+01 
-4.926661942022e+01 1.964287929748e+01 0.0 
1.964287929748e+01 -1.070004737117e+02 0.0 
0.0 0.0 -4.648012793958e+01 
-3.645213455890e+01 1.196008721677e+00 0.0 
1.196008721677e+00 -2.424980012722e+01 0.0 
0.0 0.0 -1.781058040584e+01 
-6.057910486524e+01 1.820525555572e+01 0.0 
1.820525555572e+01 -1.364004355388e+02 0.0 
0.0 0.0 -5.869386212120e+01 
-5.880122606245e+00 -3.160223777719e+00 0.0 
-3.160223777719e+00 -2.545172400389e+01 0.0 
0.0 0.0 -9.417731575136e+00 
-4.104888038484e+01 3.105004426110e-01 0.0 
3.105004426110e-01 -3.921468192622e+01 0.0 
0.0 0.0 -2.367906869332e+01 
-1.805179761171e+01 -1.401427811915e-01 0.0 
-1.401427811915e-01 -6.069696571137e+01 0.0 
0.0 0.0 -2.322462899693e+01 
-4.020081606289e+01 2.141759056491e+01 0.0 
2.141759056491e+01 -3.912559115043e+01 0.0 
0.0 0.0 -2.339792216400e+01 
-1.596299434922e+02 1.123296005981e+01 0.0 
1.123296005981e+01 -3.532197395984e+02 0.0 
0.0 0.0 -1.589803358982e+02 
-4.122073898923e+01 1.877862109094e+01 0.0 
1.877862109094e+01 -8.882610829865e+01 0.0 
0.0 0.0 -3.861405418636e+01 
-1.328424061291e+02 -1.545782331397e+00 0.0 
-1.545782331397e+00 -2.994509355381e+02 0.0 
0.0 0.0 -1.328280657026e+02 
-2.730459193985e+01 1.823297350197e+01 0.0 
1.823297350197e+01 -3.933147636274e+01 0.0 
0.0 0.0 -1.959082049078e+01 
-1.142685613964e+02 2.334201254734e+01 0.0 
2.334201254734e+01 -2.487297468004e+02 0.0 
0.0 0.0 -1.103317307586e+02 
-3.555143529021e+01 1.725216327091e-01 0.0 
1.725216327091e-01 -2.568667838433e+01 0.0 
0.0 0.0 -1.797143410236e+01 
-5.719843285836e+01 1.628367854861e+01 0.0 
1.628367854861e+01 -1.316429785779e+02 0.0 
0.0 0.0 -5.625242343088e+01 
-1.477717296592e+02 1.679034411235e-01 0.0 
1.679034411235e-01 -3.305518213166e+02 0.0 
0.0 0.0 -1.477715754217e+02 
-1.968038960561e+01 -5.779366160242e+00 0.0 
-5.779366160242e+00 -6.168144180839e+01 0.0 
0.0 0.0 -2.400854942420e+01 
-1.565827702781e+02 -1.034578886180e+00 0.0 
-1.034578886180e+00 -3.488645907913e+02 0.0 
0.0 0.0 -1.565772038523e+02 
-6.819940263082e+01 2.757872245724e+01 0.0 
2.757872245724e+01 -8.359603352197e+01 0.0 
0.0 0.0 -4.513863084584e+01 
-1.663757357604e+02 1.866964266080e+00 0.0 
1.866964266080e+00 -3.692009269200e+02 0.0 
0.0 0.0 -1.663585521932e+02 
-3.471864859352e+01 3.978072718246e-02 0.0 
3.978072718246e-02 -2.446844121071e+01 0.0 
0.0 0.0 -1.735612694127e+01 
-4.615381849649e+01 1.799113959182e+01 0.0 
1.799113959182e+01 -1.031225722750e+02 0.0 
0.0 0.0 -4.438291723145e+01 
-5.337776785088e+01 2.471020627342e+01 0.0 
2.471020627342e+01 -4.617561643351e+01 0.0 
0.0 0.0 -2.946601528532e+01 
-1.129436406331e+02 -2.098782323618e-01 0.0 
-2.098782323618e-01 -2.570341314328e+02 0.0 
0.0 0.0 -1.124313796340e+02 
-2.634260365913e+01 1.786098072657e+01 0.0 
1.786098072657e+01 -3.760725499550e+01 0.0 
0.0 0.0 -1.878495759639e+01 
-5.677646200397e+01 1.529907933563e+01 0.0 
1.529907933563e+01 -1.320437818437e+02 0.0 
0.0 0.0 -5.624607315430e+01 
-6.330668200240e+01 3.564881314690e+00 0.0 
3.564881314690e+00 -9.722521993001e+01 0.0 
0.0 0.0 -4.775957057972e+01 
-3.533655280517e+01 -4.305951538323e-01 0.0 
-4.305951538323e-01 -2.441798425967e+01 0.0 
0.0 0.0 -1.752636111945e+01 
-5.326732480077e+01 1.833405780243e+01 0.0 
1.833405780243e+01 -1.193353490563e+02 0.0 
0.0 0.0 -5.138080215713e+01 
-4.312897016100e+01 2.263976540749e+01 0.0 
2.263976540749e+01 -4.312870996994e+01 0.0 
0.0 0.0 -2.547730403928e+01 
-1.148611887776e+02 3.638414943778e+01 0.0 
3.638414943778e+01 -2.295297693727e+02 0.0 
0.0 0.0 -1.042909344980e+02 
-7.606406902023e+01 -2.682622281803e+00 0.0 
-2.682622281803e+00 -1.811694446229e+02 0.0 
0.0 0.0 -7.677005409294e+01 
-1.434299409541e+02 3.434602587177e+01 0.0 
3.434602587177e+01 -2.992330827876e+02 0.0 
0.0 0.0 -1.361945384428e+02 
-1.340697812848e+02 3.992066875966e+01 0.0 
3.992066875966e+01 -2.682255439724e+02 0.0 
0.0 0.0 -1.230893385382e+02 
-3.632590151072e+01 2.118750529027e+01 0.0 
2.118750529027e+01 -6.179521376102e+01 0.0 
0.0 0.0 -2.903633458152e+01 
-7.797335050055e+01 -2.635693026811e+00 0.0 
-2.635693026811e+00 -1.812439155132e+02 0.0 
0.0 0.0 -7.736517980412e+01 
-1.381589560989e+02 1.551695897594e+01 0.0 
1.551695897594e+01 -3.061779136296e+02 0.0 
0.0 0.0 -1.367379453521e+02 
-4.359163466325e+01 2.434790890850e+01 0.0 
2.434790890850e+01 -6.144232116067e+01 0.0 
0.0 0.0 -3.111018674718e+01 
-2.728768281259e+01 1.711055125441e+01 0.0 
1.711055125441e+01 -5.446346848489e+01 0.0 
0.0 0.0 -2.412534538924e+01 
-6.993264940052e+01 2.839738315055e+01 0.0 
2.839738315055e+01 -6.749749119716e+01 0.0 
0.0 0.0 -4.082904217930e+01 
-5.677263973766e+01 2.037242903340e+01 0.0 
2.037242903340e+01 -1.236346513449e+02 0.0 
0.0 0.0 -5.372218732477e+01 
-8.123479208004e+01 8.800637553514e+00 0.0 
8.800637553514e+00 -1.772228072951e+02 0.0 
0.0 0.0 -7.713727981253e+01 
-9.797872427665e+01 3.320249465335e+01 0.0 
3.320249465335e+01 -1.690620664732e+02 0.0 
0.0 0.0 -7.971223722494e+01 
-1.522274358007e+02 -1.186471319416e+00 0.0 
-1.186471319416e+00 -3.397983008135e+02 0.0 
0.0 0.0 -1.522199311285e+02 
-2.386812236554e+01 1.675969391975e+01 0.0 
1.675969391975e+01 -3.835744009708e+01 0.0 
0.0 0.0 -1.826766873879e+01 
-5.298733703262e+01 1.233272526854e+01 0.0 
1.233272526854e+01 -1.272287903560e+02 0.0 
0.0 0.0 -5.366483821659e+01 
-1.030422291811e+02 3.584350769292e+01 0.0 
3.584350769292e+01 -1.869956052355e+02 0.0 
0.0 0.0 -8.661135032497e+01 
-2.054651914950e+01 4.358457185528e+00 0.0 
4.358457185528e+00 -4.325310885284e+00 0.0 
0.0 0.0 -7.061549010434e+00 
-4.585979963237e+01 2.519156724859e+01 0.0 
2.519156724859e+01 -6.351729834337e+01 0.0 
0.0 0.0 -3.241312939272e+01 
-1.311855443972e+02 1.099745206051e+01 0.0 
1.099745206051e+01 -2.937673509394e+02 0.0 
0.0 0.0 -1.304450213339e+02 
-9.277735112536e+00 -6.272999479289e-01 0.0 
-6.272999479289e-01 -4.240929710072e+01 0.0 
0.0 0.0 -1.510610966398e+01 
-1.136993444515e+02 3.927900217441e+01 0.0 
3.927900217441e+01 -2.197370050649e+02 0.0 
0.0 0.0 -1.007345678629e+02 
-8.359857659898e+01 2.375727510551e+01 0.0 
2.375727510551e+01 -1.139691627757e+02 0.0 
0.0 0.0 -5.887032181241e+01 
-6.902024483456e+01 -2.157392926250e+00 0.0 
-2.157392926250e+00 -1.665801966988e+02 0.0 
0.0 0.0 -7.028013246001e+01 
-1.297065885064e+02 1.033150416866e+01 0.0 
1.033150416866e+01 -2.909408293446e+02 0.0 
0.0 0.0 -1.290472665633e+02 
-6.959128293150e+01 1.872964660612e+01 0.0 
1.872964660612e+01 -6.019219443038e+01 0.0 
0.0 0.0 -3.853504320856e+01 
-7.240289130146e+01 1.485516513721e+01 0.0 
1.485516513721e+01 -6.792008402524e+01 0.0 
0.0 0.0 -4.169689259801e+01 
-1.525771381510e+02 1.232438634934e+01 0.0 
1.232438634934e+01 -3.380372109934e+02 0.0 
0.0 0.0 -1.517617302493e+02 
-5.065913021458e+01 -4.180812275219e+00 0.0 
-4.180812275219e+00 -1.278351984781e+02 0.0 
0.0 0.0 -5.314829860782e+01 
-7.028238442295e+01 2.874279643275e+01 0.0 
2.874279643275e+01 -1.361519874581e+02 0.0 
0.0 0.0 -6.153031156431e+01 
-7.154863495494e+01 2.934786414938e+01 0.0 
2.934786414938e+01 -1.029474786708e+02 0.0 
0.0 0.0 -5.194883408772e+01 
-8.990533361788e+01 2.668174870149e+01 0.0 
2.668174870149e+01 -1.221365590317e+02 0.0 
0.0 0.0 -6.321256779487e+01 
-7.172349252410e+01 2.945517592612e+01 0.0 
2.945517592612e+01 -8.652290241933e+01 0.0 
0.0 0.0 -4.707391848303e+01 
-6.139044339903e+01 2.943756809972e+01 0.0 
2.943756809972e+01 -6.377045026559e+01 0.0 
0.0 0.0 -3.714826809939e+01 
-1.029576866739e+02 1.909236735736e+01 0.0 
1.909236735736e+01 -2.285862918955e+02 0.0 
0.0 0.0 -1.001202177641e+02 
-1.117428559567e+02 3.855389318745e+01 0.0 
3.855389318745e+01 -2.166542893771e+02 0.0 
0.0 0.0 -9.909861187208e+01 
-2.393528989643e+01 4.898850351780e+00 0.0 
4.898850351780e+00 -2.074040854752e+01 0.0 
0.0 0.0 -1.300270953318e+01 
-3.137031835135e+01 1.909145243339e+01 0.0 
1.909145243339e+01 -5.716041008077e+01 0.0 
0.0 0.0 -2.615921852964e+01 
-4.237366467304e+01 2.242458513502e+01 0.0 
2.242458513502e+01 -7.787823367295e+01 0.0 
0.0 0.0 -3.567556950380e+01 
-6.652935679632e+01 3.042535525522e+01 0.0 
3.042535525522e+01 -1.181508215831e+02 0.0 
0.0 0.0 -5.500405351382e+01 
-1.046398908145e+02 3.655623614315e+01 0.0 
3.655623614315e+01 -1.758892146039e+02 0.0 
0.0 0.0 -8.375873162551e+01 
-1.940990019279e+01 5.606540726288e+00 0.0 
5.606540726288e+00 -5.889374628565e+01 0.0 
0.0 0.0 -2.309109394353e+01 
-1.273304644274e+02 8.926681692069e+00 0.0 
8.926681692069e+00 -2.864913648366e+02 0.0 
0.0 0.0 -1.268313685494e+02 
-3.551323372161e+01 1.202746931102e+00 0.0 
1.202746931102e+00 -2.322455021705e+01 0.0 
0.0 0.0 -1.722133518160e+01 
-5.365479857867e+01 1.371592706136e+01 0.0 
1.371592706136e+01 -1.271333766032e+02 0.0 
0.0 0.0 -5.383645255456e+01 
-1.233912070267e+02 7.008685804133e+00 0.0 
7.008685804133e+00 -2.788627039697e+02 0.0 
0.0 0.0 -1.230758935764e+02 
-5.070218215624e+00 -1.114564079328e+00 0.0 
-1.114564079328e+00 -2.970714240475e+01 0.0 
0.0 0.0 -1.003320818611e+01 
-9.032496300767e+01 2.622742655707e+01 0.0 
2.622742655707e+01 -1.368320053000e+02 0.0 
0.0 0.0 -6.774709049231e+01 
-3.884722129238e+00 -1.851381294856e+00 0.0 
-1.851381294856e+00 -2.515533404516e+01 0.0 
0.0 0.0 -8.312016852320e+00 
-1.054653408198e+01 -1.296832879385e+00 0.0 
-1.296832879385e+00 -4.493489841783e+01 0.0 
0.0 0.0 -1.624442974994e+01 
-2.657316436464e+01 1.795990797726e+01 0.0 
1.795990797726e+01 -3.845058699774e+01 0.0 
0.0 0.0 -1.910712540871e+01 
-4.159058436550e+01 -4.528318694826e+00 0.0 
-4.528318694826e+00 -1.087291274740e+02 0.0 
0.0 0.0 -4.469591355185e+01 
-9.644889815395e+01 2.903980863512e+01 0.0 
2.903980863512e+01 -1.449714110957e+02 0.0 
0.0 0.0 -7.202609277489e+01 
-4.015112687201e+01 -4.349301325941e+00 0.0 
-4.349301325941e+00 -1.057873232639e+02 0.0 
0.0 0.0 -4.338153504076e+01 
-2.420494175233e+01 1.209319980599e+01 0.0 
1.209319980599e+01 -6.278843970955e+01 0.0 
0.0 0.0 -2.569801443856e+01 
-2.598998496755e+01 -5.522394233123e+00 0.0 
-5.522394233123e+00 -7.533146280511e+01 0.0 
0.0 0.0 -2.999643433180e+01 
-2.371156436490e+01 -5.439185440556e+00 0.0 
-5.439185440556e+00 -7.055232556795e+01 0.0 
0.0 0.0 -2.787916697986e+01 
-1.333923330188e+02 1.248198510797e+01 0.0 
1.248198510797e+01 -2.977356101570e+02 0.0 
0.0 0.0 -1.324497240886e+02 
-6.796028738495e+01 3.083552039786e+01 0.0 
3.083552039786e+01 -8.367433029549e+01 0.0 
0.0 0.0 -4.509038530413e+01 
-1.651007909492e+02 5.701717651787e-02 0.0 
5.701717651787e-02 -3.666015639515e+02 0.0 
0.0 0.0 -1.651007748155e+02 
-1.968158426753e+01 3.080361456791e+00 0.0 
3.080361456791e+00 -8.449508426350e+00 0.0 
0.0 0.0 -8.981027333017e+00 
-3.342290464155e+01 1.396915690923e+01 0.0 
1.396915690923e+01 -8.096811081610e+01 0.0 
0.0 0.0 -3.391730463729e+01 
-6.162546601178e+01 1.413179566215e+01 0.0 
1.413179566215e+01 -1.440914117208e+02 0.0 
0.0 0.0 -6.131506331977e+01 
-4.053363806085e+01 2.314258944006e+01 0.0 
2.314258944006e+01 -6.149732675315e+01 0.0 
0.0 0.0 -3.020928944420e+01 
-1.258874387378e+02 8.193588809983e+00 0.0 
8.193588809983e+00 -2.837201210465e+02 0.0 
0.0 0.0 -1.254632240661e+02 
-1.664881996304e+02 1.598260189608e+00 0.0 
1.598260189608e+00 -3.694490480259e+02 0.0 
0.0 0.0 -1.664756145567e+02 
-9.693200125605e+01 3.433302382796e+01 0.0 
3.433302382796e+01 -1.533869343376e+02 0.0 
0.0 0.0 -7.469568067811e+01 
-4.172094459893e+01 9.189190228181e+00 0.0 
9.189190228181e+00 -1.059679802436e+02 0.0 
0.0 0.0 -4.390667745275e+01 
-1.347312668137e+02 1.319802008350e+01 0.0 
1.319802008350e+01 -3.002022943623e+02 0.0 
0.0 0.0 -1.336852016245e+02 
-1.227698245798e+02 -2.091421714803e+00 0.0 
-2.091421714803e+00 -2.781747098414e+02 0.0 
0.0 0.0 -1.226071268352e+02 
-7.008972220480e+01 3.143429288374e+01 0.0 
3.143429288374e+01 -1.196789687643e+02 0.0 
0.0 0.0 -5.653060729074e+01 
-8.835574048009e+01 2.732757095812e+01 0.0 
2.732757095812e+01 -1.319894050082e+02 0.0 
0.0 0.0 -6.570354364648e+01 
-1.389447021296e+02 3.172601851084e+01 0.0 
3.172601851084e+01 -2.928327604356e+02 0.0 
0.0 0.0 -1.326605877683e+02 
-6.023008328644e+01 1.242442257222e+01 0.0 
1.242442257222e+01 -1.428077180626e+02 0.0 
0.0 0.0 -6.051134040471e+01 
-3.020267398514e+01 1.474504249987e+01 0.0 
1.474504249987e+01 -7.139290426147e+01 0.0 
0.0 0.0 -3.007867347398e+01 
-7.834667776064e+01 3.136477289711e+01 0.0 
3.136477289711e+01 -1.070969092407e+02 0.0 
0.0 0.0 -5.523307610041e+01 
-9.842514961958e+01 2.541837539651e+01 0.0 
2.541837539651e+01 -2.110448349699e+02 0.0 
0.0 0.0 -9.295399044223e+01 
-7.039785480198e+01 2.988846358780e+01 0.0 
2.988846358780e+01 -1.324703554890e+02 0.0 
0.0 0.0 -6.046046308731e+01 
-8.193801013144e+01 1.293140800044e+01 0.0 
1.293140800044e+01 -1.888502914434e+02 0.0 
0.0 0.0 -8.083649047245e+01 
-4.304791920656e+01 8.045163040090e-01 0.0 
8.045163040090e-01 -4.306169842073e+01 0.0 
0.0 0.0 -2.543288528819e+01 
-1.852255608159e+01 -7.073940343310e+00 0.0 
-7.073940343310e+00 -5.788027678046e+01 0.0 
0.0 0.0 -2.252084985862e+01 
-6.877597227457e+01 2.653784161372e+01 0.0 
2.653784161372e+01 -8.461515089526e+01 0.0 
0.0 0.0 -4.561733695095e+01 
-4.203440423055e+01 1.066012748953e+01 0.0 
1.066012748953e+01 -1.051965066966e+02 0.0 
0.0 0.0 -4.376927327815e+01 
-2.610738047302e+01 5.566190797712e+00 0.0 
5.566190797712e+00 -7.554990712069e+01 0.0 
0.0 0.0 -3.009718627811e+01 
-1.549485810866e+01 -4.819055088796e+00 0.0 
-4.819055088796e+00 -5.352763803287e+01 0.0 
0.0 0.0 -2.030674884246e+01 
-9.156842763188e+01 2.515584616674e+01 0.0 
2.515584616674e+01 -1.421804513277e+02 0.0 
0.0 0.0 -6.972466368787e+01 
-7.552003520463e+01 3.161509131249e+01 0.0 
3.161509131249e+01 -1.053940138659e+02 0.0 
0.0 0.0 -5.387421472116e+01 
-5.021687025202e+01 2.047668972318e+01 0.0 
2.047668972318e+01 -1.073356510332e+02 0.0 
0.0 0.0 -4.686575638557e+01 
-9.771252757158e+01 2.787929021903e+01 0.0 
2.787929021903e+01 -1.511518538398e+02 0.0 
0.0 0.0 -7.425931442341e+01 
-1.021244990906e+02 3.684128551626e+01 0.0 
3.684128551626e+01 -1.718663091329e+02 0.0 
0.0 0.0 -8.179724246704e+01 
-7.339173146399e+01 3.231406541110e+01 0.0 
3.231406541110e+01 -1.208473632920e+02 0.0 
0.0 0.0 -5.787172842679e+01 
-1.662568507227e+02 3.272947834044e+00 0.0 
3.272947834044e+00 -3.688437092858e+02 0.0 
0.0 0.0 -1.662039875060e+02 
-8.613794753940e+01 1.234934108787e+01 0.0 
1.234934108787e+01 -1.981942280603e+02 0.0 
0.0 0.0 -8.489965267990e+01 
-7.671010110112e+01 3.282748474994e+01 0.0 
3.282748474994e+01 -1.223019396419e+02 0.0 
0.0 0.0 -5.930361222290e+01 
-6.436586364258e+01 2.106212470881e+01 0.0 
2.106212470881e+01 -1.402437811270e+02 0.0 
0.0 0.0 -6.098289343089e+01 
-9.107726872112e+01 1.486516686239e+01 0.0 
1.486516686239e+01 -2.068252736327e+02 0.0 
0.0 0.0 -8.919867001094e+01 
-3.392794634537e+01 5.566238330902e+00 0.0 
5.566238330902e+00 -9.209938206420e+01 0.0 
0.0 0.0 -3.740819852287e+01 
-5.337751685527e+01 7.674809094655e+00 0.0 
7.674809094655e+00 -2.747400411415e+01 0.0 
0.0 0.0 -2.385545629083e+01 
-6.321745124209e+01 9.196948636900e+00 0.0 
9.196948636900e+00 -1.517436257699e+02 0.0 
0.0 0.0 -6.408832310359e+01 
-4.614799462542e+01 -6.998817669397e-01 0.0 
-6.998817669397e-01 -1.191256962989e+02 0.0 
0.0 0.0 -4.918210727729e+01 
-9.318885717479e+01 3.060272531231e+01 0.0 
3.060272531231e+01 -1.507967094470e+02 0.0 
0.0 0.0 -7.279566998652e+01 
-2.812031547510e+01 1.956489049093e+00 0.0 
1.956489049093e+00 -6.254843945685e+00 0.0 
0.0 0.0 -9.912547826237e+00 
-7.383019559650e+01 2.944425918291e+01 0.0 
2.944425918291e+01 -8.719938404746e+01 0.0 
0.0 0.0 -4.790887389319e+01 
-4.606281807074e+01 8.421986554623e+00 0.0 
8.421986554623e+00 -1.158842472177e+02 0.0 
0.0 0.0 -4.818411958653e+01 
-3.437662149834e+01 1.362053918060e+01 0.0 
1.362053918060e+01 -8.387657189417e+01 0.0 
0.0 0.0 -3.507595801775e+01 
-3.343444543346e+01 3.913049830235e+00 0.0 
3.913049830235e+00 -9.189541717373e+01 0.0 
0.0 0.0 -3.719895878216e+01 
-8.080387295458e+01 3.017349283785e+01 0.0 
3.017349283785e+01 -1.244535560514e+02 0.0 
0.0 0.0 -6.117722870180e+01 
-1.403137708612e+01 -5.241130357313e+00 0.0 
-5.241130357313e+00 -4.319233189285e+01 0.0 
0.0 0.0 -1.676711269369e+01 
-4.697704432753e+01 2.453790246007e+01 0.0 
2.453790246007e+01 -8.187043831142e+01 0.0 
0.0 0.0 -3.825424479169e+01 
-9.508554274220e+01 1.392229798345e+01 0.0 
1.392229798345e+01 -2.160793134774e+02 0.0 
0.0 0.0 -9.350422323627e+01 
-7.340909377139e+01 2.859222178908e+01 0.0 
2.859222178908e+01 -1.037521262979e+02 0.0 
0.0 0.0 -5.274836602079e+01 
-6.505401297470e+01 1.387410213173e+01 0.0 
1.387410213173e+01 -5.384316965644e+01 0.0 
0.0 0.0 -3.526915478934e+01 
-2.006299613077e+01 4.713007276948e+00 0.0 
4.713007276948e+00 -5.165656500586e+01 0.0 
0.0 0.0 -2.111586834099e+01 
-4.615679314401e+01 3.214698745396e-01 0.0 
3.214698745396e-01 -1.191603126560e+02 0.0 
0.0 0.0 -4.919513173999e+01 
-4.227157078861e+01 -1.686435055497e+00 0.0 
-1.686435055497e+00 -1.109548460252e+02 0.0 
0.0 0.0 -4.556792504415e+01 
-3.745195010503e+01 2.177300576129e+01 0.0 
2.177300576129e+01 -6.139791961947e+01 0.0 
0.0 0.0 -2.925496091735e+01 
-9.210675387189e+01 3.157399168805e+01 0.0 
3.157399168805e+01 -1.347111288464e+02 0.0 
0.0 0.0 -6.764536481548e+01 
-4.407316964566e+01 2.355363232750e+01 0.0 
2.355363232750e+01 -7.706979534689e+01 0.0 
0.0 0.0 -3.594288949777e+01 
-6.191282617540e+01 8.956742585870e+00 0.0 
8.956742585870e+00 -1.491378904293e+02 0.0 
0.0 0.0 -6.291521498142e+01 
-5.787551272656e+01 1.142221312417e+01 0.0 
1.142221312417e+01 -1.386641526505e+02 0.0 
0.0 0.0 -5.856189961310e+01 
-2.068353274720e+01 4.243922643943e+00 0.0 
4.243922643943e+00 -5.872922154665e+01 0.0 
0.0 0.0 -2.342382628816e+01 
-6.912177075983e+01 1.967951597832e+01 0.0 
1.967951597832e+01 -1.534947733022e+02 0.0 
0.0 0.0 -6.638496321862e+01 
-2.124859794253e+01 1.189721646583e+01 0.0 
1.189721646583e+01 -4.990770395562e+01 0.0 
0.0 0.0 -2.094689056944e+01 
-1.293625020916e+02 4.606637261396e+01 0.0 
4.606637261396e+01 -2.414075722469e+02 0.0 
0.0 0.0 -1.128548012512e+02 
-1.326500911164e+02 4.678839783953e+01 0.0 
4.678839783953e+01 -2.479810254353e+02 0.0 
0.0 0.0 -1.160561462454e+02 
-7.517173090437e+01 2.823617042531e+01 0.0 
2.823617042531e+01 -1.505605400041e+02 0.0 
0.0 0.0 -6.731968127256e+01 
-3.810529767893e+01 8.092376808986e+00 0.0 
8.092376808986e+00 -9.916792091887e+01 0.0 
0.0 0.0 -4.078196557934e+01 
-3.106851779249e+01 1.122437195758e+01 0.0 
1.122437195758e+01 -8.026070763839e+01 0.0 
0.0 0.0 -3.299876762926e+01 
-7.957615878465e+01 3.143556085324e+01 0.0 
3.143556085324e+01 -1.390954073641e+02 0.0 
0.0 0.0 -6.520146984462e+01 
-3.430228726580e+01 9.009925302549e+00 0.0 
9.009925302549e+00 -9.013637830131e+01 0.0 
0.0 0.0 -3.693159967013e+01 
-4.193420063528e+01 -1.183313720833e+00 0.0 
-1.183313720833e+00 -1.103174402559e+02 0.0 
0.0 0.0 -4.527549226735e+01 
-6.888777613403e+01 2.958873930268e+01 0.0 
2.958873930268e+01 -1.187012299409e+02 0.0 
0.0 0.0 -5.587670182250e+01 
-9.074808963831e+01 1.501014100398e+01 0.0 
1.501014100398e+01 -1.835584470659e+02 0.0 
0.0 0.0 -8.189196101127e+01 
-4.986670041346e+01 1.104499029406e+01 0.0 
1.104499029406e+01 -1.217744028353e+02 0.0 
0.0 0.0 -5.109233097462e+01 
-1.018599814616e+02 1.905485055226e+01 0.0 
1.905485055226e+01 -2.262536730161e+02 0.0 
0.0 0.0 -9.900657778344e+01 
-2.131176010293e+01 1.055366555272e+01 0.0 
1.055366555272e+01 -5.899600668374e+01 0.0 
0.0 0.0 -2.369233003600e+01 
-1.614800078839e+02 1.645178864276e+01 0.0 
1.645178864276e+01 -3.547872716789e+02 0.0 
0.0 0.0 -1.600898439118e+02 
-3.435688520420e+01 1.034398739784e+01 0.0 
1.034398739784e+01 -8.876427151384e+01 0.0 
0.0 0.0 -3.653634701541e+01 
-7.325472735432e+01 2.988312856838e+01 0.0 
2.988312856838e+01 -1.365775904780e+02 0.0 
0.0 0.0 -6.254969534971e+01 
-2.197150810937e+01 3.523072421096e+00 0.0 
3.523072421096e+00 -6.802714655601e+01 0.0 
0.0 0.0 -2.659959639961e+01 
-1.069323831050e+02 8.890727663684e+00 0.0 
8.890727663684e+00 -2.438237759003e+02 0.0 
0.0 0.0 -1.063573696124e+02 
-6.568418534440e+01 1.153890970636e+01 0.0 
1.153890970636e+01 -1.552832612489e+02 0.0 
0.0 0.0 -6.589023397799e+01 
-4.624625500123e+01 -1.309278528473e+00 0.0 
-1.309278528473e+00 -1.192785017592e+02 0.0 
0.0 0.0 -4.925742702812e+01 
-7.228705180074e+01 3.186581634596e+01 0.0 
3.186581634596e+01 -1.037235658344e+02 0.0 
0.0 0.0 -5.240318529055e+01 
-1.377278080155e+02 4.440505761492e+01 0.0 
4.440505761492e+01 -2.672755046466e+02 0.0 
0.0 0.0 -1.239684750165e+02 
-5.404967370562e+01 8.707657016678e+00 0.0 
8.707657016678e+00 -1.326481646023e+02 0.0 
0.0 0.0 -5.560935149239e+01 
-9.651802417842e+01 1.396471216298e+01 0.0 
1.396471216298e+01 -2.190915001875e+02 0.0 
0.0 0.0 -9.494716565691e+01 
-2.362511710951e+01 1.048199596998e+01 0.0 
1.048199596998e+01 -6.449453478820e+01 0.0 
0.0 0.0 -2.603589556931e+01 
-6.831221757905e+01 8.609254228260e+00 0.0 
8.609254228260e+00 -8.193341773430e+01 0.0 
0.0 0.0 -4.467369059400e+01 
-1.219395335219e+02 6.294157479930e+00 0.0 
6.294157479930e+00 -2.760234170098e+02 0.0 
0.0 0.0 -1.216828516943e+02 
-3.326404178120e+01 1.673416463154e+01 0.0 
1.673416463154e+01 -7.382251441358e+01 0.0 
0.0 0.0 -3.172596685843e+01 
-6.772811826318e+01 8.861354312946e+00 0.0 
8.861354312946e+00 -7.367488567340e+01 0.0 
0.0 0.0 -4.202090118097e+01 
-1.426506245062e+02 4.055295963623e+01 0.0 
4.055295963623e+01 -2.872606898168e+02 0.0 
0.0 0.0 -1.320547507579e+02 
-1.310066894915e+02 7.328031812728e+00 0.0 
7.328031812728e+00 -2.946676250968e+02 0.0 
0.0 0.0 -1.306792269950e+02 
-1.357542271273e+02 4.530029546683e+01 0.0 
4.530029546683e+01 -2.601131651904e+02 0.0 
0.0 0.0 -1.210025377220e+02 
-7.295992192298e+01 1.336613822780e+01 0.0 
1.336613822780e+01 -7.550936075614e+01 0.0 
0.0 0.0 -4.414078480374e+01 
-1.042134719757e+02 3.847252464756e+01 0.0 
3.847252464756e+01 -1.856445683447e+02 0.0 
0.0 0.0 -8.655741209611e+01 
-2.728895189199e+01 1.657158767333e+01 0.0 
1.657158767333e+01 -5.724573968512e+01 0.0 
0.0 0.0 -2.496040747313e+01 
-6.395567120933e+01 3.128926989371e+01 0.0 
3.128926989371e+01 -8.385479595595e+01 0.0 
0.0 0.0 -4.394314014958e+01 
-7.528231111128e+01 3.044559784039e+01 0.0 
3.044559784039e+01 -1.212095455535e+02 0.0 
0.0 0.0 -5.854755699943e+01 
-7.992060736090e+01 3.304119369692e+01 0.0 
3.304119369692e+01 -1.241272896541e+02 0.0 
0.0 0.0 -6.081436910451e+01 
-6.706115033663e+01 2.773798591123e+01 0.0 
2.773798591123e+01 -1.306014795353e+02 0.0 
0.0 0.0 -5.889878896158e+01 
-1.459273404675e+02 3.736570347167e+01 0.0 
3.736570347167e+01 -3.003253408142e+02 0.0 
0.0 0.0 -1.373599053431e+02 
-7.194078506571e+01 1.770057055898e+01 0.0 
1.770057055898e+01 -7.499935726778e+01 0.0 
0.0 0.0 -4.368204270005e+01 
-6.791279939082e+01 2.724534283650e+01 0.0 
2.724534283650e+01 -6.624122522769e+01 0.0 
0.0 0.0 -3.984620738555e+01 
-5.606584811659e+01 9.224997965578e+00 0.0 
9.224997965578e+00 -1.365635586413e+02 0.0 
0.0 0.0 -5.738882202737e+01 
-3.260489299255e+01 -5.077878550338e+00 0.0 
-5.077878550338e+00 -8.959002991864e+01 0.0 
0.0 0.0 -3.625847687336e+01 
-5.439056549967e+01 2.771927606810e+01 0.0 
2.771927606810e+01 -6.252810284369e+01 0.0 
0.0 0.0 -3.467560050301e+01 
-3.719898117831e+01 1.630457051957e+01 0.0 
1.630457051957e+01 -8.504208964323e+01 0.0 
0.0 0.0 -3.627232124646e+01 
-3.563269937957e+01 3.323965990821e-01 0.0 
3.323965990821e-01 -2.538200524535e+01 0.0 
0.0 0.0 -1.790441138748e+01 
-4.861773975384e+01 -1.654655459849e+00 0.0 
-1.654655459849e+00 -1.241725666539e+02 0.0 
0.0 0.0 -5.143709192232e+01 
-4.909583637972e+01 9.378925820595e+00 0.0 
9.378925820595e+00 -1.216022536694e+02 0.0 
0.0 0.0 -5.080942701474e+01 
-9.514233715847e+01 2.973727880885e+01 0.0 
2.973727880885e+01 -1.549322355877e+02 0.0 
0.0 0.0 -7.462237182384e+01 
-3.765484088424e+01 1.585401381179e+01 0.0 
1.585401381179e+01 -8.718593513934e+01 0.0 
0.0 0.0 -3.705223280707e+01 
-6.803740435920e+01 2.939958392488e+01 0.0 
2.939958392488e+01 -1.016908592787e+02 0.0 
0.0 0.0 -5.051847909136e+01 
-1.003763974238e+02 1.295801343180e+01 0.0 
1.295801343180e+01 -2.279432533030e+02 0.0 
0.0 0.0 -9.907345358083e+01 
-9.591562641715e+01 1.357346803590e+00 0.0 
1.357346803590e+00 -2.226322487810e+02 0.0 
0.0 0.0 -9.590108863226e+01 
-1.508529679741e+02 3.167634796447e+01 0.0 
3.167634796447e+01 -3.192117225426e+02 0.0 
0.0 0.0 -1.450903718514e+02 
-4.568094266088e+01 2.507572059768e+01 0.0 
2.507572059768e+01 -6.094543641048e+01 0.0 
0.0 0.0 -3.158791372141e+01 
-4.192670918520e+01 1.388776368788e+00 0.0 
1.388776368788e+00 -1.102780278033e+02 0.0 
0.0 0.0 -4.526142109655e+01 
-6.727836171072e+01 -1.714763377266e+00 0.0 
-1.714763377266e+00 -1.630088889962e+02 0.0 
0.0 0.0 -6.868617521209e+01 
-3.269808944527e+01 1.952854436378e+01 0.0 
1.952854436378e+01 -5.947269646768e+01 0.0 
0.0 0.0 -2.725123577388e+01 
-3.036486953530e+01 1.581374325282e+01 0.0 
1.581374325282e+01 -6.887380244914e+01 0.0 
0.0 0.0 -2.937160159533e+01 
-1.101722031189e+02 3.939928865623e+01 0.0 
3.939928865623e+01 -1.945577477259e+02 0.0 
0.0 0.0 -9.101898525345e+01 
-7.798772486383e+01 3.264683454763e+01 0.0 
3.264683454763e+01 -1.387146667382e+02 0.0 
0.0 0.0 -6.461071748060e+01 
-4.151459888900e+01 2.353880047227e+01 0.0 
2.353880047227e+01 -6.178856644687e+01 0.0 
0.0 0.0 -3.059094960076e+01 
-6.290840030432e+01 3.045625848617e+01 0.0 
3.045625848617e+01 -8.503461931498e+01 0.0 
0.0 0.0 -4.398290588579e+01 
-1.565453893726e+02 2.278849840143e+01 0.0 
2.278849840143e+01 -3.402252103234e+02 0.0 
0.0 0.0 -1.537603305454e+02 
-1.479140648048e+02 2.271425946323e+01 0.0 
2.271425946323e+01 -3.218628706530e+02 0.0 
0.0 0.0 -1.449969534077e+02 
-1.054517803135e+02 3.550071639612e+01 0.0 
3.550071639612e+01 -1.913625224594e+02 0.0 
0.0 0.0 -8.864429083186e+01 
-9.478079146814e+01 3.038235927510e+01 0.0 
3.038235927510e+01 -1.397502111445e+02 0.0 
0.0 0.0 -6.995930078380e+01 
-9.296879002372e+01 2.422125070479e+00 0.0 
2.422125070479e+00 -2.164004324138e+02 0.0 
0.0 0.0 -9.292127844246e+01 
-5.055813516997e+01 2.450791882190e+01 0.0 
2.450791882190e+01 -9.472811679126e+01 0.0 
0.0 0.0 -4.318587558837e+01 
-3.778213299891e+01 6.470547066135e+00 0.0 
6.470547066135e+00 -9.968185552632e+01 0.0 
0.0 0.0 -4.083919655757e+01 
-4.510898014045e+01 6.505965774674e+00 0.0 
6.505965774674e+00 -1.151389376999e+02 0.0 
0.0 0.0 -4.767437535212e+01 
-7.429875416210e+01 3.164644516670e+01 0.0 
3.164644516670e+01 -1.371138096619e+02 0.0 
0.0 0.0 -6.302376914721e+01 
-1.035001638331e+02 1.002613436856e+01 0.0 
1.002613436856e+01 -2.361336326495e+02 0.0 
0.0 0.0 -1.027465423980e+02 
-8.465496692076e+01 -2.386238037257e+00 0.0 
-2.386238037257e+00 -1.990985004124e+02 0.0 
0.0 0.0 -8.472604019995e+01 
-1.013236212133e+02 3.253080575898e+01 0.0 
3.253080575898e+01 -1.774726020184e+02 0.0 
0.0 0.0 -8.323886696951e+01 
-4.071347247959e+01 -4.985115928043e-01 0.0 
-4.985115928043e-01 -1.078296314777e+02 0.0 
0.0 0.0 -4.416293118720e+01 
-6.375894247395e+01 2.534766371400e+01 0.0 
2.534766371400e+01 -1.290189902514e+02 0.0 
0.0 0.0 -5.743337981759e+01 
-7.205733568904e+01 3.012819405577e+01 0.0 
3.012819405577e+01 -1.196830165339e+02 0.0 
0.0 0.0 -5.712210566687e+01 
-5.634405904620e+01 2.445391537990e+01 0.0 
2.445391537990e+01 -1.119409595630e+02 0.0 
0.0 0.0 -5.008550558275e+01 
-1.360545785021e+02 4.685571428127e+01 0.0 
4.685571428127e+01 -2.567127823019e+02 0.0 
0.0 0.0 -1.199961258080e+02 
-1.322468455524e+02 4.729285785367e+01 0.0 
4.729285785367e+01 -2.453833954663e+02 0.0 
0.0 0.0 -1.150819248945e+02 
-1.255192378840e+02 4.651744218973e+01 0.0 
4.651744218973e+01 -2.295268027881e+02 0.0 
0.0 0.0 -1.077500612674e+02 
-1.017442929931e+02 3.368408004447e+00 0.0 
3.368408004447e+00 -2.345392796639e+02 0.0 
0.0 0.0 -1.016589066247e+02 
-9.210894307636e+01 2.418007239481e+01 0.0 
2.418007239481e+01 -1.480922157105e+02 0.0 
0.0 0.0 -7.166034763607e+01 
-2.727138945165e+01 1.392693603361e+01 0.0 
1.392693603361e+01 -6.607487214228e+01 0.0 
0.0 0.0 -2.760387847818e+01 
-5.217585281485e+01 6.318522892739e+00 0.0 
6.318522892739e+00 -1.301184629803e+02 0.0 
0.0 0.0 -5.428829473855e+01 
-2.579752730476e+01 3.961225914541e+00 0.0 
3.961225914541e+00 -7.585203137838e+01 0.0 
0.0 0.0 -3.009486760494e+01 
-4.736738911354e+01 2.512200449448e+01 0.0 
2.512200449448e+01 -7.885621383001e+01 0.0 
0.0 0.0 -3.746708088306e+01 
-5.074915695104e+01 4.785412858693e+00 0.0 
4.785412858693e+00 -2.775827282738e+01 0.0 
0.0 0.0 -2.315222893353e+01 
-6.615635872123e+01 8.765353150924e+00 0.0 
8.765353150924e+00 -7.198495099544e+01 0.0 
0.0 0.0 -4.104239291500e+01 
-1.532768682956e+02 1.604354416125e+01 0.0 
1.604354416125e+01 -3.377383772436e+02 0.0 
0.0 0.0 -1.518918795417e+02 
-1.080608991461e+02 3.783872527299e+01 0.0 
3.783872527299e+01 -2.039382857208e+02 0.0 
0.0 0.0 -9.322145562600e+01 
-7.642149821964e+01 2.812464481309e+01 0.0 
2.812464481309e+01 -1.055729142354e+02 0.0 
0.0 0.0 -5.419832373653e+01 
-8.245750457919e+01 3.179304312220e+01 0.0 
3.179304312220e+01 -1.408334686167e+02 0.0 
0.0 0.0 -6.658729195876e+01 
-2.983088440526e+01 3.308775992665e+00 0.0 
3.308775992665e+00 -8.458857019575e+01 0.0 
0.0 0.0 -3.392583638030e+01 
-1.663570465477e+01 -6.953310295559e+00 0.0 
-6.953310295559e+00 -4.283941186724e+01 0.0 
0.0 0.0 -1.744253495660e+01 
-6.536043665018e+01 1.688126671359e+01 0.0 
1.688126671359e+01 -1.490162042719e+02 0.0 
0.0 0.0 -6.391299227661e+01 
-7.133387475422e+01 2.634662528799e+01 0.0 
2.634662528799e+01 -1.457035969048e+02 0.0 
0.0 0.0 -6.471124149770e+01 
-6.799788180943e+01 1.861700562749e+01 0.0 
1.861700562749e+01 -1.525302556623e+02 0.0 
0.0 0.0 -6.575844124152e+01 
-2.487703677424e+01 1.534596820763e+01 0.0 
1.534596820763e+01 -3.255817330119e+01 0.0 
0.0 0.0 -1.683056302263e+01 
-4.166733504990e+01 1.989180472867e-01 0.0 
1.989180472867e-01 -4.190538896178e+01 0.0 
0.0 0.0 -2.467181720350e+01 
-3.075053742636e+01 -4.769258871876e+00 0.0 
-4.769258871876e+00 -8.585320767880e+01 0.0 
0.0 0.0 -3.458112353155e+01 
-3.829239759480e+01 1.287026698246e+01 0.0 
1.287026698246e+01 -9.410278656340e+01 0.0 
0.0 0.0 -3.931855524746e+01 
-1.637142441205e+02 1.714784438870e+01 0.0 
1.714784438870e+01 -3.591170564959e+02 0.0 
0.0 0.0 -1.622208251497e+02 
-1.086197877378e+02 1.818365247404e+01 0.0 
1.818365247404e+01 -2.415835589150e+02 0.0 
0.0 0.0 -1.061779014569e+02 
-6.335552608803e+01 2.312737765220e+01 0.0 
2.312737765220e+01 -6.358182217884e+01 0.0 
0.0 0.0 -3.768120448006e+01 
-1.658541556283e+01 -3.507495802154e-01 0.0 
-3.507495802154e-01 -5.763866748478e+01 0.0 
0.0 0.0 -2.186722491428e+01 
-6.744905668725e+01 2.731234773871e+01 0.0 
2.731234773871e+01 -1.329998088874e+02 0.0 
0.0 0.0 -5.973465967238e+01 
-6.409799182086e+01 1.548594612132e+01 0.0 
1.548594612132e+01 -1.479604523687e+02 0.0 
0.0 0.0 -6.321753325686e+01 
-8.286270058298e+01 3.314825312123e+01 0.0 
3.314825312123e+01 -1.258697248077e+02 0.0 
0.0 0.0 -6.221972761721e+01 
-1.393486575737e+02 4.316169120498e+01 0.0 
4.316169120498e+01 -2.740960560737e+02 0.0 
0.0 0.0 -1.267089395845e+02 
-6.573298275398e+01 2.938545520108e+01 0.0 
2.938545520108e+01 -8.430460854840e+01 0.0 
0.0 0.0 -4.461127739071e+01 
-8.128464428108e+01 3.357875031625e+01 0.0 
3.357875031625e+01 -1.402159527881e+02 0.0 
0.0 0.0 -6.605017912074e+01 
-8.222808399661e+01 -3.014970909184e+00 0.0 
-3.014970909184e+00 -1.939526613560e+02 0.0 
0.0 0.0 -8.245422360579e+01 
-9.655593071197e+01 2.899374289807e+01 0.0 
2.899374289807e+01 -1.596888920997e+02 0.0 
0.0 0.0 -7.647344684351e+01 
-1.048695559324e+02 2.154651966943e+00 0.0 
2.154651966943e+00 -2.411988498754e+02 0.0 
0.0 0.0 -1.048355106742e+02 
-1.409256232151e+02 4.192656752194e+01 0.0 
4.192656752194e+01 -2.804993261129e+02 0.0 
0.0 0.0 -1.292996888173e+02 
-1.367185731778e+02 4.600077663213e+01 0.0 
4.600077663213e+01 -2.607403345697e+02 0.0 
0.0 0.0 -1.215192163696e+02 
-1.154213885336e+02 3.914771593870e+01 0.0 
3.914771593870e+01 -2.244393415341e+02 0.0 
0.0 0.0 -1.028202154116e+02 
-1.275156027406e+02 4.456098422653e+01 0.0 
4.456098422653e+01 -2.409391052542e+02 0.0 
0.0 0.0 -1.121031275139e+02 
-8.538913537511e+01 3.191541405618e+01 0.0 
3.191541405618e+01 -1.428411365544e+02 0.0 
0.0 0.0 -6.806908157886e+01 
-1.013229913389e+02 3.267125508360e+01 0.0 
3.267125508360e+01 -1.624016172753e+02 0.0 
0.0 0.0 -7.871738258425e+01 
-1.100546873472e+02 3.892863358235e+01 0.0 
3.892863358235e+01 -2.087859748421e+02 0.0 
0.0 0.0 -9.572885352093e+01 
-5.710344054650e+01 2.480480954610e+01 0.0 
2.480480954610e+01 -1.128701973832e+02 0.0 
0.0 0.0 -5.059209137891e+01 
-5.354626436362e+01 2.579959770483e+01 0.0 
2.579959770483e+01 -9.822922421584e+01 0.0 
0.0 0.0 -4.513264657384e+01 
-7.981096764779e+01 -2.867639370832e+00 0.0 
-2.867639370832e+00 -1.889428666598e+02 0.0 
0.0 0.0 -8.022615029228e+01 
-1.066942452614e+02 3.630375835954e+01 0.0 
3.630375835954e+01 -1.805497140680e+02 0.0 
0.0 0.0 -8.577318779882e+01 
-1.442618001625e+02 3.888169949699e+01 0.0 
3.888169949699e+01 -2.940070288356e+02 0.0 
0.0 0.0 -1.347679819956e+02 
-9.715510465799e+01 2.805260677392e+01 0.0 
2.805260677392e+01 -1.647267587771e+02 0.0 
0.0 0.0 -7.816455903054e+01 
-9.978877773734e+01 1.649202437130e+01 0.0 
1.649202437130e+01 -2.241098969653e+02 0.0 
0.0 0.0 -9.763820270586e+01 
-1.023713094621e+02 3.163791969318e+01 0.0 
3.163791969318e+01 -1.676428221905e+02 0.0 
0.0 0.0 -8.060423949576e+01 
-1.008259018742e+02 2.846987303816e+01 0.0 
2.846987303816e+01 -2.116878561116e+02 0.0 
0.0 0.0 -9.394213840018e+01 
-6.846648951695e+01 2.402991104689e+01 0.0 
2.402991104689e+01 -1.440308088464e+02 0.0 
0.0 0.0 -6.334918950899e+01 
-5.122113538796e+01 2.663117654976e+01 0.0 
2.663117654976e+01 -8.347635631398e+01 0.0 
0.0 0.0 -4.000924751058e+01 
-2.580257359708e+01 9.372430711887e+00 0.0 
9.372430711887e+00 -7.108267944420e+01 0.0 
0.0 0.0 -2.866557591238e+01 
-9.146679197497e+01 2.469428799101e+01 0.0 
2.469428799101e+01 -1.904305911339e+02 0.0 
0.0 0.0 -8.416921493267e+01 
-5.381234182564e+01 2.275944609455e+01 0.0 
2.275944609455e+01 -1.103899099625e+02 0.0 
0.0 0.0 -4.886067553644e+01 
-1.333886288701e+02 3.583735403397e+01 0.0 
3.583735403397e+01 -2.741436673283e+02 0.0 
0.0 0.0 -1.247894986577e+02 
-7.750598532245e+01 -3.655078385324e+00 0.0 
-3.655078385324e+00 -1.839938150667e+02 0.0 
0.0 0.0 -7.804994011676e+01 
-4.467112294463e+01 -2.694963814527e+00 0.0 
-2.694963814527e+00 -1.157598131976e+02 0.0 
0.0 0.0 -4.772928084267e+01 
-1.571023346963e+02 1.475820241617e+01 0.0 
1.475820241617e+01 -3.464404555533e+02 0.0 
0.0 0.0 -1.559588931172e+02 
-4.213768572551e+01 1.538582242759e+01 0.0 
1.538582242759e+01 -9.875739881743e+01 0.0 
0.0 0.0 -4.186852536288e+01 
-1.391459822484e+02 4.530113467258e+01 0.0 
4.530113467258e+01 -2.686392363047e+02 0.0 
0.0 0.0 -1.248716088137e+02 
-1.118851540396e+02 3.827671981156e+01 0.0 
3.827671981156e+01 -2.177289631287e+02 0.0 
0.0 0.0 -9.949369655039e+01 
-8.100793994890e+01 3.115388868209e+01 0.0 
3.115388868209e+01 -1.551341354705e+02 0.0 
0.0 0.0 -7.044262262583e+01 
-9.530130007909e+00 -6.106905876320e+00 0.0 
-6.106905876320e+00 -2.451618509611e+01 0.0 
0.0 0.0 -1.024094336003e+01 
-1.432373426199e+02 4.304660304365e+01 0.0 
4.304660304365e+01 -2.837221852126e+02 0.0 
0.0 0.0 -1.310964659538e+02 
-1.543642560188e+02 1.909680950082e+01 0.0 
1.909680950082e+01 -3.382212678999e+02 0.0 
0.0 0.0 -1.524016636721e+02 
-4.154925069256e+01 -2.715670602085e+00 0.0 
-2.715670602085e+00 -1.092446564893e+02 0.0 
0.0 0.0 -4.483817215457e+01 
-1.052679571590e+02 1.559614449790e+01 0.0 
1.559614449790e+01 -2.365016858084e+02 0.0 
0.0 0.0 -1.034399357843e+02 
-1.520140408263e+02 2.955640552371e+01 0.0 
2.955640552371e+01 -3.241835817300e+02 0.0 
0.0 0.0 -1.470814018927e+02 
-8.801909166730e+00 -2.813383404263e+00 0.0 
-2.813383404263e+00 -8.701543084171e+00 0.0 
0.0 0.0 -5.820948818058e+00 
-6.092966587213e+01 2.327285540138e+01 0.0 
2.327285540138e+01 -1.272509375857e+02 0.0 
0.0 0.0 -5.605418103735e+01 
-8.417537793416e+01 3.214732700380e+01 0.0 
3.214732700380e+01 -1.566193749326e+02 0.0 
0.0 0.0 -7.183842586004e+01 
-7.803209747358e+01 2.977623434327e+01 0.0 
2.977623434327e+01 -1.537155564303e+02 0.0 
0.0 0.0 -6.912429617117e+01 
-7.642815933588e+01 3.081447087747e+01 0.0 
3.081447087747e+01 -1.376849011225e+02 0.0 
0.0 0.0 -6.383391813753e+01 
-2.961466787950e+01 1.166386686625e+01 0.0 
1.166386686625e+01 -7.627111585358e+01 0.0 
0.0 0.0 -3.136573511993e+01 
-1.468646141822e+02 4.015335971991e+01 0.0 
4.015335971991e+01 -2.978115740571e+02 0.0 
0.0 0.0 -1.368481036490e+02 
-5.973660513732e+01 6.605683047128e+00 0.0 
6.605683047128e+00 -1.458629788991e+02 0.0 
0.0 0.0 -6.127987521091e+01 
-1.967166533905e+01 1.933561843746e+00 0.0 
1.933561843746e+00 -5.082484065729e+01 0.0 
0.0 0.0 -2.074895179890e+01 
-1.643684182500e+02 3.968156525866e+00 0.0 
3.968156525866e+00 -3.648362186452e+02 0.0 
0.0 0.0 -1.642899013945e+02 
-1.495785130315e+01 -5.567044445608e+00 0.0 
-5.567044445608e+00 -2.614860678196e+01 0.0 
0.0 0.0 -1.193193742553e+01 
-5.941192753490e+01 3.024463216343e+01 0.0 
3.024463216343e+01 -8.489417071168e+01 0.0 
0.0 0.0 -4.289182947397e+01 
-1.478531394101e+01 -4.359670478486e+00 0.0 
-4.359670478486e+00 -5.236571234870e+01 0.0 
0.0 0.0 -1.974530788691e+01 
-6.485888911366e+01 3.074971632120e+01 0.0 
3.074971632120e+01 -6.785582363727e+01 0.0 
0.0 0.0 -3.941441382528e+01 
-1.584049337680e+02 2.038735476674e+01 0.0 
2.038735476674e+01 -3.459236084598e+02 0.0 
0.0 0.0 -1.562139841215e+02 
-1.499088232720e+02 3.680416467997e+01 0.0 
3.680416467997e+01 -3.102142715386e+02 0.0 
0.0 0.0 -1.418628755118e+02 
-7.796303753978e+01 3.043760929842e+01 0.0 
3.043760929842e+01 -1.227786070166e+02 0.0 
0.0 0.0 -5.982249336692e+01 
-1.056625810794e+01 -5.529174149103e+00 0.0 
-5.529174149103e+00 -4.007373345193e+01 0.0 
0.0 0.0 -1.479199746796e+01 
-1.916153263115e+01 2.928608622244e+00 0.0 
2.928608622244e+00 -4.208072081252e+01 0.0 
0.0 0.0 -1.797267603310e+01 
-1.814328749263e+01 -6.496979273718e+00 0.0 
-6.496979273718e+00 -5.746548818300e+01 0.0 
0.0 0.0 -2.228263270269e+01 
-1.424517089192e+02 4.434194310243e+00 0.0 
4.434194310243e+00 -3.191426016457e+02 0.0 
0.0 0.0 -1.423404993865e+02 
-4.797006335174e+01 5.922207559093e+00 0.0 
5.922207559093e+00 -2.985099905847e+01 0.0 
0.0 0.0 -2.294631872306e+01 
-6.924982538526e+01 2.650531288917e+01 0.0 
2.650531288917e+01 -6.592312166601e+01 0.0 
0.0 0.0 -4.015188411538e+01 
-1.534851583543e+02 3.296173883552e+01 0.0 
3.296173883552e+01 -3.234356646904e+02 0.0 
0.0 0.0 -1.473161858246e+02 
-4.448001299628e+01 4.203166203018e+00 0.0 
4.203166203018e+00 -2.844579141571e+01 0.0 
0.0 0.0 -2.147774132360e+01 
-1.215696309357e+02 4.199865389600e+01 0.0 
4.199865389600e+01 -2.326328250937e+02 0.0 
0.0 0.0 -1.074761951370e+02 
-1.068795584112e+02 2.758935564346e+01 0.0 
2.758935564346e+01 -2.268832555254e+02 0.0 
0.0 0.0 -1.008405531346e+02 
-5.910177595544e+01 5.171010062585e+00 0.0 
5.171010062585e+00 -6.004441729135e+01 0.0 
0.0 0.0 -3.534385797404e+01 
-3.377013587327e+01 1.788786424642e+01 0.0 
1.788786424642e+01 -7.137364001680e+01 0.0 
0.0 0.0 -3.114313276702e+01 
-1.039908661131e+02 1.542654731139e+01 0.0 
1.542654731139e+01 -2.339109393967e+02 0.0 
0.0 0.0 -1.021842589689e+02 
-2.350782962576e+01 6.509559709623e+00 0.0 
6.509559709623e+00 -6.925056507972e+01 0.0 
0.0 0.0 -2.742751841164e+01 
-1.564442950088e+02 2.862342752096e+01 0.0 
2.862342752096e+01 -3.347900431159e+02 0.0 
0.0 0.0 -1.519630070085e+02 
-1.326079237673e+02 4.546948085373e+01 0.0 
4.546948085373e+01 -2.516226759666e+02 0.0 
0.0 0.0 -1.172247029981e+02 
-1.215952979022e+02 4.224099746166e+01 0.0 
4.224099746166e+01 -2.320398784024e+02 0.0 
0.0 0.0 -1.072920302112e+02 
-1.064904210939e+02 2.836447594459e+00 0.0 
2.836447594459e+00 -2.444960758523e+02 0.0 
0.0 0.0 -1.064321478355e+02 
-7.457484877037e+01 -3.001901780960e+00 0.0 
-3.001901780960e+00 -1.780140925018e+02 0.0 
0.0 0.0 -7.537668238165e+01 
-6.791697101095e+01 2.375844498378e+01 0.0 
2.375844498378e+01 -1.432890799164e+02 0.0 
0.0 0.0 -6.296181527820e+01 
-1.095834284785e+02 1.527078037195e+00 0.0 
1.527078037195e+00 -2.510591315447e+02 0.0 
0.0 0.0 -1.095669472337e+02 
-1.592693700479e+02 2.408869533051e+01 0.0 
2.408869533051e+01 -3.450039604448e+02 0.0 
0.0 0.0 -1.561960598689e+02 
-3.812841719627e+01 1.158788426882e+01 0.0 
1.158788426882e+01 -9.552958073905e+01 0.0 
0.0 0.0 -3.969739938060e+01 
-5.033746155878e+01 -1.358287664821e-01 0.0 
-1.358287664821e-01 -1.278609050591e+02 0.0 
0.0 0.0 -5.305950998536e+01 
-5.484591968496e+01 -3.370535989603e-01 0.0 
-3.370535989603e-01 -1.372362507528e+02 0.0 
0.0 0.0 -5.722465113134e+01 
-6.209258177910e+01 5.594868476493e+00 0.0 
5.594868476493e+00 -7.074386997714e+01 0.0 
0.0 0.0 -3.945093552687e+01 
-1.630117897806e+02 1.431291378266e+01 0.0 
1.431291378266e+01 -3.590540608905e+02 0.0 
0.0 0.0 -1.619723251131e+02 
-1.953022150440e+01 -5.940672280867e+00 0.0 
-5.940672280867e+00 -3.876156079325e+01 0.0 
0.0 0.0 -1.708753468929e+01 
-1.623814769308e+02 1.925348195525e+01 0.0 
1.925348195525e+01 -3.550770146230e+02 0.0 
0.0 0.0 -1.604765657676e+02 
-5.050282637124e+01 -1.664380793387e+00 0.0 
-1.664380793387e+00 -1.280957240688e+02 0.0 
0.0 0.0 -5.317956513200e+01 
-1.413525660452e+02 4.430581740593e+01 0.0 
4.430581740593e+01 -2.764291832994e+02 0.0 
0.0 0.0 -1.281169395928e+02 
-1.166358357369e+02 4.216811361769e+01 0.0 
4.216811361769e+01 -2.124571130012e+02 0.0 
0.0 0.0 -9.865277656057e+01 
-1.621482615668e+01 -2.661604811014e+00 0.0 
-2.661604811014e+00 -8.063084551747e+00 0.0 
0.0 0.0 -6.883373212528e+00 
-6.491422968520e+01 2.156638249226e+01 0.0 
2.156638249226e+01 -1.405812261532e+02 0.0 
0.0 0.0 -6.124863675152e+01 
-9.849635731121e+01 2.688154083267e+01 0.0 
2.688154083267e+01 -1.584193571119e+02 0.0 
0.0 0.0 -7.667471432694e+01 
-1.449777940122e+02 4.168504721681e+01 0.0 
4.168504721681e+01 -2.905814518205e+02 0.0 
0.0 0.0 -1.338883274606e+02 
-8.760526665084e+01 3.462156507276e+01 0.0 
3.462156507276e+01 -1.442926524794e+02 0.0 
0.0 0.0 -6.916937573909e+01 
-1.123873830255e+02 2.674648593328e+01 0.0 
2.674648593328e+01 -2.404244792183e+02 0.0 
0.0 0.0 -1.070247448381e+02 
-1.944993593880e+01 9.591966752977e+00 0.0 
9.591966752977e+00 -5.639284459507e+01 0.0 
0.0 0.0 -2.235283416016e+01 
-1.478265854323e+02 1.683305222273e+01 0.0 
1.683305222273e+01 -3.258055453373e+02 0.0 
0.0 0.0 -1.462485260048e+02 
-5.538445771094e+01 -1.683341477944e+00 0.0 
-1.683341477944e+00 -1.382555267352e+02 0.0 
0.0 0.0 -5.769199533383e+01 
-5.764558892542e+01 -1.794117110281e-01 0.0 
-1.794117110281e-01 -1.430634359893e+02 0.0 
0.0 0.0 -5.981270747441e+01 
-2.441206113324e+01 -3.812784610963e+00 0.0 
-3.812784610963e+00 -2.423336782433e+01 0.0 
0.0 0.0 -1.419362868727e+01 
-1.483687372020e+02 3.850064515580e+01 0.0 
3.850064515580e+01 -3.040722822139e+02 0.0 
0.0 0.0 -1.393689227349e+02 
-3.033464315894e+01 6.356770065995e+00 0.0 
6.356770065995e+00 -8.396082264501e+01 0.0 
0.0 0.0 -3.388863974118e+01 
-1.361225021017e+02 1.005651465804e+01 0.0 
1.005651465804e+01 -3.044747825138e+02 0.0 
0.0 0.0 -1.355239051094e+02 
-5.709473833683e+01 6.022570383063e+00 0.0 
6.022570383063e+00 -5.086054696483e+01 0.0 
0.0 0.0 -3.198658559050e+01 
-4.991872669526e+01 -3.296157109259e+00 0.0 
-3.296157109259e+00 -1.265546663791e+02 0.0 
0.0 0.0 -5.254201792232e+01 
-5.202964365103e+01 -1.849341029233e-01 0.0 
-1.849341029233e-01 -1.313805247929e+02 0.0 
0.0 0.0 -5.462305053318e+01 
-8.452557205102e+01 3.420233646193e+01 0.0 
3.420233646193e+01 -1.421783968225e+02 0.0 
0.0 0.0 -6.761119066207e+01 
-1.548105579976e+02 3.096387108813e+01 0.0 
3.096387108813e+01 -3.287201656447e+02 0.0 
0.0 0.0 -1.494620616593e+02 
-7.730534577736e+01 -4.270647909022e+00 0.0 
-4.270647909022e+00 -1.834339169057e+02 0.0 
0.0 0.0 -7.782177880493e+01 
-1.193875061080e+02 5.284399815723e+00 0.0 
5.284399815723e+00 -2.709382479332e+02 0.0 
0.0 0.0 -1.192034686609e+02 
-7.974344808432e+01 2.720264639306e+01 0.0 
2.720264639306e+01 -1.644409305976e+02 0.0 
0.0 0.0 -7.285531360459e+01 
-1.046859426765e+02 7.247503709975e+00 0.0 
7.247503709975e+00 -2.397270604825e+02 0.0 
0.0 0.0 -1.042980913154e+02 
-5.572556557690e+01 1.027509934679e+00 0.0 
1.027509934679e+00 -1.390313766015e+02 0.0 
0.0 0.0 -5.802708265350e+01 
-1.105435737884e+02 4.317771193736e+00 0.0 
4.317771193736e+00 -2.527036885142e+02 0.0 
0.0 0.0 -1.104125526396e+02 
-7.468391051149e+01 2.881871178064e+01 0.0 
2.881871178064e+01 -1.476917055550e+02 0.0 
0.0 0.0 -6.631268481996e+01 
-9.997408091290e+01 3.209543164136e+01 0.0 
3.209543164136e+01 -2.027927273814e+02 0.0 
0.0 0.0 -9.077783305299e+01 
-1.129073488391e+02 1.692698402788e+01 0.0 
1.692698402788e+01 -2.517601794400e+02 0.0 
0.0 0.0 -1.108736358878e+02 
-7.628300762588e+01 2.489474725126e+01 0.0 
2.489474725126e+01 -1.609621669272e+02 0.0 
0.0 0.0 -7.077355236594e+01 
-7.782438909800e+01 -2.729979481037e+00 0.0 
-2.729979481037e+00 -1.848277695039e+02 0.0 
0.0 0.0 -7.839564758057e+01 
-4.167882461139e+01 1.424679987692e+01 0.0 
1.424679987692e+01 -9.964677116111e+01 0.0 
0.0 0.0 -4.199767873175e+01 
-7.282566660484e+01 -4.237530568513e+00 0.0 
-4.237530568513e+00 -1.740982115273e+02 0.0 
0.0 0.0 -7.367716343964e+01 
-1.065968335208e+02 2.777605866067e+01 0.0 
2.777605866067e+01 -2.259629090299e+02 0.0 
0.0 0.0 -1.004499811772e+02 
-9.147076961205e+01 1.150049733755e+01 0.0 
1.150049733755e+01 -2.100258216750e+02 0.0 
0.0 0.0 -9.036546255810e+01 
-1.598771139801e+02 1.838240174188e+01 0.0 
1.838240174188e+01 -3.503193722784e+02 0.0 
0.0 0.0 -1.581189869440e+02 
-1.034124924375e+02 3.084476869397e+01 0.0 
3.084476869397e+01 -1.737994458552e+02 0.0 
0.0 0.0 -8.276358148784e+01 
-4.227142082905e+01 -4.001990164073e+00 0.0 
-4.001990164073e+00 -1.103599424520e+02 0.0 
0.0 0.0 -4.538940898433e+01 
-1.611146270027e+02 2.148607389238e+01 0.0 
2.148607389238e+01 -3.509105653001e+02 0.0 
0.0 0.0 -1.587126685057e+02 
-1.518288530391e+02 1.819852382058e+01 0.0 
1.819852382058e+01 -3.334300494218e+02 0.0 
0.0 0.0 -1.500231074890e+02 
-7.341468505652e+01 1.731904614528e+01 0.0 
1.731904614528e+01 -1.662395758874e+02 0.0 
0.0 0.0 -7.149627828318e+01 
-1.372294541357e+01 -4.423494825928e+00 0.0 
-4.423494825928e+00 -2.465460070730e+01 0.0 
0.0 0.0 -1.149104735796e+01 
-1.645908250423e+02 1.260665023879e+01 0.0 
1.260665023879e+01 -3.630843240024e+02 0.0 
0.0 0.0 -1.637933597341e+02 
-1.071369711544e+02 3.527751246847e+01 0.0 
3.527751246847e+01 -1.847786119891e+02 0.0 
0.0 0.0 -8.717467494305e+01 
-4.632275348319e+01 -2.609912239459e+00 0.0 
-2.609912239459e+00 -1.192224681679e+02 0.0 
0.0 0.0 -4.926356649533e+01 
-1.652359807497e+02 1.508588759463e+01 0.0 
1.508588759463e+01 -3.633649103208e+02 0.0 
0.0 0.0 -1.640938979060e+02 
-1.153277739091e+02 3.715793317560e+00 0.0 
3.715793317560e+00 -2.627714863598e+02 0.0 
0.0 0.0 -1.152341899793e+02 
-5.666061520024e+01 2.723280365779e+01 0.0 
2.723280365779e+01 -1.013174453732e+02 0.0 
0.0 0.0 -4.699341817204e+01 
-7.203703006912e+01 2.538529684198e+01 0.0 
2.538529684198e+01 -8.562661612416e+01 0.0 
0.0 0.0 -4.689909385799e+01 
-8.785976319330e+01 1.238946848862e+01 0.0 
1.238946848862e+01 -2.018174017909e+02 0.0 
0.0 0.0 -8.652833658183e+01 
-9.765120407662e+01 1.974161129977e+00 0.0 
1.974161129977e+00 -2.261941490329e+02 0.0 
0.0 0.0 -9.762089207971e+01 
-1.084803506949e+02 9.232754729827e+00 0.0 
9.232754729827e+00 -2.469269696662e+02 0.0 
0.0 0.0 -1.078673491665e+02 
-8.758219898620e+01 2.830517953227e+01 0.0 
2.830517953227e+01 -1.165891008610e+02 0.0 
0.0 0.0 -6.085138995416e+01 
-6.195236210895e+01 2.903413182013e+01 0.0 
2.903413182013e+01 -1.008943058569e+02 0.0 
0.0 0.0 -4.845400038975e+01 
-1.163899617160e+02 1.953980259867e+01 0.0 
1.953980259867e+01 -2.570645912542e+02 0.0 
0.0 0.0 -1.137263057072e+02 
-4.900608080938e+01 8.907196530824e-01 0.0 
8.907196530824e-01 -5.894410334287e+01 0.0 
0.0 0.0 -3.198505524568e+01 
-8.026571289709e+01 -2.263777060499e+00 0.0 
-2.263777060499e+00 -1.899769904738e+02 0.0 
0.0 0.0 -8.067281101128e+01 
-1.092975736756e+02 1.439263343041e+01 0.0 
1.439263343041e+01 -2.458947722454e+02 0.0 
0.0 0.0 -1.077975586380e+02 
-5.847335186063e+01 -1.443167375653e+00 0.0 
-1.443167375653e+00 -1.447122060245e+02 0.0 
0.0 0.0 -6.055566736555e+01 
-1.142815306283e+02 -1.809726506992e+00 0.0 
-1.809726506992e+00 -2.608144352497e+02 0.0 
0.0 0.0 -1.142591833567e+02 
-2.228959109018e+01 -2.338178669841e+00 0.0 
-2.338178669841e+00 -7.840990947347e+00 0.0 
0.0 0.0 -8.639174611259e+00 
-4.530295836983e+01 1.687700523761e+01 0.0 
1.687700523761e+01 -1.033783174779e+02 0.0 
0.0 0.0 -4.420438275431e+01 
-5.374221549764e+01 -1.401888635639e+00 0.0 
-1.401888635639e+00 -1.348698865547e+02 0.0 
0.0 0.0 -5.618363061570e+01 
-8.665692497933e+01 -3.201904579403e+00 0.0 
-3.201904579403e+00 -2.031454363519e+02 0.0 
0.0 0.0 -8.656898103809e+01 
-7.708143907991e+01 2.020596384137e+01 0.0 
2.020596384137e+01 -1.706275224821e+02 0.0 
0.0 0.0 -7.391268846862e+01 
-1.138196352605e+02 2.963464398144e+00 0.0 
2.963464398144e+00 -2.597370869746e+02 0.0 
0.0 0.0 -1.137594745201e+02 
-6.110113300500e+01 6.021814721581e+00 0.0 
6.021814721581e+00 -6.314241955290e+01 0.0 
0.0 0.0 -3.687306576737e+01 
-4.970067845300e+01 -2.482850788672e+00 0.0 
-2.482850788672e+00 -1.262892812617e+02 0.0 
0.0 0.0 -5.239698791442e+01 
-1.663735563336e+02 1.312040525640e+01 0.0 
1.312040525640e+01 -3.666124841630e+02 0.0 
0.0 0.0 -1.655175178298e+02 
-8.594839373987e+01 3.399282536286e+01 0.0 
3.399282536286e+01 -1.577342907325e+02 0.0 
0.0 0.0 -7.270480534171e+01 
-9.097679529011e+01 -3.402415115282e+00 0.0 
-3.402415115282e+00 -2.121087258520e+02 0.0 
0.0 0.0 -9.088130180992e+01 
-8.222428136383e+01 3.277718891046e+01 0.0 
3.277718891046e+01 -1.557044224420e+02 0.0 
0.0 0.0 -7.097861114174e+01 
-8.902224856483e+01 -2.458403091627e+00 0.0 
-2.458403091627e+00 -2.081806999965e+02 0.0 
0.0 0.0 -8.897154989148e+01 
-1.276885694044e+01 -2.758965319110e+00 0.0 
-2.758965319110e+00 -8.674720499740e+00 0.0 
0.0 0.0 -7.007319211304e+00 
-7.693782025819e+01 2.796939497313e+01 0.0 
2.796939497313e+01 -8.965583210284e+01 0.0 
0.0 0.0 -4.957809570831e+01 
-7.185426689905e+01 -2.951740636014e+00 0.0 
-2.951740636014e+00 -1.694817639327e+02 0.0 
0.0 0.0 -7.200080924953e+01 
9.964597010199e-01 1.868932344877e-01 0.0 
1.868932344877e-01 -8.866138790568e+00 0.0 
0.0 0.0 -9.985947509107e-01 
-8.627498155084e+01 -3.988146761000e+00 0.0 
-3.988146761000e+00 -2.021996512545e+02 0.0 
0.0 0.0 -8.614238984159e+01 
-1.227783550919e+02 3.798475794348e+00 0.0 
3.798475794348e+00 -2.782734041917e+02 0.0 
0.0 0.0 -1.226856201869e+02 
-7.403637024874e+01 5.918216402389e+00 0.0 
5.918216402389e+00 -1.360709238081e+02 0.0 
0.0 0.0 -6.263218821707e+01 
-9.981897392938e+01 7.954338819822e+00 0.0 
7.954338819822e+00 -2.292975046816e+02 0.0 
0.0 0.0 -9.933214033047e+01 
-1.030508995595e+02 6.876421167341e+00 0.0 
6.876421167341e+00 -2.364312879695e+02 0.0 
0.0 0.0 -1.026973232025e+02 
-6.011597261101e+01 2.475733337285e+01 0.0 
2.475733337285e+01 -4.525814088071e+01 0.0 
0.0 0.0 -3.121223404752e+01 
-3.574974875425e+01 1.149430163288e+00 0.0 
1.149430163288e+00 -8.539554571065e+00 0.0 
0.0 0.0 -1.288679099759e+01 
-9.979093997992e+01 3.145883329737e+01 0.0 
3.145883329737e+01 -2.007453555223e+02 0.0 
0.0 0.0 -8.976088865067e+01 
-7.823983369888e+01 3.100470634600e+01 0.0 
3.100470634600e+01 -1.505735451975e+02 0.0 
0.0 0.0 -6.824401366892e+01 
9.998186822269e-01 3.789690298017e-02 0.0 
3.789690298017e-02 -6.920763810384e+00 0.0 
0.0 0.0 1.000000000000e+00 
-2.410216840127e+01 -3.797151322892e+00 0.0 
-3.797151322892e+00 -7.237035928125e+01 0.0 
0.0 0.0 -2.854175830476e+01 
-1.142385373149e+01 -5.394752170653e+00 0.0 
-5.394752170653e+00 -2.443148115563e+01 0.0 
0.0 0.0 -1.075011372353e+01 
-4.928782890272e+01 -4.036905703807e+00 0.0 
-4.036905703807e+00 -1.250171173801e+02 0.0 
0.0 0.0 -5.189148388483e+01 
-1.152701481063e+02 3.690120521113e+01 0.0 
3.690120521113e+01 -2.293871706820e+02 0.0 
0.0 0.0 -1.043774073349e+02 
-7.750214842430e+01 7.946244471081e+00 0.0 
7.946244471081e+00 -1.378934213930e+02 0.0 
0.0 0.0 -6.421867094519e+01 
-1.370037810258e+02 1.953529174920e+00 0.0 
1.953529174920e+00 -3.080832342867e+02 0.0 
0.0 0.0 -1.369814768935e+02 
-5.696862381209e+01 -3.560289144905e+00 0.0 
-3.560289144905e+00 -1.411935693233e+02 0.0 
0.0 0.0 -5.904865794063e+01 
-1.160184328010e+02 -7.476753909992e-01 0.0 
-7.476753909992e-01 -2.644849179050e+02 0.0 
0.0 0.0 -1.160146676125e+02 
-1.399031048938e+02 8.342514720549e+00 0.0 
8.342514720549e+00 -3.129473377124e+02 0.0 
0.0 0.0 -1.395018402149e+02 
-2.152085615819e+01 1.315416035927e+00 0.0 
1.315416035927e+00 -6.779992579426e+01 0.0 
0.0 0.0 -2.639623458573e+01 
-7.148411698942e+01 1.026600406267e-02 0.0 
1.026600406267e-02 -1.693992596059e+02 0.0 
0.0 0.0 -7.186501297859e+01 
-5.599523272523e+01 -1.735258892931e+00 0.0 
-1.735258892931e+00 -1.392005349722e+02 0.0 
0.0 0.0 -5.815873030922e+01 
-1.656128431966e+02 1.076791913443e+01 0.0 
1.076791913443e+01 -3.658886474953e+02 0.0 
0.0 0.0 -1.650355651129e+02 
-1.676366496542e+02 1.140430740162e+01 0.0 
1.140430740162e+01 -3.699025291534e+02 0.0 
0.0 0.0 -1.669956746235e+02 
-8.124034672442e+01 -3.755316432948e-01 0.0 
-3.755316432948e-01 -1.888392673778e+02 0.0 
0.0 0.0 -8.062388423065e+01 
-9.338955929158e+01 -2.434539656011e+00 0.0 
-2.434539656011e+00 -2.172747881726e+02 0.0 
0.0 0.0 -9.334173521887e+01 
-1.005922838895e+02 7.998110239730e-01 0.0 
7.998110239730e-01 -2.323908410986e+02 0.0 
0.0 0.0 -1.005874304668e+02 
-1.435491835388e+02 1.048167742937e+01 0.0 
1.048167742937e+01 -3.198554683529e+02 0.0 
0.0 0.0 -1.429282189215e+02 
-2.760740424036e+01 -5.149364408173e+00 0.0 
-5.149364408173e+00 -7.900320257753e+01 0.0 
0.0 0.0 -3.158318204537e+01 
-1.358786923320e+02 6.394708858179e+00 0.0 
6.394708858179e+00 -3.050680069860e+02 0.0 
0.0 0.0 -1.356373410915e+02 
-8.200253914749e+00 7.864602815152e-01 0.0 
7.864602815152e-01 -4.014479975719e+01 0.0 
0.0 0.0 -1.410351610158e+01 
-8.401095450752e+01 -2.781099477606e+00 0.0 
-2.781099477606e+00 -1.977025379309e+02 0.0 
0.0 0.0 -8.411404773152e+01 
-9.367849457218e+01 -1.840095032058e+00 0.0 
-1.840095032058e+00 -2.179392509392e+02 0.0 
0.0 0.0 -9.365125179935e+01 
-1.395546955423e+00 -1.488988866297e-01 0.0 
-1.488988866297e-01 -2.604593191125e+01 0.0 
0.0 0.0 -8.213038829776e+00 
-7.672466345719e+01 -2.211922456381e+00 0.0 
-2.211922456381e+00 -1.785922322341e+02 0.0 
0.0 0.0 -7.619506870738e+01 
-9.660323072011e+01 2.760254044701e+01 0.0 
2.760254044701e+01 -1.701148707179e+02 0.0 
0.0 0.0 -7.961543043140e+01 
7.839832339733e-01 -1.072430982897e-01 0.0 
-1.072430982897e-01 -7.416965426949e+00 0.0 
0.0 0.0 8.980484221921e-01 
-3.868065256908e+01 2.810953782072e+00 0.0 
2.810953782072e+00 -8.623456378873e+00 0.0 
0.0 0.0 -1.379123268439e+01 
-3.858725216671e+01 3.380898711620e+00 0.0 
3.380898711620e+00 -9.567101300994e+00 0.0 
0.0 0.0 -1.404630604031e+01 
-1.121549334309e+02 1.139049967578e+01 0.0 
1.139049967578e+01 -2.536530262226e+02 0.0 
0.0 0.0 -1.112438720345e+02 
-5.502728549962e+01 9.760154104247e-01 0.0 
9.760154104247e-01 -1.375822512766e+02 0.0 
0.0 0.0 -5.738286103286e+01 
-5.112029486833e+01 -2.627803592273e+00 0.0 
-2.627803592273e+00 -1.292181028262e+02 0.0 
0.0 0.0 -5.370151930834e+01 
-2.703266864248e+01 1.278530967632e+01 0.0 
1.278530967632e+01 -6.812923698682e+01 0.0 
0.0 0.0 -2.814857168879e+01 
-1.506730980298e+02 2.279539563018e+00 0.0 
2.279539563018e+00 -3.365018374850e+02 0.0 
0.0 0.0 -1.506451393892e+02 
-1.400757265438e+02 3.796898022921e+01 0.0 
3.796898022921e+01 -2.859179179063e+02 0.0 
0.0 0.0 -1.307828960628e+02 
-7.969841735676e+01 1.108951717855e+01 0.0 
1.108951717855e+01 -1.262558350897e+02 0.0 
0.0 0.0 -6.138627573393e+01 
-3.577421556386e+01 1.854973168313e+01 0.0 
1.854973168313e+01 -7.469732130282e+01 0.0 
0.0 0.0 -3.274146106000e+01 
-1.403806843057e+01 -5.939933741977e+00 0.0 
-5.939933741977e+00 -4.935374103584e+01 0.0 
0.0 0.0 -1.861754283992e+01 
-5.921502858194e+01 3.019655854673e+01 0.0 
3.019655854673e+01 -8.272802456526e+01 0.0 
0.0 0.0 -4.218291594416e+01 
-3.170929907369e+01 5.580238271156e-02 0.0 
5.580238271156e-02 -9.492230250584e+00 0.0 
0.0 0.0 -1.196045879728e+01 
-2.831023551981e+01 2.251124858842e-01 0.0 
2.251124858842e-01 -8.831539952804e+00 0.0 
0.0 0.0 -1.074253264178e+01 
9.983799017669e-01 1.289912696276e-01 0.0 
1.289912696276e-01 -9.270209114764e+00 0.0 
0.0 0.0 1.000000000000e+00 
-1.320069902178e+00 2.039151476984e-01 0.0 
2.039151476984e-01 -2.588647541336e+01 0.0 
0.0 0.0 -8.183292964616e+00 
-9.506077970005e+00 -2.692857965461e-02 0.0 
-2.692857965461e-02 -4.292081911257e+01 0.0 
0.0 0.0 -1.532806912477e+01 
-4.115283186091e+01 -4.785196207555e+00 0.0 
-4.785196207555e+00 -1.077005718914e+02 0.0 
0.0 0.0 -4.425602112571e+01 
-1.048487320860e+00 9.211978550959e-02 0.0 
9.211978550959e-02 -2.532564399226e+01 0.0 
0.0 0.0 -7.167858743044e+00 
-8.599627181359e+01 -2.142039634640e+00 0.0 
-2.142039634640e+00 -1.990067604906e+02 0.0 
0.0 0.0 -8.510090969124e+01 
-2.143166861613e+01 -4.417276525930e-01 0.0 
-4.417276525930e-01 -8.527504485793e+00 0.0 
0.0 0.0 -9.556087295729e+00 
-5.038657512296e+01 -4.686779195830e+00 0.0 
-4.686779195830e+00 -1.270849055159e+02 0.0 
0.0 0.0 -5.284144419164e+01 
-5.429638223048e+01 1.098472400967e+00 0.0 
1.098472400967e+00 -7.585021230765e+01 0.0 
0.0 0.0 -3.864397836144e+01 
-2.914004253082e+01 7.542947905761e-01 0.0 
7.542947905761e-01 -8.739780327569e+00 0.0 
0.0 0.0 -1.096394685752e+01 
-1.187711998358e+02 3.889319003840e+01 0.0 
3.889319003840e+01 -2.334167139063e+02 0.0 
0.0 0.0 -1.068221826373e+02 
-1.185665298967e+02 2.274209961597e+00 0.0 
2.274209961597e+00 -2.696918797770e+02 0.0 
0.0 0.0 -1.185323141927e+02 
-4.745868935840e+01 4.282206994814e-01 0.0 
4.282206994814e-01 -5.795446342478e+01 0.0 
0.0 0.0 -3.122394583496e+01 
-6.018034191943e+01 -1.539554396096e+00 0.0 
-1.539554396096e+00 -1.476880839595e+02 0.0 
0.0 0.0 -6.196052776369e+01 
-8.297217409804e+00 -3.105404773248e-01 0.0 
-3.105404773248e-01 -4.039686321311e+01 0.0 
0.0 0.0 -1.420822418687e+01 
-8.702736197929e+01 1.596030967654e+01 0.0 
1.596030967654e+01 -1.972090371611e+02 0.0 
0.0 0.0 -8.487091974212e+01 
-9.446853649908e+01 1.861432991385e+01 0.0 
1.861432991385e+01 -2.043287108804e+02 0.0 
0.0 0.0 -8.923917421383e+01 
-5.236972074528e+01 2.405450563850e+00 0.0 
2.405450563850e+00 -4.845434624059e+01 0.0 
0.0 0.0 -2.984722009576e+01 
-3.261772974923e+01 1.305980526965e-01 0.0 
1.305980526965e-01 -8.920908251002e+00 0.0 
0.0 0.0 -1.206159140007e+01 
-6.115511259361e+01 -6.296532926145e-02 0.0 
-6.296532926145e-02 -1.501555394556e+02 0.0 
0.0 0.0 -6.299319561478e+01 
-9.117088230780e+01 1.262723293160e+01 0.0 
1.262723293160e+01 -2.000307998684e+02 0.0 
0.0 0.0 -8.696050465285e+01 
-4.744931792731e+01 -3.692287529105e+00 0.0 
-3.692287529105e+00 -1.212861701644e+02 0.0 
0.0 0.0 -5.022064642751e+01 
-3.222137887298e+01 1.955762636982e+00 0.0 
1.955762636982e+00 -9.645523156643e+00 0.0 
0.0 0.0 -1.216007060889e+01 
-3.394417683608e+01 4.739751631583e-01 0.0 
4.739751631583e-01 -8.605692169328e+00 0.0 
0.0 0.0 -1.236496070162e+01 
-5.796623163816e+01 2.903466089256e+01 0.0 
2.903466089256e+01 -6.656557849508e+01 0.0 
0.0 0.0 -3.695954303997e+01 
-1.098804238085e+02 3.605214687653e+01 0.0 
3.605214687653e+01 -2.181277721175e+02 0.0 
0.0 0.0 -9.897234111764e+01 
-9.392463959502e+01 1.537413455348e+01 0.0 
1.537413455348e+01 -2.026685025358e+02 0.0 
0.0 0.0 -8.857794263924e+01 
-9.087239655043e-01 9.514527296362e-02 0.0 
9.514527296362e-02 -2.503481786193e+01 0.0 
0.0 0.0 -6.750885418142e+00 
9.982148151060e-01 -1.360474965424e-01 0.0 
-1.360474965424e-01 -9.368069647742e+00 0.0 
0.0 0.0 1.000000000000e+00 
-1.833933646525e+01 -5.073459013635e+00 0.0 
-5.073459013635e+00 -5.939392832351e+01 0.0 
0.0 0.0 -2.291997943663e+01 
-9.144810404638e+01 -2.595349109073e+00 0.0 
-2.595349109073e+00 -2.132130084570e+02 0.0 
0.0 0.0 -9.139281077707e+01 
-1.621693201784e+02 -7.723346840405e-01 0.0 
-7.723346840405e-01 -3.604940662394e+02 0.0 
0.0 0.0 -1.621663125264e+02 
-3.239224146275e+01 -1.740470138158e-01 0.0 
-1.740470138158e-01 -6.839067463167e+00 0.0 
0.0 0.0 -1.136939267777e+01 
-6.804342557368e+01 1.883211222476e+00 0.0 
1.883211222476e+00 -1.198437311971e+02 0.0 
0.0 0.0 -5.596614703123e+01 
-1.919249267584e+01 -1.470135664598e+00 0.0 
-1.470135664598e+00 -8.719563366257e+00 0.0 
0.0 0.0 -8.954566853363e+00 
-1.119088231239e+02 8.013470372504e+00 0.0 
8.013470372504e+00 -2.545651545300e+02 0.0 
0.0 0.0 -1.114600919174e+02 
-2.722778666915e+01 -1.818084100670e+00 0.0 
-1.818084100670e+00 -8.052232915245e+00 0.0 
0.0 0.0 -1.018400587532e+01 
-3.049879710933e+01 -1.129404467122e+00 0.0 
-1.129404467122e+00 -7.832969509873e+00 0.0 
0.0 0.0 -1.109952998576e+01 
-1.079757683918e+02 6.070175558587e+00 0.0 
6.070175558587e+00 -2.469503755295e+02 0.0 
0.0 0.0 -1.077111373024e+02 
-1.558355612967e+02 -4.536060166315e-01 0.0 
-4.536060166315e-01 -3.473240224788e+02 0.0 
0.0 0.0 -1.558344867814e+02 
-5.494320217696e+01 1.463464301125e+00 0.0 
1.463464301125e+00 -7.505508903000e+01 0.0 
0.0 0.0 -3.859948736209e+01 
-6.531738428838e+01 3.122218866655e+01 0.0 
3.122218866655e+01 -1.014068678828e+02 0.0 
0.0 0.0 -4.961727565136e+01 
-1.511827153695e+00 -2.268009164023e-01 0.0 
-2.268009164023e-01 -2.628420222363e+01 0.0 
0.0 0.0 -8.321302937696e+00 
-1.204578330255e+02 -8.356626909295e-01 0.0 
-8.356626909295e-01 -2.737176807996e+02 0.0 
0.0 0.0 -1.204532766373e+02 
-8.237592424710e+01 4.833871783082e+00 0.0 
4.833871783082e+00 -1.935438232432e+02 0.0 
0.0 0.0 -8.237592424710e+01 
-8.863792881469e+01 6.218516954980e+00 0.0 
6.218516954980e+00 -1.970491564192e+02 0.0 
0.0 0.0 -8.530612557017e+01 
-2.818776288250e+01 1.814931944561e-01 0.0 
1.814931944561e-01 -8.527983670455e+00 0.0 
0.0 0.0 -1.061472396589e+01 
-1.158007646440e+02 1.009802212254e+01 0.0 
1.009802212254e+01 -2.619040531185e+02 0.0 
0.0 0.0 -1.151061359140e+02 
-8.560220492085e+01 1.306587824817e+01 0.0 
1.306587824817e+01 -1.965463578047e+02 0.0 
0.0 0.0 -8.424456881766e+01 
-1.124722932966e+02 2.710413694392e+01 0.0 
2.710413694392e+01 -2.401273233199e+02 0.0 
0.0 0.0 -1.069558402070e+02 
-8.437324071547e+00 -9.309762055956e-04 0.0 
-9.309762055956e-04 -4.069757743000e+01 0.0 
0.0 0.0 -1.434047045046e+01 
-4.698710842021e-01 -3.667334560233e-01 0.0 
-3.667334560233e-01 -2.410551286803e+01 0.0 
0.0 0.0 -5.764290583087e+00 
-8.850018385649e-01 -4.193296817147e-03 0.0 
-4.193296817147e-03 -2.498662269321e+01 0.0 
0.0 0.0 -7.602754873562e+00 
-7.130164547622e+01 -1.466660486362e+00 0.0 
-1.466660486362e+00 -1.680908989278e+02 0.0 
0.0 0.0 -7.141776332122e+01 
-1.756086361976e+02 2.209385641605e+00 0.0 
2.209385641605e+00 -3.883902280775e+02 0.0 
0.0 0.0 -1.755856978471e+02 
-8.133543349200e+01 1.237594397118e+00 0.0 
1.237594397118e+00 -1.727100616554e+02 0.0 
0.0 0.0 -7.581364854423e+01 
9.999998069872e-01 -1.420985369864e-03 0.0 
-1.420985369864e-03 -9.461478447332e+00 0.0 
0.0 0.0 1.000000000000e+00 
-8.651625238264e+01 4.994172564303e-01 0.0 
4.994172564303e-01 -1.992350512894e+02 0.0 
0.0 0.0 -8.532539110162e+01 
-1.771915361446e+02 1.198675439392e+00 0.0 
1.198675439392e+00 -3.917331328142e+02 0.0 
0.0 0.0 -1.771848391777e+02 
-1.742922264497e+02 2.251701772167e+00 0.0 
2.251701772167e+00 -3.856484989017e+02 0.0 
0.0 0.0 -1.742682404781e+02 
-1.670334027450e+02 9.354508594063e+00 0.0 
9.354508594063e+00 -3.692921506104e+02 0.0 
0.0 0.0 -1.666016763338e+02 
-6.153559020228e+01 -2.818717199894e-01 0.0 
-2.818717199894e-01 -9.947966156792e+01 0.0 
0.0 0.0 -4.790457553106e+01 
-7.103715025309e+01 1.025057295140e+00 0.0 
1.025057295140e+00 -1.305313607592e+02 0.0 
0.0 0.0 -6.007055330368e+01 
-1.757266893907e+02 1.654365751499e+00 0.0 
1.654365751499e+00 -3.886668799137e+02 0.0 
0.0 0.0 -1.757138371393e+02 
-1.752137881752e+02 2.350969575362e+00 0.0 
2.350969575362e+00 -3.875593242072e+02 0.0 
0.0 0.0 -1.751877627606e+02 
-6.784896915996e+01 1.007363444358e-01 0.0 
1.007363444358e-01 -1.198502692985e+02 0.0 
0.0 0.0 -5.590977153755e+01 
9.997021954125e-01 -4.578672171196e-02 0.0 
-4.578672171196e-02 -6.039595671161e+00 0.0 
0.0 0.0 1.000000000000e+00 
-2.848826034304e+01 -1.393900806968e-02 0.0 
-1.393900806968e-02 -8.122256425743e+00 0.0 
0.0 0.0 -1.058315503063e+01 
-2.821230400692e+01 -1.605241095496e-01 0.0 
-1.605241095496e-01 -8.690169236293e+00 0.0 
0.0 0.0 -1.067074197296e+01 
9.999072321148e-01 3.056044621734e-02 0.0 
3.056044621734e-02 -9.067502038936e+00 0.0 
0.0 0.0 1.000000000000e+00 
-1.728791017174e+02 4.648628261181e+00 0.0 
4.648628261181e+00 -3.824652442241e+02 0.0 
0.0 0.0 -1.727760456475e+02 
-1.678623151987e+02 7.907547726902e+00 0.0 
7.907547726902e+00 -3.714014903540e+02 0.0 
0.0 0.0 -1.675555672878e+02 
-1.705890300623e+02 6.832509362427e+00 0.0 
6.832509362427e+00 -3.773238873747e+02 0.0 
0.0 0.0 -1.703634643068e+02 
9.989977772621e-01 9.576199009170e-02 0.0 
9.576199009170e-02 -8.150020648444e+00 0.0 
0.0 0.0 1.000000000000e+00 
9.992809388149e-01 -7.986267874997e-02 0.0 
-7.986267874997e-02 -7.869964878318e+00 0.0 
0.0 0.0 1.000000000000e+00 
-1.685797527320e+02 9.688886988648e+00 0.0 
9.688886988648e+00 -3.724234848571e+02 0.0 
0.0 0.0 -1.681202664263e+02 
-1.695906351588e+02 8.342433448922e+00 0.0 
8.342433448922e+00 -3.748993060637e+02 0.0 
0.0 0.0 -1.692522097830e+02 
-5.815257291445e+01 9.919356459338e-01 0.0 
9.919356459338e-01 -8.937381847707e+01 0.0 
0.0 0.0 -4.385791741746e+01 
-2.836014228613e+01 -2.193027459171e-01 0.0 
-2.193027459171e-01 -7.848182716775e+00 0.0 
0.0 0.0 -1.046249750087e+01 
-6.502333543219e+01 1.028493134823e+00 0.0 
1.028493134823e+00 -1.098246579159e+02 0.0 
0.0 0.0 -5.205439800442e+01 
-4.404248430413e+01 8.649855533237e-01 0.0 
8.649855533237e-01 -4.935257408153e+01 0.0 
0.0 0.0 -2.761851751570e+01 
-2.827159355746e+01 2.697189949688e-01 0.0 
2.697189949688e-01 -7.741697691195e+00 0.0 
0.0 0.0 -1.040398737460e+01 
9.994678870717e-01 -6.787429901604e-02 0.0 
-6.787429901604e-02 -7.657787138760e+00 0.0 
0.0 0.0 1.000000000000e+00 
-1.258669479887e+00 -1.082146818490e+00 0.0 
-1.082146818490e+00 -8.875883624706e+00 0.0 
0.0 0.0 -2.640365931378e+00 
-4.846268067943e+00 -1.820028282040e+00 0.0 
-1.820028282040e+00 -8.413790602766e+00 0.0 
0.0 0.0 -3.578017601213e+00 
-1.001736638335e+01 -2.383860586850e+00 0.0 
-2.383860586850e+00 -8.552515365918e+00 0.0 
0.0 0.0 -5.170964524779e+00 
-9.133641266070e+01 -1.473935656592e+00 0.0 
-1.473935656592e+00 -2.094841055017e+02 0.0 
0.0 0.0 -8.984615544872e+01 
-8.158596066926e+01 -1.443335672751e+00 0.0 
-1.443335672751e+00 -1.886814273679e+02 0.0 
0.0 0.0 -8.068021641115e+01 
-2.558448876842e+00 -1.652732782346e+00 0.0 
-1.652732782346e+00 -8.947866499955e+00 0.0 
0.0 0.0 -4.028922083975e+00 
-1.195287372806e+02 -1.302764860072e+00 0.0 
-1.302764860072e+00 -2.703557915131e+02 0.0 
0.0 0.0 -1.188404205428e+02 
-5.762125520735e+00 -2.306608295241e+00 0.0 
-2.306608295241e+00 -8.862944382287e+00 0.0 
0.0 0.0 -4.959360143680e+00 
-9.840341213594e+01 2.842005458582e+01 0.0 
2.842005458582e+01 -2.061830969057e+02 0.0 
0.0 0.0 -9.136859108369e+01 
-8.417849778544e+01 1.076639141654e+01 0.0 
1.076639141654e+01 -1.950704831727e+02 0.0 
0.0 0.0 -8.337469428743e+01 
-8.888682599176e+01 1.876190836157e+01 0.0 
1.876190836157e+01 -1.984314922333e+02 0.0 
0.0 0.0 -8.579549546752e+01 
-2.186250775405e+01 -8.241653992205e-01 0.0 
-8.241653992205e-01 -6.858096140053e+01 0.0 
0.0 0.0 -2.673304074637e+01 
-5.025384034345e+01 -1.350356006922e+00 0.0 
-1.350356006922e+00 -1.276151001288e+02 0.0 
0.0 0.0 -5.296068214167e+01 
-8.315025309588e+01 8.492897901844e+00 0.0 
8.492897901844e+00 -1.941310998769e+02 0.0 
0.0 0.0 -8.278440589183e+01 
-1.483578459404e+02 -7.390737286570e-01 0.0 
-7.390737286570e-01 -3.317624091970e+02 0.0 
0.0 0.0 -1.483548677096e+02 
-8.373729131588e+01 6.741866897208e+00 0.0 
6.741866897208e+00 -1.961011059197e+02 0.0 
0.0 0.0 -8.355151917068e+01 
-1.580290820283e+02 -6.367589970683e-01 0.0 
-6.367589970683e-01 -3.518840292580e+02 0.0 
0.0 0.0 -1.580269904766e+02 
-1.674914790241e+02 -7.142887968587e-01 0.0 
-7.142887968587e-01 -3.715672157694e+02 0.0 
0.0 0.0 -1.674889789609e+02 
-7.648630690582e+01 6.266046916564e-01 0.0 
6.266046916564e-01 -1.784915888561e+02 0.0 
0.0 0.0 -7.609336872859e+01 
-9.038165002612e+01 1.002815050209e+01 0.0 
1.002815050209e+01 -1.982897483679e+02 0.0 
0.0 0.0 -8.620141951821e+01 
-8.857656050253e+01 7.422572090401e+00 0.0 
7.422572090401e+00 -1.975325847920e+02 0.0 
0.0 0.0 -8.543274358836e+01 
-1.528184583587e+02 4.467713506533e-01 0.0 
4.467713506533e-01 -3.410476439042e+02 0.0 
0.0 0.0 -1.528173979306e+02 
-1.625423622579e+02 7.658226696617e-01 0.0 
7.658226696617e-01 -3.612702726412e+02 0.0 
0.0 0.0 -1.625394111090e+02 
-1.293688374411e+02 -9.488686283725e-01 0.0 
-9.488686283725e-01 -2.922520831298e+02 0.0 
0.0 0.0 -1.293633100395e+02 
-1.621002545239e+01 -2.213001608169e+00 0.0 
-2.213001608169e+00 -8.560239247469e+00 0.0 
0.0 0.0 -8.007555592839e+00 
-7.858234640184e+01 -2.650356600335e+00 0.0 
-2.650356600335e+00 -1.864184088819e+02 0.0 
0.0 0.0 -7.910022658513e+01 
3.418886285786e-01 1.199785417338e+00 0.0 
1.199785417338e+00 -2.223853365197e+01 0.0 
0.0 0.0 -4.651130834413e+00 
-1.515302440267e+02 3.437198727317e+00 0.0 
3.437198727317e+00 -3.381761525819e+02 0.0 
0.0 0.0 -1.514669673589e+02 
-8.196160117304e+01 -3.784556855300e+00 0.0 
-3.784556855300e+00 -1.932527690031e+02 0.0 
0.0 0.0 -8.216431105286e+01 
-1.420483642387e+02 -9.043473654783e-01 0.0 
-9.043473654783e-01 -3.186318220660e+02 0.0 
0.0 0.0 -1.420437328722e+02 
-3.776668755338e+01 -3.595004109166e+00 0.0 
-3.595004109166e+00 -1.010841776509e+02 0.0 
0.0 0.0 -4.125525956127e+01 
-1.068217363406e+01 -2.310974226902e+00 0.0 
-2.310974226902e+00 -4.312079670583e+01 0.0 
0.0 0.0 -1.574089110197e+01 
-1.522328082516e+02 9.519930822328e-01 0.0 
9.519930822328e-01 -3.398177119470e+02 0.0 
0.0 0.0 -1.522279770127e+02 
-8.824244385894e+01 -2.564791187982e+00 0.0 
-2.564791187982e+00 -2.065434539552e+02 0.0 
0.0 0.0 -8.818686474939e+01 
-6.599415699196e+01 -2.142972293293e+00 0.0 
-2.142972293293e+00 -1.583139420389e+02 0.0 
0.0 0.0 -6.689242970924e+01 
-1.431250442624e+02 2.457852080469e-01 0.0 
2.457852080469e-01 -3.208848381815e+02 0.0 
0.0 0.0 -1.431247044204e+02 
-7.529485663549e+01 2.548307484527e+00 0.0 
2.548307484527e+00 -1.488354522236e+02 0.0 
0.0 0.0 -6.683909265771e+01 
-6.585498180461e+01 7.911880018136e-01 0.0 
7.911880018136e-01 -1.581749932244e+02 0.0 
0.0 0.0 -6.680899250870e+01 
-1.282081385269e+02 6.250504515545e+00 0.0 
6.250504515545e+00 -2.891077165191e+02 0.0 
0.0 0.0 -1.279656890102e+02 
-1.143156284194e+02 -7.005822610936e-01 0.0 
-7.005822610936e-01 -2.609438935835e+02 0.0 
0.0 0.0 -1.143122811500e+02 
-1.278111578686e+02 -2.053369432027e+00 0.0 
-2.053369432027e+00 -2.889481119711e+02 0.0 
0.0 0.0 -1.277849960139e+02 
-1.324172260145e+02 -1.880133919550e+00 0.0 
-1.880133919550e+00 -2.985450794833e+02 0.0 
0.0 0.0 -1.323959505280e+02 
-5.796546095577e+01 6.396410247574e+00 0.0 
6.396410247574e+00 -1.422431608985e+02 0.0 
0.0 0.0 -5.966258655628e+01 
-5.454809047734e+01 2.835698085673e+01 0.0 
2.835698085673e+01 -8.081252953801e+01 0.0 
0.0 0.0 -4.020818600460e+01 
-7.180555509879e+01 2.167798353162e+01 0.0 
2.167798353162e+01 -1.564077953324e+02 0.0 
0.0 0.0 -6.806400512936e+01 
-1.188394095739e+02 -1.928792840606e+00 0.0 
-1.928792840606e+00 -2.702892878688e+02 0.0 
0.0 0.0 -1.188148493784e+02 
-1.478185156573e+02 3.153091266795e-01 0.0 
3.153091266795e-01 -3.306479494304e+02 0.0 
0.0 0.0 -1.478179718742e+02 
-1.369959823236e+02 -1.744175935167e+00 0.0 
-1.744175935167e+00 -3.080809474214e+02 0.0 
0.0 0.0 -1.369782026573e+02 
-3.769206059898e+01 -4.727659960856e+00 0.0 
-4.727659960856e+00 -1.004650459171e+02 0.0 
0.0 0.0 -4.104713195482e+01 
-7.654292476348e+01 5.111896230158e+00 0.0 
5.111896230158e+00 -1.478947598844e+02 0.0 
0.0 0.0 -6.693130539437e+01 
-7.074285486074e+01 3.994305786970e+00 0.0 
3.994305786970e+00 -1.265410983113e+02 0.0 
0.0 0.0 -5.878518595161e+01 
-3.971464709486e+01 -3.728644899815e-01 0.0 
-3.728644899815e-01 -3.445591721300e+01 0.0 
0.0 0.0 -2.185116929236e+01 
-1.235602983197e+02 -1.219034687039e+00 0.0 
-1.219034687039e+00 -2.801564863442e+02 0.0 
0.0 0.0 -1.235508092284e+02 
-1.233750607334e+02 -1.987466800818e+00 0.0 
-1.987466800818e+00 -2.797225603263e+02 0.0 
0.0 0.0 -1.233498004241e+02 
-7.746549131841e+01 4.653783304788e+00 0.0 
4.653783304788e+00 -1.505853008710e+02 0.0 
0.0 0.0 -6.801523765683e+01 
-7.346677923418e+01 3.579625173767e+00 0.0 
3.579625173767e+00 -1.379845548820e+02 0.0 
0.0 0.0 -6.303540023484e+01 
-1.114269418011e+02 6.378343954046e-01 0.0 
6.378343954046e-01 -2.549361920985e+02 0.0 
0.0 0.0 -1.114241069687e+02 
-1.568598981047e+02 8.688184896002e-01 0.0 
8.688184896002e-01 -3.494461677293e+02 0.0 
0.0 0.0 -1.568559786654e+02 
-7.461730502915e+01 8.746954587975e+00 0.0 
8.746954587975e+00 -1.236978546415e+02 0.0 
0.0 0.0 -5.909454790121e+01 
-1.381140931219e+02 -2.428959482028e-01 0.0 
-2.428959482028e-01 -3.104606440044e+02 0.0 
0.0 0.0 -1.381137507981e+02 
-1.568189354933e+02 3.369400174115e+00 0.0 
3.369400174115e+00 -3.491912998698e+02 0.0 
0.0 0.0 -1.567599385738e+02 
-7.903510312992e+01 7.386807104214e+00 0.0 
7.386807104214e+00 -1.494886421870e+02 0.0 
0.0 0.0 -6.815712359509e+01 
-6.534065762490e+01 4.905527439342e+00 0.0 
4.905527439342e+00 -9.623079644744e+01 0.0 
0.0 0.0 -4.807143622170e+01 
-1.241465744202e+02 4.600399332091e+00 0.0 
4.600399332091e+00 -2.809900537182e+02 0.0 
0.0 0.0 -1.240117553132e+02 
-3.768386657232e+01 -2.729805113115e+00 0.0 
-2.729805113115e+00 -1.011777593121e+02 0.0 
0.0 0.0 -4.125848776532e+01 
-3.349395484643e+01 -4.654390532273e+00 0.0 
-4.654390532273e+00 -9.168288741206e+01 0.0 
0.0 0.0 -3.715305267755e+01 
-1.449824675960e+01 -3.637454493801e+00 0.0 
-3.637454493801e+00 -5.035274197869e+01 0.0 
0.0 0.0 -1.905529662148e+01 
-2.163840107746e+01 -4.943181064588e+00 0.0 
-4.943181064588e+00 -2.451732327741e+01 0.0 
0.0 0.0 -1.344671730646e+01 
-7.553962274222e+01 5.485675547354e+00 0.0 
5.485675547354e+00 -1.391340477221e+02 0.0 
0.0 0.0 -6.400210113930e+01 
-1.512783372264e+02 -1.106698389991e+00 0.0 
-1.106698389991e+00 -3.378268027361e+02 0.0 
0.0 0.0 -1.512717719715e+02 
-1.822368560931e+01 -5.671139819604e+00 0.0 
-5.671139819604e+00 -2.454613666378e+01 0.0 
0.0 0.0 -1.243094668193e+01 
-1.122585926104e+02 3.906301983630e+01 0.0 
3.906301983630e+01 -1.973905762230e+02 0.0 
0.0 0.0 -9.249475065001e+01 
-4.424829265670e+01 1.104742014689e-01 0.0 
1.104742014689e-01 -4.331489962428e+01 0.0 
0.0 0.0 -2.586895768429e+01 
-1.386722009833e+02 4.180196046769e-01 0.0 
4.180196046769e-01 -3.116196074504e+02 0.0 
0.0 0.0 -1.386711906220e+02 
-1.417895862966e+02 -1.532880901738e+00 0.0 
-1.532880901738e+00 -3.180667009693e+02 0.0 
0.0 0.0 -1.417762575885e+02 
-5.568212016278e+01 -2.640461800620e+00 0.0 
-2.640461800620e+00 -1.387216691120e+02 0.0 
0.0 0.0 -5.792113678243e+01 
-1.431113587770e+02 -1.876462366364e-01 0.0 
-1.876462366364e-01 -3.208568051366e+02 0.0 
0.0 0.0 -1.431111606787e+02 
-4.095893669832e+01 1.730043470798e+00 0.0 
1.730043470798e+00 -3.492235551766e+01 0.0 
0.0 0.0 -2.236438766480e+01 
-1.139668868828e+02 1.718981534771e+01 0.0 
1.718981534771e+01 -2.538158013454e+02 0.0 
0.0 0.0 -1.118849591834e+02 
-1.607704662840e+02 1.704744293507e+00 0.0 
1.704744293507e+00 -3.575478330061e+02 0.0 
0.0 0.0 -1.607556986557e+02 
-3.559963845586e+01 -1.135833213222e+00 0.0 
-1.135833213222e+00 -9.713827040380e+01 0.0 
0.0 0.0 -3.942137265790e+01 
-1.556216625336e+02 4.619843680224e+00 0.0 
4.619843680224e+00 -3.465382131730e+02 0.0 
0.0 0.0 -1.555099358514e+02 
-6.770199837206e+01 4.696158197907e+00 0.0 
4.696158197907e+00 -1.073781320668e+02 0.0 
0.0 0.0 -5.212403913166e+01 
-4.159338384368e+01 -2.113896000660e+00 0.0 
-2.113896000660e+00 -1.094689065550e+02 0.0 
0.0 0.0 -4.491868711959e+01 
-4.535248829559e+01 -4.019608583217e+00 0.0 
-4.019608583217e+00 -1.167970759416e+02 0.0 
0.0 0.0 -4.824486927116e+01 
-1.001563903937e+02 -3.092154594099e+00 0.0 
-3.092154594099e+00 -2.292262721979e+02 0.0 
0.0 0.0 -9.909946544526e+01 
-5.661334117708e+01 2.480319203153e+00 0.0 
2.480319203153e+00 -7.259308192428e+01 0.0 
0.0 0.0 -3.836192693041e+01 
-6.373108096333e+01 -4.486537120194e+00 0.0 
-4.486537120194e+00 -1.550467650870e+02 0.0 
0.0 0.0 -6.523335381511e+01 
-6.993942369769e+01 4.480961673130e+00 0.0 
4.480961673130e+00 -1.184220910424e+02 0.0 
0.0 0.0 -5.610845442203e+01 
-6.070886878030e+01 3.662633498176e+00 0.0 
3.662633498176e+00 -8.631275319111e+01 0.0 
0.0 0.0 -4.370648659142e+01 
-9.554095430881e+01 -3.348301069295e+00 0.0 
-3.348301069295e+00 -2.216239045673e+02 0.0 
0.0 0.0 -9.545209832438e+01 
-1.337509156550e+02 -8.003129473709e-01 0.0 
-8.003129473709e-01 -3.013732934275e+02 0.0 
0.0 0.0 -1.337470946484e+02 
-1.385345927782e+02 -3.434268286628e-01 0.0 
-3.434268286628e-01 -3.113343535173e+02 0.0 
0.0 0.0 -1.385339102453e+02 
-6.467343147948e+01 2.742337446505e+00 0.0 
2.742337446505e+00 -1.056950916295e+02 0.0 
0.0 0.0 -5.071055693271e+01 
-3.000419945733e+01 -1.334807360763e+00 0.0 
-1.334807360763e+00 -8.546383831780e+01 0.0 
0.0 0.0 -3.424041133254e+01 
-9.096682360033e+01 -3.798723606434e+00 0.0 
-3.798723606434e+00 -2.120152864123e+02 0.0 
0.0 0.0 -9.084772983096e+01 
-1.286948160251e+02 2.388616750491e+01 0.0 
2.388616750491e+01 -2.794910854121e+02 0.0 
0.0 0.0 -1.250016887908e+02 
-7.192462070020e+01 6.387586485164e+00 0.0 
6.387586485164e+00 -1.169881355954e+02 0.0 
0.0 0.0 -5.627382688868e+01 
-8.153086421112e+01 -4.374883665839e+00 0.0 
-4.374883665839e+00 -1.922208941343e+02 0.0 
0.0 0.0 -8.172552750362e+01 
-1.159984539177e+02 3.241499830911e-01 0.0 
3.241499830911e-01 -2.644527738969e+02 0.0 
0.0 0.0 -1.159977461397e+02 
-1.512629354856e+02 5.323417710636e+00 0.0 
5.323417710636e+00 -3.373462705037e+02 0.0 
0.0 0.0 -1.511107691375e+02 
-6.240240126433e+01 2.982807764265e+00 0.0 
2.982807764265e+00 -9.465894317493e+01 0.0 
0.0 0.0 -4.671840333178e+01 
-1.951592862110e+01 7.196803051540e-01 0.0 
7.196803051540e-01 -4.189503124310e+01 0.0 
0.0 0.0 -1.802328795926e+01 
-1.304019199710e+01 -1.883575165911e+00 0.0 
-1.883575165911e+00 -4.871652819789e+01 0.0 
0.0 0.0 -1.812701605850e+01 
-2.909336634948e+01 1.366379135661e+00 0.0 
1.366379135661e+00 -8.356243621330e+01 0.0 
0.0 0.0 -3.339674076883e+01 
-1.466782522905e+02 -1.057099383851e+00 0.0 
-1.057099383851e+00 -3.282586005607e+02 0.0 
0.0 0.0 -1.466720984239e+02 
-5.950151877499e+01 2.832752777928e+00 0.0 
2.832752777928e+00 -8.357105238742e+01 0.0 
0.0 0.0 -4.252177134872e+01 
-1.101274966782e+02 -4.691391592543e-01 0.0 
-4.691391592543e-01 -2.500128695009e+02 0.0 
0.0 0.0 -1.090568382979e+02 
-4.880113538366e+01 9.813770824949e-01 0.0 
9.813770824949e-01 -5.270996067867e+01 0.0 
0.0 0.0 -3.005332881870e+01 
-1.409243086272e+02 9.104787683594e+00 0.0 
9.104787683594e+00 -3.148435479068e+02 0.0 
0.0 0.0 -1.404489661141e+02 
-1.000925938617e+02 -3.262303577981e+00 0.0 
-3.262303577981e+00 -2.311162490518e+02 0.0 
0.0 0.0 -1.000114174131e+02 
-1.373475179412e+02 -1.548832323905e+00 0.0 
-1.548832323905e+00 -3.088239183616e+02 0.0 
0.0 0.0 -1.373335295096e+02 
-3.681905590182e+01 3.808265127417e-01 0.0 
3.808265127417e-01 -9.973245501055e+01 0.0 
0.0 0.0 -4.056545327371e+01 
-1.557203035316e+02 1.930823322254e+00 0.0 
1.930823322254e+00 -3.470275432242e+02 0.0 
0.0 0.0 -1.557008181267e+02 
-9.762737701569e+01 -2.264792890209e+00 0.0 
-2.264792890209e+00 -2.261150234440e+02 0.0 
0.0 0.0 -9.758746894419e+01 
-4.021071573895e+01 8.990561119139e-01 0.0 
8.990561119139e-01 -1.067577537652e+02 0.0 
0.0 0.0 -4.369054085125e+01 
-9.221813570127e+01 -2.016507502500e+00 0.0 
-2.016507502500e+00 -2.147225506471e+02 0.0 
0.0 0.0 -9.210782621483e+01 
-6.798322467185e+01 -4.523790925794e+00 0.0 
-4.523790925794e+00 -1.639141308002e+02 0.0 
0.0 0.0 -6.916920664161e+01 
-5.137804388445e+01 -3.319906435593e+00 0.0 
-3.319906435593e+00 -1.295930588741e+02 0.0 
0.0 0.0 -5.389133082757e+01 
-1.092517253279e+02 -2.760493062335e+00 0.0 
-2.760493062335e+00 -2.489323455850e+02 0.0 
0.0 0.0 -1.085628842481e+02 
9.992408040859e-01 8.749974885095e-02 0.0 
8.749974885095e-02 -9.084624938674e+00 0.0 
0.0 0.0 -2.618904389706e+00 
-1.151434762643e+00 -1.003503924107e+00 0.0 
-1.003503924107e+00 -9.531360346119e+00 0.0 
0.0 0.0 -3.814846266634e+00 
-1.249076257931e+02 -8.932044635037e-01 0.0 
-8.932044635037e-01 -2.829729883594e+02 0.0 
0.0 0.0 -1.249025785853e+02 
-3.380349616694e+01 -8.332394798080e-01 0.0 
-8.332394798080e-01 -9.343048444013e+01 0.0 
0.0 0.0 -3.777019418212e+01 
-1.250473714508e+02 -9.299352027778e-02 0.0 
-9.299352027778e-02 -2.832790770711e+02 0.0 
0.0 0.0 -1.250473167981e+02 
-1.205492558281e+02 8.631580409241e-02 0.0 
8.631580409241e-02 -2.739217512449e+02 0.0 
0.0 0.0 -1.205492072508e+02 
-7.312084082321e+01 -3.402518289157e+00 0.0 
-3.402518289157e+00 -1.749075115285e+02 0.0 
0.0 0.0 -7.400850570552e+01 
-4.194943919765e+01 -3.432843363738e+00 0.0 
-3.432843363738e+00 -1.098791867944e+02 0.0 
0.0 0.0 -4.514858779763e+01 
-8.060211925287e+01 1.080161643643e+01 0.0 
1.080161643643e+01 -1.371787323829e+02 0.0 
0.0 0.0 -6.493425549073e+01 
-1.794467791739e+01 6.193160883341e+00 0.0 
6.193160883341e+00 -4.198531096442e+01 0.0 
0.0 0.0 -1.757899666454e+01 
-7.237314263162e+01 -4.320992983746e+00 0.0 
-4.320992983746e+00 -1.731323075516e+02 0.0 
0.0 0.0 -7.325163505496e+01 
-1.447015293777e+02 1.122702931065e+01 0.0 
1.122702931065e+01 -3.219840803267e+02 0.0 
0.0 0.0 -1.439933677813e+02 
-2.799865787072e+01 -2.283197290649e+00 0.0 
-2.283197290649e+00 -8.108874914049e+01 0.0 
0.0 0.0 -3.232622210336e+01 
-5.487097326093e+01 3.248753798577e+00 0.0 
3.248753798577e+00 -6.498391784282e+01 0.0 
0.0 0.0 -3.555646733113e+01 
-4.624504487761e+01 2.105427619427e+00 0.0 
2.105427619427e+00 -4.454519113782e+01 0.0 
0.0 0.0 -2.683707080463e+01 
-2.787833080183e+01 -3.267092051970e+00 0.0 
-3.267092051970e+00 -8.051812683685e+01 0.0 
0.0 0.0 -3.211893729160e+01 
-1.465452329102e+02 5.917820925384e+00 0.0 
5.917820925384e+00 -3.274050286039e+02 0.0 
0.0 0.0 -1.463518057844e+02 
-7.337441957572e+01 8.721468402929e+00 0.0 
8.721468402929e+00 -1.051031696208e+02 0.0 
0.0 0.0 -5.314327675895e+01 
-3.406746530810e+01 -3.056572268865e+00 0.0 
-3.056572268865e+00 -9.353280090324e+01 0.0 
0.0 0.0 -3.788007986340e+01 
-8.485084799688e+01 1.340716061801e+01 0.0 
1.340716061801e+01 -1.474851604930e+02 0.0 
0.0 0.0 -6.930080254696e+01 
-7.936666704115e+01 1.130094645889e+01 0.0 
1.130094645889e+01 -1.446913155977e+02 0.0 
0.0 0.0 -6.681739479166e+01 
-3.946583916411e+01 -1.608719522813e+00 0.0 
-1.608719522813e+00 -1.051242695391e+02 0.0 
0.0 0.0 -4.297703261097e+01 
-3.802614371566e+01 2.022932893080e+01 0.0 
2.022932893080e+01 -7.456165890403e+01 0.0 
0.0 0.0 -3.337634078590e+01 
-4.164089672165e+01 -3.102548956963e+00 0.0 
-3.102548956963e+00 -1.093332415808e+02 0.0 
0.0 0.0 -4.489224149075e+01 
-1.340573455834e+02 -3.295006810814e-01 0.0 
-3.295006810814e-01 -3.020205324915e+02 0.0 
0.0 0.0 -1.340566991901e+02 
-1.045951602518e+02 -3.083676234486e+00 0.0 
-3.083676234486e+00 -2.405175146133e+02 0.0 
0.0 0.0 -1.045252367292e+02 
-1.016606806015e+02 3.192236455342e+01 0.0 
3.192236455342e+01 -1.816352496193e+02 0.0 
0.0 0.0 -8.458877906624e+01 
-7.600341357660e+01 8.475845793303e+00 0.0 
8.475845793303e+00 -1.348301930640e+02 0.0 
0.0 0.0 -6.285008199219e+01 
-1.295516978901e+02 -2.308805665305e-01 0.0 
-2.308805665305e-01 -2.926485034576e+02 0.0 
0.0 0.0 -1.295513710552e+02 
-1.281711143386e+02 -1.381723798306e+00 0.0 
-1.381723798306e+00 -2.897411135633e+02 0.0 
0.0 0.0 -1.281592988960e+02 
-3.186964668927e+01 -4.692452133813e+00 0.0 
-4.692452133813e+00 -8.824859298526e+01 0.0 
0.0 0.0 -3.563547190236e+01 
-1.327056617792e+02 -1.533773080830e+00 0.0 
-1.533773080830e+00 -2.991671140774e+02 0.0 
0.0 0.0 -1.326915308188e+02 
-6.852450079601e+01 6.328743648835e+00 0.0 
6.328743648835e+00 -1.026384262678e+02 0.0 
0.0 0.0 -5.094887811915e+01 
-1.058623393037e+02 -1.258763049210e+00 0.0 
-1.258763049210e+00 -2.420711960604e+02 0.0 
0.0 0.0 -1.052440769605e+02 
-6.288427352095e+01 4.812771971520e+00 0.0 
4.812771971520e+00 -8.534106373051e+01 0.0 
0.0 0.0 -4.406760117544e+01 
-7.489469591843e+01 8.650900774163e+00 0.0 
8.650900774163e+00 -1.159422468913e+02 0.0 
0.0 0.0 -5.685108284292e+01 
-7.744063684280e+01 1.077372340124e+01 0.0 
1.077372340124e+01 -1.808221953738e+02 0.0 
0.0 0.0 -7.707884966497e+01 
-7.218527850400e+01 6.256254719373e+00 0.0 
6.256254719373e+00 -1.247993833729e+02 0.0 
0.0 0.0 -5.869539856308e+01 
-8.665774071989e+01 -4.059717554030e+00 0.0 
-4.059717554030e+00 -2.020601656252e+02 0.0 
0.0 0.0 -8.621537190352e+01 
-1.017060666954e+02 -1.897734946043e+00 0.0 
-1.897734946043e+00 -2.346393389608e+02 0.0 
0.0 0.0 -1.016789804422e+02 
-6.298397725280e+01 -4.510947153580e+00 0.0 
-4.510947153580e+00 -1.534790276556e+02 0.0 
0.0 0.0 -6.453890147252e+01 
-6.700514548342e+01 -2.772961938445e+00 0.0 
-2.772961938445e+00 -1.622867330535e+02 0.0 
0.0 0.0 -6.838756356109e+01 
-6.391488302372e+01 4.351188533984e+00 0.0 
4.351188533984e+00 -9.290778229338e+01 0.0 
0.0 0.0 -4.664679959513e+01 
-9.345427986611e+01 6.867132797163e-01 0.0 
6.867132797163e-01 -2.175450312776e+02 0.0 
0.0 0.0 -9.345047973852e+01 
-4.547443215599e+01 -2.572456757731e+00 0.0 
-2.572456757731e+00 -1.174623743907e+02 0.0 
0.0 0.0 -4.848104196401e+01 
-1.835676148619e+01 -3.142416013505e+00 0.0 
-3.142416013505e+00 -6.037558855865e+01 0.0 
0.0 0.0 -2.321970501345e+01 
-6.808729290986e+01 6.533873457901e+00 0.0 
6.533873457901e+00 -9.504878541818e+01 0.0 
0.0 0.0 -4.854082349841e+01 
-4.528618277807e+01 -4.551023764325e+00 0.0 
-4.551023764325e+00 -1.164608323736e+02 0.0 
0.0 0.0 -4.812410454549e+01 
-1.551385749189e+02 3.604368065769e+00 0.0 
3.604368065769e+00 -3.456674467372e+02 0.0 
0.0 0.0 -1.550704129497e+02 
-6.627844614953e+01 4.480691792942e+00 0.0 
4.480691792942e+00 -1.039808149244e+02 0.0 
0.0 0.0 -5.067777832217e+01 
-1.374160200023e+02 -8.003565297812e-01 0.0 
-8.003565297812e-01 -3.089980107727e+02 0.0 
0.0 0.0 -1.374122867629e+02 
-1.557839404934e+02 1.696411133906e+01 0.0 
1.696411133906e+01 -3.425112156358e+02 0.0 
0.0 0.0 -1.542552712423e+02 
-8.245773853944e+01 -2.195988714999e+00 0.0 
-2.195988714999e+00 -1.945295290193e+02 0.0 
0.0 0.0 -8.269618026761e+01 
-3.971499150623e+01 -3.926560612630e+00 0.0 
-3.926560612630e+00 -1.050395160412e+02 0.0 
0.0 0.0 -4.302635226422e+01 
-2.220302076273e+01 -4.695404280595e+00 0.0 
-4.695404280595e+00 -6.786216566422e+01 0.0 
0.0 0.0 -2.661955592808e+01 
-1.295309068023e+02 8.221293513513e-01 0.0 
8.221293513513e-01 -2.925934914126e+02 0.0 
0.0 0.0 -1.295267618938e+02 
-5.537476458835e+01 1.654825575010e+00 0.0 
1.654825575010e+00 -7.453079796561e+01 0.0 
0.0 0.0 -3.857166876619e+01 
-1.390882550800e+01 -4.206276345365e+00 0.0 
-4.206276345365e+00 -4.826282684665e+01 0.0 
0.0 0.0 -1.825149570640e+01 
-6.501019637754e+01 -3.044197634998e+00 0.0 
-3.044197634998e+00 -1.580786633680e+02 0.0 
0.0 0.0 -6.652665792367e+01 
-3.072925742935e+01 1.280930191981e+00 0.0 
1.280930191981e+00 -8.698126290742e+01 0.0 
0.0 0.0 -3.491315610103e+01 
-6.027455822905e+01 4.558384499936e+00 0.0 
4.558384499936e+00 -7.449627696103e+01 0.0 
0.0 0.0 -4.003125055703e+01 
-6.895366172859e+01 -2.609230674836e+00 0.0 
-2.609230674836e+00 -1.663734577813e+02 0.0 
0.0 0.0 -7.019813585296e+01 
-1.189340122158e+02 -9.902468198209e-01 0.0 
-9.902468198209e-01 -2.705418180589e+02 0.0 
0.0 0.0 -1.189275445612e+02 
-6.296278057319e+01 -1.960485046779e+00 0.0 
-1.960485046779e+00 -1.539958575105e+02 0.0 
0.0 0.0 -6.468759142510e+01 
-7.372336127576e+01 6.101502736756e+00 0.0 
6.101502736756e+00 -1.282014273420e+02 0.0 
0.0 0.0 -6.017743658532e+01 
-5.466986207025e+01 -4.654058913181e+00 0.0 
-4.654058913181e+00 -1.360571314116e+02 0.0 
0.0 0.0 -5.681809804456e+01 
-1.292763041311e+02 2.221551115559e+00 0.0 
2.221551115559e+00 -2.919831989113e+02 0.0 
0.0 0.0 -1.292459773914e+02 
-3.619237705437e+01 -4.607925949703e+00 0.0 
-4.607925949703e+00 -9.737285728482e+01 0.0 
0.0 0.0 -3.966957030176e+01 
-1.249548393706e+02 1.091899143512e+00 0.0 
1.091899143512e+00 -2.830635264450e+02 0.0 
0.0 0.0 -1.249472990709e+02 
-9.665577736587e+01 -1.563137786829e+00 0.0 
-1.563137786829e+00 -2.224892580122e+02 0.0 
0.0 0.0 -9.583469672438e+01 
-1.328098225709e+02 -5.725037609926e-01 0.0 
-5.725037609926e-01 -2.994212656199e+02 0.0 
0.0 0.0 -1.328078553789e+02 
-5.433274145777e+01 1.413103185917e+00 0.0 
1.413103185917e+00 -1.360977390379e+02 0.0 
0.0 0.0 -5.672914414871e+01 
-3.212264191924e+01 -1.576439836946e+00 0.0 
-1.576439836946e+00 -8.983715781864e+01 0.0 
0.0 0.0 -3.618793992136e+01 
-5.008819628109e+01 2.286728296863e+00 0.0 
2.286728296863e+00 -5.567433802538e+01 0.0 
0.0 0.0 -3.132876029194e+01 
-1.134033011536e+02 8.448370497595e+00 0.0 
8.448370497595e+00 -2.575361488288e+02 0.0 
0.0 0.0 -1.129097883264e+02 
-6.419888681734e+01 2.541185003014e+01 0.0 
2.541185003014e+01 -1.299817983046e+02 0.0 
0.0 0.0 -5.785420553659e+01 
-5.793055321158e+01 3.529830644285e+00 0.0 
3.529830644285e+00 -7.571317581859e+01 0.0 
0.0 0.0 -3.969311870905e+01 
-4.087887305827e+01 -4.055874188000e+00 0.0 
-4.055874188000e+00 -1.074264992534e+02 0.0 
0.0 0.0 -4.409161169349e+01 
-6.442748017612e+01 5.867463701590e+00 0.0 
5.867463701590e+00 -8.125512580826e+01 0.0 
0.0 0.0 -4.330478179532e+01 
-2.632773168358e+01 1.299375284092e+00 0.0 
1.299375284092e+00 -7.781370565101e+01 0.0 
0.0 0.0 -3.084243120038e+01 
-1.470394736902e+02 3.883538250079e+00 0.0 
3.883538250079e+00 -3.287734863307e+02 0.0 
0.0 0.0 -1.469565228530e+02 
-1.171694767701e+02 1.052709025489e+01 0.0 
1.052709025489e+01 -2.645871317479e+02 0.0 
0.0 0.0 -1.164215323774e+02 
-1.173868767904e+02 1.984670301539e+01 0.0 
1.984670301539e+01 -2.589337674659e+02 0.0 
0.0 0.0 -1.146567699313e+02 
-8.518481036871e+01 1.293174745941e+01 0.0 
1.293174745941e+01 -1.590417211491e+02 0.0 
0.0 0.0 -7.286795945534e+01 
-1.022851654888e+02 1.492990732334e+00 0.0 
1.492990732334e+00 -2.358760710720e+02 0.0 
0.0 0.0 -1.022684821451e+02 
-3.017074678925e+01 -3.609574239561e+00 0.0 
-3.609574239561e+00 -8.518278591924e+01 0.0 
0.0 0.0 -3.420605981255e+01 
-1.157307011154e+02 1.811577991638e+00 0.0 
1.811577991638e+00 -2.638297053928e+02 0.0 
0.0 0.0 -1.157085448293e+02 
-1.502211572438e+02 4.247675720702e+00 0.0 
4.247675720702e+00 -3.353477426196e+02 0.0 
0.0 0.0 -1.501237468141e+02 
-5.432465403532e+01 -2.474858986857e+00 0.0 
-2.474858986857e+00 -1.359251254932e+02 0.0 
0.0 0.0 -5.667493385856e+01 
-1.340978379961e+02 5.986642831177e-01 0.0 
5.986642831177e-01 -3.021001880909e+02 0.0 
0.0 0.0 -1.340957047261e+02 
-7.004950880768e+01 6.562177130706e+00 0.0 
6.562177130706e+00 -1.059345471309e+02 0.0 
0.0 0.0 -5.239521678159e+01 
-3.737709070860e+01 -3.471843593487e+00 0.0 
-3.471843593487e+00 -1.003122563881e+02 0.0 
0.0 0.0 -4.090680412901e+01 
-1.203428287866e+02 1.405922682861e+00 0.0 
1.405922682861e+00 -2.734527121489e+02 0.0 
0.0 0.0 -1.203299200709e+02 
-5.392166387142e+01 3.999491266188e+00 0.0 
3.999491266188e+00 -5.285144638110e+01 0.0 
0.0 0.0 -3.163193307576e+01 
-4.687716619668e+01 -4.132513699333e-01 0.0 
-4.132513699333e-01 -1.206561216399e+02 0.0 
0.0 0.0 -4.985998635097e+01 
-6.101636304076e+01 -3.349616372928e+00 0.0 
-3.349616372928e+00 -1.496875481285e+02 0.0 
0.0 0.0 -6.281117335077e+01 
-7.901899180714e+01 2.736403542437e+01 0.0 
2.736403542437e+01 -1.623144816346e+02 0.0 
0.0 0.0 -7.200004203253e+01 
-1.281401473758e+02 -3.132265169103e-01 0.0 
-3.132265169103e-01 -2.897112180290e+02 0.0 
0.0 0.0 -1.281395401477e+02 
-5.372170989939e+01 2.644046009154e+01 0.0 
2.644046009154e+01 -9.538294884416e+01 0.0 
0.0 0.0 -4.433139762306e+01 
-7.548036600921e+01 2.459381677043e+01 0.0 
2.459381677043e+01 -1.596543953306e+02 0.0 
0.0 0.0 -7.014042840194e+01 
-6.657367323895e+01 6.120443917739e+00 0.0 
6.120443917739e+00 -9.187795800295e+01 0.0 
0.0 0.0 -4.713548937257e+01 
-5.206642540672e+01 1.311986753220e+00 0.0 
1.311986753220e+00 -6.346816829803e+01 0.0 
0.0 0.0 -3.426037811143e+01 
-5.595939455527e+01 3.153427768792e+00 0.0 
3.153427768792e+00 -6.041589606951e+01 0.0 
0.0 0.0 -3.451258718744e+01 
-9.575046507565e+01 -3.529575788970e+00 0.0 
-3.529575788970e+00 -2.214033167636e+02 0.0 
0.0 0.0 -9.535096945319e+01 
-1.417640895641e+02 6.506323035339e+00 0.0 
6.506323035339e+00 -3.173129485342e+02 0.0 
0.0 0.0 -1.415232776937e+02 
-1.111284085558e+02 2.306529342221e+00 0.0 
2.306529342221e+00 -2.542093890011e+02 0.0 
0.0 0.0 -1.110912359296e+02 
-5.148065958307e+01 2.894678395519e+00 0.0 
2.894678395519e+00 -5.416417750685e+01 0.0 
0.0 0.0 -3.129345112698e+01 
-1.211267185150e+02 4.434498444312e+01 0.0 
4.434498444312e+01 -2.195475574088e+02 0.0 
0.0 0.0 -1.025989393100e+02 
-1.207497658083e+02 2.253146467881e+01 0.0 
2.253146467881e+01 -2.636557409602e+02 0.0 
0.0 0.0 -1.172814858156e+02 
-1.234681869382e+02 -1.052172760714e-03 0.0 
-1.052172760714e-03 -2.799940978317e+02 0.0 
0.0 0.0 -1.234681869311e+02 
-7.039445570772e+01 6.394499172938e+00 0.0 
6.394499172938e+00 -1.136485994122e+02 0.0 
0.0 0.0 -5.481291653599e+01 
-7.120409684536e+01 -2.794030008373e+00 0.0 
-2.794030008373e+00 -1.710294056609e+02 0.0 
0.0 0.0 -7.227005075188e+01 
-6.627888020707e+01 -3.258543358008e+00 0.0 
-3.258543358008e+00 -1.606782083250e+02 0.0 
0.0 0.0 -6.768712655964e+01 
-3.169328506798e+01 -2.662371741921e+00 0.0 
-2.662371741921e+00 -8.869430283193e+01 0.0 
0.0 0.0 -3.571627636997e+01 
-1.199718041812e+02 3.129159288657e+00 0.0 
3.129159288657e+00 -2.725230116586e+02 0.0 
0.0 0.0 -1.199076452561e+02 
-7.045792629279e+01 -3.179597379128e+00 0.0 
-3.179597379128e+00 -1.694034530729e+02 0.0 
0.0 0.0 -7.155841380970e+01 
-6.592146290454e+01 6.415904427399e+00 0.0 
6.415904427399e+00 -8.420042683074e+01 0.0 
0.0 0.0 -4.463656692059e+01 
-6.354326587009e+01 6.259636076669e+00 0.0 
6.259636076669e+00 -7.351241531331e+01 0.0 
0.0 0.0 -4.071670435502e+01 
-8.450965381158e+01 1.003511207319e+01 0.0 
1.003511207319e+01 -1.961940446215e+02 0.0 
0.0 0.0 -8.381110952993e+01 
-5.506664067360e+01 -4.236724664025e+00 0.0 
-4.236724664025e+00 -1.370268504868e+02 0.0 
0.0 0.0 -5.722804734812e+01 
-5.005797049584e+01 6.042120930331e+00 0.0 
6.042120930331e+00 -1.258049654002e+02 0.0 
0.0 0.0 -5.235888076882e+01 
-5.943326534642e+01 -4.369789915554e+00 0.0 
-4.369789915554e+00 -1.461065631185e+02 0.0 
0.0 0.0 -6.126194853948e+01 
-6.409074503127e+01 -3.819662651066e+00 0.0 
-3.819662651066e+00 -1.559841214513e+02 0.0 
0.0 0.0 -6.562245994476e+01 
-3.580329534059e+01 -4.366556078227e+00 0.0 
-4.366556078227e+00 -9.666643384381e+01 0.0 
0.0 0.0 -3.934091875532e+01 
-1.370243183743e+02 7.274221198343e+00 0.0 
7.274221198343e+00 -3.072388415799e+02 0.0 
0.0 0.0 -1.367140157905e+02 
-7.807332968123e+01 -1.598471355816e+00 0.0 
-1.598471355816e+00 -1.854867817090e+02 0.0 
0.0 0.0 -7.866803341707e+01 
-7.624300188159e+01 8.399193266206e+00 0.0 
8.399193266206e+00 -1.268873050751e+02 0.0 
0.0 0.0 -6.053909208700e+01 
-8.258344194904e+01 -5.904989402280e-01 0.0 
-5.904989402280e-01 -1.949327792456e+02 0.0 
0.0 0.0 -8.285486635840e+01 
-1.142109990172e+02 9.197885858578e-01 0.0 
9.197885858578e-01 -2.607187591313e+02 0.0 
0.0 0.0 -1.142052247312e+02 
-9.615834793908e+01 -4.059203832367e-01 0.0 
-4.059203832367e-01 -2.231779624818e+02 0.0 
0.0 0.0 -9.615705074041e+01 
-7.411725282828e+01 1.813128586163e+01 0.0 
1.813128586163e+01 -1.667927223502e+02 0.0 
0.0 0.0 -7.187299255355e+01 
-3.565702764791e+01 -2.175489768616e+00 0.0 
-2.175489768616e+00 -9.708518563251e+01 0.0 
0.0 0.0 -3.942266398412e+01 
-1.454139732027e+02 4.866847064911e+00 0.0 
4.866847064911e+00 -3.252420755071e+02 0.0 
0.0 0.0 -1.452823537485e+02 
-1.508588056890e+02 7.577229178829e+00 0.0 
7.577229178829e+00 -3.360207528968e+02 0.0 
0.0 0.0 -1.505492465381e+02 
-9.752048088142e+01 2.986448280084e+01 0.0 
2.986448280084e+01 -2.014682341953e+02 0.0 
0.0 0.0 -8.955129131955e+01 
-6.870121449820e+01 -3.186551957167e+00 0.0 
-3.186551957167e+00 -1.657414365195e+02 0.0 
0.0 0.0 -6.993279530530e+01 
-1.051943164448e+02 2.454745856163e-01 0.0 
2.454745856163e-01 -2.419779550044e+02 0.0 
0.0 0.0 -1.051938759127e+02 
-6.146386974997e+01 4.030990226964e+00 0.0 
4.030990226964e+00 -8.190670359805e+01 0.0 
0.0 0.0 -4.261117200440e+01 
-7.551156800197e+01 -2.864456762022e+00 0.0 
-2.864456762022e+00 -1.799891265184e+02 0.0 
0.0 0.0 -7.625020835610e+01 
-6.036522230320e+01 2.291581662337e+01 0.0 
2.291581662337e+01 -1.267123015231e+02 0.0 
0.0 0.0 -5.572325714788e+01 
-5.525203117230e+01 -2.895560511218e+00 0.0 
-2.895560511218e+00 -1.377727456231e+02 0.0 
0.0 0.0 -5.750743303861e+01 
-4.549401919639e+01 -3.447344881086e+00 0.0 
-3.447344881086e+00 -1.172771259784e+02 0.0 
0.0 0.0 -4.843134355243e+01 
-7.588198824773e+01 -2.101609703983e+00 0.0 
-2.101609703983e+00 -1.808719012873e+02 0.0 
0.0 0.0 -7.662616686051e+01 
-4.926782105036e+01 -4.256211669953e+00 0.0 
-4.256211669953e+00 -1.249010314655e+02 0.0 
0.0 0.0 -5.185065575476e+01 
-4.339920289811e+01 -1.092057868018e+00 0.0 
-1.092057868018e+00 -1.133756266728e+02 0.0 
0.0 0.0 -4.663244887126e+01 
-9.800741504874e+01 2.879479794259e-01 0.0 
2.879479794259e-01 -2.270265578948e+02 0.0 
0.0 0.0 -9.800677240282e+01 
-1.188202290005e+02 3.947055014008e-01 0.0 
3.947055014008e-01 -2.703218716915e+02 0.0 
0.0 0.0 -1.188192006857e+02 
-1.170637659400e+02 3.411890643780e+01 0.0 
3.411890643780e+01 -2.393284335582e+02 0.0 
0.0 0.0 -1.081870859476e+02 
7.240838634119e-01 -6.381315489161e-01 0.0 
-6.381315489161e-01 -1.007099795019e+01 0.0 
0.0 0.0 -2.404074226034e+00 
-7.733968316285e+01 1.400717828808e+00 0.0 
1.400717828808e+00 -1.839771831850e+02 0.0 
0.0 0.0 -7.799505990434e+01 
-7.794753920916e+01 -2.077333071973e-01 0.0 
-2.077333071973e-01 -1.852971202930e+02 0.0 
0.0 0.0 -7.857339785064e+01 
-7.339773598857e+01 -2.455873273919e+00 0.0 
-2.455873273919e+00 -1.756519080404e+02 0.0 
0.0 0.0 -7.431489320870e+01 
-5.884892885746e+01 3.630020045251e+00 0.0 
3.630020045251e+00 -7.108182162102e+01 0.0 
0.0 0.0 -3.857922514354e+01 
-8.712321352810e+01 -1.020255343782e+00 0.0 
-1.020255343782e+00 -2.043589922844e+02 0.0 
0.0 0.0 -8.711433533277e+01 
-5.883167092188e+01 -4.611141103188e+00 0.0 
-4.611141103188e+00 -1.447720658026e+02 0.0 
0.0 0.0 -6.068112101735e+01 
-8.033510966340e+01 -1.180832017173e+00 0.0 
-1.180832017173e+00 -1.902260960293e+02 0.0 
0.0 0.0 -8.076836170780e+01 
-6.838423070585e+01 4.395278801062e+00 0.0 
4.395278801062e+00 -1.151499641062e+02 0.0 
0.0 0.0 -5.466025844362e+01 
-5.908602522385e+01 -2.426209118334e+00 0.0 
-2.426209118334e+00 -1.458522964406e+02 0.0 
0.0 0.0 -6.108149649933e+01 
-1.694701987759e+01 -3.645001849624e+00 0.0 
-3.645001849624e+00 -5.650015271238e+01 0.0 
0.0 0.0 -2.163415177699e+01 
-2.641077210144e+01 -3.975949245582e+00 0.0 
-3.975949245582e+00 -7.713322638345e+01 0.0 
0.0 0.0 -3.066319954547e+01 
-4.666532604819e+01 -3.389129693749e+00 0.0 
-3.389129693749e+00 -1.197394253680e+02 0.0 
0.0 0.0 -4.952142542486e+01 
-5.965741746961e+01 -3.654638564615e+00 0.0 
-3.654638564615e+00 -1.467783602300e+02 0.0 
0.0 0.0 -6.153073330989e+01 
-8.219157052718e+01 1.005140724244e+00 0.0 
1.005140724244e+00 -1.940993296443e+02 0.0 
0.0 0.0 -8.248727005145e+01 
-8.465856609497e+01 -1.185813194776e-01 0.0 
-1.185813194776e-01 -1.992588024010e+02 0.0 
0.0 0.0 -8.477521054879e+01 
-3.117581554558e+01 -4.596383359675e+00 0.0 
-4.596383359675e+00 -8.683878159354e+01 0.0 
0.0 0.0 -3.500437914174e+01 
-2.574661769876e+01 -1.657781442166e+00 0.0 
-1.657781442166e+00 -7.653928482500e+01 0.0 
0.0 0.0 -3.028577075713e+01 
-6.530523056853e+01 9.172328354147e+00 0.0 
9.172328354147e+00 -6.266336715748e+01 0.0 
0.0 0.0 -3.799057931780e+01 
-4.932261773127e+01 -2.031601669782e+00 0.0 
-2.031601669782e+00 -1.255838852278e+02 0.0 
0.0 0.0 -5.207195088771e+01 
-1.317114501104e+02 4.678496544098e+00 0.0 
4.678496544098e+00 -2.967341664159e+02 0.0 
0.0 0.0 -1.315789182644e+02 
-1.137566083743e+02 3.203314457897e+01 0.0 
3.203314457897e+01 -2.353950170569e+02 0.0 
0.0 0.0 -1.058364646802e+02 
-8.126541319450e+01 3.077180202607e+01 0.0 
3.077180202607e+01 -1.090165908919e+02 0.0 
0.0 0.0 -5.668460122591e+01 
-8.277600263850e+01 1.506488111953e+01 0.0 
1.506488111953e+01 -1.360794775937e+02 0.0 
0.0 0.0 -6.525664406967e+01 
-1.205014326543e+02 3.614872320271e+01 0.0 
3.614872320271e+01 -2.435268063606e+02 0.0 
0.0 0.0 -1.106660933744e+02 
-7.879490251987e+01 1.054483620652e+01 0.0 
1.054483620652e+01 -1.838325223683e+02 0.0 
0.0 0.0 -7.838822746645e+01 
-1.047416769758e+02 3.027158426226e+01 0.0 
3.027158426226e+01 -2.176076605588e+02 0.0 
0.0 0.0 -9.713521704978e+01 
-3.654327475153e+01 -4.616439877956e+00 0.0 
-4.616439877956e+00 -9.810545511867e+01 0.0 
0.0 0.0 -3.999461896106e+01 
-8.476761734433e+01 -1.431644091462e+00 0.0 
-1.431644091462e+00 -1.994309862329e+02 0.0 
0.0 0.0 -8.485958107317e+01 
-6.969004740152e+01 1.446131482446e+01 0.0 
1.446131482446e+01 -1.612522974577e+02 0.0 
0.0 0.0 -6.888270345778e+01 
-3.817812608183e+01 -1.969586302979e+00 0.0 
-1.969586302979e+00 -1.023808608388e+02 0.0 
0.0 0.0 -4.176769607619e+01 
-2.702084516026e+01 -5.570350380286e+00 0.0 
-5.570350380286e+00 -7.748509094623e+01 0.0 
0.0 0.0 -3.095178083195e+01 
-6.847205915798e+01 -4.041944165057e+00 0.0 
-4.041944165057e+00 -1.650666296425e+02 0.0 
0.0 0.0 -6.966160664016e+01 
-8.008730446915e+01 2.347594907528e-01 0.0 
2.347594907528e-01 -1.897481235277e+02 0.0 
0.0 0.0 -8.055062839905e+01 
-8.421376952974e+01 1.489885433515e+00 0.0 
1.489885433515e+00 -1.982739424714e+02 0.0 
0.0 0.0 -8.434631360033e+01 
-5.307285733410e+01 -3.903462963463e+00 0.0 
-3.903462963463e+00 -1.329659618596e+02 0.0 
0.0 0.0 -5.541164575811e+01 
-9.158529133990e+01 9.712087834338e-02 0.0 
9.712087834338e-02 -2.136684773969e+02 0.0 
0.0 0.0 -9.158521407734e+01 
-7.953228811778e+01 1.848207481527e+00 0.0 
1.848207481527e+00 -1.884985488028e+02 0.0 
0.0 0.0 -8.000925107617e+01 
-8.133863970474e+01 2.871836308199e+00 0.0 
2.871836308199e+00 -1.921236413637e+02 0.0 
0.0 0.0 -8.163868432053e+01 
-6.213078165144e+01 -3.299935282494e+00 0.0 
-3.299935282494e+00 -1.520224108474e+02 0.0 
0.0 0.0 -6.384595774966e+01 
-1.157470493711e+02 1.373203027848e+01 0.0 
1.373203027848e+01 -2.599395924011e+02 0.0 
0.0 0.0 -1.144509437483e+02 
-7.172542678189e+01 8.776890685323e+00 0.0 
8.776890685323e+00 -9.451068316886e+01 0.0 
0.0 0.0 -4.947083298523e+01 
-7.635002857165e+01 3.342351865127e+00 0.0 
3.342351865127e+00 -1.816486235464e+02 0.0 
0.0 0.0 -7.699959563540e+01 
-1.406527373832e+02 5.615690060123e+00 0.0 
5.615690060123e+00 -3.151868012683e+02 0.0 
0.0 0.0 -1.404722374057e+02 
-4.063251159489e+01 -3.686920324318e+00 0.0 
-3.686920324318e+00 -1.070440620171e+02 0.0 
0.0 0.0 -4.390297208361e+01 
-1.487743153077e+02 9.530184384463e+00 0.0 
9.530184384463e+00 -3.311077677102e+02 0.0 
0.0 0.0 -1.482775461542e+02 
-8.693094435550e+01 5.688316642070e-01 0.0 
5.688316642070e-01 -2.039778506519e+02 0.0 
0.0 0.0 -8.692817997812e+01 
-1.242972940949e+02 3.823340662620e+01 0.0 
3.823340662620e+01 -2.483344376641e+02 0.0 
0.0 0.0 -1.134591803356e+02 
-8.927365831557e+01 3.501229367087e+01 0.0 
3.501229367087e+01 -1.597086306406e+02 0.0 
0.0 0.0 -7.429468668686e+01 
-3.758952758496e+01 -4.164057816851e+00 0.0 
-4.164057816851e+00 -1.004970138738e+02 0.0 
0.0 0.0 -4.102596243763e+01 
-8.583046048371e+01 3.291556742111e+01 0.0 
3.291556742111e+01 -1.280101268008e+02 0.0 
0.0 0.0 -6.375217618535e+01 
-9.225830370225e+01 2.329693887637e+01 0.0 
2.329693887637e+01 -1.551182848624e+02 0.0 
0.0 0.0 -7.381297656940e+01 
-9.113418502582e+01 1.899504555889e+00 0.0 
1.899504555889e+00 -2.126388399511e+02 0.0 
0.0 0.0 -9.110449697659e+01 
-5.269056805426e+01 1.745199665563e+01 0.0 
1.745199665563e+01 -1.195733411147e+02 0.0 
0.0 0.0 -5.127917275069e+01 
-9.059039603373e+01 3.474433118558e+01 0.0 
3.474433118558e+01 -1.464770735080e+02 0.0 
0.0 0.0 -7.072024086253e+01 
-7.185712913751e+01 2.626661825570e+01 0.0 
2.626661825570e+01 -1.472088683900e+02 0.0 
0.0 0.0 -6.531979925826e+01 
-2.863100398390e+01 -5.054056885280e+00 0.0 
-5.054056885280e+00 -8.122362398668e+01 0.0 
0.0 0.0 -3.255638839118e+01 
-9.110137870591e+01 2.123390378649e+01 0.0 
2.123390378649e+01 -1.811675516928e+02 0.0 
0.0 0.0 -8.128067911960e+01 
-2.453327255962e+01 -5.361059774601e+00 0.0 
-5.361059774601e+00 -7.235304375130e+01 0.0 
0.0 0.0 -2.866589489328e+01 
-1.396028402071e+02 2.161301030239e+01 0.0 
2.161301030239e+01 -3.050030761293e+02 0.0 
0.0 0.0 -1.368252901776e+02 
-7.722450116347e+01 8.021525326471e+00 0.0 
8.021525326471e+00 -1.457991383922e+02 0.0 
0.0 0.0 -6.650709186672e+01 
-1.208087556986e+02 1.274461128618e+01 0.0 
1.274461128618e+01 -2.711576127878e+02 0.0 
0.0 0.0 -1.197360870929e+02 
-5.353479838564e+01 1.962547884990e+00 0.0 
1.962547884990e+00 -6.150577509690e+01 0.0 
0.0 0.0 -3.411217204476e+01 
-8.398339436913e+01 1.458036912475e+01 0.0 
1.458036912475e+01 -1.271768589888e+02 0.0 
0.0 0.0 -6.294807600736e+01 
-8.351860054045e+01 3.266375790371e+00 0.0 
3.266375790371e+00 -1.965973429280e+02 0.0 
0.0 0.0 -8.363478304055e+01 
-9.315504450074e+01 1.155136082431e+01 0.0 
1.155136082431e+01 -2.135512580718e+02 0.0 
0.0 0.0 -9.205677294745e+01 
-8.758097814555e+01 1.806835106397e+01 0.0 
1.806835106397e+01 -1.582689199829e+02 0.0 
0.0 0.0 -7.335496943854e+01 
-1.279167914602e+02 1.145149940391e+00 0.0 
1.145149940391e+00 -2.892234050067e+02 0.0 
0.0 0.0 -1.279086622071e+02 
-7.761485321352e+01 1.167084194328e+01 0.0 
1.167084194328e+01 -1.054781397952e+02 0.0 
0.0 0.0 -5.452789790262e+01 
-1.168739150265e+02 7.120497943988e+00 0.0 
7.120497943988e+00 -2.652258411569e+02 0.0 
0.0 0.0 -1.165329337930e+02 
-3.289743267224e+01 -4.307653616081e+00 0.0 
-4.307653616081e+00 -9.059632391156e+01 0.0 
0.0 0.0 -3.664812697514e+01 
-8.333969456119e+01 1.507937431157e+01 0.0 
1.507937431157e+01 -1.171870015172e+02 0.0 
0.0 0.0 -5.975800882351e+01 
-1.377197046251e+02 3.676540390062e+01 0.0 
3.676540390062e+01 -2.825374682159e+02 0.0 
0.0 0.0 -1.289205751972e+02 
-1.500754646221e+02 6.533435668646e+00 0.0 
6.533435668646e+00 -3.346331744384e+02 0.0 
0.0 0.0 -1.498444668398e+02 
-8.253125620425e+01 -1.952192853065e+00 0.0 
-1.952192853065e+00 -1.947291808981e+02 0.0 
0.0 0.0 -8.277813113071e+01 
-5.722093424182e+01 4.345611274759e+00 0.0 
4.345611274759e+00 -6.339610828504e+01 0.0 
0.0 0.0 -3.578511275806e+01 
-5.014645497814e+01 1.464727992483e+00 0.0 
1.464727992483e+00 -5.082810529012e+01 0.0 
0.0 0.0 -2.989236808048e+01 
-8.882665339629e+01 1.104569036827e+00 0.0 
1.104569036827e+00 -2.078984137551e+02 0.0 
0.0 0.0 -8.881640774459e+01 
-1.232291194981e+02 1.648788461512e+00 0.0 
1.648788461512e+00 -2.794431720060e+02 0.0 
0.0 0.0 -1.232117190109e+02 
-1.275344148090e+02 3.069726867418e+00 0.0 
3.069726867418e+00 -2.882724797232e+02 0.0 
0.0 0.0 -1.274758114614e+02 
-2.189648626506e+01 -2.282847586095e+00 0.0 
-2.282847586095e+00 -6.835169848909e+01 0.0 
0.0 0.0 -2.667445542624e+01 
-4.204782377123e+01 5.826889913055e+00 0.0 
5.826889913055e+00 -1.090680019435e+02 0.0 
0.0 0.0 -4.493474771442e+01 
-8.022476020875e+01 5.111436672004e+00 0.0 
5.111436672004e+00 -1.892994078319e+02 0.0 
0.0 0.0 -8.045725041218e+01 
-7.868624675673e+01 3.651070636120e+00 0.0 
3.651070636120e+00 -1.864545009798e+02 0.0 
0.0 0.0 -7.914222432096e+01 
-7.277366367271e+01 2.237750246914e+01 0.0 
2.237750246914e+01 -1.574375810049e+02 0.0 
0.0 0.0 -6.866337340328e+01 
-9.327078260773e+01 2.003068945709e+01 0.0 
2.003068945709e+01 -1.706538039683e+02 0.0 
0.0 0.0 -7.877737597282e+01 
-1.061647149423e+02 3.639779278365e+01 0.0 
3.639779278365e+01 -1.943539369918e+02 0.0 
0.0 0.0 -8.975559558023e+01 
-8.121335497001e+01 1.012080747124e+01 0.0 
1.012080747124e+01 -1.477384705654e+02 0.0 
0.0 0.0 -6.828554766063e+01 
-5.746113716418e+01 2.823355334797e+01 0.0 
2.823355334797e+01 -9.816148897317e+01 0.0 
0.0 0.0 -4.628678784121e+01 
-8.705118985667e+01 2.004906619000e+01 0.0 
2.004906619000e+01 -1.323733894049e+02 0.0 
0.0 0.0 -6.542737377847e+01 
-1.246220047506e+02 2.630485304660e+00 0.0 
2.630485304660e+00 -2.822591924523e+02 0.0 
0.0 0.0 -1.245781221658e+02 
-8.378052861602e+01 1.397450947610e+01 0.0 
1.397450947610e+01 -1.565675611712e+02 0.0 
0.0 0.0 -7.170442693618e+01 
-8.236805983924e+01 1.571795743523e+01 0.0 
1.571795743523e+01 -1.074853908945e+02 0.0 
0.0 0.0 -5.655603522011e+01 
-8.915190707322e+01 -4.448604103573e-01 0.0 
-4.448604103573e-01 -2.086014890371e+02 0.0 
0.0 0.0 -8.915025032368e+01 
-7.510266828568e+01 5.707410551257e+00 0.0 
5.707410551257e+00 -1.784119277651e+02 0.0 
0.0 0.0 -7.565437881524e+01 
-7.705599130897e+01 1.189843300416e+01 0.0 
1.189843300416e+01 -1.139810182077e+02 0.0 
0.0 0.0 -5.691110285501e+01 
-8.918859102242e+01 1.743980315558e+01 0.0 
1.743980315558e+01 -1.491307282381e+02 0.0 
0.0 0.0 -7.109579577815e+01 
-7.328661359814e+01 8.737520837049e+00 0.0 
8.737520837049e+00 -1.130479912974e+02 0.0 
0.0 0.0 -5.550038146867e+01 
-7.178402053332e+01 8.739640338420e+00 0.0 
8.739640338420e+00 -1.025073974437e+02 0.0 
0.0 0.0 -5.188742539312e+01 
-1.412803152876e+02 3.322896694231e+00 0.0 
3.322896694231e+00 -3.168546848161e+02 0.0 
0.0 0.0 -1.412174491055e+02 
-1.347696016912e+02 2.298642988511e+01 0.0 
2.298642988511e+01 -2.934543709110e+02 0.0 
0.0 0.0 -1.315069625166e+02 
-1.365190086720e+02 3.929713828182e+00 0.0 
3.929713828182e+00 -3.068643802925e+02 0.0 
0.0 0.0 -1.364284019179e+02 
-1.097506680570e+02 -2.766742474736e-01 0.0 
-2.766742474736e-01 -2.514561397834e+02 0.0 
0.0 0.0 -1.097501278637e+02 
-5.139172077194e+01 2.707120875539e+01 0.0 
2.707120875539e+01 -6.480295929246e+01 0.0 
0.0 0.0 -3.445840401932e+01 
-1.243623148979e+02 1.515609434971e+01 0.0 
1.515609434971e+01 -2.772713813465e+02 0.0 
0.0 0.0 -1.228745435214e+02 
-8.527436321254e+01 2.237075846406e+01 0.0 
2.237075846406e+01 -1.192853756324e+02 0.0 
0.0 0.0 -6.096792165349e+01 
-4.352772758097e+01 -3.514603223312e+00 0.0 
-3.514603223312e+00 -1.131503604614e+02 0.0 
0.0 0.0 -4.660342641270e+01 
-8.248547894847e+01 5.330244727294e+00 0.0 
5.330244727294e+00 -1.939552306832e+02 0.0 
0.0 0.0 -8.253221288950e+01 
-9.416841265460e+01 5.718501272911e+00 0.0 
5.718501272911e+00 -2.182321374301e+02 0.0 
0.0 0.0 -9.390538594139e+01 
-1.018757472267e+02 1.313101602793e+01 0.0 
1.313101602793e+01 -2.310043754133e+02 0.0 
0.0 0.0 -1.005539911969e+02 
-3.764123254741e+01 -6.032821503499e-01 0.0 
-6.032821503499e-01 -1.014323414752e+02 0.0 
0.0 0.0 -4.132207220679e+01 
-7.748471498875e+01 5.857714278632e+00 0.0 
5.857714278632e+00 -1.833401261436e+02 0.0 
0.0 0.0 -7.784745233971e+01 
-1.105556026035e+02 1.467028854106e+01 0.0 
1.467028854106e+01 -2.483754754083e+02 0.0 
0.0 0.0 -1.090113219507e+02 
-6.478362373152e+01 2.920211525919e+01 0.0 
2.920211525919e+01 -1.007688786874e+02 0.0 
0.0 0.0 -4.926575072567e+01 
-9.162023473349e+01 -1.444026009067e+00 0.0 
-1.444026009067e+00 -2.136887965596e+02 0.0 
0.0 0.0 -9.160315482888e+01 
-7.478134939266e+01 1.248951865023e+01 0.0 
1.248951865023e+01 -8.518555816830e+01 0.0 
0.0 0.0 -4.759007226829e+01 
-3.517171890661e+01 -5.037355465238e-01 0.0 
-5.037355465238e-01 -2.100336699330e+01 0.0 
0.0 0.0 -1.645252576997e+01 
-2.340184875622e+01 1.484057271240e+01 0.0 
1.484057271240e+01 -1.921637625273e+01 0.0 
0.0 0.0 -1.238546750268e+01 
-1.068648693517e+02 1.039775000054e+00 0.0 
1.039775000054e+00 -2.454304995110e+02 0.0 
0.0 0.0 -1.068570674806e+02 
-1.246400057777e+02 1.128029589509e+01 0.0 
1.128029589509e+01 -2.799208520517e+02 0.0 
0.0 0.0 -1.238248339557e+02 
-1.075751472018e+02 3.525095350897e+01 0.0 
3.525095350897e+01 -1.996485444094e+02 0.0 
0.0 0.0 -9.176710748338e+01 
-8.775673559303e+01 9.209214838186e+00 0.0 
9.209214838186e+00 -2.034605561136e+02 0.0 
0.0 0.0 -8.702833210629e+01 
-1.007001285889e+02 -8.772391584191e-01 0.0 
-8.772391584191e-01 -2.326121693348e+02 0.0 
0.0 0.0 -1.006942950463e+02 
-6.987301447759e+01 8.796990338593e+00 0.0 
8.796990338593e+00 -8.404799239717e+01 0.0 
0.0 0.0 -4.577630206243e+01 
-2.331881144052e+01 1.489374733423e+01 0.0 
1.489374733423e+01 -1.947102500952e+01 0.0 
0.0 0.0 -1.243695093501e+01 
-1.195701948977e+02 1.237787523926e+01 0.0 
1.237787523926e+01 -2.687429837426e+02 0.0 
0.0 0.0 -1.185500947025e+02 
-9.840861546889e+01 1.080263632438e+01 0.0 
1.080263632438e+01 -2.250449909973e+02 0.0 
0.0 0.0 -9.749371321478e+01 
-6.902625710834e+01 3.169267975004e+01 0.0 
3.169267975004e+01 -1.025884067862e+02 0.0 
0.0 0.0 -5.108439916835e+01 
-1.288304430410e+02 4.002957734525e+00 0.0 
4.002957734525e+00 -2.908446345056e+02 0.0 
0.0 0.0 -1.287316004604e+02 
-3.933751420827e+01 -3.368515588103e+00 0.0 
-3.368515588103e+00 -1.044432417188e+02 0.0 
0.0 0.0 -4.273422677812e+01 
-1.329673570494e+02 5.540663394735e+00 0.0 
5.540663394735e+00 -2.991867768250e+02 0.0 
0.0 0.0 -1.327828724907e+02 
-1.447867928239e+02 7.355968746083e+00 0.0 
7.355968746083e+00 -3.234112640425e+02 0.0 
0.0 0.0 -1.444843772554e+02 
-1.144921475103e+02 1.337397882788e+01 0.0 
1.337397882788e+01 -2.575020028144e+02 0.0 
0.0 0.0 -1.132521922618e+02 
-7.871865050014e+01 1.141302617473e+01 0.0 
1.141302617473e+01 -1.158175509409e+02 0.0 
0.0 0.0 -5.796086043230e+01 
-1.157807051915e+02 2.961192251683e+01 0.0 
2.961192251683e+01 -2.439465997230e+02 0.0 
0.0 0.0 -1.092698135943e+02 
-1.459229181140e+02 8.424248760465e+00 0.0 
8.424248760465e+00 -3.254915474393e+02 0.0 
0.0 0.0 -1.455285705188e+02 
-2.130154285850e+01 1.441242591450e+01 0.0 
1.441242591450e+01 -1.896778888101e+01 0.0 
0.0 0.0 -1.168079952185e+01 
-7.633408259457e+01 1.195298007725e+01 0.0 
1.195298007725e+01 -9.531482105946e+01 0.0 
0.0 0.0 -5.109467109621e+01 
-1.327490324014e+02 2.695401489038e+01 0.0 
2.695401489038e+01 -2.850396085766e+02 0.0 
0.0 0.0 -1.281191769320e+02 
-7.802993255462e+01 1.168903242853e+01 0.0 
1.168903242853e+01 -1.241534601966e+02 0.0 
0.0 0.0 -6.025501782537e+01 
-1.055810353105e+02 1.201552826276e+01 0.0 
1.201552826276e+01 -2.394891092064e+02 0.0 
0.0 0.0 -1.045114294343e+02 
-8.104345470186e+01 7.851098250989e+00 0.0 
7.851098250989e+00 -1.900051688594e+02 0.0 
0.0 0.0 -8.091458706838e+01 
-1.002498147857e+02 -2.883813830256e+00 0.0 
-2.883813830256e+00 -2.314982753009e+02 0.0 
0.0 0.0 -1.001864816914e+02 
-1.967598220791e+01 1.689268375347e+00 0.0 
1.689268375347e+00 -5.954020693779e+01 0.0 
0.0 0.0 -2.336485674371e+01 
-7.896702589877e+01 1.136755764087e+01 0.0 
1.136755764087e+01 -1.346019165912e+02 0.0 
0.0 0.0 -6.367068274698e+01 
-4.740983039948e+01 -3.196221670399e+00 0.0 
-3.196221670399e+00 -1.213465326058e+02 0.0 
0.0 0.0 -5.022690890160e+01 
-1.962441279588e+01 1.384587887081e+01 0.0 
1.384587887081e+01 -1.687285027261e+01 0.0 
0.0 0.0 -1.054917892055e+01 
-1.100822229615e+02 3.027575461728e+01 0.0 
3.027575461728e+01 -2.299257310989e+02 0.0 
0.0 0.0 -1.028680110484e+02 
-8.108497500214e+01 1.050889585505e+01 0.0 
1.050889585505e+01 -1.568546121913e+02 0.0 
0.0 0.0 -7.098187615802e+01 
-3.518522990353e+01 -4.048256753768e+00 0.0 
-4.048256753768e+00 -9.550762319393e+01 0.0 
0.0 0.0 -3.880785592924e+01 
-8.253409821126e+01 2.990694302007e+01 0.0 
2.990694302007e+01 -1.649269328779e+02 0.0 
0.0 0.0 -7.383830932674e+01 
-7.596872010496e+01 1.209874103199e+01 0.0 
1.209874103199e+01 -1.041661382938e+02 0.0 
0.0 0.0 -5.364045751963e+01 
-9.814451902108e+01 -1.038572918282e+00 0.0 
-1.038572918282e+00 -2.272880267252e+02 0.0 
0.0 0.0 -9.813616735110e+01 
-3.711076180667e+01 -2.005046624381e+00 0.0 
-2.005046624381e+00 -1.001501452086e+02 0.0 
0.0 0.0 -4.077827210458e+01 
-4.954368488290e+01 1.579407228381e+01 0.0 
1.579407228381e+01 -1.151007144308e+02 0.0 
0.0 0.0 -4.899331979411e+01 
-2.447374102616e+01 -5.074028051910e+00 0.0 
-5.074028051910e+00 -7.242199614932e+01 0.0 
0.0 0.0 -2.866872115264e+01 
-3.303948661274e+01 -3.693200996116e+00 0.0 
-3.693200996116e+00 -9.115696650105e+01 0.0 
0.0 0.0 -3.685893593414e+01 
-2.887370064463e+01 -4.253951391182e+00 0.0 
-4.253951391182e+00 -8.217172487768e+01 0.0 
0.0 0.0 -3.291362765669e+01 
-9.666069437909e+01 1.062235427728e+01 0.0 
1.062235427728e+01 -2.214619464823e+02 0.0 
0.0 0.0 -9.576303813154e+01 
-1.171907696305e+02 3.910269843734e+01 0.0 
3.910269843734e+01 -2.289887962368e+02 0.0 
0.0 0.0 -1.048715983099e+02 
-1.795952761461e+01 1.343064360489e+01 0.0 
1.343064360489e+01 -1.598712920968e+01 0.0 
0.0 0.0 -9.783997047287e+00 
-1.461240456466e+02 2.770622539578e+00 0.0 
2.770622539578e+00 -3.269939502485e+02 0.0 
0.0 0.0 -1.460816143264e+02 
-6.563581761908e+01 7.135771278470e+00 0.0 
7.135771278470e+00 -1.579983840293e+02 0.0 
0.0 0.0 -6.669026049450e+01 
-8.113619307585e+01 1.669884905839e+01 0.0 
1.669884905839e+01 -9.831356717617e+01 0.0 
0.0 0.0 -5.343492807561e+01 
-2.550847384719e+01 9.948296814848e-01 0.0 
9.948296814848e-01 -7.615019190692e+01 0.0 
0.0 0.0 -3.009759972623e+01 
-1.498469382441e+02 1.031568582350e+01 0.0 
1.031568582350e+01 -3.330861206122e+02 0.0 
0.0 0.0 -1.492680323540e+02 
-3.181138598465e+01 -5.234824673839e+00 0.0 
-5.234824673839e+00 -8.782825954132e+01 0.0 
0.0 0.0 -3.549189365779e+01 
-5.748602373340e+01 -3.608133758713e+00 0.0 
-3.608133758713e+00 -1.422604780276e+02 0.0 
0.0 0.0 -5.952395052828e+01 
-1.181945553911e+02 1.579525498532e+01 0.0 
1.579525498532e+01 -2.638064182449e+02 0.0 
0.0 0.0 -1.165008644633e+02 
-8.824327111008e+01 2.864045121077e+00 0.0 
2.864045121077e+00 -2.065028439773e+02 0.0 
0.0 0.0 -8.817394945801e+01 
-1.295506414493e+02 2.418523270773e+01 0.0 
2.418523270773e+01 -2.810426379676e+02 0.0 
0.0 0.0 -1.257832337105e+02 
-5.295684232653e+01 2.216086242771e+01 0.0 
2.216086242771e+01 -1.098644008773e+02 0.0 
0.0 0.0 -4.844637296116e+01 
-9.155606470666e+01 2.517125567383e+01 0.0 
2.517125567383e+01 -1.282935613619e+02 0.0 
0.0 0.0 -6.555488782057e+01 
-1.392652190963e+02 2.128816929239e+01 0.0 
2.128816929239e+01 -3.045461445882e+02 0.0 
0.0 0.0 -1.365673420723e+02 
-7.015131622433e+01 8.666910767072e+00 0.0 
8.666910767072e+00 -9.216131553619e+01 0.0 
0.0 0.0 -4.829378952816e+01 
-1.120849891956e+02 3.911749587606e+01 0.0 
3.911749587606e+01 -2.023913559335e+02 0.0 
0.0 0.0 -9.394290353873e+01 
-8.864750555327e+01 1.882910562407e+01 0.0 
1.882910562407e+01 -1.297315195195e+02 0.0 
0.0 0.0 -6.511370752182e+01 
-9.364436524787e+01 2.277979667178e+01 0.0 
2.277979667178e+01 -1.434908085392e+02 0.0 
0.0 0.0 -7.074055213613e+01 
-3.040162692353e+01 7.971107813334e+00 0.0 
7.971107813334e+00 -8.273248176046e+01 0.0 
0.0 0.0 -3.354023260520e+01 
-1.417220093846e+02 1.515299317098e+00 0.0 
1.515299317098e+00 -3.179270419204e+02 0.0 
0.0 0.0 -1.417089793240e+02 
-8.169311894957e+01 1.599083346036e+01 0.0 
1.599083346036e+01 -1.176653377505e+02 0.0 
0.0 0.0 -5.940753701003e+01 
-8.098034753901e+01 1.320595729883e+01 0.0 
1.320595729883e+01 -1.865983919894e+02 0.0 
0.0 0.0 -7.987362185853e+01 
-1.778888493828e+01 1.349517892030e+01 0.0 
1.349517892030e+01 -1.641869857369e+01 0.0 
0.0 0.0 -9.862275053591e+00 
-1.434613250963e+02 2.449033527242e+01 0.0 
2.449033527242e+01 -3.107700755631e+02 0.0 
0.0 0.0 -1.399501623147e+02 
-3.801765180632e+01 3.449002087401e+00 0.0 
3.449002087401e+00 -1.016588967684e+02 0.0 
0.0 0.0 -4.150296457241e+01 
-5.329743841051e+01 -1.415123486132e+00 0.0 
-1.415123486132e+00 -1.339427561564e+02 0.0 
0.0 0.0 -5.577205837007e+01 
-1.253109257203e+02 2.106164036694e+01 0.0 
2.106164036694e+01 -2.748654629197e+02 0.0 
0.0 0.0 -1.224014348678e+02 
-2.670631096684e+01 8.762343825252e-01 0.0 
8.762343825252e-01 -7.865669290207e+01 0.0 
0.0 0.0 -3.120890116067e+01 
-7.794897684261e+01 2.133478768591e+01 0.0 
2.133478768591e+01 -1.709442399712e+02 0.0 
0.0 0.0 -7.426796504413e+01 
-1.233318798407e+02 1.467491495373e+01 0.0 
1.467491495373e+01 -2.753879098128e+02 0.0 
0.0 0.0 -1.219285562640e+02 
-9.786937730709e+01 2.553489114939e+01 0.0 
2.553489114939e+01 -1.652589571169e+02 0.0 
0.0 0.0 -7.853850032720e+01 
-1.027246561024e+02 3.003406391220e+01 0.0 
3.003406391220e+01 -1.810023587539e+02 0.0 
0.0 0.0 -8.471810445688e+01 
-1.191835469739e+02 1.614986587454e+01 0.0 
1.614986587454e+01 -2.656611927559e+02 0.0 
0.0 0.0 -1.174240809096e+02 
-8.899187225895e+01 1.811357652502e+01 0.0 
1.811357652502e+01 -1.392452399302e+02 0.0 
0.0 0.0 -6.807113365675e+01 
-6.938973642861e+01 9.469425737387e+00 0.0 
9.469425737387e+00 -1.646235215988e+02 0.0 
0.0 0.0 -6.980397740823e+01 
-1.080811770738e+02 3.281548098071e+01 0.0 
3.281548098071e+01 -2.206513705651e+02 0.0 
0.0 0.0 -9.920455485128e+01 
-1.938944883156e+01 1.375995236522e+01 0.0 
1.375995236522e+01 -1.662412677100e+01 0.0 
0.0 0.0 -1.040407268077e+01 
-1.128841528113e+02 3.797531661194e+01 0.0 
3.797531661194e+01 -2.209942176396e+02 0.0 
0.0 0.0 -1.008780680605e+02 
-2.531303086585e+01 1.475925908541e+01 0.0 
1.475925908541e+01 -1.832834041378e+01 0.0 
0.0 0.0 -1.269241138389e+01 
-3.279454905696e+01 1.557275184708e+01 0.0 
1.557275184708e+01 -2.017485366330e+01 0.0 
0.0 0.0 -1.549082081608e+01 
-8.251384995465e+01 9.977231997566e+00 0.0 
9.977231997566e+00 -1.920203531630e+02 0.0 
0.0 0.0 -8.196026093530e+01 
-5.202746709073e+01 1.600939845188e+01 0.0 
1.600939845188e+01 -2.485804257338e+01 0.0 
0.0 0.0 -2.266565289923e+01 
-9.122272882953e+01 2.063224883924e+01 0.0 
2.063224883924e+01 -2.014040803857e+02 0.0 
0.0 0.0 -8.748592591058e+01 
-7.036261163247e+01 1.499422286741e+01 0.0 
1.499422286741e+01 -1.621672229886e+02 0.0 
0.0 0.0 -6.935895038633e+01 
-8.614109435685e+01 7.213194381994e+00 0.0 
7.213194381994e+00 -2.009528061334e+02 0.0 
0.0 0.0 -8.572817014709e+01 
-3.321960936981e+01 -2.221167822270e+00 0.0 
-2.221167822270e+00 -9.199349904639e+01 0.0 
0.0 0.0 -3.716393252486e+01 
-7.881852077994e+01 7.755307017602e+00 0.0 
7.755307017602e+00 -1.853808165994e+02 0.0 
0.0 0.0 -7.885980121380e+01 
-8.317481947831e+01 1.464388606872e+01 0.0 
1.464388606872e+01 -1.460947528637e+02 0.0 
0.0 0.0 -6.838087170261e+01 
-1.118354500124e+02 3.926785272039e+01 0.0 
3.926785272039e+01 -2.149906151326e+02 0.0 
0.0 0.0 -9.858856743771e+01 
-1.326207667372e+02 7.430985144418e-01 0.0 
7.430985144418e-01 -2.990238143960e+02 0.0 
0.0 0.0 -1.326174483821e+02 
-1.341829099729e+02 2.251314890173e+01 0.0 
2.251314890173e+01 -2.926212655697e+02 0.0 
0.0 0.0 -1.310460315002e+02 
-8.626495635208e+01 2.391596388683e+00 0.0 
2.391596388683e+00 -2.024493461174e+02 0.0 
0.0 0.0 -8.621574740261e+01 
-8.743622321767e+01 1.929963255384e+01 0.0 
1.929963255384e+01 -1.402482381999e+02 0.0 
0.0 0.0 -6.790533842528e+01 
-8.400737450398e+01 7.072409257921e+00 0.0 
7.072409257921e+00 -1.965407572922e+02 0.0 
0.0 0.0 -8.376443953885e+01 
-1.463898624533e+02 1.144031527160e+00 0.0 
1.144031527160e+00 -3.276553843447e+02 0.0 
0.0 0.0 -1.463826423488e+02 
-8.226518197973e+01 1.551048025823e+01 0.0 
1.551048025823e+01 -1.264556925744e+02 0.0 
0.0 0.0 -6.221626236624e+01 
-9.289158277949e+01 2.388541813008e+01 0.0 
2.388541813008e+01 -1.355405013631e+02 0.0 
0.0 0.0 -6.812962524278e+01 
-1.107215145994e+02 1.108497945339e+01 0.0 
1.108497945339e+01 -2.507919765754e+02 0.0 
0.0 0.0 -1.098496912908e+02 
-7.376373382200e+01 8.455291742503e+00 0.0 
8.455291742503e+00 -1.744223456546e+02 0.0 
0.0 0.0 -7.405582384297e+01 
-1.170566319690e+02 3.451974124465e+01 0.0 
3.451974124465e+01 -2.385560971287e+02 0.0 
0.0 0.0 -1.079340342305e+02 
-8.716025078785e+01 3.289686542449e+01 0.0 
3.289686542449e+01 -1.584009564603e+02 0.0 
0.0 0.0 -7.326836217445e+01 
-3.292022913238e+01 -3.076987280190e+00 0.0 
-3.076987280190e+00 -9.112927675223e+01 0.0 
0.0 0.0 -3.681485176538e+01 
-3.665992865385e+01 1.322591029485e+00 0.0 
1.322591029485e+00 -9.932257734722e+01 0.0 
0.0 0.0 -4.039475180032e+01 
-5.731372690546e+01 2.088927122776e+01 0.0 
2.088927122776e+01 -1.238469682513e+02 0.0 
0.0 0.0 -5.394820854702e+01 
-8.302390218316e+01 2.919784889707e+01 0.0 
2.919784889707e+01 -1.679107248752e+02 0.0 
0.0 0.0 -7.488038811750e+01 
-1.511862964027e+02 8.285286943895e-01 0.0 
8.285286943895e-01 -3.376442147097e+02 0.0 
0.0 0.0 -1.511826148951e+02 
-8.780325576072e+01 1.978488697892e+01 0.0 
1.978488697892e+01 -1.209111531632e+02 0.0 
0.0 0.0 -6.221432267718e+01 
-7.551940517068e+01 8.293637503572e+00 0.0 
8.293637503572e+00 -1.781969451622e+02 0.0 
0.0 0.0 -7.571490509987e+01 
-9.396623414826e+01 3.286231799022e+01 0.0 
3.286231799022e+01 -1.862635737862e+02 0.0 
0.0 0.0 -8.366894238033e+01 
-1.283185185666e+02 1.366280251307e+01 0.0 
1.366280251307e+01 -2.864752335726e+02 0.0 
0.0 0.0 -1.271468991357e+02 
-8.450669152692e+01 1.408047382798e+01 0.0 
1.408047382798e+01 -1.374345065505e+02 0.0 
0.0 0.0 -6.618235942324e+01 
-1.202739513638e+02 3.643651846799e+01 0.0 
3.643651846799e+01 -2.424109873261e+02 0.0 
0.0 0.0 -1.102299966943e+02 
-7.320165175351e+01 1.325195926066e+01 0.0 
1.325195926066e+01 -8.627639018615e+01 0.0 
0.0 0.0 -4.744341258190e+01 
-1.350596620184e+02 9.314198372031e+00 0.0 
9.314198372031e+00 -3.025167324556e+02 0.0 
0.0 0.0 -1.345431861019e+02 
-8.970055126947e+01 9.294251760857e+00 0.0 
9.294251760857e+00 -2.075030826414e+02 0.0 
0.0 0.0 -8.897177238725e+01 
-1.294721455526e+02 1.409624444310e+01 0.0 
1.409624444310e+01 -2.886689971210e+02 0.0 
0.0 0.0 -1.282336150933e+02 
-8.069265571052e+01 2.300539588606e+01 0.0 
2.300539588606e+01 -1.745784653311e+02 0.0 
0.0 0.0 -7.618133631249e+01 
-9.338867239099e+01 2.089834128584e+01 0.0 
2.089834128584e+01 -1.611600984158e+02 0.0 
0.0 0.0 -7.596463124202e+01 
-1.244346796249e+02 3.856271349079e+01 0.0 
3.856271349079e+01 -2.479691714607e+02 0.0 
0.0 0.0 -1.133851998539e+02 
-1.018237139777e+02 9.763938687633e+00 0.0 
9.763938687633e+00 -2.327367059367e+02 0.0 
0.0 0.0 -1.010994924890e+02 
-3.387620922131e+01 1.227495840593e+00 0.0 
1.227495840593e+00 -9.353985083159e+01 0.0 
0.0 0.0 -3.782481801587e+01 
-1.211997383604e+02 2.826823017180e+01 0.0 
2.826823017180e+01 -2.579899762733e+02 0.0 
0.0 0.0 -1.155882013046e+02 
-8.506243276890e+01 2.151657437064e+01 0.0 
2.151657437064e+01 -1.866391883732e+02 0.0 
0.0 0.0 -8.111048634263e+01 
-6.907560448447e+01 8.368305541256e+00 0.0 
8.368305541256e+00 -1.646011965231e+02 0.0 
0.0 0.0 -6.970304030225e+01 
-1.070862890973e+02 1.228162645229e+01 0.0 
1.228162645229e+01 -2.425120664720e+02 0.0 
0.0 0.0 -1.059814937005e+02 
-1.321980386432e+02 8.044181142644e+00 0.0 
8.044181142644e+00 -2.969476687318e+02 0.0 
0.0 0.0 -1.318061997510e+02 
-3.251231192506e+01 -8.604149866681e-01 0.0 
-8.604149866681e-01 -9.074116397877e+01 0.0 
0.0 0.0 -3.657604277115e+01 
-9.290986817985e+01 8.424811437317e+00 0.0 
8.424811437317e+00 -2.146366540485e+02 0.0 
0.0 0.0 -9.232954664937e+01 
-8.818842826852e+01 3.177824631818e+01 0.0 
3.177824631818e+01 -1.448867995065e+02 0.0 
0.0 0.0 -6.952256833250e+01 
-1.521782570490e+02 2.125696578220e+00 0.0 
2.125696578220e+00 -3.396448759376e+02 0.0 
0.0 0.0 -1.521541567311e+02 
-9.297222832602e+01 3.360209726322e+01 0.0 
3.360209726322e+01 -1.628899130534e+02 0.0 
0.0 0.0 -7.635864241382e+01 
-1.157352706864e+02 2.933213151072e+01 0.0 
2.933213151072e+01 -2.442625603284e+02 0.0 
0.0 0.0 -1.093576387307e+02 
-8.359932345350e+01 2.964522004173e+01 0.0 
2.964522004173e+01 -1.264451619768e+02 0.0 
0.0 0.0 -6.261334562910e+01 
-7.345992147359e+01 2.324994582441e+01 0.0 
2.324994582441e+01 -8.712156689253e+01 0.0 
0.0 0.0 -4.777444650984e+01 
-9.207564745298e+01 3.360979429976e+01 0.0 
3.360979429976e+01 -1.755325191566e+02 0.0 
0.0 0.0 -7.988244998286e+01 
-1.305602511051e+02 1.988247647443e+01 0.0 
1.988247647443e+01 -2.870900116109e+02 0.0 
0.0 0.0 -1.280742530237e+02 
-1.382051695897e+02 3.075508588253e+00 0.0 
3.075508588253e+00 -3.104820961349e+02 0.0 
0.0 0.0 -1.381502827242e+02 
-8.080532959404e+01 1.683019592600e+01 0.0 
1.683019592600e+01 -1.095593503531e+02 0.0 
0.0 0.0 -5.670940398413e+01 
-9.694717821591e+01 2.681388080977e+01 0.0 
2.681388080977e+01 -1.779670851080e+02 0.0 
0.0 0.0 -8.207427899717e+01 
-7.900024012336e+01 2.697034000616e+01 0.0 
2.697034000616e+01 -1.073117783521e+02 0.0 
0.0 0.0 -5.549360554264e+01 
-5.631911062983e+01 4.346800879790e+00 0.0 
4.346800879790e+00 -1.396082606117e+02 0.0 
0.0 0.0 -5.837821137247e+01 
-1.246489155037e+02 3.115967027287e+01 0.0 
3.115967027287e+01 -2.616454296111e+02 0.0 
0.0 0.0 -1.178946890708e+02 
-8.926143950941e+01 1.681024061976e+01 0.0 
1.681024061976e+01 -1.593699443584e+02 0.0 
0.0 0.0 -7.418941516035e+01 
-8.026998204605e+01 1.727686008050e+01 0.0 
1.727686008050e+01 -1.812789797809e+02 0.0 
0.0 0.0 -7.806468854809e+01 
-8.376841868418e+01 2.001805202511e+01 0.0 
2.001805202511e+01 -1.857359299134e+02 0.0 
0.0 0.0 -8.045130457928e+01 
-6.583398515446e+01 6.211619134615e+00 0.0 
6.211619134615e+00 -1.588263499366e+02 0.0 
0.0 0.0 -6.699810052733e+01 
-8.632670131730e+01 2.106347888849e+01 0.0 
2.106347888849e+01 -1.252919273393e+02 0.0 
0.0 0.0 -6.308558859699e+01 
-6.021523253219e+01 2.654811538558e+01 0.0 
2.654811538558e+01 -1.155013525774e+02 0.0 
0.0 0.0 -5.231497553288e+01 
-9.635305157312e+01 1.997416006274e+01 0.0 
1.997416006274e+01 -2.133745827762e+02 0.0 
0.0 0.0 -9.303763532999e+01 
-5.968401226900e+01 2.666150880097e+01 0.0 
2.666150880097e+01 -1.135161890926e+02 0.0 
0.0 0.0 -5.156006040849e+01 
-1.217520732071e+02 1.842181816692e+01 0.0 
1.842181816692e+01 -2.694535490418e+02 0.0 
0.0 0.0 -1.194891140949e+02 
-1.336261320069e+02 3.267729119455e+01 0.0 
3.267729119455e+01 -2.796248486425e+02 0.0 
0.0 0.0 -1.266460449989e+02 
-7.210109966111e+01 6.243139002867e+00 0.0 
6.243139002867e+00 -1.719382343240e+02 0.0 
0.0 0.0 -7.281180019552e+01 
-1.799987374768e+01 -6.196112607509e-01 0.0 
-6.196112607509e-01 -5.829594100821e+01 0.0 
0.0 0.0 -2.248874442677e+01 
-1.021267013622e+02 3.156377368411e+01 0.0 
3.156377368411e+01 -1.873796708678e+02 0.0 
0.0 0.0 -8.645191166900e+01 
-6.263884759241e+01 2.767745499767e+01 0.0 
2.767745499767e+01 -1.182567863406e+02 0.0 
0.0 0.0 -5.386869017990e+01 
-9.025408022897e+01 3.967011207556e+00 0.0 
3.967011207556e+00 -2.104967174250e+02 0.0 
0.0 0.0 -9.012334385884e+01 
-1.299412189991e+02 2.966406564592e+01 0.0 
2.966406564592e+01 -2.755603873241e+02 0.0 
0.0 0.0 -1.241302439130e+02 
-8.655062142001e+01 2.102360291469e+01 0.0 
2.102360291469e+01 -1.127181755013e+02 0.0 
0.0 0.0 -5.938063907639e+01 
-1.335205277114e+02 3.498905570331e+00 0.0 
3.498905570331e+00 -3.006802986404e+02 0.0 
0.0 0.0 -1.334473224115e+02 
-6.673920379806e+01 1.196381057752e+01 0.0 
1.196381057752e+01 -1.571899318402e+02 0.0 
0.0 0.0 -6.677874069148e+01 
-1.842080873681e+01 7.737672587652e-01 0.0 
7.737672587652e-01 -5.013702965177e+01 0.0 
0.0 0.0 -2.016735151657e+01 
-1.571854540413e+02 1.976027110820e+00 0.0 
1.976027110820e+00 -3.500731400311e+02 0.0 
0.0 0.0 -1.571652128661e+02 
-8.775892499581e+01 2.806652296951e+01 0.0 
2.806652296951e+01 -1.818881709742e+02 0.0 
0.0 0.0 -8.049412879100e+01 
-1.118561836623e+02 2.082236747011e+01 0.0 
2.082236747011e+01 -2.461192059832e+02 0.0 
0.0 0.0 -1.087010618280e+02 
-1.226724763196e+02 3.366028136872e+01 0.0 
3.366028136872e+01 -2.531709464069e+02 0.0 
0.0 0.0 -1.145018420116e+02 
-1.969455343202e+01 2.073593388994e+00 0.0 
2.073593388994e+00 -3.343601750847e+01 0.0 
0.0 0.0 -1.553917128215e+01 
-1.322601590342e+02 2.452809096526e+00 0.0 
2.452809096526e+00 -2.981721983098e+02 0.0 
0.0 0.0 -1.322239051364e+02 
-4.552988729306e+01 1.195766204516e+01 0.0 
1.195766204516e+01 -1.113790872146e+02 0.0 
0.0 0.0 -4.667269235230e+01 
-7.983320577254e+01 1.793370550517e+01 0.0 
1.793370550517e+01 -8.985789762711e+01 0.0 
0.0 0.0 -5.050733101990e+01 
-1.070698099354e+02 -3.859995634825e-01 0.0 
-3.859995634825e-01 -2.458775591367e+02 0.0 
0.0 0.0 -1.070687365478e+02 
-7.006522042359e+01 6.300771199599e+00 0.0 
6.300771199599e+00 -1.676530109634e+02 0.0 
0.0 0.0 -7.091546941609e+01 
-1.474540849910e+02 2.351367244477e+00 0.0 
2.351367244477e+00 -3.297981233074e+02 0.0 
0.0 0.0 -1.474237686237e+02 
-9.127871607435e+01 2.095850458974e+01 0.0 
2.095850458974e+01 -2.011325972491e+02 0.0 
0.0 0.0 -8.741596609503e+01 
-6.183534003125e+01 4.975884570206e+00 0.0 
4.975884570206e+00 -1.509270712318e+02 0.0 
0.0 0.0 -6.342872337891e+01 
-8.981088960809e+01 3.047666340059e+01 0.0 
3.047666340059e+01 -1.816625860330e+02 0.0 
0.0 0.0 -8.104204269233e+01 
-1.730945523119e+01 -2.483632076450e+00 0.0 
-2.483632076450e+00 -4.883013779290e+01 0.0 
0.0 0.0 -1.944187790723e+01 
-1.043544260856e+02 3.072201833142e+01 0.0 
3.072201833142e+01 -2.158907340394e+02 0.0 
0.0 0.0 -9.645210489270e+01 
-1.226338881400e+02 1.873146301497e+01 0.0 
1.873146301497e+01 -2.710908397215e+02 0.0 
0.0 0.0 -1.203069309106e+02 
-1.273084057439e+02 4.053898926474e+01 0.0 
4.053898926474e+01 -2.506046290433e+02 0.0 
0.0 0.0 -1.151737326767e+02 
-1.135188859217e+02 3.240687449894e+01 0.0 
3.240687449894e+01 -2.341843881038e+02 0.0 
0.0 0.0 -1.053662636181e+02 
-4.440768581419e+01 1.418334125673e+00 0.0 
1.418334125673e+00 -1.154388363870e+02 0.0 
0.0 0.0 -4.755395666035e+01 
-1.339034280515e+02 1.882760880333e+00 0.0 
1.882760880333e+00 -3.016372431838e+02 0.0 
0.0 0.0 -1.338822972973e+02 
-8.731701195686e+01 1.760583588921e+01 0.0 
1.760583588921e+01 -1.679678594553e+02 0.0 
0.0 0.0 -7.618546142364e+01 
-1.466393335195e+02 2.706083347675e+01 0.0 
2.706083347675e+01 -3.151383753356e+02 0.0 
0.0 0.0 -1.424000388536e+02 
-1.261245292674e+02 2.147724667775e+01 0.0 
2.147724667775e+01 -2.762412763494e+02 0.0 
0.0 0.0 -1.231122196842e+02 
-7.219761021323e+01 1.072836402043e+01 0.0 
1.072836402043e+01 -1.697453578188e+02 0.0 
0.0 0.0 -7.218289040960e+01 
-9.583461157267e+01 2.976238869107e+01 0.0 
2.976238869107e+01 -1.976830570767e+02 0.0 
0.0 0.0 -8.777513959897e+01 
-1.510960972339e+02 -2.241708141610e-01 0.0 
-2.241708141610e-01 -3.374670846119e+02 0.0 
0.0 0.0 -1.510958275970e+02 
-1.005844267414e+02 -7.221671568266e-01 0.0 
-7.221671568266e-01 -2.300402746585e+02 0.0 
0.0 0.0 -9.945710654766e+01 
-1.103973874712e+02 2.985202911547e+01 0.0 
2.985202911547e+01 -2.313434535053e+02 0.0 
0.0 0.0 -1.034305853417e+02 
-7.472705078757e+01 1.251418631062e+01 0.0 
1.251418631062e+01 -9.490386085294e+01 0.0 
0.0 0.0 -5.048927349215e+01 
-1.428011944026e+02 2.669136562852e+00 0.0 
2.669136562852e+00 -3.200884331865e+02 0.0 
0.0 0.0 -1.427610184940e+02 
-1.376942039731e+02 4.926842281783e+00 0.0 
4.926842281783e+00 -3.091524874805e+02 0.0 
0.0 0.0 -1.375527481936e+02 
-2.830073597016e+01 5.178769261348e-02 0.0 
5.178769261348e-02 -8.293253159367e+00 0.0 
0.0 0.0 -1.057819673886e+01 
-2.820844128001e+01 -9.583654279413e-03 0.0 
-9.583654279413e-03 -8.282597842470e+00 0.0 
0.0 0.0 -1.054731173674e+01 
-9.383450428804e+01 3.475854453361e+01 0.0 
3.475854453361e+01 -1.496183753767e+02 0.0 
0.0 0.0 -7.263586389941e+01 
-1.015115408297e+02 2.819459927257e+01 0.0 
2.819459927257e+01 -2.137237934771e+02 0.0 
0.0 0.0 -9.482568646164e+01 
-1.115864807260e+02 -6.153751186260e-01 0.0 
-6.153751186260e-01 -2.552686917854e+02 0.0 
0.0 0.0 -1.115838451903e+02 
-9.755007418638e+01 3.663314823121e+01 0.0 
3.663314823121e+01 -1.791024747783e+02 0.0 
0.0 0.0 -8.259576468941e+01 
-8.778049428044e+01 1.826870169376e+01 0.0 
1.826870169376e+01 -1.965551974939e+02 0.0 
0.0 0.0 -8.490070753230e+01 
-1.417963201968e+02 1.385215668150e+01 0.0 
1.385215668150e+01 -3.147255398467e+02 0.0 
0.0 0.0 -1.406937501145e+02 
-7.309385422926e+01 1.194956877375e+01 0.0 
1.194956877375e+01 -1.707634465302e+02 0.0 
0.0 0.0 -7.275719022784e+01 
-1.098658725300e+02 3.467383760607e+01 0.0 
3.467383760607e+01 -2.211405034078e+02 0.0 
0.0 0.0 -9.994568737915e+01 
-6.694805801320e+01 2.135509328880e+01 0.0 
2.135509328880e+01 -6.461878621254e+01 0.0 
0.0 0.0 -3.907005326772e+01 
-8.181074876961e+01 1.871158804298e+01 0.0 
1.871158804298e+01 -1.830202868559e+02 0.0 
0.0 0.0 -7.904931068765e+01 
-1.052054583492e+02 -1.311469592383e+00 0.0 
-1.311469592383e+00 -2.419637544016e+02 0.0 
0.0 0.0 -1.051928829194e+02 
-4.088057663782e+01 3.797592686503e+00 0.0 
3.797592686503e+00 -1.075242366098e+02 0.0 
0.0 0.0 -4.412144397429e+01 
-9.364975372556e+01 -7.663472656833e-01 0.0 
-7.663472656833e-01 -2.179488241418e+02 0.0 
0.0 0.0 -9.364502910608e+01 
-9.413831520388e+01 2.763106370782e+01 0.0 
2.763106370782e+01 -1.976901393349e+02 0.0 
0.0 0.0 -8.722674349439e+01 
-8.594867352514e+01 3.087552092590e+01 0.0 
3.087552092590e+01 -1.710828606256e+02 0.0 
0.0 0.0 -7.670946024522e+01 
-7.966481709429e+01 1.802197119374e+01 0.0 
1.802197119374e+01 -1.023048504652e+02 0.0 
0.0 0.0 -5.419090026784e+01 
-1.003257121233e+02 3.526911733716e+01 0.0 
3.526911733716e+01 -1.943823013590e+02 0.0 
0.0 0.0 -8.801240404469e+01 
-1.061182537966e+02 3.838486843532e+01 0.0 
3.838486843532e+01 -1.983682072310e+02 0.0 
0.0 0.0 -9.094593830827e+01 
-1.660722404534e+01 4.151496461240e-01 0.0 
4.151496461240e-01 -5.768034131445e+01 0.0 
0.0 0.0 -2.188626960794e+01 
-8.697114133337e+01 -2.305434348368e+00 0.0 
-2.305434348368e+00 -2.039300621894e+02 0.0 
0.0 0.0 -8.692571543526e+01 
-6.284967392225e+01 2.871299065987e+01 0.0 
2.871299065987e+01 -1.144673782790e+02 0.0 
0.0 0.0 -5.279511566038e+01 
-9.006611733813e+01 3.337919733982e+01 0.0 
3.337919733982e+01 -1.604602894539e+02 0.0 
0.0 0.0 -7.475792203760e+01 
-9.566108730252e+01 3.644569400290e+01 0.0 
3.644569400290e+01 -1.648311299080e+02 0.0 
0.0 0.0 -7.774766516316e+01 
-1.355085899413e+02 1.849257127823e+01 0.0 
1.849257127823e+01 -2.986661835438e+02 0.0 
0.0 0.0 -1.334388644602e+02 
-3.140127737358e+01 -9.785699474985e-01 0.0 
-9.785699474985e-01 -8.841733476190e+01 0.0 
0.0 0.0 -3.554558364064e+01 
-2.843113266312e+01 -2.643713189870e+00 0.0 
-2.643713189870e+00 -8.188857104156e+01 0.0 
0.0 0.0 -3.269591111140e+01 
-8.425945860286e+01 2.565447826000e+01 0.0 
2.565447826000e+01 -1.782675588570e+02 0.0 
0.0 0.0 -7.835810523796e+01 
-8.922324834552e+01 -1.662208954657e+00 0.0 
-1.662208954657e+00 -2.086837738010e+02 0.0 
0.0 0.0 -8.920012435641e+01 
-2.588042596746e+01 1.442612972432e+01 0.0 
1.442612972432e+01 -1.718883694686e+01 0.0 
0.0 0.0 -1.252077887430e+01 
-2.562188343056e+01 1.261172398998e+01 0.0 
1.261172398998e+01 -1.254261894457e+01 0.0 
0.0 0.0 -1.104935071254e+01 
-8.482629706862e+01 2.254982548609e+01 0.0 
2.254982548609e+01 -1.052620897314e+02 0.0 
0.0 0.0 -5.662651603999e+01 
-2.729227919787e+01 9.008277694595e+00 0.0 
9.008277694595e+00 -7.484040566411e+01 0.0 
0.0 0.0 -3.023980545859e+01 
-1.005793022792e+02 -2.169895265862e+00 0.0 
-2.169895265862e+00 -2.322686825785e+02 0.0 
0.0 0.0 -1.005435578039e+02 
-1.259231766984e+02 1.186506591716e+01 0.0 
1.186506591716e+01 -2.823446746634e+02 0.0 
0.0 0.0 -1.250282934818e+02 
-2.961735964288e+01 -8.159838215791e-01 0.0 
-8.159838215791e-01 -8.472079173576e+01 0.0 
0.0 0.0 -3.390144541359e+01 
-1.416256093439e+02 3.633978864423e+01 0.0 
3.633978864423e+01 -2.921585286992e+02 0.0 
0.0 0.0 -1.333120463420e+02 
-9.341671826101e+01 2.162298022207e+01 0.0 
2.162298022207e+01 -1.515439632512e+02 0.0 
0.0 0.0 -7.308820445367e+01 
-9.812795443951e+01 -1.960745605589e+00 0.0 
-1.960745605589e+00 -2.271875567006e+02 0.0 
0.0 0.0 -9.809817256894e+01 
-1.373146288617e+02 3.990771254860e-01 0.0 
3.990771254860e-01 -3.087957273478e+02 0.0 
0.0 0.0 -1.373137001197e+02 
-9.616637599433e+00 1.196657724282e-01 0.0 
1.196657724282e-01 -4.314956567135e+01 0.0 
0.0 0.0 -1.542986098124e+01 
-1.221790318836e+02 9.687304058252e+00 0.0 
9.687304058252e+00 -2.754335912661e+02 0.0 
0.0 0.0 -1.215691194146e+02 
-8.574880424623e+01 2.762398892881e+01 0.0 
2.762398892881e+01 -1.779951873141e+02 0.0 
0.0 0.0 -7.872319746810e+01 
-9.747326906451e+00 -2.633731565540e-01 0.0 
-2.633731565540e-01 -4.341640590012e+01 0.0 
0.0 0.0 -1.554911984197e+01 
-8.733984379824e+01 1.875689129921e+01 0.0 
1.875689129921e+01 -1.485845593241e+02 0.0 
0.0 0.0 -7.037732093672e+01 
-2.479576501969e+01 -9.164865833186e-01 0.0 
-9.164865833186e-01 -7.467587931146e+01 0.0 
0.0 0.0 -2.944149329934e+01 
-9.248204997323e+01 3.582454616339e+01 0.0 
3.582454616339e+01 -1.620191977342e+02 0.0 
0.0 0.0 -7.595037431223e+01 
-8.625759701727e+01 3.208101280692e+01 0.0 
3.208101280692e+01 -1.686458646754e+02 0.0 
0.0 0.0 -7.607103850779e+01 
-8.738571775410e+01 4.872129564227e+00 0.0 
4.872129564227e+00 -2.043081441667e+02 0.0 
0.0 0.0 -8.718304857913e+01 
-1.089272178136e+02 3.654169297802e+00 0.0 
3.654169297802e+00 -2.494522994699e+02 0.0 
0.0 0.0 -1.088322601296e+02 
-9.192826214927e+01 2.262154642935e+01 0.0 
2.262154642935e+01 -1.624611688221e+02 0.0 
0.0 0.0 -7.591682929142e+01 
-1.178983609714e+02 4.544343528811e+00 0.0 
4.544343528811e+00 -2.679838502849e+02 0.0 
0.0 0.0 -1.177608915840e+02 
-8.729935772208e+01 2.267446475209e+01 0.0 
2.267446475209e+01 -1.900216017814e+02 0.0 
0.0 0.0 -8.279628785104e+01 
-8.181197388444e+01 2.451828444861e+01 0.0 
2.451828444861e+01 -1.746103686549e+02 0.0 
0.0 0.0 -7.652670276181e+01 
-2.296470687119e+01 1.451458363121e+01 0.0 
1.451458363121e+01 -1.810773836370e+01 0.0 
0.0 0.0 -1.192173357047e+01 
-2.133843480126e+01 -9.568205830924e-01 0.0 
-9.568205830924e-01 -6.747441554737e+01 0.0 
0.0 0.0 -2.624385510459e+01 
-1.192788259854e+02 3.210343464978e+01 0.0 
3.210343464978e+01 -2.479817918897e+02 0.0 
0.0 0.0 -1.117154712860e+02 
-7.988414728565e+01 2.650098741539e+01 0.0 
2.650098741539e+01 -9.328854902996e+01 0.0 
0.0 0.0 -5.155180889468e+01 
-1.243686131572e+02 3.090299604364e+01 0.0 
3.090299604364e+01 -2.613922761560e+02 0.0 
0.0 0.0 -1.177215049364e+02 
-4.587365885195e+01 1.323991335447e+01 0.0 
1.323991335447e+01 -1.105503771574e+02 0.0 
0.0 0.0 -4.652721080282e+01 
-9.991425925165e+01 3.300647378906e+01 0.0 
3.300647378906e+01 -1.728993431744e+02 0.0 
0.0 0.0 -8.144408072782e+01 
-1.228565402090e+02 3.422111370442e+01 0.0 
3.422111370442e+01 -2.526279425507e+02 0.0 
0.0 0.0 -1.143853136933e+02 
-7.024100387967e+01 2.641096450877e+01 0.0 
2.641096450877e+01 -4.911850881349e+01 0.0 
0.0 0.0 -3.540785380795e+01 
-1.192874288556e+02 3.146894811561e+01 0.0 
3.146894811561e+01 -2.490263071012e+02 0.0 
0.0 0.0 -1.120573615473e+02 
-1.384924135972e+02 1.562241217524e+00 0.0 
1.562241217524e+00 -3.112051875881e+02 0.0 
0.0 0.0 -1.384782837914e+02 
-9.805841283574e+01 2.589876322158e+01 0.0 
2.589876322158e+01 -2.095009805420e+02 0.0 
0.0 0.0 -9.233372521271e+01 
-9.612333339836e+01 -1.830184805781e+00 0.0 
-1.830184805781e+00 -2.230278326657e+02 0.0 
0.0 0.0 -9.609694442031e+01 
-1.025287929122e+02 -7.524078928294e-02 0.0 
-7.524078928294e-02 -2.364341437365e+02 0.0 
0.0 0.0 -1.025287506348e+02 
-1.087701545282e+02 3.520292568158e+01 0.0 
3.520292568158e+01 -1.916949581462e+02 0.0 
0.0 0.0 -8.973953380232e+01 
-1.000229862473e+02 2.780981612312e+00 0.0 
2.780981612312e+00 -2.310397462120e+02 0.0 
0.0 0.0 -9.996398328176e+01 
-9.105187170041e+01 3.017437181942e+01 0.0 
3.017437181942e+01 -1.853681093566e+02 0.0 
0.0 0.0 -8.252599431711e+01 
-8.959936293998e+01 1.481538021118e+01 0.0 
1.481538021118e+01 -2.037090018102e+02 0.0 
0.0 0.0 -8.770718998723e+01 
-1.269199703445e+02 5.464966348473e+00 0.0 
5.464966348473e+00 -2.865993258239e+02 0.0 
0.0 0.0 -1.267331524795e+02 
-7.848848343043e+01 1.589584189487e+01 0.0 
1.589584189487e+01 -1.788541830341e+02 0.0 
0.0 0.0 -7.680279993935e+01 
-5.014842257968e+01 2.081638643893e+00 0.0 
2.081638643893e+00 -1.272954955739e+02 0.0 
0.0 0.0 -5.283317544606e+01 
-9.802887765585e+01 7.652718539158e+00 0.0 
7.652718539158e+00 -2.256648839024e+02 0.0 
0.0 0.0 -9.757167853377e+01 
-5.405158636474e+01 4.112431423525e+00 0.0 
4.112431423525e+00 -1.349457399311e+02 0.0 
0.0 0.0 -5.629919788874e+01 
-9.500718899026e+01 3.457623607094e+01 0.0 
3.457623607094e+01 -1.776033335160e+02 0.0 
0.0 0.0 -8.138315675189e+01 
-5.287271530869e+01 2.349029225972e+00 0.0 
2.349029225972e+00 -1.329235357557e+02 0.0 
0.0 0.0 -5.533887531931e+01 
-9.417398655788e+01 3.547496612898e+01 0.0 
3.547496612898e+01 -1.767864380277e+02 0.0 
0.0 0.0 -8.088812737566e+01 
-1.311650356305e+02 2.015709348941e+01 0.0 
2.015709348941e+01 -2.881611400051e+02 0.0 
0.0 0.0 -1.286183309538e+02 
-1.270233026340e+02 1.715362933005e+01 0.0 
1.715362933005e+01 -2.815965749611e+02 0.0 
0.0 0.0 -1.251425772862e+02 
-7.672365019639e+01 1.457177942386e+01 0.0 
1.457177942386e+01 -1.763201172369e+02 0.0 
0.0 0.0 -7.551313022998e+01 
-7.812264438251e+01 1.949730689070e+01 0.0 
1.949730689070e+01 -9.620717500445e+01 0.0 
0.0 0.0 -5.189894581609e+01 
-1.419845834992e+02 8.487495083351e-02 0.0 
8.487495083351e-02 -3.185132804151e+02 0.0 
0.0 0.0 -1.419845426914e+02 
-1.431261410792e+02 1.324557246458e+00 0.0 
1.324557246458e+00 -3.208577618192e+02 0.0 
0.0 0.0 -1.431162702725e+02 
-2.090973467119e+01 8.027417564803e+00 0.0 
8.027417564803e+00 -5.723363397298e+01 0.0 
0.0 0.0 -2.304301059325e+01 
-9.726428479066e+01 3.380525345259e+01 0.0 
3.380525345259e+01 -1.916025069606e+02 0.0 
0.0 0.0 -8.626003752539e+01 
-1.565602503678e+02 3.972127007431e-01 0.0 
3.972127007431e-01 -3.488323615465e+02 0.0 
0.0 0.0 -1.565594297743e+02 
-3.672169330736e+01 2.147523812457e+01 0.0 
2.147523812457e+01 -6.073192387884e+01 0.0 
0.0 0.0 -2.883608515586e+01 
-1.070720719165e+02 -1.379050952451e+00 0.0 
-1.379050952451e+00 -2.458433616987e+02 0.0 
0.0 0.0 -1.070583688389e+02 
-2.053960236497e+01 1.388796613697e+01 0.0 
1.388796613697e+01 -1.714676183210e+01 0.0 
0.0 0.0 -1.090590925912e+01 
-1.466941924347e+02 -1.255331394747e-01 0.0 
-1.255331394747e-01 -3.283104489074e+02 0.0 
0.0 0.0 -1.466941056662e+02 
-4.605575853008e+01 3.614189910131e+00 0.0 
3.614189910131e+00 -1.183997005621e+02 0.0 
0.0 0.0 -4.893663772764e+01 
-1.036392030178e+02 -2.123400231126e+00 0.0 
-2.123400231126e+00 -2.356591821230e+02 0.0 
0.0 0.0 -1.021726160103e+02 
-1.107637013192e+02 2.065613476418e+01 0.0 
2.065613476418e+01 -2.439218405963e+02 0.0 
0.0 0.0 -1.076330268947e+02 
-8.295433189310e+01 2.419980056004e+01 0.0 
2.419980056004e+01 -9.913517834664e+01 0.0 
0.0 0.0 -5.422685307192e+01 
-7.691918013134e+01 2.143566631191e+01 0.0 
2.143566631191e+01 -9.108410102192e+01 0.0 
0.0 0.0 -5.000098434598e+01 
-9.074636953630e+01 2.526353767715e+01 0.0 
2.526353767715e+01 -1.938863047886e+02 0.0 
0.0 0.0 -8.498980229748e+01 
-2.704280584692e+01 1.574769267342e+01 0.0 
1.574769267342e+01 -2.136087224435e+01 0.0 
0.0 0.0 -1.412110342738e+01 
-2.655781571950e+01 1.516340556303e+01 0.0 
1.516340556303e+01 -1.942421378190e+01 0.0 
0.0 0.0 -1.339460885042e+01 
-1.476334786459e+02 1.046925074520e+00 0.0 
1.046925074520e+00 -3.302462080366e+02 0.0 
0.0 0.0 -1.476274767856e+02 
-1.144811514162e+02 5.945084180235e+00 0.0 
5.945084180235e+00 -2.605544614519e+02 0.0 
0.0 0.0 -1.142395900113e+02 
-9.604496982621e+01 6.067914185781e+00 0.0 
6.067914185781e+00 -2.220480835336e+02 0.0 
0.0 0.0 -9.575343267625e+01 
-1.207585321388e+02 9.156259665482e+00 0.0 
9.156259665482e+00 -2.726633628948e+02 0.0 
0.0 0.0 -1.202086175339e+02 
-8.911839195689e+01 6.386655935761e+00 0.0 
6.386655935761e+00 -2.074784141808e+02 0.0 
0.0 0.0 -8.877476835747e+01 
-4.825314643810e+01 3.711962205997e+00 0.0 
3.711962205997e+00 -1.229589487341e+02 0.0 
0.0 0.0 -5.096362855165e+01 
-2.149484026016e+01 1.402986865295e+01 0.0 
1.402986865295e+01 -1.678301665502e+01 0.0 
0.0 0.0 -1.108335707456e+01 
-7.238277180579e+01 2.406144566916e+01 0.0 
2.406144566916e+01 -7.026365524114e+01 0.0 
0.0 0.0 -4.239392811408e+01 
-2.843297918272e+01 2.066217168776e-02 0.0 
2.066217168776e-02 -8.366784502494e+00 0.0 
0.0 0.0 -1.063992910557e+01 
-1.276797693303e+02 1.755026149330e+01 0.0 
1.755026149330e+01 -2.827120775479e+02 0.0 
0.0 0.0 -1.257178395021e+02 
-7.530723699359e+01 1.321338936792e+01 0.0 
1.321338936792e+01 -1.744757229049e+02 0.0 
0.0 0.0 -7.453488796956e+01 
-1.427866640470e+02 2.378183033446e+01 0.0 
2.378183033446e+01 -3.099638473115e+02 0.0 
0.0 0.0 -1.394693979646e+02 
-1.466878042439e+02 -1.531667639000e+00 0.0 
-1.531667639000e+00 -3.282576304508e+02 0.0 
0.0 0.0 -1.466748844825e+02 
-9.483567907547e+01 8.636721332697e+00 0.0 
8.636721332697e+00 -2.185826419525e+02 0.0 
0.0 0.0 -9.423580090606e+01 
-1.614303925021e+02 2.717706799023e+00 0.0 
2.717706799023e+00 -3.588509352786e+02 0.0 
0.0 0.0 -1.613929874225e+02 
-5.915220358159e+01 2.566652222993e+00 0.0 
2.566652222993e+00 -1.459652391250e+02 0.0 
0.0 0.0 -6.113523281197e+01 
-1.373046891596e+02 2.533172845632e+01 0.0 
2.533172845632e+01 -2.966736685176e+02 0.0 
0.0 0.0 -1.333750989119e+02 
-8.845429228711e+01 2.436521341712e+01 0.0 
2.436521341712e+01 -1.900935994707e+02 0.0 
0.0 0.0 -8.316436752733e+01 
-1.034082449243e+02 2.504423374966e+01 0.0 
2.504423374966e+01 -2.227287726815e+02 0.0 
0.0 0.0 -9.836487111408e+01 
-1.397079802147e+02 1.210791743613e+01 0.0 
1.210791743613e+01 -3.111565620880e+02 0.0 
0.0 0.0 -1.388571262123e+02 
-7.156142093832e+01 -1.935811594243e+00 0.0 
-1.935811594243e+00 -1.718984389935e+02 0.0 
0.0 0.0 -7.263795797956e+01 
-9.414165151618e+01 3.199636659960e+01 0.0 
3.199636659960e+01 -1.885627652921e+02 0.0 
0.0 0.0 -8.441132504248e+01 
-9.117584791202e+01 6.651549864227e+00 0.0 
6.651549864227e+00 -2.116895460282e+02 0.0 
0.0 0.0 -9.080983845943e+01 
-9.024349976236e+01 3.390209648084e+01 0.0 
3.390209648084e+01 -1.738571287294e+02 0.0 
0.0 0.0 -7.883018854752e+01 
-4.901320613621e+01 1.467093241242e+01 0.0 
1.467093241242e+01 -1.155902203652e+02 0.0 
0.0 0.0 -4.898102795041e+01 
-1.087332036086e+02 2.432002307386e+01 0.0 
2.432002307386e+01 -2.354583609155e+02 0.0 
0.0 0.0 -1.042262022138e+02 
-8.526512175150e+01 4.530210332973e+00 0.0 
4.530210332973e+00 -1.999707282793e+02 0.0 
0.0 0.0 -8.517075500924e+01 
-1.097346612595e+02 -1.625870677507e+00 0.0 
-1.625870677507e+00 -2.513670216702e+02 0.0 
0.0 0.0 -1.097159995130e+02 
-8.890468109665e+01 3.251301214447e+01 0.0 
3.251301214447e+01 -1.735698343274e+02 0.0 
0.0 0.0 -7.834235462720e+01 
-2.116045249607e+01 8.933127014084e+00 0.0 
8.933127014084e+00 -2.520086668451e+01 0.0 
0.0 0.0 -1.350839575417e+01 
-9.855811956156e+01 1.646038051465e+01 0.0 
1.646038051465e+01 -2.215034043226e+02 0.0 
0.0 0.0 -9.639248817597e+01 
-2.238207068347e+01 1.357474643306e+01 0.0 
1.357474643306e+01 -3.473051306493e+01 0.0 
0.0 0.0 -1.673377512452e+01 
-2.060499285726e+01 -3.189810616743e+00 0.0 
-3.189810616743e+00 -6.531224175438e+01 0.0 
0.0 0.0 -2.537517038349e+01 
-1.050173180404e+02 -2.345997149356e+00 0.0 
-2.345997149356e+00 -2.414869171271e+02 0.0 
0.0 0.0 -1.049770008036e+02 
-1.117028783433e+02 3.478541368844e+01 0.0 
3.478541368844e+01 -2.252617994358e+02 0.0 
0.0 0.0 -1.018730366396e+02 
-8.169615227900e+01 2.543506951515e+01 0.0 
2.543506951515e+01 -1.097023182447e+02 0.0 
0.0 0.0 -5.701954115711e+01 
-2.699992492743e+01 1.592809682985e+01 0.0 
1.592809682985e+01 -2.206590606248e+01 0.0 
0.0 0.0 -1.431974929697e+01 
-1.039204012998e+02 3.204854750875e+01 0.0 
3.204854750875e+01 -2.123283916606e+02 0.0 
0.0 0.0 -9.515470146000e+01 
-2.190263687774e+01 1.320567942988e+01 0.0 
1.320567942988e+01 -1.399361566200e+01 0.0 
0.0 0.0 -1.047645377834e+01 
-2.655263342809e+01 1.576352908562e+01 0.0 
1.576352908562e+01 -2.159591304165e+01 0.0 
0.0 0.0 -1.404456394092e+01 
-9.912561277442e+01 5.037485366802e+00 0.0 
5.037485366802e+00 -2.287526036561e+02 0.0 
0.0 0.0 -9.893014383279e+01 
-1.024967175040e+02 -1.951331196088e+00 0.0 
-1.951331196088e+00 -2.362798967848e+02 0.0 
0.0 0.0 -1.024682618810e+02 
-4.914423341672e+01 2.618209514197e+01 0.0 
2.618209514197e+01 -6.125701281914e+01 0.0 
0.0 0.0 -3.272037387076e+01 
-6.364733501506e+01 7.145296622685e-01 0.0 
7.145296622685e-01 -1.555328009565e+02 0.0 
0.0 0.0 -6.535404079147e+01 
-1.056501008117e+02 4.904073417004e+00 0.0 
4.904073417004e+00 -2.423863897488e+02 0.0 
0.0 0.0 -1.054744409348e+02 
-9.209143506225e+01 2.721080946414e+01 0.0 
2.721080946414e+01 -1.936863676799e+02 0.0 
0.0 0.0 -8.533334082265e+01 
-1.074384853745e+02 1.801549287773e+01 0.0 
1.801549287773e+01 -2.391970075427e+02 0.0 
0.0 0.0 -1.050196130682e+02 
-1.098727430537e+02 3.677183141616e+01 0.0 
3.677183141616e+01 -2.164150325299e+02 0.0 
0.0 0.0 -9.841381404394e+01 
-2.207755522128e+01 7.394226611971e+00 0.0 
7.394226611971e+00 -6.528307072186e+01 0.0 
0.0 0.0 -2.580818778294e+01 
-9.578138225964e+01 -2.828175192326e+00 0.0 
-2.828175192326e+00 -2.222029746321e+02 0.0 
0.0 0.0 -9.571814483480e+01 
-1.047721222142e+02 -2.837063791022e+00 0.0 
-2.837063791022e+00 -2.409190037616e+02 0.0 
0.0 0.0 -1.047130283974e+02 
-5.282053109869e+01 -3.644497533485e+00 0.0 
-3.644497533485e+00 -1.325148102307e+02 0.0 
0.0 0.0 -5.520060239881e+01 
-6.061443769211e+01 1.995453881675e+01 0.0 
1.995453881675e+01 -4.411956606594e+01 0.0 
0.0 0.0 -3.102020112742e+01 
-8.425048979247e+01 2.973715223640e+01 0.0 
2.973715223640e+01 -1.116502220332e+02 0.0 
0.0 0.0 -5.837021354771e+01 
-1.332952371809e+02 5.069136697804e-01 0.0 
5.069136697804e-01 -3.004323882531e+02 0.0 
0.0 0.0 -1.332936997662e+02 
-8.702577568921e+00 9.084923563218e-02 0.0 
9.084923563218e-02 -4.124859818299e+01 0.0 
0.0 0.0 -1.458535272557e+01 
-2.164176553214e+01 1.100021164518e+00 0.0 
1.100021164518e+00 -2.513164079236e+01 0.0 
0.0 0.0 -1.363202189735e+01 
-3.428250407062e+01 -4.239545153216e+00 0.0 
-4.239545153216e+00 -9.353314399198e+01 0.0 
0.0 0.0 -3.794469441878e+01 
-1.068445312593e+02 -1.879651595457e+00 0.0 
-1.879651595457e+00 -2.453336538474e+02 0.0 
0.0 0.0 -1.068190242777e+02 
-6.862638977487e+01 4.378603991343e+00 0.0 
4.378603991343e+00 -1.652981075158e+02 0.0 
0.0 0.0 -6.977734918721e+01 
-6.133523133863e+01 1.255409815737e+00 0.0 
1.255409815737e+00 -1.506857674720e+02 0.0 
0.0 0.0 -6.320629964317e+01 
-4.948360454267e+01 6.594778055309e-01 0.0 
6.594778055309e-01 -1.260678844070e+02 0.0 
0.0 0.0 -5.226544668489e+01 
-1.095171511586e+02 -2.400385058392e+00 0.0 
-2.400385058392e+00 -2.508464793395e+02 0.0 
0.0 0.0 -1.094763939616e+02 
-9.083461267999e+01 3.121966697292e+01 0.0 
3.121966697292e+01 -1.473669290201e+02 0.0 
0.0 0.0 -7.106046251001e+01 
-1.092589276392e+02 -2.761066700754e+00 0.0 
-2.761066700754e+00 -2.502683779575e+02 0.0 
0.0 0.0 -1.092048846750e+02 
-6.638607709996e+01 4.364393465960e+00 0.0 
4.364393465960e+00 -1.606260064896e+02 0.0 
0.0 0.0 -6.770362507688e+01 
-9.852551625096e+01 3.512665050671e+01 0.0 
3.512665050671e+01 -1.918651293476e+02 0.0 
0.0 0.0 -8.674869843341e+01 
-4.916304617842e+01 2.573382358648e+00 0.0 
2.573382358648e+00 -3.926130982375e+01 0.0 
0.0 0.0 -2.612730680065e+01 
-1.198799812137e+02 2.229032830732e+01 0.0 
2.229032830732e+01 -2.620144463459e+02 0.0 
0.0 0.0 -1.164662747373e+02 
-1.111372551362e+02 -1.689685715375e+00 0.0 
-1.689685715375e+00 -2.542808660340e+02 0.0 
0.0 0.0 -1.111173126456e+02 
-1.114783253167e+02 -1.416922284648e+00 0.0 
-1.416922284648e+00 -2.550087343010e+02 0.0 
0.0 0.0 -1.114643389207e+02 
-2.570942581067e+01 1.557548275566e+01 0.0 
1.557548275566e+01 -2.119171511877e+01 0.0 
0.0 0.0 -1.367034227883e+01 
-7.383227090059e+01 4.058472661031e+00 0.0 
4.058472661031e+00 -1.762428025233e+02 0.0 
0.0 0.0 -7.462252202716e+01 
-1.136487458076e+02 -2.556681644434e+00 0.0 
-2.556681644434e+00 -2.594288268655e+02 0.0 
0.0 0.0 -1.136039206732e+02 
-5.520998347631e+01 -2.358611125100e-01 0.0 
-2.358611125100e-01 -7.974493907103e+01 0.0 
0.0 0.0 -4.008647676420e+01 
-4.884061440846e+01 -4.474239428872e-01 0.0 
-4.474239428872e-01 -6.133101186105e+01 0.0 
0.0 0.0 -3.265148788085e+01 
-2.590728524394e+01 1.566016786216e+01 0.0 
1.566016786216e+01 -2.144813315036e+01 0.0 
0.0 0.0 -1.380662551829e+01 
-1.140192470591e+02 -2.395845052531e+00 0.0 
-2.395845052531e+00 -2.602167406422e+02 0.0 
0.0 0.0 -1.139799951358e+02 
-6.239944726396e+01 -2.496228837994e-01 0.0 
-2.496228837994e-01 -1.529518383938e+02 0.0 
0.0 0.0 -6.420538569733e+01 
-2.329712757160e+01 1.475215888745e+01 0.0 
1.475215888745e+01 -5.072957011135e+01 0.0 
0.0 0.0 -2.180800930489e+01 
-1.379091946351e+02 2.559718655321e+01 0.0 
2.559718655321e+01 -2.977144185715e+02 0.0 
0.0 0.0 -1.339092240520e+02 
-2.855059368525e+01 -5.268127351258e+00 0.0 
-5.268127351258e+00 -8.092271046231e+01 0.0 
0.0 0.0 -3.244199124427e+01 
-6.439267288160e+01 -7.640267745705e-01 0.0 
-7.640267745705e-01 -1.570810296029e+02 0.0 
0.0 0.0 -6.604211074536e+01 
-9.422303309071e+01 1.741617985708e+01 0.0 
1.741617985708e+01 -2.113478050844e+02 0.0 
0.0 0.0 -9.168814930847e+01 
-1.850624333271e+01 1.359001972136e+01 0.0 
1.359001972136e+01 -1.637988809296e+01 0.0 
0.0 0.0 -1.006583942770e+01 
-1.150809039296e+02 -1.043289344287e+00 0.0 
-1.043289344287e+00 -2.625234540707e+02 0.0 
0.0 0.0 -1.150735220838e+02 
-4.557343240398e+01 1.234312474226e+00 0.0 
1.234312474226e+00 -1.178862404941e+02 0.0 
0.0 0.0 -4.863790186942e+01 
-6.269411048980e+01 2.108946646070e+01 0.0 
2.108946646070e+01 -4.171692147491e+01 0.0 
0.0 0.0 -3.092330958941e+01 
-1.158728961795e+02 -1.423689447220e+00 0.0 
-1.423689447220e+00 -2.641516567538e+02 0.0 
0.0 0.0 -1.158592279723e+02 
-9.218319902962e+01 4.366733445923e+00 0.0 
4.366733445923e+00 -2.144326834957e+02 0.0 
0.0 0.0 -9.202741846753e+01 
-1.026661786391e+02 -1.261328810381e+00 0.0 
-1.261328810381e+00 -2.366835114015e+02 0.0 
0.0 0.0 -1.026543084621e+02 
-2.159790607646e+01 6.069637639391e+00 0.0 
6.069637639391e+00 -3.057379187969e+01 0.0 
0.0 0.0 -1.525150938684e+01 
-7.337044508355e+01 2.001754399886e+00 0.0 
2.001754399886e+00 -1.397066289081e+02 0.0 
0.0 0.0 -6.352312219749e+01 
-7.485712904950e+01 2.152349892523e+00 0.0 
2.152349892523e+00 -1.787321216931e+02 0.0 
0.0 0.0 -7.567677522279e+01 
-1.369923906151e+02 1.500925995060e+01 0.0 
1.500925995060e+01 -3.040064106742e+02 0.0 
0.0 0.0 -1.356542557727e+02 
-1.034141604704e+02 2.526560646995e+01 0.0 
2.526560646995e+01 -2.224401648452e+02 0.0 
0.0 0.0 -9.827309627642e+01 
-1.184614648664e+02 -2.350598172903e+00 0.0 
-2.350598172903e+00 -2.694660276693e+02 0.0 
0.0 0.0 -1.184248833654e+02 
-1.202546470763e+02 -1.394186072097e+00 0.0 
-1.394186072097e+00 -2.732699062813e+02 0.0 
0.0 0.0 -1.202419451178e+02 
-6.263121669643e+01 2.588828377133e+00 0.0 
2.588828377133e+00 -1.532083716679e+02 0.0 
0.0 0.0 -6.435187650929e+01 
-1.707732368582e+01 -6.290701587416e+00 0.0 
-6.290701587416e+00 -5.558604144083e+01 0.0 
0.0 0.0 -2.139900953799e+01 
-1.892735159300e+01 8.220740324691e+00 0.0 
8.220740324691e+00 -3.006150660466e+01 0.0 
0.0 0.0 -1.429665745930e+01 
-1.228369488119e+02 -2.300421989165e+00 0.0 
-2.300421989165e+00 -2.785763016593e+02 0.0 
0.0 0.0 -1.228029767481e+02 
-1.384400756409e+02 1.166379698943e+01 0.0 
1.166379698943e+01 -3.086898711852e+02 0.0 
0.0 0.0 -1.376447058335e+02 
-6.298127805212e+01 -1.564511549810e+00 0.0 
-1.564511549810e+00 -1.540815925067e+02 0.0 
0.0 0.0 -6.471886116766e+01 
-1.004515274775e+02 3.167271384085e+01 0.0 
3.167271384085e+01 -2.048235866037e+02 0.0 
0.0 0.0 -9.159214375172e+01 
-3.266650633261e+01 1.965943759693e+01 0.0 
1.965943759693e+01 -5.827078811918e+01 0.0 
0.0 0.0 -2.688118833554e+01 
-1.025513542954e+02 3.709694109988e+01 0.0 
3.709694109988e+01 -1.956344349859e+02 0.0 
0.0 0.0 -8.915359438625e+01 
-1.587248009187e+02 8.462232083779e+00 0.0 
8.462232083779e+00 -3.521998555849e+02 0.0 
0.0 0.0 -1.583553842860e+02 
-3.154875124411e+01 4.520657798228e-01 0.0 
4.520657798228e-01 -6.655378128159e+00 0.0 
0.0 0.0 -1.106123881168e+01 
-8.301495681136e+01 2.990398351055e+00 0.0 
2.990398351055e+00 -1.950348992265e+02 0.0 
0.0 0.0 -8.301495681136e+01 
-1.774599815424e+02 7.352383566989e-01 0.0 
7.352383566989e-01 -3.923044529392e+02 0.0 
0.0 0.0 -1.774574654473e+02 
-3.671351295346e+01 6.899832757335e-01 0.0 
6.899832757335e-01 -2.949989551196e+01 0.0 
0.0 0.0 -1.946402253963e+01 
-7.556309591262e+01 5.431030540266e-01 0.0 
5.431030540266e-01 -1.803293743488e+02 0.0 
0.0 0.0 -7.636774107841e+01 
-9.745367801622e+01 2.590410030167e+01 0.0 
2.590410030167e+01 -2.081246040263e+02 0.0 
0.0 0.0 -9.169056592805e+01 
-6.250791301394e+01 4.264788035943e+00 0.0 
4.264788035943e+00 -1.525588336385e+02 0.0 
0.0 0.0 -6.412002399573e+01 
-1.632447786106e+01 -1.537462237683e+00 0.0 
-1.537462237683e+00 -5.692599857370e+01 0.0 
0.0 0.0 -2.157514293043e+01 
-2.062593397992e+01 1.318029668778e+01 0.0 
1.318029668778e+01 -1.577033967665e+01 0.0 
0.0 0.0 -1.051888209697e+01 
-8.190721486456e+01 9.185479511045e+00 0.0 
9.185479511045e+00 -1.587654677159e+02 0.0 
0.0 0.0 -7.180180477413e+01 
-8.905836058049e+01 3.252570782389e+01 0.0 
3.252570782389e+01 -1.309095304219e+02 0.0 
0.0 0.0 -6.559036730072e+01 
-4.650376022531e+01 1.687704185129e+01 0.0 
1.687704185129e+01 -2.490624088689e+01 0.0 
0.0 0.0 -2.102300033366e+01 
-1.474340478820e+02 3.578054906161e+01 0.0 
3.578054906161e+01 -3.061524261561e+02 0.0 
0.0 0.0 -1.397407896575e+02 
-3.613510996253e+01 1.170437444494e+00 0.0 
1.170437444494e+00 -9.824884394193e+01 0.0 
0.0 0.0 -3.991518617134e+01 
-1.492488800581e+02 3.381354581773e+01 0.0 
3.381354581773e+01 -3.129593797621e+02 0.0 
0.0 0.0 -1.425398153749e+02 
-8.632899065110e+01 2.874518185717e+01 0.0 
2.874518185717e+01 -1.288314054418e+02 0.0 
0.0 0.0 -6.414811882788e+01 
-7.595600463884e+01 -9.266546743758e-01 0.0 
-9.266546743758e-01 -1.811302601433e+02 0.0 
0.0 0.0 -7.672587943464e+01 
-9.471540439879e+01 2.344433293900e+01 0.0 
2.344433293900e+01 -2.055309666731e+02 0.0 
0.0 0.0 -8.995958393583e+01 
-6.902510642433e+01 -9.798765251902e-01 0.0 
-9.798765251902e-01 -1.667069165697e+02 0.0 
0.0 0.0 -7.031960689819e+01 
-2.346241455175e+01 1.513433186827e+01 0.0 
1.513433186827e+01 -5.167959223658e+01 0.0 
0.0 0.0 -2.214260203650e+01 
-6.465069717004e+01 -1.941456575337e+00 0.0 
-1.941456575337e+00 -1.575122162913e+02 0.0 
0.0 0.0 -6.624887403841e+01 
-9.550481583390e+01 3.344644036184e+01 0.0 
3.344644036184e+01 -1.655312849147e+02 0.0 
0.0 0.0 -7.791083022457e+01 
-1.523686635538e+02 3.624425503685e-01 0.0 
3.624425503685e-01 -3.401130554646e+02 0.0 
0.0 0.0 -1.523679638572e+02 
-6.845928402921e+01 4.150039833860e-01 0.0 
4.150039833860e-01 -1.655546576703e+02 0.0 
0.0 0.0 -6.980418250984e+01 
-1.037048108248e+02 3.363053488639e+01 0.0 
3.363053488639e+01 -2.084953276213e+02 0.0 
0.0 0.0 -9.384032316381e+01 
-2.441888414716e+01 1.366600574846e-01 0.0 
1.366600574846e-01 -8.619795326183e+00 0.0 
0.0 0.0 -1.041285936524e+01 
-6.748949191744e+01 2.167777848012e+00 0.0 
2.167777848012e+00 -1.633918230444e+02 0.0 
0.0 0.0 -6.886439448855e+01 
-9.958130586891e+01 3.372420207174e+01 0.0 
3.372420207174e+01 -1.578328386689e+02 0.0 
0.0 0.0 -7.682424336133e+01 
-6.428707128820e+01 -2.939053280576e+00 0.0 
-2.939053280576e+00 -1.565927831842e+02 0.0 
0.0 0.0 -6.586395634172e+01 
-5.869029585363e+01 -2.531532993362e+00 0.0 
-2.531532993362e+00 -1.450093852572e+02 0.0 
0.0 0.0 -6.070990433323e+01 
-9.429265853935e+01 2.330181963869e+01 0.0 
2.330181963869e+01 -2.047828686569e+02 0.0 
0.0 0.0 -8.957947450121e+01 
-2.456394315827e+01 -4.625304744175e+00 0.0 
-4.625304744175e+00 -7.289425296579e+01 0.0 
0.0 0.0 -2.883745883722e+01 
-2.230681413848e+01 1.466428997973e+01 0.0 
1.466428997973e+01 -1.899900140546e+01 0.0 
0.0 0.0 -1.199174466318e+01 
-2.410221428421e+01 1.523797103240e+01 0.0 
1.523797103240e+01 -2.053741473094e+01 0.0 
0.0 0.0 -1.299188870454e+01 
-5.537023868232e+01 -3.439927102175e+00 0.0 
-3.439927102175e+00 -1.378902917748e+02 0.0 
0.0 0.0 -5.757815913714e+01 
-1.008319401378e+02 5.464880375026e+00 0.0 
5.464880375026e+00 -2.322053150751e+02 0.0 
0.0 0.0 -1.006050036117e+02 
-8.440297467685e+01 1.570577381436e+01 0.0 
1.570577381436e+01 -1.917976495754e+02 0.0 
0.0 0.0 -8.246018727569e+01 
-1.041622317185e+02 3.427685061165e+01 0.0 
3.427685061165e+01 -2.081651697951e+02 0.0 
0.0 0.0 -9.388163857199e+01 
-1.154663646621e+02 3.894675520125e+01 0.0 
3.894675520125e+01 -2.250571583269e+02 0.0 
0.0 0.0 -1.030353882863e+02 
-1.767640249659e+01 1.344717467489e+01 0.0 
1.344717467489e+01 -1.626399777839e+01 0.0 
0.0 0.0 -9.782120082494e+00 
-6.210358742225e+01 1.766181671632e+00 0.0 
1.766181671632e+00 -9.994675587056e+01 0.0 
0.0 0.0 -4.821510298784e+01 
-1.292935158381e+02 3.794340628091e+01 0.0 
3.794340628091e+01 -2.608116460585e+02 0.0 
0.0 0.0 -1.191318543688e+02 
-5.810037337130e+01 3.072439593450e+00 0.0 
3.072439593450e+00 -1.436713073524e+02 0.0 
0.0 0.0 -6.013150421713e+01 
-2.669496096669e+01 1.724095236254e+01 0.0 
1.724095236254e+01 -3.638769263264e+01 0.0 
0.0 0.0 -1.852479607980e+01 
-3.975028549384e+01 2.274517638924e+01 0.0 
2.274517638924e+01 -6.276838429909e+01 0.0 
0.0 0.0 -3.035560093788e+01 
-9.693237993709e+01 3.872344716005e+00 0.0 
3.872344716005e+00 -2.244302232233e+02 0.0 
0.0 0.0 -9.681487797390e+01 
-1.030930899233e+02 3.641726899413e+01 0.0 
3.641726899413e+01 -1.967251281378e+02 0.0 
0.0 0.0 -8.954546541833e+01 
-9.513127935024e+01 3.380897047694e+00 0.0 
3.380897047694e+00 -2.207653187596e+02 0.0 
0.0 0.0 -9.504036291468e+01 
-2.184746620202e+01 6.727732076854e+00 0.0 
6.727732076854e+00 -5.115540709398e+01 0.0 
0.0 0.0 -2.150086198880e+01 
-1.095687945791e+02 6.586845736931e+00 0.0 
6.586845736931e+00 -2.501307600547e+02 0.0 
0.0 0.0 -1.092608045849e+02 
-2.508867318344e+01 1.598055987473e+01 0.0 
1.598055987473e+01 -5.294012625139e+01 0.0 
0.0 0.0 -2.300863983045e+01 
-8.502488376976e+01 1.541810052470e+01 0.0 
1.541810052470e+01 -1.933959537303e+02 0.0 
0.0 0.0 -8.312625125003e+01 
-1.039790224701e+02 4.334083978133e+00 0.0 
4.334083978133e+00 -2.390231403533e+02 0.0 
0.0 0.0 -1.038400680610e+02 
-9.981857861426e+01 2.259386954764e+01 0.0 
2.259386954764e+01 -2.179384876582e+02 0.0 
0.0 0.0 -9.564435591162e+01 
-5.574988880405e+01 2.378416810413e+00 0.0 
2.378416810413e+00 -7.498287225164e+01 0.0 
0.0 0.0 -3.881982831671e+01 
-5.819226945575e+01 -3.433735086410e+00 0.0 
-3.433735086410e+00 -1.437781792405e+02 0.0 
0.0 0.0 -6.019113460887e+01 
-2.247699352484e+01 1.307893039994e+01 0.0 
1.307893039994e+01 -4.609294686791e+01 0.0 
0.0 0.0 -2.017098211782e+01 
-1.129295734639e+02 5.301587694391e+00 0.0 
5.301587694391e+00 -2.574726541237e+02 0.0 
0.0 0.0 -1.127353813836e+02 
-2.608591146593e+01 1.654012749610e+01 0.0 
1.654012749610e+01 -5.341805074212e+01 0.0 
0.0 0.0 -2.345118866242e+01 
-1.998940157559e+01 2.863891201928e+00 0.0 
2.863891201928e+00 -2.469066414370e+01 0.0 
0.0 0.0 -1.300401971579e+01 
-7.704057108483e+01 5.411714235924e-01 0.0 
5.411714235924e-01 -1.588338324081e+02 0.0 
0.0 0.0 -7.036232104787e+01 
-7.294798010771e+01 1.784314550038e-01 0.0 
1.784314550038e-01 -1.396288143762e+02 0.0 
0.0 0.0 -6.337303834518e+01 
-8.747695530324e+00 -5.164964320208e+00 0.0 
-5.164964320208e+00 -2.493146571531e+01 0.0 
0.0 0.0 -1.008579620726e+01 
-1.183815825685e+02 7.728060058978e+00 0.0 
7.728060058978e+00 -2.681877730543e+02 0.0 
0.0 0.0 -1.179839700508e+02 
-4.369505331638e+01 -4.124386476921e+00 0.0 
-4.124386476921e+00 -1.132933341555e+02 0.0 
0.0 0.0 -4.669651624155e+01 
-4.597734350804e+01 -4.726433309859e+00 0.0 
-4.726433309859e+00 -1.178379125802e+02 0.0 
0.0 0.0 -4.874457682646e+01 
-1.114003104128e+02 3.425766854308e+01 0.0 
3.425766854308e+01 -2.256805899877e+02 0.0 
0.0 0.0 -1.019177556515e+02 
-1.003846331701e+02 2.266698023113e+01 0.0 
2.266698023113e+01 -2.190956362312e+02 0.0 
0.0 0.0 -9.620378640499e+01 
-1.079335784316e+02 3.222596588708e+01 0.0 
3.222596588708e+01 -2.214662035859e+02 0.0 
0.0 0.0 -9.942411356438e+01 
-7.007961354436e+01 2.474737122028e+00 0.0 
2.474737122028e+00 -1.687397740058e+02 0.0 
0.0 0.0 -7.124581626506e+01 
-2.856945813130e+01 -1.742740660847e-01 0.0 
-1.742740660847e-01 -8.107550216707e+00 0.0 
0.0 0.0 -1.060310250440e+01 
-1.622080949803e+02 6.982618841238e+00 0.0 
6.982618841238e+00 -3.598249581308e+02 0.0 
0.0 0.0 -1.619616775261e+02 
-3.692193666771e+01 -4.976823774314e+00 0.0 
-4.976823774314e+00 -9.872703696411e+01 0.0 
0.0 0.0 -4.029469208955e+01 
-1.328975187380e+02 1.663260035521e+01 0.0 
1.663260035521e+01 -2.943878547999e+02 0.0 
0.0 0.0 -1.312022503623e+02 
-8.810450596128e+01 1.798561439892e+01 0.0 
1.798561439892e+01 -1.975574733961e+02 0.0 
0.0 0.0 -8.529859380721e+01 
-2.614194344557e+01 -7.217533577562e-01 0.0 
-7.217533577562e-01 -7.749692191981e+01 0.0 
0.0 0.0 -3.069165960961e+01 
-9.786962311375e+01 3.508337879309e+01 0.0 
3.508337879309e+01 -1.801188610353e+02 0.0 
0.0 0.0 -8.299654524471e+01 
-7.134737945506e+01 3.843908547381e+00 0.0 
3.843908547381e+00 -1.711126448381e+02 0.0 
0.0 0.0 -7.233800728795e+01 
-9.810506687677e+00 -6.077631865789e+00 0.0 
-6.077631865789e+00 -3.991767246055e+01 0.0 
0.0 0.0 -1.451845374447e+01 
-5.880334659381e+01 1.016824487124e+00 0.0 
1.016824487124e+00 -1.454363011024e+02 0.0 
0.0 0.0 -6.087189430886e+01 
-1.291215565707e+02 -1.176554973019e+00 0.0 
-1.176554973019e+00 -2.912061647500e+02 0.0 
0.0 0.0 -1.288619807790e+02 
-9.886456244877e+01 3.674149668238e+01 0.0 
3.674149668238e+01 -1.680409723142e+02 0.0 
0.0 0.0 -7.967166042890e+01 
-2.728010876383e+01 -5.538538319048e+00 0.0 
-5.538538319048e+00 -7.805661561381e+01 0.0 
0.0 0.0 -3.120101731329e+01 
-1.042502743523e+02 -3.396514981748e-01 0.0 
-3.396514981748e-01 -2.365055180343e+02 0.0 
0.0 0.0 -1.025634595470e+02 
-1.069123016439e+02 3.551925593384e+01 0.0 
3.551925593384e+01 -2.120576721194e+02 0.0 
0.0 0.0 -9.603812111820e+01 
-1.241154276833e+02 2.532915865488e+01 0.0 
2.532915865488e+01 -2.680076914675e+02 0.0 
0.0 0.0 -1.197869755227e+02 
-6.000894888033e+01 -2.703370825794e+00 0.0 
-2.703370825794e+00 -1.477246529727e+02 0.0 
0.0 0.0 -6.192008055589e+01 
-4.652072703979e+01 -1.239401350149e+00 0.0 
-1.239401350149e+00 -1.198572562369e+02 0.0 
0.0 0.0 -4.951339498302e+01 
-9.301274141740e+01 1.734981061084e+01 0.0 
1.734981061084e+01 -2.088026269920e+02 0.0 
0.0 0.0 -9.046895218146e+01 
-5.166513583786e+01 8.675641681079e-01 0.0 
8.675641681079e-01 -6.910658691706e+01 0.0 
0.0 0.0 -3.583151682648e+01 
-1.009729928750e+01 -6.676280072018e+00 0.0 
-6.676280072018e+00 -3.973171675439e+01 0.0 
0.0 0.0 -1.454870481257e+01 
-1.363571998076e+02 3.841978237433e+01 0.0 
3.841978237433e+01 -2.764902555959e+02 0.0 
0.0 0.0 -1.265150422612e+02 
-1.171318387089e+02 4.021386441197e+01 0.0 
4.021386441197e+01 -2.260282166579e+02 0.0 
0.0 0.0 -1.038913271970e+02 
-4.145026831732e+01 8.946514029132e-01 0.0 
8.946514029132e-01 -4.130757321052e+01 0.0 
0.0 0.0 -2.442735245835e+01 
-9.776286645399e+01 2.424315968250e+01 0.0 
2.424315968250e+01 -1.846074588015e+02 0.0 
0.0 0.0 -8.431109757666e+01 
-1.285339413796e+02 4.287501991149e+01 0.0 
4.287501991149e+01 -2.480580163424e+02 0.0 
0.0 0.0 -1.147448506825e+02 
-7.246027259848e+01 1.788320666219e+00 0.0 
1.788320666219e+00 -1.737861110349e+02 0.0 
0.0 0.0 -7.347391509001e+01 
-7.092873044460e+01 8.102143399556e-01 0.0 
8.102143399556e-01 -1.706769937749e+02 0.0 
0.0 0.0 -7.208171726586e+01 
-1.501394793030e+02 2.041010320992e+01 0.0 
2.041010320992e+01 -3.283704739652e+02 0.0 
0.0 0.0 -1.478320901252e+02 
-2.209308682072e+01 1.792299559171e+00 0.0 
1.792299559171e+00 -8.480659314669e+00 0.0 
0.0 0.0 -9.722736023402e+00 
-4.080783041110e+01 -1.186457841933e+00 0.0 
-1.186457841933e+00 -1.079727891618e+02 0.0 
0.0 0.0 -4.423418587188e+01 
-1.058348236017e+02 -1.694588121290e+00 0.0 
-1.694588121290e+00 -2.407452374142e+02 0.0 
0.0 0.0 -1.046113219118e+02 
-6.286757414803e+01 -2.686384497792e+00 0.0 
-2.686384497792e+00 -1.536832329076e+02 0.0 
0.0 0.0 -6.456524211670e+01 
-5.952647353899e+01 -5.991038144874e-01 0.0 
-5.991038144874e-01 -1.469647216464e+02 0.0 
0.0 0.0 -6.154735855560e+01 
-1.876463547487e+01 1.364514602539e+01 0.0 
1.364514602539e+01 -1.673818220179e+01 0.0 
0.0 0.0 -1.025084530300e+01 
-2.174616972526e+01 1.474085914119e+01 0.0 
1.474085914119e+01 -1.967357405082e+01 0.0 
0.0 0.0 -1.202592313282e+01 
-5.014064932775e+01 3.683533702767e+00 0.0 
3.683533702767e+00 -4.284775589922e+01 0.0 
0.0 0.0 -2.749652156809e+01 
-6.505916688388e+01 2.690175466786e+00 0.0 
2.690175466786e+00 -1.582479064200e+02 0.0 
0.0 0.0 -6.659212199116e+01 
-5.083201847965e+01 -2.478242823069e+00 0.0 
-2.478242823069e+00 -1.286475866879e+02 0.0 
0.0 0.0 -5.344388155027e+01 
-1.174623906264e+02 2.589397093310e+01 0.0 
2.589397093310e+01 -2.527565539296e+02 0.0 
0.0 0.0 -1.126758793348e+02 
-1.710868356008e+02 5.517250572223e+00 0.0 
5.517250572223e+00 -3.786027479806e+02 0.0 
0.0 0.0 -1.709402513385e+02 
-1.692589857324e+02 6.905923250154e+00 0.0 
6.905923250154e+00 -3.745370007184e+02 0.0 
0.0 0.0 -1.690269203474e+02 
-7.326714057970e+01 1.241647643211e-01 0.0 
1.241647643211e-01 -1.755613498699e+02 0.0 
0.0 0.0 -7.424854713487e+01 
-4.533597235955e+01 1.945234694939e+00 0.0 
1.945234694939e+00 -2.580966965791e+01 0.0 
0.0 0.0 -2.094369260524e+01 
-2.724869406434e+01 1.981173001604e+00 0.0 
1.981173001604e+00 -1.998477729124e+01 0.0 
0.0 0.0 -1.377004140667e+01 
-1.899128867689e+01 1.390980593957e+01 0.0 
1.390980593957e+01 -1.758323873325e+01 0.0 
0.0 0.0 -1.057235822304e+01 
-2.294875580453e+01 -5.142792375176e+00 0.0 
-5.142792375176e+00 -6.914317129074e+01 0.0 
0.0 0.0 -2.722757812858e+01 
-1.950550262816e+01 1.409905183739e+01 0.0 
1.409905183739e+01 -1.814081255138e+01 0.0 
0.0 0.0 -1.089389455386e+01 
-9.730369058085e+01 2.000629268790e+01 0.0 
2.000629268790e+01 -2.154092116978e+02 0.0 
0.0 0.0 -9.400678973935e+01 
-6.011031292294e+01 -1.761521231270e+00 0.0 
-1.761521231270e+00 -1.480833120739e+02 0.0 
0.0 0.0 -6.205808749904e+01 
-6.629252757579e+01 1.046989252423e+00 0.0 
1.046989252423e+00 -1.610170172857e+02 0.0 
0.0 0.0 -6.779286345845e+01 
-2.166311423917e+01 -2.495567218037e+00 0.0 
-2.495567218037e+00 -3.794803199087e+01 0.0 
0.0 0.0 -1.748334386901e+01 
-7.195814655674e+01 2.075542638830e+00 0.0 
2.075542638830e+00 -1.420959089742e+02 0.0 
0.0 0.0 -6.381621665927e+01 
-6.701377974923e+01 -4.207193198958e-01 0.0 
-4.207193198958e-01 -1.625473592386e+02 0.0 
0.0 0.0 -6.846834169636e+01 
-7.861727183272e+01 7.301653482986e+00 0.0 
7.301653482986e+00 -1.569528711117e+02 0.0 
0.0 0.0 -7.027104288332e+01 
-7.094400900637e+01 3.520395568904e+00 0.0 
3.520395568904e+00 -1.267724189635e+02 0.0 
0.0 0.0 -5.891492839097e+01 
-8.820816194600e+01 3.561908676141e+00 0.0 
3.561908676141e+00 -1.966426535194e+02 0.0 
0.0 0.0 -8.505524463962e+01 
-1.767134959204e+02 1.039117010492e+00 0.0 
1.039117010492e+00 -3.907437639658e+02 0.0 
0.0 0.0 -1.767084511259e+02 
-4.155634272446e+01 -4.538108675649e-01 0.0 
-4.538108675649e-01 -4.179728637442e+01 0.0 
0.0 0.0 -2.460608872966e+01 
-7.151226225046e+01 -6.628437066858e-01 0.0 
-6.628437066858e-01 -1.718976930000e+02 0.0 
0.0 0.0 -7.262298657514e+01 
-1.742088695209e+01 1.349160160165e+01 0.0 
1.349160160165e+01 -1.669502426905e+01 0.0 
0.0 0.0 -9.834773366342e+00 
-7.360985347879e+01 -1.261262329389e+00 0.0 
-1.261262329389e+00 -1.762270095899e+02 0.0 
0.0 0.0 -7.455105892061e+01 
-1.739269148627e+02 4.093440803625e+00 0.0 
4.093440803625e+00 -3.847176650882e+02 0.0 
0.0 0.0 -1.738474524417e+02 
-1.983101566996e+01 1.379521986869e+01 0.0 
1.379521986869e+01 -1.726169872045e+01 0.0 
0.0 0.0 -1.072781431712e+01 
-1.918479966389e+01 1.375873158236e+01 0.0 
1.375873158236e+01 -1.731098127727e+01 0.0 
0.0 0.0 -1.054873428235e+01 
-1.359246126492e+02 1.897467752337e+01 0.0 
1.897467752337e+01 -2.992041407735e+02 0.0 
0.0 0.0 -1.337485699489e+02 
-3.867791737736e+01 8.058070676553e-01 0.0 
8.058070676553e-01 -2.605276568672e+01 0.0 
0.0 0.0 -1.901920491922e+01 
-7.784918360840e+01 4.398190412517e+00 0.0 
4.398190412517e+00 -1.587464786223e+02 0.0 
0.0 0.0 -7.057869866921e+01 
-1.080256101057e+02 3.648861052643e+01 0.0 
3.648861052643e+01 -2.125017055514e+02 0.0 
0.0 0.0 -9.654370547413e+01 
-1.320829772133e+02 2.621951425631e+01 0.0 
2.621951425631e+01 -2.844022313766e+02 0.0 
0.0 0.0 -1.276960232064e+02 
-1.141731713007e+02 4.146449417125e+01 0.0 
4.146449417125e+01 -2.076729762217e+02 0.0 
0.0 0.0 -9.626889829454e+01 
-4.379257522334e+01 5.009757626815e-02 0.0 
5.009757626815e-02 -4.514951765272e+01 0.0 
0.0 0.0 -2.628262786282e+01 
-5.416559366563e+01 -3.395471593356e+00 0.0 
-3.395471593356e+00 -1.353887594307e+02 0.0 
0.0 0.0 -5.646630592890e+01 
-5.112181261837e+01 -3.322795766897e+00 0.0 
-3.322795766897e+00 -1.290577239277e+02 0.0 
0.0 0.0 -5.365386096382e+01 
-5.838008152139e+01 2.886685509847e-01 0.0 
2.886685509847e-01 -8.882603066143e+01 0.0 
0.0 0.0 -4.376183365485e+01 
-1.269941103430e+02 2.783673503383e+01 0.0 
2.783673503383e+01 -2.713694255054e+02 0.0 
0.0 0.0 -1.218128999965e+02 
-3.788120238913e+01 5.136815139140e+00 0.0 
5.136815139140e+00 -8.369553188365e+00 0.0 
0.0 0.0 -1.347522667325e+01 
-3.527408296010e+01 1.661513575884e-01 0.0 
1.661513575884e-01 -2.476865688550e+01 0.0 
0.0 0.0 -1.761282195368e+01 
-4.196521511497e+01 6.777617842630e-01 0.0 
6.777617842630e-01 -4.074565791148e+01 0.0 
0.0 0.0 -2.441326190793e+01 
-4.518177000022e+01 1.833251617625e+00 0.0 
1.833251617625e+00 -4.662830217733e+01 0.0 
0.0 0.0 -2.714302165326e+01 
-1.751935695685e+01 -1.990035895640e+00 0.0 
-1.990035895640e+00 -5.929944445354e+01 0.0 
0.0 0.0 -2.264564042312e+01 
-4.649164322569e+01 -3.953881251633e+00 0.0 
-3.953881251633e+00 -1.192009128178e+02 0.0 
0.0 0.0 -4.930776681304e+01 
-8.805531385509e+01 1.236390940331e+01 0.0 
1.236390940331e+01 -1.821480778263e+02 0.0 
0.0 0.0 -8.066101750443e+01 
-5.333313984448e+01 2.593792447227e+00 0.0 
2.593792447227e+00 -6.609403123224e+01 0.0 
0.0 0.0 -3.542815132302e+01 
-1.509365716355e+02 2.520012052569e+01 0.0 
2.520012052569e+01 -3.261964839315e+02 0.0 
0.0 0.0 -1.473850862013e+02 
-1.251371221084e+02 4.413275045356e+01 0.0 
4.413275045356e+01 -2.359382200226e+02 0.0 
0.0 0.0 -1.097074480859e+02 
-1.008423955284e+02 3.767892378897e+01 0.0 
3.767892378897e+01 -1.820636880613e+02 0.0 
0.0 0.0 -8.447182507690e+01 
-9.678577365531e+01 2.429654627674e+01 0.0 
2.429654627674e+01 -1.728374302400e+02 0.0 
0.0 0.0 -8.048696116859e+01 
-7.675546835994e+01 -3.823114481793e+00 0.0 
-3.823114481793e+00 -1.805216454226e+02 0.0 
0.0 0.0 -7.678313413477e+01 
-6.797607393064e+01 -4.061668824985e+00 0.0 
-4.061668824985e+00 -1.640267988321e+02 0.0 
0.0 0.0 -6.920086182881e+01 
-1.541579789601e+02 5.863978919460e+00 0.0 
5.863978919460e+00 -3.432779629420e+02 0.0 
0.0 0.0 -1.539763310344e+02 
-1.767682587265e+01 -9.901887740840e-01 0.0 
-9.901887740840e-01 -2.348539010891e+01 0.0 
0.0 0.0 -1.240134946549e+01 
-4.271918002350e+01 1.026924372238e+00 0.0 
1.026924372238e+00 -1.119665721464e+02 0.0 
0.0 0.0 -4.600572565097e+01 
-1.517073782880e+02 3.500571141330e+01 0.0 
3.500571141330e+01 -3.168238128338e+02 0.0 
0.0 0.0 -1.445925278604e+02 
-1.699441347974e+01 6.920934623622e-01 0.0 
6.920934623622e-01 -5.846315864431e+01 0.0 
0.0 0.0 -2.223727163722e+01 
-3.512571356833e+01 1.019058264103e-01 0.0 
1.019058264103e-01 -2.490079149555e+01 0.0 
0.0 0.0 -1.760795151916e+01 
-1.456196914166e+02 1.625273691608e+01 0.0 
1.625273691608e+01 -3.214877635742e+02 0.0 
0.0 0.0 -1.441303180414e+02 
-1.247644954218e+01 -4.440413428832e+00 0.0 
-4.440413428832e+00 -4.123827483680e+01 0.0 
0.0 0.0 -1.571441731369e+01 
-2.857629448969e-01 -9.609254492120e-02 0.0 
-9.609254492120e-02 -2.373882691914e+01 0.0 
0.0 0.0 -6.807376959212e+00 
-9.809607566479e+01 2.260870505129e+01 0.0 
2.260870505129e+01 -2.085661811306e+02 0.0 
0.0 0.0 -9.159867703862e+01 
-3.012731402139e+01 -5.663151688198e-01 0.0 
-5.663151688198e-01 -8.112628000773e+00 0.0 
0.0 0.0 -1.107198260665e+01 
-8.910855935198e+01 1.628222555882e+01 0.0 
1.628222555882e+01 -1.797101708682e+02 0.0 
0.0 0.0 -8.024561906606e+01 
-1.469173168880e+02 1.858939545391e+01 0.0 
1.858939545391e+01 -3.227886515976e+02 0.0 
0.0 0.0 -1.449739142850e+02 
-2.974955846290e+01 2.366281012697e-01 0.0 
2.366281012697e-01 -7.933158312486e+00 0.0 
0.0 0.0 -1.090481503262e+01 
-2.668746311712e+01 2.487014389204e+00 0.0 
2.487014389204e+00 -2.161600185909e+01 0.0 
0.0 0.0 -1.409103949286e+01 
-8.019457451722e+01 3.457367307013e+00 0.0 
3.457367307013e+00 -1.768373090206e+02 0.0 
0.0 0.0 -7.670956506136e+01 
-1.999801771159e+01 -4.727444648877e-01 0.0 
-4.727444648877e-01 -6.473168180643e+01 0.0 
0.0 0.0 -2.501890985541e+01 
-8.252674357136e+01 1.348263505325e+01 0.0 
1.348263505325e+01 -1.649737618293e+02 0.0 
0.0 0.0 -7.385015162021e+01 
-1.747259176033e+02 2.702633108920e+00 0.0 
2.702633108920e+00 -3.865183675211e+02 0.0 
0.0 0.0 -1.746914355587e+02 
-1.145114608746e+02 4.051109430428e+01 0.0 
4.051109430428e+01 -2.168022184563e+02 0.0 
0.0 0.0 -9.986965408446e+01 
-2.535048953061e+01 -2.455812472493e+00 0.0 
-2.455812472493e+00 -7.551225173629e+01 0.0 
0.0 0.0 -2.985882238007e+01 
-5.831530063011e+01 8.656966396023e+00 0.0 
8.656966396023e+00 -4.867815961081e+01 0.0 
0.0 0.0 -3.169803807228e+01 
-7.704055413261e+01 -1.339626460986e+00 0.0 
-1.339626460986e+00 -1.820605682488e+02 0.0 
0.0 0.0 -7.733033671441e+01 
-1.182177303867e+02 2.617070686338e+01 0.0 
2.617070686338e+01 -2.540804919848e+02 0.0 
0.0 0.0 -1.133509079456e+02 
-1.542272070489e+02 2.778658298442e+01 0.0 
2.778658298442e+01 -3.308327707145e+02 0.0 
0.0 0.0 -1.499585274405e+02 
-6.527523761614e+01 1.052673046892e+00 0.0 
1.052673046892e+00 -1.108341944809e+02 0.0 
0.0 0.0 -5.243282962912e+01 
-1.555594688814e+02 2.449773934497e+01 0.0 
2.449773934497e+01 -3.367293557017e+02 0.0 
0.0 0.0 -1.523053415074e+02 
-1.741103905152e+01 -3.799550140162e-01 0.0 
-3.799550140162e-01 -3.857659084827e+01 0.0 
0.0 0.0 -1.639628896994e+01 
-1.661862507617e+02 4.098636796614e+00 0.0 
4.098636796614e+00 -3.686041448186e+02 0.0 
0.0 0.0 -1.661032939568e+02 
-3.078086063941e+01 -2.344776652117e+00 0.0 
-2.344776652117e+00 -8.687704026373e+01 0.0 
0.0 0.0 -3.489737027094e+01 
-1.674756406433e+01 -4.690313134216e-01 0.0 
-4.690313134216e-01 -5.796877522117e+01 0.0 
0.0 0.0 -2.201490178565e+01 
-1.554439964627e+02 1.461560538917e+01 0.0 
1.461560538917e+01 -3.430260249173e+02 0.0 
0.0 0.0 -1.543120404948e+02 
-1.092200981811e+02 3.476621623809e+01 0.0 
3.476621623809e+01 -2.081540348221e+02 0.0 
0.0 0.0 -9.481223990097e+01 
-9.409467222659e+01 2.222701655798e+01 0.0 
2.222701655798e+01 -1.917421424903e+02 0.0 
0.0 0.0 -8.535104441506e+01 
-3.545575316862e+01 -5.606401988823e-01 0.0 
-5.606401988823e-01 -2.348494803545e+01 0.0 
0.0 0.0 -1.728221036122e+01 
-6.742663715527e+01 1.772767681867e+01 0.0 
1.772767681867e+01 -6.506229878099e+01 0.0 
0.0 0.0 -3.934668078088e+01 
-2.362031601019e+01 1.462311035264e+01 0.0 
1.462311035264e+01 -5.421791264170e+01 0.0 
0.0 0.0 -2.295146859557e+01 
-1.300743709838e+02 4.352234745590e+01 0.0 
4.352234745590e+01 -2.503008970067e+02 0.0 
0.0 0.0 -1.159730861091e+02 
-6.234590467435e+01 -2.626088338289e+00 0.0 
-2.626088338289e+00 -1.508160180828e+02 0.0 
0.0 0.0 -6.354857682715e+01 
-1.913088668028e+01 7.886722467731e+00 0.0 
7.886722467731e+00 -4.099216843880e+01 0.0 
0.0 0.0 -1.763691653572e+01 
-1.232126756444e+02 2.489554964568e+01 0.0 
2.489554964568e+01 -2.665201655263e+02 0.0 
0.0 0.0 -1.190109820445e+02 
-2.848923577357e+01 1.568165862724e-01 0.0 
1.568165862724e-01 -7.469591487458e+00 0.0 
0.0 0.0 -1.038764817831e+01 
-1.000495315958e+02 3.082107474633e+01 0.0 
3.082107474633e+01 -1.910862781386e+02 0.0 
0.0 0.0 -8.694074292030e+01 
-8.656593415103e+01 9.729191035445e-01 0.0 
9.729191035445e-01 -1.940468897913e+02 0.0 
0.0 0.0 -8.378384718271e+01 
-8.315666061178e+01 1.391043484158e+00 0.0 
1.391043484158e+00 -1.953655414275e+02 0.0 
0.0 0.0 -8.315666061178e+01 
9.997867645964e-01 4.060654058889e-02 0.0 
4.060654058889e-02 -6.732726886609e+00 0.0 
0.0 0.0 1.000000000000e+00 
9.958362551647e-01 -2.202934261335e-01 0.0 
-2.202934261335e-01 -1.065517953607e+01 0.0 
0.0 0.0 1.000000000000e+00 
-2.918615918202e+01 4.776109156863e-01 0.0 
4.776109156863e-01 -1.030556822181e+01 0.0 
0.0 0.0 -1.144751822115e+01 
-2.849093020988e+01 -2.448216748020e-01 0.0 
-2.448216748020e-01 -7.388634241498e+00 0.0 
0.0 0.0 -1.036386933541e+01 
-1.778933512073e+02 2.695876755535e-01 0.0 
2.695876755535e-01 -3.932126942095e+02 0.0 
0.0 0.0 -1.778930136743e+02 
-1.763724251026e+02 -5.496906911087e-01 0.0 
-5.496906911087e-01 -3.900454243363e+02 0.0 
0.0 0.0 -1.763710109892e+02 
1.304204385796e-01 -1.005578073352e+00 0.0 
-1.005578073352e+00 -2.273832279463e+01 0.0 
0.0 0.0 -4.527680363492e+00 
-2.387062639056e+01 3.845090613498e-01 0.0 
3.845090613498e-01 -8.219724107222e+00 0.0 
0.0 0.0 -1.012753149654e+01 
-1.600031887421e+02 4.380922878056e-01 0.0 
4.380922878056e-01 -3.559941521853e+02 0.0 
0.0 0.0 -1.600022094934e+02 
-1.324786364674e+02 3.236037643406e+01 0.0 
3.236037643406e+01 -2.775058316285e+02 0.0 
0.0 0.0 -1.255855857304e+02 
-2.502104060716e+01 -6.480449726582e-01 0.0 
-6.480449726582e-01 -7.517057762046e+01 0.0 
0.0 0.0 -2.965748546829e+01 
-1.596021028066e+02 4.071747575862e+00 0.0 
4.071747575862e+00 -3.549014229296e+02 0.0 
0.0 0.0 -1.595172488086e+02 
-1.136982351222e+02 -8.745666841408e-02 0.0 
-8.745666841408e-02 -2.571550455451e+02 0.0 
0.0 0.0 -1.124893822432e+02 
-9.666908289167e+01 5.166197932218e-01 0.0 
5.166197932218e-01 -2.214114973654e+02 0.0 
0.0 0.0 -9.530830830584e+01 
-5.547143310466e+01 1.112358149188e+00 0.0 
1.112358149188e+00 -7.600891977268e+01 0.0 
0.0 0.0 -3.904410586320e+01 
-2.158912933428e+01 -5.116083137260e+00 0.0 
-5.116083137260e+00 -6.627586744091e+01 0.0 
0.0 0.0 -2.595949903256e+01 
-1.093439130178e+02 2.448876694669e+01 0.0 
2.448876694669e+01 -2.365963962901e+02 0.0 
0.0 0.0 -1.047939246957e+02 
-1.820573281821e+01 -1.461301048399e+00 0.0 
-1.461301048399e+00 -6.086460181542e+01 0.0 
0.0 0.0 -2.332110039009e+01 
-8.766543022717e+01 -1.529387394868e+00 0.0 
-1.529387394868e+00 -2.028338545361e+02 0.0 
0.0 0.0 -8.674978542898e+01 
-1.233006763450e+02 4.078010282003e+01 0.0 
4.078010282003e+01 -2.401392691868e+02 0.0 
0.0 0.0 -1.104751064223e+02 
-7.643396069897e+01 1.045894184825e+00 0.0 
1.045894184825e+00 -1.515028994390e+02 0.0 
0.0 0.0 -6.798105804140e+01 
-9.709207127671e+01 -1.357542942845e+00 0.0 
-1.357542942845e+00 -2.203023726801e+02 0.0 
0.0 0.0 -9.481833318703e+01 
-4.731185924721e+01 1.222501825435e+00 0.0 
1.222501825435e+00 -5.528389298564e+01 0.0 
0.0 0.0 -3.037872566986e+01 
-1.298946372331e+02 3.606910538612e+01 0.0 
3.606910538612e+01 -2.656827013945e+02 0.0 
0.0 0.0 -1.209083730376e+02 
-1.166664392074e+02 4.088964417712e+01 0.0 
4.088964417712e+01 -2.230179094750e+02 0.0 
0.0 0.0 -1.027629539525e+02 
-1.102535923520e+02 4.007103080092e+01 0.0 
4.007103080092e+01 -2.024735815809e+02 0.0 
0.0 0.0 -9.341815217985e+01 
-2.929304142985e+01 -7.780310701219e-02 0.0 
-7.780310701219e-02 -8.110697315309e+00 0.0 
0.0 0.0 -1.082112162355e+01 
-1.061387933979e+02 2.177463788712e+01 0.0 
2.177463788712e+01 -2.327296950952e+02 0.0 
0.0 0.0 -1.024980884468e+02 
-1.043668559254e+02 3.516947623927e+01 0.0 
3.516947623927e+01 -2.010521332094e+02 0.0 
0.0 0.0 -9.122569674044e+01 
-4.439039283817e+01 -1.395987257233e+00 0.0 
-1.395987257233e+00 -1.154055683036e+02 0.0 
0.0 0.0 -4.753878834254e+01 
-1.182554338737e+01 -4.566884284900e+00 0.0 
-4.566884284900e+00 -2.640384758042e+01 0.0 
0.0 0.0 -1.106881729034e+01 
-1.257835999434e+02 3.627778490655e+01 0.0 
3.627778490655e+01 -2.557267254443e+02 0.0 
0.0 0.0 -1.163415776171e+02 
-1.318753699310e+02 1.595077171761e+01 0.0 
1.595077171761e+01 -2.926560693714e+02 0.0 
0.0 0.0 -1.303081974429e+02 
-1.482258592906e+01 -5.932170283715e+00 0.0 
-5.932170283715e+00 -5.106600727080e+01 0.0 
0.0 0.0 -1.936657795996e+01 
-6.008056103993e+01 1.796490558572e+00 0.0 
1.796490558572e+00 -9.052999753076e+01 0.0 
0.0 0.0 -4.478316757121e+01 
-1.675970040977e+02 1.490943169857e+00 0.0 
1.490943169857e+00 -3.717609025397e+02 0.0 
0.0 0.0 -1.675861168007e+02 
-1.277042342213e+02 3.305102729041e+01 0.0 
3.305102729041e+01 -2.656775736370e+02 0.0 
0.0 0.0 -1.201956034047e+02 
-1.313930375875e+02 3.495510524874e+01 0.0 
3.495510524874e+01 -2.710328037376e+02 0.0 
0.0 0.0 -1.231317100190e+02 
-1.234042831023e+02 6.134073563478e-01 0.0 
6.134073563478e-01 -2.786182024004e+02 0.0 
0.0 0.0 -1.228079533993e+02 
-1.846782624303e+01 6.539093746760e+00 0.0 
6.539093746760e+00 -2.089716061210e+01 0.0 
0.0 0.0 -1.168628710576e+01 
-2.003518863571e+01 1.404730832658e+01 0.0 
1.404730832658e+01 -1.753781372456e+01 0.0 
0.0 0.0 -1.087190070808e+01 
-3.033858172668e+01 1.835267867951e+01 0.0 
1.835267867951e+01 -5.819038136008e+01 0.0 
0.0 0.0 -2.615868892603e+01 
-6.111348600120e+01 9.973985575742e+00 0.0 
9.973985575742e+00 -4.681977763564e+01 0.0 
0.0 0.0 -3.197997909105e+01 
-1.052480246576e+02 2.173731078315e+01 0.0 
2.173731078315e+01 -2.308290680255e+02 0.0 
0.0 0.0 -1.015918737881e+02 
-8.383450669208e+01 1.132749009229e+01 0.0 
1.132749009229e+01 -1.671898546480e+02 0.0 
0.0 0.0 -7.490730840203e+01 
-1.525101386917e+02 2.096888702073e+01 0.0 
2.096888702073e+01 -3.330044105467e+02 0.0 
0.0 0.0 -1.501061021172e+02 
-1.813966193496e+01 -6.608639637756e+00 0.0 
-6.608639637756e+00 -4.119118589929e+01 0.0 
0.0 0.0 -1.739925435028e+01 
-1.574707899930e+01 -6.665129788274e+00 0.0 
-6.665129788274e+00 -4.226812163797e+01 0.0 
0.0 0.0 -1.700456019118e+01 
-2.235085634615e+01 1.473164687190e+01 0.0 
1.473164687190e+01 -1.926762262866e+01 0.0 
0.0 0.0 -1.208554369244e+01 
-6.125711185485e+01 1.242516623681e+00 0.0 
1.242516623681e+00 -9.571287817816e+01 0.0 
0.0 0.0 -4.669099700990e+01 
-5.703380304265e+01 -1.149178506917e+00 0.0 
-1.149178506917e+00 -1.417438981377e+02 0.0 
0.0 0.0 -5.923331035410e+01 
-1.000743723376e+02 2.795698821350e+01 0.0 
2.795698821350e+01 -1.851379083096e+02 0.0 
0.0 0.0 -8.516368419418e+01 
-2.255798734816e+01 8.474032555566e-01 0.0 
8.474032555566e-01 -7.002594180914e+01 0.0 
0.0 0.0 -2.737517874719e+01 
-1.439147786114e+02 1.981950723565e+01 0.0 
1.981950723565e+01 -3.155714965058e+02 0.0 
0.0 0.0 -1.416561347339e+02 
-4.694242674405e+01 1.130951855286e+00 0.0 
1.130951855286e+00 -4.070135680535e+01 0.0 
0.0 0.0 -2.589313506482e+01 
-1.466374209919e+02 3.082711424659e+01 0.0 
3.082711424659e+01 -3.109656277057e+02 0.0 
0.0 0.0 -1.410447533666e+02 
-1.213424172607e+02 2.880537929219e+01 0.0 
2.880537929219e+01 -2.575830837336e+02 0.0 
0.0 0.0 -1.155024254815e+02 
-6.576207913077e+01 1.511547701448e+01 0.0 
1.511547701448e+01 -5.224934943346e+01 0.0 
0.0 0.0 -3.500342856927e+01 
-1.580647937476e+02 1.097665598371e+01 0.0 
1.097665598371e+01 -3.500377814732e+02 0.0 
0.0 0.0 -1.574392077205e+02 
-1.031894482700e+02 3.101742443525e+01 0.0 
3.101742443525e+01 -2.021036953779e+02 0.0 
0.0 0.0 -9.118794309437e+01 
-8.473466963883e+01 2.191020565487e+00 0.0 
2.191020565487e+00 -1.797501506975e+02 0.0 
0.0 0.0 -7.894544610089e+01 
-2.353104311022e+01 1.490750236777e+01 0.0 
1.490750236777e+01 -1.943144447979e+01 0.0 
0.0 0.0 -1.248874627700e+01 
-9.061008482554e+01 2.181967575160e+01 0.0 
2.181967575160e+01 -1.699297779911e+02 0.0 
0.0 0.0 -7.776195884499e+01 
-1.383956152886e+02 3.941145474021e+01 0.0 
3.941145474021e+01 -2.794236969143e+02 0.0 
0.0 0.0 -1.281291342134e+02 
-1.429547116246e+02 2.010982731735e+01 0.0 
2.010982731735e+01 -3.133188030667e+02 0.0 
0.0 0.0 -1.406131258628e+02 
-1.263618260135e+02 2.734496823477e+01 0.0 
2.734496823477e+01 -2.705791032692e+02 0.0 
0.0 0.0 -1.213510568861e+02 
-1.719605336686e+02 5.562329728768e+00 0.0 
5.562329728768e+00 -3.804149454941e+02 0.0 
0.0 0.0 -1.718122158011e+02 
-1.056936715589e+02 3.730449953809e+01 0.0 
3.730449953809e+01 -1.999951863645e+02 0.0 
0.0 0.0 -9.130665737702e+01 
-1.962616809560e+01 5.525895364055e+00 0.0 
5.525895364055e+00 -1.017585952439e+01 0.0 
0.0 0.0 -9.492351186523e+00 
-2.079378922593e+01 9.741597334174e+00 0.0 
9.741597334174e+00 -4.554229005582e+01 0.0 
0.0 0.0 -1.950082378452e+01 
-1.200495931734e+02 4.220425296352e+01 0.0 
4.220425296352e+01 -2.281350417489e+02 0.0 
0.0 0.0 -1.055225353654e+02 
-6.457508955978e+01 9.704942910333e+00 0.0 
9.704942910333e+00 -6.312393092754e+01 0.0 
0.0 0.0 -3.790970614620e+01 
-1.614441613403e+02 9.042167165692e-01 0.0 
9.042167165692e-01 -3.589820474943e+02 0.0 
0.0 0.0 -1.614400224343e+02 
-1.304502742540e+02 3.034785523035e+01 0.0 
3.034785523035e+01 -2.757827868568e+02 0.0 
0.0 0.0 -1.243677075677e+02 
-1.658567950397e+02 4.423719346124e+00 0.0 
4.423719346124e+00 -3.678760755217e+02 0.0 
0.0 0.0 -1.657599730022e+02 
-6.829025732076e+01 2.412626243644e+00 0.0 
2.412626243644e+00 -1.173650875369e+02 0.0 
0.0 0.0 -5.529660345729e+01 
-1.484237460397e+02 2.901932506917e+01 0.0 
2.901932506917e+01 -3.169475658752e+02 0.0 
0.0 0.0 -1.435666866498e+02 
-1.542746966446e+02 9.216079702398e+00 0.0 
9.216079702398e+00 -3.426950724391e+02 0.0 
0.0 0.0 -1.538249900315e+02 
-1.533505619754e+02 8.590830755700e+00 0.0 
8.590830755700e+00 -3.409485617897e+02 0.0 
0.0 0.0 -1.529579765011e+02 
-5.890671356878e+01 -8.281516260713e-01 0.0 
-8.281516260713e-01 -1.456637422599e+02 0.0 
0.0 0.0 -6.097113674859e+01 
-1.725022501597e+02 4.889932428074e+00 0.0 
4.889932428074e+00 -3.816467532778e+02 0.0 
0.0 0.0 -1.723879828384e+02 
-4.108009312237e+01 2.167365426617e+00 0.0 
2.167365426617e+00 -2.555079365505e+01 0.0 
0.0 0.0 -1.958926603322e+01 
-8.063749519871e+01 6.319580078826e+00 0.0 
6.319580078826e+00 -1.602712015945e+02 0.0 
0.0 0.0 -7.187260903797e+01 
-1.097743021387e+01 -6.874538428540e+00 0.0 
-6.874538428540e+00 -4.142187225149e+01 0.0 
0.0 0.0 -1.531979073961e+01 
-7.659420320853e+01 2.963740999315e+00 0.0 
2.963740999315e+00 -1.444357400657e+02 0.0 
0.0 0.0 -6.590898298226e+01 
-6.158254430551e+01 1.917684125173e+00 0.0 
1.917684125173e+00 -9.262217518645e+01 0.0 
0.0 0.0 -4.586141584759e+01 
-8.880857786509e+00 2.450814411807e-01 0.0 
2.450814411807e-01 -4.161460042295e+01 0.0 
0.0 0.0 -1.474863746284e+01 
-2.030334208712e+01 -2.710609142198e+00 0.0 
-2.710609142198e+00 -6.487634079122e+01 0.0 
0.0 0.0 -2.515390486350e+01 
-1.085004070866e+02 3.638390784338e+01 0.0 
3.638390784338e+01 -2.139377289640e+02 0.0 
0.0 0.0 -9.716404510654e+01 
-8.535503169078e+01 1.575488739915e+01 0.0 
1.575488739915e+01 -1.815670600343e+02 0.0 
0.0 0.0 -7.967662751753e+01 
-7.992511217335e+01 3.431273927648e+00 0.0 
3.431273927648e+00 -1.628684939160e+02 0.0 
0.0 0.0 -7.243808182682e+01 
-1.453247642478e+02 2.669671358103e+01 0.0 
2.669671358103e+01 -3.126603521356e+02 0.0 
0.0 0.0 -1.411687899996e+02 
-4.774808719266e+01 3.436584571197e-01 0.0 
3.436584571197e-01 -5.426730138157e+01 0.0 
0.0 0.0 -3.020461657227e+01 
-6.499813510529e+00 -2.837825707323e+00 0.0 
-2.837825707323e+00 -2.615373950764e+01 0.0 
0.0 0.0 -9.396065905452e+00 
-2.250005174357e+01 4.553745358864e+00 0.0 
4.553745358864e+00 -3.447078233885e+01 0.0 
0.0 0.0 -1.669125022473e+01 
-6.469956764656e+00 -3.397613115282e+00 0.0 
-3.397613115282e+00 -2.945603616142e+01 0.0 
0.0 0.0 -1.036921273495e+01 
-1.770000535883e+01 -5.614717241906e+00 0.0 
-5.614717241906e+00 -5.733055068858e+01 0.0 
0.0 0.0 -2.210916681422e+01 
-1.762730541137e+01 9.186775536800e+00 0.0 
9.186775536800e+00 -7.057858569288e+00 0.0 
0.0 0.0 -7.201170993519e+00 
-8.467305343876e+01 -3.199059140458e+00 0.0 
-3.199059140458e+00 -1.967574655764e+02 0.0 
0.0 0.0 -8.402915570455e+01 
-1.606892880352e+02 -4.885039146713e-01 0.0 
-4.885039146713e-01 -3.574207115100e+02 0.0 
0.0 0.0 -1.606880750383e+02 
-1.117696078029e+02 3.927908665527e+01 0.0 
3.927908665527e+01 -2.147903035200e+02 0.0 
0.0 0.0 -9.850216174267e+01 
-7.583056987378e+01 2.190084822463e+01 0.0 
2.190084822463e+01 -7.625080031180e+01 0.0 
0.0 0.0 -4.522441105567e+01 
-7.280629282222e+01 -1.834536008671e+00 0.0 
-1.834536008671e+00 -1.745012146656e+02 0.0 
0.0 0.0 -7.379225224636e+01 
-1.549096089926e+02 6.760035941352e+00 0.0 
6.760035941352e+00 -3.446601990371e+02 0.0 
0.0 0.0 -1.546690815063e+02 
-1.463263072312e+02 1.302797620570e+01 0.0 
1.302797620570e+01 -3.246287453464e+02 0.0 
0.0 0.0 -1.453794240697e+02 
-1.428788113527e+02 3.111786937674e+01 0.0 
3.111786937674e+01 -3.023304859033e+02 0.0 
0.0 0.0 -1.370211752012e+02 
-1.324692415859e+02 3.742153962087e+01 0.0 
3.742153962087e+01 -2.692433215973e+02 0.0 
0.0 0.0 -1.229001473343e+02 
-1.169845092689e+02 3.766241180583e+01 0.0 
3.766241180583e+01 -2.318643542939e+02 0.0 
0.0 0.0 -1.057381743403e+02 
-1.119753873406e+01 -6.081508509893e+00 0.0 
-6.081508509893e+00 -4.151138671022e+01 0.0 
0.0 0.0 -1.541267763329e+01 
-2.388262105841e+01 -2.946307228314e-01 0.0 
-2.946307228314e-01 -3.364198637852e+01 0.0 
0.0 0.0 -1.685738223108e+01 
-1.607507359027e+02 1.457049128975e+00 0.0 
1.457049128975e+00 -3.575190444620e+02 0.0 
0.0 0.0 -1.607399471950e+02 
-9.162782770286e+00 -2.090999052639e-01 0.0 
-2.090999052639e-01 -4.220265939672e+01 0.0 
0.0 0.0 -1.500963265010e+01 
-1.240228034612e+01 -8.673363980311e-01 0.0 
-8.673363980311e-01 -4.888231668761e+01 0.0 
0.0 0.0 -1.798537911012e+01 
-2.175321014595e+01 1.212219386309e+01 0.0 
1.212219386309e+01 -2.633896692737e+01 0.0 
0.0 0.0 -1.402765312199e+01 
-1.018960852154e+01 -2.588052097212e+00 0.0 
-2.588052097212e+00 -4.017711949777e+01 0.0 
0.0 0.0 -1.471001840579e+01 
-1.610212905849e+02 9.683810691080e+00 0.0 
9.683810691080e+00 -3.566420902799e+02 0.0 
0.0 0.0 -1.605430822023e+02 
-1.348555266104e+02 4.230832710215e+01 0.0 
4.230832710215e+01 -2.650555541642e+02 0.0 
0.0 0.0 -1.223153038090e+02 
-8.113274107833e+01 9.347154481390e+00 0.0 
9.347154481390e+00 -1.661968724911e+02 0.0 
0.0 0.0 -7.379888407082e+01 
-1.458486643233e+02 3.274281693305e+01 0.0 
3.274281693305e+01 -3.068219782538e+02 0.0 
0.0 0.0 -1.394434689078e+02 
-1.424839157734e+02 1.437555117105e+01 0.0 
1.437555117105e+01 -3.159064660606e+02 0.0 
0.0 0.0 -1.413003576872e+02 
-5.191465560782e+01 5.614946832218e-01 0.0 
5.614946832218e-01 -6.575719381337e+01 0.0 
0.0 0.0 -3.490155482636e+01 
-9.271212847285e+01 2.200285576945e+01 0.0 
2.200285576945e+01 -2.029895047627e+02 0.0 
0.0 0.0 -8.848415432020e+01 
-3.073804191868e+01 -5.006776698329e+00 0.0 
-5.006776698329e+00 -8.569580428841e+01 0.0 
0.0 0.0 -3.453015386213e+01 
-2.825519002421e+01 -1.182752871912e-01 0.0 
-1.182752871912e-01 -7.178872932367e+00 0.0 
0.0 0.0 -1.023021888697e+01 
-1.815574175795e+01 -7.573749493988e+00 0.0 
-7.573749493988e+00 -5.647041821258e+01 0.0 
0.0 0.0 -2.198784799116e+01 
-1.988087156683e+00 -1.028479418622e+00 0.0 
-1.028479418622e+00 -2.715208820554e+01 0.0 
0.0 0.0 -8.888912489147e+00 
-1.742126283445e+02 2.830247337934e+00 0.0 
2.830247337934e+00 -3.854400045801e+02 0.0 
0.0 0.0 -1.741747125093e+02 
-6.159037951717e+01 1.296811751088e+01 0.0 
1.296811751088e+01 -3.829685360608e+01 0.0 
0.0 0.0 -2.956616993698e+01 
-1.559705756268e+01 -3.044580771018e-01 0.0 
-3.044580771018e-01 -5.558469524041e+01 0.0 
0.0 0.0 -2.095452584093e+01 
-8.074573214768e+01 -3.008209849819e+00 0.0 
-3.008209849819e+00 -1.880949317929e+02 0.0 
0.0 0.0 -8.025219918216e+01 
-1.319347514383e+02 4.230931889088e+01 0.0 
4.230931889088e+01 -2.578964144205e+02 0.0 
0.0 0.0 -1.190429027321e+02 
-8.803375884815e+01 1.536694652941e+01 0.0 
1.536694652941e+01 -1.680702770157e+02 0.0 
0.0 0.0 -7.643121075915e+01 
-1.031268657478e+02 3.377315343628e+01 0.0 
3.377315343628e+01 -2.067715390585e+02 0.0 
0.0 0.0 -9.309307522527e+01 
-5.181629905907e+01 7.647950373964e-01 0.0 
7.647950373964e-01 -1.309152601362e+02 0.0 
0.0 0.0 -5.441946775858e+01 
-2.110212996437e+01 2.004809153300e+00 0.0 
2.004809153300e+00 -3.496225119817e+01 0.0 
0.0 0.0 -1.641931434876e+01 
-1.637060622434e+02 5.513068324058e+00 0.0 
5.513068324058e+00 -3.632313207808e+02 0.0 
0.0 0.0 -1.635538471648e+02 
-8.880707568369e+01 1.891232968598e+00 0.0 
1.891232968598e+00 -1.976864909500e+02 0.0 
0.0 0.0 -8.554806999010e+01 
-1.769668927403e+02 6.839057108071e-01 0.0 
6.839057108071e-01 -3.912797174538e+02 0.0 
0.0 0.0 -1.769647103126e+02 
-3.383530471919e+01 -4.872037878729e-01 0.0 
-4.872037878729e-01 -2.175583329579e+01 0.0 
0.0 0.0 -1.627734140450e+01 
-1.494179297525e+02 1.498832718065e+01 0.0 
1.498832718065e+01 -3.301745524057e+02 0.0 
0.0 0.0 -1.481835284791e+02 
-1.736903792075e+01 2.341761657922e-01 0.0 
2.341761657922e-01 -5.927402143006e+01 0.0 
0.0 0.0 -2.259291780524e+01 
-9.462336036968e+01 2.565139784383e+01 0.0 
2.565139784383e+01 -1.830751689263e+02 0.0 
0.0 0.0 -8.290955878879e+01 
-2.663805462399e+00 -8.273741460710e-01 0.0 
-8.273741460710e-01 -2.356765511176e+01 0.0 
0.0 0.0 -7.977195919786e+00 
-1.589718761920e+02 1.306568156657e+01 0.0 
1.306568156657e+01 -3.511277511613e+02 0.0 
0.0 0.0 -1.580875421165e+02 
-1.095180390719e+02 3.736794734825e+01 0.0 
3.736794734825e+01 -2.140625068964e+02 0.0 
0.0 0.0 -9.753492357884e+01 
-1.850700993995e+01 3.885539444463e+00 0.0 
3.885539444463e+00 -2.206004381540e+01 0.0 
0.0 0.0 -1.227938766123e+01 
-1.275990125493e+02 3.355401751147e+01 0.0 
3.355401751147e+01 -2.646395833620e+02 0.0 
0.0 0.0 -1.198244645570e+02 
-6.602367933147e+01 3.117813036372e+00 0.0 
3.117813036372e+00 -1.074333273574e+02 0.0 
0.0 0.0 -5.163710200667e+01 
-8.279799662408e+01 1.151049963746e+01 0.0 
1.151049963746e+01 -1.806803773063e+02 0.0 
0.0 0.0 -7.864351217911e+01 
-1.585625796136e+02 2.633653739276e+01 0.0 
2.633653739276e+01 -3.415572677160e+02 0.0 
0.0 0.0 -1.548476494021e+02 
-5.555634031592e+01 1.735404530383e+00 0.0 
1.735404530383e+00 -7.985956462771e+01 0.0 
0.0 0.0 -4.022477148309e+01 
-1.326539877289e+02 4.300821238317e+01 0.0 
4.300821238317e+01 -2.580268474438e+02 0.0 
0.0 0.0 -1.193187442249e+02 
-1.069940467120e+02 3.362416190244e+01 0.0 
3.362416190244e+01 -1.953014511351e+02 0.0 
0.0 0.0 -9.028864935413e+01 
-5.877052967450e+01 1.403690329988e+00 0.0 
1.403690329988e+00 -9.124596361533e+01 0.0 
0.0 0.0 -4.460494798695e+01 
-1.270761425088e+02 4.118062344796e+01 0.0 
4.118062344796e+01 -2.485518759798e+02 0.0 
0.0 0.0 -1.144319119511e+02 
-6.713848851584e+01 -9.801628439089e-01 0.0 
-9.801628439089e-01 -1.609349060544e+02 0.0 
0.0 0.0 -6.802201837109e+01 
-2.809875485185e+01 5.477211011328e-02 0.0 
5.477211011328e-02 -7.234109832810e+00 0.0 
0.0 0.0 -1.019985940540e+01 
-1.378014270707e+02 3.138709756871e+01 0.0 
3.138709756871e+01 -2.907418562719e+02 0.0 
0.0 0.0 -1.316106253767e+02 
-8.241006179111e+01 9.081708434804e-01 0.0 
9.081708434804e-01 -1.809797468667e+02 0.0 
0.0 0.0 -7.861694259735e+01 
9.995778326748e-01 -6.271966260307e-02 0.0 
-6.271966260307e-02 -8.318002228875e+00 0.0 
0.0 0.0 1.000000000000e+00 
-2.782443283004e+01 -8.187903911130e-02 0.0 
-8.187903911130e-02 -6.999542191582e+00 0.0 
0.0 0.0 -1.004719250649e+01 
-1.712651714706e+02 7.136820772779e-01 0.0 
7.136820772779e-01 -3.794177201727e+02 0.0 
0.0 0.0 -1.712627245339e+02 
-2.530029633719e+01 -2.513952301194e+00 0.0 
-2.513952301194e+00 -7.538962220945e+01 0.0 
0.0 0.0 -2.980697556399e+01 
-1.440634139158e+02 1.759561567507e+01 0.0 
1.759561567507e+01 -3.173913937752e+02 0.0 
0.0 0.0 -1.422952103777e+02 
-1.145790271587e+02 3.882033728655e+01 0.0 
3.882033728655e+01 -2.074696058540e+02 0.0 
0.0 0.0 -9.621458990380e+01 
-8.760463664917e+01 1.087720208677e+01 0.0 
1.087720208677e+01 -1.813537767924e+02 0.0 
0.0 0.0 -8.028752403246e+01 
-2.260622364171e+01 -1.015870824522e+00 0.0 
-1.015870824522e+00 -7.010597781171e+01 0.0 
0.0 0.0 -2.741366043603e+01 
-2.372019471407e+01 8.436772867584e+00 0.0 
8.436772867584e+00 -4.123143533229e+01 0.0 
0.0 0.0 -1.908548901391e+01 
-1.007257009822e+02 -1.806587358225e+00 0.0 
-1.806587358225e+00 -2.301189413335e+02 0.0 
0.0 0.0 -9.950510816165e+01 
-7.025066925167e+01 1.652001953727e+00 0.0 
1.652001953727e+00 -1.292188944006e+02 0.0 
0.0 0.0 -5.944086909568e+01 
-3.383233303681e+01 1.423720931774e-01 0.0 
1.423720931774e-01 -5.389695858378e+00 0.0 
0.0 0.0 -1.136660866856e+01 
-9.519880766300e+01 2.885978593431e+01 0.0 
2.885978593431e+01 -1.974670979238e+02 0.0 
0.0 0.0 -8.744181387732e+01 
-5.268046447932e+01 7.301371173385e-01 0.0 
7.301371173385e-01 -7.341521086770e+01 0.0 
0.0 0.0 -3.742870260411e+01 
-2.302990090387e+01 -6.242825454567e+00 0.0 
-6.242825454567e+00 -6.845986503182e+01 0.0 
0.0 0.0 -2.704692978071e+01 
-4.843754995219e+01 7.694785537201e-01 0.0 
7.694785537201e-01 -5.942579436470e+01 0.0 
0.0 0.0 -3.195900329507e+01 
-1.413490734241e+02 3.388279694787e+01 0.0 
3.388279694787e+01 -2.952280480281e+02 0.0 
0.0 0.0 -1.342187764079e+02 
-1.062549841245e+02 9.962089967185e-01 0.0 
9.962089967185e-01 -2.414778028126e+02 0.0 
0.0 0.0 -1.049567666564e+02 
-1.991811033125e+01 1.011272176730e+01 0.0 
1.011272176730e+01 -1.272394568284e+01 0.0 
0.0 0.0 -9.366614128850e+00 
-5.971227525696e+01 -2.644347176610e+00 0.0 
-2.644347176610e+00 -1.463294655195e+02 0.0 
0.0 0.0 -6.141252223294e+01 
-9.185294982075e+01 -2.979078599535e+00 0.0 
-2.979078599535e+00 -2.116228868098e+02 0.0 
0.0 0.0 -9.064275098918e+01 
-1.110785205381e+02 -1.782933392564e+00 0.0 
-1.782933392564e+00 -2.510204049967e+02 0.0 
0.0 0.0 -1.095513262829e+02 
-1.406149686937e+02 2.825209251915e+01 0.0 
2.825209251915e+01 -3.007621408613e+02 0.0 
0.0 0.0 -1.357770719261e+02 
-8.949608355390e+01 -3.792401348658e-01 0.0 
-3.792401348658e-01 -2.060184616246e+02 0.0 
0.0 0.0 -8.825436355356e+01 
-9.573743672648e+01 -2.109070853961e+00 0.0 
-2.109070853961e+00 -2.187168353903e+02 0.0 
0.0 0.0 -9.402932628170e+01 
-9.296480805989e+00 -2.818603211533e+00 0.0 
-2.818603211533e+00 -3.847142034346e+01 0.0 
0.0 0.0 -1.393037034483e+01 
-1.588055910291e+02 3.220465192190e+00 0.0 
3.220465192190e+00 -3.533416532138e+02 0.0 
0.0 0.0 -1.587522921437e+02 
-1.249374747554e+02 3.582887040434e+01 0.0 
3.582887040434e+01 -2.545797769053e+02 0.0 
0.0 0.0 -1.156945347934e+02 
-2.078559822125e+01 8.699121699033e+00 0.0 
8.699121699033e+00 -5.239626442284e+01 0.0 
0.0 0.0 -2.155455879323e+01 
-8.138289411443e+01 1.953675836151e+00 0.0 
1.953675836151e+00 -1.799049121011e+02 0.0 
0.0 0.0 -7.798634186467e+01 
-1.708620280096e+02 -2.240614233549e-01 0.0 
-2.240614233549e-01 -3.785858612829e+02 0.0 
0.0 0.0 -1.708617863259e+02 
-3.465034602275e+01 6.225936212628e-01 0.0 
6.225936212628e-01 -2.290872515471e+01 0.0 
0.0 0.0 -1.686772135324e+01 
-5.372188109730e+01 6.492981220082e-01 0.0 
6.492981220082e-01 -7.381615135502e+01 0.0 
0.0 0.0 -3.786140973569e+01 
-8.936450754081e+01 -2.663135352822e+00 0.0 
-2.663135352822e+00 -2.055979813576e+02 0.0 
0.0 0.0 -8.808874666953e+01 
-9.315688603533e+01 -1.205028298011e+00 0.0 
-1.205028298011e+00 -2.133845736235e+02 0.0 
0.0 0.0 -9.156243789766e+01 
-9.534237430771e+01 -1.128077642947e+00 0.0 
-1.128077642947e+00 -2.194185588444e+02 0.0 
0.0 0.0 -9.435419555825e+01 
-1.394010362155e+02 1.744569289952e+01 0.0 
1.744569289952e+01 -3.076247013710e+02 0.0 
0.0 0.0 -1.376108747516e+02 
-1.554282732378e+01 -5.877533246689e+00 0.0 
-5.877533246689e+00 -5.268225792221e+01 0.0 
0.0 0.0 -2.006752557380e+01 
-1.285495287023e+02 3.805114548371e+01 0.0 
3.805114548371e+01 -2.588422100720e+02 0.0 
0.0 0.0 -1.182509532082e+02 
-4.055510453243e+01 8.357110178302e-02 0.0 
8.357110178302e-02 -3.953551048835e+01 0.0 
0.0 0.0 -2.362718450623e+01 
-1.018434758867e+02 2.810521864480e+01 0.0 
2.810521864480e+01 -1.974023048913e+02 0.0 
0.0 0.0 -8.937373423340e+01 
-1.405544938020e+02 1.773355166064e+01 0.0 
1.773355166064e+01 -3.098789577859e+02 0.0 
0.0 0.0 -1.387171744635e+02 
-5.065430234602e+01 1.392910489946e+00 0.0 
1.392910489946e+00 -6.070554889560e+01 0.0 
0.0 0.0 -3.300795537249e+01 
-1.203076132715e+02 3.962796412753e+01 0.0 
3.962796412753e+01 -2.354764857357e+02 0.0 
0.0 0.0 -1.079896687354e+02 
-1.405682554285e+02 2.770633948618e+01 0.0 
2.770633948618e+01 -3.012659456483e+02 0.0 
0.0 0.0 -1.359254647251e+02 
-1.442234437481e+02 2.981102549828e+01 0.0 
2.981102549828e+01 -3.068706787437e+02 0.0 
0.0 0.0 -1.389316584344e+02 
-1.986024159443e+01 9.840586518369e+00 0.0 
9.840586518369e+00 -1.821549434675e+01 0.0 
0.0 0.0 -1.123675364341e+01 
-1.210593439087e+02 4.025769252377e+01 0.0 
4.025769252377e+01 -2.358214085539e+02 0.0 
0.0 0.0 -1.083456925688e+02 
-1.264270744742e+02 4.032015920134e+01 0.0 
4.032015920134e+01 -2.489441995811e+02 0.0 
0.0 0.0 -1.143485609738e+02 
-8.860354340880e+00 -1.140115754275e+00 0.0 
-1.140115754275e+00 -3.966545505051e+01 0.0 
0.0 0.0 -1.415774281742e+01 
-8.489621972339e+01 -1.217271797636e+00 0.0 
-1.217271797636e+00 -1.962450038444e+02 0.0 
0.0 0.0 -8.394236707035e+01 
-2.122059212874e+01 7.827213495203e+00 0.0 
7.827213495203e+00 -1.702624055467e+01 0.0 
0.0 0.0 -1.107404980502e+01 
-1.254229682705e+02 4.199464468920e+01 0.0 
4.199464468920e+01 -2.424445228379e+02 0.0 
0.0 0.0 -1.119124900742e+02 

TENSORS element_materi_strain_total float
-3.680544803587e-04 2.452839886582e-03 0.0 
2.452839886582e-03 6.376016768779e-03 0.0 
0.0 0.0 0.0 
-5.146676992256e-04 2.178276969041e-03 0.0 
2.178276969041e-03 6.206680719568e-03 0.0 
0.0 0.0 0.0 
-5.014891017019e-05 4.593698544682e-03 0.0 
4.593698544682e-03 1.346772238115e-02 0.0 
0.0 0.0 0.0 
-5.447251100473e-04 3.623938650860e-04 0.0 
3.623938650860e-04 1.735815384997e-02 0.0 
0.0 0.0 0.0 
-1.708173985702e-03 9.680031629667e-05 0.0 
9.680031629667e-05 1.523581665363e-02 0.0 
0.0 0.0 0.0 
-3.111667797671e-04 6.675089875405e-04 0.0 
6.675089875405e-04 1.288413575446e-03 0.0 
0.0 0.0 0.0 
-1.614460153471e-03 8.684873038620e-05 0.0 
8.684873038620e-05 1.520840704521e-02 0.0 
0.0 0.0 0.0 
-4.546099567851e-04 2.474626934324e-03 0.0 
2.474626934324e-03 5.753920624738e-03 0.0 
0.0 0.0 0.0 
-1.698135341078e-03 3.001197736455e-05 0.0 
3.001197736455e-05 1.521470861453e-02 0.0 
0.0 0.0 0.0 
-5.377391847085e-04 6.609254363841e-04 0.0 
6.609254363841e-04 1.734099040071e-02 0.0 
0.0 0.0 0.0 
-1.918191262267e-04 -9.059033398523e-05 0.0 
-9.059033398523e-05 5.040728557863e-03 0.0 
0.0 0.0 0.0 
-4.442466920274e-04 1.897602044515e-03 0.0 
1.897602044515e-03 5.407691403124e-03 0.0 
0.0 0.0 0.0 
1.219450378067e-04 7.155781246338e-05 0.0 
7.155781246338e-05 6.964769945532e-03 0.0 
0.0 0.0 0.0 
-2.167445696291e-03 5.631201236350e-04 0.0 
5.631201236350e-04 1.563089888898e-02 0.0 
0.0 0.0 0.0 
5.288854432939e-05 3.896513948701e-05 0.0 
3.896513948701e-05 7.190860761240e-03 0.0 
0.0 0.0 0.0 
-3.270793775451e-04 5.425556058170e-04 0.0 
5.425556058170e-04 1.742157188542e-02 0.0 
0.0 0.0 0.0 
-1.787669657053e-03 1.179334928594e-04 0.0 
1.179334928594e-04 1.513910351673e-02 0.0 
0.0 0.0 0.0 
-1.504736220551e-04 2.630862823448e-04 0.0 
2.630862823448e-04 1.185636739970e-03 0.0 
0.0 0.0 0.0 
1.187392626514e-03 2.662837770543e-05 0.0 
2.662837770543e-05 6.290580138641e-04 0.0 
0.0 0.0 0.0 
9.719239215411e-04 -2.879861166445e-05 0.0 
-2.879861166445e-05 7.298494678178e-04 0.0 
0.0 0.0 0.0 
-6.722454059490e-04 6.488983889776e-04 0.0 
6.488983889776e-04 1.734396659957e-02 0.0 
0.0 0.0 0.0 
-3.911556559757e-04 2.386522407950e-03 0.0 
2.386522407950e-03 7.526803586719e-03 0.0 
0.0 0.0 0.0 
-7.210885876469e-04 2.894231986505e-03 0.0 
2.894231986505e-03 8.012440058274e-03 0.0 
0.0 0.0 0.0 
8.001044484769e-04 1.280742241784e-03 0.0 
1.280742241784e-03 7.359674284185e-03 0.0 
0.0 0.0 0.0 
-2.343324524719e-03 1.344399159687e-03 0.0 
1.344399159687e-03 1.557918742991e-02 0.0 
0.0 0.0 0.0 
-1.961634502095e-04 -1.175459955746e-04 0.0 
-1.175459955746e-04 5.240940262342e-03 0.0 
0.0 0.0 0.0 
-3.211817631805e-03 1.237662708765e-03 0.0 
1.237662708765e-03 1.521794340292e-02 0.0 
0.0 0.0 0.0 
7.295325913241e-04 3.756818645355e-03 0.0 
3.756818645355e-03 1.045959567341e-02 0.0 
0.0 0.0 0.0 
-2.616851612034e-03 1.598824562068e-03 0.0 
1.598824562068e-03 1.555781410103e-02 0.0 
0.0 0.0 0.0 
6.843446298093e-04 1.259436234758e-03 0.0 
1.259436234758e-03 7.657107620611e-03 0.0 
0.0 0.0 0.0 
2.954830724340e-04 -3.713111898083e-04 0.0 
-3.713111898083e-04 1.140465161279e-03 0.0 
0.0 0.0 0.0 
1.277940077122e-04 -3.245967435806e-04 0.0 
-3.245967435806e-04 2.769889053864e-04 0.0 
0.0 0.0 0.0 
-6.518282096110e-04 4.752684998957e-03 0.0 
4.752684998957e-03 1.378814270630e-02 0.0 
0.0 0.0 0.0 
-1.597420945985e-04 -6.814979283393e-05 0.0 
-6.814979283393e-05 6.111673033837e-03 0.0 
0.0 0.0 0.0 
3.196924280964e-04 5.016002056093e-04 0.0 
5.016002056093e-04 7.411757935965e-03 0.0 
0.0 0.0 0.0 
1.848128921771e-04 4.085015584314e-04 0.0 
4.085015584314e-04 7.671093162796e-03 0.0 
0.0 0.0 0.0 
7.493242307599e-05 2.068745551748e-04 0.0 
2.068745551748e-04 7.658763712761e-03 0.0 
0.0 0.0 0.0 
7.205934191648e-04 2.351995195633e-03 0.0 
2.351995195633e-03 8.683906565361e-03 0.0 
0.0 0.0 0.0 
-1.583774020942e-03 -4.234300871187e-05 0.0 
-4.234300871187e-05 1.475716683855e-02 0.0 
0.0 0.0 0.0 
-1.556028428597e-03 6.370898700786e-05 0.0 
6.370898700786e-05 1.477435842508e-02 0.0 
0.0 0.0 0.0 
-8.410788226331e-04 3.539490907305e-03 0.0 
3.539490907305e-03 9.564877071535e-03 0.0 
0.0 0.0 0.0 
2.389957660609e-04 7.711168771156e-04 0.0 
7.711168771156e-04 7.756368991062e-03 0.0 
0.0 0.0 0.0 
-5.440046291810e-04 1.933389586940e-03 0.0 
1.933389586940e-03 4.295845989784e-03 0.0 
0.0 0.0 0.0 
-2.744524536290e-03 1.330674104359e-03 0.0 
1.330674104359e-03 1.511574111473e-02 0.0 
0.0 0.0 0.0 
-7.041116095949e-04 1.192632683920e-04 0.0 
1.192632683920e-04 1.723331245004e-02 0.0 
0.0 0.0 0.0 
-4.938979782861e-04 1.565110382648e-03 0.0 
1.565110382648e-03 4.262195112553e-03 0.0 
0.0 0.0 0.0 
3.014335032809e-04 -3.400053783361e-04 0.0 
-3.400053783361e-04 7.554290073588e-04 0.0 
0.0 0.0 0.0 
-4.877137050890e-04 2.191433410461e-04 0.0 
2.191433410461e-04 1.724442661504e-02 0.0 
0.0 0.0 0.0 
-2.873275426232e-04 -2.508594419805e-04 0.0 
-2.508594419805e-04 5.889055639858e-04 0.0 
0.0 0.0 0.0 
-2.248613408517e-03 4.513050797218e-04 0.0 
4.513050797218e-04 1.547977715382e-02 0.0 
0.0 0.0 0.0 
-7.643787484778e-04 3.263664329170e-03 0.0 
3.263664329170e-03 8.745080195150e-03 0.0 
0.0 0.0 0.0 
9.375956005064e-04 7.244778035298e-05 0.0 
7.244778035298e-05 1.314639532644e-03 0.0 
0.0 0.0 0.0 
1.343311646266e-03 -6.438601937831e-04 0.0 
-6.438601937831e-04 9.606724989508e-04 0.0 
0.0 0.0 0.0 
-4.436517820756e-04 3.114821322081e-03 0.0 
3.114821322081e-03 8.809985438486e-03 0.0 
0.0 0.0 0.0 
-8.570944579974e-04 3.239836393929e-03 0.0 
3.239836393929e-03 1.582925349431e-02 0.0 
0.0 0.0 0.0 
4.055982252598e-04 -6.509163296903e-05 0.0 
-6.509163296903e-05 2.301443387328e-03 0.0 
0.0 0.0 0.0 
7.233034466907e-04 -1.396571295487e-05 0.0 
-1.396571295487e-05 1.379200544330e-03 0.0 
0.0 0.0 0.0 
-5.799428687037e-05 -2.515189254523e-05 0.0 
-2.515189254523e-05 6.112837403586e-03 0.0 
0.0 0.0 0.0 
1.205681714665e-03 4.352998103448e-05 0.0 
4.352998103448e-05 2.710914777231e-04 0.0 
0.0 0.0 0.0 
-3.977816317651e-04 5.266090815508e-04 0.0 
5.266090815508e-04 1.742180249458e-02 0.0 
0.0 0.0 0.0 
-1.153755198441e-03 -1.071505531592e-04 0.0 
-1.071505531592e-04 8.969325698349e-04 0.0 
0.0 0.0 0.0 
1.098328496938e-03 3.209120103508e-03 0.0 
3.209120103508e-03 8.819119865940e-03 0.0 
0.0 0.0 0.0 
2.528128805803e-04 2.906217616623e-03 0.0 
2.906217616623e-03 5.497740357025e-03 0.0 
0.0 0.0 0.0 
1.089627072640e-03 -3.414703498754e-04 0.0 
-3.414703498754e-04 7.763262079068e-04 0.0 
0.0 0.0 0.0 
9.880671422646e-05 4.576601212322e-05 0.0 
4.576601212322e-05 7.032026987897e-03 0.0 
0.0 0.0 0.0 
-4.287830171069e-04 2.656962243266e-03 0.0 
2.656962243266e-03 8.163443610670e-03 0.0 
0.0 0.0 0.0 
-6.182702891168e-04 4.585320370416e-05 0.0 
4.585320370416e-05 6.257512276029e-04 0.0 
0.0 0.0 0.0 
-1.878901259799e-04 4.899615449729e-03 0.0 
4.899615449729e-03 1.320515103197e-02 0.0 
0.0 0.0 0.0 
8.394699990393e-04 -7.225775093568e-04 0.0 
-7.225775093568e-04 4.888227404287e-04 0.0 
0.0 0.0 0.0 
3.517313033341e-04 4.358561511862e-03 0.0 
4.358561511862e-03 1.153202295647e-02 0.0 
0.0 0.0 0.0 
-8.434581043237e-05 -1.887632273715e-04 0.0 
-1.887632273715e-04 5.315948615776e-03 0.0 
0.0 0.0 0.0 
0.0 2.317643857126e-03 0.0 
2.317643857126e-03 1.687075219010e-02 0.0 
0.0 0.0 0.0 
7.208236689924e-04 3.672324913439e-03 0.0 
3.672324913439e-03 9.817956414199e-03 0.0 
0.0 0.0 0.0 
1.534945674595e-03 -2.016438774578e-05 0.0 
-2.016438774578e-05 -7.249154891733e-04 0.0 
0.0 0.0 0.0 
2.393818600581e-04 -9.329871108698e-05 0.0 
-9.329871108698e-05 2.504794100823e-03 0.0 
0.0 0.0 0.0 
-8.932439043681e-04 1.531662406415e-03 0.0 
1.531662406415e-03 1.723417231388e-02 0.0 
0.0 0.0 0.0 
-1.311357789897e-03 3.605177059398e-03 0.0 
3.605177059398e-03 1.554228089081e-02 0.0 
0.0 0.0 0.0 
-4.548143473920e-04 1.211075235658e-03 0.0 
1.211075235658e-03 2.967484005192e-03 0.0 
0.0 0.0 0.0 
5.778681843915e-04 -6.858456849877e-05 0.0 
-6.858456849877e-05 7.657595182387e-04 0.0 
0.0 0.0 0.0 
-6.933343025983e-04 1.698016814897e-03 0.0 
1.698016814897e-03 2.988226616585e-03 0.0 
0.0 0.0 0.0 
1.047842859629e-03 -6.219279565756e-04 0.0 
-6.219279565756e-04 4.720873189572e-04 0.0 
0.0 0.0 0.0 
-1.881946991401e-03 9.842152319501e-05 0.0 
9.842152319501e-05 1.518817145947e-02 0.0 
0.0 0.0 0.0 
-7.088924133630e-04 2.738987034078e-03 0.0 
2.738987034078e-03 7.260045814862e-03 0.0 
0.0 0.0 0.0 
-4.609744675019e-04 2.047626588702e-03 0.0 
2.047626588702e-03 6.872444273939e-03 0.0 
0.0 0.0 0.0 
-1.823694764128e-03 1.111598603717e-04 0.0 
1.111598603717e-04 1.546523406745e-02 0.0 
0.0 0.0 0.0 
-1.679151689156e-03 1.320602867905e-04 0.0 
1.320602867905e-04 1.546501777344e-02 0.0 
0.0 0.0 0.0 
-1.689317647543e-04 -1.151208291903e-04 0.0 
-1.151208291903e-04 5.550688781767e-03 0.0 
0.0 0.0 0.0 
-2.204392579266e-04 6.509509361187e-06 0.0 
6.509509361187e-06 6.027489103320e-03 0.0 
0.0 0.0 0.0 
-1.628116174052e-03 3.301098741794e-03 0.0 
3.301098741794e-03 1.340882058280e-02 0.0 
0.0 0.0 0.0 
-1.846618197563e-03 7.456602189505e-05 0.0 
7.456602189505e-05 1.523258298530e-02 0.0 
0.0 0.0 0.0 
2.005813961117e-04 -3.667316140556e-04 0.0 
-3.667316140556e-04 3.012838237832e-04 0.0 
0.0 0.0 0.0 
-2.655038207608e-03 1.188826328449e-03 0.0 
1.188826328449e-03 1.508423478157e-02 0.0 
0.0 0.0 0.0 
-1.097190800540e-03 1.217658298538e-04 0.0 
1.217658298538e-04 1.659007471432e-02 0.0 
0.0 0.0 0.0 
-1.211940318063e-03 2.022607184937e-04 0.0 
2.022607184937e-04 1.655196136947e-02 0.0 
0.0 0.0 0.0 
-7.460291232101e-04 2.633715614861e-03 0.0 
2.633715614861e-03 1.675409062196e-02 0.0 
0.0 0.0 0.0 
4.065648297809e-04 2.462755293204e-03 0.0 
2.462755293204e-03 9.418348019991e-03 0.0 
0.0 0.0 0.0 
-2.049159759731e-03 1.602771800252e-04 0.0 
1.602771800252e-04 1.523175093889e-02 0.0 
0.0 0.0 0.0 
4.429204468412e-04 7.483859057000e-04 0.0 
7.483859057000e-04 7.704723356799e-03 0.0 
0.0 0.0 0.0 
-1.399181754553e-03 9.948747633343e-07 0.0 
9.948747633343e-07 1.573417924094e-02 0.0 
0.0 0.0 0.0 
5.001424757203e-04 3.131546792465e-03 0.0 
3.131546792465e-03 5.657607774421e-03 0.0 
0.0 0.0 0.0 
-1.687863356514e-03 3.529622793180e-05 0.0 
3.529622793180e-05 1.499664148399e-02 0.0 
0.0 0.0 0.0 
1.211828457470e-04 1.140275416317e-04 0.0 
1.140275416317e-04 7.186100970859e-03 0.0 
0.0 0.0 0.0 
2.252238677441e-03 2.772622413750e-03 0.0 
2.772622413750e-03 6.254630405027e-03 0.0 
0.0 0.0 0.0 
1.071982139151e-03 3.058809431945e-03 0.0 
3.058809431945e-03 8.843192630511e-03 0.0 
0.0 0.0 0.0 
7.510680339684e-04 2.143787748151e-03 0.0 
2.143787748151e-03 3.984293154150e-03 0.0 
0.0 0.0 0.0 
-2.905229604288e-04 -3.482945127793e-04 0.0 
-3.482945127793e-04 1.069439716380e-03 0.0 
0.0 0.0 0.0 
4.592868947784e-05 -5.307324289697e-05 0.0 
-5.307324289697e-05 6.563467046793e-03 0.0 
0.0 0.0 0.0 
-1.061838939538e-03 2.465169008695e-04 0.0 
2.465169008695e-04 1.683210577858e-02 0.0 
0.0 0.0 0.0 
-1.012510185831e-03 -2.170765011928e-04 0.0 
-2.170765011928e-04 9.113122740794e-04 0.0 
0.0 0.0 0.0 
7.509260984362e-05 1.783531309342e-04 0.0 
1.783531309342e-04 7.279020642720e-03 0.0 
0.0 0.0 0.0 
-1.373561226002e-03 3.165135466047e-03 0.0 
3.165135466047e-03 1.279963188327e-02 0.0 
0.0 0.0 0.0 
1.539705435942e-03 7.537124059357e-07 0.0 
7.537124059357e-07 -6.738421225173e-04 0.0 
0.0 0.0 0.0 
8.036548238253e-04 2.144714043699e-03 0.0 
2.144714043699e-03 4.810987214747e-03 0.0 
0.0 0.0 0.0 
-2.011771108468e-03 3.186402958780e-03 0.0 
3.186402958780e-03 1.332835424302e-02 0.0 
0.0 0.0 0.0 
6.701521767716e-05 -2.063359598699e-04 0.0 
-2.063359598699e-04 3.081752856541e-03 0.0 
0.0 0.0 0.0 
6.817918835464e-04 3.055078948890e-03 0.0 
3.055078948890e-03 4.782084574553e-03 0.0 
0.0 0.0 0.0 
3.800682514830e-04 2.650180660270e-03 0.0 
2.650180660270e-03 5.516746714500e-03 0.0 
0.0 0.0 0.0 
2.489765691596e-04 5.087227655747e-04 0.0 
5.087227655747e-04 7.555692125119e-03 0.0 
0.0 0.0 0.0 
-1.437430000168e-03 7.019621016375e-05 0.0 
7.019621016375e-05 1.561795084681e-02 0.0 
0.0 0.0 0.0 
5.605116631187e-04 2.750253540996e-03 0.0 
2.750253540996e-03 4.679740915185e-03 0.0 
0.0 0.0 0.0 
4.650644877535e-04 -5.135638467918e-04 0.0 
-5.135638467918e-04 7.558117938640e-04 0.0 
0.0 0.0 0.0 
-2.718199522846e-03 1.519177765966e-03 0.0 
1.519177765966e-03 1.458496190445e-02 0.0 
0.0 0.0 0.0 
-8.991849435183e-04 1.743596229892e-04 0.0 
1.743596229892e-04 1.683844533651e-02 0.0 
0.0 0.0 0.0 
6.000249263138e-04 2.416898421924e-03 0.0 
2.416898421924e-03 4.695732285797e-03 0.0 
0.0 0.0 0.0 
-5.236252163936e-04 8.767293639071e-04 0.0 
8.767293639071e-04 1.791400026503e-03 0.0 
0.0 0.0 0.0 
-1.167383768547e-03 3.837818252663e-03 0.0 
3.837818252663e-03 1.133874949656e-02 0.0 
0.0 0.0 0.0 
1.349923358998e-04 -2.290309736325e-04 0.0 
-2.290309736325e-04 3.077839094844e-03 0.0 
0.0 0.0 0.0 
-9.681765824243e-04 3.792951797168e-03 0.0 
3.792951797168e-03 1.042915939805e-02 0.0 
0.0 0.0 0.0 
-5.055987626682e-04 1.809391374294e-03 0.0 
1.809391374294e-03 1.715578322242e-02 0.0 
0.0 0.0 0.0 
-3.186803137383e-04 1.031386487643e-03 0.0 
1.031386487643e-03 1.778331546296e-03 0.0 
0.0 0.0 0.0 
-1.383148935931e-04 -1.057025458734e-04 0.0 
-1.057025458734e-04 5.231725368028e-03 0.0 
0.0 0.0 0.0 
-4.815694360658e-04 3.840082379222e-04 0.0 
3.840082379222e-04 1.735878298742e-02 0.0 
0.0 0.0 0.0 
-9.740533603467e-04 2.599868734681e-03 0.0 
2.599868734681e-03 8.441092962881e-03 0.0 
0.0 0.0 0.0 
-9.618087117356e-04 3.777496739489e-03 0.0 
3.777496739489e-03 1.043541469127e-02 0.0 
0.0 0.0 0.0 
4.342553795584e-04 6.223067001810e-04 0.0 
6.223067001810e-04 7.414172134265e-03 0.0 
0.0 0.0 0.0 
6.935747878578e-05 -9.580545769568e-06 0.0 
-9.580545769568e-06 6.980732828943e-03 0.0 
0.0 0.0 0.0 
-3.496887668852e-05 -7.727761992943e-05 0.0 
-7.727761992943e-05 5.551689020527e-03 0.0 
0.0 0.0 0.0 
-1.127662510012e-03 2.565995933703e-03 0.0 
2.565995933703e-03 9.325358721630e-03 0.0 
0.0 0.0 0.0 
5.687648045658e-04 1.204006669239e-03 0.0 
1.204006669239e-03 8.067050656612e-03 0.0 
0.0 0.0 0.0 
-1.005789236324e-03 2.975400371575e-03 0.0 
2.975400371575e-03 8.680956766459e-03 0.0 
0.0 0.0 0.0 
-4.449682079090e-04 1.156678172402e-03 0.0 
1.156678172402e-03 1.733241428690e-02 0.0 
0.0 0.0 0.0 
6.249065467685e-04 4.603693149639e-03 0.0 
4.603693149639e-03 1.171249541514e-02 0.0 
0.0 0.0 0.0 
-2.475477124745e-03 7.222364009987e-04 0.0 
7.222364009987e-04 1.566558953570e-02 0.0 
0.0 0.0 0.0 
-1.364860472450e-03 2.531919398711e-04 0.0 
2.531919398711e-04 1.623232944716e-02 0.0 
0.0 0.0 0.0 
-6.811282777325e-04 2.901077516601e-03 0.0 
2.901077516601e-03 8.683936879532e-03 0.0 
0.0 0.0 0.0 
-6.435888519432e-04 3.539780249344e-03 0.0 
3.539780249344e-03 9.560275593454e-03 0.0 
0.0 0.0 0.0 
-9.482629286897e-04 2.570230407195e-03 0.0 
2.570230407195e-03 8.938071589620e-03 0.0 
0.0 0.0 0.0 
4.576020693361e-04 2.047365907428e-03 0.0 
2.047365907428e-03 4.756426933416e-03 0.0 
0.0 0.0 0.0 
-1.612313067616e-03 5.229252386651e-06 0.0 
5.229252386651e-06 1.503351207644e-02 0.0 
0.0 0.0 0.0 
7.917765391443e-04 1.859260852290e-03 0.0 
1.859260852290e-03 4.846026622704e-03 0.0 
0.0 0.0 0.0 
3.099214988047e-04 -3.105164677048e-04 0.0 
-3.105164677048e-04 2.485022590046e-04 0.0 
0.0 0.0 0.0 
-1.510164599803e-03 2.009871310799e-05 0.0 
2.009871310799e-05 1.531494298935e-02 0.0 
0.0 0.0 0.0 
1.199931280451e-03 -1.410201769049e-05 0.0 
-1.410201769049e-05 1.413999498199e-04 0.0 
0.0 0.0 0.0 
-1.505851847938e-03 3.600967743502e-03 0.0 
3.600967743502e-03 1.236542644050e-02 0.0 
0.0 0.0 0.0 
2.788814706487e-04 1.067384054659e-03 0.0 
1.067384054659e-03 8.004594592160e-03 0.0 
0.0 0.0 0.0 
7.886063697768e-04 2.501876909131e-03 0.0 
2.501876909131e-03 3.957782000277e-03 0.0 
0.0 0.0 0.0 
-1.539041309636e-04 -3.523019115603e-05 0.0 
-3.523019115603e-05 5.802841616080e-03 0.0 
0.0 0.0 0.0 
-5.790166228182e-04 1.754376449567e-03 0.0 
1.754376449567e-03 4.963245514035e-03 0.0 
0.0 0.0 0.0 
2.353257055740e-03 2.981779893672e-03 0.0 
2.981779893672e-03 6.235514046727e-03 0.0 
0.0 0.0 0.0 
-1.534997594789e-03 1.814678687572e-05 0.0 
1.814678687572e-05 1.504688318295e-02 0.0 
0.0 0.0 0.0 
9.578125767378e-04 1.885688832233e-03 0.0 
1.885688832233e-03 4.169267321224e-03 0.0 
0.0 0.0 0.0 
-6.175615969384e-06 -9.271055305581e-05 0.0 
-9.271055305581e-05 6.192314425213e-03 0.0 
0.0 0.0 0.0 
5.611977929190e-04 -4.635948081445e-04 0.0 
-4.635948081445e-04 7.455122271638e-04 0.0 
0.0 0.0 0.0 
1.263891144925e-04 1.296781515698e-05 0.0 
1.296781515698e-05 6.556263582159e-03 0.0 
0.0 0.0 0.0 
-2.004533558392e-03 2.480108106970e-03 0.0 
2.480108106970e-03 1.215298699704e-02 0.0 
0.0 0.0 0.0 
1.967159874818e-04 1.794689523706e-04 0.0 
1.794689523706e-04 7.228656987330e-03 0.0 
0.0 0.0 0.0 
-1.509156128427e-03 1.558085508670e-05 0.0 
1.558085508670e-05 1.501914934010e-02 0.0 
0.0 0.0 0.0 
5.704757908951e-04 2.037572288469e-03 0.0 
2.037572288469e-03 4.026525036962e-03 0.0 
0.0 0.0 0.0 
-2.250579419272e-03 3.670583332562e-03 0.0 
3.670583332562e-03 1.236634528567e-02 0.0 
0.0 0.0 0.0 
-1.954435951170e-04 -8.070713751470e-05 0.0 
-8.070713751470e-05 5.034758928594e-03 0.0 
0.0 0.0 0.0 
-5.448411126041e-04 2.134727546916e-03 0.0 
2.134727546916e-03 5.068885328770e-03 0.0 
0.0 0.0 0.0 
9.431541488898e-04 1.560646411249e-03 0.0 
1.560646411249e-03 4.213396013816e-03 0.0 
0.0 0.0 0.0 
-1.351995599294e-03 1.929802014018e-04 0.0 
1.929802014018e-04 1.639745186110e-02 0.0 
0.0 0.0 0.0 
-1.558842595205e-03 3.980706614907e-05 0.0 
3.980706614907e-05 1.502930970742e-02 0.0 
0.0 0.0 0.0 
6.762405136527e-04 2.064375053621e-03 0.0 
2.064375053621e-03 4.419962467973e-03 0.0 
0.0 0.0 0.0 
-1.519311601522e-03 3.809070494811e-03 0.0 
3.809070494811e-03 1.136365789252e-02 0.0 
0.0 0.0 0.0 
9.213897139715e-04 4.397316393650e-03 0.0 
4.397316393650e-03 1.022710729765e-02 0.0 
0.0 0.0 0.0 
6.539239282377e-05 -2.612738844334e-04 0.0 
-2.612738844334e-04 3.440510362788e-03 0.0 
0.0 0.0 0.0 
3.928600301455e-04 3.530744346924e-03 0.0 
3.530744346924e-03 1.030797520744e-02 0.0 
0.0 0.0 0.0 
6.738239220250e-04 4.412756318553e-03 0.0 
4.412756318553e-03 1.137927486980e-02 0.0 
0.0 0.0 0.0 
4.984718068868e-05 2.927429479834e-03 0.0 
2.927429479834e-03 5.537444610843e-03 0.0 
0.0 0.0 0.0 
-3.350850736350e-05 -1.924744598127e-04 0.0 
-1.924744598127e-04 3.566448460753e-03 0.0 
0.0 0.0 0.0 
1.256738089312e-03 1.548403584287e-03 0.0 
1.548403584287e-03 6.802223568260e-03 0.0 
0.0 0.0 0.0 
-6.039451712797e-04 3.370400030772e-03 0.0 
3.370400030772e-03 8.940271938902e-03 0.0 
0.0 0.0 0.0 
3.423066610990e-04 2.421997313023e-03 0.0 
2.421997313023e-03 4.872886835775e-03 0.0 
0.0 0.0 0.0 
-2.527179709412e-03 2.549763743086e-03 0.0 
2.549763743086e-03 1.261265830108e-02 0.0 
0.0 0.0 0.0 
5.327719738613e-04 2.103751475709e-03 0.0 
2.103751475709e-03 5.164137057163e-03 0.0 
0.0 0.0 0.0 
-3.648216185661e-04 8.243135919292e-04 0.0 
8.243135919292e-04 1.736463860096e-02 0.0 
0.0 0.0 0.0 
-1.582948318516e-03 2.974466661629e-03 0.0 
2.974466661629e-03 1.378641329915e-02 0.0 
0.0 0.0 0.0 
3.270194107463e-05 4.758516709481e-06 0.0 
4.758516709481e-06 6.408975760790e-03 0.0 
0.0 0.0 0.0 
-4.883766534906e-04 1.343831301838e-03 0.0 
1.343831301838e-03 3.599995841611e-03 0.0 
0.0 0.0 0.0 
1.066216398716e-03 1.253718754753e-03 0.0 
1.253718754753e-03 3.650405218018e-03 0.0 
0.0 0.0 0.0 
-1.420496791888e-03 3.203468011393e-03 0.0 
3.203468011393e-03 1.343043720060e-02 0.0 
0.0 0.0 0.0 
-1.152605133484e-03 3.687884638410e-04 0.0 
3.687884638410e-04 6.992204023559e-04 0.0 
0.0 0.0 0.0 
-7.606840035229e-04 3.413425371076e-03 0.0 
3.413425371076e-03 8.939465386020e-03 0.0 
0.0 0.0 0.0 
1.474319865880e-03 1.077961583437e-03 0.0 
1.077961583437e-03 5.756578304571e-03 0.0 
0.0 0.0 0.0 
6.403852852304e-04 -1.032569038836e-04 0.0 
-1.032569038836e-04 4.032777190002e-04 0.0 
0.0 0.0 0.0 
-8.855481884327e-04 3.746695619281e-03 0.0 
3.746695619281e-03 1.500570956879e-02 0.0 
0.0 0.0 0.0 
-2.139473742240e-03 2.156280030697e-03 0.0 
2.156280030697e-03 1.496971208686e-02 0.0 
0.0 0.0 0.0 
1.978540814894e-03 -1.844635126335e-04 0.0 
-1.844635126335e-04 1.645944078963e-03 0.0 
0.0 0.0 0.0 
1.617593542734e-03 1.252646410356e-03 0.0 
1.252646410356e-03 5.744535115192e-03 0.0 
0.0 0.0 0.0 
-2.687451365823e-03 1.618121760469e-03 0.0 
1.618121760469e-03 1.496642963792e-02 0.0 
0.0 0.0 0.0 
-2.637418779425e-03 1.206703521003e-03 0.0 
1.206703521003e-03 1.568748065882e-02 0.0 
0.0 0.0 0.0 
5.634596737232e-04 1.136585808914e-03 0.0 
1.136585808914e-03 7.627071316024e-03 0.0 
0.0 0.0 0.0 
1.117447880645e-03 -3.731716621602e-04 0.0 
-3.731716621602e-04 1.521855094220e-03 0.0 
0.0 0.0 0.0 
-7.201554933003e-04 2.618832687931e-03 0.0 
2.618832687931e-03 8.478509925449e-03 0.0 
0.0 0.0 0.0 
-1.702600112314e-03 2.631725330153e-03 0.0 
2.631725330153e-03 1.163913090494e-02 0.0 
0.0 0.0 0.0 
-2.312354543386e-03 2.216301419690e-03 0.0 
2.216301419690e-03 1.542531071841e-02 0.0 
0.0 0.0 0.0 
-2.143936149554e-03 2.461740519560e-03 0.0 
2.461740519560e-03 1.281960997634e-02 0.0 
0.0 0.0 0.0 
-2.098849746594e-03 2.546604092667e-03 0.0 
2.546604092667e-03 1.261263690706e-02 0.0 
0.0 0.0 0.0 
2.864529134650e-03 2.405315940299e-03 0.0 
2.405315940299e-03 4.681296483887e-03 0.0 
0.0 0.0 0.0 
-3.924547516694e-04 3.817293918475e-03 0.0 
3.817293918475e-03 1.147976654000e-02 0.0 
0.0 0.0 0.0 
-9.336186610253e-04 4.220028570035e-04 0.0 
4.220028570035e-04 9.672271166286e-04 0.0 
0.0 0.0 0.0 
4.082789350222e-04 2.991926288234e-03 0.0 
2.991926288234e-03 5.543997219650e-03 0.0 
0.0 0.0 0.0 
4.120515039705e-04 3.260376199744e-03 0.0 
3.260376199744e-03 5.637199352286e-03 0.0 
0.0 0.0 0.0 
-9.622432413545e-04 2.593575093142e-03 0.0 
2.593575093142e-03 8.934961189511e-03 0.0 
0.0 0.0 0.0 
-1.809933954742e-03 3.063240931277e-03 0.0 
3.063240931277e-03 1.437287326841e-02 0.0 
0.0 0.0 0.0 
3.354601488335e-04 5.771137632024e-04 0.0 
5.771137632024e-04 1.548771659222e-03 0.0 
0.0 0.0 0.0 
1.557503478540e-03 8.698385470318e-04 0.0 
8.698385470318e-04 5.279386969017e-03 0.0 
0.0 0.0 0.0 
-1.579961013516e-03 -1.298823301495e-05 0.0 
-1.298823301495e-05 1.500310884494e-02 0.0 
0.0 0.0 0.0 
1.067103174298e-03 1.606070416699e-03 0.0 
1.606070416699e-03 3.600784800134e-03 0.0 
0.0 0.0 0.0 
1.607661751469e-03 6.728014787375e-04 0.0 
6.728014787375e-04 4.859133040044e-03 0.0 
0.0 0.0 0.0 
4.223756052375e-04 -1.929160445731e-04 0.0 
-1.929160445731e-04 2.516298105850e-04 0.0 
0.0 0.0 0.0 
-1.954486529733e-03 2.374334955761e-03 0.0 
2.374334955761e-03 1.512038127920e-02 0.0 
0.0 0.0 0.0 
3.885521629154e-04 -1.261383096351e-04 0.0 
-1.261383096351e-04 1.350175412858e-04 0.0 
0.0 0.0 0.0 
5.645628284245e-04 -1.196838674330e-04 0.0 
-1.196838674330e-04 4.055534514409e-04 0.0 
0.0 0.0 0.0 
-5.884332419325e-04 1.839920275230e-03 0.0 
1.839920275230e-03 3.625158171630e-03 0.0 
0.0 0.0 0.0 
9.556795121395e-04 -4.119482618406e-04 0.0 
-4.119482618406e-04 1.281062915082e-03 0.0 
0.0 0.0 0.0 
-2.116350500820e-03 2.423898692146e-03 0.0 
2.423898692146e-03 1.557250536379e-02 0.0 
0.0 0.0 0.0 
8.746643644124e-04 -5.588501645584e-04 0.0 
-5.588501645584e-04 1.035025056703e-03 0.0 
0.0 0.0 0.0 
7.846882442888e-04 1.578010118955e-03 0.0 
1.578010118955e-03 2.621416039013e-03 0.0 
0.0 0.0 0.0 
1.530001642877e-03 -8.576405218483e-04 0.0 
-8.576405218483e-04 3.975905606795e-04 0.0 
0.0 0.0 0.0 
5.285254087219e-04 -4.189344615229e-04 0.0 
-4.189344615229e-04 8.952167822127e-04 0.0 
0.0 0.0 0.0 
1.501293911846e-03 1.451004503307e-03 0.0 
1.451004503307e-03 6.226734567325e-03 0.0 
0.0 0.0 0.0 
-1.985055612214e-03 2.578359789041e-03 0.0 
2.578359789041e-03 1.214916427281e-02 0.0 
0.0 0.0 0.0 
1.890836386276e-04 1.268811149256e-04 0.0 
1.268811149256e-04 7.036429044516e-03 0.0 
0.0 0.0 0.0 
-9.273816009912e-04 2.669646595885e-04 0.0 
2.669646595885e-04 5.155378934503e-04 0.0 
0.0 0.0 0.0 
9.163121923006e-04 1.804497792485e-03 0.0 
1.804497792485e-03 2.824749291150e-03 0.0 
0.0 0.0 0.0 
1.312391751430e-03 1.701311755698e-03 0.0 
1.701311755698e-03 3.855501695217e-03 0.0 
0.0 0.0 0.0 
-3.602717774327e-04 3.287312437261e-03 0.0 
3.287312437261e-03 8.010682078695e-03 0.0 
0.0 0.0 0.0 
1.696360326922e-03 1.020772000050e-03 0.0 
1.020772000050e-03 5.268869239967e-03 0.0 
0.0 0.0 0.0 
2.412877626852e-04 2.471526664676e-04 0.0 
2.471526664676e-04 7.303884071061e-03 0.0 
0.0 0.0 0.0 
-1.927361830046e-03 2.872721569901e-03 0.0 
2.872721569901e-03 1.416026406526e-02 0.0 
0.0 0.0 0.0 
8.573040255697e-04 8.621269539224e-04 0.0 
8.621269539224e-04 2.908331056087e-03 0.0 
0.0 0.0 0.0 
1.368009653170e-03 1.319062059577e-03 0.0 
1.319062059577e-03 6.227643949569e-03 0.0 
0.0 0.0 0.0 
-2.017399605463e-04 -5.510346098044e-05 0.0 
-5.510346098044e-05 5.441463261887e-03 0.0 
0.0 0.0 0.0 
-1.178436806206e-03 2.634923912321e-03 0.0 
2.634923912321e-03 9.719690566057e-03 0.0 
0.0 0.0 0.0 
-1.959489723723e-03 2.470641899903e-03 0.0 
2.470641899903e-03 1.458287637722e-02 0.0 
0.0 0.0 0.0 
7.268677859811e-04 3.252180510899e-03 0.0 
3.252180510899e-03 9.536623996039e-03 0.0 
0.0 0.0 0.0 
1.381281759823e-03 1.335480839517e-03 0.0 
1.335480839517e-03 3.908895526732e-03 0.0 
0.0 0.0 0.0 
6.219255739452e-04 1.660871690296e-03 0.0 
1.660871690296e-03 3.039015343894e-03 0.0 
0.0 0.0 0.0 
-2.008743967653e-03 2.623126811489e-03 0.0 
2.623126811489e-03 1.305359449171e-02 0.0 
0.0 0.0 0.0 
-4.601452694416e-04 2.281610631482e-03 0.0 
2.281610631482e-03 1.693420751638e-02 0.0 
0.0 0.0 0.0 
-5.530220830791e-04 2.766420979900e-03 0.0 
2.766420979900e-03 8.459247191768e-03 0.0 
0.0 0.0 0.0 
3.584296645219e-03 1.817447581133e-03 0.0 
1.817447581133e-03 2.629410569190e-03 0.0 
0.0 0.0 0.0 
-1.537660264593e-03 4.360460319298e-05 0.0 
4.360460319298e-05 1.540223666646e-02 0.0 
0.0 0.0 0.0 
6.402015514198e-04 -7.809829916674e-04 0.0 
-7.809829916674e-04 6.324077726785e-04 0.0 
0.0 0.0 0.0 
-2.021905265208e-03 2.392102964648e-03 0.0 
2.392102964648e-03 1.282984117322e-02 0.0 
0.0 0.0 0.0 
8.998979041781e-04 1.224658099547e-03 0.0 
1.224658099547e-03 2.853403771720e-03 0.0 
0.0 0.0 0.0 
5.407006171370e-04 6.106709025468e-04 0.0 
6.106709025468e-04 1.929113996368e-03 0.0 
0.0 0.0 0.0 
8.350066486635e-04 -6.288158742601e-04 0.0 
-6.288158742601e-04 1.056426625700e-03 0.0 
0.0 0.0 0.0 
-1.893707037014e-03 2.277574712766e-03 0.0 
2.277574712766e-03 1.559042753449e-02 0.0 
0.0 0.0 0.0 
-1.881411304391e-03 2.648918970523e-03 0.0 
2.648918970523e-03 1.235163009655e-02 0.0 
0.0 0.0 0.0 
4.302452886145e-04 2.303457551343e-03 0.0 
2.303457551343e-03 4.715428215876e-03 0.0 
0.0 0.0 0.0 
-2.033407068573e-03 2.320191057775e-03 0.0 
2.320191057775e-03 1.598772824375e-02 0.0 
0.0 0.0 0.0 
-1.758620584805e-03 3.088560143280e-03 0.0 
3.088560143280e-03 1.376501181183e-02 0.0 
0.0 0.0 0.0 
-1.348781661676e-03 2.711253365915e-03 0.0 
2.711253365915e-03 1.046879920911e-02 0.0 
0.0 0.0 0.0 
1.462896699924e-04 3.419523487944e-04 0.0 
3.419523487944e-04 7.448316079057e-03 0.0 
0.0 0.0 0.0 
3.662156762886e-03 1.885732329788e-03 0.0 
1.885732329788e-03 2.659075301444e-03 0.0 
0.0 0.0 0.0 
-1.511063603432e-03 2.753444470468e-03 0.0 
2.753444470468e-03 1.119872717791e-02 0.0 
0.0 0.0 0.0 
6.217590179036e-04 2.166072237470e-03 0.0 
2.166072237470e-03 5.567072069826e-03 0.0 
0.0 0.0 0.0 
3.405043871836e-03 1.996984451326e-03 0.0 
1.996984451326e-03 3.216148786925e-03 0.0 
0.0 0.0 0.0 
8.593815654971e-04 6.604057665932e-04 0.0 
6.604057665932e-04 2.101907401320e-03 0.0 
0.0 0.0 0.0 
-2.577760410370e-03 6.876015716596e-04 0.0 
6.876015716596e-04 1.541160935939e-02 0.0 
0.0 0.0 0.0 
2.289697869718e-03 1.156067834341e-03 0.0 
1.156067834341e-03 3.176729716786e-03 0.0 
0.0 0.0 0.0 
2.711283091991e-03 -2.055796710580e-04 0.0 
-2.055796710580e-04 6.913093046419e-04 0.0 
0.0 0.0 0.0 
-1.767384538681e-03 2.749586033773e-03 0.0 
2.749586033773e-03 1.418215807945e-02 0.0 
0.0 0.0 0.0 
-1.582425381072e-03 1.546557299803e-04 0.0 
1.546557299803e-04 8.223831465533e-04 0.0 
0.0 0.0 0.0 
-2.253915161482e-03 2.452088233876e-03 0.0 
2.452088233876e-03 1.356094610257e-02 0.0 
0.0 0.0 0.0 
1.200279623670e-03 1.021149154643e-03 0.0 
1.021149154643e-03 2.630396358429e-03 0.0 
0.0 0.0 0.0 
7.604842643563e-04 1.463515764270e-03 0.0 
1.463515764270e-03 2.872877713324e-03 0.0 
0.0 0.0 0.0 
8.529053600193e-04 2.993752049231e-04 0.0 
2.993752049231e-04 2.163219707087e-03 0.0 
0.0 0.0 0.0 
-1.705558726580e-03 2.706067608500e-03 0.0 
2.706067608500e-03 1.262065538953e-02 0.0 
0.0 0.0 0.0 
2.445258614510e-04 -5.127881759257e-04 0.0 
-5.127881759257e-04 5.461285720483e-04 0.0 
0.0 0.0 0.0 
-1.055303807042e-04 3.107527419651e-03 0.0 
3.107527419651e-03 6.633487235997e-03 0.0 
0.0 0.0 0.0 
3.283755962362e-03 1.988172820499e-03 0.0 
1.988172820499e-03 3.466015112349e-03 0.0 
0.0 0.0 0.0 
-1.799329362872e-03 2.568461546802e-03 0.0 
2.568461546802e-03 1.236494638868e-02 0.0 
0.0 0.0 0.0 
-2.599566038494e-03 1.189572183048e-03 0.0 
1.189572183048e-03 1.531143880944e-02 0.0 
0.0 0.0 0.0 
7.985548828837e-05 5.032874861763e-04 0.0 
5.032874861763e-04 1.274358022417e-03 0.0 
0.0 0.0 0.0 
2.731910179237e-03 1.348704101446e-04 0.0 
1.348704101446e-04 6.387275181339e-04 0.0 
0.0 0.0 0.0 
2.642198444684e-03 -3.880667595921e-04 0.0 
-3.880667595921e-04 4.000676514115e-04 0.0 
0.0 0.0 0.0 
5.060287549452e-05 3.234233082759e-03 0.0 
3.234233082759e-03 6.250455546631e-03 0.0 
0.0 0.0 0.0 
-2.120863305188e-03 2.630207502711e-03 0.0 
2.630207502711e-03 1.455439032502e-02 0.0 
0.0 0.0 0.0 
2.144619748525e-04 3.272920595466e-03 0.0 
3.272920595466e-03 6.606941588038e-03 0.0 
0.0 0.0 0.0 
2.331389792557e-03 1.281235916438e-03 0.0 
1.281235916438e-03 2.480694227107e-03 0.0 
0.0 0.0 0.0 
1.467003875430e-03 1.414923675582e-03 0.0 
1.414923675582e-03 3.257812360292e-03 0.0 
0.0 0.0 0.0 
2.213449628889e-04 2.659721910316e-04 0.0 
2.659721910316e-04 1.659328071852e-03 0.0 
0.0 0.0 0.0 
9.034588038399e-04 2.235881960461e-03 0.0 
2.235881960461e-03 5.197220507788e-03 0.0 
0.0 0.0 0.0 
-3.342742856016e-05 9.363713366545e-04 0.0 
9.363713366545e-04 2.710375345583e-03 0.0 
0.0 0.0 0.0 
-7.753913595843e-04 4.581114473419e-03 0.0 
4.581114473419e-03 1.512113245175e-02 0.0 
0.0 0.0 0.0 
-1.791410810436e-04 5.101486025766e-03 0.0 
5.101486025766e-03 1.409043751964e-02 0.0 
0.0 0.0 0.0 
-3.262006567343e-04 2.777398564561e-03 0.0 
2.777398564561e-03 7.994665857099e-03 0.0 
0.0 0.0 0.0 
8.923366163569e-04 9.357734343669e-04 0.0 
9.357734343669e-04 2.453287634520e-03 0.0 
0.0 0.0 0.0 
6.541238009294e-04 1.097000110416e-03 0.0 
1.097000110416e-03 2.475393574208e-03 0.0 
0.0 0.0 0.0 
-1.249262292717e-03 2.817326685495e-03 0.0 
2.817326685495e-03 1.080694473863e-02 0.0 
0.0 0.0 0.0 
6.154935184519e-04 7.982256714414e-04 0.0 
7.982256714414e-04 2.630766978826e-03 0.0 
0.0 0.0 0.0 
2.692591545769e-03 -1.051930056432e-04 0.0 
-1.051930056432e-04 3.558523994203e-04 0.0 
0.0 0.0 0.0 
-1.130877447104e-03 2.653121804404e-03 0.0 
2.653121804404e-03 9.716078794618e-03 0.0 
0.0 0.0 0.0 
-7.888756874740e-04 1.281578544346e-03 0.0 
1.281578544346e-03 1.730614983692e-02 0.0 
0.0 0.0 0.0 
1.149104267283e-03 1.312816456843e-03 0.0 
1.312816456843e-03 3.093647412318e-03 0.0 
0.0 0.0 0.0 
2.983413533219e-03 2.610246859168e-03 0.0 
2.610246859168e-03 4.656234483925e-03 0.0 
0.0 0.0 0.0 
5.862694365659e-04 1.232684839590e-03 0.0 
1.232684839590e-03 2.298466899683e-03 0.0 
0.0 0.0 0.0 
3.370093805624e-04 1.585618064301e-03 0.0 
1.585618064301e-03 8.982648719194e-03 0.0 
0.0 0.0 0.0 
6.903083563430e-04 1.156649125582e-03 0.0 
1.156649125582e-03 2.572391220331e-03 0.0 
0.0 0.0 0.0 
-9.304419748610e-04 2.682793144208e-03 0.0 
2.682793144208e-03 9.316157339264e-03 0.0 
0.0 0.0 0.0 
4.591095928004e-04 4.189284539234e-04 0.0 
4.189284539234e-04 1.621806737118e-03 0.0 
0.0 0.0 0.0 
2.515419538052e-03 1.183858787733e-03 0.0 
1.183858787733e-03 3.866887375369e-03 0.0 
0.0 0.0 0.0 
2.116184020877e-03 1.569673129091e-03 0.0 
1.569673129091e-03 3.111924524450e-03 0.0 
0.0 0.0 0.0 
3.116374861263e-03 -1.506519757814e-04 0.0 
-1.506519757814e-04 7.639347234911e-05 0.0 
0.0 0.0 0.0 
-1.727391357871e-03 2.669235447996e-03 0.0 
2.669235447996e-03 1.163442250950e-02 0.0 
0.0 0.0 0.0 
2.649050865298e-04 4.874943906881e-03 0.0 
4.874943906881e-03 1.291810628607e-02 0.0 
0.0 0.0 0.0 
1.609143682158e-03 1.122559414586e-03 0.0 
1.122559414586e-03 2.704092926866e-03 0.0 
0.0 0.0 0.0 
3.128190270980e-03 1.786649968535e-03 0.0 
1.786649968535e-03 3.495153549311e-03 0.0 
0.0 0.0 0.0 
2.900373024801e-04 8.661313039903e-04 0.0 
8.661313039903e-04 2.349916502815e-03 0.0 
0.0 0.0 0.0 
-2.049511395245e-03 8.511141334303e-04 0.0 
8.511141334303e-04 1.615872842905e-02 0.0 
0.0 0.0 0.0 
1.748082376214e-03 8.099498783890e-04 0.0 
8.099498783890e-04 4.841251115232e-03 0.0 
0.0 0.0 0.0 
7.166490117241e-04 2.085109307202e-03 0.0 
2.085109307202e-03 3.508749864880e-03 0.0 
0.0 0.0 0.0 
-2.235045786197e-03 6.742684698637e-04 0.0 
6.742684698637e-04 1.605163900515e-02 0.0 
0.0 0.0 0.0 
3.527972881519e-04 4.301958711286e-03 0.0 
4.301958711286e-03 1.194248535315e-02 0.0 
0.0 0.0 0.0 
1.428370551629e-03 8.851505115539e-04 0.0 
8.851505115539e-04 5.604553564732e-03 0.0 
0.0 0.0 0.0 
2.252030812111e-04 5.044577328378e-03 0.0 
5.044577328378e-03 1.325020479116e-02 0.0 
0.0 0.0 0.0 
-2.485952765232e-03 1.053506273403e-03 0.0 
1.053506273403e-03 1.592953554127e-02 0.0 
0.0 0.0 0.0 
-1.532918979225e-03 3.239969751079e-03 0.0 
3.239969751079e-03 1.278614040347e-02 0.0 
0.0 0.0 0.0 
-4.775382040401e-05 1.514903085215e-03 0.0 
1.514903085215e-03 3.732407612632e-03 0.0 
0.0 0.0 0.0 
-1.737535235224e-03 2.621554677275e-03 0.0 
2.621554677275e-03 1.132004835098e-02 0.0 
0.0 0.0 0.0 
-1.453277266848e-03 2.730496011691e-03 0.0 
2.730496011691e-03 1.120170664023e-02 0.0 
0.0 0.0 0.0 
-1.658931511542e-03 2.770208170360e-03 0.0 
2.770208170360e-03 1.190733072794e-02 0.0 
0.0 0.0 0.0 
-1.762122143855e-04 2.720038457955e-03 0.0 
2.720038457955e-03 7.527911154210e-03 0.0 
0.0 0.0 0.0 
3.363030041390e-04 3.848634597025e-03 0.0 
3.848634597025e-03 1.139515140122e-02 0.0 
0.0 0.0 0.0 
-2.433562003138e-03 1.605985046401e-03 0.0 
1.605985046401e-03 1.515135210798e-02 0.0 
0.0 0.0 0.0 
-2.440284722623e-03 2.274760988238e-03 0.0 
2.274760988238e-03 1.338372958323e-02 0.0 
0.0 0.0 0.0 
1.571663735793e-03 1.011225846371e-03 0.0 
1.011225846371e-03 3.318366565518e-03 0.0 
0.0 0.0 0.0 
7.561818847786e-04 -4.328884542680e-04 0.0 
-4.328884542680e-04 1.089571724990e-03 0.0 
0.0 0.0 0.0 
-1.620983809213e-03 2.924898120715e-03 0.0 
2.924898120715e-03 1.169498026835e-02 0.0 
0.0 0.0 0.0 
8.987926487334e-04 2.148903351915e-03 0.0 
2.148903351915e-03 3.321318468080e-03 0.0 
0.0 0.0 0.0 
-1.539209409136e-03 8.107394499547e-06 0.0 
8.107394499547e-06 1.503658311306e-02 0.0 
0.0 0.0 0.0 
2.857376596640e-03 -3.819923333841e-04 0.0 
-3.819923333841e-04 1.121584332688e-04 0.0 
0.0 0.0 0.0 
1.156237306158e-03 9.381490585826e-04 0.0 
9.381490585826e-04 3.147073113228e-03 0.0 
0.0 0.0 0.0 
-1.777600905216e-03 2.680566574289e-03 0.0 
2.680566574289e-03 1.475424604861e-02 0.0 
0.0 0.0 0.0 
7.893517094746e-04 1.809651904230e-03 0.0 
1.809651904230e-03 3.365959909714e-03 0.0 
0.0 0.0 0.0 
-1.522801801999e-03 2.639602195783e-03 0.0 
2.639602195783e-03 1.089206366160e-02 0.0 
0.0 0.0 0.0 
3.018654557188e-03 1.786116238194e-03 0.0 
1.786116238194e-03 3.731208472787e-03 0.0 
0.0 0.0 0.0 
2.168835590888e-03 2.670106161978e-04 0.0 
2.670106161978e-04 2.870477510085e-03 0.0 
0.0 0.0 0.0 
3.753674152227e-04 3.173557302368e-03 0.0 
3.173557302368e-03 1.058103346203e-02 0.0 
0.0 0.0 0.0 
-8.618406438499e-04 3.327473457791e-03 0.0 
3.327473457791e-03 9.884478924091e-03 0.0 
0.0 0.0 0.0 
1.926592642963e-03 2.713792186679e-04 0.0 
2.713792186679e-04 1.297968398747e-03 0.0 
0.0 0.0 0.0 
1.949785667086e-03 -3.148440336446e-04 0.0 
-3.148440336446e-04 1.329362737308e-03 0.0 
0.0 0.0 0.0 
-4.477762509447e-06 2.336392132819e-03 0.0 
2.336392132819e-03 4.886964534539e-03 0.0 
0.0 0.0 0.0 
1.004221336997e-03 2.398552221564e-03 0.0 
2.398552221564e-03 3.473393160152e-03 0.0 
0.0 0.0 0.0 
-1.660078825773e-03 3.314238438506e-03 0.0 
3.314238438506e-03 1.398003028788e-02 0.0 
0.0 0.0 0.0 
-1.161882856804e-03 2.736024698667e-03 0.0 
2.736024698667e-03 1.007459498940e-02 0.0 
0.0 0.0 0.0 
-3.898175149654e-04 3.293488494737e-03 0.0 
3.293488494737e-03 8.010220082400e-03 0.0 
0.0 0.0 0.0 
-1.643755958508e-03 2.732012427710e-03 0.0 
2.732012427710e-03 1.047585843496e-02 0.0 
0.0 0.0 0.0 
4.066814410824e-04 2.244931148160e-03 0.0 
2.244931148160e-03 9.549190380400e-03 0.0 
0.0 0.0 0.0 
7.776153543655e-04 2.244685127182e-03 0.0 
2.244685127182e-03 8.720576220888e-03 0.0 
0.0 0.0 0.0 
-1.452159218810e-03 3.176051984482e-03 0.0 
3.176051984482e-03 1.400763743921e-02 0.0 
0.0 0.0 0.0 
-2.149875649280e-03 2.535549009314e-03 0.0 
2.535549009314e-03 1.509380823463e-02 0.0 
0.0 0.0 0.0 
2.223640123482e-03 2.030531323930e-04 0.0 
2.030531323930e-04 2.560245530550e-03 0.0 
0.0 0.0 0.0 
1.072450376469e-04 2.823689278371e-03 0.0 
2.823689278371e-03 6.424924982974e-03 0.0 
0.0 0.0 0.0 
8.557219424914e-04 5.673172234770e-04 0.0 
5.673172234770e-04 2.511848670455e-03 0.0 
0.0 0.0 0.0 
1.228260427928e-03 6.303617684259e-04 0.0 
6.303617684259e-04 2.690028006817e-03 0.0 
0.0 0.0 0.0 
-9.595943770071e-04 2.671549223644e-03 0.0 
2.671549223644e-03 9.317973767310e-03 0.0 
0.0 0.0 0.0 
2.618859813471e-03 1.164406435969e-03 0.0 
1.164406435969e-03 3.589602798281e-03 0.0 
0.0 0.0 0.0 
9.408170953580e-04 -3.458089582761e-04 0.0 
-3.458089582761e-04 2.819681560108e-03 0.0 
0.0 0.0 0.0 
-1.571093051204e-03 2.920674695396e-03 0.0 
2.920674695396e-03 1.492621920087e-02 0.0 
0.0 0.0 0.0 
2.020511591114e-03 -1.481775329076e-04 0.0 
-1.481775329076e-04 1.362651639847e-03 0.0 
0.0 0.0 0.0 
1.098781624744e-04 2.550088070524e-03 0.0 
2.550088070524e-03 6.673007890655e-03 0.0 
0.0 0.0 0.0 
-1.296877457204e-03 2.701979620740e-03 0.0 
2.701979620740e-03 1.047010227676e-02 0.0 
0.0 0.0 0.0 
5.482614959740e-05 2.486605948557e-03 0.0 
2.486605948557e-03 6.253963026698e-03 0.0 
0.0 0.0 0.0 
-5.615358244693e-05 5.140719809239e-03 0.0 
5.140719809239e-03 1.362776733112e-02 0.0 
0.0 0.0 0.0 
-5.408925988506e-04 4.956063986313e-03 0.0 
4.956063986313e-03 1.456641125877e-02 0.0 
0.0 0.0 0.0 
-1.605742673606e-03 3.987510227729e-03 0.0 
3.987510227729e-03 1.497401482012e-02 0.0 
0.0 0.0 0.0 
2.060694979781e-03 3.058325994924e-04 0.0 
3.058325994924e-04 3.155794634124e-03 0.0 
0.0 0.0 0.0 
-1.772488396906e-03 2.192013237585e-03 0.0 
2.192013237585e-03 1.600304969937e-02 0.0 
0.0 0.0 0.0 
9.240430039896e-04 1.975935156052e-03 0.0 
1.975935156052e-03 3.001423332983e-03 0.0 
0.0 0.0 0.0 
1.726766535807e-03 6.972733090869e-04 0.0 
6.972733090869e-04 2.768686539341e-03 0.0 
0.0 0.0 0.0 
5.129525399556e-04 2.769252477833e-04 0.0 
2.769252477833e-04 1.986111666984e-03 0.0 
0.0 0.0 0.0 
-2.645125130032e-04 3.038387476867e-03 0.0 
3.038387476867e-03 7.651400955977e-03 0.0 
0.0 0.0 0.0 
-2.375677580941e-03 4.057958615987e-04 0.0 
4.057958615987e-04 1.533392654503e-02 0.0 
0.0 0.0 0.0 
-2.174259946619e-03 8.666762068250e-04 0.0 
8.666762068250e-04 1.594647627575e-02 0.0 
0.0 0.0 0.0 
6.729063629640e-04 1.597794625171e-03 0.0 
1.597794625171e-03 8.299518755425e-03 0.0 
0.0 0.0 0.0 
-1.285928163369e-03 3.387044458059e-03 0.0 
3.387044458059e-03 1.310163935084e-02 0.0 
0.0 0.0 0.0 
-1.929223154878e-03 2.527306554905e-03 0.0 
2.527306554905e-03 1.306775323314e-02 0.0 
0.0 0.0 0.0 
-1.379623697160e-03 2.847528539888e-03 0.0 
2.847528539888e-03 1.151600858086e-02 0.0 
0.0 0.0 0.0 
8.220524570421e-04 4.255299304721e-04 0.0 
4.255299304721e-04 1.769772060226e-03 0.0 
0.0 0.0 0.0 
5.793178320590e-05 -5.836226491177e-04 0.0 
-5.836226491177e-04 6.881121990967e-04 0.0 
0.0 0.0 0.0 
1.123028862504e-03 1.972004260850e-03 0.0 
1.972004260850e-03 4.501477184336e-03 0.0 
0.0 0.0 0.0 
1.438377064973e-04 2.627867592070e-03 0.0 
2.627867592070e-03 7.112466768954e-03 0.0 
0.0 0.0 0.0 
9.625751060127e-04 1.946232502141e-03 0.0 
1.946232502141e-03 5.238286549069e-03 0.0 
0.0 0.0 0.0 
-7.060821807265e-04 1.425354304638e-03 0.0 
1.425354304638e-03 1.802464940799e-03 0.0 
0.0 0.0 0.0 
-1.482106089295e-03 5.700186722567e-05 0.0 
5.700186722567e-05 1.538162315745e-02 0.0 
0.0 0.0 0.0 
6.786020986327e-04 -5.756295224323e-04 0.0 
-5.756295224323e-04 8.464516605551e-04 0.0 
0.0 0.0 0.0 
7.146810788925e-04 1.463859778501e-03 0.0 
1.463859778501e-03 2.971282908204e-03 0.0 
0.0 0.0 0.0 
0.0 1.594301729687e-03 0.0 
1.594301729687e-03 9.089496300259e-03 0.0 
0.0 0.0 0.0 
2.632432709029e-03 2.196557891579e-03 0.0 
2.196557891579e-03 4.915458953315e-03 0.0 
0.0 0.0 0.0 
-2.249972994957e-03 2.096430329138e-03 0.0 
2.096430329138e-03 1.340481596993e-02 0.0 
0.0 0.0 0.0 
1.415990056288e-03 2.334580518296e-05 0.0 
2.334580518296e-05 1.185796236247e-05 0.0 
0.0 0.0 0.0 
-2.978185087866e-04 2.738358535974e-03 0.0 
2.738358535974e-03 7.525969805207e-03 0.0 
0.0 0.0 0.0 
1.185636092761e-03 1.642139837504e-03 0.0 
1.642139837504e-03 4.547586132728e-03 0.0 
0.0 0.0 0.0 
-1.793075496683e-03 2.776022596454e-03 0.0 
2.776022596454e-03 1.261212458469e-02 0.0 
0.0 0.0 0.0 
3.132225906015e-04 4.708024566367e-03 0.0 
4.708024566367e-03 1.256574423198e-02 0.0 
0.0 0.0 0.0 
-1.834253223267e-03 2.638945454668e-03 0.0 
2.638945454668e-03 1.131839404746e-02 0.0 
0.0 0.0 0.0 
-1.323529804654e-03 2.815777590349e-03 0.0 
2.815777590349e-03 1.080745033443e-02 0.0 
0.0 0.0 0.0 
1.192966376049e-03 -2.275709687900e-04 0.0 
-2.275709687900e-04 2.800575204902e-03 0.0 
0.0 0.0 0.0 
-1.740411215378e-03 2.612491377699e-03 0.0 
2.612491377699e-03 1.527135966216e-02 0.0 
0.0 0.0 0.0 
1.984323968897e-03 3.561572581684e-04 0.0 
3.561572581684e-04 3.479562983621e-03 0.0 
0.0 0.0 0.0 
3.484488536711e-04 4.490856122438e-03 0.0 
4.490856122438e-03 1.225292232922e-02 0.0 
0.0 0.0 0.0 
0.0 4.962921906312e-03 0.0 
4.962921906312e-03 1.340909350320e-02 0.0 
0.0 0.0 0.0 
0.0 4.107180266660e-03 0.0 
4.107180266660e-03 1.541075256751e-02 0.0 
0.0 0.0 0.0 
0.0 4.830967654646e-03 0.0 
4.830967654646e-03 1.433260890389e-02 0.0 
0.0 0.0 0.0 
-1.504498668257e-03 2.857527212295e-03 0.0 
2.857527212295e-03 1.221033553626e-02 0.0 
0.0 0.0 0.0 
-1.960532593518e-03 2.739291131214e-03 0.0 
2.739291131214e-03 1.525576175136e-02 0.0 
0.0 0.0 0.0 
-1.271706735315e-03 3.487841398337e-03 0.0 
3.487841398337e-03 1.367380117874e-02 0.0 
0.0 0.0 0.0 
-7.350358063429e-06 2.674047833651e-03 0.0 
2.674047833651e-03 6.231345313717e-03 0.0 
0.0 0.0 0.0 
-1.270017711914e-04 2.962234407437e-03 0.0 
2.962234407437e-03 6.408395920138e-03 0.0 
0.0 0.0 0.0 
6.280847060303e-04 -3.801856470735e-04 0.0 
-3.801856470735e-04 2.871819214448e-03 0.0 
0.0 0.0 0.0 
-1.815947350360e-03 3.045990942694e-03 0.0 
3.045990942694e-03 1.490901544983e-02 0.0 
0.0 0.0 0.0 
3.549392193820e-04 4.060953846866e-03 0.0 
4.060953846866e-03 1.164361288082e-02 0.0 
0.0 0.0 0.0 
-1.644893739269e-03 2.528787158643e-03 0.0 
2.528787158643e-03 1.573081697309e-02 0.0 
0.0 0.0 0.0 
3.019046901598e-03 2.095599250202e-03 0.0 
2.095599250202e-03 4.066438679447e-03 0.0 
0.0 0.0 0.0 
-1.888227020641e-03 2.650657309057e-03 0.0 
2.650657309057e-03 1.571531760932e-02 0.0 
0.0 0.0 0.0 
2.158084876102e-03 3.640677693811e-03 0.0 
3.640677693811e-03 7.075756792315e-03 0.0 
0.0 0.0 0.0 
3.597890088662e-04 2.603250051227e-03 0.0 
2.603250051227e-03 6.286105289883e-03 0.0 
0.0 0.0 0.0 
-5.792573420501e-04 3.032403932546e-03 0.0 
3.032403932546e-03 7.652890537011e-03 0.0 
0.0 0.0 0.0 
7.261508901266e-04 1.104665896703e-03 0.0 
1.104665896703e-03 2.127334395457e-03 0.0 
0.0 0.0 0.0 
-6.377255784460e-04 2.187174058256e-03 0.0 
2.187174058256e-03 1.688965358139e-02 0.0 
0.0 0.0 0.0 
2.334159030395e-04 2.521861822633e-03 0.0 
2.521861822633e-03 5.453939619150e-03 0.0 
0.0 0.0 0.0 
6.954070148795e-04 3.844173847377e-03 0.0 
3.844173847377e-03 1.012163563410e-02 0.0 
0.0 0.0 0.0 
8.666659122545e-04 -2.781450610052e-04 0.0 
-2.781450610052e-04 2.855180362083e-03 0.0 
0.0 0.0 0.0 
2.526935542571e-03 -5.303238164321e-04 0.0 
-5.303238164321e-04 9.023450134693e-05 0.0 
0.0 0.0 0.0 
3.449558049600e-04 1.436187171428e-03 0.0 
1.436187171428e-03 8.234062249802e-03 0.0 
0.0 0.0 0.0 
6.732280887913e-04 1.758097762511e-03 0.0 
1.758097762511e-03 3.455879786036e-03 0.0 
0.0 0.0 0.0 
0.0 4.831622601683e-03 0.0 
4.831622601683e-03 1.307363303328e-02 0.0 
0.0 0.0 0.0 
-8.272613999997e-04 3.549569068828e-03 0.0 
3.549569068828e-03 1.539828273165e-02 0.0 
0.0 0.0 0.0 
-9.189144527034e-04 2.792159068532e-03 0.0 
2.792159068532e-03 9.708033111141e-03 0.0 
0.0 0.0 0.0 
6.160683522816e-05 -5.303641525504e-04 0.0 
-5.303641525504e-04 3.905123678423e-04 0.0 
0.0 0.0 0.0 
0.0 4.469953460053e-03 0.0 
4.469953460053e-03 1.239413478873e-02 0.0 
0.0 0.0 0.0 
3.644193125978e-04 1.835877701168e-03 0.0 
1.835877701168e-03 8.592698861270e-03 0.0 
0.0 0.0 0.0 
2.855323377736e-03 -3.683911038969e-04 0.0 
-3.683911038969e-04 6.396877416392e-05 0.0 
0.0 0.0 0.0 
2.771742853705e-03 1.900782651336e-03 0.0 
1.900782651336e-03 4.308121735260e-03 0.0 
0.0 0.0 0.0 
3.873452034375e-04 2.953106886835e-03 0.0 
2.953106886835e-03 1.031536104514e-02 0.0 
0.0 0.0 0.0 
-2.583498968849e-04 -2.438265617028e-04 0.0 
-2.438265617028e-04 2.442732206864e-04 0.0 
0.0 0.0 0.0 
3.062037234369e-04 2.541830502469e-03 0.0 
2.541830502469e-03 5.872896535655e-03 0.0 
0.0 0.0 0.0 
-1.072740323985e-03 2.878695139311e-03 0.0 
2.878695139311e-03 1.044266138362e-02 0.0 
0.0 0.0 0.0 
-7.222055063245e-04 2.713474277554e-03 0.0 
2.713474277554e-03 8.922682657642e-03 0.0 
0.0 0.0 0.0 
-1.095359793364e-03 2.764663425257e-03 0.0 
2.764663425257e-03 1.007025452977e-02 0.0 
0.0 0.0 0.0 
8.687957271709e-04 1.458406158383e-03 0.0 
1.458406158383e-03 2.419778576224e-03 0.0 
0.0 0.0 0.0 
0.0 4.056654916496e-03 0.0 
4.056654916496e-03 1.177549786919e-02 0.0 
0.0 0.0 0.0 
2.483179750951e-03 8.483451690959e-04 0.0 
8.483451690959e-04 2.547825329650e-03 0.0 
0.0 0.0 0.0 
9.048743035089e-05 7.980653949092e-05 0.0 
7.980653949092e-05 1.345128554028e-03 0.0 
0.0 0.0 0.0 
2.882627060603e-04 4.061006578271e-04 0.0 
4.061006578271e-04 7.473877902546e-03 0.0 
0.0 0.0 0.0 
-2.625292948896e-04 -4.800157751668e-04 0.0 
-4.800157751668e-04 4.450218132011e-04 0.0 
0.0 0.0 0.0 
-1.374208675987e-03 2.856753164080e-03 0.0 
2.856753164080e-03 9.606460408893e-03 0.0 
0.0 0.0 0.0 
9.369015306842e-04 -5.008331582211e-04 0.0 
-5.008331582211e-04 7.626765838946e-04 0.0 
0.0 0.0 0.0 
-2.199007843516e-03 2.866145391085e-03 0.0 
2.866145391085e-03 1.170472707056e-02 0.0 
0.0 0.0 0.0 
3.676644822757e-04 1.975746232381e-03 0.0 
1.975746232381e-03 9.328940515592e-03 0.0 
0.0 0.0 0.0 
0.0 3.639258082240e-03 0.0 
3.639258082240e-03 1.126495274341e-02 0.0 
0.0 0.0 0.0 
-1.578193163823e-03 2.730279733607e-03 0.0 
2.730279733607e-03 1.191248501955e-02 0.0 
0.0 0.0 0.0 
3.486641002455e-04 -4.924130714502e-04 0.0 
-4.924130714502e-04 7.224832911654e-04 0.0 
0.0 0.0 0.0 
-1.018572159783e-04 3.515963484866e-04 0.0 
3.515963484866e-04 1.057280985303e-03 0.0 
0.0 0.0 0.0 
3.404898978410e-04 -5.410483777267e-04 0.0 
-5.410483777267e-04 1.030896176019e-03 0.0 
0.0 0.0 0.0 
7.389051685605e-04 3.450005985440e-04 0.0 
3.450005985440e-04 6.105721287779e-03 0.0 
0.0 0.0 0.0 
-2.168678172445e-03 5.277780468029e-04 0.0 
5.277780468029e-04 1.511228096393e-02 0.0 
0.0 0.0 0.0 
-2.527704027991e-03 2.191427930977e-03 0.0 
2.191427930977e-03 1.412865726960e-02 0.0 
0.0 0.0 0.0 
0.0 3.196015303060e-03 0.0 
3.196015303060e-03 1.070248884618e-02 0.0 
0.0 0.0 0.0 
-2.012100893505e-03 3.429117636450e-04 0.0 
3.429117636450e-04 1.512680089129e-02 0.0 
0.0 0.0 0.0 
-6.992169271989e-04 4.102908692252e-03 0.0 
4.102908692252e-03 1.561871764525e-02 0.0 
0.0 0.0 0.0 
2.343239820968e-03 3.654709413792e-03 0.0 
3.654709413792e-03 6.724208035017e-03 0.0 
0.0 0.0 0.0 
-2.062503141468e-03 5.488875050846e-04 0.0 
5.488875050846e-04 1.585266697705e-02 0.0 
0.0 0.0 0.0 
9.277619889336e-04 2.791051693910e-03 0.0 
2.791051693910e-03 4.038656670706e-03 0.0 
0.0 0.0 0.0 
2.904071136358e-03 2.082761086030e-03 0.0 
2.082761086030e-03 4.282070126837e-03 0.0 
0.0 0.0 0.0 
3.498106373090e-04 4.800603326493e-04 0.0 
4.800603326493e-04 1.936346964116e-03 0.0 
0.0 0.0 0.0 
0.0 2.726524663715e-03 0.0 
2.726524663715e-03 1.018284149793e-02 0.0 
0.0 0.0 0.0 
0.0 4.932324951518e-03 0.0 
4.932324951518e-03 1.383115816392e-02 0.0 
0.0 0.0 0.0 
0.0 4.514906992901e-03 0.0 
4.514906992901e-03 1.491936264027e-02 0.0 
0.0 0.0 0.0 
1.823857231675e-03 2.338286197333e-04 0.0 
2.338286197333e-04 3.498593545536e-03 0.0 
0.0 0.0 0.0 
3.843759108650e-04 -3.798449900704e-04 0.0 
-3.798449900704e-04 2.891015032833e-03 0.0 
0.0 0.0 0.0 
4.042302155536e-04 2.416334586421e-03 0.0 
2.416334586421e-03 6.314492541836e-03 0.0 
0.0 0.0 0.0 
1.734094160735e-03 2.793232903758e-04 0.0 
2.793232903758e-04 3.826815796683e-03 0.0 
0.0 0.0 0.0 
0.0 2.269736110238e-03 0.0 
2.269736110238e-03 9.710348931364e-03 0.0 
0.0 0.0 0.0 
6.436381220034e-04 1.094774604268e-03 0.0 
1.094774604268e-03 3.026703715012e-03 0.0 
0.0 0.0 0.0 
3.261277906279e-03 5.253711328826e-05 0.0 
5.253711328826e-05 2.593143946463e-04 0.0 
0.0 0.0 0.0 
3.288959107810e-03 1.572893722226e-05 0.0 
1.572893722226e-05 3.392343908872e-04 0.0 
0.0 0.0 0.0 
-1.964131843037e-03 5.810715914513e-04 0.0 
5.810715914513e-04 1.606134880359e-02 0.0 
0.0 0.0 0.0 
2.867003116895e-04 1.357267061863e-03 0.0 
1.357267061863e-03 8.809798926459e-03 0.0 
0.0 0.0 0.0 
-2.019358973734e-04 -5.051613049101e-04 0.0 
-5.051613049101e-04 9.916471049676e-04 0.0 
0.0 0.0 0.0 
0.0 1.796312609465e-03 0.0 
1.796312609465e-03 9.244231163079e-03 0.0 
0.0 0.0 0.0 
3.050205136163e-03 -1.869639296771e-04 0.0 
-1.869639296771e-04 2.717223240014e-04 0.0 
0.0 0.0 0.0 
0.0 4.663459783939e-03 0.0 
4.663459783939e-03 1.275512614738e-02 0.0 
0.0 0.0 0.0 
-1.586310299456e-03 3.567438957545e-03 0.0 
3.567438957545e-03 1.366250743213e-02 0.0 
0.0 0.0 0.0 
-8.079058137732e-04 -2.301721826612e-04 0.0 
-2.301721826612e-04 4.469066593924e-04 0.0 
0.0 0.0 0.0 
5.960958209608e-04 2.393717407686e-03 0.0 
2.393717407686e-03 5.532735790527e-03 0.0 
0.0 0.0 0.0 
-1.891029374513e-03 2.230388399903e-03 0.0 
2.230388399903e-03 1.632727953024e-02 0.0 
0.0 0.0 0.0 
0.0 4.266398304399e-03 0.0 
4.266398304399e-03 1.210939842289e-02 0.0 
0.0 0.0 0.0 
-1.601375440253e-03 2.904378285552e-03 0.0 
2.904378285552e-03 1.220459055328e-02 0.0 
0.0 0.0 0.0 
2.186308448677e-03 3.394959155964e-03 0.0 
3.394959155964e-03 6.809876211991e-03 0.0 
0.0 0.0 0.0 
2.890830857578e-04 9.489875851518e-04 0.0 
9.489875851518e-04 1.991927476686e-03 0.0 
0.0 0.0 0.0 
7.203339738711e-04 1.683712944292e-03 0.0 
1.683712944292e-03 7.768476837818e-03 0.0 
0.0 0.0 0.0 
2.775761209442e-03 -1.703765756622e-04 0.0 
-1.703765756622e-04 6.127541332843e-04 0.0 
0.0 0.0 0.0 
2.992157200485e-03 -1.462942249930e-04 0.0 
-1.462942249930e-04 3.621944419152e-04 0.0 
0.0 0.0 0.0 
-8.914365267023e-04 -3.223194011446e-04 0.0 
-3.223194011446e-04 8.686931047601e-04 0.0 
0.0 0.0 0.0 
0.0 3.845004763938e-03 0.0 
3.845004763938e-03 1.151229059241e-02 0.0 
0.0 0.0 0.0 
5.582758713507e-04 5.124011514326e-04 0.0 
5.124011514326e-04 2.280811939228e-03 0.0 
0.0 0.0 0.0 
1.243910677905e-03 9.606934324440e-04 0.0 
9.606934324440e-04 6.090469651982e-03 0.0 
0.0 0.0 0.0 
-2.172994919961e-03 4.061911626895e-04 0.0 
4.061911626895e-04 1.567521931186e-02 0.0 
0.0 0.0 0.0 
1.687903307877e-03 -5.225888690053e-04 0.0 
-5.225888690053e-04 7.668719014606e-04 0.0 
0.0 0.0 0.0 
3.075536381512e-03 -1.597083419801e-04 0.0 
-1.597083419801e-04 2.908920208007e-04 0.0 
0.0 0.0 0.0 
-1.469343324572e-03 2.870524442916e-03 0.0 
2.870524442916e-03 1.151330906397e-02 0.0 
0.0 0.0 0.0 
0.0 2.967466143470e-03 0.0 
2.967466143470e-03 1.046839267665e-02 0.0 
0.0 0.0 0.0 
3.313287606888e-04 -2.993234063875e-04 0.0 
-2.993234063875e-04 3.240575972705e-03 0.0 
0.0 0.0 0.0 
1.625644481327e-03 4.906492965339e-04 0.0 
4.906492965339e-04 4.481210513589e-03 0.0 
0.0 0.0 0.0 
3.613916664724e-05 2.795157703927e-03 0.0 
2.795157703927e-03 7.569073082221e-03 0.0 
0.0 0.0 0.0 
2.364712509721e-03 7.927814343956e-04 0.0 
7.927814343956e-04 3.492449444713e-03 0.0 
0.0 0.0 0.0 
3.207221190785e-03 4.468479703750e-05 0.0 
4.468479703750e-05 5.226393397313e-04 0.0 
0.0 0.0 0.0 
1.859830195201e-03 4.014639376693e-04 0.0 
4.014639376693e-04 3.797643215507e-03 0.0 
0.0 0.0 0.0 
-1.828043625173e-04 2.778147631790e-03 0.0 
2.778147631790e-03 7.993926837405e-03 0.0 
0.0 0.0 0.0 
4.087629070564e-04 3.421169347874e-03 0.0 
3.421169347874e-03 9.338584987384e-03 0.0 
0.0 0.0 0.0 
2.480860836581e-03 2.163136672795e-03 0.0 
2.163136672795e-03 5.143324051991e-03 0.0 
0.0 0.0 0.0 
3.795626403458e-04 2.668164003618e-03 0.0 
2.668164003618e-03 6.723109522312e-03 0.0 
0.0 0.0 0.0 
1.469132883127e-03 -2.143471259162e-04 0.0 
-2.143471259162e-04 2.390302302419e-03 0.0 
0.0 0.0 0.0 
6.362983843757e-04 1.412882423023e-03 0.0 
1.412882423023e-03 3.505743329234e-03 0.0 
0.0 0.0 0.0 
5.620460263247e-04 -3.136321368763e-04 0.0 
-3.136321368763e-04 2.880078813823e-03 0.0 
0.0 0.0 0.0 
2.393081056635e-03 3.522066837952e-03 0.0 
3.522066837952e-03 6.747126581928e-03 0.0 
0.0 0.0 0.0 
3.363067822457e-03 1.674900661428e-03 0.0 
1.674900661428e-03 2.956153602911e-03 0.0 
0.0 0.0 0.0 
3.454900323407e-04 1.762330974506e-03 0.0 
1.762330974506e-03 9.167526147327e-03 0.0 
0.0 0.0 0.0 
-1.784762239317e-03 2.578509895396e-03 0.0 
2.578509895396e-03 1.611666201645e-02 0.0 
0.0 0.0 0.0 
1.575991446003e-03 -4.319312614121e-04 0.0 
-4.319312614121e-04 8.933078382034e-04 0.0 
0.0 0.0 0.0 
0.0 2.014706543527e-03 0.0 
2.014706543527e-03 9.418870622243e-03 0.0 
0.0 0.0 0.0 
7.208137053638e-04 1.819459209406e-03 0.0 
1.819459209406e-03 8.492177749457e-03 0.0 
0.0 0.0 0.0 
1.526798090005e-03 2.128665942475e-03 0.0 
2.128665942475e-03 4.569917763293e-03 0.0 
0.0 0.0 0.0 
-1.933775641615e-04 -3.881333841203e-04 0.0 
-3.881333841203e-04 5.336340222113e-04 0.0 
0.0 0.0 0.0 
2.810755541087e-04 1.201281291129e-03 0.0 
1.201281291129e-03 8.661905748865e-03 0.0 
0.0 0.0 0.0 
-1.734417198305e-03 2.973476671381e-03 0.0 
2.973476671381e-03 1.539633753415e-02 0.0 
0.0 0.0 0.0 
2.712395644359e-03 -3.276105888834e-04 0.0 
-3.276105888834e-04 2.874006605522e-04 0.0 
0.0 0.0 0.0 
0.0 1.392802931470e-03 0.0 
1.392802931470e-03 8.872727489560e-03 0.0 
0.0 0.0 0.0 
1.618608100426e-03 3.214431684789e-04 0.0 
3.214431684789e-04 4.145768271357e-03 0.0 
0.0 0.0 0.0 
-6.248154647032e-04 2.701223971435e-03 0.0 
2.701223971435e-03 7.439521908713e-03 0.0 
0.0 0.0 0.0 
-2.177569156900e-03 2.286402846254e-03 0.0 
2.286402846254e-03 1.358371076713e-02 0.0 
0.0 0.0 0.0 
3.473594808082e-03 1.665396964898e-03 0.0 
1.665396964898e-03 2.687626256356e-03 0.0 
0.0 0.0 0.0 
1.994488108729e-03 1.392392846209e-04 0.0 
1.392392846209e-04 2.889881817190e-03 0.0 
0.0 0.0 0.0 
2.358244237155e-03 1.027651801595e-03 0.0 
1.027651801595e-03 3.893348315921e-03 0.0 
0.0 0.0 0.0 
-2.314601606215e-03 2.354167970040e-03 0.0 
2.354167970040e-03 1.494236171352e-02 0.0 
0.0 0.0 0.0 
-1.173009779924e-03 2.607396084548e-03 0.0 
2.607396084548e-03 9.319931660183e-03 0.0 
0.0 0.0 0.0 
2.305186505283e-03 2.448175509775e-03 0.0 
2.448175509775e-03 5.784393613049e-03 0.0 
0.0 0.0 0.0 
-1.488755877571e-03 6.466278377512e-05 0.0 
6.466278377512e-05 1.571243669878e-02 0.0 
0.0 0.0 0.0 
1.215059312638e-03 -3.441753289566e-04 0.0 
-3.441753289566e-04 2.411229422832e-03 0.0 
0.0 0.0 0.0 
2.630019668918e-03 1.878906415518e-03 0.0 
1.878906415518e-03 4.551008842478e-03 0.0 
0.0 0.0 0.0 
2.451393042585e-03 -3.086460485109e-04 0.0 
-3.086460485109e-04 6.316476771002e-04 0.0 
0.0 0.0 0.0 
8.274197081390e-04 -8.030350150355e-05 0.0 
-8.030350150355e-05 4.463924079218e-03 0.0 
0.0 0.0 0.0 
-1.189030623184e-03 -2.051539409680e-04 0.0 
-2.051539409680e-04 6.260170559103e-04 0.0 
0.0 0.0 0.0 
5.710653374298e-04 1.727837670793e-03 0.0 
1.727837670793e-03 4.074690252195e-03 0.0 
0.0 0.0 0.0 
2.709828363631e-03 -3.263169765534e-04 0.0 
-3.263169765534e-04 2.932036706735e-04 0.0 
0.0 0.0 0.0 
9.132889188332e-04 -2.319538306576e-04 0.0 
-2.319538306576e-04 3.214184966850e-03 0.0 
0.0 0.0 0.0 
1.197462278810e-03 2.377690627043e-03 0.0 
2.377690627043e-03 5.369704600801e-03 0.0 
0.0 0.0 0.0 
1.765278864192e-03 4.405562246438e-04 0.0 
4.405562246438e-04 4.127421051797e-03 0.0 
0.0 0.0 0.0 
-2.093732020911e-03 4.285065185356e-04 0.0 
4.285065185356e-04 1.589793640042e-02 0.0 
0.0 0.0 0.0 
2.356117297003e-03 -4.709092810232e-04 0.0 
-4.709092810232e-04 3.118225790695e-04 0.0 
0.0 0.0 0.0 
0.0 1.217590314451e-03 0.0 
1.217590314451e-03 8.746339209805e-03 0.0 
0.0 0.0 0.0 
-1.150688442594e-03 2.851311401524e-03 0.0 
2.851311401524e-03 1.044677792258e-02 0.0 
0.0 0.0 0.0 
6.177743242082e-04 -2.342838968245e-04 0.0 
-2.342838968245e-04 3.648954475648e-03 0.0 
0.0 0.0 0.0 
-9.577679344854e-04 2.764097569083e-03 0.0 
2.764097569083e-03 9.712143743637e-03 0.0 
0.0 0.0 0.0 
6.671244711651e-04 -3.395440435989e-04 0.0 
-3.395440435989e-04 3.231562633612e-03 0.0 
0.0 0.0 0.0 
-4.993332698587e-04 -2.391103276562e-04 0.0 
-2.391103276562e-04 3.531717370180e-04 0.0 
0.0 0.0 0.0 
-2.376607004326e-03 2.330496939543e-03 0.0 
2.330496939543e-03 1.422218289256e-02 0.0 
0.0 0.0 0.0 
6.868401402071e-06 -1.514161756490e-04 0.0 
-1.514161756490e-04 3.370311880073e-03 0.0 
0.0 0.0 0.0 
7.266278055413e-04 2.188450202626e-05 0.0 
2.188450202626e-05 -2.010634432107e-04 0.0 
0.0 0.0 0.0 
3.153118658088e-04 -2.663502669955e-04 0.0 
-2.663502669955e-04 3.672991019649e-03 0.0 
0.0 0.0 0.0 
1.513713097834e-03 5.186674138335e-04 0.0 
5.186674138335e-04 4.809701645803e-03 0.0 
0.0 0.0 0.0 
-9.872657944066e-04 6.105357481197e-04 0.0 
6.105357481197e-04 1.698648560761e-02 0.0 
0.0 0.0 0.0 
2.620620687384e-03 9.121924392763e-04 0.0 
9.121924392763e-04 3.181217551433e-03 0.0 
0.0 0.0 0.0 
2.530938139117e-03 9.439579896195e-04 0.0 
9.439579896195e-04 3.465233322744e-03 0.0 
0.0 0.0 0.0 
-2.505334386809e-03 2.070614398988e-03 0.0 
2.070614398988e-03 1.388534604965e-02 0.0 
0.0 0.0 0.0 
-2.000150029296e-03 9.579274825029e-05 0.0 
9.579274825029e-05 1.485368992687e-02 0.0 
0.0 0.0 0.0 
-8.429742961491e-04 2.715172505080e-03 0.0 
2.715172505080e-03 1.652316166655e-02 0.0 
0.0 0.0 0.0 
-5.811319829998e-04 2.814027414817e-03 0.0 
2.814027414817e-03 8.908990462386e-03 0.0 
0.0 0.0 0.0 
1.881373358312e-03 4.074180871951e-06 0.0 
4.074180871951e-06 -6.776576190194e-04 0.0 
0.0 0.0 0.0 
4.708869464456e-04 -4.441835283795e-04 0.0 
-4.441835283795e-04 9.000845533416e-04 0.0 
0.0 0.0 0.0 
-5.822016713597e-05 -4.759556531100e-04 0.0 
-4.759556531100e-04 4.673664283357e-04 0.0 
0.0 0.0 0.0 
1.046498630246e-03 -5.248665399175e-04 0.0 
-5.248665399175e-04 1.238131824602e-03 0.0 
0.0 0.0 0.0 
8.849540423546e-04 4.261774330516e-03 0.0 
4.261774330516e-03 1.023306981343e-02 0.0 
0.0 0.0 0.0 
-1.153817668782e-03 5.892509286397e-04 0.0 
5.892509286397e-04 1.698962985562e-02 0.0 
0.0 0.0 0.0 
8.683094922881e-04 2.991929716751e-04 0.0 
2.991929716751e-04 5.732016868590e-03 0.0 
0.0 0.0 0.0 
7.257468487087e-04 -4.536891417831e-04 0.0 
-4.536891417831e-04 1.847122453622e-03 0.0 
0.0 0.0 0.0 
6.548611450017e-04 -1.705687394146e-04 0.0 
-1.705687394146e-04 4.479574768061e-03 0.0 
0.0 0.0 0.0 
1.116628744118e-03 9.615475264588e-04 0.0 
9.615475264588e-04 6.365007996947e-03 0.0 
0.0 0.0 0.0 
4.613098863890e-04 3.021717116101e-05 0.0 
3.021717116101e-05 1.685934033374e-03 0.0 
0.0 0.0 0.0 
3.096763409371e-05 -1.112574789700e-04 0.0 
-1.112574789700e-04 3.369587659370e-03 0.0 
0.0 0.0 0.0 
2.033993509098e-04 -5.344848085764e-05 0.0 
-5.344848085764e-05 2.695255405318e-03 0.0 
0.0 0.0 0.0 
2.581285922312e-04 1.031875296962e-03 0.0 
1.031875296962e-03 8.501596830831e-03 0.0 
0.0 0.0 0.0 
0.0 1.046526221545e-03 0.0 
1.046526221545e-03 8.577628454701e-03 0.0 
0.0 0.0 0.0 
-6.334740508140e-05 -1.173338758403e-04 0.0 
-1.173338758403e-04 3.764090602178e-03 0.0 
0.0 0.0 0.0 
3.736826444656e-04 -3.250666506902e-04 0.0 
-3.250666506902e-04 3.664231679307e-03 0.0 
0.0 0.0 0.0 
1.923540407573e-03 1.983265693791e-04 0.0 
1.983265693791e-04 3.215479524503e-03 0.0 
0.0 0.0 0.0 
1.043704680531e-03 1.166810683388e-03 0.0 
1.166810683388e-03 6.853455943443e-03 0.0 
0.0 0.0 0.0 
4.793976953725e-04 -3.757321699108e-04 0.0 
-3.757321699108e-04 1.069434044204e-03 0.0 
0.0 0.0 0.0 
1.199810617898e-03 7.699326724658e-04 0.0 
7.699326724658e-04 5.910098008819e-03 0.0 
0.0 0.0 0.0 
1.329259102646e-03 8.241412856239e-05 0.0 
8.241412856239e-05 -1.414388291414e-04 0.0 
0.0 0.0 0.0 
3.808844764075e-04 -3.574802609939e-04 0.0 
-3.574802609939e-04 3.269208961225e-03 0.0 
0.0 0.0 0.0 
9.684707227389e-04 -2.881499536754e-04 0.0 
-2.881499536754e-04 3.210818366900e-03 0.0 
0.0 0.0 0.0 
1.410107693802e-03 -8.918908828400e-06 0.0 
-8.918908828400e-06 -6.924280307600e-04 0.0 
0.0 0.0 0.0 
-2.992836756888e-05 -9.360216345081e-05 0.0 
-9.360216345081e-05 3.595042817562e-03 0.0 
0.0 0.0 0.0 
-1.474564774569e-03 2.478358510912e-03 0.0 
2.478358510912e-03 1.613174015524e-02 0.0 
0.0 0.0 0.0 
1.598232375868e-03 -6.743682317177e-07 0.0 
-6.743682317177e-07 -5.558606243459e-04 0.0 
0.0 0.0 0.0 
-2.156060927485e-03 2.504279275050e-04 0.0 
2.504279275050e-04 1.492689666834e-02 0.0 
0.0 0.0 0.0 
-2.118626955927e-03 2.935731826870e-04 0.0 
2.935731826870e-04 1.487176995430e-02 0.0 
0.0 0.0 0.0 
2.319644523713e-03 1.275577308416e-03 0.0 
1.275577308416e-03 4.346281020867e-03 0.0 
0.0 0.0 0.0 
2.750538918999e-04 -9.400302778160e-06 0.0 
-9.400302778160e-06 2.696855142111e-03 0.0 
0.0 0.0 0.0 
2.439780562892e-03 -2.979123142890e-04 0.0 
-2.979123142890e-04 6.382547377413e-04 0.0 
0.0 0.0 0.0 
4.816824092910e-04 1.266500593398e-03 0.0 
1.266500593398e-03 2.663067264833e-03 0.0 
0.0 0.0 0.0 
5.311003705286e-04 3.106585625314e-04 0.0 
3.106585625314e-04 6.558733189178e-03 0.0 
0.0 0.0 0.0 
3.524420155177e-04 3.957022203963e-03 0.0 
3.957022203963e-03 1.093662434143e-02 0.0 
0.0 0.0 0.0 
-1.586997265970e-03 8.630440690627e-04 0.0 
8.630440690627e-04 1.684127516067e-02 0.0 
0.0 0.0 0.0 
7.471639770937e-04 2.508504202097e-03 0.0 
2.508504202097e-03 4.074842198936e-03 0.0 
0.0 0.0 0.0 
3.939535490065e-04 -4.023934133253e-04 0.0 
-4.023934133253e-04 6.023371915651e-04 0.0 
0.0 0.0 0.0 
-1.416419413742e-03 2.687471807711e-03 0.0 
2.687471807711e-03 1.048066917856e-02 0.0 
0.0 0.0 0.0 
-1.698447448681e-03 4.558047030985e-06 0.0 
4.558047030985e-06 1.474350295400e-02 0.0 
0.0 0.0 0.0 
-1.530234326995e-03 2.214166156876e-06 0.0 
2.214166156876e-06 1.468238512593e-02 0.0 
0.0 0.0 0.0 
1.597085687445e-03 2.054825947736e-05 0.0 
2.054825947736e-05 -5.800062998687e-04 0.0 
0.0 0.0 0.0 
1.329092351740e-03 2.007467877099e-05 0.0 
2.007467877099e-05 -6.089414651901e-04 0.0 
0.0 0.0 0.0 
1.308769932445e-03 -2.558163582587e-05 0.0 
-2.558163582587e-05 -3.068273298660e-04 0.0 
0.0 0.0 0.0 
5.476737559655e-04 -3.579363570035e-04 0.0 
-3.579363570035e-04 1.527601283249e-03 0.0 
0.0 0.0 0.0 
1.574791054137e-03 3.646335412701e-05 0.0 
3.646335412701e-05 -7.997527985915e-04 0.0 
0.0 0.0 0.0 
-1.035530511662e-04 -9.184462614250e-05 0.0 
-9.184462614250e-05 4.004822938947e-03 0.0 
0.0 0.0 0.0 
-1.029217047768e-03 -3.828306322473e-05 0.0 
-3.828306322473e-05 5.817011599933e-04 0.0 
0.0 0.0 0.0 
6.399366300907e-04 -3.609684878145e-04 0.0 
-3.609684878145e-04 1.831656877211e-03 0.0 
0.0 0.0 0.0 
-1.346745853334e-03 1.248896485208e-04 0.0 
1.248896485208e-04 1.603068561698e-02 0.0 
0.0 0.0 0.0 
-1.574631274404e-03 7.041270355305e-05 0.0 
7.041270355305e-05 1.467340400004e-02 0.0 
0.0 0.0 0.0 
6.912914052948e-04 4.425394986014e-03 0.0 
4.425394986014e-03 1.091795423510e-02 0.0 
0.0 0.0 0.0 
1.512508894167e-03 3.555260258203e-04 0.0 
3.555260258203e-04 4.473452779582e-03 0.0 
0.0 0.0 0.0 
-1.410629365339e-03 7.626525070099e-05 0.0 
7.626525070099e-05 1.569451346608e-02 0.0 
0.0 0.0 0.0 
1.563536897260e-04 -3.192669327148e-05 0.0 
-3.192669327148e-05 2.953556436272e-03 0.0 
0.0 0.0 0.0 
1.575861702197e-03 -4.202791259429e-05 0.0 
-4.202791259429e-05 -4.139406465671e-04 0.0 
0.0 0.0 0.0 
0.0 1.425203244354e-03 0.0 
1.425203244354e-03 1.732946084656e-02 0.0 
0.0 0.0 0.0 
-4.646566940762e-04 1.612708266648e-03 0.0 
1.612708266648e-03 1.727024663759e-02 0.0 
0.0 0.0 0.0 
-1.941410554078e-03 3.239816956888e-04 0.0 
3.239816956888e-04 1.568104237959e-02 0.0 
0.0 0.0 0.0 
-1.795182100419e-03 7.565093092798e-06 0.0 
7.565093092798e-06 1.477266537291e-02 0.0 
0.0 0.0 0.0 
1.655973556940e-04 -6.575593250373e-05 0.0 
-6.575593250373e-05 2.968386318273e-03 0.0 
0.0 0.0 0.0 
-3.658140900341e-04 1.082941467386e-03 0.0 
1.082941467386e-03 1.745573162598e-02 0.0 
0.0 0.0 0.0 
6.310701756647e-04 -4.564550342058e-04 0.0 
-4.564550342058e-04 1.574287928925e-03 0.0 
0.0 0.0 0.0 
-1.731852540997e-03 1.674173768367e-04 0.0 
1.674173768367e-04 1.468456768424e-02 0.0 
0.0 0.0 0.0 
-1.852052863318e-03 4.469133341997e-05 0.0 
4.469133341997e-05 1.480195612511e-02 0.0 
0.0 0.0 0.0 
-1.717542374354e-03 3.244445103710e-03 0.0 
3.244445103710e-03 1.080039429811e-02 0.0 
0.0 0.0 0.0 
0.0 3.694364648290e-03 0.0 
3.694364648290e-03 1.585600939579e-02 0.0 
0.0 0.0 0.0 
-4.345635741596e-04 1.340461897431e-03 0.0 
1.340461897431e-03 1.737613539984e-02 0.0 
0.0 0.0 0.0 
1.484430287719e-03 2.987445380838e-05 0.0 
2.987445380838e-05 -6.724242997574e-04 0.0 
0.0 0.0 0.0 
1.484467366489e-03 -9.709730287948e-06 0.0 
-9.709730287948e-06 -5.283759959528e-04 0.0 
0.0 0.0 0.0 
4.170551138043e-04 -3.522685369526e-04 0.0 
-3.522685369526e-04 7.573084049077e-04 0.0 
0.0 0.0 0.0 
1.198902306831e-03 -1.761775451088e-04 0.0 
-1.761775451088e-04 3.192885287557e-03 0.0 
0.0 0.0 0.0 
9.932419018477e-05 4.417789197138e-05 0.0 
4.417789197138e-05 6.739724146823e-03 0.0 
0.0 0.0 0.0 
-1.815422926827e-03 -4.887545240873e-05 0.0 
-4.887545240873e-05 8.919180015137e-04 0.0 
0.0 0.0 0.0 
-1.049214383223e-03 5.645010489136e-05 0.0 
5.645010489136e-05 1.671003337611e-02 0.0 
0.0 0.0 0.0 
-8.872869046143e-04 -1.274117575985e-04 0.0 
-1.274117575985e-04 5.238570041863e-04 0.0 
0.0 0.0 0.0 
2.255662040066e-03 1.048628954280e-03 0.0 
1.048628954280e-03 4.174232645862e-03 0.0 
0.0 0.0 0.0 
-1.494098335144e-03 -1.542167480190e-04 0.0 
-1.542167480190e-04 7.567181409911e-04 0.0 
0.0 0.0 0.0 
-1.697535967240e-03 -1.104398271347e-04 0.0 
-1.104398271347e-04 8.461698823143e-04 0.0 
0.0 0.0 0.0 
2.273252037321e-03 8.243143436306e-04 0.0 
8.243143436306e-04 3.780691330269e-03 0.0 
0.0 0.0 0.0 
2.454829221490e-04 5.411536555892e-05 0.0 
5.411536555892e-05 6.568351484234e-03 0.0 
0.0 0.0 0.0 
-1.415671161374e-03 7.964527974829e-05 0.0 
7.964527974829e-05 1.600100423828e-02 0.0 
0.0 0.0 0.0 
-1.363101160746e-03 2.617529757307e-03 0.0 
2.617529757307e-03 1.013646069473e-02 0.0 
0.0 0.0 0.0 
1.576000836448e-03 -2.750434566355e-05 0.0 
-2.750434566355e-05 -8.727118712347e-04 0.0 
0.0 0.0 0.0 
4.686141608472e-04 -1.784161946641e-04 0.0 
-1.784161946641e-04 4.789206083412e-03 0.0 
0.0 0.0 0.0 
0.0 4.062814167775e-04 0.0 
4.062814167775e-04 1.756198598503e-02 0.0 
0.0 0.0 0.0 
-2.924378134128e-04 4.661723841566e-04 0.0 
4.661723841566e-04 1.756391976166e-02 0.0 
0.0 0.0 0.0 
-1.522763995292e-03 2.159872069423e-05 0.0 
2.159872069423e-05 1.466557666370e-02 0.0 
0.0 0.0 0.0 
2.204459929247e-03 1.282048524329e-03 0.0 
1.282048524329e-03 4.612014430295e-03 0.0 
0.0 0.0 0.0 
0.0 1.166327416898e-03 0.0 
1.166327416898e-03 1.742594489604e-02 0.0 
0.0 0.0 0.0 
2.204254982131e-03 3.266314974302e-03 0.0 
3.266314974302e-03 6.828464269898e-03 0.0 
0.0 0.0 0.0 
1.479698714937e-03 1.893775068782e-05 0.0 
1.893775068782e-05 -4.168570579125e-04 0.0 
0.0 0.0 0.0 
1.827204108003e-03 -7.825410423659e-05 0.0 
-7.825410423659e-05 -8.976900571596e-04 0.0 
0.0 0.0 0.0 
1.475406948626e-03 -1.916073492784e-05 0.0 
-1.916073492784e-05 -7.360863131317e-04 0.0 
0.0 0.0 0.0 
1.623711274523e-05 -2.942726603600e-05 0.0 
-2.942726603600e-05 3.395908730537e-03 0.0 
0.0 0.0 0.0 
6.241536776752e-05 1.415554569418e-04 0.0 
1.415554569418e-04 7.561629238365e-03 0.0 
0.0 0.0 0.0 
-4.693235063408e-04 -9.010980784967e-06 0.0 
-9.010980784967e-06 1.735939199711e-02 0.0 
0.0 0.0 0.0 
1.830415007704e-03 7.084299944924e-06 0.0 
7.084299944924e-06 -6.897484357010e-04 0.0 
0.0 0.0 0.0 
-1.083018911504e-04 -4.959163684316e-05 0.0 
-4.959163684316e-05 4.004762003627e-03 0.0 
0.0 0.0 0.0 
0.0 1.107525617023e-04 0.0 
1.107525617023e-04 7.548868057276e-03 0.0 
0.0 0.0 0.0 
9.605772253662e-05 2.250413255751e-04 0.0 
2.250413255751e-04 7.627470372038e-03 0.0 
0.0 0.0 0.0 
2.426274601526e-04 8.850700897034e-04 0.0 
8.850700897034e-04 8.358464421380e-03 0.0 
0.0 0.0 0.0 
-1.188655781269e-03 8.269310226611e-05 0.0 
8.269310226611e-05 1.640445235921e-02 0.0 
0.0 0.0 0.0 
-9.426085941482e-04 -1.929858949874e-05 0.0 
-1.929858949874e-05 1.685578445463e-02 0.0 
0.0 0.0 0.0 
0.0 1.466179338290e-04 0.0 
1.466179338290e-04 7.570084226018e-03 0.0 
0.0 0.0 0.0 
0.0 2.009313002414e-04 0.0 
2.009313002414e-04 7.687329472116e-03 0.0 
0.0 0.0 0.0 
-1.026598989082e-03 9.654192054037e-05 0.0 
9.654192054037e-05 1.671144044268e-02 0.0 
0.0 0.0 0.0 
2.018368655527e-03 -7.219795367615e-06 0.0 
-7.219795367615e-06 -7.302998884866e-04 0.0 
0.0 0.0 0.0 
-1.550814902342e-03 -1.970909763597e-06 0.0 
-1.970909763597e-06 1.467665853102e-02 0.0 
0.0 0.0 0.0 
-1.528294191094e-03 1.169212004611e-06 0.0 
1.169212004611e-06 1.469054692302e-02 0.0 
0.0 0.0 0.0 
1.574509963283e-03 -2.822837171911e-08 0.0 
-2.822837171911e-08 -5.531734979596e-04 0.0 
0.0 0.0 0.0 
0.0 4.334121649850e-04 0.0 
4.334121649850e-04 7.998399910348e-03 0.0 
0.0 0.0 0.0 
2.243789486105e-04 7.610678805941e-04 0.0 
7.610678805941e-04 8.210840866208e-03 0.0 
0.0 0.0 0.0 
0.0 6.304818927907e-04 0.0 
6.304818927907e-04 8.135069697664e-03 0.0 
0.0 0.0 0.0 
1.620923771093e-03 2.475511776816e-05 0.0 
2.475511776816e-05 -5.967529166691e-04 0.0 
0.0 0.0 0.0 
1.644651101809e-03 -7.140311267897e-06 0.0 
-7.140311267897e-06 -5.847489115591e-04 0.0 
0.0 0.0 0.0 
0.0 8.942571462933e-04 0.0 
8.942571462933e-04 8.428731942240e-03 0.0 
0.0 0.0 0.0 
0.0 7.597754176307e-04 0.0 
7.597754176307e-04 8.293814349009e-03 0.0 
0.0 0.0 0.0 
-1.261960553713e-03 -2.969587620010e-05 0.0 
-2.969587620010e-05 1.623332512927e-02 0.0 
0.0 0.0 0.0 
-1.554320182535e-03 -3.133085804225e-06 0.0 
-3.133085804225e-06 1.466780636532e-02 0.0 
0.0 0.0 0.0 
-1.115523719789e-03 -2.430041582559e-05 0.0 
-2.430041582559e-05 1.655802527302e-02 0.0 
0.0 0.0 0.0 
-1.446385864112e-03 -3.737431300672e-05 0.0 
-3.737431300672e-05 1.550389805173e-02 0.0 
0.0 0.0 0.0 
-1.533780758629e-03 2.995452875006e-05 0.0 
2.995452875006e-05 1.467042883609e-02 0.0 
0.0 0.0 0.0 
8.348610288631e-04 -8.218507725226e-07 0.0 
-8.218507725226e-07 -2.483899799394e-04 0.0 
0.0 0.0 0.0 
1.170677213271e-04 -1.124721085107e-04 0.0 
-1.124721085107e-04 4.171566875200e-05 0.0 
0.0 0.0 0.0 
-9.587649047638e-05 -1.634469703451e-04 0.0 
-1.634469703451e-04 1.236564124485e-04 0.0 
0.0 0.0 0.0 
-4.217699178415e-04 -2.127317387165e-04 0.0 
-2.127317387165e-04 2.641316491943e-04 0.0 
0.0 0.0 0.0 
-1.431197666842e-04 -1.187040356774e-05 0.0 
-1.187040356774e-05 4.226055407206e-03 0.0 
0.0 0.0 0.0 
-7.514456337898e-05 -2.351863033808e-05 0.0 
-2.351863033808e-05 3.813009575448e-03 0.0 
0.0 0.0 0.0 
1.274410112848e-04 -1.432368411366e-04 0.0 
-1.432368411366e-04 7.378195875907e-05 0.0 
0.0 0.0 0.0 
-2.090341010156e-04 -3.811694258917e-06 0.0 
-3.811694258917e-06 5.293595298917e-03 0.0 
0.0 0.0 0.0 
-6.957299934485e-05 -1.999060522542e-04 0.0 
-1.999060522542e-04 1.572833157240e-04 0.0 
0.0 0.0 0.0 
0.0 2.767381199884e-03 0.0 
2.767381199884e-03 1.662644142068e-02 0.0 
0.0 0.0 0.0 
0.0 9.527325154326e-04 0.0 
9.527325154326e-04 1.748458667454e-02 0.0 
0.0 0.0 0.0 
0.0 1.710029324025e-03 0.0 
1.710029324025e-03 1.720677146696e-02 0.0 
0.0 0.0 0.0 
1.225013253816e-03 1.743747255491e-05 0.0 
1.743747255491e-05 3.486461711664e-04 0.0 
0.0 0.0 0.0 
3.854632300717e-04 -1.875539654559e-05 0.0 
-1.875539654559e-05 2.373509845266e-03 0.0 
0.0 0.0 0.0 
0.0 7.384984310315e-04 0.0 
7.384984310315e-04 1.751152811749e-02 0.0 
0.0 0.0 0.0 
-1.148974972399e-04 2.723918273834e-05 0.0 
2.723918273834e-05 6.314560086076e-03 0.0 
0.0 0.0 0.0 
0.0 5.757059387280e-04 0.0 
5.757059387280e-04 1.756725628487e-02 0.0 
0.0 0.0 0.0 
2.100566846686e-05 4.108334745173e-05 0.0 
4.108334745173e-05 6.583597849973e-03 0.0 
0.0 0.0 0.0 
7.940004253770e-05 4.863364980357e-05 0.0 
4.863364980357e-05 6.937562265113e-03 0.0 
0.0 0.0 0.0 
-2.928604777819e-05 -4.746077452608e-05 0.0 
-4.746077452608e-05 3.595025642150e-03 0.0 
0.0 0.0 0.0 
-3.775216242565e-04 8.526562350046e-04 0.0 
8.526562350046e-04 1.749866458092e-02 0.0 
0.0 0.0 0.0 
-2.867762473210e-04 7.013982176961e-04 0.0 
7.013982176961e-04 1.753263013785e-02 0.0 
0.0 0.0 0.0 
-4.078311384115e-05 -6.238447962828e-05 0.0 
-6.238447962828e-05 6.413124774845e-03 0.0 
0.0 0.0 0.0 
5.084111441311e-05 -3.239033714354e-05 0.0 
-3.239033714354e-05 6.744097026482e-03 0.0 
0.0 0.0 0.0 
1.571222332863e-04 -1.807377396089e-04 0.0 
-1.807377396089e-04 5.355685319426e-03 0.0 
0.0 0.0 0.0 
-7.108807211615e-04 -1.917934727080e-04 0.0 
-1.917934727080e-04 4.517134417610e-04 0.0 
0.0 0.0 0.0 
1.893056806019e-04 -3.386795032825e-04 0.0 
-3.386795032825e-04 3.246839147199e-03 0.0 
0.0 0.0 0.0 
1.590753701460e-03 1.418941706097e-04 0.0 
1.418941706097e-04 -5.535796581658e-04 0.0 
0.0 0.0 0.0 
4.434662994077e-04 2.448653845938e-04 0.0 
2.448653845938e-04 6.565614460279e-03 0.0 
0.0 0.0 0.0 
5.965224650857e-04 -2.719003818494e-04 0.0 
-2.719003818494e-04 3.255014401506e-03 0.0 
0.0 0.0 0.0 
3.960382078521e-04 7.920410173658e-06 0.0 
7.920410173658e-06 5.899592160938e-03 0.0 
0.0 0.0 0.0 
5.407137093110e-04 -4.374001458122e-04 0.0 
-4.374001458122e-04 1.310836916587e-03 0.0 
0.0 0.0 0.0 
4.569413849804e-04 -1.399544854173e-04 0.0 
-1.399544854173e-04 4.615858242578e-04 0.0 
0.0 0.0 0.0 
2.598603356174e-04 -6.915614454759e-06 0.0 
-6.915614454759e-06 6.345338347194e-03 0.0 
0.0 0.0 0.0 
1.272558694783e-04 -3.267705796962e-04 0.0 
-3.267705796962e-04 3.683904566878e-03 0.0 
0.0 0.0 0.0 
6.278571900142e-05 -8.542484097285e-05 0.0 
-8.542484097285e-05 3.170941790844e-03 0.0 
0.0 0.0 0.0 
2.993292842073e-04 -7.351324829217e-05 0.0 
-7.351324829217e-05 5.913128541198e-03 0.0 
0.0 0.0 0.0 
-7.225604315058e-04 3.183332277893e-04 0.0 
3.183332277893e-04 1.710460396825e-02 0.0 
0.0 0.0 0.0 
8.678872442469e-05 -3.301162446211e-05 0.0 
-3.301162446211e-05 3.171931341555e-03 0.0 
0.0 0.0 0.0 
1.365017015355e-03 5.732272037182e-04 0.0 
5.732272037182e-04 5.200900768509e-03 0.0 
0.0 0.0 0.0 
1.176084553795e-03 3.328770852889e-05 0.0 
3.328770852889e-05 4.295849043312e-03 0.0 
0.0 0.0 0.0 
3.085577840443e-04 -9.092489373280e-05 0.0 
-9.092489373280e-05 5.340939665378e-03 0.0 
0.0 0.0 0.0 
1.894044766459e-04 -8.097115330378e-05 0.0 
-8.097115330378e-05 5.588139738757e-03 0.0 
0.0 0.0 0.0 
2.506801333980e-03 9.740345238463e-04 0.0 
9.740345238463e-04 1.918711726627e-03 0.0 
0.0 0.0 0.0 
-1.044539803337e-03 2.801333157075e-03 0.0 
2.801333157075e-03 9.612676457289e-03 0.0 
0.0 0.0 0.0 
7.209955735179e-04 2.235601321149e-03 0.0 
2.235601321149e-03 5.975361415529e-03 0.0 
0.0 0.0 0.0 
6.291924598099e-04 -8.832826679518e-05 0.0 
-8.832826679518e-05 4.774369565860e-03 0.0 
0.0 0.0 0.0 
2.098570641811e-04 -7.407714469341e-05 0.0 
-7.407714469341e-05 6.117862898676e-03 0.0 
0.0 0.0 0.0 
7.098768065750e-05 -6.183221133172e-05 0.0 
-6.183221133172e-05 5.845826244947e-03 0.0 
0.0 0.0 0.0 
1.134993170782e-03 -4.554303804378e-04 0.0 
-4.554303804378e-04 1.015344585186e-03 0.0 
0.0 0.0 0.0 
-8.140741406021e-04 5.524735472041e-04 0.0 
5.524735472041e-04 1.710647233937e-02 0.0 
0.0 0.0 0.0 
-1.038875476038e-03 4.505405797020e-04 0.0 
4.505405797020e-04 1.685387421300e-02 0.0 
0.0 0.0 0.0 
-1.551515573205e-03 8.474731467746e-05 0.0 
8.474731467746e-05 1.525333772535e-02 0.0 
0.0 0.0 0.0 
7.510234919166e-04 -1.896239914711e-05 0.0 
-1.896239914711e-05 4.932843792990e-03 0.0 
0.0 0.0 0.0 
4.633295260892e-04 -9.035091541169e-05 0.0 
-9.035091541169e-05 5.057791135191e-03 0.0 
0.0 0.0 0.0 
-8.285487232303e-04 2.977148264526e-04 0.0 
2.977148264526e-04 1.711252064196e-02 0.0 
0.0 0.0 0.0 
-9.043213208451e-04 4.028911107312e-04 0.0 
4.028911107312e-04 1.698635348378e-02 0.0 
0.0 0.0 0.0 
1.256391813035e-03 -2.427579645885e-05 0.0 
-2.427579645885e-05 3.955091240847e-03 0.0 
0.0 0.0 0.0 
1.547484073254e-04 -1.834902890830e-05 0.0 
-1.834902890830e-05 6.575049825595e-03 0.0 
0.0 0.0 0.0 
-1.345093047150e-03 8.547010651245e-04 0.0 
8.547010651245e-04 1.684141881586e-02 0.0 
0.0 0.0 0.0 
-7.896403127849e-05 -1.118437628311e-04 0.0 
-1.118437628311e-04 5.845779219670e-03 0.0 
0.0 0.0 0.0 
3.055260766103e-04 2.096461677495e-04 0.0 
2.096461677495e-04 6.808581814296e-03 0.0 
0.0 0.0 0.0 
-9.444722197944e-04 5.369806356088e-04 0.0 
5.369806356088e-04 1.710993220618e-02 0.0 
0.0 0.0 0.0 
-1.497258806704e-03 3.219338867416e-04 0.0 
3.219338867416e-04 1.641209889356e-02 0.0 
0.0 0.0 0.0 
1.384447187281e-03 4.037131978353e-04 0.0 
4.037131978353e-04 4.827831682117e-03 0.0 
0.0 0.0 0.0 
4.273063330871e-04 -1.513531691173e-04 0.0 
-1.513531691173e-04 1.629820914457e-03 0.0 
0.0 0.0 0.0 
1.326791666099e-03 -4.968763550216e-04 0.0 
-4.968763550216e-04 7.211630477033e-04 0.0 
0.0 0.0 0.0 
3.777790481572e-04 -4.321446183875e-04 0.0 
-4.321446183875e-04 6.064637164107e-04 0.0 
0.0 0.0 0.0 
-7.120688234485e-04 -4.276140422015e-04 0.0 
-4.276140422015e-04 7.547311029026e-04 0.0 
0.0 0.0 0.0 
-9.955750932445e-04 3.735985034536e-04 0.0 
3.735985034536e-04 1.698941874866e-02 0.0 
0.0 0.0 0.0 
1.993370646802e-04 -7.260641555449e-06 0.0 
-7.260641555449e-06 6.334674377309e-03 0.0 
0.0 0.0 0.0 
-5.014188873086e-04 -4.883319006867e-04 0.0 
-4.883319006867e-04 6.366029712224e-04 0.0 
0.0 0.0 0.0 
-1.705470484255e-03 3.288164514494e-03 0.0 
3.288164514494e-03 1.461313243229e-02 0.0 
0.0 0.0 0.0 
-1.573255219106e-03 1.162437613292e-04 0.0 
1.162437613292e-04 1.546882446669e-02 0.0 
0.0 0.0 0.0 
4.003161098338e-04 -6.084855678738e-05 0.0 
-6.084855678738e-05 5.689189660408e-03 0.0 
0.0 0.0 0.0 
2.285262743980e-04 -4.684099575144e-05 0.0 
-4.684099575144e-05 5.924831385377e-03 0.0 
0.0 0.0 0.0 
2.166002643247e-03 -2.788159003446e-04 0.0 
-2.788159003446e-04 9.912312160338e-04 0.0 
0.0 0.0 0.0 
1.035979438364e-04 -1.167756883786e-04 0.0 
-1.167756883786e-04 5.935533502592e-03 0.0 
0.0 0.0 0.0 
-1.606783643539e-03 1.455696175816e-05 0.0 
1.455696175816e-05 1.525178612994e-02 0.0 
0.0 0.0 0.0 
2.374872000323e-03 1.994378143278e-03 0.0 
1.994378143278e-03 5.168726670336e-03 0.0 
0.0 0.0 0.0 
2.809565554953e-04 2.721017112618e-04 0.0 
2.721017112618e-04 7.039322906176e-03 0.0 
0.0 0.0 0.0 
6.951097116177e-04 -3.927108587751e-05 0.0 
-3.927108587751e-05 1.338211896707e-03 0.0 
0.0 0.0 0.0 
4.052473542635e-04 3.605253564526e-04 0.0 
3.605253564526e-04 6.977348388630e-03 0.0 
0.0 0.0 0.0 
-1.349651877583e-03 3.129212694879e-04 0.0 
3.129212694879e-04 1.656745686673e-02 0.0 
0.0 0.0 0.0 
4.175303090432e-04 -8.925755806236e-05 0.0 
-8.925755806236e-05 1.816754525126e-03 0.0 
0.0 0.0 0.0 
1.253106938684e-03 -5.643234686097e-04 0.0 
-5.643234686097e-04 9.131424208895e-04 0.0 
0.0 0.0 0.0 
-1.358698844984e-04 -1.694212758032e-04 0.0 
-1.694212758032e-04 4.512821542012e-03 0.0 
0.0 0.0 0.0 
-1.588645498752e-03 3.163621113024e-04 0.0 
3.163621113024e-04 1.607391362274e-02 0.0 
0.0 0.0 0.0 
5.398401826715e-04 -3.336696106594e-04 0.0 
-3.336696106594e-04 2.488856205535e-03 0.0 
0.0 0.0 0.0 
-1.198470363754e-03 2.877883935082e-04 0.0 
2.877883935082e-04 1.671944562900e-02 0.0 
0.0 0.0 0.0 
-1.467680491878e-03 2.054808218626e-04 0.0 
2.054808218626e-04 1.623062757592e-02 0.0 
0.0 0.0 0.0 
3.480081347260e-04 -2.183630415785e-04 0.0 
-2.183630415785e-04 4.035548329359e-03 0.0 
0.0 0.0 0.0 
3.863837658180e-05 -1.646272740454e-04 0.0 
-1.646272740454e-04 5.594289118162e-03 0.0 
0.0 0.0 0.0 
2.096672872203e-04 -1.324722993476e-04 0.0 
-1.324722993476e-04 5.714839290792e-03 0.0 
0.0 0.0 0.0 
-1.217376974036e-03 3.464567358022e-04 0.0 
3.464567358022e-04 1.656202202556e-02 0.0 
0.0 0.0 0.0 
4.980969499100e-04 -2.139508797236e-04 0.0 
-2.139508797236e-04 1.225167109208e-03 0.0 
0.0 0.0 0.0 
8.731561192055e-05 -2.436738010621e-04 0.0 
-2.436738010621e-04 4.010451902522e-03 0.0 
0.0 0.0 0.0 
1.647381091587e-03 2.789791165114e-03 0.0 
2.789791165114e-03 7.377796100441e-03 0.0 
0.0 0.0 0.0 
-1.356638199171e-03 4.543833636051e-04 0.0 
4.543833636051e-04 1.672120140680e-02 0.0 
0.0 0.0 0.0 
9.728161457523e-05 -2.769100754793e-04 0.0 
-2.769100754793e-04 3.606260835294e-03 0.0 
0.0 0.0 0.0 
1.011392552502e-03 -6.052679110719e-05 0.0 
-6.052679110719e-05 4.311954254958e-03 0.0 
0.0 0.0 0.0 
5.221711915715e-04 4.171078068966e-04 0.0 
4.171078068966e-04 6.764177520422e-03 0.0 
0.0 0.0 0.0 
-1.350637605364e-03 3.536137437264e-04 0.0 
3.536137437264e-04 1.640790624939e-02 0.0 
0.0 0.0 0.0 
-1.396176216869e-04 -4.434487766563e-05 0.0 
-4.434487766563e-05 1.099589641150e-03 0.0 
0.0 0.0 0.0 
4.273969684818e-04 -2.662363381539e-04 0.0 
-2.662363381539e-04 5.745851708889e-04 0.0 
0.0 0.0 0.0 
8.499654363625e-04 3.820937505785e-05 0.0 
3.820937505785e-05 1.833509595344e-03 0.0 
0.0 0.0 0.0 
3.106956824028e-04 1.170246218483e-07 0.0 
1.170246218483e-07 6.106084822053e-03 0.0 
0.0 0.0 0.0 
-1.475734524593e-03 3.421958368342e-04 0.0 
3.421958368342e-04 1.624593195268e-02 0.0 
0.0 0.0 0.0 
-1.729585664414e-04 -1.483515881004e-04 0.0 
-1.483515881004e-04 4.877124700034e-03 0.0 
0.0 0.0 0.0 
-1.623318857898e-03 1.798657596063e-04 0.0 
1.798657596063e-04 1.568812763412e-02 0.0 
0.0 0.0 0.0 
1.020723643764e-03 8.411848912050e-04 0.0 
8.411848912050e-04 6.382947413236e-03 0.0 
0.0 0.0 0.0 
1.280570001148e-04 -1.994981221540e-04 0.0 
-1.994981221540e-04 4.371194031687e-03 0.0 
0.0 0.0 0.0 
3.235831476094e-04 -4.793772987578e-05 0.0 
-4.793772987578e-05 5.701223889800e-03 0.0 
0.0 0.0 0.0 
5.569796938172e-04 -5.678018237106e-05 0.0 
-5.678018237106e-05 1.613664443398e-03 0.0 
0.0 0.0 0.0 
4.261661123299e-04 3.061291611543e-04 0.0 
3.061291611543e-04 6.812537721379e-03 0.0 
0.0 0.0 0.0 
1.351677134296e-04 -3.030913182512e-04 0.0 
-3.030913182512e-04 4.050215517283e-03 0.0 
0.0 0.0 0.0 
5.952555932707e-04 -1.390068196480e-05 0.0 
-1.390068196480e-05 1.803963364859e-03 0.0 
0.0 0.0 0.0 
-3.825919017153e-05 -2.822584582644e-04 0.0 
-2.822584582644e-04 4.017595113232e-03 0.0 
0.0 0.0 0.0 
3.411230380292e-04 -3.212818044852e-04 0.0 
-3.212818044852e-04 2.834639359242e-03 0.0 
0.0 0.0 0.0 
5.404818447161e-04 -4.127283676568e-04 0.0 
-4.127283676568e-04 1.840348348086e-03 0.0 
0.0 0.0 0.0 
-1.578889954732e-04 -1.472943674010e-04 0.0 
-1.472943674010e-04 4.876779282958e-03 0.0 
0.0 0.0 0.0 
4.298142447900e-04 7.539518073558e-06 0.0 
7.539518073558e-06 -4.411431227602e-05 0.0 
0.0 0.0 0.0 
2.308289970125e-04 -8.697034008930e-05 0.0 
-8.697034008930e-05 3.324214924949e-05 0.0 
0.0 0.0 0.0 
3.115811815664e-04 -1.806574245470e-04 0.0 
-1.806574245470e-04 5.072555447160e-03 0.0 
0.0 0.0 0.0 
5.146101207545e-04 -1.646659297261e-04 0.0 
-1.646659297261e-04 1.401368139691e-03 0.0 
0.0 0.0 0.0 
6.077235584361e-04 -1.073101923021e-04 0.0 
-1.073101923021e-04 4.947260126491e-03 0.0 
0.0 0.0 0.0 
7.933337062942e-04 -8.688172737001e-05 0.0 
-8.688172737001e-05 4.644078167257e-03 0.0 
0.0 0.0 0.0 
1.139815686129e-03 -2.736186200962e-04 0.0 
-2.736186200962e-04 2.443550265917e-03 0.0 
0.0 0.0 0.0 
2.302337255113e-03 -4.335530994459e-04 0.0 
-4.335530994459e-04 3.914550074862e-04 0.0 
0.0 0.0 0.0 
-1.356877206867e-03 8.341938815916e-04 0.0 
8.341938815916e-04 1.697065787230e-02 0.0 
0.0 0.0 0.0 
-4.252731674192e-05 4.925938289053e-04 0.0 
4.925938289053e-04 1.362005742125e-03 0.0 
0.0 0.0 0.0 
1.729375377768e-04 -2.961446971312e-04 0.0 
-2.961446971312e-04 3.142270563893e-03 0.0 
0.0 0.0 0.0 
9.130025313013e-04 1.058687607785e-03 0.0 
1.058687607785e-03 6.843815994150e-03 0.0 
0.0 0.0 0.0 
5.179387902798e-04 -1.145575931246e-04 0.0 
-1.145575931246e-04 1.152639249321e-03 0.0 
0.0 0.0 0.0 
-1.678642528640e-03 1.854860607901e-04 0.0 
1.854860607901e-04 1.588400861531e-02 0.0 
0.0 0.0 0.0 
-1.674407730688e-03 7.106470504778e-05 0.0 
7.106470504778e-05 1.547531829835e-02 0.0 
0.0 0.0 0.0 
4.511018253814e-04 -3.900912588320e-04 0.0 
-3.900912588320e-04 1.072057743942e-03 0.0 
0.0 0.0 0.0 
6.981532667152e-04 4.987271012441e-04 0.0 
4.987271012441e-04 6.485299841724e-03 0.0 
0.0 0.0 0.0 
-1.754057090198e-03 6.565611657781e-04 0.0 
6.565611657781e-04 1.657271511386e-02 0.0 
0.0 0.0 0.0 
4.540264178063e-04 -1.884642319158e-04 0.0 
-1.884642319158e-04 1.406763905084e-03 0.0 
0.0 0.0 0.0 
-1.346302329853e-03 1.069474581304e-03 0.0 
1.069474581304e-03 1.705822354610e-02 0.0 
0.0 0.0 0.0 
-1.090420396542e-03 1.064468895910e-03 0.0 
1.064468895910e-03 1.705744665315e-02 0.0 
0.0 0.0 0.0 
4.695904629557e-04 -2.504908750016e-04 0.0 
-2.504908750016e-04 1.598116021485e-03 0.0 
0.0 0.0 0.0 
6.715310770098e-04 2.870814712188e-03 0.0 
2.870814712188e-03 4.799805566403e-03 0.0 
0.0 0.0 0.0 
4.999961493772e-04 -3.868637774471e-04 0.0 
-3.868637774471e-04 1.532405257927e-03 0.0 
0.0 0.0 0.0 
3.116607662830e-04 -1.294814069006e-04 0.0 
-1.294814069006e-04 5.488343243430e-03 0.0 
0.0 0.0 0.0 
-5.411518801868e-05 -1.757553774195e-04 0.0 
-1.757553774195e-04 4.651392357254e-03 0.0 
0.0 0.0 0.0 
-1.485100627593e-03 2.858505328014e-03 0.0 
2.858505328014e-03 1.541432158760e-02 0.0 
0.0 0.0 0.0 
-1.141158181372e-03 8.300412507744e-04 0.0 
8.300412507744e-04 1.697040215026e-02 0.0 
0.0 0.0 0.0 
4.549150435216e-04 -1.208947588932e-04 0.0 
-1.208947588932e-04 5.221940680806e-03 0.0 
0.0 0.0 0.0 
5.854226772475e-04 -3.446637696432e-05 0.0 
-3.446637696432e-05 5.207944325631e-03 0.0 
0.0 0.0 0.0 
4.587666855242e-04 -3.317153239090e-04 0.0 
-3.317153239090e-04 1.224970234694e-03 0.0 
0.0 0.0 0.0 
4.368696035273e-04 -4.750768273214e-05 0.0 
-4.750768273214e-05 5.475062667372e-03 0.0 
0.0 0.0 0.0 
-1.524399963252e-03 6.469463370538e-04 0.0 
6.469463370538e-04 1.657305498301e-02 0.0 
0.0 0.0 0.0 
-1.350149770150e-04 -2.049200766571e-04 0.0 
-2.049200766571e-04 4.656395657850e-03 0.0 
0.0 0.0 0.0 
-1.633945383556e-03 3.173085532694e-04 0.0 
3.173085532694e-04 1.624936344539e-02 0.0 
0.0 0.0 0.0 
-1.563407364693e-03 6.490344204471e-04 0.0 
6.490344204471e-04 1.671990974985e-02 0.0 
0.0 0.0 0.0 
3.801204120119e-03 1.733329346370e-03 0.0 
1.733329346370e-03 2.068339519407e-03 0.0 
0.0 0.0 0.0 
-1.171165984113e-03 6.398746583025e-04 0.0 
6.398746583025e-04 1.685664055599e-02 0.0 
0.0 0.0 0.0 
-4.663832529872e-05 -2.466650865410e-04 0.0 
-2.466650865410e-04 3.915871786605e-03 0.0 
0.0 0.0 0.0 
-5.305742273021e-05 -2.660552870506e-04 0.0 
-2.660552870506e-04 4.382777964800e-03 0.0 
0.0 0.0 0.0 
2.540715394954e-04 -2.907741311295e-04 0.0 
-2.907741311295e-04 2.692257429499e-03 0.0 
0.0 0.0 0.0 
1.367692369969e-03 -4.105145644053e-04 0.0 
-4.105145644053e-04 1.712888325841e-03 0.0 
0.0 0.0 0.0 
-1.499537502046e-03 4.754644412713e-04 0.0 
4.754644412713e-04 1.641951557408e-02 0.0 
0.0 0.0 0.0 
1.886868305159e-03 -1.294324063939e-05 0.0 
-1.294324063939e-05 2.666881180379e-03 0.0 
0.0 0.0 0.0 
4.681502580866e-04 -3.373859888209e-04 0.0 
-3.373859888209e-04 1.751771890323e-03 0.0 
0.0 0.0 0.0 
4.164719778141e-04 -3.556118604110e-04 0.0 
-3.556118604110e-04 7.577298953181e-04 0.0 
0.0 0.0 0.0 
-1.694281914683e-03 4.678048907737e-04 0.0 
4.678048907737e-04 1.642107265360e-02 0.0 
0.0 0.0 0.0 
4.793550728377e-04 -3.272521569031e-04 0.0 
-3.272521569031e-04 1.750134697087e-03 0.0 
0.0 0.0 0.0 
4.747349469008e-04 4.490689120057e-04 0.0 
4.490689120057e-04 6.968302141262e-03 0.0 
0.0 0.0 0.0 
-1.350981575089e-03 4.859326789149e-04 0.0 
4.859326789149e-04 1.657275243771e-02 0.0 
0.0 0.0 0.0 
5.119340360695e-04 2.109064383967e-05 0.0 
2.109064383967e-05 5.676111844276e-03 0.0 
0.0 0.0 0.0 
3.505215719095e-04 1.620849043558e-03 0.0 
1.620849043558e-03 8.388487941312e-03 0.0 
0.0 0.0 0.0 
2.324848335244e-05 -2.985878859457e-04 0.0 
-2.985878859457e-04 3.611617976533e-03 0.0 
0.0 0.0 0.0 
4.292923258635e-04 -2.604427658955e-04 0.0 
-2.604427658955e-04 1.599891997964e-03 0.0 
0.0 0.0 0.0 
4.071087940078e-04 -3.072859046932e-04 0.0 
-3.072859046932e-04 9.181469210038e-04 0.0 
0.0 0.0 0.0 
6.953657347399e-04 -1.594148809634e-05 0.0 
-1.594148809634e-05 5.162537587338e-03 0.0 
0.0 0.0 0.0 
-1.459208515546e-03 2.438189778860e-04 0.0 
2.438189778860e-04 1.606305225489e-02 0.0 
0.0 0.0 0.0 
3.834628939619e-04 -2.784797245770e-04 0.0 
-2.784797245770e-04 5.782291411247e-04 0.0 
0.0 0.0 0.0 
4.177699430612e-04 -3.808676636234e-04 0.0 
-3.808676636234e-04 2.496824822257e-03 0.0 
0.0 0.0 0.0 
8.746165797433e-04 4.147648780387e-05 0.0 
4.147648780387e-05 1.192632548293e-03 0.0 
0.0 0.0 0.0 
-1.754930273498e-03 3.019247651030e-04 0.0 
3.019247651030e-04 1.607614180764e-02 0.0 
0.0 0.0 0.0 
2.654603583458e-04 -3.384181370508e-04 0.0 
-3.384181370508e-04 2.837704441834e-03 0.0 
0.0 0.0 0.0 
9.507465835716e-04 2.995757431761e-06 0.0 
2.995757431761e-06 4.628853322100e-03 0.0 
0.0 0.0 0.0 
2.509059179265e-04 -2.788259220585e-04 0.0 
-2.788259220585e-04 2.691019422084e-03 0.0 
0.0 0.0 0.0 
-1.176517576944e-03 4.252413993492e-04 0.0 
4.252413993492e-04 1.685775923179e-02 0.0 
0.0 0.0 0.0 
5.140412146358e-04 -3.424060137376e-04 0.0 
-3.424060137376e-04 2.101794548539e-03 0.0 
0.0 0.0 0.0 
9.344921092673e-04 1.319885213323e-04 0.0 
1.319885213323e-04 5.140456590067e-03 0.0 
0.0 0.0 0.0 
1.043817565699e-03 -6.183517499706e-04 0.0 
-6.183517499706e-04 7.419264766315e-04 0.0 
0.0 0.0 0.0 
8.847137506309e-04 1.527511619274e-05 0.0 
1.527511619274e-05 4.865267398293e-03 0.0 
0.0 0.0 0.0 
-1.065149088404e-04 -2.183385796051e-04 0.0 
-2.183385796051e-04 4.297582542299e-03 0.0 
0.0 0.0 0.0 
6.588671129972e-04 4.441279326250e-05 0.0 
4.441279326250e-05 5.417650114448e-03 0.0 
0.0 0.0 0.0 
3.366354813657e-03 3.038255486126e-04 0.0 
3.038255486126e-04 4.857481455711e-04 0.0 
0.0 0.0 0.0 
6.364377754233e-04 -4.819394398774e-05 0.0 
-4.819394398774e-05 1.219058524550e-03 0.0 
0.0 0.0 0.0 
-1.618021949966e-03 1.016402461207e-04 0.0 
1.016402461207e-04 1.568606522814e-02 0.0 
0.0 0.0 0.0 
2.105441421458e-03 8.985372141549e-04 0.0 
8.985372141549e-04 4.197373025869e-03 0.0 
0.0 0.0 0.0 
5.456663703152e-05 2.700755262946e-03 0.0 
2.700755262946e-03 6.652255208198e-03 0.0 
0.0 0.0 0.0 
-1.582099215739e-03 2.016536221847e-04 0.0 
2.016536221847e-04 1.606446388186e-02 0.0 
0.0 0.0 0.0 
1.469138298107e-03 -6.140993334364e-04 0.0 
-6.140993334364e-04 5.887863336440e-04 0.0 
0.0 0.0 0.0 
-1.832800794491e-03 6.052957143802e-04 0.0 
6.052957143802e-04 1.624363990593e-02 0.0 
0.0 0.0 0.0 
8.037565919916e-04 3.023798735839e-05 0.0 
3.023798735839e-05 1.087795481127e-03 0.0 
0.0 0.0 0.0 
5.802159405561e-04 2.788329453240e-04 0.0 
2.788329453240e-04 6.366886520419e-03 0.0 
0.0 0.0 0.0 
2.068760944854e-03 1.133484313013e-03 0.0 
1.133484313013e-03 4.635052970715e-03 0.0 
0.0 0.0 0.0 
2.207800239891e-03 2.282164260901e-03 0.0 
2.282164260901e-03 5.807910394842e-03 0.0 
0.0 0.0 0.0 
-1.072607139675e-03 1.017548693738e-03 0.0 
1.017548693738e-03 1.717767720364e-02 0.0 
0.0 0.0 0.0 
1.754538388447e-03 7.892023965156e-05 0.0 
7.892023965156e-05 3.234403549506e-03 0.0 
0.0 0.0 0.0 
4.515523238537e-04 -2.316176069490e-04 0.0 
-2.316176069490e-04 1.229573351409e-03 0.0 
0.0 0.0 0.0 
1.337533001867e-03 1.039107325027e-04 0.0 
1.039107325027e-04 4.197601269005e-03 0.0 
0.0 0.0 0.0 
6.132935105743e-04 5.220504252428e-04 0.0 
5.220504252428e-04 6.747378845279e-03 0.0 
0.0 0.0 0.0 
2.101336941879e-03 -4.394029804094e-04 0.0 
-4.394029804094e-04 6.607032275059e-04 0.0 
0.0 0.0 0.0 
5.406318536856e-04 -4.148382962315e-05 0.0 
-4.148382962315e-05 5.431429335917e-03 0.0 
0.0 0.0 0.0 
-1.530647250877e-03 4.673140746304e-04 0.0 
4.673140746304e-04 1.657554252703e-02 0.0 
0.0 0.0 0.0 
2.468613122843e-03 -4.767975648813e-04 0.0 
-4.767975648813e-04 1.242110287301e-04 0.0 
0.0 0.0 0.0 
1.100190755488e-03 5.351550458752e-05 0.0 
5.351550458752e-05 4.542254108731e-03 0.0 
0.0 0.0 0.0 
-1.924107291582e-03 2.500686454858e-04 0.0 
2.500686454858e-04 1.569103503956e-02 0.0 
0.0 0.0 0.0 
3.957452759775e-04 -1.313145846003e-04 0.0 
-1.313145846003e-04 2.087224829842e-03 0.0 
0.0 0.0 0.0 
5.733374790584e-04 -4.197104747526e-04 0.0 
-4.197104747526e-04 2.166012431582e-03 0.0 
0.0 0.0 0.0 
1.487845365409e-04 2.698493416533e-03 0.0 
2.698493416533e-03 7.582311747833e-03 0.0 
0.0 0.0 0.0 
8.291443251138e-04 7.129916357461e-05 0.0 
7.129916357461e-05 5.148321205275e-03 0.0 
0.0 0.0 0.0 
-2.675458643180e-04 2.860057021667e-03 0.0 
2.860057021667e-03 7.415424274084e-03 0.0 
0.0 0.0 0.0 
4.544987835242e-04 2.488839346231e-03 0.0 
2.488839346231e-03 6.749486879378e-03 0.0 
0.0 0.0 0.0 
-1.686104868912e-03 6.287460929899e-04 0.0 
6.287460929899e-04 1.641373837868e-02 0.0 
0.0 0.0 0.0 
-1.548194504994e-03 2.189590586629e-04 0.0 
2.189590586629e-04 1.587968537129e-02 0.0 
0.0 0.0 0.0 
-1.858822624053e-03 3.694906494191e-04 0.0 
3.694906494191e-04 1.590469565979e-02 0.0 
0.0 0.0 0.0 
-7.579178582473e-05 -2.220191356430e-04 0.0 
-2.220191356430e-04 4.298020072532e-03 0.0 
0.0 0.0 0.0 
8.835054657328e-04 5.663499450402e-04 0.0 
5.663499450402e-04 6.224494614470e-03 0.0 
0.0 0.0 0.0 
1.582454786238e-03 1.656685447980e-04 0.0 
1.656685447980e-04 3.844644407220e-03 0.0 
0.0 0.0 0.0 
-1.759400368698e-03 1.604338008230e-04 0.0 
1.604338008230e-04 1.569079473289e-02 0.0 
0.0 0.0 0.0 
-1.652361219569e-03 3.733745207930e-03 0.0 
3.733745207930e-03 1.417319986219e-02 0.0 
0.0 0.0 0.0 
2.012004541653e-03 2.555132440938e-03 0.0 
2.555132440938e-03 6.482735897732e-03 0.0 
0.0 0.0 0.0 
1.026773277211e-03 1.052835823518e-04 0.0 
1.052835823518e-04 4.850565683123e-03 0.0 
0.0 0.0 0.0 
-1.350942914019e-03 6.510421668216e-04 0.0 
6.510421668216e-04 1.671894836560e-02 0.0 
0.0 0.0 0.0 
1.136023869167e-03 -4.013759487899e-04 0.0 
-4.013759487899e-04 2.079532192049e-03 0.0 
0.0 0.0 0.0 
8.191645263183e-04 -4.300028322443e-04 0.0 
-4.300028322443e-04 2.140989988395e-03 0.0 
0.0 0.0 0.0 
4.725302745674e-04 -3.439031907633e-04 0.0 
-3.439031907633e-04 1.226763404950e-03 0.0 
0.0 0.0 0.0 
1.377623431821e-03 2.469763061149e-04 0.0 
2.469763061149e-04 4.490676177137e-03 0.0 
0.0 0.0 0.0 
6.071020875151e-04 -4.082109359853e-04 0.0 
-4.082109359853e-04 2.507438664449e-03 0.0 
0.0 0.0 0.0 
-1.843660858772e-03 4.571235228863e-04 0.0 
4.571235228863e-04 1.625632479477e-02 0.0 
0.0 0.0 0.0 
-1.976833235119e-03 4.420234207663e-04 0.0 
4.420234207663e-04 1.608054875687e-02 0.0 
0.0 0.0 0.0 
3.484704970548e-03 1.340533323711e-03 0.0 
1.340533323711e-03 2.226087053848e-03 0.0 
0.0 0.0 0.0 
9.233302932181e-04 -3.542707578830e-04 0.0 
-3.542707578830e-04 1.831803115624e-03 0.0 
0.0 0.0 0.0 
1.734254022588e-03 8.267819379435e-04 0.0 
8.267819379435e-04 2.192202930397e-03 0.0 
0.0 0.0 0.0 
7.332479994742e-04 -3.431548816917e-04 0.0 
-3.431548816917e-04 2.153191973890e-03 0.0 
0.0 0.0 0.0 
1.045799175402e-03 -3.173818892366e-04 0.0 
-3.173818892366e-04 2.122271599379e-03 0.0 
0.0 0.0 0.0 
4.451310771163e-04 -3.008273610684e-04 0.0 
-3.008273610684e-04 1.412552970551e-03 0.0 
0.0 0.0 0.0 
1.094193868847e-03 6.578630560099e-04 0.0 
6.578630560099e-04 5.926925707053e-03 0.0 
0.0 0.0 0.0 
1.986981256109e-03 -1.018621404366e-04 0.0 
-1.018621404366e-04 2.031525935752e-03 0.0 
0.0 0.0 0.0 
-1.361334775637e-03 6.263408655955e-04 0.0 
6.263408655955e-04 1.685888807381e-02 0.0 
0.0 0.0 0.0 
2.179967966256e-03 2.296152728473e-05 0.0 
2.296152728473e-05 2.134508212767e-03 0.0 
0.0 0.0 0.0 
1.485328994075e-03 2.092880415054e-04 0.0 
2.092880415054e-04 4.180666198659e-03 0.0 
0.0 0.0 0.0 
1.827169027955e-03 5.860507148365e-05 0.0 
5.860507148365e-05 3.004860618944e-03 0.0 
0.0 0.0 0.0 
1.412110237498e-03 2.044851970799e-03 0.0 
2.044851970799e-03 5.418716658796e-03 0.0 
0.0 0.0 0.0 
4.708932293198e-04 -2.947831916691e-04 0.0 
-2.947831916691e-04 1.411378990937e-03 0.0 
0.0 0.0 0.0 
7.895589801625e-04 5.812627890203e-04 0.0 
5.812627890203e-04 6.469271552396e-03 0.0 
0.0 0.0 0.0 
6.383424728758e-04 6.419115340512e-04 0.0 
6.419115340512e-04 6.958142620030e-03 0.0 
0.0 0.0 0.0 
6.296737422073e-04 3.408882566756e-03 0.0 
3.408882566756e-03 8.474173468382e-03 0.0 
0.0 0.0 0.0 
1.396536063267e-03 -2.705265697991e-04 0.0 
-2.705265697991e-04 2.057787187680e-03 0.0 
0.0 0.0 0.0 
1.674359512420e-03 1.355655560834e-04 0.0 
1.355655560834e-04 3.572264518855e-03 0.0 
0.0 0.0 0.0 
-1.636210544937e-03 4.514645287431e-04 0.0 
4.514645287431e-04 1.625628377214e-02 0.0 
0.0 0.0 0.0 
8.916461461146e-04 -3.935680991801e-04 0.0 
-3.935680991801e-04 2.463389719559e-03 0.0 
0.0 0.0 0.0 
3.415619564087e-04 2.342962363304e-03 0.0 
2.342962363304e-03 5.903355102888e-03 0.0 
0.0 0.0 0.0 
4.566017397416e-04 -3.677994998488e-04 0.0 
-3.677994998488e-04 2.106056929288e-03 0.0 
0.0 0.0 0.0 
1.927659629607e-03 -5.750416359595e-04 0.0 
-5.750416359595e-04 4.155074402676e-04 0.0 
0.0 0.0 0.0 
1.468839389519e-03 -3.386373515730e-04 0.0 
-3.386373515730e-04 2.028021334371e-03 0.0 
0.0 0.0 0.0 
4.154624373107e-04 -2.958732684735e-04 0.0 
-2.958732684735e-04 1.985075579781e-03 0.0 
0.0 0.0 0.0 
4.299023428875e-04 -1.995190369739e-04 0.0 
-1.995190369739e-04 1.819492817305e-03 0.0 
0.0 0.0 0.0 
1.640614787516e-03 -6.009683415627e-05 0.0 
-6.009683415627e-05 3.024152111842e-03 0.0 
0.0 0.0 0.0 
1.247053095831e-03 1.501743007954e-04 0.0 
1.501743007954e-04 4.526573437975e-03 0.0 
0.0 0.0 0.0 
1.366316331272e-03 4.166570110166e-03 0.0 
4.166570110166e-03 9.176455802818e-03 0.0 
0.0 0.0 0.0 
2.424200012157e-04 -2.964158712593e-05 0.0 
-2.964158712593e-05 -4.286239850915e-05 0.0 
0.0 0.0 0.0 
2.811684890692e-03 2.793335465893e-04 0.0 
2.793335465893e-04 1.654131170460e-03 0.0 
0.0 0.0 0.0 
2.419167443301e-03 6.474762259381e-05 0.0 
6.474762259381e-05 1.798721751046e-03 0.0 
0.0 0.0 0.0 
1.728132037407e-03 -1.998936650945e-04 0.0 
-1.998936650945e-04 2.006643022689e-03 0.0 
0.0 0.0 0.0 
-1.756526510845e-03 4.142396255881e-04 0.0 
4.142396255881e-04 1.608301039743e-02 0.0 
0.0 0.0 0.0 
1.935468229930e-03 -2.034403208087e-05 0.0 
-2.034403208087e-05 2.485423985662e-03 0.0 
0.0 0.0 0.0 
3.864147329509e-04 -3.221843194614e-04 0.0 
-3.221843194614e-04 2.388467888573e-03 0.0 
0.0 0.0 0.0 
1.752113428107e-03 -2.364179710266e-04 0.0 
-2.364179710266e-04 2.053528352792e-03 0.0 
0.0 0.0 0.0 
-1.195810419997e-03 4.795438428932e-04 0.0 
4.795438428932e-04 1.671774218504e-02 0.0 
0.0 0.0 0.0 
3.579848363298e-04 -3.198411435479e-04 0.0 
-3.198411435479e-04 2.388275431492e-03 0.0 
0.0 0.0 0.0 
4.125966893409e-04 -2.268595953310e-04 0.0 
-2.268595953310e-04 7.203438418142e-04 0.0 
0.0 0.0 0.0 
4.372317834398e-04 -2.639328022726e-04 0.0 
-2.639328022726e-04 1.047340676516e-03 0.0 
0.0 0.0 0.0 
2.031948241551e-03 -3.858678348224e-04 0.0 
-3.858678348224e-04 7.453734241401e-04 0.0 
0.0 0.0 0.0 
1.278509752920e-03 -3.267420981403e-04 0.0 
-3.267420981403e-04 1.772444456056e-03 0.0 
0.0 0.0 0.0 
2.554943340008e-03 2.252541774366e-04 0.0 
2.252541774366e-04 1.983477663324e-03 0.0 
0.0 0.0 0.0 
1.966737737221e-03 -1.095566603644e-04 0.0 
-1.095566603644e-04 2.157664973140e-03 0.0 
0.0 0.0 0.0 
1.184827700528e-03 -6.691430524854e-04 0.0 
-6.691430524854e-04 5.204239140342e-04 0.0 
0.0 0.0 0.0 
4.966336293242e-04 -2.574351435101e-04 0.0 
-2.574351435101e-04 1.046065750762e-03 0.0 
0.0 0.0 0.0 
-2.381709283904e-03 6.790331771503e-04 0.0 
6.790331771503e-04 1.585357270721e-02 0.0 
0.0 0.0 0.0 
4.217934017796e-04 -2.894250555523e-04 0.0 
-2.894250555523e-04 1.984056336242e-03 0.0 
0.0 0.0 0.0 
1.253656846786e-03 5.953162067153e-04 0.0 
5.953162067153e-04 5.504520821530e-03 0.0 
0.0 0.0 0.0 
1.650678075725e-03 4.000052016630e-03 0.0 
4.000052016630e-03 8.402328611090e-03 0.0 
0.0 0.0 0.0 
-2.134529511189e-03 2.571397069103e-03 0.0 
2.571397069103e-03 1.374770769087e-02 0.0 
0.0 0.0 0.0 
-1.519653773293e-03 1.400467398822e-03 0.0 
1.400467398822e-03 1.678396825222e-02 0.0 
0.0 0.0 0.0 
1.109925998932e-03 4.322833468979e-03 0.0 
4.322833468979e-03 9.915301971444e-03 0.0 
0.0 0.0 0.0 
3.639581292971e-03 1.476818841578e-03 0.0 
1.476818841578e-03 2.107661470033e-03 0.0 
0.0 0.0 0.0 
1.687020279254e-03 3.888249974931e-03 0.0 
3.888249974931e-03 7.926061054375e-03 0.0 
0.0 0.0 0.0 
1.631748689986e-03 -7.179401472871e-04 0.0 
-7.179401472871e-04 3.093738600306e-04 0.0 
0.0 0.0 0.0 
1.505146403543e-03 -2.587743209968e-04 0.0 
-2.587743209968e-04 2.418740253177e-03 0.0 
0.0 0.0 0.0 
1.834913971031e-03 1.863658588970e-03 0.0 
1.863658588970e-03 3.813189118032e-03 0.0 
0.0 0.0 0.0 
2.582433630252e-03 -2.589168404155e-04 0.0 
-2.589168404155e-04 1.216368020311e-04 0.0 
0.0 0.0 0.0 
1.200055101682e-03 -7.923383671511e-04 0.0 
-7.923383671511e-04 4.123550846253e-04 0.0 
0.0 0.0 0.0 
8.104642390709e-04 -3.161571577913e-04 0.0 
-3.161571577913e-04 2.492186436433e-03 0.0 
0.0 0.0 0.0 
2.198920983172e-03 -6.830046125874e-05 0.0 
-6.830046125874e-05 1.823296576930e-03 0.0 
0.0 0.0 0.0 
2.348394901893e-03 9.192226113776e-05 0.0 
9.192226113776e-05 2.006140493989e-03 0.0 
0.0 0.0 0.0 
3.318791729463e-04 -2.613813756444e-04 0.0 
-2.613813756444e-04 2.258049445055e-03 0.0 
0.0 0.0 0.0 
2.076215992571e-03 1.133727488706e-04 0.0 
1.133727488706e-04 2.646461801130e-03 0.0 
0.0 0.0 0.0 
2.586294177813e-03 1.455454192937e-04 0.0 
1.455454192937e-04 1.678955500898e-03 0.0 
0.0 0.0 0.0 
2.927159291007e-03 4.791941099000e-04 0.0 
4.791941099000e-04 1.884519066483e-03 0.0 
0.0 0.0 0.0 
1.020805517025e-03 -4.490825472398e-04 0.0 
-4.490825472398e-04 1.792054842806e-03 0.0 
0.0 0.0 0.0 
2.246761783828e-03 1.539172998929e-03 0.0 
1.539172998929e-03 4.849054407302e-03 0.0 
0.0 0.0 0.0 
-1.930990031156e-03 6.605697834787e-04 0.0 
6.605697834787e-04 1.641087976986e-02 0.0 
0.0 0.0 0.0 
3.214989011220e-03 5.598643060805e-04 0.0 
5.598643060805e-04 1.544883562620e-03 0.0 
0.0 0.0 0.0 
9.857919852339e-04 6.741359446900e-04 0.0 
6.741359446900e-04 6.207583369460e-03 0.0 
0.0 0.0 0.0 
2.122937259824e-03 -6.465438069759e-04 0.0 
-6.465438069759e-04 1.516063525886e-04 0.0 
0.0 0.0 0.0 
8.216189001271e-04 1.060920486190e-03 0.0 
1.060920486190e-03 7.156932958796e-03 0.0 
0.0 0.0 0.0 
2.313382211860e-03 1.694285393059e-04 0.0 
1.694285393059e-04 2.308278210260e-03 0.0 
0.0 0.0 0.0 
9.142552726353e-04 4.532204577084e-03 0.0 
4.532204577084e-03 1.068102987765e-02 0.0 
0.0 0.0 0.0 
-1.301258812718e-03 2.939386957397e-03 0.0 
2.939386957397e-03 1.115581641819e-02 0.0 
0.0 0.0 0.0 
1.816295129675e-03 -4.946974140804e-04 0.0 
-4.946974140804e-04 5.684253583431e-04 0.0 
0.0 0.0 0.0 
-1.917109606503e-03 2.755934666493e-03 0.0 
2.755934666493e-03 1.329814464552e-02 0.0 
0.0 0.0 0.0 
-1.598541789328e-03 2.114638342913e-03 0.0 
2.114638342913e-03 1.634073418409e-02 0.0 
0.0 0.0 0.0 
2.409048496965e-03 3.354735792527e-04 0.0 
3.354735792527e-04 2.538805863225e-03 0.0 
0.0 0.0 0.0 
6.722827473220e-04 1.780766903923e-03 0.0 
1.780766903923e-03 4.461104590742e-03 0.0 
0.0 0.0 0.0 
-1.724079885300e-03 2.913495891413e-03 0.0 
2.913495891413e-03 1.288663174231e-02 0.0 
0.0 0.0 0.0 
6.257438421997e-05 2.746835580365e-03 0.0 
2.746835580365e-03 7.094980739856e-03 0.0 
0.0 0.0 0.0 
1.458615405617e-03 -5.824986878896e-04 0.0 
-5.824986878896e-04 5.044664103468e-04 0.0 
0.0 0.0 0.0 
-8.393536040209e-04 1.942986250587e-03 0.0 
1.942986250587e-03 1.705229560052e-02 0.0 
0.0 0.0 0.0 
1.030440036398e-03 -5.382963947940e-04 0.0 
-5.382963947940e-04 6.016456806770e-04 0.0 
0.0 0.0 0.0 
1.170341189572e-03 2.195214975792e-03 0.0 
2.195214975792e-03 7.822390695220e-03 0.0 
0.0 0.0 0.0 
-9.339047333473e-04 7.894839954831e-04 0.0 
7.894839954831e-04 1.709312693280e-02 0.0 
0.0 0.0 0.0 
1.997202418472e-03 1.374029266150e-03 0.0 
1.374029266150e-03 5.130803824249e-03 0.0 
0.0 0.0 0.0 
-1.685510970785e-03 2.809226011168e-04 0.0 
2.809226011168e-04 1.588603849566e-02 0.0 
0.0 0.0 0.0 
-1.824992088445e-03 1.161564296436e-03 0.0 
1.161564296436e-03 1.676055189909e-02 0.0 
0.0 0.0 0.0 
2.702674500804e-03 3.359778437793e-04 0.0 
3.359778437793e-04 1.909269918640e-03 0.0 
0.0 0.0 0.0 
3.180979887978e-03 1.476709888298e-03 0.0 
1.476709888298e-03 2.985065829330e-03 0.0 
0.0 0.0 0.0 
-1.220387214686e-03 1.661679437045e-03 0.0 
1.661679437045e-03 1.693251334577e-02 0.0 
0.0 0.0 0.0 
1.061506914638e-03 2.241562140077e-04 0.0 
2.241562140077e-04 5.125334448625e-03 0.0 
0.0 0.0 0.0 
-2.002447811286e-03 9.117056860515e-04 0.0 
9.117056860515e-04 1.652519131248e-02 0.0 
0.0 0.0 0.0 
1.999003218203e-03 9.229085081191e-04 0.0 
9.229085081191e-04 4.499182309201e-03 0.0 
0.0 0.0 0.0 
2.016257456305e-03 -5.650102003278e-04 0.0 
-5.650102003278e-04 2.829304955911e-04 0.0 
0.0 0.0 0.0 
-2.042882894546e-03 1.205675533291e-03 0.0 
1.205675533291e-03 1.658478565365e-02 0.0 
0.0 0.0 0.0 
6.998324538630e-04 3.951412714061e-03 0.0 
3.951412714061e-03 1.079937735929e-02 0.0 
0.0 0.0 0.0 
7.039462772287e-04 7.584464068342e-04 0.0 
7.584464068342e-04 6.931467745501e-03 0.0 
0.0 0.0 0.0 
1.736582322086e-03 -1.302054439587e-04 0.0 
-1.302054439587e-04 2.397796464716e-03 0.0 
0.0 0.0 0.0 
-1.854710540850e-03 2.750952580676e-04 0.0 
2.750952580676e-04 1.588694701193e-02 0.0 
0.0 0.0 0.0 
-1.758285828778e-03 2.350950577993e-04 0.0 
2.350950577993e-04 1.569220651807e-02 0.0 
0.0 0.0 0.0 
2.120462443836e-03 3.806994115712e-05 0.0 
3.806994115712e-05 2.329581740675e-03 0.0 
0.0 0.0 0.0 
1.278551937093e-03 2.831166963738e-04 0.0 
2.831166963738e-04 4.809051883930e-03 0.0 
0.0 0.0 0.0 
1.278092594120e-03 4.310951200470e-04 0.0 
4.310951200470e-04 5.136233593682e-03 0.0 
0.0 0.0 0.0 
4.421642172778e-04 -3.049630161684e-04 0.0 
-3.049630161684e-04 9.175654891687e-04 0.0 
0.0 0.0 0.0 
1.238774567344e-03 7.356996751765e-04 0.0 
7.356996751765e-04 2.202169182863e-03 0.0 
0.0 0.0 0.0 
3.310815913617e-03 8.091838628062e-04 0.0 
8.091838628062e-04 1.818701977968e-03 0.0 
0.0 0.0 0.0 
2.971013391609e-03 4.060025654049e-04 0.0 
4.060025654049e-04 1.572409140247e-03 0.0 
0.0 0.0 0.0 
6.579980131214e-04 2.472088415998e-03 0.0 
2.472088415998e-03 5.940760854168e-03 0.0 
0.0 0.0 0.0 
-1.238082868727e-03 1.639911713081e-03 0.0 
1.639911713081e-03 1.709780055830e-02 0.0 
0.0 0.0 0.0 
-1.425348760143e-03 3.240888722155e-03 0.0 
3.240888722155e-03 1.461766910868e-02 0.0 
0.0 0.0 0.0 
-1.120903048462e-03 7.788129269502e-04 0.0 
7.788129269502e-04 1.709424811545e-02 0.0 
0.0 0.0 0.0 
-7.725757220718e-04 2.624414697739e-03 0.0 
2.624414697739e-03 8.438475163352e-03 0.0 
0.0 0.0 0.0 
-1.874097969357e-03 1.832137493114e-03 0.0 
1.832137493114e-03 1.621074317370e-02 0.0 
0.0 0.0 0.0 
1.145987187779e-03 1.836504938192e-04 0.0 
1.836504938192e-04 4.824937848432e-03 0.0 
0.0 0.0 0.0 
-1.052081114782e-03 1.311206339201e-03 0.0 
1.311206339201e-03 1.709664647429e-02 0.0 
0.0 0.0 0.0 
-2.234328168357e-03 1.260754971393e-03 0.0 
1.260754971393e-03 1.638352661637e-02 0.0 
0.0 0.0 0.0 
1.727718835410e-03 -1.468710487501e-04 0.0 
-1.468710487501e-04 2.506288511702e-03 0.0 
0.0 0.0 0.0 
3.624615170047e-03 9.326026285698e-04 0.0 
9.326026285698e-04 1.471077948393e-03 0.0 
0.0 0.0 0.0 
-1.748480493719e-03 1.127192199269e-03 0.0 
1.127192199269e-03 1.659293330678e-02 0.0 
0.0 0.0 0.0 
-1.566994397645e-03 1.406429074483e-03 0.0 
1.406429074483e-03 1.694992944964e-02 0.0 
0.0 0.0 0.0 
-1.542676039966e-03 8.560031607549e-04 0.0 
8.560031607549e-04 1.669104559426e-02 0.0 
0.0 0.0 0.0 
-1.727266018951e-03 8.550628039839e-04 0.0 
8.550628039839e-04 1.653085072782e-02 0.0 
0.0 0.0 0.0 
8.425239884979e-04 4.405585178628e-04 0.0 
4.405585178628e-04 6.089472968912e-03 0.0 
0.0 0.0 0.0 
1.339594165883e-03 2.397790552785e-03 0.0 
2.397790552785e-03 7.625551215222e-03 0.0 
0.0 0.0 0.0 
1.036025108106e-03 5.084811746978e-04 0.0 
5.084811746978e-04 5.806029538768e-03 0.0 
0.0 0.0 0.0 
1.421445136150e-03 7.868150467267e-05 0.0 
7.868150467267e-05 3.937782392836e-03 0.0 
0.0 0.0 0.0 
-1.215585733965e-03 3.399485760513e-03 0.0 
3.399485760513e-03 9.872353020355e-03 0.0 
0.0 0.0 0.0 
1.890974873990e-03 1.634372324443e-03 0.0 
1.634372324443e-03 5.663016342472e-03 0.0 
0.0 0.0 0.0 
-2.106159642073e-03 2.035037940791e-03 0.0 
2.035037940791e-03 1.545026836893e-02 0.0 
0.0 0.0 0.0 
3.976315250684e-04 -2.257836885779e-04 0.0 
-2.257836885779e-04 1.823646510686e-03 0.0 
0.0 0.0 0.0 
3.072894115954e-03 6.406152754172e-04 0.0 
6.406152754172e-04 1.847398990173e-03 0.0 
0.0 0.0 0.0 
2.783501827450e-03 8.289108984592e-04 0.0 
8.289108984592e-04 2.795421373418e-03 0.0 
0.0 0.0 0.0 
2.861673993916e-03 1.604875052892e-03 0.0 
1.604875052892e-03 3.758155005958e-03 0.0 
0.0 0.0 0.0 
1.968283961205e-03 6.932060151545e-06 0.0 
6.932060151545e-06 9.449976334088e-04 0.0 
0.0 0.0 0.0 
3.369758654641e-03 7.460736550474e-04 0.0 
7.460736550474e-04 1.504315017117e-03 0.0 
0.0 0.0 0.0 
2.504597635805e-03 1.712028748686e-03 0.0 
1.712028748686e-03 4.576442240405e-03 0.0 
0.0 0.0 0.0 
-1.348846805703e-03 2.622111245184e-03 0.0 
2.622111245184e-03 1.013573678301e-02 0.0 
0.0 0.0 0.0 
1.679968288831e-03 -6.154002228570e-05 0.0 
-6.154002228570e-05 2.858479712758e-03 0.0 
0.0 0.0 0.0 
-2.349679527230e-03 9.802664238219e-04 0.0 
9.802664238219e-04 1.614790761724e-02 0.0 
0.0 0.0 0.0 
-1.619570151658e-03 4.360216323119e-05 0.0 
4.360216323119e-05 1.499683869385e-02 0.0 
0.0 0.0 0.0 
-1.093753805765e-03 2.023743438806e-03 0.0 
2.023743438806e-03 2.156944773617e-03 0.0 
0.0 0.0 0.0 
1.508637509090e-03 2.360006162479e-05 0.0 
2.360006162479e-05 3.590339010833e-03 0.0 
0.0 0.0 0.0 
1.866794438594e-03 1.367694766736e-03 0.0 
1.367694766736e-03 5.391239118835e-03 0.0 
0.0 0.0 0.0 
-1.367381928382e-03 3.156225019417e-03 0.0 
3.156225019417e-03 1.506820799828e-02 0.0 
0.0 0.0 0.0 
3.392288770219e-03 1.371464101901e-03 0.0 
1.371464101901e-03 2.515746626587e-03 0.0 
0.0 0.0 0.0 
1.572143664012e-03 9.571635128368e-06 0.0 
9.571635128368e-06 3.374104717861e-03 0.0 
0.0 0.0 0.0 
-2.092215728447e-03 6.636778292808e-04 0.0 
6.636778292808e-04 1.623787395419e-02 0.0 
0.0 0.0 0.0 
-1.116070994925e-03 2.300655426305e-03 0.0 
2.300655426305e-03 3.582663729227e-03 0.0 
0.0 0.0 0.0 
2.118918660360e-03 1.532889413203e-03 0.0 
1.532889413203e-03 5.106182375363e-03 0.0 
0.0 0.0 0.0 
2.900977646651e-03 1.315673297844e-03 0.0 
1.315673297844e-03 3.277225327313e-03 0.0 
0.0 0.0 0.0 
-1.558176075482e-03 2.653578351677e-03 0.0 
2.653578351677e-03 1.089021624076e-02 0.0 
0.0 0.0 0.0 
1.156123124792e-03 3.280950369308e-04 0.0 
3.280950369308e-04 5.152476499837e-03 0.0 
0.0 0.0 0.0 
2.451049191698e-03 -6.260270124872e-04 0.0 
-6.260270124872e-04 1.693173853714e-04 0.0 
0.0 0.0 0.0 
1.136909603651e-03 4.851641985536e-04 0.0 
4.851641985536e-04 5.521943983684e-03 0.0 
0.0 0.0 0.0 
9.070836363327e-04 8.473998960503e-04 0.0 
8.473998960503e-04 6.645629197293e-03 0.0 
0.0 0.0 0.0 
2.369009903706e-03 1.696649912987e-03 0.0 
1.696649912987e-03 4.824749373442e-03 0.0 
0.0 0.0 0.0 
-1.801236363780e-03 8.893931487925e-04 0.0 
8.893931487925e-04 1.668797880826e-02 0.0 
0.0 0.0 0.0 
1.885325515013e-03 3.487400531285e-03 0.0 
3.487400531285e-03 7.665872947904e-03 0.0 
0.0 0.0 0.0 
8.114595353568e-04 7.460563878190e-04 0.0 
7.460563878190e-04 6.658862597068e-03 0.0 
0.0 0.0 0.0 
-9.763098932404e-04 2.168644921412e-03 0.0 
2.168644921412e-03 4.942043073505e-03 0.0 
0.0 0.0 0.0 
-2.185899436585e-03 9.379688164592e-04 0.0 
9.379688164592e-04 1.634489821697e-02 0.0 
0.0 0.0 0.0 
1.350317175553e-03 2.878485728499e-03 0.0 
2.878485728499e-03 8.090374106253e-03 0.0 
0.0 0.0 0.0 
-1.543725157458e-03 1.110494443199e-03 0.0 
1.110494443199e-03 1.676560559382e-02 0.0 
0.0 0.0 0.0 
2.736874704194e-03 1.603912206262e-03 0.0 
1.603912206262e-03 4.025185363124e-03 0.0 
0.0 0.0 0.0 
3.446624177862e-03 1.031656096929e-03 0.0 
1.031656096929e-03 1.834218445902e-03 0.0 
0.0 0.0 0.0 
6.411263736146e-04 -1.874310689597e-04 0.0 
-1.874310689597e-04 4.008530865722e-03 0.0 
0.0 0.0 0.0 
3.260946836008e-04 2.518542727584e-04 0.0 
2.518542727584e-04 1.352883994253e-03 0.0 
0.0 0.0 0.0 
-1.327045008448e-03 1.084623604334e-03 0.0 
1.084623604334e-03 1.691672613234e-02 0.0 
0.0 0.0 0.0 
3.217725092657e-04 -1.851950904086e-04 0.0 
-1.851950904086e-04 2.094483154323e-03 0.0 
0.0 0.0 0.0 
-8.998203998473e-04 1.828485806521e-03 0.0 
1.828485806521e-03 6.363913810476e-03 0.0 
0.0 0.0 0.0 
2.058101173784e-03 3.745056516171e-03 0.0 
3.745056516171e-03 7.579107691799e-03 0.0 
0.0 0.0 0.0 
-8.759002513192e-04 1.006533112765e-03 0.0 
1.006533112765e-03 1.717828150853e-02 0.0 
0.0 0.0 0.0 
2.120429197471e-03 -7.156105101108e-04 0.0 
-7.156105101108e-04 1.647957701916e-04 0.0 
0.0 0.0 0.0 
-2.158110979196e-04 2.833284561498e-03 0.0 
2.833284561498e-03 8.476987683131e-03 0.0 
0.0 0.0 0.0 
-1.935103951725e-03 1.145604629284e-03 0.0 
1.145604629284e-03 1.639575046192e-02 0.0 
0.0 0.0 0.0 
1.212159370708e-03 -2.065123077361e-04 0.0 
-2.065123077361e-04 3.261532137609e-03 0.0 
0.0 0.0 0.0 
2.003042840939e-03 -3.740024485824e-04 0.0 
-3.740024485824e-04 1.004888059290e-03 0.0 
0.0 0.0 0.0 
7.960882519074e-04 1.803130866894e-03 0.0 
1.803130866894e-03 3.820616562388e-03 0.0 
0.0 0.0 0.0 
1.485545338922e-03 -6.238629245767e-04 0.0 
-6.238629245767e-04 3.822606678077e-04 0.0 
0.0 0.0 0.0 
2.351526518790e-03 -5.110689927912e-04 0.0 
-5.110689927912e-04 1.385613024898e-04 0.0 
0.0 0.0 0.0 
1.989604857340e-03 -5.768188695251e-04 0.0 
-5.768188695251e-04 1.781535081806e-04 0.0 
0.0 0.0 0.0 
3.084884209340e-03 1.495962344511e-03 0.0 
1.495962344511e-03 3.249344534920e-03 0.0 
0.0 0.0 0.0 
-8.012919472544e-04 3.627138150324e-03 0.0 
3.627138150324e-03 1.605832112160e-02 0.0 
0.0 0.0 0.0 
-8.044452999869e-04 1.843907095220e-03 0.0 
1.843907095220e-03 7.748562699654e-03 0.0 
0.0 0.0 0.0 
6.611977469271e-04 3.719210062849e-04 0.0 
3.719210062849e-04 6.351265485142e-03 0.0 
0.0 0.0 0.0 
3.404351776985e-03 1.181688749951e-03 0.0 
1.181688749951e-03 1.555428267275e-03 0.0 
0.0 0.0 0.0 
-2.397859686115e-03 1.343529799344e-03 0.0 
1.343529799344e-03 1.615272057946e-02 0.0 
0.0 0.0 0.0 
7.831961867553e-04 1.924536979694e-04 0.0 
1.924536979694e-04 1.480087871439e-03 0.0 
0.0 0.0 0.0 
7.039584516000e-04 9.304321259204e-04 0.0 
9.304321259204e-04 7.149578415584e-03 0.0 
0.0 0.0 0.0 
1.696066161605e-03 -8.227646926122e-04 0.0 
-8.227646926122e-04 2.020798587645e-04 0.0 
0.0 0.0 0.0 
2.258376170376e-04 -2.174992803058e-04 0.0 
-2.174992803058e-04 2.552203263422e-03 0.0 
0.0 0.0 0.0 
2.220704211214e-03 1.957901525663e-03 0.0 
1.957901525663e-03 5.395934522928e-03 0.0 
0.0 0.0 0.0 
2.454927104545e-03 2.678127430758e-04 0.0 
2.678127430758e-04 2.235748480928e-03 0.0 
0.0 0.0 0.0 
1.568138813876e-03 2.614281594891e-03 0.0 
2.614281594891e-03 7.400973909134e-03 0.0 
0.0 0.0 0.0 
2.768659565771e-04 2.286585323639e-03 0.0 
2.286585323639e-03 5.483314257784e-03 0.0 
0.0 0.0 0.0 
-2.255100349491e-03 2.085471361349e-03 0.0 
2.085471361349e-03 1.584506415883e-02 0.0 
0.0 0.0 0.0 
1.197786446793e-03 2.352065177711e-03 0.0 
2.352065177711e-03 7.798240255920e-03 0.0 
0.0 0.0 0.0 
-1.897149248194e-03 8.503055090558e-04 0.0 
8.503055090558e-04 1.635369980612e-02 0.0 
0.0 0.0 0.0 
-1.582271292376e-03 3.298118526807e-03 0.0 
3.298118526807e-03 1.504812716700e-02 0.0 
0.0 0.0 0.0 
-2.038261428790e-03 1.530629828176e-03 0.0 
1.530629828176e-03 1.657686719759e-02 0.0 
0.0 0.0 0.0 
-1.985121311412e-03 1.873436281617e-03 0.0 
1.873436281617e-03 1.649104712614e-02 0.0 
0.0 0.0 0.0 
6.323069137628e-04 8.765386250398e-04 0.0 
8.765386250398e-04 2.218098334145e-03 0.0 
0.0 0.0 0.0 
6.970328553197e-04 2.452749048069e-04 0.0 
2.452749048069e-04 5.986866784402e-03 0.0 
0.0 0.0 0.0 
-1.930425791172e-03 1.480106809475e-03 0.0 
1.480106809475e-03 1.634771957116e-02 0.0 
0.0 0.0 0.0 
3.705113531624e-03 2.077365369425e-03 0.0 
2.077365369425e-03 2.592671725578e-03 0.0 
0.0 0.0 0.0 
-8.173947262591e-04 2.451276684098e-03 0.0 
2.451276684098e-03 9.139017359930e-03 0.0 
0.0 0.0 0.0 
9.397717441699e-04 2.451632636157e-03 0.0 
2.451632636157e-03 8.476665056665e-03 0.0 
0.0 0.0 0.0 
1.274705330399e-03 4.759524073454e-04 0.0 
4.759524073454e-04 1.794989545070e-03 0.0 
0.0 0.0 0.0 
3.322484578105e-04 -2.359814630217e-04 0.0 
-2.359814630217e-04 2.254372530764e-03 0.0 
0.0 0.0 0.0 
1.841873512736e-03 2.503397612927e-03 0.0 
2.503397612927e-03 6.691326571520e-03 0.0 
0.0 0.0 0.0 
1.114860449173e-03 2.082089185730e-05 0.0 
2.082089185730e-05 7.218288034343e-04 0.0 
0.0 0.0 0.0 
1.056928593805e-03 2.313502600196e-03 0.0 
2.313502600196e-03 6.245623006317e-03 0.0 
0.0 0.0 0.0 
1.984664999982e-03 1.772306842143e-03 0.0 
1.772306842143e-03 5.644179561408e-03 0.0 
0.0 0.0 0.0 
-1.675669039655e-03 2.122553847912e-03 0.0 
2.122553847912e-03 1.661932997258e-02 0.0 
0.0 0.0 0.0 
-1.566143659334e-03 2.514683826656e-03 0.0 
2.514683826656e-03 1.643236855411e-02 0.0 
0.0 0.0 0.0 
2.127527484129e-03 1.802147861236e-03 0.0 
1.802147861236e-03 5.419102480723e-03 0.0 
0.0 0.0 0.0 
-1.814107602878e-03 1.466602788954e-03 0.0 
1.466602788954e-03 1.677713170585e-02 0.0 
0.0 0.0 0.0 
3.305763119129e-03 1.509309941677e-03 0.0 
1.509309941677e-03 2.055964621293e-03 0.0 
0.0 0.0 0.0 
1.429380926918e-03 3.949871082594e-03 0.0 
3.949871082594e-03 8.737002975000e-03 0.0 
0.0 0.0 0.0 
-1.031362468167e-03 3.351033311622e-03 0.0 
3.351033311622e-03 1.069115624580e-02 0.0 
0.0 0.0 0.0 
-9.303714589837e-05 4.098463313900e-03 0.0 
4.098463313900e-03 1.249736987601e-02 0.0 
0.0 0.0 0.0 
-1.716176140914e-03 4.137594092919e-03 0.0 
4.137594092919e-03 1.251175564750e-02 0.0 
0.0 0.0 0.0 
-2.449031574168e-03 4.170140798890e-03 0.0 
4.170140798890e-03 1.365470939948e-02 0.0 
0.0 0.0 0.0 
3.702128299446e-03 1.552086393874e-03 0.0 
1.552086393874e-03 2.193895992786e-03 0.0 
0.0 0.0 0.0 
-4.042547442524e-03 3.387393851159e-03 0.0 
3.387393851159e-03 1.510825172060e-02 0.0 
0.0 0.0 0.0 
3.099973736463e-03 2.829430962020e-03 0.0 
2.829430962020e-03 4.591401543453e-03 0.0 
0.0 0.0 0.0 
1.746889708234e-03 1.760324479593e-03 0.0 
1.760324479593e-03 4.624305196584e-03 0.0 
0.0 0.0 0.0 
3.145097268043e-03 8.976595618498e-04 0.0 
8.976595618498e-04 2.167995118408e-03 0.0 
0.0 0.0 0.0 
1.939482864296e-03 -2.279206702701e-04 0.0 
-2.279206702701e-04 6.714924919291e-04 0.0 
0.0 0.0 0.0 
3.686875307281e-03 1.233138451280e-03 0.0 
1.233138451280e-03 1.802252171724e-03 0.0 
0.0 0.0 0.0 
-1.284099611289e-03 1.365158022847e-03 0.0 
1.365158022847e-03 1.695383933608e-02 0.0 
0.0 0.0 0.0 
-1.198965227538e-03 3.550316544649e-03 0.0 
3.550316544649e-03 1.418214897132e-02 0.0 
0.0 0.0 0.0 
8.673929560494e-04 1.764512131208e-04 0.0 
1.764512131208e-04 5.414551398620e-03 0.0 
0.0 0.0 0.0 
1.375701531894e-03 2.540608354585e-03 0.0 
2.540608354585e-03 7.604091035542e-03 0.0 
0.0 0.0 0.0 
2.656287374311e-03 4.048448560526e-04 0.0 
4.048448560526e-04 2.213129079636e-03 0.0 
0.0 0.0 0.0 
-1.690531624441e-03 1.768892459586e-03 0.0 
1.768892459586e-03 1.650258165520e-02 0.0 
0.0 0.0 0.0 
3.371894307941e-03 1.081020816393e-03 0.0 
1.081020816393e-03 2.139323087621e-03 0.0 
0.0 0.0 0.0 
5.563423708925e-04 2.085100355369e-04 0.0 
2.085100355369e-04 6.224801905466e-03 0.0 
0.0 0.0 0.0 
-1.737812495692e-03 1.437550649675e-03 0.0 
1.437550649675e-03 1.658677840476e-02 0.0 
0.0 0.0 0.0 
-2.147163423950e-03 1.971136633393e-03 0.0 
1.971136633393e-03 1.619451619387e-02 0.0 
0.0 0.0 0.0 
2.464782772106e-03 1.439457487355e-03 0.0 
1.439457487355e-03 4.320466163233e-03 0.0 
0.0 0.0 0.0 
3.834745220329e-03 1.392204183452e-03 0.0 
1.392204183452e-03 1.621827706599e-03 0.0 
0.0 0.0 0.0 
1.400102577259e-03 4.062446761245e-03 0.0 
4.062446761245e-03 9.183418768921e-03 0.0 
0.0 0.0 0.0 
-1.208270863172e-03 2.944063828476e-03 0.0 
2.944063828476e-03 1.115475749976e-02 0.0 
0.0 0.0 0.0 
1.953728082041e-03 -5.583356926623e-04 0.0 
-5.583356926623e-04 7.241206416346e-04 0.0 
0.0 0.0 0.0 
1.369271332375e-03 5.712275316683e-05 0.0 
5.712275316683e-05 1.861451228585e-03 0.0 
0.0 0.0 0.0 
5.143087212540e-04 2.324502191322e-03 0.0 
2.324502191322e-03 5.130731690713e-03 0.0 
0.0 0.0 0.0 
-3.643708123694e-04 2.828554429612e-03 0.0 
2.828554429612e-03 8.478373305226e-03 0.0 
0.0 0.0 0.0 
4.265542229407e-04 1.796088627965e-04 0.0 
1.796088627965e-04 6.453370690178e-03 0.0 
0.0 0.0 0.0 
-2.218018164383e-03 1.612842515204e-03 0.0 
1.612842515204e-03 1.633296685459e-02 0.0 
0.0 0.0 0.0 
3.634194891245e-03 1.146209669595e-03 0.0 
1.146209669595e-03 1.660644250351e-03 0.0 
0.0 0.0 0.0 
-6.133223288418e-04 2.923910591364e-03 0.0 
2.923910591364e-03 9.803832221644e-03 0.0 
0.0 0.0 0.0 
1.759655590590e-03 1.621124176697e-03 0.0 
1.621124176697e-03 5.926063305774e-03 0.0 
0.0 0.0 0.0 
-1.589743799623e-03 1.119317986670e-03 0.0 
1.119317986670e-03 1.691346203768e-02 0.0 
0.0 0.0 0.0 
1.141894981160e-03 4.242878598521e-03 0.0 
4.242878598521e-03 9.923813254797e-03 0.0 
0.0 0.0 0.0 
-2.229888102352e-03 1.241321628684e-03 0.0 
1.241321628684e-03 1.590696137607e-02 0.0 
0.0 0.0 0.0 
1.336150508678e-03 1.087146520627e-03 0.0 
1.087146520627e-03 6.070644995582e-03 0.0 
0.0 0.0 0.0 
3.183888096320e-03 1.178428387479e-03 0.0 
1.178428387479e-03 2.545996670328e-03 0.0 
0.0 0.0 0.0 
1.645052557676e-03 1.464617878014e-03 0.0 
1.464617878014e-03 5.940752091074e-03 0.0 
0.0 0.0 0.0 
8.479412963414e-04 2.592887605603e-03 0.0 
2.592887605603e-03 6.205043710322e-03 0.0 
0.0 0.0 0.0 
-1.511406205632e-03 1.716734828699e-03 0.0 
1.716734828699e-03 1.692763691978e-02 0.0 
0.0 0.0 0.0 
9.209265719949e-04 4.386624468564e-03 0.0 
4.386624468564e-03 1.068993448187e-02 0.0 
0.0 0.0 0.0 
2.792176993414e-03 1.333530055694e-03 0.0 
1.333530055694e-03 3.562058068913e-03 0.0 
0.0 0.0 0.0 
1.308391766151e-03 2.272922880433e-04 0.0 
2.272922880433e-04 1.416273836708e-03 0.0 
0.0 0.0 0.0 
1.718772172044e-03 3.384971113809e-03 0.0 
3.384971113809e-03 7.716350756581e-03 0.0 
0.0 0.0 0.0 
2.117499454655e-03 2.723003901998e-03 0.0 
2.723003901998e-03 5.716431618433e-03 0.0 
0.0 0.0 0.0 
3.293745618750e-03 1.163912844318e-03 0.0 
1.163912844318e-03 2.109897988982e-03 0.0 
0.0 0.0 0.0 
2.582988010127e-03 1.434492613995e-03 0.0 
1.434492613995e-03 4.051375003875e-03 0.0 
0.0 0.0 0.0 
1.317829503988e-03 7.578377158812e-04 0.0 
7.578377158812e-04 5.621539477331e-03 0.0 
0.0 0.0 0.0 
1.418765549324e-03 -2.048321589387e-04 0.0 
-2.048321589387e-04 1.485541203640e-03 0.0 
0.0 0.0 0.0 
3.100330504981e-03 1.214469318714e-03 0.0 
1.214469318714e-03 2.830498272168e-03 0.0 
0.0 0.0 0.0 
-1.621398062411e-03 2.843820056302e-03 0.0 
2.843820056302e-03 1.289551938216e-02 0.0 
0.0 0.0 0.0 
3.359131180150e-04 9.786099482984e-05 0.0 
9.786099482984e-05 6.465255073491e-03 0.0 
0.0 0.0 0.0 
-1.441705006188e-03 3.000154664347e-03 0.0 
3.000154664347e-03 1.251012087409e-02 0.0 
0.0 0.0 0.0 
1.865204899599e-03 3.625394571738e-03 0.0 
3.625394571738e-03 7.645906259064e-03 0.0 
0.0 0.0 0.0 
-1.824380769259e-03 2.658894433900e-03 0.0 
2.658894433900e-03 1.331052747083e-02 0.0 
0.0 0.0 0.0 
-2.248012006357e-03 2.114346851104e-03 0.0 
2.114346851104e-03 1.425532510752e-02 0.0 
0.0 0.0 0.0 
-1.060236173770e-03 3.005447776862e-03 0.0 
3.005447776862e-03 1.082432670666e-02 0.0 
0.0 0.0 0.0 
1.596303199337e-03 2.299880702851e-03 0.0 
2.299880702851e-03 6.930915483542e-03 0.0 
0.0 0.0 0.0 
7.602909470510e-04 2.092366732071e-04 0.0 
2.092366732071e-04 5.746996956357e-03 0.0 
0.0 0.0 0.0 
-2.088000182162e-03 1.550397354383e-03 0.0 
1.550397354383e-03 1.606368069004e-02 0.0 
0.0 0.0 0.0 
-1.287881098117e-03 2.411761544272e-03 0.0 
2.411761544272e-03 1.644417984842e-02 0.0 
0.0 0.0 0.0 
-2.045367010532e-03 2.428576069059e-03 0.0 
2.428576069059e-03 1.376678453088e-02 0.0 
0.0 0.0 0.0 
2.619466628753e-03 5.553137900041e-04 0.0 
5.553137900041e-04 1.985216749256e-03 0.0 
0.0 0.0 0.0 
1.439364492998e-03 3.475079746373e-03 0.0 
3.475079746373e-03 8.533599894956e-03 0.0 
0.0 0.0 0.0 
-1.299858992135e-03 1.345308291111e-03 0.0 
1.345308291111e-03 1.709353509731e-02 0.0 
0.0 0.0 0.0 
2.618617131205e-03 2.457854810809e-03 0.0 
2.457854810809e-03 4.044564168849e-03 0.0 
0.0 0.0 0.0 
2.301464174169e-03 2.746331200529e-03 0.0 
2.746331200529e-03 4.835469703183e-03 0.0 
0.0 0.0 0.0 
3.346939689098e-03 8.516221299603e-04 0.0 
8.516221299603e-04 1.607440656918e-03 0.0 
0.0 0.0 0.0 
-2.014943201247e-03 1.921136758700e-03 0.0 
1.921136758700e-03 1.586579079968e-02 0.0 
0.0 0.0 0.0 
-3.103798181352e-04 2.715757824354e-03 0.0 
2.715757824354e-03 7.083229299728e-03 0.0 
0.0 0.0 0.0 
3.235040927585e-03 2.870979520323e-03 0.0 
2.870979520323e-03 4.423579351499e-03 0.0 
0.0 0.0 0.0 
-2.025371448077e-04 2.660465600460e-03 0.0 
2.660465600460e-03 7.090249698377e-03 0.0 
0.0 0.0 0.0 
2.043058088784e-03 2.235818345355e-03 0.0 
2.235818345355e-03 6.028178371300e-03 0.0 
0.0 0.0 0.0 
9.766782301066e-04 3.479423443382e-03 0.0 
3.479423443382e-03 9.359097302833e-03 0.0 
0.0 0.0 0.0 
3.580024985131e-03 8.375841118027e-04 0.0 
8.375841118027e-04 1.288202028924e-03 0.0 
0.0 0.0 0.0 
3.990766666897e-04 -1.552743448857e-04 0.0 
-1.552743448857e-04 1.418246266716e-03 0.0 
0.0 0.0 0.0 
-1.355718228800e-03 2.833590472245e-03 0.0 
2.833590472245e-03 1.586661632939e-02 0.0 
0.0 0.0 0.0 
-7.164216898145e-04 2.534587705581e-03 0.0 
2.534587705581e-03 8.045387236849e-03 0.0 
0.0 0.0 0.0 
2.732662854493e-03 6.063516200211e-04 0.0 
6.063516200211e-04 2.483666338915e-03 0.0 
0.0 0.0 0.0 
1.291266144407e-03 3.385826165057e-03 0.0 
3.385826165057e-03 8.608266724591e-03 0.0 
0.0 0.0 0.0 
-2.355982207458e-03 1.722179975992e-03 0.0 
1.722179975992e-03 1.604420836017e-02 0.0 
0.0 0.0 0.0 
9.458360619339e-04 2.640012215607e-04 0.0 
2.640012215607e-04 5.461819951208e-03 0.0 
0.0 0.0 0.0 
2.047723771900e-03 1.461060861769e-03 0.0 
1.461060861769e-03 3.872516731812e-03 0.0 
0.0 0.0 0.0 
1.593246694753e-04 1.663468208265e-04 0.0 
1.663468208265e-04 1.108192420487e-03 0.0 
0.0 0.0 0.0 
2.750730448680e-04 6.892914324492e-05 0.0 
6.892914324492e-05 6.677555520458e-03 0.0 
0.0 0.0 0.0 
4.347467615107e-05 2.861980738660e-03 0.0 
2.861980738660e-03 7.999483635312e-03 0.0 
0.0 0.0 0.0 
2.448888973076e-03 2.480750576161e-03 0.0 
2.480750576161e-03 5.559415617878e-03 0.0 
0.0 0.0 0.0 
1.265515698388e-03 3.964980336296e-03 0.0 
3.964980336296e-03 9.231432839194e-03 0.0 
0.0 0.0 0.0 
-3.715568003018e-04 2.508918959447e-04 0.0 
2.508918959447e-04 8.787744469567e-04 0.0 
0.0 0.0 0.0 
1.062807073216e-03 3.601062154974e-04 0.0 
3.601062154974e-04 5.446253126695e-03 0.0 
0.0 0.0 0.0 
8.336947882222e-04 1.169597608951e-03 0.0 
1.169597608951e-03 3.354759401350e-03 0.0 
0.0 0.0 0.0 
-2.536903482689e-03 1.453619452854e-03 0.0 
1.453619452854e-03 1.588395438254e-02 0.0 
0.0 0.0 0.0 
1.125823864410e-03 -1.347095787419e-04 0.0 
-1.347095787419e-04 3.772488025738e-03 0.0 
0.0 0.0 0.0 
3.806979208488e-03 1.064334616573e-03 0.0 
1.064334616573e-03 1.249059869169e-03 0.0 
0.0 0.0 0.0 
4.550712084628e-04 1.281869074450e-04 0.0 
1.281869074450e-04 6.237790030157e-03 0.0 
0.0 0.0 0.0 
3.116192848730e-03 3.067947979700e-03 0.0 
3.067947979700e-03 4.555003226096e-03 0.0 
0.0 0.0 0.0 
3.445379426874e-03 8.642124084289e-04 0.0 
8.642124084289e-04 1.130030480313e-03 0.0 
0.0 0.0 0.0 
-1.874578156377e-04 2.871057061276e-03 0.0 
2.871057061276e-03 8.939335112972e-03 0.0 
0.0 0.0 0.0 
1.976287748606e-04 -3.105032596005e-04 0.0 
-3.105032596005e-04 1.193452519568e-03 0.0 
0.0 0.0 0.0 
1.777834256039e-03 3.804813168585e-03 0.0 
3.804813168585e-03 7.937033904713e-03 0.0 
0.0 0.0 0.0 
1.957568975439e-03 2.071482381241e-03 0.0 
2.071482381241e-03 6.053259199100e-03 0.0 
0.0 0.0 0.0 
6.001476049873e-04 4.511134667496e-03 0.0 
4.511134667496e-03 1.136692202065e-02 0.0 
0.0 0.0 0.0 
1.714394518977e-03 3.899622558645e-03 0.0 
3.899622558645e-03 8.415901885708e-03 0.0 
0.0 0.0 0.0 
1.965291349744e-03 1.137159923550e-04 0.0 
1.137159923550e-04 1.786329908983e-03 0.0 
0.0 0.0 0.0 
7.455931705034e-04 9.111341012466e-05 0.0 
9.111341012466e-05 5.428734171564e-03 0.0 
0.0 0.0 0.0 
-9.436625747672e-04 1.616260462623e-03 0.0 
1.616260462623e-03 1.709861660726e-02 0.0 
0.0 0.0 0.0 
6.629974688428e-04 2.667119640285e-03 0.0 
2.667119640285e-03 9.181938439036e-03 0.0 
0.0 0.0 0.0 
1.769129558207e-03 2.352711208392e-03 0.0 
2.352711208392e-03 6.714228500902e-03 0.0 
0.0 0.0 0.0 
3.177816647007e-03 1.487197108733e-03 0.0 
1.487197108733e-03 2.696177671504e-03 0.0 
0.0 0.0 0.0 
8.348254377493e-04 3.325707188224e-03 0.0 
3.325707188224e-03 8.484360248740e-03 0.0 
0.0 0.0 0.0 
3.490710271823e-04 6.429961496254e-05 0.0 
6.429961496254e-05 6.332368939665e-03 0.0 
0.0 0.0 0.0 
-1.465712937270e-04 -1.589179667317e-04 0.0 
-1.589179667317e-04 4.510994579141e-03 0.0 
0.0 0.0 0.0 
1.981520710911e-03 3.830337777270e-03 0.0 
3.830337777270e-03 7.567284776426e-03 0.0 
0.0 0.0 0.0 
-2.097991843699e-03 1.179878212486e-03 0.0 
1.179878212486e-03 1.617033836912e-02 0.0 
0.0 0.0 0.0 
5.984467642068e-04 1.638229936040e-04 0.0 
1.638229936040e-04 5.999948532791e-03 0.0 
0.0 0.0 0.0 
9.278497751573e-04 4.111144877991e-04 0.0 
4.111144877991e-04 5.821746028028e-03 0.0 
0.0 0.0 0.0 
-1.538919735696e-03 -2.443118291282e-07 0.0 
-2.443118291282e-07 1.466063509322e-02 0.0 
0.0 0.0 0.0 
-1.530132792670e-03 1.618281161289e-05 0.0 
1.618281161289e-05 1.465306232501e-02 0.0 
0.0 0.0 0.0 
-1.839658306391e-03 2.909356646869e-03 0.0 
2.909356646869e-03 1.353660120724e-02 0.0 
0.0 0.0 0.0 
2.047759802229e-03 3.737771956272e-03 0.0 
3.737771956272e-03 7.061596682506e-03 0.0 
0.0 0.0 0.0 
8.734792490666e-04 -1.568852828029e-04 0.0 
-1.568852828029e-04 4.142943367823e-03 0.0 
0.0 0.0 0.0 
-1.299022183083e-03 3.078644658658e-03 0.0 
3.078644658658e-03 1.151751050983e-02 0.0 
0.0 0.0 0.0 
3.359860592606e-03 2.740895442698e-03 0.0 
2.740895442698e-03 3.840162862622e-03 0.0 
0.0 0.0 0.0 
1.077067098586e-03 1.501026696977e-03 0.0 
1.501026696977e-03 7.040364106409e-03 0.0 
0.0 0.0 0.0 
3.134594959913e-03 1.834485121935e-03 0.0 
1.834485121935e-03 2.644507253252e-03 0.0 
0.0 0.0 0.0 
-7.302272580331e-04 3.122917891620e-03 0.0 
3.122917891620e-03 1.645830893433e-02 0.0 
0.0 0.0 0.0 
-2.408387225886e-03 1.927688679131e-03 0.0 
1.927688679131e-03 1.414002491786e-02 0.0 
0.0 0.0 0.0 
2.445251880164e-03 2.435103725232e-03 0.0 
2.435103725232e-03 4.882146151189e-03 0.0 
0.0 0.0 0.0 
1.311926606997e-03 -3.412973643139e-05 0.0 
-3.412973643139e-05 3.755058133925e-03 0.0 
0.0 0.0 0.0 
1.300738179556e-03 3.363756254915e-04 0.0 
3.363756254915e-04 2.264185909293e-03 0.0 
0.0 0.0 0.0 
1.472744767337e-03 -1.798757692468e-04 0.0 
-1.798757692468e-04 2.878054260381e-03 0.0 
0.0 0.0 0.0 
1.069004242855e-03 3.317022590956e-03 0.0 
3.317022590956e-03 7.531386724845e-03 0.0 
0.0 0.0 0.0 
-7.224458031139e-04 2.821764802758e-03 0.0 
2.821764802758e-03 9.366890627138e-03 0.0 
0.0 0.0 0.0 
-2.207718568164e-03 1.653855150484e-03 0.0 
1.653855150484e-03 1.572522775121e-02 0.0 
0.0 0.0 0.0 
-1.069998432212e-03 3.150198313705e-03 0.0 
3.150198313705e-03 1.122558482579e-02 0.0 
0.0 0.0 0.0 
-1.318520653333e-03 3.230356896632e-03 0.0 
3.230356896632e-03 1.189496575573e-02 0.0 
0.0 0.0 0.0 
1.304423274420e-03 1.265357144739e-05 0.0 
1.265357144739e-05 1.235156544139e-04 0.0 
0.0 0.0 0.0 
1.471204196789e-03 -1.570413691039e-04 0.0 
-1.570413691039e-04 2.790011217722e-03 0.0 
0.0 0.0 0.0 
-5.480844254098e-04 2.720235264551e-03 0.0 
2.720235264551e-03 8.023167217130e-03 0.0 
0.0 0.0 0.0 
-1.331112923738e-03 2.982406101048e-03 0.0 
2.982406101048e-03 1.184078359060e-02 0.0 
0.0 0.0 0.0 
-1.556274231502e-03 3.062494712195e-03 0.0 
3.062494712195e-03 1.249886472760e-02 0.0 
0.0 0.0 0.0 
1.390306478572e-03 2.081162357420e-03 0.0 
2.081162357420e-03 7.109515147844e-03 0.0 
0.0 0.0 0.0 
9.881610253175e-04 -3.742780300485e-06 0.0 
-3.742780300485e-06 9.773473198214e-04 0.0 
0.0 0.0 0.0 
1.423023153869e-03 -4.318062178585e-04 0.0 
-4.318062178585e-04 1.160864401567e-03 0.0 
0.0 0.0 0.0 
4.662920645269e-04 2.761188540074e-03 0.0 
2.761188540074e-03 7.080088682887e-03 0.0 
0.0 0.0 0.0 
1.238623963511e-03 -2.767888607995e-04 0.0 
-2.767888607995e-04 2.809387703160e-03 0.0 
0.0 0.0 0.0 
-2.074594569279e-03 4.236087130238e-03 0.0 
4.236087130238e-03 1.363717108437e-02 0.0 
0.0 0.0 0.0 
-2.565718310420e-03 3.970253237497e-03 0.0 
3.970253237497e-03 1.502019368971e-02 0.0 
0.0 0.0 0.0 
-2.443146868710e-03 1.859133792052e-03 0.0 
1.859133792052e-03 1.570196354111e-02 0.0 
0.0 0.0 0.0 
5.230851398965e-04 7.859818600599e-04 0.0 
7.859818600599e-04 2.182715348432e-03 0.0 
0.0 0.0 0.0 
1.147189407005e-03 -1.260607453522e-04 0.0 
-1.260607453522e-04 3.643741805028e-03 0.0 
0.0 0.0 0.0 
1.744802625859e-03 1.232511859856e-03 0.0 
1.232511859856e-03 5.412456264503e-03 0.0 
0.0 0.0 0.0 
1.328038371229e-03 -1.104071359723e-05 0.0 
-1.104071359723e-05 1.071669824757e-03 0.0 
0.0 0.0 0.0 
3.382091588855e-04 3.726520009997e-03 0.0 
3.726520009997e-03 1.065969418303e-02 0.0 
0.0 0.0 0.0 
-1.762511003691e-03 1.783446062930e-03 0.0 
1.783446062930e-03 1.673406943730e-02 0.0 
0.0 0.0 0.0 
6.750956907335e-04 -2.896327142271e-04 0.0 
-2.896327142271e-04 3.629617592581e-03 0.0 
0.0 0.0 0.0 
6.956641910869e-04 1.391149392583e-04 0.0 
1.391149392583e-04 5.677813820602e-03 0.0 
0.0 0.0 0.0 
1.203296801578e-03 2.133371254789e-06 0.0 
2.133371254789e-06 -1.898549315973e-04 0.0 
0.0 0.0 0.0 
1.810559794007e-03 9.957549164891e-04 0.0 
9.957549164891e-04 4.946794762888e-03 0.0 
0.0 0.0 0.0 
2.597581537174e-04 2.746453143450e-03 0.0 
2.746453143450e-03 8.015215172263e-03 0.0 
0.0 0.0 0.0 
1.340857070042e-03 -2.945991380482e-05 0.0 
-2.945991380482e-05 -3.364279706469e-04 0.0 
0.0 0.0 0.0 
-1.467585511146e-03 1.714955288292e-03 0.0 
1.714955288292e-03 1.673958320979e-02 0.0 
0.0 0.0 0.0 
8.233541151110e-04 -1.988897635696e-04 0.0 
-1.988897635696e-04 1.543986424657e-03 0.0 
0.0 0.0 0.0 
-1.436502900823e-03 3.010532656303e-03 0.0 
3.010532656303e-03 1.183710145296e-02 0.0 
0.0 0.0 0.0 
-6.148254573117e-04 2.871616343328e-03 0.0 
2.871616343328e-03 9.359687406719e-03 0.0 
0.0 0.0 0.0 
2.794175699723e-03 5.482417281971e-04 0.0 
5.482417281971e-04 2.179704406081e-03 0.0 
0.0 0.0 0.0 
2.018008368264e-03 5.300063816661e-04 0.0 
5.300063816661e-04 3.778167537445e-03 0.0 
0.0 0.0 0.0 
-1.391118399590e-03 2.050054121073e-03 0.0 
2.050054121073e-03 1.662352157964e-02 0.0 
0.0 0.0 0.0 
1.769004001562e-03 6.169655072394e-04 0.0 
6.169655072394e-04 4.461707782580e-03 0.0 
0.0 0.0 0.0 
1.933685490982e-03 2.988739410162e-03 0.0 
2.988739410162e-03 5.677230813004e-03 0.0 
0.0 0.0 0.0 
6.757293477411e-04 2.551262938052e-03 0.0 
2.551262938052e-03 7.109881362386e-03 0.0 
0.0 0.0 0.0 
-1.032431619804e-03 1.713316631232e-03 0.0 
1.713316631232e-03 1.469595420510e-03 0.0 
0.0 0.0 0.0 
7.031646137017e-04 -2.480454711301e-06 0.0 
-2.480454711301e-06 1.243388322467e-03 0.0 
0.0 0.0 0.0 
1.590753292784e-03 3.716380809962e-03 0.0 
3.716380809962e-03 8.433612577003e-03 0.0 
0.0 0.0 0.0 
-2.460401540297e-03 2.189198697844e-03 0.0 
2.189198697844e-03 1.481010656203e-02 0.0 
0.0 0.0 0.0 
1.441846000747e-03 3.624953853443e-03 0.0 
3.624953853443e-03 8.506379046605e-03 0.0 
0.0 0.0 0.0 
8.753662956766e-04 1.521438499819e-03 0.0 
1.521438499819e-03 3.301232990147e-03 0.0 
0.0 0.0 0.0 
-1.602733464354e-03 2.958803891486e-03 0.0 
2.958803891486e-03 1.439141953027e-02 0.0 
0.0 0.0 0.0 
1.282574265962e-03 3.866701749874e-03 0.0 
3.866701749874e-03 9.238569364516e-03 0.0 
0.0 0.0 0.0 
-3.213206009368e-03 2.937082049276e-03 0.0 
2.937082049276e-03 1.337309888066e-02 0.0 
0.0 0.0 0.0 
1.531154666868e-03 3.767485979698e-03 0.0 
3.767485979698e-03 8.425159109181e-03 0.0 
0.0 0.0 0.0 
5.852982759300e-04 5.465451978043e-05 0.0 
5.465451978043e-05 5.691863878387e-03 0.0 
0.0 0.0 0.0 
2.445106620409e-03 3.560726674823e-03 0.0 
3.560726674823e-03 6.181055941950e-03 0.0 
0.0 0.0 0.0 
1.417867241118e-03 -9.613897852474e-05 0.0 
-9.613897852474e-05 3.243452390947e-03 0.0 
0.0 0.0 0.0 
1.388362643615e-03 -1.017339118408e-04 0.0 
-1.017339118408e-04 3.392187251690e-03 0.0 
0.0 0.0 0.0 
-1.652789577754e-03 2.949346883504e-03 0.0 
2.949346883504e-03 1.583831483211e-02 0.0 
0.0 0.0 0.0 
2.232389927541e-03 4.369699044264e-04 0.0 
4.369699044264e-04 3.135925493749e-03 0.0 
0.0 0.0 0.0 
-3.820613440355e-04 2.901088167884e-03 0.0 
2.901088167884e-03 8.936140985245e-03 0.0 
0.0 0.0 0.0 
3.567569935383e-03 2.219201890758e-03 0.0 
2.219201890758e-03 3.187618664214e-03 0.0 
0.0 0.0 0.0 
1.485315313591e-03 6.957052224572e-04 0.0 
6.957052224572e-04 5.182320323234e-03 0.0 
0.0 0.0 0.0 
2.743676494453e-03 2.125261512499e-03 0.0 
2.125261512499e-03 4.092414674887e-03 0.0 
0.0 0.0 0.0 
2.707707311158e-03 3.971044347950e-04 0.0 
3.971044347950e-04 9.942205598483e-04 0.0 
0.0 0.0 0.0 
2.805218155816e-03 1.073058548311e-03 0.0 
1.073058548311e-03 3.153205221133e-03 0.0 
0.0 0.0 0.0 
2.630210432720e-03 6.788694432566e-04 0.0 
6.788694432566e-04 1.424505202012e-03 0.0 
0.0 0.0 0.0 
-1.184861111852e-03 3.089616295466e-03 0.0 
3.089616295466e-03 1.151536578615e-02 0.0 
0.0 0.0 0.0 
2.709776217740e-03 2.758746496180e-04 0.0 
2.758746496180e-04 1.486624384315e-03 0.0 
0.0 0.0 0.0 
-1.153839117800e-03 2.977459083805e-03 0.0 
2.977459083805e-03 1.082855890363e-02 0.0 
0.0 0.0 0.0 
1.534368382152e-03 2.131053716053e-03 0.0 
2.131053716053e-03 6.957257113522e-03 0.0 
0.0 0.0 0.0 
1.795990363982e-03 2.023564211299e-03 0.0 
2.023564211299e-03 6.260314295468e-03 0.0 
0.0 0.0 0.0 
2.902043570671e-03 2.153491255540e-03 0.0 
2.153491255540e-03 3.309205265007e-03 0.0 
0.0 0.0 0.0 
-2.268764231660e-03 1.784987763806e-03 0.0 
1.784987763806e-03 1.530767403371e-02 0.0 
0.0 0.0 0.0 
5.483877566668e-04 1.059484843358e-04 0.0 
1.059484843358e-04 5.924398850552e-03 0.0 
0.0 0.0 0.0 
4.448038528131e-04 2.778310498405e-05 0.0 
2.778310498405e-05 5.937621953210e-03 0.0 
0.0 0.0 0.0 
1.783991500455e-04 6.045769353589e-04 0.0 
6.045769353589e-04 2.051625832124e-03 0.0 
0.0 0.0 0.0 
-9.256307955315e-04 3.042966899267e-03 0.0 
3.042966899267e-03 1.053439858435e-02 0.0 
0.0 0.0 0.0 
3.297304216223e-04 1.593473799210e-04 0.0 
1.593473799210e-04 6.656292820719e-03 0.0 
0.0 0.0 0.0 
-3.530310318689e-05 3.147854535158e-03 0.0 
3.147854535158e-03 7.122260474886e-03 0.0 
0.0 0.0 0.0 
6.756169891884e-04 -2.318629168505e-04 0.0 
-2.318629168505e-04 4.042658649804e-03 0.0 
0.0 0.0 0.0 
-8.871215337797e-04 1.402151580916e-03 0.0 
1.402151580916e-03 2.130006133698e-03 0.0 
0.0 0.0 0.0 
4.233911896916e-04 8.287610603289e-05 0.0 
8.287610603289e-05 6.148363982166e-03 0.0 
0.0 0.0 0.0 
1.841067588563e-03 5.454842543021e-04 0.0 
5.454842543021e-04 1.720427893594e-03 0.0 
0.0 0.0 0.0 
-1.726262176663e-04 -1.138788146416e-04 0.0 
-1.138788146416e-04 4.685329472375e-03 0.0 
0.0 0.0 0.0 
2.563922838396e-03 2.685413635016e-03 0.0 
2.685413635016e-03 5.534567055832e-03 0.0 
0.0 0.0 0.0 
-2.486207568901e-03 2.002340532822e-03 0.0 
2.002340532822e-03 1.528036595216e-02 0.0 
0.0 0.0 0.0 
-2.318460163533e-03 1.944825978169e-03 0.0 
1.944825978169e-03 1.484132762708e-02 0.0 
0.0 0.0 0.0 
1.518037473809e-03 3.186942777969e-03 0.0 
3.186942777969e-03 6.585020558550e-03 0.0 
0.0 0.0 0.0 
-1.585158977119e-03 3.724133846497e-03 0.0 
3.724133846497e-03 1.155068581450e-02 0.0 
0.0 0.0 0.0 
-1.762940384456e-03 4.003749627335e-03 0.0 
4.003749627335e-03 1.253319240787e-02 0.0 
0.0 0.0 0.0 
3.433943898765e-04 2.137622925766e-06 0.0 
2.137622925766e-06 6.162155677232e-03 0.0 
0.0 0.0 0.0 
1.870979962281e-03 5.807104899627e-04 0.0 
5.807104899627e-04 4.137649110807e-03 0.0 
0.0 0.0 0.0 
2.591052012847e-03 6.765096501150e-04 0.0 
6.765096501150e-04 2.821881013411e-03 0.0 
0.0 0.0 0.0 
1.951219780511e-03 1.147167056606e-03 0.0 
1.147167056606e-03 4.927381686839e-03 0.0 
0.0 0.0 0.0 
3.074894621057e-03 9.480917364631e-04 0.0 
9.480917364631e-04 2.468618984679e-03 0.0 
0.0 0.0 0.0 
1.859069943006e-03 3.978534866760e-04 0.0 
3.978534866760e-04 2.258676850398e-03 0.0 
0.0 0.0 0.0 
-1.257615954565e-03 3.670941765067e-03 0.0 
3.670941765067e-03 1.155856468056e-02 0.0 
0.0 0.0 0.0 
-2.611067143716e-03 1.997599685954e-03 0.0 
1.997599685954e-03 1.468451287268e-02 0.0 
0.0 0.0 0.0 
-1.545929665596e-03 5.583573791787e-06 0.0 
5.583573791787e-06 1.467029964011e-02 0.0 
0.0 0.0 0.0 
1.737561958428e-03 1.878326904784e-03 0.0 
1.878326904784e-03 6.281179648426e-03 0.0 
0.0 0.0 0.0 
2.992510333644e-03 1.806568443859e-03 0.0 
1.806568443859e-03 3.359006944446e-03 0.0 
0.0 0.0 0.0 
9.750146294838e-04 2.561841688179e-03 0.0 
2.561841688179e-03 8.454560438326e-03 0.0 
0.0 0.0 0.0 
1.108944428780e-04 -2.956578373662e-05 0.0 
-2.956578373662e-05 6.183480764444e-03 0.0 
0.0 0.0 0.0 
2.898302836841e-03 1.040328742066e-03 0.0 
1.040328742066e-03 2.859189800104e-03 0.0 
0.0 0.0 0.0 
2.047285902902e-04 1.472192385107e-04 0.0 
1.472192385107e-04 7.052860160326e-03 0.0 
0.0 0.0 0.0 
3.299719404541e-03 2.908806942448e-04 0.0 
2.908806942448e-04 8.195375467819e-04 0.0 
0.0 0.0 0.0 
1.148471179305e-03 2.799199746344e-03 0.0 
2.799199746344e-03 8.297062421979e-03 0.0 
0.0 0.0 0.0 
1.726688277029e-03 2.975538079103e-03 0.0 
2.975538079103e-03 6.615648569579e-03 0.0 
0.0 0.0 0.0 
2.691500971630e-03 3.417002233375e-03 0.0 
3.417002233375e-03 5.878537376352e-03 0.0 
0.0 0.0 0.0 
1.135342260857e-03 1.171327244144e-03 0.0 
1.171327244144e-03 6.578456151182e-03 0.0 
0.0 0.0 0.0 
1.710833142406e-03 -3.292313360671e-04 0.0 
-3.292313360671e-04 1.669221834536e-03 0.0 
0.0 0.0 0.0 
-7.216891791367e-04 2.938260971702e-03 0.0 
2.938260971702e-03 9.802548022810e-03 0.0 
0.0 0.0 0.0 
2.860576463522e-03 7.839404790268e-04 0.0 
7.839404790268e-04 2.494866474516e-03 0.0 
0.0 0.0 0.0 
-9.537172229653e-04 2.872580108711e-03 0.0 
2.872580108711e-03 1.011851364615e-02 0.0 
0.0 0.0 0.0 
7.785589104996e-04 1.475270985671e-03 0.0 
1.475270985671e-03 3.868644244252e-03 0.0 
0.0 0.0 0.0 
2.523256952470e-03 3.188390027979e-03 0.0 
3.188390027979e-03 6.026577267920e-03 0.0 
0.0 0.0 0.0 
3.013988449603e-03 7.020041282657e-04 0.0 
7.020041282657e-04 2.153723754787e-03 0.0 
0.0 0.0 0.0 
1.057556677649e-03 -6.459388251334e-05 0.0 
-6.459388251334e-05 4.126362030734e-03 0.0 
0.0 0.0 0.0 
-9.184603043428e-04 2.909560007074e-03 0.0 
2.909560007074e-03 1.011341574515e-02 0.0 
0.0 0.0 0.0 
-7.018540376210e-04 7.226619270755e-04 0.0 
7.226619270755e-04 1.363815031226e-03 0.0 
0.0 0.0 0.0 
3.154273939400e-03 2.306656749880e-03 0.0 
2.306656749880e-03 4.037303960775e-03 0.0 
0.0 0.0 0.0 
-4.861633629931e-04 1.071387662612e-03 0.0 
1.071387662612e-03 2.345187842332e-03 0.0 
0.0 0.0 0.0 
4.726956974312e-04 -1.838475925195e-04 0.0 
-1.838475925195e-04 8.567683921046e-04 0.0 
0.0 0.0 0.0 
8.829271621984e-04 -1.394663109366e-04 0.0 
-1.394663109366e-04 4.024887403438e-03 0.0 
0.0 0.0 0.0 
1.141314933178e-03 4.096659832691e-03 0.0 
4.096659832691e-03 9.477317345868e-03 0.0 
0.0 0.0 0.0 
-2.133563050064e-03 2.293003621355e-03 0.0 
2.293003621355e-03 1.441413562170e-02 0.0 
0.0 0.0 0.0 
-1.354975295100e-03 2.848916990900e-03 0.0 
2.848916990900e-03 9.903516338766e-03 0.0 
0.0 0.0 0.0 
0.0 3.204119384563e-03 0.0 
3.204119384563e-03 1.627324158612e-02 0.0 
0.0 0.0 0.0 
-1.015907449439e-03 1.327847113875e-03 0.0 
1.327847113875e-03 8.915380428796e-04 0.0 
0.0 0.0 0.0 
-1.413031744279e-03 3.296845518519e-03 0.0 
3.296845518519e-03 1.070275367603e-02 0.0 
0.0 0.0 0.0 
2.516100666115e-03 7.193249515660e-04 0.0 
7.193249515660e-04 3.109846075141e-03 0.0 
0.0 0.0 0.0 
4.115415391051e-04 -2.821477569865e-04 0.0 
-2.821477569865e-04 4.025543434317e-03 0.0 
0.0 0.0 0.0 
-1.201739641058e-03 3.174272693208e-03 0.0 
3.174272693208e-03 1.080942042978e-02 0.0 
0.0 0.0 0.0 
3.230601150189e-03 1.839196315128e-04 0.0 
1.839196315128e-04 7.920407015010e-04 0.0 
0.0 0.0 0.0 
2.100848239875e-03 4.854199875818e-04 0.0 
4.854199875818e-04 3.457859501405e-03 0.0 
0.0 0.0 0.0 
1.288972947843e-03 3.187623725643e-03 0.0 
3.187623725643e-03 7.549537317546e-03 0.0 
0.0 0.0 0.0 
2.756549594073e-03 2.388214609536e-03 0.0 
2.388214609536e-03 4.889094076987e-03 0.0 
0.0 0.0 0.0 
-1.356985224102e-04 3.934805439997e-03 0.0 
3.934805439997e-03 1.202584730021e-02 0.0 
0.0 0.0 0.0 
5.622392398823e-04 8.150974275367e-04 0.0 
8.150974275367e-04 1.865872745107e-03 0.0 
0.0 0.0 0.0 
9.147849851283e-04 -1.907024871093e-04 0.0 
-1.907024871093e-04 3.612887682436e-03 0.0 
0.0 0.0 0.0 
4.034067747543e-04 -1.744379363742e-04 0.0 
-1.744379363742e-04 4.365337986792e-03 0.0 
0.0 0.0 0.0 
8.882814581737e-04 -4.843137445561e-04 0.0 
-4.843137445561e-04 1.532579003937e-03 0.0 
0.0 0.0 0.0 
-2.564504081860e-03 1.838755621820e-03 0.0 
1.838755621820e-03 1.393128849834e-02 0.0 
0.0 0.0 0.0 
-2.244338838032e-03 2.476869228381e-03 0.0 
2.476869228381e-03 1.438890225814e-02 0.0 
0.0 0.0 0.0 
-2.247008656651e-04 -5.252523463755e-05 0.0 
-5.252523463755e-05 5.803284567947e-03 0.0 
0.0 0.0 0.0 
1.409905957094e-03 2.066290452022e-05 0.0 
2.066290452022e-05 -3.022225637610e-04 0.0 
0.0 0.0 0.0 
-7.025996106770e-04 -3.121492358266e-05 0.0 
-3.121492358266e-05 8.067795092821e-04 0.0 
0.0 0.0 0.0 
5.815450372411e-04 -4.993624890730e-04 0.0 
-4.993624890730e-04 1.102412018692e-03 0.0 
0.0 0.0 0.0 
1.921741389859e-04 -2.689057802711e-04 0.0 
-2.689057802711e-04 4.382184145353e-03 0.0 
0.0 0.0 0.0 
3.487210662238e-03 5.538244416688e-04 0.0 
5.538244416688e-04 9.768713654659e-04 0.0 
0.0 0.0 0.0 
3.198382098171e-03 6.967549857358e-05 0.0 
6.967549857358e-05 5.211446408542e-04 0.0 
0.0 0.0 0.0 
2.746443197139e-03 1.901011486324e-05 0.0 
1.901011486324e-05 1.050536170530e-03 0.0 
0.0 0.0 0.0 
6.492334765917e-04 -1.398110629622e-04 0.0 
-1.398110629622e-04 4.374496847671e-03 0.0 
0.0 0.0 0.0 
-1.713241963751e-03 2.798903350878e-03 0.0 
2.798903350878e-03 1.355692357950e-02 0.0 
0.0 0.0 0.0 
2.005110357168e-04 -1.597449199664e-04 0.0 
-1.597449199664e-04 4.690233064108e-03 0.0 
0.0 0.0 0.0 
3.731484730374e-03 7.633589315634e-04 0.0 
7.633589315634e-04 9.410023258729e-04 0.0 
0.0 0.0 0.0 
-9.598991401794e-04 2.987820052658e-03 0.0 
2.987820052658e-03 1.054172024482e-02 0.0 
0.0 0.0 0.0 
-1.983005844578e-03 3.050923149430e-04 0.0 
3.050923149430e-04 1.547783850041e-02 0.0 
0.0 0.0 0.0 
2.101671160709e-03 2.740321734633e-03 0.0 
2.740321734633e-03 6.459659844174e-03 0.0 
0.0 0.0 0.0 
2.142715856301e-06 -2.475155469051e-04 0.0 
-2.475155469051e-04 4.706296145619e-03 0.0 
0.0 0.0 0.0 
4.517711567309e-04 -2.314173065218e-04 0.0 
-2.314173065218e-04 4.392065742363e-03 0.0 
0.0 0.0 0.0 
-1.178715756696e-03 2.065059139679e-03 0.0 
2.065059139679e-03 8.384919208473e-03 0.0 
0.0 0.0 0.0 
3.260942424014e-03 4.851173080922e-04 0.0 
4.851173080922e-04 1.227902673280e-03 0.0 
0.0 0.0 0.0 
2.769527354229e-05 -1.371807758438e-04 0.0 
-1.371807758438e-04 4.979635572716e-03 0.0 
0.0 0.0 0.0 
-1.317095335830e-03 6.440613147401e-05 0.0 
6.440613147401e-05 1.607387219958e-02 0.0 
0.0 0.0 0.0 
-1.413744714577e-03 5.152504183385e-05 0.0 
5.152504183385e-05 1.573738889287e-02 0.0 
0.0 0.0 0.0 
-1.231056303212e-03 2.412470164679e-03 0.0 
2.412470164679e-03 9.149988422312e-03 0.0 
0.0 0.0 0.0 
4.464391491155e-04 -1.332676183589e-04 0.0 
-1.332676183589e-04 4.697348554155e-03 0.0 
0.0 0.0 0.0 
2.735462950886e-03 -1.443844512043e-04 0.0 
-1.443844512043e-04 6.851448523988e-04 0.0 
0.0 0.0 0.0 
-1.324757008583e-04 1.377400818064e-03 0.0 
1.377400818064e-03 2.716435079842e-03 0.0 
0.0 0.0 0.0 
1.113885120065e-03 2.635420323603e-03 0.0 
2.635420323603e-03 8.334506674442e-03 0.0 
0.0 0.0 0.0 
9.131927743868e-04 -4.892460648348e-04 0.0 
-4.892460648348e-04 8.304438574414e-04 0.0 
0.0 0.0 0.0 
2.749904375208e-03 -2.563153248593e-05 0.0 
-2.563153248593e-05 1.012442392753e-03 0.0 
0.0 0.0 0.0 
3.289761811978e-03 2.329239696158e-03 0.0 
2.329239696158e-03 3.806613988717e-03 0.0 
0.0 0.0 0.0 
-8.767352306477e-04 2.846624246829e-03 0.0 
2.846624246829e-03 9.893105299505e-03 0.0 
0.0 0.0 0.0 
-1.437485741321e-04 -1.902762941369e-04 0.0 
-1.902762941369e-04 4.995490223608e-03 0.0 
0.0 0.0 0.0 
5.453162650686e-04 6.659298914950e-06 0.0 
6.659298914950e-06 2.058541609098e-03 0.0 
0.0 0.0 0.0 
-2.728995508842e-03 1.745038739823e-03 0.0 
1.745038739823e-03 1.470690856260e-02 0.0 
0.0 0.0 0.0 
2.590255639572e-04 -2.269520625046e-04 0.0 
-2.269520625046e-04 4.715143298854e-03 0.0 
0.0 0.0 0.0 
2.534823431582e-03 4.619291311030e-04 0.0 
4.619291311030e-04 2.509326986312e-03 0.0 
0.0 0.0 0.0 
9.360226956112e-04 -2.245276541099e-04 0.0 
-2.245276541099e-04 3.661002252876e-03 0.0 
0.0 0.0 0.0 
-5.467123802730e-04 4.683710520621e-04 0.0 
4.683710520621e-04 1.243839252746e-03 0.0 
0.0 0.0 0.0 
-8.844868587904e-04 7.369004121685e-05 0.0 
7.369004121685e-05 1.697972079668e-02 0.0 
0.0 0.0 0.0 
2.843525183367e-03 1.986670763284e-04 0.0 
1.986670763284e-04 1.347689787828e-03 0.0 
0.0 0.0 0.0 
1.371558831987e-03 1.709058531044e-03 0.0 
1.709058531044e-03 6.810531027781e-03 0.0 
0.0 0.0 0.0 
2.709442668931e-03 3.276123718512e-03 0.0 
3.276123718512e-03 5.904476090066e-03 0.0 
0.0 0.0 0.0 
2.732702236548e-04 -1.223721931628e-04 0.0 
-1.223721931628e-04 4.996318232614e-03 0.0 
0.0 0.0 0.0 
9.217173303666e-05 -2.152321211739e-04 0.0 
-2.152321211739e-04 5.013629657365e-03 0.0 
0.0 0.0 0.0 
3.619354883209e-03 4.836212975911e-04 0.0 
4.836212975911e-04 6.875587907351e-04 0.0 
0.0 0.0 0.0 
4.786399980714e-04 -4.956617346395e-04 0.0 
-4.956617346395e-04 7.106432287596e-04 0.0 
0.0 0.0 0.0 
-3.959194214879e-04 7.721335994251e-04 0.0 
7.721335994251e-04 1.182239315925e-03 0.0 
0.0 0.0 0.0 
1.058276815080e-04 -1.130613899615e-04 0.0 
-1.130613899615e-04 5.301148968941e-03 0.0 
0.0 0.0 0.0 
1.252254131364e-03 1.324320657482e-03 0.0 
1.324320657482e-03 6.583918407774e-03 0.0 
0.0 0.0 0.0 
2.192317821460e-03 -3.069467404386e-04 0.0 
-3.069467404386e-04 9.847429637893e-04 0.0 
0.0 0.0 0.0 
3.041675775757e-04 3.489569060440e-03 0.0 
3.489569060440e-03 9.329693864998e-03 0.0 
0.0 0.0 0.0 
2.274761576118e-04 2.945170435707e-03 0.0 
2.945170435707e-03 6.310465846577e-03 0.0 
0.0 0.0 0.0 
-1.171018028242e-03 3.117349081117e-03 0.0 
3.117349081117e-03 1.123067490442e-02 0.0 
0.0 0.0 0.0 
4.863159692619e-04 8.769752581099e-04 0.0 
8.769752581099e-04 7.801504001552e-03 0.0 
0.0 0.0 0.0 
-1.784506782199e-03 4.700153398322e-05 0.0 
4.700153398322e-05 8.979669452458e-04 0.0 
0.0 0.0 0.0 
0.0 2.420500098633e-04 0.0 
2.420500098633e-04 1.758180215739e-02 0.0 
0.0 0.0 0.0 
0.0 6.725295469596e-05 0.0 
6.725295469596e-05 7.474379815446e-03 0.0 
0.0 0.0 0.0 
-1.499786112383e-03 -3.887376604061e-05 0.0 
-3.887376604061e-05 1.510356732343e-02 0.0 
0.0 0.0 0.0 
2.434265126217e-03 -2.620052942804e-05 0.0 
-2.620052942804e-05 1.498030583016e-03 0.0 
0.0 0.0 0.0 
2.525581973394e-03 3.410105738408e-03 0.0 
3.410105738408e-03 6.205395446722e-03 0.0 
0.0 0.0 0.0 
3.346916120303e-03 5.579628496499e-04 0.0 
5.579628496499e-04 1.179543083835e-03 0.0 
0.0 0.0 0.0 
4.847311651670e-04 -2.243160971693e-04 0.0 
-2.243160971693e-04 7.173889833743e-04 0.0 
0.0 0.0 0.0 
-8.916735476607e-04 1.059670531974e-03 0.0 
1.059670531974e-03 1.465959666218e-03 0.0 
0.0 0.0 0.0 
-8.904195252825e-04 7.159938827898e-04 0.0 
7.159938827898e-04 1.720939202667e-02 0.0 
0.0 0.0 0.0 
-2.036105840250e-03 2.713789826983e-03 0.0 
2.713789826983e-03 1.395654809186e-02 0.0 
0.0 0.0 0.0 
-2.687839320205e-03 2.110105912917e-03 0.0 
2.110105912917e-03 1.474578043634e-02 0.0 
0.0 0.0 0.0 
3.767048634491e-04 3.657661349170e-03 0.0 
3.657661349170e-03 1.113459361021e-02 0.0 
0.0 0.0 0.0 
8.510608933474e-04 1.604713962135e-05 0.0 
1.604713962135e-05 1.376634294633e-03 0.0 
0.0 0.0 0.0 
3.501660831424e-04 3.418039810702e-03 0.0 
3.418039810702e-03 1.084325841567e-02 0.0 
0.0 0.0 0.0 
-1.920978410989e-03 2.584353600714e-03 0.0 
2.584353600714e-03 1.397780148857e-02 0.0 
0.0 0.0 0.0 
1.988327622880e-03 -2.101107021641e-04 0.0 
-2.101107021641e-04 1.711743622690e-03 0.0 
0.0 0.0 0.0 
2.804796103527e-03 3.328971136543e-03 0.0 
3.328971136543e-03 5.329884901242e-03 0.0 
0.0 0.0 0.0 
2.483997272564e-03 -4.806623346817e-05 0.0 
-4.806623346817e-05 1.349004865591e-03 0.0 
0.0 0.0 0.0 
3.105665926961e-05 1.580152011802e-03 0.0 
1.580152011802e-03 3.234785354750e-03 0.0 
0.0 0.0 0.0 
2.227255681987e-03 -1.718309698467e-04 0.0 
-1.718309698467e-04 1.306830271807e-03 0.0 
0.0 0.0 0.0 
-1.523558649226e-03 2.995162924774e-03 0.0 
2.995162924774e-03 1.316296659440e-02 0.0 
0.0 0.0 0.0 
1.047616383354e-04 -6.920884805213e-05 0.0 
-6.920884805213e-05 6.345363310812e-03 0.0 
0.0 0.0 0.0 
2.940314137372e-03 1.408065131633e-04 0.0 
1.408065131633e-04 1.135608157864e-03 0.0 
0.0 0.0 0.0 
6.495853922117e-05 3.621133922139e-03 0.0 
3.621133922139e-03 1.007570596019e-02 0.0 
0.0 0.0 0.0 
-1.213855481099e-03 1.184387164866e-05 0.0 
1.184387164866e-05 5.898203368615e-04 0.0 
0.0 0.0 0.0 
3.392079998224e-03 4.025512160886e-04 0.0 
4.025512160886e-04 9.707250530457e-04 0.0 
0.0 0.0 0.0 
-1.973512030311e-03 2.819765196566e-03 0.0 
2.819765196566e-03 1.473080268086e-02 0.0 
0.0 0.0 0.0 
1.652343943333e-03 -2.690086034899e-04 0.0 
-2.690086034899e-04 1.687204258837e-03 0.0 
0.0 0.0 0.0 
1.848828223100e-03 -4.205708291320e-04 0.0 
-4.205708291320e-04 1.012446346640e-03 0.0 
0.0 0.0 0.0 
2.849622041223e-03 3.143458912627e-03 0.0 
3.143458912627e-03 5.359991037893e-03 0.0 
0.0 0.0 0.0 
1.692119855881e-03 -5.813912635592e-04 0.0 
-5.813912635592e-04 3.619947095579e-04 0.0 
0.0 0.0 0.0 
-1.015000439806e-03 1.797916606488e-03 0.0 
1.797916606488e-03 6.925433274406e-03 0.0 
0.0 0.0 0.0 
-1.073678385294e-03 2.120908829537e-03 0.0 
2.120908829537e-03 7.713953176465e-03 0.0 
0.0 0.0 0.0 
1.522481612499e-03 -3.355656060013e-04 0.0 
-3.355656060013e-04 1.425318703015e-03 0.0 
0.0 0.0 0.0 
2.343278812014e-03 5.768121090465e-04 0.0 
5.768121090465e-04 3.138094175577e-03 0.0 
0.0 0.0 0.0 
3.556184053108e-03 2.414615443596e-03 0.0 
2.414615443596e-03 3.186357631068e-03 0.0 
0.0 0.0 0.0 
7.313553387966e-05 3.524662390782e-03 0.0 
3.524662390782e-03 1.008668947842e-02 0.0 
0.0 0.0 0.0 
8.993088770071e-05 4.295851278914e-03 0.0 
4.295851278914e-03 1.293683477850e-02 0.0 
0.0 0.0 0.0 
-7.444724080009e-04 2.024602890187e-03 0.0 
2.024602890187e-03 8.388633364961e-03 0.0 
0.0 0.0 0.0 
-1.201329973762e-03 2.958681633948e-05 0.0 
2.958681633948e-05 1.640854056559e-02 0.0 
0.0 0.0 0.0 
7.440166355241e-04 4.264118169018e-03 0.0 
4.264118169018e-03 1.064157170683e-02 0.0 
0.0 0.0 0.0 
3.430253912582e-03 5.707760405151e-04 0.0 
5.707760405151e-04 7.747833190495e-04 0.0 
0.0 0.0 0.0 
-7.024174497858e-04 1.599325630936e-03 0.0 
1.599325630936e-03 2.364412820289e-03 0.0 
0.0 0.0 0.0 
-1.584252274830e-04 3.234559499966e-03 0.0 
3.234559499966e-03 7.107834071964e-03 0.0 
0.0 0.0 0.0 
2.294906249573e-03 3.824577737217e-04 0.0 
3.824577737217e-04 2.826397233999e-03 0.0 
0.0 0.0 0.0 
-1.179027862899e-03 3.253983206108e-03 0.0 
3.253983206108e-03 1.189141541813e-02 0.0 
0.0 0.0 0.0 
2.475724753429e-03 5.182816726187e-04 0.0 
5.182816726187e-04 2.804747933974e-03 0.0 
0.0 0.0 0.0 
-4.154295750125e-05 5.261602682542e-04 0.0 
5.261602682542e-04 1.816155013445e-03 0.0 
0.0 0.0 0.0 
2.115741192452e-03 6.803632353038e-04 0.0 
6.803632353038e-04 3.803357863172e-03 0.0 
0.0 0.0 0.0 
1.643673632759e-04 1.920246090965e-03 0.0 
1.920246090965e-03 3.753189698556e-03 0.0 
0.0 0.0 0.0 
3.469483485506e-03 2.158290322971e-03 0.0 
2.158290322971e-03 3.223401773343e-03 0.0 
0.0 0.0 0.0 
2.266403166219e-03 6.246643252035e-04 0.0 
6.246643252035e-04 3.435411786104e-03 0.0 
0.0 0.0 0.0 
3.005105427992e-03 3.175671751756e-03 0.0 
3.175671751756e-03 5.114832614270e-03 0.0 
0.0 0.0 0.0 
-1.445284502342e-03 1.207429435990e-04 0.0 
1.207429435990e-04 1.602369028463e-02 0.0 
0.0 0.0 0.0 
1.226012410205e-03 -4.776179339372e-04 0.0 
-4.776179339372e-04 1.446110943704e-03 0.0 
0.0 0.0 0.0 
-2.023563927716e-04 1.226159069031e-03 0.0 
1.226159069031e-03 2.222939037092e-03 0.0 
0.0 0.0 0.0 
2.022602168377e-03 7.213957009277e-04 0.0 
7.213957009277e-04 4.115736328179e-03 0.0 
0.0 0.0 0.0 
2.795223661756e-04 2.199861823341e-03 0.0 
2.199861823341e-03 4.304091304053e-03 0.0 
0.0 0.0 0.0 
-5.928730692188e-04 3.529387355842e-04 0.0 
3.529387355842e-04 7.663563702760e-04 0.0 
0.0 0.0 0.0 
-5.723956843078e-04 1.327002944297e-04 0.0 
1.327002944297e-04 1.722861931166e-02 0.0 
0.0 0.0 0.0 
-8.252150249377e-04 1.112014670710e-04 0.0 
1.112014670710e-04 1.698118219646e-02 0.0 
0.0 0.0 0.0 
1.161297369809e-04 -4.557316596649e-04 0.0 
-4.557316596649e-04 3.288149707295e-04 0.0 
0.0 0.0 0.0 
1.852765692757e-03 7.778542532616e-04 0.0 
7.778542532616e-04 4.516802337854e-03 0.0 
0.0 0.0 0.0 
7.372671265680e-04 -5.056676628201e-04 0.0 
-5.056676628201e-04 1.303154499499e-03 0.0 
0.0 0.0 0.0 
7.804560070026e-04 -3.830902233822e-04 0.0 
-3.830902233822e-04 1.560462625101e-03 0.0 
0.0 0.0 0.0 
1.144930700535e-03 4.211292727400e-03 0.0 
4.211292727400e-03 9.469986181431e-03 0.0 
0.0 0.0 0.0 
2.946001039501e-03 2.982119547746e-03 0.0 
2.982119547746e-03 5.141378977069e-03 0.0 
0.0 0.0 0.0 
1.394259570530e-03 4.040647318668e-03 0.0 
4.040647318668e-03 8.725550493251e-03 0.0 
0.0 0.0 0.0 
3.120510420429e-03 2.530541563931e-04 0.0 
2.530541563931e-04 1.000525275589e-03 0.0 
0.0 0.0 0.0 
-1.553165698673e-03 -4.706762618392e-06 0.0 
-4.706762618392e-06 1.467746502845e-02 0.0 
0.0 0.0 0.0 
2.051885261416e-04 6.384685938727e-04 0.0 
6.384685938727e-04 7.653942188335e-03 0.0 
0.0 0.0 0.0 
6.329825593925e-04 -3.902721533685e-04 0.0 
-3.902721533685e-04 1.303673187049e-03 0.0 
0.0 0.0 0.0 
1.501147234899e-03 1.727865951215e-03 0.0 
1.727865951215e-03 6.484900325741e-03 0.0 
0.0 0.0 0.0 
3.303893995685e-03 2.495028491558e-03 0.0 
2.495028491558e-03 3.880804038423e-03 0.0 
0.0 0.0 0.0 
1.000397113699e-03 1.759557856828e-06 0.0 
1.759557856828e-06 6.506132555106e-04 0.0 
0.0 0.0 0.0 
-1.291277724865e-03 3.134090668137e-03 0.0 
3.134090668137e-03 1.216574732658e-02 0.0 
0.0 0.0 0.0 
3.524829538251e-03 6.558745798970e-04 0.0 
6.558745798970e-04 1.196479549630e-03 0.0 
0.0 0.0 0.0 
5.787194807889e-04 -5.836683114051e-04 0.0 
-5.836683114051e-04 5.306507050049e-04 0.0 
0.0 0.0 0.0 
3.466373709231e-03 2.328358465102e-04 0.0 
2.328358465102e-04 4.959813792038e-04 0.0 
0.0 0.0 0.0 
-2.302971607623e-04 -6.647561329530e-06 0.0 
-6.647561329530e-06 5.673644520707e-03 0.0 
0.0 0.0 0.0 
-1.666697133469e-03 3.084345342452e-03 0.0 
3.084345342452e-03 1.314406428658e-02 0.0 
0.0 0.0 0.0 
7.589087667432e-04 -6.690577180842e-04 0.0 
-6.690577180842e-04 6.239120677778e-04 0.0 
0.0 0.0 0.0 
-1.663281198948e-04 -8.856315965028e-05 0.0 
-8.856315965028e-05 4.679796881168e-03 0.0 
0.0 0.0 0.0 
-1.333963930485e-04 3.761435976345e-03 0.0 
3.761435976345e-03 1.079687995015e-02 0.0 
0.0 0.0 0.0 
1.813903629663e-03 2.849606901143e-03 0.0 
2.849606901143e-03 7.169193476477e-03 0.0 
0.0 0.0 0.0 
1.908172734532e-03 -2.675833490112e-04 0.0 
-2.675833490112e-04 1.330839163753e-03 0.0 
0.0 0.0 0.0 
4.496949832897e-04 -1.750129244315e-05 0.0 
-1.750129244315e-05 2.058018635912e-03 0.0 
0.0 0.0 0.0 
3.423321255971e-03 2.546937007665e-03 0.0 
2.546937007665e-03 3.775912476444e-03 0.0 
0.0 0.0 0.0 
-1.364331662670e-03 -3.252019640160e-05 0.0 
-3.252019640160e-05 1.587745900886e-02 0.0 
0.0 0.0 0.0 
4.396490976473e-04 -6.063908836254e-04 0.0 
-6.063908836254e-04 6.216243065804e-04 0.0 
0.0 0.0 0.0 
6.504110213219e-04 4.179127820430e-03 0.0 
4.179127820430e-03 1.109870861869e-02 0.0 
0.0 0.0 0.0 
-4.851137275130e-05 4.302712842822e-03 0.0 
4.302712842822e-03 1.409917777670e-02 0.0 
0.0 0.0 0.0 
-1.465838676158e-03 -1.832230323132e-05 0.0 
-1.832230323132e-05 1.534817485863e-02 0.0 
0.0 0.0 0.0 
-1.155735340188e-03 1.986973321369e-03 0.0 
1.986973321369e-03 1.704764057551e-02 0.0 
0.0 0.0 0.0 
2.735109529659e-04 4.784472267876e-03 0.0 
4.784472267876e-03 1.272242999350e-02 0.0 
0.0 0.0 0.0 
3.092002574894e-03 3.383294149285e-04 0.0 
3.383294149285e-04 1.320414593112e-03 0.0 
0.0 0.0 0.0 
2.683884494946e-03 1.002061488820e-05 0.0 
1.002061488820e-05 1.161665050290e-03 0.0 
0.0 0.0 0.0 
7.135533547384e-04 2.040669745712e-03 0.0 
2.040669745712e-03 8.710117838810e-03 0.0 
0.0 0.0 0.0 
-1.072097069101e-03 1.553326284615e-04 0.0 
1.553326284615e-04 5.848438731717e-04 0.0 
0.0 0.0 0.0 
6.856568371403e-04 -1.298832699564e-05 0.0 
-1.298832699564e-05 1.679133145003e-03 0.0 
0.0 0.0 0.0 
-1.937144241015e-04 -4.155243672508e-05 0.0 
-4.155243672508e-05 4.787150330537e-03 0.0 
0.0 0.0 0.0 
1.605167302298e-03 -4.166196394441e-04 0.0 
-4.166196394441e-04 1.360048628671e-03 0.0 
0.0 0.0 0.0 
3.035968253624e-03 -1.195787036600e-05 0.0 
-1.195787036600e-05 6.666747467043e-04 0.0 
0.0 0.0 0.0 
-8.637349987818e-04 1.887658854595e-03 0.0 
1.887658854595e-03 5.559506856818e-03 0.0 
0.0 0.0 0.0 
-9.717496127289e-04 2.112878504182e-03 0.0 
2.112878504182e-03 6.319176620291e-03 0.0 
0.0 0.0 0.0 
-1.953288056960e-03 2.367656348444e-04 0.0 
2.367656348444e-04 1.548814386272e-02 0.0 
0.0 0.0 0.0 
3.358024632695e-03 2.933415757483e-04 0.0 
2.933415757483e-04 7.210450170871e-04 0.0 
0.0 0.0 0.0 
2.848004829956e-04 -1.340488492859e-04 0.0 
-1.340488492859e-04 2.308687554390e-03 0.0 
0.0 0.0 0.0 
2.062471095889e-03 3.206557312660e-03 0.0 
3.206557312660e-03 6.944698052449e-03 0.0 
0.0 0.0 0.0 
1.476269886183e-04 5.138565191814e-04 0.0 
5.138565191814e-04 8.039845949768e-03 0.0 
0.0 0.0 0.0 
1.800917044490e-04 6.149016817452e-04 0.0 
6.149016817452e-04 8.111541430724e-03 0.0 
0.0 0.0 0.0 
2.671102843581e-03 1.036822056578e-04 0.0 
1.036822056578e-04 1.472105847166e-03 0.0 
0.0 0.0 0.0 
-2.097118126062e-03 2.206761994697e-04 0.0 
2.206761994697e-04 1.524226484492e-02 0.0 
0.0 0.0 0.0 
-1.163694038751e-03 2.025924434081e-04 0.0 
2.025924434081e-04 8.831534694989e-04 0.0 
0.0 0.0 0.0 
-8.342210403527e-04 1.872008485829e-03 0.0 
1.872008485829e-03 4.223800848601e-03 0.0 
0.0 0.0 0.0 
9.675260570303e-04 -6.404911340282e-04 0.0 
-6.404911340282e-04 9.685357064515e-04 0.0 
0.0 0.0 0.0 
-8.444335230517e-04 1.903654467190e-03 0.0 
1.903654467190e-03 4.912762558288e-03 0.0 
0.0 0.0 0.0 
3.128494161124e-03 2.652284726396e-03 0.0 
2.652284726396e-03 4.449497212352e-03 0.0 
0.0 0.0 0.0 
2.494372196584e-03 -1.660888820168e-04 0.0 
-1.660888820168e-04 9.659445062453e-04 0.0 
0.0 0.0 0.0 
2.953218100971e-03 4.239562100798e-05 0.0 
4.239562100798e-05 8.163227599993e-04 0.0 
0.0 0.0 0.0 
-3.855270219336e-04 -2.888809795003e-04 0.0 
-2.888809795003e-04 1.140506051693e-03 0.0 
0.0 0.0 0.0 
-7.186066493315e-04 1.953871696982e-04 0.0 
1.953871696982e-04 1.703986199582e-02 0.0 
0.0 0.0 0.0 
2.475143430958e-03 -1.607918931204e-04 0.0 
-1.607918931204e-04 1.033417061917e-03 0.0 
0.0 0.0 0.0 
-7.182905060762e-04 7.314240421706e-04 0.0 
7.314240421706e-04 1.720595978606e-02 0.0 
0.0 0.0 0.0 
-1.027944435855e-03 2.334317761052e-04 0.0 
2.334317761052e-04 1.682801523585e-02 0.0 
0.0 0.0 0.0 
-2.808871753261e-04 3.338938343051e-04 0.0 
3.338938343051e-04 1.757174262416e-02 0.0 
0.0 0.0 0.0 
7.082220546883e-05 1.137845424843e-04 0.0 
1.137845424843e-04 7.502142431817e-03 0.0 
0.0 0.0 0.0 
-1.480429550588e-03 3.826666089094e-05 0.0 
3.826666089094e-05 1.536137768559e-02 0.0 
0.0 0.0 0.0 
2.224248208812e-03 -1.838501645110e-04 0.0 
-1.838501645110e-04 1.373919733317e-03 0.0 
0.0 0.0 0.0 
-7.048182521817e-04 1.812028162011e-03 0.0 
1.812028162011e-03 6.926070868094e-03 0.0 
0.0 0.0 0.0 
2.232896327673e-03 -7.258911489981e-05 0.0 
-7.258911489981e-05 1.686983970083e-03 0.0 
0.0 0.0 0.0 
0.0 3.655022955351e-04 0.0 
3.655022955351e-04 7.896042914959e-03 0.0 
0.0 0.0 0.0 
-8.685753653408e-04 1.634560855639e-03 0.0 
1.634560855639e-03 2.828132886630e-03 0.0 
0.0 0.0 0.0 
-8.355976831460e-04 1.763113919311e-03 0.0 
1.763113919311e-03 3.531948010526e-03 0.0 
0.0 0.0 0.0 
1.346105174288e-03 1.970907534432e-03 0.0 
1.970907534432e-03 7.118434412198e-03 0.0 
0.0 0.0 0.0 
-1.692651808473e-03 7.530669254566e-05 0.0 
7.530669254566e-05 1.510255810832e-02 0.0 
0.0 0.0 0.0 
-6.296798817533e-04 4.841087362386e-04 0.0 
4.841087362386e-04 1.722656786370e-02 0.0 
0.0 0.0 0.0 
-1.797490092376e-04 3.675197388447e-03 0.0 
3.675197388447e-03 1.080234746123e-02 0.0 
0.0 0.0 0.0 
1.369553970116e-03 2.981591673465e-03 0.0 
2.981591673465e-03 8.064106227197e-03 0.0 
0.0 0.0 0.0 
-1.565221374585e-03 3.485770400719e-03 0.0 
3.485770400719e-03 1.308215010119e-02 0.0 
0.0 0.0 0.0 
-1.504460931742e-03 9.547154550908e-05 0.0 
9.547154550908e-05 1.546286509285e-02 0.0 
0.0 0.0 0.0 
1.448569358481e-03 -4.973832010305e-04 0.0 
-4.973832010305e-04 1.111955326150e-03 0.0 
0.0 0.0 0.0 
1.770926135644e-03 -3.503044730393e-04 0.0 
-3.503044730393e-04 1.091291486468e-03 0.0 
0.0 0.0 0.0 
-1.248307931595e-03 1.181159658064e-04 0.0 
1.181159658064e-04 1.624516017453e-02 0.0 
0.0 0.0 0.0 
1.552026357081e-03 3.052231035948e-03 0.0 
3.052231035948e-03 7.890324400185e-03 0.0 
0.0 0.0 0.0 
-2.691277507321e-03 6.675297573589e-04 0.0 
6.675297573589e-04 1.553554441324e-02 0.0 
0.0 0.0 0.0 
-1.530135057073e-03 1.910931183728e-05 0.0 
1.910931183728e-05 1.502256574900e-02 0.0 
0.0 0.0 0.0 
-1.512416453428e-03 2.659457012106e-05 0.0 
2.659457012106e-05 1.535436938716e-02 0.0 
0.0 0.0 0.0 
-1.579771121885e-03 3.886962654727e-05 0.0 
3.886962654727e-05 1.548541569799e-02 0.0 
0.0 0.0 0.0 
4.858156682586e-04 -9.403859792902e-05 0.0 
-9.403859792902e-05 1.147460792843e-03 0.0 
0.0 0.0 0.0 
1.342286319307e-03 -3.945016211372e-04 0.0 
-3.945016211372e-04 1.218017739997e-03 0.0 
0.0 0.0 0.0 
-6.541199720035e-04 1.115572107197e-03 0.0 
1.115572107197e-03 1.734105190475e-02 0.0 
0.0 0.0 0.0 
-1.544694665521e-03 1.165531540070e-04 0.0 
1.165531540070e-04 1.587359756587e-02 0.0 
0.0 0.0 0.0 
4.565430899837e-04 2.569463310830e-03 0.0 
2.569463310830e-03 9.390980402583e-03 0.0 
0.0 0.0 0.0 
-4.606949837410e-04 4.554586437527e-03 0.0 
4.554586437527e-03 1.284321707975e-02 0.0 
0.0 0.0 0.0 
-1.423711847787e-03 3.169422871366e-03 0.0 
3.169422871366e-03 1.216032351196e-02 0.0 
0.0 0.0 0.0 
-1.423026933030e-03 2.031671761221e-03 0.0 
2.031671761221e-03 1.684452797675e-02 0.0 
0.0 0.0 0.0 
2.023791819128e-05 -2.563400468225e-04 0.0 
-2.563400468225e-04 3.441744005364e-03 0.0 
0.0 0.0 0.0 
1.598163635188e-04 -2.811620062887e-04 0.0 
-2.811620062887e-04 3.047353123144e-03 0.0 
0.0 0.0 0.0 
4.971903521365e-04 6.400698380328e-04 0.0 
6.400698380328e-04 7.132959370528e-03 0.0 
0.0 0.0 0.0 
-4.545795405785e-04 -5.400652572617e-05 0.0 
-5.400652572617e-05 6.328157004625e-04 0.0 
0.0 0.0 0.0 
6.710649790389e-04 6.374272933744e-05 0.0 
6.374272933744e-05 1.922310189137e-03 0.0 
0.0 0.0 0.0 
0.0 3.418329625925e-03 0.0 
3.418329625925e-03 1.098254456736e-02 0.0 
0.0 0.0 0.0 
1.295230983380e-03 -6.296798354881e-06 0.0 
-6.296798354881e-06 4.681743663637e-06 0.0 
0.0 0.0 0.0 
-1.509185689939e-03 2.008604064845e-05 0.0 
2.008604064845e-05 1.501555259133e-02 0.0 
0.0 0.0 0.0 
9.749833844077e-04 1.652578898554e-03 0.0 
1.652578898554e-03 7.735135419383e-03 0.0 
0.0 0.0 0.0 
2.908889538120e-04 -3.145936099043e-04 0.0 
-3.145936099043e-04 4.515347965532e-04 0.0 
0.0 0.0 0.0 
7.286519341092e-04 -3.321284493273e-05 0.0 
-3.321284493273e-05 -3.194634829207e-05 0.0 
0.0 0.0 0.0 
-5.584820953719e-04 1.904489536144e-03 0.0 
1.904489536144e-03 1.714380216553e-02 0.0 
0.0 0.0 0.0 
-1.640081619492e-03 -4.151638215366e-06 0.0 
-4.151638215366e-06 1.471169627959e-02 0.0 
0.0 0.0 0.0 
-7.587463973743e-04 1.521234419519e-03 0.0 
1.521234419519e-03 1.723208954702e-02 0.0 
0.0 0.0 0.0 
7.356022822216e-04 1.876412371078e-03 0.0 
1.876412371078e-03 7.892821626359e-03 0.0 
0.0 0.0 0.0 
-1.625205895598e-03 -7.045505608752e-06 0.0 
-7.045505608752e-06 1.469131872763e-02 0.0 
0.0 0.0 0.0 
-1.073161436799e-03 2.104520955622e-04 0.0 
2.104520955622e-04 9.173411276375e-04 0.0 
0.0 0.0 0.0 
-3.035346208768e-04 2.512930640033e-04 0.0 
2.512930640033e-04 1.741777567157e-02 0.0 
0.0 0.0 0.0 
5.362807285592e-04 -1.593434653208e-04 0.0 
-1.593434653208e-04 8.554891930652e-04 0.0 
0.0 0.0 0.0 
-7.631817722906e-04 1.230903004632e-03 0.0 
1.230903004632e-03 1.719896662228e-02 0.0 
0.0 0.0 0.0 
0.0 2.475089490301e-04 0.0 
2.475089490301e-04 7.791961002489e-03 0.0 
0.0 0.0 0.0 
-1.350369164933e-03 3.455187891386e-03 0.0 
3.455187891386e-03 1.473298398740e-02 0.0 
0.0 0.0 0.0 
1.301037220909e-03 -2.160057718000e-04 0.0 
-2.160057718000e-04 8.021578768547e-04 0.0 
0.0 0.0 0.0 
-2.299832961880e-03 7.612784934441e-04 0.0 
7.612784934441e-04 1.540921563722e-02 0.0 
0.0 0.0 0.0 
-7.507901051973e-06 -1.821690556502e-04 0.0 
-1.821690556502e-04 3.558005582788e-03 0.0 
0.0 0.0 0.0 
2.001267455693e-03 3.034507209428e-03 0.0 
3.034507209428e-03 6.957654047741e-03 0.0 
0.0 0.0 0.0 
3.486155613952e-04 2.696255827293e-03 0.0 
2.696255827293e-03 1.010158775251e-02 0.0 
0.0 0.0 0.0 
-1.120127967525e-03 1.543524325173e-04 0.0 
1.543524325173e-04 1.658744301062e-02 0.0 
0.0 0.0 0.0 
3.573047709351e-04 2.455134578718e-03 0.0 
2.455134578718e-03 9.801272981143e-03 0.0 
0.0 0.0 0.0 
-6.021876170414e-05 5.623784159657e-05 0.0 
5.623784159657e-05 8.809349119565e-04 0.0 
0.0 0.0 0.0 
1.719133581424e-04 3.205661491499e-04 0.0 
3.205661491499e-04 7.458306729129e-03 0.0 
0.0 0.0 0.0 
1.740221182580e-03 -2.857220029514e-04 0.0 
-2.857220029514e-04 4.963472981150e-04 0.0 
0.0 0.0 0.0 
1.145294601236e-03 -1.503512695528e-05 0.0 
-1.503512695528e-05 1.863903285513e-04 0.0 
0.0 0.0 0.0 
5.593312832373e-04 1.387387541429e-03 0.0 
1.387387541429e-03 8.237705781480e-03 0.0 
0.0 0.0 0.0 
-1.247290319947e-03 2.984554913342e-03 0.0 
2.984554913342e-03 1.634699062726e-02 0.0 
0.0 0.0 0.0 
-7.581390870870e-04 1.843389292255e-03 0.0 
1.843389292255e-03 1.715601182482e-02 0.0 
0.0 0.0 0.0 
-1.570534280730e-03 5.394174952030e-05 0.0 
5.394174952030e-05 1.502670170644e-02 0.0 
0.0 0.0 0.0 
-2.436856887132e-03 1.636530649812e-03 0.0 
1.636530649812e-03 1.480531764762e-02 0.0 
0.0 0.0 0.0 
-5.560433839158e-05 1.166928797598e-03 0.0 
1.166928797598e-03 3.214863624167e-03 0.0 
0.0 0.0 0.0 
3.338786695988e-04 4.883266110401e-03 0.0 
4.883266110401e-03 1.261758243175e-02 0.0 
0.0 0.0 0.0 
1.227503054244e-04 -1.415953002884e-04 0.0 
-1.415953002884e-04 2.965286785778e-03 0.0 
0.0 0.0 0.0 
-9.624223794036e-05 5.989172453159e-04 0.0 
5.989172453159e-04 1.665614953912e-03 0.0 
0.0 0.0 0.0 
1.890698188862e-03 2.990134556081e-03 0.0 
2.990134556081e-03 7.150303992621e-03 0.0 
0.0 0.0 0.0 
-1.559819759685e-03 3.504490123893e-06 0.0 
3.504490123893e-06 1.465834106543e-02 0.0 
0.0 0.0 0.0 
-1.135115794418e-03 2.747295202169e-03 0.0 
2.747295202169e-03 1.621025146352e-02 0.0 
0.0 0.0 0.0 
-2.329246177450e-04 -8.772539082802e-06 0.0 
-8.772539082802e-06 1.758811768088e-02 0.0 
0.0 0.0 0.0 
0.0 1.164623088722e-04 0.0 
1.164623088722e-04 1.760566275905e-02 0.0 
0.0 0.0 0.0 
1.669669810029e-03 1.281527708220e-05 0.0 
1.281527708220e-05 -6.218126191316e-04 0.0 
0.0 0.0 0.0 
1.542257677810e-03 -2.260726362202e-05 0.0 
-2.260726362202e-05 -5.652455683207e-04 0.0 
0.0 0.0 0.0 
-1.532469240989e-03 -4.342953867589e-05 0.0 
-4.342953867589e-05 1.468153026852e-02 0.0 
0.0 0.0 0.0 
-1.596604799091e-03 -7.561557685027e-06 0.0 
-7.561557685027e-06 1.467392986464e-02 0.0 
0.0 0.0 0.0 
0.0 2.953408135202e-05 0.0 
2.953408135202e-05 7.454966296292e-03 0.0 
0.0 0.0 0.0 
5.906816270396e-05 3.997552828891e-05 0.0 
3.997552828891e-05 7.375015239715e-03 0.0 
0.0 0.0 0.0 
1.617790375843e-03 -8.856949493544e-05 0.0 
-8.856949493544e-05 -7.149870762296e-04 0.0 
0.0 0.0 0.0 
-1.191068224148e-03 3.332411865032e-05 0.0 
3.332411865032e-05 5.990461413192e-04 0.0 
0.0 0.0 0.0 
2.241929064377e-04 1.031329157570e-04 0.0 
1.031329157570e-04 6.806361823384e-03 0.0 
0.0 0.0 0.0 
1.092249080069e-03 3.676887512395e-03 0.0 
3.676887512395e-03 9.396404377696e-03 0.0 
0.0 0.0 0.0 
5.917935172743e-04 -1.341829998105e-04 0.0 
-1.341829998105e-04 1.023314883432e-03 0.0 
0.0 0.0 0.0 
2.677631839771e-04 3.195236290831e-04 0.0 
3.195236290831e-04 7.109844497636e-03 0.0 
0.0 0.0 0.0 
-2.063388506188e-04 -3.370451590921e-05 0.0 
-3.370451590921e-05 5.083637087927e-03 0.0 
0.0 0.0 0.0 
-1.588059215653e-04 -5.255117105705e-05 0.0 
-5.255117105705e-05 4.424148383417e-03 0.0 
0.0 0.0 0.0 
-1.439728275502e-03 1.453983880616e-04 0.0 
1.453983880616e-04 1.603793299552e-02 0.0 
0.0 0.0 0.0 
1.175279335284e-03 -5.732344252422e-04 0.0 
-5.732344252422e-04 5.697249244745e-04 0.0 
0.0 0.0 0.0 
2.467739371048e-03 3.006653651328e-03 0.0 
3.006653651328e-03 6.050220511374e-03 0.0 
0.0 0.0 0.0 
5.633692539742e-04 -1.189928235807e-04 0.0 
-1.189928235807e-04 7.357081144805e-04 0.0 
0.0 0.0 0.0 
-5.887820375294e-05 -2.271786332280e-04 0.0 
-2.271786332280e-04 3.914048477361e-03 0.0 
0.0 0.0 0.0 
4.516668434993e-04 4.654719236491e-03 0.0 
4.654719236491e-03 1.212779336763e-02 0.0 
0.0 0.0 0.0 
-7.305650163958e-04 -1.591341074406e-05 0.0 
-1.591341074406e-05 1.712393971498e-02 0.0 
0.0 0.0 0.0 
-1.656347675139e-04 -6.246266159766e-05 0.0 
-6.246266159766e-05 4.429959192333e-03 0.0 
0.0 0.0 0.0 
-1.472469151827e-03 1.396921807975e-05 0.0 
1.396921807975e-05 1.563350400084e-02 0.0 
0.0 0.0 0.0 
9.582176177743e-04 4.075369383965e-03 0.0 
4.075369383965e-03 1.029398869281e-02 0.0 
0.0 0.0 0.0 
-5.480554967197e-04 4.027049410131e-03 0.0 
4.027049410131e-03 1.201458675834e-02 0.0 
0.0 0.0 0.0 
-1.463838253514e-03 3.368487103345e-03 0.0 
3.368487103345e-03 1.250724074460e-02 0.0 
0.0 0.0 0.0 
-1.600348268798e-03 -1.582567653250e-06 0.0 
-1.582567653250e-06 1.469177481897e-02 0.0 
0.0 0.0 0.0 
2.684979796823e-03 2.707317182835e-03 0.0 
2.707317182835e-03 5.348684667963e-03 0.0 
0.0 0.0 0.0 
-1.144973969306e-03 3.109230006611e-03 0.0 
3.109230006611e-03 1.553413175562e-02 0.0 
0.0 0.0 0.0 
4.366075724058e-04 -6.874479723063e-05 0.0 
-6.874479723063e-05 1.946524989892e-03 0.0 
0.0 0.0 0.0 
-6.328377979603e-05 -4.180020161366e-04 0.0 
-4.180020161366e-04 3.488086686114e-04 0.0 
0.0 0.0 0.0 
9.612642879369e-04 4.028164559531e-03 0.0 
4.028164559531e-03 9.929807569776e-03 0.0 
0.0 0.0 0.0 
1.593395892865e-03 1.839391739742e-03 0.0 
1.839391739742e-03 6.477353316214e-03 0.0 
0.0 0.0 0.0 
1.021111356478e-03 -7.907882000407e-04 0.0 
-7.907882000407e-04 6.482124024478e-04 0.0 
0.0 0.0 0.0 
-1.329913300514e-03 7.573053374765e-05 0.0 
7.573053374765e-05 1.627011342199e-02 0.0 
0.0 0.0 0.0 
7.632757927101e-05 1.154712035275e-04 0.0 
1.154712035275e-04 7.195055389619e-03 0.0 
0.0 0.0 0.0 
1.108496973065e-03 3.741154377511e-03 0.0 
3.741154377511e-03 9.226200013971e-03 0.0 
0.0 0.0 0.0 
1.026410539108e-03 3.877858480892e-03 0.0 
3.877858480892e-03 9.956195324281e-03 0.0 
0.0 0.0 0.0 
-2.222863678699e-04 -5.169749038268e-05 0.0 
-5.169749038268e-05 5.441397577765e-03 0.0 
0.0 0.0 0.0 
-5.805109810030e-04 5.918807713328e-04 0.0 
5.918807713328e-04 7.926098988920e-04 0.0 
0.0 0.0 0.0 
-9.298335952211e-04 2.185214598760e-03 0.0 
2.185214598760e-03 5.586127876959e-03 0.0 
0.0 0.0 0.0 
-4.012362090855e-05 1.921286145822e-03 0.0 
1.921286145822e-03 4.293334275439e-03 0.0 
0.0 0.0 0.0 
-2.492968416518e-03 8.808225795762e-04 0.0 
8.808225795762e-04 1.559332013805e-02 0.0 
0.0 0.0 0.0 
2.784470942569e-03 2.924388440023e-03 0.0 
2.924388440023e-03 5.322171642674e-03 0.0 
0.0 0.0 0.0 
-7.805026604997e-04 8.997719106849e-04 0.0 
8.997719106849e-04 1.726096518926e-02 0.0 
0.0 0.0 0.0 
4.279272125498e-04 2.083342754791e-03 0.0 
2.083342754791e-03 8.723522247280e-03 0.0 
0.0 0.0 0.0 
-5.950322364867e-05 -5.881993653840e-04 0.0 
-5.881993653840e-04 7.989307642224e-04 0.0 
0.0 0.0 0.0 
1.112122996811e-04 -5.509066229343e-04 0.0 
-5.509066229343e-04 5.673835300928e-04 0.0 
0.0 0.0 0.0 
-9.999820672162e-04 2.231747840322e-03 0.0 
2.231747840322e-03 4.255425534895e-03 0.0 
0.0 0.0 0.0 
-1.246826177340e-03 2.476324115709e-04 0.0 
2.476324115709e-04 1.638578813099e-02 0.0 
0.0 0.0 0.0 
2.951625838976e-04 -1.940033450894e-04 0.0 
-1.940033450894e-04 2.544804145141e-03 0.0 
0.0 0.0 0.0 
-1.293310883957e-03 2.347536010924e-03 0.0 
2.347536010924e-03 1.669910100586e-02 0.0 
0.0 0.0 0.0 
1.113629173427e-03 1.800379034268e-05 0.0 
1.800379034268e-05 5.460922982798e-04 0.0 
0.0 0.0 0.0 
8.970230351260e-04 2.079630243602e-03 0.0 
2.079630243602e-03 7.940998388922e-03 0.0 
0.0 0.0 0.0 
-1.803536441521e-03 1.874801990262e-04 0.0 
1.874801990262e-04 1.549718490446e-02 0.0 
0.0 0.0 0.0 
3.734257022552e-04 3.083804815189e-03 0.0 
3.083804815189e-03 9.877141488023e-03 0.0 
0.0 0.0 0.0 
1.750557010848e-03 3.273160757154e-03 0.0 
3.273160757154e-03 7.736980344551e-03 0.0 
0.0 0.0 0.0 
-2.639477426845e-03 1.265854683636e-03 0.0 
1.265854683636e-03 1.538894155118e-02 0.0 
0.0 0.0 0.0 
4.947380205378e-04 1.044097449636e-03 0.0 
1.044097449636e-03 7.967486444419e-03 0.0 
0.0 0.0 0.0 
-1.050082235177e-03 2.727124950020e-03 0.0 
2.727124950020e-03 1.659050347945e-02 0.0 
0.0 0.0 0.0 
-4.876965139353e-04 2.210089630697e-04 0.0 
2.210089630697e-04 1.742875052308e-02 0.0 
0.0 0.0 0.0 
-1.065853661839e-03 2.157908602827e-03 0.0 
2.157908602827e-03 2.855251050006e-03 0.0 
0.0 0.0 0.0 
-1.113423194708e-03 1.978300088187e-03 0.0 
1.978300088187e-03 1.684812634215e-02 0.0 
0.0 0.0 0.0 
3.543875040852e-04 4.178420843971e-03 0.0 
4.178420843971e-03 1.120808275240e-02 0.0 
0.0 0.0 0.0 
1.042898546448e-03 2.046286898994e-03 0.0 
2.046286898994e-03 7.948539883753e-03 0.0 
0.0 0.0 0.0 
1.593826583775e-03 3.217324003941e-03 0.0 
3.217324003941e-03 7.851647220378e-03 0.0 
0.0 0.0 0.0 
0.0 5.250103832667e-04 0.0 
5.250103832667e-04 8.074920049014e-03 0.0 
0.0 0.0 0.0 
-1.250321742964e-03 3.337905233810e-03 0.0 
3.337905233810e-03 1.251042474312e-02 0.0 
0.0 0.0 0.0 
-8.782641321203e-04 4.789109315515e-04 0.0 
4.789109315515e-04 4.189397911738e-04 0.0 
0.0 0.0 0.0 
-1.297870392049e-04 7.406872132289e-04 0.0 
7.406872132289e-04 2.205579354157e-03 0.0 
0.0 0.0 0.0 
-5.377343072992e-04 4.243279819223e-03 0.0 
4.243279819223e-03 1.247399953991e-02 0.0 
0.0 0.0 0.0 
-2.291101169255e-03 9.202088355181e-04 0.0 
9.202088355181e-04 1.574234156328e-02 0.0 
0.0 0.0 0.0 
8.527992500729e-05 -1.597219749814e-05 0.0 
-1.597219749814e-05 6.766070540471e-03 0.0 
0.0 0.0 0.0 
1.268758098723e-03 3.267962709910e-03 0.0 
3.267962709910e-03 8.626057816939e-03 0.0 
0.0 0.0 0.0 
1.436897058311e-04 3.880336468987e-04 0.0 
3.880336468987e-04 7.539228006321e-03 0.0 
0.0 0.0 0.0 
-1.101186410231e-03 3.269392291327e-04 0.0 
3.269392291327e-04 1.671439805049e-02 0.0 
0.0 0.0 0.0 
3.812988256133e-04 2.883781523192e-03 0.0 
2.883781523192e-03 9.606742403673e-03 0.0 
0.0 0.0 0.0 
4.847808119646e-04 8.129391738595e-04 0.0 
8.129391738595e-04 7.418787431983e-03 0.0 
0.0 0.0 0.0 
5.783433032671e-04 9.255917169943e-04 0.0 
9.255917169943e-04 7.408365887412e-03 0.0 
0.0 0.0 0.0 
2.374383380710e-04 -1.315248340942e-04 0.0 
-1.315248340942e-04 2.777406684684e-03 0.0 
0.0 0.0 0.0 
1.328446810536e-04 4.446577619203e-04 0.0 
4.446577619203e-04 7.939900817903e-03 0.0 
0.0 0.0 0.0 
-1.844888282586e-03 1.950072001481e-04 0.0 
1.950072001481e-04 1.508443379521e-02 0.0 
0.0 0.0 0.0 
-7.455706889125e-04 4.553742277483e-04 0.0 
4.553742277483e-04 1.723054316065e-02 0.0 
0.0 0.0 0.0 
4.088313400363e-04 -6.354967937325e-04 0.0 
-6.354967937325e-04 5.600599466324e-04 0.0 
0.0 0.0 0.0 
-9.026124541587e-04 1.947084985607e-04 0.0 
1.947084985607e-04 1.704688354463e-02 0.0 
0.0 0.0 0.0 
-1.354598331539e-03 1.515601941007e-04 0.0 
1.515601941007e-04 1.630032134661e-02 0.0 
0.0 0.0 0.0 
1.485831192968e-03 -1.697788724394e-05 0.0 
-1.697788724394e-05 -4.382913436126e-04 0.0 
0.0 0.0 0.0 
7.766675096010e-04 -4.004350379510e-04 0.0 
-4.004350379510e-04 1.303512298160e-03 0.0 
0.0 0.0 0.0 
-1.928414435123e-04 3.853663852977e-03 0.0 
3.853663852977e-03 1.147880104873e-02 0.0 
0.0 0.0 0.0 
-4.996562451626e-04 1.355696994733e-03 0.0 
1.355696994733e-03 1.729322426318e-02 0.0 
0.0 0.0 0.0 
-6.575183228337e-04 2.136482656499e-04 0.0 
2.136482656499e-04 1.725216522341e-02 0.0 
0.0 0.0 0.0 
7.984697426893e-04 2.867597374910e-03 0.0 
2.867597374910e-03 9.185450453732e-03 0.0 
0.0 0.0 0.0 
-1.519645356251e-03 1.528592442387e-04 0.0 
1.528592442387e-04 1.567788364995e-02 0.0 
0.0 0.0 0.0 
2.586654127124e-04 -2.505569071391e-04 0.0 
-2.505569071391e-04 1.918667435217e-04 0.0 
0.0 0.0 0.0 
-4.690890548396e-04 4.912776198112e-04 0.0 
4.912776198112e-04 1.087200255504e-03 0.0 
0.0 0.0 0.0 
3.155693707373e-04 -1.915861975950e-04 0.0 
-1.915861975950e-04 2.529649766723e-04 0.0 
0.0 0.0 0.0 
4.011371859503e-04 -5.726453098327e-04 0.0 
-5.726453098327e-04 7.118814072646e-04 0.0 
0.0 0.0 0.0 
-8.840709914850e-04 8.537434905319e-04 0.0 
8.537434905319e-04 5.724570803158e-04 0.0 
0.0 0.0 0.0 
-3.690790506361e-05 -2.123314146030e-04 0.0 
-2.123314146030e-04 3.854478540117e-03 0.0 
0.0 0.0 0.0 
1.656663103335e-04 4.957160045279e-05 0.0 
4.957160045279e-05 6.764668036316e-03 0.0 
0.0 0.0 0.0 
-1.139185663182e-03 3.562123083096e-03 0.0 
3.562123083096e-03 1.474708382103e-02 0.0 
0.0 0.0 0.0 
-2.636828266891e-03 1.807176266668e-03 0.0 
1.807176266668e-03 1.516539416030e-02 0.0 
0.0 0.0 0.0 
1.386893481259e-04 -2.980087766229e-04 0.0 
-2.980087766229e-04 3.142714578577e-03 0.0 
0.0 0.0 0.0 
4.620487162281e-04 5.734357182295e-04 0.0 
5.734357182295e-04 7.156777947493e-03 0.0 
0.0 0.0 0.0 
9.760281532138e-04 1.446082714359e-03 0.0 
1.446082714359e-03 7.398116715402e-03 0.0 
0.0 0.0 0.0 
7.081045540673e-04 3.284909985962e-03 0.0 
3.284909985962e-03 9.988326694144e-03 0.0 
0.0 0.0 0.0 
6.466587562188e-04 4.043556689110e-03 0.0 
4.043556689110e-03 1.047880579100e-02 0.0 
0.0 0.0 0.0 
7.883461105276e-04 4.497838467106e-03 0.0 
4.497838467106e-03 1.091305732719e-02 0.0 
0.0 0.0 0.0 
3.714108866781e-04 -4.809082049128e-04 0.0 
-4.809082049128e-04 5.224221291111e-04 0.0 
0.0 0.0 0.0 
-5.775825018339e-04 -1.026114856600e-04 0.0 
-1.026114856600e-04 1.035132870340e-03 0.0 
0.0 0.0 0.0 
1.769780858103e-04 5.497542053399e-05 0.0 
5.497542053399e-05 6.823146112773e-03 0.0 
0.0 0.0 0.0 
1.413182519955e-03 -1.484141484203e-05 0.0 
-1.484141484203e-05 -4.334800705162e-04 0.0 
0.0 0.0 0.0 
1.394860486292e-03 7.183776351859e-06 0.0 
7.183776351859e-06 -2.102657727343e-04 0.0 
0.0 0.0 0.0 
-6.594151661068e-04 1.145350736830e-03 0.0 
1.145350736830e-03 1.281299346329e-03 0.0 
0.0 0.0 0.0 
3.881258530505e-04 -3.162470665151e-04 0.0 
-3.162470665151e-04 4.514607958961e-04 0.0 
0.0 0.0 0.0 
2.495485279166e-04 9.126176607429e-04 0.0 
9.126176607429e-04 7.900993528067e-03 0.0 
0.0 0.0 0.0 
2.905176389818e-04 4.551466370480e-03 0.0 
4.551466370480e-03 1.198618250149e-02 0.0 
0.0 0.0 0.0 
-6.564905396006e-04 9.044621449784e-04 0.0 
9.044621449784e-04 1.726113251553e-02 0.0 
0.0 0.0 0.0 
3.511639628277e-04 3.304931927801e-03 0.0 
3.304931927801e-03 1.014677774415e-02 0.0 
0.0 0.0 0.0 
1.016883436175e-03 1.408438513570e-03 0.0 
1.408438513570e-03 7.052276809185e-03 0.0 
0.0 0.0 0.0 
-1.458426413232e-03 1.810416278459e-04 0.0 
1.810416278459e-04 1.587937424056e-02 0.0 
0.0 0.0 0.0 
0.0 2.042494655762e-03 0.0 
2.042494655762e-03 1.703650816610e-02 0.0 
0.0 0.0 0.0 
1.819192674015e-03 -7.807099324106e-04 0.0 
-7.807099324106e-04 4.793997668275e-04 0.0 
0.0 0.0 0.0 
-1.537136435881e-03 -8.853317388155e-06 0.0 
-8.853317388155e-06 1.464661337975e-02 0.0 
0.0 0.0 0.0 
4.352483848702e-04 -6.631753370630e-04 0.0 
-6.631753370630e-04 7.966658579619e-04 0.0 
0.0 0.0 0.0 
6.381733926153e-04 -6.864439898381e-05 0.0 
-6.864439898381e-05 -4.503959790025e-05 0.0 
0.0 0.0 0.0 
9.363683483743e-05 2.805481213607e-04 0.0 
2.805481213607e-04 7.748050780048e-03 0.0 
0.0 0.0 0.0 
-2.765980395948e-03 1.094186119248e-03 0.0 
1.094186119248e-03 1.501771305721e-02 0.0 
0.0 0.0 0.0 
1.340871840095e-03 -2.672148144923e-05 0.0 
-2.672148144923e-05 8.277790718281e-05 0.0 
0.0 0.0 0.0 
-6.236272577675e-05 -1.439135558558e-04 0.0 
-1.439135558558e-04 3.767854193445e-03 0.0 
0.0 0.0 0.0 
5.041231049283e-04 4.776449443942e-03 0.0 
4.776449443942e-03 1.219163249465e-02 0.0 
0.0 0.0 0.0 
-1.015288491829e-03 1.249425261013e-03 0.0 
1.249425261013e-03 1.719930488963e-02 0.0 
0.0 0.0 0.0 
-7.788609338326e-04 3.016405951714e-03 0.0 
3.016405951714e-03 1.616667526796e-02 0.0 
0.0 0.0 0.0 
3.825084764533e-04 -3.887411247900e-06 0.0 
-3.887411247900e-06 2.505435736875e-03 0.0 
0.0 0.0 0.0 
-3.962907711814e-04 9.497026256569e-05 0.0 
9.497026256569e-05 9.706596251704e-04 0.0 
0.0 0.0 0.0 
2.844168347811e-04 4.653922947750e-04 0.0 
4.653922947750e-04 7.567617993748e-03 0.0 
0.0 0.0 0.0 
-2.559100803994e-04 1.754522921753e-04 0.0 
1.754522921753e-04 1.759676454382e-02 0.0 
0.0 0.0 0.0 
7.380302329341e-05 5.253738776798e-05 0.0 
5.253738776798e-05 7.461918155086e-03 0.0 
0.0 0.0 0.0 
-1.520397066519e-03 2.345279723998e-05 0.0 
2.345279723998e-05 1.495687421126e-02 0.0 
0.0 0.0 0.0 
6.625331631545e-04 1.484771763816e-03 0.0 
1.484771763816e-03 7.652851902783e-03 0.0 
0.0 0.0 0.0 
1.100875575665e-03 -1.964970217079e-05 0.0 
-1.964970217079e-05 2.401122535747e-04 0.0 
0.0 0.0 0.0 
-1.031204854058e-03 2.306155462614e-03 0.0 
2.306155462614e-03 1.669533229478e-02 0.0 
0.0 0.0 0.0 
4.605761799927e-04 -7.710723444822e-05 0.0 
-7.710723444822e-05 1.597973662459e-04 0.0 
0.0 0.0 0.0 
2.879525822759e-04 1.241251585996e-03 0.0 
1.241251585996e-03 8.173048787765e-03 0.0 
0.0 0.0 0.0 
-1.111872753327e-03 3.311964433178e-03 0.0 
3.311964433178e-03 1.590636718620e-02 0.0 
0.0 0.0 0.0 
-5.368277324167e-04 3.044278475252e-04 0.0 
3.044278475252e-04 6.966820159009e-04 0.0 
0.0 0.0 0.0 
1.178677079545e-03 3.717998933250e-03 0.0 
3.717998933250e-03 9.232293203885e-03 0.0 
0.0 0.0 0.0 
-1.221210024701e-03 1.772262797943e-04 0.0 
1.772262797943e-04 1.654963238887e-02 0.0 
0.0 0.0 0.0 
-3.598558000919e-04 9.822794309028e-04 0.0 
9.822794309028e-04 1.737504943844e-02 0.0 
0.0 0.0 0.0 
0.0 2.488759765348e-03 0.0 
2.488759765348e-03 9.990870782963e-03 0.0 
0.0 0.0 0.0 
-1.328496043657e-03 5.205826417594e-07 0.0 
5.205826417594e-07 1.607310577363e-02 0.0 
0.0 0.0 0.0 
2.783079045197e-04 4.717777876434e-03 0.0 
4.717777876434e-03 1.238771691023e-02 0.0 
0.0 0.0 0.0 
-1.457409131568e-03 2.837396606896e-03 0.0 
2.837396606896e-03 1.618864325922e-02 0.0 
0.0 0.0 0.0 
-1.225598696087e-03 1.260660326775e-04 0.0 
1.260660326775e-04 1.629278236143e-02 0.0 
0.0 0.0 0.0 
4.850725065020e-04 4.611416208673e-03 0.0 
4.611416208673e-03 1.179907062551e-02 0.0 
0.0 0.0 0.0 
9.945893956154e-05 -1.496076239589e-04 0.0 
-1.496076239589e-04 3.110040608814e-03 0.0 
0.0 0.0 0.0 
-1.564678594572e-03 -7.175130880075e-06 0.0 
-7.175130880075e-06 1.466687635794e-02 0.0 
0.0 0.0 0.0 
8.317986334165e-04 3.399476227613e-03 0.0 
3.399476227613e-03 9.557826025754e-03 0.0 
0.0 0.0 0.0 
-3.201630273141e-04 1.367215479937e-04 0.0 
1.367215479937e-04 1.744427955846e-02 0.0 
0.0 0.0 0.0 
1.633988891258e-03 -2.153385479254e-05 0.0 
-2.153385479254e-05 -5.918869727185e-04 0.0 
0.0 0.0 0.0 
-1.551404789748e-03 2.020404261267e-05 0.0 
2.020404261267e-05 1.468820004176e-02 0.0 
0.0 0.0 0.0 
6.680807795711e-05 4.261895708566e-06 0.0 
4.261895708566e-06 7.122100808308e-03 0.0 
0.0 0.0 0.0 
4.881806960784e-04 -1.600472329429e-04 0.0 
-1.600472329429e-04 1.039456158922e-03 0.0 
0.0 0.0 0.0 
1.042754838840e-03 1.848070347894e-03 0.0 
1.848070347894e-03 7.850278029947e-03 0.0 
0.0 0.0 0.0 
-1.578447645393e-03 3.295480947805e-03 0.0 
3.295480947805e-03 1.547049305195e-02 0.0 
0.0 0.0 0.0 
-6.418527408741e-04 8.652503592875e-04 0.0 
8.652503592875e-04 1.736599192347e-02 0.0 
0.0 0.0 0.0 
1.040910956752e-03 -5.214752909990e-05 0.0 
-5.214752909990e-05 5.693840183512e-04 0.0 
0.0 0.0 0.0 
-3.956359886823e-04 7.570114145557e-04 0.0 
7.570114145557e-04 1.607633785814e-03 0.0 
0.0 0.0 0.0 
-1.839264305403e-04 1.197276399191e-05 0.0 
1.197276399191e-05 4.601620370684e-03 0.0 
0.0 0.0 0.0 
-9.556600242432e-04 1.833852553643e-04 0.0 
1.833852553643e-04 1.684558877004e-02 0.0 
0.0 0.0 0.0 
-1.928323565276e-03 1.475767592322e-05 0.0 
1.475767592322e-05 9.789455038414e-04 0.0 
0.0 0.0 0.0 
-6.806546457075e-04 2.487020196245e-03 0.0 
2.487020196245e-03 1.674177213639e-02 0.0 
0.0 0.0 0.0 
-1.321268627387e-03 8.249324481979e-05 0.0 
8.249324481979e-05 1.597197143326e-02 0.0 
0.0 0.0 0.0 
1.075059221407e-03 -8.344868388549e-04 0.0 
-8.344868388549e-04 5.394739342433e-04 0.0 
0.0 0.0 0.0 
-1.443294892298e-03 9.957101846826e-05 0.0 
9.957101846826e-05 1.573924165619e-02 0.0 
0.0 0.0 0.0 
6.923649391533e-04 3.517060830816e-03 0.0 
3.517060830816e-03 1.026954916592e-02 0.0 
0.0 0.0 0.0 
-1.905241608059e-04 -5.847438289463e-05 0.0 
-5.847438289463e-05 4.789553609043e-03 0.0 
0.0 0.0 0.0 
-9.169078439140e-04 7.826660852848e-04 0.0 
7.826660852848e-04 8.937059682195e-04 0.0 
0.0 0.0 0.0 
1.254683225402e-04 -1.589917774777e-04 0.0 
-1.589917774777e-04 2.788058697819e-03 0.0 
0.0 0.0 0.0 
-9.929447944801e-05 -2.048777488211e-04 0.0 
-2.048777488211e-04 4.199989939089e-03 0.0 
0.0 0.0 0.0 
-1.984315476635e-04 1.971185705949e-05 0.0 
1.971185705949e-05 4.962627343905e-03 0.0 
0.0 0.0 0.0 
8.804132590658e-04 2.897812911566e-03 0.0 
2.897812911566e-03 8.982966445881e-03 0.0 
0.0 0.0 0.0 
-1.277312962191e-04 -1.192295295038e-04 0.0 
-1.192295295038e-04 4.110736215495e-03 0.0 
0.0 0.0 0.0 
-1.365009246044e-04 -1.393595870239e-04 0.0 
-1.393595870239e-04 4.375619939482e-03 0.0 
0.0 0.0 0.0 
3.841660710753e-04 -1.805539192944e-04 0.0 
-1.805539192944e-04 4.057474091363e-04 0.0 
0.0 0.0 0.0 
3.560368839983e-04 3.786497750792e-04 0.0 
3.786497750792e-04 7.121782281984e-03 0.0 
0.0 0.0 0.0 
1.021014664935e-03 4.156039243889e-03 0.0 
4.156039243889e-03 9.943151642027e-03 0.0 
0.0 0.0 0.0 
8.503334562016e-05 7.971135348730e-04 0.0 
7.971135348730e-04 1.655071564264e-03 0.0 
0.0 0.0 0.0 
-2.652118149646e-04 1.276850960260e-04 0.0 
1.276850960260e-04 1.743756859841e-02 0.0 
0.0 0.0 0.0 
8.693248489333e-05 5.285457176944e-05 0.0 
5.285457176944e-05 7.107218110279e-03 0.0 
0.0 0.0 0.0 
-1.545171913473e-03 -2.265970142139e-05 0.0 
-2.265970142139e-05 1.498255770264e-02 0.0 
0.0 0.0 0.0 
-1.378391420298e-03 7.172867416384e-05 0.0 
7.172867416384e-05 1.597242852037e-02 0.0 
0.0 0.0 0.0 
-1.045287238985e-04 -1.488737664851e-04 0.0 
-1.488737664851e-04 4.113970713658e-03 0.0 
0.0 0.0 0.0 
-1.118093100161e-04 -1.595519608946e-04 0.0 
-1.595519608946e-04 4.178637672643e-03 0.0 
0.0 0.0 0.0 
-1.356065241801e-04 -1.153457160931e-04 0.0 
-1.153457160931e-04 4.359056780579e-03 0.0 
0.0 0.0 0.0 
1.164212034930e-03 1.910390608020e-03 0.0 
1.910390608020e-03 7.347300631642e-03 0.0 
0.0 0.0 0.0 
9.666575069485e-04 -6.414405112677e-04 0.0 
-6.414405112677e-04 5.389313663493e-04 0.0 
0.0 0.0 0.0 
8.911309031163e-04 4.243895393491e-03 0.0 
4.243895393491e-03 1.064287584669e-02 0.0 
0.0 0.0 0.0 
-1.468142882275e-03 4.365272560224e-05 0.0 
4.365272560224e-05 1.532812544379e-02 0.0 
0.0 0.0 0.0 
-1.085750713033e-03 2.362736658545e-03 0.0 
2.362736658545e-03 1.682149557754e-02 0.0 
0.0 0.0 0.0 
1.037796452845e-03 1.778104406034e-03 0.0 
1.778104406034e-03 7.331325026993e-03 0.0 
0.0 0.0 0.0 
-1.518670521667e-03 9.099079837443e-05 0.0 
9.099079837443e-05 1.574761060926e-02 0.0 
0.0 0.0 0.0 
5.503266507458e-04 4.600974528004e-03 0.0 
4.600974528004e-03 1.151233019922e-02 0.0 
0.0 0.0 0.0 
8.281446780385e-04 2.950184692268e-03 0.0 
2.950184692268e-03 8.966024626453e-03 0.0 
0.0 0.0 0.0 
7.445374014834e-04 3.092198478600e-03 0.0 
3.092198478600e-03 9.721551285135e-03 0.0 
0.0 0.0 0.0 
-7.461315566653e-04 8.752823862809e-04 0.0 
8.752823862809e-04 8.642722155972e-04 0.0 
0.0 0.0 0.0 
5.175219341884e-04 4.562446046154e-03 0.0 
4.562446046154e-03 1.151670510700e-02 0.0 
0.0 0.0 0.0 
6.655229761630e-04 4.718114273742e-03 0.0 
4.718114273742e-03 1.143903872786e-02 0.0 
0.0 0.0 0.0 
4.783123157284e-04 -1.697350941795e-04 0.0 
-1.697350941795e-04 3.928088122302e-04 0.0 
0.0 0.0 0.0 
-7.665364568410e-05 -1.640667421063e-04 0.0 
-1.640667421063e-04 3.865210680547e-03 0.0 
0.0 0.0 0.0 
-8.587442624692e-04 6.478480062072e-04 0.0 
6.478480062072e-04 1.023258965916e-03 0.0 
0.0 0.0 0.0 
4.270023695907e-04 4.767776926783e-03 0.0 
4.767776926783e-03 1.205386012216e-02 0.0 
0.0 0.0 0.0 

TENSORS element_materi_strain_plasti float
-2.080688902453e-04 1.842712933258e-03 0.0 
1.842712933258e-03 2.547882841752e-03 0.0 
0.0 0.0 -4.220722639049e-04 
-1.968331410813e-04 1.045379515243e-03 0.0 
1.045379515243e-03 2.325909515377e-03 0.0 
0.0 0.0 -4.303330772826e-04 
3.437280661002e-05 1.782733539266e-03 0.0 
1.782733539266e-03 7.047042283680e-03 0.0 
0.0 0.0 -1.160441789761e-03 
-1.261464826866e-03 -1.747915258517e-04 0.0 
-1.747915258517e-04 8.480496286503e-03 0.0 
0.0 0.0 -1.255598393855e-03 
-7.983281552709e-04 2.303090028114e-04 0.0 
2.303090028114e-04 5.254489729699e-03 0.0 
0.0 0.0 -7.961861350945e-04 
-2.059346616286e-04 2.207607006016e-04 0.0 
2.207607006016e-04 1.009101900263e-03 0.0 
0.0 0.0 -1.793459522598e-04 
-7.878967474187e-04 2.695248863587e-04 0.0 
2.695248863587e-04 5.204562819075e-03 0.0 
0.0 0.0 -8.011023898636e-04 
-1.394695119941e-04 1.569259350917e-03 0.0 
1.569259350917e-03 2.414052885813e-03 0.0 
0.0 0.0 -4.045669272905e-04 
-8.029485881418e-04 -2.877766516214e-04 0.0 
-2.877766516214e-04 5.280709952101e-03 0.0 
0.0 0.0 -7.977904104816e-04 
-1.248589478216e-03 2.242094407414e-04 0.0 
2.242094407414e-04 8.399546616313e-03 0.0 
0.0 0.0 -1.253060141438e-03 
-8.734217399944e-04 1.452515266670e-04 0.0 
1.452515266670e-04 5.615795489737e-03 0.0 
0.0 0.0 -7.731281574266e-04 
-2.635374595134e-04 8.967970645026e-04 0.0 
8.967970645026e-04 2.036083297566e-03 0.0 
0.0 0.0 -3.735031833740e-04 
-7.298361489295e-04 2.156172637561e-04 0.0 
2.156172637561e-04 7.701350477459e-03 0.0 
0.0 0.0 -8.518558052271e-04 
-8.479147549375e-04 1.860153946804e-04 0.0 
1.860153946804e-04 5.638680799524e-03 0.0 
0.0 0.0 -8.526168115438e-04 
-8.085776861301e-04 -1.714779754180e-04 0.0 
-1.714779754180e-04 7.889291793145e-03 0.0 
0.0 0.0 -8.623312339079e-04 
-1.301181403367e-03 2.039645816311e-04 0.0 
2.039645816311e-04 8.626062176419e-03 0.0 
0.0 0.0 -1.285984941237e-03 
-7.889097476292e-04 4.689353054445e-06 0.0 
4.689353054445e-06 5.256085596916e-03 0.0 
0.0 0.0 -7.740676797406e-04 
-1.741032192830e-04 -1.984587543236e-04 0.0 
-1.984587543236e-04 9.106845467383e-04 0.0 
0.0 0.0 -1.826237857505e-04 
5.053612572900e-04 -6.377733903350e-05 0.0 
-6.377733903350e-05 9.929824434240e-04 0.0 
0.0 0.0 -2.776016825098e-04 
2.856262142357e-04 7.685841117888e-05 0.0 
7.685841117888e-05 1.057154130188e-03 0.0 
0.0 0.0 -3.031105466646e-04 
-1.236978180346e-03 -2.273342210413e-04 0.0 
-2.273342210413e-04 8.474882909105e-03 0.0 
0.0 0.0 -1.250388265701e-03 
-2.423916260766e-04 1.748722936630e-03 0.0 
1.748722936630e-03 2.702062142358e-03 0.0 
0.0 0.0 -4.811142067971e-04 
-2.575188931089e-04 2.187942622448e-03 0.0 
2.187942622448e-03 3.064287595775e-03 0.0 
0.0 0.0 -5.091556215902e-04 
-1.577170870179e-05 2.237216321888e-04 0.0 
2.237216321888e-04 6.742608136418e-03 0.0 
0.0 0.0 -9.030440691164e-04 
-9.004893154001e-04 2.196977328252e-04 0.0 
2.196977328252e-04 6.011080091783e-03 0.0 
0.0 0.0 -9.130988374533e-04 
-9.174605558212e-04 -1.460263730747e-04 0.0 
-1.460263730747e-04 6.007693690132e-03 0.0 
0.0 0.0 -7.632177339088e-04 
-1.206354524116e-03 6.324601735090e-04 0.0 
6.324601735090e-04 5.358325379832e-03 0.0 
0.0 0.0 -7.148082707961e-04 
3.705664294887e-04 1.432345746146e-03 0.0 
1.432345746146e-03 6.923983411131e-03 0.0 
0.0 0.0 -1.038064865294e-03 
-9.084778585211e-04 -2.532626103826e-04 0.0 
-2.532626103826e-04 6.055345996359e-03 0.0 
0.0 0.0 -9.113908267906e-04 
-1.610820562373e-04 4.514638135009e-04 0.0 
4.514638135009e-04 7.036336157326e-03 0.0 
0.0 0.0 -9.120545558055e-04 
-2.162503473685e-04 3.355180743601e-05 0.0 
3.355180743601e-05 1.390767343688e-03 0.0 
0.0 0.0 -2.185975924268e-04 
-1.102777646678e-04 3.092462500305e-05 0.0 
3.092462500305e-05 6.008114765358e-04 0.0 
0.0 0.0 -1.059755802940e-04 
-3.398224369821e-04 1.516244131615e-03 0.0 
1.516244131615e-03 7.675258001124e-03 0.0 
0.0 0.0 -1.129786335281e-03 
-9.619058383447e-04 -1.820614465066e-04 0.0 
-1.820614465066e-04 6.887314527687e-03 0.0 
0.0 0.0 -8.021977313155e-04 
-5.429150369864e-04 -1.025921385618e-04 0.0 
-1.025921385618e-04 7.546716459292e-03 0.0 
0.0 0.0 -8.806066694815e-04 
-7.001401561832e-04 4.182730588977e-04 0.0 
4.182730588977e-04 8.023373190059e-03 0.0 
0.0 0.0 -8.871628645797e-04 
-7.988118777934e-04 -3.554537492102e-04 0.0 
-3.554537492102e-04 8.105844196446e-03 0.0 
0.0 0.0 -8.819288649224e-04 
1.598878483960e-06 8.162322081874e-04 0.0 
8.162322081874e-04 7.005947090879e-03 0.0 
0.0 0.0 -9.646553926179e-04 
-7.261695585195e-04 -3.174047361399e-04 0.0 
-3.174047361399e-04 4.739951691414e-03 0.0 
0.0 0.0 -7.380763454961e-04 
-7.293562810949e-04 3.567993421671e-04 0.0 
3.567993421671e-04 4.808642079977e-03 0.0 
0.0 0.0 -7.371174501546e-04 
-3.066249265860e-04 3.406956949424e-03 0.0 
3.406956949424e-03 3.512674133956e-03 0.0 
0.0 0.0 -5.794556523337e-04 
-6.344027661084e-04 1.337831422034e-04 0.0 
1.337831422034e-04 7.595119082452e-03 0.0 
0.0 0.0 -9.024950628887e-04 
-2.409145389656e-04 7.749433858156e-04 0.0 
7.749433858156e-04 1.841679798655e-03 0.0 
0.0 0.0 -3.207852484642e-04 
-1.123429096309e-03 6.904755265791e-04 0.0 
6.904755265791e-04 5.029747178163e-03 0.0 
0.0 0.0 -7.350059072715e-04 
-1.225055898073e-03 -9.816574622226e-05 0.0 
-9.816574622226e-05 8.293394798268e-03 0.0 
0.0 0.0 -1.212858513926e-03 
-2.644208291950e-04 1.125292207914e-04 0.0 
1.125292207914e-04 1.861735933909e-03 0.0 
0.0 0.0 -3.198426158856e-04 
-1.782809379457e-04 -4.378063603026e-06 0.0 
-4.378063603026e-06 7.801372807212e-04 0.0 
0.0 0.0 -1.830859565219e-04 
-1.220501464306e-03 6.316947048498e-05 0.0 
6.316947048498e-05 8.106622909265e-03 0.0 
0.0 0.0 -1.234743356787e-03 
-9.829459878544e-05 4.583948434499e-06 0.0 
4.583948434499e-06 3.276774367732e-04 0.0 
0.0 0.0 -9.830693056618e-05 
-8.022047642295e-04 -1.811997065716e-04 0.0 
-1.811997065716e-04 5.439298518069e-03 0.0 
0.0 0.0 -8.229436299569e-04 
-2.578078950956e-04 2.857169359993e-03 0.0 
2.857169359993e-03 3.281623475784e-03 0.0 
0.0 0.0 -5.440916476828e-04 
2.497634791641e-04 -3.642152694993e-05 0.0 
-3.642152694993e-05 1.659426452935e-03 0.0 
0.0 0.0 -3.443810396915e-04 
6.627327694473e-04 -5.327775583718e-04 0.0 
-5.327775583718e-04 8.442259625776e-04 0.0 
0.0 0.0 -3.047895897720e-04 
-2.002463246417e-04 2.986215193116e-03 0.0 
2.986215193116e-03 3.076560973301e-03 0.0 
0.0 0.0 -5.489460876789e-04 
-1.111739268287e-03 2.212445799866e-04 0.0 
2.212445799866e-04 8.284255354464e-03 0.0 
0.0 0.0 -1.232895033956e-03 
-2.849012025347e-04 -1.469266562245e-04 0.0 
-1.469266562245e-04 2.762682723974e-03 0.0 
0.0 0.0 -4.512233509908e-04 
3.340529194242e-05 1.215126896718e-04 0.0 
1.215126896718e-04 1.732674938422e-03 0.0 
0.0 0.0 -3.694212080277e-04 
-8.602608165734e-04 1.730260513531e-04 0.0 
1.730260513531e-04 6.856947318402e-03 0.0 
0.0 0.0 -8.030793190272e-04 
5.262180162752e-04 1.038021958418e-05 0.0 
1.038021958418e-05 6.081161379679e-04 0.0 
0.0 0.0 -2.189683579105e-04 
-1.291565119731e-03 -2.058202376931e-04 0.0 
-2.058202376931e-04 8.638287399565e-03 0.0 
0.0 0.0 -1.285320035817e-03 
-9.406322495136e-05 -1.263405609949e-04 0.0 
-1.263405609949e-04 5.178868060054e-04 0.0 
0.0 0.0 -9.532668554595e-05 
5.619107564696e-04 1.436412243305e-03 0.0 
1.436412243305e-03 6.196081358618e-03 0.0 
0.0 0.0 -9.873895057909e-04 
2.582040586946e-04 1.731943799565e-03 0.0 
1.731943799565e-03 2.658392187468e-03 0.0 
0.0 0.0 -5.497085007362e-04 
4.145602907442e-04 -9.632444552810e-05 0.0 
-9.632444552810e-05 9.170569852587e-04 0.0 
0.0 0.0 -2.769417647402e-04 
-7.543609028382e-04 -1.692156619239e-04 0.0 
-1.692156619239e-04 7.713835473584e-03 0.0 
0.0 0.0 -8.541368720167e-04 
-2.458642677851e-04 2.201725868896e-03 0.0 
2.201725868896e-03 2.893115809166e-03 0.0 
0.0 0.0 -5.137572693775e-04 
-6.027079853017e-05 4.538885378714e-05 0.0 
4.538885378714e-05 2.053936984272e-04 0.0 
0.0 0.0 -6.219552852730e-05 
5.088950174062e-05 1.967102299179e-03 0.0 
1.967102299179e-03 7.273851985447e-03 0.0 
0.0 0.0 -1.124596691610e-03 
2.290650272761e-04 -4.734155689956e-04 0.0 
-4.734155689956e-04 9.248807187424e-04 0.0 
0.0 0.0 -2.404310120911e-04 
2.454046378069e-04 1.657794207485e-03 0.0 
1.657794207485e-03 6.812971121485e-03 0.0 
0.0 0.0 -1.087852208640e-03 
-8.458554512160e-04 -1.741372563799e-04 0.0 
-1.741372563799e-04 6.129463838105e-03 0.0 
0.0 0.0 -7.622671539104e-04 
-8.681475892995e-04 3.885201745564e-04 0.0 
3.885201745564e-04 8.358284744278e-03 0.0 
0.0 0.0 -1.325124946542e-03 
3.666600464483e-04 1.381692266887e-03 0.0 
1.381692266887e-03 6.389715963786e-03 0.0 
0.0 0.0 -1.023702972955e-03 
8.612215503878e-04 8.322733040025e-05 0.0 
8.322733040025e-05 -4.305552560120e-04 0.0 
0.0 0.0 -1.295286970291e-04 
-4.523039474478e-04 1.486245212638e-04 0.0 
1.486245212638e-04 2.915332216903e-03 0.0 
0.0 0.0 -4.777371989943e-04 
-1.254133957623e-03 -1.731664304592e-04 0.0 
-1.731664304592e-04 8.495066883004e-03 0.0 
0.0 0.0 -1.262626981217e-03 
-1.265758962881e-03 7.056257709610e-05 0.0 
7.056257709610e-05 8.631031767751e-03 0.0 
0.0 0.0 -1.182815537906e-03 
-2.500278062252e-04 -1.904083940434e-04 0.0 
-1.904083940434e-04 1.447205075698e-03 0.0 
0.0 0.0 -2.510564503189e-04 
-1.082999463119e-04 -1.912571079064e-05 0.0 
-1.912571079064e-05 1.013814341709e-03 0.0 
0.0 0.0 -2.366757893512e-04 
-2.536210514899e-04 2.570584772571e-04 0.0 
2.570584772571e-04 1.426223409997e-03 0.0 
0.0 0.0 -2.525559601288e-04 
4.303023923293e-04 -2.191398445419e-04 0.0 
-2.191398445419e-04 6.293868291780e-04 0.0 
0.0 0.0 -2.439992467140e-04 
-7.756433689863e-04 3.199927864594e-05 0.0 
3.199927864594e-05 4.983308918424e-03 0.0 
0.0 0.0 -7.918363975426e-04 
-2.428000992550e-04 1.860977554101e-03 0.0 
1.860977554101e-03 2.872695665050e-03 0.0 
0.0 0.0 -4.749402310763e-04 
-3.061300552219e-04 1.170382379255e-03 0.0 
1.170382379255e-03 2.469510123582e-03 0.0 
0.0 0.0 -4.438329512050e-04 
-8.539707940099e-04 -2.466642961344e-04 0.0 
-2.466642961344e-04 5.506675063211e-03 0.0 
0.0 0.0 -8.336771054075e-04 
-8.435305426984e-04 2.228252034013e-04 0.0 
2.228252034013e-04 5.474459253188e-03 0.0 
0.0 0.0 -8.358076868167e-04 
-9.422666695445e-04 -1.851551102796e-04 0.0 
-1.851551102796e-04 6.319327952107e-03 0.0 
0.0 0.0 -7.733711462664e-04 
-1.013059965277e-03 1.901888786354e-04 0.0 
1.901888786354e-04 6.805274239409e-03 0.0 
0.0 0.0 -7.931443570665e-04 
-1.087556198862e-03 -2.099876550133e-04 0.0 
-2.099876550133e-04 7.325766427452e-03 0.0 
0.0 0.0 -1.085941371602e-03 
-7.938707313230e-04 -2.935700947946e-04 0.0 
-2.935700947946e-04 5.166210845136e-03 0.0 
0.0 0.0 -7.983229688164e-04 
-9.891997245648e-05 3.705985749017e-05 0.0 
3.705985749017e-05 3.315907805063e-04 0.0 
0.0 0.0 -9.971606059277e-05 
-7.885073175136e-04 2.083610238624e-05 0.0 
2.083610238624e-05 5.061448418496e-03 0.0 
0.0 0.0 -7.928983479555e-04 
-1.080416093341e-03 -1.102030882255e-04 0.0 
-1.102030882255e-04 7.033104683541e-03 0.0 
0.0 0.0 -1.069439317440e-03 
-1.045886068578e-03 1.124481538708e-04 0.0 
1.124481538708e-04 7.095766026652e-03 0.0 
0.0 0.0 -1.046447409317e-03 
-1.331383099026e-03 2.041238885483e-06 0.0 
2.041238885483e-06 9.062137660872e-03 0.0 
0.0 0.0 -1.270790267558e-03 
-2.566664990414e-04 4.754677662848e-04 0.0 
4.754677662848e-04 7.492329203846e-03 0.0 
0.0 0.0 -9.819379191957e-04 
-7.712114504191e-04 -1.098703338913e-04 0.0 
-1.098703338913e-04 4.988523523052e-03 0.0 
0.0 0.0 -7.889745663688e-04 
-4.234076817808e-04 1.559843026151e-04 0.0 
1.559843026151e-04 7.635984864606e-03 0.0 
0.0 0.0 -8.929232057317e-04 
-8.948346215206e-04 -1.546261929541e-04 0.0 
-1.546261929541e-04 5.902983939671e-03 0.0 
0.0 0.0 -9.040008563810e-04 
5.221509963356e-04 2.461380655709e-03 0.0 
2.461380655709e-03 2.349687778071e-03 0.0 
0.0 0.0 -5.198799001330e-04 
-7.537468891923e-04 -1.811454266392e-04 0.0 
-1.811454266392e-04 5.032849217033e-03 0.0 
0.0 0.0 -7.643292725053e-04 
-7.432725948407e-04 1.899392599025e-04 0.0 
1.899392599025e-04 7.832447354512e-03 0.0 
0.0 0.0 -8.644757291750e-04 
1.681321935204e-03 1.457470224120e-03 0.0 
1.457470224120e-03 4.195628357465e-03 0.0 
0.0 0.0 -9.167386608396e-04 
5.560984606598e-04 1.036441883683e-03 0.0 
1.036441883683e-03 6.247598787774e-03 0.0 
0.0 0.0 -9.847202251643e-04 
4.573722194580e-04 1.145712136977e-03 0.0 
1.145712136977e-03 2.112916373421e-03 0.0 
0.0 0.0 -4.747543016519e-04 
-1.600906628411e-04 5.774618246658e-05 0.0 
5.774618246658e-05 1.025327310925e-03 0.0 
0.0 0.0 -1.624897275554e-04 
-7.837642889054e-04 -1.957692875090e-04 0.0 
-1.957692875090e-04 7.348817894922e-03 0.0 
0.0 0.0 -8.298129540966e-04 
-1.119764034804e-03 7.291963016832e-05 0.0 
7.291963016832e-05 7.561876066394e-03 0.0 
0.0 0.0 -1.108790581071e-03 
-1.060815689674e-04 -4.441233851545e-05 0.0 
-4.441233851545e-05 6.067820639570e-04 0.0 
0.0 0.0 -1.038131581323e-04 
-7.940966440662e-04 -6.097223324665e-05 0.0 
-6.097223324665e-05 7.769889918978e-03 0.0 
0.0 0.0 -8.716501815802e-04 
-1.054610615232e-03 1.830679382237e-04 0.0 
1.830679382237e-04 6.961937164300e-03 0.0 
0.0 0.0 -1.051491716222e-03 
9.164971649247e-04 -8.484129514817e-05 0.0 
-8.484129514817e-05 -2.811760505083e-04 0.0 
0.0 0.0 -2.531495325151e-04 
3.634215809305e-04 1.022289819624e-03 0.0 
1.022289819624e-03 3.030757962879e-03 0.0 
0.0 0.0 -6.309931931857e-04 
-9.056056425165e-04 2.485021321940e-03 0.0 
2.485021321940e-03 4.904513061768e-03 0.0 
0.0 0.0 -7.153918394734e-04 
-5.826588176687e-04 -7.135686322053e-05 0.0 
-7.135686322053e-05 3.565625895428e-03 0.0 
0.0 0.0 -5.772375537024e-04 
6.101898896510e-04 2.581217611769e-03 0.0 
2.581217611769e-03 1.906162695460e-03 0.0 
0.0 0.0 -4.852398935310e-04 
3.143092921749e-04 1.397195797906e-03 0.0 
1.397195797906e-03 2.658772009453e-03 0.0 
0.0 0.0 -5.471823052058e-04 
-6.324805410216e-04 1.862961711331e-04 0.0 
1.862961711331e-04 7.646336831067e-03 0.0 
0.0 0.0 -8.914253635351e-04 
-8.570047827625e-04 1.861607891453e-04 0.0 
1.861607891453e-04 5.815261551137e-03 0.0 
0.0 0.0 -8.766975940251e-04 
4.368689419865e-04 1.819070101932e-03 0.0 
1.819070101932e-03 2.287304355257e-03 0.0 
0.0 0.0 -5.122473358773e-04 
-1.632170698993e-04 -2.647473697214e-04 0.0 
-2.647473697214e-04 1.275215787391e-03 0.0 
0.0 0.0 -2.295267891405e-04 
-7.623542819020e-04 1.283036037402e-04 0.0 
1.283036037402e-04 5.225810972112e-03 0.0 
0.0 0.0 -7.744920945421e-04 
-1.103870852233e-03 -9.179179606005e-05 0.0 
-9.179179606005e-05 7.387674560017e-03 0.0 
0.0 0.0 -1.129288753466e-03 
4.192671776793e-04 1.293367606547e-03 0.0 
1.293367606547e-03 2.332437998362e-03 0.0 
0.0 0.0 -5.109724225979e-04 
-1.701414425471e-04 -1.534722166073e-04 0.0 
-1.534722166073e-04 9.835208087659e-04 0.0 
0.0 0.0 -1.803716510945e-04 
-5.399449595537e-04 3.991699860507e-03 0.0 
3.991699860507e-03 4.147265738551e-03 0.0 
0.0 0.0 -6.470401313398e-04 
-5.444302030717e-04 6.742832608719e-05 0.0 
6.742832608719e-05 3.702816070538e-03 0.0 
0.0 0.0 -5.578851714504e-04 
-4.057309012781e-04 3.950647547392e-03 0.0 
3.950647547392e-03 3.717168749381e-03 0.0 
0.0 0.0 -6.167189930164e-04 
-1.291653437089e-03 1.656662026680e-04 0.0 
1.656662026680e-04 8.654933890924e-03 0.0 
0.0 0.0 -1.290671971449e-03 
-2.237296866695e-04 1.772304597236e-04 0.0 
1.772304597236e-04 1.151710267161e-03 0.0 
0.0 0.0 -2.092271396208e-04 
-8.975322913525e-04 1.629221273371e-04 0.0 
1.629221273371e-04 5.863689237260e-03 0.0 
0.0 0.0 -7.619060114261e-04 
-1.271942419784e-03 2.295590735455e-04 0.0 
2.295590735455e-04 8.471227576744e-03 0.0 
0.0 0.0 -1.256690274141e-03 
-6.467961275807e-04 2.146551101817e-04 0.0 
2.146551101817e-04 4.225590569610e-03 0.0 
0.0 0.0 -6.588732905211e-04 
-3.933677029047e-04 3.881854628754e-03 0.0 
3.881854628754e-03 3.807725135295e-03 0.0 
0.0 0.0 -6.139229799761e-04 
-4.402918338504e-04 3.512195678555e-04 0.0 
3.512195678555e-04 7.442865373106e-03 0.0 
0.0 0.0 -8.863661439020e-04 
-7.797897633317e-04 -2.503959536712e-04 0.0 
-2.503959536712e-04 7.765060888851e-03 0.0 
0.0 0.0 -8.499032526346e-04 
-8.113503009164e-04 1.657072728502e-04 0.0 
1.657072728502e-04 6.227600396874e-03 0.0 
0.0 0.0 -7.782204460735e-04 
-6.685381474529e-04 -9.598256149750e-05 0.0 
-9.598256149750e-05 4.527452003921e-03 0.0 
0.0 0.0 -6.916138708610e-04 
-2.844688755509e-04 3.458853088241e-04 0.0 
3.458853088241e-04 7.520442155334e-03 0.0 
0.0 0.0 -9.175134319277e-04 
-4.243634287711e-04 9.990697066311e-04 0.0 
9.990697066311e-04 3.849259204501e-03 0.0 
0.0 0.0 -6.326048069937e-04 
-1.254086704545e-03 -7.990901772505e-06 0.0 
-7.990901772505e-06 8.463054394801e-03 0.0 
0.0 0.0 -1.283174495648e-03 
5.425593688231e-04 2.158193022908e-03 0.0 
2.158193022908e-03 6.780464058168e-03 0.0 
0.0 0.0 -1.093064647765e-03 
-8.565153591280e-04 -2.695301549171e-04 0.0 
-2.695301549171e-04 5.568894745570e-03 0.0 
0.0 0.0 -8.543707170918e-04 
-9.713226980400e-04 1.946342578752e-04 0.0 
1.946342578752e-04 6.532485670191e-03 0.0 
0.0 0.0 -9.817831382938e-04 
-2.656935593947e-04 1.175938227866e-03 0.0 
1.175938227866e-03 3.747259776681e-03 0.0 
0.0 0.0 -6.293189184696e-04 
-2.642712060204e-04 3.636797634591e-03 0.0 
3.636797634591e-03 3.363494585943e-03 0.0 
0.0 0.0 -5.830241378053e-04 
-7.249782629771e-04 1.809288523893e-04 0.0 
1.809288523893e-04 4.673091201127e-03 0.0 
0.0 0.0 -7.211932326589e-04 
1.607938165671e-04 6.899660699587e-04 0.0 
6.899660699587e-04 2.811931698401e-03 0.0 
0.0 0.0 -5.383041810906e-04 
-7.661110268238e-04 -1.968496736507e-04 0.0 
-1.968496736507e-04 5.166653984338e-03 0.0 
0.0 0.0 -7.693993191400e-04 
3.276603015013e-04 5.629440749218e-04 0.0 
5.629440749218e-04 3.142207795786e-03 0.0 
0.0 0.0 -6.275039421266e-04 
-9.046107145188e-05 -7.326081393839e-05 0.0 
-7.326081393839e-05 3.093039216748e-04 0.0 
0.0 0.0 -9.378979295270e-05 
-8.218888591145e-04 -1.362265050326e-05 0.0 
-1.362265050326e-05 5.568518320124e-03 0.0 
0.0 0.0 -8.171079392438e-04 
5.143023016134e-04 -3.912619974447e-06 0.0 
-3.912619974447e-06 4.132321754053e-04 0.0 
0.0 0.0 -2.373169254524e-04 
-7.305694412127e-04 3.489553122420e-03 0.0 
3.489553122420e-03 4.541600182820e-03 0.0 
0.0 0.0 -6.809683978454e-04 
-5.812532848972e-04 1.877216989507e-04 0.0 
1.877216989507e-04 7.566558946265e-03 0.0 
0.0 0.0 -9.164340803626e-04 
5.377197646509e-04 1.748792829166e-03 0.0 
1.748792829166e-03 1.980969990762e-03 0.0 
0.0 0.0 -4.767992880414e-04 
-9.377468024395e-04 1.974752217968e-04 0.0 
1.974752217968e-04 6.530905108214e-03 0.0 
0.0 0.0 -7.850855084381e-04 
-2.645639964009e-04 3.483708254592e-04 0.0 
3.483708254592e-04 2.063729767905e-03 0.0 
0.0 0.0 -3.540742325023e-04 
1.771692669130e-03 1.917610945805e-03 0.0 
1.917610945805e-03 4.070146324364e-03 0.0 
0.0 0.0 -9.227563752164e-04 
-8.013630412540e-04 6.389824081856e-06 0.0 
6.389824081856e-06 5.002686662292e-03 0.0 
0.0 0.0 -7.899655494116e-04 
4.466537212836e-04 9.488733827057e-04 0.0 
9.488733827057e-04 2.745733352276e-03 0.0 
0.0 0.0 -5.931463391684e-04 
-8.154918125544e-04 -2.145243692397e-04 0.0 
-2.145243692397e-04 6.998079730646e-03 0.0 
0.0 0.0 -8.093295638338e-04 
-4.854702642206e-05 7.456718481957e-05 0.0 
7.456718481957e-05 1.072236009578e-03 0.0 
0.0 0.0 -2.346376350630e-04 
-7.060400030073e-04 2.052626372519e-04 0.0 
2.052626372519e-04 7.276479414642e-03 0.0 
0.0 0.0 -8.329115410691e-04 
-7.770557330010e-04 1.799043213504e-04 0.0 
1.799043213504e-04 5.036915018676e-03 0.0 
0.0 0.0 -7.711223959738e-04 
-6.620784199502e-04 3.533076528736e-05 0.0 
3.533076528736e-05 7.836878760894e-03 0.0 
0.0 0.0 -8.602836499200e-04 
-7.886647595985e-04 2.426638412845e-05 0.0 
2.426638412845e-05 5.002569468986e-03 0.0 
0.0 0.0 -7.842605076999e-04 
2.196716664055e-04 9.566803810225e-04 0.0 
9.566803810225e-04 2.404010529639e-03 0.0 
0.0 0.0 -5.042822341261e-04 
-8.623074856332e-04 3.058064244399e-03 0.0 
3.058064244399e-03 4.584058009915e-03 0.0 
0.0 0.0 -6.840799553763e-04 
-9.007935961017e-04 -1.250353814200e-04 0.0 
-1.250353814200e-04 5.824245779470e-03 0.0 
0.0 0.0 -7.497459542436e-04 
-2.413049329167e-04 1.173551767893e-03 0.0 
1.173551767893e-03 2.126380396191e-03 0.0 
0.0 0.0 -3.514598124168e-04 
3.979756418175e-04 4.694524043224e-04 0.0 
4.694524043224e-04 2.853159863627e-03 0.0 
0.0 0.0 -5.911455407098e-04 
-1.021044424836e-03 -2.319523584093e-04 0.0 
-2.319523584093e-04 6.800629387681e-03 0.0 
0.0 0.0 -1.016465148841e-03 
-7.832948860764e-04 1.542506256291e-04 0.0 
1.542506256291e-04 5.221219062028e-03 0.0 
0.0 0.0 -7.680022369673e-04 
2.731164648737e-04 9.508467548207e-04 0.0 
9.508467548207e-04 2.723305708706e-03 0.0 
0.0 0.0 -5.666226778950e-04 
-6.393552137882e-04 3.693914985657e-03 0.0 
3.693914985657e-03 4.142147607092e-03 0.0 
0.0 0.0 -6.498546761489e-04 
7.923293667255e-04 2.488046884752e-03 0.0 
2.488046884752e-03 5.605225486866e-03 0.0 
0.0 0.0 -1.045149051481e-03 
-6.147120524688e-04 -5.755990668763e-05 0.0 
-5.755990668763e-05 4.170257196176e-03 0.0 
0.0 0.0 -6.189190723244e-04 
-1.223186305901e-05 1.108177542741e-03 0.0 
1.108177542741e-03 7.044860354487e-03 0.0 
0.0 0.0 -1.032160110847e-03 
5.466921211751e-04 1.905930052097e-03 0.0 
1.905930052097e-03 6.774321430147e-03 0.0 
0.0 0.0 -1.078770172216e-03 
2.220383447906e-04 2.182358042688e-03 0.0 
2.182358042688e-03 2.289215896403e-03 0.0 
0.0 0.0 -4.595713030950e-04 
-6.193411254739e-04 7.190453835516e-05 0.0 
7.190453835516e-05 3.976368456989e-03 0.0 
0.0 0.0 -6.385407451345e-04 
4.828621748316e-04 4.072009460776e-04 0.0 
4.072009460776e-04 5.949965134383e-03 0.0 
0.0 0.0 -8.970301792042e-04 
-1.259453779577e-04 2.520495850738e-03 0.0 
2.520495850738e-03 3.463563889742e-03 0.0 
0.0 0.0 -6.037256927378e-04 
1.912012696218e-04 1.878165741948e-03 0.0 
1.878165741948e-03 1.896412616390e-03 0.0 
0.0 0.0 -4.251746348339e-04 
-7.492101616993e-04 1.773144067430e-04 0.0 
1.773144067430e-04 4.849787455535e-03 0.0 
0.0 0.0 -7.443430781256e-04 
1.960258474216e-04 6.762819189630e-04 0.0 
6.762819189630e-04 3.154222574438e-03 0.0 
0.0 0.0 -6.011186688906e-04 
-1.288763796550e-03 1.231833412492e-04 0.0 
1.231833412492e-04 8.478545606423e-03 0.0 
0.0 0.0 -1.279059907835e-03 
-1.060544670799e-03 1.938342500095e-04 0.0 
1.938342500095e-04 7.027045279308e-03 0.0 
0.0 0.0 -1.060691896764e-03 
-7.884685212908e-04 2.151720621177e-04 0.0 
2.151720621177e-04 7.163026866368e-03 0.0 
0.0 0.0 -8.218208672966e-04 
-2.882194771885e-04 -2.173510090809e-04 0.0 
-2.173510090809e-04 1.694759427097e-03 0.0 
0.0 0.0 -2.852154713500e-04 
4.516660712497e-04 3.697651296256e-04 0.0 
3.697651296256e-04 2.590944588801e-03 0.0 
0.0 0.0 -5.558335581882e-04 
-1.085941057106e-03 1.940613560135e-04 0.0 
1.940613560135e-04 7.224719901000e-03 0.0 
0.0 0.0 -1.089453766084e-03 
-2.843827826560e-05 -1.788898447614e-05 0.0 
-1.788898447614e-05 1.853186358372e-04 0.0 
0.0 0.0 -4.453055683374e-05 
-2.026930435518e-04 2.460312419062e-03 0.0 
2.460312419062e-03 3.478406910569e-03 0.0 
0.0 0.0 -6.073871274648e-04 
6.817665009840e-04 2.496981430531e-04 0.0 
2.496981430531e-04 5.352332743172e-03 0.0 
0.0 0.0 -8.567320303811e-04 
-2.530134923208e-05 -9.778181679287e-05 0.0 
-9.778181679287e-05 8.683688701251e-04 0.0 
0.0 0.0 -1.605608400042e-04 
-9.458742030055e-04 6.850308616632e-04 0.0 
6.850308616632e-04 8.134253054526e-03 0.0 
0.0 0.0 -1.183939985582e-03 
-9.713207705103e-04 1.946323764392e-04 0.0 
1.946323764392e-04 6.442137433534e-03 0.0 
0.0 0.0 -9.749624431058e-04 
1.269828206579e-03 5.021081949739e-06 0.0 
5.021081949739e-06 1.945303448801e-03 0.0 
0.0 0.0 -5.995223474422e-04 
8.094686186284e-04 7.144987648116e-04 0.0 
7.144987648116e-04 5.188948614173e-03 0.0 
0.0 0.0 -8.652661591732e-04 
-8.219004318722e-04 -1.022855745570e-05 0.0 
-1.022855745570e-05 5.626191621956e-03 0.0 
0.0 0.0 -8.259898420369e-04 
-8.600931526372e-04 -1.614882484442e-04 0.0 
-1.614882484442e-04 5.932770930688e-03 0.0 
0.0 0.0 -8.838609275114e-04 
-2.718342994014e-04 1.369446506085e-04 0.0 
1.369446506085e-04 7.120366997537e-03 0.0 
0.0 0.0 -9.059626579368e-04 
4.433616430473e-04 -2.166919661587e-05 0.0 
-2.166919661587e-05 1.924370073740e-03 0.0 
0.0 0.0 -4.583583101839e-04 
-7.096826646455e-04 2.555806608527e-04 0.0 
2.555806608527e-04 4.819826368929e-03 0.0 
0.0 0.0 -7.480401524272e-04 
-8.027906713221e-04 1.764875410810e-04 0.0 
1.764875410810e-04 5.221920557136e-03 0.0 
0.0 0.0 -7.988399675000e-04 
-1.007530328557e-03 -1.922336022122e-04 0.0 
-1.922336022122e-04 6.759039767951e-03 0.0 
0.0 0.0 -1.008548823165e-03 
-8.112396533280e-04 -1.820827880749e-04 0.0 
-1.820827880749e-04 5.334789694812e-03 0.0 
0.0 0.0 -8.035999206669e-04 
-7.394123033579e-04 -9.303618616168e-06 0.0 
-9.303618616168e-06 4.884844203208e-03 0.0 
0.0 0.0 -7.415510827328e-04 
2.239480112291e-03 1.501288205322e-03 0.0 
1.501288205322e-03 3.052120017547e-03 0.0 
0.0 0.0 -8.709629945395e-04 
-3.364332393849e-04 9.519130177919e-04 0.0 
9.519130177919e-04 6.608337770689e-03 0.0 
0.0 0.0 -1.039812975052e-03 
-8.771550322174e-05 -5.128346968191e-06 0.0 
-5.128346968191e-06 5.622743997178e-04 0.0 
0.0 0.0 -1.015871403443e-04 
3.949318320421e-04 2.674667488014e-03 0.0 
2.674667488014e-03 2.067773262015e-03 0.0 
0.0 0.0 -4.649757541953e-04 
4.676135980088e-04 2.633824309417e-03 0.0 
2.633824309417e-03 2.292277424803e-03 0.0 
0.0 0.0 -5.249394872960e-04 
-6.815546767766e-04 -8.657805795450e-05 0.0 
-8.657805795450e-05 4.699953010168e-03 0.0 
0.0 0.0 -7.181710532390e-04 
-1.095309768585e-03 -2.099324022586e-04 0.0 
-2.099324022586e-04 7.373113916822e-03 0.0 
0.0 0.0 -1.095076276885e-03 
-2.412241836646e-04 1.824271338482e-04 0.0 
1.824271338482e-04 1.391269291466e-03 0.0 
0.0 0.0 -2.576475407671e-04 
7.630576638051e-04 1.923856007716e-04 0.0 
1.923856007716e-04 5.061931774784e-03 0.0 
0.0 0.0 -8.377007908299e-04 
-7.709980970027e-04 -2.344526007543e-04 0.0 
-2.344526007543e-04 5.001364750652e-03 0.0 
0.0 0.0 -7.763349569542e-04 
4.936814371905e-04 8.347134760963e-04 0.0 
8.347134760963e-04 2.492354055590e-03 0.0 
0.0 0.0 -5.576783925304e-04 
8.153979571860e-04 1.307640847587e-04 0.0 
1.307640847587e-04 4.806625593983e-03 0.0 
0.0 0.0 -8.195909599780e-04 
-1.328137378895e-04 -1.926409820627e-04 0.0 
-1.926409820627e-04 5.524811366157e-04 0.0 
0.0 0.0 -1.250635456846e-04 
-1.037748486931e-03 2.025826416298e-04 0.0 
2.025826416298e-04 6.894254509779e-03 0.0 
0.0 0.0 -1.040010908530e-03 
-9.586550230840e-05 6.862947183813e-05 0.0 
6.862947183813e-05 5.313753155375e-04 0.0 
0.0 0.0 -1.007187892234e-04 
-1.111966478921e-04 -1.458336910591e-05 0.0 
-1.458336910591e-05 6.915414780174e-04 0.0 
0.0 0.0 -1.819418517600e-04 
-2.287431474095e-04 5.667898344015e-04 0.0 
5.667898344015e-04 1.625125566140e-03 0.0 
0.0 0.0 -2.873666149908e-04 
2.929554096449e-04 -3.898794991131e-05 0.0 
-3.898794991131e-05 1.666936766171e-03 0.0 
0.0 0.0 -3.935955730116e-04 
-1.073504857728e-03 -1.857694457952e-04 0.0 
-1.857694457952e-04 7.207934761623e-03 0.0 
0.0 0.0 -1.073797489760e-03 
2.309361178493e-04 -3.638214326204e-04 0.0 
-3.638214326204e-04 1.697559828915e-03 0.0 
0.0 0.0 -3.637595386041e-04 
3.120054009611e-04 1.059865604872e-03 0.0 
1.059865604872e-03 1.376621281875e-03 0.0 
0.0 0.0 -3.432832105208e-04 
8.905050033418e-04 -7.580660432886e-04 0.0 
-7.580660432886e-04 5.814986368241e-04 0.0 
0.0 0.0 -2.922710279673e-04 
-9.409841062961e-05 1.049232199838e-04 0.0 
1.049232199838e-04 1.280181561738e-03 0.0 
0.0 0.0 -2.614315927221e-04 
6.995519208915e-04 7.384649212311e-04 0.0 
7.384649212311e-04 5.486929000219e-03 0.0 
0.0 0.0 -8.834347649003e-04 
-7.717946648580e-04 -1.881039575463e-04 0.0 
-1.881039575463e-04 5.076611576995e-03 0.0 
0.0 0.0 -7.687972329812e-04 
-6.683206883921e-04 2.438792525881e-04 0.0 
2.438792525881e-04 7.651424716542e-03 0.0 
0.0 0.0 -8.574057252759e-04 
0.0 0.0 0.0 
0.0 0.0 0.0 
0.0 0.0 0.0 
4.690596720522e-04 1.187675054038e-03 0.0 
1.187675054038e-03 1.587489204671e-03 0.0 
0.0 0.0 -4.044045206172e-04 
7.162026066965e-04 9.531122632893e-04 0.0 
9.531122632893e-04 2.652848597397e-03 0.0 
0.0 0.0 -6.230907113744e-04 
-3.643467493350e-05 2.563242704912e-03 0.0 
2.563242704912e-03 3.075821758921e-03 0.0 
0.0 0.0 -5.709397776106e-04 
8.866209160564e-04 6.213219397035e-04 0.0 
6.213219397035e-04 4.896572777820e-03 0.0 
0.0 0.0 -8.465046824080e-04 
-6.272565029712e-04 2.172735667365e-04 0.0 
2.172735667365e-04 7.784843804556e-03 0.0 
0.0 0.0 -8.696349720498e-04 
-1.029713153133e-03 -2.056143237118e-04 0.0 
-2.056143237118e-04 6.913851891301e-03 0.0 
0.0 0.0 -1.029499106509e-03 
2.113896962175e-04 1.314609349600e-04 0.0 
1.314609349600e-04 2.242865882991e-03 0.0 
0.0 0.0 -4.564841486881e-04 
5.828439619259e-04 3.504673046792e-04 0.0 
3.504673046792e-04 5.619797711012e-03 0.0 
0.0 0.0 -8.758246743103e-04 
-9.572990713408e-04 2.523061752716e-04 0.0 
2.523061752716e-04 6.134822000201e-03 0.0 
0.0 0.0 -7.696595819940e-04 
-7.570218913511e-04 -1.787629418728e-04 0.0 
-1.787629418728e-04 4.987297939344e-03 0.0 
0.0 0.0 -7.537083776970e-04 
-9.994998658216e-04 2.045048337302e-04 0.0 
2.045048337302e-04 6.629510214408e-03 0.0 
0.0 0.0 -1.003200534345e-03 
2.669167518426e-04 1.005184479919e-03 0.0 
1.005184479919e-03 6.643803258627e-03 0.0 
0.0 0.0 -1.004574278790e-03 
7.362853327143e-04 5.173950998491e-04 0.0 
5.173950998491e-04 2.699223581070e-03 0.0 
0.0 0.0 -6.206208101913e-04 
2.574035271525e-04 7.659360139492e-04 0.0 
7.659360139492e-04 1.712486070175e-03 0.0 
0.0 0.0 -3.752687577596e-04 
-8.718273414275e-04 -1.903070125199e-04 0.0 
-1.903070125199e-04 5.767456116596e-03 0.0 
0.0 0.0 -8.662621843288e-04 
-1.275347195400e-03 1.573695275699e-04 0.0 
1.573695275699e-04 9.019651553506e-03 0.0 
0.0 0.0 -1.289369054661e-03 
-4.371085005278e-04 3.521749379141e-04 0.0 
3.521749379141e-04 4.612192741834e-03 0.0 
0.0 0.0 -7.453270327203e-04 
2.902917378892e-03 1.393451108856e-03 0.0 
1.393451108856e-03 1.461453071867e-03 0.0 
0.0 0.0 -7.768443034385e-04 
-8.403853568470e-04 -5.224028630894e-05 0.0 
-5.224028630894e-05 5.665674692091e-03 0.0 
0.0 0.0 -8.293613651800e-04 
7.756860922078e-05 -3.358163238278e-04 0.0 
-3.358163238278e-04 1.017960031243e-03 0.0 
0.0 0.0 -2.161141481901e-04 
-8.208799096498e-04 1.843133829192e-04 0.0 
1.843133829192e-04 5.271529166893e-03 0.0 
0.0 0.0 -8.060563724883e-04 
2.904834126274e-04 6.015607675737e-04 0.0 
6.015607675737e-04 2.096935564034e-03 0.0 
0.0 0.0 -4.590591740919e-04 
-1.280222572228e-04 2.565354001569e-04 0.0 
2.565354001569e-04 1.693860605202e-03 0.0 
0.0 0.0 -3.229397045850e-04 
1.753163512962e-04 -4.223288664623e-04 0.0 
-4.223288664623e-04 8.850002827392e-04 0.0 
0.0 0.0 -2.426597671045e-04 
-1.076566808285e-03 1.948027566312e-04 0.0 
1.948027566312e-04 7.152792080089e-03 0.0 
0.0 0.0 -1.075985979751e-03 
-8.366892688468e-04 -1.821112197860e-04 0.0 
-1.821112197860e-04 5.525859000099e-03 0.0 
0.0 0.0 -8.312490730234e-04 
1.777257738676e-04 1.057622217334e-03 0.0 
1.057622217334e-03 2.701527720917e-03 0.0 
0.0 0.0 -5.429493831729e-04 
-1.110558394075e-03 -1.920281890811e-04 0.0 
-1.920281890811e-04 7.461731149687e-03 0.0 
0.0 0.0 -1.109763131677e-03 
-1.054698518121e-03 -2.087025362572e-04 0.0 
-2.087025362572e-04 7.108835153234e-03 0.0 
0.0 0.0 -1.057773507355e-03 
-7.924197653506e-04 -1.785979394266e-04 0.0 
-1.785979394266e-04 5.231483760846e-03 0.0 
0.0 0.0 -7.887050335656e-04 
-7.326196523682e-04 1.165937396879e-04 0.0 
1.165937396879e-04 7.724243847690e-03 0.0 
0.0 0.0 -8.834908011412e-04 
2.961579757436e-03 1.630912204345e-03 0.0 
1.630912204345e-03 1.514062661910e-03 0.0 
0.0 0.0 -8.078958932737e-04 
-8.263277637736e-04 -1.832084157210e-04 0.0 
-1.832084157210e-04 5.471677470531e-03 0.0 
0.0 0.0 -8.238265297874e-04 
2.493021254823e-04 6.813761920798e-04 0.0 
6.813761920798e-04 3.463948652742e-03 0.0 
0.0 0.0 -6.656476441012e-04 
2.741746402326e-03 1.417339979839e-03 0.0 
1.417339979839e-03 1.994070428494e-03 0.0 
0.0 0.0 -8.261093577255e-04 
1.711789422424e-04 3.559968891634e-04 0.0 
3.559968891634e-04 1.776345891375e-03 0.0 
0.0 0.0 -3.865807678710e-04 
-8.089876515703e-04 4.490290024569e-05 0.0 
4.490290024569e-05 5.014601975749e-03 0.0 
0.0 0.0 -7.898058234521e-04 
1.565586347602e-03 7.179979049534e-04 0.0 
7.179979049534e-04 2.039285830194e-03 0.0 
0.0 0.0 -6.486359607860e-04 
1.980221330148e-03 -2.898465025130e-04 0.0 
-2.898465025130e-04 5.462790383164e-04 0.0 
0.0 0.0 -4.681053320140e-04 
-1.032293230965e-03 1.946996800783e-04 0.0 
1.946996800783e-04 6.836459352288e-03 0.0 
0.0 0.0 -1.032318248600e-03 
-4.933492965949e-05 -2.981330854880e-05 0.0 
-2.981330854880e-05 2.232237160484e-04 0.0 
0.0 0.0 -4.491607815645e-05 
-8.460396934351e-04 -1.994951239521e-04 0.0 
-1.994951239521e-04 5.571843201912e-03 0.0 
0.0 0.0 -8.386390795737e-04 
5.294094901907e-04 5.824873064842e-04 0.0 
5.824873064842e-04 2.026071390241e-03 0.0 
0.0 0.0 -4.870240021111e-04 
2.983496553226e-04 5.661380705690e-04 0.0 
5.661380705690e-04 1.827574699698e-03 0.0 
0.0 0.0 -4.015254440178e-04 
1.431888758204e-04 -7.951156072780e-05 0.0 
-7.951156072780e-05 1.881824851989e-03 0.0 
0.0 0.0 -3.834586606452e-04 
-9.010939454830e-04 1.820631251065e-04 0.0 
1.820631251065e-04 5.900115668490e-03 0.0 
0.0 0.0 -8.965110541436e-04 
-1.535639171871e-04 -1.171137565838e-04 0.0 
-1.171137565838e-04 9.290832055632e-04 0.0 
0.0 0.0 -1.609926926485e-04 
8.909520245995e-05 1.961818412890e-03 0.0 
1.961818412890e-03 2.901318735178e-03 0.0 
0.0 0.0 -5.613503766092e-04 
2.585107805577e-03 1.563147323866e-03 0.0 
1.563147323866e-03 2.255316883380e-03 0.0 
0.0 0.0 -8.356958472999e-04 
-8.424168210172e-04 1.809379834971e-04 0.0 
1.809379834971e-04 5.460364861261e-03 0.0 
0.0 0.0 -8.336838631977e-04 
-8.483140592107e-04 -2.570000340280e-05 0.0 
-2.570000340280e-05 5.646419876325e-03 0.0 
0.0 0.0 -8.301023967811e-04 
-2.301022018194e-04 1.896537110150e-04 0.0 
1.896537110150e-04 1.205962353600e-03 0.0 
0.0 0.0 -2.187087652219e-04 
1.997893279652e-03 2.140193753690e-04 0.0 
2.140193753690e-04 4.593240997888e-04 0.0 
0.0 0.0 -4.706942212664e-04 
1.925377196455e-03 -4.838181095647e-04 0.0 
-4.838181095647e-04 3.776798246141e-04 0.0 
0.0 0.0 -4.311372127493e-04 
2.653046732994e-04 2.694478500229e-03 0.0 
2.694478500229e-03 2.442990255695e-03 0.0 
0.0 0.0 -4.957039317942e-04 
-1.001539925556e-03 -2.124102205074e-04 0.0 
-2.124102205074e-04 6.704131800771e-03 0.0 
0.0 0.0 -1.000663671924e-03 
3.613076335731e-04 2.463211587499e-03 0.0 
2.463211587499e-03 2.709039404276e-03 0.0 
0.0 0.0 -5.577786207633e-04 
1.629362100913e-03 1.009969784658e-03 0.0 
1.009969784658e-03 1.687836834215e-03 0.0 
0.0 0.0 -6.151539951222e-04 
8.206862067446e-04 8.499970763071e-04 0.0 
8.499970763071e-04 2.331043017613e-03 0.0 
0.0 0.0 -5.868308051845e-04 
-2.691521273047e-04 -2.036688762201e-04 0.0 
-2.036688762201e-04 1.523725894567e-03 0.0 
0.0 0.0 -2.530049833111e-04 
4.447105395532e-04 1.060647818013e-03 0.0 
1.060647818013e-03 3.350268531689e-03 0.0 
0.0 0.0 -6.959382511914e-04 
-2.861043400586e-04 -1.894415141014e-04 0.0 
-1.894415141014e-04 1.663430798726e-03 0.0 
0.0 0.0 -2.788248838327e-04 
-5.312516764994e-04 1.177391027085e-03 0.0 
1.177391027085e-03 8.243709391827e-03 0.0 
0.0 0.0 -1.186527723087e-03 
9.209218308556e-05 2.092983092679e-03 0.0 
2.092983092679e-03 7.569303194537e-03 0.0 
0.0 0.0 -1.166908624690e-03 
-4.212208954550e-04 6.605275887341e-04 0.0 
6.605275887341e-04 4.698103385148e-03 0.0 
0.0 0.0 -7.755312068111e-04 
2.370602237379e-04 4.688682218429e-04 0.0 
4.688682218429e-04 1.933891319778e-03 0.0 
0.0 0.0 -4.232985079168e-04 
1.208645462551e-04 2.484424148503e-04 0.0 
2.484424148503e-04 1.794501944846e-03 0.0 
0.0 0.0 -3.659709354871e-04 
-8.573750887322e-04 1.858228230961e-04 0.0 
1.858228230961e-04 5.602884265534e-03 0.0 
0.0 0.0 -8.539191708180e-04 
-5.433267320738e-06 3.473095710759e-05 0.0 
3.473095710759e-05 2.085771843299e-03 0.0 
0.0 0.0 -3.930530440640e-04 
1.969025430088e-03 -5.278299675365e-06 0.0 
-5.278299675365e-06 2.636627857948e-04 0.0 
0.0 0.0 -4.339875075689e-04 
-7.596321613464e-04 1.775287963431e-04 0.0 
1.775287963431e-04 4.918201734153e-03 0.0 
0.0 0.0 -7.563811545761e-04 
-1.287984799363e-03 -3.860068533034e-05 0.0 
-3.860068533034e-05 8.730948327736e-03 0.0 
0.0 0.0 -1.266640259566e-03 
5.202582561795e-04 7.111679293834e-04 0.0 
7.111679293834e-04 2.249347899001e-03 0.0 
0.0 0.0 -5.226246958029e-04 
2.352729077925e-03 1.917652955945e-03 0.0 
1.917652955945e-03 2.896453319041e-03 0.0 
0.0 0.0 -8.779794407330e-04 
7.229094148653e-05 6.360676500428e-04 0.0 
6.360676500428e-04 1.397511463499e-03 0.0 
0.0 0.0 -3.076624342134e-04 
-4.913955783139e-04 3.195927638572e-04 0.0 
3.195927638572e-04 8.056985377993e-03 0.0 
0.0 0.0 -9.488858364600e-04 
1.054479752145e-04 5.203404355381e-04 0.0 
5.203404355381e-04 1.901846338666e-03 0.0 
0.0 0.0 -3.959736908235e-04 
-7.861913752228e-04 1.858440032300e-04 0.0 
1.858440032300e-04 5.109311146391e-03 0.0 
0.0 0.0 -7.835188407615e-04 
-2.275201403779e-04 2.271910215235e-04 0.0 
2.271910215235e-04 1.561458611667e-03 0.0 
0.0 0.0 -2.855287480241e-04 
1.746126253977e-03 8.266581137613e-04 0.0 
8.266581137613e-04 3.333067916203e-03 0.0 
0.0 0.0 -8.191277867645e-04 
1.446664542952e-03 1.139268575746e-03 0.0 
1.139268575746e-03 2.082719872400e-03 0.0 
0.0 0.0 -6.516619296807e-04 
2.392869878739e-03 -7.436233996086e-05 0.0 
-7.436233996086e-05 1.603891966844e-05 0.0 
0.0 0.0 -4.625367401933e-04 
-8.005133107045e-04 -1.849372706410e-04 0.0 
-1.849372706410e-04 5.279390117932e-03 0.0 
0.0 0.0 -7.963903837170e-04 
3.236806930879e-04 2.053011160509e-03 0.0 
2.053011160509e-03 7.327766251516e-03 0.0 
0.0 0.0 -1.133699920026e-03 
9.229377686260e-04 7.357916129474e-04 0.0 
7.357916129474e-04 2.012982988229e-03 0.0 
0.0 0.0 -5.510338386786e-04 
2.438295115530e-03 1.152749828821e-03 0.0 
1.152749828821e-03 2.460754792036e-03 0.0 
0.0 0.0 -8.260362273146e-04 
-2.230501687194e-04 -8.461669348308e-05 0.0 
-8.461669348308e-05 1.771518502887e-03 0.0 
0.0 0.0 -3.041533380166e-04 
-9.585285003453e-04 2.099575339622e-04 0.0 
2.099575339622e-04 6.326919234623e-03 0.0 
0.0 0.0 -9.576894438039e-04 
9.415807233796e-04 5.289124602569e-04 0.0 
5.289124602569e-04 4.626865355240e-03 0.0 
0.0 0.0 -8.287474112289e-04 
4.389972481379e-04 1.269630078269e-03 0.0 
1.269630078269e-03 1.750461723160e-03 0.0 
0.0 0.0 -4.109515902261e-04 
-9.327998617516e-04 -1.874311411832e-04 0.0 
-1.874311411832e-04 6.181670543660e-03 0.0 
0.0 0.0 -9.257128893455e-04 
1.806159733407e-04 1.574737752293e-03 0.0 
1.574737752293e-03 7.456292583453e-03 0.0 
0.0 0.0 -1.090490372998e-03 
6.060177975788e-04 5.001088422351e-04 0.0 
5.001088422351e-04 5.326613411695e-03 0.0 
0.0 0.0 -8.507328370850e-04 
3.577463238916e-04 2.237103442506e-03 0.0 
2.237103442506e-03 7.320004067765e-03 0.0 
0.0 0.0 -1.145936505773e-03 
-9.079440508185e-04 -2.097847460126e-04 0.0 
-2.097847460126e-04 6.119714420928e-03 0.0 
0.0 0.0 -9.196498359204e-04 
-1.050990778737e-03 -1.886314367516e-04 0.0 
-1.886314367516e-04 7.044669431277e-03 0.0 
0.0 0.0 -1.048263655743e-03 
-1.951376965972e-04 1.573976403868e-04 0.0 
1.573976403868e-04 1.988461576082e-03 0.0 
0.0 0.0 -3.491910591611e-04 
-7.374872672360e-04 -1.803640936936e-04 0.0 
-1.803640936936e-04 4.844525720206e-03 0.0 
0.0 0.0 -7.343713905234e-04 
-8.293244045422e-04 1.837550643811e-04 0.0 
1.837550643811e-04 5.409584064822e-03 0.0 
0.0 0.0 -8.263924940540e-04 
-8.620298851759e-04 -1.867239000811e-04 0.0 
-1.867239000811e-04 5.715504193618e-03 0.0 
0.0 0.0 -8.589723558544e-04 
-1.789820867504e-04 6.321593579633e-04 0.0 
6.321593579633e-04 4.146367655769e-03 0.0 
0.0 0.0 -7.101745248689e-04 
1.541912547185e-05 1.220547258961e-03 0.0 
1.220547258961e-03 7.611739392267e-03 0.0 
0.0 0.0 -1.063394922789e-03 
-8.655458594579e-04 1.438711959111e-04 0.0 
1.438711959111e-04 5.877137978370e-03 0.0 
0.0 0.0 -8.810748613436e-04 
-7.842175920213e-04 -1.730041151838e-04 0.0 
-1.730041151838e-04 5.148772658244e-03 0.0 
0.0 0.0 -7.763708431881e-04 
8.726160378488e-04 4.234520453759e-04 0.0 
4.234520453759e-04 2.345384312584e-03 0.0 
0.0 0.0 -5.843899590101e-04 
1.114611003891e-04 1.438870685593e-05 0.0 
1.438870685593e-05 1.465230449507e-03 0.0 
0.0 0.0 -3.280768480529e-04 
-6.192659330920e-04 1.045121722960e-03 0.0 
1.045121722960e-03 4.558756540959e-03 0.0 
0.0 0.0 -7.069124235890e-04 
5.386259559601e-04 1.471681147104e-03 0.0 
1.471681147104e-03 1.728017313000e-03 0.0 
0.0 0.0 -4.404772202000e-04 
-7.723719974628e-04 -4.140062150847e-05 0.0 
-4.140062150847e-05 5.256708913763e-03 0.0 
0.0 0.0 -7.696142143080e-04 
2.153468647589e-03 -4.771777203944e-04 0.0 
-4.771777203944e-04 3.286689210526e-04 0.0 
0.0 0.0 -4.595640944490e-04 
4.874602953217e-04 2.506176415954e-04 0.0 
2.506176415954e-04 2.345396575419e-03 0.0 
0.0 0.0 -5.202658224677e-04 
-1.068256360121e-03 2.066714883779e-04 0.0 
2.066714883779e-04 7.094366600133e-03 0.0 
0.0 0.0 -1.069052450572e-03 
4.043209812456e-04 8.712747477499e-04 0.0 
8.712747477499e-04 1.935952783013e-03 0.0 
0.0 0.0 -4.372567615832e-04 
-7.685639283948e-04 1.832765112525e-04 0.0 
1.832765112525e-04 4.976704183313e-03 0.0 
0.0 0.0 -7.640689829422e-04 
2.295322223721e-03 1.326176814877e-03 0.0 
1.326176814877e-03 2.691816002901e-03 0.0 
0.0 0.0 -8.362541331953e-04 
1.415677706148e-03 2.987477864400e-04 0.0 
2.987477864400e-04 3.000165894500e-03 0.0 
0.0 0.0 -7.544178260976e-04 
-1.519059402992e-04 8.565476242279e-04 0.0 
8.565476242279e-04 7.769604178892e-03 0.0 
0.0 0.0 -1.026698352819e-03 
-2.794672101491e-04 2.308488678651e-03 0.0 
2.308488678651e-03 3.829150515726e-03 0.0 
0.0 0.0 -6.390224077203e-04 
1.195320404370e-03 3.020372000791e-04 0.0 
3.020372000791e-04 1.087713425463e-03 0.0 
0.0 0.0 -4.422638729430e-04 
1.258649461234e-03 -3.324624152298e-04 0.0 
-3.324624152298e-04 1.882904764986e-03 0.0 
0.0 0.0 -5.691257024010e-04 
4.911230789406e-05 1.287836575915e-03 0.0 
1.287836575915e-03 2.167569659035e-03 0.0 
0.0 0.0 -4.184705811166e-04 
6.761736176563e-04 2.056055612641e-03 0.0 
2.056055612641e-03 1.445750729557e-03 0.0 
0.0 0.0 -4.141309408042e-04 
-1.124019592153e-03 -2.007331567345e-04 0.0 
-2.007331567345e-04 7.565647962713e-03 0.0 
0.0 0.0 -1.123886314723e-03 
-8.186901870458e-04 -1.867352575881e-04 0.0 
-1.867352575881e-04 5.417532343351e-03 0.0 
0.0 0.0 -8.161479701220e-04 
-1.033997825032e-05 2.506918240948e-03 0.0 
2.506918240948e-03 3.119337920013e-03 0.0 
0.0 0.0 -5.672387349321e-04 
-7.059258560287e-04 1.849400511517e-04 0.0 
1.849400511517e-04 4.547028472385e-03 0.0 
0.0 0.0 -7.023794137935e-04 
-3.306786531210e-04 5.398559067400e-04 0.0 
5.398559067400e-04 7.908636713616e-03 0.0 
0.0 0.0 -9.787318592288e-04 
6.995852303499e-05 5.522319474051e-04 0.0 
5.522319474051e-04 7.080308514026e-03 0.0 
0.0 0.0 -9.604731524164e-04 
-1.122100566517e-03 1.986464603035e-04 0.0 
1.986464603035e-04 7.484284741315e-03 0.0 
0.0 0.0 -1.126590436115e-03 
-1.036201990782e-03 -1.951775890561e-04 0.0 
-1.951775890561e-04 6.963709654535e-03 0.0 
0.0 0.0 -1.037522200811e-03 
1.489649009395e-03 -1.372874743036e-05 0.0 
-1.372874743036e-05 2.832472409227e-03 0.0 
0.0 0.0 -7.381087844619e-04 
1.618929808402e-04 1.399339294279e-03 0.0 
1.399339294279e-03 3.058648799590e-03 0.0 
0.0 0.0 -5.842812205453e-04 
1.704598322290e-04 1.307295549066e-05 0.0 
1.307295549066e-05 2.073780021914e-03 0.0 
0.0 0.0 -4.203166018451e-04 
5.215771957103e-04 1.330228025749e-04 0.0 
1.330228025749e-04 2.102737682737e-03 0.0 
0.0 0.0 -4.843489805398e-04 
-7.633018039616e-04 -1.422853816060e-04 0.0 
-1.422853816060e-04 5.153558149822e-03 0.0 
0.0 0.0 -7.808727949117e-04 
1.877837492810e-03 5.909495813891e-04 0.0 
5.909495813891e-04 3.118894463444e-03 0.0 
0.0 0.0 -8.063361783683e-04 
2.536483105202e-04 -2.780033234277e-04 0.0 
-2.780033234277e-04 3.544500702873e-03 0.0 
0.0 0.0 -6.810091006415e-04 
-1.137984490542e-03 2.026763925672e-04 0.0 
2.026763925672e-04 7.560494271962e-03 0.0 
0.0 0.0 -1.134236807130e-03 
1.281992960842e-03 -2.099463897291e-04 0.0 
-2.099463897291e-04 1.073181406451e-03 0.0 
0.0 0.0 -4.395655422792e-04 
-1.694427105722e-05 7.065810972896e-04 0.0 
7.065810972896e-04 3.773230702426e-03 0.0 
0.0 0.0 -6.750378637491e-04 
-7.938192706807e-04 1.817389384797e-04 0.0 
1.817389384797e-04 5.160116736331e-03 0.0 
0.0 0.0 -7.913284153978e-04 
-1.499179922695e-05 7.345332312644e-04 0.0 
7.345332312644e-04 3.390272885780e-03 0.0 
0.0 0.0 -6.122259156574e-04 
1.865519692711e-04 2.159782476392e-03 0.0 
2.159782476392e-03 7.513037457885e-03 0.0 
0.0 0.0 -1.149027015107e-03 
-2.255386223164e-04 1.714699277991e-03 0.0 
1.714699277991e-03 7.893585071195e-03 0.0 
0.0 0.0 -1.172272480481e-03 
-1.213158639968e-03 -8.800285742879e-05 0.0 
-8.800285742879e-05 8.392825404339e-03 0.0 
0.0 0.0 -1.147411273134e-03 
1.308825189152e-03 2.780781154725e-05 0.0 
2.780781154725e-05 3.371657584513e-03 0.0 
0.0 0.0 -7.592699425565e-04 
-1.112341827327e-03 1.928139267360e-04 0.0 
1.928139267360e-04 7.404901105712e-03 0.0 
0.0 0.0 -1.112065035246e-03 
5.166319196056e-04 1.537868066277e-03 0.0 
1.537868066277e-03 1.381907621348e-03 0.0 
0.0 0.0 -3.785953687517e-04 
9.953864187282e-04 2.993359834322e-04 0.0 
2.993359834322e-04 2.011075681952e-03 0.0 
0.0 0.0 -5.483018170244e-04 
-1.787787645590e-04 -1.327619962871e-04 0.0 
-1.327619962871e-04 1.828267161694e-03 0.0 
0.0 0.0 -3.192951451658e-04 
-1.084170516873e-07 1.722294174690e-03 0.0 
1.722294174690e-03 3.274409168390e-03 0.0 
0.0 0.0 -5.936226173563e-04 
-7.754418230907e-04 -1.787983897600e-05 0.0 
-1.787983897600e-05 4.998811631156e-03 0.0 
0.0 0.0 -7.914980036671e-04 
-9.191665137011e-04 2.140245341565e-04 0.0 
2.140245341565e-04 6.074527525348e-03 0.0 
0.0 0.0 -9.214502702889e-04 
-1.399778066289e-04 4.147082623923e-04 0.0 
4.147082623923e-04 7.369718731332e-03 0.0 
0.0 0.0 -9.329165282573e-04 
-1.115621355291e-03 2.153765354670e-04 0.0 
2.153765354670e-04 7.404061657252e-03 0.0 
0.0 0.0 -1.115778297000e-03 
-8.719756485576e-04 1.796746755415e-04 0.0 
1.796746755415e-04 5.704231125349e-03 0.0 
0.0 0.0 -8.687609488834e-04 
-8.934000445298e-04 1.842629385947e-04 0.0 
1.842629385947e-04 5.848617048582e-03 0.0 
0.0 0.0 -8.891947744737e-04 
1.174714113103e-04 2.775386888823e-04 0.0 
2.775386888823e-04 1.611616080372e-03 0.0 
0.0 0.0 -3.496852078947e-04 
-1.730179310378e-04 3.799515299484e-05 0.0 
3.799515299484e-05 9.814996314958e-04 0.0 
0.0 0.0 -1.610244214183e-04 
5.890633432808e-04 1.017922291344e-03 0.0 
1.017922291344e-03 2.992005781545e-03 0.0 
0.0 0.0 -6.594106982652e-04 
-1.981503715366e-05 6.889868008883e-04 0.0 
6.889868008883e-04 4.151870808535e-03 0.0 
0.0 0.0 -7.376142925499e-04 
4.634693988172e-04 6.655173621826e-04 0.0 
6.655173621826e-04 3.400509342401e-03 0.0 
0.0 0.0 -6.931905564145e-04 
-1.927200046455e-04 1.907407866213e-04 0.0 
1.907407866213e-04 9.362068114562e-04 0.0 
0.0 0.0 -1.839988823918e-04 
-8.553897316391e-04 7.952460625498e-05 0.0 
7.952460625498e-05 5.374666730048e-03 0.0 
0.0 0.0 -8.462285223656e-04 
4.940754420234e-05 -3.245875070728e-04 0.0 
-3.245875070728e-04 1.475752998919e-03 0.0 
0.0 0.0 -2.972104253142e-04 
1.943424916718e-04 6.968732800418e-04 0.0 
6.968732800418e-04 2.026247353056e-03 0.0 
0.0 0.0 -4.314049239902e-04 
-8.269618860118e-04 2.163104319999e-04 0.0 
2.163104319999e-04 8.109111292046e-03 0.0 
0.0 0.0 -9.563915301511e-04 
1.973420588169e-03 1.241282687659e-03 0.0 
1.241282687659e-03 3.493646420591e-03 0.0 
0.0 0.0 -8.706422652006e-04 
-8.038658590280e-04 1.841151985619e-04 0.0 
1.841151985619e-04 5.090192522503e-03 0.0 
0.0 0.0 -7.790007367612e-04 
7.405848853299e-04 1.074882042699e-04 0.0 
1.074882042699e-04 4.116392714902e-04 0.0 
0.0 0.0 -2.176483604987e-04 
-3.419093965603e-04 7.425767972381e-04 0.0 
7.425767972381e-04 4.244875263636e-03 0.0 
0.0 0.0 -7.126719623954e-04 
6.049442356691e-04 6.000490139782e-04 0.0 
6.000490139782e-04 3.040663398817e-03 0.0 
0.0 0.0 -6.569982659716e-04 
-8.980808506785e-04 -1.936520147712e-04 0.0 
-1.936520147712e-04 5.958242186783e-03 0.0 
0.0 0.0 -8.940630110299e-04 
2.898672616867e-04 1.934689323871e-03 0.0 
1.934689323871e-03 7.357339804407e-03 0.0 
0.0 0.0 -1.118797554650e-03 
-7.403554818969e-04 1.844120078152e-04 0.0 
1.844120078152e-04 4.792048619543e-03 0.0 
0.0 0.0 -7.366500567795e-04 
-8.545868996671e-04 -1.887615407860e-04 0.0 
-1.887615407860e-04 5.662533660862e-03 0.0 
0.0 0.0 -8.513774089097e-04 
4.895980845391e-04 6.745302001194e-05 0.0 
6.745302001194e-05 3.237666454580e-03 0.0 
0.0 0.0 -6.837695253816e-04 
-1.105187862003e-03 1.994006530663e-04 0.0 
1.994006530663e-04 7.356411437885e-03 0.0 
0.0 0.0 -1.105258581891e-03 
1.212441785627e-03 3.388415087334e-04 0.0 
3.388415087334e-04 3.570403161034e-03 0.0 
0.0 0.0 -7.748327723180e-04 
2.520019297355e-04 1.714440541072e-03 0.0 
1.714440541072e-03 7.411256740682e-03 0.0 
0.0 0.0 -1.104027905080e-03 
1.559434744534e-04 1.952375863056e-03 0.0 
1.952375863056e-03 7.238907956296e-03 0.0 
0.0 0.0 -1.161334115590e-03 
-1.647938123993e-04 1.428756437279e-03 0.0 
1.428756437279e-03 7.607476530746e-03 0.0 
0.0 0.0 -1.256895482973e-03 
1.288172849416e-04 1.938031376694e-03 0.0 
1.938031376694e-03 7.243545922086e-03 0.0 
0.0 0.0 -1.206930568043e-03 
-9.278953530001e-04 1.830493215192e-04 0.0 
1.830493215192e-04 6.094694774967e-03 0.0 
0.0 0.0 -9.244680137506e-04 
-1.104382085207e-03 -1.844352853963e-04 0.0 
-1.844352853963e-04 7.413030585340e-03 0.0 
0.0 0.0 -1.103002250422e-03 
-1.154272275824e-03 2.280529757330e-04 0.0 
2.280529757330e-04 7.667721534694e-03 0.0 
0.0 0.0 -1.124137805448e-03 
-5.776644496733e-05 1.048595345979e-03 0.0 
1.048595345979e-03 3.369185627421e-03 0.0 
0.0 0.0 -6.147330147620e-04 
1.488668384704e-05 1.452538546037e-03 0.0 
1.452538546037e-03 3.134681434713e-03 0.0 
0.0 0.0 -5.872917534094e-04 
-5.159119712642e-05 -2.633138032029e-04 0.0 
-2.633138032029e-04 3.628893597414e-03 0.0 
0.0 0.0 -6.436934073013e-04 
-1.134641282245e-03 -2.006695635977e-04 0.0 
-2.006695635977e-04 7.623716292157e-03 0.0 
0.0 0.0 -1.131852245309e-03 
1.011187295685e-04 1.382413114254e-03 0.0 
1.382413114254e-03 7.522655183697e-03 0.0 
0.0 0.0 -1.076618064281e-03 
-1.140227253108e-03 1.951224764733e-04 0.0 
1.951224764733e-04 7.603009729401e-03 0.0 
0.0 0.0 -1.141180801552e-03 
2.357002180358e-03 1.332580942711e-03 0.0 
1.332580942711e-03 2.743208123987e-03 0.0 
0.0 0.0 -8.484278906352e-04 
-1.140612365318e-03 -1.825914620367e-04 0.0 
-1.825914620367e-04 7.661221724928e-03 0.0 
0.0 0.0 -1.138864741757e-03 
1.803523850074e-03 2.346577394342e-03 0.0 
2.346577394342e-03 3.801288743898e-03 0.0 
0.0 0.0 -9.511538604461e-04 
9.831435041335e-05 1.041315520994e-03 0.0 
1.041315520994e-03 3.755543071119e-03 0.0 
0.0 0.0 -7.049739924763e-04 
-2.042991542128e-04 1.448737263134e-03 0.0 
1.448737263134e-03 3.412363971812e-03 0.0 
0.0 0.0 -5.967387615352e-04 
1.446686541493e-04 5.847771366786e-04 0.0 
5.847771366786e-04 1.483174873769e-03 0.0 
0.0 0.0 -3.333553686509e-04 
-1.287482303742e-03 9.400486473722e-05 0.0 
9.400486473722e-05 8.494651886701e-03 0.0 
0.0 0.0 -1.282213402295e-03 
8.331238885984e-05 1.098752988877e-03 0.0 
1.098752988877e-03 3.023668973331e-03 0.0 
0.0 0.0 -5.792479259103e-04 
4.052185601379e-04 1.476539662200e-03 0.0 
1.476539662200e-03 6.376912069729e-03 0.0 
0.0 0.0 -1.035446406479e-03 
1.729834788984e-04 7.725679811232e-05 0.0 
7.725679811232e-05 3.332093941182e-03 0.0 
0.0 0.0 -6.465396845166e-04 
1.839603686971e-03 -5.935205716795e-04 0.0 
-5.935205716795e-04 4.207995766492e-04 0.0 
0.0 0.0 -4.222915044375e-04 
-4.871884222471e-04 3.142859240540e-04 0.0 
3.142859240540e-04 7.461820794009e-03 0.0 
0.0 0.0 -9.312424974026e-04 
2.295728309335e-04 8.493196375731e-04 0.0 
8.493196375731e-04 2.195160635428e-03 0.0 
0.0 0.0 -4.669824892858e-04 
9.086112524815e-05 1.811048526785e-03 0.0 
1.811048526785e-03 7.288072587181e-03 0.0 
0.0 0.0 -1.146251239090e-03 
-9.686917668579e-04 4.645067036509e-04 0.0 
4.645067036509e-04 8.102145732245e-03 0.0 
0.0 0.0 -1.215356682592e-03 
-8.495078228820e-04 1.843107655011e-04 0.0 
1.843107655011e-04 5.547072023185e-03 0.0 
0.0 0.0 -8.462542048450e-04 
-9.255048927816e-05 -2.197953205397e-06 0.0 
-2.197953205397e-06 3.085086574748e-04 0.0 
0.0 0.0 -9.255350065570e-05 
-6.150489039415e-05 1.478495725873e-03 0.0 
1.478495725873e-03 7.422238380614e-03 0.0 
0.0 0.0 -1.113714201457e-03 
-4.150837014078e-04 3.616417555269e-04 0.0 
3.616417555269e-04 7.393538020665e-03 0.0 
0.0 0.0 -9.495943507134e-04 
2.144917489528e-03 -2.660659700991e-04 0.0 
-2.660659700991e-04 3.740635550621e-05 0.0 
0.0 0.0 -4.253660281670e-04 
2.082127812399e-03 1.098233589702e-03 0.0 
1.098233589702e-03 3.179693049548e-03 0.0 
0.0 0.0 -8.480435604468e-04 
-2.000333403667e-04 7.831034828932e-04 0.0 
7.831034828932e-04 7.796815336018e-03 0.0 
0.0 0.0 -1.014873918045e-03 
0.0 0.0 0.0 
0.0 0.0 0.0 
0.0 0.0 0.0 
8.619504930103e-05 1.049699402031e-03 0.0 
1.049699402031e-03 3.394239065743e-03 0.0 
0.0 0.0 -6.425506931502e-04 
-8.851411761515e-04 1.851869312967e-04 0.0 
1.851869312967e-04 5.794563189636e-03 0.0 
0.0 0.0 -8.816033652580e-04 
-7.611099833636e-04 2.657346022754e-04 0.0 
2.657346022754e-04 5.247796954621e-03 0.0 
0.0 0.0 -8.109139232486e-04 
-8.225202755535e-04 1.881518984197e-04 0.0 
1.881518984197e-04 5.356080317152e-03 0.0 
0.0 0.0 -8.186613860469e-04 
3.481246215626e-04 8.950753932819e-04 0.0 
8.950753932819e-04 1.493477679675e-03 0.0 
0.0 0.0 -3.689119447714e-04 
-2.169132810940e-04 1.153394148208e-03 0.0 
1.153394148208e-03 7.549632368770e-03 0.0 
0.0 0.0 -1.085010860634e-03 
1.737051840824e-03 5.517052766896e-04 0.0 
5.517052766896e-04 1.651737930134e-03 0.0 
0.0 0.0 -6.123778370825e-04 
-2.202070906779e-04 -1.755376406008e-04 0.0 
-1.755376406008e-04 1.255756531969e-03 0.0 
0.0 0.0 -2.173296945085e-04 
-5.820533045938e-04 1.243875178375e-04 0.0 
1.243875178375e-04 7.783491847960e-03 0.0 
0.0 0.0 -8.771208047979e-04 
-1.022272037248e-04 4.922820238481e-06 0.0 
4.922820238481e-06 5.965869288915e-04 0.0 
0.0 0.0 -1.019437782286e-04 
-6.103568231060e-04 4.711034198322e-04 0.0 
4.711034198322e-04 4.242870275907e-03 0.0 
0.0 0.0 -6.678899790657e-04 
2.704952366919e-04 -2.459901001715e-04 0.0 
-2.459901001715e-04 6.248828423842e-04 0.0 
0.0 0.0 -2.365401520142e-04 
-7.033082717392e-04 4.023399531608e-04 0.0 
4.023399531608e-04 4.583479909238e-03 0.0 
0.0 0.0 -7.094882865497e-04 
-4.099148822416e-04 4.176843051939e-04 0.0 
4.176843051939e-04 7.965946024502e-03 0.0 
0.0 0.0 -9.674616672153e-04 
-3.622100979920e-04 8.991276199515e-04 0.0 
8.991276199515e-04 7.706228285347e-03 0.0 
0.0 0.0 -1.059525570543e-03 
-8.673920198820e-04 1.847071888206e-04 0.0 
1.847071888206e-04 5.656037287956e-03 0.0 
0.0 0.0 -8.613793510407e-04 
-1.969643249741e-04 -2.643595705587e-05 0.0 
-2.643595705587e-05 7.486662135304e-04 0.0 
0.0 0.0 -1.793976806842e-04 
-1.826266447966e-04 1.955672024509e-04 0.0 
1.955672024509e-04 9.200601904338e-04 0.0 
0.0 0.0 -1.838036673156e-04 
-2.361898229358e-04 4.404631865774e-05 0.0 
4.404631865774e-05 1.375633081646e-03 0.0 
0.0 0.0 -2.179364692381e-04 
-8.914280815503e-05 -7.859248335422e-05 0.0 
-7.859248335422e-05 6.353718855090e-03 0.0 
0.0 0.0 -8.376861362202e-04 
-7.703836607526e-04 2.904011669622e-05 0.0 
2.904011669622e-05 5.271332940567e-03 0.0 
0.0 0.0 -7.704300227928e-04 
-8.168157235619e-04 -2.113983721696e-04 0.0 
-2.113983721696e-04 5.355765378531e-03 0.0 
0.0 0.0 -8.109332722942e-04 
-4.985291838563e-04 6.786625412968e-04 0.0 
6.786625412968e-04 7.827134714860e-03 0.0 
0.0 0.0 -1.033173469760e-03 
-7.906151483404e-04 -4.272528123306e-05 0.0 
-4.272528123306e-05 5.268742702063e-03 0.0 
0.0 0.0 -7.720444664677e-04 
-6.929411678580e-04 9.260507091980e-04 0.0 
9.260507091980e-04 8.400053552106e-03 0.0 
0.0 0.0 -1.215155343213e-03 
1.919735565260e-03 2.527263849383e-03 0.0 
2.527263849383e-03 3.774708500197e-03 0.0 
0.0 0.0 -9.468847130179e-04 
-8.942284646778e-04 2.014665993212e-04 0.0 
2.014665993212e-04 5.869620442183e-03 0.0 
0.0 0.0 -8.907448815977e-04 
7.076747108224e-04 2.481540251775e-03 0.0 
2.481540251775e-03 1.603314969884e-03 0.0 
0.0 0.0 -4.477608806526e-04 
2.203692091811e-03 1.491587304752e-03 0.0 
1.491587304752e-03 2.995837464770e-03 0.0 
0.0 0.0 -8.569516637160e-04 
-2.837115890333e-04 -1.682030177028e-04 0.0 
-1.682030177028e-04 1.794255566759e-03 0.0 
0.0 0.0 -2.938158648993e-04 
-6.195296595928e-04 4.916552237974e-04 0.0 
4.916552237974e-04 7.936795124267e-03 0.0 
0.0 0.0 -1.007907952957e-03 
1.502628709164e-04 1.983273221723e-03 0.0 
1.983273221723e-03 7.222901479823e-03 0.0 
0.0 0.0 -1.182949595748e-03 
5.963943872106e-06 1.708041092447e-03 0.0 
1.708041092447e-03 7.418426222103e-03 0.0 
0.0 0.0 -1.233652589349e-03 
1.064670771021e-03 -2.399367690644e-05 0.0 
-2.399367690644e-05 3.780113052867e-03 0.0 
0.0 0.0 -7.642368097173e-04 
-2.913401371448e-04 -2.393603381077e-04 0.0 
-2.393603381077e-04 3.645790686132e-03 0.0 
0.0 0.0 -6.062238016986e-04 
1.315578101118e-04 7.145387089873e-04 0.0 
7.145387089873e-04 3.793186178560e-03 0.0 
0.0 0.0 -7.021192356133e-04 
9.556438243187e-04 2.939530543044e-04 0.0 
2.939530543044e-04 3.980214486914e-03 0.0 
0.0 0.0 -7.798787109686e-04 
-7.190036330428e-04 3.640983631875e-04 0.0 
3.640983631875e-04 8.019847143179e-03 0.0 
0.0 0.0 -9.853571818943e-04 
7.886548594877e-05 1.809826019409e-04 0.0 
1.809826019409e-04 2.209040911625e-03 0.0 
0.0 0.0 -4.287941800800e-04 
2.526181002064e-03 1.286178794334e-04 0.0 
1.286178794334e-04 1.001640662712e-04 0.0 
0.0 0.0 -4.991860405784e-04 
2.555556553139e-03 8.988049826431e-05 0.0 
8.988049826431e-05 2.387980809567e-04 0.0 
0.0 0.0 -5.272458293186e-04 
-9.298142287186e-04 1.923659803105e-04 0.0 
1.923659803105e-04 6.128652270364e-03 0.0 
0.0 0.0 -9.279583942085e-04 
-5.632452459898e-04 2.336290680653e-04 0.0 
2.336290680653e-04 8.090867166252e-03 0.0 
0.0 0.0 -9.400324955291e-04 
-1.500618556416e-04 1.939391886343e-05 0.0 
1.939391886343e-05 9.791726158994e-04 0.0 
0.0 0.0 -1.598254822437e-04 
-7.997489048121e-04 2.553550133544e-04 0.0 
2.553550133544e-04 8.061343990506e-03 0.0 
0.0 0.0 -9.648412056284e-04 
2.327678901676e-03 -8.543518850044e-05 0.0 
-8.543518850044e-05 2.435318454230e-04 0.0 
0.0 0.0 -4.905422085546e-04 
1.637073289234e-05 1.647244550852e-03 0.0 
1.647244550852e-03 7.367391282740e-03 0.0 
0.0 0.0 -1.130716892977e-03 
-1.158884892444e-03 -1.742617786429e-04 0.0 
-1.742617786429e-04 7.755154140614e-03 0.0 
0.0 0.0 -1.131106388269e-03 
-4.494164570379e-05 1.000468586638e-06 0.0 
1.000468586638e-06 2.551504228595e-04 0.0 
0.0 0.0 -4.576175375704e-05 
2.447246358273e-04 1.049261850048e-03 0.0 
1.049261850048e-03 3.388110853940e-03 0.0 
0.0 0.0 -6.690559060524e-04 
-1.145839910847e-03 -1.986902778567e-04 0.0 
-1.986902778567e-04 7.714207575352e-03 0.0 
0.0 0.0 -1.146019594970e-03 
-1.387627827531e-04 1.307388424550e-03 0.0 
1.307388424550e-03 7.500424276876e-03 0.0 
0.0 0.0 -1.099849883898e-03 
-9.256050002818e-04 -1.923147081747e-04 0.0 
-1.923147081747e-04 6.153846390776e-03 0.0 
0.0 0.0 -9.220067723808e-04 
1.707482130954e-03 2.153860750160e-03 0.0 
2.153860750160e-03 4.137255733114e-03 0.0 
0.0 0.0 -9.435882939665e-04 
-2.342427363044e-04 2.353675997876e-04 0.0 
2.353675997876e-04 1.484350047424e-03 0.0 
0.0 0.0 -2.717413095444e-04 
-6.765743799931e-05 4.496968366450e-04 0.0 
4.496968366450e-04 6.779124770996e-03 0.0 
0.0 0.0 -9.247565622545e-04 
2.057372056173e-03 -4.897396181399e-05 0.0 
-4.897396181399e-05 6.839576914161e-04 0.0 
0.0 0.0 -5.184025592846e-04 
2.280047319532e-03 -2.614904200745e-04 0.0 
-2.614904200745e-04 5.838230859751e-04 0.0 
0.0 0.0 -5.242929400402e-04 
-1.101238409147e-04 1.624386361106e-05 0.0 
1.624386361106e-05 6.254833965552e-04 0.0 
0.0 0.0 -1.042847928631e-04 
-2.919878970851e-04 1.016564367537e-03 0.0 
1.016564367537e-03 7.627241645878e-03 0.0 
0.0 0.0 -1.071971817564e-03 
-1.061890403171e-04 -7.703784190734e-05 0.0 
-7.703784190734e-05 1.976741547337e-03 0.0 
0.0 0.0 -3.564518745397e-04 
4.349355731644e-04 1.782576574947e-04 0.0 
1.782576574947e-04 5.782172781872e-03 0.0 
0.0 0.0 -8.608535107431e-04 
-8.524872272040e-04 -2.315298743520e-04 0.0 
-2.315298743520e-04 5.680178330686e-03 0.0 
0.0 0.0 -8.555322119248e-04 
1.019392701602e-03 -4.738438390724e-04 0.0 
-4.738438390724e-04 1.351746302036e-03 0.0 
0.0 0.0 -4.411586999297e-04 
2.354306708148e-03 -2.873614394535e-04 0.0 
-2.873614394535e-04 3.393247132293e-04 0.0 
0.0 0.0 -4.964677435772e-04 
-8.901378245668e-04 -1.873561009025e-04 0.0 
-1.873561009025e-04 5.908561179355e-03 0.0 
0.0 0.0 -8.867075537039e-04 
-5.585339483185e-04 5.678612983315e-04 0.0 
5.678612983315e-04 7.879312230794e-03 0.0 
0.0 0.0 -1.022070297631e-03 
-3.513155949565e-04 1.415988247888e-04 0.0 
1.415988247888e-04 3.809879035863e-03 0.0 
0.0 0.0 -6.378868265889e-04 
8.393098841503e-04 6.533595834257e-05 0.0 
6.533595834257e-05 4.574598132169e-03 0.0 
0.0 0.0 -8.022845092583e-04 
-1.699691146725e-04 8.751900330570e-04 0.0 
8.751900330570e-04 4.610040781058e-03 0.0 
0.0 0.0 -8.030799362305e-04 
1.608822958363e-03 3.293288923955e-04 0.0 
3.293288923955e-04 3.332281750047e-03 0.0 
0.0 0.0 -7.895033359882e-04 
2.475111248290e-03 -8.873212793598e-05 0.0 
-8.873212793598e-05 4.326463399099e-04 0.0 
0.0 0.0 -5.326451291888e-04 
1.090570959330e-03 5.451420175769e-05 0.0 
5.451420175769e-05 3.954349272956e-03 0.0 
0.0 0.0 -7.806144020969e-04 
-2.302442720124e-04 5.610518882697e-04 0.0 
5.610518882697e-04 4.572196062450e-03 0.0 
0.0 0.0 -7.729461360948e-04 
2.307073914398e-04 1.279130544579e-03 0.0 
1.279130544579e-03 5.440899384457e-03 0.0 
0.0 0.0 -9.750636634749e-04 
1.778873251760e-03 1.392262780758e-03 0.0 
1.392262780758e-03 3.781166174609e-03 0.0 
0.0 0.0 -8.782427072637e-04 
8.937930271511e-05 1.021238483684e-03 0.0 
1.021238483684e-03 4.138750342063e-03 0.0 
0.0 0.0 -7.676694601592e-04 
7.645048051875e-04 4.450219154728e-05 0.0 
4.450219154728e-05 2.789420070142e-03 0.0 
0.0 0.0 -6.551190094499e-04 
1.446546323192e-04 3.563195340469e-04 0.0 
3.563195340469e-04 2.352528477021e-03 0.0 
0.0 0.0 -4.640097282922e-04 
-1.208773266507e-04 1.072410247896e-04 0.0 
1.072410247896e-04 3.402125532659e-03 0.0 
0.0 0.0 -6.091269606258e-04 
1.979741357570e-03 2.229616841389e-03 0.0 
2.229616841389e-03 3.788859741661e-03 0.0 
0.0 0.0 -9.460669021752e-04 
2.643443119355e-03 1.356381784346e-03 0.0 
1.356381784346e-03 1.983245841778e-03 0.0 
0.0 0.0 -8.154179811113e-04 
-4.600658402936e-04 3.383789804200e-04 0.0 
3.383789804200e-04 8.028547598068e-03 0.0 
0.0 0.0 -9.579268824272e-04 
-1.169515206127e-03 -1.894067828278e-04 0.0 
-1.894067828278e-04 7.912550107300e-03 0.0 
0.0 0.0 -1.174325249119e-03 
8.987662579657e-04 -1.701842277183e-04 0.0 
-1.701842277183e-04 1.172760401293e-03 0.0 
0.0 0.0 -4.069995479128e-04 
-7.658702143066e-04 3.051602790416e-04 0.0 
3.051602790416e-04 8.015032994932e-03 0.0 
0.0 0.0 -9.740399507123e-04 
-6.607334058993e-05 4.845076232460e-04 0.0 
4.845076232460e-04 7.327344288871e-03 0.0 
0.0 0.0 -9.433849936269e-04 
9.692812472201e-04 1.255363886435e-03 0.0 
1.255363886435e-03 2.994767538345e-03 0.0 
0.0 0.0 -7.237787631415e-04 
-9.766466055395e-05 -9.527665079747e-06 0.0 
-9.527665079747e-06 3.256739367155e-04 0.0 
0.0 0.0 -9.771826121210e-05 
-5.805595018392e-04 2.174098742015e-04 0.0 
2.174098742015e-04 8.144600943644e-03 0.0 
0.0 0.0 -9.307487159925e-04 
-1.171509388478e-03 -1.678154851062e-04 0.0 
-1.678154851062e-04 7.861802012676e-03 0.0 
0.0 0.0 -1.167157861819e-03 
2.004001313043e-03 -2.028363895939e-04 0.0 
-2.028363895939e-04 3.478379551502e-04 0.0 
0.0 0.0 -4.535238702637e-04 
-8.484867594155e-04 1.707186798702e-04 0.0 
1.707186798702e-04 8.099860243154e-03 0.0 
0.0 0.0 -9.474672725327e-04 
8.411195043576e-04 -1.184504752581e-06 0.0 
-1.184504752581e-06 4.370121465775e-03 0.0 
0.0 0.0 -7.855992033131e-04 
-4.099409827865e-04 6.820953088534e-04 0.0 
6.820953088534e-04 3.772981285433e-03 0.0 
0.0 0.0 -6.229492605273e-04 
-8.398341044078e-04 1.726875732327e-04 0.0 
1.726875732327e-04 5.514357495571e-03 0.0 
0.0 0.0 -8.408860858065e-04 
2.785197724174e-03 1.183286058435e-03 0.0 
1.183286058435e-03 1.751159636161e-03 0.0 
0.0 0.0 -8.037873902352e-04 
1.254065911871e-03 -6.370935995427e-05 0.0 
-6.370935995427e-05 3.225226780289e-03 0.0 
0.0 0.0 -7.430492365892e-04 
1.602872432683e-03 4.549594500201e-04 0.0 
4.549594500201e-04 3.547068991773e-03 0.0 
0.0 0.0 -8.084986035973e-04 
-9.700343521080e-04 -1.978951788456e-04 0.0 
-1.978951788456e-04 6.510189924062e-03 0.0 
0.0 0.0 -9.721028620036e-04 
-6.977402691426e-04 1.822093202730e-04 0.0 
1.822093202730e-04 4.487185732323e-03 0.0 
0.0 0.0 -6.945885048819e-04 
1.635956976137e-03 1.509451902448e-03 0.0 
1.509451902448e-03 4.141314487707e-03 0.0 
0.0 0.0 -9.000797165794e-04 
-8.975501320031e-04 -2.506583898403e-05 0.0 
-2.506583898403e-05 6.020256954512e-03 0.0 
0.0 0.0 -8.839498032872e-04 
5.275807414836e-04 -2.959626340935e-04 0.0 
-2.959626340935e-04 3.100170691969e-03 0.0 
0.0 0.0 -6.521967345917e-04 
1.902874649883e-03 1.263089703098e-03 0.0 
1.263089703098e-03 3.444844629528e-03 0.0 
0.0 0.0 -8.571463222938e-04 
1.755381858828e-03 -3.671430852419e-04 0.0 
-3.671430852419e-04 1.054267267588e-03 0.0 
0.0 0.0 -5.155438399969e-04 
6.201065166489e-05 1.530789248715e-04 0.0 
1.530789248715e-04 4.922863315527e-03 0.0 
0.0 0.0 -7.673458200197e-04 
-5.184917320349e-05 -5.023579163689e-06 0.0 
-5.023579163689e-06 2.615427770040e-04 0.0 
0.0 0.0 -4.585464485956e-05 
1.665443437317e-04 5.303277670665e-04 0.0 
5.303277670665e-04 2.553532269627e-03 0.0 
0.0 0.0 -4.997308803768e-04 
2.010662545300e-03 -4.096399229295e-04 0.0 
-4.096399229295e-04 6.332747386689e-04 0.0 
0.0 0.0 -4.875765080988e-04 
2.101393266423e-04 9.108913244795e-05 0.0 
9.108913244795e-05 3.688841867794e-03 0.0 
0.0 0.0 -7.107714004313e-04 
7.125644681107e-04 1.253014188248e-03 0.0 
1.253014188248e-03 3.465003457145e-03 0.0 
0.0 0.0 -7.595228636782e-04 
9.749299571155e-04 3.674452869426e-04 0.0 
3.674452869426e-04 4.174137597509e-03 0.0 
0.0 0.0 -7.955628379059e-04 
-8.902631525084e-04 -1.867681813361e-04 0.0 
-1.867681813361e-04 5.973122971149e-03 0.0 
0.0 0.0 -8.962969588583e-04 
1.671881723403e-03 -5.114577586766e-04 0.0 
-5.114577586766e-04 7.547121186343e-04 0.0 
0.0 0.0 -4.505554202764e-04 
-8.661907957388e-04 1.609770511269e-04 0.0 
1.609770511269e-04 8.137093510379e-03 0.0 
0.0 0.0 -9.403807993975e-04 
-8.819043585380e-04 -1.894669265129e-04 0.0 
-1.894669265129e-04 5.856756576790e-03 0.0 
0.0 0.0 -8.789935771182e-04 
-9.162952441575e-05 1.211841596665e-04 0.0 
1.211841596665e-04 4.146252517597e-03 0.0 
0.0 0.0 -7.176799502407e-04 
-8.268093857258e-04 -1.531842729810e-04 0.0 
-1.531842729810e-04 5.590387202823e-03 0.0 
0.0 0.0 -8.436662038215e-04 
-2.429986112475e-05 -2.529648846493e-04 0.0 
-2.529648846493e-04 3.985657320335e-03 0.0 
0.0 0.0 -6.958182173131e-04 
0.0 0.0 0.0 
0.0 0.0 0.0 
0.0 0.0 0.0 
-8.787853985480e-04 -1.870345829221e-04 0.0 
-1.870345829221e-04 5.815290073788e-03 0.0 
0.0 0.0 -8.733545218784e-04 
-6.014622352257e-04 2.088026922776e-04 0.0 
2.088026922776e-04 3.826503758406e-03 0.0 
0.0 0.0 -5.956302995864e-04 
4.259241687340e-04 1.137417674131e-05 0.0 
1.137417674131e-05 -1.277266942406e-04 0.0 
0.0 0.0 -1.277989176400e-04 
-3.773243646972e-04 1.585782379157e-04 0.0 
1.585782379157e-04 4.220168507799e-03 0.0 
0.0 0.0 -7.041275119738e-04 
7.051683011926e-04 3.789323566467e-04 0.0 
3.789323566467e-04 4.807750673650e-03 0.0 
0.0 0.0 -8.165818217364e-04 
-1.145850176714e-03 1.952473198253e-04 0.0 
1.952473198253e-04 7.640587141445e-03 0.0 
0.0 0.0 -1.146946825052e-03 
1.876065697188e-03 4.456328164501e-04 0.0 
4.456328164501e-04 2.912850651565e-03 0.0 
0.0 0.0 -7.867472354347e-04 
1.760936556540e-03 6.960029768999e-04 0.0 
6.960029768999e-04 3.107504115336e-03 0.0 
0.0 0.0 -8.006448668511e-04 
-7.498668879057e-04 -1.500423199849e-04 0.0 
-1.500423199849e-04 4.956000169468e-03 0.0 
0.0 0.0 -7.495231765994e-04 
-7.499562203702e-04 -7.649065135971e-06 0.0 
-7.649065135971e-06 4.585920683461e-03 0.0 
0.0 0.0 -7.312625299844e-04 
-1.259814766287e-03 -2.251942805194e-05 0.0 
-2.251942805194e-05 8.482919934012e-03 0.0 
0.0 0.0 -1.286111585339e-03 
-5.231130352576e-04 2.539057296591e-04 0.0 
2.539057296591e-04 5.074886826896e-03 0.0 
0.0 0.0 -8.082854548548e-04 
1.677614292534e-03 1.579565227338e-06 0.0 
1.579565227338e-06 -4.379259419278e-04 0.0 
0.0 0.0 -2.037747799854e-04 
-1.708414869064e-04 -2.301941607912e-04 0.0 
-2.301941607912e-04 1.447734320603e-03 0.0 
0.0 0.0 -2.569639750501e-04 
-9.553383276929e-05 -1.682092997356e-05 0.0 
-1.682092997356e-05 3.188442541892e-04 0.0 
0.0 0.0 -9.570446632282e-05 
3.924352085305e-04 -3.500027578418e-04 0.0 
-3.500027578418e-04 1.924566868469e-03 0.0 
0.0 0.0 -4.284133232656e-04 
7.864826180048e-04 2.127339757769e-03 0.0 
2.127339757769e-03 5.622607088018e-03 0.0 
0.0 0.0 -1.042508957871e-03 
-1.147232605264e-03 -1.988471843747e-04 0.0 
-1.988471843747e-04 7.696346442353e-03 0.0 
0.0 0.0 -1.144649651339e-03 
3.983956840324e-05 2.597742196976e-04 0.0 
2.597742196976e-04 5.940538567924e-03 0.0 
0.0 0.0 -8.304029486860e-04 
6.269688624362e-05 -2.902614984492e-04 0.0 
-2.902614984492e-04 2.554090041562e-03 0.0 
0.0 0.0 -4.827803379924e-04 
-1.002185225207e-04 -2.115404110560e-04 0.0 
-2.115404110560e-04 5.156138605411e-03 0.0 
0.0 0.0 -7.554059838657e-04 
2.790793469854e-04 4.770591680225e-04 0.0 
4.770591680225e-04 6.023911967819e-03 0.0 
0.0 0.0 -8.723256693054e-04 
-2.433427944634e-04 -1.675711039053e-04 0.0 
-1.675711039053e-04 1.671242231603e-03 0.0 
0.0 0.0 -2.821198837983e-04 
-5.962549057611e-04 -2.242943986441e-04 0.0 
-2.242943986441e-04 3.850260609285e-03 0.0 
0.0 0.0 -5.942115541273e-04 
-4.821057558984e-04 1.938812463927e-04 0.0 
1.938812463927e-04 3.093517382699e-03 0.0 
0.0 0.0 -4.980019828625e-04 
-6.152296437738e-04 1.973112772882e-04 0.0 
1.973112772882e-04 8.140982407122e-03 0.0 
0.0 0.0 -9.233890032515e-04 
-8.771626378426e-04 1.163058268095e-04 0.0 
1.163058268095e-04 8.135497696542e-03 0.0 
0.0 0.0 -9.327138071696e-04 
-6.679494605951e-04 -1.695756001761e-04 0.0 
-1.695756001761e-04 4.277020538631e-03 0.0 
0.0 0.0 -6.580288049735e-04 
-3.245685468928e-04 -2.281464276719e-04 0.0 
-2.281464276719e-04 4.448112865718e-03 0.0 
0.0 0.0 -7.023959443273e-04 
1.164448197028e-03 2.580192279361e-04 0.0 
2.580192279361e-04 3.405101437707e-03 0.0 
0.0 0.0 -7.595128405190e-04 
2.073648708139e-04 5.167972790181e-04 0.0 
5.167972790181e-04 6.339042915671e-03 0.0 
0.0 0.0 -8.901567432170e-04 
-1.532064639863e-04 1.410921575949e-04 0.0 
1.410921575949e-04 1.493321329375e-03 0.0 
0.0 0.0 -2.880367495917e-04 
3.662424672143e-04 4.314491428472e-04 0.0 
4.314491428472e-04 5.725074981719e-03 0.0 
0.0 0.0 -8.544852581875e-04 
6.563873959734e-04 2.850847499548e-05 0.0 
2.850847499548e-05 2.045599809462e-04 0.0 
0.0 0.0 -1.612556504808e-04 
-3.005160004862e-04 -2.329032792026e-04 0.0 
-2.329032792026e-04 4.045691213780e-03 0.0 
0.0 0.0 -6.724657308136e-04 
2.615089837508e-04 -2.573501017940e-04 0.0 
-2.573501017940e-04 3.908121655657e-03 0.0 
0.0 0.0 -7.093227793007e-04 
7.218065545327e-04 7.971322692347e-06 0.0 
7.971322692347e-06 -4.944189197189e-04 0.0 
0.0 0.0 -9.745184349161e-05 
-6.107893375519e-04 1.961955655377e-04 0.0 
1.961955655377e-04 4.041501780347e-03 0.0 
0.0 0.0 -6.267591816330e-04 
-1.179150888516e-03 1.722766776772e-04 0.0 
1.722766776772e-04 7.845621701176e-03 0.0 
0.0 0.0 -1.176862138969e-03 
1.396351867554e-03 1.724006724010e-05 0.0 
1.724006724010e-05 -2.970682994447e-04 0.0 
0.0 0.0 -2.117661579594e-04 
-7.312532489837e-04 1.362386611746e-05 0.0 
1.362386611746e-05 4.573834094121e-03 0.0 
0.0 0.0 -7.322753781719e-04 
-7.047922472484e-04 1.123922026655e-06 0.0 
1.123922026655e-06 4.847576831705e-03 0.0 
0.0 0.0 -7.130472889423e-04 
1.570168772820e-03 5.768013396970e-04 0.0 
5.768013396970e-04 3.789039790437e-03 0.0 
0.0 0.0 -8.284344052406e-04 
-4.234472983312e-04 -1.879766100299e-04 0.0 
-1.879766100299e-04 3.073217280328e-03 0.0 
0.0 0.0 -4.943513106837e-04 
1.734325105933e-03 -1.403386725840e-04 0.0 
-1.403386725840e-04 7.852012324164e-04 0.0 
0.0 0.0 -4.817493388239e-04 
4.516533781211e-05 3.168808429015e-04 0.0 
3.168808429015e-04 1.717448286149e-03 0.0 
0.0 0.0 -3.398054741319e-04 
-3.211947513676e-04 2.261969341398e-04 0.0 
2.261969341398e-04 6.806621263561e-03 0.0 
0.0 0.0 -8.547182040788e-04 
9.727978714707e-05 1.332754501530e-03 0.0 
1.332754501530e-03 6.947258356385e-03 0.0 
0.0 0.0 -1.060540870051e-03 
-1.101033919243e-03 -1.960948394901e-04 0.0 
-1.960948394901e-04 7.394725323298e-03 0.0 
0.0 0.0 -1.101088927253e-03 
5.643011435938e-04 1.801721579118e-03 0.0 
1.801721579118e-03 1.817861619632e-03 0.0 
0.0 0.0 -4.457015571677e-04 
-1.935174043661e-04 2.248016886254e-04 0.0 
2.248016886254e-04 9.446433046728e-04 0.0 
0.0 0.0 -1.905831712289e-04 
-6.402160984968e-04 1.408734673236e-04 0.0 
1.408734673236e-04 4.542461671981e-03 0.0 
0.0 0.0 -6.999131133628e-04 
-7.213924053115e-04 -5.563189413671e-07 0.0 
-5.563189413671e-07 4.593100885078e-03 0.0 
0.0 0.0 -7.345111139194e-04 
-7.221802994753e-04 -3.459116523951e-05 0.0 
-3.459116523951e-05 4.860709319501e-03 0.0 
0.0 0.0 -7.144802219087e-04 
1.327197014990e-03 1.873803221926e-05 0.0 
1.873803221926e-05 -4.529863814463e-04 0.0 
0.0 0.0 -2.700290809693e-04 
6.395991913630e-04 4.804065274255e-06 0.0 
4.804065274255e-06 -4.186780364436e-04 0.0 
0.0 0.0 -9.468049496542e-05 
6.246557394006e-04 -4.649565117828e-05 0.0 
-4.649565117828e-05 -8.237176576390e-05 0.0 
0.0 0.0 -1.795416262981e-04 
-1.033634632786e-04 1.135612953024e-04 0.0 
1.135612953024e-04 2.023477588143e-03 0.0 
0.0 0.0 -3.820941496288e-04 
9.179173932204e-04 5.695927876569e-05 0.0 
5.695927876569e-05 -3.523421068084e-04 0.0 
0.0 0.0 -1.265281376610e-04 
-7.177698882456e-04 1.875976177193e-04 0.0 
1.875976177193e-04 4.537921580666e-03 0.0 
0.0 0.0 -6.918148876825e-04 
0.0 0.0 0.0 
0.0 0.0 0.0 
0.0 0.0 0.0 
-2.105591179656e-05 9.043808498147e-05 0.0 
9.043808498147e-05 2.337435742227e-03 0.0 
0.0 0.0 -4.482372226011e-04 
-9.484602570362e-04 5.937741420738e-05 0.0 
5.937741420738e-05 6.186307546056e-03 0.0 
0.0 0.0 -9.582560723523e-04 
-7.114040901391e-04 1.008097673958e-05 0.0 
1.008097673958e-05 4.858827396879e-03 0.0 
0.0 0.0 -7.120344407548e-04 
6.617770199729e-04 2.109303698704e-03 0.0 
2.109303698704e-03 5.967770637042e-03 0.0 
0.0 0.0 -1.065095875855e-03 
7.149820829142e-04 3.168556582970e-04 0.0 
3.168556582970e-04 4.586238933322e-03 0.0 
0.0 0.0 -8.004921722637e-04 
-9.024629704430e-04 7.830558015855e-05 0.0 
7.830558015855e-05 5.773999043953e-03 0.0 
0.0 0.0 -8.988447104697e-04 
-5.248669465082e-04 2.030027087803e-04 0.0 
2.030027087803e-04 3.352814556998e-03 0.0 
0.0 0.0 -5.269378630653e-04 
9.032749226521e-04 -3.022880911894e-05 0.0 
-3.022880911894e-05 -4.178528841062e-05 0.0 
0.0 0.0 -1.602995255322e-04 
-1.154083307494e-03 8.395281144193e-05 0.0 
8.395281144193e-05 8.638448136861e-03 0.0 
0.0 0.0 -1.340974968048e-03 
-1.331740677566e-03 -1.067318439001e-06 0.0 
-1.067318439001e-06 9.107204473734e-03 0.0 
0.0 0.0 -1.320295381545e-03 
-8.482992821085e-04 2.310186269769e-04 0.0 
2.310186269769e-04 5.616583664962e-03 0.0 
0.0 0.0 -8.588387843224e-04 
-7.462574470129e-04 -7.506809615133e-06 0.0 
-7.506809615133e-06 4.590636784032e-03 0.0 
0.0 0.0 -7.326073368541e-04 
-5.251543525855e-04 -1.205978746021e-04 0.0 
-1.205978746021e-04 3.428806267579e-03 0.0 
0.0 0.0 -5.314511797787e-04 
-1.323491096028e-03 -2.283744003806e-05 0.0 
-2.283744003806e-05 9.085754239402e-03 0.0 
0.0 0.0 -1.322576402756e-03 
-2.577169831097e-05 -2.729135633669e-04 0.0 
-2.729135633669e-04 2.246725664039e-03 0.0 
0.0 0.0 -4.166600706249e-04 
-7.057672473389e-04 -4.164103403379e-06 0.0 
-4.164103403379e-06 4.837446989167e-03 0.0 
0.0 0.0 -7.125614225629e-04 
-7.131316839303e-04 7.226971892510e-06 0.0 
7.226971892510e-06 4.584933787265e-03 0.0 
0.0 0.0 -7.312775522649e-04 
-5.725406859202e-04 1.456215652709e-03 0.0 
1.456215652709e-03 4.254825509829e-03 0.0 
0.0 0.0 -6.755779900756e-04 
-3.317980001710e-04 1.139690504648e-03 0.0 
1.139690504648e-03 7.808603053974e-03 0.0 
0.0 0.0 -1.277165166709e-03 
-1.293765856573e-03 1.607380559237e-05 0.0 
1.607380559237e-05 9.094492997413e-03 0.0 
0.0 0.0 -1.322582685247e-03 
8.323956571664e-04 4.325706030306e-05 0.0 
4.325706030306e-05 -2.332589070975e-04 0.0 
0.0 0.0 -1.457139713246e-04 
1.212074665374e-03 4.162105491450e-06 0.0 
4.162105491450e-06 -4.026448766114e-04 0.0 
0.0 0.0 -2.725474171392e-04 
-2.020469504074e-04 1.748624884584e-04 0.0 
1.748624884584e-04 1.155468548077e-03 0.0 
0.0 0.0 -2.221130066924e-04 
4.802223483096e-04 9.750542202175e-05 0.0 
9.750542202175e-05 3.626813744507e-03 0.0 
0.0 0.0 -7.234720418618e-04 
-7.405977244287e-04 2.222271291765e-04 0.0 
2.222271291765e-04 7.513916325362e-03 0.0 
0.0 0.0 -8.401825777864e-04 
-3.851215442265e-05 -6.758275575605e-05 0.0 
-6.758275575605e-05 2.149841041377e-04 0.0 
0.0 0.0 -4.506945562690e-05 
-1.095035538177e-03 -2.135230687798e-04 0.0 
-2.135230687798e-04 7.297496536284e-03 0.0 
0.0 0.0 -1.092518628633e-03 
0.0 0.0 0.0 
0.0 0.0 0.0 
0.0 0.0 0.0 
1.473103661093e-03 7.082563773260e-04 0.0 
7.082563773260e-04 3.760881431028e-03 0.0 
0.0 0.0 -8.214484168745e-04 
-6.288110034395e-05 6.701081411356e-06 0.0 
6.701081411356e-06 2.758850751309e-04 0.0 
0.0 0.0 -4.591043399908e-05 
-6.241905191399e-05 -2.511621330169e-05 0.0 
-2.511621330169e-05 2.635940123717e-04 0.0 
0.0 0.0 -4.615290204994e-05 
1.492816117211e-03 5.964649237728e-04 0.0 
5.964649237728e-04 3.532048464022e-03 0.0 
0.0 0.0 -8.033706145321e-04 
-5.949470127592e-04 1.868557740006e-04 0.0 
1.868557740006e-04 7.161724981860e-03 0.0 
0.0 0.0 -8.405230595595e-04 
-9.353430265021e-04 -9.437658603170e-05 0.0 
-9.437658603170e-05 6.401376295666e-03 0.0 
0.0 0.0 -9.361271490834e-04 
-7.292657224304e-04 -1.767865209209e-04 0.0 
-1.767865209209e-04 4.795789678295e-03 0.0 
0.0 0.0 -7.268406435589e-04 
8.886294938392e-04 -1.569653248404e-05 0.0 
-1.569653248404e-05 -6.617903529604e-04 0.0 
0.0 0.0 -9.721677466234e-05 
-2.925183508698e-04 -2.119841895671e-04 0.0 
-2.119841895671e-04 5.503531371253e-03 0.0 
0.0 0.0 -7.615273987002e-04 
-1.337797817327e-03 -2.530827551252e-05 0.0 
-2.530827551252e-05 8.814034455446e-03 0.0 
0.0 0.0 -1.337797817327e-03 
-1.326036287352e-03 -1.455315038833e-04 0.0 
-1.455315038833e-04 9.082015863418e-03 0.0 
0.0 0.0 -1.322354755130e-03 
-7.123437340294e-04 1.173862101606e-05 0.0 
1.173862101606e-05 4.855322276952e-03 0.0 
0.0 0.0 -7.125764448434e-04 
1.424598084594e-03 8.137732140853e-04 0.0 
8.137732140853e-04 4.018220063262e-03 0.0 
0.0 0.0 -8.400630012497e-04 
-1.223945921589e-03 6.790260411354e-05 0.0 
6.790260411354e-05 8.722925234128e-03 0.0 
0.0 0.0 -1.341607717199e-03 
1.740700994073e-03 1.834579544992e-03 0.0 
1.834579544992e-03 4.167779365677e-03 0.0 
0.0 0.0 -9.416465891631e-04 
8.091019296312e-04 3.803687058461e-05 0.0 
3.803687058461e-05 -1.177850755384e-05 0.0 
0.0 0.0 -1.589907658001e-04 
1.184826913922e-03 -9.294107609581e-05 0.0 
-9.294107609581e-05 -4.836211953709e-04 0.0 
0.0 0.0 -1.835275041770e-04 
7.892813737849e-04 -3.759463174071e-05 0.0 
-3.759463174071e-05 -5.468006462328e-04 0.0 
0.0 0.0 -1.039203118081e-04 
-5.871622493136e-04 1.953666188975e-04 0.0 
1.953666188975e-04 3.814212399552e-03 0.0 
0.0 0.0 -5.933358154923e-04 
-8.060226453945e-04 -9.984926399447e-05 0.0 
-9.984926399447e-05 8.284157719454e-03 0.0 
0.0 0.0 -8.704260035432e-04 
-1.249098589656e-03 -2.325383237371e-04 0.0 
-2.325383237371e-04 8.487130897030e-03 0.0 
0.0 0.0 -1.258329778789e-03 
1.556606910847e-03 1.441490402062e-05 0.0 
1.441490402062e-05 -5.497494472987e-04 0.0 
0.0 0.0 -2.738081135850e-04 
-6.989700289776e-04 -1.857489314676e-04 0.0 
-1.857489314676e-04 4.509333602690e-03 0.0 
0.0 0.0 -6.938761155152e-04 
-8.837220112352e-04 1.373471391000e-05 0.0 
1.373471391000e-05 8.123039670601e-03 0.0 
0.0 0.0 -8.843024150284e-04 
-7.749138862496e-04 5.978767730806e-05 0.0 
5.978767730806e-05 8.276500777206e-03 0.0 
0.0 0.0 -8.730503929898e-04 
-6.341734166187e-04 1.486920231024e-04 0.0 
1.486920231024e-04 8.182456254763e-03 0.0 
0.0 0.0 -9.142171657388e-04 
-1.034449558172e-03 2.142439693304e-04 0.0 
2.142439693304e-04 6.840882471351e-03 0.0 
0.0 0.0 -1.027148381742e-03 
-1.117879717661e-03 -2.162737768218e-04 0.0 
-2.162737768218e-04 7.549121072969e-03 0.0 
0.0 0.0 -1.125709525796e-03 
-8.838653084913e-04 6.479137398228e-06 0.0 
6.479137398228e-06 8.093308714324e-03 0.0 
0.0 0.0 -8.849791702783e-04 
-8.881108520327e-04 -5.638792579889e-06 0.0 
-5.638792579889e-06 8.119350192834e-03 0.0 
0.0 0.0 -8.903663879682e-04 
-1.084387157107e-03 1.756228747119e-04 0.0 
1.756228747119e-04 7.304356114432e-03 0.0 
0.0 0.0 -1.092518628634e-03 
1.832181136589e-03 -6.503225638490e-06 0.0 
-6.503225638490e-06 -5.501492279906e-04 0.0 
0.0 0.0 -1.862133286690e-04 
-7.129930244863e-04 -1.525724795117e-06 0.0 
-1.525724795117e-06 4.814692496190e-03 0.0 
0.0 0.0 -7.139539158865e-04 
-7.213897068280e-04 3.016260299782e-05 0.0 
3.016260299782e-05 4.878464797693e-03 0.0 
0.0 0.0 -7.133642253441e-04 
1.308089324207e-03 -5.353600754443e-06 0.0 
-5.353600754443e-06 -4.464168435828e-04 0.0 
0.0 0.0 -2.664286789598e-04 
-8.951992741787e-04 6.106209803194e-05 0.0 
6.106209803194e-05 8.163922967295e-03 0.0 
0.0 0.0 -9.041308002387e-04 
-6.556304719339e-04 1.514941551917e-04 0.0 
1.514941551917e-04 8.178932640030e-03 0.0 
0.0 0.0 -9.065942394921e-04 
-8.924381139048e-04 7.666216276067e-05 0.0 
7.666216276067e-05 8.112842453237e-03 0.0 
0.0 0.0 -9.119871460481e-04 
1.392160424683e-03 3.291149058708e-05 0.0 
3.291149058708e-05 -2.817213939641e-04 0.0 
0.0 0.0 -2.288502057143e-04 
1.421386040456e-03 -4.377582191325e-07 0.0 
-4.377582191325e-07 -2.895574510197e-04 0.0 
0.0 0.0 -2.233273799894e-04 
-8.863131678973e-04 1.091072145543e-04 0.0 
1.091072145543e-04 8.125727341841e-03 0.0 
0.0 0.0 -9.261353143910e-04 
-8.907175028729e-04 7.352903744814e-05 0.0 
7.352903744814e-05 8.118031103064e-03 0.0 
0.0 0.0 -9.200477021125e-04 
-1.016763022878e-03 -2.313272643621e-04 0.0 
-2.313272643621e-04 6.613286649783e-03 0.0 
0.0 0.0 -9.936726122374e-04 
-7.156761650400e-04 3.174630435051e-05 0.0 
3.174630435051e-05 4.813106322843e-03 0.0 
0.0 0.0 -7.124851972278e-04 
-1.051691578887e-03 -2.268729750205e-04 0.0 
-2.268729750205e-04 7.069453692283e-03 0.0 
0.0 0.0 -1.060142436171e-03 
-8.856361613045e-04 -2.246794552562e-04 0.0 
-2.246794552562e-04 5.656932423438e-03 0.0 
0.0 0.0 -8.626607521899e-04 
-6.974461573379e-04 1.315776503887e-05 0.0 
1.315776503887e-05 4.815685979733e-03 0.0 
0.0 0.0 -7.121912678902e-04 
6.167849851290e-04 1.012117695107e-05 0.0 
1.012117695107e-05 4.607100156122e-05 0.0 
0.0 0.0 -2.181221601879e-04 
-4.859098010839e-05 -3.737210181648e-05 0.0 
-3.737210181648e-05 2.860304098853e-04 0.0 
0.0 0.0 -4.591167563965e-05 
-3.185160578243e-05 -1.142237180323e-05 0.0 
-1.142237180323e-05 2.469612253318e-04 0.0 
0.0 0.0 -4.589015575604e-05 
-4.731421252786e-05 -1.226097571219e-05 0.0 
-1.226097571219e-05 2.659450080895e-04 0.0 
0.0 0.0 -4.556578909549e-05 
-7.410966517880e-04 2.317413733404e-04 0.0 
2.317413733404e-04 4.761489269815e-03 0.0 
0.0 0.0 -7.271325101417e-04 
-6.567236663823e-04 2.031409226008e-04 0.0 
2.031409226008e-04 4.278704049819e-03 0.0 
0.0 0.0 -6.600769387058e-04 
0.0 0.0 0.0 
0.0 0.0 0.0 
0.0 0.0 0.0 
-9.198801224475e-04 2.181891872280e-04 0.0 
2.181891872280e-04 6.012871857026e-03 0.0 
0.0 0.0 -7.705001387062e-04 
0.0 0.0 0.0 
0.0 0.0 0.0 
0.0 0.0 0.0 
-7.056112579966e-04 6.086196048921e-04 0.0 
6.086196048921e-04 8.169271514860e-03 0.0 
0.0 0.0 -1.315295749192e-03 
-1.271305715730e-03 3.929051866529e-05 0.0 
3.929051866529e-05 8.737993446788e-03 0.0 
0.0 0.0 -1.340968685557e-03 
-1.071405101395e-03 1.679945320449e-04 0.0 
1.679945320449e-04 8.564738731047e-03 0.0 
0.0 0.0 -1.339320413496e-03 
5.429867795269e-04 1.777302809747e-04 0.0 
1.777302809747e-04 6.833420184985e-04 0.0 
0.0 0.0 -2.599136149544e-04 
-3.098765067247e-04 1.965509147754e-04 0.0 
1.965509147754e-04 2.739771137506e-03 0.0 
0.0 0.0 -4.607467809507e-04 
-1.305426154223e-03 4.894559076746e-06 0.0 
4.894559076746e-06 8.788380829488e-03 0.0 
0.0 0.0 -1.337132911908e-03 
-9.250102397683e-04 1.825844784439e-04 0.0 
1.825844784439e-04 7.121736020333e-03 0.0 
0.0 0.0 -8.103708558584e-04 
-1.328456685219e-03 -1.717838472665e-05 0.0 
-1.717838472665e-05 8.844423340548e-03 0.0 
0.0 0.0 -1.344556937803e-03 
-8.078141755855e-04 1.925382543953e-04 0.0 
1.925382543953e-04 7.399209499629e-03 0.0 
0.0 0.0 -8.290011118669e-04 
-7.688644200355e-04 2.210773577293e-04 0.0 
2.210773577293e-04 7.743752449377e-03 0.0 
0.0 0.0 -8.484811347153e-04 
-6.219774932840e-04 -2.035330289393e-04 0.0 
-2.035330289393e-04 4.041759494414e-03 0.0 
0.0 0.0 -6.267460875326e-04 
-1.333336577702e-03 -3.290028368553e-05 0.0 
-3.290028368553e-05 9.106230716714e-03 0.0 
0.0 0.0 -1.318101597465e-03 
-1.336001964470e-03 1.162172730560e-04 0.0 
1.162172730560e-04 9.090958479552e-03 0.0 
0.0 0.0 -1.321689849711e-03 
-8.610152449574e-04 -2.022093267031e-04 0.0 
-2.022093267031e-04 7.205317986009e-03 0.0 
0.0 0.0 -8.203240348838e-04 
-7.883058308831e-04 -1.975232703618e-04 0.0 
-1.975232703618e-04 7.539595843777e-03 0.0 
0.0 0.0 -8.394027115333e-04 
-6.164454497222e-04 -1.970049169665e-04 0.0 
-1.970049169665e-04 6.142628825364e-03 0.0 
0.0 0.0 -7.740467244852e-04 
0.0 0.0 0.0 
0.0 0.0 0.0 
0.0 0.0 0.0 
-4.906013783775e-04 -2.179638625070e-04 0.0 
-2.179638625070e-04 4.004077409597e-03 0.0 
0.0 0.0 -6.350241097613e-04 
9.537946816076e-04 7.582553554747e-05 0.0 
7.582553554747e-05 -2.264197605521e-04 0.0 
0.0 0.0 -2.042306663928e-04 
-3.985321945793e-04 -1.060503435474e-04 0.0 
-1.060503435474e-04 6.934613980720e-03 0.0 
0.0 0.0 -8.474824718641e-04 
-9.641487709675e-05 1.121890912198e-04 0.0 
1.121890912198e-04 3.774179287481e-03 0.0 
0.0 0.0 -6.753691525988e-04 
-4.199321733780e-04 1.725943636969e-04 0.0 
1.725943636969e-04 6.446968445810e-03 0.0 
0.0 0.0 -8.163717663251e-04 
-1.121067126673e-04 -2.516662460357e-04 0.0 
-2.516662460357e-04 1.935991279561e-03 0.0 
0.0 0.0 -3.504775146279e-04 
-1.550760112035e-04 1.206598951617e-04 0.0 
1.206598951617e-04 7.508446244134e-04 0.0 
0.0 0.0 -1.735952156319e-04 
-5.672011933787e-04 -1.788433631632e-04 0.0 
-1.788433631632e-04 7.020613906323e-03 0.0 
0.0 0.0 -8.274802363693e-04 
-5.590622918539e-04 -2.089773534754e-04 0.0 
-2.089773534754e-04 4.481302702028e-03 0.0 
0.0 0.0 -6.911350174936e-04 
-5.762009062567e-04 2.005988488917e-04 0.0 
2.005988488917e-04 3.584897669436e-03 0.0 
0.0 0.0 -5.611363230934e-04 
-5.086279914442e-04 -1.896292659791e-04 0.0 
-1.896292659791e-04 6.608351537449e-03 0.0 
0.0 0.0 -8.079867286292e-04 
-1.178635420303e-03 1.949598249272e-04 0.0 
1.949598249272e-04 7.912911661083e-03 0.0 
0.0 0.0 -1.188907866872e-03 
-5.561658818215e-04 -2.031625025719e-04 0.0 
-2.031625025719e-04 3.593153237093e-03 0.0 
0.0 0.0 -5.602736785587e-04 
5.617780161890e-04 6.303362474185e-05 0.0 
6.303362474185e-05 5.225550253771e-03 0.0 
0.0 0.0 -8.242512906187e-04 
4.004953455834e-04 1.880096756473e-04 0.0 
1.880096756473e-04 4.638443909846e-03 0.0 
0.0 0.0 -7.758793048898e-04 
-4.739725374764e-04 1.740675807525e-04 0.0 
1.740675807525e-04 5.931655776301e-03 0.0 
0.0 0.0 -7.847976822622e-04 
-5.991589693777e-04 1.639475727810e-04 0.0 
1.639475727810e-04 6.229070718727e-03 0.0 
0.0 0.0 -7.904073215231e-04 
1.780835335952e-03 8.393579381130e-04 0.0 
8.393579381130e-04 1.318016592525e-03 0.0 
0.0 0.0 -5.788817793163e-04 
-4.668818954328e-04 6.874562989825e-04 0.0 
6.874562989825e-04 4.166512847258e-03 0.0 
0.0 0.0 -6.651338130661e-04 
3.159574753437e-04 7.136854968175e-04 0.0 
7.136854968175e-04 3.768209229108e-03 0.0 
0.0 0.0 -7.293057621918e-04 
-1.414525261854e-04 1.576675587814e-04 0.0 
1.576675587814e-04 5.283916601026e-03 0.0 
0.0 0.0 -7.727735362716e-04 
-6.033278873903e-04 -2.028078713446e-04 0.0 
-2.028078713446e-04 6.870250473233e-03 0.0 
0.0 0.0 -8.132320794369e-04 
-7.242190394166e-04 1.786594060988e-04 0.0 
1.786594060988e-04 6.525823479095e-03 0.0 
0.0 0.0 -7.967476244807e-04 
4.756709206581e-04 -9.139970099379e-05 0.0 
-9.139970099379e-05 1.351872205271e-03 0.0 
0.0 0.0 -3.685493992842e-04 
-1.164581229115e-03 2.188850811809e-04 0.0 
2.188850811809e-04 7.900774321480e-03 0.0 
0.0 0.0 -1.183514100502e-03 
-1.119628239997e-03 2.087348229959e-04 0.0 
2.087348229959e-04 7.433542979004e-03 0.0 
0.0 0.0 -1.117084069417e-03 
-8.143956589139e-04 2.341244742851e-04 0.0 
2.341244742851e-04 5.337741611520e-03 0.0 
0.0 0.0 -8.110481619253e-04 
-3.447731787818e-05 1.733745474591e-04 0.0 
1.733745474591e-04 5.385807056427e-03 0.0 
0.0 0.0 -7.863231977074e-04 
-3.130061866414e-04 1.637924146517e-04 0.0 
1.637924146517e-04 5.612968947834e-03 0.0 
0.0 0.0 -7.785249395383e-04 
-1.194888926874e-03 -2.112261199246e-04 0.0 
-2.112261199246e-04 8.020188826812e-03 0.0 
0.0 0.0 -1.185362187646e-03 
-1.151241251503e-03 1.853138580095e-04 0.0 
1.853138580095e-04 7.714994671460e-03 0.0 
0.0 0.0 -1.150972777267e-03 
4.976222361395e-04 -1.591095547878e-04 0.0 
-1.591095547878e-04 4.453447053234e-03 0.0 
0.0 0.0 -7.590152623748e-04 
-6.781733628716e-04 -1.872932626806e-04 0.0 
-1.872932626806e-04 7.298268115486e-03 0.0 
0.0 0.0 -8.332614549418e-04 
-1.103203670140e-03 1.932633349999e-04 0.0 
1.932633349999e-04 7.339211362922e-03 0.0 
0.0 0.0 -1.103416240745e-03 
-8.699273373438e-04 -1.815855613070e-04 0.0 
-1.815855613070e-04 6.639455954266e-03 0.0 
0.0 0.0 -7.909929741271e-04 
-5.422535566205e-04 -1.647370280144e-04 0.0 
-1.647370280144e-04 7.249516429514e-03 0.0 
0.0 0.0 -8.528926995883e-04 
-1.183451424094e-03 -2.064186268461e-04 0.0 
-2.064186268461e-04 7.961006455012e-03 0.0 
0.0 0.0 -1.181737430652e-03 
-1.012410866899e-03 -2.064236493361e-04 0.0 
-2.064236493361e-04 6.767125967856e-03 0.0 
0.0 0.0 -1.011817915138e-03 
5.889503690089e-04 1.002384477470e-05 0.0 
1.002384477470e-05 4.990750282775e-03 0.0 
0.0 0.0 -8.071811408818e-04 
-2.469306479697e-04 1.704598813720e-04 0.0 
1.704598813720e-04 2.067380427883e-03 0.0 
0.0 0.0 -3.644364776638e-04 
6.681940118455e-04 -1.869916844492e-04 0.0 
-1.869916844492e-04 1.013086933571e-03 0.0 
0.0 0.0 -3.414758422231e-04 
-2.048022796594e-04 -2.337971245162e-04 0.0 
-2.337971245162e-04 1.038657557028e-03 0.0 
0.0 0.0 -1.876370064529e-04 
-1.053265806659e-04 1.589966792233e-06 0.0 
1.589966792233e-06 6.159987105294e-04 0.0 
0.0 0.0 -1.032036840373e-04 
-1.146654591444e-03 -2.036534213009e-04 0.0 
-2.036534213009e-04 7.733548266154e-03 0.0 
0.0 0.0 -1.150998037120e-03 
-6.275850008835e-04 1.773064378209e-04 0.0 
1.773064378209e-04 6.983036297991e-03 0.0 
0.0 0.0 -8.274910543202e-04 
-1.023100123294e-04 6.333767357805e-06 0.0 
6.333767357805e-06 5.922537874641e-04 0.0 
0.0 0.0 -1.029284987275e-04 
-1.152902847458e-03 -1.945944093032e-04 0.0 
-1.945944093032e-04 7.806589318492e-03 0.0 
0.0 0.0 -1.160298666437e-03 
-8.240593874314e-04 2.133386610705e-04 0.0 
2.133386610705e-04 5.515954645069e-03 0.0 
0.0 0.0 -8.436798659344e-04 
-4.014972355269e-04 -1.941538450521e-04 0.0 
-1.941538450521e-04 6.345611365808e-03 0.0 
0.0 0.0 -8.019009100080e-04 
-5.794571673394e-04 1.720173647984e-04 0.0 
1.720173647984e-04 6.565274240659e-03 0.0 
0.0 0.0 -8.091385964385e-04 
1.462891644352e-03 -9.995175524851e-05 0.0 
-9.995175524851e-05 1.213730198584e-03 0.0 
0.0 0.0 -5.090628918580e-04 
-6.962932874495e-04 -2.010260290736e-04 0.0 
-2.010260290736e-04 6.743488454315e-03 0.0 
0.0 0.0 -7.999083998053e-04 
-8.052736907314e-04 -2.707602780886e-04 0.0 
-2.707602780886e-04 5.346563189152e-03 0.0 
0.0 0.0 -8.100176300978e-04 
1.684927099203e-03 1.009188292954e-03 0.0 
1.009188292954e-03 3.940633080518e-03 0.0 
0.0 0.0 -8.703786350624e-04 
-5.833812313193e-04 2.487144116491e-04 0.0 
2.487144116491e-04 7.417146459230e-03 0.0 
0.0 0.0 -8.656176479400e-04 
9.648992050545e-06 1.183355852035e-04 0.0 
1.183355852035e-04 1.727597125886e-03 0.0 
0.0 0.0 -3.542437553904e-04 
-4.493169996753e-04 -7.972219166688e-05 0.0 
-7.972219166688e-05 7.219959706170e-03 0.0 
0.0 0.0 -8.642473330620e-04 
-1.047850802636e-03 -1.881582153281e-04 0.0 
-1.881582153281e-04 7.026769425363e-03 0.0 
0.0 0.0 -1.048288725887e-03 
-2.637237673100e-04 1.878935239897e-04 0.0 
1.878935239897e-04 2.254917782014e-03 0.0 
0.0 0.0 -3.930611257745e-04 
5.989439015665e-04 -4.319147827950e-04 0.0 
-4.319147827950e-04 1.552140063039e-03 0.0 
0.0 0.0 -4.034900192350e-04 
-7.895859131420e-04 1.971309113707e-04 0.0 
1.971309113707e-04 5.109340343397e-03 0.0 
0.0 0.0 -7.453161908400e-04 
-9.478370252282e-04 2.028022273917e-04 0.0 
2.028022273917e-04 6.213549732246e-03 0.0 
0.0 0.0 -9.409807611877e-04 
-1.333339819708e-04 1.103272128480e-04 0.0 
1.103272128480e-04 3.017671270939e-03 0.0 
0.0 0.0 -5.429771841545e-04 
-1.084906178257e-03 -2.011232363261e-04 0.0 
-2.011232363261e-04 7.274950011924e-03 0.0 
0.0 0.0 -1.085119818393e-03 
-9.758201311387e-04 -2.238948292920e-04 0.0 
-2.238948292920e-04 6.526325342415e-03 0.0 
0.0 0.0 -9.816794289629e-04 
-3.675413368301e-04 1.436461021875e-04 0.0 
1.436461021875e-04 4.582645100865e-03 0.0 
0.0 0.0 -7.232503235398e-04 
-7.421327170560e-04 -1.905336372131e-04 0.0 
-1.905336372131e-04 6.404607212915e-03 0.0 
0.0 0.0 -7.811022475440e-04 
-5.840887374430e-04 -2.054172817270e-04 0.0 
-2.054172817270e-04 6.480669046730e-03 0.0 
0.0 0.0 -7.938151775141e-04 
-1.057942238941e-03 2.175749808769e-04 0.0 
2.175749808769e-04 6.964480207197e-03 0.0 
0.0 0.0 -1.050681058959e-03 
-1.749163351515e-04 -1.965351502483e-04 0.0 
-1.965351502483e-04 1.728948532321e-03 0.0 
0.0 0.0 -3.058749225436e-04 
-6.116813822228e-04 1.710978229911e-04 0.0 
1.710978229911e-04 4.621831197841e-03 0.0 
0.0 0.0 -7.093184541551e-04 
1.022718217465e-03 1.439313296043e-03 0.0 
1.439313296043e-03 5.334139947268e-03 0.0 
0.0 0.0 -9.447339010950e-04 
-1.078434925953e-03 -1.984149302182e-04 0.0 
-1.984149302182e-04 7.234990828440e-03 0.0 
0.0 0.0 -1.078198857115e-03 
-5.862727506221e-04 2.044930177869e-04 0.0 
2.044930177869e-04 4.195622958747e-03 0.0 
0.0 0.0 -6.666835465145e-04 
2.469754632111e-04 -1.772395792835e-04 0.0 
-1.772395792835e-04 4.861297883902e-03 0.0 
0.0 0.0 -7.644784300560e-04 
-3.236935630758e-04 -8.851012271708e-05 0.0 
-8.851012271708e-05 6.953579542792e-03 0.0 
0.0 0.0 -8.590525048124e-04 
-1.005326890981e-03 1.902074749801e-04 0.0 
1.902074749801e-04 6.713852212323e-03 0.0 
0.0 0.0 -1.013969106439e-03 
-1.909283182059e-04 -2.134343415579e-04 0.0 
-2.134343415579e-04 9.857203047886e-04 0.0 
0.0 0.0 -1.806728872115e-04 
-1.970147197369e-04 -2.059863142165e-04 0.0 
-2.059863142165e-04 1.002592449070e-03 0.0 
0.0 0.0 -1.835536028976e-04 
1.302687536610e-04 -1.604203000656e-04 0.0 
-1.604203000656e-04 1.673543938192e-03 0.0 
0.0 0.0 -3.467375663575e-04 
-5.105391737634e-04 1.834646091113e-04 0.0 
1.834646091113e-04 6.706590103418e-03 0.0 
0.0 0.0 -8.217681912700e-04 
-9.816567297486e-04 1.933811921609e-04 0.0 
1.933811921609e-04 6.465198559992e-03 0.0 
0.0 0.0 -9.775003154318e-04 
-8.371580883724e-04 -2.153857219300e-04 0.0 
-2.153857219300e-04 5.616023944255e-03 0.0 
0.0 0.0 -7.569899148894e-04 
-8.730704368828e-04 1.896261582468e-04 0.0 
1.896261582468e-04 5.754508324044e-03 0.0 
0.0 0.0 -8.745614812816e-04 
1.972972679864e-04 1.042065839203e-04 0.0 
1.042065839203e-04 6.169631725175e-03 0.0 
0.0 0.0 -8.646227269040e-04 
-5.938615165770e-04 1.664697092086e-04 0.0 
1.664697092086e-04 4.965996848501e-03 0.0 
0.0 0.0 -7.289538089092e-04 
-4.780307725743e-04 1.725888097254e-04 0.0 
1.725888097254e-04 6.306337941136e-03 0.0 
0.0 0.0 -8.028262509188e-04 
-1.292203094801e-04 -1.795702936173e-04 0.0 
-1.795702936173e-04 2.026966692327e-03 0.0 
0.0 0.0 -3.615122310665e-04 
-4.319120102527e-04 2.775822797846e-04 0.0 
2.775822797846e-04 7.131182335763e-03 0.0 
0.0 0.0 -8.597668576717e-04 
-5.710364014001e-04 -2.136185355328e-04 0.0 
-2.136185355328e-04 4.851208540778e-03 0.0 
0.0 0.0 -7.096628143602e-04 
-9.524588231537e-05 -1.836377566613e-04 0.0 
-1.836377566613e-04 2.171622295466e-03 0.0 
0.0 0.0 -3.889166325194e-04 
-7.314375518406e-04 -2.149889494288e-04 0.0 
-2.149889494288e-04 4.783661054838e-03 0.0 
0.0 0.0 -7.027385171605e-04 
-3.333294328635e-04 1.415601515005e-04 0.0 
1.415601515005e-04 3.389189650471e-03 0.0 
0.0 0.0 -5.716673668464e-04 
-1.226130590349e-04 -2.500062864774e-04 0.0 
-2.500062864774e-04 2.513957617255e-03 0.0 
0.0 0.0 -4.452767020142e-04 
-8.541736685988e-04 1.838967293361e-04 0.0 
1.838967293361e-04 5.498378753856e-03 0.0 
0.0 0.0 -7.559842333819e-04 
8.941632283519e-05 -8.758698704735e-08 0.0 
-8.758698704735e-08 -2.682386635168e-05 0.0 
0.0 0.0 -2.682533849293e-05 
0.0 0.0 0.0 
0.0 0.0 0.0 
0.0 0.0 0.0 
-4.556890037959e-04 -2.064927420867e-04 0.0 
-2.064927420867e-04 5.824142659417e-03 0.0 
0.0 0.0 -7.677076100430e-04 
-1.628153124239e-04 -1.849036829521e-04 0.0 
-1.849036829521e-04 1.900897489310e-03 0.0 
0.0 0.0 -3.336449385292e-04 
-1.680851220811e-04 -1.985015077560e-04 0.0 
-1.985015077560e-04 5.589826901629e-03 0.0 
0.0 0.0 -7.758134170855e-04 
2.335091014090e-05 -1.887248607827e-04 0.0 
-1.887248607827e-04 5.243029448453e-03 0.0 
0.0 0.0 -7.699870061825e-04 
4.451089649776e-04 4.253259659480e-05 0.0 
4.253259659480e-05 2.885936731661e-03 0.0 
0.0 0.0 -6.177757646845e-04 
1.608855409240e-03 -2.720800158439e-04 0.0 
-2.720800158439e-04 5.209947129619e-04 0.0 
0.0 0.0 -4.162223005415e-04 
-1.136715502842e-03 -2.038924191314e-04 0.0 
-2.038924191314e-04 7.650435027918e-03 0.0 
0.0 0.0 -1.137719822027e-03 
-2.155883669569e-04 -8.829356196857e-05 0.0 
-8.829356196857e-05 9.573383583194e-04 0.0 
0.0 0.0 -2.047534254615e-04 
-5.036800661754e-04 1.566827229202e-04 0.0 
1.566827229202e-04 3.738519865256e-03 0.0 
0.0 0.0 -6.004815939293e-04 
9.135520452711e-05 1.713568017248e-04 0.0 
1.713568017248e-04 6.451385548942e-03 0.0 
0.0 0.0 -8.830213317964e-04 
-1.548738638771e-04 1.666390107966e-04 0.0 
1.666390107966e-04 1.556792369950e-03 0.0 
0.0 0.0 -2.977570873278e-04 
-9.136045934539e-04 -1.921452035066e-04 0.0 
-1.921452035066e-04 6.056651557430e-03 0.0 
0.0 0.0 -9.088859120638e-04 
-8.340119380580e-04 -2.228113772718e-04 0.0 
-2.228113772718e-04 5.573887948832e-03 0.0 
0.0 0.0 -8.416286270284e-04 
-2.006568668082e-04 -2.138865619892e-04 0.0 
-2.138865619892e-04 1.633968354797e-03 0.0 
0.0 0.0 -2.842394630762e-04 
-1.393565971403e-04 -2.830142457835e-05 0.0 
-2.830142457835e-05 6.605585793322e-03 0.0 
0.0 0.0 -8.542735480906e-04 
-1.035589941137e-03 -1.985988582850e-04 0.0 
-1.985988582850e-04 6.933992631060e-03 0.0 
0.0 0.0 -1.034898561726e-03 
-2.128657440175e-04 1.528773961050e-04 0.0 
1.528773961050e-04 1.866148456771e-03 0.0 
0.0 0.0 -3.364655670308e-04 
-1.165152170532e-03 -1.849586778465e-04 0.0 
-1.849586778465e-04 7.849581652679e-03 0.0 
0.0 0.0 -1.166520446339e-03 
-1.171818434168e-03 1.701070722775e-04 0.0 
1.701070722775e-04 7.787163600185e-03 0.0 
0.0 0.0 -1.169001632583e-03 
-2.049034425739e-04 -2.221370327158e-04 0.0 
-2.221370327158e-04 2.148209926701e-03 0.0 
0.0 0.0 -3.701904734684e-04 
5.943804727825e-04 2.235212409704e-03 0.0 
2.235212409704e-03 1.993997122693e-03 0.0 
0.0 0.0 -4.801335248058e-04 
-1.608977365704e-04 -2.359524023540e-04 0.0 
-2.359524023540e-04 2.156409182305e-03 0.0 
0.0 0.0 -3.791106726259e-04 
-4.759843367992e-04 -2.018493624138e-04 0.0 
-2.018493624138e-04 6.215168730592e-03 0.0 
0.0 0.0 -7.877011238360e-04 
-7.829296886113e-04 1.829931258052e-04 0.0 
1.829931258052e-04 5.289903191119e-03 0.0 
0.0 0.0 -7.348745392199e-04 
-1.175065292852e-03 1.838008001023e-04 0.0 
1.838008001023e-04 7.798269859187e-03 0.0 
0.0 0.0 -1.169529464977e-03 
-1.141233486497e-03 1.909358973763e-04 0.0 
1.909358973763e-04 7.594915182305e-03 0.0 
0.0 0.0 -1.140030709108e-03 
-3.268036877477e-04 -2.017702195877e-04 0.0 
-2.017702195877e-04 5.906764127433e-03 0.0 
0.0 0.0 -7.817470569612e-04 
-2.052714216633e-04 1.705660377778e-04 0.0 
1.705660377778e-04 5.713435019686e-03 0.0 
0.0 0.0 -7.917181039353e-04 
-1.834741661854e-04 1.499277220430e-04 0.0 
1.499277220430e-04 1.709270063157e-03 0.0 
0.0 0.0 -3.158693332420e-04 
-3.594464508181e-04 1.708386352130e-04 0.0 
1.708386352130e-04 6.024971236787e-03 0.0 
0.0 0.0 -7.975407375743e-04 
-1.038324079738e-03 1.969104416428e-04 0.0 
1.969104416428e-04 6.879456010501e-03 0.0 
0.0 0.0 -1.037144748481e-03 
-8.220357616679e-04 -1.916545581178e-04 0.0 
-1.916545581178e-04 5.397482513812e-03 0.0 
0.0 0.0 -7.406035210641e-04 
-9.784412971014e-04 -1.995967018581e-04 0.0 
-1.995967018581e-04 6.519224964638e-03 0.0 
0.0 0.0 -9.752741834902e-04 
-1.071043316413e-03 -2.014206266275e-04 0.0 
-2.014206266275e-04 7.187990111683e-03 0.0 
0.0 0.0 -1.071415751597e-03 
3.089021816268e-03 1.599213303193e-03 0.0 
1.599213303193e-03 9.965754511480e-04 0.0 
0.0 0.0 -7.435371925968e-04 
-1.112301323396e-03 1.953318319137e-04 0.0 
1.953318319137e-04 7.388703494557e-03 0.0 
0.0 0.0 -1.110258267496e-03 
-7.048168666415e-04 2.103542029498e-04 0.0 
2.103542029498e-04 4.551180166485e-03 0.0 
0.0 0.0 -6.965171720950e-04 
-7.684166742446e-04 -2.031698501205e-04 0.0 
-2.031698501205e-04 5.186137282099e-03 0.0 
0.0 0.0 -7.177067267846e-04 
-4.149177592370e-04 2.003492443615e-04 0.0 
2.003492443615e-04 3.267859569699e-03 0.0 
0.0 0.0 -5.342291996904e-04 
6.897244309103e-04 -3.403823928135e-04 0.0 
-3.403823928135e-04 2.383265802594e-03 0.0 
0.0 0.0 -5.581583723280e-04 
-1.010310088917e-03 1.967228699853e-04 0.0 
1.967228699853e-04 6.672709965049e-03 0.0 
0.0 0.0 -1.007339817349e-03 
1.160126749450e-03 -1.449167830963e-04 0.0 
-1.449167830963e-04 3.112154836356e-03 0.0 
0.0 0.0 -7.270709000998e-04 
-2.001720192782e-04 -2.288794729684e-04 0.0 
-2.288794729684e-04 2.368328717929e-03 0.0 
0.0 0.0 -4.077494273363e-04 
-2.235505229120e-04 -1.665382784811e-04 0.0 
-1.665382784811e-04 1.264629605483e-03 0.0 
0.0 0.0 -2.185673950299e-04 
-1.005369566171e-03 -1.969282844887e-04 0.0 
-1.969282844887e-04 6.726819346583e-03 0.0 
0.0 0.0 -1.005115000480e-03 
-1.773142200411e-04 1.343398053435e-04 0.0 
1.343398053435e-04 2.269292753028e-03 0.0 
0.0 0.0 -4.107160730352e-04 
-3.895007859051e-04 2.733806926116e-04 0.0 
2.733806926116e-04 7.119916028449e-03 0.0 
0.0 0.0 -8.701431034730e-04 
-1.042807145316e-03 1.952121137199e-04 0.0 
1.952121137199e-04 6.924647329534e-03 0.0 
0.0 0.0 -1.043883448597e-03 
-2.989107114162e-04 1.809097528414e-04 0.0 
1.809097528414e-04 6.167517936887e-03 0.0 
0.0 0.0 -8.111682948950e-04 
-4.572750845126e-04 3.012521216792e-04 0.0 
3.012521216792e-04 7.408903424462e-03 0.0 
0.0 0.0 -9.402813248475e-04 
-6.611541786482e-04 -2.165377279582e-04 0.0 
-2.165377279582e-04 4.358180230514e-03 0.0 
0.0 0.0 -6.637377122259e-04 
-2.308541276428e-04 1.597183077315e-04 0.0 
1.597183077315e-04 2.096766895901e-03 0.0 
0.0 0.0 -3.731618544808e-04 
-2.252786638617e-04 1.992982659168e-04 0.0 
1.992982659168e-04 1.344478021926e-03 0.0 
0.0 0.0 -2.496210768721e-04 
-9.488762071787e-05 -1.743853970936e-04 0.0 
-1.743853970936e-04 5.722227908197e-03 0.0 
0.0 0.0 -7.906125808596e-04 
-9.502891484141e-04 2.008015227702e-04 0.0 
2.008015227702e-04 6.263291661127e-03 0.0 
0.0 0.0 -9.473489374553e-04 
-1.787867007396e-04 1.721284507092e-04 0.0 
1.721284507092e-04 9.234900215081e-04 0.0 
0.0 0.0 -1.858848441742e-04 
-2.537041339603e-04 -2.340744038471e-04 0.0 
-2.340744038471e-04 3.217334891764e-03 0.0 
0.0 0.0 -5.400474096907e-04 
1.874049937847e-04 -1.390749243357e-04 0.0 
-1.390749243357e-04 1.507369989732e-03 0.0 
0.0 0.0 -3.246070344129e-04 
-9.392936976827e-04 -1.862704497829e-04 0.0 
-1.862704497829e-04 6.266809515345e-03 0.0 
0.0 0.0 -9.387834224271e-04 
-4.111819416709e-04 -2.245696237967e-04 0.0 
-2.245696237967e-04 3.556535412954e-03 0.0 
0.0 0.0 -5.687878759048e-04 
1.701665802944e-04 1.776342969658e-04 0.0 
1.776342969658e-04 5.025966810119e-03 0.0 
0.0 0.0 -7.811405333487e-04 
-4.323332306326e-04 -2.178344360086e-04 0.0 
-2.178344360086e-04 3.305158236637e-03 0.0 
0.0 0.0 -5.337555413937e-04 
-1.117346964304e-03 -2.071110090059e-04 0.0 
-2.071110090059e-04 7.492505049919e-03 0.0 
0.0 0.0 -1.114809527198e-03 
-1.490056355965e-04 1.218915174762e-04 0.0 
1.218915174762e-04 2.639714519273e-03 0.0 
0.0 0.0 -4.768663991248e-04 
1.364046835991e-04 -1.210918173658e-04 0.0 
-1.210918173658e-04 5.548619103411e-03 0.0 
0.0 0.0 -8.007157431102e-04 
4.048174606699e-04 -4.379963353259e-04 0.0 
-4.379963353259e-04 1.362537684919e-03 0.0 
0.0 0.0 -3.376433569222e-04 
1.002645309007e-04 -1.587122858232e-04 0.0 
-1.587122858232e-04 5.374351714782e-03 0.0 
0.0 0.0 -7.851027123696e-04 
-7.630312790681e-04 -1.657332761598e-04 0.0 
-1.657332761598e-04 5.007809529547e-03 0.0 
0.0 0.0 -7.276766924903e-04 
-1.466155140672e-04 1.880595717637e-04 0.0 
1.880595717637e-04 5.858276964749e-03 0.0 
0.0 0.0 -8.056531170319e-04 
2.623638287742e-03 3.627132116663e-04 0.0 
3.627132116663e-04 2.206302715003e-04 0.0 
0.0 0.0 -5.350282927002e-04 
-4.361906826111e-05 1.768616837619e-04 0.0 
1.768616837619e-04 1.627089839973e-03 0.0 
0.0 0.0 -3.277310168338e-04 
-8.709310065231e-04 -1.930857458815e-04 0.0 
-1.930857458815e-04 5.840506173077e-03 0.0 
0.0 0.0 -8.787268422831e-04 
1.336979712252e-03 3.326902087266e-04 0.0 
3.326902087266e-04 3.963505222717e-03 0.0 
0.0 0.0 -8.112328208999e-04 
-7.316914951713e-05 9.967898540004e-04 0.0 
9.967898540004e-04 3.763465615763e-03 0.0 
0.0 0.0 -6.776081642141e-04 
-9.468425740780e-04 -2.085300673065e-04 0.0 
-2.085300673065e-04 6.298374618209e-03 0.0 
0.0 0.0 -9.453210152248e-04 
8.148095364587e-04 -5.251804742860e-04 0.0 
-5.251804742860e-04 1.161996803153e-03 0.0 
0.0 0.0 -3.758914132629e-04 
-9.664473934007e-04 1.935643871513e-04 0.0 
1.935643871513e-04 6.379409966944e-03 0.0 
0.0 0.0 -9.642804585795e-04 
1.177152216395e-04 -1.647490745258e-04 0.0 
-1.647490745258e-04 1.378562162299e-03 0.0 
0.0 0.0 -2.947674122297e-04 
-2.554887758588e-04 -1.154807393658e-04 0.0 
-1.154807393658e-04 6.672893442349e-03 0.0 
0.0 0.0 -8.428937889733e-04 
1.303081656261e-03 4.422729818445e-04 0.0 
4.422729818445e-04 4.207112500302e-03 0.0 
0.0 0.0 -8.305011359572e-04 
1.551396932630e-03 1.124233332468e-03 0.0 
1.124233332468e-03 4.283907789989e-03 0.0 
0.0 0.0 -8.930125683843e-04 
-1.209610339595e-03 -2.064055054886e-04 0.0 
-2.064055054886e-04 8.130245976668e-03 0.0 
0.0 0.0 -1.204463612412e-03 
1.007848081612e-03 -1.009445809681e-04 0.0 
-1.009445809681e-04 3.629058150499e-03 0.0 
0.0 0.0 -7.481361966222e-04 
-2.063237304423e-04 1.624243209591e-04 0.0 
1.624243209591e-04 1.680137988775e-03 0.0 
0.0 0.0 -3.081489256106e-04 
5.648658849366e-04 -1.061853868786e-04 0.0 
-1.061853868786e-04 4.595512760395e-03 0.0 
0.0 0.0 -7.745873283978e-04 
-2.446888957699e-04 3.078370588972e-04 0.0 
3.078370588972e-04 6.810846863812e-03 0.0 
0.0 0.0 -8.664246435876e-04 
1.419036165536e-03 -4.498304030970e-04 0.0 
-4.498304030970e-04 1.175181819243e-03 0.0 
0.0 0.0 -4.786098583285e-04 
-2.554391306802e-04 -1.867361349867e-04 0.0 
-1.867361349867e-04 6.039445098835e-03 0.0 
0.0 0.0 -7.962558677656e-04 
-1.042240091366e-03 -2.028158867282e-04 0.0 
-2.028158867282e-04 6.979443732142e-03 0.0 
0.0 0.0 -1.041631482750e-03 
1.774634796332e-03 -3.518089068915e-04 0.0 
-3.518089068915e-04 1.863726034640e-04 0.0 
0.0 0.0 -3.880698300753e-04 
3.214834462062e-04 -1.366622558542e-04 0.0 
-1.366622558542e-04 4.996241098940e-03 0.0 
0.0 0.0 -7.798260646429e-04 
-8.586433483391e-04 -1.931078618343e-04 0.0 
-1.931078618343e-04 5.748348032680e-03 0.0 
0.0 0.0 -8.663127257149e-04 
-2.908310825674e-04 -1.909989317456e-04 0.0 
-1.909989317456e-04 2.576642655790e-03 0.0 
0.0 0.0 -4.280652785065e-04 
-9.360422710479e-05 -2.588207781977e-04 0.0 
-2.588207781977e-04 2.882484202176e-03 0.0 
0.0 0.0 -5.113914792957e-04 
-4.333997521501e-05 6.538873595088e-04 0.0 
6.538873595088e-04 4.550160955566e-03 0.0 
0.0 0.0 -8.004334922225e-04 
2.866257984068e-05 1.968909234137e-04 0.0 
1.968909234137e-04 5.530805628363e-03 0.0 
0.0 0.0 -8.005343717020e-04 
-7.390895279601e-05 1.137100960800e-03 0.0 
1.137100960800e-03 3.503896579278e-03 0.0 
0.0 0.0 -6.201901524263e-04 
1.523049670189e-04 7.147504522531e-04 0.0 
7.147504522531e-04 4.144192951974e-03 0.0 
0.0 0.0 -7.649884091348e-04 
-1.002132587578e-03 1.966152402383e-04 0.0 
1.966152402383e-04 6.628701174112e-03 0.0 
0.0 0.0 -1.000670320419e-03 
-9.160037735611e-04 2.105070801011e-04 0.0 
2.105070801011e-04 6.003693375901e-03 0.0 
0.0 0.0 -9.110000341593e-04 
-8.984996443820e-04 1.923871522476e-04 0.0 
1.923871522476e-04 5.918711205323e-03 0.0 
0.0 0.0 -8.984003255416e-04 
-7.636067334101e-04 1.677548654688e-04 0.0 
1.677548654688e-04 4.930902636752e-03 0.0 
0.0 0.0 -7.224379015327e-04 
5.375585594964e-05 4.937230621654e-06 0.0 
4.937230621654e-06 6.257442385231e-03 0.0 
0.0 0.0 -8.506199718885e-04 
8.163399762472e-04 -6.846132972226e-05 0.0 
-6.846132972226e-05 4.186263772930e-03 0.0 
0.0 0.0 -7.693364375947e-04 
-8.818948229553e-04 -1.808766535773e-04 0.0 
-1.808766535773e-04 5.810855732820e-03 0.0 
0.0 0.0 -8.720525204519e-04 
-1.187094064335e-03 -2.189735542799e-04 0.0 
-2.189735542799e-04 7.998345840187e-03 0.0 
0.0 0.0 -1.140473709197e-03 
1.396477349189e-03 1.204811004216e-03 0.0 
1.204811004216e-03 4.644421644230e-03 0.0 
0.0 0.0 -9.161114585025e-04 
2.312723500753e-04 2.107495413155e-04 0.0 
2.107495413155e-04 5.173563672585e-03 0.0 
0.0 0.0 -7.955009277484e-04 
-1.074220521467e-03 1.937044770005e-04 0.0 
1.937044770005e-04 7.133220182241e-03 0.0 
0.0 0.0 -1.073677668998e-03 
4.573785441765e-04 -3.184533627951e-04 0.0 
-3.184533627951e-04 2.777665807552e-03 0.0 
0.0 0.0 -5.862626530914e-04 
1.482800051525e-04 -2.951914824339e-04 0.0 
-2.951914824339e-04 2.863172686187e-03 0.0 
0.0 0.0 -5.488365039436e-04 
-1.891973907790e-04 -2.263286129269e-04 0.0 
-2.263286129269e-04 1.781901163227e-03 0.0 
0.0 0.0 -3.130684191733e-04 
5.925374299289e-04 -4.843499780406e-05 0.0 
-4.843499780406e-05 4.776983972840e-03 0.0 
0.0 0.0 -7.906464420627e-04 
-6.577379752080e-05 -2.652916595885e-04 0.0 
-2.652916595885e-04 3.249004530600e-03 0.0 
0.0 0.0 -5.775003002374e-04 
-9.676234080517e-04 -1.978430549766e-04 0.0 
-1.978430549766e-04 6.470709836540e-03 0.0 
0.0 0.0 -9.686535345556e-04 
-9.307775843259e-04 -2.009567450900e-04 0.0 
-2.009567450900e-04 6.218061512745e-03 0.0 
0.0 0.0 -9.322463471790e-04 
2.776209123300e-03 9.416472214023e-04 0.0 
9.416472214023e-04 1.546099171916e-03 0.0 
0.0 0.0 -7.690363516573e-04 
2.499884128111e-04 2.582409266489e-05 0.0 
2.582409266489e-05 2.290086493697e-03 0.0 
0.0 0.0 -4.860199686152e-04 
1.019983019688e-03 6.062629146296e-04 0.0 
6.062629146296e-04 1.696174022394e-03 0.0 
0.0 0.0 -5.148587792422e-04 
6.041722516597e-05 7.112048864588e-05 0.0 
7.112048864588e-05 2.652230004669e-03 0.0 
0.0 0.0 -5.143448975765e-04 
3.612542196129e-04 2.731108104502e-05 0.0 
2.731108104502e-05 2.575133643915e-03 0.0 
0.0 0.0 -5.517963299543e-04 
-2.061560757168e-04 1.552149980892e-04 0.0 
1.552149980892e-04 1.901727215097e-03 0.0 
0.0 0.0 -3.446931235564e-04 
2.749087174219e-04 5.486110430716e-05 0.0 
5.486110430716e-05 5.882192590177e-03 0.0 
0.0 0.0 -8.461780420202e-04 
1.271144482923e-03 7.334408746829e-05 0.0 
7.334408746829e-05 2.335676495920e-03 0.0 
0.0 0.0 -6.642957827475e-04 
-1.108318305334e-03 -2.031784349513e-04 0.0 
-2.031784349513e-04 7.443886566257e-03 0.0 
0.0 0.0 -1.107989045227e-03 
1.455140576600e-03 1.482762042090e-04 0.0 
1.482762042090e-04 2.376338824505e-03 0.0 
0.0 0.0 -7.013039408444e-04 
7.007354816979e-04 2.591460614622e-04 0.0 
2.591460614622e-04 4.391066224628e-03 0.0 
0.0 0.0 -7.850939504930e-04 
1.082526798099e-03 1.875696760617e-04 0.0 
1.875696760617e-04 3.278104551888e-03 0.0 
0.0 0.0 -7.447546537406e-04 
8.498692352365e-04 9.469477255821e-04 0.0 
9.469477255821e-04 3.397350076173e-03 0.0 
0.0 0.0 -7.567435594049e-04 
-1.971728709291e-04 -2.124814901115e-04 0.0 
-2.124814901115e-04 1.971510884921e-03 0.0 
0.0 0.0 -3.417109511102e-04 
-6.168998365533e-05 3.189387534561e-04 0.0 
3.189387534561e-04 6.447796422780e-03 0.0 
0.0 0.0 -8.626559831806e-04 
-2.078534559041e-04 -2.956332289455e-05 0.0 
-2.956332289455e-05 6.922669964387e-03 0.0 
0.0 0.0 -8.730243885263e-04 
3.722784091408e-04 1.641254781366e-03 0.0 
1.641254781366e-03 5.026770629300e-03 0.0 
0.0 0.0 -9.480584284283e-04 
7.005604932982e-04 1.128253297752e-05 0.0 
1.128253297752e-05 2.458529492627e-03 0.0 
0.0 0.0 -5.892385666867e-04 
9.095904716872e-04 2.285821839934e-04 0.0 
2.285821839934e-04 3.816348410060e-03 0.0 
0.0 0.0 -7.648072201778e-04 
-9.731621015165e-04 2.042240848123e-04 0.0 
2.042240848123e-04 6.416634786867e-03 0.0 
0.0 0.0 -9.708520278613e-04 
2.127515094070e-04 -2.906303596097e-04 0.0 
-2.906303596097e-04 3.192454676063e-03 0.0 
0.0 0.0 -6.148791393494e-04 
1.044421108866e-04 7.138498452232e-04 0.0 
7.138498452232e-04 3.450476722976e-03 0.0 
0.0 0.0 -6.394234923164e-04 
-2.127762060110e-04 -2.337018444198e-04 0.0 
-2.337018444198e-04 2.774313710526e-03 0.0 
0.0 0.0 -4.739097840059e-04 
1.259861108954e-03 -5.525434925307e-04 0.0 
-5.525434925307e-04 9.435828467110e-04 0.0 
0.0 0.0 -4.132304097957e-04 
7.806699566064e-04 -3.129956877889e-04 0.0 
-3.129956877889e-04 2.677882974095e-03 0.0 
0.0 0.0 -6.236739531379e-04 
-2.477366782668e-04 1.459968191782e-04 0.0 
1.459968191782e-04 2.511826631296e-03 0.0 
0.0 0.0 -4.393534411964e-04 
-2.492011354690e-04 -2.097480434913e-04 0.0 
-2.097480434913e-04 2.366124643864e-03 0.0 
0.0 0.0 -3.988888273503e-04 
9.081615385799e-04 -1.701046514130e-04 0.0 
-1.701046514130e-04 3.520371841849e-03 0.0 
0.0 0.0 -7.325089449160e-04 
4.567622539708e-04 2.319329813479e-04 0.0 
2.319329813479e-04 4.791791036141e-03 0.0 
0.0 0.0 -7.903799624730e-04 
1.118312891885e-03 2.419196437780e-03 0.0 
2.419196437780e-03 5.199450101798e-03 0.0 
0.0 0.0 -1.017315705396e-03 
-7.677587316374e-05 5.132629422694e-05 0.0 
5.132629422694e-05 2.950272314679e-04 0.0 
0.0 0.0 -4.808883996072e-05 
2.072998757993e-03 3.158760028520e-04 0.0 
3.158760028520e-04 1.639499776675e-03 0.0 
0.0 0.0 -6.818868151028e-04 
1.691683246560e-03 1.655023517685e-04 0.0 
1.655023517685e-04 1.969374093350e-03 0.0 
0.0 0.0 -6.732431144784e-04 
1.021835493044e-03 2.589737062356e-05 0.0 
2.589737062356e-05 2.360516780767e-03 0.0 
0.0 0.0 -6.268095852860e-04 
-9.342352764228e-04 1.992757766659e-04 0.0 
1.992757766659e-04 6.164738867849e-03 0.0 
0.0 0.0 -9.344164207832e-04 
1.211338335013e-03 1.361561954272e-04 0.0 
1.361561954272e-04 2.784319738466e-03 0.0 
0.0 0.0 -7.248993385125e-04 
-2.793760317032e-04 1.548958189631e-04 0.0 
1.548958189631e-04 2.945945180649e-03 0.0 
0.0 0.0 -5.055050897130e-04 
1.053399450025e-03 -2.681583924099e-04 0.0 
-2.681583924099e-04 2.630215448040e-03 0.0 
0.0 0.0 -6.611654675676e-04 
-1.086852433707e-03 1.972393602690e-04 0.0 
1.972393602690e-04 7.180508805687e-03 0.0 
0.0 0.0 -1.080452943103e-03 
-3.175223781992e-04 -2.191393732513e-04 0.0 
-2.191393732513e-04 3.045815570574e-03 0.0 
0.0 0.0 -5.025663706543e-04 
-2.068765507079e-04 1.780811299395e-04 0.0 
1.780811299395e-04 1.103158600140e-03 0.0 
0.0 0.0 -2.132551421006e-04 
-2.097694657310e-04 1.612989313557e-04 0.0 
1.612989313557e-04 1.523004146175e-03 0.0 
0.0 0.0 -2.784575373548e-04 
1.339995579872e-03 -1.842865227283e-04 0.0 
-1.842865227283e-04 9.556633993867e-04 0.0 
0.0 0.0 -4.444240490352e-04 
5.922252304405e-04 -2.001351174735e-05 0.0 
-2.001351174735e-05 2.172212027296e-03 0.0 
0.0 0.0 -5.239304829885e-04 
1.819399994212e-03 2.762839626710e-04 0.0 
2.762839626710e-04 2.064364743031e-03 0.0 
0.0 0.0 -7.099160536912e-04 
1.258220878803e-03 -1.985592253526e-04 0.0 
-1.985592253526e-04 2.648535519780e-03 0.0 
0.0 0.0 -6.984076724203e-04 
5.437428991032e-04 -5.415796559604e-04 0.0 
-5.415796559604e-04 1.029542069916e-03 0.0 
0.0 0.0 -3.092759564244e-04 
-1.732798519724e-04 -2.275215037114e-04 0.0 
-2.275215037114e-04 1.530087275977e-03 0.0 
0.0 0.0 -2.765202162382e-04 
-9.029473964606e-04 -2.318038937515e-04 0.0 
-2.318038937515e-04 5.899437226641e-03 0.0 
0.0 0.0 -8.885078876198e-04 
-2.528797279710e-04 -2.267058216755e-04 0.0 
-2.267058216755e-04 2.592191059019e-03 0.0 
0.0 0.0 -4.363975895258e-04 
4.274240479124e-04 3.796930124536e-04 0.0 
3.796930124536e-04 5.450708971655e-03 0.0 
0.0 0.0 -8.377188921934e-04 
1.343108246458e-03 2.447692306240e-03 0.0 
2.447692306240e-03 4.769471081110e-03 0.0 
0.0 0.0 -9.939822827517e-04 
-9.055761456836e-04 -1.909848796464e-04 0.0 
-1.909848796464e-04 6.010442057108e-03 0.0 
0.0 0.0 -9.013836717722e-04 
-1.127393681638e-03 1.896887369255e-04 0.0 
1.896887369255e-04 7.503433377312e-03 0.0 
0.0 0.0 -1.126084317643e-03 
9.218526501293e-04 2.379888249487e-03 0.0 
2.379888249487e-03 5.600053106808e-03 0.0 
0.0 0.0 -1.040469419726e-03 
2.933941413926e-03 1.125866074024e-03 0.0 
1.125866074024e-03 1.220442990076e-03 0.0 
0.0 0.0 -7.408850503417e-04 
1.372565519602e-03 2.529425344403e-03 0.0 
2.529425344403e-03 4.362441128927e-03 0.0 
0.0 0.0 -9.736812865779e-04 
9.851588400825e-04 -6.356973823952e-04 0.0 
-6.356973823952e-04 8.276860692764e-04 0.0 
0.0 0.0 -3.474733517438e-04 
8.077188705587e-04 -2.693969994735e-04 0.0 
-2.693969994735e-04 3.042525896232e-03 0.0 
0.0 0.0 -6.894573431515e-04 
1.216915642378e-03 1.220689275033e-03 0.0 
1.220689275033e-03 2.533666678491e-03 0.0 
0.0 0.0 -6.879681371099e-04 
1.873897086996e-03 -1.764387216480e-04 0.0 
-1.764387216480e-04 1.572777356941e-04 0.0 
0.0 0.0 -3.974404770784e-04 
5.779982943154e-04 -6.191493350525e-04 0.0 
-6.191493350525e-04 8.526486063804e-04 0.0 
0.0 0.0 -2.813757158202e-04 
1.269639222031e-04 6.828933969393e-05 0.0 
6.828933969393e-05 2.981601605534e-03 0.0 
0.0 0.0 -5.804062017457e-04 
1.488423341404e-03 -1.772925675813e-04 0.0 
-1.772925675813e-04 2.248945538282e-03 0.0 
0.0 0.0 -6.703429011759e-04 
1.629842995687e-03 -7.440228620036e-05 0.0 
-7.440228620036e-05 2.327628448237e-03 0.0 
0.0 0.0 -7.070647534220e-04 
-3.388310370775e-04 1.538374957115e-04 0.0 
1.538374957115e-04 2.773877187979e-03 0.0 
0.0 0.0 -4.680152132766e-04 
1.336877204387e-03 2.099112121617e-04 0.0 
2.099112121617e-04 2.868302180197e-03 0.0 
0.0 0.0 -7.393454842725e-04 
1.865944875876e-03 -2.926512487721e-05 0.0 
-2.926512487721e-05 1.921852799604e-03 0.0 
0.0 0.0 -6.790125122095e-04 
2.182803279850e-03 4.606032597122e-04 0.0 
4.606032597122e-04 1.749618654517e-03 0.0 
0.0 0.0 -7.183521444552e-04 
3.516125676360e-04 -3.261763121805e-04 0.0 
-3.261763121805e-04 2.493059819006e-03 0.0 
0.0 0.0 -5.205443542100e-04 
1.509976175937e-03 6.981274162555e-04 0.0 
6.981274162555e-04 4.058172903336e-03 0.0 
0.0 0.0 -8.491147618646e-04 
-1.000725886826e-03 -2.001881518318e-04 0.0 
-2.001881518318e-04 6.682457666445e-03 0.0 
0.0 0.0 -9.984673180475e-04 
2.468255247149e-03 5.403876222056e-04 0.0 
5.403876222056e-04 1.295001321934e-03 0.0 
0.0 0.0 -6.904379518788e-04 
1.426313251046e-04 3.748856122919e-04 0.0 
3.748856122919e-04 6.101930654137e-03 0.0 
0.0 0.0 -8.588039915152e-04 
1.454528274635e-03 -6.540214244032e-04 0.0 
-6.540214244032e-04 5.809337471621e-04 0.0 
0.0 0.0 -3.849690761666e-04 
-2.963805026584e-05 4.699423457394e-04 0.0 
4.699423457394e-04 6.744009866245e-03 0.0 
0.0 0.0 -8.943102770321e-04 
1.579189055912e-03 2.402595901492e-04 0.0 
2.402595901492e-04 2.469055428384e-03 0.0 
0.0 0.0 -7.344327353209e-04 
7.880767336702e-04 2.437285338960e-03 0.0 
2.437285338960e-03 6.006435239147e-03 0.0 
0.0 0.0 -1.065481731440e-03 
-9.174882615910e-04 -1.900236548233e-04 0.0 
-1.900236548233e-04 6.103327033778e-03 0.0 
0.0 0.0 -9.144069900286e-04 
1.139613849736e-03 -2.676248065733e-04 0.0 
-2.676248065733e-04 7.652528515801e-04 0.0 
0.0 0.0 -3.788569260404e-04 
-9.329446838714e-04 -1.934956866743e-04 0.0 
-1.934956866743e-04 6.203824333692e-03 0.0 
0.0 0.0 -9.292863832265e-04 
-1.148316362968e-03 1.911406139228e-04 0.0 
1.911406139228e-04 7.656686617329e-03 0.0 
0.0 0.0 -1.148369591821e-03 
1.661687444605e-03 3.416997021513e-04 0.0 
3.416997021513e-04 2.596461802550e-03 0.0 
0.0 0.0 -7.499340166263e-04 
2.324640743988e-04 5.365210542038e-04 0.0 
5.365210542038e-04 2.856644793045e-03 0.0 
0.0 0.0 -5.621395992319e-04 
-9.592421645063e-04 -1.953589560094e-04 0.0 
-1.953589560094e-04 6.397497054977e-03 0.0 
0.0 0.0 -9.572423940436e-04 
-1.111015507222e-04 9.407906630762e-04 0.0 
9.407906630762e-04 4.175276721923e-03 0.0 
0.0 0.0 -7.402445244775e-04 
8.061074704859e-04 -2.889608489973e-04 0.0 
-2.889608489973e-04 6.966488176102e-04 0.0 
0.0 0.0 -3.123079531677e-04 
-1.247303547099e-03 2.054291781831e-04 0.0 
2.054291781831e-04 8.428743189038e-03 0.0 
0.0 0.0 -1.259077240559e-03 
3.975039496940e-04 -1.473424286571e-04 0.0 
-1.473424286571e-04 8.876751326832e-04 0.0 
0.0 0.0 -2.747754844540e-04 
4.728698946446e-04 6.441748325032e-04 0.0 
6.441748325032e-04 6.278726739811e-03 0.0 
0.0 0.0 -9.381922974836e-04 
-1.181044415914e-03 1.885702677113e-04 0.0 
1.885702677113e-04 7.848025462359e-03 0.0 
0.0 0.0 -1.175981821618e-03 
1.239395330129e-03 5.389925760292e-04 0.0 
5.389925760292e-04 4.483179232061e-03 0.0 
0.0 0.0 -8.507717008346e-04 
-9.063963003823e-04 2.216702355020e-04 0.0 
2.216702355020e-04 5.948302852210e-03 0.0 
0.0 0.0 -9.041796124736e-04 
-1.096159842107e-03 -2.041353887510e-04 0.0 
-2.041353887510e-04 7.354511593932e-03 0.0 
0.0 0.0 -1.094228678348e-03 
1.977105723325e-03 1.057838838945e-04 0.0 
1.057838838945e-04 2.029030324302e-03 0.0 
0.0 0.0 -7.154996274706e-04 
2.472069444092e-03 9.511839003822e-04 0.0 
9.511839003822e-04 2.218374288781e-03 0.0 
0.0 0.0 -8.040939785043e-04 
-1.179248762261e-03 1.915113563363e-04 0.0 
1.915113563363e-04 7.953436829066e-03 0.0 
0.0 0.0 -1.191782302182e-03 
2.518542354821e-04 2.498197716811e-04 0.0 
2.498197716811e-04 5.363221657847e-03 0.0 
0.0 0.0 -8.103572144315e-04 
-1.029803380413e-03 -1.995345647328e-04 0.0 
-1.995345647328e-04 6.892395198165e-03 0.0 
0.0 0.0 -1.028225029406e-03 
1.204011010512e-03 6.115973726136e-04 0.0 
6.115973726136e-04 4.193013463507e-03 0.0 
0.0 0.0 -8.245439145967e-04 
1.340603672263e-03 -3.833604405349e-04 0.0 
-3.833604405349e-04 3.967970076750e-04 0.0 
0.0 0.0 -3.505936111242e-04 
-1.056998258985e-03 -2.024071474235e-04 0.0 
-2.024071474235e-04 7.098571223248e-03 0.0 
0.0 0.0 -1.057861461704e-03 
4.105667864440e-04 1.530155418681e-03 0.0 
1.530155418681e-03 6.922544805644e-03 0.0 
0.0 0.0 -1.051856884499e-03 
-1.561045554772e-04 3.844306311030e-04 0.0 
3.844306311030e-04 6.784541664907e-03 0.0 
0.0 0.0 -8.800706404991e-04 
1.022818326005e-03 7.796920661371e-05 0.0 
7.796920661371e-05 2.753733076864e-03 0.0 
0.0 0.0 -6.923681691210e-04 
-8.989504497264e-04 -2.030487714898e-04 0.0 
-2.030487714898e-04 5.998411166372e-03 0.0 
0.0 0.0 -9.020111041354e-04 
-8.706850616848e-04 2.163039302349e-04 0.0 
2.163039302349e-04 5.704755713039e-03 0.0 
0.0 0.0 -8.677534307045e-04 
1.399334672488e-03 -1.153187507358e-04 0.0 
-1.153187507358e-04 2.716099486054e-03 0.0 
0.0 0.0 -7.220157278280e-04 
4.746028227345e-04 2.804433927523e-04 0.0 
2.804433927523e-04 4.984016932979e-03 0.0 
0.0 0.0 -8.054571565783e-04 
4.619745923992e-04 3.301042497416e-04 0.0 
3.301042497416e-04 5.205943402339e-03 0.0 
0.0 0.0 -8.211969585114e-04 
-2.185665085777e-04 -2.142324507470e-04 0.0 
-2.142324507470e-04 1.423298974877e-03 0.0 
0.0 0.0 -2.466400652194e-04 
5.377472712224e-04 4.614050987568e-04 0.0 
4.614050987568e-04 1.795470121418e-03 0.0 
0.0 0.0 -4.508272210452e-04 
2.563687385636e-03 7.323853691317e-04 0.0 
7.323853691317e-04 1.420644342764e-03 0.0 
0.0 0.0 -7.269793770173e-04 
2.243938380971e-03 1.791528872158e-04 0.0 
1.791528872158e-04 1.593675746343e-03 0.0 
0.0 0.0 -6.875569550716e-04 
2.821446851428e-04 1.065409737346e-03 0.0 
1.065409737346e-03 3.732093394366e-03 0.0 
0.0 0.0 -7.320784846625e-04 
-1.207414471784e-03 -1.921627464004e-04 0.0 
-1.921627464004e-04 8.251115158096e-03 0.0 
0.0 0.0 -1.225426844749e-03 
-1.165911235799e-03 1.728266951446e-04 0.0 
1.728266951446e-04 7.751919212480e-03 0.0 
0.0 0.0 -1.162686153705e-03 
-1.174125183305e-03 -1.966474411141e-04 0.0 
-1.966474411141e-04 7.895985343999e-03 0.0 
0.0 0.0 -1.173632101657e-03 
-4.597518908382e-04 3.550134818292e-04 0.0 
3.550134818292e-04 4.102272386848e-03 0.0 
0.0 0.0 -6.556197767577e-04 
-1.082747471146e-03 1.891035132956e-04 0.0 
1.891035132956e-04 7.201407994730e-03 0.0 
0.0 0.0 -1.082713561900e-03 
3.541255168012e-04 -8.864979850265e-05 0.0 
-8.864979850265e-05 5.172728405764e-03 0.0 
0.0 0.0 -7.956648283271e-04 
-1.203900706285e-03 2.001643692103e-04 0.0 
2.001643692103e-04 8.020307122063e-03 0.0 
0.0 0.0 -1.198415070424e-03 
-1.018917370980e-03 -2.029360126540e-04 0.0 
-2.029360126540e-04 6.841232066874e-03 0.0 
0.0 0.0 -1.021631336281e-03 
1.016176130080e-03 -2.166329597050e-04 0.0 
-2.166329597050e-04 3.047453844304e-03 0.0 
0.0 0.0 -7.116862902894e-04 
2.877854405358e-03 8.759207615884e-04 0.0 
8.759207615884e-04 9.381569276101e-04 0.0 
0.0 0.0 -6.989458521267e-04 
-1.062701287971e-03 1.919893444833e-04 0.0 
1.919893444833e-04 7.044103527011e-03 0.0 
0.0 0.0 -1.060111126929e-03 
-1.159236038185e-03 -2.100410646673e-04 0.0 
-2.100410646673e-04 7.815649065545e-03 0.0 
0.0 0.0 -1.160283895044e-03 
-1.068044840095e-03 1.975027097547e-04 0.0 
1.975027097547e-04 7.089380260529e-03 0.0 
0.0 0.0 -1.066842251349e-03 
-1.033322736071e-03 1.952546159751e-04 0.0 
1.952546159751e-04 6.838585495745e-03 0.0 
0.0 0.0 -1.030428295937e-03 
1.679510089507e-06 3.051482753922e-04 0.0 
3.051482753922e-04 6.189910534074e-03 0.0 
0.0 0.0 -8.462928808555e-04 
6.841440631006e-04 8.112665921522e-04 0.0 
8.112665921522e-04 5.891555000757e-03 0.0 
0.0 0.0 -9.382121645865e-04 
2.019633779674e-04 3.358119525106e-04 0.0 
3.358119525106e-04 5.832080049610e-03 0.0 
0.0 0.0 -8.419143154884e-04 
6.511381030509e-04 2.053198789074e-04 0.0 
2.053198789074e-04 4.231008751249e-03 0.0 
0.0 0.0 -7.703538498527e-04 
-3.900213901645e-04 2.106628670093e-03 0.0 
2.106628670093e-03 3.861024297388e-03 0.0 
0.0 0.0 -6.419897747600e-04 
1.148383038711e-03 6.416882949365e-04 0.0 
6.416882949365e-04 4.776117294929e-03 0.0 
0.0 0.0 -8.715320212412e-04 
-1.010397126926e-03 1.924777478118e-04 0.0 
1.924777478118e-04 6.699973834187e-03 0.0 
0.0 0.0 -1.010795753303e-03 
-2.707512350017e-04 1.576305148849e-04 0.0 
1.576305148849e-04 2.312203403090e-03 0.0 
0.0 0.0 -4.018221946533e-04 
2.344721544805e-03 3.573214647700e-04 0.0 
3.573214647700e-04 1.713015051316e-03 0.0 
0.0 0.0 -7.241222962603e-04 
2.025912732932e-03 6.666149096138e-04 0.0 
6.666149096138e-04 2.484495306663e-03 0.0 
0.0 0.0 -7.803847429959e-04 
2.150233340700e-03 9.337073276103e-04 0.0 
9.337073276103e-04 2.901994692618e-03 0.0 
0.0 0.0 -8.259928424640e-04 
1.243552160916e-03 1.184330263637e-04 0.0 
1.184330263637e-04 8.210612193452e-04 0.0 
0.0 0.0 -4.057256964758e-04 
2.642118745595e-03 4.768101684653e-04 0.0 
4.768101684653e-04 1.246842672640e-03 0.0 
0.0 0.0 -6.962026719631e-04 
1.790206660978e-03 8.812074835872e-04 0.0 
8.812074835872e-04 3.625069292854e-03 0.0 
0.0 0.0 -8.482286314026e-04 
-7.333735645701e-04 1.825225121090e-04 0.0 
1.825225121090e-04 4.734280668460e-03 0.0 
0.0 0.0 -7.294090860402e-04 
9.508216200699e-04 1.272177970003e-04 0.0 
1.272177970003e-04 3.201405633689e-03 0.0 
0.0 0.0 -7.306269271609e-04 
-9.487659951765e-04 -2.043170517302e-04 0.0 
-2.043170517302e-04 6.373556266418e-03 0.0 
0.0 0.0 -9.556638187253e-04 
-7.610430462996e-04 1.745184878598e-04 0.0 
1.745184878598e-04 5.044670069107e-03 0.0 
0.0 0.0 -7.638029664831e-04 
-2.968655189056e-04 1.475120940796e-03 0.0 
1.475120940796e-03 8.855169603632e-04 0.0 
0.0 0.0 -1.578647551136e-04 
7.557956890434e-04 -1.330275434264e-04 0.0 
-1.330275434264e-04 4.038122123662e-03 0.0 
0.0 0.0 -7.535179822062e-04 
1.076045340600e-03 7.801382449912e-04 0.0 
7.801382449912e-04 4.730965111888e-03 0.0 
0.0 0.0 -8.613973225689e-04 
-1.194223105728e-03 2.022847639454e-04 0.0 
2.022847639454e-04 8.008401190618e-03 0.0 
0.0 0.0 -1.196871286280e-03 
2.659650830636e-03 1.146664298516e-03 0.0 
1.146664298516e-03 1.757753340733e-03 0.0 
0.0 0.0 -7.957662417673e-04 
8.223019374009e-04 1.711980577160e-04 0.0 
1.711980577160e-04 3.694933372003e-03 0.0 
0.0 0.0 -7.503473003043e-04 
-9.659298580920e-04 -1.974560001277e-04 0.0 
-1.974560001277e-04 6.432078237772e-03 0.0 
0.0 0.0 -9.620958722924e-04 
-3.976925395020e-04 2.019727981342e-03 0.0 
2.019727981342e-03 1.392924444929e-03 0.0 
0.0 0.0 -2.247161217206e-04 
1.347708446910e-03 9.202804516004e-04 0.0 
9.202804516004e-04 4.306245904610e-03 0.0 
0.0 0.0 -8.596188970408e-04 
2.175497090523e-03 7.588896327942e-04 0.0 
7.588896327942e-04 2.668246442756e-03 0.0 
0.0 0.0 -8.047720848176e-04 
-7.647880329061e-04 -1.862411199865e-04 0.0 
-1.862411199865e-04 5.038541863179e-03 0.0 
0.0 0.0 -7.615729788896e-04 
3.527360187087e-04 -3.765593345601e-05 0.0 
-3.765593345601e-05 5.383057397281e-03 0.0 
0.0 0.0 -8.119534630638e-04 
1.762025497404e-03 -6.681779897031e-04 0.0 
-6.681779897031e-04 3.391115448656e-04 0.0 
0.0 0.0 -3.946419382404e-04 
3.241172168808e-04 9.946742019764e-06 0.0 
9.946742019764e-06 5.622266328757e-03 0.0 
0.0 0.0 -8.287810485223e-04 
5.741157845013e-05 4.197652094462e-04 0.0 
4.197652094462e-04 6.401987515912e-03 0.0 
0.0 0.0 -8.758814071554e-04 
1.618510552747e-03 1.075143495808e-03 0.0 
1.075143495808e-03 3.881508797259e-03 0.0 
0.0 0.0 -8.579621391622e-04 
-1.066802879167e-03 -1.994715727017e-04 0.0 
-1.994715727017e-04 7.144842154603e-03 0.0 
0.0 0.0 -1.064574987933e-03 
1.483691374372e-03 1.842067826318e-03 0.0 
1.842067826318e-03 4.643695468157e-03 0.0 
0.0 0.0 -9.659114123988e-04 
-2.211752704690e-05 3.190965715747e-05 0.0 
3.190965715747e-05 6.550099901872e-03 0.0 
0.0 0.0 -8.677538539899e-04 
-4.342529469812e-04 1.839136017643e-03 0.0 
1.839136017643e-03 1.835877483795e-03 0.0 
0.0 0.0 -2.917408095836e-04 
-9.904023149971e-04 -1.959122471390e-04 0.0 
-1.959122471390e-04 6.637118298013e-03 0.0 
0.0 0.0 -9.919185416031e-04 
7.898370074155e-04 1.084942209332e-03 0.0 
1.084942209332e-03 5.814291171829e-03 0.0 
0.0 0.0 -9.617343088194e-04 
-1.099721820410e-03 1.948899321208e-04 0.0 
1.948899321208e-04 7.299287446510e-03 0.0 
0.0 0.0 -1.096489272820e-03 
1.992496198471e-03 1.125132846978e-03 0.0 
1.125132846978e-03 3.145828798176e-03 0.0 
0.0 0.0 -8.370776816558e-04 
2.725267997877e-03 7.024551636855e-04 0.0 
7.024551636855e-04 1.380056286045e-03 0.0 
0.0 0.0 -7.325247082200e-04 
-8.952632146530e-05 1.249989259918e-04 0.0 
1.249989259918e-04 4.509123716357e-03 0.0 
0.0 0.0 -7.361415632527e-04 
-2.418248245405e-04 2.109020271233e-04 0.0 
2.109020271233e-04 1.359709000534e-03 0.0 
0.0 0.0 -2.482170483719e-04 
-1.134273257583e-03 1.988705509169e-04 0.0 
1.988705509169e-04 7.550007886780e-03 0.0 
0.0 0.0 -1.132911322290e-03 
-3.533430277364e-04 1.836215753852e-04 0.0 
1.836215753852e-04 2.571288273235e-03 0.0 
0.0 0.0 -4.309687334850e-04 
-4.715287556370e-04 1.257019275434e-03 0.0 
1.257019275434e-03 2.243431244530e-03 0.0 
0.0 0.0 -3.582286249851e-04 
1.713224700160e-03 2.242315565347e-03 0.0 
2.242315565347e-03 4.259054157926e-03 0.0 
0.0 0.0 -9.701081727638e-04 
-1.207081545900e-03 1.915242773210e-04 0.0 
1.915242773210e-04 8.072287243083e-03 0.0 
0.0 0.0 -1.206783194404e-03 
1.449150050433e-03 -7.295231829018e-04 0.0 
-7.295231829018e-04 4.229871191282e-04 0.0 
0.0 0.0 -3.573182248098e-04 
-2.980342196666e-04 4.826989995167e-04 0.0 
4.826989995167e-04 5.015987506561e-03 0.0 
0.0 0.0 -8.358581584049e-04 
-1.023802301552e-03 1.940941463560e-04 0.0 
1.940941463560e-04 6.787907294573e-03 0.0 
0.0 0.0 -1.023814440555e-03 
4.893028184852e-04 -2.330053096366e-04 0.0 
-2.330053096366e-04 3.885685049104e-03 0.0 
0.0 0.0 -7.235803636204e-04 
1.282455397435e-03 -4.004634822720e-04 0.0 
-4.004634822720e-04 8.588053473879e-04 0.0 
0.0 0.0 -4.027365510179e-04 
3.145168109244e-04 8.686225379282e-04 0.0 
8.686225379282e-04 2.486814282740e-03 0.0 
0.0 0.0 -5.292697486782e-04 
8.357640754512e-04 -3.682276534890e-04 0.0 
-3.682276534890e-04 5.138493657333e-04 0.0 
0.0 0.0 -2.862163191752e-04 
1.659691768357e-03 -3.819831462556e-04 0.0 
-3.819831462556e-04 1.396359555204e-04 0.0 
0.0 0.0 -3.608158092454e-04 
1.315585173948e-03 -4.162861645786e-04 0.0 
-4.162861645786e-04 2.593578078142e-04 0.0 
0.0 0.0 -3.238926756799e-04 
2.346306448826e-03 1.150716614292e-03 0.0 
1.150716614292e-03 2.431258607727e-03 0.0 
0.0 0.0 -8.163746353027e-04 
-9.632613839860e-04 4.764752381754e-04 0.0 
4.764752381754e-04 8.718280215676e-03 0.0 
0.0 0.0 -1.229630951175e-03 
-5.203330742156e-04 1.359835965592e-03 0.0 
1.359835965592e-03 2.690761559512e-03 0.0 
0.0 0.0 -4.244337567297e-04 
-1.854661633781e-04 2.636007723763e-04 0.0 
2.636007723763e-04 6.532169702116e-03 0.0 
0.0 0.0 -8.503412913907e-04 
2.669915981972e-03 1.126510478301e-03 0.0 
1.126510478301e-03 8.127551989696e-04 0.0 
0.0 0.0 -6.430507458085e-04 
-9.827241532880e-04 -2.074075714333e-04 0.0 
-2.074075714333e-04 6.589898560790e-03 0.0 
0.0 0.0 -9.856407671940e-04 
7.253330450188e-05 2.124702511482e-04 0.0 
2.124702511482e-04 1.436838242127e-03 0.0 
0.0 0.0 -3.129386394028e-04 
-1.334216764656e-04 7.281204243418e-05 0.0 
7.281204243418e-05 6.851719054198e-03 0.0 
0.0 0.0 -8.875519718788e-04 
1.056820014030e-03 -7.381597750925e-04 0.0 
-7.381597750925e-04 6.008014793605e-04 0.0 
0.0 0.0 -3.202688159031e-04 
-4.503799288058e-04 1.904112908986e-04 0.0 
1.904112908986e-04 3.075007849347e-03 0.0 
0.0 0.0 -4.995972236199e-04 
1.489315156473e-03 1.177958853870e-03 0.0 
1.177958853870e-03 4.220794702444e-03 0.0 
0.0 0.0 -8.781756018144e-04 
1.727325425544e-03 3.919099849822e-05 0.0 
3.919099849822e-05 2.436952621170e-03 0.0 
0.0 0.0 -7.336095555135e-04 
9.559346102490e-04 1.036456187108e-03 0.0 
1.036456187108e-03 5.456925470144e-03 0.0 
0.0 0.0 -9.387128743269e-04 
9.148338441901e-05 7.319544931415e-04 0.0 
7.319544931415e-04 3.084817836989e-03 0.0 
0.0 0.0 -5.762899171568e-04 
-1.046111348023e-03 -1.920749274324e-04 0.0 
-1.920749274324e-04 7.006833931181e-03 0.0 
0.0 0.0 -1.044446328659e-03 
4.876387994991e-04 1.014181011407e-03 0.0 
1.014181011407e-03 6.173503384710e-03 0.0 
0.0 0.0 -9.439636560380e-04 
-9.969097330870e-04 1.983464851525e-04 0.0 
1.983464851525e-04 6.585106213615e-03 0.0 
0.0 0.0 -9.940794652285e-04 
-1.204741342101e-03 -1.841288982353e-04 0.0 
-1.841288982353e-04 8.066681748081e-03 0.0 
0.0 0.0 -1.194784139986e-03 
-1.085983696521e-03 -2.024519851536e-04 0.0 
-2.024519851536e-04 7.301290877674e-03 0.0 
0.0 0.0 -1.087318097122e-03 
-1.116801267184e-03 -2.016255265415e-04 0.0 
-2.016255265415e-04 7.509256724676e-03 0.0 
0.0 0.0 -1.116677092124e-03 
3.521766909315e-07 3.714185624352e-04 0.0 
3.714185624352e-04 1.788901835680e-03 0.0 
0.0 0.0 -3.599422446610e-04 
-1.367949830879e-04 2.278979279834e-04 0.0 
2.278979279834e-04 6.264003923418e-03 0.0 
0.0 0.0 -8.349571103194e-04 
-1.052373239860e-03 1.884691524879e-04 0.0 
1.884691524879e-04 6.996291933739e-03 0.0 
0.0 0.0 -1.053364550114e-03 
3.021780834952e-03 1.865698140386e-03 0.0 
1.865698140386e-03 1.279333557878e-03 0.0 
0.0 0.0 -7.792489223127e-04 
-6.212892080911e-04 2.563389022012e-03 0.0 
2.563389022012e-03 3.181764659266e-03 0.0 
0.0 0.0 -4.908673385051e-04 
2.838291725834e-04 6.582738250939e-04 0.0 
6.582738250939e-04 6.647674193040e-03 0.0 
0.0 0.0 -9.602433459926e-04 
5.583736093670e-04 3.540777862080e-04 0.0 
3.540777862080e-04 1.555372397130e-03 0.0 
0.0 0.0 -4.142712813041e-04 
-3.477383298901e-04 -2.266748551137e-04 0.0 
-2.266748551137e-04 2.858556862036e-03 0.0 
0.0 0.0 -4.655197245388e-04 
1.172200011227e-03 1.356110895585e-03 0.0 
1.356110895585e-03 4.963881908194e-03 0.0 
0.0 0.0 -9.218293753888e-04 
4.306560327560e-04 -1.102388425898e-04 0.0 
-1.102388425898e-04 1.064918359696e-03 0.0 
0.0 0.0 -2.939799329518e-04 
5.835260985349e-04 9.289753348351e-04 0.0 
9.289753348351e-04 3.876970917386e-03 0.0 
0.0 0.0 -7.924235178053e-04 
1.227283742357e-03 1.000961758973e-03 0.0 
1.000961758973e-03 4.633683203621e-03 0.0 
0.0 0.0 -8.790026342710e-04 
-1.181481514864e-03 -1.809401034033e-04 0.0 
-1.809401034033e-04 7.945597505832e-03 0.0 
0.0 0.0 -1.181155146799e-03 
-1.216519596998e-03 -1.765367581353e-04 0.0 
-1.765367581353e-04 8.170458135963e-03 0.0 
0.0 0.0 -1.210943746944e-03 
1.409233469848e-03 8.049856375504e-04 0.0 
8.049856375504e-04 4.367479357511e-03 0.0 
0.0 0.0 -8.707810731882e-04 
-1.124714132978e-03 -2.064810197621e-04 0.0 
-2.064810197621e-04 7.559899990810e-03 0.0 
0.0 0.0 -1.123737208958e-03 
2.590479752800e-03 1.377252755540e-03 0.0 
1.377252755540e-03 1.108970377809e-03 0.0 
0.0 0.0 -6.793824814286e-04 
1.201888032352e-03 2.211725461866e-03 0.0 
2.211725461866e-03 4.800373031350e-03 0.0 
0.0 0.0 -9.968001538463e-04 
-8.102808248910e-04 4.317008213271e-03 0.0 
4.317008213271e-03 3.769780876515e-03 0.0 
0.0 0.0 -5.576509564599e-04 
-1.599578883258e-04 1.614538415064e-03 0.0 
1.614538415064e-03 6.783880279444e-03 0.0 
0.0 0.0 -1.107448087490e-03 
-1.246765450977e-03 5.716916611034e-03 0.0 
5.716916611034e-03 4.605600851107e-03 0.0 
0.0 0.0 -6.243763318321e-04 
-1.607125445605e-03 5.641004610954e-03 0.0 
5.641004610954e-03 5.198821113844e-03 0.0 
0.0 0.0 -6.577503189808e-04 
2.978343217208e-03 1.374785908171e-03 0.0 
1.374785908171e-03 1.274424824364e-03 0.0 
0.0 0.0 -7.717627972493e-04 
-2.189027055391e-03 3.999825303991e-03 0.0 
3.999825303991e-03 5.968543026526e-03 0.0 
0.0 0.0 -6.911701761307e-04 
2.547052199466e-03 2.082605458571e-03 0.0 
2.082605458571e-03 2.451253811791e-03 0.0 
0.0 0.0 -8.767777899735e-04 
1.112904906769e-03 9.216503288340e-04 0.0 
9.216503288340e-04 2.920792622956e-03 0.0 
0.0 0.0 -7.209687761305e-04 
2.420262929424e-03 5.450320974873e-04 0.0 
5.450320974873e-04 1.852101455385e-03 0.0 
0.0 0.0 -7.606211034647e-04 
1.229060883744e-03 -7.083891801334e-05 0.0 
-7.083891801334e-05 6.099259575265e-04 0.0 
0.0 0.0 -3.685806404478e-04 
2.947948600707e-03 1.122023686176e-03 0.0 
1.122023686176e-03 1.085853206194e-03 0.0 
0.0 0.0 -7.353490689725e-04 
-1.164475384932e-03 1.920424604491e-04 0.0 
1.920424604491e-04 7.760458237861e-03 0.0 
0.0 0.0 -1.162517914204e-03 
-1.183449438156e-03 2.942052844319e-04 0.0 
2.942052844319e-04 7.946015123929e-03 0.0 
0.0 0.0 -1.132547367093e-03 
5.251834753443e-05 2.240986837383e-04 0.0 
2.240986837383e-04 5.716634826597e-03 0.0 
0.0 0.0 -8.151621992845e-04 
7.042825905322e-04 1.178937566202e-03 0.0 
1.178937566202e-03 5.797191936547e-03 0.0 
0.0 0.0 -9.432817423275e-04 
1.914322772196e-03 3.951463380667e-04 0.0 
3.951463380667e-04 2.184900573081e-03 0.0 
0.0 0.0 -7.462293777361e-04 
-1.116874559966e-03 1.925152765080e-04 0.0 
1.925152765080e-04 7.452691656896e-03 0.0 
0.0 0.0 -1.119019617531e-03 
2.629525417083e-03 9.361573614126e-04 0.0 
9.361573614126e-04 1.572011729857e-03 0.0 
0.0 0.0 -7.634232545038e-04 
-2.828227093426e-04 2.187212730326e-04 0.0 
2.187212730326e-04 6.564842160250e-03 0.0 
0.0 0.0 -8.397908226227e-04 
-1.089871366961e-03 1.866180545901e-04 0.0 
1.866180545901e-04 7.246015693997e-03 0.0 
0.0 0.0 -1.089631904438e-03 
-1.081578605974e-03 -1.978658757613e-04 0.0 
-1.978658757613e-04 7.257137764756e-03 0.0 
0.0 0.0 -1.080451501872e-03 
1.701959404661e-03 9.575185361215e-04 0.0 
9.575185361215e-04 3.588566715989e-03 0.0 
0.0 0.0 -8.383813875254e-04 
3.102100680047e-03 1.318824464870e-03 0.0 
1.318824464870e-03 7.643052584437e-04 0.0 
0.0 0.0 -7.073300717972e-04 
1.174703491137e-03 2.141471706749e-03 0.0 
2.141471706749e-03 5.196138323966e-03 0.0 
0.0 0.0 -1.016024223461e-03 
-9.212765999104e-04 1.860043167072e-04 0.0 
1.860043167072e-04 6.042010505937e-03 0.0 
0.0 0.0 -9.169694165663e-04 
1.250059259187e-03 -5.833269234250e-04 0.0 
-5.833269234250e-04 6.521494152381e-04 0.0 
0.0 0.0 -3.661348613279e-04 
6.342072331659e-04 -1.150036054438e-04 0.0 
-1.150036054438e-04 1.555884138115e-03 0.0 
0.0 0.0 -4.113794265144e-04 
1.998462729161e-04 1.028197369832e-03 0.0 
1.028197369832e-03 3.049320980099e-03 0.0 
0.0 0.0 -6.061407060701e-04 
-4.970781996588e-04 5.961483837321e-04 0.0 
5.961483837321e-04 5.148968669177e-03 0.0 
0.0 0.0 -8.384786063130e-04 
-4.177745981286e-04 2.156060852322e-04 0.0 
2.156060852322e-04 6.859305596723e-03 0.0 
0.0 0.0 -8.446478850616e-04 
-1.051413170775e-03 -2.036953792705e-04 0.0 
-2.036953792705e-04 7.051256599190e-03 0.0 
0.0 0.0 -1.051102540299e-03 
2.912731028028e-03 8.548555052367e-04 0.0 
8.548555052367e-04 1.025800218141e-03 0.0 
0.0 0.0 -7.045205360201e-04 
-6.553844498541e-04 1.516860644221e-04 0.0 
1.516860644221e-04 5.959116570886e-03 0.0 
0.0 0.0 -9.344940742331e-04 
9.798484055573e-04 8.740292511292e-04 0.0 
8.740292511292e-04 5.048049762323e-03 0.0 
0.0 0.0 -8.813475357059e-04 
-1.132213948578e-03 -2.019794901778e-04 0.0 
-2.019794901778e-04 7.607209750872e-03 0.0 
0.0 0.0 -1.130578931274e-03 
9.732238053898e-04 2.170093995924e-03 0.0 
2.170093995924e-03 5.596857907444e-03 0.0 
0.0 0.0 -1.039147247123e-03 
-9.493017134461e-04 1.856369855211e-04 0.0 
1.856369855211e-04 6.294032018234e-03 0.0 
0.0 0.0 -9.517943393003e-04 
5.121605610605e-04 5.598319901026e-04 0.0 
5.598319901026e-04 5.631603575801e-03 0.0 
0.0 0.0 -8.687511937207e-04 
2.463907268724e-03 7.458531364089e-04 0.0 
7.458531364089e-04 2.018802343462e-03 0.0 
0.0 0.0 -7.831416640544e-04 
8.790246492498e-04 4.858867192235e-04 0.0 
4.858867192235e-04 5.198908205801e-03 0.0 
0.0 0.0 -8.733672149040e-04 
4.438059700456e-04 1.198173257622e-03 0.0 
1.198173257622e-03 3.947832787527e-03 0.0 
0.0 0.0 -7.951163407912e-04 
-1.190027282138e-03 -1.889094988141e-04 0.0 
-1.889094988141e-04 8.016045742998e-03 0.0 
0.0 0.0 -1.188704642750e-03 
8.156617972678e-04 2.089045265392e-03 0.0 
2.089045265392e-03 6.031297795030e-03 0.0 
0.0 0.0 -1.062886354882e-03 
2.037378121641e-03 9.746440721992e-04 0.0 
9.746440721992e-04 2.890859310536e-03 0.0 
0.0 0.0 -8.175647341301e-04 
5.885598396379e-04 2.418186303838e-04 0.0 
2.418186303838e-04 1.304908380280e-03 0.0 
0.0 0.0 -3.776191643183e-04 
1.240172203600e-03 1.870115664505e-03 0.0 
1.870115664505e-03 4.961658075440e-03 0.0 
0.0 0.0 -9.649331799448e-04 
1.604440935663e-03 1.716468246418e-03 0.0 
1.716468246418e-03 3.231071531324e-03 0.0 
0.0 0.0 -8.555605426019e-04 
2.562794423384e-03 8.773193948191e-04 0.0 
8.773193948191e-04 1.209043585247e-03 0.0 
0.0 0.0 -6.765734244908e-04 
1.851923103545e-03 7.401699762608e-04 0.0 
7.401699762608e-04 3.353575444734e-03 0.0 
0.0 0.0 -8.268138409672e-04 
5.096443523483e-04 1.213507003707e-04 0.0 
1.213507003707e-04 5.489620943491e-03 0.0 
0.0 0.0 -8.421445222943e-04 
6.919117777189e-04 -2.605257201883e-04 0.0 
-2.605257201883e-04 1.281225665758e-03 0.0 
0.0 0.0 -3.746637649435e-04 
2.353543839561e-03 9.686379882929e-04 0.0 
9.686379882929e-04 2.214466157159e-03 0.0 
0.0 0.0 -7.970811980614e-04 
-9.633029216945e-04 1.794107507867e-04 0.0 
1.794107507867e-04 6.339174664891e-03 0.0 
0.0 0.0 -9.596127204057e-04 
-4.990224872800e-04 -1.727320838985e-04 0.0 
-1.727320838985e-04 7.003189287740e-03 0.0 
0.0 0.0 -8.370242995159e-04 
-9.895100639472e-04 1.759458030689e-04 0.0 
1.759458030689e-04 6.529075947432e-03 0.0 
0.0 0.0 -9.876491701490e-04 
1.449778134244e-03 2.166553014951e-03 0.0 
2.166553014951e-03 4.606313806908e-03 0.0 
0.0 0.0 -9.681548681821e-04 
-9.372562607785e-04 1.792840605659e-04 0.0 
1.792840605659e-04 6.146041579427e-03 0.0 
0.0 0.0 -9.316602363005e-04 
-8.975747507543e-04 1.987030926427e-04 0.0 
1.987030926427e-04 5.753154163109e-03 0.0 
0.0 0.0 -8.756372412555e-04 
-9.482059618595e-04 1.851978750998e-04 0.0 
1.851978750998e-04 6.234676071384e-03 0.0 
0.0 0.0 -9.447135688329e-04 
8.901962831696e-04 1.153465483468e-03 0.0 
1.153465483468e-03 5.401822414966e-03 0.0 
0.0 0.0 -9.215600832202e-04 
-5.653413111272e-05 -1.146148088830e-04 0.0 
-1.146148088830e-04 6.108717688249e-03 0.0 
0.0 0.0 -8.215819398466e-04 
-1.016986910713e-03 1.835607482604e-04 0.0 
1.835607482604e-04 6.748472102274e-03 0.0 
0.0 0.0 -1.017300281410e-03 
-1.211783257084e-03 1.757837481836e-04 0.0 
1.757837481836e-04 8.121141767086e-03 0.0 
0.0 0.0 -1.212886757924e-03 
-9.118555854046e-04 1.822932037183e-04 0.0 
1.822932037183e-04 5.952136168219e-03 0.0 
0.0 0.0 -9.037302385344e-04 
1.864952674270e-03 3.571820941779e-04 0.0 
3.571820941779e-04 1.307001221621e-03 0.0 
0.0 0.0 -5.760585567884e-04 
1.038422921838e-03 1.549149978781e-03 0.0 
1.549149978781e-03 5.444819875419e-03 0.0 
0.0 0.0 -9.863078620161e-04 
-1.190361811188e-03 -2.231584585379e-04 0.0 
-2.231584585379e-04 8.068085284209e-03 0.0 
0.0 0.0 -1.196744929305e-03 
2.022819715199e-03 1.921053874331e-03 0.0 
1.921053874331e-03 2.319549474077e-03 0.0 
0.0 0.0 -7.869228524964e-04 
1.766294607324e-03 2.022866716704e-03 0.0 
2.022866716704e-03 2.789664849047e-03 0.0 
0.0 0.0 -8.226527892688e-04 
2.605807721542e-03 6.265636099205e-04 0.0 
6.265636099205e-04 9.491680456854e-04 0.0 
0.0 0.0 -6.402419685743e-04 
-1.047323379365e-03 1.912705100611e-04 0.0 
1.912705100611e-04 6.951134229714e-03 0.0 
0.0 0.0 -1.046609947212e-03 
-2.757655757151e-04 8.298423152071e-04 0.0 
8.298423152071e-04 3.805002878308e-03 0.0 
0.0 0.0 -6.500746975200e-04 
2.643236907253e-03 2.279771296437e-03 0.0 
2.279771296437e-03 2.441387782025e-03 0.0 
0.0 0.0 -8.791400947369e-04 
-1.460894096165e-04 6.996030087529e-04 0.0 
6.996030087529e-04 3.739654219592e-03 0.0 
0.0 0.0 -6.476280927198e-04 
1.339421739696e-03 1.278521541779e-03 0.0 
1.278521541779e-03 4.584693025786e-03 0.0 
0.0 0.0 -8.997594721486e-04 
5.751071538311e-04 1.294783079708e-03 0.0 
1.294783079708e-03 6.211442284197e-03 0.0 
0.0 0.0 -1.006511950303e-03 
2.850226150477e-03 5.930241297750e-04 0.0 
5.930241297750e-04 8.709592833152e-04 0.0 
0.0 0.0 -6.682047883386e-04 
-2.351166358341e-04 -2.031494045747e-04 0.0 
-2.031494045747e-04 1.435993492405e-03 0.0 
0.0 0.0 -2.451578436693e-04 
-1.204420763458e-03 1.961268392442e-04 0.0 
1.961268392442e-04 8.059775147050e-03 0.0 
0.0 0.0 -1.207184308065e-03 
-6.416795584078e-04 2.717498782331e-04 0.0 
2.717498782331e-04 4.377621083289e-03 0.0 
0.0 0.0 -6.853381776776e-04 
1.981051872505e-03 5.250879640657e-04 0.0 
5.250879640657e-04 2.323154216764e-03 0.0 
0.0 0.0 -7.629414674001e-04 
8.089427472574e-04 1.629880951486e-03 0.0 
1.629880951486e-03 5.779908075074e-03 0.0 
0.0 0.0 -9.859412379443e-04 
-1.016320152694e-03 -1.997312198958e-04 0.0 
-1.997312198958e-04 6.802485040097e-03 0.0 
0.0 0.0 -1.015069748350e-03 
1.354394673132e-04 -7.847452240262e-05 0.0 
-7.847452240262e-05 5.758838563926e-03 0.0 
0.0 0.0 -8.167410539516e-04 
1.359195539135e-03 8.483945567670e-04 0.0 
8.483945567670e-04 2.463396136671e-03 0.0 
0.0 0.0 -6.851017020021e-04 
-2.031820811394e-04 1.985739834671e-04 0.0 
1.985739834671e-04 1.096275256380e-03 0.0 
0.0 0.0 -2.111397097017e-04 
-5.661282371215e-04 -2.046530793857e-04 0.0 
-2.046530793857e-04 7.272248609203e-03 0.0 
0.0 0.0 -8.429555171696e-04 
-1.929603500991e-04 8.590974959395e-04 0.0 
8.590974959395e-04 5.008924195183e-03 0.0 
0.0 0.0 -8.660506973337e-04 
1.829086551930e-03 1.352290790835e-03 0.0 
1.352290790835e-03 3.829554113185e-03 0.0 
0.0 0.0 -8.932463134561e-04 
9.590691712025e-04 2.095511902013e-03 0.0 
2.095511902013e-03 5.529827711368e-03 0.0 
0.0 0.0 -1.014568167206e-03 
-1.616552956258e-04 1.423609377971e-04 0.0 
1.423609377971e-04 6.732585101887e-04 0.0 
0.0 0.0 -1.502316149797e-04 
2.401319735336e-04 2.950588542637e-04 0.0 
2.950588542637e-04 5.585360868068e-03 0.0 
0.0 0.0 -8.258171041603e-04 
2.426937822383e-04 2.665337967407e-04 0.0 
2.665337967407e-04 2.421903010850e-03 0.0 
0.0 0.0 -4.919579008500e-04 
-9.451714429142e-04 -2.012700485210e-04 0.0 
-2.012700485210e-04 6.343190678808e-03 0.0 
0.0 0.0 -9.498437721210e-04 
3.819507031226e-04 -2.025125664801e-04 0.0 
-2.025125664801e-04 4.360470299163e-03 0.0 
0.0 0.0 -7.439661882093e-04 
3.062335850992e-03 1.036535558549e-03 0.0 
1.036535558549e-03 5.862752425555e-04 0.0 
0.0 0.0 -6.709551114794e-04 
-3.740631999733e-04 -1.511965074861e-04 0.0 
-1.511965074861e-04 6.717209876066e-03 0.0 
0.0 0.0 -8.317618269334e-04 
2.571221468699e-03 2.503088497178e-03 0.0 
2.503088497178e-03 2.360479479198e-03 0.0 
0.0 0.0 -8.797430449044e-04 
2.700540366090e-03 8.659381580222e-04 0.0 
8.659381580222e-04 5.654455717437e-04 0.0 
0.0 0.0 -6.067458373204e-04 
-3.264459619408e-04 4.594924664504e-04 0.0 
4.594924664504e-04 5.421080563133e-03 0.0 
0.0 0.0 -8.989548790023e-04 
-1.952954180545e-04 -1.905102926162e-04 0.0 
-1.905102926162e-04 1.173502522438e-03 0.0 
0.0 0.0 -2.081142276587e-04 
1.488188226739e-03 2.284476493058e-03 0.0 
2.284476493058e-03 4.317105032019e-03 0.0 
0.0 0.0 -9.745138660167e-04 
1.266376339190e-03 8.961778398878e-04 0.0 
8.961778398878e-04 4.723548738357e-03 0.0 
0.0 0.0 -8.928622627957e-04 
5.648731784616e-04 1.995511195770e-03 0.0 
1.995511195770e-03 6.327175137752e-03 0.0 
0.0 0.0 -1.086946092349e-03 
1.427224346107e-03 2.182053537475e-03 0.0 
2.182053537475e-03 4.753331303531e-03 0.0 
0.0 0.0 -9.937307725156e-04 
1.216799629378e-03 -1.841259707315e-05 0.0 
-1.841259707315e-05 1.354944026841e-03 0.0 
0.0 0.0 -4.758149136988e-04 
-5.846749651953e-05 -1.441183990085e-04 0.0 
-1.441183990085e-04 5.894258358466e-03 0.0 
0.0 0.0 -8.058919990562e-04 
-1.207083647933e-03 1.808427044482e-04 0.0 
1.808427044482e-04 8.205581432035e-03 0.0 
0.0 0.0 -1.228155452712e-03 
4.770617221875e-05 6.436948112663e-04 0.0 
6.436948112663e-04 7.043675882608e-03 0.0 
0.0 0.0 -9.826968343413e-04 
1.114785379949e-03 9.826996593067e-04 0.0 
9.826996593067e-04 5.087511689383e-03 0.0 
0.0 0.0 -9.154110088010e-04 
2.466301092332e-03 1.114811120593e-03 0.0 
1.114811120593e-03 1.519180386437e-03 0.0 
0.0 0.0 -7.127912709901e-04 
5.788305992527e-04 1.492600336663e-03 0.0 
1.492600336663e-03 4.889765559488e-03 0.0 
0.0 0.0 -9.544824095498e-04 
-4.867641619487e-04 1.674555043796e-04 0.0 
1.674555043796e-04 6.859234769555e-03 0.0 
0.0 0.0 -8.358585576558e-04 
-7.921209473042e-04 -1.926602929467e-04 0.0 
-1.926602929467e-04 5.188955519593e-03 0.0 
0.0 0.0 -7.432507370355e-04 
1.615335476667e-03 2.486323841192e-03 0.0 
2.486323841192e-03 4.286198178509e-03 0.0 
0.0 0.0 -9.699747521327e-04 
-9.850942903468e-04 1.906307977984e-04 0.0 
1.906307977984e-04 6.538331902211e-03 0.0 
0.0 0.0 -9.877098122506e-04 
-2.247730356618e-04 -1.350043503532e-04 0.0 
-1.350043503532e-04 6.419587650617e-03 0.0 
0.0 0.0 -8.267017119406e-04 
1.067903440563e-04 -3.175701991088e-05 0.0 
-3.175701991088e-05 5.995016395218e-03 0.0 
0.0 0.0 -8.333189319842e-04 
-7.343177045735e-04 -9.465157044594e-06 0.0 
-9.465157044594e-06 4.570354151395e-03 0.0 
0.0 0.0 -7.313513689239e-04 
-7.305590051735e-04 3.402678996754e-05 0.0 
3.402678996754e-05 4.568649633296e-03 0.0 
0.0 0.0 -7.310574395863e-04 
-9.952316992060e-04 -2.061010920872e-04 0.0 
-2.061010920872e-04 6.656041030992e-03 0.0 
0.0 0.0 -9.927888931629e-04 
1.677813112186e-03 2.588480038630e-03 0.0 
2.588480038630e-03 3.853600983039e-03 0.0 
0.0 0.0 -9.493874019398e-04 
1.241510617222e-04 -2.071055450440e-04 0.0 
-2.071055450440e-04 4.778183354658e-03 0.0 
0.0 0.0 -7.495566004346e-04 
-9.805249871409e-04 -1.924563760953e-04 0.0 
-1.924563760953e-04 6.542490604406e-03 0.0 
0.0 0.0 -9.775429604617e-04 
2.759214114275e-03 2.315215925144e-03 0.0 
2.315215925144e-03 1.960360041578e-03 0.0 
0.0 0.0 -8.502279965035e-04 
2.681478290974e-04 6.010129024923e-04 0.0 
6.010129024923e-04 6.221564589203e-03 0.0 
0.0 0.0 -9.044753432883e-04 
2.448287984034e-03 1.597711656421e-03 0.0 
1.597711656421e-03 1.468266148760e-03 0.0 
0.0 0.0 -7.154845226688e-04 
-1.124686744168e-03 2.357039315216e-04 0.0 
2.357039315216e-04 8.844997549747e-03 0.0 
0.0 0.0 -1.254208865878e-03 
-8.042874267729e-04 1.538278548701e-04 0.0 
1.538278548701e-04 5.332999869486e-03 0.0 
0.0 0.0 -8.119939454945e-04 
1.864645085701e-03 1.626865523014e-03 0.0 
1.626865523014e-03 2.760590757172e-03 0.0 
0.0 0.0 -8.199314282332e-04 
5.567622859481e-04 1.590619231502e-04 0.0 
1.590619231502e-04 4.117805097898e-03 0.0 
0.0 0.0 -7.562541916309e-04 
5.719590026654e-04 1.450185198906e-05 0.0 
1.450185198906e-05 1.835105162819e-03 0.0 
0.0 0.0 -4.479040077299e-04 
7.556841593186e-04 -2.269180124418e-04 0.0 
-2.269180124418e-04 3.463073799844e-03 0.0 
0.0 0.0 -7.174700750399e-04 
7.438927332104e-04 1.844660805889e-03 0.0 
1.844660805889e-03 4.446166706770e-03 0.0 
0.0 0.0 -9.241143911339e-04 
-7.955449290919e-04 2.917726450259e-04 0.0 
2.917726450259e-04 5.658952116775e-03 0.0 
0.0 0.0 -8.738309435711e-04 
-9.814387768265e-04 1.839019607205e-04 0.0 
1.839019607205e-04 6.501334764278e-03 0.0 
0.0 0.0 -9.814596669550e-04 
-1.010867161751e-03 1.870829556364e-04 0.0 
1.870829556364e-04 6.678666577386e-03 0.0 
0.0 0.0 -1.008022096355e-03 
-1.044436862417e-03 -1.926634021925e-04 0.0 
-1.926634021925e-04 6.979659342720e-03 0.0 
0.0 0.0 -1.040850218070e-03 
6.305342354142e-04 -4.665212910004e-05 0.0 
-4.665212910004e-05 5.431306055174e-04 0.0 
0.0 0.0 -2.163717569139e-04 
7.579300012873e-04 8.552588217605e-05 0.0 
8.552588217605e-05 3.188125315059e-03 0.0 
0.0 0.0 -7.172111066715e-04 
-3.592415825886e-04 4.635521480592e-04 0.0 
4.635521480592e-04 4.159032419172e-03 0.0 
0.0 0.0 -6.825522065409e-04 
-9.565981315294e-04 1.790846631941e-04 0.0 
1.790846631941e-04 6.284252226282e-03 0.0 
0.0 0.0 -9.521954671713e-04 
-9.888411307371e-04 -1.922642027801e-04 0.0 
-1.922642027801e-04 6.601876220435e-03 0.0 
0.0 0.0 -9.850634846466e-04 
6.486694237642e-04 9.569456932803e-04 0.0 
9.569456932803e-04 5.773455691340e-03 0.0 
0.0 0.0 -9.210132631690e-04 
3.015881641752e-04 1.621332302988e-04 0.0 
1.621332302988e-04 1.322637298372e-03 0.0 
0.0 0.0 -3.273996513303e-04 
7.156803305791e-04 -4.053688161396e-04 0.0 
-4.053688161396e-04 1.042693253372e-03 0.0 
0.0 0.0 -3.377286911054e-04 
1.471449778232e-04 1.075600848414e-03 0.0 
1.075600848414e-03 4.457206699943e-03 0.0 
0.0 0.0 -8.305977116616e-04 
5.376933677433e-04 -2.654615027917e-04 0.0 
-2.654615027917e-04 3.472603190034e-03 0.0 
0.0 0.0 -7.029346748243e-04 
-1.572218472018e-03 5.971645108261e-03 0.0 
5.971645108261e-03 5.211963005947e-03 0.0 
0.0 0.0 -6.554599841463e-04 
-1.991685969969e-03 5.754474316731e-03 0.0 
5.754474316731e-03 5.851390004922e-03 0.0 
0.0 0.0 -6.889204951115e-04 
-9.785151366904e-04 -1.903688334859e-04 0.0 
-1.903688334859e-04 6.552823194572e-03 0.0 
0.0 0.0 -9.793492904611e-04 
-6.261446061686e-05 1.052891972343e-05 0.0 
1.052891972343e-05 1.771304822064e-03 0.0 
0.0 0.0 -3.302473245842e-04 
4.074221700195e-04 1.239936887116e-04 0.0 
1.239936887116e-04 4.062533970615e-03 0.0 
0.0 0.0 -7.428650915083e-04 
9.696784595604e-04 4.084122940704e-04 0.0 
4.084122940704e-04 4.900799672413e-03 0.0 
0.0 0.0 -8.526807117392e-04 
6.159282676234e-04 1.193557685459e-04 0.0 
1.193557685459e-04 1.051162457341e-03 0.0 
0.0 0.0 -3.408226701431e-04 
1.158523292670e-05 1.154143321660e-03 0.0 
1.154143321660e-03 7.013300309702e-03 0.0 
0.0 0.0 -1.047132719457e-03 
-1.153161816539e-03 -1.810911126316e-04 0.0 
-1.810911126316e-04 7.745860400322e-03 0.0 
0.0 0.0 -1.152455342817e-03 
-3.769999299049e-05 -2.394028568188e-04 0.0 
-2.394028568188e-04 4.365705978911e-03 0.0 
0.0 0.0 -7.153767791732e-04 
-1.242715204607e-04 2.090565100989e-04 0.0 
2.090565100989e-04 6.042848522496e-03 0.0 
0.0 0.0 -8.200162025165e-04 
5.197293375042e-04 -1.647532471132e-05 0.0 
-1.647532471132e-05 4.261934776998e-05 0.0 
0.0 0.0 -1.797547709840e-04 
1.029969462939e-03 3.123771295477e-04 0.0 
3.123771295477e-04 4.632802418929e-03 0.0 
0.0 0.0 -8.334494117146e-04 
5.207379890769e-06 7.047482059060e-04 0.0 
7.047482059060e-04 4.877340567872e-03 0.0 
0.0 0.0 -8.634366945984e-04 
6.591830346453e-04 -1.326848047362e-05 0.0 
-1.326848047362e-05 -7.852424606491e-05 0.0 
0.0 0.0 -1.788519809851e-04 
-1.152359323407e-03 1.787160847200e-04 0.0 
1.787160847200e-04 7.696182759720e-03 0.0 
0.0 0.0 -1.154859126927e-03 
1.107451883111e-04 -2.389218526973e-04 0.0 
-2.389218526973e-04 1.471258549822e-03 0.0 
0.0 0.0 -3.099791425632e-04 
-9.534030089958e-04 -1.885226890489e-04 0.0 
-1.885226890489e-04 6.348031499756e-03 0.0 
0.0 0.0 -9.496453321265e-04 
-6.032622009461e-04 1.825238001245e-04 0.0 
1.825238001245e-04 5.531700272185e-03 0.0 
0.0 0.0 -8.712718144564e-04 
2.064751495384e-03 2.519809985947e-04 0.0 
2.519809985947e-04 2.154463894793e-03 0.0 
0.0 0.0 -7.469888661699e-04 
1.235543547581e-03 4.266234183797e-04 0.0 
4.266234183797e-04 3.752897182160e-03 0.0 
0.0 0.0 -7.906944866281e-04 
-1.186359257630e-03 1.790401943917e-04 0.0 
1.790401943917e-04 7.910120458871e-03 0.0 
0.0 0.0 -1.182898372388e-03 
9.690660231099e-04 4.462448028182e-04 0.0 
4.462448028182e-04 4.385038535431e-03 0.0 
0.0 0.0 -8.118519920279e-04 
1.465775004870e-03 2.047238263295e-03 0.0 
2.047238263295e-03 3.302286437875e-03 0.0 
0.0 0.0 -8.581765416018e-04 
3.058245671142e-04 8.526899050118e-04 0.0 
8.526899050118e-04 4.365669848891e-03 0.0 
0.0 0.0 -8.279616112547e-04 
-1.994939123680e-04 9.107720997195e-04 0.0 
9.107720997195e-04 6.147028018210e-04 0.0 
0.0 0.0 -1.241199786263e-04 
1.927005157014e-06 1.608879916467e-04 0.0 
1.608879916467e-04 1.297953675922e-03 0.0 
0.0 0.0 -2.761011822561e-04 
1.257065382844e-03 1.868166280629e-03 0.0 
1.868166280629e-03 5.062544787860e-03 0.0 
0.0 0.0 -9.891786505582e-04 
-9.134689604251e-04 -2.151070896449e-04 0.0 
-2.151070896449e-04 6.054442910930e-03 0.0 
0.0 0.0 -9.085367473448e-04 
1.028786896600e-03 1.893388392654e-03 0.0 
1.893388392654e-03 5.382387396198e-03 0.0 
0.0 0.0 -9.891418166221e-04 
3.244274154609e-04 7.479586848629e-04 0.0 
7.479586848629e-04 2.276406118252e-03 0.0 
0.0 0.0 -4.942977111402e-04 
-1.099935257767e-03 1.964856595336e-04 0.0 
1.964856595336e-04 7.292900558944e-03 0.0 
0.0 0.0 -1.097950598811e-03 
1.004004057368e-03 1.801743790981e-03 0.0 
1.801743790981e-03 5.533219756143e-03 0.0 
0.0 0.0 -1.012743173285e-03 
-9.122750475259e-04 1.296263583698e-03 0.0 
1.296263583698e-03 4.856833693239e-03 0.0 
0.0 0.0 -7.179420443741e-04 
1.167650596138e-03 2.080354286024e-03 0.0 
2.080354286024e-03 5.079453740662e-03 0.0 
0.0 0.0 -9.901099041169e-04 
-2.248236464369e-04 -1.614794381433e-04 0.0 
-1.614794381433e-04 6.209541485518e-03 0.0 
0.0 0.0 -8.113465055436e-04 
2.015190490045e-03 2.632334391239e-03 0.0 
2.632334391239e-03 3.313651689974e-03 0.0 
0.0 0.0 -9.260557243596e-04 
6.836222489337e-04 1.249540759526e-04 0.0 
1.249540759526e-04 3.627965533996e-03 0.0 
0.0 0.0 -7.365320369479e-04 
6.501230761753e-04 -1.904260868726e-04 0.0 
-1.904260868726e-04 3.934029058261e-03 0.0 
0.0 0.0 -7.382432314838e-04 
-1.208173698565e-03 -2.031466844655e-04 0.0 
-2.031466844655e-04 8.155254103189e-03 0.0 
0.0 0.0 -1.204704583718e-03 
1.467521100877e-03 3.919029960520e-04 0.0 
3.919029960520e-04 3.156929371405e-03 0.0 
0.0 0.0 -7.699824170136e-04 
-5.447075190330e-04 5.719518870695e-04 0.0 
5.719518870695e-04 5.574013280300e-03 0.0 
0.0 0.0 -9.015555482168e-04 
2.895843597788e-03 1.870404544912e-03 0.0 
1.870404544912e-03 1.788380625973e-03 0.0 
0.0 0.0 -8.357146601676e-04 
6.682991835060e-04 4.441496111792e-04 0.0 
4.441496111792e-04 5.052108703901e-03 0.0 
0.0 0.0 -8.332070117183e-04 
2.105526902074e-03 1.495243763220e-03 0.0 
1.495243763220e-03 2.304144280610e-03 0.0 
0.0 0.0 -7.842421616061e-04 
1.968448274294e-03 4.333915046486e-04 0.0 
4.333915046486e-04 7.021619327074e-04 0.0 
0.0 0.0 -5.065804551108e-04 
2.046231760103e-03 8.196458831675e-04 0.0 
8.196458831675e-04 2.672328487506e-03 0.0 
0.0 0.0 -7.986103196271e-04 
1.892801413005e-03 6.449174397689e-04 0.0 
6.449174397689e-04 9.905812187957e-04 0.0 
0.0 0.0 -5.426160209679e-04 
-9.840239484115e-04 1.860183386348e-04 0.0 
1.860183386348e-04 6.482342277994e-03 0.0 
0.0 0.0 -9.799122972177e-04 
1.956093799791e-03 1.445842334007e-04 0.0 
1.445842334007e-04 9.980152503952e-04 0.0 
0.0 0.0 -5.399485503622e-04 
-9.444560097486e-04 -1.940759614132e-04 0.0 
-1.940759614132e-04 6.297600198433e-03 0.0 
0.0 0.0 -9.420580210740e-04 
8.392318927824e-04 7.682112272744e-04 0.0 
7.682112272744e-04 5.517973544387e-03 0.0 
0.0 0.0 -9.158508946819e-04 
1.059565071370e-03 1.073832672056e-03 0.0 
1.073832672056e-03 5.012027768721e-03 0.0 
0.0 0.0 -8.994214894215e-04 
2.255702419590e-03 1.781207410943e-03 0.0 
1.781207410943e-03 1.874937131223e-03 0.0 
0.0 0.0 -7.512528815036e-04 
-9.420690742010e-04 1.904423332236e-04 0.0 
1.904423332236e-04 6.250031840530e-03 0.0 
0.0 0.0 -9.460253849645e-04 
-2.767047061888e-04 1.971853105272e-04 0.0 
1.971853105272e-04 6.348386411627e-03 0.0 
0.0 0.0 -8.250959995354e-04 
-3.710150641291e-04 -1.740237127513e-04 0.0 
-1.740237127513e-04 6.510156988712e-03 0.0 
0.0 0.0 -8.166743868530e-04 
-2.748138935717e-04 -1.822651738482e-04 0.0 
-1.822651738482e-04 1.604872033163e-03 0.0 
0.0 0.0 -2.683291303717e-04 
-9.444087097143e-04 2.263565334175e-04 0.0 
2.263565334175e-04 6.396035121652e-03 0.0 
0.0 0.0 -9.724793438395e-04 
-5.199071004991e-04 2.498445583799e-04 0.0 
2.498445583799e-04 7.141265904446e-03 0.0 
0.0 0.0 -8.497086402300e-04 
1.123273127261e-04 2.573334462056e-03 0.0 
2.573334462056e-03 2.732187763173e-03 0.0 
0.0 0.0 -5.357889572170e-04 
-5.856602720036e-05 -2.246903352762e-04 0.0 
-2.246903352762e-04 4.749595813596e-03 0.0 
0.0 0.0 -7.353706164490e-04 
-2.075195316795e-04 3.970556980907e-04 0.0 
3.970556980907e-04 8.430937509971e-04 0.0 
0.0 0.0 -1.553180670733e-04 
-4.066555210937e-04 1.875112895747e-04 0.0 
1.875112895747e-04 6.634003004546e-03 0.0 
0.0 0.0 -8.300542307178e-04 
1.112828197745e-03 4.645089241814e-04 0.0 
4.645089241814e-04 1.387341960834e-03 0.0 
0.0 0.0 -4.785631936959e-04 
-8.099331466590e-04 1.402984107788e-04 0.0 
1.402984107788e-04 5.220388888195e-03 0.0 
0.0 0.0 -7.644111363068e-04 
1.935017207863e-03 1.790430577576e-03 0.0 
1.790430577576e-03 3.679318036775e-03 0.0 
0.0 0.0 -9.002307473199e-04 
-9.403782054792e-04 -1.899510314298e-04 0.0 
-1.899510314298e-04 6.304690927512e-03 0.0 
0.0 0.0 -9.438854677472e-04 
-8.963572268651e-04 1.741364622750e-04 0.0 
1.741364622750e-04 5.997227966098e-03 0.0 
0.0 0.0 -9.108073647308e-04 
1.123249344577e-03 1.994872358566e-03 0.0 
1.994872358566e-03 3.857715382094e-03 0.0 
0.0 0.0 -8.936906232635e-04 
-1.053768640086e-03 4.718667629602e-03 0.0 
4.718667629602e-03 4.285931561392e-03 0.0 
0.0 0.0 -5.884905393267e-04 
-1.244011703835e-03 5.379175623745e-03 0.0 
5.379175623745e-03 4.696068696142e-03 0.0 
0.0 0.0 -6.218825813656e-04 
-4.785810772505e-04 -1.771917670652e-04 0.0 
-1.771917670652e-04 6.779078911966e-03 0.0 
0.0 0.0 -8.224956283523e-04 
1.094433648628e-03 1.309397220180e-04 0.0 
1.309397220180e-04 4.155143075819e-03 0.0 
0.0 0.0 -7.974816354151e-04 
1.848199853120e-03 3.012475080281e-04 0.0 
3.012475080281e-04 2.731640997070e-03 0.0 
0.0 0.0 -7.681187127236e-04 
1.156029273139e-03 7.072491045288e-04 0.0 
7.072491045288e-04 4.449120306953e-03 0.0 
0.0 0.0 -8.428497731303e-04 
2.326213192711e-03 7.891631107277e-04 0.0 
7.891631107277e-04 2.034835344572e-03 0.0 
0.0 0.0 -7.784621402954e-04 
1.112165287452e-03 1.523001909791e-04 0.0 
1.523001909791e-04 1.676991052883e-03 0.0 
0.0 0.0 -5.119962057136e-04 
-9.461269946788e-04 4.910039630289e-03 0.0 
4.910039630289e-03 4.127447684069e-03 0.0 
0.0 0.0 -5.908395828668e-04 
-8.562635021511e-04 -1.754512107451e-04 0.0 
-1.754512107451e-04 5.627343192984e-03 0.0 
0.0 0.0 -8.442294783838e-04 
-7.160648306050e-04 7.585704491028e-06 0.0 
7.585704491028e-06 4.849167370762e-03 0.0 
0.0 0.0 -7.121995050294e-04 
1.014016236242e-03 7.146084840630e-04 0.0 
7.146084840630e-04 5.123651263379e-03 0.0 
0.0 0.0 -8.935796406331e-04 
2.310812185911e-03 1.322816063946e-03 0.0 
1.322816063946e-03 1.886321754750e-03 0.0 
0.0 0.0 -7.486350631497e-04 
2.985553713529e-04 1.001499451718e-03 0.0 
1.001499451718e-03 6.577021638450e-03 0.0 
0.0 0.0 -9.639556519394e-04 
-7.030800133049e-04 2.063574899535e-04 0.0 
2.063574899535e-04 6.876913520389e-03 0.0 
0.0 0.0 -8.150941688396e-04 
2.165733140491e-03 5.836257864647e-04 0.0 
5.836257864647e-04 2.469824111718e-03 0.0 
0.0 0.0 -7.845591376984e-04 
-6.529296597256e-04 -1.766307014759e-04 0.0 
-1.766307014759e-04 7.512504767925e-03 0.0 
0.0 0.0 -8.609000235760e-04 
2.559594596779e-03 1.368750031708e-04 0.0 
1.368750031708e-04 5.624662514400e-04 0.0 
0.0 0.0 -5.682622744621e-04 
5.233259728585e-04 1.207566560260e-03 0.0 
1.207566560260e-03 6.172290002761e-03 0.0 
0.0 0.0 -9.657096945801e-04 
1.294081852202e-03 1.727772499239e-03 0.0 
1.727772499239e-03 3.754583348567e-03 0.0 
0.0 0.0 -8.910665706739e-04 
2.205374336060e-03 2.493003950142e-03 0.0 
2.493003950142e-03 3.277745336410e-03 0.0 
0.0 0.0 -9.232190324596e-04 
3.288154820011e-04 2.439487993573e-04 0.0 
2.439487993573e-04 6.069267781505e-03 0.0 
0.0 0.0 -8.802674590714e-04 
1.021710458940e-03 -3.229219957988e-04 0.0 
-3.229219957988e-04 2.276944230599e-03 0.0 
0.0 0.0 -5.958228065582e-04 
-8.153406365903e-04 3.304850661399e-04 0.0 
3.304850661399e-04 6.058422985331e-03 0.0 
0.0 0.0 -9.369464185080e-04 
2.127028061214e-03 4.149456482543e-04 0.0 
4.149456482543e-04 2.300481121954e-03 0.0 
0.0 0.0 -7.652692215328e-04 
-8.711306059521e-04 -1.312031725901e-04 0.0 
-1.312031725901e-04 6.008910159420e-03 0.0 
0.0 0.0 -9.065670216064e-04 
2.545383461670e-04 4.075803531886e-04 0.0 
4.075803531886e-04 2.612776820769e-03 0.0 
0.0 0.0 -5.268093404353e-04 
1.991883209612e-03 2.161309389821e-03 0.0 
2.161309389821e-03 3.652735120664e-03 0.0 
0.0 0.0 -9.219805304082e-04 
2.267296212572e-03 6.187717988161e-04 0.0 
6.187717988161e-04 1.881531805817e-03 0.0 
0.0 0.0 -7.548706880268e-04 
2.971788353691e-04 1.526298190746e-04 0.0 
1.526298190746e-04 4.534089223856e-03 0.0 
0.0 0.0 -7.619951936389e-04 
-9.122003311207e-04 1.835312424396e-04 0.0 
1.835312424396e-04 5.985147494673e-03 0.0 
0.0 0.0 -9.091416541300e-04 
-1.779440610295e-04 -1.030848282903e-04 0.0 
-1.030848282903e-04 7.740733373014e-04 0.0 
0.0 0.0 -1.392682743729e-04 
2.485314443143e-03 1.760180877221e-03 0.0 
1.760180877221e-03 2.563024122088e-03 0.0 
0.0 0.0 -8.566475496745e-04 
-2.130732635602e-04 -2.101807231717e-04 0.0 
-2.101807231717e-04 1.221567911035e-03 0.0 
0.0 0.0 -2.164288490095e-04 
-1.817557715784e-04 1.852053218631e-04 0.0 
1.852053218631e-04 1.290142743276e-03 0.0 
0.0 0.0 -2.410360834028e-04 
1.376627890981e-04 1.277068840152e-04 0.0 
1.277068840152e-04 4.484161127840e-03 0.0 
0.0 0.0 -7.487585336248e-04 
9.737886106227e-04 2.163847959385e-03 0.0 
2.163847959385e-03 5.219618140124e-03 0.0 
0.0 0.0 -1.019445936883e-03 
-9.336786887582e-04 1.772618600830e-04 0.0 
1.772618600830e-04 6.184069199665e-03 0.0 
0.0 0.0 -9.387552692590e-04 
-7.775570238171e-04 2.936963864626e-03 0.0 
2.936963864626e-03 3.620092624774e-03 0.0 
0.0 0.0 -5.215302833573e-04 
-5.372906408854e-04 8.531572009426e-04 0.0 
8.531572009426e-04 8.027788196523e-03 0.0 
0.0 0.0 -1.296984627002e-03 
-1.078009135143e-04 3.667097932361e-04 0.0 
3.667097932361e-04 2.995138009027e-04 0.0 
0.0 0.0 -8.216266602363e-05 
-8.839796233703e-04 3.861345995530e-03 0.0 
3.861345995530e-03 3.934142646390e-03 0.0 
0.0 0.0 -5.549805679787e-04 
1.750212498776e-03 5.654857728864e-04 0.0 
5.654857728864e-04 2.910400884732e-03 0.0 
0.0 0.0 -7.828288089473e-04 
-3.078989533205e-04 -2.260647733179e-04 0.0 
-2.260647733179e-04 4.791951494308e-03 0.0 
0.0 0.0 -7.219066464195e-04 
-4.516621269444e-04 1.810315561807e-03 0.0 
1.810315561807e-03 4.202731420473e-03 0.0 
0.0 0.0 -6.733236465360e-04 
2.491814867512e-03 2.439874548991e-04 0.0 
2.439874548991e-04 6.819949670363e-04 0.0 
0.0 0.0 -5.908717820549e-04 
1.340256439413e-03 1.208005828830e-04 0.0 
1.208005828830e-04 3.540447943730e-03 0.0 
0.0 0.0 -7.758156564627e-04 
9.479965016281e-04 1.658707144170e-03 0.0 
1.658707144170e-03 4.313308387452e-03 0.0 
0.0 0.0 -9.266779469803e-04 
2.088030694982e-03 1.653743786933e-03 0.0 
1.653743786933e-03 3.331868778569e-03 0.0 
0.0 0.0 -8.781544989711e-04 
-2.250615273267e-04 1.495826767859e-03 0.0 
1.495826767859e-03 6.640886448605e-03 0.0 
0.0 0.0 -1.082470185765e-03 
-5.871536357201e-05 3.485289089983e-04 0.0 
3.485289089983e-04 1.466832326265e-03 0.0 
0.0 0.0 -2.976331147772e-04 
1.899753486576e-04 1.088120591180e-04 0.0 
1.088120591180e-04 4.071050547154e-03 0.0 
0.0 0.0 -7.302902132907e-04 
-3.333745512307e-04 1.428818510286e-04 0.0 
1.428818510286e-04 4.911618266164e-03 0.0 
0.0 0.0 -7.419027901070e-04 
2.276063014820e-04 -3.369145833081e-04 0.0 
-3.369145833081e-04 2.218177999832e-03 0.0 
0.0 0.0 -4.544023106810e-04 
-7.514806211766e-04 2.187245154034e-04 0.0 
2.187245154034e-04 4.887888210751e-03 0.0 
0.0 0.0 -7.518103749233e-04 
-9.376130433125e-04 -2.007012642150e-04 0.0 
-2.007012642150e-04 6.245928942655e-03 0.0 
0.0 0.0 -9.362314798257e-04 
-1.009658694205e-03 -1.929155053704e-04 0.0 
-1.929155053704e-04 6.545338722905e-03 0.0 
0.0 0.0 -7.850910711432e-04 
7.395411778935e-04 2.557860819753e-05 0.0 
2.557860819753e-05 1.079189904864e-04 0.0 
0.0 0.0 -1.605242656235e-04 
-1.269812495822e-04 -2.531001823485e-04 0.0 
-2.531001823485e-04 4.902479252968e-04 0.0 
0.0 0.0 -1.185594205871e-04 
-5.921558293516e-05 -2.638704849219e-04 0.0 
-2.638704849219e-04 1.739553255001e-03 0.0 
0.0 0.0 -3.233707900025e-04 
-5.342527616372e-04 -2.120052839962e-04 0.0 
-2.120052839962e-04 5.175700715346e-03 0.0 
0.0 0.0 -7.286375057029e-04 
2.755258838871e-03 3.486908581715e-04 0.0 
3.486908581715e-04 7.511756471177e-04 0.0 
0.0 0.0 -6.322020076307e-04 
2.475690889074e-03 -7.825337091390e-05 0.0 
-7.825337091390e-05 6.019178015111e-04 0.0 
0.0 0.0 -5.605319560360e-04 
2.001192118138e-03 -7.628925656554e-05 0.0 
-7.628925656554e-05 7.352007996519e-04 0.0 
0.0 0.0 -5.041580933422e-04 
-1.015474756461e-04 1.364446175303e-04 0.0 
1.364446175303e-04 4.881188012807e-03 0.0 
0.0 0.0 -7.543132426500e-04 
-9.951021354220e-04 1.863977597818e-04 0.0 
1.863977597818e-04 6.578139400737e-03 0.0 
0.0 0.0 -9.956198530692e-04 
-5.426877989310e-04 1.590950548646e-04 0.0 
1.590950548646e-04 5.278246070414e-03 0.0 
0.0 0.0 -7.478825582171e-04 
2.982436509435e-03 7.702229956938e-04 0.0 
7.702229956938e-04 4.528918338237e-04 0.0 
0.0 0.0 -6.348607296063e-04 
-9.070836528669e-04 -1.129793158474e-04 0.0 
-1.129793158474e-04 6.421384674484e-03 0.0 
0.0 0.0 -9.678420568749e-04 
-8.101971348646e-04 1.641316877204e-04 0.0 
1.641316877204e-04 5.432076920036e-03 0.0 
0.0 0.0 -8.236220363599e-04 
1.474524584100e-03 1.616986562666e-03 0.0 
1.616986562666e-03 4.506931846226e-03 0.0 
0.0 0.0 -9.230011378964e-04 
-7.317681434212e-04 -2.021522364785e-04 0.0 
-2.021522364785e-04 5.521895732230e-03 0.0 
0.0 0.0 -7.356392084623e-04 
-2.886178686240e-04 -2.172347503714e-04 0.0 
-2.172347503714e-04 5.134371929173e-03 0.0 
0.0 0.0 -7.416011796770e-04 
-5.901770333493e-04 1.430367935043e-03 0.0 
1.430367935043e-03 3.015558962824e-03 0.0 
0.0 0.0 -4.548485160793e-04 
2.532558746172e-03 2.667660216058e-04 0.0 
2.667660216058e-04 1.143126860068e-03 0.0 
0.0 0.0 -6.598952468721e-04 
-7.227792418269e-04 1.687966000142e-04 0.0 
1.687966000142e-04 5.600200709343e-03 0.0 
0.0 0.0 -7.543593603577e-04 
-9.679615503638e-04 1.696948557831e-04 0.0 
1.696948557831e-04 6.395623785343e-03 0.0 
0.0 0.0 -9.615701295830e-04 
-9.079120183865e-04 1.806035671015e-04 0.0 
1.806035671015e-04 6.008465197654e-03 0.0 
0.0 0.0 -8.972249362023e-04 
-6.702812248436e-04 2.110511233250e-03 0.0 
2.110511233250e-03 3.327636380459e-03 0.0 
0.0 0.0 -4.879487645214e-04 
-3.102576103606e-04 1.487445723875e-04 0.0 
1.487445723875e-04 5.248513883103e-03 0.0 
0.0 0.0 -7.600985928272e-04 
2.027179826512e-03 -2.455009358835e-04 0.0 
-2.455009358835e-04 9.984123106861e-04 0.0 
0.0 0.0 -5.517684601482e-04 
-2.845535083016e-04 1.977607623024e-04 0.0 
1.977607623024e-04 1.633750881917e-03 0.0 
0.0 0.0 -2.811347238918e-04 
4.991168029599e-04 8.339949779829e-04 0.0 
8.339949779829e-04 6.278381374485e-03 0.0 
0.0 0.0 -9.614324343085e-04 
2.739512457685e-04 -6.535005545162e-05 0.0 
-6.535005545162e-05 1.150953827292e-03 0.0 
0.0 0.0 -3.019870735033e-04 
2.024732171686e-03 8.116824262035e-05 0.0 
8.116824262035e-05 1.098055785795e-03 0.0 
0.0 0.0 -5.822209219963e-04 
2.660592765158e-03 1.639674883756e-03 0.0 
1.639674883756e-03 2.278447036233e-03 0.0 
0.0 0.0 -8.488589746137e-04 
-6.692298370655e-04 3.337645075289e-03 0.0 
3.337645075289e-03 3.451041622563e-03 0.0 
0.0 0.0 -5.239962781855e-04 
-8.875268032984e-04 -1.997157685973e-04 0.0 
-1.997157685973e-04 5.799379755409e-03 0.0 
0.0 0.0 -7.444179891325e-04 
-1.485219849364e-04 -2.006288977027e-04 0.0 
-2.006288977027e-04 2.411218407905e-03 0.0 
0.0 0.0 -4.282508963332e-04 
-7.578747057610e-04 -1.654300402082e-04 0.0 
-1.654300402082e-04 5.036141076678e-03 0.0 
0.0 0.0 -7.823486082854e-04 
-4.878304840344e-04 -2.071312874911e-04 0.0 
-2.071312874911e-04 5.489637883290e-03 0.0 
0.0 0.0 -7.480406259486e-04 
1.797822083573e-03 1.669577982460e-04 0.0 
1.669577982460e-04 2.573784119351e-03 0.0 
0.0 0.0 -7.505023300558e-04 
2.076776460861e-04 -2.304249810871e-04 0.0 
-2.304249810871e-04 4.329485409560e-03 0.0 
0.0 0.0 -7.293737982022e-04 
-1.456223754451e-04 -1.153284200369e-04 0.0 
-1.153284200369e-04 8.334024863152e-04 0.0 
0.0 0.0 -1.489310416055e-04 
-1.183619524390e-03 -1.995906802131e-04 0.0 
-1.995906802131e-04 7.793015624772e-03 0.0 
0.0 0.0 -1.152567315725e-03 
2.121031921256e-03 2.426017128620e-05 0.0 
2.426017128620e-05 1.505418169292e-03 0.0 
0.0 0.0 -6.514572604261e-04 
5.837987279223e-04 8.165120039825e-04 0.0 
8.165120039825e-04 5.841472719105e-03 0.0 
0.0 0.0 -9.037317904049e-04 
2.234002364374e-03 2.172875648898e-03 0.0 
2.172875648898e-03 3.323741022651e-03 0.0 
0.0 0.0 -9.209992013714e-04 
-4.898468409365e-04 1.626926303109e-04 0.0 
1.626926303109e-04 5.584775422732e-03 0.0 
0.0 0.0 -7.662874613441e-04 
-6.612876410360e-04 -1.888053231843e-04 0.0 
-1.888053231843e-04 5.818908115803e-03 0.0 
0.0 0.0 -7.545602104712e-04 
2.871272729137e-03 5.185123431457e-04 0.0 
5.185123431457e-04 3.497054537405e-04 0.0 
0.0 0.0 -5.989583036242e-04 
-1.062486816029e-04 9.906480587304e-05 0.0 
9.906480587304e-05 1.075389978876e-03 0.0 
0.0 0.0 -2.103425724855e-04 
-1.545095455239e-04 1.193388759039e-04 0.0 
1.193388759039e-04 6.563556231282e-04 0.0 
0.0 0.0 -1.599169489567e-04 
-6.642678106802e-04 1.726170315322e-04 0.0 
1.726170315322e-04 5.917146074049e-03 0.0 
0.0 0.0 -7.730397377153e-04 
4.335114522849e-04 6.269165034632e-04 0.0 
6.269165034632e-04 5.942094317294e-03 0.0 
0.0 0.0 -8.876747290479e-04 
1.499102499002e-03 -3.427114789101e-04 0.0 
-3.427114789101e-04 1.479432678947e-03 0.0 
0.0 0.0 -5.426247857783e-04 
9.858528651656e-05 1.489201055132e-03 0.0 
1.489201055132e-03 5.507219659735e-03 0.0 
0.0 0.0 -9.733955472895e-04 
2.286609522996e-04 2.482705021279e-03 0.0 
2.482705021279e-03 2.374632450338e-03 0.0 
0.0 0.0 -5.002094317253e-04 
-1.008969023481e-03 -1.954382950773e-04 0.0 
-1.954382950773e-04 6.733608544957e-03 0.0 
0.0 0.0 -9.990901873678e-04 
-3.830033470460e-04 2.871636216980e-04 0.0 
2.871636216980e-04 7.581739881244e-03 0.0 
0.0 0.0 -9.013354244685e-04 
-5.404710541813e-05 1.564499946383e-05 0.0 
1.564499946383e-05 2.310460762638e-04 0.0 
0.0 0.0 -4.512473402930e-05 
-1.341620833825e-03 -3.423569445624e-05 0.0 
-3.423569445624e-05 8.854172159817e-03 0.0 
0.0 0.0 -1.341620833825e-03 
-8.779575837249e-04 7.064594230779e-06 0.0 
7.064594230779e-06 8.142275941462e-03 0.0 
0.0 0.0 -8.781756452956e-04 
-8.003500561082e-04 -1.973446332084e-04 0.0 
-1.973446332084e-04 5.182732733425e-03 0.0 
0.0 0.0 -7.955197795907e-04 
1.721704605226e-03 -1.465389215540e-04 0.0 
-1.465389215540e-04 1.855160973739e-03 0.0 
0.0 0.0 -6.428246066218e-04 
2.098497563578e-03 2.330167424528e-03 0.0 
2.330167424528e-03 3.309783870921e-03 0.0 
0.0 0.0 -9.265541241239e-04 
2.603084913721e-03 3.766957730697e-04 0.0 
3.766957730697e-04 7.332976853009e-04 0.0 
0.0 0.0 -6.041149214933e-04 
-1.799149555789e-04 -1.821387398070e-04 0.0 
-1.821387398070e-04 1.193557732849e-03 0.0 
0.0 0.0 -2.095884814006e-04 
-1.358502302165e-04 -1.652436952664e-04 0.0 
-1.652436952664e-04 5.860561493669e-04 0.0 
0.0 0.0 -1.201211790779e-04 
-1.224116731780e-03 -1.601620163348e-04 0.0 
-1.601620163348e-04 8.159917680932e-03 0.0 
0.0 0.0 -1.209499414335e-03 
-9.670306227229e-04 -2.102097021759e-04 0.0 
-2.102097021759e-04 6.456763428288e-03 0.0 
0.0 0.0 -9.648175333861e-04 
-1.201985719979e-03 1.294857904945e-03 0.0 
1.294857904945e-03 5.314289685577e-03 0.0 
0.0 0.0 -7.224789237173e-04 
-9.217390638060e-06 1.113360860996e-03 0.0 
1.113360860996e-03 7.643336117202e-03 0.0 
0.0 0.0 -1.052671300213e-03 
1.618838552046e-04 -1.707815444697e-04 0.0 
-1.707815444697e-04 1.716898567440e-03 0.0 
0.0 0.0 -3.615704333793e-04 
-1.081343010624e-04 9.750650129984e-04 0.0 
9.750650129984e-04 7.696057696387e-03 0.0 
0.0 0.0 -1.039752656754e-03 
-9.656783964585e-04 1.862090128514e-04 0.0 
1.862090128514e-04 6.391762053029e-03 0.0 
0.0 0.0 -9.670422101491e-04 
1.287965699227e-03 -2.596012607698e-04 0.0 
-2.596012607698e-04 2.235837771875e-03 0.0 
0.0 0.0 -6.336394413499e-04 
2.314714816054e-03 2.594257896993e-03 0.0 
2.594257896993e-03 2.813621619755e-03 0.0 
0.0 0.0 -9.022523942634e-04 
1.762323769536e-03 7.371279742996e-05 0.0 
7.371279742996e-05 1.516469903017e-03 0.0 
0.0 0.0 -6.094834619596e-04 
-1.705908377180e-04 5.370198331038e-04 0.0 
5.370198331038e-04 1.716887029089e-03 0.0 
0.0 0.0 -3.160312483096e-04 
1.515945155112e-03 -7.142799968230e-06 0.0 
-7.142799968230e-06 1.543760491107e-03 0.0 
0.0 0.0 -5.728018649490e-04 
-1.022496320278e-03 1.929428534963e-04 0.0 
1.929428534963e-04 6.770909400157e-03 0.0 
0.0 0.0 -1.023749757194e-03 
-7.156719590750e-04 -2.012410715015e-04 0.0 
-2.012410715015e-04 7.122696856371e-03 0.0 
0.0 0.0 -8.204942377824e-04 
2.205570968741e-03 2.096790025398e-04 0.0 
2.096790025398e-04 1.126055134102e-03 0.0 
0.0 0.0 -6.181853003094e-04 
-7.770533308382e-05 1.412975130637e-03 0.0 
1.412975130637e-03 5.890023026203e-03 0.0 
0.0 0.0 -9.975861362599e-04 
0.0 0.0 0.0 
0.0 0.0 0.0 
0.0 0.0 0.0 
2.646293559137e-03 4.293542718552e-04 0.0 
4.293542718552e-04 7.369738336100e-04 0.0 
0.0 0.0 -6.266282162577e-04 
-1.067618640436e-03 -2.059979659696e-04 0.0 
-2.059979659696e-04 7.168819223232e-03 0.0 
0.0 0.0 -1.066385360782e-03 
9.540735919768e-04 -2.858130501327e-05 0.0 
-2.858130501327e-05 2.034538197798e-03 0.0 
0.0 0.0 -5.616069800515e-04 
1.168507405061e-03 -4.023426060814e-04 0.0 
-4.023426060814e-04 1.591034862761e-03 0.0 
0.0 0.0 -5.052880831394e-04 
2.356457899041e-03 2.247935754549e-03 0.0 
2.247935754549e-03 2.845416411188e-03 0.0 
0.0 0.0 -9.016400921542e-04 
1.023792153440e-03 -3.610630381281e-04 0.0 
-3.610630381281e-04 3.555280569887e-04 0.0 
0.0 0.0 -2.979563435985e-04 
-5.077481211115e-04 1.054022949824e-03 0.0 
1.054022949824e-03 2.465310357094e-03 0.0 
0.0 0.0 -3.867203691650e-04 
-5.303756692990e-04 1.600569346793e-03 0.0 
1.600569346793e-03 2.840275086018e-03 0.0 
0.0 0.0 -4.195921675762e-04 
8.337908671839e-04 -7.487718095907e-05 0.0 
-7.487718095907e-05 1.769643249048e-03 0.0 
0.0 0.0 -4.973376392308e-04 
1.591450646898e-03 2.063782864218e-04 0.0 
2.063782864218e-04 3.141193764358e-03 0.0 
0.0 0.0 -7.714959973750e-04 
2.909826175187e-03 2.106896759370e-03 0.0 
2.106896759370e-03 1.602678692749e-03 0.0 
0.0 0.0 -8.147327860212e-04 
-3.088255548352e-05 1.108004008876e-03 0.0 
1.108004008876e-03 5.902260213352e-03 0.0 
0.0 0.0 -9.950028287295e-04 
2.824340160220e-05 1.840931656278e-03 0.0 
1.840931656278e-03 6.804291503031e-03 0.0 
0.0 0.0 -1.139038772000e-03 
-5.173826914623e-04 1.718362170060e-03 0.0 
1.718362170060e-03 2.897922801045e-03 0.0 
0.0 0.0 -4.570814260163e-04 
-1.026282183515e-03 -2.469645237372e-04 0.0 
-2.469645237372e-04 6.837925098464e-03 0.0 
0.0 0.0 -1.028620860735e-03 
5.629664629772e-04 1.951379249346e-03 0.0 
1.951379249346e-03 6.236036961675e-03 0.0 
0.0 0.0 -1.061727499890e-03 
2.683462402256e-03 6.089958848322e-04 0.0 
6.089958848322e-04 3.709238724655e-04 0.0 
0.0 0.0 -5.707601703556e-04 
-2.135565257302e-04 2.102195190307e-04 0.0 
2.102195190307e-04 1.190116728888e-03 0.0 
0.0 0.0 -2.192200328082e-04 
1.227640242939e-04 2.526621759130e-03 0.0 
2.526621759130e-03 2.801374226914e-03 0.0 
0.0 0.0 -5.330167430730e-04 
1.550531851282e-03 9.370913000256e-05 0.0 
9.370913000256e-05 2.970632441846e-03 0.0 
0.0 0.0 -7.545579017670e-04 
-1.047924752938e-03 1.956397865657e-04 0.0 
1.956397865657e-04 6.924645327261e-03 0.0 
0.0 0.0 -1.043024347135e-03 
1.717535382168e-03 4.505411903036e-04 0.0 
4.505411903036e-04 2.740748616875e-03 0.0 
0.0 0.0 -7.660687956774e-04 
-2.458088517300e-04 -1.138196901464e-04 0.0 
-1.138196901464e-04 1.452613291321e-03 0.0 
0.0 0.0 -2.343049260409e-04 
1.349556009990e-03 2.190065428728e-04 0.0 
2.190065428728e-04 3.740987154387e-03 0.0 
0.0 0.0 -7.928776486220e-04 
-6.214362560871e-06 1.070528470311e-03 0.0 
1.070528470311e-03 1.782000558356e-03 0.0 
0.0 0.0 -3.508512830963e-04 
2.821674272135e-03 1.644109888327e-03 0.0 
1.644109888327e-03 1.753772877159e-03 0.0 
0.0 0.0 -8.123573650817e-04 
1.492130765387e-03 4.980874275306e-04 0.0 
4.980874275306e-04 3.328703104647e-03 0.0 
0.0 0.0 -7.863151162864e-04 
2.465547947101e-03 2.435072781922e-03 0.0 
2.435072781922e-03 2.820191194729e-03 0.0 
0.0 0.0 -9.013234484525e-04 
-9.274205801970e-04 -1.707730266069e-04 0.0 
-1.707730266069e-04 6.212775611049e-03 0.0 
0.0 0.0 -9.494079867578e-04 
5.594153333708e-04 -3.600551195634e-04 0.0 
-3.600551195634e-04 2.129918788558e-03 0.0 
0.0 0.0 -4.933620968966e-04 
-2.484574972914e-04 1.853035354058e-04 0.0 
1.853035354058e-04 1.372800011643e-03 0.0 
0.0 0.0 -2.459554264611e-04 
1.232213421328e-03 5.238495348277e-04 0.0 
5.238495348277e-04 3.959153089887e-03 0.0 
0.0 0.0 -8.072187273359e-04 
1.221497490545e-04 1.532768214025e-03 0.0 
1.532768214025e-03 1.847872376333e-03 0.0 
0.0 0.0 -3.857152600925e-04 
-1.079925297708e-04 2.094696628342e-04 0.0 
2.094696628342e-04 4.385964497386e-04 0.0 
0.0 0.0 -1.205192217350e-04 
-1.217003238982e-03 1.715975421034e-04 0.0 
1.715975421034e-04 8.115367819263e-03 0.0 
0.0 0.0 -1.223389224544e-03 
-1.152822377069e-03 1.914748152746e-04 0.0 
1.914748152746e-04 7.732583850779e-03 0.0 
0.0 0.0 -1.157435638217e-03 
-9.394432781389e-05 -1.620283716041e-05 0.0 
-1.620283716041e-05 3.135234532211e-04 0.0 
0.0 0.0 -9.410533946025e-05 
1.072272038620e-03 2.161780963003e-04 0.0 
2.161780963003e-04 4.380376003367e-03 0.0 
0.0 0.0 -8.149534056679e-04 
8.841656238875e-05 -2.964416696405e-04 0.0 
-2.964416696405e-04 1.979412502739e-03 0.0 
0.0 0.0 -3.887237773309e-04 
1.210435913241e-04 5.306799361132e-05 0.0 
5.306799361132e-05 2.021020997273e-03 0.0 
0.0 0.0 -4.195855280820e-04 
9.455799769473e-04 2.484589573998e-03 0.0 
2.484589573998e-03 5.212001122783e-03 0.0 
0.0 0.0 -1.021172136235e-03 
2.412235847834e-03 2.035295855429e-03 0.0 
2.035295855429e-03 2.934787697056e-03 0.0 
0.0 0.0 -8.961052446391e-04 
1.133837049081e-03 2.495460550242e-03 0.0 
2.495460550242e-03 4.808177191380e-03 0.0 
0.0 0.0 -9.979094766053e-04 
2.395550668365e-03 7.715387830126e-05 0.0 
7.715387830126e-05 1.062224385344e-03 0.0 
0.0 0.0 -6.238888496032e-04 
-7.066733059563e-04 2.079397955123e-05 0.0 
2.079397955123e-05 4.859565834242e-03 0.0 
0.0 0.0 -7.105917616147e-04 
-6.715428857817e-04 6.661658859744e-05 0.0 
6.661658859744e-05 7.590673515670e-03 0.0 
0.0 0.0 -8.980875912854e-04 
-1.350459537293e-05 8.210514747732e-05 0.0 
8.210514747732e-05 1.755932821291e-03 0.0 
0.0 0.0 -3.541816848729e-04 
7.546247978833e-04 5.727478408613e-04 0.0 
5.727478408613e-04 5.504993102110e-03 0.0 
0.0 0.0 -8.934456962450e-04 
2.699363003857e-03 1.872550487305e-03 0.0 
1.872550487305e-03 2.088632970245e-03 0.0 
0.0 0.0 -8.477100451819e-04 
3.168529249228e-04 1.286230310581e-04 0.0 
1.286230310581e-04 1.004439625232e-03 0.0 
0.0 0.0 -2.892354545592e-04 
-1.017444257442e-03 1.870623454717e-04 0.0 
1.870623454717e-04 6.717348757916e-03 0.0 
0.0 0.0 -1.015166614560e-03 
2.776172239867e-03 6.454716782480e-04 0.0 
6.454716782480e-04 8.243743971871e-04 0.0 
0.0 0.0 -6.628028861993e-04 
-8.399449414555e-06 -1.138804327400e-04 0.0 
-1.138804327400e-04 5.712270664546e-04 0.0 
0.0 0.0 -1.790968519484e-04 
2.723886615022e-03 2.894221152523e-04 0.0 
2.894221152523e-04 2.865818766373e-04 0.0 
0.0 0.0 -5.632129589051e-04 
-9.884313505258e-04 1.906410726643e-04 0.0 
1.906410726643e-04 6.419467382483e-03 0.0 
0.0 0.0 -7.806307583816e-04 
-1.024292652289e-03 -1.998354067082e-04 0.0 
-1.998354067082e-04 6.855679602380e-03 0.0 
0.0 0.0 -1.020980360542e-03 
1.477776056226e-04 -3.781021275334e-04 0.0 
-3.781021275334e-04 1.232930038149e-03 0.0 
0.0 0.0 -2.713190868338e-04 
-7.786515185732e-04 -1.182533929503e-04 0.0 
-1.182533929503e-04 5.377086817911e-03 0.0 
0.0 0.0 -7.585140151418e-04 
-2.129413490924e-04 1.366200924157e-03 0.0 
1.366200924157e-03 6.243427490493e-03 0.0 
0.0 0.0 -1.021973934935e-03 
1.249145424895e-03 1.308826302108e-03 0.0 
1.308826302108e-03 4.993150896330e-03 0.0 
0.0 0.0 -9.398907253462e-04 
1.207367508138e-03 -6.658242155137e-05 0.0 
-6.658242155137e-05 1.621468703374e-03 0.0 
0.0 0.0 -5.351738145117e-04 
-2.430629870334e-04 1.798269824729e-04 0.0 
1.798269824729e-04 2.433645464505e-03 0.0 
0.0 0.0 -4.333934152438e-04 
2.786779008724e-03 2.086573509450e-03 0.0 
2.086573509450e-03 2.099012454784e-03 0.0 
0.0 0.0 -8.570039810285e-04 
-9.199821990293e-04 -2.154181819419e-04 0.0 
-2.154181819419e-04 6.117399840533e-03 0.0 
0.0 0.0 -9.278975173457e-04 
-1.224320725276e-04 -5.555988810096e-05 0.0 
-5.555988810096e-05 6.827209961716e-04 0.0 
0.0 0.0 -1.762926913357e-04 
4.382724549546e-04 1.698826695976e-03 0.0 
1.698826695976e-03 6.878771134133e-03 0.0 
0.0 0.0 -1.065125553720e-03 
-9.264419351516e-05 1.635022520902e-03 0.0 
1.635022520902e-03 7.183825562770e-03 0.0 
0.0 0.0 -1.191643818468e-03 
-8.292940884850e-04 -1.917175163009e-04 0.0 
-1.917175163009e-04 5.414946975703e-03 0.0 
0.0 0.0 -8.387747867703e-04 
-1.244952979202e-03 -2.282010355606e-04 0.0 
-2.282010355606e-04 8.516132030964e-03 0.0 
0.0 0.0 -1.255037608383e-03 
3.275497906063e-04 2.137274417761e-03 0.0 
2.137274417761e-03 6.770389781393e-03 0.0 
0.0 0.0 -1.141015689446e-03 
2.349878675550e-03 3.666832477124e-04 0.0 
3.666832477124e-04 1.200956540590e-03 0.0 
0.0 0.0 -6.542748834104e-04 
1.968613923577e-03 -1.203959224826e-04 0.0 
-1.203959224826e-04 1.438425025033e-03 0.0 
0.0 0.0 -6.153450468602e-04 
-4.006830606095e-05 5.435882683719e-04 0.0 
5.435882683719e-04 7.297885392640e-03 0.0 
0.0 0.0 -9.535953895371e-04 
0.0 0.0 0.0 
0.0 0.0 0.0 
0.0 0.0 0.0 
-5.464751508905e-06 1.796760386105e-04 0.0 
1.796760386105e-04 2.031421148122e-03 0.0 
0.0 0.0 -3.941707820484e-04 
-8.514716018237e-04 2.106237342401e-04 0.0 
2.106237342401e-04 5.339977342809e-03 0.0 
0.0 0.0 -7.637939908452e-04 
9.266814453008e-04 -3.675992992710e-04 0.0 
-3.675992992710e-04 1.991309634573e-03 0.0 
0.0 0.0 -5.313546330462e-04 
2.306131745069e-03 7.992892044582e-05 0.0 
7.992892044582e-05 6.504755816297e-04 0.0 
0.0 0.0 -5.546931404481e-04 
-4.455250293332e-04 1.410159064787e-03 0.0 
1.410159064787e-03 1.993283551791e-03 0.0 
0.0 0.0 -3.196518454468e-04 
-4.821345688997e-04 1.670674757224e-03 0.0 
1.670674757224e-03 2.389351114639e-03 0.0 
0.0 0.0 -3.528063275151e-04 
-8.197996438865e-04 -1.649479054575e-04 0.0 
-1.649479054575e-04 5.559213606059e-03 0.0 
0.0 0.0 -8.290026594306e-04 
2.628876371819e-03 1.203860705871e-04 0.0 
1.203860705871e-04 6.631228788194e-04 0.0 
0.0 0.0 -5.962921515785e-04 
-3.999083349665e-04 1.614643907603e-04 0.0 
1.614643907603e-04 2.756145740529e-03 0.0 
0.0 0.0 -4.583473518421e-04 
1.533483025399e-03 1.924826330251e-03 0.0 
1.924826330251e-03 4.476053324417e-03 0.0 
0.0 0.0 -9.438190490953e-04 
-7.357560495837e-04 7.138960584421e-05 0.0 
7.138960584421e-05 8.263118123418e-03 0.0 
0.0 0.0 -8.960870076009e-04 
-7.012125864371e-04 3.277666679704e-05 0.0 
3.277666679704e-05 8.199541166095e-03 0.0 
0.0 0.0 -9.014166242589e-04 
1.940304904716e-03 1.858425188332e-04 0.0 
1.858425188332e-04 1.558817560359e-03 0.0 
0.0 0.0 -6.457427040837e-04 
-7.708747032324e-04 1.041783851500e-04 0.0 
1.041783851500e-04 4.982091340538e-03 0.0 
0.0 0.0 -7.877541558771e-04 
-8.769640556113e-05 6.178156653826e-05 0.0 
6.178156653826e-05 4.782988861832e-04 0.0 
0.0 0.0 -9.215226380795e-05 
-3.611488390048e-04 1.332983942132e-03 0.0 
1.332983942132e-03 1.586119027683e-03 0.0 
0.0 0.0 -2.565684379859e-04 
3.240657571348e-04 -3.895649230260e-04 0.0 
-3.895649230260e-04 1.131080668482e-03 0.0 
0.0 0.0 -2.726290318112e-04 
-3.883539491280e-04 1.363473282566e-03 0.0 
1.363473282566e-03 1.823858356190e-03 0.0 
0.0 0.0 -2.902597925154e-04 
2.542149031469e-03 1.836812053556e-03 0.0 
1.836812053556e-03 2.594772430897e-03 0.0 
0.0 0.0 -8.720765359181e-04 
1.779598813234e-03 -2.684741728014e-05 0.0 
-2.684741728014e-05 1.124603088157e-03 0.0 
0.0 0.0 -5.459662534218e-04 
2.235203135395e-03 -9.668689507064e-05 0.0 
-9.668689507064e-05 1.010614111261e-03 0.0 
0.0 0.0 -5.879858557453e-04 
-1.839870051548e-04 -1.451969745408e-04 0.0 
-1.451969745408e-04 1.010884541365e-03 0.0 
0.0 0.0 -1.607067486349e-04 
-1.189299804196e-03 3.101361533260e-05 0.0 
3.101361533260e-05 7.702189552740e-03 0.0 
0.0 0.0 -1.176327079312e-03 
1.769803960983e-03 -2.486591041255e-04 0.0 
-2.486591041255e-04 1.423714498441e-03 0.0 
0.0 0.0 -5.792774345575e-04 
-1.207908513450e-03 1.972281472903e-04 0.0 
1.972281472903e-04 8.083641670665e-03 0.0 
0.0 0.0 -1.212957849656e-03 
-1.102884565855e-03 -1.433383463997e-04 0.0 
-1.433383463997e-04 7.411218118786e-03 0.0 
0.0 0.0 -1.117460450001e-03 
-1.327052993259e-03 5.039016474573e-05 0.0 
5.039016474573e-05 9.117456944273e-03 0.0 
0.0 0.0 -1.319418651152e-03 
-7.955053348626e-04 4.745546981651e-05 0.0 
4.745546981651e-05 8.308726223966e-03 0.0 
0.0 0.0 -8.667647558518e-04 
-8.429214028196e-04 1.551938721598e-04 0.0 
1.551938721598e-04 5.556754036542e-03 0.0 
0.0 0.0 -8.315138651140e-04 
1.521636074011e-03 -2.528074198631e-04 0.0 
-2.528074198631e-04 1.835503250215e-03 0.0 
0.0 0.0 -6.063493599946e-04 
-4.358468189301e-04 1.285512046402e-03 0.0 
1.285512046402e-03 2.428408194477e-03 0.0 
0.0 0.0 -3.884917441798e-04 
1.514534898027e-03 7.344057396118e-05 0.0 
7.344057396118e-05 1.930502282462e-03 0.0 
0.0 0.0 -6.367902913543e-04 
-8.928363767094e-04 2.147485177509e-05 0.0 
2.147485177509e-05 8.155136337303e-03 0.0 
0.0 0.0 -8.997231198624e-04 
-2.689680023256e-04 8.779502673725e-04 0.0 
8.779502673725e-04 1.090354975687e-03 0.0 
0.0 0.0 -1.893367542308e-04 
-3.099934709168e-04 1.141381031014e-03 0.0 
1.141381031014e-03 1.344709058357e-03 0.0 
0.0 0.0 -2.228547875044e-04 
6.193305146140e-04 6.528709648132e-04 0.0 
6.528709648132e-04 5.860855439373e-03 0.0 
0.0 0.0 -9.153650270333e-04 
-7.604196719999e-04 1.094016003107e-05 0.0 
1.094016003107e-05 5.257478836262e-03 0.0 
0.0 0.0 -7.715229432315e-04 
-1.218850929264e-03 2.058644676409e-04 0.0 
2.058644676409e-04 8.144525734943e-03 0.0 
0.0 0.0 -1.219279742240e-03 
-2.018951859751e-04 1.025702285646e-03 0.0 
1.025702285646e-03 6.276507367283e-03 0.0 
0.0 0.0 -1.017244578136e-03 
7.847509739523e-04 1.418467542503e-03 0.0 
1.418467542503e-03 5.751498915105e-03 0.0 
0.0 0.0 -9.650056767610e-04 
-1.119424363768e-03 -2.156381882449e-04 0.0 
-2.156381882449e-04 7.501430259358e-03 0.0 
0.0 0.0 -1.105906649721e-03 
-8.412072480000e-04 1.822595111317e-04 0.0 
1.822595111317e-04 5.484810982913e-03 0.0 
0.0 0.0 -8.542750875041e-04 
7.817358576029e-04 -4.062179925460e-04 0.0 
-4.062179925460e-04 1.754429830114e-03 0.0 
0.0 0.0 -4.674384380614e-04 
1.079912245201e-03 -1.246576798165e-04 0.0 
-1.246576798165e-04 1.370983802942e-03 0.0 
0.0 0.0 -4.715697005044e-04 
-9.776991098987e-04 1.861960494421e-04 0.0 
1.861960494421e-04 6.549106674112e-03 0.0 
0.0 0.0 -9.963059934037e-04 
1.038814158949e-03 1.279427999365e-03 0.0 
1.279427999365e-03 5.383723273677e-03 0.0 
0.0 0.0 -9.622504281566e-04 
-1.310615171683e-03 4.446782239335e-04 0.0 
4.446782239335e-04 5.156408208213e-03 0.0 
0.0 0.0 -7.345222264051e-04 
-7.670993363221e-04 9.419055025908e-06 0.0 
9.419055025908e-06 5.242908179151e-03 0.0 
0.0 0.0 -7.676068998053e-04 
-8.154774784067e-04 -6.428956903014e-05 0.0 
-6.428956903014e-05 5.577286133227e-03 0.0 
0.0 0.0 -8.242303029217e-04 
-8.631530775678e-04 -2.400243606271e-04 0.0 
-2.400243606271e-04 5.666444636217e-03 0.0 
0.0 0.0 -8.467401457521e-04 
-1.981858430184e-04 1.568623593862e-04 0.0 
1.568623593862e-04 1.314659923342e-03 0.0 
0.0 0.0 -2.397236108670e-04 
6.647043662605e-04 -1.036638253248e-04 0.0 
-1.036638253248e-04 1.552839670417e-03 0.0 
0.0 0.0 -4.335179088089e-04 
-1.282591321733e-03 8.806658448800e-05 0.0 
8.806658448800e-05 8.712918664304e-03 0.0 
0.0 0.0 -1.269310366786e-03 
-9.079866980401e-04 -2.164843828387e-04 0.0 
-2.164843828387e-04 6.067165963345e-03 0.0 
0.0 0.0 -9.150577043801e-04 
-2.213055941502e-04 7.709057305395e-04 0.0 
7.709057305395e-04 7.409804040790e-03 0.0 
0.0 0.0 -9.856440884319e-04 
-2.200444199569e-04 1.459496129770e-03 0.0 
1.459496129770e-03 7.230788006208e-03 0.0 
0.0 0.0 -1.096587851502e-03 
-1.017494637499e-03 -1.921677140223e-04 0.0 
-1.921677140223e-04 6.789033766802e-03 0.0 
0.0 0.0 -1.012565562176e-03 
-1.225370251071e-03 -1.480578321934e-04 0.0 
-1.480578321934e-04 8.186203026488e-03 0.0 
0.0 0.0 -1.214907066889e-03 
-6.126094482220e-04 1.499930831992e-04 0.0 
1.499930831992e-04 3.952786327319e-03 0.0 
0.0 0.0 -6.304496659280e-04 
-5.130175290524e-04 1.416985837535e-04 0.0 
1.416985837535e-04 3.678669150536e-03 0.0 
0.0 0.0 -5.666856080635e-04 
-3.708815015228e-04 2.637166633592e-04 0.0 
2.637166633592e-04 7.052886699464e-03 0.0 
0.0 0.0 -8.838146738867e-04 
-8.681779237144e-05 6.361966938889e-05 0.0 
6.361966938889e-05 2.955256088903e-04 0.0 
0.0 0.0 -8.944620707951e-05 
-2.093305094952e-05 -5.051476584633e-05 0.0 
-5.051476584633e-05 2.285286493573e-03 0.0 
0.0 0.0 -4.071640756073e-04 
-4.302406828468e-04 7.690026068786e-04 0.0 
7.690026068786e-04 7.757786732306e-03 0.0 
0.0 0.0 -1.046861053245e-03 
6.142696614446e-04 -1.325564635192e-04 0.0 
-1.325564635192e-04 3.188013415826e-04 0.0 
0.0 0.0 -2.265802816212e-04 
-7.779914563104e-04 2.250840471912e-05 0.0 
2.250840471912e-05 4.976100040424e-03 0.0 
0.0 0.0 -7.870118106326e-04 
1.838059097473e-04 4.880167316544e-04 0.0 
4.880167316544e-04 6.757519020172e-03 0.0 
0.0 0.0 -9.202565005077e-04 
-1.459711515860e-04 1.404844411890e-04 0.0 
1.404844411890e-04 8.229618690863e-04 0.0 
0.0 0.0 -1.562362318669e-04 
6.345826190920e-05 -4.976964874579e-05 0.0 
-4.976964874579e-05 3.822929081369e-04 0.0 
0.0 0.0 -9.998712429274e-05 
-1.319764072821e-03 -1.098631366031e-04 0.0 
-1.098631366031e-04 9.086194502793e-03 0.0 
0.0 0.0 -1.324389858384e-03 
-7.180738404627e-04 8.985801949804e-05 0.0 
8.985801949804e-05 4.589525670273e-03 0.0 
0.0 0.0 -7.294542769151e-04 
-1.252043255197e-03 2.202164088422e-04 0.0 
2.202164088422e-04 8.539160480101e-03 0.0 
0.0 0.0 -1.261418349269e-03 
-3.035292076655e-05 5.306628634775e-04 0.0 
5.306628634775e-04 6.701556952582e-03 0.0 
0.0 0.0 -9.343834285799e-04 
-7.209227692000e-04 -5.510654877091e-05 0.0 
-5.510654877091e-05 4.575450219389e-03 0.0 
0.0 0.0 -7.289279708929e-04 
-7.887389828834e-05 -1.017830300428e-05 0.0 
-1.017830300428e-05 5.525360744204e-04 0.0 
0.0 0.0 -9.740250892546e-05 
-1.285641185581e-03 -9.669087187560e-05 0.0 
-9.669087187560e-05 8.464210102403e-03 0.0 
0.0 0.0 -1.284140717545e-03 
-1.422178132764e-04 -2.367445567278e-04 0.0 
-2.367445567278e-04 1.236965644287e-03 0.0 
0.0 0.0 -2.433545560381e-04 
-1.243394787484e-03 1.248159333678e-04 0.0 
1.248159333678e-04 8.192432393622e-03 0.0 
0.0 0.0 -1.232184317627e-03 
-8.922299935658e-04 2.656149251409e-05 0.0 
2.656149251409e-05 8.141506963287e-03 0.0 
0.0 0.0 -8.952184374336e-04 
-1.248742912032e-03 -1.115472299695e-04 0.0 
-1.115472299695e-04 8.112371287684e-03 0.0 
0.0 0.0 -1.167330335580e-03 
6.058386278560e-04 -6.337381701119e-06 0.0 
-6.337381701119e-06 8.427853089998e-04 0.0 
0.0 0.0 -3.044764127662e-04 
-8.209179416884e-04 2.201614491088e-05 0.0 
2.201614491088e-05 5.636691216410e-03 0.0 
0.0 0.0 -8.279144014868e-04 
-6.598213782972e-04 -1.321361913962e-04 0.0 
-1.321361913962e-04 4.200506500251e-03 0.0 
0.0 0.0 -6.271989868224e-04 
1.482888788849e-03 1.532758562536e-03 0.0 
1.532758562536e-03 4.551923030537e-03 0.0 
0.0 0.0 -9.401699450728e-04 
-2.857276671806e-04 5.761706039530e-04 0.0 
5.761706039530e-04 7.868756148041e-03 0.0 
0.0 0.0 -1.004295461305e-03 
-1.068734190482e-03 1.262415369066e-04 0.0 
1.262415369066e-04 7.132952485478e-03 0.0 
0.0 0.0 -1.061614915164e-03 
-3.519618888267e-04 6.639943376417e-04 0.0 
6.639943376417e-04 7.903744846038e-03 0.0 
0.0 0.0 -9.912910321759e-04 
-1.438532979018e-04 1.783345522893e-04 0.0 
1.783345522893e-04 7.477808023263e-04 0.0 
0.0 0.0 -1.715795432680e-04 
-6.941418771050e-04 -6.929807977978e-05 0.0 
-6.929807977978e-05 7.872267675361e-03 0.0 
0.0 0.0 -8.732448250112e-04 
1.047860925523e-03 -1.650160528691e-04 0.0 
-1.650160528691e-04 6.495734516127e-04 0.0 
0.0 0.0 -3.355960889912e-04 
4.589801772339e-04 5.122850708252e-05 0.0 
5.122850708252e-05 4.316938588015e-04 0.0 
0.0 0.0 -2.298118214877e-04 
-2.681656383608e-04 2.414034820678e-04 0.0 
2.414034820678e-04 7.499624751298e-03 0.0 
0.0 0.0 -9.255997721488e-04 
-1.269212628500e-03 -5.703432125202e-05 0.0 
-5.703432125202e-05 8.728165820739e-03 0.0 
0.0 0.0 -1.270603359501e-03 
-1.290208848840e-03 -1.659042855401e-04 0.0 
-1.659042855401e-04 8.665328582140e-03 0.0 
0.0 0.0 -1.289850838753e-03 
-7.717572245574e-04 2.050611335135e-04 0.0 
2.050611335135e-04 5.043252484980e-03 0.0 
0.0 0.0 -7.762633204683e-04 
-8.522136042616e-04 2.002639843872e-04 0.0 
2.002639843872e-04 5.495330100218e-03 0.0 
0.0 0.0 -8.489529362435e-04 
-3.110875731191e-04 -2.008148659300e-04 0.0 
-2.008148659300e-04 1.882988625573e-03 0.0 
0.0 0.0 -3.134500106614e-04 
4.336489327303e-04 2.222658661779e-03 0.0 
2.222658661779e-03 6.934112461668e-03 0.0 
0.0 0.0 -1.122341092683e-03 
-5.172296523503e-04 1.719980447266e-04 0.0 
1.719980447266e-04 3.374654497821e-03 0.0 
0.0 0.0 -5.357483711987e-04 
-1.781924616035e-04 -1.691974037749e-04 0.0 
-1.691974037749e-04 1.076416545498e-03 0.0 
0.0 0.0 -2.114276361914e-04 
1.310778751333e-03 1.665040506911e-03 0.0 
1.665040506911e-03 4.905193800268e-03 0.0 
0.0 0.0 -9.440662161864e-04 
-7.006483677025e-04 -2.017256137276e-05 0.0 
-2.017256137276e-05 4.817249357728e-03 0.0 
0.0 0.0 -7.096328662732e-04 
-1.236750495474e-03 1.522707816399e-04 0.0 
1.522707816399e-04 8.254648441428e-03 0.0 
0.0 0.0 -1.237729719596e-03 
-1.313320395878e-03 -1.861843894467e-04 0.0 
-1.861843894467e-04 8.989774958204e-03 0.0 
0.0 0.0 -1.321509982054e-03 
-1.343732204276e-03 -8.189586176297e-06 0.0 
-8.189586176297e-06 8.864848236539e-03 0.0 
0.0 0.0 -1.343732204276e-03 
1.472095025600e-03 1.859208712900e-05 0.0 
1.859208712900e-05 -3.607175648650e-04 0.0 
0.0 0.0 -1.975932648307e-04 
1.244274985465e-03 -7.030333380908e-06 0.0 
-7.030333380908e-06 -3.538437920559e-04 0.0 
0.0 0.0 -2.983435502308e-04 
-7.269437089926e-04 -1.696449694041e-04 0.0 
-1.696449694041e-04 4.683701017331e-03 0.0 
0.0 0.0 -7.318233512793e-04 
-7.351939856936e-04 2.731264159563e-05 0.0 
2.731264159563e-05 4.828327016366e-03 0.0 
0.0 0.0 -7.096011290571e-04 
-8.796229481279e-04 1.233963227476e-05 0.0 
1.233963227476e-05 8.114501086091e-03 0.0 
0.0 0.0 -8.796522009948e-04 
-8.059421856835e-04 1.752307763700e-04 0.0 
1.752307763700e-04 8.195368391539e-03 0.0 
0.0 0.0 -8.651329048840e-04 
9.925636648680e-04 -2.838790489818e-06 0.0 
-2.838790489818e-06 -2.840114151161e-04 0.0 
0.0 0.0 -2.215246414619e-04 
0.0 0.0 0.0 
0.0 0.0 0.0 
0.0 0.0 0.0 
-6.323701480207e-04 1.303298349611e-04 0.0 
1.303298349611e-04 7.289986352695e-03 0.0 
0.0 0.0 -8.566479226779e-04 
6.796323792452e-04 1.744643109552e-03 0.0 
1.744643109552e-03 6.177744388345e-03 0.0 
0.0 0.0 -1.010014431364e-03 
-8.129918311573e-05 -1.560382043602e-04 0.0 
-1.560382043602e-04 1.516704829328e-03 0.0 
0.0 0.0 -2.712674790923e-04 
-5.939952783471e-04 -6.672232164990e-05 0.0 
-6.672232164990e-05 7.398199321960e-03 0.0 
0.0 0.0 -8.691124754849e-04 
-8.815159972560e-04 -5.224987595998e-05 0.0 
-5.224987595998e-05 5.633161390662e-03 0.0 
0.0 0.0 -7.799443961548e-04 
-7.830094719469e-04 -1.946497729392e-04 0.0 
-1.946497729392e-04 5.063585567551e-03 0.0 
0.0 0.0 -7.421373478208e-04 
-9.561048422875e-04 9.798803026384e-05 0.0 
9.798803026384e-05 6.427121213030e-03 0.0 
0.0 0.0 -9.400782610458e-04 
5.338936462232e-04 -2.596811066926e-04 0.0 
-2.596811066926e-04 7.337924402588e-04 0.0 
0.0 0.0 -2.626203152100e-04 
1.944536354166e-03 1.768587698562e-03 0.0 
1.768587698562e-03 3.750685666220e-03 0.0 
0.0 0.0 -9.175353381253e-04 
-9.811100595899e-05 1.530653456110e-05 0.0 
1.530653456110e-05 1.282067252821e-03 0.0 
0.0 0.0 -2.181484037039e-04 
-6.792638343958e-04 -1.892634513455e-04 0.0 
-1.892634513455e-04 4.524953282507e-03 0.0 
0.0 0.0 -6.997415131527e-04 
4.455719916258e-04 2.240887317510e-03 0.0 
2.240887317510e-03 6.467628313686e-03 0.0 
0.0 0.0 -1.117644245179e-03 
-1.189706231828e-03 -2.131151468578e-04 0.0 
-2.131151468578e-04 8.025000395541e-03 0.0 
0.0 0.0 -1.191726112421e-03 
-7.376716687014e-04 1.103821202312e-04 0.0 
1.103821202312e-04 4.884590449632e-03 0.0 
0.0 0.0 -7.690942022927e-04 
-8.794968587203e-04 -1.839618802493e-04 0.0 
-1.839618802493e-04 5.894695197839e-03 0.0 
0.0 0.0 -8.745659502648e-04 
6.955859326996e-04 1.898760501004e-03 0.0 
1.898760501004e-03 6.323771079368e-03 0.0 
0.0 0.0 -1.041441248692e-03 
-4.001882947597e-04 9.665604962270e-04 0.0 
9.665604962270e-04 6.893965520384e-03 0.0 
0.0 0.0 -1.057101520129e-03 
-1.081193771009e-03 -2.086711321349e-04 0.0 
-2.086711321349e-04 7.235399972245e-03 0.0 
0.0 0.0 -1.076426999079e-03 
-7.306608964195e-04 1.032073657561e-05 0.0 
1.032073657561e-05 4.566565227243e-03 0.0 
0.0 0.0 -7.312123441678e-04 
2.106632185107e-03 1.640363798570e-03 0.0 
1.640363798570e-03 3.395299027128e-03 0.0 
0.0 0.0 -8.938753741450e-04 
-1.237478436388e-03 1.224174650821e-04 0.0 
1.224174650821e-04 8.159420566097e-03 0.0 
0.0 0.0 -1.231404929774e-03 
-2.530501557067e-04 1.044815301257e-04 0.0 
1.044815301257e-04 2.339824271585e-03 0.0 
0.0 0.0 -4.167967844001e-04 
-9.921663346510e-05 -4.441075622387e-05 0.0 
-4.441075622387e-05 6.032903446548e-04 0.0 
0.0 0.0 -1.015157820784e-04 
7.461629973235e-04 1.768179735260e-03 0.0 
1.768179735260e-03 5.905432556332e-03 0.0 
0.0 0.0 -1.033409892218e-03 
8.289303287853e-04 9.139830484307e-04 0.0 
9.139830484307e-04 5.387884802164e-03 0.0 
0.0 0.0 -9.002871797143e-04 
3.965940127907e-04 -5.533335509042e-04 0.0 
-5.533335509042e-04 5.122971285917e-04 0.0 
0.0 0.0 -2.307047010092e-04 
-9.934730169900e-04 -1.599306293238e-04 0.0 
-1.599306293238e-04 6.730831912440e-03 0.0 
0.0 0.0 -9.893338170986e-04 
-7.935521202431e-04 -2.748774238699e-05 0.0 
-2.748774238699e-05 7.690432271887e-03 0.0 
0.0 0.0 -8.708232652556e-04 
7.492422698750e-04 1.753464024684e-03 0.0 
1.753464024684e-03 5.804346624364e-03 0.0 
0.0 0.0 -1.010002707299e-03 
7.141931637024e-04 1.696832052003e-03 0.0 
1.696832052003e-03 6.296072802455e-03 0.0 
0.0 0.0 -1.028199098010e-03 
-9.509032599645e-04 -2.097189225323e-04 0.0 
-2.097189225323e-04 6.113055913558e-03 0.0 
0.0 0.0 -7.802987996856e-04 
-9.113657589530e-05 5.031862656042e-05 0.0 
5.031862656042e-05 3.206408784026e-04 0.0 
0.0 0.0 -9.835898678883e-05 
-4.569263440230e-04 1.935562420913e-03 0.0 
1.935562420913e-03 2.013085836301e-03 0.0 
0.0 0.0 -3.212443691966e-04 
-6.130118811735e-05 6.614413205286e-04 0.0 
6.614413205286e-04 2.047991747347e-03 0.0 
0.0 0.0 -3.834349432650e-04 
-8.152074782469e-04 3.282099269049e-05 0.0 
3.282099269049e-05 5.366100763401e-03 0.0 
0.0 0.0 -8.471429939415e-04 
2.201093459313e-03 2.080976344300e-03 0.0 
2.080976344300e-03 3.253067470561e-03 0.0 
0.0 0.0 -9.002438919466e-04 
-1.243353399719e-03 -1.638877946274e-04 0.0 
-1.638877946274e-04 8.293874922919e-03 0.0 
0.0 0.0 -1.236541257690e-03 
-3.225990040402e-04 5.320784259897e-04 0.0 
5.320784259897e-04 7.292271868914e-03 0.0 
0.0 0.0 -9.588760530511e-04 
-1.534406041715e-04 -3.090119355691e-05 0.0 
-3.090119355691e-05 9.940803017302e-04 0.0 
0.0 0.0 -1.581060378624e-04 
-1.515974677088e-04 5.347591743218e-05 0.0 
5.347591743218e-05 9.499659581657e-04 0.0 
0.0 0.0 -1.538280640939e-04 
-3.688406201601e-04 1.910010222848e-03 0.0 
1.910010222848e-03 1.605273281654e-03 0.0 
0.0 0.0 -2.585189829319e-04 
-1.003671688667e-03 2.798952750373e-04 0.0 
2.798952750373e-04 6.711627995117e-03 0.0 
0.0 0.0 -1.019242131223e-03 
-3.907896889964e-04 -1.888157489798e-04 0.0 
-1.888157489798e-04 3.107792137096e-03 0.0 
0.0 0.0 -4.953283059016e-04 
-1.242349672414e-03 -1.508059351583e-04 0.0 
-1.508059351583e-04 8.332022443394e-03 0.0 
0.0 0.0 -1.241298427557e-03 
4.337484901020e-04 -1.108756502778e-04 0.0 
-1.108756502778e-04 9.156877612567e-04 0.0 
0.0 0.0 -2.623907620756e-04 
1.523030492297e-04 7.238792330249e-04 0.0 
7.238792330249e-04 6.544876796362e-03 0.0 
0.0 0.0 -9.404691219435e-04 
-8.136377301276e-04 1.789287431363e-04 0.0 
1.789287431363e-04 5.446005510680e-03 0.0 
0.0 0.0 -8.343732341398e-04 
-1.511027921262e-04 8.242431609681e-04 0.0 
8.242431609681e-04 7.212454701080e-03 0.0 
0.0 0.0 -1.009226355237e-03 
1.293886008783e-03 1.553389103662e-03 0.0 
1.553389103662e-03 4.989914846651e-03 0.0 
0.0 0.0 -9.628036229240e-04 
-8.202418952196e-04 -8.830664857132e-05 0.0 
-8.830664857132e-05 5.379056120884e-03 0.0 
0.0 0.0 -8.465141837044e-04 
-3.596247689131e-04 1.855745287607e-04 0.0 
1.855745287607e-04 7.598595604091e-03 0.0 
0.0 0.0 -9.085802451354e-04 
-1.282679052200e-03 7.789633126417e-05 0.0 
7.789633126417e-05 8.731686959293e-03 0.0 
0.0 0.0 -1.272727265576e-03 
-1.257303152988e-03 6.224102812160e-05 0.0 
6.224102812160e-05 8.713074082016e-03 0.0 
0.0 0.0 -1.271339345674e-03 
-3.003266020770e-04 1.731850128574e-03 0.0 
1.731850128574e-03 1.123010239940e-03 0.0 
0.0 0.0 -1.914719991171e-04 
-1.218228496203e-03 1.745230460975e-04 0.0 
1.745230460975e-04 8.126336924162e-03 0.0 
0.0 0.0 -1.218309553141e-03 
1.697266076371e-04 1.525522866305e-03 0.0 
1.525522866305e-03 6.866133452809e-03 0.0 
0.0 0.0 -1.074422589627e-03 
3.095049233060e-04 6.068703963139e-04 0.0 
6.068703963139e-04 6.574135198381e-03 0.0 
0.0 0.0 -9.363310558371e-04 
1.062757717490e-03 1.694853513856e-03 0.0 
1.694853513856e-03 5.303772883192e-03 0.0 
0.0 0.0 -9.653355239948e-04 
-8.965061486341e-04 8.588361354684e-05 0.0 
8.588361354684e-05 8.136482416986e-03 0.0 
0.0 0.0 -9.093603638128e-04 
-1.082512435834e-03 2.096972143521e-04 0.0 
2.096972143521e-04 7.169850347795e-03 0.0 
0.0 0.0 -1.079065255302e-03 
0.0 0.0 0.0 
0.0 0.0 0.0 
0.0 0.0 0.0 
-2.601109826526e-04 -2.071691114658e-04 0.0 
-2.071691114658e-04 1.415839820494e-03 0.0 
0.0 0.0 -2.423809483696e-04 
-3.578493358319e-04 1.171155791436e-03 0.0 
1.171155791436e-03 7.067783983128e-03 0.0 
0.0 0.0 -1.079126705221e-03 
-8.685626322098e-04 1.582275665785e-04 0.0 
1.582275665785e-04 5.835782021141e-03 0.0 
0.0 0.0 -8.884613587993e-04 
-7.555448439779e-04 -1.886752925349e-04 0.0 
-1.886752925349e-04 7.505938927883e-03 0.0 
0.0 0.0 -8.411834741709e-04 
8.120902827347e-04 1.275630513226e-03 0.0 
1.275630513226e-03 5.810417015633e-03 0.0 
0.0 0.0 -9.838235954647e-04 
-7.374947626624e-04 9.289273802661e-06 0.0 
9.289273802661e-06 7.713800004357e-03 0.0 
0.0 0.0 -8.895757117416e-04 
-1.060591200894e-03 2.356899093670e-04 0.0 
2.356899093670e-04 7.243032913762e-03 0.0 
0.0 0.0 -1.085521458831e-03 
-1.963766119065e-04 7.375467010615e-04 0.0 
7.375467010615e-04 7.224476419567e-03 0.0 
0.0 0.0 -9.986205846440e-04 
-3.672964338059e-04 2.842453263662e-05 0.0 
2.842453263662e-05 7.209951043724e-03 0.0 
0.0 0.0 -8.910518189083e-04 
-2.847935639211e-04 3.621061030007e-04 0.0 
3.621061030007e-04 7.094822640995e-03 0.0 
0.0 0.0 -8.971609416200e-04 
-4.519747387498e-04 -1.195033863361e-04 0.0 
-1.195033863361e-04 3.317149545015e-03 0.0 
0.0 0.0 -5.104964012366e-04 
-7.466753054927e-04 4.172723630770e-05 0.0 
4.172723630770e-05 8.299559194990e-03 0.0 
0.0 0.0 -8.894231543900e-04 
-7.485652657637e-04 1.433772634922e-05 0.0 
1.433772634922e-05 5.220751556451e-03 0.0 
0.0 0.0 -7.662153309038e-04 
-1.203353616892e-03 -1.846454248332e-04 0.0 
-1.846454248332e-04 8.194731648824e-03 0.0 
0.0 0.0 -1.217406395242e-03 
-1.437042183261e-04 -7.940692651817e-05 0.0 
-7.940692651817e-05 7.021399651515e-04 0.0 
0.0 0.0 -1.761976461317e-04 
-1.139762521842e-03 -1.242981094265e-04 0.0 
-1.242981094265e-04 7.914367669760e-03 0.0 
0.0 0.0 -1.163202487293e-03 
-9.847139031094e-04 -2.927819349541e-05 0.0 
-2.927819349541e-05 6.802999958382e-03 0.0 
0.0 0.0 -9.926133712568e-04 
8.144282573235e-04 -7.643655762586e-05 0.0 
-7.643655762586e-05 -4.330964547636e-05 0.0 
0.0 0.0 -1.628620303624e-04 
8.259297081750e-05 -3.310311579210e-04 0.0 
-3.310311579210e-04 1.261096037605e-03 0.0 
0.0 0.0 -2.736924314970e-04 
-2.624309814592e-04 1.400783679766e-03 0.0 
1.400783679766e-03 6.495223863441e-03 0.0 
0.0 0.0 -1.052074242888e-03 
-1.292896746142e-03 -1.945315972071e-05 0.0 
-1.945315972071e-05 8.475231004045e-03 0.0 
0.0 0.0 -1.285368862661e-03 
-1.232559661219e-03 -1.674576161592e-04 0.0 
-1.674576161592e-04 8.301292046622e-03 0.0 
0.0 0.0 -1.223917301752e-03 
1.720917275703e-04 1.107764395774e-03 0.0 
1.107764395774e-03 6.966023799413e-03 0.0 
0.0 0.0 -9.865624499663e-04 
-8.799678260909e-04 2.461510225767e-04 0.0 
2.461510225767e-04 5.779390736261e-03 0.0 
0.0 0.0 -8.807565902733e-04 
-9.459318500255e-05 -9.224025008794e-06 0.0 
-9.224025008794e-06 5.593643268762e-04 0.0 
0.0 0.0 -1.022500568216e-04 
-1.184228338263e-04 1.932393774192e-04 0.0 
1.932393774192e-04 8.360742900508e-04 0.0 
0.0 0.0 -1.527632439532e-04 
-1.485774023436e-04 2.057472114589e-04 0.0 
2.057472114589e-04 4.943058849458e-04 0.0 
0.0 0.0 -1.262112556552e-04 
-1.889957332613e-04 -1.720729644019e-04 0.0 
-1.720729644019e-04 1.198989706623e-03 0.0 
0.0 0.0 -2.080055930776e-04 
-2.412796962869e-05 1.151125546851e-04 0.0 
1.151125546851e-04 1.259903231300e-04 0.0 
0.0 0.0 -4.365529435769e-05 
-6.564338874857e-04 1.298407551401e-04 0.0 
1.298407551401e-04 4.516305724261e-03 0.0 
0.0 0.0 -6.753304527203e-04 
-6.795295455608e-04 1.838172127819e-04 0.0 
1.838172127819e-04 7.426217627035e-03 0.0 
0.0 0.0 -8.453009822908e-04 
-1.149894228846e-03 3.158711459456e-04 0.0 
3.158711459456e-04 8.114671736333e-03 0.0 
0.0 0.0 -1.160553890882e-03 
-8.669258191564e-04 -1.817944922657e-04 0.0 
-1.817944922657e-04 5.844176131481e-03 0.0 
0.0 0.0 -8.826313165011e-04 
-5.456134530173e-04 -2.780313117428e-04 0.0 
-2.780313117428e-04 3.833549540195e-03 0.0 
0.0 0.0 -5.988529843847e-04 
-3.916308699633e-04 -2.486812670871e-05 0.0 
-2.486812670871e-05 7.220933359000e-03 0.0 
0.0 0.0 -8.745253016751e-04 
1.489159259936e-04 6.339828863972e-04 0.0 
6.339828863972e-04 6.657414618800e-03 0.0 
0.0 0.0 -9.091754345449e-04 
2.007396796776e-04 1.176055946622e-03 0.0 
1.176055946622e-03 7.107492295250e-03 0.0 
0.0 0.0 -1.015026674186e-03 
4.243165457055e-04 1.600713177270e-03 0.0 
1.600713177270e-03 6.370394325957e-03 0.0 
0.0 0.0 -1.051663712315e-03 
6.906974264269e-04 2.467525554536e-03 0.0 
2.467525554536e-03 5.892311730430e-03 0.0 
0.0 0.0 -1.072331044585e-03 
-1.672054198290e-04 9.231173188905e-05 0.0 
9.231173188905e-05 7.047171557344e-04 0.0 
0.0 0.0 -1.733042685746e-04 
-1.128922232108e-04 -1.541536460293e-04 0.0 
-1.541536460293e-04 8.181726866748e-04 0.0 
0.0 0.0 -1.441637530793e-04 
-6.684822274927e-04 -1.426043412876e-04 0.0 
-1.426043412876e-04 7.469988516841e-03 0.0 
0.0 0.0 -8.463953346380e-04 
7.303031989085e-04 6.561153895019e-06 0.0 
6.561153895019e-06 -1.962170596125e-04 0.0 
0.0 0.0 -1.761523314621e-04 
7.176585934123e-04 1.647058616958e-04 0.0 
1.647058616958e-04 1.074688173173e-04 0.0 
0.0 0.0 -1.933333333332e-04 
-1.375589269253e-04 1.895212040581e-04 0.0 
1.895212040581e-04 6.272580356086e-04 0.0 
0.0 0.0 -1.476920362276e-04 
-1.616726848356e-04 -1.838984361801e-04 0.0 
-1.838984361801e-04 7.928606863592e-04 0.0 
0.0 0.0 -1.580296812506e-04 
-6.213067014510e-04 1.467081350318e-04 0.0 
1.467081350318e-04 7.579182628885e-03 0.0 
0.0 0.0 -9.122999558677e-04 
2.700219501731e-04 1.769489376587e-03 0.0 
1.769489376587e-03 6.824878590163e-03 0.0 
0.0 0.0 -1.107314998264e-03 
-1.257797356609e-03 1.887508465157e-04 0.0 
1.887508465157e-04 8.298916238051e-03 0.0 
0.0 0.0 -1.236907757659e-03 
-1.168392496860e-04 9.344422538728e-04 0.0 
9.344422538728e-04 7.172593824770e-03 0.0 
0.0 0.0 -1.023120148521e-03 
2.214622078695e-04 3.251148241577e-04 0.0 
3.251148241577e-04 6.334047808596e-03 0.0 
0.0 0.0 -8.979962624460e-04 
-9.009707231897e-04 2.647575106000e-04 0.0 
2.647575106000e-04 6.062013665177e-03 0.0 
0.0 0.0 -9.170130443517e-04 
-9.670673950232e-04 2.711609781535e-04 0.0 
2.711609781535e-04 8.487577265993e-03 0.0 
0.0 0.0 -1.333491821586e-03 
1.157467396503e-03 -6.935785704442e-04 0.0 
-6.935785704442e-04 5.973647433182e-04 0.0 
0.0 0.0 -3.330755757467e-04 
-6.832796589934e-04 2.794415003489e-06 0.0 
2.794415003489e-06 4.812526626932e-03 0.0 
0.0 0.0 -7.083073883398e-04 
-1.055006102222e-04 -1.356742850137e-05 0.0 
-1.356742850137e-05 1.210958242155e-03 0.0 
0.0 0.0 -2.086331215474e-04 
-4.358615148134e-05 4.098096792685e-05 0.0 
4.098096792685e-05 2.388581871418e-04 0.0 
0.0 0.0 -8.368801528307e-05 
-7.816657138694e-04 7.052003747939e-05 0.0 
7.052003747939e-05 8.315736249900e-03 0.0 
0.0 0.0 -8.785885877560e-04 
-7.636750152913e-04 -5.943479672409e-05 0.0 
-5.943479672409e-05 5.297273347084e-03 0.0 
0.0 0.0 -7.731261162940e-04 
6.650237763218e-04 -6.702295341543e-07 0.0 
-6.702295341543e-07 4.692478732565e-04 0.0 
0.0 0.0 -2.115341463249e-04 
-6.766397334690e-04 2.335959289237e-04 0.0 
2.335959289237e-04 4.262192913851e-03 0.0 
0.0 0.0 -6.570498647039e-04 
5.108493178592e-04 2.219283613465e-03 0.0 
2.219283613465e-03 6.863248147306e-03 0.0 
0.0 0.0 -1.110567341606e-03 
-1.238351285998e-03 -1.647535430713e-04 0.0 
-1.647535430713e-04 8.287386498838e-03 0.0 
0.0 0.0 -1.228616961883e-03 
-1.164028707364e-03 1.787986411390e-04 0.0 
1.787986411390e-04 8.345047524417e-03 0.0 
0.0 0.0 -1.254762952155e-03 
-3.126394495444e-04 -1.403392956445e-04 0.0 
-1.403392956445e-04 2.908178134375e-03 0.0 
0.0 0.0 -4.695399720401e-04 
-1.457689473942e-04 -1.575597281072e-04 0.0 
-1.575597281072e-04 7.498700715420e-04 0.0 
0.0 0.0 -1.553221962317e-04 
-5.840267657302e-04 -2.481391995337e-05 0.0 
-2.481391995337e-05 7.787153048081e-03 0.0 
0.0 0.0 -8.816355739920e-04 
-1.298815958390e-03 2.309086979375e-05 0.0 
2.309086979375e-05 9.107151826923e-03 0.0 
0.0 0.0 -1.325353038101e-03 
-7.904095391083e-04 -1.346888100395e-05 0.0 
-1.346888100395e-05 8.308964600943e-03 0.0 
0.0 0.0 -8.644017061410e-04 
-7.660500434482e-04 1.313542510446e-04 0.0 
1.313542510446e-04 5.035539676325e-03 0.0 
0.0 0.0 -7.673431308700e-04 
-1.486341394957e-04 3.715668163204e-04 0.0 
3.715668163204e-04 6.839645540220e-03 0.0 
0.0 0.0 -9.181487463410e-04 
4.157193011188e-04 -7.988993974557e-05 0.0 
-7.988993974557e-05 5.119276506024e-04 0.0 
0.0 0.0 -2.324200178898e-04 
-1.257584227981e-03 1.660686322992e-04 0.0 
1.660686322992e-04 8.340961353616e-03 0.0 
0.0 0.0 -1.241575510934e-03 
-8.170589745739e-05 -1.080295024412e-05 0.0 
-1.080295024412e-05 2.725451190137e-04 0.0 
0.0 0.0 -8.178823780987e-05 
-5.622750319094e-04 2.177850337865e-04 0.0 
2.177850337865e-04 7.543721572335e-03 0.0 
0.0 0.0 -9.268699007282e-04 
-1.284537488202e-03 1.468179926578e-04 0.0 
1.468179926578e-04 8.649279503990e-03 0.0 
0.0 0.0 -1.211201410940e-03 
-8.090064620293e-05 -6.463780865650e-05 0.0 
-6.463780865650e-05 2.764343947342e-04 0.0 
0.0 0.0 -8.380017794199e-05 
8.446453428584e-04 1.619968164511e-03 0.0 
1.619968164511e-03 5.807539943593e-03 0.0 
0.0 0.0 -1.007825896019e-03 
-1.028233004996e-03 -1.859683667160e-04 0.0 
-1.859683667160e-04 6.977936374389e-03 0.0 
0.0 0.0 -1.053859681778e-03 
-1.289487723471e-03 -3.059440868738e-05 0.0 
-3.059440868738e-05 8.509289695588e-03 0.0 
0.0 0.0 -1.289687241943e-03 
-6.768357791660e-04 4.125197159506e-04 0.0 
4.125197159506e-04 8.019085629107e-03 0.0 
0.0 0.0 -9.987963974908e-04 
-9.624911099008e-04 -2.997622866496e-04 0.0 
-2.997622866496e-04 6.376553401582e-03 0.0 
0.0 0.0 -9.627310317561e-04 
3.091513069323e-04 1.980798939785e-03 0.0 
1.980798939785e-03 6.828236854820e-03 0.0 
0.0 0.0 -1.124877701264e-03 
-1.246115197789e-03 -1.533948492975e-04 0.0 
-1.533948492975e-04 8.325319025632e-03 0.0 
0.0 0.0 -1.236507170568e-03 
-1.007540401079e-03 8.825741490426e-06 0.0 
8.825741490426e-06 6.546914065101e-03 0.0 
0.0 0.0 -1.009625451247e-03 
4.762003485749e-04 2.084857686368e-03 0.0 
2.084857686368e-03 6.445885336465e-03 0.0 
0.0 0.0 -1.104705472923e-03 
-5.439659078653e-04 -1.293203549736e-04 0.0 
-1.293203549736e-04 3.573225901759e-03 0.0 
0.0 0.0 -5.668522599723e-04 
-7.422257193806e-04 -2.384409417979e-05 0.0 
-2.384409417979e-05 4.553525172640e-03 0.0 
0.0 0.0 -7.287847301676e-04 
3.589584640131e-04 1.358522209982e-03 0.0 
1.358522209982e-03 6.576642618901e-03 0.0 
0.0 0.0 -1.009376316213e-03 
-1.277932458032e-03 1.160268164509e-04 0.0 
1.160268164509e-04 8.651299276670e-03 0.0 
0.0 0.0 -1.286506427510e-03 
1.385973736291e-03 -3.219630140054e-05 0.0 
-3.219630140054e-05 -4.875941690955e-04 0.0 
0.0 0.0 -2.480517428018e-04 
-7.391696919876e-04 5.460045200464e-05 0.0 
5.460045200464e-05 4.572310123870e-03 0.0 
0.0 0.0 -7.284590636140e-04 
-7.905385364252e-04 -1.151811019777e-04 0.0 
-1.151811019777e-04 7.906236110307e-03 0.0 
0.0 0.0 -8.575586822335e-04 
-1.789628560508e-04 1.156572663213e-04 0.0 
1.156572663213e-04 1.464713266903e-03 0.0 
0.0 0.0 -2.765646858065e-04 
2.666646508294e-04 6.462339787741e-04 0.0 
6.462339787741e-04 6.670332005028e-03 0.0 
0.0 0.0 -9.293344946427e-04 
-1.212806318798e-03 -1.378965673920e-04 0.0 
-1.378965673920e-04 8.296055804055e-03 0.0 
0.0 0.0 -1.225943235494e-03 
-1.276740815873e-03 -1.548809764644e-04 0.0 
-1.548809764644e-04 8.705204137735e-03 0.0 
0.0 0.0 -1.269037835114e-03 
3.594676972526e-04 7.178921805073e-05 0.0 
7.178921805073e-05 9.088692016903e-04 0.0 
0.0 0.0 -2.647987373252e-04 
-1.846190942978e-04 5.164886539677e-05 0.0 
5.164886539677e-05 1.204409405256e-03 0.0 
0.0 0.0 -1.906575996298e-04 
-8.286411412230e-04 3.370873367428e-04 0.0 
3.370873367428e-04 5.196340602423e-03 0.0 
0.0 0.0 -7.504994217940e-04 
-1.139651880695e-03 8.042350541591e-05 0.0 
8.042350541591e-05 7.547907450212e-03 0.0 
0.0 0.0 -1.120841203304e-03 
-2.291975421414e-05 4.837522362354e-06 0.0 
4.837522362354e-06 2.248541816772e-04 0.0 
0.0 0.0 -4.162563418682e-05 
-1.297812546198e-03 -2.832250279036e-05 0.0 
-2.832250279036e-05 8.535497112477e-03 0.0 
0.0 0.0 -1.289430695250e-03 
-9.496420787081e-04 3.842938930090e-05 0.0 
3.842938930090e-05 6.134769422350e-03 0.0 
0.0 0.0 -9.501928138396e-04 
4.667272525527e-04 -5.868839322516e-04 0.0 
-5.868839322516e-04 8.326091292800e-04 0.0 
0.0 0.0 -2.601894661948e-04 
-9.182086126089e-04 6.576575429171e-05 0.0 
6.576575429171e-05 5.823601520570e-03 0.0 
0.0 0.0 -9.030544305944e-04 
2.817231161242e-04 1.161103524001e-03 0.0 
1.161103524001e-03 7.010385495022e-03 0.0 
0.0 0.0 -1.028600897765e-03 
-8.361637281432e-04 -2.896249918871e-04 0.0 
-2.896249918871e-04 5.455245773314e-03 0.0 
0.0 0.0 -7.581517479062e-04 
-9.020963282829e-05 -1.875396024300e-04 0.0 
-1.875396024300e-04 3.251699178446e-04 0.0 
0.0 0.0 -8.776479312233e-05 
-5.428499226707e-04 1.403699556570e-04 0.0 
1.403699556570e-04 3.200704680556e-03 0.0 
0.0 0.0 -5.209635072927e-04 
-7.264103312116e-04 1.066181262773e-04 0.0 
1.066181262773e-04 4.783605203211e-03 0.0 
0.0 0.0 -7.319997505001e-04 
-8.379648040481e-04 3.484655021633e-04 0.0 
3.484655021633e-04 5.618057407273e-03 0.0 
0.0 0.0 -7.718900918345e-04 
3.178467241754e-04 8.985964531451e-04 0.0 
8.985964531451e-04 6.620345668771e-03 0.0 
0.0 0.0 -9.818509214193e-04 
-7.376665261260e-04 -1.727241022976e-04 0.0 
-1.727241022976e-04 4.617911229220e-03 0.0 
0.0 0.0 -7.175509632692e-04 
-7.419246084458e-04 8.685310730557e-05 0.0 
8.685310730557e-05 4.899459788340e-03 0.0 
0.0 0.0 -7.534599223891e-04 
-1.725607618193e-04 1.274500514103e-04 0.0 
1.274500514103e-04 7.075820556251e-04 0.0 
0.0 0.0 -1.551230728613e-04 
-5.127658244475e-04 1.990855835121e-04 0.0 
1.990855835121e-04 7.331249987462e-03 0.0 
0.0 0.0 -8.734219451798e-04 
7.849979712854e-04 2.101740951026e-03 0.0 
2.101740951026e-03 5.866760370892e-03 0.0 
0.0 0.0 -1.037071490358e-03 
-2.227791697187e-04 8.637930858019e-05 0.0 
8.637930858019e-05 1.298316331418e-03 0.0 
0.0 0.0 -2.411692657676e-04 
-1.261193436875e-03 -8.326695288074e-05 0.0 
-8.326695288074e-05 8.552285249105e-03 0.0 
0.0 0.0 -1.290349483557e-03 
-7.749079593098e-04 1.445464569204e-04 0.0 
1.445464569204e-04 7.820148211758e-03 0.0 
0.0 0.0 -8.618613901231e-04 
-7.679899519872e-04 -1.532356305283e-04 0.0 
-1.532356305283e-04 5.157074227234e-03 0.0 
0.0 0.0 -7.639788432047e-04 
-9.396515753231e-04 3.091234051292e-05 0.0 
3.091234051292e-05 6.333492038285e-03 0.0 
0.0 0.0 -9.358343396975e-04 
-7.048143922741e-04 1.638625948524e-04 0.0 
1.638625948524e-04 4.692848505541e-03 0.0 
0.0 0.0 -7.108516105536e-04 
-7.079275106751e-04 -1.102323501340e-04 0.0 
-1.102323501340e-04 4.802970885948e-03 0.0 
0.0 0.0 -7.343037059241e-04 
-7.780856442695e-04 -3.515797407548e-05 0.0 
-3.515797407548e-05 5.068476837198e-03 0.0 
0.0 0.0 -7.281212783757e-04 
3.986405288856e-04 7.968611134549e-04 0.0 
7.968611134549e-04 6.155702265641e-03 0.0 
0.0 0.0 -9.207188329160e-04 
3.470532276308e-04 -2.641085931093e-04 0.0 
-2.641085931093e-04 5.277154694566e-04 0.0 
0.0 0.0 -2.274637643159e-04 
7.280862664082e-04 1.892258903139e-03 0.0 
1.892258903139e-03 6.286914228992e-03 0.0 
0.0 0.0 -1.055587846197e-03 
-8.387293036436e-04 7.281979356209e-05 0.0 
7.281979356209e-05 5.326094164637e-03 0.0 
0.0 0.0 -8.376728236383e-04 
-1.277193560845e-03 -1.460979146763e-04 0.0 
-1.460979146763e-04 8.720485292524e-03 0.0 
0.0 0.0 -1.272153791098e-03 
2.815828288529e-04 4.823931908914e-04 0.0 
4.823931908914e-04 6.240220926196e-03 0.0 
0.0 0.0 -9.154479666572e-04 
-8.795673226242e-04 -5.945622150851e-05 0.0 
-5.945622150851e-05 6.031279173310e-03 0.0 
0.0 0.0 -8.902468719969e-04 
5.271449168716e-04 2.333101940568e-03 0.0 
2.333101940568e-03 6.203690199027e-03 0.0 
0.0 0.0 -1.090736927003e-03 
2.454329686084e-04 1.097937206930e-03 0.0 
1.097937206930e-03 6.579139172571e-03 0.0 
0.0 0.0 -9.850869037234e-04 
1.997821693401e-04 1.017152537497e-03 0.0 
1.017152537497e-03 7.106028152761e-03 0.0 
0.0 0.0 -1.003376625992e-03 
-9.288790837527e-05 4.486310937792e-05 0.0 
4.486310937792e-05 3.125136257930e-04 0.0 
0.0 0.0 -9.412530746476e-05 
5.327834778467e-04 2.146892054853e-03 0.0 
2.146892054853e-03 6.241760558484e-03 0.0 
0.0 0.0 -1.086588239133e-03 
6.277271983036e-04 2.447400952584e-03 0.0 
2.447400952584e-03 6.414035213693e-03 0.0 
0.0 0.0 -1.084600281232e-03 
-1.296260318671e-04 -1.418501242847e-04 0.0 
-1.418501242847e-04 8.665050242929e-04 0.0 
0.0 0.0 -1.488313462956e-04 
-6.781230104505e-04 -1.171397059556e-04 0.0 
-1.171397059556e-04 4.366860208538e-03 0.0 
0.0 0.0 -6.841365946973e-04 
-7.630078233159e-05 -6.102099342087e-05 0.0 
-6.102099342087e-05 5.288528667040e-04 0.0 
0.0 0.0 -9.692352125104e-05 
4.972700673705e-04 2.256482107437e-03 0.0 
2.256482107437e-03 6.612393476291e-03 0.0 
0.0 0.0 -1.100640412566e-03 

SCALARS element_materi_plasti_kappa_shear float
LOOKUP_TABLE default
3.528625604782e-03
3.034804480020e-03
7.844606266777e-03
5.625547274701e-03
3.501560146999e-03
7.282216725179e-04
3.474037579751e-03
3.340720297107e-03
3.522688057585e-03
5.576154387884e-03
3.922993087945e-03
2.365829412247e-03
6.333452726640e-03
3.751010953381e-03
6.420204778061e-03
5.730745783213e-03
3.485806207147e-03
6.593526459412e-04
2.037766560817e-03
1.717734531315e-03
5.615624188563e-03
3.649076970719e-03
4.518516925771e-03
6.774036601725e-03
4.000079313324e-03
4.245040839542e-03
4.037753600453e-03
8.011808692871e-03
4.029373913921e-03
6.801307931269e-03
9.290964436139e-04
4.104778426902e-04
7.537367330889e-03
5.165945974702e-03
6.489217445889e-03
6.779489874398e-03
6.661378487641e-03
7.132875140236e-03
3.175213616511e-03
3.219440155070e-03
6.076860435396e-03
6.439038988620e-03
1.877415207114e-03
3.844909887299e-03
5.492839635271e-03
1.614334414390e-03
5.547525844144e-04
5.389503964808e-03
2.459813448032e-04
3.614080566479e-03
5.365739409683e-03
2.086492870852e-03
2.277212797647e-03
5.169572532630e-03
5.914770198213e-03
2.139158541186e-03
1.841581145370e-03
5.249848155691e-03
1.658865948904e-03
5.734895616735e-03
3.755633206834e-04
7.603566114184e-03
4.040513950440e-03
1.795571008801e-03
6.324734437339e-03
4.246513051089e-03
1.604920622129e-04
8.197911415933e-03
1.512664470720e-03
7.927537340973e-03
4.489356583069e-03
6.492018579436e-03
7.588875806999e-03
1.457321292548e-03
2.021046168005e-03
5.633818988721e-03
5.883855563790e-03
9.985176399268e-04
8.814579398498e-04
1.054567725575e-03
1.743672556418e-03
3.329770783062e-03
4.060586106058e-03
2.929457548506e-03
3.674764228873e-03
3.652269385491e-03
4.598677011781e-03
4.995636108136e-03
4.861505206044e-03
3.454836133152e-03
2.515307574218e-04
3.378806059228e-03
4.682474906469e-03
4.702091845048e-03
6.076462548349e-03
7.130547248192e-03
3.332335907633e-03
6.826284043512e-03
3.930413862469e-03
5.057090148966e-03
3.348854702644e-03
6.505829661171e-03
7.891876907106e-03
7.658562543077e-03
3.686444399576e-03
6.875243722322e-04
5.876564476598e-03
5.009713215505e-03
4.133118292856e-04
6.316250752958e-03
4.631075715070e-03
1.211447017454e-03
3.981203328798e-03
5.773465358822e-03
2.394513305480e-03
4.651418557221e-03
4.194434650079e-03
6.544987623314e-03
3.862421047183e-03
4.019306912848e-03
1.028702991609e-03
3.463155550842e-03
4.910807945138e-03
3.996168724533e-03
6.864169327037e-04
6.979351079997e-03
2.526121341854e-03
6.425457512942e-03
5.744770783808e-03
8.095945313106e-04
4.183999782289e-03
5.625509815893e-03
2.875132416579e-03
6.728419018012e-03
6.604772164754e-03
6.307889748133e-03
4.670407339313e-03
3.116985079234e-03
6.957468949054e-03
3.561909305324e-03
5.618615457511e-03
8.574234556083e-03
3.718873437018e-03
4.339715431150e-03
4.151792505350e-03
5.963903421802e-03
3.120734003300e-03
3.455011882101e-03
3.431883328348e-03
3.973342776519e-03
2.430742527303e-04
3.688149105754e-03
1.623973228408e-03
6.635730803107e-03
6.513986760439e-03
3.856450527749e-03
4.807975268633e-03
2.036954242955e-03
7.950383671141e-03
3.347690434935e-03
3.817339675886e-03
5.466408609558e-03
1.063116121482e-03
5.924619530794e-03
3.359806122999e-03
6.602714640495e-03
3.342388058739e-03
3.185395697363e-03
5.839103272906e-03
4.069753593429e-03
2.461500190821e-03
3.772131283977e-03
4.520478967461e-03
3.465735922799e-03
3.539076901705e-03
6.328084548079e-03
8.057680753970e-03
2.782469209733e-03
7.350746461155e-03
8.478390090133e-03
4.399990102031e-03
2.659866027685e-03
6.996606182899e-03
5.350684319137e-03
3.544464573727e-03
3.236040194100e-03
3.797322711892e-03
5.637705462983e-03
4.673436176070e-03
5.687511377515e-03
1.164471534235e-03
3.564523468651e-03
4.803098661724e-03
1.296887470610e-04
4.943672964843e-03
6.736582859798e-03
8.428940464514e-04
6.170319676613e-03
4.285635638516e-03
4.431330623774e-03
6.840448037859e-03
3.724002802598e-03
3.932058578281e-03
6.653521953954e-03
2.831698619032e-03
3.325824238627e-03
3.481704692684e-03
4.488443812894e-03
3.550879868320e-03
3.406359265224e-03
7.804275085160e-03
6.329953771194e-03
3.793743182903e-04
4.645534802142e-03
4.855827438186e-03
3.258370309542e-03
4.893684273428e-03
9.647028340037e-04
6.582735810817e-03
3.342449784473e-03
3.610728506760e-03
6.408831877136e-03
4.380675775183e-04
4.584675247436e-03
3.699679224086e-04
5.969335384132e-04
1.493781560078e-03
2.312504963108e-03
4.784983334352e-03
2.166802314195e-03
2.484213997284e-03
2.515139978423e-03
1.193471551741e-03
6.946538247396e-03
3.380950736680e-03
6.425501210248e-03
0.0
2.994996431548e-03
4.209395848835e-03
4.862083439341e-03
6.680238356167e-03
6.636672509395e-03
4.590764537563e-03
2.696669751146e-03
6.849404168201e-03
4.387201332782e-03
3.320344157998e-03
4.410423547980e-03
7.497914392141e-03
4.248843096354e-03
2.711887319880e-03
3.836309747163e-03
6.108261217724e-03
3.901240739191e-03
7.431637759837e-03
3.753460771055e-03
1.248986681763e-03
3.518014179913e-03
2.776628239413e-03
1.506439679179e-03
1.380816762949e-03
4.755046881877e-03
3.676362788182e-03
3.430589790945e-03
4.952708212390e-03
4.718723855839e-03
3.481414558201e-03
6.375502881896e-03
7.559602182019e-03
3.640046674313e-03
4.174042971498e-03
7.654562236107e-03
2.170240903239e-03
3.357027743210e-03
5.233425019525e-03
4.458609228924e-03
4.547203828396e-03
1.589585432752e-04
3.708601455527e-03
3.139000497182e-03
2.722223531183e-03
2.168366494264e-03
3.929577795643e-03
6.380620704986e-04
4.279365849404e-03
7.556189938059e-03
3.640893065081e-03
3.744578397567e-03
8.473399745816e-04
4.441320105042e-03
4.217595189138e-03
5.107640880860e-03
4.453686851147e-03
5.216071850772e-03
5.024562081019e-03
4.061460025384e-03
1.050423010888e-03
4.432990052874e-03
1.139329181863e-03
7.458087933903e-03
8.611835978134e-03
3.964587342797e-03
2.473169928875e-03
2.188630379603e-03
3.733462517399e-03
2.116570096180e-03
4.211613239699e-03
3.281965826457e-03
5.778410886410e-03
3.378070606709e-03
7.892591372003e-03
1.814083143479e-03
7.065395168944e-03
2.230806957612e-03
3.408069598847e-03
1.195792248938e-03
6.819321431893e-03
5.101764269022e-03
4.805795257017e-03
3.513914298156e-03
8.716704657570e-03
3.914674815000e-03
7.445257843685e-03
1.375318948044e-03
4.211250131042e-03
6.497701757197e-03
3.430015081548e-03
4.109773335894e-03
8.260306032190e-03
6.559215484985e-03
8.878697323365e-03
4.066219120171e-03
4.677049970116e-03
1.839197167938e-03
3.226922138058e-03
3.605874528002e-03
3.801247617448e-03
4.092846866893e-03
7.935412610329e-03
3.900035487013e-03
3.427519582658e-03
4.124623007989e-03
1.778520835331e-03
4.327067983316e-03
3.444845756509e-03
3.480341907346e-03
4.604215881758e-03
3.348177883013e-03
4.717451703464e-03
3.215245882730e-03
3.320796694163e-03
7.366975589917e-03
5.741235723532e-03
7.566192894920e-03
5.300246016685e-03
3.482794490084e-03
4.309770712248e-03
3.291037290900e-03
3.873163377214e-03
5.020957594455e-03
3.604591250536e-03
5.213798693674e-03
3.037406839291e-03
7.285952764330e-03
7.313280570118e-03
4.974163615528e-03
4.623253995230e-03
5.686055687090e-03
4.289364287270e-03
2.421291340328e-03
3.142304046413e-03
3.487911429885e-03
6.857303905430e-03
3.920397269790e-03
5.025076478443e-03
3.598035032865e-03
4.063805307668e-03
3.441589599409e-03
3.768793816755e-03
8.693073662950e-03
8.051198217330e-03
5.836635382776e-03
5.890587137617e-03
4.921131353075e-03
3.175021749934e-03
3.997585518299e-03
1.486581763576e-03
4.575412189442e-03
3.338459339121e-03
4.044137853151e-03
7.110926432770e-03
4.926319329643e-03
3.800097117390e-03
3.895652219981e-03
1.897682209543e-03
6.642135258918e-04
4.331792717650e-03
4.376312900137e-03
4.482681860575e-03
6.767206337308e-04
3.595162726105e-03
1.616132361282e-03
2.595853734699e-03
6.624898886353e-03
7.639147944705e-03
3.400768600181e-03
1.902424819598e-03
3.752067470484e-03
4.370434842344e-03
3.962075947404e-03
8.570103211811e-03
3.198386693766e-03
3.766468143188e-03
4.124845148978e-03
4.889394747191e-03
5.927264132947e-03
8.415072077561e-03
8.387829119592e-03
7.755342358061e-03
8.315667405968e-03
4.057636266581e-03
4.920589971591e-03
5.149551141957e-03
3.644921859967e-03
3.900205360661e-03
3.407086229190e-03
5.059815959048e-03
8.087015360566e-03
5.051955043481e-03
7.647501114744e-03
5.084516464713e-03
8.207561067760e-03
4.221509610844e-03
3.884034966354e-03
1.958950863630e-03
5.646979922164e-03
3.587833971579e-03
7.643165611633e-03
3.600635693373e-03
4.096600625291e-03
6.618224692335e-03
2.913034705486e-03
8.242216080078e-03
6.231635862541e-03
3.696725743160e-03
2.315629071755e-04
7.896217645028e-03
6.720427581390e-03
4.376293968000e-03
7.471352683288e-03
7.523811403742e-03
0.0
3.890186190806e-03
3.859953108443e-03
3.628067560997e-03
3.571063382657e-03
2.506405763171e-03
7.568372943173e-03
5.136306230073e-03
8.692276940891e-04
6.680755617582e-03
4.034087724254e-04
3.169159580552e-03
1.347888352996e-03
3.281404008902e-03
7.166799953187e-03
7.311421116768e-03
3.769097730369e-03
5.416058611576e-04
6.663225248163e-04
9.264097944292e-04
6.199546649779e-03
3.488320970718e-03
3.568311924561e-03
7.086481140505e-03
3.493284622980e-03
7.162775670444e-03
8.273522650709e-03
3.909299515792e-03
4.464774648937e-03
7.551753310564e-03
1.220309471127e-03
6.900620603134e-03
8.365785863166e-03
8.094512983405e-03
5.817647890244e-03
2.956383584427e-03
4.307824697261e-03
5.837387361381e-03
6.757465208646e-03
2.454704323183e-03
5.127955954260e-03
5.317002854713e-03
4.079210194316e-03
7.019289236926e-03
6.550876827097e-04
6.641371189387e-03
4.895092482199e-03
8.083631053029e-03
5.183325514554e-03
1.735033884423e-04
4.135210246680e-03
5.119259939334e-03
7.737578593479e-03
4.090807838191e-03
8.047534677698e-03
1.114637845900e-03
6.738168452194e-03
4.778293364473e-03
5.072781456736e-03
4.233392830062e-04
7.429081455200e-03
1.782467777990e-03
6.662434089225e-03
3.779613678589e-03
3.374520113378e-03
4.991991424003e-03
3.928710791902e-03
6.992224232978e-03
3.033586450708e-03
6.206118764985e-03
4.434077425807e-03
6.488763210057e-03
5.310259112387e-03
6.061997162554e-03
4.330048237465e-03
6.365413294459e-03
7.495864077205e-03
4.532214486381e-03
4.239153692058e-03
2.800362630244e-03
3.095255427363e-03
8.413406114187e-03
7.330170557849e-03
7.118967758047e-03
5.248340798342e-03
3.028761019059e-03
6.674140706049e-03
7.167366337531e-03
5.135573870091e-03
2.446157471384e-04
6.958863242133e-03
5.216828897001e-03
4.380429115986e-03
6.586708087211e-03
5.986328239851e-03
3.216668449873e-03
3.672959727573e-03
7.404170025909e-03
5.617998396432e-03
6.722852556658e-03
4.323837798527e-03
2.998150908978e-03
7.621258698478e-03
3.990156233101e-03
4.033389637981e-03
7.355175680476e-03
4.501392326118e-03
5.018341845711e-03
1.793397212351e-04
3.127058394346e-03
4.605735010492e-03
4.007506798519e-03
5.113486234386e-03
6.081091899165e-03
3.968717882503e-03
4.074976183619e-03
6.579782354928e-03
3.894339398565e-03
3.870382025247e-03
3.769177222647e-03
3.810589674891e-03
0.0
3.867784336933e-03
2.563323944442e-03
3.199213783796e-04
3.363369010482e-03
6.204505612230e-03
5.076924335598e-03
6.607948035539e-03
6.593264926983e-03
3.297599931106e-03
3.075297279978e-03
5.632622103086e-03
4.095182592404e-03
1.409342854484e-03
1.164453539917e-03
2.398810579768e-04
2.678762582041e-03
8.143325898313e-03
5.108968424711e-03
6.062916546673e-03
2.624973566568e-03
4.896667112813e-03
6.613287048905e-03
1.195841292463e-03
2.576389109968e-03
2.078055360937e-03
6.956318831543e-03
6.562882416309e-03
2.857156921415e-03
3.669817629043e-03
5.656450111912e-03
6.769185272481e-03
1.274517268578e-03
6.480313691057e-03
1.501378433916e-03
3.327875465650e-03
4.311989840670e-03
1.063384177835e-03
2.697767110358e-03
5.212641935745e-03
1.249103827356e-03
3.063219008196e-03
3.208047659791e-03
6.935727856663e-03
2.168040702346e-03
4.259917292509e-03
2.042884176320e-03
6.252232541644e-03
7.635538381687e-03
4.908962959162e-03
4.112982199065e-03
7.401142123416e-04
3.395671172920e-03
3.072118229683e-03
3.221248037221e-03
9.893861508973e-04
9.715060065499e-04
1.344753477851e-03
1.852825065559e-03
1.434533997754e-03
3.032717901044e-03
0.0
2.304798883112e-03
4.122518464148e-03
3.216172429738e-03
8.188091797018e-03
5.988613443057e-03
3.854408568460e-03
2.248560931313e-03
1.738186389393e-03
6.083801995906e-03
6.023626633703e-03
3.742684779077e-03
3.077333598062e-03
2.287820883481e-03
6.009559958077e-03
2.171318738991e-03
3.202342050267e-03
3.064099742472e-03
4.193274048597e-03
7.444985538079e-03
6.006021539653e-03
1.317154521685e-03
9.045442729038e-04
8.856304592082e-04
4.493136324887e-03
6.132057657850e-03
1.629622625436e-04
4.849407318231e-03
0.0
6.696384396467e-03
1.911385708273e-04
1.855469029488e-04
6.482835549860e-03
6.071122422131e-03
4.237134437895e-03
3.194088539209e-03
1.229389275042e-03
4.873372476637e-03
5.861217735276e-03
6.009791560538e-03
3.214582083037e-03
6.885201328585e-03
6.008313113128e-03
8.156998830374e-03
1.629333530075e-03
1.629774259004e-03
1.154869925248e-03
2.550412609600e-03
6.769315148267e-03
5.628686910939e-03
1.156452753457e-03
3.011280459441e-03
6.583801998977e-03
6.828061337378e-03
6.893250223569e-03
4.549765932770e-03
5.010826545378e-03
6.545529340974e-03
6.557632457088e-03
4.848773824588e-03
1.518689889042e-03
3.191688509645e-03
3.230904037540e-03
9.742856023553e-04
6.566466220225e-03
6.920303754540e-03
6.524330192032e-03
1.268991371321e-03
1.296626302919e-03
6.542036631285e-03
6.532570636342e-03
4.404639489746e-03
3.191281210692e-03
4.696669621923e-03
3.777426634559e-03
3.187300555971e-03
6.553252237455e-04
1.962141474448e-04
1.658004844312e-04
1.808088655353e-04
3.181347729344e-03
2.857668427393e-03
0.0
4.248484337548e-03
0.0
6.752106431891e-03
5.933962877009e-03
6.192686675447e-03
1.825727712885e-03
2.077066383236e-03
5.897429816898e-03
5.433834120096e-03
5.908501020747e-03
5.915103042110e-03
6.343076514545e-03
2.701665040977e-03
6.022983703665e-03
6.017003585591e-03
5.638369047693e-03
6.105092544114e-03
4.880146332349e-03
0.0
2.946946139814e-03
1.369986594761e-03
6.219575994040e-03
3.492494936884e-03
5.668598056673e-03
1.720140834937e-03
5.420604269259e-04
5.952110338361e-03
3.207413677701e-03
2.406449859391e-03
5.613230824708e-03
5.255592395657e-03
2.405392247394e-03
6.325716480564e-03
5.405812111735e-03
4.986478143544e-03
5.046837884415e-03
4.915114460794e-03
3.795027753122e-03
4.584990952475e-03
4.986832719918e-03
5.696128498252e-03
5.124857952281e-03
2.381276975473e-03
5.243929663885e-03
4.941851688277e-03
3.558682000750e-03
5.320304687107e-03
4.982846380892e-03
5.321773155122e-03
5.122199489663e-03
5.370277941285e-03
6.003265802958e-03
4.878121851522e-03
5.024409086157e-03
6.269885415007e-03
5.283094587084e-03
4.496087669439e-03
6.127876558512e-03
1.598485380250e-03
2.453991362178e-03
7.503612397897e-04
4.158489178225e-04
5.132283977735e-03
5.800711734043e-03
4.012352521064e-04
5.178558947058e-03
3.672287986049e-03
5.554072696439e-03
5.455902080497e-03
4.132534818002e-03
5.377307593402e-03
3.563436395175e-03
7.450202943510e-03
6.363527353253e-03
1.780457220847e-03
6.402920586645e-03
4.665806061983e-03
1.739084225060e-03
2.745735810004e-03
3.483938659181e-03
4.137623841864e-03
2.710830884178e-03
4.830815432738e-03
4.338838747336e-03
3.764390466104e-03
4.953699249686e-03
5.315225278668e-03
4.634762812797e-03
1.390799105119e-03
3.302753215881e-03
7.615473273380e-03
4.803789849080e-03
2.934846034668e-03
5.293047999058e-03
6.353481599570e-03
4.463221862301e-03
7.092725784377e-04
7.188837629255e-04
1.939776790521e-03
5.757163016455e-03
4.302592537166e-03
3.884697757846e-03
3.831560113469e-03
6.578864133862e-03
3.710637137743e-03
5.381847255013e-03
1.745472058450e-03
6.372814386334e-03
3.601582624689e-03
1.960367836093e-03
3.235962158574e-03
2.665342287874e-03
2.230147031039e-03
3.831613683074e-03
6.711682856099e-05
0.0
4.877323454632e-03
1.556979792244e-03
5.223034385107e-03
5.243831534363e-03
3.712465573375e-03
3.795774509983e-03
5.077648961166e-03
6.798414436796e-04
2.668274978070e-03
6.674947150694e-03
1.284718125795e-03
4.027503858662e-03
3.708502873321e-03
1.255561332843e-03
6.359978360296e-03
4.605325228012e-03
1.480177431863e-03
5.208339196432e-03
5.174454579939e-03
1.723318099322e-03
4.743227418202e-03
1.822641042800e-03
5.243520701122e-03
3.727032002517e-03
5.182420533551e-03
5.047083544607e-03
5.230304678400e-03
5.318700714595e-03
1.404027028004e-03
5.329340664560e-03
4.575231375888e-03
3.729546022133e-03
4.332465809534e-03
4.772714813264e-03
7.309402263086e-03
4.911353602778e-03
3.039446067918e-03
3.607637015732e-03
2.395363886037e-03
3.678293055821e-03
4.439297428605e-03
5.303832931645e-03
1.939897740015e-03
8.737837506730e-04
4.468449371054e-03
1.933049174513e-03
6.386482723179e-03
4.604462714681e-03
5.626212280580e-03
6.659210033296e-03
2.906736885669e-03
1.664937235678e-03
9.867922942650e-04
5.525655788172e-03
4.168753252709e-03
6.612546370245e-04
2.614205076369e-03
1.844341645916e-03
4.164466221195e-03
2.601356280920e-03
5.350973366552e-03
2.403238676490e-03
4.974481416777e-03
2.331131398349e-03
5.802074022386e-03
2.204988394261e-03
5.542856990329e-03
3.386755612868e-03
5.608893272804e-03
5.433683611586e-03
1.591966329579e-03
3.881907493683e-03
6.605242568131e-03
3.928588348741e-03
4.187784013099e-03
2.822847277147e-03
4.244922793799e-03
1.647846366454e-03
6.210050250388e-03
6.809209715795e-03
7.583271797622e-03
5.394833408084e-03
5.539597485900e-03
1.332535272641e-03
5.658227397876e-03
6.393737183889e-03
3.972950563283e-03
5.535425060960e-03
4.635584555752e-03
3.817028325165e-03
5.588641495239e-03
3.821646127754e-03
1.955212777147e-03
2.622525036000e-03
4.664915983344e-03
5.608299033916e-03
4.131858288966e-03
4.655600520596e-03
4.409627360570e-03
3.999189459908e-03
3.940589006345e-03
3.355467711755e-03
6.380658131188e-03
5.738477738039e-03
3.865457449800e-03
5.397296509047e-03
7.688495037891e-03
5.633370056319e-03
4.742369029763e-03
3.596537257344e-03
3.077115423460e-03
1.435951789614e-03
5.907741629173e-03
3.020381594208e-03
4.299375558000e-03
4.132696996014e-03
7.112813614054e-03
2.786617589855e-03
3.764741041078e-03
2.750775967414e-03
3.262641318392e-03
1.536819661633e-03
6.433663807526e-03
4.793190481141e-03
4.941701353565e-03
5.184717955438e-03
5.753093411336e-03
5.355377338830e-03
5.299823741524e-03
1.575485555128e-03
6.400653630732e-03
6.559885265341e-03
6.223927028905e-03
3.810902893172e-03
5.571154108833e-03
4.270720268813e-03
3.509783320761e-03
3.961233572541e-03
2.302659604817e-03
3.468814720999e-03
4.128516364396e-03
2.020164673281e-03
1.838764521558e-03
5.219976963352e-03
5.682892487738e-03
8.205117432498e-03
2.135838877743e-04
5.695329143458e-03
5.262605659265e-03
4.338568414763e-03
4.103488450026e-03
5.098736166780e-03
2.359406364704e-03
4.609522311336e-03
4.775391991284e-03
2.371110749463e-03
7.788298120352e-04
1.174820162789e-03
3.669940333636e-03
3.341011287959e-03
5.599755181783e-03
5.022570779361e-03
2.200098356502e-03
1.260951394167e-03
3.930039062681e-03
2.048627720066e-03
6.317210015330e-03
8.183616096805e-03
3.996321467094e-03
4.986241804288e-03
8.212214641898e-03
7.166991601720e-03
7.931898078439e-03
2.860378737092e-03
4.520684138815e-03
5.138181182567e-03
3.948542467881e-03
2.124811323973e-03
3.184847849457e-03
5.095610415991e-03
5.446409143325e-03
2.091029238754e-03
5.442409636863e-03
5.527036629290e-03
6.021324378208e-03
3.127268534338e-03
7.127052880151e-03
4.439751776256e-03
6.155622566938e-03
6.425459011707e-03
3.522547625751e-03
6.731197044935e-03
5.516038476787e-03
8.338152993036e-03
4.057033022443e-03
3.133189541327e-03
4.123901821043e-03
5.087178339347e-03
5.819570038113e-03
3.516416197518e-03
4.251329185006e-03
4.189150094786e-03
2.453721172743e-03
5.593643574323e-03
1.851885256894e-03
7.313861156484e-03
5.214885560155e-03
6.988903595520e-03
3.963126868919e-03
4.882709138368e-03
5.853574251529e-03
7.197331547671e-03
5.279854728997e-03
5.875310261193e-03
4.577778607108e-03
6.590617455468e-03
3.200664878188e-03
4.713217591497e-03
8.082488730448e-03
6.540696068467e-03
4.702687307927e-03
3.988249552619e-03
3.801645055376e-03
5.375989749797e-03
5.921444844377e-03
6.128764962829e-03
1.019059973375e-03
2.907121159688e-03
6.482147268060e-03
5.971778542839e-03
4.511639721047e-03
5.469468509572e-03
5.150681403781e-03
5.240179499594e-03
3.440578380843e-03
4.786586511308e-03
5.842858889752e-03
5.327777423767e-03
4.543377517499e-03
4.942085301285e-03
6.660032125022e-03
4.683655011930e-03
5.186209915556e-03
4.713484120124e-03
4.548206090170e-03
6.246146284652e-03
7.404199448343e-03
6.263649919356e-03
5.482986058353e-03
4.707208932102e-03
7.142060965650e-03
4.455858956637e-03
1.785227442525e-03
6.302359631593e-03
6.471048348673e-03
7.264661826193e-03
3.322592292532e-03
6.460271456563e-03
7.287246165050e-03
3.160882025297e-03
5.006534420526e-03
4.234469480444e-03
3.357266040902e-03
1.855190603807e-03
5.456610269316e-03
6.922431987335e-03
5.317751045333e-03
7.073616252447e-03
5.264382525071e-03
4.274698478407e-03
2.694534949706e-03
7.053186473463e-03
7.022839796083e-03
3.354799917759e-03
6.062699943707e-03
3.889091764658e-03
6.255737558199e-03
6.572934348215e-03
7.191516089547e-03
4.744547438801e-03
8.150470151435e-03
6.528485565150e-03
2.812740517162e-03
4.408544086062e-03
7.656262250567e-03
4.852152895878e-03
7.182865389077e-03
6.794672432506e-03
4.260054645773e-03
9.501978410135e-04
5.017421712005e-03
1.861171042590e-03
2.551088656861e-03
8.404409791695e-03
5.360782323002e-03
3.387900178108e-03
4.555971799721e-03
4.514270677664e-03
4.752950354977e-03
3.407576546921e-03
3.326039186833e-03
2.325325339153e-03
3.559763791971e-03
3.049231732651e-03
7.150267827421e-03
6.620862921817e-03
2.960649625287e-03
6.233291129097e-03
6.205009952931e-03
4.377813891095e-03
1.641412311812e-03
6.646869977129e-03
2.808840946558e-03
2.134329159434e-03
7.317970864520e-03
5.757435315540e-03
7.584270201638e-03
3.647066268261e-03
4.652855770583e-03
7.264470097481e-03
4.381154287587e-03
5.353154153797e-03
4.847010383273e-03
4.984300817298e-03
1.871363619859e-03
6.058403764399e-03
4.651005362573e-03
7.546307728713e-03
4.460683850534e-03
7.323865899220e-03
2.700902686331e-03
2.104202728066e-03
7.508802229637e-03
1.946059518481e-03
5.266854891540e-03
7.179213126129e-03
5.272532937545e-03
5.420840566734e-03
7.283406484116e-03
5.018032232522e-03
6.408936627850e-03
8.092277175174e-03
6.520126156839e-03
7.009284058107e-03
8.256612861613e-03
8.400723100999e-03
7.287118254901e-03
7.081244643511e-03
8.030958570484e-03
5.313893298039e-03
6.616733514938e-03
3.118718892347e-03
6.984873822382e-03
5.155825657335e-03
5.400078094034e-03
5.851825776714e-03
7.381860085310e-03
5.904342289631e-03
4.952004252636e-03
6.788374974006e-03
6.084852704507e-03
4.816274352400e-03
4.818099421099e-03
7.022793181919e-03
7.031403879969e-03
8.324099245225e-03
4.023314824600e-03
3.203435013538e-03
2.798095576333e-03
3.752785874824e-03
4.195571608260e-03
6.131416995951e-03
4.682421595145e-03
6.860894429692e-03
4.589160357762e-03
7.073353496976e-03
5.049278077315e-03
8.380409158763e-03
4.186777916003e-03
6.697374611576e-03
6.918335567349e-03
7.008463122804e-03
5.060760637860e-03
5.318103245047e-03
8.457928487898e-03
6.971160636150e-03
2.512235302201e-03
7.875661816767e-03
6.895598649611e-03
6.378685399214e-03
7.086606971980e-03
6.501843722017e-03
2.646921438619e-03
6.897994743159e-03
4.218839080460e-03
6.091019206785e-03
4.343885302361e-03
8.048232973180e-03
4.091858975395e-03
3.838629298260e-03
4.150165290363e-03
7.332792076192e-03
6.007773295398e-03
4.487236376390e-03
5.391551705940e-03
3.964776956212e-03
5.008072453722e-03
7.981680253925e-03
5.351865102208e-03
6.726103764752e-03
6.761123327698e-03
6.147848024356e-03
4.621665338398e-03
3.538933101185e-03
8.145720328535e-03
3.842631470156e-03
7.424855703989e-03
7.758448948272e-03
6.533247139775e-03
9.888206599125e-04
5.353078015974e-03
3.059936806189e-03
6.195150576319e-03
7.721584507809e-03
4.518245132016e-03
6.022313641737e-03
5.296502384766e-03
7.783076031666e-04
6.261905278703e-03
4.739009100122e-03
7.758885018977e-03
8.039116923645e-03
4.994909691429e-04
6.083070756251e-03
2.982279571368e-03
4.214096454066e-03
5.034584455990e-03
6.717540948089e-03
6.039287579451e-03
8.040666204737e-03
5.971190226379e-03
4.850857335510e-03
8.165376085931e-04
8.137214482644e-03
7.401985599934e-03
8.286815628143e-03
8.357324110831e-03
3.745510575722e-03
5.784418641564e-03
5.443502610785e-03
7.310872217696e-03
7.505501392965e-03
6.569197749526e-03
6.562005262665e-03
6.012128148282e-03
3.527686721331e-03
8.214199574993e-03
4.348587759454e-03
6.012166222140e-03
6.212713850228e-03
3.061812406022e-03
3.059832632554e-03
4.421565437881e-03
7.992184367963e-03
4.951057518108e-03
4.346817112173e-03
7.903859500699e-03
6.873249602430e-03
6.559397961336e-03
6.375527921676e-03
3.548926640244e-03
6.865105211351e-03
5.170255319696e-03
2.959040707030e-03
4.849456370945e-03
6.434719525984e-03
3.956077125609e-03
4.324099751295e-03
4.442674123027e-03
4.635684442585e-03
1.799868962365e-03
4.599410661932e-03
3.717006816809e-03
4.183071766205e-03
4.385629020003e-03
7.190307085280e-03
1.992349749134e-03
2.485990113204e-03
4.946102910334e-03
4.415890155457e-03
9.124419789871e-03
9.098401799277e-03
4.352626062824e-03
1.708369526099e-03
4.804988832812e-03
6.861045837796e-03
2.331119124805e-03
7.467269077643e-03
5.140839489265e-03
4.179118643435e-03
5.853811425570e-03
1.235878034142e-03
6.687893659366e-03
5.068053649086e-03
1.340016513804e-03
5.112554520633e-03
1.722532867184e-03
4.218615333140e-03
4.316269244430e-03
6.165836802313e-03
6.172286061445e-03
5.253907736522e-03
6.296864844901e-03
6.729004920423e-03
5.198727449201e-03
1.165793923002e-03
1.366980460974e-03
8.167283890174e-03
4.027251590836e-03
7.926497072313e-03
3.073002749772e-03
4.849015704642e-03
8.153174534506e-03
4.238196197057e-03
7.981001617173e-03
5.794967562239e-03
8.073453896584e-03
4.910163067849e-03
5.130776579291e-03
5.408792691943e-03
6.014049534574e-03
4.476528212199e-03
7.789427042659e-03
6.391249544290e-03
6.803734128424e-03
4.624717136846e-03
6.731323397064e-03
4.779749421092e-03
4.313534934977e-03
4.856150139653e-03
4.185013498204e-03
7.339003856796e-03
7.257316728484e-03
6.664203088899e-03
4.157867652743e-03
5.877519484911e-03
5.823252050195e-03
1.098595117713e-03
4.327551132171e-03
6.221597155687e-03
4.759040951007e-03
4.547789008561e-03
1.152455206365e-03
5.917485718283e-03
3.623729417124e-03
3.568762641198e-03
7.826667067890e-03
4.188265097601e-03
3.987994876210e-03
6.623985819400e-03
7.496918890832e-03
8.287974240419e-03
5.882618977333e-03
6.291380849424e-03
6.338523249202e-03
6.773671973494e-03
6.622727914573e-03
3.871120584634e-03
7.285346569432e-03
3.743956289805e-03
3.211982025181e-03
7.262543098909e-03
6.708312053905e-03
7.295829891547e-03
5.526442481574e-03
6.755146854074e-03
6.340914530748e-03
5.612868232514e-03
7.447652214006e-03
6.856359653371e-03
8.286634315516e-03
6.762351266803e-03
4.219862657470e-03
4.304031199966e-03
6.467299673752e-03
4.089018846599e-03
3.255159050340e-03
8.084878489263e-03
6.325967866359e-03
5.082605546042e-03
3.985530946531e-03
5.486019707335e-04
7.740784965234e-03
8.554820142325e-04
1.023711813057e-03
4.702694074479e-03
8.100064010090e-03
4.114719913355e-03
5.402329145386e-03
7.067766046107e-03
4.718858386112e-04
6.416473198111e-03
6.349230463509e-03
4.080973508563e-03
4.938282189472e-03
5.606008560688e-03
6.143441388424e-03
6.747013738266e-03
7.715367362662e-03
6.665613290350e-03
1.465893922003e-03
4.369575419706e-03
4.188649873088e-03
2.637413936112e-03
3.263324571413e-03
4.151874911649e-03
4.757010440484e-03
1.560422079279e-03
4.351335771455e-04
1.633394346684e-03
4.026950465015e-03
6.191630053127e-03
5.469702019883e-03
4.679292225214e-03
4.635227668473e-03
4.376533666743e-03
4.150753793384e-03
6.389108752295e-03
4.421207168452e-03
3.611591761329e-03
7.715806634502e-03
4.019236634845e-03
4.488161046183e-03
3.577466476292e-03
6.116566660858e-03
4.152966166878e-03
4.252910968047e-03
3.994175970999e-03
4.383030072567e-03
4.597782046004e-03
4.970731428404e-03
1.124080825948e-03
7.443669899711e-03
1.819711458136e-03
5.092670513142e-03
7.877866416382e-03
5.401618328257e-03
4.099238494963e-03
2.089784225193e-03
3.356343314340e-03
4.460215491078e-03
6.056128660453e-03
4.644099352004e-03
5.778240294564e-04
5.177570466669e-03
5.632614900143e-03
7.094582323053e-03
8.386664654668e-03
4.586232441004e-03
4.457803289927e-03
6.045855829443e-03
9.108146383223e-04
4.846447285548e-04
4.578596342605e-03
6.877085727561e-03
4.398956626690e-03
6.113819746596e-03
4.496658056236e-03
4.484222780824e-03
6.840395301806e-03
1.628784469014e-04
5.886643384746e-03
6.594946706826e-03
3.458575707159e-03
5.177651538716e-03
8.216618943783e-03
5.889412182924e-03
8.614065323754e-04
4.442063176975e-04
5.416028733597e-03
4.290643224771e-03
4.783601587986e-03
7.829114342216e-03
2.061740556132e-03
7.703269612850e-03
4.252293004767e-03
4.692774795759e-03
8.084982676126e-03
4.977637373645e-03
1.631807614738e-03
4.530677097809e-03
4.504021302162e-03
5.742976827288e-03
5.468693661360e-03
6.134470917802e-03
0.0
5.967621282902e-03
4.759413754436e-03
3.910751852906e-03
3.869473887146e-03
8.163698543496e-03
2.563216277873e-03
2.789807781483e-03
3.593587862616e-03
3.440014781181e-03
6.238673969879e-03
7.743080617243e-03
6.259173283414e-03
7.522730634339e-03
3.486417229553e-03
4.547788030597e-03
8.021945415908e-03
5.712690307122e-03
8.388200309561e-04
5.070542353004e-03
5.965614877616e-03
4.605708546548e-03
6.095019956850e-03
9.838862332245e-04
6.381962712127e-03
2.375175350456e-03
7.660565839853e-03
6.255946676083e-03
8.275827440325e-03
4.132286282917e-03
3.193508314614e-03
9.534914560385e-04
6.389417101859e-03
3.015724586239e-03
3.818359164413e-04
5.392622240487e-03
5.134895118372e-03
2.358553379799e-04
6.493469911896e-03
2.145924480979e-03
2.296018121238e-03
7.989897394188e-03
8.248214111510e-03
7.937864863818e-03
5.754943752374e-03
3.214868672807e-03
6.440768807126e-03
1.790955063613e-03
7.109229888190e-03
7.855938939875e-03
1.653063994207e-03
4.468944246879e-03
6.320728714213e-03
7.319603973177e-04
5.685603385779e-03
4.614794622438e-03
4.552935884602e-03
1.578441811241e-03
3.641821489813e-03
6.203736769047e-03
7.787525543096e-03
4.016672254483e-03
1.961140715017e-03
7.981942824557e-03
4.071024716265e-03
5.801733473008e-04
8.242185830271e-03
7.658183065301e-03
3.612944456398e-03
5.643094491975e-03
8.282456669352e-03
5.823011049018e-03
5.269744230629e-03
7.278863636448e-03
0.0
2.037191033125e-03
3.684626253804e-03
3.773799348549e-03
5.220756416788e-03
2.832946501026e-03
3.380114776728e-03
3.689273836909e-03
5.837375555123e-03
1.969870662182e-03
7.949511562002e-03
6.816839758512e-03
6.876955257194e-03
5.359210789598e-03
3.327990862488e-03
3.338379874678e-04
2.589628005970e-03
1.814654638245e-03
2.737998140641e-03
8.061557373918e-03
4.650495992428e-03
5.385899675451e-03
6.984958962331e-04
5.129856721972e-03
4.870515252657e-03
5.369560606069e-03
4.921920194396e-03
6.028148600870e-03
6.777459995542e-03
3.694826416134e-03
4.772051741159e-03
2.730089980206e-03
4.884279235923e-03
6.571353631317e-03
1.815937445519e-03
2.186231133605e-03
7.225558950225e-03
3.477662201300e-03
5.409990092851e-03
6.282564531138e-03
7.591799412326e-03
4.992893820146e-03
3.660646591583e-03
3.279093188417e-03
3.546957199754e-03
4.354966851432e-03
7.804292148744e-03
3.772572000199e-03
3.470038770667e-03
3.693952598066e-03
3.772778857696e-03
1.001888866217e-03
2.918018291373e-03
5.767752696873e-03
4.034960654971e-03
7.126185434003e-03
7.427191644969e-03
4.509775173530e-03
5.432774287522e-03
2.645253503307e-03
2.594364771695e-03
6.453785756500e-03
2.304638287390e-04
2.150805055894e-03
7.193366423132e-03
1.669400932409e-03
3.324809475671e-03
7.172156900768e-03
5.796810560745e-04
5.347421200278e-04
6.010222977966e-03
3.068950323843e-03
5.659948107382e-03
6.844056262682e-03
3.060672020253e-03
3.701494320502e-04
5.629476601577e-03
1.044958388157e-03
5.445974576444e-03
6.566875895098e-03
5.494508326348e-03
2.139523019935e-03
3.730388698424e-03
2.799861645862e-03
7.914441508152e-03
7.382469179841e-03
4.734875419906e-03
7.289163534897e-03
5.525430350758e-04
6.558776203253e-03
2.801131237598e-03
1.468546484028e-03
6.998013444339e-03
5.772672408195e-03
5.750122728571e-03
3.364853212441e-03
3.669284283972e-03
1.301227889809e-03
8.667310981267e-03
2.258902969131e-03
7.533765705704e-04
7.819440626252e-03
3.188420317882e-03
5.482259513434e-03
5.953772275136e-03
5.893932355244e-03
1.261852516835e-03
1.015692545623e-03
3.129847729158e-03
3.204854259840e-03
6.586109461418e-03
6.686839737972e-03
1.336881583400e-03
0.0
6.221153744994e-03
7.907472508409e-03
1.305198168594e-03
6.350054779525e-03
3.935484126194e-03
3.404708161451e-03
4.259215926484e-03
1.916395868787e-03
8.079734783779e-03
1.041586129552e-03
3.016528213225e-03
8.198110011587e-03
5.324962882905e-03
3.256994374191e-03
3.913984556786e-03
8.241277582709e-03
6.512755863413e-03
4.804745634301e-03
3.058531543379e-03
7.967013731245e-03
5.424931143324e-03
1.873116063109e-03
4.086781350245e-04
8.049462913578e-03
7.150047803086e-03
1.530081824016e-03
4.461302677928e-03
6.346001706609e-03
7.808453395709e-03
8.190251378400e-03
4.358053773715e-03
2.450732908034e-04
3.112781407507e-03
2.542981970081e-03
3.578185125380e-03
8.025359174202e-03
5.506795170732e-03
6.823834507069e-03
6.645911850499e-04
6.388748237895e-04
2.730561597315e-03
4.467708076661e-03
2.277187998194e-03
5.529519713860e-03
1.766415856573e-03
7.008925762860e-03
3.624426704377e-03
7.134084647173e-03
8.014496361234e-03
3.587861483021e-03
6.883234027693e-03
5.779451194585e-03
5.760792399076e-03
2.247256786746e-03
5.397932790268e-03
7.779563083771e-03
7.268184123988e-03
7.757763625802e-03
6.546480564609e-03
4.768122438881e-03
0.0
9.845756963831e-04
6.888095191147e-03
3.879740068610e-03
6.072514490272e-03
7.800440975650e-03
6.403516961883e-03
4.807093912347e-03
7.096036244349e-03
6.560191958745e-03
6.611797241075e-03
2.323096048570e-03
6.791378424777e-03
3.451522871175e-03
5.433186761320e-03
5.118253779902e-04
5.235659828438e-03
4.498616084438e-03
1.631823223500e-03
1.531667460070e-03
6.372475098439e-03
5.637492893173e-03
5.504426529729e-03
7.454530932862e-03
3.852881204388e-03
3.799041860717e-04
5.935897059172e-04
4.188938165996e-04
8.250409444333e-04
1.478748655911e-04
2.994768496768e-03
6.138239812474e-03
5.634975088883e-03
3.883455718842e-03
2.667203541631e-03
6.489502684553e-03
6.974984108711e-03
7.715890283030e-03
7.818387248810e-03
8.161481135858e-03
5.135394386583e-04
5.681154926280e-04
6.253950541929e-03
1.428131340130e-03
1.694505254886e-03
4.832364846616e-04
5.799786674798e-04
6.525339309111e-03
8.128671299126e-03
5.514781828190e-03
7.283378902674e-03
6.866742551163e-03
4.033418773149e-03
6.375253363648e-03
2.972680271491e-03
3.180255969687e-03
9.913137832578e-04
2.524083688279e-04
6.763432415474e-03
3.502525969212e-03
1.736358502774e-03
2.855369314806e-03
8.660652632469e-03
5.499347830224e-03
5.895099320145e-03
2.198906605062e-03
5.432286145460e-04
6.688359059265e-03
6.015607847563e-03
6.799024981133e-03
3.352497016114e-03
6.687206480078e-03
1.389083414638e-03
5.539597143375e-03
2.048357633213e-04
6.610412781713e-03
5.827106903345e-03
2.169999861615e-04
8.028995280941e-03
4.633513032721e-03
5.657467102238e-03
6.854295516223e-03
4.247858577438e-03
8.256325161938e-03
5.525428271373e-03
4.362177274662e-03
8.229777651780e-03
2.387201356291e-03
3.053723610195e-03
7.625499707251e-03
5.736294853841e-03
1.031010330773e-03
3.063983621229e-03
6.458634454062e-03
1.151388962787e-03
7.281949795524e-03
5.495470709881e-03
5.762937850711e-03
1.641114750400e-03
8.053626735849e-04
3.553430815545e-03
5.010988788466e-03
1.557595337762e-04
5.680239433296e-03
4.090526400836e-03
1.855130867988e-03
3.888574816327e-03
7.879674171288e-03
3.750320036294e-03
3.038880930972e-04
2.159618659613e-03
3.184608949979e-03
3.888965288336e-03
7.494168457057e-03
3.091083311451e-03
3.273133255457e-03
5.190819916672e-04
6.459920124827e-03
8.114307177689e-03
8.877738012257e-04
5.674860832192e-03
6.434008036413e-03
3.423111596940e-03
4.198163726001e-03
3.122389092001e-03
3.191264477013e-03
3.401844793175e-03
7.080487669422e-03
1.444136774325e-03
8.397087225083e-03
3.559702453178e-03
5.772557366742e-03
6.958008663080e-03
3.993508198578e-03
8.167932834244e-03
7.348518724457e-03
7.715314000586e-03
2.386710946756e-04
8.258104741774e-03
8.508945784946e-03
5.978130445140e-04
2.916813067191e-03
3.606876982128e-04
8.545524540502e-03

SCALARS element_materi_plasti_phimob float
LOOKUP_TABLE default
2.053066185060e+01
2.053066185060e+01
2.053066185060e+01
1.914444114447e+01
3.428112400129e+00
7.614986586607e+00
2.662560114536e+00
2.053066185060e+01
3.601184285166e+00
1.911310763853e+01
2.053066185060e+01
2.053066185060e+01
2.053066185060e+01
7.675980786513e+00
2.053066185060e+01
1.969986753571e+01
4.400194002181e+00
7.235589270053e+00
2.053066185060e+01
2.053066185060e+01
1.900054193347e+01
2.053066185060e+01
2.053066185060e+01
2.053066185060e+01
1.259595927845e+01
2.053066185060e+01
2.053066185060e+01
2.053066185060e+01
1.445524186107e+01
2.053066185060e+01
1.815775654764e+01
6.379940557085e+00
2.053066185060e+01
2.053066185060e+01
2.053066185060e+01
2.053066185060e+01
2.053066185060e+01
2.053066185060e+01
3.918895866345e+00
2.812781924871e+00
2.053066185060e+01
2.053066185060e+01
2.053066185060e+01
2.053066185060e+01
1.850017420722e+01
2.053066185060e+01
1.595994735333e+01
1.884965891073e+01
-3.682946097042e+00
8.616475474291e+00
2.053066185060e+01
2.053066185060e+01
2.053066185060e+01
2.053066185060e+01
2.053066185060e+01
2.053066185060e+01
2.053066185060e+01
2.053066185060e+01
2.053066185060e+01
1.963378877276e+01
-3.623249302567e+00
2.053066185060e+01
2.053066185060e+01
2.053066185060e+01
2.053066185060e+01
2.053066185060e+01
-1.294724631861e+01
2.053066185060e+01
2.053066185060e+01
2.053066185060e+01
2.053066185060e+01
2.053066185060e+01
2.053066185060e+01
2.053066185060e+01
2.053066185060e+01
1.932348891283e+01
2.053066185060e+01
1.770545413868e+01
2.053066185060e+01
2.053066185060e+01
2.053066185060e+01
5.535578948742e+00
2.053066185060e+01
2.053066185060e+01
4.589859669009e+00
2.685137311173e+00
2.053066185060e+01
2.053066185060e+01
2.021096198989e+01
5.178175036560e+00
7.518938623587e+00
1.325463872505e+01
1.532154950391e+01
1.476103534251e+01
2.053066185060e+01
2.053066185060e+01
7.202367269332e+00
2.053066185060e+01
7.808560694945e+00
2.053066185060e+01
3.965941613732e+00
2.053066185060e+01
2.053066185060e+01
2.053066185060e+01
2.053066185060e+01
6.666849526904e+00
2.053066185060e+01
1.645105661754e+01
-4.062545364862e+00
2.053066185060e+01
2.009008855374e+01
2.053066185060e+01
2.053066185060e+01
2.053066185060e+01
2.026368225665e+01
2.053066185060e+01
2.053066185060e+01
2.053066185060e+01
5.811061908018e+00
2.053066185060e+01
2.053066185060e+01
1.408301101939e+01
1.677204431306e+01
2.053066185060e+01
8.881635960339e+00
2.053066185060e+01
2.053066185060e+01
2.053066185060e+01
2.012223475080e+01
1.208581663958e+01
2.053066185060e+01
1.921822163240e+01
2.053066185060e+01
2.053066185060e+01
2.053066185060e+01
2.053066185060e+01
2.053066185060e+01
2.053066185060e+01
2.053066185060e+01
2.053066185060e+01
1.967525038446e+01
2.053066185060e+01
1.055040823469e+01
1.216771441245e+01
2.053066185060e+01
2.053066185060e+01
1.991654236476e+01
2.053066185060e+01
2.878108590580e+00
2.053066185060e+01
8.629251108989e+00
1.218101759495e+00
2.053066185060e+01
2.053066185060e+01
2.053066185060e+01
2.053066185060e+01
2.053066185060e+01
2.053066185060e+01
2.053066185060e+01
1.651044009633e+00
2.053066185060e+01
2.053066185060e+01
2.053066185060e+01
2.053066185060e+01
1.711872536934e+01
2.053066185060e+01
1.452881695069e+00
2.053066185060e+01
2.053066185060e+01
2.053066185060e+01
2.053066185060e+01
2.053066185060e+01
1.362482186610e+01
1.938602183226e+00
2.053066185060e+01
2.053066185060e+01
2.053066185060e+01
2.053066185060e+01
2.053066185060e+01
2.053066185060e+01
2.053066185060e+01
2.009498901232e+01
2.053066185060e+01
2.053066185060e+01
2.053066185060e+01
1.759813786756e+01
2.053066185060e+01
1.964247196163e+01
1.947738052130e+01
2.053066185060e+01
2.016765254295e+01
2.053066185060e+01
2.009219018852e+01
5.642116172629e+00
2.053066185060e+01
2.053066185060e+01
2.053066185060e+01
2.053066185060e+01
1.647968547401e+01
2.053066185060e+01
2.053066185060e+01
1.420073702308e+01
1.267073410369e+01
2.053066185060e+01
2.053066185060e+01
2.053066185060e+01
1.800758363384e+01
1.701239890348e+01
1.751355520773e+01
2.053066185060e+01
2.053066185060e+01
2.053066185060e+01
-2.190716021495e+00
2.053066185060e+01
2.053066185060e+01
2.053066185060e+01
1.963620512070e+01
1.931593260276e+01
2.053066185060e+01
2.578059130098e+00
2.053066185060e+01
2.053066185060e+01
1.546055463990e+01
1.764570691470e+01
1.167151355774e+01
2.053066185060e+01
2.053066185060e+01
2.053066185060e+01
1.800280896261e+01
2.053066185060e+01
2.053066185060e+01
2.053066185060e+01
2.053066185060e+01
2.053066185060e+01
1.862769753685e+01
2.053066185060e+01
-6.401985710157e+00
2.053066185060e+01
2.053066185060e+01
2.053066185060e+01
2.053066185060e+01
2.053066185060e+01
1.905093708560e+01
2.053066185060e+01
2.053066185060e+01
2.053066185060e+01
2.002909427687e+01
1.771336696891e+01
2.053066185060e+01
2.053066185060e+01
2.053066185060e+01
1.811780219717e+01
2.053066185060e+01
2.053066185060e+01
2.053066185060e+01
1.975392984341e+00
2.053066185060e+01
1.682191156753e+01
2.053066185060e+01
2.053066185060e+01
2.053066185060e+01
1.768981085297e+01
1.830520413056e+01
2.053066185060e+01
1.805056244322e+01
1.969154257238e+01
1.956920719225e+01
2.053066185060e+01
2.053066185060e+01
1.908793490289e+01
2.053066185060e+01
2.053066185060e+01
2.053066185060e+01
1.156367129479e+01
2.053066185060e+01
2.053066185060e+01
1.872537336339e+01
1.081553493748e+01
1.742082567672e+01
2.053066185060e+01
2.053066185060e+01
2.053066185060e+01
1.840122107659e+01
1.576119708408e+01
2.053066185060e+01
2.053066185060e+01
1.773669175770e+01
1.235441482892e+01
1.404220988305e+01
2.053066185060e+01
2.053066185060e+01
2.053066185060e+01
1.824545715370e+01
2.053066185060e+01
2.053066185060e+01
2.053066185060e+01
1.733559357188e+01
2.053066185060e+01
1.799895087833e+01
2.053066185060e+01
2.053066185060e+01
2.053066185060e+01
2.053066185060e+01
2.053066185060e+01
1.938073863152e+01
2.053066185060e+01
2.053066185060e+01
1.936862542697e+01
1.938580588839e+01
2.053066185060e+01
2.053066185060e+01
2.053066185060e+01
2.053066185060e+01
2.053066185060e+01
2.006783747322e+01
2.053066185060e+01
2.053066185060e+01
2.053066185060e+01
2.053066185060e+01
1.853149228143e+01
2.053066185060e+01
2.053066185060e+01
2.053066185060e+01
2.053066185060e+01
1.133000067167e+01
2.053066185060e+01
2.053066185060e+01
1.050165082836e+01
2.053066185060e+01
2.053066185060e+01
2.053066185060e+01
1.219200717821e+01
2.021163454349e+01
2.053066185060e+01
2.001388749512e+01
1.874350980216e+01
1.894832315278e+01
2.053066185060e+01
2.053066185060e+01
1.370438665324e+01
1.697552343434e+01
2.053066185060e+01
2.053066185060e+01
2.053066185060e+01
2.053066185060e+01
1.818925406721e+00
2.053066185060e+01
2.053066185060e+01
1.866123069795e+01
2.053066185060e+01
1.824065282360e+01
2.053066185060e+01
2.053066185060e+01
2.053066185060e+01
2.053066185060e+01
2.053066185060e+01
2.053066185060e+01
2.053066185060e+01
2.053066185060e+01
2.020831174437e+01
1.999197146424e+01
2.053066185060e+01
1.962621577819e+01
2.053066185060e+01
2.053066185060e+01
2.005820138530e+01
1.808386836301e+01
2.053066185060e+01
2.053066185060e+01
2.053066185060e+01
2.053066185060e+01
2.053066185060e+01
2.053066185060e+01
2.053066185060e+01
1.951749363171e+01
2.053066185060e+01
2.053066185060e+01
1.889095813447e+01
2.053066185060e+01
2.053066185060e+01
2.053066185060e+01
2.053066185060e+01
2.053066185060e+01
1.785985972616e+01
2.053066185060e+01
2.053066185060e+01
2.053066185060e+01
2.053066185060e+01
9.798713608141e+00
1.036825143550e+01
2.053066185060e+01
2.053066185060e+01
1.749464728358e+01
1.927149663186e+01
2.053066185060e+01
1.368766517606e+01
2.053066185060e+01
2.053066185060e+01
2.053066185060e+01
1.643126249622e+01
1.118606125406e+00
2.053066185060e+01
2.053066185060e+01
2.053066185060e+01
2.053066185060e+01
1.561891916625e+01
2.053066185060e+01
2.053066185060e+01
2.053066185060e+01
1.881476234530e+01
2.053066185060e+01
1.800382414340e+01
1.958941283719e+01
2.053066185060e+01
1.869296604768e+01
2.053066185060e+01
2.053066185060e+01
2.053066185060e+01
2.053066185060e+01
2.053066185060e+01
1.914330924028e+01
1.889708951695e+01
2.053066185060e+01
2.053066185060e+01
2.053066185060e+01
2.053066185060e+01
1.964270525639e+01
2.053066185060e+01
1.879009044079e+01
2.053066185060e+01
1.892626328806e+01
2.053066185060e+01
2.053066185060e+01
2.053066185060e+01
2.053066185060e+01
2.024276707503e+01
2.053066185060e+01
2.053066185060e+01
2.053066185060e+01
2.053066185060e+01
2.053066185060e+01
2.053066185060e+01
2.053066185060e+01
2.053066185060e+01
2.026227014771e+01
5.670260188342e+00
2.053066185060e+01
2.053066185060e+01
2.053066185060e+01
2.053066185060e+01
2.053066185060e+01
-2.865499933039e+01
2.053066185060e+01
1.989535694698e+01
2.053066185060e+01
1.958584215391e+01
2.053066185060e+01
2.053066185060e+01
2.053066185060e+01
1.291008033876e+01
2.053066185060e+01
6.640057206171e-01
2.053066185060e+01
2.053066185060e+01
2.053066185060e+01
2.053066185060e+01
2.053066185060e+01
1.859518792389e+01
1.880091927433e+01
8.175141656122e+00
2.041525974274e+01
2.053066185060e+01
8.643195438271e+00
1.671390141173e+01
2.053066185060e+01
6.951214397153e+00
2.053066185060e+01
2.053066185060e+01
7.762362101020e+00
2.053066185060e+01
2.053066185060e+01
2.053066185060e+01
2.053066185060e+01
2.053066185060e+01
2.053066185060e+01
2.053066185060e+01
2.053066185060e+01
2.053066185060e+01
2.053066185060e+01
2.053066185060e+01
2.053066185060e+01
2.053066185060e+01
2.053066185060e+01
9.274239178462e+00
2.053066185060e+01
7.438447219996e+00
2.053066185060e+01
2.053066185060e+01
2.053066185060e+01
2.053066185060e+01
-1.329488797061e+01
2.053066185060e+01
1.823744237219e+01
2.053066185060e+01
1.940971099073e+01
2.053066185060e+01
2.053066185060e+01
2.053066185060e+01
2.053066185060e+01
2.053066185060e+01
-2.823399263870e+00
2.053066185060e+01
2.053066185060e+01
2.053066185060e+01
7.983035494678e+00
2.053066185060e+01
2.053066185060e+01
1.950159089551e+01
2.053066185060e+01
2.053066185060e+01
2.053066185060e+01
2.053066185060e+01
2.053066185060e+01
2.053066185060e+01
2.053066185060e+01
2.053066185060e+01
2.053066185060e+01
2.053066185060e+01
2.053066185060e+01
2.053066185060e+01
2.053066185060e+01
2.053066185060e+01
2.053066185060e+01
2.053066185060e+01
2.053066185060e+01
1.903688802353e+01
2.053066185060e+01
2.053066185060e+01
2.053066185060e+01
2.053066185060e+01
-1.988513446742e+00
2.053066185060e+01
1.966953675013e+01
2.053066185060e+01
2.053066185060e+01
2.053066185060e+01
2.053066185060e+01
1.635880974409e+01
2.053066185060e+01
2.053066185060e+01
2.053066185060e+01
1.723868466632e+01
1.966669334519e+01
2.053066185060e+01
7.012482902483e+00
2.053066185060e+01
2.053066185060e+01
2.053066185060e+01
2.053066185060e+01
-1.625137025263e+00
2.053066185060e+01
2.053066185060e+01
2.053066185060e+01
2.053066185060e+01
2.053066185060e+01
8.471825890547e+00
2.053066185060e+01
2.053066185060e+01
2.011434676586e+01
2.053066185060e+01
2.053066185060e+01
2.053066185060e+01
-2.155396969117e+01
1.693140255257e+01
2.004773667268e+01
-3.035837167500e+01
2.053066185060e+01
2.053066185060e+01
1.712127564053e+01
2.053066185060e+01
2.053066185060e+01
2.035347649910e+01
1.551117434886e+01
2.051340396653e+01
2.053066185060e+01
-4.216177237964e+01
2.053066185060e+01
1.369840387884e+00
2.053066185060e+01
2.053066185060e+01
1.698914827295e+01
2.053066185060e+01
2.053066185060e+01
2.053066185060e+01
2.053066185060e+01
2.053066185060e+01
2.011639248954e+01
2.046360662586e+01
2.053066185060e+01
2.053066185060e+01
2.022563325518e+01
2.053066185060e+01
2.053066185060e+01
2.053066185060e+01
2.053066185060e+01
2.053066185060e+01
2.053066185060e+01
2.053066185060e+01
2.053066185060e+01
2.053066185060e+01
2.005061601725e+01
1.905591336563e+01
-3.919419185248e+01
1.900657601879e+01
1.751735936900e+01
2.053066185060e+01
2.053066185060e+01
2.053066185060e+01
2.053066185060e+01
2.053066185060e+01
2.053066185060e+01
1.585170899346e+01
2.053066185060e+01
2.053066185060e+01
2.053066185060e+01
8.883175976785e+00
5.419847346698e+00
-2.805353739838e+01
2.053066185060e+01
2.053066185060e+01
2.053066185060e+01
2.053066185060e+01
2.036908082800e+01
-5.806193727162e+00
2.053066185060e+01
1.081794564000e+01
6.858169727405e+00
2.053066185060e+01
2.053066185060e+01
6.966815176624e+00
2.041930549434e+01
2.053066185060e+01
2.053066185060e+01
2.034064533204e+01
5.291055354558e+00
1.102988786787e+01
2.049008951321e+01
2.016945750154e+01
2.053066185060e+01
9.759477099277e+00
1.322491820872e+01
2.053066185060e+01
2.053066185060e+01
2.017004332990e+01
2.053066185060e+01
-2.749871582183e+01
2.053066185060e+01
2.053066185060e+01
2.053066185060e+01
1.483217114156e+01
1.601444675987e+01
-1.014937575175e+01
2.053066185060e+01
5.777179147247e+00
1.052295498669e+01
2.053066185060e+01
2.053066185060e+01
1.052712272581e+01
2.000773621173e+01
2.053066185060e+01
2.053066185060e+01
2.048348554836e+01
2.007182668693e+01
5.779387912357e+00
2.053066185060e+01
2.053066185060e+01
2.053066185060e+01
2.053066185060e+01
2.053066185060e+01
2.053066185060e+01
1.996787135748e+01
2.053066185060e+01
1.920540354576e+01
-2.698261553143e+01
2.032986281125e+01
2.053066185060e+01
2.053066185060e+01
2.053066185060e+01
1.414436905716e+01
1.680669420956e+01
2.053066185060e+01
2.053066185060e+01
1.602395252066e+01
-4.782233708077e+01
6.960772912171e+00
5.523161571303e+00
-2.921831137580e+01
2.053066185060e+01
2.053066185060e+01
2.053066185060e+01
-3.459075641092e+01
-3.628056996218e+01
2.053066185060e+01
2.053066185060e+01
1.296981841034e+01
7.297365874017e+00
1.514673856374e+01
4.366325126516e+00
7.374123798354e+00
-3.757487532664e+01
-3.306698000908e+01
-3.566392719045e+01
-2.698866764947e+01
2.045642596583e+01
2.018688634385e+01
-3.299365347413e+01
2.053066185060e+01
-3.282174377580e+01
2.053066185060e+01
2.053066185060e+01
2.053066185060e+01
2.053066185060e+01
2.053066185060e+01
2.053066185060e+01
2.053066185060e+01
2.053066185060e+01
2.053066185060e+01
2.053066185060e+01
2.006077121393e+01
2.006869667290e+01
2.012556841824e+01
2.053066185060e+01
2.053066185060e+01
2.053066185060e+01
-1.551294783322e+01
2.053066185060e+01
2.053066185060e+01
2.053066185060e+01
2.053066185060e+01
2.053066185060e+01
2.053066185060e+01
1.909609966285e+01
2.053066185060e+01
2.053066185060e+01
2.017361088987e+01
2.053066185060e+01
1.804239367323e+01
2.017648422301e+01
2.053066185060e+01
2.053066185060e+01
2.053066185060e+01
2.053066185060e+01
2.053066185060e+01
2.053066185060e+01
2.053066185060e+01
2.053066185060e+01
2.053066185060e+01
2.053066185060e+01
2.053066185060e+01
1.787618466164e+01
1.647933271932e+01
1.720782333181e+00
2.053066185060e+01
2.053066185060e+01
1.798888138344e+01
1.729647771201e+01
2.053066185060e+01
2.053066185060e+01
1.596301592861e+01
2.053066185060e+01
2.053066185060e+01
1.781436080898e+01
1.327124640442e+01
2.053066185060e+01
2.053066185060e+01
2.053066185060e+01
1.930541125899e+01
-1.733298623014e+00
1.721931484763e+01
2.053066185060e+01
-8.515311777742e-01
2.013775939605e+01
1.923389543807e+00
2.053066185060e+01
2.053066185060e+01
2.053066185060e+01
2.053066185060e+01
2.719028764642e+00
2.053066185060e+01
2.053066185060e+01
2.053066185060e+01
2.053066185060e+01
1.457313001213e+01
2.053066185060e+01
2.053066185060e+01
2.053066185060e+01
9.716655633757e+00
2.053066185060e+01
1.567777651316e+01
1.213081499526e+01
2.053066185060e+01
2.053066185060e+01
2.053066185060e+01
1.466476411643e+01
2.053066185060e+01
2.053066185060e+01
2.053066185060e+01
1.535951437943e+01
2.053066185060e+01
2.053066185060e+01
2.053066185060e+01
1.330437010071e+01
7.660727313039e+00
1.964411207938e+01
2.053066185060e+01
2.053066185060e+01
1.171302207126e+01
2.053066185060e+01
4.766955514726e+00
2.053066185060e+01
2.053066185060e+01
2.053066185060e+01
2.053066185060e+01
2.053066185060e+01
2.053066185060e+01
2.053066185060e+01
2.053066185060e+01
2.053066185060e+01
2.053066185060e+01
2.053066185060e+01
-2.911638400936e+01
-2.979822178580e+01
2.053066185060e+01
2.053066185060e+01
2.053066185060e+01
2.053066185060e+01
2.053066185060e+01
2.053066185060e+01
1.676430639876e+01
1.085222952392e+01
2.053066185060e+01
2.053066185060e+01
2.053066185060e+01
8.212695070922e+00
3.705227929834e+00
2.053066185060e+01
2.053066185060e+01
1.392581439619e+01
2.053066185060e+01
1.739172299807e+01
1.758530955225e+01
2.053066185060e+01
2.053066185060e+01
2.053066185060e+01
2.053066185060e+01
2.053066185060e+01
1.961180757978e+01
1.690262454996e+01
2.053066185060e+01
2.053066185060e+01
2.053066185060e+01
2.053066185060e+01
1.393105344560e+01
2.053066185060e+01
1.174816673264e+01
1.505728815194e+01
2.053066185060e+01
1.620972686807e+01
2.048917688408e+01
2.053066185060e+01
2.053066185060e+01
2.053066185060e+01
1.288244950341e+01
2.053066185060e+01
2.053066185060e+01
2.040111815621e+01
1.288927947017e+01
2.053066185060e+01
2.053066185060e+01
1.427954219661e+01
2.053066185060e+01
2.053066185060e+01
2.052790287764e+01
2.053066185060e+01
2.053066185060e+01
2.053066185060e+01
1.033368409624e+01
1.895158484212e+01
2.053066185060e+01
2.053066185060e+01
9.936982180517e+00
2.053066185060e+01
2.053066185060e+01
2.053066185060e+01
1.637624291941e+01
2.053066185060e+01
2.053066185060e+01
2.053066185060e+01
2.053066185060e+01
2.053066185060e+01
2.053066185060e+01
2.053066185060e+01
2.053066185060e+01
6.015402391947e+00
2.053066185060e+01
2.053066185060e+01
1.037752608201e+01
2.053066185060e+01
1.096334156962e+01
2.053066185060e+01
2.053066185060e+01
2.053066185060e+01
2.053066185060e+01
1.820201304927e+01
2.053066185060e+01
2.053066185060e+01
2.053066185060e+01
2.053066185060e+01
2.053066185060e+01
2.053066185060e+01
1.420757909346e+01
2.053066185060e+01
2.053066185060e+01
6.344216345018e+00
2.053066185060e+01
2.053066185060e+01
2.053066185060e+01
2.053066185060e+01
2.053066185060e+01
2.053066185060e+01
1.253705419678e+01
7.905376213366e+00
6.902717618828e+00
2.053066185060e+01
2.053066185060e+01
2.053066185060e+01
5.753829138844e+00
2.053066185060e+01
2.053066185060e+01
2.053066185060e+01
1.515096200079e+01
2.053066185060e+01
2.053066185060e+01
2.053066185060e+01
2.053066185060e+01
2.053066185060e+01
1.139719582953e+01
9.821938448354e+00
2.053066185060e+01
2.053066185060e+01
2.053066185060e+01
2.053066185060e+01
2.053066185060e+01
2.053066185060e+01
2.053066185060e+01
2.053066185060e+01
1.607877792815e+01
2.053066185060e+01
2.053066185060e+01
2.053066185060e+01
2.053066185060e+01
2.053066185060e+01
2.053066185060e+01
2.053066185060e+01
2.053066185060e+01
2.053066185060e+01
2.053066185060e+01
1.119299013943e+01
2.053066185060e+01
2.053066185060e+01
2.053066185060e+01
2.053066185060e+01
2.053066185060e+01
2.053066185060e+01
2.053066185060e+01
2.053066185060e+01
2.053066185060e+01
2.053066185060e+01
-2.395476455310e+01
2.053066185060e+01
2.053066185060e+01
2.053066185060e+01
9.181537843433e+00
2.053066185060e+01
2.053066185060e+01
2.053066185060e+01
1.548067679636e+01
2.053066185060e+01
2.001733199193e+01
2.053066185060e+01
2.053066185060e+01
2.053066185060e+01
2.053066185060e+01
2.053066185060e+01
2.053066185060e+01
2.053066185060e+01
1.007517324970e+01
2.053066185060e+01
2.053066185060e+01
2.053066185060e+01
1.786717695418e+01
1.682548034399e+01
2.053066185060e+01
2.053066185060e+01
2.053066185060e+01
2.053066185060e+01
2.053066185060e+01
2.053066185060e+01
2.053066185060e+01
2.053066185060e+01
2.053066185060e+01
2.053066185060e+01
2.053066185060e+01
2.053066185060e+01
2.053066185060e+01
2.053066185060e+01
2.053066185060e+01
2.053066185060e+01
2.053066185060e+01
1.272577996588e+01
2.053066185060e+01
2.053066185060e+01
2.053066185060e+01
2.053066185060e+01
2.053066185060e+01
2.053066185060e+01
1.995059536395e+01
2.053066185060e+01
1.864282885777e+01
1.816024357183e+01
2.053066185060e+01
2.053066185060e+01
1.929123346492e+01
2.053066185060e+01
2.053066185060e+01
1.957453494072e+01
2.053066185060e+01
2.053066185060e+01
1.772903371889e+01
2.053066185060e+01
7.131406990447e+00
1.588358870138e+01
2.053066185060e+01
2.053066185060e+01
1.828285811159e+01
2.053066185060e+01
1.395822401601e+01
2.053066185060e+01
2.053066185060e+01
1.512923932875e+01
2.053066185060e+01
2.053066185060e+01
2.053066185060e+01
7.910961791313e+00
4.269333724870e+00
2.053066185060e+01
2.053066185060e+01
2.053066185060e+01
2.053066185060e+01
2.053066185060e+01
2.053066185060e+01
2.053066185060e+01
2.053066185060e+01
1.870460409284e+01
2.020000278704e+01
1.756826854205e+01
2.053066185060e+01
1.674427409534e+01
2.053066185060e+01
1.822747309778e+01
1.449565646411e+01
2.053066185060e+01
2.053066185060e+01
1.497721948243e+01
1.744448415084e+01
1.492277629381e+01
1.378762908968e+01
2.053066185060e+01
2.053066185060e+01
2.053066185060e+01
2.053066185060e+01
2.053066185060e+01
2.053066185060e+01
1.639754139900e+01
2.053066185060e+01
2.053066185060e+01
2.053066185060e+01
2.053066185060e+01
2.053066185060e+01
2.053066185060e+01
2.053066185060e+01
1.882155489140e+01
2.053066185060e+01
1.237868930221e+01
3.009994746050e+00
2.053066185060e+01
2.053066185060e+01
2.053066185060e+01
2.020345492144e+01
2.053066185060e+01
2.053066185060e+01
1.151508601991e+01
2.053066185060e+01
2.053066185060e+01
2.053066185060e+01
1.924726953792e+01
2.053066185060e+01
2.053066185060e+01
2.053066185060e+01
2.053066185060e+01
2.053066185060e+01
1.492197910757e+01
2.053066185060e+01
2.053066185060e+01
2.011796441703e+01
1.304856151503e+01
2.053066185060e+01
1.589102292433e+01
2.053066185060e+01
2.053066185060e+01
2.053066185060e+01
1.821671810808e+01
1.675387932043e+01
2.053066185060e+01
2.053066185060e+01
2.053066185060e+01
1.832135901345e+01
2.053066185060e+01
2.053066185060e+01
1.406488212814e+01
2.053066185060e+01
2.053066185060e+01
2.053066185060e+01
2.053066185060e+01
2.053066185060e+01
2.053066185060e+01
2.053066185060e+01
2.053066185060e+01
2.053066185060e+01
2.053066185060e+01
2.053066185060e+01
1.412003269140e+01
2.053066185060e+01
2.053066185060e+01
2.053066185060e+01
2.053066185060e+01
2.053066185060e+01
2.053066185060e+01
2.053066185060e+01
2.053066185060e+01
1.693131909993e+01
2.053066185060e+01
1.256438404447e+01
2.032315059203e+01
1.623868258802e+01
1.728191986306e+01
2.053066185060e+01
2.053066185060e+01
1.547635407955e+01
2.053066185060e+01
2.053066185060e+01
2.053066185060e+01
2.053066185060e+01
2.053066185060e+01
2.053066185060e+01
2.053066185060e+01
2.053066185060e+01
2.053066185060e+01
1.850083548940e+01
1.933145585818e+01
2.053066185060e+01
1.681393336931e+01
2.053066185060e+01
2.053066185060e+01
2.053066185060e+01
2.053066185060e+01
2.053066185060e+01
2.053066185060e+01
2.053066185060e+01
2.053066185060e+01
2.053066185060e+01
2.053066185060e+01
2.053066185060e+01
2.053066185060e+01
2.053066185060e+01
1.755132086397e+01
2.053066185060e+01
2.053066185060e+01
2.053066185060e+01
2.053066185060e+01
1.717085450962e+01
2.053066185060e+01
2.053066185060e+01
1.611307543935e+01
1.702439962961e+01
2.053066185060e+01
2.053066185060e+01
2.053066185060e+01
1.981709810450e+01
2.053066185060e+01
2.053066185060e+01
2.053066185060e+01
2.053066185060e+01
2.053066185060e+01
1.583817761466e+01
2.053066185060e+01
2.053066185060e+01
2.053066185060e+01
1.666256115102e+01
2.053066185060e+01
1.278844701478e+01
2.053066185060e+01
2.053066185060e+01
2.053066185060e+01
2.053066185060e+01
1.819078267165e+01
2.053066185060e+01
2.053066185060e+01
2.053066185060e+01
2.053066185060e+01
2.053066185060e+01
2.053066185060e+01
2.053066185060e+01
2.053066185060e+01
2.053066185060e+01
2.053066185060e+01
1.899665038578e+01
2.053066185060e+01
1.963669044110e+01
2.053066185060e+01
1.818714837317e+01
1.573555879604e+01
2.023619278429e+01
2.053066185060e+01
2.053066185060e+01
1.502298035593e+01
1.934688935296e+01
1.714081631839e+01
2.053066185060e+01
2.053066185060e+01
1.810014132188e+01
2.053066185060e+01
2.053066185060e+01
2.053066185060e+01
1.647258171340e+01
2.053066185060e+01
2.053066185060e+01
2.053066185060e+01
2.053066185060e+01
2.053066185060e+01
2.053066185060e+01
1.925931413758e+01
1.979086129910e+01
2.053066185060e+01
2.053066185060e+01
2.053066185060e+01
1.564593806445e+01
2.053066185060e+01
2.053066185060e+01
1.363244361279e+01
2.053066185060e+01
2.053066185060e+01
2.053066185060e+01
2.053066185060e+01
2.524918052347e+00
2.053066185060e+01
2.053066185060e+01
1.405464366953e+01
2.053066185060e+01
2.053066185060e+01
2.053066185060e+01
2.053066185060e+01
2.053066185060e+01
2.053066185060e+01
1.432191365113e+01
2.053066185060e+01
2.053066185060e+01
2.053066185060e+01
2.053066185060e+01
2.053066185060e+01
2.053066185060e+01
1.889993044725e+01
2.053066185060e+01
2.053066185060e+01
2.053066185060e+01
2.053066185060e+01
2.053066185060e+01
2.053066185060e+01
2.053066185060e+01
1.328350502749e+01
2.053066185060e+01
2.053066185060e+01
6.368826457980e+00
6.251800729240e+00
1.918077962405e+01
2.053066185060e+01
2.053066185060e+01
2.026191029160e+01
2.053066185060e+01
2.053066185060e+01
2.053066185060e+01
2.053066185060e+01
1.496406790774e+01
2.053066185060e+01
2.053066185060e+01
2.053066185060e+01
2.053066185060e+01
2.053066185060e+01
2.053066185060e+01
1.481465625620e+01
2.051715266769e+01
2.051891889810e+01
2.053066185060e+01
2.053066185060e+01
2.053066185060e+01
1.973181845492e+01
1.984063523187e+01
2.053066185060e+01
2.053066185060e+01
2.053066185060e+01
2.053066185060e+01
2.053066185060e+01
2.053066185060e+01
2.053066185060e+01
1.569458161383e+01
2.053066185060e+01
2.053066185060e+01
2.053066185060e+01
2.053066185060e+01
2.053066185060e+01
1.766189986607e+01
2.053066185060e+01
2.053066185060e+01
2.053066185060e+01
2.053066185060e+01
2.053066185060e+01
2.053066185060e+01
1.770768601133e+01
2.053066185060e+01
1.989393955405e+01
2.053066185060e+01
2.053066185060e+01
2.053066185060e+01
1.855424863841e+01
2.053066185060e+01
2.053066185060e+01
2.053066185060e+01
2.053066185060e+01
2.053066185060e+01
2.053066185060e+01
1.649488291314e+01
2.053066185060e+01
2.053066185060e+01
1.947572825286e+01
2.053066185060e+01
2.053066185060e+01
2.053066185060e+01
2.053066185060e+01
2.053066185060e+01
2.053066185060e+01
2.053066185060e+01
1.981546581916e+01
2.053066185060e+01
2.053066185060e+01
2.053066185060e+01
2.053066185060e+01
2.053066185060e+01
2.053066185060e+01
2.053066185060e+01
2.053066185060e+01
2.019020290902e+01
2.053066185060e+01
2.030785131310e+01
2.053066185060e+01
2.053066185060e+01
2.053066185060e+01
1.488706806334e+01
2.053066185060e+01
2.053066185060e+01
1.825150138697e+01
2.051306633777e+01
2.053066185060e+01
2.053066185060e+01
2.053066185060e+01
2.002525246833e+01
2.053066185060e+01
2.053066185060e+01
2.053066185060e+01
2.053066185060e+01
1.594007870668e+01
1.521439845993e+01
2.053066185060e+01
2.053066185060e+01
2.053066185060e+01
2.053066185060e+01
2.053066185060e+01
2.053066185060e+01
2.053066185060e+01
2.053066185060e+01
2.053066185060e+01
2.053066185060e+01
1.582329777574e+01
6.427568313987e+00
2.053066185060e+01
2.053066185060e+01
2.053066185060e+01
2.053066185060e+01
2.053066185060e+01
2.053066185060e+01
2.053066185060e+01
2.053066185060e+01
2.053066185060e+01
2.053066185060e+01
2.053066185060e+01
2.053066185060e+01
2.050592661400e+01
2.053066185060e+01
2.053066185060e+01
2.053066185060e+01
2.053066185060e+01
2.053066185060e+01
2.053066185060e+01
2.045302014957e+01
3.518533550589e+00
2.053066185060e+01
1.448841215956e+01
2.053066185060e+01
2.053066185060e+01
2.053066185060e+01
1.673894077515e+01
2.053066185060e+01
2.053066185060e+01
2.043410149183e+01
2.053066185060e+01
2.053066185060e+01
2.053066185060e+01
2.053066185060e+01
2.053066185060e+01
2.053066185060e+01
2.053066185060e+01
2.053066185060e+01
2.053066185060e+01
2.053066185060e+01
2.053066185060e+01
2.053066185060e+01
2.053066185060e+01
1.534044250865e+01
1.755375130012e+01
2.053066185060e+01
2.053066185060e+01
-6.080586232428e+00
2.053066185060e+01
2.053066185060e+01
2.053066185060e+01
2.053066185060e+01
2.053066185060e+01
2.053066185060e+01
1.882910777854e+01
2.053066185060e+01
2.053066185060e+01
2.053066185060e+01
5.821052941578e+00
2.053066185060e+01
2.053066185060e+01
2.053066185060e+01
2.053066185060e+01
2.053066185060e+01
2.053066185060e+01
1.152227737752e+01
7.824860463033e+00
2.053066185060e+01
2.053066185060e+01
2.053066185060e+01
1.990052202090e+01
2.053066185060e+01
2.053066185060e+01
2.053066185060e+01
2.053066185060e+01
2.053066185060e+01
2.053066185060e+01
2.053066185060e+01
1.774553041151e+01
2.053066185060e+01
2.053066185060e+01
2.053066185060e+01
2.760168356033e+00
1.744200186814e+01
2.053066185060e+01
2.053066185060e+01
2.053066185060e+01
2.053066185060e+01
2.053066185060e+01
2.053066185060e+01
2.053066185060e+01
4.870680992597e+00
2.053066185060e+01
2.053066185060e+01
2.053066185060e+01
2.053066185060e+01
2.053066185060e+01
2.053066185060e+01
2.053066185060e+01
1.416690049984e+01
2.044900234153e+01
2.053066185060e+01
1.295425352505e+00
2.053066185060e+01
2.053066185060e+01
2.053066185060e+01
2.053066185060e+01
1.857237538639e+01
1.831973449332e+01
1.846196164166e+01
2.053066185060e+01
2.053066185060e+01
2.053066185060e+01
2.053066185060e+01
1.794166662948e+01
2.053066185060e+01
2.053066185060e+01
2.053066185060e+01
2.053066185060e+01
2.053066185060e+01
1.953943448494e+01
2.053066185060e+01
2.053066185060e+01
2.053066185060e+01
-4.259012520390e-01
2.053066185060e+01
1.896238280521e+01
2.053066185060e+01
2.053066185060e+01
2.053066185060e+01
2.053066185060e+01
2.053066185060e+01
2.053066185060e+01
2.053066185060e+01
2.053066185060e+01
2.053066185060e+01
2.053066185060e+01
2.053066185060e+01
2.053066185060e+01
1.415547878126e+01
2.053066185060e+01
2.053066185060e+01
1.911315280787e+01
2.053066185060e+01
2.053066185060e+01
2.050300720726e+01
2.053066185060e+01
1.316205230353e+01
2.053066185060e+01
2.053066185060e+01
2.053066185060e+01
2.053066185060e+01
2.053066185060e+01
1.043830703583e+01
2.053066185060e+01
1.685618555732e+01
2.053066185060e+01
2.053066185060e+01
-4.347671953040e+00
1.864333610028e+01
1.747193445548e+01
5.496272582402e+00
2.053066185060e+01
2.053066185060e+01
2.053066185060e+01
2.053066185060e+01
2.053066185060e+01
2.053066185060e+01
2.053066185060e+01
7.111845465758e+00
2.053066185060e+01
2.053066185060e+01
2.053066185060e+01
2.053066185060e+01
2.053066185060e+01
2.012656059393e+01
2.053066185060e+01
2.053066185060e+01
2.053066185060e+01
2.053066185060e+01
1.976616909719e+01
2.053066185060e+01
2.053066185060e+01
2.053066185060e+01
2.053066185060e+01
2.053066185060e+01
2.053066185060e+01
2.053066185060e+01
9.593061189582e+00
2.053066185060e+01
2.053066185060e+01
2.053066185060e+01
1.552731864570e+00
1.941110521768e+01
2.053066185060e+01
2.053066185060e+01
2.053066185060e+01
2.053066185060e+01
-3.635598014133e+00
2.053066185060e+01
2.053066185060e+01
2.053066185060e+01
2.053066185060e+01
2.029478594931e+01
2.053066185060e+01
5.959357782553e+00
2.053066185060e+01
2.053066185060e+01
2.053066185060e+01
2.053066185060e+01
2.053066185060e+01
2.053066185060e+01
7.497939819330e+00
-2.821727266702e+00
2.053066185060e+01
2.053066185060e+01
2.053066185060e+01
2.053066185060e+01
2.053066185060e+01
2.053066185060e+01
4.987708585002e+00
1.782896410249e+01
2.053066185060e+01
1.845251628617e+01
1.646408337255e+01
2.005264977788e+01
2.053066185060e+01
1.284865751019e+00
2.053066185060e+01
2.053066185060e+01
2.053066185060e+01
2.053066185060e+01
1.989017257453e+01
2.003819161054e+01
2.053066185060e+01
3.668888773870e+00
1.859338037600e+01
2.053066185060e+01
2.053066185060e+01
2.053066185060e+01
2.273600675648e+00
2.053066185060e+01
2.053066185060e+01
1.281959154313e+01
2.053066185060e+01
2.053066185060e+01
1.759542015664e+00
1.557442579127e+00
3.605037628935e+00
2.053066185060e+01
2.053066185060e+01
1.942878994553e+01
8.628461986489e+00
2.053066185060e+01
2.053066185060e+01
2.023955391682e+01
1.887904287684e+01
2.023637120490e+01
2.053066185060e+01
2.053066185060e+01
-7.433979641864e+00
2.053066185060e+01
2.053066185060e+01
2.053066185060e+01
1.605604703347e+00
2.053066185060e+01
1.584245729476e+01
2.053066185060e+01
2.043990995267e+01
9.344896887283e+00
1.937067016806e+01
2.053066185060e+01
9.126777078512e+00
-3.303403152975e+00
1.960968585369e+01
2.053066185060e+01
1.890897019057e+01
2.053066185060e+01
2.053066185060e+01
2.053066185060e+01
9.614770869948e+00
2.032703182882e+01
2.053066185060e+01
2.053066185060e+01
1.524721546426e+01
2.053066185060e+01
6.520522821113e+00
2.053066185060e+01
2.053066185060e+01
2.053066185060e+01
2.053066185060e+01
2.037177311401e+01
1.993647670600e+01
2.352451569874e+00
1.362990350212e+01
2.053066185060e+01
2.053066185060e+01
2.018851237895e+01
1.072695297346e+01
2.053066185060e+01
8.216858119375e+00
2.004220766335e+01
2.003708831948e+01
2.042630986257e+01
-4.335368659543e+01
-2.045746514676e+01
4.212070266258e+00
8.384877349803e+00
2.053066185060e+01
2.053066185060e+01
2.053066185060e+01
-6.724056849869e-01
2.053066185060e+01
2.053066185060e+01
2.053066185060e+01
2.053066185060e+01
2.053066185060e+01
2.053066185060e+01
1.063953983991e+01
2.053066185060e+01
2.053066185060e+01
2.053066185060e+01
2.042489900804e+01
2.053066185060e+01
1.812532507960e+01
2.052076429718e+01
6.106486540496e+00
2.053066185060e+01
2.053066185060e+01
2.052683392420e+01
8.141692283472e+00
2.053066185060e+01
2.047342570105e+01
2.053066185060e+01
1.743633315109e+00
2.053066185060e+01
2.053066185060e+01
2.053066185060e+01
1.289006453404e+01
2.053066185060e+01
2.053066185060e+01
2.053066185060e+01
2.053066185060e+01
-2.094598793704e+00
2.053066185060e+01
2.053066185060e+01
1.085494728268e+01
2.053066185060e+01
1.882447022120e+01
2.053066185060e+01
1.048036492248e+01
1.408391723345e+01
2.053066185060e+01
1.358869778096e+01
2.053066185060e+01
1.954271166118e+01
2.053066185060e+01
2.053066185060e+01
4.115775379693e+00
2.053066185060e+01
2.053066185060e+01
1.302803245566e+01
2.053066185060e+01
2.028724095000e+01
1.934563883053e+01
2.053066185060e+01
1.903301702530e+01
2.053066185060e+01
2.053066185060e+01
2.053066185060e+01
2.053066185060e+01
2.051451006031e+01
-2.858439399080e+00
1.388486668117e+01
2.053066185060e+01
1.027215109235e+01
2.053066185060e+01
2.053066185060e+01
2.053066185060e+01
1.569422782063e+01
2.053066185060e+01
2.053066185060e+01
2.053066185060e+01
2.053066185060e+01
2.053066185060e+01
5.471612324359e+00
1.846287306517e+01
2.053066185060e+01
1.751769260821e+01
1.302790979485e+01
2.053066185060e+01
2.053066185060e+01
2.053066185060e+01
1.979080848656e+01
1.866949794003e+01
2.053066185060e+01
5.506343642558e+00
8.040394662071e+00
3.589083887227e+00
1.346071789607e+01
2.039664389282e+01
1.302122383180e+01
2.037161993950e+01
2.053066185060e+01
2.053066185060e+01
1.506969238134e+01
2.053066185060e+01
2.053066185060e+01
2.053066185060e+01
2.053066185060e+01
2.053066185060e+01
2.053066185060e+01
1.942420091420e+01
8.482858404526e-01
2.053066185060e+01
2.053066185060e+01
2.053066185060e+01
1.066984562936e+01
1.747431812048e+01
2.053066185060e+01
2.053066185060e+01
1.894194862075e+01
2.053066185060e+01
2.053066185060e+01
8.573984649975e+00
2.053066185060e+01
2.053066185060e+01
8.445551645598e+00
2.053066185060e+01
2.053066185060e+01
2.053066185060e+01
1.323031208824e+01
2.053066185060e+01
2.024131858343e+01
2.053066185060e+01
1.869599027618e+01
2.053066185060e+01
2.053066185060e+01
3.110253599462e+00
2.053066185060e+01
2.004581075957e+01
2.053066185060e+01
1.757643100102e+00
2.053066185060e+01
2.053066185060e+01
1.969308890012e+01
1.153617500564e+01
2.053066185060e+01
2.053066185060e+01
-5.749608845420e+00
2.053066185060e+01
1.473163563459e+01
1.979481229908e+01
2.053066185060e+01
1.153360977390e+01
2.053066185060e+01
1.994146410259e+01
1.321896427690e+01
2.053066185060e+01
2.020085663038e+01
8.098425144168e+00
2.053066185060e+01
1.964039356542e+01
-3.359200680597e+01
8.155873297991e+00
2.053066185060e+01
2.053066185060e+01
2.053066185060e+01
2.030886297205e+01
1.936567131917e+01
2.053066185060e+01
8.745475333123e+00
2.053066185060e+01
1.677385184407e+01
1.990807613996e+01
2.053066185060e+01
1.051568567657e+01
2.053066185060e+01
7.289930152599e+00
2.053066185060e+01
2.053066185060e+01
9.990059054100e+00
2.037467095082e+01
2.052918376829e+01
2.053066185060e+01
2.053066185060e+01
2.043151242171e+01
2.053066185060e+01
1.756434009569e+01
2.053066185060e+01
2.053066185060e+01
1.642221590744e+01
1.967637428206e+01
2.053066185060e+01
1.976091899939e+00
1.041506963797e+01
2.042909639076e+01
2.050083024762e+01
2.053066185060e+01
2.053066185060e+01
2.053066185060e+01
2.053066185060e+01
7.933585769347e-01
1.997915777326e+01
2.053066185060e+01
7.323837713573e+00
2.053066185060e+01
2.053066185060e+01
2.053066185060e+01
5.699951091870e+00
2.053066185060e+01
2.053066185060e+01
1.888414723712e+01
2.031193537311e+01
2.385649505810e-01
2.053066185060e+01


