# vtk DataFile Version 2.0
Calculation C:\Users\johan\Documents\GitHub\TOCHNOG\standsicherheit_phiC at time 1.133814057534e+01 
ASCII
DATASET UNSTRUCTURED_GRID
Field FieldData 1
Time 1 1 double
1.133814057534e+01

POINTS 1028 float
0.0 0.0 0.0 
5.000000000000e+01 -1.000000000000e+01 0.0 
0.0 -2.000000000000e+01 0.0 
5.000000000000e+01 -2.000000000000e+01 0.0 
0.0 -9.999999999991e-01 0.0 
0.0 -1.999999999998e+00 0.0 
0.0 -2.999999999997e+00 0.0 
0.0 -3.999999999994e+00 0.0 
0.0 -4.999999999991e+00 0.0 
0.0 -5.999999999988e+00 0.0 
0.0 -6.999999999985e+00 0.0 
0.0 -7.999999999982e+00 0.0 
0.0 -8.999999999983e+00 0.0 
0.0 -9.999999999985e+00 0.0 
0.0 -1.099999999999e+01 0.0 
0.0 -1.199999999999e+01 0.0 
0.0 -1.299999999999e+01 0.0 
0.0 -1.399999999999e+01 0.0 
0.0 -1.499999999999e+01 0.0 
0.0 -1.599999999999e+01 0.0 
0.0 -1.700000000000e+01 0.0 
0.0 -1.800000000000e+01 0.0 
0.0 -1.900000000000e+01 0.0 
4.900000000001e+01 -2.000000000000e+01 0.0 
4.800000000001e+01 -2.000000000000e+01 0.0 
4.700000000002e+01 -2.000000000000e+01 0.0 
4.600000000003e+01 -2.000000000000e+01 0.0 
4.500000000004e+01 -2.000000000000e+01 0.0 
4.400000000004e+01 -2.000000000000e+01 0.0 
4.300000000005e+01 -2.000000000000e+01 0.0 
4.200000000006e+01 -2.000000000000e+01 0.0 
4.100000000006e+01 -2.000000000000e+01 0.0 
4.000000000007e+01 -2.000000000000e+01 0.0 
3.900000000008e+01 -2.000000000000e+01 0.0 
3.800000000009e+01 -2.000000000000e+01 0.0 
3.700000000009e+01 -2.000000000000e+01 0.0 
3.600000000010e+01 -2.000000000000e+01 0.0 
3.500000000011e+01 -2.000000000000e+01 0.0 
3.400000000011e+01 -2.000000000000e+01 0.0 
3.300000000012e+01 -2.000000000000e+01 0.0 
3.200000000013e+01 -2.000000000000e+01 0.0 
3.100000000013e+01 -2.000000000000e+01 0.0 
3.000000000013e+01 -2.000000000000e+01 0.0 
2.900000000013e+01 -2.000000000000e+01 0.0 
2.800000000013e+01 -2.000000000000e+01 0.0 
2.700000000013e+01 -2.000000000000e+01 0.0 
2.600000000013e+01 -2.000000000000e+01 0.0 
2.500000000013e+01 -2.000000000000e+01 0.0 
2.400000000013e+01 -2.000000000000e+01 0.0 
2.300000000013e+01 -2.000000000000e+01 0.0 
2.200000000013e+01 -2.000000000000e+01 0.0 
2.100000000013e+01 -2.000000000000e+01 0.0 
2.000000000013e+01 -2.000000000000e+01 0.0 
1.900000000013e+01 -2.000000000000e+01 0.0 
1.800000000013e+01 -2.000000000000e+01 0.0 
1.700000000012e+01 -2.000000000000e+01 0.0 
1.600000000011e+01 -2.000000000000e+01 0.0 
1.500000000011e+01 -2.000000000000e+01 0.0 
1.400000000010e+01 -2.000000000000e+01 0.0 
1.300000000009e+01 -2.000000000000e+01 0.0 
1.200000000009e+01 -2.000000000000e+01 0.0 
1.100000000008e+01 -2.000000000000e+01 0.0 
1.000000000007e+01 -2.000000000000e+01 0.0 
9.000000000064e+00 -2.000000000000e+01 0.0 
8.000000000057e+00 -2.000000000000e+01 0.0 
7.000000000050e+00 -2.000000000000e+01 0.0 
6.000000000043e+00 -2.000000000000e+01 0.0 
5.000000000036e+00 -2.000000000000e+01 0.0 
4.000000000028e+00 -2.000000000000e+01 0.0 
3.000000000021e+00 -2.000000000000e+01 0.0 
2.000000000014e+00 -2.000000000000e+01 0.0 
1.000000000007e+00 -2.000000000000e+01 0.0 
5.000000000000e+01 -1.100000000000e+01 0.0 
5.000000000000e+01 -1.200000000000e+01 0.0 
5.000000000000e+01 -1.300000000000e+01 0.0 
5.000000000000e+01 -1.400000000000e+01 0.0 
5.000000000000e+01 -1.500000000000e+01 0.0 
5.000000000000e+01 -1.600000000000e+01 0.0 
5.000000000000e+01 -1.700000000000e+01 0.0 
5.000000000000e+01 -1.800000000000e+01 0.0 
5.000000000000e+01 -1.900000000000e+01 0.0 
2.000000000000e+01 0.0 0.0 
3.500000000000e+01 -1.000000000000e+01 0.0 
2.150000000000e+01 -1.000000000000e+00 0.0 
2.300000000000e+01 -2.000000000000e+00 0.0 
2.450000000000e+01 -3.000000000000e+00 0.0 
2.600000000000e+01 -4.000000000000e+00 0.0 
2.750000000000e+01 -5.000000000000e+00 0.0 
2.900000000000e+01 -6.000000000000e+00 0.0 
3.050000000000e+01 -7.000000000000e+00 0.0 
3.200000000000e+01 -8.000000000000e+00 0.0 
3.350000000000e+01 -9.000000000000e+00 0.0 
4.900000000000e+01 -1.000000000000e+01 0.0 
4.800000000000e+01 -1.000000000000e+01 0.0 
4.700000000000e+01 -1.000000000000e+01 0.0 
4.600000000000e+01 -1.000000000000e+01 0.0 
4.500000000000e+01 -1.000000000000e+01 0.0 
4.400000000000e+01 -1.000000000000e+01 0.0 
4.300000000000e+01 -1.000000000000e+01 0.0 
4.200000000000e+01 -1.000000000000e+01 0.0 
4.100000000000e+01 -1.000000000000e+01 0.0 
4.000000000000e+01 -1.000000000000e+01 0.0 
3.900000000000e+01 -1.000000000000e+01 0.0 
3.800000000000e+01 -1.000000000000e+01 0.0 
3.700000000000e+01 -1.000000000000e+01 0.0 
3.600000000000e+01 -1.000000000000e+01 0.0 
1.900000000000e+01 0.0 0.0 
1.800000000000e+01 0.0 0.0 
1.700000000000e+01 0.0 0.0 
1.600000000000e+01 0.0 0.0 
1.500000000000e+01 0.0 0.0 
1.400000000000e+01 0.0 0.0 
1.300000000000e+01 0.0 0.0 
1.200000000000e+01 0.0 0.0 
1.100000000000e+01 0.0 0.0 
1.000000000000e+01 0.0 0.0 
9.000000000000e+00 0.0 0.0 
8.000000000000e+00 0.0 0.0 
7.000000000000e+00 0.0 0.0 
6.000000000000e+00 0.0 0.0 
5.000000000000e+00 0.0 0.0 
4.000000000000e+00 0.0 0.0 
3.000000000000e+00 0.0 0.0 
2.000000000000e+00 0.0 0.0 
1.000000000000e+00 0.0 0.0 
2.075000000000e+01 -5.000000000006e-01 0.0 
2.225000000000e+01 -1.500000000000e+00 0.0 
2.375000000000e+01 -2.500000000000e+00 0.0 
2.525000000000e+01 -3.500000000000e+00 0.0 
2.675000000000e+01 -4.500000000000e+00 0.0 
2.825000000000e+01 -5.500000000000e+00 0.0 
2.975000000000e+01 -6.500000000000e+00 0.0 
3.125000000000e+01 -7.500000000000e+00 0.0 
3.275000000000e+01 -8.500000000000e+00 0.0 
3.425000000000e+01 -9.500000000000e+00 0.0 
2.226951693683e+01 -2.403913980114e+00 0.0 
1.650149491944e+01 -1.913490915758e+01 0.0 
1.050042386896e+01 -8.504605092970e-01 0.0 
1.553146524712e+01 -8.281255032105e-01 0.0 
1.150000000008e+01 -1.913397459621e+01 0.0 
2.530060260647e+01 -4.428336431260e+00 0.0 
8.651114563942e-01 -1.052096295641e+01 0.0 
2.050000000013e+01 -1.913397459622e+01 0.0 
2.819198729811e+01 -6.399519052838e+00 0.0 
2.445670302931e+01 -1.915649188023e+01 0.0 
3.117591465718e+01 -8.394293040695e+00 0.0 
7.465053044742e+00 -1.920411160581e+01 0.0 
6.398295709691e+00 -8.230098819370e-01 0.0 
2.849659607461e+01 -1.914296187762e+01 0.0 
3.418732642882e+01 -1.040265792588e+01 0.0 
8.386450935063e-01 -6.533605142809e+00 0.0 
9.178661865596e-01 -1.329769195597e+01 0.0 
3.149448624493e+01 -1.910466733764e+01 0.0 
3.552916747426e+01 -1.914628590759e+01 0.0 
4.449210346537e+01 -1.914359085008e+01 0.0 
4.140975975145e+01 -1.906941860733e+01 0.0 
3.847475958753e+01 -1.916622382724e+01 0.0 
3.653774794640e+01 -1.088712800241e+01 0.0 
4.047886341787e+01 -1.090139014048e+01 0.0 
4.348006339825e+01 -1.092792621489e+01 0.0 
4.919519968029e+01 -1.451526755068e+01 0.0 
4.500000000032e+00 -1.913397459621e+01 0.0 
1.856136921614e+01 -8.212235170404e-01 0.0 
3.499895312306e+00 -8.661165539723e-01 0.0 
9.076088696565e-01 -1.642306201891e+01 0.0 
4.655174095477e+01 -1.086183387525e+01 0.0 
9.430688970604e-01 -3.496112672958e+00 0.0 
3.353992337063e+01 -1.901202090820e+01 0.0 
2.249746016977e+01 -1.921262287282e+01 0.0 
2.650122741777e+01 -1.916123026018e+01 0.0 
1.863571384842e+01 -1.908325534840e+01 0.0 
1.450089971693e+01 -1.917691901860e+01 0.0 
1.350044695317e+01 -8.659695299584e-01 0.0 
3.849987469880e+01 -1.084154983397e+01 0.0 
9.454419857884e+00 -1.900818879936e+01 0.0 
4.917398660523e+01 -1.645692866081e+01 0.0 
8.500000000000e+00 -8.660254037844e-01 0.0 
8.660319230785e-01 -8.500111697188e+00 0.0 
4.649022621545e+01 -1.930506220113e+01 0.0 
2.667688107845e+01 -5.420288124331e+00 0.0 
2.379251615665e+01 -3.412225477429e+00 0.0 
2.966631491830e+01 -7.389030232731e+00 0.0 
3.267915035995e+01 -9.396934932445e+00 0.0 
2.074836922338e+01 -1.320054020319e+00 0.0 
4.915985743621e+01 -1.261973384855e+01 0.0 
2.527129768623e+00 -1.931592414663e+01 0.0 
1.538676247410e+00 -8.436956619311e-01 0.0 
4.908096641539e+01 -1.842484004551e+01 0.0 
3.478612492673e+01 -1.090889364140e+01 0.0 
3.409757055860e+01 -1.131991530427e+01 0.0 
3.501895309466e+01 -1.177687842717e+01 0.0 
3.407758073088e+01 -1.224293381580e+01 0.0 
3.484541875390e+01 -1.277051428430e+01 0.0 
3.400322025842e+01 -1.319022775640e+01 0.0 
3.321672625034e+01 -1.266779191233e+01 0.0 
3.315244139236e+01 -1.360984106532e+01 0.0 
3.236335186892e+01 -1.308463225210e+01 0.0 
3.478337442841e+01 -1.372341158982e+01 0.0 
3.230105923633e+01 -1.403023731610e+01 0.0 
3.150954055289e+01 -1.350301767700e+01 0.0 
3.144604792090e+01 -1.444931742516e+01 0.0 
3.065653897123e+01 -1.392357262981e+01 0.0 
3.071897610812e+01 -1.297447031198e+01 0.0 
2.986790411740e+01 -1.339226181535e+01 0.0 
2.993181466745e+01 -1.244703272398e+01 0.0 
2.908023061869e+01 -1.286254537734e+01 0.0 
2.901619051372e+01 -1.380881655279e+01 0.0 
2.822986160390e+01 -1.327695262116e+01 0.0 
2.829453476870e+01 -1.233265343811e+01 0.0 
2.744542905518e+01 -1.274510491105e+01 0.0 
2.751120089246e+01 -1.180368086886e+01 0.0 
2.666218649885e+01 -1.221619339205e+01 0.0 
2.672371209234e+01 -1.127125228527e+01 0.0 
2.587763216302e+01 -1.168539979114e+01 0.0 
2.581165585299e+01 -1.262994410089e+01 0.0 
2.502890882577e+01 -1.209827323619e+01 0.0 
2.509631327757e+01 -1.115492410304e+01 0.0 
2.424662989877e+01 -1.156630981079e+01 0.0 
2.431704046904e+01 -1.062389179334e+01 0.0 
2.346445438728e+01 -1.103427680694e+01 0.0 
2.339382552877e+01 -1.197964871788e+01 0.0 
2.260936050780e+01 -1.144513277642e+01 0.0 
2.268075012022e+01 -1.049911928216e+01 0.0 
2.182525737661e+01 -1.090920811464e+01 0.0 
2.189682319817e+01 -9.961716944568e+00 0.0 
2.104174127792e+01 -1.037266986667e+01 0.0 
2.111304367575e+01 -9.424179358711e+00 0.0 
2.025306185381e+01 -9.832727364719e+00 0.0 
2.018141124247e+01 -1.079140628871e+01 0.0 
1.938594498257e+01 -1.025147354112e+01 0.0 
1.946106490453e+01 -9.288010758448e+00 0.0 
1.858929958352e+01 -9.706319802516e+00 0.0 
1.851540991219e+01 -1.067205988724e+01 0.0 
1.771485303178e+01 -1.012504443115e+01 0.0 
1.764134552256e+01 -1.109360378538e+01 0.0 
1.683745148095e+01 -1.054496365337e+01 0.0 
1.691852964353e+01 -9.582555261178e+00 0.0 
1.603603813062e+01 -1.000160132379e+01 0.0 
1.595824239350e+01 -1.096750698862e+01 0.0 
1.515080624291e+01 -1.041639501931e+01 0.0 
1.523171602559e+01 -9.451711491453e+00 0.0 
1.434621060709e+01 -9.871956467464e+00 0.0 
1.426777178765e+01 -1.083749501371e+01 0.0 
1.345775282374e+01 -1.028803175500e+01 0.0 
1.354103873368e+01 -9.324918457162e+00 0.0 
1.265072018622e+01 -9.742612837270e+00 0.0 
1.257285762070e+01 -1.071557782384e+01 0.0 
1.175874815690e+01 -1.015972324288e+01 0.0 
1.184203019714e+01 -9.193604071377e+00 0.0 
1.094927709905e+01 -9.612103238656e+00 0.0 
1.086938022910e+01 -1.058685085646e+01 0.0 
1.005424098961e+01 -1.002939116380e+01 0.0 
9.977974613295e+00 -1.101324897989e+01 0.0 
1.012915646404e+01 -9.051815821181e+00 0.0 
9.237127782494e+00 -9.471239055559e+00 0.0 
9.308426593771e+00 -8.483376461131e+00 0.0 
8.418806073345e+00 -8.910712374517e+00 0.0 
2.253688464062e+01 -1.239459402279e+01 0.0 
8.495126726666e+00 -7.921646665254e+00 0.0 
9.389727383206e+00 -7.512103628377e+00 0.0 
7.601560812974e+00 -8.349460349344e+00 0.0 
7.525680547759e+00 -9.339736686940e+00 0.0 
7.677888324502e+00 -7.359727833346e+00 0.0 
6.782001206724e+00 -7.788454494773e+00 0.0 
6.858778622885e+00 -6.797338062822e+00 0.0 
2.196596590865e+01 -8.979025665442e+00 0.0 
2.816540108272e+01 -1.422634142353e+01 0.0 
5.961601194403e+00 -7.226824010712e+00 0.0 
6.038171749656e+00 -6.234825887079e+00 0.0 
6.936257279557e+00 -5.805287640737e+00 0.0 
6.115068918323e+00 -5.242109758768e+00 0.0 
3.564391741903e+01 -1.329240553876e+01 0.0 
3.558115605778e+01 -1.425902892003e+01 0.0 
3.645445282201e+01 -1.381970786460e+01 0.0 
3.639744204358e+01 -1.479198128612e+01 0.0 
3.727266909778e+01 -1.435399586226e+01 0.0 
5.216667013081e+00 -5.671788584287e+00 0.0 
3.220697293295e+01 -1.499594545107e+01 0.0 
3.551112158269e+01 -1.523479869250e+01 0.0 
2.836056961467e+01 -1.139032434851e+01 0.0 
2.516730388602e+01 -1.021382726837e+01 0.0 
1.844436907403e+01 -1.164097215196e+01 0.0 
5.885434318740e+00 -8.218694781467e+00 0.0 
5.064071066867e+00 -7.656614643901e+00 0.0 
4.988089103470e+00 -8.649722082718e+00 0.0 
1.079421050408e+01 -1.157014985435e+01 0.0 
9.902420005256e+00 -1.199903342656e+01 0.0 
1.071994252214e+01 -1.255727909771e+01 0.0 
9.826974788171e+00 -1.298659581767e+01 0.0 
1.064607883789e+01 -1.354595476388e+01 0.0 
9.751541265343e+00 -1.397556905071e+01 0.0 
8.932296185869e+00 -1.341553353988e+01 0.0 
8.856399248106e+00 -1.440570715508e+01 0.0 
8.036186803543e+00 -1.384470558472e+01 0.0 
1.057112875118e+01 -1.453516759081e+01 0.0 
1.146582585687e+01 -1.410539926903e+01 0.0 
7.959894480382e+00 -1.483563350928e+01 0.0 
7.138792279156e+00 -1.427465094140e+01 0.0 
7.062506792418e+00 -1.526615385482e+01 0.0 
6.240693558277e+00 -1.470508863040e+01 0.0 
6.316957575451e+00 -1.371212581281e+01 0.0 
5.418183007107e+00 -1.414253605022e+01 0.0 
5.494748364428e+00 -1.314886770603e+01 0.0 
1.756825565873e+01 -1.206433872514e+01 0.0 
1.837565773345e+01 -1.261356468266e+01 0.0 
1.749574831391e+01 -1.303769280014e+01 0.0 
1.830539187332e+01 -1.358828364284e+01 0.0 
1.742278925170e+01 -1.401367746928e+01 0.0 
1.823303007798e+01 -1.456432294258e+01 0.0 
1.734941694138e+01 -1.499213734361e+01 0.0 
1.653760041637e+01 -1.443920312098e+01 0.0 
3.056237977307e+01 -1.487132260174e+01 0.0 
1.866469084762e+01 -8.742953000418e+00 0.0 
1.953669694916e+01 -8.326038909849e+00 0.0 
1.874194303780e+01 -7.780688158966e+00 0.0 
1.961032016741e+01 -7.366854697285e+00 0.0 
1.881715755159e+01 -6.821102209649e+00 0.0 
1.968369797150e+01 -6.407747217358e+00 0.0 
1.889237123259e+01 -5.858375520026e+00 0.0 
1.802038875366e+01 -6.276202618170e+00 0.0 
1.809793837984e+01 -5.307629520489e+00 0.0 
1.721985207997e+01 -5.728242054488e+00 0.0 
1.729850893523e+01 -4.756990819347e+00 0.0 
1.641745664240e+01 -5.174636548624e+00 0.0 
2.495978509456e+01 -1.304406404294e+01 0.0 
1.911567814831e+01 -1.413854250293e+01 0.0 
1.904387332608e+01 -1.511463127723e+01 0.0 
1.992115934240e+01 -1.468788025898e+01 0.0 
7.013706899628e+00 -4.812582868662e+00 0.0 
5.342091874585e+00 -1.513658157269e+01 0.0 
1.139098043784e+01 -1.509488509480e+01 0.0 
1.228151810610e+01 -1.465617481983e+01 0.0 
1.646373110164e+01 -1.541993323337e+01 0.0 
5.293328636712e+00 -4.678385108584e+00 0.0 
1.975965862987e+01 -5.448124345648e+00 0.0 
2.054318374236e+01 -5.992561293251e+00 0.0 
3.721453439063e+01 -1.533216152738e+01 0.0 
3.809302733893e+01 -1.489235527381e+01 0.0 
1.220852788900e+01 -1.565304565230e+01 0.0 
4.394120899730e+00 -5.108397613210e+00 0.0 
8.779354620288e+00 -1.539524721159e+01 0.0 
1.817791047702e+01 -4.338570146253e+00 0.0 
4.518860013839e+00 -1.457343189307e+01 0.0 
4.442712140414e+00 -1.556841391069e+01 0.0 
8.115343466391e+00 -1.285760324283e+01 0.0 
1.985334703171e+01 -1.566478400426e+01 0.0 
2.071953850276e+01 -1.522074243119e+01 0.0 
1.634012953883e+01 -6.154777738301e+00 0.0 
1.553479994708e+01 -5.593730508879e+00 0.0 
1.561265946942e+01 -4.617761762647e+00 0.0 
1.470674212978e+01 -5.064576488228e+00 0.0 
1.464498299883e+01 -6.026514471420e+00 0.0 
1.383271561817e+01 -5.467796261169e+00 0.0 
1.389241253067e+01 -4.504338666645e+00 0.0 
1.301868735463e+01 -4.907185188626e+00 0.0 
1.294514184846e+01 -5.888160903592e+00 0.0 
1.212955968622e+01 -5.328262335277e+00 0.0 
1.220721122383e+01 -4.341264976687e+00 0.0 
1.131324345897e+01 -4.766773516508e+00 0.0 
5.266597955397e+00 -1.613148974258e+01 0.0 
1.737805990867e+01 -3.786677807525e+00 0.0 
3.078438094513e+01 -1.203225297748e+01 0.0 
1.131569882285e+01 -1.608511932110e+01 0.0 
1.728478341782e+01 -1.596017432313e+01 0.0 
3.803465906019e+01 -1.587509751228e+01 0.0 
3.891681276677e+01 -1.543395196905e+01 0.0 
3.897340985302e+01 -1.444710288980e+01 0.0 
3.980095968193e+01 -1.499059496613e+01 0.0 
3.974334598189e+01 -1.597921884150e+01 0.0 
4.062964983717e+01 -1.553518690417e+01 0.0 
4.068729602479e+01 -1.454434445295e+01 0.0 
4.151772679790e+01 -1.508974196007e+01 0.0 
4.157505195739e+01 -1.409694289912e+01 0.0 
4.240699932656e+01 -1.464347955968e+01 0.0 
4.234898051011e+01 -1.563721375790e+01 0.0 
4.323934606035e+01 -1.519082036405e+01 0.0 
4.329740528208e+01 -1.419587509788e+01 0.0 
4.413056841369e+01 -1.474359631875e+01 0.0 
4.418850110108e+01 -1.374786684042e+01 0.0 
4.502219770667e+01 -1.429605103525e+01 0.0 
4.496411937907e+01 -1.529215882720e+01 0.0 
4.490027319897e+00 -4.154167794594e+00 0.0 
1.565080385988e+01 -1.486411982419e+01 0.0 
1.557610691279e+01 -1.584855627870e+01 0.0 
4.195350646612e+00 -8.089117689096e+00 0.0 
4.124027797830e+00 -9.082831955007e+00 0.0 
4.917944318925e+00 -9.643530901533e+00 0.0 
4.020105689502e+00 -1.007439673661e+01 0.0 
4.587185899277e+01 -1.484039992728e+01 0.0 
4.580078661551e+01 -1.584043391042e+01 0.0 
2.061956522375e+01 -5.046701343981e+00 0.0 
2.139572955529e+01 -5.579553449826e+00 0.0 
3.715344357292e+01 -1.631485124583e+01 0.0 
3.618886196443e+00 -1.500471207167e+01 0.0 
3.695606940204e+00 -1.400939692294e+01 0.0 
2.438890661143e+01 -9.686110599723e+00 0.0 
2.523267572778e+01 -9.276766000622e+00 0.0 
2.446094171539e+01 -8.751904591412e+00 0.0 
2.529089822738e+01 -8.321495612547e+00 0.0 
2.606882688827e+01 -8.864724051119e+00 0.0 
2.452116646430e+01 -7.792756462004e+00 0.0 
1.235543269617e+01 -1.365845617339e+01 0.0 
4.318116874181e+01 -1.618567469992e+01 0.0 
7.835066111909e+00 -5.376366223896e+00 0.0 
7.905687335704e+00 -4.382539065697e+00 0.0 
3.542640009567e+00 -1.600035116542e+01 0.0 
1.572431503071e+01 -1.388358386695e+01 0.0 
2.574684696680e+01 -1.357896141127e+01 0.0 
2.488842657651e+01 -1.399674354505e+01 0.0 
2.568301775611e+01 -1.453552048595e+01 0.0 
2.481535572009e+01 -1.495542756508e+01 0.0 
2.561729699688e+01 -1.549784648532e+01 0.0 
2.474623061296e+01 -1.592058894178e+01 0.0 
2.394234041695e+01 -1.537572575827e+01 0.0 
2.065825452567e+01 -1.621899055217e+01 0.0 
2.387180528935e+01 -1.634552264687e+01 0.0 
4.585364400844e+01 -1.383912334080e+01 0.0 
1.998744432052e+01 -1.370317155541e+01 0.0 
1.205356951443e+01 -6.313580285498e+00 0.0 
5.396543905849e+00 -3.731818611283e+00 0.0 
1.139652573295e+01 -3.745819399350e+00 0.0 
3.574124306703e+00 -4.551456826011e+00 0.0 
3.494140761930e+00 -5.539787055649e+00 0.0 
1.213651452413e+01 -1.664505033022e+01 0.0 
2.555045568519e+01 -1.646529356744e+01 0.0 
2.641671114986e+01 -1.603899382371e+01 0.0 
2.612920721894e+01 -7.906435260873e+00 0.0 
2.690339829698e+01 -8.456969591431e+00 0.0 
1.978024383368e+01 -1.664410216353e+01 0.0 
3.732829979082e+01 -1.336926601859e+01 0.0 
4.074336584605e+01 -1.355133328401e+01 0.0 
4.163204691081e+01 -1.310280943992e+01 0.0 
3.773826114429e+00 -3.493444309145e+00 0.0 
1.228783001032e+01 -3.374822835872e+00 0.0 
4.057110462520e+01 -1.652588478000e+01 0.0 
2.132535497898e+01 -6.523623360525e+00 0.0 
2.216932532211e+01 -6.110044769206e+00 0.0 
1.825781152128e+01 -3.370146817147e+00 0.0 
1.745679445888e+01 -2.812942552063e+00 0.0 
4.666517057280e+01 -1.539981381543e+01 0.0 
4.660575894464e+01 -1.639014410186e+01 0.0 
4.838230979954e+00 -1.063643436446e+01 0.0 
3.938942630206e+00 -1.106778981745e+01 0.0 
1.302967218620e+01 -1.621373452436e+01 0.0 
1.049548003190e+01 -4.204825123240e+00 0.0 
4.573571907195e+01 -1.683820511148e+01 0.0 
1.483686335807e+01 -1.430849689310e+01 0.0 
1.490982658890e+01 -1.332679386284e+01 0.0 
3.190805600162e+00 -9.510968358545e+00 0.0 
2.146625721848e+01 -4.642437303115e+00 0.0 
2.069866208266e+01 -4.111852942193e+00 0.0 
1.286859345584e+01 -6.873252723348e+00 0.0 
1.041794493184e+01 -5.194814260291e+00 0.0 
2.671081808965e+00 -4.976806516331e+00 0.0 
1.295786792925e+01 -1.720506531799e+01 0.0 
3.968438206511e+01 -1.696869067241e+01 0.0 
2.308550456051e+01 -1.579963151273e+01 0.0 
2.315593682844e+01 -1.482967445235e+01 0.0 
2.299471449450e+01 -1.677069968132e+01 0.0 
1.057344714696e+01 -3.214252277840e+00 0.0 
1.124057603753e+01 -1.707713739755e+01 0.0 
2.718402535754e+00 -1.543629882103e+01 0.0 
2.638549692805e+01 -1.696744916809e+01 0.0 
2.723416349007e+01 -1.658104204545e+01 0.0 
2.210193351704e+01 -7.046769643417e+00 0.0 
2.295180925161e+01 -6.657397605239e+00 0.0 
2.301355235833e+01 -5.709111896800e+00 0.0 
2.379052718281e+01 -6.254965406962e+00 0.0 
3.243528601237e+01 -1.214181853533e+01 0.0 
2.287977995457e+01 -7.583722368300e+00 0.0 
2.999876029544e+01 -1.150837653096e+01 0.0 
3.084435366963e+01 -1.109693775882e+01 0.0 
3.006650579669e+01 -1.057778994262e+01 0.0 
2.683802665066e+01 -9.386863216633e+00 0.0 
2.768641973621e+01 -8.988883915666e+00 0.0 
2.040296980397e+01 -7.903629133404e+00 0.0 
1.925235024054e+01 -1.218872783130e+01 0.0 
5.735667000424e+00 -1.020577277283e+01 0.0 
6.396559909872e+00 -1.272326295703e+01 0.0 
1.161199420714e+01 -1.212812778229e+01 0.0 
4.229046132615e+01 -1.663084237572e+01 0.0 
4.312275399692e+01 -1.718087491556e+01 0.0 
4.335502068163e+01 -1.320039231514e+01 0.0 
4.424630298089e+01 -1.275160688731e+01 0.0 
7.090116643816e+00 -3.818998061530e+00 0.0 
7.989472176569e+00 -3.389238711200e+00 0.0 
9.085824861778e+00 -1.144036167408e+01 0.0 
1.041972423731e+01 -1.651614080893e+01 0.0 
3.797525112640e+01 -1.686052038746e+01 0.0 
3.709114253394e+01 -1.730125999865e+01 0.0 
3.626966748340e+01 -1.675477052919e+01 0.0 
1.385164591440e+01 -1.677597757552e+01 0.0 
1.787152588784e+01 -8.198993896093e+00 0.0 
1.668849729812e+01 -1.248560611628e+01 0.0 
1.659546177905e+01 -3.232482605530e+00 0.0 
2.332214717345e+01 -1.292598167641e+01 0.0 
7.168238450786e+00 -2.824711686516e+00 0.0 
2.894878403906e+01 -1.475427524446e+01 0.0 
2.646763248247e+00 -1.643270107952e+01 0.0 
3.467431944285e+00 -1.699648837348e+01 0.0 
2.059475877282e+01 -1.719473628526e+01 0.0 
3.333868355437e+01 -1.080596971682e+01 0.0 
2.246451062637e+01 -1.334557761546e+01 0.0 
2.167821896388e+01 -1.280847834858e+01 0.0 
3.089653185767e+01 -1.017198487212e+01 0.0 
3.012604365669e+01 -9.657298805968e+00 0.0 
2.929627299435e+01 -1.006100135274e+01 0.0 
2.936201435219e+01 -9.136748899251e+00 0.0 
1.198219052702e+01 -7.291887238230e+00 0.0 
1.116702076035e+01 -6.731976101053e+00 0.0 
2.551388807505e+01 -1.746927036981e+01 0.0 
2.378639090370e+01 -1.728678807149e+01 0.0 
2.718543627188e+01 -1.748668016909e+01 0.0 
2.804681050301e+01 -1.712626668293e+01 0.0 
1.970737034667e+01 -1.762317646822e+01 0.0 
1.889535776135e+01 -1.707158098231e+01 0.0 
2.593777711283e+00 -5.971157087874e+00 0.0 
2.773468281110e+01 -8.067164273938e+00 0.0 
4.051205884347e+01 -1.751819982458e+01 0.0 
3.166903145421e+01 -1.068032992414e+01 0.0 
1.033042452886e+01 -1.748285844336e+01 0.0 
9.519274604626e+00 -1.694349240233e+01 0.0 
1.668308673328e+01 -2.255861778986e+00 0.0 
1.570531902832e+01 -2.676795860126e+00 0.0 
4.655826903379e+01 -1.736656245706e+01 0.0 
2.384148070773e+01 -5.328744256413e+00 0.0 
2.460255123641e+01 -5.852182672816e+00 0.0 
2.306638135119e+01 -4.798935440613e+00 0.0 
8.467720450578e-01 -1.849576263072e+01 0.0 
4.849657322345e+01 -1.084860705506e+01 0.0 
2.565860899507e+00 -1.742859793981e+01 0.0 
2.764418872564e+01 -9.927142821799e+00 0.0 
4.565165880064e+01 -1.785336695404e+01 0.0 
2.162231831329e+01 -1.376528337468e+01 0.0 
2.360646352969e+01 -9.136041963102e+00 0.0 
1.392738739903e+01 -1.578285505772e+01 0.0 
4.756405947478e+01 -1.683706841809e+01 0.0 
4.740895034054e+01 -1.793766756892e+01 0.0 
4.080779328826e+01 -1.257387192544e+01 0.0 
4.168907939671e+01 -1.210739129181e+01 0.0 
3.991197722154e+01 -1.300815793917e+01 0.0 
1.905536506762e+01 -3.940076697685e+00 0.0 
1.923879596617e+01 -2.875000734166e+00 0.0 
4.401386745746e+01 -1.673483229438e+01 0.0 
4.247233362525e+00 -7.094581653070e+00 0.0 
3.286051630211e+00 -7.635300020553e+00 0.0 
9.609533347623e+00 -4.594311677967e+00 0.0 
9.523554636369e+00 -5.595597029530e+00 0.0 
5.660336628893e+00 -1.119290329628e+01 0.0 
6.558070063295e+00 -1.076385809362e+01 0.0 
2.809866407414e+01 -1.518037766799e+01 0.0 
2.888868674504e+01 -1.570360690070e+01 0.0 
2.654431550819e+01 -1.411217777162e+01 0.0 
1.402158265969e+01 -1.375404617952e+01 0.0 
1.409592494026e+01 -1.277071998942e+01 0.0 
1.499355196178e+01 -1.235270737023e+01 0.0 
4.221535326155e+01 -1.759335617494e+01 0.0 
4.305583287033e+01 -1.822663146802e+01 0.0 
1.280748808359e+01 -7.834332838285e+00 0.0 
1.368988389326e+01 -7.420529606172e+00 0.0 
1.110091796060e+01 -7.683966794328e+00 0.0 
3.963446145980e+01 -1.794331310122e+01 0.0 
3.423932362213e+00 -1.796415590455e+01 0.0 
4.280814572302e+00 -1.752272834860e+01 0.0 
8.050136380041e+00 -2.421582378631e+00 0.0 
8.888674091650e+00 -2.984264211327e+00 0.0 
2.152839430898e+01 -3.732609965436e+00 0.0 
2.077799585292e+01 -3.183896021866e+00 0.0 
3.618719395821e+01 -1.770276572576e+01 0.0 
3.538165138340e+01 -1.718709995539e+01 0.0 
3.702925326420e+01 -1.828844288807e+01 0.0 
1.756739438711e+00 -5.353284859169e+00 0.0 
2.233710191104e+01 -1.527265621324e+01 0.0 
1.389483555057e+01 -1.771797164730e+01 0.0 
1.475634224300e+01 -1.728357428390e+01 0.0 
1.298797563052e+01 -1.825968924755e+01 0.0 
2.145331271866e+01 -1.673705379077e+01 0.0 
2.133282821169e+01 -1.769400773673e+01 0.0 
2.292139194136e+01 -1.774915400288e+01 0.0 
1.750750053243e+01 -1.861475593469e+00 0.0 
4.830478841772e+01 -1.752611802221e+01 0.0 
4.341203507805e+01 -1.220326745522e+01 0.0 
1.685254151866e+01 -1.443085301632e+00 0.0 
4.431538535165e+01 -1.171841387375e+01 0.0 
4.511308610496e+01 -1.229557320599e+01 0.0 
4.510133242889e+01 -1.123680627466e+01 0.0 
1.846818030617e+00 -4.410877617069e+00 0.0 
3.995468694584e+01 -1.186571542989e+01 0.0 
3.901387459804e+01 -1.242507616755e+01 0.0 
8.966735877533e+00 -1.837818700423e+00 0.0 
4.049310011091e+01 -1.848269508791e+01 0.0 
7.278862053803e+00 -1.918523922691e+00 0.0 
6.429715522129e+00 -2.316676521184e+00 0.0 
9.443505505022e+00 -1.792198868094e+01 0.0 
8.620386951051e+00 -1.737590365556e+01 0.0 
8.571868171503e+00 -1.834436667826e+01 0.0 
7.758629848526e+00 -1.775677907213e+01 0.0 
7.806648388584e+00 -1.680761266021e+01 0.0 
6.908555145436e+00 -1.723746463044e+01 0.0 
4.251709122090e+01 -1.156937480156e+01 0.0 
6.931136405615e+00 -1.832465719263e+01 0.0 
6.015545461353e+00 -1.768865355295e+01 0.0 
5.960535926343e+00 -1.872011001764e+01 0.0 
3.023253444786e+01 -8.761960642196e+00 0.0 
2.454622702599e+01 -6.749421992767e+00 0.0 
2.537499741604e+01 -6.347634963783e+00 0.0 
2.544077378460e+01 -5.431358513649e+00 0.0 
2.801367161747e+01 -1.820907270221e+01 0.0 
2.884507806914e+01 -1.762032095326e+01 0.0 
1.821474531936e+00 -1.588901260460e+01 0.0 
1.821006262604e+00 -1.489370287756e+01 0.0 
4.599962488908e+01 -1.176478780598e+01 0.0 
4.705457470007e+01 -1.172182804229e+01 0.0 
4.667668314802e+01 -1.263464558483e+01 0.0 
4.759648056504e+01 -1.252380987933e+01 0.0 
4.728041618103e+01 -1.341928568376e+01 0.0 
4.825209352360e+01 -1.330491640804e+01 0.0 
4.778118233428e+01 -1.420151961695e+01 0.0 
2.388192727579e+01 -1.826934810142e+01 0.0 
2.381714684947e+01 -4.385917965223e+00 0.0 
3.172733219247e+01 -9.758744265248e+00 0.0 
1.882012070658e+01 -1.805540597212e+01 0.0 
1.805667505243e+01 -1.742221226236e+01 0.0 
2.852599958080e+01 -8.597196079481e+00 0.0 
2.856486123437e+01 -7.661382718527e+00 0.0 
1.111792842875e+01 -1.818223852980e+01 0.0 
2.203322722466e+01 -7.986646678802e+00 0.0 
3.955703676900e+01 -1.903246763601e+01 0.0 
1.944842206513e+01 -8.038750575182e-01 0.0 
1.909882767783e+01 -1.746322740933e+00 0.0 
2.281147422941e+01 -8.525912918334e+00 0.0 
2.850633001468e+01 -9.533271335986e+00 0.0 
2.532883344309e+01 -7.308951659710e+00 0.0 
2.620475466461e+01 -6.979208585400e+00 0.0 
1.396278270396e+01 -1.475095389807e+01 0.0 
9.791001166724e+00 -2.554159793552e+00 0.0 
2.229293380421e+01 -4.269762271052e+00 0.0 
4.677238984118e+01 -1.430071795514e+01 0.0 
2.228658385918e+01 -3.344747535984e+00 0.0 
8.940223674553e-01 -1.543595733415e+01 0.0 
2.118566862474e+01 -8.435876987696e+00 0.0 
2.678325936437e+01 -1.032621195706e+01 0.0 
2.223400220487e+01 -5.179046761770e+00 0.0 
2.375370625384e+01 -7.251580562134e+00 0.0 
3.156971327386e+01 -1.255534750737e+01 0.0 
3.328226391312e+01 -1.172914813316e+01 0.0 
3.250948774219e+01 -1.120157009348e+01 0.0 
2.032993445717e+01 -8.867880112202e+00 0.0 
2.697226974856e+01 -7.536633082045e+00 0.0 
2.707377810386e+01 -6.590835263295e+00 0.0 
2.914099246827e+01 -1.191678458549e+01 0.0 
3.544824072239e+01 -1.621126558525e+01 0.0 
3.456511855436e+01 -1.665054783843e+01 0.0 
3.448395810225e+01 -1.759117813016e+01 0.0 
3.368378673938e+01 -1.708037781328e+01 0.0 
3.375560452567e+01 -1.610973066913e+01 0.0 
3.288001547988e+01 -1.654324255651e+01 0.0 
3.282475929147e+01 -1.749725654692e+01 0.0 
3.199880906313e+01 -1.697294088625e+01 0.0 
3.197001272932e+01 -1.811667776864e+01 0.0 
3.111884713021e+01 -1.742166785755e+01 0.0 
3.120418962865e+01 -1.642155709385e+01 0.0 
3.034666704371e+01 -1.683123833816e+01 0.0 
3.026224379976e+01 -1.772592851714e+01 0.0 
3.046632362943e+01 -1.582232843075e+01 0.0 
1.961344017324e+01 -1.857459447985e+01 0.0 
2.274975894774e+01 -9.532738811922e+00 0.0 
1.833923246887e+01 -2.396746883672e+00 0.0 
1.988859500848e+01 -2.249244376594e+00 0.0 
2.758045562861e+01 -1.086434261689e+01 0.0 
3.247300178163e+01 -1.909930104252e+01 0.0 
3.461947482503e+01 -1.911879848019e+01 0.0 
2.047161538662e+01 -6.941478180358e+00 0.0 
2.750230940214e+01 -1.915490590764e+01 0.0 
3.165081350803e+01 -1.161860780120e+01 0.0 
1.897456727641e+01 -4.889634688522e+00 0.0 
2.549338539756e+01 -1.914858252089e+01 0.0 
3.462873135081e+01 -1.567482276144e+01 0.0 
3.384432415243e+01 -1.512280684518e+01 0.0 
3.471433767690e+01 -1.469086942990e+01 0.0 
3.651470373046e+01 -1.918207952149e+01 0.0 
3.901742690249e+01 -1.345028556517e+01 0.0 
2.153224102692e+01 -1.920169709333e+01 0.0 
1.918382939341e+01 -1.316226275662e+01 0.0 
2.005389162382e+01 -1.271962165174e+01 0.0 
2.011472087878e+01 -1.175029352900e+01 0.0 
3.210679478412e+01 -1.598038618242e+01 0.0 
1.752175226543e+01 -1.914713022656e+01 0.0 
1.696897240059e+01 -1.832772588765e+01 0.0 
1.599682523337e+01 -1.832599992024e+01 0.0 
1.644507199462e+01 -1.743697981535e+01 0.0 
1.549987712903e+01 -1.915192375101e+01 0.0 
3.050250861901e+01 -1.918943550234e+01 0.0 
2.949944061527e+01 -1.922950455235e+01 0.0 
1.375892575273e+01 -6.447160534926e+00 0.0 
1.457223670180e+01 -7.006709243857e+00 0.0 
1.450818793236e+01 -7.965943451779e+00 0.0 
1.538804712402e+01 -7.553409623699e+00 0.0 
1.545817644768e+01 -6.580929593419e+00 0.0 
1.626506893751e+01 -7.129032608911e+00 0.0 
1.619833811522e+01 -8.086588580887e+00 0.0 
1.714448609609e+01 -6.697429609777e+00 0.0 
2.887616543568e+01 -1.668015232137e+01 0.0 
1.349814589130e+01 -1.918225301544e+01 0.0 
1.153887772210e+01 -1.311384581217e+01 0.0 
1.242708159886e+01 -1.267046795531e+01 0.0 
1.249799674267e+01 -1.169005616014e+01 0.0 
6.631723893693e+00 -9.774184881867e+00 0.0 
7.451471631867e+00 -1.033148796006e+01 0.0 
7.377795355458e+00 -1.132196345268e+01 0.0 
5.810931797536e+00 -9.211654212252e+00 0.0 
2.402683899133e+01 -1.441378562320e+01 0.0 
1.249768692036e+01 -1.917388426624e+01 0.0 
1.580373499437e+01 -1.290751860664e+01 0.0 
8.344650507834e+00 -9.898403995170e+00 0.0 
3.750622115305e+01 -1.086526401533e+01 0.0 
3.699391251667e+01 -1.171695900794e+01 0.0 
3.606517829518e+01 -1.173717504500e+01 0.0 
3.650257641795e+01 -1.270047380221e+01 0.0 
3.808951488918e+01 -1.183518714175e+01 0.0 
4.760380962420e+00 -1.162484888315e+01 0.0 
3.861210370848e+00 -1.205657631736e+01 0.0 
3.038284309476e+00 -1.149851280664e+01 0.0 
2.961598794889e+00 -1.248856794980e+01 0.0 
2.138953225512e+00 -1.193212674534e+01 0.0 
2.227383593457e+00 -1.096258903918e+01 0.0 
2.043265419276e+00 -1.292158472959e+01 0.0 
1.252449446028e+00 -1.225502002753e+01 0.0 
3.949985210740e+01 -1.086594001795e+01 0.0 
1.453499444792e+01 -8.768805922472e-01 0.0 
1.403518950933e+01 -1.749965556633e+00 0.0 
1.300715031023e+01 -1.714737233040e+00 0.0 
1.350929389899e+01 -2.527443911291e+00 0.0 
1.449600910711e+01 -2.595486162864e+00 0.0 
1.395693872901e+01 -3.484211041558e+00 0.0 
1.495105865208e+01 -3.364609636216e+00 0.0 
1.508822528740e+01 -1.766586020494e+00 0.0 
1.250223858430e+01 -8.634590186802e-01 0.0 
1.200279523409e+01 -1.709044504992e+00 0.0 
1.150086239419e+01 -8.592789190668e-01 0.0 
1.101482754194e+01 -1.677730591922e+00 0.0 
1.148018564526e+01 -2.659323866909e+00 0.0 
8.800552119754e+00 -3.989875954728e+00 0.0 
3.452790439430e+00 -1.901136170646e+01 0.0 
8.658451825200e-01 -9.503462241795e+00 0.0 
1.694787786797e+00 -9.000589234502e+00 0.0 
1.703436717094e+00 -8.038819004041e+00 0.0 
2.594197971110e+00 -8.563955242845e+00 0.0 
1.630513735412e+00 -9.907244747511e+00 0.0 
8.566859292791e-01 -7.512203837972e+00 0.0 
1.685461277022e+00 -7.164280248030e+00 0.0 
2.506394468801e+00 -8.623386730818e-01 0.0 
2.007475081581e+00 -1.727729545205e+00 0.0 
9.211534699767e-01 -1.628791366312e+00 0.0 
1.500000000020e+00 -2.598063549486e+00 0.0 
2.482078929963e+00 -2.553580088725e+00 0.0 
2.999795253092e+00 -1.732169015019e+00 0.0 
3.999712607169e+00 -1.728832897453e+00 0.0 
4.499752199340e+00 -8.656478679175e-01 0.0 
4.964377774841e+00 -1.730129617941e+00 0.0 
4.425017908337e+00 -2.597541756243e+00 0.0 
5.446573195014e+00 -8.410144840023e-01 0.0 
4.915722346614e+01 -1.550640962770e+01 0.0 
4.826794919243e+01 -1.600000000000e+01 0.0 
1.053139533193e+01 -1.911782884365e+01 0.0 
4.156049861949e+01 -1.095160998589e+01 0.0 
9.494526624416e+00 -8.650570090219e-01 0.0 
4.555762166964e+01 -1.897098103585e+01 0.0 
4.250656411371e+01 -1.914387356218e+01 0.0 
4.350906466345e+01 -1.917234727395e+01 0.0 
8.759665722424e-01 -1.746422130609e+01 0.0 
1.698936011838e+00 -1.795012186674e+01 0.0 
4.742476811029e+01 -1.900090177972e+01 0.0 
7.749196752349e+00 -6.368049313489e+00 0.0 
3.361572113416e+01 -1.798765193915e+01 0.0 
4.484660149212e+01 -1.728661231383e+01 0.0 
1.984038172228e+01 -4.502575320116e+00 0.0 
1.035080352627e+01 -6.166639575753e+00 0.0 
2.753558010652e+00 -1.444909521181e+01 0.0 
7.217069543032e+00 -1.328635391078e+01 0.0 
4.364336727739e+00 -1.655585677381e+01 0.0 
4.595208426108e+00 -1.357919665443e+01 0.0 
6.164967006980e+00 -1.569873454630e+01 0.0 
1.487855768353e+01 -1.826523774028e+01 0.0 
2.791876456372e+00 -4.019632415181e+00 0.0 
4.246464893515e+01 -1.364898659620e+01 0.0 
4.503855590351e+01 -1.329552780944e+01 0.0 
4.407239109604e+01 -1.573900004093e+01 0.0 
5.141054449252e+00 -6.664290382472e+00 0.0 
3.141083947149e+00 -1.055790764912e+01 0.0 
6.196463198741e+00 -4.256497932609e+00 0.0 
2.599618716181e+01 -1.836893455464e+01 0.0 
2.923057372337e+01 -1.098461757645e+01 0.0 
1.168343877486e+01 -1.114079645041e+01 0.0 
6.706222096238e+00 -8.780364234441e+00 0.0 
8.567858614669e+00 -6.943121440850e+00 0.0 
1.123755132901e+01 -5.753525820030e+00 0.0 
2.353456234423e+01 -1.008536320953e+01 0.0 
9.162073319168e+00 -1.045593739109e+01 0.0 
9.676343469685e+00 -1.496493008366e+01 0.0 
4.490637882905e+01 -1.628778970202e+01 0.0 
7.398129387772e+00 -9.639977982323e-01 0.0 
1.049641705805e+01 -1.552503975272e+01 0.0 
9.010356286268e+00 -1.242805042052e+01 0.0 
3.985573925497e+01 -1.399863651620e+01 0.0 
1.816196318262e+01 -1.554066497931e+01 0.0 
1.306332244168e+01 -3.963646550326e+00 0.0 
4.145850903932e+01 -1.608094559275e+01 0.0 
3.794664933633e+01 -1.779020121986e+01 0.0 
3.819614412903e+01 -1.290749321016e+01 0.0 
6.270014188119e+00 -3.255093186826e+00 0.0 
4.251165370388e+01 -1.263870364997e+01 0.0 
1.207347709171e+01 -1.763942826023e+01 0.0 
3.633240829927e+01 -1.577330481104e+01 0.0 
4.319052668832e+00 -6.101812561904e+00 0.0 
1.676492415806e+01 -1.151547901392e+01 0.0 
2.594059220037e+01 -1.074225223009e+01 0.0 
3.340750911501e+01 -9.898764354137e+00 0.0 
4.397619591281e+01 -1.769773736461e+01 0.0 
2.175611595028e+01 -1.185718747128e+01 0.0 
1.641818733106e+01 -1.640685203215e+01 0.0 
1.661211421753e+01 -1.346121366338e+01 0.0 
3.428853504935e+00 -6.551993389271e+00 0.0 
8.700728832502e+00 -1.638460872825e+01 0.0 
1.931369795309e+01 -1.121629383702e+01 0.0 
4.139798872363e+01 -1.706922153459e+01 0.0 
2.647837478700e+01 -1.507353829290e+01 0.0 
1.779469616424e+01 -9.161615782908e+00 0.0 
3.885879219319e+01 -1.642026488918e+01 0.0 
1.338194936770e+01 -1.125916521471e+01 0.0 
1.897071181111e+01 -1.609204322578e+01 0.0 
2.844308548793e+01 -1.046221003096e+01 0.0 
2.659854702194e+01 -1.316109415760e+01 0.0 
2.979604503271e+01 -1.433296157755e+01 0.0 
2.417694041347e+01 -1.251231397779e+01 0.0 
1.807401327411e+00 -1.388891148480e+01 0.0 
9.599810618782e+00 -1.595439365034e+01 0.0 
1.652144692160e+01 -4.205392788472e+00 0.0 
2.367839450246e+01 -8.188385218643e+00 0.0 
3.814894930468e+01 -1.390748338767e+01 0.0 
2.466448215774e+01 -1.685878545680e+01 0.0 
4.134044524611e+01 -1.806610045954e+01 0.0 
2.600511411958e+01 -9.801774120648e+00 0.0 
7.882158050716e+00 -1.582364037353e+01 0.0 
3.881607873422e+01 -1.737970515013e+01 0.0 
8.270182347708e+00 -1.088622154920e+01 0.0 
8.672520392520e-01 -4.532984309881e+00 0.0 
1.993447205337e+01 -3.579061902667e+00 0.0 
1.794616079549e+01 -7.238038888498e+00 0.0 
2.097277068165e+01 -1.132450168636e+01 0.0 
8.194803300681e+00 -1.187214224265e+01 0.0 
3.522279404911e+01 -1.823342818178e+01 0.0 
6.984481050295e+00 -1.625271465557e+01 0.0 
1.309433007797e+01 -1.521718594215e+01 0.0 
2.150246167611e+01 -1.885399038185e+00 0.0 
3.250689370209e+01 -1.028789870535e+01 0.0 
6.085886272238e+00 -1.668342132851e+01 0.0 
1.588455661727e+01 -1.193498985921e+01 0.0 
1.809323400821e+01 -1.651110084195e+01 0.0 
1.348885082381e+00 -1.136065576512e+01 0.0 
2.497670221995e+01 -1.834631276173e+01 0.0 
2.937062818424e+01 -8.233711194470e+00 0.0 
5.185823744469e+00 -1.711566910207e+01 0.0 
1.477497877209e+01 -1.530177014512e+01 0.0 
2.125346158933e+01 -7.473003997367e+00 0.0 
4.751561118290e+01 -1.084897772632e+01 0.0 
5.056026576843e+00 -1.825750475525e+01 0.0 
1.473948554523e+01 -1.634577436309e+01 0.0 
2.410566630936e+01 -1.345970002612e+01 0.0 
1.507337507513e+01 -1.138527895328e+01 0.0 
3.189857338687e+01 -8.887781229006e+00 0.0 
7.298712468334e+00 -1.230231046246e+01 0.0 
2.738235495295e+01 -1.368931690364e+01 0.0 
3.750141041969e+01 -1.920449893070e+01 0.0 
1.557271965640e+01 -1.683317951731e+01 0.0 
3.393731848929e+01 -1.413034777044e+01 0.0 
6.482156824153e+00 -1.174575135362e+01 0.0 
2.077971718439e+01 -1.421279621836e+01 0.0 
3.455084320178e+00 -2.562590040585e+00 0.0 
3.099056096250e+01 -9.270280416035e+00 0.0 
5.580176125418e+00 -1.217387969259e+01 0.0 
1.707247630389e+01 -7.660651981710e+00 0.0 
1.418658814174e+01 -1.180390575393e+01 0.0 
2.049103025389e+01 -1.811296706038e+01 0.0 
4.680386172316e+00 -1.260396879301e+01 0.0 
1.699679896554e+01 -8.624561788199e+00 0.0 
3.779470168555e+00 -1.303424899720e+01 0.0 
3.036589870126e+01 -7.879832518349e+00 0.0 
3.306993001774e+01 -1.457671062095e+01 0.0 
2.840150110165e+00 -1.346530088269e+01 0.0 
2.732011135052e+01 -1.464591214560e+01 0.0 
5.423639259568e+00 -2.659711955016e+00 0.0 
2.324455961696e+01 -1.387269388211e+01 0.0 
1.752768355571e+00 -1.693128613594e+01 0.0 
1.020244783051e+01 -8.076834012808e+00 0.0 
1.330873875224e+01 -1.222417528206e+01 0.0 
3.297727364880e+01 -1.555480372087e+01 0.0 
2.890929955439e+01 -6.868664170731e+00 0.0 
1.323294664622e+01 -1.320754260334e+01 0.0 
2.726532861246e+01 -1.560593120806e+01 0.0 
2.240020643398e+01 -1.429299177247e+01 0.0 
2.090445823633e+01 -1.228128621332e+01 0.0 
1.315809881502e+01 -1.420739326938e+01 0.0 
2.781328038068e+01 -7.181956082300e+00 0.0 
8.614200829057e+00 -5.936933226306e+00 0.0 
8.714765730069e+00 -4.979270529687e+00 0.0 
1.611881701099e+01 -9.041973294003e+00 0.0 
2.806830314340e+01 -1.614622947108e+01 0.0 
2.084435391396e+00 -3.385085422913e+00 0.0 
3.133211811152e+01 -1.542347619750e+01 0.0 
9.693114650768e+00 -3.590281506442e+00 0.0 
1.531883592202e+01 -8.504584946143e+00 0.0 
2.151589117094e+01 -1.578915763018e+01 0.0 
4.918943882696e+01 -1.355538828056e+01 0.0 
1.443236615188e+01 -8.918701794549e+00 0.0 
8.276250966452e-01 -5.537685192197e+00 0.0 
1.362790867918e+01 -8.374718262212e+00 0.0 
2.083767477370e+01 -1.324843956035e+01 0.0 
1.273834678703e+01 -8.790890389337e+00 0.0 
1.192275845670e+01 -8.242261327467e+00 0.0 
4.477236023583e+01 -1.824312396664e+01 0.0 
1.102989384254e+01 -8.649855800911e+00 0.0 
4.849096516045e+01 -1.917293752213e+01 0.0 
1.588996752238e+00 -1.910230934687e+01 0.0 
4.904245197583e+01 -1.159839008158e+01 0.0 
2.753852929608e+01 -5.782128488093e+00 0.0 
1.756133602833e+01 -8.306130313187e-01 0.0 
2.615423700951e+01 -6.153865090092e+00 0.0 
1.028818761294e+01 -7.122020845892e+00 0.0 
2.970818901196e+01 -1.527821347593e+01 0.0 
4.801461623449e+01 -1.164472570985e+01 0.0 
9.455722100419e+00 -6.546069291118e+00 0.0 
3.089099236677e+01 -1.835339328261e+01 0.0 
2.350000000013e+01 -1.920825896750e+01 0.0 
4.830620531887e+01 -1.506626155470e+01 0.0 
1.725381944701e+01 -1.688794487850e+01 0.0 
2.156246225273e+01 -1.475893794002e+01 0.0 
4.919319648787e+01 -1.742767505896e+01 0.0 
4.437935623576e+01 -1.077662927266e+01 0.0 
1.001520521978e+01 -1.652692675208e+00 0.0 
9.067160240050e-01 -1.441937727541e+01 0.0 
2.603365149390e+01 -4.755996613848e+00 0.0 
2.458344439002e+01 -4.873645517696e+00 0.0 
2.304312390142e+01 -3.836552768096e+00 0.0 
2.546923202198e+00 -6.902480355749e+00 0.0 
1.251534969393e+01 -2.490989965776e+00 0.0 
2.454061833377e+01 -3.933354231935e+00 0.0 
1.788186558740e+01 -1.827424884923e+01 0.0 
4.090785243552e+01 -1.166553231904e+01 0.0 
2.230128851568e+01 -1.623015738726e+01 0.0 
2.302362347568e+01 -2.916239960270e+00 0.0 
3.878119254461e+01 -1.830091164002e+01 0.0 
2.210081359958e+01 -1.829238229150e+01 0.0 
8.443704882233e+00 -1.921993252862e+01 0.0 
2.218405824691e+01 -1.724557581508e+01 0.0 
2.151157503963e+01 -2.790636689331e+00 0.0 
3.741658958955e+01 -1.250400191722e+01 0.0 
2.697247663737e+01 -1.838290202309e+01 0.0 
4.743362342862e+01 -1.585850773010e+01 0.0 
6.671345075358e+00 -1.924977576322e+01 0.0 
3.900825404537e+01 -1.157220003875e+01 0.0 
4.649692961375e+01 -1.836335837481e+01 0.0 
1.578831424832e+01 -3.678284023361e+00 0.0 
4.814208768888e+01 -1.841249298770e+01 0.0 
2.964123298315e+01 -1.625739458193e+01 0.0 
4.580760351902e+01 -1.284294554687e+01 0.0 
3.561520879615e+01 -1.245548941949e+01 0.0 
2.555418095658e+00 -1.841101588290e+01 0.0 
3.288468366144e+01 -1.834258164109e+01 0.0 
2.065894391445e+01 -2.240688571739e+00 0.0 
4.739171429915e+01 -1.496536413446e+01 0.0 
3.478086729185e+00 -8.576434653209e+00 0.0 
1.606010630246e+01 -1.588421807951e+00 0.0 
1.018329200594e+01 -1.834320874317e+01 0.0 
2.957213339430e+01 -1.720496954591e+01 0.0 
4.142712790164e+00 -1.837794506222e+01 0.0 
6.698721532573e-01 -2.499999999997e+00 0.0 
8.037039123140e+00 -1.571229354954e+00 0.0 
1.203541361428e+01 -1.847784298001e+01 0.0 
2.899968332038e+01 -1.848264722179e+01 0.0 
1.469229460948e+01 -4.219485753730e+00 0.0 
4.049590781957e+01 -1.932812501995e+01 0.0 
1.996211678340e+01 -1.506329754720e+00 0.0 
4.250588298353e+01 -1.067383247529e+01 0.0 
5.831497011152e+00 -1.635396227234e+00 0.0 
5.317606125670e+00 -1.923927974868e+01 0.0 
4.208546426993e+01 -1.842830665025e+01 0.0 
2.327553405011e+00 -9.459409929662e+00 0.0 
3.568351902251e+01 -1.096637218582e+01 0.0 
1.682104374890e+00 -6.231413350963e+00 0.0 
2.451812238018e+01 -1.766524914339e+01 0.0 
1.058003429638e+01 -2.391839617098e+00 0.0 
4.399988753123e+01 -1.851998776342e+01 0.0 
1.400000000010e+01 -1.852293523028e+01 0.0 
3.604719565984e+01 -1.850662876800e+01 0.0 
1.951297136734e+01 -1.938092349694e+01 0.0 
1.821365318472e+01 -1.531276353287e+00 0.0 
2.298031859732e+01 -1.854635324722e+01 0.0 
1.552168066204e+01 -1.764280741977e+01 0.0 
4.572957713638e+01 -1.073347898229e+01 0.0 
3.429637429624e+01 -1.838861552790e+01 0.0 
2.427434426052e+00 -7.705577451869e+00 0.0 
4.662792031485e+00 -3.359424455416e+00 0.0 
4.926794919243e+01 -1.926794919243e+01 0.0 
7.320508075690e-01 -7.320508075688e-01 0.0 
4.926794919243e+01 -1.073205080757e+01 0.0 
7.320508075705e-01 -1.926794919243e+01 0.0 
2.917460242467e+00 -3.202866455310e+00 0.0 
4.838200575963e+01 -1.232674147454e+01 0.0 
2.998445708009e+01 -1.854403752148e+01 0.0 
5.949940090766e-01 -1.152762038165e+01 0.0 
4.844763495759e+01 -1.678092548787e+01 0.0 
1.301685480160e+01 -3.170056592566e+00 0.0 
1.650046335855e+01 -6.731535384067e-01 0.0 
4.854881540991e+01 -1.405224059779e+01 0.0 
2.119545114693e+01 -1.846813384545e+01 0.0 
3.797852849897e+01 -1.857978513215e+01 0.0 
4.649823708745e+01 -1.338351810816e+01 0.0 
2.012685900976e+01 -2.889659035009e+00 0.0 
2.953271913273e+01 -1.791558075192e+01 0.0 
2.408509097292e+00 -1.021949208421e+01 0.0 
2.642589566221e+01 -1.773216561448e+01 0.0 
1.730010270775e+01 -1.763165076721e+01 0.0 
2.017406551304e+01 -8.513536440582e-01 0.0 
5.254761581934e-01 -1.249999999999e+01 0.0 
6.640448215642e+00 -1.545337834885e+00 0.0 
7.843361506349e+00 -1.852719839527e+01 0.0 
1.588442191088e+00 -1.066158564320e+01 0.0 

CELLS 1919 7676 
3 179 649 925 
3 649 179 927 
3 659 152 670 
3 772 537 961 
3 539 599 765 
3 629 542 668 
3 159 581 583 
3 179 606 927 
3 581 159 599 
3 532 767 961 
3 151 726 727 
3 606 179 941 
3 771 923 967 
3 588 719 809 
3 923 185 967 
3 178 772 961 
3 587 158 728 
3 542 629 667 
3 166 586 908 
3 586 166 846 
3 767 532 920 
3 897 143 903 
3 624 897 903 
3 574 573 783 
3 273 429 718 
3 726 151 835 
3 105 82 988 
3 618 144 860 
3 271 273 718 
3 783 573 993 
3 523 733 735 
3 176 589 766 
3 659 670 968 
3 19 164 639 
3 174 593 595 
3 602 66 959 
3 66 602 985 
3 621 170 665 
3 585 96 938 
3 96 585 999 
3 861 603 887 
3 139 625 764 
3 942 140 946 
3 82 188 988 
3 580 187 937 
3 619 942 946 
3 733 523 736 
3 187 580 963 
3 729 730 736 
3 719 588 960 
3 181 624 861 
3 571 586 846 
3 349 962 980 
3 181 861 887 
3 671 153 851 
3 944 516 989 
3 571 846 915 
3 164 609 639 
3 432 760 878 
3 767 178 961 
3 138 972 1013 
3 952 578 954 
3 398 426 632 
3 962 735 980 
3 743 562 967 
3 624 181 897 
3 972 582 1013 
3 152 659 932 
3 459 420 741 
3 148 607 673 
3 835 778 889 
3 33 32 627 
3 618 860 990 
3 4 5 753 
3 750 944 989 
3 590 155 841 
3 671 851 1000 
3 638 943 950 
3 760 432 1002 
3 943 180 950 
3 420 433 741 
3 158 587 948 
3 143 649 903 
3 649 143 925 
3 599 539 811 
3 581 599 811 
3 610 835 940 
3 18 19 639 
3 664 661 909 
3 539 765 948 
3 766 589 939 
3 190 717 988 
3 763 934 958 
3 958 934 970 
3 156 33 627 
3 665 170 995 
3 587 728 960 
3 764 625 973 
3 184 616 913 
3 632 426 633 
3 765 599 983 
3 185 743 967 
3 346 912 936 
3 577 952 954 
3 467 465 643 
3 730 733 736 
3 770 771 893 
3 536 763 958 
3 138 729 736 
3 866 161 985 
3 311 664 909 
3 4 753 1004 
3 534 630 666 
3 501 817 855 
3 545 747 971 
3 605 632 633 
3 400 398 632 
3 174 595 953 
3 616 184 1008 
3 604 400 632 
3 635 565 910 
3 188 190 988 
3 763 536 1011 
3 400 604 643 
3 955 854 969 
3 620 870 879 
3 747 545 1001 
3 870 145 879 
3 155 590 981 
3 567 955 969 
3 726 835 889 
3 537 772 963 
3 474 531 631 
3 145 603 879 
3 593 174 973 
3 771 528 923 
3 610 778 835 
3 631 531 831 
3 575 703 993 
3 507 623 631 
3 557 768 769 
3 607 148 979 
3 809 719 956 
3 416 388 637 
3 623 474 631 
3 603 145 887 
3 531 669 831 
3 643 469 838 
3 159 583 938 
3 630 265 666 
3 589 176 977 
3 924 930 1008 
3 754 166 908 
3 182 620 855 
3 703 575 712 
3 604 467 643 
3 639 610 940 
3 606 140 942 
3 912 572 936 
3 165 611 612 
3 626 265 630 
3 609 164 893 
3 459 635 910 
3 771 530 893 
3 646 519 674 
3 161 866 975 
3 924 529 930 
3 465 469 643 
3 817 182 855 
3 151 727 1024 
3 140 606 941 
3 265 626 640 
3 388 439 637 
3 611 165 999 
3 469 630 838 
3 620 182 870 
3 513 702 907 
3 747 448 971 
3 144 618 933 
3 673 607 957 
3 605 633 927 
3 448 747 987 
3 690 820 874 
3 623 507 861 
3 606 605 927 
3 646 501 855 
3 630 534 838 
3 154 767 920 
3 277 686 896 
3 164 770 893 
3 619 180 943 
3 475 640 864 
3 661 686 909 
3 81 106 628 
3 507 603 861 
3 863 535 867 
3 759 891 984 
3 774 167 1000 
3 272 197 679 
3 894 253 921 
3 383 863 867 
3 717 190 966 
3 718 429 956 
3 573 575 993 
3 904 795 931 
3 641 212 669 
3 471 361 674 
3 278 272 679 
3 468 646 674 
3 519 646 855 
3 417 877 917 
3 702 551 907 
3 628 162 629 
3 633 649 927 
3 633 426 648 
3 531 641 669 
3 686 656 896 
3 542 541 847 
3 535 634 853 
3 585 611 999 
3 640 626 864 
3 331 853 902 
3 591 801 1025 
3 677 278 679 
3 801 147 1025 
3 759 760 891 
3 180 619 946 
3 904 547 905 
3 651 278 677 
3 547 546 905 
3 527 636 642 
3 353 734 806 
3 565 742 910 
3 820 383 874 
3 519 471 674 
3 562 743 975 
3 106 162 628 
3 436 466 642 
3 226 265 640 
3 624 623 861 
3 634 535 863 
3 602 866 985 
3 888 277 896 
3 335 317 672 
3 383 867 874 
3 835 151 940 
3 669 279 831 
3 678 679 875 
3 578 952 997 
3 226 640 647 
3 466 527 642 
3 196 468 644 
3 627 32 981 
3 212 641 816 
3 685 228 824 
3 612 611 613 
3 741 433 945 
3 468 645 646 
3 435 335 672 
3 541 675 776 
3 523 735 962 
3 278 651 813 
3 361 644 674 
3 400 643 838 
3 651 490 813 
3 686 277 909 
3 279 650 792 
3 146 600 959 
3 476 685 824 
3 204 470 650 
3 534 666 797 
3 476 684 685 
3 318 334 675 
3 716 157 717 
3 230 227 647 
3 347 698 699 
3 678 888 896 
3 106 107 162 
3 468 194 645 
3 317 315 672 
3 391 436 642 
3 320 318 675 
3 199 196 644 
3 589 635 939 
3 427 517 648 
3 476 683 684 
3 644 468 674 
3 716 717 718 
3 437 542 667 
3 347 699 701 
3 348 351 698 
3 633 648 649 
3 678 875 888 
3 426 427 648 
3 313 230 647 
3 640 475 647 
3 437 541 542 
3 666 222 797 
3 566 636 638 
3 37 153 671 
3 39 167 670 
3 213 212 816 
3 334 317 335 
3 390 391 449 
3 205 204 650 
3 334 335 390 
3 347 348 698 
3 279 792 831 
3 768 557 986 
3 672 475 864 
3 877 533 917 
3 566 449 636 
3 171 57 691 
3 390 335 391 
3 210 279 669 
3 437 341 541 
3 713 406 821 
3 227 226 647 
3 351 695 698 
3 470 361 471 
3 42 692 693 
3 315 313 475 
3 476 304 683 
3 450 449 566 
3 681 366 804 
3 853 634 902 
3 466 467 525 
3 540 681 804 
3 169 45 673 
3 443 535 853 
3 41 152 692 
3 809 429 839 
3 664 311 929 
3 527 525 619 
3 472 471 504 
3 204 361 470 
3 204 202 361 
3 280 816 842 
3 144 47 676 
3 271 718 966 
3 645 501 646 
3 475 313 647 
3 546 742 905 
3 504 519 620 
3 466 465 467 
3 165 612 865 
3 351 694 695 
3 315 475 672 
3 655 677 678 
3 436 465 466 
3 470 471 472 
3 304 306 683 
3 479 706 793 
3 50 168 682 
3 507 505 603 
3 319 321 701 
3 560 894 921 
3 526 605 606 
3 525 467 526 
3 661 658 686 
3 210 208 279 
3 517 623 624 
3 472 504 505 
3 54 170 687 
3 170 621 947 
3 658 656 686 
3 678 677 679 
3 706 246 793 
3 398 399 426 
3 318 317 334 
3 316 315 317 
3 212 210 669 
3 493 713 821 
3 261 707 708 
3 654 652 655 
3 321 347 701 
3 395 280 396 
3 650 470 792 
3 397 396 398 
3 152 40 670 
3 167 38 671 
3 167 774 968 
3 479 705 706 
3 490 392 813 
3 466 525 527 
3 314 313 315 
3 541 341 675 
3 427 474 517 
3 715 716 719 
3 681 809 839 
3 691 689 783 
3 662 661 664 
3 196 194 468 
3 203 202 204 
3 341 320 675 
3 738 740 741 
3 265 224 666 
3 218 216 280 
3 224 222 666 
3 135 854 955 
3 612 613 614 
3 742 546 910 
3 391 435 436 
3 57 56 691 
3 325 327 417 
3 189 501 645 
3 166 754 976 
3 816 641 842 
3 226 224 265 
3 202 199 644 
3 148 43 693 
3 504 471 519 
3 208 205 650 
3 261 708 714 
3 652 651 677 
3 479 704 705 
3 44 148 673 
3 41 40 152 
3 37 36 153 
3 39 38 167 
3 201 199 202 
3 655 652 677 
3 660 658 661 
3 398 396 399 
3 426 399 427 
3 710 707 794 
3 654 655 656 
3 46 169 676 
3 569 490 651 
3 683 417 684 
3 569 651 652 
3 410 408 711 
3 218 280 395 
3 517 474 623 
3 390 449 450 
3 156 627 951 
3 397 398 400 
3 791 510 860 
3 707 261 794 
3 352 355 694 
3 171 691 783 
3 436 464 465 
3 42 41 692 
3 167 671 1000 
3 209 208 210 
3 738 739 740 
3 44 43 148 
3 136 687 688 
3 351 352 694 
3 306 325 683 
3 142 51 682 
3 114 137 739 
3 395 396 397 
3 207 205 208 
3 211 210 212 
3 279 208 650 
3 449 391 642 
3 46 45 169 
3 312 230 313 
3 438 437 667 
3 600 146 1026 
3 739 137 740 
3 506 505 507 
3 733 734 735 
3 620 519 855 
3 136 55 687 
3 48 47 144 
3 361 202 644 
3 730 732 733 
3 579 438 667 
3 733 732 734 
3 823 521 836 
3 715 157 716 
3 191 189 645 
3 50 49 168 
3 173 715 719 
3 153 36 680 
3 413 410 711 
3 540 588 681 
3 526 604 605 
3 325 417 683 
3 541 776 847 
3 52 51 142 
3 40 39 670 
3 38 37 671 
3 479 287 704 
3 282 284 710 
3 218 395 797 
3 287 289 704 
3 54 53 170 
3 391 335 435 
3 698 697 699 
3 695 696 697 
3 430 540 804 
3 58 171 703 
3 730 731 732 
3 56 55 136 
3 694 559 695 
3 43 42 693 
3 660 661 662 
3 113 114 739 
3 395 534 797 
3 489 392 490 
3 45 44 673 
3 201 202 203 
3 456 413 457 
3 450 566 567 
3 689 688 690 
3 451 558 559 
3 695 559 696 
3 729 172 730 
3 47 46 676 
3 675 334 776 
3 443 491 535 
3 540 587 588 
3 777 509 796 
3 695 697 698 
3 203 204 205 
3 51 50 682 
3 284 386 710 
3 295 331 401 
3 215 213 216 
3 554 447 555 
3 699 697 700 
3 704 401 705 
3 216 213 816 
3 552 409 826 
3 325 326 327 
3 217 216 218 
3 254 256 714 
3 436 435 464 
3 282 710 794 
3 457 413 711 
3 281 304 476 
3 56 136 691 
3 568 490 569 
3 452 777 796 
3 55 54 687 
3 136 688 689 
3 223 222 224 
3 730 172 731 
3 59 703 712 
3 653 652 654 
3 355 451 694 
3 58 57 171 
3 289 295 704 
3 427 473 474 
3 194 191 645 
3 281 476 824 
3 285 479 793 
3 447 406 713 
3 679 197 875 
3 506 631 831 
3 327 345 346 
3 614 613 615 
3 256 261 714 
3 306 308 325 
3 451 508 558 
3 478 300 779 
3 112 113 737 
3 465 464 469 
3 451 559 694 
3 707 549 708 
3 221 219 222 
3 295 401 704 
3 430 538 540 
3 355 418 451 
3 59 58 703 
3 207 208 209 
3 477 548 549 
3 209 210 211 
3 477 549 707 
3 737 113 739 
3 193 191 194 
3 746 745 747 
3 147 119 761 
3 386 441 477 
3 295 330 331 
3 775 445 800 
3 555 713 857 
3 555 447 713 
3 189 149 501 
3 173 103 715 
3 570 680 873 
3 211 212 213 
3 119 120 761 
3 565 485 742 
3 731 737 738 
3 547 904 931 
3 463 513 907 
3 543 775 800 
3 340 823 836 
3 264 262 773 
3 302 300 478 
3 443 454 491 
3 360 341 437 
3 177 745 746 
3 150 749 750 
3 139 60 712 
3 60 59 712 
3 745 744 748 
3 477 441 548 
3 285 287 479 
3 491 573 574 
3 485 404 742 
3 338 423 443 
3 759 757 760 
3 386 477 710 
3 708 549 709 
3 163 756 757 
3 177 744 745 
3 489 490 568 
3 120 121 758 
3 104 157 715 
3 104 105 157 
3 406 310 821 
3 150 10 749 
3 451 418 508 
3 636 449 642 
3 596 594 597 
3 676 169 791 
3 480 374 807 
3 526 467 604 
3 589 565 635 
3 472 505 506 
3 100 158 765 
3 99 100 765 
3 120 758 761 
3 758 757 759 
3 752 754 755 
3 328 269 403 
3 163 751 756 
3 744 141 748 
3 138 110 729 
3 269 264 773 
3 617 615 637 
3 102 103 173 
3 513 608 702 
3 289 294 295 
3 614 615 616 
3 10 11 749 
3 752 755 756 
3 30 29 768 
3 155 30 768 
3 540 538 587 
3 158 101 728 
3 749 746 750 
3 28 154 769 
3 403 269 773 
3 103 104 715 
3 102 173 728 
3 504 620 879 
3 36 35 680 
3 768 29 769 
3 163 757 758 
3 121 163 758 
3 564 485 565 
3 708 709 845 
3 770 528 771 
3 109 110 138 
3 175 762 763 
3 111 172 729 
3 446 406 447 
3 111 112 172 
3 110 111 729 
3 553 447 554 
3 499 562 563 
3 616 615 617 
3 792 506 831 
3 751 752 756 
3 301 302 781 
3 25 24 772 
3 178 25 772 
3 101 102 728 
3 382 310 406 
3 29 28 769 
3 456 457 572 
3 752 753 754 
3 751 186 752 
3 752 186 753 
3 11 12 177 
3 185 69 743 
3 80 79 187 
3 123 186 751 
3 13 141 744 
3 70 69 185 
3 68 161 743 
3 61 139 764 
3 76 160 762 
3 78 77 175 
3 69 68 743 
3 68 67 161 
3 175 77 762 
3 123 124 186 
3 97 98 159 
3 100 101 158 
3 163 122 751 
3 65 64 146 
3 174 62 764 
3 63 62 174 
3 122 123 751 
3 121 122 163 
3 61 60 139 
3 62 61 764 
3 76 75 160 
3 94 95 165 
3 77 76 762 
3 74 73 184 
3 92 93 529 
3 118 119 147 
3 116 117 176 
3 115 116 766 
3 114 115 137 
3 13 14 141 
3 12 13 744 
3 116 176 766 
3 16 17 151 
3 137 115 766 
3 34 33 156 
3 28 27 154 
3 31 30 155 
3 6 7 166 
3 9 10 150 
3 27 26 767 
3 19 20 164 
3 26 25 178 
3 20 21 770 
3 21 22 528 
3 177 12 744 
3 154 27 767 
3 26 178 767 
3 164 20 770 
3 21 528 770 
3 393 394 778 
3 172 112 737 
3 284 385 386 
3 758 759 761 
3 596 597 598 
3 477 707 710 
3 359 343 780 
3 328 403 404 
3 891 592 984 
3 499 563 780 
3 386 387 441 
3 177 746 749 
3 343 405 780 
3 536 537 580 
3 11 177 749 
3 331 330 338 
3 293 291 344 
3 393 342 394 
3 461 393 778 
3 312 313 314 
3 506 507 631 
3 222 219 797 
3 301 300 302 
3 405 498 499 
3 609 461 610 
3 452 546 547 
3 524 445 532 
3 440 389 445 
3 585 584 611 
3 299 297 300 
3 342 301 781 
3 536 524 537 
3 440 524 536 
3 344 291 803 
3 499 530 562 
3 402 374 480 
3 609 610 639 
3 600 598 601 
3 532 445 775 
3 379 377 380 
3 295 294 330 
3 339 421 422 
3 358 444 452 
3 564 565 589 
3 731 172 737 
3 440 445 524 
3 499 498 530 
3 738 737 739 
3 657 656 658 
3 583 483 584 
3 329 343 359 
3 405 461 498 
3 508 509 560 
3 498 461 609 
3 583 584 585 
3 325 308 326 
3 600 601 602 
3 571 453 586 
3 595 594 596 
3 388 380 389 
3 422 453 516 
3 452 547 777 
3 724 722 725 
3 376 378 482 
3 263 267 282 
3 439 389 440 
3 379 388 416 
3 548 441 720 
3 610 461 778 
3 405 393 461 
3 388 389 439 
3 381 333 419 
3 441 387 442 
3 414 500 576 
3 380 787 800 
3 386 385 387 
3 293 344 779 
3 593 521 594 
3 379 380 388 
3 522 438 579 
3 496 591 592 
3 322 320 341 
3 405 499 780 
3 378 377 379 
3 726 724 727 
3 482 483 581 
3 443 423 454 
3 720 442 721 
3 343 393 405 
3 422 421 453 
3 596 598 600 
3 441 442 720 
3 516 453 571 
3 442 387 789 
3 282 283 284 
3 268 264 269 
3 723 724 726 
3 118 147 801 
3 176 117 801 
3 394 342 781 
3 339 381 421 
3 299 300 301 
3 300 297 779 
3 256 260 261 
3 355 356 418 
3 402 480 481 
3 668 542 1018 
3 284 384 385 
3 491 454 573 
3 421 381 432 
3 482 378 483 
3 581 483 583 
3 484 404 485 
3 520 487 521 
3 373 371 374 
3 339 333 381 
3 556 480 825 
3 481 480 556 
3 276 333 339 
3 605 604 632 
3 270 269 328 
3 343 342 393 
3 721 722 723 
3 569 652 653 
3 402 481 543 
3 329 301 342 
3 299 301 329 
3 328 404 484 
3 329 342 343 
3 373 374 375 
3 723 722 724 
3 376 377 378 
3 375 374 402 
3 228 229 824 
3 787 543 800 
3 387 448 789 
3 721 442 722 
3 384 283 544 
3 258 255 259 
3 376 375 377 
3 250 252 285 
3 268 270 276 
3 496 485 564 
3 373 375 376 
3 268 269 270 
3 593 594 595 
3 380 377 787 
3 329 359 782 
3 136 689 691 
3 387 385 448 
3 276 270 333 
3 484 485 496 
3 298 297 299 
3 379 416 786 
3 496 564 591 
3 282 267 283 
3 586 453 784 
3 376 482 785 
3 284 283 384 
3 297 293 779 
3 384 544 545 
3 445 389 800 
3 267 264 268 
3 292 296 340 
3 452 444 546 
3 296 293 297 
3 725 722 789 
3 298 299 782 
3 699 700 881 
3 453 421 784 
3 584 483 786 
3 446 447 553 
3 396 280 842 
3 378 379 786 
3 358 452 796 
3 370 372 430 
3 421 432 784 
3 597 594 823 
3 382 406 446 
3 327 326 345 
3 481 556 557 
3 285 286 287 
3 419 333 790 
3 290 288 291 
3 520 521 593 
3 508 418 509 
3 299 329 782 
3 377 375 787 
3 352 354 355 
3 292 291 293 
3 538 431 539 
3 422 516 822 
3 263 264 267 
3 215 216 217 
3 296 297 298 
3 427 399 473 
3 217 218 219 
3 372 371 373 
3 483 378 786 
3 430 431 538 
3 722 442 789 
3 460 362 487 
3 287 288 289 
3 482 581 811 
3 659 658 660 
3 346 345 414 
3 292 293 296 
3 375 402 787 
3 256 258 260 
3 260 262 263 
3 328 484 790 
3 289 290 294 
3 263 282 794 
3 372 373 785 
3 430 372 431 
3 232 234 281 
3 773 262 795 
3 314 315 316 
3 263 262 264 
3 260 258 262 
3 270 328 790 
3 338 362 423 
3 251 249 253 
3 402 543 787 
3 247 249 250 
3 289 288 290 
3 285 252 286 
3 221 222 223 
3 333 270 790 
3 460 487 520 
3 460 520 625 
3 407 409 552 
3 256 255 258 
3 287 286 288 
3 373 376 785 
3 261 260 794 
3 395 397 534 
3 267 268 788 
3 418 356 796 
3 254 255 256 
3 268 276 788 
3 339 422 814 
3 286 252 486 
3 290 291 292 
3 425 462 463 
3 117 118 801 
3 243 241 244 
3 247 245 248 
3 254 253 255 
3 431 372 785 
3 250 251 252 
3 283 267 788 
3 251 253 254 
3 389 380 800 
3 544 283 788 
3 496 592 810 
3 790 484 810 
3 509 418 796 
3 258 259 795 
3 243 245 246 
3 250 249 251 
3 358 420 444 
3 419 790 810 
3 681 588 809 
3 788 276 814 
3 338 330 362 
3 411 424 425 
3 195 194 196 
3 434 368 455 
3 463 512 513 
3 229 232 824 
3 409 411 826 
3 356 357 358 
3 254 714 798 
3 225 224 226 
3 348 350 351 
3 420 357 433 
3 260 263 794 
3 247 248 249 
3 246 245 247 
3 544 788 814 
3 250 285 793 
3 243 244 245 
3 239 241 242 
3 262 258 795 
3 309 307 310 
3 370 371 372 
3 239 237 240 
3 423 362 460 
3 355 354 356 
3 573 454 575 
3 246 247 793 
3 513 607 608 
3 206 205 207 
3 356 358 796 
3 198 196 199 
3 488 392 489 
3 246 706 829 
3 469 626 630 
3 200 199 201 
3 280 216 816 
3 358 357 420 
3 590 561 627 
3 444 420 459 
3 621 515 622 
3 775 543 818 
3 332 310 382 
3 785 482 811 
3 369 368 434 
3 242 241 243 
3 281 303 304 
3 518 455 561 
3 292 340 799 
3 367 369 370 
3 446 553 634 
3 356 354 357 
3 367 365 368 
3 676 791 860 
3 460 625 812 
3 251 254 798 
3 431 785 811 
3 539 431 811 
3 247 250 793 
3 294 290 799 
3 330 294 802 
3 484 496 810 
3 316 317 318 
3 235 237 238 
3 239 240 241 
3 219 218 797 
3 518 561 590 
3 654 656 657 
3 543 481 818 
3 474 473 531 
3 364 336 392 
3 290 292 799 
3 556 825 841 
3 337 365 366 
3 252 251 798 
3 235 233 236 
3 367 368 369 
3 434 455 518 
3 374 371 807 
3 370 369 371 
3 521 487 836 
3 514 428 515 
3 487 362 802 
3 291 288 803 
3 603 505 879 
3 309 332 363 
3 274 272 278 
3 276 339 814 
3 238 237 239 
3 555 857 869 
3 304 305 306 
3 321 323 347 
3 235 236 237 
3 306 307 308 
3 472 506 792 
3 486 252 798 
3 366 681 839 
3 599 159 983 
3 84 126 135 
3 288 286 803 
3 332 382 383 
3 653 654 774 
3 281 234 303 
3 286 486 803 
3 370 430 804 
3 85 127 180 
3 309 310 332 
3 305 303 493 
3 470 472 792 
3 294 799 802 
3 351 350 352 
3 362 330 802 
3 454 423 812 
3 308 307 309 
3 371 369 807 
3 415 413 456 
3 423 460 812 
3 86 128 140 
3 366 367 804 
3 576 500 577 
3 369 434 807 
3 306 305 307 
3 234 233 235 
3 876 548 880 
3 360 437 438 
3 480 807 825 
3 814 422 822 
3 87 129 179 
3 412 410 413 
3 481 557 818 
3 352 353 354 
3 214 213 215 
3 366 365 367 
3 845 709 850 
3 347 323 348 
3 469 464 626 
3 433 357 806 
3 352 350 353 
3 354 353 806 
3 304 303 305 
3 680 35 873 
3 88 130 143 
3 594 521 823 
3 231 230 312 
3 275 337 839 
3 322 341 360 
3 575 454 812 
3 357 354 806 
3 545 544 822 
3 326 308 805 
3 243 246 829 
3 414 428 500 
3 397 400 838 
3 274 278 813 
3 514 515 621 
3 367 370 804 
3 654 657 774 
3 365 364 828 
3 364 392 488 
3 334 390 776 
3 597 823 843 
3 337 364 365 
3 228 685 849 
3 89 131 181 
3 514 621 665 
3 319 318 320 
3 544 814 822 
3 414 345 428 
3 166 7 846 
3 220 219 221 
3 309 363 805 
3 488 489 808 
3 489 568 570 
3 308 309 805 
3 455 368 828 
3 229 227 230 
3 411 425 826 
3 90 132 145 
3 660 662 663 
3 91 133 182 
3 134 91 817 
3 232 281 824 
3 82 134 149 
3 502 257 503 
3 223 224 225 
3 235 238 815 
3 348 323 349 
3 232 233 234 
3 434 518 825 
3 657 658 659 
3 340 296 843 
3 500 428 514 
3 242 243 829 
3 364 488 828 
3 234 235 815 
3 598 597 852 
3 368 365 828 
3 392 336 813 
3 310 307 821 
3 229 231 232 
3 425 424 462 
3 203 205 206 
3 348 349 350 
3 319 320 321 
3 534 397 838 
3 211 213 214 
3 601 598 856 
3 337 336 364 
3 232 231 233 
3 407 552 832 
3 363 332 820 
3 807 434 825 
3 463 462 512 
3 429 275 839 
3 535 491 867 
3 303 234 815 
3 332 383 820 
3 217 219 220 
3 561 455 844 
3 513 512 607 
3 305 493 821 
3 321 320 322 
3 415 456 458 
3 220 257 495 
3 229 230 231 
3 307 305 821 
3 338 443 853 
3 321 322 323 
3 493 303 815 
3 198 199 200 
3 601 856 862 
3 200 201 311 
3 412 413 415 
3 195 196 198 
3 192 191 193 
3 206 207 266 
3 515 428 830 
3 823 340 843 
3 275 336 337 
3 489 570 808 
3 193 194 195 
3 312 314 492 
3 415 458 511 
3 825 518 841 
3 221 223 819 
3 220 221 257 
3 231 312 827 
3 336 274 813 
3 473 399 842 
3 502 503 533 
3 399 396 842 
3 345 326 830 
3 511 578 618 
3 236 233 827 
3 360 438 494 
3 568 569 851 
3 531 473 641 
3 869 242 882 
3 511 458 578 
3 275 274 336 
3 799 340 836 
3 225 226 227 
3 494 438 522 
3 862 563 866 
3 214 215 324 
3 327 346 877 
3 462 424 510 
3 522 579 582 
3 802 799 836 
3 435 672 864 
3 273 275 429 
3 344 850 871 
3 233 231 827 
3 598 852 856 
3 495 257 502 
3 312 492 827 
3 214 324 407 
3 494 522 523 
3 409 410 411 
3 326 805 830 
3 608 607 979 
3 411 412 424 
3 319 701 848 
3 296 298 843 
3 518 590 841 
3 665 142 883 
3 428 345 830 
3 228 227 229 
3 407 408 409 
3 780 563 862 
3 724 725 859 
3 411 410 412 
3 337 366 839 
3 597 843 852 
3 487 802 836 
3 94 165 865 
3 529 93 865 
3 198 200 277 
3 409 408 410 
3 478 779 871 
3 206 266 497 
3 503 257 819 
3 690 874 998 
3 225 227 228 
3 34 156 873 
3 190 189 191 
3 257 221 819 
3 344 803 850 
3 316 318 319 
3 486 798 845 
3 407 324 408 
3 209 211 832 
3 273 274 275 
3 497 266 550 
3 497 550 551 
3 755 754 908 
3 798 714 845 
3 641 473 842 
3 201 203 833 
3 311 201 833 
3 622 515 858 
3 7 8 846 
3 349 323 837 
3 215 217 834 
3 714 708 845 
3 91 182 817 
3 149 134 817 
3 273 272 274 
3 390 450 776 
3 850 709 871 
3 383 382 863 
3 323 322 837 
3 144 676 860 
3 828 488 844 
3 549 548 876 
3 843 298 852 
3 760 757 878 
3 446 634 863 
3 324 215 834 
3 756 755 878 
3 455 828 844 
3 322 360 837 
3 203 206 833 
3 211 214 832 
3 239 242 869 
3 705 401 898 
3 488 808 844 
3 401 331 902 
3 220 495 834 
3 217 220 834 
3 126 83 854 
3 360 494 837 
3 412 415 840 
3 192 193 197 
3 415 511 840 
3 464 435 864 
3 656 655 896 
3 510 424 840 
3 501 149 817 
3 424 412 840 
3 298 782 852 
3 711 408 868 
3 486 845 850 
3 803 486 850 
3 569 653 851 
3 706 705 895 
3 214 407 832 
3 685 684 901 
3 331 338 853 
3 819 223 849 
3 848 701 881 
3 713 493 857 
3 492 314 848 
3 206 497 833 
3 492 848 881 
3 266 207 872 
3 515 830 858 
3 830 805 858 
3 223 225 849 
3 271 272 273 
3 852 782 856 
3 782 359 856 
3 450 567 847 
3 266 872 890 
3 601 862 866 
3 517 624 903 
3 478 876 880 
3 135 126 854 
3 856 359 862 
3 316 319 848 
3 727 724 859 
3 877 346 936 
3 271 197 272 
3 192 197 271 
3 324 834 868 
3 90 145 870 
3 182 133 870 
3 359 780 862 
3 898 401 902 
3 555 869 882 
3 382 446 863 
3 815 238 857 
3 314 316 848 
3 133 90 870 
3 190 191 192 
3 93 94 865 
3 805 363 858 
3 225 228 849 
3 514 665 883 
3 498 609 893 
3 493 815 857 
3 602 601 866 
3 881 700 885 
3 577 500 883 
3 834 495 868 
3 457 711 892 
3 491 574 867 
3 255 253 894 
3 832 552 872 
3 857 238 869 
3 209 832 872 
3 626 464 864 
3 572 457 900 
3 238 239 869 
3 779 344 871 
3 207 209 872 
3 969 183 982 
3 684 417 917 
3 638 135 955 
3 419 810 891 
3 478 871 876 
3 425 463 899 
3 197 193 875 
3 89 181 887 
3 35 34 873 
3 83 125 183 
3 145 132 887 
3 554 555 882 
3 548 720 880 
3 505 504 879 
3 911 696 914 
3 895 705 898 
3 408 324 868 
3 417 327 877 
3 662 964 974 
3 776 450 847 
3 709 549 876 
3 880 720 884 
3 773 795 904 
3 188 149 189 
3 193 195 875 
3 18 639 940 
3 757 756 878 
3 582 579 926 
3 742 404 905 
3 720 721 884 
3 236 885 906 
3 697 696 911 
3 701 699 881 
3 302 478 880 
3 198 277 888 
3 884 721 886 
3 236 827 885 
3 872 552 890 
3 588 587 960 
3 346 414 912 
3 721 723 886 
3 302 880 884 
3 88 143 897 
3 240 237 906 
3 886 723 889 
3 160 75 913 
3 74 184 913 
3 181 131 897 
3 781 302 884 
3 559 558 916 
3 638 636 943 
3 500 514 883 
3 546 444 910 
3 916 558 918 
3 901 684 917 
3 132 89 887 
3 723 726 889 
3 9 150 915 
3 188 189 190 
3 781 884 886 
3 242 829 882 
3 871 709 876 
3 629 668 982 
3 937 175 1011 
3 244 241 914 
3 820 690 935 
3 457 892 900 
3 394 781 886 
3 394 886 889 
3 885 700 906 
3 459 741 991 
3 668 969 982 
3 778 394 889 
3 867 574 874 
3 508 560 919 
3 552 826 890 
3 649 648 903 
3 550 266 890 
3 625 139 978 
3 107 108 926 
3 24 23 922 
3 71 70 923 
3 73 72 924 
3 248 245 918 
3 711 868 892 
3 827 492 885 
3 810 592 891 
3 83 183 854 
3 775 818 920 
3 195 198 888 
3 82 149 188 
3 48 144 933 
3 846 8 915 
3 168 49 933 
3 875 195 888 
3 253 249 921 
3 868 495 892 
3 248 918 919 
3 527 619 943 
3 919 560 921 
3 277 200 909 
3 530 498 893 
3 244 914 916 
3 550 890 899 
3 926 108 1013 
3 240 906 911 
3 655 678 896 
3 259 255 894 
3 560 509 928 
3 495 502 892 
3 734 353 980 
3 87 179 925 
3 143 130 925 
3 259 928 931 
3 554 882 895 
3 819 849 901 
3 890 826 899 
3 659 660 932 
3 131 88 897 
3 762 160 934 
3 607 512 957 
3 492 881 885 
3 135 638 950 
3 648 517 903 
3 829 706 895 
3 497 551 929 
3 882 829 895 
3 542 847 1018 
3 553 554 898 
3 619 525 942 
3 849 685 901 
3 554 895 898 
3 892 502 900 
3 416 637 1017 
3 795 259 931 
3 566 638 955 
3 553 898 902 
3 526 606 942 
3 926 579 996 
3 187 79 937 
3 78 175 937 
3 740 137 939 
3 634 553 902 
3 403 904 905 
3 403 773 904 
3 899 463 907 
3 502 533 900 
3 826 425 899 
3 240 911 914 
3 96 97 938 
3 174 764 973 
3 404 403 905 
3 363 820 935 
3 503 819 901 
3 586 784 908 
3 311 833 929 
3 237 236 906 
3 738 741 945 
3 700 697 911 
3 17 18 940 
3 200 311 909 
3 444 459 910 
3 727 859 1010 
3 551 550 907 
3 414 576 912 
3 894 560 928 
3 915 150 989 
3 503 901 917 
3 75 74 913 
3 732 731 945 
3 791 169 957 
3 670 167 968 
3 184 924 1008 
3 627 561 951 
3 692 152 932 
3 241 240 914 
3 244 916 918 
3 688 687 947 
3 162 107 926 
3 8 9 915 
3 727 1010 1024 
3 259 894 928 
3 696 559 916 
3 86 140 941 
3 179 129 941 
3 587 538 948 
3 906 700 911 
3 822 516 944 
3 456 572 949 
3 146 64 953 
3 63 174 953 
3 245 244 918 
3 173 719 960 
3 582 926 1013 
3 85 180 946 
3 735 734 980 
3 140 128 946 
3 533 503 917 
3 558 508 919 
3 914 696 916 
3 736 523 972 
3 580 937 1011 
3 918 558 919 
3 532 775 920 
3 440 536 958 
3 772 24 922 
3 70 185 923 
3 184 73 924 
3 248 919 921 
3 130 87 925 
3 249 248 921 
3 66 65 959 
3 84 135 950 
3 180 127 950 
3 622 858 935 
3 765 158 948 
3 537 524 961 
3 550 899 907 
3 576 577 954 
3 662 664 964 
3 613 611 965 
3 928 777 931 
3 509 777 928 
3 934 160 1014 
3 949 576 954 
3 157 105 988 
3 529 865 930 
3 612 614 930 
3 611 584 965 
3 494 523 962 
3 777 547 931 
3 557 769 992 
3 786 416 965 
3 142 665 995 
3 660 663 932 
3 833 497 929 
3 844 808 951 
3 448 385 971 
3 384 545 971 
3 625 520 973 
3 138 736 972 
3 571 915 989 
3 49 48 933 
3 6 166 976 
3 865 612 930 
3 689 690 998 
3 564 589 977 
3 147 761 984 
3 31 155 981 
3 99 765 983 
3 841 155 986 
3 688 947 1022 
3 159 98 983 
3 162 926 996 
3 772 922 963 
3 419 891 1002 
3 557 556 986 
3 67 66 985 
3 657 659 968 
3 349 837 962 
3 719 716 956 
3 747 745 987 
3 572 912 949 
3 52 142 995 
3 763 762 934 
3 170 53 995 
3 523 522 972 
3 600 602 959 
3 350 349 980 
3 755 908 1007 
3 171 783 993 
3 680 570 994 
3 590 627 981 
3 583 585 938 
3 190 192 966 
3 636 527 943 
3 692 932 1009 
3 750 746 1001 
3 567 969 1018 
3 912 576 949 
3 95 96 999 
3 570 568 994 
3 3 80 1003 
3 23 3 1003 
3 124 0 1004 
3 0 4 1004 
3 72 1 1005 
3 1 92 1005 
3 2 71 1006 
3 22 2 1006 
3 753 186 1004 
3 109 138 1013 
3 866 563 975 
3 511 618 990 
3 432 381 1002 
3 596 600 1026 
3 16 151 1024 
3 141 14 1010 
3 637 615 1017 
3 806 734 1012 
3 572 900 936 
3 891 760 1002 
3 789 448 1020 
3 932 663 1009 
3 79 78 937 
3 859 141 1010 
3 614 616 1008 
3 510 791 1021 
3 964 702 974 
3 929 551 964 
3 97 159 938 
3 533 877 936 
3 851 653 1000 
3 516 571 989 
3 137 766 939 
3 462 510 1021 
3 858 363 935 
3 734 732 1012 
3 617 934 1014 
3 743 161 975 
3 510 840 990 
3 860 510 990 
3 151 17 940 
3 628 629 982 
3 129 86 941 
3 525 526 942 
3 716 718 956 
3 900 533 936 
3 818 557 992 
3 687 170 947 
3 731 738 945 
3 740 939 991 
3 128 85 946 
3 637 439 970 
3 545 822 944 
3 808 570 1016 
3 908 784 1007 
3 621 622 947 
3 538 539 948 
3 682 168 952 
3 458 456 949 
3 718 717 966 
3 712 575 978 
3 570 873 1016 
3 922 187 963 
3 127 84 950 
3 561 844 951 
3 169 673 957 
3 947 622 1022 
3 458 949 954 
3 64 63 953 
3 664 929 964 
3 81 628 1023 
3 567 566 955 
3 663 662 974 
3 429 809 956 
3 530 771 967 
3 578 458 954 
3 146 953 1026 
3 439 440 958 
3 142 682 1015 
3 812 625 978 
3 575 812 978 
3 944 750 1001 
3 65 146 959 
3 728 173 960 
3 524 532 961 
3 741 740 991 
3 536 580 1011 
3 617 637 970 
3 753 5 976 
3 837 494 962 
3 551 702 964 
3 155 768 986 
3 580 537 963 
3 883 142 1015 
3 584 786 965 
3 176 801 977 
3 667 629 996 
3 801 591 977 
3 635 459 991 
3 125 81 1023 
3 448 987 1020 
3 562 530 967 
3 774 657 968 
3 192 271 966 
3 385 384 971 
3 520 593 973 
3 574 783 998 
3 952 168 997 
3 791 957 1021 
3 702 608 974 
3 939 635 991 
3 522 582 972 
3 563 562 975 
3 754 753 976 
3 5 6 976 
3 854 183 969 
3 591 564 977 
3 139 712 978 
3 148 693 979 
3 920 818 992 
3 168 933 997 
3 874 574 998 
3 965 416 1017 
3 32 31 981 
3 353 350 980 
3 98 99 983 
3 732 945 1012 
3 761 759 984 
3 161 67 985 
3 717 157 988 
3 878 755 1007 
3 745 748 987 
3 979 693 1009 
3 556 841 986 
3 153 680 994 
3 150 750 989 
3 579 667 996 
3 953 595 1026 
3 922 23 1003 
3 71 923 1006 
3 924 72 1005 
3 783 689 998 
3 432 878 1007 
3 951 808 1016 
3 147 984 1025 
3 703 171 993 
3 851 153 994 
3 629 162 996 
3 840 511 990 
3 439 958 970 
3 769 154 992 
3 53 52 995 
3 160 913 1014 
3 693 692 1009 
3 568 851 994 
3 934 617 970 
3 979 1009 1019 
3 746 747 1001 
3 165 95 999 
3 618 578 997 
3 80 187 1003 
3 186 124 1004 
3 92 529 1005 
3 528 22 1006 
3 381 419 1002 
3 690 688 1022 
3 653 774 1000 
3 154 920 992 
3 784 432 1007 
3 969 668 1018 
3 14 15 1010 
3 175 763 1011 
3 108 109 1013 
3 873 156 1016 
3 616 617 1014 
3 433 806 1012 
3 615 613 1017 
3 933 618 997 
3 1010 15 1024 
3 183 125 1023 
3 545 944 1001 
3 725 789 1020 
3 15 16 1024 
3 577 883 1015 
3 748 141 1027 
3 859 725 1027 
3 592 591 1025 
3 595 596 1026 
3 512 462 1021 
3 847 567 1018 
3 187 922 1003 
3 923 528 1006 
3 529 924 1005 
3 913 616 1014 
3 1020 748 1027 
3 725 1020 1027 
3 141 859 1027 
3 622 935 1022 
3 945 433 1012 
3 957 512 1021 
3 930 614 1008 
3 156 951 1016 
3 935 690 1022 
3 613 965 1017 
3 663 974 1019 
3 952 577 1015 
3 682 952 1015 
3 982 183 1023 
3 974 608 1019 
3 608 979 1019 
3 984 592 1025 
3 987 748 1020 
3 628 982 1023 
3 1009 663 1019 

CELL_TYPES 1919
5
5
5
5
5
5
5
5
5
5
5
5
5
5
5
5
5
5
5
5
5
5
5
5
5
5
5
5
5
5
5
5
5
5
5
5
5
5
5
5
5
5
5
5
5
5
5
5
5
5
5
5
5
5
5
5
5
5
5
5
5
5
5
5
5
5
5
5
5
5
5
5
5
5
5
5
5
5
5
5
5
5
5
5
5
5
5
5
5
5
5
5
5
5
5
5
5
5
5
5
5
5
5
5
5
5
5
5
5
5
5
5
5
5
5
5
5
5
5
5
5
5
5
5
5
5
5
5
5
5
5
5
5
5
5
5
5
5
5
5
5
5
5
5
5
5
5
5
5
5
5
5
5
5
5
5
5
5
5
5
5
5
5
5
5
5
5
5
5
5
5
5
5
5
5
5
5
5
5
5
5
5
5
5
5
5
5
5
5
5
5
5
5
5
5
5
5
5
5
5
5
5
5
5
5
5
5
5
5
5
5
5
5
5
5
5
5
5
5
5
5
5
5
5
5
5
5
5
5
5
5
5
5
5
5
5
5
5
5
5
5
5
5
5
5
5
5
5
5
5
5
5
5
5
5
5
5
5
5
5
5
5
5
5
5
5
5
5
5
5
5
5
5
5
5
5
5
5
5
5
5
5
5
5
5
5
5
5
5
5
5
5
5
5
5
5
5
5
5
5
5
5
5
5
5
5
5
5
5
5
5
5
5
5
5
5
5
5
5
5
5
5
5
5
5
5
5
5
5
5
5
5
5
5
5
5
5
5
5
5
5
5
5
5
5
5
5
5
5
5
5
5
5
5
5
5
5
5
5
5
5
5
5
5
5
5
5
5
5
5
5
5
5
5
5
5
5
5
5
5
5
5
5
5
5
5
5
5
5
5
5
5
5
5
5
5
5
5
5
5
5
5
5
5
5
5
5
5
5
5
5
5
5
5
5
5
5
5
5
5
5
5
5
5
5
5
5
5
5
5
5
5
5
5
5
5
5
5
5
5
5
5
5
5
5
5
5
5
5
5
5
5
5
5
5
5
5
5
5
5
5
5
5
5
5
5
5
5
5
5
5
5
5
5
5
5
5
5
5
5
5
5
5
5
5
5
5
5
5
5
5
5
5
5
5
5
5
5
5
5
5
5
5
5
5
5
5
5
5
5
5
5
5
5
5
5
5
5
5
5
5
5
5
5
5
5
5
5
5
5
5
5
5
5
5
5
5
5
5
5
5
5
5
5
5
5
5
5
5
5
5
5
5
5
5
5
5
5
5
5
5
5
5
5
5
5
5
5
5
5
5
5
5
5
5
5
5
5
5
5
5
5
5
5
5
5
5
5
5
5
5
5
5
5
5
5
5
5
5
5
5
5
5
5
5
5
5
5
5
5
5
5
5
5
5
5
5
5
5
5
5
5
5
5
5
5
5
5
5
5
5
5
5
5
5
5
5
5
5
5
5
5
5
5
5
5
5
5
5
5
5
5
5
5
5
5
5
5
5
5
5
5
5
5
5
5
5
5
5
5
5
5
5
5
5
5
5
5
5
5
5
5
5
5
5
5
5
5
5
5
5
5
5
5
5
5
5
5
5
5
5
5
5
5
5
5
5
5
5
5
5
5
5
5
5
5
5
5
5
5
5
5
5
5
5
5
5
5
5
5
5
5
5
5
5
5
5
5
5
5
5
5
5
5
5
5
5
5
5
5
5
5
5
5
5
5
5
5
5
5
5
5
5
5
5
5
5
5
5
5
5
5
5
5
5
5
5
5
5
5
5
5
5
5
5
5
5
5
5
5
5
5
5
5
5
5
5
5
5
5
5
5
5
5
5
5
5
5
5
5
5
5
5
5
5
5
5
5
5
5
5
5
5
5
5
5
5
5
5
5
5
5
5
5
5
5
5
5
5
5
5
5
5
5
5
5
5
5
5
5
5
5
5
5
5
5
5
5
5
5
5
5
5
5
5
5
5
5
5
5
5
5
5
5
5
5
5
5
5
5
5
5
5
5
5
5
5
5
5
5
5
5
5
5
5
5
5
5
5
5
5
5
5
5
5
5
5
5
5
5
5
5
5
5
5
5
5
5
5
5
5
5
5
5
5
5
5
5
5
5
5
5
5
5
5
5
5
5
5
5
5
5
5
5
5
5
5
5
5
5
5
5
5
5
5
5
5
5
5
5
5
5
5
5
5
5
5
5
5
5
5
5
5
5
5
5
5
5
5
5
5
5
5
5
5
5
5
5
5
5
5
5
5
5
5
5
5
5
5
5
5
5
5
5
5
5
5
5
5
5
5
5
5
5
5
5
5
5
5
5
5
5
5
5
5
5
5
5
5
5
5
5
5
5
5
5
5
5
5
5
5
5
5
5
5
5
5
5
5
5
5
5
5
5
5
5
5
5
5
5
5
5
5
5
5
5
5
5
5
5
5
5
5
5
5
5
5
5
5
5
5
5
5
5
5
5
5
5
5
5
5
5
5
5
5
5
5
5
5
5
5
5
5
5
5
5
5
5
5
5
5
5
5
5
5
5
5
5
5
5
5
5
5
5
5
5
5
5
5
5
5
5
5
5
5
5
5
5
5
5
5
5
5
5
5
5
5
5
5
5
5
5
5
5
5
5
5
5
5
5
5
5
5
5
5
5
5
5
5
5
5
5
5
5
5
5
5
5
5
5
5
5
5
5
5
5
5
5
5
5
5
5
5
5
5
5
5
5
5
5
5
5
5
5
5
5
5
5
5
5
5
5
5
5
5
5
5
5
5
5
5
5
5
5
5
5
5
5
5
5
5
5
5
5
5
5
5
5
5
5
5
5
5
5
5
5
5
5
5
5
5
5
5
5
5
5
5
5
5
5
5
5
5
5
5
5
5
5
5
5
5
5
5
5
5
5
5
5
5
5
5
5
5
5
5
5
5
5
5
5
5
5
5
5
5
5
5
5
5
5
5
5
5
5
5
5
5
5
5
5
5
5
5
5
5
5
5
5
5
5
5
5
5
5
5
5
5
5
5
5
5
5
5
5
5
5
5
5
5
5
5
5
5
5
5
5
5
5
5
5
5
5
5
5
5
5
5
5
5
5
5
5
5
5
5
5
5
5
5
5
5
5
5
5
5
5
5
5
5
5
5
5
5
5
5
5
5
5
5
5
5
5
5
5
5
5
5
5
5
5
5
5
5
5
5
5
5
5
5
5
5
5
5
5
5
5
5
5
5
5
5
5
5
5
5
5
5
5
5
5
5
5
5
5
5
5
5
5
5
5
5
5
5
5
5
5
5
5
5
5
5
5
5
5
5
5
5
5
5
5
5
5
5
5
5
5
5
5
5
5
5
5
5
5
5
5
5
5
5
5
5
5
5
5
5
5
5
5
5
5
5
5
5
5
5
5
5
5
5
5
5
5
5
5
5
5
5
5
5
5
5
5
5
5
5
5
5
5
5
5
5
5
5
5
5
5
5
5
5
5
5
5
5
5
5
5
5
5
5
5
5
5
5
5
5
5
5
5
5
5
5
5
5
5
5
5
5
5
5
5
5
5
5
5
5
5
5
5
5
5
5
5
5
5
5
5
5
5
5
5
5
5
5
5
5
5
5
5
5
5
5
5
5
5
5
5
5
5
5
5
5
5
5
5
5
5
5
5
5
5
5
5
5
5
5
5
5
5
5
5
5
5
5
5
5
5
5
5
5
5
5
5
5
5
5
5
5
5
5
5
5
5
5
5
5
5
5
5
5
5
5
5
5
5
5
5
5
5
5
5
5
5
5
5
5
5
5
5
5
5
5
5
5
5
5
5
5
5
5
5
5
5
5
5
5
5
5
5
5
5
5
5
5
5
5
5
5
5
5
5
5
5
5
5
5
5
5
5
5
5
5
5
5
5
5
5
5
5
5
5
5
5
5
5
5
5
5
5
5
5
5
5
5
5
5
5
5
5
5
5
5
5
5
5
5
5
5
5
5
5
5
5
5
5
5
5
5
5
5
5
5
5
5
5
5
5
5
5
5
5
5
5
5
5
5
5
5
5
5
5
5
5
5
5
5
5
5
5
5
5
5
5
5
5
5
5
5
5
5
5
5
5
5
5
5
5
5
5
5
5
5
5
5
5
5
5
5
5
5
5
5
5
5
5
5
5
5
5
5
5
5
5
5
5
5
5
5
5
5
5
5
5
5
5
5
5
5
5
5
5
5
5
5
5
5
5
5
5
5
5
5
5
5
5
5
5
5
5
5
5
5
5
5
5
5
5
5
5
5
5
5
5
5
5
5
5
5
5
5
5
5
5
5
5
5
5
5
5
5
5
5
5
5
5
5
5
5
5
5
5
5
5
5
5
5
5
5
5
5

POINT_DATA 1028

VECTORS coord float
0.0 0.0 0.0 
5.000000000000e+01 -1.000000000000e+01 0.0 
0.0 -2.000000000000e+01 0.0 
5.000000000000e+01 -2.000000000000e+01 0.0 
0.0 -9.999999999991e-01 0.0 
0.0 -1.999999999998e+00 0.0 
0.0 -2.999999999997e+00 0.0 
0.0 -3.999999999994e+00 0.0 
0.0 -4.999999999991e+00 0.0 
0.0 -5.999999999988e+00 0.0 
0.0 -6.999999999985e+00 0.0 
0.0 -7.999999999982e+00 0.0 
0.0 -8.999999999983e+00 0.0 
0.0 -9.999999999985e+00 0.0 
0.0 -1.099999999999e+01 0.0 
0.0 -1.199999999999e+01 0.0 
0.0 -1.299999999999e+01 0.0 
0.0 -1.399999999999e+01 0.0 
0.0 -1.499999999999e+01 0.0 
0.0 -1.599999999999e+01 0.0 
0.0 -1.700000000000e+01 0.0 
0.0 -1.800000000000e+01 0.0 
0.0 -1.900000000000e+01 0.0 
4.900000000001e+01 -2.000000000000e+01 0.0 
4.800000000001e+01 -2.000000000000e+01 0.0 
4.700000000002e+01 -2.000000000000e+01 0.0 
4.600000000003e+01 -2.000000000000e+01 0.0 
4.500000000004e+01 -2.000000000000e+01 0.0 
4.400000000004e+01 -2.000000000000e+01 0.0 
4.300000000005e+01 -2.000000000000e+01 0.0 
4.200000000006e+01 -2.000000000000e+01 0.0 
4.100000000006e+01 -2.000000000000e+01 0.0 
4.000000000007e+01 -2.000000000000e+01 0.0 
3.900000000008e+01 -2.000000000000e+01 0.0 
3.800000000009e+01 -2.000000000000e+01 0.0 
3.700000000009e+01 -2.000000000000e+01 0.0 
3.600000000010e+01 -2.000000000000e+01 0.0 
3.500000000011e+01 -2.000000000000e+01 0.0 
3.400000000011e+01 -2.000000000000e+01 0.0 
3.300000000012e+01 -2.000000000000e+01 0.0 
3.200000000013e+01 -2.000000000000e+01 0.0 
3.100000000013e+01 -2.000000000000e+01 0.0 
3.000000000013e+01 -2.000000000000e+01 0.0 
2.900000000013e+01 -2.000000000000e+01 0.0 
2.800000000013e+01 -2.000000000000e+01 0.0 
2.700000000013e+01 -2.000000000000e+01 0.0 
2.600000000013e+01 -2.000000000000e+01 0.0 
2.500000000013e+01 -2.000000000000e+01 0.0 
2.400000000013e+01 -2.000000000000e+01 0.0 
2.300000000013e+01 -2.000000000000e+01 0.0 
2.200000000013e+01 -2.000000000000e+01 0.0 
2.100000000013e+01 -2.000000000000e+01 0.0 
2.000000000013e+01 -2.000000000000e+01 0.0 
1.900000000013e+01 -2.000000000000e+01 0.0 
1.800000000013e+01 -2.000000000000e+01 0.0 
1.700000000012e+01 -2.000000000000e+01 0.0 
1.600000000011e+01 -2.000000000000e+01 0.0 
1.500000000011e+01 -2.000000000000e+01 0.0 
1.400000000010e+01 -2.000000000000e+01 0.0 
1.300000000009e+01 -2.000000000000e+01 0.0 
1.200000000009e+01 -2.000000000000e+01 0.0 
1.100000000008e+01 -2.000000000000e+01 0.0 
1.000000000007e+01 -2.000000000000e+01 0.0 
9.000000000064e+00 -2.000000000000e+01 0.0 
8.000000000057e+00 -2.000000000000e+01 0.0 
7.000000000050e+00 -2.000000000000e+01 0.0 
6.000000000043e+00 -2.000000000000e+01 0.0 
5.000000000036e+00 -2.000000000000e+01 0.0 
4.000000000028e+00 -2.000000000000e+01 0.0 
3.000000000021e+00 -2.000000000000e+01 0.0 
2.000000000014e+00 -2.000000000000e+01 0.0 
1.000000000007e+00 -2.000000000000e+01 0.0 
5.000000000000e+01 -1.100000000000e+01 0.0 
5.000000000000e+01 -1.200000000000e+01 0.0 
5.000000000000e+01 -1.300000000000e+01 0.0 
5.000000000000e+01 -1.400000000000e+01 0.0 
5.000000000000e+01 -1.500000000000e+01 0.0 
5.000000000000e+01 -1.600000000000e+01 0.0 
5.000000000000e+01 -1.700000000000e+01 0.0 
5.000000000000e+01 -1.800000000000e+01 0.0 
5.000000000000e+01 -1.900000000000e+01 0.0 
2.000000000000e+01 0.0 0.0 
3.500000000000e+01 -1.000000000000e+01 0.0 
2.150000000000e+01 -1.000000000000e+00 0.0 
2.300000000000e+01 -2.000000000000e+00 0.0 
2.450000000000e+01 -3.000000000000e+00 0.0 
2.600000000000e+01 -4.000000000000e+00 0.0 
2.750000000000e+01 -5.000000000000e+00 0.0 
2.900000000000e+01 -6.000000000000e+00 0.0 
3.050000000000e+01 -7.000000000000e+00 0.0 
3.200000000000e+01 -8.000000000000e+00 0.0 
3.350000000000e+01 -9.000000000000e+00 0.0 
4.900000000000e+01 -1.000000000000e+01 0.0 
4.800000000000e+01 -1.000000000000e+01 0.0 
4.700000000000e+01 -1.000000000000e+01 0.0 
4.600000000000e+01 -1.000000000000e+01 0.0 
4.500000000000e+01 -1.000000000000e+01 0.0 
4.400000000000e+01 -1.000000000000e+01 0.0 
4.300000000000e+01 -1.000000000000e+01 0.0 
4.200000000000e+01 -1.000000000000e+01 0.0 
4.100000000000e+01 -1.000000000000e+01 0.0 
4.000000000000e+01 -1.000000000000e+01 0.0 
3.900000000000e+01 -1.000000000000e+01 0.0 
3.800000000000e+01 -1.000000000000e+01 0.0 
3.700000000000e+01 -1.000000000000e+01 0.0 
3.600000000000e+01 -1.000000000000e+01 0.0 
1.900000000000e+01 0.0 0.0 
1.800000000000e+01 0.0 0.0 
1.700000000000e+01 0.0 0.0 
1.600000000000e+01 0.0 0.0 
1.500000000000e+01 0.0 0.0 
1.400000000000e+01 0.0 0.0 
1.300000000000e+01 0.0 0.0 
1.200000000000e+01 0.0 0.0 
1.100000000000e+01 0.0 0.0 
1.000000000000e+01 0.0 0.0 
9.000000000000e+00 0.0 0.0 
8.000000000000e+00 0.0 0.0 
7.000000000000e+00 0.0 0.0 
6.000000000000e+00 0.0 0.0 
5.000000000000e+00 0.0 0.0 
4.000000000000e+00 0.0 0.0 
3.000000000000e+00 0.0 0.0 
2.000000000000e+00 0.0 0.0 
1.000000000000e+00 0.0 0.0 
2.075000000000e+01 -5.000000000006e-01 0.0 
2.225000000000e+01 -1.500000000000e+00 0.0 
2.375000000000e+01 -2.500000000000e+00 0.0 
2.525000000000e+01 -3.500000000000e+00 0.0 
2.675000000000e+01 -4.500000000000e+00 0.0 
2.825000000000e+01 -5.500000000000e+00 0.0 
2.975000000000e+01 -6.500000000000e+00 0.0 
3.125000000000e+01 -7.500000000000e+00 0.0 
3.275000000000e+01 -8.500000000000e+00 0.0 
3.425000000000e+01 -9.500000000000e+00 0.0 
2.226951693683e+01 -2.403913980114e+00 0.0 
1.650149491944e+01 -1.913490915758e+01 0.0 
1.050042386896e+01 -8.504605092970e-01 0.0 
1.553146524712e+01 -8.281255032105e-01 0.0 
1.150000000008e+01 -1.913397459621e+01 0.0 
2.530060260647e+01 -4.428336431260e+00 0.0 
8.651114563942e-01 -1.052096295641e+01 0.0 
2.050000000013e+01 -1.913397459622e+01 0.0 
2.819198729811e+01 -6.399519052838e+00 0.0 
2.445670302931e+01 -1.915649188023e+01 0.0 
3.117591465718e+01 -8.394293040695e+00 0.0 
7.465053044742e+00 -1.920411160581e+01 0.0 
6.398295709691e+00 -8.230098819370e-01 0.0 
2.849659607461e+01 -1.914296187762e+01 0.0 
3.418732642882e+01 -1.040265792588e+01 0.0 
8.386450935063e-01 -6.533605142809e+00 0.0 
9.178661865596e-01 -1.329769195597e+01 0.0 
3.149448624493e+01 -1.910466733764e+01 0.0 
3.552916747426e+01 -1.914628590759e+01 0.0 
4.449210346537e+01 -1.914359085008e+01 0.0 
4.140975975145e+01 -1.906941860733e+01 0.0 
3.847475958753e+01 -1.916622382724e+01 0.0 
3.653774794640e+01 -1.088712800241e+01 0.0 
4.047886341787e+01 -1.090139014048e+01 0.0 
4.348006339825e+01 -1.092792621489e+01 0.0 
4.919519968029e+01 -1.451526755068e+01 0.0 
4.500000000032e+00 -1.913397459621e+01 0.0 
1.856136921614e+01 -8.212235170404e-01 0.0 
3.499895312306e+00 -8.661165539723e-01 0.0 
9.076088696565e-01 -1.642306201891e+01 0.0 
4.655174095477e+01 -1.086183387525e+01 0.0 
9.430688970604e-01 -3.496112672958e+00 0.0 
3.353992337063e+01 -1.901202090820e+01 0.0 
2.249746016977e+01 -1.921262287282e+01 0.0 
2.650122741777e+01 -1.916123026018e+01 0.0 
1.863571384842e+01 -1.908325534840e+01 0.0 
1.450089971693e+01 -1.917691901860e+01 0.0 
1.350044695317e+01 -8.659695299584e-01 0.0 
3.849987469880e+01 -1.084154983397e+01 0.0 
9.454419857884e+00 -1.900818879936e+01 0.0 
4.917398660523e+01 -1.645692866081e+01 0.0 
8.500000000000e+00 -8.660254037844e-01 0.0 
8.660319230785e-01 -8.500111697188e+00 0.0 
4.649022621545e+01 -1.930506220113e+01 0.0 
2.667688107845e+01 -5.420288124331e+00 0.0 
2.379251615665e+01 -3.412225477429e+00 0.0 
2.966631491830e+01 -7.389030232731e+00 0.0 
3.267915035995e+01 -9.396934932445e+00 0.0 
2.074836922338e+01 -1.320054020319e+00 0.0 
4.915985743621e+01 -1.261973384855e+01 0.0 
2.527129768623e+00 -1.931592414663e+01 0.0 
1.538676247410e+00 -8.436956619311e-01 0.0 
4.908096641539e+01 -1.842484004551e+01 0.0 
3.478612492673e+01 -1.090889364140e+01 0.0 
3.409757055860e+01 -1.131991530427e+01 0.0 
3.501895309466e+01 -1.177687842717e+01 0.0 
3.407758073088e+01 -1.224293381580e+01 0.0 
3.484541875390e+01 -1.277051428430e+01 0.0 
3.400322025842e+01 -1.319022775640e+01 0.0 
3.321672625034e+01 -1.266779191233e+01 0.0 
3.315244139236e+01 -1.360984106532e+01 0.0 
3.236335186892e+01 -1.308463225210e+01 0.0 
3.478337442841e+01 -1.372341158982e+01 0.0 
3.230105923633e+01 -1.403023731610e+01 0.0 
3.150954055289e+01 -1.350301767700e+01 0.0 
3.144604792090e+01 -1.444931742516e+01 0.0 
3.065653897123e+01 -1.392357262981e+01 0.0 
3.071897610812e+01 -1.297447031198e+01 0.0 
2.986790411740e+01 -1.339226181535e+01 0.0 
2.993181466745e+01 -1.244703272398e+01 0.0 
2.908023061869e+01 -1.286254537734e+01 0.0 
2.901619051372e+01 -1.380881655279e+01 0.0 
2.822986160390e+01 -1.327695262116e+01 0.0 
2.829453476870e+01 -1.233265343811e+01 0.0 
2.744542905518e+01 -1.274510491105e+01 0.0 
2.751120089246e+01 -1.180368086886e+01 0.0 
2.666218649885e+01 -1.221619339205e+01 0.0 
2.672371209234e+01 -1.127125228527e+01 0.0 
2.587763216302e+01 -1.168539979114e+01 0.0 
2.581165585299e+01 -1.262994410089e+01 0.0 
2.502890882577e+01 -1.209827323619e+01 0.0 
2.509631327757e+01 -1.115492410304e+01 0.0 
2.424662989877e+01 -1.156630981079e+01 0.0 
2.431704046904e+01 -1.062389179334e+01 0.0 
2.346445438728e+01 -1.103427680694e+01 0.0 
2.339382552877e+01 -1.197964871788e+01 0.0 
2.260936050780e+01 -1.144513277642e+01 0.0 
2.268075012022e+01 -1.049911928216e+01 0.0 
2.182525737661e+01 -1.090920811464e+01 0.0 
2.189682319817e+01 -9.961716944568e+00 0.0 
2.104174127792e+01 -1.037266986667e+01 0.0 
2.111304367575e+01 -9.424179358711e+00 0.0 
2.025306185381e+01 -9.832727364719e+00 0.0 
2.018141124247e+01 -1.079140628871e+01 0.0 
1.938594498257e+01 -1.025147354112e+01 0.0 
1.946106490453e+01 -9.288010758448e+00 0.0 
1.858929958352e+01 -9.706319802516e+00 0.0 
1.851540991219e+01 -1.067205988724e+01 0.0 
1.771485303178e+01 -1.012504443115e+01 0.0 
1.764134552256e+01 -1.109360378538e+01 0.0 
1.683745148095e+01 -1.054496365337e+01 0.0 
1.691852964353e+01 -9.582555261178e+00 0.0 
1.603603813062e+01 -1.000160132379e+01 0.0 
1.595824239350e+01 -1.096750698862e+01 0.0 
1.515080624291e+01 -1.041639501931e+01 0.0 
1.523171602559e+01 -9.451711491453e+00 0.0 
1.434621060709e+01 -9.871956467464e+00 0.0 
1.426777178765e+01 -1.083749501371e+01 0.0 
1.345775282374e+01 -1.028803175500e+01 0.0 
1.354103873368e+01 -9.324918457162e+00 0.0 
1.265072018622e+01 -9.742612837270e+00 0.0 
1.257285762070e+01 -1.071557782384e+01 0.0 
1.175874815690e+01 -1.015972324288e+01 0.0 
1.184203019714e+01 -9.193604071377e+00 0.0 
1.094927709905e+01 -9.612103238656e+00 0.0 
1.086938022910e+01 -1.058685085646e+01 0.0 
1.005424098961e+01 -1.002939116380e+01 0.0 
9.977974613295e+00 -1.101324897989e+01 0.0 
1.012915646404e+01 -9.051815821181e+00 0.0 
9.237127782494e+00 -9.471239055559e+00 0.0 
9.308426593771e+00 -8.483376461131e+00 0.0 
8.418806073345e+00 -8.910712374517e+00 0.0 
2.253688464062e+01 -1.239459402279e+01 0.0 
8.495126726666e+00 -7.921646665254e+00 0.0 
9.389727383206e+00 -7.512103628377e+00 0.0 
7.601560812974e+00 -8.349460349344e+00 0.0 
7.525680547759e+00 -9.339736686940e+00 0.0 
7.677888324502e+00 -7.359727833346e+00 0.0 
6.782001206724e+00 -7.788454494773e+00 0.0 
6.858778622885e+00 -6.797338062822e+00 0.0 
2.196596590865e+01 -8.979025665442e+00 0.0 
2.816540108272e+01 -1.422634142353e+01 0.0 
5.961601194403e+00 -7.226824010712e+00 0.0 
6.038171749656e+00 -6.234825887079e+00 0.0 
6.936257279557e+00 -5.805287640737e+00 0.0 
6.115068918323e+00 -5.242109758768e+00 0.0 
3.564391741903e+01 -1.329240553876e+01 0.0 
3.558115605778e+01 -1.425902892003e+01 0.0 
3.645445282201e+01 -1.381970786460e+01 0.0 
3.639744204358e+01 -1.479198128612e+01 0.0 
3.727266909778e+01 -1.435399586226e+01 0.0 
5.216667013081e+00 -5.671788584287e+00 0.0 
3.220697293295e+01 -1.499594545107e+01 0.0 
3.551112158269e+01 -1.523479869250e+01 0.0 
2.836056961467e+01 -1.139032434851e+01 0.0 
2.516730388602e+01 -1.021382726837e+01 0.0 
1.844436907403e+01 -1.164097215196e+01 0.0 
5.885434318740e+00 -8.218694781467e+00 0.0 
5.064071066867e+00 -7.656614643901e+00 0.0 
4.988089103470e+00 -8.649722082718e+00 0.0 
1.079421050408e+01 -1.157014985435e+01 0.0 
9.902420005256e+00 -1.199903342656e+01 0.0 
1.071994252214e+01 -1.255727909771e+01 0.0 
9.826974788171e+00 -1.298659581767e+01 0.0 
1.064607883789e+01 -1.354595476388e+01 0.0 
9.751541265343e+00 -1.397556905071e+01 0.0 
8.932296185869e+00 -1.341553353988e+01 0.0 
8.856399248106e+00 -1.440570715508e+01 0.0 
8.036186803543e+00 -1.384470558472e+01 0.0 
1.057112875118e+01 -1.453516759081e+01 0.0 
1.146582585687e+01 -1.410539926903e+01 0.0 
7.959894480382e+00 -1.483563350928e+01 0.0 
7.138792279156e+00 -1.427465094140e+01 0.0 
7.062506792418e+00 -1.526615385482e+01 0.0 
6.240693558277e+00 -1.470508863040e+01 0.0 
6.316957575451e+00 -1.371212581281e+01 0.0 
5.418183007107e+00 -1.414253605022e+01 0.0 
5.494748364428e+00 -1.314886770603e+01 0.0 
1.756825565873e+01 -1.206433872514e+01 0.0 
1.837565773345e+01 -1.261356468266e+01 0.0 
1.749574831391e+01 -1.303769280014e+01 0.0 
1.830539187332e+01 -1.358828364284e+01 0.0 
1.742278925170e+01 -1.401367746928e+01 0.0 
1.823303007798e+01 -1.456432294258e+01 0.0 
1.734941694138e+01 -1.499213734361e+01 0.0 
1.653760041637e+01 -1.443920312098e+01 0.0 
3.056237977307e+01 -1.487132260174e+01 0.0 
1.866469084762e+01 -8.742953000418e+00 0.0 
1.953669694916e+01 -8.326038909849e+00 0.0 
1.874194303780e+01 -7.780688158966e+00 0.0 
1.961032016741e+01 -7.366854697285e+00 0.0 
1.881715755159e+01 -6.821102209649e+00 0.0 
1.968369797150e+01 -6.407747217358e+00 0.0 
1.889237123259e+01 -5.858375520026e+00 0.0 
1.802038875366e+01 -6.276202618170e+00 0.0 
1.809793837984e+01 -5.307629520489e+00 0.0 
1.721985207997e+01 -5.728242054488e+00 0.0 
1.729850893523e+01 -4.756990819347e+00 0.0 
1.641745664240e+01 -5.174636548624e+00 0.0 
2.495978509456e+01 -1.304406404294e+01 0.0 
1.911567814831e+01 -1.413854250293e+01 0.0 
1.904387332608e+01 -1.511463127723e+01 0.0 
1.992115934240e+01 -1.468788025898e+01 0.0 
7.013706899628e+00 -4.812582868662e+00 0.0 
5.342091874585e+00 -1.513658157269e+01 0.0 
1.139098043784e+01 -1.509488509480e+01 0.0 
1.228151810610e+01 -1.465617481983e+01 0.0 
1.646373110164e+01 -1.541993323337e+01 0.0 
5.293328636712e+00 -4.678385108584e+00 0.0 
1.975965862987e+01 -5.448124345648e+00 0.0 
2.054318374236e+01 -5.992561293251e+00 0.0 
3.721453439063e+01 -1.533216152738e+01 0.0 
3.809302733893e+01 -1.489235527381e+01 0.0 
1.220852788900e+01 -1.565304565230e+01 0.0 
4.394120899730e+00 -5.108397613210e+00 0.0 
8.779354620288e+00 -1.539524721159e+01 0.0 
1.817791047702e+01 -4.338570146253e+00 0.0 
4.518860013839e+00 -1.457343189307e+01 0.0 
4.442712140414e+00 -1.556841391069e+01 0.0 
8.115343466391e+00 -1.285760324283e+01 0.0 
1.985334703171e+01 -1.566478400426e+01 0.0 
2.071953850276e+01 -1.522074243119e+01 0.0 
1.634012953883e+01 -6.154777738301e+00 0.0 
1.553479994708e+01 -5.593730508879e+00 0.0 
1.561265946942e+01 -4.617761762647e+00 0.0 
1.470674212978e+01 -5.064576488228e+00 0.0 
1.464498299883e+01 -6.026514471420e+00 0.0 
1.383271561817e+01 -5.467796261169e+00 0.0 
1.389241253067e+01 -4.504338666645e+00 0.0 
1.301868735463e+01 -4.907185188626e+00 0.0 
1.294514184846e+01 -5.888160903592e+00 0.0 
1.212955968622e+01 -5.328262335277e+00 0.0 
1.220721122383e+01 -4.341264976687e+00 0.0 
1.131324345897e+01 -4.766773516508e+00 0.0 
5.266597955397e+00 -1.613148974258e+01 0.0 
1.737805990867e+01 -3.786677807525e+00 0.0 
3.078438094513e+01 -1.203225297748e+01 0.0 
1.131569882285e+01 -1.608511932110e+01 0.0 
1.728478341782e+01 -1.596017432313e+01 0.0 
3.803465906019e+01 -1.587509751228e+01 0.0 
3.891681276677e+01 -1.543395196905e+01 0.0 
3.897340985302e+01 -1.444710288980e+01 0.0 
3.980095968193e+01 -1.499059496613e+01 0.0 
3.974334598189e+01 -1.597921884150e+01 0.0 
4.062964983717e+01 -1.553518690417e+01 0.0 
4.068729602479e+01 -1.454434445295e+01 0.0 
4.151772679790e+01 -1.508974196007e+01 0.0 
4.157505195739e+01 -1.409694289912e+01 0.0 
4.240699932656e+01 -1.464347955968e+01 0.0 
4.234898051011e+01 -1.563721375790e+01 0.0 
4.323934606035e+01 -1.519082036405e+01 0.0 
4.329740528208e+01 -1.419587509788e+01 0.0 
4.413056841369e+01 -1.474359631875e+01 0.0 
4.418850110108e+01 -1.374786684042e+01 0.0 
4.502219770667e+01 -1.429605103525e+01 0.0 
4.496411937907e+01 -1.529215882720e+01 0.0 
4.490027319897e+00 -4.154167794594e+00 0.0 
1.565080385988e+01 -1.486411982419e+01 0.0 
1.557610691279e+01 -1.584855627870e+01 0.0 
4.195350646612e+00 -8.089117689096e+00 0.0 
4.124027797830e+00 -9.082831955007e+00 0.0 
4.917944318925e+00 -9.643530901533e+00 0.0 
4.020105689502e+00 -1.007439673661e+01 0.0 
4.587185899277e+01 -1.484039992728e+01 0.0 
4.580078661551e+01 -1.584043391042e+01 0.0 
2.061956522375e+01 -5.046701343981e+00 0.0 
2.139572955529e+01 -5.579553449826e+00 0.0 
3.715344357292e+01 -1.631485124583e+01 0.0 
3.618886196443e+00 -1.500471207167e+01 0.0 
3.695606940204e+00 -1.400939692294e+01 0.0 
2.438890661143e+01 -9.686110599723e+00 0.0 
2.523267572778e+01 -9.276766000622e+00 0.0 
2.446094171539e+01 -8.751904591412e+00 0.0 
2.529089822738e+01 -8.321495612547e+00 0.0 
2.606882688827e+01 -8.864724051119e+00 0.0 
2.452116646430e+01 -7.792756462004e+00 0.0 
1.235543269617e+01 -1.365845617339e+01 0.0 
4.318116874181e+01 -1.618567469992e+01 0.0 
7.835066111909e+00 -5.376366223896e+00 0.0 
7.905687335704e+00 -4.382539065697e+00 0.0 
3.542640009567e+00 -1.600035116542e+01 0.0 
1.572431503071e+01 -1.388358386695e+01 0.0 
2.574684696680e+01 -1.357896141127e+01 0.0 
2.488842657651e+01 -1.399674354505e+01 0.0 
2.568301775611e+01 -1.453552048595e+01 0.0 
2.481535572009e+01 -1.495542756508e+01 0.0 
2.561729699688e+01 -1.549784648532e+01 0.0 
2.474623061296e+01 -1.592058894178e+01 0.0 
2.394234041695e+01 -1.537572575827e+01 0.0 
2.065825452567e+01 -1.621899055217e+01 0.0 
2.387180528935e+01 -1.634552264687e+01 0.0 
4.585364400844e+01 -1.383912334080e+01 0.0 
1.998744432052e+01 -1.370317155541e+01 0.0 
1.205356951443e+01 -6.313580285498e+00 0.0 
5.396543905849e+00 -3.731818611283e+00 0.0 
1.139652573295e+01 -3.745819399350e+00 0.0 
3.574124306703e+00 -4.551456826011e+00 0.0 
3.494140761930e+00 -5.539787055649e+00 0.0 
1.213651452413e+01 -1.664505033022e+01 0.0 
2.555045568519e+01 -1.646529356744e+01 0.0 
2.641671114986e+01 -1.603899382371e+01 0.0 
2.612920721894e+01 -7.906435260873e+00 0.0 
2.690339829698e+01 -8.456969591431e+00 0.0 
1.978024383368e+01 -1.664410216353e+01 0.0 
3.732829979082e+01 -1.336926601859e+01 0.0 
4.074336584605e+01 -1.355133328401e+01 0.0 
4.163204691081e+01 -1.310280943992e+01 0.0 
3.773826114429e+00 -3.493444309145e+00 0.0 
1.228783001032e+01 -3.374822835872e+00 0.0 
4.057110462520e+01 -1.652588478000e+01 0.0 
2.132535497898e+01 -6.523623360525e+00 0.0 
2.216932532211e+01 -6.110044769206e+00 0.0 
1.825781152128e+01 -3.370146817147e+00 0.0 
1.745679445888e+01 -2.812942552063e+00 0.0 
4.666517057280e+01 -1.539981381543e+01 0.0 
4.660575894464e+01 -1.639014410186e+01 0.0 
4.838230979954e+00 -1.063643436446e+01 0.0 
3.938942630206e+00 -1.106778981745e+01 0.0 
1.302967218620e+01 -1.621373452436e+01 0.0 
1.049548003190e+01 -4.204825123240e+00 0.0 
4.573571907195e+01 -1.683820511148e+01 0.0 
1.483686335807e+01 -1.430849689310e+01 0.0 
1.490982658890e+01 -1.332679386284e+01 0.0 
3.190805600162e+00 -9.510968358545e+00 0.0 
2.146625721848e+01 -4.642437303115e+00 0.0 
2.069866208266e+01 -4.111852942193e+00 0.0 
1.286859345584e+01 -6.873252723348e+00 0.0 
1.041794493184e+01 -5.194814260291e+00 0.0 
2.671081808965e+00 -4.976806516331e+00 0.0 
1.295786792925e+01 -1.720506531799e+01 0.0 
3.968438206511e+01 -1.696869067241e+01 0.0 
2.308550456051e+01 -1.579963151273e+01 0.0 
2.315593682844e+01 -1.482967445235e+01 0.0 
2.299471449450e+01 -1.677069968132e+01 0.0 
1.057344714696e+01 -3.214252277840e+00 0.0 
1.124057603753e+01 -1.707713739755e+01 0.0 
2.718402535754e+00 -1.543629882103e+01 0.0 
2.638549692805e+01 -1.696744916809e+01 0.0 
2.723416349007e+01 -1.658104204545e+01 0.0 
2.210193351704e+01 -7.046769643417e+00 0.0 
2.295180925161e+01 -6.657397605239e+00 0.0 
2.301355235833e+01 -5.709111896800e+00 0.0 
2.379052718281e+01 -6.254965406962e+00 0.0 
3.243528601237e+01 -1.214181853533e+01 0.0 
2.287977995457e+01 -7.583722368300e+00 0.0 
2.999876029544e+01 -1.150837653096e+01 0.0 
3.084435366963e+01 -1.109693775882e+01 0.0 
3.006650579669e+01 -1.057778994262e+01 0.0 
2.683802665066e+01 -9.386863216633e+00 0.0 
2.768641973621e+01 -8.988883915666e+00 0.0 
2.040296980397e+01 -7.903629133404e+00 0.0 
1.925235024054e+01 -1.218872783130e+01 0.0 
5.735667000424e+00 -1.020577277283e+01 0.0 
6.396559909872e+00 -1.272326295703e+01 0.0 
1.161199420714e+01 -1.212812778229e+01 0.0 
4.229046132615e+01 -1.663084237572e+01 0.0 
4.312275399692e+01 -1.718087491556e+01 0.0 
4.335502068163e+01 -1.320039231514e+01 0.0 
4.424630298089e+01 -1.275160688731e+01 0.0 
7.090116643816e+00 -3.818998061530e+00 0.0 
7.989472176569e+00 -3.389238711200e+00 0.0 
9.085824861778e+00 -1.144036167408e+01 0.0 
1.041972423731e+01 -1.651614080893e+01 0.0 
3.797525112640e+01 -1.686052038746e+01 0.0 
3.709114253394e+01 -1.730125999865e+01 0.0 
3.626966748340e+01 -1.675477052919e+01 0.0 
1.385164591440e+01 -1.677597757552e+01 0.0 
1.787152588784e+01 -8.198993896093e+00 0.0 
1.668849729812e+01 -1.248560611628e+01 0.0 
1.659546177905e+01 -3.232482605530e+00 0.0 
2.332214717345e+01 -1.292598167641e+01 0.0 
7.168238450786e+00 -2.824711686516e+00 0.0 
2.894878403906e+01 -1.475427524446e+01 0.0 
2.646763248247e+00 -1.643270107952e+01 0.0 
3.467431944285e+00 -1.699648837348e+01 0.0 
2.059475877282e+01 -1.719473628526e+01 0.0 
3.333868355437e+01 -1.080596971682e+01 0.0 
2.246451062637e+01 -1.334557761546e+01 0.0 
2.167821896388e+01 -1.280847834858e+01 0.0 
3.089653185767e+01 -1.017198487212e+01 0.0 
3.012604365669e+01 -9.657298805968e+00 0.0 
2.929627299435e+01 -1.006100135274e+01 0.0 
2.936201435219e+01 -9.136748899251e+00 0.0 
1.198219052702e+01 -7.291887238230e+00 0.0 
1.116702076035e+01 -6.731976101053e+00 0.0 
2.551388807505e+01 -1.746927036981e+01 0.0 
2.378639090370e+01 -1.728678807149e+01 0.0 
2.718543627188e+01 -1.748668016909e+01 0.0 
2.804681050301e+01 -1.712626668293e+01 0.0 
1.970737034667e+01 -1.762317646822e+01 0.0 
1.889535776135e+01 -1.707158098231e+01 0.0 
2.593777711283e+00 -5.971157087874e+00 0.0 
2.773468281110e+01 -8.067164273938e+00 0.0 
4.051205884347e+01 -1.751819982458e+01 0.0 
3.166903145421e+01 -1.068032992414e+01 0.0 
1.033042452886e+01 -1.748285844336e+01 0.0 
9.519274604626e+00 -1.694349240233e+01 0.0 
1.668308673328e+01 -2.255861778986e+00 0.0 
1.570531902832e+01 -2.676795860126e+00 0.0 
4.655826903379e+01 -1.736656245706e+01 0.0 
2.384148070773e+01 -5.328744256413e+00 0.0 
2.460255123641e+01 -5.852182672816e+00 0.0 
2.306638135119e+01 -4.798935440613e+00 0.0 
8.467720450578e-01 -1.849576263072e+01 0.0 
4.849657322345e+01 -1.084860705506e+01 0.0 
2.565860899507e+00 -1.742859793981e+01 0.0 
2.764418872564e+01 -9.927142821799e+00 0.0 
4.565165880064e+01 -1.785336695404e+01 0.0 
2.162231831329e+01 -1.376528337468e+01 0.0 
2.360646352969e+01 -9.136041963102e+00 0.0 
1.392738739903e+01 -1.578285505772e+01 0.0 
4.756405947478e+01 -1.683706841809e+01 0.0 
4.740895034054e+01 -1.793766756892e+01 0.0 
4.080779328826e+01 -1.257387192544e+01 0.0 
4.168907939671e+01 -1.210739129181e+01 0.0 
3.991197722154e+01 -1.300815793917e+01 0.0 
1.905536506762e+01 -3.940076697685e+00 0.0 
1.923879596617e+01 -2.875000734166e+00 0.0 
4.401386745746e+01 -1.673483229438e+01 0.0 
4.247233362525e+00 -7.094581653070e+00 0.0 
3.286051630211e+00 -7.635300020553e+00 0.0 
9.609533347623e+00 -4.594311677967e+00 0.0 
9.523554636369e+00 -5.595597029530e+00 0.0 
5.660336628893e+00 -1.119290329628e+01 0.0 
6.558070063295e+00 -1.076385809362e+01 0.0 
2.809866407414e+01 -1.518037766799e+01 0.0 
2.888868674504e+01 -1.570360690070e+01 0.0 
2.654431550819e+01 -1.411217777162e+01 0.0 
1.402158265969e+01 -1.375404617952e+01 0.0 
1.409592494026e+01 -1.277071998942e+01 0.0 
1.499355196178e+01 -1.235270737023e+01 0.0 
4.221535326155e+01 -1.759335617494e+01 0.0 
4.305583287033e+01 -1.822663146802e+01 0.0 
1.280748808359e+01 -7.834332838285e+00 0.0 
1.368988389326e+01 -7.420529606172e+00 0.0 
1.110091796060e+01 -7.683966794328e+00 0.0 
3.963446145980e+01 -1.794331310122e+01 0.0 
3.423932362213e+00 -1.796415590455e+01 0.0 
4.280814572302e+00 -1.752272834860e+01 0.0 
8.050136380041e+00 -2.421582378631e+00 0.0 
8.888674091650e+00 -2.984264211327e+00 0.0 
2.152839430898e+01 -3.732609965436e+00 0.0 
2.077799585292e+01 -3.183896021866e+00 0.0 
3.618719395821e+01 -1.770276572576e+01 0.0 
3.538165138340e+01 -1.718709995539e+01 0.0 
3.702925326420e+01 -1.828844288807e+01 0.0 
1.756739438711e+00 -5.353284859169e+00 0.0 
2.233710191104e+01 -1.527265621324e+01 0.0 
1.389483555057e+01 -1.771797164730e+01 0.0 
1.475634224300e+01 -1.728357428390e+01 0.0 
1.298797563052e+01 -1.825968924755e+01 0.0 
2.145331271866e+01 -1.673705379077e+01 0.0 
2.133282821169e+01 -1.769400773673e+01 0.0 
2.292139194136e+01 -1.774915400288e+01 0.0 
1.750750053243e+01 -1.861475593469e+00 0.0 
4.830478841772e+01 -1.752611802221e+01 0.0 
4.341203507805e+01 -1.220326745522e+01 0.0 
1.685254151866e+01 -1.443085301632e+00 0.0 
4.431538535165e+01 -1.171841387375e+01 0.0 
4.511308610496e+01 -1.229557320599e+01 0.0 
4.510133242889e+01 -1.123680627466e+01 0.0 
1.846818030617e+00 -4.410877617069e+00 0.0 
3.995468694584e+01 -1.186571542989e+01 0.0 
3.901387459804e+01 -1.242507616755e+01 0.0 
8.966735877533e+00 -1.837818700423e+00 0.0 
4.049310011091e+01 -1.848269508791e+01 0.0 
7.278862053803e+00 -1.918523922691e+00 0.0 
6.429715522129e+00 -2.316676521184e+00 0.0 
9.443505505022e+00 -1.792198868094e+01 0.0 
8.620386951051e+00 -1.737590365556e+01 0.0 
8.571868171503e+00 -1.834436667826e+01 0.0 
7.758629848526e+00 -1.775677907213e+01 0.0 
7.806648388584e+00 -1.680761266021e+01 0.0 
6.908555145436e+00 -1.723746463044e+01 0.0 
4.251709122090e+01 -1.156937480156e+01 0.0 
6.931136405615e+00 -1.832465719263e+01 0.0 
6.015545461353e+00 -1.768865355295e+01 0.0 
5.960535926343e+00 -1.872011001764e+01 0.0 
3.023253444786e+01 -8.761960642196e+00 0.0 
2.454622702599e+01 -6.749421992767e+00 0.0 
2.537499741604e+01 -6.347634963783e+00 0.0 
2.544077378460e+01 -5.431358513649e+00 0.0 
2.801367161747e+01 -1.820907270221e+01 0.0 
2.884507806914e+01 -1.762032095326e+01 0.0 
1.821474531936e+00 -1.588901260460e+01 0.0 
1.821006262604e+00 -1.489370287756e+01 0.0 
4.599962488908e+01 -1.176478780598e+01 0.0 
4.705457470007e+01 -1.172182804229e+01 0.0 
4.667668314802e+01 -1.263464558483e+01 0.0 
4.759648056504e+01 -1.252380987933e+01 0.0 
4.728041618103e+01 -1.341928568376e+01 0.0 
4.825209352360e+01 -1.330491640804e+01 0.0 
4.778118233428e+01 -1.420151961695e+01 0.0 
2.388192727579e+01 -1.826934810142e+01 0.0 
2.381714684947e+01 -4.385917965223e+00 0.0 
3.172733219247e+01 -9.758744265248e+00 0.0 
1.882012070658e+01 -1.805540597212e+01 0.0 
1.805667505243e+01 -1.742221226236e+01 0.0 
2.852599958080e+01 -8.597196079481e+00 0.0 
2.856486123437e+01 -7.661382718527e+00 0.0 
1.111792842875e+01 -1.818223852980e+01 0.0 
2.203322722466e+01 -7.986646678802e+00 0.0 
3.955703676900e+01 -1.903246763601e+01 0.0 
1.944842206513e+01 -8.038750575182e-01 0.0 
1.909882767783e+01 -1.746322740933e+00 0.0 
2.281147422941e+01 -8.525912918334e+00 0.0 
2.850633001468e+01 -9.533271335986e+00 0.0 
2.532883344309e+01 -7.308951659710e+00 0.0 
2.620475466461e+01 -6.979208585400e+00 0.0 
1.396278270396e+01 -1.475095389807e+01 0.0 
9.791001166724e+00 -2.554159793552e+00 0.0 
2.229293380421e+01 -4.269762271052e+00 0.0 
4.677238984118e+01 -1.430071795514e+01 0.0 
2.228658385918e+01 -3.344747535984e+00 0.0 
8.940223674553e-01 -1.543595733415e+01 0.0 
2.118566862474e+01 -8.435876987696e+00 0.0 
2.678325936437e+01 -1.032621195706e+01 0.0 
2.223400220487e+01 -5.179046761770e+00 0.0 
2.375370625384e+01 -7.251580562134e+00 0.0 
3.156971327386e+01 -1.255534750737e+01 0.0 
3.328226391312e+01 -1.172914813316e+01 0.0 
3.250948774219e+01 -1.120157009348e+01 0.0 
2.032993445717e+01 -8.867880112202e+00 0.0 
2.697226974856e+01 -7.536633082045e+00 0.0 
2.707377810386e+01 -6.590835263295e+00 0.0 
2.914099246827e+01 -1.191678458549e+01 0.0 
3.544824072239e+01 -1.621126558525e+01 0.0 
3.456511855436e+01 -1.665054783843e+01 0.0 
3.448395810225e+01 -1.759117813016e+01 0.0 
3.368378673938e+01 -1.708037781328e+01 0.0 
3.375560452567e+01 -1.610973066913e+01 0.0 
3.288001547988e+01 -1.654324255651e+01 0.0 
3.282475929147e+01 -1.749725654692e+01 0.0 
3.199880906313e+01 -1.697294088625e+01 0.0 
3.197001272932e+01 -1.811667776864e+01 0.0 
3.111884713021e+01 -1.742166785755e+01 0.0 
3.120418962865e+01 -1.642155709385e+01 0.0 
3.034666704371e+01 -1.683123833816e+01 0.0 
3.026224379976e+01 -1.772592851714e+01 0.0 
3.046632362943e+01 -1.582232843075e+01 0.0 
1.961344017324e+01 -1.857459447985e+01 0.0 
2.274975894774e+01 -9.532738811922e+00 0.0 
1.833923246887e+01 -2.396746883672e+00 0.0 
1.988859500848e+01 -2.249244376594e+00 0.0 
2.758045562861e+01 -1.086434261689e+01 0.0 
3.247300178163e+01 -1.909930104252e+01 0.0 
3.461947482503e+01 -1.911879848019e+01 0.0 
2.047161538662e+01 -6.941478180358e+00 0.0 
2.750230940214e+01 -1.915490590764e+01 0.0 
3.165081350803e+01 -1.161860780120e+01 0.0 
1.897456727641e+01 -4.889634688522e+00 0.0 
2.549338539756e+01 -1.914858252089e+01 0.0 
3.462873135081e+01 -1.567482276144e+01 0.0 
3.384432415243e+01 -1.512280684518e+01 0.0 
3.471433767690e+01 -1.469086942990e+01 0.0 
3.651470373046e+01 -1.918207952149e+01 0.0 
3.901742690249e+01 -1.345028556517e+01 0.0 
2.153224102692e+01 -1.920169709333e+01 0.0 
1.918382939341e+01 -1.316226275662e+01 0.0 
2.005389162382e+01 -1.271962165174e+01 0.0 
2.011472087878e+01 -1.175029352900e+01 0.0 
3.210679478412e+01 -1.598038618242e+01 0.0 
1.752175226543e+01 -1.914713022656e+01 0.0 
1.696897240059e+01 -1.832772588765e+01 0.0 
1.599682523337e+01 -1.832599992024e+01 0.0 
1.644507199462e+01 -1.743697981535e+01 0.0 
1.549987712903e+01 -1.915192375101e+01 0.0 
3.050250861901e+01 -1.918943550234e+01 0.0 
2.949944061527e+01 -1.922950455235e+01 0.0 
1.375892575273e+01 -6.447160534926e+00 0.0 
1.457223670180e+01 -7.006709243857e+00 0.0 
1.450818793236e+01 -7.965943451779e+00 0.0 
1.538804712402e+01 -7.553409623699e+00 0.0 
1.545817644768e+01 -6.580929593419e+00 0.0 
1.626506893751e+01 -7.129032608911e+00 0.0 
1.619833811522e+01 -8.086588580887e+00 0.0 
1.714448609609e+01 -6.697429609777e+00 0.0 
2.887616543568e+01 -1.668015232137e+01 0.0 
1.349814589130e+01 -1.918225301544e+01 0.0 
1.153887772210e+01 -1.311384581217e+01 0.0 
1.242708159886e+01 -1.267046795531e+01 0.0 
1.249799674267e+01 -1.169005616014e+01 0.0 
6.631723893693e+00 -9.774184881867e+00 0.0 
7.451471631867e+00 -1.033148796006e+01 0.0 
7.377795355458e+00 -1.132196345268e+01 0.0 
5.810931797536e+00 -9.211654212252e+00 0.0 
2.402683899133e+01 -1.441378562320e+01 0.0 
1.249768692036e+01 -1.917388426624e+01 0.0 
1.580373499437e+01 -1.290751860664e+01 0.0 
8.344650507834e+00 -9.898403995170e+00 0.0 
3.750622115305e+01 -1.086526401533e+01 0.0 
3.699391251667e+01 -1.171695900794e+01 0.0 
3.606517829518e+01 -1.173717504500e+01 0.0 
3.650257641795e+01 -1.270047380221e+01 0.0 
3.808951488918e+01 -1.183518714175e+01 0.0 
4.760380962420e+00 -1.162484888315e+01 0.0 
3.861210370848e+00 -1.205657631736e+01 0.0 
3.038284309476e+00 -1.149851280664e+01 0.0 
2.961598794889e+00 -1.248856794980e+01 0.0 
2.138953225512e+00 -1.193212674534e+01 0.0 
2.227383593457e+00 -1.096258903918e+01 0.0 
2.043265419276e+00 -1.292158472959e+01 0.0 
1.252449446028e+00 -1.225502002753e+01 0.0 
3.949985210740e+01 -1.086594001795e+01 0.0 
1.453499444792e+01 -8.768805922472e-01 0.0 
1.403518950933e+01 -1.749965556633e+00 0.0 
1.300715031023e+01 -1.714737233040e+00 0.0 
1.350929389899e+01 -2.527443911291e+00 0.0 
1.449600910711e+01 -2.595486162864e+00 0.0 
1.395693872901e+01 -3.484211041558e+00 0.0 
1.495105865208e+01 -3.364609636216e+00 0.0 
1.508822528740e+01 -1.766586020494e+00 0.0 
1.250223858430e+01 -8.634590186802e-01 0.0 
1.200279523409e+01 -1.709044504992e+00 0.0 
1.150086239419e+01 -8.592789190668e-01 0.0 
1.101482754194e+01 -1.677730591922e+00 0.0 
1.148018564526e+01 -2.659323866909e+00 0.0 
8.800552119754e+00 -3.989875954728e+00 0.0 
3.452790439430e+00 -1.901136170646e+01 0.0 
8.658451825200e-01 -9.503462241795e+00 0.0 
1.694787786797e+00 -9.000589234502e+00 0.0 
1.703436717094e+00 -8.038819004041e+00 0.0 
2.594197971110e+00 -8.563955242845e+00 0.0 
1.630513735412e+00 -9.907244747511e+00 0.0 
8.566859292791e-01 -7.512203837972e+00 0.0 
1.685461277022e+00 -7.164280248030e+00 0.0 
2.506394468801e+00 -8.623386730818e-01 0.0 
2.007475081581e+00 -1.727729545205e+00 0.0 
9.211534699767e-01 -1.628791366312e+00 0.0 
1.500000000020e+00 -2.598063549486e+00 0.0 
2.482078929963e+00 -2.553580088725e+00 0.0 
2.999795253092e+00 -1.732169015019e+00 0.0 
3.999712607169e+00 -1.728832897453e+00 0.0 
4.499752199340e+00 -8.656478679175e-01 0.0 
4.964377774841e+00 -1.730129617941e+00 0.0 
4.425017908337e+00 -2.597541756243e+00 0.0 
5.446573195014e+00 -8.410144840023e-01 0.0 
4.915722346614e+01 -1.550640962770e+01 0.0 
4.826794919243e+01 -1.600000000000e+01 0.0 
1.053139533193e+01 -1.911782884365e+01 0.0 
4.156049861949e+01 -1.095160998589e+01 0.0 
9.494526624416e+00 -8.650570090219e-01 0.0 
4.555762166964e+01 -1.897098103585e+01 0.0 
4.250656411371e+01 -1.914387356218e+01 0.0 
4.350906466345e+01 -1.917234727395e+01 0.0 
8.759665722424e-01 -1.746422130609e+01 0.0 
1.698936011838e+00 -1.795012186674e+01 0.0 
4.742476811029e+01 -1.900090177972e+01 0.0 
7.749196752349e+00 -6.368049313489e+00 0.0 
3.361572113416e+01 -1.798765193915e+01 0.0 
4.484660149212e+01 -1.728661231383e+01 0.0 
1.984038172228e+01 -4.502575320116e+00 0.0 
1.035080352627e+01 -6.166639575753e+00 0.0 
2.753558010652e+00 -1.444909521181e+01 0.0 
7.217069543032e+00 -1.328635391078e+01 0.0 
4.364336727739e+00 -1.655585677381e+01 0.0 
4.595208426108e+00 -1.357919665443e+01 0.0 
6.164967006980e+00 -1.569873454630e+01 0.0 
1.487855768353e+01 -1.826523774028e+01 0.0 
2.791876456372e+00 -4.019632415181e+00 0.0 
4.246464893515e+01 -1.364898659620e+01 0.0 
4.503855590351e+01 -1.329552780944e+01 0.0 
4.407239109604e+01 -1.573900004093e+01 0.0 
5.141054449252e+00 -6.664290382472e+00 0.0 
3.141083947149e+00 -1.055790764912e+01 0.0 
6.196463198741e+00 -4.256497932609e+00 0.0 
2.599618716181e+01 -1.836893455464e+01 0.0 
2.923057372337e+01 -1.098461757645e+01 0.0 
1.168343877486e+01 -1.114079645041e+01 0.0 
6.706222096238e+00 -8.780364234441e+00 0.0 
8.567858614669e+00 -6.943121440850e+00 0.0 
1.123755132901e+01 -5.753525820030e+00 0.0 
2.353456234423e+01 -1.008536320953e+01 0.0 
9.162073319168e+00 -1.045593739109e+01 0.0 
9.676343469685e+00 -1.496493008366e+01 0.0 
4.490637882905e+01 -1.628778970202e+01 0.0 
7.398129387772e+00 -9.639977982323e-01 0.0 
1.049641705805e+01 -1.552503975272e+01 0.0 
9.010356286268e+00 -1.242805042052e+01 0.0 
3.985573925497e+01 -1.399863651620e+01 0.0 
1.816196318262e+01 -1.554066497931e+01 0.0 
1.306332244168e+01 -3.963646550326e+00 0.0 
4.145850903932e+01 -1.608094559275e+01 0.0 
3.794664933633e+01 -1.779020121986e+01 0.0 
3.819614412903e+01 -1.290749321016e+01 0.0 
6.270014188119e+00 -3.255093186826e+00 0.0 
4.251165370388e+01 -1.263870364997e+01 0.0 
1.207347709171e+01 -1.763942826023e+01 0.0 
3.633240829927e+01 -1.577330481104e+01 0.0 
4.319052668832e+00 -6.101812561904e+00 0.0 
1.676492415806e+01 -1.151547901392e+01 0.0 
2.594059220037e+01 -1.074225223009e+01 0.0 
3.340750911501e+01 -9.898764354137e+00 0.0 
4.397619591281e+01 -1.769773736461e+01 0.0 
2.175611595028e+01 -1.185718747128e+01 0.0 
1.641818733106e+01 -1.640685203215e+01 0.0 
1.661211421753e+01 -1.346121366338e+01 0.0 
3.428853504935e+00 -6.551993389271e+00 0.0 
8.700728832502e+00 -1.638460872825e+01 0.0 
1.931369795309e+01 -1.121629383702e+01 0.0 
4.139798872363e+01 -1.706922153459e+01 0.0 
2.647837478700e+01 -1.507353829290e+01 0.0 
1.779469616424e+01 -9.161615782908e+00 0.0 
3.885879219319e+01 -1.642026488918e+01 0.0 
1.338194936770e+01 -1.125916521471e+01 0.0 
1.897071181111e+01 -1.609204322578e+01 0.0 
2.844308548793e+01 -1.046221003096e+01 0.0 
2.659854702194e+01 -1.316109415760e+01 0.0 
2.979604503271e+01 -1.433296157755e+01 0.0 
2.417694041347e+01 -1.251231397779e+01 0.0 
1.807401327411e+00 -1.388891148480e+01 0.0 
9.599810618782e+00 -1.595439365034e+01 0.0 
1.652144692160e+01 -4.205392788472e+00 0.0 
2.367839450246e+01 -8.188385218643e+00 0.0 
3.814894930468e+01 -1.390748338767e+01 0.0 
2.466448215774e+01 -1.685878545680e+01 0.0 
4.134044524611e+01 -1.806610045954e+01 0.0 
2.600511411958e+01 -9.801774120648e+00 0.0 
7.882158050716e+00 -1.582364037353e+01 0.0 
3.881607873422e+01 -1.737970515013e+01 0.0 
8.270182347708e+00 -1.088622154920e+01 0.0 
8.672520392520e-01 -4.532984309881e+00 0.0 
1.993447205337e+01 -3.579061902667e+00 0.0 
1.794616079549e+01 -7.238038888498e+00 0.0 
2.097277068165e+01 -1.132450168636e+01 0.0 
8.194803300681e+00 -1.187214224265e+01 0.0 
3.522279404911e+01 -1.823342818178e+01 0.0 
6.984481050295e+00 -1.625271465557e+01 0.0 
1.309433007797e+01 -1.521718594215e+01 0.0 
2.150246167611e+01 -1.885399038185e+00 0.0 
3.250689370209e+01 -1.028789870535e+01 0.0 
6.085886272238e+00 -1.668342132851e+01 0.0 
1.588455661727e+01 -1.193498985921e+01 0.0 
1.809323400821e+01 -1.651110084195e+01 0.0 
1.348885082381e+00 -1.136065576512e+01 0.0 
2.497670221995e+01 -1.834631276173e+01 0.0 
2.937062818424e+01 -8.233711194470e+00 0.0 
5.185823744469e+00 -1.711566910207e+01 0.0 
1.477497877209e+01 -1.530177014512e+01 0.0 
2.125346158933e+01 -7.473003997367e+00 0.0 
4.751561118290e+01 -1.084897772632e+01 0.0 
5.056026576843e+00 -1.825750475525e+01 0.0 
1.473948554523e+01 -1.634577436309e+01 0.0 
2.410566630936e+01 -1.345970002612e+01 0.0 
1.507337507513e+01 -1.138527895328e+01 0.0 
3.189857338687e+01 -8.887781229006e+00 0.0 
7.298712468334e+00 -1.230231046246e+01 0.0 
2.738235495295e+01 -1.368931690364e+01 0.0 
3.750141041969e+01 -1.920449893070e+01 0.0 
1.557271965640e+01 -1.683317951731e+01 0.0 
3.393731848929e+01 -1.413034777044e+01 0.0 
6.482156824153e+00 -1.174575135362e+01 0.0 
2.077971718439e+01 -1.421279621836e+01 0.0 
3.455084320178e+00 -2.562590040585e+00 0.0 
3.099056096250e+01 -9.270280416035e+00 0.0 
5.580176125418e+00 -1.217387969259e+01 0.0 
1.707247630389e+01 -7.660651981710e+00 0.0 
1.418658814174e+01 -1.180390575393e+01 0.0 
2.049103025389e+01 -1.811296706038e+01 0.0 
4.680386172316e+00 -1.260396879301e+01 0.0 
1.699679896554e+01 -8.624561788199e+00 0.0 
3.779470168555e+00 -1.303424899720e+01 0.0 
3.036589870126e+01 -7.879832518349e+00 0.0 
3.306993001774e+01 -1.457671062095e+01 0.0 
2.840150110165e+00 -1.346530088269e+01 0.0 
2.732011135052e+01 -1.464591214560e+01 0.0 
5.423639259568e+00 -2.659711955016e+00 0.0 
2.324455961696e+01 -1.387269388211e+01 0.0 
1.752768355571e+00 -1.693128613594e+01 0.0 
1.020244783051e+01 -8.076834012808e+00 0.0 
1.330873875224e+01 -1.222417528206e+01 0.0 
3.297727364880e+01 -1.555480372087e+01 0.0 
2.890929955439e+01 -6.868664170731e+00 0.0 
1.323294664622e+01 -1.320754260334e+01 0.0 
2.726532861246e+01 -1.560593120806e+01 0.0 
2.240020643398e+01 -1.429299177247e+01 0.0 
2.090445823633e+01 -1.228128621332e+01 0.0 
1.315809881502e+01 -1.420739326938e+01 0.0 
2.781328038068e+01 -7.181956082300e+00 0.0 
8.614200829057e+00 -5.936933226306e+00 0.0 
8.714765730069e+00 -4.979270529687e+00 0.0 
1.611881701099e+01 -9.041973294003e+00 0.0 
2.806830314340e+01 -1.614622947108e+01 0.0 
2.084435391396e+00 -3.385085422913e+00 0.0 
3.133211811152e+01 -1.542347619750e+01 0.0 
9.693114650768e+00 -3.590281506442e+00 0.0 
1.531883592202e+01 -8.504584946143e+00 0.0 
2.151589117094e+01 -1.578915763018e+01 0.0 
4.918943882696e+01 -1.355538828056e+01 0.0 
1.443236615188e+01 -8.918701794549e+00 0.0 
8.276250966452e-01 -5.537685192197e+00 0.0 
1.362790867918e+01 -8.374718262212e+00 0.0 
2.083767477370e+01 -1.324843956035e+01 0.0 
1.273834678703e+01 -8.790890389337e+00 0.0 
1.192275845670e+01 -8.242261327467e+00 0.0 
4.477236023583e+01 -1.824312396664e+01 0.0 
1.102989384254e+01 -8.649855800911e+00 0.0 
4.849096516045e+01 -1.917293752213e+01 0.0 
1.588996752238e+00 -1.910230934687e+01 0.0 
4.904245197583e+01 -1.159839008158e+01 0.0 
2.753852929608e+01 -5.782128488093e+00 0.0 
1.756133602833e+01 -8.306130313187e-01 0.0 
2.615423700951e+01 -6.153865090092e+00 0.0 
1.028818761294e+01 -7.122020845892e+00 0.0 
2.970818901196e+01 -1.527821347593e+01 0.0 
4.801461623449e+01 -1.164472570985e+01 0.0 
9.455722100419e+00 -6.546069291118e+00 0.0 
3.089099236677e+01 -1.835339328261e+01 0.0 
2.350000000013e+01 -1.920825896750e+01 0.0 
4.830620531887e+01 -1.506626155470e+01 0.0 
1.725381944701e+01 -1.688794487850e+01 0.0 
2.156246225273e+01 -1.475893794002e+01 0.0 
4.919319648787e+01 -1.742767505896e+01 0.0 
4.437935623576e+01 -1.077662927266e+01 0.0 
1.001520521978e+01 -1.652692675208e+00 0.0 
9.067160240050e-01 -1.441937727541e+01 0.0 
2.603365149390e+01 -4.755996613848e+00 0.0 
2.458344439002e+01 -4.873645517696e+00 0.0 
2.304312390142e+01 -3.836552768096e+00 0.0 
2.546923202198e+00 -6.902480355749e+00 0.0 
1.251534969393e+01 -2.490989965776e+00 0.0 
2.454061833377e+01 -3.933354231935e+00 0.0 
1.788186558740e+01 -1.827424884923e+01 0.0 
4.090785243552e+01 -1.166553231904e+01 0.0 
2.230128851568e+01 -1.623015738726e+01 0.0 
2.302362347568e+01 -2.916239960270e+00 0.0 
3.878119254461e+01 -1.830091164002e+01 0.0 
2.210081359958e+01 -1.829238229150e+01 0.0 
8.443704882233e+00 -1.921993252862e+01 0.0 
2.218405824691e+01 -1.724557581508e+01 0.0 
2.151157503963e+01 -2.790636689331e+00 0.0 
3.741658958955e+01 -1.250400191722e+01 0.0 
2.697247663737e+01 -1.838290202309e+01 0.0 
4.743362342862e+01 -1.585850773010e+01 0.0 
6.671345075358e+00 -1.924977576322e+01 0.0 
3.900825404537e+01 -1.157220003875e+01 0.0 
4.649692961375e+01 -1.836335837481e+01 0.0 
1.578831424832e+01 -3.678284023361e+00 0.0 
4.814208768888e+01 -1.841249298770e+01 0.0 
2.964123298315e+01 -1.625739458193e+01 0.0 
4.580760351902e+01 -1.284294554687e+01 0.0 
3.561520879615e+01 -1.245548941949e+01 0.0 
2.555418095658e+00 -1.841101588290e+01 0.0 
3.288468366144e+01 -1.834258164109e+01 0.0 
2.065894391445e+01 -2.240688571739e+00 0.0 
4.739171429915e+01 -1.496536413446e+01 0.0 
3.478086729185e+00 -8.576434653209e+00 0.0 
1.606010630246e+01 -1.588421807951e+00 0.0 
1.018329200594e+01 -1.834320874317e+01 0.0 
2.957213339430e+01 -1.720496954591e+01 0.0 
4.142712790164e+00 -1.837794506222e+01 0.0 
6.698721532573e-01 -2.499999999997e+00 0.0 
8.037039123140e+00 -1.571229354954e+00 0.0 
1.203541361428e+01 -1.847784298001e+01 0.0 
2.899968332038e+01 -1.848264722179e+01 0.0 
1.469229460948e+01 -4.219485753730e+00 0.0 
4.049590781957e+01 -1.932812501995e+01 0.0 
1.996211678340e+01 -1.506329754720e+00 0.0 
4.250588298353e+01 -1.067383247529e+01 0.0 
5.831497011152e+00 -1.635396227234e+00 0.0 
5.317606125670e+00 -1.923927974868e+01 0.0 
4.208546426993e+01 -1.842830665025e+01 0.0 
2.327553405011e+00 -9.459409929662e+00 0.0 
3.568351902251e+01 -1.096637218582e+01 0.0 
1.682104374890e+00 -6.231413350963e+00 0.0 
2.451812238018e+01 -1.766524914339e+01 0.0 
1.058003429638e+01 -2.391839617098e+00 0.0 
4.399988753123e+01 -1.851998776342e+01 0.0 
1.400000000010e+01 -1.852293523028e+01 0.0 
3.604719565984e+01 -1.850662876800e+01 0.0 
1.951297136734e+01 -1.938092349694e+01 0.0 
1.821365318472e+01 -1.531276353287e+00 0.0 
2.298031859732e+01 -1.854635324722e+01 0.0 
1.552168066204e+01 -1.764280741977e+01 0.0 
4.572957713638e+01 -1.073347898229e+01 0.0 
3.429637429624e+01 -1.838861552790e+01 0.0 
2.427434426052e+00 -7.705577451869e+00 0.0 
4.662792031485e+00 -3.359424455416e+00 0.0 
4.926794919243e+01 -1.926794919243e+01 0.0 
7.320508075690e-01 -7.320508075688e-01 0.0 
4.926794919243e+01 -1.073205080757e+01 0.0 
7.320508075705e-01 -1.926794919243e+01 0.0 
2.917460242467e+00 -3.202866455310e+00 0.0 
4.838200575963e+01 -1.232674147454e+01 0.0 
2.998445708009e+01 -1.854403752148e+01 0.0 
5.949940090766e-01 -1.152762038165e+01 0.0 
4.844763495759e+01 -1.678092548787e+01 0.0 
1.301685480160e+01 -3.170056592566e+00 0.0 
1.650046335855e+01 -6.731535384067e-01 0.0 
4.854881540991e+01 -1.405224059779e+01 0.0 
2.119545114693e+01 -1.846813384545e+01 0.0 
3.797852849897e+01 -1.857978513215e+01 0.0 
4.649823708745e+01 -1.338351810816e+01 0.0 
2.012685900976e+01 -2.889659035009e+00 0.0 
2.953271913273e+01 -1.791558075192e+01 0.0 
2.408509097292e+00 -1.021949208421e+01 0.0 
2.642589566221e+01 -1.773216561448e+01 0.0 
1.730010270775e+01 -1.763165076721e+01 0.0 
2.017406551304e+01 -8.513536440582e-01 0.0 
5.254761581934e-01 -1.249999999999e+01 0.0 
6.640448215642e+00 -1.545337834885e+00 0.0 
7.843361506349e+00 -1.852719839527e+01 0.0 
1.588442191088e+00 -1.066158564320e+01 0.0 

SCALARS node_number int
LOOKUP_TABLE default
1
2
3
4
5
6
7
8
9
10
11
12
13
14
15
16
17
18
19
20
21
22
23
24
25
26
27
28
29
30
31
32
33
34
35
36
37
38
39
40
41
42
43
44
45
46
47
48
49
50
51
52
53
54
55
56
57
58
59
60
61
62
63
64
65
66
67
68
69
70
71
72
73
74
75
76
77
78
79
80
81
82
84
85
86
87
88
89
90
91
92
93
104
105
106
107
108
109
110
111
112
113
114
115
116
117
118
119
120
121
122
123
124
125
126
127
128
129
130
131
132
133
134
135
136
362
363
364
365
366
367
368
369
370
371
372
373
374
375
376
377
378
379
380
381
382
383
384
385
386
387
388
389
390
391
392
393
394
395
396
397
398
399
400
401
402
403
404
405
406
407
408
409
410
411
412
413
414
415
416
417
418
419
420
421
422
423
424
425
426
427
428
429
430
431
432
433
434
435
436
437
438
439
440
441
442
443
444
445
446
447
448
449
450
451
452
453
454
455
456
457
458
459
460
461
462
463
464
465
466
467
468
469
470
471
472
473
474
475
476
477
478
479
480
481
482
483
484
485
486
487
488
489
490
491
492
493
494
495
496
497
498
499
500
501
502
503
504
505
506
507
508
509
510
511
512
513
514
515
516
517
518
519
520
521
522
523
524
525
526
527
528
529
530
531
532
533
534
535
536
537
538
539
540
541
542
543
544
545
546
547
548
549
550
551
552
553
554
555
556
557
558
559
560
561
562
563
564
565
566
567
568
569
570
571
572
573
574
575
576
577
578
579
580
581
582
583
584
585
586
587
588
589
590
591
592
593
594
595
596
597
598
599
600
601
602
603
604
605
606
607
608
609
610
611
612
613
614
615
616
617
618
619
620
621
622
623
624
625
626
627
628
629
630
631
632
633
634
635
636
637
638
639
640
641
642
643
644
645
646
647
648
649
650
651
652
653
654
655
656
657
658
659
660
661
662
663
664
665
666
667
668
669
670
671
672
673
674
675
676
677
678
679
680
681
682
683
684
685
686
687
688
689
690
691
692
693
694
695
696
697
698
699
700
701
702
703
704
705
706
707
708
709
710
711
712
713
714
715
716
717
718
719
720
721
722
723
724
725
726
727
728
729
730
731
732
733
734
735
736
737
738
739
740
741
742
743
744
745
746
747
748
749
750
751
752
753
754
755
756
757
758
759
760
761
762
763
764
765
766
767
768
769
770
771
772
773
774
775
776
777
778
779
780
781
782
783
784
785
786
787
788
789
790
791
792
793
794
795
796
797
798
799
800
801
802
803
804
805
806
807
808
809
810
811
812
813
814
815
816
817
818
819
820
821
822
823
824
825
826
827
828
829
830
831
832
833
834
835
836
837
838
839
840
841
842
843
844
845
846
847
848
849
850
851
852
853
854
855
856
857
858
859
860
861
862
863
864
865
866
867
868
869
870
871
872
873
874
875
876
877
878
879
880
881
882
883
884
885
886
887
888
889
890
891
892
893
894
895
896
897
898
899
900
901
902
903
904
905
906
907
908
909
910
911
912
913
914
915
916
917
918
919
920
921
922
923
924
925
926
927
928
929
930
931
932
933
934
935
936
937
938
939
940
941
942
943
944
945
946
947
948
949
950
951
952
953
954
955
956
957
958
959
960
961
962
963
964
965
966
967
968
969
970
971
972
973
974
975
976
977
978
979
980
981
982
983
984
985
986
987
988
989
990
991
992
993
994
995
996
997
998
999
1000
1001
1002
1003
1004
1005
1006
1007
1008
1009
1010
1011
1012
1013
1014
1015
1016
1017
1018
1019
1020
1021
1022
1023
1024
1025
1026
1027
1028
1029
1030
1031
1032
1033
1034
1035
1036
1037
1038
1039
1040
1041
1042
1043
1044
1045
1046
1047
1048
1049
1050
1051
1052
1053
1054
1055
1056
1057
1058
1059
1060
1061
1062
1063
1064
1065
1066
1067
1068
1069
1070
1071
1072
1073
1074
1075
1076
1077
1078
1079
1080
1081
1082
1083
1084
1085
1086
1087
1088
1089
1090
1091
1092
1093
1094
1095
1096
1097
1098
1099
1100
1101
1102
1103
1104
1105
1106
1107
1108
1109
1110
1111
1112
1113
1114
1115
1116
1117
1118
1119
1120
1121
1122
1123
1124
1125
1126
1127
1128
1129
1130
1131
1132
1133
1134
1135
1136
1137
1138
1139
1140
1141
1142
1143
1144
1145
1146
1147
1148
1149
1150
1151
1152
1153
1154
1155
1156
1157
1158
1159
1160
1161
1162
1163
1164
1165
1166
1167
1168
1169
1170
1171
1172
1173
1174
1175
1176
1177
1178
1179
1180
1181
1182
1183
1184
1185
1186
1187
1188
1189
1190
1191
1192
1193
1194
1195
1196
1197
1198
1199
1200
1201
1202
1203
1204
1205
1206
1207
1208
1209
1210
1211
1212
1213
1214
1215
1216
1217
1218
1219
1220
1221
1222
1223
1224
1225
1226
1227
1228
1229
1230
1231
1232
1233
1234
1235
1236
1237
1238
1239
1240
1241
1242
1243
1244
1245
1246
1247
1248
1249
1250
1251
1252
1253
1254
1255
1256
1257
1258
1259
1260
1261
1262
1263
1264

VECTORS node_mesh_deformation float
0.0 7.665352082362e-02 0.0 
0.000000000000e+00 1.631251552860e-01 0.0 
0.0 0.000000000000e+00 0.0 
0.000000000000e+00 0.000000000000e+00 0.0 
0.0 7.697499731714e-02 0.0 
0.0 7.678686794004e-02 0.0 
0.0 7.608322183865e-02 0.0 
0.0 7.486547703864e-02 0.0 
0.0 7.311970460563e-02 0.0 
0.0 7.090142547553e-02 0.0 
0.0 6.824205477802e-02 0.0 
0.0 6.516433854307e-02 0.0 
0.0 6.169756793775e-02 0.0 
0.0 5.786045901648e-02 0.0 
0.0 5.366117978390e-02 0.0 
0.0 4.911137155338e-02 0.0 
0.0 4.422063472300e-02 0.0 
0.0 3.899951113469e-02 0.0 
0.0 3.341880300826e-02 0.0 
0.0 2.747836234654e-02 0.0 
0.0 2.117237301582e-02 0.0 
0.0 1.448985929525e-02 0.0 
0.0 7.427663777626e-03 0.0 
0.000000000000e+00 0.000000000000e+00 0.0 
0.000000000000e+00 0.000000000000e+00 0.0 
0.000000000000e+00 0.000000000000e+00 0.0 
0.000000000000e+00 0.000000000000e+00 0.0 
0.000000000000e+00 0.000000000000e+00 0.0 
0.000000000000e+00 0.000000000000e+00 0.0 
0.000000000000e+00 0.000000000000e+00 0.0 
0.000000000000e+00 0.000000000000e+00 0.0 
0.000000000000e+00 0.000000000000e+00 0.0 
0.000000000000e+00 0.000000000000e+00 0.0 
0.000000000000e+00 0.000000000000e+00 0.0 
0.000000000000e+00 0.000000000000e+00 0.0 
0.000000000000e+00 0.000000000000e+00 0.0 
0.000000000000e+00 0.000000000000e+00 0.0 
0.000000000000e+00 0.000000000000e+00 0.0 
0.000000000000e+00 0.000000000000e+00 0.0 
0.000000000000e+00 0.000000000000e+00 0.0 
0.000000000000e+00 0.000000000000e+00 0.0 
0.000000000000e+00 0.000000000000e+00 0.0 
0.000000000000e+00 0.000000000000e+00 0.0 
0.000000000000e+00 0.000000000000e+00 0.0 
0.000000000000e+00 0.000000000000e+00 0.0 
0.000000000000e+00 0.000000000000e+00 0.0 
0.000000000000e+00 0.000000000000e+00 0.0 
0.000000000000e+00 0.000000000000e+00 0.0 
0.000000000000e+00 0.000000000000e+00 0.0 
0.000000000000e+00 0.000000000000e+00 0.0 
0.000000000000e+00 0.000000000000e+00 0.0 
0.000000000000e+00 0.000000000000e+00 0.0 
0.000000000000e+00 0.000000000000e+00 0.0 
0.000000000000e+00 0.000000000000e+00 0.0 
0.000000000000e+00 0.000000000000e+00 0.0 
0.000000000000e+00 0.000000000000e+00 0.0 
0.000000000000e+00 0.000000000000e+00 0.0 
0.000000000000e+00 0.000000000000e+00 0.0 
0.000000000000e+00 0.000000000000e+00 0.0 
0.000000000000e+00 0.000000000000e+00 0.0 
0.000000000000e+00 0.000000000000e+00 0.0 
0.000000000000e+00 0.000000000000e+00 0.0 
0.000000000000e+00 0.000000000000e+00 0.0 
0.000000000000e+00 0.000000000000e+00 0.0 
0.000000000000e+00 0.000000000000e+00 0.0 
0.000000000000e+00 0.000000000000e+00 0.0 
0.000000000000e+00 0.000000000000e+00 0.0 
0.000000000000e+00 0.000000000000e+00 0.0 
0.000000000000e+00 0.000000000000e+00 0.0 
0.000000000000e+00 0.000000000000e+00 0.0 
0.000000000000e+00 0.000000000000e+00 0.0 
0.000000000000e+00 0.000000000000e+00 0.0 
0.000000000000e+00 1.483967230813e-01 0.0 
0.000000000000e+00 1.332444331035e-01 0.0 
0.000000000000e+00 1.176926356042e-01 0.0 
0.000000000000e+00 1.017706902068e-01 0.0 
0.000000000000e+00 8.550007017918e-02 0.0 
0.000000000000e+00 6.891345196701e-02 0.0 
0.000000000000e+00 5.204038120954e-02 0.0 
0.000000000000e+00 3.491208156157e-02 0.0 
0.000000000000e+00 1.756293096335e-02 0.0 
6.420982130802e-03 1.760869428734e-03 0.0 
2.826826143996e-02 1.492087082338e-01 0.0 
1.455302645062e-02 5.062589963691e-02 0.0 
1.941013477506e-02 8.216627036096e-02 0.0 
2.440082659561e-02 1.062695808803e-01 0.0 
2.900539743972e-02 1.216338911194e-01 0.0 
3.264560480413e-02 1.335053367915e-01 0.0 
3.524711939555e-02 1.424089782725e-01 0.0 
3.667998735594e-02 1.485107053559e-01 0.0 
3.657735167317e-02 1.520701244731e-01 0.0 
3.429662717751e-02 1.528918149758e-01 0.0 
1.669229804577e-03 1.631966189645e-01 0.0 
3.276554734725e-03 1.631868839268e-01 0.0 
4.898717715804e-03 1.632223055022e-01 0.0 
6.534160063929e-03 1.632724357658e-01 0.0 
8.181807683549e-03 1.632822416693e-01 0.0 
9.828745850591e-03 1.632620795457e-01 0.0 
1.148907022015e-02 1.631648245961e-01 0.0 
1.315045160021e-02 1.629439101827e-01 0.0 
1.483010847788e-02 1.625450095783e-01 0.0 
1.654093237565e-02 1.619151446228e-01 0.0 
1.828501255734e-02 1.609037062190e-01 0.0 
2.013191930373e-02 1.593758799549e-01 0.0 
2.219764813808e-02 1.571683182940e-01 0.0 
2.472311536653e-02 1.540446641810e-01 0.0 
8.732780463617e-03 -1.196709849469e-02 0.0 
1.199156052612e-02 -1.703641207223e-02 0.0 
1.572523951229e-02 -1.767927784105e-02 0.0 
2.060725149609e-02 -1.214593043719e-02 0.0 
2.370689100096e-02 3.473194784192e-03 0.0 
2.369085728501e-02 2.521963212616e-02 0.0 
2.230671696067e-02 3.837083256110e-02 0.0 
1.846765035485e-02 4.737052250305e-02 0.0 
1.632824499894e-02 5.393883945892e-02 0.0 
1.374348073044e-02 5.911055628523e-02 0.0 
1.163794429004e-02 6.350487442774e-02 0.0 
1.013298787594e-02 6.666262125576e-02 0.0 
8.501922429617e-03 6.933260570525e-02 0.0 
7.170038078712e-03 7.146787626175e-02 0.0 
5.869486744018e-03 7.315864848189e-02 0.0 
4.674578406509e-03 7.445369544365e-02 0.0 
3.471031653151e-03 7.544041405394e-02 0.0 
2.351393386652e-03 7.614060839560e-02 0.0 
1.109778543738e-03 7.654705464516e-02 0.0 
1.216253198518e-02 2.979613630790e-02 0.0 
1.687260762335e-02 6.773863479554e-02 0.0 
2.195041968760e-02 9.489280832583e-02 0.0 
2.682430271006e-02 1.146710657312e-01 0.0 
3.101959503296e-02 1.281342040059e-01 0.0 
3.414687618083e-02 1.384279593720e-01 0.0 
3.615817453555e-02 1.457761038128e-01 0.0 
3.686659890254e-02 1.505781044496e-01 0.0 
3.579244665841e-02 1.528283008569e-01 0.0 
3.193720195257e-02 1.521129280029e-01 0.0 
2.425363707471e-02 6.553454297647e-02 0.0 
3.330516216561e-03 7.186440386121e-03 0.0 
1.061205189720e-02 5.730556937731e-02 0.0 
1.323047233685e-02 -3.307342060318e-03 0.0 
1.119530079846e-03 6.119174254227e-03 0.0 
3.298968123521e-02 1.106480769339e-01 0.0 
-4.127387349777e-04 5.563884286899e-02 0.0 
4.890059149986e-03 8.345120937005e-03 0.0 
3.834281352966e-02 1.307322277755e-01 0.0 
5.986857210598e-03 9.190417275221e-03 0.0 
3.874777463897e-02 1.402959252785e-01 0.0 
5.234668365439e-06 5.689727452783e-03 0.0 
5.974372944902e-03 7.097460529807e-02 0.0 
7.082882671181e-03 1.045426217894e-02 0.0 
3.164078763315e-02 1.383195758984e-01 0.0 
-2.537150130715e-04 6.944071715562e-02 0.0 
-3.424607184950e-04 4.265257928975e-02 0.0 
7.423912293746e-03 1.219976151592e-02 0.0 
5.764571207571e-03 1.330388854541e-02 0.0 
1.711151512872e-03 1.493544789722e-02 0.0 
3.200402754111e-03 1.595672188022e-02 0.0 
4.247654673172e-03 1.382816422875e-02 0.0 
2.520632827093e-02 1.425156930246e-01 0.0 
1.621358583800e-02 1.489106014794e-01 0.0 
1.075629174038e-02 1.495446194111e-01 0.0 
1.085762177325e-03 9.342989573668e-02 0.0 
-2.065123067769e-04 6.336921350702e-03 0.0 
1.388567239098e-02 -1.126304346696e-02 0.0 
3.212951227646e-03 7.527407629599e-02 0.0 
-1.952819214767e-04 2.482554701868e-02 0.0 
5.584601880535e-03 1.505644456946e-01 0.0 
2.273449743964e-04 7.545604872154e-02 0.0 
7.537381835498e-03 1.449501298121e-02 0.0 
5.059758465741e-03 8.077959451700e-03 0.0 
6.459846009854e-03 9.690499957571e-03 0.0 
4.437013246051e-03 8.258232884454e-03 0.0 
2.334830856221e-03 6.310563766164e-03 0.0 
1.253989980079e-02 3.272926213355e-02 0.0 
2.026342080470e-02 1.477108210785e-01 0.0 
4.652664890674e-04 6.935789802288e-03 0.0 
8.348170015040e-04 6.123088534805e-02 0.0 
8.158190252956e-03 6.551512303141e-02 0.0 
-3.938147370794e-04 6.338065132688e-02 0.0 
8.514805632629e-04 1.218287371934e-02 0.0 
3.634113285382e-02 1.213446542099e-01 0.0 
2.887322376381e-02 9.204106189898e-02 0.0 
3.931227780102e-02 1.367333480355e-01 0.0 
3.626779012142e-02 1.410470312715e-01 0.0 
1.939703262185e-02 2.804442114823e-02 0.0 
1.292618329096e-03 1.236645666408e-01 0.0 
-1.197924145337e-04 5.084647102542e-03 0.0 
1.405213637437e-03 7.667567869458e-02 0.0 
4.637183692466e-04 2.755301379846e-02 0.0 
3.057967101142e-02 1.346630582151e-01 0.0 
3.305773899782e-02 1.250849830834e-01 0.0 
3.057880451867e-02 1.231509112185e-01 0.0 
3.301235585846e-02 1.121303854191e-01 0.0 
3.062950149460e-02 1.079443841843e-01 0.0 
3.211675249768e-02 9.860150544558e-02 0.0 
3.464461702931e-02 1.023170173861e-01 0.0 
3.309702222456e-02 8.946036695788e-02 0.0 
3.570516537042e-02 9.300089616106e-02 0.0 
2.937160666100e-02 9.384342820033e-02 0.0 
3.354365797774e-02 8.064276936479e-02 0.0 
3.622115634045e-02 8.406424536726e-02 0.0 
3.347216279836e-02 7.222199728994e-02 0.0 
3.619789193768e-02 7.554941791686e-02 0.0 
3.866607312589e-02 8.676170930270e-02 0.0 
3.870044377091e-02 7.822128371171e-02 0.0 
4.086173222268e-02 8.872433043901e-02 0.0 
4.094679826686e-02 8.015889614632e-02 0.0 
3.821393894660e-02 7.018483966022e-02 0.0 
4.050041366434e-02 7.214117616247e-02 0.0 
4.292850860634e-02 8.138646974708e-02 0.0 
4.250858545507e-02 7.339651108858e-02 0.0 
4.462193331663e-02 8.188601824891e-02 0.0 
4.421130322716e-02 7.391809939795e-02 0.0 
4.602936118943e-02 8.165230982547e-02 0.0 
4.561984412369e-02 7.374712144404e-02 0.0 
4.323573833879e-02 6.659478621803e-02 0.0 
4.451040033443e-02 6.654567672689e-02 0.0 
4.665752801191e-02 7.286716425430e-02 0.0 
4.532905252098e-02 6.581578714421e-02 0.0 
4.724189447980e-02 7.122437985035e-02 0.0 
4.546178282805e-02 6.398625816607e-02 0.0 
4.280380443946e-02 5.958060086926e-02 0.0 
4.236164188414e-02 5.784622616804e-02 0.0 
4.474070387917e-02 6.094148341831e-02 0.0 
4.104561156115e-02 5.520347393774e-02 0.0 
4.315916833309e-02 5.693103172073e-02 0.0 
3.882522022285e-02 5.178716265729e-02 0.0 
4.066779580114e-02 5.205046775984e-02 0.0 
3.553304387881e-02 4.751985810855e-02 0.0 
3.323942798642e-02 4.830473515207e-02 0.0 
2.928618152290e-02 4.479565343522e-02 0.0 
3.105408715069e-02 4.251084200976e-02 0.0 
2.431131599302e-02 4.089845216349e-02 0.0 
2.286974979689e-02 4.325461012599e-02 0.0 
1.790289238479e-02 4.034812211376e-02 0.0 
1.732115829775e-02 4.192653681878e-02 0.0 
1.274346788575e-02 3.981753120812e-02 0.0 
1.264313041196e-02 3.789444376609e-02 0.0 
8.179316926103e-03 3.826542549364e-02 0.0 
8.976838113044e-03 3.895525528960e-02 0.0 
5.119436229343e-03 3.821855885241e-02 0.0 
4.059656469938e-03 3.763495358654e-02 0.0 
1.862048793402e-03 3.841508412215e-02 0.0 
2.990009363325e-03 3.809824701442e-02 0.0 
4.287608860363e-04 3.910539640964e-02 0.0 
-5.948634416733e-04 3.961695682136e-02 0.0 
-1.360362018781e-03 4.099148024284e-02 0.0 
-4.394588823491e-04 3.979139508807e-02 0.0 
-1.822075359625e-03 4.217271171382e-02 0.0 
-2.615683490463e-03 4.355424933397e-02 0.0 
-2.819478295677e-03 4.497697329238e-02 0.0 
-2.079414897535e-03 4.298152938705e-02 0.0 
-2.869571885590e-03 4.599961832765e-02 0.0 
-2.187987702783e-03 4.345385076759e-02 0.0 
-3.452075349685e-03 4.817317997761e-02 0.0 
-3.327273505162e-03 4.925681086044e-02 0.0 
-3.712851175926e-03 5.161159931011e-02 0.0 
-3.469458212731e-03 5.264678631336e-02 0.0 
3.898367393302e-02 5.447746540679e-02 0.0 
-3.626967305145e-03 5.510669876128e-02 0.0 
-3.877740039144e-03 5.360858614795e-02 0.0 
-3.330389565869e-03 5.605060982558e-02 0.0 
-3.174475620160e-03 5.322965945428e-02 0.0 
-3.257089561132e-03 5.857134017991e-02 0.0 
-2.965551932438e-03 5.936942318789e-02 0.0 
-2.678772192772e-03 6.188971592031e-02 0.0 
4.428480358152e-02 5.845324990423e-02 0.0 
3.720434889303e-02 6.267840865313e-02 0.0 
-2.443125448143e-03 6.251283808308e-02 0.0 
-1.983595318549e-03 6.496578746303e-02 0.0 
-2.070707450858e-03 6.409385353474e-02 0.0 
-1.213702375438e-03 6.706360365338e-02 0.0 
2.796543684391e-02 1.030065201164e-01 0.0 
2.645484204407e-02 8.828269578419e-02 0.0 
2.520849357774e-02 9.725248152583e-02 0.0 
2.342194154517e-02 8.207209102627e-02 0.0 
2.235726321898e-02 9.067599002574e-02 0.0 
-1.262706708945e-03 6.773190362731e-02 0.0 
3.048579699096e-02 6.781559548136e-02 0.0 
2.405995175465e-02 7.336673686223e-02 0.0 
4.448324982001e-02 9.046218578900e-02 0.0 
4.786670230694e-02 7.901778341821e-02 0.0 
2.143596863909e-02 4.408509299208e-02 0.0 
-2.643075988411e-03 5.972508281604e-02 0.0 
-2.167912839145e-03 6.272057100801e-02 0.0 
-2.291432224491e-03 5.968135701424e-02 0.0 
-1.279776343381e-03 4.055001830260e-02 0.0 
-1.462966001958e-03 4.051713876634e-02 0.0 
-4.765806910267e-04 3.767401453166e-02 0.0 
-7.473203294950e-04 3.717084546238e-02 0.0 
2.745157957786e-04 3.433877932752e-02 0.0 
-9.599870407939e-05 3.339942998631e-02 0.0 
-9.245743776880e-04 3.645623778083e-02 0.0 
-3.792063744203e-04 3.228809247844e-02 0.0 
-1.029752765456e-03 3.550839867653e-02 0.0 
9.148712335438e-04 3.053347530963e-02 0.0 
1.498555358966e-03 3.179447921600e-02 0.0 
-5.833631955952e-04 3.097234903964e-02 0.0 
-1.071376448254e-03 3.430721663790e-02 0.0 
-7.093767447728e-04 2.942260110760e-02 0.0 
-1.053336021323e-03 3.284502889558e-02 0.0 
-1.407492007402e-03 3.768063092491e-02 0.0 
-1.267663498110e-03 3.627014268781e-02 0.0 
-1.588710681672e-03 4.104907955391e-02 0.0 
1.685746443489e-02 4.190935902804e-02 0.0 
2.012271490518e-02 4.327535072224e-02 0.0 
1.632115826214e-02 4.046353258111e-02 0.0 
1.878218008342e-02 4.096624140352e-02 0.0 
1.545821343917e-02 3.781427912343e-02 0.0 
1.715747943931e-02 3.742098718295e-02 0.0 
1.415256342862e-02 3.408125417657e-02 0.0 
1.248895334088e-02 3.479132793107e-02 0.0 
3.289529423528e-02 6.410461531732e-02 0.0 
2.548811763994e-02 3.731656109914e-02 0.0 
3.213431672489e-02 3.943735120516e-02 0.0 
2.621051432884e-02 3.283023696401e-02 0.0 
3.237246285210e-02 3.582152169703e-02 0.0 
2.631890064223e-02 2.773912923317e-02 0.0 
3.180283121714e-02 3.182031138502e-02 0.0 
2.581143775506e-02 2.224056456729e-02 0.0 
1.994311304671e-02 2.127310684051e-02 0.0 
1.974213102698e-02 1.474003172154e-02 0.0 
1.380049247139e-02 1.736762337173e-02 0.0 
1.413925790489e-02 1.026980917689e-02 0.0 
8.315487905769e-03 1.649633300366e-02 0.0 
4.139993871597e-02 6.005730195841e-02 0.0 
2.048189250455e-02 4.086088098715e-02 0.0 
1.811885690282e-02 3.638930707191e-02 0.0 
2.140735553939e-02 4.006840104969e-02 0.0 
-1.075445300164e-03 6.596199098696e-02 0.0 
-9.800522829435e-04 3.112095553140e-02 0.0 
2.073303807869e-03 2.790389400713e-02 0.0 
2.874081972021e-03 2.965538372682e-02 0.0 
1.145781323865e-02 3.084177496242e-02 0.0 
-4.106968383617e-04 6.965269525978e-02 0.0 
3.058565808156e-02 2.755339272388e-02 0.0 
3.587649241169e-02 3.950090029625e-02 0.0 
2.034905519985e-02 7.508713806956e-02 0.0 
1.949365370963e-02 8.343362653187e-02 0.0 
3.313676003007e-03 2.556114675528e-02 0.0 
-5.974716233386e-04 7.015255841932e-02 0.0 
4.025284449050e-05 2.770833675072e-02 0.0 
1.922703492844e-02 8.026829285916e-03 0.0 
-1.091112743360e-03 3.459166719789e-02 0.0 
-8.586142568365e-04 2.914973116611e-02 0.0 
-1.550891007183e-03 3.963900951997e-02 0.0 
1.835740261797e-02 3.468782210856e-02 0.0 
2.164589938693e-02 3.865645644144e-02 0.0 
7.616389813471e-03 2.320483850687e-02 0.0 
2.818831533306e-03 2.491745986698e-02 0.0 
3.711168736073e-03 1.873361951847e-02 0.0 
-8.001326688962e-04 2.922253715261e-02 0.0 
-1.023125043403e-03 3.277607486755e-02 0.0 
-3.016938497716e-03 3.636724335605e-02 0.0 
-2.515314883157e-03 3.404266576968e-02 0.0 
-3.582501009323e-03 4.041811359557e-02 0.0 
-3.791726173638e-03 4.141802439676e-02 0.0 
-3.935641853861e-03 4.550488203936e-02 0.0 
-3.169154164574e-03 4.521177974178e-02 0.0 
-3.327560489502e-03 5.014525334034e-02 0.0 
-7.375540580474e-04 2.557943120753e-02 0.0 
1.436235385674e-02 3.082578929962e-03 0.0 
4.023444301990e-02 9.778182926575e-02 0.0 
2.374035516754e-03 2.347421546293e-02 0.0 
1.244412439677e-02 2.937514955910e-02 0.0 
1.729248502317e-02 6.750052540371e-02 0.0 
1.665887751958e-02 7.564010486770e-02 0.0 
1.832687898285e-02 9.174276575297e-02 0.0 
1.573029637907e-02 8.370797896205e-02 0.0 
1.389922276608e-02 6.738948947002e-02 0.0 
1.320980675879e-02 7.531809422210e-02 0.0 
1.459076010016e-02 9.165558446030e-02 0.0 
1.230166762380e-02 8.313693356967e-02 0.0 
1.331355968093e-02 9.942368482844e-02 0.0 
1.123817360967e-02 9.081110658088e-02 0.0 
1.011064762016e-02 7.435765145132e-02 0.0 
9.246065751732e-03 8.200082234564e-02 0.0 
1.007111730882e-02 9.834475918906e-02 0.0 
8.252108525454e-03 8.952543357769e-02 0.0 
8.836301109852e-03 1.057260030372e-01 0.0 
7.161217626496e-03 9.692744131271e-02 0.0 
6.537154879865e-03 8.056294867311e-02 0.0 
2.225702414185e-04 7.176463648775e-02 0.0 
9.882381001976e-03 3.191410903483e-02 0.0 
9.110811462195e-03 2.770712974307e-02 0.0 
-1.867878212489e-03 6.250704319659e-02 0.0 
-1.926650484231e-03 5.922777199326e-02 0.0 
-2.258823653969e-03 5.629542575184e-02 0.0 
-1.860797309200e-03 5.564789550682e-02 0.0 
5.557991054197e-03 8.807854301218e-02 0.0 
4.955736270844e-03 7.149639630535e-02 0.0 
3.379807706204e-02 3.698681459312e-02 0.0 
3.818571681022e-02 5.061279653753e-02 0.0 
1.755234971981e-02 5.935446515532e-02 0.0 
-8.847532082101e-04 3.266079048624e-02 0.0 
-1.090336774122e-03 3.799934877910e-02 0.0 
4.818008361608e-02 7.646714302667e-02 0.0 
4.812041658276e-02 8.493035077954e-02 0.0 
4.814218851007e-02 8.153857008016e-02 0.0 
4.735530474621e-02 9.074014299698e-02 0.0 
4.732764932841e-02 9.401354299140e-02 0.0 
4.700247362212e-02 8.649105394343e-02 0.0 
2.208425344127e-03 3.309328270100e-02 0.0 
8.056033491393e-03 6.538650433631e-02 0.0 
-2.100190550358e-03 6.273901311104e-02 0.0 
-8.308643649260e-04 6.438797288999e-02 0.0 
-6.999775039600e-04 2.694924783474e-02 0.0 
1.022224430919e-02 3.510193148029e-02 0.0 
3.990633132515e-02 5.924167419600e-02 0.0 
3.731155671616e-02 5.337617722092e-02 0.0 
3.561835214716e-02 5.167397749771e-02 0.0 
3.220418669144e-02 4.653724307875e-02 0.0 
3.031736212696e-02 4.393341258793e-02 0.0 
2.626941555417e-02 3.940256610435e-02 0.0 
2.797068753292e-02 4.232399533195e-02 0.0 
1.790029062893e-02 3.227639004796e-02 0.0 
2.221643952691e-02 3.514926552709e-02 0.0 
6.094556322026e-03 1.043576195627e-01 0.0 
2.430212525457e-02 4.428502200498e-02 0.0 
-4.091030206499e-03 4.551729716999e-02 0.0 
6.688149230882e-04 7.101983985926e-02 0.0 
-1.609715778672e-03 5.055602759291e-02 0.0 
-6.387598603608e-05 7.217613691821e-02 0.0 
-6.697452734450e-04 7.027336918572e-02 0.0 
3.350174516687e-03 2.086320826622e-02 0.0 
2.410250657336e-02 3.592709727111e-02 0.0 
2.796479505961e-02 4.077018580016e-02 0.0 
4.588433648914e-02 1.005638855434e-01 0.0 
4.594490259547e-02 1.036936600976e-01 0.0 
1.496592490219e-02 2.827287297369e-02 0.0 
2.354693391062e-02 1.062896539625e-01 0.0 
1.543225931250e-02 1.077888639927e-01 0.0 
1.386961138909e-02 1.154403107983e-01 0.0 
7.854663109614e-04 7.358575229221e-02 0.0 
-1.074207587148e-03 4.481707250337e-02 0.0 
1.126839642614e-02 5.879546493169e-02 0.0 
4.025990905064e-02 5.116068267637e-02 0.0 
4.144464517226e-02 6.198448078594e-02 0.0 
1.822032128344e-02 1.634732211931e-03 0.0 
1.458366407276e-02 -3.565999110730e-03 0.0 
4.144407320638e-03 7.887430630180e-02 0.0 
3.573160904594e-03 6.230441410747e-02 0.0 
-2.107390915367e-03 5.259472786022e-02 0.0 
-1.714359384828e-03 5.169607403442e-02 0.0 
4.536586694533e-03 2.340479932784e-02 0.0 
-1.988869079815e-03 5.490723268933e-02 0.0 
4.124102066278e-03 5.467704258194e-02 0.0 
7.801554151836e-03 3.265480147621e-02 0.0 
7.560909419400e-03 3.527470185554e-02 0.0 
-1.515239201211e-03 5.854031017013e-02 0.0 
3.538028977180e-02 5.010358326564e-02 0.0 
3.110575659442e-02 3.459811590126e-02 0.0 
-3.530158215687e-03 4.197418916054e-02 0.0 
-3.308888176992e-03 5.395007602367e-02 0.0 
-2.286944690315e-04 7.218583846736e-02 0.0 
4.136997346279e-03 1.827883733352e-02 0.0 
1.144237293000e-02 5.091977777606e-02 0.0 
2.387825577413e-02 3.838491208552e-02 0.0 
2.923292549507e-02 4.475270170809e-02 0.0 
1.876386172918e-02 3.082313369979e-02 0.0 
3.922046809244e-04 5.568046993800e-02 0.0 
2.309070419450e-03 1.847251293684e-02 0.0 
-6.594250895970e-04 3.050147922637e-02 0.0 
2.179639516414e-02 3.232787498030e-02 0.0 
2.517097592535e-02 3.705687610210e-02 0.0 
4.339717154272e-02 6.087822044907e-02 0.0 
4.391002410882e-02 7.162130422011e-02 0.0 
4.109235071454e-02 7.401418214932e-02 0.0 
4.311938189722e-02 8.338486451270e-02 0.0 
3.694788634420e-02 1.052753859952e-01 0.0 
4.566638818907e-02 6.912621307185e-02 0.0 
4.214549445047e-02 9.904348882092e-02 0.0 
4.095182424624e-02 1.085946555199e-01 0.0 
4.256373370558e-02 1.091648525250e-01 0.0 
4.694129755305e-02 9.651624431518e-02 0.0 
4.561231093211e-02 1.061779933977e-01 0.0 
3.757346633385e-02 4.427422379899e-02 0.0 
2.480894821920e-02 4.587089788698e-02 0.0 
-2.484353925331e-03 5.316195504883e-02 0.0 
-1.798131826256e-03 4.212947401486e-02 0.0 
-7.459965590506e-05 3.797813546507e-02 0.0 
8.547678651119e-03 5.767087133611e-02 0.0 
6.485691235007e-03 4.854237770640e-02 0.0 
1.056758263888e-02 1.143766162217e-01 0.0 
9.162768226176e-03 1.215873810311e-01 0.0 
3.555038530463e-04 6.745186000114e-02 0.0 
9.759082642651e-04 6.563326920848e-02 0.0 
-2.186744971839e-03 4.359393678401e-02 0.0 
1.554476329380e-03 2.146324386899e-02 0.0 
1.434832330843e-02 5.143705336851e-02 0.0 
1.396330752851e-02 4.350443923463e-02 0.0 
1.736875380108e-02 5.125537375337e-02 0.0 
5.555354606170e-03 2.121984768181e-02 0.0 
1.931563595102e-02 3.280938887856e-02 0.0 
1.321718929282e-02 3.956441143267e-02 0.0 
1.060647288036e-02 1.772547045590e-03 0.0 
3.915579718020e-02 5.497403393571e-02 0.0 
2.229544619627e-03 6.848909666865e-02 0.0 
3.463058547949e-02 6.004325170720e-02 0.0 
-5.178082720079e-04 2.453905448664e-02 0.0 
-5.340979887793e-04 2.084748997081e-02 0.0 
1.395854906612e-02 2.507384395116e-02 0.0 
3.481311601933e-02 1.275627723961e-01 0.0 
3.469090769015e-02 5.077072600395e-02 0.0 
3.408946110727e-02 5.064715476910e-02 0.0 
4.086175107843e-02 1.191132297105e-01 0.0 
4.215623792350e-02 1.189847938175e-01 0.0 
4.387133707682e-02 1.090011602114e-01 0.0 
4.310198172848e-02 1.181982050063e-01 0.0 
-3.829741425683e-03 4.519717980373e-02 0.0 
-4.151302571263e-03 4.884937578029e-02 0.0 
1.745452017326e-02 2.692763463775e-02 0.0 
1.687541242147e-02 2.712014022742e-02 0.0 
1.888922017514e-02 2.803700389827e-02 0.0 
2.191719784749e-02 3.269990782675e-02 0.0 
1.126731083668e-02 2.092202346968e-02 0.0 
1.225884108221e-02 2.432404995078e-02 0.0 
-6.331182969137e-04 7.005269604656e-02 0.0 
4.406800208197e-02 1.137380743926e-01 0.0 
8.756118627097e-03 4.209984898898e-02 0.0 
3.925059455698e-02 1.185605733811e-01 0.0 
1.433903667460e-03 1.627959206722e-02 0.0 
8.833965742099e-04 1.940102872657e-02 0.0 
1.204853522679e-02 -5.396660892319e-03 0.0 
7.140890177064e-03 5.326506274585e-03 0.0 
2.828279076432e-03 4.571663630465e-02 0.0 
3.939679573864e-02 8.686035905017e-02 0.0 
4.115473537006e-02 9.574594525479e-02 0.0 
3.727027583784e-02 7.641641092044e-02 0.0 
-9.266897572580e-05 1.102886126478e-02 0.0 
2.433275136795e-03 1.507052844673e-01 0.0 
-3.829806617284e-04 1.819609049779e-02 0.0 
4.619104500122e-02 9.835340415337e-02 0.0 
3.062849380832e-03 3.732344675630e-02 0.0 
2.980922190897e-02 4.734595211259e-02 0.0 
4.772336327142e-02 7.229166255795e-02 0.0 
5.943897798213e-03 2.616348621370e-02 0.0 
2.289854649533e-03 5.477986771352e-02 0.0 
1.705408779472e-03 3.594890777362e-02 0.0 
1.573716345312e-02 1.233858435316e-01 0.0 
1.403945325688e-02 1.311178879021e-01 0.0 
1.755450935485e-02 1.158296373137e-01 0.0 
2.314460969805e-02 1.082640123962e-02 0.0 
2.064107896108e-02 5.737216982170e-03 0.0 
6.174805173984e-03 5.625624067314e-02 0.0 
-1.633747424987e-03 6.546332520731e-02 0.0 
-1.374384272737e-03 6.489505429587e-02 0.0 
-2.069638653705e-03 5.823764095375e-02 0.0 
-3.204731241956e-03 5.690233789332e-02 0.0 
-2.228989444364e-03 4.942120411633e-02 0.0 
-2.555710315921e-03 4.992311940287e-02 0.0 
3.303643622674e-02 5.297451598681e-02 0.0 
3.018291980010e-02 4.971332515124e-02 0.0 
3.799183590713e-02 5.784954092953e-02 0.0 
5.473339222329e-03 3.338201046993e-02 0.0 
4.824330820171e-03 3.566112544887e-02 0.0 
7.018842433039e-03 3.703234133925e-02 0.0 
6.620690776536e-03 4.132239249690e-02 0.0 
4.434341331176e-03 3.064895074258e-02 0.0 
-2.958087588468e-03 4.203498038446e-02 0.0 
-2.346052335064e-03 3.917897406000e-02 0.0 
-3.927573259000e-03 4.785740269666e-02 0.0 
8.409741173331e-03 3.460183549105e-02 0.0 
-3.775862185673e-04 1.453180965268e-02 0.0 
-4.883334844612e-04 1.732075380149e-02 0.0 
3.257680227332e-03 6.648129852736e-02 0.0 
1.717720464297e-03 6.319757930701e-02 0.0 
3.137030957008e-02 5.000770727761e-02 0.0 
2.723250490306e-02 3.289255460979e-02 0.0 
1.328816468180e-02 3.628075442987e-02 0.0 
1.672962838997e-02 4.342224311067e-02 0.0 
9.589574126714e-03 2.759647293137e-02 0.0 
-2.456933516333e-04 7.198510773795e-02 0.0 
2.500162369858e-02 4.091775599018e-02 0.0 
4.714607547886e-03 1.588069923644e-02 0.0 
6.303714159781e-03 1.911343162920e-02 0.0 
3.158160203480e-03 1.210431625875e-02 0.0 
1.698372993839e-02 2.950941787551e-02 0.0 
1.254600830915e-02 2.164001925676e-02 0.0 
1.360190388200e-02 2.229286672398e-02 0.0 
1.411554189984e-02 -9.090097906586e-03 0.0 
1.277667232898e-03 4.303111218504e-02 0.0 
1.077965130078e-02 1.300686743747e-01 0.0 
1.316269356733e-02 -1.068620329024e-02 0.0 
9.254340856593e-03 1.376267766604e-01 0.0 
7.798732866384e-03 1.287573560360e-01 0.0 
7.971722030831e-03 1.449575520418e-01 0.0 
5.352475836107e-05 7.374791617751e-02 0.0 
1.761925871402e-02 1.338153254335e-01 0.0 
1.977123983955e-02 1.240578781015e-01 0.0 
5.154837844229e-03 6.383914393952e-02 0.0 
5.730477632262e-03 2.577496556952e-02 0.0 
4.254497391051e-03 6.887370453062e-02 0.0 
3.083596137733e-03 7.058281036316e-02 0.0 
7.910141138030e-04 1.379400658473e-02 0.0 
3.826228994246e-04 1.717703947362e-02 0.0 
3.124139362605e-04 1.130097990357e-02 0.0 
3.734920023213e-05 1.510757469381e-02 0.0 
-4.397396970823e-05 2.070293265951e-02 0.0 
-2.624965647708e-04 1.847635600766e-02 0.0 
1.247423968482e-02 1.396699989224e-01 0.0 
-1.269772039647e-04 1.165640504517e-02 0.0 
-3.657992708623e-04 1.590428835113e-02 0.0 
-2.123946676607e-04 9.115645108846e-03 0.0 
4.089123019379e-02 1.287423564636e-01 0.0 
4.451980427146e-02 9.129152297860e-02 0.0 
4.224139910396e-02 1.020341914464e-01 0.0 
3.816632963699e-02 1.074232829080e-01 0.0 
1.415366498042e-02 2.102235529593e-02 0.0 
1.867083904047e-02 2.834709202996e-02 0.0 
-4.255594281846e-04 2.800944649259e-02 0.0 
-5.167581969934e-04 3.383822780911e-02 0.0 
6.412041974123e-03 1.369436407986e-01 0.0 
4.693681803474e-03 1.375688788717e-01 0.0 
5.160161845772e-03 1.234817301931e-01 0.0 
3.724609203161e-03 1.251939234318e-01 0.0 
4.039335024267e-03 1.110966953475e-01 0.0 
2.598205121359e-03 1.129002816659e-01 0.0 
3.101753568757e-03 9.853383583316e-02 0.0 
1.135139378465e-02 1.799010429554e-02 0.0 
3.468901081316e-02 8.934471466491e-02 0.0 
3.864885712598e-02 1.296564550868e-01 0.0 
8.741427060389e-03 1.684442026604e-02 0.0 
1.008373069847e-02 2.107435711554e-02 0.0 
4.379844338451e-02 1.162341718799e-01 0.0 
4.172873979538e-02 1.243557127186e-01 0.0 
1.747672321246e-03 1.218995157145e-02 0.0 
4.430193865094e-02 5.976134669089e-02 0.0 
4.317688491319e-03 1.627054902990e-02 0.0 
1.471282963753e-02 -3.926813379775e-03 0.0 
1.694132963746e-02 -2.396759419117e-03 0.0 
4.638420080054e-02 6.662276453047e-02 0.0 
4.489277110985e-02 1.080320151975e-01 0.0 
4.537074262596e-02 9.653785749475e-02 0.0 
4.337951523854e-02 1.069407328580e-01 0.0 
5.872607449644e-03 3.027058956406e-02 0.0 
2.835194397870e-03 6.011268043967e-02 0.0 
3.468630857363e-02 6.438653185585e-02 0.0 
4.524207733411e-03 9.692238283440e-02 0.0 
2.977429954176e-02 6.482981951730e-02 0.0 
-2.365219155392e-04 3.083370155908e-02 0.0 
4.153233819832e-02 5.199919757771e-02 0.0 
4.695161467039e-02 8.920175707468e-02 0.0 
3.862347648525e-02 6.307072481350e-02 0.0 
4.585219523757e-02 7.996370496813e-02 0.0 
3.809999738467e-02 9.578660303733e-02 0.0 
3.526360376645e-02 1.150851424060e-01 0.0 
3.722153772937e-02 1.174687663048e-01 0.0 
3.705720171769e-02 4.613364908845e-02 0.0 
4.393711738222e-02 1.107002558679e-01 0.0 
4.079200886530e-02 1.180638146416e-01 0.0 
4.281960386245e-02 8.995974315735e-02 0.0 
2.080768084335e-02 5.841649556597e-02 0.0 
2.028519957953e-02 5.030418132493e-02 0.0 
1.570454230819e-02 3.620992369108e-02 0.0 
1.926407958915e-02 4.261446444629e-02 0.0 
2.380801034224e-02 5.664114483804e-02 0.0 
2.288568243527e-02 4.876144076424e-02 0.0 
1.776249002216e-02 3.544359226587e-02 0.0 
2.145621854732e-02 4.130474707986e-02 0.0 
1.445547990248e-02 2.591626861664e-02 0.0 
1.936428090885e-02 3.400591546056e-02 0.0 
2.508645394449e-02 4.689719424367e-02 0.0 
2.332950094632e-02 4.006864551896e-02 0.0 
1.771794230938e-02 2.894903455175e-02 0.0 
2.871150513051e-02 5.251718332440e-02 0.0 
7.197270322557e-03 1.302097575657e-02 0.0 
4.610541929780e-02 6.386453149750e-02 0.0 
1.655833079808e-02 -3.864027741172e-03 0.0 
2.062198696587e-02 1.132745004151e-02 0.0 
4.585818138566e-02 9.021930909823e-02 0.0 
7.217809609287e-03 1.274490355159e-02 0.0 
6.356716448877e-03 1.336752131201e-02 0.0 
3.711571800934e-02 4.200829618561e-02 0.0 
6.751312998194e-03 1.007791693509e-02 0.0 
3.902115429897e-02 1.073831622499e-01 0.0 
2.481532697013e-02 1.647823721200e-02 0.0 
6.299248583950e-03 9.556732452864e-03 0.0 
2.419811396192e-02 6.483959357113e-02 0.0 
2.750330485105e-02 7.088096117140e-02 0.0 
2.723190178870e-02 7.949908483623e-02 0.0 
5.114638646525e-03 1.304732077015e-02 0.0 
1.934340040322e-02 1.078230886712e-01 0.0 
4.813780745735e-03 7.944904488948e-03 0.0 
2.261965696706e-02 4.411189607241e-02 0.0 
2.731186166136e-02 4.703771436507e-02 0.0 
3.037817224885e-02 4.826696984087e-02 0.0 
2.645107621485e-02 5.465671068955e-02 0.0 
3.695408213947e-03 7.350289382106e-03 0.0 
6.296696890672e-03 1.363440695668e-02 0.0 
5.494439010395e-03 1.310137977871e-02 0.0 
8.144233055596e-03 1.962984943943e-02 0.0 
2.859126971623e-03 6.788450264171e-03 0.0 
6.855035505328e-03 1.062413854820e-02 0.0 
6.519754838095e-03 9.723572070840e-03 0.0 
-2.890177878141e-03 3.812635689319e-02 0.0 
-7.888879071416e-04 3.544865914098e-02 0.0 
-1.289147173225e-04 3.715055803909e-02 0.0 
2.632723260692e-03 3.362981376136e-02 0.0 
2.457699331726e-03 2.994185749674e-02 0.0 
7.242090894927e-03 2.886666884393e-02 0.0 
7.275425378072e-03 3.324594877617e-02 0.0 
1.340297630496e-02 2.400600018038e-02 0.0 
2.471838770818e-02 3.897249599042e-02 0.0 
1.918678401779e-03 6.072842936753e-03 0.0 
7.589261484728e-04 3.515461483362e-02 0.0 
1.394855645342e-03 3.589105026528e-02 0.0 
4.929723295213e-04 3.810774672612e-02 0.0 
-2.842293601237e-03 5.338080587229e-02 0.0 
-2.856170178454e-03 5.009171289861e-02 0.0 
-2.435806635961e-03 4.663528620287e-02 0.0 
-2.639358454597e-03 5.660601904942e-02 0.0 
3.363884744127e-02 4.862976403859e-02 0.0 
1.463072188146e-03 5.946980219473e-03 0.0 
1.016582559197e-02 3.731959445793e-02 0.0 
-3.120049686048e-03 4.988560151364e-02 0.0 
2.262514324647e-02 1.454836066113e-01 0.0 
2.481530956934e-02 1.311730912773e-01 0.0 
2.747280059961e-02 1.279503765088e-01 0.0 
2.625053747386e-02 1.146335227992e-01 0.0 
2.199482796367e-02 1.318345008285e-01 0.0 
-1.881139016396e-03 4.857886081942e-02 0.0 
-1.519814662706e-03 4.742521522234e-02 0.0 
-1.311183888205e-03 5.049206504628e-02 0.0 
-1.151967817874e-03 4.598127800770e-02 0.0 
-9.092630219669e-04 4.898901535006e-02 0.0 
-1.019486509153e-03 5.328034075605e-02 0.0 
-7.787133614960e-04 4.427457855800e-02 0.0 
-5.262609236840e-04 4.775726087343e-02 0.0 
1.816076410524e-02 1.486404332651e-01 0.0 
1.206834118144e-02 1.508711243741e-02 0.0 
5.490299784567e-03 2.559577262407e-02 0.0 
5.899692366118e-03 3.891512149421e-02 0.0 
1.394389139341e-03 3.401278955973e-02 0.0 
2.541593591674e-03 2.097122683684e-02 0.0 
-1.347764298785e-03 3.103814988780e-02 0.0 
2.265388571178e-03 1.878149021346e-02 0.0 
6.984911012944e-03 8.224394622267e-03 0.0 
1.238696465621e-02 4.391347415158e-02 0.0 
6.355674349257e-03 4.768654072367e-02 0.0 
1.180157477446e-02 5.132159556883e-02 0.0 
6.491653172240e-03 5.437206500091e-02 0.0 
1.796632444666e-03 5.088854818862e-02 0.0 
-5.467920722975e-04 6.218451165559e-02 0.0 
-2.133781766234e-04 7.269493099738e-03 0.0 
-4.130478332253e-04 5.971891031476e-02 0.0 
-7.950948431157e-04 6.133138023535e-02 0.0 
-7.435779296185e-04 6.465948195680e-02 0.0 
-1.194104220876e-03 6.240305210121e-02 0.0 
-7.805147565993e-04 5.790387402159e-02 0.0 
-3.432325229240e-04 6.661780766127e-02 0.0 
-6.258001900856e-04 6.738620703270e-02 0.0 
2.296684808232e-03 7.609630767942e-02 0.0 
1.349148283494e-03 7.637457619715e-02 0.0 
6.589194115273e-04 7.684129465146e-02 0.0 
6.676250901392e-04 7.616763107387e-02 0.0 
1.119518376564e-03 7.563346122383e-02 0.0 
2.024578330448e-03 7.566663618340e-02 0.0 
2.695297978315e-03 7.469274756740e-02 0.0 
4.142490064710e-03 7.413861918522e-02 0.0 
3.319065086508e-03 7.344517282004e-02 0.0 
1.891187220975e-03 7.370464465766e-02 0.0 
5.047054036194e-03 7.275796895191e-02 0.0 
1.007275552681e-03 7.713614396440e-02 0.0 
1.926577666609e-03 6.889853763193e-02 0.0 
7.336912986844e-04 6.174208792931e-03 0.0 
1.420437623170e-02 1.487410456256e-01 0.0 
8.962309948441e-03 6.195918273035e-02 0.0 
1.610005039701e-03 1.797591790896e-02 0.0 
2.495452029777e-03 1.479217945571e-02 0.0 
2.001108327015e-03 1.438285127894e-02 0.0 
-1.440519406037e-04 1.809846313927e-02 0.0 
-2.275552307753e-04 1.478211248337e-02 0.0 
8.695848693137e-04 1.751247281078e-02 0.0 
-2.870816846531e-03 6.081973625409e-02 0.0 
1.420604837465e-02 2.944569481442e-02 0.0 
4.496837776244e-03 4.696469962159e-02 0.0 
2.869108674386e-02 2.339644297295e-02 0.0 
-3.921829731150e-03 5.281848835713e-02 0.0 
-8.046685299719e-04 3.605368323671e-02 0.0 
-1.502734088595e-03 3.879218299511e-02 0.0 
-6.595958759075e-04 2.336734591372e-02 0.0 
-1.350145780437e-03 3.965861938732e-02 0.0 
-7.586296204476e-04 2.762028339696e-02 0.0 
4.752901985546e-03 1.293969566404e-02 0.0 
2.932204579618e-04 7.376133070807e-02 0.0 
1.195753958090e-02 1.069930352167e-01 0.0 
7.626583960771e-03 1.130302776825e-01 0.0 
7.373614052028e-03 7.302492313588e-02 0.0 
-1.837297683215e-03 6.540969827001e-02 0.0 
-1.448891460475e-03 5.444606587007e-02 0.0 
-1.104807682317e-04 6.874933188403e-02 0.0 
1.185499588905e-02 1.813120606467e-02 0.0 
4.376441399003e-02 9.965701669237e-02 0.0 
-9.557445499464e-04 4.031675983214e-02 0.0 
-2.998613620857e-03 5.653512695517e-02 0.0 
-3.515102832651e-03 5.726944130827e-02 0.0 
-4.004885623491e-03 4.960616635168e-02 0.0 
4.710310671947e-02 6.822396959145e-02 0.0 
-2.798639598256e-03 4.659654379470e-02 0.0 
4.299888284098e-04 2.919447070323e-02 0.0 
5.654114528937e-03 6.391562737322e-02 0.0 
6.660525894406e-03 6.877172272094e-02 0.0 
1.367404310244e-03 2.624944002337e-02 0.0 
-1.543420471959e-03 4.021410661421e-02 0.0 
1.694615205569e-02 9.989744675888e-02 0.0 
1.513127727781e-02 3.280531205200e-02 0.0 
-2.703505500309e-03 3.919051613964e-02 0.0 
1.080711977243e-02 6.663939656734e-02 0.0 
1.086211774123e-02 3.624257149019e-02 0.0 
2.166786653102e-02 1.152386109287e-01 0.0 
1.375171154717e-03 7.004386941348e-02 0.0 
1.234214295515e-02 1.230816210551e-01 0.0 
2.894899570721e-03 1.551213826574e-02 0.0 
2.080691891573e-02 6.668811657882e-02 0.0 
-1.223744575553e-03 6.801019778657e-02 0.0 
1.303576593415e-02 4.033021054779e-02 0.0 
4.711675030819e-02 8.068086799081e-02 0.0 
3.426177682095e-02 1.399720244845e-01 0.0 
4.685686849022e-03 3.983730357155e-02 0.0 
3.800162397724e-02 5.317347575170e-02 0.0 
1.003294102557e-02 2.585605568700e-02 0.0 
1.307055963509e-02 3.769477180715e-02 0.0 
-1.114574839842e-03 6.786179269274e-02 0.0 
2.976206715566e-04 2.268758279374e-02 0.0 
2.707880077167e-02 4.602034119667e-02 0.0 
8.817698973367e-03 5.000434761420e-02 0.0 
3.347866212208e-02 4.939808898817e-02 0.0 
1.863853491573e-02 3.723581599221e-02 0.0 
1.430232075988e-02 5.941834715351e-02 0.0 
1.463460576289e-03 3.809222014650e-02 0.0 
1.538332398948e-02 3.085980350574e-02 0.0 
4.512365780731e-02 9.937794153114e-02 0.0 
4.154574216093e-02 6.598584099751e-02 0.0 
3.569753682622e-02 6.759272954741e-02 0.0 
4.241959410838e-02 6.025517274584e-02 0.0 
-6.076944025803e-04 3.936551185367e-02 0.0 
7.698775739993e-04 2.453865389973e-02 0.0 
9.374151691279e-03 9.040851360733e-03 0.0 
4.732763845785e-02 7.617175332343e-02 0.0 
2.094955874641e-02 9.929505425024e-02 0.0 
2.033490728611e-02 3.173715942166e-02 0.0 
6.294386241372e-03 3.307977879859e-02 0.0 
4.770204897189e-02 8.743553357827e-02 0.0 
-2.498436883620e-04 2.604382575662e-02 0.0 
1.134186346174e-02 4.355573575579e-02 0.0 
-2.645795958294e-03 4.680447084755e-02 0.0 
1.468644684977e-06 7.389564368807e-02 0.0 
2.632788676862e-02 1.961665021607e-02 0.0 
1.978306674806e-02 2.738176105639e-02 0.0 
3.611646658101e-02 5.111197388476e-02 0.0 
-2.105142048967e-03 4.339430641630e-02 0.0 
1.149025143304e-02 2.721478232075e-02 0.0 
-4.398673275290e-04 2.415936447938e-02 0.0 
4.399381845694e-03 2.783749958973e-02 0.0 
2.192532375049e-02 4.834180381883e-02 0.0 
3.693386159275e-02 1.288604133053e-01 0.0 
-5.335812054685e-04 2.204111761953e-02 0.0 
9.726822452521e-03 3.861053032589e-02 0.0 
1.270614691449e-02 2.720639151062e-02 0.0 
-6.114285988399e-04 5.186870820270e-02 0.0 
1.145562180666e-02 1.785349292847e-02 0.0 
4.161318585363e-02 1.265403458666e-01 0.0 
-5.428238368701e-04 1.969849040953e-02 0.0 
7.689804707374e-03 2.908304144239e-02 0.0 
4.133235474032e-02 5.166553781009e-02 0.0 
4.017198024144e-03 1.507118371274e-01 0.0 
-3.533558440774e-04 1.236124530390e-02 0.0 
7.154073107007e-03 2.431814359647e-02 0.0 
3.853812969789e-02 5.454017145194e-02 0.0 
6.173376749867e-03 3.799723079913e-02 0.0 
3.783419623663e-02 1.409203560711e-01 0.0 
-1.970682323299e-03 4.289257041396e-02 0.0 
3.953266903626e-02 6.471718422958e-02 0.0 
4.499877730552e-03 1.296774191145e-02 0.0 
8.002919131622e-03 2.256013539854e-02 0.0 
3.029183293080e-02 8.517198608127e-02 0.0 
-2.192539308005e-03 4.617648861211e-02 0.0 
2.528732902141e-02 4.389341894545e-02 0.0 
1.550136269658e-03 7.481802209325e-02 0.0 
3.993917034147e-02 1.295216194261e-01 0.0 
-1.917102934018e-03 4.538536911982e-02 0.0 
1.304070809330e-02 2.980552665047e-02 0.0 
4.007836163044e-03 3.719688207034e-02 0.0 
9.917223617105e-03 1.743486135063e-02 0.0 
-1.618974674265e-03 4.427486382696e-02 0.0 
1.276204865965e-02 3.452507327739e-02 0.0 
-1.305092685343e-03 4.287489618779e-02 0.0 
3.931745344920e-02 1.384707212853e-01 0.0 
3.062230837619e-02 7.612568599665e-02 0.0 
-9.715853407855e-04 4.121820677869e-02 0.0 
3.567330104168e-02 5.573645324343e-02 0.0 
2.158243370526e-03 7.220788590294e-02 0.0 
3.454254967343e-02 5.013275920492e-02 0.0 
-3.217570536804e-04 2.152337684347e-02 0.0 
-3.876929382937e-03 5.001812924726e-02 0.0 
2.421346671447e-03 3.655601414127e-02 0.0 
2.723043973886e-02 6.255013770916e-02 0.0 
3.894392724922e-02 1.340915003208e-01 0.0 
3.270584178917e-03 3.438653261205e-02 0.0 
3.093352374203e-02 4.653972772180e-02 0.0 
2.991619733018e-02 4.646241117687e-02 0.0 
3.268842714346e-02 4.981518929744e-02 0.0 
3.953983084173e-03 3.150132825456e-02 0.0 
4.160929664814e-02 1.211237690879e-01 0.0 
-3.009655256506e-03 5.931124636535e-02 0.0 
-2.091507583449e-03 6.083226248612e-02 0.0 
7.581584336929e-03 3.639217462064e-02 0.0 
2.796312344279e-02 4.303742251131e-02 0.0 
5.107575611807e-04 7.508560180878e-02 0.0 
2.980025932751e-02 5.976615808467e-02 0.0 
-1.466431018589e-04 5.935768173022e-02 0.0 
3.222350667224e-03 3.613704452016e-02 0.0 
2.109306048542e-02 3.637317318574e-02 0.0 
1.180790626471e-03 1.088978826613e-01 0.0 
7.981673477175e-04 3.812086321885e-02 0.0 
-1.429424167899e-04 7.188884679122e-02 0.0 
-1.539475602764e-03 3.962446429875e-02 0.0 
2.892167318184e-02 4.751360817715e-02 0.0 
-2.201707285453e-03 4.170127698122e-02 0.0 
-3.302914401283e-03 4.452213798563e-02 0.0 
3.146968280362e-03 3.053685071646e-02 0.0 
-3.451810616935e-03 4.656954288012e-02 0.0 
4.305209932127e-04 1.451563439243e-02 0.0 
-1.056776983461e-04 6.684160355960e-03 0.0 
1.520828244800e-03 1.393989520887e-01 0.0 
3.668843203091e-02 1.283983448456e-01 0.0 
1.400935057011e-02 -1.450330602760e-02 0.0 
4.034653837327e-02 1.113123697146e-01 0.0 
-4.063261845888e-03 5.149761796169e-02 0.0 
3.183733434211e-02 5.672458740623e-02 0.0 
3.161585970737e-03 1.387147630657e-01 0.0 
-3.737495223197e-03 5.538083334408e-02 0.0 
1.317126446297e-02 2.170661630377e-02 0.0 
5.355065328775e-03 8.362375970826e-03 0.0 
2.157862794476e-03 8.441219328801e-02 0.0 
1.045541539433e-02 2.394229316448e-02 0.0 
2.541170879021e-02 4.265381910859e-02 0.0 
6.324416641448e-04 4.473672088702e-02 0.0 
9.209008844032e-03 1.518334875484e-01 0.0 
6.268388040194e-03 5.971983117271e-02 0.0 
-2.863442223698e-04 3.665100083276e-02 0.0 
3.375421578048e-02 1.177534517721e-01 0.0 
3.648557711174e-02 9.953808898174e-02 0.0 
3.223699873136e-02 7.784915441978e-02 0.0 
-8.950176022764e-04 6.764303920140e-02 0.0 
2.060959563730e-03 4.324764540562e-02 0.0 
3.111628835108e-02 1.027180514519e-01 0.0 
7.176528336714e-03 1.455522930622e-02 0.0 
1.558416513868e-02 1.375618191714e-01 0.0 
2.047013194349e-02 3.428821508298e-02 0.0 
2.666770119546e-02 7.952972790429e-02 0.0 
7.894411177510e-03 2.826608430596e-02 0.0 
1.015337437585e-02 1.679417596757e-02 0.0 
1.658136376328e-04 5.520991927479e-03 0.0 
1.548841768048e-02 2.611636949090e-02 0.0 
2.660604518507e-02 4.872489521237e-02 0.0 
2.378035967570e-02 1.200173104843e-01 0.0 
1.226418304530e-02 1.848827573980e-02 0.0 
2.946046761572e-03 7.125946722391e-02 0.0 
-8.858633294562e-05 5.399335772456e-03 0.0 
1.963531692252e-02 1.372958750853e-01 0.0 
1.900607666364e-03 2.855757243357e-02 0.0 
5.904239892901e-03 1.124115157596e-02 0.0 
9.598719260140e-04 2.774854893822e-02 0.0 
2.692053551751e-02 4.538327749875e-02 0.0 
6.513867873402e-03 1.202110777881e-01 0.0 
2.875694260117e-02 1.154591840535e-01 0.0 
-2.582746272606e-04 1.155215364913e-02 0.0 
1.239985327406e-02 2.366465206418e-02 0.0 
2.322122800883e-02 2.751277189689e-02 0.0 
3.385049740828e-03 8.606332399204e-02 0.0 
-1.597934763379e-03 6.162650201388e-02 0.0 
1.088181690658e-02 -5.302699245446e-03 0.0 
1.070819640772e-03 1.116884181713e-02 0.0 
2.132003089216e-02 3.422165879007e-02 0.0 
-3.347135138601e-04 1.163865215038e-02 0.0 
3.131312613393e-04 7.644104296894e-02 0.0 
5.539959858874e-03 6.694807062163e-02 0.0 
2.137717710184e-03 1.044304853841e-02 0.0 
1.233239038220e-02 1.853355311207e-02 0.0 
-1.852843536003e-04 2.594945500431e-02 0.0 
2.671567187690e-03 1.143207196874e-02 0.0 
1.899800181103e-02 8.118057282585e-03 0.0 
1.244060665107e-02 1.531506151030e-01 0.0 
4.007618711630e-03 7.205945895095e-02 0.0 
-1.595932050602e-04 5.543911378567e-03 0.0 
4.660989464568e-03 2.703352933712e-02 0.0 
-1.107806343225e-03 5.930148347353e-02 0.0 
2.792126374585e-02 1.380290680048e-01 0.0 
-4.516938043728e-04 6.995407389948e-02 0.0 
1.535244700916e-02 2.424910612579e-02 0.0 
3.273570660362e-03 5.639775132953e-02 0.0 
3.153469774652e-03 2.569929163949e-02 0.0 
3.507792341694e-03 1.075067768766e-02 0.0 
9.241472760017e-03 2.354890599298e-02 0.0 
3.264695956226e-03 5.795603832521e-03 0.0 
1.492023776830e-02 -9.189810208456e-03 0.0 
9.204529729583e-03 1.479217425674e-02 0.0 
6.617587410094e-03 1.747550073769e-02 0.0 
6.953275102305e-03 1.524895812700e-01 0.0 
1.121862121855e-02 2.414988741833e-02 0.0 
-1.010096265268e-03 6.531655093157e-02 0.0 
1.076913342168e-03 7.261801719777e-02 0.0 
1.833612637938e-04 1.286721817839e-02 0.0 
6.911077478300e-04 7.683111428804e-02 0.0 
1.181382290156e-03 1.524030929347e-01 0.0 
-3.979966641166e-05 5.467774226069e-03 0.0 
8.330631588378e-04 7.469935468035e-02 0.0 
2.518287382692e-03 1.282279296458e-01 0.0 
1.189942085344e-02 1.850273409485e-02 0.0 
-2.699958368027e-04 5.126808098604e-02 0.0 
1.460806420297e-03 5.573937030509e-02 0.0 
-6.228724759190e-04 3.895495601934e-02 0.0 
1.469022156288e-02 -1.346042636698e-02 0.0 
2.045197158040e-03 1.009358212739e-01 0.0 
8.659946086205e-03 1.470499472511e-02 0.0 
7.336099524814e-03 2.333659297528e-02 0.0 
5.251638481845e-03 1.116610091914e-01 0.0 
2.410596907654e-02 1.934015003567e-02 0.0 
1.653267122518e-02 2.573822880908e-02 0.0 
-1.141209333970e-03 5.628793465666e-02 0.0 
1.648586743356e-02 2.494727270077e-02 0.0 
8.598216304986e-03 1.891430975905e-02 0.0 
1.629511165350e-02 9.828623105552e-03 0.0 
-2.172375886538e-04 4.668141812658e-02 0.0 
4.722904214974e-03 7.046557837764e-02 0.0 
8.836737535489e-05 1.019726511608e-02 0.0 
-7.477766123365e-04 5.482137756449e-02 0.0 

VECTORS node_bounda_dof_materi_velocity_x float
1.000000000000e+00 0.0 0.0 
1.000000000000e+00 0.0 0.0 
1.000000000000e+00 0.0 0.0 
1.000000000000e+00 0.0 0.0 
1.000000000000e+00 0.0 0.0 
1.000000000000e+00 0.0 0.0 
1.000000000000e+00 0.0 0.0 
1.000000000000e+00 0.0 0.0 
1.000000000000e+00 0.0 0.0 
1.000000000000e+00 0.0 0.0 
1.000000000000e+00 0.0 0.0 
1.000000000000e+00 0.0 0.0 
1.000000000000e+00 0.0 0.0 
1.000000000000e+00 0.0 0.0 
1.000000000000e+00 0.0 0.0 
1.000000000000e+00 0.0 0.0 
1.000000000000e+00 0.0 0.0 
1.000000000000e+00 0.0 0.0 
1.000000000000e+00 0.0 0.0 
1.000000000000e+00 0.0 0.0 
1.000000000000e+00 0.0 0.0 
1.000000000000e+00 0.0 0.0 
1.000000000000e+00 0.0 0.0 
1.000000000000e+00 0.0 0.0 
1.000000000000e+00 0.0 0.0 
1.000000000000e+00 0.0 0.0 
1.000000000000e+00 0.0 0.0 
1.000000000000e+00 0.0 0.0 
1.000000000000e+00 0.0 0.0 
1.000000000000e+00 0.0 0.0 
1.000000000000e+00 0.0 0.0 
1.000000000000e+00 0.0 0.0 
1.000000000000e+00 0.0 0.0 
1.000000000000e+00 0.0 0.0 
1.000000000000e+00 0.0 0.0 
1.000000000000e+00 0.0 0.0 
1.000000000000e+00 0.0 0.0 
1.000000000000e+00 0.0 0.0 
1.000000000000e+00 0.0 0.0 
1.000000000000e+00 0.0 0.0 
1.000000000000e+00 0.0 0.0 
1.000000000000e+00 0.0 0.0 
1.000000000000e+00 0.0 0.0 
1.000000000000e+00 0.0 0.0 
1.000000000000e+00 0.0 0.0 
1.000000000000e+00 0.0 0.0 
1.000000000000e+00 0.0 0.0 
1.000000000000e+00 0.0 0.0 
1.000000000000e+00 0.0 0.0 
1.000000000000e+00 0.0 0.0 
1.000000000000e+00 0.0 0.0 
1.000000000000e+00 0.0 0.0 
1.000000000000e+00 0.0 0.0 
1.000000000000e+00 0.0 0.0 
1.000000000000e+00 0.0 0.0 
1.000000000000e+00 0.0 0.0 
1.000000000000e+00 0.0 0.0 
1.000000000000e+00 0.0 0.0 
1.000000000000e+00 0.0 0.0 
1.000000000000e+00 0.0 0.0 
1.000000000000e+00 0.0 0.0 
1.000000000000e+00 0.0 0.0 
1.000000000000e+00 0.0 0.0 
1.000000000000e+00 0.0 0.0 
1.000000000000e+00 0.0 0.0 
1.000000000000e+00 0.0 0.0 
1.000000000000e+00 0.0 0.0 
1.000000000000e+00 0.0 0.0 
1.000000000000e+00 0.0 0.0 
1.000000000000e+00 0.0 0.0 
1.000000000000e+00 0.0 0.0 
1.000000000000e+00 0.0 0.0 
1.000000000000e+00 0.0 0.0 
1.000000000000e+00 0.0 0.0 
1.000000000000e+00 0.0 0.0 
1.000000000000e+00 0.0 0.0 
1.000000000000e+00 0.0 0.0 
1.000000000000e+00 0.0 0.0 
1.000000000000e+00 0.0 0.0 
1.000000000000e+00 0.0 0.0 
1.000000000000e+00 0.0 0.0 
0.0 0.0 0.0 
0.0 0.0 0.0 
0.0 0.0 0.0 
0.0 0.0 0.0 
0.0 0.0 0.0 
0.0 0.0 0.0 
0.0 0.0 0.0 
0.0 0.0 0.0 
0.0 0.0 0.0 
0.0 0.0 0.0 
0.0 0.0 0.0 
0.0 0.0 0.0 
0.0 0.0 0.0 
0.0 0.0 0.0 
0.0 0.0 0.0 
0.0 0.0 0.0 
0.0 0.0 0.0 
0.0 0.0 0.0 
0.0 0.0 0.0 
0.0 0.0 0.0 
0.0 0.0 0.0 
0.0 0.0 0.0 
0.0 0.0 0.0 
0.0 0.0 0.0 
0.0 0.0 0.0 
0.0 0.0 0.0 
0.0 0.0 0.0 
0.0 0.0 0.0 
0.0 0.0 0.0 
0.0 0.0 0.0 
0.0 0.0 0.0 
0.0 0.0 0.0 
0.0 0.0 0.0 
0.0 0.0 0.0 
0.0 0.0 0.0 
0.0 0.0 0.0 
0.0 0.0 0.0 
0.0 0.0 0.0 
0.0 0.0 0.0 
0.0 0.0 0.0 
0.0 0.0 0.0 
0.0 0.0 0.0 
0.0 0.0 0.0 
0.0 0.0 0.0 
0.0 0.0 0.0 
0.0 0.0 0.0 
0.0 0.0 0.0 
0.0 0.0 0.0 
0.0 0.0 0.0 
0.0 0.0 0.0 
0.0 0.0 0.0 
0.0 0.0 0.0 
0.0 0.0 0.0 
0.0 0.0 0.0 
0.0 0.0 0.0 
0.0 0.0 0.0 
0.0 0.0 0.0 
0.0 0.0 0.0 
0.0 0.0 0.0 
0.0 0.0 0.0 
0.0 0.0 0.0 
0.0 0.0 0.0 
0.0 0.0 0.0 
0.0 0.0 0.0 
0.0 0.0 0.0 
0.0 0.0 0.0 
0.0 0.0 0.0 
0.0 0.0 0.0 
0.0 0.0 0.0 
0.0 0.0 0.0 
0.0 0.0 0.0 
0.0 0.0 0.0 
0.0 0.0 0.0 
0.0 0.0 0.0 
0.0 0.0 0.0 
0.0 0.0 0.0 
0.0 0.0 0.0 
0.0 0.0 0.0 
0.0 0.0 0.0 
0.0 0.0 0.0 
0.0 0.0 0.0 
0.0 0.0 0.0 
0.0 0.0 0.0 
0.0 0.0 0.0 
0.0 0.0 0.0 
0.0 0.0 0.0 
0.0 0.0 0.0 
0.0 0.0 0.0 
0.0 0.0 0.0 
0.0 0.0 0.0 
0.0 0.0 0.0 
0.0 0.0 0.0 
0.0 0.0 0.0 
0.0 0.0 0.0 
0.0 0.0 0.0 
0.0 0.0 0.0 
0.0 0.0 0.0 
0.0 0.0 0.0 
0.0 0.0 0.0 
0.0 0.0 0.0 
0.0 0.0 0.0 
0.0 0.0 0.0 
0.0 0.0 0.0 
0.0 0.0 0.0 
0.0 0.0 0.0 
0.0 0.0 0.0 
0.0 0.0 0.0 
0.0 0.0 0.0 
0.0 0.0 0.0 
0.0 0.0 0.0 
0.0 0.0 0.0 
0.0 0.0 0.0 
0.0 0.0 0.0 
0.0 0.0 0.0 
0.0 0.0 0.0 
0.0 0.0 0.0 
0.0 0.0 0.0 
0.0 0.0 0.0 
0.0 0.0 0.0 
0.0 0.0 0.0 
0.0 0.0 0.0 
0.0 0.0 0.0 
0.0 0.0 0.0 
0.0 0.0 0.0 
0.0 0.0 0.0 
0.0 0.0 0.0 
0.0 0.0 0.0 
0.0 0.0 0.0 
0.0 0.0 0.0 
0.0 0.0 0.0 
0.0 0.0 0.0 
0.0 0.0 0.0 
0.0 0.0 0.0 
0.0 0.0 0.0 
0.0 0.0 0.0 
0.0 0.0 0.0 
0.0 0.0 0.0 
0.0 0.0 0.0 
0.0 0.0 0.0 
0.0 0.0 0.0 
0.0 0.0 0.0 
0.0 0.0 0.0 
0.0 0.0 0.0 
0.0 0.0 0.0 
0.0 0.0 0.0 
0.0 0.0 0.0 
0.0 0.0 0.0 
0.0 0.0 0.0 
0.0 0.0 0.0 
0.0 0.0 0.0 
0.0 0.0 0.0 
0.0 0.0 0.0 
0.0 0.0 0.0 
0.0 0.0 0.0 
0.0 0.0 0.0 
0.0 0.0 0.0 
0.0 0.0 0.0 
0.0 0.0 0.0 
0.0 0.0 0.0 
0.0 0.0 0.0 
0.0 0.0 0.0 
0.0 0.0 0.0 
0.0 0.0 0.0 
0.0 0.0 0.0 
0.0 0.0 0.0 
0.0 0.0 0.0 
0.0 0.0 0.0 
0.0 0.0 0.0 
0.0 0.0 0.0 
0.0 0.0 0.0 
0.0 0.0 0.0 
0.0 0.0 0.0 
0.0 0.0 0.0 
0.0 0.0 0.0 
0.0 0.0 0.0 
0.0 0.0 0.0 
0.0 0.0 0.0 
0.0 0.0 0.0 
0.0 0.0 0.0 
0.0 0.0 0.0 
0.0 0.0 0.0 
0.0 0.0 0.0 
0.0 0.0 0.0 
0.0 0.0 0.0 
0.0 0.0 0.0 
0.0 0.0 0.0 
0.0 0.0 0.0 
0.0 0.0 0.0 
0.0 0.0 0.0 
0.0 0.0 0.0 
0.0 0.0 0.0 
0.0 0.0 0.0 
0.0 0.0 0.0 
0.0 0.0 0.0 
0.0 0.0 0.0 
0.0 0.0 0.0 
0.0 0.0 0.0 
0.0 0.0 0.0 
0.0 0.0 0.0 
0.0 0.0 0.0 
0.0 0.0 0.0 
0.0 0.0 0.0 
0.0 0.0 0.0 
0.0 0.0 0.0 
0.0 0.0 0.0 
0.0 0.0 0.0 
0.0 0.0 0.0 
0.0 0.0 0.0 
0.0 0.0 0.0 
0.0 0.0 0.0 
0.0 0.0 0.0 
0.0 0.0 0.0 
0.0 0.0 0.0 
0.0 0.0 0.0 
0.0 0.0 0.0 
0.0 0.0 0.0 
0.0 0.0 0.0 
0.0 0.0 0.0 
0.0 0.0 0.0 
0.0 0.0 0.0 
0.0 0.0 0.0 
0.0 0.0 0.0 
0.0 0.0 0.0 
0.0 0.0 0.0 
0.0 0.0 0.0 
0.0 0.0 0.0 
0.0 0.0 0.0 
0.0 0.0 0.0 
0.0 0.0 0.0 
0.0 0.0 0.0 
0.0 0.0 0.0 
0.0 0.0 0.0 
0.0 0.0 0.0 
0.0 0.0 0.0 
0.0 0.0 0.0 
0.0 0.0 0.0 
0.0 0.0 0.0 
0.0 0.0 0.0 
0.0 0.0 0.0 
0.0 0.0 0.0 
0.0 0.0 0.0 
0.0 0.0 0.0 
0.0 0.0 0.0 
0.0 0.0 0.0 
0.0 0.0 0.0 
0.0 0.0 0.0 
0.0 0.0 0.0 
0.0 0.0 0.0 
0.0 0.0 0.0 
0.0 0.0 0.0 
0.0 0.0 0.0 
0.0 0.0 0.0 
0.0 0.0 0.0 
0.0 0.0 0.0 
0.0 0.0 0.0 
0.0 0.0 0.0 
0.0 0.0 0.0 
0.0 0.0 0.0 
0.0 0.0 0.0 
0.0 0.0 0.0 
0.0 0.0 0.0 
0.0 0.0 0.0 
0.0 0.0 0.0 
0.0 0.0 0.0 
0.0 0.0 0.0 
0.0 0.0 0.0 
0.0 0.0 0.0 
0.0 0.0 0.0 
0.0 0.0 0.0 
0.0 0.0 0.0 
0.0 0.0 0.0 
0.0 0.0 0.0 
0.0 0.0 0.0 
0.0 0.0 0.0 
0.0 0.0 0.0 
0.0 0.0 0.0 
0.0 0.0 0.0 
0.0 0.0 0.0 
0.0 0.0 0.0 
0.0 0.0 0.0 
0.0 0.0 0.0 
0.0 0.0 0.0 
0.0 0.0 0.0 
0.0 0.0 0.0 
0.0 0.0 0.0 
0.0 0.0 0.0 
0.0 0.0 0.0 
0.0 0.0 0.0 
0.0 0.0 0.0 
0.0 0.0 0.0 
0.0 0.0 0.0 
0.0 0.0 0.0 
0.0 0.0 0.0 
0.0 0.0 0.0 
0.0 0.0 0.0 
0.0 0.0 0.0 
0.0 0.0 0.0 
0.0 0.0 0.0 
0.0 0.0 0.0 
0.0 0.0 0.0 
0.0 0.0 0.0 
0.0 0.0 0.0 
0.0 0.0 0.0 
0.0 0.0 0.0 
0.0 0.0 0.0 
0.0 0.0 0.0 
0.0 0.0 0.0 
0.0 0.0 0.0 
0.0 0.0 0.0 
0.0 0.0 0.0 
0.0 0.0 0.0 
0.0 0.0 0.0 
0.0 0.0 0.0 
0.0 0.0 0.0 
0.0 0.0 0.0 
0.0 0.0 0.0 
0.0 0.0 0.0 
0.0 0.0 0.0 
0.0 0.0 0.0 
0.0 0.0 0.0 
0.0 0.0 0.0 
0.0 0.0 0.0 
0.0 0.0 0.0 
0.0 0.0 0.0 
0.0 0.0 0.0 
0.0 0.0 0.0 
0.0 0.0 0.0 
0.0 0.0 0.0 
0.0 0.0 0.0 
0.0 0.0 0.0 
0.0 0.0 0.0 
0.0 0.0 0.0 
0.0 0.0 0.0 
0.0 0.0 0.0 
0.0 0.0 0.0 
0.0 0.0 0.0 
0.0 0.0 0.0 
0.0 0.0 0.0 
0.0 0.0 0.0 
0.0 0.0 0.0 
0.0 0.0 0.0 
0.0 0.0 0.0 
0.0 0.0 0.0 
0.0 0.0 0.0 
0.0 0.0 0.0 
0.0 0.0 0.0 
0.0 0.0 0.0 
0.0 0.0 0.0 
0.0 0.0 0.0 
0.0 0.0 0.0 
0.0 0.0 0.0 
0.0 0.0 0.0 
0.0 0.0 0.0 
0.0 0.0 0.0 
0.0 0.0 0.0 
0.0 0.0 0.0 
0.0 0.0 0.0 
0.0 0.0 0.0 
0.0 0.0 0.0 
0.0 0.0 0.0 
0.0 0.0 0.0 
0.0 0.0 0.0 
0.0 0.0 0.0 
0.0 0.0 0.0 
0.0 0.0 0.0 
0.0 0.0 0.0 
0.0 0.0 0.0 
0.0 0.0 0.0 
0.0 0.0 0.0 
0.0 0.0 0.0 
0.0 0.0 0.0 
0.0 0.0 0.0 
0.0 0.0 0.0 
0.0 0.0 0.0 
0.0 0.0 0.0 
0.0 0.0 0.0 
0.0 0.0 0.0 
0.0 0.0 0.0 
0.0 0.0 0.0 
0.0 0.0 0.0 
0.0 0.0 0.0 
0.0 0.0 0.0 
0.0 0.0 0.0 
0.0 0.0 0.0 
0.0 0.0 0.0 
0.0 0.0 0.0 
0.0 0.0 0.0 
0.0 0.0 0.0 
0.0 0.0 0.0 
0.0 0.0 0.0 
0.0 0.0 0.0 
0.0 0.0 0.0 
0.0 0.0 0.0 
0.0 0.0 0.0 
0.0 0.0 0.0 
0.0 0.0 0.0 
0.0 0.0 0.0 
0.0 0.0 0.0 
0.0 0.0 0.0 
0.0 0.0 0.0 
0.0 0.0 0.0 
0.0 0.0 0.0 
0.0 0.0 0.0 
0.0 0.0 0.0 
0.0 0.0 0.0 
0.0 0.0 0.0 
0.0 0.0 0.0 
0.0 0.0 0.0 
0.0 0.0 0.0 
0.0 0.0 0.0 
0.0 0.0 0.0 
0.0 0.0 0.0 
0.0 0.0 0.0 
0.0 0.0 0.0 
0.0 0.0 0.0 
0.0 0.0 0.0 
0.0 0.0 0.0 
0.0 0.0 0.0 
0.0 0.0 0.0 
0.0 0.0 0.0 
0.0 0.0 0.0 
0.0 0.0 0.0 
0.0 0.0 0.0 
0.0 0.0 0.0 
0.0 0.0 0.0 
0.0 0.0 0.0 
0.0 0.0 0.0 
0.0 0.0 0.0 
0.0 0.0 0.0 
0.0 0.0 0.0 
0.0 0.0 0.0 
0.0 0.0 0.0 
0.0 0.0 0.0 
0.0 0.0 0.0 
0.0 0.0 0.0 
0.0 0.0 0.0 
0.0 0.0 0.0 
0.0 0.0 0.0 
0.0 0.0 0.0 
0.0 0.0 0.0 
0.0 0.0 0.0 
0.0 0.0 0.0 
0.0 0.0 0.0 
0.0 0.0 0.0 
0.0 0.0 0.0 
0.0 0.0 0.0 
0.0 0.0 0.0 
0.0 0.0 0.0 
0.0 0.0 0.0 
0.0 0.0 0.0 
0.0 0.0 0.0 
0.0 0.0 0.0 
0.0 0.0 0.0 
0.0 0.0 0.0 
0.0 0.0 0.0 
0.0 0.0 0.0 
0.0 0.0 0.0 
0.0 0.0 0.0 
0.0 0.0 0.0 
0.0 0.0 0.0 
0.0 0.0 0.0 
0.0 0.0 0.0 
0.0 0.0 0.0 
0.0 0.0 0.0 
0.0 0.0 0.0 
0.0 0.0 0.0 
0.0 0.0 0.0 
0.0 0.0 0.0 
0.0 0.0 0.0 
0.0 0.0 0.0 
0.0 0.0 0.0 
0.0 0.0 0.0 
0.0 0.0 0.0 
0.0 0.0 0.0 
0.0 0.0 0.0 
0.0 0.0 0.0 
0.0 0.0 0.0 
0.0 0.0 0.0 
0.0 0.0 0.0 
0.0 0.0 0.0 
0.0 0.0 0.0 
0.0 0.0 0.0 
0.0 0.0 0.0 
0.0 0.0 0.0 
0.0 0.0 0.0 
0.0 0.0 0.0 
0.0 0.0 0.0 
0.0 0.0 0.0 
0.0 0.0 0.0 
0.0 0.0 0.0 
0.0 0.0 0.0 
0.0 0.0 0.0 
0.0 0.0 0.0 
0.0 0.0 0.0 
0.0 0.0 0.0 
0.0 0.0 0.0 
0.0 0.0 0.0 
0.0 0.0 0.0 
0.0 0.0 0.0 
0.0 0.0 0.0 
0.0 0.0 0.0 
0.0 0.0 0.0 
0.0 0.0 0.0 
0.0 0.0 0.0 
0.0 0.0 0.0 
0.0 0.0 0.0 
0.0 0.0 0.0 
0.0 0.0 0.0 
0.0 0.0 0.0 
0.0 0.0 0.0 
0.0 0.0 0.0 
0.0 0.0 0.0 
0.0 0.0 0.0 
0.0 0.0 0.0 
0.0 0.0 0.0 
0.0 0.0 0.0 
0.0 0.0 0.0 
0.0 0.0 0.0 
0.0 0.0 0.0 
0.0 0.0 0.0 
0.0 0.0 0.0 
0.0 0.0 0.0 
0.0 0.0 0.0 
0.0 0.0 0.0 
0.0 0.0 0.0 
0.0 0.0 0.0 
0.0 0.0 0.0 
0.0 0.0 0.0 
0.0 0.0 0.0 
0.0 0.0 0.0 
0.0 0.0 0.0 
0.0 0.0 0.0 
0.0 0.0 0.0 
0.0 0.0 0.0 
0.0 0.0 0.0 
0.0 0.0 0.0 
0.0 0.0 0.0 
0.0 0.0 0.0 
0.0 0.0 0.0 
0.0 0.0 0.0 
0.0 0.0 0.0 
0.0 0.0 0.0 
0.0 0.0 0.0 
0.0 0.0 0.0 
0.0 0.0 0.0 
0.0 0.0 0.0 
0.0 0.0 0.0 
0.0 0.0 0.0 
0.0 0.0 0.0 
0.0 0.0 0.0 
0.0 0.0 0.0 
0.0 0.0 0.0 
0.0 0.0 0.0 
0.0 0.0 0.0 
0.0 0.0 0.0 
0.0 0.0 0.0 
0.0 0.0 0.0 
0.0 0.0 0.0 
0.0 0.0 0.0 
0.0 0.0 0.0 
0.0 0.0 0.0 
0.0 0.0 0.0 
0.0 0.0 0.0 
0.0 0.0 0.0 
0.0 0.0 0.0 
0.0 0.0 0.0 
0.0 0.0 0.0 
0.0 0.0 0.0 
0.0 0.0 0.0 
0.0 0.0 0.0 
0.0 0.0 0.0 
0.0 0.0 0.0 
0.0 0.0 0.0 
0.0 0.0 0.0 
0.0 0.0 0.0 
0.0 0.0 0.0 
0.0 0.0 0.0 
0.0 0.0 0.0 
0.0 0.0 0.0 
0.0 0.0 0.0 
0.0 0.0 0.0 
0.0 0.0 0.0 
0.0 0.0 0.0 
0.0 0.0 0.0 
0.0 0.0 0.0 
0.0 0.0 0.0 
0.0 0.0 0.0 
0.0 0.0 0.0 
0.0 0.0 0.0 
0.0 0.0 0.0 
0.0 0.0 0.0 
0.0 0.0 0.0 
0.0 0.0 0.0 
0.0 0.0 0.0 
0.0 0.0 0.0 
0.0 0.0 0.0 
0.0 0.0 0.0 
0.0 0.0 0.0 
0.0 0.0 0.0 
0.0 0.0 0.0 
0.0 0.0 0.0 
0.0 0.0 0.0 
0.0 0.0 0.0 
0.0 0.0 0.0 
0.0 0.0 0.0 
0.0 0.0 0.0 
0.0 0.0 0.0 
0.0 0.0 0.0 
0.0 0.0 0.0 
0.0 0.0 0.0 
0.0 0.0 0.0 
0.0 0.0 0.0 
0.0 0.0 0.0 
0.0 0.0 0.0 
0.0 0.0 0.0 
0.0 0.0 0.0 
0.0 0.0 0.0 
0.0 0.0 0.0 
0.0 0.0 0.0 
0.0 0.0 0.0 
0.0 0.0 0.0 
0.0 0.0 0.0 
0.0 0.0 0.0 
0.0 0.0 0.0 
0.0 0.0 0.0 
0.0 0.0 0.0 
0.0 0.0 0.0 
0.0 0.0 0.0 
0.0 0.0 0.0 
0.0 0.0 0.0 
0.0 0.0 0.0 
0.0 0.0 0.0 
0.0 0.0 0.0 
0.0 0.0 0.0 
0.0 0.0 0.0 
0.0 0.0 0.0 
0.0 0.0 0.0 
0.0 0.0 0.0 
0.0 0.0 0.0 
0.0 0.0 0.0 
0.0 0.0 0.0 
0.0 0.0 0.0 
0.0 0.0 0.0 
0.0 0.0 0.0 
0.0 0.0 0.0 
0.0 0.0 0.0 
0.0 0.0 0.0 
0.0 0.0 0.0 
0.0 0.0 0.0 
0.0 0.0 0.0 
0.0 0.0 0.0 
0.0 0.0 0.0 
0.0 0.0 0.0 
0.0 0.0 0.0 
0.0 0.0 0.0 
0.0 0.0 0.0 
0.0 0.0 0.0 
0.0 0.0 0.0 
0.0 0.0 0.0 
0.0 0.0 0.0 
0.0 0.0 0.0 
0.0 0.0 0.0 
0.0 0.0 0.0 
0.0 0.0 0.0 
0.0 0.0 0.0 
0.0 0.0 0.0 
0.0 0.0 0.0 
0.0 0.0 0.0 
0.0 0.0 0.0 
0.0 0.0 0.0 
0.0 0.0 0.0 
0.0 0.0 0.0 
0.0 0.0 0.0 
0.0 0.0 0.0 
0.0 0.0 0.0 
0.0 0.0 0.0 
0.0 0.0 0.0 
0.0 0.0 0.0 
0.0 0.0 0.0 
0.0 0.0 0.0 
0.0 0.0 0.0 
0.0 0.0 0.0 
0.0 0.0 0.0 
0.0 0.0 0.0 
0.0 0.0 0.0 
0.0 0.0 0.0 
0.0 0.0 0.0 
0.0 0.0 0.0 
0.0 0.0 0.0 
0.0 0.0 0.0 
0.0 0.0 0.0 
0.0 0.0 0.0 
0.0 0.0 0.0 
0.0 0.0 0.0 
0.0 0.0 0.0 
0.0 0.0 0.0 
0.0 0.0 0.0 
0.0 0.0 0.0 
0.0 0.0 0.0 
0.0 0.0 0.0 
0.0 0.0 0.0 
0.0 0.0 0.0 
0.0 0.0 0.0 
0.0 0.0 0.0 
0.0 0.0 0.0 
0.0 0.0 0.0 
0.0 0.0 0.0 
0.0 0.0 0.0 
0.0 0.0 0.0 
0.0 0.0 0.0 
0.0 0.0 0.0 
0.0 0.0 0.0 
0.0 0.0 0.0 
0.0 0.0 0.0 
0.0 0.0 0.0 
0.0 0.0 0.0 
0.0 0.0 0.0 
0.0 0.0 0.0 
0.0 0.0 0.0 
0.0 0.0 0.0 
0.0 0.0 0.0 
0.0 0.0 0.0 
0.0 0.0 0.0 
0.0 0.0 0.0 
0.0 0.0 0.0 
0.0 0.0 0.0 
0.0 0.0 0.0 
0.0 0.0 0.0 
0.0 0.0 0.0 
0.0 0.0 0.0 
0.0 0.0 0.0 
0.0 0.0 0.0 
0.0 0.0 0.0 
0.0 0.0 0.0 
0.0 0.0 0.0 
0.0 0.0 0.0 
0.0 0.0 0.0 
0.0 0.0 0.0 
0.0 0.0 0.0 
0.0 0.0 0.0 
0.0 0.0 0.0 
0.0 0.0 0.0 
0.0 0.0 0.0 
0.0 0.0 0.0 
0.0 0.0 0.0 
0.0 0.0 0.0 
0.0 0.0 0.0 
0.0 0.0 0.0 
0.0 0.0 0.0 
0.0 0.0 0.0 
0.0 0.0 0.0 
0.0 0.0 0.0 
0.0 0.0 0.0 
0.0 0.0 0.0 
0.0 0.0 0.0 
0.0 0.0 0.0 
0.0 0.0 0.0 
0.0 0.0 0.0 
0.0 0.0 0.0 
0.0 0.0 0.0 
0.0 0.0 0.0 
0.0 0.0 0.0 
0.0 0.0 0.0 
0.0 0.0 0.0 
0.0 0.0 0.0 
0.0 0.0 0.0 
0.0 0.0 0.0 
0.0 0.0 0.0 
0.0 0.0 0.0 
0.0 0.0 0.0 
0.0 0.0 0.0 
0.0 0.0 0.0 
0.0 0.0 0.0 
0.0 0.0 0.0 
0.0 0.0 0.0 
0.0 0.0 0.0 
0.0 0.0 0.0 
0.0 0.0 0.0 
0.0 0.0 0.0 
0.0 0.0 0.0 
0.0 0.0 0.0 
0.0 0.0 0.0 
0.0 0.0 0.0 
0.0 0.0 0.0 
0.0 0.0 0.0 
0.0 0.0 0.0 
0.0 0.0 0.0 
0.0 0.0 0.0 
0.0 0.0 0.0 
0.0 0.0 0.0 
0.0 0.0 0.0 
0.0 0.0 0.0 
0.0 0.0 0.0 
0.0 0.0 0.0 
0.0 0.0 0.0 
0.0 0.0 0.0 
0.0 0.0 0.0 
0.0 0.0 0.0 
0.0 0.0 0.0 
0.0 0.0 0.0 
0.0 0.0 0.0 
0.0 0.0 0.0 
0.0 0.0 0.0 
0.0 0.0 0.0 
0.0 0.0 0.0 
0.0 0.0 0.0 
0.0 0.0 0.0 
0.0 0.0 0.0 
0.0 0.0 0.0 
0.0 0.0 0.0 
0.0 0.0 0.0 
0.0 0.0 0.0 
0.0 0.0 0.0 
0.0 0.0 0.0 
0.0 0.0 0.0 
0.0 0.0 0.0 
0.0 0.0 0.0 
0.0 0.0 0.0 
0.0 0.0 0.0 
0.0 0.0 0.0 
0.0 0.0 0.0 
0.0 0.0 0.0 
0.0 0.0 0.0 
0.0 0.0 0.0 
0.0 0.0 0.0 
0.0 0.0 0.0 
0.0 0.0 0.0 
0.0 0.0 0.0 
0.0 0.0 0.0 
0.0 0.0 0.0 
0.0 0.0 0.0 
0.0 0.0 0.0 
0.0 0.0 0.0 
0.0 0.0 0.0 
0.0 0.0 0.0 
0.0 0.0 0.0 
0.0 0.0 0.0 
0.0 0.0 0.0 
0.0 0.0 0.0 
0.0 0.0 0.0 
0.0 0.0 0.0 
0.0 0.0 0.0 
0.0 0.0 0.0 
0.0 0.0 0.0 
0.0 0.0 0.0 
0.0 0.0 0.0 
0.0 0.0 0.0 
0.0 0.0 0.0 
0.0 0.0 0.0 
0.0 0.0 0.0 
0.0 0.0 0.0 
0.0 0.0 0.0 
0.0 0.0 0.0 
0.0 0.0 0.0 
0.0 0.0 0.0 
0.0 0.0 0.0 
0.0 0.0 0.0 
0.0 0.0 0.0 
0.0 0.0 0.0 
0.0 0.0 0.0 
0.0 0.0 0.0 
0.0 0.0 0.0 
0.0 0.0 0.0 
0.0 0.0 0.0 
0.0 0.0 0.0 
0.0 0.0 0.0 
0.0 0.0 0.0 
0.0 0.0 0.0 
0.0 0.0 0.0 
0.0 0.0 0.0 
0.0 0.0 0.0 
0.0 0.0 0.0 
0.0 0.0 0.0 
0.0 0.0 0.0 
0.0 0.0 0.0 
0.0 0.0 0.0 
0.0 0.0 0.0 
0.0 0.0 0.0 
0.0 0.0 0.0 
0.0 0.0 0.0 
0.0 0.0 0.0 
0.0 0.0 0.0 
0.0 0.0 0.0 
0.0 0.0 0.0 
0.0 0.0 0.0 
0.0 0.0 0.0 
0.0 0.0 0.0 
0.0 0.0 0.0 
0.0 0.0 0.0 
0.0 0.0 0.0 
0.0 0.0 0.0 
0.0 0.0 0.0 
0.0 0.0 0.0 
0.0 0.0 0.0 
0.0 0.0 0.0 
0.0 0.0 0.0 
0.0 0.0 0.0 
0.0 0.0 0.0 
0.0 0.0 0.0 
0.0 0.0 0.0 
0.0 0.0 0.0 
0.0 0.0 0.0 
0.0 0.0 0.0 
0.0 0.0 0.0 
0.0 0.0 0.0 
0.0 0.0 0.0 
0.0 0.0 0.0 
0.0 0.0 0.0 
0.0 0.0 0.0 
0.0 0.0 0.0 
0.0 0.0 0.0 
0.0 0.0 0.0 
0.0 0.0 0.0 
0.0 0.0 0.0 
0.0 0.0 0.0 
0.0 0.0 0.0 
0.0 0.0 0.0 
0.0 0.0 0.0 
0.0 0.0 0.0 
0.0 0.0 0.0 
0.0 0.0 0.0 
0.0 0.0 0.0 
0.0 0.0 0.0 
0.0 0.0 0.0 
0.0 0.0 0.0 
0.0 0.0 0.0 
0.0 0.0 0.0 
0.0 0.0 0.0 
0.0 0.0 0.0 
0.0 0.0 0.0 
0.0 0.0 0.0 
0.0 0.0 0.0 
0.0 0.0 0.0 
0.0 0.0 0.0 
0.0 0.0 0.0 
0.0 0.0 0.0 
0.0 0.0 0.0 
0.0 0.0 0.0 
0.0 0.0 0.0 
0.0 0.0 0.0 
0.0 0.0 0.0 
0.0 0.0 0.0 
0.0 0.0 0.0 
0.0 0.0 0.0 
0.0 0.0 0.0 
0.0 0.0 0.0 
0.0 0.0 0.0 

VECTORS node_bounda_dof_materi_velocity_y float
0.0 0.0 0.0 
0.0 0.0 0.0 
0.0 1.000000000000e+00 0.0 
0.0 1.000000000000e+00 0.0 
0.0 0.0 0.0 
0.0 0.0 0.0 
0.0 0.0 0.0 
0.0 0.0 0.0 
0.0 0.0 0.0 
0.0 0.0 0.0 
0.0 0.0 0.0 
0.0 0.0 0.0 
0.0 0.0 0.0 
0.0 0.0 0.0 
0.0 0.0 0.0 
0.0 0.0 0.0 
0.0 0.0 0.0 
0.0 0.0 0.0 
0.0 0.0 0.0 
0.0 0.0 0.0 
0.0 0.0 0.0 
0.0 0.0 0.0 
0.0 0.0 0.0 
0.0 1.000000000000e+00 0.0 
0.0 1.000000000000e+00 0.0 
0.0 1.000000000000e+00 0.0 
0.0 1.000000000000e+00 0.0 
0.0 1.000000000000e+00 0.0 
0.0 1.000000000000e+00 0.0 
0.0 1.000000000000e+00 0.0 
0.0 1.000000000000e+00 0.0 
0.0 1.000000000000e+00 0.0 
0.0 1.000000000000e+00 0.0 
0.0 1.000000000000e+00 0.0 
0.0 1.000000000000e+00 0.0 
0.0 1.000000000000e+00 0.0 
0.0 1.000000000000e+00 0.0 
0.0 1.000000000000e+00 0.0 
0.0 1.000000000000e+00 0.0 
0.0 1.000000000000e+00 0.0 
0.0 1.000000000000e+00 0.0 
0.0 1.000000000000e+00 0.0 
0.0 1.000000000000e+00 0.0 
0.0 1.000000000000e+00 0.0 
0.0 1.000000000000e+00 0.0 
0.0 1.000000000000e+00 0.0 
0.0 1.000000000000e+00 0.0 
0.0 1.000000000000e+00 0.0 
0.0 1.000000000000e+00 0.0 
0.0 1.000000000000e+00 0.0 
0.0 1.000000000000e+00 0.0 
0.0 1.000000000000e+00 0.0 
0.0 1.000000000000e+00 0.0 
0.0 1.000000000000e+00 0.0 
0.0 1.000000000000e+00 0.0 
0.0 1.000000000000e+00 0.0 
0.0 1.000000000000e+00 0.0 
0.0 1.000000000000e+00 0.0 
0.0 1.000000000000e+00 0.0 
0.0 1.000000000000e+00 0.0 
0.0 1.000000000000e+00 0.0 
0.0 1.000000000000e+00 0.0 
0.0 1.000000000000e+00 0.0 
0.0 1.000000000000e+00 0.0 
0.0 1.000000000000e+00 0.0 
0.0 1.000000000000e+00 0.0 
0.0 1.000000000000e+00 0.0 
0.0 1.000000000000e+00 0.0 
0.0 1.000000000000e+00 0.0 
0.0 1.000000000000e+00 0.0 
0.0 1.000000000000e+00 0.0 
0.0 1.000000000000e+00 0.0 
0.0 0.0 0.0 
0.0 0.0 0.0 
0.0 0.0 0.0 
0.0 0.0 0.0 
0.0 0.0 0.0 
0.0 0.0 0.0 
0.0 0.0 0.0 
0.0 0.0 0.0 
0.0 0.0 0.0 
0.0 0.0 0.0 
0.0 0.0 0.0 
0.0 0.0 0.0 
0.0 0.0 0.0 
0.0 0.0 0.0 
0.0 0.0 0.0 
0.0 0.0 0.0 
0.0 0.0 0.0 
0.0 0.0 0.0 
0.0 0.0 0.0 
0.0 0.0 0.0 
0.0 0.0 0.0 
0.0 0.0 0.0 
0.0 0.0 0.0 
0.0 0.0 0.0 
0.0 0.0 0.0 
0.0 0.0 0.0 
0.0 0.0 0.0 
0.0 0.0 0.0 
0.0 0.0 0.0 
0.0 0.0 0.0 
0.0 0.0 0.0 
0.0 0.0 0.0 
0.0 0.0 0.0 
0.0 0.0 0.0 
0.0 0.0 0.0 
0.0 0.0 0.0 
0.0 0.0 0.0 
0.0 0.0 0.0 
0.0 0.0 0.0 
0.0 0.0 0.0 
0.0 0.0 0.0 
0.0 0.0 0.0 
0.0 0.0 0.0 
0.0 0.0 0.0 
0.0 0.0 0.0 
0.0 0.0 0.0 
0.0 0.0 0.0 
0.0 0.0 0.0 
0.0 0.0 0.0 
0.0 0.0 0.0 
0.0 0.0 0.0 
0.0 0.0 0.0 
0.0 0.0 0.0 
0.0 0.0 0.0 
0.0 0.0 0.0 
0.0 0.0 0.0 
0.0 0.0 0.0 
0.0 0.0 0.0 
0.0 0.0 0.0 
0.0 0.0 0.0 
0.0 0.0 0.0 
0.0 0.0 0.0 
0.0 0.0 0.0 
0.0 0.0 0.0 
0.0 0.0 0.0 
0.0 0.0 0.0 
0.0 0.0 0.0 
0.0 0.0 0.0 
0.0 0.0 0.0 
0.0 0.0 0.0 
0.0 0.0 0.0 
0.0 0.0 0.0 
0.0 0.0 0.0 
0.0 0.0 0.0 
0.0 0.0 0.0 
0.0 0.0 0.0 
0.0 0.0 0.0 
0.0 0.0 0.0 
0.0 0.0 0.0 
0.0 0.0 0.0 
0.0 0.0 0.0 
0.0 0.0 0.0 
0.0 0.0 0.0 
0.0 0.0 0.0 
0.0 0.0 0.0 
0.0 0.0 0.0 
0.0 0.0 0.0 
0.0 0.0 0.0 
0.0 0.0 0.0 
0.0 0.0 0.0 
0.0 0.0 0.0 
0.0 0.0 0.0 
0.0 0.0 0.0 
0.0 0.0 0.0 
0.0 0.0 0.0 
0.0 0.0 0.0 
0.0 0.0 0.0 
0.0 0.0 0.0 
0.0 0.0 0.0 
0.0 0.0 0.0 
0.0 0.0 0.0 
0.0 0.0 0.0 
0.0 0.0 0.0 
0.0 0.0 0.0 
0.0 0.0 0.0 
0.0 0.0 0.0 
0.0 0.0 0.0 
0.0 0.0 0.0 
0.0 0.0 0.0 
0.0 0.0 0.0 
0.0 0.0 0.0 
0.0 0.0 0.0 
0.0 0.0 0.0 
0.0 0.0 0.0 
0.0 0.0 0.0 
0.0 0.0 0.0 
0.0 0.0 0.0 
0.0 0.0 0.0 
0.0 0.0 0.0 
0.0 0.0 0.0 
0.0 0.0 0.0 
0.0 0.0 0.0 
0.0 0.0 0.0 
0.0 0.0 0.0 
0.0 0.0 0.0 
0.0 0.0 0.0 
0.0 0.0 0.0 
0.0 0.0 0.0 
0.0 0.0 0.0 
0.0 0.0 0.0 
0.0 0.0 0.0 
0.0 0.0 0.0 
0.0 0.0 0.0 
0.0 0.0 0.0 
0.0 0.0 0.0 
0.0 0.0 0.0 
0.0 0.0 0.0 
0.0 0.0 0.0 
0.0 0.0 0.0 
0.0 0.0 0.0 
0.0 0.0 0.0 
0.0 0.0 0.0 
0.0 0.0 0.0 
0.0 0.0 0.0 
0.0 0.0 0.0 
0.0 0.0 0.0 
0.0 0.0 0.0 
0.0 0.0 0.0 
0.0 0.0 0.0 
0.0 0.0 0.0 
0.0 0.0 0.0 
0.0 0.0 0.0 
0.0 0.0 0.0 
0.0 0.0 0.0 
0.0 0.0 0.0 
0.0 0.0 0.0 
0.0 0.0 0.0 
0.0 0.0 0.0 
0.0 0.0 0.0 
0.0 0.0 0.0 
0.0 0.0 0.0 
0.0 0.0 0.0 
0.0 0.0 0.0 
0.0 0.0 0.0 
0.0 0.0 0.0 
0.0 0.0 0.0 
0.0 0.0 0.0 
0.0 0.0 0.0 
0.0 0.0 0.0 
0.0 0.0 0.0 
0.0 0.0 0.0 
0.0 0.0 0.0 
0.0 0.0 0.0 
0.0 0.0 0.0 
0.0 0.0 0.0 
0.0 0.0 0.0 
0.0 0.0 0.0 
0.0 0.0 0.0 
0.0 0.0 0.0 
0.0 0.0 0.0 
0.0 0.0 0.0 
0.0 0.0 0.0 
0.0 0.0 0.0 
0.0 0.0 0.0 
0.0 0.0 0.0 
0.0 0.0 0.0 
0.0 0.0 0.0 
0.0 0.0 0.0 
0.0 0.0 0.0 
0.0 0.0 0.0 
0.0 0.0 0.0 
0.0 0.0 0.0 
0.0 0.0 0.0 
0.0 0.0 0.0 
0.0 0.0 0.0 
0.0 0.0 0.0 
0.0 0.0 0.0 
0.0 0.0 0.0 
0.0 0.0 0.0 
0.0 0.0 0.0 
0.0 0.0 0.0 
0.0 0.0 0.0 
0.0 0.0 0.0 
0.0 0.0 0.0 
0.0 0.0 0.0 
0.0 0.0 0.0 
0.0 0.0 0.0 
0.0 0.0 0.0 
0.0 0.0 0.0 
0.0 0.0 0.0 
0.0 0.0 0.0 
0.0 0.0 0.0 
0.0 0.0 0.0 
0.0 0.0 0.0 
0.0 0.0 0.0 
0.0 0.0 0.0 
0.0 0.0 0.0 
0.0 0.0 0.0 
0.0 0.0 0.0 
0.0 0.0 0.0 
0.0 0.0 0.0 
0.0 0.0 0.0 
0.0 0.0 0.0 
0.0 0.0 0.0 
0.0 0.0 0.0 
0.0 0.0 0.0 
0.0 0.0 0.0 
0.0 0.0 0.0 
0.0 0.0 0.0 
0.0 0.0 0.0 
0.0 0.0 0.0 
0.0 0.0 0.0 
0.0 0.0 0.0 
0.0 0.0 0.0 
0.0 0.0 0.0 
0.0 0.0 0.0 
0.0 0.0 0.0 
0.0 0.0 0.0 
0.0 0.0 0.0 
0.0 0.0 0.0 
0.0 0.0 0.0 
0.0 0.0 0.0 
0.0 0.0 0.0 
0.0 0.0 0.0 
0.0 0.0 0.0 
0.0 0.0 0.0 
0.0 0.0 0.0 
0.0 0.0 0.0 
0.0 0.0 0.0 
0.0 0.0 0.0 
0.0 0.0 0.0 
0.0 0.0 0.0 
0.0 0.0 0.0 
0.0 0.0 0.0 
0.0 0.0 0.0 
0.0 0.0 0.0 
0.0 0.0 0.0 
0.0 0.0 0.0 
0.0 0.0 0.0 
0.0 0.0 0.0 
0.0 0.0 0.0 
0.0 0.0 0.0 
0.0 0.0 0.0 
0.0 0.0 0.0 
0.0 0.0 0.0 
0.0 0.0 0.0 
0.0 0.0 0.0 
0.0 0.0 0.0 
0.0 0.0 0.0 
0.0 0.0 0.0 
0.0 0.0 0.0 
0.0 0.0 0.0 
0.0 0.0 0.0 
0.0 0.0 0.0 
0.0 0.0 0.0 
0.0 0.0 0.0 
0.0 0.0 0.0 
0.0 0.0 0.0 
0.0 0.0 0.0 
0.0 0.0 0.0 
0.0 0.0 0.0 
0.0 0.0 0.0 
0.0 0.0 0.0 
0.0 0.0 0.0 
0.0 0.0 0.0 
0.0 0.0 0.0 
0.0 0.0 0.0 
0.0 0.0 0.0 
0.0 0.0 0.0 
0.0 0.0 0.0 
0.0 0.0 0.0 
0.0 0.0 0.0 
0.0 0.0 0.0 
0.0 0.0 0.0 
0.0 0.0 0.0 
0.0 0.0 0.0 
0.0 0.0 0.0 
0.0 0.0 0.0 
0.0 0.0 0.0 
0.0 0.0 0.0 
0.0 0.0 0.0 
0.0 0.0 0.0 
0.0 0.0 0.0 
0.0 0.0 0.0 
0.0 0.0 0.0 
0.0 0.0 0.0 
0.0 0.0 0.0 
0.0 0.0 0.0 
0.0 0.0 0.0 
0.0 0.0 0.0 
0.0 0.0 0.0 
0.0 0.0 0.0 
0.0 0.0 0.0 
0.0 0.0 0.0 
0.0 0.0 0.0 
0.0 0.0 0.0 
0.0 0.0 0.0 
0.0 0.0 0.0 
0.0 0.0 0.0 
0.0 0.0 0.0 
0.0 0.0 0.0 
0.0 0.0 0.0 
0.0 0.0 0.0 
0.0 0.0 0.0 
0.0 0.0 0.0 
0.0 0.0 0.0 
0.0 0.0 0.0 
0.0 0.0 0.0 
0.0 0.0 0.0 
0.0 0.0 0.0 
0.0 0.0 0.0 
0.0 0.0 0.0 
0.0 0.0 0.0 
0.0 0.0 0.0 
0.0 0.0 0.0 
0.0 0.0 0.0 
0.0 0.0 0.0 
0.0 0.0 0.0 
0.0 0.0 0.0 
0.0 0.0 0.0 
0.0 0.0 0.0 
0.0 0.0 0.0 
0.0 0.0 0.0 
0.0 0.0 0.0 
0.0 0.0 0.0 
0.0 0.0 0.0 
0.0 0.0 0.0 
0.0 0.0 0.0 
0.0 0.0 0.0 
0.0 0.0 0.0 
0.0 0.0 0.0 
0.0 0.0 0.0 
0.0 0.0 0.0 
0.0 0.0 0.0 
0.0 0.0 0.0 
0.0 0.0 0.0 
0.0 0.0 0.0 
0.0 0.0 0.0 
0.0 0.0 0.0 
0.0 0.0 0.0 
0.0 0.0 0.0 
0.0 0.0 0.0 
0.0 0.0 0.0 
0.0 0.0 0.0 
0.0 0.0 0.0 
0.0 0.0 0.0 
0.0 0.0 0.0 
0.0 0.0 0.0 
0.0 0.0 0.0 
0.0 0.0 0.0 
0.0 0.0 0.0 
0.0 0.0 0.0 
0.0 0.0 0.0 
0.0 0.0 0.0 
0.0 0.0 0.0 
0.0 0.0 0.0 
0.0 0.0 0.0 
0.0 0.0 0.0 
0.0 0.0 0.0 
0.0 0.0 0.0 
0.0 0.0 0.0 
0.0 0.0 0.0 
0.0 0.0 0.0 
0.0 0.0 0.0 
0.0 0.0 0.0 
0.0 0.0 0.0 
0.0 0.0 0.0 
0.0 0.0 0.0 
0.0 0.0 0.0 
0.0 0.0 0.0 
0.0 0.0 0.0 
0.0 0.0 0.0 
0.0 0.0 0.0 
0.0 0.0 0.0 
0.0 0.0 0.0 
0.0 0.0 0.0 
0.0 0.0 0.0 
0.0 0.0 0.0 
0.0 0.0 0.0 
0.0 0.0 0.0 
0.0 0.0 0.0 
0.0 0.0 0.0 
0.0 0.0 0.0 
0.0 0.0 0.0 
0.0 0.0 0.0 
0.0 0.0 0.0 
0.0 0.0 0.0 
0.0 0.0 0.0 
0.0 0.0 0.0 
0.0 0.0 0.0 
0.0 0.0 0.0 
0.0 0.0 0.0 
0.0 0.0 0.0 
0.0 0.0 0.0 
0.0 0.0 0.0 
0.0 0.0 0.0 
0.0 0.0 0.0 
0.0 0.0 0.0 
0.0 0.0 0.0 
0.0 0.0 0.0 
0.0 0.0 0.0 
0.0 0.0 0.0 
0.0 0.0 0.0 
0.0 0.0 0.0 
0.0 0.0 0.0 
0.0 0.0 0.0 
0.0 0.0 0.0 
0.0 0.0 0.0 
0.0 0.0 0.0 
0.0 0.0 0.0 
0.0 0.0 0.0 
0.0 0.0 0.0 
0.0 0.0 0.0 
0.0 0.0 0.0 
0.0 0.0 0.0 
0.0 0.0 0.0 
0.0 0.0 0.0 
0.0 0.0 0.0 
0.0 0.0 0.0 
0.0 0.0 0.0 
0.0 0.0 0.0 
0.0 0.0 0.0 
0.0 0.0 0.0 
0.0 0.0 0.0 
0.0 0.0 0.0 
0.0 0.0 0.0 
0.0 0.0 0.0 
0.0 0.0 0.0 
0.0 0.0 0.0 
0.0 0.0 0.0 
0.0 0.0 0.0 
0.0 0.0 0.0 
0.0 0.0 0.0 
0.0 0.0 0.0 
0.0 0.0 0.0 
0.0 0.0 0.0 
0.0 0.0 0.0 
0.0 0.0 0.0 
0.0 0.0 0.0 
0.0 0.0 0.0 
0.0 0.0 0.0 
0.0 0.0 0.0 
0.0 0.0 0.0 
0.0 0.0 0.0 
0.0 0.0 0.0 
0.0 0.0 0.0 
0.0 0.0 0.0 
0.0 0.0 0.0 
0.0 0.0 0.0 
0.0 0.0 0.0 
0.0 0.0 0.0 
0.0 0.0 0.0 
0.0 0.0 0.0 
0.0 0.0 0.0 
0.0 0.0 0.0 
0.0 0.0 0.0 
0.0 0.0 0.0 
0.0 0.0 0.0 
0.0 0.0 0.0 
0.0 0.0 0.0 
0.0 0.0 0.0 
0.0 0.0 0.0 
0.0 0.0 0.0 
0.0 0.0 0.0 
0.0 0.0 0.0 
0.0 0.0 0.0 
0.0 0.0 0.0 
0.0 0.0 0.0 
0.0 0.0 0.0 
0.0 0.0 0.0 
0.0 0.0 0.0 
0.0 0.0 0.0 
0.0 0.0 0.0 
0.0 0.0 0.0 
0.0 0.0 0.0 
0.0 0.0 0.0 
0.0 0.0 0.0 
0.0 0.0 0.0 
0.0 0.0 0.0 
0.0 0.0 0.0 
0.0 0.0 0.0 
0.0 0.0 0.0 
0.0 0.0 0.0 
0.0 0.0 0.0 
0.0 0.0 0.0 
0.0 0.0 0.0 
0.0 0.0 0.0 
0.0 0.0 0.0 
0.0 0.0 0.0 
0.0 0.0 0.0 
0.0 0.0 0.0 
0.0 0.0 0.0 
0.0 0.0 0.0 
0.0 0.0 0.0 
0.0 0.0 0.0 
0.0 0.0 0.0 
0.0 0.0 0.0 
0.0 0.0 0.0 
0.0 0.0 0.0 
0.0 0.0 0.0 
0.0 0.0 0.0 
0.0 0.0 0.0 
0.0 0.0 0.0 
0.0 0.0 0.0 
0.0 0.0 0.0 
0.0 0.0 0.0 
0.0 0.0 0.0 
0.0 0.0 0.0 
0.0 0.0 0.0 
0.0 0.0 0.0 
0.0 0.0 0.0 
0.0 0.0 0.0 
0.0 0.0 0.0 
0.0 0.0 0.0 
0.0 0.0 0.0 
0.0 0.0 0.0 
0.0 0.0 0.0 
0.0 0.0 0.0 
0.0 0.0 0.0 
0.0 0.0 0.0 
0.0 0.0 0.0 
0.0 0.0 0.0 
0.0 0.0 0.0 
0.0 0.0 0.0 
0.0 0.0 0.0 
0.0 0.0 0.0 
0.0 0.0 0.0 
0.0 0.0 0.0 
0.0 0.0 0.0 
0.0 0.0 0.0 
0.0 0.0 0.0 
0.0 0.0 0.0 
0.0 0.0 0.0 
0.0 0.0 0.0 
0.0 0.0 0.0 
0.0 0.0 0.0 
0.0 0.0 0.0 
0.0 0.0 0.0 
0.0 0.0 0.0 
0.0 0.0 0.0 
0.0 0.0 0.0 
0.0 0.0 0.0 
0.0 0.0 0.0 
0.0 0.0 0.0 
0.0 0.0 0.0 
0.0 0.0 0.0 
0.0 0.0 0.0 
0.0 0.0 0.0 
0.0 0.0 0.0 
0.0 0.0 0.0 
0.0 0.0 0.0 
0.0 0.0 0.0 
0.0 0.0 0.0 
0.0 0.0 0.0 
0.0 0.0 0.0 
0.0 0.0 0.0 
0.0 0.0 0.0 
0.0 0.0 0.0 
0.0 0.0 0.0 
0.0 0.0 0.0 
0.0 0.0 0.0 
0.0 0.0 0.0 
0.0 0.0 0.0 
0.0 0.0 0.0 
0.0 0.0 0.0 
0.0 0.0 0.0 
0.0 0.0 0.0 
0.0 0.0 0.0 
0.0 0.0 0.0 
0.0 0.0 0.0 
0.0 0.0 0.0 
0.0 0.0 0.0 
0.0 0.0 0.0 
0.0 0.0 0.0 
0.0 0.0 0.0 
0.0 0.0 0.0 
0.0 0.0 0.0 
0.0 0.0 0.0 
0.0 0.0 0.0 
0.0 0.0 0.0 
0.0 0.0 0.0 
0.0 0.0 0.0 
0.0 0.0 0.0 
0.0 0.0 0.0 
0.0 0.0 0.0 
0.0 0.0 0.0 
0.0 0.0 0.0 
0.0 0.0 0.0 
0.0 0.0 0.0 
0.0 0.0 0.0 
0.0 0.0 0.0 
0.0 0.0 0.0 
0.0 0.0 0.0 
0.0 0.0 0.0 
0.0 0.0 0.0 
0.0 0.0 0.0 
0.0 0.0 0.0 
0.0 0.0 0.0 
0.0 0.0 0.0 
0.0 0.0 0.0 
0.0 0.0 0.0 
0.0 0.0 0.0 
0.0 0.0 0.0 
0.0 0.0 0.0 
0.0 0.0 0.0 
0.0 0.0 0.0 
0.0 0.0 0.0 
0.0 0.0 0.0 
0.0 0.0 0.0 
0.0 0.0 0.0 
0.0 0.0 0.0 
0.0 0.0 0.0 
0.0 0.0 0.0 
0.0 0.0 0.0 
0.0 0.0 0.0 
0.0 0.0 0.0 
0.0 0.0 0.0 
0.0 0.0 0.0 
0.0 0.0 0.0 
0.0 0.0 0.0 
0.0 0.0 0.0 
0.0 0.0 0.0 
0.0 0.0 0.0 
0.0 0.0 0.0 
0.0 0.0 0.0 
0.0 0.0 0.0 
0.0 0.0 0.0 
0.0 0.0 0.0 
0.0 0.0 0.0 
0.0 0.0 0.0 
0.0 0.0 0.0 
0.0 0.0 0.0 
0.0 0.0 0.0 
0.0 0.0 0.0 
0.0 0.0 0.0 
0.0 0.0 0.0 
0.0 0.0 0.0 
0.0 0.0 0.0 
0.0 0.0 0.0 
0.0 0.0 0.0 
0.0 0.0 0.0 
0.0 0.0 0.0 
0.0 0.0 0.0 
0.0 0.0 0.0 
0.0 0.0 0.0 
0.0 0.0 0.0 
0.0 0.0 0.0 
0.0 0.0 0.0 
0.0 0.0 0.0 
0.0 0.0 0.0 
0.0 0.0 0.0 
0.0 0.0 0.0 
0.0 0.0 0.0 
0.0 0.0 0.0 
0.0 0.0 0.0 
0.0 0.0 0.0 
0.0 0.0 0.0 
0.0 0.0 0.0 
0.0 0.0 0.0 
0.0 0.0 0.0 
0.0 0.0 0.0 
0.0 0.0 0.0 
0.0 0.0 0.0 
0.0 0.0 0.0 
0.0 0.0 0.0 
0.0 0.0 0.0 
0.0 0.0 0.0 
0.0 0.0 0.0 
0.0 0.0 0.0 
0.0 0.0 0.0 
0.0 0.0 0.0 
0.0 0.0 0.0 
0.0 0.0 0.0 
0.0 0.0 0.0 
0.0 0.0 0.0 
0.0 0.0 0.0 
0.0 0.0 0.0 
0.0 0.0 0.0 
0.0 0.0 0.0 
0.0 0.0 0.0 
0.0 0.0 0.0 
0.0 0.0 0.0 
0.0 0.0 0.0 
0.0 0.0 0.0 
0.0 0.0 0.0 
0.0 0.0 0.0 
0.0 0.0 0.0 
0.0 0.0 0.0 
0.0 0.0 0.0 
0.0 0.0 0.0 
0.0 0.0 0.0 
0.0 0.0 0.0 
0.0 0.0 0.0 
0.0 0.0 0.0 
0.0 0.0 0.0 
0.0 0.0 0.0 
0.0 0.0 0.0 
0.0 0.0 0.0 
0.0 0.0 0.0 
0.0 0.0 0.0 
0.0 0.0 0.0 
0.0 0.0 0.0 
0.0 0.0 0.0 
0.0 0.0 0.0 
0.0 0.0 0.0 
0.0 0.0 0.0 
0.0 0.0 0.0 
0.0 0.0 0.0 
0.0 0.0 0.0 
0.0 0.0 0.0 
0.0 0.0 0.0 
0.0 0.0 0.0 
0.0 0.0 0.0 
0.0 0.0 0.0 
0.0 0.0 0.0 
0.0 0.0 0.0 
0.0 0.0 0.0 
0.0 0.0 0.0 
0.0 0.0 0.0 
0.0 0.0 0.0 
0.0 0.0 0.0 
0.0 0.0 0.0 
0.0 0.0 0.0 
0.0 0.0 0.0 
0.0 0.0 0.0 
0.0 0.0 0.0 
0.0 0.0 0.0 
0.0 0.0 0.0 
0.0 0.0 0.0 
0.0 0.0 0.0 
0.0 0.0 0.0 
0.0 0.0 0.0 
0.0 0.0 0.0 
0.0 0.0 0.0 
0.0 0.0 0.0 
0.0 0.0 0.0 
0.0 0.0 0.0 
0.0 0.0 0.0 
0.0 0.0 0.0 
0.0 0.0 0.0 
0.0 0.0 0.0 
0.0 0.0 0.0 
0.0 0.0 0.0 
0.0 0.0 0.0 
0.0 0.0 0.0 
0.0 0.0 0.0 
0.0 0.0 0.0 
0.0 0.0 0.0 
0.0 0.0 0.0 
0.0 0.0 0.0 
0.0 0.0 0.0 
0.0 0.0 0.0 
0.0 0.0 0.0 
0.0 0.0 0.0 
0.0 0.0 0.0 
0.0 0.0 0.0 
0.0 0.0 0.0 
0.0 0.0 0.0 
0.0 0.0 0.0 
0.0 0.0 0.0 
0.0 0.0 0.0 
0.0 0.0 0.0 
0.0 0.0 0.0 
0.0 0.0 0.0 
0.0 0.0 0.0 
0.0 0.0 0.0 
0.0 0.0 0.0 
0.0 0.0 0.0 
0.0 0.0 0.0 
0.0 0.0 0.0 
0.0 0.0 0.0 
0.0 0.0 0.0 
0.0 0.0 0.0 
0.0 0.0 0.0 
0.0 0.0 0.0 
0.0 0.0 0.0 
0.0 0.0 0.0 
0.0 0.0 0.0 
0.0 0.0 0.0 
0.0 0.0 0.0 
0.0 0.0 0.0 
0.0 0.0 0.0 
0.0 0.0 0.0 
0.0 0.0 0.0 
0.0 0.0 0.0 
0.0 0.0 0.0 
0.0 0.0 0.0 
0.0 0.0 0.0 
0.0 0.0 0.0 
0.0 0.0 0.0 
0.0 0.0 0.0 
0.0 0.0 0.0 
0.0 0.0 0.0 
0.0 0.0 0.0 
0.0 0.0 0.0 
0.0 0.0 0.0 
0.0 0.0 0.0 
0.0 0.0 0.0 
0.0 0.0 0.0 
0.0 0.0 0.0 
0.0 0.0 0.0 
0.0 0.0 0.0 
0.0 0.0 0.0 
0.0 0.0 0.0 
0.0 0.0 0.0 
0.0 0.0 0.0 
0.0 0.0 0.0 
0.0 0.0 0.0 
0.0 0.0 0.0 
0.0 0.0 0.0 
0.0 0.0 0.0 
0.0 0.0 0.0 
0.0 0.0 0.0 
0.0 0.0 0.0 
0.0 0.0 0.0 
0.0 0.0 0.0 
0.0 0.0 0.0 
0.0 0.0 0.0 
0.0 0.0 0.0 
0.0 0.0 0.0 
0.0 0.0 0.0 
0.0 0.0 0.0 
0.0 0.0 0.0 
0.0 0.0 0.0 
0.0 0.0 0.0 
0.0 0.0 0.0 
0.0 0.0 0.0 
0.0 0.0 0.0 
0.0 0.0 0.0 
0.0 0.0 0.0 
0.0 0.0 0.0 
0.0 0.0 0.0 
0.0 0.0 0.0 
0.0 0.0 0.0 
0.0 0.0 0.0 
0.0 0.0 0.0 
0.0 0.0 0.0 
0.0 0.0 0.0 
0.0 0.0 0.0 
0.0 0.0 0.0 
0.0 0.0 0.0 
0.0 0.0 0.0 
0.0 0.0 0.0 
0.0 0.0 0.0 
0.0 0.0 0.0 
0.0 0.0 0.0 
0.0 0.0 0.0 
0.0 0.0 0.0 
0.0 0.0 0.0 
0.0 0.0 0.0 
0.0 0.0 0.0 
0.0 0.0 0.0 
0.0 0.0 0.0 
0.0 0.0 0.0 
0.0 0.0 0.0 
0.0 0.0 0.0 
0.0 0.0 0.0 
0.0 0.0 0.0 
0.0 0.0 0.0 
0.0 0.0 0.0 
0.0 0.0 0.0 
0.0 0.0 0.0 
0.0 0.0 0.0 
0.0 0.0 0.0 
0.0 0.0 0.0 
0.0 0.0 0.0 
0.0 0.0 0.0 
0.0 0.0 0.0 
0.0 0.0 0.0 
0.0 0.0 0.0 
0.0 0.0 0.0 
0.0 0.0 0.0 
0.0 0.0 0.0 
0.0 0.0 0.0 
0.0 0.0 0.0 
0.0 0.0 0.0 
0.0 0.0 0.0 
0.0 0.0 0.0 
0.0 0.0 0.0 
0.0 0.0 0.0 
0.0 0.0 0.0 
0.0 0.0 0.0 
0.0 0.0 0.0 
0.0 0.0 0.0 
0.0 0.0 0.0 
0.0 0.0 0.0 
0.0 0.0 0.0 
0.0 0.0 0.0 
0.0 0.0 0.0 
0.0 0.0 0.0 
0.0 0.0 0.0 
0.0 0.0 0.0 
0.0 0.0 0.0 
0.0 0.0 0.0 
0.0 0.0 0.0 
0.0 0.0 0.0 
0.0 0.0 0.0 
0.0 0.0 0.0 
0.0 0.0 0.0 
0.0 0.0 0.0 
0.0 0.0 0.0 
0.0 0.0 0.0 
0.0 0.0 0.0 
0.0 0.0 0.0 
0.0 0.0 0.0 
0.0 0.0 0.0 
0.0 0.0 0.0 
0.0 0.0 0.0 
0.0 0.0 0.0 
0.0 0.0 0.0 
0.0 0.0 0.0 
0.0 0.0 0.0 
0.0 0.0 0.0 
0.0 0.0 0.0 
0.0 0.0 0.0 
0.0 0.0 0.0 
0.0 0.0 0.0 
0.0 0.0 0.0 
0.0 0.0 0.0 
0.0 0.0 0.0 
0.0 0.0 0.0 
0.0 0.0 0.0 
0.0 0.0 0.0 
0.0 0.0 0.0 
0.0 0.0 0.0 
0.0 0.0 0.0 
0.0 0.0 0.0 
0.0 0.0 0.0 
0.0 0.0 0.0 
0.0 0.0 0.0 
0.0 0.0 0.0 
0.0 0.0 0.0 
0.0 0.0 0.0 
0.0 0.0 0.0 
0.0 0.0 0.0 
0.0 0.0 0.0 

SCALARS node_boundary float
LOOKUP_TABLE default
1.000000000000e+00 
1.000000000000e+00 
1.000000000000e+00 
1.000000000000e+00 
1.000000000000e+00 
1.000000000000e+00 
1.000000000000e+00 
1.000000000000e+00 
1.000000000000e+00 
1.000000000000e+00 
1.000000000000e+00 
1.000000000000e+00 
1.000000000000e+00 
1.000000000000e+00 
1.000000000000e+00 
1.000000000000e+00 
1.000000000000e+00 
1.000000000000e+00 
1.000000000000e+00 
1.000000000000e+00 
1.000000000000e+00 
1.000000000000e+00 
1.000000000000e+00 
1.000000000000e+00 
1.000000000000e+00 
1.000000000000e+00 
1.000000000000e+00 
1.000000000000e+00 
1.000000000000e+00 
1.000000000000e+00 
1.000000000000e+00 
1.000000000000e+00 
1.000000000000e+00 
1.000000000000e+00 
1.000000000000e+00 
1.000000000000e+00 
1.000000000000e+00 
1.000000000000e+00 
1.000000000000e+00 
1.000000000000e+00 
1.000000000000e+00 
1.000000000000e+00 
1.000000000000e+00 
1.000000000000e+00 
1.000000000000e+00 
1.000000000000e+00 
1.000000000000e+00 
1.000000000000e+00 
1.000000000000e+00 
1.000000000000e+00 
1.000000000000e+00 
1.000000000000e+00 
1.000000000000e+00 
1.000000000000e+00 
1.000000000000e+00 
1.000000000000e+00 
1.000000000000e+00 
1.000000000000e+00 
1.000000000000e+00 
1.000000000000e+00 
1.000000000000e+00 
1.000000000000e+00 
1.000000000000e+00 
1.000000000000e+00 
1.000000000000e+00 
1.000000000000e+00 
1.000000000000e+00 
1.000000000000e+00 
1.000000000000e+00 
1.000000000000e+00 
1.000000000000e+00 
1.000000000000e+00 
1.000000000000e+00 
1.000000000000e+00 
1.000000000000e+00 
1.000000000000e+00 
1.000000000000e+00 
1.000000000000e+00 
1.000000000000e+00 
1.000000000000e+00 
1.000000000000e+00 
1.000000000000e+00 
1.000000000000e+00 
1.000000000000e+00 
1.000000000000e+00 
1.000000000000e+00 
1.000000000000e+00 
1.000000000000e+00 
1.000000000000e+00 
1.000000000000e+00 
1.000000000000e+00 
1.000000000000e+00 
1.000000000000e+00 
1.000000000000e+00 
1.000000000000e+00 
1.000000000000e+00 
1.000000000000e+00 
1.000000000000e+00 
1.000000000000e+00 
1.000000000000e+00 
1.000000000000e+00 
1.000000000000e+00 
1.000000000000e+00 
1.000000000000e+00 
1.000000000000e+00 
1.000000000000e+00 
1.000000000000e+00 
1.000000000000e+00 
1.000000000000e+00 
1.000000000000e+00 
1.000000000000e+00 
1.000000000000e+00 
1.000000000000e+00 
1.000000000000e+00 
1.000000000000e+00 
1.000000000000e+00 
1.000000000000e+00 
1.000000000000e+00 
1.000000000000e+00 
1.000000000000e+00 
1.000000000000e+00 
1.000000000000e+00 
1.000000000000e+00 
1.000000000000e+00 
1.000000000000e+00 
1.000000000000e+00 
1.000000000000e+00 
1.000000000000e+00 
1.000000000000e+00 
1.000000000000e+00 
1.000000000000e+00 
1.000000000000e+00 
1.000000000000e+00 
1.000000000000e+00 
1.000000000000e+00 
0.0
0.0
0.0
0.0
0.0
0.0
0.0
0.0
0.0
0.0
0.0
0.0
0.0
0.0
0.0
0.0
0.0
0.0
0.0
0.0
0.0
0.0
0.0
0.0
0.0
0.0
0.0
0.0
0.0
0.0
0.0
0.0
0.0
0.0
0.0
0.0
0.0
0.0
0.0
0.0
0.0
0.0
0.0
0.0
0.0
0.0
0.0
0.0
0.0
0.0
0.0
0.0
0.0
0.0
0.0
0.0
0.0
0.0
0.0
0.0
0.0
0.0
0.0
0.0
0.0
0.0
0.0
0.0
0.0
0.0
0.0
0.0
0.0
0.0
0.0
0.0
0.0
0.0
0.0
0.0
0.0
0.0
0.0
0.0
0.0
0.0
0.0
0.0
0.0
0.0
0.0
0.0
0.0
0.0
0.0
0.0
0.0
0.0
0.0
0.0
0.0
0.0
0.0
0.0
0.0
0.0
0.0
0.0
0.0
0.0
0.0
0.0
0.0
0.0
0.0
0.0
0.0
0.0
0.0
0.0
0.0
0.0
0.0
0.0
0.0
0.0
0.0
0.0
0.0
0.0
0.0
0.0
0.0
0.0
0.0
0.0
0.0
0.0
0.0
0.0
0.0
0.0
0.0
0.0
0.0
0.0
0.0
0.0
0.0
0.0
0.0
0.0
0.0
0.0
0.0
0.0
0.0
0.0
0.0
0.0
0.0
0.0
0.0
0.0
0.0
0.0
0.0
0.0
0.0
0.0
0.0
0.0
0.0
0.0
0.0
0.0
0.0
0.0
0.0
0.0
0.0
0.0
0.0
0.0
0.0
0.0
0.0
0.0
0.0
0.0
0.0
0.0
0.0
0.0
0.0
0.0
0.0
0.0
0.0
0.0
0.0
0.0
0.0
0.0
0.0
0.0
0.0
0.0
0.0
0.0
0.0
0.0
0.0
0.0
0.0
0.0
0.0
0.0
0.0
0.0
0.0
0.0
0.0
0.0
0.0
0.0
0.0
0.0
0.0
0.0
0.0
0.0
0.0
0.0
0.0
0.0
0.0
0.0
0.0
0.0
0.0
0.0
0.0
0.0
0.0
0.0
0.0
0.0
0.0
0.0
0.0
0.0
0.0
0.0
0.0
0.0
0.0
0.0
0.0
0.0
0.0
0.0
0.0
0.0
0.0
0.0
0.0
0.0
0.0
0.0
0.0
0.0
0.0
0.0
0.0
0.0
0.0
0.0
0.0
0.0
0.0
0.0
0.0
0.0
0.0
0.0
0.0
0.0
0.0
0.0
0.0
0.0
0.0
0.0
0.0
0.0
0.0
0.0
0.0
0.0
0.0
0.0
0.0
0.0
0.0
0.0
0.0
0.0
0.0
0.0
0.0
0.0
0.0
0.0
0.0
0.0
0.0
0.0
0.0
0.0
0.0
0.0
0.0
0.0
0.0
0.0
0.0
0.0
0.0
0.0
0.0
0.0
0.0
0.0
0.0
0.0
0.0
0.0
0.0
0.0
0.0
0.0
0.0
0.0
0.0
0.0
0.0
0.0
0.0
0.0
0.0
0.0
0.0
0.0
0.0
0.0
0.0
0.0
0.0
0.0
0.0
0.0
0.0
0.0
0.0
0.0
0.0
0.0
0.0
0.0
0.0
0.0
0.0
0.0
0.0
0.0
0.0
0.0
0.0
0.0
0.0
0.0
0.0
0.0
0.0
0.0
0.0
0.0
0.0
0.0
0.0
0.0
0.0
0.0
0.0
0.0
0.0
0.0
0.0
0.0
0.0
0.0
0.0
0.0
0.0
0.0
0.0
0.0
0.0
0.0
0.0
0.0
0.0
0.0
0.0
0.0
0.0
0.0
0.0
0.0
0.0
0.0
0.0
0.0
0.0
0.0
0.0
0.0
0.0
0.0
0.0
0.0
0.0
0.0
0.0
0.0
0.0
0.0
0.0
0.0
0.0
0.0
0.0
0.0
0.0
0.0
0.0
0.0
0.0
0.0
0.0
0.0
0.0
0.0
0.0
0.0
0.0
0.0
0.0
0.0
0.0
0.0
0.0
0.0
0.0
0.0
0.0
0.0
0.0
0.0
0.0
0.0
0.0
0.0
0.0
0.0
0.0
0.0
0.0
0.0
0.0
0.0
0.0
0.0
0.0
0.0
0.0
0.0
0.0
0.0
0.0
0.0
0.0
0.0
0.0
0.0
0.0
0.0
0.0
0.0
0.0
0.0
0.0
0.0
0.0
0.0
0.0
0.0
0.0
0.0
0.0
0.0
0.0
0.0
0.0
0.0
0.0
0.0
0.0
0.0
0.0
0.0
0.0
0.0
0.0
0.0
0.0
0.0
0.0
0.0
0.0
0.0
0.0
0.0
0.0
0.0
0.0
0.0
0.0
0.0
0.0
0.0
0.0
0.0
0.0
0.0
0.0
0.0
0.0
0.0
0.0
0.0
0.0
0.0
0.0
0.0
0.0
0.0
0.0
0.0
0.0
0.0
0.0
0.0
0.0
0.0
0.0
0.0
0.0
0.0
0.0
0.0
0.0
0.0
0.0
0.0
0.0
0.0
0.0
0.0
0.0
0.0
0.0
0.0
0.0
0.0
0.0
0.0
0.0
0.0
0.0
0.0
0.0
0.0
0.0
0.0
0.0
0.0
0.0
0.0
0.0
0.0
0.0
0.0
0.0
0.0
0.0
0.0
0.0
0.0
0.0
0.0
0.0
0.0
0.0
0.0
0.0
0.0
0.0
0.0
0.0
0.0
0.0
0.0
0.0
0.0
0.0
0.0
0.0
0.0
0.0
0.0
0.0
0.0
0.0
0.0
0.0
0.0
0.0
0.0
0.0
0.0
0.0
0.0
0.0
0.0
0.0
0.0
0.0
0.0
0.0
0.0
0.0
0.0
0.0
0.0
0.0
0.0
0.0
0.0
0.0
0.0
0.0
0.0
0.0
0.0
0.0
0.0
0.0
0.0
0.0
0.0
0.0
0.0
0.0
0.0
0.0
0.0
0.0
0.0
0.0
0.0
0.0
0.0
0.0
0.0
0.0
0.0
0.0
0.0
0.0
0.0
0.0
0.0
0.0
0.0
0.0
0.0
0.0
0.0
0.0
0.0
0.0
0.0
0.0
0.0
0.0
0.0
0.0
0.0
0.0
0.0
0.0
0.0
0.0
0.0
0.0
0.0
0.0
0.0
0.0
0.0
0.0
0.0
0.0
0.0
0.0
0.0
0.0
0.0
0.0
0.0
0.0
0.0
0.0
0.0
0.0
0.0
0.0
0.0
0.0
0.0
0.0
0.0
0.0
0.0
0.0
0.0
0.0
0.0
0.0
0.0
0.0
0.0
0.0
0.0
0.0
0.0
0.0
0.0
0.0
0.0
0.0
0.0
0.0
0.0
0.0
0.0
0.0
0.0
0.0
0.0
0.0
0.0
0.0
0.0
0.0
0.0
0.0
0.0
0.0
0.0
0.0
0.0
0.0
0.0
0.0
0.0
0.0
0.0
0.0
0.0
0.0
0.0
0.0
0.0
0.0
0.0
0.0
0.0
0.0
0.0
0.0
0.0
0.0
0.0
0.0
0.0
0.0
0.0
0.0
0.0
0.0
0.0
0.0
0.0
0.0
0.0
0.0
0.0
0.0
0.0
0.0
0.0
0.0
0.0
0.0
0.0
0.0
0.0
0.0
0.0
0.0
0.0
0.0
0.0
0.0
0.0
0.0
0.0
0.0
0.0
0.0
0.0
0.0
0.0
0.0
0.0
0.0
0.0
0.0
0.0
0.0
0.0
0.0
0.0
0.0
0.0
0.0
0.0
0.0
0.0
0.0
0.0
0.0
0.0
0.0
0.0
0.0
0.0
0.0
0.0
0.0
0.0
0.0
0.0
0.0
0.0
0.0
0.0
0.0
0.0
0.0
0.0
0.0
0.0
0.0
0.0
0.0
0.0
0.0
0.0
0.0

VECTORS node_force_edge float
0.0 0.0 0.0 
0.0 0.0 0.0 
0.0 0.0 0.0 
0.0 0.0 0.0 
0.0 0.0 0.0 
0.0 0.0 0.0 
0.0 0.0 0.0 
0.0 0.0 0.0 
0.0 0.0 0.0 
0.0 0.0 0.0 
0.0 0.0 0.0 
0.0 0.0 0.0 
0.0 0.0 0.0 
0.0 0.0 0.0 
0.0 0.0 0.0 
0.0 0.0 0.0 
0.0 0.0 0.0 
0.0 0.0 0.0 
0.0 0.0 0.0 
0.0 0.0 0.0 
0.0 0.0 0.0 
0.0 0.0 0.0 
0.0 0.0 0.0 
0.0 0.0 0.0 
0.0 0.0 0.0 
0.0 0.0 0.0 
0.0 0.0 0.0 
0.0 0.0 0.0 
0.0 0.0 0.0 
0.0 0.0 0.0 
0.0 0.0 0.0 
0.0 0.0 0.0 
0.0 0.0 0.0 
0.0 0.0 0.0 
0.0 0.0 0.0 
0.0 0.0 0.0 
0.0 0.0 0.0 
0.0 0.0 0.0 
0.0 0.0 0.0 
0.0 0.0 0.0 
0.0 0.0 0.0 
0.0 0.0 0.0 
0.0 0.0 0.0 
0.0 0.0 0.0 
0.0 0.0 0.0 
0.0 0.0 0.0 
0.0 0.0 0.0 
0.0 0.0 0.0 
0.0 0.0 0.0 
0.0 0.0 0.0 
0.0 0.0 0.0 
0.0 0.0 0.0 
0.0 0.0 0.0 
0.0 0.0 0.0 
0.0 0.0 0.0 
0.0 0.0 0.0 
0.0 0.0 0.0 
0.0 0.0 0.0 
0.0 0.0 0.0 
0.0 0.0 0.0 
0.0 0.0 0.0 
0.0 0.0 0.0 
0.0 0.0 0.0 
0.0 0.0 0.0 
0.0 0.0 0.0 
0.0 0.0 0.0 
0.0 0.0 0.0 
0.0 0.0 0.0 
0.0 0.0 0.0 
0.0 0.0 0.0 
0.0 0.0 0.0 
0.0 0.0 0.0 
0.0 0.0 0.0 
0.0 0.0 0.0 
0.0 0.0 0.0 
0.0 0.0 0.0 
0.0 0.0 0.0 
0.0 0.0 0.0 
0.0 0.0 0.0 
0.0 0.0 0.0 
0.0 0.0 0.0 
0.0 -1.000000000000e+02 0.0 
0.0 0.0 0.0 
0.0 0.0 0.0 
0.0 0.0 0.0 
0.0 0.0 0.0 
0.0 0.0 0.0 
0.0 0.0 0.0 
0.0 0.0 0.0 
0.0 0.0 0.0 
0.0 0.0 0.0 
0.0 0.0 0.0 
0.0 0.0 0.0 
0.0 0.0 0.0 
0.0 0.0 0.0 
0.0 0.0 0.0 
0.0 0.0 0.0 
0.0 0.0 0.0 
0.0 0.0 0.0 
0.0 0.0 0.0 
0.0 0.0 0.0 
0.0 0.0 0.0 
0.0 0.0 0.0 
0.0 0.0 0.0 
0.0 0.0 0.0 
0.0 0.0 0.0 
0.0 -1.000000000000e+02 0.0 
0.0 -1.000000000000e+02 0.0 
0.0 -1.000000000000e+02 0.0 
0.0 -1.000000000000e+02 0.0 
0.0 -1.000000000000e+02 0.0 
0.0 0.0 0.0 
0.0 0.0 0.0 
0.0 0.0 0.0 
0.0 0.0 0.0 
0.0 0.0 0.0 
0.0 0.0 0.0 
0.0 0.0 0.0 
0.0 0.0 0.0 
0.0 0.0 0.0 
0.0 0.0 0.0 
0.0 0.0 0.0 
0.0 0.0 0.0 
0.0 0.0 0.0 
0.0 0.0 0.0 
0.0 0.0 0.0 
0.0 0.0 0.0 
0.0 0.0 0.0 
0.0 0.0 0.0 
0.0 0.0 0.0 
0.0 0.0 0.0 
0.0 0.0 0.0 
0.0 0.0 0.0 
0.0 0.0 0.0 
0.0 0.0 0.0 
0.0 0.0 0.0 
0.0 0.0 0.0 
0.0 0.0 0.0 
0.0 0.0 0.0 
0.0 0.0 0.0 
0.0 0.0 0.0 
0.0 0.0 0.0 
0.0 0.0 0.0 
0.0 0.0 0.0 
0.0 0.0 0.0 
0.0 0.0 0.0 
0.0 0.0 0.0 
0.0 0.0 0.0 
0.0 0.0 0.0 
0.0 0.0 0.0 
0.0 0.0 0.0 
0.0 0.0 0.0 
0.0 0.0 0.0 
0.0 0.0 0.0 
0.0 0.0 0.0 
0.0 0.0 0.0 
0.0 0.0 0.0 
0.0 0.0 0.0 
0.0 0.0 0.0 
0.0 0.0 0.0 
0.0 0.0 0.0 
0.0 0.0 0.0 
0.0 0.0 0.0 
0.0 0.0 0.0 
0.0 0.0 0.0 
0.0 0.0 0.0 
0.0 0.0 0.0 
0.0 0.0 0.0 
0.0 0.0 0.0 
0.0 0.0 0.0 
0.0 0.0 0.0 
0.0 0.0 0.0 
0.0 0.0 0.0 
0.0 0.0 0.0 
0.0 0.0 0.0 
0.0 0.0 0.0 
0.0 0.0 0.0 
0.0 0.0 0.0 
0.0 0.0 0.0 
0.0 0.0 0.0 
0.0 0.0 0.0 
0.0 0.0 0.0 
0.0 0.0 0.0 
0.0 0.0 0.0 
0.0 0.0 0.0 
0.0 0.0 0.0 
0.0 0.0 0.0 
0.0 0.0 0.0 
0.0 0.0 0.0 
0.0 0.0 0.0 
0.0 0.0 0.0 
0.0 0.0 0.0 
0.0 0.0 0.0 
0.0 0.0 0.0 
0.0 0.0 0.0 
0.0 0.0 0.0 
0.0 0.0 0.0 
0.0 0.0 0.0 
0.0 0.0 0.0 
0.0 0.0 0.0 
0.0 0.0 0.0 
0.0 0.0 0.0 
0.0 0.0 0.0 
0.0 0.0 0.0 
0.0 0.0 0.0 
0.0 0.0 0.0 
0.0 0.0 0.0 
0.0 0.0 0.0 
0.0 0.0 0.0 
0.0 0.0 0.0 
0.0 0.0 0.0 
0.0 0.0 0.0 
0.0 0.0 0.0 
0.0 0.0 0.0 
0.0 0.0 0.0 
0.0 0.0 0.0 
0.0 0.0 0.0 
0.0 0.0 0.0 
0.0 0.0 0.0 
0.0 0.0 0.0 
0.0 0.0 0.0 
0.0 0.0 0.0 
0.0 0.0 0.0 
0.0 0.0 0.0 
0.0 0.0 0.0 
0.0 0.0 0.0 
0.0 0.0 0.0 
0.0 0.0 0.0 
0.0 0.0 0.0 
0.0 0.0 0.0 
0.0 0.0 0.0 
0.0 0.0 0.0 
0.0 0.0 0.0 
0.0 0.0 0.0 
0.0 0.0 0.0 
0.0 0.0 0.0 
0.0 0.0 0.0 
0.0 0.0 0.0 
0.0 0.0 0.0 
0.0 0.0 0.0 
0.0 0.0 0.0 
0.0 0.0 0.0 
0.0 0.0 0.0 
0.0 0.0 0.0 
0.0 0.0 0.0 
0.0 0.0 0.0 
0.0 0.0 0.0 
0.0 0.0 0.0 
0.0 0.0 0.0 
0.0 0.0 0.0 
0.0 0.0 0.0 
0.0 0.0 0.0 
0.0 0.0 0.0 
0.0 0.0 0.0 
0.0 0.0 0.0 
0.0 0.0 0.0 
0.0 0.0 0.0 
0.0 0.0 0.0 
0.0 0.0 0.0 
0.0 0.0 0.0 
0.0 0.0 0.0 
0.0 0.0 0.0 
0.0 0.0 0.0 
0.0 0.0 0.0 
0.0 0.0 0.0 
0.0 0.0 0.0 
0.0 0.0 0.0 
0.0 0.0 0.0 
0.0 0.0 0.0 
0.0 0.0 0.0 
0.0 0.0 0.0 
0.0 0.0 0.0 
0.0 0.0 0.0 
0.0 0.0 0.0 
0.0 0.0 0.0 
0.0 0.0 0.0 
0.0 0.0 0.0 
0.0 0.0 0.0 
0.0 0.0 0.0 
0.0 0.0 0.0 
0.0 0.0 0.0 
0.0 0.0 0.0 
0.0 0.0 0.0 
0.0 0.0 0.0 
0.0 0.0 0.0 
0.0 0.0 0.0 
0.0 0.0 0.0 
0.0 0.0 0.0 
0.0 0.0 0.0 
0.0 0.0 0.0 
0.0 0.0 0.0 
0.0 0.0 0.0 
0.0 0.0 0.0 
0.0 0.0 0.0 
0.0 0.0 0.0 
0.0 0.0 0.0 
0.0 0.0 0.0 
0.0 0.0 0.0 
0.0 0.0 0.0 
0.0 0.0 0.0 
0.0 0.0 0.0 
0.0 0.0 0.0 
0.0 0.0 0.0 
0.0 0.0 0.0 
0.0 0.0 0.0 
0.0 0.0 0.0 
0.0 0.0 0.0 
0.0 0.0 0.0 
0.0 0.0 0.0 
0.0 0.0 0.0 
0.0 0.0 0.0 
0.0 0.0 0.0 
0.0 0.0 0.0 
0.0 0.0 0.0 
0.0 0.0 0.0 
0.0 0.0 0.0 
0.0 0.0 0.0 
0.0 0.0 0.0 
0.0 0.0 0.0 
0.0 0.0 0.0 
0.0 0.0 0.0 
0.0 0.0 0.0 
0.0 0.0 0.0 
0.0 0.0 0.0 
0.0 0.0 0.0 
0.0 0.0 0.0 
0.0 0.0 0.0 
0.0 0.0 0.0 
0.0 0.0 0.0 
0.0 0.0 0.0 
0.0 0.0 0.0 
0.0 0.0 0.0 
0.0 0.0 0.0 
0.0 0.0 0.0 
0.0 0.0 0.0 
0.0 0.0 0.0 
0.0 0.0 0.0 
0.0 0.0 0.0 
0.0 0.0 0.0 
0.0 0.0 0.0 
0.0 0.0 0.0 
0.0 0.0 0.0 
0.0 0.0 0.0 
0.0 0.0 0.0 
0.0 0.0 0.0 
0.0 0.0 0.0 
0.0 0.0 0.0 
0.0 0.0 0.0 
0.0 0.0 0.0 
0.0 0.0 0.0 
0.0 0.0 0.0 
0.0 0.0 0.0 
0.0 0.0 0.0 
0.0 0.0 0.0 
0.0 0.0 0.0 
0.0 0.0 0.0 
0.0 0.0 0.0 
0.0 0.0 0.0 
0.0 0.0 0.0 
0.0 0.0 0.0 
0.0 0.0 0.0 
0.0 0.0 0.0 
0.0 0.0 0.0 
0.0 0.0 0.0 
0.0 0.0 0.0 
0.0 0.0 0.0 
0.0 0.0 0.0 
0.0 0.0 0.0 
0.0 0.0 0.0 
0.0 0.0 0.0 
0.0 0.0 0.0 
0.0 0.0 0.0 
0.0 0.0 0.0 
0.0 0.0 0.0 
0.0 0.0 0.0 
0.0 0.0 0.0 
0.0 0.0 0.0 
0.0 0.0 0.0 
0.0 0.0 0.0 
0.0 0.0 0.0 
0.0 0.0 0.0 
0.0 0.0 0.0 
0.0 0.0 0.0 
0.0 0.0 0.0 
0.0 0.0 0.0 
0.0 0.0 0.0 
0.0 0.0 0.0 
0.0 0.0 0.0 
0.0 0.0 0.0 
0.0 0.0 0.0 
0.0 0.0 0.0 
0.0 0.0 0.0 
0.0 0.0 0.0 
0.0 0.0 0.0 
0.0 0.0 0.0 
0.0 0.0 0.0 
0.0 0.0 0.0 
0.0 0.0 0.0 
0.0 0.0 0.0 
0.0 0.0 0.0 
0.0 0.0 0.0 
0.0 0.0 0.0 
0.0 0.0 0.0 
0.0 0.0 0.0 
0.0 0.0 0.0 
0.0 0.0 0.0 
0.0 0.0 0.0 
0.0 0.0 0.0 
0.0 0.0 0.0 
0.0 0.0 0.0 
0.0 0.0 0.0 
0.0 0.0 0.0 
0.0 0.0 0.0 
0.0 0.0 0.0 
0.0 0.0 0.0 
0.0 0.0 0.0 
0.0 0.0 0.0 
0.0 0.0 0.0 
0.0 0.0 0.0 
0.0 0.0 0.0 
0.0 0.0 0.0 
0.0 0.0 0.0 
0.0 0.0 0.0 
0.0 0.0 0.0 
0.0 0.0 0.0 
0.0 0.0 0.0 
0.0 0.0 0.0 
0.0 0.0 0.0 
0.0 0.0 0.0 
0.0 0.0 0.0 
0.0 0.0 0.0 
0.0 0.0 0.0 
0.0 0.0 0.0 
0.0 0.0 0.0 
0.0 0.0 0.0 
0.0 0.0 0.0 
0.0 0.0 0.0 
0.0 0.0 0.0 
0.0 0.0 0.0 
0.0 0.0 0.0 
0.0 0.0 0.0 
0.0 0.0 0.0 
0.0 0.0 0.0 
0.0 0.0 0.0 
0.0 0.0 0.0 
0.0 0.0 0.0 
0.0 0.0 0.0 
0.0 0.0 0.0 
0.0 0.0 0.0 
0.0 0.0 0.0 
0.0 0.0 0.0 
0.0 0.0 0.0 
0.0 0.0 0.0 
0.0 0.0 0.0 
0.0 0.0 0.0 
0.0 0.0 0.0 
0.0 0.0 0.0 
0.0 0.0 0.0 
0.0 0.0 0.0 
0.0 0.0 0.0 
0.0 0.0 0.0 
0.0 0.0 0.0 
0.0 0.0 0.0 
0.0 0.0 0.0 
0.0 0.0 0.0 
0.0 0.0 0.0 
0.0 0.0 0.0 
0.0 0.0 0.0 
0.0 0.0 0.0 
0.0 0.0 0.0 
0.0 0.0 0.0 
0.0 0.0 0.0 
0.0 0.0 0.0 
0.0 0.0 0.0 
0.0 0.0 0.0 
0.0 0.0 0.0 
0.0 0.0 0.0 
0.0 0.0 0.0 
0.0 0.0 0.0 
0.0 0.0 0.0 
0.0 0.0 0.0 
0.0 0.0 0.0 
0.0 0.0 0.0 
0.0 0.0 0.0 
0.0 0.0 0.0 
0.0 0.0 0.0 
0.0 0.0 0.0 
0.0 0.0 0.0 
0.0 0.0 0.0 
0.0 0.0 0.0 
0.0 0.0 0.0 
0.0 0.0 0.0 
0.0 0.0 0.0 
0.0 0.0 0.0 
0.0 0.0 0.0 
0.0 0.0 0.0 
0.0 0.0 0.0 
0.0 0.0 0.0 
0.0 0.0 0.0 
0.0 0.0 0.0 
0.0 0.0 0.0 
0.0 0.0 0.0 
0.0 0.0 0.0 
0.0 0.0 0.0 
0.0 0.0 0.0 
0.0 0.0 0.0 
0.0 0.0 0.0 
0.0 0.0 0.0 
0.0 0.0 0.0 
0.0 0.0 0.0 
0.0 0.0 0.0 
0.0 0.0 0.0 
0.0 0.0 0.0 
0.0 0.0 0.0 
0.0 0.0 0.0 
0.0 0.0 0.0 
0.0 0.0 0.0 
0.0 0.0 0.0 
0.0 0.0 0.0 
0.0 0.0 0.0 
0.0 0.0 0.0 
0.0 0.0 0.0 
0.0 0.0 0.0 
0.0 0.0 0.0 
0.0 0.0 0.0 
0.0 0.0 0.0 
0.0 0.0 0.0 
0.0 0.0 0.0 
0.0 0.0 0.0 
0.0 0.0 0.0 
0.0 0.0 0.0 
0.0 0.0 0.0 
0.0 0.0 0.0 
0.0 0.0 0.0 
0.0 0.0 0.0 
0.0 0.0 0.0 
0.0 0.0 0.0 
0.0 0.0 0.0 
0.0 0.0 0.0 
0.0 0.0 0.0 
0.0 0.0 0.0 
0.0 0.0 0.0 
0.0 0.0 0.0 
0.0 0.0 0.0 
0.0 0.0 0.0 
0.0 0.0 0.0 
0.0 0.0 0.0 
0.0 0.0 0.0 
0.0 0.0 0.0 
0.0 0.0 0.0 
0.0 0.0 0.0 
0.0 0.0 0.0 
0.0 0.0 0.0 
0.0 0.0 0.0 
0.0 0.0 0.0 
0.0 0.0 0.0 
0.0 0.0 0.0 
0.0 0.0 0.0 
0.0 0.0 0.0 
0.0 0.0 0.0 
0.0 0.0 0.0 
0.0 0.0 0.0 
0.0 0.0 0.0 
0.0 0.0 0.0 
0.0 0.0 0.0 
0.0 0.0 0.0 
0.0 0.0 0.0 
0.0 0.0 0.0 
0.0 0.0 0.0 
0.0 0.0 0.0 
0.0 0.0 0.0 
0.0 0.0 0.0 
0.0 0.0 0.0 
0.0 0.0 0.0 
0.0 0.0 0.0 
0.0 0.0 0.0 
0.0 0.0 0.0 
0.0 0.0 0.0 
0.0 0.0 0.0 
0.0 0.0 0.0 
0.0 0.0 0.0 
0.0 0.0 0.0 
0.0 0.0 0.0 
0.0 0.0 0.0 
0.0 0.0 0.0 
0.0 0.0 0.0 
0.0 0.0 0.0 
0.0 0.0 0.0 
0.0 0.0 0.0 
0.0 0.0 0.0 
0.0 0.0 0.0 
0.0 0.0 0.0 
0.0 0.0 0.0 
0.0 0.0 0.0 
0.0 0.0 0.0 
0.0 0.0 0.0 
0.0 0.0 0.0 
0.0 0.0 0.0 
0.0 0.0 0.0 
0.0 0.0 0.0 
0.0 0.0 0.0 
0.0 0.0 0.0 
0.0 0.0 0.0 
0.0 0.0 0.0 
0.0 0.0 0.0 
0.0 0.0 0.0 
0.0 0.0 0.0 
0.0 0.0 0.0 
0.0 0.0 0.0 
0.0 0.0 0.0 
0.0 0.0 0.0 
0.0 0.0 0.0 
0.0 0.0 0.0 
0.0 0.0 0.0 
0.0 0.0 0.0 
0.0 0.0 0.0 
0.0 0.0 0.0 
0.0 0.0 0.0 
0.0 0.0 0.0 
0.0 0.0 0.0 
0.0 0.0 0.0 
0.0 0.0 0.0 
0.0 0.0 0.0 
0.0 0.0 0.0 
0.0 0.0 0.0 
0.0 0.0 0.0 
0.0 0.0 0.0 
0.0 0.0 0.0 
0.0 0.0 0.0 
0.0 0.0 0.0 
0.0 0.0 0.0 
0.0 0.0 0.0 
0.0 0.0 0.0 
0.0 0.0 0.0 
0.0 0.0 0.0 
0.0 0.0 0.0 
0.0 0.0 0.0 
0.0 0.0 0.0 
0.0 0.0 0.0 
0.0 0.0 0.0 
0.0 0.0 0.0 
0.0 0.0 0.0 
0.0 0.0 0.0 
0.0 0.0 0.0 
0.0 0.0 0.0 
0.0 0.0 0.0 
0.0 0.0 0.0 
0.0 0.0 0.0 
0.0 0.0 0.0 
0.0 0.0 0.0 
0.0 0.0 0.0 
0.0 0.0 0.0 
0.0 0.0 0.0 
0.0 0.0 0.0 
0.0 0.0 0.0 
0.0 0.0 0.0 
0.0 0.0 0.0 
0.0 0.0 0.0 
0.0 0.0 0.0 
0.0 0.0 0.0 
0.0 0.0 0.0 
0.0 0.0 0.0 
0.0 0.0 0.0 
0.0 0.0 0.0 
0.0 0.0 0.0 
0.0 0.0 0.0 
0.0 0.0 0.0 
0.0 0.0 0.0 
0.0 0.0 0.0 
0.0 0.0 0.0 
0.0 0.0 0.0 
0.0 0.0 0.0 
0.0 0.0 0.0 
0.0 0.0 0.0 
0.0 0.0 0.0 
0.0 0.0 0.0 
0.0 0.0 0.0 
0.0 0.0 0.0 
0.0 0.0 0.0 
0.0 0.0 0.0 
0.0 0.0 0.0 
0.0 0.0 0.0 
0.0 0.0 0.0 
0.0 0.0 0.0 
0.0 0.0 0.0 
0.0 0.0 0.0 
0.0 0.0 0.0 
0.0 0.0 0.0 
0.0 0.0 0.0 
0.0 0.0 0.0 
0.0 0.0 0.0 
0.0 0.0 0.0 
0.0 0.0 0.0 
0.0 0.0 0.0 
0.0 0.0 0.0 
0.0 0.0 0.0 
0.0 0.0 0.0 
0.0 0.0 0.0 
0.0 0.0 0.0 
0.0 0.0 0.0 
0.0 0.0 0.0 
0.0 0.0 0.0 
0.0 0.0 0.0 
0.0 0.0 0.0 
0.0 0.0 0.0 
0.0 0.0 0.0 
0.0 0.0 0.0 
0.0 0.0 0.0 
0.0 0.0 0.0 
0.0 0.0 0.0 
0.0 0.0 0.0 
0.0 0.0 0.0 
0.0 0.0 0.0 
0.0 0.0 0.0 
0.0 0.0 0.0 
0.0 0.0 0.0 
0.0 0.0 0.0 
0.0 0.0 0.0 
0.0 0.0 0.0 
0.0 0.0 0.0 
0.0 0.0 0.0 
0.0 0.0 0.0 
0.0 0.0 0.0 
0.0 0.0 0.0 
0.0 0.0 0.0 
0.0 0.0 0.0 
0.0 0.0 0.0 
0.0 0.0 0.0 
0.0 0.0 0.0 
0.0 0.0 0.0 
0.0 0.0 0.0 
0.0 0.0 0.0 
0.0 0.0 0.0 
0.0 0.0 0.0 
0.0 0.0 0.0 
0.0 0.0 0.0 
0.0 0.0 0.0 
0.0 0.0 0.0 
0.0 0.0 0.0 
0.0 0.0 0.0 
0.0 0.0 0.0 
0.0 0.0 0.0 
0.0 0.0 0.0 
0.0 0.0 0.0 
0.0 0.0 0.0 
0.0 0.0 0.0 
0.0 0.0 0.0 
0.0 0.0 0.0 
0.0 0.0 0.0 
0.0 0.0 0.0 
0.0 0.0 0.0 
0.0 0.0 0.0 
0.0 0.0 0.0 
0.0 0.0 0.0 
0.0 0.0 0.0 
0.0 0.0 0.0 
0.0 0.0 0.0 
0.0 0.0 0.0 
0.0 0.0 0.0 
0.0 0.0 0.0 
0.0 0.0 0.0 
0.0 0.0 0.0 
0.0 0.0 0.0 
0.0 0.0 0.0 
0.0 0.0 0.0 
0.0 0.0 0.0 
0.0 0.0 0.0 
0.0 0.0 0.0 
0.0 0.0 0.0 
0.0 0.0 0.0 
0.0 0.0 0.0 
0.0 0.0 0.0 
0.0 0.0 0.0 
0.0 0.0 0.0 
0.0 0.0 0.0 
0.0 0.0 0.0 
0.0 0.0 0.0 
0.0 0.0 0.0 
0.0 0.0 0.0 
0.0 0.0 0.0 
0.0 0.0 0.0 
0.0 0.0 0.0 
0.0 0.0 0.0 
0.0 0.0 0.0 
0.0 0.0 0.0 
0.0 0.0 0.0 
0.0 0.0 0.0 
0.0 0.0 0.0 
0.0 0.0 0.0 
0.0 0.0 0.0 
0.0 0.0 0.0 
0.0 0.0 0.0 
0.0 0.0 0.0 
0.0 0.0 0.0 
0.0 0.0 0.0 
0.0 0.0 0.0 
0.0 0.0 0.0 
0.0 0.0 0.0 
0.0 0.0 0.0 
0.0 0.0 0.0 
0.0 0.0 0.0 
0.0 0.0 0.0 
0.0 0.0 0.0 
0.0 0.0 0.0 
0.0 0.0 0.0 
0.0 0.0 0.0 
0.0 0.0 0.0 
0.0 0.0 0.0 
0.0 0.0 0.0 
0.0 0.0 0.0 
0.0 0.0 0.0 
0.0 0.0 0.0 
0.0 0.0 0.0 
0.0 0.0 0.0 
0.0 0.0 0.0 
0.0 0.0 0.0 
0.0 0.0 0.0 
0.0 0.0 0.0 
0.0 0.0 0.0 
0.0 0.0 0.0 
0.0 0.0 0.0 
0.0 0.0 0.0 
0.0 0.0 0.0 
0.0 0.0 0.0 
0.0 0.0 0.0 
0.0 0.0 0.0 
0.0 0.0 0.0 
0.0 0.0 0.0 
0.0 0.0 0.0 
0.0 0.0 0.0 
0.0 0.0 0.0 
0.0 0.0 0.0 
0.0 0.0 0.0 
0.0 0.0 0.0 
0.0 0.0 0.0 
0.0 0.0 0.0 
0.0 0.0 0.0 
0.0 0.0 0.0 
0.0 0.0 0.0 
0.0 0.0 0.0 
0.0 0.0 0.0 
0.0 0.0 0.0 
0.0 0.0 0.0 
0.0 0.0 0.0 
0.0 0.0 0.0 
0.0 0.0 0.0 
0.0 0.0 0.0 
0.0 0.0 0.0 
0.0 0.0 0.0 
0.0 0.0 0.0 
0.0 0.0 0.0 
0.0 0.0 0.0 
0.0 0.0 0.0 
0.0 0.0 0.0 
0.0 0.0 0.0 
0.0 0.0 0.0 
0.0 0.0 0.0 
0.0 0.0 0.0 
0.0 0.0 0.0 
0.0 0.0 0.0 
0.0 0.0 0.0 
0.0 0.0 0.0 
0.0 0.0 0.0 
0.0 0.0 0.0 
0.0 0.0 0.0 
0.0 0.0 0.0 
0.0 0.0 0.0 
0.0 0.0 0.0 
0.0 0.0 0.0 
0.0 0.0 0.0 
0.0 0.0 0.0 
0.0 0.0 0.0 
0.0 0.0 0.0 
0.0 0.0 0.0 
0.0 0.0 0.0 
0.0 0.0 0.0 
0.0 0.0 0.0 
0.0 0.0 0.0 
0.0 0.0 0.0 
0.0 0.0 0.0 
0.0 0.0 0.0 
0.0 0.0 0.0 
0.0 0.0 0.0 
0.0 0.0 0.0 
0.0 0.0 0.0 
0.0 0.0 0.0 
0.0 0.0 0.0 
0.0 0.0 0.0 
0.0 0.0 0.0 
0.0 0.0 0.0 
0.0 0.0 0.0 
0.0 0.0 0.0 
0.0 0.0 0.0 
0.0 0.0 0.0 
0.0 0.0 0.0 
0.0 0.0 0.0 
0.0 0.0 0.0 
0.0 0.0 0.0 
0.0 0.0 0.0 
0.0 0.0 0.0 
0.0 0.0 0.0 
0.0 0.0 0.0 
0.0 0.0 0.0 
0.0 0.0 0.0 
0.0 0.0 0.0 
0.0 0.0 0.0 
0.0 0.0 0.0 
0.0 0.0 0.0 
0.0 0.0 0.0 
0.0 0.0 0.0 
0.0 0.0 0.0 
0.0 0.0 0.0 
0.0 0.0 0.0 
0.0 0.0 0.0 
0.0 0.0 0.0 
0.0 0.0 0.0 
0.0 0.0 0.0 
0.0 0.0 0.0 
0.0 0.0 0.0 
0.0 0.0 0.0 
0.0 0.0 0.0 
0.0 0.0 0.0 
0.0 0.0 0.0 
0.0 0.0 0.0 
0.0 0.0 0.0 
0.0 0.0 0.0 
0.0 0.0 0.0 
0.0 0.0 0.0 
0.0 0.0 0.0 
0.0 0.0 0.0 
0.0 0.0 0.0 
0.0 0.0 0.0 
0.0 0.0 0.0 
0.0 0.0 0.0 
0.0 0.0 0.0 
0.0 0.0 0.0 
0.0 0.0 0.0 
0.0 0.0 0.0 
0.0 0.0 0.0 
0.0 0.0 0.0 
0.0 0.0 0.0 
0.0 0.0 0.0 
0.0 0.0 0.0 
0.0 0.0 0.0 
0.0 0.0 0.0 
0.0 0.0 0.0 
0.0 0.0 0.0 
0.0 0.0 0.0 
0.0 0.0 0.0 
0.0 0.0 0.0 
0.0 0.0 0.0 
0.0 0.0 0.0 
0.0 0.0 0.0 
0.0 0.0 0.0 
0.0 0.0 0.0 
0.0 0.0 0.0 
0.0 0.0 0.0 
0.0 0.0 0.0 
0.0 0.0 0.0 
0.0 0.0 0.0 
0.0 0.0 0.0 
0.0 0.0 0.0 
0.0 0.0 0.0 
0.0 0.0 0.0 
0.0 0.0 0.0 
0.0 0.0 0.0 
0.0 0.0 0.0 
0.0 0.0 0.0 
0.0 0.0 0.0 
0.0 0.0 0.0 
0.0 0.0 0.0 
0.0 0.0 0.0 
0.0 0.0 0.0 
0.0 0.0 0.0 
0.0 0.0 0.0 
0.0 0.0 0.0 
0.0 0.0 0.0 
0.0 0.0 0.0 
0.0 0.0 0.0 
0.0 0.0 0.0 
0.0 0.0 0.0 
0.0 0.0 0.0 
0.0 0.0 0.0 
0.0 0.0 0.0 
0.0 0.0 0.0 
0.0 0.0 0.0 
0.0 0.0 0.0 
0.0 0.0 0.0 
0.0 0.0 0.0 
0.0 0.0 0.0 
0.0 0.0 0.0 
0.0 0.0 0.0 
0.0 0.0 0.0 
0.0 0.0 0.0 
0.0 0.0 0.0 
0.0 0.0 0.0 
0.0 0.0 0.0 
0.0 0.0 0.0 
0.0 0.0 0.0 
0.0 0.0 0.0 
0.0 0.0 0.0 
0.0 0.0 0.0 
0.0 0.0 0.0 
0.0 0.0 0.0 
0.0 0.0 0.0 
0.0 0.0 0.0 
0.0 0.0 0.0 
0.0 0.0 0.0 
0.0 0.0 0.0 
0.0 0.0 0.0 
0.0 0.0 0.0 
0.0 0.0 0.0 
0.0 0.0 0.0 
0.0 0.0 0.0 
0.0 0.0 0.0 
0.0 0.0 0.0 
0.0 0.0 0.0 
0.0 0.0 0.0 
0.0 0.0 0.0 
0.0 0.0 0.0 
0.0 0.0 0.0 
0.0 0.0 0.0 
0.0 0.0 0.0 
0.0 0.0 0.0 
0.0 0.0 0.0 
0.0 0.0 0.0 
0.0 0.0 0.0 
0.0 0.0 0.0 

VECTORS node_force_gravity float
0.0 -1.962000000000e+01 0.0 
0.0 -1.962000000000e+01 0.0 
0.0 -1.962000000000e+01 0.0 
0.0 -1.962000000000e+01 0.0 
0.0 -1.962000000000e+01 0.0 
0.0 -1.962000000000e+01 0.0 
0.0 -1.962000000000e+01 0.0 
0.0 -1.962000000000e+01 0.0 
0.0 -1.962000000000e+01 0.0 
0.0 -1.962000000000e+01 0.0 
0.0 -1.962000000000e+01 0.0 
0.0 -1.962000000000e+01 0.0 
0.0 -1.962000000000e+01 0.0 
0.0 -1.962000000000e+01 0.0 
0.0 -1.962000000000e+01 0.0 
0.0 -1.962000000000e+01 0.0 
0.0 -1.962000000000e+01 0.0 
0.0 -1.962000000000e+01 0.0 
0.0 -1.962000000000e+01 0.0 
0.0 -1.962000000000e+01 0.0 
0.0 -1.962000000000e+01 0.0 
0.0 -1.962000000000e+01 0.0 
0.0 -1.962000000000e+01 0.0 
0.0 -1.962000000000e+01 0.0 
0.0 -1.962000000000e+01 0.0 
0.0 -1.962000000000e+01 0.0 
0.0 -1.962000000000e+01 0.0 
0.0 -1.962000000000e+01 0.0 
0.0 -1.962000000000e+01 0.0 
0.0 -1.962000000000e+01 0.0 
0.0 -1.962000000000e+01 0.0 
0.0 -1.962000000000e+01 0.0 
0.0 -1.962000000000e+01 0.0 
0.0 -1.962000000000e+01 0.0 
0.0 -1.962000000000e+01 0.0 
0.0 -1.962000000000e+01 0.0 
0.0 -1.962000000000e+01 0.0 
0.0 -1.962000000000e+01 0.0 
0.0 -1.962000000000e+01 0.0 
0.0 -1.962000000000e+01 0.0 
0.0 -1.962000000000e+01 0.0 
0.0 -1.962000000000e+01 0.0 
0.0 -1.962000000000e+01 0.0 
0.0 -1.962000000000e+01 0.0 
0.0 -1.962000000000e+01 0.0 
0.0 -1.962000000000e+01 0.0 
0.0 -1.962000000000e+01 0.0 
0.0 -1.962000000000e+01 0.0 
0.0 -1.962000000000e+01 0.0 
0.0 -1.962000000000e+01 0.0 
0.0 -1.962000000000e+01 0.0 
0.0 -1.962000000000e+01 0.0 
0.0 -1.962000000000e+01 0.0 
0.0 -1.962000000000e+01 0.0 
0.0 -1.962000000000e+01 0.0 
0.0 -1.962000000000e+01 0.0 
0.0 -1.962000000000e+01 0.0 
0.0 -1.962000000000e+01 0.0 
0.0 -1.962000000000e+01 0.0 
0.0 -1.962000000000e+01 0.0 
0.0 -1.962000000000e+01 0.0 
0.0 -1.962000000000e+01 0.0 
0.0 -1.962000000000e+01 0.0 
0.0 -1.962000000000e+01 0.0 
0.0 -1.962000000000e+01 0.0 
0.0 -1.962000000000e+01 0.0 
0.0 -1.962000000000e+01 0.0 
0.0 -1.962000000000e+01 0.0 
0.0 -1.962000000000e+01 0.0 
0.0 -1.962000000000e+01 0.0 
0.0 -1.962000000000e+01 0.0 
0.0 -1.962000000000e+01 0.0 
0.0 -1.962000000000e+01 0.0 
0.0 -1.962000000000e+01 0.0 
0.0 -1.962000000000e+01 0.0 
0.0 -1.962000000000e+01 0.0 
0.0 -1.962000000000e+01 0.0 
0.0 -1.962000000000e+01 0.0 
0.0 -1.962000000000e+01 0.0 
0.0 -1.962000000000e+01 0.0 
0.0 -1.962000000000e+01 0.0 
0.0 -1.962000000000e+01 0.0 
0.0 -1.962000000000e+01 0.0 
0.0 -1.962000000000e+01 0.0 
0.0 -1.962000000000e+01 0.0 
0.0 -1.962000000000e+01 0.0 
0.0 -1.962000000000e+01 0.0 
0.0 -1.962000000000e+01 0.0 
0.0 -1.962000000000e+01 0.0 
0.0 -1.962000000000e+01 0.0 
0.0 -1.962000000000e+01 0.0 
0.0 -1.962000000000e+01 0.0 
0.0 -1.962000000000e+01 0.0 
0.0 -1.962000000000e+01 0.0 
0.0 -1.962000000000e+01 0.0 
0.0 -1.962000000000e+01 0.0 
0.0 -1.962000000000e+01 0.0 
0.0 -1.962000000000e+01 0.0 
0.0 -1.962000000000e+01 0.0 
0.0 -1.962000000000e+01 0.0 
0.0 -1.962000000000e+01 0.0 
0.0 -1.962000000000e+01 0.0 
0.0 -1.962000000000e+01 0.0 
0.0 -1.962000000000e+01 0.0 
0.0 -1.962000000000e+01 0.0 
0.0 -1.962000000000e+01 0.0 
0.0 -1.962000000000e+01 0.0 
0.0 -1.962000000000e+01 0.0 
0.0 -1.962000000000e+01 0.0 
0.0 -1.962000000000e+01 0.0 
0.0 -1.962000000000e+01 0.0 
0.0 -1.962000000000e+01 0.0 
0.0 -1.962000000000e+01 0.0 
0.0 -1.962000000000e+01 0.0 
0.0 -1.962000000000e+01 0.0 
0.0 -1.962000000000e+01 0.0 
0.0 -1.962000000000e+01 0.0 
0.0 -1.962000000000e+01 0.0 
0.0 -1.962000000000e+01 0.0 
0.0 -1.962000000000e+01 0.0 
0.0 -1.962000000000e+01 0.0 
0.0 -1.962000000000e+01 0.0 
0.0 -1.962000000000e+01 0.0 
0.0 -1.962000000000e+01 0.0 
0.0 -1.962000000000e+01 0.0 
0.0 -1.962000000000e+01 0.0 
0.0 -1.962000000000e+01 0.0 
0.0 -1.962000000000e+01 0.0 
0.0 -1.962000000000e+01 0.0 
0.0 -1.962000000000e+01 0.0 
0.0 -1.962000000000e+01 0.0 
0.0 -1.962000000000e+01 0.0 
0.0 -1.962000000000e+01 0.0 
0.0 -1.962000000000e+01 0.0 
0.0 -1.962000000000e+01 0.0 
0.0 -1.962000000000e+01 0.0 
0.0 -1.962000000000e+01 0.0 
0.0 -1.962000000000e+01 0.0 
0.0 -1.962000000000e+01 0.0 
0.0 -1.962000000000e+01 0.0 
0.0 -1.962000000000e+01 0.0 
0.0 -1.962000000000e+01 0.0 
0.0 -1.962000000000e+01 0.0 
0.0 -1.962000000000e+01 0.0 
0.0 -1.962000000000e+01 0.0 
0.0 -1.962000000000e+01 0.0 
0.0 -1.962000000000e+01 0.0 
0.0 -1.962000000000e+01 0.0 
0.0 -1.962000000000e+01 0.0 
0.0 -1.962000000000e+01 0.0 
0.0 -1.962000000000e+01 0.0 
0.0 -1.962000000000e+01 0.0 
0.0 -1.962000000000e+01 0.0 
0.0 -1.962000000000e+01 0.0 
0.0 -1.962000000000e+01 0.0 
0.0 -1.962000000000e+01 0.0 
0.0 -1.962000000000e+01 0.0 
0.0 -1.962000000000e+01 0.0 
0.0 -1.962000000000e+01 0.0 
0.0 -1.962000000000e+01 0.0 
0.0 -1.962000000000e+01 0.0 
0.0 -1.962000000000e+01 0.0 
0.0 -1.962000000000e+01 0.0 
0.0 -1.962000000000e+01 0.0 
0.0 -1.962000000000e+01 0.0 
0.0 -1.962000000000e+01 0.0 
0.0 -1.962000000000e+01 0.0 
0.0 -1.962000000000e+01 0.0 
0.0 -1.962000000000e+01 0.0 
0.0 -1.962000000000e+01 0.0 
0.0 -1.962000000000e+01 0.0 
0.0 -1.962000000000e+01 0.0 
0.0 -1.962000000000e+01 0.0 
0.0 -1.962000000000e+01 0.0 
0.0 -1.962000000000e+01 0.0 
0.0 -1.962000000000e+01 0.0 
0.0 -1.962000000000e+01 0.0 
0.0 -1.962000000000e+01 0.0 
0.0 -1.962000000000e+01 0.0 
0.0 -1.962000000000e+01 0.0 
0.0 -1.962000000000e+01 0.0 
0.0 -1.962000000000e+01 0.0 
0.0 -1.962000000000e+01 0.0 
0.0 -1.962000000000e+01 0.0 
0.0 -1.962000000000e+01 0.0 
0.0 -1.962000000000e+01 0.0 
0.0 -1.962000000000e+01 0.0 
0.0 -1.962000000000e+01 0.0 
0.0 -1.962000000000e+01 0.0 
0.0 -1.962000000000e+01 0.0 
0.0 -1.962000000000e+01 0.0 
0.0 -1.962000000000e+01 0.0 
0.0 -1.962000000000e+01 0.0 
0.0 -1.962000000000e+01 0.0 
0.0 -1.962000000000e+01 0.0 
0.0 -1.962000000000e+01 0.0 
0.0 -1.962000000000e+01 0.0 
0.0 -1.962000000000e+01 0.0 
0.0 -1.962000000000e+01 0.0 
0.0 -1.962000000000e+01 0.0 
0.0 -1.962000000000e+01 0.0 
0.0 -1.962000000000e+01 0.0 
0.0 -1.962000000000e+01 0.0 
0.0 -1.962000000000e+01 0.0 
0.0 -1.962000000000e+01 0.0 
0.0 -1.962000000000e+01 0.0 
0.0 -1.962000000000e+01 0.0 
0.0 -1.962000000000e+01 0.0 
0.0 -1.962000000000e+01 0.0 
0.0 -1.962000000000e+01 0.0 
0.0 -1.962000000000e+01 0.0 
0.0 -1.962000000000e+01 0.0 
0.0 -1.962000000000e+01 0.0 
0.0 -1.962000000000e+01 0.0 
0.0 -1.962000000000e+01 0.0 
0.0 -1.962000000000e+01 0.0 
0.0 -1.962000000000e+01 0.0 
0.0 -1.962000000000e+01 0.0 
0.0 -1.962000000000e+01 0.0 
0.0 -1.962000000000e+01 0.0 
0.0 -1.962000000000e+01 0.0 
0.0 -1.962000000000e+01 0.0 
0.0 -1.962000000000e+01 0.0 
0.0 -1.962000000000e+01 0.0 
0.0 -1.962000000000e+01 0.0 
0.0 -1.962000000000e+01 0.0 
0.0 -1.962000000000e+01 0.0 
0.0 -1.962000000000e+01 0.0 
0.0 -1.962000000000e+01 0.0 
0.0 -1.962000000000e+01 0.0 
0.0 -1.962000000000e+01 0.0 
0.0 -1.962000000000e+01 0.0 
0.0 -1.962000000000e+01 0.0 
0.0 -1.962000000000e+01 0.0 
0.0 -1.962000000000e+01 0.0 
0.0 -1.962000000000e+01 0.0 
0.0 -1.962000000000e+01 0.0 
0.0 -1.962000000000e+01 0.0 
0.0 -1.962000000000e+01 0.0 
0.0 -1.962000000000e+01 0.0 
0.0 -1.962000000000e+01 0.0 
0.0 -1.962000000000e+01 0.0 
0.0 -1.962000000000e+01 0.0 
0.0 -1.962000000000e+01 0.0 
0.0 -1.962000000000e+01 0.0 
0.0 -1.962000000000e+01 0.0 
0.0 -1.962000000000e+01 0.0 
0.0 -1.962000000000e+01 0.0 
0.0 -1.962000000000e+01 0.0 
0.0 -1.962000000000e+01 0.0 
0.0 -1.962000000000e+01 0.0 
0.0 -1.962000000000e+01 0.0 
0.0 -1.962000000000e+01 0.0 
0.0 -1.962000000000e+01 0.0 
0.0 -1.962000000000e+01 0.0 
0.0 -1.962000000000e+01 0.0 
0.0 -1.962000000000e+01 0.0 
0.0 -1.962000000000e+01 0.0 
0.0 -1.962000000000e+01 0.0 
0.0 -1.962000000000e+01 0.0 
0.0 -1.962000000000e+01 0.0 
0.0 -1.962000000000e+01 0.0 
0.0 -1.962000000000e+01 0.0 
0.0 -1.962000000000e+01 0.0 
0.0 -1.962000000000e+01 0.0 
0.0 -1.962000000000e+01 0.0 
0.0 -1.962000000000e+01 0.0 
0.0 -1.962000000000e+01 0.0 
0.0 -1.962000000000e+01 0.0 
0.0 -1.962000000000e+01 0.0 
0.0 -1.962000000000e+01 0.0 
0.0 -1.962000000000e+01 0.0 
0.0 -1.962000000000e+01 0.0 
0.0 -1.962000000000e+01 0.0 
0.0 -1.962000000000e+01 0.0 
0.0 -1.962000000000e+01 0.0 
0.0 -1.962000000000e+01 0.0 
0.0 -1.962000000000e+01 0.0 
0.0 -1.962000000000e+01 0.0 
0.0 -1.962000000000e+01 0.0 
0.0 -1.962000000000e+01 0.0 
0.0 -1.962000000000e+01 0.0 
0.0 -1.962000000000e+01 0.0 
0.0 -1.962000000000e+01 0.0 
0.0 -1.962000000000e+01 0.0 
0.0 -1.962000000000e+01 0.0 
0.0 -1.962000000000e+01 0.0 
0.0 -1.962000000000e+01 0.0 
0.0 -1.962000000000e+01 0.0 
0.0 -1.962000000000e+01 0.0 
0.0 -1.962000000000e+01 0.0 
0.0 -1.962000000000e+01 0.0 
0.0 -1.962000000000e+01 0.0 
0.0 -1.962000000000e+01 0.0 
0.0 -1.962000000000e+01 0.0 
0.0 -1.962000000000e+01 0.0 
0.0 -1.962000000000e+01 0.0 
0.0 -1.962000000000e+01 0.0 
0.0 -1.962000000000e+01 0.0 
0.0 -1.962000000000e+01 0.0 
0.0 -1.962000000000e+01 0.0 
0.0 -1.962000000000e+01 0.0 
0.0 -1.962000000000e+01 0.0 
0.0 -1.962000000000e+01 0.0 
0.0 -1.962000000000e+01 0.0 
0.0 -1.962000000000e+01 0.0 
0.0 -1.962000000000e+01 0.0 
0.0 -1.962000000000e+01 0.0 
0.0 -1.962000000000e+01 0.0 
0.0 -1.962000000000e+01 0.0 
0.0 -1.962000000000e+01 0.0 
0.0 -1.962000000000e+01 0.0 
0.0 -1.962000000000e+01 0.0 
0.0 -1.962000000000e+01 0.0 
0.0 -1.962000000000e+01 0.0 
0.0 -1.962000000000e+01 0.0 
0.0 -1.962000000000e+01 0.0 
0.0 -1.962000000000e+01 0.0 
0.0 -1.962000000000e+01 0.0 
0.0 -1.962000000000e+01 0.0 
0.0 -1.962000000000e+01 0.0 
0.0 -1.962000000000e+01 0.0 
0.0 -1.962000000000e+01 0.0 
0.0 -1.962000000000e+01 0.0 
0.0 -1.962000000000e+01 0.0 
0.0 -1.962000000000e+01 0.0 
0.0 -1.962000000000e+01 0.0 
0.0 -1.962000000000e+01 0.0 
0.0 -1.962000000000e+01 0.0 
0.0 -1.962000000000e+01 0.0 
0.0 -1.962000000000e+01 0.0 
0.0 -1.962000000000e+01 0.0 
0.0 -1.962000000000e+01 0.0 
0.0 -1.962000000000e+01 0.0 
0.0 -1.962000000000e+01 0.0 
0.0 -1.962000000000e+01 0.0 
0.0 -1.962000000000e+01 0.0 
0.0 -1.962000000000e+01 0.0 
0.0 -1.962000000000e+01 0.0 
0.0 -1.962000000000e+01 0.0 
0.0 -1.962000000000e+01 0.0 
0.0 -1.962000000000e+01 0.0 
0.0 -1.962000000000e+01 0.0 
0.0 -1.962000000000e+01 0.0 
0.0 -1.962000000000e+01 0.0 
0.0 -1.962000000000e+01 0.0 
0.0 -1.962000000000e+01 0.0 
0.0 -1.962000000000e+01 0.0 
0.0 -1.962000000000e+01 0.0 
0.0 -1.962000000000e+01 0.0 
0.0 -1.962000000000e+01 0.0 
0.0 -1.962000000000e+01 0.0 
0.0 -1.962000000000e+01 0.0 
0.0 -1.962000000000e+01 0.0 
0.0 -1.962000000000e+01 0.0 
0.0 -1.962000000000e+01 0.0 
0.0 -1.962000000000e+01 0.0 
0.0 -1.962000000000e+01 0.0 
0.0 -1.962000000000e+01 0.0 
0.0 -1.962000000000e+01 0.0 
0.0 -1.962000000000e+01 0.0 
0.0 -1.962000000000e+01 0.0 
0.0 -1.962000000000e+01 0.0 
0.0 -1.962000000000e+01 0.0 
0.0 -1.962000000000e+01 0.0 
0.0 -1.962000000000e+01 0.0 
0.0 -1.962000000000e+01 0.0 
0.0 -1.962000000000e+01 0.0 
0.0 -1.962000000000e+01 0.0 
0.0 -1.962000000000e+01 0.0 
0.0 -1.962000000000e+01 0.0 
0.0 -1.962000000000e+01 0.0 
0.0 -1.962000000000e+01 0.0 
0.0 -1.962000000000e+01 0.0 
0.0 -1.962000000000e+01 0.0 
0.0 -1.962000000000e+01 0.0 
0.0 -1.962000000000e+01 0.0 
0.0 -1.962000000000e+01 0.0 
0.0 -1.962000000000e+01 0.0 
0.0 -1.962000000000e+01 0.0 
0.0 -1.962000000000e+01 0.0 
0.0 -1.962000000000e+01 0.0 
0.0 -1.962000000000e+01 0.0 
0.0 -1.962000000000e+01 0.0 
0.0 -1.962000000000e+01 0.0 
0.0 -1.962000000000e+01 0.0 
0.0 -1.962000000000e+01 0.0 
0.0 -1.962000000000e+01 0.0 
0.0 -1.962000000000e+01 0.0 
0.0 -1.962000000000e+01 0.0 
0.0 -1.962000000000e+01 0.0 
0.0 -1.962000000000e+01 0.0 
0.0 -1.962000000000e+01 0.0 
0.0 -1.962000000000e+01 0.0 
0.0 -1.962000000000e+01 0.0 
0.0 -1.962000000000e+01 0.0 
0.0 -1.962000000000e+01 0.0 
0.0 -1.962000000000e+01 0.0 
0.0 -1.962000000000e+01 0.0 
0.0 -1.962000000000e+01 0.0 
0.0 -1.962000000000e+01 0.0 
0.0 -1.962000000000e+01 0.0 
0.0 -1.962000000000e+01 0.0 
0.0 -1.962000000000e+01 0.0 
0.0 -1.962000000000e+01 0.0 
0.0 -1.962000000000e+01 0.0 
0.0 -1.962000000000e+01 0.0 
0.0 -1.962000000000e+01 0.0 
0.0 -1.962000000000e+01 0.0 
0.0 -1.962000000000e+01 0.0 
0.0 -1.962000000000e+01 0.0 
0.0 -1.962000000000e+01 0.0 
0.0 -1.962000000000e+01 0.0 
0.0 -1.962000000000e+01 0.0 
0.0 -1.962000000000e+01 0.0 
0.0 -1.962000000000e+01 0.0 
0.0 -1.962000000000e+01 0.0 
0.0 -1.962000000000e+01 0.0 
0.0 -1.962000000000e+01 0.0 
0.0 -1.962000000000e+01 0.0 
0.0 -1.962000000000e+01 0.0 
0.0 -1.962000000000e+01 0.0 
0.0 -1.962000000000e+01 0.0 
0.0 -1.962000000000e+01 0.0 
0.0 -1.962000000000e+01 0.0 
0.0 -1.962000000000e+01 0.0 
0.0 -1.962000000000e+01 0.0 
0.0 -1.962000000000e+01 0.0 
0.0 -1.962000000000e+01 0.0 
0.0 -1.962000000000e+01 0.0 
0.0 -1.962000000000e+01 0.0 
0.0 -1.962000000000e+01 0.0 
0.0 -1.962000000000e+01 0.0 
0.0 -1.962000000000e+01 0.0 
0.0 -1.962000000000e+01 0.0 
0.0 -1.962000000000e+01 0.0 
0.0 -1.962000000000e+01 0.0 
0.0 -1.962000000000e+01 0.0 
0.0 -1.962000000000e+01 0.0 
0.0 -1.962000000000e+01 0.0 
0.0 -1.962000000000e+01 0.0 
0.0 -1.962000000000e+01 0.0 
0.0 -1.962000000000e+01 0.0 
0.0 -1.962000000000e+01 0.0 
0.0 -1.962000000000e+01 0.0 
0.0 -1.962000000000e+01 0.0 
0.0 -1.962000000000e+01 0.0 
0.0 -1.962000000000e+01 0.0 
0.0 -1.962000000000e+01 0.0 
0.0 -1.962000000000e+01 0.0 
0.0 -1.962000000000e+01 0.0 
0.0 -1.962000000000e+01 0.0 
0.0 -1.962000000000e+01 0.0 
0.0 -1.962000000000e+01 0.0 
0.0 -1.962000000000e+01 0.0 
0.0 -1.962000000000e+01 0.0 
0.0 -1.962000000000e+01 0.0 
0.0 -1.962000000000e+01 0.0 
0.0 -1.962000000000e+01 0.0 
0.0 -1.962000000000e+01 0.0 
0.0 -1.962000000000e+01 0.0 
0.0 -1.962000000000e+01 0.0 
0.0 -1.962000000000e+01 0.0 
0.0 -1.962000000000e+01 0.0 
0.0 -1.962000000000e+01 0.0 
0.0 -1.962000000000e+01 0.0 
0.0 -1.962000000000e+01 0.0 
0.0 -1.962000000000e+01 0.0 
0.0 -1.962000000000e+01 0.0 
0.0 -1.962000000000e+01 0.0 
0.0 -1.962000000000e+01 0.0 
0.0 -1.962000000000e+01 0.0 
0.0 -1.962000000000e+01 0.0 
0.0 -1.962000000000e+01 0.0 
0.0 -1.962000000000e+01 0.0 
0.0 -1.962000000000e+01 0.0 
0.0 -1.962000000000e+01 0.0 
0.0 -1.962000000000e+01 0.0 
0.0 -1.962000000000e+01 0.0 
0.0 -1.962000000000e+01 0.0 
0.0 -1.962000000000e+01 0.0 
0.0 -1.962000000000e+01 0.0 
0.0 -1.962000000000e+01 0.0 
0.0 -1.962000000000e+01 0.0 
0.0 -1.962000000000e+01 0.0 
0.0 -1.962000000000e+01 0.0 
0.0 -1.962000000000e+01 0.0 
0.0 -1.962000000000e+01 0.0 
0.0 -1.962000000000e+01 0.0 
0.0 -1.962000000000e+01 0.0 
0.0 -1.962000000000e+01 0.0 
0.0 -1.962000000000e+01 0.0 
0.0 -1.962000000000e+01 0.0 
0.0 -1.962000000000e+01 0.0 
0.0 -1.962000000000e+01 0.0 
0.0 -1.962000000000e+01 0.0 
0.0 -1.962000000000e+01 0.0 
0.0 -1.962000000000e+01 0.0 
0.0 -1.962000000000e+01 0.0 
0.0 -1.962000000000e+01 0.0 
0.0 -1.962000000000e+01 0.0 
0.0 -1.962000000000e+01 0.0 
0.0 -1.962000000000e+01 0.0 
0.0 -1.962000000000e+01 0.0 
0.0 -1.962000000000e+01 0.0 
0.0 -1.962000000000e+01 0.0 
0.0 -1.962000000000e+01 0.0 
0.0 -1.962000000000e+01 0.0 
0.0 -1.962000000000e+01 0.0 
0.0 -1.962000000000e+01 0.0 
0.0 -1.962000000000e+01 0.0 
0.0 -1.962000000000e+01 0.0 
0.0 -1.962000000000e+01 0.0 
0.0 -1.962000000000e+01 0.0 
0.0 -1.962000000000e+01 0.0 
0.0 -1.962000000000e+01 0.0 
0.0 -1.962000000000e+01 0.0 
0.0 -1.962000000000e+01 0.0 
0.0 -1.962000000000e+01 0.0 
0.0 -1.962000000000e+01 0.0 
0.0 -1.962000000000e+01 0.0 
0.0 -1.962000000000e+01 0.0 
0.0 -1.962000000000e+01 0.0 
0.0 -1.962000000000e+01 0.0 
0.0 -1.962000000000e+01 0.0 
0.0 -1.962000000000e+01 0.0 
0.0 -1.962000000000e+01 0.0 
0.0 -1.962000000000e+01 0.0 
0.0 -1.962000000000e+01 0.0 
0.0 -1.962000000000e+01 0.0 
0.0 -1.962000000000e+01 0.0 
0.0 -1.962000000000e+01 0.0 
0.0 -1.962000000000e+01 0.0 
0.0 -1.962000000000e+01 0.0 
0.0 -1.962000000000e+01 0.0 
0.0 -1.962000000000e+01 0.0 
0.0 -1.962000000000e+01 0.0 
0.0 -1.962000000000e+01 0.0 
0.0 -1.962000000000e+01 0.0 
0.0 -1.962000000000e+01 0.0 
0.0 -1.962000000000e+01 0.0 
0.0 -1.962000000000e+01 0.0 
0.0 -1.962000000000e+01 0.0 
0.0 -1.962000000000e+01 0.0 
0.0 -1.962000000000e+01 0.0 
0.0 -1.962000000000e+01 0.0 
0.0 -1.962000000000e+01 0.0 
0.0 -1.962000000000e+01 0.0 
0.0 -1.962000000000e+01 0.0 
0.0 -1.962000000000e+01 0.0 
0.0 -1.962000000000e+01 0.0 
0.0 -1.962000000000e+01 0.0 
0.0 -1.962000000000e+01 0.0 
0.0 -1.962000000000e+01 0.0 
0.0 -1.962000000000e+01 0.0 
0.0 -1.962000000000e+01 0.0 
0.0 -1.962000000000e+01 0.0 
0.0 -1.962000000000e+01 0.0 
0.0 -1.962000000000e+01 0.0 
0.0 -1.962000000000e+01 0.0 
0.0 -1.962000000000e+01 0.0 
0.0 -1.962000000000e+01 0.0 
0.0 -1.962000000000e+01 0.0 
0.0 -1.962000000000e+01 0.0 
0.0 -1.962000000000e+01 0.0 
0.0 -1.962000000000e+01 0.0 
0.0 -1.962000000000e+01 0.0 
0.0 -1.962000000000e+01 0.0 
0.0 -1.962000000000e+01 0.0 
0.0 -1.962000000000e+01 0.0 
0.0 -1.962000000000e+01 0.0 
0.0 -1.962000000000e+01 0.0 
0.0 -1.962000000000e+01 0.0 
0.0 -1.962000000000e+01 0.0 
0.0 -1.962000000000e+01 0.0 
0.0 -1.962000000000e+01 0.0 
0.0 -1.962000000000e+01 0.0 
0.0 -1.962000000000e+01 0.0 
0.0 -1.962000000000e+01 0.0 
0.0 -1.962000000000e+01 0.0 
0.0 -1.962000000000e+01 0.0 
0.0 -1.962000000000e+01 0.0 
0.0 -1.962000000000e+01 0.0 
0.0 -1.962000000000e+01 0.0 
0.0 -1.962000000000e+01 0.0 
0.0 -1.962000000000e+01 0.0 
0.0 -1.962000000000e+01 0.0 
0.0 -1.962000000000e+01 0.0 
0.0 -1.962000000000e+01 0.0 
0.0 -1.962000000000e+01 0.0 
0.0 -1.962000000000e+01 0.0 
0.0 -1.962000000000e+01 0.0 
0.0 -1.962000000000e+01 0.0 
0.0 -1.962000000000e+01 0.0 
0.0 -1.962000000000e+01 0.0 
0.0 -1.962000000000e+01 0.0 
0.0 -1.962000000000e+01 0.0 
0.0 -1.962000000000e+01 0.0 
0.0 -1.962000000000e+01 0.0 
0.0 -1.962000000000e+01 0.0 
0.0 -1.962000000000e+01 0.0 
0.0 -1.962000000000e+01 0.0 
0.0 -1.962000000000e+01 0.0 
0.0 -1.962000000000e+01 0.0 
0.0 -1.962000000000e+01 0.0 
0.0 -1.962000000000e+01 0.0 
0.0 -1.962000000000e+01 0.0 
0.0 -1.962000000000e+01 0.0 
0.0 -1.962000000000e+01 0.0 
0.0 -1.962000000000e+01 0.0 
0.0 -1.962000000000e+01 0.0 
0.0 -1.962000000000e+01 0.0 
0.0 -1.962000000000e+01 0.0 
0.0 -1.962000000000e+01 0.0 
0.0 -1.962000000000e+01 0.0 
0.0 -1.962000000000e+01 0.0 
0.0 -1.962000000000e+01 0.0 
0.0 -1.962000000000e+01 0.0 
0.0 -1.962000000000e+01 0.0 
0.0 -1.962000000000e+01 0.0 
0.0 -1.962000000000e+01 0.0 
0.0 -1.962000000000e+01 0.0 
0.0 -1.962000000000e+01 0.0 
0.0 -1.962000000000e+01 0.0 
0.0 -1.962000000000e+01 0.0 
0.0 -1.962000000000e+01 0.0 
0.0 -1.962000000000e+01 0.0 
0.0 -1.962000000000e+01 0.0 
0.0 -1.962000000000e+01 0.0 
0.0 -1.962000000000e+01 0.0 
0.0 -1.962000000000e+01 0.0 
0.0 -1.962000000000e+01 0.0 
0.0 -1.962000000000e+01 0.0 
0.0 -1.962000000000e+01 0.0 
0.0 -1.962000000000e+01 0.0 
0.0 -1.962000000000e+01 0.0 
0.0 -1.962000000000e+01 0.0 
0.0 -1.962000000000e+01 0.0 
0.0 -1.962000000000e+01 0.0 
0.0 -1.962000000000e+01 0.0 
0.0 -1.962000000000e+01 0.0 
0.0 -1.962000000000e+01 0.0 
0.0 -1.962000000000e+01 0.0 
0.0 -1.962000000000e+01 0.0 
0.0 -1.962000000000e+01 0.0 
0.0 -1.962000000000e+01 0.0 
0.0 -1.962000000000e+01 0.0 
0.0 -1.962000000000e+01 0.0 
0.0 -1.962000000000e+01 0.0 
0.0 -1.962000000000e+01 0.0 
0.0 -1.962000000000e+01 0.0 
0.0 -1.962000000000e+01 0.0 
0.0 -1.962000000000e+01 0.0 
0.0 -1.962000000000e+01 0.0 
0.0 -1.962000000000e+01 0.0 
0.0 -1.962000000000e+01 0.0 
0.0 -1.962000000000e+01 0.0 
0.0 -1.962000000000e+01 0.0 
0.0 -1.962000000000e+01 0.0 
0.0 -1.962000000000e+01 0.0 
0.0 -1.962000000000e+01 0.0 
0.0 -1.962000000000e+01 0.0 
0.0 -1.962000000000e+01 0.0 
0.0 -1.962000000000e+01 0.0 
0.0 -1.962000000000e+01 0.0 
0.0 -1.962000000000e+01 0.0 
0.0 -1.962000000000e+01 0.0 
0.0 -1.962000000000e+01 0.0 
0.0 -1.962000000000e+01 0.0 
0.0 -1.962000000000e+01 0.0 
0.0 -1.962000000000e+01 0.0 
0.0 -1.962000000000e+01 0.0 
0.0 -1.962000000000e+01 0.0 
0.0 -1.962000000000e+01 0.0 
0.0 -1.962000000000e+01 0.0 
0.0 -1.962000000000e+01 0.0 
0.0 -1.962000000000e+01 0.0 
0.0 -1.962000000000e+01 0.0 
0.0 -1.962000000000e+01 0.0 
0.0 -1.962000000000e+01 0.0 
0.0 -1.962000000000e+01 0.0 
0.0 -1.962000000000e+01 0.0 
0.0 -1.962000000000e+01 0.0 
0.0 -1.962000000000e+01 0.0 
0.0 -1.962000000000e+01 0.0 
0.0 -1.962000000000e+01 0.0 
0.0 -1.962000000000e+01 0.0 
0.0 -1.962000000000e+01 0.0 
0.0 -1.962000000000e+01 0.0 
0.0 -1.962000000000e+01 0.0 
0.0 -1.962000000000e+01 0.0 
0.0 -1.962000000000e+01 0.0 
0.0 -1.962000000000e+01 0.0 
0.0 -1.962000000000e+01 0.0 
0.0 -1.962000000000e+01 0.0 
0.0 -1.962000000000e+01 0.0 
0.0 -1.962000000000e+01 0.0 
0.0 -1.962000000000e+01 0.0 
0.0 -1.962000000000e+01 0.0 
0.0 -1.962000000000e+01 0.0 
0.0 -1.962000000000e+01 0.0 
0.0 -1.962000000000e+01 0.0 
0.0 -1.962000000000e+01 0.0 
0.0 -1.962000000000e+01 0.0 
0.0 -1.962000000000e+01 0.0 
0.0 -1.962000000000e+01 0.0 
0.0 -1.962000000000e+01 0.0 
0.0 -1.962000000000e+01 0.0 
0.0 -1.962000000000e+01 0.0 
0.0 -1.962000000000e+01 0.0 
0.0 -1.962000000000e+01 0.0 
0.0 -1.962000000000e+01 0.0 
0.0 -1.962000000000e+01 0.0 
0.0 -1.962000000000e+01 0.0 
0.0 -1.962000000000e+01 0.0 
0.0 -1.962000000000e+01 0.0 
0.0 -1.962000000000e+01 0.0 
0.0 -1.962000000000e+01 0.0 
0.0 -1.962000000000e+01 0.0 
0.0 -1.962000000000e+01 0.0 
0.0 -1.962000000000e+01 0.0 
0.0 -1.962000000000e+01 0.0 
0.0 -1.962000000000e+01 0.0 
0.0 -1.962000000000e+01 0.0 
0.0 -1.962000000000e+01 0.0 
0.0 -1.962000000000e+01 0.0 
0.0 -1.962000000000e+01 0.0 
0.0 -1.962000000000e+01 0.0 
0.0 -1.962000000000e+01 0.0 
0.0 -1.962000000000e+01 0.0 
0.0 -1.962000000000e+01 0.0 
0.0 -1.962000000000e+01 0.0 
0.0 -1.962000000000e+01 0.0 
0.0 -1.962000000000e+01 0.0 
0.0 -1.962000000000e+01 0.0 
0.0 -1.962000000000e+01 0.0 
0.0 -1.962000000000e+01 0.0 
0.0 -1.962000000000e+01 0.0 
0.0 -1.962000000000e+01 0.0 
0.0 -1.962000000000e+01 0.0 
0.0 -1.962000000000e+01 0.0 
0.0 -1.962000000000e+01 0.0 
0.0 -1.962000000000e+01 0.0 
0.0 -1.962000000000e+01 0.0 
0.0 -1.962000000000e+01 0.0 
0.0 -1.962000000000e+01 0.0 
0.0 -1.962000000000e+01 0.0 
0.0 -1.962000000000e+01 0.0 
0.0 -1.962000000000e+01 0.0 
0.0 -1.962000000000e+01 0.0 
0.0 -1.962000000000e+01 0.0 
0.0 -1.962000000000e+01 0.0 
0.0 -1.962000000000e+01 0.0 
0.0 -1.962000000000e+01 0.0 
0.0 -1.962000000000e+01 0.0 
0.0 -1.962000000000e+01 0.0 
0.0 -1.962000000000e+01 0.0 
0.0 -1.962000000000e+01 0.0 
0.0 -1.962000000000e+01 0.0 
0.0 -1.962000000000e+01 0.0 
0.0 -1.962000000000e+01 0.0 
0.0 -1.962000000000e+01 0.0 
0.0 -1.962000000000e+01 0.0 
0.0 -1.962000000000e+01 0.0 
0.0 -1.962000000000e+01 0.0 
0.0 -1.962000000000e+01 0.0 
0.0 -1.962000000000e+01 0.0 
0.0 -1.962000000000e+01 0.0 
0.0 -1.962000000000e+01 0.0 
0.0 -1.962000000000e+01 0.0 
0.0 -1.962000000000e+01 0.0 
0.0 -1.962000000000e+01 0.0 
0.0 -1.962000000000e+01 0.0 
0.0 -1.962000000000e+01 0.0 
0.0 -1.962000000000e+01 0.0 
0.0 -1.962000000000e+01 0.0 
0.0 -1.962000000000e+01 0.0 
0.0 -1.962000000000e+01 0.0 
0.0 -1.962000000000e+01 0.0 
0.0 -1.962000000000e+01 0.0 
0.0 -1.962000000000e+01 0.0 
0.0 -1.962000000000e+01 0.0 
0.0 -1.962000000000e+01 0.0 
0.0 -1.962000000000e+01 0.0 
0.0 -1.962000000000e+01 0.0 
0.0 -1.962000000000e+01 0.0 
0.0 -1.962000000000e+01 0.0 
0.0 -1.962000000000e+01 0.0 
0.0 -1.962000000000e+01 0.0 
0.0 -1.962000000000e+01 0.0 
0.0 -1.962000000000e+01 0.0 
0.0 -1.962000000000e+01 0.0 
0.0 -1.962000000000e+01 0.0 
0.0 -1.962000000000e+01 0.0 
0.0 -1.962000000000e+01 0.0 
0.0 -1.962000000000e+01 0.0 
0.0 -1.962000000000e+01 0.0 
0.0 -1.962000000000e+01 0.0 
0.0 -1.962000000000e+01 0.0 
0.0 -1.962000000000e+01 0.0 
0.0 -1.962000000000e+01 0.0 
0.0 -1.962000000000e+01 0.0 
0.0 -1.962000000000e+01 0.0 
0.0 -1.962000000000e+01 0.0 
0.0 -1.962000000000e+01 0.0 
0.0 -1.962000000000e+01 0.0 
0.0 -1.962000000000e+01 0.0 
0.0 -1.962000000000e+01 0.0 
0.0 -1.962000000000e+01 0.0 
0.0 -1.962000000000e+01 0.0 
0.0 -1.962000000000e+01 0.0 
0.0 -1.962000000000e+01 0.0 
0.0 -1.962000000000e+01 0.0 
0.0 -1.962000000000e+01 0.0 
0.0 -1.962000000000e+01 0.0 
0.0 -1.962000000000e+01 0.0 
0.0 -1.962000000000e+01 0.0 
0.0 -1.962000000000e+01 0.0 
0.0 -1.962000000000e+01 0.0 
0.0 -1.962000000000e+01 0.0 
0.0 -1.962000000000e+01 0.0 
0.0 -1.962000000000e+01 0.0 
0.0 -1.962000000000e+01 0.0 
0.0 -1.962000000000e+01 0.0 
0.0 -1.962000000000e+01 0.0 
0.0 -1.962000000000e+01 0.0 
0.0 -1.962000000000e+01 0.0 
0.0 -1.962000000000e+01 0.0 
0.0 -1.962000000000e+01 0.0 
0.0 -1.962000000000e+01 0.0 
0.0 -1.962000000000e+01 0.0 
0.0 -1.962000000000e+01 0.0 
0.0 -1.962000000000e+01 0.0 
0.0 -1.962000000000e+01 0.0 
0.0 -1.962000000000e+01 0.0 
0.0 -1.962000000000e+01 0.0 
0.0 -1.962000000000e+01 0.0 
0.0 -1.962000000000e+01 0.0 
0.0 -1.962000000000e+01 0.0 
0.0 -1.962000000000e+01 0.0 
0.0 -1.962000000000e+01 0.0 
0.0 -1.962000000000e+01 0.0 
0.0 -1.962000000000e+01 0.0 
0.0 -1.962000000000e+01 0.0 
0.0 -1.962000000000e+01 0.0 
0.0 -1.962000000000e+01 0.0 
0.0 -1.962000000000e+01 0.0 
0.0 -1.962000000000e+01 0.0 
0.0 -1.962000000000e+01 0.0 
0.0 -1.962000000000e+01 0.0 
0.0 -1.962000000000e+01 0.0 
0.0 -1.962000000000e+01 0.0 
0.0 -1.962000000000e+01 0.0 
0.0 -1.962000000000e+01 0.0 
0.0 -1.962000000000e+01 0.0 
0.0 -1.962000000000e+01 0.0 
0.0 -1.962000000000e+01 0.0 
0.0 -1.962000000000e+01 0.0 
0.0 -1.962000000000e+01 0.0 
0.0 -1.962000000000e+01 0.0 
0.0 -1.962000000000e+01 0.0 
0.0 -1.962000000000e+01 0.0 
0.0 -1.962000000000e+01 0.0 
0.0 -1.962000000000e+01 0.0 
0.0 -1.962000000000e+01 0.0 
0.0 -1.962000000000e+01 0.0 
0.0 -1.962000000000e+01 0.0 
0.0 -1.962000000000e+01 0.0 
0.0 -1.962000000000e+01 0.0 
0.0 -1.962000000000e+01 0.0 
0.0 -1.962000000000e+01 0.0 
0.0 -1.962000000000e+01 0.0 
0.0 -1.962000000000e+01 0.0 
0.0 -1.962000000000e+01 0.0 
0.0 -1.962000000000e+01 0.0 
0.0 -1.962000000000e+01 0.0 
0.0 -1.962000000000e+01 0.0 
0.0 -1.962000000000e+01 0.0 
0.0 -1.962000000000e+01 0.0 
0.0 -1.962000000000e+01 0.0 
0.0 -1.962000000000e+01 0.0 
0.0 -1.962000000000e+01 0.0 
0.0 -1.962000000000e+01 0.0 
0.0 -1.962000000000e+01 0.0 
0.0 -1.962000000000e+01 0.0 
0.0 -1.962000000000e+01 0.0 
0.0 -1.962000000000e+01 0.0 
0.0 -1.962000000000e+01 0.0 
0.0 -1.962000000000e+01 0.0 
0.0 -1.962000000000e+01 0.0 
0.0 -1.962000000000e+01 0.0 
0.0 -1.962000000000e+01 0.0 
0.0 -1.962000000000e+01 0.0 
0.0 -1.962000000000e+01 0.0 
0.0 -1.962000000000e+01 0.0 
0.0 -1.962000000000e+01 0.0 
0.0 -1.962000000000e+01 0.0 
0.0 -1.962000000000e+01 0.0 
0.0 -1.962000000000e+01 0.0 
0.0 -1.962000000000e+01 0.0 
0.0 -1.962000000000e+01 0.0 
0.0 -1.962000000000e+01 0.0 
0.0 -1.962000000000e+01 0.0 
0.0 -1.962000000000e+01 0.0 
0.0 -1.962000000000e+01 0.0 
0.0 -1.962000000000e+01 0.0 
0.0 -1.962000000000e+01 0.0 
0.0 -1.962000000000e+01 0.0 
0.0 -1.962000000000e+01 0.0 
0.0 -1.962000000000e+01 0.0 
0.0 -1.962000000000e+01 0.0 
0.0 -1.962000000000e+01 0.0 
0.0 -1.962000000000e+01 0.0 
0.0 -1.962000000000e+01 0.0 
0.0 -1.962000000000e+01 0.0 
0.0 -1.962000000000e+01 0.0 
0.0 -1.962000000000e+01 0.0 
0.0 -1.962000000000e+01 0.0 
0.0 -1.962000000000e+01 0.0 
0.0 -1.962000000000e+01 0.0 
0.0 -1.962000000000e+01 0.0 
0.0 -1.962000000000e+01 0.0 
0.0 -1.962000000000e+01 0.0 
0.0 -1.962000000000e+01 0.0 
0.0 -1.962000000000e+01 0.0 
0.0 -1.962000000000e+01 0.0 
0.0 -1.962000000000e+01 0.0 
0.0 -1.962000000000e+01 0.0 
0.0 -1.962000000000e+01 0.0 
0.0 -1.962000000000e+01 0.0 
0.0 -1.962000000000e+01 0.0 
0.0 -1.962000000000e+01 0.0 
0.0 -1.962000000000e+01 0.0 
0.0 -1.962000000000e+01 0.0 
0.0 -1.962000000000e+01 0.0 
0.0 -1.962000000000e+01 0.0 
0.0 -1.962000000000e+01 0.0 
0.0 -1.962000000000e+01 0.0 
0.0 -1.962000000000e+01 0.0 
0.0 -1.962000000000e+01 0.0 
0.0 -1.962000000000e+01 0.0 
0.0 -1.962000000000e+01 0.0 
0.0 -1.962000000000e+01 0.0 
0.0 -1.962000000000e+01 0.0 
0.0 -1.962000000000e+01 0.0 
0.0 -1.962000000000e+01 0.0 
0.0 -1.962000000000e+01 0.0 
0.0 -1.962000000000e+01 0.0 
0.0 -1.962000000000e+01 0.0 
0.0 -1.962000000000e+01 0.0 
0.0 -1.962000000000e+01 0.0 
0.0 -1.962000000000e+01 0.0 
0.0 -1.962000000000e+01 0.0 
0.0 -1.962000000000e+01 0.0 
0.0 -1.962000000000e+01 0.0 
0.0 -1.962000000000e+01 0.0 
0.0 -1.962000000000e+01 0.0 
0.0 -1.962000000000e+01 0.0 
0.0 -1.962000000000e+01 0.0 
0.0 -1.962000000000e+01 0.0 
0.0 -1.962000000000e+01 0.0 
0.0 -1.962000000000e+01 0.0 
0.0 -1.962000000000e+01 0.0 
0.0 -1.962000000000e+01 0.0 
0.0 -1.962000000000e+01 0.0 
0.0 -1.962000000000e+01 0.0 
0.0 -1.962000000000e+01 0.0 
0.0 -1.962000000000e+01 0.0 
0.0 -1.962000000000e+01 0.0 
0.0 -1.962000000000e+01 0.0 
0.0 -1.962000000000e+01 0.0 
0.0 -1.962000000000e+01 0.0 
0.0 -1.962000000000e+01 0.0 
0.0 -1.962000000000e+01 0.0 
0.0 -1.962000000000e+01 0.0 
0.0 -1.962000000000e+01 0.0 
0.0 -1.962000000000e+01 0.0 
0.0 -1.962000000000e+01 0.0 
0.0 -1.962000000000e+01 0.0 
0.0 -1.962000000000e+01 0.0 
0.0 -1.962000000000e+01 0.0 
0.0 -1.962000000000e+01 0.0 
0.0 -1.962000000000e+01 0.0 
0.0 -1.962000000000e+01 0.0 
0.0 -1.962000000000e+01 0.0 
0.0 -1.962000000000e+01 0.0 
0.0 -1.962000000000e+01 0.0 
0.0 -1.962000000000e+01 0.0 
0.0 -1.962000000000e+01 0.0 
0.0 -1.962000000000e+01 0.0 
0.0 -1.962000000000e+01 0.0 
0.0 -1.962000000000e+01 0.0 
0.0 -1.962000000000e+01 0.0 
0.0 -1.962000000000e+01 0.0 
0.0 -1.962000000000e+01 0.0 
0.0 -1.962000000000e+01 0.0 
0.0 -1.962000000000e+01 0.0 
0.0 -1.962000000000e+01 0.0 
0.0 -1.962000000000e+01 0.0 
0.0 -1.962000000000e+01 0.0 
0.0 -1.962000000000e+01 0.0 
0.0 -1.962000000000e+01 0.0 
0.0 -1.962000000000e+01 0.0 
0.0 -1.962000000000e+01 0.0 
0.0 -1.962000000000e+01 0.0 
0.0 -1.962000000000e+01 0.0 
0.0 -1.962000000000e+01 0.0 
0.0 -1.962000000000e+01 0.0 
0.0 -1.962000000000e+01 0.0 
0.0 -1.962000000000e+01 0.0 
0.0 -1.962000000000e+01 0.0 
0.0 -1.962000000000e+01 0.0 
0.0 -1.962000000000e+01 0.0 
0.0 -1.962000000000e+01 0.0 
0.0 -1.962000000000e+01 0.0 
0.0 -1.962000000000e+01 0.0 
0.0 -1.962000000000e+01 0.0 
0.0 -1.962000000000e+01 0.0 
0.0 -1.962000000000e+01 0.0 
0.0 -1.962000000000e+01 0.0 
0.0 -1.962000000000e+01 0.0 
0.0 -1.962000000000e+01 0.0 
0.0 -1.962000000000e+01 0.0 
0.0 -1.962000000000e+01 0.0 
0.0 -1.962000000000e+01 0.0 
0.0 -1.962000000000e+01 0.0 
0.0 -1.962000000000e+01 0.0 
0.0 -1.962000000000e+01 0.0 

VECTORS node_rhside_materi_fixed float
6.664017963084e-01 0.0 0.0 
1.400563329316e+01 0.0 0.0 
-8.453961378049e+01 -2.014578726967e+02 0.0 
4.264363606819e+01 -1.027694879483e+02 0.0 
5.445872263719e-01 0.0 0.0 
-7.718003347570e+00 0.0 0.0 
-1.823509609520e+01 0.0 0.0 
-3.004074459829e+01 0.0 0.0 
-4.076566953538e+01 0.0 0.0 
-5.125671041222e+01 0.0 0.0 
-6.132540791541e+01 0.0 0.0 
-7.096728383534e+01 0.0 0.0 
-8.013104424324e+01 0.0 0.0 
-8.888384627878e+01 0.0 0.0 
-9.784175353330e+01 0.0 0.0 
-1.064366360636e+02 0.0 0.0 
-1.142770612522e+02 0.0 0.0 
-1.227188706120e+02 0.0 0.0 
-1.309696496168e+02 0.0 0.0 
-1.392039697151e+02 0.0 0.0 
-1.474532214991e+02 0.0 0.0 
-1.556553679089e+02 0.0 0.0 
-1.643352974678e+02 0.0 0.0 
1.670217936645e+00 -2.041593083771e+02 0.0 
2.957914020260e+00 -2.059034781923e+02 0.0 
7.307690010277e+00 -2.052246227578e+02 0.0 
6.350036068124e+00 -2.058236141475e+02 0.0 
1.069700488127e+01 -2.077249056027e+02 0.0 
1.259935767443e+01 -2.078924794184e+02 0.0 
1.484633779963e+01 -2.103145961086e+02 0.0 
1.767328474149e+01 -2.128373062510e+02 0.0 
2.247375024925e+01 -2.145789490586e+02 0.0 
2.244140404273e+01 -2.179110137002e+02 0.0 
2.829767951885e+01 -2.234545489263e+02 0.0 
3.127986809605e+01 -2.271476206395e+02 0.0 
3.433416546159e+01 -2.341449870217e+02 0.0 
3.741635611004e+01 -2.402952550841e+02 0.0 
4.065449280892e+01 -2.479117560296e+02 0.0 
4.309885576594e+01 -2.567506079542e+02 0.0 
4.649389520944e+01 -2.655205938652e+02 0.0 
4.775296612754e+01 -2.749049875505e+02 0.0 
4.876204746679e+01 -2.843004059356e+02 0.0 
4.862798087961e+01 -2.927795725813e+02 0.0 
4.719364656010e+01 -2.999384745951e+02 0.0 
4.531188161004e+01 -3.060279061169e+02 0.0 
4.420626513920e+01 -3.118034608245e+02 0.0 
4.249249253166e+01 -3.179771890668e+02 0.0 
4.091928154746e+01 -3.241287395730e+02 0.0 
3.910068577010e+01 -3.299549943840e+02 0.0 
3.724541404604e+01 -3.357576611467e+02 0.0 
3.540207307659e+01 -3.413571604823e+02 0.0 
3.371804196536e+01 -3.472972719424e+02 0.0 
3.158250236468e+01 -3.531103436613e+02 0.0 
2.987518153281e+01 -3.589769274311e+02 0.0 
2.769980071463e+01 -3.657895965376e+02 0.0 
2.545358502707e+01 -3.720004532770e+02 0.0 
2.313138695374e+01 -3.786503437319e+02 0.0 
2.049809185760e+01 -3.850686861316e+02 0.0 
1.764051703213e+01 -3.912938751850e+02 0.0 
1.463157690446e+01 -3.963919060729e+02 0.0 
1.133530467390e+01 -4.006083038173e+02 0.0 
8.384168216655e+00 -4.032107256813e+02 0.0 
5.895015274658e+00 -4.050892303541e+02 0.0 
3.573223272662e+00 -4.056082080434e+02 0.0 
2.280164346472e+00 -4.054549703242e+02 0.0 
1.227042047871e+00 -4.050489832020e+02 0.0 
3.227079031685e-01 -4.052359620153e+02 0.0 
-2.173439857245e-01 -4.038398342496e+02 0.0 
-5.813394803605e-01 -4.040549019744e+02 0.0 
1.095603768095e-01 -4.028816870334e+02 0.0 
-5.479295728067e-01 -4.027738735002e+02 0.0 
-1.027881319244e-01 -4.023597145489e+02 0.0 
3.227029949358e+01 0.0 0.0 
4.047303338255e+01 0.0 0.0 
4.800329857141e+01 0.0 0.0 
5.497078491896e+01 0.0 0.0 
6.161337107845e+01 0.0 0.0 
6.817107200932e+01 0.0 0.0 
7.368348762181e+01 0.0 0.0 
7.820270550393e+01 0.0 0.0 
8.398881506817e+01 0.0 0.0 
0.0 0.0 0.0 
0.0 0.0 0.0 
0.0 0.0 0.0 
0.0 0.0 0.0 
0.0 0.0 0.0 
0.0 0.0 0.0 
0.0 0.0 0.0 
0.0 0.0 0.0 
0.0 0.0 0.0 
0.0 0.0 0.0 
0.0 0.0 0.0 
0.0 0.0 0.0 
0.0 0.0 0.0 
0.0 0.0 0.0 
0.0 0.0 0.0 
0.0 0.0 0.0 
0.0 0.0 0.0 
0.0 0.0 0.0 
0.0 0.0 0.0 
0.0 0.0 0.0 
0.0 0.0 0.0 
0.0 0.0 0.0 
0.0 0.0 0.0 
0.0 0.0 0.0 
0.0 0.0 0.0 
0.0 0.0 0.0 
0.0 0.0 0.0 
0.0 0.0 0.0 
0.0 0.0 0.0 
0.0 0.0 0.0 
0.0 0.0 0.0 
0.0 0.0 0.0 
0.0 0.0 0.0 
0.0 0.0 0.0 
0.0 0.0 0.0 
0.0 0.0 0.0 
0.0 0.0 0.0 
0.0 0.0 0.0 
0.0 0.0 0.0 
0.0 0.0 0.0 
0.0 0.0 0.0 
0.0 0.0 0.0 
0.0 0.0 0.0 
0.0 0.0 0.0 
0.0 0.0 0.0 
0.0 0.0 0.0 
0.0 0.0 0.0 
0.0 0.0 0.0 
0.0 0.0 0.0 
0.0 0.0 0.0 
0.0 0.0 0.0 
0.0 0.0 0.0 
0.0 0.0 0.0 
0.0 0.0 0.0 
0.0 0.0 0.0 
0.0 0.0 0.0 
0.0 0.0 0.0 
0.0 0.0 0.0 
0.0 0.0 0.0 
0.0 0.0 0.0 
0.0 0.0 0.0 
0.0 0.0 0.0 
0.0 0.0 0.0 
0.0 0.0 0.0 
0.0 0.0 0.0 
0.0 0.0 0.0 
0.0 0.0 0.0 
0.0 0.0 0.0 
0.0 0.0 0.0 
0.0 0.0 0.0 
0.0 0.0 0.0 
0.0 0.0 0.0 
0.0 0.0 0.0 
0.0 0.0 0.0 
0.0 0.0 0.0 
0.0 0.0 0.0 
0.0 0.0 0.0 
0.0 0.0 0.0 
0.0 0.0 0.0 
0.0 0.0 0.0 
0.0 0.0 0.0 
0.0 0.0 0.0 
0.0 0.0 0.0 
0.0 0.0 0.0 
0.0 0.0 0.0 
0.0 0.0 0.0 
0.0 0.0 0.0 
0.0 0.0 0.0 
0.0 0.0 0.0 
0.0 0.0 0.0 
0.0 0.0 0.0 
0.0 0.0 0.0 
0.0 0.0 0.0 
0.0 0.0 0.0 
0.0 0.0 0.0 
0.0 0.0 0.0 
0.0 0.0 0.0 
0.0 0.0 0.0 
0.0 0.0 0.0 
0.0 0.0 0.0 
0.0 0.0 0.0 
0.0 0.0 0.0 
0.0 0.0 0.0 
0.0 0.0 0.0 
0.0 0.0 0.0 
0.0 0.0 0.0 
0.0 0.0 0.0 
0.0 0.0 0.0 
0.0 0.0 0.0 
0.0 0.0 0.0 
0.0 0.0 0.0 
0.0 0.0 0.0 
0.0 0.0 0.0 
0.0 0.0 0.0 
0.0 0.0 0.0 
0.0 0.0 0.0 
0.0 0.0 0.0 
0.0 0.0 0.0 
0.0 0.0 0.0 
0.0 0.0 0.0 
0.0 0.0 0.0 
0.0 0.0 0.0 
0.0 0.0 0.0 
0.0 0.0 0.0 
0.0 0.0 0.0 
0.0 0.0 0.0 
0.0 0.0 0.0 
0.0 0.0 0.0 
0.0 0.0 0.0 
0.0 0.0 0.0 
0.0 0.0 0.0 
0.0 0.0 0.0 
0.0 0.0 0.0 
0.0 0.0 0.0 
0.0 0.0 0.0 
0.0 0.0 0.0 
0.0 0.0 0.0 
0.0 0.0 0.0 
0.0 0.0 0.0 
0.0 0.0 0.0 
0.0 0.0 0.0 
0.0 0.0 0.0 
0.0 0.0 0.0 
0.0 0.0 0.0 
0.0 0.0 0.0 
0.0 0.0 0.0 
0.0 0.0 0.0 
0.0 0.0 0.0 
0.0 0.0 0.0 
0.0 0.0 0.0 
0.0 0.0 0.0 
0.0 0.0 0.0 
0.0 0.0 0.0 
0.0 0.0 0.0 
0.0 0.0 0.0 
0.0 0.0 0.0 
0.0 0.0 0.0 
0.0 0.0 0.0 
0.0 0.0 0.0 
0.0 0.0 0.0 
0.0 0.0 0.0 
0.0 0.0 0.0 
0.0 0.0 0.0 
0.0 0.0 0.0 
0.0 0.0 0.0 
0.0 0.0 0.0 
0.0 0.0 0.0 
0.0 0.0 0.0 
0.0 0.0 0.0 
0.0 0.0 0.0 
0.0 0.0 0.0 
0.0 0.0 0.0 
0.0 0.0 0.0 
0.0 0.0 0.0 
0.0 0.0 0.0 
0.0 0.0 0.0 
0.0 0.0 0.0 
0.0 0.0 0.0 
0.0 0.0 0.0 
0.0 0.0 0.0 
0.0 0.0 0.0 
0.0 0.0 0.0 
0.0 0.0 0.0 
0.0 0.0 0.0 
0.0 0.0 0.0 
0.0 0.0 0.0 
0.0 0.0 0.0 
0.0 0.0 0.0 
0.0 0.0 0.0 
0.0 0.0 0.0 
0.0 0.0 0.0 
0.0 0.0 0.0 
0.0 0.0 0.0 
0.0 0.0 0.0 
0.0 0.0 0.0 
0.0 0.0 0.0 
0.0 0.0 0.0 
0.0 0.0 0.0 
0.0 0.0 0.0 
0.0 0.0 0.0 
0.0 0.0 0.0 
0.0 0.0 0.0 
0.0 0.0 0.0 
0.0 0.0 0.0 
0.0 0.0 0.0 
0.0 0.0 0.0 
0.0 0.0 0.0 
0.0 0.0 0.0 
0.0 0.0 0.0 
0.0 0.0 0.0 
0.0 0.0 0.0 
0.0 0.0 0.0 
0.0 0.0 0.0 
0.0 0.0 0.0 
0.0 0.0 0.0 
0.0 0.0 0.0 
0.0 0.0 0.0 
0.0 0.0 0.0 
0.0 0.0 0.0 
0.0 0.0 0.0 
0.0 0.0 0.0 
0.0 0.0 0.0 
0.0 0.0 0.0 
0.0 0.0 0.0 
0.0 0.0 0.0 
0.0 0.0 0.0 
0.0 0.0 0.0 
0.0 0.0 0.0 
0.0 0.0 0.0 
0.0 0.0 0.0 
0.0 0.0 0.0 
0.0 0.0 0.0 
0.0 0.0 0.0 
0.0 0.0 0.0 
0.0 0.0 0.0 
0.0 0.0 0.0 
0.0 0.0 0.0 
0.0 0.0 0.0 
0.0 0.0 0.0 
0.0 0.0 0.0 
0.0 0.0 0.0 
0.0 0.0 0.0 
0.0 0.0 0.0 
0.0 0.0 0.0 
0.0 0.0 0.0 
0.0 0.0 0.0 
0.0 0.0 0.0 
0.0 0.0 0.0 
0.0 0.0 0.0 
0.0 0.0 0.0 
0.0 0.0 0.0 
0.0 0.0 0.0 
0.0 0.0 0.0 
0.0 0.0 0.0 
0.0 0.0 0.0 
0.0 0.0 0.0 
0.0 0.0 0.0 
0.0 0.0 0.0 
0.0 0.0 0.0 
0.0 0.0 0.0 
0.0 0.0 0.0 
0.0 0.0 0.0 
0.0 0.0 0.0 
0.0 0.0 0.0 
0.0 0.0 0.0 
0.0 0.0 0.0 
0.0 0.0 0.0 
0.0 0.0 0.0 
0.0 0.0 0.0 
0.0 0.0 0.0 
0.0 0.0 0.0 
0.0 0.0 0.0 
0.0 0.0 0.0 
0.0 0.0 0.0 
0.0 0.0 0.0 
0.0 0.0 0.0 
0.0 0.0 0.0 
0.0 0.0 0.0 
0.0 0.0 0.0 
0.0 0.0 0.0 
0.0 0.0 0.0 
0.0 0.0 0.0 
0.0 0.0 0.0 
0.0 0.0 0.0 
0.0 0.0 0.0 
0.0 0.0 0.0 
0.0 0.0 0.0 
0.0 0.0 0.0 
0.0 0.0 0.0 
0.0 0.0 0.0 
0.0 0.0 0.0 
0.0 0.0 0.0 
0.0 0.0 0.0 
0.0 0.0 0.0 
0.0 0.0 0.0 
0.0 0.0 0.0 
0.0 0.0 0.0 
0.0 0.0 0.0 
0.0 0.0 0.0 
0.0 0.0 0.0 
0.0 0.0 0.0 
0.0 0.0 0.0 
0.0 0.0 0.0 
0.0 0.0 0.0 
0.0 0.0 0.0 
0.0 0.0 0.0 
0.0 0.0 0.0 
0.0 0.0 0.0 
0.0 0.0 0.0 
0.0 0.0 0.0 
0.0 0.0 0.0 
0.0 0.0 0.0 
0.0 0.0 0.0 
0.0 0.0 0.0 
0.0 0.0 0.0 
0.0 0.0 0.0 
0.0 0.0 0.0 
0.0 0.0 0.0 
0.0 0.0 0.0 
0.0 0.0 0.0 
0.0 0.0 0.0 
0.0 0.0 0.0 
0.0 0.0 0.0 
0.0 0.0 0.0 
0.0 0.0 0.0 
0.0 0.0 0.0 
0.0 0.0 0.0 
0.0 0.0 0.0 
0.0 0.0 0.0 
0.0 0.0 0.0 
0.0 0.0 0.0 
0.0 0.0 0.0 
0.0 0.0 0.0 
0.0 0.0 0.0 
0.0 0.0 0.0 
0.0 0.0 0.0 
0.0 0.0 0.0 
0.0 0.0 0.0 
0.0 0.0 0.0 
0.0 0.0 0.0 
0.0 0.0 0.0 
0.0 0.0 0.0 
0.0 0.0 0.0 
0.0 0.0 0.0 
0.0 0.0 0.0 
0.0 0.0 0.0 
0.0 0.0 0.0 
0.0 0.0 0.0 
0.0 0.0 0.0 
0.0 0.0 0.0 
0.0 0.0 0.0 
0.0 0.0 0.0 
0.0 0.0 0.0 
0.0 0.0 0.0 
0.0 0.0 0.0 
0.0 0.0 0.0 
0.0 0.0 0.0 
0.0 0.0 0.0 
0.0 0.0 0.0 
0.0 0.0 0.0 
0.0 0.0 0.0 
0.0 0.0 0.0 
0.0 0.0 0.0 
0.0 0.0 0.0 
0.0 0.0 0.0 
0.0 0.0 0.0 
0.0 0.0 0.0 
0.0 0.0 0.0 
0.0 0.0 0.0 
0.0 0.0 0.0 
0.0 0.0 0.0 
0.0 0.0 0.0 
0.0 0.0 0.0 
0.0 0.0 0.0 
0.0 0.0 0.0 
0.0 0.0 0.0 
0.0 0.0 0.0 
0.0 0.0 0.0 
0.0 0.0 0.0 
0.0 0.0 0.0 
0.0 0.0 0.0 
0.0 0.0 0.0 
0.0 0.0 0.0 
0.0 0.0 0.0 
0.0 0.0 0.0 
0.0 0.0 0.0 
0.0 0.0 0.0 
0.0 0.0 0.0 
0.0 0.0 0.0 
0.0 0.0 0.0 
0.0 0.0 0.0 
0.0 0.0 0.0 
0.0 0.0 0.0 
0.0 0.0 0.0 
0.0 0.0 0.0 
0.0 0.0 0.0 
0.0 0.0 0.0 
0.0 0.0 0.0 
0.0 0.0 0.0 
0.0 0.0 0.0 
0.0 0.0 0.0 
0.0 0.0 0.0 
0.0 0.0 0.0 
0.0 0.0 0.0 
0.0 0.0 0.0 
0.0 0.0 0.0 
0.0 0.0 0.0 
0.0 0.0 0.0 
0.0 0.0 0.0 
0.0 0.0 0.0 
0.0 0.0 0.0 
0.0 0.0 0.0 
0.0 0.0 0.0 
0.0 0.0 0.0 
0.0 0.0 0.0 
0.0 0.0 0.0 
0.0 0.0 0.0 
0.0 0.0 0.0 
0.0 0.0 0.0 
0.0 0.0 0.0 
0.0 0.0 0.0 
0.0 0.0 0.0 
0.0 0.0 0.0 
0.0 0.0 0.0 
0.0 0.0 0.0 
0.0 0.0 0.0 
0.0 0.0 0.0 
0.0 0.0 0.0 
0.0 0.0 0.0 
0.0 0.0 0.0 
0.0 0.0 0.0 
0.0 0.0 0.0 
0.0 0.0 0.0 
0.0 0.0 0.0 
0.0 0.0 0.0 
0.0 0.0 0.0 
0.0 0.0 0.0 
0.0 0.0 0.0 
0.0 0.0 0.0 
0.0 0.0 0.0 
0.0 0.0 0.0 
0.0 0.0 0.0 
0.0 0.0 0.0 
0.0 0.0 0.0 
0.0 0.0 0.0 
0.0 0.0 0.0 
0.0 0.0 0.0 
0.0 0.0 0.0 
0.0 0.0 0.0 
0.0 0.0 0.0 
0.0 0.0 0.0 
0.0 0.0 0.0 
0.0 0.0 0.0 
0.0 0.0 0.0 
0.0 0.0 0.0 
0.0 0.0 0.0 
0.0 0.0 0.0 
0.0 0.0 0.0 
0.0 0.0 0.0 
0.0 0.0 0.0 
0.0 0.0 0.0 
0.0 0.0 0.0 
0.0 0.0 0.0 
0.0 0.0 0.0 
0.0 0.0 0.0 
0.0 0.0 0.0 
0.0 0.0 0.0 
0.0 0.0 0.0 
0.0 0.0 0.0 
0.0 0.0 0.0 
0.0 0.0 0.0 
0.0 0.0 0.0 
0.0 0.0 0.0 
0.0 0.0 0.0 
0.0 0.0 0.0 
0.0 0.0 0.0 
0.0 0.0 0.0 
0.0 0.0 0.0 
0.0 0.0 0.0 
0.0 0.0 0.0 
0.0 0.0 0.0 
0.0 0.0 0.0 
0.0 0.0 0.0 
0.0 0.0 0.0 
0.0 0.0 0.0 
0.0 0.0 0.0 
0.0 0.0 0.0 
0.0 0.0 0.0 
0.0 0.0 0.0 
0.0 0.0 0.0 
0.0 0.0 0.0 
0.0 0.0 0.0 
0.0 0.0 0.0 
0.0 0.0 0.0 
0.0 0.0 0.0 
0.0 0.0 0.0 
0.0 0.0 0.0 
0.0 0.0 0.0 
0.0 0.0 0.0 
0.0 0.0 0.0 
0.0 0.0 0.0 
0.0 0.0 0.0 
0.0 0.0 0.0 
0.0 0.0 0.0 
0.0 0.0 0.0 
0.0 0.0 0.0 
0.0 0.0 0.0 
0.0 0.0 0.0 
0.0 0.0 0.0 
0.0 0.0 0.0 
0.0 0.0 0.0 
0.0 0.0 0.0 
0.0 0.0 0.0 
0.0 0.0 0.0 
0.0 0.0 0.0 
0.0 0.0 0.0 
0.0 0.0 0.0 
0.0 0.0 0.0 
0.0 0.0 0.0 
0.0 0.0 0.0 
0.0 0.0 0.0 
0.0 0.0 0.0 
0.0 0.0 0.0 
0.0 0.0 0.0 
0.0 0.0 0.0 
0.0 0.0 0.0 
0.0 0.0 0.0 
0.0 0.0 0.0 
0.0 0.0 0.0 
0.0 0.0 0.0 
0.0 0.0 0.0 
0.0 0.0 0.0 
0.0 0.0 0.0 
0.0 0.0 0.0 
0.0 0.0 0.0 
0.0 0.0 0.0 
0.0 0.0 0.0 
0.0 0.0 0.0 
0.0 0.0 0.0 
0.0 0.0 0.0 
0.0 0.0 0.0 
0.0 0.0 0.0 
0.0 0.0 0.0 
0.0 0.0 0.0 
0.0 0.0 0.0 
0.0 0.0 0.0 
0.0 0.0 0.0 
0.0 0.0 0.0 
0.0 0.0 0.0 
0.0 0.0 0.0 
0.0 0.0 0.0 
0.0 0.0 0.0 
0.0 0.0 0.0 
0.0 0.0 0.0 
0.0 0.0 0.0 
0.0 0.0 0.0 
0.0 0.0 0.0 
0.0 0.0 0.0 
0.0 0.0 0.0 
0.0 0.0 0.0 
0.0 0.0 0.0 
0.0 0.0 0.0 
0.0 0.0 0.0 
0.0 0.0 0.0 
0.0 0.0 0.0 
0.0 0.0 0.0 
0.0 0.0 0.0 
0.0 0.0 0.0 
0.0 0.0 0.0 
0.0 0.0 0.0 
0.0 0.0 0.0 
0.0 0.0 0.0 
0.0 0.0 0.0 
0.0 0.0 0.0 
0.0 0.0 0.0 
0.0 0.0 0.0 
0.0 0.0 0.0 
0.0 0.0 0.0 
0.0 0.0 0.0 
0.0 0.0 0.0 
0.0 0.0 0.0 
0.0 0.0 0.0 
0.0 0.0 0.0 
0.0 0.0 0.0 
0.0 0.0 0.0 
0.0 0.0 0.0 
0.0 0.0 0.0 
0.0 0.0 0.0 
0.0 0.0 0.0 
0.0 0.0 0.0 
0.0 0.0 0.0 
0.0 0.0 0.0 
0.0 0.0 0.0 
0.0 0.0 0.0 
0.0 0.0 0.0 
0.0 0.0 0.0 
0.0 0.0 0.0 
0.0 0.0 0.0 
0.0 0.0 0.0 
0.0 0.0 0.0 
0.0 0.0 0.0 
0.0 0.0 0.0 
0.0 0.0 0.0 
0.0 0.0 0.0 
0.0 0.0 0.0 
0.0 0.0 0.0 
0.0 0.0 0.0 
0.0 0.0 0.0 
0.0 0.0 0.0 
0.0 0.0 0.0 
0.0 0.0 0.0 
0.0 0.0 0.0 
0.0 0.0 0.0 
0.0 0.0 0.0 
0.0 0.0 0.0 
0.0 0.0 0.0 
0.0 0.0 0.0 
0.0 0.0 0.0 
0.0 0.0 0.0 
0.0 0.0 0.0 
0.0 0.0 0.0 
0.0 0.0 0.0 
0.0 0.0 0.0 
0.0 0.0 0.0 
0.0 0.0 0.0 
0.0 0.0 0.0 
0.0 0.0 0.0 
0.0 0.0 0.0 
0.0 0.0 0.0 
0.0 0.0 0.0 
0.0 0.0 0.0 
0.0 0.0 0.0 
0.0 0.0 0.0 
0.0 0.0 0.0 
0.0 0.0 0.0 
0.0 0.0 0.0 
0.0 0.0 0.0 
0.0 0.0 0.0 
0.0 0.0 0.0 
0.0 0.0 0.0 
0.0 0.0 0.0 
0.0 0.0 0.0 
0.0 0.0 0.0 
0.0 0.0 0.0 
0.0 0.0 0.0 
0.0 0.0 0.0 
0.0 0.0 0.0 
0.0 0.0 0.0 
0.0 0.0 0.0 
0.0 0.0 0.0 
0.0 0.0 0.0 
0.0 0.0 0.0 
0.0 0.0 0.0 
0.0 0.0 0.0 
0.0 0.0 0.0 
0.0 0.0 0.0 
0.0 0.0 0.0 
0.0 0.0 0.0 
0.0 0.0 0.0 
0.0 0.0 0.0 
0.0 0.0 0.0 
0.0 0.0 0.0 
0.0 0.0 0.0 
0.0 0.0 0.0 
0.0 0.0 0.0 
0.0 0.0 0.0 
0.0 0.0 0.0 
0.0 0.0 0.0 
0.0 0.0 0.0 
0.0 0.0 0.0 
0.0 0.0 0.0 
0.0 0.0 0.0 
0.0 0.0 0.0 
0.0 0.0 0.0 
0.0 0.0 0.0 
0.0 0.0 0.0 
0.0 0.0 0.0 
0.0 0.0 0.0 
0.0 0.0 0.0 
0.0 0.0 0.0 
0.0 0.0 0.0 
0.0 0.0 0.0 
0.0 0.0 0.0 
0.0 0.0 0.0 
0.0 0.0 0.0 
0.0 0.0 0.0 
0.0 0.0 0.0 
0.0 0.0 0.0 
0.0 0.0 0.0 
0.0 0.0 0.0 
0.0 0.0 0.0 
0.0 0.0 0.0 
0.0 0.0 0.0 
0.0 0.0 0.0 
0.0 0.0 0.0 
0.0 0.0 0.0 
0.0 0.0 0.0 
0.0 0.0 0.0 
0.0 0.0 0.0 
0.0 0.0 0.0 
0.0 0.0 0.0 
0.0 0.0 0.0 
0.0 0.0 0.0 
0.0 0.0 0.0 
0.0 0.0 0.0 
0.0 0.0 0.0 
0.0 0.0 0.0 
0.0 0.0 0.0 
0.0 0.0 0.0 
0.0 0.0 0.0 
0.0 0.0 0.0 
0.0 0.0 0.0 
0.0 0.0 0.0 
0.0 0.0 0.0 
0.0 0.0 0.0 
0.0 0.0 0.0 
0.0 0.0 0.0 
0.0 0.0 0.0 
0.0 0.0 0.0 
0.0 0.0 0.0 
0.0 0.0 0.0 
0.0 0.0 0.0 
0.0 0.0 0.0 
0.0 0.0 0.0 
0.0 0.0 0.0 
0.0 0.0 0.0 
0.0 0.0 0.0 
0.0 0.0 0.0 
0.0 0.0 0.0 
0.0 0.0 0.0 
0.0 0.0 0.0 
0.0 0.0 0.0 
0.0 0.0 0.0 
0.0 0.0 0.0 
0.0 0.0 0.0 
0.0 0.0 0.0 
0.0 0.0 0.0 
0.0 0.0 0.0 
0.0 0.0 0.0 
0.0 0.0 0.0 
0.0 0.0 0.0 
0.0 0.0 0.0 
0.0 0.0 0.0 
0.0 0.0 0.0 
0.0 0.0 0.0 
0.0 0.0 0.0 
0.0 0.0 0.0 
0.0 0.0 0.0 
0.0 0.0 0.0 
0.0 0.0 0.0 
0.0 0.0 0.0 
0.0 0.0 0.0 
0.0 0.0 0.0 
0.0 0.0 0.0 
0.0 0.0 0.0 
0.0 0.0 0.0 
0.0 0.0 0.0 
0.0 0.0 0.0 
0.0 0.0 0.0 
0.0 0.0 0.0 
0.0 0.0 0.0 
0.0 0.0 0.0 
0.0 0.0 0.0 
0.0 0.0 0.0 
0.0 0.0 0.0 
0.0 0.0 0.0 
0.0 0.0 0.0 
0.0 0.0 0.0 
0.0 0.0 0.0 
0.0 0.0 0.0 
0.0 0.0 0.0 
0.0 0.0 0.0 
0.0 0.0 0.0 
0.0 0.0 0.0 
0.0 0.0 0.0 
0.0 0.0 0.0 
0.0 0.0 0.0 
0.0 0.0 0.0 
0.0 0.0 0.0 
0.0 0.0 0.0 
0.0 0.0 0.0 
0.0 0.0 0.0 
0.0 0.0 0.0 
0.0 0.0 0.0 
0.0 0.0 0.0 
0.0 0.0 0.0 
0.0 0.0 0.0 
0.0 0.0 0.0 
0.0 0.0 0.0 
0.0 0.0 0.0 
0.0 0.0 0.0 
0.0 0.0 0.0 
0.0 0.0 0.0 
0.0 0.0 0.0 
0.0 0.0 0.0 
0.0 0.0 0.0 
0.0 0.0 0.0 
0.0 0.0 0.0 
0.0 0.0 0.0 
0.0 0.0 0.0 
0.0 0.0 0.0 
0.0 0.0 0.0 
0.0 0.0 0.0 
0.0 0.0 0.0 
0.0 0.0 0.0 
0.0 0.0 0.0 
0.0 0.0 0.0 
0.0 0.0 0.0 
0.0 0.0 0.0 
0.0 0.0 0.0 
0.0 0.0 0.0 
0.0 0.0 0.0 
0.0 0.0 0.0 
0.0 0.0 0.0 
0.0 0.0 0.0 
0.0 0.0 0.0 
0.0 0.0 0.0 
0.0 0.0 0.0 
0.0 0.0 0.0 
0.0 0.0 0.0 
0.0 0.0 0.0 
0.0 0.0 0.0 
0.0 0.0 0.0 
0.0 0.0 0.0 
0.0 0.0 0.0 
0.0 0.0 0.0 
0.0 0.0 0.0 
0.0 0.0 0.0 
0.0 0.0 0.0 
0.0 0.0 0.0 
0.0 0.0 0.0 
0.0 0.0 0.0 
0.0 0.0 0.0 
0.0 0.0 0.0 
0.0 0.0 0.0 
0.0 0.0 0.0 
0.0 0.0 0.0 
0.0 0.0 0.0 
0.0 0.0 0.0 
0.0 0.0 0.0 
0.0 0.0 0.0 
0.0 0.0 0.0 
0.0 0.0 0.0 
0.0 0.0 0.0 
0.0 0.0 0.0 
0.0 0.0 0.0 
0.0 0.0 0.0 
0.0 0.0 0.0 
0.0 0.0 0.0 
0.0 0.0 0.0 
0.0 0.0 0.0 
0.0 0.0 0.0 
0.0 0.0 0.0 
0.0 0.0 0.0 
0.0 0.0 0.0 
0.0 0.0 0.0 
0.0 0.0 0.0 
0.0 0.0 0.0 
0.0 0.0 0.0 
0.0 0.0 0.0 
0.0 0.0 0.0 
0.0 0.0 0.0 
0.0 0.0 0.0 
0.0 0.0 0.0 
0.0 0.0 0.0 
0.0 0.0 0.0 
0.0 0.0 0.0 
0.0 0.0 0.0 
0.0 0.0 0.0 
0.0 0.0 0.0 
0.0 0.0 0.0 
0.0 0.0 0.0 
0.0 0.0 0.0 
0.0 0.0 0.0 
0.0 0.0 0.0 
0.0 0.0 0.0 
0.0 0.0 0.0 
0.0 0.0 0.0 
0.0 0.0 0.0 
0.0 0.0 0.0 
0.0 0.0 0.0 
0.0 0.0 0.0 
0.0 0.0 0.0 
0.0 0.0 0.0 
0.0 0.0 0.0 
0.0 0.0 0.0 
0.0 0.0 0.0 
0.0 0.0 0.0 
0.0 0.0 0.0 
0.0 0.0 0.0 
0.0 0.0 0.0 
0.0 0.0 0.0 
0.0 0.0 0.0 
0.0 0.0 0.0 
0.0 0.0 0.0 
0.0 0.0 0.0 
0.0 0.0 0.0 
0.0 0.0 0.0 
0.0 0.0 0.0 
0.0 0.0 0.0 
0.0 0.0 0.0 
0.0 0.0 0.0 
0.0 0.0 0.0 
0.0 0.0 0.0 
0.0 0.0 0.0 
0.0 0.0 0.0 
0.0 0.0 0.0 
0.0 0.0 0.0 
0.0 0.0 0.0 
0.0 0.0 0.0 
0.0 0.0 0.0 
0.0 0.0 0.0 
0.0 0.0 0.0 
0.0 0.0 0.0 
0.0 0.0 0.0 
0.0 0.0 0.0 
0.0 0.0 0.0 
0.0 0.0 0.0 
0.0 0.0 0.0 
0.0 0.0 0.0 
0.0 0.0 0.0 
0.0 0.0 0.0 
0.0 0.0 0.0 
0.0 0.0 0.0 
0.0 0.0 0.0 
0.0 0.0 0.0 
0.0 0.0 0.0 
0.0 0.0 0.0 
0.0 0.0 0.0 
0.0 0.0 0.0 
0.0 0.0 0.0 
0.0 0.0 0.0 
0.0 0.0 0.0 
0.0 0.0 0.0 
0.0 0.0 0.0 
0.0 0.0 0.0 
0.0 0.0 0.0 
0.0 0.0 0.0 
0.0 0.0 0.0 
0.0 0.0 0.0 
0.0 0.0 0.0 
0.0 0.0 0.0 
0.0 0.0 0.0 
0.0 0.0 0.0 
0.0 0.0 0.0 
0.0 0.0 0.0 
0.0 0.0 0.0 

VECTORS node_materi_velocity float
0.0 1.892045256369e-02 0.0 
0.0 5.661217018083e-03 0.0 
0.0 0.0 0.0 
0.0 0.0 0.0 
0.0 2.052775897048e-02 0.0 
0.0 2.156634845549e-02 0.0 
0.0 2.229734427206e-02 0.0 
0.0 2.261219468713e-02 0.0 
0.0 2.232816567968e-02 0.0 
0.0 2.148524792605e-02 0.0 
0.0 2.010941475486e-02 0.0 
0.0 1.823985146765e-02 0.0 
0.0 1.598069164229e-02 0.0 
0.0 1.343944658468e-02 0.0 
0.0 1.074323263490e-02 0.0 
0.0 8.053809485726e-03 0.0 
0.0 5.496120115037e-03 0.0 
0.0 3.144330710684e-03 0.0 
0.0 1.165598476252e-03 0.0 
0.0 -3.426023618216e-04 0.0 
0.0 -1.300906863641e-03 0.0 
0.0 -1.598104849586e-03 0.0 
0.0 -1.137546591991e-03 0.0 
0.0 0.0 0.0 
0.0 0.0 0.0 
0.0 0.0 0.0 
0.0 0.0 0.0 
0.0 0.0 0.0 
0.0 0.0 0.0 
0.0 0.0 0.0 
0.0 0.0 0.0 
0.0 0.0 0.0 
0.0 0.0 0.0 
0.0 0.0 0.0 
0.0 0.0 0.0 
0.0 0.0 0.0 
0.0 0.0 0.0 
0.0 0.0 0.0 
0.0 0.0 0.0 
0.0 0.0 0.0 
0.0 0.0 0.0 
0.0 0.0 0.0 
0.0 0.0 0.0 
0.0 0.0 0.0 
0.0 0.0 0.0 
0.0 0.0 0.0 
0.0 0.0 0.0 
0.0 0.0 0.0 
0.0 0.0 0.0 
0.0 0.0 0.0 
0.0 0.0 0.0 
0.0 0.0 0.0 
0.0 0.0 0.0 
0.0 0.0 0.0 
0.0 0.0 0.0 
0.0 0.0 0.0 
0.0 0.0 0.0 
0.0 0.0 0.0 
0.0 0.0 0.0 
0.0 0.0 0.0 
0.0 0.0 0.0 
0.0 0.0 0.0 
0.0 0.0 0.0 
0.0 0.0 0.0 
0.0 0.0 0.0 
0.0 0.0 0.0 
0.0 0.0 0.0 
0.0 0.0 0.0 
0.0 0.0 0.0 
0.0 0.0 0.0 
0.0 0.0 0.0 
0.0 0.0 0.0 
0.0 4.318141870648e-03 0.0 
0.0 3.039542466580e-03 0.0 
0.0 1.876657488792e-03 0.0 
0.0 8.551690382575e-04 0.0 
0.0 2.927567549181e-05 0.0 
0.0 -5.721089732557e-04 0.0 
0.0 -9.069009023247e-04 0.0 
0.0 -9.406219245408e-04 0.0 
0.0 -6.359853788591e-04 0.0 
2.644794523452e-01 -4.560666605342e-01 0.0 
6.079459617680e-02 1.202673205915e-02 0.0 
3.130220720120e-01 -2.561308301652e-01 0.0 
3.185115905793e-01 -1.703044487351e-01 0.0 
2.909210050868e-01 -7.674326380524e-02 0.0 
2.683910761265e-01 -3.272080113433e-02 0.0 
2.408116874428e-01 -2.617146659555e-02 0.0 
2.031053700015e-01 -1.651622970552e-02 0.0 
1.714203517640e-01 -6.161811401138e-03 0.0 
1.418774314688e-01 6.231288049859e-03 0.0 
1.056788375806e-01 1.959509873170e-02 0.0 
3.198042594534e-03 5.701197996175e-03 0.0 
6.414812913723e-03 5.796676174048e-03 0.0 
9.673858544671e-03 5.968048584633e-03 0.0 
1.299717893824e-02 6.233499439743e-03 0.0 
1.640957800981e-02 6.550827906682e-03 0.0 
1.988382174579e-02 6.914404405771e-03 0.0 
2.347399300723e-02 7.363624214477e-03 0.0 
2.718643079068e-02 7.811513051681e-03 0.0 
3.101331298459e-02 8.317753300117e-03 0.0 
3.499254487012e-02 8.824498264442e-03 0.0 
3.912328635604e-02 9.258093425102e-03 0.0 
4.352546620131e-02 9.644177485490e-03 0.0 
4.834049198400e-02 1.011381551295e-02 0.0 
5.400704725740e-02 1.311865245740e-02 0.0 
2.553686348314e-01 -5.080771257993e-01 0.0 
2.437656781755e-01 -4.663284538559e-01 0.0 
2.301297823327e-01 -4.199627984582e-01 0.0 
2.112453721621e-01 -3.616572529460e-01 0.0 
1.886815604682e-01 -3.024933566830e-01 0.0 
1.683419642014e-01 -1.663834409310e-01 0.0 
1.486122039541e-01 -1.065582863552e-01 0.0 
1.147951967049e-01 -7.141704481684e-02 0.0 
9.223883154031e-02 -5.757393827483e-02 0.0 
6.399059450230e-02 -3.143839913160e-02 0.0 
5.878593668426e-02 -2.050232543804e-02 0.0 
4.520152533403e-02 -1.051523895435e-02 0.0 
3.631485273836e-02 -1.484029317218e-03 0.0 
2.529788299013e-02 3.246918326631e-03 0.0 
2.014240579362e-02 1.002215950758e-02 0.0 
1.489234428221e-02 1.319822466718e-02 0.0 
1.125042960600e-02 1.561780305097e-02 0.0 
7.620834527064e-03 1.741818516203e-02 0.0 
3.969959130974e-03 1.866049832246e-02 0.0 
3.021600820629e-01 -3.221058317876e-01 0.0 
3.117562056321e-01 -1.687123707278e-01 0.0 
3.153341627067e-01 -1.935369052828e-01 0.0 
2.766044036955e-01 -3.898592230909e-02 0.0 
2.593208956496e-01 -2.898412620358e-02 0.0 
2.244125105852e-01 -1.989740579540e-02 0.0 
1.864557394516e-01 -1.146450735173e-02 0.0 
1.569686420357e-01 -1.607642530512e-03 0.0 
1.245510009095e-01 1.408433941173e-02 0.0 
8.379151355731e-02 1.837350089115e-02 0.0 
3.159574408093e-01 -1.719930732225e-01 0.0 
-5.683667596311e-03 2.964658080227e-03 0.0 
5.679227608075e-02 -3.503944180891e-02 0.0 
1.536706687499e-01 -3.255564654992e-01 0.0 
-4.418342676343e-03 -2.010560433176e-03 0.0 
2.614963249627e-01 -4.137935052856e-02 0.0 
-4.148261006407e-03 1.184988607315e-02 0.0 
-1.775115301250e-03 3.221893919804e-03 0.0 
1.910102860722e-01 -2.546347864119e-02 0.0 
-2.338352194684e-03 2.669990133968e-03 0.0 
1.328385734644e-01 -6.469509623958e-03 0.0 
-5.611750103694e-03 -2.470104443815e-03 0.0 
2.631877441762e-02 5.127115932514e-03 0.0 
8.362601063761e-03 6.952980114209e-04 0.0 
6.391665929303e-02 7.053104352425e-03 0.0 
-1.727382224288e-03 2.062193977255e-02 0.0 
-4.545391064564e-03 4.555205077505e-03 0.0 
1.655790378535e-02 -3.980807398263e-03 0.0 
1.005812871429e-02 -1.700314837015e-03 0.0 
2.599939789901e-03 -6.321585339760e-04 0.0 
4.876325456662e-03 -8.430268349224e-04 0.0 
6.716736609051e-03 -1.029994250351e-03 0.0 
4.864397457277e-02 8.833670401099e-03 0.0 
3.246194597555e-02 7.044406337244e-03 0.0 
2.120677582222e-02 5.717141988524e-03 0.0 
1.886719257998e-03 4.047989596818e-04 0.0 
-4.206750434593e-03 -1.722449775880e-03 0.0 
2.279289679423e-01 -4.803088496821e-01 0.0 
1.118679339272e-02 1.577939743835e-02 0.0 
-3.138815497038e-03 -9.415045430117e-04 0.0 
1.087384736107e-02 4.863821854094e-03 0.0 
9.435144013662e-04 2.230232258344e-02 0.0 
1.464608845708e-02 -2.782900741884e-03 0.0 
-1.052551883646e-03 3.815879286773e-03 0.0 
1.571370648942e-04 5.077634296422e-03 0.0 
-3.667626564733e-03 2.983759304637e-03 0.0 
-4.667990513047e-03 3.367323540906e-03 0.0 
1.087543233264e-01 -1.284023326788e-01 0.0 
4.063815431948e-02 7.916156343243e-03 0.0 
-6.899133998500e-03 -3.630384556369e-03 0.0 
1.380378580772e-03 -7.671003441022e-04 0.0 
4.252238991584e-02 -1.087894759220e-02 0.0 
-3.237499110304e-03 1.694172810072e-02 0.0 
1.309608748084e-03 -5.065203870255e-04 0.0 
2.286949963627e-01 -3.396253210589e-02 0.0 
2.926491879820e-01 -2.026256512780e-01 0.0 
1.617620797656e-01 -1.578941937583e-02 0.0 
9.868451479643e-02 6.852390813021e-03 0.0 
3.217920468887e-01 -3.290107433973e-01 0.0 
2.381306926268e-03 2.315650986130e-03 0.0 
-1.995729155713e-03 -1.032347112326e-03 0.0 
4.871853722309e-03 1.931184874761e-02 0.0 
7.323410027336e-04 -8.931397538683e-04 0.0 
5.978075380959e-02 7.814203876805e-03 0.0 
6.439164587250e-02 4.673381464095e-03 0.0 
5.824108456665e-02 5.280534296988e-03 0.0 
6.423350319294e-02 1.645865243752e-03 0.0 
5.804492126196e-02 1.992152124798e-03 0.0 
6.222152223364e-02 -8.883011403879e-04 0.0 
6.921597040602e-02 -2.277283834762e-03 0.0 
6.584339123622e-02 -4.049210761722e-03 0.0 
7.313908331337e-02 -6.400854835208e-03 0.0 
5.536749400731e-02 -2.891043446025e-04 0.0 
6.871779809212e-02 -7.155278071054e-03 0.0 
7.621888137451e-02 -9.840358454786e-03 0.0 
7.104392912354e-02 -9.904718312641e-03 0.0 
7.877099754990e-02 -1.286437428906e-02 0.0 
8.364597844026e-02 -1.296420495589e-02 0.0 
8.645993323792e-02 -1.629186464014e-02 0.0 
9.125504456992e-02 -1.626304097477e-02 0.0 
9.428925112383e-02 -2.001208448827e-02 0.0 
8.912772143823e-02 -2.003998185843e-02 0.0 
9.725325490529e-02 -2.427666716055e-02 0.0 
1.025184389211e-01 -2.366423399358e-02 0.0 
1.058240079788e-01 -2.809154959551e-02 0.0 
1.111523490119e-01 -2.686325489118e-02 0.0 
1.146388971987e-01 -3.094552232284e-02 0.0 
1.202395532013e-01 -2.927732361868e-02 0.0 
1.235445642687e-01 -3.263777483122e-02 0.0 
1.185725463260e-01 -3.614291076408e-02 0.0 
1.265529438623e-01 -3.832501887858e-02 0.0 
1.312781751419e-01 -3.424216982662e-02 0.0 
1.334700737273e-01 -4.311434178704e-02 0.0 
1.371692072377e-01 -4.191844872977e-02 0.0 
1.257653623667e-01 -8.179107030646e-02 0.0 
1.219703036618e-01 -6.894686598737e-02 0.0 
1.119494814562e-01 -1.005569729409e-01 0.0 
1.167381462611e-01 -1.144191991190e-01 0.0 
1.099063137502e-01 -1.127456937181e-01 0.0 
1.197032418933e-01 -1.202670384443e-01 0.0 
1.134460600422e-01 -1.150615915077e-01 0.0 
1.245858017959e-01 -1.244399213610e-01 0.0 
1.113076039132e-01 -1.250051422346e-01 0.0 
9.685197899645e-02 -1.057251350394e-01 0.0 
8.651969286390e-02 -1.161012145350e-01 0.0 
9.940146786568e-02 -1.445537455137e-01 0.0 
6.781388565236e-02 -1.313614225434e-01 0.0 
4.837666478241e-02 -9.329443327673e-02 0.0 
2.719418236164e-02 -1.048418638329e-01 0.0 
1.222557639594e-02 -6.963731405206e-02 0.0 
-6.648676932603e-03 -8.075059008463e-02 0.0 
4.325305544369e-03 -1.135572666275e-01 0.0 
-2.480270513713e-02 -8.845098186952e-02 0.0 
-2.637471087049e-02 -6.753401831884e-02 0.0 
-4.025171804545e-02 -7.457629643542e-02 0.0 
-3.869935387773e-02 -9.040605807835e-02 0.0 
-4.924892929966e-02 -7.555477713136e-02 0.0 
-4.953024030159e-02 -6.466350457500e-02 0.0 
-5.596677130755e-02 -6.310940801955e-02 0.0 
-5.376284880167e-02 -7.137022704306e-02 0.0 
-5.895568113039e-02 -5.620655051019e-02 0.0 
-6.129148546235e-02 -4.977440836610e-02 0.0 
-5.742356396886e-02 -4.215488071583e-02 0.0 
-5.405650521792e-02 -4.672909305697e-02 0.0 
-5.232769416077e-02 -3.404597289323e-02 0.0 
-5.520923041355e-02 -3.086976097752e-02 0.0 
-4.993591405322e-02 -2.400697862674e-02 0.0 
-5.219353601948e-02 -2.214345012360e-02 0.0 
-4.603511482520e-02 -2.560246132370e-02 0.0 
-4.381640734236e-02 -1.689869639779e-02 0.0 
-3.903549661856e-02 -1.730635478545e-02 0.0 
-3.720643810178e-02 -9.896036007869e-03 0.0 
1.057797497019e-01 -8.421444754233e-02 0.0 
-3.189984900734e-02 -9.533093746500e-03 0.0 
-3.275599839522e-02 -1.771429504416e-02 0.0 
-3.046967757951e-02 -3.294829489605e-03 0.0 
-3.471191170050e-02 -4.255672683118e-03 0.0 
-2.480519285688e-02 -2.387165999297e-03 0.0 
-2.386432351574e-02 2.718940185107e-03 0.0 
-1.803780070399e-02 3.907997548358e-03 0.0 
1.267774207953e-01 -1.224190720844e-01 0.0 
9.207724386193e-02 -2.480257045215e-02 0.0 
-1.765618085807e-02 7.967730926695e-03 0.0 
-1.194650060109e-02 9.185567549082e-03 0.0 
-1.095072179236e-02 4.841623671156e-03 0.0 
-5.259409020504e-03 9.984549205763e-03 0.0 
5.174253858186e-02 1.910905502075e-03 0.0 
4.860162174808e-02 -1.205841552917e-04 0.0 
4.566088542985e-02 1.590978581539e-03 0.0 
4.195455394383e-02 -2.044695944326e-04 0.0 
3.963832970824e-02 1.127047844626e-03 0.0 
-6.807547556926e-03 1.339160109093e-02 0.0 
6.308206386785e-02 -7.620167011388e-03 0.0 
4.393178818783e-02 -1.708716051384e-03 0.0 
1.079592292086e-01 -2.296840603502e-02 0.0 
1.390445388229e-01 -3.102694690067e-02 0.0 
2.763420002224e-02 -5.937891085357e-02 0.0 
-2.227512722801e-02 6.456052759441e-03 0.0 
-1.657333410597e-02 1.087284717099e-02 0.0 
-2.008728540148e-02 9.082651665933e-03 0.0 
-5.663464645574e-02 -2.741172950547e-02 0.0 
-5.286392855668e-02 -2.017903240212e-02 0.0 
-5.654476338762e-02 -2.383920616765e-02 0.0 
-5.174066673787e-02 -1.832233420207e-02 0.0 
-5.450592912786e-02 -2.047687022489e-02 0.0 
-4.833156956799e-02 -1.675987110596e-02 0.0 
-4.594734494027e-02 -1.430861510163e-02 0.0 
-4.169952156138e-02 -1.371422025797e-02 0.0 
-3.981128514065e-02 -1.110227648923e-02 0.0 
-4.954787310651e-02 -1.771696344917e-02 0.0 
-5.610416993593e-02 -2.051659634839e-02 0.0 
-3.528306129018e-02 -1.095285754223e-02 0.0 
-3.377422571002e-02 -8.421437504516e-03 0.0 
-2.933574542066e-02 -8.482920811347e-03 0.0 
-2.804812553335e-02 -6.209952326676e-03 0.0 
-3.125445837996e-02 -5.466922991622e-03 0.0 
-2.576825365616e-02 -3.607711995393e-03 0.0 
-2.794955244162e-02 -2.290542091336e-03 0.0 
4.376991632712e-03 -4.515053611925e-02 0.0 
1.419752617399e-02 -3.718537544165e-02 0.0 
6.655487153847e-04 -2.886253958426e-02 0.0 
6.201673975141e-03 -2.389863353289e-02 0.0 
-2.915247800858e-03 -1.699882498378e-02 0.0 
-6.543382041211e-04 -1.441967351087e-02 0.0 
-5.932880772764e-03 -8.857048251459e-03 0.0 
-9.872093651411e-03 -1.286644287003e-02 0.0 
7.317111178236e-02 -1.259063234449e-02 0.0 
8.026538723745e-02 -1.664945016948e-01 0.0 
1.065887746437e-01 -1.710131939832e-01 0.0 
8.837835613701e-02 -1.982568009631e-01 0.0 
1.100228609841e-01 -1.949342679997e-01 0.0 
9.389915116881e-02 -2.266289124429e-01 0.0 
1.152809763540e-01 -2.185655424745e-01 0.0 
1.006593159858e-01 -2.545448726841e-01 0.0 
7.630416831624e-02 -2.506897086679e-01 0.0 
8.496154218349e-02 -2.816342993279e-01 0.0 
5.914107375518e-02 -2.620857398504e-01 0.0 
7.233870487840e-02 -2.935295940585e-01 0.0 
4.540205223395e-02 -2.567621085360e-01 0.0 
1.189046361544e-01 -4.037459816457e-02 0.0 
7.597883258152e-03 -2.296225702632e-02 0.0 
-7.400620597457e-04 -1.371826123374e-02 0.0 
8.516970970225e-03 -2.172492569884e-02 0.0 
-2.710896100983e-03 5.374019180870e-03 0.0 
-2.269675389101e-02 -4.472617796141e-03 0.0 
-4.906412364303e-02 -1.601600731630e-02 0.0 
-5.568100878310e-02 -1.661321450481e-02 0.0 
-1.077344136418e-02 -4.461340251658e-03 0.0 
-8.502058831869e-04 1.387367832846e-02 0.0 
1.268341359783e-01 -2.439372115493e-01 0.0 
1.371545766164e-01 -2.042083579564e-01 0.0 
3.555542827696e-02 -4.384604820014e-04 0.0 
3.383462953581e-02 5.707366960268e-04 0.0 
-4.589465115037e-02 -9.071830459585e-03 0.0 
-2.808399313763e-03 1.658193494074e-02 0.0 
-3.550554315296e-02 -1.279497545093e-02 0.0 
9.835080800582e-02 -3.137289666489e-01 0.0 
-2.055566846158e-02 -2.257568832453e-03 0.0 
-1.773584208000e-02 -3.200777309469e-03 0.0 
-4.266283162692e-02 -1.096629805470e-02 0.0 
2.455482027721e-04 -1.016519158485e-02 0.0 
1.209747726940e-02 -1.618208546621e-02 0.0 
2.853121148248e-02 -2.223979801474e-01 0.0 
1.445550354382e-02 -2.010153853383e-01 0.0 
3.725993849977e-02 -2.319753341410e-01 0.0 
7.214661292675e-03 -1.615478770889e-01 0.0 
-1.467992715449e-02 -1.396797686270e-01 0.0 
-1.494234664921e-02 -1.066128890236e-01 0.0 
2.769982197241e-03 -1.234108531481e-01 0.0 
-1.564784166091e-02 -8.179847660269e-02 0.0 
-2.799987934705e-02 -7.275918048454e-02 0.0 
-2.034826518905e-02 -6.045783839164e-02 0.0 
-6.157991863896e-03 -6.472908324556e-02 0.0 
-1.024635566056e-02 -4.470683038207e-02 0.0 
-1.891448202805e-02 -4.774582665387e-03 0.0 
9.002908317154e-02 -3.228501736226e-01 0.0 
8.774870593825e-02 -1.268301772036e-02 0.0 
-3.785030016501e-02 -1.254366088659e-02 0.0 
-8.625978316322e-03 -2.770939318669e-03 0.0 
2.948789084602e-02 -7.305325347797e-04 0.0 
2.831791011105e-02 2.677938691772e-05 0.0 
3.185948738556e-02 1.417422559050e-03 0.0 
2.684432839197e-02 6.841438700873e-04 0.0 
2.315153220367e-02 -4.352750012034e-04 0.0 
2.214019524405e-02 6.854357671769e-05 0.0 
2.515301552865e-02 1.238075736372e-03 0.0 
2.084899976045e-02 5.144744248811e-04 0.0 
2.328961060752e-02 1.711901717031e-03 0.0 
1.932706278237e-02 9.129988592422e-04 0.0 
1.685760277019e-02 -7.942953104341e-05 0.0 
1.564634651861e-02 2.541661066550e-04 0.0 
1.761075805153e-02 1.283835415202e-03 0.0 
1.419581564341e-02 5.794627734794e-04 0.0 
1.572234499064e-02 1.641774933285e-03 0.0 
1.253058783961e-02 9.118377158327e-04 0.0 
1.107184823697e-02 1.147778123282e-05 0.0 
1.996329061746e-03 1.662252405398e-02 0.0 
-1.670460659810e-02 -9.484460132946e-03 0.0 
-1.701400633145e-02 5.954988087158e-04 0.0 
-1.496716741309e-02 1.274883903254e-02 0.0 
-1.750740462352e-02 1.069768720735e-02 0.0 
-2.262683124245e-02 7.055508424144e-03 0.0 
-1.906041807344e-02 8.558369363968e-03 0.0 
9.568614537536e-03 3.097782746818e-04 0.0 
8.275054009348e-03 -4.203151264971e-04 0.0 
1.590193579830e-01 -2.302883917273e-01 0.0 
1.654041778864e-01 -1.818258958066e-01 0.0 
3.024954706262e-02 -1.562767288380e-03 0.0 
-1.565349056973e-02 -1.366517150973e-03 0.0 
-1.765971290661e-02 9.885012361141e-05 0.0 
1.432766977685e-01 -4.333973094638e-02 0.0 
1.448867699924e-01 -2.717100017978e-02 0.0 
1.479405635280e-01 -4.491086155168e-02 0.0 
1.553081109138e-01 -2.623237321906e-02 0.0 
1.439964148649e-01 -2.764061698038e-02 0.0 
1.590526751123e-01 -4.949919135816e-02 0.0 
-6.007721215170e-02 -2.643919144390e-02 0.0 
1.322531102335e-02 -5.238050714710e-04 0.0 
-9.051048962629e-03 -9.529050450603e-04 0.0 
1.008774647320e-03 -6.578943972994e-04 0.0 
-1.318286884764e-02 -2.329557013599e-03 0.0 
-1.860376740694e-02 -2.090708613346e-02 0.0 
1.112777738189e-01 -3.872565631453e-02 0.0 
1.088255954036e-01 -4.061166564824e-02 0.0 
1.019067532189e-01 -3.910820373328e-02 0.0 
8.956047732587e-02 -3.408169176921e-02 0.0 
8.303700326733e-02 -3.341019054908e-02 0.0 
5.165728446186e-02 -1.458314239564e-02 0.0 
5.709489757364e-02 -1.437101960606e-02 0.0 
2.941151489434e-03 -2.925443811410e-03 0.0 
2.682619010663e-02 6.441635390056e-06 0.0 
1.084414423310e-02 1.280175804074e-03 0.0 
1.941412978265e-02 -3.438322268435e-02 0.0 
-3.056792990764e-02 -5.675061217859e-02 0.0 
5.193231638555e-03 1.357911900665e-02 0.0 
8.705140230909e-03 -4.554128470355e-02 0.0 
-7.059548693311e-05 1.880912803080e-02 0.0 
-3.833423150443e-03 1.845207665969e-02 0.0 
-3.200220478892e-02 -5.122541704921e-03 0.0 
4.526460960557e-02 -1.536365714516e-02 0.0 
7.605126376900e-02 -3.202074311521e-02 0.0 
1.547524952526e-01 -2.733984649471e-02 0.0 
1.430899833808e-01 -2.674317259593e-02 0.0 
-3.489418360086e-03 -1.455540505364e-03 0.0 
4.250051368296e-02 3.062730280862e-03 0.0 
2.748105003419e-02 2.634235361814e-03 0.0 
2.514872457051e-02 3.096263461712e-03 0.0 
4.183879471587e-03 1.821174638217e-02 0.0 
1.735835933378e-02 -6.778166381500e-02 0.0 
1.840902879659e-02 -7.831033321844e-04 0.0 
1.472191556225e-01 -1.598753316619e-01 0.0 
1.704387253783e-01 -1.301943966022e-01 0.0 
1.248707755788e-01 -3.526925839065e-01 0.0 
1.168204195177e-01 -3.584656184327e-01 0.0 
7.030622160293e-03 -1.756307901675e-04 0.0 
5.884350405331e-03 -7.348897153788e-04 0.0 
-2.411374956412e-02 4.955207560851e-03 0.0 
-1.987124875211e-02 6.255715076568e-03 0.0 
-3.825908961513e-02 8.135035839440e-04 0.0 
1.435339379759e-03 -2.965560913068e-02 0.0 
6.685592620617e-03 -8.758660893368e-04 0.0 
-2.715383961246e-02 -1.805618232896e-02 0.0 
-3.109969329933e-02 -3.126573795703e-02 0.0 
-1.414784664141e-02 1.181626094458e-02 0.0 
1.981356384226e-01 -2.074050767335e-01 0.0 
1.998787583224e-01 -2.603878747146e-01 0.0 
-3.928525100449e-02 -7.048110269908e-02 0.0 
-1.324000533122e-02 -2.963957189610e-02 0.0 
-1.298812472232e-03 2.033953307786e-02 0.0 
-2.452219265915e-02 2.819929664355e-03 0.0 
1.863090142784e-02 -1.164578347046e-03 0.0 
3.190360681584e-02 -1.487884853720e-03 0.0 
6.049252542780e-02 -1.780601394061e-02 0.0 
1.583685578214e-02 4.394373981451e-03 0.0 
1.980236793059e-02 -3.008367308547e-02 0.0 
-2.481874890390e-02 -9.468146741153e-03 0.0 
-1.110926627360e-02 -8.774045075049e-04 0.0 
4.025649505104e-02 -1.488672892440e-02 0.0 
7.083096894091e-02 -2.676122677784e-02 0.0 
1.500862491366e-01 -1.258184872852e-01 0.0 
1.542463807398e-01 -1.441973171998e-01 0.0 
1.808256421094e-01 -1.486224737853e-01 0.0 
1.619620543728e-01 -1.692312258431e-01 0.0 
7.625018346389e-02 -5.123255199697e-03 0.0 
1.371418347681e-01 -1.377699124209e-01 0.0 
9.582454572946e-02 -1.571423423439e-02 0.0 
9.151475658429e-02 -1.183432748940e-02 0.0 
1.007177723791e-01 -1.439207437816e-02 0.0 
1.338078172119e-01 -2.699018152508e-02 0.0 
1.319837378520e-01 -2.463786461996e-02 0.0 
1.235403037298e-01 -1.614132024488e-01 0.0 
3.682359646380e-02 -5.381226587341e-02 0.0 
-2.807401985285e-02 2.899147496971e-03 0.0 
-3.331160597592e-02 -4.347058938982e-03 0.0 
-5.999889842287e-02 -3.180368010737e-02 0.0 
1.385110076730e-02 -7.843150783987e-04 0.0 
1.034998524608e-02 -9.826036558448e-04 0.0 
1.914142833618e-02 2.502124330898e-03 0.0 
1.688360929139e-02 2.872788506781e-03 0.0 
6.341605103591e-03 5.282880260178e-03 0.0 
1.202808212192e-02 -1.207104484075e-03 0.0 
-4.833894232088e-02 -1.559786892280e-02 0.0 
-3.058772540066e-02 -1.271539457994e-02 0.0 
2.404924562303e-02 -1.580219442122e-03 0.0 
2.371975229752e-02 -2.139371046354e-03 0.0 
3.048470807795e-02 -2.431063596349e-03 0.0 
-2.856928578342e-02 8.278608519904e-03 0.0 
5.786174028629e-02 -1.837446478130e-01 0.0 
-1.007152662801e-02 -3.844137840571e-02 0.0 
8.632167022018e-02 -3.175836849957e-01 0.0 
1.150635719015e-01 -5.763006120489e-02 0.0 
1.557214636023e-02 4.288195038860e-03 0.0 
8.344506129290e-02 -1.992081203465e-02 0.0 
-9.085368456151e-03 -1.827532476950e-03 0.0 
-1.034310725022e-02 -2.720014539405e-03 0.0 
-2.040672786688e-03 4.149700812914e-03 0.0 
6.909675965343e-02 5.093111276272e-03 0.0 
8.918420049712e-02 -6.133879879976e-02 0.0 
7.946470847693e-02 -7.758719085195e-02 0.0 
9.598943990600e-02 -1.023934152103e-02 0.0 
1.058739735201e-01 -1.215620397383e-02 0.0 
1.103535238781e-01 -1.796524690247e-02 0.0 
1.174527048987e-01 -1.659008889493e-02 0.0 
-4.039307573979e-02 -5.370892631445e-02 0.0 
-3.237453518726e-02 -4.114696090059e-02 0.0 
1.386556841316e-02 -2.074386488204e-03 0.0 
1.121436804004e-02 5.062600022684e-03 0.0 
3.585457703030e-02 -8.205863478716e-03 0.0 
6.593566596461e-02 -2.167204561205e-02 0.0 
-3.964623946782e-03 5.138219331874e-03 0.0 
-7.339541087633e-03 -1.514404308766e-03 0.0 
-3.977927447272e-03 1.966393407412e-02 0.0 
1.421288471675e-01 -2.459931678590e-02 0.0 
1.395919017482e-02 -1.230848319983e-03 0.0 
8.626170821696e-02 -7.361842795656e-03 0.0 
-2.007179609660e-02 -9.414852375688e-03 0.0 
-2.479770974269e-02 -1.098681905786e-02 0.0 
1.143217237708e-01 -3.514320067070e-01 0.0 
8.166043776268e-02 -2.918624301610e-01 0.0 
4.524509326768e-03 -9.996188908640e-04 0.0 
1.967443432620e-01 -1.851071343071e-01 0.0 
1.926039675082e-01 -6.369834857972e-02 0.0 
2.198508559641e-01 -1.555461290603e-01 0.0 
-1.408750297573e-03 -1.574335469882e-03 0.0 
4.697995926856e-03 4.584545469003e-03 0.0 
-6.783198931334e-03 -2.189290217254e-03 0.0 
1.236559222504e-01 -2.499176083739e-02 0.0 
4.831039189053e-03 -1.011607004174e-03 0.0 
4.921634270504e-02 -4.570143589048e-02 0.0 
1.271920726132e-01 -1.121153097372e-01 0.0 
-3.304823703747e-02 -5.469446820873e-04 0.0 
3.729990981548e-03 -9.133230605409e-04 0.0 
2.696836024608e-03 -9.897194102182e-04 0.0 
2.909894801700e-02 4.144225296160e-03 0.0 
2.648842960488e-02 4.589834297051e-03 0.0 
3.184435198975e-02 3.677004161811e-03 0.0 
1.380875600099e-01 -3.238768571380e-01 0.0 
1.932851324867e-01 -3.786644452097e-01 0.0 
9.992218136536e-03 -8.287726739082e-04 0.0 
-1.152257012549e-02 1.454119956769e-02 0.0 
-1.034699886647e-02 1.589930372571e-02 0.0 
-3.054685610870e-03 -1.792097178999e-02 0.0 
-1.542691620883e-02 -1.789672917635e-02 0.0 
-2.919938785080e-02 1.044499102895e-03 0.0 
-3.356113167028e-02 -1.589884414948e-03 0.0 
8.609755359333e-02 -2.542558405141e-02 0.0 
7.706036659462e-02 -1.945074951319e-02 0.0 
1.041317976749e-01 -3.604979667161e-02 0.0 
-4.013596715885e-02 -2.713512110011e-02 0.0 
-4.462200170450e-02 -4.042620212728e-02 0.0 
-3.527975130672e-02 -4.531909070790e-02 0.0 
1.045063862849e-02 -1.124447973779e-03 0.0 
6.875719264551e-03 -1.059857084228e-03 0.0 
-4.879787903587e-02 -6.824201307824e-02 0.0 
-4.646146044013e-02 -8.608291584062e-02 0.0 
-4.087628961375e-02 -3.903498815565e-02 0.0 
1.340001562278e-02 -1.409621405436e-03 0.0 
-7.350322207897e-03 -2.526737794615e-03 0.0 
-1.077702411654e-02 -3.364655697142e-03 0.0 
2.289981546831e-02 -2.688940463949e-03 0.0 
1.933772579397e-02 -9.770055210064e-03 0.0 
2.448399962945e-01 -2.309474382770e-01 0.0 
2.512775655971e-01 -2.881632386507e-01 0.0 
2.306114414566e-02 -2.668776901141e-03 0.0 
3.015733369502e-02 -3.225890015507e-03 0.0 
1.603329846149e-02 -2.070186032358e-03 0.0 
-1.540720021755e-03 2.128667196072e-02 0.0 
3.291188127627e-02 -8.725785984984e-03 0.0 
-1.712242476720e-02 9.309869239220e-03 0.0 
-1.805519273945e-02 1.211594331394e-02 0.0 
-1.029967784865e-02 1.965282660359e-03 0.0 
4.755766415213e-03 5.767241453746e-03 0.0 
-6.059896453452e-04 9.440978714883e-03 0.0 
-8.669464026050e-04 1.118986691089e-02 0.0 
1.544272625713e-01 -4.018698188594e-01 0.0 
2.043890437721e-03 -1.007277503334e-03 0.0 
2.026948067788e-02 3.859871666689e-03 0.0 
1.524701284185e-01 -3.882809908053e-01 0.0 
1.768063299558e-02 4.274147235922e-03 0.0 
1.458626075284e-02 3.275684320300e-03 0.0 
1.544244179960e-02 4.723219406875e-03 0.0 
1.607790167298e-04 2.157952224243e-02 0.0 
3.355551183814e-02 5.613643285016e-03 0.0 
3.663056425557e-02 4.908309062834e-03 0.0 
3.491523075630e-02 -1.285226231088e-02 0.0 
8.921735438111e-03 -1.209979113777e-03 0.0 
2.399691157964e-02 2.029884397545e-03 0.0 
1.693698878561e-02 8.108752408278e-03 0.0 
-1.576062628197e-02 -7.681933049039e-03 0.0 
-1.988195131145e-02 -8.754745916321e-03 0.0 
-1.217021184803e-02 -5.744928425902e-03 0.0 
-1.600097638109e-02 -6.714204407896e-03 0.0 
-2.271887039901e-02 -8.783154748545e-03 0.0 
-1.801870774227e-02 -6.600621678384e-03 0.0 
2.406676632223e-02 5.107396489953e-03 0.0 
-1.124141543381e-02 -4.548663762623e-03 0.0 
-1.369325927087e-02 -4.850431174760e-03 0.0 
-7.786022401702e-03 -3.011863978397e-03 0.0 
1.181716237817e-01 -1.145144534359e-02 0.0 
1.729715372838e-01 -5.862070563868e-02 0.0 
1.844875005185e-01 -2.662309986837e-02 0.0 
2.187230065030e-01 -3.182285250505e-02 0.0 
2.229702537103e-02 -3.464248253804e-03 0.0 
5.672357569811e-02 -1.750953279291e-02 0.0 
-6.948089872955e-03 -7.398872902852e-04 0.0 
-7.984801269164e-03 6.983497784632e-04 0.0 
1.218886176795e-02 3.765857047092e-03 0.0 
8.921587011461e-03 3.618214127362e-03 0.0 
9.533029073204e-03 2.534545094080e-03 0.0 
6.905972921013e-03 2.531365862655e-03 0.0 
7.297776721969e-03 1.547565642373e-03 0.0 
4.716346017775e-03 1.585217693144e-03 0.0 
5.458976866256e-03 7.185780367663e-04 0.0 
-2.043129885875e-03 8.900718942477e-03 0.0 
2.474645115725e-01 -2.002978639415e-01 0.0 
9.149584393894e-02 -5.068661672591e-03 0.0 
-8.866622893144e-03 6.358063005465e-03 0.0 
-1.435435703147e-02 4.156561215129e-03 0.0 
1.298297977372e-01 -2.092127483309e-02 0.0 
1.463628761556e-01 -2.167631509852e-02 0.0 
-1.246873607408e-02 -5.823600534866e-03 0.0 
1.364729572364e-01 -1.237893270277e-01 0.0 
6.702476737108e-03 -1.059197197105e-03 0.0 
2.791388904000e-01 -4.751171840011e-01 0.0 
2.349051249370e-01 -4.385890225882e-01 0.0 
1.259006239816e-01 -1.316653780369e-01 0.0 
1.208389200754e-01 -2.144231277541e-02 0.0 
1.672118942581e-01 -2.540255340394e-02 0.0 
1.683178418676e-01 -2.871265317150e-02 0.0 
-3.605411687350e-02 -1.367519594127e-02 0.0 
2.947772792424e-02 -2.058557781943e-02 0.0 
2.394605877078e-01 -1.512400566688e-01 0.0 
7.936128490091e-03 7.178497350472e-04 0.0 
2.849331136634e-01 -1.644659613063e-01 0.0 
-3.662429547060e-03 2.984505556552e-04 0.0 
1.309137803989e-01 -1.325010897805e-01 0.0 
1.264012210507e-01 -2.767799256819e-02 0.0 
1.988719249368e-01 -1.391627554298e-01 0.0 
1.439150004353e-01 -1.485895673663e-01 0.0 
8.039240436178e-02 -9.483014169047e-03 0.0 
7.091821867876e-02 5.102487995543e-04 0.0 
7.760346593093e-02 -3.152753236101e-03 0.0 
1.202097500295e-01 -1.434780091515e-01 0.0 
1.547041000062e-01 -2.716490195387e-02 0.0 
1.750284355875e-01 -2.940271203907e-02 0.0 
9.940364743290e-02 -1.970043591862e-02 0.0 
3.776118751557e-02 -2.769150783799e-03 0.0 
3.798121453737e-02 -3.929776002914e-03 0.0 
2.932525511990e-02 -3.935161964419e-03 0.0 
3.754852631105e-02 -4.922525682599e-03 0.0 
4.629161041078e-02 -4.778633072027e-03 0.0 
4.657978344119e-02 -6.166996378587e-03 0.0 
3.638192295454e-02 -5.831236265226e-03 0.0 
4.639093365546e-02 -7.384079996136e-03 0.0 
3.151857845746e-02 -6.141150753914e-03 0.0 
4.528190641012e-02 -8.598825376407e-03 0.0 
5.642003040001e-02 -9.463461472325e-03 0.0 
5.683109072602e-02 -1.113401556992e-02 0.0 
4.576631953223e-02 -9.815759616580e-03 0.0 
6.618030621965e-02 -1.208139704780e-02 0.0 
-4.827656859510e-03 4.417822679121e-03 0.0 
1.190469037761e-01 -1.237384033813e-01 0.0 
1.678788714341e-01 -4.042106854254e-01 0.0 
2.547440660597e-01 -3.795261590701e-01 0.0 
1.168901711403e-01 -2.577132063195e-02 0.0 
1.494511142736e-02 -3.118191224929e-03 0.0 
1.163675880505e-02 -2.102515917322e-03 0.0 
1.276617636387e-01 -1.816449070171e-01 0.0 
2.684109738674e-03 2.197926773821e-03 0.0 
8.334554486631e-02 -8.631330364537e-03 0.0 
1.128244724859e-01 -2.855309017665e-01 0.0 
-1.638154718843e-03 3.919657758578e-03 0.0 
4.541148100605e-02 -3.282052228704e-03 0.0 
5.325180595621e-02 -4.024309997752e-03 0.0 
5.116831602245e-02 -2.032386878536e-03 0.0 
8.581927820615e-03 -1.423906154222e-03 0.0 
3.455455532734e-02 3.073885702953e-03 0.0 
-1.115902052077e-03 3.449837904482e-03 0.0 
1.831793635095e-02 -3.439131254114e-02 0.0 
4.046668129106e-02 -5.369936278191e-02 0.0 
7.166889030555e-02 -8.106694650778e-02 0.0 
5.577150752156e-02 -7.708145962228e-03 0.0 
-4.870802519138e-03 2.197477541789e-03 0.0 
-1.059732106157e-02 4.751475686073e-03 0.0 
-1.126133851245e-02 6.386043408007e-03 0.0 
-1.460713674147e-02 7.965743305814e-03 0.0 
-5.539120731757e-03 3.533121602327e-03 0.0 
1.613562442491e-02 -4.607889179661e-03 0.0 
1.377068536236e-02 -2.525743123068e-03 0.0 
-3.503214536388e-02 -9.366751037327e-02 0.0 
-3.243010728854e-02 -1.173946425044e-01 0.0 
-4.214300762736e-02 -9.941421262449e-02 0.0 
-2.010344674935e-02 -1.368196362179e-01 0.0 
-4.680324522575e-03 -1.684497559053e-01 0.0 
1.322386205220e-02 -1.855643064921e-01 0.0 
-2.111162885271e-03 -1.494353681219e-01 0.0 
4.768595714384e-02 -2.277832586979e-01 0.0 
6.751692672718e-02 -1.890130617761e-02 0.0 
-3.623305760079e-03 1.986978690456e-03 0.0 
-5.914466512507e-02 -2.611149425735e-02 0.0 
-6.199013802365e-02 -3.534727246782e-02 0.0 
-6.229638496662e-02 -4.299042079203e-02 0.0 
-3.164854936218e-02 -9.273953621992e-05 0.0 
-3.752341517884e-02 -5.244166508398e-03 0.0 
-3.885935079930e-02 -6.219869322588e-03 0.0 
-2.575913578090e-02 4.736953375847e-03 0.0 
9.579808579654e-02 -3.425048802318e-02 0.0 
-3.530555068408e-03 -1.519311932923e-04 0.0 
-2.143146899053e-02 -3.434689225503e-02 0.0 
-4.096841114151e-02 -1.023217197336e-02 0.0 
4.481276124322e-02 8.234137835769e-03 0.0 
4.687666292662e-02 6.777894012829e-03 0.0 
5.209373471076e-02 5.899029986033e-03 0.0 
4.840426838479e-02 4.027401311583e-03 0.0 
4.161418394894e-02 6.253246720915e-03 0.0 
-2.459356240016e-02 2.853368105442e-03 0.0 
-1.986294152695e-02 3.983442093646e-03 0.0 
-1.541502672991e-02 6.923732316039e-03 0.0 
-1.509729272347e-02 4.549886684390e-03 0.0 
-1.086322043063e-02 7.045099573893e-03 0.0 
-1.101456754072e-02 9.516277971344e-03 0.0 
-1.027444663017e-02 4.646916879373e-03 0.0 
-6.336733392612e-03 6.961961806407e-03 0.0 
3.645852075536e-02 7.539970803709e-03 0.0 
1.252151054541e-01 -2.316250225136e-01 0.0 
8.067955103823e-02 -1.712491434022e-01 0.0 
7.022377777877e-02 -9.358421675117e-02 0.0 
4.412563110158e-02 -1.175386742643e-01 0.0 
5.849108619422e-02 -2.026988883858e-01 0.0 
1.845272936807e-02 -1.407305654114e-01 0.0 
4.646043705661e-02 -2.204089979429e-01 0.0 
9.940226199202e-02 -2.683720083984e-01 0.0 
1.001276041765e-01 -7.903296295753e-02 0.0 
6.437895681776e-02 -6.378407340330e-02 0.0 
9.169364266989e-02 -5.531797690838e-02 0.0 
5.525475542175e-02 -3.704490672259e-02 0.0 
3.391625182421e-02 -4.709899082778e-02 0.0 
5.651280038722e-03 -8.523778467735e-03 0.0 
-3.820725745990e-03 -1.657685461677e-03 0.0 
-3.774516444071e-03 1.451663628288e-02 0.0 
-6.923567570905e-03 1.518161029982e-02 0.0 
-5.817603503569e-03 1.736549185615e-02 0.0 
-9.933530272693e-03 1.514635619906e-02 0.0 
-7.448415611314e-03 1.294684813027e-02 0.0 
-2.544718778781e-03 1.900172376377e-02 0.0 
-4.491893486788e-03 1.905886022125e-02 0.0 
7.930476546321e-03 1.787944543282e-02 0.0 
5.117350670240e-03 1.982986769384e-02 0.0 
2.392900184402e-03 2.090529063205e-02 0.0 
2.715373817823e-03 2.134740872645e-02 0.0 
4.724612520380e-03 1.995125221720e-02 0.0 
7.841343661522e-03 1.810182470234e-02 0.0 
1.085142845922e-02 1.577343897971e-02 0.0 
1.449953475016e-02 1.320273941557e-02 0.0 
1.401218086686e-02 1.260646672926e-02 0.0 
9.038287765261e-03 1.564815677641e-02 0.0 
1.681448085136e-02 9.047496471038e-03 0.0 
1.713376031480e-03 -3.122482547296e-04 0.0 
3.220467126476e-03 -5.913749996741e-04 0.0 
-5.441030625608e-03 -3.014516561775e-03 0.0 
2.822623161391e-02 6.486276319704e-03 0.0 
5.185768000843e-02 -2.339171526969e-02 0.0 
2.467068080639e-03 -7.470780752275e-04 0.0 
3.795732394567e-03 -7.141059719400e-04 0.0 
3.030394236542e-03 -6.508390052026e-04 0.0 
-2.301537129193e-03 -1.608998488852e-03 0.0 
-3.716028793236e-03 -1.846811955795e-03 0.0 
1.353180069510e-03 -6.906854958477e-04 0.0 
-1.764396092153e-02 -1.523098021848e-03 0.0 
2.778033326631e-02 -4.352859462572e-03 0.0 
7.181581997743e-03 -9.947517168964e-04 0.0 
1.516139852773e-01 -2.743860867016e-01 0.0 
-2.420528631090e-02 -2.915639117741e-02 0.0 
-1.263936896305e-02 6.112860867414e-04 0.0 
-3.694003172232e-02 -7.893879818848e-03 0.0 
-1.441303591558e-02 -3.578359726912e-03 0.0 
-2.270922145638e-02 -8.396562210652e-04 0.0 
-2.388729292569e-02 -6.407828061725e-03 0.0 
-1.195371147485e-02 7.683494708707e-03 0.0 
1.451038216266e-03 2.031788991770e-02 0.0 
2.127808226340e-02 2.125803957022e-03 0.0 
1.380203084150e-02 2.021607305777e-03 0.0 
1.228878785792e-02 -2.635695733266e-04 0.0 
-1.211151451755e-02 1.234561455382e-02 0.0 
-1.531585946411e-02 9.196548425372e-03 0.0 
2.095201946048e-03 1.018037634532e-02 0.0 
1.687612248275e-03 3.332303354550e-03 0.0 
1.045391686004e-01 -1.893205747034e-02 0.0 
-5.936286061207e-02 -3.718403622678e-02 0.0 
-2.840302880814e-02 1.366853507343e-03 0.0 
-2.511374760150e-02 -9.134101138525e-03 0.0 
-2.259081516559e-02 -4.323365704140e-02 0.0 
1.250498889922e-01 -9.519456668333e-02 0.0 
-4.688924722999e-02 -1.630230202431e-02 0.0 
-4.232715161879e-02 -1.534119634363e-02 0.0 
9.290113924127e-03 -6.396819706337e-04 0.0 
3.156763082684e-02 -1.585316764119e-03 0.0 
-4.124868498505e-02 -1.535025957054e-02 0.0 
-4.810758346578e-02 -1.490973940988e-02 0.0 
2.973091835553e-02 2.091932839533e-03 0.0 
-5.272858578840e-03 -7.973117764560e-03 0.0 
-3.645154920081e-04 -9.293691357377e-02 0.0 
1.780287005127e-02 -4.177617917121e-04 0.0 
1.788834125657e-02 -1.855884110460e-03 0.0 
3.940970007232e-02 4.137292909495e-03 0.0 
9.822441223888e-03 9.738323464278e-03 0.0 
2.280947166700e-02 3.515436828550e-03 0.0 
-1.777910561274e-02 -3.877175005017e-03 0.0 
3.689954195281e-02 -1.583003837095e-03 0.0 
-7.454301306936e-03 1.583446348646e-02 0.0 
-1.018404302132e-02 -5.652238677837e-02 0.0 
1.299713005814e-01 -3.054538586671e-02 0.0 
7.949058215406e-02 1.056559607856e-02 0.0 
7.383206968872e-03 -1.053594461792e-03 0.0 
9.919014452556e-02 -1.002313017466e-01 0.0 
-1.397170727552e-02 3.055892106642e-03 0.0 
-9.868607584221e-03 -2.389043987388e-02 0.0 
-7.366560246202e-03 1.741696349374e-02 0.0 
-2.796701700820e-02 -1.118560763781e-02 0.0 
6.372284735972e-02 -8.403621456435e-02 0.0 
1.414753410914e-02 -1.001603041021e-03 0.0 
9.458797598367e-02 -3.737211237697e-02 0.0 
4.431473694458e-02 -1.452043678211e-01 0.0 
2.381840903469e-02 -9.978798986627e-04 0.0 
-5.662658190195e-02 -5.440098046363e-02 0.0 
-5.441633916820e-03 -6.972210085455e-03 0.0 
1.137842767078e-01 -2.219220653817e-02 0.0 
1.100933055518e-01 -3.365418897402e-02 0.0 
8.117199128198e-02 -1.602992031193e-02 0.0 
1.259097384902e-01 -4.290364419223e-02 0.0 
-8.666367045027e-03 2.637089485659e-03 0.0 
-3.409258193188e-02 -1.357239614549e-02 0.0 
6.629020970665e-02 -2.883353148026e-01 0.0 
1.315558278741e-01 -1.297226389997e-01 0.0 
3.710449311932e-02 2.230905998372e-03 0.0 
2.191210325952e-02 1.062647847270e-04 0.0 
9.835533645560e-03 -1.167668624884e-03 0.0 
1.354840821418e-01 -2.847231233267e-02 0.0 
-2.940668017814e-02 -1.023258222474e-02 0.0 
1.851963150405e-02 -1.543025837503e-03 0.0 
-4.316407251318e-02 -1.050932642231e-02 0.0 
-6.087294111873e-05 2.231094913109e-02 0.0 
1.976425305276e-01 -3.120828935473e-01 0.0 
6.816808542734e-02 -2.188068292443e-01 0.0 
9.882328314958e-02 -1.029864902628e-01 0.0 
-4.376275286633e-02 -1.075123554021e-02 0.0 
2.058541772376e-02 -2.995824231548e-03 0.0 
-2.395934475303e-02 -7.895420204101e-03 0.0 
-4.501486116800e-02 -7.425336472519e-03 0.0 
3.200050846136e-01 -2.650427874166e-01 0.0 
7.864827244609e-02 -2.974487123890e-04 0.0 
-1.906035135157e-02 -5.957163387420e-03 0.0 
-2.421977739944e-02 -5.004887520166e-02 0.0 
-8.214331827654e-03 -2.988852268690e-03 0.0 
-6.731395702672e-03 9.286638211443e-03 0.0 
-3.247740416119e-03 3.423308081377e-03 0.0 
1.318602511082e-01 -1.670291377962e-02 0.0 
-1.463081888451e-02 -4.449524432783e-03 0.0 
-2.470792070861e-02 -5.634765414807e-03 0.0 
1.373592105909e-01 -1.437543439944e-01 0.0 
7.794246528435e-03 4.703281935392e-03 0.0 
-9.130994101146e-03 -3.293353767060e-03 0.0 
-2.317959266773e-02 5.855650149125e-03 0.0 
1.158198650955e-01 -4.166676225398e-02 0.0 
-3.857162492421e-02 -5.993147113816e-02 0.0 
1.165398673633e-01 -3.053364588019e-04 0.0 
-3.866078623065e-02 -7.115560970429e-03 0.0 
1.006851521466e-01 -2.970090362857e-02 0.0 
7.272945773818e-03 -1.158437521689e-03 0.0 
-1.834324177196e-02 8.177716442415e-03 0.0 
5.854322274012e-02 -2.693060098209e-03 0.0 
-3.412039510941e-02 -3.041012872645e-03 0.0 
2.239444639188e-02 -3.145101275288e-02 0.0 
6.870050742523e-03 1.812138024250e-02 0.0 
1.038762952764e-01 -9.187596253022e-03 0.0 
-2.913748535260e-02 -7.213907450896e-04 0.0 
3.482822376897e-02 -1.910393681314e-01 0.0 
-4.794511128764e-02 -5.292897124234e-02 0.0 
-3.682031234763e-03 5.736277743891e-03 0.0 
-2.409989048630e-02 8.819647616312e-04 0.0 
1.983114571507e-02 -1.520887779242e-01 0.0 
-1.909739182082e-02 1.901669365927e-03 0.0 
1.480402077079e-01 -1.088106678620e-02 0.0 
6.104432286839e-02 -5.247538385784e-03 0.0 
-1.401775473042e-02 2.468616435785e-03 0.0 
9.587033014083e-02 -3.126014378599e-02 0.0 
1.169431267595e-02 1.286549225831e-02 0.0 
9.704688921704e-02 -4.235499574835e-02 0.0 
-5.372870481360e-03 -1.624554791526e-03 0.0 
-4.029619629448e-02 -2.690639954161e-02 0.0 
-5.550990240720e-02 -4.490496888817e-02 0.0 
5.473998730752e-02 -5.944141085387e-03 0.0 
1.768203783775e-01 -2.099673250660e-02 0.0 
-5.275956566314e-02 -3.376150014749e-02 0.0 
8.866505331129e-02 -3.203437476066e-02 0.0 
5.743345577788e-02 -3.053523349766e-02 0.0 
7.462849017982e-02 -8.202111018825e-02 0.0 
-4.885570723907e-02 -2.085965402286e-02 0.0 
1.590601664893e-01 -2.564324683713e-02 0.0 
-1.637903079242e-02 -8.423463630199e-03 0.0 
-6.436499700463e-03 -8.347020117007e-03 0.0 
-1.633929429043e-02 -1.157534666939e-01 0.0 
7.989423366405e-02 -2.522621490200e-02 0.0 
2.294504456731e-03 2.111207034578e-02 0.0 
6.468051398644e-02 -9.841664978431e-03 0.0 
1.197870464570e-02 -1.840275094857e-02 0.0 
-3.200312110080e-02 -1.104171872328e-01 0.0 
1.676792431862e-02 -5.571770610873e-03 0.0 
2.127663185519e-03 1.299352967247e-03 0.0 
-4.690231877416e-02 -8.645786719050e-02 0.0 
-9.017767899024e-04 2.174573935966e-02 0.0 
-5.046279537751e-02 -7.941612483690e-02 0.0 
4.277073186299e-02 -5.326944536223e-02 0.0 
-5.517974882054e-02 -6.254235591904e-02 0.0 
-4.869776642415e-02 -5.069394307105e-02 0.0 
4.906878974520e-03 -1.001454401972e-03 0.0 
-4.772896910441e-02 -3.679398012649e-02 0.0 
6.778349935124e-04 -5.915548622805e-04 0.0 
-1.634939895398e-03 -1.255349748569e-03 0.0 
2.891942739022e-03 3.565834767113e-03 0.0 
2.166115682477e-01 -2.901396889599e-02 0.0 
2.047795269844e-01 -4.418248967540e-01 0.0 
1.894919045289e-01 -3.103903871834e-02 0.0 
-3.302737905727e-02 -2.824357449357e-02 0.0 
7.516109315849e-02 -1.553296203172e-02 0.0 
6.004503588209e-03 3.589597581045e-03 0.0 
-2.487187491813e-02 -1.788404584971e-02 0.0 
3.138508116037e-02 -7.317653489169e-03 0.0 
-1.487653691779e-03 3.999296379195e-03 0.0 
3.705099588536e-03 -3.473998433824e-05 0.0 
-1.380050357364e-02 4.036251999504e-03 0.0 
2.787167180973e-02 -2.088132622994e-02 0.0 
1.018100966938e-03 -9.671506883181e-04 0.0 
1.816492517903e-02 5.620727762375e-03 0.0 
4.568316536496e-02 -2.678870065335e-02 0.0 
-4.170795611130e-03 2.089932206319e-03 0.0 
2.536746142593e-01 -3.472122458212e-02 0.0 
2.365826325957e-01 -7.585424540954e-02 0.0 
2.710182439322e-01 -1.638928787160e-01 0.0 
-6.220023352321e-03 1.846930856706e-02 0.0 
4.322422855596e-02 -7.645712745251e-02 0.0 
2.736222212009e-01 -8.391884112557e-02 0.0 
-9.060555567585e-03 3.333412763305e-03 0.0 
2.999707049834e-02 5.594479616400e-03 0.0 
1.944866831732e-02 9.144595093134e-04 0.0 
3.063318121194e-01 -1.700855032567e-01 0.0 
1.264938206325e-02 -1.558414196998e-03 0.0 
-2.288681897756e-03 7.860116391260e-03 0.0 
-5.588208690723e-03 -2.661291873161e-03 0.0 
1.738646181745e-03 9.206429183017e-03 0.0 
2.911750652513e-01 -2.540344569491e-01 0.0 
4.385817541685e-02 4.999805210095e-03 0.0 
1.086070595681e-02 2.632501647370e-03 0.0 
4.930343054680e-03 -5.030010369141e-04 0.0 
-4.963896720126e-03 -2.113842169722e-03 0.0 
3.785997180262e-02 6.460375660729e-03 0.0 
2.969061973019e-03 -9.394275730840e-04 0.0 
6.108912691617e-02 -2.690842518023e-01 0.0 
1.517659441966e-03 -8.918598644780e-04 0.0 
6.694674740517e-02 -1.467130765615e-02 0.0 
1.196911788006e-02 2.436523652952e-03 0.0 
5.375412050940e-02 3.890226991633e-03 0.0 
-4.430920353764e-03 -1.956180678945e-03 0.0 
2.538468561277e-02 -4.607138380390e-03 0.0 
2.946509584557e-01 -3.201547026176e-01 0.0 
5.822187361859e-03 1.085149936105e-04 0.0 
-1.348263178368e-02 1.340922316321e-02 0.0 
1.278086339574e-01 -3.389479121447e-01 0.0 
-1.187038446825e-02 -6.107520070503e-03 0.0 
5.699001529103e-02 -1.298589072964e-02 0.0 
-7.134277945677e-03 -2.599645625896e-03 0.0 
1.250902795949e-03 2.180877940482e-02 0.0 
3.179936016825e-02 -4.520029047813e-03 0.0 
-9.041985348023e-03 -2.304437933343e-03 0.0 
2.945520986059e-02 -4.263947253312e-03 0.0 
2.278987889704e-02 -1.792776759740e-01 0.0 
4.090581308203e-03 -6.881500597581e-04 0.0 
2.938350711610e-01 -4.108426791699e-01 0.0 
2.490151705317e-02 6.516740979083e-03 0.0 
1.814605860546e-02 1.017069428928e-02 0.0 
-4.307855418024e-03 -1.736184912766e-03 0.0 
7.201108543629e-03 -1.060900506523e-03 0.0 
-1.017534395885e-02 1.331406727054e-02 0.0 
5.476065991936e-02 7.614833810792e-03 0.0 
-2.977528860938e-03 2.047913184867e-02 0.0 
7.069566775757e-03 5.479254534352e-03 0.0 
3.693404216019e-02 -3.056890474641e-02 0.0 
4.871776237969e-03 -9.246066397486e-04 0.0 
-9.062550533689e-03 5.766732106061e-03 0.0 
1.597059972616e-02 -2.291564598588e-03 0.0 
-1.918681550595e-03 2.056453432467e-03 0.0 
2.000589816868e-01 -4.496294724841e-01 0.0 
-1.749656443027e-03 7.295106700616e-03 0.0 
-1.641569880817e-02 9.111656384143e-03 0.0 
1.361517545878e-02 5.263832220365e-03 0.0 
2.101887003131e-02 -3.401104726333e-03 0.0 
-7.669618868097e-03 1.714070680978e-02 0.0 
6.204876548633e-03 1.578038330756e-02 0.0 
2.856484652927e-04 -5.122055674890e-04 0.0 
2.613243445534e-03 1.984558826111e-02 0.0 
2.293861843870e-03 4.696289493732e-03 0.0 
-6.375556080122e-04 -9.564082674658e-04 0.0 
3.887670851044e-03 1.970377538011e-02 0.0 
4.695192730585e-03 2.710128540021e-03 0.0 
3.044913056103e-02 -8.192638606642e-03 0.0 
-2.976054482615e-03 9.215059440619e-03 0.0 
2.376767203746e-03 -8.696301124211e-04 0.0 
2.443487317644e-02 -9.317047302986e-02 0.0 
1.850321394256e-01 -3.847770658940e-01 0.0 
3.618716935501e-03 8.296476432934e-04 0.0 
-2.157201805850e-03 6.250736439943e-03 0.0 
1.190763378629e-02 -1.583673824114e-03 0.0 
9.482989728024e-03 1.698982919137e-03 0.0 
2.411470624259e-01 -3.331102962898e-01 0.0 
4.759466901618e-02 -1.095841897751e-02 0.0 
-1.136573465001e-02 1.126881384677e-02 0.0 
1.911588532964e-02 -4.259994638076e-03 0.0 
-1.329962617512e-02 4.445163643665e-03 0.0 
3.043385035926e-01 -4.108218846918e-01 0.0 
-2.662756514390e-03 6.659389800520e-03 0.0 
2.287454856547e-02 5.203826716996e-03 0.0 
-1.050832036964e-02 -4.639339067854e-03 0.0 
-7.693532530874e-03 1.096927900635e-02 0.0 

VECTORS node_materi_displacement float
0.0 7.665352082362e-02 0.0 
0.0 1.631251552860e-01 0.0 
0.0 0.0 0.0 
0.0 0.0 0.0 
0.0 7.697499731714e-02 0.0 
0.0 7.678686794004e-02 0.0 
0.0 7.608322183865e-02 0.0 
0.0 7.486547703864e-02 0.0 
0.0 7.311970460563e-02 0.0 
0.0 7.090142547553e-02 0.0 
0.0 6.824205477802e-02 0.0 
0.0 6.516433854307e-02 0.0 
0.0 6.169756793775e-02 0.0 
0.0 5.786045901648e-02 0.0 
0.0 5.366117978390e-02 0.0 
0.0 4.911137155338e-02 0.0 
0.0 4.422063472300e-02 0.0 
0.0 3.899951113469e-02 0.0 
0.0 3.341880300826e-02 0.0 
0.0 2.747836234654e-02 0.0 
0.0 2.117237301582e-02 0.0 
0.0 1.448985929525e-02 0.0 
0.0 7.427663777627e-03 0.0 
0.0 0.0 0.0 
0.0 0.0 0.0 
0.0 0.0 0.0 
0.0 0.0 0.0 
0.0 0.0 0.0 
0.0 0.0 0.0 
0.0 0.0 0.0 
0.0 0.0 0.0 
0.0 0.0 0.0 
0.0 0.0 0.0 
0.0 0.0 0.0 
0.0 0.0 0.0 
0.0 0.0 0.0 
0.0 0.0 0.0 
0.0 0.0 0.0 
0.0 0.0 0.0 
0.0 0.0 0.0 
0.0 0.0 0.0 
0.0 0.0 0.0 
0.0 0.0 0.0 
0.0 0.0 0.0 
0.0 0.0 0.0 
0.0 0.0 0.0 
0.0 0.0 0.0 
0.0 0.0 0.0 
0.0 0.0 0.0 
0.0 0.0 0.0 
0.0 0.0 0.0 
0.0 0.0 0.0 
0.0 0.0 0.0 
0.0 0.0 0.0 
0.0 0.0 0.0 
0.0 0.0 0.0 
0.0 0.0 0.0 
0.0 0.0 0.0 
0.0 0.0 0.0 
0.0 0.0 0.0 
0.0 0.0 0.0 
0.0 0.0 0.0 
0.0 0.0 0.0 
0.0 0.0 0.0 
0.0 0.0 0.0 
0.0 0.0 0.0 
0.0 0.0 0.0 
0.0 0.0 0.0 
0.0 0.0 0.0 
0.0 0.0 0.0 
0.0 0.0 0.0 
0.0 0.0 0.0 
0.0 1.483967230813e-01 0.0 
0.0 1.332444331035e-01 0.0 
0.0 1.176926356042e-01 0.0 
0.0 1.017706902068e-01 0.0 
0.0 8.550007017918e-02 0.0 
0.0 6.891345196701e-02 0.0 
0.0 5.204038120954e-02 0.0 
0.0 3.491208156157e-02 0.0 
0.0 1.756293096335e-02 0.0 
6.420982130800e-03 1.760869428734e-03 0.0 
2.826826143996e-02 1.492087082338e-01 0.0 
1.455302645062e-02 5.062589963691e-02 0.0 
1.941013477506e-02 8.216627036096e-02 0.0 
2.440082659561e-02 1.062695808803e-01 0.0 
2.900539743972e-02 1.216338911194e-01 0.0 
3.264560480413e-02 1.335053367915e-01 0.0 
3.524711939555e-02 1.424089782725e-01 0.0 
3.667998735594e-02 1.485107053559e-01 0.0 
3.657735167317e-02 1.520701244731e-01 0.0 
3.429662717751e-02 1.528918149758e-01 0.0 
1.669229804577e-03 1.631966189645e-01 0.0 
3.276554734724e-03 1.631868839268e-01 0.0 
4.898717715801e-03 1.632223055022e-01 0.0 
6.534160063926e-03 1.632724357658e-01 0.0 
8.181807683548e-03 1.632822416693e-01 0.0 
9.828745850593e-03 1.632620795457e-01 0.0 
1.148907022015e-02 1.631648245961e-01 0.0 
1.315045160021e-02 1.629439101827e-01 0.0 
1.483010847788e-02 1.625450095783e-01 0.0 
1.654093237565e-02 1.619151446228e-01 0.0 
1.828501255733e-02 1.609037062190e-01 0.0 
2.013191930373e-02 1.593758799549e-01 0.0 
2.219764813808e-02 1.571683182940e-01 0.0 
2.472311536653e-02 1.540446641810e-01 0.0 
8.732780463618e-03 -1.196709849469e-02 0.0 
1.199156052612e-02 -1.703641207223e-02 0.0 
1.572523951229e-02 -1.767927784105e-02 0.0 
2.060725149609e-02 -1.214593043719e-02 0.0 
2.370689100096e-02 3.473194784192e-03 0.0 
2.369085728501e-02 2.521963212616e-02 0.0 
2.230671696067e-02 3.837083256110e-02 0.0 
1.846765035485e-02 4.737052250305e-02 0.0 
1.632824499894e-02 5.393883945892e-02 0.0 
1.374348073044e-02 5.911055628523e-02 0.0 
1.163794429004e-02 6.350487442774e-02 0.0 
1.013298787594e-02 6.666262125576e-02 0.0 
8.501922429617e-03 6.933260570525e-02 0.0 
7.170038078712e-03 7.146787626175e-02 0.0 
5.869486744018e-03 7.315864848189e-02 0.0 
4.674578406510e-03 7.445369544365e-02 0.0 
3.471031653150e-03 7.544041405394e-02 0.0 
2.351393386652e-03 7.614060839560e-02 0.0 
1.109778543738e-03 7.654705464516e-02 0.0 
1.216253198518e-02 2.979613630790e-02 0.0 
1.687260762335e-02 6.773863479554e-02 0.0 
2.195041968760e-02 9.489280832583e-02 0.0 
2.682430271006e-02 1.146710657312e-01 0.0 
3.101959503296e-02 1.281342040059e-01 0.0 
3.414687618083e-02 1.384279593720e-01 0.0 
3.615817453555e-02 1.457761038128e-01 0.0 
3.686659890254e-02 1.505781044496e-01 0.0 
3.579244665840e-02 1.528283008569e-01 0.0 
3.193720195256e-02 1.521129280029e-01 0.0 
2.425363707471e-02 6.553454297647e-02 0.0 
3.330516216562e-03 7.186440386121e-03 0.0 
1.061205189720e-02 5.730556937731e-02 0.0 
1.323047233685e-02 -3.307342060318e-03 0.0 
1.119530079846e-03 6.119174254228e-03 0.0 
3.298968123521e-02 1.106480769339e-01 0.0 
-4.127387349777e-04 5.563884286899e-02 0.0 
4.890059149985e-03 8.345120937005e-03 0.0 
3.834281352966e-02 1.307322277755e-01 0.0 
5.986857210599e-03 9.190417275219e-03 0.0 
3.874777463897e-02 1.402959252785e-01 0.0 
5.234668365024e-06 5.689727452783e-03 0.0 
5.974372944901e-03 7.097460529807e-02 0.0 
7.082882671182e-03 1.045426217894e-02 0.0 
3.164078763315e-02 1.383195758984e-01 0.0 
-2.537150130715e-04 6.944071715562e-02 0.0 
-3.424607184950e-04 4.265257928975e-02 0.0 
7.423912293746e-03 1.219976151592e-02 0.0 
5.764571207569e-03 1.330388854541e-02 0.0 
1.711151512873e-03 1.493544789722e-02 0.0 
3.200402754113e-03 1.595672188022e-02 0.0 
4.247654673175e-03 1.382816422875e-02 0.0 
2.520632827093e-02 1.425156930246e-01 0.0 
1.621358583800e-02 1.489106014794e-01 0.0 
1.075629174038e-02 1.495446194111e-01 0.0 
1.085762177323e-03 9.342989573668e-02 0.0 
-2.065123067766e-04 6.336921350701e-03 0.0 
1.388567239098e-02 -1.126304346696e-02 0.0 
3.212951227646e-03 7.527407629599e-02 0.0 
-1.952819214766e-04 2.482554701868e-02 0.0 
5.584601880538e-03 1.505644456946e-01 0.0 
2.273449743964e-04 7.545604872154e-02 0.0 
7.537381835498e-03 1.449501298121e-02 0.0 
5.059758465739e-03 8.077959451700e-03 0.0 
6.459846009854e-03 9.690499957572e-03 0.0 
4.437013246050e-03 8.258232884454e-03 0.0 
2.334830856220e-03 6.310563766164e-03 0.0 
1.253989980079e-02 3.272926213355e-02 0.0 
2.026342080470e-02 1.477108210785e-01 0.0 
4.652664890674e-04 6.935789802289e-03 0.0 
8.348170015026e-04 6.123088534805e-02 0.0 
8.158190252957e-03 6.551512303141e-02 0.0 
-3.938147370795e-04 6.338065132688e-02 0.0 
8.514805632596e-04 1.218287371934e-02 0.0 
3.634113285382e-02 1.213446542099e-01 0.0 
2.887322376381e-02 9.204106189898e-02 0.0 
3.931227780102e-02 1.367333480355e-01 0.0 
3.626779012142e-02 1.410470312715e-01 0.0 
1.939703262185e-02 2.804442114823e-02 0.0 
1.292618329097e-03 1.236645666408e-01 0.0 
-1.197924145339e-04 5.084647102544e-03 0.0 
1.405213637436e-03 7.667567869458e-02 0.0 
4.637183692463e-04 2.755301379846e-02 0.0 
3.057967101142e-02 1.346630582151e-01 0.0 
3.305773899782e-02 1.250849830834e-01 0.0 
3.057880451867e-02 1.231509112185e-01 0.0 
3.301235585846e-02 1.121303854191e-01 0.0 
3.062950149460e-02 1.079443841843e-01 0.0 
3.211675249768e-02 9.860150544558e-02 0.0 
3.464461702932e-02 1.023170173861e-01 0.0 
3.309702222456e-02 8.946036695788e-02 0.0 
3.570516537041e-02 9.300089616106e-02 0.0 
2.937160666100e-02 9.384342820033e-02 0.0 
3.354365797773e-02 8.064276936479e-02 0.0 
3.622115634044e-02 8.406424536726e-02 0.0 
3.347216279836e-02 7.222199728994e-02 0.0 
3.619789193768e-02 7.554941791686e-02 0.0 
3.866607312589e-02 8.676170930270e-02 0.0 
3.870044377091e-02 7.822128371171e-02 0.0 
4.086173222268e-02 8.872433043901e-02 0.0 
4.094679826686e-02 8.015889614632e-02 0.0 
3.821393894661e-02 7.018483966022e-02 0.0 
4.050041366434e-02 7.214117616247e-02 0.0 
4.292850860634e-02 8.138646974708e-02 0.0 
4.250858545507e-02 7.339651108858e-02 0.0 
4.462193331663e-02 8.188601824891e-02 0.0 
4.421130322716e-02 7.391809939795e-02 0.0 
4.602936118943e-02 8.165230982547e-02 0.0 
4.561984412369e-02 7.374712144404e-02 0.0 
4.323573833879e-02 6.659478621803e-02 0.0 
4.451040033443e-02 6.654567672689e-02 0.0 
4.665752801191e-02 7.286716425431e-02 0.0 
4.532905252099e-02 6.581578714421e-02 0.0 
4.724189447980e-02 7.122437985035e-02 0.0 
4.546178282805e-02 6.398625816607e-02 0.0 
4.280380443946e-02 5.958060086926e-02 0.0 
4.236164188414e-02 5.784622616804e-02 0.0 
4.474070387917e-02 6.094148341831e-02 0.0 
4.104561156115e-02 5.520347393774e-02 0.0 
4.315916833309e-02 5.693103172073e-02 0.0 
3.882522022286e-02 5.178716265729e-02 0.0 
4.066779580114e-02 5.205046775984e-02 0.0 
3.553304387881e-02 4.751985810855e-02 0.0 
3.323942798642e-02 4.830473515207e-02 0.0 
2.928618152290e-02 4.479565343522e-02 0.0 
3.105408715068e-02 4.251084200976e-02 0.0 
2.431131599302e-02 4.089845216349e-02 0.0 
2.286974979689e-02 4.325461012599e-02 0.0 
1.790289238479e-02 4.034812211376e-02 0.0 
1.732115829775e-02 4.192653681878e-02 0.0 
1.274346788575e-02 3.981753120812e-02 0.0 
1.264313041196e-02 3.789444376609e-02 0.0 
8.179316926105e-03 3.826542549364e-02 0.0 
8.976838113044e-03 3.895525528960e-02 0.0 
5.119436229344e-03 3.821855885241e-02 0.0 
4.059656469938e-03 3.763495358654e-02 0.0 
1.862048793403e-03 3.841508412215e-02 0.0 
2.990009363324e-03 3.809824701442e-02 0.0 
4.287608860358e-04 3.910539640964e-02 0.0 
-5.948634416724e-04 3.961695682136e-02 0.0 
-1.360362018781e-03 4.099148024284e-02 0.0 
-4.394588823491e-04 3.979139508807e-02 0.0 
-1.822075359626e-03 4.217271171382e-02 0.0 
-2.615683490462e-03 4.355424933397e-02 0.0 
-2.819478295678e-03 4.497697329238e-02 0.0 
-2.079414897535e-03 4.298152938705e-02 0.0 
-2.869571885589e-03 4.599961832765e-02 0.0 
-2.187987702782e-03 4.345385076760e-02 0.0 
-3.452075349686e-03 4.817317997761e-02 0.0 
-3.327273505162e-03 4.925681086044e-02 0.0 
-3.712851175927e-03 5.161159931011e-02 0.0 
-3.469458212730e-03 5.264678631336e-02 0.0 
3.898367393302e-02 5.447746540679e-02 0.0 
-3.626967305146e-03 5.510669876128e-02 0.0 
-3.877740039144e-03 5.360858614795e-02 0.0 
-3.330389565870e-03 5.605060982558e-02 0.0 
-3.174475620159e-03 5.322965945428e-02 0.0 
-3.257089561132e-03 5.857134017991e-02 0.0 
-2.965551932438e-03 5.936942318789e-02 0.0 
-2.678772192773e-03 6.188971592031e-02 0.0 
4.428480358152e-02 5.845324990423e-02 0.0 
3.720434889303e-02 6.267840865313e-02 0.0 
-2.443125448143e-03 6.251283808308e-02 0.0 
-1.983595318549e-03 6.496578746303e-02 0.0 
-2.070707450858e-03 6.409385353474e-02 0.0 
-1.213702375438e-03 6.706360365338e-02 0.0 
2.796543684391e-02 1.030065201164e-01 0.0 
2.645484204408e-02 8.828269578419e-02 0.0 
2.520849357774e-02 9.725248152583e-02 0.0 
2.342194154516e-02 8.207209102627e-02 0.0 
2.235726321898e-02 9.067599002574e-02 0.0 
-1.262706708945e-03 6.773190362731e-02 0.0 
3.048579699096e-02 6.781559548136e-02 0.0 
2.405995175465e-02 7.336673686223e-02 0.0 
4.448324982001e-02 9.046218578900e-02 0.0 
4.786670230695e-02 7.901778341821e-02 0.0 
2.143596863909e-02 4.408509299208e-02 0.0 
-2.643075988411e-03 5.972508281604e-02 0.0 
-2.167912839145e-03 6.272057100801e-02 0.0 
-2.291432224492e-03 5.968135701424e-02 0.0 
-1.279776343380e-03 4.055001830260e-02 0.0 
-1.462966001957e-03 4.051713876634e-02 0.0 
-4.765806910266e-04 3.767401453166e-02 0.0 
-7.473203294958e-04 3.717084546238e-02 0.0 
2.745157957779e-04 3.433877932752e-02 0.0 
-9.599870407964e-05 3.339942998631e-02 0.0 
-9.245743776886e-04 3.645623778083e-02 0.0 
-3.792063744208e-04 3.228809247844e-02 0.0 
-1.029752765456e-03 3.550839867653e-02 0.0 
9.148712335442e-04 3.053347530963e-02 0.0 
1.498555358966e-03 3.179447921600e-02 0.0 
-5.833631955948e-04 3.097234903964e-02 0.0 
-1.071376448253e-03 3.430721663790e-02 0.0 
-7.093767447727e-04 2.942260110760e-02 0.0 
-1.053336021323e-03 3.284502889558e-02 0.0 
-1.407492007402e-03 3.768063092491e-02 0.0 
-1.267663498110e-03 3.627014268781e-02 0.0 
-1.588710681672e-03 4.104907955392e-02 0.0 
1.685746443489e-02 4.190935902804e-02 0.0 
2.012271490518e-02 4.327535072224e-02 0.0 
1.632115826214e-02 4.046353258111e-02 0.0 
1.878218008342e-02 4.096624140352e-02 0.0 
1.545821343917e-02 3.781427912343e-02 0.0 
1.715747943931e-02 3.742098718295e-02 0.0 
1.415256342862e-02 3.408125417657e-02 0.0 
1.248895334088e-02 3.479132793107e-02 0.0 
3.289529423528e-02 6.410461531732e-02 0.0 
2.548811763994e-02 3.731656109914e-02 0.0 
3.213431672489e-02 3.943735120516e-02 0.0 
2.621051432884e-02 3.283023696401e-02 0.0 
3.237246285210e-02 3.582152169703e-02 0.0 
2.631890064224e-02 2.773912923317e-02 0.0 
3.180283121714e-02 3.182031138502e-02 0.0 
2.581143775506e-02 2.224056456729e-02 0.0 
1.994311304671e-02 2.127310684051e-02 0.0 
1.974213102698e-02 1.474003172154e-02 0.0 
1.380049247139e-02 1.736762337173e-02 0.0 
1.413925790489e-02 1.026980917689e-02 0.0 
8.315487905767e-03 1.649633300366e-02 0.0 
4.139993871597e-02 6.005730195841e-02 0.0 
2.048189250455e-02 4.086088098715e-02 0.0 
1.811885690282e-02 3.638930707191e-02 0.0 
2.140735553939e-02 4.006840104969e-02 0.0 
-1.075445300164e-03 6.596199098696e-02 0.0 
-9.800522829433e-04 3.112095553140e-02 0.0 
2.073303807869e-03 2.790389400713e-02 0.0 
2.874081972021e-03 2.965538372682e-02 0.0 
1.145781323865e-02 3.084177496242e-02 0.0 
-4.106968383617e-04 6.965269525978e-02 0.0 
3.058565808155e-02 2.755339272388e-02 0.0 
3.587649241169e-02 3.950090029625e-02 0.0 
2.034905519985e-02 7.508713806956e-02 0.0 
1.949365370963e-02 8.343362653187e-02 0.0 
3.313676003007e-03 2.556114675528e-02 0.0 
-5.974716233385e-04 7.015255841932e-02 0.0 
4.025284449127e-05 2.770833675072e-02 0.0 
1.922703492844e-02 8.026829285916e-03 0.0 
-1.091112743360e-03 3.459166719789e-02 0.0 
-8.586142568364e-04 2.914973116611e-02 0.0 
-1.550891007182e-03 3.963900951997e-02 0.0 
1.835740261797e-02 3.468782210856e-02 0.0 
2.164589938693e-02 3.865645644144e-02 0.0 
7.616389813469e-03 2.320483850687e-02 0.0 
2.818831533305e-03 2.491745986698e-02 0.0 
3.711168736073e-03 1.873361951847e-02 0.0 
-8.001326688962e-04 2.922253715261e-02 0.0 
-1.023125043404e-03 3.277607486755e-02 0.0 
-3.016938497715e-03 3.636724335605e-02 0.0 
-2.515314883156e-03 3.404266576968e-02 0.0 
-3.582501009322e-03 4.041811359557e-02 0.0 
-3.791726173638e-03 4.141802439676e-02 0.0 
-3.935641853861e-03 4.550488203936e-02 0.0 
-3.169154164574e-03 4.521177974178e-02 0.0 
-3.327560489502e-03 5.014525334033e-02 0.0 
-7.375540580475e-04 2.557943120753e-02 0.0 
1.436235385674e-02 3.082578929962e-03 0.0 
4.023444301990e-02 9.778182926575e-02 0.0 
2.374035516753e-03 2.347421546292e-02 0.0 
1.244412439676e-02 2.937514955910e-02 0.0 
1.729248502317e-02 6.750052540371e-02 0.0 
1.665887751958e-02 7.564010486770e-02 0.0 
1.832687898285e-02 9.174276575297e-02 0.0 
1.573029637907e-02 8.370797896205e-02 0.0 
1.389922276608e-02 6.738948947002e-02 0.0 
1.320980675879e-02 7.531809422210e-02 0.0 
1.459076010017e-02 9.165558446030e-02 0.0 
1.230166762380e-02 8.313693356967e-02 0.0 
1.331355968093e-02 9.942368482844e-02 0.0 
1.123817360967e-02 9.081110658088e-02 0.0 
1.011064762016e-02 7.435765145132e-02 0.0 
9.246065751736e-03 8.200082234564e-02 0.0 
1.007111730882e-02 9.834475918906e-02 0.0 
8.252108525456e-03 8.952543357769e-02 0.0 
8.836301109855e-03 1.057260030372e-01 0.0 
7.161217626497e-03 9.692744131271e-02 0.0 
6.537154879862e-03 8.056294867311e-02 0.0 
2.225702414183e-04 7.176463648775e-02 0.0 
9.882381001975e-03 3.191410903483e-02 0.0 
9.110811462196e-03 2.770712974307e-02 0.0 
-1.867878212489e-03 6.250704319659e-02 0.0 
-1.926650484231e-03 5.922777199326e-02 0.0 
-2.258823653970e-03 5.629542575184e-02 0.0 
-1.860797309199e-03 5.564789550682e-02 0.0 
5.557991054195e-03 8.807854301218e-02 0.0 
4.955736270846e-03 7.149639630535e-02 0.0 
3.379807706204e-02 3.698681459312e-02 0.0 
3.818571681022e-02 5.061279653753e-02 0.0 
1.755234971981e-02 5.935446515531e-02 0.0 
-8.847532082102e-04 3.266079048624e-02 0.0 
-1.090336774122e-03 3.799934877910e-02 0.0 
4.818008361608e-02 7.646714302667e-02 0.0 
4.812041658276e-02 8.493035077954e-02 0.0 
4.814218851007e-02 8.153857008016e-02 0.0 
4.735530474621e-02 9.074014299698e-02 0.0 
4.732764932841e-02 9.401354299140e-02 0.0 
4.700247362212e-02 8.649105394343e-02 0.0 
2.208425344127e-03 3.309328270100e-02 0.0 
8.056033491391e-03 6.538650433631e-02 0.0 
-2.100190550358e-03 6.273901311104e-02 0.0 
-8.308643649258e-04 6.438797288999e-02 0.0 
-6.999775039602e-04 2.694924783474e-02 0.0 
1.022224430919e-02 3.510193148029e-02 0.0 
3.990633132515e-02 5.924167419600e-02 0.0 
3.731155671616e-02 5.337617722092e-02 0.0 
3.561835214716e-02 5.167397749771e-02 0.0 
3.220418669144e-02 4.653724307875e-02 0.0 
3.031736212696e-02 4.393341258793e-02 0.0 
2.626941555417e-02 3.940256610435e-02 0.0 
2.797068753292e-02 4.232399533195e-02 0.0 
1.790029062893e-02 3.227639004796e-02 0.0 
2.221643952691e-02 3.514926552708e-02 0.0 
6.094556322029e-03 1.043576195627e-01 0.0 
2.430212525457e-02 4.428502200499e-02 0.0 
-4.091030206500e-03 4.551729716999e-02 0.0 
6.688149230880e-04 7.101983985926e-02 0.0 
-1.609715778671e-03 5.055602759291e-02 0.0 
-6.387598603613e-05 7.217613691821e-02 0.0 
-6.697452734451e-04 7.027336918572e-02 0.0 
3.350174516687e-03 2.086320826622e-02 0.0 
2.410250657336e-02 3.592709727111e-02 0.0 
2.796479505961e-02 4.077018580016e-02 0.0 
4.588433648914e-02 1.005638855434e-01 0.0 
4.594490259546e-02 1.036936600976e-01 0.0 
1.496592490219e-02 2.827287297369e-02 0.0 
2.354693391061e-02 1.062896539625e-01 0.0 
1.543225931250e-02 1.077888639927e-01 0.0 
1.386961138909e-02 1.154403107983e-01 0.0 
7.854663109614e-04 7.358575229221e-02 0.0 
-1.074207587148e-03 4.481707250337e-02 0.0 
1.126839642614e-02 5.879546493169e-02 0.0 
4.025990905064e-02 5.116068267637e-02 0.0 
4.144464517226e-02 6.198448078594e-02 0.0 
1.822032128344e-02 1.634732211931e-03 0.0 
1.458366407276e-02 -3.565999110730e-03 0.0 
4.144407320641e-03 7.887430630180e-02 0.0 
3.573160904593e-03 6.230441410747e-02 0.0 
-2.107390915368e-03 5.259472786022e-02 0.0 
-1.714359384828e-03 5.169607403442e-02 0.0 
4.536586694533e-03 2.340479932783e-02 0.0 
-1.988869079815e-03 5.490723268933e-02 0.0 
4.124102066280e-03 5.467704258194e-02 0.0 
7.801554151835e-03 3.265480147621e-02 0.0 
7.560909419399e-03 3.527470185554e-02 0.0 
-1.515239201211e-03 5.854031017013e-02 0.0 
3.538028977181e-02 5.010358326564e-02 0.0 
3.110575659442e-02 3.459811590126e-02 0.0 
-3.530158215687e-03 4.197418916054e-02 0.0 
-3.308888176992e-03 5.395007602366e-02 0.0 
-2.286944690316e-04 7.218583846736e-02 0.0 
4.136997346280e-03 1.827883733352e-02 0.0 
1.144237293000e-02 5.091977777606e-02 0.0 
2.387825577413e-02 3.838491208552e-02 0.0 
2.923292549507e-02 4.475270170809e-02 0.0 
1.876386172918e-02 3.082313369979e-02 0.0 
3.922046809244e-04 5.568046993800e-02 0.0 
2.309070419450e-03 1.847251293684e-02 0.0 
-6.594250895970e-04 3.050147922637e-02 0.0 
2.179639516414e-02 3.232787498030e-02 0.0 
2.517097592535e-02 3.705687610210e-02 0.0 
4.339717154272e-02 6.087822044907e-02 0.0 
4.391002410882e-02 7.162130422011e-02 0.0 
4.109235071454e-02 7.401418214932e-02 0.0 
4.311938189722e-02 8.338486451270e-02 0.0 
3.694788634420e-02 1.052753859952e-01 0.0 
4.566638818907e-02 6.912621307185e-02 0.0 
4.214549445047e-02 9.904348882092e-02 0.0 
4.095182424624e-02 1.085946555199e-01 0.0 
4.256373370558e-02 1.091648525250e-01 0.0 
4.694129755305e-02 9.651624431518e-02 0.0 
4.561231093211e-02 1.061779933977e-01 0.0 
3.757346633385e-02 4.427422379899e-02 0.0 
2.480894821920e-02 4.587089788698e-02 0.0 
-2.484353925331e-03 5.316195504883e-02 0.0 
-1.798131826256e-03 4.212947401486e-02 0.0 
-7.459965590504e-05 3.797813546507e-02 0.0 
8.547678651117e-03 5.767087133611e-02 0.0 
6.485691235004e-03 4.854237770640e-02 0.0 
1.056758263888e-02 1.143766162217e-01 0.0 
9.162768226173e-03 1.215873810311e-01 0.0 
3.555038530464e-04 6.745186000114e-02 0.0 
9.759082642648e-04 6.563326920848e-02 0.0 
-2.186744971840e-03 4.359393678401e-02 0.0 
1.554476329380e-03 2.146324386899e-02 0.0 
1.434832330843e-02 5.143705336851e-02 0.0 
1.396330752851e-02 4.350443923464e-02 0.0 
1.736875380108e-02 5.125537375337e-02 0.0 
5.555354606170e-03 2.121984768181e-02 0.0 
1.931563595102e-02 3.280938887856e-02 0.0 
1.321718929282e-02 3.956441143267e-02 0.0 
1.060647288036e-02 1.772547045590e-03 0.0 
3.915579718020e-02 5.497403393571e-02 0.0 
2.229544619627e-03 6.848909666865e-02 0.0 
3.463058547949e-02 6.004325170720e-02 0.0 
-5.178082720078e-04 2.453905448664e-02 0.0 
-5.340979887792e-04 2.084748997081e-02 0.0 
1.395854906612e-02 2.507384395116e-02 0.0 
3.481311601933e-02 1.275627723961e-01 0.0 
3.469090769015e-02 5.077072600395e-02 0.0 
3.408946110727e-02 5.064715476910e-02 0.0 
4.086175107843e-02 1.191132297105e-01 0.0 
4.215623792350e-02 1.189847938175e-01 0.0 
4.387133707682e-02 1.090011602114e-01 0.0 
4.310198172848e-02 1.181982050063e-01 0.0 
-3.829741425683e-03 4.519717980373e-02 0.0 
-4.151302571262e-03 4.884937578029e-02 0.0 
1.745452017325e-02 2.692763463775e-02 0.0 
1.687541242147e-02 2.712014022742e-02 0.0 
1.888922017514e-02 2.803700389827e-02 0.0 
2.191719784749e-02 3.269990782675e-02 0.0 
1.126731083667e-02 2.092202346968e-02 0.0 
1.225884108221e-02 2.432404995078e-02 0.0 
-6.331182969138e-04 7.005269604656e-02 0.0 
4.406800208197e-02 1.137380743926e-01 0.0 
8.756118627099e-03 4.209984898898e-02 0.0 
3.925059455698e-02 1.185605733811e-01 0.0 
1.433903667460e-03 1.627959206722e-02 0.0 
8.833965742107e-04 1.940102872657e-02 0.0 
1.204853522679e-02 -5.396660892319e-03 0.0 
7.140890177064e-03 5.326506274585e-03 0.0 
2.828279076434e-03 4.571663630465e-02 0.0 
3.939679573864e-02 8.686035905017e-02 0.0 
4.115473537006e-02 9.574594525479e-02 0.0 
3.727027583784e-02 7.641641092044e-02 0.0 
-9.266897572578e-05 1.102886126478e-02 0.0 
2.433275136796e-03 1.507052844673e-01 0.0 
-3.829806617282e-04 1.819609049779e-02 0.0 
4.619104500122e-02 9.835340415337e-02 0.0 
3.062849380831e-03 3.732344675630e-02 0.0 
2.980922190897e-02 4.734595211259e-02 0.0 
4.772336327142e-02 7.229166255795e-02 0.0 
5.943897798213e-03 2.616348621370e-02 0.0 
2.289854649534e-03 5.477986771352e-02 0.0 
1.705408779475e-03 3.594890777362e-02 0.0 
1.573716345311e-02 1.233858435316e-01 0.0 
1.403945325688e-02 1.311178879021e-01 0.0 
1.755450935484e-02 1.158296373137e-01 0.0 
2.314460969805e-02 1.082640123962e-02 0.0 
2.064107896108e-02 5.737216982170e-03 0.0 
6.174805173987e-03 5.625624067314e-02 0.0 
-1.633747424987e-03 6.546332520731e-02 0.0 
-1.374384272737e-03 6.489505429587e-02 0.0 
-2.069638653704e-03 5.823764095375e-02 0.0 
-3.204731241956e-03 5.690233789332e-02 0.0 
-2.228989444364e-03 4.942120411633e-02 0.0 
-2.555710315921e-03 4.992311940287e-02 0.0 
3.303643622674e-02 5.297451598681e-02 0.0 
3.018291980010e-02 4.971332515124e-02 0.0 
3.799183590713e-02 5.784954092954e-02 0.0 
5.473339222330e-03 3.338201046993e-02 0.0 
4.824330820170e-03 3.566112544887e-02 0.0 
7.018842433039e-03 3.703234133925e-02 0.0 
6.620690776539e-03 4.132239249690e-02 0.0 
4.434341331174e-03 3.064895074258e-02 0.0 
-2.958087588467e-03 4.203498038446e-02 0.0 
-2.346052335064e-03 3.917897406000e-02 0.0 
-3.927573259001e-03 4.785740269666e-02 0.0 
8.409741173330e-03 3.460183549105e-02 0.0 
-3.775862185672e-04 1.453180965268e-02 0.0 
-4.883334844614e-04 1.732075380148e-02 0.0 
3.257680227332e-03 6.648129852736e-02 0.0 
1.717720464297e-03 6.319757930701e-02 0.0 
3.137030957007e-02 5.000770727761e-02 0.0 
2.723250490306e-02 3.289255460979e-02 0.0 
1.328816468180e-02 3.628075442987e-02 0.0 
1.672962838996e-02 4.342224311067e-02 0.0 
9.589574126716e-03 2.759647293137e-02 0.0 
-2.456933516333e-04 7.198510773795e-02 0.0 
2.500162369857e-02 4.091775599018e-02 0.0 
4.714607547886e-03 1.588069923644e-02 0.0 
6.303714159781e-03 1.911343162920e-02 0.0 
3.158160203480e-03 1.210431625875e-02 0.0 
1.698372993839e-02 2.950941787551e-02 0.0 
1.254600830915e-02 2.164001925676e-02 0.0 
1.360190388200e-02 2.229286672398e-02 0.0 
1.411554189984e-02 -9.090097906586e-03 0.0 
1.277667232897e-03 4.303111218504e-02 0.0 
1.077965130078e-02 1.300686743747e-01 0.0 
1.316269356733e-02 -1.068620329024e-02 0.0 
9.254340856595e-03 1.376267766604e-01 0.0 
7.798732866381e-03 1.287573560360e-01 0.0 
7.971722030829e-03 1.449575520418e-01 0.0 
5.352475836112e-05 7.374791617751e-02 0.0 
1.761925871402e-02 1.338153254335e-01 0.0 
1.977123983955e-02 1.240578781015e-01 0.0 
5.154837844228e-03 6.383914393952e-02 0.0 
5.730477632264e-03 2.577496556952e-02 0.0 
4.254497391051e-03 6.887370453062e-02 0.0 
3.083596137733e-03 7.058281036316e-02 0.0 
7.910141138031e-04 1.379400658473e-02 0.0 
3.826228994250e-04 1.717703947362e-02 0.0 
3.124139362602e-04 1.130097990358e-02 0.0 
3.734920023235e-05 1.510757469381e-02 0.0 
-4.397396970844e-05 2.070293265951e-02 0.0 
-2.624965647707e-04 1.847635600766e-02 0.0 
1.247423968482e-02 1.396699989224e-01 0.0 
-1.269772039647e-04 1.165640504517e-02 0.0 
-3.657992708620e-04 1.590428835113e-02 0.0 
-2.123946676606e-04 9.115645108845e-03 0.0 
4.089123019379e-02 1.287423564636e-01 0.0 
4.451980427145e-02 9.129152297860e-02 0.0 
4.224139910396e-02 1.020341914464e-01 0.0 
3.816632963699e-02 1.074232829080e-01 0.0 
1.415366498042e-02 2.102235529593e-02 0.0 
1.867083904047e-02 2.834709202996e-02 0.0 
-4.255594281846e-04 2.800944649259e-02 0.0 
-5.167581969934e-04 3.383822780911e-02 0.0 
6.412041974124e-03 1.369436407986e-01 0.0 
4.693681803475e-03 1.375688788717e-01 0.0 
5.160161845770e-03 1.234817301931e-01 0.0 
3.724609203160e-03 1.251939234318e-01 0.0 
4.039335024268e-03 1.110966953475e-01 0.0 
2.598205121360e-03 1.129002816659e-01 0.0 
3.101753568754e-03 9.853383583315e-02 0.0 
1.135139378465e-02 1.799010429554e-02 0.0 
3.468901081316e-02 8.934471466491e-02 0.0 
3.864885712598e-02 1.296564550868e-01 0.0 
8.741427060389e-03 1.684442026604e-02 0.0 
1.008373069846e-02 2.107435711554e-02 0.0 
4.379844338451e-02 1.162341718799e-01 0.0 
4.172873979538e-02 1.243557127186e-01 0.0 
1.747672321246e-03 1.218995157145e-02 0.0 
4.430193865094e-02 5.976134669089e-02 0.0 
4.317688491321e-03 1.627054902990e-02 0.0 
1.471282963753e-02 -3.926813379775e-03 0.0 
1.694132963746e-02 -2.396759419117e-03 0.0 
4.638420080054e-02 6.662276453047e-02 0.0 
4.489277110985e-02 1.080320151975e-01 0.0 
4.537074262596e-02 9.653785749475e-02 0.0 
4.337951523854e-02 1.069407328579e-01 0.0 
5.872607449644e-03 3.027058956406e-02 0.0 
2.835194397869e-03 6.011268043967e-02 0.0 
3.468630857363e-02 6.438653185585e-02 0.0 
4.524207733414e-03 9.692238283440e-02 0.0 
2.977429954176e-02 6.482981951730e-02 0.0 
-2.365219155392e-04 3.083370155908e-02 0.0 
4.153233819831e-02 5.199919757772e-02 0.0 
4.695161467040e-02 8.920175707468e-02 0.0 
3.862347648525e-02 6.307072481350e-02 0.0 
4.585219523757e-02 7.996370496813e-02 0.0 
3.809999738467e-02 9.578660303733e-02 0.0 
3.526360376645e-02 1.150851424060e-01 0.0 
3.722153772936e-02 1.174687663048e-01 0.0 
3.705720171769e-02 4.613364908845e-02 0.0 
4.393711738222e-02 1.107002558679e-01 0.0 
4.079200886530e-02 1.180638146416e-01 0.0 
4.281960386245e-02 8.995974315735e-02 0.0 
2.080768084335e-02 5.841649556597e-02 0.0 
2.028519957953e-02 5.030418132493e-02 0.0 
1.570454230819e-02 3.620992369108e-02 0.0 
1.926407958915e-02 4.261446444629e-02 0.0 
2.380801034224e-02 5.664114483804e-02 0.0 
2.288568243527e-02 4.876144076424e-02 0.0 
1.776249002216e-02 3.544359226587e-02 0.0 
2.145621854733e-02 4.130474707986e-02 0.0 
1.445547990248e-02 2.591626861664e-02 0.0 
1.936428090885e-02 3.400591546056e-02 0.0 
2.508645394449e-02 4.689719424367e-02 0.0 
2.332950094632e-02 4.006864551896e-02 0.0 
1.771794230938e-02 2.894903455175e-02 0.0 
2.871150513051e-02 5.251718332440e-02 0.0 
7.197270322557e-03 1.302097575657e-02 0.0 
4.610541929780e-02 6.386453149750e-02 0.0 
1.655833079808e-02 -3.864027741172e-03 0.0 
2.062198696587e-02 1.132745004151e-02 0.0 
4.585818138567e-02 9.021930909823e-02 0.0 
7.217809609289e-03 1.274490355159e-02 0.0 
6.356716448875e-03 1.336752131201e-02 0.0 
3.711571800934e-02 4.200829618562e-02 0.0 
6.751312998193e-03 1.007791693509e-02 0.0 
3.902115429897e-02 1.073831622499e-01 0.0 
2.481532697013e-02 1.647823721200e-02 0.0 
6.299248583950e-03 9.556732452865e-03 0.0 
2.419811396192e-02 6.483959357113e-02 0.0 
2.750330485105e-02 7.088096117140e-02 0.0 
2.723190178871e-02 7.949908483623e-02 0.0 
5.114638646526e-03 1.304732077015e-02 0.0 
1.934340040322e-02 1.078230886712e-01 0.0 
4.813780745737e-03 7.944904488946e-03 0.0 
2.261965696706e-02 4.411189607241e-02 0.0 
2.731186166136e-02 4.703771436507e-02 0.0 
3.037817224885e-02 4.826696984087e-02 0.0 
2.645107621485e-02 5.465671068955e-02 0.0 
3.695408213948e-03 7.350289382106e-03 0.0 
6.296696890674e-03 1.363440695668e-02 0.0 
5.494439010394e-03 1.310137977871e-02 0.0 
8.144233055595e-03 1.962984943943e-02 0.0 
2.859126971623e-03 6.788450264172e-03 0.0 
6.855035505329e-03 1.062413854820e-02 0.0 
6.519754838096e-03 9.723572070840e-03 0.0 
-2.890177878142e-03 3.812635689319e-02 0.0 
-7.888879071413e-04 3.544865914098e-02 0.0 
-1.289147173219e-04 3.715055803909e-02 0.0 
2.632723260693e-03 3.362981376136e-02 0.0 
2.457699331727e-03 2.994185749674e-02 0.0 
7.242090894926e-03 2.886666884393e-02 0.0 
7.275425378074e-03 3.324594877617e-02 0.0 
1.340297630496e-02 2.400600018038e-02 0.0 
2.471838770818e-02 3.897249599042e-02 0.0 
1.918678401779e-03 6.072842936753e-03 0.0 
7.589261484720e-04 3.515461483362e-02 0.0 
1.394855645342e-03 3.589105026528e-02 0.0 
4.929723295220e-04 3.810774672612e-02 0.0 
-2.842293601237e-03 5.338080587229e-02 0.0 
-2.856170178454e-03 5.009171289861e-02 0.0 
-2.435806635961e-03 4.663528620287e-02 0.0 
-2.639358454597e-03 5.660601904942e-02 0.0 
3.363884744127e-02 4.862976403859e-02 0.0 
1.463072188146e-03 5.946980219473e-03 0.0 
1.016582559197e-02 3.731959445793e-02 0.0 
-3.120049686049e-03 4.988560151364e-02 0.0 
2.262514324647e-02 1.454836066113e-01 0.0 
2.481530956934e-02 1.311730912773e-01 0.0 
2.747280059961e-02 1.279503765088e-01 0.0 
2.625053747386e-02 1.146335227992e-01 0.0 
2.199482796367e-02 1.318345008285e-01 0.0 
-1.881139016396e-03 4.857886081942e-02 0.0 
-1.519814662706e-03 4.742521522234e-02 0.0 
-1.311183888205e-03 5.049206504628e-02 0.0 
-1.151967817873e-03 4.598127800770e-02 0.0 
-9.092630219667e-04 4.898901535006e-02 0.0 
-1.019486509153e-03 5.328034075605e-02 0.0 
-7.787133614961e-04 4.427457855800e-02 0.0 
-5.262609236841e-04 4.775726087343e-02 0.0 
1.816076410524e-02 1.486404332651e-01 0.0 
1.206834118144e-02 1.508711243741e-02 0.0 
5.490299784567e-03 2.559577262407e-02 0.0 
5.899692366118e-03 3.891512149421e-02 0.0 
1.394389139341e-03 3.401278955973e-02 0.0 
2.541593591674e-03 2.097122683684e-02 0.0 
-1.347764298786e-03 3.103814988780e-02 0.0 
2.265388571179e-03 1.878149021346e-02 0.0 
6.984911012945e-03 8.224394622267e-03 0.0 
1.238696465621e-02 4.391347415158e-02 0.0 
6.355674349256e-03 4.768654072367e-02 0.0 
1.180157477446e-02 5.132159556883e-02 0.0 
6.491653172240e-03 5.437206500091e-02 0.0 
1.796632444666e-03 5.088854818862e-02 0.0 
-5.467920722968e-04 6.218451165559e-02 0.0 
-2.133781766235e-04 7.269493099740e-03 0.0 
-4.130478332253e-04 5.971891031476e-02 0.0 
-7.950948431157e-04 6.133138023535e-02 0.0 
-7.435779296185e-04 6.465948195680e-02 0.0 
-1.194104220876e-03 6.240305210121e-02 0.0 
-7.805147565993e-04 5.790387402159e-02 0.0 
-3.432325229240e-04 6.661780766127e-02 0.0 
-6.258001900857e-04 6.738620703270e-02 0.0 
2.296684808232e-03 7.609630767942e-02 0.0 
1.349148283494e-03 7.637457619715e-02 0.0 
6.589194115273e-04 7.684129465146e-02 0.0 
6.676250901391e-04 7.616763107387e-02 0.0 
1.119518376565e-03 7.563346122383e-02 0.0 
2.024578330448e-03 7.566663618340e-02 0.0 
2.695297978315e-03 7.469274756740e-02 0.0 
4.142490064710e-03 7.413861918522e-02 0.0 
3.319065086508e-03 7.344517282004e-02 0.0 
1.891187220975e-03 7.370464465766e-02 0.0 
5.047054036193e-03 7.275796895191e-02 0.0 
1.007275552679e-03 7.713614396440e-02 0.0 
1.926577666606e-03 6.889853763193e-02 0.0 
7.336912986846e-04 6.174208792931e-03 0.0 
1.420437623170e-02 1.487410456256e-01 0.0 
8.962309948440e-03 6.195918273035e-02 0.0 
1.610005039698e-03 1.797591790896e-02 0.0 
2.495452029775e-03 1.479217945571e-02 0.0 
2.001108327016e-03 1.438285127894e-02 0.0 
-1.440519406038e-04 1.809846313927e-02 0.0 
-2.275552307753e-04 1.478211248337e-02 0.0 
8.695848693159e-04 1.751247281078e-02 0.0 
-2.870816846530e-03 6.081973625409e-02 0.0 
1.420604837465e-02 2.944569481442e-02 0.0 
4.496837776246e-03 4.696469962159e-02 0.0 
2.869108674386e-02 2.339644297295e-02 0.0 
-3.921829731149e-03 5.281848835713e-02 0.0 
-8.046685299718e-04 3.605368323671e-02 0.0 
-1.502734088594e-03 3.879218299511e-02 0.0 
-6.595958759075e-04 2.336734591372e-02 0.0 
-1.350145780437e-03 3.965861938732e-02 0.0 
-7.586296204479e-04 2.762028339696e-02 0.0 
4.752901985545e-03 1.293969566404e-02 0.0 
2.932204579619e-04 7.376133070807e-02 0.0 
1.195753958090e-02 1.069930352167e-01 0.0 
7.626583960771e-03 1.130302776825e-01 0.0 
7.373614052031e-03 7.302492313588e-02 0.0 
-1.837297683215e-03 6.540969827001e-02 0.0 
-1.448891460475e-03 5.444606587007e-02 0.0 
-1.104807682315e-04 6.874933188403e-02 0.0 
1.185499588905e-02 1.813120606467e-02 0.0 
4.376441399003e-02 9.965701669237e-02 0.0 
-9.557445499466e-04 4.031675983214e-02 0.0 
-2.998613620857e-03 5.653512695517e-02 0.0 
-3.515102832651e-03 5.726944130827e-02 0.0 
-4.004885623490e-03 4.960616635168e-02 0.0 
4.710310671946e-02 6.822396959145e-02 0.0 
-2.798639598256e-03 4.659654379470e-02 0.0 
4.299888284105e-04 2.919447070323e-02 0.0 
5.654114528935e-03 6.391562737322e-02 0.0 
6.660525894406e-03 6.877172272094e-02 0.0 
1.367404310243e-03 2.624944002337e-02 0.0 
-1.543420471959e-03 4.021410661421e-02 0.0 
1.694615205569e-02 9.989744675888e-02 0.0 
1.513127727781e-02 3.280531205200e-02 0.0 
-2.703505500309e-03 3.919051613964e-02 0.0 
1.080711977243e-02 6.663939656734e-02 0.0 
1.086211774123e-02 3.624257149019e-02 0.0 
2.166786653102e-02 1.152386109287e-01 0.0 
1.375171154717e-03 7.004386941348e-02 0.0 
1.234214295515e-02 1.230816210551e-01 0.0 
2.894899570721e-03 1.551213826574e-02 0.0 
2.080691891573e-02 6.668811657881e-02 0.0 
-1.223744575553e-03 6.801019778657e-02 0.0 
1.303576593415e-02 4.033021054779e-02 0.0 
4.711675030819e-02 8.068086799081e-02 0.0 
3.426177682096e-02 1.399720244845e-01 0.0 
4.685686849023e-03 3.983730357155e-02 0.0 
3.800162397724e-02 5.317347575169e-02 0.0 
1.003294102558e-02 2.585605568700e-02 0.0 
1.307055963509e-02 3.769477180715e-02 0.0 
-1.114574839842e-03 6.786179269275e-02 0.0 
2.976206715574e-04 2.268758279374e-02 0.0 
2.707880077167e-02 4.602034119668e-02 0.0 
8.817698973364e-03 5.000434761420e-02 0.0 
3.347866212208e-02 4.939808898817e-02 0.0 
1.863853491573e-02 3.723581599221e-02 0.0 
1.430232075988e-02 5.941834715351e-02 0.0 
1.463460576289e-03 3.809222014650e-02 0.0 
1.538332398948e-02 3.085980350574e-02 0.0 
4.512365780731e-02 9.937794153114e-02 0.0 
4.154574216094e-02 6.598584099751e-02 0.0 
3.569753682622e-02 6.759272954741e-02 0.0 
4.241959410838e-02 6.025517274584e-02 0.0 
-6.076944025804e-04 3.936551185367e-02 0.0 
7.698775739995e-04 2.453865389973e-02 0.0 
9.374151691280e-03 9.040851360733e-03 0.0 
4.732763845785e-02 7.617175332343e-02 0.0 
2.094955874641e-02 9.929505425024e-02 0.0 
2.033490728611e-02 3.173715942166e-02 0.0 
6.294386241370e-03 3.307977879859e-02 0.0 
4.770204897189e-02 8.743553357827e-02 0.0 
-2.498436883621e-04 2.604382575662e-02 0.0 
1.134186346175e-02 4.355573575579e-02 0.0 
-2.645795958294e-03 4.680447084755e-02 0.0 
1.468644684960e-06 7.389564368807e-02 0.0 
2.632788676861e-02 1.961665021607e-02 0.0 
1.978306674806e-02 2.738176105639e-02 0.0 
3.611646658101e-02 5.111197388476e-02 0.0 
-2.105142048967e-03 4.339430641630e-02 0.0 
1.149025143304e-02 2.721478232075e-02 0.0 
-4.398673275291e-04 2.415936447938e-02 0.0 
4.399381845693e-03 2.783749958973e-02 0.0 
2.192532375049e-02 4.834180381883e-02 0.0 
3.693386159275e-02 1.288604133053e-01 0.0 
-5.335812054686e-04 2.204111761953e-02 0.0 
9.726822452521e-03 3.861053032589e-02 0.0 
1.270614691449e-02 2.720639151062e-02 0.0 
-6.114285988399e-04 5.186870820270e-02 0.0 
1.145562180666e-02 1.785349292847e-02 0.0 
4.161318585363e-02 1.265403458666e-01 0.0 
-5.428238368701e-04 1.969849040953e-02 0.0 
7.689804707373e-03 2.908304144239e-02 0.0 
4.133235474032e-02 5.166553781009e-02 0.0 
4.017198024141e-03 1.507118371274e-01 0.0 
-3.533558440772e-04 1.236124530390e-02 0.0 
7.154073107006e-03 2.431814359647e-02 0.0 
3.853812969789e-02 5.454017145194e-02 0.0 
6.173376749868e-03 3.799723079913e-02 0.0 
3.783419623663e-02 1.409203560711e-01 0.0 
-1.970682323300e-03 4.289257041396e-02 0.0 
3.953266903625e-02 6.471718422958e-02 0.0 
4.499877730552e-03 1.296774191145e-02 0.0 
8.002919131623e-03 2.256013539854e-02 0.0 
3.029183293080e-02 8.517198608127e-02 0.0 
-2.192539308005e-03 4.617648861211e-02 0.0 
2.528732902141e-02 4.389341894545e-02 0.0 
1.550136269658e-03 7.481802209325e-02 0.0 
3.993917034147e-02 1.295216194261e-01 0.0 
-1.917102934019e-03 4.538536911982e-02 0.0 
1.304070809330e-02 2.980552665047e-02 0.0 
4.007836163043e-03 3.719688207034e-02 0.0 
9.917223617105e-03 1.743486135063e-02 0.0 
-1.618974674266e-03 4.427486382696e-02 0.0 
1.276204865964e-02 3.452507327739e-02 0.0 
-1.305092685343e-03 4.287489618779e-02 0.0 
3.931745344920e-02 1.384707212853e-01 0.0 
3.062230837620e-02 7.612568599665e-02 0.0 
-9.715853407854e-04 4.121820677869e-02 0.0 
3.567330104168e-02 5.573645324343e-02 0.0 
2.158243370526e-03 7.220788590294e-02 0.0 
3.454254967343e-02 5.013275920492e-02 0.0 
-3.217570536805e-04 2.152337684347e-02 0.0 
-3.876929382938e-03 5.001812924726e-02 0.0 
2.421346671447e-03 3.655601414127e-02 0.0 
2.723043973886e-02 6.255013770917e-02 0.0 
3.894392724922e-02 1.340915003208e-01 0.0 
3.270584178918e-03 3.438653261205e-02 0.0 
3.093352374203e-02 4.653972772180e-02 0.0 
2.991619733018e-02 4.646241117687e-02 0.0 
3.268842714346e-02 4.981518929744e-02 0.0 
3.953983084173e-03 3.150132825456e-02 0.0 
4.160929664814e-02 1.211237690879e-01 0.0 
-3.009655256506e-03 5.931124636535e-02 0.0 
-2.091507583449e-03 6.083226248612e-02 0.0 
7.581584336931e-03 3.639217462064e-02 0.0 
2.796312344279e-02 4.303742251131e-02 0.0 
5.107575611806e-04 7.508560180878e-02 0.0 
2.980025932751e-02 5.976615808467e-02 0.0 
-1.466431018581e-04 5.935768173022e-02 0.0 
3.222350667224e-03 3.613704452016e-02 0.0 
2.109306048542e-02 3.637317318574e-02 0.0 
1.180790626467e-03 1.088978826613e-01 0.0 
7.981673477171e-04 3.812086321885e-02 0.0 
-1.429424167899e-04 7.188884679122e-02 0.0 
-1.539475602763e-03 3.962446429875e-02 0.0 
2.892167318185e-02 4.751360817715e-02 0.0 
-2.201707285452e-03 4.170127698122e-02 0.0 
-3.302914401284e-03 4.452213798563e-02 0.0 
3.146968280361e-03 3.053685071646e-02 0.0 
-3.451810616936e-03 4.656954288013e-02 0.0 
4.305209932096e-04 1.451563439243e-02 0.0 
-1.056776983460e-04 6.684160355961e-03 0.0 
1.520828244798e-03 1.393989520887e-01 0.0 
3.668843203092e-02 1.283983448456e-01 0.0 
1.400935057011e-02 -1.450330602760e-02 0.0 
4.034653837327e-02 1.113123697146e-01 0.0 
-4.063261845887e-03 5.149761796169e-02 0.0 
3.183733434211e-02 5.672458740623e-02 0.0 
3.161585970734e-03 1.387147630657e-01 0.0 
-3.737495223196e-03 5.538083334408e-02 0.0 
1.317126446297e-02 2.170661630377e-02 0.0 
5.355065328776e-03 8.362375970825e-03 0.0 
2.157862794474e-03 8.441219328801e-02 0.0 
1.045541539433e-02 2.394229316448e-02 0.0 
2.541170879021e-02 4.265381910859e-02 0.0 
6.324416641455e-04 4.473672088702e-02 0.0 
9.209008844029e-03 1.518334875484e-01 0.0 
6.268388040195e-03 5.971983117271e-02 0.0 
-2.863442223698e-04 3.665100083276e-02 0.0 
3.375421578048e-02 1.177534517721e-01 0.0 
3.648557711174e-02 9.953808898174e-02 0.0 
3.223699873136e-02 7.784915441978e-02 0.0 
-8.950176022766e-04 6.764303920140e-02 0.0 
2.060959563730e-03 4.324764540562e-02 0.0 
3.111628835108e-02 1.027180514519e-01 0.0 
7.176528336716e-03 1.455522930622e-02 0.0 
1.558416513868e-02 1.375618191714e-01 0.0 
2.047013194349e-02 3.428821508298e-02 0.0 
2.666770119546e-02 7.952972790429e-02 0.0 
7.894411177511e-03 2.826608430596e-02 0.0 
1.015337437585e-02 1.679417596757e-02 0.0 
1.658136376320e-04 5.520991927480e-03 0.0 
1.548841768048e-02 2.611636949090e-02 0.0 
2.660604518507e-02 4.872489521237e-02 0.0 
2.378035967570e-02 1.200173104843e-01 0.0 
1.226418304530e-02 1.848827573980e-02 0.0 
2.946046761570e-03 7.125946722391e-02 0.0 
-8.858633294594e-05 5.399335772456e-03 0.0 
1.963531692252e-02 1.372958750853e-01 0.0 
1.900607666366e-03 2.855757243357e-02 0.0 
5.904239892902e-03 1.124115157596e-02 0.0 
9.598719260169e-04 2.774854893822e-02 0.0 
2.692053551751e-02 4.538327749875e-02 0.0 
6.513867873399e-03 1.202110777881e-01 0.0 
2.875694260117e-02 1.154591840535e-01 0.0 
-2.582746272607e-04 1.155215364913e-02 0.0 
1.239985327406e-02 2.366465206419e-02 0.0 
2.322122800883e-02 2.751277189689e-02 0.0 
3.385049740830e-03 8.606332399204e-02 0.0 
-1.597934763379e-03 6.162650201388e-02 0.0 
1.088181690657e-02 -5.302699245446e-03 0.0 
1.070819640772e-03 1.116884181713e-02 0.0 
2.132003089215e-02 3.422165879007e-02 0.0 
-3.347135138598e-04 1.163865215038e-02 0.0 
3.131312613393e-04 7.644104296894e-02 0.0 
5.539959858874e-03 6.694807062163e-02 0.0 
2.137717710184e-03 1.044304853841e-02 0.0 
1.233239038220e-02 1.853355311208e-02 0.0 
-1.852843536005e-04 2.594945500431e-02 0.0 
2.671567187692e-03 1.143207196874e-02 0.0 
1.899800181104e-02 8.118057282584e-03 0.0 
1.244060665107e-02 1.531506151030e-01 0.0 
4.007618711630e-03 7.205945895095e-02 0.0 
-1.595932050601e-04 5.543911378568e-03 0.0 
4.660989464569e-03 2.703352933712e-02 0.0 
-1.107806343225e-03 5.930148347353e-02 0.0 
2.792126374585e-02 1.380290680048e-01 0.0 
-4.516938043728e-04 6.995407389948e-02 0.0 
1.535244700917e-02 2.424910612579e-02 0.0 
3.273570660361e-03 5.639775132953e-02 0.0 
3.153469774652e-03 2.569929163949e-02 0.0 
3.507792341694e-03 1.075067768766e-02 0.0 
9.241472760018e-03 2.354890599298e-02 0.0 
3.264695956224e-03 5.795603832522e-03 0.0 
1.492023776830e-02 -9.189810208456e-03 0.0 
9.204529729582e-03 1.479217425674e-02 0.0 
6.617587410093e-03 1.747550073769e-02 0.0 
6.953275102304e-03 1.524895812700e-01 0.0 
1.121862121856e-02 2.414988741833e-02 0.0 
-1.010096265268e-03 6.531655093157e-02 0.0 
1.076913342167e-03 7.261801719777e-02 0.0 
1.833612637962e-04 1.286721817839e-02 0.0 
6.911077478300e-04 7.683111428804e-02 0.0 
1.181382290159e-03 1.524030929347e-01 0.0 
-3.979966641164e-05 5.467774226071e-03 0.0 
8.330631588380e-04 7.469935468035e-02 0.0 
2.518287382692e-03 1.282279296458e-01 0.0 
1.189942085344e-02 1.850273409485e-02 0.0 
-2.699958368026e-04 5.126808098605e-02 0.0 
1.460806420301e-03 5.573937030509e-02 0.0 
-6.228724759196e-04 3.895495601934e-02 0.0 
1.469022156287e-02 -1.346042636698e-02 0.0 
2.045197158041e-03 1.009358212739e-01 0.0 
8.659946086206e-03 1.470499472511e-02 0.0 
7.336099524816e-03 2.333659297528e-02 0.0 
5.251638481843e-03 1.116610091914e-01 0.0 
2.410596907654e-02 1.934015003567e-02 0.0 
1.653267122518e-02 2.573822880908e-02 0.0 
-1.141209333970e-03 5.628793465666e-02 0.0 
1.648586743356e-02 2.494727270077e-02 0.0 
8.598216304985e-03 1.891430975905e-02 0.0 
1.629511165350e-02 9.828623105552e-03 0.0 
-2.172375886537e-04 4.668141812658e-02 0.0 
4.722904214974e-03 7.046557837764e-02 0.0 
8.836737535446e-05 1.019726511607e-02 0.0 
-7.477766123365e-04 5.482137756449e-02 0.0 

TENSORS node_materi_stress float
9.867775295271e-01 -1.841972718586e-01 0.0 
-1.841972718586e-01 -8.584086672384e+00 0.0 
0.0 0.0 8.958801247790e-02 
-2.850326221868e+01 1.248430038637e-01 0.0 
1.248430038637e-01 -8.844160122116e+00 0.0 
0.0 0.0 -1.080422670224e+01 
-1.683319743560e+02 -4.622091865861e-01 0.0 
-4.622091865861e-01 -3.935923797191e+02 0.0 
0.0 0.0 -1.681773062225e+02 
-8.499429748762e+01 1.189392408337e+00 0.0 
1.189392408337e+00 -1.949819390426e+02 0.0 
0.0 0.0 -8.359287095905e+01 
-2.982608100735e-01 -3.115028930234e-01 0.0 
-3.115028930234e-01 -2.093178977707e+01 0.0 
0.0 0.0 -5.049806983838e+00 
-7.810333584551e+00 -5.533427357797e-01 0.0 
-5.533427357797e-01 -4.020270884155e+01 0.0 
0.0 0.0 -1.400391272783e+01 
-1.859378927970e+01 -5.290328261726e-01 0.0 
-5.290328261726e-01 -5.838927354033e+01 0.0 
0.0 0.0 -2.269491884601e+01 
-2.996492462117e+01 -5.302006047673e-01 0.0 
-5.302006047673e-01 -7.885531988717e+01 0.0 
0.0 0.0 -3.224607335250e+01 
-4.087164077743e+01 -5.192205686781e-01 0.0 
-5.192205686781e-01 -9.887037228549e+01 0.0 
0.0 0.0 -4.152260391888e+01 
-5.142502438632e+01 -5.535853850199e-01 0.0 
-5.535853850199e-01 -1.188079692261e+02 0.0 
0.0 0.0 -5.066989808374e+01 
-6.144105659542e+01 -6.331233241160e-01 0.0 
-6.331233241160e-01 -1.388923994917e+02 0.0 
0.0 0.0 -5.970003682614e+01 
-7.098261167653e+01 -6.541963609273e-01 0.0 
-6.541963609273e-01 -1.591588901157e+02 0.0 
0.0 0.0 -6.864245053767e+01 
-8.015625110808e+01 -6.879837204832e-01 0.0 
-6.879837204832e-01 -1.795505709952e+02 0.0 
0.0 0.0 -7.751204663099e+01 
-8.897729483749e+01 -7.751095188819e-01 0.0 
-7.751095188819e-01 -2.002604494523e+02 0.0 
0.0 0.0 -8.637132328694e+01 
-9.767814370911e+01 -9.090279554132e-01 0.0 
-9.090279554132e-01 -2.215789176288e+02 0.0 
0.0 0.0 -9.537711840138e+01 
-1.063489914003e+02 -8.482432346630e-01 0.0 
-8.482432346630e-01 -2.421642927776e+02 0.0 
0.0 0.0 -1.041539852534e+02 
-1.140787126188e+02 -1.047781795928e+00 0.0 
-1.047781795928e+00 -2.607831474796e+02 0.0 
0.0 0.0 -1.120585580295e+02 
-1.222680278162e+02 -6.039125454454e-01 0.0 
-6.039125454454e-01 -2.813718734999e+02 0.0 
0.0 0.0 -1.206919703948e+02 
-1.307329698367e+02 -5.284129008577e-01 0.0 
-5.284129008577e-01 -3.023167629872e+02 0.0 
0.0 0.0 -1.295149198472e+02 
-1.389784356458e+02 -4.724372883055e-01 0.0 
-4.724372883055e-01 -3.224912524876e+02 0.0 
0.0 0.0 -1.380409064400e+02 
-1.472713433550e+02 -3.919527115591e-01 0.0 
-3.919527115591e-01 -3.427030988731e+02 0.0 
0.0 0.0 -1.465923326684e+02 
-1.556216049017e+02 -4.018421224337e-01 0.0 
-4.018421224337e-01 -3.629553424908e+02 0.0 
0.0 0.0 -1.551730842178e+02 
-1.637267837655e+02 -4.653552386291e-01 0.0 
-4.653552386291e-01 -3.822600732094e+02 0.0 
0.0 0.0 -1.633960570925e+02 
-8.512705886824e+01 2.107952005682e+00 0.0 
2.107952005682e+00 -1.963205055051e+02 0.0 
0.0 0.0 -8.403426931201e+01 
-8.467378542199e+01 3.820063219683e+00 0.0 
3.820063219683e+00 -1.954003829554e+02 0.0 
0.0 0.0 -8.362225051322e+01 
-8.497520996197e+01 5.945783001740e+00 0.0 
5.945783001740e+00 -1.959622671773e+02 0.0 
0.0 0.0 -8.388124314177e+01 
-8.510399427061e+01 7.559928029938e+00 0.0 
7.559928029938e+00 -1.964804117373e+02 0.0 
0.0 0.0 -8.407532180237e+01 
-8.557991653070e+01 9.735873610169e+00 0.0 
9.735873610169e+00 -1.965905998236e+02 0.0 
0.0 0.0 -8.425115490630e+01 
-8.625479344303e+01 1.206792587877e+01 0.0 
1.206792587877e+01 -1.982485346982e+02 0.0 
0.0 0.0 -8.495099844238e+01 
-8.755714075395e+01 1.463794709257e+01 0.0 
1.463794709257e+01 -2.002032037883e+02 0.0 
0.0 0.0 -8.592810336269e+01 
-8.812119130092e+01 1.751331331250e+01 0.0 
1.751331331250e+01 -2.018904095229e+02 0.0 
0.0 0.0 -8.660348024714e+01 
-8.981229041870e+01 2.050743069333e+01 0.0 
2.050743069333e+01 -2.053418844685e+02 0.0 
0.0 0.0 -8.814625246617e+01 
-9.089189449138e+01 2.324692094922e+01 0.0 
2.324692094922e+01 -2.085374332745e+02 0.0 
0.0 0.0 -8.942879832977e+01 
-9.292511160164e+01 2.642619848000e+01 0.0 
2.642619848000e+01 -2.118788035649e+02 0.0 
0.0 0.0 -9.104117454995e+01 
-9.503328285178e+01 2.977218908408e+01 0.0 
2.977218908408e+01 -2.174401797952e+02 0.0 
0.0 0.0 -9.334203879410e+01 
-9.818560433522e+01 3.304733991287e+01 0.0 
3.304733991287e+01 -2.241754039609e+02 0.0 
0.0 0.0 -9.630830248885e+01 
-1.003166403902e+02 3.611750295276e+01 0.0 
3.611750295276e+01 -2.304117249270e+02 0.0 
0.0 0.0 -9.881850959515e+01 
-1.036651136504e+02 3.896776613046e+01 0.0 
3.896776613046e+01 -2.377398036739e+02 0.0 
0.0 0.0 -1.020214751973e+02 
-1.063192936005e+02 4.128512090301e+01 0.0 
4.128512090301e+01 -2.453818997089e+02 0.0 
0.0 0.0 -1.051103579928e+02 
-1.101250268085e+02 4.347782065185e+01 0.0 
4.347782065185e+01 -2.545177507944e+02 0.0 
0.0 0.0 -1.089928332809e+02 
-1.144741794555e+02 4.524974944366e+01 0.0 
4.524974944366e+01 -2.652209173480e+02 0.0 
0.0 0.0 -1.135085290411e+02 
-1.181257963917e+02 4.636356829702e+01 0.0 
4.636356829702e+01 -2.753702250423e+02 0.0 
0.0 0.0 -1.176488064302e+02 
-1.215865786553e+02 4.661975710475e+01 0.0 
4.661975710475e+01 -2.850479688501e+02 0.0 
0.0 0.0 -1.215903642516e+02 
-1.243375468090e+02 4.566308767639e+01 0.0 
4.566308767639e+01 -2.928375845580e+02 0.0 
0.0 0.0 -1.247525394101e+02 
-1.263595815325e+02 4.424157759927e+01 0.0 
4.424157759927e+01 -2.987344565095e+02 0.0 
0.0 0.0 -1.271282114126e+02 
-1.286497369598e+02 4.281116224449e+01 0.0 
4.281116224449e+01 -3.045599235758e+02 0.0 
0.0 0.0 -1.295628981607e+02 
-1.312683717035e+02 4.112552812558e+01 0.0 
4.112552812558e+01 -3.107491276231e+02 0.0 
0.0 0.0 -1.322052497980e+02 
-1.339649445876e+02 3.949748024447e+01 0.0 
3.949748024447e+01 -3.168750453134e+02 0.0 
0.0 0.0 -1.348519969703e+02 
-1.365684298747e+02 3.789291617331e+01 0.0 
3.789291617331e+01 -3.230736149261e+02 0.0 
0.0 0.0 -1.374926134402e+02 
-1.391098925436e+02 3.607987746253e+01 0.0 
3.607987746253e+01 -3.290782172577e+02 0.0 
0.0 0.0 -1.400564329404e+02 
-1.414281487028e+02 3.425506805807e+01 0.0 
3.425506805807e+01 -3.346854098763e+02 0.0 
0.0 0.0 -1.424340675737e+02 
-1.437622971250e+02 3.234701928350e+01 0.0 
3.234701928350e+01 -3.402330749674e+02 0.0 
0.0 0.0 -1.447986116277e+02 
-1.467905805422e+02 3.068694091864e+01 0.0 
3.068694091864e+01 -3.466673251890e+02 0.0 
0.0 0.0 -1.476373717194e+02 
-1.488544224036e+02 2.832987595848e+01 0.0 
2.832987595848e+01 -3.526699576104e+02 0.0 
0.0 0.0 -1.500573140042e+02 
-1.510366510272e+02 2.630387486738e+01 0.0 
2.630387486738e+01 -3.581335133650e+02 0.0 
0.0 0.0 -1.523510493177e+02 
-1.539846227658e+02 2.392013332126e+01 0.0 
2.392013332126e+01 -3.649912377737e+02 0.0 
0.0 0.0 -1.552927581619e+02 
-1.568327278369e+02 2.162699641012e+01 0.0 
2.162699641012e+01 -3.717421647056e+02 0.0 
0.0 0.0 -1.581724677627e+02 
-1.595520011500e+02 1.911189876050e+01 0.0 
1.911189876050e+01 -3.785070603070e+02 0.0 
0.0 0.0 -1.610177184371e+02 
-1.623158049603e+02 1.639427891998e+01 0.0 
1.639427891998e+01 -3.848630325837e+02 0.0 
0.0 0.0 -1.637536512632e+02 
-1.643491272134e+02 1.354138972223e+01 0.0 
1.354138972223e+01 -3.901336353350e+02 0.0 
0.0 0.0 -1.659448287645e+02 
-1.661419252920e+02 1.058147710451e+01 0.0 
1.058147710451e+01 -3.940098174773e+02 0.0 
0.0 0.0 -1.676455228308e+02 
-1.671812406367e+02 7.965542597339e+00 0.0 
7.965542597339e+00 -3.962551656457e+02 0.0 
0.0 0.0 -1.686309218847e+02 
-1.678966669305e+02 5.538142164820e+00 0.0 
5.538142164820e+00 -3.972457167406e+02 0.0 
0.0 0.0 -1.691427151013e+02 
-1.686592401181e+02 3.806764378844e+00 0.0 
3.806764378844e+00 -3.979115503018e+02 0.0 
0.0 0.0 -1.695712371260e+02 
-1.692982259442e+02 2.283531975974e+00 0.0 
2.283531975974e+00 -3.984530609187e+02 0.0 
0.0 0.0 -1.699253860589e+02 
-1.695425742660e+02 1.349796411329e+00 0.0 
1.349796411329e+00 -3.983149406770e+02 0.0 
0.0 0.0 -1.699572544829e+02 
-1.680742372349e+02 5.055683271376e-01 0.0 
5.055683271376e-01 -3.951310006054e+02 0.0 
0.0 0.0 -1.685615713521e+02 
-1.691298846160e+02 -1.584609186032e-02 0.0 
-1.584609186032e-02 -3.963935003803e+02 0.0 
0.0 0.0 -1.692570154989e+02 
-1.685006150400e+02 -2.419916098375e-01 0.0 
-2.419916098375e-01 -3.949467608122e+02 0.0 
0.0 0.0 -1.686342127557e+02 
-1.686077311692e+02 -1.410226850046e-01 0.0 
-1.410226850046e-01 -3.948819488739e+02 0.0 
0.0 0.0 -1.686469040129e+02 
-1.688162965878e+02 -3.339301757906e-01 0.0 
-3.339301757906e-01 -3.951210341650e+02 0.0 
0.0 0.0 -1.687811992258e+02 
-1.686829110282e+02 -1.691334632601e-01 0.0 
-1.691334632601e-01 -3.947717618352e+02 0.0 
0.0 0.0 -1.686364018590e+02 
-3.303141707623e+01 2.378416252902e-01 0.0 
2.378416252902e-01 -2.052728235901e+01 0.0 
0.0 0.0 -1.566760983057e+01 
-4.067706705291e+01 3.813250454752e-01 0.0 
3.813250454752e-01 -4.024344438448e+01 0.0 
0.0 0.0 -2.387615343122e+01 
-4.819038436576e+01 4.440869514169e-01 0.0 
4.440869514169e-01 -5.998496394537e+01 0.0 
0.0 0.0 -3.205260449334e+01 
-5.508871129766e+01 5.594650240083e-01 0.0 
5.594650240083e-01 -7.950130990735e+01 0.0 
0.0 0.0 -3.997700636150e+01 
-6.169842116849e+01 5.976029757541e-01 0.0 
5.976029757541e-01 -9.969298305975e+01 0.0 
0.0 0.0 -4.801742126847e+01 
-6.812990755688e+01 7.356558387482e-01 0.0 
7.356558387482e-01 -1.202455223538e+02 0.0 
0.0 0.0 -5.611262897320e+01 
-7.364520428782e+01 7.640938337817e-01 0.0 
7.640938337817e-01 -1.407680964347e+02 0.0 
0.0 0.0 -6.392399021676e+01 
-7.844171664195e+01 9.528610263616e-01 0.0 
9.528610263616e-01 -1.612581450046e+02 0.0 
0.0 0.0 -7.150995849398e+01 
-8.359576511700e+01 1.048924192893e+00 0.0 
1.048924192893e+00 -1.828471861044e+02 0.0 
0.0 0.0 -7.953288536643e+01 
-4.816022626720e+01 2.656931863859e+01 0.0 
2.656931863859e+01 -7.130511983202e+01 0.0 
0.0 0.0 -3.626298798567e+01 
-6.129568239209e+01 1.863905397703e+01 0.0 
1.863905397703e+01 -2.347283462032e+01 0.0 
0.0 0.0 -2.503055510372e+01 
-2.778156702755e+01 1.929480186189e+01 0.0 
1.929480186189e+01 -2.191792815559e+01 0.0 
0.0 0.0 -1.459017674402e+01 
-2.822378530374e+01 1.852319639210e+01 0.0 
1.852319639210e+01 -2.089928182516e+01 0.0 
0.0 0.0 -1.302893175754e+01 
-2.841857232949e+01 1.921411845391e+01 0.0 
1.921411845391e+01 -2.134522476840e+01 0.0 
0.0 0.0 -1.378190540247e+01 
-2.776299999455e+01 1.884440252925e+01 0.0 
1.884440252925e+01 -2.041213673727e+01 0.0 
0.0 0.0 -1.405254101955e+01 
-2.805666765203e+01 1.894536790174e+01 0.0 
1.894536790174e+01 -2.062286378840e+01 0.0 
0.0 0.0 -1.420385943213e+01 
-2.852301428521e+01 1.919615874028e+01 0.0 
1.919615874028e+01 -2.124595430285e+01 0.0 
0.0 0.0 -1.453069057642e+01 
-2.894992776892e+01 1.943845933522e+01 0.0 
1.943845933522e+01 -2.186741399373e+01 0.0 
0.0 0.0 -1.484520252879e+01 
-3.020097197850e+01 1.961317094749e+01 0.0 
1.961317094749e+01 -2.196633348219e+01 0.0 
0.0 0.0 -1.525019163821e+01 
-3.627292296246e+01 2.004788556643e+01 0.0 
2.004788556643e+01 -2.193659575265e+01 0.0 
0.0 0.0 -1.706285561453e+01 
-2.784976484486e+01 -1.794258651313e-02 0.0 
-1.794258651313e-02 -7.379991360654e+00 0.0 
0.0 0.0 -1.016892686166e+01 
-2.798098365399e+01 1.029829788012e-01 0.0 
1.029829788012e-01 -8.134491179442e+00 0.0 
0.0 0.0 -1.043464245003e+01 
-2.807598312853e+01 -2.882001053446e-02 0.0 
-2.882001053446e-02 -8.174043278067e+00 0.0 
0.0 0.0 -1.047500792198e+01 
-2.808723796488e+01 3.350877770633e-02 0.0 
3.350877770633e-02 -7.526443607698e+00 0.0 
0.0 0.0 -1.028410447177e+01 
-2.952972024054e+01 6.498002339788e-02 0.0 
6.498002339788e-02 -1.012036417558e+01 0.0 
0.0 0.0 -1.149502532483e+01 
-2.875738533333e+01 -1.580071047448e-02 0.0 
-1.580071047448e-02 -8.121069252266e+00 0.0 
0.0 0.0 -1.066353637568e+01 
-2.902672124514e+01 1.410395245408e-01 0.0 
1.410395245408e-01 -7.765612425005e+00 0.0 
0.0 0.0 -1.063770010104e+01 
-2.930497807957e+01 -1.332580626520e-02 0.0 
-1.332580626520e-02 -8.073163146865e+00 0.0 
0.0 0.0 -1.081344236793e+01 
-3.026182582257e+01 2.438184263575e-01 0.0 
2.438184263575e-01 -9.036326052773e+00 0.0 
0.0 0.0 -1.138944556260e+01 
-3.105356371092e+01 3.059510152132e-01 0.0 
3.059510152132e-01 -8.739991330945e+00 0.0 
0.0 0.0 -1.153806651256e+01 
-3.253638675598e+01 7.918077430357e-01 0.0 
7.918077430357e-01 -8.658609174778e+00 0.0 
0.0 0.0 -1.195849877923e+01 
-3.537606443714e+01 1.684774459783e+00 0.0 
1.684774459783e+00 -9.019936191498e+00 0.0 
0.0 0.0 -1.291880018859e+01 
-4.118218519094e+01 3.712075791600e+00 0.0 
3.712075791600e+00 -1.011424527488e+01 0.0 
0.0 0.0 -1.498892913974e+01 
-5.197760658002e+01 9.105106643230e+00 0.0 
9.105106643230e+00 -1.336619542850e+01 0.0 
0.0 0.0 -1.920314060256e+01 
-6.705502493563e+01 1.342908701310e+01 0.0 
1.342908701310e+01 -9.516003289363e+01 0.0 
0.0 0.0 -4.902565036535e+01 
-8.527938955973e+01 3.134600912511e+00 0.0 
3.134600912511e+00 -1.068151624430e+02 0.0 
0.0 0.0 -5.799544038936e+01 
-9.423943723409e+01 -1.863403643932e-01 0.0 
-1.863403643932e-01 -1.035441872372e+02 0.0 
0.0 0.0 -5.966925769021e+01 
-8.303220286848e+01 -1.176387218414e+01 0.0 
-1.176387218414e+01 -9.145430387618e+01 0.0 
0.0 0.0 -5.267956958820e+01 
-4.562613743913e+01 -2.421026362785e+01 0.0 
-2.421026362785e+01 -5.886020167798e+01 0.0 
0.0 0.0 -3.162311425966e+01 
-1.168257150122e+01 -1.120990192132e+01 0.0 
-1.120990192132e+01 -2.027972417718e+01 0.0 
0.0 0.0 -5.637503056367e+00 
-1.580029940193e-02 -4.395284134809e-01 0.0 
-4.395284134809e-01 -9.701836856321e+00 0.0 
0.0 0.0 -1.051617444334e+00 
9.991106785856e-01 -1.430249085202e-02 0.0 
-1.430249085202e-02 -7.094786094101e+00 0.0 
0.0 0.0 -3.377058838286e-01 
9.995757287216e-01 -1.928349144038e-02 0.0 
-1.928349144038e-02 -8.057155888325e+00 0.0 
0.0 0.0 1.000000000000e+00 
9.991390619583e-01 -2.266250035131e-02 0.0 
-2.266250035131e-02 -7.858488763868e+00 0.0 
0.0 0.0 1.000000000000e+00 
9.975396275373e-01 1.395091607530e-02 0.0 
1.395091607530e-02 -8.257533595481e+00 0.0 
0.0 0.0 3.240903642255e-01 
9.970150324427e-01 1.161391138940e-02 0.0 
1.161391138940e-02 -8.612199144112e+00 0.0 
0.0 0.0 7.599904939171e-01 
9.969468472497e-01 -5.976338279051e-02 0.0 
-5.976338279051e-02 -8.381337935428e+00 0.0 
0.0 0.0 6.031773258922e-01 
9.987796415325e-01 -2.943249165447e-02 0.0 
-2.943249165447e-02 -7.773555508300e+00 0.0 
0.0 0.0 6.453998301098e-01 
9.999595333657e-01 1.810117621194e-03 0.0 
1.810117621194e-03 -7.938630636729e+00 0.0 
0.0 0.0 5.629888113255e-01 
9.999087414112e-01 -2.774810444114e-03 0.0 
-2.774810444114e-03 -8.167282797988e+00 0.0 
0.0 0.0 5.758603426343e-01 
9.998964888679e-01 -3.854332374940e-03 0.0 
-3.854332374940e-03 -8.229355850768e+00 0.0 
0.0 0.0 5.027563914225e-01 
9.988736739380e-01 -1.556140454834e-02 0.0 
-1.556140454834e-02 -7.865446098646e+00 0.0 
0.0 0.0 4.993207415934e-01 
9.978599138580e-01 -1.590300239585e-02 0.0 
-1.590300239585e-02 -7.131209975423e+00 0.0 
0.0 0.0 5.561316812937e-01 
-2.524802856644e+01 1.989859810948e+01 0.0 
1.989859810948e+01 -2.722037048661e+01 0.0 
0.0 0.0 -1.495955937299e+01 
-2.804327634841e+01 1.879736664970e+01 0.0 
1.879736664970e+01 -2.101560753885e+01 0.0 
0.0 0.0 -1.372681006709e+01 
-2.823126968073e+01 1.874974373477e+01 0.0 
1.874974373477e+01 -2.095398940675e+01 0.0 
0.0 0.0 -1.284453846293e+01 
-2.860804890944e+01 1.919180484817e+01 0.0 
1.919180484817e+01 -2.119793429301e+01 0.0 
0.0 0.0 -1.443496417668e+01 
-2.818757814039e+01 1.906222403526e+01 0.0 
1.906222403526e+01 -2.094195207394e+01 0.0 
0.0 0.0 -1.433885906430e+01 
-2.798851535841e+01 1.903113959190e+01 0.0 
1.903113959190e+01 -2.091939323998e+01 0.0 
0.0 0.0 -1.427237257952e+01 
-2.856801378410e+01 1.931292893241e+01 0.0 
1.931292893241e+01 -2.160973883018e+01 0.0 
0.0 0.0 -1.465332578428e+01 
-2.926283459992e+01 1.948690142823e+01 0.0 
1.948690142823e+01 -2.190167211200e+01 0.0 
0.0 0.0 -1.494935201358e+01 
-3.214395802570e+01 1.978473950683e+01 0.0 
1.978473950683e+01 -2.190721169986e+01 0.0 
0.0 0.0 -1.581535091767e+01 
-4.768443362543e+01 2.013715127480e+01 0.0 
2.013715127480e+01 -2.282830978633e+01 0.0 
0.0 0.0 -2.075382302353e+01 
-3.478287201881e+01 2.331844887709e+01 0.0 
2.331844887709e+01 -3.538186382197e+01 0.0 
0.0 0.0 -1.955351321465e+01 
-1.483002073796e+02 2.198879729419e+01 0.0 
2.198879729419e+01 -3.606726790882e+02 0.0 
0.0 0.0 -1.522918659403e+02 
9.178464286875e-04 7.619645187325e-02 0.0 
7.619645187325e-02 -1.659242784463e+01 0.0 
0.0 0.0 -1.903771947005e+00 
-4.640945007340e+01 -2.208472749485e+01 0.0 
-2.208472749485e+01 -8.613400199335e+01 0.0 
0.0 0.0 -4.045762036359e+01 
-1.594364844791e+02 8.573640940341e+00 0.0 
8.573640940341e+00 -3.875359814363e+02 0.0 
0.0 0.0 -1.636917397746e+02 
-3.433881005981e+01 2.303878024060e+01 0.0 
2.303878024060e+01 -3.338096448485e+01 0.0 
0.0 0.0 -1.990321222856e+01 
-9.370475449247e+01 -8.270508181362e-01 0.0 
-8.270508181362e-01 -2.117670504280e+02 0.0 
0.0 0.0 -9.124154147613e+01 
-1.378326451376e+02 3.044621775148e+01 0.0 
3.044621775148e+01 -3.345678731088e+02 0.0 
0.0 0.0 -1.413201554739e+02 
-3.524843983283e+01 2.325047750951e+01 0.0 
2.325047750951e+01 -3.314285410895e+01 0.0 
0.0 0.0 -2.011738818253e+01 
-1.291347961857e+02 3.790273921756e+01 0.0 
3.790273921756e+01 -3.121828198372e+02 0.0 
0.0 0.0 -1.319952848069e+02 
-3.911072681867e+01 2.444060430780e+01 0.0 
2.444060430780e+01 -3.492071375761e+01 0.0 
0.0 0.0 -2.180943217288e+01 
-1.646774553311e+02 1.395750616173e+00 0.0 
1.395750616173e+00 -3.907659445087e+02 0.0 
0.0 0.0 -1.662330199519e+02 
8.277064054799e-01 -3.746803229639e-02 0.0 
-3.746803229639e-02 -1.634418722087e+01 0.0 
0.0 0.0 -2.920779546608e+00 
-1.207211297819e+02 4.467385267077e+01 0.0 
4.467385267077e+01 -2.882346180821e+02 0.0 
0.0 0.0 -1.222867243592e+02 
-6.246460572471e+01 2.430356085278e+01 0.0 
2.430356085278e+01 -3.708227741371e+01 0.0 
0.0 0.0 -2.946406494153e+01 
-5.703228756678e+01 -5.212786733742e-01 0.0 
-5.212786733742e-01 -1.298076031371e+02 0.0 
0.0 0.0 -5.565196721117e+01 
-1.167345469028e+02 -8.578800710148e-01 0.0 
-8.578800710148e-01 -2.680695110193e+02 0.0 
0.0 0.0 -1.150412173766e+02 
-1.144446758471e+02 4.523011422855e+01 0.0 
4.523011422855e+01 -2.615978612609e+02 0.0 
0.0 0.0 -1.124127611324e+02 
-1.025043183380e+02 3.660027421005e+01 0.0 
3.660027421005e+01 -2.253602884957e+02 0.0 
0.0 0.0 -9.795938205010e+01 
-8.602985239649e+01 1.072795008911e+01 0.0 
1.072795008911e+01 -1.894378810090e+02 0.0 
0.0 0.0 -8.224032002166e+01 
-8.961803266126e+01 1.825260372559e+01 0.0 
1.825260372559e+01 -1.931122585478e+02 0.0 
0.0 0.0 -8.441908736271e+01 
-9.529231148901e+01 2.765612280054e+01 0.0 
2.765612280054e+01 -2.068321738946e+02 0.0 
0.0 0.0 -9.023734561508e+01 
-5.208002416620e+01 8.692928734687e+00 0.0 
8.692928734687e+00 -2.190659817161e+01 0.0 
0.0 0.0 -2.179598670134e+01 
-3.672693684615e+01 1.021076656512e+00 0.0 
1.021076656512e+00 -1.775851870017e+01 0.0 
0.0 0.0 -1.594563666390e+01 
-3.440834501219e+01 5.297770690979e-01 0.0 
5.297770690979e-01 -1.883595467130e+01 0.0 
0.0 0.0 -1.557328990505e+01 
-5.859621321393e+01 7.446988050872e-01 0.0 
7.446988050872e-01 -8.965548881930e+01 0.0 
0.0 0.0 -4.407551060997e+01 
-1.649831856933e+02 -1.750323386039e-01 0.0 
-1.750323386039e-01 -3.876260742635e+02 0.0 
0.0 0.0 -1.653827779870e+02 
-5.251504110315e+01 1.161568217501e+01 0.0 
1.161568217501e+01 -1.095470658493e+02 0.0 
0.0 0.0 -4.943816072287e+01 
5.701092787618e-01 2.929618756210e-02 0.0 
2.929618756210e-02 -1.707584256352e+01 0.0 
0.0 0.0 -3.333800584826e+00 
-1.427554245885e+02 -3.721677948078e-01 0.0 
-3.721677948078e-01 -3.319949728245e+02 0.0 
0.0 0.0 -1.420251192239e+02 
-3.170568995139e+01 3.789115455703e-02 0.0 
3.789115455703e-02 -1.649121350030e+01 0.0 
0.0 0.0 -1.405907103551e+01 
-2.420654852340e+01 -1.032409169507e-01 0.0 
-1.032409169507e-01 -6.850125129729e+01 0.0 
0.0 0.0 -2.741233994621e+01 
-1.074243832377e+02 4.120478760421e+01 0.0 
4.120478760421e+01 -2.385150267922e+02 0.0 
0.0 0.0 -1.033818230090e+02 
-1.342837704658e+02 3.438839700625e+01 0.0 
3.438839700625e+01 -3.245386290560e+02 0.0 
0.0 0.0 -1.372467198565e+02 
-1.245304464293e+02 4.130897725911e+01 0.0 
4.130897725911e+01 -3.003433721934e+02 0.0 
0.0 0.0 -1.270621455868e+02 
-1.415809378623e+02 2.658994858427e+01 0.0 
2.658994858427e+01 -3.453773237367e+02 0.0 
0.0 0.0 -1.456874784797e+02 
-1.538883266130e+02 1.711220286873e+01 0.0 
1.711220286873e+01 -3.743858563621e+02 0.0 
0.0 0.0 -1.580822548925e+02 
-1.586025818620e+01 -1.310159167228e+01 0.0 
-1.310159167228e+01 -2.935454734961e+01 0.0 
0.0 0.0 -1.129628616000e+01 
-4.103596454711e+01 2.714805982782e+00 0.0 
2.714805982782e+00 -1.783678785615e+01 0.0 
0.0 0.0 -1.726182572098e+01 
-1.606053596133e+02 3.831698538137e+00 0.0 
3.831698538137e+00 -3.873615877679e+02 0.0 
0.0 0.0 -1.639900842144e+02 
-7.074891397280e+01 1.172716323872e+00 0.0 
1.172716323872e+00 -1.300016523619e+02 0.0 
0.0 0.0 -5.982516990040e+01 
4.800410063105e-01 2.487021725810e-01 0.0 
2.487021725810e-01 -1.751225546934e+01 0.0 
0.0 0.0 -3.422146034695e+00 
-7.568217008767e+01 -7.256077318145e-01 0.0 
-7.256077318145e-01 -1.695190181472e+02 0.0 
0.0 0.0 -7.316035647047e+01 
-8.536656612519e+01 6.565499765109e+00 0.0 
6.565499765109e+00 -1.909568152938e+02 0.0 
0.0 0.0 -8.249701442571e+01 
-3.595030345706e+01 2.389641637308e+01 0.0 
2.389641637308e+01 -3.568070357302e+01 0.0 
0.0 0.0 -2.108930210902e+01 
-3.456392899004e+01 2.305428196157e+01 0.0 
2.305428196157e+01 -3.346105939092e+01 0.0 
0.0 0.0 -1.892720173246e+01 
-3.662755752963e+01 2.385189439805e+01 0.0 
2.385189439805e+01 -3.454982588900e+01 0.0 
0.0 0.0 -2.095321502559e+01 
-4.582303692558e+01 2.541682429556e+01 0.0 
2.541682429556e+01 -3.495490182288e+01 0.0 
0.0 0.0 -2.383338162454e+01 
-3.521185789645e+01 2.474035470199e+01 0.0 
2.474035470199e+01 -4.457481678353e+01 0.0 
0.0 0.0 -2.350732451241e+01 
-4.523381601101e+01 2.747306928896e-01 0.0 
2.747306928896e-01 -5.162890493170e+01 0.0 
0.0 0.0 -2.865881628281e+01 
-1.664092824907e+02 -2.865153453894e-01 0.0 
-2.865153453894e-01 -3.896365965088e+02 0.0 
0.0 0.0 -1.664137636998e+02 
6.373660632449e-01 -1.351486761324e-01 0.0 
-1.351486761324e-01 -1.623628134189e+01 0.0 
0.0 0.0 -3.066756325343e+00 
-8.060680255239e+01 1.585934611030e+00 0.0 
1.585934611030e+00 -1.707538943967e+02 0.0 
0.0 0.0 -7.500820908473e+01 
-6.309739297294e+01 2.135607626313e+01 0.0 
2.135607626313e+01 -3.731067849037e+01 0.0 
0.0 0.0 -2.972242143899e+01 
-6.886474351581e+01 2.678223104228e+01 0.0 
2.678223104228e+01 -5.834527376343e+01 0.0 
0.0 0.0 -3.776300518377e+01 
-6.930770024697e+01 2.304921887405e+01 0.0 
2.304921887405e+01 -5.803023831265e+01 0.0 
0.0 0.0 -3.780138156789e+01 
-7.414627444343e+01 2.928666597688e+01 0.0 
2.928666597688e+01 -8.180599653642e+01 0.0 
0.0 0.0 -4.638568129396e+01 
-7.560838710113e+01 2.659057241673e+01 0.0 
2.659057241673e+01 -8.430899393084e+01 0.0 
0.0 0.0 -4.757521430959e+01 
-7.945378020649e+01 3.091151069542e+01 0.0 
3.091151069542e+01 -1.046430105314e+02 0.0 
0.0 0.0 -5.482903722138e+01 
-7.772442983502e+01 3.263959026331e+01 0.0 
3.263959026331e+01 -1.028322379147e+02 0.0 
0.0 0.0 -5.376700032491e+01 
-8.297106206049e+01 3.395344522047e+01 0.0 
3.395344522047e+01 -1.246684627490e+02 0.0 
0.0 0.0 -6.189185744286e+01 
-8.092207683904e+01 3.511153212160e+01 0.0 
3.511153212160e+01 -1.228689991653e+02 0.0 
0.0 0.0 -6.073732280130e+01 
-8.166510364234e+01 2.877730175040e+01 0.0 
2.877730175040e+01 -1.082163598688e+02 0.0 
0.0 0.0 -5.656443905334e+01 
-8.622127555345e+01 3.630250613926e+01 0.0 
3.630250613926e+01 -1.442542198950e+02 0.0 
0.0 0.0 -6.874264863454e+01 
-8.410345694870e+01 3.709531465170e+01 0.0 
3.709531465170e+01 -1.424441036431e+02 0.0 
0.0 0.0 -6.756426817755e+01 
-8.940402417042e+01 3.822712866220e+01 0.0 
3.822712866220e+01 -1.635847933231e+02 0.0 
0.0 0.0 -7.549664524806e+01 
-8.727426421509e+01 3.878445957820e+01 0.0 
3.878445957820e+01 -1.617302105991e+02 0.0 
0.0 0.0 -7.430134244425e+01 
-8.208663580207e+01 3.770245410861e+01 0.0 
3.770245410861e+01 -1.411012173254e+02 0.0 
0.0 0.0 -6.655635593825e+01 
-8.516548744567e+01 3.916238133627e+01 0.0 
3.916238133627e+01 -1.602969031128e+02 0.0 
0.0 0.0 -7.323871716754e+01 
-8.006876159345e+01 3.819702853842e+01 0.0 
3.819702853842e+01 -1.399331516037e+02 0.0 
0.0 0.0 -6.560057395915e+01 
-8.304912569495e+01 3.943237228041e+01 0.0 
3.943237228041e+01 -1.591863308507e+02 0.0 
0.0 0.0 -7.227063696368e+01 
-8.823167614002e+01 4.033237812090e+01 0.0 
4.033237812090e+01 -1.793120972211e+02 0.0 
0.0 0.0 -7.986313200832e+01 
-8.602227538504e+01 4.038862562902e+01 0.0 
4.038862562902e+01 -1.783190144640e+02 0.0 
0.0 0.0 -7.890238695473e+01 
-8.082141527510e+01 3.958327179926e+01 0.0 
3.958327179926e+01 -1.583952031403e+02 0.0 
0.0 0.0 -7.136498552461e+01 
-8.373129204469e+01 4.032053924326e+01 0.0 
4.032053924326e+01 -1.776174109334e+02 0.0 
0.0 0.0 -7.800461089343e+01 
-7.854318870340e+01 3.958558265303e+01 0.0 
3.958558265303e+01 -1.579247095551e+02 0.0 
0.0 0.0 -7.054036947756e+01 
-8.133285844082e+01 4.006217576505e+01 0.0 
4.006217576505e+01 -1.772132703513e+02 0.0 
0.0 0.0 -7.716383863762e+01 
-7.630926743648e+01 3.941043206098e+01 0.0 
3.941043206098e+01 -1.578020851094e+02 0.0 
0.0 0.0 -6.983340576375e+01 
-7.882126637947e+01 3.920016400930e+01 0.0 
3.920016400930e+01 -1.761072456047e+02 0.0 
0.0 0.0 -7.607855359524e+01 
-8.354587372307e+01 3.899815454653e+01 0.0 
3.899815454653e+01 -1.934880867825e+02 0.0 
0.0 0.0 -8.271018815168e+01 
-8.058267081214e+01 3.700620337115e+01 0.0 
3.700620337115e+01 -1.901064588409e+02 0.0 
0.0 0.0 -8.080673889592e+01 
-7.609689735518e+01 3.767819872569e+01 0.0 
3.767819872569e+01 -1.738322396476e+02 0.0 
0.0 0.0 -7.457874110082e+01 
-7.738569391165e+01 3.503023405981e+01 0.0 
3.503023405981e+01 -1.856493810534e+02 0.0 
0.0 0.0 -7.851052248951e+01 
-7.309577033489e+01 3.599531815824e+01 0.0 
3.599531815824e+01 -1.694920935384e+02 0.0 
0.0 0.0 -7.237635916200e+01 
-7.422592607546e+01 3.302170742824e+01 0.0 
3.302170742824e+01 -1.812108617956e+02 0.0 
0.0 0.0 -7.623103636133e+01 
-7.834086747951e+01 3.156457754577e+01 0.0 
3.156457754577e+01 -1.964418499756e+02 0.0 
0.0 0.0 -8.203481523653e+01 
-7.503679076956e+01 2.880301870807e+01 0.0 
2.880301870807e+01 -1.925300603388e+02 0.0 
0.0 0.0 -7.987005533250e+01 
-7.104663424616e+01 3.032766397699e+01 0.0 
3.032766397699e+01 -1.781314042265e+02 0.0 
0.0 0.0 -7.435341154181e+01 
-7.174858524223e+01 2.544137342556e+01 0.0 
2.544137342556e+01 -1.893247696848e+02 0.0 
0.0 0.0 -7.792200647810e+01 
-6.782639206258e+01 2.710583497555e+01 0.0 
2.710583497555e+01 -1.756063204756e+02 0.0 
0.0 0.0 -7.262981376145e+01 
-6.841157957309e+01 2.187688130222e+01 0.0 
2.187688130222e+01 -1.856997953631e+02 0.0 
0.0 0.0 -7.583341248084e+01 
-6.442118371999e+01 2.373481046897e+01 0.0 
2.373481046897e+01 -1.722052844966e+02 0.0 
0.0 0.0 -7.058794046497e+01 
-6.510379746906e+01 1.805318502277e+01 0.0 
1.805318502277e+01 -1.817631328338e+02 0.0 
0.0 0.0 -7.366007909086e+01 
-7.005412957320e+01 1.708442792044e+01 0.0 
1.708442792044e+01 -1.955623766172e+02 0.0 
0.0 0.0 -7.928495185712e+01 
-6.720527748421e+01 1.301059597803e+01 0.0 
1.301059597803e+01 -1.917940203730e+02 0.0 
0.0 0.0 -7.729978935715e+01 
-6.203482412658e+01 1.351901306148e+01 0.0 
1.351901306148e+01 -1.782548145895e+02 0.0 
0.0 0.0 -7.168689161481e+01 
-6.470580192341e+01 8.294964314724e+00 0.0 
8.294964314724e+00 -1.883660434244e+02 0.0 
0.0 0.0 -7.552155360434e+01 
-7.099829752214e+01 9.403750544836e+00 0.0 
9.403750544836e+00 -2.035169791162e+02 0.0 
0.0 0.0 -8.195458299151e+01 
-6.901953166712e+01 4.817041112597e+00 0.0 
4.817041112597e+00 -2.003279458912e+02 0.0 
0.0 0.0 -8.040424326750e+01 
-7.587000802261e+01 6.970783511506e+00 0.0 
6.970783511506e+00 -2.166168901324e+02 0.0 
0.0 0.0 -8.734606944651e+01 
-7.420972902439e+01 2.577489349461e+00 0.0 
2.577489349461e+00 -2.135568531130e+02 0.0 
0.0 0.0 -8.592997464121e+01 
-6.753285478419e+01 -4.840311166130e-02 0.0 
-4.840311166130e-02 -1.972769743263e+02 0.0 
0.0 0.0 -7.904294873314e+01 
-7.296357510104e+01 -1.917148800740e+00 0.0 
-1.917148800740e+00 -2.105615381756e+02 0.0 
0.0 0.0 -8.465753398301e+01 
-7.956973886876e+01 8.323020175735e-01 0.0 
8.323020175735e-01 -2.269031696862e+02 0.0 
0.0 0.0 -9.154187256649e+01 
-7.837511649079e+01 -3.447661593760e+00 0.0 
-3.447661593760e+00 -2.236952565292e+02 0.0 
0.0 0.0 -9.022111190599e+01 
-7.208252526840e+01 -6.328443987523e+00 0.0 
-6.328443987523e+00 -2.074630911459e+02 0.0 
0.0 0.0 -8.346368492430e+01 
-7.741498058595e+01 -7.654645066583e+00 0.0 
-7.654645066583e+00 -2.202007239587e+02 0.0 
0.0 0.0 -8.888471136341e+01 
-8.360010909404e+01 -5.082484070715e+00 0.0 
-5.082484070715e+00 -2.362508736578e+02 0.0 
0.0 0.0 -9.555529482557e+01 
-8.251183592564e+01 -9.172141822509e+00 0.0 
-9.172141822509e+00 -2.322248056689e+02 0.0 
0.0 0.0 -9.402099247837e+01 
-7.647418376909e+01 -1.155950022540e+01 0.0 
-1.155950022540e+01 -2.160163216464e+02 0.0 
0.0 0.0 -8.734715162463e+01 
-8.127626742560e+01 -1.235537564883e+01 0.0 
-1.235537564883e+01 -2.240889433242e+02 0.0 
0.0 0.0 -9.120956322493e+01 
-8.749411855923e+01 -1.013443533841e+01 0.0 
-1.013443533841e+01 -2.415076810032e+02 0.0 
0.0 0.0 -9.830053986872e+01 
-8.577103566805e+01 -1.208354858641e+01 0.0 
-1.208354858641e+01 -2.283814577424e+02 0.0 
0.0 0.0 -9.384574802314e+01 
-7.952449831453e+01 -1.388666393354e+01 0.0 
-1.388666393354e+01 -2.096954992107e+02 0.0 
0.0 0.0 -8.636599925757e+01 
-8.360640571554e+01 -1.276979760751e+01 0.0 
-1.276979760751e+01 -2.128703893176e+02 0.0 
0.0 0.0 -8.854303850996e+01 
-9.010105103242e+01 -1.124873512329e+01 0.0 
-1.124873512329e+01 -2.320004469366e+02 0.0 
0.0 0.0 -9.623044939071e+01 
-8.751776891465e+01 -1.159127489587e+01 0.0 
-1.159127489587e+01 -2.170318572236e+02 0.0 
0.0 0.0 -9.096488784148e+01 
-9.422133160012e+01 -1.034777212644e+01 0.0 
-1.034777212644e+01 -2.365741482321e+02 0.0 
0.0 0.0 -9.883864394966e+01 
-8.086325305968e+01 -1.266890813492e+01 0.0 
-1.266890813492e+01 -1.972493894769e+02 0.0 
0.0 0.0 -8.303379276099e+01 
-8.441249236850e+01 -1.123483993197e+01 0.0 
-1.123483993197e+01 -2.021180408306e+02 0.0 
0.0 0.0 -8.555915995974e+01 
-7.748147779798e+01 -1.184122298332e+01 0.0 
-1.184122298332e+01 -1.817320551879e+02 0.0 
0.0 0.0 -7.736405989576e+01 
-8.075076526374e+01 -1.029841422545e+01 0.0 
-1.029841422545e+01 -1.874437804331e+02 0.0 
0.0 0.0 -8.005836370905e+01 
-7.943856166608e+01 2.746439243080e+01 0.0 
2.746439243080e+01 -2.069285559056e+02 0.0 
0.0 0.0 -8.551013527150e+01 
-7.341009720087e+01 -1.041220266354e+01 0.0 
-1.041220266354e+01 -1.666844246726e+02 0.0 
0.0 0.0 -7.162835656203e+01 
-7.049127479444e+01 -1.209809416086e+01 0.0 
-1.209809416086e+01 -1.611803881902e+02 0.0 
0.0 0.0 -6.910149889539e+01 
-7.648016388894e+01 -8.933048810895e+00 0.0 
-8.933048810895e+00 -1.731942951898e+02 0.0 
0.0 0.0 -7.450233772362e+01 
-8.408057951083e+01 -8.894523965218e+00 0.0 
-8.894523965218e+00 -1.939862214780e+02 0.0 
0.0 0.0 -8.302004029666e+01 
-6.858853165251e+01 -8.599825402279e+00 0.0 
-8.599825402279e+00 -1.522407906678e+02 0.0 
0.0 0.0 -6.584879669610e+01 
-7.159608803685e+01 -7.332945168338e+00 0.0 
-7.332945168338e+00 -1.594516442001e+02 0.0 
0.0 0.0 -6.891431967108e+01 
-6.305674630876e+01 -6.684380067908e+00 0.0 
-6.684380067908e+00 -1.385073368330e+02 0.0 
0.0 0.0 -6.006922494252e+01 
-6.403384212879e+01 2.881510782768e+01 0.0 
2.881510782768e+01 -1.611144524448e+02 0.0 
0.0 0.0 -6.714448837207e+01 
-9.130288097707e+01 4.120390651818e+01 0.0 
4.120390651818e+01 -1.982239562223e+02 0.0 
0.0 0.0 -8.645805115980e+01 
-6.614681975815e+01 -5.691111375206e+00 0.0 
-5.691111375206e+00 -1.462805959631e+02 0.0 
0.0 0.0 -6.332822471638e+01 
-5.694681403199e+01 -4.840247970782e+00 0.0 
-4.840247970782e+00 -1.254904542529e+02 0.0 
0.0 0.0 -5.433118048547e+01 
-5.389386859168e+01 -5.636993599682e+00 0.0 
-5.636993599682e+00 -1.175165905638e+02 0.0 
0.0 0.0 -5.102313774665e+01 
-4.708183425878e+01 -3.720953597045e+00 0.0 
-3.720953597045e+00 -1.048103877502e+02 0.0 
0.0 0.0 -4.516766660271e+01 
-7.782479440356e+01 2.442372565121e+01 0.0 
2.442372565121e+01 -8.979115877623e+01 0.0 
0.0 0.0 -4.988478595394e+01 
-8.311221965281e+01 2.651497036611e+01 0.0 
2.651497036611e+01 -1.131801230463e+02 0.0 
0.0 0.0 -5.848770280972e+01 
-7.846505534695e+01 2.186048667816e+01 0.0 
2.186048667816e+01 -9.497175649771e+01 0.0 
0.0 0.0 -5.163104355340e+01 
-8.427897459471e+01 2.453138446529e+01 0.0 
2.453138446529e+01 -1.189966631073e+02 0.0 
0.0 0.0 -6.058269131061e+01 
-7.969376900028e+01 2.000211023597e+01 0.0 
2.000211023597e+01 -1.026273942506e+02 0.0 
0.0 0.0 -5.429634897526e+01 
-5.046016650332e+01 -3.241317461504e+00 0.0 
-3.241317461504e+00 -1.130767829742e+02 0.0 
0.0 0.0 -4.866108484327e+01 
-9.153895203451e+01 3.744035498856e+01 0.0 
3.744035498856e+01 -1.660774702499e+02 0.0 
0.0 0.0 -7.688492668533e+01 
-8.830541523166e+01 2.859206824455e+01 0.0 
2.859206824455e+01 -1.364416155363e+02 0.0 
0.0 0.0 -6.702410923039e+01 
-7.560439622457e+01 3.877026622573e+01 0.0 
3.877026622573e+01 -1.384269966261e+02 0.0 
0.0 0.0 -6.380941785520e+01 
-7.149253513835e+01 3.789557727715e+01 0.0 
3.789557727715e+01 -1.566958078690e+02 0.0 
0.0 0.0 -6.805650290221e+01 
-7.792677723204e+01 1.107448475045e+01 0.0 
1.107448475045e+01 -2.199020467424e+02 0.0 
0.0 0.0 -8.894864719233e+01 
-7.477238307842e+01 -6.192485131617e+00 0.0 
-6.192485131617e+00 -1.670517117210e+02 0.0 
0.0 0.0 -7.214722843982e+01 
-6.943800640647e+01 -4.803254945634e+00 0.0 
-4.803254945634e+00 -1.543232616263e+02 0.0 
0.0 0.0 -6.672838040984e+01 
-7.806792582282e+01 -5.138084834969e+00 0.0 
-5.138084834969e+00 -1.749905643041e+02 0.0 
0.0 0.0 -7.551754703807e+01 
-9.669592497337e+01 -9.614559729023e+00 0.0 
-9.614559729023e+00 -2.509376461721e+02 0.0 
0.0 0.0 -1.038900713436e+02 
-1.009662449827e+02 -8.972241415041e+00 0.0 
-8.972241415041e+00 -2.558952401330e+02 0.0 
0.0 0.0 -1.066584455347e+02 
-1.033656162997e+02 -7.899219873488e+00 0.0 
-7.899219873488e+00 -2.696108505329e+02 0.0 
0.0 0.0 -1.114929400498e+02 
-1.077723663223e+02 -7.471768789054e+00 0.0 
-7.471768789054e+00 -2.750056911677e+02 0.0 
0.0 0.0 -1.144334172470e+02 
-1.101252319980e+02 -6.109778995396e+00 0.0 
-6.109778995396e+00 -2.880360017746e+02 0.0 
0.0 0.0 -1.190483701318e+02 
-1.147035954552e+02 -5.828020741743e+00 0.0 
-5.828020741743e+00 -2.939678912748e+02 0.0 
0.0 0.0 -1.222014460190e+02 
-1.121052197137e+02 -6.772032806879e+00 0.0 
-6.772032806879e+00 -2.811345523871e+02 0.0 
0.0 0.0 -1.175719316302e+02 
-1.193288579921e+02 -5.201741157649e+00 0.0 
-5.201741157649e+00 -3.004865556460e+02 0.0 
0.0 0.0 -1.255446240915e+02 
-1.164706958974e+02 -5.879636569945e+00 0.0 
-5.879636569945e+00 -2.877634602905e+02 0.0 
0.0 0.0 -1.208702468564e+02 
-1.170207915169e+02 -4.212711618942e+00 0.0 
-4.212711618942e+00 -3.062988998498e+02 0.0 
0.0 0.0 -1.265959074100e+02 
-1.121541976902e+02 -3.867474612631e+00 0.0 
-3.867474612631e+00 -3.004935160381e+02 0.0 
0.0 0.0 -1.233943141185e+02 
-1.240243137187e+02 -4.404524048934e+00 0.0 
-4.404524048934e+00 -3.073317886216e+02 0.0 
0.0 0.0 -1.290068307021e+02 
-1.208838699859e+02 -4.909564512728e+00 0.0 
-4.909564512728e+00 -2.947114092192e+02 0.0 
0.0 0.0 -1.242785837615e+02 
-1.287432989349e+02 -3.569239736615e+00 0.0 
-3.569239736615e+00 -3.143862944763e+02 0.0 
0.0 0.0 -1.325388780233e+02 
-1.253096463156e+02 -3.948410589765e+00 0.0 
-3.948410589765e+00 -3.018808647486e+02 0.0 
0.0 0.0 -1.277571533193e+02 
-1.174997306716e+02 -5.039579298902e+00 0.0 
-5.039579298902e+00 -2.819364099168e+02 0.0 
0.0 0.0 -1.194308421765e+02 
-1.216758015323e+02 -4.011761451780e+00 0.0 
-4.011761451780e+00 -2.892791740203e+02 0.0 
0.0 0.0 -1.228864926658e+02 
-1.138801795568e+02 -4.853011678905e+00 0.0 
-4.853011678905e+00 -2.692265300219e+02 0.0 
0.0 0.0 -1.145320128736e+02 
-8.292099577331e+01 9.125295326454e+00 0.0 
9.125295326454e+00 -2.332536935459e+02 0.0 
0.0 0.0 -9.445240679576e+01 
-8.507692197066e+01 1.290074492469e+01 0.0 
1.290074492469e+01 -2.366970627024e+02 0.0 
0.0 0.0 -9.613219540192e+01 
-9.001555490294e+01 1.113055635963e+01 0.0 
1.113055635963e+01 -2.499554796018e+02 0.0 
0.0 0.0 -1.015913103514e+02 
-9.226647989773e+01 1.468176219945e+01 0.0 
1.468176219945e+01 -2.535739277875e+02 0.0 
0.0 0.0 -1.033521223056e+02 
-9.718101334917e+01 1.303465699455e+01 0.0 
1.303465699455e+01 -2.668070673534e+02 0.0 
0.0 0.0 -1.087964242108e+02 
-9.950248130742e+01 1.642326916441e+01 0.0 
1.642326916441e+01 -2.705565688307e+02 0.0 
0.0 0.0 -1.106177150414e+02 
-1.043944824207e+02 1.486401091463e+01 0.0 
1.486401091463e+01 -2.837656269406e+02 0.0 
0.0 0.0 -1.160480328084e+02 
-1.021570274963e+02 1.136379294130e+01 0.0 
1.136379294130e+01 -2.799909134954e+02 0.0 
0.0 0.0 -1.142443822975e+02 
-9.255859058857e+01 3.988372383837e+01 0.0 
3.988372383837e+01 -1.826370882582e+02 0.0 
0.0 0.0 -8.215870365403e+01 
-5.935999573629e+01 8.093465325007e+00 0.0 
8.093465325007e+00 -1.750676411956e+02 0.0 
0.0 0.0 -6.992829107957e+01 
-5.781580043141e+01 1.493172030613e+01 0.0 
1.493172030613e+01 -1.661259941219e+02 0.0 
0.0 0.0 -6.678253836599e+01 
-5.501526990722e+01 8.851133266261e+00 0.0 
8.851133266261e+00 -1.636776182936e+02 0.0 
0.0 0.0 -6.520786646026e+01 
-5.438678535958e+01 1.696457584833e+01 0.0 
1.696457584833e+01 -1.549269747473e+02 0.0 
0.0 0.0 -6.239412803206e+01 
-5.155429157234e+01 1.039831562107e+01 0.0 
1.039831562107e+01 -1.538163621414e+02 0.0 
0.0 0.0 -6.121119611413e+01 
-5.144420539556e+01 1.927319534994e+01 0.0 
1.927319534994e+01 -1.438877069173e+02 0.0 
0.0 0.0 -5.819957369386e+01 
-4.869344393146e+01 1.241335754886e+01 0.0 
1.241335754886e+01 -1.447096968671e+02 0.0 
0.0 0.0 -5.756598522970e+01 
-4.922176245509e+01 2.541452136576e+00 0.0 
2.541452136576e+00 -1.514014138109e+02 0.0 
0.0 0.0 -5.976291727181e+01 
-4.632099465928e+01 3.806499954123e+00 0.0 
3.806499954123e+00 -1.437304647448e+02 0.0 
0.0 0.0 -5.671875198373e+01 
-4.757931523856e+01 -5.693437133301e+00 0.0 
-5.693437133301e+00 -1.464768247803e+02 0.0 
0.0 0.0 -5.769221568648e+01 
-4.446040311703e+01 -5.034798924732e+00 0.0 
-5.034798924732e+00 -1.387678262281e+02 0.0 
0.0 0.0 -5.512968616690e+01 
-4.637997282282e+01 -1.338890473532e+01 0.0 
-1.338890473532e+01 -1.381445250004e+02 0.0 
0.0 0.0 -5.507296321911e+01 
-8.500064391299e+01 3.604461843738e+01 0.0 
3.604461843738e+01 -2.058246122981e+02 0.0 
0.0 0.0 -8.684757686334e+01 
-9.469098864176e+01 1.798922362128e+01 0.0 
1.798922362128e+01 -2.573231656520e+02 0.0 
0.0 0.0 -1.052042462881e+02 
-1.019686102689e+02 1.964160311624e+01 0.0 
1.964160311624e+01 -2.743858633096e+02 0.0 
0.0 0.0 -1.125063420735e+02 
-9.720448538357e+01 2.110230552526e+01 0.0 
2.110230552526e+01 -2.610585309933e+02 0.0 
0.0 0.0 -1.070789049131e+02 
-4.382704433092e+01 -4.207287678554e+00 0.0 
-4.207287678554e+00 -9.661312622765e+01 0.0 
0.0 0.0 -4.173205116757e+01 
-1.297088093137e+02 -3.062249994580e+00 0.0 
-3.062249994580e+00 -3.092481154299e+02 0.0 
0.0 0.0 -1.312870774231e+02 
-1.190654331391e+02 -1.713031438727e+00 0.0 
-1.713031438727e+00 -3.177251252732e+02 0.0 
0.0 0.0 -1.306371675237e+02 
-1.140464830969e+02 -6.448696361089e-01 0.0 
-6.448696361089e-01 -3.099362037802e+02 0.0 
0.0 0.0 -1.267948060631e+02 
-1.093312289683e+02 1.326951962470e+01 0.0 
1.326951962470e+01 -2.969077959027e+02 0.0 
0.0 0.0 -1.214717074613e+02 
-4.012134151896e+01 -2.255898063533e+00 0.0 
-2.255898063533e+00 -9.293707776204e+01 0.0 
0.0 0.0 -3.951752578430e+01 
-4.898588374363e+01 2.179331873143e+01 0.0 
2.179331873143e+01 -1.325801805726e+02 0.0 
0.0 0.0 -5.403528024434e+01 
-5.192495909055e+01 2.663468064974e+01 0.0 
2.663468064974e+01 -1.298451210601e+02 0.0 
0.0 0.0 -5.413102404519e+01 
-8.524639437707e+01 2.275957352330e+01 0.0 
2.275957352330e+01 -1.258716977884e+02 0.0 
0.0 0.0 -6.293542764964e+01 
-8.059871885375e+01 1.849046364326e+01 0.0 
1.849046364326e+01 -1.106331328310e+02 0.0 
0.0 0.0 -5.696955550543e+01 
-1.210783943818e+02 1.655495575235e+00 0.0 
1.655495575235e+00 -3.267200491470e+02 0.0 
0.0 0.0 -1.339395330586e+02 
-4.381718990664e+01 -2.012270118409e+00 0.0 
-2.012270118409e+00 -1.012752975458e+02 0.0 
0.0 0.0 -4.312774623574e+01 
-1.269780339978e+02 -3.442453190714e+00 0.0 
-3.442453190714e+00 -3.196764598129e+02 0.0 
0.0 0.0 -1.335963481432e+02 
-4.402053560278e+01 5.670600771932e+00 0.0 
5.670600771932e+00 -1.370618085666e+02 0.0 
0.0 0.0 -5.499772668335e+01 
-1.258486065360e+02 -3.078593235750e+00 0.0 
-3.078593235750e+00 -2.968387933890e+02 0.0 
0.0 0.0 -1.264062199775e+02 
-1.340113313524e+02 -2.282530166708e+00 0.0 
-2.282530166708e+00 -3.167970978009e+02 0.0 
0.0 0.0 -1.348425287460e+02 
-1.092178292999e+02 -7.174260961248e+00 0.0 
-7.174260961248e+00 -2.680670599988e+02 0.0 
0.0 0.0 -1.127854667896e+02 
-1.045558753430e+02 2.266405975397e+01 0.0 
2.266405975397e+01 -2.783395314091e+02 0.0 
0.0 0.0 -1.144686220256e+02 
-9.988178318130e+01 2.404226012606e+01 0.0 
2.404226012606e+01 -2.650359749750e+02 0.0 
0.0 0.0 -1.090753274469e+02 
-5.040624246128e+01 -1.258127155628e+01 0.0 
-1.258127155628e+01 -1.494514635615e+02 0.0 
0.0 0.0 -5.953215013688e+01 
-4.973330472613e+01 -1.865424341316e+01 0.0 
-1.865424341316e+01 -1.405572120040e+02 0.0 
0.0 0.0 -5.661805635347e+01 
-4.511074838955e+01 -1.978671696926e+01 0.0 
-1.978671696926e+01 -1.258631567337e+02 0.0 
0.0 0.0 -5.122551583750e+01 
-4.905814701875e+01 -2.245339502390e+01 0.0 
-2.245339502390e+01 -1.319975628041e+02 0.0 
0.0 0.0 -5.374136559339e+01 
-5.402171400816e+01 -1.983852309147e+01 0.0 
-1.983852309147e+01 -1.503013886534e+02 0.0 
0.0 0.0 -6.089006701723e+01 
-5.322686793933e+01 -2.150436684956e+01 0.0 
-2.150436684956e+01 -1.454509492565e+02 0.0 
0.0 0.0 -5.910496540607e+01 
-4.820644813742e+01 -2.413307881489e+01 0.0 
-2.413307881489e+01 -1.254660009314e+02 0.0 
0.0 0.0 -5.111414469942e+01 
-5.199612865200e+01 -2.203268527528e+01 0.0 
-2.203268527528e+01 -1.326735831928e+02 0.0 
0.0 0.0 -5.465591244312e+01 
-5.759655322986e+01 -2.004655378278e+01 0.0 
-2.004655378278e+01 -1.522453338709e+02 0.0 
0.0 0.0 -6.255256613022e+01 
-5.532904278059e+01 -1.926889852554e+01 0.0 
-1.926889852554e+01 -1.315995480101e+02 0.0 
0.0 0.0 -5.562619703593e+01 
-5.062026133928e+01 -1.972605049126e+01 0.0 
-1.972605049126e+01 -1.101059975488e+02 0.0 
0.0 0.0 -4.709422183868e+01 
-5.192081055591e+01 -1.614355666747e+01 0.0 
-1.614355666747e+01 -1.105521124233e+02 0.0 
0.0 0.0 -4.816777944791e+01 
-1.379531937867e+02 -2.095770207434e+00 0.0 
-2.095770207434e+00 -3.289568162039e+02 0.0 
0.0 0.0 -1.396730029972e+02 
-4.154867525272e+01 -3.554276559048e+00 0.0 
-3.554276559048e+00 -1.316925647561e+02 0.0 
0.0 0.0 -5.318179709549e+01 
-7.715697864557e+01 3.672795123960e+01 0.0 
3.672795123960e+01 -1.204745744043e+02 0.0 
0.0 0.0 -5.888946591497e+01 
-1.266616915108e+02 6.658392570620e-01 0.0 
6.658392570620e-01 -3.350274265397e+02 0.0 
0.0 0.0 -1.381067354151e+02 
-1.115626455442e+02 1.664749721957e+01 0.0 
1.664749721957e+01 -3.006000287765e+02 0.0 
0.0 0.0 -1.232488022962e+02 
-8.596921704673e+01 2.126342372756e+01 0.0 
2.126342372756e+01 -1.335723247480e+02 0.0 
0.0 0.0 -6.546246253843e+01 
-8.139772547219e+01 1.728125721845e+01 0.0 
1.728125721845e+01 -1.193896755788e+02 0.0 
0.0 0.0 -5.983622031531e+01 
-7.522661760994e+01 1.422709264799e+01 0.0 
1.422709264799e+01 -9.670211101455e+01 0.0 
0.0 0.0 -5.117861858735e+01 
-7.633088953119e+01 1.345531727729e+01 0.0 
1.345531727729e+01 -1.064476581155e+02 0.0 
0.0 0.0 -5.443356429399e+01 
-8.206651641947e+01 1.631494776198e+01 0.0 
1.631494776198e+01 -1.287689674109e+02 0.0 
0.0 0.0 -6.285064514911e+01 
-7.735947035279e+01 1.282743423579e+01 0.0 
1.282743423579e+01 -1.164419633615e+02 0.0 
0.0 0.0 -5.774043011430e+01 
-7.090121727630e+01 1.006634744876e+01 0.0 
1.006634744876e+01 -9.457846671389e+01 0.0 
0.0 0.0 -4.924390519706e+01 
-7.241586280156e+01 9.748848109246e+00 0.0 
9.748848109246e+00 -1.049790954094e+02 0.0 
0.0 0.0 -5.281848746330e+01 
-6.536288056100e+01 7.218946121867e+00 0.0 
7.218946121867e+00 -8.359721967692e+01 0.0 
0.0 0.0 -4.428803007138e+01 
-6.737100443436e+01 7.161054515302e+00 0.0 
7.161054515302e+00 -9.428776318890e+01 0.0 
0.0 0.0 -4.809763028698e+01 
-7.386896574521e+01 9.431665146160e+00 0.0 
9.431665146160e+00 -1.155198805021e+02 0.0 
0.0 0.0 -5.641665387419e+01 
-6.929881106406e+01 7.060570161855e+00 0.0 
7.060570161855e+00 -1.051221037329e+02 0.0 
0.0 0.0 -5.192627443909e+01 
-6.235117002695e+01 5.072642547864e+00 0.0 
5.072642547864e+00 -8.427540735245e+01 0.0 
0.0 0.0 -4.358797321382e+01 
-6.474790980049e+01 5.117223466626e+00 0.0 
5.117223466626e+00 -9.519112965122e+01 0.0 
0.0 0.0 -4.758171183551e+01 
-5.747870335424e+01 3.479982337591e+00 0.0 
3.479982337591e+00 -7.464084726188e+01 0.0 
0.0 0.0 -3.923586518484e+01 
-6.033238448797e+01 3.600980083061e+00 0.0 
3.600980083061e+00 -8.551997738340e+01 0.0 
0.0 0.0 -4.335570856141e+01 
-6.708072826016e+01 4.969485577105e+00 0.0 
4.969485577105e+00 -1.062147128629e+02 0.0 
0.0 0.0 -5.158863233691e+01 
-3.338396566438e+01 -1.293167722921e+00 0.0 
-1.293167722921e+00 -8.197449674688e+01 0.0 
0.0 0.0 -3.420753872338e+01 
-1.072077111424e+02 9.694789881109e+00 0.0 
9.694789881109e+00 -2.931775564984e+02 0.0 
0.0 0.0 -1.197155802923e+02 
-1.144144941042e+02 1.171617616005e+01 0.0 
1.171617616005e+01 -3.102341233560e+02 0.0 
0.0 0.0 -1.269945852381e+02 
-7.303766349569e+01 -3.881619025217e+00 0.0 
-3.881619025217e+00 -1.631810801970e+02 0.0 
0.0 0.0 -7.046562310781e+01 
-8.141590885679e+01 -4.113217364818e+00 0.0 
-4.113217364818e+00 -1.828877171283e+02 0.0 
0.0 0.0 -7.889108779552e+01 
-8.633207052948e+01 -5.338831514165e+00 0.0 
-5.338831514165e+00 -1.955772597657e+02 0.0 
0.0 0.0 -8.417279908857e+01 
-8.997671693049e+01 -4.262962377551e+00 0.0 
-4.262962377551e+00 -2.037964754056e+02 0.0 
0.0 0.0 -8.773195770082e+01 
-6.304026039095e+01 3.487106034489e+00 0.0 
3.487106034489e+00 -9.646754405082e+01 0.0 
0.0 0.0 -4.745234133253e+01 
-6.928472011637e+01 4.624365517207e+00 0.0 
4.624365517207e+00 -1.173230302731e+02 0.0 
0.0 0.0 -5.558232511684e+01 
-4.994642973409e+01 2.877801077879e+01 0.0 
2.877801077879e+01 -1.159716371557e+02 0.0 
0.0 0.0 -4.922645473062e+01 
-5.159110677449e+01 3.109816362659e+01 0.0 
3.109816362659e+01 -1.124965467005e+02 0.0 
0.0 0.0 -4.875836759223e+01 
-9.003748088608e+01 2.522448552005e+01 0.0 
2.522448552005e+01 -1.489032982855e+02 0.0 
0.0 0.0 -7.128223375147e+01 
-1.299759914795e+02 -2.228621822974e+00 0.0 
-2.228621822974e+00 -3.046773467661e+02 0.0 
0.0 0.0 -1.299960014737e+02 
-1.218516817636e+02 -2.853993208626e+00 0.0 
-2.853993208626e+00 -2.845654001461e+02 0.0 
0.0 0.0 -1.215251245729e+02 
-6.872220853838e+01 3.657378318976e+01 0.0 
3.657378318976e+01 -1.526615394094e+02 0.0 
0.0 0.0 -6.601512438433e+01 
-6.683443363715e+01 3.764784101633e+01 0.0 
3.764784101633e+01 -1.385991071695e+02 0.0 
0.0 0.0 -6.123006224200e+01 
-6.436777005877e+01 3.677586015315e+01 0.0 
3.677586015315e+01 -1.351073282771e+02 0.0 
0.0 0.0 -5.944252950076e+01 
-6.190105150998e+01 3.685539430502e+01 0.0 
3.685539430502e+01 -1.191937596718e+02 0.0 
0.0 0.0 -5.392844335454e+01 
-6.394632573994e+01 3.723522655515e+01 0.0 
3.723522655515e+01 -1.189626001192e+02 0.0 
0.0 0.0 -5.447267775775e+01 
-5.978065734890e+01 3.638427413404e+01 0.0 
3.638427413404e+01 -1.161296349822e+02 0.0 
0.0 0.0 -5.237308769933e+01 
-1.071215278698e+02 -2.979892308348e+00 0.0 
-2.979892308348e+00 -2.929669413325e+02 0.0 
0.0 0.0 -1.196265407607e+02 
-7.529403784726e+01 9.065091743550e+00 0.0 
9.065091743550e+00 -1.263189313422e+02 0.0 
0.0 0.0 -6.008389075683e+01 
-5.107381470418e+01 -6.560223337089e+00 0.0 
-6.560223337089e+00 -1.098514925029e+02 0.0 
0.0 0.0 -4.787759216213e+01 
-4.085108849920e+01 -4.788900431766e+00 0.0 
-4.788900431766e+00 -8.869641615854e+01 0.0 
0.0 0.0 -3.846425139732e+01 
-1.381695975558e+02 -1.610471621901e+00 0.0 
-1.610471621901e+00 -3.246216736921e+02 0.0 
0.0 0.0 -1.384373813744e+02 
-1.000973626244e+02 7.657395298772e+00 0.0 
7.657395298772e+00 -2.762812967219e+02 0.0 
0.0 0.0 -1.125135978039e+02 
-8.817956506399e+01 3.828075820174e+01 0.0 
3.828075820174e+01 -2.098160679796e+02 0.0 
0.0 0.0 -8.899868991307e+01 
-8.952419992608e+01 3.494128931598e+01 0.0 
3.494128931598e+01 -2.212721116767e+02 0.0 
0.0 0.0 -9.283889348083e+01 
-9.283044293741e+01 3.731225066444e+01 0.0 
3.731225066444e+01 -2.257157201625e+02 0.0 
0.0 0.0 -9.516384892996e+01 
-9.446188219752e+01 3.403399541365e+01 0.0 
3.403399541365e+01 -2.368325498524e+02 0.0 
0.0 0.0 -9.898832961497e+01 
-9.773529294214e+01 3.640475751190e+01 0.0 
3.640475751190e+01 -2.415046778594e+02 0.0 
0.0 0.0 -1.013719912405e+02 
-1.003522407053e+02 3.392079618538e+01 0.0 
3.392079618538e+01 -2.531809928013e+02 0.0 
0.0 0.0 -1.056599700520e+02 
-9.718665665219e+01 3.159801577634e+01 0.0 
3.159801577634e+01 -2.483384698163e+02 0.0 
0.0 0.0 -1.032575379405e+02 
-1.072794852893e+02 2.548160928372e+01 0.0 
2.548160928372e+01 -2.825423556475e+02 0.0 
0.0 0.0 -1.165465522810e+02 
-1.039796532312e+02 3.231249007193e+01 0.0 
3.231249007193e+01 -2.654486963779e+02 0.0 
0.0 0.0 -1.104285048828e+02 
-5.609375148484e+01 2.347076988362e+00 0.0 
2.347076988362e+00 -7.576652772167e+01 0.0 
0.0 0.0 -3.915808376195e+01 
-8.995413206015e+01 1.961098243937e+01 0.0 
1.961098243937e+01 -2.439657981495e+02 0.0 
0.0 0.0 -9.977597906289e+01 
-6.150438459992e+01 -1.815124847607e+01 0.0 
-1.815124847607e+01 -1.520391311796e+02 0.0 
0.0 0.0 -6.366305473384e+01 
-2.918279128127e+01 -1.196580635535e+00 0.0 
-1.196580635535e+00 -7.329979158938e+01 0.0 
0.0 0.0 -3.034477486120e+01 
-4.411280885382e+01 -1.402353124560e+01 0.0 
-1.402353124560e+01 -8.633036043571e+01 0.0 
0.0 0.0 -3.786029239065e+01 
-3.707873358199e+01 -1.166714556978e+00 0.0 
-1.166714556978e+00 -8.963490276948e+01 0.0 
0.0 0.0 -3.761409090544e+01 
-4.765814117835e+01 -1.770169124413e+00 0.0 
-1.770169124413e+00 -1.097027705964e+02 0.0 
0.0 0.0 -4.680827353243e+01 
-1.292475886716e+02 4.185298320337e+00 0.0 
4.185298320337e+00 -3.435170963138e+02 0.0 
0.0 0.0 -1.414294054956e+02 
-1.034590256967e+02 3.615317140013e+01 0.0 
3.615317140013e+01 -2.578548640892e+02 0.0 
0.0 0.0 -1.079941669358e+02 
-1.009862897268e+02 3.869107448415e+01 0.0 
3.869107448415e+01 -2.461194474816e+02 0.0 
0.0 0.0 -1.037317211625e+02 
-5.855944034200e+01 3.578284217635e+01 0.0 
3.578284217635e+01 -9.889271162490e+01 0.0 
0.0 0.0 -4.683564559007e+01 
-6.044348570534e+01 3.615927073703e+01 0.0 
3.615927073703e+01 -9.887490519928e+01 0.0 
0.0 0.0 -4.739551727138e+01 
-1.119391961419e+02 2.418871523277e+01 0.0 
2.418871523277e+01 -2.957332282443e+02 0.0 
0.0 0.0 -1.219017273159e+02 
-7.318240954570e+01 1.678080379846e+01 0.0 
1.678080379846e+01 -7.902392886964e+01 0.0 
0.0 0.0 -4.526190152460e+01 
-6.328328606861e+01 7.237519760445e+00 0.0 
7.237519760445e+00 -7.306109835280e+01 0.0 
0.0 0.0 -4.050331532643e+01 
-5.708136751183e+01 4.751311588755e+00 0.0 
4.751311588755e+00 -6.255182654764e+01 0.0 
0.0 0.0 -3.548995821784e+01 
-2.525082295662e+01 -4.996382314550e-01 0.0 
-4.996382314550e-01 -6.839382217643e+01 0.0 
0.0 0.0 -2.769339353991e+01 
-4.329544043441e+01 -1.846499672804e+01 0.0 
-1.846499672804e+01 -8.532979221146e+01 0.0 
0.0 0.0 -3.665649412891e+01 
-8.269751251222e+01 1.544259924194e+01 0.0 
1.544259924194e+01 -1.385340538350e+02 0.0 
0.0 0.0 -6.596946990416e+01 
-5.428834661100e+01 2.965319472764e+01 0.0 
2.965319472764e+01 -1.284661964060e+02 0.0 
0.0 0.0 -5.442636290510e+01 
-5.374910636873e+01 3.251394567336e+01 0.0 
3.251394567336e+01 -1.137023674286e+02 0.0 
0.0 0.0 -4.983544213920e+01 
-4.236204058548e+01 8.554299926931e+00 0.0 
8.554299926931e+00 -1.308758469938e+02 0.0 
0.0 0.0 -5.332135152289e+01 
-3.962393731794e+01 -1.471146753024e+00 0.0 
-1.471146753024e+00 -1.269239734802e+02 0.0 
0.0 0.0 -5.182917365449e+01 
-6.570202893594e+01 3.095327085817e+00 0.0 
3.095327085817e+00 -1.072652130009e+02 0.0 
0.0 0.0 -5.149017258107e+01 
-7.160602512695e+01 4.056949497911e+00 0.0 
4.056949497911e+00 -1.280632337686e+02 0.0 
0.0 0.0 -5.950077766866e+01 
-9.449558681087e+01 -5.221612608347e+00 0.0 
-5.221612608347e+00 -2.162103170647e+02 0.0 
0.0 0.0 -9.281177116268e+01 
-9.809665461532e+01 -4.077467070705e+00 0.0 
-4.077467070705e+00 -2.242649915138e+02 0.0 
0.0 0.0 -9.630849383875e+01 
-1.231462726050e+02 5.470438987263e+00 0.0 
5.470438987263e+00 -3.328094553167e+02 0.0 
0.0 0.0 -1.363867183765e+02 
-4.543802116306e+01 -1.125726508390e+01 0.0 
-1.125726508390e+01 -9.136306416133e+01 0.0 
0.0 0.0 -4.045263351685e+01 
-7.500815157324e+01 5.840367623075e+00 0.0 
5.840367623075e+00 -1.383934425100e+02 0.0 
0.0 0.0 -6.362047822496e+01 
-1.051947506804e+02 5.992634548767e+00 0.0 
5.992634548767e+00 -2.892973458073e+02 0.0 
0.0 0.0 -1.179476289463e+02 
-9.822250140895e+01 3.784573347674e+00 0.0 
3.784573347674e+00 -2.725353107719e+02 0.0 
0.0 0.0 -1.108273436542e+02 
-8.515838950420e+01 -3.294639027202e+00 0.0 
-3.294639027202e+00 -1.912006439170e+02 0.0 
0.0 0.0 -8.250771002637e+01 
-5.002807862787e+01 3.232554701226e+01 0.0 
3.232554701226e+01 -9.604096686952e+01 0.0 
0.0 0.0 -4.288667690270e+01 
-4.938932438428e+01 3.104835994355e+01 0.0 
3.104835994355e+01 -1.016105320999e+02 0.0 
0.0 0.0 -4.463519103155e+01 
-6.358566428155e+01 -1.817424726746e+01 0.0 
-1.817424726746e+01 -1.711367492234e+02 0.0 
0.0 0.0 -7.001672405149e+01 
-5.380342480371e+01 -1.329611343712e+01 0.0 
-1.329611343712e+01 -1.142990416385e+02 0.0 
0.0 0.0 -5.003073993265e+01 
-4.118282892576e+01 -1.002442742225e+00 0.0 
-1.002442742225e+00 -9.811620571691e+01 0.0 
0.0 0.0 -4.138971039280e+01 
-1.321129566136e+02 8.059080985710e+00 0.0 
8.059080985710e+00 -3.496400716241e+02 0.0 
0.0 0.0 -1.441259084713e+02 
-8.674922102759e+01 1.888663326978e+01 0.0 
1.888663326978e+01 -1.510896340586e+02 0.0 
0.0 0.0 -7.095165652585e+01 
-1.009833098483e+02 3.010675098283e+01 0.0 
3.010675098283e+01 -2.606334378509e+02 0.0 
0.0 0.0 -1.080850243097e+02 
-9.404997590828e+01 2.932715317348e+01 0.0 
2.932715317348e+01 -2.433421515083e+02 0.0 
0.0 0.0 -1.008176382250e+02 
-1.082108086210e+02 3.111105498529e+01 0.0 
3.111105498529e+01 -2.783373643288e+02 0.0 
0.0 0.0 -1.155644518849e+02 
-3.455985229521e+01 -8.150181691329e+00 0.0 
-8.150181691329e+00 -6.833195646296e+01 0.0 
0.0 0.0 -2.986851922182e+01 
-1.357815785090e+02 3.202562998835e+00 0.0 
3.202562998835e+00 -3.525861050087e+02 0.0 
0.0 0.0 -1.461103050553e+02 
-1.339682992013e+02 -1.490832630283e+00 0.0 
-1.490832630283e+00 -3.127812983705e+02 0.0 
0.0 0.0 -1.336248792715e+02 
-1.064181985770e+02 3.849593836651e+01 0.0 
3.849593836651e+01 -2.617843172186e+02 0.0 
0.0 0.0 -1.100607547387e+02 
-1.042145502200e+02 4.086920287859e+01 0.0 
4.086920287859e+01 -2.507517180429e+02 0.0 
0.0 0.0 -1.060898804789e+02 
-5.691883181341e+01 3.154419980060e+01 0.0 
3.154419980060e+01 -1.301747051255e+02 0.0 
0.0 0.0 -5.572806108169e+01 
-5.600384451416e+01 3.395163847605e+01 0.0 
3.395163847605e+01 -1.144097558154e+02 0.0 
0.0 0.0 -5.072408009885e+01 
-5.286311487313e+01 3.394584785817e+01 0.0 
3.394584785817e+01 -9.662360433743e+01 0.0 
0.0 0.0 -4.444601576317e+01 
-5.431372325339e+01 3.477242380575e+01 0.0 
3.477242380575e+01 -9.564062211515e+01 0.0 
0.0 0.0 -4.458630361056e+01 
-7.585007244125e+01 3.386324964615e+01 0.0 
3.386324964615e+01 -1.014973526140e+02 0.0 
0.0 0.0 -5.280422751657e+01 
-5.951208362891e+01 3.356623775557e+01 0.0 
3.356623775557e+01 -1.311756774617e+02 0.0 
0.0 0.0 -5.680632832718e+01 
-7.493910233538e+01 3.736337920692e+01 0.0 
3.736337920692e+01 -1.194870046458e+02 0.0 
0.0 0.0 -5.792783209436e+01 
-7.219562102265e+01 3.606726330965e+01 0.0 
3.606726330965e+01 -9.985801923213e+01 0.0 
0.0 0.0 -5.121609207643e+01 
-6.963318044629e+01 3.666076081852e+01 0.0 
3.666076081852e+01 -9.939226855978e+01 0.0 
0.0 0.0 -5.030763470182e+01 
-6.593494498530e+01 3.754634650925e+01 0.0 
3.754634650925e+01 -1.185137342007e+02 0.0 
0.0 0.0 -5.493460375581e+01 
-6.247022064319e+01 3.653321167306e+01 0.0 
3.653321167306e+01 -9.880327371616e+01 0.0 
0.0 0.0 -4.798204830781e+01 
-5.756867573639e+01 2.215362169118e+01 0.0 
2.215362169118e+01 -1.560209539252e+02 0.0 
0.0 0.0 -6.367688889847e+01 
-8.027223566957e+01 1.480244152626e+01 0.0 
1.480244152626e+01 -2.234070770483e+02 0.0 
0.0 0.0 -9.070379381536e+01 
-9.090490346996e+01 -6.390811743781e+00 0.0 
-6.390811743781e+00 -2.084814952202e+02 0.0 
0.0 0.0 -8.941591960705e+01 
-1.099333731079e+02 -5.978727469782e+00 0.0 
-5.978727469782e+00 -2.619258953639e+02 0.0 
0.0 0.0 -1.111577805416e+02 
-9.873719672104e+01 -8.080862438380e+00 0.0 
-8.080862438380e+00 -2.651727996878e+02 0.0 
0.0 0.0 -1.087729989226e+02 
-7.928154582029e+01 1.165444787115e+01 0.0 
1.165444787115e+01 -1.369251863382e+02 0.0 
0.0 0.0 -6.446201964756e+01 
-8.031204713854e+01 1.100604057668e+01 0.0 
1.100604057668e+01 -1.478139635059e+02 0.0 
0.0 0.0 -6.803780319334e+01 
-5.452741586796e+01 3.238814821388e+00 0.0 
3.238814821388e+00 -6.376530657257e+01 0.0 
0.0 0.0 -3.508781673216e+01 
-4.959222333501e+01 2.040983871688e+00 0.0 
2.040983871688e+00 -5.432386567263e+01 0.0 
0.0 0.0 -3.077482670229e+01 
-3.266276632517e+01 -2.581134923870e+00 0.0 
-2.581134923870e+00 -7.595522786444e+01 0.0 
0.0 0.0 -3.218539825689e+01 
-2.911578294242e+01 -2.828058574610e+00 0.0 
-2.828058574610e+00 -6.781797604070e+01 0.0 
0.0 0.0 -2.867803272903e+01 
-9.819951169427e+01 -9.355070451105e+00 0.0 
-9.355070451105e+00 -2.420500583141e+02 0.0 
0.0 0.0 -1.016748710025e+02 
-1.325809881583e+02 2.221901939717e-01 0.0 
2.221901939717e-01 -3.425493298469e+02 0.0 
0.0 0.0 -1.421390954016e+02 
-9.023967877840e+01 2.371785034216e+01 0.0 
2.371785034216e+01 -1.560878622201e+02 0.0 
0.0 0.0 -7.349826229955e+01 
-9.390722259682e+01 2.757899879258e+01 0.0 
2.757899879258e+01 -1.715104261998e+02 0.0 
0.0 0.0 -7.922529463897e+01 
-9.368399883421e+01 2.904154938513e+01 0.0 
2.904154938513e+01 -1.650206601926e+02 0.0 
0.0 0.0 -7.721139770805e+01 
-1.253721795514e+02 9.292387582926e+00 0.0 
9.292387582926e+00 -3.372065978893e+02 0.0 
0.0 0.0 -1.383736332322e+02 
-5.727979294734e+01 1.998073461954e+00 0.0 
1.998073461954e+00 -1.717655509300e+02 0.0 
0.0 0.0 -6.831360316320e+01 
-8.800210136105e+01 7.317883537848e+00 0.0 
7.317883537848e+00 -2.465045065529e+02 0.0 
0.0 0.0 -9.995198237418e+01 
-3.987924678138e+01 -1.267748189938e+01 0.0 
-1.267748189938e+01 -1.211924569192e+02 0.0 
0.0 0.0 -4.957556183322e+01 
-8.276373867291e+01 3.016349859513e+01 0.0 
3.016349859513e+01 -2.114789634494e+02 0.0 
0.0 0.0 -8.787281063671e+01 
-2.041344747318e+01 -1.110197271705e+00 0.0 
-1.110197271705e+00 -5.590686356897e+01 0.0 
0.0 0.0 -2.249609331265e+01 
-9.348283492579e+01 4.126596783025e+01 0.0 
4.126596783025e+01 -1.994074122701e+02 0.0 
0.0 0.0 -8.746707415875e+01 
-1.422867379050e+02 -1.059785428798e+00 0.0 
-1.059785428798e+00 -3.327312801428e+02 0.0 
0.0 0.0 -1.421054054143e+02 
-1.465262804524e+02 -1.063424279882e+00 0.0 
-1.063424279882e+00 -3.442703704405e+02 0.0 
0.0 0.0 -1.468389952679e+02 
-1.146264309276e+02 2.692145167453e+01 0.0 
2.692145167453e+01 -2.999174720003e+02 0.0 
0.0 0.0 -1.239631708783e+02 
-7.068383521967e+01 3.049596682376e+01 0.0 
3.049596682376e+01 -5.996276950244e+01 0.0 
0.0 0.0 -3.879398141663e+01 
-8.467365607526e+01 2.679957601127e+01 0.0 
2.679957601127e+01 -2.220091740793e+02 0.0 
0.0 0.0 -9.160484904638e+01 
-8.164693878997e+01 2.382911646423e+01 0.0 
2.382911646423e+01 -2.180231319192e+02 0.0 
0.0 0.0 -8.950102121275e+01 
-6.687378832384e+01 3.579839143280e+01 0.0 
3.579839143280e+01 -8.002476010216e+01 0.0 
0.0 0.0 -4.366956452780e+01 
-6.376493444445e+01 3.599532869688e+01 0.0 
3.599532869688e+01 -7.983609163463e+01 0.0 
0.0 0.0 -4.268030782373e+01 
-6.706553551883e+01 3.686500652758e+01 0.0 
3.686500652758e+01 -9.901583381604e+01 0.0 
0.0 0.0 -4.942441080046e+01 
-6.098550687835e+01 3.576457675964e+01 0.0 
3.576457675964e+01 -7.969045592490e+01 0.0 
0.0 0.0 -4.180278884097e+01 
-6.753683612048e+01 -1.690636777965e+01 0.0 
-1.690636777965e+01 -1.717880306597e+02 0.0 
0.0 0.0 -7.139746003406e+01 
-6.475295525127e+01 -1.606850308213e+01 0.0 
-1.606850308213e+01 -1.537846483635e+02 0.0 
0.0 0.0 -6.516128108443e+01 
-1.104272760459e+02 3.680917750974e+01 0.0 
3.680917750974e+01 -2.757792351092e+02 0.0 
0.0 0.0 -1.154619533466e+02 
-1.109097419802e+02 3.325542505164e+01 0.0 
3.325542505164e+01 -2.825205382338e+02 0.0 
0.0 0.0 -1.176290840642e+02 
-1.093933990186e+02 4.055005187599e+01 0.0 
4.055005187599e+01 -2.661530473612e+02 0.0 
0.0 0.0 -1.122639339139e+02 
-1.074031324419e+02 4.273319904291e+01 0.0 
4.273319904291e+01 -2.553017024912e+02 0.0 
0.0 0.0 -1.084114504799e+02 
-1.202720221479e+02 2.579563469955e+01 0.0 
2.579563469955e+01 -3.131341867619e+02 0.0 
0.0 0.0 -1.296218626729e+02 
-1.165810779603e+02 2.290001844323e+01 0.0 
2.290001844323e+01 -3.086643096057e+02 0.0 
0.0 0.0 -1.271736162698e+02 
-5.120530257997e+01 -1.399582030909e+00 0.0 
-1.399582030909e+00 -1.176010267343e+02 0.0 
0.0 0.0 -5.024189879430e+01 
-5.641712485552e+01 3.479368381580e+01 0.0 
3.479368381580e+01 -7.944573104729e+01 0.0 
0.0 0.0 -4.035885677084e+01 
-8.711038262208e+01 1.785875006728e+01 0.0 
1.785875006728e+01 -1.606008795134e+02 0.0 
0.0 0.0 -7.391337864065e+01 
-6.998498285816e+01 3.485075360264e+01 0.0 
3.485075360264e+01 -7.986536287251e+01 0.0 
0.0 0.0 -4.455510371920e+01 
-1.422498442957e+02 2.466618790215e+00 0.0 
2.466618790215e+00 -3.602267930380e+02 0.0 
0.0 0.0 -1.503429912001e+02 
-1.386210384102e+02 1.555007452773e-01 0.0 
1.555007452773e-01 -3.499675770821e+02 0.0 
0.0 0.0 -1.461765846477e+02 
-3.772874229058e+01 -1.104489804366e+01 0.0 
-1.104489804366e+01 -1.169241034627e+02 0.0 
0.0 0.0 -4.825049422906e+01 
-3.866088956087e+01 -2.119974453757e+01 0.0 
-2.119974453757e+01 -1.030579151720e+02 0.0 
0.0 0.0 -4.329570626297e+01 
-7.703054220671e+01 5.032811269197e+00 0.0 
5.032811269197e+00 -1.495166802666e+02 0.0 
0.0 0.0 -6.756416674200e+01 
-4.966483675669e+01 3.280418374385e+01 0.0 
3.280418374385e+01 -7.562347971369e+01 0.0 
0.0 0.0 -3.718649494111e+01 
-5.007760213302e+01 3.301859264713e+01 0.0 
3.301859264713e+01 -7.587448216775e+01 0.0 
0.0 0.0 -3.738562529023e+01 
-4.888030590100e+01 3.254669054015e+01 0.0 
3.254669054015e+01 -7.720302191069e+01 0.0 
0.0 0.0 -3.712422413077e+01 
-1.594675581995e+02 -1.886545396066e-01 0.0 
-1.886545396066e-01 -3.722800269555e+02 0.0 
0.0 0.0 -1.591242755465e+02 
-3.124407345529e+01 1.835469803524e-01 0.0 
1.835469803524e-01 -1.587365296344e+01 0.0 
0.0 0.0 -1.373531792562e+01 
-1.507169908065e+02 -6.947152747886e-01 0.0 
-6.947152747886e-01 -3.525110931040e+02 0.0 
0.0 0.0 -1.505684251731e+02 
-6.805641968127e+01 3.777347466361e+01 0.0 
3.777347466361e+01 -1.183937977189e+02 0.0 
0.0 0.0 -5.553506522004e+01 
-8.019589725793e+01 6.987565258046e+00 0.0 
6.987565258046e+00 -1.601102630531e+02 0.0 
0.0 0.0 -7.169184809331e+01 
-8.809172805477e+01 2.438584377629e+01 0.0 
2.438584377629e+01 -2.341774643142e+02 0.0 
0.0 0.0 -9.628075771070e+01 
-6.603397338846e+01 3.506749973544e+01 0.0 
3.506749973544e+01 -1.489548169052e+02 0.0 
0.0 0.0 -6.409663708809e+01 
-1.177481759084e+02 6.868075701913e+00 0.0 
6.868075701913e+00 -3.200488871135e+02 0.0 
0.0 0.0 -1.309391189066e+02 
-7.369072966797e+01 3.265093845246e+00 0.0 
3.265093845246e+00 -1.380622895125e+02 0.0 
0.0 0.0 -6.312590575415e+01 
-7.905271155033e+01 3.954558598782e+00 0.0 
3.954558598782e+00 -1.612141240060e+02 0.0 
0.0 0.0 -7.168005066689e+01 
-5.422649178027e+01 4.490720721389e+00 0.0 
4.490720721389e+00 -5.189748181861e+01 0.0 
0.0 0.0 -3.143719207966e+01 
-4.762418060767e+01 2.665225290315e+00 0.0 
2.665225290315e+00 -4.147691930522e+01 0.0 
0.0 0.0 -2.633032997387e+01 
-6.076652378355e+01 7.219799475031e+00 0.0 
7.219799475031e+00 -6.201017819986e+01 0.0 
0.0 0.0 -3.643301059502e+01 
-4.485420209028e+01 1.770103266821e+01 0.0 
1.770103266821e+01 -1.274499783313e+02 0.0 
0.0 0.0 -5.223169074332e+01 
-4.471634477427e+01 2.226180231296e+01 0.0 
2.226180231296e+01 -1.167635915324e+02 0.0 
0.0 0.0 -4.944689211812e+01 
-7.663473197853e+01 8.513901242138e+00 0.0 
8.513901242138e+00 -1.371443637518e+02 0.0 
0.0 0.0 -6.373372871911e+01 
-6.370702722816e+01 -3.457329474968e+00 0.0 
-3.457329474968e+00 -1.420687518516e+02 0.0 
0.0 0.0 -6.133273372393e+01 
-6.807063327145e+01 -2.861610275065e+00 0.0 
-2.861610275065e+00 -1.525620619177e+02 0.0 
0.0 0.0 -6.578980855674e+01 
-4.696585756577e+01 -9.193165864744e+00 0.0 
-9.193165864744e+00 -9.691505709859e+01 0.0 
0.0 0.0 -4.275619579739e+01 
-5.565886981290e+01 -1.097260886892e+01 0.0 
-1.097260886892e+01 -1.189444850290e+02 0.0 
0.0 0.0 -5.198100645259e+01 
-9.867300495336e+01 -6.075009587684e+00 0.0 
-6.075009587684e+00 -2.289603503051e+02 0.0 
0.0 0.0 -9.789000657753e+01 
-9.504667907427e+01 -7.291935440523e+00 0.0 
-7.291935440523e+00 -2.215993219920e+02 0.0 
0.0 0.0 -9.459380031988e+01 
-9.663457929686e+01 4.202599867821e+01 0.0 
4.202599867821e+01 -2.180914753670e+02 0.0 
0.0 0.0 -9.401781639917e+01 
-9.892819413118e+01 4.224260101801e+01 0.0 
4.224260101801e+01 -2.194784343483e+02 0.0 
0.0 0.0 -9.512198854383e+01 
-9.123245785601e+01 4.019184423556e+01 0.0 
4.019184423556e+01 -2.136041491713e+02 0.0 
0.0 0.0 -9.105098210819e+01 
-1.034119661240e+02 2.160082071029e+00 0.0 
2.160082071029e+00 -2.855004932951e+02 0.0 
0.0 0.0 -1.162737378257e+02 
-9.658402266741e+01 -2.018001858681e-01 0.0 
-2.018001858681e-01 -2.687882321592e+02 0.0 
0.0 0.0 -1.092116764480e+02 
-9.142371525009e+01 1.524791993321e+00 0.0 
1.524791993321e+00 -2.560434586192e+02 0.0 
0.0 0.0 -1.038401521608e+02 
-8.343132432156e+01 1.369640623394e+01 0.0 
1.369640623394e+01 -1.582069460671e+02 0.0 
0.0 0.0 -7.209148111659e+01 
-8.482877339388e+01 1.281766019841e+01 0.0 
1.281766019841e+01 -1.716566840039e+02 0.0 
0.0 0.0 -7.654563721933e+01 
-6.945519804943e+01 -1.629079662204e+01 0.0 
-1.629079662204e+01 -1.892663226053e+02 0.0 
0.0 0.0 -7.721645619641e+01 
-6.480933760590e+01 -1.640467130061e+01 0.0 
-1.640467130061e+01 -1.827419347556e+02 0.0 
0.0 0.0 -7.386538170846e+01 
-7.100380058687e+01 -1.525168286429e+01 0.0 
-1.525168286429e+01 -1.739103921306e+02 0.0 
0.0 0.0 -7.307425781524e+01 
-9.054878939593e+01 2.130778898101e+01 0.0 
2.130778898101e+01 -1.734619836567e+02 0.0 
0.0 0.0 -7.880323191578e+01 
-1.548906268972e+02 -7.157323117019e-01 0.0 
-7.157323117019e-01 -3.636034802301e+02 0.0 
0.0 0.0 -1.551482321382e+02 
-1.506529835421e+02 -8.407744642686e-01 0.0 
-8.407744642686e-01 -3.557119595281e+02 0.0 
0.0 0.0 -1.515094829211e+02 
-1.567620216533e+01 -1.076286033904e+00 0.0 
-1.076286033904e+00 -4.789940965870e+01 0.0 
0.0 0.0 -1.867058858131e+01 
-2.544996582628e+01 -2.854590961415e+00 0.0 
-2.854590961415e+00 -5.977064192658e+01 0.0 
0.0 0.0 -2.507064533652e+01 
-4.709568617947e+01 3.172721974221e+01 0.0 
3.172721974221e+01 -7.739753778881e+01 0.0 
0.0 0.0 -3.595791155662e+01 
-4.722536695300e+01 3.140394887119e+01 0.0 
3.140394887119e+01 -8.429309554245e+01 0.0 
0.0 0.0 -3.895026732137e+01 
-9.699195487783e+01 3.120679709130e+01 0.0 
3.120679709130e+01 -1.872295074387e+02 0.0 
0.0 0.0 -8.486643869497e+01 
-9.725071594462e+01 3.269791295030e+01 0.0 
3.269791295030e+01 -1.823062319521e+02 0.0 
0.0 0.0 -8.346708436901e+01 
-9.739181755347e+01 3.012779417376e+01 0.0 
3.012779417376e+01 -1.957567362978e+02 0.0 
0.0 0.0 -8.754456615538e+01 
-4.426779650386e+01 -7.628224299139e-01 0.0 
-7.628224299139e-01 -1.047750890581e+02 0.0 
0.0 0.0 -4.431286566860e+01 
-9.807546914660e+01 2.795206870741e+01 0.0 
2.795206870741e+01 -2.558347616586e+02 0.0 
0.0 0.0 -1.057730692416e+02 
-1.354025481059e+02 1.188053110308e+01 0.0 
1.188053110308e+01 -3.531361361749e+02 0.0 
0.0 0.0 -1.461616052843e+02 
-1.276276163859e+02 1.302295577451e+01 0.0 
1.302295577451e+01 -3.400923300810e+02 0.0 
0.0 0.0 -1.399159839401e+02 
-1.446289082556e+02 1.083926338815e+01 0.0 
1.083926338815e+01 -3.673835491378e+02 0.0 
0.0 0.0 -1.532037372180e+02 
-1.099266084344e+02 2.794621565118e+01 0.0 
2.794621565118e+01 -2.866972071484e+02 0.0 
0.0 0.0 -1.185871446749e+02 
-1.180618494688e+02 2.925593904092e+01 0.0 
2.925593904092e+01 -3.039797310759e+02 0.0 
0.0 0.0 -1.262124741634e+02 
-1.160925999931e+02 3.227969469675e+01 0.0 
3.227969469675e+01 -2.957652419424e+02 0.0 
0.0 0.0 -1.231573525807e+02 
-3.892146551520e+01 1.196064227603e+00 0.0 
1.196064227603e+00 -1.247886093691e+02 0.0 
0.0 0.0 -5.095028207507e+01 
-7.682505545202e+01 2.570975857668e+00 0.0 
2.570975857668e+00 -1.535174477653e+02 0.0 
0.0 0.0 -6.870275096519e+01 
-4.552151457778e+01 1.690060592071e+00 0.0 
1.690060592071e+00 -4.260324228166e+01 0.0 
0.0 0.0 -2.603742705783e+01 
-3.969509905505e+01 -6.623849997841e+00 0.0 
-6.623849997841e+00 -1.140510082418e+02 0.0 
0.0 0.0 -4.756613072296e+01 
-4.059389807894e+01 9.164203746247e-01 0.0 
9.164203746247e-01 -3.359378601184e+01 0.0 
0.0 0.0 -2.185630522723e+01 
-4.475948123036e+01 1.218189590650e+00 0.0 
1.218189590650e+00 -4.499140834175e+01 0.0 
0.0 0.0 -2.652526687163e+01 
-3.554357059763e+01 4.660905344457e-01 0.0 
4.660905344457e-01 -2.353071019897e+01 0.0 
0.0 0.0 -1.732228423898e+01 
-3.389804020578e+01 -5.036645536628e-01 0.0 
-5.036645536628e-01 -8.537436440801e+01 0.0 
0.0 0.0 -3.538172138414e+01 
-4.927117900288e+01 3.928286241927e+00 0.0 
3.928286241927e+00 -3.753597130312e+01 0.0 
0.0 0.0 -2.564214509180e+01 
-5.852822734133e+01 7.604521610744e+00 0.0 
7.604521610744e+00 -5.160043795321e+01 0.0 
0.0 0.0 -3.263859958836e+01 
-8.645862742616e+00 -7.410346195951e-01 0.0 
-7.410346195951e-01 -3.657829881844e+01 0.0 
0.0 0.0 -1.318328661220e+01 
-8.979178948125e+01 1.982677078896e+01 0.0 
1.982677078896e+01 -1.822799101850e+02 0.0 
0.0 0.0 -8.122150989989e+01 
-7.792536989734e+00 -1.769922300279e-01 0.0 
-1.769922300279e-01 -3.739654488973e+01 0.0 
0.0 0.0 -1.315672456384e+01 
-1.248258179969e+01 -2.664208319485e-01 0.0 
-2.664208319485e-01 -4.529940860792e+01 0.0 
0.0 0.0 -1.693459712228e+01 
-1.484698427556e+02 2.050516958756e+00 0.0 
2.050516958756e+00 -3.680189544056e+02 0.0 
0.0 0.0 -1.545466391484e+02 
-1.442974013700e+02 1.639083031814e-01 0.0 
1.639083031814e-01 -3.571202032124e+02 0.0 
0.0 0.0 -1.500252813747e+02 
-1.540385443965e+02 1.664449061937e+00 0.0 
1.664449061937e+00 -3.749292023105e+02 0.0 
0.0 0.0 -1.582903240121e+02 
-1.495132860245e+02 1.117798207066e-01 0.0 
1.117798207066e-01 -3.637494537814e+02 0.0 
0.0 0.0 -1.535788219418e+02 
-1.405808745578e+02 -1.218570931535e+00 0.0 
-1.218570931535e+00 -3.455752760633e+02 0.0 
0.0 0.0 -1.454468451863e+02 
-1.458831074541e+02 -8.978136401002e-01 0.0 
-8.978136401002e-01 -3.530810245827e+02 0.0 
0.0 0.0 -1.492892396111e+02 
-4.132245131779e+01 1.388207587455e+00 0.0 
1.388207587455e+00 -3.141426382351e+01 0.0 
0.0 0.0 -2.142101454239e+01 
-1.561919363358e+02 2.654622079510e-01 0.0 
2.654622079510e-01 -3.739676768610e+02 0.0 
0.0 0.0 -1.586478839590e+02 
-1.510436219190e+02 -6.529710316098e-01 0.0 
-6.529710316098e-01 -3.608665722426e+02 0.0 
0.0 0.0 -1.531730582485e+02 
-1.610656828510e+02 5.915568748951e-02 0.0 
5.915568748951e-02 -3.818856974022e+02 0.0 
0.0 0.0 -1.624854140760e+02 
-5.303465315672e+01 3.203946576012e+01 0.0 
3.203946576012e+01 -5.879161958263e+01 0.0 
0.0 0.0 -3.314788182180e+01 
-5.519691869324e+01 3.529269068089e+01 0.0 
3.529269068089e+01 -9.614291649706e+01 0.0 
0.0 0.0 -4.500195055709e+01 
-5.147012570648e+01 3.326479304711e+01 0.0 
3.326479304711e+01 -7.771559528959e+01 0.0 
0.0 0.0 -3.835571629882e+01 
-4.325748728055e+01 2.887477540233e+01 0.0 
2.887477540233e+01 -5.477410556960e+01 0.0 
0.0 0.0 -2.900947785505e+01 
-1.136840395984e+02 4.272624109270e+01 0.0 
4.272624109270e+01 -2.738821685857e+02 0.0 
0.0 0.0 -1.158698624552e+02 
-1.097399088202e+02 4.392079519464e+01 0.0 
4.392079519464e+01 -2.576243779109e+02 0.0 
0.0 0.0 -1.098092860193e+02 
-1.381743189614e+02 -8.853539084237e-01 0.0 
-8.853539084237e-01 -3.216913043586e+02 0.0 
0.0 0.0 -1.375596869960e+02 
-1.298694229340e+02 -1.182259782928e+00 0.0 
-1.182259782928e+00 -3.014489314600e+02 0.0 
0.0 0.0 -1.289955063182e+02 
-3.972400118897e+01 5.911547707092e-01 0.0 
5.911547707092e-01 -3.471815864004e+01 0.0 
0.0 0.0 -2.193264794870e+01 
-3.875397432744e+01 4.571492527804e-01 0.0 
4.571492527804e-01 -3.365222100246e+01 0.0 
0.0 0.0 -2.132185859897e+01 
-4.612860779022e+01 8.169321574451e-01 0.0 
8.169321574451e-01 -5.161614904287e+01 0.0 
0.0 0.0 -2.892342704993e+01 
-4.464648231819e+01 6.671492199923e-01 0.0 
6.671492199923e-01 -4.911985975422e+01 0.0 
0.0 0.0 -2.772990262172e+01 
-5.166423940900e+01 1.081110758908e+00 0.0 
1.081110758908e+00 -6.732252090268e+01 0.0 
0.0 0.0 -3.529602809350e+01 
-5.029257815161e+01 8.013011549159e-01 0.0 
8.013011549159e-01 -6.454633200717e+01 0.0 
0.0 0.0 -3.405167304764e+01 
-5.715670845125e+01 1.507416405599e+00 0.0 
1.507416405599e+00 -8.325931648582e+01 0.0 
0.0 0.0 -4.172480748112e+01 
-1.198788687947e+02 3.501987091759e+01 0.0 
3.501987091759e+01 -3.002317153419e+02 0.0 
0.0 0.0 -1.256331752410e+02 
-4.311234940033e+01 2.895723775637e+01 0.0 
2.895723775637e+01 -5.502575958473e+01 0.0 
0.0 0.0 -2.870674304903e+01 
-6.011312059716e+01 3.259124131735e+01 0.0 
3.259124131735e+01 -5.888294371576e+01 0.0 
0.0 0.0 -3.529881929388e+01 
-1.268291618897e+02 2.461640412146e+01 0.0 
2.461640412146e+01 -3.260067089341e+02 0.0 
0.0 0.0 -1.354507612471e+02 
-1.213576221295e+02 2.152761372826e+01 0.0 
2.152761372826e+01 -3.202857616972e+02 0.0 
0.0 0.0 -1.320930151480e+02 
-5.852980694401e+01 3.527500601100e+01 0.0 
3.527500601100e+01 -7.945506706835e+01 0.0 
0.0 0.0 -4.099546220371e+01 
-4.888798515045e+01 3.108666994130e+01 0.0 
3.108666994130e+01 -5.843745629125e+01 0.0 
0.0 0.0 -3.179763243251e+01 
-1.478635316570e+02 5.645488205335e+00 0.0 
5.645488205335e+00 -3.717372554350e+02 0.0 
0.0 0.0 -1.554802361276e+02 
-6.031818114033e+01 3.028761994535e+01 0.0 
3.028761994535e+01 -1.458514377883e+02 0.0 
0.0 0.0 -6.145088567860e+01 
-9.299138758197e+01 2.381065794105e+01 0.0 
2.381065794105e+01 -1.987202974432e+02 0.0 
0.0 0.0 -8.711350550756e+01 
-4.165314284930e+01 2.240332366124e+01 0.0 
2.240332366124e+01 -8.829783830994e+01 0.0 
0.0 0.0 -3.978527820720e+01 
-4.187732863866e+01 2.265560384862e+01 0.0 
2.265560384862e+01 -1.079617702172e+02 0.0 
0.0 0.0 -4.632769015117e+01 
-6.314254234779e+01 3.276922847910e+01 0.0 
3.276922847910e+01 -1.472168313295e+02 0.0 
0.0 0.0 -6.270781210319e+01 
-6.470035018541e+01 3.680445959686e+01 0.0 
3.680445959686e+01 -9.886645684256e+01 0.0 
0.0 0.0 -4.867004210839e+01 
-5.683439999962e+01 3.551076414378e+01 0.0 
3.551076414378e+01 -9.863039130602e+01 0.0 
0.0 0.0 -4.623943739169e+01 
-5.289802840046e+01 3.373169746528e+01 0.0 
3.373169746528e+01 -7.881431313694e+01 0.0 
0.0 0.0 -3.911370246122e+01 
-1.104526977852e+02 4.531247671740e+00 0.0 
4.531247671740e+00 -3.025401584685e+02 0.0 
0.0 0.0 -1.234978568761e+02 
-2.235309228845e+01 -3.265330076337e+00 0.0 
-3.265330076337e+00 -5.211922066257e+01 0.0 
0.0 0.0 -2.162311707467e+01 
-4.814403345732e+01 3.223005271698e+01 0.0 
3.223005271698e+01 -7.747800145155e+01 0.0 
0.0 0.0 -3.635231367697e+01 
-5.874473726540e+01 2.041363150581e+00 0.0 
2.041363150581e+00 -8.563178049947e+01 0.0 
0.0 0.0 -4.291295532946e+01 
-4.213539629474e+01 2.891003457075e+01 0.0 
2.891003457075e+01 -5.719891595393e+01 0.0 
0.0 0.0 -2.792315051759e+01 
-1.344204301646e+02 -5.258201359052e-01 0.0 
-5.258201359052e-01 -3.117098619359e+02 0.0 
0.0 0.0 -1.334390876301e+02 
-6.078908670834e+01 2.586809367409e+01 0.0 
2.586809367409e+01 -1.582317387139e+02 0.0 
0.0 0.0 -6.530624762666e+01 
-7.118308217148e+01 3.858898556374e+01 0.0 
3.858898556374e+01 -1.381763216509e+02 0.0 
0.0 0.0 -6.240782114672e+01 
-5.138406681473e+01 3.313125924476e+01 0.0 
3.313125924476e+01 -9.641629426044e+01 0.0 
0.0 0.0 -4.375770834023e+01 
-5.815924552918e+01 3.550747970618e+01 0.0 
3.550747970618e+01 -1.141862847051e+02 0.0 
0.0 0.0 -5.130365907028e+01 
-7.898092321860e+01 3.597788300333e+01 0.0 
3.597788300333e+01 -1.215678787361e+02 0.0 
0.0 0.0 -5.976464058642e+01 
-7.269486368233e+01 3.107715830131e+01 0.0 
3.107715830131e+01 -8.076090604002e+01 0.0 
0.0 0.0 -4.563673091671e+01 
-7.235761964102e+01 3.291179757072e+01 0.0 
3.291179757072e+01 -8.032957327124e+01 0.0 
0.0 0.0 -4.540615787368e+01 
-6.105323560362e+01 1.990785335343e+01 0.0 
1.990785335343e+01 -1.688262242622e+02 0.0 
0.0 0.0 -6.856383795976e+01 
-5.450922041178e+01 3.419047176295e+01 0.0 
3.419047176295e+01 -7.904280101850e+01 0.0 
0.0 0.0 -3.966560642908e+01 
-4.507499816895e+01 2.956996992242e+01 0.0 
2.956996992242e+01 -5.536409712802e+01 0.0 
0.0 0.0 -2.973172858909e+01 
-7.785526036312e+01 3.856961701707e+01 0.0 
3.856961701707e+01 -1.389901007492e+02 0.0 
0.0 0.0 -6.465360833369e+01 
-9.300781576974e+01 3.054811648641e+01 0.0 
3.054811648641e+01 -1.594396261338e+02 0.0 
0.0 0.0 -7.533423257106e+01 
-9.631393239624e+01 3.389510079304e+01 0.0 
3.389510079304e+01 -1.771523358534e+02 0.0 
0.0 0.0 -8.163988047488e+01 
-1.003004279197e+02 3.584170983334e+01 0.0 
3.584170983334e+01 -1.990910534403e+02 0.0 
0.0 0.0 -8.941744440800e+01 
-9.974371527058e+01 3.689592550335e+01 0.0 
3.689592550335e+01 -1.953276175777e+02 0.0 
0.0 0.0 -8.812139985448e+01 
-9.518832976897e+01 3.523828986424e+01 0.0 
3.523828986424e+01 -1.731323999552e+02 0.0 
0.0 0.0 -8.009621891726e+01 
-9.850030147618e+01 3.791034679153e+01 0.0 
3.791034679153e+01 -1.916837337337e+02 0.0 
0.0 0.0 -8.665521056297e+01 
-1.029432473709e+02 3.944523646240e+01 0.0 
3.944523646240e+01 -2.132517273162e+02 0.0 
0.0 0.0 -9.445849240615e+01 
-1.021328090357e+02 4.024679196224e+01 0.0 
4.024679196224e+01 -2.109355158449e+02 0.0 
0.0 0.0 -9.352049746418e+01 
-1.078454007499e+02 4.234631234693e+01 0.0 
4.234631234693e+01 -2.355430835348e+02 0.0 
0.0 0.0 -1.026165452854e+02 
-1.056116166513e+02 4.234490073251e+01 0.0 
4.234490073251e+01 -2.295132363519e+02 0.0 
0.0 0.0 -1.001374559010e+02 
-1.000577919725e+02 4.069768639670e+01 0.0 
4.069768639670e+01 -2.073712797892e+02 0.0 
0.0 0.0 -9.182872152852e+01 
-1.032354749462e+02 4.227162152978e+01 0.0 
4.227162152978e+01 -2.252046382827e+02 0.0 
0.0 0.0 -9.813203396867e+01 
-1.087850452015e+02 4.391666351909e+01 0.0 
4.391666351909e+01 -2.455880730959e+02 0.0 
0.0 0.0 -1.059119354892e+02 
-9.792313565325e+01 4.107419596386e+01 0.0 
4.107419596386e+01 -2.039796211094e+02 0.0 
0.0 0.0 -9.017082702880e+01 
-1.325933409967e+02 2.744349640186e+01 0.0 
2.744349640186e+01 -3.302051094538e+02 0.0 
0.0 0.0 -1.384395351352e+02 
-6.709400570023e+01 3.170200004670e+01 0.0 
3.170200004670e+01 -1.630598434363e+02 0.0 
0.0 0.0 -6.864615474095e+01 
-4.103231859295e+01 1.123208981531e+01 0.0 
1.123208981531e+01 -1.250010629577e+02 0.0 
0.0 0.0 -5.174370743862e+01 
-4.649797194701e+01 2.961017265041e+01 0.0 
2.961017265041e+01 -9.856941448592e+01 0.0 
0.0 0.0 -4.427627500756e+01 
-7.336087320293e+01 3.876447611523e+01 0.0 
3.876447611523e+01 -1.381456647468e+02 0.0 
0.0 0.0 -6.305196138492e+01 
-1.111883840901e+02 4.376565213609e+01 0.0 
4.376565213609e+01 -2.514812563404e+02 0.0 
0.0 0.0 -1.084008921292e+02 
-1.053792290809e+02 3.913703665676e+01 0.0 
3.913703665676e+01 -2.323785954443e+02 0.0 
0.0 0.0 -1.009273473576e+02 
-5.452808551408e+01 2.444137855975e+01 0.0 
2.444137855975e+01 -1.431016349371e+02 0.0 
0.0 0.0 -5.888891613536e+01 
-1.221406868881e+02 4.298592832726e+01 0.0 
4.298592832726e+01 -2.938251040577e+02 0.0 
0.0 0.0 -1.243897372838e+02 
-7.447083994235e+01 3.502470703850e+01 0.0 
3.502470703850e+01 -1.006562714260e+02 0.0 
0.0 0.0 -5.213813341052e+01 
-4.648806247104e+01 1.482628347476e+01 0.0 
1.482628347476e+01 -1.360810291884e+02 0.0 
0.0 0.0 -5.480344518816e+01 
-1.268379845796e+02 3.957359931703e+01 0.0 
3.957359931703e+01 -3.061671594145e+02 0.0 
0.0 0.0 -1.295015431982e+02 
-9.187586361505e+01 3.214191587017e+01 0.0 
3.214191587017e+01 -1.545560712282e+02 0.0 
0.0 0.0 -7.352958045299e+01 
-9.028476805482e+01 3.373415889975e+01 0.0 
3.373415889975e+01 -1.503047570417e+02 0.0 
0.0 0.0 -7.177685752894e+01 
-8.690509991888e+01 3.045620497962e+01 0.0 
3.045620497962e+01 -1.314496874281e+02 0.0 
0.0 0.0 -6.510643620408e+01 
-1.003804120256e+02 3.385299594113e+01 0.0 
3.385299594113e+01 -2.187635990505e+02 0.0 
0.0 0.0 -9.534320332282e+01 
-6.754132679381e+01 1.087567846778e+01 0.0 
1.087567846778e+01 -7.397025987453e+01 0.0 
0.0 0.0 -4.205347600050e+01 
-1.364579976805e+02 3.273220577088e+01 0.0 
3.273220577088e+01 -3.296215601227e+02 0.0 
0.0 0.0 -1.394238673410e+02 
-8.745183097922e+01 1.636704669951e+01 0.0 
1.636704669951e+01 -2.403182605105e+02 0.0 
0.0 0.0 -9.793102744692e+01 
-8.279209465718e+01 1.821000188322e+01 0.0 
1.821000188322e+01 -2.270195945381e+02 0.0 
0.0 0.0 -9.254350675858e+01 
-7.600712521697e+01 1.721162689102e+01 0.0 
1.721162689102e+01 -2.106594523518e+02 0.0 
0.0 0.0 -8.559997327065e+01 
-9.677437321611e+01 3.870378083662e+01 0.0 
3.870378083662e+01 -1.883444555691e+02 0.0 
0.0 0.0 -8.513564863556e+01 
-1.454840442838e+02 2.422150135992e+01 0.0 
2.422150135992e+01 -3.539363175799e+02 0.0 
0.0 0.0 -1.494261085591e+02 
-1.353788909568e+02 2.090691829002e+01 0.0 
2.090691829002e+01 -3.434233899129e+02 0.0 
0.0 0.0 -1.432406842609e+02 
-1.380028857238e+02 1.883139175520e+01 0.0 
1.883139175520e+01 -3.498277630160e+02 0.0 
0.0 0.0 -1.459491946219e+02 
-1.252564756146e+02 1.769740402231e+01 0.0 
1.769740402231e+01 -3.314360103328e+02 0.0 
0.0 0.0 -1.366077457842e+02 
-1.508729441917e+02 1.954179832289e+01 0.0 
1.954179832289e+01 -3.674741561724e+02 0.0 
0.0 0.0 -1.551041301092e+02 
-1.172658293912e+02 4.610547536826e+01 0.0 
4.610547536826e+01 -2.727754355664e+02 0.0 
0.0 0.0 -1.166123794873e+02 
-1.194381584930e+02 4.598797428820e+01 0.0 
4.598797428820e+01 -2.819986449226e+02 0.0 
0.0 0.0 -1.200310410247e+02 
-5.892276069873e+01 -1.899883202114e+01 0.0 
-1.899883202114e+01 -1.645811571928e+02 0.0 
0.0 0.0 -6.665117536745e+01 
-5.966867229165e+01 -1.667730971645e+01 0.0 
-1.667730971645e+01 -1.692766043117e+02 0.0 
0.0 0.0 -6.828358298102e+01 
-6.551681083585e+01 -1.341008508098e+01 0.0 
-1.341008508098e+01 -1.872613593135e+02 0.0 
0.0 0.0 -7.543345104481e+01 
-6.014469516507e+01 -1.296997323156e+01 0.0 
-1.296997323156e+01 -1.740097574468e+02 0.0 
0.0 0.0 -6.984633578357e+01 
-5.471504904809e+01 -1.620872580067e+01 0.0 
-1.620872580067e+01 -1.569740139438e+02 0.0 
0.0 0.0 -6.310671889757e+01 
-5.510318116432e+01 -1.069513731741e+01 0.0 
-1.069513731741e+01 -1.629551842293e+02 0.0 
0.0 0.0 -6.501750961808e+01 
-6.051439159912e+01 -8.010903077396e+00 0.0 
-8.010903077396e+00 -1.780924532779e+02 0.0 
0.0 0.0 -7.118205346310e+01 
-5.129563142464e+01 -5.509061735407e+00 0.0 
-5.509061735407e+00 -1.559961176545e+02 0.0 
0.0 0.0 -6.178752472376e+01 
-1.043596115042e+02 4.321453109491e+01 0.0 
4.321453109491e+01 -2.393034194334e+02 0.0 
0.0 0.0 -1.026989092813e+02 
-1.560632755027e+02 1.425730445008e+01 0.0 
1.425730445008e+01 -3.803093509850e+02 0.0 
0.0 0.0 -1.605117879463e+02 
-1.053770181530e+02 -5.978476464603e+00 0.0 
-5.978476464603e+00 -2.830043908871e+02 0.0 
0.0 0.0 -1.161144227120e+02 
-1.003938499091e+02 -5.372572260785e+00 0.0 
-5.372572260785e+00 -2.759234823184e+02 0.0 
0.0 0.0 -1.124951996682e+02 
-9.387235569869e+01 -7.783027771422e+00 0.0 
-7.783027771422e+00 -2.588119901794e+02 0.0 
0.0 0.0 -1.054053037634e+02 
-8.746222904466e+01 -7.593329520069e+00 0.0 
-7.593329520069e+00 -2.010739967925e+02 0.0 
0.0 0.0 -8.616086775115e+01 
-9.149065990706e+01 -8.551703494234e+00 0.0 
-8.551703494234e+00 -2.145718173535e+02 0.0 
0.0 0.0 -9.141874317817e+01 
-9.878385386254e+01 -7.955217230007e+00 0.0 
-7.955217230007e+00 -2.348953338964e+02 0.0 
0.0 0.0 -9.970375632768e+01 
-8.296309559849e+01 -6.419594541835e+00 0.0 
-6.419594541835e+00 -1.878605464094e+02 0.0 
0.0 0.0 -8.084709260238e+01 
-9.113948644677e+01 3.161049278015e+01 0.0 
3.161049278015e+01 -2.319392576032e+02 0.0 
0.0 0.0 -9.652362321499e+01 
-1.580923735794e+02 1.150270783117e+01 0.0 
1.150270783117e+01 -3.847756367321e+02 0.0 
0.0 0.0 -1.624604030935e+02 
-9.311133761039e+01 5.543274657060e+00 0.0 
5.543274657060e+00 -2.596064997433e+02 0.0 
0.0 0.0 -1.054153512061e+02 
-8.795026442805e+01 -9.865632508199e+00 0.0 
-9.865632508199e+00 -2.079857210547e+02 0.0 
0.0 0.0 -8.838079564483e+01 
-4.582668433331e+01 4.920359977698e+00 0.0 
4.920359977698e+00 -1.935391363491e+01 0.0 
0.0 0.0 -1.915417939046e+01 
-5.944027512198e+01 1.145833626339e+01 0.0 
1.145833626339e+01 -4.080989656717e+01 0.0 
0.0 0.0 -2.967505150675e+01 
-6.545808215363e+01 1.704575075788e+01 0.0 
1.704575075788e+01 -4.708247756595e+01 0.0 
0.0 0.0 -3.336216791588e+01 
-7.087441700216e+01 1.835994485356e+01 0.0 
1.835994485356e+01 -6.728626832030e+01 0.0 
0.0 0.0 -4.104820559674e+01 
-5.571809044020e+01 8.045375628703e+00 0.0 
8.045375628703e+00 -3.986266340322e+01 0.0 
0.0 0.0 -2.827422615303e+01 
-1.023339330251e+02 -4.904336792416e+00 0.0 
-4.904336792416e+00 -2.366304426794e+02 0.0 
0.0 0.0 -1.012893127114e+02 
-1.060442855685e+02 -3.800517348270e+00 0.0 
-3.800517348270e+00 -2.445341437752e+02 0.0 
0.0 0.0 -1.047735288031e+02 
-1.018101763164e+02 -3.076204208763e+00 0.0 
-3.076204208763e+00 -2.325299252967e+02 0.0 
0.0 0.0 -9.990203048394e+01 
-1.097991335668e+02 -2.763032221809e+00 0.0 
-2.763032221809e+00 -2.526158190046e+02 0.0 
0.0 0.0 -1.083244857714e+02 
-1.053491659909e+02 -2.034486024227e+00 0.0 
-2.034486024227e+00 -2.403945728798e+02 0.0 
0.0 0.0 -1.033231216612e+02 
-9.785612879444e+01 -2.227790176573e+00 0.0 
-2.227790176573e+00 -2.217240109273e+02 0.0 
0.0 0.0 -9.547404191652e+01 
-1.134490743127e+02 -1.754161052767e+00 0.0 
-1.754161052767e+00 -2.604677365248e+02 0.0 
0.0 0.0 -1.117750432513e+02 
-1.083226805539e+02 -1.225176934303e+00 0.0 
-1.225176934303e+00 -2.471768353162e+02 0.0 
0.0 0.0 -1.062498547610e+02 
-3.866973358377e+01 1.795944011122e+00 0.0 
1.795944011122e+00 -1.753563139576e+01 0.0 
0.0 0.0 -1.646160949386e+01 
-3.057959518907e+01 -2.303051110484e+01 0.0 
-2.303051110484e+01 -5.138910878550e+01 0.0 
0.0 0.0 -2.371174196732e+01 
-3.585852334578e+01 -2.644687961251e+01 0.0 
-2.644687961251e+01 -6.241046858869e+01 0.0 
0.0 0.0 -2.916694024574e+01 
-2.718643792547e+01 -1.800863438242e+01 0.0 
-1.800863438242e+01 -4.783830407220e+01 0.0 
0.0 0.0 -2.151638969075e+01 
-4.076093632307e+01 -2.658424926543e+01 0.0 
-2.658424926543e+01 -7.809587180285e+01 0.0 
0.0 0.0 -3.452659990189e+01 
-3.934844149567e+01 -2.634323736074e+01 0.0 
-2.634323736074e+01 -8.588819819220e+01 0.0 
0.0 0.0 -3.731779671794e+01 
-4.405031668855e+01 -2.673625016714e+01 0.0 
-2.673625016714e+01 -1.034193550922e+02 0.0 
0.0 0.0 -4.315686437828e+01 
-4.072447885616e+01 -2.424781747896e+01 0.0 
-2.424781747896e+01 -1.022021094178e+02 0.0 
0.0 0.0 -4.268237396493e+01 
-3.753529393098e+01 -2.543212651624e+01 0.0 
-2.543212651624e+01 -8.062807349666e+01 0.0 
0.0 0.0 -3.603239566076e+01 
-5.672145832607e+00 -3.820074843658e+00 0.0 
-3.820074843658e+00 -1.941815263352e+01 0.0 
0.0 0.0 -6.957643191868e+00 
-1.771123888610e+01 -6.868315168786e+00 0.0 
-6.868315168786e+00 -3.756332510580e+01 0.0 
0.0 0.0 -1.553745734826e+01 
-1.208741118343e+00 -2.696111926736e-01 0.0 
-2.696111926736e-01 -1.808933087839e+01 0.0 
0.0 0.0 -3.862055011210e+00 
-1.061443219591e+01 -2.567353832902e+00 0.0 
-2.567353832902e+00 -3.470340351154e+01 0.0 
0.0 0.0 -1.239154863783e+01 
-3.070916702779e+01 -1.020636636933e+01 0.0 
-1.020636636933e+01 -5.895016790842e+01 0.0 
0.0 0.0 -2.525893377663e+01 
-3.834512098316e+01 -5.476166557091e+00 0.0 
-5.476166557091e+00 -8.142211300798e+01 0.0 
0.0 0.0 -3.551623915548e+01 
-1.638627490164e+02 -4.469585007763e-01 0.0 
-4.469585007763e-01 -3.843859709930e+02 0.0 
0.0 0.0 -1.640746160028e+02 
-8.452938839562e+01 -8.480268512231e-01 0.0 
-8.480268512231e-01 -1.898198111949e+02 0.0 
0.0 0.0 -8.190475987715e+01 
-8.025458336585e+01 -1.670029196978e+00 0.0 
-1.670029196978e+00 -1.801326202486e+02 0.0 
0.0 0.0 -7.771616108435e+01 
-7.165110764451e+01 -1.504502620693e+00 0.0 
-1.504502620693e+00 -1.604298542522e+02 0.0 
0.0 0.0 -6.922428856900e+01 
-7.647177224268e+01 -2.378947814974e+00 0.0 
-2.378947814974e+00 -1.714049439745e+02 0.0 
0.0 0.0 -7.396301486514e+01 
-8.793656569366e+01 -1.716122908862e+00 0.0 
-1.716122908862e+00 -1.980846338924e+02 0.0 
0.0 0.0 -8.540635987583e+01 
-6.650988003159e+01 -6.959155610293e-01 0.0 
-6.959155610293e-01 -1.495104785937e+02 0.0 
0.0 0.0 -6.440610758758e+01 
-6.319008875087e+01 -1.298270264987e+00 0.0 
-1.298270264987e+00 -1.423697059442e+02 0.0 
0.0 0.0 -6.126793840851e+01 
5.712929252007e-01 9.639365929346e-03 0.0 
9.639365929346e-03 -1.713994520328e+01 0.0 
0.0 0.0 -3.367113209820e+00 
-4.388496289806e+00 1.698448615328e-02 0.0 
1.698448615328e-02 -3.352999181729e+01 0.0 
0.0 0.0 -1.089322257701e+01 
-3.894376934866e+00 -3.664049668241e-02 0.0 
-3.664049668241e-02 -3.199977249887e+01 0.0 
0.0 0.0 -1.019235275476e+01 
-1.385474064807e+01 -9.420003804781e-02 0.0 
-9.420003804781e-02 -5.023236459053e+01 0.0 
0.0 0.0 -1.882613157158e+01 
-1.383176957220e+01 -6.682540518839e-02 0.0 
-6.682540518839e-02 -4.983825605568e+01 0.0 
0.0 0.0 -1.870100768836e+01 
-4.594028426590e+00 1.697712262673e-02 0.0 
1.697712262673e-02 -3.385045344910e+01 0.0 
0.0 0.0 -1.107796057338e+01 
-4.711506694438e+00 9.311071735710e-03 0.0 
9.311071735710e-03 -3.388162441080e+01 0.0 
0.0 0.0 -1.115532728122e+01 
6.257708809650e-01 6.957670722453e-02 0.0 
6.957670722453e-02 -1.702209794071e+01 0.0 
0.0 0.0 -3.348554245601e+00 
-4.775910716439e+00 5.621344989999e-02 0.0 
5.621344989999e-02 -3.381072558344e+01 0.0 
0.0 0.0 -1.123523228964e+01 
-1.498120268582e+01 -2.825679273801e-01 0.0 
-2.825679273801e-01 -5.077951520853e+01 0.0 
0.0 0.0 -1.932821536830e+01 
7.132602814094e-01 2.510713045647e-02 0.0 
2.510713045647e-02 -1.646973683388e+01 0.0 
0.0 0.0 -3.190240671378e+00 
-6.511846989190e+01 9.600709995928e-01 0.0 
9.600709995928e-01 -1.101275623942e+02 0.0 
0.0 0.0 -5.217380968584e+01 
-6.838707195174e+01 2.002075833320e+00 0.0 
2.002075833320e+00 -1.212847008313e+02 0.0 
0.0 0.0 -5.650153183491e+01 
-1.606434918831e+02 6.260901497439e+00 0.0 
6.260901497439e+00 -3.888180052127e+02 0.0 
0.0 0.0 -1.644384491287e+02 
-3.632007835374e+01 1.008107370461e+00 0.0 
1.008107370461e+00 -1.936742273296e+01 0.0 
0.0 0.0 -1.630625032601e+01 
1.042574517919e-01 -2.090422348364e-01 0.0 
-2.090422348364e-01 -1.709140096727e+01 0.0 
0.0 0.0 -2.842606233365e+00 
-8.470047424905e+01 8.185075639002e+00 0.0 
8.185075639002e+00 -1.849977904211e+02 0.0 
0.0 0.0 -8.050947940103e+01 
-8.848865104583e+01 1.545348247155e+01 0.0 
1.545348247155e+01 -1.925351508590e+02 0.0 
0.0 0.0 -8.390714057146e+01 
-8.721041289774e+01 1.293229952597e+01 0.0 
1.293229952597e+01 -1.911302704034e+02 0.0 
0.0 0.0 -8.310220499035e+01 
-1.511930159634e+02 -2.906609131278e-01 0.0 
-2.906609131278e-01 -3.523803354317e+02 0.0 
0.0 0.0 -1.506720054185e+02 
-1.552949209401e+02 -4.062317087654e-01 0.0 
-4.062317087654e-01 -3.625181811260e+02 0.0 
0.0 0.0 -1.549439306198e+02 
-8.360505760010e+01 4.528530446015e+00 0.0 
4.528530446015e+00 -1.844782501816e+02 0.0 
0.0 0.0 -8.002499233450e+01 
-6.017226622189e+01 -7.816621685597e+00 0.0 
-7.816621685597e+00 -1.310269875815e+02 0.0 
0.0 0.0 -5.695977614100e+01 
-1.043571717305e+02 3.891263078339e+01 0.0 
3.891263078339e+01 -2.168931448116e+02 0.0 
0.0 0.0 -9.597509496263e+01 
-7.805161416600e+01 7.817469961332e+00 0.0 
7.817469961332e+00 -1.481857982526e+02 0.0 
0.0 0.0 -6.747122372557e+01 
-4.739297978338e+01 2.471791798415e+01 0.0 
2.471791798415e+01 -1.209043422696e+02 0.0 
0.0 0.0 -5.035981176331e+01 
-6.093882371768e+01 -1.399716521862e+01 0.0 
-1.399716521862e+01 -1.360474955928e+02 0.0 
0.0 0.0 -5.869589579315e+01 
-1.258518227990e+02 -1.949519692834e+00 0.0 
-1.949519692834e+00 -2.927137620824e+02 0.0 
0.0 0.0 -1.251696754644e+02 
-1.133511853215e+02 -6.114971175288e+00 0.0 
-6.114971175288e+00 -2.748681223319e+02 0.0 
0.0 0.0 -1.160657922960e+02 
-1.422451417040e+02 -1.525707297730e+00 0.0 
-1.525707297730e+00 -3.364274357339e+02 0.0 
0.0 0.0 -1.432017732314e+02 
-1.178578358269e+02 -3.804972202652e+00 0.0 
-3.804972202652e+00 -2.768002053380e+02 0.0 
0.0 0.0 -1.179974123495e+02 
-1.334157393194e+02 -2.781167276693e+00 0.0 
-2.781167276693e+00 -3.216025308516e+02 0.0 
0.0 0.0 -1.361054810513e+02 
-1.397680295781e+02 1.582669830231e+01 0.0 
1.582669830231e+01 -3.562934759570e+02 0.0 
0.0 0.0 -1.484184516606e+02 
-3.070552438411e+01 -5.988560294433e-01 0.0 
-5.988560294433e-01 -7.887981904231e+01 0.0 
0.0 0.0 -3.247560302793e+01 
-5.981378632168e+01 4.933558980194e+00 0.0 
4.933558980194e+00 -7.332674524973e+01 0.0 
0.0 0.0 -3.954215947142e+01 
-5.289995611695e+01 2.258465664455e+00 0.0 
2.258465664455e+00 -6.517977834119e+01 0.0 
0.0 0.0 -3.502392033744e+01 
-7.116735990075e+01 6.826484880706e+00 0.0 
6.826484880706e+00 -1.160631931138e+02 0.0 
0.0 0.0 -5.576916590436e+01 
-6.017569896368e+01 -4.126861018751e+00 0.0 
-4.126861018751e+00 -1.336274243195e+02 0.0 
0.0 0.0 -5.774093698494e+01 
-9.393902629479e+01 -3.194360801852e+00 0.0 
-3.194360801852e+00 -2.128616952536e+02 0.0 
0.0 0.0 -9.164021646452e+01 
-3.630774221964e+01 -2.393127206680e+00 0.0 
-2.393127206680e+00 -8.442616413930e+01 0.0 
0.0 0.0 -3.582017190768e+01 
-1.171273838674e+02 3.884072344226e+01 0.0 
3.884072344226e+01 -2.891589976412e+02 0.0 
0.0 0.0 -1.214859144526e+02 
-7.259159243473e+01 3.773678995799e+01 0.0 
3.773678995799e+01 -1.188370947463e+02 0.0 
0.0 0.0 -5.702860615432e+01 
-9.220273543692e+01 -1.013513606841e+01 0.0 
-1.013513606841e+01 -2.469482471115e+02 0.0 
0.0 0.0 -1.013452947645e+02 
-7.967878121035e+01 -7.619848624283e+00 0.0 
-7.619848624283e+00 -1.803226435812e+02 0.0 
0.0 0.0 -7.760042743747e+01 
-6.576302689715e+01 -1.007196887620e+01 0.0 
-1.007196887620e+01 -1.456418635692e+02 0.0 
0.0 0.0 -6.302146713992e+01 
-5.830648990125e+01 -1.652658449212e+01 0.0 
-1.652658449212e+01 -1.327848315948e+02 0.0 
0.0 0.0 -5.692739644880e+01 
-7.016284649891e+01 3.424152704734e+01 0.0 
3.424152704734e+01 -1.654378053845e+02 0.0 
0.0 0.0 -7.028019556502e+01 
-9.131367454775e+01 -1.038963641683e+01 0.0 
-1.038963641683e+01 -2.222157839131e+02 0.0 
0.0 0.0 -9.365883753826e+01 
-1.219415988314e+02 -3.980872724667e+00 0.0 
-3.980872724667e+00 -3.128318077748e+02 0.0 
0.0 0.0 -1.300320219819e+02 
-7.298289479442e+01 6.442012488614e+00 0.0 
6.442012488614e+00 -1.271190739310e+02 0.0 
0.0 0.0 -5.963059061762e+01 
3.216282515194e-01 -4.867424006472e-03 0.0 
-4.867424006472e-03 -1.887755546409e+01 0.0 
0.0 0.0 -3.767403199004e+00 
-1.243521762686e+02 -2.088972874823e+00 0.0 
-2.088972874823e+00 -3.245068943867e+02 0.0 
0.0 0.0 -1.342577211966e+02 
-1.051059805572e+02 -8.148892522654e+00 0.0 
-8.148892522654e+00 -2.616708943453e+02 0.0 
0.0 0.0 -1.096330624708e+02 
-6.931388064550e+01 1.040836508058e+01 0.0 
1.040836508058e+01 -8.429847323068e+01 0.0 
0.0 0.0 -4.568370616285e+01 
-1.067540061018e+02 1.812073474524e+01 0.0 
1.812073474524e+01 -2.875805877765e+02 0.0 
0.0 0.0 -1.179003781635e+02 
-4.865824558758e+01 -2.401660781825e+01 0.0 
-2.401660781825e+01 -1.123350083251e+02 0.0 
0.0 0.0 -4.666289482598e+01 
-7.837609365440e+01 1.221728966563e+01 0.0 
1.221728966563e+01 -1.266525506580e+02 0.0 
0.0 0.0 -6.110859329373e+01 
-9.332856453757e+01 2.591668390716e+01 0.0 
2.591668390716e+01 -1.776323580637e+02 0.0 
0.0 0.0 -8.088827678039e+01 
-6.585105995709e+01 1.184841061732e+01 0.0 
1.184841061732e+01 -6.388522527795e+01 0.0 
0.0 0.0 -3.852088557051e+01 
-2.458978630426e+01 -1.148640933773e+00 0.0 
-1.148640933773e+00 -6.438094672860e+01 0.0 
0.0 0.0 -2.629121990986e+01 
-5.111868381547e+01 2.912046372082e+00 0.0 
2.912046372082e+00 -5.250475177544e+01 0.0 
0.0 0.0 -3.068703067727e+01 
-1.394464360034e+02 6.650201107342e+00 0.0 
6.650201107342e+00 -3.602977516739e+02 0.0 
0.0 0.0 -1.495232563032e+02 
-8.932304490227e+01 2.682255037499e+01 0.0 
2.682255037499e+01 -1.421960773423e+02 0.0 
0.0 0.0 -6.905573667336e+01 
-5.401993096300e+01 -2.766459026987e+00 0.0 
-2.766459026987e+00 -1.214646011625e+02 0.0 
0.0 0.0 -5.224535963764e+01 
-8.107140174142e+01 5.066734336882e+00 0.0 
5.066734336882e+00 -2.300178267644e+02 0.0 
0.0 0.0 -9.292676855176e+01 
-7.396881666025e+01 3.895528627616e+01 0.0 
3.895528627616e+01 -1.577379734728e+02 0.0 
0.0 0.0 -6.911203703993e+01 
-5.279633412558e+01 2.576456040607e+01 0.0 
2.576456040607e+01 -3.500355258225e+01 0.0 
0.0 0.0 -2.593996601235e+01 
-8.094744856036e+01 9.932484427315e+00 0.0 
9.932484427315e+00 -1.579920887346e+02 0.0 
0.0 0.0 -7.128186118849e+01 
-7.622267253643e+01 2.421583911415e+01 0.0 
2.421583911415e+01 -2.031804454038e+02 0.0 
0.0 0.0 -8.342093538207e+01 
-1.164925151384e+02 1.522646379874e+01 0.0 
1.522646379874e+01 -3.137121994748e+02 0.0 
0.0 0.0 -1.286614143840e+02 
-9.503482929177e+01 9.395351620181e+00 0.0 
9.395351620181e+00 -2.631628880081e+02 0.0 
0.0 0.0 -1.070593151900e+02 
-5.776740727138e+01 -2.330523538353e+00 0.0 
-2.330523538353e+00 -1.301184421363e+02 0.0 
0.0 0.0 -5.596575482229e+01 
-1.352861949489e+02 -1.581755679651e+00 0.0 
-1.581755679651e+00 -3.386202698548e+02 0.0 
0.0 0.0 -1.417719394411e+02 
-7.337627391326e+01 1.353151747815e+01 0.0 
1.353151747815e+01 -2.069784234586e+02 0.0 
0.0 0.0 -8.370640921156e+01 
-8.334275662142e+01 1.458164654771e+01 0.0 
1.458164654771e+01 -1.485532986866e+02 0.0 
0.0 0.0 -6.916881659240e+01 
-9.607955799457e+01 3.950798050774e+01 0.0 
3.950798050774e+01 -2.302134606583e+02 0.0 
0.0 0.0 -9.748790559587e+01 
-6.271384804150e+01 3.035477376290e+00 0.0 
3.035477376290e+00 -1.851151239685e+02 0.0 
0.0 0.0 -7.394869160301e+01 
-8.634675585268e+01 1.999405578063e+01 0.0 
1.999405578063e+01 -1.418911683801e+02 0.0 
0.0 0.0 -6.807137726982e+01 
-8.874839142723e+01 -6.703949578499e+00 0.0 
-6.703949578499e+00 -2.485363710214e+02 0.0 
0.0 0.0 -1.007854287346e+02 
-1.092734435600e+02 2.126837044876e+01 0.0 
2.126837044876e+01 -2.915270416781e+02 0.0 
0.0 0.0 -1.198401455714e+02 
-7.027217407930e+01 3.785862688802e+01 0.0 
3.785862688802e+01 -1.185046771028e+02 0.0 
0.0 0.0 -5.623305535464e+01 
-8.631947770931e+01 4.036364688275e+01 0.0 
4.036364688275e+01 -1.959061405380e+02 0.0 
0.0 0.0 -8.426768547418e+01 
-9.038460658701e+01 4.018222244824e+01 0.0 
4.018222244824e+01 -1.806915908177e+02 0.0 
0.0 0.0 -8.092285922143e+01 
-8.168218921670e+01 3.379874918799e+01 0.0 
3.379874918799e+01 -2.012774290901e+02 0.0 
0.0 0.0 -8.448788549205e+01 
-1.216578810496e+02 -1.528116021805e+00 0.0 
-1.528116021805e+00 -2.810004966098e+02 0.0 
0.0 0.0 -1.203975132978e+02 
-1.298020663349e+02 -1.931531306280e+00 0.0 
-1.931531306280e+00 -3.315475214191e+02 0.0 
0.0 0.0 -1.380048763262e+02 
-4.293055459834e+01 -1.329709469812e+01 0.0 
-1.329709469812e+01 -1.290247508693e+02 0.0 
0.0 0.0 -5.233569747781e+01 
-6.215888853048e+01 3.560258174440e+01 0.0 
3.560258174440e+01 -1.321163581030e+02 0.0 
0.0 0.0 -5.788257399004e+01 
-7.400357956107e+01 1.530090701021e+01 0.0 
1.530090701021e+01 -8.741283022353e+01 0.0 
0.0 0.0 -4.802492293538e+01 
-1.068734230573e+02 3.452085240775e+01 0.0 
3.452085240775e+01 -2.698600697171e+02 0.0 
0.0 0.0 -1.126200478323e+02 
-8.734407764127e+01 1.662714205428e+01 0.0 
1.662714205428e+01 -1.703967432758e+02 0.0 
0.0 0.0 -7.692224627512e+01 
-6.903965189469e+01 3.832990711198e+01 0.0 
3.832990711198e+01 -1.386381369740e+02 0.0 
0.0 0.0 -6.190333666062e+01 
-1.320361840076e+02 -2.807082480845e+00 0.0 
-2.807082480845e+00 -3.266597506729e+02 0.0 
0.0 0.0 -1.372087804042e+02 
-9.009697505053e+01 2.239163529435e+01 0.0 
2.239163529435e+01 -1.638798340949e+02 0.0 
0.0 0.0 -7.579304274363e+01 
-9.505580890964e+01 -9.179132822777e+00 0.0 
-9.179132822777e+00 -2.282495199728e+02 0.0 
0.0 0.0 -9.659159866473e+01 
-3.648772096176e+01 -2.404165588056e-01 0.0 
-2.404165588056e-01 -9.040600383236e+01 0.0 
0.0 0.0 -3.766811743824e+01 
-4.713309619757e+01 2.792565606290e+01 0.0 
2.792565606290e+01 -1.086570355645e+02 0.0 
0.0 0.0 -4.672924112007e+01 
-5.280028279510e+01 1.862966886914e+00 0.0 
1.862966886914e+00 -1.605560562370e+02 0.0 
0.0 0.0 -6.360690170964e+01 
-7.309271989620e+01 2.072571799014e+01 0.0 
2.072571799014e+01 -1.994771983883e+02 0.0 
0.0 0.0 -8.137097548536e+01 
-1.021191936346e+02 -8.273730749055e+00 0.0 
-8.273730749055e+00 -2.482572892703e+02 0.0 
0.0 0.0 -1.047129448715e+02 
-1.011975741341e+02 3.530301474066e+01 0.0 
3.530301474066e+01 -2.075356007179e+02 0.0 
0.0 0.0 -9.221995245560e+01 
-1.370328525047e+02 -2.183864635006e+00 0.0 
-2.183864635006e+00 -3.337687988824e+02 0.0 
0.0 0.0 -1.408404954161e+02 
-1.157706233763e+02 3.128324978040e+00 0.0 
3.128324978040e+00 -3.158225544860e+02 0.0 
0.0 0.0 -1.290779533587e+02 
-3.495922312461e+01 2.377636227342e+01 0.0 
2.377636227342e+01 -3.712928702926e+01 0.0 
0.0 0.0 -2.092398672185e+01 
-6.538857895327e+01 3.231168416526e+01 0.0 
3.231168416526e+01 -5.885682044959e+01 0.0 
0.0 0.0 -3.687361982086e+01 
-1.418893599955e+02 -1.627722419539e+00 0.0 
-1.627722419539e+00 -3.410534158589e+02 0.0 
0.0 0.0 -1.444828327563e+02 
-8.626780919043e+01 3.291452560481e+00 0.0 
3.291452560481e+00 -2.431662410701e+02 0.0 
0.0 0.0 -9.843021507816e+01 
-1.138947706027e+02 1.978208476114e+01 0.0 
1.978208476114e+01 -3.043340552996e+02 0.0 
0.0 0.0 -1.250686477707e+02 
-1.005556886322e+02 -1.403323825224e+00 0.0 
-1.403323825224e+00 -2.278411719235e+02 0.0 
0.0 0.0 -9.811905816672e+01 
-1.186001272996e+02 3.721392610484e+01 0.0 
3.721392610484e+01 -2.947038959132e+02 0.0 
0.0 0.0 -1.235912069638e+02 
-5.070997950125e+01 3.155670229781e+01 0.0 
3.155670229781e+01 -5.873085277532e+01 0.0 
0.0 0.0 -3.243224968297e+01 
-1.465936294586e+02 -1.202140860865e+00 0.0 
-1.202140860865e+00 -3.487951693123e+02 0.0 
0.0 0.0 -1.482166396313e+02 
-1.123684515794e+02 8.219358630965e+00 0.0 
8.219358630965e+00 -3.064149452660e+02 0.0 
0.0 0.0 -1.252350190536e+02 
-5.734061152278e+01 2.785542969252e+01 0.0 
2.785542969252e+01 -1.435916809661e+02 0.0 
0.0 0.0 -5.987968774666e+01 
-3.161066744169e+01 1.385197429883e-01 0.0 
1.385197429883e-01 -1.667886341780e+01 0.0 
0.0 0.0 -1.408685925785e+01 
-1.566870990286e+02 -4.947959327172e-01 0.0 
-4.947959327172e-01 -3.707453807552e+02 0.0 
0.0 0.0 -1.578297439352e+02 
-1.196737862561e+02 1.045277034790e+01 0.0 
1.045277034790e+01 -3.237393774368e+02 0.0 
0.0 0.0 -1.326239491079e+02 
-8.614948961726e+01 3.252764706731e+01 0.0 
3.252764706731e+01 -2.165355500569e+02 0.0 
0.0 0.0 -9.040551190226e+01 
-8.481358018742e+01 -8.632907228162e-01 0.0 
-8.632907228162e-01 -2.398094441765e+02 0.0 
0.0 0.0 -9.698690730918e+01 
-4.160871441188e+01 2.484543154594e+01 0.0 
2.484543154594e+01 -3.486147105186e+01 0.0 
0.0 0.0 -2.254105563912e+01 
-1.060323240015e+02 -7.135321230514e+00 0.0 
-7.135321230514e+00 -2.549531505697e+02 0.0 
0.0 0.0 -1.078956423714e+02 
-8.890762095957e+01 4.103744455466e+01 0.0 
4.103744455466e+01 -1.972900019907e+02 0.0 
0.0 0.0 -8.545928688507e+01 
-9.775754025333e+01 3.078547674040e+01 0.0 
3.078547674040e+01 -2.127833414595e+02 0.0 
0.0 0.0 -9.276226451384e+01 
-1.216294110732e+02 1.386642859044e+01 0.0 
1.386642859044e+01 -3.268452418166e+02 0.0 
0.0 0.0 -1.341423958669e+02 
-8.507457346892e+01 3.235004852893e+01 0.0 
3.235004852893e+01 -1.273340320888e+02 0.0 
0.0 0.0 -6.332258166732e+01 
-1.025065931656e+02 -6.739837204582e+00 0.0 
-6.739837204582e+00 -2.418716619314e+02 0.0 
0.0 0.0 -1.029134765291e+02 
-9.251695427793e+01 2.264874434663e+01 0.0 
2.264874434663e+01 -2.475659659825e+02 0.0 
0.0 0.0 -1.016248760781e+02 
-1.423223500725e+01 -6.588289613598e-02 0.0 
-6.588289613598e-02 -5.006451984802e+01 0.0 
0.0 0.0 -1.888902645658e+01 
-5.600859353670e+01 3.238698375245e+01 0.0 
3.238698375245e+01 -5.873604428699e+01 0.0 
0.0 0.0 -3.402339134711e+01 
-1.062659792633e+02 -5.551795053092e+00 0.0 
-5.551795053092e+00 -2.491813257360e+02 0.0 
0.0 0.0 -1.062341914998e+02 
-5.585755617104e+01 -4.430524498970e+00 0.0 
-4.430524498970e+00 -1.677995101219e+02 0.0 
0.0 0.0 -6.669711988788e+01 
-8.998417867468e+01 -2.600355066276e+00 0.0 
-2.600355066276e+00 -2.524034968407e+02 0.0 
0.0 0.0 -1.023163026546e+02 
-1.243622827985e+02 2.848387992535e+01 0.0 
2.848387992535e+01 -3.169613436116e+02 0.0 
0.0 0.0 -1.319970879230e+02 
-1.100775872083e+02 -4.424855465188e+00 0.0 
-4.424855465188e+00 -2.567942513158e+02 0.0 
0.0 0.0 -1.096615515572e+02 
-6.133120209681e+01 -2.517889858866e+00 0.0 
-2.517889858866e+00 -1.817925807653e+02 0.0 
0.0 0.0 -7.253713485865e+01 
-1.139064725082e+02 -3.374463619725e+00 0.0 
-3.374463619725e+00 -2.646050120359e+02 0.0 
0.0 0.0 -1.131534453632e+02 
-3.767033780692e+01 2.413024930748e+01 0.0 
2.413024930748e+01 -3.482558469744e+01 0.0 
0.0 0.0 -2.134877675131e+01 
-8.837775144121e+01 3.519594142103e+01 0.0 
3.519594142103e+01 -1.468544352723e+02 0.0 
0.0 0.0 -7.016965601407e+01 
-1.177608153259e+02 -2.376728542927e+00 0.0 
-2.376728542927e+00 -2.725285417679e+02 0.0 
0.0 0.0 -1.166868071282e+02 
-9.406957500792e+01 4.142502805270e+01 0.0 
4.142502805270e+01 -2.163271170925e+02 0.0 
0.0 0.0 -9.271900763013e+01 
-1.634555925932e+01 -3.219263037722e-01 0.0 
-3.219263037722e-01 -5.241450388697e+01 0.0 
0.0 0.0 -2.022801894389e+01 
-8.786179800057e+01 2.927797317517e+01 0.0 
2.927797317517e+01 -2.268413300759e+02 0.0 
0.0 0.0 -9.401093842293e+01 
-1.466474996353e+02 -6.444680954324e-01 0.0 
-6.444680954324e-01 -3.419726791796e+02 0.0 
0.0 0.0 -1.461860536445e+02 
-7.425842442697e+01 -1.350050815422e+01 0.0 
-1.350050815422e+01 -1.771984291245e+02 0.0 
0.0 0.0 -7.503705606544e+01 
-9.516441623424e+01 -4.206743410298e+00 0.0 
-4.206743410298e+00 -2.649359564319e+02 0.0 
0.0 0.0 -1.076301117998e+02 
-9.353356944470e+01 3.647894189736e+01 0.0 
3.647894189736e+01 -1.693799126612e+02 0.0 
0.0 0.0 -7.847404463177e+01 
-3.591859721678e+01 2.357131586047e+01 0.0 
2.357131586047e+01 -3.397231843079e+01 0.0 
0.0 0.0 -2.056727469427e+01 
-1.018141203980e+02 -1.718325641991e+00 0.0 
-1.718325641991e+00 -2.816015208940e+02 0.0 
0.0 0.0 -1.146246923876e+02 
-9.917630745679e+01 4.134987312501e+01 0.0 
4.134987312501e+01 -2.342803523430e+02 0.0 
0.0 0.0 -9.963699793994e+01 
-9.101051345975e+01 2.707115939433e+01 0.0 
2.707115939433e+01 -2.384207986949e+02 0.0 
0.0 0.0 -9.842939364640e+01 
-7.877094479669e+01 2.059203663926e+01 0.0 
2.059203663926e+01 -2.143670173051e+02 0.0 
0.0 0.0 -8.754138863054e+01 
-1.087040422719e+02 7.455243217091e-01 0.0 
7.455243217091e-01 -2.985983802298e+02 0.0 
0.0 0.0 -1.217907267505e+02 
-4.751956698909e+01 3.066910097720e+01 0.0 
3.066910097720e+01 -5.819977936498e+01 0.0 
0.0 0.0 -3.131580390622e+01 
-5.764668808939e+01 -9.205454957545e+00 0.0 
-9.205454957545e+00 -1.243345178722e+02 0.0 
0.0 0.0 -5.419436178846e+01 
-4.872951151747e+01 -7.659879378440e+00 0.0 
-7.659879378440e+00 -1.029903483628e+02 0.0 
0.0 0.0 -4.511595796409e+01 
-6.654550680437e+01 -4.943672172858e+00 0.0 
-4.943672172858e+00 -1.941818184998e+02 0.0 
0.0 0.0 -7.781819759125e+01 
-1.020381422152e+02 4.259428698521e+01 0.0 
4.259428698521e+01 -2.372339843174e+02 0.0 
0.0 0.0 -1.013816379598e+02 
-2.329077012659e+01 -1.270924910692e-01 0.0 
-1.270924910692e-01 -6.640297514872e+01 0.0 
0.0 0.0 -2.650812358259e+01 
-9.477719057640e+01 3.942901518258e+01 0.0 
3.942901518258e+01 -1.852933686603e+02 0.0 
0.0 0.0 -8.362116777100e+01 
-3.604134359694e+01 -6.315555748697e+00 0.0 
-6.315555748697e+00 -7.432838045115e+01 0.0 
0.0 0.0 -3.259083355050e+01 
-6.598594571884e+01 -9.547399380511e+00 0.0 
-9.547399380511e+00 -1.909535242373e+02 0.0 
0.0 0.0 -7.668184098684e+01 
-1.026198833635e+02 2.670452887597e+01 0.0 
2.670452887597e+01 -2.691891085432e+02 0.0 
0.0 0.0 -1.111426975720e+02 
-5.236427668470e+01 6.104596576083e-01 0.0 
6.104596576083e-01 -7.092784735808e+01 0.0 
0.0 0.0 -3.658763721283e+01 
-7.141614747691e+01 -1.039389324583e+01 0.0 
-1.039389324583e+01 -2.040505247893e+02 0.0 
0.0 0.0 -8.224000167987e+01 
-4.698202700970e+01 -3.981735294651e-01 0.0 
-3.981735294651e-01 -1.101416300783e+02 0.0 
0.0 0.0 -4.673709712639e+01 
-7.061818867632e+01 -1.393089277530e+01 0.0 
-1.393089277530e+01 -1.997577818597e+02 0.0 
0.0 0.0 -8.071279116081e+01 
-8.540751665317e+01 2.139671767837e+01 0.0 
2.139671767837e+01 -2.306061027239e+02 0.0 
0.0 0.0 -9.440408581313e+01 
-7.528314973526e+01 -1.439608863115e+01 0.0 
-1.439608863115e+01 -2.067755026076e+02 0.0 
0.0 0.0 -8.421759570286e+01 
-7.348037452118e+01 -1.549362705712e+01 0.0 
-1.549362705712e+01 -1.909026649836e+02 0.0 
0.0 0.0 -7.891491185145e+01 
-8.251092023408e+01 9.151617523804e+00 0.0 
9.151617523804e+00 -1.695339017198e+02 0.0 
0.0 0.0 -7.521344658616e+01 
-7.724838130353e+01 -1.413040678133e+01 0.0 
-1.413040678133e+01 -1.935443717005e+02 0.0 
0.0 0.0 -8.083782590120e+01 
-8.453485496938e+01 2.701554411832e+00 0.0 
2.701554411832e+00 -1.879413046845e+02 0.0 
0.0 0.0 -8.134284789617e+01 
-1.645453036879e+02 -2.387837516823e-01 0.0 
-2.387837516823e-01 -3.847389650262e+02 0.0 
0.0 0.0 -1.643852806142e+02 
-3.756155172193e+01 2.497761495416e-01 0.0 
2.497761495416e-01 -3.158199262678e+01 0.0 
0.0 0.0 -2.034306330461e+01 
-3.280896743019e+01 2.199470416314e+01 0.0 
2.199470416314e+01 -2.978004107001e+01 0.0 
0.0 0.0 -1.837670255006e+01 
-5.629677575676e+01 3.556717505565e+00 0.0 
3.556717505565e+00 -1.132808218004e+02 0.0 
0.0 0.0 -5.175302783032e+01 
-4.690131090342e+01 3.072354667070e+01 0.0 
3.072354667070e+01 -6.111763215019e+01 0.0 
0.0 0.0 -3.200568291608e+01 
-6.769633930538e+01 -1.399353154177e+01 0.0 
-1.399353154177e+01 -1.569073934241e+02 0.0 
0.0 0.0 -6.698111981885e+01 
-9.569615461426e+01 4.123891769489e+01 0.0 
4.123891769489e+01 -2.012385803359e+02 0.0 
0.0 0.0 -8.868042048505e+01 
-3.799333681018e+01 2.727545042295e-01 0.0 
2.727545042295e-01 -3.229780495927e+01 0.0 
0.0 0.0 -2.068734253084e+01 
-6.333022347186e+01 -1.188932806547e+01 0.0 
-1.188932806547e+01 -1.403196090907e+02 0.0 
0.0 0.0 -6.069494976875e+01 
-1.111962647815e+02 4.422131251668e+01 0.0 
4.422131251668e+01 -2.517856099176e+02 0.0 
0.0 0.0 -1.084945624097e+02 
-1.320522973608e+02 3.630981842867e+01 0.0 
3.630981842867e+01 -3.186996453385e+02 0.0 
0.0 0.0 -1.348255828098e+02 
-6.224644455329e+01 1.510866088823e+00 0.0 
1.510866088823e+00 -1.000955526663e+02 0.0 
0.0 0.0 -4.830259916589e+01 
-1.184805191708e+02 1.844445915639e+01 0.0 
1.844445915639e+01 -3.165241756240e+02 0.0 
0.0 0.0 -1.301014084385e+02 
-9.526108987208e+01 2.548168020234e+01 0.0 
2.548168020234e+01 -2.515179777745e+02 0.0 
0.0 0.0 -1.036337202940e+02 
-7.538724597920e+01 1.324154150458e+00 0.0 
1.324154150458e+00 -1.489184612596e+02 0.0 
0.0 0.0 -6.689171217165e+01 
-3.216757269200e+01 4.659677576135e-01 0.0 
4.659677576135e-01 -1.525975647314e+01 0.0 
0.0 0.0 -1.382819874954e+01 
-7.805933011222e+00 -1.279631446003e+00 0.0 
-1.279631446003e+00 -3.296847542622e+01 0.0 
0.0 0.0 -1.103896568213e+01 
-1.259911240515e+02 -6.945492436554e-01 0.0 
-6.945492436554e-01 -2.910123694317e+02 0.0 
0.0 0.0 -1.247010480450e+02 
-3.247414787078e+01 2.190986271981e+01 0.0 
2.190986271981e+01 -2.982809447389e+01 0.0 
0.0 0.0 -1.829067270340e+01 
-4.323208730588e+01 2.901201119952e+01 0.0 
2.901201119952e+01 -5.491822378437e+01 0.0 
0.0 0.0 -2.904509332707e+01 
-4.285142287317e+01 2.897347816969e+01 0.0 
2.897347816969e+01 -5.646467423052e+01 0.0 
0.0 0.0 -2.825297206307e+01 
-6.056631313959e+01 -1.795067471452e+00 0.0 
-1.795067471452e+00 -1.368877215628e+02 0.0 
0.0 0.0 -5.883621041071e+01 
-3.545464421571e+01 -1.778457132768e+01 0.0 
-1.778457132768e+01 -6.330730629218e+01 0.0 
0.0 0.0 -2.787308428323e+01 
-3.445379653210e+01 2.311332629884e+01 0.0 
2.311332629884e+01 -3.344045784700e+01 0.0 
0.0 0.0 -1.968633326699e+01 
-1.324366880198e+02 2.298782013372e+01 0.0 
2.298782013372e+01 -3.363581620587e+02 0.0 
0.0 0.0 -1.402384550235e+02 
-4.513941311694e+01 2.626852447027e+00 0.0 
2.626852447027e+00 -3.348713931175e+01 0.0 
0.0 0.0 -2.318796572861e+01 
-1.052984742434e+02 2.902309919038e+01 0.0 
2.902309919038e+01 -2.733837091334e+02 0.0 
0.0 0.0 -1.132046550130e+02 
-3.457990762603e+01 2.301140813785e+01 0.0 
2.301140813785e+01 -3.417081459872e+01 0.0 
0.0 0.0 -1.864942412045e+01 
-9.313517352009e+01 2.483606542213e+01 0.0 
2.483606542213e+01 -1.858378613671e+02 0.0 
0.0 0.0 -8.329191046617e+01 
-1.236712317064e+02 3.178056182039e+01 0.0 
3.178056182039e+01 -3.107643977293e+02 0.0 
0.0 0.0 -1.299306888307e+02 
-1.637963410297e+02 2.550702551384e+00 0.0 
2.550702551384e+00 -3.908774654564e+02 0.0 
0.0 0.0 -1.660021419458e+02 
-1.128010415275e+02 3.020186469879e+01 0.0 
3.020186469879e+01 -2.915103359156e+02 0.0 
0.0 0.0 -1.208934132329e+02 
-4.129405257676e+01 2.865736938889e+01 0.0 
2.865736938889e+01 -5.749973236843e+01 0.0 
0.0 0.0 -2.835309328048e+01 
-6.565601043291e+01 1.350967041994e+01 0.0 
1.350967041994e+01 -5.736627737704e+01 0.0 
0.0 0.0 -3.650668634298e+01 
-1.156604033561e+02 4.062252045487e+01 0.0 
4.062252045487e+01 -2.827536932141e+02 0.0 
0.0 0.0 -1.191242289711e+02 
-6.794095924371e+01 2.647700550103e+00 0.0 
2.647700550103e+00 -1.164285946666e+02 0.0 
0.0 0.0 -5.491086617309e+01 
-1.655207593527e+02 5.862055196071e-01 0.0 
5.862055196071e-01 -3.910694894244e+02 0.0 
0.0 0.0 -1.665770746331e+02 
-4.902232483412e+01 4.487711106540e+00 0.0 
4.487711106540e+00 -3.196365739829e+01 0.0 
0.0 0.0 -2.389579466972e+01 
-8.137824161889e+01 5.829073990167e+00 0.0 
5.829073990167e+00 -1.710730107063e+02 0.0 
0.0 0.0 -7.533537569756e+01 
-4.179319041175e+01 -2.038992582247e+01 0.0 
-2.038992582247e+01 -1.151455266653e+02 0.0 
0.0 0.0 -4.765162303296e+01 
-8.060468252203e+01 2.911934311289e+00 0.0 
2.911934311289e+00 -1.707398233571e+02 0.0 
0.0 0.0 -7.500335176373e+01 
-1.011464688328e+02 4.238350768071e+01 0.0 
4.238350768071e+01 -2.219281147359e+02 0.0 
0.0 0.0 -9.652237507060e+01 
-4.885942927189e+01 1.331036260000e+00 0.0 
1.331036260000e+00 -5.656804365263e+01 0.0 
0.0 0.0 -3.122824187736e+01 
-7.220415330354e+01 2.198126807518e+01 0.0 
2.198126807518e+01 -6.869907834311e+01 0.0 
0.0 0.0 -4.187096949400e+01 
-1.590554589942e+02 -4.645219510045e-01 0.0 
-4.645219510045e-01 -3.721967012383e+02 0.0 
0.0 0.0 -1.589756480697e+02 
-1.067609736695e+02 4.124114587513e+01 0.0 
4.124114587513e+01 -2.311084925821e+02 0.0 
0.0 0.0 -1.009608398755e+02 
-4.064857436475e+01 2.846778548517e+01 0.0 
2.846778548517e+01 -6.602916548907e+01 0.0 
0.0 0.0 -3.185762495224e+01 
-6.273846375048e+01 1.998492693925e+00 0.0 
1.998492693925e+00 -9.908545336436e+01 0.0 
0.0 0.0 -4.814717513445e+01 
-7.688595442238e+01 -3.271321854995e+00 0.0 
-3.271321854995e+00 -1.721527384722e+02 0.0 
0.0 0.0 -7.431160786838e+01 
-3.580162279986e+01 -1.865995738185e+01 0.0 
-1.865995738185e+01 -9.967178420199e+01 0.0 
0.0 0.0 -4.192820706250e+01 
-1.516499991676e+02 3.954825572436e+00 0.0 
3.954825572436e+00 -3.754061354243e+02 0.0 
0.0 0.0 -1.577168403776e+02 
-1.063311795146e+02 4.341573947629e+01 0.0 
4.341573947629e+01 -2.413691900434e+02 0.0 
0.0 0.0 -1.039101108674e+02 
-1.579977447833e+02 -6.453442430282e-01 0.0 
-6.453442430282e-01 -3.720519588609e+02 0.0 
0.0 0.0 -1.586149110933e+02 
-1.338283236195e+01 -4.075165658941e-02 0.0 
-4.075165658941e-02 -4.960908638192e+01 0.0 
0.0 0.0 -1.849757562316e+01 
-4.006251325696e+00 -2.612665530221e-01 0.0 
-2.612665530221e-01 -3.111558085499e+01 0.0 
0.0 0.0 -9.925783894065e+00 
-1.494420477308e+02 8.675833960756e+00 0.0 
8.675833960756e+00 -3.748039218620e+02 0.0 
0.0 0.0 -1.568737908778e+02 
-1.144020079987e+02 4.472446341609e+01 0.0 
4.472446341609e+01 -2.714149642328e+02 0.0 
0.0 0.0 -1.153450916695e+02 
-4.411367995284e+01 -2.397585647853e+01 0.0 
-2.397585647853e+01 -1.137141185646e+02 0.0 
0.0 0.0 -4.667512102228e+01 
-9.201130539382e+01 2.152930050509e+01 0.0 
2.152930050509e+01 -2.020315321687e+02 0.0 
0.0 0.0 -8.781285126874e+01 
-4.159952428705e+01 2.813293179503e+01 0.0 
2.813293179503e+01 -8.062957693530e+01 0.0 
0.0 0.0 -3.760498234828e+01 
-3.239065803965e+01 3.072418233679e-01 0.0 
3.072418233679e-01 -1.319421034885e+01 0.0 
0.0 0.0 -1.327546051655e+01 
-4.146451410736e+00 2.900293162722e-02 0.0 
2.900293162722e-02 -3.235736187014e+01 0.0 
0.0 0.0 -1.058752167213e+01 
-1.655625803043e+02 2.142198116486e-01 0.0 
2.142198116486e-01 -3.896120308091e+02 0.0 
0.0 0.0 -1.661523833340e+02 
-8.663683558892e+01 1.522341950276e+01 0.0 
1.522341950276e+01 -1.770624394843e+02 0.0 
0.0 0.0 -7.870978252196e+01 
-8.432483111885e+01 -2.453849935349e+00 0.0 
-2.453849935349e+00 -1.892995758299e+02 0.0 
0.0 0.0 -8.168732208462e+01 
-6.050481110321e+01 1.521951543299e+01 0.0 
1.521951543299e+01 -2.896238848567e+01 0.0 
0.0 0.0 -2.644015987667e+01 
-5.394495899331e+01 -1.028339813274e+00 0.0 
-1.028339813274e+00 -1.236825195114e+02 0.0 
0.0 0.0 -5.288824355141e+01 
-1.128980306962e+02 3.509481054485e+01 0.0 
3.509481054485e+01 -2.846678995562e+02 0.0 
0.0 0.0 -1.188697790757e+02 
-2.155519407379e+01 -4.959377800252e+00 0.0 
-4.959377800252e+00 -4.817285007646e+01 0.0 
0.0 0.0 -1.988673645121e+01 
-8.458371732157e+01 1.115333794130e+01 0.0 
1.115333794130e+01 -1.764002504319e+02 0.0 
0.0 0.0 -7.789519032604e+01 
-1.455956811040e+02 1.422304910237e+01 0.0 
1.422304910237e+01 -3.664201879106e+02 0.0 
0.0 0.0 -1.532047607044e+02 
-1.000458241132e+02 3.344404973464e+01 0.0 
3.344404973464e+01 -2.070273775121e+02 0.0 
0.0 0.0 -9.172196048758e+01 
-1.433777729630e+02 2.927050589210e+01 0.0 
2.927050589210e+01 -3.448136438890e+02 0.0 
0.0 0.0 -1.460574250556e+02 
-4.280657671196e+01 1.282431256708e+01 0.0 
1.282431256708e+01 -1.202244267930e+02 0.0 
0.0 0.0 -5.037688000009e+01 
-1.248443220406e+02 3.396469477659e+01 0.0 
3.396469477659e+01 -3.101796517909e+02 0.0 
0.0 0.0 -1.301071921494e+02 
-1.295486817778e+02 1.584539345615e+01 0.0 
1.584539345615e+01 -3.412375721426e+02 0.0 
0.0 0.0 -1.408358761761e+02 
-3.148462656596e+01 -4.394623991899e-03 0.0 
-4.394623991899e-03 -1.501871134128e+01 0.0 
0.0 0.0 -1.355100137217e+01 
-1.035340478331e+02 3.771602124506e+01 0.0 
3.771602124506e+01 -2.186020245245e+02 0.0 
0.0 0.0 -9.624082170728e+01 
-6.826832226027e+01 -2.086844825984e+00 0.0 
-2.086844825984e+00 -1.530908690681e+02 0.0 
0.0 0.0 -6.600775739852e+01 
-2.403859017238e+01 -5.081009245259e-01 0.0 
-5.081009245259e-01 -6.560962191310e+01 0.0 
0.0 0.0 -2.649446362564e+01 
-8.460899833667e+01 1.437456240023e+00 0.0 
1.437456240023e+00 -1.898746906463e+02 0.0 
0.0 0.0 -8.194510669489e+01 
8.140606360891e-01 -6.983258763402e-02 0.0 
-6.983258763402e-02 -1.416411676598e+01 0.0 
0.0 0.0 -2.176080866716e+00 
-3.051663622847e+01 6.337206989481e-02 0.0 
6.337206989481e-02 -1.387673734759e+01 0.0 
0.0 0.0 -1.291801207282e+01 
-1.663261722104e+02 -2.909816597143e-01 0.0 
-2.909816597143e-01 -3.887797481812e+02 0.0 
0.0 0.0 -1.661317761175e+02 
-2.161151755567e+01 -2.854885057451e-01 0.0 
-2.854885057451e-01 -6.263668339157e+01 0.0 
0.0 0.0 -2.487446028417e+01 
-4.338372538431e+01 4.988839862127e-01 0.0 
4.988839862127e-01 -4.601132304727e+01 0.0 
0.0 0.0 -2.641851452948e+01 
-1.136694415914e+02 4.516196269533e+01 0.0 
4.516196269533e+01 -2.641090551054e+02 0.0 
0.0 0.0 -1.129335490090e+02 
-1.025758293916e+02 -6.728171151769e-01 0.0 
-6.728171151769e-01 -2.329599682153e+02 0.0 
0.0 0.0 -1.002607392821e+02 
-7.253888826169e+01 2.302195475279e+00 0.0 
2.302195475279e+00 -1.370086206949e+02 0.0 
0.0 0.0 -6.246425268698e+01 
-4.325940932272e+01 -2.454516002788e+01 0.0 
-2.454516002788e+01 -8.870663879820e+01 0.0 
0.0 0.0 -3.777731708081e+01 
-5.852558150058e+01 -6.735244978936e+00 0.0 
-6.735244978936e+00 -1.052129829356e+02 0.0 
0.0 0.0 -4.986709224854e+01 
-5.617084512896e+01 1.102659026587e+00 0.0 
1.102659026587e+00 -8.140009935970e+01 0.0 
0.0 0.0 -4.087128334660e+01 
-1.277487233181e+02 3.036497802425e+01 0.0 
3.036497802425e+01 -3.191093525718e+02 0.0 
0.0 0.0 -1.336574227670e+02 
-9.579415022105e+01 2.795409269588e+01 0.0 
2.795409269588e+01 -1.960536255355e+02 0.0 
0.0 0.0 -8.715433272698e+01 
-5.253292036265e+01 1.416059032888e+00 0.0 
1.416059032888e+00 -6.752574002078e+01 0.0 
0.0 0.0 -3.561759811503e+01 
-4.498342481670e+01 2.905710273943e+01 0.0 
2.905710273943e+01 -9.457327768318e+01 0.0 
0.0 0.0 -4.205627744552e+01 
-1.109977096490e+02 4.465004463593e+01 0.0 
4.465004463593e+01 -2.572851586280e+02 0.0 
0.0 0.0 -1.100848604831e+02 
-9.108550161519e+01 -2.393416519130e+00 0.0 
-2.393416519130e+00 -2.049646315655e+02 0.0 
0.0 0.0 -8.841503995420e+01 
-1.112544018752e+02 3.895379161964e+01 0.0 
3.895379161964e+01 -2.743682046054e+02 0.0 
0.0 0.0 -1.152867819442e+02 
-1.253478518077e+02 2.035077274632e+01 0.0 
2.035077274632e+01 -3.294504120075e+02 0.0 
0.0 0.0 -1.360394791446e+02 
-3.606956301681e+01 2.561535093398e+01 0.0 
2.561535093398e+01 -6.222799814625e+01 0.0 
0.0 0.0 -2.945538388688e+01 
-1.098129908584e+02 -6.010476740441e-01 0.0 
-6.010476740441e-01 -2.508001954246e+02 0.0 
0.0 0.0 -1.077839558849e+02 
-2.746580146740e+00 1.800219698464e-01 0.0 
1.800219698464e-01 -3.020387652722e+01 0.0 
0.0 0.0 -9.354347056569e+00 
-1.574346016631e+02 1.257336793118e+00 0.0 
1.257336793118e+00 -3.789035044150e+02 0.0 
0.0 0.0 -1.605014318234e+02 
-9.455176292742e+01 -1.611766872927e+00 0.0 
-1.611766872927e+00 -2.135367766922e+02 0.0 
0.0 0.0 -9.202656188588e+01 

TENSORS node_materi_strain_total float
1.026924642013e-03 -4.909421147011e-06 0.0 
-4.909421147011e-06 -3.352699279672e-04 0.0 
0.0 0.0 0.0 
-1.641514012257e-03 -2.446368646123e-05 0.0 
-2.446368646123e-05 1.472325271804e-02 0.0 
0.0 0.0 0.0 
-2.718367769017e-05 -3.228159506818e-06 0.0 
-3.228159506818e-06 7.448391136292e-03 0.0 
0.0 0.0 0.0 
-1.252380722080e-04 5.911505001799e-05 0.0 
5.911505001799e-05 1.756993893552e-02 0.0 
0.0 0.0 0.0 
8.412054356766e-04 -9.345404886118e-06 0.0 
-9.345404886118e-06 -6.078796229973e-05 0.0 
0.0 0.0 0.0 
6.037281902311e-04 1.087474856100e-05 0.0 
1.087474856100e-05 4.641118758725e-04 0.0 
0.0 0.0 0.0 
3.477257483867e-04 -1.138511571862e-06 0.0 
-1.138511571862e-06 9.546019361365e-04 0.0 
0.0 0.0 0.0 
1.241685350309e-04 -7.758523084778e-06 0.0 
-7.758523084778e-06 1.493989249122e-03 0.0 
0.0 0.0 0.0 
-8.279051245286e-05 -2.158090126786e-05 0.0 
-2.158090126786e-05 1.989582827131e-03 0.0 
0.0 0.0 0.0 
-2.362154864111e-04 -2.767342225892e-05 0.0 
-2.767342225892e-05 2.444609575136e-03 0.0 
0.0 0.0 0.0 
-3.509987958874e-04 -3.227457960654e-05 0.0 
-3.227457960654e-05 2.872846348832e-03 0.0 
0.0 0.0 0.0 
-4.276296226743e-04 -3.909663085731e-05 0.0 
-3.909663085731e-05 3.273224850506e-03 0.0 
0.0 0.0 0.0 
-4.658766012220e-04 -4.259807008843e-05 0.0 
-4.259807008843e-05 3.651141014800e-03 0.0 
0.0 0.0 0.0 
-4.770692885198e-04 -4.108229251710e-05 0.0 
-4.108229251710e-05 4.015463374061e-03 0.0 
0.0 0.0 0.0 
-4.663344627645e-04 -3.028007026044e-05 0.0 
-3.028007026044e-05 4.376064024559e-03 0.0 
0.0 0.0 0.0 
-4.342024772198e-04 -1.809967527235e-05 0.0 
-1.809967527235e-05 4.722199142630e-03 0.0 
0.0 0.0 0.0 
-3.899558316278e-04 -1.681706810351e-05 0.0 
-1.681706810351e-05 5.040444849641e-03 0.0 
0.0 0.0 0.0 
-3.421002592521e-04 -3.091073576352e-05 0.0 
-3.091073576352e-05 5.384491532567e-03 0.0 
0.0 0.0 0.0 
-2.890251103894e-04 -2.493148590396e-05 0.0 
-2.493148590396e-05 5.748274840751e-03 0.0 
0.0 0.0 0.0 
-2.386234582610e-04 -1.825329267445e-05 0.0 
-1.825329267445e-05 6.110628816037e-03 0.0 
0.0 0.0 0.0 
-1.890384622019e-04 -1.307034356874e-05 0.0 
-1.307034356874e-05 6.484064913418e-03 0.0 
0.0 0.0 0.0 
-1.367431007411e-04 -6.635445053841e-06 0.0 
-6.635445053841e-06 6.866742190099e-03 0.0 
0.0 0.0 0.0 
-7.971227780187e-05 -1.248045837120e-06 0.0 
-1.248045837120e-06 7.232470101684e-03 0.0 
0.0 0.0 0.0 
-9.171897082971e-05 1.914694050341e-04 0.0 
1.914694050341e-04 1.756499552134e-02 0.0 
0.0 0.0 0.0 
-9.971909988338e-05 3.513878978758e-04 0.0 
3.513878978758e-04 1.753949814910e-02 0.0 
0.0 0.0 0.0 
-1.020944114296e-04 5.156617159540e-04 0.0 
5.156617159540e-04 1.752946604694e-02 0.0 
0.0 0.0 0.0 
-9.963067604753e-05 7.134150732289e-04 0.0 
7.134150732289e-04 1.749743130001e-02 0.0 
0.0 0.0 0.0 
-1.273042380713e-04 8.933485498323e-04 0.0 
8.933485498323e-04 1.745452233502e-02 0.0 
0.0 0.0 0.0 
-1.198166246611e-04 1.112221545593e-03 0.0 
1.112221545593e-03 1.740891308414e-02 0.0 
0.0 0.0 0.0 
-1.390502747664e-04 1.348470782415e-03 0.0 
1.348470782415e-03 1.732741588874e-02 0.0 
0.0 0.0 0.0 
-1.425616459112e-04 1.604779782759e-03 0.0 
1.604779782759e-03 1.721329683318e-02 0.0 
0.0 0.0 0.0 
-1.503839391166e-04 1.860664106775e-03 0.0 
1.860664106775e-03 1.708683322168e-02 0.0 
0.0 0.0 0.0 
-1.355415018517e-04 2.146895211582e-03 0.0 
2.146895211582e-03 1.690810146503e-02 0.0 
0.0 0.0 0.0 
-1.747005590083e-04 2.418905134112e-03 0.0 
2.418905134112e-03 1.670249873729e-02 0.0 
0.0 0.0 0.0 
-1.566610275008e-04 2.725057517538e-03 0.0 
2.725057517538e-03 1.644543375267e-02 0.0 
0.0 0.0 0.0 
-1.625111719652e-04 3.026580596815e-03 0.0 
3.026580596815e-03 1.612482520474e-02 0.0 
0.0 0.0 0.0 
-1.408999754311e-04 3.306113045862e-03 0.0 
3.306113045862e-03 1.576363804336e-02 0.0 
0.0 0.0 0.0 
-1.462275807114e-04 3.563974675997e-03 0.0 
3.563974675997e-03 1.536426458286e-02 0.0 
0.0 0.0 0.0 
-1.184824654928e-04 3.788785818466e-03 0.0 
3.788785818466e-03 1.490365089753e-02 0.0 
0.0 0.0 0.0 
-1.132547691170e-04 3.986359554419e-03 0.0 
3.986359554419e-03 1.441366005331e-02 0.0 
0.0 0.0 0.0 
-8.510351391866e-05 4.155649027639e-03 0.0 
4.155649027639e-03 1.389114701260e-02 0.0 
0.0 0.0 0.0 
-4.725940773901e-05 4.260663074477e-03 0.0 
4.260663074477e-03 1.337107838614e-02 0.0 
0.0 0.0 0.0 
-1.222556528494e-06 4.293667003967e-03 0.0 
4.293667003967e-03 1.286539088246e-02 0.0 
0.0 0.0 0.0 
5.325325003066e-05 4.237617329812e-03 0.0 
4.237617329812e-03 1.240555186966e-02 0.0 
0.0 0.0 0.0 
7.861312353456e-05 4.102420752871e-03 0.0 
4.102420752871e-03 1.206203462981e-02 0.0 
0.0 0.0 0.0 
8.052985709169e-05 3.974745178121e-03 0.0 
3.974745178121e-03 1.173922946901e-02 0.0 
0.0 0.0 0.0 
8.469729861586e-05 3.820915634469e-03 0.0 
3.820915634469e-03 1.138874622371e-02 0.0 
0.0 0.0 0.0 
8.199266452139e-05 3.670169755724e-03 0.0 
3.670169755724e-03 1.106287857209e-02 0.0 
0.0 0.0 0.0 
9.489200799277e-05 3.514825804557e-03 0.0 
3.514825804557e-03 1.073300794274e-02 0.0 
0.0 0.0 0.0 
8.861611359926e-05 3.337316022927e-03 0.0 
3.337316022927e-03 1.041093526898e-02 0.0 
0.0 0.0 0.0 
1.084184212411e-04 3.154814217043e-03 0.0 
3.154814217043e-03 1.010385785939e-02 0.0 
0.0 0.0 0.0 
1.027447922725e-04 2.959198843877e-03 0.0 
2.959198843877e-03 9.790394558172e-03 0.0 
0.0 0.0 0.0 
9.116473875204e-05 2.768313632948e-03 0.0 
2.768313632948e-03 9.505923690498e-03 0.0 
0.0 0.0 0.0 
1.178726184546e-04 2.563711047431e-03 0.0 
2.563711047431e-03 9.164231052363e-03 0.0 
0.0 0.0 0.0 
1.347623368776e-04 2.340562909316e-03 0.0 
2.340562909316e-03 8.806382993553e-03 0.0 
0.0 0.0 0.0 
1.355230400514e-04 2.088151850502e-03 0.0 
2.088151850502e-03 8.461176355773e-03 0.0 
0.0 0.0 0.0 
1.364197643619e-04 1.848774739928e-03 0.0 
1.848774739928e-03 8.156271522809e-03 0.0 
0.0 0.0 0.0 
1.490243908924e-04 1.599676066021e-03 0.0 
1.599676066021e-03 7.836562902744e-03 0.0 
0.0 0.0 0.0 
1.337396773002e-04 1.328740764984e-03 0.0 
1.328740764984e-03 7.546824930362e-03 0.0 
0.0 0.0 0.0 
1.575384982725e-04 1.060448743692e-03 0.0 
1.060448743692e-03 7.312482731445e-03 0.0 
0.0 0.0 0.0 
1.351378164183e-04 7.838653153927e-04 0.0 
7.838653153927e-04 7.131798416959e-03 0.0 
0.0 0.0 0.0 
1.386303171749e-04 5.395664236658e-04 0.0 
5.395664236658e-04 7.031881695567e-03 0.0 
0.0 0.0 0.0 
1.048716752435e-04 3.246704133393e-04 0.0 
3.246704133393e-04 6.995922501773e-03 0.0 
0.0 0.0 0.0 
7.300798752189e-05 1.630438336972e-04 0.0 
1.630438336972e-04 7.032251923078e-03 0.0 
0.0 0.0 0.0 
5.533059201250e-05 4.663592018826e-05 0.0 
4.663592018826e-05 7.112252050377e-03 0.0 
0.0 0.0 0.0 
4.064213420681e-05 -3.719636451316e-05 0.0 
-3.719636451316e-05 7.174077660342e-03 0.0 
0.0 0.0 0.0 
2.558182180573e-05 -9.586588465409e-05 0.0 
-9.586588465409e-05 7.181423658589e-03 0.0 
0.0 0.0 0.0 
9.605273610121e-06 -1.166267736467e-04 0.0 
-1.166267736467e-04 7.301689248465e-03 0.0 
0.0 0.0 0.0 
-6.670358143723e-06 -1.188075346347e-04 0.0 
-1.188075346347e-04 7.335267130003e-03 0.0 
0.0 0.0 0.0 
-1.180907992530e-05 -1.100029034042e-04 0.0 
-1.100029034042e-04 7.390252601313e-03 0.0 
0.0 0.0 0.0 
-1.557395924886e-05 -7.376645101194e-05 0.0 
-7.376645101194e-05 7.439965506741e-03 0.0 
0.0 0.0 0.0 
-2.066049922892e-05 -4.530149805534e-05 0.0 
-4.530149805534e-05 7.458630487373e-03 0.0 
0.0 0.0 0.0 
-1.602137799951e-03 -1.813005889697e-05 0.0 
-1.813005889697e-05 1.496202807976e-02 0.0 
0.0 0.0 0.0 
-1.565688898205e-03 -1.047192941800e-05 0.0 
-1.047192941800e-05 1.537125355190e-02 0.0 
0.0 0.0 0.0 
-1.500450696690e-03 -3.497547628342e-06 0.0 
-3.497547628342e-06 1.575235594353e-02 0.0 
0.0 0.0 0.0 
-1.404316530221e-03 4.048494353320e-06 0.0 
4.048494353320e-06 1.610245233830e-02 0.0 
0.0 0.0 0.0 
-1.272117009728e-03 1.324007894208e-05 0.0 
1.324007894208e-05 1.643159994734e-02 0.0 
0.0 0.0 0.0 
-1.102044845239e-03 2.178092044754e-05 0.0 
2.178092044754e-05 1.673123321435e-02 0.0 
0.0 0.0 0.0 
-8.932178870635e-04 2.940541658820e-05 0.0 
2.940541658820e-05 1.699782861597e-02 0.0 
0.0 0.0 0.0 
-6.344105545267e-04 4.042552781097e-05 0.0 
4.042552781097e-05 1.723503489552e-02 0.0 
0.0 0.0 0.0 
-3.664310184362e-04 4.424921549262e-05 0.0 
4.424921549262e-05 1.744621971717e-02 0.0 
0.0 0.0 0.0 
-3.198896877782e-04 6.104875011441e-03 0.0 
6.104875011441e-03 -3.381256121519e-03 0.0 
0.0 0.0 0.0 
-3.590384391114e-03 2.083283834962e-03 0.0 
2.083283834962e-03 1.482354108736e-02 0.0 
0.0 0.0 0.0 
-2.682975615775e-03 9.527802805349e-03 0.0 
9.527802805349e-03 2.462103631737e-03 0.0 
0.0 0.0 0.0 
-2.078761687137e-03 6.184024921490e-03 0.0 
6.184024921490e-03 3.228123646509e-03 0.0 
0.0 0.0 0.0 
-1.846099983163e-03 4.530305695580e-03 0.0 
4.530305695580e-03 4.313843668354e-03 0.0 
0.0 0.0 0.0 
-1.641786075664e-03 2.980286363021e-03 0.0 
2.980286363021e-03 5.462279937870e-03 0.0 
0.0 0.0 0.0 
-1.633468575531e-03 2.960503936848e-03 0.0 
2.960503936848e-03 6.877036954101e-03 0.0 
0.0 0.0 0.0 
-1.637636464019e-03 3.040455707038e-03 0.0 
3.040455707038e-03 8.297778137003e-03 0.0 
0.0 0.0 0.0 
-1.684120534181e-03 3.305115841930e-03 0.0 
3.305115841930e-03 9.730727651326e-03 0.0 
0.0 0.0 0.0 
-1.871139211297e-03 3.713169034441e-03 0.0 
3.713169034441e-03 1.128707414803e-02 0.0 
0.0 0.0 0.0 
-2.565628467092e-03 4.091988096715e-03 0.0 
4.091988096715e-03 1.319629746201e-02 0.0 
0.0 0.0 0.0 
-1.636617520535e-03 1.500067913054e-05 0.0 
1.500067913054e-05 1.472234012999e-02 0.0 
0.0 0.0 0.0 
-1.614723049840e-03 1.954407409557e-05 0.0 
1.954407409557e-05 1.470987376360e-02 0.0 
0.0 0.0 0.0 
-1.628144280811e-03 4.900042573296e-06 0.0 
4.900042573296e-06 1.471241292994e-02 0.0 
0.0 0.0 0.0 
-1.647186290480e-03 4.504447810564e-06 0.0 
4.504447810564e-06 1.471165078977e-02 0.0 
0.0 0.0 0.0 
-1.659369489311e-03 1.658552201892e-05 0.0 
1.658552201892e-05 1.476613689531e-02 0.0 
0.0 0.0 0.0 
-1.673739510768e-03 1.109765651347e-05 0.0 
1.109765651347e-05 1.473362734117e-02 0.0 
0.0 0.0 0.0 
-1.694084954596e-03 1.343550819724e-05 0.0 
1.343550819724e-05 1.472733565398e-02 0.0 
0.0 0.0 0.0 
-1.707706712787e-03 2.208127849611e-05 0.0 
2.208127849611e-05 1.473882079247e-02 0.0 
0.0 0.0 0.0 
-1.756295515572e-03 3.895380211499e-05 0.0 
3.895380211499e-05 1.477383532818e-02 0.0 
0.0 0.0 0.0 
-1.823143313394e-03 5.654906123865e-05 0.0 
5.654906123865e-05 1.478904291758e-02 0.0 
0.0 0.0 0.0 
-1.906722890536e-03 1.050653293749e-04 0.0 
1.050653293749e-04 1.480762704787e-02 0.0 
0.0 0.0 0.0 
-2.084180822597e-03 1.862059283555e-04 0.0 
1.862059283555e-04 1.484836664068e-02 0.0 
0.0 0.0 0.0 
-2.403551756176e-03 3.750276936837e-04 0.0 
3.750276936837e-04 1.492758099180e-02 0.0 
0.0 0.0 0.0 
-3.010599656713e-03 8.711997751506e-04 0.0 
8.711997751506e-04 1.506555257271e-02 0.0 
0.0 0.0 0.0 
-1.501415186350e-03 1.177497524176e-03 0.0 
1.177497524176e-03 -3.746461814500e-03 0.0 
0.0 0.0 0.0 
-2.364608928099e-03 2.716654124177e-04 0.0 
2.716654124177e-04 -3.912911094598e-03 0.0 
0.0 0.0 0.0 
-2.996082227136e-03 -1.614949824741e-05 0.0 
-1.614949824741e-05 -3.512879591754e-03 0.0 
0.0 0.0 0.0 
-2.630561550957e-03 -1.019535589292e-03 0.0 
-1.019535589292e-03 -3.071341748795e-03 0.0 
0.0 0.0 0.0 
-8.509978721558e-04 -3.122436008049e-03 0.0 
-3.122436008049e-03 -2.365399938769e-03 0.0 
0.0 0.0 0.0 
3.607019897770e-04 -2.255925351926e-03 0.0 
-2.255925351926e-03 -5.465070140134e-04 0.0 
0.0 0.0 0.0 
1.801682141945e-03 -1.029783728768e-04 0.0 
-1.029783728768e-04 -7.588687729738e-04 0.0 
0.0 0.0 0.0 
2.197982853502e-03 3.722049417192e-05 0.0 
3.722049417192e-05 -7.712800092733e-04 0.0 
0.0 0.0 0.0 
1.988662102642e-03 -2.581774924600e-06 0.0 
-2.581774924600e-06 -7.154476614960e-04 0.0 
0.0 0.0 0.0 
2.087836072705e-03 -1.272625538586e-05 0.0 
-1.272625538586e-05 -7.469337958920e-04 0.0 
0.0 0.0 0.0 
1.471859375984e-03 -2.136579099377e-05 0.0 
-2.136579099377e-05 -4.934850327771e-04 0.0 
0.0 0.0 0.0 
1.412001364682e-03 -1.710709285711e-05 0.0 
-1.710709285711e-05 -4.605700072114e-04 0.0 
0.0 0.0 0.0 
1.325888878063e-03 -7.872333575904e-06 0.0 
-7.872333575904e-06 -4.344268995573e-04 0.0 
0.0 0.0 0.0 
1.190240005240e-03 -3.562750472085e-06 0.0 
-3.562750472085e-06 -3.866928810316e-04 0.0 
0.0 0.0 0.0 
1.137571803742e-03 2.652414634263e-07 0.0 
2.652414634263e-07 -3.662826670444e-04 0.0 
0.0 0.0 0.0 
1.109195802250e-03 5.159784325366e-06 0.0 
5.159784325366e-06 -3.508938359130e-04 0.0 
0.0 0.0 0.0 
1.082869831099e-03 5.007321080737e-06 0.0 
5.007321080737e-06 -3.411689336111e-04 0.0 
0.0 0.0 0.0 
1.098079884712e-03 1.060592291036e-05 0.0 
1.060592291036e-05 -3.584669729009e-04 0.0 
0.0 0.0 0.0 
1.089782519621e-03 1.612662839975e-05 0.0 
1.612662839975e-05 -3.544039377480e-04 0.0 
0.0 0.0 0.0 
-1.524974503475e-03 1.154653232183e-02 0.0 
1.154653232183e-02 6.748980057939e-04 0.0 
0.0 0.0 0.0 
-2.358168053253e-03 7.567323485275e-03 0.0 
7.567323485275e-03 2.836375072421e-03 0.0 
0.0 0.0 0.0 
-1.955342257594e-03 5.424499377312e-03 0.0 
5.424499377312e-03 3.778010372983e-03 0.0 
0.0 0.0 0.0 
-1.705936071300e-03 3.297849089501e-03 0.0 
3.297849089501e-03 4.841913183903e-03 0.0 
0.0 0.0 0.0 
-1.650769602834e-03 3.081203956002e-03 0.0 
3.081203956002e-03 6.187272168060e-03 0.0 
0.0 0.0 0.0 
-1.612046563639e-03 3.079008281898e-03 0.0 
3.079008281898e-03 7.602344467069e-03 0.0 
0.0 0.0 0.0 
-1.640405476315e-03 3.158130990255e-03 0.0 
3.158130990255e-03 9.002119159176e-03 0.0 
0.0 0.0 0.0 
-1.740020564910e-03 3.495562593577e-03 0.0 
3.495562593577e-03 1.048747320227e-02 0.0 
0.0 0.0 0.0 
-2.105639103220e-03 3.918229438499e-03 0.0 
3.918229438499e-03 1.217125723219e-02 0.0 
0.0 0.0 0.0 
-3.466546237845e-03 3.828189833550e-03 0.0 
3.828189833550e-03 1.439314093274e-02 0.0 
0.0 0.0 0.0 
-1.366270614431e-03 7.359122240987e-03 0.0 
7.359122240987e-03 1.886348071438e-03 0.0 
0.0 0.0 0.0 
4.110608728108e-04 1.894078710591e-03 0.0 
1.894078710591e-03 7.984476115520e-03 0.0 
0.0 0.0 0.0 
1.428070910845e-03 -4.238782381188e-05 0.0 
-4.238782381188e-05 -3.537966838303e-04 0.0 
0.0 0.0 0.0 
3.911031879824e-04 -3.059553390343e-03 0.0 
-3.059553390343e-03 -4.117441145124e-03 0.0 
0.0 0.0 0.0 
3.932482013928e-04 6.139041691128e-04 0.0 
6.139041691128e-04 6.765434201726e-03 0.0 
0.0 0.0 0.0 
-1.580583158240e-03 3.299189801743e-03 0.0 
3.299189801743e-03 4.930294127088e-03 0.0 
0.0 0.0 0.0 
-4.696173375397e-04 -1.052569758121e-04 0.0 
-1.052569758121e-04 4.202173279946e-03 0.0 
0.0 0.0 0.0 
3.583218591679e-04 2.785935997749e-03 0.0 
2.785935997749e-03 9.283974183177e-03 0.0 
0.0 0.0 0.0 
-1.612797160127e-03 3.113484759576e-03 0.0 
3.113484759576e-03 7.699117735719e-03 0.0 
0.0 0.0 0.0 
2.747947902540e-04 3.523789370465e-03 0.0 
3.523789370465e-03 1.060931466294e-02 0.0 
0.0 0.0 0.0 
-1.865250852680e-03 3.593230944925e-03 0.0 
3.593230944925e-03 1.066047813785e-02 0.0 
0.0 0.0 0.0 
1.348893694848e-04 -2.442817777522e-05 0.0 
-2.442817777522e-05 6.936614890264e-03 0.0 
0.0 0.0 0.0 
9.781790408638e-04 -1.653535911292e-05 0.0 
-1.653535911292e-05 -1.847532104790e-04 0.0 
0.0 0.0 0.0 
1.749250322371e-04 4.156129665765e-03 0.0 
4.156129665765e-03 1.196497719666e-02 0.0 
0.0 0.0 0.0 
-3.387142293151e-03 2.862207793636e-03 0.0 
2.862207793636e-03 1.417929728069e-02 0.0 
0.0 0.0 0.0 
-3.061452451057e-04 -6.329882593745e-05 0.0 
-6.329882593745e-05 2.680486497316e-03 0.0 
0.0 0.0 0.0 
-3.655766836506e-04 -9.680843164552e-05 0.0 
-9.680843164552e-05 5.142764124251e-03 0.0 
0.0 0.0 0.0 
-1.895827481206e-04 4.149406989081e-03 0.0 
4.149406989081e-03 1.350216445345e-02 0.0 
0.0 0.0 0.0 
-4.178000668319e-04 3.360732876434e-03 0.0 
3.360732876434e-03 1.554670107662e-02 0.0 
0.0 0.0 0.0 
-3.534185365197e-04 9.798715355319e-04 0.0 
9.798715355319e-04 1.737112163446e-02 0.0 
0.0 0.0 0.0 
-4.742091125138e-04 1.682929651819e-03 0.0 
1.682929651819e-03 1.710789606147e-02 0.0 
0.0 0.0 0.0 
-4.664662415044e-04 2.523123524981e-03 0.0 
2.523123524981e-03 1.655264041208e-02 0.0 
0.0 0.0 0.0 
-2.779521811602e-03 8.280895032437e-04 0.0 
8.280895032437e-04 1.514163641657e-02 0.0 
0.0 0.0 0.0 
-1.923119001245e-03 1.202750637739e-04 0.0 
1.202750637739e-04 1.501045057542e-02 0.0 
0.0 0.0 0.0 
-1.739536678148e-03 5.252007852401e-05 0.0 
5.252007852401e-05 1.498543823050e-02 0.0 
0.0 0.0 0.0 
-1.344735000681e-03 5.185291596449e-05 0.0 
5.185291596449e-05 1.627683296342e-02 0.0 
0.0 0.0 0.0 
4.944333045283e-06 -1.299598637658e-04 0.0 
-1.299598637658e-04 7.134488461263e-03 0.0 
0.0 0.0 0.0 
5.095501811921e-05 1.200850598061e-03 0.0 
1.200850598061e-03 -4.816798276522e-03 0.0 
0.0 0.0 0.0 
9.300284723599e-04 4.188017638348e-06 0.0 
4.188017638348e-06 -1.342375854398e-04 0.0 
0.0 0.0 0.0 
-2.070218928305e-04 -5.579900046140e-05 0.0 
-5.579900046140e-05 6.272675164093e-03 0.0 
0.0 0.0 0.0 
-1.638408762375e-03 1.737299034621e-05 0.0 
1.737299034621e-05 1.489974721062e-02 0.0 
0.0 0.0 0.0 
2.295312696838e-04 -1.871105185228e-05 0.0 
-1.871105185228e-05 1.229365165216e-03 0.0 
0.0 0.0 0.0 
-3.813817875826e-04 3.779466509320e-03 0.0 
3.779466509320e-03 1.459395453284e-02 0.0 
0.0 0.0 0.0 
2.953068024152e-04 3.186146684323e-03 0.0 
3.186146684323e-03 9.991521082698e-03 0.0 
0.0 0.0 0.0 
2.514558669101e-04 3.850922163981e-03 0.0 
3.850922163981e-03 1.126735063847e-02 0.0 
0.0 0.0 0.0 
4.204657837229e-04 2.386185159594e-03 0.0 
2.386185159594e-03 8.639639251672e-03 0.0 
0.0 0.0 0.0 
4.071743665534e-04 1.403204943301e-03 0.0 
1.403204943301e-03 7.374055194902e-03 0.0 
0.0 0.0 0.0 
1.531424577341e-04 -1.894667332246e-03 0.0 
-1.894667332246e-03 -4.475841689117e-04 0.0 
0.0 0.0 0.0 
-2.189832636698e-03 2.830795578539e-04 0.0 
2.830795578539e-04 1.505903694564e-02 0.0 
0.0 0.0 0.0 
2.949518706294e-04 1.811577128409e-04 0.0 
1.811577128409e-04 6.666319980560e-03 0.0 
0.0 0.0 0.0 
-1.014814279263e-03 9.323764682877e-05 0.0 
9.323764682877e-05 1.686379397131e-02 0.0 
0.0 0.0 0.0 
9.759003088167e-04 -3.294801205592e-06 0.0 
-3.294801205592e-06 -1.784038655424e-04 0.0 
0.0 0.0 0.0 
-4.522716409669e-04 -9.374554733513e-05 0.0 
-9.374554733513e-05 3.463174420093e-03 0.0 
0.0 0.0 0.0 
-2.724780187637e-04 6.008665818021e-04 0.0 
6.008665818021e-04 1.746577163355e-02 0.0 
0.0 0.0 0.0 
-1.577677011902e-03 3.116937378301e-03 0.0 
3.116937378301e-03 6.272484111902e-03 0.0 
0.0 0.0 0.0 
-1.556616416125e-03 5.391466560644e-03 0.0 
5.391466560644e-03 3.519216771714e-03 0.0 
0.0 0.0 0.0 
-1.662514954888e-03 3.288639965805e-03 0.0 
3.288639965805e-03 9.107226877387e-03 0.0 
0.0 0.0 0.0 
-2.435322525299e-03 3.762539902430e-03 0.0 
3.762539902430e-03 1.242301407957e-02 0.0 
0.0 0.0 0.0 
-6.706900692133e-04 1.087104636959e-02 0.0 
1.087104636959e-02 -5.121698506839e-04 0.0 
0.0 0.0 0.0 
-1.532778728244e-03 2.242410882060e-05 0.0 
2.242410882060e-05 1.559805803939e-02 0.0 
0.0 0.0 0.0 
-3.659312437247e-05 -9.650587569375e-05 0.0 
-9.650587569375e-05 7.311042009044e-03 0.0 
0.0 0.0 0.0 
9.358729680327e-04 2.889907073902e-06 0.0 
2.889907073902e-06 -1.549156213240e-04 0.0 
0.0 0.0 0.0 
-5.068745156813e-04 1.467170018220e-04 0.0 
1.467170018220e-04 1.732923138358e-02 0.0 
0.0 0.0 0.0 
-3.061961792871e-03 1.987239994490e-03 0.0 
1.987239994490e-03 1.449772199939e-02 0.0 
0.0 0.0 0.0 
-2.838762014518e-03 2.432045182071e-03 0.0 
2.432045182071e-03 1.389667175895e-02 0.0 
0.0 0.0 0.0 
-2.865892458716e-03 2.106843307333e-03 0.0 
2.106843307333e-03 1.459882474811e-02 0.0 
0.0 0.0 0.0 
-2.547837216047e-03 2.655591593928e-03 0.0 
2.655591593928e-03 1.391881029016e-02 0.0 
0.0 0.0 0.0 
-2.564300590963e-03 2.418014048368e-03 0.0 
2.418014048368e-03 1.454137016840e-02 0.0 
0.0 0.0 0.0 
-2.266489338390e-03 2.808518150749e-03 0.0 
2.808518150749e-03 1.397517446962e-02 0.0 
0.0 0.0 0.0 
-2.209359211241e-03 2.967838698975e-03 0.0 
2.967838698975e-03 1.330069991914e-02 0.0 
0.0 0.0 0.0 
-1.947305630891e-03 3.091303891304e-03 0.0 
3.091303891304e-03 1.341682388351e-02 0.0 
0.0 0.0 0.0 
-1.871273330179e-03 3.204047086916e-03 0.0 
3.204047086916e-03 1.272089720687e-02 0.0 
0.0 0.0 0.0 
-2.294558408464e-03 2.615244955425e-03 0.0 
2.615244955425e-03 1.456956219475e-02 0.0 
0.0 0.0 0.0 
-1.622420471164e-03 3.313354490211e-03 0.0 
3.313354490211e-03 1.287111595230e-02 0.0 
0.0 0.0 0.0 
-1.539898524740e-03 3.395988574500e-03 0.0 
3.395988574500e-03 1.216405457348e-02 0.0 
0.0 0.0 0.0 
-1.296717834944e-03 3.499308914922e-03 0.0 
3.499308914922e-03 1.233188627064e-02 0.0 
0.0 0.0 0.0 
-1.212502918135e-03 3.560886872959e-03 0.0 
3.560886872959e-03 1.162128676673e-02 0.0 
0.0 0.0 0.0 
-1.448908941072e-03 3.464702324919e-03 0.0 
3.464702324919e-03 1.143512297057e-02 0.0 
0.0 0.0 0.0 
-1.115307422472e-03 3.610711735338e-03 0.0 
3.610711735338e-03 1.088752998500e-02 0.0 
0.0 0.0 0.0 
-1.349845965460e-03 3.526806770945e-03 0.0 
3.526806770945e-03 1.069222912112e-02 0.0 
0.0 0.0 0.0 
-1.005165847507e-03 3.653207434993e-03 0.0 
3.653207434993e-03 1.013147117907e-02 0.0 
0.0 0.0 0.0 
-7.820243081933e-04 3.728439796948e-03 0.0 
3.728439796948e-03 1.034769337142e-02 0.0 
0.0 0.0 0.0 
-6.586839597856e-04 3.750598896814e-03 0.0 
3.750598896814e-03 9.573577728876e-03 0.0 
0.0 0.0 0.0 
-8.768432514023e-04 3.688056925718e-03 0.0 
3.688056925718e-03 9.347083792257e-03 0.0 
0.0 0.0 0.0 
-5.188083513967e-04 3.766166624587e-03 0.0 
3.766166624587e-03 8.773177386102e-03 0.0 
0.0 0.0 0.0 
-7.333192807578e-04 3.714135159317e-03 0.0 
3.714135159317e-03 8.538104915190e-03 0.0 
0.0 0.0 0.0 
-3.568335938954e-04 3.770378928811e-03 0.0 
3.770378928811e-03 7.945200797002e-03 0.0 
0.0 0.0 0.0 
-5.799339249744e-04 3.727433248214e-03 0.0 
3.727433248214e-03 7.700770254846e-03 0.0 
0.0 0.0 0.0 
-1.349487763723e-04 3.771850620840e-03 0.0 
3.771850620840e-03 7.082942474207e-03 0.0 
0.0 0.0 0.0 
1.696476659016e-04 3.804399779029e-03 0.0 
3.804399779029e-03 7.330252586285e-03 0.0 
0.0 0.0 0.0 
5.377462380595e-04 3.792179181031e-03 0.0 
3.792179181031e-03 6.413900541201e-03 0.0 
0.0 0.0 0.0 
1.800547963626e-04 3.785022782402e-03 0.0 
3.785022782402e-03 6.173208771291e-03 0.0 
0.0 0.0 0.0 
1.068565083574e-03 3.857676880787e-03 0.0 
3.857676880787e-03 5.378530140361e-03 0.0 
0.0 0.0 0.0 
7.101049491872e-04 3.937793725895e-03 0.0 
3.937793725895e-03 5.126416473342e-03 0.0 
0.0 0.0 0.0 
1.830018650827e-03 4.009256223861e-03 0.0 
4.009256223861e-03 4.105352991620e-03 0.0 
0.0 0.0 0.0 
2.183278775334e-03 3.839813437286e-03 0.0 
3.839813437286e-03 4.407898116532e-03 0.0 
0.0 0.0 0.0 
3.024817079780e-03 3.832623128231e-03 0.0 
3.832623128231e-03 3.041206890265e-03 0.0 
0.0 0.0 0.0 
2.685746819263e-03 4.049781358748e-03 0.0 
4.049781358748e-03 2.680683859563e-03 0.0 
0.0 0.0 0.0 
3.894752892694e-03 3.695607134248e-03 0.0 
3.695607134248e-03 1.615648881508e-03 0.0 
0.0 0.0 0.0 
3.570082671374e-03 3.954390490714e-03 0.0 
3.954390490714e-03 1.202242110905e-03 0.0 
0.0 0.0 0.0 
4.841942015502e-03 3.489581698436e-03 0.0 
3.489581698436e-03 1.265026950754e-04 0.0 
0.0 0.0 0.0 
4.606601720188e-03 3.819927389402e-03 0.0 
3.819927389402e-03 -3.963787216975e-04 0.0 
0.0 0.0 0.0 
5.903642528508e-03 3.191802614870e-03 0.0 
3.191802614870e-03 -1.477900122929e-03 0.0 
0.0 0.0 0.0 
5.756082272598e-03 2.916146397557e-03 0.0 
2.916146397557e-03 -6.157324689636e-04 0.0 
0.0 0.0 0.0 
6.595576061123e-03 2.437982576889e-03 0.0 
2.437982576889e-03 -2.012671917489e-03 0.0 
0.0 0.0 0.0 
6.913989408555e-03 2.658983849709e-03 0.0 
2.658983849709e-03 -3.061010408802e-03 0.0 
0.0 0.0 0.0 
7.189828930948e-03 1.722727537319e-03 0.0 
1.722727537319e-03 -3.195489815074e-03 0.0 
0.0 0.0 0.0 
6.397062920136e-03 1.707482078484e-03 0.0 
1.707482078484e-03 -1.764102740467e-03 0.0 
0.0 0.0 0.0 
6.522005843518e-03 9.512909596618e-04 0.0 
9.512909596618e-04 -2.497581524735e-03 0.0 
0.0 0.0 0.0 
5.529047822821e-03 1.106714034013e-03 0.0 
1.106714034013e-03 -9.237961864290e-04 0.0 
0.0 0.0 0.0 
5.331561880789e-03 4.045043006442e-04 0.0 
4.045043006442e-04 -1.342790571820e-03 0.0 
0.0 0.0 0.0 
6.160792289321e-03 9.500348876061e-05 0.0 
9.500348876061e-05 -2.758720377320e-03 0.0 
0.0 0.0 0.0 
4.722522979047e-03 -3.153332933476e-04 0.0 
-3.153332933476e-04 -1.359244685542e-03 0.0 
0.0 0.0 0.0 
4.205521170467e-03 2.615979502070e-05 0.0 
2.615979502070e-05 -2.581313641272e-04 0.0 
0.0 0.0 0.0 
3.536059763434e-03 -5.785524115145e-04 0.0 
-5.785524115145e-04 -2.050930043111e-04 0.0 
0.0 0.0 0.0 
3.784007856834e-03 -9.604715054512e-04 0.0 
-9.604715054512e-04 -1.048082477951e-03 0.0 
0.0 0.0 0.0 
2.661421954379e-03 -1.095238285671e-03 0.0 
-1.095238285671e-03 6.735383326952e-05 0.0 
0.0 0.0 0.0 
2.679129578312e-03 -7.790319483996e-04 0.0 
-7.790319483996e-04 6.514956604974e-04 0.0 
0.0 0.0 0.0 
1.871525785357e-03 -1.204847401322e-03 0.0 
-1.204847401322e-03 8.834571359353e-04 0.0 
0.0 0.0 0.0 
1.745946634739e-03 -1.480958231484e-03 0.0 
-1.480958231484e-03 4.133847284237e-04 0.0 
0.0 0.0 0.0 
1.179600991729e-03 -1.498806237137e-03 0.0 
-1.498806237137e-03 1.157566621086e-03 0.0 
0.0 0.0 0.0 
1.298664779088e-03 -1.250864933838e-03 0.0 
-1.250864933838e-03 1.589017322292e-03 0.0 
0.0 0.0 0.0 
8.397924535795e-04 -1.445329225849e-03 0.0 
-1.445329225849e-03 1.815003860018e-03 0.0 
0.0 0.0 0.0 
7.278879834202e-04 -1.659080532739e-03 0.0 
-1.659080532739e-03 1.430251453884e-03 0.0 
0.0 0.0 0.0 
4.925882571220e-04 -1.528964093487e-03 0.0 
-1.528964093487e-03 2.033403087658e-03 0.0 
0.0 0.0 0.0 
6.057739582362e-04 -1.347409934653e-03 0.0 
-1.347409934653e-03 2.399678896128e-03 0.0 
0.0 0.0 0.0 
3.056278837733e-04 -1.387646113800e-03 0.0 
-1.387646113800e-03 2.558848315212e-03 0.0 
0.0 0.0 0.0 
4.190663376198e-04 -1.237501922580e-03 0.0 
-1.237501922580e-03 2.909149379851e-03 0.0 
0.0 0.0 0.0 
1.763997553440e-04 -1.523736079906e-03 0.0 
-1.523736079906e-03 2.237775829134e-03 0.0 
0.0 0.0 0.0 
4.096798358314e-05 -1.350315192430e-03 0.0 
-1.350315192430e-03 2.698109199204e-03 0.0 
0.0 0.0 0.0 
-9.246608396004e-05 -1.434175927695e-03 0.0 
-1.434175927695e-03 2.410812125891e-03 0.0 
0.0 0.0 0.0 
-1.758802505410e-04 -1.246214192361e-03 0.0 
-1.246214192361e-03 2.802449508255e-03 0.0 
0.0 0.0 0.0 
3.282268048101e-03 3.644378341326e-03 0.0 
3.644378341326e-03 3.464406172531e-03 0.0 
0.0 0.0 0.0 
-2.937406952807e-04 -1.273686669718e-03 0.0 
-1.273686669718e-03 2.529257201302e-03 0.0 
0.0 0.0 0.0 
-2.325635803890e-04 -1.481542220292e-03 0.0 
-1.481542220292e-03 2.153898319754e-03 0.0 
0.0 0.0 0.0 
-3.322352271528e-04 -1.091613028100e-03 0.0 
-1.091613028100e-03 2.855281025008e-03 0.0 
0.0 0.0 0.0 
-2.353212371267e-04 -1.074473060912e-03 0.0 
-1.074473060912e-03 3.144328391439e-03 0.0 
0.0 0.0 0.0 
-4.167241334384e-04 -1.066751051083e-03 0.0 
-1.066751051083e-03 2.575530695615e-03 0.0 
0.0 0.0 0.0 
-4.230427974942e-04 -9.071128477520e-04 0.0 
-9.071128477520e-04 2.846954585997e-03 0.0 
0.0 0.0 0.0 
-4.593003731883e-04 -8.422564846419e-04 0.0 
-8.422564846419e-04 2.543939984001e-03 0.0 
0.0 0.0 0.0 
3.176914610853e-03 4.259108227792e-03 0.0 
4.259108227792e-03 8.461575445401e-04 0.0 
0.0 0.0 0.0 
-4.487359610064e-04 3.814380178878e-03 0.0 
3.814380178878e-03 9.812858558883e-03 0.0 
0.0 0.0 0.0 
-4.493017374857e-04 -7.130345233042e-04 0.0 
-7.130345233042e-04 2.774414552550e-03 0.0 
0.0 0.0 0.0 
-4.298737725941e-04 -6.244153237968e-04 0.0 
-6.244153237968e-04 2.435287271099e-03 0.0 
0.0 0.0 0.0 
-4.520697531962e-04 -7.312662119150e-04 0.0 
-7.312662119150e-04 2.225247162082e-03 0.0 
0.0 0.0 0.0 
-3.527729918001e-04 -5.001531383573e-04 0.0 
-5.001531383573e-04 2.066536127144e-03 0.0 
0.0 0.0 0.0 
-2.541128950704e-03 2.215044933090e-03 0.0 
2.215044933090e-03 1.501057062909e-02 0.0 
0.0 0.0 0.0 
-2.249543419119e-03 2.418211781118e-03 0.0 
2.418211781118e-03 1.506672241803e-02 0.0 
0.0 0.0 0.0 
-2.444415243025e-03 1.992216811049e-03 0.0 
1.992216811049e-03 1.542931201999e-02 0.0 
0.0 0.0 0.0 
-2.165211733282e-03 2.239686808350e-03 0.0 
2.239686808350e-03 1.550125116271e-02 0.0 
0.0 0.0 0.0 
-2.315656920374e-03 1.826757725553e-03 0.0 
1.826757725553e-03 1.577519495381e-02 0.0 
0.0 0.0 0.0 
-3.427016064746e-04 -4.341791013709e-04 0.0 
-4.341791013709e-04 2.259329980036e-03 0.0 
0.0 0.0 0.0 
-1.360503875174e-03 3.421851802611e-03 0.0 
3.421851802611e-03 1.301475941911e-02 0.0 
0.0 0.0 0.0 
-1.948575368266e-03 2.611833754342e-03 0.0 
2.611833754342e-03 1.513778597643e-02 0.0 
0.0 0.0 0.0 
-1.098025362354e-03 3.623542088702e-03 0.0 
3.623542088702e-03 9.135630461800e-03 0.0 
0.0 0.0 0.0 
-1.294108347158e-04 3.765284925990e-03 0.0 
3.765284925990e-03 5.922603350743e-03 0.0 
0.0 0.0 0.0 
5.353384461972e-03 1.710479568626e-03 0.0 
1.710479568626e-03 -1.497449676344e-04 0.0 
0.0 0.0 0.0 
-4.283926764982e-04 -7.648449531567e-04 0.0 
-7.648449531567e-04 3.096148852624e-03 0.0 
0.0 0.0 0.0 
-4.455141568599e-04 -5.973303753683e-04 0.0 
-5.973303753683e-04 2.993856968925e-03 0.0 
0.0 0.0 0.0 
-4.351630473225e-04 -6.359588411425e-04 0.0 
-6.359588411425e-04 3.328273604142e-03 0.0 
0.0 0.0 0.0 
7.022829886391e-04 -1.159232773821e-03 0.0 
-1.159232773821e-03 2.796268466723e-03 0.0 
0.0 0.0 0.0 
5.190700551327e-04 -1.077683421339e-03 0.0 
-1.077683421339e-03 3.284068465470e-03 0.0 
0.0 0.0 0.0 
7.826950246794e-04 -9.675664986322e-04 0.0 
-9.675664986322e-04 3.219679446088e-03 0.0 
0.0 0.0 0.0 
6.058427659936e-04 -9.099708457825e-04 0.0 
-9.099708457825e-04 3.679871439657e-03 0.0 
0.0 0.0 0.0 
8.475366398566e-04 -7.742519584214e-04 0.0 
-7.742519584214e-04 3.665827820542e-03 0.0 
0.0 0.0 0.0 
6.780593674950e-04 -7.336164797385e-04 0.0 
-7.336164797385e-04 4.092999707360e-03 0.0 
0.0 0.0 0.0 
4.594756279536e-04 -8.259556237465e-04 0.0 
-8.259556237465e-04 4.084747521638e-03 0.0 
0.0 0.0 0.0 
5.272611772763e-04 -6.611688151713e-04 0.0 
-6.611688151713e-04 4.478209070303e-03 0.0 
0.0 0.0 0.0 
3.309261459404e-04 -7.238647396048e-04 0.0 
-7.238647396048e-04 4.451716671499e-03 0.0 
0.0 0.0 0.0 
8.971984872448e-04 -5.765584381754e-04 0.0 
-5.765584381754e-04 4.128824295632e-03 0.0 
0.0 0.0 0.0 
1.088205421567e-03 -5.553463213591e-04 0.0 
-5.553463213591e-04 3.683099617382e-03 0.0 
0.0 0.0 0.0 
3.876798554922e-04 -5.725114520039e-04 0.0 
-5.725114520039e-04 4.837026465889e-03 0.0 
0.0 0.0 0.0 
2.145848364271e-04 -6.140236041093e-04 0.0 
-6.140236041093e-04 4.792398747067e-03 0.0 
0.0 0.0 0.0 
2.596225877954e-04 -4.788910329725e-04 0.0 
-4.788910329725e-04 5.176365348078e-03 0.0 
0.0 0.0 0.0 
1.102275141724e-04 -5.052893145404e-04 0.0 
-5.052893145404e-04 5.112169974996e-03 0.0 
0.0 0.0 0.0 
5.212824921721e-05 -6.176323990942e-04 0.0 
-6.176323990942e-04 4.748018919414e-03 0.0 
0.0 0.0 0.0 
-2.908059706488e-05 -4.994330069468e-04 0.0 
-4.994330069468e-04 5.044160112463e-03 0.0 
0.0 0.0 0.0 
-9.278581830811e-05 -5.892874029558e-04 0.0 
-5.892874029558e-04 4.695370403190e-03 0.0 
0.0 0.0 0.0 
4.561654229118e-03 1.229381201099e-03 0.0 
1.229381201099e-03 6.018505525997e-04 0.0 
0.0 0.0 0.0 
4.304815973393e-03 1.715084679114e-03 0.0 
1.715084679114e-03 1.446248504866e-03 0.0 
0.0 0.0 0.0 
3.766685994904e-03 1.331720931538e-03 0.0 
1.331720931538e-03 1.948573143188e-03 0.0 
0.0 0.0 0.0 
3.443162136954e-03 1.732762471985e-03 0.0 
1.732762471985e-03 2.848254975446e-03 0.0 
0.0 0.0 0.0 
3.128701699627e-03 1.427825096263e-03 0.0 
1.427825096263e-03 3.128711359765e-03 0.0 
0.0 0.0 0.0 
2.775841809069e-03 1.771968624876e-03 0.0 
1.771968624876e-03 4.047532230893e-03 0.0 
0.0 0.0 0.0 
2.557054871410e-03 1.514599557917e-03 0.0 
1.514599557917e-03 4.231449700305e-03 0.0 
0.0 0.0 0.0 
2.844768488427e-03 1.153606782401e-03 0.0 
1.153606782401e-03 3.381833627892e-03 0.0 
0.0 0.0 0.0 
-9.755292802139e-04 3.660956147800e-03 0.0 
3.660956147800e-03 1.180001907243e-02 0.0 
0.0 0.0 0.0 
7.601933849529e-03 1.800092652378e-03 0.0 
1.800092652378e-03 -4.349264303257e-03 0.0 
0.0 0.0 0.0 
6.903364792862e-03 2.969099477471e-03 0.0 
2.969099477471e-03 -3.870349673003e-03 0.0 
0.0 0.0 0.0 
7.616739577000e-03 1.968776152311e-03 0.0 
1.968776152311e-03 -5.216122689364e-03 0.0 
0.0 0.0 0.0 
6.632894973588e-03 3.373425858631e-03 0.0 
3.373425858631e-03 -4.487246197773e-03 0.0 
0.0 0.0 0.0 
7.285920369244e-03 2.238956014053e-03 0.0 
2.238956014053e-03 -5.834555074066e-03 0.0 
0.0 0.0 0.0 
6.201022927949e-03 3.876178896580e-03 0.0 
3.876178896580e-03 -4.974825029508e-03 0.0 
0.0 0.0 0.0 
6.719413406815e-03 2.606222618230e-03 0.0 
2.606222618230e-03 -6.280157817803e-03 0.0 
0.0 0.0 0.0 
7.404645896005e-03 7.311074638512e-04 0.0 
7.311074638512e-04 -6.621970004572e-03 0.0 
0.0 0.0 0.0 
6.703797918688e-03 9.288127445111e-04 0.0 
9.288127445111e-04 -6.994964943015e-03 0.0 
0.0 0.0 0.0 
7.051250541495e-03 -9.180549198674e-04 0.0 
-9.180549198674e-04 -6.856253218185e-03 0.0 
0.0 0.0 0.0 
6.354568237315e-03 -8.389351298189e-04 0.0 
-8.389351298189e-04 -7.210773232891e-03 0.0 
0.0 0.0 0.0 
6.373135673536e-03 -2.515222755303e-03 0.0 
-2.515222755303e-03 -6.648048179626e-03 0.0 
0.0 0.0 0.0 
9.361695165599e-04 3.788239036370e-03 0.0 
3.788239036370e-03 6.639572970075e-03 0.0 
0.0 0.0 0.0 
3.046506417784e-03 2.064074150860e-03 0.0 
2.064074150860e-03 3.810427696879e-03 0.0 
0.0 0.0 0.0 
2.390436986197e-03 2.068937070304e-03 0.0 
2.068937070304e-03 4.993811744916e-03 0.0 
0.0 0.0 0.0 
2.646163304676e-03 2.346892045610e-03 0.0 
2.346892045610e-03 4.767208382734e-03 0.0 
0.0 0.0 0.0 
-3.744360523204e-04 -5.739880850649e-04 0.0 
-5.739880850649e-04 1.872858328699e-03 0.0 
0.0 0.0 0.0 
1.966797500034e-05 -4.035653781633e-04 0.0 
-4.035653781633e-04 5.412391427168e-03 0.0 
0.0 0.0 0.0 
1.103121609700e-03 -3.387494252066e-04 0.0 
-3.387494252066e-04 4.218904232905e-03 0.0 
0.0 0.0 0.0 
1.367503946536e-03 -2.464524678190e-04 0.0 
-2.464524678190e-04 3.767422061748e-03 0.0 
0.0 0.0 0.0 
2.308544241062e-03 1.271668540959e-03 0.0 
1.271668540959e-03 4.454988538311e-03 0.0 
0.0 0.0 0.0 
-2.072242907251e-04 -3.190227294704e-04 0.0 
-3.190227294704e-04 1.845078697360e-03 0.0 
0.0 0.0 0.0 
5.591252632309e-03 4.454758859600e-03 0.0 
4.454758859600e-03 -5.289556103184e-03 0.0 
0.0 0.0 0.0 
4.735927321355e-03 5.277134399452e-03 0.0 
5.277134399452e-03 -3.589671177440e-03 0.0 
0.0 0.0 0.0 
-2.037434603115e-03 2.079826255083e-03 0.0 
2.079826255083e-03 1.586638896240e-02 0.0 
0.0 0.0 0.0 
-2.154382236385e-03 1.692520660448e-03 0.0 
1.692520660448e-03 1.606710173450e-02 0.0 
0.0 0.0 0.0 
1.290049559992e-03 -2.037476960086e-05 0.0 
-2.037476960086e-05 4.414195154127e-03 0.0 
0.0 0.0 0.0 
-2.162064099832e-04 -2.795301901386e-04 0.0 
-2.795301901386e-04 2.037239895125e-03 0.0 
0.0 0.0 0.0 
5.627934238802e-04 -4.854555741125e-04 0.0 
-4.854555741125e-04 4.895776926914e-03 0.0 
0.0 0.0 0.0 
5.693308086522e-03 1.157465737382e-03 0.0 
1.157465737382e-03 -7.032608174740e-03 0.0 
0.0 0.0 0.0 
-9.756057229621e-05 -3.897287189627e-04 0.0 
-3.897287189627e-04 5.320578820783e-03 0.0 
0.0 0.0 0.0 
-5.477149780227e-05 -3.111540018832e-04 0.0 
-3.111540018832e-04 5.691155114858e-03 0.0 
0.0 0.0 0.0 
2.512270786513e-04 -8.632818361663e-04 0.0 
-8.632818361663e-04 4.087239168459e-03 0.0 
0.0 0.0 0.0 
2.015581002942e-03 2.326220996192e-03 0.0 
2.326220996192e-03 5.920818684411e-03 0.0 
0.0 0.0 0.0 
2.252714462051e-03 2.588901473781e-03 0.0 
2.588901473781e-03 5.698257022710e-03 0.0 
0.0 0.0 0.0 
6.504473174162e-03 -2.223004390092e-03 0.0 
-2.223004390092e-03 -5.862791124419e-03 0.0 
0.0 0.0 0.0 
5.231621136173e-03 -3.356419227762e-03 0.0 
-3.356419227762e-03 -5.039002115168e-03 0.0 
0.0 0.0 0.0 
5.308363159368e-03 -3.828016982536e-03 0.0 
-3.828016982536e-03 -5.817640104307e-03 0.0 
0.0 0.0 0.0 
3.523699475421e-03 -3.812986331743e-03 0.0 
-3.812986331743e-03 -3.691489355988e-03 0.0 
0.0 0.0 0.0 
3.269353937417e-03 -3.091619858071e-03 0.0 
-3.091619858071e-03 -2.862084528561e-03 0.0 
0.0 0.0 0.0 
1.649267248744e-03 -2.962026218116e-03 0.0 
-2.962026218116e-03 -1.778362737870e-03 0.0 
0.0 0.0 0.0 
1.719869112584e-03 -3.473959775202e-03 0.0 
-3.473959775202e-03 -2.298181759651e-03 0.0 
0.0 0.0 0.0 
5.155915438259e-04 -2.753543351847e-03 0.0 
-2.753543351847e-03 -8.419975275848e-04 0.0 
0.0 0.0 0.0 
6.175620432550e-04 -2.473227026835e-03 0.0 
-2.473227026835e-03 -4.570737038980e-04 0.0 
0.0 0.0 0.0 
2.525350599891e-05 -2.386137114273e-03 0.0 
-2.386137114273e-03 2.221247188895e-04 0.0 
0.0 0.0 0.0 
-2.371192675071e-04 -2.408804713574e-03 0.0 
-2.408804713574e-03 8.633720337433e-05 0.0 
0.0 0.0 0.0 
-4.349042390953e-04 -2.028772675131e-03 0.0 
-2.028772675131e-03 8.415316788823e-04 0.0 
0.0 0.0 0.0 
4.903622773191e-05 -3.088289968980e-04 0.0 
-3.088289968980e-04 5.799930607742e-03 0.0 
0.0 0.0 0.0 
5.246000590881e-03 -5.910208880513e-04 0.0 
-5.910208880513e-04 -7.016190783960e-03 0.0 
0.0 0.0 0.0 
-1.700693895630e-03 3.376090471095e-03 0.0 
3.376090471095e-03 1.126393940948e-02 0.0 
0.0 0.0 0.0 
1.076553098912e-03 -1.083717210297e-04 0.0 
-1.083717210297e-04 4.767380427771e-03 0.0 
0.0 0.0 0.0 
2.004880635087e-03 1.593434608899e-03 0.0 
1.593434608899e-03 5.304147281328e-03 0.0 
0.0 0.0 0.0 
-1.870786081825e-03 1.946172373405e-03 0.0 
1.946172373405e-03 1.617743736776e-02 0.0 
0.0 0.0 0.0 
-1.966718492180e-03 1.585466578585e-03 0.0 
1.585466578585e-03 1.631539942459e-02 0.0 
0.0 0.0 0.0 
-2.193100151374e-03 1.311251904315e-03 0.0 
1.311251904315e-03 1.616023510338e-02 0.0 
0.0 0.0 0.0 
-2.000879883097e-03 1.241301605117e-03 0.0 
1.241301605117e-03 1.636271301936e-02 0.0 
0.0 0.0 0.0 
-1.755258025768e-03 1.497869978343e-03 0.0 
1.497869978343e-03 1.652862647899e-02 0.0 
0.0 0.0 0.0 
-1.795531715888e-03 1.183430150428e-03 0.0 
1.183430150428e-03 1.654619738543e-02 0.0 
0.0 0.0 0.0 
-1.984046514586e-03 9.343522557234e-04 0.0 
9.343522557234e-04 1.632991767337e-02 0.0 
0.0 0.0 0.0 
-1.795931832016e-03 9.046155752795e-04 0.0 
9.046155752795e-04 1.649810294088e-02 0.0 
0.0 0.0 0.0 
-1.932681782339e-03 6.753477926049e-04 0.0 
6.753477926049e-04 1.623249130683e-02 0.0 
0.0 0.0 0.0 
-1.768826180263e-03 6.697025532080e-04 0.0 
6.697025532080e-04 1.639692370324e-02 0.0 
0.0 0.0 0.0 
-1.599288344851e-03 8.744928006378e-04 0.0 
8.744928006378e-04 1.665660000530e-02 0.0 
0.0 0.0 0.0 
-1.595597167192e-03 6.572619683179e-04 0.0 
6.572619683179e-04 1.655245906729e-02 0.0 
0.0 0.0 0.0 
-1.727599052939e-03 4.796473198517e-04 0.0 
4.796473198517e-04 1.625595810719e-02 0.0 
0.0 0.0 0.0 
-1.580668336620e-03 4.779692114400e-04 0.0 
4.779692114400e-04 1.641715485054e-02 0.0 
0.0 0.0 0.0 
-1.684616142553e-03 3.313371636529e-04 0.0 
3.313371636529e-04 1.609057602112e-02 0.0 
0.0 0.0 0.0 
-1.563248303702e-03 3.352300420664e-04 0.0 
3.352300420664e-04 1.625907983284e-02 0.0 
0.0 0.0 0.0 
-1.425338689961e-03 4.636773911557e-04 0.0 
4.636773911557e-04 1.657071933112e-02 0.0 
0.0 0.0 0.0 
-3.236978509354e-05 -1.924432565984e-04 0.0 
-1.924432565984e-04 1.592479263057e-03 0.0 
0.0 0.0 0.0 
2.522184539305e-03 9.018290579363e-04 0.0 
9.018290579363e-04 3.675091741250e-03 0.0 
0.0 0.0 0.0 
2.020742145413e-03 1.051058676673e-03 0.0 
1.051058676673e-03 4.718312025783e-03 0.0 
0.0 0.0 0.0 
-4.486012496402e-04 -4.952054742583e-04 0.0 
-4.952054742583e-04 3.210328286064e-03 0.0 
0.0 0.0 0.0 
-4.429143237246e-04 -5.173699339043e-04 0.0 
-5.173699339043e-04 3.544782360340e-03 0.0 
0.0 0.0 0.0 
-3.980627326307e-04 -6.440588441132e-04 0.0 
-6.440588441132e-04 3.654384638602e-03 0.0 
0.0 0.0 0.0 
-4.136167842701e-04 -5.156836601580e-04 0.0 
-5.156836601580e-04 3.883738777693e-03 0.0 
0.0 0.0 0.0 
-1.434610682409e-03 3.240055927070e-04 0.0 
3.240055927070e-04 1.641970952077e-02 0.0 
0.0 0.0 0.0 
-1.265237788526e-03 4.334987380475e-04 0.0 
4.334987380475e-04 1.671750782461e-02 0.0 
0.0 0.0 0.0 
4.138476222114e-03 6.042018278290e-03 0.0 
6.042018278290e-03 -3.784373368288e-03 0.0 
0.0 0.0 0.0 
2.983253025192e-03 6.015128936828e-03 0.0 
6.015128936828e-03 -1.737364317409e-03 0.0 
0.0 0.0 0.0 
-1.713497542639e-03 2.306802139876e-03 0.0 
2.306802139876e-03 1.595133546448e-02 0.0 
0.0 0.0 0.0 
-1.520708588154e-04 -2.899474651035e-04 0.0 
-2.899474651035e-04 5.577347626040e-03 0.0 
0.0 0.0 0.0 
-2.016284019298e-04 -3.515560416330e-04 0.0 
-3.515560416330e-04 5.220175143188e-03 0.0 
0.0 0.0 0.0 
3.898907462957e-04 4.015440405815e-03 0.0 
4.015440405815e-03 4.865555125344e-03 0.0 
0.0 0.0 0.0 
-4.169215910161e-04 3.726099376150e-03 0.0 
3.726099376150e-03 5.686628604297e-03 0.0 
0.0 0.0 0.0 
7.658014006129e-05 4.078774496569e-03 0.0 
4.078774496569e-03 4.618682584610e-03 0.0 
0.0 0.0 0.0 
-6.949955931576e-04 3.655446419793e-03 0.0 
3.655446419793e-03 5.474758819981e-03 0.0 
0.0 0.0 0.0 
-8.754177256031e-04 3.610629894481e-03 0.0 
3.610629894481e-03 6.387662185271e-03 0.0 
0.0 0.0 0.0 
-2.406461669763e-04 4.126425246836e-03 0.0 
4.126425246836e-03 4.399749983793e-03 0.0 
0.0 0.0 0.0 
1.420095155352e-03 -4.844174680749e-04 0.0 
-4.844174680749e-04 3.147643991512e-03 0.0 
0.0 0.0 0.0 
-1.394711153748e-03 8.376915468475e-04 0.0 
8.376915468475e-04 1.680188881536e-02 0.0 
0.0 0.0 0.0 
-4.846063464270e-04 -8.542283763326e-04 0.0 
-8.542283763326e-04 2.006609561182e-03 0.0 
0.0 0.0 0.0 
-4.072839007517e-04 -6.591336646095e-04 0.0 
-6.591336646095e-04 1.677293200177e-03 0.0 
0.0 0.0 0.0 
-1.113656065151e-04 -2.291675050675e-04 0.0 
-2.291675050675e-04 5.949604714385e-03 0.0 
0.0 0.0 0.0 
2.990512667436e-03 7.347857008358e-04 0.0 
7.347857008358e-04 2.661154022514e-03 0.0 
0.0 0.0 0.0 
5.299513780846e-04 3.828700467843e-03 0.0 
3.828700467843e-03 7.567269031074e-03 0.0 
0.0 0.0 0.0 
1.359517318816e-03 3.778259065627e-03 0.0 
3.778259065627e-03 6.852845702445e-03 0.0 
0.0 0.0 0.0 
9.359271825898e-04 3.846724176477e-03 0.0 
3.846724176477e-03 7.782255148583e-03 0.0 
0.0 0.0 0.0 
1.708351355009e-03 3.758153174289e-03 0.0 
3.758153174289e-03 7.130411860604e-03 0.0 
0.0 0.0 0.0 
1.305970749970e-03 3.852009556909e-03 0.0 
3.852009556909e-03 8.035781697425e-03 0.0 
0.0 0.0 0.0 
1.701483686797e-03 3.677723641993e-03 0.0 
3.677723641993e-03 7.703972705866e-03 0.0 
0.0 0.0 0.0 
2.041281912299e-03 3.540706652051e-03 0.0 
3.540706652051e-03 6.871293845117e-03 0.0 
0.0 0.0 0.0 
1.669315470403e-03 2.551534559031e-03 0.0 
2.551534559031e-03 6.803270414853e-03 0.0 
0.0 0.0 0.0 
1.545490815348e-03 3.371128517451e-03 0.0 
3.371128517451e-03 7.878814494887e-03 0.0 
0.0 0.0 0.0 
-1.552338677588e-03 2.277159963522e-04 0.0 
2.277159963522e-04 1.608404458903e-02 0.0 
0.0 0.0 0.0 
3.478342550123e-03 2.431352956695e-03 0.0 
2.431352956695e-03 3.400562288696e-03 0.0 
0.0 0.0 0.0 
2.386746037992e-04 -2.226578904446e-03 0.0 
-2.226578904446e-03 4.687554129144e-04 0.0 
0.0 0.0 0.0 
-1.078448103960e-05 -2.006718763363e-04 0.0 
-2.006718763363e-04 1.396536905958e-03 0.0 
0.0 0.0 0.0 
-5.615592254116e-04 -1.765326139335e-03 0.0 
-1.765326139335e-03 7.728106990642e-04 0.0 
0.0 0.0 0.0 
-7.231210735568e-05 -1.637965086586e-04 0.0 
-1.637965086586e-04 1.774172516400e-03 0.0 
0.0 0.0 0.0 
-2.372020925215e-04 -2.359515009333e-04 0.0 
-2.359515009333e-04 2.227856186649e-03 0.0 
0.0 0.0 0.0 
1.173446904902e-03 2.188148645418e-04 0.0 
2.188148645418e-04 5.053369626297e-03 0.0 
0.0 0.0 0.0 
1.360511748059e-03 3.790808150880e-03 0.0 
3.790808150880e-03 8.557479261205e-03 0.0 
0.0 0.0 0.0 
9.161898278720e-04 3.926131232807e-03 0.0 
3.926131232807e-03 8.921395912889e-03 0.0 
0.0 0.0 0.0 
-1.108663470670e-03 3.498335602547e-03 0.0 
3.498335602547e-03 6.188815474504e-03 0.0 
0.0 0.0 0.0 
-1.235269706986e-03 3.476422821457e-03 0.0 
3.476422821457e-03 7.042513203837e-03 0.0 
0.0 0.0 0.0 
1.504463483614e-03 2.330215038026e-03 0.0 
2.330215038026e-03 6.943615951619e-03 0.0 
0.0 0.0 0.0 
-2.533323051999e-03 1.538892629057e-03 0.0 
1.538892629057e-03 1.567252335288e-02 0.0 
0.0 0.0 0.0 
-2.087502939441e-03 6.785819813221e-04 0.0 
6.785819813221e-04 1.606169417730e-02 0.0 
0.0 0.0 0.0 
-1.982056932192e-03 4.531144236190e-04 0.0 
4.531144236190e-04 1.590866060673e-02 0.0 
0.0 0.0 0.0 
1.671332850197e-04 -9.575090889929e-05 0.0 
-9.575090889929e-05 1.239105724993e-03 0.0 
0.0 0.0 0.0 
-3.875596567341e-04 -2.188790524205e-03 0.0 
-2.188790524205e-03 1.397712433827e-04 0.0 
0.0 0.0 0.0 
-1.529294701945e-03 1.418999648947e-03 0.0 
1.418999648947e-03 1.671729650252e-02 0.0 
0.0 0.0 0.0 
3.501466912945e-03 5.328333259882e-03 0.0 
5.328333259882e-03 -1.553829625787e-03 0.0 
0.0 0.0 0.0 
1.803279983772e-03 5.422401170856e-03 0.0 
5.422401170856e-03 1.537124408313e-04 0.0 
0.0 0.0 0.0 
4.216496169001e-03 1.378502721274e-03 0.0 
1.378502721274e-03 -6.492781544520e-03 0.0 
0.0 0.0 0.0 
3.621962349199e-03 -2.799711825139e-04 0.0 
-2.799711825139e-04 -6.357295513692e-03 0.0 
0.0 0.0 0.0 
-1.301362717646e-03 2.997398680314e-04 0.0 
2.997398680314e-04 1.657401587876e-02 0.0 
0.0 0.0 0.0 
-1.108756859916e-03 3.845141006976e-04 0.0 
3.845141006976e-04 1.685384384048e-02 0.0 
0.0 0.0 0.0 
-3.436275910461e-04 -6.280294092275e-04 0.0 
-6.280294092275e-04 3.977583195781e-03 0.0 
0.0 0.0 0.0 
-3.687297286855e-04 -4.964295042302e-04 0.0 
-4.964295042302e-04 4.214743908833e-03 0.0 
0.0 0.0 0.0 
1.411337369513e-03 3.448409754912e-04 0.0 
3.448409754912e-04 4.780004744818e-03 0.0 
0.0 0.0 0.0 
-6.162643660129e-04 -1.469748922846e-03 0.0 
-1.469748922846e-03 1.221186885182e-03 0.0 
0.0 0.0 0.0 
-1.045111202376e-03 5.422631618671e-04 0.0 
5.422631618671e-04 1.697229838609e-02 0.0 
0.0 0.0 0.0 
2.566041927645e-03 4.908472148585e-04 0.0 
4.908472148585e-04 3.068057939475e-03 0.0 
0.0 0.0 0.0 
2.910180198018e-03 2.700160803863e-04 0.0 
2.700160803863e-04 2.163838129382e-03 0.0 
0.0 0.0 0.0 
-4.542812097849e-04 -3.909011330436e-04 0.0 
-3.909011330436e-04 3.756971788357e-03 0.0 
0.0 0.0 0.0 
2.260842733942e-03 6.719328571579e-03 0.0 
6.719328571579e-03 -1.655428042448e-03 0.0 
0.0 0.0 0.0 
3.286932069854e-03 6.814345402546e-03 0.0 
6.814345402546e-03 -3.636728123317e-03 0.0 
0.0 0.0 0.0 
7.502243794062e-04 -2.204610085496e-03 0.0 
-2.204610085496e-03 -5.354550980580e-05 0.0 
0.0 0.0 0.0 
-5.034309303080e-04 -1.686052810604e-03 0.0 
-1.686052810604e-03 1.357062039185e-03 0.0 
0.0 0.0 0.0 
-1.125347948985e-04 -1.394785385030e-04 0.0 
-1.394785385030e-04 1.970179640152e-03 0.0 
0.0 0.0 0.0 
1.174545280112e-03 5.849146690129e-04 0.0 
5.849146690129e-04 5.505511665529e-03 0.0 
0.0 0.0 0.0 
-1.439423723894e-03 1.731492017533e-03 0.0 
1.731492017533e-03 1.665730038410e-02 0.0 
0.0 0.0 0.0 
1.844549426905e-03 3.221044819804e-03 0.0 
3.221044819804e-03 7.084511818655e-03 0.0 
0.0 0.0 0.0 
2.441098917425e-03 3.414177411546e-03 0.0 
3.414177411546e-03 5.975128789654e-03 0.0 
0.0 0.0 0.0 
1.245328839740e-03 3.073963183956e-03 0.0 
3.073963183956e-03 8.173973813414e-03 0.0 
0.0 0.0 0.0 
-5.102186990175e-04 -1.104256213589e-03 0.0 
-1.104256213589e-03 1.017714791175e-03 0.0 
0.0 0.0 0.0 
9.587361851199e-04 1.261979558239e-04 0.0 
1.261979558239e-04 5.361954814923e-03 0.0 
0.0 0.0 0.0 
-1.905215787138e-04 -2.012892638262e-04 0.0 
-2.012892638262e-04 5.815256633603e-03 0.0 
0.0 0.0 0.0 
1.011111017413e-03 3.911112673922e-03 0.0 
3.911112673922e-03 9.385218897694e-03 0.0 
0.0 0.0 0.0 
5.545011973634e-04 3.987652447014e-03 0.0 
3.987652447014e-03 9.778400116034e-03 0.0 
0.0 0.0 0.0 
2.324091816659e-03 4.998046482189e-03 0.0 
4.998046482189e-03 2.862968801856e-04 0.0 
0.0 0.0 0.0 
1.000596722956e-03 5.031452460965e-03 0.0 
5.031452460965e-03 1.685387672660e-03 0.0 
0.0 0.0 0.0 
4.253316053666e-04 5.281057833731e-03 0.0 
5.281057833731e-03 1.667825140981e-03 0.0 
0.0 0.0 0.0 
-4.761165091756e-05 4.922810092784e-03 0.0 
4.922810092784e-03 2.952006484538e-03 0.0 
0.0 0.0 0.0 
-2.134374880079e-03 3.086911938701e-03 0.0 
3.086911938701e-03 1.258786741279e-02 0.0 
0.0 0.0 0.0 
1.489921256706e-03 4.793949757474e-03 0.0 
4.793949757474e-03 1.821647798915e-03 0.0 
0.0 0.0 0.0 
-1.586124051686e-03 3.451220793435e-03 0.0 
3.451220793435e-03 1.051053068202e-02 0.0 
0.0 0.0 0.0 
-1.949227010790e-03 3.311830765357e-03 0.0 
3.311830765357e-03 1.109969248715e-02 0.0 
0.0 0.0 0.0 
-1.802945284239e-03 3.385346131188e-03 0.0 
3.385346131188e-03 1.031812835977e-02 0.0 
0.0 0.0 0.0 
-1.025927159541e-03 3.590408155600e-03 0.0 
3.590408155600e-03 7.254679059344e-03 0.0 
0.0 0.0 0.0 
-1.368024433506e-03 3.463646497929e-03 0.0 
3.463646497929e-03 7.877954755088e-03 0.0 
0.0 0.0 0.0 
5.546874601187e-03 4.035571720253e-03 0.0 
4.035571720253e-03 -2.733420588182e-03 0.0 
0.0 0.0 0.0 
4.941059956858e-03 2.188672814683e-03 0.0 
2.188672814683e-03 8.416680348066e-04 0.0 
0.0 0.0 0.0 
-3.146088993412e-04 -7.674252297379e-04 0.0 
-7.674252297379e-04 3.724308642606e-03 0.0 
0.0 0.0 0.0 
-2.163655561904e-05 -7.198217698981e-04 0.0 
-7.198217698981e-04 4.403402039172e-03 0.0 
0.0 0.0 0.0 
1.004476355876e-03 -9.982778821324e-04 0.0 
-9.982778821324e-04 2.684113745276e-03 0.0 
0.0 0.0 0.0 
-1.356590724810e-03 1.074836428477e-03 0.0 
1.074836428477e-03 1.686824475068e-02 0.0 
0.0 0.0 0.0 
-1.125976601257e-03 1.011797356920e-03 0.0 
1.011797356920e-03 1.700653946526e-02 0.0 
0.0 0.0 0.0 
-1.794086462972e-03 3.153482550941e-04 0.0 
3.153482550941e-04 1.591199965891e-02 0.0 
0.0 0.0 0.0 
-1.731226917644e-03 1.992250376971e-04 0.0 
1.992250376971e-04 1.572072128655e-02 0.0 
0.0 0.0 0.0 
-1.992709743393e-04 -3.866820800093e-04 0.0 
-3.866820800093e-04 1.463709436974e-03 0.0 
0.0 0.0 0.0 
-2.092515240880e-04 -4.273357738152e-04 0.0 
-4.273357738152e-04 1.278715264077e-03 0.0 
0.0 0.0 0.0 
2.729169356946e-04 -1.116864257555e-03 0.0 
-1.116864257555e-03 3.351328833519e-03 0.0 
0.0 0.0 0.0 
8.735381145279e-04 -1.439766403340e-04 0.0 
-1.439766403340e-04 5.118233806643e-03 0.0 
0.0 0.0 0.0 
-1.528575298830e-03 2.173598545753e-03 0.0 
2.173598545753e-03 1.626989304633e-02 0.0 
0.0 0.0 0.0 
-1.342949070792e-03 2.523751602964e-03 0.0 
2.523751602964e-03 1.602591572272e-02 0.0 
0.0 0.0 0.0 
-1.507229882273e-03 2.655005001658e-03 0.0 
2.655005001658e-03 1.565354261748e-02 0.0 
0.0 0.0 0.0 
1.399153571084e-03 7.138112203580e-04 0.0 
7.138112203580e-04 5.315346057900e-03 0.0 
0.0 0.0 0.0 
7.756897853099e-03 6.685956043408e-04 0.0 
6.685956043408e-04 -5.117778267817e-03 0.0 
0.0 0.0 0.0 
3.913123616691e-03 8.494475229242e-04 0.0 
8.494475229242e-04 1.213340021258e-03 0.0 
0.0 0.0 0.0 
4.833712644330e-03 -2.328099611131e-03 0.0 
-2.328099611131e-03 -6.824427106514e-03 0.0 
0.0 0.0 0.0 
2.512055491547e-03 3.696728559002e-03 0.0 
3.696728559002e-03 4.731091854109e-03 0.0 
0.0 0.0 0.0 
8.524157463767e-05 -2.076158872585e-04 0.0 
-2.076158872585e-04 9.873614051397e-04 0.0 
0.0 0.0 0.0 
-5.660998064674e-04 3.807720666658e-03 0.0 
3.807720666658e-03 1.057263806118e-02 0.0 
0.0 0.0 0.0 
-1.484760242911e-04 -1.576159480509e-04 0.0 
-1.576159480509e-04 6.189905525662e-03 0.0 
0.0 0.0 0.0 
-8.153479317763e-05 -1.758946443887e-04 0.0 
-1.758946443887e-04 6.335052927937e-03 0.0 
0.0 0.0 0.0 
1.196609401291e-03 2.540634150705e-03 0.0 
2.540634150705e-03 7.769220334903e-03 0.0 
0.0 0.0 0.0 
-2.927644475425e-03 2.831437480076e-03 0.0 
2.831437480076e-03 1.316831510293e-02 0.0 
0.0 0.0 0.0 
3.309966766355e-03 3.480832839854e-03 0.0 
3.480832839854e-03 4.065824944085e-03 0.0 
0.0 0.0 0.0 
3.960300263715e-03 3.299050345637e-03 0.0 
3.299050345637e-03 2.892597137146e-03 0.0 
0.0 0.0 0.0 
-2.153900646552e-03 3.281398817517e-03 0.0 
3.281398817517e-03 1.089585954337e-02 0.0 
0.0 0.0 0.0 
-1.968844598440e-03 3.327157318516e-03 0.0 
3.327157318516e-03 1.009520083534e-02 0.0 
0.0 0.0 0.0 
-1.652549918539e-03 3.429083698414e-03 0.0 
3.429083698414e-03 9.526306926227e-03 0.0 
0.0 0.0 0.0 
-1.801909569373e-03 3.343959499778e-03 0.0 
3.343959499778e-03 9.286736889595e-03 0.0 
0.0 0.0 0.0 
4.291187456316e-04 -2.049554820337e-03 0.0 
-2.049554820337e-03 7.563922258377e-04 0.0 
0.0 0.0 0.0 
1.416875097188e-05 -1.971190877782e-03 0.0 
-1.971190877782e-03 1.164084398246e-03 0.0 
0.0 0.0 0.0 
9.544938674964e-04 3.642746654422e-03 0.0 
3.642746654422e-03 9.541439585866e-03 0.0 
0.0 0.0 0.0 
1.017136145329e-03 3.248255567233e-03 0.0 
3.248255567233e-03 8.899480605986e-03 0.0 
0.0 0.0 0.0 
7.227120299930e-04 3.993572452786e-03 0.0 
3.993572452786e-03 1.020615351939e-02 0.0 
0.0 0.0 0.0 
2.703295045591e-04 4.040335810760e-03 0.0 
4.040335810760e-03 1.061072141599e-02 0.0 
0.0 0.0 0.0 
1.056570555628e-03 2.366432552539e-03 0.0 
2.366432552539e-03 7.854166072476e-03 0.0 
0.0 0.0 0.0 
1.356673212087e-03 2.125756356990e-03 0.0 
2.125756356990e-03 7.062881616509e-03 0.0 
0.0 0.0 0.0 
-2.636159518947e-04 -1.893060263273e-04 0.0 
-1.893060263273e-04 2.409520495556e-03 0.0 
0.0 0.0 0.0 
-1.526676484690e-03 3.331664597813e-03 0.0 
3.331664597813e-03 7.642235478855e-03 0.0 
0.0 0.0 0.0 
-1.194716235153e-03 1.636650848053e-03 0.0 
1.636650848053e-03 1.685228452638e-02 0.0 
0.0 0.0 0.0 
-2.346623228705e-03 3.180837946448e-03 0.0 
3.180837946448e-03 1.171470528416e-02 0.0 
0.0 0.0 0.0 
7.293046551970e-04 5.808386710240e-05 0.0 
5.808386710240e-05 5.678992769129e-03 0.0 
0.0 0.0 0.0 
6.687313051551e-04 -1.467351638162e-04 0.0 
-1.467351638162e-04 5.481328319234e-03 0.0 
0.0 0.0 0.0 
3.392618541201e-03 -1.870211140573e-03 0.0 
-1.870211140573e-03 -6.351181748406e-03 0.0 
0.0 0.0 0.0 
4.301654554562e-03 -4.372172533040e-03 0.0 
-4.372172533040e-03 -6.239683442549e-03 0.0 
0.0 0.0 0.0 
-8.673975311037e-04 4.672361514879e-04 0.0 
4.672361514879e-04 1.709872841473e-02 0.0 
0.0 0.0 0.0 
-5.467853322297e-04 5.073692534782e-03 0.0 
5.073692534782e-03 2.996750882660e-03 0.0 
0.0 0.0 0.0 
-9.167731175641e-04 4.187812567097e-03 0.0 
4.187812567097e-03 4.124310123932e-03 0.0 
0.0 0.0 0.0 
-1.560605416070e-04 5.508526949345e-03 0.0 
5.508526949345e-03 1.795695133122e-03 0.0 
0.0 0.0 0.0 
-1.019680778738e-04 -3.561616841349e-05 0.0 
-3.561616841349e-05 7.035642118445e-03 0.0 
0.0 0.0 0.0 
-1.616075454993e-03 1.619376486145e-05 0.0 
1.619376486145e-05 1.488616264932e-02 0.0 
0.0 0.0 0.0 
-1.088918591822e-04 -1.220170313391e-04 0.0 
-1.220170313391e-04 6.574118839982e-03 0.0 
0.0 0.0 0.0 
-1.171122659649e-03 3.571239697129e-03 0.0 
3.571239697129e-03 8.103272976140e-03 0.0 
0.0 0.0 0.0 
-7.728719369759e-04 6.480788313625e-04 0.0 
6.480788313625e-04 1.719500660134e-02 0.0 
0.0 0.0 0.0 
3.434810303301e-03 3.118198999231e-03 0.0 
3.118198999231e-03 3.985564502448e-03 0.0 
0.0 0.0 0.0 
1.160527780338e-03 4.398074629667e-03 0.0 
4.398074629667e-03 3.509542302375e-03 0.0 
0.0 0.0 0.0 
1.750267525366e-03 5.026968677323e-04 0.0 
5.026968677323e-04 4.438587280971e-03 0.0 
0.0 0.0 0.0 
-9.670232853745e-04 2.944875701457e-04 0.0 
2.944875701457e-04 1.696994857678e-02 0.0 
0.0 0.0 0.0 
-6.850230210215e-04 3.728124771168e-04 0.0 
3.728124771168e-04 1.722455205554e-02 0.0 
0.0 0.0 0.0 
-2.084667485030e-03 4.351423325377e-04 0.0 
4.351423325377e-04 1.572392592234e-02 0.0 
0.0 0.0 0.0 
-1.960785708862e-03 2.524934441082e-04 0.0 
2.524934441082e-04 1.551556804423e-02 0.0 
0.0 0.0 0.0 
-2.227726396261e-03 6.803282188009e-04 0.0 
6.803282188009e-04 1.587200428014e-02 0.0 
0.0 0.0 0.0 
4.981453372837e-03 3.392167759100e-03 0.0 
3.392167759100e-03 -6.475111897003e-03 0.0 
0.0 0.0 0.0 
3.695237873787e-03 4.050656071382e-03 0.0 
4.050656071382e-03 -6.081787580535e-03 0.0 
0.0 0.0 0.0 
-1.186080953306e-03 7.864430800053e-04 0.0 
7.864430800053e-04 1.693894165933e-02 0.0 
0.0 0.0 0.0 
-4.192861434411e-04 -4.397479887784e-04 0.0 
-4.397479887784e-04 2.845953019069e-03 0.0 
0.0 0.0 0.0 
-4.311832432633e-04 -3.484741496155e-04 0.0 
-3.484741496155e-04 3.083856222952e-03 0.0 
0.0 0.0 0.0 
-5.866432334612e-04 -1.212399648425e-03 0.0 
-1.212399648425e-03 1.537909906136e-03 0.0 
0.0 0.0 0.0 
-5.057161387527e-04 -1.395466137315e-03 0.0 
-1.395466137315e-03 1.734250239837e-03 0.0 
0.0 0.0 0.0 
-2.404319634478e-04 -7.280734880830e-04 0.0 
-7.280734880830e-04 4.040558220088e-03 0.0 
0.0 0.0 0.0 
-1.921632875599e-04 -8.730046625473e-04 0.0 
-8.730046625473e-04 3.757562675440e-03 0.0 
0.0 0.0 0.0 
-2.456790534224e-04 3.881141019438e-03 0.0 
3.881141019438e-03 1.006721027220e-02 0.0 
0.0 0.0 0.0 
-3.643678065974e-04 3.892649951010e-03 0.0 
3.892649951010e-03 1.082207766726e-02 0.0 
0.0 0.0 0.0 
1.845740563071e-04 3.851429238000e-03 0.0 
3.851429238000e-03 8.444402118159e-03 0.0 
0.0 0.0 0.0 
2.378177606051e-03 5.250914636655e-05 0.0 
5.250914636655e-05 2.684811759103e-03 0.0 
0.0 0.0 0.0 
2.569354973667e-03 -2.058550861084e-04 0.0 
-2.058550861084e-04 1.925791540758e-03 0.0 
0.0 0.0 0.0 
3.172247159707e-03 2.155892034574e-05 0.0 
2.155892034574e-05 1.333871363692e-03 0.0 
0.0 0.0 0.0 
-1.042715841061e-03 1.256900347874e-03 0.0 
1.256900347874e-03 1.702714725592e-02 0.0 
0.0 0.0 0.0 
-7.625411894183e-04 1.180228060357e-03 0.0 
1.180228060357e-03 1.716785577786e-02 0.0 
0.0 0.0 0.0 
8.939001690855e-04 -1.963150019075e-03 0.0 
-1.963150019075e-03 3.457554284248e-04 0.0 
0.0 0.0 0.0 
1.576088579118e-03 -2.092615054556e-03 0.0 
-2.092615054556e-03 -5.936159433854e-04 0.0 
0.0 0.0 0.0 
1.990391189850e-04 -1.849642018468e-03 0.0 
-1.849642018468e-03 1.409899581802e-03 0.0 
0.0 0.0 0.0 
-1.062599885912e-03 1.952585689863e-03 0.0 
1.952585689863e-03 1.675773787923e-02 0.0 
0.0 0.0 0.0 
-5.643510803675e-05 -1.362532653938e-04 0.0 
-1.362532653938e-04 6.728200168576e-03 0.0 
0.0 0.0 0.0 
-1.725026352245e-05 -1.797162377199e-04 0.0 
-1.797162377199e-04 6.478102589690e-03 0.0 
0.0 0.0 0.0 
1.644782554951e-04 -2.180076751093e-04 0.0 
-2.180076751093e-04 7.776019798510e-04 0.0 
0.0 0.0 0.0 
-1.987667782318e-04 -4.629954702573e-04 0.0 
-4.629954702573e-04 1.070053512310e-03 0.0 
0.0 0.0 0.0 
1.472772199106e-03 7.490367762767e-03 0.0 
7.490367762767e-03 -1.278130409435e-03 0.0 
0.0 0.0 0.0 
2.445221012975e-03 7.874120976858e-03 0.0 
7.874120976858e-03 -3.236011772722e-03 0.0 
0.0 0.0 0.0 
-1.112211513010e-03 2.856628651603e-03 0.0 
2.856628651603e-03 1.570698304948e-02 0.0 
0.0 0.0 0.0 
-1.265762564798e-03 2.991310133733e-03 0.0 
2.991310133733e-03 1.529172176584e-02 0.0 
0.0 0.0 0.0 
-8.982779732642e-04 2.759048803137e-03 0.0 
2.759048803137e-03 1.607348654439e-02 0.0 
0.0 0.0 0.0 
-1.382416260815e-04 -9.594130825974e-05 0.0 
-9.594130825974e-05 2.124212127249e-03 0.0 
0.0 0.0 0.0 
2.215072928001e-03 3.099495059776e-03 0.0 
3.099495059776e-03 6.227124697961e-03 0.0 
0.0 0.0 0.0 
1.054619710619e-03 9.457149887031e-04 0.0 
9.457149887031e-04 6.083271448341e-03 0.0 
0.0 0.0 0.0 
1.277627552403e-03 1.075201705641e-03 0.0 
1.075201705641e-03 5.971176518310e-03 0.0 
0.0 0.0 0.0 
8.186296705620e-04 8.333171398752e-04 0.0 
8.333171398752e-04 6.314768077931e-03 0.0 
0.0 0.0 0.0 
1.347283945129e-03 2.725333090575e-03 0.0 
2.725333090575e-03 7.629023307633e-03 0.0 
0.0 0.0 0.0 
8.983866441184e-04 2.718274994172e-03 0.0 
2.718274994172e-03 8.499906777128e-03 0.0 
0.0 0.0 0.0 
8.017039291828e-04 3.038247751197e-03 0.0 
3.038247751197e-03 9.065738826217e-03 0.0 
0.0 0.0 0.0 
1.976999096882e-03 7.995019700641e-05 0.0 
7.995019700641e-05 -5.700494557827e-03 0.0 
0.0 0.0 0.0 
-7.475214717513e-04 2.294878334760e-04 0.0 
2.294878334760e-04 1.715302929172e-02 0.0 
0.0 0.0 0.0 
-1.798186521224e-03 1.672583307980e-04 0.0 
1.672583307980e-04 1.550296184333e-02 0.0 
0.0 0.0 0.0 
1.615872687109e-03 -9.086739743191e-04 0.0 
-9.086739743191e-04 -5.445747264817e-03 0.0 
0.0 0.0 0.0 
-1.722146571284e-03 9.405545248874e-05 0.0 
9.405545248874e-05 1.529403208253e-02 0.0 
0.0 0.0 0.0 
-1.681617867224e-03 1.200299661055e-04 0.0 
1.200299661055e-04 1.551661895276e-02 0.0 
0.0 0.0 0.0 
-1.678972444997e-03 4.745069092837e-05 0.0 
4.745069092837e-05 1.506178390307e-02 0.0 
0.0 0.0 0.0 
3.979280399598e-05 -6.858891907290e-05 0.0 
-6.858891907290e-05 1.657915132918e-03 0.0 
0.0 0.0 0.0 
-2.164701288273e-03 3.754340855783e-04 0.0 
3.754340855783e-04 1.546557922279e-02 0.0 
0.0 0.0 0.0 
-2.366513121425e-03 7.066503350424e-04 0.0 
7.066503350424e-04 1.567956174786e-02 0.0 
0.0 0.0 0.0 
3.568364464627e-04 -1.682663953318e-04 0.0 
-1.682663953318e-04 4.342870670836e-04 0.0 
0.0 0.0 0.0 
-7.718679021973e-04 1.822744829426e-03 0.0 
1.822744829426e-03 1.694384147268e-02 0.0 
0.0 0.0 0.0 
4.447657393209e-04 -8.313384788959e-05 0.0 
-8.313384788959e-05 4.718896104419e-04 0.0 
0.0 0.0 0.0 
3.688397619412e-04 -9.403087987949e-05 0.0 
-9.403087987949e-05 6.649439349026e-04 0.0 
0.0 0.0 0.0 
5.468236996932e-04 2.997103567404e-05 0.0 
2.997103567404e-05 6.025017832276e-03 0.0 
0.0 0.0 0.0 
4.909772833833e-04 -1.431811499832e-04 0.0 
-1.431811499832e-04 5.830186984446e-03 0.0 
0.0 0.0 0.0 
3.610126353677e-04 -1.265161756658e-05 0.0 
-1.265161756658e-05 6.341933870223e-03 0.0 
0.0 0.0 0.0 
3.232335062449e-04 -1.330415009043e-04 0.0 
-1.330415009043e-04 6.147937908145e-03 0.0 
0.0 0.0 0.0 
3.907181836280e-04 -2.644581596638e-04 0.0 
-2.644581596638e-04 5.688080839422e-03 0.0 
0.0 0.0 0.0 
2.492914515613e-04 -2.185758925886e-04 0.0 
-2.185758925886e-04 6.027863089579e-03 0.0 
0.0 0.0 0.0 
-1.842563562209e-03 1.345250235387e-04 0.0 
1.345250235387e-04 1.528219865886e-02 0.0 
0.0 0.0 0.0 
1.872921662984e-04 -1.111908013540e-04 0.0 
-1.111908013540e-04 6.538819476709e-03 0.0 
0.0 0.0 0.0 
1.331415434299e-04 -1.839407767962e-04 0.0 
-1.839407767962e-04 6.355632530056e-03 0.0 
0.0 0.0 0.0 
8.565351585973e-05 -1.236537335428e-04 0.0 
-1.236537335428e-04 6.859841338051e-03 0.0 
0.0 0.0 0.0 
-1.875820555783e-03 3.402168430951e-03 0.0 
3.402168430951e-03 9.863249892054e-03 0.0 
0.0 0.0 0.0 
-5.763806481716e-04 4.182540678263e-03 0.0 
4.182540678263e-03 4.216413773416e-03 0.0 
0.0 0.0 0.0 
-1.242222001109e-03 3.426639527214e-03 0.0 
3.426639527214e-03 5.142814632365e-03 0.0 
0.0 0.0 0.0 
-1.377320587546e-03 3.333798705108e-03 0.0 
3.333798705108e-03 5.036256492221e-03 0.0 
0.0 0.0 0.0 
3.983396483675e-04 4.061747032764e-03 0.0 
4.061747032764e-03 1.112832276071e-02 0.0 
0.0 0.0 0.0 
4.826328939606e-05 4.086533839039e-03 0.0 
4.086533839039e-03 1.136745604740e-02 0.0 
0.0 0.0 0.0 
-2.094175004781e-04 -1.230150620197e-04 0.0 
-1.230150620197e-04 6.043850975572e-03 0.0 
0.0 0.0 0.0 
-2.577350514742e-04 -1.504717392713e-04 0.0 
-1.504717392713e-04 5.677804768978e-03 0.0 
0.0 0.0 0.0 
-1.649657425715e-03 6.430010676246e-05 0.0 
6.430010676246e-05 1.528893427863e-02 0.0 
0.0 0.0 0.0 
-1.613377816198e-03 4.200304085620e-05 0.0 
4.200304085620e-05 1.525468627992e-02 0.0 
0.0 0.0 0.0 
-1.593732616836e-03 9.746175565791e-05 0.0 
9.746175565791e-05 1.562017839376e-02 0.0 
0.0 0.0 0.0 
-1.567074797368e-03 6.166439523657e-05 0.0 
6.166439523657e-05 1.556466405616e-02 0.0 
0.0 0.0 0.0 
-1.518543060857e-03 1.201756156654e-04 0.0 
1.201756156654e-04 1.591103660279e-02 0.0 
0.0 0.0 0.0 
-1.498086898133e-03 6.943636541841e-05 0.0 
6.943636541841e-05 1.584785993985e-02 0.0 
0.0 0.0 0.0 
-1.422554909136e-03 1.272805139173e-04 0.0 
1.272805139173e-04 1.618166867616e-02 0.0 
0.0 0.0 0.0 
5.928952092611e-04 3.283851319310e-03 0.0 
3.283851319310e-03 9.779863764780e-03 0.0 
0.0 0.0 0.0 
-9.475712944962e-04 5.287829470071e-03 0.0 
5.287829470071e-03 3.073311668349e-03 0.0 
0.0 0.0 0.0 
-2.338716504706e-03 3.392676609889e-03 0.0 
3.392676609889e-03 1.151613986075e-02 0.0 
0.0 0.0 0.0 
9.053927146536e-04 2.210152393141e-03 0.0 
2.210152393141e-03 7.891322144764e-03 0.0 
0.0 0.0 0.0 
1.201727606276e-03 1.936572685990e-03 0.0 
1.936572685990e-03 7.125211471933e-03 0.0 
0.0 0.0 0.0 
-1.655685414307e-03 3.336924340457e-03 0.0 
3.336924340457e-03 8.458628903524e-03 0.0 
0.0 0.0 0.0 
-1.623942548224e-03 3.286740673072e-03 0.0 
3.286740673072e-03 8.253098436377e-03 0.0 
0.0 0.0 0.0 
6.958589115504e-04 3.528654682892e-04 0.0 
3.528654682892e-04 6.087837012321e-03 0.0 
0.0 0.0 0.0 
2.778940469108e-03 4.617554712589e-03 0.0 
4.617554712589e-03 5.177043257228e-04 0.0 
0.0 0.0 0.0 
-5.357775143766e-04 2.182418367058e-03 0.0 
2.182418367058e-03 1.680120310677e-02 0.0 
0.0 0.0 0.0 
1.073578147998e-03 3.658635630929e-03 0.0 
3.658635630929e-03 -4.728972145461e-03 0.0 
0.0 0.0 0.0 
2.407265500544e-03 3.674600488540e-03 0.0 
3.674600488540e-03 -5.747178550703e-03 0.0 
0.0 0.0 0.0 
1.925277114645e-03 4.546444437741e-03 0.0 
4.546444437741e-03 2.049810209888e-03 0.0 
0.0 0.0 0.0 
-1.507506339212e-03 3.452692962851e-03 0.0 
3.452692962851e-03 8.710525234441e-03 0.0 
0.0 0.0 0.0 
-9.717483556203e-04 3.565816972226e-03 0.0 
3.565816972226e-03 5.281262731419e-03 0.0 
0.0 0.0 0.0 
-1.315153751776e-03 3.342992556014e-03 0.0 
3.342992556014e-03 6.007213889464e-03 0.0 
0.0 0.0 0.0 
2.107356363946e-03 2.928309778226e-04 0.0 
2.928309778226e-04 3.524192196390e-03 0.0 
0.0 0.0 0.0 
-1.629792713109e-04 -5.250679906453e-04 0.0 
-5.250679906453e-04 8.905370490501e-04 0.0 
0.0 0.0 0.0 
4.770775953995e-04 6.285777843197e-03 0.0 
6.285777843197e-03 4.231074628504e-04 0.0 
0.0 0.0 0.0 
-1.454620422438e-03 2.083305146872e-04 0.0 
2.083305146872e-04 1.623323031911e-02 0.0 
0.0 0.0 0.0 
-1.170631558218e-04 6.914000740166e-03 0.0 
6.914000740166e-03 7.781790797321e-04 0.0 
0.0 0.0 0.0 
-2.562448147613e-04 -6.816844356430e-05 0.0 
-6.816844356430e-05 5.902523321574e-03 0.0 
0.0 0.0 0.0 
4.274142908436e-03 4.235595869895e-03 0.0 
4.235595869895e-03 -8.415990702083e-04 0.0 
0.0 0.0 0.0 
-8.040225596265e-04 3.670046595093e-03 0.0 
3.670046595093e-03 7.472509292039e-03 0.0 
0.0 0.0 0.0 
1.154641438668e-03 5.870422423971e-03 0.0 
5.870422423971e-03 1.851218605600e-04 0.0 
0.0 0.0 0.0 
4.044983437284e-04 4.762497743250e-03 0.0 
4.762497743250e-03 3.062916553815e-03 0.0 
0.0 0.0 0.0 
-1.787260076477e-03 3.293812340262e-03 0.0 
3.293812340262e-03 1.199705062953e-02 0.0 
0.0 0.0 0.0 
-2.493057701232e-03 2.821186935766e-03 0.0 
2.821186935766e-03 1.321523665744e-02 0.0 
0.0 0.0 0.0 
-2.482367010884e-03 2.998064863121e-03 0.0 
2.998064863121e-03 1.249680990198e-02 0.0 
0.0 0.0 0.0 
5.802049583597e-03 3.565003340818e-03 0.0 
3.565003340818e-03 -2.165762404482e-03 0.0 
0.0 0.0 0.0 
-1.416703804519e-03 3.330506844341e-03 0.0 
3.330506844341e-03 6.838560963921e-03 0.0 
0.0 0.0 0.0 
-1.477189204197e-03 3.187420222434e-03 0.0 
3.187420222434e-03 6.655780132380e-03 0.0 
0.0 0.0 0.0 
-1.231252484170e-03 3.581030569532e-03 0.0 
3.581030569532e-03 9.926757107771e-03 0.0 
0.0 0.0 0.0 
-1.620871628825e-03 2.794389551378e-03 0.0 
2.794389551378e-03 1.521566582704e-02 0.0 
0.0 0.0 0.0 
-1.353553087341e-03 3.103686694058e-03 0.0 
3.103686694058e-03 1.480744113817e-02 0.0 
0.0 0.0 0.0 
-1.004178549408e-03 3.280473928754e-03 0.0 
3.280473928754e-03 1.488157081003e-02 0.0 
0.0 0.0 0.0 
-1.079067788349e-03 3.378761225469e-03 0.0 
3.378761225469e-03 1.436516409357e-02 0.0 
0.0 0.0 0.0 
-1.395089278480e-03 3.222474523809e-03 0.0 
3.222474523809e-03 1.425851876078e-02 0.0 
0.0 0.0 0.0 
-1.099426711150e-03 3.466674828327e-03 0.0 
3.466674828327e-03 1.378685705218e-02 0.0 
0.0 0.0 0.0 
-7.935008000792e-04 3.619265095158e-03 0.0 
3.619265095158e-03 1.392942741225e-02 0.0 
0.0 0.0 0.0 
-8.001057331043e-04 3.688726512019e-03 0.0 
3.688726512019e-03 1.331459573579e-02 0.0 
0.0 0.0 0.0 
-4.946293848762e-04 3.878552953078e-03 0.0 
3.878552953078e-03 1.353686631125e-02 0.0 
0.0 0.0 0.0 
-5.187820450617e-04 3.878435949982e-03 0.0 
3.878435949982e-03 1.283044052447e-02 0.0 
0.0 0.0 0.0 
-7.724887040560e-04 3.734439357324e-03 0.0 
3.734439357324e-03 1.265102893084e-02 0.0 
0.0 0.0 0.0 
-4.940593597600e-04 3.883257007738e-03 0.0 
3.883257007738e-03 1.217865782276e-02 0.0 
0.0 0.0 0.0 
-2.873494085936e-04 4.031753413460e-03 0.0 
4.031753413460e-03 1.235382276214e-02 0.0 
0.0 0.0 0.0 
-7.320925187250e-04 3.771274984823e-03 0.0 
3.771274984823e-03 1.198110580853e-02 0.0 
0.0 0.0 0.0 
6.101194319667e-04 2.484479745009e-03 0.0 
2.484479745009e-03 8.581383010339e-03 0.0 
0.0 0.0 0.0 
2.309415708147e-03 4.287110977192e-03 0.0 
4.287110977192e-03 2.356355911773e-03 0.0 
0.0 0.0 0.0 
2.659493521094e-03 1.481641698725e-03 0.0 
1.481641698725e-03 -5.892729138722e-03 0.0 
0.0 0.0 0.0 
3.305243265796e-03 6.886720821092e-03 0.0 
6.886720821092e-03 -5.820671155681e-03 0.0 
0.0 0.0 0.0 
-9.547775840226e-04 3.652494303795e-03 0.0 
3.652494303795e-03 8.319014199911e-03 0.0 
0.0 0.0 0.0 
-2.680712104327e-04 4.016799453492e-03 0.0 
4.016799453492e-03 1.403141393623e-02 0.0 
0.0 0.0 0.0 
-4.134490572591e-04 3.585082556253e-03 0.0 
3.585082556253e-03 1.513669811113e-02 0.0 
0.0 0.0 0.0 
5.212542331250e-03 4.614793608000e-03 0.0 
4.614793608000e-03 -3.230982644404e-03 0.0 
0.0 0.0 0.0 
2.536598436942e-04 4.012272962879e-03 0.0 
4.012272962879e-03 1.159210258252e-02 0.0 
0.0 0.0 0.0 
-2.070218639707e-03 3.203128928808e-03 0.0 
3.203128928808e-03 1.185667314694e-02 0.0 
0.0 0.0 0.0 
5.933942673789e-03 3.022451241657e-03 0.0 
3.022451241657e-03 -6.523744838231e-03 0.0 
0.0 0.0 0.0 
2.566697844478e-04 3.677647509708e-03 0.0 
3.677647509708e-03 1.094889548068e-02 0.0 
0.0 0.0 0.0 
-1.685386701458e-03 2.938997497867e-03 0.0 
2.938997497867e-03 1.471737251072e-02 0.0 
0.0 0.0 0.0 
-1.704480525168e-03 3.078759398729e-03 0.0 
3.078759398729e-03 1.415588828818e-02 0.0 
0.0 0.0 0.0 
-1.997441428707e-03 2.778700408713e-03 0.0 
2.778700408713e-03 1.463558475549e-02 0.0 
0.0 0.0 0.0 
-4.551762024655e-04 3.092847592513e-03 0.0 
3.092847592513e-03 1.594275428574e-02 0.0 
0.0 0.0 0.0 
-2.331795419694e-03 1.009464037300e-03 0.0 
1.009464037300e-03 1.595631092986e-02 0.0 
0.0 0.0 0.0 
3.018419699495e-04 3.006709690609e-03 0.0 
3.006709690609e-03 9.694169572506e-03 0.0 
0.0 0.0 0.0 
3.908452650682e-03 2.106085194729e-03 0.0 
2.106085194729e-03 2.414647357104e-03 0.0 
0.0 0.0 0.0 
4.441485971185e-03 2.563720390154e-03 0.0 
2.563720390154e-03 1.898562191368e-03 0.0 
0.0 0.0 0.0 
5.270642333920e-03 2.721471803020e-03 0.0 
2.721471803020e-03 5.031934509106e-04 0.0 
0.0 0.0 0.0 
-1.082627942862e-03 3.541627710413e-03 0.0 
3.541627710413e-03 1.315460821341e-02 0.0 
0.0 0.0 0.0 
4.009413620279e-04 2.134893506439e-03 0.0 
2.134893506439e-03 8.308634969553e-03 0.0 
0.0 0.0 0.0 
7.930528764595e-04 1.821905776464e-03 0.0 
1.821905776464e-03 7.518126497126e-03 0.0 
0.0 0.0 0.0 
7.979269486737e-04 1.602889761743e-03 0.0 
1.602889761743e-03 7.204664637899e-03 0.0 
0.0 0.0 0.0 
1.221412859304e-03 1.538121784043e-03 0.0 
1.538121784043e-03 6.625582448494e-03 0.0 
0.0 0.0 0.0 
4.250555234090e-04 1.653847836252e-03 0.0 
1.653847836252e-03 7.657529800158e-03 0.0 
0.0 0.0 0.0 
-6.752432395268e-05 4.240667902431e-03 0.0 
4.240667902431e-03 1.296494878822e-02 0.0 
0.0 0.0 0.0 
5.696439371126e-05 4.246024816427e-03 0.0 
4.246024816427e-03 1.245055423132e-02 0.0 
0.0 0.0 0.0 
1.585966354527e-03 -2.491055151762e-03 0.0 
-2.491055151762e-03 -1.169796193372e-03 0.0 
0.0 0.0 0.0 
2.988578886652e-03 -2.420574602659e-03 0.0 
-2.420574602659e-03 -2.013201301094e-03 0.0 
0.0 0.0 0.0 
2.796840527989e-03 -1.880610763100e-03 0.0 
-1.880610763100e-03 -1.252454056105e-03 0.0 
0.0 0.0 0.0 
4.513425608913e-03 -2.008223121872e-03 0.0 
-2.008223121872e-03 -2.965832109591e-03 0.0 
0.0 0.0 0.0 
4.903174439864e-03 -2.672187613274e-03 0.0 
-2.672187613274e-03 -4.001732974024e-03 0.0 
0.0 0.0 0.0 
6.314278603419e-03 -1.765124652551e-03 0.0 
-1.765124652551e-03 -4.859772858937e-03 0.0 
0.0 0.0 0.0 
5.891689051621e-03 -1.243827398066e-03 0.0 
-1.243827398066e-03 -3.738715698722e-03 0.0 
0.0 0.0 0.0 
7.384250521928e-03 -8.255528982909e-04 0.0 
-8.255528982909e-04 -6.206851497446e-03 0.0 
0.0 0.0 0.0 
-1.650330642244e-04 3.978171030633e-03 0.0 
3.978171030633e-03 1.109685143387e-02 0.0 
0.0 0.0 0.0 
4.263622167742e-04 1.140384851223e-03 0.0 
1.140384851223e-03 7.106453897793e-03 0.0 
0.0 0.0 0.0 
1.056598131843e-03 -7.742229124979e-04 0.0 
-7.742229124979e-04 3.168566394462e-03 0.0 
0.0 0.0 0.0 
1.423728930242e-03 -7.354473869012e-04 0.0 
-7.354473869012e-04 2.579375706305e-03 0.0 
0.0 0.0 0.0 
1.382520454063e-03 -9.933467732373e-04 0.0 
-9.933467732373e-04 2.060201813305e-03 0.0 
0.0 0.0 0.0 
-2.795882988008e-04 -9.157779804211e-04 0.0 
-9.157779804211e-04 3.448927640980e-03 0.0 
0.0 0.0 0.0 
-1.337143984718e-04 -1.024849819217e-03 0.0 
-1.024849819217e-03 3.445815421541e-03 0.0 
0.0 0.0 0.0 
-3.327547369279e-05 -9.498420766191e-04 0.0 
-9.498420766191e-04 3.760043414110e-03 0.0 
0.0 0.0 0.0 
-3.803771135146e-04 -7.814330298545e-04 0.0 
-7.814330298545e-04 3.411021635282e-03 0.0 
0.0 0.0 0.0 
2.138765900453e-03 3.649234048963e-03 0.0 
3.649234048963e-03 6.207789527594e-03 0.0 
0.0 0.0 0.0 
4.129266923556e-04 8.706071925188e-04 0.0 
8.706071925188e-04 6.901679511853e-03 0.0 
0.0 0.0 0.0 
3.406409607948e-03 5.371639091325e-04 0.0 
5.371639091325e-04 1.689225240409e-03 0.0 
0.0 0.0 0.0 
-5.890617176561e-05 -1.183785632162e-03 0.0 
-1.183785632162e-03 3.096169829037e-03 0.0 
0.0 0.0 0.0 
-2.450773593286e-03 4.749455363892e-04 0.0 
4.749455363892e-04 1.511303429930e-02 0.0 
0.0 0.0 0.0 
-2.712988327015e-03 1.068600405945e-03 0.0 
1.068600405945e-03 1.536282021599e-02 0.0 
0.0 0.0 0.0 
-2.920807667366e-03 1.549395615040e-03 0.0 
1.549395615040e-03 1.514744020721e-02 0.0 
0.0 0.0 0.0 
-2.704463262684e-03 1.669471640094e-03 0.0 
1.669471640094e-03 1.536302529931e-02 0.0 
0.0 0.0 0.0 
-2.504942723877e-03 7.406281543621e-04 0.0 
7.406281543621e-04 1.545763618520e-02 0.0 
0.0 0.0 0.0 
-2.810960187375e-04 -5.900199721199e-04 0.0 
-5.900199721199e-04 4.301432831114e-03 0.0 
0.0 0.0 0.0 
-3.142466995653e-04 -4.590472880343e-04 0.0 
-4.590472880343e-04 4.542242547330e-03 0.0 
0.0 0.0 0.0 
-3.883115110320e-04 -3.692514140667e-04 0.0 
-3.692514140667e-04 4.433801978927e-03 0.0 
0.0 0.0 0.0 
-3.384849439325e-04 -3.360224594737e-04 0.0 
-3.360224594737e-04 4.764713632295e-03 0.0 
0.0 0.0 0.0 
-3.994826610641e-04 -2.525542922217e-04 0.0 
-2.525542922217e-04 4.627526791836e-03 0.0 
0.0 0.0 0.0 
-4.346792903737e-04 -2.761507195544e-04 0.0 
-2.761507195544e-04 4.316671037435e-03 0.0 
0.0 0.0 0.0 
-3.557991345817e-04 -2.192263733587e-04 0.0 
-2.192263733587e-04 4.966544170794e-03 0.0 
0.0 0.0 0.0 
-4.081729437018e-04 -1.435102509209e-04 0.0 
-1.435102509209e-04 4.782935761723e-03 0.0 
0.0 0.0 0.0 
-2.048711376496e-03 1.817022497766e-04 0.0 
1.817022497766e-04 1.503214346110e-02 0.0 
0.0 0.0 0.0 
3.732460956738e-04 -4.082794191699e-03 0.0 
-4.082794191699e-03 -2.097575365656e-03 0.0 
0.0 0.0 0.0 
6.258541141268e-04 -4.431775803364e-03 0.0 
-4.431775803364e-03 -1.993678304920e-03 0.0 
0.0 0.0 0.0 
-2.470883823015e-04 -2.087629783825e-03 0.0 
-2.087629783825e-03 -2.682465802464e-04 0.0 
0.0 0.0 0.0 
3.089361562252e-04 -3.513019575483e-03 0.0 
-3.513019575483e-03 -1.372838389608e-03 0.0 
0.0 0.0 0.0 
2.610363926338e-03 -5.173159040752e-03 0.0 
-5.173159040752e-03 -3.923838542695e-03 0.0 
0.0 0.0 0.0 
1.714091243173e-03 -4.012570304441e-03 0.0 
-4.012570304441e-03 -2.679794708277e-03 0.0 
0.0 0.0 0.0 
4.116711730794e-03 -4.940688438557e-03 0.0 
-4.940688438557e-03 -5.186909254227e-03 0.0 
0.0 0.0 0.0 
2.415566532605e-03 -5.263590034267e-03 0.0 
-5.263590034267e-03 -4.574365477319e-03 0.0 
0.0 0.0 0.0 
8.349446822653e-04 -4.173460011093e-04 0.0 
-4.173460011093e-04 -2.774501963354e-04 0.0 
0.0 0.0 0.0 
-1.198729492549e-04 -8.472005930897e-04 0.0 
-8.472005930897e-04 3.238653784000e-04 0.0 
0.0 0.0 0.0 
9.859977872896e-04 -1.011975014637e-04 0.0 
-1.011975014637e-04 -2.510213129719e-04 0.0 
0.0 0.0 0.0 
2.916598211990e-04 -4.099955572163e-04 0.0 
-4.099955572163e-04 3.080701818168e-04 0.0 
0.0 0.0 0.0 
-4.095771996053e-04 -1.276320266520e-03 0.0 
-1.276320266520e-03 6.403527175075e-04 0.0 
0.0 0.0 0.0 
-4.597281763332e-04 -7.669371140767e-04 0.0 
-7.669371140767e-04 1.484517540883e-03 0.0 
0.0 0.0 0.0 
-2.968764882124e-05 -1.157528946515e-04 0.0 
-1.157528946515e-04 7.151909243598e-03 0.0 
0.0 0.0 0.0 
-4.740779403558e-04 -1.002630011302e-04 0.0 
-1.002630011302e-04 3.827077794312e-03 0.0 
0.0 0.0 0.0 
-4.683522061970e-04 -1.924142379823e-04 0.0 
-1.924142379823e-04 3.638409000546e-03 0.0 
0.0 0.0 0.0 
-4.355513149060e-04 -1.753315942295e-04 0.0 
-1.753315942295e-04 3.282916548191e-03 0.0 
0.0 0.0 0.0 
-4.541934252603e-04 -2.959912630174e-04 0.0 
-2.959912630174e-04 3.449293814426e-03 0.0 
0.0 0.0 0.0 
-4.726725367600e-04 -1.946436156992e-04 0.0 
-1.946436156992e-04 3.958978775961e-03 0.0 
0.0 0.0 0.0 
-3.986757606043e-04 -7.863304150110e-05 0.0 
-7.863304150110e-05 3.083015591913e-03 0.0 
0.0 0.0 0.0 
-3.732574558061e-04 -1.500675693284e-04 0.0 
-1.500675693284e-04 2.931064871245e-03 0.0 
0.0 0.0 0.0 
9.198732775443e-04 -9.803319360699e-07 0.0 
-9.803319360699e-07 -1.353743587563e-04 0.0 
0.0 0.0 0.0 
6.800587928590e-04 -1.066909792352e-05 0.0 
-1.066909792352e-05 2.922780216930e-04 0.0 
0.0 0.0 0.0 
7.040086714403e-04 9.278338584963e-06 0.0 
9.278338584963e-06 2.434896341878e-04 0.0 
0.0 0.0 0.0 
4.445564889551e-04 -1.501575614665e-05 0.0 
-1.501575614665e-05 7.491929195225e-04 0.0 
0.0 0.0 0.0 
4.515198056163e-04 -2.618272888518e-05 0.0 
-2.618272888518e-05 7.381579895575e-04 0.0 
0.0 0.0 0.0 
6.796947311455e-04 -6.906313843961e-06 0.0 
-6.906313843961e-06 2.940720645826e-04 0.0 
0.0 0.0 0.0 
6.588018768570e-04 -6.176178363967e-06 0.0 
-6.176178363967e-06 3.016370035804e-04 0.0 
0.0 0.0 0.0 
9.227589700663e-04 3.092455071845e-06 0.0 
3.092455071845e-06 -1.379684554300e-04 0.0 
0.0 0.0 0.0 
6.354786027438e-04 -1.573460646690e-05 0.0 
-1.573460646690e-05 3.087701067462e-04 0.0 
0.0 0.0 0.0 
3.803495696995e-04 -5.373627596441e-05 0.0 
-5.373627596441e-05 7.761941522695e-04 0.0 
0.0 0.0 0.0 
9.388678381553e-04 -7.636591168534e-06 0.0 
-7.636591168534e-06 -1.550704604657e-04 0.0 
0.0 0.0 0.0 
-1.195849095023e-03 7.478008018275e-05 0.0 
7.478008018275e-05 1.659082905908e-02 0.0 
0.0 0.0 0.0 
-1.102094197937e-03 1.747950472942e-04 0.0 
1.747950472942e-04 1.675316880779e-02 0.0 
0.0 0.0 0.0 
3.421371236132e-04 3.897332704141e-04 0.0 
3.897332704141e-04 6.714769411295e-03 0.0 
0.0 0.0 0.0 
-1.847040979485e-03 9.554258522561e-05 0.0 
9.554258522561e-05 1.501920694885e-02 0.0 
0.0 0.0 0.0 
1.212431790896e-03 -5.547841754858e-05 0.0 
-5.547841754858e-05 -2.604483417235e-04 0.0 
0.0 0.0 0.0 
-3.894339141013e-04 7.549693588730e-04 0.0 
7.549693588730e-04 1.738975004147e-02 0.0 
0.0 0.0 0.0 
-4.157830652353e-04 1.415473547102e-03 0.0 
1.415473547102e-03 1.723711419194e-02 0.0 
0.0 0.0 0.0 
-3.686078621755e-04 1.195936532625e-03 0.0 
1.195936532625e-03 1.731901820035e-02 0.0 
0.0 0.0 0.0 
-1.573958914239e-04 -4.278221676518e-05 0.0 
-4.278221676518e-05 6.656572788373e-03 0.0 
0.0 0.0 0.0 
-1.160118157998e-04 -7.548206872318e-05 0.0 
-7.548206872318e-05 6.820751228794e-03 0.0 
0.0 0.0 0.0 
-3.375064060071e-04 4.216593161505e-04 0.0 
4.216593161505e-04 1.743797138971e-02 0.0 
0.0 0.0 0.0 
-4.753204208673e-04 -9.897407051742e-04 0.0 
-9.897407051742e-04 2.299015190234e-03 0.0 
0.0 0.0 0.0 
-7.704391056654e-04 3.569900543701e-03 0.0 
3.569900543701e-03 1.446822034479e-02 0.0 
0.0 0.0 0.0 
-9.752557794708e-04 7.247925862859e-04 0.0 
7.247925862859e-04 1.706675033235e-02 0.0 
0.0 0.0 0.0 
4.876470851867e-03 5.099418608755e-03 0.0 
5.099418608755e-03 -5.425926136179e-03 0.0 
0.0 0.0 0.0 
-3.143139826898e-04 -1.742203894399e-03 0.0 
-1.742203894399e-03 1.512172501635e-03 0.0 
0.0 0.0 0.0 
-2.384965917919e-04 -2.453267748032e-04 0.0 
-2.453267748032e-04 5.455643322040e-03 0.0 
0.0 0.0 0.0 
1.455072464112e-04 -7.408470570647e-04 0.0 
-7.408470570647e-04 4.430852748038e-03 0.0 
0.0 0.0 0.0 
-2.706410488834e-05 -2.376039044983e-04 0.0 
-2.376039044983e-04 6.077008697846e-03 0.0 
0.0 0.0 0.0 
-1.527099000454e-04 -4.661553718316e-04 0.0 
-4.661553718316e-04 4.966888929012e-03 0.0 
0.0 0.0 0.0 
1.454175955045e-04 -3.893590520821e-04 0.0 
-3.893590520821e-04 5.498241982028e-03 0.0 
0.0 0.0 0.0 
8.476443499321e-04 1.323551460733e-03 0.0 
1.323551460733e-03 6.789985374143e-03 0.0 
0.0 0.0 0.0 
8.617749271293e-05 -9.569134157928e-05 0.0 
-9.569134157928e-05 1.498092324293e-03 0.0 
0.0 0.0 0.0 
-1.862916187885e-03 4.702877067098e-04 0.0 
4.702877067098e-04 1.608540343559e-02 0.0 
0.0 0.0 0.0 
-1.647867826853e-03 2.204839553617e-04 0.0 
2.204839553617e-04 1.591050161217e-02 0.0 
0.0 0.0 0.0 
-1.415063129824e-03 6.335760254160e-04 0.0 
6.335760254160e-04 1.670032960821e-02 0.0 
0.0 0.0 0.0 
-4.197781222824e-04 -5.299376373620e-04 0.0 
-5.299376373620e-04 2.640519670351e-03 0.0 
0.0 0.0 0.0 
-4.267400597236e-04 -3.933042567323e-04 0.0 
-3.933042567323e-04 4.113619125137e-03 0.0 
0.0 0.0 0.0 
-2.017323302888e-04 -3.506386274361e-04 0.0 
-3.506386274361e-04 1.657597907130e-03 0.0 
0.0 0.0 0.0 
5.383996036381e-04 3.673544231478e-03 0.0 
3.673544231478e-03 1.051150280868e-02 0.0 
0.0 0.0 0.0 
-1.453966888916e-03 3.507357138755e-03 0.0 
3.507357138755e-03 9.733414136802e-03 0.0 
0.0 0.0 0.0 
9.318777150775e-04 -1.223640860032e-03 0.0 
-1.223640860032e-03 2.232711976012e-03 0.0 
0.0 0.0 0.0 
-3.593078293534e-04 -9.293874785020e-04 0.0 
-9.293874785020e-04 3.146503994025e-03 0.0 
0.0 0.0 0.0 
-4.033099791421e-04 -1.251704713014e-03 0.0 
-1.251704713014e-03 2.274648349612e-03 0.0 
0.0 0.0 0.0 
-1.985081712648e-04 -2.053169849306e-03 0.0 
-2.053169849306e-03 9.678567100610e-04 0.0 
0.0 0.0 0.0 
1.485934722187e-03 4.197695905514e-03 0.0 
4.197695905514e-03 3.807478360757e-03 0.0 
0.0 0.0 0.0 
1.624269098011e-04 -1.242194154655e-03 0.0 
-1.242194154655e-03 3.013314265455e-03 0.0 
0.0 0.0 0.0 
7.264934832141e-04 -5.444803459878e-04 0.0 
-5.444803459878e-04 4.523411905160e-03 0.0 
0.0 0.0 0.0 
-1.229964608135e-03 5.970201247058e-04 0.0 
5.970201247058e-04 1.684051544099e-02 0.0 
0.0 0.0 0.0 
1.011209201815e-03 -1.840481974288e-05 0.0 
-1.840481974288e-05 -1.358415667287e-04 0.0 
0.0 0.0 0.0 
9.168124716836e-04 -3.647950899331e-04 0.0 
-3.647950899331e-04 4.607820114149e-03 0.0 
0.0 0.0 0.0 
3.726553161308e-04 -9.777095502701e-04 0.0 
-9.777095502701e-04 3.709136646755e-03 0.0 
0.0 0.0 0.0 
-2.163097888682e-03 9.685396044151e-04 0.0 
9.685396044151e-04 1.615032642749e-02 0.0 
0.0 0.0 0.0 
2.202718877334e-03 1.818761788020e-03 0.0 
1.818761788020e-03 5.144284536682e-03 0.0 
0.0 0.0 0.0 
2.406612538995e-04 -2.877930048571e-03 0.0 
-2.877930048571e-03 -9.655621117168e-04 0.0 
0.0 0.0 0.0 
-1.580815450256e-03 1.128520168054e-03 0.0 
1.128520168054e-03 1.671339077289e-02 0.0 
0.0 0.0 0.0 
-1.140865086448e-03 2.378439619196e-03 0.0 
2.378439619196e-03 1.633612867199e-02 0.0 
0.0 0.0 0.0 
-2.491713652289e-03 1.083602076149e-03 0.0 
1.083602076149e-03 1.575670086014e-02 0.0 
0.0 0.0 0.0 
4.847673830947e-05 -2.007141676322e-04 0.0 
-2.007141676322e-04 1.184814445730e-03 0.0 
0.0 0.0 0.0 
-1.888631812834e-03 2.850969998869e-04 0.0 
2.850969998869e-04 1.571706987234e-02 0.0 
0.0 0.0 0.0 
9.460966595340e-04 4.468672964804e-04 0.0 
4.468672964804e-04 5.719556336516e-03 0.0 
0.0 0.0 0.0 
-1.854264147586e-03 2.451614535543e-03 0.0 
2.451614535543e-03 1.557731257573e-02 0.0 
0.0 0.0 0.0 
-3.440068937265e-04 -3.686811437875e-04 0.0 
-3.686811437875e-04 2.454570894734e-03 0.0 
0.0 0.0 0.0 
4.554266012663e-03 6.518874941667e-04 0.0 
6.518874941667e-04 6.781757771024e-06 0.0 
0.0 0.0 0.0 
-3.950545335217e-04 3.735491479542e-03 0.0 
3.735491479542e-03 6.833351492938e-03 0.0 
0.0 0.0 0.0 
-2.956583855946e-03 3.634115874169e-03 0.0 
3.634115874169e-03 1.342862810660e-02 0.0 
0.0 0.0 0.0 
-8.947886848083e-04 9.214630996331e-04 0.0 
9.214630996331e-04 1.712602387687e-02 0.0 
0.0 0.0 0.0 
4.073649141683e-03 3.480413599006e-03 0.0 
3.480413599006e-03 2.140434981868e-03 0.0 
0.0 0.0 0.0 
1.777540561947e-03 1.386085366455e-03 0.0 
1.386085366455e-03 5.528046969066e-03 0.0 
0.0 0.0 0.0 
3.369638590694e-03 1.014840569239e-03 0.0 
1.014840569239e-03 2.311735940063e-03 0.0 
0.0 0.0 0.0 
-3.547259251454e-04 -3.032124030448e-04 0.0 
-3.032124030448e-04 2.650140911442e-03 0.0 
0.0 0.0 0.0 
5.509357623695e-04 -3.078541011296e-04 0.0 
-3.078541011296e-04 5.347039572783e-03 0.0 
0.0 0.0 0.0 
5.915742258337e-03 2.294060624157e-03 0.0 
2.294060624157e-03 -6.987528002462e-04 0.0 
0.0 0.0 0.0 
-1.295672764671e-03 1.341933979162e-03 0.0 
1.341933979162e-03 1.688440352526e-02 0.0 
0.0 0.0 0.0 
5.458154275907e-04 3.891007482237e-03 0.0 
3.891007482237e-03 8.676341829617e-03 0.0 
0.0 0.0 0.0 
7.316690360792e-03 7.873086713123e-04 0.0 
7.873086713123e-04 -3.932779280627e-03 0.0 
0.0 0.0 0.0 
-1.666897676842e-03 1.832713122241e-03 0.0 
1.832713122241e-03 1.643832594831e-02 0.0 
0.0 0.0 0.0 
1.970771229425e-03 -9.246900153027e-04 0.0 
-9.246900153027e-04 1.374371823613e-03 0.0 
0.0 0.0 0.0 
1.840748761131e-03 2.093515371346e-03 0.0 
2.093515371346e-03 6.063495383276e-03 0.0 
0.0 0.0 0.0 
-1.313246388885e-03 3.546354392149e-03 0.0 
3.546354392149e-03 8.931711985860e-03 0.0 
0.0 0.0 0.0 
-1.097904232732e-04 3.812110375961e-03 0.0 
3.812110375961e-03 8.195420018494e-03 0.0 
0.0 0.0 0.0 
-8.879174861766e-04 3.700088391894e-03 0.0 
3.700088391894e-03 1.108822935180e-02 0.0 
0.0 0.0 0.0 
1.457937931265e-03 3.780388529254e-03 0.0 
3.780388529254e-03 5.620839980674e-03 0.0 
0.0 0.0 0.0 
-3.093662339300e-04 -1.789453463611e-04 0.0 
-1.789453463611e-04 5.320849998052e-03 0.0 
0.0 0.0 0.0 
7.303714921375e-04 -3.436543232031e-04 0.0 
-3.436543232031e-04 4.982192417627e-03 0.0 
0.0 0.0 0.0 
5.800799086346e-03 -2.508916352537e-03 0.0 
-2.508916352537e-03 -6.987055929492e-03 0.0 
0.0 0.0 0.0 
7.995385561179e-04 4.587692304835e-03 0.0 
4.587692304835e-03 3.252872692828e-03 0.0 
0.0 0.0 0.0 
-2.365421545458e-03 1.405255362101e-03 0.0 
1.405255362101e-03 1.593240504341e-02 0.0 
0.0 0.0 0.0 
1.273267305185e-03 3.517014838548e-03 0.0 
3.517014838548e-03 8.630574494819e-03 0.0 
0.0 0.0 0.0 
-9.465583018359e-04 1.532892959276e-03 0.0 
1.532892959276e-03 1.701440057499e-02 0.0 
0.0 0.0 0.0 
-6.390205037057e-04 3.687214410689e-03 0.0 
3.687214410689e-03 6.601062147648e-03 0.0 
0.0 0.0 0.0 
4.102162199104e-04 -4.160885012184e-04 0.0 
-4.160885012184e-04 5.248468577480e-03 0.0 
0.0 0.0 0.0 
-1.307360819814e-03 2.055278074573e-03 0.0 
2.055278074573e-03 1.653179048900e-02 0.0 
0.0 0.0 0.0 
5.273660906417e-05 -1.095652083546e-03 0.0 
-1.095652083546e-03 3.409423167308e-03 0.0 
0.0 0.0 0.0 
-7.696014604708e-06 -3.366912696556e-05 0.0 
-3.366912696556e-05 1.785923033408e-03 0.0 
0.0 0.0 0.0 
3.989770015428e-03 5.794030301681e-03 0.0 
5.794030301681e-03 -5.250104999500e-03 0.0 
0.0 0.0 0.0 
7.783023279797e-03 6.430183485167e-04 0.0 
6.430183485167e-04 -6.010764989667e-03 0.0 
0.0 0.0 0.0 
4.887614404892e-03 3.236976802639e-03 0.0 
3.236976802639e-03 7.897452876814e-04 0.0 
0.0 0.0 0.0 
1.570537935450e-04 -9.879154306843e-04 0.0 
-9.879154306843e-04 3.739966102553e-03 0.0 
0.0 0.0 0.0 
-8.293388402088e-04 3.236547422554e-03 0.0 
3.236547422554e-03 1.532139327656e-02 0.0 
0.0 0.0 0.0 
2.726134122925e-04 -3.442704309630e-04 0.0 
-3.442704309630e-04 5.585640599961e-03 0.0 
0.0 0.0 0.0 
1.632063254719e-03 1.244761842280e-04 0.0 
1.244761842280e-04 4.002436370786e-03 0.0 
0.0 0.0 0.0 
-1.246916676963e-03 9.253923640032e-03 0.0 
9.253923640032e-03 1.000385617635e-03 0.0 
0.0 0.0 0.0 
-2.662214964999e-03 3.206188175193e-03 0.0 
3.206188175193e-03 1.239004536373e-02 0.0 
0.0 0.0 0.0 
1.534954967625e-04 -2.785666999762e-04 0.0 
-2.785666999762e-04 5.908413125658e-03 0.0 
0.0 0.0 0.0 
3.788820259065e-03 3.036433809817e-04 0.0 
3.036433809817e-04 7.393089352598e-04 0.0 
0.0 0.0 0.0 
1.669316732151e-03 1.868769785939e-03 0.0 
1.868769785939e-03 6.190098201676e-03 0.0 
0.0 0.0 0.0 
-4.416548746392e-04 -1.698649321251e-04 0.0 
-1.698649321251e-04 4.462463369023e-03 0.0 
0.0 0.0 0.0 
5.443972099606e-04 3.486673128216e-03 0.0 
3.486673128216e-03 1.019964188334e-02 0.0 
0.0 0.0 0.0 
-1.724672822920e-03 3.345783065771e-03 0.0 
3.345783065771e-03 9.045580007947e-03 0.0 
0.0 0.0 0.0 
5.618845257283e-05 -2.240720204446e-04 0.0 
-2.240720204446e-04 6.216830019756e-03 0.0 
0.0 0.0 0.0 
2.160118945373e-03 6.919200669239e-04 0.0 
6.919200669239e-04 4.036486594540e-03 0.0 
0.0 0.0 0.0 
3.930489276947e-03 4.745477271733e-03 0.0 
4.745477271733e-03 -1.250571966444e-03 0.0 
0.0 0.0 0.0 
-1.617866781511e-03 1.686816766155e-05 0.0 
1.686816766155e-05 1.489052140170e-02 0.0 
0.0 0.0 0.0 
4.089847203719e-05 -1.547868554487e-04 0.0 
-1.547868554487e-04 6.708196099419e-03 0.0 
0.0 0.0 0.0 
1.690145542550e-03 8.656191160212e-04 0.0 
8.656191160212e-04 5.050578982636e-03 0.0 
0.0 0.0 0.0 
1.856463162516e-03 3.714323380131e-03 0.0 
3.714323380131e-03 5.864427356948e-03 0.0 
0.0 0.0 0.0 
3.359518472894e-03 -2.584887355586e-04 0.0 
-2.584887355586e-04 5.659605377995e-04 0.0 
0.0 0.0 0.0 
-2.081593974371e-03 3.712240625616e-03 0.0 
3.712240625616e-03 1.150529120998e-02 0.0 
0.0 0.0 0.0 
6.097777480564e-05 -8.541796987034e-04 0.0 
-8.541796987034e-04 4.087702610003e-03 0.0 
0.0 0.0 0.0 
-3.076276555080e-04 3.816429936758e-03 0.0 
3.816429936758e-03 9.020071492169e-03 0.0 
0.0 0.0 0.0 
-4.509552760358e-04 2.820761988582e-03 0.0 
2.820761988582e-03 1.627119786415e-02 0.0 
0.0 0.0 0.0 
1.500300888963e-03 1.186754969751e-03 0.0 
1.186754969751e-03 5.755839064623e-03 0.0 
0.0 0.0 0.0 
-1.998446038891e-03 2.944663897044e-03 0.0 
2.944663897044e-03 1.406297121712e-02 0.0 
0.0 0.0 0.0 
-1.043705511584e-04 -8.063301759859e-04 0.0 
-8.063301759859e-04 4.074559898250e-03 0.0 
0.0 0.0 0.0 
3.050988874944e-03 2.702690611953e-03 0.0 
2.702690611953e-03 4.367082941925e-03 0.0 
0.0 0.0 0.0 
4.329338640358e-04 -3.041619835337e-05 0.0 
-3.041619835337e-05 7.427813059358e-04 0.0 
0.0 0.0 0.0 
-2.072580021839e-03 3.432775410154e-03 0.0 
3.432775410154e-03 1.068517165361e-02 0.0 
0.0 0.0 0.0 
-1.647955293304e-04 -6.671456017097e-04 0.0 
-6.671456017097e-04 4.362658550106e-03 0.0 
0.0 0.0 0.0 
7.312039567295e-03 -5.876389690281e-04 0.0 
-5.876389690281e-04 -5.274723046541e-03 0.0 
0.0 0.0 0.0 
2.666636921012e-03 -4.833460334932e-04 0.0 
-4.833460334932e-04 1.253437970437e-03 0.0 
0.0 0.0 0.0 
7.894082615420e-04 2.615154755757e-03 0.0 
2.615154755757e-03 8.560095669086e-03 0.0 
0.0 0.0 0.0 
-2.154674026491e-04 -5.343857276458e-04 0.0 
-5.343857276458e-04 4.629024545113e-03 0.0 
0.0 0.0 0.0 
6.872235231562e-03 -2.564311920498e-04 0.0 
-2.564311920498e-04 -4.106902259882e-03 0.0 
0.0 0.0 0.0 
-2.563977797339e-04 -4.094691489712e-04 0.0 
-4.094691489712e-04 4.875784207834e-03 0.0 
0.0 0.0 0.0 
-1.731664406974e-03 3.423228943835e-03 0.0 
3.423228943835e-03 9.861787682334e-03 0.0 
0.0 0.0 0.0 
-1.682441830095e-03 3.208519558298e-03 0.0 
3.208519558298e-03 1.353912231096e-02 0.0 
0.0 0.0 0.0 
-2.880453861155e-04 -2.917010880991e-04 0.0 
-2.917010880991e-04 5.106882131607e-03 0.0 
0.0 0.0 0.0 
-7.281315062370e-05 3.866064001765e-03 0.0 
3.866064001765e-03 9.276182976417e-03 0.0 
0.0 0.0 0.0 
3.126022128049e-04 -9.049051835918e-05 0.0 
-9.049051835918e-05 8.398920767987e-04 0.0 
0.0 0.0 0.0 
2.674694505475e-03 3.568740374304e-03 0.0 
3.568740374304e-03 5.188133104920e-03 0.0 
0.0 0.0 0.0 
-1.628738707315e-04 -9.530078272564e-05 0.0 
-9.530078272564e-05 6.425188977508e-03 0.0 
0.0 0.0 0.0 
2.897712545175e-05 -1.637685762142e-03 0.0 
-1.637685762142e-03 1.952803522895e-03 0.0 
0.0 0.0 0.0 
2.002206413980e-03 -6.437716642004e-04 0.0 
-6.437716642004e-04 1.923856312516e-03 0.0 
0.0 0.0 0.0 
-1.395127380526e-03 3.331980546171e-03 0.0 
3.331980546171e-03 1.365873187149e-02 0.0 
0.0 0.0 0.0 
-1.620613517657e-03 3.159372933743e-03 0.0 
3.159372933743e-03 8.385348937494e-03 0.0 
0.0 0.0 0.0 
1.956719646774e-03 -3.707929679346e-04 0.0 
-3.707929679346e-04 2.542851226228e-03 0.0 
0.0 0.0 0.0 
2.180414404262e-04 3.922944772305e-03 0.0 
3.922944772305e-03 9.526153471676e-03 0.0 
0.0 0.0 0.0 
2.927403098144e-03 3.302053664959e-03 0.0 
3.302053664959e-03 5.002324912160e-03 0.0 
0.0 0.0 0.0 
4.610376701974e-03 3.043550200288e-03 0.0 
3.043550200288e-03 1.706582414571e-03 0.0 
0.0 0.0 0.0 
1.834170816008e-03 -1.111002627674e-04 0.0 
-1.111002627674e-04 3.235430615120e-03 0.0 
0.0 0.0 0.0 
-1.548681644159e-03 3.247178117593e-03 0.0 
3.247178117593e-03 7.498414165041e-03 0.0 
0.0 0.0 0.0 
-4.927806557397e-04 -1.166932083925e-03 0.0 
-1.166932083925e-03 2.033320346435e-03 0.0 
0.0 0.0 0.0 
-5.271560942541e-04 -1.008142739442e-03 0.0 
-1.008142739442e-03 1.781580035527e-03 0.0 
0.0 0.0 0.0 
5.321053232896e-03 -7.422451841360e-04 0.0 
-7.422451841360e-04 -2.548145203431e-03 0.0 
0.0 0.0 0.0 
-2.383420021990e-05 3.953814947504e-03 0.0 
3.953814947504e-03 1.034324042702e-02 0.0 
0.0 0.0 0.0 
2.400093577709e-04 -4.465374787200e-05 0.0 
-4.465374787200e-05 1.182039508168e-03 0.0 
0.0 0.0 0.0 
-1.042180474072e-03 3.610916099034e-03 0.0 
3.610916099034e-03 1.249003183464e-02 0.0 
0.0 0.0 0.0 
-4.998113409146e-04 -8.977140097837e-04 0.0 
-8.977140097837e-04 1.278750622435e-03 0.0 
0.0 0.0 0.0 
4.126658626818e-03 -1.432412565586e-03 0.0 
-1.432412565586e-03 -1.980238493181e-03 0.0 
0.0 0.0 0.0 
1.887205440984e-03 2.792566116759e-03 0.0 
2.792566116759e-03 6.588807143186e-03 0.0 
0.0 0.0 0.0 
-1.458771209445e-03 3.257726642668e-05 0.0 
3.257726642668e-05 1.595466778229e-02 0.0 
0.0 0.0 0.0 
2.690808374063e-03 -1.451205795662e-03 0.0 
-1.451205795662e-03 -5.616810625689e-04 0.0 
0.0 0.0 0.0 
-1.761693452241e-04 -4.803510777055e-05 0.0 
-4.803510777055e-05 2.247833829398e-03 0.0 
0.0 0.0 0.0 
1.639143992254e-03 -1.767284108876e-03 0.0 
-1.767284108876e-03 -7.464011016450e-05 0.0 
0.0 0.0 0.0 
3.934957188789e-03 2.868455303152e-03 0.0 
2.868455303152e-03 2.945635772565e-03 0.0 
0.0 0.0 0.0 
1.040520584713e-03 -1.734023432856e-03 0.0 
-1.734023432856e-03 7.471201811688e-04 0.0 
0.0 0.0 0.0 
5.920146727959e-04 -1.861070182113e-03 0.0 
-1.861070182113e-03 1.077219957521e-03 0.0 
0.0 0.0 0.0 
-6.760154846492e-04 8.420398104504e-04 0.0 
8.420398104504e-04 1.724293530238e-02 0.0 
0.0 0.0 0.0 
3.584616846366e-04 -1.699008989968e-03 0.0 
-1.699008989968e-03 1.701284720762e-03 0.0 
0.0 0.0 0.0 
-2.842272865236e-04 2.429473888996e-04 0.0 
2.429473888996e-04 1.748151698416e-02 0.0 
0.0 0.0 0.0 
-5.835314265070e-05 -6.513381952033e-05 0.0 
-6.513381952033e-05 7.251478891509e-03 0.0 
0.0 0.0 0.0 
-1.592623381801e-03 6.071264461249e-06 0.0 
6.071264461249e-06 1.520358969002e-02 0.0 
0.0 0.0 0.0 
-1.584846050705e-03 3.093241239399e-03 0.0 
3.093241239399e-03 7.093705928754e-03 0.0 
0.0 0.0 0.0 
-3.041577537114e-04 3.139159232360e-04 0.0 
3.139159232360e-04 -4.659593789222e-03 0.0 
0.0 0.0 0.0 
-1.431586715883e-03 3.212640826113e-03 0.0 
3.212640826113e-03 5.793744401840e-03 0.0 
0.0 0.0 0.0 
-1.362130242067e-04 -1.716018832410e-03 0.0 
-1.716018832410e-03 1.709839878591e-03 0.0 
0.0 0.0 0.0 
-6.633546869895e-04 3.795416691437e-03 0.0 
3.795416691437e-03 1.129256944461e-02 0.0 
0.0 0.0 0.0 
-1.597006217977e-03 3.209085556467e-05 0.0 
3.209085556467e-05 1.522432047143e-02 0.0 
0.0 0.0 0.0 
-3.764329986429e-04 -1.476023799247e-03 0.0 
-1.476023799247e-03 1.930972362710e-03 0.0 
0.0 0.0 0.0 
-2.599708444774e-04 4.062418113870e-03 0.0 
4.062418113870e-03 1.293401552164e-02 0.0 
0.0 0.0 0.0 
2.699331442244e-04 3.359209732280e-03 0.0 
3.359209732280e-03 1.030212398557e-02 0.0 
0.0 0.0 0.0 
-1.287917782678e-03 1.356302034012e-04 0.0 
1.356302034012e-04 1.645158190683e-02 0.0 
0.0 0.0 0.0 
1.469593979585e-03 1.676620755750e-03 0.0 
1.676620755750e-03 6.338329211943e-03 0.0 
0.0 0.0 0.0 
2.633129202827e-03 2.932928558047e-03 0.0 
2.932928558047e-03 5.319893603276e-03 0.0 
0.0 0.0 0.0 
-7.924200761472e-04 1.126102412933e-04 0.0 
1.126102412933e-04 1.710300915607e-02 0.0 
0.0 0.0 0.0 
-1.691826010996e-03 2.147722692656e-05 0.0 
2.147722692656e-05 1.488899835145e-02 0.0 
0.0 0.0 0.0 
4.729543489964e-04 -2.447718291953e-04 0.0 
-2.447718291953e-04 3.308910823082e-04 0.0 
0.0 0.0 0.0 
-3.076483048981e-04 -8.105723633272e-05 0.0 
-8.105723633272e-05 5.538258395723e-03 0.0 
0.0 0.0 0.0 
-1.585654745887e-03 3.099631736968e-03 0.0 
3.099631736968e-03 5.619786689274e-03 0.0 
0.0 0.0 0.0 
-1.191402993010e-03 4.289630857456e-03 0.0 
4.289630857456e-03 4.054429472025e-03 0.0 
0.0 0.0 0.0 
-6.369056472309e-04 5.847831471611e-03 0.0 
5.847831471611e-03 2.000096500081e-03 0.0 
0.0 0.0 0.0 
-3.663056200331e-04 -2.275946605732e-04 0.0 
-2.275946605732e-04 2.807885661350e-03 0.0 
0.0 0.0 0.0 
-4.602423257117e-04 -1.995575320586e-03 0.0 
-1.995575320586e-03 1.499199273633e-04 0.0 
0.0 0.0 0.0 
-1.570306882138e-03 4.328118973361e-03 0.0 
4.328118973361e-03 4.222744680937e-03 0.0 
0.0 0.0 0.0 
7.842508347909e-04 2.028038428151e-03 0.0 
2.028038428151e-03 7.785591856474e-03 0.0 
0.0 0.0 0.0 
-2.011408074880e-03 2.358664644510e-04 0.0 
2.358664644510e-04 1.535793968665e-02 0.0 
0.0 0.0 0.0 
1.540523882176e-03 2.940351384583e-03 0.0 
2.940351384583e-03 7.408481997552e-03 0.0 
0.0 0.0 0.0 
-1.461389759185e-03 6.078735173731e-03 0.0 
6.078735173731e-03 2.719236030688e-03 0.0 
0.0 0.0 0.0 
-9.025455048590e-04 2.269532083274e-03 0.0 
2.269532083274e-03 1.658018566312e-02 0.0 
0.0 0.0 0.0 
6.281471187920e-04 2.943641910870e-03 0.0 
2.943641910870e-03 9.243078729295e-03 0.0 
0.0 0.0 0.0 
1.824513046813e-04 5.514804029961e-05 0.0 
5.514804029961e-05 6.855110850043e-03 0.0 
0.0 0.0 0.0 
1.046147860303e-03 2.875475261042e-03 0.0 
2.875475261042e-03 8.385969528371e-03 0.0 
0.0 0.0 0.0 
6.200582516575e-04 8.626325309357e-03 0.0 
8.626325309357e-03 -6.655895506649e-04 0.0 
0.0 0.0 0.0 
-2.642534562492e-03 1.222919649611e-03 0.0 
1.222919649611e-03 1.557556023933e-02 0.0 
0.0 0.0 0.0 
5.478437549589e-04 3.883590081171e-03 0.0 
3.883590081171e-03 1.078578714094e-02 0.0 
0.0 0.0 0.0 
-1.195015216580e-03 2.456465596767e-04 0.0 
2.456465596767e-04 1.669629024933e-02 0.0 
0.0 0.0 0.0 
8.293544232951e-05 -6.434567409179e-05 0.0 
-6.434567409179e-05 7.015095926876e-03 0.0 
0.0 0.0 0.0 
-2.290186826413e-03 4.328926471698e-04 0.0 
4.328926471698e-04 1.537426658101e-02 0.0 
0.0 0.0 0.0 
-5.580419342034e-04 5.448350870212e-04 0.0 
5.448350870212e-04 1.730750741689e-02 0.0 
0.0 0.0 0.0 
5.100571793014e-03 -4.035409418459e-03 0.0 
-4.035409418459e-03 -6.324829010665e-03 0.0 
0.0 0.0 0.0 
-5.164796167270e-04 2.789298658278e-04 0.0 
2.789298658278e-04 1.732694426963e-02 0.0 
0.0 0.0 0.0 
-4.458740583027e-04 3.896339540825e-03 0.0 
3.896339540825e-03 1.151943032876e-02 0.0 
0.0 0.0 0.0 
-1.622545532204e-03 1.453878246362e-04 0.0 
1.453878246362e-04 1.573078538844e-02 0.0 
0.0 0.0 0.0 
-2.753248971216e-03 2.008948320238e-03 0.0 
2.008948320238e-03 1.496608517668e-02 0.0 
0.0 0.0 0.0 
-7.017001613493e-05 -9.867726730703e-05 0.0 
-9.867726730703e-05 6.963760638882e-03 0.0 
0.0 0.0 0.0 
-5.520998685321e-04 3.767855464486e-03 0.0 
3.767855464486e-03 1.412392621408e-02 0.0 
0.0 0.0 0.0 
1.942880910197e-03 9.452644573972e-03 0.0 
9.452644573972e-03 -3.019515021653e-03 0.0 
0.0 0.0 0.0 
-1.336314776337e-03 2.074785643190e-04 0.0 
2.074785643190e-04 1.644432903934e-02 0.0 
0.0 0.0 0.0 
-4.574212081027e-04 -4.144058425308e-04 0.0 
-4.144058425308e-04 3.417583341916e-03 0.0 
0.0 0.0 0.0 
2.788009020096e-03 -3.140270303264e-03 0.0 
-3.140270303264e-03 -5.783018087593e-03 0.0 
0.0 0.0 0.0 
5.394519170941e-04 2.114730189257e-04 0.0 
2.114730189257e-04 6.214605864205e-03 0.0 
0.0 0.0 0.0 
-2.491722643354e-04 3.990975912121e-03 0.0 
3.990975912121e-03 1.175471530043e-02 0.0 
0.0 0.0 0.0 
-1.601022247255e-05 -1.358525413485e-04 0.0 
-1.358525413485e-04 6.839350635469e-03 0.0 
0.0 0.0 0.0 
4.681355839592e-04 7.968831084408e-06 0.0 
7.968831084408e-06 7.222727091547e-04 0.0 
0.0 0.0 0.0 
6.067251623213e-04 -6.879223232510e-05 0.0 
-6.879223232510e-05 2.538484769002e-04 0.0 
0.0 0.0 0.0 
6.885058480018e-04 6.275958802556e-04 0.0 
6.275958802556e-04 6.330404281035e-03 0.0 
0.0 0.0 0.0 
1.223735096880e-04 4.155251507321e-03 0.0 
4.155251507321e-03 1.184986108668e-02 0.0 
0.0 0.0 0.0 
3.819430454015e-03 -4.453407307720e-03 0.0 
-4.453407307720e-03 -4.391664742656e-03 0.0 
0.0 0.0 0.0 
-3.835012327098e-04 1.973762219627e-03 0.0 
1.973762219627e-03 1.698751450945e-02 0.0 
0.0 0.0 0.0 
2.478695245639e-03 8.159743001496e-03 0.0 
8.159743001496e-03 -5.061227924114e-03 0.0 
0.0 0.0 0.0 
-1.759258476160e-03 4.367441466419e-05 0.0 
4.367441466419e-05 1.486829568202e-02 0.0 
0.0 0.0 0.0 
6.449426513143e-04 -3.702351841006e-05 0.0 
-3.702351841006e-05 2.670961547430e-04 0.0 
0.0 0.0 0.0 
3.522039422177e-05 -1.306621467663e-04 0.0 
-1.306621467663e-04 7.111939925178e-03 0.0 
0.0 0.0 0.0 
-7.328419483766e-04 1.413696841767e-03 0.0 
1.413696841767e-03 1.712285362150e-02 0.0 
0.0 0.0 0.0 
-4.705347439638e-04 -2.745269010585e-04 0.0 
-2.745269010585e-04 3.782715461635e-03 0.0 
0.0 0.0 0.0 
-3.104201263173e-03 1.416360335423e-03 0.0 
1.416360335423e-03 1.496237893933e-02 0.0 
0.0 0.0 0.0 
-2.765492947031e-04 -1.227016968454e-04 0.0 
-1.227016968454e-04 2.546893445375e-03 0.0 
0.0 0.0 0.0 
8.417647107078e-04 3.402232683001e-03 0.0 
3.402232683001e-03 9.460900706163e-03 0.0 
0.0 0.0 0.0 
-1.856262528083e-04 -6.998189123224e-04 0.0 
-6.998189123224e-04 7.545898081399e-04 0.0 
0.0 0.0 0.0 
-6.232165575759e-04 1.020916765768e-03 0.0 
1.020916765768e-03 1.725274215391e-02 0.0 
0.0 0.0 0.0 
7.291828416136e-04 1.143035609936e-03 0.0 
1.143035609936e-03 6.736909623748e-03 0.0 
0.0 0.0 0.0 
-7.689982826327e-04 3.066977997116e-03 0.0 
3.066977997116e-03 1.572270299925e-02 0.0 
0.0 0.0 0.0 
2.745912138301e-04 2.646942030700e-03 0.0 
2.646942030700e-03 9.170864860592e-03 0.0 
0.0 0.0 0.0 
1.323429007641e-03 1.373972234963e-03 0.0 
1.373972234963e-03 -5.375282466075e-03 0.0 
0.0 0.0 0.0 
5.073875916153e-04 3.143907598815e-03 0.0 
3.143907598815e-03 9.713731194258e-03 0.0 
0.0 0.0 0.0 
1.117526657843e-03 1.349453751548e-03 0.0 
1.349453751548e-03 6.510819388090e-03 0.0 
0.0 0.0 0.0 
-1.658570015816e-03 2.840196475172e-05 0.0 
2.840196475172e-05 1.487584745485e-02 0.0 
0.0 0.0 0.0 
-6.742950231411e-04 3.475153481249e-03 0.0 
3.475153481249e-03 1.488617601263e-02 0.0 
0.0 0.0 0.0 
-4.207505050387e-04 -2.432406641475e-04 0.0 
-2.432406641475e-04 3.125190588450e-03 0.0 
0.0 0.0 0.0 
1.617349446514e-04 -1.248098103223e-04 0.0 
-1.248098103223e-04 1.182390137674e-03 0.0 
0.0 0.0 0.0 
-2.310102117682e-04 1.184288088887e-04 0.0 
1.184288088887e-04 1.751084082271e-02 0.0 
0.0 0.0 0.0 
9.506127575608e-04 5.045868227304e-06 0.0 
5.045868227304e-06 -2.150597641667e-04 0.0 
0.0 0.0 0.0 
-1.629687622228e-03 -4.738165998525e-06 0.0 
-4.738165998525e-06 1.484308127283e-02 0.0 
0.0 0.0 0.0 
-5.144066299911e-05 -2.395295137614e-05 0.0 
-2.395295137614e-05 7.352540559769e-03 0.0 
0.0 0.0 0.0 
2.732564813297e-04 -5.569013283848e-05 0.0 
-5.569013283848e-05 1.080689123425e-03 0.0 
0.0 0.0 0.0 
-1.563545618277e-03 3.492826217394e-05 0.0 
3.492826217394e-05 1.549648605151e-02 0.0 
0.0 0.0 0.0 
-7.700044100117e-05 4.150516722034e-03 0.0 
4.150516722034e-03 1.242325910272e-02 0.0 
0.0 0.0 0.0 
-4.441094635931e-04 -7.508054115412e-05 0.0 
-7.508054115412e-05 4.565060147504e-03 0.0 
0.0 0.0 0.0 
-9.333988615781e-04 1.819594064232e-04 0.0 
1.819594064232e-04 1.696118005885e-02 0.0 
0.0 0.0 0.0 
-1.467890472376e-04 -2.729390425274e-03 0.0 
-2.729390425274e-03 -5.568259609618e-04 0.0 
0.0 0.0 0.0 
-3.843755250537e-04 -7.984710168537e-04 0.0 
-7.984710168537e-04 -4.516550874321e-03 0.0 
0.0 0.0 0.0 
-1.411442187505e-03 8.279910797870e-05 0.0 
8.279910797870e-05 1.614617365341e-02 0.0 
0.0 0.0 0.0 
5.886709708976e-04 2.809811131733e-03 0.0 
2.809811131733e-03 9.073662869508e-03 0.0 
0.0 0.0 0.0 
-7.964104821710e-04 2.552660643882e-03 0.0 
2.552660643882e-03 1.638298180979e-02 0.0 
0.0 0.0 0.0 
-1.558212949374e-03 1.573372782808e-04 0.0 
1.573372782808e-04 1.592556395408e-02 0.0 
0.0 0.0 0.0 
3.422259939096e-03 6.877608134070e-03 0.0 
6.877608134070e-03 -4.992300775417e-03 0.0 
0.0 0.0 0.0 
-1.029287610872e-04 4.114193578740e-03 0.0 
4.114193578740e-03 1.194387979422e-02 0.0 
0.0 0.0 0.0 
-4.574279360613e-04 -2.908170294958e-04 0.0 
-2.908170294958e-04 4.034417324058e-03 0.0 
0.0 0.0 0.0 
8.164103472605e-04 3.829894760745e-03 0.0 
3.829894760745e-03 1.008473005507e-02 0.0 
0.0 0.0 0.0 
1.079343169293e-03 1.786147576820e-03 0.0 
1.786147576820e-03 7.125826823375e-03 0.0 
0.0 0.0 0.0 
6.071699583116e-04 9.234744147370e-03 0.0 
9.234744147370e-03 -3.046608591105e-03 0.0 
0.0 0.0 0.0 
-4.118073227781e-04 -6.084329461297e-05 0.0 
-6.084329461297e-05 4.861629416080e-03 0.0 
0.0 0.0 0.0 
6.878239187675e-04 -4.079219165353e-05 0.0 
-4.079219165353e-05 2.105140672958e-04 0.0 
0.0 0.0 0.0 
2.433698579995e-04 -5.132630557039e-05 0.0 
-5.132630557039e-05 6.550842886377e-03 0.0 
0.0 0.0 0.0 
-4.605606373143e-04 -2.030801027883e-04 0.0 
-2.030801027883e-04 4.208821039321e-03 0.0 
0.0 0.0 0.0 

TENSORS node_materi_strain_plasti float
7.638705933446e-04 2.210868482814e-05 0.0 
2.210868482814e-05 -1.247748679894e-04 0.0 
0.0 0.0 -1.852976238572e-04 
-8.283098410006e-04 -7.056682692550e-05 0.0 
-7.056682692550e-05 4.810075585410e-03 0.0 
0.0 0.0 -7.207122401682e-04 
-1.346400199288e-03 7.365993999463e-05 0.0 
7.365993999463e-05 8.674335535019e-03 0.0 
0.0 0.0 -1.332621093165e-03 
-1.336402199564e-03 -8.793125074240e-05 0.0 
-8.793125074240e-05 8.913629531779e-03 0.0 
0.0 0.0 -1.332621093165e-03 
2.694450778133e-04 3.530302501849e-05 0.0 
3.530302501849e-05 2.195286605256e-04 0.0 
0.0 0.0 -1.599596894703e-04 
-9.495668909469e-05 1.176622379905e-04 0.0 
1.176622379905e-04 8.146285890130e-04 0.0 
0.0 0.0 -1.619080202416e-04 
-2.343145573296e-04 8.942200005953e-05 0.0 
8.942200005953e-05 1.222252270070e-03 0.0 
0.0 0.0 -2.266090766362e-04 
-3.672954214302e-04 7.638439199011e-05 0.0 
7.638439199011e-05 1.767422352355e-03 0.0 
0.0 0.0 -2.937643997455e-04 
-5.002542736311e-04 4.683642936848e-05 0.0 
4.683642936848e-05 2.251732040701e-03 0.0 
0.0 0.0 -3.610469555860e-04 
-5.984940266315e-04 4.060795555227e-05 0.0 
4.060795555227e-05 2.708456263927e-03 0.0 
0.0 0.0 -4.277228197774e-04 
-6.941224007828e-04 4.519221696703e-05 0.0 
4.519221696703e-05 3.166683324582e-03 0.0 
0.0 0.0 -4.940119848999e-04 
-7.849981096782e-04 3.520077417946e-05 0.0 
3.520077417946e-05 3.622095280725e-03 0.0 
0.0 0.0 -5.601824523721e-04 
-8.634318271181e-04 3.405437137357e-05 0.0 
3.405437137357e-05 4.067071864957e-03 0.0 
0.0 0.0 -6.267196139102e-04 
-9.449136089268e-04 5.218773157199e-05 0.0 
5.218773157199e-05 4.520788341368e-03 0.0 
0.0 0.0 -6.936951881209e-04 
-1.027632022584e-03 9.700470508409e-05 0.0 
9.700470508409e-05 5.010143413423e-03 0.0 
0.0 0.0 -7.607197531558e-04 
-1.071044468659e-03 1.108294767969e-04 0.0 
1.108294767969e-04 5.450697122990e-03 0.0 
0.0 0.0 -8.270758575053e-04 
-1.105211944346e-03 1.479813750871e-04 0.0 
1.479813750871e-04 5.811869455564e-03 0.0 
0.0 0.0 -8.903361771249e-04 
-1.161317049125e-03 4.285670301682e-05 0.0 
4.285670301682e-05 6.275431738875e-03 0.0 
0.0 0.0 -9.558084330571e-04 
-1.207984253662e-03 4.172859767407e-05 0.0 
4.172859767407e-05 6.727772586467e-03 0.0 
0.0 0.0 -1.024523475697e-03 
-1.248615658251e-03 4.538254462405e-05 0.0 
4.538254462405e-05 7.165565903975e-03 0.0 
0.0 0.0 -1.091244731156e-03 
-1.288520992697e-03 4.179778286610e-05 0.0 
4.179778286610e-05 7.610376257827e-03 0.0 
0.0 0.0 -1.158330123333e-03 
-1.323945144233e-03 5.638174444750e-05 0.0 
5.638174444750e-05 8.056170868355e-03 0.0 
0.0 0.0 -1.226073836101e-03 
-1.340882067222e-03 7.816548302147e-05 0.0 
7.816548302147e-05 8.489692749980e-03 0.0 
0.0 0.0 -1.289832767750e-03 
-1.333912568024e-03 1.756046241659e-05 0.0 
1.756046241659e-05 8.926507635803e-03 0.0 
0.0 0.0 -1.336902025401e-03 
-1.341531841891e-03 4.063150434003e-05 0.0 
4.063150434003e-05 8.912362216672e-03 0.0 
0.0 0.0 -1.332945767435e-03 
-1.342187123766e-03 7.210449397346e-07 0.0 
7.210449397346e-07 8.901177082135e-03 0.0 
0.0 0.0 -1.334903170087e-03 
-1.344938961940e-03 1.164426212685e-04 0.0 
1.164426212685e-04 8.903433830404e-03 0.0 
0.0 0.0 -1.334459899807e-03 
-1.344212628933e-03 9.914567390185e-05 0.0 
9.914567390185e-05 8.888325984844e-03 0.0 
0.0 0.0 -1.332067731643e-03 
-1.341871993109e-03 1.326692721992e-04 0.0 
1.326692721992e-04 8.883986467254e-03 0.0 
0.0 0.0 -1.335050935171e-03 
-1.332922157688e-03 1.596974021170e-04 0.0 
1.596974021170e-04 8.887152863323e-03 0.0 
0.0 0.0 -1.335055123498e-03 
-1.344556942280e-03 1.739185913509e-04 0.0 
1.739185913509e-04 8.882073809328e-03 0.0 
0.0 0.0 -1.333530254363e-03 
-1.342253888820e-03 1.667068933720e-04 0.0 
1.667068933720e-04 8.882815983630e-03 0.0 
0.0 0.0 -1.336259905589e-03 
-1.344452318304e-03 2.643241252995e-04 0.0 
2.643241252995e-04 8.877541720491e-03 0.0 
0.0 0.0 -1.335712483792e-03 
-1.344739962132e-03 2.572691983564e-04 0.0 
2.572691983564e-04 8.855364652133e-03 0.0 
0.0 0.0 -1.333313947604e-03 
-1.345949101879e-03 2.896022605016e-04 0.0 
2.896022605016e-04 8.845196808155e-03 0.0 
0.0 0.0 -1.335862559377e-03 
-1.335909137164e-03 3.249556087329e-04 0.0 
3.249556087329e-04 8.847942912603e-03 0.0 
0.0 0.0 -1.336097458551e-03 
-1.346297016590e-03 3.518589132456e-04 0.0 
3.518589132456e-04 8.821759431274e-03 0.0 
0.0 0.0 -1.335235043394e-03 
-1.338076461259e-03 3.735365560477e-04 0.0 
3.735365560477e-04 8.793020733369e-03 0.0 
0.0 0.0 -1.334297546486e-03 
-1.346016481544e-03 4.214840137431e-04 0.0 
4.214840137431e-04 8.754866417549e-03 0.0 
0.0 0.0 -1.332308435384e-03 
-1.347150914510e-03 4.365635291823e-04 0.0 
4.365635291823e-04 8.724212055446e-03 0.0 
0.0 0.0 -1.332019584455e-03 
-1.334805935481e-03 4.680081517092e-04 0.0 
4.680081517092e-04 8.718730927757e-03 0.0 
0.0 0.0 -1.333392124151e-03 
-1.340647727227e-03 4.849743108024e-04 0.0 
4.849743108024e-04 8.700750373122e-03 0.0 
0.0 0.0 -1.334727449481e-03 
-1.338127531242e-03 5.065761097767e-04 0.0 
5.065761097767e-04 8.666306825207e-03 0.0 
0.0 0.0 -1.336576889699e-03 
-1.318601166953e-03 5.602994623833e-04 0.0 
5.602994623833e-04 8.617151634044e-03 0.0 
0.0 0.0 -1.335888391555e-03 
-1.322784692521e-03 5.363013885344e-04 0.0 
5.363013885344e-04 8.594277367932e-03 0.0 
0.0 0.0 -1.334783226448e-03 
-1.333664649469e-03 5.288889005307e-04 0.0 
5.288889005307e-04 8.561550836847e-03 0.0 
0.0 0.0 -1.335053869153e-03 
-1.331458992258e-03 5.134063938371e-04 0.0 
5.134063938371e-04 8.519772984337e-03 0.0 
0.0 0.0 -1.334960189349e-03 
-1.329775199773e-03 4.941096024064e-04 0.0 
4.941096024064e-04 8.496416219376e-03 0.0 
0.0 0.0 -1.334889991128e-03 
-1.320977987653e-03 4.615461390730e-04 0.0 
4.615461390730e-04 8.462524191980e-03 0.0 
0.0 0.0 -1.335774086633e-03 
-1.330023044346e-03 4.207866190154e-04 0.0 
4.207866190154e-04 8.427010713301e-03 0.0 
0.0 0.0 -1.336605656894e-03 
-1.315269658186e-03 3.720833040210e-04 0.0 
3.720833040210e-04 8.401189310414e-03 0.0 
0.0 0.0 -1.336508443943e-03 
-1.322412415585e-03 3.115810119469e-04 0.0 
3.115810119469e-04 8.379908734224e-03 0.0 
0.0 0.0 -1.335343284290e-03 
-1.320222320207e-03 2.175575066663e-04 0.0 
2.175575066663e-04 8.369874127435e-03 0.0 
0.0 0.0 -1.337998490269e-03 
-1.323625080933e-03 2.169102620600e-04 0.0 
2.169102620600e-04 8.349200848827e-03 0.0 
0.0 0.0 -1.337247094005e-03 
-1.312935671626e-03 1.217875082846e-04 0.0 
1.217875082846e-04 8.314561017664e-03 0.0 
0.0 0.0 -1.333783489999e-03 
-1.312397425891e-03 3.014725865093e-05 0.0 
3.014725865093e-05 8.298029012834e-03 0.0 
0.0 0.0 -1.334548731617e-03 
-1.314310776006e-03 -5.112989789944e-05 0.0 
-5.112989789944e-05 8.327635469408e-03 0.0 
0.0 0.0 -1.334619746794e-03 
-1.313246555764e-03 -1.133769864441e-04 0.0 
-1.133769864441e-04 8.338916253329e-03 0.0 
0.0 0.0 -1.335242115105e-03 
-1.326565106495e-03 -1.841934828275e-04 0.0 
-1.841934828275e-04 8.356624519228e-03 0.0 
0.0 0.0 -1.335691437541e-03 
-1.316402114403e-03 -2.262767311367e-04 0.0 
-2.262767311367e-04 8.389795272091e-03 0.0 
0.0 0.0 -1.335646478247e-03 
-1.330105212687e-03 -2.663920673302e-04 0.0 
-2.663920673302e-04 8.407666559300e-03 0.0 
0.0 0.0 -1.334931242407e-03 
-1.321109516020e-03 -3.015612028738e-04 0.0 
-3.015612028738e-04 8.428571737695e-03 0.0 
0.0 0.0 -1.334100791702e-03 
-1.335356464641e-03 -3.106038152236e-04 0.0 
-3.106038152236e-04 8.460193799364e-03 0.0 
0.0 0.0 -1.332237298415e-03 
-1.339781698762e-03 -3.337514916052e-04 0.0 
-3.337514916052e-04 8.495913159923e-03 0.0 
0.0 0.0 -1.333749945600e-03 
-1.335675790289e-03 -3.025403687924e-04 0.0 
-3.025403687924e-04 8.551515458499e-03 0.0 
0.0 0.0 -1.336652505695e-03 
-1.332391445612e-03 -3.083574403233e-04 0.0 
-3.083574403233e-04 8.592419009515e-03 0.0 
0.0 0.0 -1.337094627689e-03 
-1.345644529791e-03 -2.793636126787e-04 0.0 
-2.793636126787e-04 8.558237333725e-03 0.0 
0.0 0.0 -1.328990728106e-03 
-1.337312800610e-03 -2.305068913709e-04 0.0 
-2.305068913709e-04 8.630917037025e-03 0.0 
0.0 0.0 -1.335900064369e-03 
-1.350772327614e-03 -1.956698568975e-04 0.0 
-1.956698568975e-04 8.640358950647e-03 0.0 
0.0 0.0 -1.332523500780e-03 
-1.350423109387e-03 -1.955618747409e-04 0.0 
-1.955618747409e-04 8.650889793805e-03 0.0 
0.0 0.0 -1.335219049675e-03 
-1.349098610006e-03 -8.965167155351e-05 0.0 
-8.965167155351e-05 8.690821291703e-03 0.0 
0.0 0.0 -1.336566422126e-03 
-1.352485386629e-03 -6.128652914560e-05 0.0 
-6.128652914560e-05 8.701715469751e-03 0.0 
0.0 0.0 -1.335855682064e-03 
-8.621699259071e-04 -7.748599951090e-05 0.0 
-7.748599951090e-05 5.021330477437e-03 0.0 
0.0 0.0 -7.648954205800e-04 
-9.395078499560e-04 -8.704020005170e-05 0.0 
-8.704020005170e-05 5.517844915676e-03 0.0 
0.0 0.0 -8.298981322982e-04 
-9.977708429922e-04 -8.397016683561e-05 0.0 
-8.397016683561e-05 5.976838802593e-03 0.0 
0.0 0.0 -8.959277352460e-04 
-1.055682188809e-03 -8.887694878813e-05 0.0 
-8.887694878813e-05 6.419904102828e-03 0.0 
0.0 0.0 -9.610467530554e-04 
-1.113418161777e-03 -7.710435791321e-05 0.0 
-7.710435791321e-05 6.878985961880e-03 0.0 
0.0 0.0 -1.026987810050e-03 
-1.153337564853e-03 -8.395183782127e-05 0.0 
-8.395183782127e-05 7.337021217867e-03 0.0 
0.0 0.0 -1.092790196867e-03 
-1.209003093049e-03 -7.363209801243e-05 0.0 
-7.363209801243e-05 7.788251864833e-03 0.0 
0.0 0.0 -1.158290425478e-03 
-1.258139886954e-03 -8.431152228072e-05 0.0 
-8.431152228072e-05 8.217133852926e-03 0.0 
0.0 0.0 -1.224481705251e-03 
-1.303096836171e-03 -9.331509578295e-05 0.0 
-9.331509578295e-05 8.703843568816e-03 0.0 
0.0 0.0 -1.288782062784e-03 
7.112042966206e-04 7.604401458860e-03 0.0 
7.604401458860e-03 -7.112042966206e-04 0.0 
0.0 0.0 0.0 
-1.163272512268e-03 9.357983139055e-04 0.0 
9.357983139055e-04 5.013083839423e-03 0.0 
0.0 0.0 -7.158658194789e-04 
-1.645558475760e-03 1.571117328797e-02 0.0 
1.571117328797e-02 1.892510739729e-03 0.0 
0.0 0.0 -1.058366845580e-04 
-1.028631441362e-03 9.157362468348e-03 0.0 
9.157362468348e-03 1.655878387473e-03 0.0 
0.0 0.0 -2.667570615628e-04 
-8.740056121601e-04 5.730164192481e-03 0.0 
5.730164192481e-03 1.813765899295e-03 0.0 
0.0 0.0 -2.964167626729e-04 
-7.644253059061e-04 2.694209620972e-03 0.0 
2.694209620972e-03 2.007805453680e-03 0.0 
0.0 0.0 -3.108790080757e-04 
-8.107054425831e-04 2.637144104061e-03 0.0 
2.637144104061e-03 2.490627219438e-03 0.0 
0.0 0.0 -3.778135794433e-04 
-8.704229755323e-04 2.753577232427e-03 0.0 
2.753577232427e-03 2.990070398776e-03 0.0 
0.0 0.0 -4.454545662751e-04 
-9.738423133863e-04 3.240898732422e-03 0.0 
3.240898732422e-03 3.516147778063e-03 0.0 
0.0 0.0 -5.121313000160e-04 
-1.154398608023e-03 4.026721771317e-03 0.0 
4.026721771317e-03 4.109894740794e-03 0.0 
0.0 0.0 -5.789936928845e-04 
-1.546618175258e-03 4.709009361915e-03 0.0 
4.709009361915e-03 4.923283977505e-03 0.0 
0.0 0.0 -6.458622116531e-04 
-8.210287155105e-04 3.311140659003e-05 0.0 
3.311140659003e-05 4.792792237283e-03 0.0 
0.0 0.0 -7.167504868538e-04 
-8.125228829986e-04 2.123776519894e-05 0.0 
2.123776519894e-05 4.798435661785e-03 0.0 
0.0 0.0 -7.184827375020e-04 
-8.214051199703e-04 1.479555363923e-05 0.0 
1.479555363923e-05 4.798160995292e-03 0.0 
0.0 0.0 -7.186786903937e-04 
-8.212156523002e-04 3.200707485363e-06 0.0 
3.200707485363e-06 4.781773811098e-03 0.0 
0.0 0.0 -7.169675978895e-04 
-8.202172025012e-04 2.190783998220e-05 0.0 
2.190783998220e-05 4.859701779985e-03 0.0 
0.0 0.0 -7.238546058846e-04 
-8.241919416615e-04 2.493410284251e-05 0.0 
2.493410284251e-05 4.799742756017e-03 0.0 
0.0 0.0 -7.185860072230e-04 
-8.174328804806e-04 2.424165474079e-06 0.0 
2.424165474079e-06 4.786204771505e-03 0.0 
0.0 0.0 -7.170630917064e-04 
-8.225209134988e-04 4.647236341152e-05 0.0 
4.647236341152e-05 4.804201119882e-03 0.0 
0.0 0.0 -7.174139623878e-04 
-8.414744134325e-04 3.564574366136e-05 0.0 
3.564574366136e-05 4.825572351859e-03 0.0 
0.0 0.0 -7.207851870574e-04 
-8.513162252172e-04 6.006661317369e-05 0.0 
6.006661317369e-05 4.819985702314e-03 0.0 
0.0 0.0 -7.195160023472e-04 
-8.419354118389e-04 7.288398329022e-05 0.0 
7.288398329022e-05 4.807490572120e-03 0.0 
0.0 0.0 -7.186294792877e-04 
-8.565040521561e-04 8.038428368196e-05 0.0 
8.038428368196e-05 4.796459258857e-03 0.0 
0.0 0.0 -7.186194644340e-04 
-8.527642616320e-04 1.066289168233e-04 0.0 
1.066289168233e-04 4.781649305019e-03 0.0 
0.0 0.0 -7.192946965590e-04 
-8.909385340474e-04 1.641810654748e-04 0.0 
1.641810654748e-04 4.815254322292e-03 0.0 
0.0 0.0 -7.207925953812e-04 
6.113060974113e-05 2.728663274689e-05 0.0 
2.728663274689e-05 -6.113060974112e-05 0.0 
0.0 0.0 0.0 
0.0 0.0 0.0 
0.0 0.0 0.0 
0.0 0.0 0.0 
0.0 0.0 0.0 
0.0 0.0 0.0 
0.0 0.0 0.0 
0.0 0.0 0.0 
0.0 0.0 0.0 
0.0 0.0 0.0 
3.558189554713e-04 -2.048426320605e-03 0.0 
-2.048426320605e-03 -3.400024214186e-04 0.0 
0.0 0.0 -6.778514593992e-06 
5.953755433772e-04 -2.568801037490e-03 0.0 
-2.568801037490e-03 9.759308130024e-05 0.0 
0.0 0.0 -2.892323782873e-04 
1.562045245542e-03 -1.297718207502e-04 0.0 
-1.297718207502e-04 -4.921242956633e-04 0.0 
0.0 0.0 -1.498660771757e-04 
1.957203591849e-03 7.692008675818e-05 0.0 
7.692008675818e-05 -6.423747830819e-04 0.0 
0.0 0.0 -1.249218262439e-04 
1.755551129948e-03 -1.821077999534e-06 0.0 
-1.821077999534e-06 -4.929250432123e-04 0.0 
0.0 0.0 -2.331477428715e-04 
1.858641952285e-03 -2.152434404415e-05 0.0 
-2.152434404415e-05 -5.388628045648e-04 0.0 
0.0 0.0 -2.292687350503e-04 
1.221042204149e-03 -4.514974077393e-05 0.0 
-4.514974077393e-05 -2.755895084919e-04 0.0 
0.0 0.0 -1.924515690155e-04 
1.161378068004e-03 -3.622726368838e-05 0.0 
-3.622726368838e-05 -2.308436549024e-04 0.0 
0.0 0.0 -2.300811700059e-04 
1.077388354868e-03 -5.385680801453e-06 0.0 
-5.385680801453e-06 -2.143071836936e-04 0.0 
0.0 0.0 -2.143738313441e-04 
9.564393694120e-04 -2.023869057394e-06 0.0 
-2.023869057394e-06 -1.807032373143e-04 0.0 
0.0 0.0 -2.031743855047e-04 
8.981111116479e-04 2.167292058456e-07 0.0 
2.167292058456e-07 -1.597560714335e-04 0.0 
0.0 0.0 -2.015898961841e-04 
8.650510011689e-04 1.080053579438e-05 0.0 
1.080053579438e-05 -1.340737033507e-04 0.0 
0.0 0.0 -2.073939398537e-04 
8.360713318832e-04 1.068272643980e-05 0.0 
1.068272643980e-05 -1.209865700838e-04 0.0 
0.0 0.0 -2.037130241040e-04 
8.588912165670e-04 2.390915594243e-05 0.0 
2.390915594243e-05 -1.579841697203e-04 0.0 
0.0 0.0 -1.958940806747e-04 
8.684125673409e-04 3.500977721478e-05 0.0 
3.500977721478e-05 -1.747315974538e-04 0.0 
0.0 0.0 -1.830868387916e-04 
-7.360587171909e-04 1.964397430467e-02 0.0 
1.964397430467e-02 9.758123194265e-04 0.0 
0.0 0.0 -1.027515438153e-04 
-1.302565582415e-03 1.187643675127e-02 0.0 
1.187643675127e-02 1.734600776239e-03 0.0 
0.0 0.0 -1.851579402100e-04 
-9.355758057196e-04 7.599043173931e-03 0.0 
7.599043173931e-03 1.744559931630e-03 0.0 
0.0 0.0 -3.137502536684e-04 
-7.648973084087e-04 3.269118671986e-03 0.0 
3.269118671986e-03 1.845157144904e-03 0.0 
0.0 0.0 -2.872952472806e-04 
-7.946403901386e-04 2.858289079226e-03 0.0 
2.858289079226e-03 2.288903394311e-03 0.0 
0.0 0.0 -3.440931072323e-04 
-8.341534122968e-04 2.859285701200e-03 0.0 
2.859285701200e-03 2.773337138041e-03 0.0 
0.0 0.0 -4.108392228286e-04 
-9.130983593454e-04 2.968687632227e-03 0.0 
2.968687632227e-03 3.250819820954e-03 0.0 
0.0 0.0 -4.786325096809e-04 
-1.045061341635e-03 3.613395606260e-03 0.0 
3.613395606260e-03 3.799077865221e-03 0.0 
0.0 0.0 -5.455426008747e-04 
-1.302859319212e-03 4.407104029147e-03 0.0 
4.407104029147e-03 4.472758851684e-03 0.0 
0.0 0.0 -6.123661653548e-04 
-1.811840315754e-03 4.165940112801e-03 0.0 
4.165940112801e-03 5.409671831143e-03 0.0 
0.0 0.0 -6.792803300743e-04 
-3.064812440138e-04 1.067638000994e-02 0.0 
1.067638000994e-02 9.133541601033e-04 0.0 
0.0 0.0 -2.600883926098e-04 
-1.238271811776e-03 -2.323410981101e-05 0.0 
-2.323410981101e-05 8.143368057859e-03 0.0 
0.0 0.0 -1.303388942653e-03 
1.001743942116e-03 -9.798303261513e-05 0.0 
-9.798303261513e-05 -7.447687341093e-05 0.0 
0.0 0.0 -2.612538532979e-04 
8.984976459685e-04 -2.291087348245e-03 0.0 
-2.291087348245e-03 -8.788258177304e-04 0.0 
0.0 0.0 -8.430783530601e-06 
-1.278901467981e-03 -2.582894247670e-04 0.0 
-2.582894247670e-04 8.264882866352e-03 0.0 
0.0 0.0 -1.303360877099e-03 
-6.516746453423e-04 2.604991028450e-03 0.0 
2.604991028450e-03 1.945583918142e-03 0.0 
0.0 0.0 -3.221766324775e-04 
-9.861956324832e-04 -6.715847648061e-05 0.0 
-6.715847648061e-05 4.773589466734e-03 0.0 
0.0 0.0 -7.300567563597e-04 
-1.244927303710e-03 2.945275852412e-04 0.0 
2.945275852412e-04 8.164800639293e-03 0.0 
0.0 0.0 -1.300998267065e-03 
-7.512329886793e-04 2.196886750837e-03 0.0 
2.196886750837e-03 2.877547180593e-03 0.0 
0.0 0.0 -4.497936382440e-04 
-1.277128875373e-03 4.777706098865e-04 0.0 
4.777706098865e-04 8.316029240451e-03 0.0 
0.0 0.0 -1.304014651794e-03 
-9.516033458054e-04 2.950090476498e-03 0.0 
2.950090476498e-03 3.942283467881e-03 0.0 
0.0 0.0 -5.857980290939e-04 
-1.307584739855e-03 -2.907864623538e-04 0.0 
-2.907864623538e-04 8.435582561033e-03 0.0 
0.0 0.0 -1.307658508868e-03 
4.824787155922e-04 -2.657625929448e-05 0.0 
-2.657625929448e-05 8.990992762796e-05 0.0 
0.0 0.0 -1.708315427572e-04 
-1.265241431256e-03 5.687915352630e-04 0.0 
5.687915352630e-04 8.431052250902e-03 0.0 
0.0 0.0 -1.304481600125e-03 
-1.247402957084e-03 1.511798372792e-03 0.0 
1.511798372792e-03 5.101903582950e-03 0.0 
0.0 0.0 -7.203075318094e-04 
-6.505648739721e-04 -3.624268182337e-05 0.0 
-3.624268182337e-05 2.957311441966e-03 0.0 
0.0 0.0 -4.640473930190e-04 
-1.131372666701e-03 -4.491765098181e-05 0.0 
-4.491765098181e-05 5.976165985442e-03 0.0 
0.0 0.0 -9.125512086551e-04 
-1.314763544022e-03 4.589275118802e-04 0.0 
4.589275118802e-04 8.560285468091e-03 0.0 
0.0 0.0 -1.301280071178e-03 
-1.328200349095e-03 3.774182231254e-04 0.0 
3.774182231254e-04 8.674652987533e-03 0.0 
0.0 0.0 -1.304294760550e-03 
-1.328231009146e-03 1.002317222840e-04 0.0 
1.002317222840e-04 8.762903021805e-03 0.0 
0.0 0.0 -1.303238611779e-03 
-1.321361255880e-03 2.020746578681e-04 0.0 
2.020746578681e-04 8.706453928135e-03 0.0 
0.0 0.0 -1.297727402575e-03 
-1.333675382953e-03 2.525190978684e-04 0.0 
2.525190978684e-04 8.729905622316e-03 0.0 
0.0 0.0 -1.305306183856e-03 
-9.071063739905e-04 1.494046924749e-04 0.0 
1.494046924749e-04 4.967073413189e-03 0.0 
0.0 0.0 -7.522011426764e-04 
-8.750579348879e-04 6.356350708577e-05 0.0 
6.356350708577e-05 4.972444393085e-03 0.0 
0.0 0.0 -7.529849494387e-04 
-8.651922808025e-04 1.321213173771e-05 0.0 
1.321213173771e-05 5.002490543075e-03 0.0 
0.0 0.0 -7.580270452736e-04 
-1.081282276580e-03 -2.537529428612e-05 0.0 
-2.537529428612e-05 6.643650052825e-03 0.0 
0.0 0.0 -9.950081682429e-04 
-1.332561184719e-03 -2.295807888403e-04 0.0 
-2.295807888403e-04 8.502002206283e-03 0.0 
0.0 0.0 -1.302874185639e-03 
3.176179844100e-04 3.883162857866e-04 0.0 
3.883162857866e-04 -3.176179844100e-04 0.0 
0.0 0.0 0.0 
4.261443381022e-04 3.298029432599e-06 0.0 
3.298029432599e-06 1.413022881150e-04 0.0 
0.0 0.0 -1.655452794134e-04 
-1.266615157062e-03 -4.708891648946e-05 0.0 
-4.708891648946e-05 7.362986267811e-03 0.0 
0.0 0.0 -1.122886395833e-03 
-8.590690058330e-04 2.817818056919e-05 0.0 
2.817818056919e-05 4.956725197885e-03 0.0 
0.0 0.0 -7.500338828344e-04 
-3.077541790528e-04 -1.952701143312e-05 0.0 
-1.952701143312e-05 1.504768126338e-03 0.0 
0.0 0.0 -2.594501920933e-04 
-1.324226706230e-03 4.167698339106e-04 0.0 
4.167698339106e-04 8.547363588762e-03 0.0 
0.0 0.0 -1.293200138473e-03 
-1.268789998251e-03 4.116378875631e-04 0.0 
4.116378875631e-04 8.267843264786e-03 0.0 
0.0 0.0 -1.307307853467e-03 
-1.272691510347e-03 5.416216030490e-04 0.0 
5.416216030490e-04 8.365455307225e-03 0.0 
0.0 0.0 -1.304733450272e-03 
-1.233362636415e-03 1.634458979136e-04 0.0 
1.634458979136e-04 8.121763907804e-03 0.0 
0.0 0.0 -1.297928233296e-03 
-1.261877986510e-03 -1.597052773119e-04 0.0 
-1.597052773119e-04 8.188934025231e-03 0.0 
0.0 0.0 -1.305578568836e-03 
3.396766963220e-04 -1.518392107964e-03 0.0 
-1.518392107964e-03 1.570598499409e-04 0.0 
0.0 0.0 -2.090100036826e-04 
-8.795053511419e-04 9.559274535899e-05 0.0 
9.559274535899e-05 4.954160552764e-03 0.0 
0.0 0.0 -7.500980793755e-04 
-1.291571793349e-03 -3.018456542619e-04 0.0 
-3.018456542619e-04 8.267318175430e-03 0.0 
0.0 0.0 -1.293180865222e-03 
-1.191688283040e-03 -1.679553581366e-05 0.0 
-1.679553581366e-05 7.562043590583e-03 0.0 
0.0 0.0 -1.123598490052e-03 
4.671637740635e-04 -4.969797899190e-05 0.0 
-4.969797899190e-05 1.175969389886e-04 0.0 
0.0 0.0 -1.705469911994e-04 
-8.274582342161e-04 -6.171908782243e-05 0.0 
-6.171908782243e-05 3.848512271059e-03 0.0 
0.0 0.0 -5.937437734062e-04 
-1.335764842081e-03 6.371320431880e-05 0.0 
6.371320431880e-05 8.844549453637e-03 0.0 
0.0 0.0 -1.311981303940e-03 
-6.794708150984e-04 2.091829251935e-03 0.0 
2.091829251935e-03 2.427277358414e-03 0.0 
0.0 0.0 -3.897472533596e-04 
-5.283326048697e-04 6.786857581283e-03 0.0 
6.786857581283e-03 1.485150864737e-03 0.0 
0.0 0.0 -3.268992177355e-04 
-8.219288363915e-04 2.442951569281e-03 0.0 
2.442951569281e-03 3.382269906261e-03 0.0 
0.0 0.0 -5.178568985205e-04 
-1.182322720328e-03 3.119496926962e-03 0.0 
3.119496926962e-03 4.594761334430e-03 0.0 
0.0 0.0 -6.527703211191e-04 
2.266507196706e-04 1.745376459083e-02 0.0 
1.745376459083e-02 4.647085726155e-05 0.0 
0.0 0.0 -1.170521043995e-04 
-9.647575502476e-04 -2.771769126341e-06 0.0 
-2.771769126341e-06 5.776762544034e-03 0.0 
0.0 0.0 -8.684787984471e-04 
-1.350888138525e-03 -1.433490915200e-04 0.0 
-1.433490915200e-04 8.608994521473e-03 0.0 
0.0 0.0 -1.313906642692e-03 
4.518989410054e-04 2.920558467742e-05 0.0 
2.920558467742e-05 1.030044903638e-04 0.0 
0.0 0.0 -1.629500866830e-04 
-1.275593957644e-03 1.853867106533e-05 0.0 
1.853867106533e-05 8.418825182379e-03 0.0 
0.0 0.0 -1.253930875827e-03 
-9.226914416767e-04 2.727601033701e-04 0.0 
2.727601033701e-04 4.956857066035e-03 0.0 
0.0 0.0 -7.532271817479e-04 
-9.242130448013e-04 2.218369834796e-04 0.0 
2.218369834796e-04 5.094044769017e-03 0.0 
0.0 0.0 -7.809350190597e-04 
-9.469027331401e-04 2.184886764960e-04 0.0 
2.184886764960e-04 5.336848493436e-03 0.0 
0.0 0.0 -8.115578932774e-04 
-9.847582339447e-04 2.348277518639e-04 0.0 
2.348277518639e-04 5.535490339246e-03 0.0 
0.0 0.0 -8.428390908522e-04 
-1.013224796440e-03 2.269955445031e-04 0.0 
2.269955445031e-04 5.773109205172e-03 0.0 
0.0 0.0 -8.784658474099e-04 
-1.038385862696e-03 2.590411142921e-04 0.0 
2.590411142921e-04 5.954479327597e-03 0.0 
0.0 0.0 -9.060409163497e-04 
-1.004174411440e-03 2.781484189758e-04 0.0 
2.781484189758e-04 5.703926568537e-03 0.0 
0.0 0.0 -8.711257577415e-04 
-1.054585459025e-03 2.973439443916e-04 0.0 
2.973439443916e-04 6.126110480118e-03 0.0 
0.0 0.0 -9.341442283280e-04 
-1.020905393351e-03 3.220952727550e-04 0.0 
3.220952727550e-04 5.866625374892e-03 0.0 
0.0 0.0 -8.989774131092e-04 
-1.060675836449e-03 2.424242741137e-04 0.0 
2.424242741137e-04 6.211611638975e-03 0.0 
0.0 0.0 -9.415083590319e-04 
-1.069903741450e-03 3.342745829502e-04 0.0 
3.342745829502e-04 6.289952349254e-03 0.0 
0.0 0.0 -9.622976032585e-04 
-1.033366094007e-03 3.621226093725e-04 0.0 
3.621226093725e-04 6.024211968433e-03 0.0 
0.0 0.0 -9.268639294333e-04 
-1.081748877589e-03 3.725821950627e-04 0.0 
3.725821950627e-04 6.448138080981e-03 0.0 
0.0 0.0 -9.903372159162e-04 
-1.042953915019e-03 3.991340856965e-04 0.0 
3.991340856965e-04 6.178329635147e-03 0.0 
0.0 0.0 -9.547708836903e-04 
-9.946320659626e-04 3.943126043460e-04 0.0 
3.943126043460e-04 5.758814307551e-03 0.0 
0.0 0.0 -8.916807130883e-04 
-1.001107217771e-03 4.332773723891e-04 0.0 
4.332773723891e-04 5.906894361937e-03 0.0 
0.0 0.0 -9.194532194038e-04 
-9.524385169357e-04 4.327952618965e-04 0.0 
4.327952618965e-04 5.490022466699e-03 0.0 
0.0 0.0 -8.565021464485e-04 
-9.551941416785e-04 4.714703413802e-04 0.0 
4.714703413802e-04 5.632535536945e-03 0.0 
0.0 0.0 -8.841639842141e-04 
-1.003948910985e-03 4.659340529388e-04 0.0 
4.659340529388e-04 6.052492370979e-03 0.0 
0.0 0.0 -9.471984275390e-04 
-9.534464918986e-04 5.005026845975e-04 0.0 
5.005026845975e-04 5.770878701320e-03 0.0 
0.0 0.0 -9.118195294070e-04 
-9.061256584098e-04 5.150134062317e-04 0.0 
5.150134062317e-04 5.352614190247e-03 0.0 
0.0 0.0 -8.488396520500e-04 
-8.989049191365e-04 5.434397803423e-04 0.0 
5.434397803423e-04 5.483228311018e-03 0.0 
0.0 0.0 -8.764089341820e-04 
-8.533039374695e-04 5.667693254414e-04 0.0 
5.667693254414e-04 5.068208533921e-03 0.0 
0.0 0.0 -8.135623229517e-04 
-8.365930353293e-04 5.966473916808e-04 0.0 
5.966473916808e-04 5.187775337564e-03 0.0 
0.0 0.0 -8.410744910442e-04 
-7.968543408339e-04 6.237249391908e-04 0.0 
6.237249391908e-04 4.777124479860e-03 0.0 
0.0 0.0 -7.781617608290e-04 
-7.029435848570e-04 7.490061467358e-04 0.0 
7.490061467358e-04 4.819010284702e-03 0.0 
0.0 0.0 -8.056965831182e-04 
-6.266212018654e-04 8.491194366609e-04 0.0 
8.491194366609e-04 5.115941158928e-03 0.0 
0.0 0.0 -8.686949506212e-04 
-3.149157776096e-04 1.169949777731e-03 0.0 
1.169949777731e-03 4.567810658714e-03 0.0 
0.0 0.0 -8.332427817419e-04 
-4.587029685489e-04 1.039157785685e-03 0.0 
1.039157785685e-03 4.337207014628e-03 0.0 
0.0 0.0 -7.703313069557e-04 
1.732854359544e-04 1.643446524540e-03 0.0 
1.643446524540e-03 3.841441490376e-03 0.0 
0.0 0.0 -7.977945042040e-04 
3.754660507148e-05 1.636398971028e-03 0.0 
1.636398971028e-03 3.601077745243e-03 0.0 
0.0 0.0 -7.349073124327e-04 
8.940031963408e-04 2.294749826828e-03 0.0 
2.294749826828e-03 2.878921979978e-03 0.0 
0.0 0.0 -7.622392297106e-04 
1.037821412506e-03 2.208433433305e-03 0.0 
2.208433433305e-03 3.115427992828e-03 0.0 
0.0 0.0 -8.253152238873e-04 
1.816234649177e-03 2.672723013729e-03 0.0 
2.672723013729e-03 2.095947632073e-03 0.0 
0.0 0.0 -7.896995018144e-04 
1.672746160970e-03 2.842767628151e-03 0.0 
2.842767628151e-03 1.851657128188e-03 0.0 
0.0 0.0 -7.264132926703e-04 
2.605738219871e-03 2.981376208066e-03 0.0 
2.981376208066e-03 1.061434039426e-03 0.0 
0.0 0.0 -7.539848323805e-04 
2.463400257966e-03 3.210436252332e-03 0.0 
3.210436252332e-03 8.081372330529e-04 0.0 
0.0 0.0 -6.903858661722e-04 
3.480481316402e-03 3.187170637821e-03 0.0 
3.187170637821e-03 -6.036998111638e-05 0.0 
0.0 0.0 -7.182351804274e-04 
3.417909209568e-03 3.525820964182e-03 0.0 
3.525820964182e-03 -4.022392037282e-04 0.0 
0.0 0.0 -6.542402593883e-04 
4.479921810026e-03 3.254386492458e-03 0.0 
3.254386492458e-03 -1.312770489504e-03 0.0 
0.0 0.0 -6.821763112594e-04 
4.209987462132e-03 2.870991955571e-03 0.0 
2.870991955571e-03 -6.369519651219e-04 0.0 
0.0 0.0 -7.460902125261e-04 
5.010635116861e-03 2.620795184252e-03 0.0 
2.620795184252e-03 -1.684337376625e-03 0.0 
0.0 0.0 -7.100832486075e-04 
5.431614485455e-03 2.974672102094e-03 0.0 
2.974672102094e-03 -2.520530788676e-03 0.0 
0.0 0.0 -6.458624074531e-04 
5.578685142239e-03 2.007661260085e-03 0.0 
2.007661260085e-03 -2.501868366399e-03 0.0 
0.0 0.0 -6.737786430284e-04 
4.709370866784e-03 1.784980729197e-03 0.0 
1.784980729197e-03 -1.216090787080e-03 0.0 
0.0 0.0 -7.381473126730e-04 
4.833580827292e-03 1.067628126473e-03 0.0 
1.067628126473e-03 -1.582027449380e-03 0.0 
0.0 0.0 -7.017500108595e-04 
3.768206431128e-03 1.005158926031e-03 0.0 
1.005158926031e-03 -1.011500163524e-04 0.0 
0.0 0.0 -7.662494016216e-04 
3.586024432781e-03 3.622437807152e-04 0.0 
3.622437807152e-04 -1.520873612890e-04 0.0 
0.0 0.0 -7.297828278826e-04 
4.497714324434e-03 1.983968502092e-04 0.0 
1.983968502092e-04 -1.482615676265e-03 0.0 
0.0 0.0 -6.655364893108e-04 
3.015639804245e-03 -2.983607945670e-04 0.0 
-2.983607945670e-04 1.914080073755e-04 0.0 
0.0 0.0 -6.934067383651e-04 
2.410149370081e-03 -9.194609300466e-05 0.0 
-9.194609300466e-05 1.210831400750e-03 0.0 
0.0 0.0 -7.577868799165e-04 
1.788186565997e-03 -5.595101467772e-04 0.0 
-5.595101467772e-04 1.612249202681e-03 0.0 
0.0 0.0 -7.212202614536e-04 
2.140527002807e-03 -8.240127197317e-04 0.0 
-8.240127197317e-04 8.456078207054e-04 0.0 
0.0 0.0 -6.571136838490e-04 
9.825406726773e-04 -8.636714264674e-04 0.0 
-8.636714264674e-04 2.207010324346e-03 0.0 
0.0 0.0 -6.848379476561e-04 
8.938489022856e-04 -6.770999912087e-04 0.0 
-6.770999912087e-04 2.703475049165e-03 0.0 
0.0 0.0 -7.491645792950e-04 
1.613557650156e-04 -8.198568867433e-04 0.0 
-8.198568867433e-04 3.229850611650e-03 0.0 
0.0 0.0 -7.127097857715e-04 
1.550178140936e-04 -9.582697572328e-04 0.0 
-9.582697572328e-04 2.830910305992e-03 0.0 
0.0 0.0 -6.486049398320e-04 
-3.575852682979e-04 -8.560140284777e-04 0.0 
-8.560140284777e-04 3.552237492505e-03 0.0 
0.0 0.0 -6.763006240845e-04 
-3.788333576004e-04 -7.450944090189e-04 0.0 
-7.450944090189e-04 3.973786829153e-03 0.0 
0.0 0.0 -7.409416231994e-04 
-5.642434690968e-04 -7.961766967206e-04 0.0 
-7.961766967206e-04 3.962246775740e-03 0.0 
0.0 0.0 -7.042275185679e-04 
-5.048810542407e-04 -9.111393169982e-04 0.0 
-9.111393169982e-04 3.507729400124e-03 0.0 
0.0 0.0 -6.398389559308e-04 
-6.027165900428e-04 -8.444966016725e-04 0.0 
-8.444966016725e-04 3.810620087909e-03 0.0 
0.0 0.0 -6.674633383154e-04 
-6.579291994771e-04 -7.450391146030e-04 0.0 
-7.450391146030e-04 4.258237816838e-03 0.0 
0.0 0.0 -7.324886333286e-04 
-6.885251553241e-04 -7.661379123145e-04 0.0 
-7.661379123145e-04 4.095680745521e-03 0.0 
0.0 0.0 -6.954027321055e-04 
-7.420005201256e-04 -6.813900099092e-04 0.0 
-6.813900099092e-04 4.540296059999e-03 0.0 
0.0 0.0 -7.608997874520e-04 
-6.419229239274e-04 -8.515280830913e-04 0.0 
-8.515280830913e-04 3.660198205629e-03 0.0 
0.0 0.0 -6.302092384919e-04 
-7.165087956100e-04 -7.532581299851e-04 0.0 
-7.532581299851e-04 3.933160643348e-03 0.0 
0.0 0.0 -6.580989212857e-04 
-6.748415764425e-04 -8.158732049488e-04 0.0 
-8.158732049488e-04 3.506981101763e-03 0.0 
0.0 0.0 -5.925517106747e-04 
-7.365832294088e-04 -7.073699189760e-04 0.0 
-7.073699189760e-04 3.765896700508e-03 0.0 
0.0 0.0 -6.207111136070e-04 
1.903133234339e-03 2.528261994646e-03 0.0 
2.528261994646e-03 2.392957876064e-03 0.0 
0.0 0.0 -8.529317679587e-04 
-6.943116331248e-04 -7.425915444218e-04 0.0 
-7.425915444218e-04 3.344277999279e-03 0.0 
0.0 0.0 -5.549884598765e-04 
-6.397413698948e-04 -8.660814527003e-04 0.0 
-8.660814527003e-04 3.093984914707e-03 0.0 
0.0 0.0 -5.276250340903e-04 
-7.441497249529e-04 -6.348309289792e-04 0.0 
-6.348309289792e-04 3.588685288948e-03 0.0 
0.0 0.0 -5.833260987948e-04 
-7.927694967591e-04 -6.072286345187e-04 0.0 
-6.072286345187e-04 4.017000879105e-03 0.0 
0.0 0.0 -6.493616581942e-04 
-6.966675025981e-04 -6.428656991036e-04 0.0 
-6.428656991036e-04 3.166084591150e-03 0.0 
0.0 0.0 -5.173870653820e-04 
-7.365323002863e-04 -5.431818663254e-04 0.0 
-5.431818663254e-04 3.397457388952e-03 0.0 
0.0 0.0 -5.459094278256e-04 
-6.801980278813e-04 -5.258870908465e-04 0.0 
-5.258870908465e-04 2.971149924429e-03 0.0 
0.0 0.0 -4.798161731008e-04 
2.282109353500e-03 3.523597765453e-03 0.0 
3.523597765453e-03 5.838649364032e-04 0.0 
0.0 0.0 -6.252159162693e-04 
-1.003922379852e-03 4.867498946043e-04 0.0 
4.867498946043e-04 6.194900288835e-03 0.0 
0.0 0.0 -9.750716696758e-04 
-7.134730581966e-04 -4.396097415729e-04 0.0 
-4.396097415729e-04 3.191992919970e-03 0.0 
0.0 0.0 -5.084495576641e-04 
-6.454975030147e-04 -4.098543326581e-04 0.0 
-4.098543326581e-04 2.756723401947e-03 0.0 
0.0 0.0 -4.423119711188e-04 
-6.169555617155e-04 -4.854535332185e-04 0.0 
-4.854535332185e-04 2.543124995000e-03 0.0 
0.0 0.0 -4.136824817550e-04 
-5.630688119643e-04 -3.553409865602e-04 0.0 
-3.553409865602e-04 2.315573721592e-03 0.0 
0.0 0.0 -3.761903503575e-04 
-1.032297422083e-03 1.966440866369e-04 0.0 
1.966440866369e-04 6.038887422175e-03 0.0 
0.0 0.0 -9.126358703463e-04 
-1.092679819842e-03 2.404953654437e-04 0.0 
2.404953654437e-04 6.471742125457e-03 0.0 
0.0 0.0 -9.772611937912e-04 
-1.065662184042e-03 1.952825978825e-04 0.0 
1.952825978825e-04 6.276115658093e-03 0.0 
0.0 0.0 -9.468612964576e-04 
-1.124488971150e-03 2.272669760496e-04 0.0 
2.272669760496e-04 6.729090336894e-03 0.0 
0.0 0.0 -1.012955122490e-03 
-1.098065280761e-03 1.864830102051e-04 0.0 
1.864830102051e-04 6.541298868571e-03 0.0 
0.0 0.0 -9.835180958883e-04 
-5.915603593799e-04 -3.065298427479e-04 0.0 
-3.065298427479e-04 2.521782196510e-03 0.0 
0.0 0.0 -4.047791634435e-04 
-1.117175513921e-03 3.540420738705e-04 0.0 
3.540420738705e-04 6.717826161917e-03 0.0 
0.0 0.0 -1.026687169009e-03 
-1.146459728684e-03 2.677090129604e-04 0.0 
2.677090129604e-04 6.908937528882e-03 0.0 
0.0 0.0 -1.042264213861e-03 
-8.619810308033e-04 5.269046982762e-04 0.0 
5.269046982762e-04 4.942534175484e-03 0.0 
0.0 0.0 -7.861871271282e-04 
-5.392302679733e-04 9.620031239418e-04 0.0 
9.620031239418e-04 4.044818602416e-03 0.0 
0.0 0.0 -7.076088937226e-04 
3.595403841676e-03 1.501381780508e-03 0.0 
1.501381780508e-03 3.076898610391e-04 0.0 
0.0 0.0 -8.027518904046e-04 
-7.754697783619e-04 -4.563258168331e-04 0.0 
-4.563258168331e-04 3.623603682734e-03 0.0 
0.0 0.0 -5.745905038755e-04 
-7.478137892348e-04 -3.620965601600e-04 0.0 
-3.620965601600e-04 3.412205611854e-03 0.0 
0.0 0.0 -5.371338854166e-04 
-8.174754817651e-04 -3.813163108904e-04 0.0 
-3.813163108904e-04 3.849101426160e-03 0.0 
0.0 0.0 -6.033452624549e-04 
-7.192525572030e-04 -6.519418612780e-04 0.0 
-6.519418612780e-04 4.714458239345e-03 0.0 
0.0 0.0 -7.980428604176e-04 
-8.008672232585e-04 -6.001783307384e-04 0.0 
-6.001783307384e-04 4.992005436326e-03 0.0 
0.0 0.0 -8.266132305475e-04 
-7.854918836627e-04 -5.659348858598e-04 0.0 
-5.659348858598e-04 5.176434454621e-03 0.0 
0.0 0.0 -8.638188500004e-04 
-8.639017049063e-04 -5.248351014622e-04 0.0 
-5.248351014622e-04 5.448454375514e-03 0.0 
0.0 0.0 -8.924533907576e-04 
-8.555184497349e-04 -4.894755576408e-04 0.0 
-4.894755576408e-04 5.642058910946e-03 0.0 
0.0 0.0 -9.297164513315e-04 
-9.301291339826e-04 -4.570426975750e-04 0.0 
-4.570426975750e-04 5.908844626244e-03 0.0 
0.0 0.0 -9.583747859490e-04 
-9.353789003032e-04 -4.780922276340e-04 0.0 
-4.780922276340e-04 5.711821717037e-03 0.0 
0.0 0.0 -9.210728288235e-04 
-9.984662583326e-04 -4.207024963502e-04 0.0 
-4.207024963502e-04 6.168121907027e-03 0.0 
0.0 0.0 -9.870277070005e-04 
-1.000069004232e-03 -4.285924737525e-04 0.0 
-4.285924737525e-04 5.966651563586e-03 0.0 
0.0 0.0 -9.497007337289e-04 
-9.283284515458e-04 -4.229135290675e-04 0.0 
-4.229135290675e-04 6.110180447664e-03 0.0 
0.0 0.0 -9.956835613869e-04 
-8.527578693464e-04 -4.403303765288e-04 0.0 
-4.403303765288e-04 5.842885643991e-03 0.0 
0.0 0.0 -9.668198671257e-04 
-1.059819806392e-03 -3.815720688592e-04 0.0 
-3.815720688592e-04 6.418981492352e-03 0.0 
0.0 0.0 -1.015681523326e-03 
-1.057949721367e-03 -3.770560260125e-04 0.0 
-3.770560260125e-04 6.213345858748e-03 0.0 
0.0 0.0 -9.783260305704e-04 
-1.113690001508e-03 -3.391138449317e-04 0.0 
-3.391138449317e-04 6.662067817752e-03 0.0 
0.0 0.0 -1.044362401637e-03 
-1.108897527401e-03 -3.261874601882e-04 0.0 
-3.261874601882e-04 6.451449547970e-03 0.0 
0.0 0.0 -1.007007767922e-03 
-1.056102434059e-03 -3.617377197121e-04 0.0 
-3.617377197121e-04 6.006353850389e-03 0.0 
0.0 0.0 -9.408676861799e-04 
-1.103510128039e-03 -3.034940289184e-04 0.0 
-3.034940289184e-04 6.238484304806e-03 0.0 
0.0 0.0 -9.695029660748e-04 
-1.052845247082e-03 -3.373861149014e-04 0.0 
-3.373861149014e-04 5.798954310895e-03 0.0 
0.0 0.0 -9.035672079865e-04 
2.731302794389e-03 8.770445456117e-04 0.0 
8.770445456117e-04 1.344487358645e-03 0.0 
0.0 0.0 -8.309624794500e-04 
2.479114705973e-03 1.194040237948e-03 0.0 
1.194040237948e-03 1.829117690288e-03 0.0 
0.0 0.0 -8.675775700443e-04 
1.867603761961e-03 7.341454274063e-04 0.0 
7.341454274063e-04 2.611566494520e-03 0.0 
0.0 0.0 -8.958500940740e-04 
1.549851542477e-03 9.206861627329e-04 0.0 
9.206861627329e-04 3.158375916043e-03 0.0 
0.0 0.0 -9.325549191312e-04 
1.161115084796e-03 5.963096468045e-04 0.0 
5.963096468045e-04 3.716786336578e-03 0.0 
0.0 0.0 -9.609176734917e-04 
8.148852110618e-04 6.972372612538e-04 0.0 
6.972372612538e-04 4.288657451142e-03 0.0 
0.0 0.0 -9.976363410588e-04 
5.210480000351e-04 4.527705572990e-04 0.0 
4.527705572990e-04 4.749186129596e-03 0.0 
0.0 0.0 -1.026032504441e-03 
8.079216296292e-04 3.374894549769e-04 0.0 
3.374894549769e-04 4.243334133986e-03 0.0 
0.0 0.0 -9.892761093609e-04 
-1.092308246197e-03 4.087334969491e-04 0.0 
4.087334969491e-04 6.601377400440e-03 0.0 
0.0 0.0 -1.018102500310e-03 
6.076455465629e-03 2.197317981755e-03 0.0 
2.197317981755e-03 -3.424352984611e-03 0.0 
0.0 0.0 -6.095594541484e-04 
5.544557634160e-03 3.350034101879e-03 0.0 
3.350034101879e-03 -3.057575035371e-03 0.0 
0.0 0.0 -5.816898710390e-04 
6.187929015895e-03 2.403355871803e-03 0.0 
2.403355871803e-03 -3.971741568261e-03 0.0 
0.0 0.0 -5.454521931755e-04 
5.421286401963e-03 3.806325236885e-03 0.0 
3.806325236885e-03 -3.368010375935e-03 0.0 
0.0 0.0 -5.176388733440e-04 
5.967572244294e-03 2.675537320453e-03 0.0 
2.675537320453e-03 -4.201936923623e-03 0.0 
0.0 0.0 -4.814163979944e-04 
5.161841098406e-03 4.411670599170e-03 0.0 
4.411670599170e-03 -3.553885561818e-03 0.0 
0.0 0.0 -4.537165770244e-04 
5.529569603570e-03 3.060796594657e-03 0.0 
3.060796594657e-03 -4.225869870915e-03 0.0 
0.0 0.0 -4.208902240644e-04 
6.044443988708e-03 1.021696557363e-03 0.0 
1.021696557363e-03 -4.565361635447e-03 0.0 
0.0 0.0 -4.466351565148e-04 
5.429021343563e-03 1.197832163641e-03 0.0 
1.197832163641e-03 -4.427748609300e-03 0.0 
0.0 0.0 -3.736376070058e-04 
5.757954503484e-03 -8.492474032960e-04 0.0 
-8.492474032960e-04 -4.542736275441e-03 0.0 
0.0 0.0 -4.168446658567e-04 
5.123518039262e-03 -8.051717793510e-04 0.0 
-8.051717793510e-04 -4.391162148066e-03 0.0 
0.0 0.0 -3.063790003961e-04 
5.255741094978e-03 -2.709702023151e-03 0.0 
-2.709702023151e-03 -4.298073933414e-03 0.0 
0.0 0.0 -3.640020775467e-04 
-1.202545126634e-04 1.328744210262e-03 0.0 
1.328744210262e-03 4.748591611712e-03 0.0 
0.0 0.0 -8.963565068603e-04 
1.166200533303e-03 1.010016207365e-03 0.0 
1.010016207365e-03 3.772537603275e-03 0.0 
0.0 0.0 -9.691568884624e-04 
4.428548094547e-04 7.333296004590e-04 0.0 
7.333296004590e-04 4.889667700654e-03 0.0 
0.0 0.0 -1.034312087004e-03 
7.850594731097e-04 1.036051133509e-03 0.0 
1.036051133509e-03 4.384284696886e-03 0.0 
0.0 0.0 -1.005320805676e-03 
-5.404221803057e-04 -4.187129725138e-04 0.0 
-4.187129725138e-04 2.110154003912e-03 0.0 
0.0 0.0 -3.475522021424e-04 
-1.152888887005e-03 -2.763407572661e-04 0.0 
-2.763407572661e-04 6.681517292358e-03 0.0 
0.0 0.0 -1.035773625862e-03 
-9.326850124498e-04 -3.805734010338e-04 0.0 
-3.805734010338e-04 6.318938914436e-03 0.0 
0.0 0.0 -1.032922975483e-03 
-7.410906354302e-04 -3.811275320458e-04 0.0 
-3.811275320458e-04 5.933984248727e-03 0.0 
0.0 0.0 -1.003739924893e-03 
2.017706040947e-04 2.432870136355e-04 0.0 
2.432870136355e-04 5.241732523822e-03 0.0 
0.0 0.0 -1.054598834243e-03 
-4.941523760955e-04 -2.470231279283e-04 0.0 
-2.470231279283e-04 2.071816915527e-03 0.0 
0.0 0.0 -3.392587823741e-04 
4.761395158730e-03 5.132009139085e-03 0.0 
5.132009139085e-03 -3.597134440199e-03 0.0 
0.0 0.0 -3.922431101850e-04 
4.118624567675e-03 5.937590819616e-03 0.0 
5.937590819616e-03 -2.646662509366e-03 0.0 
0.0 0.0 -4.261104576107e-04 
-1.152692083578e-03 2.146597661269e-04 0.0 
2.146597661269e-04 6.983288018661e-03 0.0 
0.0 0.0 -1.048874596840e-03 
-1.125979627456e-03 1.800276227316e-04 0.0 
1.800276227316e-04 6.792196765101e-03 0.0 
0.0 0.0 -1.019458214591e-03 
-8.947401400715e-04 -3.277021055758e-04 0.0 
-3.277021055758e-04 6.486299008816e-03 0.0 
0.0 0.0 -1.070157681403e-03 
-5.240293716215e-04 -2.102668930863e-04 0.0 
-2.102668930863e-04 2.277314558376e-03 0.0 
0.0 0.0 -3.675747464493e-04 
-1.063791247498e-03 -3.742192618344e-04 0.0 
-3.742192618344e-04 6.627422368744e-03 0.0 
0.0 0.0 -1.052997445444e-03 
4.497435556601e-03 1.332027340963e-03 0.0 
1.332027340963e-03 -3.926898294190e-03 0.0 
0.0 0.0 -2.445159696047e-04 
-1.144117684349e-03 -2.458346103954e-04 0.0 
-2.458346103954e-04 6.462839923362e-03 0.0 
0.0 0.0 -9.982306137915e-04 
-1.191309827109e-03 -2.266694415371e-04 0.0 
-2.266694415371e-04 6.904200660223e-03 0.0 
0.0 0.0 -1.064501221861e-03 
-9.418341400068e-04 -4.830251057162e-04 0.0 
-4.830251057162e-04 5.517520339527e-03 0.0 
0.0 0.0 -8.838659695519e-04 
8.556709103091e-05 7.240049683622e-04 0.0 
7.240049683622e-04 5.476902039098e-03 0.0 
0.0 0.0 -1.070909199420e-03 
4.144978560879e-04 1.010477859045e-03 0.0 
1.010477859045e-03 4.981314367254e-03 0.0 
0.0 0.0 -1.041442769611e-03 
5.275081255843e-03 -2.265255043761e-03 0.0 
-2.265255043761e-03 -3.840029390398e-03 0.0 
0.0 0.0 -4.384799197683e-04 
4.230333209067e-03 -3.479436263911e-03 0.0 
-3.479436263911e-03 -3.022255453602e-03 0.0 
0.0 0.0 -4.046094527367e-04 
4.464421886513e-03 -4.226336357067e-03 0.0 
-4.226336357067e-03 -3.687202936895e-03 0.0 
0.0 0.0 -3.139947606995e-04 
2.741513250282e-03 -3.734050859344e-03 0.0 
-3.734050859344e-03 -1.678953172758e-03 0.0 
0.0 0.0 -3.763072820036e-04 
2.245191342736e-03 -2.744562380288e-03 0.0 
-2.744562380288e-03 -7.651627175574e-04 0.0 
0.0 0.0 -4.289053338950e-04 
7.418562622844e-04 -2.196628848974e-03 0.0 
-2.196628848974e-03 5.652227640483e-04 0.0 
0.0 0.0 -3.979758726750e-04 
1.101141132956e-03 -2.764852555823e-03 0.0 
-2.764852555823e-03 -1.326294207403e-04 0.0 
0.0 0.0 -3.667276109228e-04 
-9.210849771956e-05 -1.688087922645e-03 0.0 
-1.688087922645e-03 1.284605317931e-03 0.0 
0.0 0.0 -3.771854463149e-04 
-2.312310750697e-04 -1.471718064654e-03 0.0 
-1.471718064654e-03 1.793158162849e-03 0.0 
0.0 0.0 -4.192720002935e-04 
-3.858828221178e-04 -1.432331817451e-03 0.0 
-1.432331817451e-03 1.803183213937e-03 0.0 
0.0 0.0 -3.853829593207e-04 
-2.961455271275e-04 -1.398427341996e-03 0.0 
-1.398427341996e-03 1.416563920223e-03 0.0 
0.0 0.0 -3.646163496721e-04 
-4.654616132702e-04 -1.259328861233e-03 0.0 
-1.259328861233e-03 1.764244007017e-03 0.0 
0.0 0.0 -3.558200702016e-04 
-1.201889062818e-03 -2.543911578407e-04 0.0 
-2.543911578407e-04 7.124942193322e-03 0.0 
0.0 0.0 -1.101875158976e-03 
4.066006080687e-03 -5.659671725344e-04 0.0 
-5.659671725344e-04 -3.665161307326e-03 0.0 
0.0 0.0 -1.717906171546e-04 
-9.463800631761e-04 3.860027273263e-04 0.0 
3.860027273263e-04 5.343793686453e-03 0.0 
0.0 0.0 -8.288706041983e-04 
-1.014362980206e-03 -3.321555799501e-04 0.0 
-3.321555799501e-04 6.794335154877e-03 0.0 
0.0 0.0 -1.099012274073e-03 
-9.858003362781e-05 3.013030330723e-04 0.0 
3.013030330723e-04 5.752007740019e-03 0.0 
0.0 0.0 -1.090660416876e-03 
-1.178566600954e-03 2.066846340335e-04 0.0 
2.066846340335e-04 7.236502688045e-03 0.0 
0.0 0.0 -1.085032576515e-03 
-1.153658343620e-03 1.755152393049e-04 0.0 
1.755152393049e-04 7.044914703598e-03 0.0 
0.0 0.0 -1.055603631703e-03 
-1.098678134952e-03 1.564744163133e-04 0.0 
1.564744163133e-04 6.595940529562e-03 0.0 
0.0 0.0 -9.897378988699e-04 
-1.129113373444e-03 1.503482155027e-04 0.0 
1.503482155027e-04 6.853244331223e-03 0.0 
0.0 0.0 -1.026001677571e-03 
-1.181824965340e-03 1.678156779438e-04 0.0 
1.678156779438e-04 7.301020112961e-03 0.0 
0.0 0.0 -1.091942449670e-03 
-1.157557793781e-03 1.434383666525e-04 0.0 
1.434383666525e-04 7.107529686986e-03 0.0 
0.0 0.0 -1.062342898562e-03 
-1.103342207633e-03 1.238709536611e-04 0.0 
1.238709536611e-04 6.657901312686e-03 0.0 
0.0 0.0 -9.962627399151e-04 
-1.130139591936e-03 1.194308116232e-04 0.0 
1.194308116232e-04 6.908298246914e-03 0.0 
0.0 0.0 -1.032646955902e-03 
-1.072650473166e-03 9.941159075289e-05 0.0 
9.941159075289e-05 6.455574140328e-03 0.0 
0.0 0.0 -9.664557332607e-04 
-1.101356119743e-03 9.815565709694e-05 0.0 
9.815565709694e-05 6.706288769856e-03 0.0 
0.0 0.0 -1.002889032254e-03 
-1.155889062888e-03 1.141636426079e-04 0.0 
1.141636426079e-04 7.157664523701e-03 0.0 
0.0 0.0 -1.069134413525e-03 
-1.129364737971e-03 9.069177524751e-05 0.0 
9.069177524751e-05 6.958007176896e-03 0.0 
0.0 0.0 -1.039387411609e-03 
-1.074512864600e-03 8.003659807365e-05 0.0 
8.003659807365e-05 6.506063569350e-03 0.0 
0.0 0.0 -9.730575354659e-04 
-1.102505706781e-03 6.895302199807e-05 0.0 
6.895302199807e-05 6.755927681467e-03 0.0 
0.0 0.0 -1.009574527126e-03 
-1.046730538131e-03 5.947738879001e-05 0.0 
5.947738879001e-05 6.301429284161e-03 0.0 
0.0 0.0 -9.431603702596e-04 
-1.071542509842e-03 4.629020306893e-05 0.0 
4.629020306893e-05 6.545497453892e-03 0.0 
0.0 0.0 -9.796061197752e-04 
-1.128792209327e-03 6.597728227980e-05 0.0 
6.597728227980e-05 7.006220652052e-03 0.0 
0.0 0.0 -1.046101832713e-03 
-4.073418969283e-04 -1.607374412238e-04 0.0 
-1.607374412238e-04 1.828608037656e-03 0.0 
0.0 0.0 -3.035957800550e-04 
4.204365980906e-04 1.232278698136e-04 0.0 
1.232278698136e-04 4.806873070594e-03 0.0 
0.0 0.0 -1.017732614895e-03 
-1.533642561999e-04 7.131348560391e-05 0.0 
7.131348560391e-05 5.772092949203e-03 0.0 
0.0 0.0 -1.083831836677e-03 
-7.928232165852e-04 -3.175969841458e-04 0.0 
-3.175969841458e-04 3.652484692606e-03 0.0 
0.0 0.0 -5.671321338944e-04 
-8.566347672055e-04 -3.217821912401e-04 0.0 
-3.217821912401e-04 4.048954472777e-03 0.0 
0.0 0.0 -6.325382687906e-04 
-8.804918361103e-04 -3.627202257711e-04 0.0 
-3.627202257711e-04 4.282181100263e-03 0.0 
0.0 0.0 -6.695659616924e-04 
-9.177573047803e-04 -2.924538415403e-04 0.0 
-2.924538415403e-04 4.507721826303e-03 0.0 
0.0 0.0 -6.986863204145e-04 
-1.099135465243e-03 4.357947276917e-05 0.0 
4.357947276917e-05 6.797671672464e-03 0.0 
0.0 0.0 -1.015477767897e-03 
-1.160436245727e-03 6.544078644588e-05 0.0 
6.544078644588e-05 7.256684604588e-03 0.0 
0.0 0.0 -1.082739357160e-03 
3.827852598616e-03 7.095848021589e-03 0.0 
7.095848021589e-03 -2.746321333170e-03 0.0 
0.0 0.0 -3.730214571323e-04 
2.825465004441e-03 6.639909511713e-03 0.0 
6.639909511713e-03 -1.453939969440e-03 0.0 
0.0 0.0 -4.032920832132e-04 
-1.202425520628e-03 2.413601229435e-04 0.0 
2.413601229435e-04 7.423802842249e-03 0.0 
0.0 0.0 -1.114382729655e-03 
-1.180850422310e-03 -1.936004808914e-04 0.0 
-1.936004808914e-04 6.684429122052e-03 0.0 
0.0 0.0 -1.027045364000e-03 
-1.134320678585e-03 -2.084199271041e-04 0.0 
-2.084199271041e-04 6.243084428302e-03 0.0 
0.0 0.0 -9.609938998495e-04 
-4.768882424591e-05 1.691425058738e-03 0.0 
1.691425058738e-03 3.310868333014e-03 0.0 
0.0 0.0 -6.721935305596e-04 
-5.761733608124e-04 9.265729761362e-04 0.0 
9.265729761362e-04 3.709117094760e-03 0.0 
0.0 0.0 -6.449639573754e-04 
-1.058787866208e-04 1.783066566593e-03 0.0 
1.783066566593e-03 2.992581627948e-03 0.0 
0.0 0.0 -6.093131083769e-04 
-5.852660334884e-04 9.226244933826e-04 0.0 
9.226244933826e-04 3.340535507571e-03 0.0 
0.0 0.0 -5.812298138028e-04 
-6.717347223774e-04 7.671538527367e-04 0.0 
7.671538527367e-04 3.680324616707e-03 0.0 
0.0 0.0 -6.173664885638e-04 
-1.434716790005e-04 1.946242977105e-03 0.0 
1.946242977105e-03 2.644575738493e-03 0.0 
0.0 0.0 -5.448148816535e-04 
-6.009777562965e-04 -4.523202693695e-04 0.0 
-4.523202693695e-04 5.394873585593e-03 0.0 
0.0 0.0 -9.373051277721e-04 
-1.182206612194e-03 1.041005248131e-04 0.0 
1.041005248131e-04 7.409010778114e-03 0.0 
0.0 0.0 -1.105708206284e-03 
-5.928875136439e-04 -5.713513742364e-04 0.0 
-5.713513742364e-04 2.330327898660e-03 0.0 
0.0 0.0 -3.852871208612e-04 
-5.197872744909e-04 -4.881912543796e-04 0.0 
-4.881912543796e-04 1.906337896852e-03 0.0 
0.0 0.0 -3.193625892355e-04 
-1.227873719132e-03 -1.791865956722e-04 0.0 
-1.791865956722e-04 7.126040838435e-03 0.0 
0.0 0.0 -1.093300181677e-03 
9.621567476411e-04 1.422895498845e-04 0.0 
1.422895498845e-04 3.869070402759e-03 0.0 
0.0 0.0 -9.522822042369e-04 
-4.730129854121e-04 1.022069514052e-03 0.0 
1.022069514052e-03 5.337145524763e-03 0.0 
0.0 0.0 -9.319735432435e-04 
1.124091382210e-04 1.500027983152e-03 0.0 
1.500027983152e-03 4.892704930855e-03 0.0 
0.0 0.0 -9.598347391831e-04 
-2.620143480914e-04 1.225991571118e-03 0.0 
1.225991571118e-03 5.503435163492e-03 0.0 
0.0 0.0 -9.957130113267e-04 
2.923074415351e-04 1.617080476879e-03 0.0 
1.617080476879e-03 5.091052359049e-03 0.0 
0.0 0.0 -1.023751803962e-03 
-6.908311835114e-05 1.393861145089e-03 0.0 
1.393861145089e-03 5.689054316551e-03 0.0 
0.0 0.0 -1.059873349132e-03 
1.536258967120e-04 1.475842611853e-03 0.0 
1.475842611853e-03 5.605830556942e-03 0.0 
0.0 0.0 -1.087854580038e-03 
4.633476968136e-04 1.604423902869e-03 0.0 
1.604423902869e-03 5.066564887414e-03 0.0 
0.0 0.0 -1.051791170495e-03 
-2.412936537846e-04 6.862568422161e-04 0.0 
6.862568422161e-04 6.031753584659e-03 0.0 
0.0 0.0 -1.107463318235e-03 
-1.293266045462e-04 1.141425422435e-03 0.0 
1.141425422435e-03 6.037727216455e-03 0.0 
0.0 0.0 -1.115916943430e-03 
-1.033295848304e-03 4.860531472176e-05 0.0 
4.860531472176e-05 6.321432505072e-03 0.0 
0.0 0.0 -9.487150400336e-04 
1.687270938662e-03 1.463468957231e-03 0.0 
1.463468957231e-03 3.085851745736e-03 0.0 
0.0 0.0 -9.398448712237e-04 
-3.958753706079e-04 -1.306941406373e-03 0.0 
-1.306941406373e-03 2.210168825673e-03 0.0 
0.0 0.0 -4.474652294669e-04 
-3.867396229061e-04 -1.939364425131e-04 0.0 
-1.939364425131e-04 1.612473113241e-03 0.0 
0.0 0.0 -2.752498982733e-04 
-3.548792531294e-04 -1.099906862766e-03 0.0 
-1.099906862766e-03 1.383653509656e-03 0.0 
0.0 0.0 -3.352047878591e-04 
-4.486846026636e-04 -1.253624941077e-04 0.0 
-1.253624941077e-04 2.009661496099e-03 0.0 
0.0 0.0 -3.299748606085e-04 
-5.597023421830e-04 -1.650736869684e-04 0.0 
-1.650736869684e-04 2.479203026553e-03 0.0 
0.0 0.0 -3.961554456411e-04 
-1.018671156617e-03 -2.878219797749e-04 0.0 
-2.878219797749e-04 7.005254382397e-03 0.0 
0.0 0.0 -1.136360603439e-03 
-1.565991219054e-04 1.315066592404e-03 0.0 
1.315066592404e-03 6.155158871764e-03 0.0 
0.0 0.0 -1.124065295910e-03 
-4.173629872128e-04 1.145809555027e-03 0.0 
1.145809555027e-03 6.269716258040e-03 0.0 
0.0 0.0 -1.095615423988e-03 
-6.465811726499e-04 7.943118945265e-04 0.0 
7.943118945265e-04 3.291375737462e-03 0.0 
0.0 0.0 -5.539799138139e-04 
-6.949762395585e-04 6.852387151617e-04 0.0 
6.852387151617e-04 3.583300335040e-03 0.0 
0.0 0.0 -5.905304635153e-04 
-4.952345367093e-04 4.677194357046e-04 0.0 
4.677194357046e-04 6.447778238600e-03 0.0 
0.0 0.0 -1.136278651916e-03 
-1.031330535355e-03 1.691125997159e-04 0.0 
1.691125997159e-04 6.096244556870e-03 0.0 
0.0 0.0 -9.177848451843e-04 
-1.043451867895e-03 1.026605375003e-04 0.0 
1.026605375003e-04 6.207052540714e-03 0.0 
0.0 0.0 -9.302130594432e-04 
-1.010991519056e-03 8.266817185374e-05 0.0 
8.266817185374e-05 5.998028369178e-03 0.0 
0.0 0.0 -9.001900590098e-04 
-3.040782914078e-04 -1.048978576797e-04 0.0 
-1.048978576797e-04 1.479833111238e-03 0.0 
0.0 0.0 -2.595221258752e-04 
-1.668157979825e-04 -1.176981615551e-03 0.0 
-1.176981615551e-03 1.066881825257e-03 0.0 
0.0 0.0 -3.546314877250e-04 
-1.207894844135e-03 1.612820959581e-04 0.0 
1.612820959581e-04 7.555800088084e-03 0.0 
0.0 0.0 -1.128363834889e-03 
3.027918231049e-03 5.516779433640e-03 0.0 
5.516779433640e-03 -1.252599165413e-03 0.0 
0.0 0.0 -4.615872697407e-04 
1.708200239034e-03 5.209051758330e-03 0.0 
5.209051758330e-03 -4.418305892311e-05 0.0 
0.0 0.0 -4.342639779644e-04 
3.132536717160e-03 1.274260121881e-03 0.0 
1.274260121881e-03 -2.819514207982e-03 0.0 
0.0 0.0 -1.341525039334e-04 
2.500775085905e-03 -3.049435945037e-04 0.0 
-3.049435945037e-04 -2.352841486278e-03 0.0 
0.0 0.0 -6.340011412580e-05 
-1.121483383227e-03 6.295637452115e-05 0.0 
6.295637452115e-05 7.029111019756e-03 0.0 
0.0 0.0 -1.051814883004e-03 
-1.177494848702e-03 6.582362175726e-05 0.0 
6.582362175726e-05 7.492557943411e-03 0.0 
0.0 0.0 -1.117859435171e-03 
-9.333898311745e-04 -3.509792996749e-04 0.0 
-3.509792996749e-04 4.719089492349e-03 0.0 
0.0 0.0 -7.356929296387e-04 
-9.785857666390e-04 -2.860980495383e-04 0.0 
-2.860980495383e-04 4.943354100410e-03 0.0 
0.0 0.0 -7.648299719236e-04 
-8.437263266015e-04 -2.585274734767e-04 0.0 
-2.585274734767e-04 6.644157736778e-03 0.0 
0.0 0.0 -1.107558395918e-03 
-5.027897087658e-04 -9.882385644824e-04 0.0 
-9.882385644824e-04 1.682465534830e-03 0.0 
0.0 0.0 -3.185922720913e-04 
-1.207361177183e-03 7.219593573452e-05 0.0 
7.219593573452e-05 7.710745314262e-03 0.0 
0.0 0.0 -1.149181664990e-03 
4.800016745579e-04 -5.702889206944e-05 0.0 
-5.702889206944e-05 4.533962153473e-03 0.0 
0.0 0.0 -9.807908033776e-04 
9.025201330972e-04 -1.159605528242e-04 0.0 
-1.159605528242e-04 3.711829628308e-03 0.0 
0.0 0.0 -9.152404036621e-04 
-8.850179884087e-04 -2.107315013722e-04 0.0 
-2.107315013722e-04 4.277220058387e-03 0.0 
0.0 0.0 -6.604623333687e-04 
2.507518517811e-03 7.835562327700e-03 0.0 
7.835562327700e-03 -1.450664184058e-03 0.0 
0.0 0.0 -3.722456989795e-04 
3.380395968519e-03 8.246975081543e-03 0.0 
8.246975081543e-03 -2.582588658843e-03 0.0 
0.0 0.0 -3.185609919049e-04 
-2.916927234457e-04 -1.259017311298e-03 0.0 
-1.259017311298e-03 2.273036419357e-03 0.0 
0.0 0.0 -4.845585894574e-04 
-5.488065046231e-04 -1.067445958774e-03 0.0 
-1.067445958774e-03 2.060865836395e-03 0.0 
0.0 0.0 -3.723415964733e-04 
-4.888098213751e-04 -1.052003350203e-04 0.0 
-1.052003350203e-04 2.216308377581e-03 0.0 
0.0 0.0 -3.583452993329e-04 
-1.040407195995e-03 -2.270780328307e-04 0.0 
-2.270780328307e-04 7.229786060636e-03 0.0 
0.0 0.0 -1.173829981771e-03 
-1.227876715994e-03 1.893009349700e-04 0.0 
1.893009349700e-04 7.743204952100e-03 0.0 
0.0 0.0 -1.157575248917e-03 
1.488946870762e-04 1.223586135918e-03 0.0 
1.223586135918e-03 5.529621514552e-03 0.0 
0.0 0.0 -1.080172819833e-03 
8.388903453912e-04 1.744981606356e-03 0.0 
1.744981606356e-03 4.454430210011e-03 0.0 
0.0 0.0 -1.015677837919e-03 
-5.369419355817e-04 7.553435037951e-04 0.0 
7.553435037951e-04 6.598255864298e-03 0.0 
0.0 0.0 -1.144955025780e-03 
-3.834899570330e-04 -7.958142673473e-04 0.0 
-7.958142673473e-04 1.299084562353e-03 0.0 
0.0 0.0 -2.798534577099e-04 
-1.102214544351e-03 -3.027150081502e-04 0.0 
-3.027150081502e-04 7.282068807861e-03 0.0 
0.0 0.0 -1.165794428787e-03 
-1.216895343866e-03 -1.441675384032e-04 0.0 
-1.441675384032e-04 6.902897395280e-03 0.0 
0.0 0.0 -1.056136825731e-03 
-4.621756506290e-04 1.149596030982e-03 0.0 
1.149596030982e-03 6.674882436177e-03 0.0 
0.0 0.0 -1.157598467365e-03 
-7.392472521813e-04 8.913097284060e-04 0.0 
8.913097284060e-04 6.825348458768e-03 0.0 
0.0 0.0 -1.131219827106e-03 
1.930441963707e-03 4.528431665607e-03 0.0 
4.528431665607e-03 1.291062681666e-04 0.0 
0.0 0.0 -4.968499830348e-04 
9.875956577454e-04 4.177954252747e-03 0.0 
4.177954252747e-03 9.633504979013e-04 0.0 
0.0 0.0 -4.705806478706e-04 
7.469878250407e-04 4.678168705379e-03 0.0 
4.678168705379e-03 8.269896394286e-04 0.0 
0.0 0.0 -4.078257031896e-04 
3.516289017787e-04 3.818400059237e-03 0.0 
3.818400059237e-03 1.510145992723e-03 0.0 
0.0 0.0 -4.438024830152e-04 
-9.732353814622e-04 3.041939387352e-04 0.0 
3.041939387352e-04 5.448266059909e-03 0.0 
0.0 0.0 -8.361670615232e-04 
1.191028495956e-03 3.769751637317e-03 0.0 
3.769751637317e-03 1.146176307310e-03 0.0 
0.0 0.0 -5.333915535664e-04 
-9.057439282626e-04 4.261225243386e-04 0.0 
4.261225243386e-04 5.077306138642e-03 0.0 
0.0 0.0 -7.939299641313e-04 
-8.975208378586e-04 3.720025570421e-04 0.0 
3.720025570421e-04 4.930717473606e-03 0.0 
0.0 0.0 -7.665196690739e-04 
-8.600171473097e-04 4.161603871668e-04 0.0 
4.161603871668e-04 4.671461707836e-03 0.0 
0.0 0.0 -7.319524942586e-04 
-7.253516315596e-04 6.727829162625e-04 0.0 
6.727829162625e-04 3.972513731187e-03 0.0 
0.0 0.0 -6.527873785750e-04 
-7.385699352999e-04 5.948696391935e-04 0.0 
5.948696391935e-04 3.862508165088e-03 0.0 
0.0 0.0 -6.261871041946e-04 
4.463999680584e-03 4.231182347368e-03 0.0 
4.231182347368e-03 -2.132551870975e-03 0.0 
0.0 0.0 -5.534964465553e-04 
3.197960531608e-03 1.811589098149e-03 0.0 
1.811589098149e-03 9.428511783989e-04 0.0 
0.0 0.0 -8.390310526140e-04 
-8.925257354332e-04 -4.271097572203e-04 0.0 
-4.271097572203e-04 4.492522403458e-03 0.0 
0.0 0.0 -7.069621042110e-04 
-1.002856146604e-03 -4.033307783673e-04 0.0 
-4.033307783673e-04 5.565178736137e-03 0.0 
0.0 0.0 -8.751042800696e-04 
-7.003078251289e-04 -5.958729416123e-04 0.0 
-5.958729416123e-04 4.895224615458e-03 0.0 
0.0 0.0 -8.350146568664e-04 
-1.207341521713e-03 1.295685592876e-04 0.0 
1.295685592876e-04 7.603516284320e-03 0.0 
0.0 0.0 -1.135109731873e-03 
-1.234147304705e-03 1.158810138817e-04 0.0 
1.158810138817e-04 7.860000857238e-03 0.0 
0.0 0.0 -1.171938512032e-03 
-1.015895156183e-03 6.930194114772e-05 0.0 
6.930194114772e-05 6.052013455342e-03 0.0 
0.0 0.0 -9.065739516476e-04 
-9.767996699331e-04 4.467953763507e-05 0.0 
4.467953763507e-05 5.838511550894e-03 0.0 
0.0 0.0 -8.764137937918e-04 
-4.392150575772e-04 -3.259674398810e-04 0.0 
-3.259674398810e-04 1.665337581441e-03 0.0 
0.0 0.0 -2.813159824896e-04 
-4.247097810398e-04 -3.644747280315e-04 0.0 
-3.644747280315e-04 1.471773465299e-03 0.0 
0.0 0.0 -2.533966087790e-04 
-8.177306416292e-04 -6.121829702514e-04 0.0 
-6.121829702514e-04 4.811548278672e-03 0.0 
0.0 0.0 -7.894497706086e-04 
-1.082360538362e-03 -3.264662476232e-04 0.0 
-3.264662476232e-04 7.048376439915e-03 0.0 
0.0 0.0 -1.127529358476e-03 
-1.227748397910e-03 2.361030321983e-04 0.0 
2.361030321983e-04 7.672982991330e-03 0.0 
0.0 0.0 -1.150095860580e-03 
-1.249888144017e-03 2.671434152154e-04 0.0 
2.671434152154e-04 7.859407510661e-03 0.0 
0.0 0.0 -1.179372829571e-03 
-1.222973776595e-03 2.761414432265e-04 0.0 
2.761414432265e-04 7.603174812567e-03 0.0 
0.0 0.0 -1.143369325256e-03 
-8.719124732632e-04 -1.830580736577e-04 0.0 
-1.830580736577e-04 6.874375506754e-03 0.0 
0.0 0.0 -1.144273392007e-03 
6.227260291510e-03 9.908584752762e-04 0.0 
9.908584752762e-04 -3.832512261700e-03 0.0 
0.0 0.0 -5.733740095480e-04 
2.018370588018e-03 4.304618992881e-04 0.0 
4.304618992881e-04 2.233872011253e-03 0.0 
0.0 0.0 -8.590966742019e-04 
3.861313887098e-03 -2.458769026369e-03 0.0 
-2.458769026369e-03 -3.553193830708e-03 0.0 
0.0 0.0 -1.320514527384e-04 
1.180806489711e-03 2.165117361516e-03 0.0 
2.165117361516e-03 3.351813054920e-03 0.0 
0.0 0.0 -8.884627649733e-04 
-3.115080858313e-04 -2.227975807547e-04 0.0 
-2.227975807547e-04 1.202076532669e-03 0.0 
0.0 0.0 -2.162536877156e-04 
-1.055053453560e-03 4.626735760724e-04 0.0 
4.626735760724e-04 6.476326574185e-03 0.0 
0.0 0.0 -1.010319580236e-03 
-1.255576380871e-03 -1.315357551102e-04 0.0 
-1.315357551102e-04 7.338059588025e-03 0.0 
0.0 0.0 -1.122815839103e-03 
-1.267850494462e-03 -1.674624135979e-04 0.0 
-1.674624135979e-04 7.563446267715e-03 0.0 
0.0 0.0 -1.159213750608e-03 
-7.845340361292e-04 4.148833444914e-04 0.0 
4.148833444914e-04 6.957829448533e-03 0.0 
0.0 0.0 -1.171959308352e-03 
-9.109524322491e-04 3.769073773657e-04 0.0 
3.769073773657e-04 4.890276060479e-03 0.0 
0.0 0.0 -7.470952864203e-04 
1.792991109425e-03 2.316405837755e-03 0.0 
2.316405837755e-03 2.886388054881e-03 0.0 
0.0 0.0 -9.162722660995e-04 
2.398740503344e-03 2.467720504141e-03 0.0 
2.467720504141e-03 2.045630092808e-03 0.0 
0.0 0.0 -8.808726170640e-04 
-8.477370711112e-04 3.577431200157e-04 0.0 
3.577431200157e-04 4.525141676784e-03 0.0 
0.0 0.0 -7.048691535495e-04 
-8.122633471838e-04 4.151243295727e-04 0.0 
4.151243295727e-04 4.271492650063e-03 0.0 
0.0 0.0 -6.707530558731e-04 
-8.209482996094e-04 4.682329320479e-04 0.0 
4.682329320479e-04 4.408754927634e-03 0.0 
0.0 0.0 -6.972958566626e-04 
-7.753679773090e-04 4.887256945528e-04 0.0 
4.887256945528e-04 4.013552440422e-03 0.0 
0.0 0.0 -6.359606378414e-04 
-4.177281549139e-04 -1.168672558867e-03 0.0 
-1.168672558867e-03 2.631942087578e-03 0.0 
0.0 0.0 -5.122594947013e-04 
-4.962383683680e-04 -1.157174554661e-03 0.0 
-1.157174554661e-03 2.541178569243e-03 0.0 
0.0 0.0 -4.750188804659e-04 
-6.738869687850e-04 9.052358738217e-04 0.0 
9.052358738217e-04 7.093680755440e-03 0.0 
0.0 0.0 -1.192042136895e-03 
-7.438670074855e-04 7.322374588470e-04 0.0 
7.322374588470e-04 7.035497556536e-03 0.0 
0.0 0.0 -1.178660172201e-03 
-7.190968368118e-04 9.584692470677e-04 0.0 
9.584692470677e-04 7.187468222531e-03 0.0 
0.0 0.0 -1.193029175878e-03 
-9.852232269701e-04 6.735837874152e-04 0.0 
6.735837874152e-04 7.333564235061e-03 0.0 
0.0 0.0 -1.168165168231e-03 
-9.546594480079e-04 2.616217571553e-04 0.0 
2.616217571553e-04 7.292487279639e-03 0.0 
0.0 0.0 -1.200910491468e-03 
-7.255155442232e-04 2.821761838213e-04 0.0 
2.821761838213e-04 6.840378932784e-03 0.0 
0.0 0.0 -1.164168769488e-03 
-6.028560444752e-04 -1.360178339637e-04 0.0 
-1.360178339637e-04 2.675687027615e-03 0.0 
0.0 0.0 -4.227350873389e-04 
-6.995859491383e-04 6.324240008870e-04 0.0 
6.324240008870e-04 3.471666804460e-03 0.0 
0.0 0.0 -5.646260317871e-04 
-1.245127779796e-03 1.777850177793e-04 0.0 
1.777850177793e-04 7.993741479566e-03 0.0 
0.0 0.0 -1.194151889699e-03 
-8.817872830960e-04 3.208786017712e-04 0.0 
3.208786017712e-04 4.774377627364e-03 0.0 
0.0 0.0 -7.390869131010e-04 
-1.164936831278e-03 -3.113795227657e-04 0.0 
-3.113795227657e-04 7.515893028419e-03 0.0 
0.0 0.0 -1.192835421428e-03 
-1.142129895980e-03 -3.204237901470e-04 0.0 
-3.204237901470e-04 7.305220282504e-03 0.0 
0.0 0.0 -1.156047193884e-03 
2.453392450754e-03 -1.825973286912e-03 0.0 
-1.825973286912e-03 -2.389596965046e-03 0.0 
0.0 0.0 -2.734092244600e-05 
3.775146080424e-03 -5.069722679568e-03 0.0 
-5.069722679568e-03 -3.483889240525e-03 0.0 
0.0 0.0 -1.248243599565e-04 
-1.231567197499e-03 6.211834964842e-05 0.0 
6.211834964842e-05 7.963702026826e-03 0.0 
0.0 0.0 -1.184588873336e-03 
1.534784275693e-04 4.461326553962e-03 0.0 
4.461326553962e-03 1.337927463907e-03 0.0 
0.0 0.0 -3.811925308841e-04 
-2.326708183723e-04 2.652402408692e-03 0.0 
2.652402408692e-03 1.984511339420e-03 0.0 
0.0 0.0 -4.158690271831e-04 
4.967783217699e-04 5.375627538396e-03 0.0 
5.375627538396e-03 7.522267978160e-04 0.0 
0.0 0.0 -3.660215567096e-04 
-1.330527207980e-03 -3.853221662851e-05 0.0 
-3.853221662851e-05 8.239463133450e-03 0.0 
0.0 0.0 -1.258310293365e-03 
-8.465756460554e-04 5.727197951411e-07 0.0 
5.727197951411e-07 4.947192301730e-03 0.0 
0.0 0.0 -7.479256703001e-04 
-1.285435156603e-03 -1.236167483815e-04 0.0 
-1.236167483815e-04 7.770617594905e-03 0.0 
0.0 0.0 -1.189418985649e-03 
-7.744068399611e-04 5.950771192320e-04 0.0 
5.950771192320e-04 4.259141188703e-03 0.0 
0.0 0.0 -6.884682336192e-04 
-1.252365039908e-03 8.497968466371e-05 0.0 
8.497968466371e-05 8.173452803744e-03 0.0 
0.0 0.0 -1.216510697198e-03 
1.780182758459e-03 2.009518410573e-03 0.0 
2.009518410573e-03 3.054516096159e-03 0.0 
0.0 0.0 -9.449116413281e-04 
6.930336579336e-04 2.717782638525e-03 0.0 
2.717782638525e-03 2.315032128419e-03 0.0 
0.0 0.0 -6.353966017694e-04 
-4.711250279672e-04 -1.850727195337e-04 0.0 
-1.850727195337e-04 6.080282283344e-03 0.0 
0.0 0.0 -1.078177493492e-03 
-1.200545941931e-03 2.302554044873e-05 0.0 
2.302554044873e-05 7.723131628604e-03 0.0 
0.0 0.0 -1.149140729088e-03 
-1.267685038875e-03 6.016813044477e-05 0.0 
6.016813044477e-05 8.228074956414e-03 0.0 
0.0 0.0 -1.221625961084e-03 
-9.734656256454e-04 9.189307336811e-05 0.0 
9.189307336811e-05 5.749626761027e-03 0.0 
0.0 0.0 -8.638707813346e-04 
-9.480895872449e-04 4.301450456172e-05 0.0 
4.301450456172e-05 5.516146053233e-03 0.0 
0.0 0.0 -8.327709333130e-04 
-1.011335939965e-03 1.092245285963e-04 0.0 
1.092245285963e-04 5.940162525294e-03 0.0 
0.0 0.0 -8.925140200429e-04 
4.116061466238e-03 3.716156522376e-03 0.0 
3.716156522376e-03 -3.588705834010e-03 0.0 
0.0 0.0 -2.260095566693e-04 
3.160157464944e-03 4.242599741851e-03 0.0 
4.242599741851e-03 -2.868258307178e-03 0.0 
0.0 0.0 -1.250996390425e-04 
-1.210084270230e-03 9.714327804011e-05 0.0 
9.714327804011e-05 7.658599637129e-03 0.0 
0.0 0.0 -1.142090266074e-03 
-7.141279186037e-04 -2.802255352289e-04 0.0 
-2.802255352289e-04 3.181146952729e-03 0.0 
0.0 0.0 -5.006138788623e-04 
-7.694336124780e-04 -2.009358515531e-04 0.0 
-2.009358515531e-04 3.447879024720e-03 0.0 
0.0 0.0 -5.359218444892e-04 
-5.552155606093e-04 -8.313172136283e-04 0.0 
-8.313172136283e-04 1.917610481523e-03 0.0 
0.0 0.0 -3.334096804080e-04 
-5.855222745600e-04 -8.890134040167e-04 0.0 
-8.890134040167e-04 2.304658271308e-03 0.0 
0.0 0.0 -3.985542937016e-04 
-9.453814008689e-04 -4.031453143009e-04 0.0 
-4.031453143009e-04 4.927324523234e-03 0.0 
0.0 0.0 -7.728092966600e-04 
-8.970888917955e-04 -4.820738487373e-04 0.0 
-4.820738487373e-04 4.692923205728e-03 0.0 
0.0 0.0 -7.441750962829e-04 
-1.057585005233e-03 4.777756013197e-04 0.0 
4.777756013197e-04 6.625238408207e-03 0.0 
0.0 0.0 -1.038692069610e-03 
-1.108626014693e-03 4.632490588969e-04 0.0 
4.632490588969e-04 6.908491944325e-03 0.0 
0.0 0.0 -1.074129358999e-03 
-7.672600952654e-04 7.362721418364e-04 0.0 
7.362721418364e-04 5.866474567586e-03 0.0 
0.0 0.0 -9.675620497173e-04 
3.195348803836e-04 -2.693959329119e-04 0.0 
-2.693959329119e-04 4.482415405219e-03 0.0 
0.0 0.0 -9.439558448496e-04 
5.965780829046e-04 -3.767314733331e-04 0.0 
-3.767314733331e-04 3.805103152156e-03 0.0 
0.0 0.0 -8.783802297791e-04 
1.245879448662e-03 -2.211794381508e-04 0.0 
-2.211794381508e-04 2.967620087092e-03 0.0 
0.0 0.0 -8.502765121185e-04 
-1.259796436841e-03 1.397569485309e-04 0.0 
1.397569485309e-04 8.039016122005e-03 0.0 
0.0 0.0 -1.199867006878e-03 
-1.287397602500e-03 1.387283529904e-04 0.0 
1.387283529904e-04 8.359284824254e-03 0.0 
0.0 0.0 -1.242728214876e-03 
-3.276054485537e-04 -1.102561956996e-03 0.0 
-1.102561956996e-03 2.719325088580e-03 0.0 
0.0 0.0 -5.488632449009e-04 
2.700187874665e-04 -1.341753750340e-03 0.0 
-1.341753750340e-03 1.892041748697e-03 0.0 
0.0 0.0 -5.212126360957e-04 
-5.194133645792e-04 -1.055659007126e-03 0.0 
-1.055659007126e-03 2.949517889644e-03 0.0 
0.0 0.0 -5.390128571062e-04 
-1.267707936259e-03 2.118212896833e-04 0.0 
2.118212896833e-04 8.185373915988e-03 0.0 
0.0 0.0 -1.223056365294e-03 
-1.302765377273e-03 -1.484462634259e-04 0.0 
-1.484462634259e-04 8.004925592989e-03 0.0 
0.0 0.0 -1.224004481682e-03 
-1.287300987604e-03 -2.136982349667e-04 0.0 
-2.136982349667e-04 7.780826338296e-03 0.0 
0.0 0.0 -1.195820777905e-03 
-2.832529258607e-04 -2.494591043419e-04 0.0 
-2.494591043419e-04 1.024201089409e-03 0.0 
0.0 0.0 -1.882176919714e-04 
-3.969707252897e-04 -4.311951738694e-04 0.0 
-4.311951738694e-04 1.271754487823e-03 0.0 
0.0 0.0 -2.310783895037e-04 
2.096922567423e-03 9.481350770218e-03 0.0 
9.481350770218e-03 -1.257709305924e-03 0.0 
0.0 0.0 -3.411234323309e-04 
2.914665647588e-03 1.030489081604e-02 0.0 
1.030489081604e-02 -2.336627425066e-03 0.0 
0.0 0.0 -2.477306667953e-04 
-1.268592166038e-03 3.040791407146e-04 0.0 
3.040791407146e-04 8.023493563003e-03 0.0 
0.0 0.0 -1.207258722210e-03 
-1.243812686443e-03 3.149820227485e-04 0.0 
3.149820227485e-04 7.787606541598e-03 0.0 
0.0 0.0 -1.172631524865e-03 
-1.292321070540e-03 2.959466161544e-04 0.0 
2.959466161544e-04 8.333939565192e-03 0.0 
0.0 0.0 -1.247471551777e-03 
-5.223015362984e-04 -5.966006200107e-05 0.0 
-5.966006200107e-05 2.388783331191e-03 0.0 
0.0 0.0 -3.801539159394e-04 
5.026252209957e-04 1.353964876934e-03 0.0 
1.353964876934e-03 4.944624924576e-03 0.0 
0.0 0.0 -1.045322365442e-03 
-1.085731128817e-03 -1.678620804605e-04 0.0 
-1.678620804605e-04 7.457141749797e-03 0.0 
0.0 0.0 -1.207899217314e-03 
-9.653766809198e-04 -1.069089229657e-04 0.0 
-1.069089229657e-04 7.174286549711e-03 0.0 
0.0 0.0 -1.178012378629e-03 
-1.169146255923e-03 -2.121713741949e-04 0.0 
-2.121713741949e-04 7.798947947966e-03 0.0 
0.0 0.0 -1.244624083072e-03 
-5.453979866654e-04 6.066554682782e-04 0.0 
6.066554682782e-04 6.555798981967e-03 0.0 
0.0 0.0 -1.142102124289e-03 
-1.013429513107e-03 3.655205545861e-04 0.0 
3.655205545861e-04 7.377067471166e-03 0.0 
0.0 0.0 -1.205428683694e-03 
-1.019897659641e-03 4.813484216238e-04 0.0 
4.813484216238e-04 7.441233466956e-03 0.0 
0.0 0.0 -1.209323031234e-03 
9.321341343348e-04 -4.741740543834e-05 0.0 
-4.741740543834e-05 -9.266099038323e-04 0.0 
0.0 0.0 -2.367527358182e-06 
-1.243581183883e-03 1.333985162286e-05 0.0 
1.333985162286e-05 8.050404267198e-03 0.0 
0.0 0.0 -1.199992767657e-03 
-9.467227888159e-04 4.157282563709e-05 0.0 
4.157282563709e-05 5.565131892238e-03 0.0 
0.0 0.0 -8.371571859873e-04 
9.337166092236e-04 -6.692139490126e-04 0.0 
-6.692139490126e-04 -9.337166092236e-04 0.0 
0.0 0.0 0.0 
-9.052370495583e-04 2.926470670919e-05 0.0 
2.926470670919e-05 5.359734394624e-03 0.0 
0.0 0.0 -8.070151920887e-04 
-9.464808288455e-04 2.890706983171e-05 0.0 
2.890706983171e-05 5.631422995547e-03 0.0 
0.0 0.0 -8.451615393777e-04 
-8.746039380960e-04 1.411235588614e-05 0.0 
1.411235588614e-05 5.099179134377e-03 0.0 
0.0 0.0 -7.748096441827e-04 
-4.043228169997e-04 -4.987598217760e-05 0.0 
-4.987598217760e-05 1.919858664121e-03 0.0 
0.0 0.0 -3.155299188714e-04 
-9.342623020306e-04 6.996522255594e-05 0.0 
6.996522255594e-05 5.399295489727e-03 0.0 
0.0 0.0 -8.174106193842e-04 
-9.784066260017e-04 9.518359088927e-05 0.0 
9.518359088927e-05 5.690330335138e-03 0.0 
0.0 0.0 -8.556612431672e-04 
-1.848448969468e-04 -2.080867899338e-04 0.0 
-2.080867899338e-04 7.164905542871e-04 0.0 
0.0 0.0 -1.484379413792e-04 
-1.288411893385e-03 2.088493887645e-04 0.0 
2.088493887645e-04 8.418681062039e-03 0.0 
0.0 0.0 -1.259301554906e-03 
-1.756794603790e-04 -1.355890425743e-04 0.0 
-1.355890425743e-04 7.416554994656e-04 0.0 
0.0 0.0 -1.555489432776e-04 
-1.976593762146e-04 -1.418821488879e-04 0.0 
-1.418821488879e-04 9.406849208869e-04 0.0 
0.0 0.0 -1.806578101979e-04 
-1.201046689643e-03 -2.954808681697e-04 0.0 
-2.954808681697e-04 7.775612660441e-03 0.0 
0.0 0.0 -1.221214701962e-03 
-1.189783866574e-03 -3.147730725178e-04 0.0 
-3.147730725178e-04 7.544251850061e-03 0.0 
0.0 0.0 -1.184344882880e-03 
-1.255201532556e-03 -3.138077392023e-04 0.0 
-3.138077392023e-04 7.995797572139e-03 0.0 
0.0 0.0 -1.247726601234e-03 
-1.240131757912e-03 -2.854581707310e-04 0.0 
-2.854581707310e-04 7.755129215709e-03 0.0 
0.0 0.0 -1.211018817991e-03 
-1.178065560448e-03 -3.176973578615e-04 0.0 
-3.176973578615e-04 7.320283461016e-03 0.0 
0.0 0.0 -1.147066289601e-03 
-1.222397278732e-03 -2.815307542264e-04 0.0 
-2.815307542264e-04 7.565615913449e-03 0.0 
0.0 0.0 -1.176490610025e-03 
-9.163713044728e-04 2.842739858528e-05 0.0 
2.842739858528e-05 5.314561917383e-03 0.0 
0.0 0.0 -7.985989294648e-04 
-1.274574997316e-03 -2.683950520862e-04 0.0 
-2.683950520862e-04 8.060277687178e-03 0.0 
0.0 0.0 -1.249018369598e-03 
-1.258852476870e-03 -2.546999081133e-04 0.0 
-2.546999081133e-04 7.798203538470e-03 0.0 
0.0 0.0 -1.207442871744e-03 
-1.315317272271e-03 -2.575611195837e-04 0.0 
-2.575611195837e-04 8.330215412111e-03 0.0 
0.0 0.0 -1.277927415301e-03 
-7.631007201002e-04 1.250829463481e-03 0.0 
1.250829463481e-03 3.881168977851e-03 0.0 
0.0 0.0 -6.108003466767e-04 
-1.717525778958e-04 2.247681638505e-03 0.0 
2.247681638505e-03 2.290195800214e-03 0.0 
0.0 0.0 -4.789358348571e-04 
-5.583649887841e-04 1.087381592928e-03 0.0 
1.087381592928e-03 2.562518902817e-03 0.0 
0.0 0.0 -4.527251363391e-04 
-5.300594799484e-04 1.662636340479e-03 0.0 
1.662636340479e-03 2.189928297562e-03 0.0 
0.0 0.0 -3.875663759467e-04 
-1.031278899500e-03 7.176122761258e-04 0.0 
7.176122761258e-04 7.806861354853e-03 0.0 
0.0 0.0 -1.240180566941e-03 
-1.158339416645e-03 5.601298443404e-04 0.0 
5.601298443404e-04 7.716503795015e-03 0.0 
0.0 0.0 -1.200590015451e-03 
-1.243705293709e-03 -9.256877991256e-05 0.0 
-9.256877991256e-05 7.122808590461e-03 0.0 
0.0 0.0 -1.087555896896e-03 
-1.202734584511e-03 -9.601844950182e-05 0.0 
-9.601844950182e-05 6.680089324953e-03 0.0 
0.0 0.0 -1.020738973070e-03 
-9.185583597048e-04 2.613338660199e-05 0.0 
2.613338660199e-05 5.392223531156e-03 0.0 
0.0 0.0 -8.108182148135e-04 
-9.103297472006e-04 4.766877897123e-06 0.0 
4.766877897123e-06 5.361690236980e-03 0.0 
0.0 0.0 -8.077352941366e-04 
-9.704696328324e-04 5.332193735867e-05 0.0 
5.332193735867e-05 5.783610110985e-03 0.0 
0.0 0.0 -8.678526801547e-04 
-9.618865758326e-04 7.689592341134e-06 0.0 
7.689592341134e-06 5.712312077429e-03 0.0 
0.0 0.0 -8.609153521579e-04 
-1.020016484653e-03 5.295869978670e-05 0.0 
5.295869978670e-05 6.152608316973e-03 0.0 
0.0 0.0 -9.200517378055e-04 
-1.001436562516e-03 -1.946934861049e-08 0.0 
-1.946934861049e-08 6.084870222159e-03 0.0 
0.0 0.0 -9.108947733944e-04 
-1.057814937538e-03 -6.724482469216e-06 0.0 
-6.724482469216e-06 6.510312548520e-03 0.0 
0.0 0.0 -9.726914458129e-04 
-1.150899136267e-03 4.975916795718e-04 0.0 
4.975916795718e-04 7.827174890910e-03 0.0 
0.0 0.0 -1.245087786853e-03 
-3.948110261478e-05 5.556404395704e-03 0.0 
5.556404395704e-03 1.225484441826e-03 0.0 
0.0 0.0 -3.403956918982e-04 
-8.664507093454e-04 1.136204724770e-03 0.0 
1.136204724770e-03 4.410466197699e-03 0.0 
0.0 0.0 -6.783069842581e-04 
-1.070073943040e-03 1.534614052284e-04 0.0 
1.534614052284e-04 7.557178290268e-03 0.0 
0.0 0.0 -1.228261380050e-03 
-9.160699299852e-04 1.416923257486e-04 0.0 
1.416923257486e-04 7.158360861030e-03 0.0 
0.0 0.0 -1.187396807988e-03 
-7.361366521946e-04 5.595143056741e-04 0.0 
5.595143056741e-04 3.737139043141e-03 0.0 
0.0 0.0 -6.000944487132e-04 
-6.829406474039e-04 1.185125222986e-03 0.0 
1.185125222986e-03 3.346281817844e-03 0.0 
0.0 0.0 -5.401620014017e-04 
-1.203049851257e-03 -2.728203523462e-04 0.0 
-2.728203523462e-04 7.833657430654e-03 0.0 
0.0 0.0 -1.238794375355e-03 
2.120741248998e-03 3.985255301318e-03 0.0 
3.985255301318e-03 3.386446001405e-04 0.0 
0.0 0.0 -5.600314934590e-04 
-1.321820784768e-03 2.376560243328e-04 0.0 
2.376560243328e-04 8.684022372100e-03 0.0 
0.0 0.0 -1.295459716840e-03 
1.234444934798e-03 3.434028493910e-03 0.0 
3.434028493910e-03 -1.232077031931e-03 0.0 
0.0 0.0 -1.014815514665e-06 
1.997134226101e-03 3.422229643320e-03 0.0 
3.422229643320e-03 -1.940123247154e-03 0.0 
0.0 0.0 -2.443327669190e-05 
1.366032999093e-03 3.412889272438e-03 0.0 
3.412889272438e-03 1.363701561673e-03 0.0 
0.0 0.0 -5.969207367497e-04 
-7.802351733359e-04 5.259462622456e-04 0.0 
5.259462622456e-04 4.139237033551e-03 0.0 
0.0 0.0 -6.620222007989e-04 
-5.692501729814e-04 9.764348261974e-04 0.0 
9.764348261974e-04 2.948231996653e-03 0.0 
0.0 0.0 -5.157319100482e-04 
-6.122305487160e-04 8.391575513802e-04 0.0 
8.391575513802e-04 2.910542851256e-03 0.0 
0.0 0.0 -4.917183783407e-04 
-3.377675120075e-05 -1.997543074563e-04 0.0 
-1.997543074563e-04 5.240121085975e-03 0.0 
0.0 0.0 -1.010552660601e-03 
-3.204615651146e-04 -4.841454347256e-04 0.0 
-4.841454347256e-04 1.065843889916e-03 0.0 
0.0 0.0 -2.207468123314e-04 
1.126046733775e-03 6.985013215450e-03 0.0 
6.985013215450e-03 -7.799443665362e-05 0.0 
0.0 0.0 -3.729799092550e-04 
-1.062224956052e-03 6.282474994029e-05 0.0 
6.282474994029e-05 6.566502947635e-03 0.0 
0.0 0.0 -9.796923013958e-04 
7.674185400101e-04 8.816928821404e-03 0.0 
8.816928821404e-03 8.082168566215e-05 0.0 
0.0 0.0 -3.472462715210e-04 
-1.226995326804e-03 -4.519473023836e-05 0.0 
-4.519473023836e-05 6.918120984331e-03 0.0 
0.0 0.0 -1.055800198362e-03 
3.293455659152e-03 3.987388836280e-03 0.0 
3.987388836280e-03 -6.901894184013e-04 0.0 
0.0 0.0 -5.891999696964e-04 
-7.588500349801e-04 6.513356924725e-04 0.0 
6.513356924725e-04 4.370877970735e-03 0.0 
0.0 0.0 -7.153500975001e-04 
1.431232615666e-03 5.998093245517e-03 0.0 
5.998093245517e-03 -1.274258460869e-04 0.0 
0.0 0.0 -3.843598907912e-04 
4.906388683863e-04 3.370365670762e-03 0.0 
3.370365670762e-03 1.747266550576e-03 0.0 
0.0 0.0 -5.080103017801e-04 
-9.857070044825e-04 3.514582932795e-04 0.0 
3.514582932795e-04 5.605984683384e-03 0.0 
0.0 0.0 -8.638580894607e-04 
-9.566672598969e-04 2.556664326387e-04 0.0 
2.556664326387e-04 5.284930257865e-03 0.0 
0.0 0.0 -8.086477316853e-04 
-9.204142732436e-04 2.914181473186e-04 0.0 
2.914181473186e-04 5.036403952363e-03 0.0 
0.0 0.0 -7.738406155293e-04 
4.533248469402e-03 3.679312100375e-03 0.0 
3.679312100375e-03 -1.780040331541e-03 0.0 
0.0 0.0 -6.178822433291e-04 
-6.590903578959e-04 7.346652497702e-04 0.0 
7.346652497702e-04 3.194254448728e-03 0.0 
0.0 0.0 -5.288330985435e-04 
-6.091631226836e-04 1.249378991648e-03 0.0 
1.249378991648e-03 2.759783456720e-03 0.0 
0.0 0.0 -4.617239487405e-04 
-9.084122990405e-04 4.766608561051e-04 0.0 
4.766608561051e-04 5.217677913222e-03 0.0 
0.0 0.0 -8.213029907542e-04 
-1.196636206004e-03 2.937722451120e-04 0.0 
2.937722451120e-04 7.346814907567e-03 0.0 
0.0 0.0 -1.107475121065e-03 
-1.218143538823e-03 3.322225839887e-04 0.0 
3.322225839887e-04 7.523071285648e-03 0.0 
0.0 0.0 -1.136341617999e-03 
-1.260255205402e-03 3.483848197279e-04 0.0 
3.483848197279e-04 7.943523748013e-03 0.0 
0.0 0.0 -1.199268560344e-03 
-1.236398534658e-03 3.622286970254e-04 0.0 
3.622286970254e-04 7.698663143048e-03 0.0 
0.0 0.0 -1.164598082371e-03 
-1.187519623503e-03 3.369788044843e-04 0.0 
3.369788044843e-04 7.262535120341e-03 0.0 
0.0 0.0 -1.100413285504e-03 
-1.201927894883e-03 3.622228794556e-04 0.0 
3.622228794556e-04 7.428935513365e-03 0.0 
0.0 0.0 -1.129075729544e-03 
-1.251749756802e-03 4.013558701664e-04 0.0 
4.013558701664e-04 7.861186353057e-03 0.0 
0.0 0.0 -1.193594387005e-03 
-1.212961772203e-03 4.013424172495e-04 0.0 
4.013424172495e-04 7.607641408015e-03 0.0 
0.0 0.0 -1.159256375294e-03 
-1.275748773412e-03 4.170784326894e-04 0.0 
4.170784326894e-04 8.123816889762e-03 0.0 
0.0 0.0 -1.234286862126e-03 
-1.231663961214e-03 4.170891063283e-04 0.0 
4.170891063283e-04 7.767346293695e-03 0.0 
0.0 0.0 -1.187309181180e-03 
-1.180167111311e-03 4.146130725523e-04 0.0 
4.146130725523e-04 7.319280806481e-03 0.0 
0.0 0.0 -1.120864512401e-03 
-1.199520853126e-03 4.394329503130e-04 0.0 
4.394329503130e-04 7.469647570104e-03 0.0 
0.0 0.0 -1.147759711419e-03 
-1.246114513889e-03 4.512851502766e-04 0.0 
4.512851502766e-04 7.897003429628e-03 0.0 
0.0 0.0 -1.207767947030e-03 
-1.142819753357e-03 4.230226692438e-04 0.0 
4.230226692438e-04 7.034885546341e-03 0.0 
0.0 0.0 -1.082593982084e-03 
-1.161095070267e-03 2.120867803638e-04 0.0 
2.120867803638e-04 7.844111974654e-03 0.0 
0.0 0.0 -1.264544343569e-03 
1.512782077071e-03 3.079208612958e-03 0.0 
3.079208612958e-03 1.615945599704e-03 0.0 
0.0 0.0 -6.621140475474e-04 
1.701660793867e-03 1.016387829462e-03 0.0 
1.016387829462e-03 -1.632798619131e-03 0.0 
0.0 0.0 -2.951236060129e-05 
3.398139945478e-03 8.641011716115e-03 0.0 
8.641011716115e-03 -3.165622372536e-03 0.0 
0.0 0.0 -9.965038840371e-05 
-8.122559684108e-04 5.858127476170e-04 0.0 
5.858127476170e-04 4.660958103986e-03 0.0 
0.0 0.0 -7.509174086159e-04 
-1.326294875917e-03 4.475525367279e-04 0.0 
4.475525367279e-04 8.581090605175e-03 0.0 
0.0 0.0 -1.299806302097e-03 
-1.329372981724e-03 3.864120920022e-04 0.0 
3.864120920022e-04 8.651254845127e-03 0.0 
0.0 0.0 -1.301753673823e-03 
4.345034386736e-03 4.993081598977e-03 0.0 
4.993081598977e-03 -2.439850417611e-03 0.0 
0.0 0.0 -4.895692906686e-04 
-1.244671817157e-03 5.736516823667e-04 0.0 
5.736516823667e-04 8.375372264381e-03 0.0 
0.0 0.0 -1.303413959896e-03 
-9.359328158380e-04 3.353086376080e-04 0.0 
3.353086376080e-04 5.191229383814e-03 0.0 
0.0 0.0 -8.012154088905e-04 
4.889055457544e-03 3.475013347690e-03 0.0 
3.475013347690e-03 -4.047132887161e-03 0.0 
0.0 0.0 -3.242207140944e-04 
-1.278458755237e-03 4.958711377971e-04 0.0 
4.958711377971e-04 8.346567121106e-03 0.0 
0.0 0.0 -1.304286792737e-03 
-1.166816141077e-03 3.067295782393e-04 0.0 
3.067295782393e-04 7.086165986606e-03 0.0 
0.0 0.0 -1.071440646998e-03 
-1.135318690764e-03 3.102645881689e-04 0.0 
3.102645881689e-04 6.820307156207e-03 0.0 
0.0 0.0 -1.034857077839e-03 
-1.114281868751e-03 2.783252876259e-04 0.0 
2.783252876259e-04 6.647188393663e-03 0.0 
0.0 0.0 -1.006057961993e-03 
-1.324485485700e-03 3.178425552296e-04 0.0 
3.178425552296e-04 8.703712057522e-03 0.0 
0.0 0.0 -1.305867370806e-03 
-1.046143216171e-03 1.338104735178e-04 0.0 
1.338104735178e-04 6.142970752386e-03 0.0 
0.0 0.0 -9.232948652302e-04 
-1.261216399776e-03 3.398370476000e-04 0.0 
3.398370476000e-04 8.240407625413e-03 0.0 
0.0 0.0 -1.306016332489e-03 
2.096265252098e-03 1.375215628211e-03 0.0 
1.375215628211e-03 2.445675689920e-03 0.0 
0.0 0.0 -9.039903713831e-04 
2.721600282388e-03 1.971040453884e-03 0.0 
1.971040453884e-03 1.653136838798e-03 0.0 
0.0 0.0 -8.747633066757e-04 
3.629093887080e-03 2.459594944930e-03 0.0 
2.459594944930e-03 3.459923539751e-04 0.0 
0.0 0.0 -8.101682821885e-04 
-1.166183845535e-03 3.746000758126e-04 0.0 
3.746000758126e-04 7.154603019155e-03 0.0 
0.0 0.0 -1.092245366321e-03 
-1.243382207926e-03 7.139344382452e-05 0.0 
7.139344382452e-05 8.142027759390e-03 0.0 
0.0 0.0 -1.302677999426e-03 
-1.136703257294e-03 1.994571599130e-05 0.0 
1.994571599130e-05 7.736350990020e-03 0.0 
0.0 0.0 -1.248400714067e-03 
-1.139179700515e-03 -5.832838074802e-05 0.0 
-5.832838074802e-05 7.742835606473e-03 0.0 
0.0 0.0 -1.248426544684e-03 
-9.514787444523e-04 8.693537553092e-06 0.0 
8.693537553092e-06 7.209757395901e-03 0.0 
0.0 0.0 -1.189114855724e-03 
-1.245046049368e-03 -7.954937012982e-05 0.0 
-7.954937012982e-05 8.162015620032e-03 0.0 
0.0 0.0 -1.303398793257e-03 
-1.317557993026e-03 4.897200743631e-04 0.0 
4.897200743631e-04 8.552423064594e-03 0.0 
0.0 0.0 -1.306665994082e-03 
-1.302919468517e-03 5.208007562318e-04 0.0 
5.208007562318e-04 8.515403303039e-03 0.0 
0.0 0.0 -1.308500709484e-03 
4.596930475759e-04 -1.688979419860e-03 0.0 
-1.688979419860e-03 1.273452398892e-03 0.0 
0.0 0.0 -4.564773689951e-04 
1.748511700885e-03 -1.950415521133e-03 0.0 
-1.950415521133e-03 1.780115832584e-04 0.0 
0.0 0.0 -4.934415926888e-04 
1.379794792606e-03 -1.436806778830e-03 0.0 
-1.436806778830e-03 9.795144853490e-04 0.0 
0.0 0.0 -5.576035839405e-04 
3.142735145708e-03 -1.768317550274e-03 0.0 
-1.768317550274e-03 -1.010011433184e-03 0.0 
0.0 0.0 -5.298816096007e-04 
3.710659623462e-03 -2.534862754431e-03 0.0 
-2.534862754431e-03 -2.033215415605e-03 0.0 
0.0 0.0 -4.652367627802e-04 
4.953400619245e-03 -1.676425503417e-03 0.0 
-1.676425503417e-03 -3.048080980510e-03 0.0 
0.0 0.0 -5.016361848483e-04 
4.401425171667e-03 -1.099098262716e-03 0.0 
-1.099098262716e-03 -2.046745639179e-03 0.0 
0.0 0.0 -5.657331850765e-04 
6.001773586231e-03 -6.962017624446e-04 0.0 
-6.962017624446e-04 -4.319953340272e-03 0.0 
0.0 0.0 -4.731795164401e-04 
-1.159618464905e-03 4.658233381479e-04 0.0 
4.658233381479e-04 7.343394673730e-03 0.0 
0.0 0.0 -1.138512926666e-03 
-1.264954689887e-03 -1.904964022353e-04 0.0 
-1.904964022353e-04 8.221334432808e-03 0.0 
0.0 0.0 -1.305779161548e-03 
-7.747711705181e-04 -5.121765711313e-04 0.0 
-5.121765711313e-04 5.367910934867e-03 0.0 
0.0 0.0 -9.007942405787e-04 
-4.964147724369e-04 -5.396489152664e-04 0.0 
-5.396489152664e-04 4.890786072944e-03 0.0 
0.0 0.0 -8.713600568839e-04 
-4.229904448003e-04 -6.376353994281e-04 0.0 
-6.376353994281e-04 4.418272370492e-03 0.0 
0.0 0.0 -8.059887332522e-04 
-8.449920134059e-04 -5.153788440303e-04 0.0 
-5.153788440303e-04 4.260095117302e-03 0.0 
0.0 0.0 -6.781883600425e-04 
-8.428803748540e-04 -5.674043660998e-04 0.0 
-5.674043660998e-04 4.450165882994e-03 0.0 
0.0 0.0 -7.153987595530e-04 
-8.942422948913e-04 -5.207798333702e-04 0.0 
-5.207798333702e-04 4.885926297656e-03 0.0 
0.0 0.0 -7.812419408864e-04 
-8.377845004557e-04 -4.501363391243e-04 0.0 
-4.501363391243e-04 4.061067246097e-03 0.0 
0.0 0.0 -6.407943132712e-04 
6.845012909226e-04 1.819316016034e-03 0.0 
1.819316016034e-03 4.463525919901e-03 0.0 
0.0 0.0 -9.876394229526e-04 
-1.270638922106e-03 -2.525883056993e-04 0.0 
-2.525883056993e-04 8.245623635122e-03 0.0 
0.0 0.0 -1.305003056577e-03 
1.452895462551e-03 1.134935443747e-04 0.0 
1.134935443747e-04 2.978796574200e-03 0.0 
0.0 0.0 -8.871663004355e-04 
-7.828155216857e-04 -6.575282962370e-04 0.0 
-6.575282962370e-04 4.196243675374e-03 0.0 
0.0 0.0 -6.865966444657e-04 
-8.908351355140e-04 9.702867664421e-05 0.0 
9.702867664421e-05 4.953510345307e-03 0.0 
0.0 0.0 -7.516786372745e-04 
-9.428178873818e-04 1.510891929034e-04 0.0 
1.510891929034e-04 5.341754956276e-03 0.0 
0.0 0.0 -8.094822736869e-04 
-9.489012184647e-04 1.441944320473e-04 0.0 
1.441944320473e-04 5.346848053026e-03 0.0 
0.0 0.0 -8.097394517040e-04 
-9.928370876702e-04 1.565528389037e-04 0.0 
1.565528389037e-04 5.757287346966e-03 0.0 
0.0 0.0 -8.733121467894e-04 
-9.420662265250e-04 8.672453308222e-05 0.0 
8.672453308222e-05 5.390349708032e-03 0.0 
0.0 0.0 -8.155917408702e-04 
-9.920889169566e-04 -3.299549002211e-04 0.0 
-3.299549002211e-04 5.156290872581e-03 0.0 
0.0 0.0 -8.015266587451e-04 
-1.034393455446e-03 -2.593382357018e-04 0.0 
-2.593382357018e-04 5.377589720533e-03 0.0 
0.0 0.0 -8.302790088839e-04 
-1.016724768056e-03 -2.052940986145e-04 0.0 
-2.052940986145e-04 5.161883654298e-03 0.0 
0.0 0.0 -7.937858958383e-04 
-1.069749204098e-03 -1.931193338339e-04 0.0 
-1.931193338339e-04 5.589690211797e-03 0.0 
0.0 0.0 -8.590670690980e-04 
-1.045250008444e-03 -1.524643402440e-04 0.0 
-1.524643402440e-04 5.354709247412e-03 0.0 
0.0 0.0 -8.213578559547e-04 
-9.891061891856e-04 -1.661511418362e-04 0.0 
-1.661511418362e-04 4.952759689804e-03 0.0 
0.0 0.0 -7.608744282309e-04 
-1.097326614700e-03 -1.343981642378e-04 0.0 
-1.343981642378e-04 5.787368511626e-03 0.0 
0.0 0.0 -8.866101721103e-04 
-1.072266853954e-03 -7.465649989587e-05 0.0 
-7.465649989587e-05 5.530930704335e-03 0.0 
0.0 0.0 -8.437388122980e-04 
-8.749604405334e-04 5.210753762548e-05 0.0 
5.210753762548e-05 4.958547900325e-03 0.0 
0.0 0.0 -7.509531518293e-04 
8.517851422066e-04 -4.173633125225e-03 0.0 
-4.173633125225e-03 -5.706321706279e-04 0.0 
0.0 0.0 -1.166748993516e-04 
1.069340826270e-03 -4.279425807226e-03 0.0 
-4.279425807226e-03 -7.509563499268e-04 0.0 
0.0 0.0 -1.364504898612e-04 
6.453520275638e-05 -1.053762941365e-03 0.0 
-1.053762941365e-03 3.549528529070e-04 0.0 
0.0 0.0 -1.797805952843e-04 
6.050841193253e-04 -2.418102611625e-03 0.0 
-2.418102611625e-03 -3.537466805353e-05 0.0 
0.0 0.0 -2.441611934022e-04 
2.596465531440e-03 -5.780156938977e-03 0.0 
-5.780156938977e-03 -2.153394443849e-03 0.0 
0.0 0.0 -1.898876089678e-04 
1.487255865261e-03 -3.390857246576e-03 0.0 
-3.390857246576e-03 -7.772974051652e-04 0.0 
0.0 0.0 -3.042679114694e-04 
3.711180325263e-03 -5.678421847428e-03 0.0 
-5.678421847428e-03 -3.160870278798e-03 0.0 
0.0 0.0 -2.358471627707e-04 
2.469040200081e-03 -6.118944805719e-03 0.0 
-6.118944805719e-03 -2.289892662882e-03 0.0 
0.0 0.0 -7.677751594282e-05 
6.282428787233e-04 -1.725456959845e-04 0.0 
-1.725456959845e-04 -3.810766350428e-05 0.0 
0.0 0.0 -9.529203240606e-05 
-1.151589919320e-04 -5.038932235898e-04 0.0 
-5.038932235898e-04 5.668379900610e-04 0.0 
0.0 0.0 -1.836804426236e-04 
5.706748004828e-04 -1.556623961974e-04 0.0 
-1.556623961974e-04 5.722601300168e-05 0.0 
0.0 0.0 -1.853691160917e-04 
-5.487582997469e-05 -3.749831167295e-04 0.0 
-3.749831167295e-04 5.897949017876e-04 0.0 
0.0 0.0 -1.925188928741e-04 
-2.237013217840e-04 -7.835370290226e-04 0.0 
-7.835370290226e-04 9.699234306887e-04 0.0 
0.0 0.0 -2.864776706126e-04 
-5.080022175142e-04 -5.846720249242e-04 0.0 
-5.846720249242e-04 1.713553650264e-03 0.0 
0.0 0.0 -2.934437995798e-04 
-1.342924257900e-03 -1.540329825018e-04 0.0 
-1.540329825018e-04 8.463979425849e-03 0.0 
0.0 0.0 -1.294874803588e-03 
-9.061604714287e-04 -5.353468138170e-05 0.0 
-5.353468138170e-05 4.292677537748e-03 0.0 
0.0 0.0 -6.595503360071e-04 
-8.748353904416e-04 -9.535674848835e-05 0.0 
-9.535674848835e-05 4.090451847143e-03 0.0 
0.0 0.0 -6.264797819744e-04 
-7.893986596546e-04 -8.988273420556e-05 0.0 
-8.988273420556e-05 3.635662269298e-03 0.0 
0.0 0.0 -5.641716646261e-04 
-8.342340843015e-04 -1.796315714393e-04 0.0 
-1.796315714393e-04 3.876399492582e-03 0.0 
0.0 0.0 -5.974662984275e-04 
-9.399601535283e-04 -9.182592719562e-05 0.0 
-9.182592719562e-05 4.459086163681e-03 0.0 
0.0 0.0 -6.865721209800e-04 
-7.450408717977e-04 -3.664071909046e-05 0.0 
-3.664071909046e-05 3.403705623677e-03 0.0 
0.0 0.0 -5.286920563404e-04 
-7.105002771536e-04 -7.510162605901e-05 0.0 
-7.510162605901e-05 3.252942810076e-03 0.0 
0.0 0.0 -5.038291843518e-04 
4.141886787475e-04 -3.631487299893e-06 0.0 
-3.631487299893e-06 1.469709518057e-04 0.0 
0.0 0.0 -1.643560670950e-04 
-2.992668304113e-05 -2.428217344695e-05 0.0 
-2.428217344695e-05 6.247499294921e-04 0.0 
0.0 0.0 -1.462425310096e-04 
1.120520427136e-05 2.490769659488e-05 0.0 
2.490769659488e-05 5.748679317617e-04 0.0 
0.0 0.0 -1.469788961115e-04 
-1.839676854865e-04 -1.370350569834e-05 0.0 
-1.370350569834e-05 1.050348992839e-03 0.0 
0.0 0.0 -1.976702944042e-04 
-1.665493073749e-04 -4.078238753771e-05 0.0 
-4.078238753771e-05 1.038427513794e-03 0.0 
0.0 0.0 -1.960684762570e-04 
-2.740272711721e-05 -1.675532894322e-05 0.0 
-1.675532894322e-05 6.301608269895e-04 0.0 
0.0 0.0 -1.451566722079e-04 
-4.295295916181e-05 -1.396627582879e-05 0.0 
-1.396627582879e-05 6.314478061460e-04 0.0 
0.0 0.0 -1.432903851643e-04 
4.161238886674e-04 -5.875052441896e-06 0.0 
-5.875052441896e-06 1.373267014752e-04 0.0 
0.0 0.0 -1.621935704299e-04 
-6.199861096773e-05 -4.121287758313e-05 0.0 
-4.121287758313e-05 6.332661626784e-04 0.0 
0.0 0.0 -1.376693440338e-04 
-1.958490001476e-04 -5.849411118292e-05 0.0 
-5.849411118292e-05 1.056235548644e-03 0.0 
0.0 0.0 -1.994574706984e-04 
4.419899948669e-04 -1.962508494952e-05 0.0 
-1.962508494952e-05 1.075858787457e-04 0.0 
0.0 0.0 -1.585744273802e-04 
-1.134405852345e-03 -1.685214623059e-05 0.0 
-1.685214623059e-05 7.114171974622e-03 0.0 
0.0 0.0 -1.060427308513e-03 
-1.169096287658e-03 2.563616812788e-06 0.0 
2.563616812788e-06 7.355225522955e-03 0.0 
0.0 0.0 -1.097082233180e-03 
-1.287656187300e-03 -3.057563853945e-04 0.0 
-3.057563853945e-04 8.295106043806e-03 0.0 
0.0 0.0 -1.300897016293e-03 
-8.709102074234e-04 1.634655957137e-05 0.0 
1.634655957137e-05 5.013561359335e-03 0.0 
0.0 0.0 -7.584009903415e-04 
7.490073107207e-04 -7.472284772553e-05 0.0 
-7.472284772553e-05 1.509766253078e-05 0.0 
0.0 0.0 -2.080296274614e-04 
-1.318321890589e-03 9.119227365237e-05 0.0 
9.119227365237e-05 8.702564910127e-03 0.0 
0.0 0.0 -1.292107529982e-03 
-1.321891599576e-03 1.523434658018e-04 0.0 
1.523434658018e-04 8.753789560532e-03 0.0 
0.0 0.0 -1.303172775453e-03 
-1.317386328466e-03 1.502744807486e-04 0.0 
1.502744807486e-04 8.760593080467e-03 0.0 
0.0 0.0 -1.304823151597e-03 
-1.303300137320e-03 -3.518320858820e-05 0.0 
-3.518320858820e-05 7.809809152570e-03 0.0 
0.0 0.0 -1.191058493115e-03 
-1.309915312802e-03 -8.055064126037e-05 0.0 
-8.055064126037e-05 8.016669059363e-03 0.0 
0.0 0.0 -1.224322658093e-03 
-1.321803447330e-03 5.837335499168e-05 0.0 
5.837335499168e-05 8.713282635678e-03 0.0 
0.0 0.0 -1.294569364341e-03 
-6.481855202900e-04 -6.246003181782e-04 0.0 
-6.246003181782e-04 2.746907491681e-03 0.0 
0.0 0.0 -4.512809064328e-04 
-1.269733092336e-03 3.949450849478e-04 0.0 
3.949450849478e-04 8.134082373248e-03 0.0 
0.0 0.0 -1.225740639889e-03 
-1.236917440076e-03 9.455704594096e-05 0.0 
9.455704594096e-05 7.907876475173e-03 0.0 
0.0 0.0 -1.178628832109e-03 
4.310548068759e-03 5.914398100258e-03 0.0 
5.914398100258e-03 -3.523096114579e-03 0.0 
0.0 0.0 -3.087973448475e-04 
-5.572892816396e-04 -1.058232484237e-03 0.0 
-1.058232484237e-03 2.439571083886e-03 0.0 
0.0 0.0 -4.373623857420e-04 
-1.169344627949e-03 -1.527368028486e-04 0.0 
-1.527368028486e-04 6.463252890075e-03 0.0 
0.0 0.0 -9.899674718230e-04 
-1.002156622739e-03 -4.217657770794e-04 0.0 
-4.217657770794e-04 5.766816978775e-03 0.0 
0.0 0.0 -9.123979313600e-04 
-1.240362622181e-03 -2.107518773901e-04 0.0 
-2.107518773901e-04 7.344433125846e-03 0.0 
0.0 0.0 -1.130390451587e-03 
-1.097029052933e-03 -2.727822285369e-04 0.0 
-2.727822285369e-04 6.025349028311e-03 0.0 
0.0 0.0 -9.322225209316e-04 
-1.160816713283e-03 -2.966491095374e-04 0.0 
-2.966491095374e-04 6.897592609693e-03 0.0 
0.0 0.0 -1.073123358692e-03 
-1.146188823319e-03 -9.619145093431e-05 0.0 
-9.619145093431e-05 7.734668514319e-03 0.0 
0.0 0.0 -1.244129926109e-03 
-3.611510593238e-04 -8.758097138839e-05 0.0 
-8.758097138839e-05 1.751553404855e-03 0.0 
0.0 0.0 -2.939217362394e-04 
-1.042524547902e-03 8.542519018606e-05 0.0 
8.542519018606e-05 6.249309917826e-03 0.0 
0.0 0.0 -9.364826870394e-04 
-1.011646579925e-03 4.950052888461e-05 0.0 
4.950052888461e-05 6.088183350352e-03 0.0 
0.0 0.0 -9.130351872960e-04 
-1.156492778501e-03 8.389467150956e-05 0.0 
8.389467150956e-05 7.209321502601e-03 0.0 
0.0 0.0 -1.075939795031e-03 
-6.797233321873e-04 -3.445526981405e-04 0.0 
-3.445526981405e-04 2.970604433142e-03 0.0 
0.0 0.0 -4.709579147287e-04 
-9.579355913964e-04 -2.329193078104e-04 0.0 
-2.329193078104e-04 4.740187249377e-03 0.0 
0.0 0.0 -7.304257169629e-04 
-4.699094320929e-04 -2.864685390476e-04 0.0 
-2.864685390476e-04 1.870719163436e-03 0.0 
0.0 0.0 -3.104331955072e-04 
-1.090800952369e-03 6.146963996310e-04 0.0 
6.146963996310e-04 7.869379344307e-03 0.0 
0.0 0.0 -1.251461238623e-03 
-8.642142966185e-04 4.736706847914e-04 0.0 
4.736706847914e-04 4.810262753378e-03 0.0 
0.0 0.0 -7.590395520047e-04 
-6.299061308779e-04 -6.905248015396e-04 0.0 
-6.905248015396e-04 4.426299320179e-03 0.0 
0.0 0.0 -7.694287042311e-04 
-7.912081179997e-04 -5.380011954616e-04 0.0 
-5.380011954616e-04 3.827422774339e-03 0.0 
0.0 0.0 -6.120242822960e-04 
-6.551443874445e-04 -7.576014874881e-04 0.0 
-7.576014874881e-04 2.929641818478e-03 0.0 
0.0 0.0 -4.894362539292e-04 
-4.890802463817e-04 -1.241731719978e-03 0.0 
-1.241731719978e-03 2.147525315431e-03 0.0 
0.0 0.0 -4.100935076628e-04 
7.767402558216e-04 2.460193789489e-03 0.0 
2.460193789489e-03 2.614798882883e-03 0.0 
0.0 0.0 -6.990242139688e-04 
-7.645737241242e-04 -6.835179970588e-04 0.0 
-6.835179970588e-04 4.369038504805e-03 0.0 
0.0 0.0 -7.237531747479e-04 
-9.990166317683e-04 -3.989427530334e-04 0.0 
-3.989427530334e-04 6.371965153356e-03 0.0 
0.0 0.0 -1.024340108609e-03 
-1.185317591363e-03 7.742475138516e-05 0.0 
7.742475138516e-05 7.460446495103e-03 0.0 
0.0 0.0 -1.112552678551e-03 
4.727531058039e-04 -3.596595265796e-05 0.0 
-3.596595265796e-05 1.561360815221e-04 0.0 
0.0 0.0 -1.840733702992e-04 
-1.003340353985e-03 -3.675015482303e-04 0.0 
-3.675015482303e-04 6.579336743889e-03 0.0 
0.0 0.0 -1.061672265243e-03 
-8.749171253014e-04 -5.429443966133e-04 0.0 
-5.429443966133e-04 5.259260617559e-03 0.0 
0.0 0.0 -8.552253422611e-04 
-1.075058534600e-03 1.329625948637e-04 0.0 
1.329625948637e-04 6.404878824914e-03 0.0 
0.0 0.0 -9.599091010803e-04 
1.740599290830e-04 4.965962201981e-04 0.0 
4.965962201981e-04 5.319608862471e-03 0.0 
0.0 0.0 -1.062640036239e-03 
4.034312669393e-05 -1.592981408647e-03 0.0 
-1.592981408647e-03 9.176121880509e-04 0.0 
0.0 0.0 -3.732485265440e-04 
-1.183046367818e-03 1.393767940647e-04 0.0 
1.393767940647e-04 7.358067127657e-03 0.0 
0.0 0.0 -1.098747615487e-03 
-1.275160361241e-03 2.646540278175e-04 0.0 
2.646540278175e-04 8.092932724066e-03 0.0 
0.0 0.0 -1.212453547082e-03 
-1.010608018996e-03 1.134796452945e-04 0.0 
1.134796452945e-04 5.876477578498e-03 0.0 
0.0 0.0 -8.875094802107e-04 
-3.432304284614e-04 -2.023305734104e-04 0.0 
-2.023305734104e-04 1.413096543350e-03 0.0 
0.0 0.0 -2.442495876194e-04 
-9.871354508553e-04 6.543929527951e-05 0.0 
6.543929527951e-05 5.785148960874e-03 0.0 
0.0 0.0 -8.692469099983e-04 
-1.129933755956e-03 -2.589669323117e-04 0.0 
-2.589669323117e-04 7.495462082173e-03 0.0 
0.0 0.0 -1.202705989510e-03 
-1.175984421816e-03 2.539870060864e-04 0.0 
2.539870060864e-04 7.167724276723e-03 0.0 
0.0 0.0 -1.078220320736e-03 
-6.238127593336e-04 -2.578427228971e-04 0.0 
-2.578427228971e-04 2.729809833616e-03 0.0 
0.0 0.0 -4.336020471383e-04 
2.732449435991e-03 4.255410366072e-04 0.0 
4.255410366072e-04 1.113753126007e-03 0.0 
0.0 0.0 -7.943514531093e-04 
-7.169495309888e-04 7.187333378823e-04 0.0 
7.187333378823e-04 4.461510079932e-03 0.0 
0.0 0.0 -7.428158978947e-04 
-1.315622725710e-03 2.802374611284e-03 0.0 
2.802374611284e-03 4.948534788579e-03 0.0 
0.0 0.0 -6.865907729104e-04 
-1.263662037140e-03 1.212955651983e-04 0.0 
1.212955651983e-04 8.095770653682e-03 0.0 
0.0 0.0 -1.206557591227e-03 
2.632505150054e-03 2.763415084892e-03 0.0 
2.763415084892e-03 1.424135553653e-03 0.0 
0.0 0.0 -8.172945450071e-04 
-3.971516255809e-04 1.329170077958e-04 0.0 
1.329170077958e-04 6.231688802874e-03 0.0 
0.0 0.0 -1.120054252910e-03 
1.403435568624e-03 4.011535243133e-04 0.0 
4.011535243133e-04 3.250246165150e-03 0.0 
0.0 0.0 -9.240809108919e-04 
-6.615538158736e-04 -2.024673927750e-04 0.0 
-2.024673927750e-04 2.941778370234e-03 0.0 
0.0 0.0 -4.629711029823e-04 
-1.130081472427e-03 -3.415372177863e-04 0.0 
-3.415372177863e-04 7.089023572073e-03 0.0 
0.0 0.0 -1.118919378802e-03 
4.246065238112e-03 2.242658218769e-03 0.0 
2.242658218769e-03 -5.100923533952e-04 0.0 
0.0 0.0 -7.743986277066e-04 
-1.231879397795e-03 1.563825567224e-04 0.0 
1.563825567224e-04 7.806451874477e-03 0.0 
0.0 0.0 -1.164614768973e-03 
-6.077746741444e-04 9.339650097988e-04 0.0 
9.339650097988e-04 6.084423600321e-03 0.0 
0.0 0.0 -1.031533309622e-03 
5.705483359325e-03 1.048467930734e-03 0.0 
1.048467930734e-03 -2.876976308177e-03 0.0 
0.0 0.0 -6.375205594687e-04 
-1.204201749293e-03 1.997899091721e-04 0.0 
1.997899091721e-04 7.486324816343e-03 0.0 
0.0 0.0 -1.121170216299e-03 
1.502521632840e-04 -6.873621036655e-04 0.0 
-6.873621036655e-04 3.643791828774e-03 0.0 
0.0 0.0 -7.773091661689e-04 
-1.744616644937e-04 5.005131982404e-04 0.0 
5.005131982404e-04 5.897678860942e-03 0.0 
0.0 0.0 -1.099429584637e-03 
-8.205770634544e-04 5.305467903750e-04 0.0 
5.305467903750e-04 4.538492374159e-03 0.0 
0.0 0.0 -7.240542973723e-04 
-8.360793996604e-04 6.278552922453e-04 0.0 
6.278552922453e-04 5.559865875974e-03 0.0 
0.0 0.0 -9.041109700986e-04 
-1.050324174142e-03 4.352582260935e-04 0.0 
4.352582260935e-04 6.327572321714e-03 0.0 
0.0 0.0 -9.824247929831e-04 
3.539559618921e-04 1.702327199257e-03 0.0 
1.702327199257e-03 4.037764335383e-03 0.0 
0.0 0.0 -8.608216255090e-04 
-1.153567602020e-03 -9.301724894271e-05 0.0 
-9.301724894271e-05 6.238376526397e-03 0.0 
0.0 0.0 -9.534332399069e-04 
-1.070854558502e-03 -3.525098866510e-04 0.0 
-3.525098866510e-04 6.838133072795e-03 0.0 
0.0 0.0 -1.090315851396e-03 
4.755160337570e-03 -2.713002957400e-03 0.0 
-2.713002957400e-03 -4.217265483830e-03 0.0 
0.0 0.0 -2.305263658883e-04 
5.982482272435e-04 3.004270440641e-03 0.0 
3.004270440641e-03 2.026474402639e-03 0.0 
0.0 0.0 -5.719042557127e-04 
-1.067589445178e-03 1.583535090986e-04 0.0 
1.583535090986e-04 6.341569706464e-03 0.0 
0.0 0.0 -9.536514739466e-04 
-3.753592057693e-04 1.050415259753e-03 0.0 
1.050415259753e-03 6.496509965156e-03 0.0 
0.0 0.0 -1.150585697120e-03 
-1.272662540904e-03 1.837479624771e-04 0.0 
1.837479624771e-04 8.251575577157e-03 0.0 
0.0 0.0 -1.229329624135e-03 
-7.006581247961e-04 7.305782553014e-04 0.0 
7.305782553014e-04 4.076422328874e-03 0.0 
0.0 0.0 -6.801182747099e-04 
-1.119652443645e-03 -3.456160390905e-04 0.0 
-3.456160390905e-04 6.872141672148e-03 0.0 
0.0 0.0 -1.081576975854e-03 
-1.253042370701e-03 2.293393647918e-04 0.0 
2.293393647918e-04 7.917666161319e-03 0.0 
0.0 0.0 -1.185355684152e-03 
-8.328019205503e-04 -6.002544778108e-04 0.0 
-6.002544778108e-04 4.632328502255e-03 0.0 
0.0 0.0 -7.524367508395e-04 
-4.433075112401e-04 -2.566605040482e-05 0.0 
-2.566605040482e-05 2.036859959460e-03 0.0 
0.0 0.0 -3.333104686742e-04 
3.785434254471e-03 6.747613552461e-03 0.0 
6.747613552461e-03 -3.226982341009e-03 0.0 
0.0 0.0 -2.393365343406e-04 
6.337196417279e-03 9.631224366349e-04 0.0 
9.631224366349e-04 -4.391383389574e-03 0.0 
0.0 0.0 -5.092532232582e-04 
3.388420723886e-03 2.881495820319e-03 0.0 
2.881495820319e-03 4.278565200303e-04 0.0 
0.0 0.0 -7.817448632792e-04 
-8.859078879477e-04 -5.417175315324e-04 0.0 
-5.417175315324e-04 5.072763910333e-03 0.0 
0.0 0.0 -8.181699076277e-04 
-1.293553667002e-03 3.539056233938e-04 0.0 
3.539056233938e-04 8.270227580961e-03 0.0 
0.0 0.0 -1.242275372262e-03 
-1.167568761218e-03 -3.100043251916e-04 0.0 
-3.100043251916e-04 7.110149870389e-03 0.0 
0.0 0.0 -1.110186454522e-03 
-5.620958255970e-04 -2.932906277376e-04 0.0 
-2.932906277376e-04 5.961635056092e-03 0.0 
0.0 0.0 -1.040857148505e-03 
-2.026375760933e-04 1.438661115267e-02 0.0 
1.438661115267e-02 6.042230355099e-04 0.0 
0.0 0.0 -1.721080540357e-04 
-9.035556135405e-04 8.116844284074e-04 0.0 
8.116844284074e-04 4.665003257977e-03 0.0 
0.0 0.0 -7.126371066839e-04 
-1.210346144101e-03 -2.749948472322e-04 0.0 
-2.749948472322e-04 7.344160972203e-03 0.0 
0.0 0.0 -1.139074001596e-03 
1.912381625635e-03 3.676831814668e-05 0.0 
3.676831814668e-05 2.116676130323e-03 0.0 
0.0 0.0 -8.223634564932e-04 
-4.258113126097e-04 3.086448799480e-04 0.0 
3.086448799480e-04 6.298945191355e-03 0.0 
0.0 0.0 -1.126725356868e-03 
-1.012271879397e-03 -9.648706787801e-05 0.0 
-9.648706787801e-05 5.106630196528e-03 0.0 
0.0 0.0 -7.817916451012e-04 
-1.137917211723e-03 5.229323982609e-04 0.0 
5.229323982609e-04 7.879516347999e-03 0.0 
0.0 0.0 -1.249754184115e-03 
-7.163605695875e-04 1.221737733254e-03 0.0 
1.221737733254e-03 3.610851643098e-03 0.0 
0.0 0.0 -5.757576642514e-04 
-1.253262516526e-03 -2.397729583392e-04 0.0 
-2.397729583392e-04 7.583908034255e-03 0.0 
0.0 0.0 -1.168790087466e-03 
-2.435915354886e-06 -4.084869551939e-05 0.0 
-4.084869551939e-05 5.421080684774e-03 0.0 
0.0 0.0 -1.047452346298e-03 
3.185569071053e-03 4.662680063428e-03 0.0 
4.662680063428e-03 -9.970029516352e-04 0.0 
0.0 0.0 -5.248669331578e-04 
-8.489436119586e-04 9.726246538456e-06 0.0 
9.726246538456e-06 4.964532206226e-03 0.0 
0.0 0.0 -7.498068730476e-04 
-1.301937909208e-03 -2.238090825597e-04 0.0 
-2.238090825597e-04 8.094251106337e-03 0.0 
0.0 0.0 -1.243807156011e-03 
-5.467443931055e-04 -8.057529492672e-05 0.0 
-8.057529492672e-05 6.356987932138e-03 0.0 
0.0 0.0 -1.114542488500e-03 
5.635732102168e-04 1.790521268594e-03 0.0 
1.790521268594e-03 4.205878370634e-03 0.0 
0.0 0.0 -9.240346875991e-04 
1.518801701121e-03 -3.673404124957e-04 0.0 
-3.673404124957e-04 2.290849169207e-03 0.0 
0.0 0.0 -7.856950878877e-04 
-1.048201298076e-03 3.117939783270e-03 0.0 
3.117939783270e-03 4.251798702937e-03 0.0 
0.0 0.0 -6.191377506773e-04 
-9.472802509339e-04 -4.715703841177e-04 0.0 
-4.715703841177e-04 5.324567248990e-03 0.0 
0.0 0.0 -8.467704336814e-04 
-9.482945078766e-04 5.197028173749e-04 0.0 
5.197028173749e-04 5.905418857758e-03 0.0 
0.0 0.0 -9.395224721591e-04 
-1.324920476103e-03 3.053746754946e-04 0.0 
3.053746754946e-04 8.723243834592e-03 0.0 
0.0 0.0 -1.306889097489e-03 
-7.327806283079e-04 -3.000434950755e-05 0.0 
-3.000434950755e-05 6.722699354862e-03 0.0 
0.0 0.0 -1.148622835147e-03 
-1.082939420670e-03 2.819860490732e-04 0.0 
2.819860490732e-04 6.381972856138e-03 0.0 
0.0 0.0 -9.696660045843e-04 
-9.493777168521e-04 -4.444219031776e-04 0.0 
-4.444219031776e-04 5.127854127799e-03 0.0 
0.0 0.0 -8.097439408559e-04 
1.286651624293e-03 1.479598870492e-03 0.0 
1.479598870492e-03 3.712201008747e-03 0.0 
0.0 0.0 -9.749840279683e-04 
-1.676636515260e-04 -4.941269470984e-05 0.0 
-4.941269470984e-05 1.033199140519e-03 0.0 
0.0 0.0 -1.970089232863e-04 
-8.119580846914e-04 1.251806969882e-03 0.0 
1.251806969882e-03 4.146930038419e-03 0.0 
0.0 0.0 -6.447622526173e-04 
-1.000272012546e-03 -3.719800608836e-04 0.0 
-3.719800608836e-04 5.362836932527e-03 0.0 
0.0 0.0 -8.382314227178e-04 
5.835154405779e-03 -4.073203582347e-04 0.0 
-4.073203582347e-04 -3.690237511036e-03 0.0 
0.0 0.0 -5.374563060555e-04 
7.842138865637e-04 -5.159638554986e-04 0.0 
-5.159638554986e-04 3.216716079953e-03 0.0 
0.0 0.0 -8.136389561866e-04 
-1.106552809199e-03 2.931036577865e-04 0.0 
2.931036577865e-04 7.657106389501e-03 0.0 
0.0 0.0 -1.234277959947e-03 
-1.046296347188e-03 -3.017965079923e-04 0.0 
-3.017965079923e-04 5.590796710732e-03 0.0 
0.0 0.0 -8.668853676281e-04 
5.299527991008e-03 -7.642814189622e-05 0.0 
-7.642814189622e-05 -2.712799898037e-03 0.0 
0.0 0.0 -6.015264011954e-04 
-1.086733608739e-03 -2.340312705235e-04 0.0 
-2.340312705235e-04 5.809878777498e-03 0.0 
0.0 0.0 -8.955981815692e-04 
-8.691179500439e-04 2.663881341040e-03 0.0 
2.663881341040e-03 3.648600687207e-03 0.0 
0.0 0.0 -5.519888345566e-04 
-1.102733663682e-03 3.164092702850e-04 0.0 
3.164092702850e-04 6.555228391521e-03 0.0 
0.0 0.0 -9.983267706061e-04 
-1.119318067822e-03 -1.714358954242e-04 0.0 
-1.714358954242e-04 6.018884976543e-03 0.0 
0.0 0.0 -9.243533921793e-04 
-9.589152349526e-04 5.517898077285e-04 0.0 
5.517898077285e-04 6.291434864166e-03 0.0 
0.0 0.0 -1.003151257071e-03 
-2.279098310875e-04 -1.251804773978e-04 0.0 
-1.251804773978e-04 1.119603241316e-03 0.0 
0.0 0.0 -2.040322045631e-04 
1.190022388779e-03 2.062632064910e-03 0.0 
2.062632064910e-03 3.722314460227e-03 0.0 
0.0 0.0 -9.517466134248e-04 
-1.278300960589e-03 -7.889376224299e-05 0.0 
-7.889376224299e-05 7.564162797006e-03 0.0 
0.0 0.0 -1.155419075730e-03 
-6.039386638838e-04 -9.352834442183e-04 0.0 
-9.352834442183e-04 3.237374525321e-03 0.0 
0.0 0.0 -5.654343806685e-04 
7.981366108651e-05 -5.583744706158e-04 0.0 
-5.583744706158e-04 4.115241593054e-03 0.0 
0.0 0.0 -8.420324705410e-04 
-1.153622144798e-03 3.409444967982e-04 0.0 
3.409444967982e-04 6.992756961225e-03 0.0 
0.0 0.0 -1.063653581392e-03 
-7.741498664363e-04 2.233051118339e-03 0.0 
2.233051118339e-03 3.118005851101e-03 0.0 
0.0 0.0 -4.839843007303e-04 
-6.099575276612e-05 -4.437428245907e-04 0.0 
-4.437428245907e-04 4.656321450657e-03 0.0 
0.0 0.0 -9.074658271045e-04 
-8.891731204911e-04 6.785782029423e-04 0.0 
6.785782029423e-04 6.599878119993e-03 0.0 
0.0 0.0 -1.067288052377e-03 
1.304257194595e-03 1.911773034901e-03 0.0 
1.911773034901e-03 3.759111993153e-03 0.0 
0.0 0.0 -9.801762873724e-04 
3.004698377949e-03 2.517814049771e-03 0.0 
2.517814049771e-03 1.206778881761e-03 0.0 
0.0 0.0 -8.455731917576e-04 
-2.738347234338e-04 -3.514247412976e-04 0.0 
-3.514247412976e-04 5.271860198570e-03 0.0 
0.0 0.0 -9.738262179588e-04 
-6.500597088906e-04 1.178378732473e-03 0.0 
1.178378732473e-03 3.095166591350e-03 0.0 
0.0 0.0 -5.057041985798e-04 
-6.174255134183e-04 -7.382519752092e-04 0.0 
-7.382519752092e-04 2.524949954393e-03 0.0 
0.0 0.0 -4.238464704258e-04 
-5.725994882734e-04 -6.885730532868e-04 0.0 
-6.885730532868e-04 2.123374709043e-03 0.0 
0.0 0.0 -3.586180353125e-04 
3.714623562673e-03 -6.275871916433e-04 0.0 
-6.275871916433e-04 -9.291152864034e-04 0.0 
0.0 0.0 -6.294631353604e-04 
-1.070019129489e-03 5.246201509050e-04 0.0 
5.246201509050e-04 7.020629605002e-03 0.0 
0.0 0.0 -1.103081964739e-03 
-2.909493422495e-04 -6.727813062534e-05 0.0 
-6.727813062534e-05 1.456560370235e-03 0.0 
0.0 0.0 -2.521214004998e-04 
-1.130223577437e-03 3.874695664211e-04 0.0 
3.874695664211e-04 6.879711460710e-03 0.0 
0.0 0.0 -1.054898413167e-03 
-4.747914815808e-04 -7.007316897934e-04 0.0 
-7.007316897934e-04 1.510403036883e-03 0.0 
0.0 0.0 -2.740243446916e-04 
2.606110051185e-03 -1.209942571883e-03 0.0 
-1.209942571883e-03 -4.001974515678e-05 0.0 
0.0 0.0 -5.935709857392e-04 
7.147997842919e-05 9.563472283491e-04 0.0 
9.563472283491e-04 5.553687524595e-03 0.0 
0.0 0.0 -1.077081564483e-03 
-1.023005590377e-03 -4.065847446542e-05 0.0 
-4.065847446542e-05 6.235882102629e-03 0.0 
0.0 0.0 -9.315431351609e-04 
1.131630354548e-03 -1.100803428715e-03 0.0 
-1.100803428715e-03 1.646348433301e-03 0.0 
0.0 0.0 -6.211106552582e-04 
-5.539372237771e-04 -2.705347043382e-05 0.0 
-2.705347043382e-05 2.503628127068e-03 0.0 
0.0 0.0 -3.989951351066e-04 
1.792453226803e-04 -1.119880136699e-03 0.0 
-1.119880136699e-03 2.398795390889e-03 0.0 
0.0 0.0 -5.850331209179e-04 
2.245358557569e-03 2.028146208720e-03 0.0 
2.028146208720e-03 2.357933648507e-03 0.0 
0.0 0.0 -9.098959706900e-04 
-3.462804284926e-04 -9.727248363133e-04 0.0 
-9.727248363133e-04 3.140719035396e-03 0.0 
0.0 0.0 -6.124823626799e-04 
-4.550624226044e-04 -1.036578340992e-03 0.0 
-1.036578340992e-03 3.064317854104e-03 0.0 
0.0 0.0 -5.760838601101e-04 
-1.286542940212e-03 9.779925010804e-05 0.0 
9.779925010804e-05 8.362389009926e-03 0.0 
0.0 0.0 -1.242975171717e-03 
-5.556616817437e-04 -9.487474711726e-04 0.0 
-9.487474711726e-04 3.373317672553e-03 0.0 
0.0 0.0 -6.030381679152e-04 
-1.312957018488e-03 1.762534641485e-05 0.0 
1.762534641485e-05 8.791531742823e-03 0.0 
0.0 0.0 -1.305370344976e-03 
-1.342889913941e-03 -8.887845541572e-05 0.0 
-8.887845541572e-05 8.517788746463e-03 0.0 
0.0 0.0 -1.298405437673e-03 
-9.001399359898e-04 -3.115200366471e-05 0.0 
-3.115200366471e-05 5.327299192951e-03 0.0 
0.0 0.0 -7.997855503562e-04 
-7.461916603004e-04 2.374067090520e-03 0.0 
2.374067090520e-03 2.658675344930e-03 0.0 
0.0 0.0 -4.121418992062e-04 
8.963373324673e-05 1.133414550736e-05 0.0 
1.133414550736e-05 -8.963373324673e-05 0.0 
0.0 0.0 0.0 
-5.775566296528e-04 1.099866895973e-03 0.0 
1.099866895973e-03 2.546505918043e-03 0.0 
0.0 0.0 -4.369243393394e-04 
-5.755877201232e-04 -1.006492197580e-03 0.0 
-1.006492197580e-03 2.831071537896e-03 0.0 
0.0 0.0 -5.013603847490e-04 
-1.101076468124e-03 4.427543157598e-04 0.0 
4.427543157598e-04 6.753747619027e-03 0.0 
0.0 0.0 -1.045752072333e-03 
-9.001350944238e-04 1.690426372956e-05 0.0 
1.690426372956e-05 5.335483219367e-03 0.0 
0.0 0.0 -8.029817139903e-04 
-6.111138971153e-04 -8.912307338130e-04 0.0 
-8.912307338130e-04 2.695444832232e-03 0.0 
0.0 0.0 -4.630712860745e-04 
-1.275916597091e-03 4.598087248478e-04 0.0 
4.598087248478e-04 8.197933557976e-03 0.0 
0.0 0.0 -1.250093291501e-03 
-1.277155987315e-03 4.247176035906e-04 0.0 
4.247176035906e-04 8.290214574666e-03 0.0 
0.0 0.0 -1.306737725957e-03 
-1.108220863065e-03 9.376951406301e-06 0.0 
9.376951406301e-06 6.884195681395e-03 0.0 
0.0 0.0 -1.028769680629e-03 
-6.903853471462e-04 1.562019243928e-04 0.0 
1.562019243928e-04 6.701937438492e-03 0.0 
0.0 0.0 -1.152835590205e-03 
8.969053702623e-04 1.449032547689e-03 0.0 
1.449032547689e-03 4.334853840900e-03 0.0 
0.0 0.0 -1.010595862668e-03 
-1.241857793517e-03 -4.299570159508e-06 0.0 
-4.299570159508e-06 7.958618347353e-03 0.0 
0.0 0.0 -1.185717314024e-03 
-8.475222208266e-04 -3.781329079989e-05 0.0 
-3.781329079989e-05 4.928212699674e-03 0.0 
0.0 0.0 -7.451086181774e-04 
1.088881303991e-06 -2.677408744167e-04 0.0 
-2.677408744167e-04 5.823209556922e-04 0.0 
0.0 0.0 -1.916693028808e-04 
-1.183800202695e-03 -4.172593709851e-05 0.0 
-4.172593709851e-05 6.467154125527e-03 0.0 
0.0 0.0 -9.879584850274e-04 
-7.001533389709e-04 2.401553935837e-03 0.0 
2.401553935837e-03 2.154099736458e-03 0.0 
0.0 0.0 -3.437331075899e-04 
-3.143141120645e-04 3.550513106996e-03 0.0 
3.550513106996e-03 1.709125750609e-03 0.0 
0.0 0.0 -3.524505972177e-04 
2.689289743317e-04 6.673593393809e-03 0.0 
6.673593393809e-03 7.502845325163e-04 0.0 
0.0 0.0 -3.593644486456e-04 
-7.020460695734e-04 -1.440442927613e-04 0.0 
-1.440442927613e-04 3.119459023260e-03 0.0 
0.0 0.0 -4.856826860430e-04 
-8.782495870590e-05 -9.084916110393e-04 0.0 
-9.084916110393e-04 7.572036747300e-04 0.0 
0.0 0.0 -2.846511604759e-04 
-5.981465510734e-04 4.649928054922e-03 0.0 
4.649928054922e-03 1.698175324950e-03 0.0 
0.0 0.0 -3.076864852448e-04 
-1.137014357475e-03 7.152136645660e-05 0.0 
7.152136645660e-05 7.697731072351e-03 0.0 
0.0 0.0 -1.245112051941e-03 
-9.139609418570e-04 1.641183808410e-05 0.0 
1.641183808410e-05 5.327038428336e-03 0.0 
0.0 0.0 -8.050116406322e-04 
-2.550876867872e-04 8.500322428322e-04 0.0 
8.500322428322e-04 6.091604056344e-03 0.0 
0.0 0.0 -1.110409235593e-03 
-4.068833558513e-04 8.168826270235e-03 0.0 
8.168826270235e-03 1.210879739421e-03 0.0 
0.0 0.0 -3.261355004832e-04 
-1.296828862309e-03 2.341461600450e-04 0.0 
2.341461600450e-04 8.351041898143e-03 0.0 
0.0 0.0 -1.247366155457e-03 
-1.160947943940e-03 3.786531062067e-04 0.0 
3.786531062067e-04 7.809477266394e-03 0.0 
0.0 0.0 -1.246608778627e-03 
-1.314967464086e-03 -3.318256949741e-04 0.0 
-3.318256949741e-04 8.403481236488e-03 0.0 
0.0 0.0 -1.306249356034e-03 
-8.315627418425e-04 5.159606409596e-04 0.0 
5.159606409596e-04 7.050232066800e-03 0.0 
0.0 0.0 -1.176371721005e-03 
1.469544760972e-03 1.228537325797e-02 0.0 
1.228537325797e-02 -8.347304027915e-04 0.0 
0.0 0.0 -2.720632963632e-04 
-9.766098877979e-04 1.041630930997e-04 0.0 
1.041630930997e-04 5.685157012225e-03 0.0 
0.0 0.0 -8.603500797662e-04 
-1.003181837429e-03 7.259432834969e-04 0.0 
7.259432834969e-04 7.802090828035e-03 0.0 
0.0 0.0 -1.250827372426e-03 
-1.145993633532e-03 3.235835733547e-05 0.0 
3.235835733547e-05 7.250949289083e-03 0.0 
0.0 0.0 -1.080253149739e-03 
-1.318596932855e-03 -2.303003049155e-04 0.0 
-2.303003049155e-04 8.477981163117e-03 0.0 
0.0 0.0 -1.309985050881e-03 
-9.104561560587e-04 8.791536920609e-05 0.0 
8.791536920609e-05 5.249520802984e-03 0.0 
0.0 0.0 -7.979019438933e-04 
-1.287101829326e-03 7.929734908006e-05 0.0 
7.929734908006e-05 8.412586601378e-03 0.0 
0.0 0.0 -1.252774941638e-03 
4.383794230375e-03 -4.536565027690e-03 0.0 
-4.536565027690e-03 -3.896018514281e-03 0.0 
0.0 0.0 -2.090467354688e-04 
-1.285197150188e-03 5.312445103222e-05 0.0 
5.312445103222e-05 8.412445019205e-03 0.0 
0.0 0.0 -1.254166199180e-03 
-1.155435508235e-03 4.462044169920e-04 0.0 
4.462044169920e-04 7.190167035892e-03 0.0 
0.0 0.0 -1.110316242656e-03 
-9.785241987209e-04 6.006269753900e-05 0.0 
6.006269753900e-05 5.897359505691e-03 0.0 
0.0 0.0 -8.840149073763e-04 
-9.814056690218e-04 2.078101741112e-04 0.0 
2.078101741112e-04 5.639397818750e-03 0.0 
0.0 0.0 -8.570326279659e-04 
-1.319590243869e-03 -1.168373964399e-04 0.0 
-1.168373964399e-04 8.200864803592e-03 0.0 
0.0 0.0 -1.256337174517e-03 
-1.298927049123e-03 3.872456439500e-04 0.0 
3.872456439500e-04 8.256979916972e-03 0.0 
0.0 0.0 -1.249505442739e-03 
2.544779399102e-03 1.397087299718e-02 0.0 
1.397087299718e-02 -2.171483880909e-03 0.0 
0.0 0.0 -1.599837935116e-04 
-1.096094038579e-03 6.855172835755e-05 0.0 
6.855172835755e-05 6.864639960432e-03 0.0 
0.0 0.0 -1.024357608964e-03 
-8.327401503038e-04 -2.617825635292e-04 0.0 
-2.617825635292e-04 3.865808984588e-03 0.0 
0.0 0.0 -5.984289768806e-04 
2.236051652377e-03 -3.046147993674e-03 0.0 
-3.046147993674e-03 -2.187082611921e-03 0.0 
0.0 0.0 -2.098673162382e-05 
-1.235862100260e-03 -2.625570613708e-04 0.0 
-2.625570613708e-04 7.934382526740e-03 0.0 
0.0 0.0 -1.249521112489e-03 
-1.211535382329e-03 4.565569816846e-04 0.0 
4.565569816846e-04 7.603855218494e-03 0.0 
0.0 0.0 -1.172189067419e-03 
-1.321360973485e-03 -1.598454139055e-04 0.0 
-1.598454139055e-04 8.157812717265e-03 0.0 
0.0 0.0 -1.251863004148e-03 
-1.704574328015e-04 2.300128264431e-05 0.0 
2.300128264431e-05 1.030856563870e-03 0.0 
0.0 0.0 -1.953152674555e-04 
-5.311668064586e-05 -9.229826212638e-05 0.0 
-9.229826212638e-05 5.642082537171e-04 0.0 
0.0 0.0 -1.468156870419e-04 
-1.214101423412e-03 -2.486194593532e-04 0.0 
-2.486194593532e-04 7.945028851660e-03 0.0 
0.0 0.0 -1.258522865334e-03 
-1.216467223437e-03 5.582626891854e-04 0.0 
5.582626891854e-04 8.123087965583e-03 0.0 
0.0 0.0 -1.257106814994e-03 
3.275726260023e-03 -4.750999492493e-03 0.0 
-4.750999492493e-03 -2.502139112056e-03 0.0 
0.0 0.0 -3.217126346404e-04 
-1.334345376368e-03 2.157790183718e-04 0.0 
2.157790183718e-04 8.827191171129e-03 0.0 
0.0 0.0 -1.314710167832e-03 
2.785598066694e-03 1.144311115852e-02 0.0 
1.144311115852e-02 -2.693919501538e-03 0.0 
0.0 0.0 -3.929081363831e-05 
-8.415723991859e-04 3.409357994461e-05 0.0 
3.409357994461e-05 4.862419417103e-03 0.0 
0.0 0.0 -7.389643750272e-04 
-4.731802901288e-05 -7.907421163550e-05 0.0 
-7.907421163550e-05 5.924707016632e-04 0.0 
0.0 0.0 -1.340345910067e-04 
-1.324427323831e-03 -2.984557275517e-04 0.0 
-2.984557275517e-04 8.505668996389e-03 0.0 
0.0 0.0 -1.308531455474e-03 
-1.300676432775e-03 1.886676363898e-04 0.0 
1.886676363898e-04 8.425576722081e-03 0.0 
0.0 0.0 -1.254845750201e-03 
-8.984019564796e-04 -1.237198133233e-04 0.0 
-1.237198133233e-04 4.265458849472e-03 0.0 
0.0 0.0 -6.564513288157e-04 
-9.060736507493e-04 1.946713291288e-04 0.0 
1.946713291288e-04 4.969648504490e-03 0.0 
0.0 0.0 -7.541421605440e-04 
-6.276097559503e-04 -6.715782605664e-05 0.0 
-6.715782605664e-05 2.832069501594e-03 0.0 
0.0 0.0 -4.426424662127e-04 
-8.792857276940e-04 7.213648715618e-04 0.0 
7.213648715618e-04 7.327753044016e-03 0.0 
0.0 0.0 -1.203498912175e-03 
-2.674740073154e-04 -5.400123392678e-04 0.0 
-5.400123392678e-04 9.299090651865e-04 0.0 
0.0 0.0 -2.264474151299e-04 
-1.303841109802e-03 1.085882883771e-04 0.0 
1.085882883771e-04 8.492357544012e-03 0.0 
0.0 0.0 -1.260296891839e-03 
-1.191687690371e-03 -1.792572912051e-04 0.0 
-1.792572912051e-04 7.902409115589e-03 0.0 
0.0 0.0 -1.261416966621e-03 
-1.308215205254e-03 3.369873735607e-04 0.0 
3.369873735607e-04 8.413847692259e-03 0.0 
0.0 0.0 -1.260618436842e-03 
-1.275370929010e-03 2.203297067690e-04 0.0 
2.203297067690e-04 8.294911698725e-03 0.0 
0.0 0.0 -1.317725628150e-03 
6.630895623568e-04 5.250636249643e-04 0.0 
5.250636249643e-04 -6.531810771818e-04 0.0 
0.0 0.0 -4.246493646429e-06 
-1.211818034300e-03 4.006014363557e-04 0.0 
4.006014363557e-04 7.983414665776e-03 0.0 
0.0 0.0 -1.263090216482e-03 
-1.062936766248e-03 -4.762736263644e-05 0.0 
-4.762736263644e-05 7.394274304553e-03 0.0 
0.0 0.0 -1.202239909569e-03 
-8.482969471247e-04 5.756566432870e-05 0.0 
5.756566432870e-05 4.934073378721e-03 0.0 
0.0 0.0 -7.439744481034e-04 
-1.294789794099e-03 4.128632800208e-04 0.0 
4.128632800208e-04 8.301439097425e-03 0.0 
0.0 0.0 -1.252574368527e-03 
-7.632240259174e-04 -1.247615584578e-04 0.0 
-1.247615584578e-04 3.481612275262e-03 0.0 
0.0 0.0 -5.383891422301e-04 
-3.003096040968e-04 -1.615487937268e-04 0.0 
-1.615487937268e-04 1.430206630076e-03 0.0 
0.0 0.0 -2.492021827984e-04 
-1.313629829914e-03 -1.230146382652e-05 0.0 
-1.230146382652e-05 8.822541585775e-03 0.0 
0.0 0.0 -1.313490227100e-03 
5.224037487485e-04 2.219605164451e-05 0.0 
2.219605164451e-05 4.209342308312e-05 0.0 
0.0 0.0 -1.690634119026e-04 
-8.447146323437e-04 -2.046082411215e-05 0.0 
-2.046082411215e-05 4.909462012842e-03 0.0 
0.0 0.0 -7.402411036050e-04 
-1.348085845692e-03 2.530918264864e-06 0.0 
2.530918264864e-06 8.606464988216e-03 0.0 
0.0 0.0 -1.313492844077e-03 
-2.497229854947e-04 -6.189559134780e-05 0.0 
-6.189559134780e-05 1.337406434444e-03 0.0 
0.0 0.0 -2.401910970206e-04 
-9.421911629794e-04 -1.661669992897e-05 0.0 
-1.661669992897e-05 5.655702660019e-03 0.0 
0.0 0.0 -8.489638187885e-04 
-1.273434953439e-03 4.729599102124e-04 0.0 
4.729599102124e-04 8.228836790361e-03 0.0 
0.0 0.0 -1.260211869575e-03 
-1.042131282941e-03 -3.353944901092e-05 0.0 
-3.353944901092e-05 5.231045184564e-03 0.0 
0.0 0.0 -7.986629621775e-04 
-1.208709146256e-03 -3.512840286861e-05 0.0 
-3.512840286861e-05 7.690123470060e-03 0.0 
0.0 0.0 -1.148445367820e-03 
-3.763150292042e-06 -1.204286445716e-03 0.0 
-1.204286445716e-03 7.786369330047e-04 0.0 
0.0 0.0 -3.320887640197e-04 
3.660268767890e-04 -4.294995706918e-04 0.0 
-4.294995706918e-04 -3.660268767890e-04 0.0 
0.0 0.0 0.0 
-1.052359765526e-03 -2.552934865100e-05 0.0 
-2.552934865100e-05 6.469023319650e-03 0.0 
0.0 0.0 -9.668795991591e-04 
-1.182130655930e-03 3.563594059290e-04 0.0 
3.563594059290e-04 7.870829341615e-03 0.0 
0.0 0.0 -1.258714341260e-03 
-1.311624000118e-03 2.599452204782e-04 0.0 
2.599452204782e-04 8.471619375797e-03 0.0 
0.0 0.0 -1.263997700767e-03 
-1.012178473530e-03 6.922432419418e-05 0.0 
6.922432419418e-05 6.158161253950e-03 0.0 
0.0 0.0 -9.199601189493e-04 
3.498767920351e-03 8.718651793307e-03 0.0 
8.718651793307e-03 -3.085352297105e-03 0.0 
0.0 0.0 -1.771781242482e-04 
-1.244853883501e-03 4.890460872525e-04 0.0 
4.890460872525e-04 7.953363598317e-03 0.0 
0.0 0.0 -1.221038716794e-03 
-9.320485300336e-04 -1.667751956757e-04 0.0 
-1.667751956757e-04 4.597200132756e-03 0.0 
0.0 0.0 -7.060606045914e-04 
-7.420017060173e-04 9.077989740847e-04 0.0 
9.077989740847e-04 7.293305756890e-03 0.0 
0.0 0.0 -1.208939113964e-03 
-1.051071098666e-03 4.482787761201e-05 0.0 
4.482787761201e-05 7.381482422116e-03 0.0 
0.0 0.0 -1.203806565432e-03 
1.122507470390e-03 1.402949413285e-02 0.0 
1.402949413285e-02 -9.874276634101e-04 0.0 
0.0 0.0 -5.789134584844e-05 
-1.092227246100e-03 -1.750499239164e-05 0.0 
-1.750499239164e-05 5.615262148534e-03 0.0 
0.0 0.0 -8.562696210230e-04 
-2.264364480102e-05 -1.127881914138e-04 0.0 
-1.127881914138e-04 5.483692015876e-04 0.0 
0.0 0.0 -1.377944313834e-04 
-1.286136249812e-03 -3.205909886145e-04 0.0 
-3.205909886145e-04 8.133690929480e-03 0.0 
0.0 0.0 -1.263714160583e-03 
-9.761535132734e-04 -1.267872809360e-04 0.0 
-1.267872809360e-04 4.804162128704e-03 0.0 
0.0 0.0 -7.344436328926e-04 

SCALARS node_materi_plasti_kappa_shear float
LOOKUP_TABLE default
5.887162429406e-04
3.227009313599e-03
5.782851735544e-03
5.918183804685e-03
4.116273785082e-04
5.777185496190e-04
8.655346567894e-04
1.225178696612e-03
1.561289241519e-03
1.871659154863e-03
2.181083715770e-03
2.488964856422e-03
2.787137593187e-03
3.091771098928e-03
3.420472284368e-03
3.710467865470e-03
3.939561491463e-03
4.240577622206e-03
4.533842638206e-03
4.816933074020e-03
5.104668969231e-03
5.391975952764e-03
5.664103688175e-03
5.924781152092e-03
5.917884078783e-03
5.912198488963e-03
5.915363934695e-03
5.905144694759e-03
5.903457440159e-03
5.903348825921e-03
5.903761712110e-03
5.904265203747e-03
5.905318048855e-03
5.891395232290e-03
5.888128140164e-03
5.888680312796e-03
5.877931512601e-03
5.860031142375e-03
5.843163873243e-03
5.826784160533e-03
5.822850206754e-03
5.815960623433e-03
5.804554805717e-03
5.815036939851e-03
5.776127276547e-03
5.737855144386e-03
5.711749137531e-03
5.696108572039e-03
5.671644922163e-03
5.650827538949e-03
5.628366488181e-03
5.614080868870e-03
5.604140386821e-03
5.593036124330e-03
5.565915778014e-03
5.555192109801e-03
5.573004876633e-03
5.580306717995e-03
5.596307166112e-03
5.614091302201e-03
5.629810666475e-03
5.640837494200e-03
5.663093814391e-03
5.686920133380e-03
5.716693701826e-03
5.739758391817e-03
5.726679333637e-03
5.759394314008e-03
5.766547388258e-03
5.773558049937e-03
5.793695355299e-03
5.800384027880e-03
3.373278433029e-03
3.702017582457e-03
4.003145076898e-03
4.293988028575e-03
4.595203178701e-03
4.888984289506e-03
5.184208240141e-03
5.464856448975e-03
5.776378587400e-03
7.717769286593e-03
4.008871154000e-03
1.584013503553e-02
9.395644390474e-03
6.204451488208e-03
3.486241243173e-03
3.782501994058e-03
4.293653426239e-03
5.150830921912e-03
6.304650277190e-03
7.386825019152e-03
3.211692878702e-03
3.212779751579e-03
3.215295814516e-03
3.205318634875e-03
3.260612115387e-03
3.217033048878e-03
3.206802028701e-03
3.219414854374e-03
3.237933542907e-03
3.237544350604e-03
3.227521918981e-03
3.225690589647e-03
3.216989836787e-03
3.262979923549e-03
6.694423586943e-05
0.0
0.0
0.0
2.093219363820e-03
2.765112637578e-03
1.321499351177e-03
1.494143997493e-03
1.325481875748e-03
1.391548590431e-03
9.167977214478e-04
8.957101220487e-04
8.269330013273e-04
7.132717460542e-04
6.802064373799e-04
6.746309157531e-04
6.599539146173e-04
6.708367803107e-04
6.620761305443e-04
1.971312108835e-02
1.204355932805e-02
7.942056053977e-03
3.898027857937e-03
3.845318363321e-03
4.208727228603e-03
4.686357315345e-03
5.689325143072e-03
6.863748243743e-03
7.067940790056e-03
1.085389059921e-02
5.435588587202e-03
9.927270548914e-04
2.492227180604e-03
5.523350165746e-03
3.375084325146e-03
3.259014405966e-03
5.458606763578e-03
3.726154336638e-03
5.566973844381e-03
5.240489849318e-03
5.632953359091e-03
4.949927629273e-04
5.736473050655e-03
4.564425813283e-03
2.038890301766e-03
4.045860618714e-03
5.716180375961e-03
5.780776132195e-03
5.820339983969e-03
5.787783236705e-03
5.807930197893e-03
3.356631775986e-03
3.342041558882e-03
3.361792062102e-03
4.441169448529e-03
5.674307051814e-03
5.118360259064e-04
4.730963795634e-04
4.945795996265e-03
3.327462179656e-03
1.042267579418e-03
5.707024864185e-03
5.532622783009e-03
5.654638251954e-03
5.423578043402e-03
5.471772884168e-03
1.641678066704e-03
3.333005330644e-03
5.529223749368e-03
5.037839075619e-03
5.263716632499e-04
2.642361659730e-03
5.873210275008e-03
3.249545049445e-03
7.207542323084e-03
4.352934010208e-03
5.796824637293e-03
1.758326619983e-02
3.869122312403e-03
5.743109238438e-03
4.773192890915e-04
5.592525333234e-03
3.418814823371e-03
3.445762685372e-03
3.598635432457e-03
3.735913935782e-03
3.890935618439e-03
4.012600674009e-03
3.849474617287e-03
4.126514031565e-03
3.959165169885e-03
4.176038116471e-03
4.235988580971e-03
4.064707878218e-03
4.341402437136e-03
4.167240197337e-03
3.894151677152e-03
3.992834958239e-03
3.721936449487e-03
3.816849981585e-03
4.088667098279e-03
3.907021233887e-03
3.638494610824e-03
3.722863223661e-03
3.459179651477e-03
3.543617329750e-03
3.278134638251e-03
3.478582194085e-03
3.929918518526e-03
4.102935506336e-03
3.580600973714e-03
4.500134849463e-03
4.073107877108e-03
5.179407685719e-03
5.576774948407e-03
6.179742453808e-03
5.821967523106e-03
6.695208048055e-03
6.353632222001e-03
7.227999583490e-03
6.984703173258e-03
7.808931383733e-03
7.804473083604e-03
8.132505924059e-03
8.225358412278e-03
8.174470570774e-03
7.731332423321e-03
7.424570528117e-03
6.828545683812e-03
6.324474739561e-03
6.757882050941e-03
5.537040633208e-03
5.383192549984e-03
4.614567021717e-03
4.563565552092e-03
3.743633258124e-03
4.036774870124e-03
3.244201805525e-03
2.894194582584e-03
2.692021576707e-03
3.008308676693e-03
2.779077813445e-03
2.534557373612e-03
2.709557774217e-03
2.962454448322e-03
2.875190167875e-03
3.136631662822e-03
2.629761375739e-03
2.778979644167e-03
2.533618166994e-03
2.669371918058e-03
6.531133821948e-03
2.417052975495e-03
2.301133563289e-03
2.544153619349e-03
2.809569658580e-03
2.280488059570e-03
2.403129281843e-03
2.126768242516e-03
6.070532508953e-03
4.180692697778e-03
2.249003779132e-03
1.959755581014e-03
1.842529391951e-03
1.658290441270e-03
4.057689887829e-03
4.345234894461e-03
4.214494829484e-03
4.512207963410e-03
4.386116896851e-03
1.781237856866e-03
4.515858041588e-03
4.632785065629e-03
3.375865563346e-03
3.156156185427e-03
7.034885591083e-03
2.532048550751e-03
2.378710134929e-03
2.668313152737e-03
3.233044162887e-03
3.411145406702e-03
3.516648249659e-03
3.695606962542e-03
3.809881520443e-03
3.987932871346e-03
3.868387923180e-03
4.160380401702e-03
4.035401995459e-03
4.109927676280e-03
3.929071965478e-03
4.326541573449e-03
4.196853341751e-03
4.486612097014e-03
4.352559495554e-03
4.065464170358e-03
4.216259007440e-03
3.932665926102e-03
6.243976454904e-03
6.326582315600e-03
5.819960492264e-03
5.803159834129e-03
5.546099333419e-03
5.478159964242e-03
5.332501370316e-03
5.365715652162e-03
4.443438443787e-03
8.253649280608e-03
8.066625307244e-03
7.980521106362e-03
7.785281394653e-03
7.455269866859e-03
7.569300949471e-03
6.874994168721e-03
6.784219754493e-03
5.867418219295e-03
6.231181154202e-03
5.301099712674e-03
6.206179567479e-03
4.692851153280e-03
5.722027908812e-03
5.385876430454e-03
5.635230691204e-03
1.545289606018e-03
4.502587431745e-03
4.237803823005e-03
4.171612534213e-03
5.192950595305e-03
1.469037962723e-03
7.472379118698e-03
7.890950006749e-03
4.676612476866e-03
4.548915297300e-03
4.423145006998e-03
1.596671411329e-03
4.457517107573e-03
4.806589266898e-03
4.361759767159e-03
4.647438517847e-03
3.749070434487e-03
5.302338025911e-03
5.544832261688e-03
6.386464791083e-03
6.027661836037e-03
6.424997877542e-03
5.109990306572e-03
4.301456821187e-03
2.879034501284e-03
3.322070781762e-03
2.027420893249e-03
1.970726471427e-03
1.920863832566e-03
1.732826179112e-03
1.789080397446e-03
4.789640175200e-03
4.139772345265e-03
3.623293427982e-03
4.549397453839e-03
5.132293722166e-03
4.840106465985e-03
4.712783082347e-03
4.418649943637e-03
4.585859736983e-03
4.878747721020e-03
4.750919794657e-03
4.456475978692e-03
4.618929314417e-03
4.321775629010e-03
4.485087669046e-03
4.780485262660e-03
4.648645754832e-03
4.352908180169e-03
4.515438133183e-03
4.218119818909e-03
4.376442562231e-03
4.677698654010e-03
1.280455175298e-03
5.181109017077e-03
5.046863727701e-03
2.531248625096e-03
2.795187276442e-03
2.950421176089e-03
3.091354176801e-03
4.540325048563e-03
4.842133621751e-03
8.451999466834e-03
7.789709643283e-03
4.964897247723e-03
4.505647349826e-03
4.219641279943e-03
3.752327929257e-03
2.809961502791e-03
3.507270150340e-03
2.522960783000e-03
2.619408054872e-03
3.366562031566e-03
3.911531928520e-03
4.943332949814e-03
1.736869985241e-03
1.441819622179e-03
4.792252417499e-03
5.282982506225e-03
4.497570617647e-03
5.329356692678e-03
5.136464748245e-03
5.898898284189e-03
5.745234739985e-03
6.067731986451e-03
6.129995286222e-03
5.234923875317e-03
5.761222543184e-03
4.227760771006e-03
6.199479195076e-03
2.015316274691e-03
1.151528373984e-03
1.494680084950e-03
1.401763515938e-03
1.725734234278e-03
4.707566328665e-03
5.987110868731e-03
5.572707700042e-03
2.391216520205e-03
2.541437442855e-03
5.093392633678e-03
4.090617543142e-03
4.159541705089e-03
4.020881279016e-03
1.028169191453e-03
1.414727337199e-03
5.043491496533e-03
7.158683709331e-03
6.259368135026e-03
3.431802699929e-03
2.587028635807e-03
4.691724722002e-03
4.992960999119e-03
3.232526540781e-03
3.376337074583e-03
4.640267631310e-03
1.573664134280e-03
5.136914764881e-03
5.033832370058e-03
5.018259207936e-03
2.929371560799e-03
8.569896397711e-03
9.101328988707e-03
2.003682240547e-03
1.816948000307e-03
1.537558582793e-03
4.863905503909e-03
5.166500773962e-03
5.782360914255e-03
6.250271308180e-03
5.335182377571e-03
1.242267063270e-03
4.872712079515e-03
4.648563616368e-03
5.879072400934e-03
5.402860158233e-03
6.006807893958e-03
5.292903181553e-03
5.473259571950e-03
4.788980022765e-03
3.685637869250e-03
5.269963777950e-03
3.453630867072e-03
3.353268669804e-03
3.189580292168e-03
2.780580474833e-03
2.697012491619e-03
7.550696856608e-03
7.026472747285e-03
3.092459470665e-03
3.782098167746e-03
3.330348654579e-03
5.071602464651e-03
5.237586080772e-03
4.054791370477e-03
3.911736450825e-03
1.227723328770e-03
1.121568548935e-03
3.305144710569e-03
4.722576138819e-03
5.125546474561e-03
5.249094215459e-03
5.084093944170e-03
4.788278122571e-03
7.856546218414e-03
5.686650825719e-03
4.626107405645e-03
6.020665767062e-03
8.886689387002e-04
4.364114879908e-03
4.929747689709e-03
5.074378233997e-03
5.051731951717e-03
3.432498042914e-03
6.699134062494e-03
7.009937260596e-03
3.087385769992e-03
2.943156762232e-03
3.025957624230e-03
2.806749042570e-03
2.146257545189e-03
2.105072283453e-03
5.716903153072e-03
5.388766041821e-03
5.801502918047e-03
5.300879865093e-03
5.006188382638e-03
4.995469117542e-03
1.854189815065e-03
2.499875722410e-03
5.326205974981e-03
3.245806195750e-03
5.032929921038e-03
4.895632072523e-03
3.137782992338e-03
6.363983099053e-03
5.299729360748e-03
5.190190808701e-03
3.569060040908e-03
5.920133555107e-03
5.508894573325e-03
3.317615670200e-03
5.206554443836e-03
2.947814730022e-03
5.436495255462e-03
6.645164820119e-03
4.716267081292e-03
4.770691452494e-03
5.139724345049e-03
5.473155703650e-03
3.856151046115e-03
3.706636097451e-03
3.986363479487e-03
5.647461133768e-03
5.355851332819e-03
5.105588847389e-03
2.215579397184e-03
2.383580716268e-03
1.610091948116e-03
1.853488942061e-03
3.371371645262e-03
3.226095624710e-03
4.460118615317e-03
4.646317835840e-03
4.350285991376e-03
4.695008622255e-03
4.550599776524e-03
4.925886550639e-03
5.356340387661e-03
5.560199060828e-03
2.160101539452e-03
2.474585512839e-03
2.277219304698e-03
5.452662980312e-03
5.357012637059e-03
5.217066698957e-03
7.819578528788e-04
1.028971749725e-03
9.895622091394e-03
1.079602974024e-02
5.358763484459e-03
5.206986646545e-03
5.554350471511e-03
1.646365469631e-03
5.880209162554e-03
4.991435804841e-03
4.893429704064e-03
5.205837116451e-03
5.176012737933e-03
5.069252922628e-03
5.167698961592e-03
9.956394663269e-04
5.354913579491e-03
3.735880701652e-03
1.198213589399e-03
3.596581939605e-03
3.776236102998e-03
3.431628553560e-03
1.322961065373e-03
3.627378963851e-03
3.821605526455e-03
5.646491034712e-04
5.602994573649e-03
5.605292770002e-04
6.792338181859e-04
5.201033617940e-03
5.054577875216e-03
5.350694268135e-03
5.195925285154e-03
4.911596497334e-03
5.072562886384e-03
3.571136890228e-03
5.391533904623e-03
5.225263310295e-03
5.570873285068e-03
3.551675345570e-03
3.396399438342e-03
2.218713508949e-03
2.602278283442e-03
5.669132045476e-03
5.295713514188e-03
4.791087967570e-03
4.504528282397e-03
3.617380192862e-03
3.592243224651e-03
3.871542763848e-03
3.825760515629e-03
4.113486033420e-03
4.067343757730e-03
4.345783660312e-03
5.316951244465e-03
6.091960952911e-03
3.822020388419e-03
5.063267126797e-03
4.955612079751e-03
2.652063296782e-03
3.057331427064e-03
5.236949940379e-03
5.967377946619e-03
5.776025953178e-03
3.699062921031e-03
4.007624349403e-03
5.360470197453e-03
2.860933532174e-03
2.319000037779e-03
2.222728672553e-03
4.772220134964e-03
9.235095768594e-04
7.417664692697e-03
4.384602592843e-03
9.070193437423e-03
4.658101181556e-03
6.810160969954e-03
3.025966663440e-03
6.699063097202e-03
4.645775919220e-03
3.791766830717e-03
3.575521711054e-03
3.414449332742e-03
7.671028346742e-03
2.360483434218e-03
2.654080190316e-03
3.548903922870e-03
4.919586046203e-03
5.037796762255e-03
5.310613898604e-03
5.154282845663e-03
4.869442501820e-03
4.979196796726e-03
5.263482143390e-03
5.097588445123e-03
5.433286767238e-03
5.203085790595e-03
4.911819673152e-03
5.013424306316e-03
5.289013913456e-03
4.727439554445e-03
5.236156713520e-03
5.526836616114e-03
2.040368588045e-03
9.311400218157e-03
3.201712461661e-03
5.730004135783e-03
5.767445976811e-03
7.619254199439e-03
5.723287127759e-03
3.519780408461e-03
6.291416485493e-03
5.603770056897e-03
4.751520745494e-03
4.579435651060e-03
4.463201836768e-03
5.793236110746e-03
4.123046406902e-03
5.509305537427e-03
6.282105341118e-03
6.920956859457e-03
7.522957509714e-03
4.801619878836e-03
5.436694213567e-03
5.160288092583e-03
5.160321964187e-03
4.956828029237e-03
5.448713258893e-03
5.719863900526e-03
5.729791035738e-03
2.551584694127e-03
3.727858939659e-03
3.513316995882e-03
4.940155862176e-03
5.395827628831e-03
6.313750433574e-03
6.092610122186e-03
6.883244427678e-03
4.930377301337e-03
5.492129088288e-03
3.625564248662e-03
3.626109304946e-03
3.323370173089e-03
2.952066020253e-03
3.078747520708e-03
3.351373813983e-03
2.815770384213e-03
6.062839968318e-03
5.510043080626e-03
5.328564905437e-03
2.928688293770e-03
3.336341398281e-03
3.593836274312e-03
3.598511107039e-03
3.869249033601e-03
3.623805167776e-03
3.516608453604e-03
3.658527646077e-03
3.515347475486e-03
3.794985028764e-03
3.639781273070e-03
3.373627075467e-03
3.921733030934e-03
3.752559113767e-03
3.333440693931e-03
4.290010671730e-03
4.446519154550e-03
1.143731683933e-03
2.591667971286e-03
6.391761362975e-03
3.867735979588e-03
6.840271976148e-03
6.651961622794e-03
7.673374683453e-04
6.566057884129e-04
7.028502894494e-04
6.784739322626e-04
1.062033452019e-03
1.367334253023e-03
5.652286702244e-03
2.938936405260e-03
2.805289880450e-03
2.499233211099e-03
2.662705054473e-03
3.052456379495e-03
2.341669267002e-03
2.236323217213e-03
4.634934602714e-04
4.419598349489e-04
4.410447408450e-04
7.207625795544e-04
7.074768685299e-04
4.420400412776e-04
4.449633113941e-04
4.634791521809e-04
4.504548672275e-04
7.268015370500e-04
4.731189008161e-04
4.745527215495e-03
4.902505264739e-03
5.544916367285e-03
3.368924595429e-03
7.673845166484e-04
5.780998861492e-03
5.813842834379e-03
5.817013326087e-03
5.233971751005e-03
5.365637462080e-03
5.788240472877e-03
2.014050555547e-03
5.434538857935e-03
5.267458791713e-03
7.542689349755e-03
2.008026884127e-03
4.362324178154e-03
3.910057017267e-03
4.933262515921e-03
4.079022426720e-03
4.641099795521e-03
5.158355521769e-03
1.213464950072e-03
4.185417172818e-03
4.076798602367e-03
4.811798339392e-03
2.086149546152e-03
3.238993663622e-03
1.348867022610e-03
5.541445854140e-03
3.285416912687e-03
3.046769336549e-03
2.677719312106e-03
2.168475210700e-03
1.957305737071e-03
4.883453296826e-03
3.036664388310e-03
4.286179880857e-03
4.975421168353e-03
5.808977797567e-04
4.414552831620e-03
3.582806630633e-03
4.292263749295e-03
5.248579893256e-03
1.820199335064e-03
4.913094015127e-03
5.399859365631e-03
3.948537402346e-03
1.019982226970e-03
3.882948642930e-03
5.011342776407e-03
4.799927772923e-03
1.909455734444e-03
5.941837831078e-03
3.132515004358e-03
5.675586943763e-03
5.391810110936e-03
6.974632393516e-03
5.030456871556e-03
5.520792097251e-03
2.042934957487e-03
4.758450757248e-03
7.719483210407e-03
5.205251802628e-03
4.943257337760e-03
7.815930094896e-03
5.001431347950e-03
3.601395285157e-03
5.163603910447e-03
3.117148399214e-03
3.890363494128e-03
4.266483966727e-03
5.015454130917e-03
4.216350577803e-03
4.589726999369e-03
5.560055227358e-03
4.619890420790e-03
4.252864040516e-03
5.756791072046e-03
5.492998307562e-03
2.853919931406e-03
4.620197000947e-03
5.283300374483e-03
3.195345026289e-03
1.407849422888e-03
7.823828068386e-03
7.499824154314e-03
7.384806445057e-03
3.468984859371e-03
5.520066455693e-03
4.776767016044e-03
4.502002438684e-03
1.450871987926e-02
3.679825852843e-03
4.930209733183e-03
5.338573858844e-03
5.052542325505e-03
3.471719766142e-03
5.415320252736e-03
3.306367951403e-03
5.087932046228e-03
4.994383531234e-03
6.871601839609e-03
3.328255837959e-03
5.415880323612e-03
4.889630441467e-03
5.586434468466e-03
4.767989753987e-03
5.602504498235e-03
3.628276273172e-03
3.993623691161e-03
5.804322562982e-03
4.901086148931e-03
4.291233033703e-03
3.502523749532e-03
6.106772409217e-03
7.047390220056e-04
3.747500725414e-03
3.651715310585e-03
7.159638521649e-03
4.326844864208e-03
5.123607779232e-03
3.797843583975e-03
7.084979981861e-03
3.939088055833e-03
4.762335518743e-03
4.407302233335e-03
4.073717321279e-03
4.338091382783e-03
7.894202949831e-04
6.339063564766e-03
5.075427847676e-03
2.404246341971e-03
3.915525913024e-03
4.694223929722e-03
3.950516781703e-03
4.173120931156e-03
4.811903541358e-03
6.457164154150e-03
7.277224034244e-03
4.370721314757e-03
2.835972581248e-03
1.917452006600e-03
1.657786857477e-03
5.800577217078e-03
4.814442837630e-03
1.005389459169e-03
4.623386601130e-03
1.307883538802e-03
4.671400607017e-03
5.465941604172e-03
4.169109331877e-03
3.545667550872e-03
1.729669733719e-03
2.616511022094e-03
6.788464132152e-03
2.398621895549e-03
2.321698774104e-03
5.562109209316e-03
2.479278600157e-03
5.832033053261e-03
5.683459550606e-03
3.569571471478e-03
3.692133649801e-03
9.814673529327e-05
2.304885360834e-03
2.198379986357e-03
4.544915456456e-03
3.572687871250e-03
2.077081277084e-03
5.482725273702e-03
5.548817509373e-03
4.594253848124e-03
4.952966590559e-03
6.012103561288e-03
5.298348689818e-03
3.310673635212e-03
6.578088384830e-04
4.366888493405e-03
3.331487261334e-03
4.281888239203e-03
7.043084382708e-03
2.155926239816e-03
1.066640011348e-03
5.235884366635e-03
5.133441966827e-03
3.576035110635e-03
5.378844905271e-03
8.450098598163e-03
5.563426082931e-03
5.235260538796e-03
5.618784336637e-03
5.122034258937e-03
1.248441615349e-02
3.817527287724e-03
5.730096194151e-03
4.831755994393e-03
5.661150035348e-03
3.527768805689e-03
5.594510040718e-03
6.360559231608e-03
5.592056671628e-03
4.830647828208e-03
3.948871847594e-03
3.795468355754e-03
5.483498521482e-03
5.518494078473e-03
1.428021126515e-02
4.578727725803e-03
2.665021533502e-03
3.840155898484e-03
5.306855478618e-03
5.101857700587e-03
5.457161495010e-03
7.154962728763e-04
4.808372270496e-04
5.308036467257e-03
5.557123316980e-03
5.990698940248e-03
5.866481278789e-03
1.186919055683e-02
3.266292359391e-03
4.397587923474e-04
5.682371966829e-03
5.607182569852e-03
2.919687531898e-03
3.361691315670e-03
1.951427265437e-03
5.446072535354e-03
8.720869757284e-04
5.646101319162e-03
5.274827266557e-03
5.610655463053e-03
5.543108792546e-03
8.679570612845e-04
5.340000167234e-03
4.944798051776e-03
3.315096198721e-03
5.545224744200e-03
2.394333441960e-03
1.003430899199e-03
5.853061777030e-03
4.829438931340e-04
3.294611847680e-03
5.738597030996e-03
9.205396441291e-04
3.785517905279e-03
5.509655203559e-03
3.560630679607e-03
5.121626185149e-03
1.343497450421e-03
5.960524245647e-04
4.321439572445e-03
5.262500811900e-03
5.642111831981e-03
4.116674015646e-03
9.435383721038e-03
5.340656242521e-03
3.136604846599e-03
5.826796840681e-03
4.952248245008e-03
1.420538285118e-02
3.813324024854e-03
4.389738246617e-04
5.442551602023e-03
3.274124271133e-03

SCALARS node_materi_plasti_phimob float
LOOKUP_TABLE default
-4.282033134539e+01
-3.164320164007e-01
2.160813754172e+01
1.941520889084e+01
-3.040697734401e+00
1.603977193909e+01
1.558249587383e+01
1.586095500627e+01
1.616978022679e+01
1.680131880292e+01
1.762710519395e+01
1.830442828677e+01
1.886878317125e+01
1.936559625093e+01
1.980994654250e+01
2.014615581342e+01
2.040949994409e+01
2.068287689640e+01
2.091565963676e+01
2.110606682432e+01
2.127246128713e+01
2.141864194419e+01
2.153666569089e+01
1.949655839507e+01
1.951553768384e+01
1.958134965469e+01
1.967217268074e+01
1.974892336191e+01
1.993122266230e+01
2.012832598964e+01
2.042500547619e+01
2.074755484112e+01
2.114105858343e+01
2.150791841257e+01
2.213782049563e+01
2.262096418958e+01
2.325085028283e+01
2.364057007568e+01
2.409320389374e+01
2.436461944042e+01
2.454360071401e+01
2.470353904536e+01
2.472652387100e+01
2.458328944190e+01
2.440408212064e+01
2.418770265368e+01
2.392374743835e+01
2.367284479303e+01
2.347079901714e+01
2.326575225585e+01
2.309252003247e+01
2.292435245091e+01
2.273858219538e+01
2.265599596845e+01
2.255709812627e+01
2.242639469529e+01
2.233079214729e+01
2.226672660444e+01
2.217732713614e+01
2.214400428352e+01
2.206516299873e+01
2.201375005011e+01
2.194007503092e+01
2.185287659754e+01
2.178349508330e+01
2.173310742774e+01
2.173387123527e+01
2.165967685492e+01
2.165406766753e+01
2.163317171316e+01
2.162360388002e+01
2.162107853297e+01
-2.510154578255e+00
-1.112956481896e+00
4.770371319211e+00
9.430702424168e+00
1.252370375976e+01
1.468494038103e+01
1.634406645698e+01
1.767218972375e+01
1.875631454272e+01
2.187780755109e+01
2.480832111642e+01
2.495587047389e+01
2.328294557060e+01
2.495587047389e+01
2.495587047389e+01
2.495587047389e+01
2.495587047389e+01
2.495587047389e+01
2.495587047389e+01
2.495587047389e+01
8.732425797885e-01
-1.430207333069e-01
-5.755094588023e-02
1.008919121906e+00
-4.750462820750e-01
1.079843485927e+00
2.071056461517e+00
2.012932958329e+00
1.816591109983e+00
3.356951577995e+00
5.516372058907e+00
8.734442601001e+00
1.410314179858e+01
2.164775927100e+01
1.644806927541e+01
1.072493858286e+01
1.161008884014e+01
1.470659164540e+01
2.177060092093e+01
9.634760849305e+00
1.415977303802e+01
3.959146578714e+00
-4.526333097437e+01
-4.633456146242e+01
-4.423994941062e+01
-4.241350110049e+01
-4.362998633905e+01
-4.668878799876e+01
-4.585739599387e+01
-4.465884985657e+01
-4.432800581455e+01
-4.626570137042e+01
-5.004839489557e+01
2.495587047389e+01
2.408429811906e+01
2.396515974120e+01
2.495587047389e+01
2.495587047389e+01
2.495587047389e+01
2.495587047389e+01
2.495587047389e+01
2.495587047389e+01
2.495587047389e+01
2.452008429648e+01
2.297179563516e+01
-1.598913802645e+01
2.204727514907e+01
2.262790612508e+01
2.495587047389e+01
1.961355778223e+01
2.341908280344e+01
2.495587047389e+01
2.407202647725e+01
2.495587047389e+01
2.195111222726e+01
-1.430168147144e+01
2.484029986194e+01
2.226704045103e+01
1.727099037458e+01
2.052632726055e+01
2.426073934215e+01
2.231672762766e+01
1.918298803162e+01
1.945702238817e+01
2.061529546946e+01
1.504023621023e+01
2.907449383042e+00
4.665463993410e-01
1.113323129258e+01
2.167608948680e+01
1.920552997786e+01
-1.365332919687e+01
2.119350850693e+01
-9.984803169370e-01
1.572794207913e+01
2.322487761359e+01
2.365860369597e+01
2.449733332640e+01
2.327878266427e+01
2.281857610914e+01
6.142436508808e+00
7.157759803994e+00
2.236744210175e+01
1.554407799056e+01
-1.199976757941e+01
1.860598180407e+01
1.920699741995e+01
2.495587047389e+01
2.474797335657e+01
2.495587047389e+01
2.495587047389e+01
2.495587047389e+01
1.939544426501e+00
2.160503599004e+01
-1.624587630850e+01
1.819188544010e+01
1.940627988713e+01
1.693454837970e+01
1.459354729552e+01
1.605491636921e+01
1.505646559158e+01
1.661130321643e+01
1.710385979334e+01
1.778801120521e+01
1.821605690681e+01
1.614273659392e+01
1.892175673864e+01
1.952120874171e+01
2.032752996436e+01
2.093111401147e+01
2.022720249594e+01
2.152323056785e+01
2.092332425246e+01
2.212433693438e+01
2.271582057989e+01
2.325855751414e+01
2.275858963652e+01
2.382752584179e+01
2.339856293561e+01
2.441216433472e+01
2.400913590491e+01
2.480198978111e+01
2.493898351947e+01
2.495587047389e+01
2.495587047389e+01
2.495587047389e+01
2.495587047389e+01
2.495587047389e+01
2.495587047389e+01
2.495587047389e+01
2.495587047389e+01
2.495587047389e+01
2.495587047389e+01
2.495587047389e+01
2.495587047389e+01
2.495587047389e+01
2.495587047389e+01
2.495587047389e+01
2.495587047389e+01
2.495587047389e+01
2.495587047389e+01
2.495587047389e+01
2.495587047389e+01
2.495587047389e+01
2.495587047389e+01
2.495587047389e+01
2.495587047389e+01
2.495587047389e+01
2.495587047389e+01
2.495587047389e+01
2.495587047389e+01
2.495587047389e+01
2.495587047389e+01
2.454085443214e+01
2.465735994136e+01
2.372461049894e+01
2.338645130631e+01
2.247257568853e+01
2.289226524023e+01
2.178682022183e+01
2.227387986992e+01
2.118091971333e+01
2.066919301999e+01
1.986972277597e+01
1.962308209565e+01
2.495587047389e+01
1.884703800661e+01
1.896295342413e+01
1.892411038393e+01
1.956816474018e+01
1.816311531755e+01
1.837106875246e+01
1.751562522831e+01
2.495190499991e+01
2.378646815958e+01
1.783286210952e+01
1.689074977476e+01
1.641731518094e+01
1.567678520755e+01
1.453120453542e+01
1.579370200726e+01
1.398934929124e+01
1.564540369766e+01
1.390585507742e+01
1.627062941337e+01
1.976625440723e+01
1.706539540808e+01
2.238578272331e+01
2.490282868538e+01
2.495587047389e+01
1.858535154465e+01
1.812903579742e+01
1.880123252928e+01
2.322959657799e+01
2.267257922708e+01
2.349812793960e+01
2.299655738688e+01
2.370664055333e+01
2.325094219038e+01
2.260599255778e+01
2.285939874800e+01
2.227702035662e+01
2.386170711971e+01
2.438429787452e+01
2.250409225633e+01
2.198895055207e+01
2.218425031104e+01
2.173883145279e+01
2.146652374611e+01
2.128882961817e+01
2.095480951463e+01
2.495587047389e+01
2.495587047389e+01
2.495587047389e+01
2.495587047389e+01
2.495587047389e+01
2.495587047389e+01
2.495587047389e+01
2.495587047389e+01
2.171638283080e+01
2.495587047389e+01
2.495587047389e+01
2.495587047389e+01
2.495587047389e+01
2.495587047389e+01
2.495587047389e+01
2.495587047389e+01
2.495587047389e+01
2.495587047389e+01
2.495587047389e+01
2.495587047389e+01
2.495587047389e+01
2.495587047389e+01
2.495587047389e+01
2.495587047389e+01
2.495587047389e+01
1.497816141474e+01
2.152974608845e+01
2.441792029322e+01
2.479837660105e+01
2.495587047389e+01
1.501826379020e+01
2.495587047389e+01
2.495587047389e+01
1.570181799677e+01
1.411870243660e+01
2.476799535239e+01
1.568954085246e+01
2.299423310718e+01
2.495587047389e+01
2.114831206608e+01
2.136969107154e+01
2.194334517457e+01
2.495587047389e+01
2.495587047389e+01
2.495587047389e+01
2.495587047389e+01
2.495587047389e+01
2.495587047389e+01
2.495587047389e+01
2.495587047389e+01
2.495587047389e+01
2.354680616157e+01
2.377540435321e+01
2.093888068541e+01
1.903112662081e+01
1.733610025242e+01
2.168440034289e+01
2.495587047389e+01
1.973977010738e+01
2.433526157893e+01
2.495587047389e+01
1.596020816717e+01
1.458813193155e+01
1.229677296479e+01
1.308447515080e+01
1.523256631869e+01
1.399302196510e+01
1.146302275058e+01
1.268147455521e+01
9.691867454482e+00
1.128775260072e+01
1.384304070625e+01
1.273284081285e+01
9.781386466461e+00
1.152942326443e+01
8.054528758968e+00
1.015038384927e+01
1.300183770799e+01
1.481145952350e+01
2.495587047389e+01
2.495587047389e+01
1.843072391455e+01
1.899789183971e+01
1.935854862991e+01
1.950596189018e+01
1.186190796986e+01
1.426251556847e+01
2.495587047389e+01
2.495587047389e+01
1.718769736180e+01
2.108017927693e+01
2.084308350535e+01
2.495587047389e+01
2.477082380585e+01
2.495587047389e+01
2.462598304232e+01
2.406869229124e+01
2.495587047389e+01
2.480935008181e+01
1.491942851747e+01
1.590250611298e+01
1.416487851380e+01
2.127626549139e+01
2.495587047389e+01
2.495587047389e+01
2.495587047389e+01
2.495587047389e+01
2.495587047389e+01
2.495587047389e+01
2.495587047389e+01
2.495587047389e+01
2.495587047389e+01
2.495587047389e+01
8.427170749436e+00
2.495587047389e+01
2.170887863313e+01
1.408187567303e+01
1.498450459050e+01
1.532436639479e+01
1.623455917796e+01
2.454038154305e+01
2.495587047389e+01
2.495587047389e+01
2.408798866301e+01
2.366670046511e+01
2.495587047389e+01
1.182880825870e+01
8.078572305134e+00
5.608547421707e+00
1.475061670988e+01
1.696997639251e+01
1.594150135338e+01
2.495587047389e+01
2.494044996855e+01
2.495587047389e+01
2.495587047389e+01
1.324162219315e+01
1.527472803281e+01
1.981554575700e+01
1.992919145920e+01
2.489063320141e+01
1.467460440188e+01
1.605839719286e+01
2.495587047389e+01
2.495587047389e+01
1.917022286456e+01
2.495587047389e+01
2.495587047389e+01
2.396561936155e+01
1.668997831347e+01
1.580495570865e+01
2.453703360693e+01
1.691558785740e+01
2.495587047389e+01
2.495587047389e+01
2.495587047389e+01
1.192222947474e+01
2.401523745647e+01
2.108035414144e+01
2.495587047389e+01
2.495587047389e+01
2.490783218192e+01
2.488817793432e+01
2.492957000543e+01
2.490570437933e+01
1.773321080433e+01
2.491092387246e+01
2.065933534178e+01
2.004257698964e+01
2.113573248019e+01
2.351943584733e+01
2.323335231643e+01
2.495587047389e+01
2.495587047389e+01
1.971453005066e+01
2.109531965802e+01
2.417760788640e+01
1.579198494753e+01
1.663920130550e+01
5.498279418466e+00
2.929808942361e+00
1.320760771135e+01
1.205266032681e+01
2.183183066311e+01
2.380449905519e+01
1.744933137947e+01
1.844007999888e+01
1.825990977967e+01
2.487897346291e+01
2.495587047389e+01
2.495587047389e+01
2.495587047389e+01
2.495587047389e+01
1.230862306774e+01
2.333013099703e+01
2.124701589580e+01
2.141377017204e+01
2.495587047389e+01
1.996132778377e+01
2.495587047389e+01
2.495587047389e+01
2.200101079947e+01
2.296581745573e+01
2.201740446922e+01
2.354686216011e+01
2.238468345421e+01
2.032154885397e+01
2.495587047389e+01
2.495587047389e+01
2.495587047389e+01
2.491145324911e+01
2.477389071189e+01
2.495587047389e+01
1.669382520354e+01
2.413795295098e+01
1.748306431215e+01
2.052829931487e+01
2.343057110299e+01
2.327609198869e+01
2.495587047389e+01
2.495587047389e+01
1.687491635962e+01
2.493728222957e+01
2.495587047389e+01
2.495587047389e+01
2.148063677209e+01
-1.194117532530e+00
2.137951501256e+01
2.293195904978e+01
1.750485952569e+01
2.495587047389e+01
2.495587047389e+01
2.495587047389e+01
1.608793843270e+01
1.763682593426e+01
4.289153716325e+00
2.129098313494e+00
6.825810422625e+00
2.495587047389e+01
2.495587047389e+01
1.588086335786e+01
1.768446359451e+01
1.809433999715e+01
1.491096721464e+01
1.667993252733e+01
2.014663942766e+01
2.012762806821e+01
2.430605860931e+01
2.389801793986e+01
2.491157370593e+01
2.495587047389e+01
2.495587047389e+01
2.495587047389e+01
1.735520589411e+01
1.815326101994e+01
2.418530162111e+01
2.494142147591e+01
2.123491884460e+01
1.829136034051e+01
2.151609013004e+01
2.161506058802e+01
1.198763292141e+01
1.085958439927e+01
2.495587047389e+01
2.495587047389e+01
1.931765258432e+01
1.919935459661e+01
1.968403728566e+01
1.620166256741e+01
2.495587047389e+01
2.428905394464e+01
2.477729066202e+01
2.368464979677e+01
2.495587047389e+01
2.477605334593e+01
2.481828878869e+01
2.495587047389e+01
1.720683089381e+01
9.818248349607e-01
2.288772543983e+01
-7.899064291402e-01
5.949338471966e-01
-1.645350294530e+00
1.570489562990e+01
3.872450889271e+00
6.661470330801e+00
1.146990042668e+01
1.878756821757e+01
1.359628294067e+01
1.368911247671e+01
2.293577495659e+01
2.282080837122e+01
2.251262250053e+01
2.242899925996e+01
2.257316065299e+01
2.222913239426e+01
2.481711651917e-01
2.208425684831e+01
2.194953304792e+01
2.187956492529e+01
2.455572026705e+01
2.495587047389e+01
2.457354842018e+01
2.481649284617e+01
2.495587047389e+01
2.476860232406e+01
2.112585763164e+01
2.093772474876e+01
-1.380478487694e+00
-2.131096272222e+00
1.712031014925e+00
9.829956358592e-01
6.648962435135e+00
5.982567564799e+00
9.997905473657e+00
2.468262663448e+01
2.492041598737e+01
2.355762189636e+01
2.440973621554e+01
2.483511553608e+01
2.387070847414e+01
2.481729172659e+01
2.335122100100e+01
2.492858746800e+01
1.988885498439e+01
2.341683901249e+01
2.495587047389e+01
2.493957618511e+01
2.270157442226e+01
2.454973025615e+01
2.444991295131e+01
2.495587047389e+01
9.851677329555e+00
2.495587047389e+01
1.027477893714e+01
2.495587047389e+01
2.101619959552e+01
2.495587047389e+01
2.368053162510e+01
2.495587047389e+01
2.493200484780e+01
1.890061011292e+01
1.691402467786e+01
1.840932998698e+01
2.495587047389e+01
2.426768144502e+01
2.489876428234e+01
2.166159443194e+01
1.819212738978e+01
1.915387454769e+01
2.030524703391e+01
2.029532391906e+01
1.920940007009e+01
2.045948691971e+01
2.172781210975e+01
2.190708144406e+01
2.311636303117e+01
2.314604427435e+01
2.221397605790e+01
2.333481733676e+01
2.403856993682e+01
2.254380792188e+01
2.383046505158e+01
2.495493558837e+01
2.495587047389e+01
2.495587047389e+01
2.305773111360e+01
2.392762837915e+01
2.276660365985e+01
2.495587047389e+01
2.471942102065e+01
1.876848506591e+01
2.495587047389e+01
2.425993252170e+01
1.823091947826e+01
1.835801013261e+01
1.721058957821e+01
2.165887827945e+01
9.414991764810e+00
2.348616978450e+01
2.495587047389e+01
2.495587047389e+01
2.495587047389e+01
2.080445923937e+01
2.308018360185e+01
2.391641997485e+01
2.382062725448e+01
2.474658251514e+01
2.291927304807e+01
2.464687755659e+01
2.484989425857e+01
2.495587047389e+01
2.495587047389e+01
2.495587047389e+01
2.495587047389e+01
2.495587047389e+01
2.495587047389e+01
2.495587047389e+01
2.495587047389e+01
2.442357237374e+01
2.279277932868e+01
2.430895546376e+01
2.479072827589e+01
2.474010267440e+01
1.961598806017e+01
2.018365254936e+01
2.077715326768e+01
1.920817425538e+01
2.495587047389e+01
2.270771892767e+01
2.495587047389e+01
2.035001623576e+01
1.063805698152e+01
9.647002607522e+00
1.218816628544e+01
1.220499839350e+01
7.432697600807e+00
2.020670407553e+01
2.028513833699e+01
2.004039181920e+01
2.036572941692e+01
2.014020966173e+01
1.980922166447e+01
2.044073665969e+01
2.022746303555e+01
4.942150999030e+00
2.148672924136e+01
2.495587047389e+01
1.624330129548e+01
2.292381412552e+01
2.495587047389e+01
2.491752429109e+01
2.495587047389e+01
2.495587047389e+01
8.399003967803e+00
5.948055835554e+00
-1.388169066973e+01
7.294993435655e+00
1.120572093163e+01
1.327804719434e+01
2.161773447736e+01
1.912947110255e+01
1.890400369268e+01
1.833923757960e+01
1.866764468015e+01
1.933445236752e+01
1.799827909589e+01
1.775034992320e+01
-1.338331577190e+01
1.458183519998e+01
1.316442658328e+01
1.545983593375e+01
1.523953358487e+01
1.461144346568e+01
1.441988975002e+01
-1.352122965109e+01
1.417215756160e+01
1.453725174212e+01
-1.490648997008e+01
1.370209170699e+01
1.480732399434e+01
2.248957126206e+01
1.677469006907e+00
-1.460135829438e+01
1.891785728788e+01
1.937931756461e+01
1.927618953202e+01
2.134791695823e+01
2.142291345458e+01
1.889807830565e+01
1.718306923804e+01
2.159234314468e+01
1.674357310553e+01
2.495587047389e+01
1.820638439337e+01
2.087604093167e+01
2.168327348905e+01
2.152838313549e+01
2.087006920026e+01
2.190743189968e+01
2.386908306020e+01
1.534121374127e+01
7.720556820828e+00
5.923025641251e+00
1.399711398012e+01
1.731248989594e+01
1.966550067118e+01
1.423939150506e+01
2.484387258563e+01
2.151835573019e+01
2.398459632942e+01
1.905745278443e+01
1.798937211485e+01
1.911070329913e+01
2.495587047389e+01
2.130927751882e+01
2.341490577641e+01
1.510445049045e+01
-8.311750666892e+00
2.392075238054e+01
2.226102630149e+01
1.029320642170e+01
2.495587047389e+01
2.240064657176e+01
1.490911490770e+01
1.867325538337e+01
9.307098688760e+00
1.338662403375e+01
3.096834052033e+00
2.398328295249e+01
1.705070278810e+01
1.677668510667e+01
2.495587047389e+01
2.457800133166e+01
2.475357397304e+01
1.737778859626e+01
2.495587047389e+01
2.495587047389e+01
2.495587047389e+01
1.722137993258e+01
2.298118309212e+01
2.495587047389e+01
1.665313444942e+01
2.495587047389e+01
2.495587047389e+01
1.638362468388e+01
2.495587047389e+01
2.495587047389e+01
2.227723577265e+01
2.472864907670e+01
2.220903382991e+01
2.495587047389e+01
2.070892584536e+01
2.343954989194e+01
2.495587047389e+01
2.495587047389e+01
1.181949418172e+01
2.495587047389e+01
1.805337350081e+01
2.431546577118e+01
2.260474210315e+01
1.782612748757e+01
2.098960358914e+01
1.588395960782e+01
2.495587047389e+01
2.495587047389e+01
2.495587047389e+01
2.151539193934e+01
2.073639477298e+01
2.225962002849e+01
2.495587047389e+01
2.495587047389e+01
2.251579839104e+01
2.197362003448e+01
2.495587047389e+01
2.495587047389e+01
1.990195694906e+01
2.476427974832e+01
2.470594153020e+01
2.176627450676e+01
2.495587047389e+01
2.495587047389e+01
-1.470520833794e+00
2.176221251534e+01
2.495587047389e+01
2.495587047389e+01
2.495587047389e+01
2.495587047389e+01
2.127853908517e+01
2.430831476763e+01
2.113126377691e+01
2.492956349840e+01
1.747255564140e+01
2.063526857521e+01
2.495587047389e+01
1.490565993691e+01
2.420198798905e+01
2.055959801690e+01
2.495587047389e+01
2.495587047389e+01
2.447117372157e+01
2.054859933525e+01
2.495587047389e+01
2.058433267364e+01
2.495587047389e+01
1.854743404233e+01
2.063860185257e+01
2.467982831979e+01
1.415685770187e+01
2.495587047389e+01
2.128407219149e+01
2.040808903896e+01
2.495587047389e+01
1.941699072485e+01
2.495587047389e+01
2.495587047389e+01
2.489665513356e+01
2.495587047389e+01
2.495587047389e+01
2.495587047389e+01
2.485777174914e+01
1.688195201896e+01
1.538694471274e+01
2.495587047389e+01
2.468677441899e+01
1.543681992496e+01
2.124303975839e+01
1.242477117476e+01
2.495587047389e+01
2.495587047389e+01
7.645814105630e+00
2.495587047389e+01
1.642933761886e+01
2.495587047389e+01
2.495587047389e+01
2.439062394749e+01
2.294551187349e+01
1.807442934320e+01
2.193608208775e+01
1.901765985055e+01
2.156086829578e+01
-2.458544263181e+00
2.495587047389e+01
1.705663709043e+01
2.476074179508e+01
1.940368987095e+01
2.291001100810e+01
-2.504491491454e+00
1.792782692602e+01
2.404139278217e+01
2.382977456643e+01
1.250927973797e+01
2.493586713048e+01
2.495587047389e+01
1.693812604934e+01
-3.393852892477e-01
8.554930309941e+00
2.080494338973e+01
2.495587047389e+01
2.495587047389e+01
2.484265244869e+01
1.754981429361e+01
1.527689480399e+01
2.495587047389e+01
2.403817875430e+01
2.214784271989e+00
2.495587047389e+01
2.438275156887e+01
1.906183239872e+01
2.441167998240e+01
2.210182181025e+01
2.495587047389e+01
2.495587047389e+01
1.003658689638e+01
2.489855588061e+01
1.424213715510e+01
2.183969166831e+01
4.968990944085e+00
1.820047594888e+01
2.495587047389e+01
1.821255388188e+01
2.359119933723e+01
3.440973815463e+00
1.348884115935e+01
2.150313098307e+01
2.277462742214e+01
2.495587047389e+01
1.231807426973e+01
1.869395892722e+01
2.495587047389e+01
2.295875979669e+01
2.416893913118e+01
2.164635016090e+01
1.566572774315e+01
1.285762552446e+01
2.335135045299e+01
2.493086698692e+01
2.495587047389e+01
2.002118009554e+01
2.495587047389e+01
1.716338967255e+00
1.351619064958e+01
2.172938668880e+01
1.848470208958e+01
1.912657354251e+01
1.881285930433e+01
1.701834881269e+01
2.491724949356e+01
9.242220841632e+00
1.844410178734e+01
2.353475240756e+01
2.051225248301e+01
2.309362205884e+01
2.319927937549e+01
2.433868673942e+01
2.460423488749e+01
-7.859392737299e-01
2.168576884555e+01
1.811833944859e+01
1.439794491352e+01
1.912642092033e+01
-2.199041407202e+01
-1.008549157764e+00
2.158032769230e+01
1.496764849721e+01
-1.571518897549e-02
2.461401822429e+01
1.999433144783e+01
1.611920193619e+01
2.152901073295e+01
1.807251627843e+01
9.756397080584e+00
2.412564320172e+01
1.969336026468e+01
6.661865198044e+00
2.495587047389e+01
2.459047004026e+01
1.946482037102e+01
2.495587047389e+01
2.470332985055e+01
2.495587047389e+01
2.028205978478e+01
1.411647093092e+01
2.224538805326e+01
1.964565924190e+01

SCALARS node_materi_stress_average_a_sig float
LOOKUP_TABLE default
-2.502573710126e+00
-1.605054968101e+01
-2.433672200992e+02
-1.211897024964e+02
-8.759952523659e+00
-2.067231838464e+01
-3.322599388868e+01
-4.702210595361e+01
-6.042153899393e+01
-7.363429723206e+01
-8.667783097108e+01
-9.959465077663e+01
-1.124062895781e+02
-1.252030225256e+02
-1.382113932464e+02
-1.508890898104e+02
-1.623068060426e+02
-1.747772905703e+02
-1.875215508904e+02
-1.998368648578e+02
-2.121889249655e+02
-2.245833438701e+02
-2.364609713558e+02
-1.218272778951e+02
-1.212321396302e+02
-1.216062400937e+02
-1.218865759368e+02
-1.221405570869e+02
-1.231514421945e+02
-1.245628159683e+02
-1.255383603570e+02
-1.277668091178e+02
-1.296193753652e+02
-1.319483632388e+02
-1.352718338137e+02
-1.395564369283e+02
-1.431822916374e+02
-1.478087975072e+02
-1.522705171007e+02
-1.578785369613e+02
-1.644012086149e+02
-1.703816092881e+02
-1.760749705856e+02
-1.806425569257e+02
-1.840740831516e+02
-1.875908528988e+02
-1.914075830415e+02
-1.952306622904e+02
-1.990448860803e+02
-2.027481809139e+02
-2.061825420509e+02
-2.095979945734e+02
-2.136984258168e+02
-2.171938980061e+02
-2.205070712366e+02
-2.247562062338e+02
-2.289157867684e+02
-2.330255932980e+02
-2.369774962691e+02
-2.401425304376e+02
-2.425990885334e+02
-2.440224427224e+02
-2.447616995908e+02
-2.453806758486e+02
-2.458922243073e+02
-2.459382564753e+02
-2.439222697308e+02
-2.449268001650e+02
-2.440271962026e+02
-2.440455280187e+02
-2.442395099928e+02
-2.440303582408e+02
-2.307543642194e+01
-3.493222162287e+01
-4.674265093483e+01
-5.818900918884e+01
-6.980294183224e+01
-8.149601962796e+01
-9.277909697976e+01
-1.037366067135e+02
-1.153252788626e+02
-5.190944469496e+01
-3.659969070538e+01
-2.142989064239e+01
-2.071733296215e+01
-2.118190083346e+01
-2.074255925045e+01
-2.096113029085e+01
-2.143321972149e+01
-2.188751476381e+01
-2.247249903297e+01
-2.509079144321e+01
-1.513289435572e+01
-1.551670576115e+01
-1.557501144286e+01
-1.529926201478e+01
-1.704836991365e+01
-1.584733032042e+01
-1.581001125706e+01
-1.606386119812e+01
-1.689586581265e+01
-1.711054051814e+01
-1.771783156999e+01
-1.910493360574e+01
-2.209511986852e+01
-2.818231420369e+01
-7.041356939820e+01
-8.336333079738e+01
-8.581762738716e+01
-7.572202544428e+01
-4.536981779226e+01
-1.253326624492e+01
-3.589751533352e+00
-2.144460433115e+00
-2.019193386535e+00
-1.953116567303e+00
-2.311967867906e+00
-2.285064539251e+00
-2.260404587429e+00
-2.043125345552e+00
-2.125227430679e+00
-2.197171237981e+00
-2.242234323493e+00
-2.122417227705e+00
-1.859072793424e+00
-2.247598614201e+01
-2.092856465145e+01
-2.067659918347e+01
-2.141364912637e+01
-2.115612975955e+01
-2.106009372597e+01
-2.161035946619e+01
-2.203795290850e+01
-2.328884021441e+01
-3.042218881176e+01
-2.990608301848e+01
-2.204215841361e+02
-6.165093981737e+00
-5.766702414345e+01
-2.368880685633e+02
-2.920766225774e+01
-1.322377821322e+02
-2.045735579068e+02
-2.950289404144e+01
-1.911043002766e+02
-3.194695758305e+01
-2.405588065972e+02
-6.145753453998e+00
-1.770808240744e+02
-4.300364935998e+01
-8.083061930502e+01
-1.666150917662e+02
-1.628184327468e+02
-1.419413296279e+02
-1.192360178091e+02
-1.223831261906e+02
-1.307872769996e+02
-3.192753634638e+01
-2.347703073674e+01
-2.293919652951e+01
-6.410907088107e+01
-2.393306793146e+02
-7.050008922511e+01
-6.613177956529e+00
-2.055918388790e+02
-2.075199149573e+01
-4.004004658896e+01
-1.497737443463e+02
-1.986897064595e+02
-1.839786547365e+02
-2.108819133596e+02
-2.287854792892e+02
-1.883703056527e+01
-2.537819270808e+01
-2.373190105319e+02
-8.685857874502e+01
-6.818120165910e+00
-1.061205149018e+02
-1.196067986149e+02
-3.090676971303e+01
-2.898406337114e+01
-3.071019948141e+01
-3.487044012433e+01
-3.443133306413e+01
-4.184051240851e+01
-2.408198808998e+02
-6.221890534662e+00
-1.087896353446e+02
-4.337683096744e+01
-5.499100748767e+01
-5.504644004250e+01
-6.744598409127e+01
-6.916419844719e+01
-7.964194265310e+01
-7.810788935821e+01
-8.984379408413e+01
-8.817613293521e+01
-8.214863418816e+01
-9.973938136100e+01
-9.803727625646e+01
-1.094951542472e+02
-1.077686057528e+02
-9.658140302191e+01
-1.062337025753e+02
-9.520082905210e+01
-1.048353645031e+02
-1.158023017898e+02
-1.144145589346e+02
-1.035272013133e+02
-1.131177712905e+02
-1.023360892454e+02
-1.119033224766e+02
-1.013149194365e+02
-1.103356885265e+02
-1.199147162191e+02
-1.171652895163e+02
-1.081692927012e+02
-1.138485324849e+02
-1.049880743451e+02
-1.105559414108e+02
-1.189391775639e+02
-1.158123021469e+02
-1.078438166715e+02
-1.129984538017e+02
-1.053541754332e+02
-1.099815958057e+02
-1.024048028938e+02
-1.068423364646e+02
-1.149671526825e+02
-1.120996957381e+02
-1.039921767769e+02
-1.095311329841e+02
-1.188232865433e+02
-1.165839069419e+02
-1.266109892005e+02
-1.245655189262e+02
-1.146175926145e+02
-1.227275490866e+02
-1.326715937072e+02
-1.307638283086e+02
-1.210031004462e+02
-1.288334719694e+02
-1.384687591925e+02
-1.362525446910e+02
-1.266125523467e+02
-1.321915913249e+02
-1.424341131437e+02
-1.359994138112e+02
-1.251953322609e+02
-1.283399445144e+02
-1.394439824532e+02
-1.318381713266e+02
-1.432113745939e+02
-1.203821450992e+02
-1.240298977196e+02
-1.121925309605e+02
-1.160843031353e+02
-1.239590842811e+02
-1.039076261452e+02
-1.002577206267e+02
-1.080589322674e+02
-1.203622804285e+02
-9.555937300548e+01
-9.998735063601e+01
-8.721110269475e+01
-9.743092764854e+01
-1.253282961197e+02
-9.191854681255e+01
-7.892281625679e+01
-7.414453230072e+01
-6.568662953725e+01
-7.250024637791e+01
-8.492668183626e+01
-7.502261846602e+01
-8.795277633754e+01
-7.887250407538e+01
-7.073267810694e+01
-1.115004496566e+02
-9.725704666612e+01
-9.261360356863e+01
-9.874828196986e+01
-1.289258237222e+02
-1.046571077464e+02
-9.682988281421e+01
-1.095253457217e+02
-1.505078808297e+02
-1.545066435501e+02
-1.614898022941e+02
-1.657371582457e+02
-1.724032013015e+02
-1.769576442497e+02
-1.702705679104e+02
-1.817866792432e+02
-1.750348010148e+02
-1.833051995922e+02
-1.786806759489e+02
-1.867876443475e+02
-1.799579543222e+02
-1.918894904782e+02
-1.849825547945e+02
-1.729556609216e+02
-1.779471560728e+02
-1.658795741508e+02
-1.368756987050e+02
-1.393020600250e+02
-1.471874482854e+02
-1.497308433303e+02
-1.575948349711e+02
-1.602255883932e+02
-1.680693807232e+02
-1.654641077631e+02
-1.191181275003e+02
-1.014519760038e+02
-9.690811097310e+01
-9.463358488704e+01
-9.056929604631e+01
-8.886061660930e+01
-8.451049533557e+01
-8.365637534275e+01
-8.679536451262e+01
-8.225673712928e+01
-8.391611856844e+01
-7.945263850399e+01
-7.986582034745e+01
-1.258909443582e+02
-1.524061335273e+02
-1.629536052173e+02
-1.551139737633e+02
-6.072407390871e+01
-1.900813340556e+02
-1.891425753120e+02
-1.835924976468e+02
-1.759035774441e+02
-5.752531502176e+01
-7.853378152019e+01
-7.863370139861e+01
-9.135117327170e+01
-8.273380239674e+01
-1.939126588625e+02
-6.274007789607e+01
-1.934169473180e+02
-7.869335695091e+01
-1.830312066342e+02
-1.952169859664e+02
-1.633567853628e+02
-1.657880095926e+02
-1.579976952011e+02
-8.646328538657e+01
-8.230285769454e+01
-7.406647365357e+01
-7.826569180543e+01
-8.840438989292e+01
-8.592759420064e+01
-7.492886458941e+01
-7.977520809598e+01
-9.079815107698e+01
-8.085159594221e+01
-6.927349357559e+01
-7.021356747572e+01
-2.021943376626e+02
-7.547434570144e+01
-8.550700632163e+01
-1.999319511552e+02
-1.784704922056e+02
-9.500133477773e+01
-8.687454045545e+01
-7.436911573728e+01
-7.907070398021e+01
-9.122870965982e+01
-8.384728794287e+01
-7.157452972908e+01
-7.673781522477e+01
-6.441604343643e+01
-6.991879930341e+01
-8.193516670716e+01
-7.544906307869e+01
-6.340485019774e+01
-6.917358376241e+01
-5.711847193365e+01
-6.306935681093e+01
-7.496135781998e+01
-4.985533371155e+01
-1.733669493110e+02
-1.838810675661e+02
-1.022281222668e+02
-1.143982379269e+02
-1.220273764613e+02
-1.271683833456e+02
-6.898671525810e+01
-8.073002516877e+01
-7.171484054012e+01
-7.094867368907e+01
-1.034076709744e+02
-1.882164465731e+02
-1.759807354942e+02
-9.579962411070e+01
-8.888786768289e+01
-8.630587594554e+01
-7.834108484544e+01
-7.912720120564e+01
-7.609446001015e+01
-1.732383366543e+02
-8.723228664875e+01
-6.960096645640e+01
-5.600391868502e+01
-2.004095508741e+02
-1.629640857167e+02
-1.289981076522e+02
-1.345450683612e+02
-1.379033373433e+02
-1.434275872216e+02
-1.468706540140e+02
-1.530644011862e+02
-1.495942214697e+02
-1.687894644059e+02
-1.599522848306e+02
-5.700612098948e+01
-1.445653030908e+02
-9.240219017110e+01
-4.427578591062e+01
-5.610115389339e+01
-5.477590908564e+01
-6.805639510240e+01
-2.047313634937e+02
-1.564360189072e+02
-1.502791527903e+02
-6.809593251899e+01
-6.890463605867e+01
-1.765247172340e+02
-6.582274664665e+01
-5.894923324928e+01
-5.170771742577e+01
-4.044601289099e+01
-5.509390892493e+01
-9.573367875045e+01
-7.906030197403e+01
-7.242897197884e+01
-7.551974636741e+01
-7.279236148420e+01
-7.481913817265e+01
-8.639001218807e+01
-1.345058916794e+02
-1.395567133226e+02
-1.974474820994e+02
-5.908457294708e+01
-9.234069076939e+01
-1.708132418113e+02
-1.605283852784e+02
-1.196222478159e+02
-6.298524080003e+01
-6.521168250525e+01
-1.015797125188e+02
-7.271106879161e+01
-6.022958167849e+01
-2.086263122363e+02
-1.029301705373e+02
-1.565672573363e+02
-1.460699218805e+02
-1.673708749449e+02
-4.425344266000e+01
-2.114926628577e+02
-1.934581589478e+02
-1.594210901781e+02
-1.536853829139e+02
-8.094053267355e+01
-7.371256014279e+01
-6.464424499124e+01
-6.484688299303e+01
-7.671721752393e+01
-8.249802980593e+01
-8.411797969186e+01
-7.442324411040e+01
-7.311102790263e+01
-7.979442764727e+01
-6.975184755572e+01
-9.242217285335e+01
-1.314610355111e+02
-1.296007727657e+02
-1.610056830045e+02
-1.575609984438e+02
-9.355625060203e+01
-9.872127127928e+01
-5.112684639090e+01
-4.489697190331e+01
-4.693446414883e+01
-4.187059723739e+01
-1.473081470036e+02
-2.057564711356e+02
-1.066086010994e+02
-1.148809811452e+02
-1.119720189116e+02
-2.003174702243e+02
-9.911964901351e+01
-1.448195300960e+02
-7.021575517794e+01
-1.273718375864e+02
-3.293880145160e+01
-1.267857737849e+02
-2.057078078207e+02
-2.125452153869e+02
-1.795023579354e+02
-5.648019537958e+01
-1.327625597337e+02
-1.297236973073e+02
-6.352270431793e+01
-6.209377796760e+01
-7.183526004511e+01
-6.082625054807e+01
-1.035741089381e+02
-9.456629489973e+01
-1.672228215006e+02
-1.703531214260e+02
-1.626034600979e+02
-1.570387618044e+02
-1.876760238609e+02
-1.841396679453e+02
-7.301607603620e+01
-5.874057089122e+01
-1.072082135921e+02
-6.480181648329e+01
-2.176065428446e+02
-2.115884000466e+02
-6.763444666079e+01
-6.167150366527e+01
-9.803712973844e+01
-5.415827047050e+01
-5.444590319700e+01
-5.440251731415e+01
-2.302906202338e+02
-2.028434811478e+01
-2.179321696945e+02
-8.066176087340e+01
-1.039993361348e+02
-1.395166500266e+02
-9.302847579391e+01
-1.895787273095e+02
-9.162630831155e+01
-1.039822954077e+02
-4.585372189284e+01
-3.847714329559e+01
-5.306990419281e+01
-7.484529038830e+01
-7.030894280828e+01
-9.250427481649e+01
-8.903617093457e+01
-9.547416791530e+01
-6.221237015392e+01
-7.552812043151e+01
-1.418411206120e+02
-1.370799337954e+02
-1.362479570210e+02
-1.378428723411e+02
-1.319625297118e+02
-1.683953990816e+02
-1.581946437582e+02
-1.504357753433e+02
-1.045765838351e+02
-1.110103648724e+02
-1.119793256170e+02
-1.071388846900e+02
-1.059961501776e+02
-1.142713349895e+02
-2.245474464218e+02
-2.192914753304e+02
-2.741540013511e+01
-3.676375102979e+01
-5.348371184163e+01
-5.682290993894e+01
-1.230293003372e+02
-1.210080107552e+02
-1.268977066689e+02
-6.445191707687e+01
-1.532277666823e+02
-2.115667631884e+02
-2.025453101357e+02
-2.217387315371e+02
-1.717369867526e+02
-1.827513515694e+02
-1.783383981721e+02
-7.155345231980e+01
-9.968175139416e+01
-3.805406130576e+01
-6.710407933995e+01
-3.201466310601e+01
-3.875871881458e+01
-2.546552167853e+01
-5.155137533264e+01
-3.748309846593e+01
-4.758908829430e+01
-1.946914939108e+01
-1.177644031887e+02
-1.944860214777e+01
-2.490552917663e+01
-2.236784787699e+02
-2.171476286524e+02
-2.290860235730e+02
-2.222805205825e+02
-2.105343319358e+02
-2.160844572160e+02
-3.138590989456e+01
-2.296024990519e+02
-2.216944174700e+02
-2.351455981097e+02
-4.832471818705e+01
-6.544726191579e+01
-5.584714576496e+01
-4.234702356840e+01
-1.678120235464e+02
-1.590578575835e+02
-1.991417701053e+02
-1.867712869041e+02
-3.212493592590e+01
-3.124268464296e+01
-4.222272796100e+01
-4.049874823138e+01
-5.142759613506e+01
-4.963019440214e+01
-6.071361080606e+01
-1.819145864592e+02
-4.228161734470e+01
-5.143162786893e+01
-1.960955440237e+02
-1.912454663249e+02
-5.966011207202e+01
-4.637435795807e+01
-2.250270077399e+02
-8.920683486909e+01
-1.262750635109e+02
-5.657875312214e+01
-6.538892966901e+01
-9.102239526017e+01
-7.074561637879e+01
-6.723474289911e+01
-5.694201466621e+01
-1.788302377099e+02
-3.203181000856e+01
-5.399144952861e+01
-6.242982436478e+01
-4.241915425542e+01
-1.931897932435e+02
-9.477569101629e+01
-9.058907498970e+01
-6.385268980513e+01
-7.454972976818e+01
-8.677114751371e+01
-6.636416687969e+01
-6.603111692864e+01
-9.948109927520e+01
-5.773920928645e+01
-4.339027462869e+01
-9.383298981533e+01
-1.092605581582e+02
-1.183687162415e+02
-1.296029752560e+02
-1.277309109009e+02
-1.161389828805e+02
-1.256130819243e+02
-1.368844890311e+02
-1.355296074483e+02
-1.486683431900e+02
-1.450874363014e+02
-1.330859310968e+02
-1.421907157325e+02
-1.534283512622e+02
-1.306911945972e+02
-2.004126618619e+02
-9.960000129248e+01
-7.259236299642e+01
-6.311455381350e+01
-9.151949977822e+01
-1.570235108532e+02
-1.462283906276e+02
-8.550621219552e+01
-1.801185094099e+02
-7.575508159297e+01
-7.912417894919e+01
-1.875022290641e+02
-1.066538384321e+02
-1.041221275418e+02
-9.448707451700e+01
-1.381624047996e+02
-6.118835422295e+01
-2.018344750481e+02
-1.419003729789e+02
-1.341183986513e+02
-1.240888502798e+02
-1.234181591402e+02
-2.162821568076e+02
-2.073476550436e+02
-2.112599477873e+02
-1.977667439106e+02
-2.244837434911e+02
-1.688845481483e+02
-1.738226148135e+02
-9.671836441966e+01
-9.907628652813e+01
-1.094038737314e+02
-1.013335961318e+02
-9.159859396316e+01
-9.435862500389e+01
-1.032629661134e+02
-8.969309126765e+01
-1.487873134063e+02
-2.322948048114e+02
-1.681652772507e+02
-1.629375106319e+02
-1.526965498805e+02
-1.248990311961e+02
-1.324937401462e+02
-1.444609813622e+02
-1.172235782034e+02
-1.398674557550e+02
-2.351094711350e+02
-1.527110628533e+02
-1.281055937092e+02
-2.811159245289e+01
-4.330840773197e+01
-4.863424254515e+01
-5.973629697307e+01
-4.128499333215e+01
-1.467512294720e+02
-1.517839860489e+02
-1.447473773657e+02
-1.569131461142e+02
-1.496889535106e+02
-1.383513938794e+02
-1.618972846963e+02
-1.539164568770e+02
-2.422232482446e+01
-3.522681531396e+01
-4.247864406007e+01
-3.218037722948e+01
-5.112780267593e+01
-5.418481213527e+01
-6.354217871967e+01
-6.186965407964e+01
-5.139858769613e+01
-1.068264721933e+01
-2.360400711338e+01
-7.720042335981e+00
-1.923646144842e+01
-3.830608957094e+01
-5.176115771554e+01
-2.374411120041e+02
-1.187513198225e+02
-1.127011215663e+02
-1.004350834886e+02
-1.072799103608e+02
-1.238091864873e+02
-9.347548873762e+01
-8.894257770118e+01
-6.645255162635e+00
-1.627057022803e+01
-1.536216739616e+01
-2.763774560340e+01
-2.745701110541e+01
-1.650748081636e+01
-1.658281946215e+01
-6.581627101783e+00
-1.660728952984e+01
-2.836297775422e+01
-6.315572407951e+00
-7.580661399066e+01
-8.205776820597e+01
-2.379666487415e+02
-2.399791713757e+01
-6.609916582949e+00
-1.167359146904e+02
-1.216436474921e+02
-1.204809627638e+02
-2.180817856045e+02
-2.242523442287e+02
-1.160361000387e+02
-8.271967664812e+01
-1.390751371682e+02
-9.790287871471e+01
-7.288571127211e+01
-8.522740503456e+01
-1.812450867820e+02
-1.680950333165e+02
-2.072914502231e+02
-1.708851511715e+02
-1.970412504075e+02
-2.148266523986e+02
-4.735364881812e+01
-5.756089701428e+01
-5.103455159852e+01
-8.099990630630e+01
-8.384802008936e+01
-1.328136460043e+02
-5.218469275554e+01
-1.759240986537e+02
-8.281909777847e+01
-1.468320924376e+02
-1.125339507430e+02
-9.147545253544e+01
-8.267290598160e+01
-1.019602824828e+02
-1.357294319997e+02
-1.882684761960e+02
-8.657751978101e+01
-7.441110137193e+00
-1.943722639506e+02
-1.588033124578e+02
-6.643202001301e+01
-1.707449906806e+02
-6.921871624624e+01
-8.871241253539e+01
-1.172830664606e+02
-5.608572360185e+01
-3.842065098091e+01
-4.477015542273e+01
-2.164224813268e+02
-1.001916196393e+02
-7.590996392104e+01
-1.346719990192e+02
-1.002729423910e+02
-3.791328424006e+01
-1.034071328278e+02
-1.209413511074e+02
-1.862887096657e+02
-1.550856774966e+02
-8.128386807664e+01
-2.052261347483e+02
-1.213537021945e+02
-1.003549573001e+02
-1.412603080829e+02
-1.072592212043e+02
-9.876976716752e+01
-1.460233970611e+02
-1.735468769365e+02
-8.166996884560e+01
-1.221644345738e+02
-1.173330188754e+02
-1.224825012663e+02
-1.743519636524e+02
-1.997848213601e+02
-7.476366764850e+01
-8.405260687450e+01
-6.981377757333e+01
-1.631178468689e+02
-1.115543557307e+02
-8.986037517645e+01
-1.986349050282e+02
-1.099232839630e+02
-1.399656425157e+02
-5.485394741079e+01
-6.750645762738e+01
-9.232108024726e+01
-1.179802979233e+02
-1.516964759254e+02
-1.336510424359e+02
-2.038807156011e+02
-1.868903770737e+02
-3.100416562524e+01
-5.370633974124e+01
-2.091418695369e+02
-1.426214217796e+02
-1.810991578910e+02
-1.421719729075e+02
-1.789650767255e+02
-4.729102731985e+01
-2.145351461340e+02
-1.813394719664e+02
-8.693732674518e+01
-2.079213003911e+01
-2.284207412397e+02
-1.920123709336e+02
-1.310301838588e+02
-1.405366438910e+02
-3.300374703429e+01
-1.562937056475e+02
-1.238856366118e+02
-1.344343820756e+02
-1.942056829189e+02
-9.191039574169e+01
-1.490972438753e+02
-1.472359321128e+02
-2.772859377062e+01
-4.958934305693e+01
-1.538938321663e+02
-9.678472872694e+01
-1.482346593900e+02
-1.911069047777e+02
-1.588444633604e+02
-1.052203059069e+02
-1.638883099691e+02
-3.128156641855e+01
-1.018006142425e+02
-1.689920547407e+02
-1.343718999102e+02
-2.966269403006e+01
-1.362380221665e+02
-2.116020774865e+02
-1.088313032056e+02
-1.559101614887e+02
-1.137958422459e+02
-3.015273011394e+01
-1.660134445599e+02
-1.443645525799e+02
-1.426202352670e+02
-1.268931169108e+02
-1.763643830841e+02
-4.567838342010e+01
-7.872518925000e+01
-6.561193928146e+01
-1.128485076318e+02
-1.468845881641e+02
-3.873395628597e+01
-1.212305756692e+02
-4.765351919953e+01
-1.112071036477e+02
-1.609838964929e+02
-5.329325375187e+01
-1.192355579820e+02
-6.795358473812e+01
-1.170295872323e+02
-1.368059017301e+02
-1.220920826819e+02
-1.144326504521e+02
-1.090860895133e+02
-1.172101929684e+02
-1.179396691834e+02
-2.378898497761e+02
-2.982886921777e+01
-2.698857035009e+01
-7.377687512914e+01
-4.667487532323e+01
-9.719495084946e+01
-1.285383851451e+02
-3.032616143343e+01
-8.811492744376e+01
-1.571588123696e+02
-1.951925085030e+02
-7.021486546183e+01
-1.883687010778e+02
-1.501375959802e+02
-9.706580647016e+01
-2.041850930489e+01
-1.727112470652e+01
-1.805681805094e+02
-2.686430501602e+01
-4.239846813911e+01
-4.252302305559e+01
-8.543008170436e+01
-4.221167826371e+01
-2.919352921536e+01
-2.030111017007e+02
-3.393817271910e+01
-1.639622794633e+02
-2.913338211507e+01
-1.207549817845e+02
-1.881221060888e+02
-2.402253161440e+02
-1.750682635587e+02
-4.238229274189e+01
-5.317632471764e+01
-1.725127751804e+02
-7.976014002780e+01
-2.410557744701e+02
-3.496059230071e+01
-1.092622093409e+02
-6.819678003668e+01
-1.087826192143e+02
-1.398656528798e+02
-4.555190493396e+01
-6.092473371355e+01
-2.300759361007e+02
-1.462767687090e+02
-4.617845493535e+01
-6.999036408310e+01
-1.077834335877e+02
-5.913387135478e+01
-2.282576583231e+02
-1.505368268085e+02
-2.295548715791e+02
-2.716316478901e+01
-1.501587202492e+01
-2.270399201569e+02
-1.670540213003e+02
-6.816763984658e+01
-1.272852296104e+02
-5.327802785688e+01
-1.962010963502e+01
-1.569711165100e+01
-2.404423314825e+02
-1.141363525317e+02
-1.184372430111e+02
-3.863578648852e+01
-7.683857401870e+01
-1.721452364427e+02
-2.987159353382e+01
-1.129597193598e+02
-2.217402099063e+02
-1.329317207043e+02
-2.114162806359e+02
-7.113596116836e+01
-1.883770553270e+02
-2.038740433655e+02
-2.001811309314e+01
-1.394589646883e+02
-9.578898290897e+01
-3.871422523704e+01
-1.188095985593e+02
-5.175378998867e+00
-1.910379521629e+01
-2.404125655030e+02
-3.637422041047e+01
-3.860452098702e+01
-1.635706819019e+02
-1.452655122963e+02
-9.067058721453e+01
-5.658112173391e+01
-7.120188556156e+01
-5.948074261176e+01
-1.935051662190e+02
-1.263340361612e+02
-5.189208616615e+01
-6.053765998180e+01
-1.594559095867e+02
-1.281550577116e+02
-1.669697961416e+02
-1.969459143199e+02
-4.258431501665e+01
-1.561323807226e+02
-1.410160124351e+01
-2.322798459672e+02
-1.333717005018e+02

SCALARS node_materi_stress_size_dev_sd_sig float
LOOKUP_TABLE default
7.479808262906e+00
1.531525959196e+01
1.839886874512e+02
9.039774647901e+01
1.528767794044e+01
2.432995714684e+01
3.096377476282e+01
3.902812202937e+01
4.709798539988e+01
5.533433819579e+01
6.396764036524e+01
7.297562630698e+01
8.226162132119e+01
9.195119976753e+01
1.021250028389e+02
1.118060466800e+02
1.206259546693e+02
1.305587188361e+02
1.405994713497e+02
1.502232807582e+02
1.598482473091e+02
1.694716452479e+02
1.785680681226e+02
9.128715932407e+01
9.100072035845e+01
9.145781102888e+01
9.198475208596e+01
9.222077081055e+01
9.354934293994e+01
9.493191389582e+01
9.674211661697e+01
9.934453050883e+01
1.020979862127e+02
1.047939668000e+02
1.090946940092e+02
1.136950740105e+02
1.184209917416e+02
1.231653489148e+02
1.281180999524e+02
1.333791182449e+02
1.390771958063e+02
1.443370667818e+02
1.488605892716e+02
1.518285467224e+02
1.537381917442e+02
1.555270182306e+02
1.573107224323e+02
1.591116878292e+02
1.610802955625e+02
1.629198582393e+02
1.646718126175e+02
1.664075798492e+02
1.685373178673e+02
1.706942626646e+02
1.726157809903e+02
1.750542695047e+02
1.775821295935e+02
1.802190039277e+02
1.826027826738e+02
1.846997805235e+02
1.860453680617e+02
1.867890612926e+02
1.869202546127e+02
1.868900753693e+02
1.868765341151e+02
1.866325553407e+02
1.851938184308e+02
1.855080874099e+02
1.848383037062e+02
1.847362425910e+02
1.847919780169e+02
1.846199188339e+02
1.267295040637e+01
1.355506538817e+01
1.984053116351e+01
2.821575903887e+01
3.787375060169e+01
4.822422434372e+01
5.918475127354e+01
7.063236917198e+01
8.276029190509e+01
4.524287619322e+01
4.013576859804e+01
2.884341202956e+01
2.831446722772e+01
2.907783893878e+01
2.836150779802e+01
2.853025962015e+01
2.889515849853e+01
2.924345475085e+01
2.969006855785e+01
3.167447238403e+01
1.569929670538e+01
1.535265104164e+01
1.539676329497e+01
1.578299989696e+01
1.531761895394e+01
1.591341727964e+01
1.631521873797e+01
1.633235086144e+01
1.645784952671e+01
1.719632716716e+01
1.833256450704e+01
2.025838216624e+01
2.420566831735e+01
3.212732182059e+01
3.797092457400e+01
3.488324810324e+01
3.269502238087e+01
3.329677804294e+01
3.928487934331e+01
1.896329729154e+01
7.547132536550e+00
6.136166116395e+00
7.395013898272e+00
7.232645347201e+00
7.297381992373e+00
7.750955331045e+00
7.502226877254e+00
7.022885159525e+00
7.126637602206e+00
7.318010110665e+00
7.341119814003e+00
7.042643807508e+00
6.464612395606e+00
2.964116203578e+01
2.844598309103e+01
2.866351246842e+01
2.893369508748e+01
2.868273153810e+01
2.860881908850e+01
2.903080638805e+01
2.935888971172e+01
3.031578608215e+01
3.549843819950e+01
3.533331379833e+01
1.745867564704e+02
1.284209759485e+01
4.699718882392e+01
1.849277121370e+02
3.452374124483e+01
9.742565631693e+01
1.649478969013e+02
3.486427591105e+01
1.576938119472e+02
3.684587513887e+01
1.839792992419e+02
1.276872969873e+01
1.500849114720e+02
4.217153014570e+01
5.999677927178e+01
1.242674711170e+02
1.368563263109e+02
1.145756187646e+02
8.734878647790e+01
9.046405279245e+01
1.010778814201e+02
2.757397841105e+01
1.634223006747e+01
1.425467883016e+01
3.294637702220e+01
1.816244128806e+02
5.061206690559e+01
1.310812719889e+01
1.548133459931e+02
1.352537595595e+01
3.493164935801e+01
1.233546229569e+02
1.616367538957e+02
1.540363241509e+02
1.689852232834e+02
1.799823719060e+02
2.279573574126e+01
1.956155316485e+01
1.838593334132e+02
5.342660218556e+01
1.338969873541e+01
7.767424351588e+01
8.790088769707e+01
3.587043041607e+01
3.486142127386e+01
3.581595085494e+01
3.916392581625e+01
3.803950243337e+01
1.677006869945e+01
1.822629596465e+02
1.254307882953e+01
7.602668348287e+01
3.904235722868e+01
4.398990243470e+01
3.965112379161e+01
4.909233962876e+01
4.637988482781e+01
5.614100162156e+01
5.774603914376e+01
6.593159818908e+01
6.689352714966e+01
5.468617153096e+01
7.590027258206e+01
7.646467549558e+01
8.606897181215e+01
8.637360219164e+01
7.704911217124e+01
8.673380325467e+01
7.761547027708e+01
8.717197480474e+01
9.663673674539e+01
9.702318135788e+01
8.771618597045e+01
9.750997117903e+01
8.832440958000e+01
9.806492825782e+01
8.895803803644e+01
9.780548826194e+01
1.056485806121e+02
1.035353299739e+02
9.647735288737e+01
1.009351772128e+02
9.398264399869e+01
9.834151319998e+01
1.049259933607e+02
1.024662365344e+02
9.620560918733e+01
1.002603723954e+02
9.425515812960e+01
9.790100249333e+01
9.194486254453e+01
9.543651580727e+01
1.018319428096e+02
9.958051450405e+01
9.319075970298e+01
9.756289132854e+01
1.048637853919e+02
1.031058179182e+02
1.109712888196e+02
1.093670668980e+02
1.015633097852e+02
1.079256212174e+02
1.157256942653e+02
1.142292084857e+02
1.065732555187e+02
1.127161330439e+02
1.202711078587e+02
1.185348009208e+02
1.109770505708e+02
1.141154273281e+02
1.224220597058e+02
1.145700128483e+02
1.054490363151e+02
1.051494877853e+02
1.145508687106e+02
1.056484869601e+02
1.153244285255e+02
9.584475976963e+01
9.695224505737e+01
8.679892949577e+01
8.860370692809e+01
1.088711051597e+02
7.829307043726e+01
7.655749889957e+01
8.078043002375e+01
9.104677110333e+01
7.050419654201e+01
7.358765809618e+01
6.356712964171e+01
8.802752940969e+01
1.066673610125e+02
6.709395142745e+01
5.747255112720e+01
5.375290781386e+01
4.822370470333e+01
4.507573918200e+01
5.391341328667e+01
4.373495183937e+01
5.412872552508e+01
4.437482969660e+01
5.207845476491e+01
8.590056669240e+01
6.453375381826e+01
7.889314494273e+01
8.896587182652e+01
1.127875833866e+02
7.694003749911e+01
7.076755233520e+01
8.052697879332e+01
1.238546084676e+02
1.248866449271e+02
1.330152760147e+02
1.343251945385e+02
1.420242472739e+02
1.436423941474e+02
1.361723096204e+02
1.456294100905e+02
1.383489942496e+02
1.509056352663e+02
1.495012937881e+02
1.478091623686e+02
1.407355776072e+02
1.501362136179e+02
1.432899066328e+02
1.336707327435e+02
1.364739853481e+02
1.267604268681e+02
1.190214501004e+02
1.209241406599e+02
1.271089297329e+02
1.291031885770e+02
1.352709540277e+02
1.373339346885e+02
1.434859308171e+02
1.414422408616e+02
9.637162052288e+01
9.119074535066e+01
8.759444479301e+01
8.578605630298e+01
8.258643137606e+01
8.118960003983e+01
7.780880092411e+01
7.706364895038e+01
7.955745307178e+01
7.583906871077e+01
7.737395410021e+01
7.338291656057e+01
7.410074699408e+01
1.103821612524e+02
1.312016161141e+02
1.394733998190e+02
1.333256932758e+02
4.438054925217e+01
1.460174061194e+02
1.577118565725e+02
1.550038377016e+02
1.496291657342e+02
4.348965232589e+01
7.310379990786e+01
7.317895902195e+01
5.542910707781e+01
4.615757933188e+01
1.629260266088e+02
4.728404443922e+01
1.547830699792e+02
7.235243606306e+01
1.394537957297e+02
1.489407624628e+02
1.286688248211e+02
1.416976290460e+02
1.355880200367e+02
7.943225898903e+01
7.622346220910e+01
6.946990783400e+01
7.314333261372e+01
8.097887883119e+01
7.909928127220e+01
7.071097199367e+01
7.191503874446e+01
8.049623642770e+01
6.786499104641e+01
5.731832764772e+01
5.448916202088e+01
1.552847459549e+02
6.952454786721e+01
6.854802726284e+01
1.656579681237e+02
1.516443108451e+02
5.784558555673e+01
4.914859074841e+01
3.797522186908e+01
4.154616683789e+01
5.320607412050e+01
4.599085568413e+01
3.508495347537e+01
3.972988168486e+01
2.963405660307e+01
3.433747923673e+01
4.496780749281e+01
3.964012902242e+01
2.967932640885e+01
3.485800007768e+01
2.551806383902e+01
3.043161882005e+01
4.042959799461e+01
3.938457379414e+01
1.476417071458e+02
1.558887711648e+02
7.487547161153e+01
8.410254227310e+01
9.040860286280e+01
9.405669517684e+01
3.575759155732e+01
4.631651283380e+01
6.778350139063e+01
6.728701505633e+01
6.747745655917e+01
1.426697081419e+02
1.330499453987e+02
8.676902386845e+01
8.097675810191e+01
7.930592286700e+01
7.246953138981e+01
7.209776491806e+01
7.126913571206e+01
1.469637892724e+02
5.071168261829e+01
5.021292911457e+01
4.064375372613e+01
1.521453261661e+02
1.394831112305e+02
1.128205763457e+02
1.171735936898e+02
1.198067291751e+02
1.241515228131e+02
1.268488203730e+02
1.317206312544e+02
1.289997553258e+02
1.440525754279e+02
1.371248596978e+02
2.612193048999e+01
1.250524019386e+02
7.743457025206e+01
3.559674243264e+01
4.223237183158e+01
4.272692254800e+01
5.107111730371e+01
1.702981245529e+02
1.343616782966e+02
1.295214666228e+02
6.365696878642e+01
6.361946250273e+01
1.501193443526e+02
3.484788306985e+01
2.574769937535e+01
2.132220568440e+01
3.427976689003e+01
4.555505426988e+01
5.800577219990e+01
7.362096879485e+01
6.839014160153e+01
6.930261291927e+01
6.688915882621e+01
4.122222929084e+01
5.206891857739e+01
1.003462395177e+02
1.039138529075e+02
1.662281618663e+02
4.276365947779e+01
5.757033311010e+01
1.456395057643e+02
1.375733042877e+02
8.780901164522e+01
6.127318604051e+01
6.266272081596e+01
8.909858486557e+01
5.436017907347e+01
4.642333038911e+01
1.732898542438e+02
6.570534410997e+01
1.344719486509e+02
1.262374525974e+02
1.429446612102e+02
3.183578908470e+01
1.730170316547e+02
1.461558125256e+02
1.367035260129e+02
1.321936157412e+02
7.501191675419e+01
6.930914853015e+01
6.224214077795e+01
6.235331438496e+01
5.899218151554e+01
7.623198319572e+01
6.937714146906e+01
6.158049172373e+01
6.253652166906e+01
7.161520143055e+01
6.356321831092e+01
8.406799910087e+01
1.147769362045e+02
9.703631303985e+01
1.238933971006e+02
1.324817307740e+02
5.659291800828e+01
6.271150640559e+01
2.120200141073e+01
1.785155252499e+01
3.573157630280e+01
3.203109962789e+01
1.168123212063e+02
1.676729159275e+02
7.026739132876e+01
8.024539191670e+01
7.774145604469e+01
1.684196121069e+02
8.935881420960e+01
1.252527617364e+02
6.531755153126e+01
1.115515017137e+02
2.821225972785e+01
1.064645877987e+02
1.555786184287e+02
1.613368691543e+02
1.524559478009e+02
4.885367802534e+01
1.157924545254e+02
1.134093563929e+02
5.692753663210e+01
5.732183403599e+01
6.310180218502e+01
5.723622632556e+01
8.694142526134e+01
7.600458557241e+01
1.428259342312e+02
1.452815041901e+02
1.391995292132e+02
1.346705952395e+02
1.580638012189e+02
1.560913264544e+02
5.464529692740e+01
5.650832097594e+01
7.071856564058e+01
5.561344329014e+01
1.748019495823e+02
1.695635174675e+02
6.279760010540e+01
5.898179113888e+01
6.380188629373e+01
5.404827713457e+01
5.431182241411e+01
5.447450205658e+01
1.739011717451e+02
1.351025487043e+01
1.648278078285e+02
7.118723791424e+01
6.968834724701e+01
1.210944817038e+02
8.457522779456e+01
1.603590824220e+02
5.754632875300e+01
7.051013004330e+01
1.883612982216e+01
1.595051326026e+01
2.280797426229e+01
6.931627929156e+01
6.511080022284e+01
5.672122425956e+01
6.515678665422e+01
7.005369490517e+01
4.454552665650e+01
5.545295936673e+01
1.070455898189e+02
1.040275812764e+02
1.165475658121e+02
1.165017843570e+02
1.150165909544e+02
1.437443881718e+02
1.357432243604e+02
1.296580428834e+02
6.894782621019e+01
7.668020627692e+01
9.757468179995e+01
9.567112530538e+01
8.594118597641e+01
7.894505771260e+01
1.703112695433e+02
1.670856168618e+02
2.522284534904e+01
2.846655694382e+01
5.415777473331e+01
5.602295326027e+01
9.057451257704e+01
8.871025394598e+01
9.474281548358e+01
4.939738970514e+01
1.318505060315e+02
1.743645713612e+02
1.696863895147e+02
1.791378308688e+02
1.463668773754e+02
1.542385045196e+02
1.509718788411e+02
6.577370502174e+01
6.628445560200e+01
1.505224282888e+01
5.852135120898e+01
1.345246405949e+01
1.508246950969e+01
1.311706378146e+01
4.144393678059e+01
1.760774490637e+01
2.179289562172e+01
2.122444023979e+01
8.406130197882e+01
2.230791069704e+01
2.517772145613e+01
1.768562476333e+02
1.714786881219e+02
1.786614921372e+02
1.732872697899e+02
1.654354664260e+02
1.678079325068e+02
1.420876628678e+01
1.768194379176e+02
1.704595347522e+02
1.797220073550e+02
4.914397833600e+01
6.290033015733e+01
5.492203935495e+01
4.472870159038e+01
1.432821195041e+02
1.357612363741e+02
1.500977651661e+02
1.404621677993e+02
1.300200980824e+01
1.269118191760e+01
1.678387374490e+01
1.598314287964e+01
2.269955333994e+01
2.160797093571e+01
2.976709020232e+01
1.531918836625e+02
4.499359650310e+01
5.015511895680e+01
1.629860940205e+02
1.611260294985e+02
5.683431257479e+01
4.792785918633e+01
1.799405327763e+02
8.153672739025e+01
9.499282863075e+01
5.014691245756e+01
6.127908092326e+01
8.297265292343e+01
6.343338540185e+01
6.369211462040e+01
5.557206860615e+01
1.519288295219e+02
2.503691860225e+01
5.453899619365e+01
3.067821929925e+01
4.582833399302e+01
1.451604095973e+02
8.595652329020e+01
8.008458830446e+01
6.176587935714e+01
7.001175968304e+01
6.774708588235e+01
5.107396556198e+01
5.325628850231e+01
8.963241245978e+01
5.593663994028e+01
4.562381879013e+01
7.823758383079e+01
7.615419166155e+01
8.711309039086e+01
9.935474577104e+01
9.820453083046e+01
8.642762541500e+01
9.742965884609e+01
1.090677840496e+02
1.086543649077e+02
1.221512241791e+02
1.195522397336e+02
1.078143390362e+02
1.179990234458e+02
1.288471790211e+02
1.070561464075e+02
1.636841444988e+02
8.973274510799e+01
6.655594906682e+01
6.034536714090e+01
7.949531393691e+01
1.312179415831e+02
1.191893937686e+02
7.861373591703e+01
1.519601713666e+02
6.027386647161e+01
7.307759124359e+01
1.557489497257e+02
7.534211587701e+01
7.514327135975e+01
6.435917839139e+01
1.097705159692e+02
2.839791720231e+01
1.632222455687e+02
1.229625475253e+02
1.168618913588e+02
1.089963085707e+02
9.688566049202e+01
1.720585195755e+02
1.693517369031e+02
1.718789506290e+02
1.658072105316e+02
1.773192104896e+02
1.429741863031e+02
1.475907976413e+02
8.752035990233e+01
8.936162815900e+01
9.747570329078e+01
9.113856462458e+01
8.349595171065e+01
8.565133265258e+01
9.265218219237e+01
8.191383519896e+01
1.265943068898e+02
1.824250391540e+02
1.411069215921e+02
1.388513417123e+02
1.306842970401e+02
9.391539891002e+01
1.012496024109e+02
1.113308234499e+02
8.700018987626e+01
1.213621275989e+02
1.840491947894e+02
1.314423896808e+02
9.882310562435e+01
2.278544605667e+01
2.673826930344e+01
3.316324855927e+01
3.470561473981e+01
2.256265753763e+01
1.102998644819e+02
1.137259113525e+02
1.076076677418e+02
1.172811083879e+02
1.111377288426e+02
1.021726635515e+02
1.207549432219e+02
1.142427139924e+02
1.789187025139e+01
3.842163690980e+01
4.491302670973e+01
3.213179978852e+01
5.023736878032e+01
5.382983466078e+01
6.176841480629e+01
6.014890200183e+01
5.075686879750e+01
1.201980771953e+01
1.972318452539e+01
1.284323304355e+01
1.932876426485e+01
2.936765747862e+01
3.719726454741e+01
1.799711348037e+02
8.706881379356e+01
8.263964127888e+01
7.352911369077e+01
7.862884725812e+01
9.101842811907e+01
6.865174184563e+01
6.547446365393e+01
1.315155830504e+01
2.163302473939e+01
2.085784720666e+01
2.789534588264e+01
2.762686843403e+01
2.172991748944e+01
2.167105360259e+01
1.309245809426e+01
2.155933801331e+01
2.762896444058e+01
1.273893650834e+01
4.304087401013e+01
4.885466213172e+01
1.849859352739e+02
1.531246011421e+01
1.300852306950e+01
8.445293756138e+01
8.959086579862e+01
8.848680372291e+01
1.644823863581e+02
1.693415310103e+02
8.410657218030e+01
6.023083620395e+01
1.102133328813e+02
6.301393496683e+01
6.844731820354e+01
6.533283276944e+01
1.365493766973e+02
1.310694819449e+02
1.581747997256e+02
1.298305180471e+02
1.526183344719e+02
1.748075424888e+02
3.864107865728e+01
2.503981613102e+01
2.168199301983e+01
4.534208975604e+01
6.126997327353e+01
9.815592406020e+01
3.963384530352e+01
1.491975720732e+02
7.010833090308e+01
1.236207984192e+02
8.373317310592e+01
6.787965317724e+01
6.568115842700e+01
9.159183972970e+01
1.069507951602e+02
1.527692951142e+02
5.135725345621e+01
1.430204737295e+01
1.595629047855e+02
1.265530135520e+02
3.121980022694e+01
1.455839207592e+02
6.280213036572e+01
5.105672080197e+01
8.296857769502e+01
2.730361192053e+01
3.185893317592e+01
1.776013018633e+01
1.766051008022e+02
6.550451899709e+01
5.594388799581e+01
1.172938990631e+02
8.944365549166e+01
4.124266246781e+01
6.865345148234e+01
1.065064512977e+02
1.577746813870e+02
1.333036553985e+02
5.991418105153e+01
1.634534467795e+02
1.068501245460e+02
6.332708179495e+01
1.224407930338e+02
9.578022496094e+01
6.128378356540e+01
1.261970513077e+02
1.477819125179e+02
7.071275193040e+01
1.068518212423e+02
9.641290002498e+01
1.077107600720e+02
1.306381602502e+02
1.615029979985e+02
6.938480769998e+01
7.752043188726e+01
3.564085846307e+01
1.396092531243e+02
7.616344824327e+01
8.082531858867e+01
1.568906592324e+02
7.397321038885e+01
1.089071017525e+02
4.355152513826e+01
6.402984600470e+01
8.396041162306e+01
1.041920952296e+02
1.188539398779e+02
1.035436935494e+02
1.591325198364e+02
1.582509870693e+02
3.585248115089e+01
5.034314741495e+01
1.615847953571e+02
1.235294313419e+02
1.537053981792e+02
1.049558226570e+02
1.512462212117e+02
4.852827045299e+01
1.644470677818e+02
1.538950974644e+02
7.981006928346e+01
1.337754631902e+01
1.743146493688e+02
1.622663875801e+02
1.144198583434e+02
1.218942935626e+02
3.770352040238e+01
1.212604251367e+02
1.070345294758e+02
1.054315261245e+02
1.638680016195e+02
6.489897434780e+01
1.140244384182e+02
1.271478741668e+02
2.755343762612e+01
4.964877849364e+01
1.169666833249e+02
8.753659766246e+01
1.279307796334e+02
1.594077087758e+02
1.201269606515e+02
9.418299166358e+01
1.234456910840e+02
3.628463365214e+01
7.541913642203e+01
1.268525941511e+02
1.162237684364e+02
2.800377291257e+01
1.185189626037e+02
1.596736603927e+02
8.588321392488e+01
1.339515812065e+02
8.607673537955e+01
3.536847885827e+01
1.418762339130e+02
1.246876365296e+02
1.235307134407e+02
1.111937460639e+02
1.499948910986e+02
4.740935048210e+01
5.740867849411e+01
4.711257355533e+01
1.001752352281e+02
1.259892143970e+02
3.396424434423e+01
9.657942362466e+01
3.395655802359e+01
9.888753284891e+01
1.379316308113e+02
2.432416156796e+01
1.051903599922e+02
5.167295070031e+01
1.034650729771e+02
1.189698480409e+02
1.058835648890e+02
9.626196933604e+01
7.533284654280e+01
9.563544903394e+01
8.584890626162e+01
1.798530533899e+02
1.236822988423e+01
3.291455028409e+01
4.874901030114e+01
4.808016580426e+01
7.576448585471e+01
1.065546080616e+02
1.247912562350e+01
6.613756690583e+01
1.317043840596e+02
1.597550332812e+02
3.796134937657e+01
1.593224942219e+02
1.294243224479e+02
6.381724319367e+01
1.444021005289e+01
1.944508659859e+01
1.352725960623e+02
3.276958535959e+01
4.493490190136e+01
4.557451825036e+01
6.308545166580e+01
3.645353567211e+01
3.470655982721e+01
1.666117381590e+02
1.596993661478e+01
1.402694133694e+02
3.498576210940e+01
8.738293327211e+01
1.568480033957e+02
1.845522963405e+02
1.489804779985e+02
4.548658401803e+01
2.856917030808e+01
1.467513795285e+02
4.599756132141e+01
1.837319166242e+02
1.922037432561e+01
7.626976510770e+01
6.445879289500e+01
7.609657609765e+01
1.170674422589e+02
1.846633877966e+01
3.894950531171e+01
1.740629270440e+02
1.192187781565e+02
4.743992075117e+01
3.720520297298e+01
7.899258092018e+01
5.639272207794e+01
1.803571347120e+02
1.270769883634e+02
1.745255087693e+02
2.772747220613e+01
2.016080082629e+01
1.814647511028e+02
1.426106923542e+02
6.530456694103e+01
9.652123957032e+01
5.208706884537e+01
1.564680337013e+01
2.090672813816e+01
1.826955514233e+02
8.021510279629e+01
8.687765135373e+01
3.440682308794e+01
5.739517517428e+01
1.465371861165e+02
2.351566963345e+01
7.942426307627e+01
1.784151993264e+02
1.025031795351e+02
1.685508827694e+02
6.302457391882e+01
1.567637032015e+02
1.699086870157e+02
1.408185079227e+01
1.107566159249e+02
7.026040247179e+01
3.299356806792e+01
8.708071939428e+01
1.121054576070e+01
1.399453532878e+01
1.817124640177e+02
3.224998988758e+01
1.505649478722e+01
1.387134573411e+02
1.074200241353e+02
5.729022053752e+01
5.261206799998e+01
4.316646713355e+01
2.898546721358e+01
1.597690132330e+02
9.429431336967e+01
2.266475698103e+01
5.857089245997e+01
1.354382241863e+02
9.415194380057e+01
1.426343332387e+02
1.649897760816e+02
4.373759847165e+01
1.159559128236e+02
2.026872002755e+01
1.795984697601e+02
9.822445248492e+01

SCALARS node_materi_strain_total_average_a_ept float
LOOKUP_TABLE default
2.305515713485e-04
4.360579568595e-03
2.473735819534e-03
5.814900287771e-03
2.601391577923e-04
3.559466887012e-04
4.341092281744e-04
5.393859280508e-04
6.355974382262e-04
7.361313629083e-04
8.406158509815e-04
9.485317426106e-04
1.061754804526e-03
1.179464695181e-03
1.303243187265e-03
1.429332221803e-03
1.550163006004e-03
1.680797091105e-03
1.819749910121e-03
1.957335119259e-03
2.098342150405e-03
2.243333029786e-03
2.384252607961e-03
5.824425516838e-03
5.813259683073e-03
5.809123878503e-03
5.799266874654e-03
5.775739365648e-03
5.763032153159e-03
5.729455204659e-03
5.690245062424e-03
5.645483094187e-03
5.590853321061e-03
5.509266059428e-03
5.429590908389e-03
5.320771344257e-03
5.207579355976e-03
5.072679000718e-03
4.928389477345e-03
4.766801761399e-03
4.602014499560e-03
4.441272992801e-03
4.288056108645e-03
4.152935039898e-03
4.046882584447e-03
3.939919775368e-03
3.824481174110e-03
3.714957078872e-03
3.609299983576e-03
3.499850460860e-03
3.404092093543e-03
3.297713116815e-03
3.199029476417e-03
3.094034556939e-03
2.980381776810e-03
2.865566465275e-03
2.764230429057e-03
2.661862431212e-03
2.560188202554e-03
2.490007076572e-03
2.422312077793e-03
2.390170670914e-03
2.366931392339e-03
2.368419970200e-03
2.389194214130e-03
2.404906598183e-03
2.402335160132e-03
2.437098174025e-03
2.442865590620e-03
2.459481173796e-03
2.474797182497e-03
2.479323329381e-03
4.453296759936e-03
4.601854884566e-03
4.750635082279e-03
4.899378602692e-03
5.053160979203e-03
5.209729456371e-03
5.368203576303e-03
5.533541446998e-03
5.693262899578e-03
-1.233715269766e-03
3.744385565414e-03
-7.362399467955e-05
3.831206531239e-04
8.225812283969e-04
1.273497954069e-03
1.747856126190e-03
2.220047224328e-03
2.682202372382e-03
3.138644978911e-03
3.543556331639e-03
4.361907536485e-03
4.365050237919e-03
4.361422883044e-03
4.354821499764e-03
4.368922468665e-03
4.353295943467e-03
4.344416899796e-03
4.343704693228e-03
4.339179937536e-03
4.321966534729e-03
4.300301385777e-03
4.254728606028e-03
4.174676411875e-03
4.018317638667e-03
-1.749292333617e-03
-2.092506674233e-03
-2.169653939630e-03
-1.900634433251e-03
-1.072132603642e-03
-6.193500807882e-05
3.476044563237e-04
4.755676147428e-04
4.244048137154e-04
4.469674256042e-04
3.261247810691e-04
3.171437858235e-04
2.971539928351e-04
2.678490414028e-04
2.570963788992e-04
2.527673221123e-04
2.472336324960e-04
2.465376372702e-04
2.451261939578e-04
-2.833588325602e-04
1.594023397227e-04
6.075560384631e-04
1.045325704201e-03
1.512167521742e-03
1.996765967810e-03
2.453904560953e-03
2.915817545787e-03
3.355206042992e-03
3.642198231632e-03
1.733591523358e-04
2.798512329444e-03
3.580914090047e-04
-1.242112652380e-03
2.386227467706e-03
1.116570322949e-03
1.244185314135e-03
3.214098680782e-03
2.028773525197e-03
3.628036484400e-03
2.931742428391e-03
2.357168086583e-03
2.644752767949e-04
4.046634076300e-03
3.597384995847e-03
7.914470840700e-04
1.592395813534e-03
4.437527235110e-03
5.042967003261e-03
5.672567699315e-03
5.544562316320e-03
5.362058056858e-03
4.120704868322e-03
4.362443858057e-03
4.415300517450e-03
4.977365987578e-03
2.379810931436e-03
-1.588614419468e-03
2.652636289734e-04
2.021884423754e-03
4.420446149414e-03
4.862988116333e-04
4.737524248421e-03
3.428942628371e-03
3.839602168460e-03
3.020035011798e-03
2.593743187152e-03
-9.814723705920e-05
4.289734769647e-03
2.320423950396e-03
5.282993230683e-03
2.658321477581e-04
1.003634259709e-03
5.731097871596e-03
1.564935700000e-03
6.542001185296e-04
2.481570640833e-03
3.329230518092e-03
-3.942866399657e-04
4.688426437049e-03
2.424816294891e-03
2.603191155696e-04
5.607452289299e-03
3.811920068839e-03
3.685969914810e-03
3.910977429796e-03
3.790324358039e-03
3.992356525813e-03
3.902895043744e-03
3.697113569299e-03
3.823172750872e-03
3.616541292232e-03
4.091667928761e-03
3.749565160378e-03
3.541385349581e-03
3.678389478564e-03
3.469594616197e-03
3.328738009831e-03
3.257407520843e-03
3.114127718552e-03
3.042101777188e-03
3.188556354409e-03
2.971631256363e-03
2.823413513618e-03
2.751456344902e-03
2.601595211477e-03
2.529455734369e-03
2.373612109957e-03
2.315997899278e-03
2.499966750729e-03
2.317215593087e-03
2.117754522551e-03
2.149031741312e-03
1.945507140843e-03
1.978457214149e-03
2.197058963955e-03
2.022007990015e-03
1.788810226275e-03
1.836800591401e-03
1.590774927426e-03
1.656148236859e-03
1.403407666163e-03
1.475247468526e-03
1.713449934545e-03
1.527634714545e-03
1.284326333251e-03
1.331446371958e-03
1.544320059890e-03
1.341474772928e-03
1.535083878797e-03
1.329590436323e-03
1.134023970667e-03
1.121092764502e-03
1.315796602113e-03
1.110322253041e-03
9.119751262945e-04
9.095919292163e-04
1.110208412937e-03
9.183276404307e-04
7.197771210543e-04
7.790558709384e-04
9.625607004601e-04
8.849321045326e-04
7.193798124346e-04
8.419971149267e-04
1.001817618121e-03
9.548253996619e-04
1.109405239157e-03
8.047251948259e-04
9.130257275956e-04
7.727820139770e-04
8.755230859046e-04
2.248891406877e-03
7.451721686739e-04
6.404449131216e-04
8.410152659519e-04
9.696690514376e-04
7.196021873923e-04
8.079705961674e-04
6.948798702709e-04
1.341024051798e-03
3.121374199292e-03
7.750376050214e-04
6.684711661682e-04
5.910591362954e-04
5.712543784479e-04
4.156480559462e-03
4.272392999638e-03
4.328298925655e-03
4.445346476475e-03
4.486512677813e-03
6.388761245203e-04
3.884751847978e-03
4.396403536054e-03
2.679201699816e-03
1.931064172009e-03
1.734546498112e-03
8.892520587087e-04
8.494476040215e-04
9.643701856065e-04
1.166183818454e-03
1.267712840201e-03
1.334124823589e-03
1.428571401883e-03
1.504454820133e-03
1.590353024952e-03
1.514741049864e-03
1.668490082526e-03
1.594214272480e-03
1.675340927626e-03
1.590435012983e-03
1.741568773794e-03
1.668994527831e-03
1.811995978624e-03
1.740799163056e-03
1.600049056210e-03
1.671693171799e-03
1.534194861627e-03
1.721168260573e-03
1.917021492753e-03
1.905086379364e-03
2.097139037467e-03
2.085804353131e-03
2.274458013321e-03
2.262834857238e-03
2.075534038773e-03
3.608163264071e-03
1.084223182090e-03
1.011005039953e-03
8.002056292121e-04
7.152162586052e-04
4.837884317258e-04
4.087326328138e-04
1.464185296707e-04
2.608919638110e-04
-9.705567477574e-05
6.499910777004e-05
-2.854016651922e-04
-9.163750202990e-05
2.525247495545e-03
2.285644704888e-03
2.461416243704e-03
2.471123895803e-03
4.994740921261e-04
1.810686467389e-03
1.774008614202e-03
1.711642002761e-03
2.254510926458e-03
5.459514688782e-04
1.005655097083e-04
3.820853813050e-04
4.609651453096e-03
4.637573166037e-03
1.901414904706e-03
6.070111617138e-04
1.819523450265e-03
-4.464333627393e-04
1.741006082829e-03
1.878794539019e-03
1.446155415703e-03
2.645466562451e-03
2.650323828254e-03
2.138940165812e-04
6.420634033477e-05
-1.697589816464e-04
-5.592996018896e-05
1.357564696187e-04
-4.303182970875e-05
-1.927708823555e-04
-1.088019945863e-04
5.349611311901e-05
8.245940829614e-05
-5.026068804427e-05
1.355424799290e-04
1.949655611825e-03
-5.900633976928e-04
3.187748504618e-03
1.947977842228e-03
2.436342638805e-03
4.768883761977e-03
4.782893644138e-03
4.655711650670e-03
4.787277712086e-03
4.924456151073e-03
4.916888556514e-03
4.781957052929e-03
4.900723702954e-03
4.766603174831e-03
4.876032507660e-03
5.019103886817e-03
4.985620633367e-03
4.842786351417e-03
4.945495504639e-03
4.801986626188e-03
4.898610509712e-03
5.048460213719e-03
5.200364926544e-04
2.065758760185e-03
2.246351390399e-03
9.205756788079e-04
1.033956012205e-03
1.085440635324e-03
1.156707331141e-03
4.995032946120e-03
5.150756678695e-03
1.180342846087e-04
4.152962359274e-04
4.745945973946e-03
1.808425589075e-03
1.672848913753e-03
1.751815290547e-03
1.756569004427e-03
1.565087574890e-03
1.593254408941e-03
1.837414819889e-03
1.386367938939e-03
1.522579715622e-03
5.135725887203e-03
5.073344049184e-04
4.233364331417e-04
1.946079702623e-03
1.883888896650e-03
2.699073469720e-03
2.737454340420e-03
2.906060777058e-03
2.946254405205e-03
3.113917482465e-03
3.135152130888e-03
2.970858585805e-03
2.824195295085e-03
3.141435103412e-03
4.843901970482e-03
2.292968279606e-03
2.358100055712e-04
4.619174749727e-04
7.041715788420e-05
5.672868030149e-04
6.635513647090e-04
2.075605510400e-03
3.305997003088e-03
3.279195246920e-03
1.693384001278e-03
1.935747832284e-03
2.816026478411e-03
4.379733433627e-03
4.658063745953e-03
4.642201224847e-03
4.687463366708e-04
-8.259613778379e-05
5.062667266859e-03
6.492124290524e-04
6.523308082011e-04
-7.587617918397e-04
-9.117777214975e-04
5.090884387037e-03
5.248362326856e-03
1.211318534912e-03
1.282004726716e-03
2.063780704777e-03
2.016408397229e-04
5.309062394572e-03
1.878033289040e-03
1.691339442467e-03
1.100896859524e-03
2.018048971648e-04
-1.165986844876e-04
2.322262898668e-04
2.845437029589e-04
6.192149484179e-04
2.226685648547e-03
5.072625553404e-03
2.976353748520e-03
2.805409235693e-03
3.139767551051e-03
1.691653640524e-04
2.106897000014e-03
1.874911684963e-03
3.465443305036e-03
3.444300437799e-03
8.701295656149e-04
8.953281318721e-04
6.977189154493e-04
9.681316112068e-04
3.484497510904e-03
1.103856351874e-03
2.974802210112e-03
3.050155158786e-03
2.838394358510e-03
2.076250633268e-03
2.169976773861e-03
9.378180043348e-04
1.927575997222e-03
1.136566581088e-03
1.460588494518e-03
1.229530033717e-03
5.170551341956e-03
5.293520954667e-03
4.705971065312e-03
4.663164789635e-03
4.214794875447e-04
3.564879133297e-04
1.208081923071e-03
1.997257307057e-03
4.913772582502e-03
4.894322217310e-03
4.715437578402e-03
2.238166542995e-03
8.797065284274e-04
1.708821212650e-03
-6.635714873947e-04
2.414382448552e-03
3.575343265924e-04
3.335512751570e-03
2.013809833790e-03
2.084506044920e-03
2.988609912065e-03
3.413556875834e-03
2.458597236813e-03
2.284299133620e-03
2.913986298938e-03
2.708785412300e-03
2.624585669230e-03
2.494942440074e-03
3.951703238231e-04
3.927510497394e-04
3.498644484454e-03
3.305538917105e-03
3.642955183129e-03
3.627016973516e-03
2.970245542701e-03
2.806518276198e-03
7.153015145537e-04
2.038519664722e-03
5.219189430409e-03
3.122694018484e-03
2.136099141442e-03
2.050019874796e-03
-9.861877357350e-04
-6.460096293292e-04
5.410443627876e-03
8.166551834768e-04
1.069179002123e-03
5.465448638383e-04
2.311224680190e-03
4.423362398109e-03
2.155075660266e-03
2.310716772164e-03
5.474044888121e-03
2.473458268583e-03
1.556690027571e-03
2.062951602113e-03
5.334308430467e-03
5.513176344839e-03
4.546419479102e-03
4.518260778456e-03
4.548092627960e-03
-4.978861747218e-04
-7.955165689159e-04
5.250953568675e-03
8.088889585426e-04
8.842243265629e-04
3.170888908916e-04
4.095113670279e-04
1.266708752213e-03
1.188466462627e-03
3.273843739594e-03
3.485903286888e-03
2.876325391489e-03
1.687663121718e-03
1.498382171475e-03
1.502039507800e-03
5.328143804953e-03
5.468438196146e-03
4.132185325034e-04
3.274908785775e-04
5.363129002623e-04
5.231712664439e-03
2.223921686846e-03
2.153617442056e-03
3.140267451154e-04
2.904289113593e-04
6.488059655721e-05
-2.635969199155e-04
4.864923845491e-03
4.675319733680e-03
5.058402857043e-03
6.619901670558e-04
2.814065875321e-03
2.379297052986e-03
2.416268023571e-03
2.377799249498e-03
2.992102417587e-03
3.132764473749e-03
3.289147585133e-03
-1.241165153648e-03
5.468502606656e-03
4.568258440701e-03
-1.276624859236e-03
4.523961837083e-03
4.611667028511e-03
4.460937152691e-03
5.659026456381e-04
4.433625978173e-03
4.437682875478e-03
2.637078378488e-04
5.390657856828e-03
3.055517832542e-04
3.445945656146e-04
2.190613843990e-03
2.107054755943e-03
2.234315501863e-03
2.157057138130e-03
2.026266341017e-03
2.092384847047e-03
4.479878365550e-03
2.242037214336e-03
2.162924691162e-03
2.315164951304e-03
2.662476445424e-03
1.213344375081e-03
1.300197543752e-03
1.219645301558e-03
3.842220803027e-03
3.805239778931e-03
1.944811158365e-03
1.806689905835e-03
4.546425617638e-03
4.547102821242e-03
4.675481925642e-03
4.665863086263e-03
4.797497847310e-03
4.783257680574e-03
4.919704589008e-03
3.457586324681e-03
7.085801246177e-04
3.059141118681e-03
2.932238286473e-03
2.775646359403e-03
2.267647829739e-03
2.209718629385e-03
2.261231974624e-03
1.098881598277e-03
5.421808530799e-03
-1.218464665821e-03
-1.113304350053e-03
1.325029108177e-03
2.401006298410e-03
1.436504791933e-03
1.564020045896e-03
1.877182853446e-03
2.425192592464e-04
3.000616860833e-04
4.926203298890e-03
2.203719746368e-04
1.882092835604e-03
1.144181279409e-03
2.222828910804e-03
4.465877664093e-04
1.155804965848e-03
3.403263517683e-03
3.574059652069e-03
3.338147630367e-03
1.212095726372e-03
1.807285719801e-03
1.726196976061e-03
2.898501541200e-03
4.531598066071e-03
4.484629350277e-03
4.625797420207e-03
4.428698768407e-03
4.287809827433e-03
4.229143447009e-03
4.378642204058e-03
4.171496667563e-03
4.347412308790e-03
4.103886159802e-03
3.959513408928e-03
3.894866154334e-03
4.022157784515e-03
3.749671096603e-03
3.063834147435e-03
1.555257206640e-03
-1.077745205876e-03
-8.384759632951e-04
2.454745538630e-03
4.587780908598e-03
4.907749684623e-03
6.605198956152e-04
3.948587475404e-03
3.262151502410e-03
-1.966007214810e-04
3.735188421708e-03
4.343995269754e-03
4.150469254339e-03
4.212714442262e-03
5.162526027759e-03
4.541505170055e-03
3.332003847485e-03
2.107700002596e-03
2.113349387518e-03
1.924611928277e-03
4.023993423515e-03
2.903192110527e-03
2.770393124529e-03
2.667530528858e-03
2.615665102599e-03
2.694195107856e-03
4.299141488091e-03
4.169172875011e-03
1.387233870518e-04
3.251258618527e-04
5.147954906280e-04
5.158644997740e-04
3.004804886133e-04
4.848352481608e-04
7.176577842997e-04
3.924663414937e-04
3.643939456549e-03
2.510938704856e-03
1.408388175435e-03
1.334368212183e-03
1.147574089123e-03
1.056446447393e-03
1.104033674356e-03
1.242255980139e-03
1.010214840589e-03
2.782185142683e-03
2.438202068069e-03
1.698544949452e-03
1.012421219091e-03
4.220753568671e-03
4.216610629658e-03
4.075544179947e-03
4.219520678875e-03
4.317564487107e-03
1.340112270792e-03
1.409331949255e-03
1.348496822632e-03
1.475409562787e-03
1.409348043591e-03
1.293997249020e-03
1.536915012071e-03
1.458254272674e-03
4.327810694869e-03
-5.747764233273e-04
-4.559413969309e-04
-1.717783208493e-04
-3.546340777943e-04
-4.378248721189e-04
-3.219011550345e-04
-3.567325078111e-04
-7.195996482379e-04
1.858314953100e-04
6.799747638170e-05
2.449921581059e-04
1.999100010053e-04
7.692517263407e-05
3.415964548500e-04
2.374073864925e-03
1.117666617985e-03
1.056685598116e-03
9.491217444282e-04
9.983667963887e-04
1.162102079734e-03
8.947799437695e-04
8.526024718128e-04
2.614996395960e-04
3.241122715173e-04
3.158327685427e-04
3.979164694926e-04
3.965592650579e-04
3.245889319094e-04
3.201462934791e-04
2.615968382121e-04
3.147495698300e-04
3.855145739897e-04
2.612657925632e-04
5.131659988018e-03
5.217024869950e-03
2.352302178303e-03
4.390721989788e-03
3.173278163907e-04
5.666772042457e-03
5.607110375569e-03
5.650136779392e-03
2.166392298983e-03
2.234913137665e-03
5.700154994566e-03
6.078982564557e-04
4.565927079707e-03
5.363831517628e-03
-1.831517614373e-04
3.992861729819e-04
1.739048910083e-03
1.525453331483e-03
2.016648197652e-03
1.604726342989e-03
1.881219859177e-03
2.545876574692e-03
5.280899390021e-04
4.740829082568e-03
4.754211261773e-03
5.095088826130e-03
7.402471826896e-04
1.228959688471e-03
4.852885256139e-04
3.683300804106e-03
2.759815749295e-03
1.054863230363e-03
9.290653882239e-04
6.237794568233e-04
2.564495129321e-04
1.764471027648e-03
1.058580391752e-03
1.749968462791e-03
5.203516944283e-03
2.917892116955e-04
1.841544195278e-03
1.360597320962e-03
4.662409512937e-03
2.449001138005e-03
-2.416336192724e-04
5.044191774213e-03
5.065087861847e-03
4.421662402616e-03
4.110970613466e-04
4.609479353169e-03
2.221884332017e-03
4.574349476047e-03
7.035213336690e-04
1.520349256811e-03
2.146098986472e-03
3.490681416885e-03
5.410411730687e-03
2.071361374517e-03
2.435195843671e-03
1.893791510252e-03
7.651383287656e-04
1.965991778384e-03
1.738996486030e-03
5.196243586864e-03
3.074052419069e-03
1.127970360055e-03
4.923809423822e-03
1.115047684346e-03
2.634748048136e-03
2.539488532325e-03
2.695209865074e-03
3.400103955207e-03
2.359592637313e-03
1.670494588041e-03
1.904187969921e-03
-3.954189477153e-04
1.350803749649e-03
4.522327832651e-03
3.301280600001e-03
5.355947424384e-03
1.987347214648e-03
1.886228265797e-03
5.074809889730e-03
1.154053258791e-03
5.927423396013e-04
-4.201116613575e-04
5.907527633767e-04
1.892453230858e-03
1.299006632033e-03
4.830684812116e-03
1.952751337418e-03
1.878166541835e-03
-8.217701977598e-05
3.242610132909e-03
2.020636207473e-03
1.509376398108e-03
2.619804977942e-03
1.340269498128e-03
3.581346364432e-03
2.440302395009e-03
2.091006157443e-03
2.065535179971e-03
8.933057701678e-04
4.424218206728e-03
2.249698190485e-03
2.246908175062e-03
2.573630173155e-03
1.308493003565e-03
3.141232411870e-03
1.382893461603e-03
2.904147945554e-03
5.273414196039e-03
2.418713317862e-03
4.021508392744e-03
1.323396449030e-03
2.472690605623e-03
3.919050566572e-04
2.870863877255e-03
1.399287673592e-03
6.791055069181e-04
1.306691630483e-03
3.116501310209e-03
1.471185714154e-03
9.217776572269e-04
1.539795476034e-03
2.710041091787e-03
3.952226826954e-03
1.606278915164e-03
3.067789941931e-03
3.841647632012e-04
2.620942536798e-03
2.087438368926e-03
6.605935494490e-04
1.308687575499e-03
4.087868163655e-03
2.254911806612e-03
1.499856957667e-03
3.248064970701e-03
2.643242670101e-03
2.105653038849e-03
1.689867143709e-03
1.983244173627e-03
5.135132302317e-04
4.181413137577e-04
9.243026764885e-04
3.439802075601e-03
4.740162886462e-04
3.815950453522e-03
2.596464271735e-04
7.154733778791e-04
2.825337528056e-03
4.831965524283e-03
7.097091038313e-04
6.905548280579e-04
5.215012940298e-04
2.293530987118e-03
5.958802552938e-04
5.564115434391e-04
5.522306605910e-03
6.865821351329e-04
5.732429899212e-03
2.397708582953e-03
4.536988769405e-03
1.836286626016e-03
-1.654583847644e-03
1.454052561986e-03
5.245422847949e-04
3.543071585874e-03
4.542438084485e-03
5.181797880224e-04
4.224681559055e-03
3.524019043266e-03
5.054554708052e-03
2.602641063843e-03
2.651007602034e-03
5.436863026640e-03
4.399057446816e-03
2.679484771015e-04
1.743536696942e-03
1.344710647796e-03
9.543421596715e-04
4.543969509499e-04
8.138600137721e-04
-1.034407994495e-04
8.841459329332e-04
2.856614230422e-03
4.448843870589e-03
2.983001959909e-03
4.192820905009e-04
5.225880052754e-03
3.290408616029e-03
2.345854051575e-03
3.144039129558e-03
-1.517709966911e-05
4.311008558947e-03
3.777876965298e-03
5.167091677584e-03
2.366010456402e-03
4.361359918200e-03
5.583155160895e-03
-4.080857392169e-04
5.603488217635e-03
3.691185423485e-03
4.702746618744e-03
4.070945401822e-03
2.297863540916e-03
4.523942115183e-03
-3.588780371518e-04
5.036004754334e-03
9.867207112711e-04
-9.983363558323e-04
2.251352593766e-03
3.835181012033e-03
2.274446804332e-03
3.968027643713e-04
2.868578797405e-04
2.339636709679e-03
3.990744865455e-03
-1.907447628802e-04
5.534671092248e-03
-8.608442261586e-04
4.369679068619e-03
3.040129353524e-04
2.382386773133e-03
5.463337224373e-03
1.104060239224e-03
3.952725892051e-03
7.567813835575e-04
3.434221805624e-03
1.896545184439e-04
5.543175198779e-03
2.488697488454e-03
4.984568238874e-03
3.148485358141e-03
-1.350617819478e-03
3.407039595291e-03
2.542782015311e-03
4.405759146343e-03
4.737293663165e-03
9.014800278039e-04
4.480416941084e-04
5.759943536982e-03
2.451843311314e-04
4.404464550201e-03
2.433699965590e-03
4.513152015848e-04
4.644313477746e-03
4.115419553908e-03
1.373650227970e-03
5.342593732425e-03
-2.345383360665e-04
-1.633642133125e-03
4.911577155301e-03
3.220777946802e-03
5.195523775873e-03
4.789117001567e-03
-5.233469454403e-04
3.946983677710e-03
1.192329795999e-03
3.633713467444e-03
2.735056664223e-03
-8.131462109313e-04
1.483274031101e-03
2.994459953544e-04
2.264737581459e-03
1.249420134002e-03

SCALARS node_materi_strain_total_size_dev_sd_ept float
LOOKUP_TABLE default
1.003776005217e-03
1.274464488613e-02
6.092715617770e-03
1.439743837913e-02
7.130773382367e-04
4.472470745864e-04
6.832482557792e-04
1.172489041657e-03
1.659600329937e-03
2.099470699270e-03
2.501724319130e-03
2.863701749315e-03
3.188970227812e-03
3.490201401418e-03
3.778082784701e-03
4.044673031224e-03
4.283654914310e-03
4.542736621734e-03
4.815908337072e-03
5.089588366494e-03
5.373086233150e-03
5.663329920776e-03
5.938097291096e-03
1.438189845942e-02
1.437041828557e-02
1.437312271091e-02
1.436291967718e-02
1.435949873484e-02
1.434995001847e-02
1.433232194851e-02
1.429447030782e-02
1.425805697179e-02
1.418970268106e-02
1.412976117666e-02
1.403165487893e-02
1.390773004083e-02
1.374831829217e-02
1.357533141131e-02
1.334074868983e-02
1.309127001753e-02
1.280525022220e-02
1.248678313012e-02
1.213372000511e-02
1.175052109613e-02
1.140292925279e-02
1.108351426836e-02
1.072518242263e-02
1.038901241101e-02
1.004157984335e-02
9.691435534488e-03
9.340335900863e-03
8.986176177318e-03
8.660060518665e-03
8.271825910047e-03
7.866319671542e-03
7.462989656877e-03
7.103266994075e-03
6.730179687204e-03
6.390607637337e-03
6.094745230768e-03
5.874258519018e-03
5.736732073933e-03
5.688379279334e-03
5.716889398403e-03
5.785049139127e-03
5.841325359951e-03
5.854761998973e-03
5.960169395377e-03
5.994300788353e-03
6.040946226406e-03
6.081969169997e-03
6.098734913079e-03
1.292030305726e-02
1.323615622715e-02
1.351600878497e-02
1.375679384621e-02
1.396469840240e-02
1.413243692734e-02
1.425738111642e-02
1.433847726264e-02
1.439684141630e-02
9.028181438238e-03
1.411549162201e-02
1.395715241608e-02
9.528169634495e-03
7.812474134466e-03
6.740236355801e-03
7.637147429631e-03
8.673977632977e-03
9.888795445142e-03
1.135434614661e-02
1.328695130110e-02
1.274156794833e-02
1.272114341841e-02
1.272949203020e-02
1.273783817339e-02
1.278790074486e-02
1.276823669032e-02
1.277273759719e-02
1.278854035257e-02
1.284010792200e-02
1.288440349298e-02
1.294008162228e-02
1.306058958700e-02
1.328936632883e-02
1.375179743797e-02
3.143748323711e-03
2.813201070767e-03
2.682379297797e-03
2.755842176243e-03
4.729706390263e-03
3.255098522786e-03
1.865653470393e-03
2.179513372014e-03
1.981488659628e-03
2.077968680811e-03
1.446284334360e-03
1.380114976369e-03
1.296892635852e-03
1.162324702377e-03
1.109025291607e-03
1.077878054872e-03
1.051513219975e-03
1.073387420878e-03
1.064653781545e-03
1.640685756592e-02
1.131629454648e-02
8.708601477390e-03
6.695359655051e-03
7.289380011965e-03
8.209366390209e-03
9.252660125777e-03
1.058048701832e-02
1.222726624139e-02
1.444620018056e-02
1.066059119219e-02
6.899339419840e-03
1.335463853309e-03
5.585649976530e-03
5.440336033793e-03
6.695906371604e-03
3.641011877568e-03
8.417372450258e-03
8.301646658030e-03
9.898449709552e-03
1.082415036476e-02
5.609571336952e-03
8.841229014465e-04
1.134073911341e-02
1.378717283460e-02
2.325420563140e-03
4.358123405012e-03
1.255804918693e-02
1.371746965031e-02
1.439677029905e-02
1.436464313932e-02
1.416632627731e-02
1.369035183945e-02
1.311290189500e-02
1.300423883024e-02
1.387178663575e-02
5.826167606116e-03
4.303154546037e-03
8.197032323712e-04
5.208789587436e-03
1.288667611818e-02
9.248047996981e-04
1.320474487264e-02
9.216714078001e-03
1.060414961481e-02
7.671120041335e-03
6.188532786158e-03
2.715587258763e-03
1.328626191211e-02
5.332855988523e-03
1.420227901499e-02
8.787666761285e-04
3.032137525693e-03
1.439836990367e-02
7.342795631981e-03
8.465213010734e-03
9.426625296704e-03
1.246291138260e-02
1.538197177221e-02
1.340543932680e-02
5.985991888647e-03
8.346110707135e-04
1.436216106118e-02
1.355970482534e-02
1.312427600470e-02
1.357679519198e-02
1.308546566168e-02
1.348717672027e-02
1.305834042350e-02
1.258570909073e-02
1.261211846554e-02
1.210853469001e-02
1.345328635957e-02
1.216868083740e-02
1.165232840881e-02
1.173267124024e-02
1.121472423570e-02
1.111882226937e-02
1.067822958274e-02
1.057965998346e-02
1.012846316532e-02
1.024637359707e-02
9.681397744535e-03
9.561661240340e-03
9.104630118137e-03
8.984525571254e-03
8.514142441589e-03
8.397833040102e-03
7.908758478336e-03
7.997424423050e-03
7.353915469770e-03
7.303360085391e-03
6.780763037169e-03
6.814824990210e-03
6.372462910105e-03
6.261262030101e-03
5.959103025336e-03
6.131984504428e-03
5.913792044633e-03
6.154152262545e-03
6.291763292282e-03
6.682284548545e-03
7.133254969659e-03
6.458459351242e-03
7.241476814344e-03
8.146468075158e-03
7.907093475229e-03
6.535341554782e-03
6.722032354597e-03
5.177253478673e-03
5.025181974998e-03
6.459560355010e-03
4.536308258345e-03
3.544072049458e-03
3.084928047773e-03
3.842799431898e-03
2.646644050457e-03
2.262360556106e-03
2.157879244003e-03
2.459970292478e-03
2.324537610961e-03
2.135711384572e-03
2.414151824194e-03
2.554997969149e-03
2.631721163357e-03
2.597216266903e-03
2.785168207914e-03
2.830061619892e-03
2.782005194098e-03
2.902985691761e-03
2.853543436292e-03
2.948073050906e-03
5.845155513545e-03
2.839390140284e-03
2.802282896416e-03
2.919645175613e-03
3.070893620293e-03
2.743984521297e-03
2.823362110594e-03
2.579303267266e-03
6.457068863225e-03
9.816497271499e-03
2.667214793744e-03
2.356829108427e-03
2.275420803213e-03
1.978972454953e-03
1.377528305127e-02
1.374780130141e-02
1.399193253863e-02
1.399021113388e-02
1.416004033733e-02
2.091542786188e-03
1.222207765843e-02
1.373345437969e-02
9.454689467309e-03
7.229224872204e-03
5.050413329624e-03
2.926999476575e-03
2.776794171897e-03
3.047233137188e-03
2.630590406477e-03
2.925073500899e-03
2.740738944339e-03
3.072807250548e-03
2.926668966339e-03
3.271258038900e-03
3.373034866197e-03
3.585397016266e-03
3.653860468069e-03
3.177529352130e-03
2.788867568175e-03
3.886318829671e-03
3.925627870026e-03
4.179814238473e-03
4.191171836446e-03
3.953336518368e-03
4.190416375042e-03
3.960854718046e-03
3.912340619798e-03
3.934614594168e-03
3.262477527744e-03
3.574755522794e-03
3.256261462229e-03
3.853321004160e-03
3.697357847152e-03
3.044273151012e-03
1.131109105692e-02
8.925219639916e-03
8.786396411297e-03
9.542213035931e-03
9.238835171585e-03
9.820914563572e-03
9.630675366160e-03
9.905118689963e-03
9.977179460334e-03
9.775866606359e-03
9.919743817788e-03
9.671558823244e-03
9.871215813372e-03
7.384526243489e-03
4.080300189483e-03
4.586680298002e-03
4.735493704113e-03
1.886346260401e-03
4.447959236489e-03
3.131167971953e-03
2.719532797389e-03
3.627963973498e-03
1.660306986928e-03
9.944894292861e-03
9.516988703327e-03
1.417032580479e-02
1.428289602035e-02
3.209990820689e-03
1.802214805473e-03
3.850286434377e-03
9.162580440673e-03
4.419111614437e-03
4.690018478065e-03
3.461943625109e-03
5.380129080254e-03
5.465988295127e-03
9.296598094341e-03
8.676412549648e-03
9.552205479187e-03
7.423738728514e-03
6.159637996932e-03
4.839865690671e-03
5.680220098289e-03
4.012889586750e-03
3.579862790421e-03
3.378887261285e-03
3.414788653151e-03
3.012314576345e-03
4.735913775687e-03
8.740797575552e-03
1.104895664301e-02
3.539282209189e-03
4.407300317389e-03
1.430236823606e-02
1.436869631253e-02
1.429596786024e-02
1.435512010860e-02
1.442265051270e-02
1.439702110406e-02
1.427400925804e-02
1.431775652933e-02
1.414141805835e-02
1.419710452727e-02
1.435114318733e-02
1.424164944045e-02
1.404788797780e-02
1.411044356326e-02
1.388477260155e-02
1.396556571909e-02
1.416296125072e-02
1.341563624729e-03
2.948258416514e-03
3.662926721500e-03
2.907839226593e-03
3.176445068284e-03
3.287561481841e-03
3.431100328254e-03
1.403651899177e-02
1.420777441227e-02
1.021854396208e-02
9.152287842191e-03
1.415810155321e-02
4.635392304775e-03
4.375248035724e-03
6.845918078719e-03
7.143010402920e-03
6.874765361212e-03
7.040255764714e-03
7.583772227344e-03
6.906839577307e-03
2.332146338257e-03
1.437098117930e-02
2.224538802684e-03
1.819468555359e-03
4.914626681612e-03
2.541183714960e-03
8.062711132856e-03
7.408056148411e-03
8.105458713033e-03
7.481137824976e-03
8.177154522123e-03
7.733693031889e-03
7.069421187949e-03
6.177663190467e-03
7.588638292913e-03
1.381375386935e-02
4.439880018819e-03
3.166257311543e-03
1.179350150542e-03
2.670292524855e-03
1.497041349026e-03
1.951935706382e-03
3.752981135590e-03
8.428110573719e-03
8.888214519653e-03
7.443428478692e-03
8.003284059168e-03
6.127560829780e-03
1.411509476167e-02
1.407707220248e-02
1.388432788105e-02
9.604601091947e-04
3.119435852807e-03
1.445482843486e-02
8.378096285615e-03
7.797673286292e-03
7.874543368534e-03
7.155177803049e-03
1.410035190067e-02
1.424574234006e-02
3.510870561461e-03
3.669101249249e-03
3.507217805554e-03
2.463620483158e-03
1.432413481076e-02
2.428659211756e-03
2.171468229910e-03
3.315251746364e-03
9.900930720264e-03
1.081015886310e-02
3.181906323276e-03
2.745489552593e-03
1.668202314741e-03
4.183309541742e-03
1.443395773659e-02
6.911359117449e-03
6.431436840512e-03
7.595312390560e-03
1.910230176266e-03
4.047782288122e-03
4.836182527867e-03
9.147152127419e-03
9.598838886346e-03
7.291977068617e-03
7.215810124433e-03
7.568438168268e-03
7.373797605266e-03
1.206825770585e-02
6.917129323074e-03
1.050050237309e-02
1.100130745900e-02
1.041470469093e-02
8.156746052313e-03
8.590748425011e-03
8.256668598414e-03
4.853494440334e-03
3.357377817832e-03
3.745230055552e-03
2.381454281645e-03
1.443900143777e-02
1.443861431649e-02
1.379024573468e-02
1.360081938984e-02
1.395802788304e-03
1.289526950874e-03
3.069572339141e-03
3.877335996679e-03
1.428494103880e-02
1.412476411714e-02
1.395339338102e-02
4.025098622989e-03
9.215937724278e-03
3.076953497324e-03
8.913848635809e-03
6.207860273789e-03
8.275657071282e-04
1.037890562470e-02
5.120583070370e-03
5.212094110834e-03
6.921483571281e-03
1.276920473632e-02
5.795265815279e-03
5.492221330858e-03
1.092795731745e-02
1.029159003135e-02
9.814954156900e-03
9.652993167263e-03
2.947735277429e-03
2.943419785187e-03
9.042554650353e-03
8.279969013051e-03
9.837263685202e-03
1.028802009901e-02
6.894722353560e-03
6.093677428932e-03
2.100473080436e-03
8.394509808049e-03
1.445905521485e-02
1.156385605047e-02
4.370449976482e-03
4.234085456996e-03
7.478305345310e-03
9.716876111374e-03
1.434352851878e-02
7.665730549737e-03
7.035376601575e-03
7.939803545587e-03
5.786874455497e-03
1.286513342563e-02
5.415498034960e-03
8.747790072642e-03
1.439479395764e-02
5.364232358985e-03
6.714162737938e-03
3.240770557264e-03
1.427316346493e-02
1.436130523704e-02
1.378247410277e-02
1.354477747412e-02
1.399119501967e-02
9.434610965338e-03
9.031058216046e-03
1.438241905456e-02
2.588262351915e-03
2.755612215090e-03
2.312467704332e-03
2.579714230099e-03
3.553934028407e-03
3.382768196646e-03
9.969023703139e-03
1.054044643458e-02
8.728646274933e-03
2.079624218801e-03
1.912998504112e-03
2.252759725818e-03
1.445694462015e-02
1.443576006688e-02
2.848556065193e-03
3.357493083227e-03
2.829644856454e-03
1.440359770645e-02
5.520100481588e-03
5.302499630001e-03
6.564558160827e-04
1.166278485025e-03
1.077038835240e-02
1.184254999159e-02
1.390196149489e-02
1.370251576281e-02
1.405796056381e-02
1.798639606524e-03
6.256234416927e-03
4.787901892154e-03
4.699398377017e-03
4.997349048652e-03
6.929215030173e-03
7.641394632274e-03
8.296792931018e-03
5.638747634448e-03
1.432399976570e-02
1.345452696441e-02
5.387881912474e-03
1.324734716465e-02
1.340968673819e-02
1.303767253421e-02
1.341244765816e-03
1.360811728073e-02
1.390570611083e-02
4.048940534603e-04
1.439294149742e-02
3.927253033571e-04
4.895309748536e-04
4.712248457298e-03
4.577565009500e-03
5.037288772586e-03
4.896767710686e-03
4.508828530454e-03
4.833074327146e-03
1.329544658081e-02
5.266476306010e-03
5.142443999454e-03
5.569144812664e-03
1.013338831726e-02
6.977179881103e-03
6.812035949956e-03
6.710194861837e-03
1.061630056850e-02
1.091702132655e-02
5.025473548861e-03
4.749399182264e-03
1.320875438169e-02
1.316372051461e-02
1.345245555962e-02
1.339444887174e-02
1.365459579685e-02
1.359300959056e-02
1.383083455702e-02
9.038800218151e-03
8.047307599381e-03
1.153414705075e-02
6.860625646108e-03
6.049857614713e-03
9.007393917632e-03
8.815190437045e-03
4.738723146756e-03
6.856495361781e-03
1.427954341020e-02
6.770008015257e-03
7.881118337963e-03
6.631864104693e-03
9.202907631778e-03
6.933649415137e-03
7.268354040071e-03
2.541836943846e-03
1.092961341902e-03
8.897107288261e-03
1.388949435895e-02
9.802060370708e-03
4.928277235983e-03
7.136503271379e-03
8.282537432224e-03
8.348225196265e-03
7.134436969895e-03
1.157908952128e-02
1.258786323715e-02
1.211938532862e-02
7.704886478957e-03
7.820401037570e-03
7.606676308602e-03
1.002497459764e-02
1.371695280409e-02
1.341724487301e-02
1.340889769553e-02
1.309634541468e-02
1.307151009298e-02
1.271475018689e-02
1.278042364546e-02
1.236640133629e-02
1.252508572540e-02
1.201866152533e-02
1.189554988756e-02
1.154180332143e-02
1.169086472269e-02
1.141699548373e-02
7.628657827505e-03
6.355153831427e-03
6.534759563405e-03
1.172815276422e-02
8.872524995373e-03
1.288714840168e-02
1.351806875260e-02
8.882208446939e-03
1.094823388061e-02
1.155256144431e-02
9.794150798078e-03
1.025375425878e-02
1.342036176214e-02
1.306035071754e-02
1.343099312795e-02
1.391240407298e-02
1.414932351832e-02
8.879295562350e-03
4.080504352882e-03
4.803948751116e-03
5.633231629094e-03
1.227699006156e-02
7.281767389093e-03
6.384716596292e-03
6.027871412817e-03
5.440286537757e-03
6.520183918546e-03
1.219069860710e-02
1.178689915574e-02
4.029477809297e-03
4.938200641570e-03
3.958447750662e-03
6.036119821337e-03
7.352910586433e-03
8.307444910835e-03
7.087955280835e-03
9.692943153144e-03
1.072306639290e-02
5.862592209980e-03
2.530688263435e-03
2.102458856158e-03
2.044135776110e-03
3.209724726478e-03
3.214885176992e-03
3.363604303957e-03
3.152685907715e-03
6.820786331471e-03
5.611159802635e-03
2.525674884971e-03
3.052448888769e-03
1.346911138123e-02
1.386798286342e-02
1.389054119595e-02
1.398205545412e-02
1.379805150407e-02
3.726913443099e-03
3.897886291658e-03
3.824493167673e-03
4.063544032946e-03
3.967665840613e-03
3.735214415440e-03
4.219354354304e-03
4.087144903923e-03
1.319237471127e-02
6.073421447228e-03
6.559273772753e-03
2.959878671596e-03
5.126933184728e-03
8.669405158543e-03
6.481511266962e-03
9.606787878029e-03
8.978700926636e-03
1.009389206018e-03
1.241323900829e-03
9.357466174724e-04
6.295024833905e-04
1.953980420619e-03
1.800406338942e-03
5.853956311933e-03
3.338239606314e-03
3.190872445345e-03
2.885521112196e-03
3.047774985290e-03
3.452717888652e-03
2.697109632400e-03
2.568016751048e-03
8.120029564747e-04
4.826880663185e-04
5.058028998511e-04
5.332531278107e-04
5.275800137280e-04
4.821667521744e-04
4.664762990253e-04
8.156223518275e-04
4.499614582629e-04
5.541244189004e-04
8.371719400397e-04
1.406040701219e-02
1.415246755373e-02
5.376708425069e-03
1.308323644014e-02
1.114400765767e-03
1.439993425681e-02
1.438676654628e-02
1.439349348431e-02
5.500784363198e-03
5.618094957651e-03
1.439017195984e-02
2.522291181401e-03
1.314793846400e-02
1.438623208766e-02
1.025320188994e-02
2.824485692994e-03
4.568196777669e-03
3.710837312235e-03
4.984282150024e-03
4.171626505386e-03
4.465204098045e-03
5.557114058823e-03
1.197240112525e-03
1.397235199573e-02
1.371674823382e-02
1.427678042858e-02
2.462991661781e-03
3.589194911722e-03
1.525682401298e-03
9.852477121554e-03
9.930092132500e-03
2.347292791292e-03
3.027808478794e-03
2.702389867981e-03
3.034776088514e-03
6.527336460943e-03
2.971659580392e-03
3.520624500985e-03
1.430380626077e-02
8.867083081154e-04
3.487814094586e-03
3.202299700042e-03
1.421878991765e-02
4.465266286369e-03
4.168936356166e-03
1.442400472093e-02
1.423092681567e-02
1.407754774922e-02
9.898006049714e-04
1.367530169222e-02
4.381494537541e-03
1.397632894882e-02
2.220424236715e-03
3.828434918916e-03
7.806492894940e-03
1.337641458066e-02
1.442157632934e-02
5.703597377963e-03
4.446446068117e-03
2.828259393604e-03
2.361491661800e-03
4.181930138621e-03
6.077611693936e-03
1.446929789879e-02
8.803823354284e-03
8.150059459549e-03
1.438690671751e-02
1.937252276286e-03
5.300401272854e-03
9.343786599034e-03
8.628375606290e-03
1.079057065763e-02
6.752708176859e-03
4.483250889301e-03
3.835894278537e-03
9.725660630385e-03
6.916666228463e-03
1.421379216615e-02
8.255389251294e-03
1.445775925778e-02
7.702260839997e-03
4.169818680170e-03
1.435954521433e-02
3.167386570612e-03
1.462127589047e-03
1.049256689907e-02
9.822663887440e-03
5.892738933553e-03
3.301773985070e-03
1.365198981913e-02
4.480070299270e-03
2.851593823438e-03
1.318353210891e-02
1.223177568640e-02
4.779036858488e-03
2.872539630603e-03
5.243891756792e-03
3.844135735853e-03
9.495510335441e-03
9.450942563334e-03
5.063163924469e-03
3.019526106029e-03
7.723846171143e-03
1.286952094621e-02
5.464984875523e-03
3.836371186604e-03
6.749788384724e-03
2.569795075828e-03
1.160449038215e-02
3.526342844048e-03
9.234953901003e-03
1.405140367148e-02
4.543879231418e-03
1.306083640884e-02
3.557967649918e-03
4.964516404562e-03
5.293745073393e-04
1.083101089658e-02
3.751812324552e-03
8.977511464691e-03
2.006732901734e-03
7.644522928921e-03
3.943636448265e-03
7.853454973104e-03
4.130548523707e-03
1.008253651400e-02
1.264386603455e-02
4.311959930273e-03
9.365456140249e-03
6.138144801886e-04
6.239752574162e-03
5.315594881163e-03
2.805202144437e-03
1.844165945855e-03
1.267199775470e-02
8.811915675906e-03
1.954765025406e-03
9.482845313887e-03
5.868548781364e-03
5.421537453079e-03
2.299984237807e-03
8.240945875537e-03
2.511891293431e-03
2.227127760606e-03
5.774556346468e-03
1.013665531231e-02
8.858529671335e-04
1.181016646488e-02
1.815088597335e-03
4.849593896905e-03
6.214754905640e-03
1.366154777314e-02
3.202634978970e-03
1.912540037300e-03
2.850098176788e-03
4.983560641546e-03
2.566968318418e-03
2.740304223654e-03
1.441201811383e-02
2.716973038436e-03
1.439513843064e-02
5.945487085669e-03
1.311231715365e-02
7.864657514454e-03
3.713282847665e-03
7.065141917549e-03
2.829507702613e-03
1.091386599870e-02
1.313130576405e-02
2.724356383031e-03
1.211688992240e-02
9.566560087904e-03
1.398944247160e-02
5.256901792827e-03
5.599576170037e-03
1.429992220927e-02
1.290311398238e-02
4.874546770499e-04
4.654066334689e-03
6.920043138367e-03
7.206066773815e-03
8.495932608416e-03
2.476872218640e-03
2.857768483675e-03
7.444294590318e-03
6.706387632343e-03
1.344048750923e-02
6.917748896192e-03
9.105193838097e-03
1.428598018298e-02
8.407066195549e-03
5.524746343841e-03
7.635488202174e-03
1.223330565865e-02
1.402917482377e-02
1.019709849770e-02
1.414985316916e-02
5.694972646379e-03
1.359865580429e-02
1.438541100136e-02
9.903976528010e-03
1.436830233681e-02
1.106275069402e-02
1.355673489082e-02
1.378107552864e-02
5.716452563869e-03
1.291454291810e-02
1.382790134996e-02
1.400727517356e-02
3.051511294270e-03
7.612414939725e-03
4.878115475197e-03
1.122342888286e-02
5.594154133637e-03
5.182648883130e-04
4.417656446208e-04
4.991403814767e-03
1.127777812710e-02
8.569205961356e-03
1.430442046032e-02
1.275537579126e-02
1.291831011761e-02
4.612605192393e-04
5.795496092510e-03
1.442851655936e-02
3.320274418218e-03
1.380756590688e-02
2.207963532266e-03
8.830965192320e-03
1.214680779164e-03
1.442046042743e-02
5.472647817931e-03
1.385892111411e-02
8.273686403439e-03
5.380354992970e-03
8.919561057056e-03
5.280574273532e-03
1.287676839792e-02
1.337461923722e-02
2.761191866103e-03
9.236533595005e-04
1.439375260849e-02
8.772799837430e-04
1.283647398612e-02
6.024529836019e-03
7.985641078359e-04
1.333713806532e-02
1.174677996759e-02
3.922695080540e-03
1.424742634673e-02
3.881458703773e-03
3.716951495074e-03
1.379616010424e-02
8.206566689284e-03
1.418055405986e-02
1.368554711822e-02
1.141999305336e-02
1.139227791177e-02
3.519937715835e-03
9.596503175902e-03
5.990111105536e-03
1.335020066963e-02
4.148749704354e-03
5.017391843941e-04
5.252707040227e-03
3.650427602929e-03


CELL_DATA 1919

SCALARS element_number int
LOOKUP_TABLE default
407
408
409
410
411
412
413
414
415
416
417
418
419
420
421
422
423
424
425
426
427
428
429
430
431
432
433
434
435
436
437
438
439
440
441
442
443
444
445
446
447
448
449
450
451
452
453
454
455
456
457
458
459
460
461
462
463
464
465
466
467
468
469
470
471
472
473
474
475
476
477
478
479
480
481
482
483
484
485
486
487
488
489
490
491
492
493
494
495
496
497
498
499
500
501
502
503
504
505
506
507
508
509
510
511
512
513
514
515
516
517
518
519
520
521
522
523
524
525
526
527
528
529
530
531
532
533
534
535
536
537
538
539
540
541
542
543
544
545
546
547
548
549
550
551
552
553
554
555
556
557
558
559
560
561
562
563
564
565
566
567
568
569
570
571
572
573
574
575
576
577
578
579
580
581
582
583
584
585
586
587
588
589
590
591
592
593
594
595
596
597
598
599
600
601
602
603
604
605
606
607
608
609
610
611
612
613
614
615
616
617
618
619
620
621
622
623
624
625
626
627
628
629
630
631
632
633
634
635
636
637
638
639
640
641
642
643
644
645
646
647
648
649
650
651
652
653
654
655
656
657
658
659
660
661
662
663
664
665
666
667
668
669
670
671
672
673
674
675
676
677
678
679
680
681
682
683
684
685
686
687
688
689
690
691
692
693
694
695
696
697
698
699
700
701
702
703
704
705
706
707
708
709
710
711
712
713
714
715
716
717
718
719
720
721
722
723
724
725
726
727
728
729
730
731
732
733
734
735
736
737
738
739
740
741
742
743
744
745
746
747
748
749
750
751
752
753
754
755
756
757
758
759
760
761
762
763
764
765
766
767
768
769
770
771
772
773
774
775
776
777
778
779
780
781
782
783
784
785
786
787
788
789
790
791
792
793
794
795
796
797
798
799
800
801
802
803
804
805
806
807
808
809
810
811
812
813
814
815
816
817
818
819
820
821
822
823
824
825
826
827
828
829
830
831
832
833
834
835
836
837
838
839
840
841
842
843
844
845
846
847
848
849
850
851
852
853
854
855
856
857
858
859
860
861
862
863
864
865
866
867
868
869
870
871
872
873
874
875
876
877
878
879
880
881
882
883
884
885
886
887
888
889
890
891
892
893
894
895
896
897
898
899
900
901
902
903
904
905
906
907
908
909
910
911
912
913
914
915
916
917
918
919
920
921
922
923
924
925
926
927
928
929
930
931
932
933
934
935
936
937
938
939
940
941
942
943
944
945
946
947
948
949
950
951
952
953
954
955
956
957
958
959
960
961
962
963
964
965
966
967
968
969
970
971
972
973
974
975
976
977
978
979
980
981
982
983
984
985
986
987
988
989
990
991
992
993
994
995
996
997
998
999
1000
1001
1002
1003
1004
1005
1006
1007
1008
1009
1010
1011
1012
1013
1014
1015
1016
1017
1018
1019
1020
1021
1022
1023
1024
1025
1026
1027
1028
1029
1030
1031
1032
1033
1034
1035
1036
1037
1038
1039
1040
1041
1042
1043
1044
1045
1046
1047
1048
1049
1050
1051
1052
1053
1054
1055
1056
1057
1058
1059
1060
1061
1062
1063
1064
1065
1066
1067
1068
1069
1070
1071
1072
1073
1074
1075
1076
1077
1078
1079
1080
1081
1082
1083
1084
1085
1086
1087
1088
1089
1090
1091
1092
1093
1094
1095
1096
1097
1098
1099
1100
1101
1102
1103
1104
1105
1106
1107
1108
1109
1110
1111
1112
1113
1114
1115
1116
1117
1118
1119
1120
1121
1122
1123
1124
1125
1126
1127
1128
1129
1130
1131
1132
1133
1134
1135
1136
1137
1138
1139
1140
1141
1142
1143
1144
1145
1146
1147
1148
1149
1150
1151
1152
1153
1154
1155
1156
1157
1158
1159
1160
1161
1162
1163
1164
1165
1166
1167
1168
1169
1170
1171
1172
1173
1174
1175
1176
1177
1178
1179
1180
1181
1182
1183
1184
1185
1186
1187
1188
1189
1190
1191
1192
1193
1194
1195
1196
1197
1198
1199
1200
1201
1202
1203
1204
1205
1206
1207
1208
1209
1210
1211
1212
1213
1214
1215
1216
1217
1218
1219
1220
1221
1222
1223
1224
1225
1226
1227
1228
1229
1230
1231
1232
1233
1234
1235
1236
1237
1238
1239
1240
1241
1242
1243
1244
1245
1246
1247
1248
1249
1250
1251
1252
1253
1254
1255
1256
1257
1258
1259
1260
1261
1262
1263
1264
1265
1266
1267
1268
1269
1270
1271
1272
1273
1274
1275
1276
1277
1278
1279
1280
1281
1282
1283
1284
1285
1286
1287
1288
1289
1290
1291
1292
1293
1294
1295
1296
1297
1298
1299
1300
1301
1302
1303
1304
1305
1306
1307
1308
1309
1310
1311
1312
1313
1314
1315
1316
1317
1318
1319
1320
1321
1322
1323
1324
1325
1326
1327
1328
1329
1330
1331
1332
1333
1334
1335
1336
1337
1338
1339
1340
1341
1342
1343
1344
1345
1346
1347
1348
1349
1350
1351
1352
1353
1354
1355
1356
1357
1358
1359
1360
1361
1362
1363
1364
1365
1366
1367
1368
1369
1370
1371
1372
1373
1374
1375
1376
1377
1378
1379
1380
1381
1382
1383
1384
1385
1386
1387
1388
1389
1390
1391
1392
1393
1394
1395
1396
1397
1398
1399
1400
1401
1402
1403
1404
1405
1406
1407
1408
1409
1410
1411
1412
1413
1414
1415
1416
1417
1418
1419
1420
1421
1422
1423
1424
1425
1426
1427
1428
1429
1430
1431
1432
1433
1434
1435
1436
1437
1438
1439
1440
1441
1442
1443
1444
1445
1446
1447
1448
1449
1450
1451
1452
1453
1454
1455
1456
1457
1458
1459
1460
1461
1462
1463
1464
1465
1466
1467
1468
1469
1470
1471
1472
1473
1474
1475
1476
1477
1478
1479
1480
1481
1482
1483
1484
1485
1486
1487
1488
1489
1490
1491
1492
1493
1494
1495
1496
1497
1498
1499
1500
1501
1502
1503
1504
1505
1506
1507
1508
1509
1510
1511
1512
1513
1514
1515
1516
1517
1518
1519
1520
1521
1522
1523
1524
1525
1526
1527
1528
1529
1530
1531
1532
1533
1534
1535
1536
1537
1538
1539
1540
1541
1542
1543
1544
1545
1546
1547
1548
1549
1550
1551
1552
1553
1554
1555
1556
1557
1558
1559
1560
1561
1562
1563
1564
1565
1566
1567
1568
1569
1570
1571
1572
1573
1574
1575
1576
1577
1578
1579
1580
1581
1582
1583
1584
1585
1586
1587
1588
1589
1590
1591
1592
1593
1594
1595
1596
1597
1598
1599
1600
1601
1602
1603
1604
1605
1606
1607
1608
1609
1610
1611
1612
1613
1614
1615
1616
1617
1618
1619
1620
1621
1622
1623
1624
1625
1626
1627
1628
1629
1630
1631
1632
1633
1634
1635
1636
1637
1638
1639
1640
1641
1642
1643
1644
1645
1646
1647
1648
1649
1650
1651
1652
1653
1654
1655
1656
1657
1658
1659
1660
1661
1662
1663
1664
1665
1666
1667
1668
1669
1670
1671
1672
1673
1674
1675
1676
1677
1678
1679
1680
1681
1682
1683
1684
1685
1686
1687
1688
1689
1690
1691
1692
1693
1694
1695
1696
1697
1698
1699
1700
1701
1702
1703
1704
1705
1706
1707
1708
1709
1710
1711
1712
1713
1714
1715
1716
1717
1718
1719
1720
1721
1722
1723
1724
1725
1726
1727
1728
1729
1730
1731
1732
1733
1734
1735
1736
1737
1738
1739
1740
1741
1742
1743
1744
1745
1746
1747
1748
1749
1750
1751
1752
1753
1754
1755
1756
1757
1758
1759
1760
1761
1762
1763
1764
1765
1766
1767
1768
1769
1770
1771
1772
1773
1774
1775
1776
1777
1778
1779
1780
1781
1782
1783
1784
1785
1786
1787
1788
1789
1790
1791
1792
1793
1794
1795
1796
1797
1798
1799
1800
1801
1802
1803
1804
1805
1806
1807
1808
1809
1810
1811
1812
1813
1814
1815
1816
1817
1818
1819
1820
1821
1822
1823
1824
1825
1826
1827
1828
1829
1830
1831
1832
1833
1834
1835
1836
1837
1838
1839
1840
1841
1842
1843
1844
1845
1846
1847
1848
1849
1850
1851
1852
1853
1854
1855
1856
1857
1858
1859
1860
1861
1862
1863
1864
1865
1866
1867
1868
1869
1870
1871
1872
1873
1874
1875
1876
1877
1878
1879
1880
1881
1882
1883
1884
1885
1886
1887
1888
1889
1890
1891
1892
1893
1894
1895
1896
1897
1898
1899
1900
1901
1902
1903
1904
1905
1906
1907
1908
1909
1910
1911
1912
1913
1914
1915
1916
1917
1918
1919
1920
1921
1922
1923
1924
1925
1926
1927
1928
1929
1930
1931
1932
1933
1934
1935
1936
1937
1938
1939
1940
1941
1942
1943
1944
1945
1946
1947
1948
1949
1950
1951
1952
1953
1954
1955
1956
1957
1958
1959
1960
1961
1962
1963
1964
1965
1966
1967
1968
1969
1970
1971
1972
1973
1974
1975
1976
1977
1978
1979
1980
1981
1982
1983
1984
1985
1986
1987
1988
1989
1990
1991
1992
1993
1994
1995
1996
1997
1998
1999
2000
2001
2002
2003
2004
2005
2006
2007
2008
2009
2010
2011
2012
2013
2014
2015
2016
2017
2018
2019
2020
2021
2022
2023
2024
2025
2026
2027
2028
2029
2030
2031
2032
2033
2034
2035
2036
2037
2038
2039
2040
2041
2042
2043
2044
2045
2046
2047
2048
2049
2050
2051
2052
2053
2054
2055
2056
2057
2058
2059
2060
2061
2062
2063
2064
2065
2066
2067
2068
2069
2070
2071
2072
2073
2074
2075
2076
2077
2078
2079
2080
2081
2082
2083
2084
2085
2086
2087
2088
2089
2090
2091
2092
2093
2094
2095
2096
2097
2098
2099
2100
2101
2102
2103
2104
2105
2106
2107
2108
2109
2110
2111
2112
2113
2114
2115
2116
2117
2118
2119
2120
2121
2122
2123
2124
2125
2126
2127
2128
2129
2130
2131
2132
2133
2134
2135
2136
2137
2138
2139
2140
2141
2142
2143
2144
2145
2146
2147
2148
2149
2150
2151
2152
2153
2154
2155
2156
2157
2158
2159
2160
2161
2162
2163
2164
2165
2166
2167
2168
2169
2170
2171
2172
2173
2174
2175
2176
2177
2178
2179
2180
2181
2182
2183
2184
2185
2186
2187
2188
2189
2190
2191
2192
2193
2194
2195
2196
2197
2198
2199
2200
2201
2202
2203
2204
2205
2206
2207
2208
2209
2210
2211
2212
2213
2214
2215
2216
2217
2218
2219
2220
2221
2222
2223
2224
2225
2226
2227
2228
2229
2230
2231
2232
2233
2234
2235
2236
2237
2238
2239
2240
2241
2242
2243
2244
2245
2246
2247
2248
2249
2250
2251
2252
2253
2254
2255
2256
2257
2258
2259
2260
2261
2262
2263
2264
2265
2266
2267
2268
2269
2270
2271
2272
2273
2274
2275
2276
2277
2278
2279
2280
2281
2282
2283
2284
2285
2286
2287
2288
2289
2290
2291
2292
2293
2294
2295
2296
2297
2298
2299
2300
2301
2302
2303
2304
2305
2306
2307
2308
2309
2310
2311
2312
2313
2314
2315
2316
2317
2318
2319
2320
2321
2322
2323
2324
2325

SCALARS element_group int
LOOKUP_TABLE default
0
0
0
0
0
0
0
0
0
0
0
0
0
0
0
0
0
0
0
0
0
0
0
0
0
0
0
0
0
0
0
0
0
0
0
0
0
0
0
0
0
0
0
0
0
0
0
0
0
0
0
0
0
0
0
0
0
0
0
0
0
0
0
0
0
0
0
0
0
0
0
0
0
0
0
0
0
0
0
0
0
0
0
0
0
0
0
0
0
0
0
0
0
0
0
0
0
0
0
0
0
0
0
0
0
0
0
0
0
0
0
0
0
0
0
0
0
0
0
0
0
0
0
0
0
0
0
0
0
0
0
0
0
0
0
0
0
0
0
0
0
0
0
0
0
0
0
0
0
0
0
0
0
0
0
0
0
0
0
0
0
0
0
0
0
0
0
0
0
0
0
0
0
0
0
0
0
0
0
0
0
0
0
0
0
0
0
0
0
0
0
0
0
0
0
0
0
0
0
0
0
0
0
0
0
0
0
0
0
0
0
0
0
0
0
0
0
0
0
0
0
0
0
0
0
0
0
0
0
0
0
0
0
0
0
0
0
0
0
0
0
0
0
0
0
0
0
0
0
0
0
0
0
0
0
0
0
0
0
0
0
0
0
0
0
0
0
0
0
0
0
0
0
0
0
0
0
0
0
0
0
0
0
0
0
0
0
0
0
0
0
0
0
0
0
0
0
0
0
0
0
0
0
0
0
0
0
0
0
0
0
0
0
0
0
0
0
0
0
0
0
0
0
0
0
0
0
0
0
0
0
0
0
0
0
0
0
0
0
0
0
0
0
0
0
0
0
0
0
0
0
0
0
0
0
0
0
0
0
0
0
0
0
0
0
0
0
0
0
0
0
0
0
0
0
0
0
0
0
0
0
0
0
0
0
0
0
0
0
0
0
0
0
0
0
0
0
0
0
0
0
0
0
0
0
0
0
0
0
0
0
0
0
0
0
0
0
0
0
0
0
0
0
0
0
0
0
0
0
0
0
0
0
0
0
0
0
0
0
0
0
0
0
0
0
0
0
0
0
0
0
0
0
0
0
0
0
0
0
0
0
0
0
0
0
0
0
0
0
0
0
0
0
0
0
0
0
0
0
0
0
0
0
0
0
0
0
0
0
0
0
0
0
0
0
0
0
0
0
0
0
0
0
0
0
0
0
0
0
0
0
0
0
0
0
0
0
0
0
0
0
0
0
0
0
0
0
0
0
0
0
0
0
0
0
0
0
0
0
0
0
0
0
0
0
0
0
0
0
0
0
0
0
0
0
0
0
0
0
0
0
0
0
0
0
0
0
0
0
0
0
0
0
0
0
0
0
0
0
0
0
0
0
0
0
0
0
0
0
0
0
0
0
0
0
0
0
0
0
0
0
0
0
0
0
0
0
0
0
0
0
0
0
0
0
0
0
0
0
0
0
0
0
0
0
0
0
0
0
0
0
0
0
0
0
0
0
0
0
0
0
0
0
0
0
0
0
0
0
0
0
0
0
0
0
0
0
0
0
0
0
0
0
0
0
0
0
0
0
0
0
0
0
0
0
0
0
0
0
0
0
0
0
0
0
0
0
0
0
0
0
0
0
0
0
0
0
0
0
0
0
0
0
0
0
0
0
0
0
0
0
0
0
0
0
0
0
0
0
0
0
0
0
0
0
0
0
0
0
0
0
0
0
0
0
0
0
0
0
0
0
0
0
0
0
0
0
0
0
0
0
0
0
0
0
0
0
0
0
0
0
0
0
0
0
0
0
0
0
0
0
0
0
0
0
0
0
0
0
0
0
0
0
0
0
0
0
0
0
0
0
0
0
0
0
0
0
0
0
0
0
0
0
0
0
0
0
0
0
0
0
0
0
0
0
0
0
0
0
0
0
0
0
0
0
0
0
0
0
0
0
0
0
0
0
0
0
0
0
0
0
0
0
0
0
0
0
0
0
0
0
0
0
0
0
0
0
0
0
0
0
0
0
0
0
0
0
0
0
0
0
0
0
0
0
0
0
0
0
0
0
0
0
0
0
0
0
0
0
0
0
0
0
0
0
0
0
0
0
0
0
0
0
0
0
0
0
0
0
0
0
0
0
0
0
0
0
0
0
0
0
0
0
0
0
0
0
0
0
0
0
0
0
0
0
0
0
0
0
0
0
0
0
0
0
0
0
0
0
0
0
0
0
0
0
0
0
0
0
0
0
0
0
0
0
0
0
0
0
0
0
0
0
0
0
0
0
0
0
0
0
0
0
0
0
0
0
0
0
0
0
0
0
0
0
0
0
0
0
0
0
0
0
0
0
0
0
0
0
0
0
0
0
0
0
0
0
0
0
0
0
0
0
0
0
0
0
0
0
0
0
0
0
0
0
0
0
0
0
0
0
0
0
0
0
0
0
0
0
0
0
0
0
0
0
0
0
0
0
0
0
0
0
0
0
0
0
0
0
0
0
0
0
0
0
0
0
0
0
0
0
0
0
0
0
0
0
0
0
0
0
0
0
0
0
0
0
0
0
0
0
0
0
0
0
0
0
0
0
0
0
0
0
0
0
0
0
0
0
0
0
0
0
0
0
0
0
0
0
0
0
0
0
0
0
0
0
0
0
0
0
0
0
0
0
0
0
0
0
0
0
0
0
0
0
0
0
0
0
0
0
0
0
0
0
0
0
0
0
0
0
0
0
0
0
0
0
0
0
0
0
0
0
0
0
0
0
0
0
0
0
0
0
0
0
0
0
0
0
0
0
0
0
0
0
0
0
0
0
0
0
0
0
0
0
0
0
0
0
0
0
0
0
0
0
0
0
0
0
0
0
0
0
0
0
0
0
0
0
0
0
0
0
0
0
0
0
0
0
0
0
0
0
0
0
0
0
0
0
0
0
0
0
0
0
0
0
0
0
0
0
0
0
0
0
0
0
0
0
0
0
0
0
0
0
0
0
0
0
0
0
0
0
0
0
0
0
0
0
0
0
0
0
0
0
0
0
0
0
0
0
0
0
0
0
0
0
0
0
0
0
0
0
0
0
0
0
0
0
0
0
0
0
0
0
0
0
0
0
0
0
0
0
0
0
0
0
0
0
0
0
0
0
0
0
0
0
0
0
0
0
0
0
0
0
0
0
0
0
0
0
0
0
0
0
0
0
0
0
0
0
0
0
0
0
0
0
0
0
0
0
0
0
0
0
0
0
0
0
0
0
0
0
0
0
0
0
0
0
0
0
0
0
0
0
0
0
0
0
0
0
0
0
0
0
0
0
0
0
0
0
0
0
0
0
0
0
0
0
0
0
0
0
0
0
0
0
0
0
0
0
0
0
0
0
0
0
0
0
0
0
0
0
0
0
0
0
0
0
0
0
0
0
0
0
0
0
0
0
0
0
0
0
0
0
0
0
0
0
0
0
0
0
0
0
0
0
0
0
0
0
0
0
0
0
0
0
0
0
0
0
0
0
0
0
0
0
0
0
0
0
0
0
0
0
0
0
0
0
0
0
0
0
0
0
0
0
0
0
0
0
0
0
0
0
0
0
0
0
0
0
0
0
0
0
0
0
0
0
0
0
0
0
0
0
0
0
0
0
0
0
0
0
0
0
0
0
0
0
0
0
0
0
0
0
0
0
0
0
0
0
0
0
0
0
0
0
0
0
0
0
0
0
0
0
0
0
0
0
0
0
0
0
0
0
0
0
0
0
0
0
0
0
0
0
0
0
0
0
0
0
0
0
0
0
0
0
0
0
0
0
0
0
0
0
0
0
0
0
0
0
0
0
0
0
0
0
0
0
0
0
0
0
0
0
0
0
0
0
0
0
0
0
0
0
0
0
0
0
0
0
0
0
0
0
0
0
0
0
0
0
0
0
0
0
0
0
0
0
0
0
0
0
0
0
0
0
0
0
0
0
0
0
0
0
0
0
0
0
0
0
0
0
0
0
0
0
0
0
0
0
0
0
0
0
0
0
0
0
0
0
0
0
0
0
0
0
0
0
0
0
0
0
0
0
0
0
0
0
0
0
0
0
0
0
0
0
0
0
0
0
0
0
0
0
0
0
0
0
0
0
0
0
0
0
0
0
0
0
0
0
0
0
0
0
0
0
0
0
0
0
0
0
0
0
0
0
0
0
0
0
0
0
0
0
0
0
0
0
0
0
0
0
0
0
0
0
0
0
0
0
0
0
0
0
0
0
0
0
0
0
0
0
0
0
0
0
0
0
0
0
0
0
0
0
0
0
0
0
0
0
0
0
0
0
0
0
0
0
0
0
0
0
0
0
0
0
0
0
0
0
0
0
0
0
0
0
0
0
0
0
0
0
0
0
0
0
0
0
0
0
0
0
0
0
0
0
0
0
0
0
0
0
0
0
0
0
0
0


VECTORS element_materi_velocity float
2.067783333993e-01 -3.079307101365e-02 0.0 
1.977384454930e-01 -3.146809428777e-02 0.0 
2.100719789006e-02 -4.413383125702e-03 0.0 
2.339692689046e-03 -8.732774930499e-04 0.0 
2.626047584700e-02 5.394502368903e-03 0.0 
2.276447744945e-01 -3.989265422894e-01 0.0 
1.971896316523e-02 4.617053630379e-03 0.0 
2.123033024649e-01 -3.227480777643e-02 0.0 
2.184767427411e-02 4.894803381722e-03 0.0 
3.422389747570e-03 -8.993708841619e-04 0.0 
-7.052190362450e-03 5.388027921095e-03 0.0 
2.336975390417e-01 -3.350220306435e-02 0.0 
-3.260629680800e-03 -1.686114127769e-03 0.0 
3.921814942561e-02 5.099616231081e-03 0.0 
-2.687196468292e-03 -1.414625846613e-03 0.0 
1.877283596871e-03 -7.122111519857e-04 0.0 
3.415865952301e-02 6.732673475323e-03 0.0 
1.986897096193e-01 -4.071547177411e-01 0.0 
1.132932624942e-03 2.166463839055e-02 0.0 
3.478068256591e-04 2.206426465232e-02 0.0 
4.068328748071e-03 -9.200464937913e-04 0.0 
1.756302769797e-01 -2.403448599498e-02 0.0 
1.607478070075e-01 -2.277209814742e-02 0.0 
-1.571044299383e-02 9.703102420622e-03 0.0 
4.552188916587e-02 2.893703391328e-03 0.0 
-7.828734913255e-03 3.946403814179e-03 0.0 
5.652076778452e-02 1.092007277578e-02 0.0 
-2.543074165559e-03 4.998005719274e-03 0.0 
4.860256413217e-02 2.509761798399e-03 0.0 
-1.271289559191e-02 7.586698684663e-03 0.0 
6.220398700450e-02 -2.383234388299e-01 0.0 
4.309843356019e-02 -1.570764172425e-02 0.0 
2.394945849920e-02 -4.622160119744e-03 0.0 
-2.267081681366e-03 -3.285521163927e-04 0.0 
-1.160999070950e-02 -5.685748677103e-03 0.0 
-4.249973040609e-03 -1.708568716040e-03 0.0 
-4.031292606575e-03 -1.582682963721e-03 0.0 
-5.787302105796e-03 4.586548329741e-03 0.0 
1.667231499615e-02 5.631591691977e-03 0.0 
1.515573175606e-02 5.512626511307e-03 0.0 
1.326906941993e-01 -1.301180863647e-02 0.0 
-7.442703125343e-03 -3.616225843272e-03 0.0 
2.572337262531e-01 -6.705081235456e-02 0.0 
5.844533663525e-02 9.151923248916e-03 0.0 
1.264777469131e-03 -9.558559818402e-04 0.0 
2.525564551230e-01 -1.200236501589e-01 0.0 
7.985126198297e-02 -2.543111089817e-01 0.0 
1.431296960807e-03 -9.307590405602e-04 0.0 
1.017656394948e-01 -2.237487247714e-01 0.0 
3.870157333571e-02 5.873977148159e-03 0.0 
1.466617356764e-01 -1.805621608466e-02 0.0 
-4.802713153814e-04 2.172571444475e-02 0.0 
4.037964810432e-02 -2.267790873058e-01 0.0 
1.472208461939e-01 -1.445779998055e-02 0.0 
1.409343508103e-02 -2.266218328628e-03 0.0 
-4.391826553511e-03 1.953745816328e-02 0.0 
-8.344565842588e-04 2.178112015049e-02 0.0 
-4.583111639017e-03 -4.609804258806e-04 0.0 
6.697405993124e-03 1.732709446703e-02 0.0 
2.248579600581e-03 -7.310086784457e-04 0.0 
1.555038140443e-01 -3.497604811793e-01 0.0 
-4.723273728720e-04 9.418804161723e-03 0.0 
1.590908334749e-01 -2.632492437257e-02 0.0 
4.344648095660e-02 -2.229236419064e-01 0.0 
-5.200656102551e-03 -2.046867978412e-03 0.0 
1.616484447662e-01 -1.948748899365e-02 0.0 
1.551036339339e-01 -3.706686562813e-01 0.0 
2.648718780106e-02 -5.813203880448e-03 0.0 
2.080791999524e-02 -4.090798287227e-02 0.0 
1.111457872449e-02 -1.903411561873e-04 0.0 
-1.177449691283e-02 1.905664002729e-03 0.0 
2.234158912369e-03 -3.530657323684e-04 0.0 
5.928988245878e-04 5.934427186068e-03 0.0 
7.976333948007e-04 2.099979935267e-02 0.0 
-4.563148566682e-03 1.933576687899e-02 0.0 
7.877864846778e-03 -1.073558191195e-03 0.0 
1.774701552004e-02 -2.833148291734e-03 0.0 
2.874277232383e-01 -1.661481144263e-01 0.0 
6.475681261827e-03 1.654676215538e-02 0.0 
2.899997480112e-01 -1.788680110836e-01 0.0 
1.999325046297e-02 -5.347397978211e-02 0.0 
3.200484277068e-02 6.084176412887e-03 0.0 
1.750329627163e-01 -2.683647917246e-02 0.0 
1.942167633025e-01 -2.796005319208e-02 0.0 
2.445488919804e-02 4.404222538518e-03 0.0 
2.238190622237e-02 4.160901661731e-03 0.0 
-6.940654641774e-03 1.808457156814e-03 0.0 
-1.220809849020e-03 3.738155566952e-04 0.0 
6.242695020203e-02 -1.046217449952e-02 0.0 
2.823724390571e-02 5.556863411052e-03 0.0 
4.415202537656e-02 -2.101089274464e-02 0.0 
5.503182639892e-02 6.264799364605e-03 0.0 
3.951969923230e-03 -3.763720069755e-04 0.0 
4.819210001692e-03 -1.430753425473e-04 0.0 
4.473071115386e-03 -6.963971491522e-04 0.0 
-3.471321658279e-03 3.152678472075e-03 0.0 
3.595800146537e-02 6.537996583152e-03 0.0 
-9.926717055978e-03 -4.981879055715e-03 0.0 
3.075105376521e-03 1.733407215507e-03 0.0 
1.634274104595e-01 -2.715168435672e-02 0.0 
2.573150499643e-02 6.036804596247e-03 0.0 
-3.415791751823e-03 -1.548737750983e-03 0.0 
1.891235779925e-02 -1.421172743567e-02 0.0 
-3.853417871187e-04 8.835841429720e-03 0.0 
1.533744785160e-01 -1.540060368031e-01 0.0 
7.952429974149e-02 -2.141066800621e-01 0.0 
-3.796812134596e-03 -1.693455078724e-03 0.0 
3.960267054234e-03 -6.692330323763e-04 0.0 
1.260960120653e-01 -2.751844988037e-01 0.0 
-5.881866651254e-03 -2.250662818569e-03 0.0 
6.801064399615e-02 -1.150456479024e-02 0.0 
1.668714543312e-03 2.042621262121e-02 0.0 
1.240465334569e-01 -1.225063637185e-01 0.0 
7.574520475119e-02 5.120419547482e-03 0.0 
-1.125438697428e-02 1.481829436266e-02 0.0 
1.733390788814e-01 -2.691276881460e-02 0.0 
1.605242267614e-01 -3.371137266039e-02 0.0 
-8.219184845750e-03 -4.012201618478e-03 0.0 
3.930948558209e-03 2.203665739765e-03 0.0 
1.664120355514e-01 -4.450748346693e-02 0.0 
2.026471945464e-02 -1.625279465935e-02 0.0 
5.759416609853e-02 6.903190661528e-03 0.0 
3.109075103923e-03 -7.914427242120e-04 0.0 
1.586464042771e-01 -8.556982145437e-02 0.0 
3.019437027735e-01 -2.797439823277e-01 0.0 
1.039706688595e-01 -4.853864794805e-03 0.0 
-9.316716002421e-03 1.606212224485e-02 0.0 
1.177515787014e-01 -5.320814111927e-03 0.0 
5.962880734326e-03 -9.137186694860e-04 0.0 
2.790345297680e-01 -2.874507994058e-01 0.0 
-1.098618946854e-02 3.250874266939e-03 0.0 
1.855891845361e-03 -8.574215901813e-04 0.0 
1.254928600593e-01 -2.369064607759e-02 0.0 
1.182954975075e-01 -9.036183740191e-03 0.0 
-1.151004824957e-02 -5.806612558637e-03 0.0 
-2.253239662069e-03 -1.558832391415e-03 0.0 
-9.763512425748e-03 1.315575116955e-03 0.0 
1.194263730112e-01 -2.287542671699e-02 0.0 
-7.661844714141e-03 3.239664485626e-03 0.0 
1.227071409038e-01 -1.965122550114e-02 0.0 
4.567281965220e-03 -8.082673537903e-04 0.0 
2.003827876513e-02 -2.344299165232e-03 0.0 
4.162735314604e-02 5.130114946835e-03 0.0 
9.449629086908e-03 7.692679379344e-04 0.0 
1.275508185549e-01 -2.233381740949e-02 0.0 
1.330168016513e-01 -9.600673917917e-03 0.0 
1.181101233662e-01 -2.431842933584e-02 0.0 
1.375375543591e-01 -1.386940395956e-01 0.0 
1.901744466561e-02 5.204005662274e-03 0.0 
1.239083161843e-01 -1.259409511675e-01 0.0 
3.641232694680e-02 -9.417079650296e-03 0.0 
4.530546352605e-03 3.288520296060e-03 0.0 
1.984464225307e-03 2.158726721856e-02 0.0 
8.960954372716e-02 4.954268093471e-04 0.0 
-5.817846225714e-03 1.266776719174e-03 0.0 
1.596161973640e-01 -1.254804996160e-01 0.0 
-5.272675475785e-03 1.028910846813e-03 0.0 
2.389339880204e-01 -4.968548281438e-02 0.0 
2.585049246820e-02 -1.172629427527e-02 0.0 
1.066143204683e-02 4.082631009516e-03 0.0 
1.297170006711e-01 -1.259579257163e-01 0.0 
-5.153258617117e-03 -1.101982208274e-03 0.0 
2.041960016684e-02 -2.302400061782e-02 0.0 
-5.290699401977e-03 -1.886885654858e-03 0.0 
8.240357300473e-02 -6.381975465431e-03 0.0 
-6.824007493806e-03 -2.538483056279e-03 0.0 
4.531480751363e-03 3.913325939054e-03 0.0 
1.451010719811e-01 -1.435189323290e-01 0.0 
8.560778979886e-02 5.706846059732e-03 0.0 
-4.514960323855e-03 6.058852228144e-03 0.0 
2.446313152416e-01 -3.597447587191e-02 0.0 
1.313880528102e-01 -1.262364962975e-01 0.0 
8.178455062640e-03 2.839990731872e-04 0.0 
1.222596152927e-02 4.631170373850e-03 0.0 
1.315327622079e-01 -1.330526431525e-01 0.0 
1.022400753662e-01 4.927975605428e-04 0.0 
7.111560878528e-02 -2.193318889722e-02 0.0 
-1.252133623259e-02 1.345728010228e-02 0.0 
-1.956378590779e-03 5.190001818547e-03 0.0 
1.194728035551e-02 4.553933891292e-04 0.0 
1.807657489717e-01 -2.879159725274e-02 0.0 
-1.141890695765e-02 1.342556147139e-02 0.0 
-1.564069526298e-02 6.399783951624e-03 0.0 
1.263809179147e-01 -1.807142583588e-02 0.0 
1.975674705168e-01 -2.982833036392e-02 0.0 
7.511616601015e-02 5.476364425941e-04 0.0 
1.282161748229e-01 -1.245011089246e-01 0.0 
3.324628948354e-03 -7.935636703920e-04 0.0 
5.786451956565e-02 -7.090818019668e-03 0.0 
-3.604407702530e-03 -1.391685941130e-03 0.0 
2.703773144955e-01 -1.889387979785e-01 0.0 
1.306044315732e-01 -1.458895454079e-01 0.0 
5.895735063600e-02 -9.004424137661e-03 0.0 
2.663289925255e-01 -4.797536567782e-01 0.0 
1.224948599295e-01 -1.491481600605e-02 0.0 
-2.697858347127e-02 -1.086866492565e-04 0.0 
1.461751738276e-02 1.188088442562e-02 0.0 
2.114843058490e-02 -3.512288310263e-03 0.0 
5.171247725928e-02 -8.140251261435e-04 0.0 
-4.468676007470e-02 -2.976761366393e-02 0.0 
-2.163383990260e-02 2.721278476778e-04 0.0 
5.469631326227e-02 5.023263758218e-03 0.0 
4.492098582820e-02 4.029978934180e-03 0.0 
-1.216155104985e-02 5.680628001880e-03 0.0 
-2.212155110402e-02 -1.181387020614e-02 0.0 
1.211769817974e-01 -2.757554560627e-02 0.0 
8.753633579629e-02 -1.104955852477e-02 0.0 
4.790057531946e-02 -1.287229028404e-03 0.0 
7.906639808704e-02 -5.635779600112e-03 0.0 
8.083781553133e-02 -3.604014914715e-03 0.0 
2.819310267917e-02 -3.970122693315e-02 0.0 
7.482384232862e-02 -2.119275686427e-02 0.0 
2.473243277598e-01 -4.646716854238e-01 0.0 
1.776127273280e-01 -2.971813464297e-02 0.0 
1.592581457088e-01 -2.773913387336e-02 0.0 
1.223157714805e-01 -2.614702467917e-02 0.0 
5.236375942342e-02 -6.606427808734e-03 0.0 
1.763384076748e-01 -3.382080652984e-01 0.0 
-3.803907169299e-02 -7.215825698625e-03 0.0 
1.374882634211e-02 4.584302891444e-03 0.0 
1.349153160754e-01 -1.333482536009e-01 0.0 
-4.985052573006e-02 -1.496606833340e-02 0.0 
2.614636365732e-02 1.882798116808e-03 0.0 
4.683719507211e-02 -2.341051719541e-03 0.0 
2.692031793664e-02 2.915208628464e-03 0.0 
1.158159376936e-02 1.370670525466e-02 0.0 
2.712453069185e-01 -1.622807854484e-01 0.0 
-1.274748223391e-02 -1.155573764118e-02 0.0 
4.236815223648e-02 -2.586639687962e-03 0.0 
-8.306033840054e-03 -1.472157369445e-02 0.0 
2.193944562029e-01 -1.486496470529e-01 0.0 
6.952732024433e-03 -1.190261107111e-01 0.0 
1.232257015946e-02 -1.223219487546e-02 0.0 
-1.644298512631e-02 3.943035785924e-03 0.0 
8.704066988919e-02 -9.275833549864e-03 0.0 
-6.101775299855e-03 -2.261356294063e-03 0.0 
2.541454977246e-01 -4.878343864942e-01 0.0 
1.833787641415e-01 -1.393265419391e-01 0.0 
1.274256676633e-01 -1.264533610753e-01 0.0 
1.360176416670e-01 -1.976683457041e-02 0.0 
-3.127009153986e-02 -6.618968679388e-03 0.0 
-7.074957306957e-03 -2.680467552741e-03 0.0 
5.962212468125e-02 -6.270615494186e-03 0.0 
1.266991055364e-01 -2.014729358160e-01 0.0 
-1.951228025705e-02 4.876288466752e-03 0.0 
-5.794184573574e-03 3.094075589828e-03 0.0 
1.128778923522e-01 -2.364397773505e-02 0.0 
5.432111490626e-02 -2.916585658166e-03 0.0 
-1.635094914463e-03 8.781696667589e-03 0.0 
1.252364440747e-01 -1.334730067643e-01 0.0 
1.998494743368e-01 -1.477771194251e-01 0.0 
7.659389037968e-02 -7.002374734650e-03 0.0 
3.597686015104e-03 -5.824490856211e-04 0.0 
1.255373582778e-01 -2.916690068452e-02 0.0 
7.741457222058e-02 -9.027609870384e-02 0.0 
1.021449261754e-02 3.306205422845e-03 0.0 
3.149961323798e-02 -6.377926069843e-02 0.0 
7.492395602453e-02 -2.588586545414e-03 0.0 
1.373451652926e-01 -1.819095322118e-01 0.0 
1.341753392577e-01 -2.945979485354e-01 0.0 
6.307000057849e-02 -2.604518933021e-01 0.0 
3.953083921874e-02 -2.020290224093e-03 0.0 
8.382888505545e-02 -1.026578741798e-02 0.0 
1.448411678072e-01 -1.092704659080e-01 0.0 
3.504847918211e-02 -2.261072739081e-03 0.0 
6.117802845862e-02 -8.389992650682e-03 0.0 
1.039673484139e-01 -2.053363314133e-02 0.0 
-7.272354085875e-03 -3.044203458720e-03 0.0 
5.740511137636e-02 -7.297180898185e-02 0.0 
9.549441257743e-02 -1.722590370926e-02 0.0 
1.237629551272e-01 -1.103494266006e-01 0.0 
4.965305602014e-02 -6.285952505437e-02 0.0 
1.134393081500e-01 -2.613376620000e-01 0.0 
4.920479073672e-02 7.170198133321e-03 0.0 
1.103062739361e-01 -1.376789656333e-01 0.0 
1.235824967070e-02 -1.921373475149e-01 0.0 
5.634537204404e-02 -5.071996489641e-03 0.0 
2.423544269831e-01 -4.849048097791e-01 0.0 
7.212812418289e-02 -2.296763411635e-03 0.0 
1.176552003256e-01 -1.983815724971e-01 0.0 
1.782382760672e-01 -1.503943492796e-01 0.0 
9.948177688505e-02 -2.739033579262e-01 0.0 
7.658345634989e-02 -8.574742486347e-03 0.0 
3.669204134850e-02 -2.007551359455e-02 0.0 
1.466409768515e-01 -2.616913044523e-02 0.0 
3.186940470194e-02 -4.730098039882e-02 0.0 
7.999604423066e-02 -7.745866577760e-03 0.0 
4.912488867406e-02 5.568108436815e-03 0.0 
1.620115931665e-01 -3.785225715139e-01 0.0 
2.981367689284e-02 -2.119151817791e-01 0.0 
-1.634916044417e-03 -1.697149699569e-01 0.0 
1.660167924871e-01 -2.842675572148e-02 0.0 
5.761311718824e-02 -3.988302827249e-03 0.0 
1.508488595466e-01 -2.708264034817e-02 0.0 
1.087333308463e-01 -1.530149828828e-01 0.0 
1.248879447194e-01 -1.457974337936e-01 0.0 
1.520811560252e-01 -3.517446287514e-01 0.0 
1.202783130098e-01 -1.111173897279e-01 0.0 
2.564112325552e-01 -1.822178187507e-01 0.0 
7.231629173114e-03 -1.267610251446e-03 0.0 
9.863733294813e-03 -1.967030655604e-03 0.0 
1.245851393505e-01 -3.082016143887e-02 0.0 
1.264232296496e-01 -2.222370373268e-01 0.0 
1.741863914307e-01 -2.065064547558e-01 0.0 
9.498264770889e-02 -1.865852046055e-02 0.0 
1.410026901926e-01 -2.261446537443e-01 0.0 
1.276879683458e-02 -1.972877071303e-01 0.0 
1.087608915056e-01 -2.136422334784e-02 0.0 
5.957520067582e-03 -9.449545208970e-04 0.0 
1.295204259864e-01 -1.622708178201e-01 0.0 
3.812717365330e-02 -4.347396466853e-02 0.0 
2.274787408083e-01 -1.965308572264e-01 0.0 
-3.402370414935e-03 2.300148381077e-03 0.0 
1.538593708286e-01 -2.054408818301e-01 0.0 
1.120005831203e-01 -2.520099385272e-02 0.0 
1.204363811982e-01 -3.300994692312e-01 0.0 
-1.663461466057e-02 -2.638147275412e-02 0.0 
1.187010519128e-01 -1.309743575824e-01 0.0 
-1.726345298854e-02 -1.418413890123e-01 0.0 
9.169600275067e-02 -1.341052648138e-02 0.0 
9.968769929089e-03 -2.377877434243e-03 0.0 
1.133839797858e-01 -1.757868881439e-01 0.0 
2.311301966291e-02 -4.179631795206e-02 0.0 
2.142847976798e-01 -2.329134632417e-01 0.0 
3.204832035614e-02 2.194413700512e-03 0.0 
-4.330822842686e-02 -1.398672881222e-02 0.0 
1.798440132481e-01 -1.676536113118e-01 0.0 
3.204327522421e-02 2.947607568099e-03 0.0 
9.470822678561e-04 2.425187023414e-03 0.0 
-3.877406260687e-02 -2.386259190221e-03 0.0 
1.089784273675e-02 -2.862898859308e-03 0.0 
3.967156895820e-02 3.143643062910e-03 0.0 
7.150417038683e-02 -1.340166380800e-02 0.0 
2.213532369329e-01 -1.803170424363e-01 0.0 
9.607398962314e-02 -1.215524779619e-02 0.0 
9.160943207921e-02 -1.488676430984e-02 0.0 
8.754990964948e-02 -1.397008788367e-02 0.0 
1.348333071821e-01 -3.001488170002e-02 0.0 
-1.325502304509e-03 2.196549297515e-03 0.0 
5.130030915868e-02 3.276177935097e-03 0.0 
7.253948142104e-02 8.168689465752e-04 0.0 
1.167796094676e-01 -1.586348018612e-01 0.0 
-1.279968424204e-03 -1.159725679158e-02 0.0 
9.124899735397e-02 -7.556615329758e-03 0.0 
1.656780257407e-01 -1.540170056094e-01 0.0 
9.196560300323e-03 4.395105972283e-03 0.0 
-2.738072660230e-02 -1.169139738349e-01 0.0 
1.204083094509e-01 -1.793307924886e-01 0.0 
4.831829912435e-02 -4.028331766161e-03 0.0 
1.685035827425e-01 -1.410047291958e-01 0.0 
9.601902489762e-02 -1.398021203398e-02 0.0 
1.290571216669e-02 -3.182510717189e-02 0.0 
-6.055271466719e-02 -3.732604570873e-02 0.0 
-7.228179785742e-04 2.421905730418e-03 0.0 
1.138327674002e-01 -1.339924607078e-02 0.0 
6.104373307175e-02 -2.468529024054e-01 0.0 
-4.296715167088e-02 -3.424512260792e-02 0.0 
1.986048248432e-01 -4.071476698438e-02 0.0 
1.837701217143e-01 -1.393455695766e-01 0.0 
5.286082385901e-02 -8.185229143563e-03 0.0 
1.072100057139e-01 -2.449863163992e-02 0.0 
1.394405070201e-01 -2.239896890584e-02 0.0 
1.008603952684e-01 -1.226253995767e-02 0.0 
-2.846143027957e-03 1.727078948809e-03 0.0 
-7.198268341821e-03 4.225078357803e-03 0.0 
4.958074153940e-02 -7.086407445651e-03 0.0 
4.994386766157e-02 -3.112916368331e-03 0.0 
-6.098357701368e-02 -4.331628846164e-02 0.0 
1.513523403438e-01 -2.707094556471e-02 0.0 
1.142581427727e-01 -2.390158755693e-01 0.0 
1.064009961690e-01 -2.133762409724e-01 0.0 
1.160940244512e-01 -2.730396638060e-02 0.0 
-1.379053440092e-02 -3.222623684487e-02 0.0 
-3.462795874717e-02 -3.197526242579e-03 0.0 
4.060711708640e-02 -4.543644919180e-03 0.0 
4.511941412717e-02 -2.374223262319e-01 0.0 
1.424026688613e-01 -3.384589267561e-02 0.0 
9.992245392092e-02 -1.811557587445e-02 0.0 
1.493784814780e-01 -3.277141165017e-02 0.0 
1.050100507090e-02 -2.366332874397e-03 0.0 
8.760949087375e-03 -1.628472219735e-03 0.0 
2.260370244538e-02 -3.914299528282e-03 0.0 
-6.142847380438e-02 -3.671379112241e-02 0.0 
3.254459903113e-02 -1.858944907275e-03 0.0 
1.991402804452e-01 -1.630919123842e-01 0.0 
1.016633305883e-01 -1.880680876487e-01 0.0 
1.164209468339e-01 -3.077122418512e-01 0.0 
1.390675228001e-01 -2.532678466726e-02 0.0 
4.443453603960e-02 7.088426189838e-03 0.0 
3.702291617299e-02 3.147361536940e-03 0.0 
-9.584723573019e-03 5.867553239680e-03 0.0 
5.981047578189e-02 -1.089295803001e-02 0.0 
7.286841239443e-02 -4.600464623222e-03 0.0 
8.712031874936e-02 -1.517303685694e-02 0.0 
9.871227422506e-02 -2.936313892478e-01 0.0 
5.118332135457e-02 -4.930932365122e-02 0.0 
1.218425221549e-01 -1.221415046366e-01 0.0 
1.358306404008e-01 -3.572918848569e-02 0.0 
1.184960973102e-01 -1.194748803148e-01 0.0 
3.090458635581e-01 -2.303567725294e-01 0.0 
8.453529668559e-03 2.894708361366e-03 0.0 
4.858433024516e-03 -1.494916706877e-02 0.0 
1.610206862957e-01 -1.572985413569e-01 0.0 
-1.846373577252e-03 1.177707200776e-03 0.0 
1.184299467034e-02 -2.635680180317e-02 0.0 
6.813554140156e-02 3.425580513307e-03 0.0 
1.636597005046e-03 2.181950357157e-02 0.0 
1.306188679246e-01 -2.889856358919e-02 0.0 
1.236888214948e-01 -1.223753439632e-01 0.0 
8.008575472551e-02 -1.076252585991e-02 0.0 
7.377762142040e-03 -6.101483705492e-04 0.0 
9.125530156908e-02 -9.811837268694e-03 0.0 
9.873711249260e-02 -2.112558480016e-02 0.0 
-3.773457934028e-02 -6.577337054958e-03 0.0 
4.038462768633e-02 -3.326993005139e-03 0.0 
-6.037790052387e-02 -3.108748227751e-02 0.0 
3.682236934145e-03 9.644082617474e-04 0.0 
5.519301261784e-03 -1.326935799421e-03 0.0 
3.352709571432e-03 -5.667716123384e-04 0.0 
4.882029485692e-03 -9.276335806280e-04 0.0 
7.954528578822e-02 -1.188964589991e-02 0.0 
4.322810198474e-02 -3.996820434548e-03 0.0 
4.936429015520e-02 -8.482122281623e-03 0.0 
1.480637652570e-01 -2.701466345974e-02 0.0 
1.472796311661e-01 -2.724121202367e-02 0.0 
-2.860357131707e-02 2.003689115657e-03 0.0 
4.347330672101e-02 -5.289385044405e-03 0.0 
-4.936725513163e-04 2.999097351667e-03 0.0 
3.280107642951e-02 -2.808701465218e-03 0.0 
2.606624914155e-02 -4.082463266913e-02 0.0 
3.529991191599e-02 -3.308272267407e-03 0.0 
9.806138617535e-02 -3.631461514688e-02 0.0 
1.398301479430e-01 -3.876170885894e-02 0.0 
1.346474609189e-01 -2.338615207965e-02 0.0 
1.856779182427e-01 -2.326937810585e-01 0.0 
8.689531803138e-03 -1.215868548151e-03 0.0 
1.541004498514e-01 -4.021414204297e-02 0.0 
4.101813415104e-03 1.560408315908e-03 0.0 
-3.158782995694e-02 -9.938529039982e-04 0.0 
-2.599145712005e-02 -9.101319329379e-02 0.0 
-7.386940906552e-03 4.861313283980e-03 0.0 
1.582571184183e-01 -1.334034003624e-01 0.0 
5.378541474970e-03 -1.535963059887e-03 0.0 
1.576723909781e-02 -2.762173795180e-03 0.0 
1.064982653039e-01 -2.620634616009e-02 0.0 
7.044245163647e-02 -5.204898567809e-02 0.0 
2.787533687920e-03 2.317660038070e-04 0.0 
-7.050597059006e-03 3.304537102696e-03 0.0 
-2.155147305586e-02 -1.133200560080e-01 0.0 
1.070583119475e-02 -2.708406770011e-02 0.0 
-9.636724511088e-04 2.223910608095e-03 0.0 
8.024158343032e-02 -4.931045233071e-02 0.0 
1.453680104296e-01 -3.847386422594e-02 0.0 
9.802031498340e-02 -2.265099521413e-02 0.0 
1.153435998040e-01 -2.902870027756e-02 0.0 
1.032937718542e-01 -2.211102531574e-02 0.0 
1.874705804152e-01 -1.761312426566e-01 0.0 
5.237902163140e-05 1.692544765474e-03 0.0 
9.541854324894e-02 -1.606871470639e-01 0.0 
1.365233555102e-01 -3.717896292549e-01 0.0 
-9.120495302379e-03 -3.886035758097e-03 0.0 
6.791355805747e-02 -4.246744181329e-02 0.0 
1.112267340990e-01 -1.557051325707e-02 0.0 
4.113475087296e-02 -1.879461505800e-01 0.0 
8.546860820066e-02 -4.242651060212e-03 0.0 
-3.518156705150e-03 1.720711874005e-03 0.0 
-7.794507315612e-04 8.899967113226e-04 0.0 
8.392902958009e-02 -1.171007894843e-02 0.0 
6.109875611134e-02 -1.638289020174e-01 0.0 
1.463755178410e-01 -3.881820409058e-01 0.0 
4.035648222129e-02 -1.536560426872e-01 0.0 
-2.895243622759e-02 -1.191494094705e-02 0.0 
4.677779958087e-02 7.948567416566e-03 0.0 
6.651445591473e-02 2.276498502467e-03 0.0 
-3.508506278820e-04 1.271959762258e-03 0.0 
4.235503317055e-02 7.467846966642e-03 0.0 
6.213352178303e-03 -1.041406997079e-03 0.0 
8.081782023202e-02 -2.756773313282e-02 0.0 
3.434315719089e-02 3.886399642533e-03 0.0 
1.833543351035e-01 -4.964738469559e-02 0.0 
1.510998313058e-02 -3.057893075060e-02 0.0 
1.624480252716e-01 -3.034486124623e-01 0.0 
-5.917051004165e-04 1.073964639935e-03 0.0 
4.981703809121e-03 -1.039397074976e-03 0.0 
3.878919601683e-03 -7.008386391072e-04 0.0 
-5.856277564519e-02 -2.725146017746e-02 0.0 
-2.270718280346e-02 6.758552600407e-03 0.0 
1.351652646661e-01 -6.015091545316e-02 0.0 
-5.673178588018e-02 -2.347585688330e-02 0.0 
-1.222542188244e-03 9.945864348790e-04 0.0 
1.499259700418e-01 -1.819698618083e-01 0.0 
-3.853303073240e-03 -1.636112328718e-01 0.0 
-3.155885388842e-02 -1.178761637823e-01 0.0 
2.968544012649e-02 2.801057454386e-03 0.0 
-2.763765424375e-03 1.784767410454e-03 0.0 
6.500965330619e-02 -1.274573448059e-01 0.0 
-1.894555865437e-03 9.882193600758e-04 0.0 
-3.797457103085e-02 -9.904835623944e-02 0.0 
4.590228454119e-03 -8.419143743561e-04 0.0 
5.284434251205e-02 -9.732100806217e-03 0.0 
9.957589030502e-02 -6.143632000002e-02 0.0 
1.318395531246e-01 -8.354986912231e-02 0.0 
2.815133581270e-02 -2.044400643694e-03 0.0 
8.947032462247e-04 7.326422579404e-04 0.0 
8.295896974269e-02 -1.404014796170e-02 0.0 
4.983034327243e-02 -1.122163946680e-02 0.0 
2.319987734047e-01 -2.598328505474e-01 0.0 
-1.215526543849e-02 6.367754133298e-03 0.0 
-4.484819682683e-02 -7.493534387265e-02 0.0 
-4.034485845201e-02 -1.009639236565e-01 0.0 
1.048829932729e-01 -1.770921661982e-01 0.0 
-5.460515729477e-04 1.306552586193e-03 0.0 
1.304241979138e-01 -2.679514000058e-01 0.0 
-3.329220414534e-02 2.848389140587e-03 0.0 
3.401014269449e-02 4.732985503220e-03 0.0 
-2.639021222125e-02 -3.784566970647e-02 0.0 
-1.907129285349e-02 -1.408880115426e-01 0.0 
9.066807631056e-02 -1.752233003439e-02 0.0 
-3.719673506923e-04 1.149945968161e-03 0.0 
-2.282441747494e-02 6.958371155308e-03 0.0 
-5.728746362358e-02 -2.118966743237e-02 0.0 
1.271252277576e-01 -3.506832117881e-02 0.0 
-3.700048210351e-02 -3.900367693074e-02 0.0 
-2.996915860806e-03 -1.572731036106e-01 0.0 
-6.040400510014e-02 -2.929931938969e-02 0.0 
1.282646799973e-01 -3.247511017485e-02 0.0 
1.002088422925e-01 -3.751003759395e-02 0.0 
5.124930722877e-03 -1.946848131963e-02 0.0 
1.339724853689e-01 -3.975832011448e-02 0.0 
-4.066375219522e-02 -1.234230145967e-02 0.0 
1.559147100458e-01 -1.386294051831e-01 0.0 
-2.547909727235e-02 4.186619880877e-03 0.0 
7.112850293266e-02 -2.214250718995e-02 0.0 
2.621844088667e-02 -5.012551738954e-02 0.0 
-3.740929442690e-03 2.165926560851e-03 0.0 
2.790106197288e-02 -2.775243504332e-03 0.0 
-2.001203560257e-02 -3.400987337164e-02 0.0 
-1.623600839713e-03 7.324925139295e-04 0.0 
-9.180775723443e-03 4.700725724769e-03 0.0 
1.154492339682e-01 -1.158106437604e-01 0.0 
8.655255071448e-02 -1.310785642774e-01 0.0 
-2.384620276162e-03 6.116824990546e-04 0.0 
3.495166532278e-02 -4.262487883311e-03 0.0 
-3.410575857181e-02 -7.896926451896e-02 0.0 
-1.555996837682e-03 1.122441180302e-03 0.0 
-5.658492139629e-02 -2.236832027688e-02 0.0 
1.362938461482e-01 -2.612373958032e-02 0.0 
6.812256409258e-02 -4.038993048550e-05 0.0 
4.272688128192e-02 -6.574246376378e-02 0.0 
-5.866546849689e-02 -3.213314861321e-02 0.0 
-2.371164323227e-02 -2.883990544851e-02 0.0 
5.502634425663e-02 -1.671517107116e-03 0.0 
1.149922402204e-01 -2.053325540535e-02 0.0 
6.953332147465e-03 -1.602406758330e-02 0.0 
7.912259572062e-03 2.204492199703e-03 0.0 
-3.762892031460e-02 -8.127960221448e-03 0.0 
4.381739676391e-03 -2.042685469003e-02 0.0 
-4.282540192672e-02 -6.414401403059e-02 0.0 
-3.383536535940e-02 -5.902620583150e-03 0.0 
1.211783349452e-01 -8.566943137651e-02 0.0 
1.471581548815e-01 -1.359285723020e-01 0.0 
-4.025961893617e-02 -8.341050963766e-02 0.0 
-3.424436540377e-02 -2.308930153189e-03 0.0 
1.181509966947e-01 -9.892241412210e-02 0.0 
-5.844201573757e-02 -2.435576068321e-02 0.0 
2.947478334698e-02 3.485154939928e-03 0.0 
-3.261768675306e-02 -6.666363178740e-02 0.0 
-1.207768586693e-03 6.623262301520e-04 0.0 
1.018652339351e-01 -2.534415024988e-02 0.0 
-3.027817979131e-02 7.845873949728e-04 0.0 
1.105384180632e-01 -2.863344226984e-02 0.0 
-3.109456696177e-02 4.055078486011e-04 0.0 
1.022054811838e-01 -6.858932822758e-02 0.0 
6.522366527754e-02 -5.065732437996e-04 0.0 
-7.558233782389e-03 1.589781945168e-02 0.0 
2.281037941970e-02 5.807176910061e-03 0.0 
-2.493820021981e-02 4.969954493989e-03 0.0 
-5.361643412069e-02 -1.771527272317e-02 0.0 
7.719096180829e-03 -8.367665922890e-04 0.0 
-2.697699923223e-02 -4.323828605487e-02 0.0 
-2.927030453219e-02 -3.697724030665e-02 0.0 
6.580168827298e-02 5.606532364264e-03 0.0 
4.299212725467e-02 8.598157221501e-03 0.0 
1.062939068531e-02 -1.550843236090e-03 0.0 
1.194743382229e-01 -3.095354025758e-02 0.0 
2.075158987837e-02 7.438858101751e-03 0.0 
1.233902931821e-02 -6.500312720624e-03 0.0 
7.824344625768e-02 -7.880041770400e-02 0.0 
-1.889260730646e-02 -1.473474621875e-02 0.0 
7.222028952319e-02 -2.455316243063e-02 0.0 
8.821304686135e-03 -8.210687871461e-04 0.0 
-3.252171403102e-02 -1.251765974474e-02 0.0 
-2.016231816080e-02 -7.554909289618e-07 0.0 
-3.083853893250e-02 -4.034841340646e-03 0.0 
-3.045018935257e-02 3.970680589401e-03 0.0 
1.044168889187e-01 -3.297572413927e-01 0.0 
-5.326223394926e-03 1.649627675223e-02 0.0 
-2.921331496619e-03 1.956084125252e-02 0.0 
-2.649632581584e-03 -7.208305421561e-04 0.0 
-1.176851689469e-03 -5.064373109742e-05 0.0 
-6.048833208764e-03 1.421503157099e-02 0.0 
-2.712905242259e-02 2.966284720239e-03 0.0 
-5.772610275541e-02 -2.768487192683e-02 0.0 
-2.124896776336e-02 9.901473691021e-03 0.0 
6.229378935988e-03 -3.462925783036e-03 0.0 
-3.871864851814e-02 -4.460289526854e-03 0.0 
1.130063236378e-02 1.467602082846e-02 0.0 
-2.548666229207e-02 4.897203098988e-03 0.0 
-3.664796588281e-02 -4.351306748645e-03 0.0 
9.959855171156e-03 1.655155370680e-02 0.0 
-4.645194375094e-03 1.554665822781e-02 0.0 
2.575520150704e-02 -2.413070514615e-03 0.0 
1.651142827533e-02 1.214104119678e-02 0.0 
4.726574260000e-02 9.060541249940e-03 0.0 
5.033050460472e-02 1.068871279048e-02 0.0 
-1.278148954752e-02 -1.922132295913e-02 0.0 
-1.424033667690e-03 1.991102609706e-02 0.0 
-3.674875221731e-02 -6.031354706404e-02 0.0 
2.121560503557e-01 -1.659359629440e-01 0.0 
-1.953393269718e-02 -8.084035024254e-03 0.0 
6.886486477524e-05 4.109865136517e-03 0.0 
1.617052452959e-02 -4.271688003847e-04 0.0 
1.758458530549e-01 -9.718342668716e-02 0.0 
2.791022815817e-02 -1.440263178012e-02 0.0 
1.056484232591e-01 -1.483784175148e-02 0.0 
3.056716352468e-02 7.282811985688e-03 0.0 
2.880865846306e-02 7.538514223834e-03 0.0 
1.715214046505e-02 1.075746513140e-02 0.0 
1.312104802542e-02 1.386088170818e-02 0.0 
4.185779002815e-03 2.037617621250e-02 0.0 
-7.570888951990e-03 3.087579268989e-03 0.0 
8.986204533522e-03 1.725355585784e-02 0.0 
-5.123731020598e-03 1.310445682877e-02 0.0 
1.558557782241e-01 -2.865582815653e-01 0.0 
-1.554416113929e-02 2.408841065889e-03 0.0 
6.897627359439e-03 9.946644713954e-04 0.0 
4.109563562561e-02 8.939475751279e-03 0.0 
6.339205612997e-02 -1.936096152752e-02 0.0 
-5.338599072343e-02 -1.957014334082e-02 0.0 
6.306698553586e-03 1.888049732724e-03 0.0 
-8.482395929272e-04 1.911699666209e-02 0.0 
5.894435617381e-03 1.929431487113e-02 0.0 
1.265244131522e-03 -2.380353239800e-04 0.0 
2.890685950410e-03 -5.190442689541e-04 0.0 
3.149960394830e-02 4.478290914329e-03 0.0 
3.463767053367e-02 7.802958468465e-03 0.0 
-4.284738589713e-03 1.847535861372e-02 0.0 
1.876778008814e-03 -4.276658463929e-04 0.0 
-1.254857722550e-02 7.885402014159e-04 0.0 
4.555957314284e-02 9.330710278070e-03 0.0 
3.873998714362e-02 8.238073524018e-03 0.0 
9.712052637378e-02 -8.165199815546e-03 0.0 
2.860642606872e-03 -4.746353847407e-04 0.0 
2.275375543703e-03 -4.549816590475e-04 0.0 
1.217925220070e-02 1.491852527788e-02 0.0 
1.352622414170e-02 1.406012050704e-02 0.0 
1.808854112807e-02 -4.555366719363e-03 0.0 
-3.984894616377e-02 -7.324454084431e-03 0.0 
-2.475438740001e-03 -1.676715304843e-03 0.0 
1.845325337934e-01 -3.299023583761e-01 0.0 
2.104740579576e-03 -5.569078661686e-04 0.0 
1.341037976606e-01 -1.754702653745e-01 0.0 
-2.561910010624e-02 -2.340966880648e-02 0.0 
1.419028304940e-01 -1.337813533217e-01 0.0 
1.607462100412e-01 -2.335006067092e-01 0.0 
-3.861922072089e-02 -3.294235372814e-02 0.0 
-9.490151191551e-03 -2.870469343721e-03 0.0 
5.824366535333e-03 1.283787124094e-03 0.0 
1.095589897288e-01 -1.969650363699e-02 0.0 
6.963056959361e-03 1.860371260967e-02 0.0 
-2.547567585139e-02 -2.245970102598e-03 0.0 
4.510600231698e-04 -2.302284986159e-04 0.0 
8.875962725313e-04 -3.990686276244e-04 0.0 
3.685811732717e-02 8.540854164418e-03 0.0 
-1.506015588548e-02 -1.441932971215e-02 0.0 
1.010131412181e-03 -2.169463350675e-04 0.0 
4.176933783997e-02 -9.339894926437e-03 0.0 
3.408541557489e-03 2.069418901745e-02 0.0 
5.973226979623e-03 1.900705395809e-02 0.0 
4.127368192317e-03 2.001566902450e-02 0.0 
-1.079166370101e-03 1.705409040355e-02 0.0 
-1.938818300568e-03 -8.966775246678e-04 0.0 
2.441136675779e-04 -8.232490190894e-04 0.0 
6.807721598565e-03 1.820315978082e-02 0.0 
-2.640925816826e-03 1.326865631357e-02 0.0 
-6.652430519045e-04 -3.441157041088e-04 0.0 
-2.675825393528e-03 -1.126711745852e-03 0.0 
-3.286457767317e-03 -1.675025664984e-03 0.0 
1.200031763159e-03 4.060879348134e-05 0.0 
4.601261935907e-04 -7.487034065609e-04 0.0 
-1.273575248663e-03 -5.525618205591e-04 0.0 
-1.402250144864e-03 -5.741499252934e-04 0.0 
1.031251537417e-03 -5.504858573625e-04 0.0 
5.487549126782e-03 1.846351074403e-02 0.0 
2.152153019175e-02 6.665056869591e-03 0.0 
3.282260127675e-02 8.062219300601e-03 0.0 
1.012256651501e-02 1.642554864071e-02 0.0 
-1.870583367898e-03 -8.233681479384e-04 0.0 
-4.113388208036e-03 -2.214967039381e-03 0.0 
-2.299711332833e-03 -1.210128185456e-03 0.0 
8.933913559795e-03 1.697181121527e-02 0.0 
1.244318909365e-02 1.486514171883e-02 0.0 
-1.472780892114e-03 -6.701868110587e-04 0.0 
-1.813676875203e-03 -1.004838853925e-03 0.0 
6.289064193326e-04 4.297478911437e-04 0.0 
1.118162828133e-02 5.688456626157e-03 0.0 
5.711253438267e-04 -2.850271841645e-04 0.0 
7.937689754227e-04 2.410616980501e-03 0.0 
4.770283811704e-03 5.360806546409e-03 0.0 
2.931050338204e-02 2.296668313975e-03 0.0 
4.883661731137e-02 -1.396550399486e-02 0.0 
5.821140373166e-02 -2.511081327977e-02 0.0 
7.100723404112e-02 -4.135059307178e-02 0.0 
-1.382753668802e-03 1.201085509758e-02 0.0 
-1.258172148024e-03 1.464559150328e-02 0.0 
5.105533553617e-02 -1.825766276664e-02 0.0 
-1.515130354855e-03 4.398551967742e-03 0.0 
5.754685019716e-02 -2.995651873673e-02 0.0 
2.238912203017e-03 -3.433314167838e-04 0.0 
8.666465966338e-04 -2.107195113253e-04 0.0 
1.625441818887e-03 -2.810089449741e-04 0.0 
3.145048004554e-04 2.240395384754e-02 0.0 
-5.757940747627e-04 2.073886748449e-02 0.0 
8.223560268798e-04 -2.490260250758e-04 0.0 
-1.046271832346e-03 -8.616712561580e-04 0.0 
4.365362493615e-04 -1.688401290085e-04 0.0 
-7.671790430642e-04 -1.502670067360e-03 0.0 
-4.695834325242e-04 -1.436662303820e-03 0.0 
-2.337338518125e-03 1.581301867530e-02 0.0 
1.689002623514e-03 -4.597455364012e-04 0.0 
1.258892276241e-03 -4.178661540843e-04 0.0 
-1.813450875410e-03 -1.283803298501e-03 0.0 
-1.236762475588e-03 -1.593812936107e-03 0.0 
-1.531752414647e-02 -2.187936468735e-04 0.0 
1.191647104857e-01 -1.046645273305e-01 0.0 
-2.007384042248e-02 8.945282432474e-03 0.0 
1.510873215613e-02 1.161890087196e-02 0.0 
-1.891285150745e-02 -7.365993611608e-03 0.0 
-2.849390166531e-02 2.514453778866e-03 0.0 
-1.702112000788e-02 -3.851239900590e-03 0.0 
-3.584390138764e-03 1.254406579503e-03 0.0 
1.559245335568e-02 1.038164631862e-02 0.0 
-1.184438909411e-02 -3.221009987820e-03 0.0 
-2.193366629333e-02 6.856361782988e-03 0.0 
-3.866607130885e-03 1.776964790688e-02 0.0 
-1.511058228107e-02 -3.036231349994e-03 0.0 
2.823572481292e-03 -9.701066580311e-04 0.0 
-1.927405963029e-03 1.806110111071e-02 0.0 
-5.021326119217e-02 -1.390035076023e-02 0.0 
-4.280715390261e-02 -1.212572988185e-02 0.0 
-1.795629064597e-02 -1.175078619938e-03 0.0 
-1.313404193546e-02 -5.442118572456e-04 0.0 
9.174417267272e-02 -1.785881655471e-01 0.0 
1.162150496174e-01 -1.866588285760e-02 0.0 
1.225177992067e-01 -9.713494536958e-02 0.0 
-2.832408815925e-02 -3.788392359450e-03 0.0 
-1.087044818467e-02 -2.292368009985e-03 0.0 
-8.680719138574e-03 -3.063140064423e-04 0.0 
-1.057386905031e-02 -2.181909095415e-02 0.0 
5.347047045479e-03 -9.623639947916e-04 0.0 
6.948332345099e-03 -6.770236437376e-04 0.0 
1.407252144013e-02 3.921586924756e-03 0.0 
-3.102560320778e-02 -6.699437607605e-03 0.0 
-2.301104785804e-02 -2.234979016304e-03 0.0 
3.650445444308e-03 -9.675537872077e-04 0.0 
4.712950237882e-03 -8.826105555946e-04 0.0 
-4.557258667766e-02 -1.339488418874e-02 0.0 
-8.158876129816e-03 -2.478680850425e-03 0.0 
1.464467152028e-02 -4.625165603044e-04 0.0 
-6.198440229726e-03 8.563768127772e-05 0.0 
-1.431779414898e-02 -5.333238871922e-03 0.0 
6.232737935804e-03 -9.607416034691e-04 0.0 
1.259941724000e-02 5.009260901817e-04 0.0 
-5.157205556183e-02 -1.808318903795e-02 0.0 
-2.237472650380e-03 1.794771321041e-02 0.0 
-7.350340537341e-03 -3.466733713628e-02 0.0 
2.571759067286e-02 -8.437085994963e-03 0.0 
9.303523509390e-02 -1.003398374625e-01 0.0 
5.698150784238e-03 -8.701248985265e-04 0.0 
-8.737224879234e-03 -2.245612411203e-03 0.0 
8.540006788805e-02 -6.604500442307e-02 0.0 
4.311754668373e-02 -6.460770879983e-03 0.0 
1.638350101327e-02 3.474206687668e-03 0.0 
-1.978235933302e-02 -4.149325923666e-03 0.0 
-1.112583452580e-02 -1.678164666018e-03 0.0 
-3.788130018027e-02 -4.463029179023e-02 0.0 
-9.047574867569e-03 -1.148274758247e-03 0.0 
1.590311184934e-02 4.091016987699e-03 0.0 
2.067827664762e-03 -1.703339725698e-02 0.0 
-1.090689903546e-02 -4.136986305260e-03 0.0 
-8.929178257525e-04 2.106857576034e-02 0.0 
-1.601771318019e-02 -7.071292916707e-03 0.0 
9.638505594618e-03 -3.301969019418e-05 0.0 
-3.036721023316e-03 1.948518127056e-02 0.0 
-1.762406928365e-02 -2.556423074995e-02 0.0 
-1.243093823375e-02 7.828369953759e-03 0.0 
1.749151045945e-02 1.809244893128e-03 0.0 
-2.126521053394e-02 5.714241290414e-03 0.0 
7.063342191657e-03 -4.436118773478e-04 0.0 
1.098111553675e-02 8.339305981962e-04 0.0 
-2.596889993836e-02 2.951024923063e-03 0.0 
-1.057781216861e-02 1.440771192332e-04 0.0 
-1.331520856366e-02 -1.524492890692e-03 0.0 
8.291430235726e-03 -9.538921399430e-05 0.0 
2.113118272371e-03 1.469177379637e-02 0.0 
-2.101513879656e-02 6.589764000462e-03 0.0 
1.885415039319e-03 2.330499485084e-03 0.0 
1.088358333967e-02 -2.972579209092e-04 0.0 
-1.973155131314e-02 8.770521665152e-03 0.0 
-3.980471616330e-02 -9.987484787592e-03 0.0 
-2.014676244537e-02 -9.141166007739e-03 0.0 
1.105701687137e-02 4.110312572491e-04 0.0 
1.285231352866e-01 -3.705891479997e-01 0.0 
1.883534890850e-02 4.808943948228e-03 0.0 
8.521701835591e-02 -2.962976200118e-01 0.0 
-1.264633733781e-02 -2.875977093305e-03 0.0 
1.414958282455e-02 1.044358474199e-03 0.0 
-9.158133484473e-03 6.217992753224e-03 0.0 
1.876483943515e-02 3.078261501456e-03 0.0 
-3.159449568773e-02 -4.963694855408e-04 0.0 
-2.144258422641e-02 4.364175091885e-03 0.0 
-1.552406716579e-02 -2.298950491347e-03 0.0 
-1.734277036536e-03 1.920024592278e-02 0.0 
-1.508703318572e-02 -5.954496616301e-03 0.0 
-2.285952023880e-02 4.688096914287e-03 0.0 
-2.272486647087e-03 2.043004637090e-02 0.0 
-1.808250876322e-02 8.003544288636e-03 0.0 
-1.964524891182e-02 8.803850532122e-03 0.0 
-1.364500769915e-02 5.978396256199e-03 0.0 
-1.207831992809e-02 5.413967712552e-03 0.0 
3.140041932760e-02 6.859232837256e-04 0.0 
3.976384869223e-02 -7.659834436889e-03 0.0 
-2.030820094153e-02 -9.994583099691e-04 0.0 
-2.942219129833e-04 1.733786234184e-02 0.0 
-2.835694585649e-02 -5.094862437897e-03 0.0 
-3.398957193744e-02 -7.260746771662e-03 0.0 
-3.412934246059e-02 -5.815512726864e-03 0.0 
-2.630535814791e-02 -6.332254368492e-02 0.0 
1.247546567891e-02 -7.635746019048e-04 0.0 
2.297254203241e-01 -3.637669668566e-01 0.0 
-1.752061914603e-02 1.084305930194e-02 0.0 
-2.340463440326e-02 6.802802474493e-03 0.0 
2.036537682133e-03 1.788113282232e-02 0.0 
1.724912753941e-02 2.338895923655e-03 0.0 
1.827790765495e-02 3.668935803131e-03 0.0 
6.459487290944e-03 1.139293792935e-03 0.0 
-2.515241041332e-02 -1.103902200450e-02 0.0 
1.901122177101e-02 4.493479176933e-04 0.0 
-5.540920450679e-04 1.569271244106e-02 0.0 
1.281642450165e-02 -9.701220310662e-04 0.0 
1.155057488063e-02 -9.637889026742e-04 0.0 
-3.488717584625e-03 1.461573812004e-02 0.0 
1.748903106868e-01 -3.688211963699e-02 0.0 
-6.307008971281e-03 6.733397352596e-03 0.0 
-1.798166703710e-02 -2.274954430965e-03 0.0 
-1.679175366011e-02 5.152353698025e-03 0.0 
3.248793445077e-02 -3.696942660947e-03 0.0 
1.118917146866e-02 -7.783938004080e-04 0.0 
-2.300689200292e-02 -3.445966207996e-03 0.0 
-2.550437769351e-02 -4.763427372737e-03 0.0 
1.546494549976e-03 3.333001681250e-03 0.0 
-2.032942147753e-02 -3.310321312688e-03 0.0 
1.727700402373e-02 3.625784782846e-04 0.0 
-1.379184662800e-02 6.172906191441e-03 0.0 
1.584297289519e-02 1.168357707322e-03 0.0 
1.524308677072e-02 -1.163561652865e-04 0.0 
8.236483974003e-02 -1.019541880463e-01 0.0 
1.052370663953e-02 -5.773414059562e-04 0.0 
-1.617470805965e-02 9.857059577973e-03 0.0 
-1.838307233632e-02 5.720963162084e-03 0.0 
-1.435435721485e-02 1.272096192374e-02 0.0 
-3.456378134037e-02 -1.485124785871e-02 0.0 
1.581764007118e-02 7.058214317788e-04 0.0 
-5.467913762959e-02 -2.680831353553e-02 0.0 
-8.004485726173e-03 1.085390594859e-02 0.0 
1.683334798349e-02 1.307166969455e-04 0.0 
1.752805578417e-02 8.170001270331e-04 0.0 
-9.385543804650e-03 8.003913475334e-03 0.0 
-1.593759648048e-02 -7.393869130421e-03 0.0 
1.251881724610e-02 1.091236604619e-04 0.0 
-2.183284294825e-02 -5.218342841085e-03 0.0 
-7.494708946839e-03 4.294607696854e-03 0.0 
-1.690522311279e-02 1.035743917196e-02 0.0 
-4.305720820206e-03 1.241660954172e-02 0.0 
1.131394452858e-02 2.787990271655e-03 0.0 
-3.038603222135e-02 -7.704770214180e-03 0.0 
1.239225430473e-02 1.404540275228e-03 0.0 
2.082295780273e-02 1.209712990819e-03 0.0 
-1.883488073068e-02 8.432210285710e-03 0.0 
1.043349202547e-04 2.074564841266e-02 0.0 
1.934342288370e-02 1.970587901041e-03 0.0 
-1.720926230685e-02 1.090144595649e-02 0.0 
-3.684184752433e-02 -9.139197937530e-03 0.0 
-1.227891213502e-02 1.439644744198e-02 0.0 
8.083586851364e-03 -6.452877288226e-04 0.0 
-1.588016072105e-02 7.020432008045e-03 0.0 
-3.749604200151e-02 -1.248735108371e-02 0.0 
-4.953117187445e-03 -2.573871760559e-02 0.0 
-3.628952404695e-02 -1.015885717866e-02 0.0 
-1.391515124491e-02 8.545519570918e-03 0.0 
-2.709038795990e-02 -7.033567066583e-03 0.0 
1.531364097863e-02 -1.753463475818e-01 0.0 
2.721008570035e-05 1.982218367545e-02 0.0 
1.509063362858e-02 2.723360044286e-03 0.0 
-3.279650002355e-02 -2.548568046203e-02 0.0 
1.398051303190e-01 -2.889008647104e-02 0.0 
1.401832122392e-02 1.525073318298e-03 0.0 
-1.535905871912e-02 -3.919335310652e-02 0.0 
2.530789205679e-02 1.861404271739e-03 0.0 
1.854774066973e-03 1.911292144356e-02 0.0 
-2.352261290622e-02 -9.574502767558e-03 0.0 
-2.082073787250e-02 -1.614924286512e-02 0.0 
2.674152371084e-03 -1.520279283914e-02 0.0 
9.225447713043e-03 -1.055636237951e-03 0.0 
-5.534777946668e-02 -2.380998935841e-02 0.0 
2.146075900472e-03 1.254439122681e-02 0.0 
-4.867319374871e-02 -1.646360680322e-02 0.0 
-2.021004404042e-02 -9.361201494194e-03 0.0 
-3.444518027823e-02 -5.053549979788e-02 0.0 
-2.487739078335e-02 -5.696799394847e-03 0.0 
1.404365000665e-02 1.900197689359e-04 0.0 
-1.953002255239e-02 -8.705684870360e-02 0.0 
-4.248605054743e-02 -1.304170394961e-02 0.0 
2.691203406413e-02 3.943441018308e-03 0.0 
-5.059303614639e-03 1.851099140918e-02 0.0 
-1.985276835927e-02 4.864889553387e-03 0.0 
1.304337309105e-01 -3.856051016408e-02 0.0 
-3.279767747362e-02 -9.285738619363e-03 0.0 
1.402980718192e-01 -2.712465703379e-02 0.0 
1.321348811106e-01 -5.560795360775e-02 0.0 
2.115522438345e-02 1.046458333718e-03 0.0 
1.546932837451e-02 2.178723581948e-03 0.0 
2.724290754057e-02 3.291574706562e-03 0.0 
-1.686737831538e-02 7.458665272659e-03 0.0 
-3.108559148986e-02 -1.157573406923e-02 0.0 
-5.426378641778e-02 -2.087947019820e-02 0.0 
2.074012689369e-02 3.292477608713e-03 0.0 
4.106380617435e-02 -7.374685375486e-03 0.0 
5.094725653868e-03 -9.757573620823e-03 0.0 
-3.893128933074e-02 -1.192311809647e-02 0.0 
1.372014846663e-02 -1.777361793809e-04 0.0 
-3.319198822954e-02 -7.574653081325e-03 0.0 
-2.637973131738e-02 -9.876851012647e-04 0.0 
1.908636982885e-03 6.945758595456e-03 0.0 
-5.079512393412e-02 -1.831790159334e-02 0.0 
-2.484749318397e-02 3.513948817297e-03 0.0 
2.129825188443e-02 1.583568177765e-03 0.0 
2.530646173741e-02 2.480800180185e-03 0.0 
2.941214706686e-02 -7.410355272745e-02 0.0 
-2.252096712663e-02 -4.348121719890e-03 0.0 
9.743345609663e-02 -2.066066604686e-01 0.0 
-2.223577235887e-02 1.413257244723e-03 0.0 
-2.905823981457e-02 -5.071696411801e-03 0.0 
-1.958367725146e-03 8.512981577318e-03 0.0 
-3.858238536810e-02 -8.912677683699e-03 0.0 
-4.943290767973e-02 -2.788513761456e-02 0.0 
1.183543900594e-02 -5.387157729019e-04 0.0 
-5.498682951439e-02 -3.569020486219e-02 0.0 
-5.152605514457e-02 -1.851969184430e-02 0.0 
-5.389737034397e-02 -2.324473734373e-02 0.0 
1.128646471558e-01 -1.092406219260e-01 0.0 
-1.338137652548e-03 1.134620129318e-02 0.0 
-2.515942346706e-02 -1.053279789893e-02 0.0 
-1.911976035819e-02 -8.235533217235e-03 0.0 
1.057721082376e-01 -3.796121890647e-02 0.0 
-3.604726124256e-02 -1.224516151327e-02 0.0 
-5.371645289405e-02 -2.078019092394e-02 0.0 
1.940530103243e-02 1.440879410489e-03 0.0 
-3.119487269605e-02 -2.061216221793e-03 0.0 
1.394697779699e-01 -6.678863407843e-02 0.0 
-1.390473199224e-02 9.832971009865e-03 0.0 
-2.450233675409e-02 -5.348070253721e-02 0.0 
-4.001944735423e-02 -1.470036239704e-02 0.0 
-1.028852089185e-02 1.164092773128e-02 0.0 
-4.698707923714e-03 1.695615836230e-02 0.0 
-5.113213563235e-02 -1.930678381617e-02 0.0 
-4.532614535655e-02 -1.492756882185e-02 0.0 
6.237957592032e-02 -2.455623293915e-02 0.0 
3.769466963307e-02 -4.528195011895e-03 0.0 
-5.299284980296e-02 -7.001147073132e-02 0.0 
-5.681191677239e-02 -4.836350809433e-02 0.0 
-4.296233959537e-02 -1.993583750231e-02 0.0 
2.323880581381e-02 2.311323045255e-03 0.0 
-5.244622682875e-02 -2.567339657595e-02 0.0 
-1.544700982719e-02 1.039539755050e-02 0.0 
-4.659581207359e-02 -2.216937878274e-02 0.0 
9.545672056815e-03 -3.495064386327e-04 0.0 
-1.340247291634e-02 1.258655376417e-02 0.0 
1.411052545658e-02 7.378423637139e-03 0.0 
6.086416091176e-03 8.400526689926e-03 0.0 
-2.851109342016e-02 -4.704374337353e-02 0.0 
-2.992319833469e-02 -1.212716330973e-02 0.0 
-5.873797930009e-02 -5.636345563195e-02 0.0 
-5.249094620918e-02 -2.964090416583e-02 0.0 
-3.529201662981e-05 -3.996790807210e-02 0.0 
5.703624936164e-03 1.116593960542e-02 0.0 
3.686493988508e-02 4.039829225094e-03 0.0 
-8.791121127136e-03 1.385722637707e-02 0.0 
-4.426969165281e-02 -1.254383288749e-02 0.0 
6.811762554730e-02 -2.693153026982e-02 0.0 
6.939948165187e-02 -4.242449810564e-03 0.0 
2.006382080936e-02 -7.943188934778e-04 0.0 
5.754040397861e-02 -1.887971195620e-02 0.0 
6.620640166868e-02 -9.781062079204e-02 0.0 
9.317724415664e-02 -3.663016888644e-02 0.0 
-1.225087090450e-02 -5.663125067309e-02 0.0 
-4.389135523795e-02 -1.447772346515e-02 0.0 
1.192450345771e-01 -1.199228504376e-01 0.0 
2.330079227333e-03 -1.674143436847e-01 0.0 
6.635169233598e-03 -5.935067725470e-02 0.0 
-2.757900996780e-02 2.636547342818e-04 0.0 
-5.460258778252e-02 -4.097664888868e-02 0.0 
-5.922357685387e-02 -4.937861319737e-02 0.0 
-1.036279531666e-02 1.424042586932e-02 0.0 
-5.706891249379e-02 -3.182184223659e-02 0.0 
-5.622843374653e-02 -6.356206185760e-02 0.0 
-4.634362921557e-02 -7.159819271393e-02 0.0 
-2.727292982190e-02 -7.018120294774e-03 0.0 
-6.240074075011e-03 -1.290743870176e-02 0.0 
2.309720863221e-02 1.154817292761e-03 0.0 
-3.458459235343e-02 -8.447777879443e-02 0.0 
-3.155708461928e-02 -9.044783110889e-03 0.0 
-2.133199539900e-02 -7.167183182629e-02 0.0 
-1.731476509167e-02 4.698360521311e-03 0.0 
-5.935930334776e-02 -4.303777510290e-02 0.0 
4.831875567792e-02 -1.421527555292e-02 0.0 
9.355674248912e-02 -2.144291116908e-02 0.0 
-1.772847867173e-02 -4.946610860503e-02 0.0 
7.269192092667e-02 -7.798830453683e-03 0.0 
2.600618166106e-02 -1.760785925619e-03 0.0 
-6.007148411030e-02 -4.905526987392e-02 0.0 
1.331718053287e-01 -1.310748724952e-01 0.0 
7.534460268265e-02 -1.086981701883e-02 0.0 
1.334313381821e-01 -3.193816753133e-02 0.0 
-2.566402431182e-03 -5.165906611039e-02 0.0 
9.674742599334e-03 -1.226265905440e-03 0.0 
9.980949180421e-03 -3.509352230657e-02 0.0 
-1.018684033742e-02 3.000073303943e-03 0.0 
8.185669034384e-03 -9.590396175321e-04 0.0 
-1.245004720456e-02 -8.937414418213e-03 0.0 
2.107632742220e-02 2.714455038823e-03 0.0 
2.123358541477e-02 -3.832782522234e-04 0.0 
-5.158198030293e-02 -6.777589657530e-02 0.0 
1.540290594298e-02 -4.723827413816e-02 0.0 
1.533003574181e-02 -1.268349357488e-03 0.0 
-3.984407211105e-02 -1.395013068418e-02 0.0 
2.471251305489e-02 6.635877277258e-04 0.0 
-3.444797454827e-02 -1.962216645678e-02 0.0 
-1.405136623795e-02 -6.899513274663e-02 0.0 
2.610459023556e-02 9.188275193385e-05 0.0 
-1.066094295562e-03 3.558423064835e-03 0.0 
-1.835553019691e-02 -6.389640760345e-03 0.0 
-4.688052287519e-02 -1.906932568294e-02 0.0 
2.307875950031e-02 2.912501415761e-03 0.0 
2.481554194746e-02 3.733844862438e-03 0.0 
-5.733188499816e-02 -3.673622597338e-02 0.0 
-4.673553143110e-02 -1.660601029959e-02 0.0 
-4.662022724487e-02 -1.636107677867e-02 0.0 
1.057873089590e-02 6.436466254439e-03 0.0 
1.032798145029e-01 -2.332464425339e-01 0.0 
-1.927536431341e-02 -7.891186342433e-02 0.0 
-4.273333374095e-02 -8.017904388171e-02 0.0 
1.293281528655e-01 -7.296802857319e-02 0.0 
1.209364707857e-02 -1.283482946399e-03 0.0 
4.017007756893e-02 -5.640252775471e-03 0.0 
9.241803450497e-03 -9.549902638482e-04 0.0 
1.298158257714e-01 -2.553993566081e-02 0.0 
3.176428872853e-02 -9.105867683869e-04 0.0 
-4.411941424939e-02 -1.527176256919e-02 0.0 
1.147790212773e-02 -1.097906546561e-03 0.0 
3.133734234414e-02 6.716462139982e-04 0.0 
-4.967289910090e-02 -2.081757692488e-02 0.0 
8.290270324467e-03 -9.971657351501e-02 0.0 
2.404535194656e-02 1.058041485338e-04 0.0 
1.699970679975e-02 -1.059509999738e-03 0.0 
1.850315752731e-02 5.761034041880e-06 0.0 
2.271407017772e-02 6.070312459904e-04 0.0 
-2.982600569175e-02 -1.242486992776e-02 0.0 
-4.931194464834e-03 7.227581725812e-04 0.0 
-3.656223685024e-02 -1.353643834569e-02 0.0 
-4.859853171464e-02 -1.584689623786e-02 0.0 
1.093072975261e-01 -1.093174852348e-02 0.0 
-8.444100151090e-03 -5.363109273929e-03 0.0 
4.482932129325e-02 -6.779232670361e-04 0.0 
-5.690082725875e-03 1.526933317271e-02 0.0 
-3.047637801769e-02 -7.685376554126e-02 0.0 
-3.269038454346e-02 -5.176647901591e-02 0.0 
7.021582954838e-03 -2.998218285293e-02 0.0 
4.435811249054e-02 -2.470819428446e-01 0.0 
-9.042025508453e-03 -9.425294619389e-02 0.0 
8.773626567206e-04 -1.843904400918e-02 0.0 
1.052034882859e-01 -1.709645958365e-02 0.0 
-4.914057519012e-02 -1.801454035690e-02 0.0 
3.450617861074e-02 2.240738086792e-03 0.0 
2.339168639921e-02 5.780426485853e-03 0.0 
3.154084123402e-01 -1.703366308951e-01 0.0 
-5.090405958677e-02 -1.780370200469e-02 0.0 
-1.483068476458e-02 -4.450100525296e-03 0.0 
3.155137156575e-02 -4.403515703197e-03 0.0 
1.474558935030e-02 -5.805558700829e-02 0.0 
-4.977015144778e-02 -1.689554691160e-02 0.0 
2.745499463946e-02 1.988081312573e-03 0.0 
2.996347852585e-01 -1.576352734554e-01 0.0 
-8.859471929453e-03 -8.728277124384e-03 0.0 
-1.676328759973e-03 -3.748481803641e-02 0.0 
1.003604955697e-01 -1.634612202763e-02 0.0 
-4.437456990345e-02 -1.613613978778e-02 0.0 
-7.469204170342e-03 -1.359468449132e-01 0.0 
-4.272103626436e-02 -1.463664259115e-02 0.0 
-2.476783435360e-02 -2.059929015195e-03 0.0 
-3.167488925914e-03 -1.342518224870e-02 0.0 
2.026402168526e-02 5.508540329558e-05 0.0 
3.860823149870e-02 -5.284154274797e-03 0.0 
-2.486668643518e-02 -6.155954483697e-03 0.0 
2.688306015949e-01 -3.769535799066e-02 0.0 
2.947824471102e-02 1.397833089557e-03 0.0 
7.030346610597e-04 6.452640327181e-03 0.0 
1.945069803064e-02 -3.774405157263e-04 0.0 
1.317324963223e-03 -2.325333270031e-02 0.0 
1.092369394166e-02 -8.507658932319e-02 0.0 
-3.081908943760e-02 -9.059681716133e-04 0.0 
1.105734260893e-01 -3.446694586539e-01 0.0 
1.526716830924e-02 -7.345599703771e-04 0.0 
-6.218094901194e-03 1.723450121329e-02 0.0 
2.429425264850e-01 -2.970604163501e-02 0.0 
6.610421978712e-02 -2.101195125697e-02 0.0 
8.202970493168e-03 -1.032018400622e-03 0.0 
-9.273402037624e-03 -1.039407395915e-01 0.0 
1.228900181523e-01 -3.570190149129e-02 0.0 
2.900724196286e-02 7.094486053517e-04 0.0 
-4.192872539294e-02 -9.160143761702e-03 0.0 
2.946292242008e-02 -2.267251580072e-01 0.0 
1.412336803804e-01 -1.291259089113e-01 0.0 
3.611950659293e-03 -7.514922021144e-02 0.0 
-1.652567719764e-03 -1.305238730869e-01 0.0 
-4.414124985224e-03 -9.938208110820e-02 0.0 
6.413355507361e-03 -3.706615038172e-02 0.0 
5.284957864811e-03 -8.607812253036e-04 0.0 
2.061760555530e-01 -2.062570471404e-02 0.0 
-2.421555935412e-02 -1.030905753733e-02 0.0 
8.249358025183e-02 -1.474698899173e-01 0.0 
3.685915078779e-02 1.309563513008e-03 0.0 
8.690619868525e-02 -3.100362447767e-01 0.0 
-1.753365870685e-02 3.026791065657e-04 0.0 
-7.390116338937e-03 -7.982149114067e-02 0.0 
-9.745376412723e-03 1.595248892904e-02 0.0 
-2.222419614236e-03 -1.203701750306e-02 0.0 
-5.796161289061e-02 -5.576159894976e-02 0.0 
-8.629798857802e-04 -7.709450128640e-05 0.0 
1.461830221715e-01 -7.471089730317e-02 0.0 
4.092862802816e-02 -1.165396494304e-03 0.0 
-6.723595975853e-03 3.327292676191e-03 0.0 
2.724275409205e-02 1.338050815331e-03 0.0 
3.390359417730e-02 -5.035540470133e-03 0.0 
2.720806999725e-02 -5.672110155082e-04 0.0 
2.792889451056e-02 -1.291173088427e-03 0.0 
1.458224930796e-01 -2.495372299927e-01 0.0 
-2.669752252845e-02 -1.006711487036e-02 0.0 
3.054681016429e-02 -4.433881727838e-05 0.0 
8.911471748386e-02 -9.659285726999e-02 0.0 
1.732127236604e-01 -1.113857937623e-02 0.0 
-5.886301233145e-03 5.304701672153e-03 0.0 
8.730834216185e-02 -2.622896268933e-01 0.0 
-8.781143892878e-03 1.593087551596e-02 0.0 
-1.009062226267e-04 -4.848725300541e-03 0.0 
2.942138200825e-04 2.240848880055e-02 0.0 
1.198950491616e-01 -8.376496974490e-02 0.0 
-6.610572555975e-03 -6.533701778229e-03 0.0 
2.188577972571e-02 -1.858491532979e-03 0.0 
2.093806496822e-02 -2.292777993284e-03 0.0 
-3.953359185242e-03 -1.041661317563e-02 0.0 
2.186694755540e-02 -8.659110823039e-04 0.0 
9.907625488091e-02 -1.285533674278e-01 0.0 
8.455874767333e-02 -3.426768201375e-02 0.0 
1.438948823230e-01 -6.152880348704e-04 0.0 
4.929310555612e-02 -9.849533520969e-03 0.0 
1.096381177622e-01 1.351060965215e-02 0.0 
8.965364443066e-02 1.617806523381e-02 0.0 
4.657790405479e-02 -7.890318623155e-02 0.0 
6.950092300905e-02 1.248444576758e-02 0.0 
9.147621955866e-02 -7.438014573135e-02 0.0 
1.143518718952e-01 -1.160247745567e-01 0.0 
-1.440247694147e-02 -6.826899839395e-02 0.0 
3.237249809251e-02 -2.299176093384e-01 0.0 
2.926547451333e-02 -8.925787038723e-02 0.0 
1.550525102685e-02 -1.005184897729e-03 0.0 
3.809714502249e-02 -6.452155671759e-03 0.0 
-3.339842820709e-02 -1.132680507263e-02 0.0 
-3.164905031185e-03 2.610793213141e-03 0.0 
-5.404119783703e-02 -6.072463101940e-02 0.0 
2.578518183458e-02 -1.102877291855e-03 0.0 
-1.535714519327e-03 -6.897009697169e-02 0.0 
-2.156564096477e-02 -7.759732210343e-03 0.0 
2.509595044980e-02 -4.687918376495e-04 0.0 
3.423483909746e-02 -1.194743869159e-03 0.0 
-7.551983012164e-03 -1.791856924256e-02 0.0 
6.757008109956e-02 -1.135856901184e-01 0.0 
5.385745614187e-02 -2.075704306159e-02 0.0 
8.995896859999e-02 -1.878131032895e-02 0.0 
1.964336777875e-02 -1.981795321894e-01 0.0 
7.346892808497e-02 -2.648032492821e-01 0.0 
1.355628213384e-01 -9.558293676286e-02 0.0 
1.189186692645e-01 -3.324206930604e-02 0.0 
-1.692410612157e-02 -5.802738746855e-03 0.0 
3.295931621960e-02 -1.994187735848e-04 0.0 
4.779491093214e-02 -1.098325732177e-01 0.0 
1.085009590152e-01 -3.614321398672e-02 0.0 
-1.112370898534e-02 -1.392129154562e-03 0.0 
1.678647765233e-02 -7.341560549724e-04 0.0 
4.898068034075e-02 -1.661793972699e-02 0.0 
3.974777883684e-02 2.140228041287e-03 0.0 
-2.826570516288e-02 4.529104662314e-03 0.0 
2.139508335777e-03 -5.710341231656e-02 0.0 
-1.391971832372e-02 -2.699831121003e-04 0.0 
1.270685799186e-01 -6.461742602695e-02 0.0 
1.685018285156e-02 -1.372408529995e-03 0.0 
4.136242278865e-02 -1.111405244819e-02 0.0 
-6.424861832283e-03 -3.039811928795e-02 0.0 
7.214710693903e-02 -2.790832110789e-01 0.0 
2.485555090154e-02 9.709769210403e-04 0.0 
1.142712084217e-01 -7.026379157820e-02 0.0 
8.457834879398e-02 -1.306721275307e-01 0.0 
-4.039435556565e-03 -2.325060148064e-02 0.0 
-4.305620064450e-02 -5.227887782720e-03 0.0 
5.896061028918e-02 -2.707924808149e-01 0.0 
-5.292859338874e-03 -4.670476710111e-02 0.0 
7.199353619673e-02 -8.966784946160e-03 0.0 
-1.579480983565e-02 -5.085706331654e-03 0.0 
7.432867948527e-02 -1.178657498206e-02 0.0 
4.519279071404e-02 -9.649240122104e-03 0.0 
6.923342421391e-02 -5.868447889328e-03 0.0 
6.149998222952e-02 9.165720760540e-04 0.0 
9.281940673515e-02 -2.303973982371e-02 0.0 
-5.423531121513e-03 -3.314051633195e-03 0.0 
-3.095974677977e-02 -1.140438843783e-02 0.0 
3.634279584034e-02 4.197746862170e-04 0.0 
1.921379733853e-02 -2.021813729724e-03 0.0 
6.576029462530e-02 -2.404931912291e-03 0.0 
7.550182788692e-02 -1.828319834903e-01 0.0 
1.795913797627e-02 3.154471879842e-03 0.0 
1.264741930984e-02 -1.133373328629e-03 0.0 
1.070153132440e-01 -1.045113228019e-01 0.0 
1.132331782733e-01 -8.457276215686e-02 0.0 
6.413133661147e-02 -1.476867640198e-01 0.0 
3.813650805787e-02 -7.419779711763e-04 0.0 
1.377627714062e-01 -2.770103694604e-02 0.0 
7.262175055970e-02 -6.154247518073e-02 0.0 
1.414557556664e-01 -2.776130983094e-02 0.0 
-1.978715924598e-03 -1.028522096802e-02 0.0 
2.768097250521e-03 8.384395292017e-03 0.0 
2.527807495020e-02 -1.212011660938e-01 0.0 
9.772372430313e-02 -3.329664923503e-01 0.0 
2.460129852148e-02 -2.963497049399e-03 0.0 
1.279549868377e-01 -2.655331164355e-02 0.0 
-4.534899217115e-02 -5.917464898517e-02 0.0 
8.728092473193e-03 6.882280305009e-03 0.0 
3.904943730968e-02 1.613725893973e-04 0.0 
-3.730842556788e-02 -1.390285598002e-02 0.0 
1.164464885837e-01 -1.215022183677e-01 0.0 
1.058212711695e-01 -3.424937700451e-01 0.0 
-1.151294570073e-02 -3.702511298995e-03 0.0 
1.213433754475e-01 -3.828084260241e-02 0.0 
1.433629821050e-02 -2.311934130597e-02 0.0 
3.312889102326e-02 -1.077492418592e-02 0.0 
1.404063715869e-01 -3.805276054572e-01 0.0 
-3.922280617857e-02 -1.475461735322e-02 0.0 
1.374133766174e-01 -1.617581942245e-01 0.0 
4.259990960702e-02 1.926918902342e-03 0.0 
-4.169545690797e-02 -9.611031521782e-03 0.0 
4.644093498619e-02 -1.271358847324e-01 0.0 
-2.034613461562e-02 -6.817735089968e-03 0.0 
1.033425073668e-01 -6.772776918233e-02 0.0 
6.081395482278e-02 -1.651478391097e-01 0.0 
1.162516520998e-01 -3.841438841439e-02 0.0 
9.410127725122e-02 -3.202927072879e-01 0.0 
9.150141127071e-02 -3.553336201719e-02 0.0 
-3.818184851802e-03 -9.554529694585e-03 0.0 
3.615860364324e-02 -8.412576100008e-03 0.0 
5.998629911159e-02 -2.111899669663e-02 0.0 
6.405273696247e-02 -2.324265988701e-01 0.0 
-3.134182896299e-02 -9.889453526103e-03 0.0 
1.090548641950e-02 -1.202832019548e-03 0.0 
-3.428267798508e-03 4.458664780939e-03 0.0 
-2.895168024711e-03 -6.197647391889e-03 0.0 
9.822642525784e-02 -1.156104972697e-01 0.0 
1.073367074805e-01 -3.948184189868e-02 0.0 
-1.327362630554e-02 -3.797513285612e-03 0.0 
-9.536394558008e-03 8.616005252227e-03 0.0 
7.475158835169e-02 -2.735834157131e-02 0.0 
3.426620334689e-02 1.406355084483e-03 0.0 
-2.536163177673e-02 -8.970385725794e-03 0.0 
-3.530966410587e-02 -1.387935009866e-02 0.0 
9.447317478060e-03 5.178384124707e-03 0.0 
6.302351789671e-03 5.028167859481e-03 0.0 
6.761459702784e-02 -8.226721131694e-03 0.0 
1.000976086495e-01 -3.793385371691e-02 0.0 
-3.630414130963e-02 -6.452166576086e-03 0.0 
8.821667553102e-02 -2.158778811508e-02 0.0 
9.481153423481e-02 -8.734431338030e-02 0.0 
-1.645535910720e-02 8.418372044124e-03 0.0 
1.072018809839e-01 -1.152639562606e-01 0.0 
4.663227460956e-03 -7.294772573467e-04 0.0 
6.228874454403e-02 3.866593668278e-03 0.0 
1.056397918946e-01 -9.500090740994e-02 0.0 
-4.484438931968e-02 -1.220909100160e-02 0.0 
9.028754515695e-02 -2.439544979317e-01 0.0 
-4.613075402135e-02 -1.413649912314e-02 0.0 
1.130026684590e-01 -3.990397337578e-02 0.0 
1.101854035764e-01 -3.089708696412e-02 0.0 
4.241792302731e-02 8.378522772440e-04 0.0 
8.720661958272e-02 -2.338298884607e-02 0.0 
8.220099382695e-02 -2.159904853308e-02 0.0 
3.244830264978e-03 2.080357709648e-02 0.0 
-4.367391029489e-02 -1.234793347332e-02 0.0 
1.318977068015e-01 -2.771349547531e-02 0.0 
8.213430735660e-02 -1.506205308038e-02 0.0 
7.770470020475e-02 -1.382830898183e-02 0.0 
-9.969409982252e-03 -1.155651207758e-04 0.0 
-2.029098037291e-05 2.241710316596e-02 0.0 
4.965073348012e-02 -2.590242524932e-01 0.0 
1.286442520266e-01 -4.144766828595e-02 0.0 
-4.055196627784e-02 -8.661888301354e-03 0.0 
9.461797817703e-02 1.233769520776e-02 0.0 
7.573291833480e-02 1.199740044071e-02 0.0 
4.540568704059e-02 4.219749439382e-04 0.0 
1.701707005276e-01 -2.550207843812e-01 0.0 
-4.042762996543e-02 -8.028888611077e-03 0.0 
-1.947551121272e-02 -4.841242246346e-03 0.0 
6.134365560633e-02 -2.795423391324e-01 0.0 
-2.408082443215e-03 3.337651991307e-03 0.0 
2.212909538726e-02 -1.373708392762e-03 0.0 
-3.229363821016e-02 -1.195466061566e-03 0.0 
-2.756725678394e-02 -8.870307746728e-03 0.0 
8.919922322336e-03 1.651432533287e-02 0.0 
-2.930529239819e-02 -1.245538122835e-02 0.0 
1.237891061690e-01 -4.053442041179e-02 0.0 
6.478668974808e-03 1.872481905402e-02 0.0 
2.032298065553e-02 -1.235161361070e-03 0.0 
7.621933258553e-02 -3.015716941612e-01 0.0 
8.558654865271e-02 -1.745392227017e-02 0.0 
1.144349163588e-01 -3.358087402031e-02 0.0 
-4.278452775708e-02 -6.639042404953e-02 0.0 
-5.827563861283e-02 -3.184932135307e-02 0.0 
2.015240612788e-02 -1.659709796695e-03 0.0 
-5.487130939129e-02 -2.130401999052e-02 0.0 
1.209812046845e-01 -5.649352379483e-02 0.0 
1.271167052931e-01 -5.165495065555e-02 0.0 
3.149277874192e-01 -2.299619961032e-01 0.0 
8.088032103279e-02 -3.095897244736e-01 0.0 
3.346519260934e-02 -4.823478658508e-03 0.0 
5.854464583431e-02 2.715822132693e-04 0.0 
1.998422046873e-02 1.725102147600e-03 0.0 
1.448882051167e-01 -1.431493876472e-01 0.0 
4.920379371983e-02 -5.629923512000e-03 0.0 
2.701409375942e-02 -5.777259616212e-03 0.0 
7.083466703351e-02 7.570603902420e-03 0.0 
3.961133244232e-02 -9.946844918691e-03 0.0 
-2.572746103313e-02 -7.595389692391e-03 0.0 
1.068145154319e-01 -3.884297197513e-02 0.0 
-4.508858923346e-02 -1.228614362844e-02 0.0 
-4.673642621766e-02 -1.375294795763e-02 0.0 
2.668933551289e-02 -3.385625403825e-03 0.0 
-5.993214179916e-02 -4.108088738268e-02 0.0 
1.133145418989e-01 -3.617425201754e-02 0.0 
6.225468725881e-02 -7.226247315931e-02 0.0 
-4.886350703382e-02 -1.103679381230e-02 0.0 
1.026399138084e-01 -1.053211619092e-01 0.0 
5.022742211338e-02 -2.125431520246e-01 0.0 
-1.857425767266e-02 -4.094571528747e-02 0.0 
7.146939395021e-02 -2.002694260068e-01 0.0 
8.458159133771e-02 -1.866357140167e-02 0.0 
5.361934982753e-02 -1.978636150629e-01 0.0 
9.667188363796e-02 -2.626004708042e-02 0.0 
-6.998502277369e-03 -3.825155554304e-03 0.0 
-6.309608107771e-03 -5.978060039568e-03 0.0 
1.073918856473e-01 -1.102645918295e-01 0.0 
4.866834858660e-02 1.127099976107e-03 0.0 
-2.230232967676e-02 -6.753470551082e-03 0.0 
-2.062070876843e-02 -5.713191371511e-03 0.0 
2.162662848157e-01 -2.868780023042e-01 0.0 
9.621090871647e-02 -2.858787262224e-02 0.0 
-1.248502408551e-02 -4.197769791534e-03 0.0 
1.491839632708e-01 -2.397295957385e-02 0.0 
-3.218982881264e-02 -2.703154185572e-03 0.0 
3.159062436850e-01 -2.019160771223e-01 0.0 
-1.753521742137e-02 -5.060423495197e-03 0.0 
7.945713497080e-02 -2.320418167851e-01 0.0 
-7.977116508639e-03 7.764566530581e-03 0.0 
2.078786515700e-02 -2.283814148301e-02 0.0 
5.190388477908e-02 5.004056673935e-04 0.0 
5.505165128371e-02 1.204651094090e-03 0.0 
1.202114132467e-01 -4.164833487026e-02 0.0 
1.304186240988e-01 -1.811860109670e-04 0.0 
1.132584610231e-01 6.877131255317e-03 0.0 
-1.598611227605e-02 -4.267488941694e-03 0.0 
-5.389749501797e-02 -2.702011520475e-02 0.0 
-4.059882917286e-02 -5.272651102947e-02 0.0 
-2.285545563972e-02 -1.105846929224e-02 0.0 
-2.025951043042e-02 -5.803509343296e-02 0.0 
8.348186424439e-02 -2.145641808835e-01 0.0 
1.276560999139e-01 6.670097000930e-03 0.0 
6.017316967385e-02 2.972850555179e-03 0.0 
7.960972662276e-03 5.489335564691e-03 0.0 
-7.371056240939e-03 -4.577636450640e-03 0.0 
1.030404407294e-01 -1.079244056033e-01 0.0 
-4.158104013685e-03 5.097439918295e-03 0.0 
-7.135442936822e-03 -1.397324852921e-03 0.0 
-1.482511568293e-02 -4.833754679525e-02 0.0 
-1.020342525790e-02 -3.718549640072e-03 0.0 
1.751606886626e-02 -1.641878380592e-01 0.0 
-2.109564555599e-03 6.442319090563e-03 0.0 
1.189310584957e-01 -4.740015588370e-02 0.0 
8.444583348046e-02 -3.147049923738e-02 0.0 
-2.326802373020e-02 8.750067327656e-03 0.0 
-4.178893591275e-02 -2.327173855025e-02 0.0 
1.049700851244e-01 -3.313496309140e-02 0.0 
-2.972203773138e-02 -5.917145488622e-02 0.0 
1.055341552258e-01 -3.048221406603e-02 0.0 
1.413061389880e-01 -1.311207194358e-01 0.0 
5.027928749398e-02 -1.902234447442e-02 0.0 
-3.506601794672e-02 -6.734726196414e-02 0.0 
-3.942121652663e-02 -8.658579614660e-03 0.0 
1.012541383436e-01 -2.735637346154e-02 0.0 
3.034260255018e-01 -3.533360417283e-01 0.0 
3.421718097890e-02 -4.711734360950e-02 0.0 
2.973552065746e-01 -1.968311638260e-01 0.0 
8.903328512799e-03 1.206097824308e-02 0.0 
-3.536426243866e-02 -4.834544260685e-03 0.0 
7.851576200707e-02 -3.027211488457e-02 0.0 
5.871074632702e-02 -1.290155194400e-03 0.0 
1.604075464125e-01 -1.094409918772e-02 0.0 
2.424315257939e-03 -3.861458405629e-04 0.0 
3.123247336545e-01 -3.024158017834e-01 0.0 
1.459491410693e-01 -6.319406313557e-03 0.0 
-4.261562143295e-02 -4.622475469251e-02 0.0 
-2.764347853452e-02 1.058825487749e-03 0.0 
1.019132362342e-01 -1.052771391596e-02 0.0 
-4.034948250077e-02 -9.876308901592e-02 0.0 
-5.675320203133e-02 -3.800458050116e-02 0.0 
1.145166988845e-01 -4.088434202226e-02 0.0 
1.677518238159e-02 -2.918638704535e-02 0.0 
6.025595114074e-02 -1.293040465190e-02 0.0 
1.830450913758e-01 -2.822856183212e-01 0.0 
-3.551362585966e-02 -3.616922203394e-03 0.0 
-2.594364607969e-02 1.004647373995e-03 0.0 
-1.971224643848e-02 -6.360220930191e-03 0.0 
6.269635299170e-02 6.513563231108e-03 0.0 
6.220271207000e-02 -2.543524000106e-03 0.0 
-2.611075052730e-03 1.184660412742e-03 0.0 
8.520940954423e-03 1.733221464152e-02 0.0 
1.705589726581e-01 -4.106585688062e-01 0.0 
7.451832852623e-05 -5.842897660680e-03 0.0 
-2.285213147114e-02 2.572924986906e-03 0.0 
2.605718989669e-03 -1.271331704152e-01 0.0 
-3.141652515917e-02 -1.155503453584e-01 0.0 
3.191268098834e-02 -2.014623111071e-01 0.0 
-3.013288125671e-02 -2.452997258469e-03 0.0 
6.428139494279e-02 -6.674327822742e-03 0.0 
-2.102007461136e-02 2.255692073735e-03 0.0 
2.282372940134e-02 -1.369501374576e-01 0.0 
1.002290933208e-01 -3.233694802872e-02 0.0 
3.601534929877e-02 5.660776002860e-03 0.0 
1.060218435915e-02 -8.226433296164e-03 0.0 
-1.801920869041e-02 3.478332714654e-03 0.0 
-2.706230942684e-02 -7.099893582648e-04 0.0 
1.903120114838e-01 -2.099214695111e-02 0.0 
-2.661378443509e-02 -9.820350221392e-02 0.0 
-1.607081309157e-02 2.973390828701e-03 0.0 
1.338127481172e-03 8.531069883956e-04 0.0 
1.502990037263e-03 1.830553814056e-03 0.0 
1.750127325316e-01 -1.608355307806e-02 0.0 
-2.491955479477e-02 -7.494111835900e-04 0.0 
-4.857404495117e-02 -7.791368458525e-02 0.0 
2.651373151011e-01 -1.598662988970e-01 0.0 
-3.229109322745e-03 5.008065962893e-03 0.0 
3.453119471528e-03 -2.199311062308e-02 0.0 
-5.148014107797e-02 -7.006683127806e-02 0.0 
5.262196777796e-02 -6.299663944413e-02 0.0 
1.588097338359e-01 -6.216840239284e-03 0.0 
-1.312983136135e-02 3.888473333183e-03 0.0 
-8.763863380635e-04 2.128430901942e-02 0.0 
6.080449474958e-02 5.922706545963e-03 0.0 
-2.196883458784e-02 6.479926354977e-04 0.0 
-5.136731116373e-02 -5.733115209366e-02 0.0 
-3.721351071312e-02 -5.458814388554e-03 0.0 
2.611614207192e-01 -4.096526202761e-01 0.0 
1.591748917152e-03 -8.679603816138e-04 0.0 
-4.997136562516e-02 -7.779429045497e-02 0.0 
-1.412644919687e-02 5.019295803987e-03 0.0 
7.165762347424e-02 -3.023208106221e-02 0.0 
-1.982210872794e-02 3.869544228244e-04 0.0 
-1.692495315262e-02 1.489711975108e-03 0.0 
4.602295131229e-04 -1.390925375800e-01 0.0 
3.021755397166e-02 -3.591718955322e-02 0.0 
2.810766985588e-01 -3.701745136192e-01 0.0 
-1.477227886669e-02 1.059584215379e-03 0.0 
-1.985934239305e-02 8.716436635160e-03 0.0 
-4.332237725923e-02 -4.781261918039e-02 0.0 
9.819670126646e-02 -3.489401761152e-02 0.0 
1.629309006943e-01 -2.740362027669e-02 0.0 
9.134837586536e-02 -2.716276609652e-02 0.0 
-8.643021366148e-03 -3.379532967128e-03 0.0 
2.262249958309e-01 -4.427053830227e-01 0.0 
2.259449978375e-04 -1.971849540935e-04 0.0 
-5.449799651328e-04 -4.184499161896e-04 0.0 
9.639809130074e-04 3.641173034780e-03 0.0 
-5.606397838962e-02 -5.515933316206e-02 0.0 
1.028882800364e-01 -3.942408200850e-02 0.0 
4.066920764865e-02 -1.603459311861e-01 0.0 
1.281791422849e-02 1.023752271029e-02 0.0 
3.182730678381e-01 -2.833947869930e-01 0.0 
6.490555980378e-03 -1.016600193554e-03 0.0 
6.520183739891e-02 -5.484009072853e-03 0.0 
6.149733642647e-02 8.964680096127e-03 0.0 
-1.275335295488e-03 2.223095504388e-03 0.0 
-3.208832436737e-04 2.212828472348e-02 0.0 
-8.467351918084e-04 2.605058555323e-03 0.0 
6.181031228158e-02 -3.996603081905e-03 0.0 
-4.869725936346e-02 -3.214747144781e-02 0.0 
1.093101087380e-01 -4.721727306908e-02 0.0 
-5.264467348754e-02 -5.332179734902e-02 0.0 
2.461112038229e-01 -1.732456239059e-01 0.0 
-4.576767504743e-02 -4.217430378440e-02 0.0 
6.626883565928e-02 -9.122183434153e-03 0.0 
-7.080479289615e-03 -1.880459161910e-03 0.0 
-5.037598765111e-02 -7.908140635682e-02 0.0 
9.021097901515e-02 -2.957336753269e-02 0.0 
2.066471495809e-01 -4.155215870354e-01 0.0 
-2.901392308965e-02 -1.055255706683e-01 0.0 
5.142780122484e-02 -4.915694718389e-03 0.0 
-3.736256376942e-02 -2.064234979041e-02 0.0 
-3.542606795276e-02 -3.614184118327e-02 0.0 
1.004315538719e-01 -5.377461858433e-02 0.0 
1.467086348745e-02 -1.478063648445e-01 0.0 
2.287060840178e-01 -2.971598919914e-02 0.0 
2.106781216350e-01 -2.479161777753e-02 0.0 
-3.021841745688e-02 -2.128063846248e-02 0.0 
-4.935900513311e-02 -4.608671408593e-02 0.0 
9.088063928499e-02 -9.507963406588e-02 0.0 
9.304111981193e-02 -3.355554364120e-02 0.0 
3.606185534265e-02 -7.352543206497e-03 0.0 
1.887938292769e-01 -1.632582318795e-02 0.0 
2.435064959338e-03 1.927024020465e-05 0.0 
2.300410278605e-02 -3.012536695050e-03 0.0 
3.750703659011e-02 -1.756242646229e-01 0.0 
3.024074555307e-01 -1.688481792618e-01 0.0 
1.519643712210e-01 -2.580248852563e-02 0.0 
-5.814428975859e-02 -4.743212338128e-02 0.0 
7.855550701534e-02 -1.830150785985e-02 0.0 
-5.336053186560e-02 -5.074497353138e-02 0.0 
2.106915751468e-01 -3.412858783490e-01 0.0 
-4.583917817550e-02 -3.377427445830e-02 0.0 
2.269304958100e-01 -1.537530812194e-01 0.0 
8.170688787832e-02 -8.869151565294e-02 0.0 
-5.096382325828e-02 -3.969755705432e-02 0.0 
8.122151516401e-02 -4.474300934859e-02 0.0 
9.421087483737e-03 1.232336152753e-03 0.0 
-2.758054030495e-02 -1.491081401080e-02 0.0 
2.736493917364e-01 -2.164826188441e-01 0.0 
-4.725041335369e-02 -2.725209175682e-02 0.0 
2.159698688690e-01 -5.712514883144e-02 0.0 
1.864219237475e-01 -4.311080626991e-01 0.0 
5.834806565572e-04 -9.336374555757e-04 0.0 
7.994931825700e-04 -8.803839782483e-04 0.0 
5.257673228916e-02 -3.295768306161e-02 0.0 
-4.168193042381e-02 -2.055665702141e-02 0.0 
-1.062219315184e-02 -5.907796264089e-03 0.0 
-1.435801355886e-02 -3.633155565703e-03 0.0 
7.979675197209e-02 -2.800727214683e-02 0.0 
6.527799966001e-02 -4.585848939597e-02 0.0 
8.643476435466e-02 -3.380907675094e-02 0.0 
-3.920159791756e-02 -9.576037083387e-02 0.0 
1.815277497821e-02 6.361986691609e-03 0.0 
-8.070183030785e-03 -4.250807062882e-03 0.0 
-4.826258005257e-03 -3.319273186456e-03 0.0 
-1.213272972182e-02 1.440401595826e-03 0.0 
8.442778106077e-02 -8.661320092893e-02 0.0 
1.302107229909e-03 2.100316083530e-02 0.0 
7.650139874094e-02 -1.471783822938e-02 0.0 
-1.227223129440e-02 -1.059205717303e-01 0.0 
4.717314573265e-02 -6.244673056120e-02 0.0 
-1.807257691181e-02 -1.322240638575e-01 0.0 
-1.390265203710e-03 2.133287131085e-03 0.0 
6.963185163078e-02 -1.077900521185e-02 0.0 
1.107213731868e-02 -2.604734438824e-02 0.0 
-5.348061192633e-03 8.487886486156e-03 0.0 
8.101738461734e-02 -2.336751615553e-02 0.0 
8.154947407754e-03 -9.099909895123e-04 0.0 
-3.806662165517e-02 -3.139498739694e-02 0.0 
-1.868895958376e-03 2.094893699363e-02 0.0 
6.562131017325e-02 -7.095924880081e-02 0.0 
7.092210618398e-04 1.343726498099e-03 0.0 
5.252454581211e-02 -9.586000615601e-02 0.0 
4.235151756661e-03 3.680813099448e-03 0.0 
1.832529516574e-02 -3.502743449068e-03 0.0 
3.322814131958e-03 2.863871431088e-03 0.0 
1.091729147438e-02 -1.342410933180e-03 0.0 
2.135953645688e-02 -5.302116689031e-03 0.0 
-4.495020065051e-02 -8.413956746674e-02 0.0 
-5.313513099991e-02 -7.110956926633e-02 0.0 
-8.176226382764e-03 3.427455330389e-03 0.0 
2.254913910341e-01 -4.628207334306e-01 0.0 
-3.005922633008e-04 2.185305098846e-02 0.0 
-3.991848129872e-03 7.612137015849e-03 0.0 
-3.535985791566e-02 -2.428808969311e-02 0.0 
-4.635575448167e-02 -8.830441776734e-02 0.0 
2.611873384495e-01 -3.627379208167e-02 0.0 
2.472301687572e-01 -3.255596096386e-02 0.0 
3.088384345116e-02 5.117449399192e-03 0.0 
-1.681785942550e-02 -1.252020073495e-01 0.0 
-5.854837015265e-03 1.851673537831e-02 0.0 
2.808805213648e-02 -3.099737109797e-03 0.0 
-3.733319598139e-03 -1.710465438992e-03 0.0 
-4.162447563074e-03 -2.097225476510e-03 0.0 
-5.596609291753e-02 -6.337304449076e-02 0.0 
4.003743669035e-02 6.876592908296e-03 0.0 
1.807605982762e-01 -4.049609844844e-01 0.0 
2.857308047566e-01 -1.210959187363e-01 0.0 
2.923434844057e-02 -1.801390797761e-01 0.0 
2.705743166197e-01 -5.476137132107e-02 0.0 
5.715059434832e-02 -5.885269070155e-02 0.0 
-4.596290706660e-02 -5.754829415458e-02 0.0 
-4.650270725968e-02 -8.842940155063e-02 0.0 
1.029571112374e-01 -2.997274502347e-01 0.0 
1.812919536135e-03 -9.480194346912e-04 0.0 
-5.089179809352e-02 -6.049277068944e-02 0.0 
5.639833387105e-03 -1.002604374348e-03 0.0 
4.848228147186e-03 -7.170712709446e-04 0.0 
6.770050210073e-04 -4.274134527094e-04 0.0 
-1.210223017037e-03 -7.625656202983e-04 0.0 
1.757749888430e-03 2.973676073274e-03 0.0 
-5.016108024882e-02 -4.473900541817e-02 0.0 
2.272785887586e-01 -2.502761376231e-02 0.0 
-5.137105616103e-02 -3.918968202556e-02 0.0 
-1.654632240042e-03 -7.046140565741e-04 0.0 
3.136002811693e-01 -1.707943417381e-01 0.0 
3.047717209360e-01 -1.887493532725e-01 0.0 
-1.212306414425e-02 1.734653648648e-03 0.0 
3.022841602927e-02 6.375054091116e-03 0.0 
3.396802441465e-03 -9.762552913887e-04 0.0 
8.488561352289e-02 -2.756205790469e-02 0.0 
1.962807650538e-03 8.138216450549e-03 0.0 
6.331938145028e-02 -1.262890675796e-02 0.0 
1.123033624041e-02 2.912308598042e-03 0.0 
-2.736818009543e-02 -2.509467050689e-02 0.0 
-2.986906685181e-02 -3.284897552386e-02 0.0 
3.070178594012e-03 3.999022062123e-04 0.0 
8.647693638092e-03 5.296043382026e-03 0.0 
5.247056058318e-02 9.855718889763e-03 0.0 
6.165582014500e-03 4.292474995147e-03 0.0 
7.277354506894e-03 3.246392523688e-03 0.0 
1.291474680029e-02 3.159355006781e-03 0.0 
7.635707829968e-02 -2.928434556530e-01 0.0 
-2.150135914595e-02 -2.164572206782e-02 0.0 
4.925963246354e-03 -8.784342430598e-04 0.0 
1.220509765155e-02 1.912768920935e-03 0.0 
-2.840484570451e-03 3.232056677131e-03 0.0 
4.081110236757e-02 -8.577412827385e-03 0.0 
7.992604857779e-02 -1.716123145943e-02 0.0 
1.635245160796e-02 -1.652441381653e-03 0.0 
-1.504596101620e-02 1.197439043838e-02 0.0 
-1.293226602108e-02 1.401912197382e-02 0.0 
-1.480363887964e-02 -7.115324327019e-03 0.0 
1.269605215664e-01 -3.109587953474e-01 0.0 
-1.806675224199e-03 2.117051438968e-02 0.0 
-4.958845639265e-04 1.333098793065e-03 0.0 
7.314723991051e-04 2.213614875344e-02 0.0 
7.573445709368e-03 3.970364547933e-03 0.0 
-1.409472468736e-02 7.821147699321e-03 0.0 
2.987146879762e-02 -6.687077274213e-03 0.0 
2.042643795815e-02 8.115102230945e-03 0.0 
2.988968921622e-03 -5.103922982268e-04 0.0 
2.677139315258e-02 6.938176783489e-03 0.0 
7.304322548617e-03 -1.023865322110e-03 0.0 
-1.098583426809e-02 4.176684031014e-03 0.0 
2.319409529421e-02 6.532502394028e-03 0.0 
2.109224922045e-01 -4.572544063067e-01 0.0 
1.182891501663e-03 -7.247000742021e-04 0.0 
7.697473621047e-03 1.407499819084e-02 0.0 
8.175822145558e-03 -1.081735188177e-03 0.0 
-1.435951806008e-03 -5.787283042554e-04 0.0 
3.109506234159e-02 -5.526508466510e-03 0.0 
5.487975837420e-02 -2.631316335820e-01 0.0 
4.411634076414e-02 6.010315314613e-03 0.0 
-9.010813934151e-03 1.454734458981e-02 0.0 
2.304282463740e-02 -4.461032362181e-03 0.0 
-1.231265617281e-03 1.759449117424e-03 0.0 
2.879647582164e-03 -3.127877462473e-04 0.0 
-1.862102705109e-03 1.680070912368e-03 0.0 
1.079302651636e-01 -3.274141163376e-01 0.0 
-7.997111518545e-03 -3.224789970247e-03 0.0 
2.242149289649e-02 -1.909336290680e-01 0.0 
3.635595942718e-03 2.025569931436e-02 0.0 
-8.561417507196e-03 5.605850118558e-03 0.0 
1.352860866942e-02 -1.928552261723e-03 0.0 
6.571597827808e-03 -9.857754568802e-04 0.0 
1.709599999140e-02 4.872698135057e-03 0.0 
5.668004211267e-02 3.720971137806e-03 0.0 
2.434432292014e-01 -1.568930214817e-01 0.0 
2.598994538210e-02 -6.706060425157e-03 0.0 
-5.993038619484e-03 1.785501962906e-02 0.0 
2.623585288263e-01 -3.138094125194e-01 0.0 
1.365745301705e-02 3.699767840621e-04 0.0 
1.434064413561e-02 6.016053188930e-03 0.0 
1.835501411110e-02 -2.343509177362e-03 0.0 
9.521615509756e-05 -3.827303154493e-04 0.0 
9.521615509756e-05 -1.707351891630e-04 0.0 
2.194400858836e-03 1.914217971575e-02 0.0 
8.710811485114e-04 1.976459993176e-02 0.0 
7.646206146235e-04 4.891882794154e-03 0.0 
1.830634812801e-03 5.352901502663e-03 0.0 
-2.125185360041e-04 -3.188027558219e-04 0.0 
-2.125185360041e-04 -6.979849531524e-04 0.0 
3.292665784082e-03 2.002090921359e-02 0.0 
1.833160601125e-01 -3.573302614464e-01 0.0 
-9.014098721120e-03 -3.085885030033e-03 0.0 
5.413601643309e-03 6.480857833171e-03 0.0 
4.128361693989e-03 1.687155124790e-02 0.0 
-1.258357072818e-02 -5.300735746125e-03 0.0 
-2.402715859651e-03 5.570238331021e-03 0.0 
-2.374771829674e-03 1.060272604956e-02 0.0 
8.238964980028e-03 1.321466098852e-03 0.0 
1.417436235083e-02 -1.089459840050e-01 0.0 
3.940566962129e-02 -2.004744857086e-02 0.0 
8.979158996616e-03 1.476467744743e-02 0.0 
-1.360981358518e-02 1.076054107224e-02 0.0 
3.586684375121e-02 -8.442017237464e-03 0.0 
3.393669889793e-04 -9.382245050612e-04 0.0 
-4.618570397231e-03 1.011719457507e-02 0.0 
5.439170556458e-03 2.275570698607e-03 0.0 
1.155635533036e-02 -1.000692590577e-03 0.0 
6.381789647446e-02 -1.551950152114e-02 0.0 
7.305606905276e-02 -1.655167306702e-02 0.0 
1.975184091568e-02 6.084091385556e-03 0.0 
3.316082030222e-02 -3.267792495777e-02 0.0 
2.364318095832e-02 -3.444030307434e-03 0.0 
-2.832058776655e-03 2.047657929450e-02 0.0 
5.144437381805e-02 -2.840661924398e-02 0.0 
2.441264959795e-02 -7.073703350228e-03 0.0 
-1.021360457254e-02 -5.745131959517e-04 0.0 
2.900441121536e-02 -1.171465709019e-01 0.0 
4.260931130098e-03 5.044952319071e-04 0.0 
-5.053918042087e-03 -1.993260287818e-03 0.0 
1.428241281615e-02 1.170377610291e-03 0.0 
5.895798257598e-03 2.276058709175e-03 0.0 
-2.905395558565e-03 3.263155998169e-03 0.0 
2.692930288327e-01 -4.415162952531e-01 0.0 
2.604621953451e-01 -3.214205064001e-02 0.0 
2.086436477886e-01 -1.082199094321e-01 0.0 
4.637970224275e-02 5.268366844836e-03 0.0 
4.484049009755e-02 -3.237266520603e-02 0.0 
6.376900823798e-03 -1.012686061923e-03 0.0 
-5.866328217152e-03 2.838216536577e-03 0.0 
5.927565438417e-02 -7.794180586900e-02 0.0 
4.595732098230e-02 -3.146750404078e-02 0.0 
2.803825433277e-01 -6.654934241330e-02 0.0 
6.929646004081e-03 2.169113128301e-04 0.0 
-7.977860821665e-03 1.726185859550e-02 0.0 
1.527642450145e-02 -1.836581322311e-03 0.0 
2.544404508013e-03 2.037791188120e-02 0.0 
-1.076051183073e-02 4.616012327967e-03 0.0 
2.852814937341e-02 4.776179736537e-03 0.0 
-1.485711944493e-03 5.041944527505e-03 0.0 
2.239637697177e-02 1.273649545681e-03 0.0 
5.141737453498e-02 4.605552763083e-03 0.0 
-7.624072755029e-03 -1.636954887586e-04 0.0 
1.173795934053e-02 -1.604099126054e-03 0.0 
9.759451460706e-04 -7.921848268756e-04 0.0 
3.133925218018e-01 -1.779756190915e-01 0.0 
1.485634306336e-02 -1.503687146646e-03 0.0 
4.567317586794e-03 3.302687572538e-03 0.0 
-1.223817959139e-02 3.978379207366e-03 0.0 
1.234139009374e-02 4.838420891261e-03 0.0 
-1.862736230241e-03 -8.870972910538e-04 0.0 
6.942938226110e-02 -1.409522224522e-02 0.0 
2.826522821126e-01 -4.473352430757e-01 0.0 
2.624308757143e-01 -2.577150446256e-01 0.0 
5.319580851643e-02 -1.131188863871e-02 0.0 
4.192279639071e-02 4.066609466817e-03 0.0 
-4.976716026111e-03 -1.997427617331e-03 0.0 
5.569518520427e-03 8.263556691787e-03 0.0 
-7.236093054685e-03 -3.256911794944e-03 0.0 
5.948438540101e-03 -4.711738474868e-04 0.0 
-1.682739719726e-03 4.307489421410e-03 0.0 
-1.309660901161e-02 -4.001737824409e-03 0.0 
-1.237358960314e-02 -1.405443426000e-03 0.0 
-6.127178569068e-03 1.822295853270e-02 0.0 
-3.525215607940e-03 -1.527982204513e-03 0.0 
3.831888229248e-02 7.305500935894e-03 0.0 
4.108203496280e-03 -9.835511560407e-04 0.0 
4.203501646872e-02 -3.823760076559e-02 0.0 
2.716882874338e-03 -9.300768920988e-04 0.0 
6.405764239402e-03 5.149809218080e-04 0.0 
1.214600993450e-03 2.142680616412e-02 0.0 
7.123366894767e-02 -2.916677505335e-01 0.0 
7.050801357566e-02 -1.767445444898e-02 0.0 
5.291055464953e-03 -8.726777711284e-04 0.0 
2.086128634765e-03 -9.629522593435e-04 0.0 
-2.538116113954e-03 5.069636034546e-03 0.0 
1.345246982480e-02 2.577938426343e-03 0.0 
3.529646030364e-02 -5.661431134710e-03 0.0 
2.009476593526e-01 -4.308097268326e-01 0.0 
2.912130085824e-02 -1.358487138129e-03 0.0 
2.873804600501e-02 -2.707938521710e-02 0.0 
2.903260126669e-01 -3.963314590045e-01 0.0 
-1.189630841676e-02 1.213304735396e-02 0.0 
-6.188147164332e-03 -2.224069563604e-03 0.0 
2.984898061121e-02 -4.930411369396e-03 0.0 
5.451386011774e-02 2.597761539502e-03 0.0 
-1.531906794010e-02 1.228524980103e-02 0.0 
-1.590093561561e-02 -7.734768498410e-03 0.0 
-1.547486767416e-02 9.637031468929e-03 0.0 
-1.696963408143e-03 6.323700792883e-03 0.0 
1.055473451157e-02 5.682701212817e-04 0.0 
6.041017257211e-02 -1.646557656672e-02 0.0 
3.736497848313e-02 -2.598106107306e-02 0.0 
1.315334953822e-01 -3.595536365523e-01 0.0 
-8.420541423370e-03 -2.830346372551e-03 0.0 
2.119725599391e-03 2.135382625444e-02 0.0 
4.169675986497e-04 2.189082404412e-02 0.0 
3.121493633193e-01 -3.047360778105e-01 0.0 
2.623202907207e-02 -1.726361704739e-03 0.0 
-5.663627697591e-03 -1.488976519937e-03 0.0 
1.719616542890e-02 -2.031464121653e-03 0.0 
5.720620727120e-03 -9.932185011709e-04 0.0 
-1.429954006151e-03 5.036760788861e-03 0.0 
-1.760471110652e-02 9.801772046832e-03 0.0 
1.076541728040e-02 1.805227458721e-03 0.0 
1.363527102734e-03 -2.293833532527e-04 0.0 
1.092484079565e-02 -1.547454687370e-01 0.0 
2.518731361702e-02 7.230626081747e-03 0.0 
3.726157761133e-02 -9.572209158224e-02 0.0 
1.632424010789e-02 1.060821916319e-02 0.0 
-2.838201950872e-03 -1.152878229549e-03 0.0 
5.183278973429e-02 7.449178065975e-03 0.0 
5.160778037982e-03 1.925880261327e-02 0.0 
-8.182442380358e-03 1.381417523354e-02 0.0 
2.455834192799e-02 -4.994109661008e-03 0.0 
9.162426939228e-03 -1.117672368395e-03 0.0 
1.153688542036e-02 -1.805261863275e-03 0.0 
-3.065601524005e-03 2.005331061416e-02 0.0 
1.741217052307e-01 -4.185699922563e-01 0.0 
-9.422246969463e-03 -4.348519788973e-03 0.0 
3.211611529350e-04 -3.679201432565e-04 0.0 
-7.574985011369e-04 -7.372526720115e-04 0.0 
1.728601527631e-03 4.193422043831e-03 0.0 
-1.321024959849e-02 7.727064833619e-03 0.0 
4.980533688384e-03 1.867896733493e-02 0.0 
1.414845236870e-02 -1.665990710524e-03 0.0 
2.244646052952e-02 6.833878979598e-03 0.0 
-5.784615602272e-03 3.707011445808e-03 0.0 
1.553804872140e-02 -2.329234555717e-03 0.0 
2.209643581887e-01 -4.561757815848e-01 0.0 
1.339867935844e-02 3.549373113921e-03 0.0 
5.927717525611e-03 -1.900389444904e-04 0.0 
3.500703421471e-03 -7.358680596424e-04 0.0 
-6.395605168649e-04 6.854844774889e-04 0.0 
2.544366459673e-03 8.445998567408e-04 0.0 
2.011848011610e-02 -5.108756969791e-03 0.0 
1.987238719852e-02 -2.652055243759e-03 0.0 
4.995421272217e-03 2.641176820128e-04 0.0 
3.583300314593e-02 -7.805001612490e-03 0.0 
-7.806917548120e-03 1.655085162166e-02 0.0 
1.249540058603e-02 5.453717838067e-03 0.0 
-1.553244243835e-03 9.128564184661e-03 0.0 
3.393298226754e-04 -6.804435667388e-04 0.0 
3.818352099606e-03 1.927264511040e-02 0.0 
3.396633455087e-03 4.994010986303e-03 0.0 
-6.821019685283e-04 -1.222763443113e-03 0.0 
4.464812416312e-03 1.532734212273e-02 0.0 
-1.283469465939e-02 5.720794211851e-03 0.0 
2.604148613917e-02 -3.896375384442e-03 0.0 
4.126198334130e-03 -8.527398585657e-04 0.0 
3.174196179632e-03 1.941113722666e-02 0.0 
2.635140289804e-01 -3.442637193258e-01 0.0 
-9.920181608716e-04 9.337367187083e-03 0.0 
2.325870970331e-03 -7.427018187325e-04 0.0 
2.088024313068e-01 -3.887990390994e-01 0.0 
8.632438723054e-03 -1.257368532052e-03 0.0 
4.598013273178e-03 1.044481124401e-03 0.0 
1.380957233940e-02 -8.462968347287e-02 0.0 
8.771265174399e-03 1.927031218530e-03 0.0 
-1.760146673560e-03 6.731707340763e-03 0.0 
-1.879603665668e-03 7.976086242288e-03 0.0 
3.094302108481e-01 -3.539794866256e-01 0.0 
-8.078880362297e-03 1.716977303418e-02 0.0 
-1.256538721828e-02 9.993880081162e-03 0.0 
-8.875855047965e-04 6.736439800428e-03 0.0 
-2.148407561986e-03 7.142664299573e-03 0.0 
-6.430069716198e-03 1.192200440326e-02 0.0 
-8.479831924755e-03 9.924065063047e-03 0.0 
2.126948297691e-02 5.114154507606e-03 0.0 
-1.289316953292e-02 -5.699490633884e-03 0.0 
3.174231913699e-02 -9.117529013731e-03 0.0 
2.300223861835e-01 -3.111188094960e-01 0.0 
5.652748205129e-04 -6.656333945459e-04 0.0 
-1.227081933661e-03 -1.262031161972e-03 0.0 
3.294600169916e-03 4.282223243283e-03 0.0 
3.487575379599e-03 1.238072767895e-03 0.0 
-8.835894264065e-03 1.172831366113e-02 0.0 
-1.002461157387e-02 1.058479027482e-02 0.0 
-6.191063079984e-03 1.070193443032e-02 0.0 
-1.381816226007e-02 4.212658952766e-03 0.0 
2.833915368873e-02 -7.913642143246e-02 0.0 
2.194372277225e-02 -3.277785489807e-03 0.0 
5.868556413269e-03 2.943697327907e-03 0.0 
1.042458415287e-02 -1.390694090488e-03 0.0 
-1.390242216341e-02 5.482386316328e-03 0.0 
1.032837889376e-02 2.223350555390e-03 0.0 
5.011700127981e-02 -1.125335644125e-02 0.0 
-1.683957782984e-03 7.850610515362e-03 0.0 
-1.853928585228e-03 5.853563578562e-03 0.0 
3.066552072141e-01 -3.835584357530e-01 0.0 
5.376942000178e-02 -1.381794750002e-02 0.0 
4.459115152496e-02 -1.091063300791e-02 0.0 
1.931919865218e-02 7.827757804853e-03 0.0 
-9.663164740058e-03 1.250990974919e-02 0.0 
2.924374883845e-01 -4.322605826209e-01 0.0 
4.127003970315e-02 -9.655605733579e-03 0.0 

VECTORS element_materi_displacement float
0.0 0.0 0.0 
0.0 0.0 0.0 
0.0 0.0 0.0 
0.0 0.0 0.0 
0.0 0.0 0.0 
0.0 0.0 0.0 
0.0 0.0 0.0 
0.0 0.0 0.0 
0.0 0.0 0.0 
0.0 0.0 0.0 
0.0 0.0 0.0 
0.0 0.0 0.0 
0.0 0.0 0.0 
0.0 0.0 0.0 
0.0 0.0 0.0 
0.0 0.0 0.0 
0.0 0.0 0.0 
0.0 0.0 0.0 
0.0 0.0 0.0 
0.0 0.0 0.0 
0.0 0.0 0.0 
0.0 0.0 0.0 
0.0 0.0 0.0 
0.0 0.0 0.0 
0.0 0.0 0.0 
0.0 0.0 0.0 
0.0 0.0 0.0 
0.0 0.0 0.0 
0.0 0.0 0.0 
0.0 0.0 0.0 
0.0 0.0 0.0 
0.0 0.0 0.0 
0.0 0.0 0.0 
0.0 0.0 0.0 
0.0 0.0 0.0 
0.0 0.0 0.0 
0.0 0.0 0.0 
0.0 0.0 0.0 
0.0 0.0 0.0 
0.0 0.0 0.0 
0.0 0.0 0.0 
0.0 0.0 0.0 
0.0 0.0 0.0 
0.0 0.0 0.0 
0.0 0.0 0.0 
0.0 0.0 0.0 
0.0 0.0 0.0 
0.0 0.0 0.0 
0.0 0.0 0.0 
0.0 0.0 0.0 
0.0 0.0 0.0 
0.0 0.0 0.0 
0.0 0.0 0.0 
0.0 0.0 0.0 
0.0 0.0 0.0 
0.0 0.0 0.0 
0.0 0.0 0.0 
0.0 0.0 0.0 
0.0 0.0 0.0 
0.0 0.0 0.0 
0.0 0.0 0.0 
0.0 0.0 0.0 
0.0 0.0 0.0 
0.0 0.0 0.0 
0.0 0.0 0.0 
0.0 0.0 0.0 
0.0 0.0 0.0 
0.0 0.0 0.0 
0.0 0.0 0.0 
0.0 0.0 0.0 
0.0 0.0 0.0 
0.0 0.0 0.0 
0.0 0.0 0.0 
0.0 0.0 0.0 
0.0 0.0 0.0 
0.0 0.0 0.0 
0.0 0.0 0.0 
0.0 0.0 0.0 
0.0 0.0 0.0 
0.0 0.0 0.0 
0.0 0.0 0.0 
0.0 0.0 0.0 
0.0 0.0 0.0 
0.0 0.0 0.0 
0.0 0.0 0.0 
0.0 0.0 0.0 
0.0 0.0 0.0 
0.0 0.0 0.0 
0.0 0.0 0.0 
0.0 0.0 0.0 
0.0 0.0 0.0 
0.0 0.0 0.0 
0.0 0.0 0.0 
0.0 0.0 0.0 
0.0 0.0 0.0 
0.0 0.0 0.0 
0.0 0.0 0.0 
0.0 0.0 0.0 
0.0 0.0 0.0 
0.0 0.0 0.0 
0.0 0.0 0.0 
0.0 0.0 0.0 
0.0 0.0 0.0 
0.0 0.0 0.0 
0.0 0.0 0.0 
0.0 0.0 0.0 
0.0 0.0 0.0 
0.0 0.0 0.0 
0.0 0.0 0.0 
0.0 0.0 0.0 
0.0 0.0 0.0 
0.0 0.0 0.0 
0.0 0.0 0.0 
0.0 0.0 0.0 
0.0 0.0 0.0 
0.0 0.0 0.0 
0.0 0.0 0.0 
0.0 0.0 0.0 
0.0 0.0 0.0 
0.0 0.0 0.0 
0.0 0.0 0.0 
0.0 0.0 0.0 
0.0 0.0 0.0 
0.0 0.0 0.0 
0.0 0.0 0.0 
0.0 0.0 0.0 
0.0 0.0 0.0 
0.0 0.0 0.0 
0.0 0.0 0.0 
0.0 0.0 0.0 
0.0 0.0 0.0 
0.0 0.0 0.0 
0.0 0.0 0.0 
0.0 0.0 0.0 
0.0 0.0 0.0 
0.0 0.0 0.0 
0.0 0.0 0.0 
0.0 0.0 0.0 
0.0 0.0 0.0 
0.0 0.0 0.0 
0.0 0.0 0.0 
0.0 0.0 0.0 
0.0 0.0 0.0 
0.0 0.0 0.0 
0.0 0.0 0.0 
0.0 0.0 0.0 
0.0 0.0 0.0 
0.0 0.0 0.0 
0.0 0.0 0.0 
0.0 0.0 0.0 
0.0 0.0 0.0 
0.0 0.0 0.0 
0.0 0.0 0.0 
0.0 0.0 0.0 
0.0 0.0 0.0 
0.0 0.0 0.0 
0.0 0.0 0.0 
0.0 0.0 0.0 
0.0 0.0 0.0 
0.0 0.0 0.0 
0.0 0.0 0.0 
0.0 0.0 0.0 
0.0 0.0 0.0 
0.0 0.0 0.0 
0.0 0.0 0.0 
0.0 0.0 0.0 
0.0 0.0 0.0 
0.0 0.0 0.0 
0.0 0.0 0.0 
0.0 0.0 0.0 
0.0 0.0 0.0 
0.0 0.0 0.0 
0.0 0.0 0.0 
0.0 0.0 0.0 
0.0 0.0 0.0 
0.0 0.0 0.0 
0.0 0.0 0.0 
0.0 0.0 0.0 
0.0 0.0 0.0 
0.0 0.0 0.0 
0.0 0.0 0.0 
0.0 0.0 0.0 
0.0 0.0 0.0 
0.0 0.0 0.0 
0.0 0.0 0.0 
0.0 0.0 0.0 
0.0 0.0 0.0 
0.0 0.0 0.0 
0.0 0.0 0.0 
0.0 0.0 0.0 
0.0 0.0 0.0 
0.0 0.0 0.0 
0.0 0.0 0.0 
0.0 0.0 0.0 
0.0 0.0 0.0 
0.0 0.0 0.0 
0.0 0.0 0.0 
0.0 0.0 0.0 
0.0 0.0 0.0 
0.0 0.0 0.0 
0.0 0.0 0.0 
0.0 0.0 0.0 
0.0 0.0 0.0 
0.0 0.0 0.0 
0.0 0.0 0.0 
0.0 0.0 0.0 
0.0 0.0 0.0 
0.0 0.0 0.0 
0.0 0.0 0.0 
0.0 0.0 0.0 
0.0 0.0 0.0 
0.0 0.0 0.0 
0.0 0.0 0.0 
0.0 0.0 0.0 
0.0 0.0 0.0 
0.0 0.0 0.0 
0.0 0.0 0.0 
0.0 0.0 0.0 
0.0 0.0 0.0 
0.0 0.0 0.0 
0.0 0.0 0.0 
0.0 0.0 0.0 
0.0 0.0 0.0 
0.0 0.0 0.0 
0.0 0.0 0.0 
0.0 0.0 0.0 
0.0 0.0 0.0 
0.0 0.0 0.0 
0.0 0.0 0.0 
0.0 0.0 0.0 
0.0 0.0 0.0 
0.0 0.0 0.0 
0.0 0.0 0.0 
0.0 0.0 0.0 
0.0 0.0 0.0 
0.0 0.0 0.0 
0.0 0.0 0.0 
0.0 0.0 0.0 
0.0 0.0 0.0 
0.0 0.0 0.0 
0.0 0.0 0.0 
0.0 0.0 0.0 
0.0 0.0 0.0 
0.0 0.0 0.0 
0.0 0.0 0.0 
0.0 0.0 0.0 
0.0 0.0 0.0 
0.0 0.0 0.0 
0.0 0.0 0.0 
0.0 0.0 0.0 
0.0 0.0 0.0 
0.0 0.0 0.0 
0.0 0.0 0.0 
0.0 0.0 0.0 
0.0 0.0 0.0 
0.0 0.0 0.0 
0.0 0.0 0.0 
0.0 0.0 0.0 
0.0 0.0 0.0 
0.0 0.0 0.0 
0.0 0.0 0.0 
0.0 0.0 0.0 
0.0 0.0 0.0 
0.0 0.0 0.0 
0.0 0.0 0.0 
0.0 0.0 0.0 
0.0 0.0 0.0 
0.0 0.0 0.0 
0.0 0.0 0.0 
0.0 0.0 0.0 
0.0 0.0 0.0 
0.0 0.0 0.0 
0.0 0.0 0.0 
0.0 0.0 0.0 
0.0 0.0 0.0 
0.0 0.0 0.0 
0.0 0.0 0.0 
0.0 0.0 0.0 
0.0 0.0 0.0 
0.0 0.0 0.0 
0.0 0.0 0.0 
0.0 0.0 0.0 
0.0 0.0 0.0 
0.0 0.0 0.0 
0.0 0.0 0.0 
0.0 0.0 0.0 
0.0 0.0 0.0 
0.0 0.0 0.0 
0.0 0.0 0.0 
0.0 0.0 0.0 
0.0 0.0 0.0 
0.0 0.0 0.0 
0.0 0.0 0.0 
0.0 0.0 0.0 
0.0 0.0 0.0 
0.0 0.0 0.0 
0.0 0.0 0.0 
0.0 0.0 0.0 
0.0 0.0 0.0 
0.0 0.0 0.0 
0.0 0.0 0.0 
0.0 0.0 0.0 
0.0 0.0 0.0 
0.0 0.0 0.0 
0.0 0.0 0.0 
0.0 0.0 0.0 
0.0 0.0 0.0 
0.0 0.0 0.0 
0.0 0.0 0.0 
0.0 0.0 0.0 
0.0 0.0 0.0 
0.0 0.0 0.0 
0.0 0.0 0.0 
0.0 0.0 0.0 
0.0 0.0 0.0 
0.0 0.0 0.0 
0.0 0.0 0.0 
0.0 0.0 0.0 
0.0 0.0 0.0 
0.0 0.0 0.0 
0.0 0.0 0.0 
0.0 0.0 0.0 
0.0 0.0 0.0 
0.0 0.0 0.0 
0.0 0.0 0.0 
0.0 0.0 0.0 
0.0 0.0 0.0 
0.0 0.0 0.0 
0.0 0.0 0.0 
0.0 0.0 0.0 
0.0 0.0 0.0 
0.0 0.0 0.0 
0.0 0.0 0.0 
0.0 0.0 0.0 
0.0 0.0 0.0 
0.0 0.0 0.0 
0.0 0.0 0.0 
0.0 0.0 0.0 
0.0 0.0 0.0 
0.0 0.0 0.0 
0.0 0.0 0.0 
0.0 0.0 0.0 
0.0 0.0 0.0 
0.0 0.0 0.0 
0.0 0.0 0.0 
0.0 0.0 0.0 
0.0 0.0 0.0 
0.0 0.0 0.0 
0.0 0.0 0.0 
0.0 0.0 0.0 
0.0 0.0 0.0 
0.0 0.0 0.0 
0.0 0.0 0.0 
0.0 0.0 0.0 
0.0 0.0 0.0 
0.0 0.0 0.0 
0.0 0.0 0.0 
0.0 0.0 0.0 
0.0 0.0 0.0 
0.0 0.0 0.0 
0.0 0.0 0.0 
0.0 0.0 0.0 
0.0 0.0 0.0 
0.0 0.0 0.0 
0.0 0.0 0.0 
0.0 0.0 0.0 
0.0 0.0 0.0 
0.0 0.0 0.0 
0.0 0.0 0.0 
0.0 0.0 0.0 
0.0 0.0 0.0 
0.0 0.0 0.0 
0.0 0.0 0.0 
0.0 0.0 0.0 
0.0 0.0 0.0 
0.0 0.0 0.0 
0.0 0.0 0.0 
0.0 0.0 0.0 
0.0 0.0 0.0 
0.0 0.0 0.0 
0.0 0.0 0.0 
0.0 0.0 0.0 
0.0 0.0 0.0 
0.0 0.0 0.0 
0.0 0.0 0.0 
0.0 0.0 0.0 
0.0 0.0 0.0 
0.0 0.0 0.0 
0.0 0.0 0.0 
0.0 0.0 0.0 
0.0 0.0 0.0 
0.0 0.0 0.0 
0.0 0.0 0.0 
0.0 0.0 0.0 
0.0 0.0 0.0 
0.0 0.0 0.0 
0.0 0.0 0.0 
0.0 0.0 0.0 
0.0 0.0 0.0 
0.0 0.0 0.0 
0.0 0.0 0.0 
0.0 0.0 0.0 
0.0 0.0 0.0 
0.0 0.0 0.0 
0.0 0.0 0.0 
0.0 0.0 0.0 
0.0 0.0 0.0 
0.0 0.0 0.0 
0.0 0.0 0.0 
0.0 0.0 0.0 
0.0 0.0 0.0 
0.0 0.0 0.0 
0.0 0.0 0.0 
0.0 0.0 0.0 
0.0 0.0 0.0 
0.0 0.0 0.0 
0.0 0.0 0.0 
0.0 0.0 0.0 
0.0 0.0 0.0 
0.0 0.0 0.0 
0.0 0.0 0.0 
0.0 0.0 0.0 
0.0 0.0 0.0 
0.0 0.0 0.0 
0.0 0.0 0.0 
0.0 0.0 0.0 
0.0 0.0 0.0 
0.0 0.0 0.0 
0.0 0.0 0.0 
0.0 0.0 0.0 
0.0 0.0 0.0 
0.0 0.0 0.0 
0.0 0.0 0.0 
0.0 0.0 0.0 
0.0 0.0 0.0 
0.0 0.0 0.0 
0.0 0.0 0.0 
0.0 0.0 0.0 
0.0 0.0 0.0 
0.0 0.0 0.0 
0.0 0.0 0.0 
0.0 0.0 0.0 
0.0 0.0 0.0 
0.0 0.0 0.0 
0.0 0.0 0.0 
0.0 0.0 0.0 
0.0 0.0 0.0 
0.0 0.0 0.0 
0.0 0.0 0.0 
0.0 0.0 0.0 
0.0 0.0 0.0 
0.0 0.0 0.0 
0.0 0.0 0.0 
0.0 0.0 0.0 
0.0 0.0 0.0 
0.0 0.0 0.0 
0.0 0.0 0.0 
0.0 0.0 0.0 
0.0 0.0 0.0 
0.0 0.0 0.0 
0.0 0.0 0.0 
0.0 0.0 0.0 
0.0 0.0 0.0 
0.0 0.0 0.0 
0.0 0.0 0.0 
0.0 0.0 0.0 
0.0 0.0 0.0 
0.0 0.0 0.0 
0.0 0.0 0.0 
0.0 0.0 0.0 
0.0 0.0 0.0 
0.0 0.0 0.0 
0.0 0.0 0.0 
0.0 0.0 0.0 
0.0 0.0 0.0 
0.0 0.0 0.0 
0.0 0.0 0.0 
0.0 0.0 0.0 
0.0 0.0 0.0 
0.0 0.0 0.0 
0.0 0.0 0.0 
0.0 0.0 0.0 
0.0 0.0 0.0 
0.0 0.0 0.0 
0.0 0.0 0.0 
0.0 0.0 0.0 
0.0 0.0 0.0 
0.0 0.0 0.0 
0.0 0.0 0.0 
0.0 0.0 0.0 
0.0 0.0 0.0 
0.0 0.0 0.0 
0.0 0.0 0.0 
0.0 0.0 0.0 
0.0 0.0 0.0 
0.0 0.0 0.0 
0.0 0.0 0.0 
0.0 0.0 0.0 
0.0 0.0 0.0 
0.0 0.0 0.0 
0.0 0.0 0.0 
0.0 0.0 0.0 
0.0 0.0 0.0 
0.0 0.0 0.0 
0.0 0.0 0.0 
0.0 0.0 0.0 
0.0 0.0 0.0 
0.0 0.0 0.0 
0.0 0.0 0.0 
0.0 0.0 0.0 
0.0 0.0 0.0 
0.0 0.0 0.0 
0.0 0.0 0.0 
0.0 0.0 0.0 
0.0 0.0 0.0 
0.0 0.0 0.0 
0.0 0.0 0.0 
0.0 0.0 0.0 
0.0 0.0 0.0 
0.0 0.0 0.0 
0.0 0.0 0.0 
0.0 0.0 0.0 
0.0 0.0 0.0 
0.0 0.0 0.0 
0.0 0.0 0.0 
0.0 0.0 0.0 
0.0 0.0 0.0 
0.0 0.0 0.0 
0.0 0.0 0.0 
0.0 0.0 0.0 
0.0 0.0 0.0 
0.0 0.0 0.0 
0.0 0.0 0.0 
0.0 0.0 0.0 
0.0 0.0 0.0 
0.0 0.0 0.0 
0.0 0.0 0.0 
0.0 0.0 0.0 
0.0 0.0 0.0 
0.0 0.0 0.0 
0.0 0.0 0.0 
0.0 0.0 0.0 
0.0 0.0 0.0 
0.0 0.0 0.0 
0.0 0.0 0.0 
0.0 0.0 0.0 
0.0 0.0 0.0 
0.0 0.0 0.0 
0.0 0.0 0.0 
0.0 0.0 0.0 
0.0 0.0 0.0 
0.0 0.0 0.0 
0.0 0.0 0.0 
0.0 0.0 0.0 
0.0 0.0 0.0 
0.0 0.0 0.0 
0.0 0.0 0.0 
0.0 0.0 0.0 
0.0 0.0 0.0 
0.0 0.0 0.0 
0.0 0.0 0.0 
0.0 0.0 0.0 
0.0 0.0 0.0 
0.0 0.0 0.0 
0.0 0.0 0.0 
0.0 0.0 0.0 
0.0 0.0 0.0 
0.0 0.0 0.0 
0.0 0.0 0.0 
0.0 0.0 0.0 
0.0 0.0 0.0 
0.0 0.0 0.0 
0.0 0.0 0.0 
0.0 0.0 0.0 
0.0 0.0 0.0 
0.0 0.0 0.0 
0.0 0.0 0.0 
0.0 0.0 0.0 
0.0 0.0 0.0 
0.0 0.0 0.0 
0.0 0.0 0.0 
0.0 0.0 0.0 
0.0 0.0 0.0 
0.0 0.0 0.0 
0.0 0.0 0.0 
0.0 0.0 0.0 
0.0 0.0 0.0 
0.0 0.0 0.0 
0.0 0.0 0.0 
0.0 0.0 0.0 
0.0 0.0 0.0 
0.0 0.0 0.0 
0.0 0.0 0.0 
0.0 0.0 0.0 
0.0 0.0 0.0 
0.0 0.0 0.0 
0.0 0.0 0.0 
0.0 0.0 0.0 
0.0 0.0 0.0 
0.0 0.0 0.0 
0.0 0.0 0.0 
0.0 0.0 0.0 
0.0 0.0 0.0 
0.0 0.0 0.0 
0.0 0.0 0.0 
0.0 0.0 0.0 
0.0 0.0 0.0 
0.0 0.0 0.0 
0.0 0.0 0.0 
0.0 0.0 0.0 
0.0 0.0 0.0 
0.0 0.0 0.0 
0.0 0.0 0.0 
0.0 0.0 0.0 
0.0 0.0 0.0 
0.0 0.0 0.0 
0.0 0.0 0.0 
0.0 0.0 0.0 
0.0 0.0 0.0 
0.0 0.0 0.0 
0.0 0.0 0.0 
0.0 0.0 0.0 
0.0 0.0 0.0 
0.0 0.0 0.0 
0.0 0.0 0.0 
0.0 0.0 0.0 
0.0 0.0 0.0 
0.0 0.0 0.0 
0.0 0.0 0.0 
0.0 0.0 0.0 
0.0 0.0 0.0 
0.0 0.0 0.0 
0.0 0.0 0.0 
0.0 0.0 0.0 
0.0 0.0 0.0 
0.0 0.0 0.0 
0.0 0.0 0.0 
0.0 0.0 0.0 
0.0 0.0 0.0 
0.0 0.0 0.0 
0.0 0.0 0.0 
0.0 0.0 0.0 
0.0 0.0 0.0 
0.0 0.0 0.0 
0.0 0.0 0.0 
0.0 0.0 0.0 
0.0 0.0 0.0 
0.0 0.0 0.0 
0.0 0.0 0.0 
0.0 0.0 0.0 
0.0 0.0 0.0 
0.0 0.0 0.0 
0.0 0.0 0.0 
0.0 0.0 0.0 
0.0 0.0 0.0 
0.0 0.0 0.0 
0.0 0.0 0.0 
0.0 0.0 0.0 
0.0 0.0 0.0 
0.0 0.0 0.0 
0.0 0.0 0.0 
0.0 0.0 0.0 
0.0 0.0 0.0 
0.0 0.0 0.0 
0.0 0.0 0.0 
0.0 0.0 0.0 
0.0 0.0 0.0 
0.0 0.0 0.0 
0.0 0.0 0.0 
0.0 0.0 0.0 
0.0 0.0 0.0 
0.0 0.0 0.0 
0.0 0.0 0.0 
0.0 0.0 0.0 
0.0 0.0 0.0 
0.0 0.0 0.0 
0.0 0.0 0.0 
0.0 0.0 0.0 
0.0 0.0 0.0 
0.0 0.0 0.0 
0.0 0.0 0.0 
0.0 0.0 0.0 
0.0 0.0 0.0 
0.0 0.0 0.0 
0.0 0.0 0.0 
0.0 0.0 0.0 
0.0 0.0 0.0 
0.0 0.0 0.0 
0.0 0.0 0.0 
0.0 0.0 0.0 
0.0 0.0 0.0 
0.0 0.0 0.0 
0.0 0.0 0.0 
0.0 0.0 0.0 
0.0 0.0 0.0 
0.0 0.0 0.0 
0.0 0.0 0.0 
0.0 0.0 0.0 
0.0 0.0 0.0 
0.0 0.0 0.0 
0.0 0.0 0.0 
0.0 0.0 0.0 
0.0 0.0 0.0 
0.0 0.0 0.0 
0.0 0.0 0.0 
0.0 0.0 0.0 
0.0 0.0 0.0 
0.0 0.0 0.0 
0.0 0.0 0.0 
0.0 0.0 0.0 
0.0 0.0 0.0 
0.0 0.0 0.0 
0.0 0.0 0.0 
0.0 0.0 0.0 
0.0 0.0 0.0 
0.0 0.0 0.0 
0.0 0.0 0.0 
0.0 0.0 0.0 
0.0 0.0 0.0 
0.0 0.0 0.0 
0.0 0.0 0.0 
0.0 0.0 0.0 
0.0 0.0 0.0 
0.0 0.0 0.0 
0.0 0.0 0.0 
0.0 0.0 0.0 
0.0 0.0 0.0 
0.0 0.0 0.0 
0.0 0.0 0.0 
0.0 0.0 0.0 
0.0 0.0 0.0 
0.0 0.0 0.0 
0.0 0.0 0.0 
0.0 0.0 0.0 
0.0 0.0 0.0 
0.0 0.0 0.0 
0.0 0.0 0.0 
0.0 0.0 0.0 
0.0 0.0 0.0 
0.0 0.0 0.0 
0.0 0.0 0.0 
0.0 0.0 0.0 
0.0 0.0 0.0 
0.0 0.0 0.0 
0.0 0.0 0.0 
0.0 0.0 0.0 
0.0 0.0 0.0 
0.0 0.0 0.0 
0.0 0.0 0.0 
0.0 0.0 0.0 
0.0 0.0 0.0 
0.0 0.0 0.0 
0.0 0.0 0.0 
0.0 0.0 0.0 
0.0 0.0 0.0 
0.0 0.0 0.0 
0.0 0.0 0.0 
0.0 0.0 0.0 
0.0 0.0 0.0 
0.0 0.0 0.0 
0.0 0.0 0.0 
0.0 0.0 0.0 
0.0 0.0 0.0 
0.0 0.0 0.0 
0.0 0.0 0.0 
0.0 0.0 0.0 
0.0 0.0 0.0 
0.0 0.0 0.0 
0.0 0.0 0.0 
0.0 0.0 0.0 
0.0 0.0 0.0 
0.0 0.0 0.0 
0.0 0.0 0.0 
0.0 0.0 0.0 
0.0 0.0 0.0 
0.0 0.0 0.0 
0.0 0.0 0.0 
0.0 0.0 0.0 
0.0 0.0 0.0 
0.0 0.0 0.0 
0.0 0.0 0.0 
0.0 0.0 0.0 
0.0 0.0 0.0 
0.0 0.0 0.0 
0.0 0.0 0.0 
0.0 0.0 0.0 
0.0 0.0 0.0 
0.0 0.0 0.0 
0.0 0.0 0.0 
0.0 0.0 0.0 
0.0 0.0 0.0 
0.0 0.0 0.0 
0.0 0.0 0.0 
0.0 0.0 0.0 
0.0 0.0 0.0 
0.0 0.0 0.0 
0.0 0.0 0.0 
0.0 0.0 0.0 
0.0 0.0 0.0 
0.0 0.0 0.0 
0.0 0.0 0.0 
0.0 0.0 0.0 
0.0 0.0 0.0 
0.0 0.0 0.0 
0.0 0.0 0.0 
0.0 0.0 0.0 
0.0 0.0 0.0 
0.0 0.0 0.0 
0.0 0.0 0.0 
0.0 0.0 0.0 
0.0 0.0 0.0 
0.0 0.0 0.0 
0.0 0.0 0.0 
0.0 0.0 0.0 
0.0 0.0 0.0 
0.0 0.0 0.0 
0.0 0.0 0.0 
0.0 0.0 0.0 
0.0 0.0 0.0 
0.0 0.0 0.0 
0.0 0.0 0.0 
0.0 0.0 0.0 
0.0 0.0 0.0 
0.0 0.0 0.0 
0.0 0.0 0.0 
0.0 0.0 0.0 
0.0 0.0 0.0 
0.0 0.0 0.0 
0.0 0.0 0.0 
0.0 0.0 0.0 
0.0 0.0 0.0 
0.0 0.0 0.0 
0.0 0.0 0.0 
0.0 0.0 0.0 
0.0 0.0 0.0 
0.0 0.0 0.0 
0.0 0.0 0.0 
0.0 0.0 0.0 
0.0 0.0 0.0 
0.0 0.0 0.0 
0.0 0.0 0.0 
0.0 0.0 0.0 
0.0 0.0 0.0 
0.0 0.0 0.0 
0.0 0.0 0.0 
0.0 0.0 0.0 
0.0 0.0 0.0 
0.0 0.0 0.0 
0.0 0.0 0.0 
0.0 0.0 0.0 
0.0 0.0 0.0 
0.0 0.0 0.0 
0.0 0.0 0.0 
0.0 0.0 0.0 
0.0 0.0 0.0 
0.0 0.0 0.0 
0.0 0.0 0.0 
0.0 0.0 0.0 
0.0 0.0 0.0 
0.0 0.0 0.0 
0.0 0.0 0.0 
0.0 0.0 0.0 
0.0 0.0 0.0 
0.0 0.0 0.0 
0.0 0.0 0.0 
0.0 0.0 0.0 
0.0 0.0 0.0 
0.0 0.0 0.0 
0.0 0.0 0.0 
0.0 0.0 0.0 
0.0 0.0 0.0 
0.0 0.0 0.0 
0.0 0.0 0.0 
0.0 0.0 0.0 
0.0 0.0 0.0 
0.0 0.0 0.0 
0.0 0.0 0.0 
0.0 0.0 0.0 
0.0 0.0 0.0 
0.0 0.0 0.0 
0.0 0.0 0.0 
0.0 0.0 0.0 
0.0 0.0 0.0 
0.0 0.0 0.0 
0.0 0.0 0.0 
0.0 0.0 0.0 
0.0 0.0 0.0 
0.0 0.0 0.0 
0.0 0.0 0.0 
0.0 0.0 0.0 
0.0 0.0 0.0 
0.0 0.0 0.0 
0.0 0.0 0.0 
0.0 0.0 0.0 
0.0 0.0 0.0 
0.0 0.0 0.0 
0.0 0.0 0.0 
0.0 0.0 0.0 
0.0 0.0 0.0 
0.0 0.0 0.0 
0.0 0.0 0.0 
0.0 0.0 0.0 
0.0 0.0 0.0 
0.0 0.0 0.0 
0.0 0.0 0.0 
0.0 0.0 0.0 
0.0 0.0 0.0 
0.0 0.0 0.0 
0.0 0.0 0.0 
0.0 0.0 0.0 
0.0 0.0 0.0 
0.0 0.0 0.0 
0.0 0.0 0.0 
0.0 0.0 0.0 
0.0 0.0 0.0 
0.0 0.0 0.0 
0.0 0.0 0.0 
0.0 0.0 0.0 
0.0 0.0 0.0 
0.0 0.0 0.0 
0.0 0.0 0.0 
0.0 0.0 0.0 
0.0 0.0 0.0 
0.0 0.0 0.0 
0.0 0.0 0.0 
0.0 0.0 0.0 
0.0 0.0 0.0 
0.0 0.0 0.0 
0.0 0.0 0.0 
0.0 0.0 0.0 
0.0 0.0 0.0 
0.0 0.0 0.0 
0.0 0.0 0.0 
0.0 0.0 0.0 
0.0 0.0 0.0 
0.0 0.0 0.0 
0.0 0.0 0.0 
0.0 0.0 0.0 
0.0 0.0 0.0 
0.0 0.0 0.0 
0.0 0.0 0.0 
0.0 0.0 0.0 
0.0 0.0 0.0 
0.0 0.0 0.0 
0.0 0.0 0.0 
0.0 0.0 0.0 
0.0 0.0 0.0 
0.0 0.0 0.0 
0.0 0.0 0.0 
0.0 0.0 0.0 
0.0 0.0 0.0 
0.0 0.0 0.0 
0.0 0.0 0.0 
0.0 0.0 0.0 
0.0 0.0 0.0 
0.0 0.0 0.0 
0.0 0.0 0.0 
0.0 0.0 0.0 
0.0 0.0 0.0 
0.0 0.0 0.0 
0.0 0.0 0.0 
0.0 0.0 0.0 
0.0 0.0 0.0 
0.0 0.0 0.0 
0.0 0.0 0.0 
0.0 0.0 0.0 
0.0 0.0 0.0 
0.0 0.0 0.0 
0.0 0.0 0.0 
0.0 0.0 0.0 
0.0 0.0 0.0 
0.0 0.0 0.0 
0.0 0.0 0.0 
0.0 0.0 0.0 
0.0 0.0 0.0 
0.0 0.0 0.0 
0.0 0.0 0.0 
0.0 0.0 0.0 
0.0 0.0 0.0 
0.0 0.0 0.0 
0.0 0.0 0.0 
0.0 0.0 0.0 
0.0 0.0 0.0 
0.0 0.0 0.0 
0.0 0.0 0.0 
0.0 0.0 0.0 
0.0 0.0 0.0 
0.0 0.0 0.0 
0.0 0.0 0.0 
0.0 0.0 0.0 
0.0 0.0 0.0 
0.0 0.0 0.0 
0.0 0.0 0.0 
0.0 0.0 0.0 
0.0 0.0 0.0 
0.0 0.0 0.0 
0.0 0.0 0.0 
0.0 0.0 0.0 
0.0 0.0 0.0 
0.0 0.0 0.0 
0.0 0.0 0.0 
0.0 0.0 0.0 
0.0 0.0 0.0 
0.0 0.0 0.0 
0.0 0.0 0.0 
0.0 0.0 0.0 
0.0 0.0 0.0 
0.0 0.0 0.0 
0.0 0.0 0.0 
0.0 0.0 0.0 
0.0 0.0 0.0 
0.0 0.0 0.0 
0.0 0.0 0.0 
0.0 0.0 0.0 
0.0 0.0 0.0 
0.0 0.0 0.0 
0.0 0.0 0.0 
0.0 0.0 0.0 
0.0 0.0 0.0 
0.0 0.0 0.0 
0.0 0.0 0.0 
0.0 0.0 0.0 
0.0 0.0 0.0 
0.0 0.0 0.0 
0.0 0.0 0.0 
0.0 0.0 0.0 
0.0 0.0 0.0 
0.0 0.0 0.0 
0.0 0.0 0.0 
0.0 0.0 0.0 
0.0 0.0 0.0 
0.0 0.0 0.0 
0.0 0.0 0.0 
0.0 0.0 0.0 
0.0 0.0 0.0 
0.0 0.0 0.0 
0.0 0.0 0.0 
0.0 0.0 0.0 
0.0 0.0 0.0 
0.0 0.0 0.0 
0.0 0.0 0.0 
0.0 0.0 0.0 
0.0 0.0 0.0 
0.0 0.0 0.0 
0.0 0.0 0.0 
0.0 0.0 0.0 
0.0 0.0 0.0 
0.0 0.0 0.0 
0.0 0.0 0.0 
0.0 0.0 0.0 
0.0 0.0 0.0 
0.0 0.0 0.0 
0.0 0.0 0.0 
0.0 0.0 0.0 
0.0 0.0 0.0 
0.0 0.0 0.0 
0.0 0.0 0.0 
0.0 0.0 0.0 
0.0 0.0 0.0 
0.0 0.0 0.0 
0.0 0.0 0.0 
0.0 0.0 0.0 
0.0 0.0 0.0 
0.0 0.0 0.0 
0.0 0.0 0.0 
0.0 0.0 0.0 
0.0 0.0 0.0 
0.0 0.0 0.0 
0.0 0.0 0.0 
0.0 0.0 0.0 
0.0 0.0 0.0 
0.0 0.0 0.0 
0.0 0.0 0.0 
0.0 0.0 0.0 
0.0 0.0 0.0 
0.0 0.0 0.0 
0.0 0.0 0.0 
0.0 0.0 0.0 
0.0 0.0 0.0 
0.0 0.0 0.0 
0.0 0.0 0.0 
0.0 0.0 0.0 
0.0 0.0 0.0 
0.0 0.0 0.0 
0.0 0.0 0.0 
0.0 0.0 0.0 
0.0 0.0 0.0 
0.0 0.0 0.0 
0.0 0.0 0.0 
0.0 0.0 0.0 
0.0 0.0 0.0 
0.0 0.0 0.0 
0.0 0.0 0.0 
0.0 0.0 0.0 
0.0 0.0 0.0 
0.0 0.0 0.0 
0.0 0.0 0.0 
0.0 0.0 0.0 
0.0 0.0 0.0 
0.0 0.0 0.0 
0.0 0.0 0.0 
0.0 0.0 0.0 
0.0 0.0 0.0 
0.0 0.0 0.0 
0.0 0.0 0.0 
0.0 0.0 0.0 
0.0 0.0 0.0 
0.0 0.0 0.0 
0.0 0.0 0.0 
0.0 0.0 0.0 
0.0 0.0 0.0 
0.0 0.0 0.0 
0.0 0.0 0.0 
0.0 0.0 0.0 
0.0 0.0 0.0 
0.0 0.0 0.0 
0.0 0.0 0.0 
0.0 0.0 0.0 
0.0 0.0 0.0 
0.0 0.0 0.0 
0.0 0.0 0.0 
0.0 0.0 0.0 
0.0 0.0 0.0 
0.0 0.0 0.0 
0.0 0.0 0.0 
0.0 0.0 0.0 
0.0 0.0 0.0 
0.0 0.0 0.0 
0.0 0.0 0.0 
0.0 0.0 0.0 
0.0 0.0 0.0 
0.0 0.0 0.0 
0.0 0.0 0.0 
0.0 0.0 0.0 
0.0 0.0 0.0 
0.0 0.0 0.0 
0.0 0.0 0.0 
0.0 0.0 0.0 
0.0 0.0 0.0 
0.0 0.0 0.0 
0.0 0.0 0.0 
0.0 0.0 0.0 
0.0 0.0 0.0 
0.0 0.0 0.0 
0.0 0.0 0.0 
0.0 0.0 0.0 
0.0 0.0 0.0 
0.0 0.0 0.0 
0.0 0.0 0.0 
0.0 0.0 0.0 
0.0 0.0 0.0 
0.0 0.0 0.0 
0.0 0.0 0.0 
0.0 0.0 0.0 
0.0 0.0 0.0 
0.0 0.0 0.0 
0.0 0.0 0.0 
0.0 0.0 0.0 
0.0 0.0 0.0 
0.0 0.0 0.0 
0.0 0.0 0.0 
0.0 0.0 0.0 
0.0 0.0 0.0 
0.0 0.0 0.0 
0.0 0.0 0.0 
0.0 0.0 0.0 
0.0 0.0 0.0 
0.0 0.0 0.0 
0.0 0.0 0.0 
0.0 0.0 0.0 
0.0 0.0 0.0 
0.0 0.0 0.0 
0.0 0.0 0.0 
0.0 0.0 0.0 
0.0 0.0 0.0 
0.0 0.0 0.0 
0.0 0.0 0.0 
0.0 0.0 0.0 
0.0 0.0 0.0 
0.0 0.0 0.0 
0.0 0.0 0.0 
0.0 0.0 0.0 
0.0 0.0 0.0 
0.0 0.0 0.0 
0.0 0.0 0.0 
0.0 0.0 0.0 
0.0 0.0 0.0 
0.0 0.0 0.0 
0.0 0.0 0.0 
0.0 0.0 0.0 
0.0 0.0 0.0 
0.0 0.0 0.0 
0.0 0.0 0.0 
0.0 0.0 0.0 
0.0 0.0 0.0 
0.0 0.0 0.0 
0.0 0.0 0.0 
0.0 0.0 0.0 
0.0 0.0 0.0 
0.0 0.0 0.0 
0.0 0.0 0.0 
0.0 0.0 0.0 
0.0 0.0 0.0 
0.0 0.0 0.0 
0.0 0.0 0.0 
0.0 0.0 0.0 
0.0 0.0 0.0 
0.0 0.0 0.0 
0.0 0.0 0.0 
0.0 0.0 0.0 
0.0 0.0 0.0 
0.0 0.0 0.0 
0.0 0.0 0.0 
0.0 0.0 0.0 
0.0 0.0 0.0 
0.0 0.0 0.0 
0.0 0.0 0.0 
0.0 0.0 0.0 
0.0 0.0 0.0 
0.0 0.0 0.0 
0.0 0.0 0.0 
0.0 0.0 0.0 
0.0 0.0 0.0 
0.0 0.0 0.0 
0.0 0.0 0.0 
0.0 0.0 0.0 
0.0 0.0 0.0 
0.0 0.0 0.0 
0.0 0.0 0.0 
0.0 0.0 0.0 
0.0 0.0 0.0 
0.0 0.0 0.0 
0.0 0.0 0.0 
0.0 0.0 0.0 
0.0 0.0 0.0 
0.0 0.0 0.0 
0.0 0.0 0.0 
0.0 0.0 0.0 
0.0 0.0 0.0 
0.0 0.0 0.0 
0.0 0.0 0.0 
0.0 0.0 0.0 
0.0 0.0 0.0 
0.0 0.0 0.0 
0.0 0.0 0.0 
0.0 0.0 0.0 
0.0 0.0 0.0 
0.0 0.0 0.0 
0.0 0.0 0.0 
0.0 0.0 0.0 
0.0 0.0 0.0 
0.0 0.0 0.0 
0.0 0.0 0.0 
0.0 0.0 0.0 
0.0 0.0 0.0 
0.0 0.0 0.0 
0.0 0.0 0.0 
0.0 0.0 0.0 
0.0 0.0 0.0 
0.0 0.0 0.0 
0.0 0.0 0.0 
0.0 0.0 0.0 
0.0 0.0 0.0 
0.0 0.0 0.0 
0.0 0.0 0.0 
0.0 0.0 0.0 
0.0 0.0 0.0 
0.0 0.0 0.0 
0.0 0.0 0.0 
0.0 0.0 0.0 
0.0 0.0 0.0 
0.0 0.0 0.0 
0.0 0.0 0.0 
0.0 0.0 0.0 
0.0 0.0 0.0 
0.0 0.0 0.0 
0.0 0.0 0.0 
0.0 0.0 0.0 
0.0 0.0 0.0 
0.0 0.0 0.0 
0.0 0.0 0.0 
0.0 0.0 0.0 
0.0 0.0 0.0 
0.0 0.0 0.0 
0.0 0.0 0.0 
0.0 0.0 0.0 
0.0 0.0 0.0 
0.0 0.0 0.0 
0.0 0.0 0.0 
0.0 0.0 0.0 
0.0 0.0 0.0 
0.0 0.0 0.0 
0.0 0.0 0.0 
0.0 0.0 0.0 
0.0 0.0 0.0 
0.0 0.0 0.0 
0.0 0.0 0.0 
0.0 0.0 0.0 
0.0 0.0 0.0 
0.0 0.0 0.0 
0.0 0.0 0.0 
0.0 0.0 0.0 
0.0 0.0 0.0 
0.0 0.0 0.0 
0.0 0.0 0.0 
0.0 0.0 0.0 
0.0 0.0 0.0 
0.0 0.0 0.0 
0.0 0.0 0.0 
0.0 0.0 0.0 
0.0 0.0 0.0 
0.0 0.0 0.0 
0.0 0.0 0.0 
0.0 0.0 0.0 
0.0 0.0 0.0 
0.0 0.0 0.0 
0.0 0.0 0.0 
0.0 0.0 0.0 
0.0 0.0 0.0 
0.0 0.0 0.0 
0.0 0.0 0.0 
0.0 0.0 0.0 
0.0 0.0 0.0 
0.0 0.0 0.0 
0.0 0.0 0.0 
0.0 0.0 0.0 
0.0 0.0 0.0 
0.0 0.0 0.0 
0.0 0.0 0.0 
0.0 0.0 0.0 
0.0 0.0 0.0 
0.0 0.0 0.0 
0.0 0.0 0.0 
0.0 0.0 0.0 
0.0 0.0 0.0 
0.0 0.0 0.0 
0.0 0.0 0.0 
0.0 0.0 0.0 
0.0 0.0 0.0 
0.0 0.0 0.0 
0.0 0.0 0.0 
0.0 0.0 0.0 
0.0 0.0 0.0 
0.0 0.0 0.0 
0.0 0.0 0.0 
0.0 0.0 0.0 
0.0 0.0 0.0 
0.0 0.0 0.0 
0.0 0.0 0.0 
0.0 0.0 0.0 
0.0 0.0 0.0 
0.0 0.0 0.0 
0.0 0.0 0.0 
0.0 0.0 0.0 
0.0 0.0 0.0 
0.0 0.0 0.0 
0.0 0.0 0.0 
0.0 0.0 0.0 
0.0 0.0 0.0 
0.0 0.0 0.0 
0.0 0.0 0.0 
0.0 0.0 0.0 
0.0 0.0 0.0 
0.0 0.0 0.0 
0.0 0.0 0.0 
0.0 0.0 0.0 
0.0 0.0 0.0 
0.0 0.0 0.0 
0.0 0.0 0.0 
0.0 0.0 0.0 
0.0 0.0 0.0 
0.0 0.0 0.0 
0.0 0.0 0.0 
0.0 0.0 0.0 
0.0 0.0 0.0 
0.0 0.0 0.0 
0.0 0.0 0.0 
0.0 0.0 0.0 
0.0 0.0 0.0 
0.0 0.0 0.0 
0.0 0.0 0.0 
0.0 0.0 0.0 
0.0 0.0 0.0 
0.0 0.0 0.0 
0.0 0.0 0.0 
0.0 0.0 0.0 
0.0 0.0 0.0 
0.0 0.0 0.0 
0.0 0.0 0.0 
0.0 0.0 0.0 
0.0 0.0 0.0 
0.0 0.0 0.0 
0.0 0.0 0.0 
0.0 0.0 0.0 
0.0 0.0 0.0 
0.0 0.0 0.0 
0.0 0.0 0.0 
0.0 0.0 0.0 
0.0 0.0 0.0 
0.0 0.0 0.0 
0.0 0.0 0.0 
0.0 0.0 0.0 
0.0 0.0 0.0 
0.0 0.0 0.0 
0.0 0.0 0.0 
0.0 0.0 0.0 
0.0 0.0 0.0 
0.0 0.0 0.0 
0.0 0.0 0.0 
0.0 0.0 0.0 
0.0 0.0 0.0 
0.0 0.0 0.0 
0.0 0.0 0.0 
0.0 0.0 0.0 
0.0 0.0 0.0 
0.0 0.0 0.0 
0.0 0.0 0.0 
0.0 0.0 0.0 
0.0 0.0 0.0 
0.0 0.0 0.0 
0.0 0.0 0.0 
0.0 0.0 0.0 
0.0 0.0 0.0 
0.0 0.0 0.0 
0.0 0.0 0.0 
0.0 0.0 0.0 
0.0 0.0 0.0 
0.0 0.0 0.0 
0.0 0.0 0.0 
0.0 0.0 0.0 
0.0 0.0 0.0 
0.0 0.0 0.0 
0.0 0.0 0.0 
0.0 0.0 0.0 
0.0 0.0 0.0 
0.0 0.0 0.0 
0.0 0.0 0.0 
0.0 0.0 0.0 
0.0 0.0 0.0 
0.0 0.0 0.0 
0.0 0.0 0.0 
0.0 0.0 0.0 
0.0 0.0 0.0 
0.0 0.0 0.0 
0.0 0.0 0.0 
0.0 0.0 0.0 
0.0 0.0 0.0 
0.0 0.0 0.0 
0.0 0.0 0.0 
0.0 0.0 0.0 
0.0 0.0 0.0 
0.0 0.0 0.0 
0.0 0.0 0.0 
0.0 0.0 0.0 
0.0 0.0 0.0 
0.0 0.0 0.0 
0.0 0.0 0.0 
0.0 0.0 0.0 
0.0 0.0 0.0 
0.0 0.0 0.0 
0.0 0.0 0.0 
0.0 0.0 0.0 
0.0 0.0 0.0 
0.0 0.0 0.0 
0.0 0.0 0.0 
0.0 0.0 0.0 
0.0 0.0 0.0 
0.0 0.0 0.0 
0.0 0.0 0.0 
0.0 0.0 0.0 
0.0 0.0 0.0 
0.0 0.0 0.0 
0.0 0.0 0.0 
0.0 0.0 0.0 
0.0 0.0 0.0 
0.0 0.0 0.0 
0.0 0.0 0.0 
0.0 0.0 0.0 
0.0 0.0 0.0 
0.0 0.0 0.0 
0.0 0.0 0.0 
0.0 0.0 0.0 
0.0 0.0 0.0 
0.0 0.0 0.0 
0.0 0.0 0.0 
0.0 0.0 0.0 
0.0 0.0 0.0 
0.0 0.0 0.0 
0.0 0.0 0.0 
0.0 0.0 0.0 
0.0 0.0 0.0 
0.0 0.0 0.0 
0.0 0.0 0.0 
0.0 0.0 0.0 
0.0 0.0 0.0 
0.0 0.0 0.0 
0.0 0.0 0.0 
0.0 0.0 0.0 
0.0 0.0 0.0 
0.0 0.0 0.0 
0.0 0.0 0.0 
0.0 0.0 0.0 
0.0 0.0 0.0 
0.0 0.0 0.0 
0.0 0.0 0.0 
0.0 0.0 0.0 
0.0 0.0 0.0 
0.0 0.0 0.0 
0.0 0.0 0.0 
0.0 0.0 0.0 
0.0 0.0 0.0 
0.0 0.0 0.0 
0.0 0.0 0.0 
0.0 0.0 0.0 
0.0 0.0 0.0 
0.0 0.0 0.0 
0.0 0.0 0.0 
0.0 0.0 0.0 
0.0 0.0 0.0 
0.0 0.0 0.0 
0.0 0.0 0.0 
0.0 0.0 0.0 
0.0 0.0 0.0 
0.0 0.0 0.0 
0.0 0.0 0.0 
0.0 0.0 0.0 
0.0 0.0 0.0 
0.0 0.0 0.0 
0.0 0.0 0.0 
0.0 0.0 0.0 
0.0 0.0 0.0 
0.0 0.0 0.0 
0.0 0.0 0.0 
0.0 0.0 0.0 
0.0 0.0 0.0 
0.0 0.0 0.0 
0.0 0.0 0.0 
0.0 0.0 0.0 
0.0 0.0 0.0 
0.0 0.0 0.0 
0.0 0.0 0.0 
0.0 0.0 0.0 
0.0 0.0 0.0 
0.0 0.0 0.0 
0.0 0.0 0.0 
0.0 0.0 0.0 
0.0 0.0 0.0 
0.0 0.0 0.0 
0.0 0.0 0.0 
0.0 0.0 0.0 
0.0 0.0 0.0 
0.0 0.0 0.0 
0.0 0.0 0.0 
0.0 0.0 0.0 
0.0 0.0 0.0 
0.0 0.0 0.0 
0.0 0.0 0.0 
0.0 0.0 0.0 
0.0 0.0 0.0 
0.0 0.0 0.0 
0.0 0.0 0.0 
0.0 0.0 0.0 
0.0 0.0 0.0 
0.0 0.0 0.0 
0.0 0.0 0.0 
0.0 0.0 0.0 
0.0 0.0 0.0 
0.0 0.0 0.0 
0.0 0.0 0.0 
0.0 0.0 0.0 
0.0 0.0 0.0 
0.0 0.0 0.0 
0.0 0.0 0.0 
0.0 0.0 0.0 
0.0 0.0 0.0 
0.0 0.0 0.0 
0.0 0.0 0.0 
0.0 0.0 0.0 
0.0 0.0 0.0 
0.0 0.0 0.0 
0.0 0.0 0.0 
0.0 0.0 0.0 
0.0 0.0 0.0 
0.0 0.0 0.0 
0.0 0.0 0.0 
0.0 0.0 0.0 
0.0 0.0 0.0 
0.0 0.0 0.0 
0.0 0.0 0.0 
0.0 0.0 0.0 
0.0 0.0 0.0 
0.0 0.0 0.0 
0.0 0.0 0.0 
0.0 0.0 0.0 
0.0 0.0 0.0 
0.0 0.0 0.0 
0.0 0.0 0.0 
0.0 0.0 0.0 
0.0 0.0 0.0 
0.0 0.0 0.0 
0.0 0.0 0.0 
0.0 0.0 0.0 
0.0 0.0 0.0 
0.0 0.0 0.0 
0.0 0.0 0.0 
0.0 0.0 0.0 
0.0 0.0 0.0 
0.0 0.0 0.0 
0.0 0.0 0.0 
0.0 0.0 0.0 
0.0 0.0 0.0 
0.0 0.0 0.0 
0.0 0.0 0.0 
0.0 0.0 0.0 
0.0 0.0 0.0 
0.0 0.0 0.0 
0.0 0.0 0.0 
0.0 0.0 0.0 
0.0 0.0 0.0 
0.0 0.0 0.0 
0.0 0.0 0.0 
0.0 0.0 0.0 
0.0 0.0 0.0 
0.0 0.0 0.0 
0.0 0.0 0.0 
0.0 0.0 0.0 
0.0 0.0 0.0 
0.0 0.0 0.0 
0.0 0.0 0.0 
0.0 0.0 0.0 
0.0 0.0 0.0 
0.0 0.0 0.0 
0.0 0.0 0.0 
0.0 0.0 0.0 
0.0 0.0 0.0 
0.0 0.0 0.0 
0.0 0.0 0.0 
0.0 0.0 0.0 
0.0 0.0 0.0 
0.0 0.0 0.0 
0.0 0.0 0.0 
0.0 0.0 0.0 
0.0 0.0 0.0 
0.0 0.0 0.0 
0.0 0.0 0.0 
0.0 0.0 0.0 
0.0 0.0 0.0 
0.0 0.0 0.0 
0.0 0.0 0.0 
0.0 0.0 0.0 
0.0 0.0 0.0 
0.0 0.0 0.0 
0.0 0.0 0.0 
0.0 0.0 0.0 
0.0 0.0 0.0 
0.0 0.0 0.0 
0.0 0.0 0.0 
0.0 0.0 0.0 
0.0 0.0 0.0 
0.0 0.0 0.0 
0.0 0.0 0.0 
0.0 0.0 0.0 
0.0 0.0 0.0 
0.0 0.0 0.0 
0.0 0.0 0.0 
0.0 0.0 0.0 
0.0 0.0 0.0 
0.0 0.0 0.0 
0.0 0.0 0.0 
0.0 0.0 0.0 
0.0 0.0 0.0 
0.0 0.0 0.0 
0.0 0.0 0.0 
0.0 0.0 0.0 
0.0 0.0 0.0 
0.0 0.0 0.0 
0.0 0.0 0.0 
0.0 0.0 0.0 
0.0 0.0 0.0 
0.0 0.0 0.0 
0.0 0.0 0.0 
0.0 0.0 0.0 
0.0 0.0 0.0 
0.0 0.0 0.0 
0.0 0.0 0.0 
0.0 0.0 0.0 
0.0 0.0 0.0 
0.0 0.0 0.0 
0.0 0.0 0.0 
0.0 0.0 0.0 
0.0 0.0 0.0 
0.0 0.0 0.0 
0.0 0.0 0.0 
0.0 0.0 0.0 
0.0 0.0 0.0 
0.0 0.0 0.0 
0.0 0.0 0.0 
0.0 0.0 0.0 
0.0 0.0 0.0 
0.0 0.0 0.0 
0.0 0.0 0.0 
0.0 0.0 0.0 
0.0 0.0 0.0 
0.0 0.0 0.0 
0.0 0.0 0.0 
0.0 0.0 0.0 
0.0 0.0 0.0 
0.0 0.0 0.0 
0.0 0.0 0.0 
0.0 0.0 0.0 
0.0 0.0 0.0 
0.0 0.0 0.0 
0.0 0.0 0.0 
0.0 0.0 0.0 
0.0 0.0 0.0 
0.0 0.0 0.0 
0.0 0.0 0.0 
0.0 0.0 0.0 
0.0 0.0 0.0 
0.0 0.0 0.0 
0.0 0.0 0.0 
0.0 0.0 0.0 
0.0 0.0 0.0 
0.0 0.0 0.0 
0.0 0.0 0.0 
0.0 0.0 0.0 
0.0 0.0 0.0 
0.0 0.0 0.0 
0.0 0.0 0.0 
0.0 0.0 0.0 
0.0 0.0 0.0 
0.0 0.0 0.0 
0.0 0.0 0.0 
0.0 0.0 0.0 
0.0 0.0 0.0 
0.0 0.0 0.0 
0.0 0.0 0.0 
0.0 0.0 0.0 
0.0 0.0 0.0 
0.0 0.0 0.0 
0.0 0.0 0.0 
0.0 0.0 0.0 
0.0 0.0 0.0 
0.0 0.0 0.0 
0.0 0.0 0.0 
0.0 0.0 0.0 
0.0 0.0 0.0 
0.0 0.0 0.0 
0.0 0.0 0.0 
0.0 0.0 0.0 
0.0 0.0 0.0 
0.0 0.0 0.0 
0.0 0.0 0.0 
0.0 0.0 0.0 
0.0 0.0 0.0 
0.0 0.0 0.0 
0.0 0.0 0.0 
0.0 0.0 0.0 
0.0 0.0 0.0 
0.0 0.0 0.0 
0.0 0.0 0.0 
0.0 0.0 0.0 
0.0 0.0 0.0 
0.0 0.0 0.0 
0.0 0.0 0.0 
0.0 0.0 0.0 
0.0 0.0 0.0 
0.0 0.0 0.0 
0.0 0.0 0.0 
0.0 0.0 0.0 
0.0 0.0 0.0 
0.0 0.0 0.0 
0.0 0.0 0.0 
0.0 0.0 0.0 
0.0 0.0 0.0 
0.0 0.0 0.0 
0.0 0.0 0.0 
0.0 0.0 0.0 
0.0 0.0 0.0 
0.0 0.0 0.0 
0.0 0.0 0.0 
0.0 0.0 0.0 
0.0 0.0 0.0 
0.0 0.0 0.0 
0.0 0.0 0.0 
0.0 0.0 0.0 
0.0 0.0 0.0 
0.0 0.0 0.0 
0.0 0.0 0.0 
0.0 0.0 0.0 
0.0 0.0 0.0 
0.0 0.0 0.0 
0.0 0.0 0.0 
0.0 0.0 0.0 
0.0 0.0 0.0 
0.0 0.0 0.0 
0.0 0.0 0.0 
0.0 0.0 0.0 
0.0 0.0 0.0 
0.0 0.0 0.0 
0.0 0.0 0.0 
0.0 0.0 0.0 
0.0 0.0 0.0 
0.0 0.0 0.0 
0.0 0.0 0.0 
0.0 0.0 0.0 
0.0 0.0 0.0 
0.0 0.0 0.0 
0.0 0.0 0.0 
0.0 0.0 0.0 
0.0 0.0 0.0 
0.0 0.0 0.0 
0.0 0.0 0.0 
0.0 0.0 0.0 
0.0 0.0 0.0 
0.0 0.0 0.0 
0.0 0.0 0.0 
0.0 0.0 0.0 
0.0 0.0 0.0 
0.0 0.0 0.0 
0.0 0.0 0.0 
0.0 0.0 0.0 
0.0 0.0 0.0 
0.0 0.0 0.0 
0.0 0.0 0.0 
0.0 0.0 0.0 
0.0 0.0 0.0 
0.0 0.0 0.0 
0.0 0.0 0.0 
0.0 0.0 0.0 
0.0 0.0 0.0 
0.0 0.0 0.0 
0.0 0.0 0.0 
0.0 0.0 0.0 
0.0 0.0 0.0 
0.0 0.0 0.0 
0.0 0.0 0.0 
0.0 0.0 0.0 
0.0 0.0 0.0 
0.0 0.0 0.0 
0.0 0.0 0.0 
0.0 0.0 0.0 
0.0 0.0 0.0 
0.0 0.0 0.0 
0.0 0.0 0.0 
0.0 0.0 0.0 
0.0 0.0 0.0 
0.0 0.0 0.0 
0.0 0.0 0.0 
0.0 0.0 0.0 
0.0 0.0 0.0 
0.0 0.0 0.0 
0.0 0.0 0.0 
0.0 0.0 0.0 
0.0 0.0 0.0 
0.0 0.0 0.0 
0.0 0.0 0.0 
0.0 0.0 0.0 
0.0 0.0 0.0 
0.0 0.0 0.0 
0.0 0.0 0.0 
0.0 0.0 0.0 
0.0 0.0 0.0 
0.0 0.0 0.0 
0.0 0.0 0.0 
0.0 0.0 0.0 
0.0 0.0 0.0 
0.0 0.0 0.0 
0.0 0.0 0.0 
0.0 0.0 0.0 
0.0 0.0 0.0 
0.0 0.0 0.0 
0.0 0.0 0.0 
0.0 0.0 0.0 
0.0 0.0 0.0 
0.0 0.0 0.0 
0.0 0.0 0.0 
0.0 0.0 0.0 
0.0 0.0 0.0 
0.0 0.0 0.0 
0.0 0.0 0.0 
0.0 0.0 0.0 
0.0 0.0 0.0 
0.0 0.0 0.0 
0.0 0.0 0.0 
0.0 0.0 0.0 
0.0 0.0 0.0 
0.0 0.0 0.0 
0.0 0.0 0.0 
0.0 0.0 0.0 
0.0 0.0 0.0 
0.0 0.0 0.0 
0.0 0.0 0.0 
0.0 0.0 0.0 
0.0 0.0 0.0 
0.0 0.0 0.0 
0.0 0.0 0.0 
0.0 0.0 0.0 
0.0 0.0 0.0 
0.0 0.0 0.0 
0.0 0.0 0.0 
0.0 0.0 0.0 
0.0 0.0 0.0 
0.0 0.0 0.0 
0.0 0.0 0.0 
0.0 0.0 0.0 
0.0 0.0 0.0 
0.0 0.0 0.0 
0.0 0.0 0.0 
0.0 0.0 0.0 
0.0 0.0 0.0 
0.0 0.0 0.0 
0.0 0.0 0.0 
0.0 0.0 0.0 
0.0 0.0 0.0 
0.0 0.0 0.0 
0.0 0.0 0.0 
0.0 0.0 0.0 
0.0 0.0 0.0 

TENSORS element_materi_stress float
-3.855186746369e+01 2.631991704612e+01 0.0 
2.631991704612e+01 -4.403458598920e+01 0.0 
0.0 0.0 -2.437593603587e+01 
-4.364462140933e+01 2.822518856226e+01 0.0 
2.822518856226e+01 -4.763165534200e+01 0.0 
0.0 0.0 -2.698288302540e+01 
-1.088948222143e+02 4.222845921446e+01 0.0 
4.222845921446e+01 -2.459420036263e+02 0.0 
0.0 0.0 -1.060510477522e+02 
-8.228439306248e+01 5.250064493279e+00 0.0 
5.250064493279e+00 -1.726894975428e+02 0.0 
0.0 0.0 -7.609216718160e+01 
-4.101851031520e+01 3.009585836429e-01 0.0 
3.009585836429e-01 -3.036077285848e+01 0.0 
0.0 0.0 -2.101378495211e+01 
-4.729193686945e+01 2.947903264382e+01 0.0 
2.947903264382e+01 -1.044000430727e+02 0.0 
0.0 0.0 -4.619035180355e+01 
-3.947578868983e+01 -2.933982627061e-01 0.0 
-2.933982627061e-01 -3.056463639770e+01 0.0 
0.0 0.0 -2.061212752626e+01 
-4.346310723637e+01 2.895215478306e+01 0.0 
2.895215478306e+01 -5.263794715354e+01 0.0 
0.0 0.0 -2.843031631697e+01 
-4.134650911502e+01 2.387639897490e+00 0.0 
2.387639897490e+00 -3.177112211658e+01 0.0 
0.0 0.0 -2.153528936948e+01 
-8.149849286788e+01 6.405680175007e+00 0.0 
6.405680175007e+00 -1.709671683415e+02 0.0 
0.0 0.0 -7.533969836281e+01 
-1.120436989061e+02 -1.919435579326e+00 0.0 
-1.919435579326e+00 -2.567572293084e+02 0.0 
0.0 0.0 -1.102402784643e+02 
-3.709761238488e+01 2.526614641242e+01 0.0 
2.526614641242e+01 -4.001876184090e+01 0.0 
0.0 0.0 -2.273491226773e+01 
-1.595754947515e+02 -1.271714447823e+00 0.0 
-1.271714447823e+00 -3.728630896256e+02 0.0 
0.0 0.0 -1.593315753131e+02 
-5.827614628814e+01 7.659654045381e+00 0.0 
7.659654045381e+00 -5.112171667725e+01 0.0 
0.0 0.0 -3.241935888962e+01 
-1.630754906991e+02 4.174022441089e-01 0.0 
4.174022441089e-01 -3.815229879081e+02 0.0 
0.0 0.0 -1.629795435821e+02 
-8.213292204986e+01 5.124818268127e+00 0.0 
5.124818268127e+00 -1.811054547869e+02 0.0 
0.0 0.0 -7.857151305102e+01 
-4.164711739983e+01 2.204011918880e+00 0.0 
2.204011918880e+00 -2.688404568396e+01 0.0 
0.0 0.0 -2.015934892514e+01 
-4.177910316943e+01 1.590199280381e+01 0.0 
1.590199280381e+01 -1.237406738994e+02 0.0 
0.0 0.0 -5.199528990692e+01 
-2.741604174233e+01 4.596731974130e-01 0.0 
4.596731974130e-01 -7.622653845085e+01 0.0 
0.0 0.0 -3.069277405795e+01 
-3.148686432786e+01 -1.010402838211e+00 0.0 
-1.010402838211e+00 -7.952883291072e+01 0.0 
0.0 0.0 -3.290470917158e+01 
-8.458179282441e+01 8.892964207917e+00 0.0 
8.892964207917e+00 -1.728704786693e+02 0.0 
0.0 0.0 -7.683568144812e+01 
-3.956129818055e+01 2.646245816474e+01 0.0 
2.646245816474e+01 -4.334630058154e+01 0.0 
0.0 0.0 -2.447227962862e+01 
-4.484660768335e+01 2.871621274341e+01 0.0 
2.871621274341e+01 -4.873566849904e+01 0.0 
0.0 0.0 -2.767468285472e+01 
-1.347565461343e+02 1.466902677562e+01 0.0 
1.466902677562e+01 -3.489319907999e+02 0.0 
0.0 0.0 -1.447065610802e+02 
-7.210024883515e+01 1.746275708518e+01 0.0 
1.746275708518e+01 -8.010044542670e+01 0.0 
0.0 0.0 -4.526020827855e+01 
-1.181568029149e+02 -7.259788134387e-01 0.0 
-7.259788134387e-01 -2.715289914206e+02 0.0 
0.0 0.0 -1.165057383006e+02 
-6.371820623633e+01 1.470003888140e+01 0.0 
1.470003888140e+01 -1.942740293050e+01 0.0 
0.0 0.0 -2.454368275005e+01 
-1.211777590580e+02 3.755955778719e+01 0.0 
3.755955778719e+01 -3.035830032591e+02 0.0 
0.0 0.0 -1.270282286951e+02 
-7.774758481742e+01 2.320326055700e+01 0.0 
2.320326055700e+01 -8.321797294251e+01 0.0 
0.0 0.0 -4.788966732798e+01 
-1.394486358847e+02 1.291855318190e+01 0.0 
1.291855318190e+01 -3.597431706203e+02 0.0 
0.0 0.0 -1.493575419515e+02 
-3.707425975597e+01 -2.385173497925e+01 0.0 
-2.385173497925e+01 -9.136425727109e+01 0.0 
0.0 0.0 -3.761846844250e+01 
9.992869437666e-01 -1.408617439108e-01 0.0 
-1.408617439108e-01 -2.682674067927e+01 0.0 
0.0 0.0 -7.208462800784e+00 
-1.108729942054e+02 4.377002948784e+01 0.0 
4.377002948784e+01 -2.437733419062e+02 0.0 
0.0 0.0 -1.059939008335e+02 
-1.385967526580e+02 4.919313396000e-01 0.0 
4.919313396000e-01 -3.216405715423e+02 0.0 
0.0 0.0 -1.376711972601e+02 
-1.553953645030e+02 3.592284920831e+00 0.0 
3.592284920831e+00 -3.781322170279e+02 0.0 
0.0 0.0 -1.596582744593e+02 
-1.660097103196e+02 -1.081310544141e+00 0.0 
-1.081310544141e+00 -3.925031939123e+02 0.0 
0.0 0.0 -1.671538712696e+02 
-1.664676324134e+02 1.838861604128e+00 0.0 
1.838861604128e+00 -3.924417273608e+02 0.0 
0.0 0.0 -1.672728079323e+02 
-1.330742668177e+02 2.480817939369e+01 0.0 
2.480817939369e+01 -3.348722808509e+02 0.0 
0.0 0.0 -1.399839643006e+02 
-3.100742583165e+01 1.440950466212e+00 0.0 
1.440950466212e+00 -1.224132248024e+01 0.0 
0.0 0.0 -1.257462449357e+01 
-3.047734186998e+01 -1.276088416817e+00 0.0 
-1.276088416817e+00 -1.265491733191e+01 0.0 
0.0 0.0 -1.253967776057e+01 
-4.669406459148e+01 2.904573119283e+01 0.0 
2.904573119283e+01 -4.818374134792e+01 0.0 
0.0 0.0 -2.806334178182e+01 
-1.570474552450e+02 6.553475604547e+00 0.0 
6.553475604547e+00 -3.820822253254e+02 0.0 
0.0 0.0 -1.613389041711e+02 
-3.882155980783e+01 2.677073463547e+01 0.0 
2.677073463547e+01 -4.653814672516e+01 0.0 
0.0 0.0 -2.520791195990e+01 
-5.579971341061e+01 1.547622589897e+01 0.0 
1.547622589897e+01 -1.820541126425e+01 0.0 
0.0 0.0 -2.180153740246e+01 
-7.972287204436e+01 1.981029496289e+00 0.0 
1.981029496289e+00 -1.605910427325e+02 0.0 
0.0 0.0 -7.169417443307e+01 
-3.842897912038e+01 2.602095641043e+01 0.0 
2.602095641043e+01 -4.242928188055e+01 0.0 
0.0 0.0 -2.385747830028e+01 
-3.767285423000e+01 -2.441689818709e+01 0.0 
-2.441689818709e+01 -9.119240671014e+01 0.0 
0.0 0.0 -3.974149401663e+01 
-7.681077918590e+01 2.197653655402e+00 0.0 
2.197653655402e+00 -1.611635743954e+02 0.0 
0.0 0.0 -7.099230607440e+01 
-2.481834605885e+01 -2.142532485283e+01 0.0 
-2.142532485283e+01 -4.930864598985e+01 0.0 
0.0 0.0 -2.368803290760e+01 
-5.718630811037e+01 8.050403315902e+00 0.0 
8.050403315902e+00 -4.234440001839e+01 0.0 
0.0 0.0 -2.945921243863e+01 
-4.566331545413e+01 2.899151833188e+01 0.0 
2.899151833188e+01 -4.916222916946e+01 0.0 
0.0 0.0 -2.804766338708e+01 
-3.869511474397e+01 1.592430442388e-01 0.0 
1.592430442388e-01 -9.585604275784e+01 0.0 
0.0 0.0 -3.996534725054e+01 
-4.755622598385e+01 -2.387190490058e+01 0.0 
-2.387190490058e+01 -1.247822168821e+02 0.0 
0.0 0.0 -5.185012950534e+01 
-4.214554241838e+01 2.745238140771e+01 0.0 
2.745238140771e+01 -4.535649450096e+01 0.0 
0.0 0.0 -2.585061107580e+01 
-9.984845287656e+01 3.558256229340e+01 0.0 
3.558256229340e+01 -2.168409664072e+02 0.0 
0.0 0.0 -9.460682578514e+01 
-5.557425932275e+01 -5.563863210767e-01 0.0 
-5.563863210767e-01 -1.274727523095e+02 0.0 
0.0 0.0 -5.451410348967e+01 
-4.217577081010e+01 -1.287163254171e+00 0.0 
-1.287163254171e+00 -9.964631369434e+01 0.0 
0.0 0.0 -4.214662535133e+01 
-1.383215687091e+02 -1.371126704416e+00 0.0 
-1.371126704416e+00 -3.215959501266e+02 0.0 
0.0 0.0 -1.375752556507e+02 
-1.817946456662e+01 -5.666339692534e-01 0.0 
-5.666339692534e-01 -5.863515278121e+01 0.0 
0.0 0.0 -2.264438520435e+01 
-8.365595119338e+01 7.304352443354e+00 0.0 
7.304352443354e+00 -1.818024473404e+02 0.0 
0.0 0.0 -7.923751956013e+01 
-3.726144956043e+01 -2.470837382925e+01 0.0 
-2.470837382925e+01 -8.834963744617e+01 0.0 
0.0 0.0 -3.871322638517e+01 
-1.161362178413e+02 3.025513739358e+01 0.0 
3.025513739358e+01 -3.001723554048e+02 0.0 
0.0 0.0 -1.244925719738e+02 
-5.798494769299e+01 3.501127487877e+01 0.0 
3.501127487877e+01 -1.082864867194e+02 0.0 
0.0 0.0 -4.948143032372e+01 
-3.614987252148e+01 -2.160207389454e+01 0.0 
-2.160207389454e+01 -9.605530763047e+01 0.0 
0.0 0.0 -3.939567855940e+01 
-1.594134078061e+02 2.789168218446e-01 0.0 
2.789168218446e-01 -3.735281530347e+02 0.0 
0.0 0.0 -1.594824682523e+02 
-4.047456531574e+01 2.678987927202e+01 0.0 
2.678987927202e+01 -4.392825748949e+01 0.0 
0.0 0.0 -2.492084684157e+01 
-3.535742917333e+01 -1.060436998688e+01 0.0 
-1.060436998688e+01 -1.133454659758e+02 0.0 
0.0 0.0 -4.584575542741e+01 
-1.135825656214e+02 4.550680739656e+01 0.0 
4.550680739656e+01 -2.519720229988e+02 0.0 
0.0 0.0 -1.092663765861e+02 
-3.533868285295e+01 -8.729298536349e+00 0.0 
-8.729298536349e+00 -7.211412127615e+01 0.0 
0.0 0.0 -3.086425784714e+01 
-1.179574134888e+02 4.298740434452e+01 0.0 
4.298740434452e+01 -2.854838257345e+02 0.0 
0.0 0.0 -1.206323717670e+02 
-1.224246542278e+02 -1.181479944461e+00 0.0 
-1.181479944461e+00 -2.830264971389e+02 0.0 
0.0 0.0 -1.212353454100e+02 
-8.858083684444e+01 2.435619608383e+01 0.0 
2.435619608383e+01 -2.080219526370e+02 0.0 
0.0 0.0 -8.858083684444e+01 
-1.171718821959e+02 3.570657923478e+01 0.0 
3.570657923478e+01 -2.932683540786e+02 0.0 
0.0 0.0 -1.227320708824e+02 
-2.272718006403e+00 -1.187714274254e+00 0.0 
-1.187714274254e+00 -2.998494775075e+01 0.0 
0.0 0.0 -9.277299727146e+00 
-5.904704414822e+01 -2.168932358277e+00 0.0 
-2.168932358277e+00 -1.332259182639e+02 0.0 
0.0 0.0 -5.728188872364e+01 
-9.039021165751e+01 1.866018355219e+01 0.0 
1.866018355219e+01 -1.818746137922e+02 0.0 
0.0 0.0 -8.127944763491e+01 
-1.071962338595e+02 3.878337920768e+01 0.0 
3.878337920768e+01 -2.242928841790e+02 0.0 
0.0 0.0 -9.904673541155e+01 
-3.492274139058e+01 2.502243145104e+01 0.0 
2.502243145104e+01 -4.202789302332e+01 0.0 
0.0 0.0 -2.105239516148e+01 
-2.148384962961e+01 -2.209187751270e-01 0.0 
-2.209187751270e-01 -5.913717432783e+01 0.0 
0.0 0.0 -2.378630718723e+01 
-4.173224899269e+01 2.740292613924e+01 0.0 
2.740292613924e+01 -4.741006677839e+01 0.0 
0.0 0.0 -2.478397927642e+01 
-4.154330939460e+01 -1.567974189744e+01 0.0 
-1.567974189744e+01 -7.266674512730e+01 0.0 
0.0 0.0 -3.236375381888e+01 
-4.295475355879e+01 1.724543379965e+00 0.0 
1.724543379965e+00 -2.623073115524e+01 0.0 
0.0 0.0 -2.035564541421e+01 
-4.452357336392e+01 2.873275149157e+01 0.0 
2.873275149157e+01 -4.929382997062e+01 0.0 
0.0 0.0 -2.774522100036e+01 
-3.785350966041e+01 2.539083427593e+01 0.0 
2.539083427593e+01 -3.973669828877e+01 0.0 
0.0 0.0 -2.287706238476e+01 
-4.794988303760e+01 3.317286798351e+00 0.0 
3.317286798351e+00 -4.251295375878e+01 0.0 
0.0 0.0 -2.673885103892e+01 
-4.481053776422e+01 7.058171351555e-01 0.0 
7.058171351555e-01 -4.112964513228e+01 0.0 
0.0 0.0 -2.538205486895e+01 
-1.259099603675e+02 -2.852246091653e-01 0.0 
-2.852246091653e-01 -2.911085776082e+02 0.0 
0.0 0.0 -1.247055613927e+02 
-1.350433696530e+02 -9.948669283050e-01 0.0 
-9.948669283050e-01 -3.128908848904e+02 0.0 
0.0 0.0 -1.339802763630e+02 
-9.898147462879e+01 4.169072728144e+01 0.0 
4.169072728144e+01 -1.975880766528e+02 0.0 
0.0 0.0 -8.857086538449e+01 
-4.398325710916e+01 3.209515801478e+00 0.0 
3.209515801478e+00 -3.067182865400e+01 0.0 
0.0 0.0 -2.199652572895e+01 
-4.370122110137e+00 -1.141156019705e+00 0.0 
-1.141156019705e+00 -2.599324586287e+01 0.0 
0.0 0.0 -9.062674734907e+00 
-6.211240279796e+01 1.708131009577e+01 0.0 
1.708131009577e+01 -3.861770188077e+01 0.0 
0.0 0.0 -2.981903140362e+01 
-6.492331554117e+01 2.133852219281e+00 0.0 
2.133852219281e+00 -1.109314377406e+02 0.0 
0.0 0.0 -5.235642598452e+01 
-6.557871825706e+01 1.790297728038e+00 0.0 
1.790297728038e+00 -1.076086398713e+02 0.0 
0.0 0.0 -5.155620743851e+01 
-9.948700994420e+01 2.715905675277e+01 0.0 
2.715905675277e+01 -2.146303193529e+02 0.0 
0.0 0.0 -9.383519878913e+01 
-1.406281848353e+02 2.886045768395e+01 0.0 
2.886045768395e+01 -3.390155943575e+02 0.0 
0.0 0.0 -1.434931337578e+02 
-4.644949216289e+01 3.521837996863e+00 0.0 
3.521837996863e+00 -2.617219138650e+01 0.0 
0.0 0.0 -2.138650506482e+01 
-1.525843225278e+02 5.775811035599e+00 0.0 
5.775811035599e+00 -3.802163292111e+02 0.0 
0.0 0.0 -1.594401955217e+02 
-4.891755723262e+01 9.566332253520e-01 0.0 
9.566332253520e-01 -6.128905423040e+01 0.0 
0.0 0.0 -3.266198343891e+01 
-5.744617168783e+01 3.632347070049e+01 0.0 
3.632347070049e+01 -8.972658308436e+01 0.0 
0.0 0.0 -4.375182643166e+01 
-3.741781321279e+01 1.849881469594e+00 0.0 
1.849881469594e+00 -2.175240334688e+01 0.0 
0.0 0.0 -1.735106496790e+01 
-1.626478147176e+02 -1.164865445096e+00 0.0 
-1.164865445096e+00 -3.811986567328e+02 0.0 
0.0 0.0 -1.627539414351e+02 
-9.902908161079e+01 2.645915444955e+01 0.0 
2.645915444955e+01 -2.602180941270e+02 0.0 
0.0 0.0 -1.073741527213e+02 
-1.172484073154e+02 3.157438592906e+01 0.0 
3.157438592906e+01 -3.014720311622e+02 0.0 
0.0 0.0 -1.252161315433e+02 
-5.475679224155e+01 3.456458123236e+01 0.0 
3.456458123236e+01 -1.030341064402e+02 0.0 
0.0 0.0 -4.693726960454e+01 
-4.666004779362e+01 -3.148639684625e+01 0.0 
-3.148639684625e+01 -8.396412714193e+01 0.0 
0.0 0.0 -3.824111403309e+01 
-1.511189606258e+02 4.089705084125e-01 0.0 
4.089705084125e-01 -3.522604260203e+02 0.0 
0.0 0.0 -1.506138159938e+02 
-7.149888439072e+01 2.520519090169e+00 0.0 
2.520519090169e+00 -1.276440174858e+02 0.0 
0.0 0.0 -5.934287056294e+01 
-4.383373584845e+01 -3.035766917138e+01 0.0 
-3.035766917138e+01 -7.398686920329e+01 0.0 
0.0 0.0 -3.574460836975e+01 
-1.621424645542e+02 2.589474715284e-01 0.0 
2.589474715284e-01 -3.808825525905e+02 0.0 
0.0 0.0 -1.625075051434e+02 
-9.403358589785e+01 3.914997958619e+01 0.0 
3.914997958619e+01 -1.922555686552e+02 0.0 
0.0 0.0 -8.548674636591e+01 
4.011504556723e-01 7.761030416170e-01 0.0 
7.761030416170e-01 -2.203255559580e+01 0.0 
0.0 0.0 -5.459136561598e+00 
-6.760756950861e+01 3.350073730628e+01 0.0 
3.350073730628e+01 -1.599544409538e+02 0.0 
0.0 0.0 -6.786860313871e+01 
-6.167287498265e+01 3.106544595830e+01 0.0 
3.106544595830e+01 -4.686057963248e+01 0.0 
0.0 0.0 -3.216003638454e+01 
-7.277696707412e+01 -2.408971259890e+00 0.0 
-2.408971259890e+00 -1.627134075452e+02 0.0 
0.0 0.0 -7.024711238578e+01 
-5.263135562695e+01 3.291993639904e+01 0.0 
3.291993639904e+01 -8.672292882030e+01 0.0 
0.0 0.0 -4.140628533418e+01 
-6.024229068472e+01 3.751308683787e+01 0.0 
3.751308683787e+01 -1.090716248644e+02 0.0 
0.0 0.0 -5.039417466474e+01 
-1.590970562902e+02 1.937324603528e+00 0.0 
1.937324603528e+00 -3.836171220713e+02 0.0 
0.0 0.0 -1.624142535084e+02 
-4.678101827711e+01 -2.330402925809e-01 0.0 
-2.330402925809e-01 -5.455349306435e+01 0.0 
0.0 0.0 -3.000035340244e+01 
-5.681581078851e+01 3.532546657920e+01 0.0 
3.532546657920e+01 -1.101734942859e+02 0.0 
0.0 0.0 -4.969679152233e+01 
-2.520848753528e+01 -1.873811876510e+00 0.0 
-1.873811876510e+00 -6.166336738736e+01 0.0 
0.0 0.0 -2.566155647679e+01 
-6.760942747966e+01 2.055545152215e+01 0.0 
2.055545152215e+01 -4.816862881434e+01 0.0 
0.0 0.0 -3.433341688820e+01 
-6.985005772174e+01 2.613925871383e+00 0.0 
2.613925871383e+00 -1.286249720864e+02 0.0 
0.0 0.0 -5.914250894245e+01 
-5.662747538865e+01 3.605004848137e+01 0.0 
3.605004848137e+01 -1.002496437720e+02 0.0 
0.0 0.0 -4.666313574820e+01 
-2.889612520877e+01 2.274509273595e+01 0.0 
2.274509273595e+01 -3.839572161215e+01 0.0 
0.0 0.0 -1.903152908571e+01 
-5.063504892841e+01 2.960572342058e+01 0.0 
2.960572342058e+01 -4.710164088570e+01 0.0 
0.0 0.0 -2.892100694423e+01 
-7.175576162447e+01 -2.897830681282e+00 0.0 
-2.897830681282e+00 -1.615174982460e+02 0.0 
0.0 0.0 -6.958197796115e+01 
-4.825848939325e+01 2.906519988732e+01 0.0 
2.906519988732e+01 -4.671490475792e+01 0.0 
0.0 0.0 -2.809201824535e+01 
-8.862364938745e+01 1.955998278448e+01 0.0 
1.955998278448e+01 -1.918889968528e+02 0.0 
0.0 0.0 -8.375379387208e+01 
-5.481076683468e+01 3.530988274789e+01 0.0 
3.530988274789e+01 -8.021941042507e+01 0.0 
0.0 0.0 -3.997746513427e+01 
-1.168917559631e+02 -2.603639485446e+00 0.0 
-2.603639485446e+00 -2.697075389535e+02 0.0 
0.0 0.0 -1.155797884750e+02 
-8.091604763065e+01 3.156594030265e+00 0.0 
3.156594030265e+00 -1.721923041269e+02 0.0 
0.0 0.0 -7.553250552728e+01 
-6.469543130343e+01 3.619150318089e+01 0.0 
3.619150318089e+01 -1.080964461422e+02 0.0 
0.0 0.0 -5.143756323369e+01 
-4.812630739614e+01 2.921750205326e+01 0.0 
2.921750205326e+01 -4.752773582371e+01 0.0 
0.0 0.0 -2.829621296595e+01 
-1.521927924213e+02 2.365566800387e+00 0.0 
2.365566800387e+00 -3.767951696474e+02 0.0 
0.0 0.0 -1.582963886206e+02 
-1.600372666402e+02 7.918654861443e-01 0.0 
7.918654861443e-01 -3.736223283588e+02 0.0 
0.0 0.0 -1.596978784997e+02 
-1.253296412837e+02 -2.275875229632e+00 0.0 
-2.275875229632e+00 -2.909369724172e+02 0.0 
0.0 0.0 -1.244799841103e+02 
-6.811314578806e+01 3.841197829904e+01 0.0 
3.841197829904e+01 -1.090681338743e+02 0.0 
0.0 0.0 -5.275438389872e+01 
-1.468287316790e+02 1.356419656967e+01 0.0 
1.356419656967e+01 -3.722855944882e+02 0.0 
0.0 0.0 -1.553342978501e+02 
-6.118660096640e+01 3.518621123664e+01 0.0 
3.518621123664e+01 -8.875892840232e+01 0.0 
0.0 0.0 -4.458365881062e+01 
-8.408090445800e+01 1.334998875251e+01 0.0 
1.334998875251e+01 -1.809056865892e+02 0.0 
0.0 0.0 -7.909597731416e+01 
-1.166670530918e+02 4.427653637643e+01 0.0 
4.427653637643e+01 -2.792288616761e+02 0.0 
0.0 0.0 -1.183687744304e+02 
-6.384292901772e+01 1.243526755308e+01 0.0 
1.243526755308e+01 -5.209977141581e+01 0.0 
0.0 0.0 -3.438281013006e+01 
-5.889466012574e+01 2.007519466855e+00 0.0 
2.007519466855e+00 -8.585496716861e+01 0.0 
0.0 0.0 -4.302488818831e+01 
-6.248068436729e+01 3.725910732543e+01 0.0 
3.725910732543e+01 -8.943754220088e+01 0.0 
0.0 0.0 -4.517546797045e+01 
-4.465865949190e+01 2.824502853447e+01 0.0 
2.824502853447e+01 -4.644531419657e+01 0.0 
0.0 0.0 -2.693119210654e+01 
-7.020680096617e+01 3.733254747051e+01 0.0 
3.733254747051e+01 -1.277862339309e+02 0.0 
0.0 0.0 -5.899791046913e+01 
-5.848993836219e+01 3.510682572070e+01 0.0 
3.510682572070e+01 -1.201783295477e+02 0.0 
0.0 0.0 -5.320048037296e+01 
-3.664802484891e+01 1.423724446924e+00 0.0 
1.423724446924e+00 -2.435370871221e+01 0.0 
0.0 0.0 -1.790052006834e+01 
-6.205340245310e+01 3.090721737576e+01 0.0 
3.090721737576e+01 -1.500862466889e+02 0.0 
0.0 0.0 -6.324189474261e+01 
-2.104605063756e+00 9.563688412688e-01 0.0 
9.563688412688e-01 -2.572361151550e+01 0.0 
0.0 0.0 -8.323906847222e+00 
-4.092364613846e+01 3.476324449230e-01 0.0 
3.476324449230e-01 -3.925068303015e+01 0.0 
0.0 0.0 -2.365229875058e+01 
-2.029566550943e+01 -2.130812589673e-01 0.0 
-2.130812589673e-01 -5.975224762078e+01 0.0 
0.0 0.0 -2.361437393906e+01 
-5.504312242132e+01 3.041272611639e+01 0.0 
3.041272611639e+01 -4.740230051801e+01 0.0 
0.0 0.0 -3.033362688180e+01 
-1.542966185193e+02 1.146588213398e+01 0.0 
1.146588213398e+01 -3.771560311617e+02 0.0 
0.0 0.0 -1.590357949043e+02 
-5.744519779536e+01 3.597198348560e+01 0.0 
3.597198348560e+01 -1.076980777692e+02 0.0 
0.0 0.0 -4.914298266937e+01 
-1.300477258949e+02 -1.659836305635e+00 0.0 
-1.659836305635e+00 -3.012884703545e+02 0.0 
0.0 0.0 -1.290008588748e+02 
-4.053300042057e+01 2.681540693463e+01 0.0 
2.681540693463e+01 -4.399127799301e+01 0.0 
0.0 0.0 -2.495728352407e+01 
-9.888720919652e+01 2.573306139653e+01 0.0 
2.573306139653e+01 -2.606933679134e+02 0.0 
0.0 0.0 -1.074741731330e+02 
-3.549570402088e+01 2.407090649365e-01 0.0 
2.407090649365e-01 -2.570413274722e+01 0.0 
0.0 0.0 -1.795995103043e+01 
-6.567073550176e+01 3.139226242717e+01 0.0 
3.139226242717e+01 -1.598030626676e+02 0.0 
0.0 0.0 -6.724213945080e+01 
-1.425980446506e+02 2.780432566734e-01 0.0 
2.780432566734e-01 -3.318985341201e+02 0.0 
0.0 0.0 -1.419489736312e+02 
-3.447122488433e+01 -7.197452871689e+00 0.0 
-7.197452871689e+00 -6.346207943313e+01 0.0 
0.0 0.0 -2.841616146514e+01 
-1.506400604727e+02 -1.462487904431e+00 0.0 
-1.462487904431e+00 -3.517734160400e+02 0.0 
0.0 0.0 -1.503240429538e+02 
-7.267149986024e+01 3.356447068100e+01 0.0 
3.356447068100e+01 -9.019051782153e+01 0.0 
0.0 0.0 -4.845860530453e+01 
-1.607065611817e+02 -4.701024413970e-01 0.0 
-4.701024413970e-01 -3.792403650827e+02 0.0 
0.0 0.0 -1.615840778793e+02 
-3.457833099956e+01 6.084870294201e-02 0.0 
6.084870294201e-02 -2.447396181067e+01 0.0 
0.0 0.0 -1.731568784307e+01 
-5.984375297551e+01 3.500176542389e+01 0.0 
3.500176542389e+01 -1.266486309367e+02 0.0 
0.0 0.0 -5.554771517368e+01 
-6.464227190125e+01 3.231579825785e+01 0.0 
3.231579825785e+01 -4.972065912830e+01 0.0 
0.0 0.0 -3.390887930886e+01 
-1.127617679585e+02 -3.091589824310e-01 0.0 
-3.091589824310e-01 -2.585463356666e+02 0.0 
0.0 0.0 -1.109924310875e+02 
-3.821519414484e+01 2.635290186547e+01 0.0 
2.635290186547e+01 -4.483380790175e+01 0.0 
0.0 0.0 -2.451470061398e+01 
-5.799519974329e+01 2.774751608754e+01 0.0 
2.774751608754e+01 -1.462552811990e+02 0.0 
0.0 0.0 -6.087514428268e+01 
-6.342156137529e+01 3.773201022285e+00 0.0 
3.773201022285e+00 -9.747701972343e+01 0.0 
0.0 0.0 -4.786957432962e+01 
-3.518035939042e+01 -3.598287649708e-01 0.0 
-3.598287649708e-01 -2.443426071160e+01 0.0 
0.0 0.0 -1.748438603061e+01 
-6.367032284878e+01 3.444686159471e+01 0.0 
3.444686159471e+01 -1.436245691362e+02 0.0 
0.0 0.0 -6.178846759551e+01 
-5.443545187487e+01 3.043560902715e+01 0.0 
3.043560902715e+01 -4.783190492369e+01 0.0 
0.0 0.0 -3.028020703957e+01 
-1.044501477643e+02 4.269591627855e+01 0.0 
4.269591627855e+01 -2.474453861598e+02 0.0 
0.0 0.0 -1.051686601772e+02 
-8.069123424960e+01 -2.875715379136e+00 0.0 
-2.875715379136e+00 -1.811430931268e+02 0.0 
0.0 0.0 -7.815029821291e+01 
-1.274007183688e+02 3.512031314546e+01 0.0 
3.512031314546e+01 -3.091556671758e+02 0.0 
0.0 0.0 -1.305669156634e+02 
-1.162485642008e+02 4.201800370522e+01 0.0 
4.201800370522e+01 -2.825767324945e+02 0.0 
0.0 0.0 -1.192475890086e+02 
-5.170989587421e+01 3.347018368214e+01 0.0 
3.347018368214e+01 -6.976575943312e+01 0.0 
0.0 0.0 -3.604269659220e+01 
-8.119736106366e+01 -2.923194089933e+00 0.0 
-2.923194089933e+00 -1.812653926022e+02 0.0 
0.0 0.0 -7.833882609976e+01 
-1.206704674142e+02 1.661220798462e+01 0.0 
1.661220798462e+01 -3.234141039880e+02 0.0 
0.0 0.0 -1.328253714207e+02 
-5.828187937665e+01 3.566542853794e+01 0.0 
3.566542853794e+01 -7.032041335316e+01 0.0 
0.0 0.0 -3.818068781894e+01 
-4.738059675416e+01 3.079884442503e+01 0.0 
3.079884442503e+01 -6.643538192760e+01 0.0 
0.0 0.0 -3.374479360453e+01 
-7.236733158327e+01 3.151052020420e+01 0.0 
3.151052020420e+01 -6.993875007976e+01 0.0 
0.0 0.0 -4.229182449891e+01 
-6.182637325570e+01 3.468905524064e+01 0.0 
3.468905524064e+01 -1.359467963964e+02 0.0 
0.0 0.0 -5.893195089564e+01 
-8.133179823297e+01 8.839246672512e+00 0.0 
8.839246672512e+00 -1.779697820651e+02 0.0 
0.0 0.0 -7.739047408941e+01 
-9.280680743509e+01 3.652007122819e+01 0.0 
3.652007122819e+01 -1.760570245696e+02 0.0 
0.0 0.0 -8.025914960140e+01 
-1.467236072031e+02 -1.365119228453e+00 0.0 
-1.365119228453e+00 -3.418002544484e+02 0.0 
0.0 0.0 -1.461571584955e+02 
-3.747255594938e+01 2.570056920125e+01 0.0 
2.570056920125e+01 -4.269728614823e+01 0.0 
0.0 0.0 -2.293696056357e+01 
-5.335946433483e+01 2.466401714551e+01 0.0 
2.466401714551e+01 -1.399177117693e+02 0.0 
0.0 0.0 -5.758315283123e+01 
-9.611983564721e+01 3.862105346059e+01 0.0 
3.862105346059e+01 -1.952681851886e+02 0.0 
0.0 0.0 -8.701640625075e+01 
-6.964558458389e+01 2.884245895498e+01 0.0 
2.884245895498e+01 -7.269784902774e+01 0.0 
0.0 0.0 -4.297098843599e+01 
-5.727092064734e+01 3.450504637739e+01 0.0 
3.450504637739e+01 -7.001897372052e+01 0.0 
0.0 0.0 -3.778696831036e+01 
-1.172359861390e+02 9.571516777801e+00 0.0 
9.571516777801e+00 -3.180695873553e+02 0.0 
0.0 0.0 -1.301916720483e+02 
-7.884772645969e+00 2.799017332415e-01 0.0 
2.799017332415e-01 -4.203460474468e+01 0.0 
0.0 0.0 -1.457581321719e+01 
-1.050421105989e+02 3.868106343432e+01 0.0 
3.868106343432e+01 -2.266569968850e+02 0.0 
0.0 0.0 -9.910973224517e+01 
-8.260629292787e+01 2.746514639940e+01 0.0 
2.746514639940e+01 -1.185294144973e+02 0.0 
0.0 0.0 -5.994071222756e+01 
-7.605315236269e+01 -1.406599829556e+01 0.0 
-1.406599829556e+01 -1.862825340309e+02 0.0 
0.0 0.0 -7.830070591807e+01 
-1.150444022681e+02 9.102238877042e+00 0.0 
9.102238877042e+00 -3.128071729581e+02 0.0 
0.0 0.0 -1.279554725679e+02 
-7.325528613512e+01 2.256914776915e+01 0.0 
2.256914776915e+01 -6.329625095484e+01 0.0 
0.0 0.0 -4.056546112699e+01 
-7.416052316541e+01 1.779630081338e+01 0.0 
1.779630081338e+01 -7.019511844724e+01 0.0 
0.0 0.0 -4.290669248380e+01 
-1.431509223689e+02 1.300754303957e+01 0.0 
1.300754303957e+01 -3.612444380559e+02 0.0 
0.0 0.0 -1.509186081274e+02 
-6.218017972763e+01 -1.132093373244e+01 0.0 
-1.132093373244e+01 -1.346635483743e+02 0.0 
0.0 0.0 -5.865311843057e+01 
-7.329702636440e+01 3.817418416116e+01 0.0 
3.817418416116e+01 -1.475996500689e+02 0.0 
0.0 0.0 -6.586900292998e+01 
-7.447550843086e+01 3.511485611306e+01 0.0 
3.511485611306e+01 -1.097364910417e+02 0.0 
0.0 0.0 -5.486359984177e+01 
-8.771027635199e+01 2.972783198684e+01 0.0 
2.972783198684e+01 -1.259603204432e+02 0.0 
0.0 0.0 -6.370117903855e+01 
-7.464158207154e+01 3.463459682497e+01 0.0 
3.463459682497e+01 -9.167458954140e+01 0.0 
0.0 0.0 -4.949485148388e+01 
-6.946761388602e+01 3.454091081901e+01 0.0 
3.454091081901e+01 -6.867145091875e+01 0.0 
0.0 0.0 -4.104171944143e+01 
-8.896911369000e+01 2.221865735638e+01 0.0 
2.221865735638e+01 -2.389683589386e+02 0.0 
0.0 0.0 -9.798124178856e+01 
-1.025680647636e+02 4.358785570991e+01 0.0 
4.358785570991e+01 -2.296189004068e+02 0.0 
0.0 0.0 -9.925608955112e+01 
-4.076156173147e+01 2.473752480752e+01 0.0 
2.473752480752e+01 -1.008292572056e+02 0.0 
0.0 0.0 -4.360105278628e+01 
-4.830833324303e+01 3.217136190099e+01 0.0 
3.217136190099e+01 -6.911741689470e+01 0.0 
0.0 0.0 -3.482772504132e+01 
-5.435878543838e+01 3.360985225458e+01 0.0 
3.360985225458e+01 -8.778668852303e+01 0.0 
0.0 0.0 -4.224364218842e+01 
-7.126960774701e+01 3.928675113589e+01 0.0 
3.928675113589e+01 -1.286181511669e+02 0.0 
0.0 0.0 -5.956632767418e+01 
-9.756970474525e+01 3.881416421856e+01 0.0 
3.881416421856e+01 -1.817044234195e+02 0.0 
0.0 0.0 -8.338223844943e+01 
-4.843355756601e+01 2.503649206839e+01 0.0 
2.503649206839e+01 -1.244412043080e+02 0.0 
0.0 0.0 -5.247109630442e+01 
-1.156276685971e+02 5.738343866462e+00 0.0 
5.738343866462e+00 -3.151176073238e+02 0.0 
0.0 0.0 -1.288235827763e+02 
-3.555444786473e+01 1.321545989355e+00 0.0 
1.321545989355e+00 -2.327702301752e+01 0.0 
0.0 0.0 -1.724944126468e+01 
-6.403340809455e+01 2.918300935326e+01 0.0 
2.918300935326e+01 -1.606512153797e+02 0.0 
0.0 0.0 -6.700538704229e+01 
-1.141616579727e+02 1.609963016211e+00 0.0 
1.609963016211e+00 -3.120369065134e+02 0.0 
0.0 0.0 -1.274595693458e+02 
-1.217664937411e+00 1.605815448977e+00 0.0 
1.605815448977e+00 -2.858013551211e+01 0.0 
0.0 0.0 -8.539340134856e+00 
-8.781028278214e+01 2.938304292998e+01 0.0 
2.938304292998e+01 -1.417813031309e+02 0.0 
0.0 0.0 -6.847747577392e+01 
9.900889350782e-01 -4.933269646871e-01 0.0 
-4.933269646871e-01 -2.355553424459e+01 0.0 
0.0 0.0 -5.355519939757e+00 
-1.202178203411e+01 1.053488684349e-01 0.0 
1.053488684349e-01 -4.316216656839e+01 0.0 
0.0 0.0 -1.615518458075e+01 
-4.026848662558e+01 2.688516092920e+01 0.0 
2.688516092920e+01 -4.476783565015e+01 0.0 
0.0 0.0 -2.455097494337e+01 
-5.428387393860e+01 -1.006772334590e+01 0.0 
-1.006772334590e+01 -1.132858006270e+02 0.0 
0.0 0.0 -4.987090236967e+01 
-9.252004161215e+01 3.142931940429e+01 0.0 
3.142931940429e+01 -1.489649996265e+02 0.0 
0.0 0.0 -7.204551237159e+01 
-5.029732476416e+01 -8.311592302216e+00 0.0 
-8.311592302216e+00 -1.078356617114e+02 0.0 
0.0 0.0 -4.703989594266e+01 
-5.387793327522e+01 3.495534673119e+01 0.0 
3.495534673119e+01 -9.198971981339e+01 0.0 
0.0 0.0 -4.267346673429e+01 
-5.216829344873e+01 -2.713613273082e+01 0.0 
-2.713613273082e+01 -1.301372234303e+02 0.0 
0.0 0.0 -5.296468866295e+01 
-3.564580181776e+01 -6.100932621777e+00 0.0 
-6.100932621777e+00 -7.136612320590e+01 0.0 
0.0 0.0 -3.161999125592e+01 
-1.174615964957e+02 1.228100940420e+01 0.0 
1.228100940420e+01 -3.176017114073e+02 0.0 
0.0 0.0 -1.301189923709e+02 
-7.208926291121e+01 3.606662556977e+01 0.0 
3.606662556977e+01 -9.007999721239e+01 0.0 
0.0 0.0 -4.825077803708e+01 
-1.588791639891e+02 -1.512054832486e+00 0.0 
-1.512054832486e+00 -3.734405805855e+02 0.0 
0.0 0.0 -1.592959233724e+02 
-3.212935225309e+01 8.356898848299e+00 0.0 
8.356898848299e+00 -1.071220930096e+02 0.0 
0.0 0.0 -4.231713310366e+01 
-5.616919483024e+01 3.477156572318e+01 0.0 
3.477156572318e+01 -1.112671192379e+02 0.0 
0.0 0.0 -4.983089422045e+01 
-6.707934282532e+01 2.696124521293e+01 0.0 
2.696124521293e+01 -1.741010486945e+02 0.0 
0.0 0.0 -7.195411745594e+01 
-5.420415451950e+01 3.368010793912e+01 0.0 
3.368010793912e+01 -6.934326455989e+01 0.0 
0.0 0.0 -3.666422572382e+01 
-1.126972292630e+02 5.630414977943e+00 0.0 
5.630414977943e+00 -3.079187736578e+02 0.0 
0.0 0.0 -1.257848008762e+02 
-1.608842082176e+02 -9.756730440420e-01 0.0 
-9.756730440420e-01 -3.813878404812e+02 0.0 
0.0 0.0 -1.622816146096e+02 
-9.229618274474e+01 3.751153473050e+01 0.0 
3.751153473050e+01 -1.590842147025e+02 0.0 
0.0 0.0 -7.501411923416e+01 
-4.737063547411e+01 2.203765317595e+01 0.0 
2.203765317595e+01 -1.283998517554e+02 0.0 
0.0 0.0 -5.233114616886e+01 
-1.188154517568e+02 1.311777844067e+01 0.0 
1.311777844067e+01 -3.205911741135e+02 0.0 
0.0 0.0 -1.314219877611e+02 
-1.212344715403e+02 -2.096498048687e+00 0.0 
-2.096498048687e+00 -2.796944021207e+02 0.0 
0.0 0.0 -1.198786620983e+02 
-7.346254558693e+01 3.938110729054e+01 0.0 
3.938110729054e+01 -1.288466130262e+02 0.0 
0.0 0.0 -6.029274758393e+01 
-8.619481072990e+01 3.101951330634e+01 0.0 
3.101951330634e+01 -1.374123756764e+02 0.0 
0.0 0.0 -6.668215592188e+01 
-1.222567165927e+02 3.328517594356e+01 0.0 
3.328517594356e+01 -3.042277801086e+02 0.0 
0.0 0.0 -1.275453490104e+02 
-5.753286913344e+01 2.264068616311e+01 0.0 
2.264068616311e+01 -1.555758088303e+02 0.0 
0.0 0.0 -6.353260338911e+01 
-4.885615205723e+01 3.263513297597e+01 0.0 
3.263513297597e+01 -8.407821789945e+01 0.0 
0.0 0.0 -3.948031098700e+01 
-7.915783846906e+01 3.605221690144e+01 0.0 
3.605221690144e+01 -1.128820533801e+02 0.0 
0.0 0.0 -5.721196755476e+01 
-9.605499116575e+01 2.365299664350e+01 0.0 
2.365299664350e+01 -2.108306844372e+02 0.0 
0.0 0.0 -9.166570268090e+01 
-7.418425398270e+01 3.986876247622e+01 0.0 
3.986876247622e+01 -1.482826039561e+02 0.0 
0.0 0.0 -6.634005738163e+01 
-7.110363421314e+01 1.593275403851e+01 0.0 
1.593275403851e+01 -1.994295162552e+02 0.0 
0.0 0.0 -8.075994514051e+01 
-4.302857566650e+01 9.340132904705e-01 0.0 
9.340132904705e-01 -4.314761770244e+01 0.0 
0.0 0.0 -2.545285801068e+01 
-3.672646993994e+01 -1.519365067745e+01 0.0 
-1.519365067745e+01 -7.325531966584e+01 0.0 
0.0 0.0 -3.046657550789e+01 
-7.209558290640e+01 3.159943322735e+01 0.0 
3.159943322735e+01 -8.991023271596e+01 0.0 
0.0 0.0 -4.820174468671e+01 
-5.952301716130e+01 2.929936439188e+01 0.0 
2.929936439188e+01 -1.468181305478e+02 0.0 
0.0 0.0 -6.150234431273e+01 
-5.050154147760e+01 2.268150892714e+01 0.0 
2.268150892714e+01 -1.359590623677e+02 0.0 
0.0 0.0 -5.675633194339e+01 
-4.541932102598e+01 -2.496374802959e+01 0.0 
-2.496374802959e+01 -1.153163411857e+02 0.0 
0.0 0.0 -4.886279389753e+01 
-8.891857320587e+01 2.773587984602e+01 0.0 
2.773587984602e+01 -1.467529628359e+02 0.0 
0.0 0.0 -7.030146081254e+01 
-7.734025957148e+01 3.670320134287e+01 0.0 
3.670320134287e+01 -1.118215364620e+02 0.0 
0.0 0.0 -5.634853881003e+01 
-6.179231641179e+01 3.634967389316e+01 0.0 
3.634967389316e+01 -1.273089197646e+02 0.0 
0.0 0.0 -5.633037085291e+01 
-9.370073278211e+01 2.972730813878e+01 0.0 
2.972730813878e+01 -1.547269276400e+02 0.0 
0.0 0.0 -7.412829812665e+01 
-9.550029622407e+01 3.959398932252e+01 0.0 
3.959398932252e+01 -1.780862231510e+02 0.0 
0.0 0.0 -8.167595581251e+01 
-7.572425906640e+01 3.927677300579e+01 0.0 
3.927677300579e+01 -1.293637727150e+02 0.0 
0.0 0.0 -6.112640953441e+01 
-1.618040825368e+02 5.965223660437e-01 0.0 
5.965223660437e-01 -3.831903512051e+02 0.0 
0.0 0.0 -1.630983301226e+02 
-7.722162023726e+01 1.443416236963e+01 0.0 
1.443416236963e+01 -2.160837493288e+02 0.0 
0.0 0.0 -8.759161086981e+01 
-7.803353776263e+01 3.892822705666e+01 0.0 
3.892822705666e+01 -1.301518542195e+02 0.0 
0.0 0.0 -6.205561759465e+01 
-6.544537086394e+01 3.388845542627e+01 0.0 
3.388845542627e+01 -1.517001892965e+02 0.0 
0.0 0.0 -6.474366804813e+01 
-7.886472600906e+01 1.738943172741e+01 0.0 
1.738943172741e+01 -2.178481277355e+02 0.0 
0.0 0.0 -8.861385612338e+01 
-5.134619659482e+01 1.879257536036e+01 0.0 
1.879257536036e+01 -1.450156065239e+02 0.0 
0.0 0.0 -5.850854093562e+01 
-5.620513377753e+01 1.078541290002e+01 0.0 
1.078541290002e+01 -2.936577921844e+01 0.0 
0.0 0.0 -2.527127389879e+01 
-5.839558634915e+01 1.633890116439e+01 0.0 
1.633890116439e+01 -1.665603007376e+02 0.0 
0.0 0.0 -6.708676612602e+01 
-5.817095457357e+01 -1.469249214462e+01 0.0 
-1.469249214462e+01 -1.676574715332e+02 0.0 
0.0 0.0 -6.734852783204e+01 
-8.966958489661e+01 3.412817317285e+01 0.0 
3.412817317285e+01 -1.570585636139e+02 0.0 
0.0 0.0 -7.361844455315e+01 
-9.939013796992e+01 3.087903236028e+00 0.0 
3.087903236028e+00 -1.056601566436e+02 0.0 
0.0 0.0 -6.178882955639e+01 
-7.610969646632e+01 3.382378284781e+01 0.0 
3.382378284781e+01 -9.257397416699e+01 0.0 
0.0 0.0 -5.020510118999e+01 
-5.817728703656e+01 2.207780640750e+01 0.0 
2.207780640750e+01 -1.582772630960e+02 0.0 
0.0 0.0 -6.453636503976e+01 
-4.718855506717e+01 3.065105139484e+01 0.0 
3.065105139484e+01 -9.665088209696e+01 0.0 
0.0 0.0 -4.275183114924e+01 
-4.475492423503e+01 8.180323683491e+00 0.0 
8.180323683491e+00 -1.389200970752e+02 0.0 
0.0 0.0 -5.437276433389e+01 
-8.072737650369e+01 3.522773791255e+01 0.0 
3.522773791255e+01 -1.314447804875e+02 0.0 
0.0 0.0 -6.325164709737e+01 
-8.744518311295e+00 6.448458212482e-01 0.0 
6.448458212482e-01 -4.081208508602e+01 0.0 
0.0 0.0 -1.446698101920e+01 
-5.633128663569e+01 3.418208341817e+01 0.0 
3.418208341817e+01 -8.819477783888e+01 0.0 
0.0 0.0 -4.295781934237e+01 
-8.372591201223e+01 1.543034373857e+01 0.0 
1.543034373857e+01 -2.317113648242e+02 0.0 
0.0 0.0 -9.423118305093e+01 
-7.560692680880e+01 3.406449169935e+01 0.0 
3.406449169935e+01 -1.104344964772e+02 0.0 
0.0 0.0 -5.541242698580e+01 
-6.814493838162e+01 1.711976917281e+01 0.0 
1.711976917281e+01 -5.633026488585e+01 0.0 
0.0 0.0 -3.694256098024e+01 
-4.428867906207e+01 1.778328491098e+01 0.0 
1.778328491098e+01 -1.276348737805e+02 0.0 
0.0 0.0 -5.292470140404e+01 
-4.847872397278e+01 -8.859968935195e+00 0.0 
-8.859968935195e+00 -1.478071835836e+02 0.0 
0.0 0.0 -5.848577226692e+01 
-5.909872242201e+01 -1.974331577395e+01 0.0 
-1.974331577395e+01 -1.642385611956e+02 0.0 
0.0 0.0 -6.660118508527e+01 
-5.293362853235e+01 3.389537985441e+01 0.0 
3.389537985441e+01 -6.976650206613e+01 0.0 
0.0 0.0 -3.641003917954e+01 
-8.903070972074e+01 3.497081226464e+01 0.0 
3.497081226464e+01 -1.396691837266e+02 0.0 
0.0 0.0 -6.820996803420e+01 
-5.897655734098e+01 3.660453978925e+01 0.0 
3.660453978925e+01 -8.983553090287e+01 0.0 
0.0 0.0 -4.424362647315e+01 
-6.411207731729e+01 1.709304139142e+01 0.0 
1.709304139142e+01 -1.804660121609e+02 0.0 
0.0 0.0 -7.297342684347e+01 
-6.473423611864e+01 2.401208808221e+01 0.0 
2.401208808221e+01 -1.728893664104e+02 0.0 
0.0 0.0 -7.088708075871e+01 
-4.142875608622e+01 1.304075622293e+01 0.0 
1.304075622293e+01 -1.264113761156e+02 0.0 
0.0 0.0 -5.143109153006e+01 
-7.221121997460e+01 3.257025658643e+01 0.0 
3.257025658643e+01 -1.766286480822e+02 0.0 
0.0 0.0 -7.425196041703e+01 
-3.974324611283e+01 2.832423804818e+01 0.0 
2.832423804818e+01 -5.997594408910e+01 0.0 
0.0 0.0 -2.824517166073e+01 
-1.096144306861e+02 4.051636319277e+01 0.0 
4.051636319277e+01 -2.406639537362e+02 0.0 
0.0 0.0 -1.046835153267e+02 
-1.140345015490e+02 4.529339893855e+01 0.0 
4.529339893855e+01 -2.560919016712e+02 0.0 
0.0 0.0 -1.106379209661e+02 
-7.628168743364e+01 3.871847701536e+01 0.0 
3.871847701536e+01 -1.674942192603e+02 0.0 
0.0 0.0 -7.273277200818e+01 
-5.550838764400e+01 2.461197110495e+01 0.0 
2.461197110495e+01 -1.461902645138e+02 0.0 
0.0 0.0 -6.010959564733e+01 
-4.315695975603e+01 2.849909648726e+01 0.0 
2.849909648726e+01 -9.218415361498e+01 0.0 
0.0 0.0 -4.020233401130e+01 
-7.992410868257e+01 3.792896182751e+01 0.0 
3.792896182751e+01 -1.486266443178e+02 0.0 
0.0 0.0 -6.816522590010e+01 
-4.489223437253e+01 2.402539684842e+01 0.0 
2.402539684842e+01 -1.163503004101e+02 0.0 
0.0 0.0 -4.797276043478e+01 
-4.615221023840e+01 -1.540581223702e+01 0.0 
-1.540581223702e+01 -1.359031825503e+02 0.0 
0.0 0.0 -5.421661783660e+01 
-7.252293546505e+01 3.732575453911e+01 0.0 
3.732575453911e+01 -1.279261310425e+02 0.0 
0.0 0.0 -5.973471995226e+01 
-9.029183582347e+01 1.502555193097e+01 0.0 
1.502555193097e+01 -1.848065954413e+02 0.0 
0.0 0.0 -8.212952937944e+01 
-6.198726134886e+01 2.670473342048e+01 0.0 
2.670473342048e+01 -1.602637736615e+02 0.0 
0.0 0.0 -6.627531050312e+01 
-8.899760055034e+01 2.187257671425e+01 0.0 
2.187257671425e+01 -2.394042035839e+02 0.0 
0.0 0.0 -9.812054124028e+01 
-5.555332726826e+01 3.571047804247e+01 0.0 
3.571047804247e+01 -9.517291181531e+01 0.0 
0.0 0.0 -4.338092119405e+01 
-1.544082856623e+02 2.020202859037e+01 0.0 
2.020202859037e+01 -3.762765060832e+02 0.0 
0.0 0.0 -1.588054375236e+02 
-5.773641406460e+01 3.192506469881e+01 0.0 
3.192506469881e+01 -1.325775195644e+02 0.0 
0.0 0.0 -5.669418008871e+01 
-7.550231809568e+01 3.827494322458e+01 0.0 
3.827494322458e+01 -1.476189806870e+02 0.0 
0.0 0.0 -6.653638963480e+01 
-4.612594346081e+01 1.403579756086e+01 0.0 
1.403579756086e+01 -1.374369032452e+02 0.0 
0.0 0.0 -5.615403002291e+01 
-9.559753880708e+01 6.787444400700e+00 0.0 
6.787444400700e+00 -2.654827997763e+02 0.0 
0.0 0.0 -1.079241015750e+02 
-6.765648276412e+01 2.137350629654e+01 0.0 
2.137350629654e+01 -1.846007098789e+02 0.0 
0.0 0.0 -7.527715779290e+01 
-5.005534663031e+01 -1.814888961049e+01 0.0 
-1.814888961049e+01 -1.425143576103e+02 0.0 
0.0 0.0 -5.737091127218e+01 
-7.503682199015e+01 3.760743578587e+01 0.0 
3.760743578587e+01 -1.104326157751e+02 0.0 
0.0 0.0 -5.524083132957e+01 
-1.214899614627e+02 4.804353422145e+01 0.0 
4.804353422145e+01 -2.848477660428e+02 0.0 
0.0 0.0 -1.215013182517e+02 
-6.105735118444e+01 1.951413056982e+01 0.0 
1.951413056982e+01 -1.697013694450e+02 0.0 
0.0 0.0 -6.882761618882e+01 
-8.407455869160e+01 1.577447952639e+01 0.0 
1.577447952639e+01 -2.323336714654e+02 0.0 
0.0 0.0 -9.452246904710e+01 
-4.154757806305e+01 2.911326181155e+01 0.0 
2.911326181155e+01 -7.622213692778e+01 0.0 
0.0 0.0 -3.431310195461e+01 
-6.853335787954e+01 1.057007832634e+01 0.0 
1.057007832634e+01 -8.354414834202e+01 0.0 
0.0 0.0 -4.522325186647e+01 
-1.104111085422e+02 2.234141892268e+00 0.0 
2.234141892268e+00 -3.027671229569e+02 0.0 
0.0 0.0 -1.235534694497e+02 
-5.130009717630e+01 3.371076422271e+01 0.0 
3.371076422271e+01 -8.452687773834e+01 0.0 
0.0 0.0 -4.034809247439e+01 
-6.841767437326e+01 1.061732826912e+01 0.0 
1.061732826912e+01 -7.483218053665e+01 0.0 
0.0 0.0 -4.257495647297e+01 
-1.254534690132e+02 4.383644151831e+01 0.0 
4.383644151831e+01 -3.031897063727e+02 0.0 
0.0 0.0 -1.281929526158e+02 
-1.180132404642e+02 4.415806844474e+00 0.0 
4.415806844474e+00 -3.212242473362e+02 0.0 
0.0 0.0 -1.313712463401e+02 
-1.197174138002e+02 4.803759673887e+01 0.0 
4.803759673887e+01 -2.759040659191e+02 0.0 
0.0 0.0 -1.182864439158e+02 
-7.368279289632e+01 1.596290372298e+01 0.0 
1.596290372298e+01 -7.729488099596e+01 0.0 
0.0 0.0 -4.489330216768e+01 
-9.624527503399e+01 4.168898504447e+01 0.0 
4.168898504447e+01 -1.939208721840e+02 0.0 
0.0 0.0 -8.664984416539e+01 
-4.536735838762e+01 3.075365074718e+01 0.0 
3.075365074718e+01 -6.433640835939e+01 0.0 
0.0 0.0 -3.251113002410e+01 
-6.967240530684e+01 3.702204944938e+01 0.0 
3.702204944938e+01 -9.010020462121e+01 0.0 
0.0 0.0 -4.753178297842e+01 
-7.704098448113e+01 3.659699654719e+01 0.0 
3.659699654719e+01 -1.292545239221e+02 0.0 
0.0 0.0 -6.148865252095e+01 
-8.027639961811e+01 3.839729774193e+01 0.0 
3.839729774193e+01 -1.313639642344e+02 0.0 
0.0 0.0 -6.309210915576e+01 
-7.184589176049e+01 3.953567904655e+01 0.0 
3.953567904655e+01 -1.486299995789e+02 0.0 
0.0 0.0 -6.574276740183e+01 
-1.308128755612e+02 4.050408952966e+01 0.0 
4.050408952966e+01 -3.154339001364e+02 0.0 
0.0 0.0 -1.334740327093e+02 
-7.377301226159e+01 2.147960909041e+01 0.0 
2.147960909041e+01 -7.829117250735e+01 0.0 
0.0 0.0 -4.521925543068e+01 
-7.290210753862e+01 3.162085366777e+01 0.0 
3.162085366777e+01 -7.159189855003e+01 0.0 
0.0 0.0 -4.294820182660e+01 
-5.388816193905e+01 1.798889702293e+01 0.0 
1.798889702293e+01 -1.528651475554e+02 0.0 
0.0 0.0 -6.162599284833e+01 
-4.599810061650e+01 -8.485134502217e+00 0.0 
-8.485134502217e+00 -9.245456380364e+01 0.0 
0.0 0.0 -4.113579932604e+01 
-6.666440155393e+01 3.617375146635e+01 0.0 
3.617375146635e+01 -6.988415424184e+01 0.0 
0.0 0.0 -4.056456673873e+01 
-5.645135078786e+01 3.517373734761e+01 0.0 
3.517373734761e+01 -1.088031299458e+02 0.0 
0.0 0.0 -4.917634422009e+01 
-3.544449185021e+01 3.879873577146e-01 0.0 
3.879873577146e-01 -2.541065749046e+01 0.0 
0.0 0.0 -1.785654480220e+01 
-6.242588212109e+01 -1.836255869093e+01 0.0 
-1.836255869093e+01 -1.746998760181e+02 0.0 
0.0 0.0 -7.073772744175e+01 
-5.038557949254e+01 2.003786390616e+01 0.0 
2.003786390616e+01 -1.404883547096e+02 0.0 
0.0 0.0 -5.686218026063e+01 
-9.131901318355e+01 3.268265299033e+01 0.0 
3.268265299033e+01 -1.606548295239e+02 0.0 
0.0 0.0 -7.519215281224e+01 
-5.131119319033e+01 3.275481999072e+01 0.0 
3.275481999072e+01 -1.016525221544e+02 0.0 
0.0 0.0 -4.548911460341e+01 
-7.202086750443e+01 3.585855349588e+01 0.0 
3.585855349588e+01 -1.089799321220e+02 0.0 
0.0 0.0 -5.390023988794e+01 
-8.838956931362e+01 1.358782121959e+01 0.0 
1.358782121959e+01 -2.446320223858e+02 0.0 
0.0 0.0 -9.950647750981e+01 
-9.295853903899e+01 -9.260809903406e+00 0.0 
-9.260809903406e+00 -2.549430057217e+02 0.0 
0.0 0.0 -1.039704634282e+02 
-1.379372843033e+02 3.510005825269e+01 0.0 
3.510005825269e+01 -3.332461854175e+02 0.0 
0.0 0.0 -1.409550409163e+02 
-6.075052155478e+01 3.641951005913e+01 0.0 
3.641951005913e+01 -7.060975532323e+01 0.0 
0.0 0.0 -3.900808306340e+01 
-4.860817348610e+01 -1.321047819133e+00 0.0 
-1.321047819133e+00 -1.507793100880e+02 0.0 
0.0 0.0 -5.941624507222e+01 
-7.580645948737e+01 -1.392319979477e+01 0.0 
-1.392319979477e+01 -1.845857149677e+02 0.0 
0.0 0.0 -7.771765233653e+01 
-4.938495544124e+01 3.241498177430e+01 0.0 
3.241498177430e+01 -6.697248441929e+01 0.0 
0.0 0.0 -3.450723195816e+01 
-5.334982387468e+01 3.478964300920e+01 0.0 
3.478964300920e+01 -8.744227477938e+01 0.0 
0.0 0.0 -4.183762959622e+01 
-1.006625669359e+02 4.083004300021e+01 0.0 
4.083004300021e+01 -2.005023400785e+02 0.0 
0.0 0.0 -8.994947210433e+01 
-7.869675104671e+01 4.017484938488e+01 0.0 
4.017484938488e+01 -1.488104029656e+02 0.0 
0.0 0.0 -6.785214620370e+01 
-5.640840974654e+01 3.509009315921e+01 0.0 
3.509009315921e+01 -7.030574767101e+01 0.0 
0.0 0.0 -3.761424722527e+01 
-6.670279284615e+01 3.523098742724e+01 0.0 
3.523098742724e+01 -8.923753995882e+01 0.0 
0.0 0.0 -4.638209984149e+01 
-1.465454408736e+02 2.731375129689e+01 0.0 
2.731375129689e+01 -3.564166782762e+02 0.0 
0.0 0.0 -1.504886357449e+02 
-1.333365848209e+02 2.638952787588e+01 0.0 
2.638952787588e+01 -3.357996533405e+02 0.0 
0.0 0.0 -1.403408714484e+02 
-9.798702830911e+01 3.784336378961e+01 0.0 
3.784336378961e+01 -1.984485370073e+02 0.0 
0.0 0.0 -8.853066959491e+01 
-9.116911470659e+01 3.328788800915e+01 0.0 
3.328788800915e+01 -1.441737994363e+02 0.0 
0.0 0.0 -7.020287424287e+01 
-9.341272302010e+01 -9.439672653666e+00 0.0 
-9.439672653666e+00 -2.541355867352e+02 0.0 
0.0 0.0 -1.038644929266e+02 
-6.246607734316e+01 3.768129996522e+01 0.0 
3.768129996522e+01 -1.095582287417e+02 0.0 
0.0 0.0 -5.120729182545e+01 
-4.538395341278e+01 1.654402881733e+01 0.0 
1.654402881733e+01 -1.323915938272e+02 0.0 
0.0 0.0 -5.293266417199e+01 
-4.824144039874e+01 1.420862291330e+01 0.0 
1.420862291330e+01 -1.427022045521e+02 0.0 
0.0 0.0 -5.688309348524e+01 
-7.642694045740e+01 4.013732340868e+01 0.0 
4.013732340868e+01 -1.484043596009e+02 0.0 
0.0 0.0 -6.704939001750e+01 
-9.250737832480e+01 8.200124659436e+00 0.0 
8.200124659436e+00 -2.574112708780e+02 0.0 
0.0 0.0 -1.045755947608e+02 
-8.841269548251e+01 -7.603528435157e+00 0.0 
-7.603528435157e+00 -2.047421296457e+02 0.0 
0.0 0.0 -8.754644753847e+01 
-9.604607935884e+01 3.443110249915e+01 0.0 
3.443110249915e+01 -1.834533291093e+02 0.0 
0.0 0.0 -8.344982254043e+01 
-5.145840782988e+01 -1.018668675702e+01 0.0 
-1.018668675702e+01 -1.543950104055e+02 0.0 
0.0 0.0 -6.135602547061e+01 
-6.888704117600e+01 3.814298798500e+01 0.0 
3.814298798500e+01 -1.469407256407e+02 0.0 
0.0 0.0 -6.434833004500e+01 
-7.474186297212e+01 3.701448890718e+01 0.0 
3.701448890718e+01 -1.283265545826e+02 0.0 
0.0 0.0 -6.052052526640e+01 
-6.483669683349e+01 3.823588922024e+01 0.0 
3.823588922024e+01 -1.291768449741e+02 0.0 
0.0 0.0 -5.780406254227e+01 
-1.177983693928e+02 4.710892348182e+01 0.0 
4.710892348182e+01 -2.665396911052e+02 0.0 
0.0 0.0 -1.149014181494e+02 
-1.107868905169e+02 4.275632920070e+01 0.0 
4.275632920070e+01 -2.477467217958e+02 0.0 
0.0 0.0 -1.071600836938e+02 
-1.087662801250e+02 4.173769318643e+01 0.0 
4.173769318643e+01 -2.288841165646e+02 0.0 
0.0 0.0 -1.008951190069e+02 
-9.980722153615e+01 -7.095683282984e+00 0.0 
-7.095683282984e+00 -2.716319937155e+02 0.0 
0.0 0.0 -1.110317645755e+02 
-8.947684726240e+01 2.615417817723e+01 0.0 
2.615417817723e+01 -1.522770481272e+02 0.0 
0.0 0.0 -7.212616861689e+01 
-5.309070119685e+01 3.462906688881e+01 0.0 
3.462906688881e+01 -8.941375904869e+01 0.0 
0.0 0.0 -4.235133807366e+01 
-5.168918636197e+01 1.225954654356e+01 0.0 
1.225954654356e+01 -1.533754746128e+02 0.0 
0.0 0.0 -6.111939829243e+01 
-4.270446832437e+01 9.863333350529e+00 0.0 
9.863333350529e+00 -1.326174661930e+02 0.0 
0.0 0.0 -5.253404815562e+01 
-6.066947086637e+01 3.687201131197e+01 0.0 
3.687201131197e+01 -8.975446875705e+01 0.0 
0.0 0.0 -4.472718188703e+01 
-5.347199388676e+01 7.023799144837e+00 0.0 
7.023799144837e+00 -2.774086129217e+01 0.0 
0.0 0.0 -2.396385655368e+01 
-6.678017760108e+01 1.114759143856e+01 0.0 
1.114759143856e+01 -7.369924533603e+01 0.0 
0.0 0.0 -4.174382688113e+01 
-1.413853450666e+02 1.922881410100e+01 0.0 
1.922881410100e+01 -3.586724695297e+02 0.0 
0.0 0.0 -1.496173443789e+02 
-9.889875552153e+01 4.013548806482e+01 0.0 
4.013548806482e+01 -2.134701021415e+02 0.0 
0.0 0.0 -9.331065729892e+01 
-7.748880792540e+01 3.300497637598e+01 0.0 
3.300497637598e+01 -1.115087694021e+02 0.0 
0.0 0.0 -5.629927319825e+01 
-8.188053573957e+01 3.752645236500e+01 0.0 
3.752645236500e+01 -1.495881319517e+02 0.0 
0.0 0.0 -6.904060030738e+01 
-4.677827474528e+01 1.034409294660e+01 0.0 
1.034409294660e+01 -1.425146738871e+02 0.0 
0.0 0.0 -5.791659770671e+01 
-1.796615553560e+01 -7.448061448570e+00 0.0 
-7.448061448570e+00 -4.708943648164e+01 0.0 
0.0 0.0 -1.783099867741e+01 
-6.954176385093e+01 2.988541904337e+01 0.0 
2.988541904337e+01 -1.750848170424e+02 0.0 
0.0 0.0 -7.298797426799e+01 
-7.308627323517e+01 3.778549941396e+01 0.0 
3.778549941396e+01 -1.636821307498e+02 0.0 
0.0 0.0 -7.063052119548e+01 
-6.570470755018e+01 2.945991454207e+01 0.0 
2.945991454207e+01 -1.649047185539e+02 0.0 
0.0 0.0 -6.878282783122e+01 
-4.513116813656e+01 2.983490496623e+01 0.0 
2.983490496623e+01 -5.560400027750e+01 0.0 
0.0 0.0 -2.932833689289e+01 
-4.165289167528e+01 2.849843260795e-01 0.0 
2.849843260795e-01 -4.193722588685e+01 0.0 
0.0 0.0 -2.467703526864e+01 
-3.931687223699e+01 -5.634216118556e+00 0.0 
-5.634216118556e+00 -8.471820683822e+01 0.0 
0.0 0.0 -3.681052372256e+01 
-5.829314409966e+01 3.289374317123e+01 0.0 
3.289374317123e+01 -1.306670624780e+02 0.0 
0.0 0.0 -5.628806197329e+01 
-1.606740447331e+02 1.988136819795e+01 0.0 
1.988136819795e+01 -3.762394377107e+02 0.0 
0.0 0.0 -1.606740447331e+02 
-9.368429707269e+01 2.063505216837e+01 0.0 
2.063505216837e+01 -2.525942376683e+02 0.0 
0.0 0.0 -1.034835604223e+02 
-6.818710296588e+01 2.829890207925e+01 0.0 
2.829890207925e+01 -6.900459526201e+01 0.0 
0.0 0.0 -4.075750946837e+01 
-1.737512499291e+01 -7.017838403940e-01 0.0 
-7.017838403940e-01 -5.856164816080e+01 0.0 
0.0 0.0 -2.238103194612e+01 
-7.114058234482e+01 3.797050190830e+01 0.0 
3.797050190830e+01 -1.480230203568e+02 0.0 
0.0 0.0 -6.534908081048e+01 
-6.186260839836e+01 2.599698681933e+01 0.0 
2.599698681933e+01 -1.613562583762e+02 0.0 
0.0 0.0 -6.656566003238e+01 
-8.228124017687e+01 3.787173025711e+01 0.0 
3.787173025711e+01 -1.325860906192e+02 0.0 
0.0 0.0 -6.406019923882e+01 
-1.225768573254e+02 4.645571345991e+01 0.0 
4.645571345991e+01 -2.914959264369e+02 0.0 
0.0 0.0 -1.238218351287e+02 
-6.987885999240e+01 3.473405944393e+01 0.0 
3.473405944393e+01 -8.981887462033e+01 0.0 
0.0 0.0 -4.750932038382e+01 
-8.099022560833e+01 4.008108139581e+01 0.0 
4.008108139581e+01 -1.494756993399e+02 0.0 
0.0 0.0 -6.873977748448e+01 
-8.711916762756e+01 -9.926274058410e+00 0.0 
-9.926274058410e+00 -2.036959151465e+02 0.0 
0.0 0.0 -8.684452483223e+01 
-9.265620794960e+01 3.137059120773e+01 0.0 
3.137059120773e+01 -1.649062140955e+02 0.0 
0.0 0.0 -7.686872661354e+01 
-9.955679695550e+01 -6.999435848997e+00 0.0 
-6.999435848997e+00 -2.730403801585e+02 0.0 
0.0 0.0 -1.113791531342e+02 
-1.234909542139e+02 4.495036467854e+01 0.0 
4.495036467854e+01 -2.971651919668e+02 0.0 
0.0 0.0 -1.257968438542e+02 
-1.151147518673e+02 4.510940758380e+01 0.0 
4.510940758380e+01 -2.699344210236e+02 0.0 
0.0 0.0 -1.151147518673e+02 
-9.904108175060e+01 3.689704744192e+01 0.0 
3.689704744192e+01 -2.324291907514e+02 0.0 
0.0 0.0 -9.904108175060e+01 
-1.058311617701e+02 4.160914575164e+01 0.0 
4.160914575164e+01 -2.482727107968e+02 0.0 
0.0 0.0 -1.058311617701e+02 
-8.390370532981e+01 3.700886434047e+01 0.0 
3.700886434047e+01 -1.508651161983e+02 0.0 
0.0 0.0 -7.003064645844e+01 
-9.578052145626e+01 3.469800067951e+01 0.0 
3.469800067951e+01 -1.668552815563e+02 0.0 
0.0 0.0 -7.839074090376e+01 
-1.013550274785e+02 4.009276366350e+01 0.0 
4.009276366350e+01 -2.177380360084e+02 0.0 
0.0 0.0 -9.532791904608e+01 
-6.379892618884e+01 3.657141563418e+01 0.0 
3.657141563418e+01 -1.292028495898e+02 0.0 
0.0 0.0 -5.750053273360e+01 
-6.012410254865e+01 3.546661546979e+01 0.0 
3.546661546979e+01 -1.081627517781e+02 0.0 
0.0 0.0 -5.008605629801e+01 
-8.388429921266e+01 -6.393426503555e+00 0.0 
-6.393426503555e+00 -1.910402199038e+02 0.0 
0.0 0.0 -8.207735573495e+01 
-9.912522776866e+01 3.771827498235e+01 0.0 
3.771827498235e+01 -1.854557098801e+02 0.0 
0.0 0.0 -8.497428129462e+01 
-1.279911338057e+02 4.208418449532e+01 0.0 
4.208418449532e+01 -3.093480931584e+02 0.0 
0.0 0.0 -1.308017680892e+02 
-9.330187275853e+01 2.982645024527e+01 0.0 
2.982645024527e+01 -1.695392059976e+02 0.0 
0.0 0.0 -7.845232362685e+01 
-8.642967432447e+01 1.905689427140e+01 0.0 
1.905689427140e+01 -2.355780813632e+02 0.0 
0.0 0.0 -9.620232670630e+01 
-9.694946631017e+01 3.319915007639e+01 0.0 
3.319915007639e+01 -1.717474466071e+02 0.0 
0.0 0.0 -8.020907387518e+01 
-9.016205479085e+01 3.348234145731e+01 0.0 
3.348234145731e+01 -2.260584292266e+02 0.0 
0.0 0.0 -9.446614520525e+01 
-7.197429784934e+01 3.632408338325e+01 0.0 
3.632408338325e+01 -1.650873210081e+02 0.0 
0.0 0.0 -7.071848565724e+01 
-5.861711268767e+01 3.476908786767e+01 0.0 
3.476908786767e+01 -8.856450622286e+01 0.0 
0.0 0.0 -4.375448567316e+01 
-5.769804102140e+01 3.485598708886e+01 0.0 
3.485598708886e+01 -1.181547723441e+02 0.0 
0.0 0.0 -5.161395730587e+01 
-8.967356755734e+01 2.447754969770e+01 0.0 
2.447754969770e+01 -1.933324823846e+02 0.0 
0.0 0.0 -8.450181498259e+01 
-6.207737031669e+01 3.611939929381e+01 0.0 
3.611939929381e+01 -1.298665231414e+02 0.0 
0.0 0.0 -5.718316803744e+01 
-1.152074882636e+02 3.764965623674e+01 0.0 
3.764965623674e+01 -2.874224105429e+02 0.0 
0.0 0.0 -1.203889696420e+02 
-8.329077396685e+01 -8.910645223995e+00 0.0 
-8.910645223995e+00 -1.902481530938e+02 0.0 
0.0 0.0 -8.166167811820e+01 
-6.007711542660e+01 -2.008323315873e+01 0.0 
-2.008323315873e+01 -1.663571767790e+02 0.0 
0.0 0.0 -6.753028766169e+01 
-1.495180729777e+02 1.627954370204e+01 0.0 
1.627954370204e+01 -3.655076332877e+02 0.0 
0.0 0.0 -1.541077118796e+02 
-5.881652575560e+01 3.374292186237e+01 0.0 
3.374292186237e+01 -1.279798403322e+02 0.0 
0.0 0.0 -5.563890982635e+01 
-1.195452235076e+02 4.594370056840e+01 0.0 
4.594370056840e+01 -2.802721881843e+02 0.0 
0.0 0.0 -1.195452235076e+02 
-1.024895380319e+02 3.769369828929e+01 0.0 
3.769369828929e+01 -2.246007800136e+02 0.0 
0.0 0.0 -9.772709541365e+01 
-8.070387904004e+01 3.907335163269e+01 0.0 
3.907335163269e+01 -1.674110657479e+02 0.0 
0.0 0.0 -7.403448343639e+01 
-1.053704850888e+01 -8.003919348860e-01 0.0 
-8.003919348860e-01 -2.667073252980e+01 0.0 
0.0 0.0 -1.110075191390e+01 
-1.267112321061e+02 4.466151304487e+01 0.0 
4.466151304487e+01 -2.969928749142e+02 0.0 
0.0 0.0 -1.267112321061e+02 
-1.446482608963e+02 2.130710899376e+01 0.0 
2.130710899376e+01 -3.516319272288e+02 0.0 
0.0 0.0 -1.484840564375e+02 
-5.078681094840e+01 -2.040249588141e+01 0.0 
-2.040249588141e+01 -1.409712952727e+02 0.0 
0.0 0.0 -5.712743186633e+01 
-9.117471348865e+01 1.745283925083e+01 0.0 
1.745283925083e+01 -2.489406008840e+02 0.0 
0.0 0.0 -1.016345943118e+02 
-1.401919307463e+02 3.314719228150e+01 0.0 
3.314719228150e+01 -3.388109834351e+02 0.0 
0.0 0.0 -1.433008742544e+02 
9.999728474373e-01 1.696062541147e-02 0.0 
1.696062541147e-02 -9.594315436901e+00 0.0 
0.0 0.0 1.000000000000e+00 
-6.722914115020e+01 3.649312826873e+01 0.0 
3.649312826873e+01 -1.480851029907e+02 0.0 
0.0 0.0 -6.419427324228e+01 
-8.292027234952e+01 3.902291312525e+01 0.0 
3.902291312525e+01 -1.679411326943e+02 0.0 
0.0 0.0 -7.485842151314e+01 
-7.846003449000e+01 3.901302480903e+01 0.0 
3.901302480903e+01 -1.672140557017e+02 0.0 
0.0 0.0 -7.330222705750e+01 
-7.771756808666e+01 3.818816990950e+01 0.0 
3.818816990950e+01 -1.479960793204e+02 0.0 
0.0 0.0 -6.731409422211e+01 
-5.665250183272e+01 3.471139232899e+01 0.0 
3.471139232899e+01 -1.141650028797e+02 0.0 
0.0 0.0 -5.043768071208e+01 
-1.316191835887e+02 4.148419014074e+01 0.0 
4.148419014074e+01 -3.084447617070e+02 0.0 
0.0 0.0 -1.316191835887e+02 
-5.627851991632e+01 1.111585983900e+01 0.0 
1.111585983900e+01 -1.658429844040e+02 0.0 
0.0 0.0 -6.623645129610e+01 
-3.893567522644e+01 1.870855982063e+00 0.0 
1.870855982063e+00 -1.269090814383e+02 0.0 
0.0 0.0 -5.182308195648e+01 
-1.590563769183e+02 7.719720318599e-01 0.0 
7.719720318599e-01 -3.826331391888e+02 0.0 
0.0 0.0 -1.621068548321e+02 
9.971047993704e-01 2.735861740959e-01 0.0 
2.735861740959e-01 -2.485292151815e+01 0.0 
0.0 0.0 -3.718913560627e+00 
-6.370911610531e+01 3.534925493804e+01 0.0 
3.534925493804e+01 -8.878892900021e+01 0.0 
0.0 0.0 -4.534941353166e+01 
-3.622119344723e+01 -2.363498843086e+01 0.0 
-2.363498843086e+01 -8.918762299163e+01 0.0 
0.0 0.0 -3.839754879947e+01 
-6.913825894514e+01 3.402470363580e+01 0.0 
3.402470363580e+01 -7.054718242021e+01 0.0 
0.0 0.0 -4.150563240960e+01 
-1.494346363953e+02 2.496641104497e+01 0.0 
2.496641104497e+01 -3.630955055497e+02 0.0 
0.0 0.0 -1.533590425835e+02 
-1.368871604857e+02 3.818014146309e+01 0.0 
3.818014146309e+01 -3.207367077999e+02 0.0 
0.0 0.0 -1.368871604857e+02 
-7.877189778170e+01 3.594791990668e+01 0.0 
3.594791990668e+01 -1.302383149908e+02 0.0 
0.0 0.0 -6.230306383174e+01 
-2.901723146833e+01 -2.331344327211e+01 0.0 
-2.331344327211e+01 -5.692255298571e+01 0.0 
0.0 0.0 -2.588514734310e+01 
-4.046070383660e+01 7.707185035538e+00 0.0 
7.707185035538e+00 -1.284806412797e+02 0.0 
0.0 0.0 -5.302511950162e+01 
-4.944506227885e+01 -3.135596244887e+01 0.0 
-3.135596244887e+01 -1.026982220527e+02 0.0 
0.0 0.0 -4.402300767289e+01 
-1.360963373464e+02 -4.058636734687e-01 0.0 
-4.058636734687e-01 -3.419201378733e+02 0.0 
0.0 0.0 -1.430049425659e+02 
-5.444996958870e+01 9.128834582085e+00 0.0 
9.128834582085e+00 -3.209982337933e+01 0.0 
0.0 0.0 -2.556493789041e+01 
-7.259823441683e+01 3.087034915224e+01 0.0 
3.087034915224e+01 -7.040362657426e+01 0.0 
0.0 0.0 -4.250055829733e+01 
-1.419843906403e+02 3.475128048539e+01 0.0 
3.475128048539e+01 -3.326302448273e+02 0.0 
0.0 0.0 -1.419843906403e+02 
-4.834561896069e+01 6.034857682079e+00 0.0 
6.034857682079e+00 -2.934584527928e+01 0.0 
0.0 0.0 -2.290743927199e+01 
-1.056205350536e+02 3.721189002665e+01 0.0 
3.721189002665e+01 -2.327999405083e+02 0.0 
0.0 0.0 -1.011261426686e+02 
-9.500202906282e+01 3.188562566396e+01 0.0 
3.188562566396e+01 -2.420663602179e+02 0.0 
0.0 0.0 -1.007205167842e+02 
-5.990310764502e+01 7.018116291211e+00 0.0 
7.018116291211e+00 -6.104643211399e+01 0.0 
0.0 0.0 -3.588486192770e+01 
-5.182812702561e+01 3.401346253484e+01 0.0 
3.401346253484e+01 -8.859578707552e+01 0.0 
0.0 0.0 -4.172717423034e+01 
-9.091655804472e+01 1.689990219026e+01 0.0 
1.689990219026e+01 -2.487138221406e+02 0.0 
0.0 0.0 -1.014891140556e+02 
-3.993094562667e+01 2.154830787941e+01 0.0 
2.154830787941e+01 -1.078338577583e+02 0.0 
0.0 0.0 -4.404354650349e+01 
-1.467321894641e+02 3.098000013286e+01 0.0 
3.098000013286e+01 -3.437084420828e+02 0.0 
0.0 0.0 -1.467321894641e+02 
-1.105094171065e+02 4.353091726538e+01 0.0 
4.353091726538e+01 -2.591886399152e+02 0.0 
0.0 0.0 -1.105094171065e+02 
-1.023398285146e+02 3.948988775669e+01 0.0 
3.948988775669e+01 -2.401262665340e+02 0.0 
0.0 0.0 -1.023398285146e+02 
-1.043954143584e+02 -7.078690855526e+00 0.0 
-7.078690855526e+00 -2.750754531323e+02 0.0 
0.0 0.0 -1.134412602472e+02 
-7.890820811472e+01 -5.032419222567e+00 0.0 
-5.032419222567e+00 -1.776629825041e+02 0.0 
0.0 0.0 -7.657135718566e+01 
-6.896394415364e+01 3.623085336051e+01 0.0 
3.623085336051e+01 -1.552605417404e+02 0.0 
0.0 0.0 -6.686734576820e+01 
-1.046129320331e+02 -7.216555420434e+00 0.0 
-7.216555420434e+00 -2.778742566953e+02 0.0 
0.0 0.0 -1.143461566185e+02 
-1.517343001929e+02 2.703532363504e+01 0.0 
2.703532363504e+01 -3.553800337834e+02 0.0 
0.0 0.0 -1.517343001929e+02 
-4.651906582674e+01 2.790863367841e+01 0.0 
2.790863367841e+01 -1.087346595690e+02 0.0 
0.0 0.0 -4.617611761873e+01 
-5.079332013813e+01 -1.332283324023e+01 0.0 
-1.332283324023e+01 -1.501392264653e+02 0.0 
0.0 0.0 -5.987976398104e+01 
-5.656797428057e+01 -1.471719401816e+01 0.0 
-1.471719401816e+01 -1.635399258665e+02 0.0 
0.0 0.0 -6.563237004412e+01 
-6.251138899114e+01 7.129092576605e+00 0.0 
7.129092576605e+00 -7.174982007555e+01 0.0 
0.0 0.0 -3.987836272000e+01 
-1.572798123956e+02 1.731439270610e+01 0.0 
1.731439270610e+01 -3.826980252858e+02 0.0 
0.0 0.0 -1.615933513044e+02 
-4.864622659775e+01 -3.240073382045e+01 0.0 
-3.240073382045e+01 -8.712004684250e+01 0.0 
0.0 0.0 -3.925849942835e+01 
-1.576890198869e+02 2.223143924859e+01 0.0 
2.223143924859e+01 -3.692743797360e+02 0.0 
0.0 0.0 -1.576890198869e+02 
-5.735584190828e+01 -1.752694338014e+01 0.0 
-1.752694338014e+01 -1.625147793661e+02 0.0 
0.0 0.0 -6.556118638232e+01 
-1.237245509956e+02 4.587203652439e+01 0.0 
4.587203652439e+01 -2.900239523230e+02 0.0 
0.0 0.0 -1.237245509956e+02 
-1.043290916232e+02 4.281604290965e+01 0.0 
4.281604290965e+01 -2.196609386654e+02 0.0 
0.0 0.0 -9.679700908657e+01 
9.988382032566e-01 -1.005186158292e-01 0.0 
-1.005186158292e-01 -7.696867318038e+00 0.0 
0.0 0.0 1.000000000000e+00 
-7.038979515330e+01 3.546797602212e+01 0.0 
3.546797602212e+01 -1.627195802931e+02 0.0 
0.0 0.0 -6.953281263393e+01 
-9.453960836653e+01 2.815594109222e+01 0.0 
2.815594109222e+01 -1.615595649032e+02 0.0 
0.0 0.0 -7.642975198093e+01 
-1.288765582776e+02 4.311285507441e+01 0.0 
4.311285507441e+01 -3.020453026476e+02 0.0 
0.0 0.0 -1.288765582776e+02 
-8.540603616635e+01 3.946246004045e+01 0.0 
3.946246004045e+01 -1.519656859581e+02 0.0 
0.0 0.0 -7.081151663735e+01 
-9.784727125436e+01 2.949773501451e+01 0.0 
2.949773501451e+01 -2.532315460060e+02 0.0 
0.0 0.0 -1.049236451781e+02 
-5.843347190783e+01 3.693378023975e+01 0.0 
3.693378023975e+01 -1.021346435857e+02 0.0 
0.0 0.0 -4.756010151598e+01 
-1.339301599459e+02 1.804880209546e+01 0.0 
1.804880209546e+01 -3.405310221191e+02 0.0 
0.0 0.0 -1.419383546195e+02 
-6.387316257007e+01 -1.734481494118e+01 0.0 
-1.734481494118e+01 -1.789862139421e+02 0.0 
0.0 0.0 -7.245781295365e+01 
-6.758724852354e+01 -1.536926080125e+01 0.0 
-1.536926080125e+01 -1.909994027011e+02 0.0 
0.0 0.0 -7.717599536739e+01 
-4.752354945133e+01 -3.192360389590e+01 0.0 
-3.192360389590e+01 -7.025725823668e+01 0.0 
0.0 0.0 -3.444164194610e+01 
-1.341947977160e+02 3.980820974068e+01 0.0 
3.980820974068e+01 -3.144545280040e+02 0.0 
0.0 0.0 -1.341947977160e+02 
-4.284296944917e+01 1.909586658042e+01 0.0 
1.909586658042e+01 -1.214592690833e+02 0.0 
0.0 0.0 -4.873238805374e+01 
-1.224274095619e+02 8.157197676512e+00 0.0 
8.157197676512e+00 -3.313133251706e+02 0.0 
0.0 0.0 -1.357222204197e+02 
-5.860323176097e+01 7.556388930099e+00 0.0 
7.556388930099e+00 -5.161871961624e+01 0.0 
0.0 0.0 -3.266658541316e+01 
-6.258986239548e+01 -1.501117495331e+01 0.0 
-1.501117495331e+01 -1.439518893625e+02 0.0 
0.0 0.0 -6.156252552738e+01 
-6.401974028611e+01 -1.593901179773e+01 0.0 
-1.593901179773e+01 -1.813912843083e+02 0.0 
0.0 0.0 -7.322330737833e+01 
-8.325700327666e+01 3.980423569225e+01 0.0 
3.980423569225e+01 -1.506137909768e+02 0.0 
0.0 0.0 -6.976123827604e+01 
-1.443627711647e+02 3.291386543614e+01 0.0 
3.291386543614e+01 -3.381797993843e+02 0.0 
0.0 0.0 -1.443627711647e+02 
-8.222823767621e+01 -6.537403362779e+00 0.0 
-6.537403362779e+00 -1.850716761957e+02 0.0 
0.0 0.0 -7.978997416157e+01 
-1.129660998142e+02 -2.360378633406e+00 0.0 
-2.360378633406e+00 -3.049318079843e+02 0.0 
0.0 0.0 -1.249693723395e+02 
-7.922978399763e+01 3.774984844800e+01 0.0 
3.774984844800e+01 -1.840055809508e+02 0.0 
0.0 0.0 -7.857060948453e+01 
-9.670421696011e+01 2.072124461616e+00 0.0 
2.072124461616e+00 -2.690554652744e+02 0.0 
0.0 0.0 -1.093279046704e+02 
-6.371181545212e+01 -1.129251402418e+01 0.0 
-1.129251402418e+01 -1.843640612943e+02 0.0 
0.0 0.0 -7.402276302392e+01 
-1.063135494884e+02 -4.718832388108e+00 0.0 
-4.718832388108e+00 -2.885515170220e+02 0.0 
0.0 0.0 -1.180595199531e+02 
-7.620874843353e+01 3.974148510683e+01 0.0 
3.974148510683e+01 -1.670818985379e+02 0.0 
0.0 0.0 -7.258719409144e+01 
-9.256629748616e+01 3.954455753307e+01 0.0 
3.954455753307e+01 -2.199444783783e+02 0.0 
0.0 0.0 -9.335323275935e+01 
-9.823787016954e+01 1.850572774488e+01 0.0 
1.850572774488e+01 -2.659326527259e+02 0.0 
0.0 0.0 -1.088511568686e+02 
-7.674804609921e+01 3.588213624162e+01 0.0 
3.588213624162e+01 -1.816563445599e+02 0.0 
0.0 0.0 -7.712131719774e+01 
-8.351153835676e+01 -1.125082123113e+01 0.0 
-1.125082123113e+01 -1.970620651653e+02 0.0 
0.0 0.0 -8.377208105662e+01 
-5.071602526939e+01 3.026957189779e+01 0.0 
3.026957189779e+01 -1.139967782721e+02 0.0 
0.0 0.0 -4.901384106244e+01 
-7.891117927633e+01 -7.657049594834e+00 0.0 
-7.657049594834e+00 -1.771002297667e+02 0.0 
0.0 0.0 -7.640342271290e+01 
-9.294181894829e+01 3.101654727135e+01 0.0 
3.101654727135e+01 -2.378896882366e+02 0.0 
0.0 0.0 -9.884945215547e+01 
-8.102055770235e+01 1.189092033408e+01 0.0 
1.189092033408e+01 -2.272403795887e+02 0.0 
0.0 0.0 -9.207828118732e+01 
-1.521351188906e+02 2.276818178383e+01 0.0 
2.276818178383e+01 -3.697126766701e+02 0.0 
0.0 0.0 -1.561543386682e+02 
-9.793251740277e+01 3.173419362571e+01 0.0 
3.173419362571e+01 -1.774045064077e+02 0.0 
0.0 0.0 -8.220110714313e+01 
-5.729458814497e+01 -1.556864149092e+01 0.0 
-1.556864149092e+01 -1.247552669716e+02 0.0 
0.0 0.0 -5.421495653498e+01 
-1.548302120152e+02 2.456254967022e+01 0.0 
2.456254967022e+01 -3.626038280355e+02 0.0 
0.0 0.0 -1.548302120152e+02 
-1.387774103885e+02 2.176878913183e+01 0.0 
2.176878913183e+01 -3.518853715917e+02 0.0 
0.0 0.0 -1.467988345941e+02 
-7.338151312515e+01 2.818695047012e+01 0.0 
2.818695047012e+01 -1.893224017230e+02 0.0 
0.0 0.0 -7.841117445446e+01 
-1.848573870481e+01 -1.813177498751e+01 0.0 
-1.813177498751e+01 -2.689018033549e+01 0.0 
0.0 0.0 -1.348720581619e+01 
-1.587648181044e+02 1.430533766627e+01 0.0 
1.430533766627e+01 -3.877415910877e+02 0.0 
0.0 0.0 -1.635519227576e+02 
-1.000709520516e+02 3.625149787911e+01 0.0 
3.625149787911e+01 -1.891055604445e+02 0.0 
0.0 0.0 -8.635295374884e+01 
-5.751485700471e+01 -1.970711617705e+01 0.0 
-1.970711617705e+01 -1.600990293553e+02 0.0 
0.0 0.0 -6.488416590801e+01 
-1.635736730545e+02 1.725229949319e+01 0.0 
1.725229949319e+01 -3.830052371272e+02 0.0 
0.0 0.0 -1.635736730545e+02 
-1.110517584624e+02 -5.111798989941e+00 0.0 
-5.111798989941e+00 -2.927047001103e+02 0.0 
0.0 0.0 -1.207269375718e+02 
-6.233240382195e+01 3.587480757920e+01 0.0 
3.587480757920e+01 -1.080393645638e+02 0.0 
0.0 0.0 -5.071153051574e+01 
-7.427645779992e+01 3.024962883343e+01 0.0 
3.024962883343e+01 -9.108110897090e+01 0.0 
0.0 0.0 -4.920727003124e+01 
-7.672603936490e+01 1.389531146146e+01 0.0 
1.389531146146e+01 -2.152251693473e+02 0.0 
0.0 0.0 -8.718536261365e+01 
-9.779970626119e+01 -8.982350512577e+00 0.0 
-8.982350512577e+00 -2.570547519821e+02 0.0 
0.0 0.0 -1.060563374730e+02 
-9.784574514095e+01 6.355269834091e+00 0.0 
6.355269834091e+00 -2.711442405036e+02 0.0 
0.0 0.0 -1.102969956934e+02 
-8.593982201478e+01 3.185380724599e+01 0.0 
3.185380724599e+01 -1.208409113842e+02 0.0 
0.0 0.0 -6.163422001971e+01 
-6.701223606768e+01 3.631594813052e+01 0.0 
3.631594813052e+01 -1.081919546857e+02 0.0 
0.0 0.0 -5.216125722600e+01 
-1.007483237824e+02 2.150582981729e+01 0.0 
2.150582981729e+01 -2.697705814938e+02 0.0 
0.0 0.0 -1.107556715828e+02 
-4.903570621768e+01 1.015271205044e+00 0.0 
1.015271205044e+00 -5.904971038140e+01 0.0 
0.0 0.0 -3.202562497972e+01 
-8.511133140563e+01 -8.998332113112e+00 0.0 
-8.998332113112e+00 -1.982246704596e+02 0.0 
0.0 0.0 -8.460080055956e+01 
-9.575916875543e+01 1.530839584114e+01 0.0 
1.530839584114e+01 -2.619800559671e+02 0.0 
0.0 0.0 -1.069217674168e+02 
-6.904371984634e+01 -1.709906137988e+01 0.0 
-1.709906137988e+01 -1.812297953115e+02 0.0 
0.0 0.0 -7.468205454734e+01 
-1.124638411264e+02 -6.501025507514e+00 0.0 
-6.501025507514e+00 -2.711468906567e+02 0.0 
0.0 0.0 -1.146832195349e+02 
9.984941725263e-01 5.973117077871e-02 0.0 
5.973117077871e-02 -1.369337008926e+00 0.0 
0.0 0.0 1.000000000000e+00 
-5.484345213412e+01 3.247200499935e+01 0.0 
3.247200499935e+01 -1.183403050828e+02 0.0 
0.0 0.0 -5.155512716507e+01 
-6.537605678330e+01 -1.791064483857e+01 0.0 
-1.791064483857e+01 -1.828447863655e+02 0.0 
0.0 0.0 -7.406625294463e+01 
-9.068627545133e+01 -8.647570921792e+00 0.0 
-8.647570921792e+00 -2.108320041912e+02 0.0 
0.0 0.0 -9.005548389275e+01 
-7.629619021759e+01 3.112362615743e+01 0.0 
3.112362615743e+01 -1.917687806727e+02 0.0 
0.0 0.0 -8.001949126709e+01 
-1.063316576202e+02 -4.745545284611e+00 0.0 
-4.745545284611e+00 -2.907800382044e+02 0.0 
0.0 0.0 -1.187335087474e+02 
-6.202962969935e+01 7.332756874360e+00 0.0 
7.332756874360e+00 -6.394875110050e+01 0.0 
0.0 0.0 -3.739351423996e+01 
-6.314700214029e+01 -1.863130445210e+01 0.0 
-1.863130445210e+01 -1.627366863456e+02 0.0 
0.0 0.0 -6.736510654575e+01 
-1.660939294307e+02 1.461614456066e+01 0.0 
1.461614456066e+01 -3.888858353383e+02 0.0 
0.0 0.0 -1.660939294307e+02 
-8.389979551931e+01 4.095926534741e+01 0.0 
4.095926534741e+01 -1.687368387734e+02 0.0 
0.0 0.0 -7.539099028781e+01 
-9.424924592845e+01 -7.440841233516e+00 0.0 
-7.440841233516e+00 -2.182008544790e+02 0.0 
0.0 0.0 -9.333503012224e+01 
-8.146920909059e+01 4.084000345833e+01 0.0 
4.084000345833e+01 -1.680893926276e+02 0.0 
0.0 0.0 -7.446758051545e+01 
-9.181286022691e+01 -6.326895954442e+00 0.0 
-6.326895954442e+00 -2.118043520671e+02 0.0 
0.0 0.0 -9.068516368819e+01 
9.999996599740e-01 -2.120027505615e-03 0.0 
-2.120027505615e-03 -1.221815395534e+01 0.0 
0.0 0.0 -3.013117651486e+00 
-7.803400810832e+01 3.220693486691e+01 0.0 
3.220693486691e+01 -9.435319991487e+01 0.0 
0.0 0.0 -5.131616240696e+01 
-7.608523911220e+01 -2.849675669083e+00 0.0 
-2.849675669083e+00 -1.701275129449e+02 0.0 
0.0 0.0 -7.346382561712e+01 
9.992386325062e-01 8.782328016948e-02 0.0 
8.782328016948e-02 -9.130362279623e+00 0.0 
0.0 0.0 -6.380050967063e-02 
-9.012182078298e+01 -6.576356182575e+00 0.0 
-6.576356182575e+00 -2.053966369539e+02 0.0 
0.0 0.0 -8.825553732106e+01 
-1.133009523419e+02 -2.546977849017e+00 0.0 
-2.546977849017e+00 -3.082423605158e+02 0.0 
0.0 0.0 -1.260629938573e+02 
-7.412450659322e+01 6.120443437294e+00 0.0 
6.120443437294e+00 -1.367505566546e+02 0.0 
0.0 0.0 -6.286251897433e+01 
-9.136877344819e+01 3.944555706663e+00 0.0 
3.944555706663e+00 -2.556904854613e+02 0.0 
0.0 0.0 -1.037177776729e+02 
-9.313558312735e+01 3.151966385063e+00 0.0 
3.151966385063e+00 -2.601580504001e+02 0.0 
0.0 0.0 -1.055880900582e+02 
-7.042617284610e+01 2.765854481753e+01 0.0 
2.765854481753e+01 -5.038965301377e+01 0.0 
0.0 0.0 -3.584474775796e+01 
-3.914148687867e+01 1.553648879899e+00 0.0 
1.553648879899e+00 -8.560134934315e+00 0.0 
0.0 0.0 -1.391048654389e+01 
-9.524040943237e+01 3.059814961216e+01 0.0 
3.059814961216e+01 -2.042348362718e+02 0.0 
0.0 0.0 -8.944257371125e+01 
-7.920566189073e+01 4.055082049543e+01 0.0 
4.055082049543e+01 -1.678176220684e+02 0.0 
0.0 0.0 -7.370698518773e+01 
9.999338941563e-01 -2.285264514264e-02 0.0 
-2.285264514264e-02 -6.900109291512e+00 0.0 
0.0 0.0 1.000000000000e+00 
-2.981083354133e+01 -2.286224143574e+00 0.0 
-2.286224143574e+00 -6.996686084573e+01 0.0 
0.0 0.0 -2.953330831612e+01 
-1.712692402091e+01 -6.279193278209e+00 0.0 
-6.279193278209e+00 -2.264273343010e+01 0.0 
0.0 0.0 -1.185249159404e+01 
-5.936566300159e+01 -1.004052025312e+01 0.0 
-1.004052025312e+01 -1.297827160461e+02 0.0 
0.0 0.0 -5.634451371431e+01 
-1.040904235023e+02 4.300053285930e+01 0.0 
4.300053285930e+01 -2.456642841016e+02 0.0 
0.0 0.0 -1.045264122812e+02 
-7.740776585214e+01 8.214562401015e+00 0.0 
8.214562401015e+00 -1.385066848335e+02 0.0 
0.0 0.0 -6.437433520570e+01 
-1.289690509198e+02 -3.110533552778e+00 0.0 
-3.110533552778e+00 -3.282421524768e+02 0.0 
0.0 0.0 -1.367633610190e+02 
-6.395815754409e+01 -6.767310733105e+00 0.0 
-6.767310733105e+00 -1.416403634801e+02 0.0 
0.0 0.0 -6.127955630724e+01 
-1.148024602243e+02 -4.574785474691e+00 0.0 
-4.574785474691e+00 -2.725810133248e+02 0.0 
0.0 0.0 -1.158150420647e+02 
-1.256659045807e+02 6.714509569960e+00 0.0 
6.714509569960e+00 -3.396513405271e+02 0.0 
0.0 0.0 -1.391951735323e+02 
-4.052729242760e+01 -8.490909535892e-02 0.0 
-8.490909535892e-02 -1.309613393983e+02 0.0 
0.0 0.0 -5.261226627696e+01 
-7.583396810761e+01 -1.363371660313e-01 0.0 
-1.363371660313e-01 -1.700895594995e+02 0.0 
0.0 0.0 -7.337705828212e+01 
-6.216358508591e+01 -1.786186705890e+00 0.0 
-1.786186705890e+00 -1.395054262750e+02 0.0 
0.0 0.0 -6.010070340828e+01 
-1.608875642321e+02 1.099995685016e+01 0.0 
1.099995685016e+01 -3.917736252632e+02 0.0 
0.0 0.0 -1.653983568486e+02 
-1.681886341053e+02 1.170268693978e+01 0.0 
1.170268693978e+01 -3.937734795789e+02 0.0 
0.0 0.0 -1.681886341053e+02 
-8.428339991167e+01 -5.358228928449e-01 0.0 
-5.358228928449e-01 -1.895581930470e+02 0.0 
0.0 0.0 -8.175247788760e+01 
-9.539884457041e+01 -5.103508524877e+00 0.0 
-5.103508524877e+00 -2.191989577350e+02 0.0 
0.0 0.0 -9.397934069162e+01 
-9.790550217602e+01 -9.068204226793e+00 0.0 
-9.068204226793e+00 -2.592912134165e+02 0.0 
0.0 0.0 -1.067590146778e+02 
-1.280337215835e+02 1.049785664385e+01 0.0 
1.049785664385e+01 -3.444460511322e+02 0.0 
0.0 0.0 -1.413439318147e+02 
-3.746529593285e+01 -5.532410355337e+00 0.0 
-5.532410355337e+00 -7.842003128649e+01 0.0 
0.0 0.0 -3.436559816580e+01 
-1.230018505777e+02 3.079448433302e+00 0.0 
3.079448433302e+00 -3.336710016038e+02 0.0 
0.0 0.0 -1.366018556545e+02 
-8.081855919758e+00 -1.914268965806e-01 0.0 
-1.914268965806e-01 -4.233218091733e+01 0.0 
0.0 0.0 -1.472421105113e+01 
-8.716017938335e+01 -5.219358485805e+00 0.0 
-5.219358485805e+00 -1.985110482328e+02 0.0 
0.0 0.0 -8.530136828485e+01 
-9.599984633846e+01 -7.227843917767e+00 0.0 
-7.227843917767e+00 -2.253265711694e+02 0.0 
0.0 0.0 -9.599792525236e+01 
-8.952417258674e-01 3.877903082818e-02 0.0 
3.877903082818e-02 -2.562241331338e+01 0.0 
0.0 0.0 -7.701117992038e+00 
-8.046335577642e+01 -2.046036350743e+00 0.0 
-2.046036350743e+00 -1.796508345825e+02 0.0 
0.0 0.0 -7.763425710768e+01 
-9.315241443294e+01 2.865122503158e+01 0.0 
2.865122503158e+01 -1.746167080800e+02 0.0 
0.0 0.0 -7.993073675387e+01 
9.999971153895e-01 4.963186679417e-03 0.0 
4.963186679417e-03 -7.539531505686e+00 0.0 
0.0 0.0 9.826319655221e-01 
-4.404040604847e+01 3.384050928890e+00 0.0 
3.384050928890e+00 -8.652881507414e+00 0.0 
0.0 0.0 -1.540798626677e+01 
-4.399551888779e+01 5.355207797514e+00 0.0 
5.355207797514e+00 -1.196591890026e+01 0.0 
0.0 0.0 -1.638843133642e+01 
-9.925344150107e+01 1.039679879787e+01 0.0 
1.039679879787e+01 -2.732705986757e+02 0.0 
0.0 0.0 -1.113572120530e+02 
-6.151776503365e+01 6.563880265344e-01 0.0 
6.563880265344e-01 -1.391001501815e+02 0.0 
0.0 0.0 -5.978537456454e+01 
-6.255918734463e+01 -1.835254181601e+01 0.0 
-1.835254181601e+01 -1.609239840206e+02 0.0 
0.0 0.0 -6.664495140957e+01 
-4.556006382578e+01 3.106306631441e+01 0.0 
3.106306631441e+01 -8.034682363524e+01 0.0 
0.0 0.0 -3.737206623831e+01 
-1.434597368359e+02 -1.086881308089e+00 0.0 
-1.086881308089e+00 -3.540581175060e+02 0.0 
0.0 0.0 -1.488553563026e+02 
-1.231146914806e+02 3.902237388184e+01 0.0 
3.902237388184e+01 -2.977100613618e+02 0.0 
0.0 0.0 -1.258474258527e+02 
-7.920470269569e+01 1.179010699951e+01 0.0 
1.179010699951e+01 -1.273675335231e+02 0.0 
0.0 0.0 -6.157167086564e+01 
-5.257907764457e+01 3.442383353702e+01 0.0 
3.442383353702e+01 -8.233926601795e+01 0.0 
0.0 0.0 -4.007550309876e+01 
-2.154136777712e+01 -3.631178158751e+00 0.0 
-3.631178158751e+00 -4.932504973419e+01 0.0 
0.0 0.0 -2.038285936397e+01 
-6.715790051740e+01 3.743367684114e+01 0.0 
3.743367684114e+01 -8.983882057604e+01 0.0 
0.0 0.0 -4.669901632803e+01 
-3.268262246661e+01 2.764455511535e-01 0.0 
2.764455511535e-01 -9.501858555989e+00 0.0 
0.0 0.0 -1.225534430678e+01 
-2.887927368468e+01 3.948388241409e-01 0.0 
3.948388241409e-01 -8.903043872008e+00 0.0 
0.0 0.0 -1.093469526701e+01 
9.999475905513e-01 2.331981132681e-02 0.0 
2.331981132681e-02 -9.376251112988e+00 0.0 
0.0 0.0 -2.936655315457e-01 
-9.474953497804e-01 8.250989646342e-02 0.0 
8.250989646342e-02 -2.568773717528e+01 0.0 
0.0 0.0 -7.877299796928e+00 
-1.047913671514e+01 1.663065878652e-01 0.0 
1.663065878652e-01 -4.203878168403e+01 0.0 
0.0 0.0 -1.535537551975e+01 
-5.044406232990e+01 -6.557362699224e+00 0.0 
-6.557362699224e+00 -1.071582796827e+02 0.0 
0.0 0.0 -4.688070260377e+01 
5.732666021438e-01 9.888523195732e-02 0.0 
9.888523195732e-02 -2.534840762063e+01 0.0 
0.0 0.0 -6.439586613504e+00 
-8.865326377833e+01 -2.039402636466e+00 0.0 
-2.039402636466e+00 -2.001047301886e+02 0.0 
0.0 0.0 -8.622739819009e+01 
-3.155158227020e+01 -2.325994403893e+01 0.0 
-2.325994403893e+01 -7.252671866157e+01 0.0 
0.0 0.0 -3.179182564468e+01 
-5.946351507544e+01 -7.754170290345e+00 0.0 
-7.754170290345e+00 -1.279377459822e+02 0.0 
0.0 0.0 -5.582037831728e+01 
-5.438023201896e+01 1.219019782432e+00 0.0 
1.219019782432e+00 -7.596615096269e+01 0.0 
0.0 0.0 -3.870391489450e+01 
-3.147607579622e+01 1.103705851054e+00 0.0 
1.103705851054e+00 -8.775738223223e+00 0.0 
0.0 0.0 -1.167554420583e+01 
-1.073974596450e+02 4.426942778320e+01 0.0 
4.426942778320e+01 -2.489560687854e+02 0.0 
0.0 0.0 -1.065060585291e+02 
-1.114271845686e+02 -5.333578550101e+00 0.0 
-5.333578550101e+00 -2.962538157010e+02 0.0 
0.0 0.0 -1.219043000809e+02 
-4.749256107098e+01 5.088607923959e-01 0.0 
5.088607923959e-01 -5.801465405135e+01 0.0 
0.0 0.0 -3.125216453670e+01 
-6.625623001615e+01 -1.283752860867e+00 0.0 
-1.283752860867e+00 -1.489211125857e+02 0.0 
0.0 0.0 -6.415320278056e+01 
-7.740983618887e+00 -1.286726240647e-02 0.0 
-1.286726240647e-02 -4.206791706730e+01 0.0 
0.0 0.0 -1.454267020585e+01 
-8.500502737732e+01 1.596519693130e+01 0.0 
1.596519693130e+01 -1.996783972137e+02 0.0 
0.0 0.0 -8.500502737732e+01 
-9.342240084538e+01 1.781855848104e+01 0.0 
1.781855848104e+01 -2.041418247680e+02 0.0 
0.0 0.0 -8.886926768402e+01 
-5.313411023154e+01 3.665113908788e+00 0.0 
3.665113908788e+00 -4.886516575623e+01 0.0 
0.0 0.0 -3.019978279633e+01 
-3.416404828269e+01 3.983761180927e-01 0.0 
3.983761180927e-01 -8.942590520576e+00 0.0 
0.0 0.0 -1.253199164098e+01 
-6.713267740874e+01 -3.681152782354e-01 0.0 
-3.681152782354e-01 -1.509698597890e+02 0.0 
0.0 0.0 -6.503076115932e+01 
-9.081356728176e+01 1.237984657390e+01 0.0 
1.237984657390e+01 -2.001937069843e+02 0.0 
0.0 0.0 -8.690218227981e+01 
-5.471941162974e+01 -5.650328445123e+00 0.0 
-5.650328445123e+00 -1.202102670311e+02 0.0 
0.0 0.0 -5.207890359827e+01 
-3.551063063654e+01 2.396968648396e+00 0.0 
2.396968648396e+00 -9.723935416956e+00 0.0 
0.0 0.0 -1.317036981605e+01 
-3.636002293806e+01 8.124113542840e-01 0.0 
8.124113542840e-01 -8.626781559173e+00 0.0 
0.0 0.0 -1.309604134917e+01 
-6.476243985932e+01 3.489493423785e+01 0.0 
3.489493423785e+01 -7.053047930509e+01 0.0 
0.0 0.0 -4.018787574932e+01 
-9.628830436630e+01 3.424357138970e+01 0.0 
3.424357138970e+01 -2.260060435214e+02 0.0 
0.0 0.0 -9.628830436630e+01 
-9.326531271755e+01 1.489477105817e+01 0.0 
1.489477105817e+01 -2.026620224283e+02 0.0 
0.0 0.0 -8.837820054374e+01 
7.429021319114e-01 5.353961785259e-02 0.0 
5.353961785259e-02 -2.522651039057e+01 0.0 
0.0 0.0 -6.376858655828e+00 
9.999258288379e-01 2.776651467044e-02 0.0 
2.776651467044e-02 -9.394596968515e+00 0.0 
0.0 0.0 -2.550509376190e-01 
-2.498558479291e+01 -3.660927419641e+00 0.0 
-3.660927419641e+00 -5.810358460887e+01 0.0 
0.0 0.0 -2.451418102511e+01 
-9.424664634888e+01 -9.361904813200e+00 0.0 
-9.361904813200e+00 -2.241285119570e+02 0.0 
0.0 0.0 -9.511254749176e+01 
-1.553112570400e+02 -1.223654248240e+00 0.0 
-1.223654248240e+00 -3.624122094565e+02 0.0 
0.0 0.0 -1.549170399490e+02 
-8.123824540857e+01 -2.860162868120e+01 0.0 
-2.860162868120e+01 -6.941886247170e+01 0.0 
0.0 0.0 -4.547317419849e+01 
-6.819865512040e+01 1.937689261116e+00 0.0 
1.937689261116e+00 -1.200227737117e+02 0.0 
0.0 0.0 -5.606642864963e+01 
-1.166177286694e+01 -1.044730650659e+01 0.0 
-1.044730650659e+01 -7.620136720955e+00 0.0 
0.0 0.0 1.000000000000e+00 
-1.003753255129e+02 5.114417767566e+00 0.0 
5.114417767566e+00 -2.776615432993e+02 0.0 
0.0 0.0 -1.130110606437e+02 
7.026430019016e-01 -2.413181093961e+00 0.0 
-2.413181093961e+00 -1.858401190990e+01 0.0 
0.0 0.0 -3.081662332919e-01 
-2.408858463863e+01 -2.076921816342e+01 0.0 
-2.076921816342e+01 -3.463502390067e+01 0.0 
0.0 0.0 -1.760434293581e+01 
-9.802920702772e+01 1.450491278950e+00 0.0 
1.450491278950e+00 -2.723590088599e+02 0.0 
0.0 0.0 -1.107164647663e+02 
-1.502306696493e+02 -1.679711302013e+00 0.0 
-1.679711302013e+00 -3.536379185706e+02 0.0 
0.0 0.0 -1.507605764660e+02 
-5.502012874253e+01 1.573180060219e+00 0.0 
1.573180060219e+00 -7.519490312883e+01 0.0 
0.0 0.0 -3.866450956141e+01 
-7.031538060188e+01 3.838442559840e+01 0.0 
3.838442559840e+01 -1.092089960575e+02 0.0 
0.0 0.0 -5.345731299781e+01 
-7.985383275745e-01 3.838620651439e-02 0.0 
3.838620651439e-02 -2.586978918485e+01 0.0 
0.0 0.0 -7.715328529514e+00 
-1.187224797873e+02 -3.458584649764e+00 0.0 
-3.458584649764e+00 -2.798424867544e+02 0.0 
0.0 0.0 -1.191694899625e+02 
-8.252693841610e+01 4.854743809045e+00 0.0 
4.854743809045e+00 -1.938961896376e+02 0.0 
0.0 0.0 -8.252693841610e+01 
-8.870014884140e+01 6.226484782863e+00 0.0 
6.226484782863e+00 -1.973606790946e+02 0.0 
0.0 0.0 -8.541824838081e+01 
-2.977306153365e+01 4.593060237689e-01 0.0 
4.593060237689e-01 -8.573307741938e+00 0.0 
0.0 0.0 -1.110391078268e+01 
-1.029270672768e+02 8.616022166001e+00 0.0 
8.616022166001e+00 -2.830253321188e+02 0.0 
0.0 0.0 -1.153857198187e+02 
-8.440108216700e+01 1.305387328824e+01 0.0 
1.305387328824e+01 -1.982691917230e+02 0.0 
0.0 0.0 -8.440108216700e+01 
-9.711091455815e+01 2.985884865959e+01 0.0 
2.985884865959e+01 -2.507743305161e+02 0.0 
0.0 0.0 -1.039655735223e+02 
-7.444183400228e+00 -1.142124807849e-01 0.0 
-1.142124807849e-01 -4.117702763726e+01 0.0 
0.0 0.0 -1.418636331125e+01 
6.535630337877e-01 -1.751181853339e-01 0.0 
-1.751181853339e-01 -2.506793115794e+01 0.0 
0.0 0.0 -6.315537030711e+00 
-5.216987107925e-01 1.994120510653e-01 0.0 
1.994120510653e-01 -2.495850417238e+01 0.0 
0.0 0.0 -7.244060864953e+00 
-7.566646033434e+01 -1.255825729825e+00 0.0 
-1.255825729825e+00 -1.692937045659e+02 0.0 
0.0 0.0 -7.308804947007e+01 
-1.684308867825e+02 9.069985983184e-02 0.0 
9.069985983184e-02 -3.947304642628e+02 0.0 
0.0 0.0 -1.685484053136e+02 
-8.150477566643e+01 1.246729909076e+00 0.0 
1.246729909076e+00 -1.729645116420e+02 0.0 
0.0 0.0 -7.594078619252e+01 
9.995800562497e-01 6.619180688088e-02 0.0 
6.619180688088e-02 -9.433195623741e+00 0.0 
0.0 0.0 -2.404962594576e-01 
-8.897401791739e+01 3.412262043408e-01 0.0 
3.412262043408e-01 -2.002471009313e+02 0.0 
0.0 0.0 -8.636633565460e+01 
-1.689898414700e+02 -2.906484452342e-01 0.0 
-2.906484452342e-01 -3.956429634300e+02 0.0 
0.0 0.0 -1.689898414700e+02 
-1.680283223530e+02 -5.063540576916e-01 0.0 
-5.063540576916e-01 -3.947353959802e+02 0.0 
0.0 0.0 -1.684291155000e+02 
-1.621174477474e+02 8.223608089015e+00 0.0 
8.223608089015e+00 -3.941041905571e+02 0.0 
0.0 0.0 -1.664664914913e+02 
-6.166445395906e+01 -2.703334934624e-01 0.0 
-2.703334934624e-01 -9.961543980267e+01 0.0 
0.0 0.0 -4.798396812852e+01 
-7.120496861213e+01 1.041871441859e+00 0.0 
1.041871441859e+00 -1.307244773893e+02 0.0 
0.0 0.0 -6.017883380042e+01 
-1.684024652552e+02 -2.231194696116e-01 0.0 
-2.231194696116e-01 -3.942724189288e+02 0.0 
0.0 0.0 -1.684024652552e+02 
-1.690710575119e+02 3.498697790673e-03 0.0 
3.498697790673e-03 -3.958324675277e+02 0.0 
0.0 0.0 -1.690710575119e+02 
-6.801240875546e+01 1.158080787119e-01 0.0 
1.158080787119e-01 -1.200348141874e+02 0.0 
0.0 0.0 -5.601416688286e+01 
9.971543345056e-01 -1.445062933370e-01 0.0 
-1.445062933370e-01 -6.338202207943e+00 0.0 
0.0 0.0 1.000000000000e+00 
-2.850571484701e+01 6.665186288640e-02 0.0 
6.665186288640e-02 -8.131115894079e+00 0.0 
0.0 0.0 -1.059104922233e+01 
-2.922358131641e+01 6.017090377798e-02 0.0 
6.017090377798e-02 -8.704075730321e+00 0.0 
0.0 0.0 -1.097829711402e+01 
9.999995555389e-01 -2.139137253756e-03 0.0 
-2.139137253756e-03 -9.295407168287e+00 0.0 
0.0 0.0 -2.301893099704e-01 
-1.703273731547e+02 1.707458378494e+00 0.0 
1.707458378494e+00 -3.987638706943e+02 0.0 
0.0 0.0 -1.703273731547e+02 
-1.635355148579e+02 5.505987205138e+00 0.0 
5.505987205138e+00 -3.953766830432e+02 0.0 
0.0 0.0 -1.672736593703e+02 
-1.700777893093e+02 4.477207109921e+00 0.0 
4.477207109921e+00 -3.981815083884e+02 0.0 
0.0 0.0 -1.700777893093e+02 
9.998866310586e-01 3.163027281113e-02 0.0 
3.163027281113e-02 -7.824940464255e+00 0.0 
0.0 0.0 7.384584842379e-01 
9.998032800061e-01 -4.105413268219e-02 0.0 
-4.105413268219e-02 -7.567719919763e+00 0.0 
0.0 0.0 1.000000000000e+00 
-1.693495775385e+02 9.041787523599e+00 0.0 
9.041787523599e+00 -3.964823475899e+02 0.0 
0.0 0.0 -1.693495775385e+02 
-1.700766966243e+02 6.631232179402e+00 0.0 
6.631232179402e+00 -3.981789587901e+02 0.0 
0.0 0.0 -1.700766966243e+02 
-5.825846424335e+01 1.013854425051e+00 0.0 
1.013854425051e+00 -8.948623389189e+01 0.0 
0.0 0.0 -4.392340944057e+01 
-2.805073018996e+01 -1.918717393546e-01 0.0 
-1.918717393546e-01 -7.851975177702e+00 0.0 
0.0 0.0 -1.037081161030e+01 
-6.517234530306e+01 1.049287995673e+00 0.0 
1.049287995673e+00 -1.099772754847e+02 0.0 
0.0 0.0 -5.214488623633e+01 
-4.401037922794e+01 8.880823448958e-01 0.0 
8.880823448958e-01 -4.939300999443e+01 0.0 
0.0 0.0 -2.762101676671e+01 
-2.789146678110e+01 2.734592576463e-01 0.0 
2.734592576463e-01 -7.744744183278e+00 0.0 
0.0 0.0 -1.029086328931e+01 
9.971663979350e-01 -1.532681099903e-01 0.0 
-1.532681099903e-01 -7.290194953764e+00 0.0 
0.0 0.0 1.000000000000e+00 
9.950693962136e-01 2.123408134596e-01 0.0 
2.123408134596e-01 -8.144644959058e+00 0.0 
0.0 0.0 1.000000000000e+00 
9.976628245826e-01 -1.355574503822e-01 0.0 
-1.355574503822e-01 -6.862406141071e+00 0.0 
0.0 0.0 1.000000000000e+00 
9.999161354708e-01 2.570751609654e-02 0.0 
2.570751609654e-02 -6.880284910037e+00 0.0 
0.0 0.0 1.000000000000e+00 
-9.329578726774e+01 -1.380049925932e+00 0.0 
-1.380049925932e+00 -2.106899265105e+02 0.0 
0.0 0.0 -9.079571413346e+01 
-8.466207932733e+01 -1.286504835055e+00 0.0 
-1.286504835055e+00 -1.898443209152e+02 0.0 
0.0 0.0 -8.195192007277e+01 
9.998866618157e-01 -3.493061485146e-02 0.0 
-3.493061485146e-02 -9.765549686313e+00 0.0 
0.0 0.0 -1.027728907323e+00 
-1.184109046342e+02 -1.222850072295e+00 0.0 
-1.222850072295e+00 -2.716314644013e+02 0.0 
0.0 0.0 -1.166127107107e+02 
9.998382258214e-01 4.186243323177e-02 0.0 
4.186243323177e-02 -9.832775240496e+00 0.0 
0.0 0.0 1.000000000000e+00 
-9.070748801628e+01 2.776334260341e+01 0.0 
2.776334260341e+01 -2.129841387047e+02 0.0 
0.0 0.0 -9.070748801628e+01 
-8.354973088032e+01 1.077005777417e+01 0.0 
1.077005777417e+01 -1.962827053874e+02 0.0 
0.0 0.0 -8.354973088032e+01 
-8.593614568007e+01 1.875618452516e+01 0.0 
1.875618452516e+01 -2.018510065868e+02 0.0 
0.0 0.0 -8.593614568007e+01 
-2.436146210179e+01 -1.316030030883e+00 0.0 
-1.316030030883e+00 -6.857467467697e+01 0.0 
0.0 0.0 -2.748084103363e+01 
-5.654917473645e+01 -1.272005138015e+00 0.0 
-1.272005138015e+00 -1.286559357079e+02 0.0 
0.0 0.0 -5.516153313331e+01 
-8.296817427055e+01 8.507940758615e+00 0.0 
8.507940758615e+00 -1.949257399646e+02 0.0 
0.0 0.0 -8.296817427055e+01 
-1.432951846263e+02 -9.143762762115e-01 0.0 
-9.143762762115e-01 -3.329423010301e+02 0.0 
0.0 0.0 -1.424712456969e+02 
-8.369854262841e+01 6.756120413311e+00 0.0 
6.756120413311e+00 -1.966299327996e+02 0.0 
0.0 0.0 -8.369854262841e+01 
-1.515214557548e+02 -9.091227024262e-01 0.0 
-9.091227024262e-01 -3.530747699097e+02 0.0 
0.0 0.0 -1.509788676994e+02 
-1.598579334780e+02 -9.937230128546e-01 0.0 
-9.937230128546e-01 -3.731491304868e+02 0.0 
0.0 0.0 -1.595021191894e+02 
-8.014021366256e+01 4.783794034297e-01 0.0 
4.783794034297e-01 -1.795136875046e+02 0.0 
0.0 0.0 -7.749617035014e+01 
-9.022184444124e+01 9.929622297721e+00 0.0 
9.929622297721e+00 -1.985633541189e+02 0.0 
0.0 0.0 -8.623555956804e+01 
-8.864526591289e+01 7.415722917888e+00 0.0 
7.415722917888e+00 -1.978855624477e+02 0.0 
0.0 0.0 -8.555924850816e+01 
-1.469973896840e+02 6.476408439603e-01 0.0 
6.476408439603e-01 -3.420922256795e+02 0.0 
0.0 0.0 -1.463268846091e+02 
-1.554854254723e+02 6.973193479797e-01 0.0 
6.973193479797e-01 -3.626421270760e+02 0.0 
0.0 0.0 -1.550382657645e+02 
-1.266398705462e+02 -1.562330448001e+00 0.0 
-1.562330448001e+00 -2.950719080806e+02 0.0 
0.0 0.0 -1.261135335880e+02 
-1.748538072634e+00 1.034864682740e+00 0.0 
1.034864682740e+00 -9.152161650131e+00 0.0 
0.0 0.0 -3.846686099709e+00 
-8.203632304232e+01 -3.997765930995e+00 0.0 
-3.997765930995e+00 -1.855034538769e+02 0.0 
0.0 0.0 -7.986193307577e+01 
9.593479688804e-01 2.253612163545e-01 0.0 
2.253612163545e-01 -2.490796049124e+01 0.0 
0.0 0.0 -6.271082517205e+00 
-1.464033957212e+02 1.428038852594e-01 0.0 
1.428038852594e-01 -3.554914668813e+02 0.0 
0.0 0.0 -1.501684587808e+02 
-8.668646992768e+01 -7.677910081471e+00 0.0 
-7.677910081471e+00 -1.977771218534e+02 0.0 
0.0 0.0 -8.493907753433e+01 
-1.371954703881e+02 -2.759059189724e+00 0.0 
-2.759059189724e+00 -3.260540439244e+02 0.0 
0.0 0.0 -1.385748542937e+02 
-4.450003336271e+01 -3.954789201835e+00 0.0 
-3.954789201835e+00 -9.869758964292e+01 0.0 
0.0 0.0 -4.255928690169e+01 
-1.133029896763e+01 -9.156781330757e-01 0.0 
-9.156781330757e-01 -4.157351594258e+01 0.0 
0.0 0.0 -1.547114447306e+01 
-1.471642727659e+02 -3.567830051789e-01 0.0 
-3.567830051789e-01 -3.465451183618e+02 0.0 
0.0 0.0 -1.477128173383e+02 
-9.088883811906e+01 -4.082617644233e+00 0.0 
-4.082617644233e+00 -2.062949105107e+02 0.0 
0.0 0.0 -8.875512458893e+01 
-7.096387796597e+01 -1.970816055628e+00 0.0 
-1.970816055628e+00 -1.593044695355e+02 0.0 
0.0 0.0 -6.868050425045e+01 
-1.389514991033e+02 -1.025542065084e+00 0.0 
-1.025542065084e+00 -3.271917591493e+02 0.0 
0.0 0.0 -1.394429774758e+02 
-7.545732651285e+01 2.611581918673e+00 0.0 
2.611581918673e+00 -1.491545830104e+02 0.0 
0.0 0.0 -6.698357285699e+01 
-7.102514467910e+01 5.769895079102e-01 0.0 
5.769895079102e-01 -1.592618531955e+02 0.0 
0.0 0.0 -6.868609936237e+01 
-1.197014854458e+02 -9.889185803768e-02 0.0 
-9.889185803768e-02 -3.205569641759e+02 0.0 
0.0 0.0 -1.316775348865e+02 
-1.112240301149e+02 -7.348884903263e+00 0.0 
-7.348884903263e+00 -2.770592251482e+02 0.0 
0.0 0.0 -1.160849765789e+02 
-1.250673457668e+02 -3.577346952630e+00 0.0 
-3.577346952630e+00 -2.939607077374e+02 0.0 
0.0 0.0 -1.253084160513e+02 
-1.292833984827e+02 -2.684267912062e+00 0.0 
-2.684267912062e+00 -3.023263349735e+02 0.0 
0.0 0.0 -1.290829200369e+02 
-5.986950586941e+01 1.161884647005e+01 0.0 
1.161884647005e+01 -1.745049765533e+02 0.0 
0.0 0.0 -6.991234472682e+01 
-6.471400261959e+01 3.746200940867e+01 0.0 
3.746200940867e+01 -8.964573574996e+01 0.0 
0.0 0.0 -4.590792151087e+01 
-6.917160795329e+01 3.271410482103e+01 0.0 
3.271410482103e+01 -1.670829026501e+02 0.0 
0.0 0.0 -7.047635318101e+01 
-1.166519040888e+02 -5.453318691505e+00 0.0 
-5.453318691505e+00 -2.785248930859e+02 0.0 
0.0 0.0 -1.181530391524e+02 
-1.429989183861e+02 -3.884302724724e-01 0.0 
-3.884302724724e-01 -3.350428698285e+02 0.0 
0.0 0.0 -1.430125364644e+02 
-1.334848387336e+02 -2.025575733094e+00 0.0 
-2.025575733094e+00 -3.110614722311e+02 0.0 
0.0 0.0 -1.329638932894e+02 
-5.284054642825e+01 -1.221451253593e+01 0.0 
-1.221451253593e+01 -1.079496869626e+02 0.0 
0.0 0.0 -4.783707001726e+01 
-7.666936751504e+01 5.236186990587e+00 0.0 
5.236186990587e+00 -1.484472253361e+02 0.0 
0.0 0.0 -6.713497785535e+01 
-7.087131687835e+01 4.165737352000e+00 0.0 
4.165737352000e+00 -1.270211982840e+02 0.0 
0.0 0.0 -5.896775454871e+01 
-3.969873282594e+01 -2.253766739876e-01 0.0 
-2.253766739876e-01 -3.450246185249e+01 0.0 
0.0 0.0 -2.186035840353e+01 
-1.200312358926e+02 -5.435492908671e+00 0.0 
-5.435492908671e+00 -2.911480627804e+02 0.0 
0.0 0.0 -1.229537896019e+02 
-1.208695522972e+02 -4.465126251287e+00 0.0 
-4.465126251287e+00 -2.861599333472e+02 0.0 
0.0 0.0 -1.217088456933e+02 
-7.758264320543e+01 4.747866368059e+00 0.0 
4.747866368059e+00 -1.508982626934e+02 0.0 
0.0 0.0 -6.814427176964e+01 
-7.362490470735e+01 3.689197300479e+00 0.0 
3.689197300479e+00 -1.383821077553e+02 0.0 
0.0 0.0 -6.320210373880e+01 
-1.101918683092e+02 -6.831913933857e+00 0.0 
-6.831913933857e+00 -2.722252704729e+02 0.0 
0.0 0.0 -1.143251416346e+02 
-1.512391640740e+02 6.315105575550e-03 0.0 
6.315105575550e-03 -3.542852016361e+02 0.0 
0.0 0.0 -1.512573097130e+02 
-7.447203701976e+01 9.331547843614e+00 0.0 
9.331547843614e+00 -1.249383514939e+02 0.0 
0.0 0.0 -5.942311655410e+01 
-1.341517563807e+02 -8.417328227074e-02 0.0 
-8.417328227074e-02 -3.113446842927e+02 0.0 
0.0 0.0 -1.332489322020e+02 
-1.516099862446e+02 5.249784324214e-01 0.0 
5.249784324214e-01 -3.634857341553e+02 0.0 
0.0 0.0 -1.541287161200e+02 
-7.902983185133e+01 7.552208430893e+00 0.0 
7.552208430893e+00 -1.499951529922e+02 0.0 
0.0 0.0 -6.830749545306e+01 
-6.543206031107e+01 5.295129838821e+00 0.0 
5.295129838821e+00 -9.664895835590e+01 0.0 
0.0 0.0 -4.822430560009e+01 
-1.178475333338e+02 -3.106568368706e+00 0.0 
-3.106568368706e+00 -3.100483737131e+02 0.0 
0.0 0.0 -1.279687721141e+02 
-4.316422422558e+01 -2.702247740920e+00 0.0 
-2.702247740920e+00 -9.965944611593e+01 0.0 
0.0 0.0 -4.244710110245e+01 
-5.121720224629e+01 -1.476450875122e+01 0.0 
-1.476450875122e+01 -1.027758944591e+02 0.0 
0.0 0.0 -4.579792901163e+01 
-1.550771949326e+01 4.255284517638e-01 0.0 
4.255284517638e-01 -4.819886577742e+01 0.0 
0.0 0.0 -1.871197558120e+01 
-1.644459302339e+01 -1.672854823243e+01 0.0 
-1.672854823243e+01 -4.362353524450e+01 0.0 
0.0 0.0 -1.669401686472e+01 
-7.560864727269e+01 5.634088394817e+00 0.0 
5.634088394817e+00 -1.394989895887e+02 0.0 
0.0 0.0 -6.413229105842e+01 
-1.459095866631e+02 -1.726346767434e+00 0.0 
-1.726346767434e+00 -3.420542995214e+02 0.0 
0.0 0.0 -1.459891658554e+02 
-7.113137112167e-01 -1.005183377328e+00 0.0 
-1.005183377328e+00 -2.750299451211e+01 0.0 
0.0 0.0 -7.339546941246e+00 
-1.024291934305e+02 4.003482621292e+01 0.0 
4.003482621292e+01 -2.033559932125e+02 0.0 
0.0 0.0 -9.133555599290e+01 
-4.433253765183e+01 3.627604611039e-01 0.0 
3.627604611039e-01 -4.338801073975e+01 0.0 
0.0 0.0 -2.591616451747e+01 
-1.348751857200e+02 -1.685279174333e+00 0.0 
-1.685279174333e+00 -3.197986107503e+02 0.0 
0.0 0.0 -1.360021389411e+02 
-1.374296294476e+02 -2.195743342068e+00 0.0 
-2.195743342068e+00 -3.221570048278e+02 0.0 
0.0 0.0 -1.374759902826e+02 
-6.626184902098e+01 -1.672305317229e+01 0.0 
-1.672305317229e+01 -1.629512833910e+02 0.0 
0.0 0.0 -6.836393972358e+01 
-1.385779680732e+02 -3.219769860194e-01 0.0 
-3.219769860194e-01 -3.230300622298e+02 0.0 
0.0 0.0 -1.380824090909e+02 
-4.110750356704e+01 1.956293972671e+00 0.0 
1.956293972671e+00 -3.503687720112e+01 0.0 
0.0 0.0 -2.244331423045e+01 
-9.837332431953e+01 1.913342453222e+01 0.0 
1.913342453222e+01 -2.657776245262e+02 0.0 
0.0 0.0 -1.088452846537e+02 
-1.551063610097e+02 -1.058919161265e+00 0.0 
-1.058919161265e+00 -3.703473979436e+02 0.0 
0.0 0.0 -1.572361276860e+02 
-4.028412917097e+01 -1.652926610016e+00 0.0 
-1.652926610016e+00 -9.602831007410e+01 0.0 
0.0 0.0 -4.049373177352e+01 
-1.501836290151e+02 1.417356386218e+00 0.0 
1.417356386218e+00 -3.669152660874e+02 0.0 
0.0 0.0 -1.547296685308e+02 
-6.777993362745e+01 4.971825051894e+00 0.0 
4.971825051894e+00 -1.077488613482e+02 0.0 
0.0 0.0 -5.225863849270e+01 
-4.702548306947e+01 -2.501860010954e+00 0.0 
-2.501860010954e+00 -1.080620980236e+02 0.0 
0.0 0.0 -4.612627432791e+01 
-5.740335352205e+01 -1.207818589838e+01 0.0 
-1.207818589838e+01 -1.254918637124e+02 0.0 
0.0 0.0 -5.446856517032e+01 
-1.010707577884e+02 -3.377628129419e+00 0.0 
-3.377628129419e+00 -2.301782598915e+02 0.0 
0.0 0.0 -9.897470530398e+01 
-5.676792600538e+01 3.006765979770e+00 0.0 
3.006765979770e+00 -7.300965988082e+01 0.0 
0.0 0.0 -3.853327576586e+01 
-7.085470836431e+01 -7.359091640985e+00 0.0 
-7.359091640985e+00 -1.564028288617e+02 0.0 
0.0 0.0 -6.777726116780e+01 
-7.003234558379e+01 4.670044769699e+00 0.0 
4.670044769699e+00 -1.187432552710e+02 0.0 
0.0 0.0 -5.623268025644e+01 
-6.083242920048e+01 3.950500362696e+00 0.0 
3.950500362696e+00 -8.658391246238e+01 0.0 
0.0 0.0 -4.382490249886e+01 
-9.790291476590e+01 -6.247218878319e+00 0.0 
-6.247218878319e+00 -2.259393007030e+02 0.0 
0.0 0.0 -9.675266464068e+01 
-1.302926149435e+02 -7.628735377688e-01 0.0 
-7.628735377688e-01 -3.029534118565e+02 0.0 
0.0 0.0 -1.295738080400e+02 
-1.347413455270e+02 -9.545582706887e-01 0.0 
-9.545582706887e-01 -3.151595041041e+02 0.0 
0.0 0.0 -1.345702548893e+02 
-6.479614514405e+01 2.943412579593e+00 0.0 
2.943412579593e+00 -1.060696473942e+02 0.0 
0.0 0.0 -5.085973776148e+01 
-3.388709290992e+01 -4.567985856962e-01 0.0 
-4.567985856962e-01 -8.310770939531e+01 0.0 
0.0 0.0 -3.469844069157e+01 
-9.373506741793e+01 -5.399380993016e+00 0.0 
-5.399380993016e+00 -2.135345409359e+02 0.0 
0.0 0.0 -9.178088250616e+01 
-1.107740774592e+02 2.578905183711e+01 0.0 
2.578905183711e+01 -2.912504194984e+02 0.0 
0.0 0.0 -1.202073490873e+02 
-7.191415129645e+01 6.737226210509e+00 0.0 
6.737226210509e+00 -1.175130177652e+02 0.0 
0.0 0.0 -5.642815071850e+01 
-8.555702417298e+01 -5.619487478604e+00 0.0 
-5.619487478604e+00 -1.926858328244e+02 0.0 
0.0 0.0 -8.307285709922e+01 
-1.143067072661e+02 -5.777108450604e+00 0.0 
-5.777108450604e+00 -2.787252612671e+02 0.0 
0.0 0.0 -1.175095905599e+02 
-1.450512393316e+02 1.612524195937e+00 0.0 
1.612524195937e+00 -3.599466450505e+02 0.0 
0.0 0.0 -1.510993653146e+02 
-6.251683287267e+01 3.276177723613e+00 0.0 
3.276177723613e+00 -9.507085620807e+01 0.0 
0.0 0.0 -4.687630672422e+01 
-3.623657111112e+01 -8.530986056022e+00 0.0 
-8.530986056022e+00 -1.173365135056e+02 0.0 
0.0 0.0 -4.818328027397e+01 
-1.292560859295e+01 9.764890040462e-01 0.0 
9.764890040462e-01 -4.643278896696e+01 0.0 
0.0 0.0 -1.740751926797e+01 
-4.380203811314e+01 -1.431130051974e+00 0.0 
-1.431130051974e+00 -1.389421405277e+02 0.0 
0.0 0.0 -5.412359335766e+01 
-1.416150711759e+02 -2.235589437768e+00 0.0 
-2.235589437768e+00 -3.340568147248e+02 0.0 
0.0 0.0 -1.423015657702e+02 
-5.961901084488e+01 3.237471065093e+00 0.0 
3.237471065093e+00 -8.399824121715e+01 0.0 
0.0 0.0 -4.268517561861e+01 
-1.101555131959e+02 -7.345734762002e-01 0.0 
-7.345734762002e-01 -2.512933490964e+02 0.0 
0.0 0.0 -1.080346586877e+02 
-4.898449760164e+01 1.413203755489e+00 0.0 
1.413203755489e+00 -5.290906102336e+01 0.0 
0.0 0.0 -3.016806758750e+01 
-1.291258363185e+02 6.564474038393e+00 0.0 
6.564474038393e+00 -3.432240995110e+02 0.0 
0.0 0.0 -1.413049807488e+02 
-1.015871813549e+02 -5.136216905954e+00 0.0 
-5.136216905954e+00 -2.338813720314e+02 0.0 
0.0 0.0 -1.002405660159e+02 
-1.332811216950e+02 -2.862966343326e+00 0.0 
-2.862966343326e+00 -3.141220895179e+02 0.0 
0.0 0.0 -1.338209633639e+02 
-4.186188273076e+01 -2.210202119287e-01 0.0 
-2.210202119287e-01 -9.968361326665e+01 0.0 
0.0 0.0 -4.206364879922e+01 
-1.495905227719e+02 -1.161783073754e+00 0.0 
-1.161783073754e+00 -3.627210780848e+02 0.0 
0.0 0.0 -1.532934802570e+02 
-9.892603520897e+01 -3.920593427061e+00 0.0 
-3.920593427061e+00 -2.268975555497e+02 0.0 
0.0 0.0 -9.734707722760e+01 
-4.581588059901e+01 4.579609861595e-02 0.0 
4.579609861595e-02 -1.081170450156e+02 0.0 
0.0 0.0 -4.577987768438e+01 
-9.431010809113e+01 -2.926539918249e+00 0.0 
-2.926539918249e+00 -2.143567525660e+02 0.0 
0.0 0.0 -9.220005819714e+01 
-7.403231330118e+01 -6.306363081709e+00 0.0 
-6.306363081709e+00 -1.642920847784e+02 0.0 
0.0 0.0 -7.109731942386e+01 
-5.772343780079e+01 -4.697184309641e+00 0.0 
-4.697184309641e+00 -1.278846136958e+02 0.0 
0.0 0.0 -5.528241544898e+01 
-1.090262233766e+02 -3.073026257407e+00 0.0 
-3.073026257407e+00 -2.501692940016e+02 0.0 
0.0 0.0 -1.073586552135e+02 
9.976907897403e-01 1.606586651831e-01 0.0 
1.606586651831e-01 -1.017750390657e+01 0.0 
0.0 0.0 -1.904680223235e-01 
9.999923470408e-01 9.181624272924e-03 0.0 
9.181624272924e-03 -1.001563752733e+01 0.0 
0.0 0.0 2.799714817514e-01 
-1.226615423398e+02 -2.457914469012e+00 0.0 
-2.457914469012e+00 -2.873607853161e+02 0.0 
0.0 0.0 -1.226066982968e+02 
-3.779251247263e+01 -3.424028882249e-01 0.0 
-3.424028882249e-01 -9.142048077708e+01 0.0 
0.0 0.0 -3.836389797491e+01 
-1.225913327097e+02 -3.594161386175e+00 0.0 
-3.594161386175e+00 -2.926379764082e+02 0.0 
0.0 0.0 -1.241687927354e+02 
-1.184576099877e+02 -4.678691824852e+00 0.0 
-4.678691824852e+00 -2.855796232451e+02 0.0 
0.0 0.0 -1.208111699698e+02 
-7.991246365330e+01 -1.022770377167e+01 0.0 
-1.022770377167e+01 -1.830723835970e+02 0.0 
0.0 0.0 -7.849545417510e+01 
-5.648515056653e+01 -1.978282024694e+01 0.0 
-1.978282024694e+01 -1.406257086897e+02 0.0 
0.0 0.0 -5.873325777687e+01 
-8.019230210654e+01 1.125593166713e+01 0.0 
1.125593166713e+01 -1.381384681265e+02 0.0 
0.0 0.0 -6.509923106991e+01 
-5.176430530224e+01 2.976987778220e+01 0.0 
2.976987778220e+01 -1.199717494570e+02 0.0 
0.0 0.0 -5.284431405424e+01 
-7.737690097791e+01 -5.306497857271e+00 0.0 
-5.306497857271e+00 -1.726261553993e+02 0.0 
0.0 0.0 -7.460091691315e+01 
-1.314586711530e+02 1.079465859791e+01 0.0 
1.079465859791e+01 -3.468254857563e+02 0.0 
0.0 0.0 -1.430852470728e+02 
-3.230284141003e+01 -2.022615822293e+00 0.0 
-2.022615822293e+00 -7.908920779042e+01 0.0 
0.0 0.0 -3.301761476014e+01 
-5.514684560509e+01 3.722665422358e+00 0.0 
3.722665422358e+00 -6.530820968046e+01 0.0 
0.0 0.0 -3.573651658567e+01 
-4.658356208958e+01 2.469923760515e+00 0.0 
2.469923760515e+00 -4.474782370973e+01 0.0 
0.0 0.0 -2.699941573979e+01 
-3.323229316607e+01 -1.975780652912e+00 0.0 
-1.975780652912e+00 -7.749031707593e+01 0.0 
0.0 0.0 -3.281678307260e+01 
-1.392399715399e+02 1.690219017461e+00 0.0 
1.690219017461e+00 -3.526192522254e+02 0.0 
0.0 0.0 -1.471577671296e+02 
-7.322239086538e+01 9.571238385447e+00 0.0 
9.571238385447e+00 -1.060323992917e+02 0.0 
0.0 0.0 -5.337643704713e+01 
-3.950382213147e+01 -2.907373032285e+00 0.0 
-2.907373032285e+00 -9.139996201726e+01 0.0 
0.0 0.0 -3.887113524462e+01 
-8.408526503301e+01 1.386133691815e+01 0.0 
1.386133691815e+01 -1.487241317863e+02 0.0 
0.0 0.0 -6.944281904579e+01 
-7.914597012735e+01 1.167172294467e+01 0.0 
1.167172294467e+01 -1.461424510825e+02 0.0 
0.0 0.0 -6.718652636297e+01 
-4.438759311450e+01 -1.338096184919e+00 0.0 
-1.338096184919e+00 -1.027114218459e+02 0.0 
0.0 0.0 -4.372970448811e+01 
-5.588582351671e+01 3.597134946731e+01 0.0 
3.597134946731e+01 -8.780123006171e+01 0.0 
0.0 0.0 -4.270611607353e+01 
-4.776085551215e+01 -3.372759905177e+00 0.0 
-3.372759905177e+00 -1.067334405275e+02 0.0 
0.0 0.0 -4.594828881189e+01 
-1.308428668591e+02 -1.730261011135e+00 0.0 
-1.730261011135e+00 -3.074235361829e+02 0.0 
0.0 0.0 -1.310799209126e+02 
-1.053186210619e+02 -4.076450736892e+00 0.0 
-4.076450736892e+00 -2.420467450991e+02 0.0 
0.0 0.0 -1.038096098483e+02 
-9.638036725092e+01 3.342026241636e+01 0.0 
3.342026241636e+01 -1.868461833076e+02 0.0 
0.0 0.0 -8.456796516755e+01 
-7.593379778115e+01 8.843414254191e+00 0.0 
8.843414254191e+00 -1.359202018542e+02 0.0 
0.0 0.0 -6.315619989062e+01 
-1.267284876044e+02 -2.608837513793e+00 0.0 
-2.608837513793e+00 -2.999352504697e+02 0.0 
0.0 0.0 -1.275991214222e+02 
-1.244910527066e+02 -4.490540218153e+00 0.0 
-4.490540218153e+00 -2.985745040564e+02 0.0 
0.0 0.0 -1.265196670289e+02 
-4.022743202318e+01 -5.018377314814e+00 0.0 
-5.018377314814e+00 -8.655311371496e+01 0.0 
0.0 0.0 -3.763416372144e+01 
-1.289218443488e+02 -3.632073216643e+00 0.0 
-3.632073216643e+00 -3.061925472805e+02 0.0 
0.0 0.0 -1.301343174888e+02 
-6.851589930469e+01 7.037369323753e+00 0.0 
7.037369323753e+00 -1.036051458631e+02 0.0 
0.0 0.0 -5.123631355034e+01 
-1.062498628648e+02 -1.809874396840e+00 0.0 
-1.809874396840e+00 -2.429441677980e+02 0.0 
0.0 0.0 -1.043582091988e+02 
-6.303790042958e+01 5.333087250431e+00 0.0 
5.333087250431e+00 -8.580288274382e+01 0.0 
0.0 0.0 -4.425223495202e+01 
-7.469758201323e+01 9.259167222123e+00 0.0 
9.259167222123e+00 -1.167710258043e+02 0.0 
0.0 0.0 -5.704058234525e+01 
-7.190750215343e+01 1.430603267138e+01 0.0 
1.430603267138e+01 -2.028020320207e+02 0.0 
0.0 0.0 -8.201286025224e+01 
-7.222236556015e+01 6.584669532815e+00 0.0 
6.584669532815e+00 -1.255889649915e+02 0.0 
0.0 0.0 -5.894339916549e+01 
-8.952509975409e+01 -4.609279791542e+00 0.0 
-4.609279791542e+00 -2.022944932781e+02 0.0 
0.0 0.0 -8.714587790965e+01 
-1.025323509926e+02 -2.804848977213e+00 0.0 
-2.804848977213e+00 -2.348067048408e+02 0.0 
0.0 0.0 -1.008017167500e+02 
-6.882291048601e+01 -5.204207654660e+00 0.0 
-5.204207654660e+00 -1.522933225574e+02 0.0 
0.0 0.0 -6.593486991302e+01 
-7.466543000097e+01 -1.081396362888e+01 0.0 
-1.081396362888e+01 -1.718653518506e+02 0.0 
0.0 0.0 -7.355923455547e+01 
-6.399935283242e+01 4.901128578746e+00 0.0 
4.901128578746e+00 -9.356506043845e+01 0.0 
0.0 0.0 -4.686932398126e+01 
-9.534994691725e+01 -1.002318354059e+01 0.0 
-1.002318354059e+01 -2.423515081771e+02 0.0 
0.0 0.0 -1.009104365283e+02 
-5.113036553507e+01 -2.819046120216e+00 0.0 
-2.819046120216e+00 -1.149356296107e+02 0.0 
0.0 0.0 -4.941979854374e+01 
-2.072586967014e+01 -8.228553137208e-02 0.0 
-8.228553137208e-02 -5.695098347011e+01 0.0 
0.0 0.0 -2.290305594207e+01 
-6.814444054556e+01 7.214602790470e+00 0.0 
7.214602790470e+00 -9.571626799757e+01 0.0 
0.0 0.0 -4.875821256294e+01 
-5.325192920203e+01 -5.790155948580e+00 0.0 
-5.790155948580e+00 -1.151751964637e+02 0.0 
0.0 0.0 -5.012813769971e+01 
-1.478093824818e+02 3.964486554425e-01 0.0 
3.964486554425e-01 -3.657563123153e+02 0.0 
0.0 0.0 -1.536697084391e+02 
-6.635805131751e+01 4.874922420598e+00 0.0 
4.874922420598e+00 -1.045988963628e+02 0.0 
0.0 0.0 -5.088708430411e+01 
-1.326482889799e+02 -3.458721920003e+00 0.0 
-3.458721920003e+00 -3.184692843553e+02 0.0 
0.0 0.0 -1.349352720006e+02 
-1.471167978199e+02 1.889085356217e+01 0.0 
1.889085356217e+01 -3.584362137532e+02 0.0 
0.0 0.0 -1.512659034719e+02 
-8.584416402774e+01 -2.940468439665e+00 0.0 
-2.940468439665e+00 -1.936123223184e+02 0.0 
0.0 0.0 -8.343694590386e+01 
-4.645289739979e+01 -4.155739512529e+00 0.0 
-4.155739512529e+00 -1.029636408596e+02 0.0 
0.0 0.0 -4.442496147782e+01 
-2.847482055124e+01 -3.430723344820e+00 0.0 
-3.430723344820e+00 -6.597607895709e+01 0.0 
0.0 0.0 -2.793526985250e+01 
-1.262195993258e+02 -3.429814655283e+00 0.0 
-3.429814655283e+00 -3.053921119597e+02 0.0 
0.0 0.0 -1.290835133856e+02 
-5.548797011522e+01 1.936936120453e+00 0.0 
1.936936120453e+00 -7.480214494332e+01 0.0 
0.0 0.0 -3.868703451756e+01 
-1.542608019885e+01 -2.007050136020e+00 0.0 
-2.007050136020e+00 -4.642649344849e+01 0.0 
0.0 0.0 -1.815577209420e+01 
-7.027305739016e+01 -4.616505005809e+00 0.0 
-4.616505005809e+00 -1.567596138255e+02 0.0 
0.0 0.0 -6.770980136470e+01 
-3.564931890152e+01 3.927942122860e-01 0.0 
3.927942122860e-01 -8.868302053015e+01 0.0 
0.0 0.0 -3.689970182950e+01 
-6.056064089254e+01 5.220675216121e+00 0.0 
5.220675216121e+00 -7.499134681396e+01 0.0 
0.0 0.0 -4.026559631195e+01 
-7.382557182460e+01 -3.648059554494e+00 0.0 
-3.648059554494e+00 -1.647870330700e+02 0.0 
0.0 0.0 -7.118378146839e+01 
-1.156034752671e+02 -6.407668493915e+00 0.0 
-6.407668493915e+00 -2.839787600800e+02 0.0 
0.0 0.0 -1.194746706041e+02 
-6.785946337532e+01 -2.333361472511e+00 0.0 
-2.333361472511e+00 -1.523109609677e+02 0.0 
0.0 0.0 -6.565112730291e+01 
-7.374523932879e+01 6.333541132856e+00 0.0 
6.333541132856e+00 -1.286475322042e+02 0.0 
0.0 0.0 -6.031783145989e+01 
-6.236814446559e+01 -6.758139757854e+00 0.0 
-6.758139757854e+00 -1.358010818135e+02 0.0 
0.0 0.0 -5.905076788373e+01 
-1.249342177284e+02 -3.751007874466e+00 0.0 
-3.751007874466e+00 -3.110687109951e+02 0.0 
0.0 0.0 -1.304008786170e+02 
-4.857006975392e+01 -1.036997973218e+01 0.0 
-1.036997973218e+01 -1.026406500548e+02 0.0 
0.0 0.0 -4.496321594262e+01 
-1.218109074747e+02 -4.420298859171e+00 0.0 
-4.420298859171e+00 -2.984304503565e+02 0.0 
0.0 0.0 -1.256724073494e+02 
-9.820028056441e+01 -2.111200809478e+00 0.0 
-2.111200809478e+00 -2.230906509917e+02 0.0 
0.0 0.0 -9.598727946682e+01 
-1.279366607362e+02 -4.242406445752e+00 0.0 
-4.242406445752e+00 -3.110140376203e+02 0.0 
0.0 0.0 -1.312852095070e+02 
-5.257751446723e+01 -7.561351519829e+00 0.0 
-7.561351519829e+00 -1.587481531980e+02 0.0 
0.0 0.0 -6.299770029958e+01 
-3.646027908280e+01 -2.077439931355e+00 0.0 
-2.077439931355e+00 -8.812314739144e+01 0.0 
0.0 0.0 -3.697502794227e+01 
-5.031136340488e+01 2.607110910454e+00 0.0 
2.607110910454e+00 -5.587974994698e+01 0.0 
0.0 0.0 -3.145733400556e+01 
-1.032449306847e+02 4.563170358756e+00 0.0 
4.563170358756e+00 -2.848335562939e+02 0.0 
0.0 0.0 -1.160235460936e+02 
-6.900997080281e+01 3.768840173040e+01 0.0 
3.768840173040e+01 -1.489185710896e+02 0.0 
0.0 0.0 -6.497856256772e+01 
-5.810600358349e+01 3.909665387690e+00 0.0 
3.909665387690e+00 -7.601575111355e+01 0.0 
0.0 0.0 -3.983652640911e+01 
-5.549478872676e+01 -1.478085221407e+01 0.0 
-1.478085221407e+01 -1.221808876702e+02 0.0 
0.0 0.0 -5.290270291909e+01 
-6.460217769593e+01 7.107781405296e+00 0.0 
7.107781405296e+00 -8.228202381037e+01 0.0 
0.0 0.0 -4.366526045189e+01 
-3.089066157011e+01 3.654392528535e-01 0.0 
3.654392528535e-01 -7.983352127539e+01 0.0 
0.0 0.0 -3.281725485365e+01 
-1.413874663672e+02 -1.123026763632e-01 0.0 
-1.123026763632e-01 -3.488932323640e+02 0.0 
0.0 0.0 -1.466842096194e+02 
-1.045850575074e+02 8.674418826400e+00 0.0 
8.674418826400e+00 -2.871032659577e+02 0.0 
0.0 0.0 -1.171064970395e+02 
-1.009470990795e+02 2.228140591179e+01 0.0 
2.228140591179e+01 -2.695633377929e+02 0.0 
0.0 0.0 -1.107531310617e+02 
-8.468343027836e+01 1.317476295159e+01 0.0 
1.317476295159e+01 -1.600878156484e+02 0.0 
0.0 0.0 -7.303137377803e+01 
-1.020178060299e+02 -8.471706282947e+00 0.0 
-8.471706282947e+00 -2.611631165043e+02 0.0 
0.0 0.0 -1.085542767603e+02 
-3.586133156731e+01 -3.076386991088e+00 0.0 
-3.076386991088e+00 -8.311424390469e+01 0.0 
0.0 0.0 -3.529267264160e+01 
-1.130678152834e+02 -6.247032573379e+00 0.0 
-6.247032573379e+00 -2.853708713840e+02 0.0 
0.0 0.0 -1.191316060002e+02 
-1.416327597851e+02 6.289562911280e-01 0.0 
6.289562911280e-01 -3.582801922514e+02 0.0 
0.0 0.0 -1.495738856110e+02 
-6.639856991374e+01 -1.677710645938e+01 0.0 
-1.677710645938e+01 -1.628818805609e+02 0.0 
0.0 0.0 -6.838413514238e+01 
-1.305879965227e+02 -2.498047924556e+00 0.0 
-2.498047924556e+00 -3.125184956668e+02 0.0 
0.0 0.0 -1.325319476569e+02 
-7.004108306752e+01 7.061601646070e+00 0.0 
7.061601646070e+00 -1.065327387891e+02 0.0 
0.0 0.0 -5.257214655699e+01 
-5.116993592947e+01 -2.192625099858e+01 0.0 
-2.192625099858e+01 -1.393111025486e+02 0.0 
0.0 0.0 -5.674431154342e+01 
-1.174191113688e+02 -5.399105750211e+00 0.0 
-5.399105750211e+00 -2.917082688747e+02 0.0 
0.0 0.0 -1.223382140730e+02 
-5.472515887338e+01 4.945934097759e+00 0.0 
4.945934097759e+00 -5.334852275750e+01 0.0 
0.0 0.0 -3.202210448926e+01 
-5.221126537020e+01 -7.908558906212e-01 0.0 
-7.908558906212e-01 -1.197864407817e+02 0.0 
0.0 0.0 -5.119931184558e+01 
-6.700018190756e+01 -5.633205352429e+00 0.0 
-5.633205352429e+00 -1.490326127636e+02 0.0 
0.0 0.0 -6.440983840136e+01 
-7.715679635922e+01 3.701341103998e+01 0.0 
3.701341103998e+01 -1.796513839399e+02 0.0 
0.0 0.0 -7.664245408972e+01 
-1.231803919674e+02 -5.085420334475e+00 0.0 
-5.085420334475e+00 -3.037394468937e+02 0.0 
0.0 0.0 -1.276759516583e+02 
-6.422709301838e+01 3.795556685382e+01 0.0 
3.795556685382e+01 -1.092625373550e+02 0.0 
0.0 0.0 -5.164688911200e+01 
-7.300691977726e+01 3.517182048241e+01 0.0 
3.517182048241e+01 -1.720312529276e+02 0.0 
0.0 0.0 -7.311145181147e+01 
-6.661457324864e+01 7.080624234404e+00 0.0 
7.080624234404e+00 -9.288527103993e+01 0.0 
0.0 0.0 -4.744995328657e+01 
-5.219453365703e+01 1.670238920206e+00 0.0 
1.670238920206e+00 -6.371033893548e+01 0.0 
0.0 0.0 -3.437146177775e+01 
-5.640049501317e+01 4.263228460934e+00 0.0 
4.263228460934e+00 -6.097712510281e+01 0.0 
0.0 0.0 -3.481328603479e+01 
-9.748918462640e+01 -4.277222202738e+00 0.0 
-4.277222202738e+00 -2.221130231591e+02 0.0 
0.0 0.0 -9.548066233565e+01 
-1.331830949064e+02 1.847843654806e+00 0.0 
1.847843654806e+00 -3.448487330750e+02 0.0 
0.0 0.0 -1.430095483944e+02 
-1.087538165847e+02 -6.821916179083e+00 0.0 
-6.821916179083e+00 -2.797144491366e+02 0.0 
0.0 0.0 -1.161404797164e+02 
-5.192819220638e+01 3.457177266481e+00 0.0 
3.457177266481e+00 -5.449716531031e+01 0.0 
0.0 0.0 -3.152760725501e+01 
-1.069602913294e+02 4.282706934504e+01 0.0 
4.282706934504e+01 -2.236525155521e+02 0.0 
0.0 0.0 -9.878384206444e+01 
-1.036614151806e+02 2.516061452207e+01 0.0 
2.516061452207e+01 -2.736398699395e+02 0.0 
0.0 0.0 -1.127903855360e+02 
-1.184599438928e+02 -5.924752962504e+00 0.0 
-5.924752962504e+00 -2.966787960168e+02 0.0 
0.0 0.0 -1.241416219729e+02 
-7.039450862095e+01 6.889551409968e+00 0.0 
6.889551409968e+00 -1.145423835049e+02 0.0 
0.0 0.0 -5.508106763776e+01 
-7.753025193398e+01 -9.134831088681e+00 0.0 
-9.134831088681e+00 -1.774136798440e+02 0.0 
0.0 0.0 -7.608317953340e+01 
-7.254520701300e+01 -7.451793818186e+00 0.0 
-7.451793818186e+00 -1.629136385150e+02 0.0 
0.0 0.0 -7.023765365840e+01 
-3.677023684469e+01 -1.753410929187e+00 0.0 
-1.753410929187e+00 -8.580740330736e+01 0.0 
0.0 0.0 -3.637329204561e+01 
-1.156141950451e+02 -5.057572381691e+00 0.0 
-5.057572381691e+00 -2.980884755516e+02 0.0 
0.0 0.0 -1.237108011790e+02 
-7.565483202379e+01 -6.183482243799e+00 0.0 
-6.183482243799e+00 -1.700925305895e+02 0.0 
0.0 0.0 -7.332420878398e+01 
-6.613196318563e+01 7.302896886091e+00 0.0 
7.302896886091e+00 -8.492026870100e+01 0.0 
0.0 0.0 -4.491566956599e+01 
-6.402056552121e+01 7.368551012139e+00 0.0 
7.368551012139e+00 -7.426648972271e+01 0.0 
0.0 0.0 -4.108611657318e+01 
-7.530030717267e+01 9.942985696975e+00 0.0 
9.942985696975e+00 -2.140410411114e+02 0.0 
0.0 0.0 -8.640240448521e+01 
-6.495839448869e+01 -9.767149285815e+00 0.0 
-9.767149285815e+00 -1.414471256138e+02 0.0 
0.0 0.0 -6.152165603074e+01 
-5.676986768324e+01 1.368948474967e+01 0.0 
1.368948474967e+01 -1.650171820684e+02 0.0 
0.0 0.0 -6.613611492549e+01 
-6.782704105909e+01 -8.496269964076e+00 0.0 
-8.496269964076e+00 -1.487476032626e+02 0.0 
0.0 0.0 -6.457239329651e+01 
-7.256145795088e+01 -1.020947600731e+01 0.0 
-1.020947600731e+01 -1.623113410491e+02 0.0 
0.0 0.0 -7.006183969999e+01 
-4.325964591291e+01 -4.587026021084e+00 0.0 
-4.587026021084e+00 -9.472893049049e+01 0.0 
0.0 0.0 -4.099657292102e+01 
-1.271739998892e+02 2.572599103092e+00 0.0 
2.572599103092e+00 -3.367859645495e+02 0.0 
0.0 0.0 -1.387879893316e+02 
-8.255857566022e+01 -1.297901893316e+01 0.0 
-1.297901893316e+01 -2.062011257606e+02 0.0 
0.0 0.0 -8.622791042624e+01 
-7.607399954195e+01 8.810938064279e+00 0.0 
8.810938064279e+00 -1.276031572692e+02 0.0 
0.0 0.0 -6.070314704334e+01 
-8.479225850493e+01 -1.258900163569e+01 0.0 
-1.258900163569e+01 -2.213856780517e+02 0.0 
0.0 0.0 -9.145338096698e+01 
-1.092915052942e+02 -7.117252451123e+00 0.0 
-7.117252451123e+00 -2.835803134530e+02 0.0 
0.0 0.0 -1.174615456242e+02 
-9.580863970936e+01 -1.026776663379e+01 0.0 
-1.026776663379e+01 -2.453189981721e+02 0.0 
0.0 0.0 -1.019382913644e+02 
-6.951456665612e+01 2.791113128487e+01 0.0 
2.791113128487e+01 -1.790809736773e+02 0.0 
0.0 0.0 -7.417866210004e+01 
-4.063531199075e+01 -1.600994074680e+00 0.0 
-1.600994074680e+00 -9.432548854949e+01 0.0 
0.0 0.0 -4.008824016207e+01 
-1.348000081493e+02 1.072445451111e+00 0.0 
1.072445451111e+00 -3.505838067156e+02 0.0 
0.0 0.0 -1.452151444595e+02 
-1.428529597077e+02 4.650636826327e+00 0.0 
4.650636826327e+00 -3.628079731218e+02 0.0 
0.0 0.0 -1.512982798488e+02 
-9.174275582582e+01 3.842845124322e+01 0.0 
3.842845124322e+01 -2.202017861309e+02 0.0 
0.0 0.0 -9.318336258700e+01 
-7.655149823436e+01 -1.168655534314e+01 0.0 
-1.168655534314e+01 -1.764349664140e+02 0.0 
0.0 0.0 -7.549593939451e+01 
-1.025082266160e+02 -8.738246276146e+00 0.0 
-8.738246276146e+00 -2.645466143126e+02 0.0 
0.0 0.0 -1.097164522786e+02 
-6.159675945625e+01 4.759595471646e+00 0.0 
4.759595471646e+00 -8.256722624006e+01 0.0 
0.0 0.0 -4.284919570889e+01 
-8.063704492912e+01 -7.700660188962e+00 0.0 
-7.700660188962e+00 -1.839340769255e+02 0.0 
0.0 0.0 -7.897133655638e+01 
-6.488903174783e+01 3.678367011893e+01 0.0 
3.678367011893e+01 -1.378759647833e+02 0.0 
0.0 0.0 -6.042949895933e+01 
-6.091425612521e+01 -3.876024893364e+00 0.0 
-3.876024893364e+00 -1.358223184030e+02 0.0 
0.0 0.0 -5.862097235847e+01 
-6.010528802338e+01 -1.763807115540e+01 0.0 
-1.763807115540e+01 -1.426333771524e+02 0.0 
0.0 0.0 -6.042159955273e+01 
-8.188750799840e+01 -1.049224180500e+01 0.0 
-1.049224180500e+01 -1.924549171187e+02 0.0 
0.0 0.0 -8.190272753515e+01 
-5.629275106322e+01 -5.100936795035e+00 0.0 
-5.100936795035e+00 -1.233238855307e+02 0.0 
0.0 0.0 -5.348499097818e+01 
-4.822259684040e+01 -1.044915563563e+00 0.0 
-1.044915563563e+00 -1.111805408066e+02 0.0 
0.0 0.0 -4.742094129409e+01 
-9.926167546649e+01 -9.093979048694e+00 0.0 
-9.093979048694e+00 -2.470399588718e+02 0.0 
0.0 0.0 -1.034904903015e+02 
-1.138316930884e+02 -6.649899859052e+00 0.0 
-6.649899859052e+00 -2.899134371541e+02 0.0 
0.0 0.0 -1.207235390728e+02 
-1.046654327661e+02 3.889204449375e+01 0.0 
3.889204449375e+01 -2.562081079587e+02 0.0 
0.0 0.0 -1.078620622174e+02 
9.959833540737e-01 -1.866807035643e-01 0.0 
-1.866807035643e-01 -7.676314945950e+00 0.0 
0.0 0.0 1.000000000000e+00 
-7.635238683481e+01 -9.175246608814e+00 0.0 
-9.175246608814e+00 -2.170198433993e+02 0.0 
0.0 0.0 -8.761166907022e+01 
-8.019618809780e+01 -1.342651028999e+01 0.0 
-1.342651028999e+01 -2.178120863205e+02 0.0 
0.0 0.0 -8.900248232549e+01 
-7.983110658787e+01 -1.265316695164e+01 0.0 
-1.265316695164e+01 -1.911357568350e+02 0.0 
0.0 0.0 -8.089005902686e+01 
-5.909488867540e+01 4.550560217299e+00 0.0 
4.550560217299e+00 -7.170647197806e+01 0.0 
0.0 0.0 -3.884040819604e+01 
-8.916042717218e+01 -1.169858713246e+01 0.0 
-1.169858713246e+01 -2.258676717551e+02 0.0 
0.0 0.0 -9.410842967819e+01 
-6.547057029607e+01 -5.903701600791e+00 0.0 
-5.903701600791e+00 -1.438651201113e+02 0.0 
0.0 0.0 -6.240070712222e+01 
-8.563423144364e+01 -1.132693859725e+01 0.0 
-1.132693859725e+01 -2.078671244056e+02 0.0 
0.0 0.0 -8.765040675477e+01 
-6.848334013579e+01 4.661632217198e+00 0.0 
4.661632217198e+00 -1.157076871370e+02 0.0 
0.0 0.0 -5.485730818184e+01 
-6.420361514082e+01 -3.140692776338e+00 0.0 
-3.140692776338e+00 -1.439423954153e+02 0.0 
0.0 0.0 -6.204380316685e+01 
-1.982527647173e+01 -2.002118772660e+00 0.0 
-2.002118772660e+00 -5.436057123835e+01 0.0 
0.0 0.0 -2.185575431303e+01 
-3.216878601167e+01 -3.193022452084e+00 0.0 
-3.193022452084e+00 -7.461018879851e+01 0.0 
0.0 0.0 -3.163369244306e+01 
-6.033110961092e+01 -1.772564672661e+01 0.0 
-1.772564672661e+01 -1.424331503082e+02 0.0 
0.0 0.0 -6.042927797574e+01 
-6.947101322572e+01 -1.172143730806e+01 0.0 
-1.172143730806e+01 -1.556965367914e+02 0.0 
0.0 0.0 -6.715026500513e+01 
-8.163330224139e+01 -1.079012064987e+01 0.0 
-1.079012064987e+01 -2.293589575597e+02 0.0 
0.0 0.0 -9.289767794031e+01 
-8.874882817443e+01 -1.147915304337e+01 0.0 
-1.147915304337e+01 -2.233202549093e+02 0.0 
0.0 0.0 -9.322072492511e+01 
-4.668027986047e+01 -1.268411648847e+01 0.0 
-1.268411648847e+01 -9.786021811597e+01 0.0 
0.0 0.0 -4.258648032192e+01 
-2.915114099051e+01 -1.479227719572e-01 0.0 
-1.479227719572e-01 -7.397072978524e+01 0.0 
0.0 0.0 -3.053656123272e+01 
-6.661732905515e+01 1.126046499131e+01 0.0 
1.126046499131e+01 -6.388189084772e+01 0.0 
0.0 0.0 -3.874976597086e+01 
-5.466500125211e+01 -2.295500855783e+00 0.0 
-2.295500855783e+00 -1.232461862862e+02 0.0 
0.0 0.0 -5.297335626148e+01 
-1.201829656967e+02 -3.918764757720e-01 0.0 
-3.918764757720e-01 -3.255169217670e+02 0.0 
0.0 0.0 -1.333099662391e+02 
-1.014935789112e+02 3.658616043899e+01 0.0 
3.658616043899e+01 -2.517374857657e+02 0.0 
0.0 0.0 -1.055693194030e+02 
-8.119736662758e+01 3.498505996760e+01 0.0 
3.498505996760e+01 -1.144877039255e+02 0.0 
0.0 0.0 -5.830552116594e+01 
-8.191443516354e+01 1.608478908638e+01 0.0 
1.608478908638e+01 -1.384733230600e+02 0.0 
0.0 0.0 -6.571632746705e+01 
-1.077508137779e+02 4.097235917032e+01 0.0 
4.097235917032e+01 -2.607409378467e+02 0.0 
0.0 0.0 -1.101475254874e+02 
-6.914116624705e+01 1.209289101838e+01 0.0 
1.209289101838e+01 -1.974347883565e+02 0.0 
0.0 0.0 -7.957278638106e+01 
-9.663312476290e+01 3.750744041021e+01 0.0 
3.750744041021e+01 -2.363296343881e+02 0.0 
0.0 0.0 -9.948882774531e+01 
-5.412149276055e+01 -1.843838377829e+01 0.0 
-1.843838377829e+01 -1.216847035287e+02 0.0 
0.0 0.0 -5.202757767911e+01 
-8.903713034368e+01 -9.905729466376e+00 0.0 
-9.905729466376e+00 -2.128208760274e+02 0.0 
0.0 0.0 -9.015740191132e+01 
-7.062039013230e+01 2.491033896437e+01 0.0 
2.491033896437e+01 -1.873614278806e+02 0.0 
0.0 0.0 -7.699454540388e+01 
-4.395524756776e+01 -2.073250776168e+01 0.0 
-2.073250776168e+01 -1.213994337523e+02 0.0 
0.0 0.0 -4.916522170862e+01 
-4.657188376911e+01 -1.665160766307e+01 0.0 
-1.665160766307e+01 -9.714340893669e+01 0.0 
0.0 0.0 -4.135718434079e+01 
-7.569455785337e+01 -8.873827990554e+00 0.0 
-8.873827990554e+00 -1.695206512081e+02 0.0 
0.0 0.0 -7.316456271843e+01 
-8.484663793522e+01 -1.259050381313e+01 0.0 
-1.259050381313e+01 -2.199833969412e+02 0.0 
0.0 0.0 -9.104901046293e+01 
-8.703963391552e+01 -1.164143961626e+01 0.0 
-1.164143961626e+01 -2.359977356922e+02 0.0 
0.0 0.0 -9.651121088231e+01 
-5.950799990464e+01 -4.444309191196e+00 0.0 
-4.444309191196e+00 -1.315646401702e+02 0.0 
0.0 0.0 -5.692179202246e+01 
-9.129394874645e+01 -1.087414717744e+01 0.0 
-1.087414717744e+01 -2.404462887807e+02 0.0 
0.0 0.0 -9.912207125813e+01 
-8.232413200472e+01 -1.156809974668e+01 0.0 
-1.156809974668e+01 -2.306682640786e+02 0.0 
0.0 0.0 -9.349771882499e+01 
-7.721426567291e+01 -5.212388062497e+00 0.0 
-5.212388062497e+00 -2.205467042190e+02 0.0 
0.0 0.0 -8.892829096758e+01 
-6.968093185932e+01 -8.906952605185e+00 0.0 
-8.906952605185e+00 -1.563846720864e+02 0.0 
0.0 0.0 -6.741968118371e+01 
-1.010964425902e+02 1.418807289053e+01 0.0 
1.418807289053e+01 -2.759890484272e+02 0.0 
0.0 0.0 -1.127256473052e+02 
-7.171311503919e+01 9.903262975973e+00 0.0 
9.903262975973e+00 -9.552279280946e+01 0.0 
0.0 0.0 -4.977077235460e+01 
-7.122567388193e+01 -4.050453595755e+00 0.0 
-4.050453595755e+00 -2.060507063701e+02 0.0 
0.0 0.0 -8.278291407560e+01 
-1.284690069847e+02 1.925925124379e+00 0.0 
1.925925124379e+00 -3.428674677975e+02 0.0 
0.0 0.0 -1.410009424347e+02 
-5.718525831154e+01 -2.014859766330e+01 0.0 
-2.014859766330e+01 -1.443422995070e+02 0.0 
0.0 0.0 -6.005826734555e+01 
-1.355667915112e+02 9.395548379613e+00 0.0 
9.395548379613e+00 -3.576256806849e+02 0.0 
0.0 0.0 -1.475577416588e+02 
-8.649059887552e+01 -1.142549795321e+01 0.0 
-1.142549795321e+01 -2.364785695033e+02 0.0 
0.0 0.0 -9.649075051364e+01 
-1.110532195318e+02 4.287251245938e+01 0.0 
4.287251245938e+01 -2.661687533143e+02 0.0 
0.0 0.0 -1.127665918538e+02 
-8.620973620040e+01 4.090527691551e+01 0.0 
4.090527691551e+01 -1.696876471566e+02 0.0 
0.0 0.0 -7.636921500709e+01 
-5.402330250600e+01 -1.843512041239e+01 0.0 
-1.843512041239e+01 -1.207544181036e+02 0.0 
0.0 0.0 -5.203331618289e+01 
-8.431329984047e+01 3.717115386783e+01 0.0 
3.717115386783e+01 -1.340767745685e+02 0.0 
0.0 0.0 -6.511702232269e+01 
-8.979945738944e+01 2.469137169588e+01 0.0 
2.469137169588e+01 -1.589172624088e+02 0.0 
0.0 0.0 -7.421501593948e+01 
-8.791344659423e+01 -8.426415852702e+00 0.0 
-8.426415852702e+00 -2.459688790053e+02 0.0 
0.0 0.0 -9.976469767986e+01 
-5.802685051881e+01 3.167923693004e+01 0.0 
3.167923693004e+01 -1.338858721342e+02 0.0 
0.0 0.0 -5.717381679590e+01 
-8.748149740294e+01 3.894654765787e+01 0.0 
3.894654765787e+01 -1.534287776184e+02 0.0 
0.0 0.0 -7.187308250639e+01 
-7.415173600629e+01 3.789681210373e+01 0.0 
3.789681210373e+01 -1.669160991471e+02 0.0 
0.0 0.0 -7.192035054601e+01 
-4.998779723540e+01 -1.775835836039e+01 0.0 
-1.775835836039e+01 -9.805655266239e+01 0.0 
0.0 0.0 -4.365867057281e+01 
-8.987178283484e+01 2.111113683968e+01 0.0 
2.111113683968e+01 -1.839901825553e+02 0.0 
0.0 0.0 -8.175858961706e+01 
-4.455490001040e+01 -1.263806452787e+01 0.0 
-1.263806452787e+01 -8.014111649577e+01 0.0 
0.0 0.0 -3.633140744237e+01 
-1.206060858710e+02 2.441744204210e+01 0.0 
2.441744204210e+01 -3.176198565531e+02 0.0 
0.0 0.0 -1.310677827272e+02 
-7.724333790425e+01 8.239609987716e+00 0.0 
8.239609987716e+00 -1.467162311697e+02 0.0 
0.0 0.0 -6.678787072219e+01 
-1.062286186660e+02 1.248919689130e+01 0.0 
1.248919689130e+01 -2.896403304289e+02 0.0 
0.0 0.0 -1.183606847285e+02 
-5.377639289675e+01 2.612401288106e+00 0.0 
2.612401288106e+00 -6.187639672651e+01 0.0 
0.0 0.0 -3.429583688698e+01 
-8.296409381027e+01 1.567137524593e+01 0.0 
1.567137524593e+01 -1.287914501841e+02 0.0 
0.0 0.0 -6.312666319831e+01 
-8.360907645983e+01 -7.605409481126e+00 0.0 
-7.605409481126e+00 -2.356179288095e+02 0.0 
0.0 0.0 -9.536810158079e+01 
-8.221330891152e+01 1.210272837364e+01 0.0 
1.210272837364e+01 -2.300937092391e+02 0.0 
0.0 0.0 -9.329210544518e+01 
-8.646827247895e+01 1.858421316865e+01 0.0 
1.858421316865e+01 -1.609409507661e+02 0.0 
0.0 0.0 -7.382276697352e+01 
-1.210847959647e+02 -4.960631311500e+00 0.0 
-4.960631311500e+00 -3.091682707303e+02 0.0 
0.0 0.0 -1.286759200085e+02 
-7.720940710158e+01 1.301428970825e+01 0.0 
1.301428970825e+01 -1.068575122609e+02 0.0 
0.0 0.0 -5.482007580875e+01 
-1.052808601442e+02 3.521374265168e+00 0.0 
3.521374265168e+00 -2.900057060866e+02 0.0 
0.0 0.0 -1.181859698692e+02 
-5.005376451553e+01 -2.117039789695e+01 0.0 
-2.117039789695e+01 -1.195567810792e+02 0.0 
0.0 0.0 -5.048316367841e+01 
-8.235419615331e+01 1.659645259634e+01 0.0 
1.659645259634e+01 -1.190035219004e+02 0.0 
0.0 0.0 -6.000731541612e+01 
-1.196496949164e+02 3.891490560871e+01 0.0 
3.891490560871e+01 -2.973968513300e+02 0.0 
0.0 0.0 -1.247139638739e+02 
-1.391442725756e+02 4.198414383296e+00 0.0 
4.198414383296e+00 -3.611118658385e+02 0.0 
0.0 0.0 -1.496768415242e+02 
-8.657343948062e+01 -1.178014154043e+01 0.0 
-1.178014154043e+01 -2.113675054317e+02 0.0 
0.0 0.0 -8.898228347371e+01 
-5.772207282352e+01 5.155224801899e+00 0.0 
5.155224801899e+00 -6.389876103879e+01 0.0 
0.0 0.0 -3.608625015869e+01 
-5.052502416433e+01 2.224370942501e+00 0.0 
2.224370942501e+00 -5.111358868600e+01 0.0 
0.0 0.0 -3.009158385510e+01 
-9.126089667929e+01 -1.082833821019e+01 0.0 
-1.082833821019e+01 -2.386312799458e+02 0.0 
0.0 0.0 -9.856765298752e+01 
-1.161729781105e+02 -5.371317997051e+00 0.0 
-5.371317997051e+00 -3.024724000009e+02 0.0 
0.0 0.0 -1.251936134334e+02 
-1.182711449270e+02 -3.365439723005e+00 0.0 
-3.365439723005e+00 -3.144720286511e+02 0.0 
0.0 0.0 -1.294229520734e+02 
-2.510302935419e+01 -1.154948494050e-01 0.0 
-1.154948494050e-01 -6.529426533281e+01 0.0 
0.0 0.0 -2.671918840610e+01 
-5.398352840717e+01 1.615908968058e+01 0.0 
1.615908968058e+01 -1.553650637594e+02 0.0 
0.0 0.0 -6.240457764997e+01 
-7.291187310572e+01 -1.757297872983e-02 0.0 
-1.757297872983e-02 -2.106189099028e+02 0.0 
0.0 0.0 -8.465923490255e+01 
-7.897772284283e+01 -5.822119955475e+00 0.0 
-5.822119955475e+00 -2.247359618686e+02 0.0 
0.0 0.0 -9.071410541344e+01 
-7.479514089469e+01 3.457751606770e+01 0.0 
3.457751606770e+01 -1.792349702448e+02 0.0 
0.0 0.0 -7.580903334185e+01 
-9.140515475858e+01 2.018258959961e+01 0.0 
2.018258959961e+01 -1.724312707841e+02 0.0 
0.0 0.0 -7.875092766280e+01 
-9.935689284856e+01 3.746765716684e+01 0.0 
3.746765716684e+01 -2.016222794941e+02 0.0 
0.0 0.0 -8.989375170280e+01 
-8.092712523153e+01 1.039021321281e+01 0.0 
1.039021321281e+01 -1.485309423928e+02 0.0 
0.0 0.0 -6.843742028730e+01 
-6.602622081245e+01 3.823275277323e+01 0.0 
3.823275277323e+01 -1.089273144101e+02 0.0 
0.0 0.0 -5.208606056677e+01 
-8.535802255490e+01 2.213179779473e+01 0.0 
2.213179779473e+01 -1.358737873427e+02 0.0 
0.0 0.0 -6.596954296928e+01 
-1.202433859096e+02 -4.525049188160e+00 0.0 
-4.525049188160e+00 -3.043818501052e+02 0.0 
0.0 0.0 -1.269875708045e+02 
-8.327388931585e+01 1.431784830817e+01 0.0 
1.431784830817e+01 -1.583960596700e+02 0.0 
0.0 0.0 -7.210098469577e+01 
-8.155191535644e+01 1.768950268265e+01 0.0 
1.768950268265e+01 -1.094808565499e+02 0.0 
0.0 0.0 -5.690983157191e+01 
-9.243111155682e+01 -1.028381012857e+01 0.0 
-1.028381012857e+01 -2.275674610794e+02 0.0 
0.0 0.0 -9.559957179087e+01 
-6.774723018181e+01 1.750451022709e+00 0.0 
1.750451022709e+00 -1.978338178322e+02 0.0 
0.0 0.0 -7.927431440419e+01 
-7.657230980145e+01 1.327473189134e+01 0.0 
1.327473189134e+01 -1.159877351144e+02 0.0 
0.0 0.0 -5.736801347476e+01 
-8.767748618630e+01 1.813184294152e+01 0.0 
1.813184294152e+01 -1.508977680057e+02 0.0 
0.0 0.0 -7.117257625760e+01 
-7.310118257253e+01 9.600561102519e+00 0.0 
9.600561102519e+00 -1.144048270364e+02 0.0 
0.0 0.0 -5.585180288267e+01 
-7.162911522548e+01 9.927294458635e+00 0.0 
9.927294458635e+00 -1.039675167507e+02 0.0 
0.0 0.0 -5.227898959285e+01 
-1.318129682697e+02 -1.349135925336e+00 0.0 
-1.349135925336e+00 -3.398875891404e+02 0.0 
0.0 0.0 -1.411101672230e+02 
-1.157715343245e+02 2.542837479153e+01 0.0 
2.542837479153e+01 -3.043898502507e+02 0.0 
0.0 0.0 -1.256484153726e+02 
-1.258725644984e+02 -1.191021506310e+00 0.0 
-1.191021506310e+00 -3.326313692326e+02 0.0 
0.0 0.0 -1.371511801193e+02 
-1.068968001175e+02 -8.155359821510e+00 0.0 
-8.155359821510e+00 -2.705302412888e+02 0.0 
0.0 0.0 -1.128281124219e+02 
-6.070744525865e+01 3.480397634366e+01 0.0 
3.480397634366e+01 -6.996419708384e+01 0.0 
0.0 0.0 -3.880149270275e+01 
-1.082896574372e+02 1.613565212556e+01 0.0 
1.613565212556e+01 -2.927933312174e+02 0.0 
0.0 0.0 -1.199248965964e+02 
-8.388723282738e+01 2.555899090489e+01 0.0 
2.555899090489e+01 -1.234812010070e+02 0.0 
0.0 0.0 -6.181053015032e+01 
-4.983239065525e+01 -3.738585300541e+00 0.0 
-3.738585300541e+00 -1.112799337123e+02 0.0 
0.0 0.0 -4.793369731026e+01 
-7.966546940652e+01 -1.190845798263e+00 0.0 
-1.190845798263e+00 -2.271976829131e+02 0.0 
0.0 0.0 -9.165894569588e+01 
-8.592155020801e+01 1.073412498318e+00 0.0 
1.073412498318e+00 -2.425937591161e+02 0.0 
0.0 0.0 -9.815459279723e+01 
-8.900610717803e+01 1.397454679799e+01 0.0 
1.397454679799e+01 -2.459345644034e+02 0.0 
0.0 0.0 -1.000822014744e+02 
-4.575986092581e+01 -9.312339599003e+00 0.0 
-9.312339599003e+00 -1.407020503489e+02 0.0 
0.0 0.0 -5.538760336262e+01 
-7.442528822119e+01 7.020362225007e-01 0.0 
7.020362225007e-01 -2.143293215360e+02 0.0 
0.0 0.0 -8.622638292717e+01 
-9.602279178494e+01 1.580075540025e+01 0.0 
1.580075540025e+01 -2.623173753890e+02 0.0 
0.0 0.0 -1.071020501522e+02 
-6.948457720111e+01 3.624472424873e+01 0.0 
3.624472424873e+01 -1.084205668269e+02 0.0 
0.0 0.0 -5.297154320840e+01 
-9.331618877860e+01 -1.071930627454e+01 0.0 
-1.071930627454e+01 -2.312992913369e+02 0.0 
0.0 0.0 -9.698464403464e+01 
-7.499631420882e+01 1.464049149013e+01 0.0 
1.464049149013e+01 -8.681766207080e+01 0.0 
0.0 0.0 -4.814419288388e+01 
-3.539145446189e+01 -2.323383595061e-01 0.0 
-2.323383595061e-01 -2.095868572802e+01 0.0 
0.0 0.0 -1.650504205697e+01 
-2.647802077211e+01 1.782118083101e+01 0.0 
1.782118083101e+01 -2.020550672414e+01 0.0 
0.0 0.0 -1.271387015281e+01 
-1.061160340378e+02 -7.750805433086e+00 0.0 
-7.750805433086e+00 -2.662916574315e+02 0.0 
0.0 0.0 -1.113223074408e+02 
-1.102681238220e+02 1.039573360730e+01 0.0 
1.039573360730e+01 -3.005460063184e+02 0.0 
0.0 0.0 -1.228442390421e+02 
-1.005378823243e+02 3.622659313304e+01 0.0 
3.622659313304e+01 -2.052454531793e+02 0.0 
0.0 0.0 -9.133500065108e+01 
-7.814276897699e+01 8.087009327023e+00 0.0 
8.087009327023e+00 -2.219166957247e+02 0.0 
0.0 0.0 -8.961783941052e+01 
-1.000850880364e+02 -9.510944815582e+00 0.0 
-9.510944815582e+00 -2.510110955059e+02 0.0 
0.0 0.0 -1.049288550627e+02 
-7.013545949089e+01 1.022370823334e+01 0.0 
1.022370823334e+01 -8.514238030489e+01 0.0 
0.0 0.0 -4.618335193873e+01 
-2.746500131856e+01 1.880257213273e+01 0.0 
1.880257213273e+01 -2.038045335266e+01 0.0 
0.0 0.0 -1.276735095270e+01 
-1.053467429059e+02 1.214650603403e+01 0.0 
1.214650603403e+01 -2.876117068372e+02 0.0 
0.0 0.0 -1.174875349229e+02 
-8.732249826737e+01 1.012702238144e+01 0.0 
1.012702238144e+01 -2.438071421456e+02 0.0 
0.0 0.0 -9.893889212390e+01 
-7.276053930183e+01 3.817457344874e+01 0.0 
3.817457344874e+01 -1.097765472537e+02 0.0 
0.0 0.0 -5.436112596666e+01 
-1.227917131163e+02 -3.041792693097e+00 0.0 
-3.041792693097e+00 -3.164583054811e+02 0.0 
0.0 0.0 -1.313750055792e+02 
-5.780827435942e+01 -2.164137083033e+01 0.0 
-2.164137083033e+01 -1.579848080714e+02 0.0 
0.0 0.0 -6.433792472924e+01 
-1.250885170892e+02 -7.684343578241e-01 0.0 
-7.684343578241e-01 -3.275141028163e+02 0.0 
0.0 0.0 -1.353807859716e+02 
-1.314747095296e+02 5.449230669770e+00 0.0 
5.449230669770e+00 -3.512572609168e+02 0.0 
0.0 0.0 -1.444195911339e+02 
-1.005796308231e+02 1.372845723291e+01 0.0 
1.372845723291e+01 -2.749576763456e+02 0.0 
0.0 0.0 -1.122611921506e+02 
-7.821479985812e+01 1.241010749850e+01 0.0 
1.241010749850e+01 -1.170617655285e+02 0.0 
0.0 0.0 -5.818296961598e+01 
-1.002581472170e+02 3.189365058449e+01 0.0 
3.189365058449e+01 -2.561862736248e+02 0.0 
0.0 0.0 -1.065333262525e+02 
-1.362401287300e+02 5.520112553087e+00 0.0 
5.520112553087e+00 -3.532967835039e+02 0.0 
0.0 0.0 -1.464610736702e+02 
-2.721044169793e+01 1.878521052155e+01 0.0 
1.878521052155e+01 -2.042532167023e+01 0.0 
0.0 0.0 -1.389072901045e+01 
-7.616737403344e+01 1.368823516696e+01 0.0 
1.368823516696e+01 -9.682373577797e+01 0.0 
0.0 0.0 -5.149733294342e+01 
-1.137764829112e+02 2.915385238139e+01 0.0 
2.915385238139e+01 -2.953358847736e+02 0.0 
0.0 0.0 -1.223337103054e+02 
-7.756709631986e+01 1.266680661208e+01 0.0 
1.266680661208e+01 -1.259858003306e+02 0.0 
0.0 0.0 -6.066586899513e+01 
-9.324652886569e+01 1.196621468687e+01 0.0 
1.196621468687e+01 -2.576389476957e+02 0.0 
0.0 0.0 -1.048656429684e+02 
-7.463184581131e+01 5.476773429245e+00 0.0 
5.476773429245e+00 -2.141066895105e+02 0.0 
0.0 0.0 -8.622156059654e+01 
-1.016936012560e+02 -6.935558208505e+00 0.0 
-6.935558208505e+00 -2.384838485111e+02 0.0 
0.0 0.0 -1.016532349301e+02 
-4.286589724977e+01 4.680013980118e+00 0.0 
4.680013980118e+00 -1.359015079853e+02 0.0 
0.0 0.0 -5.498293794687e+01 
-7.858899793937e+01 1.201604085382e+01 0.0 
1.201604085382e+01 -1.362401820171e+02 0.0 
0.0 0.0 -6.404875398694e+01 
-5.346339483369e+01 -3.360115328492e+00 0.0 
-3.360115328492e+00 -1.198444845841e+02 0.0 
0.0 0.0 -5.159236382534e+01 
-2.734442791581e+01 1.860151168214e+01 0.0 
1.860151168214e+01 -1.978292434038e+01 0.0 
0.0 0.0 -1.373820567686e+01 
-9.626377682416e+01 3.333722041921e+01 0.0 
3.333722041921e+01 -2.430984357818e+02 0.0 
0.0 0.0 -1.014086637818e+02 
-8.098965730630e+01 1.070019842972e+01 0.0 
1.070019842972e+01 -1.580639019312e+02 0.0 
0.0 0.0 -7.131606777124e+01 
-5.478463972721e+01 -2.248788875866e+01 0.0 
-2.248788875866e+01 -1.482926901877e+02 0.0 
0.0 0.0 -5.993292045837e+01 
-8.055815066707e+01 3.918317487360e+01 0.0 
3.918317487360e+01 -1.838060728695e+02 0.0 
0.0 0.0 -7.890926706096e+01 
-7.556402099264e+01 1.393644638977e+01 0.0 
1.393644638977e+01 -1.063148692920e+02 0.0 
0.0 0.0 -5.416366708540e+01 
-9.974262351020e+01 -7.841209817691e+00 0.0 
-7.841209817691e+00 -2.389216077063e+02 0.0 
0.0 0.0 -1.011992693650e+02 
-5.241729722727e+01 -1.703032966485e+01 0.0 
-1.703032966485e+01 -1.502438829477e+02 0.0 
0.0 0.0 -6.039835405249e+01 
-6.219818493405e+01 3.269073186472e+01 0.0 
3.269073186472e+01 -1.443763579326e+02 0.0 
0.0 0.0 -6.157236285999e+01 
-4.872235755103e+01 -2.105672462618e+01 0.0 
-2.105672462618e+01 -9.709790523880e+01 0.0 
0.0 0.0 -4.229479660101e+01 
-4.473443124486e+01 -2.248496146965e+01 0.0 
-2.248496146965e+01 -1.197886226797e+02 0.0 
0.0 0.0 -4.895691617738e+01 
-4.451890122420e+01 -2.318214571154e+01 0.0 
-2.318214571154e+01 -1.174419919874e+02 0.0 
0.0 0.0 -4.797287347302e+01 
-8.575743002684e+01 1.007397329643e+01 0.0 
1.007397329643e+01 -2.399480291321e+02 0.0 
0.0 0.0 -9.731163774769e+01 
-1.047844084403e+02 3.410058114452e+01 0.0 
3.410058114452e+01 -2.270572678970e+02 0.0 
0.0 0.0 -9.915250290121e+01 
-2.689719929926e+01 1.855837715265e+01 0.0 
1.855837715265e+01 -1.981149490773e+01 0.0 
0.0 0.0 -1.361260826210e+01 
-1.378929541883e+02 -1.243695434057e+00 0.0 
-1.243695434057e+00 -3.471516459515e+02 0.0 
0.0 0.0 -1.451133800419e+02 
-6.365360463669e+01 1.029616067561e+01 0.0 
1.029616067561e+01 -1.848411609176e+02 0.0 
0.0 0.0 -7.414842966627e+01 
-8.061793151840e+01 1.913925071907e+01 0.0 
1.913925071907e+01 -1.005161347595e+02 0.0 
0.0 0.0 -5.394021988338e+01 
-4.418519654548e+01 1.296419920944e+00 0.0 
1.296419920944e+00 -1.398983281485e+02 0.0 
0.0 0.0 -5.664582458026e+01 
-1.393858265885e+02 9.436064658618e+00 0.0 
9.436064658618e+00 -3.592565623483e+02 0.0 
0.0 0.0 -1.491927166810e+02 
-5.426427220405e+01 -2.328083062268e+01 0.0 
-2.328083062268e+01 -1.270966338471e+02 0.0 
0.0 0.0 -5.274393815996e+01 
-6.341997217024e+01 -3.906077832755e+00 0.0 
-3.906077832755e+00 -1.406293705836e+02 0.0 
0.0 0.0 -6.081480282615e+01 
-1.030431048925e+02 1.696905558223e+01 0.0 
1.696905558223e+01 -2.791275243875e+02 0.0 
0.0 0.0 -1.142511887840e+02 
-8.847500670865e+01 -9.083465304753e+00 0.0 
-9.083465304753e+00 -2.471063575234e+02 0.0 
0.0 0.0 -1.002744092696e+02 
-1.111507753156e+02 2.666368937075e+01 0.0 
2.666368937075e+01 -2.913099576224e+02 0.0 
0.0 0.0 -1.203382198814e+02 
-6.112868050306e+01 3.694796971881e+01 0.0 
3.694796971881e+01 -1.201076040649e+02 0.0 
0.0 0.0 -5.397088537039e+01 
-8.898608461043e+01 2.771734439531e+01 0.0 
2.771734439531e+01 -1.317089061743e+02 0.0 
0.0 0.0 -6.580849723542e+01 
-1.200169662026e+02 2.319776117316e+01 0.0 
2.319776117316e+01 -3.171684132068e+02 0.0 
0.0 0.0 -1.307556138228e+02 
-7.011802910473e+01 1.022174791109e+01 0.0 
1.022174791109e+01 -9.369857434699e+01 0.0 
0.0 0.0 -4.874498103552e+01 
-1.033252572715e+02 3.928042735960e+01 0.0 
3.928042735960e+01 -2.070833733589e+02 0.0 
0.0 0.0 -9.272258918911e+01 
-8.688759651270e+01 2.042398930507e+01 0.0 
2.042398930507e+01 -1.320079354571e+02 0.0 
0.0 0.0 -6.526865959093e+01 
-9.090062944441e+01 2.430304767944e+01 0.0 
2.430304767944e+01 -1.462073422595e+02 0.0 
0.0 0.0 -7.073239151116e+01 
-5.394156098851e+01 2.769007367711e+01 0.0 
2.769007367711e+01 -1.340740490774e+02 0.0 
0.0 0.0 -5.595573222258e+01 
-1.344727240005e+02 -2.684310885554e+00 0.0 
-2.684310885554e+00 -3.353405955392e+02 0.0 
0.0 0.0 -1.405439958619e+02 
-8.073754002815e+01 1.802126084861e+01 0.0 
1.802126084861e+01 -1.204785957844e+02 0.0 
0.0 0.0 -5.996484074377e+01 
-7.505839218855e+01 1.816651397537e+01 0.0 
1.816651397537e+01 -2.074297482287e+02 0.0 
0.0 0.0 -8.434644212519e+01 
-2.691610273755e+01 1.880970831618e+01 0.0 
1.880970831618e+01 -2.063107933365e+01 0.0 
0.0 0.0 -1.386415462136e+01 
-1.269584552992e+02 2.747677989883e+01 0.0 
2.747677989883e+01 -3.224949989289e+02 0.0 
0.0 0.0 -1.344360362684e+02 
-4.948094931826e+01 8.340537488576e+00 0.0 
8.340537488576e+00 -1.506215495749e+02 0.0 
0.0 0.0 -5.963074966794e+01 
-5.842820229192e+01 -1.715327922350e+00 0.0 
-1.715327922350e+00 -1.316718214154e+02 0.0 
0.0 0.0 -5.663000711220e+01 
-1.081176309334e+02 2.300434070755e+01 0.0 
2.300434070755e+01 -2.871526098033e+02 0.0 
0.0 0.0 -1.181810722210e+02 
-3.012891822402e+01 9.877662650366e-01 0.0 
9.877662650366e-01 -7.937120577475e+01 0.0 
0.0 0.0 -3.245003719963e+01 
-7.311024420591e+01 3.124821619423e+01 0.0 
3.124821619423e+01 -1.823722335743e+02 0.0 
0.0 0.0 -7.624474333407e+01 
-1.078175534988e+02 1.538585080704e+01 0.0 
1.538585080704e+01 -2.920628424476e+02 0.0 
0.0 0.0 -1.195641187839e+02 
-9.421972311596e+01 2.631156773595e+01 0.0 
2.631156773595e+01 -1.680355052337e+02 0.0 
0.0 0.0 -7.827656850491e+01 
-9.784639541314e+01 3.031352508099e+01 0.0 
3.031352508099e+01 -1.840749383514e+02 0.0 
0.0 0.0 -8.417640012935e+01 
-1.032368672691e+02 1.759952639769e+01 0.0 
1.759952639769e+01 -2.791791563688e+02 0.0 
0.0 0.0 -1.143248070914e+02 
-8.730297979837e+01 1.924244626359e+01 0.0 
1.924244626359e+01 -1.413054997172e+02 0.0 
0.0 0.0 -6.818254385467e+01 
-6.766590645579e+01 1.524873010472e+01 0.0 
1.524873010472e+01 -1.913047226724e+02 0.0 
0.0 0.0 -7.729118873846e+01 
-9.707485279823e+01 3.844771308276e+01 0.0 
3.844771308276e+01 -2.356119728839e+02 0.0 
0.0 0.0 -9.940604770465e+01 
-2.787329414734e+01 1.906098272087e+01 0.0 
1.906098272087e+01 -2.106063702340e+01 0.0 
0.0 0.0 -1.428017935122e+01 
-1.044757023973e+02 4.169667696273e+01 0.0 
4.169667696273e+01 -2.346244613495e+02 0.0 
0.0 0.0 -1.013300491240e+02 
-3.326610851515e+01 1.991038921039e+01 0.0 
1.991038921039e+01 -2.198015460814e+01 0.0 
0.0 0.0 -1.617387893699e+01 
-4.159506801795e+01 2.099437114626e+01 0.0 
2.099437114626e+01 -2.371725321136e+01 0.0 
0.0 0.0 -1.919369636879e+01 
-7.415768126380e+01 1.052795330952e+01 0.0 
1.052795330952e+01 -2.108952854431e+02 0.0 
0.0 0.0 -8.511589001207e+01 
-6.509545676248e+01 2.126576616229e+01 0.0 
2.126576616229e+01 -2.714837254127e+01 0.0 
0.0 0.0 -2.727314879113e+01 
-7.952595468949e+01 2.593880495550e+01 0.0 
2.593880495550e+01 -2.096593848702e+02 0.0 
0.0 0.0 -8.635560186791e+01 
-6.584736931854e+01 2.419540001406e+01 0.0 
2.419540001406e+01 -1.756082992773e+02 0.0 
0.0 0.0 -7.203670057876e+01 
-8.022145557639e+01 3.479797738515e+00 0.0 
3.479797738515e+00 -2.283157817963e+02 0.0 
0.0 0.0 -9.216117121179e+01 
-4.308183966894e+01 -1.646250428092e+01 0.0 
-1.646250428092e+01 -1.263994311462e+02 0.0 
0.0 0.0 -5.008484595591e+01 
-7.085868009319e+01 6.269140172949e+00 0.0 
6.269140172949e+00 -2.045537945611e+02 0.0 
0.0 0.0 -8.222374239629e+01 
-8.248218105254e+01 1.528066663835e+01 0.0 
1.528066663835e+01 -1.482007859169e+02 0.0 
0.0 0.0 -6.880489009083e+01 
-1.034027467306e+02 3.985268576218e+01 0.0 
3.985268576218e+01 -2.219156732108e+02 0.0 
0.0 0.0 -9.719552598241e+01 
-1.261365790103e+02 -4.342212832461e+00 0.0 
-4.342212832461e+00 -3.161360808663e+02 0.0 
0.0 0.0 -1.322817979630e+02 
-1.154621999706e+02 2.444914247181e+01 0.0 
2.444914247181e+01 -3.045193043404e+02 0.0 
0.0 0.0 -1.255944512933e+02 
-8.267711130447e+01 -6.810509143815e+00 0.0 
-6.810509143815e+00 -2.335774826432e+02 0.0 
0.0 0.0 -9.447637818430e+01 
-8.580547314394e+01 2.083462556125e+01 0.0 
2.083462556125e+01 -1.434404841896e+02 0.0 
0.0 0.0 -6.837378720005e+01 
-7.532068124990e+01 4.073450662523e+00 0.0 
4.073450662523e+00 -2.161365981002e+02 0.0 
0.0 0.0 -8.703718380504e+01 
-1.399145336029e+02 -2.255324061727e+00 0.0 
-2.255324061727e+00 -3.425967278045e+02 0.0 
0.0 0.0 -1.443533784222e+02 
-8.129108378988e+01 1.701989148827e+01 0.0 
1.701989148827e+01 -1.290522744892e+02 0.0 
0.0 0.0 -6.270300748373e+01 
-9.015032029883e+01 2.591057668081e+01 0.0 
2.591057668081e+01 -1.385847846715e+02 0.0 
0.0 0.0 -6.822053149111e+01 
-9.808985203794e+01 1.034616086804e+01 0.0 
1.034616086804e+01 -2.704084644845e+02 0.0 
0.0 0.0 -1.101494949567e+02 
-6.833503823815e+01 9.923931292388e+00 0.0 
9.923931292388e+00 -1.967229059041e+02 0.0 
0.0 0.0 -7.911738324266e+01 
-1.024073101899e+02 3.788178587663e+01 0.0 
3.788178587663e+01 -2.518442263896e+02 0.0 
0.0 0.0 -1.058754609739e+02 
-8.499340805221e+01 3.885176472614e+01 0.0 
3.885176472614e+01 -1.687730706186e+02 0.0 
0.0 0.0 -7.572994360125e+01 
-5.369451123243e+01 -2.255099076053e+01 0.0 
-2.255099076053e+01 -1.451587804321e+02 0.0 
0.0 0.0 -5.924211348194e+01 
-4.687089095931e+01 -2.332170725239e+00 0.0 
-2.332170725239e+00 -1.463761432519e+02 0.0 
0.0 0.0 -5.742989661532e+01 
-6.604569980138e+01 3.607510429837e+01 0.0 
3.607510429837e+01 -1.455319297081e+02 0.0 
0.0 0.0 -6.307328885284e+01 
-8.144356585423e+01 3.925717811657e+01 0.0 
3.925717811657e+01 -1.864380799411e+02 0.0 
0.0 0.0 -7.996449373860e+01 
-1.451195131418e+02 -1.872545493316e+00 0.0 
-1.872545493316e+00 -3.501017074047e+02 0.0 
0.0 0.0 -1.481663661640e+02 
-8.612604059630e+01 2.186582117623e+01 0.0 
2.186582117623e+01 -1.234258034550e+02 0.0 
0.0 0.0 -6.246555321539e+01 
-6.819691211800e+01 7.665601778811e+00 0.0 
7.665601778811e+00 -1.974540593212e+02 0.0 
0.0 0.0 -7.929529143178e+01 
-8.807791036862e+01 4.043536642671e+01 0.0 
4.043536642671e+01 -2.039238216735e+02 0.0 
0.0 0.0 -8.720051961264e+01 
-1.125076022697e+02 1.397928753723e+01 0.0 
1.397928753723e+01 -3.045108596940e+02 0.0 
0.0 0.0 -1.247055385891e+02 
-8.357978254082e+01 1.482011492739e+01 0.0 
1.482011492739e+01 -1.388551955126e+02 0.0 
0.0 0.0 -6.633049341603e+01 
-1.056202884410e+02 4.016056960926e+01 0.0 
4.016056960926e+01 -2.563657328746e+02 0.0 
0.0 0.0 -1.081958063947e+02 
-7.339753795303e+01 1.607740285843e+01 0.0 
1.607740285843e+01 -8.891766412429e+01 0.0 
0.0 0.0 -4.829456062320e+01 
-1.204875214254e+02 7.695174068283e+00 0.0 
7.695174068283e+00 -3.266497818374e+02 0.0 
0.0 0.0 -1.337411909788e+02 
-8.096576483163e+01 7.975341780322e+00 0.0 
7.975341780322e+00 -2.289465217866e+02 0.0 
0.0 0.0 -9.257368598545e+01 
-1.133466287093e+02 1.447074155278e+01 0.0 
1.447074155278e+01 -3.063445409202e+02 0.0 
0.0 0.0 -1.255073508889e+02 
-7.897545340404e+01 3.329496084662e+01 0.0 
3.329496084662e+01 -1.947750307043e+02 0.0 
0.0 0.0 -8.172514523249e+01 
-9.121388113269e+01 2.151085995979e+01 0.0 
2.151085995979e+01 -1.633933878944e+02 0.0 
0.0 0.0 -7.598218070814e+01 
-1.096767304300e+02 4.258844570673e+01 0.0 
4.258844570673e+01 -2.628347847395e+02 0.0 
0.0 0.0 -1.113534545509e+02 
-9.070993108648e+01 8.463300106322e+00 0.0 
8.463300106322e+00 -2.528733024556e+02 0.0 
0.0 0.0 -1.026749700626e+02 
-4.623889058468e+01 -2.626536167124e-01 0.0 
-2.626536167124e-01 -1.450081841522e+02 0.0 
0.0 0.0 -5.683891022086e+01 
-1.045891955482e+02 3.025243679410e+01 0.0 
3.025243679410e+01 -2.699941829631e+02 0.0 
0.0 0.0 -1.119750135534e+02 
-7.745912711690e+01 2.973402503251e+01 0.0 
2.973402503251e+01 -1.977673890632e+02 0.0 
0.0 0.0 -8.216795485403e+01 
-6.210325008424e+01 1.102138519373e+01 0.0 
1.102138519373e+01 -1.805137066442e+02 0.0 
0.0 0.0 -7.238508701855e+01 
-9.405083399323e+01 1.217828088871e+01 0.0 
1.217828088871e+01 -2.595308917787e+02 0.0 
0.0 0.0 -1.056745177316e+02 
-1.206433941274e+02 3.891197360939e+00 0.0 
3.891197360939e+00 -3.277727177518e+02 0.0 
0.0 0.0 -1.341248335638e+02 
-4.653966764558e+01 -1.074572428271e+01 0.0 
-1.074572428271e+01 -1.416002504351e+02 0.0 
0.0 0.0 -5.572461337728e+01 
-8.312420362552e+01 6.385696799865e+00 0.0 
6.385696799865e+00 -2.348100632473e+02 0.0 
0.0 0.0 -9.498028006185e+01 
-8.591362243842e+01 3.634585387434e+01 0.0 
3.634585387434e+01 -1.522630823669e+02 0.0 
0.0 0.0 -7.105301144159e+01 
-1.473553892424e+02 -2.835100684978e-01 0.0 
-2.835100684978e-01 -3.513693444253e+02 0.0 
0.0 0.0 -1.492174201003e+02 
-8.908530451214e+01 3.812320564716e+01 0.0 
3.812320564716e+01 -1.714178160934e+02 0.0 
0.0 0.0 -7.775093618167e+01 
-1.008068966065e+02 3.195731570454e+01 0.0 
3.195731570454e+01 -2.575585150304e+02 0.0 
0.0 0.0 -1.071096234910e+02 
-8.264777166801e+01 3.422804770423e+01 0.0 
3.422804770423e+01 -1.328139132279e+02 0.0 
0.0 0.0 -6.423850546879e+01 
-7.481090996366e+01 2.785427729085e+01 0.0 
2.785427729085e+01 -9.200933150968e+01 0.0 
0.0 0.0 -4.964607244200e+01 
-8.809006964008e+01 3.985111517699e+01 0.0 
3.985111517699e+01 -1.878540295213e+02 0.0 
0.0 0.0 -8.238322974843e+01 
-1.127859006137e+02 2.167114807674e+01 0.0 
2.167114807674e+01 -3.001387344703e+02 0.0 
0.0 0.0 -1.234773905252e+02 
-1.328986368709e+02 -1.933827855686e+00 0.0 
-1.933827855686e+00 -3.301738549241e+02 0.0 
0.0 0.0 -1.385217475385e+02 
-8.001216243444e+01 1.938914460091e+01 0.0 
1.938914460091e+01 -1.126660123827e+02 0.0 
0.0 0.0 -5.740345244514e+01 
-9.388573686290e+01 2.735036211883e+01 0.0 
2.735036211883e+01 -1.818585782214e+02 0.0 
0.0 0.0 -8.232329452530e+01 
-7.924024208259e+01 3.156715868812e+01 0.0 
3.156715868812e+01 -1.129886711077e+02 0.0 
0.0 0.0 -5.726867395709e+01 
-5.551289525375e+01 5.029297148867e+00 0.0 
5.029297148867e+00 -1.670390739235e+02 0.0 
0.0 0.0 -6.636559075316e+01 
-1.075912911070e+02 3.297942784386e+01 0.0 
3.297942784386e+01 -2.741511465843e+02 0.0 
0.0 0.0 -1.141227313074e+02 
-8.804642384689e+01 1.719387164035e+01 0.0 
1.719387164035e+01 -1.609034372165e+02 0.0 
0.0 0.0 -7.428495831902e+01 
-7.713545991790e+01 2.646914213486e+01 0.0 
2.646914213486e+01 -2.024599155223e+02 0.0 
0.0 0.0 -8.347861263207e+01 
-8.023258629590e+01 2.950528136828e+01 0.0 
2.950528136828e+01 -2.058420501602e+02 0.0 
0.0 0.0 -8.542239093684e+01 
-6.139615452100e+01 5.834151642409e+00 0.0 
5.834151642409e+00 -1.813136727541e+02 0.0 
0.0 0.0 -7.241294818252e+01 
-8.470571125399e+01 2.369001501183e+01 0.0 
2.369001501183e+01 -1.291258346045e+02 0.0 
0.0 0.0 -6.374946375754e+01 
-6.581692966905e+01 3.698123814843e+01 0.0 
3.698123814843e+01 -1.283186845186e+02 0.0 
0.0 0.0 -5.784068425630e+01 
-8.586850805802e+01 2.443769882973e+01 0.0 
2.443769882973e+01 -2.283949192469e+02 0.0 
0.0 0.0 -9.387902819147e+01 
-6.724482567155e+01 3.875522325944e+01 0.0 
3.875522325944e+01 -1.292705487323e+02 0.0 
0.0 0.0 -5.855461232115e+01 
-1.055136473885e+02 2.011657158688e+01 0.0 
2.011657158688e+01 -2.830218764460e+02 0.0 
0.0 0.0 -1.161606571504e+02 
-1.151030215643e+02 3.425713320857e+01 0.0 
3.425713320857e+01 -2.922798708318e+02 0.0 
0.0 0.0 -1.218148677188e+02 
-6.813266985601e+01 2.711724966478e+00 0.0 
2.711724966478e+00 -1.986685591171e+02 0.0 
0.0 0.0 -7.964036869192e+01 
-3.818097618792e+01 -9.187198052037e+00 0.0 
-9.187198052037e+00 -1.217366938044e+02 0.0 
0.0 0.0 -4.916914347263e+01 
-9.706906272878e+01 3.227748106051e+01 0.0 
3.227748106051e+01 -1.924103872274e+02 0.0 
0.0 0.0 -8.644383498684e+01 
-6.802731147053e+01 3.718531512209e+01 0.0 
3.718531512209e+01 -1.278665067887e+02 0.0 
0.0 0.0 -5.836814547777e+01 
-8.402466047910e+01 -2.769171936950e+00 0.0 
-2.769171936950e+00 -2.377808747222e+02 0.0 
0.0 0.0 -9.614166056040e+01 
-1.116209490037e+02 3.110989963481e+01 0.0 
3.110989963481e+01 -2.873397764309e+02 0.0 
0.0 0.0 -1.192882176304e+02 
-8.512610912395e+01 2.357008587530e+01 0.0 
2.357008587530e+01 -1.155539642740e+02 0.0 
0.0 0.0 -5.980402201938e+01 
-1.278449234929e+02 -2.556505717396e+00 0.0 
-2.556505717396e+00 -3.232696888850e+02 0.0 
0.0 0.0 -1.349343837134e+02 
-6.177540906641e+01 2.052609935754e+01 0.0 
2.052609935754e+01 -1.702364533190e+02 0.0 
0.0 0.0 -6.920355871562e+01 
-4.106380029578e+01 -5.366751407803e+00 0.0 
-5.366751407803e+00 -1.311794028678e+02 0.0 
0.0 0.0 -5.379147877539e+01 
-1.518874568212e+02 8.235951219869e-02 0.0 
8.235951219869e-02 -3.598682610754e+02 0.0 
0.0 0.0 -1.531267153690e+02 
-8.400679038870e+01 3.715192633360e+01 0.0 
3.715192633360e+01 -2.003717718355e+02 0.0 
0.0 0.0 -8.491356866726e+01 
-9.624271846622e+01 2.364204996879e+01 0.0 
2.364204996879e+01 -2.561678562094e+02 0.0 
0.0 0.0 -1.053231724027e+02 
-1.072809846978e+02 3.647518466981e+01 0.0 
3.647518466981e+01 -2.678321447672e+02 0.0 
0.0 0.0 -1.121339388395e+02 
-4.158215447235e+01 -2.621189634466e+00 0.0 
-2.621189634466e+00 -1.332973238388e+02 0.0 
0.0 0.0 -5.431731771805e+01 
-1.235117963944e+02 -3.429939440798e+00 0.0 
-3.429939440798e+00 -3.212403314465e+02 0.0 
0.0 0.0 -1.330256383523e+02 
-4.972473257110e+01 2.649085005652e+01 0.0 
2.649085005652e+01 -1.243624358525e+02 0.0 
0.0 0.0 -5.182615052707e+01 
-7.984636954015e+01 2.076087635813e+01 0.0 
2.076087635813e+01 -9.242161782875e+01 0.0 
0.0 0.0 -5.128039621067e+01 
-1.069987352739e+02 -6.920886816375e+00 0.0 
-6.920886816375e+00 -2.589102475001e+02 0.0 
0.0 0.0 -1.093726948322e+02 
-6.454985194240e+01 5.028555305391e+00 0.0 
5.028555305391e+00 -1.893507550052e+02 0.0 
0.0 0.0 -7.577018208429e+01 
-1.426606932421e+02 -7.650115294848e-01 0.0 
-7.650115294848e-01 -3.440894331659e+02 0.0 
0.0 0.0 -1.456250379224e+02 
-8.435080672264e+01 2.801962838643e+01 0.0 
2.801962838643e+01 -2.194473664081e+02 0.0 
0.0 0.0 -9.073945193923e+01 
-5.944929422054e+01 4.666476174095e+00 0.0 
4.666476174095e+00 -1.768639786212e+02 0.0 
0.0 0.0 -7.049398185253e+01 
-8.471334405075e+01 3.828021978951e+01 0.0 
3.828021978951e+01 -1.995455116302e+02 0.0 
0.0 0.0 -8.487765670429e+01 
-3.752584945379e+01 -1.800993072859e+01 0.0 
-1.800993072859e+01 -1.087121707090e+02 0.0 
0.0 0.0 -4.497975268201e+01 
-9.355820862302e+01 3.597699780982e+01 0.0 
3.597699780982e+01 -2.307410770956e+02 0.0 
0.0 0.0 -9.688978571560e+01 
-1.056966157637e+02 2.084343333947e+01 0.0 
2.084343333947e+01 -2.828921639791e+02 0.0 
0.0 0.0 -1.161766339228e+02 
-1.114495682367e+02 4.379760368497e+01 0.0 
4.379760368497e+01 -2.652971533173e+02 0.0 
0.0 0.0 -1.126240164662e+02 
-9.933920586496e+01 3.563760053079e+01 0.0 
3.563760053079e+01 -2.475098266595e+02 0.0 
0.0 0.0 -1.036547097573e+02 
-5.079043292547e+01 -2.485439961820e+00 0.0 
-2.485439961820e+00 -1.560031429981e+02 0.0 
0.0 0.0 -6.163807277709e+01 
-1.296238422388e+02 -2.903451430530e+00 0.0 
-2.903451430530e+00 -3.179372466011e+02 0.0 
0.0 0.0 -1.338683266520e+02 
-8.658277740924e+01 1.777931641518e+01 0.0 
1.777931641518e+01 -1.702310643913e+02 0.0 
0.0 0.0 -7.664415254017e+01 
-1.324975340485e+02 2.994395597774e+01 0.0 
2.994395597774e+01 -3.263745387573e+02 0.0 
0.0 0.0 -1.372616218417e+02 
-1.083471356937e+02 2.391559597825e+01 0.0 
2.391559597825e+01 -2.868889129788e+02 0.0 
0.0 0.0 -1.181708146018e+02 
-6.407880172660e+01 1.547060558758e+01 0.0 
1.547060558758e+01 -1.819859666398e+02 0.0 
0.0 0.0 -7.341943050993e+01 
-8.900983373483e+01 3.716690265756e+01 0.0 
3.716690265756e+01 -2.151444185531e+02 0.0 
0.0 0.0 -9.084627568639e+01 
-1.454696854818e+02 -1.937880431586e+00 0.0 
-1.937880431586e+00 -3.454377379508e+02 0.0 
0.0 0.0 -1.468722270298e+02 
-1.015979407762e+02 -1.024420113447e+00 0.0 
-1.024420113447e+00 -2.310160346428e+02 0.0 
0.0 0.0 -9.938419262572e+01 
-9.831278669256e+01 3.427263279883e+01 0.0 
3.427263279883e+01 -2.470980703636e+02 0.0 
0.0 0.0 -1.032232571169e+02 
-7.454672318878e+01 1.483780183206e+01 0.0 
1.483780183206e+01 -9.723139405458e+01 0.0 
0.0 0.0 -5.113343517301e+01 
-1.378473908187e+02 -1.315410542739e+00 0.0 
-1.315410542739e+00 -3.370715162847e+02 0.0 
0.0 0.0 -1.420756721310e+02 
-1.305773215864e+02 -7.372095279023e-01 0.0 
-7.372095279023e-01 -3.347252286925e+02 0.0 
0.0 0.0 -1.391907650837e+02 
-2.810210381286e+01 6.974262395835e-02 0.0 
6.974262395835e-02 -8.300921006615e+00 0.0 
0.0 0.0 -1.052090744584e+01 
-2.797636879809e+01 -1.794050356353e-04 0.0 
-1.794050356353e-04 -8.289495705165e+00 0.0 
0.0 0.0 -1.047975935098e+01 
-8.991576960853e+01 3.842882334910e+01 0.0 
3.842882334910e+01 -1.558369255461e+02 0.0 
0.0 0.0 -7.332580854638e+01 
-9.347243719170e+01 3.524915433277e+01 0.0 
3.524915433277e+01 -2.319329264286e+02 0.0 
0.0 0.0 -9.722160908610e+01 
-1.109249831690e+02 -5.755743801127e+00 0.0 
-5.755743801127e+00 -2.656491409847e+02 0.0 
0.0 0.0 -1.125722372461e+02 
-9.149574483366e+01 4.177186633647e+01 0.0 
4.177186633647e+01 -1.897768924669e+02 0.0 
0.0 0.0 -8.398179119016e+01 
-8.113119784765e+01 2.502789973333e+01 0.0 
2.502789973333e+01 -2.151987365061e+02 0.0 
0.0 0.0 -8.849898030612e+01 
-1.244197331163e+02 1.443493833602e+01 0.0 
1.443493833602e+01 -3.338889694131e+02 0.0 
0.0 0.0 -1.370926107588e+02 
-7.105059845227e+01 1.936126762586e+01 0.0 
1.936126762586e+01 -1.958906437553e+02 0.0 
0.0 0.0 -7.968237266226e+01 
-1.009082603400e+02 3.075535744444e+01 0.0 
3.075535744444e+01 -2.198735002166e+02 0.0 
0.0 0.0 -9.583452816699e+01 
-7.046848005058e+01 2.623107127560e+01 0.0 
2.623107127560e+01 -6.920456710249e+01 0.0 
0.0 0.0 -4.150191414592e+01 
-7.393169732392e+01 2.656071510873e+01 0.0 
2.656071510873e+01 -1.936564084257e+02 0.0 
0.0 0.0 -7.987643172489e+01 
-1.042351397225e+02 -8.597182689676e+00 0.0 
-8.597182689676e+00 -2.573532978465e+02 0.0 
0.0 0.0 -1.080765312707e+02 
-4.721111162072e+01 6.463590262848e+00 0.0 
6.463590262848e+00 -1.459442704419e+02 0.0 
0.0 0.0 -5.754661461879e+01 
-9.608108648574e+01 -9.079291729985e+00 0.0 
-9.079291729985e+00 -2.328345420849e+02 0.0 
0.0 0.0 -9.827468857120e+01 
-8.874695982012e+01 3.630409042754e+01 0.0 
3.630409042754e+01 -2.163316439464e+02 0.0 
0.0 0.0 -9.112358112995e+01 
-8.365187452550e+01 3.966511821093e+01 0.0 
3.966511821093e+01 -1.867026132933e+02 0.0 
0.0 0.0 -8.070634634564e+01 
-7.916250343169e+01 2.107590100396e+01 0.0 
2.107590100396e+01 -1.056889721343e+02 0.0 
0.0 0.0 -5.505544266980e+01 
-9.335844235293e+01 4.075445198475e+01 0.0 
4.075445198475e+01 -2.077078705906e+02 0.0 
0.0 0.0 -8.991989388306e+01 
-9.679647534959e+01 4.263561047736e+01 0.0 
4.263561047736e+01 -2.098162251680e+02 0.0 
0.0 0.0 -9.158381015527e+01 
-1.753534196660e+01 3.984033608118e-01 0.0 
3.984033608118e-01 -5.849748895155e+01 0.0 
0.0 0.0 -2.240984927545e+01 
-9.044309064103e+01 -1.056953936109e+01 0.0 
-1.056953936109e+01 -2.174050275183e+02 0.0 
0.0 0.0 -9.195443544780e+01 
-6.917971111943e+01 3.904839857877e+01 0.0 
3.904839857877e+01 -1.286679975681e+02 0.0 
0.0 0.0 -5.895431260625e+01 
-8.700829723633e+01 3.855649744072e+01 0.0 
3.855649744072e+01 -1.698729013072e+02 0.0 
0.0 0.0 -7.666435956307e+01 
-9.076074464298e+01 4.060918234251e+01 0.0 
4.060918234251e+01 -1.728309664190e+02 0.0 
0.0 0.0 -7.867751331860e+01 
-1.172745245867e+02 2.020144199814e+01 0.0 
2.020144199814e+01 -3.125857332407e+02 0.0 
0.0 0.0 -1.285580773482e+02 
-3.540439353769e+01 -1.262338048456e+00 0.0 
-1.262338048456e+00 -8.862007920979e+01 0.0 
0.0 0.0 -3.680734182424e+01 
-4.656449590152e+01 -1.792335330344e+01 0.0 
-1.792335330344e+01 -1.335329117676e+02 0.0 
0.0 0.0 -5.404587560045e+01 
-8.131534432635e+01 3.505880586522e+01 0.0 
3.505880586522e+01 -1.975329756147e+02 0.0 
0.0 0.0 -8.325449598230e+01 
-9.247932819363e+01 -8.543098819079e+00 0.0 
-8.543098819079e+00 -2.187057720112e+02 0.0 
0.0 0.0 -9.295553006145e+01 
-3.395759235427e+01 1.923889634264e+01 0.0 
1.923889634264e+01 -2.011237943844e+01 0.0 
0.0 0.0 -1.582099153781e+01 
-3.636277609587e+01 1.815131651586e+01 0.0 
1.815131651586e+01 -1.761930360635e+01 0.0 
0.0 0.0 -1.579462391067e+01 
-8.380620632081e+01 2.557596960048e+01 0.0 
2.557596960048e+01 -1.084211004497e+02 0.0 
0.0 0.0 -5.726819203117e+01 
-4.225336820146e+01 2.567244587227e+01 0.0 
2.567244587227e+01 -1.024890279229e+02 0.0 
0.0 0.0 -4.291976432044e+01 
-1.012856319023e+02 -8.556204332762e+00 0.0 
-8.556204332762e+00 -2.442431204836e+02 0.0 
0.0 0.0 -1.032586257158e+02 
-1.115507615732e+02 1.092955507829e+01 0.0 
1.092955507829e+01 -3.035141344186e+02 0.0 
0.0 0.0 -1.241194687976e+02 
-4.391667556784e+01 -8.859177280987e+00 0.0 
-8.859177280987e+00 -1.363886233569e+02 0.0 
0.0 0.0 -5.479648696591e+01 
-1.252647139976e+02 3.710783264599e+01 0.0 
3.710783264599e+01 -3.026595224963e+02 0.0 
0.0 0.0 -1.279772709482e+02 
-9.087513046554e+01 2.267773386684e+01 0.0 
2.267773386684e+01 -1.540139415192e+02 0.0 
0.0 0.0 -7.306672159541e+01 
-9.959339110440e+01 -5.977725995747e+00 0.0 
-5.977725995747e+00 -2.323050609175e+02 0.0 
0.0 0.0 -9.916953560658e+01 
-1.312379311063e+02 -3.663281338098e+00 0.0 
-3.663281338098e+00 -3.232992098221e+02 0.0 
0.0 0.0 -1.359611422785e+02 
-1.119219090819e+01 1.449440797885e-01 0.0 
1.449440797885e-01 -4.246253140026e+01 0.0 
0.0 0.0 -1.569641669254e+01 
-1.099956922243e+02 7.018613357351e+00 0.0 
7.018613357351e+00 -3.009437334579e+02 0.0 
0.0 0.0 -1.228818277047e+02 
-8.122915913390e+01 3.588005366648e+01 0.0 
3.588005366648e+01 -1.952709678353e+02 0.0 
0.0 0.0 -8.255003809075e+01 
-1.080751509441e+01 1.115882680481e-02 0.0 
1.115882680481e-02 -4.223582024051e+01 0.0 
0.0 0.0 -1.551300060048e+01 
-8.591827140565e+01 1.976564819876e+01 0.0 
1.976564819876e+01 -1.515268749082e+02 0.0 
0.0 0.0 -7.083354389415e+01 
-4.207995024544e+01 -1.020652823696e+01 0.0 
-1.020652823696e+01 -1.307694307480e+02 0.0 
0.0 0.0 -5.264868849946e+01 
-8.844764420292e+01 4.077287775308e+01 0.0 
4.077287775308e+01 -1.709678378643e+02 0.0 
0.0 0.0 -7.742464462017e+01 
-8.376680479386e+01 4.104690950002e+01 0.0 
4.104690950002e+01 -1.870178584755e+02 0.0 
0.0 0.0 -8.083539898080e+01 
-8.451586664086e+01 -3.133005416612e+00 0.0 
-3.133005416612e+00 -2.389417815515e+02 0.0 
0.0 0.0 -9.663729445771e+01 
-1.012652912954e+02 -3.657347721560e+00 0.0 
-3.657347721560e+00 -2.801019872786e+02 0.0 
0.0 0.0 -1.140101835722e+02 
-8.983765911109e+01 2.348875551363e+01 0.0 
2.348875551363e+01 -1.659126377099e+02 0.0 
0.0 0.0 -7.632508904630e+01 
-1.083820324531e+02 -1.353429380290e+00 0.0 
-1.353429380290e+00 -2.978324584578e+02 0.0 
0.0 0.0 -1.214643472733e+02 
-8.315619035052e+01 3.184471194996e+01 0.0 
3.184471194996e+01 -2.096450977774e+02 0.0 
0.0 0.0 -8.744038643838e+01 
-7.711160350380e+01 3.376026988303e+01 0.0 
3.376026988303e+01 -1.882492985741e+02 0.0 
0.0 0.0 -7.920827062336e+01 
-2.578917427393e+01 1.828551938999e+01 0.0 
1.828551938999e+01 -1.936472446621e+01 0.0 
0.0 0.0 -1.301464921065e+01 
-4.145273886011e+01 -7.823457870997e+00 0.0 
-7.823457870997e+00 -1.308880884523e+02 0.0 
0.0 0.0 -5.303192179674e+01 
-1.033229455611e+02 3.418894480190e+01 0.0 
3.418894480190e+01 -2.608584065211e+02 0.0 
0.0 0.0 -1.088544056247e+02 
-8.008826425620e+01 3.050850528812e+01 0.0 
3.050850528812e+01 -9.720516484098e+01 0.0 
0.0 0.0 -5.278802872915e+01 
-1.073094433477e+02 3.260316470269e+01 0.0 
3.260316470269e+01 -2.739436535440e+02 0.0 
0.0 0.0 -1.139759290675e+02 
-6.095409473781e+01 3.105700517000e+01 0.0 
3.105700517000e+01 -1.462181117166e+02 0.0 
0.0 0.0 -6.175166193633e+01 
-9.453376175497e+01 3.558379437891e+01 0.0 
3.558379437891e+01 -1.795154593889e+02 0.0 
0.0 0.0 -8.181476634317e+01 
-1.061652418338e+02 3.620723402753e+01 0.0 
3.620723402753e+01 -2.652427985019e+02 0.0 
0.0 0.0 -1.110224121007e+02 
-7.854742140149e+01 3.282153421553e+01 0.0 
3.282153421553e+01 -5.199114047656e+01 0.0 
0.0 0.0 -3.876156856341e+01 
-1.040678326824e+02 3.413106285703e+01 0.0 
3.413106285703e+01 -2.629627024513e+02 0.0 
0.0 0.0 -1.097091605401e+02 
-1.342613682349e+02 -2.091064215554e+00 0.0 
-2.091064215554e+00 -3.249357139608e+02 0.0 
0.0 0.0 -1.373591246587e+02 
-9.026124531626e+01 3.280213327960e+01 0.0 
3.280213327960e+01 -2.275759040355e+02 0.0 
0.0 0.0 -9.495114480551e+01 
-9.734207827835e+01 -9.679752395611e+00 0.0 
-9.679752395611e+00 -2.375016585591e+02 0.0 
0.0 0.0 -1.000531210512e+02 
-1.031109531201e+02 -8.047148442216e+00 0.0 
-8.047148442216e+00 -2.526138035262e+02 0.0 
0.0 0.0 -1.063174269939e+02 
-1.018710092166e+02 3.572994027753e+01 0.0 
3.572994027753e+01 -1.958896621651e+02 0.0 
0.0 0.0 -8.892820141450e+01 
-9.445541722381e+01 -6.034105587295e+00 0.0 
-6.034105587295e+00 -2.628631551289e+02 0.0 
0.0 0.0 -1.067955717058e+02 
-8.678658658382e+01 3.906951866586e+01 0.0 
3.906951866586e+01 -2.037492259434e+02 0.0 
0.0 0.0 -8.676074375816e+01 
-8.005030772747e+01 1.800709059975e+01 0.0 
1.800709059975e+01 -2.203067386151e+02 0.0 
0.0 0.0 -8.970711390277e+01 
-1.157666705539e+02 8.804968878870e-01 0.0 
8.804968878870e-01 -3.160167250341e+02 0.0 
0.0 0.0 -1.291350186764e+02 
-7.056274067187e+01 2.288682842188e+01 0.0 
2.288682842188e+01 -1.902114327658e+02 0.0 
0.0 0.0 -7.783225203131e+01 
-5.155129195152e+01 -1.759562898861e+00 0.0 
-1.759562898861e+00 -1.579770495510e+02 0.0 
0.0 0.0 -6.245850245075e+01 
-8.821300681398e+01 4.820286956406e+00 0.0 
4.820286956406e+00 -2.477521514403e+02 0.0 
0.0 0.0 -1.003895474763e+02 
-5.549937937150e+01 5.223762139597e+00 0.0 
5.223762139597e+00 -1.669436170880e+02 0.0 
0.0 0.0 -6.633289893785e+01 
-9.015345391084e+01 3.984136781722e+01 0.0 
3.984136781722e+01 -1.888131056986e+02 0.0 
0.0 0.0 -8.328996788284e+01 
-5.584079119795e+01 -1.670064077480e+00 0.0 
-1.670064077480e+00 -1.685430757584e+02 0.0 
0.0 0.0 -6.691516008690e+01 
-8.914698257753e+01 4.174302634379e+01 0.0 
4.174302634379e+01 -1.886707472603e+02 0.0 
0.0 0.0 -8.294531895136e+01 
-1.130314561633e+02 2.248394257770e+01 0.0 
2.248394257770e+01 -3.000832699125e+02 0.0 
0.0 0.0 -1.235344178227e+02 
-1.102659057372e+02 1.857953113351e+01 0.0 
1.857953113351e+01 -2.961372922819e+02 0.0 
0.0 0.0 -1.215209594057e+02 
-7.404986176380e+01 2.299878822757e+01 0.0 
2.299878822757e+01 -1.992655951427e+02 0.0 
0.0 0.0 -8.159463707195e+01 
-7.812741913649e+01 2.308415546424e+01 0.0 
2.308415546424e+01 -9.998043020427e+01 0.0 
0.0 0.0 -5.303235480223e+01 
-1.362751980234e+02 -3.013096122433e+00 0.0 
-3.013096122433e+00 -3.306201922563e+02 0.0 
0.0 0.0 -1.396686170839e+02 
-1.387849234197e+02 -1.383667031859e+00 0.0 
-1.383667031859e+00 -3.320574612501e+02 0.0 
0.0 0.0 -1.408527154009e+02 
-4.151599415510e+01 2.809537968029e+01 0.0 
2.809537968029e+01 -8.705182441077e+01 0.0 
0.0 0.0 -3.765311355620e+01 
-9.110231005445e+01 4.056129279508e+01 0.0 
4.056129279508e+01 -2.067311690353e+02 0.0 
0.0 0.0 -8.895004372693e+01 
-1.506339509932e+02 -1.785920248618e+00 0.0 
-1.785920248618e+00 -3.587341754791e+02 0.0 
0.0 0.0 -1.524104379417e+02 
-5.173085818345e+01 3.325220820217e+01 0.0 
3.325220820217e+01 -6.914957035863e+01 0.0 
0.0 0.0 -3.586412856262e+01 
-1.071800126863e+02 -5.385500944262e+00 0.0 
-5.385500944262e+00 -2.525266363396e+02 0.0 
0.0 0.0 -1.075119947078e+02 
-3.186263399919e+01 2.028539972811e+01 0.0 
2.028539972811e+01 -2.347659142620e+01 0.0 
0.0 0.0 -1.545191083783e+01 
-1.411404429037e+02 -2.448504271646e+00 0.0 
-2.448504271646e+00 -3.380823566509e+02 0.0 
0.0 0.0 -1.433668398664e+02 
-5.236901642071e+01 6.583243574224e+00 0.0 
6.583243574224e+00 -1.586840665109e+02 0.0 
0.0 0.0 -6.291592487948e+01 
-1.039946979436e+02 -2.187393772050e+00 0.0 
-2.187393772050e+00 -2.367663318482e+02 0.0 
0.0 0.0 -1.018283089375e+02 
-9.610413926279e+01 2.307585608438e+01 0.0 
2.307585608438e+01 -2.564014504143e+02 0.0 
0.0 0.0 -1.053516769031e+02 
-8.253589035232e+01 2.767772784082e+01 0.0 
2.767772784082e+01 -1.027082716760e+02 0.0 
0.0 0.0 -5.517324860850e+01 
-7.752983369542e+01 2.549020562346e+01 0.0 
2.549020562346e+01 -9.518230072106e+01 0.0 
0.0 0.0 -5.141364032494e+01 
-8.581494138179e+01 3.400830666607e+01 0.0 
3.400830666607e+01 -2.128384306716e+02 0.0 
0.0 0.0 -8.919601161601e+01 
-3.315753071283e+01 2.052222763046e+01 0.0 
2.052222763046e+01 -2.377889525242e+01 0.0 
0.0 0.0 -1.668092778958e+01 
-3.359367448663e+01 2.018752681896e+01 0.0 
2.018752681896e+01 -2.268201232068e+01 0.0 
0.0 0.0 -1.648270604219e+01 
-1.430748513091e+02 -8.393896570394e-01 0.0 
-8.393896570394e-01 -3.392791402924e+02 0.0 
0.0 0.0 -1.443061974805e+02 
-1.074705365475e+02 -1.043820442110e+00 0.0 
-1.043820442110e+00 -2.956038390479e+02 0.0 
0.0 0.0 -1.205223126786e+02 
-9.046048378952e+01 -4.981639091288e-01 0.0 
-4.981639091288e-01 -2.537784926700e+02 0.0 
0.0 0.0 -1.028716929378e+02 
-1.076866380091e+02 7.063812717363e+00 0.0 
7.063812717363e+00 -2.952362697483e+02 0.0 
0.0 0.0 -1.204768723272e+02 
-8.066071511693e+01 2.575248716444e+00 0.0 
2.575248716444e+00 -2.295248865058e+02 0.0 
0.0 0.0 -9.265568048682e+01 
-5.075078490346e+01 5.285862545822e+00 0.0 
5.285862545822e+00 -1.551853855159e+02 0.0 
0.0 0.0 -6.138085112580e+01 
-2.957209107533e+01 1.925630249114e+01 0.0 
1.925630249114e+01 -2.105946817075e+01 0.0 
0.0 0.0 -1.478946777382e+01 
-7.468955632127e+01 2.830773444223e+01 0.0 
2.830773444223e+01 -7.378414514634e+01 0.0 
0.0 0.0 -4.414211044028e+01 
-2.807511538277e+01 3.566908379287e-02 0.0 
3.566908379287e-02 -8.369233649883e+00 0.0 
0.0 0.0 -1.053330470980e+01 
-1.104639894497e+02 1.934701121151e+01 0.0 
1.934701121151e+01 -2.960845471943e+02 0.0 
0.0 0.0 -1.215645609932e+02 
-6.712584870519e+01 1.926939362391e+01 0.0 
1.926939362391e+01 -1.858363528034e+02 0.0 
0.0 0.0 -7.548866045259e+01 
-1.246306074532e+02 2.586726136581e+01 0.0 
2.586726136581e+01 -3.210600389093e+02 0.0 
0.0 0.0 -1.333071939088e+02 
-1.419117372209e+02 -1.787314001415e+00 0.0 
-1.787314001415e+00 -3.312171231516e+02 0.0 
0.0 0.0 -1.415386581118e+02 
-8.613559004815e+01 5.910870323621e+00 0.0 
5.910870323621e+00 -2.423731091504e+02 0.0 
0.0 0.0 -9.815260975958e+01 
-1.564365308822e+02 5.580903496168e-01 0.0 
5.580903496168e-01 -3.711610740477e+02 0.0 
0.0 0.0 -1.578792814789e+02 
-6.264525131196e+01 -5.743642688474e+00 0.0 
-5.743642688474e+00 -1.844307055618e+02 0.0 
0.0 0.0 -7.372278706213e+01 
-1.178026802714e+02 2.711848548996e+01 0.0 
2.711848548996e+01 -3.079167508317e+02 0.0 
0.0 0.0 -1.273158293309e+02 
-8.146589660385e+01 3.224034709718e+01 0.0 
3.224034709718e+01 -2.041278040679e+02 0.0 
0.0 0.0 -8.527811020153e+01 
-9.198211992633e+01 2.941003771846e+01 0.0 
2.941003771846e+01 -2.377743070289e+02 0.0 
0.0 0.0 -9.852692808657e+01 
-1.241598490037e+02 1.189492894104e+01 0.0 
1.189492894104e+01 -3.343536029124e+02 0.0 
0.0 0.0 -1.371540355748e+02 
-7.883327292023e+01 -1.216820500801e+01 0.0 
-1.216820500801e+01 -1.878697509771e+02 0.0 
0.0 0.0 -7.961090716919e+01 
-8.883749191481e+01 4.042962854796e+01 0.0 
4.042962854796e+01 -2.063024600622e+02 0.0 
0.0 0.0 -8.814198559309e+01 
-8.530721950732e+01 1.424341161436e+00 0.0 
1.424341161436e+00 -2.410630547466e+02 0.0 
0.0 0.0 -9.751108227618e+01 
-8.679619806926e+01 4.153533994505e+01 0.0 
4.153533994505e+01 -1.877408637799e+02 0.0 
0.0 0.0 -8.196111855476e+01 
-5.398470804951e+01 2.903296300937e+01 0.0 
2.903296300937e+01 -1.301368374169e+02 0.0 
0.0 0.0 -5.483646363994e+01 
-9.485866003084e+01 2.727111264745e+01 0.0 
2.727111264745e+01 -2.483353286451e+02 0.0 
0.0 0.0 -1.025581966028e+02 
-7.865170049970e+01 -1.277156733961e+00 0.0 
-1.277156733961e+00 -2.246987022527e+02 0.0 
0.0 0.0 -9.060512082572e+01 
-1.083504951129e+02 -7.569588973716e+00 0.0 
-7.569588973716e+00 -2.641290577579e+02 0.0 
0.0 0.0 -1.113438658613e+02 
-8.586679602342e+01 3.985015686517e+01 0.0 
3.985015686517e+01 -1.870236913783e+02 0.0 
0.0 0.0 -8.146714622052e+01 
-2.732426494952e+01 2.246615832637e+01 0.0 
2.246615832637e+01 -4.147848602254e+01 0.0 
0.0 0.0 -2.036789570865e+01 
-8.635854549795e+01 1.881162110942e+01 0.0 
1.881162110942e+01 -2.356177687167e+02 0.0 
0.0 0.0 -9.619289426439e+01 
-3.162976155570e+01 2.377277557194e+01 0.0 
2.377277557194e+01 -3.989967158092e+01 0.0 
0.0 0.0 -1.953305555568e+01 
-2.396355672036e+01 -2.160347998590e+00 0.0 
-2.160347998590e+00 -6.335656888003e+01 0.0 
0.0 0.0 -2.579603768012e+01 
-1.051441788713e+02 -7.396097580353e+00 0.0 
-7.396097580353e+00 -2.511622337579e+02 0.0 
0.0 0.0 -1.064919237887e+02 
-1.005941478678e+02 4.073484857788e+01 0.0 
4.073484857788e+01 -2.407174271656e+02 0.0 
0.0 0.0 -1.019934725100e+02 
-8.129051860742e+01 2.966841810462e+01 0.0 
2.966841810462e+01 -1.148320960932e+02 0.0 
0.0 0.0 -5.843678441020e+01 
-3.260855068732e+01 2.063863314607e+01 0.0 
2.063863314607e+01 -2.432357882656e+01 0.0 
0.0 0.0 -1.667963885417e+01 
-9.348410019903e+01 3.079786720439e+01 0.0 
3.079786720439e+01 -2.194629004644e+02 0.0 
0.0 0.0 -9.348410019903e+01 
-2.605416476522e+01 1.903623746215e+01 0.0 
1.903623746215e+01 -2.187344504775e+01 0.0 
0.0 0.0 -1.469906317793e+01 
-3.259007977054e+01 2.053268502040e+01 0.0 
2.053268502040e+01 -2.399679549164e+01 0.0 
0.0 0.0 -1.657606257865e+01 
-9.095168396734e+01 -5.951431826080e-01 0.0 
-5.951431826080e-01 -2.549844987931e+02 0.0 
0.0 0.0 -1.033808548281e+02 
-1.032000320950e+02 -4.745204685140e+00 0.0 
-4.745204685140e+00 -2.396340794847e+02 0.0 
0.0 0.0 -1.024502334739e+02 
-6.356183038443e+01 3.673456657206e+01 0.0 
3.673456657206e+01 -7.057730786567e+01 0.0 
0.0 0.0 -3.984174147503e+01 
-6.350556258521e+01 -1.122235768332e+01 0.0 
-1.122235768332e+01 -1.838935334082e+02 0.0 
0.0 0.0 -7.381972879804e+01 
-1.009648229551e+02 -3.730028735764e+00 0.0 
-3.730028735764e+00 -2.793518606069e+02 0.0 
0.0 0.0 -1.136950050686e+02 
-8.549266870270e+01 3.464311374107e+01 0.0 
3.464311374107e+01 -2.105893478698e+02 0.0 
0.0 0.0 -8.842460497176e+01 
-9.336660373107e+01 2.004376754042e+01 0.0 
2.004376754042e+01 -2.523225200697e+02 0.0 
0.0 0.0 -1.033067371402e+02 
-1.021689250757e+02 4.163700834838e+01 0.0 
4.163700834838e+01 -2.310919305597e+02 0.0 
0.0 0.0 -9.957825669065e+01 
-5.488749295687e+01 3.161930496857e+01 0.0 
3.161930496857e+01 -1.236107874082e+02 0.0 
0.0 0.0 -5.375110753621e+01 
-9.793845539607e+01 -8.130734619874e+00 0.0 
-8.130734619874e+00 -2.311270891278e+02 0.0 
0.0 0.0 -9.831966335716e+01 
-1.055059455091e+02 -5.786760129610e+00 0.0 
-5.786760129610e+00 -2.461670452350e+02 0.0 
0.0 0.0 -1.051018972232e+02 
-6.111868572272e+01 -8.038656202061e+00 0.0 
-8.038656202061e+00 -1.346427766879e+02 0.0 
0.0 0.0 -5.832843872320e+01 
-6.378645408338e+01 2.281001843997e+01 0.0 
2.281001843997e+01 -4.623504309905e+01 0.0 
0.0 0.0 -3.260644915473e+01 
-8.325873822077e+01 3.366376993388e+01 0.0 
3.366376993388e+01 -1.164695997221e+02 0.0 
0.0 0.0 -5.951850138285e+01 
-1.303614076918e+02 4.631510655957e-01 0.0 
4.631510655957e-01 -3.014986104086e+02 0.0 
0.0 0.0 -1.291580054301e+02 
-7.895158394943e+00 -7.247929793784e-02 0.0 
-7.247929793784e-02 -4.195837326796e+01 0.0 
0.0 0.0 -1.455605949887e+01 
-3.548026672095e+01 -5.581593906185e+00 0.0 
-5.581593906185e+00 -1.172349911405e+02 0.0 
0.0 0.0 -4.719296866723e+01 
-4.183382175350e+01 -4.818081601087e+00 0.0 
-4.818081601087e+00 -9.160689206789e+01 0.0 
0.0 0.0 -3.963221414642e+01 
-1.068814892169e+02 -3.590026728411e+00 0.0 
-3.590026728411e+00 -2.472633030728e+02 0.0 
0.0 0.0 -1.058434376869e+02 
-6.858237049181e+01 -2.480944651933e+00 0.0 
-2.480944651933e+00 -1.998072930131e+02 0.0 
0.0 0.0 -8.011689905146e+01 
-6.896712764326e+01 -1.210799704974e+01 0.0 
-1.210799704974e+01 -1.969888338876e+02 0.0 
0.0 0.0 -7.938678845926e+01 
-5.688675838208e+01 -8.441664040417e+00 0.0 
-8.441664040417e+00 -1.690150093011e+02 0.0 
0.0 0.0 -6.737053030496e+01 
-1.090847625702e+02 -6.259211510743e+00 0.0 
-6.259211510743e+00 -2.584894571199e+02 0.0 
0.0 0.0 -1.098722659070e+02 
-8.778777752119e+01 3.528849332914e+01 0.0 
3.528849332914e+01 -1.540637610801e+02 0.0 
0.0 0.0 -7.215546158038e+01 
-1.093479488328e+02 -4.698728168849e+00 0.0 
-4.698728168849e+00 -2.540752709197e+02 0.0 
0.0 0.0 -1.086269659258e+02 
-6.102244978422e+01 -1.738749860335e-01 0.0 
-1.738749860335e-01 -1.813732854859e+02 0.0 
0.0 0.0 -7.231872058102e+01 
-9.169594711797e+01 4.210522283092e+01 0.0 
4.210522283092e+01 -2.072710804278e+02 0.0 
0.0 0.0 -8.929010826374e+01 
-5.058324118833e+01 4.082102090561e+00 0.0 
4.082102090561e+00 -3.958946844565e+01 0.0 
0.0 0.0 -2.665181289019e+01 
-1.035050207850e+02 2.441005591428e+01 0.0 
2.441005591428e+01 -2.740179976660e+02 0.0 
0.0 0.0 -1.128569055353e+02 
-1.105981219520e+02 -2.496832572299e+00 0.0 
-2.496832572299e+00 -2.551314666871e+02 0.0 
0.0 0.0 -1.093188765917e+02 
-1.109315214629e+02 -4.198534840290e+00 0.0 
-4.198534840290e+00 -2.597868877255e+02 0.0 
0.0 0.0 -1.108155227565e+02 
-3.184117350627e+01 2.033026650158e+01 0.0 
2.033026650158e+01 -2.362554685780e+01 0.0 
0.0 0.0 -1.624001610922e+01 
-7.426602582076e+01 -4.146245410504e+00 0.0 
-4.146245410504e+00 -2.135230393584e+02 0.0 
0.0 0.0 -8.593671955373e+01 
-1.131815206257e+02 -3.653696662634e+00 0.0 
-3.653696662634e+00 -2.620532240729e+02 0.0 
0.0 0.0 -1.121704234096e+02 
-5.528927798505e+01 -2.257453150410e-01 0.0 
-2.257453150410e-01 -7.983947647622e+01 0.0 
0.0 0.0 -4.013862633838e+01 
-4.884238220476e+01 -4.461074526597e-01 0.0 
-4.461074526597e-01 -6.138366248773e+01 0.0 
0.0 0.0 -3.266781340775e+01 
-3.195726856466e+01 2.042924591444e+01 0.0 
2.042924591444e+01 -2.389731601386e+01 0.0 
0.0 0.0 -1.635637537356e+01 
-1.130879492075e+02 -5.173634906439e+00 0.0 
-5.173634906439e+00 -2.661344421208e+02 0.0 
0.0 0.0 -1.133667173985e+02 
-7.089973130593e+01 -1.584929897847e+01 0.0 
-1.584929897847e+01 -1.989852266222e+02 0.0 
0.0 0.0 -8.056548737843e+01 
-5.089130041727e+01 3.340799632885e+01 0.0 
3.340799632885e+01 -7.325277308997e+01 0.0 
0.0 0.0 -3.501539841139e+01 
-1.187923696374e+02 2.835448849618e+01 0.0 
2.835448849618e+01 -3.091725149351e+02 0.0 
0.0 0.0 -1.279894653717e+02 
-4.477223159483e+01 -1.014355999737e+01 0.0 
-1.014355999737e+01 -8.589157322088e+01 0.0 
0.0 0.0 -3.875066983320e+01 
-6.973711690450e+01 -1.518174245236e+01 0.0 
-1.518174245236e+01 -1.966123316810e+02 0.0 
0.0 0.0 -7.950483457564e+01 
-8.132340237189e+01 2.056462985276e+01 0.0 
2.056462985276e+01 -2.210554859739e+02 0.0 
0.0 0.0 -9.031366650372e+01 
-2.732512988189e+01 1.886703654341e+01 0.0 
1.886703654341e+01 -2.064758382097e+01 0.0 
0.0 0.0 -1.399181411086e+01 
-1.144204515197e+02 -1.468312704784e+00 0.0 
-1.468312704784e+00 -2.633500163686e+02 0.0 
0.0 0.0 -1.129311403665e+02 
-5.155063375484e+01 8.769681192627e-01 0.0 
8.769681192627e-01 -1.191904829705e+02 0.0 
0.0 0.0 -5.082233501760e+01 
-6.772201673210e+01 2.482450048910e+01 0.0 
2.482450048910e+01 -4.483415752898e+01 0.0 
0.0 0.0 -3.336685227832e+01 
-1.147106690203e+02 -3.101448017531e+00 0.0 
-3.101448017531e+00 -2.673385588213e+02 0.0 
0.0 0.0 -1.142147683525e+02 
-8.955967400710e+01 -4.964420383289e+00 0.0 
-4.964420383289e+00 -2.510404700016e+02 0.0 
0.0 0.0 -1.017800432026e+02 
-1.034899196793e+02 -6.613405878750e+00 0.0 
-6.613405878750e+00 -2.456251029343e+02 0.0 
0.0 0.0 -1.043345067841e+02 
-4.064203317189e+01 2.672265925751e+01 0.0 
2.672265925751e+01 -9.171193178697e+01 0.0 
0.0 0.0 -4.090057954557e+01 
-7.352988172535e+01 2.046552947996e+00 0.0 
2.046552947996e+00 -1.399190997172e+02 0.0 
0.0 0.0 -6.363469443276e+01 
-7.796266171419e+01 -1.009483885969e+01 0.0 
-1.009483885969e+01 -2.205826850347e+02 0.0 
0.0 0.0 -8.916360402468e+01 
-1.195515121447e+02 1.599893451682e+01 0.0 
1.599893451682e+01 -3.209705313875e+02 0.0 
0.0 0.0 -1.317566130597e+02 
-8.955907073167e+01 2.890863772950e+01 0.0 
2.890863772950e+01 -2.320477086173e+02 0.0 
0.0 0.0 -9.608203380469e+01 
-1.170948223094e+02 -4.173124921878e+00 0.0 
-4.173124921878e+00 -2.739650256686e+02 0.0 
0.0 0.0 -1.169179543934e+02 
-1.185057523090e+02 -2.122951375157e+00 0.0 
-2.122951375157e+00 -2.750665260459e+02 0.0 
0.0 0.0 -1.176716835065e+02 
-5.836074335259e+01 -5.447846213399e+00 0.0 
-5.447846213399e+00 -1.739406403425e+02 0.0 
0.0 0.0 -6.929041510852e+01 
-3.243283831035e+01 -9.890577865082e+00 0.0 
-9.890577865082e+00 -5.893075927652e+01 0.0 
0.0 0.0 -2.587085762237e+01 
-5.181175657407e+01 3.354757236507e+01 0.0 
3.354757236507e+01 -9.680137146572e+01 0.0 
0.0 0.0 -4.598531792326e+01 
-1.211407573103e+02 -3.230291085077e+00 0.0 
-3.230291085077e+00 -2.819674480277e+02 0.0 
0.0 0.0 -1.205324616014e+02 
-1.222995069434e+02 1.133498498255e+01 0.0 
1.133498498255e+01 -3.299649454440e+02 0.0 
0.0 0.0 -1.352793357162e+02 
-7.259722805216e+01 -1.568543011555e+01 0.0 
-1.568543011555e+01 -1.823715540848e+02 0.0 
0.0 0.0 -7.609063464108e+01 
-9.447434442269e+01 4.020783883146e+01 0.0 
4.020783883146e+01 -2.239812683550e+02 0.0 
0.0 0.0 -9.513668383331e+01 
-4.970945350990e+01 3.225435632568e+01 0.0 
3.225435632568e+01 -6.796799134473e+01 0.0 
0.0 0.0 -3.490323345639e+01 
-9.462373640378e+01 4.254168647198e+01 0.0 
4.254168647198e+01 -2.086030284591e+02 0.0 
0.0 0.0 -9.056802945887e+01 
-1.503599535415e+02 7.539402027641e+00 0.0 
7.539402027641e+00 -3.789464785733e+02 0.0 
0.0 0.0 -1.583919296344e+02 
-1.074898621648e+02 1.069736504549e+00 0.0 
1.069736504549e+00 -1.062837370871e+02 0.0 
0.0 0.0 -6.440895078601e+01 
-8.314340116542e+01 3.010283762551e+00 0.0 
3.010283762551e+00 -1.953346027193e+02 0.0 
0.0 0.0 -8.314340116542e+01 
-1.685566695090e+02 -2.259771415800e-01 0.0 
-2.259771415800e-01 -3.946322288544e+02 0.0 
0.0 0.0 -1.685566695090e+02 
-3.656986313112e+01 7.143066606964e-01 0.0 
7.143066606964e-01 -2.951854579130e+01 0.0 
0.0 0.0 -1.942652267673e+01 
-8.085775809830e+01 -1.369788174056e+01 0.0 
-1.369788174056e+01 -2.176721517660e+02 0.0 
0.0 0.0 -8.915897295928e+01 
-8.648765063608e+01 3.106627129022e+01 0.0 
3.106627129022e+01 -2.202708568736e+02 0.0 
0.0 0.0 -9.162755225289e+01 
-6.173266792480e+01 1.458311554026e-01 0.0 
1.458311554026e-01 -1.831204928277e+02 0.0 
0.0 0.0 -7.305594822576e+01 
-1.732692827712e+01 7.270612420592e-01 0.0 
7.270612420592e-01 -5.469335633664e+01 0.0 
0.0 0.0 -2.120608538413e+01 
-3.150136204351e+01 2.056264873353e+01 0.0 
2.056264873353e+01 -2.451561495281e+01 0.0 
0.0 0.0 -1.605681784348e+01 
-8.179970200259e+01 9.355282797757e+00 0.0 
9.355282797757e+00 -1.594435402439e+02 0.0 
0.0 0.0 -7.197297267396e+01 
-8.674941224407e+01 3.635266471093e+01 0.0 
3.635266471093e+01 -1.364708625806e+02 0.0 
0.0 0.0 -6.656608244740e+01 
-6.056935315895e+01 2.311418496548e+01 0.0 
2.311418496548e+01 -2.911015174524e+01 0.0 
0.0 0.0 -2.650385147126e+01 
-1.332655496430e+02 3.894450073396e+01 0.0 
3.894450073396e+01 -3.215281181557e+02 0.0 
0.0 0.0 -1.360381003396e+02 
-4.103526412694e+01 9.703954787290e-01 0.0 
9.703954787290e-01 -9.941354864672e+01 0.0 
0.0 0.0 -4.173464383210e+01 
-1.357927074952e+02 3.693424557932e+01 0.0 
3.693424557932e+01 -3.276483881230e+02 0.0 
0.0 0.0 -1.386323286855e+02 
-8.473284151994e+01 3.292397031809e+01 0.0 
3.292397031809e+01 -1.347800259304e+02 0.0 
0.0 0.0 -6.545386023511e+01 
-8.226917938346e+01 -1.282012102390e+01 0.0 
-1.282012102390e+01 -2.041400448525e+02 0.0 
0.0 0.0 -8.552276727078e+01 
-8.737453506290e+01 3.040571032970e+01 0.0 
3.040571032970e+01 -2.238109568233e+02 0.0 
0.0 0.0 -9.295564756587e+01 
-7.416901945252e+01 -1.519433586886e+01 0.0 
-1.519433586886e+01 -1.991939667812e+02 0.0 
0.0 0.0 -8.160889587010e+01 
-4.885136064454e+01 3.238775506098e+01 0.0 
3.238775506098e+01 -6.927019007694e+01 0.0 
0.0 0.0 -3.430224114256e+01 
-7.228411028433e+01 -1.556236968507e+01 0.0 
-1.556236968507e+01 -1.827465428964e+02 0.0 
0.0 0.0 -7.610919595423e+01 
-9.092687867342e+01 3.729921797192e+01 0.0 
3.729921797192e+01 -1.733366724504e+02 0.0 
0.0 0.0 -7.887906533715e+01 
-1.468925876387e+02 6.109879661928e-02 0.0 
6.109879661928e-02 -3.428863212975e+02 0.0 
0.0 0.0 -1.465336726809e+02 
-7.008791322929e+01 -1.168509265763e+01 0.0 
-1.168509265763e+01 -2.000672534331e+02 0.0 
0.0 0.0 -8.064654999872e+01 
-9.647479937874e+01 4.139768863272e+01 0.0 
4.139768863272e+01 -2.265602110592e+02 0.0 
0.0 0.0 -9.651050313139e+01 
-5.570382325500e+01 5.226880622178e-01 0.0 
5.226880622178e-01 -1.139756700260e+02 0.0 
0.0 0.0 -5.140510350754e+01 
-6.379394917033e+01 -7.207410758468e+00 0.0 
-7.207410758468e+00 -1.867344228995e+02 0.0 
0.0 0.0 -7.475851162095e+01 
-9.432537509154e+01 3.631591365517e+01 0.0 
3.631591365517e+01 -1.628597902729e+02 0.0 
0.0 0.0 -7.675554960933e+01 
-7.312005104606e+01 -1.323320516323e+01 0.0 
-1.323320516323e+01 -1.706315879319e+02 0.0 
0.0 0.0 -7.272549169340e+01 
-6.936102854341e+01 -1.471887519876e+01 0.0 
-1.471887519876e+01 -1.646657115742e+02 0.0 
0.0 0.0 -6.980802203529e+01 
-8.277587618063e+01 2.873656877498e+01 0.0 
2.873656877498e+01 -2.140751665567e+02 0.0 
0.0 0.0 -8.865531282120e+01 
-3.806181597351e+01 -2.388407869430e+01 0.0 
-2.388407869430e+01 -9.470643697567e+01 0.0 
0.0 0.0 -3.892152048008e+01 
-3.057111325086e+01 1.972772787063e+01 0.0 
1.972772787063e+01 -2.218223625988e+01 0.0 
0.0 0.0 -1.542600485322e+01 
-3.081388498656e+01 2.002817747059e+01 0.0 
2.002817747059e+01 -2.304325404727e+01 0.0 
0.0 0.0 -1.575714171015e+01 
-6.649671552259e+01 -1.342800329698e+01 0.0 
-1.342800329698e+01 -1.501928897356e+02 0.0 
0.0 0.0 -6.460688157745e+01 
-9.573024663493e+01 -2.277823547724e+00 0.0 
-2.277823547724e+00 -2.666409286721e+02 0.0 
0.0 0.0 -1.083113525921e+02 
-7.801540512146e+01 2.169297505666e+01 0.0 
2.169297505666e+01 -2.112612274415e+02 0.0 
0.0 0.0 -8.638298976889e+01 
-9.604631266990e+01 4.173643875404e+01 0.0 
4.173643875404e+01 -2.248159452186e+02 0.0 
0.0 0.0 -9.585867736654e+01 
-1.059008453869e+02 4.162651127644e+01 0.0 
4.162651127644e+01 -2.385900047307e+02 0.0 
0.0 0.0 -1.029472550353e+02 
-2.683067005008e+01 1.869983256660e+01 0.0 
1.869983256660e+01 -2.030082114301e+01 0.0 
0.0 0.0 -1.373944735793e+01 
-6.223611021665e+01 1.823769330649e+00 0.0 
1.823769330649e+00 -1.000891422277e+02 0.0 
0.0 0.0 -4.829757573332e+01 
-1.127357282087e+02 4.054318137166e+01 0.0 
4.054318137166e+01 -2.755850688236e+02 0.0 
0.0 0.0 -1.160962391097e+02 
-5.564372971548e+01 -1.406861768759e+00 0.0 
-1.406861768759e+00 -1.680830673612e+02 0.0 
0.0 0.0 -6.671803912299e+01 
-4.277588778816e+01 2.857312131947e+01 0.0 
2.857312131947e+01 -5.132287624058e+01 0.0 
0.0 0.0 -2.625077138514e+01 
-5.474561101338e+01 3.459661893561e+01 0.0 
3.459661893561e+01 -7.070531543533e+01 0.0 
0.0 0.0 -3.723527793461e+01 
-9.468678677885e+01 -6.441479348480e+00 0.0 
-6.441479348480e+00 -2.633293207698e+02 0.0 
0.0 0.0 -1.070048322646e+02 
-9.528095463620e+01 4.079096796689e+01 0.0 
4.079096796689e+01 -2.088374664129e+02 0.0 
0.0 0.0 -9.083552631473e+01 
-8.917832317008e+01 -4.497407437956e+00 0.0 
-4.497407437956e+00 -2.501957161853e+02 0.0 
0.0 0.0 -1.014122118066e+02 
-3.802807536446e+01 2.482117975861e+01 0.0 
2.482117975861e+01 -9.074522009385e+01 0.0 
0.0 0.0 -3.827139982359e+01 
-1.021178807716e+02 3.991656791241e-01 0.0 
3.991656791241e-01 -2.824547341272e+02 0.0 
0.0 0.0 -1.149717844697e+02 
-4.828535567449e+01 3.199533418919e+01 0.0 
3.199533418919e+01 -6.665355539311e+01 0.0 
0.0 0.0 -3.408167332028e+01 
-7.374407092635e+01 1.933980863548e+01 0.0 
1.933980863548e+01 -2.028588339477e+02 0.0 
0.0 0.0 -8.258087146222e+01 
-9.597090064270e+01 -2.259615804568e+00 0.0 
-2.259615804568e+00 -2.672347572285e+02 0.0 
0.0 0.0 -1.085616973614e+02 
-8.899153546578e+01 2.714061320816e+01 0.0 
2.714061320816e+01 -2.330689845554e+02 0.0 
0.0 0.0 -9.621815600636e+01 
-5.586127227344e+01 2.577608028172e+00 0.0 
2.577608028172e+00 -7.514303085306e+01 0.0 
0.0 0.0 -3.890129093795e+01 
-6.716895635882e+01 -1.067668412361e+01 0.0 
-1.067668412361e+01 -1.510165218617e+02 0.0 
0.0 0.0 -6.505564346617e+01 
-5.284944050390e+01 3.435964470499e+01 0.0 
3.435964470499e+01 -7.671433769967e+01 0.0 
0.0 0.0 -3.744211093112e+01 
-1.030952901753e+02 -1.830682706958e-02 0.0 
-1.830682706958e-02 -2.848619470751e+02 0.0 
0.0 0.0 -1.159871711751e+02 
-4.672794458182e+01 3.152299162138e+01 0.0 
3.152299162138e+01 -6.852907775113e+01 0.0 
0.0 0.0 -3.417710669989e+01 
-3.945210717670e+01 1.172673951469e+01 0.0 
1.172673951469e+01 -1.227117319783e+02 0.0 
0.0 0.0 -5.005694007252e+01 
-7.721262669193e+01 5.535555909686e-01 0.0 
5.535555909686e-01 -1.590797856108e+02 0.0 
0.0 0.0 -7.048772369081e+01 
-7.312289668385e+01 1.921124804455e-01 0.0 
1.921124804455e-01 -1.398496741537e+02 0.0 
0.0 0.0 -6.349177125125e+01 
-4.990317094430e+00 -5.732802419539e-02 0.0 
-5.732802419539e-02 -2.512658176861e+01 0.0 
0.0 0.0 -8.946947164226e+00 
-1.087036279403e+02 3.044597671245e+00 0.0 
3.044597671245e+00 -2.984880073277e+02 0.0 
0.0 0.0 -1.217574905804e+02 
-5.211629327515e+01 -6.842781054609e+00 0.0 
-6.842781054609e+00 -1.133486188040e+02 0.0 
0.0 0.0 -4.923947362375e+01 
-5.681543287066e+01 -8.922115157134e+00 0.0 
-8.922115157134e+00 -1.202836466936e+02 0.0 
0.0 0.0 -5.272972386929e+01 
-1.025661949647e+02 4.145486256103e+01 0.0 
4.145486256103e+01 -2.448138183105e+02 0.0 
0.0 0.0 -1.038140039826e+02 
-8.652925533497e+01 2.652414191282e+01 0.0 
2.652414191282e+01 -2.274092228387e+02 0.0 
0.0 0.0 -9.378154345209e+01 
-9.968241582752e+01 3.960389443490e+01 0.0 
3.960389443490e+01 -2.405974647261e+02 0.0 
0.0 0.0 -1.016839641661e+02 
-7.385800990337e+01 -8.726566773042e+00 0.0 
-8.726566773042e+00 -2.110331959578e+02 0.0 
0.0 0.0 -8.506736175834e+01 
-2.838387999982e+01 -1.167316432190e-01 0.0 
-1.167316432190e-01 -8.103195112973e+00 0.0 
0.0 0.0 -1.054612253384e+01 
-1.584995142962e+02 4.875294870932e+00 0.0 
4.875294870932e+00 -3.829496443490e+02 0.0 
0.0 0.0 -1.620347475936e+02 
-4.784765475691e+01 -7.433963464607e+00 0.0 
-7.433963464607e+00 -9.941055316307e+01 0.0 
0.0 0.0 -4.377746237599e+01 
-1.154172837966e+02 1.801660179680e+01 0.0 
1.801660179680e+01 -3.094314494520e+02 0.0 
0.0 0.0 -1.270546199746e+02 
-7.655953433580e+01 2.265747422944e+01 0.0 
2.265747422944e+01 -2.062949517614e+02 0.0 
0.0 0.0 -8.445634582915e+01 
-2.985677234802e+01 -1.370368327688e+00 0.0 
-1.370368327688e+00 -7.592344172440e+01 0.0 
0.0 0.0 -3.133406422173e+01 
-9.212556105744e+01 3.951186693712e+01 0.0 
3.951186693712e+01 -1.901718203339e+02 0.0 
0.0 0.0 -8.428921441741e+01 
-6.528712017011e+01 -2.799811243690e+00 0.0 
-2.799811243690e+00 -1.916495689736e+02 0.0 
0.0 0.0 -7.668100674311e+01 
-2.907123801967e+01 -1.037979880494e+01 0.0 
-1.037979880494e+01 -4.574728374672e+01 0.0 
0.0 0.0 -2.129602095077e+01 
-5.680819319021e+01 -1.044028925934e+01 0.0 
-1.044028925934e+01 -1.676352128590e+02 0.0 
0.0 0.0 -6.693302181476e+01 
-1.267941321653e+02 -1.053522839864e+00 0.0 
-1.053522839864e+00 -2.925607936626e+02 0.0 
0.0 0.0 -1.254064777484e+02 
-9.310107238704e+01 4.021912347279e+01 0.0 
4.021912347279e+01 -1.752254858635e+02 0.0 
0.0 0.0 -8.009796747517e+01 
-3.683344351246e+01 -6.943361006282e+00 0.0 
-6.943361006282e+00 -7.886893262139e+01 0.0 
0.0 0.0 -3.428609854936e+01 
-1.051082878561e+02 -5.148190191346e-01 0.0 
-5.148190191346e-01 -2.377508198792e+02 0.0 
0.0 0.0 -1.024577323206e+02 
-9.886004826404e+01 4.165504871297e+01 0.0 
4.165504871297e+01 -2.276842693472e+02 0.0 
0.0 0.0 -9.756329528337e+01 
-1.064679920618e+02 2.786190335059e+01 0.0 
2.786190335059e+01 -2.778832793555e+02 0.0 
0.0 0.0 -1.149053814252e+02 
-6.971212813299e+01 -1.489716921932e+01 0.0 
-1.489716921932e+01 -1.661415458694e+02 0.0 
0.0 0.0 -7.035610220070e+01 
-5.220003204158e+01 -1.626704201084e+00 0.0 
-1.626704201084e+00 -1.195478886019e+02 0.0 
0.0 0.0 -5.112437619305e+01 
-8.293294829715e+01 2.129024146146e+01 0.0 
2.129024146146e+01 -2.244248660912e+02 0.0 
0.0 0.0 -9.180734431650e+01 
-5.171839166459e+01 8.902859620144e-01 0.0 
8.902859620144e-01 -6.917821935395e+01 0.0 
0.0 0.0 -3.586898330556e+01 
-3.156039168564e+01 -1.921429380711e+01 0.0 
-1.921429380711e+01 -5.102655864621e+01 0.0 
0.0 0.0 -2.400119042906e+01 
-1.181870385530e+02 4.041617287590e+01 0.0 
4.041617287590e+01 -2.908777454302e+02 0.0 
0.0 0.0 -1.223194351950e+02 
-1.050202000725e+02 4.066218442851e+01 0.0 
4.066218442851e+01 -2.373519598185e+02 0.0 
0.0 0.0 -1.023116479673e+02 
-4.140060032393e+01 9.412302014971e-01 0.0 
9.412302014971e-01 -4.133543244558e+01 0.0 
0.0 0.0 -2.442080983085e+01 
-9.539436388732e+01 2.425025402725e+01 0.0 
2.425025402725e+01 -1.869731280009e+02 0.0 
0.0 0.0 -8.431024756647e+01 
-1.115601321869e+02 4.338949095577e+01 0.0 
4.338949095577e+01 -2.592949628923e+02 0.0 
0.0 0.0 -1.108565285238e+02 
-7.037376999115e+01 -8.017867431894e+00 0.0 
-8.017867431894e+00 -2.027012204213e+02 0.0 
0.0 0.0 -8.152249712373e+01 
-7.651141863567e+01 -1.382552162994e+01 0.0 
-1.382552162994e+01 -2.147354194043e+02 0.0 
0.0 0.0 -8.697405141200e+01 
-1.365480583175e+02 2.416369201163e+01 0.0 
2.416369201163e+01 -3.450588275252e+02 0.0 
0.0 0.0 -1.440820657528e+02 
-4.895816854447e+01 5.246162996958e+00 0.0 
5.246162996958e+00 -1.085015935985e+02 0.0 
0.0 0.0 -4.778854082567e+01 
-4.617526466765e+01 -1.265719136308e+00 0.0 
-1.265719136308e+00 -1.085774890000e+02 0.0 
0.0 0.0 -4.602582610029e+01 
-1.058721174631e+02 -1.685680776678e+00 0.0 
-1.685680776678e+00 -2.419469460986e+02 0.0 
0.0 0.0 -1.039457190685e+02 
-7.202548261250e+01 -1.271527144443e+01 0.0 
-1.271527144443e+01 -1.676794409700e+02 0.0 
0.0 0.0 -7.151147707474e+01 
-6.376398454428e+01 -1.442706486403e+01 0.0 
-1.442706486403e+01 -1.821211995369e+02 0.0 
0.0 0.0 -7.336555522436e+01 
-2.983962631883e+01 1.934510489751e+01 0.0 
1.934510489751e+01 -2.124497074535e+01 0.0 
0.0 0.0 -1.492537911925e+01 
-3.097937453848e+01 2.018226825495e+01 0.0 
2.018226825495e+01 -2.347681408522e+01 0.0 
0.0 0.0 -1.593685658711e+01 
-5.152630671779e+01 4.744005468330e+00 0.0 
4.744005468330e+00 -4.339147707804e+01 0.0 
0.0 0.0 -2.807533513875e+01 
-6.898283182063e+01 -7.579774759154e+00 0.0 
-7.579774759154e+00 -1.994359464117e+02 0.0 
0.0 0.0 -8.012563346970e+01 
-5.672424007638e+01 -2.809120386485e+00 0.0 
-2.809120386485e+00 -1.276390590250e+02 0.0 
0.0 0.0 -5.490898973040e+01 
-1.015602004845e+02 2.814688275586e+01 0.0 
2.814688275586e+01 -2.647631237297e+02 0.0 
0.0 0.0 -1.094969972643e+02 
-1.671068592483e+02 2.268275779041e+00 0.0 
2.268275779041e+00 -3.975209393929e+02 0.0 
0.0 0.0 -1.689883395924e+02 
-1.654394856153e+02 4.068224256224e+00 0.0 
4.068224256224e+00 -3.964787698479e+02 0.0 
0.0 0.0 -1.681754766390e+02 
-7.560659019587e+01 -1.300820184961e+01 0.0 
-1.300820184961e+01 -2.130244645281e+02 0.0 
0.0 0.0 -8.618931641720e+01 
-4.726792352356e+01 3.404491474531e+00 0.0 
3.404491474531e+00 -2.569735565850e+01 0.0 
0.0 0.0 -2.148958375462e+01 
-5.497242381784e+01 1.068573751524e+00 0.0 
1.068573751524e+00 -1.106630750085e+02 0.0 
0.0 0.0 -5.067293360503e+01 
-3.059004860842e+01 2.021290179499e+01 0.0 
2.021290179499e+01 -2.373900161735e+01 0.0 
0.0 0.0 -1.508747087882e+01 
-4.875774753012e+01 -2.718654206056e+01 0.0 
-2.718654206056e+01 -1.190870180103e+02 0.0 
0.0 0.0 -4.913738012574e+01 
-3.141303796887e+01 2.016332258895e+01 0.0 
2.016332258895e+01 -2.325226187359e+01 0.0 
0.0 0.0 -1.592326914370e+01 
-8.386348951171e+01 2.362257957592e+01 0.0 
2.362257957592e+01 -2.241659330394e+02 0.0 
0.0 0.0 -9.200882676533e+01 
-6.836046254501e+01 -1.680101373481e+01 0.0 
-1.680101373481e+01 -1.803696865898e+02 0.0 
0.0 0.0 -7.421904474043e+01 
-7.270896743824e+01 -1.261663606936e+01 0.0 
-1.261663606936e+01 -2.060252604807e+02 0.0 
0.0 0.0 -8.322026837569e+01 
-3.598882921660e+01 -2.386426300285e+01 0.0 
-2.386426300285e+01 -8.736536231574e+01 0.0 
0.0 0.0 -3.712805284308e+01 
-7.212745116225e+01 2.113376808011e+00 0.0 
2.113376808011e+00 -1.423410275825e+02 0.0 
0.0 0.0 -6.394054362342e+01 
-7.481699512472e+01 -1.546884824556e+01 0.0 
-1.546884824556e+01 -1.994146814851e+02 0.0 
0.0 0.0 -8.186950298296e+01 
-7.870454079246e+01 7.422712713317e+00 0.0 
7.422712713317e+00 -1.577026236214e+02 0.0 
0.0 0.0 -7.052214932416e+01 
-7.105891337820e+01 3.637708352057e+00 0.0 
3.637708352057e+00 -1.270331544799e+02 0.0 
0.0 0.0 -5.902762035742e+01 
-8.835101668446e+01 3.595162087451e+00 0.0 
3.595162087451e+00 -1.969703565094e+02 0.0 
0.0 0.0 -8.519641195815e+01 
-1.689023787842e+02 -4.851649405575e-01 0.0 
-4.851649405575e-01 -3.950879102104e+02 0.0 
0.0 0.0 -1.687970866984e+02 
-4.145095879967e+01 -4.584138691667e-01 0.0 
-4.584138691667e-01 -4.181877736771e+01 0.0 
0.0 0.0 -2.458092085021e+01 
-7.865443166834e+01 -1.424976469288e+01 0.0 
-1.424976469288e+01 -2.013195580646e+02 0.0 
0.0 0.0 -8.359219691989e+01 
-2.625446178941e+01 1.850686415245e+01 0.0 
1.850686415245e+01 -1.990343076493e+01 0.0 
0.0 0.0 -1.344736776630e+01 
-7.842295463499e+01 -1.416098719581e+01 0.0 
-1.416098719581e+01 -2.021918353907e+02 0.0 
0.0 0.0 -8.378443700771e+01 
-1.702145362181e+02 1.071507902306e+00 0.0 
1.071507902306e+00 -3.985005845089e+02 0.0 
0.0 0.0 -1.702145362181e+02 
-3.081975986114e+01 1.962331084577e+01 0.0 
1.962331084577e+01 -2.178253668246e+01 0.0 
0.0 0.0 -1.404313446357e+01 
-2.985523244564e+01 1.932156157204e+01 0.0 
1.932156157204e+01 -2.177171279871e+01 0.0 
0.0 0.0 -1.343647377985e+01 
-1.174529608657e+02 2.106000180668e+01 0.0 
2.106000180668e+01 -3.123963465144e+02 0.0 
0.0 0.0 -1.285547922140e+02 
-3.968949805258e+01 1.462912067200e+00 0.0 
1.462912067200e+00 -2.628781055492e+01 0.0 
0.0 0.0 -1.939319258225e+01 
-7.800633284329e+01 4.473889530683e+00 0.0 
4.473889530683e+00 -1.591945668680e+02 0.0 
0.0 0.0 -7.076026991340e+01 
-9.969397403210e+01 4.317150578949e+01 0.0 
4.317150578949e+01 -2.281772475782e+02 0.0 
0.0 0.0 -9.796136648308e+01 
-1.133575879065e+02 2.798281354936e+01 0.0 
2.798281354936e+01 -2.955717818111e+02 0.0 
0.0 0.0 -1.222788109153e+02 
-1.022576028272e+02 4.313433404272e+01 0.0 
4.313433404272e+01 -2.158931488465e+02 0.0 
0.0 0.0 -9.504522550213e+01 
-4.381622146347e+01 1.862381403826e-01 0.0 
1.862381403826e-01 -4.520518788005e+01 0.0 
0.0 0.0 -2.630642280305e+01 
-6.500736899773e+01 -1.274670810870e+01 0.0 
-1.274670810870e+01 -1.469407974114e+02 0.0 
0.0 0.0 -6.318444992274e+01 
-6.357531202307e+01 -1.545516198245e+01 0.0 
-1.545516198245e+01 -1.458239749843e+02 0.0 
0.0 0.0 -6.241978610220e+01 
-5.848778660179e+01 3.350874326832e-01 0.0 
3.350874326832e-01 -8.894694894109e+01 0.0 
0.0 0.0 -4.383042066286e+01 
-1.091347500618e+02 3.006523777018e+01 0.0 
3.006523777018e+01 -2.821579373867e+02 0.0 
0.0 0.0 -1.169878062345e+02 
-4.821909461594e+01 7.260073250774e+00 0.0 
7.260073250774e+00 -8.705264454751e+00 0.0 
0.0 0.0 -1.667730772121e+01 
-3.504811481753e+01 1.978787392289e-01 0.0 
1.978787392289e-01 -2.478974197634e+01 0.0 
0.0 0.0 -1.755135703816e+01 
-4.188437276310e+01 7.551814192104e-01 0.0 
7.551814192104e-01 -4.080056150944e+01 0.0 
0.0 0.0 -2.440548028176e+01 
-4.529396709085e+01 2.040782348778e+00 0.0 
2.040782348778e+00 -4.675642656893e+01 0.0 
0.0 0.0 -2.721511809793e+01 
-3.806425592410e+01 -1.693177661377e+01 0.0 
-1.693177661377e+01 -1.121498434024e+02 0.0 
0.0 0.0 -4.630992423120e+01 
-5.976245722278e+01 -1.312311887796e+01 0.0 
-1.312311887796e+01 -1.293211811149e+02 0.0 
0.0 0.0 -5.632509150130e+01 
-8.793154414769e+01 1.240816035423e+01 0.0 
1.240816035423e+01 -1.831855979909e+02 0.0 
0.0 0.0 -8.093514264158e+01 
-5.348708309947e+01 2.859276123044e+00 0.0 
2.859276123044e+00 -6.628576136656e+01 0.0 
0.0 0.0 -3.553185333981e+01 
-1.377709975265e+02 2.770434409111e+01 0.0 
2.770434409111e+01 -3.374132049188e+02 0.0 
0.0 0.0 -1.421552607336e+02 
-1.106487416925e+02 4.501034023772e+01 0.0 
4.501034023772e+01 -2.428134618054e+02 0.0 
0.0 0.0 -1.056386610493e+02 
-9.381193847156e+01 4.180154239880e+01 0.0 
4.180154239880e+01 -1.914929132834e+02 0.0 
0.0 0.0 -8.519145552648e+01 
-9.379762690501e+01 2.469913393598e+01 0.0 
2.469913393598e+01 -1.753891805986e+02 0.0 
0.0 0.0 -8.035604225109e+01 
-8.062043647788e+01 -4.274335023585e+00 0.0 
-4.274335023585e+00 -1.798381825015e+02 0.0 
0.0 0.0 -7.773758569383e+01 
-7.328052986836e+01 -4.256838153574e+00 0.0 
-4.256838153574e+00 -1.640086533385e+02 0.0 
0.0 0.0 -7.078675496205e+01 
-1.462358485817e+02 3.050134266447e+00 0.0 
3.050134266447e+00 -3.678663437726e+02 0.0 
0.0 0.0 -1.538306577063e+02 
-3.623795043836e+01 -2.104220703703e+01 0.0 
-2.104220703703e+01 -9.795102961899e+01 0.0 
0.0 0.0 -4.165107179442e+01 
-4.875519665712e+01 -5.681818321971e-02 0.0 
-5.681818321971e-02 -1.144740575562e+02 0.0 
0.0 0.0 -4.856877626400e+01 
-1.395525794954e+02 3.655410632288e+01 0.0 
3.655410632288e+01 -3.269560188227e+02 0.0 
0.0 0.0 -1.395525794954e+02 
-1.838176276544e+01 1.071172087350e+00 0.0 
1.071172087350e+00 -5.749361148614e+01 0.0 
0.0 0.0 -2.236261227547e+01 
-3.501780998869e+01 1.400200582709e-01 0.0 
1.400200582709e-01 -2.491313067833e+01 0.0 
0.0 0.0 -1.757928220011e+01 
-1.293807307765e+02 1.903050585140e+01 0.0 
1.903050585140e+01 -3.412279851446e+02 0.0 
0.0 0.0 -1.407826147763e+02 
-9.251993386505e+00 -2.300789529081e+00 0.0 
-2.300789529081e+00 -3.916849307381e+01 0.0 
0.0 0.0 -1.412614593809e+01 
9.999999202595e-01 1.405238544572e-03 0.0 
1.405238544572e-03 -2.376403422425e+01 0.0 
0.0 0.0 -5.705092895186e+00 
-9.546087011207e+01 2.103453743452e+01 0.0 
2.103453743452e+01 -2.074149840695e+02 0.0 
0.0 0.0 -9.046275625447e+01 
-3.056957363513e+01 -4.378007039844e-01 0.0 
-4.378007039844e-01 -8.094241288409e+00 0.0 
0.0 0.0 -1.119914447706e+01 
-8.862652589310e+01 1.627195162645e+01 0.0 
1.627195162645e+01 -1.815980050512e+02 0.0 
0.0 0.0 -8.066735928330e+01 
-1.320669840074e+02 1.991936218221e+01 0.0 
1.991936218221e+01 -3.362050166094e+02 0.0 
0.0 0.0 -1.400816001850e+02 
-3.010836196951e+01 3.534822496882e-01 0.0 
3.534822496882e-01 -7.943517100756e+00 0.0 
0.0 0.0 -1.101556372108e+01 
-5.202077861755e+01 1.084471561520e+01 0.0 
1.084471561520e+01 -1.135949537636e+02 0.0 
0.0 0.0 -5.074575734823e+01 
-8.032393651572e+01 3.491845651076e+00 0.0 
3.491845651076e+00 -1.771332695729e+02 0.0 
0.0 0.0 -7.683716182658e+01 
-2.296350311341e+01 6.769510330673e-01 0.0 
6.769510330673e-01 -6.313342948033e+01 0.0 
0.0 0.0 -2.542907977812e+01 
-8.225475344972e+01 1.361308549771e+01 0.0 
1.361308549771e+01 -1.665139386816e+02 0.0 
0.0 0.0 -7.423060763940e+01 
-1.696050699883e+02 1.932143462570e-01 0.0 
1.932143462570e-01 -3.970784966395e+02 0.0 
0.0 0.0 -1.696050699883e+02 
-1.053035397615e+02 4.061262394597e+01 0.0 
4.061262394597e+01 -2.229560227184e+02 0.0 
0.0 0.0 -9.807786874397e+01 
-4.058160704853e+01 -1.622427477325e+01 0.0 
-1.622427477325e+01 -1.200809086120e+02 0.0 
0.0 0.0 -4.932006196291e+01 
-6.163571329417e+01 1.170915618512e+01 0.0 
1.170915618512e+01 -5.068869348117e+01 0.0 
0.0 0.0 -3.329732203260e+01 
-8.083905391371e+01 -1.477657939351e+00 0.0 
-1.477657939351e+00 -1.824172188279e+02 0.0 
0.0 0.0 -7.857688182249e+01 
-1.017812363208e+02 2.893856312646e+01 0.0 
2.893856312646e+01 -2.643379721317e+02 0.0 
0.0 0.0 -1.094357625357e+02 
-1.436607154353e+02 3.183342344504e+01 0.0 
3.183342344504e+01 -3.450095811208e+02 0.0 
0.0 0.0 -1.462010889668e+02 
-6.542684599676e+01 1.104204824869e+00 0.0 
1.104204824869e+00 -1.110259289513e+02 0.0 
0.0 0.0 -5.253583248442e+01 
-1.448501302909e+02 2.870690506238e+01 0.0 
2.870690506238e+01 -3.513458866844e+02 0.0 
0.0 0.0 -1.484588050926e+02 
-3.888085731964e+01 -1.635986022186e+01 0.0 
-1.635986022186e+01 -1.153050246097e+02 0.0 
0.0 0.0 -4.842945772782e+01 
-1.614896542636e+02 1.073884920640e+00 0.0 
1.073884920640e+00 -3.834729506677e+02 0.0 
0.0 0.0 -1.630887814794e+02 
-3.918581050203e+01 -2.168727379684e+01 0.0 
-2.168727379684e+01 -1.052246915619e+02 0.0 
0.0 0.0 -4.281006851844e+01 
-1.936239229680e+01 -6.115941297516e-01 0.0 
-6.115941297516e-01 -5.737239222718e+01 0.0 
0.0 0.0 -2.262043535719e+01 
-1.454343727003e+02 1.734707965686e+01 0.0 
1.734707965686e+01 -3.657387078401e+02 0.0 
0.0 0.0 -1.529519241621e+02 
-1.033763716153e+02 3.356210861864e+01 0.0 
3.356210861864e+01 -2.108387034234e+02 0.0 
0.0 0.0 -9.386452251161e+01 
-9.187716083989e+01 2.166741554264e+01 0.0 
2.166741554264e+01 -1.932633327345e+02 0.0 
0.0 0.0 -8.514214807231e+01 
-3.541597162646e+01 -4.207821307584e-01 0.0 
-4.207821307584e-01 -2.347165931053e+01 0.0 
0.0 0.0 -1.726628928110e+01 
-6.929673221209e+01 2.177531652435e+01 0.0 
2.177531652435e+01 -6.830621676082e+01 0.0 
0.0 0.0 -4.088088469187e+01 
-4.323832984456e+01 2.991919083679e+01 0.0 
2.991919083679e+01 -6.412983626628e+01 0.0 
0.0 0.0 -3.142685782302e+01 
-1.161070297046e+02 4.656363889994e+01 0.0 
4.656363889994e+01 -2.650042848276e+02 0.0 
0.0 0.0 -1.139333943597e+02 
-6.793409461156e+01 -2.482481869038e+00 0.0 
-2.482481869038e+00 -1.514372392158e+02 0.0 
0.0 0.0 -6.541140014820e+01 
-3.414240408312e+01 2.572946293079e+01 0.0 
2.572946293079e+01 -6.392812281008e+01 0.0 
0.0 0.0 -2.951967864205e+01 
-1.060487602059e+02 2.682443501844e+01 0.0 
2.682443501844e+01 -2.779839400655e+02 0.0 
0.0 0.0 -1.148098100814e+02 
-2.825023326070e+01 2.117896874154e-01 0.0 
2.117896874154e-01 -7.482021777204e+00 0.0 
0.0 0.0 -1.031967651137e+01 
-9.579475624255e+01 3.080388088796e+01 0.0 
3.080388088796e+01 -1.958856309751e+02 0.0 
0.0 0.0 -8.710411616530e+01 
-8.671377519653e+01 9.773582881101e-01 0.0 
9.773582881101e-01 -1.943226319348e+02 0.0 
0.0 0.0 -8.391092213940e+01 
-8.327481977871e+01 1.401426528563e+00 0.0 
1.401426528563e+00 -1.956412461503e+02 0.0 
0.0 0.0 -8.327481977871e+01 
9.967699385446e-01 1.545029027165e-01 0.0 
1.545029027165e-01 -6.390307360124e+00 0.0 
0.0 0.0 5.921606877242e-01 
9.767851205097e-01 -5.228974464337e-01 0.0 
-5.228974464337e-01 -1.077786598464e+01 0.0 
0.0 0.0 -4.129846627684e-01 
-2.891789072806e+01 5.013184607604e-01 0.0 
5.013184607604e-01 -1.031190889722e+01 0.0 
0.0 0.0 -1.136893988758e+01 
-2.808863370930e+01 -2.516324530330e-01 0.0 
-2.516324530330e-01 -7.376411347014e+00 0.0 
0.0 0.0 -1.023951351689e+01 
-1.686386178022e+02 -1.546681334699e-01 0.0 
-1.546681334699e-01 -3.948234415385e+02 0.0 
0.0 0.0 -1.686386178022e+02 
-1.680253309098e+02 -7.697502397023e-01 0.0 
-7.697502397023e-01 -3.923613178998e+02 0.0 
0.0 0.0 -1.677159946429e+02 
6.959421971951e-01 -6.991658195028e-01 0.0 
-6.991658195028e-01 -2.295473453111e+01 0.0 
0.0 0.0 -5.676678153093e+00 
-4.833373691440e+01 -4.538542211283e+00 0.0 
-4.538542211283e+00 -1.145708945584e+02 0.0 
0.0 0.0 -4.937181578904e+01 
-1.541185205502e+02 -1.131273128307e+00 0.0 
-1.131273128307e+00 -3.639433965301e+02 0.0 
0.0 0.0 -1.550185751241e+02 
-1.138139710001e+02 3.342774031654e+01 0.0 
3.342774031654e+01 -2.900250526457e+02 0.0 
0.0 0.0 -1.207517070937e+02 
-2.754740267611e+01 -1.483751007836e-02 0.0 
-1.483751007836e-02 -7.371355241053e+01 0.0 
0.0 0.0 -2.997828652599e+01 
-1.546865706054e+02 1.111579939712e+00 0.0 
1.111579939712e+00 -3.719230867818e+02 0.0 
0.0 0.0 -1.575828972162e+02 
-1.129351357168e+02 -1.958742767490e-01 0.0 
-1.958742767490e-01 -2.584047917816e+02 0.0 
0.0 0.0 -1.110019782495e+02 
-9.818760281234e+01 3.831714293189e-01 0.0 
3.831714293189e-01 -2.226568516195e+02 0.0 
0.0 0.0 -9.585333632955e+01 
-5.556598372677e+01 1.270979324626e+00 0.0 
1.270979324626e+00 -7.619916730830e+01 0.0 
0.0 0.0 -3.912954531052e+01 
-4.419171875397e+01 -2.729648239128e+01 0.0 
-2.729648239128e+01 -1.009099694009e+02 0.0 
0.0 0.0 -4.143817636123e+01 
-9.425459428876e+01 2.776394365858e+01 0.0 
2.776394365858e+01 -2.461044470156e+02 0.0 
0.0 0.0 -1.017077123913e+02 
-1.892807305662e+01 -9.667208715433e-01 0.0 
-9.667208715433e-01 -5.894788525615e+01 0.0 
0.0 0.0 -2.296278749383e+01 
-9.010194492305e+01 -2.054353983475e+00 0.0 
-2.054353983475e+00 -2.028876693495e+02 0.0 
0.0 0.0 -8.749688428177e+01 
-1.093782740968e+02 4.323108633367e+01 0.0 
4.323108633367e+01 -2.530389222506e+02 0.0 
0.0 0.0 -1.083251589042e+02 
-7.660774756749e+01 1.058297579040e+00 0.0 
1.058297579040e+00 -1.517301377612e+02 0.0 
0.0 0.0 -6.810136559860e+01 
-9.813009152302e+01 -1.399465659318e+00 0.0 
-1.399465659318e+00 -2.212254996174e+02 0.0 
0.0 0.0 -9.540667734212e+01 
-4.730561602834e+01 1.303631916422e+00 0.0 
1.303631916422e+00 -5.535825594557e+01 0.0 
0.0 0.0 -3.039916159217e+01 
-1.117629069689e+02 3.745564841470e+01 0.0 
3.745564841470e+01 -2.783925842998e+02 0.0 
0.0 0.0 -1.166466473806e+02 
-1.052665433101e+02 4.409791868873e+01 0.0 
4.409791868873e+01 -2.329199060779e+02 0.0 
0.0 0.0 -1.010559348164e+02 
-9.959107847625e+01 4.299448205855e+01 0.0 
4.299448205855e+01 -2.122584516248e+02 0.0 
0.0 0.0 -9.315485903032e+01 
-2.938256115316e+01 2.677648909111e-03 0.0 
2.677648909111e-03 -8.128896749747e+00 0.0 
0.0 0.0 -1.085343737087e+01 
-9.142154996715e+01 2.503955841554e+01 0.0 
2.503955841554e+01 -2.421314066790e+02 0.0 
0.0 0.0 -9.966588699384e+01 
-9.831271079454e+01 3.529515603397e+01 0.0 
3.529515603397e+01 -2.065475545662e+02 0.0 
0.0 0.0 -9.105807960822e+01 
-4.988068704200e+01 -1.785065674931e+00 0.0 
-1.785065674931e+00 -1.145287652508e+02 0.0 
0.0 0.0 -4.892283568784e+01 
9.989921649020e-01 1.563899865992e-01 0.0 
1.563899865992e-01 -2.326768819361e+01 0.0 
0.0 0.0 -1.756770957175e+00 
-1.090897861310e+02 3.869197064987e+01 0.0 
3.869197064987e+01 -2.689023459623e+02 0.0 
0.0 0.0 -1.129976396280e+02 
-1.148797868134e+02 1.702057983929e+01 0.0 
1.702057983929e+01 -3.087171426536e+02 0.0 
0.0 0.0 -1.266790788401e+02 
-3.950638538745e+01 -2.665956441331e+01 0.0 
-2.665956441331e+01 -8.720899278385e+01 0.0 
0.0 0.0 -3.721572854562e+01 
-6.019408705561e+01 1.886804867006e+00 0.0 
1.886804867006e+00 -9.068389265155e+01 0.0 
0.0 0.0 -4.486339391215e+01 
-1.612371822112e+02 -9.193238222506e-02 0.0 
-9.193238222506e-02 -3.787961274264e+02 0.0 
0.0 0.0 -1.616099928913e+02 
-1.103552990606e+02 3.483952345394e+01 0.0 
3.483952345394e+01 -2.787691279184e+02 0.0 
0.0 0.0 -1.163373280937e+02 
-1.131292253659e+02 3.634502511561e+01 0.0 
3.634502511561e+01 -2.838932337722e+02 0.0 
0.0 0.0 -1.187067377414e+02 
-1.215990466491e+02 4.646352758226e-01 0.0 
4.646352758226e-01 -2.799233624358e+02 0.0 
0.0 0.0 -1.200567227254e+02 
-4.042365753633e+01 2.467414013418e+01 0.0 
2.467414013418e+01 -9.990549180428e+01 0.0 
0.0 0.0 -4.345092065324e+01 
-2.623893196689e+01 1.840289216868e+01 0.0 
1.840289216868e+01 -1.956611779623e+01 0.0 
0.0 0.0 -1.334151492894e+01 
-4.659568423019e+01 3.094664340602e+01 0.0 
3.094664340602e+01 -6.136800296324e+01 0.0 
0.0 0.0 -3.198910615803e+01 
-6.273390180312e+01 1.298304559548e+01 0.0 
1.298304559548e+01 -4.863395714607e+01 0.0 
0.0 0.0 -3.301035768476e+01 
-9.186996490645e+01 2.481850720946e+01 0.0 
2.481850720946e+01 -2.435591004975e+02 0.0 
0.0 0.0 -1.002287196212e+02 
-8.356928829363e+01 1.145187347215e+01 0.0 
1.145187347215e+01 -1.680332517447e+02 0.0 
0.0 0.0 -7.508076201149e+01 
-1.408976572048e+02 2.301549514207e+01 0.0 
2.301549514207e+01 -3.448111388641e+02 0.0 
0.0 0.0 -1.453126388207e+02 
-3.085475352033e+01 -1.529726216879e+01 0.0 
-1.529726216879e+01 -5.572676993441e+01 0.0 
0.0 0.0 -2.380493401215e+01 
-9.304701694489e+00 -3.248492408354e+00 0.0 
-3.248492408354e+00 -4.163323898628e+01 0.0 
0.0 0.0 -1.463160849887e+01 
-2.720066706151e+01 1.862688143401e+01 0.0 
1.862688143401e+01 -1.991621933520e+01 0.0 
0.0 0.0 -1.349089437589e+01 
-6.137619761742e+01 1.381478232253e+00 0.0 
1.381478232253e+00 -9.594703719484e+01 0.0 
0.0 0.0 -4.679697044368e+01 
-6.235736888585e+01 -1.401643869415e+00 0.0 
-1.401643869415e+00 -1.411394764278e+02 0.0 
0.0 0.0 -6.064905359409e+01 
-9.583648650939e+01 2.792778386180e+01 0.0 
2.792778386180e+01 -1.879071884912e+02 0.0 
0.0 0.0 -8.472310250018e+01 
-2.527840689634e+01 5.744122117668e-01 0.0 
5.744122117668e-01 -7.064574191757e+01 0.0 
0.0 0.0 -2.837724464417e+01 
-1.269826123269e+02 2.140873434509e+01 0.0 
2.140873434509e+01 -3.280850507243e+02 0.0 
0.0 0.0 -1.361202989154e+02 
-4.754325014637e+01 1.993285518160e+00 0.0 
1.993285518160e+00 -4.085384911656e+01 0.0 
0.0 0.0 -2.611912977888e+01 
-1.325080761217e+02 3.207427251131e+01 0.0 
3.207427251131e+01 -3.203465365246e+02 0.0 
0.0 0.0 -1.354563837939e+02 
-1.045341300273e+02 3.099095208844e+01 0.0 
3.099095208844e+01 -2.688511702656e+02 0.0 
0.0 0.0 -1.116155900879e+02 
-6.746070975079e+01 1.847487166066e+01 0.0 
1.847487166066e+01 -5.423494688639e+01 0.0 
0.0 0.0 -3.610869699115e+01 
-1.495596979451e+02 1.145876784977e+01 0.0 
1.145876784977e+01 -3.763820719925e+02 0.0 
0.0 0.0 -1.573825309813e+02 
-9.976256679861e+01 3.033874903594e+01 0.0 
3.033874903594e+01 -2.054972783503e+02 0.0 
0.0 0.0 -9.117795354468e+01 
-8.490312323060e+01 2.226222967971e+00 0.0 
2.226222967971e+00 -1.800544388958e+02 0.0 
0.0 0.0 -7.908726863793e+01 
-2.737357527798e+01 1.812509749953e+01 0.0 
1.812509749953e+01 -2.070980206887e+01 0.0 
0.0 0.0 -1.232979065623e+01 
-8.893928128321e+01 2.220768029111e+01 0.0 
2.220768029111e+01 -1.730429819392e+02 0.0 
0.0 0.0 -7.819467896671e+01 
-1.208171621345e+02 4.101050064255e+01 0.0 
4.101050064255e+01 -2.924898651301e+02 0.0 
0.0 0.0 -1.235921081794e+02 
-1.247882314411e+02 2.303010924545e+01 0.0 
2.303010924545e+01 -3.281892852884e+02 0.0 
0.0 0.0 -1.354932550189e+02 
-1.087317683599e+02 2.917252438291e+01 0.0 
2.917252438291e+01 -2.822081112214e+02 0.0 
0.0 0.0 -1.168819638744e+02 
-1.704604454296e+02 2.874861770388e+00 0.0 
2.874861770388e+00 -3.990743726690e+02 0.0 
0.0 0.0 -1.704604454296e+02 
-9.712212001012e+01 4.064566176350e+01 0.0 
4.064566176350e+01 -2.107499581764e+02 0.0 
0.0 0.0 -9.196162345596e+01 
-4.126246065943e+01 2.603013711655e+01 0.0 
2.603013711655e+01 -9.747214378689e+01 0.0 
0.0 0.0 -4.217212423442e+01 
-3.444705322098e+01 2.592191560633e+01 0.0 
2.592191560633e+01 -5.416525261527e+01 0.0 
0.0 0.0 -2.480606208321e+01 
-1.072827722323e+02 4.421017885039e+01 0.0 
4.421017885039e+01 -2.364872481334e+02 0.0 
0.0 0.0 -1.027310061097e+02 
-6.590698488413e+01 1.262458195263e+01 0.0 
1.262458195263e+01 -6.521384639491e+01 0.0 
0.0 0.0 -3.893624938371e+01 
-1.550864861105e+02 3.196303533457e-01 0.0 
3.196303533457e-01 -3.621776172550e+02 0.0 
0.0 0.0 -1.547792310096e+02 
-1.121975176799e+02 3.216108916764e+01 0.0 
3.216108916764e+01 -2.874797985075e+02 0.0 
0.0 0.0 -1.195031948562e+02 
-1.616842267032e+02 1.759852188413e+00 0.0 
1.759852188413e+00 -3.848069997432e+02 0.0 
0.0 0.0 -1.635473679339e+02 
-6.844002294134e+01 2.544920818417e+00 0.0 
2.544920818417e+00 -1.177006972326e+02 0.0 
0.0 0.0 -5.544221605218e+01 
-1.351653943078e+02 3.055366125022e+01 0.0 
3.055366125022e+01 -3.258393924391e+02 0.0 
0.0 0.0 -1.379014360241e+02 
-1.468199094198e+02 7.750543293488e+00 0.0 
7.750543293488e+00 -3.691295722025e+02 0.0 
0.0 0.0 -1.543848444867e+02 
-1.436137691770e+02 7.546841085791e+00 0.0 
7.546841085791e+00 -3.677344652332e+02 0.0 
0.0 0.0 -1.530044703231e+02 
-6.465059650254e+01 -1.007773237426e+00 0.0 
-1.007773237426e+00 -1.462340570354e+02 0.0 
0.0 0.0 -6.286539606137e+01 
-1.680858134253e+02 1.270422953187e+00 0.0 
1.270422953187e+00 -3.976803668279e+02 0.0 
0.0 0.0 -1.693298540760e+02 
-4.362465918546e+01 3.379720654843e+00 0.0 
3.379720654843e+00 -2.601487148244e+01 0.0 
0.0 0.0 -2.049185920037e+01 
-8.069135769644e+01 6.415639030554e+00 0.0 
6.415639030554e+00 -1.606789293582e+02 0.0 
0.0 0.0 -7.201108611639e+01 
-2.188547514141e+01 -4.123435355504e+00 0.0 
-4.123435355504e+00 -4.284750978474e+01 0.0 
0.0 0.0 -1.812007201192e+01 
-7.676237775951e+01 3.034858015902e+00 0.0 
3.034858015902e+00 -1.446989290765e+02 0.0 
0.0 0.0 -6.603839205080e+01 
-6.171325372017e+01 2.059736197444e+00 0.0 
2.059736197444e+00 -9.283509028539e+01 0.0 
0.0 0.0 -4.596450320167e+01 
-8.120139775379e+00 8.699266018999e-01 0.0 
8.699266018999e-01 -4.152364431600e+01 0.0 
0.0 0.0 -1.449313522741e+01 
-4.298785996658e+01 -1.874577672309e+01 0.0 
-1.874577672309e+01 -1.224885422793e+02 0.0 
0.0 0.0 -5.017115004138e+01 
-1.004725432974e+02 4.179164118240e+01 0.0 
4.179164118240e+01 -2.286552931299e+02 0.0 
0.0 0.0 -9.833835092817e+01 
-8.486642505325e+01 1.566682767530e+01 0.0 
1.566682767530e+01 -1.830163787137e+02 0.0 
0.0 0.0 -7.996484113010e+01 
-8.006952604725e+01 3.487355251731e+00 0.0 
3.487355251731e+00 -1.631555297943e+02 0.0 
0.0 0.0 -7.256751675246e+01 
-1.288097544350e+02 2.896094708190e+01 0.0 
2.896094708190e+01 -3.248189690077e+02 0.0 
0.0 0.0 -1.356886170328e+02 
-4.781278284160e+01 5.675665248822e-01 0.0 
5.675665248822e-01 -5.438492374122e+01 0.0 
0.0 0.0 -3.025931197485e+01 
9.906157527821e-01 4.901141152471e-01 0.0 
4.901141152471e-01 -2.459734844860e+01 0.0 
0.0 0.0 -5.252749134591e+00 
-4.041276048967e+01 1.965298974742e+01 0.0 
1.965298974742e+01 -1.135706528764e+02 0.0 
0.0 0.0 -4.776798564562e+01 
-1.505308480669e+00 -1.619834153474e+00 0.0 
-1.619834153474e+00 -2.754041366351e+01 0.0 
0.0 0.0 -8.313716643254e+00 
-2.372802420079e+01 -3.502335340704e+00 0.0 
-3.502335340704e+00 -5.647472967482e+01 0.0 
0.0 0.0 -2.344233240454e+01 
-3.357263355827e+01 2.483535984424e+01 0.0 
2.483535984424e+01 -4.374536668145e+01 0.0 
0.0 0.0 -2.364585128660e+01 
-8.812848603335e+01 -3.385126483080e+00 0.0 
-3.385126483080e+00 -1.973633542428e+02 0.0 
0.0 0.0 -8.524755208284e+01 
-1.545340598802e+02 -1.366501232407e+00 0.0 
-1.366501232407e+00 -3.618897028738e+02 0.0 
0.0 0.0 -1.545271288262e+02 
-1.038418541831e+02 3.942319832687e+01 0.0 
3.942319832687e+01 -2.225770219027e+02 0.0 
0.0 0.0 -9.752566282574e+01 
-7.723502615812e+01 2.560739533134e+01 0.0 
2.560739533134e+01 -7.936680460617e+01 0.0 
0.0 0.0 -4.658054922929e+01 
-7.706060444191e+01 -2.540749458789e+00 0.0 
-2.540749458789e+00 -1.730603558492e+02 0.0 
0.0 0.0 -7.463628808733e+01 
-1.487375180108e+02 3.707320888813e+00 0.0 
3.707320888813e+00 -3.692031901413e+02 0.0 
0.0 0.0 -1.549822124457e+02 
-1.304063639379e+02 1.432328490942e+01 0.0 
1.432328490942e+01 -3.472468436641e+02 0.0 
0.0 0.0 -1.428959622806e+02 
-1.264214871716e+02 3.362282031659e+01 0.0 
3.362282031659e+01 -3.166689287209e+02 0.0 
0.0 0.0 -1.325271247678e+02 
-1.148424830218e+02 3.958558363566e+01 0.0 
3.958558363566e+01 -2.831543328825e+02 0.0 
0.0 0.0 -1.189990447713e+02 
-1.060029102447e+02 4.284442692669e+01 0.0 
4.284442692669e+01 -2.482249620408e+02 0.0 
0.0 0.0 -1.058683616856e+02 
-2.042493102188e+01 -4.032048031614e+00 0.0 
-4.032048031614e+00 -4.097801265993e+01 0.0 
0.0 0.0 -1.736881171838e+01 
-3.108322109081e+01 -1.538067021320e+01 0.0 
-1.538067021320e+01 -9.571418524554e+01 0.0 
0.0 0.0 -3.980167819709e+01 
-1.550472959843e+02 -2.135843072555e-02 0.0 
-2.135843072555e-02 -3.648393246799e+02 0.0 
0.0 0.0 -1.555659861992e+02 
-9.998991304125e+00 -1.008325968178e-01 0.0 
-1.008325968178e-01 -4.136699348876e+01 0.0 
0.0 0.0 -1.500979543787e+01 
-1.303814297187e+01 -1.342240534986e+00 0.0 
-1.342240534986e+00 -4.909953445789e+01 0.0 
0.0 0.0 -1.824130322893e+01 
-4.657487508568e+01 3.094460808670e+01 0.0 
3.094460808670e+01 -6.141906944071e+01 0.0 
0.0 0.0 -3.266067646057e+01 
-8.159965450331e+00 1.167807960929e+00 0.0 
1.167807960929e+00 -3.854803757355e+01 0.0 
0.0 0.0 -1.361240090716e+01 
-1.568569085705e+02 9.083615547090e+00 0.0 
9.083615547090e+00 -3.818270213087e+02 0.0 
0.0 0.0 -1.612051789637e+02 
-1.169232684652e+02 4.471158412036e+01 0.0 
4.471158412036e+01 -2.790410277641e+02 0.0 
0.0 0.0 -1.183892888688e+02 
-8.115558062384e+01 9.457728663737e+00 0.0 
9.457728663737e+00 -1.671646649253e+02 0.0 
0.0 0.0 -7.409607366474e+01 
-1.310586770627e+02 3.384770489218e+01 0.0 
3.384770489218e+01 -3.166914907229e+02 0.0 
0.0 0.0 -1.339250503357e+02 
-1.261097107128e+02 1.541765239458e+01 0.0 
1.541765239458e+01 -3.356105465335e+02 0.0 
0.0 0.0 -1.381160771739e+02 
-5.199909409468e+01 7.506218289495e-01 0.0 
7.506218289495e-01 -6.592934953606e+01 0.0 
0.0 0.0 -3.497853308922e+01 
-8.803985546396e+01 2.173157012032e+01 0.0 
2.173157012032e+01 -2.067596627493e+02 0.0 
0.0 0.0 -8.803985546396e+01 
-5.497060720603e+01 -2.562326552438e+01 0.0 
-2.562326552438e+01 -1.424290403274e+02 0.0 
0.0 0.0 -5.793594894471e+01 
-2.846608691891e+01 2.984461047836e-03 0.0 
2.984461047836e-03 -7.222204280180e+00 0.0 
0.0 0.0 -1.030648735973e+01 
-4.639032052038e+01 -2.656149783073e+01 0.0 
-2.656149783073e+01 -8.359885750613e+01 0.0 
0.0 0.0 -3.677602599231e+01 
-6.789063178974e-01 -1.644141185139e-01 0.0 
-1.644141185139e-01 -2.473970360369e+01 0.0 
0.0 0.0 -7.807802574658e+00 
-1.687135263477e+02 -2.442513196286e-01 0.0 
-2.442513196286e-01 -3.962695369736e+02 0.0 
0.0 0.0 -1.690949189964e+02 
-6.557002207877e+01 1.624399294884e+01 0.0 
1.624399294884e+01 -4.064992156943e+01 0.0 
0.0 0.0 -3.146598309446e+01 
-1.706524774135e+01 -3.523598144542e-01 0.0 
-3.523598144542e-01 -5.681713616348e+01 0.0 
0.0 0.0 -2.176471517145e+01 
-8.402248337347e+01 -2.974645163814e+00 0.0 
-2.974645163814e+00 -1.889524025901e+02 0.0 
0.0 0.0 -8.149246578908e+01 
-1.167390970238e+02 4.619008657797e+01 0.0 
4.619008657797e+01 -2.752538514368e+02 0.0 
0.0 0.0 -1.171978845382e+02 
-8.714463772505e+01 1.553968078336e+01 0.0 
1.553968078336e+01 -1.693772795335e+02 0.0 
0.0 0.0 -7.655657517757e+01 
-9.697244324552e+01 3.340167485509e+01 0.0 
3.340167485509e+01 -2.116448026812e+02 0.0 
0.0 0.0 -9.218517377802e+01 
-5.821253474822e+01 2.386785894616e-02 0.0 
2.386785894616e-02 -1.328457350859e+02 0.0 
0.0 0.0 -5.691748095024e+01 
-4.031698977349e+01 4.476230412059e+00 0.0 
4.476230412059e+00 -1.296704544718e+02 0.0 
0.0 0.0 -5.292606621706e+01 
-1.589899728914e+02 2.395676710711e+00 0.0 
2.395676710711e+00 -3.837665890141e+02 0.0 
0.0 0.0 -1.624269685716e+02 
-8.896295566059e+01 1.912145725933e+00 0.0 
1.912145725933e+00 -1.979856676458e+02 0.0 
0.0 0.0 -8.568458699191e+01 
-1.688534457734e+02 -1.267551147303e-01 0.0 
-1.267551147303e-01 -3.948596151128e+02 0.0 
0.0 0.0 -1.687139182659e+02 
-3.360649736951e+01 -5.021002455862e-01 0.0 
-5.021002455862e-01 -2.175139238851e+01 0.0 
0.0 0.0 -1.620736692741e+01 
-1.374268703455e+02 1.602058578935e+01 0.0 
1.602058578935e+01 -3.482135159577e+02 0.0 
0.0 0.0 -1.452921158910e+02 
-2.025383333798e+01 4.400727982363e-01 0.0 
4.400727982363e-01 -5.827810523471e+01 0.0 
0.0 0.0 -2.315958157181e+01 
-9.239415472106e+01 2.572250027677e+01 0.0 
2.572250027677e+01 -1.866910581275e+02 0.0 
0.0 0.0 -8.332556385458e+01 
-1.794624264016e-02 1.718996970019e-01 0.0 
1.718996970019e-01 -2.414749371639e+01 0.0 
0.0 0.0 -7.209795912713e+00 
-1.531157428874e+02 1.427787306383e+01 0.0 
1.427787306383e+01 -3.730890285486e+02 0.0 
0.0 0.0 -1.574614314308e+02 
-1.039289664158e+02 3.599210745048e+01 0.0 
3.599210745048e+01 -2.177828768897e+02 0.0 
0.0 0.0 -9.611355299163e+01 
-4.183024750240e+01 1.742088754605e+01 0.0 
1.742088754605e+01 -1.215743408751e+02 0.0 
0.0 0.0 -5.038765071699e+01 
-1.100197758584e+02 3.515518460339e+01 0.0 
3.515518460339e+01 -2.773837293660e+02 0.0 
0.0 0.0 -1.158210515673e+02 
-6.614590095378e+01 3.258905092656e+00 0.0 
3.258905092656e+00 -1.076536211895e+02 0.0 
0.0 0.0 -5.173985664299e+01 
-8.277006661443e+01 1.150715712880e+01 0.0 
1.150715712880e+01 -1.815654167050e+02 0.0 
0.0 0.0 -7.890064499583e+01 
-1.499788367272e+02 2.924739917801e+01 0.0 
2.924739917801e+01 -3.512839523634e+02 0.0 
0.0 0.0 -1.499788367272e+02 
-5.564118627771e+01 1.791560450642e+00 0.0 
1.791560450642e+00 -7.995569157617e+01 0.0 
0.0 0.0 -4.027906335617e+01 
-1.151752156855e+02 4.465489082513e+01 0.0 
4.465489082513e+01 -2.713293455321e+02 0.0 
0.0 0.0 -1.155513683653e+02 
-1.001565830468e+02 3.346047686104e+01 0.0 
3.346047686104e+01 -1.989848735909e+02 0.0 
0.0 0.0 -8.934243699133e+01 
-5.887824820396e+01 1.502046219235e+00 0.0 
1.502046219235e+00 -9.138287828076e+01 0.0 
0.0 0.0 -4.467833794542e+01 
-1.115274721918e+02 4.415772413598e+01 0.0 
4.415772413598e+01 -2.627621180962e+02 0.0 
0.0 0.0 -1.118868770864e+02 
-7.195678866098e+01 -1.219589686141e+00 0.0 
-1.219589686141e+00 -1.606504845283e+02 0.0 
0.0 0.0 -6.938218195679e+01 
-2.796075044399e+01 8.060838505820e-02 0.0 
8.060838505820e-02 -7.245333868189e+00 0.0 
0.0 0.0 -1.016182529365e+01 
-1.192411772767e+02 3.260973283235e+01 0.0 
3.260973283235e+01 -3.030918703711e+02 0.0 
0.0 0.0 -1.262999142943e+02 
-8.256874448803e+01 9.226843814945e-01 0.0 
9.226843814945e-01 -1.812544147365e+02 0.0 
0.0 0.0 -7.874694776736e+01 
9.996554685239e-01 -5.770561656703e-02 0.0 
-5.770561656703e-02 -8.665120358202e+00 0.0 
0.0 0.0 7.623435615685e-02 
-2.756919404419e+01 -7.565456415271e-02 0.0 
-7.565456415271e-02 -7.018818551669e+00 0.0 
0.0 0.0 -9.976403778757e+00 
-1.632970869087e+02 3.674075366696e-01 0.0 
3.674075366696e-01 -3.812697712416e+02 0.0 
0.0 0.0 -1.629700574451e+02 
-2.927012238613e+01 -2.014978498948e+00 0.0 
-2.014978498948e+00 -7.311606809067e+01 0.0 
0.0 0.0 -3.031585714304e+01 
-1.263024721855e+02 2.023375532520e+01 0.0 
2.023375532520e+01 -3.352281744032e+02 0.0 
0.0 0.0 -1.380591939766e+02 
-1.046296458804e+02 3.812680926006e+01 0.0 
3.812680926006e+01 -2.109119069789e+02 0.0 
0.0 0.0 -9.426246585779e+01 
-8.749210692825e+01 1.094177008759e+01 0.0 
1.094177008759e+01 -1.820523207936e+02 0.0 
0.0 0.0 -8.046332831655e+01 
-2.609770750586e+01 -1.477973594523e+00 0.0 
-1.477973594523e+00 -7.007004141492e+01 0.0 
0.0 0.0 -2.845032467623e+01 
-4.097982781739e+01 2.853172120343e+01 0.0 
2.853172120343e+01 -7.996197664724e+01 0.0 
0.0 0.0 -3.546081171120e+01 
-1.015510410472e+02 -1.730205369627e+00 0.0 
-1.730205369627e+00 -2.313899747565e+02 0.0 
0.0 0.0 -9.948230474113e+01 
-7.042467293963e+01 1.702263733105e+00 0.0 
1.702263733105e+00 -1.294590750119e+02 0.0 
0.0 0.0 -5.956512438547e+01 
-1.195246262825e+02 -2.151445659946e+00 0.0 
-2.151445659946e+00 -9.037315459845e+01 0.0 
0.0 0.0 -6.319371877708e+01 
-9.236549630962e+01 2.812215600093e+01 0.0 
2.812215600093e+01 -2.005742655567e+02 0.0 
0.0 0.0 -8.748192855990e+01 
-5.275430096625e+01 8.037113072617e-01 0.0 
8.037113072617e-01 -7.349298360571e+01 0.0 
0.0 0.0 -3.747418537159e+01 
-4.808393034350e+01 -2.214733082700e+01 0.0 
-2.214733082700e+01 -1.013263260464e+02 0.0 
0.0 0.0 -4.256289569773e+01 
-4.849082467710e+01 8.993533887306e-01 0.0 
8.993533887306e-01 -5.951053958349e+01 0.0 
0.0 0.0 -3.200040927818e+01 
-1.252435520994e+02 3.645803989824e+01 0.0 
3.645803989824e+01 -3.102181890311e+02 0.0 
0.0 0.0 -1.302385223391e+02 
-1.066058356481e+02 9.100967043770e-01 0.0 
9.100967043770e-01 -2.427897173205e+02 0.0 
0.0 0.0 -1.044186658906e+02 
-1.611728737584e+01 1.582419702206e+01 0.0 
1.582419702206e+01 -1.604229973061e+01 0.0 
0.0 0.0 -6.533763654444e+00 
-6.504436990179e+01 -2.826548656031e+00 0.0 
-2.826548656031e+00 -1.456150663152e+02 0.0 
0.0 0.0 -6.279783086509e+01 
-9.400753980965e+01 -3.187568105629e+00 0.0 
-3.187568105629e+00 -2.124275821773e+02 0.0 
0.0 0.0 -9.153053659608e+01 
-1.108900975055e+02 -1.724621038739e+00 0.0 
-1.724621038739e+00 -2.523131862558e+02 0.0 
0.0 0.0 -1.085609851284e+02 
-1.236407509454e+02 3.065814114053e+01 0.0 
3.065814114053e+01 -3.124252492284e+02 0.0 
0.0 0.0 -1.304198000522e+02 
-9.141743322767e+01 -5.401654352083e-01 0.0 
-5.401654352083e-01 -2.067858651705e+02 0.0 
0.0 0.0 -8.906098951946e+01 
-9.722802877360e+01 -2.139174683705e+00 0.0 
-2.139174683705e+00 -2.196289665956e+02 0.0 
0.0 0.0 -9.465709861075e+01 
-7.520594278193e+00 -1.185181504625e+00 0.0 
-1.185181504625e+00 -3.685140017374e+01 0.0 
0.0 0.0 -1.291159833558e+01 
-1.527558611972e+02 2.476030948932e-01 0.0 
2.476030948932e-01 -3.713877073473e+02 0.0 
0.0 0.0 -1.568430705633e+02 
-1.094453892362e+02 3.887407489973e+01 0.0 
3.887407489973e+01 -2.695533453591e+02 0.0 
0.0 0.0 -1.132996203786e+02 
-6.000251151632e+01 3.643327202210e+01 0.0 
3.643327202210e+01 -1.182593194078e+02 0.0 
0.0 0.0 -5.418518299650e+01 
-8.152469655946e+01 1.973666276012e+00 0.0 
1.973666276012e+00 -1.801694927640e+02 0.0 
0.0 0.0 -7.810825679705e+01 
-1.628163796576e+02 -7.711423473383e-01 0.0 
-7.711423473383e-01 -3.805845951134e+02 0.0 
0.0 0.0 -1.626202924313e+02 
-3.440096529126e+01 6.449291514857e-01 0.0 
6.449291514857e-01 -2.292515555353e+01 0.0 
0.0 0.0 -1.679783625344e+01 
-5.377686474346e+01 6.961310753416e-01 0.0 
6.961310753416e-01 -7.392098002400e+01 0.0 
0.0 0.0 -3.790935343024e+01 
-9.180604266072e+01 -2.698075324272e+00 0.0 
-2.698075324272e+00 -2.066071014719e+02 0.0 
0.0 0.0 -8.912394323978e+01 
-9.503222505431e+01 -1.526749217759e+00 0.0 
-1.526749217759e+00 -2.140025712650e+02 0.0 
0.0 0.0 -9.231043889580e+01 
-9.727508492078e+01 -1.154669703689e+00 0.0 
-1.154669703689e+00 -2.206593789579e+02 0.0 
0.0 0.0 -9.498033916360e+01 
-1.210413176852e+02 1.904795293208e+01 0.0 
1.904795293208e+01 -3.228382978623e+02 0.0 
0.0 0.0 -1.327638846643e+02 
-3.812469160829e+01 -2.006092467709e+01 0.0 
-2.006092467709e+01 -7.048904825376e+01 0.0 
0.0 0.0 -3.089375880718e+01 
-1.111314440179e+02 4.016168049824e+01 0.0 
4.016168049824e+01 -2.718384145234e+02 0.0 
0.0 0.0 -1.144909575624e+02 
-4.050774615373e+01 1.349656608016e-01 0.0 
1.349656608016e-01 -3.955875075071e+01 0.0 
0.0 0.0 -2.361994907133e+01 
-9.861204676659e+01 2.765927430398e+01 0.0 
2.765927430398e+01 -1.995983371519e+02 0.0 
0.0 0.0 -8.906311517556e+01 
-1.225402537194e+02 1.952268404665e+01 0.0 
1.952268404665e+01 -3.247912858743e+02 0.0 
0.0 0.0 -1.337994618781e+02 
-5.074742704126e+01 1.581732593964e+00 0.0 
1.581732593964e+00 -6.084661282299e+01 0.0 
0.0 0.0 -3.307821195928e+01 
-1.078352199447e+02 4.317734933080e+01 0.0 
4.317734933080e+01 -2.492985365475e+02 0.0 
0.0 0.0 -1.067401269477e+02 
-1.225451874630e+02 2.904795575520e+01 0.0 
2.904795575520e+01 -3.111566886484e+02 0.0 
0.0 0.0 -1.297105628334e+02 
-1.285825294394e+02 3.260418489340e+01 0.0 
3.260418489340e+01 -3.213064635354e+02 0.0 
0.0 0.0 -1.345666978924e+02 
-6.369919315892e+01 3.960827858115e+01 0.0 
3.960827858115e+01 -1.021199855068e+02 0.0 
0.0 0.0 -5.072573022937e+01 
-1.094307062801e+02 4.452755471274e+01 0.0 
4.452755471274e+01 -2.501925569013e+02 0.0 
0.0 0.0 -1.074869789544e+02 
-1.131055889830e+02 4.521324560085e+01 0.0 
4.521324560085e+01 -2.669067731062e+02 0.0 
0.0 0.0 -1.136037086268e+02 
-5.966784210537e+00 8.009031725649e-01 0.0 
8.009031725649e-01 -3.788481898926e+01 0.0 
0.0 0.0 -1.275548095994e+01 
-8.743677121007e+01 -1.508626000567e+00 0.0 
-1.508626000567e+00 -1.964995108865e+02 0.0 
0.0 0.0 -8.478088462896e+01 
-2.569624033157e+01 2.177878210588e+01 0.0 
2.177878210588e+01 -5.176019502555e+01 0.0 
0.0 0.0 -2.419945002958e+01 
-1.130895608456e+02 4.617434939926e+01 0.0 
4.617434939926e+01 -2.572658084887e+02 0.0 
0.0 0.0 -1.107066108003e+02 

TENSORS element_materi_strain_total float
-1.391902125889e-03 3.321768754488e-03 0.0 
3.321768754488e-03 6.504747126729e-03 0.0 
0.0 0.0 0.0 
-1.576478232307e-03 3.001634605086e-03 0.0 
3.001634605086e-03 6.308871959204e-03 0.0 
0.0 0.0 0.0 
-2.503193671046e-04 3.859886853487e-03 0.0 
3.859886853487e-03 1.365114207912e-02 0.0 
0.0 0.0 0.0 
-5.769461258516e-04 3.941422878835e-04 0.0 
3.941422878835e-04 1.734011647471e-02 0.0 
0.0 0.0 0.0 
-1.849361134389e-03 1.647482158548e-04 0.0 
1.647482158548e-04 1.529150130616e-02 0.0 
0.0 0.0 0.0 
2.793657922445e-03 5.476672017552e-03 0.0 
5.476672017552e-03 -5.484768736129e-03 0.0 
0.0 0.0 0.0 
-1.728149508722e-03 1.245828156486e-04 0.0 
1.245828156486e-04 1.526181310414e-02 0.0 
0.0 0.0 0.0 
-1.436836394495e-03 3.387455165738e-03 0.0 
3.387455165738e-03 5.688226666547e-03 0.0 
0.0 0.0 0.0 
-1.837078904587e-03 8.234313359806e-05 0.0 
8.234313359806e-05 1.526662927645e-02 0.0 
0.0 0.0 0.0 
-5.621342262696e-04 7.089898055166e-04 0.0 
7.089898055166e-04 1.730550641262e-02 0.0 
0.0 0.0 0.0 
-3.682188397280e-04 -1.382135371993e-04 0.0 
-1.382135371993e-04 4.965822186020e-03 0.0 
0.0 0.0 0.0 
-1.429297223419e-03 2.967605953353e-03 0.0 
2.967605953353e-03 5.451846122658e-03 0.0 
0.0 0.0 0.0 
-8.825762039411e-05 -4.348397891186e-05 0.0 
-4.348397891186e-05 7.027337134228e-03 0.0 
0.0 0.0 0.0 
-2.360770126433e-03 8.165187823714e-04 0.0 
8.165187823714e-04 1.563223291327e-02 0.0 
0.0 0.0 0.0 
-4.953918373629e-05 -1.142576677870e-04 0.0 
-1.142576677870e-04 7.149548567632e-03 0.0 
0.0 0.0 0.0 
-3.440161894385e-04 5.801105059227e-04 0.0 
5.801105059227e-04 1.738806334404e-02 0.0 
0.0 0.0 0.0 
-2.002295237840e-03 2.286120720005e-04 0.0 
2.286120720005e-04 1.520445053278e-02 0.0 
0.0 0.0 0.0 
2.993206493225e-03 2.208986121330e-03 0.0 
2.208986121330e-03 -6.298294373905e-03 0.0 
0.0 0.0 0.0 
2.096752270784e-04 -3.232837359849e-05 0.0 
-3.232837359849e-05 1.411029317993e-03 0.0 
0.0 0.0 0.0 
2.622595646984e-05 -6.279461567265e-05 0.0 
-6.279461567265e-05 1.529888193542e-03 0.0 
0.0 0.0 0.0 
-6.979106696072e-04 7.025705127505e-04 0.0 
7.025705127505e-04 1.730754792046e-02 0.0 
0.0 0.0 0.0 
-1.437396100751e-03 3.089269034762e-03 0.0 
3.089269034762e-03 7.605808637950e-03 0.0 
0.0 0.0 0.0 
-1.630158731534e-03 3.348204524043e-03 0.0 
3.348204524043e-03 8.153269271406e-03 0.0 
0.0 0.0 0.0 
9.860919703062e-04 1.124749515589e-03 0.0 
1.124749515589e-03 6.357150151173e-03 0.0 
0.0 0.0 0.0 
-2.435326111252e-03 1.712797360579e-03 0.0 
1.712797360579e-03 1.542665083921e-02 0.0 
0.0 0.0 0.0 
-3.577065050827e-04 -1.834651567162e-04 0.0 
-1.834651567162e-04 5.142507124685e-03 0.0 
0.0 0.0 0.0 
-3.545146073429e-03 1.343766031737e-03 0.0 
1.343766031737e-03 1.498916082580e-02 0.0 
0.0 0.0 0.0 
5.451488212203e-04 3.500022354254e-03 0.0 
3.500022354254e-03 1.030777439883e-02 0.0 
0.0 0.0 0.0 
-2.719618637188e-03 1.984996550915e-03 0.0 
1.984996550915e-03 1.540376897716e-02 0.0 
0.0 0.0 0.0 
9.413966471112e-04 1.110763539703e-03 0.0 
1.110763539703e-03 6.451284184106e-03 0.0 
0.0 0.0 0.0 
3.985948279912e-03 -5.278052739223e-03 0.0 
-5.278052739223e-03 -5.006168586758e-03 0.0 
0.0 0.0 0.0 
8.051593030967e-04 -4.914361794215e-05 0.0 
-4.914361794215e-05 7.364482733418e-06 0.0 
0.0 0.0 0.0 
-4.902107023884e-04 4.043241635219e-03 0.0 
4.043241635219e-03 1.390171236987e-02 0.0 
0.0 0.0 0.0 
-2.361502146587e-04 -6.564427752873e-05 0.0 
-6.564427752873e-05 6.085456455689e-03 0.0 
0.0 0.0 0.0 
4.018015015985e-04 5.272506206305e-05 0.0 
5.272506206305e-05 6.311958859414e-03 0.0 
0.0 0.0 0.0 
5.171021225636e-05 -4.179997940156e-05 0.0 
-4.179997940156e-05 7.124699845359e-03 0.0 
0.0 0.0 0.0 
5.061707496656e-05 -1.777275361230e-04 0.0 
-1.777275361230e-04 7.116318515547e-03 0.0 
0.0 0.0 0.0 
7.107920808227e-04 2.319832445308e-03 0.0 
2.319832445308e-03 8.249595622441e-03 0.0 
0.0 0.0 0.0 
-1.693943136996e-03 -2.676305161663e-05 0.0 
-2.676305161663e-05 1.480920425818e-02 0.0 
0.0 0.0 0.0 
-1.648949033579e-03 7.314318528655e-05 0.0 
7.314318528655e-05 1.482527300872e-02 0.0 
0.0 0.0 0.0 
-1.767299466442e-03 3.503589734624e-03 0.0 
3.503589734624e-03 9.739582962419e-03 0.0 
0.0 0.0 0.0 
4.121041857994e-04 4.376377006521e-04 0.0 
4.376377006521e-04 6.398643934542e-03 0.0 
0.0 0.0 0.0 
-1.292409043161e-03 3.627164959082e-03 0.0 
3.627164959082e-03 3.975049869766e-03 0.0 
0.0 0.0 0.0 
-3.078845976292e-03 1.443197054071e-03 0.0 
1.443197054071e-03 1.489653657076e-02 0.0 
0.0 0.0 0.0 
-7.544294856763e-04 1.322909189837e-04 0.0 
1.322909189837e-04 1.723138341720e-02 0.0 
0.0 0.0 0.0 
-1.328445920264e-03 5.072613535426e-03 0.0 
5.072613535426e-03 4.106792040677e-03 0.0 
0.0 0.0 0.0 
3.972816195618e-03 -5.404207926801e-03 0.0 
-5.404207926801e-03 -5.853898924494e-03 0.0 
0.0 0.0 0.0 
-5.224770434937e-04 2.364358086537e-04 0.0 
2.364358086537e-04 1.723826227283e-02 0.0 
0.0 0.0 0.0 
1.524477448798e-03 -4.937739314945e-03 0.0 
-4.937739314945e-03 -2.569476267695e-03 0.0 
0.0 0.0 0.0 
-2.517836596320e-03 6.613052328057e-04 0.0 
6.613052328057e-04 1.553146974930e-02 0.0 
0.0 0.0 0.0 
-1.664397447913e-03 3.447233935821e-03 0.0 
3.447233935821e-03 8.904222366297e-03 0.0 
0.0 0.0 0.0 
1.372747084205e-05 -3.620861545448e-05 0.0 
-3.620861545448e-05 1.907682501458e-03 0.0 
0.0 0.0 0.0 
4.851246348278e-03 -4.509415350747e-03 0.0 
-4.509415350747e-03 -6.022019535069e-03 0.0 
0.0 0.0 0.0 
-1.528321379898e-03 3.300777310907e-03 0.0 
3.300777310907e-03 8.990084010229e-03 0.0 
0.0 0.0 0.0 
-4.661323804600e-04 3.255163099346e-03 0.0 
3.255163099346e-03 1.537124668816e-02 0.0 
0.0 0.0 0.0 
-2.833489501378e-04 -1.720772421050e-04 0.0 
-1.720772421050e-04 2.619526526916e-03 0.0 
0.0 0.0 0.0 
-1.402147908073e-04 -7.293140962620e-05 0.0 
-7.293140962620e-05 2.009047639821e-03 0.0 
0.0 0.0 0.0 
-2.257510961632e-04 -5.862832713011e-05 0.0 
-5.862832713011e-05 6.085647620590e-03 0.0 
0.0 0.0 0.0 
3.859875847501e-04 -8.014563106058e-05 0.0 
-8.014563106058e-05 9.423743552497e-04 0.0 
0.0 0.0 0.0 
-4.131986419487e-04 5.671086415672e-04 0.0 
5.671086415672e-04 1.738825195382e-02 0.0 
0.0 0.0 0.0 
9.110926395992e-04 -3.042233847217e-03 0.0 
-3.042233847217e-03 -4.194514027978e-03 0.0 
0.0 0.0 0.0 
8.746945512224e-04 2.938643271215e-03 0.0 
2.938643271215e-03 8.837742830953e-03 0.0 
0.0 0.0 0.0 
-7.990919533366e-04 3.560702413242e-03 0.0 
3.560702413242e-03 5.386774611681e-03 0.0 
0.0 0.0 0.0 
4.868108158762e-03 -4.758476858387e-03 0.0 
-4.758476858387e-03 -5.082395981240e-03 0.0 
0.0 0.0 0.0 
-5.590340665074e-05 -1.468902524384e-04 0.0 
-1.468902524384e-04 6.931214640801e-03 0.0 
0.0 0.0 0.0 
-1.484759329589e-03 3.160002242663e-03 0.0 
3.160002242663e-03 8.289367730371e-03 0.0 
0.0 0.0 0.0 
2.319877554632e-03 -1.306702662257e-03 0.0 
-1.306702662257e-03 -6.190628895166e-03 0.0 
0.0 0.0 0.0 
-4.149881380999e-04 4.136727206400e-03 0.0 
4.136727206400e-03 1.342279818342e-02 0.0 
0.0 0.0 0.0 
-3.881523255246e-04 -1.288827899893e-03 0.0 
-1.288827899893e-03 7.482363951734e-04 0.0 
0.0 0.0 0.0 
2.410258805370e-04 3.968519323988e-03 0.0 
3.968519323988e-03 1.144087879111e-02 0.0 
0.0 0.0 0.0 
-2.933493290638e-04 -2.583136784133e-04 0.0 
-2.583136784133e-04 5.282408417231e-03 0.0 
0.0 0.0 0.0 
0.0 2.231288922213e-03 0.0 
2.231288922213e-03 1.681654240769e-02 0.0 
0.0 0.0 0.0 
5.221665418249e-04 3.317630723740e-03 0.0 
3.317630723740e-03 9.769033287323e-03 0.0 
0.0 0.0 0.0 
7.153199037984e-04 -8.363719030652e-06 0.0 
-8.363719030652e-06 1.881293771013e-04 0.0 
0.0 0.0 0.0 
-3.688278920276e-04 -1.762535004952e-04 0.0 
-1.762535004952e-04 2.750726261673e-03 0.0 
0.0 0.0 0.0 
-8.226736909498e-04 1.624761351954e-03 0.0 
1.624761351954e-03 1.708180679707e-02 0.0 
0.0 0.0 0.0 
-7.654398905083e-04 3.548442630219e-03 0.0 
3.548442630219e-03 1.511052997396e-02 0.0 
0.0 0.0 0.0 
-6.881920343836e-04 6.293481363320e-03 0.0 
6.293481363320e-03 2.221327685759e-03 0.0 
0.0 0.0 0.0 
1.592313544529e-04 -6.329370302479e-05 0.0 
-6.329370302479e-05 1.037676159973e-03 0.0 
0.0 0.0 0.0 
-1.049531348690e-03 5.808939928302e-03 0.0 
5.808939928302e-03 2.200956106023e-03 0.0 
0.0 0.0 0.0 
-7.274855003050e-04 -1.796224942067e-03 0.0 
-1.796224942067e-03 8.283872067301e-04 0.0 
0.0 0.0 0.0 
-2.064649536452e-03 1.952326213384e-04 0.0 
1.952326213384e-04 1.525916213547e-02 0.0 
0.0 0.0 0.0 
-1.609282698904e-03 3.332748066961e-03 0.0 
3.332748066961e-03 7.410383371862e-03 0.0 
0.0 0.0 0.0 
-1.466294268991e-03 2.954097975526e-03 0.0 
2.954097975526e-03 6.951905383285e-03 0.0 
0.0 0.0 0.0 
-1.977127633738e-03 1.915524035734e-04 0.0 
1.915524035734e-04 1.551161845981e-02 0.0 
0.0 0.0 0.0 
-1.799533694599e-03 1.955939909712e-04 0.0 
1.955939909712e-04 1.551157276497e-02 0.0 
0.0 0.0 0.0 
-3.010808942864e-04 -1.593888245336e-04 0.0 
-1.593888245336e-04 5.497891283054e-03 0.0 
0.0 0.0 0.0 
-2.645592819031e-04 2.615832429290e-06 0.0 
2.615832429290e-06 5.940440661708e-03 0.0 
0.0 0.0 0.0 
-9.758195425791e-04 3.716695392065e-03 0.0 
3.716695392065e-03 1.256231997652e-02 0.0 
0.0 0.0 0.0 
-2.023933595706e-03 1.591968849094e-04 0.0 
1.591968849094e-04 1.529242674457e-02 0.0 
0.0 0.0 0.0 
4.102749526815e-04 -1.381385785008e-04 0.0 
-1.381385785008e-04 2.201830483359e-04 0.0 
0.0 0.0 0.0 
-2.935688558740e-03 1.571983930573e-03 0.0 
1.571983930573e-03 1.506395353718e-02 0.0 
0.0 0.0 0.0 
-1.171759303454e-03 1.418435153281e-04 0.0 
1.418435153281e-04 1.661505482073e-02 0.0 
0.0 0.0 0.0 
-1.294404774160e-03 2.270698070573e-04 0.0 
2.270698070573e-04 1.657609759906e-02 0.0 
0.0 0.0 0.0 
-5.241016770249e-04 2.478187297755e-03 0.0 
2.478187297755e-03 1.670597011136e-02 0.0 
0.0 0.0 0.0 
3.056279874543e-04 2.531476345633e-03 0.0 
2.531476345633e-03 8.932925352658e-03 0.0 
0.0 0.0 0.0 
-2.284509817051e-03 2.874020343247e-04 0.0 
2.874020343247e-04 1.531635129042e-02 0.0 
0.0 0.0 0.0 
6.025930207714e-04 3.446645094064e-04 0.0 
3.446645094064e-04 6.440350270155e-03 0.0 
0.0 0.0 0.0 
-1.492833079564e-03 9.583876635016e-06 0.0 
9.583876635016e-06 1.578051802290e-02 0.0 
0.0 0.0 0.0 
-1.296094755864e-03 3.492787972092e-03 0.0 
3.492787972092e-03 6.096673233713e-03 0.0 
0.0 0.0 0.0 
-1.847833893324e-03 8.989708189973e-05 0.0 
8.989708189973e-05 1.505602929955e-02 0.0 
0.0 0.0 0.0 
-5.127732060362e-05 -7.129754697081e-05 0.0 
-7.129754697081e-05 7.146864314520e-03 0.0 
0.0 0.0 0.0 
2.226074241658e-03 2.764612369211e-03 0.0 
2.764612369211e-03 6.031414533030e-03 0.0 
0.0 0.0 0.0 
8.055457164267e-04 2.812268679813e-03 0.0 
2.812268679813e-03 8.858279357969e-03 0.0 
0.0 0.0 0.0 
3.797598980142e-04 4.922904396541e-03 0.0 
4.922904396541e-03 2.967188087966e-03 0.0 
0.0 0.0 0.0 
1.487172190167e-03 -6.127281412938e-03 0.0 
-6.127281412938e-03 -3.551878978586e-03 0.0 
0.0 0.0 0.0 
-1.513354633280e-04 -1.019296673989e-04 0.0 
-1.019296673989e-04 6.622943698869e-03 0.0 
0.0 0.0 0.0 
-1.133816893745e-03 2.731422137779e-04 0.0 
2.731422137779e-04 1.684422996556e-02 0.0 
0.0 0.0 0.0 
8.605126994383e-04 -6.016070667960e-03 0.0 
-6.016070667960e-03 -3.653794925651e-03 0.0 
0.0 0.0 0.0 
3.310259897993e-05 -1.333953818824e-04 0.0 
-1.333953818824e-04 6.923037481224e-03 0.0 
0.0 0.0 0.0 
-8.066890480700e-04 3.687513757172e-03 0.0 
3.687513757172e-03 1.189206657439e-02 0.0 
0.0 0.0 0.0 
8.642256629434e-04 1.976715916028e-05 0.0 
1.976715916028e-05 -4.901677047631e-05 0.0 
0.0 0.0 0.0 
1.811777017325e-03 4.492137915426e-03 0.0 
4.492137915426e-03 2.198990411030e-03 0.0 
0.0 0.0 0.0 
-2.796019711737e-03 3.124924393158e-03 0.0 
3.124924393158e-03 1.317438696585e-02 0.0 
0.0 0.0 0.0 
-4.548360324850e-04 -3.435989597675e-04 0.0 
-3.435989597675e-04 3.303240273001e-03 0.0 
0.0 0.0 0.0 
-1.067131468800e-03 3.349565083346e-03 0.0 
3.349565083346e-03 5.241940655969e-03 0.0 
0.0 0.0 0.0 
-8.656738149909e-04 3.644342192548e-03 0.0 
3.644342192548e-03 5.380600897950e-03 0.0 
0.0 0.0 0.0 
2.694641767627e-04 7.266456861349e-05 0.0 
7.266456861349e-05 6.598893629769e-03 0.0 
0.0 0.0 0.0 
-1.529947961044e-03 7.771684305722e-05 0.0 
7.771684305722e-05 1.566513117438e-02 0.0 
0.0 0.0 0.0 
-6.035981443112e-04 3.729736543143e-03 0.0 
3.729736543143e-03 4.365101499853e-03 0.0 
0.0 0.0 0.0 
-1.396278981706e-04 -5.263394005448e-04 0.0 
-5.263394005448e-04 1.101259608326e-03 0.0 
0.0 0.0 0.0 
-3.014083963590e-03 1.936649468171e-03 0.0 
1.936649468171e-03 1.451865158664e-02 0.0 
0.0 0.0 0.0 
-9.621193463072e-04 1.950319754637e-04 0.0 
1.950319754637e-04 1.685418640569e-02 0.0 
0.0 0.0 0.0 
-1.761504103938e-04 4.589288093741e-03 0.0 
4.589288093741e-03 4.323562576962e-03 0.0 
0.0 0.0 0.0 
6.388836775817e-04 9.801004764075e-03 0.0 
9.801004764075e-03 -1.738628640694e-04 0.0 
0.0 0.0 0.0 
-2.097961888603e-03 3.612196094545e-03 0.0 
3.612196094545e-03 1.140949679937e-02 0.0 
0.0 0.0 0.0 
-4.349031205639e-04 -3.134035843750e-04 0.0 
-3.134035843750e-04 3.247185363866e-03 0.0 
0.0 0.0 0.0 
-1.916085726442e-03 3.569550692150e-03 0.0 
3.569550692150e-03 1.058702837081e-02 0.0 
0.0 0.0 0.0 
-4.451772664090e-04 1.882491292115e-03 0.0 
1.882491292115e-03 1.696569923908e-02 0.0 
0.0 0.0 0.0 
1.335512390880e-03 9.497078604663e-03 0.0 
9.497078604663e-03 -2.790749052968e-03 0.0 
0.0 0.0 0.0 
-3.109318151973e-04 -2.103024880693e-04 0.0 
-2.103024880693e-04 5.152813744649e-03 0.0 
0.0 0.0 0.0 
-5.127163368830e-04 4.120326448840e-04 0.0 
4.120326448840e-04 1.734063456982e-02 0.0 
0.0 0.0 0.0 
-1.249775967062e-03 3.505736772062e-03 0.0 
3.505736772062e-03 7.998660466373e-03 0.0 
0.0 0.0 0.0 
-1.898608957982e-03 3.582487849963e-03 0.0 
3.582487849963e-03 1.058077104979e-02 0.0 
0.0 0.0 0.0 
5.521388698955e-04 1.761053235362e-04 0.0 
1.761053235362e-04 6.314423178778e-03 0.0 
0.0 0.0 0.0 
-9.644890989113e-05 -9.933884360585e-05 0.0 
-9.933884360585e-05 7.038070815299e-03 0.0 
0.0 0.0 0.0 
-2.638820019469e-04 -1.697235777804e-04 0.0 
-1.697235777804e-04 5.497604596915e-03 0.0 
0.0 0.0 0.0 
-1.437017726713e-03 3.521606550094e-03 0.0 
3.521606550094e-03 8.826306036569e-03 0.0 
0.0 0.0 0.0 
8.117108571262e-04 1.108204154779e-03 0.0 
1.108204154779e-03 6.772210135937e-03 0.0 
0.0 0.0 0.0 
-1.566327316085e-03 3.380548722185e-03 0.0 
3.380548722185e-03 8.596340157484e-03 0.0 
0.0 0.0 0.0 
-4.258297083647e-04 1.225071352449e-03 0.0 
1.225071352449e-03 1.723874761775e-02 0.0 
0.0 0.0 0.0 
2.960749717826e-04 4.221597972663e-03 0.0 
4.221597972663e-03 1.168789800601e-02 0.0 
0.0 0.0 0.0 
-2.690529634727e-03 1.010029728122e-03 0.0 
1.010029728122e-03 1.567397876601e-02 0.0 
0.0 0.0 0.0 
-1.453277026911e-03 2.929032041525e-04 0.0 
2.929032041525e-04 1.625971057294e-02 0.0 
0.0 0.0 0.0 
-1.631036437771e-03 3.416550467659e-03 0.0 
3.416550467659e-03 8.594855733757e-03 0.0 
0.0 0.0 0.0 
-1.675513274832e-03 3.457909926580e-03 0.0 
3.457909926580e-03 9.751297197092e-03 0.0 
0.0 0.0 0.0 
-1.050360121187e-03 3.606437074759e-03 0.0 
3.606437074759e-03 8.217654991946e-03 0.0 
0.0 0.0 0.0 
8.367577603612e-04 4.781326499445e-03 0.0 
4.781326499445e-03 3.146964824151e-03 0.0 
0.0 0.0 0.0 
-1.732252741676e-03 3.846059210250e-05 0.0 
3.846059210250e-05 1.508438130455e-02 0.0 
0.0 0.0 0.0 
2.413907633710e-03 4.300680525423e-03 0.0 
4.300680525423e-03 2.220199501148e-03 0.0 
0.0 0.0 0.0 
5.473394605444e-04 2.440213554007e-05 0.0 
2.440213554007e-05 1.374818213795e-04 0.0 
0.0 0.0 0.0 
-1.599990019331e-03 2.724268022059e-05 0.0 
2.724268022059e-05 1.536176401480e-02 0.0 
0.0 0.0 0.0 
2.134987828297e-04 -3.478356012937e-05 0.0 
-3.478356012937e-05 1.057436474492e-03 0.0 
0.0 0.0 0.0 
-2.393313210872e-03 3.509898201702e-03 0.0 
3.509898201702e-03 1.226575217716e-02 0.0 
0.0 0.0 0.0 
4.688041738548e-04 8.920475133226e-04 0.0 
8.920475133226e-04 6.638005271917e-03 0.0 
0.0 0.0 0.0 
5.759345003531e-05 4.832291308858e-03 0.0 
4.832291308858e-03 2.974323426677e-03 0.0 
0.0 0.0 0.0 
-2.756541695527e-04 -7.629438391445e-05 0.0 
-7.629438391445e-05 5.723757525985e-03 0.0 
0.0 0.0 0.0 
-1.536629143643e-03 3.520990349221e-03 0.0 
3.520990349221e-03 4.950447395156e-03 0.0 
0.0 0.0 0.0 
2.185095912500e-03 2.921292990640e-03 0.0 
2.921292990640e-03 6.017332776726e-03 0.0 
0.0 0.0 0.0 
-1.632179233399e-03 2.973621449093e-05 0.0 
2.973621449093e-05 1.509826860806e-02 0.0 
0.0 0.0 0.0 
2.566986224409e-03 4.568347168460e-03 0.0 
4.568347168460e-03 6.882548315612e-04 0.0 
0.0 0.0 0.0 
-2.015455828246e-04 -1.225301051504e-04 0.0 
-1.225301051504e-04 6.233466375489e-03 0.0 
0.0 0.0 0.0 
-6.431293308342e-04 -8.692090296221e-04 0.0 
-8.692090296221e-04 1.170538023572e-03 0.0 
0.0 0.0 0.0 
-1.277211588077e-04 -6.475067818003e-05 0.0 
-6.475067818003e-05 6.618948912092e-03 0.0 
0.0 0.0 0.0 
-2.235654717094e-03 3.152261032849e-03 0.0 
3.152261032849e-03 1.179586736919e-02 0.0 
0.0 0.0 0.0 
1.835578042231e-06 -1.472268953777e-04 0.0 
-1.472268953777e-04 6.953170283331e-03 0.0 
0.0 0.0 0.0 
-1.598712489041e-03 1.966087729914e-05 0.0 
1.966087729914e-05 1.506950880504e-02 0.0 
0.0 0.0 0.0 
9.616402449044e-04 4.876428380104e-03 0.0 
4.876428380104e-03 1.781925912428e-03 0.0 
0.0 0.0 0.0 
-2.884938145071e-03 3.411970185614e-03 0.0 
3.411970185614e-03 1.232199511048e-02 0.0 
0.0 0.0 0.0 
-4.100161622442e-04 -1.176115656386e-04 0.0 
-1.176115656386e-04 4.956904135755e-03 0.0 
0.0 0.0 0.0 
-1.348162467759e-03 3.261048115979e-03 0.0 
3.261048115979e-03 4.874113435966e-03 0.0 
0.0 0.0 0.0 
3.380011581446e-03 4.281498363852e-03 0.0 
4.281498363852e-03 7.234039170314e-04 0.0 
0.0 0.0 0.0 
-1.439200130581e-03 2.322497919602e-04 0.0 
2.322497919602e-04 1.642293229148e-02 0.0 
0.0 0.0 0.0 
-1.650251029032e-03 5.248333079334e-05 0.0 
5.248333079334e-05 1.507720755513e-02 0.0 
0.0 0.0 0.0 
1.425110033515e-03 4.702528847097e-03 0.0 
4.702528847097e-03 1.912493320973e-03 0.0 
0.0 0.0 0.0 
-2.319390526185e-03 3.570675152781e-03 0.0 
3.570675152781e-03 1.143438332201e-02 0.0 
0.0 0.0 0.0 
5.987977336597e-05 4.039830863764e-03 0.0 
4.039830863764e-03 1.050615511152e-02 0.0 
0.0 0.0 0.0 
-4.561489503936e-04 -3.883029293440e-04 0.0 
-3.883029293440e-04 3.557023479694e-03 0.0 
0.0 0.0 0.0 
3.218984561684e-04 3.286594213006e-03 0.0 
3.286594213006e-03 1.012492973262e-02 0.0 
0.0 0.0 0.0 
5.585277440321e-04 4.038049733002e-03 0.0 
4.038049733002e-03 1.127289027466e-02 0.0 
0.0 0.0 0.0 
-1.495126179136e-03 3.332255205150e-03 0.0 
3.332255205150e-03 5.935199031869e-03 0.0 
0.0 0.0 0.0 
-4.693823658644e-04 -3.098447106062e-04 0.0 
-3.098447106062e-04 3.661131228689e-03 0.0 
0.0 0.0 0.0 
1.457356953709e-03 1.355524915353e-03 0.0 
1.355524915353e-03 6.066021371365e-03 0.0 
0.0 0.0 0.0 
-1.885484790667e-03 3.314877754407e-03 0.0 
3.314877754407e-03 9.159071560643e-03 0.0 
0.0 0.0 0.0 
-1.349855208650e-03 3.141741770101e-03 0.0 
3.141741770101e-03 5.118133496101e-03 0.0 
0.0 0.0 0.0 
-2.750586334504e-03 2.946908304235e-03 0.0 
2.946908304235e-03 1.248564085022e-02 0.0 
0.0 0.0 0.0 
1.288936856974e-03 4.596093584059e-03 0.0 
4.596093584059e-03 3.357558846814e-03 0.0 
0.0 0.0 0.0 
-3.719891185273e-04 8.797842881850e-04 0.0 
8.797842881850e-04 1.731057019373e-02 0.0 
0.0 0.0 0.0 
-1.166484445468e-03 3.441286403054e-03 0.0 
3.441286403054e-03 1.309563045684e-02 0.0 
0.0 0.0 0.0 
-1.760182066044e-04 -3.265215207425e-05 0.0 
-3.265215207425e-05 6.461799513095e-03 0.0 
0.0 0.0 0.0 
-1.091005976817e-03 5.562044699521e-03 0.0 
5.562044699521e-03 3.202384959605e-03 0.0 
0.0 0.0 0.0 
4.692092938791e-03 4.327894232204e-03 0.0 
4.327894232204e-03 -9.938355114699e-04 0.0 
0.0 0.0 0.0 
-8.497879726026e-04 3.639916777092e-03 0.0 
3.639916777092e-03 1.257993155804e-02 0.0 
0.0 0.0 0.0 
-2.311798332817e-03 2.499679776098e-03 0.0 
2.499679776098e-03 -2.344097345779e-03 0.0 
0.0 0.0 0.0 
-1.837320197885e-03 3.268840287530e-03 0.0 
3.268840287530e-03 9.159945456126e-03 0.0 
0.0 0.0 0.0 
1.803384487233e-03 6.613292147754e-04 0.0 
6.613292147754e-04 4.534454588910e-03 0.0 
0.0 0.0 0.0 
6.239640399723e-04 -4.858392979611e-05 0.0 
-4.858392979611e-05 5.137566876323e-04 0.0 
0.0 0.0 0.0 
-5.309485343805e-04 3.666212216173e-03 0.0 
3.666212216173e-03 1.453707019450e-02 0.0 
0.0 0.0 0.0 
-2.071945139890e-03 2.603671859124e-03 0.0 
2.603671859124e-03 1.462362382091e-02 0.0 
0.0 0.0 0.0 
2.015127955142e-04 -1.583409927278e-03 0.0 
-1.583409927278e-03 2.096451890178e-03 0.0 
0.0 0.0 0.0 
2.075825910302e-03 9.042399186530e-04 0.0 
9.042399186530e-04 4.517623127715e-03 0.0 
0.0 0.0 0.0 
-2.971570512695e-03 2.048438729500e-03 0.0 
2.048438729500e-03 1.486940424731e-02 0.0 
0.0 0.0 0.0 
-2.822458569585e-03 1.546667675440e-03 0.0 
1.546667675440e-03 1.560655540899e-02 0.0 
0.0 0.0 0.0 
7.613238616773e-04 9.650590227901e-04 0.0 
9.650590227901e-04 6.416286559469e-03 0.0 
0.0 0.0 0.0 
-4.851180191389e-04 -1.286875968815e-03 0.0 
-1.286875968815e-03 2.171952844743e-03 0.0 
0.0 0.0 0.0 
-6.837628333453e-04 3.707884992974e-03 0.0 
3.707884992974e-03 7.585428017307e-03 0.0 
0.0 0.0 0.0 
-1.822282193136e-03 3.310881919115e-03 0.0 
3.310881919115e-03 1.119270496676e-02 0.0 
0.0 0.0 0.0 
-2.197774397338e-03 2.611556988698e-03 0.0 
2.611556988698e-03 1.509894904613e-02 0.0 
0.0 0.0 0.0 
-2.326324056476e-03 3.069455144938e-03 0.0 
3.069455144938e-03 1.252124467797e-02 0.0 
0.0 0.0 0.0 
-2.614105806684e-03 3.061245928714e-03 0.0 
3.061245928714e-03 1.248628899091e-02 0.0 
0.0 0.0 0.0 
3.531179888638e-03 2.702712858957e-03 0.0 
2.702712858957e-03 3.642871112185e-03 0.0 
0.0 0.0 0.0 
-3.154768577068e-04 3.909256758724e-03 0.0 
3.909256758724e-03 1.097035328169e-02 0.0 
0.0 0.0 0.0 
9.858754097278e-04 2.816235496565e-03 0.0 
2.816235496565e-03 -4.725597743509e-03 0.0 
0.0 0.0 0.0 
-1.299637564824e-03 3.200117384491e-03 0.0 
3.200117384491e-03 5.918290855476e-03 0.0 
0.0 0.0 0.0 
-1.166433099609e-03 3.367015716911e-03 0.0 
3.367015716911e-03 6.116307516443e-03 0.0 
0.0 0.0 0.0 
-1.082173085146e-03 3.625346427542e-03 0.0 
3.625346427542e-03 8.215230297645e-03 0.0 
0.0 0.0 0.0 
-1.317055019556e-03 3.443222616305e-03 0.0 
3.443222616305e-03 1.371763526861e-02 0.0 
0.0 0.0 0.0 
4.935376292538e-03 4.835550301747e-03 0.0 
4.835550301747e-03 -6.995034492198e-03 0.0 
0.0 0.0 0.0 
1.765989308509e-03 2.738503731167e-04 0.0 
2.738503731167e-04 3.956898256315e-03 0.0 
0.0 0.0 0.0 
-1.687533493155e-03 5.198546101342e-06 0.0 
5.198546101342e-06 1.505500083497e-02 0.0 
0.0 0.0 0.0 
3.508762191242e-03 4.624654970056e-03 0.0 
4.624654970056e-03 -1.029757620051e-03 0.0 
0.0 0.0 0.0 
1.506471523073e-03 -1.398227242345e-04 0.0 
-1.398227242345e-04 3.612095568954e-03 0.0 
0.0 0.0 0.0 
6.893953316058e-04 2.627664771639e-05 0.0 
2.627664771639e-05 1.907838422703e-04 0.0 
0.0 0.0 0.0 
-1.770951344929e-03 2.786423262703e-03 0.0 
2.786423262703e-03 1.469536893093e-02 0.0 
0.0 0.0 0.0 
9.767496373660e-04 -7.413721566118e-05 0.0 
-7.413721566118e-05 -3.559430962119e-05 0.0 
0.0 0.0 0.0 
3.561208882339e-04 -1.809848935358e-05 0.0 
-1.809848935358e-05 6.092564211069e-04 0.0 
0.0 0.0 0.0 
-1.183252703532e-03 5.244440880129e-03 0.0 
5.244440880129e-03 3.186375666145e-03 0.0 
0.0 0.0 0.0 
-5.979646366299e-04 -1.178419182589e-03 0.0 
-1.178419182589e-03 1.943023871192e-03 0.0 
0.0 0.0 0.0 
-1.877783431331e-03 2.773808392078e-03 0.0 
2.773808392078e-03 1.517556859384e-02 0.0 
0.0 0.0 0.0 
-4.810588170499e-04 -1.215914555278e-03 0.0 
-1.215914555278e-03 1.643296480943e-03 0.0 
0.0 0.0 0.0 
3.623267672830e-04 5.743879886521e-03 0.0 
5.743879886521e-03 4.203959139377e-04 0.0 
0.0 0.0 0.0 
9.348190650720e-04 -3.361159395449e-03 0.0 
-3.361159395449e-03 -2.451374159135e-03 0.0 
0.0 0.0 0.0 
-5.826952982575e-04 -7.314549162202e-04 0.0 
-7.314549162202e-04 1.337416289732e-03 0.0 
0.0 0.0 0.0 
1.836870589690e-03 1.191751255627e-03 0.0 
1.191751255627e-03 5.223023919660e-03 0.0 
0.0 0.0 0.0 
-2.208093309770e-03 3.207056001430e-03 0.0 
3.207056001430e-03 1.179372914040e-02 0.0 
0.0 0.0 0.0 
-3.111757513763e-05 -9.547889346260e-05 0.0 
-9.547889346260e-05 6.934029326357e-03 0.0 
0.0 0.0 0.0 
1.066332836273e-03 7.651945159729e-04 0.0 
7.651945159729e-04 -5.330348766199e-03 0.0 
0.0 0.0 0.0 
1.056669490481e-03 5.529423934561e-03 0.0 
5.529423934561e-03 1.828752641830e-04 0.0 
0.0 0.0 0.0 
3.935086290091e-03 4.210015586243e-03 0.0 
4.210015586243e-03 -6.275860948811e-04 0.0 
0.0 0.0 0.0 
-1.665213654714e-03 3.239379371337e-03 0.0 
3.239379371337e-03 8.320573691970e-03 0.0 
0.0 0.0 0.0 
2.140735767341e-03 5.332337025252e-04 0.0 
5.332337025252e-04 3.938663096609e-03 0.0 
0.0 0.0 0.0 
6.356647633199e-05 -1.115374307938e-04 0.0 
-1.115374307938e-04 6.932522378994e-03 0.0 
0.0 0.0 0.0 
-1.600169495511e-03 3.322800219932e-03 0.0 
3.322800219932e-03 1.359293287348e-02 0.0 
0.0 0.0 0.0 
5.573561854933e-03 4.436271930330e-03 0.0 
4.436271930330e-03 -3.441753265672e-03 0.0 
0.0 0.0 0.0 
1.673557657849e-03 1.032727642453e-03 0.0 
1.032727642453e-03 5.224119984115e-03 0.0 
0.0 0.0 0.0 
-3.292468580027e-04 -9.247835265400e-05 0.0 
-9.247835265400e-05 5.351874821779e-03 0.0 
0.0 0.0 0.0 
-1.223880282489e-03 3.601590953399e-03 0.0 
3.601590953399e-03 9.036919461311e-03 0.0 
0.0 0.0 0.0 
-1.790177026098e-03 2.934343680944e-03 0.0 
2.934343680944e-03 1.412870035043e-02 0.0 
0.0 0.0 0.0 
5.252115705294e-04 3.002560368943e-03 0.0 
3.002560368943e-03 9.442087914139e-03 0.0 
0.0 0.0 0.0 
4.972436256399e-03 3.827529329562e-03 0.0 
3.827529329562e-03 -5.769741058215e-04 0.0 
0.0 0.0 0.0 
2.998688328673e-04 5.507488974616e-03 0.0 
5.507488974616e-03 1.755215674897e-03 0.0 
0.0 0.0 0.0 
-2.034938673628e-03 3.197676725272e-03 0.0 
3.197676725272e-03 1.264346299464e-02 0.0 
0.0 0.0 0.0 
-4.066245055552e-04 2.221253630097e-03 0.0 
2.221253630097e-03 1.689258459846e-02 0.0 
0.0 0.0 0.0 
-6.995439936107e-04 3.692872381238e-03 0.0 
3.692872381238e-03 7.587382571467e-03 0.0 
0.0 0.0 0.0 
5.837521028735e-03 2.641724491504e-03 0.0 
2.641724491504e-03 -1.487832659623e-04 0.0 
0.0 0.0 0.0 
-1.635618274293e-03 6.484786221703e-05 0.0 
6.484786221703e-05 1.544766574783e-02 0.0 
0.0 0.0 0.0 
-3.355346195280e-04 -1.884424225038e-03 0.0 
-1.884424225038e-03 1.298649567276e-04 0.0 
0.0 0.0 0.0 
-2.215572404858e-03 2.969978155672e-03 0.0 
2.969978155672e-03 1.253625580737e-02 0.0 
0.0 0.0 0.0 
4.487683082922e-03 5.414851841949e-03 0.0 
5.414851841949e-03 -3.583187562803e-03 0.0 
0.0 0.0 0.0 
5.471113082054e-03 4.423718126710e-03 0.0 
4.423718126710e-03 -6.894223227151e-03 0.0 
0.0 0.0 0.0 
4.962868171610e-03 -4.965999926808e-03 0.0 
-4.965999926808e-03 -6.865355058846e-03 0.0 
0.0 0.0 0.0 
-1.705043371378e-03 2.635100776353e-03 0.0 
2.635100776353e-03 1.519271677681e-02 0.0 
0.0 0.0 0.0 
-1.950413147641e-03 3.273210800313e-03 0.0 
3.273210800313e-03 1.191268888842e-02 0.0 
0.0 0.0 0.0 
3.673891194489e-04 4.572747780810e-03 0.0 
4.572747780810e-03 3.183534494708e-03 0.0 
0.0 0.0 0.0 
-1.792842327223e-03 2.617712204167e-03 0.0 
2.617712204167e-03 1.562076520370e-02 0.0 
0.0 0.0 0.0 
-1.283087351365e-03 3.518689122803e-03 0.0 
3.518689122803e-03 1.308108469540e-02 0.0 
0.0 0.0 0.0 
-1.359836261219e-03 3.565019132640e-03 0.0 
3.565019132640e-03 9.827700863945e-03 0.0 
0.0 0.0 0.0 
1.225737955965e-04 -4.977921149768e-05 0.0 
-4.977921149768e-05 6.770170522612e-03 0.0 
0.0 0.0 0.0 
5.445993505470e-03 2.390223124762e-03 0.0 
2.390223124762e-03 -2.232102473798e-05 0.0 
0.0 0.0 0.0 
-1.487585475381e-03 3.508825888393e-03 0.0 
3.508825888393e-03 1.059814959618e-02 0.0 
0.0 0.0 0.0 
1.643670340019e-03 4.333436820304e-03 0.0 
4.333436820304e-03 3.668475149265e-03 0.0 
0.0 0.0 0.0 
5.009610536347e-03 2.526508623444e-03 0.0 
2.526508623444e-03 1.129838758363e-03 0.0 
0.0 0.0 0.0 
6.241679295074e-03 3.877720033577e-03 0.0 
3.877720033577e-03 -6.738482239787e-03 0.0 
0.0 0.0 0.0 
-2.837713480805e-03 1.023128688611e-03 0.0 
1.023128688611e-03 1.539188448338e-02 0.0 
0.0 0.0 0.0 
6.391504096733e-03 3.064814259487e-03 0.0 
3.064814259487e-03 -1.839794638803e-03 0.0 
0.0 0.0 0.0 
5.882518016127e-03 -2.543260277003e-03 0.0 
-2.543260277003e-03 -5.424878177012e-03 0.0 
0.0 0.0 0.0 
-1.483101953882e-03 3.217314084470e-03 0.0 
3.217314084470e-03 1.361186804986e-02 0.0 
0.0 0.0 0.0 
-3.258780062506e-03 2.676182804558e-04 0.0 
2.676182804558e-04 -3.564939331521e-03 0.0 
0.0 0.0 0.0 
-2.391227033682e-03 2.977668952329e-03 0.0 
2.977668952329e-03 1.324462717186e-02 0.0 
0.0 0.0 0.0 
6.028219339911e-03 4.275670671965e-03 0.0 
4.275670671965e-03 -4.906760833430e-03 0.0 
0.0 0.0 0.0 
2.037635553464e-03 5.811615144064e-03 0.0 
5.811615144064e-03 1.389330563901e-04 0.0 
0.0 0.0 0.0 
6.542135336496e-03 1.719465728168e-03 0.0 
1.719465728168e-03 -6.374396738521e-03 0.0 
0.0 0.0 0.0 
-1.626454488485e-03 3.316357852656e-03 0.0 
3.316357852656e-03 1.208095546351e-02 0.0 
0.0 0.0 0.0 
4.075178510430e-04 -1.608814713460e-04 0.0 
-1.608814713460e-04 5.662298269602e-04 0.0 
0.0 0.0 0.0 
-1.279755459026e-03 3.368433862548e-03 0.0 
3.368433862548e-03 6.952853788269e-03 0.0 
0.0 0.0 0.0 
4.406672191686e-03 2.236475768723e-03 0.0 
2.236475768723e-03 1.628446196137e-03 0.0 
0.0 0.0 0.0 
-1.878544414123e-03 3.205908674200e-03 0.0 
3.205908674200e-03 1.192380383887e-02 0.0 
0.0 0.0 0.0 
-2.860755875094e-03 1.553971869214e-03 0.0 
1.553971869214e-03 1.524910318770e-02 0.0 
0.0 0.0 0.0 
3.476252558911e-03 2.672586190458e-03 0.0 
2.672586190458e-03 -6.263266123976e-03 0.0 
0.0 0.0 0.0 
7.084989435118e-03 -1.470888324466e-03 0.0 
-1.470888324466e-03 -5.597255690612e-03 0.0 
0.0 0.0 0.0 
4.302181627592e-03 -3.286886988651e-03 0.0 
-3.286886988651e-03 -4.576836059805e-03 0.0 
0.0 0.0 0.0 
-1.566499442422e-03 3.316213974094e-03 0.0 
3.316213974094e-03 6.734872043316e-03 0.0 
0.0 0.0 0.0 
-1.919449652666e-03 3.080881967483e-03 0.0 
3.080881967483e-03 1.410237379948e-02 0.0 
0.0 0.0 0.0 
-1.398678243935e-03 3.450834836838e-03 0.0 
3.450834836838e-03 6.941187143461e-03 0.0 
0.0 0.0 0.0 
6.617712498671e-03 3.271462674947e-03 0.0 
3.271462674947e-03 -3.662027191282e-03 0.0 
0.0 0.0 0.0 
5.156468192645e-03 4.141982737453e-03 0.0 
4.141982737453e-03 -2.544845006057e-03 0.0 
0.0 0.0 0.0 
4.002005042542e-03 2.090875285523e-03 0.0 
2.090875285523e-03 -6.021955908625e-03 0.0 
0.0 0.0 0.0 
2.157191228104e-03 4.287469595774e-03 0.0 
4.287469595774e-03 2.502249383022e-03 0.0 
0.0 0.0 0.0 
6.093369167015e-04 6.965314938697e-03 0.0 
6.965314938697e-03 6.112759740557e-04 0.0 
0.0 0.0 0.0 
-4.386827421341e-04 3.708905986967e-03 0.0 
3.708905986967e-03 1.533959972932e-02 0.0 
0.0 0.0 0.0 
-3.397643073509e-04 4.137750965344e-03 0.0 
4.137750965344e-03 1.441958914172e-02 0.0 
0.0 0.0 0.0 
-3.027644612629e-04 3.773065239194e-03 0.0 
3.773065239194e-03 6.955264454720e-03 0.0 
0.0 0.0 0.0 
5.565159445609e-03 4.907978111396e-03 0.0 
4.907978111396e-03 -5.358724782521e-03 0.0 
0.0 0.0 0.0 
3.421001401554e-03 6.543591640084e-03 0.0 
6.543591640084e-03 -1.773011303994e-03 0.0 
0.0 0.0 0.0 
-1.100595164266e-03 3.607328235097e-03 0.0 
3.607328235097e-03 1.003117164357e-02 0.0 
0.0 0.0 0.0 
4.948092552160e-03 5.046248288086e-03 0.0 
5.046248288086e-03 -3.682706935755e-03 0.0 
0.0 0.0 0.0 
5.893434613817e-03 -2.736481460438e-03 0.0 
-2.736481460438e-03 -4.671864146888e-03 0.0 
0.0 0.0 0.0 
-1.197669800106e-03 3.574447420463e-03 0.0 
3.574447420463e-03 9.041538782636e-03 0.0 
0.0 0.0 0.0 
-7.685428933719e-04 1.362926565626e-03 0.0 
1.362926565626e-03 1.719653950089e-02 0.0 
0.0 0.0 0.0 
4.835219862532e-03 4.716366481238e-03 0.0 
4.716366481238e-03 -3.086607613394e-03 0.0 
0.0 0.0 0.0 
3.475963924356e-03 2.866410843739e-03 0.0 
2.866410843739e-03 3.623394136795e-03 0.0 
0.0 0.0 0.0 
1.183874937786e-03 6.693576131252e-03 0.0 
6.693576131252e-03 -1.326188082733e-03 0.0 
0.0 0.0 0.0 
4.470731726773e-04 1.695025568767e-03 0.0 
1.695025568767e-03 7.838158206188e-03 0.0 
0.0 0.0 0.0 
3.926738119086e-03 6.195004062883e-03 0.0 
6.195004062883e-03 -3.861578606788e-03 0.0 
0.0 0.0 0.0 
-8.336807231371e-04 3.686172025873e-03 0.0 
3.686172025873e-03 8.429469233834e-03 0.0 
0.0 0.0 0.0 
5.128990543686e-03 2.483175668866e-03 0.0 
2.483175668866e-03 -7.130957936136e-03 0.0 
0.0 0.0 0.0 
3.366090424572e-03 7.909943583707e-04 0.0 
7.909943583707e-04 2.116332351307e-03 0.0 
0.0 0.0 0.0 
5.425674255876e-03 3.666150514172e-03 0.0 
3.666150514172e-03 -1.929484640355e-03 0.0 
0.0 0.0 0.0 
3.919207513450e-03 -2.808331267226e-03 0.0 
-2.808331267226e-03 -2.349060338960e-03 0.0 
0.0 0.0 0.0 
-1.842309076557e-03 3.368959092915e-03 0.0 
3.368959092915e-03 1.118533945004e-02 0.0 
0.0 0.0 0.0 
-3.667669585483e-06 4.421559816159e-03 0.0 
4.421559816159e-03 1.286919113611e-02 0.0 
0.0 0.0 0.0 
6.397159693390e-03 3.733774269063e-03 0.0 
3.733774269063e-03 -4.361504062012e-03 0.0 
0.0 0.0 0.0 
4.405877850455e-03 2.048688196676e-03 0.0 
2.048688196676e-03 1.654884444283e-03 0.0 
0.0 0.0 0.0 
2.408503667744e-03 7.323995780740e-03 0.0 
7.323995780740e-03 -1.418009703413e-03 0.0 
0.0 0.0 0.0 
-2.131017146399e-03 1.090350515775e-03 0.0 
1.090350515775e-03 1.608455597785e-02 0.0 
0.0 0.0 0.0 
2.001014434943e-03 1.581447089806e-04 0.0 
1.581447089806e-04 3.572489868324e-03 0.0 
0.0 0.0 0.0 
-2.067091314494e-04 5.071012292715e-03 0.0 
5.071012292715e-03 2.973927070244e-03 0.0 
0.0 0.0 0.0 
-2.369837803267e-03 8.889450837590e-04 0.0 
8.889450837590e-04 1.602691346943e-02 0.0 
0.0 0.0 0.0 
2.415895712751e-04 4.079034279366e-03 0.0 
4.079034279366e-03 1.173925710190e-02 0.0 
0.0 0.0 0.0 
1.686254080630e-03 3.605631593075e-04 0.0 
3.605631593075e-04 4.385232882367e-03 0.0 
0.0 0.0 0.0 
-1.417782232170e-04 4.407536702878e-03 0.0 
4.407536702878e-03 1.338019537115e-02 0.0 
0.0 0.0 0.0 
-2.613041134853e-03 1.358459915637e-03 0.0 
1.358459915637e-03 1.585520882287e-02 0.0 
0.0 0.0 0.0 
-9.003739496345e-04 3.734700730851e-03 0.0 
3.734700730851e-03 1.188349012401e-02 0.0 
0.0 0.0 0.0 
-6.815610836280e-04 5.269462742318e-03 0.0 
5.269462742318e-03 3.036340735819e-03 0.0 
0.0 0.0 0.0 
-2.059713741312e-03 3.313415707727e-03 0.0 
3.313415707727e-03 1.099924091997e-02 0.0 
0.0 0.0 0.0 
-1.451506829102e-03 3.468086455020e-03 0.0 
3.468086455020e-03 1.060377720774e-02 0.0 
0.0 0.0 0.0 
-1.599603477354e-03 3.440836729183e-03 0.0 
3.440836729183e-03 1.134149947894e-02 0.0 
0.0 0.0 0.0 
-5.201602893261e-04 3.700255554870e-03 0.0 
3.700255554870e-03 6.719590320589e-03 0.0 
0.0 0.0 0.0 
2.459779935642e-04 3.762453335592e-03 0.0 
3.762453335592e-03 1.106866945261e-02 0.0 
0.0 0.0 0.0 
-2.587948433550e-03 2.032369814855e-03 0.0 
2.032369814855e-03 1.498926163434e-02 0.0 
0.0 0.0 0.0 
-2.751958745686e-03 2.788540612321e-03 0.0 
2.788540612321e-03 1.315556171624e-02 0.0 
0.0 0.0 0.0 
6.248502201256e-03 3.418080529289e-03 0.0 
3.418080529289e-03 -2.441448844569e-03 0.0 
0.0 0.0 0.0 
-6.723522696874e-04 -1.001684592485e-03 0.0 
-1.001684592485e-03 1.680874466182e-03 0.0 
0.0 0.0 0.0 
-2.414781688815e-03 3.209650502952e-03 0.0 
3.209650502952e-03 1.160225428600e-02 0.0 
0.0 0.0 0.0 
4.985975044316e-04 5.112174605974e-03 0.0 
5.112174605974e-03 1.662084573937e-03 0.0 
0.0 0.0 0.0 
-1.627283546770e-03 1.811771447447e-05 0.0 
1.811771447447e-05 1.508300838886e-02 0.0 
0.0 0.0 0.0 
2.301691607828e-03 -2.663462961840e-03 0.0 
-2.663462961840e-03 -2.361654138146e-03 0.0 
0.0 0.0 0.0 
5.951804718505e-03 3.875332072274e-03 0.0 
3.875332072274e-03 -2.972282491591e-03 0.0 
0.0 0.0 0.0 
-1.484720482590e-03 3.091928815105e-03 0.0 
3.091928815105e-03 1.422117562870e-02 0.0 
0.0 0.0 0.0 
1.025532545787e-03 5.214658673971e-03 0.0 
5.214658673971e-03 1.646505191810e-03 0.0 
0.0 0.0 0.0 
-1.690186475227e-03 3.398039695948e-03 0.0 
3.398039695948e-03 1.042325661501e-02 0.0 
0.0 0.0 0.0 
3.835634626096e-03 1.809482681498e-03 0.0 
1.809482681498e-03 2.187325557576e-03 0.0 
0.0 0.0 0.0 
1.122001617192e-03 -1.018258759380e-03 0.0 
-1.018258759380e-03 2.445542924809e-03 0.0 
0.0 0.0 0.0 
3.252552637234e-04 3.236387359715e-03 0.0 
3.236387359715e-03 1.010000357037e-02 0.0 
0.0 0.0 0.0 
-2.035515217744e-03 3.325072483878e-03 0.0 
3.325072483878e-03 9.967972448006e-03 0.0 
0.0 0.0 0.0 
7.551906520846e-03 1.749275820358e-06 0.0 
1.749275820358e-06 -6.863467831281e-03 0.0 
0.0 0.0 0.0 
1.642957491264e-04 -1.795911373267e-03 0.0 
-1.795911373267e-03 1.560348904406e-03 0.0 
0.0 0.0 0.0 
-1.382183747300e-03 3.520272413617e-03 0.0 
3.520272413617e-03 5.063953241504e-03 0.0 
0.0 0.0 0.0 
-4.378182449437e-04 4.870552519847e-03 0.0 
4.870552519847e-03 2.996681980146e-03 0.0 
0.0 0.0 0.0 
-1.001036048124e-03 3.638260386876e-03 0.0 
3.638260386876e-03 1.321980843839e-02 0.0 
0.0 0.0 0.0 
-1.000335007592e-03 3.660492407917e-03 0.0 
3.660492407917e-03 9.238657087148e-03 0.0 
0.0 0.0 0.0 
-1.772730373949e-03 3.293319560429e-03 0.0 
3.293319560429e-03 8.316279141227e-03 0.0 
0.0 0.0 0.0 
-1.893973842250e-03 3.335386998281e-03 0.0 
3.335386998281e-03 1.021597476075e-02 0.0 
0.0 0.0 0.0 
4.042870106327e-04 2.435250420447e-03 0.0 
2.435250420447e-03 8.792631894770e-03 0.0 
0.0 0.0 0.0 
7.212868963467e-04 2.285630997897e-03 0.0 
2.285630997897e-03 8.261530004476e-03 0.0 
0.0 0.0 0.0 
-8.783168200566e-04 3.568390956347e-03 0.0 
3.568390956347e-03 1.323355886316e-02 0.0 
0.0 0.0 0.0 
-1.925894749853e-03 2.936551807560e-03 0.0 
2.936551807560e-03 1.467041866797e-02 0.0 
0.0 0.0 0.0 
1.077506474622e-03 -1.255167646243e-03 0.0 
-1.255167646243e-03 1.840725222838e-03 0.0 
0.0 0.0 0.0 
-1.041462973198e-03 3.581015699911e-03 0.0 
3.581015699911e-03 6.293424324007e-03 0.0 
0.0 0.0 0.0 
6.342230030283e-03 3.389394675580e-03 0.0 
3.389394675580e-03 -5.123181392715e-03 0.0 
0.0 0.0 0.0 
6.862281667763e-03 2.917304457204e-03 0.0 
2.917304457204e-03 -4.703795525782e-03 0.0 
0.0 0.0 0.0 
-8.548084588318e-04 3.687534348222e-03 0.0 
3.687534348222e-03 8.429383197425e-03 0.0 
0.0 0.0 0.0 
3.508099431383e-03 7.809675448540e-04 0.0 
7.809675448540e-04 1.784359873105e-03 0.0 
0.0 0.0 0.0 
-2.237447701772e-04 -1.037683840185e-03 0.0 
-1.037683840185e-03 3.296574721935e-03 0.0 
0.0 0.0 0.0 
-1.166600619760e-03 3.253903254027e-03 0.0 
3.253903254027e-03 1.432210133974e-02 0.0 
0.0 0.0 0.0 
7.098372296710e-03 -1.793008419083e-03 0.0 
-1.793008419083e-03 -6.581597366343e-03 0.0 
0.0 0.0 0.0 
-2.091470750462e-04 3.749322805998e-03 0.0 
3.749322805998e-03 5.806472706047e-03 0.0 
0.0 0.0 0.0 
-1.329298021767e-03 3.524219328800e-03 0.0 
3.524219328800e-03 9.835260559639e-03 0.0 
0.0 0.0 0.0 
-5.501307523851e-04 3.712168354723e-03 0.0 
3.712168354723e-03 5.582553849129e-03 0.0 
0.0 0.0 0.0 
-2.553105417560e-04 4.314268552223e-03 0.0 
4.314268552223e-03 1.389747244217e-02 0.0 
0.0 0.0 0.0 
-3.554473964785e-04 3.944966185839e-03 0.0 
3.944966185839e-03 1.486992340631e-02 0.0 
0.0 0.0 0.0 
-7.156979968985e-04 3.707753368649e-03 0.0 
3.707753368649e-03 1.453193409346e-02 0.0 
0.0 0.0 0.0 
1.136061197952e-03 -1.004869323743e-03 0.0 
-1.004869323743e-03 2.333871342987e-03 0.0 
0.0 0.0 0.0 
-1.586484761441e-03 2.492791907519e-03 0.0 
2.492791907519e-03 1.563589314403e-02 0.0 
0.0 0.0 0.0 
-1.219696099176e-04 5.251588520548e-03 0.0 
5.251588520548e-03 1.786343070816e-03 0.0 
0.0 0.0 0.0 
7.242539572440e-03 2.566266426478e-03 0.0 
2.566266426478e-03 -4.187257967666e-03 0.0 
0.0 0.0 0.0 
5.475346790715e-03 1.952608469711e-03 0.0 
1.952608469711e-03 -6.473720950269e-03 0.0 
0.0 0.0 0.0 
-1.509230924782e-03 3.423877713768e-03 0.0 
3.423877713768e-03 7.759993285327e-03 0.0 
0.0 0.0 0.0 
-2.678032142788e-03 6.544458291859e-04 0.0 
6.544458291859e-04 1.543722309769e-02 0.0 
0.0 0.0 0.0 
-2.284296008854e-03 1.144318598722e-03 0.0 
1.144318598722e-03 1.587468949977e-02 0.0 
0.0 0.0 0.0 
8.100029722045e-04 1.622775406108e-03 0.0 
1.622775406108e-03 7.317256755782e-03 0.0 
0.0 0.0 0.0 
-5.296858864408e-04 3.794938474488e-03 0.0 
3.794938474488e-03 1.207856208825e-02 0.0 
0.0 0.0 0.0 
-1.959642697706e-03 3.100783979793e-03 0.0 
3.100783979793e-03 1.265780998605e-02 0.0 
0.0 0.0 0.0 
-1.202761816608e-03 3.552642883780e-03 0.0 
3.552642883780e-03 1.079132507269e-02 0.0 
0.0 0.0 0.0 
6.288049144593e-03 2.226042187711e-03 0.0 
2.226042187711e-03 -7.381645720526e-03 0.0 
0.0 0.0 0.0 
1.417862990127e-05 -9.830993561952e-04 0.0 
-9.830993561952e-04 3.459334371958e-04 0.0 
0.0 0.0 0.0 
2.983731575268e-03 4.277534425279e-03 0.0 
4.277534425279e-03 1.012914502459e-03 0.0 
0.0 0.0 0.0 
1.195290280114e-04 3.758388855929e-03 0.0 
3.758388855929e-03 6.064807550550e-03 0.0 
0.0 0.0 0.0 
2.846216454458e-03 4.031406580948e-03 0.0 
4.031406580948e-03 2.535306523716e-03 0.0 
0.0 0.0 0.0 
-4.630622413533e-04 8.552063891185e-03 0.0 
8.552063891185e-03 -1.988982825900e-04 0.0 
0.0 0.0 0.0 
-1.577859047148e-03 7.206573668530e-05 0.0 
7.206573668530e-05 1.543179066426e-02 0.0 
0.0 0.0 0.0 
-4.249805803166e-04 -9.288989917217e-04 0.0 
-9.288989917217e-04 1.432582645076e-03 0.0 
0.0 0.0 0.0 
2.574461532890e-03 5.608645908284e-03 0.0 
5.608645908284e-03 -1.594608714581e-03 0.0 
0.0 0.0 0.0 
0.0 1.685654429673e-03 0.0 
1.685654429673e-03 8.004528215776e-03 0.0 
0.0 0.0 0.0 
3.015412977293e-03 2.294135824412e-03 0.0 
2.294135824412e-03 4.157465352130e-03 0.0 
0.0 0.0 0.0 
-2.538502104723e-03 2.660794254160e-03 0.0 
2.660794254160e-03 1.317037878252e-02 0.0 
0.0 0.0 0.0 
4.518481222109e-04 -4.809884844512e-06 0.0 
-4.809884844512e-06 9.285919491353e-04 0.0 
0.0 0.0 0.0 
-5.208721684472e-04 3.727056774988e-03 0.0 
3.727056774988e-03 6.715916251930e-03 0.0 
0.0 0.0 0.0 
3.781764360198e-03 3.916573297496e-03 0.0 
3.916573297496e-03 1.059758609923e-03 0.0 
0.0 0.0 0.0 
-1.695161085000e-03 3.375152159104e-03 0.0 
3.375152159104e-03 1.207376612672e-02 0.0 
0.0 0.0 0.0 
1.597597500920e-04 4.349780793498e-03 0.0 
4.349780793498e-03 1.239863035427e-02 0.0 
0.0 0.0 0.0 
-2.072777268737e-03 3.272632175009e-03 0.0 
3.272632175009e-03 1.100388383069e-02 0.0 
0.0 0.0 0.0 
-1.137449882807e-03 3.627260240345e-03 0.0 
3.627260240345e-03 1.002876264136e-02 0.0 
0.0 0.0 0.0 
-1.450788691955e-04 -1.070742494107e-03 0.0 
-1.070742494107e-03 3.301081578122e-03 0.0 
0.0 0.0 0.0 
-1.450182418154e-03 2.970099746159e-03 0.0 
2.970099746159e-03 1.477737759285e-02 0.0 
0.0 0.0 0.0 
1.181845152101e-03 -7.785589411509e-04 0.0 
-7.785589411509e-04 2.910705012770e-03 0.0 
0.0 0.0 0.0 
2.358393706037e-04 4.180660809764e-03 0.0 
4.180660809764e-03 1.206277316108e-02 0.0 
0.0 0.0 0.0 
0.0 4.145896048407e-03 0.0 
4.145896048407e-03 1.362595382571e-02 0.0 
0.0 0.0 0.0 
0.0 3.376171987092e-03 0.0 
3.376171987092e-03 1.558354098130e-02 0.0 
0.0 0.0 0.0 
0.0 3.814545215625e-03 0.0 
3.814545215625e-03 1.467137624831e-02 0.0 
0.0 0.0 0.0 
-1.296935808090e-03 3.491494599560e-03 0.0 
3.491494599560e-03 1.153088648150e-02 0.0 
0.0 0.0 0.0 
-1.602787781891e-03 3.075172963599e-03 0.0 
3.075172963599e-03 1.476432565003e-02 0.0 
0.0 0.0 0.0 
-5.649137663138e-04 3.784754068135e-03 0.0 
3.784754068135e-03 1.273627179325e-02 0.0 
0.0 0.0 0.0 
-5.705621366026e-04 3.671738180655e-03 0.0 
3.671738180655e-03 5.587558080578e-03 0.0 
0.0 0.0 0.0 
-9.502197980761e-04 3.537656976288e-03 0.0 
3.537656976288e-03 6.298526017720e-03 0.0 
0.0 0.0 0.0 
-3.376942686580e-04 -9.001977831865e-04 0.0 
-9.001977831865e-04 3.299000886615e-03 0.0 
0.0 0.0 0.0 
-1.312473417899e-03 3.346582156861e-03 0.0 
3.346582156861e-03 1.430918536606e-02 0.0 
0.0 0.0 0.0 
2.540918958476e-04 3.912689269498e-03 0.0 
3.912689269498e-03 1.138851196154e-02 0.0 
0.0 0.0 0.0 
-1.360020192889e-03 2.829063817392e-03 0.0 
2.829063817392e-03 1.527097365287e-02 0.0 
0.0 0.0 0.0 
3.972692950436e-03 2.399811228476e-03 0.0 
2.399811228476e-03 2.663078235246e-03 0.0 
0.0 0.0 0.0 
-1.539358031973e-03 2.940552372121e-03 0.0 
2.940552372121e-03 1.525659314215e-02 0.0 
0.0 0.0 0.0 
1.748523455263e-03 3.664452478145e-03 0.0 
3.664452478145e-03 6.970962116543e-03 0.0 
0.0 0.0 0.0 
2.620357216556e-04 3.849139575487e-03 0.0 
3.849139575487e-03 5.075780843662e-03 0.0 
0.0 0.0 0.0 
-1.413319912658e-03 3.376870166726e-03 0.0 
3.376870166726e-03 7.764653136061e-03 0.0 
0.0 0.0 0.0 
3.380328408659e-03 7.124681273331e-03 0.0 
7.124681273331e-03 -4.028670418499e-03 0.0 
0.0 0.0 0.0 
-4.770133404650e-04 2.293417960238e-03 0.0 
2.293417960238e-03 1.661313959539e-02 0.0 
0.0 0.0 0.0 
-3.430519284330e-04 3.762711677677e-03 0.0 
3.762711677677e-03 4.617641156540e-03 0.0 
0.0 0.0 0.0 
5.362271001710e-04 3.503366859176e-03 0.0 
3.503366859176e-03 1.004295683225e-02 0.0 
0.0 0.0 0.0 
-3.063036042836e-04 -9.552978594467e-04 0.0 
-9.552978594467e-04 3.307085255188e-03 0.0 
0.0 0.0 0.0 
9.687984861775e-04 -2.610689920123e-03 0.0 
-2.610689920123e-03 -1.418027587753e-03 0.0 
0.0 0.0 0.0 
4.632711525896e-04 1.379979639402e-03 0.0 
1.379979639402e-03 7.147241333830e-03 0.0 
0.0 0.0 0.0 
1.611542523079e-03 5.155877548956e-03 0.0 
5.155877548956e-03 2.808149767102e-04 0.0 
0.0 0.0 0.0 
0.0 4.228556472145e-03 0.0 
4.228556472145e-03 1.310708596156e-02 0.0 
0.0 0.0 0.0 
-4.549919339735e-04 3.446171381216e-03 0.0 
3.446171381216e-03 1.495923583104e-02 0.0 
0.0 0.0 0.0 
-6.168123492148e-04 3.747060345113e-03 0.0 
3.747060345113e-03 8.654003273911e-03 0.0 
0.0 0.0 0.0 
6.674042529142e-05 -1.548749437976e-04 0.0 
-1.548749437976e-04 2.860231226649e-04 0.0 
0.0 0.0 0.0 
0.0 4.132186472342e-03 0.0 
4.132186472342e-03 1.219812970498e-02 0.0 
0.0 0.0 0.0 
3.988972175417e-04 1.849113306366e-03 0.0 
1.849113306366e-03 7.840828823496e-03 0.0 
0.0 0.0 0.0 
2.249039192915e-03 -2.838417623571e-03 0.0 
-2.838417623571e-03 -1.390979148940e-03 0.0 
0.0 0.0 0.0 
3.422437740389e-03 1.992839852798e-03 0.0 
1.992839852798e-03 3.187954200951e-03 0.0 
0.0 0.0 0.0 
3.082343768175e-04 3.039310659581e-03 0.0 
3.039310659581e-03 9.782825068124e-03 0.0 
0.0 0.0 0.0 
1.241816683510e-03 3.285598275296e-06 0.0 
3.285598275296e-06 -4.428655197841e-04 0.0 
0.0 0.0 0.0 
-5.301910096822e-05 3.823796817233e-03 0.0 
3.823796817233e-03 4.836089980166e-03 0.0 
0.0 0.0 0.0 
-7.532829270505e-04 3.720500170278e-03 0.0 
3.720500170278e-03 9.460658887833e-03 0.0 
0.0 0.0 0.0 
-4.658975070470e-04 3.769555312483e-03 0.0 
3.769555312483e-03 7.821231567241e-03 0.0 
0.0 0.0 0.0 
-9.727500995795e-04 3.653530591917e-03 0.0 
3.653530591917e-03 9.239497341929e-03 0.0 
0.0 0.0 0.0 
2.025352670734e-03 6.269464703583e-03 0.0 
6.269464703583e-03 -1.723844424380e-03 0.0 
0.0 0.0 0.0 
0.0 3.850786278490e-03 0.0 
3.850786278490e-03 1.155323028177e-02 0.0 
0.0 0.0 0.0 
7.361570545776e-03 2.329221728187e-03 0.0 
2.329221728187e-03 -3.518463748889e-03 0.0 
0.0 0.0 0.0 
3.168007785020e-03 2.248733986000e-04 0.0 
2.248733986000e-04 -5.851626995178e-03 0.0 
0.0 0.0 0.0 
2.342639964057e-04 -5.790057750179e-05 0.0 
-5.790057750179e-05 6.719143880235e-03 0.0 
0.0 0.0 0.0 
1.239698967182e-03 -1.156565908257e-04 0.0 
-1.156565908257e-04 -1.742047132403e-04 0.0 
0.0 0.0 0.0 
-1.721545678597e-03 3.369153648677e-03 0.0 
3.369153648677e-03 9.421003772057e-03 0.0 
0.0 0.0 0.0 
3.352674690872e-03 -4.743463689098e-03 0.0 
-4.743463689098e-03 -4.151917695009e-03 0.0 
0.0 0.0 0.0 
-2.534326581128e-03 3.182182037734e-03 0.0 
3.182182037734e-03 1.160620808774e-02 0.0 
0.0 0.0 0.0 
4.065691201542e-04 2.173048684813e-03 0.0 
2.173048684813e-03 8.458075791219e-03 0.0 
0.0 0.0 0.0 
0.0 3.548784576163e-03 0.0 
3.548784576163e-03 1.089546983585e-02 0.0 
0.0 0.0 0.0 
-1.538048649987e-03 3.394567830026e-03 0.0 
3.394567830026e-03 1.134762646499e-02 0.0 
0.0 0.0 0.0 
1.457932167271e-03 -4.529680210428e-03 0.0 
-4.529680210428e-03 -1.801767172836e-03 0.0 
0.0 0.0 0.0 
2.533467229916e-03 9.177229223650e-04 0.0 
9.177229223650e-04 -5.937106361077e-03 0.0 
0.0 0.0 0.0 
1.405640034191e-03 -4.956268266026e-03 0.0 
-4.956268266026e-03 -3.177399898487e-03 0.0 
0.0 0.0 0.0 
6.037051924734e-04 -3.039248012947e-04 0.0 
-3.039248012947e-04 5.230394841392e-03 0.0 
0.0 0.0 0.0 
-2.643047947644e-03 8.702334860304e-04 0.0 
8.702334860304e-04 1.516496534534e-02 0.0 
0.0 0.0 0.0 
-2.760249098889e-03 2.693369645735e-03 0.0 
2.693369645735e-03 1.392073435576e-02 0.0 
0.0 0.0 0.0 
0.0 3.213046385963e-03 0.0 
3.213046385963e-03 1.025932704021e-02 0.0 
0.0 0.0 0.0 
-2.358466542161e-03 5.550770680581e-04 0.0 
5.550770680581e-04 1.520213207967e-02 0.0 
0.0 0.0 0.0 
-4.226999262932e-04 3.415555957299e-03 0.0 
3.415555957299e-03 1.575555250984e-02 0.0 
0.0 0.0 0.0 
2.101343170791e-03 3.725879270827e-03 0.0 
3.725879270827e-03 6.402071985486e-03 0.0 
0.0 0.0 0.0 
-2.202252407836e-03 7.657299191551e-04 0.0 
7.657299191551e-04 1.583947078694e-02 0.0 
0.0 0.0 0.0 
-9.601354063472e-04 3.598235062080e-03 0.0 
3.598235062080e-03 4.281175879395e-03 0.0 
0.0 0.0 0.0 
3.407400545032e-03 2.149213440205e-03 0.0 
2.149213440205e-03 3.166195508433e-03 0.0 
0.0 0.0 0.0 
4.875888485487e-03 4.567078702041e-03 0.0 
4.567078702041e-03 -5.334778867637e-03 0.0 
0.0 0.0 0.0 
0.0 2.823276966597e-03 0.0 
2.823276966597e-03 9.636115638800e-03 0.0 
0.0 0.0 0.0 
0.0 4.006782482286e-03 0.0 
4.006782482286e-03 1.415001476991e-02 0.0 
0.0 0.0 0.0 
0.0 3.606846053933e-03 0.0 
3.606846053933e-03 1.516965303797e-02 0.0 
0.0 0.0 0.0 
8.891602275953e-04 -9.935212227858e-04 0.0 
-9.935212227858e-04 2.944205407657e-03 0.0 
0.0 0.0 0.0 
-4.046567177650e-04 -7.440326410089e-04 0.0 
-7.440326410089e-04 3.254827313270e-03 0.0 
0.0 0.0 0.0 
8.225218540070e-04 4.117335702462e-03 0.0 
4.117335702462e-03 5.031383208624e-03 0.0 
0.0 0.0 0.0 
9.444138222465e-04 -7.880770071916e-04 0.0 
-7.880770071916e-04 3.429162930435e-03 0.0 
0.0 0.0 0.0 
0.0 2.419983164512e-03 0.0 
2.419983164512e-03 9.008214959371e-03 0.0 
0.0 0.0 0.0 
3.914328873421e-03 5.662452162068e-03 0.0 
5.662452162068e-03 -1.610075911105e-03 0.0 
0.0 0.0 0.0 
5.535969038378e-03 -2.152608289809e-03 0.0 
-2.152608289809e-03 -3.523623043803e-03 0.0 
0.0 0.0 0.0 
3.573178258276e-03 -2.099328325219e-03 0.0 
-2.099328325219e-03 -1.555749347207e-03 0.0 
0.0 0.0 0.0 
-2.074423481207e-03 7.698251858341e-04 0.0 
7.698251858341e-04 1.603948802782e-02 0.0 
0.0 0.0 0.0 
4.012190319005e-04 1.394724919603e-03 0.0 
1.394724919603e-03 7.547162103899e-03 0.0 
0.0 0.0 0.0 
-2.127669560099e-04 -3.806513213307e-03 0.0 
-3.806513213307e-03 -2.015684619043e-03 0.0 
0.0 0.0 0.0 
0.0 1.924951723704e-03 0.0 
1.924951723704e-03 8.307151149582e-03 0.0 
0.0 0.0 0.0 
2.096711376854e-03 -2.278135523587e-03 0.0 
-2.278135523587e-03 -8.084364263571e-04 0.0 
0.0 0.0 0.0 
0.0 4.230884723596e-03 0.0 
4.230884723596e-03 1.261989554973e-02 0.0 
0.0 0.0 0.0 
-7.136890082760e-04 3.832071045286e-03 0.0 
3.832071045286e-03 1.272927973058e-02 0.0 
0.0 0.0 0.0 
2.139405355912e-03 -2.664931008636e-05 0.0 
-2.664931008636e-05 -7.827249701302e-04 0.0 
0.0 0.0 0.0 
9.903080223794e-04 4.252534521524e-03 0.0 
4.252534521524e-03 3.684478162061e-03 0.0 
0.0 0.0 0.0 
-1.655446900214e-03 2.473334060182e-03 0.0 
2.473334060182e-03 1.599239592867e-02 0.0 
0.0 0.0 0.0 
0.0 3.994414976507e-03 0.0 
3.994414976507e-03 1.192520102336e-02 0.0 
0.0 0.0 0.0 
-1.360942809393e-03 3.533519747860e-03 0.0 
3.533519747860e-03 1.152563419854e-02 0.0 
0.0 0.0 0.0 
2.121228848756e-03 3.383037961847e-03 0.0 
3.383037961847e-03 6.463393077510e-03 0.0 
0.0 0.0 0.0 
2.317163305398e-03 7.914583245275e-03 0.0 
7.914583245275e-03 -3.565036781809e-03 0.0 
0.0 0.0 0.0 
8.297922079896e-04 1.561514469822e-03 0.0 
1.561514469822e-03 7.060669810483e-03 0.0 
0.0 0.0 0.0 
1.002640017596e-03 -1.982265211088e-03 0.0 
-1.982265211088e-03 1.469132086387e-04 0.0 
0.0 0.0 0.0 
2.154948733684e-03 -2.168632141564e-03 0.0 
-2.168632141564e-03 -1.540171478219e-03 0.0 
0.0 0.0 0.0 
-3.740913916379e-04 -4.664224114780e-03 0.0 
-4.664224114780e-03 -2.260450823617e-03 0.0 
0.0 0.0 0.0 
0.0 3.699271355418e-03 0.0 
3.699271355418e-03 1.122449642783e-02 0.0 
0.0 0.0 0.0 
5.585332393798e-03 3.935152904065e-03 0.0 
3.935152904065e-03 -5.280000153134e-03 0.0 
0.0 0.0 0.0 
1.432307415357e-03 4.958699147558e-04 0.0 
4.958699147558e-04 4.923744562394e-03 0.0 
0.0 0.0 0.0 
-2.373824863851e-03 5.897908445942e-04 0.0 
5.897908445942e-04 1.570452713578e-02 0.0 
0.0 0.0 0.0 
-1.690550563263e-04 -1.979749066054e-03 0.0 
-1.979749066054e-03 1.070539869291e-03 0.0 
0.0 0.0 0.0 
3.885735829821e-03 -2.505557396516e-03 0.0 
-2.505557396516e-03 -3.464136077676e-03 0.0 
0.0 0.0 0.0 
-1.257023030045e-03 3.583120434196e-03 0.0 
3.583120434196e-03 1.078745172757e-02 0.0 
0.0 0.0 0.0 
0.0 3.015008905453e-03 0.0 
3.015008905453e-03 9.952242967592e-03 0.0 
0.0 0.0 0.0 
-4.247676786596e-04 -6.743515123140e-04 0.0 
-6.743515123140e-04 3.502018808392e-03 0.0 
0.0 0.0 0.0 
1.176959691919e-03 -5.180245599891e-04 0.0 
-5.180245599891e-04 3.466627618119e-03 0.0 
0.0 0.0 0.0 
2.071663559973e-04 3.837305310820e-03 0.0 
3.837305310820e-03 6.314315476170e-03 0.0 
0.0 0.0 0.0 
2.816684331675e-03 -4.130660008177e-05 0.0 
-4.130660008177e-05 1.742857683372e-03 0.0 
0.0 0.0 0.0 
5.456551440245e-03 -1.872713986233e-03 0.0 
-1.872713986233e-03 -4.341305009428e-03 0.0 
0.0 0.0 0.0 
1.169363593922e-03 -7.573347143900e-04 0.0 
-7.573347143900e-04 2.875758895558e-03 0.0 
0.0 0.0 0.0 
-2.396692515201e-04 3.727783823986e-03 0.0 
3.727783823986e-03 6.961028829022e-03 0.0 
0.0 0.0 0.0 
4.638837086732e-04 3.805613831230e-03 0.0 
3.805613831230e-03 8.588897813660e-03 0.0 
0.0 0.0 0.0 
2.666257401918e-03 2.131491770051e-03 0.0 
2.131491770051e-03 4.431176121843e-03 0.0 
0.0 0.0 0.0 
6.025768394189e-04 3.856029820405e-03 0.0 
3.856029820405e-03 5.311152526228e-03 0.0 
0.0 0.0 0.0 
-6.521197433229e-05 -1.233799897025e-03 0.0 
-1.233799897025e-03 2.954667824447e-03 0.0 
0.0 0.0 0.0 
2.513838256932e-03 5.214185815301e-03 0.0 
5.214185815301e-03 2.677548704750e-04 0.0 
0.0 0.0 0.0 
-4.144488530698e-04 -8.123761728479e-04 0.0 
-8.123761728479e-04 3.265138176338e-03 0.0 
0.0 0.0 0.0 
2.343479424293e-03 3.532908470661e-03 0.0 
3.532908470661e-03 6.434105430640e-03 0.0 
0.0 0.0 0.0 
4.857323351255e-03 1.827456413244e-03 0.0 
1.827456413244e-03 6.454991834774e-04 0.0 
0.0 0.0 0.0 
4.092592930858e-04 1.935718066406e-03 0.0 
1.935718066406e-03 8.157135203069e-03 0.0 
0.0 0.0 0.0 
-1.436741159664e-03 2.805033413298e-03 0.0 
2.805033413298e-03 1.569337949438e-02 0.0 
0.0 0.0 0.0 
-4.003832445637e-04 -1.822596561712e-03 0.0 
-1.822596561712e-03 1.461718626886e-03 0.0 
0.0 0.0 0.0 
0.0 2.166455142988e-03 0.0 
2.166455142988e-03 8.618302126517e-03 0.0 
0.0 0.0 0.0 
8.309130561865e-04 1.877706575101e-03 0.0 
1.877706575101e-03 7.662806639451e-03 0.0 
0.0 0.0 0.0 
3.372045764661e-03 4.014185131238e-03 0.0 
4.014185131238e-03 1.366149145678e-03 0.0 
0.0 0.0 0.0 
-1.275987738274e-04 -2.525216553783e-03 0.0 
-2.525216553783e-03 2.371880322591e-04 0.0 
0.0 0.0 0.0 
4.726154948174e-04 1.122684209898e-03 0.0 
1.122684209898e-03 7.312412510208e-03 0.0 
0.0 0.0 0.0 
-1.269839070397e-03 3.229509644134e-03 0.0 
3.229509644134e-03 1.485617283654e-02 0.0 
0.0 0.0 0.0 
8.785578120900e-04 -2.270943843882e-03 0.0 
-2.270943843882e-03 -2.375840894858e-04 0.0 
0.0 0.0 0.0 
0.0 1.418348199623e-03 0.0 
1.418348199623e-03 7.667002286268e-03 0.0 
0.0 0.0 0.0 
9.370120291772e-04 -7.840815137798e-04 0.0 
-7.840815137798e-04 3.444250270414e-03 0.0 
0.0 0.0 0.0 
-1.100108772356e-03 3.519129731268e-03 0.0 
3.519129731268e-03 7.153852864296e-03 0.0 
0.0 0.0 0.0 
-2.300836819556e-03 2.836769994382e-03 0.0 
2.836769994382e-03 1.326386211088e-02 0.0 
0.0 0.0 0.0 
5.520882305935e-03 2.102684761251e-03 0.0 
2.102684761251e-03 1.366065131769e-05 0.0 
0.0 0.0 0.0 
8.240991622424e-04 -1.204483644278e-03 0.0 
-1.204483644278e-03 2.474053733957e-03 0.0 
0.0 0.0 0.0 
3.057888456266e-03 4.818924571852e-04 0.0 
4.818924571852e-04 2.168674534655e-03 0.0 
0.0 0.0 0.0 
-2.227905914135e-03 2.799654853251e-03 0.0 
2.799654853251e-03 1.459644771659e-02 0.0 
0.0 0.0 0.0 
-1.395616372380e-03 3.486451163115e-03 0.0 
3.486451163115e-03 8.830901069211e-03 0.0 
0.0 0.0 0.0 
2.277046499930e-03 2.393541920259e-03 0.0 
2.393541920259e-03 5.381237742311e-03 0.0 
0.0 0.0 0.0 
-1.585822944901e-03 8.558848791211e-05 0.0 
8.558848791211e-05 1.575581410489e-02 0.0 
0.0 0.0 0.0 
-1.663460875504e-04 -1.205728481717e-03 0.0 
-1.205728481717e-03 2.951022727694e-03 0.0 
0.0 0.0 0.0 
3.073342906599e-03 1.830679200549e-03 0.0 
1.830679200549e-03 3.467356637730e-03 0.0 
0.0 0.0 0.0 
6.382633826927e-04 -2.176807584719e-03 0.0 
-2.176807584719e-03 1.731241329870e-04 0.0 
0.0 0.0 0.0 
8.425897678932e-05 -6.651861484207e-04 0.0 
-6.651861484207e-04 4.573695756024e-03 0.0 
0.0 0.0 0.0 
3.839066605814e-03 1.377886065983e-04 0.0 
1.377886065983e-04 -1.231029106315e-03 0.0 
0.0 0.0 0.0 
1.526507621521e-03 4.906671160243e-03 0.0 
4.906671160243e-03 1.773807293109e-03 0.0 
0.0 0.0 0.0 
1.020999651299e-03 -2.284681037570e-03 0.0 
-2.284681037570e-03 -8.020957695484e-04 0.0 
0.0 0.0 0.0 
-2.034975274399e-04 -9.163422881954e-04 0.0 
-9.163422881954e-04 3.609734938400e-03 0.0 
0.0 0.0 0.0 
2.508112618789e-03 4.072508829159e-03 0.0 
4.072508829159e-03 2.832737866453e-03 0.0 
0.0 0.0 0.0 
1.217793966017e-03 -5.437640756891e-04 0.0 
-5.437640756891e-04 3.407315849937e-03 0.0 
0.0 0.0 0.0 
-2.251885551636e-03 5.913877445172e-04 0.0 
5.913877445172e-04 1.590900370141e-02 0.0 
0.0 0.0 0.0 
4.802064769009e-04 -2.398959860749e-03 0.0 
-2.398959860749e-03 -2.152832567140e-04 0.0 
0.0 0.0 0.0 
0.0 1.173149175727e-03 0.0 
1.173149175727e-03 7.426310400919e-03 0.0 
0.0 0.0 0.0 
-7.804292421705e-04 3.719497798738e-03 0.0 
3.719497798738e-03 9.460923521363e-03 0.0 
0.0 0.0 0.0 
-2.494006679234e-04 -7.695246655483e-04 0.0 
-7.695246655483e-04 3.888679582405e-03 0.0 
0.0 0.0 0.0 
-6.283816387239e-04 3.733996516291e-03 0.0 
3.733996516291e-03 8.655885131578e-03 0.0 
0.0 0.0 0.0 
-2.696529587580e-04 -8.807654867473e-04 0.0 
-8.807654867473e-04 3.604805932732e-03 0.0 
0.0 0.0 0.0 
6.154765987800e-04 5.221860038540e-07 0.0 
5.221860038540e-07 -3.000859513751e-04 0.0 
0.0 0.0 0.0 
-2.457916898201e-03 2.832445951048e-03 0.0 
2.832445951048e-03 1.392628563551e-02 0.0 
0.0 0.0 0.0 
-4.716976506789e-04 -2.163568111443e-04 0.0 
-2.163568111443e-04 3.464802808882e-03 0.0 
0.0 0.0 0.0 
9.382843301213e-04 1.940766864475e-05 0.0 
1.940766864475e-05 -3.046992999141e-04 0.0 
0.0 0.0 0.0 
-3.607540048488e-04 -6.632126772729e-04 0.0 
-6.632126772729e-04 3.823718049890e-03 0.0 
0.0 0.0 0.0 
1.231237465124e-03 -3.215313753381e-04 0.0 
-3.215313753381e-04 3.929587006456e-03 0.0 
0.0 0.0 0.0 
-1.034788237432e-03 6.697004727289e-04 0.0 
6.697004727289e-04 1.696379737214e-02 0.0 
0.0 0.0 0.0 
3.382659974256e-03 2.314995934156e-04 0.0 
2.314995934156e-04 1.228048218641e-03 0.0 
0.0 0.0 0.0 
3.308468377571e-03 3.304722256295e-04 0.0 
3.304722256295e-04 1.675313653195e-03 0.0 
0.0 0.0 0.0 
-3.150487404400e-03 2.432781629226e-03 0.0 
2.432781629226e-03 1.383133927527e-02 0.0 
0.0 0.0 0.0 
-2.339906887041e-03 1.688862643460e-04 0.0 
1.688862643460e-04 1.498043640755e-02 0.0 
0.0 0.0 0.0 
-5.026876902952e-04 2.791268790441e-03 0.0 
2.791268790441e-03 1.611642625712e-02 0.0 
0.0 0.0 0.0 
-4.728262957487e-04 3.733687215170e-03 0.0 
3.733687215170e-03 7.825931720917e-03 0.0 
0.0 0.0 0.0 
1.300551334694e-03 -1.114121932422e-05 0.0 
-1.114121932422e-05 -4.213649457272e-04 0.0 
0.0 0.0 0.0 
-1.969865109932e-04 -5.116169314972e-04 0.0 
-5.116169314972e-04 1.295925511868e-03 0.0 
0.0 0.0 0.0 
-4.121964625550e-04 -6.766543711231e-04 0.0 
-6.766543711231e-04 6.939568364952e-04 0.0 
0.0 0.0 0.0 
-4.366174422722e-04 -1.373838905760e-03 0.0 
-1.373838905760e-03 1.839108952070e-03 0.0 
0.0 0.0 0.0 
1.331002617022e-04 3.928398328950e-03 0.0 
3.928398328950e-03 1.051100742405e-02 0.0 
0.0 0.0 0.0 
-1.199704605556e-03 6.571879181238e-04 0.0 
6.571879181238e-04 1.696588576063e-02 0.0 
0.0 0.0 0.0 
6.754265019582e-04 -3.489296312787e-04 0.0 
-3.489296312787e-04 5.105262202431e-03 0.0 
0.0 0.0 0.0 
-4.179616358230e-04 -9.787980779277e-04 0.0 
-9.787980779277e-04 2.438197347312e-03 0.0 
0.0 0.0 0.0 
-4.759431365975e-05 -6.764862005797e-04 0.0 
-6.764862005797e-04 4.576369456824e-03 0.0 
0.0 0.0 0.0 
1.443609046494e-03 5.678816657874e-04 0.0 
5.678816657874e-04 5.110145263215e-03 0.0 
0.0 0.0 0.0 
5.075754453833e-03 4.059188984185e-05 0.0 
4.059188984185e-05 -6.727538348888e-03 0.0 
0.0 0.0 0.0 
-4.494080506880e-04 -1.616681831958e-04 0.0 
-1.616681831958e-04 3.463817407318e-03 0.0 
0.0 0.0 0.0 
-3.764344083910e-04 -9.856051477043e-05 0.0 
-9.856051477043e-05 2.879452209876e-03 0.0 
0.0 0.0 0.0 
4.054134492550e-04 8.197221077671e-04 0.0 
8.197221077671e-04 7.130856161926e-03 0.0 
0.0 0.0 0.0 
0.0 8.855128454505e-04 0.0 
8.855128454505e-04 7.198725283208e-03 0.0 
0.0 0.0 0.0 
-4.714022484783e-04 -1.732208158933e-04 0.0 
-1.732208158933e-04 3.806173019421e-03 0.0 
0.0 0.0 0.0 
-3.071506015816e-04 -7.334084790888e-04 0.0 
-7.334084790888e-04 3.883503663530e-03 0.0 
0.0 0.0 0.0 
8.736907781761e-04 -9.899754014565e-04 0.0 
-9.899754014565e-04 2.996304049476e-03 0.0 
0.0 0.0 0.0 
1.363021337307e-03 9.146409929407e-04 0.0 
9.146409929407e-04 5.708006045574e-03 0.0 
0.0 0.0 0.0 
-4.991807039749e-04 -6.335877053115e-04 0.0 
-6.335877053115e-04 1.517562564638e-03 0.0 
0.0 0.0 0.0 
1.395005953105e-03 2.204432762042e-04 0.0 
2.204432762042e-04 4.693774737399e-03 0.0 
0.0 0.0 0.0 
6.482860480945e-04 -2.478253431200e-05 0.0 
-2.478253431200e-05 5.046061427638e-04 0.0 
0.0 0.0 0.0 
-3.640584994471e-04 -7.532594450043e-04 0.0 
-7.532594450043e-04 3.568780516065e-03 0.0 
0.0 0.0 0.0 
-1.358036027311e-04 -9.852355491593e-04 0.0 
-9.852355491593e-04 3.605419128128e-03 0.0 
0.0 0.0 0.0 
6.674829472553e-04 6.200732235633e-06 0.0 
6.200732235633e-06 1.093520125917e-04 0.0 
0.0 0.0 0.0 
-4.725667907596e-04 -1.247577869222e-04 0.0 
-1.247577869222e-04 3.649563178602e-03 0.0 
0.0 0.0 0.0 
-1.211843952209e-03 2.712094607389e-03 0.0 
2.712094607389e-03 1.570784828124e-02 0.0 
0.0 0.0 0.0 
1.194908337509e-03 4.731583405856e-06 0.0 
4.731583405856e-06 -3.836736868099e-04 0.0 
0.0 0.0 0.0 
-2.619459205729e-03 3.485568064972e-04 0.0 
3.485568064972e-04 1.509770344525e-02 0.0 
0.0 0.0 0.0 
-2.525467228449e-03 5.240525103360e-04 0.0 
5.240525103360e-04 1.488929410987e-02 0.0 
0.0 0.0 0.0 
3.035387411054e-03 9.641374459771e-04 0.0 
9.641374459771e-04 2.849561526447e-03 0.0 
0.0 0.0 0.0 
-3.498152062303e-04 -4.407421277928e-05 0.0 
-4.407421277928e-05 2.881452114016e-03 0.0 
0.0 0.0 0.0 
4.806789358591e-04 -2.114002974968e-03 0.0 
-2.114002974968e-03 6.136527152878e-04 0.0 
0.0 0.0 0.0 
1.145995317177e-03 6.360661900484e-03 0.0 
6.360661900484e-03 3.371556783325e-04 0.0 
0.0 0.0 0.0 
4.485598630162e-04 -1.585221338207e-04 0.0 
-1.585221338207e-04 5.905579957812e-03 0.0 
0.0 0.0 0.0 
2.467767287131e-04 3.617694842048e-03 0.0 
3.617694842048e-03 1.082467598163e-02 0.0 
0.0 0.0 0.0 
-1.613325054646e-03 9.880636654469e-04 0.0 
9.880636654469e-04 1.677563313169e-02 0.0 
0.0 0.0 0.0 
-5.770933815934e-04 4.727925432768e-03 0.0 
4.727925432768e-03 4.137833768259e-03 0.0 
0.0 0.0 0.0 
-1.970202379203e-04 -3.988614655221e-04 0.0 
-3.988614655221e-04 8.189815971291e-04 0.0 
0.0 0.0 0.0 
-1.911734426675e-03 3.372370625615e-03 0.0 
3.372370625615e-03 1.021126482176e-02 0.0 
0.0 0.0 0.0 
-1.878405771280e-03 4.122108443772e-05 0.0 
4.122108443772e-05 1.481882469178e-02 0.0 
0.0 0.0 0.0 
-1.679656877672e-03 3.356663158864e-05 0.0 
3.356663158864e-05 1.474085749286e-02 0.0 
0.0 0.0 0.0 
9.172557390236e-04 7.205360308648e-06 0.0 
7.205360308648e-06 -2.938093685960e-04 0.0 
0.0 0.0 0.0 
6.483639438288e-04 3.924692746281e-06 0.0 
3.924692746281e-06 1.071461532092e-04 0.0 
0.0 0.0 0.0 
4.361907794908e-04 -2.050491113477e-05 0.0 
-2.050491113477e-05 5.699780605277e-04 0.0 
0.0 0.0 0.0 
-5.310131132796e-04 -7.272178607924e-04 0.0 
-7.272178607924e-04 2.076791416802e-03 0.0 
0.0 0.0 0.0 
9.254460530483e-04 5.129242952396e-06 0.0 
5.129242952396e-06 2.457272488865e-05 0.0 
0.0 0.0 0.0 
-4.805345616599e-04 -1.280326060523e-04 0.0 
-1.280326060523e-04 4.010076160416e-03 0.0 
0.0 0.0 0.0 
5.306121724546e-04 -2.647366994462e-03 0.0 
-2.647366994462e-03 -3.547591158331e-03 0.0 
0.0 0.0 0.0 
-5.311898666969e-04 -8.536701214216e-04 0.0 
-8.536701214216e-04 2.406252550453e-03 0.0 
0.0 0.0 0.0 
-1.437431191245e-03 1.477292190532e-04 0.0 
1.477292190532e-04 1.607116140223e-02 0.0 
0.0 0.0 0.0 
-1.846906746397e-03 1.372577565027e-04 0.0 
1.372577565027e-04 1.476891809422e-02 0.0 
0.0 0.0 0.0 
-8.396711730929e-05 3.973042412792e-03 0.0 
3.973042412792e-03 1.125163476197e-02 0.0 
0.0 0.0 0.0 
9.997158011867e-04 -5.890175661203e-04 0.0 
-5.890175661203e-04 3.881270562594e-03 0.0 
0.0 0.0 0.0 
-1.504261269732e-03 9.140427880660e-05 0.0 
9.140427880660e-05 1.574154781916e-02 0.0 
0.0 0.0 0.0 
-4.006515237304e-04 -2.791515964905e-05 0.0 
-2.791515964905e-05 3.077716234959e-03 0.0 
0.0 0.0 0.0 
6.836590542816e-04 -2.014579916575e-05 0.0 
-2.014579916575e-05 4.886612599939e-04 0.0 
0.0 0.0 0.0 
0.0 1.457408578650e-03 0.0 
1.457408578650e-03 1.727803137745e-02 0.0 
0.0 0.0 0.0 
-4.276849377337e-04 1.637359123701e-03 0.0 
1.637359123701e-03 1.721481319366e-02 0.0 
0.0 0.0 0.0 
-2.094134269766e-03 4.762905349454e-04 0.0 
4.762905349454e-04 1.571262255948e-02 0.0 
0.0 0.0 0.0 
-2.014525860732e-03 5.348563242311e-05 0.0 
5.348563242311e-05 1.485966171329e-02 0.0 
0.0 0.0 0.0 
-3.940823951885e-04 -1.259591526756e-04 0.0 
-1.259591526756e-04 3.110121181125e-03 0.0 
0.0 0.0 0.0 
-3.594498739834e-04 1.128731983182e-03 0.0 
1.128731983182e-03 1.740924002883e-02 0.0 
0.0 0.0 0.0 
-4.210357406510e-04 -8.610941411823e-04 0.0 
-8.610941411823e-04 2.154941237021e-03 0.0 
0.0 0.0 0.0 
-2.065728834351e-03 2.524737642178e-04 0.0 
2.524737642178e-04 1.479574542028e-02 0.0 
0.0 0.0 0.0 
-2.129181743525e-03 1.038503706477e-04 0.0 
1.038503706477e-04 1.490831980983e-02 0.0 
0.0 0.0 0.0 
-2.272525132632e-03 3.271457669621e-03 0.0 
3.271457669621e-03 1.077874449220e-02 0.0 
0.0 0.0 0.0 
0.0 3.126611193195e-03 0.0 
3.126611193195e-03 1.595182063893e-02 0.0 
0.0 0.0 0.0 
-4.171508242991e-04 1.379097989616e-03 0.0 
1.379097989616e-03 1.732633444746e-02 0.0 
0.0 0.0 0.0 
9.291382911747e-04 1.349566969707e-06 0.0 
1.349566969707e-06 1.590635112958e-05 0.0 
0.0 0.0 0.0 
9.291323158815e-04 7.795232094325e-06 0.0 
7.795232094325e-06 -2.915548691304e-04 0.0 
0.0 0.0 0.0 
-2.439121868213e-04 -4.101282813926e-04 0.0 
-4.101282813926e-04 1.076586516464e-03 0.0 
0.0 0.0 0.0 
-2.913799606197e-05 -9.968449848665e-04 0.0 
-9.968449848665e-04 3.606556067595e-03 0.0 
0.0 0.0 0.0 
-1.287249230737e-04 -1.487523422203e-05 0.0 
-1.487523422203e-05 6.852970776604e-03 0.0 
0.0 0.0 0.0 
-3.099639504874e-03 -2.478807819037e-03 0.0 
-2.478807819037e-03 -1.836056727196e-03 0.0 
0.0 0.0 0.0 
-1.123475195929e-03 6.869671582052e-05 0.0 
6.869671582052e-05 1.673280797276e-02 0.0 
0.0 0.0 0.0 
-3.180680709625e-04 -1.990230847397e-03 0.0 
-1.990230847397e-03 1.158412912139e-03 0.0 
0.0 0.0 0.0 
2.950035212157e-03 5.349508814774e-04 0.0 
5.349508814774e-04 2.554697024374e-03 0.0 
0.0 0.0 0.0 
1.384140324342e-03 -5.364119977327e-04 0.0 
-5.364119977327e-04 -1.085382023399e-03 0.0 
0.0 0.0 0.0 
1.603371595182e-05 -4.241133210649e-03 0.0 
-4.241133210649e-03 -1.712551930780e-03 0.0 
0.0 0.0 0.0 
2.768366593665e-03 9.249660772880e-05 0.0 
9.249660772880e-05 2.238052551575e-03 0.0 
0.0 0.0 0.0 
-4.701122475337e-05 -1.348432185317e-04 0.0 
-1.348432185317e-04 6.531652259271e-03 0.0 
0.0 0.0 0.0 
-1.510404763653e-03 9.994409081820e-05 0.0 
9.994409081820e-05 1.603988603811e-02 0.0 
0.0 0.0 0.0 
-1.574934030437e-03 3.487593191067e-03 0.0 
3.487593191067e-03 9.636951573490e-03 0.0 
0.0 0.0 0.0 
6.837921899905e-04 -6.159247812470e-06 0.0 
-6.159247812470e-06 8.952048461297e-05 0.0 
0.0 0.0 0.0 
-1.148785513079e-04 -5.490718409116e-04 0.0 
-5.490718409116e-04 4.869790482028e-03 0.0 
0.0 0.0 0.0 
0.0 4.351848755552e-04 0.0 
4.351848755552e-04 1.752827945781e-02 0.0 
0.0 0.0 0.0 
-3.062832342889e-04 4.991694982705e-04 0.0 
4.991694982705e-04 1.752923499944e-02 0.0 
0.0 0.0 0.0 
-1.744080181686e-03 7.408786097423e-05 0.0 
7.408786097423e-05 1.474564323955e-02 0.0 
0.0 0.0 0.0 
2.876565576613e-03 9.402573118602e-04 0.0 
9.402573118602e-04 3.119936663598e-03 0.0 
0.0 0.0 0.0 
0.0 1.208905778978e-03 0.0 
1.208905778978e-03 1.737788184133e-02 0.0 
0.0 0.0 0.0 
2.270093988736e-03 3.266882674624e-03 0.0 
3.266882674624e-03 6.479477100345e-03 0.0 
0.0 0.0 0.0 
6.710631536671e-04 2.186089465607e-06 0.0 
2.186089465607e-06 4.636640085569e-04 0.0 
0.0 0.0 0.0 
9.319521375670e-04 -2.030930166035e-05 0.0 
-2.030930166035e-05 2.335255932362e-05 0.0 
0.0 0.0 0.0 
6.736954421571e-04 9.185827665966e-07 0.0 
9.185827665966e-07 1.184917571426e-04 0.0 
0.0 0.0 0.0 
-4.547346657610e-04 -2.881803984767e-05 0.0 
-2.881803984767e-05 3.466770605317e-03 0.0 
0.0 0.0 0.0 
-3.542723977590e-05 -1.345356765968e-04 0.0 
-1.345356765968e-04 7.384851352768e-03 0.0 
0.0 0.0 0.0 
-5.045717338404e-04 -6.281689129046e-06 0.0 
-6.281689129046e-06 1.734915059822e-02 0.0 
0.0 0.0 0.0 
9.329865447218e-04 3.387889137714e-06 0.0 
3.387889137714e-06 -3.036380723282e-04 0.0 
0.0 0.0 0.0 
-4.770689033322e-04 -7.659062749563e-05 0.0 
-7.659062749563e-05 4.010001968349e-03 0.0 
0.0 0.0 0.0 
0.0 -8.755784460397e-05 0.0 
-8.755784460397e-05 7.432870313247e-03 0.0 
0.0 0.0 0.0 
-2.001107443117e-05 -1.292774789846e-04 0.0 
-1.292774789846e-04 7.335518756814e-03 0.0 
0.0 0.0 0.0 
4.158909515246e-04 5.564942020857e-04 0.0 
5.564942020857e-04 7.030952720374e-03 0.0 
0.0 0.0 0.0 
-1.272056497254e-03 8.756841894421e-05 0.0 
8.756841894421e-05 1.643756160221e-02 0.0 
0.0 0.0 0.0 
-1.010657946701e-03 -1.647854995981e-05 0.0 
-1.647854995981e-05 1.687307075747e-02 0.0 
0.0 0.0 0.0 
0.0 -1.079151890118e-04 0.0 
-1.079151890118e-04 7.353036137925e-03 0.0 
0.0 0.0 0.0 
0.0 -1.192299359076e-04 0.0 
-1.192299359076e-04 7.317246495270e-03 0.0 
0.0 0.0 0.0 
-1.100289594352e-03 1.029994868796e-04 0.0 
1.029994868796e-04 1.673401067342e-02 0.0 
0.0 0.0 0.0 
1.241614842915e-03 1.806124792918e-05 0.0 
1.806124792918e-05 -4.119577776593e-04 0.0 
0.0 0.0 0.0 
-1.660324369554e-03 1.398976426974e-05 0.0 
1.398976426974e-05 1.472842722536e-02 0.0 
0.0 0.0 0.0 
-1.710823897764e-03 4.207369031862e-05 0.0 
4.207369031862e-05 1.476182379990e-02 0.0 
0.0 0.0 0.0 
9.254244734400e-04 1.700794102106e-06 0.0 
1.700794102106e-06 -2.862487803195e-04 0.0 
0.0 0.0 0.0 
0.0 3.288569354210e-06 0.0 
3.288569354210e-06 7.148901145314e-03 0.0 
0.0 0.0 0.0 
3.146150257305e-04 3.236132042172e-04 0.0 
3.236132042172e-04 6.995834422057e-03 0.0 
0.0 0.0 0.0 
0.0 2.345539598496e-04 0.0 
2.345539598496e-04 6.993054522676e-03 0.0 
0.0 0.0 0.0 
1.119638266498e-03 1.036863166419e-05 0.0 
1.036863166419e-05 -3.598050687152e-04 0.0 
0.0 0.0 0.0 
1.203546753359e-03 2.952537475919e-06 0.0 
2.952537475919e-06 -3.774529517986e-04 0.0 
0.0 0.0 0.0 
0.0 6.463609929604e-04 0.0 
6.463609929604e-04 7.065813805743e-03 0.0 
0.0 0.0 0.0 
0.0 4.158440759511e-04 0.0 
4.158440759511e-04 6.998878560585e-03 0.0 
0.0 0.0 0.0 
-1.349107537268e-03 -2.667000654075e-05 0.0 
-2.667000654075e-05 1.627062002763e-02 0.0 
0.0 0.0 0.0 
-1.635442348124e-03 2.328581854329e-06 0.0 
2.328581854329e-06 1.471319649391e-02 0.0 
0.0 0.0 0.0 
-1.195186994662e-03 -2.117817557721e-05 0.0 
-2.117817557721e-05 1.658661821217e-02 0.0 
0.0 0.0 0.0 
-1.538570219880e-03 -3.458273385303e-05 0.0 
-3.458273385303e-05 1.555179749932e-02 0.0 
0.0 0.0 0.0 
-1.607324930147e-03 3.145525223662e-05 0.0 
3.145525223662e-05 1.471403465723e-02 0.0 
0.0 0.0 0.0 
1.331884350905e-03 -1.895470073677e-05 0.0 
-1.895470073677e-05 -4.340143974535e-04 0.0 
0.0 0.0 0.0 
1.504956414099e-03 -4.279979391567e-06 0.0 
-4.279979391567e-06 -4.981091637493e-04 0.0 
0.0 0.0 0.0 
2.105536440401e-03 -4.881616940409e-05 0.0 
-4.881616940409e-05 -7.252881760306e-04 0.0 
0.0 0.0 0.0 
2.584764268504e-03 1.561838703726e-05 0.0 
1.561838703726e-05 -9.207524945736e-04 0.0 
0.0 0.0 0.0 
-4.770931328294e-04 -1.962014455095e-05 0.0 
-1.962014455095e-05 4.199279232573e-03 0.0 
0.0 0.0 0.0 
-4.770458293977e-04 -2.703610550472e-05 0.0 
-2.703610550472e-05 3.837108921262e-03 0.0 
0.0 0.0 0.0 
8.050852734529e-04 -1.100122418565e-05 0.0 
-1.100122418565e-05 -2.570577585516e-04 0.0 
0.0 0.0 0.0 
-3.731052777732e-04 -7.500515899254e-06 0.0 
-7.500515899254e-06 5.221123588300e-03 0.0 
0.0 0.0 0.0 
1.573207509209e-03 -4.980983790741e-06 0.0 
-4.980983790741e-06 -5.947607170719e-04 0.0 
0.0 0.0 0.0 
0.0 2.547239182367e-03 0.0 
2.547239182367e-03 1.658498369282e-02 0.0 
0.0 0.0 0.0 
0.0 9.990268746188e-04 0.0 
9.990268746188e-04 1.743961738226e-02 0.0 
0.0 0.0 0.0 
0.0 1.719571645926e-03 0.0 
1.719571645926e-03 1.714704592845e-02 0.0 
0.0 0.0 0.0 
2.410693164678e-04 -1.221251674339e-05 0.0 
-1.221251674339e-05 1.217744800009e-03 0.0 
0.0 0.0 0.0 
-3.025296577015e-04 -2.483436639128e-05 0.0 
-2.483436639128e-05 2.659370697521e-03 0.0 
0.0 0.0 0.0 
0.0 7.823009564363e-04 0.0 
7.823009564363e-04 1.746898602956e-02 0.0 
0.0 0.0 0.0 
-2.151608782212e-04 8.268567076088e-06 0.0 
8.268567076088e-06 6.305989330713e-03 0.0 
0.0 0.0 0.0 
0.0 6.126307740362e-04 0.0 
6.126307740362e-04 1.753088368357e-02 0.0 
0.0 0.0 0.0 
-1.644491298738e-04 1.612811017866e-05 0.0 
1.612811017866e-05 6.682513720560e-03 0.0 
0.0 0.0 0.0 
-1.094379251968e-04 2.372220377341e-05 0.0 
2.372220377341e-05 7.062195517609e-03 0.0 
0.0 0.0 0.0 
-4.658493085075e-04 -7.194006491289e-05 0.0 
-7.194006491289e-05 3.649543517821e-03 0.0 
0.0 0.0 0.0 
-3.819127142140e-04 8.987178184416e-04 0.0 
8.987178184416e-04 1.745496359322e-02 0.0 
0.0 0.0 0.0 
-2.988920281426e-04 7.453134892141e-04 0.0 
7.453134892141e-04 1.749242418690e-02 0.0 
0.0 0.0 0.0 
-1.875053785108e-04 -6.360770796098e-05 0.0 
-6.360770796098e-05 6.463691688981e-03 0.0 
0.0 0.0 0.0 
-1.363422471526e-04 -5.975664911359e-05 0.0 
-5.975664911359e-05 6.855517332127e-03 0.0 
0.0 0.0 0.0 
-2.145534323245e-04 -3.222461724494e-04 0.0 
-3.222461724494e-04 5.398718475510e-03 0.0 
0.0 0.0 0.0 
1.818394956798e-04 8.968827250411e-05 0.0 
8.968827250411e-05 3.980481079235e-05 0.0 
0.0 0.0 0.0 
-4.206048918926e-04 -6.146644902438e-04 0.0 
-6.146644902438e-04 3.493572439063e-03 0.0 
0.0 0.0 0.0 
9.177551929807e-04 -6.451705093746e-06 0.0 
-6.451705093746e-06 1.817468761733e-05 0.0 
0.0 0.0 0.0 
2.913819442345e-04 -2.256030391962e-04 0.0 
-2.256030391962e-04 5.912769510229e-03 0.0 
0.0 0.0 0.0 
-3.366366634882e-04 -8.043806247654e-04 0.0 
-8.043806247654e-04 3.576364111010e-03 0.0 
0.0 0.0 0.0 
8.718476912639e-06 -2.582587897312e-04 0.0 
-2.582587897312e-04 5.880863597288e-03 0.0 
0.0 0.0 0.0 
-3.536890690432e-04 -6.766030339046e-04 0.0 
-6.766030339046e-04 1.847904748796e-03 0.0 
0.0 0.0 0.0 
3.519442340527e-04 -7.324836727201e-05 0.0 
-7.324836727201e-05 5.765253556758e-04 0.0 
0.0 0.0 0.0 
-5.524724559824e-05 -2.234293615815e-04 0.0 
-2.234293615815e-04 6.277482103088e-03 0.0 
0.0 0.0 0.0 
-3.849566346752e-04 -6.159007957629e-04 0.0 
-6.159007957629e-04 3.816277358567e-03 0.0 
0.0 0.0 0.0 
-4.435683515538e-04 -1.147325160570e-04 0.0 
-1.147325160570e-04 3.274164100258e-03 0.0 
0.0 0.0 0.0 
-8.267622971514e-05 -2.874395945236e-04 0.0 
-2.874395945236e-04 5.886071661004e-03 0.0 
0.0 0.0 0.0 
-7.713721538217e-04 3.441570442289e-04 0.0 
3.441570442289e-04 1.710288891080e-02 0.0 
0.0 0.0 0.0 
-4.275026785316e-04 -6.055669307520e-05 0.0 
-6.055669307520e-05 3.275187711243e-03 0.0 
0.0 0.0 0.0 
1.158224473763e-03 -2.922061506861e-04 0.0 
-2.922061506861e-04 4.111381880143e-03 0.0 
0.0 0.0 0.0 
3.850077102214e-04 -7.715036697292e-04 0.0 
-7.715036697292e-04 4.263504926493e-03 0.0 
0.0 0.0 0.0 
-1.353109885160e-04 -3.186454034541e-04 0.0 
-3.186454034541e-04 5.397692539606e-03 0.0 
0.0 0.0 0.0 
-1.828356220598e-04 -2.217045797178e-04 0.0 
-2.217045797178e-04 5.634955976819e-03 0.0 
0.0 0.0 0.0 
7.552704245640e-03 2.495791236860e-03 0.0 
2.495791236860e-03 -5.051396223602e-03 0.0 
0.0 0.0 0.0 
-1.765264215259e-03 3.405264101991e-03 0.0 
3.405264101991e-03 9.416087943253e-03 0.0 
0.0 0.0 0.0 
2.000301564823e-03 4.091744420146e-03 0.0 
4.091744420146e-03 3.978115141551e-03 0.0 
0.0 0.0 0.0 
-8.849469276262e-07 -5.424700905998e-04 0.0 
-5.424700905998e-04 4.868096306743e-03 0.0 
0.0 0.0 0.0 
-1.276282813513e-04 -2.163729699664e-04 0.0 
-2.163729699664e-04 6.146246362509e-03 0.0 
0.0 0.0 0.0 
-2.144413902514e-04 -1.345752830730e-04 0.0 
-1.345752830730e-04 5.856165249158e-03 0.0 
0.0 0.0 0.0 
-6.494351741663e-04 -1.432531676591e-03 0.0 
-1.432531676591e-03 1.681739087788e-03 0.0 
0.0 0.0 0.0 
-8.582205999806e-04 5.995313083386e-04 0.0 
5.995313083386e-04 1.708757373327e-02 0.0 
0.0 0.0 0.0 
-1.099397978918e-03 4.968602547285e-04 0.0 
4.968602547285e-04 1.685115088032e-02 0.0 
0.0 0.0 0.0 
-1.651011928909e-03 1.087988430930e-04 0.0 
1.087988430930e-04 1.530180828492e-02 0.0 
0.0 0.0 0.0 
1.566195241105e-04 -5.507984166194e-04 0.0 
-5.507984166194e-04 4.926162370960e-03 0.0 
0.0 0.0 0.0 
-7.421472928870e-05 -4.261319799637e-04 0.0 
-4.261319799637e-04 5.142208475772e-03 0.0 
0.0 0.0 0.0 
-8.801838889140e-04 3.295375689084e-04 0.0 
3.295375689084e-04 1.710917078712e-02 0.0 
0.0 0.0 0.0 
-9.615554198076e-04 4.395011951518e-04 0.0 
4.395011951518e-04 1.698501839415e-02 0.0 
0.0 0.0 0.0 
3.213110954206e-04 -9.413160934057e-04 0.0 
-9.413160934057e-04 3.902775672834e-03 0.0 
0.0 0.0 0.0 
-9.207924914278e-05 -1.745062738128e-04 0.0 
-1.745062738128e-04 6.535309280159e-03 0.0 
0.0 0.0 0.0 
-1.378721105829e-03 9.656653266134e-04 0.0 
9.656653266134e-04 1.677745766993e-02 0.0 
0.0 0.0 0.0 
-2.486417187265e-04 -1.381093397388e-04 0.0 
-1.381093397388e-04 5.856161931351e-03 0.0 
0.0 0.0 0.0 
1.768030823850e-04 -2.035757869280e-04 0.0 
-2.035757869280e-04 6.267048773857e-03 0.0 
0.0 0.0 0.0 
-9.876927620929e-04 5.912265556055e-04 0.0 
5.912265556055e-04 1.708983682332e-02 0.0 
0.0 0.0 0.0 
-1.584313159201e-03 3.880550084668e-04 0.0 
3.880550084668e-04 1.642509842690e-02 0.0 
0.0 0.0 0.0 
9.665135759760e-04 -5.756588372380e-04 0.0 
-5.756588372380e-04 3.969546396772e-03 0.0 
0.0 0.0 0.0 
-2.221535247032e-04 -2.343611892864e-04 0.0 
-2.343611892864e-04 2.014233189912e-03 0.0 
0.0 0.0 0.0 
-6.839465049160e-04 -1.754195957570e-03 0.0 
-1.754195957570e-03 1.350233200047e-03 0.0 
0.0 0.0 0.0 
1.676414627723e-04 -1.995718263669e-04 0.0 
-1.995718263669e-04 7.901515503388e-04 0.0 
0.0 0.0 0.0 
1.726331628111e-04 -1.741608752287e-03 0.0 
-1.741608752287e-03 -7.750779216439e-04 0.0 
0.0 0.0 0.0 
-1.052468856208e-03 4.161875552916e-04 0.0 
4.161875552916e-04 1.698750125770e-02 0.0 
0.0 0.0 0.0 
-1.068902210202e-04 -1.214872807885e-04 0.0 
-1.214872807885e-04 6.378542942428e-03 0.0 
0.0 0.0 0.0 
6.128486930621e-04 -3.138119483519e-04 0.0 
-3.138119483519e-04 -9.226984596655e-05 0.0 
0.0 0.0 0.0 
-1.025410584557e-03 3.566196948018e-03 0.0 
3.566196948018e-03 1.386117516011e-02 0.0 
0.0 0.0 0.0 
-1.679383564874e-03 1.545441450935e-04 0.0 
1.545441450935e-04 1.551687133903e-02 0.0 
0.0 0.0 0.0 
-1.867445798365e-05 -3.715800772122e-04 0.0 
-3.715800772122e-04 5.607888955662e-03 0.0 
0.0 0.0 0.0 
-1.395944677739e-04 -1.683643230059e-04 0.0 
-1.683643230059e-04 5.998666443089e-03 0.0 
0.0 0.0 0.0 
2.224409755576e-04 -1.921831189344e-03 0.0 
-1.921831189344e-03 1.291497899844e-03 0.0 
0.0 0.0 0.0 
-1.961203627766e-04 -1.895290209945e-04 0.0 
-1.895290209945e-04 6.002002040446e-03 0.0 
0.0 0.0 0.0 
-1.720357063784e-03 4.794123382964e-05 0.0 
4.794123382964e-05 1.530046563528e-02 0.0 
0.0 0.0 0.0 
2.694186935475e-03 1.986084817146e-03 0.0 
1.986084817146e-03 4.452418360185e-03 0.0 
0.0 0.0 0.0 
1.519011132667e-04 -1.110389145652e-04 0.0 
-1.110389145652e-04 6.585089019066e-03 0.0 
0.0 0.0 0.0 
-1.167344080941e-04 -1.222758070499e-04 0.0 
-1.222758070499e-04 1.925327636747e-03 0.0 
0.0 0.0 0.0 
3.769683096428e-04 -1.164658997712e-04 0.0 
-1.164658997712e-04 6.081762618988e-03 0.0 
0.0 0.0 0.0 
-1.428941529927e-03 3.660080985446e-04 0.0 
3.660080985446e-04 1.657957711649e-02 0.0 
0.0 0.0 0.0 
-2.446560778137e-04 -1.936280363779e-04 0.0 
-1.936280363779e-04 2.208467075633e-03 0.0 
0.0 0.0 0.0 
-4.118320877351e-04 -1.642799798248e-03 0.0 
-1.642799798248e-03 1.436929699141e-03 0.0 
0.0 0.0 0.0 
-4.101329001083e-04 -2.801737852347e-04 0.0 
-2.801737852347e-04 4.470307598987e-03 0.0 
0.0 0.0 0.0 
-1.685509113760e-03 3.942135510541e-04 0.0 
3.942135510541e-04 1.609348359169e-02 0.0 
0.0 0.0 0.0 
-4.738788619638e-04 -7.871154246687e-04 0.0 
-7.871154246687e-04 2.949764944644e-03 0.0 
0.0 0.0 0.0 
-1.271542162823e-03 3.298911889014e-04 0.0 
3.298911889014e-04 1.673128225622e-02 0.0 
0.0 0.0 0.0 
-1.561782420010e-03 2.545093889439e-04 0.0 
2.545093889439e-04 1.625834957952e-02 0.0 
0.0 0.0 0.0 
-2.875233670070e-04 -6.300884160211e-04 0.0 
-6.300884160211e-04 4.145947453013e-03 0.0 
0.0 0.0 0.0 
-2.427101340814e-04 -2.247390265877e-04 0.0 
-2.247390265877e-04 5.635248027406e-03 0.0 
0.0 0.0 0.0 
-1.674274953398e-04 -2.688233495780e-04 0.0 
-2.688233495780e-04 5.764502064700e-03 0.0 
0.0 0.0 0.0 
-1.292432389381e-03 3.900961057618e-04 0.0 
3.900961057618e-04 1.657546374956e-02 0.0 
0.0 0.0 0.0 
-4.116789303388e-05 -2.147834160091e-04 0.0 
-2.147834160091e-04 1.616006534121e-03 0.0 
0.0 0.0 0.0 
-3.812816197549e-04 -5.310931775343e-04 0.0 
-5.310931775343e-04 4.055389373951e-03 0.0 
0.0 0.0 0.0 
1.419295869449e-03 2.611465461433e-03 0.0 
2.611465461433e-03 7.298574505785e-03 0.0 
0.0 0.0 0.0 
-1.423826865611e-03 5.232474262357e-04 0.0 
5.232474262357e-04 1.671590882119e-02 0.0 
0.0 0.0 0.0 
-4.332346862610e-04 -5.429641440812e-04 0.0 
-5.429641440812e-04 3.721940659634e-03 0.0 
0.0 0.0 0.0 
2.062768677495e-04 -8.205282659298e-04 0.0 
-8.205282659298e-04 4.272516927370e-03 0.0 
0.0 0.0 0.0 
5.314840797648e-04 -1.200267041804e-04 0.0 
-1.200267041804e-04 5.752956018343e-03 0.0 
0.0 0.0 0.0 
-1.432030597642e-03 4.082669668790e-04 0.0 
4.082669668790e-04 1.642222381462e-02 0.0 
0.0 0.0 0.0 
2.814359236731e-03 -1.194583945794e-03 0.0 
-1.194583945794e-03 -5.712763801169e-03 0.0 
0.0 0.0 0.0 
3.512568739388e-04 -7.716071062621e-05 0.0 
-7.716071062621e-05 7.108169936252e-04 0.0 
0.0 0.0 0.0 
6.285201234514e-03 -1.370991776520e-04 0.0 
-1.370991776520e-04 -6.991587538980e-03 0.0 
0.0 0.0 0.0 
-6.035253719994e-05 -1.847287616513e-04 0.0 
-1.847287616513e-04 6.141084620165e-03 0.0 
0.0 0.0 0.0 
-1.563631667541e-03 4.083972358771e-04 0.0 
4.083972358771e-04 1.626195675843e-02 0.0 
0.0 0.0 0.0 
-3.979986779672e-04 -2.260382272056e-04 0.0 
-2.260382272056e-04 4.799347654088e-03 0.0 
0.0 0.0 0.0 
-1.733162274205e-03 2.414307800147e-04 0.0 
2.414307800147e-04 1.572752288808e-02 0.0 
0.0 0.0 0.0 
1.174772453337e-03 3.396101083406e-04 0.0 
3.396101083406e-04 5.144624109392e-03 0.0 
0.0 0.0 0.0 
-3.194309944486e-04 -4.967572481064e-04 0.0 
-4.967572481064e-04 4.383903934647e-03 0.0 
0.0 0.0 0.0 
-9.051462771070e-05 -2.492760316799e-04 0.0 
-2.492760316799e-04 5.761057134842e-03 0.0 
0.0 0.0 0.0 
-1.104403930889e-04 -1.659828895208e-04 0.0 
-1.659828895208e-04 2.002434111313e-03 0.0 
0.0 0.0 0.0 
2.801335397060e-04 -1.256184417486e-04 0.0 
-1.256184417486e-04 6.270242583697e-03 0.0 
0.0 0.0 0.0 
-3.400993184091e-04 -5.944729096852e-04 0.0 
-5.944729096852e-04 4.140663275733e-03 0.0 
0.0 0.0 0.0 
-1.537984699740e-04 -1.335214839302e-04 0.0 
-1.335214839302e-04 2.198572166502e-03 0.0 
0.0 0.0 0.0 
-4.057456788106e-04 -4.869175586259e-04 0.0 
-4.869175586259e-04 4.048334131177e-03 0.0 
0.0 0.0 0.0 
-4.688439187405e-04 -6.576122102442e-04 0.0 
-6.576122102442e-04 3.173194692107e-03 0.0 
0.0 0.0 0.0 
-4.052937355754e-04 -7.339221963237e-04 0.0 
-7.339221963237e-04 2.386780132984e-03 0.0 
0.0 0.0 0.0 
-3.606814631829e-04 -2.518946327714e-04 0.0 
-2.518946327714e-04 4.803999658395e-03 0.0 
0.0 0.0 0.0 
1.014716836963e-03 3.843297885798e-05 0.0 
3.843297885798e-05 -3.483975908848e-04 0.0 
0.0 0.0 0.0 
1.099982233627e-03 -3.946020330838e-06 0.0 
-3.946020330838e-06 -3.627321475513e-04 0.0 
0.0 0.0 0.0 
-1.704738102666e-04 -4.313573164459e-04 0.0 
-4.313573164459e-04 5.143578621888e-03 0.0 
0.0 0.0 0.0 
-6.275798478672e-05 -1.851464061878e-04 0.0 
-1.851464061878e-04 1.813626102428e-03 0.0 
0.0 0.0 0.0 
1.580672135204e-05 -5.748860560879e-04 0.0 
-5.748860560879e-04 4.930693094523e-03 0.0 
0.0 0.0 0.0 
1.045635336387e-04 -6.959674822576e-04 0.0 
-6.959674822576e-04 4.613096531407e-03 0.0 
0.0 0.0 0.0 
-2.643819132255e-04 -1.117712820729e-03 0.0 
-1.117712820729e-03 3.009427973091e-03 0.0 
0.0 0.0 0.0 
2.704050033049e-04 -2.315185622853e-03 0.0 
-2.315185622853e-03 3.550597953894e-04 0.0 
0.0 0.0 0.0 
-1.381116351912e-03 9.341711401769e-04 0.0 
9.341711401769e-04 1.691307605400e-02 0.0 
0.0 0.0 0.0 
3.835383783195e-03 5.595563160097e-03 0.0 
5.595563160097e-03 -6.855000699241e-03 0.0 
0.0 0.0 0.0 
-4.686785029197e-04 -5.392703849770e-04 0.0 
-5.392703849770e-04 3.384084806310e-03 0.0 
0.0 0.0 0.0 
1.133490696195e-03 7.508438136044e-04 0.0 
7.508438136044e-04 5.693468626449e-03 0.0 
0.0 0.0 0.0 
-3.863187645536e-05 -1.543704397617e-04 0.0 
-1.543704397617e-04 1.543500263926e-03 0.0 
0.0 0.0 0.0 
-1.793572252550e-03 2.538352694355e-04 0.0 
2.538352694355e-04 1.591651838549e-02 0.0 
0.0 0.0 0.0 
-1.800696535092e-03 1.224185393820e-04 0.0 
1.224185393820e-04 1.552170971585e-02 0.0 
0.0 0.0 0.0 
-1.868951814166e-04 -4.482757805694e-04 0.0 
-4.482757805694e-04 1.484078574410e-03 0.0 
0.0 0.0 0.0 
7.175353591173e-04 -1.039384560705e-04 0.0 
-1.039384560705e-04 5.386716681555e-03 0.0 
0.0 0.0 0.0 
-1.818590146769e-03 7.856705172503e-04 0.0 
7.856705172503e-04 1.653790150420e-02 0.0 
0.0 0.0 0.0 
-2.135162565199e-04 -2.759044575918e-04 0.0 
-2.759044575918e-04 1.833392570659e-03 0.0 
0.0 0.0 0.0 
-1.337200253728e-03 1.181689516665e-03 0.0 
1.181689516665e-03 1.696513478949e-02 0.0 
0.0 0.0 0.0 
-1.097791728328e-03 1.166056636795e-03 0.0 
1.166056636795e-03 1.696611675489e-02 0.0 
0.0 0.0 0.0 
-2.101940515346e-04 -3.316911290930e-04 0.0 
-3.316911290930e-04 2.052178536023e-03 0.0 
0.0 0.0 0.0 
-1.198899996419e-03 3.617767628987e-03 0.0 
3.617767628987e-03 5.216485489350e-03 0.0 
0.0 0.0 0.0 
-3.379577941482e-04 -5.893693045144e-04 0.0 
-5.893693045144e-04 2.054106748716e-03 0.0 
0.0 0.0 0.0 
-1.217829869415e-04 -3.589892537416e-04 0.0 
-3.589892537416e-04 5.507159564762e-03 0.0 
0.0 0.0 0.0 
-3.444847921050e-04 -3.697032704011e-04 0.0 
-3.697032704011e-04 4.602978715083e-03 0.0 
0.0 0.0 0.0 
-1.092550601872e-03 3.152882184308e-03 0.0 
3.152882184308e-03 1.486807626771e-02 0.0 
0.0 0.0 0.0 
-1.173159765748e-03 9.184411810836e-04 0.0 
9.184411810836e-04 1.691420617243e-02 0.0 
0.0 0.0 0.0 
-5.988175738914e-05 -4.618680957601e-04 0.0 
-4.618680957601e-04 5.228943947076e-03 0.0 
0.0 0.0 0.0 
5.956968117204e-05 -4.421699783576e-04 0.0 
-4.421699783576e-04 5.225228368637e-03 0.0 
0.0 0.0 0.0 
-4.363246936010e-04 -5.548046601971e-04 0.0 
-5.548046601971e-04 1.698156301011e-03 0.0 
0.0 0.0 0.0 
-2.369916137523e-05 -3.413802644108e-04 0.0 
-3.413802644108e-04 5.503889775593e-03 0.0 
0.0 0.0 0.0 
-1.586336691305e-03 7.594935135494e-04 0.0 
7.594935135494e-04 1.654016647643e-02 0.0 
0.0 0.0 0.0 
-3.837030783088e-04 -3.384555499012e-04 0.0 
-3.384555499012e-04 4.598373366846e-03 0.0 
0.0 0.0 0.0 
-1.731340499187e-03 3.969652617463e-04 0.0 
3.969652617463e-04 1.626385471143e-02 0.0 
0.0 0.0 0.0 
-1.618205178051e-03 7.543390766381e-04 0.0 
7.543390766381e-04 1.668751177470e-02 0.0 
0.0 0.0 0.0 
6.207152339999e-03 2.600570419686e-03 0.0 
2.600570419686e-03 -1.522297508354e-03 0.0 
0.0 0.0 0.0 
-1.222355270102e-03 7.138481507977e-04 0.0 
7.138481507977e-04 1.682992774687e-02 0.0 
0.0 0.0 0.0 
-4.453716863242e-04 -4.235519389377e-04 0.0 
-4.235519389377e-04 3.948905567102e-03 0.0 
0.0 0.0 0.0 
-3.673641228747e-04 -4.625763831166e-04 0.0 
-4.625763831166e-04 4.378825992517e-03 0.0 
0.0 0.0 0.0 
-4.749152973622e-04 -5.034132481394e-04 0.0 
-5.034132481394e-04 3.038621307693e-03 0.0 
0.0 0.0 0.0 
-2.106732584128e-04 -1.436114786941e-03 0.0 
-1.436114786941e-03 2.283738310383e-03 0.0 
0.0 0.0 0.0 
-1.577592571505e-03 5.635697436604e-04 0.0 
5.635697436604e-04 1.641495934632e-02 0.0 
0.0 0.0 0.0 
5.301858208819e-04 -1.315735943941e-03 0.0 
-1.315735943941e-03 2.608709947090e-03 0.0 
0.0 0.0 0.0 
-3.285441616228e-04 -5.105362327795e-04 0.0 
-5.105362327795e-04 2.254348123468e-03 0.0 
0.0 0.0 0.0 
9.051887547895e-05 -2.019529527711e-04 0.0 
-2.019529527711e-04 1.049170301880e-03 0.0 
0.0 0.0 0.0 
-1.779768035721e-03 5.711838660716e-04 0.0 
5.711838660716e-04 1.641475916461e-02 0.0 
0.0 0.0 0.0 
-4.859282688258e-04 -6.223236472555e-04 0.0 
-6.223236472555e-04 2.272610886517e-03 0.0 
0.0 0.0 0.0 
5.267396124131e-04 -1.793132544761e-05 0.0 
-1.793132544761e-05 6.071513793869e-03 0.0 
0.0 0.0 0.0 
-1.421906096905e-03 5.584228909685e-04 0.0 
5.584228909685e-04 1.656786511223e-02 0.0 
0.0 0.0 0.0 
9.751683401982e-05 -3.390478804419e-04 0.0 
-3.390478804419e-04 5.602282842356e-03 0.0 
0.0 0.0 0.0 
4.207265498968e-04 1.603933907157e-03 0.0 
1.603933907157e-03 7.480859086302e-03 0.0 
0.0 0.0 0.0 
-4.311103997948e-04 -4.936743460058e-04 0.0 
-4.936743460058e-04 3.711585575725e-03 0.0 
0.0 0.0 0.0 
-3.692802122350e-04 -4.232078268287e-04 0.0 
-4.232078268287e-04 2.067250756028e-03 0.0 
0.0 0.0 0.0 
-2.190534368007e-04 -3.584529913496e-04 0.0 
-3.584529913496e-04 1.248968115202e-03 0.0 
0.0 0.0 0.0 
1.608280527243e-04 -5.692973223902e-04 0.0 
-5.692973223902e-04 4.985036120388e-03 0.0 
0.0 0.0 0.0 
-1.552459465440e-03 2.914882399688e-04 0.0 
2.914882399688e-04 1.609290348269e-02 0.0 
0.0 0.0 0.0 
1.528899573031e-04 -2.003945428929e-04 0.0 
-2.003945428929e-04 7.438608963222e-04 0.0 
0.0 0.0 0.0 
-4.185574478194e-04 -7.019092017835e-04 0.0 
-7.019092017835e-04 2.936352557052e-03 0.0 
0.0 0.0 0.0 
2.943318019955e-05 -8.122799219408e-05 0.0 
-8.122799219408e-05 1.734828215591e-03 0.0 
0.0 0.0 0.0 
-1.866801404901e-03 3.954369576427e-04 0.0 
3.954369576427e-04 1.609394925788e-02 0.0 
0.0 0.0 0.0 
-4.234265739577e-04 -5.858218080672e-04 0.0 
-5.858218080672e-04 3.161943565710e-03 0.0 
0.0 0.0 0.0 
2.655729545848e-04 -6.630757124589e-04 0.0 
-6.630757124589e-04 4.606876138616e-03 0.0 
0.0 0.0 0.0 
-4.144355996888e-04 -4.283177063290e-04 0.0 
-4.283177063290e-04 3.030621581501e-03 0.0 
0.0 0.0 0.0 
-1.238098779628e-03 4.800728245092e-04 0.0 
4.800728245092e-04 1.685393024981e-02 0.0 
0.0 0.0 0.0 
-5.029945756269e-04 -7.241289000810e-04 0.0 
-7.241289000810e-04 2.623277603967e-03 0.0 
0.0 0.0 0.0 
4.477238825760e-04 -6.198761321184e-04 0.0 
-6.198761321184e-04 4.688973969410e-03 0.0 
0.0 0.0 0.0 
-5.126692667697e-04 -1.479942492159e-03 0.0 
-1.479942492159e-03 1.306224012297e-03 0.0 
0.0 0.0 0.0 
2.722502333294e-04 -6.793913138662e-04 0.0 
-6.793913138662e-04 4.645895201520e-03 0.0 
0.0 0.0 0.0 
-4.257275349800e-04 -3.578397474339e-04 0.0 
-3.578397474339e-04 4.270979455156e-03 0.0 
0.0 0.0 0.0 
2.053643941171e-04 -4.292381409900e-04 0.0 
-4.292381409900e-04 5.299785221787e-03 0.0 
0.0 0.0 0.0 
6.844780245980e-03 -1.139582115075e-03 0.0 
-1.139582115075e-03 -4.450228962513e-03 0.0 
0.0 0.0 0.0 
-7.901260062004e-05 -1.402350219451e-04 0.0 
-1.402350219451e-04 1.751448635129e-03 0.0 
0.0 0.0 0.0 
-1.732176069240e-03 1.491732407154e-04 0.0 
1.491732407154e-04 1.572800964604e-02 0.0 
0.0 0.0 0.0 
2.559638216777e-03 2.215909103786e-04 0.0 
2.215909103786e-04 2.603433329122e-03 0.0 
0.0 0.0 0.0 
-3.414053566261e-04 3.742687660682e-03 0.0 
3.742687660682e-03 5.808042153707e-03 0.0 
0.0 0.0 0.0 
-1.685272512378e-03 2.606634122629e-04 0.0 
2.606634122629e-04 1.609394693487e-02 0.0 
0.0 0.0 0.0 
-3.623193036969e-04 -1.984250377344e-03 0.0 
-1.984250377344e-03 9.055276089476e-04 0.0 
0.0 0.0 0.0 
-1.920406251457e-03 7.673478411676e-04 0.0 
7.673478411676e-04 1.621414201475e-02 0.0 
0.0 0.0 0.0 
7.912373552021e-05 -1.026831052498e-04 0.0 
-1.026831052498e-04 1.519792795695e-03 0.0 
0.0 0.0 0.0 
4.394835483987e-04 -2.739905137721e-04 0.0 
-2.739905137721e-04 5.593510151789e-03 0.0 
0.0 0.0 0.0 
2.657108923953e-03 6.964817501441e-04 0.0 
6.964817501441e-04 3.157722034705e-03 0.0 
0.0 0.0 0.0 
2.307705208902e-03 2.264642760079e-03 0.0 
2.264642760079e-03 5.398985224927e-03 0.0 
0.0 0.0 0.0 
-1.071640406824e-03 1.107151649605e-03 0.0 
1.107151649605e-03 1.709872591583e-02 0.0 
0.0 0.0 0.0 
6.191325327587e-04 -1.137885949908e-03 0.0 
-1.137885949908e-03 3.020001471600e-03 0.0 
0.0 0.0 0.0 
-2.110822123598e-04 -3.006888359176e-04 0.0 
-3.006888359176e-04 1.636761387955e-03 0.0 
0.0 0.0 0.0 
5.333711535889e-04 -8.839560698686e-04 0.0 
-8.839560698686e-04 3.894976188304e-03 0.0 
0.0 0.0 0.0 
7.051463124503e-04 1.885858402143e-06 0.0 
1.885858402143e-06 5.733034320098e-03 0.0 
0.0 0.0 0.0 
2.009511922314e-04 -2.167096295051e-03 0.0 
-2.167096295051e-03 6.228893858116e-04 0.0 
0.0 0.0 0.0 
6.317671155820e-05 -4.653459727975e-04 0.0 
-4.653459727975e-04 5.306114673683e-03 0.0 
0.0 0.0 0.0 
-1.605226025380e-03 5.524051279208e-04 0.0 
5.524051279208e-04 1.656919474790e-02 0.0 
0.0 0.0 0.0 
8.003323836532e-04 -2.623118996127e-03 0.0 
-2.623118996127e-03 -6.144907375647e-04 0.0 
0.0 0.0 0.0 
3.956818655373e-04 -7.879778762875e-04 0.0 
-7.879778762875e-04 4.285764678532e-03 0.0 
0.0 0.0 0.0 
-2.079789240844e-03 3.702109038967e-04 0.0 
3.702109038967e-04 1.572392085257e-02 0.0 
0.0 0.0 0.0 
-2.592422309486e-04 -2.343864846403e-04 0.0 
-2.343864846403e-04 2.442154797917e-03 0.0 
0.0 0.0 0.0 
-4.166172638872e-04 -8.319190871005e-04 0.0 
-8.319190871005e-04 2.696687572782e-03 0.0 
0.0 0.0 0.0 
4.780428432316e-04 3.738713780296e-03 0.0 
3.738713780296e-03 6.327021715879e-03 0.0 
0.0 0.0 0.0 
3.276747201746e-04 -5.256113770637e-04 0.0 
-5.256113770637e-04 4.977326119510e-03 0.0 
0.0 0.0 0.0 
-1.173625043739e-03 3.558603808033e-03 0.0 
3.558603808033e-03 7.148666123948e-03 0.0 
0.0 0.0 0.0 
1.152350928241e-03 3.942214028211e-03 0.0 
3.942214028211e-03 5.295205590965e-03 0.0 
0.0 0.0 0.0 
-1.758344018776e-03 7.649480406769e-04 0.0 
7.649480406769e-04 1.638125790357e-02 0.0 
0.0 0.0 0.0 
-1.648370809901e-03 2.739482515416e-04 0.0 
2.739482515416e-04 1.591369574479e-02 0.0 
0.0 0.0 0.0 
-1.981752309089e-03 5.090872779846e-04 0.0 
5.090872779846e-04 1.591867944665e-02 0.0 
0.0 0.0 0.0 
-3.984566378151e-04 -4.067597483130e-04 0.0 
-4.067597483130e-04 4.281346744973e-03 0.0 
0.0 0.0 0.0 
9.166001275609e-04 -9.590918394676e-05 0.0 
-9.590918394676e-05 5.056175699011e-03 0.0 
0.0 0.0 0.0 
6.933393033088e-04 -9.546580363720e-04 0.0 
-9.546580363720e-04 3.455454758342e-03 0.0 
0.0 0.0 0.0 
-1.890498210140e-03 2.371807251735e-04 0.0 
2.371807251735e-04 1.572852331048e-02 0.0 
0.0 0.0 0.0 
-7.536754013499e-04 3.796016421387e-03 0.0 
3.796016421387e-03 1.341800101983e-02 0.0 
0.0 0.0 0.0 
1.933856013178e-03 2.490592027857e-03 0.0 
2.490592027857e-03 6.308524259421e-03 0.0 
0.0 0.0 0.0 
4.607672442196e-04 -6.207115993571e-04 0.0 
-6.207115993571e-04 4.635742156460e-03 0.0 
0.0 0.0 0.0 
-1.406454501191e-03 7.425804820668e-04 0.0 
7.425804820668e-04 1.668816289379e-02 0.0 
0.0 0.0 0.0 
-2.654665073336e-04 -1.236032370755e-03 0.0 
-1.236032370755e-03 2.667154791855e-03 0.0 
0.0 0.0 0.0 
-3.746874258131e-04 -1.043761863499e-03 0.0 
-1.043761863499e-03 2.715808748645e-03 0.0 
0.0 0.0 0.0 
-1.908092485491e-04 -4.083125435967e-04 0.0 
-4.083125435967e-04 1.674172908104e-03 0.0 
0.0 0.0 0.0 
7.524712788889e-04 -7.659237697819e-04 0.0 
-7.659237697819e-04 3.909497366236e-03 0.0 
0.0 0.0 0.0 
-3.899702596305e-04 -8.860240683868e-04 0.0 
-8.860240683868e-04 2.997615432335e-03 0.0 
0.0 0.0 0.0 
-1.945335496444e-03 5.804048427645e-04 0.0 
5.804048427645e-04 1.625271459942e-02 0.0 
0.0 0.0 0.0 
-2.101497447118e-03 5.862755729327e-04 0.0 
5.862755729327e-04 1.608289342478e-02 0.0 
0.0 0.0 0.0 
5.840904081354e-03 1.527588970455e-03 0.0 
1.527588970455e-03 -1.004037071535e-03 0.0 
0.0 0.0 0.0 
-4.886985313191e-04 -1.093730742749e-03 0.0 
-1.093730742749e-03 2.455091978656e-03 0.0 
0.0 0.0 0.0 
7.315364849519e-03 2.872207254804e-03 0.0 
2.872207254804e-03 -5.791876306154e-03 0.0 
0.0 0.0 0.0 
-4.817451615203e-04 -9.311005249972e-04 0.0 
-9.311005249972e-04 2.712444696508e-03 0.0 
0.0 0.0 0.0 
-3.814455260662e-04 -1.129742126476e-03 0.0 
-1.129742126476e-03 2.729110422786e-03 0.0 
0.0 0.0 0.0 
-3.968223953015e-04 -4.876211073840e-04 0.0 
-4.876211073840e-04 1.886017848763e-03 0.0 
0.0 0.0 0.0 
1.109203071889e-03 -3.502529566934e-05 0.0 
-3.502529566934e-05 4.732371733794e-03 0.0 
0.0 0.0 0.0 
3.461426660643e-04 -1.441161998147e-03 0.0 
-1.441161998147e-03 2.396608668675e-03 0.0 
0.0 0.0 0.0 
-1.410610019753e-03 7.109520745065e-04 0.0 
7.109520745065e-04 1.683091832729e-02 0.0 
0.0 0.0 0.0 
6.807806356388e-04 -1.392590424384e-03 0.0 
-1.392590424384e-03 2.208625259596e-03 0.0 
0.0 0.0 0.0 
7.582676043314e-04 -7.637538572825e-04 0.0 
-7.637538572825e-04 3.875331035228e-03 0.0 
0.0 0.0 0.0 
5.805245611936e-04 -1.114611703686e-03 0.0 
-1.114611703686e-03 3.090137737659e-03 0.0 
0.0 0.0 0.0 
3.230613284746e-03 3.801373595224e-03 0.0 
3.801373595224e-03 2.869545096957e-03 0.0 
0.0 0.0 0.0 
-1.981051186674e-04 -3.678607113819e-04 0.0 
-3.678607113819e-04 1.864882399372e-03 0.0 
0.0 0.0 0.0 
9.448709197850e-04 2.868910065397e-05 0.0 
2.868910065397e-05 5.360274118906e-03 0.0 
0.0 0.0 0.0 
7.733672028789e-04 1.454173681148e-04 0.0 
1.454173681148e-04 5.699632182178e-03 0.0 
0.0 0.0 0.0 
5.711070592056e-04 3.918685155635e-03 0.0 
3.918685155635e-03 7.684981794500e-03 0.0 
0.0 0.0 0.0 
-2.046816040682e-04 -1.296282193577e-03 0.0 
-1.296282193577e-03 2.676091139472e-03 0.0 
0.0 0.0 0.0 
6.764334839906e-04 -9.412813740793e-04 0.0 
-9.412813740793e-04 3.472948059016e-03 0.0 
0.0 0.0 0.0 
-1.724582692561e-03 5.565145389351e-04 0.0 
5.565145389351e-04 1.625474257122e-02 0.0 
0.0 0.0 0.0 
-3.060721783279e-04 -1.059672869285e-03 0.0 
-1.059672869285e-03 3.000778092608e-03 0.0 
0.0 0.0 0.0 
5.266450557464e-04 4.300513012184e-03 0.0 
4.300513012184e-03 4.759125851503e-03 0.0 
0.0 0.0 0.0 
-3.995999290382e-04 -6.244404701488e-04 0.0 
-6.244404701488e-04 2.607272034610e-03 0.0 
0.0 0.0 0.0 
2.535018853722e-06 -2.304784976005e-03 0.0 
-2.304784976005e-03 3.550488058948e-04 0.0 
0.0 0.0 0.0 
-8.919341673619e-05 -1.387729390362e-03 0.0 
-1.387729390362e-03 2.556332592971e-03 0.0 
0.0 0.0 0.0 
-4.568819648754e-04 -5.311404961923e-04 0.0 
-5.311404961923e-04 2.467434845047e-03 0.0 
0.0 0.0 0.0 
-2.302155080328e-04 -2.820100341122e-04 0.0 
-2.820100341122e-04 2.248135466948e-03 0.0 
0.0 0.0 0.0 
3.640722299307e-04 -1.203460108149e-03 0.0 
-1.203460108149e-03 3.105028669403e-03 0.0 
0.0 0.0 0.0 
6.032662726760e-04 -7.040750103483e-04 0.0 
-7.040750103483e-04 4.271682738363e-03 0.0 
0.0 0.0 0.0 
9.661629863331e-04 4.032850307579e-03 0.0 
4.032850307579e-03 9.043957838089e-03 0.0 
0.0 0.0 0.0 
1.631065446320e-03 -4.309527884892e-05 0.0 
-4.309527884892e-05 -5.208687103335e-04 0.0 
0.0 0.0 0.0 
2.200063793790e-03 -1.161048283585e-03 0.0 
-1.161048283585e-03 6.235968042485e-04 0.0 
0.0 0.0 0.0 
9.396368325583e-04 -1.489572330701e-03 0.0 
-1.489572330701e-03 1.609004358392e-03 0.0 
0.0 0.0 0.0 
4.514657312904e-05 -1.405607224010e-03 0.0 
-1.405607224010e-03 2.558213447428e-03 0.0 
0.0 0.0 0.0 
-1.859646779851e-03 5.368501545407e-04 0.0 
5.368501545407e-04 1.608776573741e-02 0.0 
0.0 0.0 0.0 
4.706311979796e-04 -1.282454045355e-03 0.0 
-1.282454045355e-03 2.729832063510e-03 0.0 
0.0 0.0 0.0 
-4.841623465788e-04 -6.086940560430e-04 0.0 
-6.086940560430e-04 2.833132602247e-03 0.0 
0.0 0.0 0.0 
1.455052412407e-04 -1.475863447075e-03 0.0 
-1.475863447075e-03 2.403105584269e-03 0.0 
0.0 0.0 0.0 
-1.261013890482e-03 5.380639558396e-04 0.0 
5.380639558396e-04 1.671364269528e-02 0.0 
0.0 0.0 0.0 
-4.031793567008e-04 -5.265317279322e-04 0.0 
-5.265317279322e-04 2.819897088739e-03 0.0 
0.0 0.0 0.0 
8.587682991390e-05 -1.891499067123e-04 0.0 
-1.891499067123e-04 9.460239107171e-04 0.0 
0.0 0.0 0.0 
-2.125036336605e-04 -3.316622851441e-04 0.0 
-3.316622851441e-04 1.451552510022e-03 0.0 
0.0 0.0 0.0 
-2.729004355051e-06 -2.059443697049e-03 0.0 
-2.059443697049e-03 1.081165031817e-03 0.0 
0.0 0.0 0.0 
-3.443707557147e-04 -1.320575569711e-03 0.0 
-1.320575569711e-03 2.416917563533e-03 0.0 
0.0 0.0 0.0 
1.496318185644e-03 -1.246280838770e-03 0.0 
-1.246280838770e-03 1.347574217265e-03 0.0 
0.0 0.0 0.0 
4.262311403058e-04 -1.487247140009e-03 0.0 
-1.487247140009e-03 2.225852863545e-03 0.0 
0.0 0.0 0.0 
-4.552600204002e-04 -1.766276057368e-03 0.0 
-1.766276057368e-03 8.307873759621e-04 0.0 
0.0 0.0 0.0 
-1.071373194717e-06 -2.076862811921e-04 0.0 
-2.076862811921e-04 1.432200388565e-03 0.0 
0.0 0.0 0.0 
-2.560340916479e-03 9.242071501783e-04 0.0 
9.242071501783e-04 1.584057331907e-02 0.0 
0.0 0.0 0.0 
-3.329081142580e-04 -4.404309987717e-04 0.0 
-4.404309987717e-04 2.452894114870e-03 0.0 
0.0 0.0 0.0 
1.245213680038e-03 -1.095820356516e-04 0.0 
-1.095820356516e-04 4.459740924670e-03 0.0 
0.0 0.0 0.0 
1.342909557795e-03 3.951417397973e-03 0.0 
3.951417397973e-03 8.167128549676e-03 0.0 
0.0 0.0 0.0 
-2.115734963533e-03 3.092124275797e-03 0.0 
3.092124275797e-03 1.334748297519e-02 0.0 
0.0 0.0 0.0 
-1.480190119736e-03 1.579207692932e-03 0.0 
1.579207692932e-03 1.660995949827e-02 0.0 
0.0 0.0 0.0 
6.271512636562e-04 4.088630063984e-03 0.0 
4.088630063984e-03 9.891101125045e-03 0.0 
0.0 0.0 0.0 
6.500499944007e-03 2.137028633647e-03 0.0 
2.137028633647e-03 -1.454521117826e-03 0.0 
0.0 0.0 0.0 
9.902541513689e-04 3.953295947539e-03 0.0 
3.953295947539e-03 7.875207678629e-03 0.0 
0.0 0.0 0.0 
-1.999292915398e-04 -2.397080794394e-03 0.0 
-2.397080794394e-03 1.425496978820e-04 0.0 
0.0 0.0 0.0 
2.569903478244e-05 -1.306026470898e-03 0.0 
-1.306026470898e-03 2.859630504919e-03 0.0 
0.0 0.0 0.0 
4.289811965230e-03 3.861433826719e-03 0.0 
3.861433826719e-03 -1.811646367991e-04 0.0 
0.0 0.0 0.0 
4.340482475569e-03 -3.654299830553e-03 0.0 
-3.654299830553e-03 -3.227919843529e-03 0.0 
0.0 0.0 0.0 
-3.123091636379e-04 -2.150292180860e-03 0.0 
-2.150292180860e-03 1.333317887133e-04 0.0 
0.0 0.0 0.0 
-4.013578121503e-04 -9.627561178592e-04 0.0 
-9.627561178592e-04 3.009406121065e-03 0.0 
0.0 0.0 0.0 
6.391746077645e-04 -1.617926643339e-03 0.0 
-1.617926643339e-03 1.633366028349e-03 0.0 
0.0 0.0 0.0 
9.975686856878e-04 -1.500654846036e-03 0.0 
-1.500654846036e-03 1.391481399857e-03 0.0 
0.0 0.0 0.0 
-4.419370222430e-04 -4.483880750842e-04 0.0 
-4.483880750842e-04 2.662487336595e-03 0.0 
0.0 0.0 0.0 
7.860650765816e-04 -1.192703999657e-03 0.0 
-1.192703999657e-03 2.588403860555e-03 0.0 
0.0 0.0 0.0 
1.415873036823e-03 -1.527067279325e-03 0.0 
-1.527067279325e-03 6.927645290971e-04 0.0 
0.0 0.0 0.0 
3.088226720071e-03 -7.200773148605e-04 0.0 
-7.200773148605e-04 3.298557815521e-04 0.0 
0.0 0.0 0.0 
-3.558065200884e-04 -1.223372970847e-03 0.0 
-1.223372970847e-03 2.402530979785e-03 0.0 
0.0 0.0 0.0 
2.814366287796e-03 1.381736752769e-03 0.0 
1.381736752769e-03 3.692216137224e-03 0.0 
0.0 0.0 0.0 
-2.010860700390e-03 8.162603035471e-04 0.0 
8.162603035471e-04 1.637617416106e-02 0.0 
0.0 0.0 0.0 
4.133805973075e-03 -5.475556846777e-04 0.0 
-5.475556846777e-04 -6.343406181440e-04 0.0 
0.0 0.0 0.0 
1.173293395156e-03 1.111934845096e-04 0.0 
1.111934845096e-04 5.023337037600e-03 0.0 
0.0 0.0 0.0 
3.070720974034e-04 -2.620463917275e-03 0.0 
-2.620463917275e-03 -6.121163472598e-04 0.0 
0.0 0.0 0.0 
1.142393751115e-03 8.082330475921e-04 0.0 
8.082330475921e-04 5.873433123274e-03 0.0 
0.0 0.0 0.0 
1.040844081798e-03 -1.257503056062e-03 0.0 
-1.257503056062e-03 2.010896731443e-03 0.0 
0.0 0.0 0.0 
3.638181798009e-04 4.178892524087e-03 0.0 
4.178892524087e-03 1.074783087996e-02 0.0 
0.0 0.0 0.0 
-9.125798700440e-04 3.694040282111e-03 0.0 
3.694040282111e-03 1.024001166791e-02 0.0 
0.0 0.0 0.0 
-2.590974375005e-04 -2.168194417672e-03 0.0 
-2.168194417672e-03 9.331403175297e-04 0.0 
0.0 0.0 0.0 
-1.781973910896e-03 3.300719686296e-03 0.0 
3.300719686296e-03 1.279245433183e-02 0.0 
0.0 0.0 0.0 
-1.423161086178e-03 2.360893768873e-03 0.0 
2.360893768873e-03 1.600567264843e-02 0.0 
0.0 0.0 0.0 
1.625181211673e-03 -9.874593233160e-04 0.0 
-9.874593233160e-04 1.796361593073e-03 0.0 
0.0 0.0 0.0 
2.044944921934e-03 4.618878585979e-03 0.0 
4.618878585979e-03 1.921364347799e-03 0.0 
0.0 0.0 0.0 
-1.453040182592e-03 3.472600924466e-03 0.0 
3.472600924466e-03 1.224972809707e-02 0.0 
0.0 0.0 0.0 
-8.731703696330e-05 3.791915102976e-03 0.0 
3.791915102976e-03 6.060926529900e-03 0.0 
0.0 0.0 0.0 
-6.488728765187e-04 -2.102638446435e-03 0.0 
-2.102638446435e-03 8.869518729258e-04 0.0 
0.0 0.0 0.0 
-7.277253895593e-04 2.044510593518e-03 0.0 
2.044510593518e-03 1.681083042003e-02 0.0 
0.0 0.0 0.0 
-8.372754660833e-04 -1.487697309384e-03 0.0 
-1.487697309384e-03 1.209169554881e-03 0.0 
0.0 0.0 0.0 
1.135058334857e-03 2.103874138202e-03 0.0 
2.103874138202e-03 7.547593537194e-03 0.0 
0.0 0.0 0.0 
-9.652667114830e-04 8.606665107928e-04 0.0 
8.606665107928e-04 1.704609669517e-02 0.0 
0.0 0.0 0.0 
2.526715196923e-03 1.112588541380e-03 0.0 
1.112588541380e-03 3.924411494662e-03 0.0 
0.0 0.0 0.0 
-1.794975522275e-03 3.699922472441e-04 0.0 
3.699922472441e-04 1.591200051982e-02 0.0 
0.0 0.0 0.0 
-1.813305394806e-03 1.337528553384e-03 0.0 
1.337528553384e-03 1.664182283367e-02 0.0 
0.0 0.0 0.0 
2.245761932854e-03 -1.159060351841e-03 0.0 
-1.159060351841e-03 4.067403501251e-04 0.0 
0.0 0.0 0.0 
4.735088518625e-03 1.585184134912e-03 0.0 
1.585184134912e-03 6.803411841925e-04 0.0 
0.0 0.0 0.0 
-1.140894397556e-03 1.807266168795e-03 0.0 
1.807266168795e-03 1.672006734082e-02 0.0 
0.0 0.0 0.0 
6.625993516627e-04 -5.304187603052e-04 0.0 
-5.304187603052e-04 4.673741260032e-03 0.0 
0.0 0.0 0.0 
-2.047345718149e-03 1.099062453402e-03 0.0 
1.099062453402e-03 1.644861452120e-02 0.0 
0.0 0.0 0.0 
2.483720137245e-03 3.180620343572e-04 0.0 
3.180620343572e-04 3.051288568052e-03 0.0 
0.0 0.0 0.0 
3.053564547173e-05 -2.511112957435e-03 0.0 
-2.511112957435e-03 1.590660439010e-04 0.0 
0.0 0.0 0.0 
-2.038590950724e-03 1.422206573170e-03 0.0 
1.422206573170e-03 1.645536409693e-02 0.0 
0.0 0.0 0.0 
5.421046419694e-04 3.642758500754e-03 0.0 
3.642758500754e-03 1.066951941943e-02 0.0 
0.0 0.0 0.0 
9.733839149408e-04 3.319434153270e-04 0.0 
3.319434153270e-04 5.655766026329e-03 0.0 
0.0 0.0 0.0 
1.838624434152e-04 -1.292864725210e-03 0.0 
-1.292864725210e-03 2.856705241188e-03 0.0 
0.0 0.0 0.0 
-1.986155231279e-03 3.825274991319e-04 0.0 
3.825274991319e-04 1.591124792780e-02 0.0 
0.0 0.0 0.0 
-1.883500584971e-03 3.337351332272e-04 0.0 
3.337351332272e-04 1.572745625118e-02 0.0 
0.0 0.0 0.0 
7.407498780292e-04 -1.413728054573e-03 0.0 
-1.413728054573e-03 2.036649382473e-03 0.0 
0.0 0.0 0.0 
8.274514484983e-04 -5.800366585384e-04 0.0 
-5.800366585384e-04 4.293161297009e-03 0.0 
0.0 0.0 0.0 
1.046924388715e-03 -3.882615483147e-04 0.0 
-3.882615483147e-04 4.346007315333e-03 0.0 
0.0 0.0 0.0 
4.996034799198e-05 -2.185842191988e-04 0.0 
-2.185842191988e-04 1.225328213091e-03 0.0 
0.0 0.0 0.0 
6.834685229195e-03 3.330453533003e-03 0.0 
3.330453533003e-03 -6.314734376927e-03 0.0 
0.0 0.0 0.0 
4.869410044457e-03 7.971018189216e-05 0.0 
7.971018189216e-05 -8.251080619524e-04 0.0 
0.0 0.0 0.0 
3.127612121051e-03 -9.897037806630e-04 0.0 
-9.897037806630e-04 -5.530950131138e-04 0.0 
0.0 0.0 0.0 
1.301615323789e-03 4.103654372876e-03 0.0 
4.103654372876e-03 3.980169120020e-03 0.0 
0.0 0.0 0.0 
-1.135716478019e-03 1.753742566612e-03 0.0 
1.753742566612e-03 1.691898730185e-02 0.0 
0.0 0.0 0.0 
-8.828903420092e-04 3.519932375982e-03 0.0 
3.519932375982e-03 1.386605630765e-02 0.0 
0.0 0.0 0.0 
-1.145389347197e-03 8.575626447277e-04 0.0 
8.575626447277e-04 1.704661525361e-02 0.0 
0.0 0.0 0.0 
-1.304674586405e-03 3.539714136092e-03 0.0 
3.539714136092e-03 7.995713044712e-03 0.0 
0.0 0.0 0.0 
-1.770032493927e-03 2.125454936827e-03 0.0 
2.125454936827e-03 1.592930706160e-02 0.0 
0.0 0.0 0.0 
5.935284469862e-04 -7.039535126114e-04 0.0 
-7.039535126114e-04 4.313349619022e-03 0.0 
0.0 0.0 0.0 
-1.026771884129e-03 1.422993198037e-03 0.0 
1.422993198037e-03 1.696280839316e-02 0.0 
0.0 0.0 0.0 
-2.245260398210e-03 1.520044670417e-03 0.0 
1.520044670417e-03 1.624721653960e-02 0.0 
0.0 0.0 0.0 
2.613946136341e-04 -1.346285327002e-03 0.0 
-1.346285327002e-03 2.740985470088e-03 0.0 
0.0 0.0 0.0 
6.179390439292e-03 5.009016059211e-04 0.0 
5.009016059211e-04 -2.135239766949e-03 0.0 
0.0 0.0 0.0 
-1.757065674787e-03 1.325524291027e-03 0.0 
1.325524291027e-03 1.646567663088e-02 0.0 
0.0 0.0 0.0 
-1.505209224972e-03 1.557934604476e-03 0.0 
1.557934604476e-03 1.679548619818e-02 0.0 
0.0 0.0 0.0 
-1.580551892508e-03 9.937247043289e-04 0.0 
9.937247043289e-04 1.662092947485e-02 0.0 
0.0 0.0 0.0 
-1.773406907011e-03 1.023410048870e-03 0.0 
1.023410048870e-03 1.645649005242e-02 0.0 
0.0 0.0 0.0 
8.318886000602e-04 -1.822565568465e-04 0.0 
-1.822565568465e-04 5.209068688136e-03 0.0 
0.0 0.0 0.0 
1.280333849402e-03 2.274519414856e-03 0.0 
2.274519414856e-03 7.443451561930e-03 0.0 
0.0 0.0 0.0 
1.044392244244e-03 -1.756506914089e-04 0.0 
-1.756506914089e-04 4.835495297497e-03 0.0 
0.0 0.0 0.0 
5.182156702772e-04 -8.669050228396e-04 0.0 
-8.669050228396e-04 3.889780925304e-03 0.0 
0.0 0.0 0.0 
-2.040666219810e-03 3.275110303131e-03 0.0 
3.275110303131e-03 9.979930238890e-03 0.0 
0.0 0.0 0.0 
2.263100202432e-03 1.483411677442e-03 0.0 
1.483411677442e-03 4.771150927854e-03 0.0 
0.0 0.0 0.0 
-2.018451821906e-03 2.432562593745e-03 0.0 
2.432562593745e-03 1.512371940746e-02 0.0 
0.0 0.0 0.0 
-3.584011343218e-04 -3.680679245604e-04 0.0 
-3.680679245604e-04 2.261873504778e-03 0.0 
0.0 0.0 0.0 
3.994211832800e-03 -3.722927619237e-04 0.0 
-3.722927619237e-04 -7.466204532445e-04 0.0 
0.0 0.0 0.0 
3.587738560309e-03 9.308049778694e-05 0.0 
9.308049778694e-05 8.854813890462e-04 0.0 
0.0 0.0 0.0 
3.789143961905e-03 1.614883688369e-03 0.0 
1.614883688369e-03 2.215623788967e-03 0.0 
0.0 0.0 0.0 
6.949614391217e-03 -1.641845205790e-03 0.0 
-1.641845205790e-03 -6.572348769904e-03 0.0 
0.0 0.0 0.0 
5.320538983657e-03 -1.004776144617e-06 0.0 
-1.004776144617e-06 -2.044578022238e-03 0.0 
0.0 0.0 0.0 
3.073635150512e-03 1.662355725891e-03 0.0 
1.662355725891e-03 3.492313429768e-03 0.0 
0.0 0.0 0.0 
-1.546204787883e-03 3.453669460022e-03 0.0 
3.453669460022e-03 9.641632377591e-03 0.0 
0.0 0.0 0.0 
3.075896020985e-04 -1.162464407344e-03 0.0 
-1.162464407344e-03 3.180202391358e-03 0.0 
0.0 0.0 0.0 
-2.443028235328e-03 1.243232956209e-03 0.0 
1.243232956209e-03 1.607166252611e-02 0.0 
0.0 0.0 0.0 
-1.744446112620e-03 8.301531533506e-05 0.0 
8.301531533506e-05 1.505584084621e-02 0.0 
0.0 0.0 0.0 
-2.090476660350e-03 6.478178573753e-03 0.0 
6.478178573753e-03 2.895418531329e-03 0.0 
0.0 0.0 0.0 
4.554293804646e-04 -1.049270714253e-03 0.0 
-1.049270714253e-03 3.490737671748e-03 0.0 
0.0 0.0 0.0 
2.351839641609e-03 1.064514165278e-03 0.0 
1.064514165278e-03 4.157873827251e-03 0.0 
0.0 0.0 0.0 
-8.489494837183e-04 3.421335052390e-03 0.0 
3.421335052390e-03 1.442432663818e-02 0.0 
0.0 0.0 0.0 
5.183704088787e-03 1.327830817803e-03 0.0 
1.327830817803e-03 -1.756792173444e-04 0.0 
0.0 0.0 0.0 
4.188281424582e-04 -1.019590677962e-03 0.0 
-1.019590677962e-03 3.525557183395e-03 0.0 
0.0 0.0 0.0 
-2.195052596141e-03 8.475682654963e-04 0.0 
8.475682654963e-04 1.620595844839e-02 0.0 
0.0 0.0 0.0 
-1.849536923559e-03 5.065637403805e-03 0.0 
5.065637403805e-03 3.956045904465e-03 0.0 
0.0 0.0 0.0 
2.630416224639e-03 1.315180613295e-03 0.0 
1.315180613295e-03 3.893304408318e-03 0.0 
0.0 0.0 0.0 
4.017271995658e-03 1.139091220961e-03 0.0 
1.139091220961e-03 1.334451609358e-03 0.0 
0.0 0.0 0.0 
-1.715858432083e-03 3.439194299538e-03 0.0 
3.439194299538e-03 1.041740066351e-02 0.0 
0.0 0.0 0.0 
7.901144302040e-04 -5.604522490589e-04 0.0 
-5.604522490589e-04 4.373462835846e-03 0.0 
0.0 0.0 0.0 
2.503521207147e-03 -3.298320476587e-03 0.0 
-3.298320476587e-03 -3.266057641985e-03 0.0 
0.0 0.0 0.0 
9.706160745826e-04 -3.452566040110e-04 0.0 
-3.452566040110e-04 4.497161874057e-03 0.0 
0.0 0.0 0.0 
1.217505005526e-03 4.408140635811e-04 0.0 
4.408140635811e-04 5.349566314085e-03 0.0 
0.0 0.0 0.0 
2.858427369553e-03 1.562647139796e-03 0.0 
1.562647139796e-03 3.664836321943e-03 0.0 
0.0 0.0 0.0 
-1.833837326645e-03 1.043679837005e-03 0.0 
1.043679837005e-03 1.661586454916e-02 0.0 
0.0 0.0 0.0 
1.909439274204e-03 3.383336406214e-03 0.0 
3.383336406214e-03 7.327475664185e-03 0.0 
0.0 0.0 0.0 
9.709015503976e-04 2.358535502847e-04 0.0 
2.358535502847e-04 5.376543825514e-03 0.0 
0.0 0.0 0.0 
-1.576716530927e-03 2.952282607909e-03 0.0 
2.952282607909e-03 5.022093430906e-03 0.0 
0.0 0.0 0.0 
-2.251049390713e-03 1.162083953769e-03 0.0 
1.162083953769e-03 1.626691579906e-02 0.0 
0.0 0.0 0.0 
1.127128916352e-03 2.667150045214e-03 0.0 
2.667150045214e-03 8.117765620053e-03 0.0 
0.0 0.0 0.0 
-1.548229273931e-03 1.271375718880e-03 0.0 
1.271375718880e-03 1.664871572525e-02 0.0 
0.0 0.0 0.0 
3.464778436225e-03 1.486333682805e-03 0.0 
1.486333682805e-03 2.538956237684e-03 0.0 
0.0 0.0 0.0 
5.803696946683e-03 7.985079552123e-04 0.0 
7.985079552123e-04 -1.738700708722e-03 0.0 
0.0 0.0 0.0 
-1.606921566889e-04 -7.119449166105e-04 0.0 
-7.119449166105e-04 4.205546138328e-03 0.0 
0.0 0.0 0.0 
4.447966630016e-03 7.589138943579e-04 0.0 
7.589138943579e-04 -6.961343954320e-03 0.0 
0.0 0.0 0.0 
-1.331389854418e-03 1.213372285162e-03 0.0 
1.213372285162e-03 1.681205010407e-02 0.0 
0.0 0.0 0.0 
-3.565048205417e-04 -3.053403716624e-04 0.0 
-3.053403716624e-04 2.451712478169e-03 0.0 
0.0 0.0 0.0 
-1.602105934254e-03 2.908545248173e-03 0.0 
2.908545248173e-03 6.466137838728e-03 0.0 
0.0 0.0 0.0 
1.956414716275e-03 3.660681851528e-03 0.0 
3.660681851528e-03 7.298210641530e-03 0.0 
0.0 0.0 0.0 
-8.867620075310e-04 1.087400889132e-03 0.0 
1.087400889132e-03 1.710049664079e-02 0.0 
0.0 0.0 0.0 
1.010226600388e-03 -2.954118770132e-03 0.0 
-2.954118770132e-03 -2.018282497485e-03 0.0 
0.0 0.0 0.0 
8.210673954223e-05 3.744316086858e-03 0.0 
3.744316086858e-03 7.225086176764e-03 0.0 
0.0 0.0 0.0 
-1.954020649842e-03 1.386467737474e-03 0.0 
1.386467737474e-03 1.626158022564e-02 0.0 
0.0 0.0 0.0 
3.371135877916e-05 -1.054215542120e-03 0.0 
-1.054215542120e-03 3.577940638742e-03 0.0 
0.0 0.0 0.0 
6.117910291985e-03 -3.152542653771e-03 0.0 
-3.152542653771e-03 -6.328802595753e-03 0.0 
0.0 0.0 0.0 
2.144566957999e-03 4.877865071977e-03 0.0 
4.877865071977e-03 3.933310950328e-04 0.0 
0.0 0.0 0.0 
-4.279725492674e-04 -2.455763749794e-03 0.0 
-2.455763749794e-03 1.851003699533e-04 0.0 
0.0 0.0 0.0 
2.363685622182e-03 -3.447491522155e-03 0.0 
-3.447491522155e-03 -1.962338813493e-03 0.0 
0.0 0.0 0.0 
8.095499055891e-04 -2.976505317590e-03 0.0 
-2.976505317590e-03 -9.771850739707e-04 0.0 
0.0 0.0 0.0 
4.205827532021e-03 1.404812959982e-03 0.0 
1.404812959982e-03 1.293816870698e-03 0.0 
0.0 0.0 0.0 
-4.875335158955e-04 3.124801444571e-03 0.0 
3.124801444571e-03 1.612130427699e-02 0.0 
0.0 0.0 0.0 
-1.575052663028e-03 2.997309165627e-03 0.0 
2.997309165627e-03 7.874487831852e-03 0.0 
0.0 0.0 0.0 
6.226282870643e-04 -1.721503229070e-04 0.0 
-1.721503229070e-04 5.575799365878e-03 0.0 
0.0 0.0 0.0 
7.427375587577e-03 2.207868586276e-03 0.0 
2.207868586276e-03 -4.013555524886e-03 0.0 
0.0 0.0 0.0 
-2.430020738032e-03 1.647179922769e-03 0.0 
1.647179922769e-03 1.600978217636e-02 0.0 
0.0 0.0 0.0 
5.906506351792e-03 3.794753858158e-04 0.0 
3.794753858158e-04 -7.490198553640e-03 0.0 
0.0 0.0 0.0 
9.355007280074e-04 6.021053151717e-04 0.0 
6.021053151717e-04 5.861832556761e-03 0.0 
0.0 0.0 0.0 
1.358326304493e-04 -2.835940152523e-03 0.0 
-2.835940152523e-03 -9.889765531295e-04 0.0 
0.0 0.0 0.0 
-4.371748216899e-04 -3.639877166515e-04 0.0 
-3.639877166515e-04 2.873768332843e-03 0.0 
0.0 0.0 0.0 
2.472009712148e-03 1.870184049503e-03 0.0 
1.870184049503e-03 4.593222753478e-03 0.0 
0.0 0.0 0.0 
1.554570035103e-03 -1.258123892602e-03 0.0 
-1.258123892602e-03 1.147064769277e-03 0.0 
0.0 0.0 0.0 
1.431219313100e-03 2.482215846732e-03 0.0 
2.482215846732e-03 7.315345613075e-03 0.0 
0.0 0.0 0.0 
1.772081768223e-04 4.459725193094e-03 0.0 
4.459725193094e-03 4.528059276744e-03 0.0 
0.0 0.0 0.0 
-2.121447842712e-03 2.431550512472e-03 0.0 
2.431550512472e-03 1.554039310339e-02 0.0 
0.0 0.0 0.0 
1.147931843747e-03 2.207049988840e-03 0.0 
2.207049988840e-03 7.531737704637e-03 0.0 
0.0 0.0 0.0 
-1.957206914367e-03 1.052464621858e-03 0.0 
1.052464621858e-03 1.627812684242e-02 0.0 
0.0 0.0 0.0 
-9.936537963073e-04 3.501304869423e-03 0.0 
3.501304869423e-03 1.441314207324e-02 0.0 
0.0 0.0 0.0 
-1.971049326639e-03 1.768904760610e-03 0.0 
1.768904760610e-03 1.638612371591e-02 0.0 
0.0 0.0 0.0 
-1.841248867000e-03 2.121248016776e-03 0.0 
2.121248016776e-03 1.623214041650e-02 0.0 
0.0 0.0 0.0 
4.865022076930e-03 5.572059144895e-03 0.0 
5.572059144895e-03 -5.554241115194e-03 0.0 
0.0 0.0 0.0 
4.991727071868e-04 -3.044527325446e-04 0.0 
-3.044527325446e-04 5.455621620132e-03 0.0 
0.0 0.0 0.0 
-1.894608873691e-03 1.752919037846e-03 0.0 
1.752919037846e-03 1.614439005052e-02 0.0 
0.0 0.0 0.0 
5.393004795880e-03 3.011397697283e-03 0.0 
3.011397697283e-03 -1.980544215403e-04 0.0 
0.0 0.0 0.0 
-1.570872647664e-03 3.205742579748e-03 0.0 
3.205742579748e-03 9.247926571473e-03 0.0 
0.0 0.0 0.0 
8.014224587054e-04 2.388366674203e-03 0.0 
2.388366674203e-03 8.247434024187e-03 0.0 
0.0 0.0 0.0 
7.101753908569e-03 1.869304517112e-03 0.0 
1.869304517112e-03 -7.106526082552e-03 0.0 
0.0 0.0 0.0 
-3.440747629616e-04 -3.678494585338e-04 0.0 
-3.678494585338e-04 2.650322467042e-03 0.0 
0.0 0.0 0.0 
1.727756553066e-03 2.387192397004e-03 0.0 
2.387192397004e-03 6.442913142106e-03 0.0 
0.0 0.0 0.0 
1.297428424081e-04 1.163163908728e-05 0.0 
1.163163908728e-05 1.518450514339e-03 0.0 
0.0 0.0 0.0 
2.359284218824e-03 3.880336474845e-03 0.0 
3.880336474845e-03 4.277320359677e-03 0.0 
0.0 0.0 0.0 
2.292570363910e-03 1.624760347833e-03 0.0 
1.624760347833e-03 4.752144524236e-03 0.0 
0.0 0.0 0.0 
-1.456220473248e-03 2.316204845834e-03 0.0 
2.316204845834e-03 1.631798918146e-02 0.0 
0.0 0.0 0.0 
-1.255991208421e-03 2.683418486324e-03 0.0 
2.683418486324e-03 1.606074391320e-02 0.0 
0.0 0.0 0.0 
2.483448780129e-03 1.719860816367e-03 0.0 
1.719860816367e-03 4.615045882252e-03 0.0 
0.0 0.0 0.0 
-1.745615260582e-03 1.660496067552e-03 0.0 
1.660496067552e-03 1.660121389522e-02 0.0 
0.0 0.0 0.0 
6.565243545992e-03 2.888847127101e-03 0.0 
2.888847127101e-03 -2.718779369778e-03 0.0 
0.0 0.0 0.0 
8.849279424850e-04 3.830221646672e-03 0.0 
3.830221646672e-03 8.808502843555e-03 0.0 
0.0 0.0 0.0 
-1.694438083289e-03 3.592970970018e-03 0.0 
3.592970970018e-03 1.073961686242e-02 0.0 
0.0 0.0 0.0 
-3.164723248799e-04 3.921229928557e-03 0.0 
3.921229928557e-03 1.228308394068e-02 0.0 
0.0 0.0 0.0 
-2.230287312404e-03 4.022640987256e-03 0.0 
4.022640987256e-03 1.247158273413e-02 0.0 
0.0 0.0 0.0 
-2.919738286006e-03 4.167754096575e-03 0.0 
4.167754096575e-03 1.355217170428e-02 0.0 
0.0 0.0 0.0 
5.982404425876e-03 1.892132314092e-03 0.0 
1.892132314092e-03 -1.058254535915e-03 0.0 
0.0 0.0 0.0 
-4.466265789034e-03 3.337013728077e-03 0.0 
3.337013728077e-03 1.486175721005e-02 0.0 
0.0 0.0 0.0 
3.658180936639e-03 3.457972810570e-03 0.0 
3.457972810570e-03 3.693811124009e-03 0.0 
0.0 0.0 0.0 
4.146925908429e-03 3.625209682605e-03 0.0 
3.625209682605e-03 1.420488520453e-03 0.0 
0.0 0.0 0.0 
4.593845061225e-03 3.180653723449e-04 0.0 
3.180653723449e-04 -6.239556866769e-04 0.0 
0.0 0.0 0.0 
6.021358616915e-03 -3.177721687196e-03 0.0 
-3.177721687196e-03 -5.794470168697e-03 0.0 
0.0 0.0 0.0 
6.288542340795e-03 1.258158030826e-03 0.0 
1.258158030826e-03 -1.811262392201e-03 0.0 
0.0 0.0 0.0 
-1.251274898839e-03 1.507046526510e-03 0.0 
1.507046526510e-03 1.680064310743e-02 0.0 
0.0 0.0 0.0 
-5.772817782248e-04 3.778740291352e-03 0.0 
3.778740291352e-03 1.341875914001e-02 0.0 
0.0 0.0 0.0 
5.034315039716e-04 -4.621668129987e-04 0.0 
-4.621668129987e-04 5.031399462895e-03 0.0 
0.0 0.0 0.0 
1.253928756847e-03 2.388694996198e-03 0.0 
2.388694996198e-03 7.426601438357e-03 0.0 
0.0 0.0 0.0 
2.316567727928e-03 -8.775037618127e-04 0.0 
-8.775037618127e-04 1.083002145599e-03 0.0 
0.0 0.0 0.0 
-1.588519089998e-03 2.011196265675e-03 0.0 
2.011196265675e-03 1.624449119522e-02 0.0 
0.0 0.0 0.0 
5.222489809419e-03 7.308454646393e-04 0.0 
7.308454646393e-04 -6.891611843846e-04 0.0 
0.0 0.0 0.0 
3.421540755251e-04 -2.501396498143e-04 0.0 
-2.501396498143e-04 5.793667642912e-03 0.0 
0.0 0.0 0.0 
-1.696780753972e-03 1.662256691994e-03 0.0 
1.662256691994e-03 1.639772191896e-02 0.0 
0.0 0.0 0.0 
-2.004611147076e-03 2.267090149080e-03 0.0 
2.267090149080e-03 1.591260358763e-02 0.0 
0.0 0.0 0.0 
3.185160233538e-03 1.207740029123e-03 0.0 
1.207740029123e-03 2.811571537100e-03 0.0 
0.0 0.0 0.0 
6.904730833619e-03 2.013281661827e-03 0.0 
2.013281661827e-03 -2.674030885709e-03 0.0 
0.0 0.0 0.0 
1.209112335830e-03 3.868962052604e-03 0.0 
3.868962052604e-03 9.054702927738e-03 0.0 
0.0 0.0 0.0 
-8.700642108304e-04 3.686995247928e-03 0.0 
3.686995247928e-03 1.024077050618e-02 0.0 
0.0 0.0 0.0 
4.714359191158e-03 -4.130582745966e-03 0.0 
-4.130582745966e-03 -5.634119876337e-03 0.0 
0.0 0.0 0.0 
7.139801582167e-03 -2.655504075611e-04 0.0 
-2.655504075611e-04 -6.764912049940e-03 0.0 
0.0 0.0 0.0 
7.018293895853e-04 4.413731924504e-03 0.0 
4.413731924504e-03 3.388625393577e-03 0.0 
0.0 0.0 0.0 
-8.370574524141e-05 3.814946049014e-03 0.0 
3.814946049014e-03 7.216028187649e-03 0.0 
0.0 0.0 0.0 
2.073394212920e-04 -1.965721473030e-04 0.0 
-1.965721473030e-04 6.119702670077e-03 0.0 
0.0 0.0 0.0 
-2.159257839696e-03 1.897311222695e-03 0.0 
1.897311222695e-03 1.612817176678e-02 0.0 
0.0 0.0 0.0 
6.865295895163e-03 1.416702860059e-03 0.0 
1.416702860059e-03 -2.582510439615e-03 0.0 
0.0 0.0 0.0 
9.418079732604e-05 3.779848904654e-03 0.0 
3.779848904654e-03 8.336471479174e-03 0.0 
0.0 0.0 0.0 
2.087853539368e-03 1.419917023126e-03 0.0 
1.419917023126e-03 4.982931349228e-03 0.0 
0.0 0.0 0.0 
-1.577559299387e-03 1.260904797502e-03 0.0 
1.260904797502e-03 1.680715165234e-02 0.0 
0.0 0.0 0.0 
8.387176835296e-04 3.977361290070e-03 0.0 
3.977361290070e-03 9.902462136263e-03 0.0 
0.0 0.0 0.0 
-2.287918067928e-03 1.573009187017e-03 0.0 
1.573009187017e-03 1.575360768331e-02 0.0 
0.0 0.0 0.0 
1.672934093129e-03 6.913348419130e-04 0.0 
6.913348419130e-04 4.892530299232e-03 0.0 
0.0 0.0 0.0 
4.834949669886e-03 9.973529651405e-04 0.0 
9.973529651405e-04 -1.239365443871e-04 0.0 
0.0 0.0 0.0 
1.991340641403e-03 1.234399225230e-03 0.0 
1.234399225230e-03 5.000259222552e-03 0.0 
0.0 0.0 0.0 
1.658447250494e-03 3.965079217930e-03 0.0 
3.965079217930e-03 4.268569871054e-03 0.0 
0.0 0.0 0.0 
-1.390853212330e-03 1.876159533739e-03 0.0 
1.876159533739e-03 1.671366561741e-02 0.0 
0.0 0.0 0.0 
5.219946661386e-04 4.033220670983e-03 0.0 
4.033220670983e-03 1.075659919340e-02 0.0 
0.0 0.0 0.0 
3.747251323475e-03 1.079066789912e-03 0.0 
1.079066789912e-03 1.736215857551e-03 0.0 
0.0 0.0 0.0 
6.865846305790e-03 1.607136192888e-04 0.0 
1.607136192888e-04 -7.350721527572e-03 0.0 
0.0 0.0 0.0 
1.448956491673e-03 3.171885047785e-03 0.0 
3.171885047785e-03 7.673712813635e-03 0.0 
0.0 0.0 0.0 
2.689923482037e-03 3.693057350248e-03 0.0 
3.693057350248e-03 4.584908876262e-03 0.0 
0.0 0.0 0.0 
7.120530176579e-03 2.191688722253e-03 0.0 
2.191688722253e-03 -2.613441979172e-03 0.0 
0.0 0.0 0.0 
3.375842720139e-03 1.266137247197e-03 0.0 
1.266137247197e-03 2.572374494870e-03 0.0 
0.0 0.0 0.0 
1.336075268153e-03 8.467772855162e-05 0.0 
8.467772855162e-05 4.422506914140e-03 0.0 
0.0 0.0 0.0 
6.701962152238e-03 -1.970388381880e-03 0.0 
-1.970388381880e-03 -7.004471764068e-03 0.0 
0.0 0.0 0.0 
4.393083569733e-03 9.220151077929e-04 0.0 
9.220151077929e-04 6.021094130821e-04 0.0 
0.0 0.0 0.0 
-1.385825673376e-03 3.419606224917e-03 0.0 
3.419606224917e-03 1.225653694027e-02 0.0 
0.0 0.0 0.0 
9.356979400121e-05 -2.569920246516e-04 0.0 
-2.569920246516e-04 6.128715462241e-03 0.0 
0.0 0.0 0.0 
-1.061704422253e-03 3.589776256584e-03 0.0 
3.589776256584e-03 1.171915368210e-02 0.0 
0.0 0.0 0.0 
1.815786039473e-03 3.558395951229e-03 0.0 
3.558395951229e-03 7.302506271352e-03 0.0 
0.0 0.0 0.0 
-1.708895246828e-03 3.216620001685e-03 0.0 
3.216620001685e-03 1.280321749003e-02 0.0 
0.0 0.0 0.0 
-2.328152836623e-03 2.633101142548e-03 0.0 
2.633101142548e-03 1.395678229243e-02 0.0 
0.0 0.0 0.0 
-5.349473865294e-04 3.787549477036e-03 0.0 
3.787549477036e-03 9.691083783268e-03 0.0 
0.0 0.0 0.0 
1.576914085971e-03 2.177743945143e-03 0.0 
2.177743945143e-03 6.573273452980e-03 0.0 
0.0 0.0 0.0 
4.651983371353e-04 -4.436766049804e-04 0.0 
-4.436766049804e-04 5.121649255078e-03 0.0 
0.0 0.0 0.0 
-2.062920480934e-03 1.872337516711e-03 0.0 
1.872337516711e-03 1.584357032168e-02 0.0 
0.0 0.0 0.0 
-1.055030804481e-03 2.596563849183e-03 0.0 
2.596563849183e-03 1.607084438334e-02 0.0 
0.0 0.0 0.0 
-2.030796854768e-03 2.967239040500e-03 0.0 
2.967239040500e-03 1.336413163534e-02 0.0 
0.0 0.0 0.0 
7.863971438917e-03 1.237405600856e-03 0.0 
1.237405600856e-03 -4.851351883665e-03 0.0 
0.0 0.0 0.0 
1.240289988359e-03 3.197875790923e-03 0.0 
3.197875790923e-03 8.454459135458e-03 0.0 
0.0 0.0 0.0 
-1.249840397523e-03 1.465597551097e-03 0.0 
1.465597551097e-03 1.695863310508e-02 0.0 
0.0 0.0 0.0 
3.689178619493e-03 3.773224487715e-03 0.0 
3.773224487715e-03 1.805563471495e-03 0.0 
0.0 0.0 0.0 
2.840111522709e-03 3.870309858164e-03 0.0 
3.870309858164e-03 3.212235221262e-03 0.0 
0.0 0.0 0.0 
7.570390203216e-03 1.292404081216e-03 0.0 
1.292404081216e-03 -3.871146351968e-03 0.0 
0.0 0.0 0.0 
-1.915155435686e-03 2.265441663665e-03 0.0 
2.265441663665e-03 1.556150363880e-02 0.0 
0.0 0.0 0.0 
-7.393712775343e-04 3.657882264389e-03 0.0 
3.657882264389e-03 6.498743709220e-03 0.0 
0.0 0.0 0.0 
3.674024481001e-03 3.338140733048e-03 0.0 
3.338140733048e-03 3.308996933901e-03 0.0 
0.0 0.0 0.0 
-7.772651244685e-04 3.656882437611e-03 0.0 
3.656882437611e-03 6.499054856154e-03 0.0 
0.0 0.0 0.0 
2.090493399276e-03 2.150433243730e-03 0.0 
2.150433243730e-03 5.533141236434e-03 0.0 
0.0 0.0 0.0 
7.407570419202e-04 3.138779089657e-03 0.0 
3.138779089657e-03 9.348821271772e-03 0.0 
0.0 0.0 0.0 
6.744458549639e-03 5.190559936720e-04 0.0 
5.190559936720e-04 -3.299522131833e-03 0.0 
0.0 0.0 0.0 
4.691556913694e-03 -1.571041657216e-03 0.0 
-1.571041657216e-03 -6.586144202485e-03 0.0 
0.0 0.0 0.0 
-9.722680187704e-04 3.056153502228e-03 0.0 
3.056153502228e-03 1.534450298386e-02 0.0 
0.0 0.0 0.0 
-9.027344713783e-04 3.628597222224e-03 0.0 
3.628597222224e-03 7.366073019598e-03 0.0 
0.0 0.0 0.0 
3.060566298457e-03 -4.144955409922e-04 0.0 
-4.144955409922e-04 8.922603293160e-04 0.0 
0.0 0.0 0.0 
1.004683315433e-03 3.079676051757e-03 0.0 
3.079676051757e-03 8.646238593177e-03 0.0 
0.0 0.0 0.0 
-2.312630221372e-03 2.051322041519e-03 0.0 
2.051322041519e-03 1.582317739792e-02 0.0 
0.0 0.0 0.0 
6.223809659776e-04 -5.076655029933e-04 0.0 
-5.076655029933e-04 4.753635411640e-03 0.0 
0.0 0.0 0.0 
5.234837193332e-03 3.437861782220e-03 0.0 
3.437861782220e-03 -1.228214622505e-04 0.0 
0.0 0.0 0.0 
4.076416299818e-03 -8.157117073961e-04 0.0 
-8.157117073961e-04 -7.094787767922e-03 0.0 
0.0 0.0 0.0 
1.520154497370e-05 -2.223816063542e-04 0.0 
-2.223816063542e-04 6.457332270058e-03 0.0 
0.0 0.0 0.0 
5.767569443142e-04 3.872863425316e-03 0.0 
3.872863425316e-03 6.531441761463e-03 0.0 
0.0 0.0 0.0 
2.606172357301e-03 2.545620936383e-03 0.0 
2.545620936383e-03 5.098112671435e-03 0.0 
0.0 0.0 0.0 
1.194130722046e-03 3.817601463993e-03 0.0 
3.817601463993e-03 8.925314880875e-03 0.0 
0.0 0.0 0.0 
2.056592860258e-03 -2.880749562588e-04 0.0 
-2.880749562588e-04 -6.191468248029e-03 0.0 
0.0 0.0 0.0 
8.628862559559e-04 -3.843553924197e-04 0.0 
-3.843553924197e-04 4.733121007412e-03 0.0 
0.0 0.0 0.0 
4.398765128694e-03 4.970268650242e-03 0.0 
4.970268650242e-03 -1.395304099534e-03 0.0 
0.0 0.0 0.0 
-2.599890335988e-03 1.794343353812e-03 0.0 
1.794343353812e-03 1.572959552306e-02 0.0 
0.0 0.0 0.0 
1.247716809394e-04 -9.465062556446e-04 0.0 
-9.465062556446e-04 3.917177332694e-03 0.0 
0.0 0.0 0.0 
7.250650889536e-03 1.214419312280e-03 0.0 
1.214419312280e-03 -3.418253709092e-03 0.0 
0.0 0.0 0.0 
1.979366462250e-04 -3.099462905413e-04 0.0 
-3.099462905413e-04 5.803747356702e-03 0.0 
0.0 0.0 0.0 
3.113492847062e-03 3.693460548397e-03 0.0 
3.693460548397e-03 3.661122594674e-03 0.0 
0.0 0.0 0.0 
7.835591076046e-03 1.237864680873e-03 0.0 
1.237864680873e-03 -4.789672086534e-03 0.0 
0.0 0.0 0.0 
4.649835076169e-04 3.759181741628e-03 0.0 
3.759181741628e-03 7.472112658211e-03 0.0 
0.0 0.0 0.0 
4.559679585665e-03 -3.526451806839e-03 0.0 
-3.526451806839e-03 -6.612248838390e-03 0.0 
0.0 0.0 0.0 
1.312418839914e-03 3.757835805359e-03 0.0 
3.757835805359e-03 7.900402469841e-03 0.0 
0.0 0.0 0.0 
2.111969259460e-03 2.010785781315e-03 0.0 
2.010785781315e-03 5.553926772629e-03 0.0 
0.0 0.0 0.0 
2.023659005437e-04 4.026633954462e-03 0.0 
4.026633954462e-03 1.149981853069e-02 0.0 
0.0 0.0 0.0 
1.582521349015e-03 3.770456476603e-03 0.0 
3.770456476603e-03 8.190990093631e-03 0.0 
0.0 0.0 0.0 
7.671428221876e-03 -2.470031453705e-04 0.0 
-2.470031453705e-04 -6.345756662857e-03 0.0 
0.0 0.0 0.0 
3.142315486822e-04 -5.273114766193e-04 0.0 
-5.273114766193e-04 5.042821885541e-03 0.0 
0.0 0.0 0.0 
-8.853620140112e-04 1.728317670831e-03 0.0 
1.728317670831e-03 1.691989010491e-02 0.0 
0.0 0.0 0.0 
5.070347713951e-04 2.636580343013e-03 0.0 
2.636580343013e-03 8.905746973247e-03 0.0 
0.0 0.0 0.0 
1.756628343301e-03 2.270923628222e-03 0.0 
2.270923628222e-03 6.460110501267e-03 0.0 
0.0 0.0 0.0 
6.275299526542e-03 2.796478896817e-03 0.0 
2.796478896817e-03 -1.092960644094e-03 0.0 
0.0 0.0 0.0 
8.692840478046e-04 3.753674746532e-03 0.0 
3.753674746532e-03 7.705675733861e-03 0.0 
0.0 0.0 0.0 
2.024753436092e-05 -1.859615470454e-04 0.0 
-1.859615470454e-04 6.270445514061e-03 0.0 
0.0 0.0 0.0 
-4.307845856885e-04 -2.451509823548e-04 0.0 
-2.451509823548e-04 4.464090625837e-03 0.0 
0.0 0.0 0.0 
1.722792659239e-03 3.848830067308e-03 0.0 
3.848830067308e-03 7.272458549218e-03 0.0 
0.0 0.0 0.0 
-2.134225087750e-03 1.465331592250e-03 0.0 
1.465331592250e-03 1.602947955203e-02 0.0 
0.0 0.0 0.0 
3.235569634066e-04 -3.740408888350e-04 0.0 
-3.740408888350e-04 5.467336153659e-03 0.0 
0.0 0.0 0.0 
7.859414363998e-04 -3.347940543856e-04 0.0 
-3.347940543856e-04 4.861672354750e-03 0.0 
0.0 0.0 0.0 
-1.626827513232e-03 3.512544549539e-06 0.0 
3.512544549539e-06 1.470963433552e-02 0.0 
0.0 0.0 0.0 
-1.614681238295e-03 1.831796873408e-05 0.0 
1.831796873408e-05 1.470117867317e-02 0.0 
0.0 0.0 0.0 
-1.542037801628e-03 3.411188538493e-03 0.0 
3.411188538493e-03 1.294111070090e-02 0.0 
0.0 0.0 0.0 
1.408615288573e-03 3.891239572567e-03 0.0 
3.891239572567e-03 6.938365401009e-03 0.0 
0.0 0.0 0.0 
3.185742257839e-05 -8.104279673806e-04 0.0 
-8.104279673806e-04 4.261680612205e-03 0.0 
0.0 0.0 0.0 
-6.977376062969e-04 3.763825398550e-03 0.0 
3.763825398550e-03 1.046370820966e-02 0.0 
0.0 0.0 0.0 
3.870297286036e-03 3.553483956299e-03 0.0 
3.553483956299e-03 2.384519893232e-03 0.0 
0.0 0.0 0.0 
1.290025483435e-03 1.288123898485e-03 0.0 
1.288123898485e-03 6.220544387804e-03 0.0 
0.0 0.0 0.0 
5.529296552576e-03 3.296663109421e-03 0.0 
3.296663109421e-03 -1.163559982292e-03 0.0 
0.0 0.0 0.0 
-4.699830825025e-04 2.799604217567e-03 0.0 
2.799604217567e-03 1.644996686689e-02 0.0 
0.0 0.0 0.0 
-2.637734180330e-03 2.458130639061e-03 0.0 
2.458130639061e-03 1.393086604342e-02 0.0 
0.0 0.0 0.0 
3.521602214121e-03 3.597985524277e-03 0.0 
3.597985524277e-03 3.249839325745e-03 0.0 
0.0 0.0 0.0 
2.894813944501e-04 -9.099399663484e-04 0.0 
-9.099399663484e-04 3.910209628756e-03 0.0 
0.0 0.0 0.0 
7.253996641273e-03 1.450997221940e-03 0.0 
1.450997221940e-03 -6.023626076315e-03 0.0 
0.0 0.0 0.0 
1.334912739495e-04 -1.201357307035e-03 0.0 
-1.201357307035e-03 3.187271741200e-03 0.0 
0.0 0.0 0.0 
9.694772082625e-04 3.883994194696e-03 0.0 
3.883994194696e-03 6.747140764955e-03 0.0 
0.0 0.0 0.0 
-2.572592774973e-04 3.811815172462e-03 0.0 
3.811815172462e-03 8.072513196746e-03 0.0 
0.0 0.0 0.0 
-2.200561677991e-03 2.022354331490e-03 0.0 
2.022354331490e-03 1.549143662053e-02 0.0 
0.0 0.0 0.0 
-3.259375994670e-04 3.862605148018e-03 0.0 
3.862605148018e-03 9.938209255686e-03 0.0 
0.0 0.0 0.0 
-4.885668229395e-04 3.835372552441e-03 0.0 
3.835372552441e-03 1.069421100921e-02 0.0 
0.0 0.0 0.0 
4.364316051637e-04 -3.152839685457e-05 0.0 
-3.152839685457e-05 9.393365853034e-04 0.0 
0.0 0.0 0.0 
6.252449092714e-05 -1.144166690440e-03 0.0 
-1.144166690440e-03 3.255090243979e-03 0.0 
0.0 0.0 0.0 
-9.350488058317e-04 3.638521771594e-03 0.0 
3.638521771594e-03 7.365025594290e-03 0.0 
0.0 0.0 0.0 
-9.725976544168e-04 3.641871705905e-03 0.0 
3.641871705905e-03 1.099168856315e-02 0.0 
0.0 0.0 0.0 
-1.129796632067e-03 3.636058003376e-03 0.0 
3.636058003376e-03 1.171062957800e-02 0.0 
0.0 0.0 0.0 
1.413877279216e-03 1.950317644874e-03 0.0 
1.950317644874e-03 6.686979463909e-03 0.0 
0.0 0.0 0.0 
1.693446216811e-06 -2.269469159823e-05 0.0 
-2.269469159823e-05 1.745772433016e-03 0.0 
0.0 0.0 0.0 
6.029268399697e-03 -3.548547482934e-03 0.0 
-3.548547482934e-03 -6.882827823255e-03 0.0 
0.0 0.0 0.0 
9.950659600761e-04 3.848599867733e-03 0.0 
3.848599867733e-03 5.532135978372e-03 0.0 
0.0 0.0 0.0 
-6.502362522509e-05 -1.142249758788e-03 0.0 
-1.142249758788e-03 3.255526095063e-03 0.0 
0.0 0.0 0.0 
-2.546859802867e-03 4.085569206313e-03 0.0 
4.085569206313e-03 1.356513794763e-02 0.0 
0.0 0.0 0.0 
-3.013634638494e-03 3.979801675997e-03 0.0 
3.979801675997e-03 1.476549388390e-02 0.0 
0.0 0.0 0.0 
-2.423023400027e-03 2.234889707210e-03 0.0 
2.234889707210e-03 1.546727680813e-02 0.0 
0.0 0.0 0.0 
4.289674774292e-03 5.770525260458e-03 0.0 
5.770525260458e-03 -3.806031829496e-03 0.0 
0.0 0.0 0.0 
8.083796137059e-05 -9.025177751536e-04 0.0 
-9.025177751536e-04 3.924555999368e-03 0.0 
0.0 0.0 0.0 
2.195018431627e-03 8.787198527964e-04 0.0 
8.787198527964e-04 4.186972073406e-03 0.0 
0.0 0.0 0.0 
6.418700189164e-03 -1.600291120247e-03 0.0 
-1.600291120247e-03 -7.305367956076e-03 0.0 
0.0 0.0 0.0 
2.510674465928e-04 3.431017754937e-03 0.0 
3.431017754937e-03 1.051749964103e-02 0.0 
0.0 0.0 0.0 
-1.625641501675e-03 1.985536909911e-03 0.0 
1.985536909911e-03 1.649699520981e-02 0.0 
0.0 0.0 0.0 
-1.943534571694e-04 -8.339388468470e-04 0.0 
-8.339388468470e-04 3.917235953248e-03 0.0 
0.0 0.0 0.0 
3.557062590798e-04 -3.848824913328e-04 0.0 
-3.848824913328e-04 5.371983087574e-03 0.0 
0.0 0.0 0.0 
3.918923930382e-04 -4.639307826482e-06 0.0 
-4.639307826482e-06 5.857851596840e-04 0.0 
0.0 0.0 0.0 
2.219889610630e-03 4.555849866341e-04 0.0 
4.555849866341e-04 3.537572326719e-03 0.0 
0.0 0.0 0.0 
8.873385851953e-04 3.711276615165e-03 0.0 
3.711276615165e-03 6.553402138558e-03 0.0 
0.0 0.0 0.0 
4.501405045467e-04 -7.352591276637e-06 0.0 
-7.352591276637e-06 5.652997033045e-04 0.0 
0.0 0.0 0.0 
-1.373780128186e-03 1.907888037702e-03 0.0 
1.907888037702e-03 1.650340975473e-02 0.0 
0.0 0.0 0.0 
5.949193190390e-03 -1.866021104240e-03 0.0 
-1.866021104240e-03 -7.122292057010e-03 0.0 
0.0 0.0 0.0 
-1.028455013540e-03 3.666120392360e-03 0.0 
3.666120392360e-03 1.098830984187e-02 0.0 
0.0 0.0 0.0 
-2.329310991143e-04 3.758273307447e-03 0.0 
3.758273307447e-03 8.079614977880e-03 0.0 
0.0 0.0 0.0 
3.046329489210e-03 -6.514251841104e-04 0.0 
-6.514251841104e-04 2.261668893926e-04 0.0 
0.0 0.0 0.0 
1.696786575126e-03 -4.635728409567e-04 0.0 
-4.635728409567e-04 2.830377878592e-03 0.0 
0.0 0.0 0.0 
-1.236660774878e-03 2.246511467451e-03 0.0 
2.246511467451e-03 1.632206962659e-02 0.0 
0.0 0.0 0.0 
1.635555612330e-03 -2.165738563122e-04 0.0 
-2.165738563122e-04 3.419445562198e-03 0.0 
0.0 0.0 0.0 
2.026999497961e-03 3.834673152382e-03 0.0 
3.834673152382e-03 4.567259211268e-03 0.0 
0.0 0.0 0.0 
1.524906679980e-03 3.795424570147e-03 0.0 
3.795424570147e-03 5.537095159671e-03 0.0 
0.0 0.0 0.0 
-2.462806721514e-03 8.124498039304e-03 0.0 
8.124498039304e-03 2.648082442251e-03 0.0 
0.0 0.0 0.0 
5.405026005563e-03 -1.288043736868e-03 0.0 
-1.288043736868e-03 -7.209627587413e-03 0.0 
0.0 0.0 0.0 
1.630144921439e-03 3.558287181250e-03 0.0 
3.558287181250e-03 8.089052967386e-03 0.0 
0.0 0.0 0.0 
-2.505065484557e-03 2.663348477843e-03 0.0 
2.663348477843e-03 1.454772471038e-02 0.0 
0.0 0.0 0.0 
1.228328176943e-03 3.356990727307e-03 0.0 
3.356990727307e-03 8.425680117305e-03 0.0 
0.0 0.0 0.0 
3.119724602809e-03 5.099595181447e-03 0.0 
5.099595181447e-03 -1.407556337177e-03 0.0 
0.0 0.0 0.0 
-1.180414082821e-03 3.355723916449e-03 0.0 
3.355723916449e-03 1.373353134747e-02 0.0 
0.0 0.0 0.0 
1.333154088324e-03 3.666721190067e-03 0.0 
3.666721190067e-03 8.936121403232e-03 0.0 
0.0 0.0 0.0 
-3.578312551501e-03 3.034675687354e-03 0.0 
3.034675687354e-03 1.319258302746e-02 0.0 
0.0 0.0 0.0 
1.501242435342e-03 3.669690324039e-03 0.0 
3.669690324039e-03 8.070617712077e-03 0.0 
0.0 0.0 0.0 
1.939305519947e-04 -4.370053894391e-04 0.0 
-4.370053894391e-04 5.381239653668e-03 0.0 
0.0 0.0 0.0 
1.851187693381e-03 3.798527811472e-03 0.0 
3.798527811472e-03 5.978790763913e-03 0.0 
0.0 0.0 0.0 
1.808541520163e-04 -1.035078218027e-03 0.0 
-1.035078218027e-03 3.574154217270e-03 0.0 
0.0 0.0 0.0 
2.326662137144e-04 -1.079234826812e-03 0.0 
-1.079234826812e-03 3.535758798491e-03 0.0 
0.0 0.0 0.0 
-1.193637383617e-03 3.164175513052e-03 0.0 
3.164175513052e-03 1.531680505406e-02 0.0 
0.0 0.0 0.0 
1.691873733653e-03 -7.236984268178e-04 0.0 
-7.236984268178e-04 2.290288072033e-03 0.0 
0.0 0.0 0.0 
2.106756482920e-04 3.876818063913e-03 0.0 
3.876818063913e-03 7.457231755742e-03 0.0 
0.0 0.0 0.0 
4.847722665725e-03 2.779159285707e-03 0.0 
2.779159285707e-03 1.098766584934e-03 0.0 
0.0 0.0 0.0 
1.496574913005e-03 9.443859646075e-06 0.0 
9.443859646075e-06 4.065394734617e-03 0.0 
0.0 0.0 0.0 
4.373192697245e-03 3.393371889685e-03 0.0 
3.393371889685e-03 1.857334331587e-03 0.0 
0.0 0.0 0.0 
7.817943212349e-03 -3.247185392595e-05 0.0 
-3.247185392595e-05 -6.031685163335e-03 0.0 
0.0 0.0 0.0 
3.815250983639e-03 6.071572753402e-04 0.0 
6.071572753402e-04 1.162622811553e-03 0.0 
0.0 0.0 0.0 
7.985652029072e-03 1.355360098666e-03 0.0 
1.355360098666e-03 -5.869086920364e-03 0.0 
0.0 0.0 0.0 
-6.483617619195e-04 3.772107983702e-03 0.0 
3.772107983702e-03 1.046227621963e-02 0.0 
0.0 0.0 0.0 
7.773922387775e-03 -8.054862563621e-05 0.0 
-8.054862563621e-05 -5.644763032230e-03 0.0 
0.0 0.0 0.0 
-5.660607918018e-04 3.776966856159e-03 0.0 
3.776966856159e-03 9.692664269081e-03 0.0 
0.0 0.0 0.0 
1.585923879329e-03 2.041033010027e-03 0.0 
2.041033010027e-03 6.594253978400e-03 0.0 
0.0 0.0 0.0 
1.922563599452e-03 1.910172619638e-03 0.0 
1.910172619638e-03 5.666266357949e-03 0.0 
0.0 0.0 0.0 
4.556561081590e-03 3.566278019022e-03 0.0 
3.566278019022e-03 3.748127228798e-04 0.0 
0.0 0.0 0.0 
-2.288071295705e-03 2.203919562287e-03 0.0 
2.203919562287e-03 1.505714335185e-02 0.0 
0.0 0.0 0.0 
2.223959775236e-04 -3.096078758155e-04 0.0 
-3.096078758155e-04 5.695869705253e-03 0.0 
0.0 0.0 0.0 
9.012110381357e-05 -3.559090530088e-04 0.0 
-3.559090530088e-04 5.704159795420e-03 0.0 
0.0 0.0 0.0 
3.154127964390e-03 6.424309341109e-03 0.0 
6.424309341109e-03 -3.316338382219e-03 0.0 
0.0 0.0 0.0 
-1.976840665388e-04 3.859230186420e-03 0.0 
3.859230186420e-03 9.149353101658e-03 0.0 
0.0 0.0 0.0 
9.157643247204e-05 -1.509187636223e-04 0.0 
-1.509187636223e-04 6.440098416451e-03 0.0 
0.0 0.0 0.0 
-1.526395751644e-03 3.232304404141e-03 0.0 
3.232304404141e-03 7.534878416993e-03 0.0 
0.0 0.0 0.0 
-1.187920425737e-04 -7.641467255701e-04 0.0 
-7.641467255701e-04 4.239525587052e-03 0.0 
0.0 0.0 0.0 
-2.521220777894e-03 8.099293842768e-03 0.0 
8.099293842768e-03 2.965624243682e-03 0.0 
0.0 0.0 0.0 
1.096100377194e-04 -2.423728085370e-04 0.0 
-2.423728085370e-04 5.998283764256e-03 0.0 
0.0 0.0 0.0 
7.708988501297e-03 1.577147321167e-03 0.0 
1.577147321167e-03 -6.627531324485e-03 0.0 
0.0 0.0 0.0 
-4.135952611288e-04 -1.736125758623e-04 0.0 
-1.736125758623e-04 4.629041846863e-03 0.0 
0.0 0.0 0.0 
2.572432441123e-03 2.709498514846e-03 0.0 
2.709498514846e-03 5.078664561951e-03 0.0 
0.0 0.0 0.0 
-2.497994459847e-03 2.422669975645e-03 0.0 
2.422669975645e-03 1.502962207371e-02 0.0 
0.0 0.0 0.0 
-2.372586090217e-03 2.410035149917e-03 0.0 
2.410035149917e-03 1.458015015744e-02 0.0 
0.0 0.0 0.0 
1.408444634361e-03 3.824452651066e-03 0.0 
3.824452651066e-03 5.757201062875e-03 0.0 
0.0 0.0 0.0 
-2.069495707743e-03 3.788974485979e-03 0.0 
3.788974485979e-03 1.155864980525e-02 0.0 
0.0 0.0 0.0 
-2.237146154395e-03 3.974485680915e-03 0.0 
3.974485680915e-03 1.247923318603e-02 0.0 
0.0 0.0 0.0 
6.925371909716e-06 -2.858053724568e-04 0.0 
-2.858053724568e-04 6.006104691469e-03 0.0 
0.0 0.0 0.0 
1.624111492801e-03 -4.072347611121e-04 0.0 
-4.072347611121e-04 2.886338144670e-03 0.0 
0.0 0.0 0.0 
2.970259974520e-03 -3.349093074490e-04 0.0 
-3.349093074490e-04 9.603125880258e-04 0.0 
0.0 0.0 0.0 
2.525859465109e-03 7.184127261594e-04 0.0 
7.184127261594e-04 3.503634353879e-03 0.0 
0.0 0.0 0.0 
4.283443569452e-03 3.746588563976e-04 0.0 
3.746588563976e-04 2.153539860943e-04 0.0 
0.0 0.0 0.0 
7.740205326414e-03 1.285626296200e-03 0.0 
1.285626296200e-03 -5.545766834733e-03 0.0 
0.0 0.0 0.0 
-1.849483842860e-03 3.757561647326e-03 0.0 
3.757561647326e-03 1.156295577643e-02 0.0 
0.0 0.0 0.0 
-2.802133462683e-03 2.479732190796e-03 0.0 
2.479732190796e-03 1.451433130298e-02 0.0 
0.0 0.0 0.0 
-1.622162981077e-03 8.859001316019e-06 0.0 
8.859001316019e-06 1.471440796040e-02 0.0 
0.0 0.0 0.0 
1.933751548904e-03 1.776807113464e-03 0.0 
1.776807113464e-03 5.685100929549e-03 0.0 
0.0 0.0 0.0 
5.294219391858e-03 3.150043770630e-03 0.0 
3.150043770630e-03 4.312610084616e-04 0.0 
0.0 0.0 0.0 
8.956232833464e-04 2.443455980664e-03 0.0 
2.443455980664e-03 8.235638306866e-03 0.0 
0.0 0.0 0.0 
-1.700048521266e-04 -9.471829603115e-05 0.0 
-9.471829603115e-05 6.229662636401e-03 0.0 
0.0 0.0 0.0 
3.997784396260e-03 5.683871986850e-04 0.0 
5.683871986850e-04 6.602805628984e-04 0.0 
0.0 0.0 0.0 
7.765941716253e-05 -1.845470237069e-04 0.0 
-1.845470237069e-04 6.593140838645e-03 0.0 
0.0 0.0 0.0 
6.711269005281e-03 -9.247430939475e-04 0.0 
-9.247430939475e-04 -4.769719695398e-03 0.0 
0.0 0.0 0.0 
9.879004102804e-04 2.597770294182e-03 0.0 
2.597770294182e-03 8.216901433265e-03 0.0 
0.0 0.0 0.0 
1.904872230017e-03 3.667904319033e-03 0.0 
3.667904319033e-03 5.777946333298e-03 0.0 
0.0 0.0 0.0 
2.520990080536e-03 3.581856926858e-03 0.0 
3.581856926858e-03 5.450691560325e-03 0.0 
0.0 0.0 0.0 
1.349558838021e-03 8.622960931469e-04 0.0 
8.622960931469e-04 5.564181550537e-03 0.0 
0.0 0.0 0.0 
1.514260832325e-05 -1.586643049941e-03 0.0 
-1.586643049941e-03 2.097991118141e-03 0.0 
0.0 0.0 0.0 
-4.824454898911e-05 3.866315688936e-03 0.0 
3.866315688936e-03 8.327073752209e-03 0.0 
0.0 0.0 0.0 
3.666044070472e-03 -5.292313573508e-05 0.0 
-5.292313573508e-05 2.840666433255e-04 0.0 
0.0 0.0 0.0 
-4.251640596565e-04 3.779591118355e-03 0.0 
3.779591118355e-03 8.899614949212e-03 0.0 
0.0 0.0 0.0 
3.028370937614e-03 4.734084115211e-03 0.0 
4.734084115211e-03 4.096293829636e-04 0.0 
0.0 0.0 0.0 
2.542127287142e-03 3.266467088372e-03 0.0 
3.266467088372e-03 5.551526994321e-03 0.0 
0.0 0.0 0.0 
3.826172444397e-03 -1.902597428517e-04 0.0 
-1.902597428517e-04 1.474753876909e-04 0.0 
0.0 0.0 0.0 
1.805137231266e-04 -7.898967659402e-04 0.0 
-7.898967659402e-04 4.257250522606e-03 0.0 
0.0 0.0 0.0 
-4.048035411173e-04 3.805038796564e-03 0.0 
3.805038796564e-03 8.896124243800e-03 0.0 
0.0 0.0 0.0 
1.526762495028e-03 1.074911004172e-02 0.0 
1.074911004172e-02 -1.928624798898e-03 0.0 
0.0 0.0 0.0 
3.938983556631e-03 2.590325325641e-03 0.0 
2.590325325641e-03 2.637490340423e-03 0.0 
0.0 0.0 0.0 
-1.087386841724e-04 7.863068115579e-03 0.0 
7.863068115579e-03 1.140796758347e-03 0.0 
0.0 0.0 0.0 
5.115208886219e-05 -1.791395019741e-04 0.0 
-1.791395019741e-04 1.152274387097e-03 0.0 
0.0 0.0 0.0 
-3.125087004952e-06 -7.677119584724e-04 0.0 
-7.677119584724e-04 4.239263060046e-03 0.0 
0.0 0.0 0.0 
4.905352090474e-04 3.880193533904e-03 0.0 
3.880193533904e-03 9.665243889261e-03 0.0 
0.0 0.0 0.0 
-2.091853362135e-03 2.792089416770e-03 0.0 
2.792089416770e-03 1.403980468946e-02 0.0 
0.0 0.0 0.0 
-1.893228709228e-03 3.383379880187e-03 0.0 
3.383379880187e-03 9.966959179872e-03 0.0 
0.0 0.0 0.0 
0.0 2.828329152680e-03 0.0 
2.828329152680e-03 1.630135069829e-02 0.0 
0.0 0.0 0.0 
-2.690427601417e-03 1.017089779279e-02 0.0 
1.017089779279e-02 2.078112219794e-03 0.0 
0.0 0.0 0.0 
-1.937363365790e-03 3.567491744857e-03 0.0 
3.567491744857e-03 1.074550554176e-02 0.0 
0.0 0.0 0.0 
2.967671739910e-03 -1.494828872268e-04 0.0 
-1.494828872268e-04 1.511214649870e-03 0.0 
0.0 0.0 0.0 
-2.434715303163e-04 -6.895356043824e-04 0.0 
-6.895356043824e-04 4.202436530005e-03 0.0 
0.0 0.0 0.0 
-2.209632205566e-03 3.285849851513e-03 0.0 
3.285849851513e-03 1.077505897058e-02 0.0 
0.0 0.0 0.0 
3.312354137129e-03 -1.533410934964e-03 0.0 
-1.533410934964e-03 -8.727695321011e-04 0.0 
0.0 0.0 0.0 
1.666443328699e-03 -6.846500743487e-04 0.0 
-6.846500743487e-04 2.235253035892e-03 0.0 
0.0 0.0 0.0 
1.310016219610e-03 3.677665590351e-03 0.0 
3.677665590351e-03 6.776139434386e-03 0.0 
0.0 0.0 0.0 
3.004385382710e-03 2.451919062477e-03 0.0 
2.451919062477e-03 4.136273183759e-03 0.0 
0.0 0.0 0.0 
-2.668532271378e-04 3.931582476494e-03 0.0 
3.931582476494e-03 1.163815574410e-02 0.0 
0.0 0.0 0.0 
4.171794298641e-03 6.327977514362e-03 0.0 
6.327977514362e-03 -5.686281624464e-03 0.0 
0.0 0.0 0.0 
-1.002715113373e-04 -8.522211387865e-04 0.0 
-8.522211387865e-04 3.919500517724e-03 0.0 
0.0 0.0 0.0 
-2.116109676198e-04 -5.763238347048e-04 0.0 
-5.763238347048e-04 4.469490156934e-03 0.0 
0.0 0.0 0.0 
-4.205237425141e-04 -1.149154484720e-03 0.0 
-1.149154484720e-03 2.159129690533e-03 0.0 
0.0 0.0 0.0 
-2.842873649772e-03 2.179815515199e-03 0.0 
2.179815515199e-03 1.387790054465e-02 0.0 
0.0 0.0 0.0 
-2.185150594054e-03 2.962884875785e-03 0.0 
2.962884875785e-03 1.401631785462e-02 0.0 
0.0 0.0 0.0 
-2.867124075636e-04 -7.295016550297e-05 0.0 
-7.295016550297e-05 5.723675734120e-03 0.0 
0.0 0.0 0.0 
6.676476377505e-04 -1.911021999694e-05 0.0 
-1.911021999694e-05 4.870262021039e-04 0.0 
0.0 0.0 0.0 
1.344174167846e-03 -5.305429842375e-04 0.0 
-5.305429842375e-04 -5.204776145883e-03 0.0 
0.0 0.0 0.0 
-3.821736947694e-04 -7.943795472247e-04 0.0 
-7.943795472247e-04 1.642743767804e-03 0.0 
0.0 0.0 0.0 
-2.844399346245e-04 -5.529418198197e-04 0.0 
-5.529418198197e-04 4.466155636353e-03 0.0 
0.0 0.0 0.0 
6.077471555294e-03 -4.226215327751e-04 0.0 
-4.226215327751e-04 -3.478480646466e-03 0.0 
0.0 0.0 0.0 
3.550502712918e-03 -1.870760795784e-03 0.0 
-1.870760795784e-03 -2.427585820572e-03 0.0 
0.0 0.0 0.0 
7.080863444666e-03 -1.411694922721e-03 0.0 
-1.411694922721e-03 -5.821346270251e-03 0.0 
0.0 0.0 0.0 
-7.642428984356e-05 -6.349716189648e-04 0.0 
-6.349716189648e-04 4.529877762882e-03 0.0 
0.0 0.0 0.0 
-1.448673752348e-03 3.321165923850e-03 0.0 
3.321165923850e-03 1.295776579706e-02 0.0 
0.0 0.0 0.0 
-2.536372723687e-04 -4.475905429820e-04 0.0 
-4.475905429820e-04 4.712489709668e-03 0.0 
0.0 0.0 0.0 
7.060260367246e-03 2.618228856832e-04 0.0 
2.618228856832e-04 -3.596880875741e-03 0.0 
0.0 0.0 0.0 
-2.038089249443e-04 3.811436974115e-03 0.0 
3.811436974115e-03 9.155598637052e-03 0.0 
0.0 0.0 0.0 
-2.184053817631e-03 4.823500811498e-04 0.0 
4.823500811498e-04 1.552909658280e-02 0.0 
0.0 0.0 0.0 
1.900705219113e-03 2.629543074129e-03 0.0 
2.629543074129e-03 6.291588368112e-03 0.0 
0.0 0.0 0.0 
-3.161230809700e-04 -4.247144637801e-04 0.0 
-4.247144637801e-04 4.709101295710e-03 0.0 
0.0 0.0 0.0 
-1.777821889402e-04 -6.259509100257e-04 0.0 
-6.259509100257e-04 4.529075125435e-03 0.0 
0.0 0.0 0.0 
-1.821023162784e-03 3.090111409971e-03 0.0 
3.090111409971e-03 8.505217079183e-03 0.0 
0.0 0.0 0.0 
4.434537199497e-03 -7.627234754390e-04 0.0 
-7.627234754390e-04 -1.907200136977e-03 0.0 
0.0 0.0 0.0 
-2.866597426964e-04 -3.259226417983e-04 0.0 
-3.259226417983e-04 4.939054100805e-03 0.0 
0.0 0.0 0.0 
-1.407085098169e-03 6.849180276755e-05 0.0 
6.849180276755e-05 1.611479158989e-02 0.0 
0.0 0.0 0.0 
-1.506024914964e-03 5.376640413483e-05 0.0 
5.376640413483e-05 1.578332493389e-02 0.0 
0.0 0.0 0.0 
-1.833510215037e-03 3.234703845503e-03 0.0 
3.234703845503e-03 9.244801406078e-03 0.0 
0.0 0.0 0.0 
-1.391506191697e-04 -5.067737566534e-04 0.0 
-5.067737566534e-04 4.799013285229e-03 0.0 
0.0 0.0 0.0 
1.124257418305e-03 -2.015415626073e-03 0.0 
-2.015415626073e-03 -2.647189686870e-04 0.0 
0.0 0.0 0.0 
-1.976763672482e-04 6.143781266459e-03 0.0 
6.143781266459e-03 6.000348458357e-04 0.0 
0.0 0.0 0.0 
9.601831417199e-04 2.496508260472e-03 0.0 
2.496508260472e-03 8.240133398881e-03 0.0 
0.0 0.0 0.0 
-7.793632927772e-04 -1.215425582317e-03 0.0 
-1.215425582317e-03 1.482742744531e-03 0.0 
0.0 0.0 0.0 
1.153385401037e-03 -1.729690219057e-03 0.0 
-1.729690219057e-03 5.357263142796e-04 0.0 
0.0 0.0 0.0 
4.473233926287e-03 2.850042108935e-03 0.0 
2.850042108935e-03 2.233753033105e-03 0.0 
0.0 0.0 0.0 
-1.588260245652e-03 3.326225065855e-03 0.0 
3.326225065855e-03 9.977297202633e-03 0.0 
0.0 0.0 0.0 
-3.392575063319e-04 -3.054441981904e-04 0.0 
-3.054441981904e-04 4.934774656928e-03 0.0 
0.0 0.0 0.0 
-2.334028307140e-04 -3.515495670920e-05 0.0 
-3.515495670920e-05 2.456178897784e-03 0.0 
0.0 0.0 0.0 
-3.102725648997e-03 2.167379409045e-03 0.0 
2.167379409045e-03 1.464881155206e-02 0.0 
0.0 0.0 0.0 
-2.261834331717e-04 -4.967335016894e-04 0.0 
-4.967335016894e-04 4.797923357057e-03 0.0 
0.0 0.0 0.0 
2.317325301355e-03 -8.516295367815e-04 0.0 
-8.516295367815e-04 9.709484669993e-04 0.0 
0.0 0.0 0.0 
-4.898905217610e-05 -9.080174696288e-04 0.0 
-9.080174696288e-04 3.926288133100e-03 0.0 
0.0 0.0 0.0 
3.074651767456e-03 5.634602545047e-03 0.0 
5.634602545047e-03 -5.681691793782e-03 0.0 
0.0 0.0 0.0 
-9.464645149077e-04 8.560194003000e-05 0.0 
8.560194003000e-05 1.699085191335e-02 0.0 
0.0 0.0 0.0 
2.160496878536e-03 -1.457609643322e-03 0.0 
-1.457609643322e-03 -1.636875627187e-04 0.0 
0.0 0.0 0.0 
1.584960420959e-03 1.541259050844e-03 0.0 
1.541259050844e-03 6.075629176509e-03 0.0 
0.0 0.0 0.0 
2.848673875089e-03 3.453911346915e-03 0.0 
3.453911346915e-03 5.471578574782e-03 0.0 
0.0 0.0 0.0 
-1.913582570680e-04 -3.868638353254e-04 0.0 
-3.868638353254e-04 5.048819352100e-03 0.0 
0.0 0.0 0.0 
-2.644248921287e-04 -3.749899082522e-04 0.0 
-3.749899082522e-04 5.047317431666e-03 0.0 
0.0 0.0 0.0 
6.302160274769e-03 -7.145372825463e-04 0.0 
-7.145372825463e-04 -3.244536657577e-03 0.0 
0.0 0.0 0.0 
-5.982453867494e-04 -1.169438954395e-03 0.0 
-1.169438954395e-03 9.190008295505e-04 0.0 
0.0 0.0 0.0 
3.402126421317e-03 9.279438329014e-03 0.0 
9.279438329014e-03 -6.406313821644e-03 0.0 
0.0 0.0 0.0 
-2.336490312751e-04 -2.752336138709e-04 0.0 
-2.752336138709e-04 5.284924438359e-03 0.0 
0.0 0.0 0.0 
1.565612268768e-03 1.041786985186e-03 0.0 
1.041786985186e-03 5.570564345305e-03 0.0 
0.0 0.0 0.0 
3.678721607239e-04 -2.003698867487e-03 0.0 
-2.003698867487e-03 9.247907426941e-04 0.0 
0.0 0.0 0.0 
2.303262465713e-04 3.926674873429e-03 0.0 
3.926674873429e-03 8.573389232359e-03 0.0 
0.0 0.0 0.0 
-1.430230096043e-03 3.185360796389e-03 0.0 
3.185360796389e-03 6.761390186786e-03 0.0 
0.0 0.0 0.0 
-3.700483154044e-04 3.836104007083e-03 0.0 
3.836104007083e-03 9.942132733942e-03 0.0 
0.0 0.0 0.0 
7.325134454708e-04 5.638154880853e-04 0.0 
5.638154880853e-04 6.448314264912e-03 0.0 
0.0 0.0 0.0 
-3.733678986163e-03 9.271049706088e-05 0.0 
9.271049706088e-05 -3.389193270379e-03 0.0 
0.0 0.0 0.0 
0.0 2.602711431886e-04 0.0 
2.602711431886e-04 1.755083174579e-02 0.0 
0.0 0.0 0.0 
0.0 -5.886086592167e-05 0.0 
-5.886086592167e-05 7.445950709920e-03 0.0 
0.0 0.0 0.0 
-1.588252710478e-03 -3.613868007150e-05 0.0 
-3.613868007150e-05 1.515228997776e-02 0.0 
0.0 0.0 0.0 
8.961249186232e-04 -1.736304372376e-03 0.0 
-1.736304372376e-03 9.765407739455e-04 0.0 
0.0 0.0 0.0 
2.267071578457e-03 3.591779335817e-03 0.0 
3.591779335817e-03 6.010115308657e-03 0.0 
0.0 0.0 0.0 
7.438791079067e-03 1.982850741495e-04 0.0 
1.982850741495e-04 -4.621200528593e-03 0.0 
0.0 0.0 0.0 
3.174461699440e-04 -7.806281157156e-05 0.0 
-7.806281157156e-05 9.015072648897e-04 0.0 
0.0 0.0 0.0 
-2.895692524396e-03 1.028801258396e-02 0.0 
1.028801258396e-02 2.660116233165e-03 0.0 
0.0 0.0 0.0 
-9.171738185492e-04 7.808252158474e-04 0.0 
7.808252158474e-04 1.716860159254e-02 0.0 
0.0 0.0 0.0 
-1.867116441905e-03 3.210826566026e-03 0.0 
3.210826566026e-03 1.347561045370e-02 0.0 
0.0 0.0 0.0 
-3.271279725702e-03 2.209158525964e-03 0.0 
2.209158525964e-03 1.454670974282e-02 0.0 
0.0 0.0 0.0 
2.846760239783e-04 3.613863988837e-03 0.0 
3.613863988837e-03 1.074154491673e-02 0.0 
0.0 0.0 0.0 
-7.735101275774e-05 -1.901706852907e-05 0.0 
-1.901706852907e-05 2.004696918275e-03 0.0 
0.0 0.0 0.0 
2.658483407978e-04 3.417072834149e-03 0.0 
3.417072834149e-03 1.041146969111e-02 0.0 
0.0 0.0 0.0 
-1.776139684259e-03 3.098128588029e-03 0.0 
3.098128588029e-03 1.349418289216e-02 0.0 
0.0 0.0 0.0 
3.049486477926e-04 -1.649730832981e-03 0.0 
-1.649730832981e-03 1.874284266111e-03 0.0 
0.0 0.0 0.0 
2.397186619269e-03 3.725610573044e-03 0.0 
3.725610573044e-03 4.886371238561e-03 0.0 
0.0 0.0 0.0 
8.176000109477e-04 -1.708126467460e-03 0.0 
-1.708126467460e-03 1.240099294899e-03 0.0 
0.0 0.0 0.0 
-5.536361569438e-04 5.471288636297e-03 0.0 
5.471288636297e-03 1.879904955588e-03 0.0 
0.0 0.0 0.0 
4.052213847587e-04 -1.762448423724e-03 0.0 
-1.762448423724e-03 1.554124996160e-03 0.0 
0.0 0.0 0.0 
-1.122570404725e-03 3.515980607533e-03 0.0 
3.515980607533e-03 1.242003199097e-02 0.0 
0.0 0.0 0.0 
-1.506179606978e-04 -1.552237975191e-04 0.0 
-1.552237975191e-04 6.384312729101e-03 0.0 
0.0 0.0 0.0 
2.103581889776e-03 -1.470834107489e-03 0.0 
-1.470834107489e-03 1.683693009558e-04 0.0 
0.0 0.0 0.0 
2.326575869072e-06 3.925841833100e-03 0.0 
3.925841833100e-03 9.413410173008e-03 0.0 
0.0 0.0 0.0 
-3.725557114459e-04 4.529963205888e-05 0.0 
4.529963205888e-05 -4.988360978124e-03 0.0 
0.0 0.0 0.0 
4.572759557406e-03 -1.002437597343e-03 0.0 
-1.002437597343e-03 -1.517122450313e-03 0.0 
0.0 0.0 0.0 
-1.623539285919e-03 3.211536036814e-03 0.0 
3.211536036814e-03 1.420079323268e-02 0.0 
0.0 0.0 0.0 
-1.105374059953e-04 -1.492678921339e-03 0.0 
-1.492678921339e-03 2.292506146951e-03 0.0 
0.0 0.0 0.0 
4.255358688088e-06 -1.910825984564e-03 0.0 
-1.910825984564e-03 1.291021539293e-03 0.0 
0.0 0.0 0.0 
2.939858272934e-03 3.565665410911e-03 0.0 
3.565665410911e-03 4.908942870590e-03 0.0 
0.0 0.0 0.0 
2.563120507771e-03 -4.147879242714e-03 0.0 
-4.147879242714e-03 -2.358364029762e-03 0.0 
0.0 0.0 0.0 
-1.804946830756e-03 2.950623786913e-03 0.0 
2.950623786913e-03 7.079331564404e-03 0.0 
0.0 0.0 0.0 
-1.767734066307e-03 3.217372904609e-03 0.0 
3.217372904609e-03 7.846904110185e-03 0.0 
0.0 0.0 0.0 
-2.777576768201e-04 -1.539030473916e-03 0.0 
-1.539030473916e-03 2.056051187952e-03 0.0 
0.0 0.0 0.0 
2.315513600621e-03 -5.467625111285e-04 0.0 
-5.467625111285e-04 1.591459545772e-03 0.0 
0.0 0.0 0.0 
4.618706991410e-03 3.320951843790e-03 0.0 
3.320951843790e-03 1.113404010294e-03 0.0 
0.0 0.0 0.0 
1.020095807049e-04 3.837096136442e-03 0.0 
3.837096136442e-03 9.423213980484e-03 0.0 
0.0 0.0 0.0 
-2.832067946731e-04 3.889254212808e-03 0.0 
3.889254212808e-03 1.294074458613e-02 0.0 
0.0 0.0 0.0 
-1.516833566245e-03 3.033946545515e-03 0.0 
3.033946545515e-03 8.513629499976e-03 0.0 
0.0 0.0 0.0 
-1.285580160053e-03 4.101005619269e-05 0.0 
4.101005619269e-05 1.644114928034e-02 0.0 
0.0 0.0 0.0 
6.045701957376e-04 3.965315050159e-03 0.0 
3.965315050159e-03 1.049234364916e-02 0.0 
0.0 0.0 0.0 
7.643459107718e-03 6.320679713716e-05 0.0 
6.320679713716e-05 -4.930595155516e-03 0.0 
0.0 0.0 0.0 
-7.950771697189e-04 6.711586912871e-03 0.0 
6.711586912871e-03 1.099246378333e-03 0.0 
0.0 0.0 0.0 
-1.658626486080e-03 3.295181879264e-03 0.0 
3.295181879264e-03 7.524755105252e-03 0.0 
0.0 0.0 0.0 
1.642498489283e-03 -9.706271599230e-04 0.0 
-9.706271599230e-04 1.654421724090e-03 0.0 
0.0 0.0 0.0 
-4.271842972329e-04 3.859027852493e-03 0.0 
3.859027852493e-03 1.069097002829e-02 0.0 
0.0 0.0 0.0 
2.368484611208e-03 -6.027964173811e-04 0.0 
-6.027964173811e-04 1.594432242641e-03 0.0 
0.0 0.0 0.0 
3.830783023653e-03 5.474359422969e-03 0.0 
5.474359422969e-03 -4.654192729670e-03 0.0 
0.0 0.0 0.0 
2.219468855718e-03 -2.559797303393e-04 0.0 
-2.559797303393e-04 2.293881559292e-03 0.0 
0.0 0.0 0.0 
-8.475259257926e-04 5.107126326738e-03 0.0 
5.107126326738e-03 3.028071652261e-03 0.0 
0.0 0.0 0.0 
5.090001471367e-03 2.979817595422e-03 0.0 
2.979817595422e-03 1.159714074407e-03 0.0 
0.0 0.0 0.0 
2.328424720415e-03 -3.340953956031e-04 0.0 
-3.340953956031e-04 2.177283254666e-03 0.0 
0.0 0.0 0.0 
3.074386606566e-03 3.493618652278e-03 0.0 
3.493618652278e-03 4.401099076605e-03 0.0 
0.0 0.0 0.0 
-1.542389483409e-03 1.546383645078e-04 0.0 
1.546383645078e-04 1.606233997157e-02 0.0 
0.0 0.0 0.0 
-3.253423060773e-04 -1.436518541243e-03 0.0 
-1.436518541243e-03 2.042267040423e-03 0.0 
0.0 0.0 0.0 
4.779684038909e-04 7.506771844073e-03 0.0 
7.506771844073e-03 -1.003607163938e-03 0.0 
0.0 0.0 0.0 
2.205082907888e-03 -7.922500524799e-05 0.0 
-7.922500524799e-05 2.833973484253e-03 0.0 
0.0 0.0 0.0 
-1.158279927553e-03 3.537477167745e-03 0.0 
3.537477167745e-03 4.107075087613e-03 0.0 
0.0 0.0 0.0 
1.217448317863e-03 1.102791779584e-03 0.0 
1.102791779584e-03 -5.375028216170e-03 0.0 
0.0 0.0 0.0 
-6.147743186414e-04 1.409978765017e-04 0.0 
1.409978765017e-04 1.722765444037e-02 0.0 
0.0 0.0 0.0 
-8.851101033909e-04 1.181344036641e-04 0.0 
1.181344036641e-04 1.699211544247e-02 0.0 
0.0 0.0 0.0 
3.536107701281e-04 -7.180342209932e-05 0.0 
-7.180342209932e-05 2.229342714442e-04 0.0 
0.0 0.0 0.0 
2.032788925011e-03 1.811006132201e-05 0.0 
1.811006132201e-05 3.088241062323e-03 0.0 
0.0 0.0 0.0 
-4.439470856832e-04 -1.011307298622e-03 0.0 
-1.011307298622e-03 1.906228382641e-03 0.0 
0.0 0.0 0.0 
-5.725130082000e-04 -1.001996663044e-03 0.0 
-1.001996663044e-03 2.180478337431e-03 0.0 
0.0 0.0 0.0 
2.713397799117e-04 4.018481157599e-03 0.0 
4.018481157599e-03 9.656628283502e-03 0.0 
0.0 0.0 0.0 
3.399857453927e-03 3.336138883923e-03 0.0 
3.336138883923e-03 4.420977064733e-03 0.0 
0.0 0.0 0.0 
6.034909357411e-04 3.993142458109e-03 0.0 
3.993142458109e-03 8.788839429013e-03 0.0 
0.0 0.0 0.0 
3.288962010002e-03 -1.376478154830e-03 0.0 
-1.376478154830e-03 -1.437449288681e-03 0.0 
0.0 0.0 0.0 
-1.646938167045e-03 6.836748743034e-06 0.0 
6.836748743034e-06 1.472548232114e-02 0.0 
0.0 0.0 0.0 
3.076195578531e-04 2.601459301720e-04 0.0 
2.601459301720e-04 6.423956560058e-03 0.0 
0.0 0.0 0.0 
-5.854400617050e-04 -8.471512604497e-04 0.0 
-8.471512604497e-04 1.873313244402e-03 0.0 
0.0 0.0 0.0 
1.706861226551e-03 1.573660728552e-03 0.0 
1.573660728552e-03 5.820416775082e-03 0.0 
0.0 0.0 0.0 
4.368917041794e-03 3.243463892268e-03 0.0 
3.243463892268e-03 2.431948858857e-03 0.0 
0.0 0.0 0.0 
7.642939748020e-05 -7.669811046778e-05 0.0 
-7.669811046778e-05 1.438734932180e-03 0.0 
0.0 0.0 0.0 
-7.394831041682e-04 3.730987201281e-03 0.0 
3.730987201281e-03 1.119001826354e-02 0.0 
0.0 0.0 0.0 
5.582633840797e-03 -2.881332437930e-04 0.0 
-2.881332437930e-04 -1.997620820694e-03 0.0 
0.0 0.0 0.0 
-5.763581039296e-04 -1.194996402555e-03 0.0 
-1.194996402555e-03 7.576077833897e-04 0.0 
0.0 0.0 0.0 
5.078616373839e-03 -1.548369937674e-03 0.0 
-1.548369937674e-03 -2.482593358859e-03 0.0 
0.0 0.0 0.0 
-3.158036417015e-04 -4.460124638200e-06 0.0 
-4.460124638200e-06 5.580708126426e-03 0.0 
0.0 0.0 0.0 
-1.215128525091e-03 3.586700937538e-03 0.0 
3.586700937538e-03 1.240475621252e-02 0.0 
0.0 0.0 0.0 
-4.290716451313e-04 -1.114956138276e-03 0.0 
-1.114956138276e-03 1.147964423373e-03 0.0 
0.0 0.0 0.0 
-4.423679009615e-04 -1.371777358023e-04 0.0 
-1.371777358023e-04 4.621519130592e-03 0.0 
0.0 0.0 0.0 
-1.303947198756e-04 3.944009061310e-03 0.0 
3.944009061310e-03 1.020571338659e-02 0.0 
0.0 0.0 0.0 
1.603059854512e-03 2.708198547028e-03 0.0 
2.708198547028e-03 7.162676600617e-03 0.0 
0.0 0.0 0.0 
3.014908505561e-05 -1.703136272423e-03 0.0 
-1.703136272423e-03 1.837613408414e-03 0.0 
0.0 0.0 0.0 
-2.734880214997e-04 -8.139700141092e-05 0.0 
-8.139700141092e-05 2.455160456018e-03 0.0 
0.0 0.0 0.0 
4.263678115263e-03 3.087866475606e-03 0.0 
3.087866475606e-03 2.201907925831e-03 0.0 
0.0 0.0 0.0 
-1.456756955225e-03 -2.967631316683e-05 0.0 
-2.967631316683e-05 1.592194539737e-02 0.0 
0.0 0.0 0.0 
-4.781503869281e-04 -2.016019275937e-03 0.0 
-2.016019275937e-03 2.981972538332e-04 0.0 
0.0 0.0 0.0 
5.213005099076e-04 3.832369659834e-03 0.0 
3.832369659834e-03 1.098681336097e-02 0.0 
0.0 0.0 0.0 
-2.728223439961e-04 3.738866232393e-03 0.0 
3.738866232393e-03 1.416855281457e-02 0.0 
0.0 0.0 0.0 
-1.559052429756e-03 -1.124536272099e-05 0.0 
-1.124536272099e-05 1.539790342722e-02 0.0 
0.0 0.0 0.0 
-1.000425113797e-03 2.105624664056e-03 0.0 
2.105624664056e-03 1.680351964135e-02 0.0 
0.0 0.0 0.0 
-7.510021854584e-05 4.032126571089e-03 0.0 
4.032126571089e-03 1.303542481913e-02 0.0 
0.0 0.0 0.0 
3.146370279974e-03 -1.083930339754e-03 0.0 
-1.083930339754e-03 -2.392873604761e-04 0.0 
0.0 0.0 0.0 
1.263579918474e-03 -1.776232319567e-03 0.0 
-1.776232319567e-03 2.312308509971e-04 0.0 
0.0 0.0 0.0 
7.482461683985e-04 2.108773935044e-03 0.0 
2.108773935044e-03 8.032179988310e-03 0.0 
0.0 0.0 0.0 
-1.013677356292e-04 4.546674597363e-04 0.0 
4.546674597363e-04 -4.784600681895e-03 0.0 
0.0 0.0 0.0 
-1.727139708176e-04 -2.303094367629e-05 0.0 
-2.303094367629e-05 2.218279130103e-03 0.0 
0.0 0.0 0.0 
-4.168408201811e-04 -6.840786381724e-05 0.0 
-6.840786381724e-05 4.724979617024e-03 0.0 
0.0 0.0 0.0 
-1.267000793136e-04 -1.664335028600e-03 0.0 
-1.664335028600e-03 1.831909669281e-03 0.0 
0.0 0.0 0.0 
2.056974276970e-03 -1.826560787452e-03 0.0 
-1.826560787452e-03 -2.931862261402e-04 0.0 
0.0 0.0 0.0 
-1.800611164010e-03 2.934437995676e-03 0.0 
2.934437995676e-03 5.677295222294e-03 0.0 
0.0 0.0 0.0 
-1.802172342194e-03 3.280928134357e-03 0.0 
3.280928134357e-03 6.408227505041e-03 0.0 
0.0 0.0 0.0 
-2.149441475320e-03 3.683604106948e-04 0.0 
3.683604106948e-04 1.553284432283e-02 0.0 
0.0 0.0 0.0 
4.956756969613e-03 -1.263017972919e-03 0.0 
-1.263017972919e-03 -3.143910508557e-03 0.0 
0.0 0.0 0.0 
-3.680658687863e-04 -2.481916440843e-04 0.0 
-2.481916440843e-04 2.627399521786e-03 0.0 
0.0 0.0 0.0 
1.784382181725e-03 3.059282025396e-03 0.0 
3.059282025396e-03 6.869459369349e-03 0.0 
0.0 0.0 0.0 
1.659917760375e-04 3.033759140338e-05 0.0 
3.033759140338e-05 7.110272450426e-03 0.0 
0.0 0.0 0.0 
2.190239625657e-04 1.482959414349e-04 0.0 
1.482959414349e-04 7.026118691167e-03 0.0 
0.0 0.0 0.0 
1.332084291036e-03 -1.492957755617e-03 0.0 
-1.492957755617e-03 9.280344479627e-04 0.0 
0.0 0.0 0.0 
-2.346858482922e-03 3.906303592794e-04 0.0 
3.906303592794e-04 1.533598110181e-02 0.0 
0.0 0.0 0.0 
-3.726224851099e-04 9.260972513212e-05 0.0 
9.260972513212e-05 -4.347832825467e-03 0.0 
0.0 0.0 0.0 
-2.076641942895e-03 5.083229804932e-03 0.0 
5.083229804932e-03 4.564604388231e-03 0.0 
0.0 0.0 0.0 
3.413959352812e-03 -4.957448979270e-03 0.0 
-4.957448979270e-03 -4.828708949282e-03 0.0 
0.0 0.0 0.0 
-1.928970599940e-03 3.499214782593e-03 0.0 
3.499214782593e-03 5.082765408439e-03 0.0 
0.0 0.0 0.0 
3.926703721558e-03 3.113374206032e-03 0.0 
3.113374206032e-03 3.334398087048e-03 0.0 
0.0 0.0 0.0 
6.645058267252e-04 -1.913892010451e-03 0.0 
-1.913892010451e-03 9.123984784019e-04 0.0 
0.0 0.0 0.0 
2.133085048960e-03 -1.784971593615e-03 0.0 
-1.784971593615e-03 -8.252619323923e-04 0.0 
0.0 0.0 0.0 
3.594346376137e-03 -5.316740194557e-03 0.0 
-5.316740194557e-03 -5.561337728333e-03 0.0 
0.0 0.0 0.0 
-7.698564231687e-04 2.120759125200e-04 0.0 
2.120759125200e-04 1.704775007505e-02 0.0 
0.0 0.0 0.0 
7.803489681579e-04 -1.960829463061e-03 0.0 
-1.960829463061e-03 5.710894049287e-04 0.0 
0.0 0.0 0.0 
-7.469085417118e-04 7.891488446172e-04 0.0 
7.891488446172e-04 1.716628375034e-02 0.0 
0.0 0.0 0.0 
-1.094449591818e-03 2.634276739249e-04 0.0 
2.634276739249e-04 1.684094074232e-02 0.0 
0.0 0.0 0.0 
-2.991572996501e-04 3.587076748838e-04 0.0 
3.587076748838e-04 1.753938324371e-02 0.0 
0.0 0.0 0.0 
-4.672187774657e-05 -7.488064251017e-05 0.0 
-7.488064251017e-05 7.441075497055e-03 0.0 
0.0 0.0 0.0 
-1.570243764256e-03 3.930562567052e-05 0.0 
3.930562567052e-05 1.540967317863e-02 0.0 
0.0 0.0 0.0 
5.165396854618e-04 -1.817425860498e-03 0.0 
-1.817425860498e-03 1.260816828044e-03 0.0 
0.0 0.0 0.0 
-1.493352961583e-03 3.022342775458e-03 0.0 
3.022342775458e-03 7.085641459170e-03 0.0 
0.0 0.0 0.0 
5.582518451659e-04 -1.585127522062e-03 0.0 
-1.585127522062e-03 1.861681439672e-03 0.0 
0.0 0.0 0.0 
0.0 -5.903990340646e-05 0.0 
-5.903990340646e-05 7.196962598269e-03 0.0 
0.0 0.0 0.0 
-2.219048153096e-03 6.450542109763e-03 0.0 
6.450542109763e-03 3.415900799528e-03 0.0 
0.0 0.0 0.0 
-2.089729601257e-03 5.584506647178e-03 0.0 
5.584506647178e-03 4.004933605815e-03 0.0 
0.0 0.0 0.0 
1.414637156646e-03 1.852237564656e-03 0.0 
1.852237564656e-03 6.694849298231e-03 0.0 
0.0 0.0 0.0 
-1.868013703400e-03 1.610252821249e-04 0.0 
1.610252821249e-04 1.515878057928e-02 0.0 
0.0 0.0 0.0 
-6.675915995190e-04 5.216533198907e-04 0.0 
5.216533198907e-04 1.720981534812e-02 0.0 
0.0 0.0 0.0 
-1.614534387168e-04 3.882913514678e-03 0.0 
3.882913514678e-03 1.020958507479e-02 0.0 
0.0 0.0 0.0 
1.085694064426e-03 2.746519033151e-03 0.0 
2.746519033151e-03 8.098436664152e-03 0.0 
0.0 0.0 0.0 
-6.850488162996e-04 3.849306198497e-03 0.0 
3.849306198497e-03 1.206785140208e-02 0.0 
0.0 0.0 0.0 
-1.603441762931e-03 1.183561927176e-04 0.0 
1.183561927176e-04 1.551146900282e-02 0.0 
0.0 0.0 0.0 
-2.763738728859e-04 -1.690586200327e-03 0.0 
-1.690586200327e-03 1.615050803188e-03 0.0 
0.0 0.0 0.0 
-1.708509599645e-04 -1.788199034630e-03 0.0 
-1.788199034630e-03 1.627392663421e-03 0.0 
0.0 0.0 0.0 
-1.335084863215e-03 1.300255672314e-04 0.0 
1.300255672314e-04 1.628277703526e-02 0.0 
0.0 0.0 0.0 
1.266105363101e-03 2.822923171758e-03 0.0 
2.822923171758e-03 7.945478865846e-03 0.0 
0.0 0.0 0.0 
-2.961185668261e-03 7.457807833789e-04 0.0 
7.457807833789e-04 1.531820278247e-02 0.0 
0.0 0.0 0.0 
-1.614686455287e-03 2.515177732823e-05 0.0 
2.515177732823e-05 1.506871488917e-02 0.0 
0.0 0.0 0.0 
-1.605767841176e-03 4.000071770249e-05 0.0 
4.000071770249e-05 1.540120010746e-02 0.0 
0.0 0.0 0.0 
-1.687566258283e-03 7.067975792386e-05 0.0 
7.067975792386e-05 1.553111991669e-02 0.0 
0.0 0.0 0.0 
4.918601346176e-03 -3.227969703880e-03 0.0 
-3.227969703880e-03 -6.576983335641e-03 0.0 
0.0 0.0 0.0 
-4.573886746632e-04 -1.529292705422e-03 0.0 
-1.529292705422e-03 1.861403347884e-03 0.0 
0.0 0.0 0.0 
-6.547830513964e-04 1.189292242777e-03 0.0 
1.189292242777e-03 1.725703908172e-02 0.0 
0.0 0.0 0.0 
-1.649715785906e-03 1.585880117039e-04 0.0 
1.585880117039e-04 1.591301497004e-02 0.0 
0.0 0.0 0.0 
4.402160100763e-04 2.587166681235e-03 0.0 
2.587166681235e-03 8.916957782632e-03 0.0 
0.0 0.0 0.0 
-4.807349748773e-04 4.047290023719e-03 0.0 
4.047290023719e-03 1.287526207633e-02 0.0 
0.0 0.0 0.0 
-8.088107509484e-04 3.753385064743e-03 0.0 
3.753385064743e-03 1.118645364458e-02 0.0 
0.0 0.0 0.0 
-1.237244577604e-03 2.187361886178e-03 0.0 
2.187361886178e-03 1.657524577158e-02 0.0 
0.0 0.0 0.0 
-4.659695337216e-04 -4.257176255051e-04 0.0 
-4.257176255051e-04 3.580954501716e-03 0.0 
0.0 0.0 0.0 
-4.722635961553e-04 -4.264810854245e-04 0.0 
-4.264810854245e-04 3.270142275579e-03 0.0 
0.0 0.0 0.0 
6.712763149135e-04 1.893813318431e-04 0.0 
1.893813318431e-04 5.928078488881e-03 0.0 
0.0 0.0 0.0 
3.054074285474e-03 -3.779500688402e-03 0.0 
-3.779500688402e-03 -6.255806039155e-03 0.0 
0.0 0.0 0.0 
-1.598454447481e-04 -5.667926667164e-05 0.0 
-5.667926667164e-05 2.343639934386e-03 0.0 
0.0 0.0 0.0 
0.0 3.381828848670e-03 0.0 
3.381828848670e-03 1.056200907563e-02 0.0 
0.0 0.0 0.0 
3.346586403217e-04 4.319948935154e-06 0.0 
4.319948935154e-06 9.424149070023e-04 0.0 
0.0 0.0 0.0 
-1.601558954404e-03 2.724999956696e-05 0.0 
2.724999956696e-05 1.506618416306e-02 0.0 
0.0 0.0 0.0 
1.114136817348e-03 1.601589811924e-03 0.0 
1.601589811924e-03 6.947971254398e-03 0.0 
0.0 0.0 0.0 
3.569423330214e-04 -2.556699431846e-04 0.0 
-2.556699431846e-04 4.996171427083e-04 0.0 
0.0 0.0 0.0 
9.409789287598e-04 -5.442397855437e-05 0.0 
-5.442397855437e-05 -2.840438432239e-05 0.0 
0.0 0.0 0.0 
-4.511518173497e-04 1.874277591964e-03 0.0 
1.874277591964e-03 1.709827634763e-02 0.0 
0.0 0.0 0.0 
-1.782081880625e-03 1.914291576417e-05 0.0 
1.914291576417e-05 1.477602852772e-02 0.0 
0.0 0.0 0.0 
-7.172860475121e-04 1.611068884503e-03 0.0 
1.611068884503e-03 1.707941190998e-02 0.0 
0.0 0.0 0.0 
7.921695212874e-04 1.755050888413e-03 0.0 
1.755050888413e-03 7.309088421363e-03 0.0 
0.0 0.0 0.0 
-1.760549114170e-03 1.278247218647e-05 0.0 
1.278247218647e-05 1.475400337977e-02 0.0 
0.0 0.0 0.0 
-1.105018433410e-04 9.398753533173e-04 0.0 
9.398753533173e-04 -4.527364406636e-03 0.0 
0.0 0.0 0.0 
-3.234256559377e-04 2.722677256538e-04 0.0 
2.722677256538e-04 1.740008763841e-02 0.0 
0.0 0.0 0.0 
1.470089189419e-04 -1.048425383379e-04 0.0 
-1.048425383379e-04 1.148457746350e-03 0.0 
0.0 0.0 0.0 
-7.454749964664e-04 1.318891986902e-03 0.0 
1.318891986902e-03 1.708624454243e-02 0.0 
0.0 0.0 0.0 
0.0 -1.048961196854e-04 0.0 
-1.048961196854e-04 7.287713675181e-03 0.0 
0.0 0.0 0.0 
-6.927235122924e-04 3.646004050895e-03 0.0 
3.646004050895e-03 1.400490680035e-02 0.0 
0.0 0.0 0.0 
5.651611018199e-03 -3.211215616348e-03 0.0 
-3.211215616348e-03 -6.535449245965e-03 0.0 
0.0 0.0 0.0 
-2.582105541784e-03 1.096390080711e-03 0.0 
1.096390080711e-03 1.539043558864e-02 0.0 
0.0 0.0 0.0 
-4.639116316555e-04 -2.655037060525e-04 0.0 
-2.655037060525e-04 3.634238797559e-03 0.0 
0.0 0.0 0.0 
1.825877815186e-03 2.936007434683e-03 0.0 
2.936007434683e-03 6.878622991284e-03 0.0 
0.0 0.0 0.0 
2.734942162561e-04 2.844917148848e-03 0.0 
2.844917148848e-03 9.519962969951e-03 0.0 
0.0 0.0 0.0 
-1.198506127887e-03 1.695839788367e-04 0.0 
1.695839788367e-04 1.661282661357e-02 0.0 
0.0 0.0 0.0 
3.536178553638e-04 2.634403194382e-03 0.0 
2.634403194382e-03 9.122785734978e-03 0.0 
0.0 0.0 0.0 
4.117321926815e-03 -2.885785433176e-03 0.0 
-2.885785433176e-03 -7.201791625383e-03 0.0 
0.0 0.0 0.0 
1.184668011742e-04 -1.152715166660e-04 0.0 
-1.152715166660e-04 6.807277430696e-03 0.0 
0.0 0.0 0.0 
4.582335381964e-03 -4.390619012027e-03 0.0 
-4.390619012027e-03 -4.036953976521e-03 0.0 
0.0 0.0 0.0 
2.532560988218e-04 -3.389740461388e-05 0.0 
-3.389740461388e-05 9.834938346855e-04 0.0 
0.0 0.0 0.0 
7.276590992067e-04 1.379652198401e-03 0.0 
1.379652198401e-03 7.102144275348e-03 0.0 
0.0 0.0 0.0 
-8.692813220643e-04 3.043217857299e-03 0.0 
3.043217857299e-03 1.594782482097e-02 0.0 
0.0 0.0 0.0 
-6.145525742353e-04 1.902645501524e-03 0.0 
1.902645501524e-03 1.696583497315e-02 0.0 
0.0 0.0 0.0 
-1.672040013556e-03 7.638538887626e-05 0.0 
7.638538887626e-05 1.507895139635e-02 0.0 
0.0 0.0 0.0 
-2.597310883979e-03 2.085588784183e-03 0.0 
2.085588784183e-03 1.464575496715e-02 0.0 
0.0 0.0 0.0 
-2.413919993030e-04 5.807452935769e-03 0.0 
5.807452935769e-03 1.895970447674e-03 0.0 
0.0 0.0 0.0 
-2.059513821335e-04 4.238979610009e-03 0.0 
4.238979610009e-03 1.287144116149e-02 0.0 
0.0 0.0 0.0 
-4.260772161455e-04 -1.983447624720e-04 0.0 
-1.983447624720e-04 3.107159042266e-03 0.0 
0.0 0.0 0.0 
3.054086426207e-03 7.735883505675e-03 0.0 
7.735883505675e-03 -3.262725819748e-03 0.0 
0.0 0.0 0.0 
1.582419602931e-03 2.795742284863e-03 0.0 
2.795742284863e-03 7.151207589345e-03 0.0 
0.0 0.0 0.0 
-1.647647619622e-03 1.312520566273e-05 0.0 
1.312520566273e-05 1.470458799318e-02 0.0 
0.0 0.0 0.0 
-7.947158439890e-04 2.899700061319e-03 0.0 
2.899700061319e-03 1.572914471533e-02 0.0 
0.0 0.0 0.0 
-2.504761444160e-04 -7.007972171669e-06 0.0 
-7.007972171669e-06 1.756293096335e-02 0.0 
0.0 0.0 0.0 
0.0 1.252380722076e-04 0.0 
1.252380722076e-04 1.757694690769e-02 0.0 
0.0 0.0 0.0 
1.109778543738e-03 2.962081249396e-05 0.0 
2.962081249396e-05 -3.490633624101e-04 0.0 
0.0 0.0 0.0 
9.440707402879e-04 -3.943965478798e-05 0.0 
-3.943965478798e-05 -3.214764935242e-04 0.0 
0.0 0.0 0.0 
-1.613798219938e-03 -4.091132597862e-05 0.0 
-4.091132597862e-05 1.472843220476e-02 0.0 
0.0 0.0 0.0 
-1.669229804577e-03 -8.016046943841e-06 0.0 
-8.016046943841e-06 1.471807323133e-02 0.0 
0.0 0.0 0.0 
0.0 -2.718367769021e-05 0.0 
-2.718367769021e-05 7.469118494969e-03 0.0 
0.0 0.0 0.0 
-5.436735538034e-05 2.072735867658e-05 0.0 
2.072735867658e-05 7.427663777616e-03 0.0 
0.0 0.0 0.0 
9.170346686234e-04 1.458319949416e-05 0.0 
1.458319949416e-05 -5.355152124831e-05 0.0 
0.0 0.0 0.0 
8.996683580209e-05 -3.933403249779e-04 0.0 
-3.933403249779e-04 -5.216883992431e-03 0.0 
0.0 0.0 0.0 
3.347256297914e-06 -1.335008864033e-04 0.0 
-1.335008864033e-04 6.658071027227e-03 0.0 
0.0 0.0 0.0 
8.702540946670e-04 3.317890506205e-03 0.0 
3.317890506205e-03 9.382427753423e-03 0.0 
0.0 0.0 0.0 
1.714017156880e-04 -1.275641354530e-04 0.0 
-1.275641354530e-04 1.354829115549e-03 0.0 
0.0 0.0 0.0 
2.269028355544e-04 -1.151511605708e-04 0.0 
-1.151511605708e-04 6.352764126803e-03 0.0 
0.0 0.0 0.0 
-3.833512844418e-04 -5.761832665823e-05 0.0 
-5.761832665823e-05 5.009474130244e-03 0.0 
0.0 0.0 0.0 
-4.681311708283e-04 -7.749975736415e-05 0.0 
-7.749975736415e-05 4.379104610593e-03 0.0 
0.0 0.0 0.0 
-1.534613707867e-03 1.739670036443e-04 0.0 
1.739670036443e-04 1.607319999861e-02 0.0 
0.0 0.0 0.0 
1.071487926507e-04 -3.031277591698e-03 0.0 
-3.031277591698e-03 -8.056970418642e-04 0.0 
0.0 0.0 0.0 
2.682860382716e-03 3.147038144942e-03 0.0 
3.147038144942e-03 5.566328955738e-03 0.0 
0.0 0.0 0.0 
3.405791496274e-04 -1.314579902090e-04 0.0 
-1.314579902090e-04 9.774666748394e-04 0.0 
0.0 0.0 0.0 
-4.396311584822e-04 -3.674941717589e-04 0.0 
-3.674941717589e-04 3.943567984081e-03 0.0 
0.0 0.0 0.0 
-9.984355853498e-05 4.030131059194e-03 0.0 
4.030131059194e-03 1.245842230337e-02 0.0 
0.0 0.0 0.0 
-7.838856110981e-04 -1.343960393972e-05 0.0 
-1.343960393972e-05 1.712829964797e-02 0.0 
0.0 0.0 0.0 
-4.481203905967e-04 -9.843122587702e-05 0.0 
-9.843122587702e-05 4.388896929306e-03 0.0 
0.0 0.0 0.0 
-1.567416132633e-03 2.768806904230e-05 0.0 
2.768806904230e-05 1.567908079210e-02 0.0 
0.0 0.0 0.0 
8.658217752022e-04 3.726725485056e-03 0.0 
3.726725485056e-03 1.018771425436e-02 0.0 
0.0 0.0 0.0 
-4.038202952230e-04 3.944419733002e-03 0.0 
3.944419733002e-03 1.163701184264e-02 0.0 
0.0 0.0 0.0 
-6.093381506270e-04 3.849903943390e-03 0.0 
3.849903943390e-03 1.140213992129e-02 0.0 
0.0 0.0 0.0 
-1.713955995705e-03 1.246645652763e-05 0.0 
1.246645652763e-05 1.474697247701e-02 0.0 
0.0 0.0 0.0 
3.115799255539e-03 2.939981455319e-03 0.0 
2.939981455319e-03 4.623181985427e-03 0.0 
0.0 0.0 0.0 
-6.757547212404e-04 3.295555458342e-03 0.0 
3.295555458342e-03 1.493371998650e-02 0.0 
0.0 0.0 0.0 
-2.725841137075e-04 -1.540312668260e-04 0.0 
-1.540312668260e-04 2.361002884580e-03 0.0 
0.0 0.0 0.0 
1.575327266534e-03 -8.078993146805e-05 0.0 
-8.078993146805e-05 -2.131309297563e-04 0.0 
0.0 0.0 0.0 
9.542247243386e-04 3.807490635147e-03 0.0 
3.807490635147e-03 9.684184005068e-03 0.0 
0.0 0.0 0.0 
1.745146929359e-03 1.682050762977e-03 0.0 
1.682050762977e-03 5.813139182018e-03 0.0 
0.0 0.0 0.0 
2.212762588432e-04 -2.890494966829e-03 0.0 
-2.890494966829e-03 -9.851011843988e-04 0.0 
0.0 0.0 0.0 
-1.420885145881e-03 9.356091590070e-05 0.0 
9.356091590070e-05 1.630513725428e-02 0.0 
0.0 0.0 0.0 
-1.407692514965e-05 -1.248752250956e-04 0.0 
-1.248752250956e-04 6.977850175998e-03 0.0 
0.0 0.0 0.0 
9.282299544078e-04 3.452078371079e-03 0.0 
3.452078371079e-03 9.122718004132e-03 0.0 
0.0 0.0 0.0 
8.696687079854e-04 3.525242576436e-03 0.0 
3.525242576436e-03 9.891067721154e-03 0.0 
0.0 0.0 0.0 
-3.373918582816e-04 -8.077156675312e-05 0.0 
-8.077156675312e-05 5.351642882976e-03 0.0 
0.0 0.0 0.0 
3.389221115949e-03 5.230901563754e-03 0.0 
5.230901563754e-03 -6.847702074657e-03 0.0 
0.0 0.0 0.0 
-1.548030532056e-03 3.054138485476e-03 0.0 
3.054138485476e-03 5.687451160411e-03 0.0 
0.0 0.0 0.0 
-9.851279976471e-04 4.872412806526e-03 0.0 
4.872412806526e-03 4.159140786675e-03 0.0 
0.0 0.0 0.0 
-2.676274973976e-03 1.213432481920e-03 0.0 
1.213432481920e-03 1.554330959319e-02 0.0 
0.0 0.0 0.0 
3.016512983423e-03 3.115147873327e-03 0.0 
3.115147873327e-03 4.602438806783e-03 0.0 
0.0 0.0 0.0 
-7.847552619737e-04 9.708617360104e-04 0.0 
9.708617360104e-04 1.719719714560e-02 0.0 
0.0 0.0 0.0 
4.476486554401e-04 2.076719548977e-03 0.0 
2.076719548977e-03 8.109791193006e-03 0.0 
0.0 0.0 0.0 
-4.244508772995e-04 -1.759766536515e-03 0.0 
-1.759766536515e-03 -4.805906337912e-05 0.0 
0.0 0.0 0.0 
3.311732257929e-04 -5.173089448833e-04 0.0 
-5.173089448833e-04 4.142965590508e-04 0.0 
0.0 0.0 0.0 
-1.612121083034e-03 3.442049878001e-03 0.0 
3.442049878001e-03 4.420880712365e-03 0.0 
0.0 0.0 0.0 
-1.329340886790e-03 2.778059735931e-04 0.0 
2.778059735931e-04 1.641299860696e-02 0.0 
0.0 0.0 0.0 
-3.632930459440e-04 -2.995187426962e-04 0.0 
-2.995187426962e-04 2.855487870897e-03 0.0 
0.0 0.0 0.0 
-1.015919770253e-03 2.480157516466e-03 0.0 
2.480157516466e-03 1.636691794682e-02 0.0 
0.0 0.0 0.0 
2.507650352515e-04 -5.868664156789e-05 0.0 
-5.868664156789e-05 1.262205904351e-03 0.0 
0.0 0.0 0.0 
9.158646734435e-04 1.956160114394e-03 0.0 
1.956160114394e-03 7.510041975649e-03 0.0 
0.0 0.0 0.0 
-1.951002063523e-03 2.955171231877e-04 0.0 
2.955171231877e-04 1.554648465109e-02 0.0 
0.0 0.0 0.0 
3.190523314496e-04 2.959438249288e-03 0.0 
2.959438249288e-03 9.577818046850e-03 0.0 
0.0 0.0 0.0 
1.533195776334e-03 3.061844802961e-03 0.0 
3.061844802961e-03 7.693552886904e-03 0.0 
0.0 0.0 0.0 
-2.828860238141e-03 1.642065727732e-03 0.0 
1.642065727732e-03 1.532252745458e-02 0.0 
0.0 0.0 0.0 
7.371598598995e-04 8.442819555484e-04 0.0 
8.442819555484e-04 6.612053521000e-03 0.0 
0.0 0.0 0.0 
-7.943191733464e-04 2.819015060924e-03 0.0 
2.819015060924e-03 1.622250377397e-02 0.0 
0.0 0.0 0.0 
-5.224510261811e-04 2.385611530423e-04 0.0 
2.385611530423e-04 1.741105062445e-02 0.0 
0.0 0.0 0.0 
-1.926760247965e-03 5.623354080953e-03 0.0 
5.623354080953e-03 3.373051608669e-03 0.0 
0.0 0.0 0.0 
-9.799847242081e-04 2.128210612457e-03 0.0 
2.128210612457e-03 1.657935695391e-02 0.0 
0.0 0.0 0.0 
2.449764957173e-04 3.812958654648e-03 0.0 
3.812958654648e-03 1.111161514300e-02 0.0 
0.0 0.0 0.0 
1.080289093830e-03 1.985895084182e-03 0.0 
1.985895084182e-03 7.490919556041e-03 0.0 
0.0 0.0 0.0 
1.251162553781e-03 2.966308587834e-03 0.0 
2.966308587834e-03 7.912570282582e-03 0.0 
0.0 0.0 0.0 
0.0 1.062815998072e-04 0.0 
1.062815998072e-04 7.077582555393e-03 0.0 
0.0 0.0 0.0 
-4.949378693259e-04 3.844495355864e-03 0.0 
3.844495355864e-03 1.140234468595e-02 0.0 
0.0 0.0 0.0 
1.440936026484e-03 3.640616034723e-03 0.0 
3.640616034723e-03 -5.676589697410e-03 0.0 
0.0 0.0 0.0 
1.839785963118e-03 8.537964636568e-03 0.0 
8.537964636568e-03 -9.672166987710e-04 0.0 
0.0 0.0 0.0 
-4.526068955261e-04 3.970413923103e-03 0.0 
3.970413923103e-03 1.227501403089e-02 0.0 
0.0 0.0 0.0 
-2.441304092386e-03 1.248078281860e-03 0.0 
1.248078281860e-03 1.566352183984e-02 0.0 
0.0 0.0 0.0 
-1.035828193044e-04 -1.285140100205e-04 0.0 
-1.285140100205e-04 6.764236035674e-03 0.0 
0.0 0.0 0.0 
9.936849128598e-04 2.966188822477e-03 0.0 
2.966188822477e-03 8.663309168725e-03 0.0 
0.0 0.0 0.0 
1.645802462484e-04 -1.667767892220e-05 0.0 
-1.667767892220e-05 6.694832105551e-03 0.0 
0.0 0.0 0.0 
-1.173127149920e-03 3.612167361876e-04 0.0 
3.612167361876e-04 1.672716951221e-02 0.0 
0.0 0.0 0.0 
2.784793900745e-04 2.797299408599e-03 0.0 
2.797299408599e-03 9.318081871383e-03 0.0 
0.0 0.0 0.0 
7.057742960779e-04 4.571984645960e-04 0.0 
4.571984645960e-04 6.044073919247e-03 0.0 
0.0 0.0 0.0 
8.735144622540e-04 6.132889699221e-04 0.0 
6.132889699221e-04 6.029555377157e-03 0.0 
0.0 0.0 0.0 
-3.729214769865e-04 -2.055155819933e-04 0.0 
-2.055155819933e-04 2.987625923848e-03 0.0 
0.0 0.0 0.0 
1.219264026204e-04 -5.583775948722e-05 0.0 
-5.583775948722e-05 7.176369237443e-03 0.0 
0.0 0.0 0.0 
-2.117675418141e-03 3.427755282895e-04 0.0 
3.427755282895e-04 1.515843418075e-02 0.0 
0.0 0.0 0.0 
-7.843648221934e-04 4.970059613465e-04 0.0 
4.970059613465e-04 1.721329096803e-02 0.0 
0.0 0.0 0.0 
-2.554430911017e-04 -6.172300854965e-04 0.0 
-6.172300854965e-04 7.534384137853e-04 0.0 
0.0 0.0 0.0 
-9.656657032078e-04 2.166153195643e-04 0.0 
2.166153195643e-04 1.705320483178e-02 0.0 
0.0 0.0 0.0 
-1.446090530263e-03 1.790200458989e-04 0.0 
1.790200458989e-04 1.633026938997e-02 0.0 
0.0 0.0 0.0 
6.284153785243e-04 3.651093162101e-05 0.0 
3.651093162101e-05 5.005601491184e-04 0.0 
0.0 0.0 0.0 
5.350995715062e-03 -3.539379054586e-03 0.0 
-3.539379054586e-03 -6.866770907230e-03 0.0 
0.0 0.0 0.0 
-2.152459912026e-04 3.958329537701e-03 0.0 
3.958329537701e-03 1.096907837649e-02 0.0 
0.0 0.0 0.0 
-4.554900276424e-04 1.430977672568e-03 0.0 
1.430977672568e-03 1.716821901447e-02 0.0 
0.0 0.0 0.0 
-7.013280211396e-04 2.353519969054e-04 0.0 
2.353519969054e-04 1.724468624265e-02 0.0 
0.0 0.0 0.0 
7.007942495560e-04 2.773000776370e-03 0.0 
2.773000776370e-03 8.908128978105e-03 0.0 
0.0 0.0 0.0 
-1.619212318254e-03 1.890425759777e-04 0.0 
1.890425759777e-04 1.572143889459e-02 0.0 
0.0 0.0 0.0 
1.092879168080e-03 2.419989907659e-05 0.0 
2.419989907659e-05 -9.737042751545e-05 0.0 
0.0 0.0 0.0 
1.890074290812e-03 2.393293193216e-03 0.0 
2.393293193216e-03 -5.224256403563e-03 0.0 
0.0 0.0 0.0 
5.736757587440e-04 -9.656474901015e-05 0.0 
-9.656474901015e-05 2.232883765352e-04 0.0 
0.0 0.0 0.0 
-1.654380397825e-04 -6.954079499625e-04 0.0 
-6.954079499625e-04 9.113795204985e-04 0.0 
0.0 0.0 0.0 
-8.880675700085e-05 1.217432922350e-02 0.0 
1.217432922350e-02 -2.123081321369e-03 0.0 
0.0 0.0 0.0 
-4.723543739137e-04 -3.277222091478e-04 0.0 
-3.277222091478e-04 3.895634181490e-03 0.0 
0.0 0.0 0.0 
-7.245974612036e-05 -8.762014771358e-05 0.0 
-8.762014771358e-05 6.763363140434e-03 0.0 
0.0 0.0 0.0 
-5.890447870852e-04 3.703412035274e-03 0.0 
3.703412035274e-03 1.401252499215e-02 0.0 
0.0 0.0 0.0 
-2.780554787718e-03 2.236278544921e-03 0.0 
2.236278544921e-03 1.500347758004e-02 0.0 
0.0 0.0 0.0 
-4.378879277579e-04 -4.879286126129e-04 0.0 
-4.879286126129e-04 3.376556179591e-03 0.0 
0.0 0.0 0.0 
5.636318220370e-04 8.706799967084e-05 0.0 
8.706799967084e-05 5.966220823153e-03 0.0 
0.0 0.0 0.0 
1.223098519689e-03 1.297121525583e-03 0.0 
1.297121525583e-03 6.396396637782e-03 0.0 
0.0 0.0 0.0 
5.933581600130e-04 3.157440212979e-03 0.0 
3.157440212979e-03 9.697544381259e-03 0.0 
0.0 0.0 0.0 
5.181668658651e-04 3.718350041999e-03 0.0 
3.718350041999e-03 1.035733700344e-02 0.0 
0.0 0.0 0.0 
-3.156789727055e-05 4.044146877816e-03 0.0 
4.044146877816e-03 1.124687522891e-02 0.0 
0.0 0.0 0.0 
-2.401779722009e-04 -4.997086268743e-04 0.0 
-4.997086268743e-04 7.748337178144e-04 0.0 
0.0 0.0 0.0 
2.731341337919e-03 -2.510658993975e-03 0.0 
-2.510658993975e-03 -5.294030209542e-03 0.0 
0.0 0.0 0.0 
-4.003944641562e-05 -1.781808064036e-04 0.0 
-1.781808064036e-04 6.673632364434e-03 0.0 
0.0 0.0 0.0 
4.583064903687e-04 -6.538733822591e-07 0.0 
-6.538733822591e-07 5.361504391197e-04 0.0 
0.0 0.0 0.0 
4.674492883705e-04 4.477033092649e-06 0.0 
4.477033092649e-06 7.036461013978e-04 0.0 
0.0 0.0 0.0 
2.223985257990e-04 1.065866871890e-02 0.0 
1.065866871890e-02 -1.898748066631e-03 0.0 
0.0 0.0 0.0 
4.627890912163e-04 -4.032850404739e-05 0.0 
-4.032850404739e-05 5.062254713932e-04 0.0 
0.0 0.0 0.0 
3.935671763069e-04 6.593945231260e-04 0.0 
6.593945231260e-04 6.518024322858e-03 0.0 
0.0 0.0 0.0 
1.168502204074e-04 4.084032622334e-03 0.0 
4.084032622334e-03 1.200155316252e-02 0.0 
0.0 0.0 0.0 
-6.693849621158e-04 9.714616012887e-04 0.0 
9.714616012887e-04 1.719713593351e-02 0.0 
0.0 0.0 0.0 
2.683267185073e-04 3.133495063844e-03 0.0 
3.133495063844e-03 9.902963766394e-03 0.0 
0.0 0.0 0.0 
1.178382380325e-03 1.210615121403e-03 0.0 
1.210615121403e-03 6.230760379486e-03 0.0 
0.0 0.0 0.0 
-1.554407883850e-03 2.141687688363e-04 0.0 
2.141687688363e-04 1.591794895743e-02 0.0 
0.0 0.0 0.0 
0.0 1.988143082435e-03 0.0 
1.988143082435e-03 1.701517738896e-02 0.0 
0.0 0.0 0.0 
2.637812974504e-03 -3.956604403173e-03 0.0 
-3.956604403173e-03 -4.021545984061e-03 0.0 
0.0 0.0 0.0 
-1.661381380064e-03 1.353428813552e-05 0.0 
1.353428813552e-05 1.469957635683e-02 0.0 
0.0 0.0 0.0 
-5.403141800158e-04 -2.879141520371e-03 0.0 
-2.879141520371e-03 -5.552747167180e-04 0.0 
0.0 0.0 0.0 
6.183815033525e-04 -4.156729922614e-07 0.0 
-4.156729922614e-07 9.968054814791e-05 0.0 
0.0 0.0 0.0 
2.881582083036e-05 -1.257542653471e-04 0.0 
-1.257542653471e-04 7.300107574943e-03 0.0 
0.0 0.0 0.0 
-3.090257338723e-03 1.456784744609e-03 0.0 
1.456784744609e-03 1.498776833310e-02 0.0 
0.0 0.0 0.0 
4.494407913931e-04 -4.366727026549e-05 0.0 
-4.366727026549e-05 8.821784935300e-04 0.0 
0.0 0.0 0.0 
-4.811268649217e-04 -2.129781246854e-04 0.0 
-2.129781246854e-04 3.811858791492e-03 0.0 
0.0 0.0 0.0 
4.749251158787e-05 4.274642700667e-03 0.0 
4.274642700667e-03 1.228770090539e-02 0.0 
0.0 0.0 0.0 
-9.774157768904e-04 1.344619099237e-03 0.0 
1.344619099237e-03 1.708385313972e-02 0.0 
0.0 0.0 0.0 
-4.488547602450e-04 3.055630312270e-03 0.0 
3.055630312270e-03 1.576359721061e-02 0.0 
0.0 0.0 0.0 
-3.012013460976e-04 -9.577190356361e-05 0.0 
-9.577190356361e-05 2.751304608680e-03 0.0 
0.0 0.0 0.0 
1.895952768678e-03 4.723883663798e-04 0.0 
4.723883663798e-04 -5.781824574632e-03 0.0 
0.0 0.0 0.0 
2.756476664734e-04 -1.001378053914e-05 0.0 
-1.001378053914e-05 6.622965667954e-03 0.0 
0.0 0.0 0.0 
-2.751569124891e-04 1.888989997061e-04 0.0 
1.888989997061e-04 1.756720791055e-02 0.0 
0.0 0.0 0.0 
-6.198149768677e-05 -4.985995055415e-05 0.0 
-4.985995055415e-05 7.460822257232e-03 0.0 
0.0 0.0 0.0 
-1.604362469437e-03 2.265982935923e-05 0.0 
2.265982935923e-05 1.500536205676e-02 0.0 
0.0 0.0 0.0 
7.819900884172e-04 1.349818400347e-03 0.0 
1.349818400347e-03 6.758424280979e-03 0.0 
0.0 0.0 0.0 
2.524942727360e-04 -2.758216969409e-05 0.0 
-2.758216969409e-05 9.940239217427e-04 0.0 
0.0 0.0 0.0 
-8.441141182216e-04 2.443838150064e-03 0.0 
2.443838150064e-03 1.636370512214e-02 0.0 
0.0 0.0 0.0 
6.664601610675e-04 -9.536907227956e-06 0.0 
-9.536907227956e-06 4.259071932178e-05 0.0 
0.0 0.0 0.0 
4.038237429465e-04 1.151499134007e-03 0.0 
1.151499134007e-03 6.942622963878e-03 0.0 
0.0 0.0 0.0 
-7.304305918588e-04 3.352969915630e-03 0.0 
3.352969915630e-03 1.546666934046e-02 0.0 
0.0 0.0 0.0 
1.724171504190e-03 1.961512482317e-03 0.0 
1.961512482317e-03 -5.967938729372e-03 0.0 
0.0 0.0 0.0 
1.018504254654e-03 3.398321237547e-03 0.0 
3.398321237547e-03 9.139256764782e-03 0.0 
0.0 0.0 0.0 
-1.302533586381e-03 2.071794117843e-04 0.0 
2.071794117843e-04 1.657424885612e-02 0.0 
0.0 0.0 0.0 
-3.544337150096e-04 1.044519848750e-03 0.0 
1.044519848750e-03 1.730486618504e-02 0.0 
0.0 0.0 0.0 
0.0 2.636746783400e-03 0.0 
2.636746783400e-03 9.361692462742e-03 0.0 
0.0 0.0 0.0 
-1.419495848126e-03 1.069165719184e-05 0.0 
1.069165719184e-05 1.611409824517e-02 0.0 
0.0 0.0 0.0 
2.135154976579e-05 4.115248242306e-03 0.0 
4.115248242306e-03 1.252635427992e-02 0.0 
0.0 0.0 0.0 
-1.001708895006e-03 2.983371839061e-03 0.0 
2.983371839061e-03 1.570627890891e-02 0.0 
0.0 0.0 0.0 
-1.309204104093e-03 1.463175832612e-04 0.0 
1.463175832612e-04 1.632803074459e-02 0.0 
0.0 0.0 0.0 
2.086422169567e-05 4.053025082438e-03 0.0 
4.053025082438e-03 1.202966786664e-02 0.0 
0.0 0.0 0.0 
-4.284742251811e-04 -2.349281398321e-04 0.0 
-2.349281398321e-04 3.277434749294e-03 0.0 
0.0 0.0 0.0 
-1.658468903693e-03 -1.940444085368e-06 0.0 
-1.940444085368e-06 1.471716788222e-02 0.0 
0.0 0.0 0.0 
6.711921831322e-04 3.103638903133e-03 0.0 
3.103638903133e-03 9.456233178538e-03 0.0 
0.0 0.0 0.0 
-3.442451770522e-04 1.460373077786e-04 0.0 
1.460373077786e-04 1.742657758993e-02 0.0 
0.0 0.0 0.0 
9.179541722120e-04 6.978247761020e-07 0.0 
6.978247761020e-07 -3.021906731746e-04 0.0 
0.0 0.0 0.0 
-1.633297826880e-03 2.156283209886e-05 0.0 
2.156283209886e-05 1.473491250141e-02 0.0 
0.0 0.0 0.0 
-7.533155282846e-05 -4.819369996135e-05 0.0 
-4.819369996135e-05 7.207551009828e-03 0.0 
0.0 0.0 0.0 
-9.546415453365e-06 -1.968906845868e-04 0.0 
-1.968906845868e-04 1.393520991659e-03 0.0 
0.0 0.0 0.0 
1.158299087353e-03 1.779275484037e-03 0.0 
1.779275484037e-03 7.203185299653e-03 0.0 
0.0 0.0 0.0 
-9.443400356027e-04 3.419385720297e-03 0.0 
3.419385720297e-03 1.489032407717e-02 0.0 
0.0 0.0 0.0 
-6.527257973841e-04 9.284484000136e-04 0.0 
9.284484000136e-04 1.730747242370e-02 0.0 
0.0 0.0 0.0 
1.603262084462e-04 -1.146171780510e-04 0.0 
-1.146171780510e-04 1.281543462814e-03 0.0 
0.0 0.0 0.0 
3.420396434568e-03 8.447328053752e-03 0.0 
8.447328053752e-03 -4.675580727612e-03 0.0 
0.0 0.0 0.0 
-4.537790846358e-04 6.279691133794e-06 0.0 
6.279691133794e-06 4.549808230511e-03 0.0 
0.0 0.0 0.0 
-1.022888320299e-03 2.004718845381e-04 0.0 
2.004718845381e-04 1.685990706840e-02 0.0 
0.0 0.0 0.0 
-4.882011983800e-03 -1.864586238620e-04 0.0 
-1.864586238620e-04 -2.161084526757e-03 0.0 
0.0 0.0 0.0 
-4.512081941752e-04 2.561553265307e-03 0.0 
2.561553265307e-03 1.641563531166e-02 0.0 
0.0 0.0 0.0 
-1.411313719684e-03 9.711122857188e-05 0.0 
9.711122857188e-05 1.601552722778e-02 0.0 
0.0 0.0 0.0 
-1.154103210967e-04 -2.606934084376e-03 0.0 
-2.606934084376e-03 -7.552402121543e-04 0.0 
0.0 0.0 0.0 
-1.538724487745e-03 1.224206137578e-04 0.0 
1.224206137578e-04 1.578461025373e-02 0.0 
0.0 0.0 0.0 
4.788493258945e-04 3.322403445177e-03 0.0 
3.322403445177e-03 1.006982673096e-02 0.0 
0.0 0.0 0.0 
-4.354174143550e-04 -7.524635519779e-05 0.0 
-7.524635519779e-05 4.726052367002e-03 0.0 
0.0 0.0 0.0 
-1.795689152006e-03 1.229436994919e-02 0.0 
1.229436994919e-02 2.069663118957e-03 0.0 
0.0 0.0 0.0 
-4.413764863164e-04 -2.640112520651e-04 0.0 
-2.640112520651e-04 3.006547862978e-03 0.0 
0.0 0.0 0.0 
-4.455076619295e-04 -3.172623753247e-04 0.0 
-3.172623753247e-04 4.188580868332e-03 0.0 
0.0 0.0 0.0 
-4.134109326684e-04 1.466763824695e-05 0.0 
1.466763824695e-05 4.890736830377e-03 0.0 
0.0 0.0 0.0 
6.849137129543e-04 2.743612879842e-03 0.0 
2.743612879842e-03 8.854024924152e-03 0.0 
0.0 0.0 0.0 
-4.665661385325e-04 -1.747457751447e-04 0.0 
-1.747457751447e-04 4.104866913567e-03 0.0 
0.0 0.0 0.0 
-4.452540444609e-04 -2.029383786540e-04 0.0 
-2.029383786540e-04 4.348244536727e-03 0.0 
0.0 0.0 0.0 
4.385874231172e-04 -1.106312284773e-04 0.0 
-1.106312284773e-04 4.563620825051e-04 0.0 
0.0 0.0 0.0 
3.154545453157e-04 -5.688833031809e-05 0.0 
-5.688833031809e-05 6.364508651342e-03 0.0 
0.0 0.0 0.0 
9.043176524028e-04 3.962410294140e-03 0.0 
3.962410294140e-03 9.700691598129e-03 0.0 
0.0 0.0 0.0 
2.970650027856e-03 7.134906527860e-03 0.0 
7.134906527860e-03 -5.514003900813e-03 0.0 
0.0 0.0 0.0 
-2.851728248836e-04 1.389776369228e-04 0.0 
1.389776369228e-04 1.742054074205e-02 0.0 
0.0 0.0 0.0 
-6.552290910000e-05 -1.525478735155e-05 0.0 
-1.525478735155e-05 7.197547259201e-03 0.0 
0.0 0.0 0.0 
-1.627749790310e-03 -1.898611852824e-05 0.0 
-1.898611852824e-05 1.502862636991e-02 0.0 
0.0 0.0 0.0 
-1.470431360619e-03 8.260617099766e-05 0.0 
8.260617099766e-05 1.601332850455e-02 0.0 
0.0 0.0 0.0 
-4.705069235040e-04 -2.222986176185e-04 0.0 
-2.222986176185e-04 4.110183461926e-03 0.0 
0.0 0.0 0.0 
-4.506690150750e-04 -2.535390483242e-04 0.0 
-2.535390483242e-04 4.157823139571e-03 0.0 
0.0 0.0 0.0 
-4.698070649989e-04 -1.618786941999e-04 0.0 
-1.618786941999e-04 4.322987144816e-03 0.0 
0.0 0.0 0.0 
1.250639099662e-03 1.770951569632e-03 0.0 
1.770951569632e-03 6.820885000573e-03 0.0 
0.0 0.0 0.0 
-4.066457865695e-04 -2.239103963098e-03 0.0 
-2.239103963098e-03 3.171833503262e-04 0.0 
0.0 0.0 0.0 
8.395207184935e-04 3.934497347381e-03 0.0 
3.934497347381e-03 1.049372341437e-02 0.0 
0.0 0.0 0.0 
-1.561321548620e-03 5.323908127060e-05 0.0 
5.323908127060e-05 1.537855084906e-02 0.0 
0.0 0.0 0.0 
-8.764911548589e-04 2.458739226650e-03 0.0 
2.458739226650e-03 1.654614689435e-02 0.0 
0.0 0.0 0.0 
1.115319044333e-03 1.639564857838e-03 0.0 
1.639564857838e-03 6.805055839246e-03 0.0 
0.0 0.0 0.0 
-1.620929183999e-03 1.214916406576e-04 0.0 
1.214916406576e-04 1.578972058904e-02 0.0 
0.0 0.0 0.0 
-1.285227093556e-04 4.030381908593e-03 0.0 
4.030381908593e-03 1.186518612203e-02 0.0 
0.0 0.0 0.0 
6.991370442708e-04 2.742329032833e-03 0.0 
2.742329032833e-03 8.854032663180e-03 0.0 
0.0 0.0 0.0 
5.800304576322e-04 2.992813561019e-03 0.0 
2.992813561019e-03 9.434045910718e-03 0.0 
0.0 0.0 0.0 
1.608507841712e-03 1.106521913098e-02 0.0 
1.106521913098e-02 -6.053537810491e-03 0.0 
0.0 0.0 0.0 
-2.116625614991e-04 4.024910553716e-03 0.0 
4.024910553716e-03 1.186604883405e-02 0.0 
0.0 0.0 0.0 
5.059323211065e-05 4.271576711360e-03 0.0 
4.271576711360e-03 1.159252804882e-02 0.0 
0.0 0.0 0.0 
6.679270406809e-04 -3.593225461764e-05 0.0 
-3.593225461764e-05 3.984280020028e-04 0.0 
0.0 0.0 0.0 
-4.658984834636e-04 -2.565857548008e-04 0.0 
-2.565857548008e-04 3.910714308946e-03 0.0 
0.0 0.0 0.0 
1.870901832370e-03 6.999186398460e-03 0.0 
6.999186398460e-03 -3.449497245214e-03 0.0 
0.0 0.0 0.0 
-2.459159883879e-04 4.191073637593e-03 0.0 
4.191073637593e-03 1.236596809955e-02 0.0 
0.0 0.0 0.0 

TENSORS element_materi_strain_plasti float
-5.853936660492e-04 2.081418554316e-03 0.0 
2.081418554316e-03 2.646151761349e-03 0.0 
0.0 0.0 -4.220722639049e-04 
-5.627939829821e-04 1.110903192714e-03 0.0 
1.110903192714e-03 2.420435811353e-03 0.0 
0.0 0.0 -4.303330772826e-04 
-1.282095494807e-03 4.001741098009e-04 0.0 
4.001741098009e-04 8.226379453025e-03 0.0 
0.0 0.0 -1.278236581085e-03 
-1.295884943363e-03 -1.217266030679e-04 0.0 
-1.217266030679e-04 8.480174258718e-03 0.0 
0.0 0.0 -1.255598393855e-03 
-9.118044046819e-04 2.773302772114e-04 0.0 
2.773302772114e-04 5.301634366726e-03 0.0 
0.0 0.0 -7.961861350945e-04 
2.781966530623e-03 5.843645043509e-03 0.0 
5.843645043509e-03 -2.531921636380e-03 0.0 
0.0 0.0 -1.071620975328e-04 
-8.944012644099e-04 3.000213301662e-04 0.0 
3.000213301662e-04 5.255597081572e-03 0.0 
0.0 0.0 -8.011023898636e-04 
-5.385614421046e-04 1.756536835745e-03 0.0 
1.756536835745e-03 2.468951023649e-03 0.0 
0.0 0.0 -4.045669272905e-04 
-9.178969371214e-04 -2.491713150355e-04 0.0 
-2.491713150355e-04 5.331335701126e-03 0.0 
0.0 0.0 -7.977904104816e-04 
-1.281432177268e-03 3.076617140319e-04 0.0 
3.076617140319e-04 8.397045163972e-03 0.0 
0.0 0.0 -1.253060141438e-03 
-1.093573439511e-03 5.627509268443e-05 0.0 
5.627509268443e-05 5.667510059544e-03 0.0 
0.0 0.0 -8.816510380684e-04 
-5.580330633072e-04 1.555746528553e-03 0.0 
1.555746528553e-03 2.067401851764e-03 0.0 
0.0 0.0 -3.735031833740e-04 
-1.326305648993e-03 1.334625464656e-04 0.0 
1.334625464656e-04 8.251440389062e-03 0.0 
0.0 0.0 -1.259187713256e-03 
-9.724653634380e-04 3.053641968768e-04 0.0 
3.053641968768e-04 5.663135226582e-03 0.0 
0.0 0.0 -8.526168115438e-04 
-1.330762641967e-03 -3.008650578863e-04 0.0 
-3.008650578863e-04 8.383102825445e-03 0.0 
0.0 0.0 -1.289538875031e-03 
-1.321345684109e-03 2.719191787034e-04 0.0 
2.719191787034e-04 8.617215783831e-03 0.0 
0.0 0.0 -1.285984941237e-03 
-9.140896497734e-04 7.519541139522e-05 0.0 
7.519541139522e-05 5.296976735505e-03 0.0 
0.0 0.0 -7.740676797406e-04 
2.107803642643e-03 1.661626823332e-03 0.0 
1.661626823332e-03 -2.107803642643e-03 0.0 
0.0 0.0 0.0 
-3.519099227855e-04 -1.443334347486e-04 0.0 
-1.443334347486e-04 1.817532010240e-03 0.0 
0.0 0.0 -2.776016825098e-04 
-3.997644766498e-04 4.954726061119e-05 0.0 
4.954726061119e-05 1.673764597630e-03 0.0 
0.0 0.0 -3.031105466646e-04 
-1.276969282696e-03 -1.363061038713e-04 0.0 
-1.363061038713e-04 8.471794626493e-03 0.0 
0.0 0.0 -1.250388265701e-03 
-6.107953663812e-04 1.591711987635e-03 0.0 
1.591711987635e-03 2.852624892042e-03 0.0 
0.0 0.0 -4.811142067971e-04 
-6.510808679762e-04 1.718932172561e-03 0.0 
1.718932172561e-03 3.197042658318e-03 0.0 
0.0 0.0 -5.091556215902e-04 
-1.086615628820e-03 -2.931322765965e-04 0.0 
-2.931322765965e-04 7.458132473520e-03 0.0 
0.0 0.0 -1.210372970477e-03 
-1.022288100468e-03 3.987168263927e-04 0.0 
3.987168263927e-04 6.009421001038e-03 0.0 
0.0 0.0 -9.130988374533e-04 
-1.132573975630e-03 -2.410939857696e-04 0.0 
-2.410939857696e-04 6.073086075411e-03 0.0 
0.0 0.0 -9.179597371190e-04 
-8.648289754142e-04 1.395253240309e-04 0.0 
1.395253240309e-04 4.885100783627e-03 0.0 
0.0 0.0 -7.148082707961e-04 
-1.227939719405e-03 4.897213587292e-04 0.0 
4.897213587292e-04 8.231185118654e-03 0.0 
0.0 0.0 -1.266047838742e-03 
-1.043323281561e-03 -5.190539471629e-05 0.0 
-5.190539471629e-05 6.052750555350e-03 0.0 
0.0 0.0 -9.113908267906e-04 
-1.155289536852e-03 -1.768880545786e-05 0.0 
-1.768880545786e-05 7.700571454284e-03 0.0 
0.0 0.0 -1.237914324842e-03 
3.685980156945e-03 -6.421804748709e-03 0.0 
-6.421804748709e-03 -3.096105626630e-03 0.0 
0.0 0.0 -2.528033701351e-04 
-2.147280971622e-05 -7.387120027309e-05 0.0 
-7.387120027309e-05 5.613055534290e-04 0.0 
0.0 0.0 -1.152938016185e-04 
-1.328657286874e-03 4.996781592111e-04 0.0 
4.996781592111e-04 8.531045122136e-03 0.0 
0.0 0.0 -1.261301343383e-03 
-1.246135843572e-03 -2.165566539215e-04 0.0 
-2.165566539215e-04 7.113329539199e-03 0.0 
0.0 0.0 -1.090200430068e-03 
-1.222640564805e-03 -5.172125954847e-04 0.0 
-5.172125954847e-04 8.023175699372e-03 0.0 
0.0 0.0 -1.254989870190e-03 
-1.362336754091e-03 1.038272021812e-04 0.0 
1.038272021812e-04 8.593232231463e-03 0.0 
0.0 0.0 -1.314886350686e-03 
-1.333817909252e-03 -6.741910836282e-04 0.0 
-6.741910836282e-04 8.572481383167e-03 0.0 
0.0 0.0 -1.314653105918e-03 
-1.152787385481e-03 3.395804623759e-04 0.0 
3.395804623759e-04 7.780236807800e-03 0.0 
0.0 0.0 -1.264739017786e-03 
-8.345100331917e-04 -3.032908507100e-04 0.0 
-3.032908507100e-04 4.793915913410e-03 0.0 
0.0 0.0 -7.380763454961e-04 
-8.314689275844e-04 3.674750294880e-04 0.0 
3.674750294880e-04 4.862282802739e-03 0.0 
0.0 0.0 -7.371174501546e-04 
-7.320924752720e-04 1.972586062490e-03 0.0 
1.972586062490e-03 3.717638458810e-03 0.0 
0.0 0.0 -5.794556523337e-04 
-1.240577876015e-03 -2.606603701506e-04 0.0 
-2.606603701506e-04 7.945807599574e-03 0.0 
0.0 0.0 -1.280756488215e-03 
-4.333448114714e-04 2.614069248017e-03 0.0 
2.614069248017e-03 1.679343404256e-03 0.0 
0.0 0.0 -3.207852484642e-04 
-8.673432961900e-04 2.038482856540e-04 0.0 
2.038482856540e-04 4.641456270313e-03 0.0 
0.0 0.0 -7.350059072715e-04 
-1.271467539957e-03 -7.879660805606e-05 0.0 
-7.879660805606e-05 8.302426141521e-03 0.0 
0.0 0.0 -1.212858513926e-03 
-3.854251317409e-04 5.634927959711e-03 0.0 
5.634927959711e-03 1.585218395235e-03 0.0 
0.0 0.0 -3.198426158857e-04 
3.709242506560e-03 -6.576153501172e-03 0.0 
-6.576153501172e-03 -3.512562166723e-03 0.0 
0.0 0.0 -8.429157421588e-05 
-1.252952730617e-03 9.194498370430e-05 0.0 
9.194498370430e-05 8.113365198973e-03 0.0 
0.0 0.0 -1.234743356787e-03 
1.621468448787e-03 -6.161755655399e-03 0.0 
-6.161755655399e-03 -1.619206344839e-03 0.0 
0.0 0.0 -9.694731204778e-07 
-9.377652680597e-04 -7.279277581159e-05 0.0 
-7.279277581159e-05 5.473641853479e-03 0.0 
0.0 0.0 -8.229436299569e-04 
-6.817992497848e-04 1.869271360783e-03 0.0 
1.869271360783e-03 3.463534999877e-03 0.0 
0.0 0.0 -5.440916476828e-04 
-4.407403860860e-04 -1.000193585770e-04 0.0 
-1.000193585770e-04 2.276874889742e-03 0.0 
0.0 0.0 -3.443810396916e-04 
4.210891563014e-03 -4.881033852060e-03 0.0 
-4.881033852060e-03 -3.585053109522e-03 0.0 
0.0 0.0 -2.682164800680e-04 
-6.650400845530e-04 1.843141844477e-03 0.0 
1.843141844477e-03 3.342015346238e-03 0.0 
0.0 0.0 -5.489460876789e-04 
-1.294047200749e-03 3.426820678350e-04 0.0 
3.426820678350e-04 8.360890520438e-03 0.0 
0.0 0.0 -1.282189168212e-03 
-6.426921289281e-04 -2.477141885566e-04 0.0 
-2.477141885566e-04 2.972149177427e-03 0.0 
0.0 0.0 -4.512233509908e-04 
-5.071100590753e-04 7.724547813732e-05 0.0 
7.724547813732e-05 2.167123717160e-03 0.0 
0.0 0.0 -3.694212080277e-04 
-1.248804674603e-03 1.204053078386e-04 0.0 
1.204053078386e-04 7.152497866114e-03 0.0 
0.0 0.0 -1.087734043504e-03 
-2.199405617637e-04 -6.207470745057e-05 0.0 
-6.207470745057e-05 1.342683867831e-03 0.0 
0.0 0.0 -2.189683579105e-04 
-1.315587936217e-03 -1.318704737137e-04 0.0 
-1.318704737137e-04 8.629398526663e-03 0.0 
0.0 0.0 -1.285320035817e-03 
7.852719814549e-04 -1.801682897363e-03 0.0 
-1.801682897363e-03 -7.852719814549e-04 0.0 
0.0 0.0 0.0 
-1.060347520475e-03 6.330627275427e-04 0.0 
6.330627275427e-04 7.458444738699e-03 0.0 
0.0 0.0 -1.210824713543e-03 
-6.118289487359e-04 1.052783847498e-03 0.0 
1.052783847498e-03 3.133960488999e-03 0.0 
0.0 0.0 -5.497085007362e-04 
4.318804838323e-03 -5.772594241721e-03 0.0 
-5.772594241721e-03 -3.693471200522e-03 0.0 
0.0 0.0 -2.680001304859e-04 
-1.319367167403e-03 -3.421260873299e-04 0.0 
-3.421260873299e-04 8.223808012733e-03 0.0 
0.0 0.0 -1.257478522087e-03 
-6.505276645377e-04 1.676425411509e-03 0.0 
1.676425411509e-03 3.090741548571e-03 0.0 
0.0 0.0 -5.137572693775e-04 
1.410889279279e-03 -7.753145267872e-04 0.0 
-7.753145267872e-04 -1.410889279279e-03 0.0 
0.0 0.0 0.0 
-1.302579274791e-03 3.856077973971e-04 0.0 
3.856077973971e-04 8.474035595977e-03 0.0 
0.0 0.0 -1.261660853087e-03 
-3.055720632183e-04 -1.064577386819e-03 0.0 
-1.064577386819e-03 1.239084830307e-03 0.0 
0.0 0.0 -3.052032381971e-04 
-1.273180292185e-03 4.858885615923e-04 0.0 
4.858885615923e-04 8.121401094422e-03 0.0 
0.0 0.0 -1.282376455277e-03 
-1.145904955508e-03 -3.118374997867e-04 0.0 
-3.118374997867e-04 6.272168097955e-03 0.0 
0.0 0.0 -9.556290573178e-04 
-1.338499280800e-03 2.408371898962e-04 0.0 
2.408371898962e-04 8.775782511843e-03 0.0 
0.0 0.0 -1.338499280800e-03 
-1.192625588921e-03 4.461210467852e-04 0.0 
4.461210467852e-04 7.634783606740e-03 0.0 
0.0 0.0 -1.232909111256e-03 
-2.127254236185e-05 1.891430361426e-04 0.0 
1.891430361426e-04 5.160571140730e-04 0.0 
0.0 0.0 -1.295286970291e-04 
-6.935849542252e-04 2.344127444435e-05 0.0 
2.344127444435e-05 2.990888035910e-03 0.0 
0.0 0.0 -4.777371989943e-04 
-1.295701123542e-03 1.509088819434e-05 0.0 
1.509088819434e-05 8.469943460322e-03 0.0 
0.0 0.0 -1.262626981217e-03 
-1.324502073679e-03 3.744328644393e-04 0.0 
3.744328644393e-04 8.596934185840e-03 0.0 
0.0 0.0 -1.265352048664e-03 
1.539951776397e-04 8.249741275125e-03 0.0 
8.249741275125e-03 7.622275184750e-04 0.0 
0.0 0.0 -3.599094611647e-04 
-2.769907565586e-04 -8.829481836090e-05 0.0 
-8.829481836090e-05 1.134623594574e-03 0.0 
0.0 0.0 -2.366757893512e-04 
6.284836959724e-05 6.868039325803e-03 0.0 
6.868039325803e-03 8.688525507301e-04 0.0 
0.0 0.0 -3.564703237892e-04 
-2.758740996359e-04 -8.746279552454e-04 0.0 
-8.746279552454e-04 1.152039496951e-03 0.0 
0.0 0.0 -3.439500825601e-04 
-8.978965614641e-04 9.154439014956e-05 0.0 
9.154439014956e-05 5.029293334098e-03 0.0 
0.0 0.0 -7.918363975426e-04 
-6.300990584719e-04 1.685152542051e-03 0.0 
1.685152542051e-03 2.975432914216e-03 0.0 
0.0 0.0 -4.749402310763e-04 
-6.121684563063e-04 1.507118009891e-03 0.0 
1.507118009891e-03 2.546079178096e-03 0.0 
0.0 0.0 -4.438329512050e-04 
-9.725152992593e-04 -1.918915712341e-04 0.0 
-1.918915712341e-04 5.553894553160e-03 0.0 
0.0 0.0 -8.336771054075e-04 
-9.515395304919e-04 2.688463451821e-04 0.0 
2.688463451821e-04 5.521722972354e-03 0.0 
0.0 0.0 -8.358076868167e-04 
-1.183410575090e-03 -2.693387168119e-04 0.0 
-2.693387168119e-04 6.452199734420e-03 0.0 
0.0 0.0 -9.867109252840e-04 
-1.231001359755e-03 1.776752657648e-04 0.0 
1.776752657648e-04 6.972617785685e-03 0.0 
0.0 0.0 -1.058576829647e-03 
-1.159508113008e-03 2.069980553471e-04 0.0 
2.069980553471e-04 7.153965750682e-03 0.0 
0.0 0.0 -1.085941371602e-03 
-9.167398449037e-04 -2.379223024375e-04 0.0 
-2.379223024375e-04 5.214431434648e-03 0.0 
0.0 0.0 -7.983229688164e-04 
-9.629239381275e-05 -7.847678025284e-05 0.0 
-7.847678025284e-05 3.293444492904e-04 0.0 
0.0 0.0 -9.987945234756e-05 
-9.298280525189e-04 1.832074445445e-04 0.0 
1.832074445445e-04 5.072594773826e-03 0.0 
0.0 0.0 -7.928983479555e-04 
-1.152068192651e-03 -8.618068735252e-05 0.0 
-8.618068735252e-05 7.066072062095e-03 0.0 
0.0 0.0 -1.069439317440e-03 
-1.125567912536e-03 1.438213412546e-04 0.0 
1.438213412546e-04 7.130378012797e-03 0.0 
0.0 0.0 -1.046447409317e-03 
-1.354248964991e-03 2.488047583645e-04 0.0 
2.488047583645e-04 9.041954327214e-03 0.0 
0.0 0.0 -1.319970921405e-03 
-1.236862548615e-03 6.047335938229e-05 0.0 
6.047335938229e-05 8.106142459015e-03 0.0 
0.0 0.0 -1.294194962782e-03 
-9.013588349204e-04 -3.564785080674e-05 0.0 
-3.564785080674e-05 5.032133509131e-03 0.0 
0.0 0.0 -7.889745663688e-04 
-1.254766552398e-03 -3.118115606911e-04 0.0 
-3.118115606911e-04 8.236373731402e-03 0.0 
0.0 0.0 -1.263183913703e-03 
-9.880175404899e-04 -1.466486724576e-04 0.0 
-1.466486724576e-04 5.952185502159e-03 0.0 
0.0 0.0 -9.040008563810e-04 
-6.291314004619e-04 6.895076894316e-04 0.0 
6.895076894316e-04 3.149500208419e-03 0.0 
0.0 0.0 -5.198799001330e-04 
-8.730449846052e-04 -1.408519575968e-04 0.0 
-1.408519575968e-04 5.083535477325e-03 0.0 
0.0 0.0 -7.643292725053e-04 
-1.347992785810e-03 5.931491654167e-05 0.0 
5.931491654167e-05 8.400156878011e-03 0.0 
0.0 0.0 -1.287517816355e-03 
4.590827898243e-04 9.429713005001e-04 0.0 
9.429713005001e-04 5.012028743312e-03 0.0 
0.0 0.0 -1.043751955586e-03 
-1.094589624287e-03 1.516437985887e-04 0.0 
1.516437985887e-04 7.546067951469e-03 0.0 
0.0 0.0 -1.209599240962e-03 
5.826975582366e-04 3.854614712805e-03 0.0 
3.854614712805e-03 1.529020390600e-03 0.0 
0.0 0.0 -4.747543016519e-04 
2.017914158686e-03 -6.796920705860e-03 0.0 
-6.796920705860e-03 -1.553816591433e-03 0.0 
0.0 0.0 -1.988989573940e-04 
-1.297459135418e-03 -2.747475562559e-04 0.0 
-2.747475562559e-04 7.787009671767e-03 0.0 
0.0 0.0 -1.189902873528e-03 
-1.189086276409e-03 1.093944519264e-04 0.0 
1.093944519264e-04 7.587261230545e-03 0.0 
0.0 0.0 -1.108790581071e-03 
1.510985713075e-03 -6.770145346213e-03 0.0 
-6.770145346213e-03 -1.392954743647e-03 0.0 
0.0 0.0 -5.058470118363e-05 
-1.283662232086e-03 -3.116749921630e-04 0.0 
-3.116749921630e-04 8.203749873262e-03 0.0 
0.0 0.0 -1.285127980003e-03 
-1.117454671525e-03 5.890310527375e-04 0.0 
5.890310527375e-04 6.771147145683e-03 0.0 
0.0 0.0 -1.051491716222e-03 
2.129630744421e-04 -9.499020889305e-05 0.0 
-9.499020889305e-05 2.730652041404e-04 0.0 
0.0 0.0 -1.433710470045e-04 
1.158160909531e-03 3.177481364431e-03 0.0 
3.177481364431e-03 1.692524983734e-03 0.0 
0.0 0.0 -6.309931931857e-04 
-9.536322060416e-04 8.651714868777e-04 0.0 
8.651714868777e-04 4.779614961375e-03 0.0 
0.0 0.0 -7.153918394734e-04 
-8.128195131981e-04 -2.696429011542e-04 0.0 
-2.696429011542e-04 3.582326768313e-03 0.0 
0.0 0.0 -5.772375537024e-04 
-5.795319369569e-04 9.930078575254e-04 0.0 
9.930078575254e-04 2.722691248666e-03 0.0 
0.0 0.0 -4.852398935310e-04 
-5.593527317980e-04 7.864159998642e-04 0.0 
7.864159998642e-04 3.152094309040e-03 0.0 
0.0 0.0 -5.471823052058e-04 
-1.301859315623e-03 -1.904737940513e-04 0.0 
-1.904737940513e-04 8.142812636608e-03 0.0 
0.0 0.0 -1.283833066805e-03 
-9.523212659311e-04 1.958273368285e-04 0.0 
1.958273368285e-04 5.865970295395e-03 0.0 
0.0 0.0 -8.766975940251e-04 
-4.988638104538e-04 1.336392212558e-03 0.0 
1.336392212558e-03 2.781619703749e-03 0.0 
0.0 0.0 -5.122473358773e-04 
-4.084206622420e-04 -7.278847424947e-04 0.0 
-7.278847424947e-04 1.354708172608e-03 0.0 
0.0 0.0 -2.295267891405e-04 
-9.046551402062e-04 3.103540058347e-04 0.0 
3.103540058347e-04 5.221480629983e-03 0.0 
0.0 0.0 -7.744920945421e-04 
-1.163420538902e-03 -6.301653344554e-05 0.0 
-6.301653344554e-05 7.412623996309e-03 0.0 
0.0 0.0 -1.129288753466e-03 
1.764532691814e-04 2.929901117378e-03 0.0 
2.929901117378e-03 2.160779355988e-03 0.0 
0.0 0.0 -5.109724225979e-04 
1.263042026448e-03 1.565952678725e-02 0.0 
1.565952678725e-02 -7.245709578057e-04 0.0 
0.0 0.0 -2.307733151323e-04 
-8.631183813140e-04 2.092733462856e-03 0.0 
2.092733462856e-03 4.273256568875e-03 0.0 
0.0 0.0 -6.470401313397e-04 
-8.043937078593e-04 -1.245165173277e-04 0.0 
-1.245165173277e-04 3.751204721582e-03 0.0 
0.0 0.0 -5.578851714504e-04 
-7.850438866399e-04 2.101133403832e-03 0.0 
2.101133403832e-03 3.913612633000e-03 0.0 
0.0 0.0 -6.167189930163e-04 
-1.313795093192e-03 3.745855682538e-04 0.0 
3.745855682538e-04 8.614675897131e-03 0.0 
0.0 0.0 -1.290671971449e-03 
2.403065529051e-03 1.287377753302e-02 0.0 
1.287377753302e-02 -1.894399618700e-03 0.0 
0.0 0.0 -2.179996758648e-04 
-1.118912346163e-03 3.069253467211e-05 0.0 
3.069253467211e-05 5.953637467028e-03 0.0 
0.0 0.0 -9.216843799351e-04 
-1.302832962065e-03 2.769223245220e-04 0.0 
2.769223245220e-04 8.470819943817e-03 0.0 
0.0 0.0 -1.256690274141e-03 
-7.596340248727e-04 7.382796594352e-04 0.0 
7.382796594352e-04 4.031537584483e-03 0.0 
0.0 0.0 -6.588732905211e-04 
-7.939237540082e-04 2.100608677361e-03 0.0 
2.100608677361e-03 3.999247977795e-03 0.0 
0.0 0.0 -6.139229799761e-04 
-1.231803605678e-03 -5.782093166128e-05 0.0 
-5.782093166128e-05 8.028152931577e-03 0.0 
0.0 0.0 -1.254964138299e-03 
-1.328106245368e-03 -3.359343714767e-04 0.0 
-3.359343714767e-04 8.269862829300e-03 0.0 
0.0 0.0 -1.261070974318e-03 
-1.177616370787e-03 5.503788424212e-05 0.0 
5.503788424212e-05 6.447345049328e-03 0.0 
0.0 0.0 -9.873713238705e-04 
-7.975389004980e-04 3.851368616877e-04 0.0 
3.851368616877e-04 4.370903509068e-03 0.0 
0.0 0.0 -6.916138708610e-04 
-1.195768822005e-03 -1.347190958518e-04 0.0 
-1.347190958518e-04 8.136693957771e-03 0.0 
0.0 0.0 -1.270330610962e-03 
-7.600104695776e-04 6.621541633523e-04 0.0 
6.621541633523e-04 3.915062890853e-03 0.0 
0.0 0.0 -6.326048069937e-04 
-1.276977184880e-03 1.361446544635e-04 0.0 
1.361446544635e-04 8.444479482518e-03 0.0 
0.0 0.0 -1.283174495648e-03 
-1.118844917595e-03 7.685963067454e-04 0.0 
7.685963067454e-04 8.231649006801e-03 0.0 
0.0 0.0 -1.267437373369e-03 
-9.916900482218e-04 -1.353869196216e-04 0.0 
-1.353869196216e-04 5.594925371490e-03 0.0 
0.0 0.0 -8.543707170918e-04 
-1.059679930627e-03 2.378363673836e-04 0.0 
2.378363673836e-04 6.573353481791e-03 0.0 
0.0 0.0 -9.817831382938e-04 
-7.605699351815e-04 3.748556655775e-04 0.0 
3.748556655775e-04 3.967103975152e-03 0.0 
0.0 0.0 -6.293189184696e-04 
-7.221569059062e-04 2.020014907186e-03 0.0 
2.020014907186e-03 3.626849848953e-03 0.0 
0.0 0.0 -5.830241378053e-04 
-8.001161774359e-04 7.418992546282e-04 0.0 
7.418992546282e-04 4.429271101410e-03 0.0 
0.0 0.0 -7.211932326589e-04 
7.568732716704e-04 3.477469873970e-03 0.0 
3.477469873970e-03 1.762119884025e-03 0.0 
0.0 0.0 -5.383041810906e-04 
-8.768683131663e-04 -1.698577199285e-04 0.0 
-1.698577199285e-04 5.218733852389e-03 0.0 
0.0 0.0 -7.693993191400e-04 
1.683401026492e-03 3.244110039049e-03 0.0 
3.244110039049e-03 1.308321480057e-03 0.0 
0.0 0.0 -6.275039421266e-04 
-8.830553488541e-05 -1.169663280731e-04 0.0 
-1.169663280731e-04 3.137961635653e-04 0.0 
0.0 0.0 -9.663884086279e-05 
-9.202478516251e-04 -5.770930012151e-06 0.0 
-5.770930012151e-06 5.620779502953e-03 0.0 
0.0 0.0 -8.171079392438e-04 
-3.114395398576e-04 -3.263303537109e-05 0.0 
-3.263303537109e-05 1.213615237241e-03 0.0 
0.0 0.0 -2.373169254524e-04 
-9.327919952916e-04 1.748257209896e-03 0.0 
1.748257209896e-03 4.558146322465e-03 0.0 
0.0 0.0 -6.809683978454e-04 
-1.226720591274e-03 -2.033245432446e-04 0.0 
-2.033245432446e-04 7.901279716244e-03 0.0 
0.0 0.0 -1.284796145094e-03 
3.003194729131e-04 3.429438813546e-03 0.0 
3.429438813546e-03 1.720574969417e-03 0.0 
0.0 0.0 -4.767992880414e-04 
-1.206015416419e-03 1.351161918146e-04 0.0 
1.351161918146e-04 6.706761080456e-03 0.0 
0.0 0.0 -1.021089721936e-03 
-5.408079117820e-04 2.393976829773e-03 0.0 
2.393976829773e-03 1.989687660764e-03 0.0 
0.0 0.0 -3.540742325023e-04 
3.959867761531e-04 1.382188672548e-03 0.0 
1.382188672548e-03 5.014317991739e-03 0.0 
0.0 0.0 -1.044905595188e-03 
-9.023795236384e-04 1.774952439286e-05 0.0 
1.774952439286e-05 5.056579998417e-03 0.0 
0.0 0.0 -7.899655494116e-04 
1.837651542990e-03 3.695368849546e-03 0.0 
3.695368849546e-03 7.528194286573e-04 0.0 
0.0 0.0 -5.931463391684e-04 
-1.266256333575e-03 -2.932543747909e-04 0.0 
-2.932543747909e-04 7.348938270472e-03 0.0 
0.0 0.0 -1.120963572432e-03 
-3.905834582402e-04 -4.908595614848e-04 0.0 
-4.908595614848e-04 1.232002034576e-03 0.0 
0.0 0.0 -2.722262904030e-04 
-1.289444217002e-03 1.239965470747e-04 0.0 
1.239965470747e-04 7.777003841897e-03 0.0 
0.0 0.0 -1.189111243166e-03 
-9.083262515729e-04 4.866804809917e-04 0.0 
4.866804809917e-04 4.963586243701e-03 0.0 
0.0 0.0 -7.711223959738e-04 
-1.340203078278e-03 -2.129693675799e-04 0.0 
-2.129693675799e-04 8.439560912258e-03 0.0 
0.0 0.0 -1.265987209193e-03 
-8.868772565118e-04 2.877464608834e-05 0.0 
2.877464608834e-05 5.056912107765e-03 0.0 
0.0 0.0 -7.842605076999e-04 
8.296812869376e-04 3.685884086734e-03 0.0 
3.685884086734e-03 1.230720667462e-03 0.0 
0.0 0.0 -5.042822341261e-04 
-9.054574091078e-04 1.222535339866e-03 0.0 
1.222535339866e-03 4.461896652901e-03 0.0 
0.0 0.0 -6.840799553763e-04 
-1.128956121950e-03 -1.816355743224e-04 0.0 
-1.816355743224e-04 5.879621026637e-03 0.0 
0.0 0.0 -8.722824885218e-04 
-5.122461741683e-04 1.954259908610e-03 0.0 
1.954259908610e-03 2.061332027071e-03 0.0 
0.0 0.0 -3.514598124168e-04 
2.539270847322e-03 3.753427272532e-03 0.0 
3.753427272532e-03 1.936448798397e-04 0.0 
0.0 0.0 -5.911455407098e-04 
-1.107826402130e-03 -1.895219266089e-04 0.0 
-1.895219266089e-04 6.838398808500e-03 0.0 
0.0 0.0 -1.016465148841e-03 
-8.846022414820e-04 1.673369808483e-04 0.0 
1.673369808483e-04 5.274165376609e-03 0.0 
0.0 0.0 -7.680022369673e-04 
1.021581477571e-03 3.434268351111e-03 0.0 
3.434268351111e-03 1.418904630639e-03 0.0 
0.0 0.0 -5.666226778950e-04 
-8.757906499412e-04 1.865844740855e-03 0.0 
1.865844740855e-03 4.204231672553e-03 0.0 
0.0 0.0 -6.498546761489e-04 
-1.139116824097e-03 6.790362392473e-04 0.0 
6.790362392473e-04 7.269314059892e-03 0.0 
0.0 0.0 -1.136725521675e-03 
-8.548535662047e-04 -2.781485263044e-04 0.0 
-2.781485263044e-04 4.164865359686e-03 0.0 
0.0 0.0 -6.189190723244e-04 
-1.237707508229e-03 4.856674807990e-04 0.0 
4.856674807990e-04 7.956457412847e-03 0.0 
0.0 0.0 -1.285202198870e-03 
-9.668739755987e-04 7.929788237670e-04 0.0 
7.929788237670e-04 8.057942068750e-03 0.0 
0.0 0.0 -1.265486236287e-03 
-5.968735444573e-04 8.630119053959e-04 0.0 
8.630119053959e-04 2.770532901419e-03 0.0 
0.0 0.0 -4.595713030950e-04 
-8.601834141272e-04 -1.130024456241e-04 0.0 
-1.130024456241e-04 3.988529893684e-03 0.0 
0.0 0.0 -6.385407451345e-04 
-7.488905349556e-04 -1.683995532948e-04 0.0 
-1.683995532948e-04 6.790863547038e-03 0.0 
0.0 0.0 -1.152822474774e-03 
-7.471072150709e-04 4.477478955709e-04 0.0 
4.477478955709e-04 3.839021408612e-03 0.0 
0.0 0.0 -6.037256927378e-04 
-5.932602371824e-04 9.450171731982e-04 0.0 
9.450171731982e-04 2.345539596427e-03 0.0 
0.0 0.0 -4.251746348339e-04 
-8.883854653183e-04 4.319931064094e-04 0.0 
4.319931064094e-04 4.807571306798e-03 0.0 
0.0 0.0 -7.443430781256e-04 
9.386681259558e-04 3.179417593074e-03 0.0 
3.179417593074e-03 1.963184092414e-03 0.0 
0.0 0.0 -6.011186688906e-04 
-1.309467600587e-03 2.274324864678e-04 0.0 
2.274324864678e-04 8.467271508597e-03 0.0 
0.0 0.0 -1.279059907835e-03 
-1.139712663312e-03 5.524271265546e-04 0.0 
5.524271265546e-04 6.895093066062e-03 0.0 
0.0 0.0 -1.060691896764e-03 
-1.282894195515e-03 1.713163621167e-04 0.0 
1.713163621167e-04 7.580646218946e-03 0.0 
0.0 0.0 -1.155968210243e-03 
-1.640693191106e-04 6.669324070825e-03 0.0 
6.669324070825e-03 1.220997106995e-03 0.0 
0.0 0.0 -3.328149423972e-04 
3.770206377581e-03 4.380692159185e-03 0.0 
4.380692159185e-03 -1.293176884806e-03 0.0 
0.0 0.0 -5.558335581882e-04 
-1.150277857659e-03 5.855176210150e-04 0.0 
5.855176210150e-04 7.056066340815e-03 0.0 
0.0 0.0 -1.089453766084e-03 
0.0 0.0 0.0 
0.0 0.0 0.0 
0.0 0.0 0.0 
-7.560981228119e-04 5.568058696449e-04 0.0 
5.568058696449e-04 3.796632807167e-03 0.0 
0.0 0.0 -6.073871274648e-04 
-4.001171708154e-04 -3.364044786014e-04 0.0 
-3.364044786014e-04 6.034416272780e-03 0.0 
0.0 0.0 -1.080675545910e-03 
-1.164869828715e-04 -1.456841600207e-04 0.0 
-1.456841600207e-04 9.923335266216e-04 0.0 
0.0 0.0 -1.605608400042e-04 
-1.274326596506e-03 6.277067703957e-04 0.0 
6.277067703957e-04 8.332587857653e-03 0.0 
0.0 0.0 -1.257517519450e-03 
-1.082557255636e-03 4.467183423513e-04 0.0 
4.467183423513e-04 6.398503814141e-03 0.0 
0.0 0.0 -9.749624431058e-04 
-5.927975267284e-04 -7.287134833264e-04 0.0 
-7.287134833264e-04 3.408230795765e-03 0.0 
0.0 0.0 -5.995223474422e-04 
-1.252690887225e-04 2.307584319521e-04 0.0 
2.307584319521e-04 5.734872472278e-03 0.0 
0.0 0.0 -1.082135573042e-03 
-9.644421873602e-04 1.848918456793e-04 0.0 
1.848918456793e-04 5.622214910538e-03 0.0 
0.0 0.0 -8.259898420369e-04 
-9.976541713563e-04 8.643209894894e-06 0.0 
8.643209894894e-06 5.944166007327e-03 0.0 
0.0 0.0 -8.838609275114e-04 
-1.149666595734e-03 -3.245227479459e-04 0.0 
-3.245227479459e-04 7.662117469895e-03 0.0 
0.0 0.0 -1.237791025003e-03 
-6.377976835771e-04 -6.114567573414e-04 0.0 
-6.114567573414e-04 2.689173763955e-03 0.0 
0.0 0.0 -4.583583101839e-04 
-7.880409547895e-04 7.989113980148e-04 0.0 
7.989113980148e-04 4.542855302031e-03 0.0 
0.0 0.0 -7.480401524272e-04 
-9.214234162490e-04 5.351887786335e-04 0.0 
5.351887786335e-04 5.111262659093e-03 0.0 
0.0 0.0 -7.988399675000e-04 
-1.125534786672e-03 7.028976634264e-05 0.0 
7.028976634264e-05 6.721724443554e-03 0.0 
0.0 0.0 -1.008548823165e-03 
-9.505406595461e-04 1.355801735478e-04 0.0 
1.355801735478e-04 5.273089753614e-03 0.0 
0.0 0.0 -8.035999206669e-04 
-8.920793708860e-04 1.354006487991e-04 0.0 
1.354006487991e-04 4.845817227354e-03 0.0 
0.0 0.0 -7.415510827328e-04 
1.808697512671e-03 1.554191776142e-03 0.0 
1.554191776142e-03 3.028383427901e-03 0.0 
0.0 0.0 -9.414312740916e-04 
-1.133549865804e-03 2.632851943964e-04 0.0 
2.632851943964e-04 7.143578184647e-03 0.0 
0.0 0.0 -1.105110859848e-03 
7.397861849776e-04 1.344633359827e-03 0.0 
1.344633359827e-03 -7.397861849776e-04 0.0 
0.0 0.0 0.0 
-5.962939415376e-04 8.238653728105e-04 0.0 
8.238653728105e-04 2.727070257368e-03 0.0 
0.0 0.0 -4.649757541953e-04 
-6.413935052421e-04 9.083237096948e-04 0.0 
9.083237096948e-04 3.060885376631e-03 0.0 
0.0 0.0 -5.249394872960e-04 
-7.860598654059e-04 4.409893248632e-04 0.0 
4.409893248632e-04 4.491993588337e-03 0.0 
0.0 0.0 -7.181710532390e-04 
-1.182550884137e-03 1.586567680609e-04 0.0 
1.586567680609e-04 7.254490089636e-03 0.0 
0.0 0.0 -1.095076276885e-03 
4.395053243922e-03 5.331441978306e-03 0.0 
5.331441978306e-03 -3.950779519810e-03 0.0 
0.0 0.0 -1.904030246194e-04 
-4.210120291963e-04 -4.469455239533e-04 0.0 
-4.469455239533e-04 5.842070859964e-03 0.0 
0.0 0.0 -1.043355442177e-03 
-8.774345447710e-04 -2.186708792855e-04 0.0 
-2.186708792855e-04 5.055368522856e-03 0.0 
0.0 0.0 -7.763349569542e-04 
2.693512289908e-03 4.190921652212e-03 0.0 
4.190921652212e-03 -3.746166595640e-04 0.0 
0.0 0.0 -5.576783925304e-04 
-6.522531077384e-04 -5.587057046121e-04 0.0 
-5.587057046121e-04 5.868119091496e-03 0.0 
0.0 0.0 -1.006238978475e-03 
-7.021339785739e-05 -2.257880490566e-04 0.0 
-2.257880490566e-04 5.234298020475e-04 0.0 
0.0 0.0 -1.250635456846e-04 
-1.135452312747e-03 4.797857508759e-04 0.0 
4.797857508759e-04 6.834881249119e-03 0.0 
0.0 0.0 -1.040010908530e-03 
2.584705021171e-04 -6.276442410992e-05 0.0 
-6.276442410992e-05 4.107363041302e-04 0.0 
0.0 0.0 -1.683263660966e-04 
-1.840491842350e-04 -5.445744923588e-05 0.0 
-5.445744923588e-05 7.493422687289e-04 0.0 
0.0 0.0 -1.819418517600e-04 
-1.457630886880e-04 5.828787199196e-03 0.0 
5.828787199196e-03 1.224709534905e-03 0.0 
0.0 0.0 -3.246947309473e-04 
-6.091026736672e-04 -6.117663185554e-04 0.0 
-6.117663185554e-04 2.275310364661e-03 0.0 
0.0 0.0 -3.935955730116e-04 
-1.177121720242e-03 9.986808741325e-05 0.0 
9.986808741325e-05 7.155425965963e-03 0.0 
0.0 0.0 -1.073797489760e-03 
-5.625078577902e-04 -9.911531115061e-04 0.0 
-9.911531115061e-04 2.166295973773e-03 0.0 
0.0 0.0 -3.637595386041e-04 
9.443087108232e-04 5.428833006302e-03 0.0 
5.428833006302e-03 1.893842873489e-04 0.0 
0.0 0.0 -3.890718233399e-04 
4.850626918219e-04 -2.018722450890e-03 0.0 
-2.018722450890e-03 4.033200357759e-04 0.0 
0.0 0.0 -3.807354546848e-04 
-5.007957256990e-04 -4.054148446658e-04 0.0 
-4.054148446658e-04 1.463133010542e-03 0.0 
0.0 0.0 -2.670040094673e-04 
-3.776278934515e-04 2.547942145262e-04 0.0 
2.547942145262e-04 6.172854467389e-03 0.0 
0.0 0.0 -1.117524173959e-03 
-9.108885203266e-04 1.625635707661e-04 0.0 
1.625635707661e-04 5.002433540525e-03 0.0 
0.0 0.0 -7.687972329812e-04 
-1.323980336649e-03 7.113171737239e-05 0.0 
7.113171737239e-05 8.245489008711e-03 0.0 
0.0 0.0 -1.256743614961e-03 
1.833918292234e-04 8.185989824068e-05 0.0 
8.185989824068e-05 -1.833918292234e-04 0.0 
0.0 0.0 0.0 
1.201584356045e-03 5.031776477104e-03 0.0 
5.031776477104e-03 1.923514770570e-04 0.0 
0.0 0.0 -4.044045206172e-04 
2.889515110729e-03 3.746748668913e-03 0.0 
3.746748668913e-03 -1.514553467832e-04 0.0 
0.0 0.0 -6.230907113744e-04 
-7.160262700323e-04 6.408733665596e-04 0.0 
6.408733665596e-04 3.506266837881e-03 0.0 
0.0 0.0 -5.709397776106e-04 
-3.875553027439e-05 9.052880887358e-05 0.0 
9.052880887358e-05 5.436982795175e-03 0.0 
0.0 0.0 -1.045235091131e-03 
-1.333473067012e-03 -5.395820062031e-05 0.0 
-5.395820062031e-05 8.405361436706e-03 0.0 
0.0 0.0 -1.275930989368e-03 
-1.131889764436e-03 1.436010865761e-04 0.0 
1.436010865761e-04 6.812686989612e-03 0.0 
0.0 0.0 -1.029499106509e-03 
4.687166779367e-03 5.052683976828e-03 0.0 
5.052683976828e-03 -2.893243529804e-03 0.0 
0.0 0.0 -4.564841486881e-04 
-5.351756882813e-04 -2.082929781448e-04 0.0 
-2.082929781448e-04 6.339112974049e-03 0.0 
0.0 0.0 -1.116166892425e-03 
-1.162987388940e-03 1.784362897977e-04 0.0 
1.784362897977e-04 6.231822734238e-03 0.0 
0.0 0.0 -9.512440159151e-04 
-8.362061665926e-04 3.771233097708e-04 0.0 
3.771233097708e-04 4.773003845214e-03 0.0 
0.0 0.0 -7.537083776970e-04 
-1.102280810414e-03 4.919717221224e-04 0.0 
4.919717221224e-04 6.560511914991e-03 0.0 
0.0 0.0 -1.003200534345e-03 
-1.172867451038e-03 2.356902410022e-04 0.0 
2.356902410022e-04 7.744999640819e-03 0.0 
0.0 0.0 -1.239730878702e-03 
3.831838477383e-03 3.730673057519e-03 0.0 
3.730673057519e-03 -9.419209769330e-04 0.0 
0.0 0.0 -6.206208101913e-04 
7.371729678604e-04 5.358221566732e-03 0.0 
5.358221566732e-03 7.132716653412e-04 0.0 
0.0 0.0 -3.752687577596e-04 
-9.992253787165e-04 1.463025209614e-04 0.0 
1.463025209614e-04 5.687199852232e-03 0.0 
0.0 0.0 -8.662621843288e-04 
-1.349788229223e-03 3.426545086550e-04 0.0 
3.426545086550e-04 9.036920857709e-03 0.0 
0.0 0.0 -1.323568725688e-03 
-7.650406542385e-04 4.751592665984e-04 0.0 
4.751592665984e-04 4.601158149833e-03 0.0 
0.0 0.0 -7.453270327204e-04 
4.223796444924e-03 2.521771616334e-03 0.0 
2.521771616334e-03 -3.932406841589e-04 0.0 
0.0 0.0 -7.768443034385e-04 
-9.417507759690e-04 -3.219991258083e-05 0.0 
-3.219991258083e-05 5.716819141930e-03 0.0 
0.0 0.0 -8.293613651800e-04 
-1.509886751970e-04 -1.135282332652e-03 0.0 
-1.135282332652e-03 1.017427284165e-03 0.0 
0.0 0.0 -3.579782397794e-04 
-9.508294649730e-04 4.627212186016e-04 0.0 
4.627212186016e-04 5.212868888400e-03 0.0 
0.0 0.0 -8.060563724883e-04 
3.857082222372e-03 5.751147189306e-03 0.0 
5.751147189306e-03 -2.269314526381e-03 0.0 
0.0 0.0 -4.590591740919e-04 
4.687301589755e-03 4.915974706048e-03 0.0 
4.915974706048e-03 -4.123265735248e-03 0.0 
0.0 0.0 -2.417296519314e-04 
4.491247104574e-03 -5.604950195153e-03 0.0 
-5.604950195153e-03 -4.087144684400e-03 0.0 
0.0 0.0 -1.731867515028e-04 
-1.167546277040e-03 4.626490460642e-04 0.0 
4.626490460642e-04 7.101376568989e-03 0.0 
0.0 0.0 -1.075985979751e-03 
-9.623797546726e-04 1.845333678616e-04 0.0 
1.845333678616e-04 5.429528329259e-03 0.0 
0.0 0.0 -8.312490730234e-04 
2.978083513788e-04 2.844885420140e-03 0.0 
2.844885420140e-03 2.080384035966e-03 0.0 
0.0 0.0 -5.429493831729e-04 
-1.206327788760e-03 8.269099761282e-05 0.0 
8.269099761282e-05 7.415962584707e-03 0.0 
0.0 0.0 -1.109763131677e-03 
-1.142751356386e-03 1.744200963682e-04 0.0 
1.744200963682e-04 6.974478761757e-03 0.0 
0.0 0.0 -1.057773507355e-03 
-8.833943353455e-04 3.220642776102e-04 0.0 
3.220642776102e-04 5.046401869676e-03 0.0 
0.0 0.0 -7.887050335656e-04 
-1.278006429871e-03 -2.029556331096e-04 0.0 
-2.029556331096e-04 8.153709597249e-03 0.0 
0.0 0.0 -1.288412101370e-03 
3.739365090708e-03 2.278524772121e-03 0.0 
2.278524772121e-03 1.497884692075e-04 0.0 
0.0 0.0 -8.078958932737e-04 
-9.266589239438e-04 2.700924202998e-04 0.0 
2.700924202998e-04 5.312918686649e-03 0.0 
0.0 0.0 -8.238265297874e-04 
1.038836939954e-03 2.792874700055e-03 0.0 
2.792874700055e-03 2.232306640039e-03 0.0 
0.0 0.0 -6.656476441012e-04 
3.323382748394e-03 2.038849080803e-03 0.0 
2.038849080803e-03 8.985644721140e-04 0.0 
0.0 0.0 -8.413031780454e-04 
5.234362017667e-03 4.498060338023e-03 0.0 
4.498060338023e-03 -4.306667305663e-03 0.0 
0.0 0.0 -3.865807678710e-04 
-9.465847814334e-04 1.767858078852e-04 0.0 
1.767858078852e-04 5.036126749418e-03 0.0 
0.0 0.0 -7.898058234521e-04 
4.989632555285e-03 3.297552317147e-03 0.0 
3.297552317147e-03 -1.952991756805e-03 0.0 
0.0 0.0 -6.486359607860e-04 
4.619023001713e-03 -2.539821915604e-03 0.0 
-2.539821915604e-03 -2.938244371106e-03 0.0 
0.0 0.0 -4.681053320140e-04 
-1.124321372716e-03 5.190781523116e-04 0.0 
5.190781523116e-04 6.737556221388e-03 0.0 
0.0 0.0 -1.032318248600e-03 
0.0 0.0 0.0 
0.0 0.0 0.0 
0.0 0.0 0.0 
-9.848011893069e-04 9.254887770332e-05 0.0 
9.254887770332e-05 5.522315715833e-03 0.0 
0.0 0.0 -8.386390795737e-04 
4.990075244189e-03 4.724521566630e-03 0.0 
4.724521566630e-03 -3.254219031448e-03 0.0 
0.0 0.0 -4.870240021111e-04 
2.020626182333e-03 6.310381379688e-03 0.0 
6.310381379688e-03 -4.645054110569e-04 0.0 
0.0 0.0 -4.015254440178e-04 
5.303147730004e-03 2.021008684531e-03 0.0 
2.021008684531e-03 -4.090698620583e-03 0.0 
0.0 0.0 -4.054414645913e-04 
-1.008402327414e-03 5.265744671369e-04 0.0 
5.265744671369e-04 5.786538932645e-03 0.0 
0.0 0.0 -8.965110541436e-04 
-2.494216096235e-04 -4.335362183750e-04 0.0 
-4.335362183750e-04 9.422411490062e-04 0.0 
0.0 0.0 -1.609926926485e-04 
-6.820720035477e-04 8.119732659470e-04 0.0 
8.119732659470e-04 3.361151585438e-03 0.0 
0.0 0.0 -5.613503766092e-04 
2.623535096340e-03 1.798358622760e-03 0.0 
1.798358622760e-03 1.672538141927e-03 0.0 
0.0 0.0 -8.726802719923e-04 
-9.620382926609e-04 5.073054538474e-04 0.0 
5.073054538474e-04 5.367475776694e-03 0.0 
0.0 0.0 -8.336838631977e-04 
-9.866522304222e-04 1.405170818081e-04 0.0 
1.405170818081e-04 5.654603971252e-03 0.0 
0.0 0.0 -8.301023967811e-04 
2.625597560803e-03 2.262736329681e-03 0.0 
2.262736329681e-03 -2.387131527704e-03 0.0 
0.0 0.0 -1.021997284710e-04 
5.747017695026e-03 -1.406048700164e-03 0.0 
-1.406048700164e-03 -4.099119140895e-03 0.0 
0.0 0.0 -4.706942212664e-04 
3.220830984026e-03 -3.151599243151e-03 0.0 
-3.151599243151e-03 -1.804184442071e-03 0.0 
0.0 0.0 -4.311372127493e-04 
-6.301589636401e-04 7.572287734230e-04 0.0 
7.572287734230e-04 3.032577115035e-03 0.0 
0.0 0.0 -4.957039317942e-04 
-1.115649045089e-03 1.001564757614e-04 0.0 
1.001564757614e-04 6.632881085886e-03 0.0 
0.0 0.0 -1.000663671924e-03 
-6.796028561542e-04 5.568827768722e-04 0.0 
5.568827768722e-04 3.430251503350e-03 0.0 
0.0 0.0 -5.577786207633e-04 
5.234574877947e-03 3.580131508715e-03 0.0 
3.580131508715e-03 -2.611492395479e-03 0.0 
0.0 0.0 -6.151539951222e-04 
4.036390851988e-03 4.121870207322e-03 0.0 
4.121870207322e-03 -1.573611522161e-03 0.0 
0.0 0.0 -5.868308051845e-04 
2.980734445400e-03 1.921352825738e-03 0.0 
1.921352825738e-03 -2.620464219598e-03 0.0 
0.0 0.0 -1.544015253436e-04 
1.284388805236e-03 2.929428049900e-03 0.0 
2.929428049900e-03 1.978426797320e-03 0.0 
0.0 0.0 -6.959382511914e-04 
1.242306125394e-03 9.021095282376e-03 0.0 
9.021095282376e-03 -2.803111491333e-04 0.0 
0.0 0.0 -3.635305771564e-04 
-1.332783064049e-03 3.949756871870e-04 0.0 
3.949756871870e-04 8.970989248616e-03 0.0 
0.0 0.0 -1.321446319728e-03 
-1.363423366848e-03 4.246461146743e-04 0.0 
4.246461146743e-04 8.919856195938e-03 0.0 
0.0 0.0 -1.318029376683e-03 
-7.707229978672e-04 8.349277957258e-04 0.0 
8.349277957258e-04 4.657152987880e-03 0.0 
0.0 0.0 -7.755312068111e-04 
4.743089577404e-03 5.549881231268e-03 0.0 
5.549881231268e-03 -3.477912591599e-03 0.0 
0.0 0.0 -4.232985079168e-04 
3.311098030610e-03 8.147339889044e-03 0.0 
8.147339889044e-03 -2.044846701829e-03 0.0 
0.0 0.0 -3.659709354871e-04 
-9.354111606034e-04 6.403030867596e-04 0.0 
6.403030867596e-04 5.396292848320e-03 0.0 
0.0 0.0 -8.539191708179e-04 
4.288060582701e-03 5.928094455780e-03 0.0 
5.928094455780e-03 -2.912729421459e-03 0.0 
0.0 0.0 -3.930530440640e-04 
4.760531781071e-03 -2.802622133126e-03 0.0 
-2.802622133126e-03 -3.321520311002e-03 0.0 
0.0 0.0 -4.339875075689e-04 
-8.457389435740e-04 6.790973874792e-04 0.0 
6.790973874792e-04 4.708791579724e-03 0.0 
0.0 0.0 -7.563811545761e-04 
-1.327783261122e-03 1.214241298840e-04 0.0 
1.214241298840e-04 8.708921592335e-03 0.0 
0.0 0.0 -1.266640259566e-03 
3.940964240026e-03 4.803912502925e-03 0.0 
4.803912502925e-03 -1.911019880904e-03 0.0 
0.0 0.0 -5.226246958029e-04 
1.742497527819e-03 1.941575057008e-03 0.0 
1.941575057008e-03 3.015283358855e-03 0.0 
0.0 0.0 -9.428115367421e-04 
1.835357661270e-03 7.197336068476e-03 0.0 
7.197336068476e-03 -8.939530099469e-04 0.0 
0.0 0.0 -4.034591362812e-04 
-1.256876494634e-03 -1.116338181287e-04 0.0 
-1.116338181287e-04 8.512233064138e-03 0.0 
0.0 0.0 -1.322863172658e-03 
3.621091372840e-03 6.856330244638e-03 0.0 
6.856330244638e-03 -2.481987523753e-03 0.0 
0.0 0.0 -3.959736908235e-04 
-8.401524306229e-04 7.380205594863e-04 0.0 
7.380205594863e-04 4.834030021030e-03 0.0 
0.0 0.0 -7.835188407615e-04 
4.073372694354e-03 2.533479760516e-03 0.0 
2.533479760516e-03 -3.638166328471e-03 0.0 
0.0 0.0 -1.865170139499e-04 
1.376625737197e-03 4.054983539534e-04 0.0 
4.054983539534e-04 3.221810063916e-03 0.0 
0.0 0.0 -9.211625808215e-04 
4.113553823702e-03 3.627559936943e-03 0.0 
3.627559936943e-03 -1.231377141768e-03 0.0 
0.0 0.0 -6.516619296807e-04 
2.822655170962e-03 -2.470855001967e-03 0.0 
-2.470855001967e-03 -1.098809352364e-03 0.0 
0.0 0.0 -4.625367401932e-04 
-9.230469363571e-04 2.192959829450e-04 0.0 
2.192959829450e-04 5.165828729947e-03 0.0 
0.0 0.0 -7.963903837170e-04 
-1.329517259177e-03 5.155737006002e-04 0.0 
5.155737006002e-04 8.824435260990e-03 0.0 
0.0 0.0 -1.324865334549e-03 
5.172702887666e-03 4.085099239357e-03 0.0 
4.085099239357e-03 -2.986919187980e-03 0.0 
0.0 0.0 -5.510338386786e-04 
2.630068835855e-03 1.363133275444e-03 0.0 
1.363133275444e-03 1.760660347467e-03 0.0 
0.0 0.0 -8.703234504572e-04 
2.690150756283e-03 9.601692847477e-03 0.0 
9.601692847477e-03 -1.738560907479e-03 0.0 
0.0 0.0 -3.453408408593e-04 
-1.068497402403e-03 3.485541216510e-04 0.0 
3.485541216510e-04 6.344714792472e-03 0.0 
0.0 0.0 -9.576894438039e-04 
-1.463353572567e-04 -7.096184336533e-05 0.0 
-7.096184336533e-05 5.334173982625e-03 0.0 
0.0 0.0 -1.008345180213e-03 
3.315130191564e-04 4.298825453493e-03 0.0 
4.298825453493e-03 1.396099529955e-03 0.0 
0.0 0.0 -4.109515902261e-04 
-1.055848474588e-03 -6.244673246337e-05 0.0 
-6.244673246337e-05 6.209225770776e-03 0.0 
0.0 0.0 -9.257128893455e-04 
-1.318413144677e-03 5.597520288916e-04 0.0 
5.597520288916e-04 8.736177841961e-03 0.0 
0.0 0.0 -1.322580803729e-03 
-5.473014402681e-04 -4.428020109384e-05 0.0 
-4.428020109384e-05 6.123762805598e-03 0.0 
0.0 0.0 -1.075861678316e-03 
-1.339852007458e-03 4.885566376854e-04 0.0 
4.885566376854e-04 8.877779505668e-03 0.0 
0.0 0.0 -1.322091174222e-03 
-1.037601774292e-03 -4.998348071015e-05 0.0 
-4.998348071015e-05 6.134914618430e-03 0.0 
0.0 0.0 -9.196498359204e-04 
-1.117033596766e-03 2.433107206605e-04 0.0 
2.433107206605e-04 6.851288038562e-03 0.0 
0.0 0.0 -1.048263655743e-03 
8.345431538233e-05 5.208292688456e-03 0.0 
5.208292688456e-03 1.252523363288e-03 0.0 
0.0 0.0 -3.491910591611e-04 
-8.752311967057e-04 2.096761775609e-04 0.0 
2.096761775609e-04 4.753971328354e-03 0.0 
0.0 0.0 -7.343713905235e-04 
-9.300305532746e-04 5.926935085268e-04 0.0 
5.926935085268e-04 5.253991145748e-03 0.0 
0.0 0.0 -8.263924940540e-04 
-9.692706598054e-04 2.261418497641e-04 0.0 
2.261418497641e-04 5.579447270465e-03 0.0 
0.0 0.0 -8.589723558544e-04 
-7.013973697775e-04 5.476600750058e-04 0.0 
5.476600750058e-04 4.307373761106e-03 0.0 
0.0 0.0 -7.101745248689e-04 
-1.306990612628e-03 5.041978193775e-04 0.0 
5.041978193775e-04 8.672501482610e-03 0.0 
0.0 0.0 -1.322334986692e-03 
-9.943643695485e-04 3.416073873728e-04 0.0 
3.416073873728e-04 5.867113055505e-03 0.0 
0.0 0.0 -8.810748613436e-04 
-9.323244271653e-04 9.613325556177e-05 0.0 
9.613325556177e-05 5.115490294310e-03 0.0 
0.0 0.0 -7.763708431881e-04 
4.993500230109e-03 3.718085574604e-03 0.0 
3.718085574604e-03 -2.368848196100e-03 0.0 
0.0 0.0 -5.843899590101e-04 
-5.790296725673e-04 -5.326125379184e-04 0.0 
-5.326125379184e-04 1.882091514832e-03 0.0 
0.0 0.0 -3.280768480529e-04 
-8.597084284199e-04 1.491840850699e-04 0.0 
1.491840850699e-04 4.593177939361e-03 0.0 
0.0 0.0 -7.069124235890e-04 
6.886208534383e-04 4.127568071695e-03 0.0 
4.127568071695e-03 1.009724920696e-03 0.0 
0.0 0.0 -4.404772202000e-04 
-8.726090169173e-04 -3.101571305491e-05 0.0 
-3.101571305491e-05 5.309765821533e-03 0.0 
0.0 0.0 -7.696142143080e-04 
1.121767585588e-03 -2.144082417252e-03 0.0 
-2.144082417252e-03 5.611680828510e-04 0.0 
0.0 0.0 -4.595640944490e-04 
4.870233496136e-03 4.277434400815e-03 0.0 
4.277434400815e-03 -2.661735553899e-03 0.0 
0.0 0.0 -5.202658224677e-04 
-1.156111700983e-03 5.188644452185e-04 0.0 
5.188644452185e-04 7.007873302369e-03 0.0 
0.0 0.0 -1.069052450572e-03 
1.092855928403e-03 4.751815216216e-03 0.0 
4.751815216216e-03 7.390725173945e-04 0.0 
0.0 0.0 -4.372567615832e-04 
-8.838010647401e-04 5.805967859428e-04 0.0 
5.805967859428e-04 4.846530847442e-03 0.0 
0.0 0.0 -7.640689829422e-04 
1.970744558379e-03 1.263743018268e-03 0.0 
1.263743018268e-03 2.491593776833e-03 0.0 
0.0 0.0 -9.014246907137e-04 
-6.358980608267e-04 -4.313104688366e-04 0.0 
-4.313104688366e-04 4.627036023584e-03 0.0 
0.0 0.0 -8.035328976187e-04 
-1.261046308643e-03 3.887646222973e-04 0.0 
3.887646222973e-04 8.565225437675e-03 0.0 
0.0 0.0 -1.324762665914e-03 
-7.901929562116e-04 3.374298908411e-04 0.0 
3.374298908411e-04 4.107137002439e-03 0.0 
0.0 0.0 -6.390224077203e-04 
6.172943110439e-03 2.324801736237e-04 0.0 
2.324801736237e-04 -4.790363084451e-03 0.0 
0.0 0.0 -4.422638729430e-04 
-5.704666668683e-04 -1.178468115440e-03 0.0 
-1.178468115440e-03 3.201154498828e-03 0.0 
0.0 0.0 -5.691257024010e-04 
-5.112516265498e-04 1.421947986355e-03 0.0 
1.421947986355e-03 2.365686985835e-03 0.0 
0.0 0.0 -4.184705811166e-04 
1.457743183852e-04 3.710900251432e-03 0.0 
3.710900251432e-03 1.497918058094e-03 0.0 
0.0 0.0 -4.141309408042e-04 
-1.196454144110e-03 1.993133203818e-04 0.0 
1.993133203818e-04 7.413315256709e-03 0.0 
0.0 0.0 -1.123886314723e-03 
-8.766172246535e-04 3.573442557890e-04 0.0 
3.573442557890e-04 5.175634424808e-03 0.0 
0.0 0.0 -8.161479701220e-04 
-7.111416903698e-04 5.043563065956e-04 0.0 
5.043563065956e-04 3.554866890808e-03 0.0 
0.0 0.0 -5.672387349321e-04 
-8.352265289735e-04 5.640695091739e-04 0.0 
5.640695091739e-04 4.443467777814e-03 0.0 
0.0 0.0 -7.023794137935e-04 
-1.258131779879e-03 1.361172827669e-04 0.0 
1.361172827669e-04 8.496942290822e-03 0.0 
0.0 0.0 -1.320675234999e-03 
-1.143815948478e-03 -2.922836025448e-06 0.0 
-2.922836025448e-06 7.935052382313e-03 0.0 
0.0 0.0 -1.258064670439e-03 
-1.185356167607e-03 5.772655224951e-04 0.0 
5.772655224951e-04 7.334174599953e-03 0.0 
0.0 0.0 -1.126590436115e-03 
-1.146342777142e-03 1.032030268662e-04 0.0 
1.032030268662e-04 6.902588040038e-03 0.0 
0.0 0.0 -1.037522200811e-03 
-6.004564824823e-04 -8.741253658515e-04 0.0 
-8.741253658515e-04 4.400886106663e-03 0.0 
0.0 0.0 -7.721428985420e-04 
-6.499827822082e-04 6.306060725170e-04 0.0 
6.306060725170e-04 3.517235102446e-03 0.0 
0.0 0.0 -5.842812205453e-04 
5.267691829307e-03 3.911157689490e-03 0.0 
3.911157689490e-03 -3.774506581764e-03 0.0 
0.0 0.0 -4.203166018452e-04 
5.628989419727e-03 3.371780942769e-03 0.0 
3.371780942769e-03 -3.700358294215e-03 0.0 
0.0 0.0 -4.843489805398e-04 
-8.229602156181e-04 4.179326389388e-04 0.0 
4.179326389388e-04 4.894594765891e-03 0.0 
0.0 0.0 -7.808727949117e-04 
1.572090931674e-03 1.405801487392e-04 0.0 
1.405801487392e-04 2.915435416414e-03 0.0 
0.0 0.0 -8.900964085843e-04 
-8.296790490015e-04 -7.574227516101e-04 0.0 
-7.574227516101e-04 4.266073095582e-03 0.0 
0.0 0.0 -6.810091006415e-04 
-1.209161835961e-03 5.397487415350e-04 0.0 
5.397487415350e-04 7.456423275886e-03 0.0 
0.0 0.0 -1.134236807130e-03 
5.801013225568e-03 -1.820324466949e-03 0.0 
-1.820324466949e-03 -4.325469597229e-03 0.0 
0.0 0.0 -4.395655422792e-04 
-4.908299741088e-04 8.871943612632e-04 0.0 
8.871943612632e-04 3.860616898517e-03 0.0 
0.0 0.0 -6.750378637491e-04 
-8.881105026694e-04 6.325939136900e-04 0.0 
6.325939136900e-04 4.979851951469e-03 0.0 
0.0 0.0 -7.913284153978e-04 
-5.528616961367e-04 7.967825779372e-04 0.0 
7.967825779372e-04 3.543698840682e-03 0.0 
0.0 0.0 -6.122259156574e-04 
-1.324329620218e-03 4.629903675987e-04 0.0 
4.629903675987e-04 8.904888157841e-03 0.0 
0.0 0.0 -1.320088186226e-03 
-1.359586791555e-03 4.788353102242e-04 0.0 
4.788353102242e-04 8.942288232093e-03 0.0 
0.0 0.0 -1.318462653075e-03 
-1.290025244180e-03 1.809732516489e-04 0.0 
1.809732516489e-04 8.380056929833e-03 0.0 
0.0 0.0 -1.256494544188e-03 
-6.742581298534e-04 -7.798202117693e-04 0.0 
-7.798202117693e-04 4.873866166937e-03 0.0 
0.0 0.0 -8.375255977276e-04 
-1.194824314076e-03 4.521929309845e-04 0.0 
4.521929309845e-04 7.360058874814e-03 0.0 
0.0 0.0 -1.112065035246e-03 
4.301798253404e-04 4.500805447035e-03 0.0 
4.500805447035e-03 9.114177261281e-04 0.0 
0.0 0.0 -3.785953687517e-04 
5.876952721442e-03 3.007544785407e-03 0.0 
3.007544785407e-03 -3.521290124910e-03 0.0 
0.0 0.0 -5.483018170244e-04 
4.326652580202e-03 2.195572491997e-03 0.0 
2.195572491997e-03 -3.634125565990e-03 0.0 
0.0 0.0 -2.967972918050e-04 
-7.211884972610e-04 4.566068001278e-04 0.0 
4.566068001278e-04 3.698308171073e-03 0.0 
0.0 0.0 -5.936226173563e-04 
-9.121582442551e-04 9.143313993339e-05 0.0 
9.143313993339e-05 5.030258123682e-03 0.0 
0.0 0.0 -7.914980036671e-04 
-1.035929216748e-03 3.563880147614e-04 0.0 
3.563880147614e-04 6.090521981813e-03 0.0 
0.0 0.0 -9.214502702889e-04 
-1.168840555119e-03 -8.744363195647e-05 0.0 
-8.744363195647e-05 8.066384051930e-03 0.0 
0.0 0.0 -1.265403586923e-03 
-1.162609015209e-03 6.330590177409e-04 0.0 
6.330590177409e-04 7.197897661744e-03 0.0 
0.0 0.0 -1.117224974728e-03 
-9.919773035698e-04 4.807053877499e-04 0.0 
4.807053877499e-04 5.626646372679e-03 0.0 
0.0 0.0 -8.687609488834e-04 
-9.791621869581e-04 6.007006909595e-04 0.0 
6.007006909595e-04 5.670050972566e-03 0.0 
0.0 0.0 -8.891947744737e-04 
5.074956821174e-03 2.659108264679e-03 0.0 
2.659108264679e-03 -4.496824487619e-03 0.0 
0.0 0.0 -2.477710000947e-04 
-2.208441256582e-04 -6.752013946383e-04 0.0 
-6.752013946383e-04 8.882775518556e-04 0.0 
0.0 0.0 -2.467363499356e-04 
2.025649307524e-03 3.374929549707e-03 0.0 
3.374929549707e-03 9.762244338607e-04 0.0 
0.0 0.0 -6.594106982652e-04 
-4.052534210993e-04 9.672911467718e-04 0.0 
9.672911467718e-04 4.149346949557e-03 0.0 
0.0 0.0 -7.376142925499e-04 
1.886255473687e-03 2.956427974605e-03 0.0 
2.956427974605e-03 1.507869263211e-03 0.0 
0.0 0.0 -6.931905564144e-04 
6.897033419509e-04 1.193274425489e-02 0.0 
1.193274425489e-02 -1.838060514967e-04 0.0 
0.0 0.0 -2.168131244803e-04 
-9.528466809374e-04 9.473419018348e-05 0.0 
9.473419018348e-05 5.427141204722e-03 0.0 
0.0 0.0 -8.462285223656e-04 
-5.049741343807e-04 -8.812005228938e-04 0.0 
-8.812005228938e-04 1.770302560701e-03 0.0 
0.0 0.0 -2.972104253142e-04 
2.316830393186e-03 5.515709666887e-03 0.0 
5.515709666887e-03 -8.414309400380e-04 0.0 
0.0 0.0 -4.314049239902e-04 
-1.341153861134e-03 -7.479496163088e-05 0.0 
-7.479496163088e-05 8.257374884626e-03 0.0 
0.0 0.0 -1.341153861134e-03 
1.194374724388e-03 1.011529272974e-03 0.0 
1.011529272974e-03 3.822294703617e-03 0.0 
0.0 0.0 -9.717687626069e-04 
-9.402714050330e-04 4.164454812488e-04 0.0 
4.164454812488e-04 5.059115903313e-03 0.0 
0.0 0.0 -7.790007367612e-04 
-1.996455075654e-04 1.120227626459e-04 0.0 
1.120227626459e-04 1.363834974093e-03 0.0 
0.0 0.0 -2.176483604987e-04 
-7.316139978666e-04 8.725598858698e-04 0.0 
8.725598858698e-04 4.250250205740e-03 0.0 
0.0 0.0 -7.126719623954e-04 
2.717168285945e-03 3.327002212974e-03 0.0 
3.327002212974e-03 4.236347427876e-04 0.0 
0.0 0.0 -6.569982659716e-04 
-1.010067214733e-03 1.858710736428e-04 0.0 
1.858710736428e-04 5.842461225268e-03 0.0 
0.0 0.0 -8.940630110299e-04 
-1.271970913527e-03 6.472379206127e-04 0.0 
6.472379206127e-04 8.743395378330e-03 0.0 
0.0 0.0 -1.323832587333e-03 
-8.707338927728e-04 5.246940464045e-04 0.0 
5.246940464045e-04 4.704277736275e-03 0.0 
0.0 0.0 -7.366500567795e-04 
-9.271217876491e-04 3.071330387493e-04 0.0 
3.071330387493e-04 5.453258810761e-03 0.0 
0.0 0.0 -8.513774089097e-04 
-8.050460189817e-04 -4.209308180889e-04 0.0 
-4.209308180889e-04 4.202095383354e-03 0.0 
0.0 0.0 -6.837695253815e-04 
-1.187192617587e-03 5.026303496446e-04 0.0 
5.026303496446e-04 7.280339694805e-03 0.0 
0.0 0.0 -1.105258581891e-03 
-7.119244178252e-04 -3.438823351423e-04 0.0 
-3.438823351423e-04 5.099696206057e-03 0.0 
0.0 0.0 -8.691653677727e-04 
-1.286179237892e-03 5.699250752472e-04 0.0 
5.699250752472e-04 8.750915575421e-03 0.0 
0.0 0.0 -1.322174839672e-03 
-1.340103718614e-03 4.728281156223e-04 0.0 
4.728281156223e-04 8.628873091994e-03 0.0 
0.0 0.0 -1.340103718614e-03 
-1.341028575724e-03 3.568557509173e-04 0.0 
3.568557509173e-04 8.716110367900e-03 0.0 
0.0 0.0 -1.341028575724e-03 
-1.338044909071e-03 4.168385009661e-04 0.0 
4.168385009661e-04 8.630348436964e-03 0.0 
0.0 0.0 -1.338044909071e-03 
-1.019072052988e-03 5.681193801066e-04 0.0 
5.681193801066e-04 5.940654999783e-03 0.0 
0.0 0.0 -9.244680137506e-04 
-1.198675717763e-03 1.360258094172e-04 0.0 
1.360258094172e-04 7.335887667339e-03 0.0 
0.0 0.0 -1.103002250422e-03 
-1.198479165231e-03 6.200957679300e-04 0.0 
6.200957679300e-04 7.509008113829e-03 0.0 
0.0 0.0 -1.155914796392e-03 
-6.394343852437e-04 1.004430984718e-03 0.0 
1.004430984718e-03 3.542163334784e-03 0.0 
0.0 0.0 -6.147330147620e-04 
-6.675475430971e-04 9.277672711453e-04 0.0 
9.277672711453e-04 3.456421744926e-03 0.0 
0.0 0.0 -5.872917534094e-04 
-8.247859078912e-04 -6.922016390902e-04 0.0 
-6.922016390902e-04 4.077408079033e-03 0.0 
0.0 0.0 -6.436934073013e-04 
-1.217910302125e-03 1.553299834490e-04 0.0 
1.553299834490e-04 7.518311075799e-03 0.0 
0.0 0.0 -1.131852245309e-03 
-1.311936692750e-03 5.307865598083e-04 0.0 
5.307865598083e-04 8.695029491200e-03 0.0 
0.0 0.0 -1.322440284024e-03 
-1.214240069696e-03 4.882095922708e-04 0.0 
4.882095922708e-04 7.535305569948e-03 0.0 
0.0 0.0 -1.141180801552e-03 
2.219395167039e-03 1.496427449911e-03 0.0 
1.496427449911e-03 2.400292894559e-03 0.0 
0.0 0.0 -9.063345769726e-04 
-1.227388762698e-03 1.265853976664e-04 0.0 
1.265853976664e-04 7.592479060989e-03 0.0 
0.0 0.0 -1.138864741757e-03 
3.851476919408e-04 1.525299103688e-03 0.0 
1.525299103688e-03 4.857329081360e-03 0.0 
0.0 0.0 -9.903545940741e-04 
-3.341012141723e-04 1.402104697876e-03 0.0 
1.402104697876e-03 3.731444012739e-03 0.0 
0.0 0.0 -7.049739924763e-04 
-7.219643329354e-04 7.270984363887e-04 0.0 
7.270984363887e-04 3.640512255542e-03 0.0 
0.0 0.0 -5.967387615352e-04 
3.524801181768e-03 8.207658117926e-03 0.0 
8.207658117926e-03 -2.631567389882e-03 0.0 
0.0 0.0 -3.828144822368e-04 
-1.311008186282e-03 3.440606395408e-04 0.0 
3.440606395408e-04 8.440809804770e-03 0.0 
0.0 0.0 -1.282213402295e-03 
-4.981356568081e-04 1.264727477762e-03 0.0 
1.264727477762e-03 3.154060969475e-03 0.0 
0.0 0.0 -5.792479259103e-04 
-1.143601678979e-03 4.807933039838e-04 0.0 
4.807933039838e-04 7.635116207963e-03 0.0 
0.0 0.0 -1.230767059693e-03 
-8.116549819175e-04 -3.660838800677e-04 0.0 
-3.660838800677e-04 4.013024169842e-03 0.0 
0.0 0.0 -6.465396845166e-04 
-9.943461196808e-05 -1.740286092734e-03 0.0 
-1.740286092734e-03 1.581555073626e-03 0.0 
0.0 0.0 -4.222915044375e-04 
-1.218810452461e-03 -6.182829621563e-05 0.0 
-6.182829621563e-05 7.834853919449e-03 0.0 
0.0 0.0 -1.284312900220e-03 
1.419953414328e-03 4.462981975101e-03 0.0 
4.462981975101e-03 3.592741038846e-04 0.0 
0.0 0.0 -4.669824892858e-04 
-1.341987455608e-03 4.935381790995e-04 0.0 
4.935381790995e-04 8.595598521703e-03 0.0 
0.0 0.0 -1.341987455608e-03 
-1.324901016307e-03 3.587683922887e-04 0.0 
3.587683922887e-04 8.344464300183e-03 0.0 
0.0 0.0 -1.282654109251e-03 
-8.850522684098e-04 7.214064072269e-04 0.0 
7.214064072269e-04 5.245748206413e-03 0.0 
0.0 0.0 -8.462542048450e-04 
-8.057611890132e-05 -1.710152855484e-04 0.0 
-1.710152855484e-04 3.103213667799e-04 0.0 
0.0 0.0 -9.846224909082e-05 
-1.340954708392e-03 5.230440169069e-04 0.0 
5.230440169069e-04 8.529172830874e-03 0.0 
0.0 0.0 -1.340954708391e-03 
-1.218199846518e-03 4.994387147231e-06 0.0 
4.994387147231e-06 7.808383985296e-03 0.0 
0.0 0.0 -1.284661450484e-03 
1.274152685194e-03 -2.140402627697e-03 0.0 
-2.140402627697e-03 2.670312852731e-04 0.0 
0.0 0.0 -4.253660281670e-04 
1.580601648996e-03 9.605209021192e-04 0.0 
9.605209021192e-04 3.206758223137e-03 0.0 
0.0 0.0 -9.353130867196e-04 
-1.284222320321e-03 3.331079903689e-04 0.0 
3.331079903689e-04 8.551492227036e-03 0.0 
0.0 0.0 -1.323014926434e-03 
9.652713087574e-04 3.631354812603e-06 0.0 
3.631354812603e-06 -2.951639669774e-04 0.0 
0.0 0.0 -2.765477279751e-04 
-4.325479087654e-04 1.322118067886e-03 0.0 
1.322118067886e-03 3.457585520929e-03 0.0 
0.0 0.0 -6.425506931502e-04 
-9.361925531562e-04 6.770287321789e-04 0.0 
6.770287321789e-04 5.532046743254e-03 0.0 
0.0 0.0 -8.816033652580e-04 
-8.298014528126e-04 7.768529914015e-04 0.0 
7.768529914015e-04 4.954128457589e-03 0.0 
0.0 0.0 -8.109139232486e-04 
-8.897770840316e-04 6.877783995216e-04 0.0 
6.877783995216e-04 5.117343312454e-03 0.0 
0.0 0.0 -8.186613860469e-04 
2.167887176310e-03 6.522288070141e-03 0.0 
6.522288070141e-03 -1.046081776764e-03 0.0 
0.0 0.0 -3.960833248805e-04 
-1.341360672448e-03 5.109795992513e-04 0.0 
5.109795992513e-04 8.445730971081e-03 0.0 
0.0 0.0 -1.341360672448e-03 
5.886171989113e-03 2.731694417614e-03 0.0 
2.731694417614e-03 -3.112520598694e-03 0.0 
0.0 0.0 -6.123778370825e-04 
1.998413171046e-03 1.254650936424e-04 0.0 
1.254650936424e-04 -1.875479099405e-03 0.0 
0.0 0.0 -5.268603070342e-05 
-1.302465582654e-03 -2.496096405259e-04 0.0 
-2.496096405259e-04 8.365120953103e-03 0.0 
0.0 0.0 -1.272354826527e-03 
5.265115007533e-04 -2.787347851614e-04 0.0 
-2.787347851614e-04 3.743409842113e-04 0.0 
0.0 0.0 -3.044658752290e-04 
-7.982614346128e-04 6.111031080938e-04 0.0 
6.111031080938e-04 4.181968739078e-03 0.0 
0.0 0.0 -6.678899790657e-04 
3.005843999518e-03 -5.390196050180e-03 0.0 
-5.390196050180e-03 -2.636679802033e-03 0.0 
0.0 0.0 -1.582132274936e-04 
-8.489872345980e-04 4.667487785959e-04 0.0 
4.667487785959e-04 4.536973076965e-03 0.0 
0.0 0.0 -7.094882865497e-04 
-1.255369180247e-03 1.858612183136e-05 0.0 
1.858612183136e-05 8.476379217670e-03 0.0 
0.0 0.0 -1.321823097425e-03 
-1.341255375116e-03 4.796779653900e-04 0.0 
4.796779653900e-04 8.398188684786e-03 0.0 
0.0 0.0 -1.341255375116e-03 
-9.721290586981e-04 5.581628762271e-04 0.0 
5.581628762271e-04 5.522703984207e-03 0.0 
0.0 0.0 -8.613793510407e-04 
1.583529244566e-03 -5.018363587024e-03 0.0 
-5.018363587024e-03 -1.243212079595e-03 0.0 
0.0 0.0 -1.458502135586e-04 
1.443595269413e-03 4.995337719035e-04 0.0 
4.995337719035e-04 -1.441364751610e-03 0.0 
0.0 0.0 -9.559362011891e-07 
1.576283122365e-03 -4.477503040915e-03 0.0 
-4.477503040915e-03 -8.779903966767e-04 0.0 
0.0 0.0 -2.992683110093e-04 
-1.116873810569e-03 -5.374998991881e-04 0.0 
-5.374998991881e-04 7.110713391746e-03 0.0 
0.0 0.0 -1.121833217354e-03 
-9.101085565852e-04 1.581356444995e-04 0.0 
1.581356444995e-04 5.291968435283e-03 0.0 
0.0 0.0 -7.704300227928e-04 
-9.627171074924e-04 3.587877174801e-05 0.0 
3.587877174801e-05 5.332601127641e-03 0.0 
0.0 0.0 -8.109332722942e-04 
-1.342502730507e-03 4.025374877915e-04 0.0 
4.025374877915e-04 8.333596175980e-03 0.0 
0.0 0.0 -1.342502730507e-03 
-9.258687689408e-04 6.411213788909e-05 0.0 
6.411213788909e-05 5.298171403091e-03 0.0 
0.0 0.0 -7.720444664677e-04 
-1.356038484680e-03 3.810509766439e-04 0.0 
3.810509766439e-04 8.994012411350e-03 0.0 
0.0 0.0 -1.322852565091e-03 
5.847422583465e-04 1.924916759901e-03 0.0 
1.924916759901e-03 4.704730744141e-03 0.0 
0.0 0.0 -1.020998643257e-03 
-1.011415993933e-03 3.149863478337e-04 0.0 
3.149863478337e-04 5.896378527379e-03 0.0 
0.0 0.0 -8.907448815977e-04 
-5.324803780764e-04 1.300803284787e-03 0.0 
1.300803284787e-03 2.421136663508e-03 0.0 
0.0 0.0 -4.477608806526e-04 
1.553246205978e-03 1.369110500764e-03 0.0 
1.369110500764e-03 3.142210755595e-03 0.0 
0.0 0.0 -9.378661514434e-04 
4.233254243796e-03 5.399117371651e-03 0.0 
5.399117371651e-03 -3.565433634942e-03 0.0 
0.0 0.0 -2.862088323664e-04 
-1.340754991027e-03 2.766872434976e-04 0.0 
2.766872434976e-04 8.283487658048e-03 0.0 
0.0 0.0 -1.340754991027e-03 
-1.339984467612e-03 4.682059719065e-04 0.0 
4.682059719065e-04 8.622431533437e-03 0.0 
0.0 0.0 -1.339984467612e-03 
-1.340417744004e-03 3.687782300389e-04 0.0 
3.687782300389e-04 8.691962583590e-03 0.0 
0.0 0.0 -1.340417744004e-03 
-7.614631425941e-04 -7.600693639472e-04 0.0 
-7.600693639472e-04 5.166067953467e-03 0.0 
0.0 0.0 -8.666500598261e-04 
-8.083534389449e-04 -6.157792834396e-04 0.0 
-6.157792834396e-04 3.875634950425e-03 0.0 
0.0 0.0 -6.062238016986e-04 
3.021078117985e-04 1.954656822437e-03 0.0 
1.954656822437e-03 3.209124227626e-03 0.0 
0.0 0.0 -7.021192356133e-04 
-7.972896345738e-04 -3.252844081748e-04 0.0 
-3.252844081748e-04 5.374062371917e-03 0.0 
0.0 0.0 -8.981573260837e-04 
-1.339627896631e-03 1.538435656171e-04 0.0 
1.538435656171e-04 8.249387984378e-03 0.0 
0.0 0.0 -1.339627896631e-03 
3.515256871369e-03 6.487407819879e-03 0.0 
6.487407819879e-03 -1.844787463199e-03 0.0 
0.0 0.0 -4.287941800800e-04 
4.249291198081e-03 -1.995925484645e-03 0.0 
-1.995925484645e-03 -2.343074196595e-03 0.0 
0.0 0.0 -4.991860405784e-04 
2.260351462783e-03 -1.647676353958e-03 0.0 
-1.647676353958e-03 -1.052027863940e-04 0.0 
0.0 0.0 -5.272458293186e-04 
-1.040852931917e-03 3.039409917234e-04 0.0 
3.039409917234e-04 6.156930146379e-03 0.0 
0.0 0.0 -9.279583942085e-04 
-1.296158163173e-03 -2.117115631842e-04 0.0 
-2.117115631842e-04 8.526713660580e-03 0.0 
0.0 0.0 -1.323537156312e-03 
3.695850761794e-04 -1.996899231070e-03 0.0 
-1.996899231070e-03 1.700005651907e-04 0.0 
0.0 0.0 -2.312509891586e-04 
-1.340775759057e-03 -3.546022348323e-06 0.0 
-3.546022348323e-06 8.220355043040e-03 0.0 
0.0 0.0 -1.340775759057e-03 
8.950393138826e-04 -1.518267527950e-03 0.0 
-1.518267527950e-03 1.073284045808e-03 0.0 
0.0 0.0 -4.905422085546e-04 
-1.342877878941e-03 5.106164496302e-04 0.0 
5.106164496302e-04 8.578886692927e-03 0.0 
0.0 0.0 -1.342877878941e-03 
-1.213674372651e-03 2.426946528992e-04 0.0 
2.426946528992e-04 7.585431715108e-03 0.0 
0.0 0.0 -1.152765850879e-03 
1.919783708910e-03 -3.587539342900e-05 0.0 
-3.587539342900e-05 -4.969549374611e-04 0.0 
0.0 0.0 -2.197223360527e-04 
3.955239346723e-04 2.357286532546e-03 0.0 
2.357286532546e-03 2.740548674459e-03 0.0 
0.0 0.0 -6.690559060524e-04 
-1.231945608432e-03 6.630499771307e-05 0.0 
6.630499771307e-05 7.672705385687e-03 0.0 
0.0 0.0 -1.146019594970e-03 
-1.341220131281e-03 5.159350734491e-04 0.0 
5.159350734491e-04 8.502743697500e-03 0.0 
0.0 0.0 -1.341220131281e-03 
-1.018091222593e-03 2.268797553761e-04 0.0 
2.268797553761e-04 5.997567393014e-03 0.0 
0.0 0.0 -9.220067723808e-04 
4.589424037333e-04 1.653135187845e-03 0.0 
1.653135187845e-03 4.977401279774e-03 0.0 
0.0 0.0 -1.049000704964e-03 
2.973758554341e-03 9.427311248993e-03 0.0 
9.427311248993e-03 -2.306977011525e-03 0.0 
0.0 0.0 -2.857635183498e-04 
-1.092933677572e-03 -5.430090234956e-06 0.0 
-5.430090234956e-06 7.417148133219e-03 0.0 
0.0 0.0 -1.228682347183e-03 
-2.597655749325e-04 -9.580958323714e-04 0.0 
-9.580958323714e-04 2.468405464320e-03 0.0 
0.0 0.0 -5.184025592846e-04 
7.996310671757e-04 -1.673259077578e-03 0.0 
-1.673259077578e-03 1.331089330141e-03 0.0 
0.0 0.0 -5.242929400402e-04 
6.225491085985e-04 -3.795023554271e-03 0.0 
-3.795023554271e-03 -3.025912025370e-04 0.0 
0.0 0.0 -1.371248168835e-04 
-1.341079611575e-03 4.984530224516e-04 0.0 
4.984530224516e-04 8.418558490732e-03 0.0 
0.0 0.0 -1.341079611575e-03 
4.707912006463e-03 4.560355600858e-03 0.0 
4.560355600858e-03 -3.631215607862e-03 0.0 
0.0 0.0 -3.670041082731e-04 
-8.304110180495e-04 -4.221744344172e-04 0.0 
-4.221744344172e-04 6.674619413990e-03 0.0 
0.0 0.0 -1.110501492391e-03 
-9.815143922996e-04 -1.301923920288e-04 0.0 
-1.301923920288e-04 5.716261133104e-03 0.0 
0.0 0.0 -8.555322119248e-04 
-5.211778943541e-04 -1.357561140200e-03 0.0 
-1.357561140200e-03 2.381396269316e-03 0.0 
0.0 0.0 -4.411586999297e-04 
2.591625604918e-03 -2.248352748092e-03 0.0 
-2.248352748092e-03 -6.934598204911e-04 0.0 
0.0 0.0 -4.964677435772e-04 
-9.740976170288e-04 2.668400150695e-04 0.0 
2.668400150695e-04 5.727433876448e-03 0.0 
0.0 0.0 -8.867075537039e-04 
-1.342259935407e-03 3.249478019742e-04 0.0 
3.249478019742e-04 8.304746317588e-03 0.0 
0.0 0.0 -1.342259935407e-03 
-8.513383339797e-04 -2.155531084130e-04 0.0 
-2.155531084130e-04 4.042684079104e-03 0.0 
0.0 0.0 -6.378868265889e-04 
-8.326579327741e-04 -6.269168235212e-04 0.0 
-6.269168235212e-04 5.839362625743e-03 0.0 
0.0 0.0 -9.693340058278e-04 
-5.387851224307e-04 1.131303557321e-03 0.0 
1.131303557321e-03 4.555560562686e-03 0.0 
0.0 0.0 -8.030799362305e-04 
8.415153696194e-04 -4.417814401770e-04 0.0 
-4.417814401770e-04 3.596955222059e-03 0.0 
0.0 0.0 -8.811160271665e-04 
4.030290854833e-03 -1.788058874942e-03 0.0 
-1.788058874942e-03 -1.888757634640e-03 0.0 
0.0 0.0 -5.326451291888e-04 
-7.517931783722e-04 -6.967384815080e-04 0.0 
-6.967384815080e-04 5.353981326588e-03 0.0 
0.0 0.0 -9.031726653527e-04 
-6.987473446338e-04 5.670435627873e-04 0.0 
5.670435627873e-04 4.675990642391e-03 0.0 
0.0 0.0 -7.729461360948e-04 
-6.025670494579e-04 7.568376900621e-04 0.0 
7.568376900621e-04 5.931309951602e-03 0.0 
0.0 0.0 -9.982497011217e-04 
7.433046871283e-04 1.055324064323e-03 0.0 
1.055324064323e-03 4.347688950629e-03 0.0 
0.0 0.0 -1.003134534203e-03 
-1.974427826124e-04 1.492489358930e-03 0.0 
1.492489358930e-03 3.970149122054e-03 0.0 
0.0 0.0 -7.676694601592e-04 
-7.429113511031e-04 -5.174574473206e-04 0.0 
-5.174574473206e-04 3.948133648233e-03 0.0 
0.0 0.0 -6.551190094499e-04 
2.197351159908e-03 5.181645834984e-03 0.0 
5.181645834984e-03 -2.498601007799e-04 0.0 
0.0 0.0 -4.640097282922e-04 
-8.062369115313e-04 -2.975304159245e-04 0.0 
-2.975304159245e-04 3.811084005570e-03 0.0 
0.0 0.0 -6.091269606258e-04 
8.132804166968e-04 1.689615414289e-03 0.0 
1.689615414289e-03 4.576068076037e-03 0.0 
0.0 0.0 -1.018204129641e-03 
3.062470323315e-03 1.593819968581e-03 0.0 
1.593819968581e-03 9.949764822007e-04 0.0 
0.0 0.0 -8.365169925761e-04 
-1.261002707828e-03 -7.504870971913e-05 0.0 
-7.504870971913e-05 8.505176480558e-03 0.0 
0.0 0.0 -1.321929620191e-03 
-1.247677519614e-03 1.094732648068e-04 0.0 
1.094732648068e-04 7.850453942976e-03 0.0 
0.0 0.0 -1.174325249119e-03 
-5.404813862772e-04 -9.466285983316e-04 0.0 
-9.466285983316e-04 2.223885193950e-03 0.0 
0.0 0.0 -4.069995479128e-04 
-1.341047338368e-03 7.540167646976e-05 0.0 
7.540167646976e-05 8.197352777791e-03 0.0 
0.0 0.0 -1.341047338368e-03 
-1.130691151971e-03 -1.784363264907e-05 0.0 
-1.784363264907e-05 8.053842301100e-03 0.0 
0.0 0.0 -1.266414110344e-03 
2.212363019646e-03 3.142632180988e-03 0.0 
3.142632180988e-03 1.192219491641e-03 0.0 
0.0 0.0 -7.237787631415e-04 
2.009989208011e-04 -1.907592109730e-03 0.0 
-1.907592109730e-03 4.308755365311e-05 0.0 
0.0 0.0 -1.046084890518e-04 
-1.265736625837e-03 -2.342234423567e-04 0.0 
-2.342234423567e-04 8.560274388960e-03 0.0 
0.0 0.0 -1.323469717371e-03 
-1.248103745975e-03 1.754263225543e-04 0.0 
1.754263225543e-04 7.767855351365e-03 0.0 
0.0 0.0 -1.167157861819e-03 
-2.136394964591e-04 -1.125987550409e-03 0.0 
-1.125987550409e-03 2.011703225588e-03 0.0 
0.0 0.0 -4.535238702637e-04 
-1.341709311525e-03 -1.537021795728e-04 0.0 
-1.537021795728e-04 8.247140811223e-03 0.0 
0.0 0.0 -1.341709311524e-03 
-8.340634901946e-04 -6.821178693031e-04 0.0 
-6.821178693031e-04 5.639816405277e-03 0.0 
0.0 0.0 -9.325599965574e-04 
-7.159156796781e-04 8.199594821406e-04 0.0 
8.199594821406e-04 3.747642167749e-03 0.0 
0.0 0.0 -6.229492605273e-04 
-9.690599654105e-04 4.302709909689e-04 0.0 
4.302709909689e-04 5.467189617691e-03 0.0 
0.0 0.0 -8.408860858065e-04 
3.808941095037e-03 1.796848869183e-03 0.0 
1.796848869183e-03 1.805791574776e-04 0.0 
0.0 0.0 -8.054665293395e-04 
-6.923438558252e-04 -8.520265330426e-04 0.0 
-8.520265330426e-04 4.695093275442e-03 0.0 
0.0 0.0 -8.008683130455e-04 
1.060604600914e-03 -1.377951902054e-04 0.0 
-1.377951902054e-04 3.600979113542e-03 0.0 
0.0 0.0 -9.181754741429e-04 
-1.093523269899e-03 7.798311719689e-05 0.0 
7.798311719689e-05 6.464920900132e-03 0.0 
0.0 0.0 -9.721028620036e-04 
-8.031200443167e-04 6.781379836070e-04 0.0 
6.781379836070e-04 4.309322447368e-03 0.0 
0.0 0.0 -6.945885048819e-04 
3.703339862360e-04 1.059406672189e-03 0.0 
1.059406672189e-03 4.957470074101e-03 0.0 
0.0 0.0 -1.039409037654e-03 
-9.955657075652e-04 -4.803366383391e-06 0.0 
-4.803366383391e-06 6.069270927012e-03 0.0 
0.0 0.0 -8.839498032872e-04 
-7.742968154824e-04 -8.517460638285e-04 0.0 
-8.517460638285e-04 4.014337168077e-03 0.0 
0.0 0.0 -6.521967345917e-04 
1.139447709542e-03 1.007903121967e-03 0.0 
1.007903121967e-03 3.721828595722e-03 0.0 
0.0 0.0 -9.664699797409e-04 
-3.659361313914e-04 -1.389777863593e-03 0.0 
-1.389777863593e-03 2.536314572587e-03 0.0 
0.0 0.0 -5.155438399970e-04 
-1.017459211522e-03 -2.035278755390e-04 0.0 
-2.035278755390e-04 5.749338419273e-03 0.0 
0.0 0.0 -9.093720595694e-04 
3.745925609274e-03 2.652238102615e-04 0.0 
2.652238102615e-04 -1.368401783636e-03 0.0 
0.0 0.0 -9.327150158756e-05 
1.311764905128e-03 4.184861453932e-03 0.0 
4.184861453932e-03 9.122903873703e-04 0.0 
0.0 0.0 -4.997308803768e-04 
-2.197271907825e-04 -1.464850303121e-03 0.0 
-1.464850303121e-03 2.145972680208e-03 0.0 
0.0 0.0 -4.875765080988e-04 
-8.614851687078e-04 -3.337722832802e-04 0.0 
-3.337722832802e-04 4.446512628758e-03 0.0 
0.0 0.0 -7.126562430121e-04 
1.425903664153e-03 2.750255791030e-03 0.0 
2.750255791030e-03 2.231022856780e-03 0.0 
0.0 0.0 -7.595228636782e-04 
-7.920931595490e-04 -2.649669687123e-04 0.0 
-2.649669687123e-04 5.573841345894e-03 0.0 
0.0 0.0 -9.350600278798e-04 
-1.013052504013e-03 -8.823570252137e-05 0.0 
-8.823570252137e-05 6.008966805305e-03 0.0 
0.0 0.0 -8.962969588583e-04 
-3.359179918489e-04 -1.568493616469e-03 0.0 
-1.568493616469e-03 2.089144442065e-03 0.0 
0.0 0.0 -4.505554202764e-04 
-1.341827844788e-03 -1.871667057256e-04 0.0 
-1.871667057256e-04 8.296019085882e-03 0.0 
0.0 0.0 -1.341827844788e-03 
-9.219930325587e-04 3.393896039245e-04 0.0 
3.393896039245e-04 5.591653643792e-03 0.0 
0.0 0.0 -8.789935771182e-04 
-9.115582794458e-04 -2.493035172872e-04 0.0 
-2.493035172872e-04 4.677595953812e-03 0.0 
0.0 0.0 -7.413896480605e-04 
-8.652400327000e-04 3.890590998056e-04 0.0 
3.890590998056e-04 5.305115327796e-03 0.0 
0.0 0.0 -8.436662038215e-04 
-8.817818309206e-04 -6.648690080579e-04 0.0 
-6.648690080579e-04 4.510392914982e-03 0.0 
0.0 0.0 -7.098625721848e-04 
2.059014573620e-04 1.411843442015e-06 0.0 
1.411843442015e-06 -6.176762814838e-05 0.0 
0.0 0.0 -6.177164109154e-05 
-1.015724792628e-03 8.235652516452e-05 0.0 
8.235652516452e-05 5.775865579893e-03 0.0 
0.0 0.0 -8.733545218784e-04 
-8.401387806922e-04 6.123016035238e-05 0.0 
6.123016035238e-05 3.850164849745e-03 0.0 
0.0 0.0 -5.956302995864e-04 
6.508068462586e-04 2.359263539345e-05 0.0 
2.359263539345e-05 -1.949961882191e-04 0.0 
0.0 0.0 -1.953474248741e-04 
-9.031369501237e-04 -1.865236162329e-04 0.0 
-1.865236162329e-04 4.464828183770e-03 0.0 
0.0 0.0 -7.041275119738e-04 
-8.760607814048e-04 -2.015865901798e-04 0.0 
-2.015865901798e-04 6.047567037496e-03 0.0 
0.0 0.0 -1.001254648526e-03 
-1.205696135514e-03 2.785240829935e-04 0.0 
2.785240829935e-04 7.656838420364e-03 0.0 
0.0 0.0 -1.146946825052e-03 
1.459185922873e-03 -2.207238023238e-04 0.0 
-2.207238023238e-04 2.800504633530e-03 0.0 
0.0 0.0 -8.532270185794e-04 
1.345095113790e-03 1.146036111814e-04 0.0 
1.146036111814e-04 3.039859599357e-03 0.0 
0.0 0.0 -8.841559964380e-04 
-9.029537400273e-04 7.141549008009e-05 0.0 
7.141549008009e-05 4.945239925053e-03 0.0 
0.0 0.0 -7.495231765994e-04 
-8.844827213453e-04 6.847338950964e-05 0.0 
6.847338950964e-05 4.625730514937e-03 0.0 
0.0 0.0 -7.312625299844e-04 
-1.286320179804e-03 2.788583147739e-04 0.0 
2.788583147739e-04 8.406193484283e-03 0.0 
0.0 0.0 -1.286111585339e-03 
-8.045597696771e-04 4.385655444655e-04 0.0 
4.385655444655e-04 5.012857215938e-03 0.0 
0.0 0.0 -8.082854548548e-04 
1.097197678498e-03 -1.832131349039e-05 0.0 
-1.832131349039e-05 -1.830079323218e-04 0.0 
0.0 0.0 -2.033593853694e-04 
-4.298982998579e-04 -6.269550114416e-04 0.0 
-6.269550114416e-04 1.549337747066e-03 0.0 
0.0 0.0 -2.569639750501e-04 
-5.557804512661e-05 -2.649152406900e-04 0.0 
-2.649152406900e-04 2.900758507811e-04 0.0 
0.0 0.0 -1.004990595662e-04 
-6.031978273067e-04 -1.007320967644e-03 0.0 
-1.007320967644e-03 2.552633295107e-03 0.0 
0.0 0.0 -4.284133232656e-04 
-1.039208503564e-03 4.033709622866e-04 0.0 
4.033709622866e-04 7.206299986429e-03 0.0 
0.0 0.0 -1.134523071099e-03 
-1.214790267536e-03 -1.094816465951e-04 0.0 
-1.094816465951e-04 7.712260942966e-03 0.0 
0.0 0.0 -1.144649651339e-03 
-1.087508141976e-03 -1.587001134092e-04 0.0 
-1.587001134092e-04 6.822768700719e-03 0.0 
0.0 0.0 -1.087427768671e-03 
-6.685965332887e-04 -7.845956287838e-04 0.0 
-7.845956287838e-04 2.990542570396e-03 0.0 
0.0 0.0 -4.827803379924e-04 
-1.041668217069e-03 -5.600095855462e-04 0.0 
-5.600095855462e-04 5.820984951314e-03 0.0 
0.0 0.0 -9.063168105748e-04 
-8.710337608251e-04 -2.808499388496e-05 0.0 
-2.808499388496e-05 6.840193428314e-03 0.0 
0.0 0.0 -1.142106164841e-03 
3.850648618370e-03 9.590135621257e-05 0.0 
9.590135621257e-05 -3.435918602939e-03 0.0 
0.0 0.0 -1.777414351845e-04 
-8.306874199400e-04 -2.997045909462e-04 0.0 
-2.997045909462e-04 3.873272421704e-03 0.0 
0.0 0.0 -5.942115541274e-04 
-6.956533125248e-04 1.124846661467e-04 0.0 
1.124846661467e-04 3.135833764917e-03 0.0 
0.0 0.0 -4.980019828625e-04 
-1.307918774452e-03 -2.672149718263e-04 0.0 
-2.672149718263e-04 8.583156667318e-03 0.0 
0.0 0.0 -1.322396863610e-03 
-1.341641872583e-03 -2.574400453278e-04 0.0 
-2.574400453278e-04 8.313092341430e-03 0.0 
0.0 0.0 -1.341641872583e-03 
-9.100844780323e-04 -2.535656636935e-04 0.0 
-2.535656636935e-04 4.283598396940e-03 0.0 
0.0 0.0 -6.580288049735e-04 
-9.226849417219e-04 -5.822088138657e-04 0.0 
-5.822088138657e-04 4.742725005737e-03 0.0 
0.0 0.0 -7.385580096348e-04 
-7.259593438489e-04 -4.081287369355e-04 0.0 
-4.081287369355e-04 4.909588067259e-03 0.0 
0.0 0.0 -8.323457052078e-04 
-9.678085162136e-04 9.653500947532e-06 0.0 
9.653500947532e-06 7.174960184332e-03 0.0 
0.0 0.0 -1.177278300149e-03 
-5.185769804223e-04 -3.082242823645e-04 0.0 
-3.082242823645e-04 1.649765607481e-03 0.0 
0.0 0.0 -2.880367495917e-04 
-8.883684981455e-04 -9.288450936401e-05 0.0 
-9.288450936401e-05 6.653864561982e-03 0.0 
0.0 0.0 -1.104707344597e-03 
-8.864038043830e-05 -1.638440655004e-05 0.0 
-1.638440655004e-05 9.863844244365e-04 0.0 
0.0 0.0 -1.612556504808e-04 
-8.754272683905e-04 -6.018300858025e-04 0.0 
-6.018300858025e-04 4.312432546832e-03 0.0 
0.0 0.0 -6.724657308136e-04 
-8.826884309659e-04 -7.176448192389e-04 0.0 
-7.176448192389e-04 4.701849927849e-03 0.0 
0.0 0.0 -7.470513223635e-04 
-3.546308527174e-05 5.679765794382e-06 0.0 
5.679765794382e-06 2.993710717870e-04 0.0 
0.0 0.0 -1.131034227923e-04 
-8.541374211011e-04 1.051307269510e-04 0.0 
1.051307269510e-04 4.063038016891e-03 0.0 
0.0 0.0 -6.267591816330e-04 
-1.242827358992e-03 4.579768759709e-04 0.0 
4.579768759709e-04 7.784562517271e-03 0.0 
0.0 0.0 -1.176862138969e-03 
9.778672530590e-04 8.602881120613e-06 0.0 
8.602881120613e-06 -1.106983414980e-04 0.0 
0.0 0.0 -2.155361047945e-04 
-8.702582028195e-04 1.105447853201e-04 0.0 
1.105447853201e-04 4.607072405037e-03 0.0 
0.0 0.0 -7.322753781719e-04 
-8.459002629386e-04 1.198690024363e-04 0.0 
1.198690024363e-04 4.870014320209e-03 0.0 
0.0 0.0 -7.130472889423e-04 
1.031193948744e-03 1.261631003232e-04 0.0 
1.261631003232e-04 3.855921497780e-03 0.0 
0.0 0.0 -9.552000144736e-04 
-6.940260095912e-04 -2.019223501579e-04 0.0 
-2.019223501579e-04 3.181147651246e-03 0.0 
0.0 0.0 -4.943513106837e-04 
-3.551699552599e-04 -1.046898701828e-03 0.0 
-1.046898701828e-03 2.386678131376e-03 0.0 
0.0 0.0 -4.817493388239e-04 
1.515816300627e-03 7.337058973136e-03 0.0 
7.337058973136e-03 -3.489753184472e-04 0.0 
0.0 0.0 -3.398054741319e-04 
-1.199955943827e-03 -1.286515075727e-04 0.0 
-1.286515075727e-04 7.503949585872e-03 0.0 
0.0 0.0 -1.180895453064e-03 
-1.276254635442e-03 4.715115445783e-04 0.0 
4.715115445783e-04 8.059382999082e-03 0.0 
0.0 0.0 -1.286194385238e-03 
-1.186217889961e-03 -6.749121568718e-05 0.0 
-6.749121568718e-05 7.409362913807e-03 0.0 
0.0 0.0 -1.101088927253e-03 
6.084818854279e-05 3.489053052451e-03 0.0 
3.489053052451e-03 1.907538087575e-03 0.0 
0.0 0.0 -4.457015571677e-04 
-3.190037393042e-04 -1.683187168607e-04 0.0 
-1.683187168607e-04 9.740026393816e-04 0.0 
0.0 0.0 -2.223875638571e-04 
-8.385442436262e-04 2.562372654306e-04 0.0 
2.562372654306e-04 4.497930936177e-03 0.0 
0.0 0.0 -6.999131133628e-04 
-8.425527780140e-04 3.452494000883e-05 0.0 
3.452494000883e-05 4.643700331840e-03 0.0 
0.0 0.0 -7.345111139194e-04 
-8.389403033821e-04 -1.305466340479e-06 0.0 
-1.305466340479e-06 4.908724598573e-03 0.0 
0.0 0.0 -7.144802219087e-04 
6.192684033868e-04 1.036861998732e-05 0.0 
1.036861998732e-05 -1.855619404806e-04 0.0 
0.0 0.0 -1.858741983884e-04 
-5.587289192583e-05 -6.452329894430e-06 0.0 
-6.452329894430e-06 2.977317204857e-04 0.0 
0.0 0.0 -1.036537836685e-04 
-1.659582098734e-04 -6.983629749951e-05 0.0 
-6.983629749951e-05 7.156238265913e-04 0.0 
0.0 0.0 -1.795416262981e-04 
-6.042827533110e-04 -3.178261870528e-04 0.0 
-3.178261870528e-04 2.298196668838e-03 0.0 
0.0 0.0 -3.820941496288e-04 
1.745656339544e-04 -6.881620967810e-06 0.0 
-6.881620967810e-06 5.205015129475e-04 0.0 
0.0 0.0 -1.430998070712e-04 
-9.621077650285e-04 9.743124488288e-05 0.0 
9.743124488288e-05 4.540703172736e-03 0.0 
0.0 0.0 -6.918148876825e-04 
5.097910799996e-04 -1.263010355508e-03 0.0 
-1.263010355508e-03 -5.097910799996e-04 0.0 
0.0 0.0 0.0 
-6.636885702572e-04 -3.632840591834e-04 0.0 
-3.632840591834e-04 2.727769964994e-03 0.0 
0.0 0.0 -4.482372226011e-04 
-1.037073112810e-03 8.416167581821e-05 0.0 
8.416167581821e-05 6.231636848545e-03 0.0 
0.0 0.0 -9.582560723523e-04 
-8.428951159850e-04 8.320649882269e-05 0.0 
8.320649882269e-05 4.895786071823e-03 0.0 
0.0 0.0 -7.120344407548e-04 
-1.176195464104e-03 2.727173431629e-04 0.0 
2.727173431629e-04 7.571205441829e-03 0.0 
0.0 0.0 -1.169483110168e-03 
-8.724458015179e-04 -2.535481835564e-04 0.0 
-2.535481835564e-04 5.840199633402e-03 0.0 
0.0 0.0 -9.641449249716e-04 
-9.956049472303e-04 9.460602026458e-05 0.0 
9.460602026458e-05 5.823804297189e-03 0.0 
0.0 0.0 -8.988447104697e-04 
-7.453270263773e-04 1.666868432523e-04 0.0 
1.666868432523e-04 3.393805001824e-03 0.0 
0.0 0.0 -5.269378630653e-04 
-6.611997545445e-05 -3.806127284770e-05 0.0 
-3.806127284770e-05 9.766559638682e-04 0.0 
0.0 0.0 -1.602995255322e-04 
-1.340974968048e-03 1.475163558745e-04 0.0 
1.475163558745e-04 8.789407210591e-03 0.0 
0.0 0.0 -1.340974968048e-03 
-1.353375445294e-03 1.861681106883e-04 0.0 
1.861681106883e-04 9.067632799309e-03 0.0 
0.0 0.0 -1.320295381545e-03 
-9.653313430370e-04 3.172946590342e-04 0.0 
3.172946590342e-04 5.653212768820e-03 0.0 
0.0 0.0 -8.588387843224e-04 
-8.723549553050e-04 3.791940437681e-05 0.0 
3.791940437681e-05 4.638744233564e-03 0.0 
0.0 0.0 -7.326073368541e-04 
-7.433675000171e-04 -1.881116571238e-04 0.0 
-1.881116571238e-04 3.464526545461e-03 0.0 
0.0 0.0 -5.314511797788e-04 
-1.343039576571e-03 1.116238935560e-04 0.0 
1.116238935560e-04 9.058435864628e-03 0.0 
0.0 0.0 -1.322576402756e-03 
-6.088517818817e-04 -7.427980185432e-04 0.0 
-7.427980185432e-04 2.573085079122e-03 0.0 
0.0 0.0 -4.166600706249e-04 
-8.421343191380e-04 8.947296271355e-05 0.0 
8.947296271355e-05 4.867861189812e-03 0.0 
0.0 0.0 -7.125614225629e-04 
-8.442475580862e-04 6.688277321944e-05 0.0 
6.688277321944e-05 4.629764896323e-03 0.0 
0.0 0.0 -7.312775522649e-04 
-8.183075665077e-04 4.944600713478e-04 0.0 
4.944600713478e-04 4.297011605974e-03 0.0 
0.0 0.0 -6.755779900756e-04 
-1.341823989366e-03 3.176700121755e-04 0.0 
3.176700121755e-04 8.755155514573e-03 0.0 
0.0 0.0 -1.341823989366e-03 
-1.316183787817e-03 1.764356624828e-04 0.0 
1.764356624828e-04 9.061441417317e-03 0.0 
0.0 0.0 -1.322582685247e-03 
1.706419388007e-04 -6.581066488368e-06 0.0 
-6.581066488368e-06 5.083643028934e-04 0.0 
0.0 0.0 -1.414504174366e-04 
6.309939820166e-04 1.077760164577e-05 0.0 
1.077760164577e-05 -1.891220602151e-04 0.0 
0.0 0.0 -1.893736807720e-04 
-4.260081866660e-04 -1.856958100474e-04 0.0 
-1.856958100474e-04 1.223914747001e-03 0.0 
0.0 0.0 -2.229509930541e-04 
-8.539532720431e-04 -3.709598021116e-04 0.0 
-3.709598021116e-04 4.637819177533e-03 0.0 
0.0 0.0 -7.497705102653e-04 
-1.319228459702e-03 1.823496012509e-04 0.0 
1.823496012509e-04 8.037185883931e-03 0.0 
0.0 0.0 -1.224669017856e-03 
0.0 0.0 0.0 
0.0 0.0 0.0 
0.0 0.0 0.0 
-1.164534197096e-03 -1.984727069524e-04 0.0 
-1.984727069524e-04 7.327097077271e-03 0.0 
0.0 0.0 -1.092518628634e-03 
2.882507163654e-04 -2.169595233652e-03 0.0 
-2.169595233652e-03 9.109665315107e-04 0.0 
0.0 0.0 -4.910348611402e-04 
9.056298425366e-04 1.834026832434e-04 0.0 
1.834026832434e-04 3.880755638521e-03 0.0 
0.0 0.0 -9.493083249531e-04 
9.402101273517e-04 -6.545392725122e-04 0.0 
-6.545392725122e-04 -1.079711033537e-04 0.0 
0.0 0.0 -3.563267299397e-04 
5.576657864143e-04 -4.882268606306e-03 0.0 
-4.882268606306e-03 -5.102161842563e-04 0.0 
0.0 0.0 -2.033554378198e-05 
7.565473667266e-04 -6.642527289381e-05 0.0 
-6.642527289381e-05 3.822143252026e-03 0.0 
0.0 0.0 -9.122568895951e-04 
-1.285900318349e-03 2.146352195215e-05 0.0 
2.146352195215e-05 7.759528202279e-03 0.0 
0.0 0.0 -1.192963836147e-03 
-1.029044917040e-03 -7.279636213487e-05 0.0 
-7.279636213487e-05 6.446740060124e-03 0.0 
0.0 0.0 -9.361271490834e-04 
-8.407421483093e-04 3.218859450769e-04 0.0 
3.218859450769e-04 4.639661762171e-03 0.0 
0.0 0.0 -7.268406435589e-04 
-3.072399208747e-05 -1.897210475410e-05 0.0 
-1.897210475410e-05 2.991997316549e-04 0.0 
0.0 0.0 -1.150610312432e-04 
-1.088521664505e-03 -4.986556758640e-04 0.0 
-4.986556758640e-04 6.052818965112e-03 0.0 
0.0 0.0 -9.349022313484e-04 
-1.337797817327e-03 2.888082420915e-05 0.0 
2.888082420915e-05 8.797778454419e-03 0.0 
0.0 0.0 -1.337797817327e-03 
-1.344206616167e-03 -8.091836582187e-05 0.0 
-8.091836582187e-05 9.064612422815e-03 0.0 
0.0 0.0 -1.322354755130e-03 
-8.386635614455e-04 6.856267782852e-05 0.0 
6.856267782852e-05 4.896920748213e-03 0.0 
0.0 0.0 -7.125764448434e-04 
8.104399827120e-04 3.870707816136e-04 0.0 
3.870707816136e-04 4.186109832505e-03 0.0 
0.0 0.0 -9.863757069361e-04 
-1.341607717199e-03 1.551401879936e-04 0.0 
1.551401879936e-04 8.810609962061e-03 0.0 
0.0 0.0 -1.341607717199e-03 
6.293132745483e-04 1.358231581585e-03 0.0 
1.358231581585e-03 4.895625584333e-03 0.0 
0.0 0.0 -1.046710270629e-03 
-7.224987108801e-05 2.416900893393e-05 0.0 
2.416900893393e-05 9.236508622773e-04 0.0 
0.0 0.0 -1.589907658001e-04 
1.844060408699e-04 -1.026478452949e-05 0.0 
-1.026478452949e-05 5.130263938471e-04 0.0 
0.0 0.0 -1.435574244405e-04 
-2.891409061342e-05 -3.272758998480e-05 0.0 
-3.272758998480e-05 3.203427987140e-04 0.0 
0.0 0.0 -1.200048127433e-04 
-8.246082063499e-04 1.600403801409e-04 0.0 
1.600403801409e-04 3.844559296729e-03 0.0 
0.0 0.0 -5.933358154923e-04 
-1.368440753648e-03 -2.847926622310e-04 0.0 
-2.847926622310e-04 8.814363085180e-03 0.0 
0.0 0.0 -1.322828574513e-03 
-1.280689091558e-03 -2.286632291646e-04 0.0 
-2.286632291646e-04 8.487923234130e-03 0.0 
0.0 0.0 -1.258329778789e-03 
6.349621625298e-04 -4.697468250592e-06 0.0 
-4.697468250592e-06 -1.903429257026e-04 0.0 
0.0 0.0 -1.905511014974e-04 
-9.449458894061e-04 -2.123271304103e-04 0.0 
-2.123271304103e-04 4.512069341782e-03 0.0 
0.0 0.0 -6.938761155152e-04 
-1.344798314370e-03 -1.247366253674e-04 0.0 
-1.247366253674e-04 8.595631148609e-03 0.0 
0.0 0.0 -1.344798314369e-03 
-1.373531731671e-03 -1.707869213026e-04 0.0 
-1.707869213026e-04 8.832402882049e-03 0.0 
0.0 0.0 -1.318785251170e-03 
-1.282177360506e-03 -3.124369979244e-04 0.0 
-3.124369979244e-04 8.610103347005e-03 0.0 
0.0 0.0 -1.321151187552e-03 
-1.113562773683e-03 2.219946434219e-04 0.0 
2.219946434219e-04 6.878878469590e-03 0.0 
0.0 0.0 -1.027148381742e-03 
-1.180769122149e-03 -2.135481498419e-04 0.0 
-2.135481498419e-04 7.573759840694e-03 0.0 
0.0 0.0 -1.125709525796e-03 
-1.338030260144e-03 -1.771563366243e-04 0.0 
-1.771563366243e-04 8.542675147626e-03 0.0 
0.0 0.0 -1.338030260144e-03 
-1.340754991027e-03 -2.390663127656e-04 0.0 
-2.390663127656e-04 8.545998822267e-03 0.0 
0.0 0.0 -1.340754991027e-03 
-1.152960594027e-03 1.859255734492e-04 0.0 
1.859255734492e-04 7.333872638941e-03 0.0 
0.0 0.0 -1.092518628634e-03 
1.049625050635e-03 6.117025337012e-05 0.0 
6.117025337012e-05 -2.119509719294e-04 0.0 
0.0 0.0 -1.922364166228e-04 
-8.216739313019e-04 1.642653897250e-05 0.0 
1.642653897250e-05 4.866544847831e-03 0.0 
0.0 0.0 -7.139539158865e-04 
-8.429301589013e-04 7.371775731573e-05 0.0 
7.371775731573e-05 4.924292125164e-03 0.0 
0.0 0.0 -7.133642253441e-04 
6.298357906822e-04 3.772371994862e-06 0.0 
3.772371994862e-06 -1.889003903836e-04 0.0 
0.0 0.0 -1.889723144137e-04 
-1.342313591240e-03 -2.893823135638e-04 0.0 
-2.893823135638e-04 8.501007321383e-03 0.0 
0.0 0.0 -1.342313591240e-03 
-1.327713446301e-03 -3.071447071229e-04 0.0 
-3.071447071229e-04 8.654446540322e-03 0.0 
0.0 0.0 -1.318355947622e-03 
-1.337959751097e-03 -3.069413126871e-04 0.0 
-3.069413126871e-04 8.377273660842e-03 0.0 
0.0 0.0 -1.337959751097e-03 
8.920864365363e-04 1.525468270778e-05 0.0 
1.525468270778e-05 -7.165861152886e-05 0.0 
0.0 0.0 -2.048947239038e-04 
9.862917684309e-04 1.302112461675e-05 0.0 
1.302112461675e-05 -1.024007083390e-04 0.0 
0.0 0.0 -2.172720339945e-04 
-1.340754991027e-03 -2.745211848364e-04 0.0 
-2.745211848364e-04 8.326750669152e-03 0.0 
0.0 0.0 -1.340754991027e-03 
-1.340396196526e-03 -3.177254258607e-04 0.0 
-3.177254258607e-04 8.348861196928e-03 0.0 
0.0 0.0 -1.340396196526e-03 
-1.100408733265e-03 -2.290747800904e-04 0.0 
-2.290747800904e-04 6.654648242085e-03 0.0 
0.0 0.0 -9.936726122374e-04 
-8.156679351147e-04 3.791493186346e-05 0.0 
3.791493186346e-05 4.866771241895e-03 0.0 
0.0 0.0 -7.124851972278e-04 
-1.126282978383e-03 -2.242329370711e-04 0.0 
-2.242329370711e-04 7.103431173965e-03 0.0 
0.0 0.0 -1.060142436171e-03 
-9.808195587630e-04 -2.230997408213e-04 0.0 
-2.230997408213e-04 5.708119715060e-03 0.0 
0.0 0.0 -8.626607521899e-04 
-7.941305620824e-04 1.551089981454e-05 0.0 
1.551089981454e-05 4.869359917574e-03 0.0 
0.0 0.0 -7.121912678902e-04 
1.121313583480e-03 -1.134292907524e-05 0.0 
-1.134292907524e-05 -1.641055914020e-04 0.0 
0.0 0.0 -2.108163462707e-04 
1.276480546197e-03 -4.536569978280e-05 0.0 
-4.536569978280e-05 -1.846615708429e-04 0.0 
0.0 0.0 -2.289031868966e-04 
1.902553973518e-03 -7.413571407527e-05 0.0 
-7.413571407527e-05 -4.969700240521e-04 0.0 
0.0 0.0 -2.031850220858e-04 
2.381598372177e-03 2.678080461779e-05 0.0 
2.678080461779e-05 -6.866562251985e-04 0.0 
0.0 0.0 -2.031731645868e-04 
-9.875526380001e-04 1.999683647263e-04 0.0 
1.999683647263e-04 4.756922496595e-03 0.0 
0.0 0.0 -7.271325101417e-04 
-9.022422993743e-04 1.689219604000e-04 0.0 
1.689219604000e-04 4.293373185727e-03 0.0 
0.0 0.0 -6.600769387058e-04 
4.840920927301e-04 -1.594780846372e-05 0.0 
-1.594780846372e-05 -1.451369305806e-04 0.0 
0.0 0.0 -1.452664980641e-04 
-1.139432736752e-03 1.969596473993e-04 0.0 
1.969596473993e-04 6.092355855196e-03 0.0 
0.0 0.0 -9.221709323543e-04 
1.291773511159e-03 -1.721812267499e-05 0.0 
-1.721812267499e-05 -4.329621644438e-04 0.0 
0.0 0.0 -2.814480184783e-04 
-1.341471640605e-03 2.821656468085e-04 0.0 
2.821656468085e-04 8.748357117342e-03 0.0 
0.0 0.0 -1.341471640605e-03 
-1.340968685557e-03 1.312437350478e-04 0.0 
1.312437350478e-04 8.782913575074e-03 0.0 
0.0 0.0 -1.340968685557e-03 
-1.339320413496e-03 1.880713074898e-04 0.0 
1.880713074898e-04 8.789181418084e-03 0.0 
0.0 0.0 -1.339320413496e-03 
-2.891904725790e-04 2.036868385329e-04 0.0 
2.036868385329e-04 1.487086439737e-03 0.0 
0.0 0.0 -2.599136149544e-04 
-6.430141663801e-04 1.708121578067e-04 0.0 
1.708121578067e-04 2.925097320677e-03 0.0 
0.0 0.0 -4.607467809507e-04 
-1.337132911908e-03 8.989218137943e-05 0.0 
8.989218137943e-05 8.798780956338e-03 0.0 
0.0 0.0 -1.337132911908e-03 
-1.268709771428e-03 1.750290220288e-04 0.0 
1.750290220288e-04 7.410750387042e-03 0.0 
0.0 0.0 -1.124956933753e-03 
-1.344556937803e-03 5.420067643192e-05 0.0 
5.420067643192e-05 8.841140369170e-03 0.0 
0.0 0.0 -1.344556937803e-03 
-1.309963082983e-03 1.898374887779e-04 0.0 
1.898374887779e-04 7.848623061347e-03 0.0 
0.0 0.0 -1.192538251246e-03 
-1.338506523092e-03 2.196897297750e-04 0.0 
2.196897297750e-04 8.286254789378e-03 0.0 
0.0 0.0 -1.259905836238e-03 
-8.634449756302e-04 -2.267992264203e-04 0.0 
-2.267992264203e-04 4.063283112415e-03 0.0 
0.0 0.0 -6.267460875326e-04 
-1.354536289335e-03 7.630110527829e-05 0.0 
7.630110527829e-05 9.083283423121e-03 0.0 
0.0 0.0 -1.318101597465e-03 
-1.353127036110e-03 2.052350059942e-04 0.0 
2.052350059942e-04 9.070380165704e-03 0.0 
0.0 0.0 -1.321689849711e-03 
-1.286890123680e-03 -2.394731622084e-04 0.0 
-2.394731622084e-04 7.571755325092e-03 0.0 
0.0 0.0 -1.157495185000e-03 
-1.323365826623e-03 -2.403819852103e-04 0.0 
-2.403819852103e-04 8.033634754339e-03 0.0 
0.0 0.0 -1.225777420818e-03 
-1.161453211646e-03 -3.736884005785e-04 0.0 
-3.736884005785e-04 6.493225178424e-03 0.0 
0.0 0.0 -9.925156490314e-04 
0.0 0.0 0.0 
0.0 0.0 0.0 
0.0 0.0 0.0 
-8.671818712195e-04 -5.363828857818e-04 0.0 
-5.363828857818e-04 4.105500038503e-03 0.0 
0.0 0.0 -6.350241097613e-04 
1.538446466672e-04 -5.196602102228e-05 0.0 
-5.196602102228e-05 5.032465276658e-04 0.0 
0.0 0.0 -1.372732375194e-04 
-1.212742551210e-03 -4.759587518373e-04 0.0 
-4.759587518373e-04 7.564630454968e-03 0.0 
0.0 0.0 -1.177819030284e-03 
-8.605651419967e-04 -2.779235020759e-04 0.0 
-2.779235020759e-04 4.247159815615e-03 0.0 
0.0 0.0 -6.753691525988e-04 
-1.209845026625e-03 -3.828065324347e-05 0.0 
-3.828065324347e-05 7.089490121300e-03 0.0 
0.0 0.0 -1.099016898379e-03 
-5.359685570494e-04 -6.677092728244e-04 0.0 
-6.677092728244e-04 2.153205781578e-03 0.0 
0.0 0.0 -3.504775146279e-04 
-1.805242587165e-04 1.222080852242e-05 0.0 
1.222080852242e-05 7.550645308543e-04 0.0 
0.0 0.0 -1.735952156319e-04 
-1.264456075116e-03 -3.850163355986e-04 0.0 
-3.850163355986e-04 7.592925326403e-03 0.0 
0.0 0.0 -1.161668299909e-03 
-9.012428398998e-04 -5.241478665253e-04 0.0 
-5.241478665253e-04 4.532812848754e-03 0.0 
0.0 0.0 -7.012080445024e-04 
-8.068122859681e-04 1.121430841948e-04 0.0 
1.121430841948e-04 3.618999234990e-03 0.0 
0.0 0.0 -5.611363230934e-04 
-1.221373729773e-03 -3.971185644326e-04 0.0 
-3.971185644326e-04 7.158861497178e-03 0.0 
0.0 0.0 -1.096102707776e-03 
-1.225888037185e-03 2.356398892211e-04 0.0 
2.356398892211e-04 7.926332987898e-03 0.0 
0.0 0.0 -1.188907866872e-03 
-7.850590963075e-04 -2.211249008548e-04 0.0 
-2.211249008548e-04 3.627921543623e-03 0.0 
0.0 0.0 -5.602736785587e-04 
-9.153466014746e-04 -5.672710459790e-04 0.0 
-5.672710459790e-04 6.328544019957e-03 0.0 
0.0 0.0 -1.035646790376e-03 
-9.544485914901e-04 -2.692006228927e-04 0.0 
-2.692006228927e-04 5.706833288183e-03 0.0 
0.0 0.0 -9.181742748318e-04 
-1.151482432891e-03 -1.721733511891e-05 0.0 
-1.721733511891e-05 6.426989542900e-03 0.0 
0.0 0.0 -9.952786863929e-04 
-1.189685403522e-03 2.186394532171e-05 0.0 
2.186394532171e-05 6.656907816596e-03 0.0 
0.0 0.0 -1.024224580100e-03 
6.103443098681e-03 2.977649085578e-03 0.0 
2.977649085578e-03 -3.744379709065e-03 0.0 
0.0 0.0 -5.788817793163e-04 
-8.005376655691e-04 3.171132398136e-04 0.0 
3.171132398136e-04 4.241491794382e-03 0.0 
0.0 0.0 -6.651338130661e-04 
1.157917882895e-03 2.513044004647e-03 0.0 
2.513044004647e-03 2.487068758186e-03 0.0 
0.0 0.0 -7.293057621918e-04 
-1.068839531754e-03 -1.396982746719e-04 0.0 
-1.396982746719e-04 5.983670003937e-03 0.0 
0.0 0.0 -9.378562126457e-04 
-1.253909417431e-03 -3.654180260376e-04 0.0 
-3.654180260376e-04 7.384129283890e-03 0.0 
0.0 0.0 -1.125100902632e-03 
-1.223048658493e-03 8.194922759041e-05 0.0 
8.194922759041e-05 6.885373196445e-03 0.0 
0.0 0.0 -1.053755873404e-03 
-5.843499511654e-04 -7.478811802874e-04 0.0 
-7.478811802874e-04 2.078474299742e-03 0.0 
0.0 0.0 -3.685493992842e-04 
-1.215420929976e-03 2.914568716421e-04 0.0 
2.914568716421e-04 7.912104441246e-03 0.0 
0.0 0.0 -1.183514100502e-03 
-1.184839979766e-03 2.716593684437e-04 0.0 
2.716593684437e-04 7.456605698874e-03 0.0 
0.0 0.0 -1.117084069417e-03 
-9.160676408920e-04 2.566629763439e-04 0.0 
2.566629763439e-04 5.389449650205e-03 0.0 
0.0 0.0 -8.110481619253e-04 
-1.072043250355e-03 -1.594447290691e-04 0.0 
-1.594447290691e-04 6.194419037886e-03 0.0 
0.0 0.0 -9.753747863247e-04 
-1.113512703567e-03 -7.830874303778e-05 0.0 
-7.830874303778e-05 6.209473753146e-03 0.0 
0.0 0.0 -9.665592132828e-04 
-1.247553885459e-03 -1.638883659802e-04 0.0 
-1.638883659802e-04 8.032779373469e-03 0.0 
0.0 0.0 -1.185362187646e-03 
-1.209218779800e-03 2.395415248872e-04 0.0 
2.395415248872e-04 7.733666527183e-03 0.0 
0.0 0.0 -1.150972777267e-03 
-9.235989750770e-04 -6.984337716094e-04 0.0 
-6.984337716094e-04 5.520417486699e-03 0.0 
0.0 0.0 -8.866930489607e-04 
-1.284523920474e-03 -3.501071659254e-04 0.0 
-3.501071659254e-04 7.805517890163e-03 0.0 
0.0 0.0 -1.190872049285e-03 
-1.177897572884e-03 3.138623603337e-04 0.0 
3.138623603337e-04 7.354283994280e-03 0.0 
0.0 0.0 -1.103416240745e-03 
-1.224145241381e-03 -2.616286438841e-04 0.0 
-2.616286438841e-04 6.885317791912e-03 0.0 
0.0 0.0 -1.053748284807e-03 
-1.251504070725e-03 -4.981478354757e-04 0.0 
-4.981478354757e-04 7.817749108824e-03 0.0 
0.0 0.0 -1.210017230578e-03 
-1.240161038229e-03 -1.265963501437e-04 0.0 
-1.265963501437e-04 7.971776447579e-03 0.0 
0.0 0.0 -1.181737430652e-03 
-1.104792332721e-03 -1.417124884619e-04 0.0 
-1.417124884619e-04 6.803117520475e-03 0.0 
0.0 0.0 -1.011817915138e-03 
-9.092260506378e-04 -6.128458239001e-04 0.0 
-6.128458239001e-04 6.116526816133e-03 0.0 
0.0 0.0 -9.985655989919e-04 
-5.244393316962e-04 -3.327701467057e-07 0.0 
-3.327701467057e-07 2.217192403788e-03 0.0 
0.0 0.0 -3.644364776638e-04 
-5.557520001356e-04 -9.492103982614e-04 0.0 
-9.492103982614e-04 1.854328414375e-03 0.0 
0.0 0.0 -3.414758422231e-04 
-2.976977379688e-04 -4.729019177062e-04 0.0 
-4.729019177062e-04 1.065430610337e-03 0.0 
0.0 0.0 -1.876370064529e-04 
-1.394869518500e-05 -5.836024776206e-04 0.0 
-5.836024776206e-04 3.988673203720e-04 0.0 
0.0 0.0 -1.649651250801e-04 
-1.208849354757e-03 -1.442002111852e-04 0.0 
-1.442002111852e-04 7.751975943977e-03 0.0 
0.0 0.0 -1.150998037120e-03 
-1.270626804187e-03 5.625887811154e-05 0.0 
5.625887811154e-05 7.521765115722e-03 0.0 
0.0 0.0 -1.156839719840e-03 
-1.128430539847e-04 -4.533921113002e-04 0.0 
-4.533921113002e-04 5.125802596057e-04 0.0 
0.0 0.0 -1.512448671109e-04 
-1.224260673069e-03 1.930240191298e-04 0.0 
1.930240191298e-04 7.672098389018e-03 0.0 
0.0 0.0 -1.160298666437e-03 
-9.269777591648e-04 2.462098102623e-04 0.0 
2.462098102623e-04 5.566246555216e-03 0.0 
0.0 0.0 -8.436798659344e-04 
-1.183821186611e-03 -4.510450975400e-04 0.0 
-4.510450975400e-04 6.938898886609e-03 0.0 
0.0 0.0 -1.067477449466e-03 
-1.234042430495e-03 4.386686661325e-05 0.0 
4.386686661325e-05 7.085000705368e-03 0.0 
0.0 0.0 -1.090430023688e-03 
-4.688031105262e-04 -9.449998288247e-04 0.0 
-9.449998288247e-04 2.708853865005e-03 0.0 
0.0 0.0 -5.090628918580e-04 
-1.241127751091e-03 -3.232486977457e-04 0.0 
-3.232486977457e-04 7.146083644213e-03 0.0 
0.0 0.0 -1.087955833448e-03 
-9.128116180444e-04 -2.432084876036e-04 0.0 
-2.432084876036e-04 5.398327604704e-03 0.0 
0.0 0.0 -8.100176300978e-04 
7.862282237840e-04 6.557093820417e-04 0.0 
6.557093820417e-04 4.394444390950e-03 0.0 
0.0 0.0 -1.000388816061e-03 
-1.275643571196e-03 -3.853184117788e-05 0.0 
-3.853184117788e-05 7.999890426169e-03 0.0 
0.0 0.0 -1.242964905849e-03 
-4.891437223720e-04 4.195566496952e-05 0.0 
4.195566496952e-05 2.125578513997e-03 0.0 
0.0 0.0 -3.542437553904e-04 
-1.232067324065e-03 -4.786069064869e-04 0.0 
-4.786069064869e-04 7.807210147599e-03 0.0 
0.0 0.0 -1.215045542354e-03 
-1.132051344136e-03 -1.297668119058e-04 0.0 
-1.297668119058e-04 7.059354268222e-03 0.0 
0.0 0.0 -1.048288725887e-03 
-5.597857793191e-04 4.639966247623e-05 0.0 
4.639966247623e-05 2.420049368412e-03 0.0 
0.0 0.0 -3.930611257745e-04 
-5.609737831535e-04 -1.192047374110e-03 0.0 
-1.192047374110e-03 2.290088636828e-03 0.0 
0.0 0.0 -4.034900192350e-04 
-1.019435653485e-03 2.510797196313e-05 0.0 
2.510797196313e-05 5.114500101547e-03 0.0 
0.0 0.0 -7.909606353592e-04 
-1.046153520856e-03 2.672543322815e-04 0.0 
2.672543322815e-04 6.254372891690e-03 0.0 
0.0 0.0 -9.409807611877e-04 
-7.501439557545e-04 -2.986549649001e-04 0.0 
-2.986549649001e-04 3.375633566619e-03 0.0 
0.0 0.0 -5.429771841545e-04 
-1.160690986180e-03 -1.496920489451e-04 0.0 
-1.496920489451e-04 7.303854633305e-03 0.0 
0.0 0.0 -1.085119818393e-03 
-1.069476201499e-03 -1.757346183128e-04 0.0 
-1.757346183128e-04 6.567285104211e-03 0.0 
0.0 0.0 -9.816794289629e-04 
-9.579280571301e-04 -1.773255598002e-04 0.0 
-1.773255598002e-04 4.907486764764e-03 0.0 
0.0 0.0 -7.700930343086e-04 
-1.202171244896e-03 -3.172466399621e-04 0.0 
-3.172466399621e-04 6.703539097156e-03 0.0 
0.0 0.0 -1.021757709120e-03 
-1.211296574698e-03 -3.721899322367e-04 0.0 
-3.721899322367e-04 6.940479911899e-03 0.0 
0.0 0.0 -1.058696934625e-03 
-1.135291475184e-03 2.700006977273e-04 0.0 
2.700006977273e-04 6.997454425646e-03 0.0 
0.0 0.0 -1.050681058959e-03 
-4.173596233207e-04 -3.503884104976e-04 0.0 
-3.503884104976e-04 1.875894239502e-03 0.0 
0.0 0.0 -3.058749225436e-04 
-9.447771700352e-04 -1.262936496125e-04 0.0 
-1.262936496125e-04 4.694024374325e-03 0.0 
0.0 0.0 -7.328582426338e-04 
-5.393827967199e-04 7.528286044353e-04 0.0 
7.528286044353e-04 6.493175523751e-03 0.0 
0.0 0.0 -1.141128458404e-03 
-1.159905672637e-03 -1.212910240168e-04 0.0 
-1.212910240168e-04 7.261813298966e-03 0.0 
0.0 0.0 -1.078198857115e-03 
-8.846237530489e-04 -1.118837918711e-04 0.0 
-1.118837918711e-04 4.234828904613e-03 0.0 
0.0 0.0 -6.666835465145e-04 
-9.866099674588e-04 -6.396910670883e-04 0.0 
-6.396910670883e-04 5.776957758952e-03 0.0 
0.0 0.0 -9.153036164073e-04 
-1.180273166295e-03 -5.195576023231e-04 0.0 
-5.195576023231e-04 7.573511676705e-03 0.0 
0.0 0.0 -1.187586327529e-03 
-1.090487437882e-03 2.486631283317e-04 0.0 
2.486631283317e-04 6.750183946417e-03 0.0 
0.0 0.0 -1.013969106439e-03 
1.765728548003e-03 -9.104636418774e-04 0.0 
-9.104636418774e-04 -1.734813682791e-03 0.0 
0.0 0.0 -1.324922794790e-05 
-2.207289874608e-04 -3.235795152871e-04 0.0 
-3.235795152871e-04 1.003256593638e-03 0.0 
0.0 0.0 -1.835536028976e-04 
5.023951531325e-03 -2.613581296178e-05 0.0 
-2.613581296178e-05 -4.168283395557e-03 0.0 
0.0 0.0 -3.667149153293e-04 
-1.247686431213e-03 1.804464591039e-05 0.0 
1.804464591039e-05 7.316811787833e-03 0.0 
0.0 0.0 -1.127837695838e-03 
-1.073532930030e-03 2.556328204713e-04 0.0 
2.556328204713e-04 6.504084694261e-03 0.0 
0.0 0.0 -9.775003154318e-04 
-1.065496431756e-03 -3.247503852032e-04 0.0 
-3.247503852032e-04 5.643495466523e-03 0.0 
0.0 0.0 -8.513051444990e-04 
-9.769664875946e-04 2.379062424114e-04 0.0 
2.379062424114e-04 5.801214914582e-03 0.0 
0.0 0.0 -8.745614812816e-04 
-1.019950067796e-03 -4.586219499737e-04 0.0 
-4.586219499737e-04 7.042194348422e-03 0.0 
0.0 0.0 -1.139196670502e-03 
-1.001595776578e-03 -1.032368991806e-04 0.0 
-1.032368991806e-04 5.128573561517e-03 0.0 
0.0 0.0 -7.988714448434e-04 
-1.198933731184e-03 -2.304563849884e-06 0.0 
-2.304563849884e-06 6.870961844438e-03 0.0 
0.0 0.0 -1.061632825506e-03 
-4.894390167554e-04 -2.936556089740e-04 0.0 
-2.936556089740e-04 2.281659796893e-03 0.0 
0.0 0.0 -3.615122310665e-04 
-1.252320573339e-03 -4.986115071304e-05 0.0 
-4.986115071304e-05 7.805865228042e-03 0.0 
0.0 0.0 -1.211531131004e-03 
-9.705690281363e-04 -5.093762920131e-04 0.0 
-5.093762920131e-04 4.972659776742e-03 0.0 
0.0 0.0 -7.673127347790e-04 
-5.395948498915e-04 -2.749809582872e-04 0.0 
-2.749809582872e-04 2.502960479934e-03 0.0 
0.0 0.0 -3.889166325194e-04 
-9.539878925134e-04 -4.665681980887e-04 0.0 
-4.665681980887e-04 4.746329446601e-03 0.0 
0.0 0.0 -7.311132045151e-04 
-7.861451495527e-04 -2.221214863257e-04 0.0 
-2.221214863257e-04 3.593397886981e-03 0.0 
0.0 0.0 -5.716673668464e-04 
-6.390151670991e-04 -6.536657789763e-04 0.0 
-6.536657789763e-04 2.791763486177e-03 0.0 
0.0 0.0 -4.452767020142e-04 
-1.072653987371e-03 2.886861907429e-05 0.0 
2.886861907429e-05 5.536656976787e-03 0.0 
0.0 0.0 -8.564950983273e-04 
7.011333972876e-04 4.901845575090e-05 0.0 
4.901845575090e-05 -2.097108200401e-04 0.0 
0.0 0.0 -2.106096759632e-04 
7.979355739789e-04 -9.483522202316e-06 0.0 
-9.483522202316e-06 -2.387642542255e-04 0.0 
0.0 0.0 -2.396448513229e-04 
-1.129321225881e-03 -4.366761249298e-04 0.0 
-4.366761249298e-04 6.278524906094e-03 0.0 
0.0 0.0 -9.636005660098e-04 
-4.459230001805e-04 -3.109429784165e-04 0.0 
-3.109429784165e-04 2.087500805873e-03 0.0 
0.0 0.0 -3.336449385292e-04 
-1.093345380725e-03 -5.267841385720e-04 0.0 
-5.267841385720e-04 6.263877748210e-03 0.0 
0.0 0.0 -9.724388998540e-04 
-1.043259012928e-03 -5.809617148742e-04 0.0 
-5.809617148742e-04 6.025832941714e-03 0.0 
0.0 0.0 -9.438473481109e-04 
-7.593501897991e-04 -4.626236543671e-04 0.0 
-4.626236543671e-04 3.770567817408e-03 0.0 
0.0 0.0 -6.177757646845e-04 
-3.406532554668e-04 -1.201349069570e-03 0.0 
-1.201349069570e-03 1.971960000255e-03 0.0 
0.0 0.0 -4.162223005415e-04 
-1.210770017431e-03 -8.268587528124e-05 0.0 
-8.268587528124e-05 7.661732423863e-03 0.0 
0.0 0.0 -1.137719822027e-03 
3.651929440991e-03 6.031014171280e-03 0.0 
6.031014171280e-03 -3.442271079033e-03 0.0 
0.0 0.0 -8.985358369644e-05 
-8.285748112363e-04 -1.587478080269e-04 0.0 
-1.587478080269e-04 3.819529826762e-03 0.0 
0.0 0.0 -6.004815939294e-04 
-1.049679539983e-03 -3.693865297614e-04 0.0 
-3.693865297614e-04 7.240151455212e-03 0.0 
0.0 0.0 -1.175533656463e-03 
-3.983359874590e-04 4.184586300730e-05 0.0 
4.184586300730e-05 1.714439103962e-03 0.0 
0.0 0.0 -2.977570873278e-04 
-1.020229649597e-03 -1.375914676709e-04 0.0 
-1.375914676709e-04 6.101662351483e-03 0.0 
0.0 0.0 -9.088859120638e-04 
-9.450324784718e-04 -1.832830397253e-04 0.0 
-1.832830397253e-04 5.623770961517e-03 0.0 
0.0 0.0 -8.416286270284e-04 
-4.351237697250e-04 -5.540829146340e-04 0.0 
-5.540829146340e-04 1.723099038299e-03 0.0 
0.0 0.0 -2.842394630762e-04 
-1.127395628762e-03 -5.008482085009e-04 0.0 
-5.008482085009e-04 7.317936875090e-03 0.0 
0.0 0.0 -1.158722036769e-03 
-1.133506044246e-03 -8.767361897690e-05 0.0 
-8.767361897690e-05 6.959505034578e-03 0.0 
0.0 0.0 -1.034898561726e-03 
-4.951489600236e-04 -4.786425625421e-05 0.0 
-4.786425625421e-05 2.022039619189e-03 0.0 
0.0 0.0 -3.364655670308e-04 
-1.234708714507e-03 -3.925269914933e-05 0.0 
-3.925269914933e-05 7.851562311589e-03 0.0 
0.0 0.0 -1.166520446339e-03 
-1.230308234664e-03 3.090146298482e-04 0.0 
3.090146298482e-04 7.789607374426e-03 0.0 
0.0 0.0 -1.169001632583e-03 
-5.233675107163e-04 -4.314455861334e-04 0.0 
-4.314455861334e-04 2.327927411805e-03 0.0 
0.0 0.0 -3.701904734684e-04 
-5.367922094819e-04 1.000501350308e-03 0.0 
1.000501350308e-03 2.749526021045e-03 0.0 
0.0 0.0 -4.801335248058e-04 
-5.599793527513e-04 -5.941268921314e-04 0.0 
-5.941268921314e-04 2.361270480637e-03 0.0 
0.0 0.0 -3.791106726259e-04 
-1.172251179922e-03 -4.180665988864e-04 0.0 
-4.180665988864e-04 6.718010438057e-03 0.0 
0.0 0.0 -1.029923508343e-03 
-1.041340644124e-03 -3.282174640750e-05 0.0 
-3.282174640750e-05 5.343281569417e-03 0.0 
0.0 0.0 -8.276368238623e-04 
-1.238338552958e-03 5.129188831146e-04 0.0 
5.129188831146e-04 7.705442663502e-03 0.0 
0.0 0.0 -1.169529464977e-03 
-1.205798657677e-03 3.040238914407e-04 0.0 
3.040238914407e-04 7.606656415098e-03 0.0 
0.0 0.0 -1.140030709108e-03 
-1.136504455291e-03 -4.715376891294e-04 0.0 
-4.715376891294e-04 6.495059726217e-03 0.0 
0.0 0.0 -1.001167767022e-03 
-1.120337032388e-03 -1.059796522353e-04 0.0 
-1.059796522353e-04 6.426005632212e-03 0.0 
0.0 0.0 -1.004093472296e-03 
-5.274441073591e-04 -2.397572524931e-04 0.0 
-2.397572524931e-04 1.862294635062e-03 0.0 
0.0 0.0 -3.158693332420e-04 
-1.161634108540e-03 -5.320117127017e-05 0.0 
-5.320117127017e-05 6.648981173758e-03 0.0 
0.0 0.0 -1.032853941699e-03 
-1.125917341076e-03 2.991763443149e-04 0.0 
2.991763443149e-04 6.905438798140e-03 0.0 
0.0 0.0 -1.037144748481e-03 
-1.044631038411e-03 -3.631995376833e-04 0.0 
-3.631995376833e-04 5.407625222663e-03 0.0 
0.0 0.0 -8.248712778174e-04 
-1.078523674622e-03 -1.304712665821e-04 0.0 
-1.304712665821e-04 6.557738951195e-03 0.0 
0.0 0.0 -9.752741834901e-04 
-1.159347625089e-03 -9.624416522510e-05 0.0 
-9.624416522510e-05 7.210996352120e-03 0.0 
0.0 0.0 -1.071415751597e-03 
4.587817445506e-03 2.721428509665e-03 0.0 
2.721428509665e-03 -1.116756651442e-03 0.0 
0.0 0.0 -7.435371925968e-04 
-1.181769783394e-03 2.863535825742e-04 0.0 
2.863535825742e-04 7.408927706841e-03 0.0 
0.0 0.0 -1.110258267496e-03 
-9.356896319010e-04 -4.816204734149e-05 0.0 
-4.816204734149e-05 4.523878489702e-03 0.0 
0.0 0.0 -6.965171720950e-04 
-1.013439798328e-03 -4.389789435164e-04 0.0 
-4.389789435164e-04 5.194362623047e-03 0.0 
0.0 0.0 -7.960639764766e-04 
-7.588476473929e-04 -1.047638361378e-04 0.0 
-1.047638361378e-04 3.390478407872e-03 0.0 
0.0 0.0 -5.342291996904e-04 
-6.729613587978e-04 -9.978092115441e-04 0.0 
-9.978092115441e-04 3.336051263368e-03 0.0 
0.0 0.0 -5.581583723280e-04 
-1.100329888420e-03 2.776105336716e-04 0.0 
2.776105336716e-04 6.705832396393e-03 0.0 
0.0 0.0 -1.007339817349e-03 
-7.155066052029e-04 -8.941200741794e-04 0.0 
-8.941200741794e-04 4.520636252880e-03 0.0 
0.0 0.0 -7.637833264599e-04 
-5.880444497108e-04 -5.324378047215e-04 0.0 
-5.324378047215e-04 2.570561499900e-03 0.0 
0.0 0.0 -4.077494273363e-04 
-3.167379964521e-04 -3.896430801043e-04 0.0 
-3.896430801043e-04 1.286713823890e-03 0.0 
0.0 0.0 -2.185673950299e-04 
-1.104743277708e-03 -1.081634182050e-04 0.0 
-1.081634182050e-04 6.759513962222e-03 0.0 
0.0 0.0 -1.005115000480e-03 
-6.259157449930e-04 -2.410202634238e-04 0.0 
-2.410202634238e-04 2.506664290233e-03 0.0 
0.0 0.0 -4.107160730352e-04 
-1.199872170886e-03 -1.045804178386e-04 0.0 
-1.045804178386e-04 7.736983325214e-03 0.0 
0.0 0.0 -1.218716866995e-03 
-1.124972404341e-03 2.718592290333e-04 0.0 
2.718592290333e-04 6.955187210285e-03 0.0 
0.0 0.0 -1.043883448597e-03 
-1.171061824699e-03 -7.858396141652e-05 0.0 
-7.858396141652e-05 6.870002089505e-03 0.0 
0.0 0.0 -1.070373463590e-03 
-1.223592225032e-03 -6.654680312814e-05 0.0 
-6.654680312814e-05 7.796071319491e-03 0.0 
0.0 0.0 -1.284729618418e-03 
-8.862225412837e-04 -4.776674958030e-04 0.0 
-4.776674958030e-04 4.314456893826e-03 0.0 
0.0 0.0 -6.637377122259e-04 
-5.666876201447e-04 -1.260874714856e-04 0.0 
-1.260874714856e-04 2.263003673050e-03 0.0 
0.0 0.0 -3.731618544809e-04 
-4.219134531154e-04 -1.222472695970e-04 0.0 
-1.222472695970e-04 1.397809828057e-03 0.0 
0.0 0.0 -2.496210768721e-04 
-1.097286575279e-03 -5.440934378647e-04 0.0 
-5.440934378647e-04 6.473058930747e-03 0.0 
0.0 0.0 -1.009908742814e-03 
-1.043727317765e-03 2.472408857258e-04 0.0 
2.472408857258e-04 6.306661261885e-03 0.0 
0.0 0.0 -9.473489374553e-04 
-2.695681844680e-04 -5.290039554231e-05 0.0 
-5.290039554231e-05 9.382689285882e-04 0.0 
0.0 0.0 -1.858848441742e-04 
-7.364560019706e-04 -6.036242025600e-04 0.0 
-6.036242025600e-04 3.440005901319e-03 0.0 
0.0 0.0 -5.400474096907e-04 
-4.035403746382e-04 -2.305403145177e-04 0.0 
-2.305403145177e-04 2.024884021199e-03 0.0 
0.0 0.0 -3.246070344129e-04 
-1.046680963677e-03 -1.140431221757e-04 0.0 
-1.140431221757e-04 6.307213054075e-03 0.0 
0.0 0.0 -9.387834224272e-04 
-7.632592856577e-04 -5.393132933556e-04 0.0 
-5.393132933556e-04 3.657861775186e-03 0.0 
0.0 0.0 -5.687878759048e-04 
-1.016724206552e-03 -2.154888859726e-04 0.0 
-2.154888859726e-04 5.955453979487e-03 0.0 
0.0 0.0 -9.467935652644e-04 
-7.568020148065e-04 -4.521860907560e-04 0.0 
-4.521860907560e-04 3.415229586271e-03 0.0 
0.0 0.0 -5.337555413937e-04 
-1.189199624854e-03 -1.376681473433e-04 0.0 
-1.376681473433e-04 7.515170933533e-03 0.0 
0.0 0.0 -1.114809527198e-03 
-6.923550043241e-04 -2.768469088006e-04 0.0 
-2.768469088006e-04 2.945508556802e-03 0.0 
0.0 0.0 -4.768663991247e-04 
-1.044644236131e-03 -5.895775659962e-04 0.0 
-5.895775659962e-04 6.433247658548e-03 0.0 
0.0 0.0 -1.018590841688e-03 
-5.377186267121e-04 -1.162421830740e-03 0.0 
-1.162421830740e-03 1.924594638442e-03 0.0 
0.0 0.0 -3.376433569222e-04 
-1.043635089924e-03 -5.925974921427e-04 0.0 
-5.925974921427e-04 6.227817584456e-03 0.0 
0.0 0.0 -9.812220007866e-04 
-9.943565397434e-04 -3.497380212248e-04 0.0 
-3.497380212248e-04 4.987357588882e-03 0.0 
0.0 0.0 -7.604224332210e-04 
-1.126398211161e-03 -1.231258313828e-04 0.0 
-1.231258313828e-04 6.641179692916e-03 0.0 
0.0 0.0 -1.041555045145e-03 
5.406669181143e-03 -9.685299667132e-04 0.0 
-9.685299667132e-04 -3.295585809116e-03 0.0 
0.0 0.0 -5.350282927002e-04 
-4.513551852745e-04 7.961954421125e-05 0.0 
7.961954421125e-05 1.942718085049e-03 0.0 
0.0 0.0 -3.277310168338e-04 
-9.768870302484e-04 -1.535527430477e-04 0.0 
-1.535527430477e-04 5.889109902335e-03 0.0 
0.0 0.0 -8.787268422831e-04 
5.057285049963e-04 -3.477677080939e-04 0.0 
-3.477677080939e-04 4.330284944342e-03 0.0 
0.0 0.0 -9.464297096767e-04 
-6.696248071327e-04 9.527190214271e-04 0.0 
9.527190214271e-04 3.942995259938e-03 0.0 
0.0 0.0 -6.776081642141e-04 
-1.047238839157e-03 -1.563485093405e-04 0.0 
-1.563485093405e-04 6.341652196106e-03 0.0 
0.0 0.0 -9.453210152248e-04 
-5.135632802951e-04 -1.406486370917e-03 0.0 
-1.406486370917e-03 1.993823835031e-03 0.0 
0.0 0.0 -3.758914132629e-04 
-1.070153882220e-03 3.026802387506e-04 0.0 
3.026802387506e-04 6.407668419037e-03 0.0 
0.0 0.0 -9.642804585795e-04 
-3.826150946159e-04 -2.687090143275e-04 0.0 
-2.687090143275e-04 1.814458781029e-03 0.0 
0.0 0.0 -2.947674122297e-04 
-1.169970312209e-03 -5.285152303079e-04 0.0 
-5.285152303079e-04 7.359319887074e-03 0.0 
0.0 0.0 -1.150402778756e-03 
5.884463737430e-04 -1.106024296212e-04 0.0 
-1.106024296212e-04 4.468846270293e-03 0.0 
0.0 0.0 -9.834711240942e-04 
4.207980917675e-04 6.671751621140e-04 0.0 
6.671751621140e-04 4.990488973483e-03 0.0 
0.0 0.0 -1.037051012011e-03 
-1.266259122541e-03 -6.932227906498e-05 0.0 
-6.932227906498e-05 8.127793637496e-03 0.0 
0.0 0.0 -1.204463612412e-03 
-7.768385389529e-04 -8.073428107716e-04 0.0 
-8.073428107716e-04 4.980090398291e-03 0.0 
0.0 0.0 -8.294769417472e-04 
-4.699473644088e-04 -6.813726004672e-05 0.0 
-6.813726004672e-05 1.813879272209e-03 0.0 
0.0 0.0 -3.081489256105e-04 
-9.161062287207e-04 -6.850931603516e-04 0.0 
-6.850931603516e-04 5.713761905663e-03 0.0 
0.0 0.0 -9.239488535170e-04 
-1.173047693050e-03 -1.052473736579e-04 0.0 
-1.052473736579e-04 7.508097487322e-03 0.0 
0.0 0.0 -1.189963100592e-03 
-4.497409859123e-04 -1.426160803811e-03 0.0 
-1.426160803811e-03 2.458822638814e-03 0.0 
0.0 0.0 -4.786098583285e-04 
-1.143974714499e-03 -4.976969720053e-04 0.0 
-4.976969720053e-04 6.710156245847e-03 0.0 
0.0 0.0 -1.038675661098e-03 
-1.132883010551e-03 -1.192006961438e-04 0.0 
-1.192006961438e-04 7.009605316192e-03 0.0 
0.0 0.0 -1.041631482750e-03 
-7.084999963086e-05 -1.445687819167e-03 0.0 
-1.445687819167e-03 1.454986861830e-03 0.0 
0.0 0.0 -3.880698300753e-04 
-9.832169528241e-04 -6.401107558717e-04 0.0 
-6.401107558717e-04 5.975097252107e-03 0.0 
0.0 0.0 -9.525765839929e-04 
-9.785039199354e-04 -1.168734358181e-04 0.0 
-1.168734358181e-04 5.790498942477e-03 0.0 
0.0 0.0 -8.663127257150e-04 
-5.996048706546e-04 -3.316912815730e-04 0.0 
-3.316912815730e-04 2.740125406625e-03 0.0 
0.0 0.0 -4.280652785065e-04 
-7.035123059792e-04 -6.874159131133e-04 0.0 
-6.874159131133e-04 3.217847307373e-03 0.0 
0.0 0.0 -5.113914792957e-04 
-2.778143189681e-04 1.061769646994e-03 0.0 
1.061769646994e-03 4.395060078442e-03 0.0 
0.0 0.0 -8.004334922225e-04 
-1.074750193164e-03 -1.697498961518e-04 0.0 
-1.697498961518e-04 6.403492678198e-03 0.0 
0.0 0.0 -1.012809740122e-03 
-7.035308576129e-04 5.382426947373e-04 0.0 
5.382426947373e-04 3.806026837703e-03 0.0 
0.0 0.0 -6.201901524263e-04 
3.783030761413e-04 1.787979172804e-03 0.0 
1.787979172804e-03 3.505083959812e-03 0.0 
0.0 0.0 -7.649884091348e-04 
-1.098080609149e-03 3.025878807238e-04 0.0 
3.025878807238e-04 6.656267622990e-03 0.0 
0.0 0.0 -1.000670320419e-03 
-1.014704614523e-03 2.583884235807e-04 0.0 
2.583884235807e-04 6.049064620228e-03 0.0 
0.0 0.0 -9.110000341593e-04 
-1.009261189838e-03 2.792149560740e-04 0.0 
2.792149560740e-04 5.955274274962e-03 0.0 
0.0 0.0 -8.984003255416e-04 
-9.871449342436e-04 -7.213431481816e-05 0.0 
-7.213431481816e-05 4.924174820230e-03 0.0 
0.0 0.0 -7.627602282935e-04 
-1.065656897570e-03 -5.121112680600e-04 0.0 
-5.121112680600e-04 7.066736918301e-03 0.0 
0.0 0.0 -1.130631056169e-03 
-8.421677165310e-04 -7.268506017030e-04 0.0 
-7.268506017030e-04 5.443918430101e-03 0.0 
0.0 0.0 -8.953295484280e-04 
-9.945000348060e-04 -1.248826091764e-04 0.0 
-1.248826091764e-04 5.857149722276e-03 0.0 
0.0 0.0 -8.720525204519e-04 
-1.238633943108e-03 1.686741563002e-04 0.0 
1.686741563002e-04 7.876441362665e-03 0.0 
0.0 0.0 -1.193584144721e-03 
6.924487153644e-05 6.200108718899e-04 0.0 
6.200108718899e-04 5.567407622684e-03 0.0 
0.0 0.0 -1.073433710836e-03 
-1.015779217143e-03 -2.144660185469e-04 0.0 
-2.144660185469e-04 6.157749518334e-03 0.0 
0.0 0.0 -9.841343610905e-04 
-1.152967284980e-03 2.909720530725e-04 0.0 
2.909720530725e-04 7.156656236309e-03 0.0 
0.0 0.0 -1.073677668998e-03 
-7.263162190416e-04 -8.886940194724e-04 0.0 
-8.886940194724e-04 3.588121008828e-03 0.0 
0.0 0.0 -5.862626530915e-04 
-7.235359723586e-04 -7.958794651799e-04 0.0 
-7.958794651799e-04 3.410683047674e-03 0.0 
0.0 0.0 -5.488365039436e-04 
-4.694757851361e-04 -5.127005261343e-04 0.0 
-5.127005261343e-04 1.922171349029e-03 0.0 
0.0 0.0 -3.130684191733e-04 
-9.104943950573e-04 -6.552016600707e-04 0.0 
-6.552016600707e-04 5.911258485735e-03 0.0 
0.0 0.0 -9.612598090090e-04 
-7.654832124176e-04 -7.002445478485e-04 0.0 
-7.002445478485e-04 3.645865785489e-03 0.0 
0.0 0.0 -5.775003002374e-04 
-1.075243583964e-03 -1.050257747268e-04 0.0 
-1.050257747268e-04 6.505297040680e-03 0.0 
0.0 0.0 -9.686535345556e-04 
-1.046091552134e-03 -1.046643629052e-04 0.0 
-1.046643629052e-04 6.253743570569e-03 0.0 
0.0 0.0 -9.322463471790e-04 
4.109685962610e-03 1.331727086768e-03 0.0 
1.331727086768e-03 -3.618641538043e-04 0.0 
0.0 0.0 -7.690363516573e-04 
-6.768678335791e-04 -4.944889426237e-04 0.0 
-4.944889426237e-04 2.924353115240e-03 0.0 
0.0 0.0 -4.860199686152e-04 
5.988764642615e-03 3.371570486333e-03 0.0 
3.371570486333e-03 -4.083540063161e-03 0.0 
0.0 0.0 -5.148587792422e-04 
-7.140205863396e-04 -3.895142562213e-04 0.0 
-3.895142562213e-04 3.153467660833e-03 0.0 
0.0 0.0 -5.143448975765e-04 
-7.166082742774e-04 -4.898417450174e-04 0.0 
-4.898417450174e-04 3.345585253682e-03 0.0 
0.0 0.0 -5.517963299543e-04 
-5.453825262275e-04 -1.801577044467e-04 0.0 
-1.801577044467e-04 2.063785108327e-03 0.0 
0.0 0.0 -3.446931235564e-04 
-9.991919087570e-04 -5.159677692080e-04 0.0 
-5.159677692080e-04 6.812973713771e-03 0.0 
0.0 0.0 -1.101849228970e-03 
-6.361621297383e-04 -6.326273812119e-04 0.0 
-6.326273812119e-04 3.840813039186e-03 0.0 
0.0 0.0 -6.642957827475e-04 
-1.186458515100e-03 -1.053251154620e-04 0.0 
-1.053251154620e-04 7.463739247015e-03 0.0 
0.0 0.0 -1.107989045227e-03 
-5.978205852498e-04 -6.030872319160e-04 0.0 
-6.030872319160e-04 3.997835835114e-03 0.0 
0.0 0.0 -7.013039408444e-04 
-8.766496605348e-04 -2.938506230370e-04 0.0 
-2.938506230370e-04 5.643098139245e-03 0.0 
0.0 0.0 -9.268471029391e-04 
-7.458770769302e-04 -4.494771908485e-04 0.0 
-4.494771908485e-04 4.730820068739e-03 0.0 
0.0 0.0 -7.951651613512e-04 
2.069648120202e-03 2.764817767736e-03 0.0 
2.764817767736e-03 1.713335601988e-03 0.0 
0.0 0.0 -7.567435594048e-04 
-4.924031779586e-04 -4.582157831525e-04 0.0 
-4.582157831525e-04 2.128157277405e-03 0.0 
0.0 0.0 -3.417109511102e-04 
-1.119466152649e-03 -1.285123435513e-04 0.0 
-1.285123435513e-04 7.241871223374e-03 0.0 
0.0 0.0 -1.161691925552e-03 
-1.157276862038e-03 -5.152756470004e-04 0.0 
-5.152756470004e-04 7.595110461611e-03 0.0 
0.0 0.0 -1.198716319349e-03 
-5.187824082938e-04 1.176438762444e-03 0.0 
1.176438762444e-03 5.529395493549e-03 0.0 
0.0 0.0 -9.650368815299e-04 
-7.024384046348e-04 -5.668947943432e-04 0.0 
-5.668947943432e-04 3.521466880882e-03 0.0 
0.0 0.0 -5.892385666867e-04 
-8.092329254756e-04 -3.679333936268e-04 0.0 
-3.679333936268e-04 5.184879506691e-03 0.0 
0.0 0.0 -8.609535187098e-04 
-1.070645862318e-03 2.880325294516e-04 0.0 
2.880325294516e-04 6.451710160525e-03 0.0 
0.0 0.0 -9.708520278613e-04 
-7.765899253725e-04 -7.845646391497e-04 0.0 
-7.845646391497e-04 3.835907640370e-03 0.0 
0.0 0.0 -6.148791393494e-04 
2.737144051002e-04 2.225189870421e-03 0.0 
2.225189870421e-03 2.865890663815e-03 0.0 
0.0 0.0 -6.394234923164e-04 
-6.747584532598e-04 -5.770366254477e-04 0.0 
-5.770366254477e-04 3.009985049056e-03 0.0 
0.0 0.0 -4.739097840058e-04 
-4.381090568186e-04 -1.552304285074e-03 0.0 
-1.552304285074e-03 2.041510460725e-03 0.0 
0.0 0.0 -4.132304097957e-04 
-7.141863963918e-04 -9.568035345241e-04 0.0 
-9.568035345241e-04 3.752753679619e-03 0.0 
0.0 0.0 -6.236739531379e-04 
-6.528961987011e-04 -1.781186145787e-04 0.0 
-1.781186145787e-04 2.715857529516e-03 0.0 
0.0 0.0 -4.393534411964e-04 
-5.596275213697e-04 -3.829013705402e-04 0.0 
-3.829013705402e-04 2.536190508459e-03 0.0 
0.0 0.0 -3.988888273503e-04 
-7.947060353366e-04 -8.306305145241e-04 0.0 
-8.306305145241e-04 4.800715564885e-03 0.0 
0.0 0.0 -7.922809795675e-04 
-9.495117069836e-04 -2.555007117944e-04 0.0 
-2.555007117944e-04 5.904688651206e-03 0.0 
0.0 0.0 -9.554846610150e-04 
-4.394890113877e-04 1.324412902907e-03 0.0 
1.324412902907e-03 6.446730901849e-03 0.0 
0.0 0.0 -1.128610778606e-03 
1.409718083835e-03 -5.383256908002e-05 0.0 
-5.383256908002e-05 -2.691051396388e-04 0.0 
0.0 0.0 -2.216954717982e-04 
5.423725182849e-04 -7.317204883086e-04 0.0 
-7.317204883086e-04 2.639223167993e-03 0.0 
0.0 0.0 -6.818868151027e-04 
-4.968184483203e-04 -6.518828778024e-04 0.0 
-6.518828778024e-04 3.693766435261e-03 0.0 
0.0 0.0 -6.732431144785e-04 
-6.734388902022e-04 -6.179988430692e-04 0.0 
-6.179988430692e-04 3.684173063462e-03 0.0 
0.0 0.0 -6.268095852860e-04 
-1.038674892423e-03 2.849365380829e-04 0.0 
2.849365380829e-04 6.200994707550e-03 0.0 
0.0 0.0 -9.344164207832e-04 
-6.877399303223e-04 -5.371529877498e-04 0.0 
-5.371529877498e-04 4.282013621242e-03 0.0 
0.0 0.0 -7.295442444478e-04 
-7.236126278911e-04 -1.940798346154e-04 0.0 
-1.940798346154e-04 3.162977138653e-03 0.0 
0.0 0.0 -5.055050897130e-04 
-6.903954199582e-04 -9.883908706268e-04 0.0 
-9.883908706268e-04 3.912237901394e-03 0.0 
0.0 0.0 -6.611654675676e-04 
-1.160544064243e-03 2.681116606983e-04 0.0 
2.681116606983e-04 7.207667667947e-03 0.0 
0.0 0.0 -1.080452943103e-03 
-7.185620229440e-04 -5.086767079658e-04 0.0 
-5.086767079658e-04 3.228512561114e-03 0.0 
0.0 0.0 -5.025663706543e-04 
-3.033530584322e-04 -3.126589283008e-05 0.0 
-3.126589283008e-05 1.124202721504e-03 0.0 
0.0 0.0 -2.132551421006e-04 
-4.445863950683e-04 -1.098673452603e-04 0.0 
-1.098673452603e-04 1.624443337862e-03 0.0 
0.0 0.0 -2.784575373548e-04 
-4.556609783406e-04 -1.046441961485e-03 0.0 
-1.046441961485e-03 2.312897280805e-03 0.0 
0.0 0.0 -4.444240490352e-04 
-6.671697262521e-04 -6.094353393578e-04 0.0 
-6.094353393578e-04 3.102567689836e-03 0.0 
0.0 0.0 -5.239304829885e-04 
-1.898437619544e-04 -6.222740982303e-04 0.0 
-6.222740982303e-04 3.582060365931e-03 0.0 
0.0 0.0 -7.099160536912e-04 
-6.597409171735e-04 -9.847744191674e-04 0.0 
-9.847744191674e-04 4.070104714955e-03 0.0 
0.0 0.0 -6.984076724203e-04 
-4.347846215514e-04 -1.333971923402e-03 0.0 
-1.333971923402e-03 1.612936656771e-03 0.0 
0.0 0.0 -3.343205611582e-04 
-3.976613437580e-04 -3.897326152451e-04 0.0 
-3.897326152451e-04 1.671878635782e-03 0.0 
0.0 0.0 -2.765202162382e-04 
-1.033660003461e-03 -1.033996314703e-04 0.0 
-1.033996314703e-04 5.926247048388e-03 0.0 
0.0 0.0 -8.885078876198e-04 
-6.226964712633e-04 -4.829751825411e-04 0.0 
-4.829751825411e-04 2.780306463648e-03 0.0 
0.0 0.0 -4.363975895258e-04 
-9.598608129299e-04 -1.512388155027e-04 0.0 
-1.512388155027e-04 6.520728160314e-03 0.0 
0.0 0.0 -1.067401112627e-03 
-1.037020376456e-04 1.561233653187e-03 0.0 
1.561233653187e-03 5.874372428421e-03 0.0 
0.0 0.0 -1.093380752811e-03 
-1.033158695296e-03 1.201714905428e-04 0.0 
1.201714905428e-04 5.943900742884e-03 0.0 
0.0 0.0 -9.013836717722e-04 
-1.202438437016e-03 3.703852775580e-04 0.0 
3.703852775580e-04 7.497052002657e-03 0.0 
0.0 0.0 -1.126084317643e-03 
-7.448746155532e-04 1.075384538446e-03 0.0 
1.075384538446e-03 6.988844761417e-03 0.0 
0.0 0.0 -1.164310864388e-03 
4.855541148718e-03 2.177956157442e-03 0.0 
2.177956157442e-03 -1.265538318073e-03 0.0 
0.0 0.0 -7.408850503417e-04 
-2.862824463102e-04 1.405302223975e-03 0.0 
1.405302223975e-03 5.674818172152e-03 0.0 
0.0 0.0 -1.029042339204e-03 
-3.868820834042e-04 -1.598175067219e-03 0.0 
-1.598175067219e-03 1.640588266591e-03 0.0 
0.0 0.0 -3.684254322556e-04 
-7.608485108981e-04 -8.950598342909e-04 0.0 
-8.950598342909e-04 4.184728790858e-03 0.0 
0.0 0.0 -6.894573431515e-04 
3.049417037916e-03 3.405075566280e-03 0.0 
3.405075566280e-03 9.907792498185e-05 0.0 
0.0 0.0 -6.879681371099e-04 
3.488765393791e-03 -3.714964982416e-03 0.0 
-3.714964982416e-03 -2.187866991336e-03 0.0 
0.0 0.0 -4.001859895708e-04 
-2.322378270667e-04 -1.414305700121e-03 0.0 
-1.414305700121e-03 1.285051000812e-03 0.0 
0.0 0.0 -3.718692805502e-04 
-7.624977688682e-04 -3.873820506890e-04 0.0 
-3.873820506890e-04 3.581246965727e-03 0.0 
0.0 0.0 -5.804062017457e-04 
-5.687072458126e-04 -1.053499292402e-03 0.0 
-1.053499292402e-03 3.769545573336e-03 0.0 
0.0 0.0 -6.703429011759e-04 
-5.303660715231e-04 -9.834601585863e-04 0.0 
-9.834601585863e-04 3.928073668805e-03 0.0 
0.0 0.0 -7.070647534220e-04 
-6.858142190642e-04 -1.264292236945e-04 0.0 
-1.264292236945e-04 2.925987856864e-03 0.0 
0.0 0.0 -4.680152132766e-04 
-6.589899224581e-04 -5.005558218906e-04 0.0 
-5.005558218906e-04 4.450521373462e-03 0.0 
0.0 0.0 -7.666177146937e-04 
-2.315169998098e-04 -1.048997269225e-03 0.0 
-1.048997269225e-03 3.421369946808e-03 0.0 
0.0 0.0 -6.790125122096e-04 
1.354659050077e-03 -5.366740322214e-04 0.0 
-5.366740322214e-04 2.026521574305e-03 0.0 
0.0 0.0 -7.183521444552e-04 
-6.803758157452e-04 -9.028741567956e-04 0.0 
-9.028741567956e-04 3.171875899076e-03 0.0 
0.0 0.0 -5.205443542100e-04 
8.143903695183e-04 3.042075378469e-04 0.0 
3.042075378469e-04 4.298816432811e-03 0.0 
0.0 0.0 -9.921115096417e-04 
-1.107658319106e-03 -8.404497540786e-05 0.0 
-8.404497540786e-05 6.709473481144e-03 0.0 
0.0 0.0 -9.984673180476e-04 
2.441740537745e-03 -3.930327460911e-04 0.0 
-3.930327460911e-04 7.294033877396e-04 0.0 
0.0 0.0 -6.904379518788e-04 
-1.046303389369e-03 -1.114400525399e-04 0.0 
-1.114400525399e-04 6.996162598283e-03 0.0 
0.0 0.0 -1.133495712197e-03 
-3.268910950442e-04 -1.748504239578e-03 0.0 
-1.748504239578e-03 1.649599373731e-03 0.0 
0.0 0.0 -3.849690761665e-04 
-1.105326955299e-03 -1.209562394881e-05 0.0 
-1.209562394881e-05 7.506917461540e-03 0.0 
0.0 0.0 -1.208505026952e-03 
-5.639712272191e-04 -5.345864669018e-04 0.0 
-5.345864669018e-04 4.155944038547e-03 0.0 
0.0 0.0 -7.381355003807e-04 
-9.881332067387e-04 9.265495552150e-04 0.0 
9.265495552150e-04 7.540923879031e-03 0.0 
0.0 0.0 -1.203459118631e-03 
-9.741416899861e-04 2.978325655321e-04 0.0 
2.978325655321e-04 5.872577927131e-03 0.0 
0.0 0.0 -9.144069900286e-04 
-4.654888822043e-04 -1.140967963864e-03 0.0 
-1.140967963864e-03 1.931638852762e-03 0.0 
0.0 0.0 -3.788569260403e-04 
-1.047582909248e-03 1.584393688340e-04 0.0 
1.584393688340e-04 6.105623494628e-03 0.0 
0.0 0.0 -9.292863832265e-04 
-1.220879085669e-03 4.419497771274e-04 0.0 
4.419497771274e-04 7.616026390278e-03 0.0 
0.0 0.0 -1.148369591821e-03 
-1.767005312737e-04 -5.143398988304e-04 0.0 
-5.143398988304e-04 3.967230890574e-03 0.0 
0.0 0.0 -7.747733155264e-04 
1.556734912021e-03 3.746689437418e-03 0.0 
3.746689437418e-03 1.046454754537e-03 0.0 
0.0 0.0 -5.621395992319e-04 
-1.057553285601e-03 1.944669215669e-04 0.0 
1.944669215669e-04 6.263161490160e-03 0.0 
0.0 0.0 -9.572423940436e-04 
-6.341748215491e-04 1.015049441307e-03 0.0 
1.015049441307e-03 4.277134732640e-03 0.0 
0.0 0.0 -7.402445244775e-04 
-4.362988120307e-04 -1.127161443736e-03 0.0 
-1.127161443736e-03 1.552148016574e-03 0.0 
0.0 0.0 -3.359502462693e-04 
-1.283659217910e-03 4.297574681589e-04 0.0 
4.297574681589e-04 8.390487106861e-03 0.0 
0.0 0.0 -1.259077240559e-03 
-4.445080952730e-04 -7.847967672699e-04 0.0 
-7.847967672699e-04 1.460661056520e-03 0.0 
0.0 0.0 -3.199353184197e-04 
-9.660487086093e-04 -2.460834422654e-05 0.0 
-2.460834422654e-05 7.340133512431e-03 0.0 
0.0 0.0 -1.194426649262e-03 
-1.235108043989e-03 2.931339570481e-04 0.0 
2.931339570481e-04 7.856142431297e-03 0.0 
0.0 0.0 -1.175981821618e-03 
4.547526675403e-04 6.038295493427e-05 0.0 
6.038295493427e-05 4.828078866485e-03 0.0 
0.0 0.0 -1.020516803968e-03 
-1.010840280569e-03 2.871682712165e-04 0.0 
2.871682712165e-04 5.990467797945e-03 0.0 
0.0 0.0 -9.041796124736e-04 
-1.188290086785e-03 -4.131460252783e-05 0.0 
-4.131460252783e-05 7.360236208895e-03 0.0 
0.0 0.0 -1.094228678348e-03 
5.111467949003e-04 -9.998497269526e-04 0.0 
-9.998497269526e-04 2.891397258689e-03 0.0 
0.0 0.0 -7.154996274706e-04 
2.941173362156e-03 1.072562018393e-03 0.0 
1.072562018393e-03 1.210607783294e-03 0.0 
0.0 0.0 -8.337527902170e-04 
-1.236732889268e-03 3.932687216903e-04 0.0 
3.932687216903e-04 7.932024372295e-03 0.0 
0.0 0.0 -1.191782302182e-03 
-1.016762164362e-03 -2.009947599505e-04 0.0 
-2.009947599505e-04 6.362580938042e-03 0.0 
0.0 0.0 -1.021464098896e-03 
-1.135162035509e-03 -5.768530929232e-05 0.0 
-5.768530929232e-05 6.910041935378e-03 0.0 
0.0 0.0 -1.028225029406e-03 
3.871995839487e-04 2.575252941855e-05 0.0 
2.575252941855e-05 4.595911093788e-03 0.0 
0.0 0.0 -9.780777104595e-04 
-3.572725597686e-04 -1.352690279400e-03 0.0 
-1.352690279400e-03 1.583802329561e-03 0.0 
0.0 0.0 -3.505936111242e-04 
-1.159722748538e-03 -3.230530369318e-05 0.0 
-3.230530369318e-05 7.104974861712e-03 0.0 
0.0 0.0 -1.057861461704e-03 
-1.164883775179e-03 5.402666959986e-04 0.0 
5.402666959986e-04 8.228844827365e-03 0.0 
0.0 0.0 -1.268085107495e-03 
-1.141634375887e-03 -6.383832911746e-05 0.0 
-6.383832911746e-05 7.496062386317e-03 0.0 
0.0 0.0 -1.202195648613e-03 
-7.172722051064e-04 -5.438382500790e-04 0.0 
-5.438382500790e-04 4.116936776522e-03 0.0 
0.0 0.0 -6.923681691211e-04 
-1.013061704463e-03 -1.285173007321e-04 0.0 
-1.285173007321e-04 6.040176746182e-03 0.0 
0.0 0.0 -9.020111041354e-04 
-9.803558555424e-04 2.819126364211e-04 0.0 
2.819126364211e-04 5.747481973327e-03 0.0 
0.0 0.0 -8.677534307045e-04 
-6.277772364563e-04 -9.505441527148e-04 0.0 
-9.505441527148e-04 4.228315103377e-03 0.0 
0.0 0.0 -7.352749011056e-04 
-9.471295400473e-04 -2.290448642546e-04 0.0 
-2.290448642546e-04 6.104893151692e-03 0.0 
0.0 0.0 -9.927925938930e-04 
-9.496787292750e-04 -1.931802113086e-04 0.0 
-1.931802113086e-04 6.308676304585e-03 0.0 
0.0 0.0 -1.030113165296e-03 
-3.367468350593e-04 -4.171493311675e-04 0.0 
-4.171493311675e-04 1.462207300335e-03 0.0 
0.0 0.0 -2.466400652194e-04 
5.654033740440e-03 3.859998188038e-03 0.0 
3.859998188038e-03 -4.223073342075e-03 0.0 
0.0 0.0 -4.508272210452e-04 
3.124325978380e-03 1.624663467642e-04 0.0 
1.624663467642e-04 2.603524931590e-04 0.0 
0.0 0.0 -7.269793770173e-04 
1.422902009860e-03 -9.702401023770e-04 0.0 
-9.702401023770e-04 1.783001842000e-03 0.0 
0.0 0.0 -6.875569550716e-04 
4.816661603730e-04 2.213872627351e-03 0.0 
2.213872627351e-03 3.041318199669e-03 0.0 
0.0 0.0 -7.320784846625e-04 
-1.264443641134e-03 9.169602624825e-06 0.0 
9.169602624825e-06 8.228641212544e-03 0.0 
0.0 0.0 -1.225426844749e-03 
-1.225437596415e-03 5.454708430458e-04 0.0 
5.454708430458e-04 7.618255897701e-03 0.0 
0.0 0.0 -1.162686153705e-03 
-1.236580353686e-03 -8.584500076514e-05 0.0 
-8.584500076514e-05 7.903871079557e-03 0.0 
0.0 0.0 -1.173632101657e-03 
-7.521471418708e-04 4.524177914914e-04 0.0 
4.524177914914e-04 4.089944836528e-03 0.0 
0.0 0.0 -6.556197767577e-04 
-1.172411158405e-03 4.147315892345e-04 0.0 
4.147315892345e-04 7.176351707369e-03 0.0 
0.0 0.0 -1.082713561900e-03 
-9.808832725520e-04 -6.235651659416e-04 0.0 
-6.235651659416e-04 6.175367423925e-03 0.0 
0.0 0.0 -9.899156953211e-04 
-1.256868554146e-03 3.642260226585e-04 0.0 
3.642260226585e-04 8.010570571666e-03 0.0 
0.0 0.0 -1.198415070424e-03 
-1.131244473165e-03 -2.609112415894e-05 0.0 
-2.609112415894e-05 6.847199996424e-03 0.0 
0.0 0.0 -1.021631336281e-03 
-7.398403296460e-04 -9.100435650523e-04 0.0 
-9.100435650523e-04 4.351978419830e-03 0.0 
0.0 0.0 -7.266350563285e-04 
4.481430621225e-03 6.983917012393e-04 0.0 
6.983917012393e-04 -1.298658066299e-03 0.0 
0.0 0.0 -6.989458521267e-04 
-1.152804453403e-03 3.500950542230e-04 0.0 
3.500950542230e-04 7.051163395974e-03 0.0 
0.0 0.0 -1.060111126929e-03 
-1.235067592862e-03 -2.698356757779e-05 0.0 
-2.698356757779e-05 7.807694952398e-03 0.0 
0.0 0.0 -1.160283895044e-03 
-1.152447904070e-03 3.233521508878e-04 0.0 
3.233521508878e-04 7.106400049278e-03 0.0 
0.0 0.0 -1.066842251349e-03 
-1.126824314787e-03 3.260890582423e-04 0.0 
3.260890582423e-04 6.856832929645e-03 0.0 
0.0 0.0 -1.030428295937e-03 
-1.098624795041e-03 -1.306628866347e-04 0.0 
-1.306628866347e-04 7.036525786255e-03 0.0 
0.0 0.0 -1.124756152480e-03 
-7.431927217403e-04 1.414538658469e-04 0.0 
1.414538658469e-04 6.935619593658e-03 0.0 
0.0 0.0 -1.167530213646e-03 
-1.029227773633e-03 -1.448576550575e-04 0.0 
-1.448576550575e-04 6.777818390463e-03 0.0 
0.0 0.0 -1.096139997395e-03 
-8.853909467236e-04 -3.202143432842e-04 0.0 
-3.202143432842e-04 5.450131718365e-03 0.0 
0.0 0.0 -8.895595506238e-04 
-7.841401063913e-04 5.175313733597e-04 0.0 
5.175313733597e-04 4.039507771945e-03 0.0 
0.0 0.0 -6.419897747600e-04 
1.975518108539e-04 1.699769864544e-04 0.0 
1.699769864544e-04 5.299494626087e-03 0.0 
0.0 0.0 -1.057160997780e-03 
-1.115933343197e-03 4.349000973092e-04 0.0 
4.349000973092e-04 6.664037002129e-03 0.0 
0.0 0.0 -1.010795753303e-03 
-5.956699057430e-04 -8.811439702695e-05 0.0 
-8.811439702695e-05 2.473036601140e-03 0.0 
0.0 0.0 -4.018221946533e-04 
2.230654924795e-03 -5.381722521485e-04 0.0 
-5.381722521485e-04 1.209024624602e-03 0.0 
0.0 0.0 -7.241222962603e-04 
1.708142065183e-03 1.028291987267e-07 0.0 
1.028291987267e-07 2.278616546503e-03 0.0 
0.0 0.0 -8.193994707270e-04 
1.930559320092e-03 8.075125984202e-04 0.0 
8.075125984202e-04 2.621638003723e-03 0.0 
0.0 0.0 -8.986564694586e-04 
5.699419682230e-03 -1.669551547753e-03 0.0 
-1.669551547753e-03 -4.521987783071e-03 0.0 
0.0 0.0 -4.157903644632e-04 
3.601574770509e-03 -1.236958308560e-04 0.0 
-1.236958308560e-04 -3.424940836194e-04 0.0 
0.0 0.0 -6.962026719631e-04 
1.149737557468e-03 5.859138490719e-04 0.0 
5.859138490719e-04 3.799242133278e-03 0.0 
0.0 0.0 -9.636952012155e-04 
-8.444842612221e-04 6.249200502653e-04 0.0 
6.249200502653e-04 4.582153886631e-03 0.0 
0.0 0.0 -7.294090860403e-04 
-7.683331433156e-04 -4.669157271009e-04 0.0 
-4.669157271009e-04 4.555612432421e-03 0.0 
0.0 0.0 -7.579899565570e-04 
-1.071508205892e-03 -5.121927920589e-05 0.0 
-5.121927920589e-05 6.390736393491e-03 0.0 
0.0 0.0 -9.556638187253e-04 
-8.714266706773e-04 2.063026129845e-04 0.0 
2.063026129845e-04 5.095248433608e-03 0.0 
0.0 0.0 -7.638029664831e-04 
-1.114860901529e-03 9.867352470130e-03 0.0 
9.867352470130e-03 1.621841256182e-03 0.0 
0.0 0.0 -2.172772948515e-04 
-8.538627514522e-04 -7.550684867704e-04 0.0 
-7.550684867704e-04 5.254936553017e-03 0.0 
0.0 0.0 -8.580817703278e-04 
2.100738928362e-04 3.271011719562e-04 0.0 
3.271011719562e-04 5.179659642136e-03 0.0 
0.0 0.0 -1.051835763028e-03 
-1.248237691654e-03 5.633939617195e-04 0.0 
5.633939617195e-04 7.887034516043e-03 0.0 
0.0 0.0 -1.196871286280e-03 
3.389222103160e-03 1.253913352255e-03 0.0 
1.253913352255e-03 4.372259904494e-04 0.0 
0.0 0.0 -7.999758813884e-04 
-8.246860114036e-04 -3.906175878888e-04 0.0 
-3.906175878888e-04 5.000590526334e-03 0.0 
0.0 0.0 -8.237210115815e-04 
-1.081299147246e-03 -7.697289611938e-05 0.0 
-7.697289611938e-05 6.459732028031e-03 0.0 
0.0 0.0 -9.620958722924e-04 
-8.795423768169e-04 6.872162304603e-03 0.0 
6.872162304603e-03 1.737403378462e-03 0.0 
0.0 0.0 -3.038018182983e-04 
5.548526120982e-04 5.249668473576e-04 0.0 
5.249668473576e-04 4.657003045966e-03 0.0 
0.0 0.0 -1.023361637732e-03 
2.148570358280e-03 5.228318958063e-04 0.0 
5.228318958063e-04 2.169101567201e-03 0.0 
0.0 0.0 -8.619475031457e-04 
-8.828155885906e-04 2.614625346270e-04 0.0 
2.614625346270e-04 4.904715470600e-03 0.0 
0.0 0.0 -7.615729788896e-04 
-9.809961927394e-04 -5.936604313144e-04 0.0 
-5.936604313144e-04 6.379528294436e-03 0.0 
0.0 0.0 -1.027225276160e-03 
1.542976236856e-03 -2.845470009249e-03 0.0 
-2.845470009249e-03 -3.283148876976e-04 0.0 
0.0 0.0 -3.946419382404e-04 
-9.859370989770e-04 -5.573179193325e-04 0.0 
-5.573179193325e-04 6.591591148133e-03 0.0 
0.0 0.0 -1.064556537081e-03 
-1.075263487039e-03 -6.290518893134e-05 0.0 
-6.290518893134e-05 7.229861812646e-03 0.0 
0.0 0.0 -1.170878753521e-03 
8.511334377120e-04 7.456950258876e-04 0.0 
7.456950258876e-04 4.183377650474e-03 0.0 
0.0 0.0 -9.948919501216e-04 
-1.162320360260e-03 -6.372562573002e-05 0.0 
-6.372562573002e-05 7.161310363851e-03 0.0 
0.0 0.0 -1.064574987933e-03 
2.829042040623e-04 1.238440044448e-03 0.0 
1.238440044448e-03 5.486457350883e-03 0.0 
0.0 0.0 -1.082686220397e-03 
-1.082949588594e-03 -4.851124086325e-04 0.0 
-4.851124086325e-04 7.296469259281e-03 0.0 
0.0 0.0 -1.168035910845e-03 
-7.140822409293e-04 2.648462058750e-03 0.0 
2.648462058750e-03 1.850720127251e-03 0.0 
0.0 0.0 -2.917408095836e-04 
-1.104897704515e-03 -4.845952140230e-05 0.0 
-4.845952140230e-05 6.655011128943e-03 0.0 
0.0 0.0 -9.919185416031e-04 
-7.884040758762e-04 2.809656776533e-04 0.0 
2.809656776533e-04 7.023261421099e-03 0.0 
0.0 0.0 -1.173906618061e-03 
-1.179945511942e-03 3.471716249997e-04 0.0 
3.471716249997e-04 7.305593288174e-03 0.0 
0.0 0.0 -1.096489272820e-03 
1.528018460384e-03 8.985234865512e-04 0.0 
8.985234865512e-04 3.109194763566e-03 0.0 
0.0 0.0 -9.297700869391e-04 
4.066730290410e-03 6.477085160221e-04 0.0 
6.477085160221e-04 -5.640021179250e-04 0.0 
0.0 0.0 -7.325247082200e-04 
-9.641389493889e-04 -2.217264104135e-04 0.0 
-2.217264104135e-04 5.113633075458e-03 0.0 
0.0 0.0 -8.069452076110e-04 
3.266453812986e-03 7.066253654954e-04 0.0 
7.066253654954e-04 -2.959925469774e-03 0.0 
0.0 0.0 -1.313692899480e-04 
-1.204146700831e-03 3.439641556613e-04 0.0 
3.439641556613e-04 7.554548687955e-03 0.0 
0.0 0.0 -1.132911322290e-03 
-6.253175333027e-04 -2.826075305287e-05 0.0 
-2.826075305287e-05 2.680000675139e-03 0.0 
0.0 0.0 -4.309687334850e-04 
-7.811286318631e-04 2.592828471442e-03 0.0 
2.592828471442e-03 2.321479373109e-03 0.0 
0.0 0.0 -3.582286249851e-04 
4.560413518325e-04 1.542912163727e-03 0.0 
1.542912163727e-03 5.161893287933e-03 0.0 
0.0 0.0 -1.054483161448e-03 
-1.255167442230e-03 3.201007171123e-04 0.0 
3.201007171123e-04 8.070344212991e-03 0.0 
0.0 0.0 -1.206783194404e-03 
1.673721444707e-04 -2.010336822097e-03 0.0 
-2.010336822097e-03 9.444238306490e-04 0.0 
0.0 0.0 -3.966701258844e-04 
-6.108481729997e-04 6.968818622922e-04 0.0 
6.968818622922e-04 4.960795129166e-03 0.0 
0.0 0.0 -8.358581584049e-04 
-1.123137751770e-03 3.572847673877e-04 0.0 
3.572847673877e-04 6.794615582447e-03 0.0 
0.0 0.0 -1.023814440555e-03 
-8.765385540671e-04 -7.492880491734e-04 0.0 
-7.492880491734e-04 4.884441485584e-03 0.0 
0.0 0.0 -7.840072721007e-04 
5.023482149448e-03 -3.353161498968e-03 0.0 
-3.353161498968e-03 -3.833835139084e-03 0.0 
0.0 0.0 -4.027365510179e-04 
1.669535122406e-03 4.089336620736e-03 0.0 
4.089336620736e-03 5.065675198287e-04 0.0 
0.0 0.0 -5.292697486782e-04 
-2.272190685037e-04 -1.261695231052e-03 0.0 
-1.261695231052e-03 1.204255834380e-03 0.0 
0.0 0.0 -3.563018015714e-04 
1.636921118785e-03 -2.997589722904e-03 0.0 
-2.997589722904e-03 -5.283455793900e-04 0.0 
0.0 0.0 -3.608158092454e-04 
1.719533356468e-04 -1.934772045180e-03 0.0 
-1.934772045180e-03 8.412814383938e-04 0.0 
0.0 0.0 -3.382523083772e-04 
2.339671836038e-03 1.063470548582e-03 0.0 
1.063470548582e-03 1.895229748212e-03 0.0 
0.0 0.0 -8.647910268431e-04 
-1.323581223665e-03 3.388354907586e-04 0.0 
3.388354907586e-04 9.015003947055e-03 0.0 
0.0 0.0 -1.324146187826e-03 
-8.481551965368e-04 2.777832958127e-03 0.0 
2.777832958127e-03 2.816318746923e-03 0.0 
0.0 0.0 -4.244337567297e-04 
-1.156564282164e-03 -1.287267705775e-04 0.0 
-1.287267705775e-04 7.284536477905e-03 0.0 
0.0 0.0 -1.153422328581e-03 
5.874773339204e-03 2.631069322113e-03 0.0 
2.631069322113e-03 -3.076229257760e-03 0.0 
0.0 0.0 -6.430507458085e-04 
-1.103593163525e-03 -2.311027910086e-05 0.0 
-2.311027910086e-05 6.594057391582e-03 0.0 
0.0 0.0 -9.856407671940e-04 
4.635031094180e-03 5.342379853346e-04 0.0 
5.342379853346e-04 -4.188071384562e-03 0.0 
0.0 0.0 -1.915541612648e-04 
-1.121189365028e-03 -4.313739104837e-04 0.0 
-4.313739104837e-04 7.519397857683e-03 0.0 
0.0 0.0 -1.206759618350e-03 
-1.369628119913e-04 -1.636536330447e-03 0.0 
-1.636536330447e-03 1.233538073419e-03 0.0 
0.0 0.0 -4.045577262616e-04 
-7.109907021558e-04 -5.092194229215e-05 0.0 
-5.092194229215e-05 3.143336407810e-03 0.0 
0.0 0.0 -4.995972236199e-04 
4.690953482345e-04 7.990651314203e-04 0.0 
7.990651314203e-04 4.787512532727e-03 0.0 
0.0 0.0 -1.031547093314e-03 
-2.116620711498e-04 -9.417804657130e-04 0.0 
-9.417804657130e-04 3.808525904394e-03 0.0 
0.0 0.0 -7.436172176343e-04 
-5.040887492928e-04 3.427255358675e-04 0.0 
3.427255358675e-04 6.532682750328e-03 0.0 
0.0 0.0 -1.139062866688e-03 
2.212605044969e-04 2.515135634927e-03 0.0 
2.515135634927e-03 2.538516056739e-03 0.0 
0.0 0.0 -5.762899171569e-04 
-1.157169932203e-03 5.876132975747e-05 0.0 
5.876132975747e-05 6.976179943537e-03 0.0 
0.0 0.0 -1.044446328659e-03 
-9.816434705100e-04 3.931547076661e-04 0.0 
3.931547076661e-04 7.249685030868e-03 0.0 
0.0 0.0 -1.198892520503e-03 
-1.098955546930e-03 3.331596057930e-04 0.0 
3.331596057930e-04 6.603659082882e-03 0.0 
0.0 0.0 -9.940794652285e-04 
-1.269540035819e-03 1.940023298487e-04 0.0 
1.940023298487e-04 7.944098741491e-03 0.0 
0.0 0.0 -1.194784139986e-03 
-1.184726223875e-03 -2.348624992812e-06 0.0 
-2.348624992812e-06 7.294407597930e-03 0.0 
0.0 0.0 -1.087318097122e-03 
-1.210012004909e-03 2.996776911564e-05 0.0 
2.996776911564e-05 7.486490191622e-03 0.0 
0.0 0.0 -1.116677092124e-03 
4.327254938837e-03 6.344505519091e-03 0.0 
6.344505519091e-03 -3.479775132844e-03 0.0 
0.0 0.0 -3.632056311400e-04 
-1.142912226621e-03 -1.436249115933e-04 0.0 
-1.436249115933e-04 7.061947710655e-03 0.0 
0.0 0.0 -1.115908039155e-03 
-1.147672819159e-03 3.821528619329e-04 0.0 
3.821528619329e-04 6.988478452450e-03 0.0 
0.0 0.0 -1.053364550114e-03 
3.808791545726e-03 2.873932972170e-03 0.0 
2.873932972170e-03 -9.365280494353e-05 0.0 
0.0 0.0 -7.792489223127e-04 
-9.305711494321e-04 3.151135718024e-03 0.0 
3.151135718024e-03 3.308917307466e-03 0.0 
0.0 0.0 -4.908673385051e-04 
-1.078927379078e-03 1.409149927546e-05 0.0 
1.409149927546e-05 7.640444635147e-03 0.0 
0.0 0.0 -1.232292820449e-03 
5.807833263625e-03 2.292915869537e-03 0.0 
2.292915869537e-03 -4.673788028875e-03 0.0 
0.0 0.0 -4.142712813041e-04 
-6.537509052586e-04 -4.383754105270e-04 0.0 
-4.383754105270e-04 2.983336896445e-03 0.0 
0.0 0.0 -4.655197245388e-04 
-2.494722856359e-04 7.869657380321e-04 0.0 
7.869657380321e-04 5.962884753025e-03 0.0 
0.0 0.0 -1.105063927110e-03 
-3.654007350969e-04 -1.479495410984e-04 0.0 
-1.479495410984e-04 1.815899396191e-03 0.0 
0.0 0.0 -2.939799329518e-04 
1.295204109912e-03 2.344315476022e-03 0.0 
2.344315476022e-03 2.727773597891e-03 0.0 
0.0 0.0 -7.924235178053e-04 
2.146907803980e-04 5.826398891128e-04 0.0 
5.826398891128e-04 5.210885618538e-03 0.0 
0.0 0.0 -1.059843925468e-03 
-1.255635553756e-03 7.173795077006e-05 0.0 
7.173795077006e-05 7.907591642771e-03 0.0 
0.0 0.0 -1.181155146799e-03 
-1.282202030770e-03 1.124926252761e-04 0.0 
1.124926252761e-04 8.112071435222e-03 0.0 
0.0 0.0 -1.210943746944e-03 
4.936689896305e-04 3.891370571345e-04 0.0 
3.891370571345e-04 4.845539403699e-03 0.0 
0.0 0.0 -1.028825005900e-03 
-1.212248021085e-03 -1.436521725135e-05 0.0 
-1.436521725135e-05 7.552882477900e-03 0.0 
0.0 0.0 -1.123737208958e-03 
5.051669933398e-03 3.134581036051e-03 0.0 
3.134581036051e-03 -2.002294502170e-03 0.0 
0.0 0.0 -6.793824814287e-04 
-3.795618072259e-04 9.961730256649e-04 0.0 
9.961730256649e-04 6.085343016269e-03 0.0 
0.0 0.0 -1.062452857821e-03 
-1.074019090751e-03 3.882038268418e-03 0.0 
3.882038268418e-03 3.866809803569e-03 0.0 
0.0 0.0 -5.576509564599e-04 
-1.225600923705e-03 6.150358502408e-04 0.0 
6.150358502408e-04 7.637406645108e-03 0.0 
0.0 0.0 -1.181751882508e-03 
-1.373337080795e-03 4.594147844711e-03 0.0 
4.594147844711e-03 4.580191313310e-03 0.0 
0.0 0.0 -6.243763318321e-04 
-1.636036395394e-03 4.696483861132e-03 0.0 
4.696483861132e-03 5.082375498233e-03 0.0 
0.0 0.0 -6.577503189808e-04 
4.260930203776e-03 1.959419387867e-03 0.0 
1.959419387867e-03 -6.153860933821e-04 0.0 
0.0 0.0 -7.717627972493e-04 
-1.879502607647e-03 2.987961321358e-03 0.0 
2.987961321358e-03 5.521227469232e-03 0.0 
0.0 0.0 -6.911701761307e-04 
2.182974848135e-03 2.419886095519e-03 0.0 
2.419886095519e-03 2.360558988303e-03 0.0 
0.0 0.0 -8.833033330409e-04 
2.889548423079e-03 3.056550029439e-03 0.0 
3.056550029439e-03 6.497975418352e-04 0.0 
0.0 0.0 -7.209687761305e-04 
2.798448602692e-03 3.296580334720e-05 0.0 
3.296580334720e-05 8.740817821370e-04 0.0 
0.0 0.0 -7.606211034647e-04 
5.021881745687e-03 -3.501942632366e-03 0.0 
-3.501942632366e-03 -4.017970771047e-03 0.0 
0.0 0.0 -3.925496596906e-04 
4.568221205553e-03 1.429665098340e-03 0.0 
1.429665098340e-03 -1.157544836865e-03 0.0 
0.0 0.0 -7.353490689725e-04 
-1.228427596361e-03 3.654441690398e-04 0.0 
3.654441690398e-04 7.753036613507e-03 0.0 
0.0 0.0 -1.162517914204e-03 
-1.234586540092e-03 6.496817172604e-04 0.0 
6.496817172604e-04 7.840810725913e-03 0.0 
0.0 0.0 -1.195263893373e-03 
-1.079254607357e-03 -1.716834017040e-04 0.0 
-1.716834017040e-04 6.610697418479e-03 0.0 
0.0 0.0 -1.050100468764e-03 
-7.944666892753e-04 5.395386306158e-04 0.0 
5.395386306158e-04 6.896350728260e-03 0.0 
0.0 0.0 -1.170266998156e-03 
5.476381098225e-04 -5.745192720307e-04 0.0 
-5.745192720307e-04 3.036527026083e-03 0.0 
0.0 0.0 -7.463264885205e-04 
-1.196792592392e-03 4.110574340668e-04 0.0 
4.110574340668e-04 7.430663622206e-03 0.0 
0.0 0.0 -1.119019617531e-03 
3.443636333470e-03 7.556261477745e-04 0.0 
7.556261477745e-04 1.581958248134e-04 0.0 
0.0 0.0 -7.634232545038e-04 
-1.186941185396e-03 -1.093564622626e-04 0.0 
-1.093564622626e-04 7.299889317220e-03 0.0 
0.0 0.0 -1.144395376583e-03 
-1.175446045210e-03 3.743988593539e-04 0.0 
3.743988593539e-04 7.239811730626e-03 0.0 
0.0 0.0 -1.089631904438e-03 
-1.184480952279e-03 4.301367348573e-05 0.0 
4.301367348573e-05 7.231184503722e-03 0.0 
0.0 0.0 -1.080451501872e-03 
1.181900197162e-03 6.221455077859e-04 0.0 
6.221455077859e-04 3.634075128372e-03 0.0 
0.0 0.0 -9.580909834143e-04 
5.262930861431e-03 2.306415232974e-03 0.0 
2.306415232974e-03 -2.037506593550e-03 0.0 
0.0 0.0 -7.073300717972e-04 
-2.174993223173e-04 1.171747886592e-03 0.0 
1.171747886592e-03 6.287455667561e-03 0.0 
0.0 0.0 -1.126038590206e-03 
-9.842000416471e-04 6.396846099915e-04 0.0 
6.396846099915e-04 5.813603015757e-03 0.0 
0.0 0.0 -9.169694165663e-04 
3.866507200377e-03 -4.352327093440e-03 0.0 
-4.352327093440e-03 -2.968155067073e-03 0.0 
0.0 0.0 -3.670597958229e-04 
5.803694088929e-03 -1.268578894140e-04 0.0 
-1.268578894140e-04 -4.478496889174e-03 0.0 
0.0 0.0 -4.209936697170e-04 
3.532976323884e-04 2.574445770624e-03 0.0 
2.574445770624e-03 2.395737716050e-03 0.0 
0.0 0.0 -6.061407060701e-04 
-7.939981015333e-04 8.253145578231e-04 0.0 
8.253145578231e-04 5.051705170151e-03 0.0 
0.0 0.0 -8.384786063130e-04 
-1.230266496445e-03 -6.856974243120e-05 0.0 
-6.856974243120e-05 7.537797729461e-03 0.0 
0.0 0.0 -1.173545322487e-03 
-1.159784806983e-03 4.546774843709e-06 0.0 
4.546774843709e-06 7.042624556690e-03 0.0 
0.0 0.0 -1.051102540299e-03 
5.198915818616e-03 1.504701411791e-03 0.0 
1.504701411791e-03 -1.858704726808e-03 0.0 
0.0 0.0 -7.045205360201e-04 
-7.642727447217e-04 5.509009620118e-04 0.0 
5.509009620118e-04 5.716240618519e-03 0.0 
0.0 0.0 -9.344940742331e-04 
-5.790004362013e-05 4.167575397998e-04 0.0 
4.167575397998e-04 5.672338417409e-03 0.0 
0.0 0.0 -1.088599101970e-03 
-1.213199839846e-03 -4.701032574329e-05 0.0 
-4.701032574329e-05 7.611187462875e-03 0.0 
0.0 0.0 -1.130578931274e-03 
-5.452754587363e-04 9.935571812010e-04 0.0 
9.935571812010e-04 6.839580223258e-03 0.0 
0.0 0.0 -1.160781586281e-03 
-1.064121038643e-03 3.592685452389e-04 0.0 
3.592685452389e-04 6.295822569873e-03 0.0 
0.0 0.0 -9.517943393002e-04 
-5.891529791994e-04 4.883951199027e-05 0.0 
4.883951199027e-05 6.369841552557e-03 0.0 
0.0 0.0 -1.113435711030e-03 
3.031742691567e-03 6.123133550250e-04 0.0 
6.123133550250e-04 8.810891952170e-04 0.0 
0.0 0.0 -7.971871449875e-04 
-1.487073151406e-04 -3.946341868919e-05 0.0 
-3.946341868919e-05 5.813820544847e-03 0.0 
0.0 0.0 -1.086118700983e-03 
6.250242845698e-04 2.159031889113e-03 0.0 
2.159031889113e-03 3.281264507531e-03 0.0 
0.0 0.0 -7.951163407912e-04 
-1.259477151619e-03 2.377000778179e-05 0.0 
2.377000778179e-05 7.994105241717e-03 0.0 
0.0 0.0 -1.188704642750e-03 
-8.238107477630e-04 6.844440861329e-04 0.0 
6.844440861329e-04 7.424797281770e-03 0.0 
0.0 0.0 -1.200489323427e-03 
1.817292110437e-03 6.911615613948e-04 0.0 
6.911615613948e-04 2.598222973448e-03 0.0 
0.0 0.0 -8.929891684399e-04 
5.560544626323e-03 3.669538654745e-04 0.0 
3.669538654745e-04 -4.658400233992e-03 0.0 
0.0 0.0 -3.866333109986e-04 
-3.048333763541e-04 1.100014384593e-03 0.0 
1.100014384593e-03 6.123775189747e-03 0.0 
0.0 0.0 -1.113685640909e-03 
1.426264535551e-03 2.232217028193e-03 0.0 
2.232217028193e-03 2.972345577964e-03 0.0 
0.0 0.0 -8.555605426019e-04 
5.552864217782e-03 2.473004010926e-03 0.0 
2.473004010926e-03 -2.367656221149e-03 0.0 
0.0 0.0 -6.765734244908e-04 
1.441510486532e-03 4.213724736836e-04 0.0 
4.213724736836e-04 3.276011910969e-03 0.0 
0.0 0.0 -9.269463096178e-04 
-9.052931745243e-04 -5.051187521263e-04 0.0 
-5.051187521263e-04 6.530311862360e-03 0.0 
0.0 0.0 -1.072977024862e-03 
5.510112287418e-03 -2.078184554757e-03 0.0 
-2.078184554757e-03 -4.481700064725e-03 0.0 
0.0 0.0 -3.958212347391e-04 
2.537436415133e-03 7.371761036092e-04 0.0 
7.371761036092e-04 1.473669867495e-03 0.0 
0.0 0.0 -8.281205301186e-04 
-1.057518774056e-03 5.392644449481e-04 0.0 
5.392644449481e-04 6.206831668111e-03 0.0 
0.0 0.0 -9.596127204057e-04 
-1.238644968873e-03 -4.648423040969e-04 0.0 
-4.648423040969e-04 7.603472997752e-03 0.0 
0.0 0.0 -1.170838755190e-03 
-1.067041670428e-03 5.715302009941e-04 0.0 
5.715302009941e-04 6.356528225694e-03 0.0 
0.0 0.0 -9.876491701491e-04 
1.841755462103e-04 1.577523847006e-03 0.0 
1.577523847006e-03 5.492838585716e-03 0.0 
0.0 0.0 -1.085374163265e-03 
-1.045085745863e-03 5.003784013052e-04 0.0 
5.003784013052e-04 6.049842854282e-03 0.0 
0.0 0.0 -9.316602363005e-04 
-1.022837492668e-03 4.381275546802e-04 0.0 
4.381275546802e-04 5.716010034056e-03 0.0 
0.0 0.0 -8.756372412555e-04 
-9.850681647526e-04 6.675723233926e-04 0.0 
6.675723233926e-04 5.952563133260e-03 0.0 
0.0 0.0 -9.447135688329e-04 
-4.831867368385e-04 5.991555569846e-04 0.0 
5.991555569846e-04 6.361519501495e-03 0.0 
0.0 0.0 -1.133505030480e-03 
-1.106660061021e-03 -5.521563816417e-04 0.0 
-5.521563816417e-04 6.894855264339e-03 0.0 
0.0 0.0 -1.084522140297e-03 
-1.120799229937e-03 3.838899692646e-04 0.0 
3.838899692646e-04 6.737454909863e-03 0.0 
0.0 0.0 -1.017300281410e-03 
-1.265839226480e-03 4.523982644349e-04 0.0 
4.523982644349e-04 8.063487692737e-03 0.0 
0.0 0.0 -1.212886757924e-03 
-1.030324522425e-03 4.628372417255e-04 0.0 
4.628372417255e-04 5.887641382241e-03 0.0 
0.0 0.0 -9.037302385344e-04 
6.347345938847e-03 1.603066362574e-03 0.0 
1.603066362574e-03 -3.844469803943e-03 0.0 
0.0 0.0 -5.760585567884e-04 
-4.725017267789e-04 6.793174222435e-04 0.0 
6.793174222435e-04 6.615985224001e-03 0.0 
0.0 0.0 -1.146733564437e-03 
-1.253924981079e-03 -4.907598213233e-05 0.0 
-4.907598213233e-05 8.057805599269e-03 0.0 
0.0 0.0 -1.196744929305e-03 
2.352515865102e-03 2.958464338720e-03 0.0 
2.958464338720e-03 1.447023120368e-03 0.0 
0.0 0.0 -7.869228524964e-04 
1.567675664558e-03 2.626370945825e-03 0.0 
2.626370945825e-03 2.478133304193e-03 0.0 
0.0 0.0 -8.226527892688e-04 
5.975359450643e-03 1.573555211081e-03 0.0 
1.573555211081e-03 -3.049804449140e-03 0.0 
0.0 0.0 -6.402419685743e-04 
-1.145557266538e-03 4.246140586136e-04 0.0 
4.246140586136e-04 6.921583184568e-03 0.0 
0.0 0.0 -1.046609947212e-03 
-6.981713726155e-04 9.056832497173e-04 0.0 
9.056832497173e-04 3.852457966674e-03 0.0 
0.0 0.0 -6.500746975200e-04 
2.066016306353e-03 2.440413668942e-03 0.0 
2.440413668942e-03 2.521024142209e-03 0.0 
0.0 0.0 -9.137630964162e-04 
-6.717413934869e-04 5.961928435860e-04 0.0 
5.961928435860e-04 3.907642713709e-03 0.0 
0.0 0.0 -6.476280927198e-04 
9.949791975440e-05 8.139940790679e-04 0.0 
8.139940790679e-04 5.385548706463e-03 0.0 
0.0 0.0 -1.068254633495e-03 
-1.052164962045e-03 3.396550898291e-04 0.0 
3.396550898291e-04 7.511920153539e-03 0.0 
0.0 0.0 -1.211228670573e-03 
5.078919862188e-03 5.680796598212e-04 0.0 
5.680796598212e-04 -1.991945998393e-03 0.0 
0.0 0.0 -6.682047883386e-04 
3.600347403678e-03 -1.549635652080e-03 0.0 
-1.549635652080e-03 -3.276243486771e-03 0.0 
0.0 0.0 -1.389016786742e-04 
-1.258599255868e-03 5.175436206336e-04 0.0 
5.175436206336e-04 7.974357198458e-03 0.0 
0.0 0.0 -1.207184308065e-03 
-7.509449296831e-04 8.117398232865e-04 0.0 
8.117398232865e-04 4.141196512392e-03 0.0 
0.0 0.0 -6.853381776776e-04 
1.227611186502e-03 -3.490012795797e-04 0.0 
-3.490012795797e-04 2.554914087944e-03 0.0 
0.0 0.0 -7.828151049093e-04 
-8.377386712290e-04 7.669695001472e-04 0.0 
7.669695001472e-04 7.066418476344e-03 0.0 
0.0 0.0 -1.177925372349e-03 
-1.133119087327e-03 1.716253131946e-05 0.0 
1.716253131946e-05 6.790529249754e-03 0.0 
0.0 0.0 -1.015069748350e-03 
-1.047918274143e-03 -5.722033483047e-04 0.0 
-5.722033483047e-04 6.640384232333e-03 0.0 
0.0 0.0 -1.055879354346e-03 
3.905962521731e-03 3.317866342465e-03 0.0 
3.317866342465e-03 -6.113944246547e-04 0.0 
0.0 0.0 -6.851017020021e-04 
2.930112310304e-03 -7.011865041064e-04 0.0 
-7.011865041064e-04 -2.829222427318e-03 0.0 
0.0 0.0 -4.323852128003e-05 
-1.294332022630e-03 -4.590388614896e-04 0.0 
-4.590388614896e-04 7.891763322768e-03 0.0 
0.0 0.0 -1.202131160132e-03 
-3.678812038282e-04 1.306059619475e-03 0.0 
1.306059619475e-03 4.759776273372e-03 0.0 
0.0 0.0 -8.660506973337e-04 
8.120570403942e-04 9.932865448411e-04 0.0 
9.932865448411e-04 4.417988274255e-03 0.0 
0.0 0.0 -1.007142642412e-03 
-3.842811503528e-04 1.312837585219e-03 0.0 
1.312837585219e-03 6.556310872945e-03 0.0 
0.0 0.0 -1.157822513452e-03 
9.528787122969e-04 -1.218103758769e-04 0.0 
-1.218103758769e-04 -9.528787122969e-04 0.0 
0.0 0.0 0.0 
-1.020410346766e-03 -1.741879484343e-04 0.0 
-1.741879484343e-04 6.569036879710e-03 0.0 
0.0 0.0 -1.058763633038e-03 
3.724684338326e-03 5.348789957355e-03 0.0 
5.348789957355e-03 -1.649569983233e-03 0.0 
0.0 0.0 -4.919579008500e-04 
-1.074016419554e-03 -9.865194451974e-06 0.0 
-9.865194451974e-06 6.344021920267e-03 0.0 
0.0 0.0 -9.498437721210e-04 
-9.305727240655e-04 -6.933921297842e-04 0.0 
-6.933921297842e-04 5.329347824549e-03 0.0 
0.0 0.0 -8.496012432876e-04 
5.607267165759e-03 1.557222371626e-03 0.0 
1.557222371626e-03 -2.621308949989e-03 0.0 
0.0 0.0 -6.709551114794e-04 
-1.200608795278e-03 -4.872905826385e-04 0.0 
-4.872905826385e-04 7.367763642178e-03 0.0 
0.0 0.0 -1.141635569211e-03 
1.673895743521e-03 2.530185509813e-03 0.0 
2.530185509813e-03 2.759671928527e-03 0.0 
0.0 0.0 -8.859145181037e-04 
6.271638977287e-03 1.666873491569e-03 0.0 
1.666873491569e-03 -3.718714089066e-03 0.0 
0.0 0.0 -6.067458373204e-04 
-4.482118013589e-04 8.831253864075e-04 0.0 
8.831253864075e-04 5.171291779094e-03 0.0 
0.0 0.0 -8.989548790023e-04 
3.806116853771e-03 -3.931182287388e-03 0.0 
-3.931182287388e-03 -3.555148687726e-03 0.0 
0.0 0.0 -1.075577854481e-04 
-2.735497806706e-06 1.279658657015e-03 0.0 
1.279658657015e-03 5.477667200356e-03 0.0 
0.0 0.0 -1.026417656363e-03 
1.382045860594e-04 4.087097837871e-04 0.0 
4.087097837871e-04 5.432322649671e-03 0.0 
0.0 0.0 -1.065496432940e-03 
-1.133020521063e-03 4.616832701966e-04 0.0 
4.616832701966e-04 7.807744340412e-03 0.0 
0.0 0.0 -1.233600908384e-03 
1.177614784631e-04 1.363728861202e-03 0.0 
1.363728861202e-03 5.734606760184e-03 0.0 
0.0 0.0 -1.090749533212e-03 
6.255484521037e-03 -6.319669735886e-05 0.0 
-6.319669735886e-05 -4.482192702147e-03 0.0 
0.0 0.0 -4.758149136988e-04 
-1.100855494631e-03 -5.513580386133e-04 0.0 
-5.513580386133e-04 6.680884096093e-03 0.0 
0.0 0.0 -1.047231727503e-03 
-1.252169978070e-03 3.748871630309e-04 0.0 
3.748871630309e-04 8.183246127380e-03 0.0 
0.0 0.0 -1.228155452712e-03 
-1.172998084832e-03 8.287498321717e-05 0.0 
8.287498321717e-05 7.902166307926e-03 0.0 
0.0 0.0 -1.267145247477e-03 
-1.970000374729e-04 3.964772868806e-04 0.0 
3.964772868806e-04 5.997612104831e-03 0.0 
0.0 0.0 -1.102242875413e-03 
4.752987094329e-03 2.911386158452e-03 0.0 
2.911386158452e-03 -1.316271973364e-03 0.0 
0.0 0.0 -7.127912709901e-04 
-2.523459311586e-04 1.065086365754e-03 0.0 
1.065086365754e-03 5.350244644715e-03 0.0 
0.0 0.0 -9.624716764950e-04 
-1.265622827008e-03 -3.602381928261e-05 0.0 
-3.602381928261e-05 7.525688479598e-03 0.0 
0.0 0.0 -1.164316760544e-03 
-1.026823558190e-03 -3.127358117122e-04 0.0 
-3.127358117122e-04 5.188290229651e-03 0.0 
0.0 0.0 -7.878971455476e-04 
2.400216004185e-04 1.757070449486e-03 0.0 
1.757070449486e-03 5.287518321925e-03 0.0 
0.0 0.0 -1.057196955382e-03 
-1.092783271967e-03 3.587775336083e-04 0.0 
3.587775336083e-04 6.543365283594e-03 0.0 
0.0 0.0 -9.877098122506e-04 
-1.155871143424e-03 -5.200772835953e-04 0.0 
-5.200772835953e-04 7.131963810306e-03 0.0 
0.0 0.0 -1.112977059762e-03 
-1.053791982519e-03 -5.418051239347e-04 0.0 
-5.418051239347e-04 6.849369446006e-03 0.0 
0.0 0.0 -1.093234982489e-03 
-8.344751970142e-04 -5.063632387036e-06 0.0 
-5.063632387036e-06 4.624983012521e-03 0.0 
0.0 0.0 -7.313513689239e-04 
-8.293658591313e-04 3.666703434100e-05 0.0 
3.666703434100e-05 4.623218336322e-03 0.0 
0.0 0.0 -7.310574395863e-04 
-1.097030069405e-03 1.613810298079e-04 0.0 
1.613810298079e-04 6.539696336596e-03 0.0 
0.0 0.0 -9.927888931629e-04 
9.062724447889e-05 1.672625727455e-03 0.0 
1.672625727455e-03 5.057175518580e-03 0.0 
0.0 0.0 -9.930598132463e-04 
-9.889474269995e-04 -6.231936758992e-04 0.0 
-6.231936758992e-04 5.582412655685e-03 0.0 
0.0 0.0 -8.780428295617e-04 
-1.024071250989e-03 2.871939654452e-04 0.0 
2.871939654452e-04 6.293682207182e-03 0.0 
0.0 0.0 -9.775429604617e-04 
2.381528143132e-03 2.768798625486e-03 0.0 
2.768798625486e-03 1.808640146178e-03 0.0 
0.0 0.0 -8.502279965035e-04 
-9.885787289723e-04 7.419181872583e-05 0.0 
7.419181872583e-05 7.098861370419e-03 0.0 
0.0 0.0 -1.180288150054e-03 
4.065724931708e-03 3.237373163691e-03 0.0 
3.237373163691e-03 -7.622931382625e-04 0.0 
0.0 0.0 -7.154845226688e-04 
-1.354053466570e-03 2.682798114320e-04 0.0 
2.682798114320e-04 9.013564030942e-03 0.0 
0.0 0.0 -1.323793839065e-03 
-9.392924140877e-04 3.695422570173e-04 0.0 
3.695422570173e-04 5.310514062737e-03 0.0 
0.0 0.0 -8.119939454945e-04 
2.186460471136e-03 2.592113763041e-03 0.0 
2.592113763041e-03 1.978397311219e-03 0.0 
0.0 0.0 -8.199314282332e-04 
-8.958346709753e-04 -3.297015998196e-04 0.0 
-3.297015998196e-04 5.260659561238e-03 0.0 
0.0 0.0 -8.523954645778e-04 
5.910349040377e-03 1.781638798320e-03 0.0 
1.781638798320e-03 -4.286485346529e-03 0.0 
0.0 0.0 -4.479040077299e-04 
-8.117880315537e-04 -8.289707142058e-04 0.0 
-8.289707142058e-04 4.623452632362e-03 0.0 
0.0 0.0 -7.551671247638e-04 
-1.658248385724e-04 1.475279381951e-03 0.0 
1.475279381951e-03 4.934578075940e-03 0.0 
0.0 0.0 -9.293281999836e-04 
-8.758111121474e-04 7.483431883641e-04 0.0 
7.483431883641e-04 5.371889788881e-03 0.0 
0.0 0.0 -8.738309435711e-04 
-1.092742745582e-03 3.915524889603e-04 0.0 
3.915524889603e-04 6.485907170089e-03 0.0 
0.0 0.0 -9.814596669550e-04 
-1.035952161766e-03 6.611052853446e-04 0.0 
6.611052853446e-04 6.380857888035e-03 0.0 
0.0 0.0 -1.008022096355e-03 
-1.077652724168e-03 2.805726221407e-04 0.0 
2.805726221407e-04 6.715783923999e-03 0.0 
0.0 0.0 -1.040850218070e-03 
-2.023974518503e-04 -1.321133762499e-04 0.0 
-1.321133762499e-04 1.384394093772e-03 0.0 
0.0 0.0 -2.163717569139e-04 
-7.893601242255e-04 -4.562798916239e-04 0.0 
-4.562798916239e-04 4.381521976835e-03 0.0 
0.0 0.0 -7.209013985657e-04 
-7.313998078972e-04 5.086544562021e-04 0.0 
5.086544562021e-04 4.197814066076e-03 0.0 
0.0 0.0 -6.825522065409e-04 
-1.028318523239e-03 6.006171887521e-04 0.0 
6.006171887521e-04 6.085692307244e-03 0.0 
0.0 0.0 -9.521954671713e-04 
-1.067646735267e-03 2.331910673829e-04 0.0 
2.331910673829e-04 6.426373394987e-03 0.0 
0.0 0.0 -9.850634846466e-04 
-7.241393842610e-04 3.990520100694e-04 0.0 
3.990520100694e-04 6.741187036530e-03 0.0 
0.0 0.0 -1.160108757481e-03 
-4.472950566148e-04 1.734158785359e-04 0.0 
1.734158785359e-04 1.999281221139e-03 0.0 
0.0 0.0 -3.273996513303e-04 
5.070930354664e-03 -3.990380393272e-03 0.0 
-3.990380393272e-03 -4.347709477594e-03 0.0 
0.0 0.0 -3.099518044586e-04 
-3.591561767810e-06 1.620340052162e-03 0.0 
1.620340052162e-03 4.154569583247e-03 0.0 
0.0 0.0 -8.305977116616e-04 
-8.244303094237e-04 -8.036957222691e-04 0.0 
-8.036957222691e-04 4.446645084886e-03 0.0 
0.0 0.0 -7.181358556540e-04 
-1.630481049587e-03 4.836396379902e-03 0.0 
4.836396379902e-03 5.107285120971e-03 0.0 
0.0 0.0 -6.554599841463e-04 
-1.919981944222e-03 4.813375155913e-03 0.0 
4.813375155913e-03 5.625412525966e-03 0.0 
0.0 0.0 -6.889204951115e-04 
-1.102411452052e-03 3.661135033763e-05 0.0 
3.661135033763e-05 6.536305471285e-03 0.0 
0.0 0.0 -9.793492904611e-04 
3.894809484938e-03 7.091159903056e-03 0.0 
7.091159903056e-03 -2.927021829251e-03 0.0 
0.0 0.0 -3.371109590423e-04 
-9.056307504124e-04 -3.219601326285e-04 0.0 
-3.219601326285e-04 5.073216074597e-03 0.0 
0.0 0.0 -8.154759146177e-04 
5.652055556044e-05 -1.370165079771e-04 0.0 
-1.370165079771e-04 5.392237594519e-03 0.0 
0.0 0.0 -1.049209916622e-03 
5.208620350421e-03 -1.664991511789e-03 0.0 
-1.664991511789e-03 -4.585240364962e-03 0.0 
0.0 0.0 -2.671628509107e-04 
-1.269607203850e-03 4.300111845681e-04 0.0 
4.300111845681e-04 8.005085435650e-03 0.0 
0.0 0.0 -1.285586381397e-03 
-1.234701409080e-03 4.026661623699e-05 0.0 
4.026661623699e-05 7.724712803764e-03 0.0 
0.0 0.0 -1.152455342817e-03 
-9.332307083252e-04 -6.317385210980e-04 0.0 
-6.317385210980e-04 4.943755293323e-03 0.0 
0.0 0.0 -7.756113943005e-04 
-1.132361128818e-03 -1.347962173953e-04 0.0 
-1.347962173953e-04 6.852501733015e-03 0.0 
0.0 0.0 -1.078722419643e-03 
-1.782286125890e-04 -3.440225614963e-05 0.0 
-3.440225614963e-05 7.356149739106e-04 0.0 
0.0 0.0 -1.797547709840e-04 
9.061962597111e-05 -3.053896753393e-04 0.0 
-3.053896753393e-04 5.141668756268e-03 0.0 
0.0 0.0 -1.012471576362e-03 
-9.057428566302e-05 1.203343928141e-03 0.0 
1.203343928141e-03 4.581102325372e-03 0.0 
0.0 0.0 -8.634366945984e-04 
-1.365202202974e-04 -1.663937919944e-05 0.0 
-1.663937919944e-05 7.240163383166e-04 0.0 
0.0 0.0 -1.788519809851e-04 
-1.221296204116e-03 3.897303876191e-04 0.0 
3.897303876191e-04 7.675470665632e-03 0.0 
0.0 0.0 -1.154859126927e-03 
4.802848345908e-03 -1.962910647407e-03 0.0 
-1.962910647407e-03 -4.265277444595e-03 0.0 
0.0 0.0 -2.303875291341e-04 
-1.022773715161e-03 2.649419741859e-04 0.0 
2.649419741859e-04 6.147018606592e-03 0.0 
0.0 0.0 -9.496453321265e-04 
-8.501477431051e-04 4.017489682252e-04 0.0 
4.017489682252e-04 5.430956065029e-03 0.0 
0.0 0.0 -8.712718144564e-04 
1.243824212054e-03 -7.597960960081e-04 0.0 
-7.597960960081e-04 2.378147641784e-03 0.0 
0.0 0.0 -7.519815330289e-04 
-3.130255717952e-04 -2.932054101763e-04 0.0 
-2.932054101763e-04 4.898100105399e-03 0.0 
0.0 0.0 -9.052548162676e-04 
-1.248469741651e-03 4.216386458729e-04 0.0 
4.216386458729e-04 7.872413297340e-03 0.0 
0.0 0.0 -1.182898372388e-03 
-4.698455445912e-04 -1.985532867075e-04 0.0 
-1.985532867075e-04 5.448940983162e-03 0.0 
0.0 0.0 -9.716005391689e-04 
7.975259620786e-04 2.149596233437e-03 0.0 
2.149596233437e-03 3.490529278224e-03 0.0 
0.0 0.0 -8.581765416018e-04 
5.152339183636e-04 1.739069027236e-03 0.0 
1.739069027236e-03 3.742521691167e-03 0.0 
0.0 0.0 -8.279616112546e-04 
-1.488569222082e-03 1.307950605101e-02 0.0 
1.307950605101e-02 1.798641236205e-03 0.0 
0.0 0.0 -1.328880060527e-04 
4.240707208999e-03 -1.220021442763e-03 0.0 
-1.220021442763e-03 -3.865531455315e-03 0.0 
0.0 0.0 -1.607896087218e-04 
3.242067047262e-05 1.190490596838e-03 0.0 
1.190490596838e-03 5.952765075386e-03 0.0 
0.0 0.0 -1.118331045454e-03 
-1.047581819557e-03 3.855603907834e-05 0.0 
3.855603907834e-05 6.024362043911e-03 0.0 
0.0 0.0 -9.085367473448e-04 
-4.981249448895e-04 1.062766239481e-03 0.0 
1.062766239481e-03 6.554541872996e-03 0.0 
0.0 0.0 -1.148691026115e-03 
2.556304401131e-03 4.815976133428e-03 0.0 
4.815976133428e-03 -6.606319788484e-04 0.0 
0.0 0.0 -4.942977111402e-04 
-1.176051745943e-03 5.435901405529e-04 0.0 
5.435901405529e-04 7.176283028080e-03 0.0 
0.0 0.0 -1.097950598811e-03 
-2.432084324549e-04 1.057521815363e-03 0.0 
1.057521815363e-03 6.472846190964e-03 0.0 
0.0 0.0 -1.155407764312e-03 
-8.481473499091e-04 3.802854440166e-04 0.0 
3.802854440166e-04 4.634623972028e-03 0.0 
0.0 0.0 -7.179420443741e-04 
-1.086652671249e-04 1.423329752859e-03 0.0 
1.423329752859e-03 6.005361310507e-03 0.0 
0.0 0.0 -1.120992621467e-03 
-1.150488405997e-03 -5.115596481821e-04 0.0 
-5.115596481821e-04 6.921289775542e-03 0.0 
0.0 0.0 -1.075946734593e-03 
4.876135333269e-04 1.911352521147e-03 0.0 
1.911352521147e-03 4.419976370036e-03 0.0 
0.0 0.0 -9.571162043194e-04 
-8.407412319889e-04 -3.923326874810e-04 0.0 
-3.923326874810e-04 4.820090656330e-03 0.0 
0.0 0.0 -7.866383436874e-04 
-8.661293961769e-04 -7.636305903076e-04 0.0 
-7.636305903076e-04 5.068827859701e-03 0.0 
0.0 0.0 -8.209012074946e-04 
-1.276631957823e-03 1.351613779989e-04 0.0 
1.351613779989e-04 8.067600813718e-03 0.0 
0.0 0.0 -1.204704583718e-03 
-2.172663080650e-04 -4.014852185045e-04 0.0 
-4.014852185045e-04 4.407572156140e-03 0.0 
0.0 0.0 -8.396599866114e-04 
-6.886401883674e-04 9.815862257428e-04 0.0 
9.815862257428e-04 5.321122536759e-03 0.0 
0.0 0.0 -9.015555482168e-04 
3.167439432887e-03 2.437089534123e-03 0.0 
2.437089534123e-03 9.570269596258e-04 0.0 
0.0 0.0 -8.433600309793e-04 
-7.003798445980e-04 -1.337317412749e-04 0.0 
-1.337317412749e-04 6.071371734510e-03 0.0 
0.0 0.0 -1.038364586984e-03 
2.958926217820e-03 2.819693519578e-03 0.0 
2.819693519578e-03 9.641397327613e-04 0.0 
0.0 0.0 -7.842421616061e-04 
6.366071180639e-03 2.400471946173e-04 0.0 
2.400471946173e-04 -4.498870786200e-03 0.0 
0.0 0.0 -5.065804551108e-04 
1.903770468859e-03 3.787981449035e-04 0.0 
3.787981449035e-04 2.294190618442e-03 0.0 
0.0 0.0 -8.561803240471e-04 
6.504130979021e-03 1.805268093135e-03 0.0 
1.805268093135e-03 -4.399448974236e-03 0.0 
0.0 0.0 -5.426160209679e-04 
-1.033438603377e-03 6.383788790857e-04 0.0 
6.383788790857e-04 6.235509335954e-03 0.0 
0.0 0.0 -9.799122972177e-04 
6.274195200371e-03 1.283805221574e-04 0.0 
1.283805221574e-04 -4.049623379107e-03 0.0 
0.0 0.0 -5.399485503623e-04 
-9.706412986079e-04 3.184758127264e-04 0.0 
3.184758127264e-04 6.013389094156e-03 0.0 
0.0 0.0 -9.420580210740e-04 
-4.548822433797e-04 1.848493065872e-04 0.0 
1.848493065872e-04 6.414128921723e-03 0.0 
0.0 0.0 -1.130549445556e-03 
-1.494034750846e-04 5.998931761351e-04 0.0 
5.998931761351e-04 5.794941281467e-03 0.0 
0.0 0.0 -1.096529089934e-03 
3.151427673379e-03 3.146099411933e-03 0.0 
3.146099411933e-03 4.020887479623e-04 0.0 
0.0 0.0 -7.512528815036e-04 
-1.059191105034e-03 4.065855107728e-04 0.0 
4.065855107728e-04 6.228287830528e-03 0.0 
0.0 0.0 -9.460253849645e-04 
-1.179141908394e-03 -9.694575707592e-05 0.0 
-9.694575707592e-05 7.087490944073e-03 0.0 
0.0 0.0 -1.107441567342e-03 
-1.193835214950e-03 -4.719824871619e-04 0.0 
-4.719824871619e-04 7.155436910273e-03 0.0 
0.0 0.0 -1.104747680386e-03 
3.186099685019e-03 7.978752870967e-03 0.0 
7.978752870967e-03 -2.479540067598e-03 0.0 
0.0 0.0 -3.028112646091e-04 
-9.836336619932e-04 6.878362883605e-04 0.0 
6.878362883605e-04 6.089006481299e-03 0.0 
0.0 0.0 -9.724793438395e-04 
-1.268204156625e-03 7.721982515826e-06 0.0 
7.721982515826e-06 7.786698253164e-03 0.0 
0.0 0.0 -1.205818386895e-03 
-6.870681417228e-04 7.008927199053e-04 0.0 
7.008927199053e-04 3.265237971609e-03 0.0 
0.0 0.0 -5.357889572170e-04 
-9.885170178391e-04 -5.948066208015e-04 0.0 
-5.948066208015e-04 5.380783060798e-03 0.0 
0.0 0.0 -8.409532000723e-04 
-1.304266623635e-03 1.268245173266e-02 0.0 
1.268245173266e-02 1.783319836329e-03 0.0 
0.0 0.0 -2.053085197260e-04 
-1.219579480668e-03 -6.033820998881e-05 0.0 
-6.033820998881e-05 7.313003609483e-03 0.0 
0.0 0.0 -1.136235114959e-03 
6.316359907841e-03 2.013199089468e-03 0.0 
2.013199089468e-03 -4.680843761506e-03 0.0 
0.0 0.0 -4.785631936959e-04 
-1.042459381450e-03 3.192310209747e-05 0.0 
3.192310209747e-05 5.237687487302e-03 0.0 
0.0 0.0 -8.166178341775e-04 
7.622574769716e-04 1.419181975065e-03 0.0 
1.419181975065e-03 4.394207771717e-03 0.0 
0.0 0.0 -1.008721701990e-03 
-1.070450976463e-03 4.786712554869e-05 0.0 
4.786712554869e-05 6.281594191104e-03 0.0 
0.0 0.0 -9.438854677472e-04 
-1.019990029507e-03 4.017679917675e-04 0.0 
4.017679917675e-04 5.968797618871e-03 0.0 
0.0 0.0 -9.108073647307e-04 
2.217279241312e-04 1.754132146680e-03 0.0 
1.754132146680e-03 4.307875322002e-03 0.0 
0.0 0.0 -8.936906232635e-04 
-1.230013993721e-03 4.020762849345e-03 0.0 
4.020762849345e-03 4.281606101453e-03 0.0 
0.0 0.0 -5.884905393267e-04 
-1.376078137243e-03 4.449800046544e-03 0.0 
4.449800046544e-03 4.656816924380e-03 0.0 
0.0 0.0 -6.218825813656e-04 
-1.233191643352e-03 -4.261165376934e-04 0.0 
-4.261165376934e-04 7.382821542764e-03 0.0 
0.0 0.0 -1.133400347077e-03 
-4.464511506973e-04 -6.335406455917e-04 0.0 
-6.335406455917e-04 5.255015126774e-03 0.0 
0.0 0.0 -9.394087121358e-04 
1.078135357722e-03 -5.834702039824e-04 0.0 
-5.834702039824e-04 2.954757696274e-03 0.0 
0.0 0.0 -8.164864906097e-04 
4.023861161514e-04 2.124312479759e-04 0.0 
2.124312479759e-04 4.786306217623e-03 0.0 
0.0 0.0 -1.014986374720e-03 
2.452369329356e-03 3.029412686116e-04 0.0 
3.029412686116e-04 1.342870461864e-03 0.0 
0.0 0.0 -7.915105747055e-04 
6.306936714764e-03 1.655036417791e-03 0.0 
1.655036417791e-03 -4.237320734251e-03 0.0 
0.0 0.0 -5.119962057136e-04 
-1.159162739597e-03 4.177364196187e-03 0.0 
4.177364196187e-03 4.181268317360e-03 0.0 
0.0 0.0 -5.908395828668e-04 
-9.989176313813e-04 5.279041160422e-05 0.0 
5.279041160422e-05 5.610761613461e-03 0.0 
0.0 0.0 -8.442294783838e-04 
-8.140722277822e-04 1.153536144127e-05 0.0 
1.153536144127e-05 4.902728731460e-03 0.0 
0.0 0.0 -7.121995050294e-04 
-1.218966547399e-04 2.001322835989e-04 0.0 
2.001322835989e-04 5.846451688723e-03 0.0 
0.0 0.0 -1.093598669875e-03 
3.820807310601e-03 2.960059313116e-03 0.0 
2.960059313116e-03 -1.394965385605e-04 0.0 
0.0 0.0 -7.486350631497e-04 
-1.089919498544e-03 4.032533245885e-04 0.0 
4.032533245885e-04 7.584210826506e-03 0.0 
0.0 0.0 -1.233571955743e-03 
-1.258849103109e-03 1.203645015164e-04 0.0 
1.203645015164e-04 7.318640773608e-03 0.0 
0.0 0.0 -1.121177773779e-03 
2.131063243727e-03 1.122235412757e-04 0.0 
1.122235412757e-04 1.952611624514e-03 0.0 
0.0 0.0 -8.252461108756e-04 
-1.288851597356e-03 -4.658297080141e-04 0.0 
-4.658297080141e-04 8.043612715449e-03 0.0 
0.0 0.0 -1.241472629463e-03 
5.182953632471e-03 -8.539214552261e-04 0.0 
-8.539214552261e-04 -2.784038601229e-03 0.0 
0.0 0.0 -5.682622744621e-04 
-1.041054976710e-03 4.950031034373e-04 0.0 
4.950031034373e-04 7.352893404370e-03 0.0 
0.0 0.0 -1.204482468497e-03 
6.834138142102e-04 1.747481807888e-03 0.0 
1.747481807888e-03 3.949987812284e-03 0.0 
0.0 0.0 -8.910665706739e-04 
9.689699520335e-04 2.065973982515e-03 0.0 
2.065973982515e-03 4.078216504053e-03 0.0 
0.0 0.0 -9.848034212815e-04 
-9.233890253087e-04 -3.371954968206e-04 0.0 
-3.371954968206e-04 6.946487006122e-03 0.0 
0.0 0.0 -1.146785027167e-03 
-6.480751664788e-04 -1.064130565160e-03 0.0 
-1.064130565160e-03 3.485571623010e-03 0.0 
0.0 0.0 -5.958228065582e-04 
-9.249137529480e-04 7.248290962260e-04 0.0 
7.248290962260e-04 5.797065013750e-03 0.0 
0.0 0.0 -9.369464185080e-04 
1.819758723813e-03 -3.527320727856e-04 0.0 
-3.527320727856e-04 2.031262897085e-03 0.0 
0.0 0.0 -7.886172400246e-04 
-9.126908566727e-04 3.597233129020e-04 0.0 
3.597233129020e-04 5.721921232905e-03 0.0 
0.0 0.0 -9.065670216064e-04 
2.427742779342e-03 4.435787975463e-03 0.0 
4.435787975463e-03 -9.300232245575e-05 0.0 
0.0 0.0 -5.268093404353e-04 
8.616047300621e-04 1.805941317852e-03 0.0 
1.805941317852e-03 4.347000346148e-03 0.0 
0.0 0.0 -1.013229387512e-03 
2.035338661449e-03 -1.591456518169e-04 0.0 
-1.591456518169e-04 1.547396145653e-03 0.0 
0.0 0.0 -7.548706880268e-04 
-9.599399109740e-04 -2.677314431030e-04 0.0 
-2.677314431030e-04 5.510906117541e-03 0.0 
0.0 0.0 -8.810281692460e-04 
-9.326422123301e-04 7.027170698306e-04 0.0 
7.027170698306e-04 5.663041666324e-03 0.0 
0.0 0.0 -9.091416541300e-04 
1.998850915999e-03 1.760408597354e-02 0.0 
1.760408597354e-02 -1.693658118445e-03 0.0 
0.0 0.0 -1.307969132375e-04 
2.178423713151e-03 1.919969658981e-03 0.0 
1.919969658981e-03 2.352151487511e-03 0.0 
0.0 0.0 -9.082496170556e-04 
6.214953611325e-04 1.160552179869e-02 0.0 
1.160552179869e-02 1.208479687141e-04 0.0 
0.0 0.0 -3.181471413628e-04 
-3.486990110528e-04 1.618131580725e-05 0.0 
1.618131580725e-05 1.379681923450e-03 0.0 
0.0 0.0 -2.410360834028e-04 
-9.637368636999e-04 -2.534336696837e-04 0.0 
-2.534336696837e-04 5.310722216845e-03 0.0 
0.0 0.0 -8.438072171805e-04 
-7.290944172188e-04 6.996799809765e-04 0.0 
6.996799809765e-04 6.657685757605e-03 0.0 
0.0 0.0 -1.098354823938e-03 
-1.049951667635e-03 4.416530287396e-04 0.0 
4.416530287396e-04 6.131491265693e-03 0.0 
0.0 0.0 -9.387552692590e-04 
-1.034253300378e-03 3.189396681722e-03 0.0 
3.189396681722e-03 3.674676677144e-03 0.0 
0.0 0.0 -5.215302833573e-04 
-1.342322198460e-03 3.183613232645e-04 0.0 
3.183613232645e-04 8.773669276182e-03 0.0 
0.0 0.0 -1.342322198460e-03 
-1.747601315367e-03 1.704218109213e-02 0.0 
1.704218109213e-02 1.843927191126e-03 0.0 
0.0 0.0 -4.128251818244e-05 
-1.104462443805e-03 3.575984752844e-03 0.0 
3.575984752844e-03 3.965574442516e-03 0.0 
0.0 0.0 -5.549805679787e-04 
1.043202862785e-03 -1.958076228015e-04 0.0 
-1.958076228015e-04 3.135026824830e-03 0.0 
0.0 0.0 -8.472740691906e-04 
-9.827474692013e-04 -5.565690633406e-04 0.0 
-5.565690633406e-04 5.178751046310e-03 0.0 
0.0 0.0 -8.042584860449e-04 
-8.272148132873e-04 2.043748305373e-04 0.0 
2.043748305373e-04 4.358943672927e-03 0.0 
0.0 0.0 -6.733236465360e-04 
1.827587949962e-03 -1.121613204819e-03 0.0 
-1.121613204819e-03 7.414219186820e-04 0.0 
0.0 0.0 -5.908717820549e-04 
-3.102210287107e-04 -7.227618344982e-04 0.0 
-7.227618344982e-04 4.711500476545e-03 0.0 
0.0 0.0 -8.733819075714e-04 
1.292371293107e-04 1.350524798917e-03 0.0 
1.350524798917e-03 4.736925894496e-03 0.0 
0.0 0.0 -9.266779469803e-04 
1.169488308744e-03 1.429585084616e-03 0.0 
1.429585084616e-03 3.769777205233e-03 0.0 
0.0 0.0 -9.734188451722e-04 
-1.186630910785e-03 6.460835059358e-04 0.0 
6.460835059358e-04 7.362442267771e-03 0.0 
0.0 0.0 -1.144302277022e-03 
4.012756148766e-03 7.175275500839e-03 0.0 
7.175275500839e-03 -3.411864747325e-03 0.0 
0.0 0.0 -2.575248863319e-04 
-9.117889324076e-04 -2.951149434616e-04 0.0 
-2.951149434616e-04 4.877432515646e-03 0.0 
0.0 0.0 -7.784793977761e-04 
-1.012208946591e-03 -1.496092469439e-04 0.0 
-1.496092469439e-04 5.343186025449e-03 0.0 
0.0 0.0 -8.356154970834e-04 
-6.331046465697e-04 -9.049418944168e-04 0.0 
-9.049418944168e-04 2.758073297942e-03 0.0 
0.0 0.0 -4.544023106810e-04 
-8.924169308789e-04 4.058945008041e-04 0.0 
4.058945008041e-04 4.880366770900e-03 0.0 
0.0 0.0 -7.518103749233e-04 
-1.063894881261e-03 9.071629636428e-05 0.0 
9.071629636428e-05 6.191505659791e-03 0.0 
0.0 0.0 -9.362314798257e-04 
-1.205869425098e-03 -2.261798490425e-04 0.0 
-2.261798490425e-04 6.678201842620e-03 0.0 
0.0 0.0 -1.023451880212e-03 
-7.015472354662e-05 -2.565736168466e-05 0.0 
-2.565736168466e-05 9.612203433626e-04 0.0 
0.0 0.0 -1.605242656235e-04 
3.290733325017e-04 -9.360969140295e-05 0.0 
-9.360969140295e-05 -3.290733325017e-04 0.0 
0.0 0.0 0.0 
-5.147384921578e-04 -7.536249502610e-04 0.0 
-7.536249502610e-04 1.966691460963e-03 0.0 
0.0 0.0 -3.233707900025e-04 
-1.027484224102e-03 -4.836123400480e-04 0.0 
-4.836123400480e-04 5.407088060702e-03 0.0 
0.0 0.0 -8.330087554115e-04 
4.445610405827e-03 -4.152126592152e-04 0.0 
-4.152126592152e-04 -1.609474609958e-03 0.0 
0.0 0.0 -6.322020076307e-04 
2.086933486162e-03 -1.642802102947e-03 0.0 
-1.642802102947e-03 2.638107320461e-04 0.0 
0.0 0.0 -5.605319560360e-04 
5.668111784674e-03 -1.360168078436e-03 0.0 
-1.360168078436e-03 -3.723704730708e-03 0.0 
0.0 0.0 -5.041580933422e-04 
-1.016808142495e-03 -1.850132427343e-04 0.0 
-1.850132427343e-04 5.546831112907e-03 0.0 
0.0 0.0 -8.721335634590e-04 
-1.089492890547e-03 5.256596706488e-04 0.0 
5.256596706488e-04 6.464473810732e-03 0.0 
0.0 0.0 -9.956198530692e-04 
-1.055480845035e-03 -8.073487003007e-05 0.0 
-8.073487003007e-05 5.564073531230e-03 0.0 
0.0 0.0 -8.643287579461e-04 
5.446389501917e-03 5.537841022788e-04 0.0 
5.537841022788e-04 -2.686868798478e-03 0.0 
0.0 0.0 -6.348607296064e-04 
-9.652452647080e-04 3.246353242037e-04 0.0 
3.246353242037e-04 6.148089658116e-03 0.0 
0.0 0.0 -9.699423737970e-04 
-9.336187348190e-04 2.571357999357e-04 0.0 
2.571357999357e-04 5.466318221896e-03 0.0 
0.0 0.0 -8.236220363599e-04 
1.401097156464e-05 1.028009789784e-03 0.0 
1.028009789784e-03 5.538783717452e-03 0.0 
0.0 0.0 -1.076197569190e-03 
-1.067019444508e-03 -4.166446150284e-04 0.0 
-4.166446150284e-04 5.628158977285e-03 0.0 
0.0 0.0 -8.617642947636e-04 
-1.037211549759e-03 -5.241557810677e-04 0.0 
-5.241557810677e-04 5.613837274242e-03 0.0 
0.0 0.0 -8.694825820363e-04 
-9.237713711191e-04 2.656309959669e-03 0.0 
2.656309959669e-03 3.124083852282e-03 0.0 
0.0 0.0 -4.548485160793e-04 
2.763181829101e-03 -8.067644130574e-04 0.0 
-8.067644130574e-04 2.584141232147e-04 0.0 
0.0 0.0 -6.598952468720e-04 
-1.092100602406e-03 -1.853786207342e-05 0.0 
-1.853786207342e-05 5.772593500168e-03 0.0 
0.0 0.0 -8.930692851043e-04 
-1.055598751707e-03 1.761127934755e-04 0.0 
1.761127934755e-04 6.440216787672e-03 0.0 
0.0 0.0 -9.615701295831e-04 
-1.001453888758e-03 1.848581000640e-04 0.0 
1.848581000640e-04 6.057549413992e-03 0.0 
0.0 0.0 -8.972249362023e-04 
-9.693815696629e-04 2.928338399170e-03 0.0 
2.928338399170e-03 3.413733558272e-03 0.0 
0.0 0.0 -4.879487645214e-04 
-1.064022376908e-03 -1.167841295241e-04 0.0 
-1.167841295241e-04 5.775583557860e-03 0.0 
0.0 0.0 -9.007118478548e-04 
-2.652099014593e-04 -1.283619429212e-03 0.0 
-1.283619429212e-03 2.620233323695e-03 0.0 
0.0 0.0 -5.517684601482e-04 
7.752455066509e-04 6.496843169250e-03 0.0 
6.496843169250e-03 2.028662741084e-04 0.0 
0.0 0.0 -4.029896332773e-04 
-1.039806928900e-03 7.823851493912e-05 0.0 
7.823851493912e-05 7.448612863393e-03 0.0 
0.0 0.0 -1.202908440308e-03 
-5.627131210403e-04 -6.726340984242e-04 0.0 
-6.726340984242e-04 1.683903901649e-03 0.0 
0.0 0.0 -3.052185142707e-04 
-2.753710524582e-04 -8.278784130390e-04 0.0 
-8.278784130390e-04 2.880616488793e-03 0.0 
0.0 0.0 -5.822209219963e-04 
2.817425536518e-03 2.135548376725e-03 0.0 
2.135548376725e-03 1.638247077054e-03 0.0 
0.0 0.0 -8.766521650092e-04 
-9.567024903485e-04 3.382163797519e-03 0.0 
3.382163797519e-03 3.564849349578e-03 0.0 
0.0 0.0 -5.239962781855e-04 
-1.100749507766e-03 -3.563808608849e-04 0.0 
-3.563808608849e-04 5.849825024464e-03 0.0 
0.0 0.0 -8.905656347129e-04 
-5.985345031535e-04 -2.223177207573e-04 0.0 
-2.223177207573e-04 2.732572505037e-03 0.0 
0.0 0.0 -4.282508963332e-04 
-9.076266712888e-04 3.184539997901e-05 0.0 
3.184539997901e-05 5.036430824459e-03 0.0 
0.0 0.0 -7.823486082854e-04 
-1.081370140730e-03 -4.558826803401e-04 0.0 
-4.558826803401e-04 5.841011814907e-03 0.0 
0.0 0.0 -8.981647654366e-04 
4.782140603577e-04 -8.427595404597e-04 0.0 
-8.427595404597e-04 3.333342706183e-03 0.0 
0.0 0.0 -7.800125773855e-04 
-9.348538294518e-04 -6.697112536075e-04 0.0 
-6.697112536075e-04 5.140798604724e-03 0.0 
0.0 0.0 -8.126672281948e-04 
3.009606043993e-03 6.637277485459e-03 0.0 
6.637277485459e-03 -2.910116511477e-03 0.0 
0.0 0.0 -4.263837107836e-05 
-1.241448931941e-03 -1.835319642593e-04 0.0 
-1.835319642593e-04 7.812891284508e-03 0.0 
0.0 0.0 -1.152567315725e-03 
5.382912845346e-04 -1.165447217631e-03 0.0 
-1.165447217631e-03 2.452231145520e-03 0.0 
0.0 0.0 -6.514572604261e-04 
-6.268544744706e-04 3.093694521071e-04 0.0 
3.093694521071e-04 6.664282672388e-03 0.0 
0.0 0.0 -1.154039482800e-03 
1.301231295273e-03 1.896992154049e-03 0.0 
1.896992154049e-03 3.852269469720e-03 0.0 
0.0 0.0 -9.821191134873e-04 
-1.105426206004e-03 -5.038601752530e-05 0.0 
-5.038601752530e-05 5.994681172748e-03 0.0 
0.0 0.0 -9.293965016571e-04 
-1.119004413752e-03 -3.820015781438e-04 0.0 
-3.820015781438e-04 6.058753668650e-03 0.0 
0.0 0.0 -9.268654845074e-04 
4.755963752297e-03 -4.847812214366e-04 0.0 
-4.847812214366e-04 -2.213600054706e-03 0.0 
0.0 0.0 -5.989583036242e-04 
-3.157644098559e-04 -6.245110788433e-04 0.0 
-6.245110788433e-04 1.110181514534e-03 0.0 
0.0 0.0 -2.862240160649e-04 
3.867259456186e-03 1.274396411475e-02 0.0 
1.274396411475e-02 -3.774334499270e-03 0.0 
0.0 0.0 -3.982498153517e-05 
-1.139236581336e-03 9.449893671700e-06 0.0 
9.449893671700e-06 6.206332100994e-03 0.0 
0.0 0.0 -9.583065114985e-04 
-7.073624063056e-04 1.188432400641e-04 0.0 
1.188432400641e-04 6.717197315044e-03 0.0 
0.0 0.0 -1.148056181429e-03 
-4.775145294270e-04 -1.288589848279e-03 0.0 
-1.288589848279e-03 2.885723426917e-03 0.0 
0.0 0.0 -5.426247857783e-04 
-8.277793514633e-04 8.839910160708e-04 0.0 
8.839910160708e-04 6.076746669979e-03 0.0 
0.0 0.0 -1.000702849114e-03 
-6.472337897981e-04 7.799664963271e-04 0.0 
7.799664963271e-04 2.970737159620e-03 0.0 
0.0 0.0 -5.002094317253e-04 
-1.024167741003e-03 2.983156923563e-04 0.0 
2.983156923563e-04 6.439902929080e-03 0.0 
0.0 0.0 -1.005614027492e-03 
-1.230125729383e-03 -1.791987086205e-04 0.0 
-1.791987086205e-04 8.178224384408e-03 0.0 
0.0 0.0 -1.266534580134e-03 
0.0 0.0 0.0 
0.0 0.0 0.0 
0.0 0.0 0.0 
-1.341620833825e-03 -1.240232465015e-06 0.0 
-1.240232465015e-06 8.838044206909e-03 0.0 
0.0 0.0 -1.341620833825e-03 
-1.340051318819e-03 -7.855236063614e-05 0.0 
-7.855236063614e-05 8.625114056382e-03 0.0 
0.0 0.0 -1.340051318819e-03 
-8.980163173550e-04 -1.960905146637e-04 0.0 
-1.960905146637e-04 5.236321733421e-03 0.0 
0.0 0.0 -7.955197795907e-04 
-4.661383092836e-04 -1.098309243055e-03 0.0 
-1.098309243055e-03 3.461471777819e-03 0.0 
0.0 0.0 -6.428246066218e-04 
8.672538931908e-04 1.798738314662e-03 0.0 
1.798738314662e-03 4.144834743779e-03 0.0 
0.0 0.0 -9.543595451431e-04 
5.853325198157e-03 3.712927480292e-04 0.0 
3.712927480292e-04 -3.193215563996e-03 0.0 
0.0 0.0 -6.041149214933e-04 
-2.283359273976e-04 -2.821495717667e-04 0.0 
-2.821495717667e-04 1.216165341166e-03 0.0 
0.0 0.0 -2.095884814006e-04 
-1.700504889832e-03 1.701183272077e-02 0.0 
1.701183272077e-02 2.034963791856e-03 0.0 
0.0 0.0 -1.433395294388e-04 
-1.275023357737e-03 -5.993191991654e-05 0.0 
-5.993191991654e-05 8.163058981243e-03 0.0 
0.0 0.0 -1.209499414335e-03 
-1.082712059579e-03 1.205245821570e-04 0.0 
1.205245821570e-04 6.373245931173e-03 0.0 
0.0 0.0 -9.648175333861e-04 
-1.041415169819e-03 4.118583245787e-04 0.0 
4.118583245787e-04 5.004550834520e-03 0.0 
0.0 0.0 -7.224789237173e-04 
-1.279272833011e-03 4.773478504551e-04 0.0 
4.773478504551e-04 8.632757308161e-03 0.0 
0.0 0.0 -1.323661129950e-03 
-4.995343539176e-04 -2.062360200378e-04 0.0 
-2.062360200378e-04 2.288215934898e-03 0.0 
0.0 0.0 -3.615704333793e-04 
-1.305160647697e-03 4.322097678811e-04 0.0 
4.322097678811e-04 8.590809380930e-03 0.0 
0.0 0.0 -1.324908485340e-03 
-1.072336849723e-03 4.894356542549e-04 0.0 
4.894356542549e-04 6.310526310337e-03 0.0 
0.0 0.0 -9.670422101491e-04 
-6.106684104583e-04 -1.077307355153e-03 0.0 
-1.077307355153e-03 3.630162810958e-03 0.0 
0.0 0.0 -6.336394413500e-04 
9.921929671311e-04 2.180898022273e-03 0.0 
2.180898022273e-03 3.675670081207e-03 0.0 
0.0 0.0 -9.212972352143e-04 
-4.366727405359e-04 -7.825680509829e-04 0.0 
-7.825680509829e-04 3.244703639757e-03 0.0 
0.0 0.0 -6.094834619596e-04 
3.423080133257e-04 5.328699728690e-03 0.0 
5.328699728690e-03 7.837414486414e-04 0.0 
0.0 0.0 -3.649795199019e-04 
-4.990879049153e-04 -8.274194353689e-04 0.0 
-8.274194353689e-04 3.123468955199e-03 0.0 
0.0 0.0 -5.728018649490e-04 
-1.102176339442e-03 5.667634332671e-04 0.0 
5.667634332671e-04 6.620528006741e-03 0.0 
0.0 0.0 -1.023749757194e-03 
-1.274902778913e-03 -3.210380531188e-04 0.0 
-3.210380531188e-04 7.572738005346e-03 0.0 
0.0 0.0 -1.155390781228e-03 
5.703147361163e-04 -9.162521543206e-04 0.0 
-9.162521543206e-04 2.210236060938e-03 0.0 
0.0 0.0 -6.181853003094e-04 
-1.037039327620e-03 6.760843031957e-04 0.0 
6.760843031957e-04 6.523249431128e-03 0.0 
0.0 0.0 -1.036271578259e-03 
0.0 0.0 0.0 
0.0 0.0 0.0 
0.0 0.0 0.0 
2.995869262095e-03 -7.555906632185e-04 0.0 
-7.555906632185e-04 -2.386718337794e-04 0.0 
0.0 0.0 -6.266282162577e-04 
-1.167206438241e-03 1.283137067331e-04 0.0 
1.283137067331e-04 7.080432372571e-03 0.0 
0.0 0.0 -1.066385360782e-03 
-6.379492421497e-04 -6.916022810517e-04 0.0 
-6.916022810517e-04 3.261870100237e-03 0.0 
0.0 0.0 -5.616069800515e-04 
-5.397721604140e-04 -1.270380268010e-03 0.0 
-1.270380268010e-03 2.784654802048e-03 0.0 
0.0 0.0 -5.052880831394e-04 
1.511545915774e-03 2.150325567492e-03 0.0 
2.150325567492e-03 3.262673651317e-03 0.0 
0.0 0.0 -9.187611816440e-04 
2.156726079959e-03 -4.155851511749e-03 0.0 
-4.155851511749e-03 -1.382323770835e-03 0.0 
0.0 0.0 -3.318867039103e-04 
-8.790911387928e-04 2.481774742917e-03 0.0 
2.481774742917e-03 2.597453118005e-03 0.0 
0.0 0.0 -3.867203691650e-04 
-8.824084832604e-04 2.963195047648e-03 0.0 
2.963195047648e-03 2.950743500001e-03 0.0 
0.0 0.0 -4.195921675762e-04 
-6.113097074720e-04 -7.505403763561e-04 0.0 
-7.505403763561e-04 2.857444945758e-03 0.0 
0.0 0.0 -4.973376392308e-04 
3.807332837682e-04 -6.987022739850e-04 0.0 
-6.987022739850e-04 3.838173598132e-03 0.0 
0.0 0.0 -8.444178005646e-04 
3.078783535945e-03 2.881788011091e-03 0.0 
2.881788011091e-03 8.765922709560e-04 0.0 
0.0 0.0 -8.147327860212e-04 
-9.156260629275e-04 4.398762221839e-04 0.0 
4.398762221839e-04 6.471614015393e-03 0.0 
0.0 0.0 -1.033897369924e-03 
-1.251489828841e-03 5.632464710331e-04 0.0 
5.632464710331e-04 7.903464121438e-03 0.0 
0.0 0.0 -1.224260864640e-03 
-8.393423589410e-04 2.826588779486e-03 0.0 
2.826588779486e-03 3.029808597122e-03 0.0 
0.0 0.0 -4.570814260163e-04 
-1.106194698900e-03 -2.340999049272e-04 0.0 
-2.340999049272e-04 6.875726326228e-03 0.0 
0.0 0.0 -1.028620860735e-03 
-9.150886355563e-04 9.031453292313e-04 0.0 
9.031453292313e-04 7.463571812784e-03 0.0 
0.0 0.0 -1.228414553209e-03 
6.112925455378e-03 3.702696341926e-04 0.0 
3.702696341926e-04 -3.789601759854e-03 0.0 
0.0 0.0 -5.707601703556e-04 
3.126223641689e-04 8.470499463701e-03 0.0 
8.470499463701e-03 4.444911515913e-04 0.0 
0.0 0.0 -3.244772210401e-04 
-6.740810289934e-04 5.936164763573e-04 0.0 
5.936164763573e-04 3.309923952293e-03 0.0 
0.0 0.0 -5.330167430730e-04 
-2.333631563007e-04 -8.247312327761e-04 0.0 
-8.247312327761e-04 4.233042879055e-03 0.0 
0.0 0.0 -8.082977034869e-04 
-1.084938189841e-03 6.476212573913e-04 0.0 
6.476212573913e-04 6.662130643566e-03 0.0 
0.0 0.0 -1.043024347135e-03 
4.973865682477e-04 -4.260422121833e-04 0.0 
-4.260422121833e-04 3.484081566356e-03 0.0 
0.0 0.0 -8.108276944599e-04 
3.578017390227e-03 6.646381021111e-03 0.0 
6.646381021111e-03 -3.037436525080e-03 0.0 
0.0 0.0 -2.316775136343e-04 
1.958570069492e-04 -5.811481783933e-04 0.0 
-5.811481783933e-04 4.421241133794e-03 0.0 
0.0 0.0 -9.096068616062e-04 
3.260859514285e-05 4.668394727349e-03 0.0 
4.668394727349e-03 1.285716801892e-03 0.0 
0.0 0.0 -3.508512830963e-04 
3.511788059842e-03 2.607401694027e-03 0.0 
2.607401694027e-03 5.574677120059e-04 0.0 
0.0 0.0 -8.123573650817e-04 
3.616126075796e-04 -2.765240517477e-04 0.0 
-2.765240517477e-04 4.017078882095e-03 0.0 
0.0 0.0 -8.756097305517e-04 
1.498940309270e-03 2.282864348474e-03 0.0 
2.282864348474e-03 3.320222311287e-03 0.0 
0.0 0.0 -9.491391837787e-04 
-1.021932421091e-03 -1.375086625343e-04 0.0 
-1.375086625343e-04 6.258245616270e-03 0.0 
0.0 0.0 -9.494079867578e-04 
-6.355506189440e-04 -1.022411834394e-03 0.0 
-1.022411834394e-03 2.931807144820e-03 0.0 
0.0 0.0 -4.933620968966e-04 
1.498846705074e-03 9.057871939281e-03 0.0 
9.057871939281e-03 -7.651916497826e-04 0.0 
0.0 0.0 -3.144235951249e-04 
1.462536200777e-04 -1.552768271372e-04 0.0 
-1.552768271372e-04 4.634992979333e-03 0.0 
0.0 0.0 -9.415329344942e-04 
-4.562559045444e-04 1.610969121117e-03 0.0 
1.610969121117e-03 2.030898937427e-03 0.0 
0.0 0.0 -3.857152600925e-04 
2.983628002254e-04 1.729487099545e-04 0.0 
1.729487099545e-04 -2.983628002254e-04 0.0 
0.0 0.0 0.0 
-1.255338616422e-03 1.860461172355e-04 0.0 
1.860461172355e-04 8.124850663151e-03 0.0 
0.0 0.0 -1.223389224544e-03 
-1.207848204117e-03 2.029693107177e-04 0.0 
2.029693107177e-04 7.752368092309e-03 0.0 
0.0 0.0 -1.157435638217e-03 
-8.808053059829e-05 -1.336699866714e-04 0.0 
-1.336699866714e-04 3.185750404010e-04 0.0 
0.0 0.0 -9.878336134402e-05 
-7.437680039698e-05 -4.915101403718e-04 0.0 
-4.915101403718e-04 5.089919028033e-03 0.0 
0.0 0.0 -9.758309632659e-04 
-5.833464932258e-04 -8.365325477788e-04 0.0 
-8.365325477788e-04 2.366888082298e-03 0.0 
0.0 0.0 -3.887237773309e-04 
-6.380037561636e-04 -4.574933655184e-04 0.0 
-4.574933655184e-04 2.507620922393e-03 0.0 
0.0 0.0 -4.195855280820e-04 
-9.375415066275e-04 8.514528046186e-04 0.0 
8.514528046186e-04 6.812949122049e-03 0.0 
0.0 0.0 -1.100737838324e-03 
1.824573533496e-03 2.074759836291e-03 0.0 
2.074759836291e-03 3.094177307646e-03 0.0 
0.0 0.0 -9.467522836136e-04 
-6.348313274815e-04 1.121609880836e-03 0.0 
1.121609880836e-03 6.266709776533e-03 0.0 
0.0 0.0 -1.064854740548e-03 
1.693595999635e-03 -1.240351402332e-03 0.0 
-1.240351402332e-03 1.091812447490e-03 0.0 
0.0 0.0 -6.238888496032e-04 
-8.115909482746e-04 3.390698231069e-05 0.0 
3.390698231069e-05 4.912143948728e-03 0.0 
0.0 0.0 -7.105917616147e-04 
-1.280305692054e-03 -3.247592506175e-04 0.0 
-3.247592506175e-04 7.975043847607e-03 0.0 
0.0 0.0 -1.281538364137e-03 
-5.868717402319e-04 -4.057488537009e-04 0.0 
-4.057488537009e-04 2.082970857728e-03 0.0 
0.0 0.0 -3.541816848729e-04 
-4.229294918470e-04 2.444381232535e-05 0.0 
2.444381232535e-05 6.275973168171e-03 0.0 
0.0 0.0 -1.121221582973e-03 
2.836816667189e-03 2.559632251434e-03 0.0 
2.559632251434e-03 1.470020740435e-03 0.0 
0.0 0.0 -8.477100451819e-04 
-3.408380194667e-04 8.413428919704e-05 0.0 
8.413428919704e-05 1.600517951916e-03 0.0 
0.0 0.0 -2.892354545592e-04 
-1.075499676593e-03 6.132508001276e-04 0.0 
6.132508001276e-04 6.500844839128e-03 0.0 
0.0 0.0 -1.015166614560e-03 
3.932360784938e-03 -9.096587201305e-05 0.0 
-9.096587201305e-05 -9.662525008430e-04 0.0 
0.0 0.0 -6.628028861993e-04 
-1.315718485168e-04 -5.908276789213e-04 0.0 
-5.908276789213e-04 6.660589264853e-04 0.0 
0.0 0.0 -2.290658905579e-04 
3.637918267473e-03 -1.287089737062e-03 0.0 
-1.287089737062e-03 -1.293384893031e-03 0.0 
0.0 0.0 -5.632129589051e-04 
-1.187081976134e-03 1.736903763000e-04 0.0 
1.736903763000e-04 6.532498131095e-03 0.0 
0.0 0.0 -9.915417172310e-04 
-1.109173126604e-03 2.020871397918e-04 0.0 
2.020871397918e-04 6.702082758585e-03 0.0 
0.0 0.0 -1.020980360542e-03 
-4.812617878824e-04 -1.026396368797e-03 0.0 
-1.026396368797e-03 1.558368541222e-03 0.0 
0.0 0.0 -2.729600395538e-04 
-1.020281891755e-03 -1.851201749546e-04 0.0 
-1.851201749546e-04 5.386783464776e-03 0.0 
0.0 0.0 -8.076288038732e-04 
-1.089791995769e-03 6.678096790371e-04 0.0 
6.678096790371e-04 6.824575659747e-03 0.0 
0.0 0.0 -1.071782534217e-03 
-2.380739341600e-04 5.870005132879e-04 0.0 
5.870005132879e-04 6.095587140715e-03 0.0 
0.0 0.0 -1.109893377180e-03 
-5.608358153244e-04 -8.240965468318e-04 0.0 
-8.240965468318e-04 2.993251789866e-03 0.0 
0.0 0.0 -5.351738145117e-04 
-6.136579298705e-04 1.191680586993e-04 0.0 
1.191680586993e-04 2.664357051373e-03 0.0 
0.0 0.0 -4.333934152438e-04 
2.615937035314e-03 2.485424431225e-03 0.0 
2.485424431225e-03 1.741318530492e-03 0.0 
0.0 0.0 -8.786267582723e-04 
-1.011039081455e-03 -2.136688597495e-04 0.0 
-2.136688597495e-04 6.164847278727e-03 0.0 
0.0 0.0 -9.278975173457e-04 
-2.430528072629e-05 -7.015609586409e-04 0.0 
-7.015609586409e-04 4.939718425864e-04 0.0 
0.0 0.0 -2.012856693686e-04 
-1.106019795461e-03 6.592693545117e-04 0.0 
6.592693545117e-04 8.173357231792e-03 0.0 
0.0 0.0 -1.269179263064e-03 
-1.319279019144e-03 4.296204971761e-04 0.0 
4.296204971761e-04 8.281943168671e-03 0.0 
0.0 0.0 -1.281197857596e-03 
-9.262453737932e-04 -1.856372937015e-04 0.0 
-1.856372937015e-04 5.467657039050e-03 0.0 
0.0 0.0 -8.387747867703e-04 
-1.294839307706e-03 7.871963389560e-06 0.0 
7.871963389560e-06 8.477109428305e-03 0.0 
0.0 0.0 -1.255037608383e-03 
-1.299621148244e-03 5.434080431767e-04 0.0 
5.434080431767e-04 8.249757004039e-03 0.0 
0.0 0.0 -1.285499913836e-03 
1.525872378407e-03 -7.780969913137e-04 0.0 
-7.780969913137e-04 1.449686957567e-03 0.0 
0.0 0.0 -6.542748834104e-04 
-2.585266356679e-04 -1.156040889944e-03 0.0 
-1.156040889944e-03 3.035718754289e-03 0.0 
0.0 0.0 -6.153450468602e-04 
-1.170236808513e-03 2.917458807146e-05 0.0 
2.917458807146e-05 8.079333353292e-03 0.0 
0.0 0.0 -1.265535665854e-03 
0.0 0.0 0.0 
0.0 0.0 0.0 
0.0 0.0 0.0 
-5.539334103609e-04 1.733294296074e-04 0.0 
1.733294296074e-04 2.467698966066e-03 0.0 
0.0 0.0 -3.941707820483e-04 
-1.082833857300e-03 1.553689403231e-04 0.0 
1.553689403231e-04 5.370486721227e-03 0.0 
0.0 0.0 -8.329475646481e-04 
-6.135075657535e-04 -1.124689673499e-03 0.0 
-1.124689673499e-03 3.074168344220e-03 0.0 
0.0 0.0 -5.313546330462e-04 
6.701450109149e-04 -1.152430331806e-03 0.0 
-1.152430331806e-03 1.713265648010e-03 0.0 
0.0 0.0 -5.546931404481e-04 
-8.276949188265e-04 2.515724475783e-03 0.0 
2.515724475783e-03 2.096533993633e-03 0.0 
0.0 0.0 -3.196518454468e-04 
-8.512937805901e-04 3.063596437855e-03 0.0 
3.063596437855e-03 2.469068569666e-03 0.0 
0.0 0.0 -3.528063275151e-04 
-9.460265979009e-04 -8.557345978762e-05 0.0 
-8.557345978762e-05 5.600872725538e-03 0.0 
0.0 0.0 -8.290026594306e-04 
3.394755341782e-03 -1.212208320919e-03 0.0 
-1.212208320919e-03 -8.051068423490e-04 0.0 
0.0 0.0 -5.962921515785e-04 
-6.690915239770e-04 -9.469087844433e-06 0.0 
-9.469087844433e-06 2.860475934858e-03 0.0 
0.0 0.0 -4.583473518421e-04 
1.869434718800e-05 1.239771039778e-03 0.0 
1.239771039778e-03 5.582874072234e-03 0.0 
0.0 0.0 -1.077832113627e-03 
-1.322048612324e-03 -3.324926188937e-04 0.0 
-3.324926188937e-04 8.713395146875e-03 0.0 
0.0 0.0 -1.324978758543e-03 
-1.338720177887e-03 -4.085669882089e-04 0.0 
-4.085669882089e-04 8.670321911685e-03 0.0 
0.0 0.0 -1.320624918399e-03 
-2.308280188963e-04 -7.311605239673e-04 0.0 
-7.311605239673e-04 3.226682760404e-03 0.0 
0.0 0.0 -6.457427040837e-04 
-9.004898588244e-04 1.911488629734e-04 0.0 
1.911488629734e-04 5.018763151201e-03 0.0 
0.0 0.0 -7.877541558771e-04 
0.0 0.0 0.0 
0.0 0.0 0.0 
0.0 0.0 0.0 
-1.043736590243e-03 6.662889965400e-03 0.0 
6.662889965400e-03 2.015029307841e-03 0.0 
0.0 0.0 -3.106513839132e-04 
3.054025526956e-03 -5.202564001376e-03 0.0 
-5.202564001376e-03 -2.290950080406e-03 0.0 
0.0 0.0 -3.270323342358e-04 
-8.818718148765e-04 3.503453649768e-03 0.0 
3.503453649768e-03 1.995886295878e-03 0.0 
0.0 0.0 -2.953478464511e-04 
2.309170019943e-03 2.132167952238e-03 0.0 
2.132167952238e-03 2.372218009229e-03 0.0 
0.0 0.0 -9.116044729693e-04 
-3.892042169670e-04 -9.156083068677e-04 0.0 
-9.156083068677e-04 2.815259890772e-03 0.0 
0.0 0.0 -5.459662534218e-04 
6.341197786358e-04 -1.383059601874e-03 0.0 
-1.383059601874e-03 1.932702069609e-03 0.0 
0.0 0.0 -5.879858557453e-04 
3.369693272099e-03 -6.497008135285e-03 0.0 
-6.497008135285e-03 -3.075879029366e-03 0.0 
0.0 0.0 -1.259203897429e-04 
-1.236651515782e-03 5.783317831820e-05 0.0 
5.783317831820e-05 7.720546241133e-03 0.0 
0.0 0.0 -1.176327079312e-03 
-4.101458141136e-04 -1.240391896891e-03 0.0 
-1.240391896891e-03 2.995120791313e-03 0.0 
0.0 0.0 -5.792774345575e-04 
-1.250725797448e-03 2.916941522596e-04 0.0 
2.916941522596e-04 8.087181627586e-03 0.0 
0.0 0.0 -1.212957849656e-03 
-1.169197980018e-03 -1.036807665068e-04 0.0 
-1.036807665068e-04 7.436974066249e-03 0.0 
0.0 0.0 -1.117460450001e-03 
-1.345176874521e-03 9.425392127595e-05 0.0 
9.425392127595e-05 9.101263988686e-03 0.0 
0.0 0.0 -1.319418651152e-03 
-1.362446196828e-03 -6.566602865703e-05 0.0 
-6.566602865703e-05 8.851718670119e-03 0.0 
0.0 0.0 -1.324849633189e-03 
-9.396876737499e-04 1.580696553299e-04 0.0 
1.580696553299e-04 5.609093298548e-03 0.0 
0.0 0.0 -8.315138651140e-04 
-5.177493296675e-04 -1.164892507562e-03 0.0 
-1.164892507562e-03 3.321630420665e-03 0.0 
0.0 0.0 -6.063493599946e-04 
-7.718965570933e-04 2.836829097826e-03 0.0 
2.836829097826e-03 2.552949167200e-03 0.0 
0.0 0.0 -3.884917441798e-04 
-5.432002518243e-04 -7.156839301843e-04 0.0 
-7.156839301843e-04 3.555258553905e-03 0.0 
0.0 0.0 -6.367902913543e-04 
-1.343328350294e-03 -3.038078432126e-04 0.0 
-3.038078432126e-04 8.521823212692e-03 0.0 
0.0 0.0 -1.343328350294e-03 
-1.043581006172e-03 9.499710339592e-03 0.0 
9.499710339592e-03 1.693430799300e-03 0.0 
0.0 0.0 -2.785070541980e-04 
-9.997326239566e-04 7.819942621869e-03 0.0 
7.819942621869e-03 1.843913309490e-03 0.0 
0.0 0.0 -3.329621070679e-04 
-7.035495153810e-04 5.407481615441e-05 0.0 
5.407481615441e-05 6.790059298500e-03 0.0 
0.0 0.0 -1.156027955174e-03 
-8.805235058694e-04 6.847913926848e-05 0.0 
6.847913926848e-05 5.301659598337e-03 0.0 
0.0 0.0 -7.715229432315e-04 
-1.258879221168e-03 2.678324544629e-04 0.0 
2.678324544629e-04 8.150871359494e-03 0.0 
0.0 0.0 -1.219279742240e-03 
-1.080906081071e-03 2.827660258438e-04 0.0 
2.827660258438e-04 6.867060617251e-03 0.0 
0.0 0.0 -1.069611963270e-03 
-8.625149817268e-04 6.426837177460e-04 0.0 
6.426837177460e-04 7.013318079653e-03 0.0 
0.0 0.0 -1.175036385391e-03 
-1.173553033698e-03 2.219944962555e-04 0.0 
2.219944962555e-04 7.297927893888e-03 0.0 
0.0 0.0 -1.113576918908e-03 
-9.402009665324e-04 2.044311077690e-04 0.0 
2.044311077690e-04 5.536177417769e-03 0.0 
0.0 0.0 -8.542750875040e-04 
-5.858259911149e-04 -1.171742995146e-03 0.0 
-1.171742995146e-03 2.676462786012e-03 0.0 
0.0 0.0 -4.674384380614e-04 
-5.422750806607e-04 -8.975033256362e-04 0.0 
-8.975033256362e-04 2.600446559473e-03 0.0 
0.0 0.0 -4.715697005044e-04 
-1.061085808578e-03 2.019693127978e-04 0.0 
2.019693127978e-04 6.591258911724e-03 0.0 
0.0 0.0 -9.963059934038e-04 
-5.569992161593e-04 4.345384633517e-04 0.0 
4.345384633517e-04 6.611800945619e-03 0.0 
0.0 0.0 -1.142506377625e-03 
-9.620863637894e-04 2.331488699571e-04 0.0 
2.331488699571e-04 4.690647863040e-03 0.0 
0.0 0.0 -7.345222264051e-04 
-8.659076808803e-04 1.600457319012e-05 0.0 
1.600457319012e-05 5.296211653200e-03 0.0 
0.0 0.0 -7.676068998053e-04 
-9.151607957151e-04 -5.089667725815e-05 0.0 
-5.089667725815e-05 5.629549572959e-03 0.0 
0.0 0.0 -8.242303029217e-04 
-9.674728246486e-04 -2.123760912739e-04 0.0 
-2.123760912739e-04 5.717004610309e-03 0.0 
0.0 0.0 -8.467401457521e-04 
4.073966110910e-03 -3.521098128040e-03 0.0 
-3.521098128040e-03 -3.770607930724e-03 0.0 
0.0 0.0 -1.300106486510e-04 
-5.930015542773e-04 -7.839114719970e-04 0.0 
-7.839114719970e-04 2.465147057737e-03 0.0 
0.0 0.0 -4.335179088089e-04 
-1.317738620986e-03 2.278366908206e-04 0.0 
2.278366908206e-04 8.695066743648e-03 0.0 
0.0 0.0 -1.269310366786e-03 
-1.008653577782e-03 -1.784318379198e-04 0.0 
-1.784318379198e-04 6.114212471042e-03 0.0 
0.0 0.0 -9.150577043801e-04 
-1.235075525051e-03 3.722470533434e-04 0.0 
3.722470533434e-04 8.051470811527e-03 0.0 
0.0 0.0 -1.295322057178e-03 
-1.262105533747e-03 2.927877395666e-04 0.0 
2.927877395666e-04 8.092325804024e-03 0.0 
0.0 0.0 -1.215577547940e-03 
-1.074267791218e-03 2.611694470269e-04 0.0 
2.611694470269e-04 6.569995446378e-03 0.0 
0.0 0.0 -1.012565562176e-03 
-1.287214307820e-03 9.354055678568e-05 0.0 
9.354055678568e-05 8.149418825250e-03 0.0 
0.0 0.0 -1.214907066889e-03 
-8.465721316982e-04 -1.105505135888e-04 0.0 
-1.105505135888e-04 3.950044235392e-03 0.0 
0.0 0.0 -6.304496659280e-04 
-8.228220456719e-04 -1.151102242294e-04 0.0 
-1.151102242294e-04 3.762441621980e-03 0.0 
0.0 0.0 -5.666856080635e-04 
-1.213791714024e-03 -1.499272758312e-04 0.0 
-1.499272758312e-04 7.648587280659e-03 0.0 
0.0 0.0 -1.226851238141e-03 
2.584937101281e-03 -3.911685490385e-03 0.0 
-3.911685490385e-03 -2.584937101281e-03 0.0 
0.0 0.0 0.0 
-5.508530862849e-04 -1.035100482519e-04 0.0 
-1.035100482519e-04 2.701800587875e-03 0.0 
0.0 0.0 -4.071640756073e-04 
-1.342405754833e-03 4.276126013738e-04 0.0 
4.276126013738e-04 8.356626582993e-03 0.0 
0.0 0.0 -1.342405754833e-03 
-2.369285988354e-04 -1.770299306038e-04 0.0 
-1.770299306038e-04 1.161644229230e-03 0.0 
0.0 0.0 -2.265802816212e-04 
-8.772316900263e-04 3.022985570029e-05 0.0 
3.022985570029e-05 5.030285682320e-03 0.0 
0.0 0.0 -7.870118106326e-04 
-1.087488399424e-03 -9.544139039346e-05 0.0 
-9.544139039346e-05 7.678102904648e-03 0.0 
0.0 0.0 -1.213461936786e-03 
-2.217204533164e-04 -1.125363679953e-04 0.0 
-1.125363679953e-04 8.293133150009e-04 0.0 
0.0 0.0 -1.562362318669e-04 
2.116092673943e-04 -1.090915317898e-04 0.0 
-1.090915317898e-04 4.352762976976e-04 0.0 
0.0 0.0 -1.482616173602e-04 
-1.342371808075e-03 1.025686952786e-04 0.0 
1.025686952786e-04 9.039344740884e-03 0.0 
0.0 0.0 -1.324389858384e-03 
-8.327656305072e-04 1.141712868856e-04 0.0 
1.141712868856e-04 4.641243707897e-03 0.0 
0.0 0.0 -7.294542769151e-04 
-1.288909957265e-03 4.016661537540e-04 0.0 
4.016661537540e-04 8.513544320093e-03 0.0 
0.0 0.0 -1.261418349269e-03 
-1.134288891980e-03 5.741233190871e-05 0.0 
5.741233190871e-05 7.407101021319e-03 0.0 
0.0 0.0 -1.231858344535e-03 
-8.347679035328e-04 -3.570531223968e-05 0.0 
-3.570531223968e-05 4.629434413509e-03 0.0 
0.0 0.0 -7.289279708929e-04 
0.0 0.0 0.0 
0.0 0.0 0.0 
0.0 0.0 0.0 
-1.305379233758e-03 -6.071779487898e-05 0.0 
-6.071779487898e-05 8.461113597457e-03 0.0 
0.0 0.0 -1.284140717546e-03 
-3.100289480378e-04 -3.270232557407e-04 0.0 
-3.270232557407e-04 1.355870936008e-03 0.0 
0.0 0.0 -2.433545560381e-04 
-1.282233343865e-03 2.781824875359e-04 0.0 
2.781824875359e-04 8.180219452641e-03 0.0 
0.0 0.0 -1.232184317627e-03 
-1.343095105526e-03 -2.432827260553e-04 0.0 
-2.432827260553e-04 8.545412507579e-03 0.0 
0.0 0.0 -1.343095105526e-03 
-1.292199045367e-03 2.524866178233e-04 0.0 
2.524866178233e-04 8.014541847179e-03 0.0 
0.0 0.0 -1.225700354592e-03 
4.691222330503e-03 -3.610223605332e-03 0.0 
-3.610223605332e-03 -4.217425164121e-03 0.0 
0.0 0.0 -2.030559284494e-04 
-9.540260339352e-04 1.631930893359e-04 0.0 
1.631930893359e-04 5.653552826698e-03 0.0 
0.0 0.0 -8.279144014868e-04 
-8.950557039055e-04 -2.748800359507e-04 0.0 
-2.748800359507e-04 4.199615522516e-03 0.0 
0.0 0.0 -6.271989868224e-04 
8.488618254318e-05 8.559972607794e-04 0.0 
8.559972607794e-04 5.563756773387e-03 0.0 
0.0 0.0 -1.077599360682e-03 
-1.273669225217e-03 1.720409005563e-04 0.0 
1.720409005563e-04 8.518730660981e-03 0.0 
0.0 0.0 -1.326997735404e-03 
-1.142899871982e-03 1.477724546960e-04 0.0 
1.477724546960e-04 7.166026161736e-03 0.0 
0.0 0.0 -1.061614915164e-03 
-1.285004601792e-03 2.929428446180e-04 0.0 
2.929428446180e-04 8.490810498827e-03 0.0 
0.0 0.0 -1.325870641008e-03 
3.289776558106e-03 -2.935861761229e-03 0.0 
-2.935861761229e-03 -3.289776558106e-03 0.0 
0.0 0.0 0.0 
-1.297780734717e-03 -4.166830862430e-04 0.0 
-4.166830862430e-04 8.366714279713e-03 0.0 
0.0 0.0 -1.277656510522e-03 
3.925098124834e-03 -5.022110565935e-03 0.0 
-5.022110565935e-03 -2.986904032013e-03 0.0 
0.0 0.0 -3.431348957073e-04 
-2.589194545670e-04 3.821483992917e-05 0.0 
3.821483992917e-05 1.124631262589e-03 0.0 
0.0 0.0 -2.298118214877e-04 
-1.194197405020e-03 -2.475227437211e-04 0.0 
-2.475227437211e-04 8.105636908586e-03 0.0 
0.0 0.0 -1.270335377537e-03 
-1.315524425911e-03 2.690035540339e-04 0.0 
2.690035540339e-04 8.643806800304e-03 0.0 
0.0 0.0 -1.270603359501e-03 
-1.320702306464e-03 4.960564232440e-05 0.0 
4.960564232440e-05 8.625092567998e-03 0.0 
0.0 0.0 -1.289850838753e-03 
-8.753308640926e-04 2.257063470840e-04 0.0 
2.257063470840e-04 5.095730312348e-03 0.0 
0.0 0.0 -7.762633204682e-04 
-9.835570351374e-04 3.967893708127e-04 0.0 
3.967893708127e-04 5.483942639045e-03 0.0 
0.0 0.0 -8.489529362435e-04 
4.432460978872e-04 6.428912793161e-03 0.0 
6.428912793161e-03 6.630222961483e-04 0.0 
0.0 0.0 -3.390228113434e-04 
-1.290611125717e-03 4.069284773612e-04 0.0 
4.069284773612e-04 8.488337706707e-03 0.0 
0.0 0.0 -1.273041473476e-03 
-7.431920671866e-04 3.360733235591e-05 0.0 
3.360733235591e-05 3.408921231342e-03 0.0 
0.0 0.0 -5.357483711987e-04 
3.276529699848e-03 1.101199343668e-02 0.0 
1.101199343668e-02 -2.860746193593e-03 0.0 
0.0 0.0 -1.781929312519e-04 
-2.870129153502e-04 9.419158331950e-04 0.0 
9.419158331950e-04 6.097650780967e-03 0.0 
0.0 0.0 -1.110141529071e-03 
-8.032989009541e-04 -1.045980115988e-05 0.0 
-1.045980115988e-05 4.870464455063e-03 0.0 
0.0 0.0 -7.096328662732e-04 
-1.279256756890e-03 4.600607687250e-04 0.0 
4.600607687250e-04 8.175326591168e-03 0.0 
0.0 0.0 -1.237729719596e-03 
-1.329072194852e-03 -1.834247142824e-04 0.0 
-1.834247142824e-04 8.977472730193e-03 0.0 
0.0 0.0 -1.321509982054e-03 
-1.343732204276e-03 7.562212797618e-06 0.0 
7.562212797618e-06 8.849786333364e-03 0.0 
0.0 0.0 -1.343732204276e-03 
9.110964853294e-04 3.246112185039e-05 0.0 
3.246112185039e-05 -1.190133993423e-04 0.0 
0.0 0.0 -1.636159233370e-04 
6.166447013597e-04 1.175624780588e-05 0.0 
1.175624780588e-05 -1.305363366365e-04 0.0 
0.0 0.0 -2.069793243774e-04 
-8.247124983758e-04 -1.687178518224e-04 0.0 
-1.687178518224e-04 4.737962601015e-03 0.0 
0.0 0.0 -7.318233512793e-04 
-8.319071836255e-04 2.758419797137e-05 0.0 
2.758419797137e-05 4.882188569804e-03 0.0 
0.0 0.0 -7.096011290571e-04 
-1.343732204276e-03 -2.755821224564e-05 0.0 
-2.755821224564e-05 8.606219025581e-03 0.0 
0.0 0.0 -1.343732204276e-03 
-1.349068194300e-03 1.748780922349e-04 0.0 
1.748780922349e-04 8.742452044457e-03 0.0 
0.0 0.0 -1.321509982054e-03 
2.267983165528e-04 1.503551410355e-04 0.0 
1.503551410355e-04 3.801820683437e-04 0.0 
0.0 0.0 -1.379425883790e-04 
0.0 0.0 0.0 
0.0 0.0 0.0 
0.0 0.0 0.0 
-1.304839210467e-03 -7.091443056662e-05 0.0 
-7.091443056662e-05 7.889011230752e-03 0.0 
0.0 0.0 -1.230181737024e-03 
-9.403804849240e-04 8.416393575430e-04 0.0 
8.416393575430e-04 7.468353380635e-03 0.0 
0.0 0.0 -1.209364118140e-03 
-3.105423637276e-04 -2.525564358258e-04 0.0 
-2.525564358258e-04 1.694140784916e-03 0.0 
0.0 0.0 -2.712674790923e-04 
-1.264304018708e-03 -4.229761773583e-04 0.0 
-4.229761773583e-04 7.912894217144e-03 0.0 
0.0 0.0 -1.240191881334e-03 
-1.104648569634e-03 -8.128511201330e-05 0.0 
-8.128511201330e-05 5.687324916732e-03 0.0 
0.0 0.0 -8.888375990210e-04 
-1.026907705388e-03 -2.214158958103e-04 0.0 
-2.214158958103e-04 5.060294452777e-03 0.0 
0.0 0.0 -7.610796297342e-04 
-1.050200639505e-03 1.276309243533e-04 0.0 
1.276309243533e-04 6.471471583772e-03 0.0 
0.0 0.0 -9.400782610458e-04 
-2.965318753647e-05 -1.331164902240e-03 0.0 
-1.331164902240e-03 9.056852696167e-04 0.0 
0.0 0.0 -3.754423208915e-04 
1.025266015480e-03 1.481659389063e-03 0.0 
1.481659389063e-03 4.264174779617e-03 0.0 
0.0 0.0 -1.011657465016e-03 
-2.272445053013e-04 -9.535102935050e-05 0.0 
-9.535102935050e-05 1.388764162386e-03 0.0 
0.0 0.0 -2.181484037039e-04 
-9.136007493904e-04 -3.789003197154e-04 0.0 
-3.789003197154e-04 4.494388172482e-03 0.0 
0.0 0.0 -6.997415131527e-04 
-1.249092671204e-03 5.668738205520e-04 0.0 
5.668738205520e-04 7.979681115669e-03 0.0 
0.0 0.0 -1.240519096027e-03 
-1.238391952882e-03 -2.103174549131e-04 0.0 
-2.103174549131e-04 8.038627661496e-03 0.0 
0.0 0.0 -1.191726112421e-03 
-9.811853638777e-04 4.571159586099e-05 0.0 
4.571159586099e-05 4.872542694396e-03 0.0 
0.0 0.0 -7.690942022927e-04 
-9.767560317632e-04 -1.705867274286e-04 0.0 
-1.705867274286e-04 5.944945665690e-03 0.0 
0.0 0.0 -8.745659502648e-04 
-7.745550724563e-04 9.611385782294e-04 0.0 
9.611385782294e-04 7.512691286354e-03 0.0 
0.0 0.0 -1.217119345310e-03 
-1.179845702415e-03 2.452002266232e-04 0.0 
2.452002266232e-04 7.438662012216e-03 0.0 
0.0 0.0 -1.140944809982e-03 
-1.127959464392e-03 2.474309966313e-04 0.0 
2.474309966313e-04 7.001139959042e-03 0.0 
0.0 0.0 -1.076426999079e-03 
-8.393109454079e-04 2.446878724435e-05 0.0 
2.446878724435e-05 4.620539471492e-03 0.0 
0.0 0.0 -7.312123441678e-04 
1.424911879158e-03 1.539772785278e-03 0.0 
1.539772785278e-03 3.647566014518e-03 0.0 
0.0 0.0 -9.763781674015e-04 
-1.278424948200e-03 4.732838707970e-04 0.0 
4.732838707970e-04 8.049805466019e-03 0.0 
0.0 0.0 -1.231404929774e-03 
-6.063671140810e-04 1.348850002822e-06 0.0 
1.348850002822e-06 2.558361798436e-03 0.0 
0.0 0.0 -4.167967844001e-04 
9.333894904460e-04 -1.886874606133e-04 0.0 
-1.886874606133e-04 2.750050915418e-04 0.0 
0.0 0.0 -4.031049721742e-04 
-5.704311376736e-04 9.083730243154e-04 0.0 
9.083730243154e-04 6.938938728855e-03 0.0 
0.0 0.0 -1.185975225609e-03 
-4.009966028118e-04 4.138676871427e-04 0.0 
4.138676871427e-04 6.206902921187e-03 0.0 
0.0 0.0 -1.123538223191e-03 
1.625028237409e-04 -1.159998768685e-03 0.0 
-1.159998768685e-03 4.378569084011e-04 0.0 
0.0 0.0 -2.572970280609e-04 
-1.081558890546e-03 -1.399243451463e-04 0.0 
-1.399243451463e-04 6.772240372319e-03 0.0 
0.0 0.0 -9.893338170986e-04 
-1.329126769976e-03 -2.338155039388e-04 0.0 
-2.338155039388e-04 8.188960966632e-03 0.0 
0.0 0.0 -1.282739585886e-03 
-7.722860055729e-04 8.653060101413e-04 0.0 
8.653060101413e-04 6.997779109382e-03 0.0 
0.0 0.0 -1.182073443778e-03 
-8.288453040057e-04 7.506807995006e-04 0.0 
7.506807995006e-04 7.542082891620e-03 0.0 
0.0 0.0 -1.215129606110e-03 
-1.157436434489e-03 -2.420799146488e-04 0.0 
-2.420799146488e-04 6.201441230335e-03 0.0 
0.0 0.0 -9.537126495859e-04 
3.126858312484e-03 6.184952170917e-03 0.0 
6.184952170917e-03 -3.126858312484e-03 0.0 
0.0 0.0 0.0 
-7.514987579626e-04 2.918442328382e-03 0.0 
2.918442328382e-03 2.076162240157e-03 0.0 
0.0 0.0 -3.212443691966e-04 
-1.026595079912e-04 4.380740756008e-03 0.0 
4.380740756008e-03 1.683889304083e-03 0.0 
0.0 0.0 -3.834349432650e-04 
-9.473774776597e-04 1.764703939582e-04 0.0 
1.764703939582e-04 5.384019631323e-03 0.0 
0.0 0.0 -8.471429939415e-04 
1.313927283987e-03 1.928421163681e-03 0.0 
1.928421163681e-03 3.676827744499e-03 0.0 
0.0 0.0 -9.781602908260e-04 
-1.285624241878e-03 -4.326792981855e-05 0.0 
-4.326792981855e-05 8.288168648148e-03 0.0 
0.0 0.0 -1.236541257690e-03 
-1.217308294029e-03 1.640866066604e-04 0.0 
1.640866066604e-04 7.793774931469e-03 0.0 
0.0 0.0 -1.282325209426e-03 
-8.954075940437e-05 -8.680076304404e-04 0.0 
-8.680076304404e-04 7.337139848585e-04 0.0 
0.0 0.0 -2.760742394804e-04 
-3.009716750380e-04 -4.715458723185e-04 0.0 
-4.715458723185e-04 9.308600569539e-04 0.0 
0.0 0.0 -1.704796444516e-04 
-6.987378694203e-04 3.655440307441e-03 0.0 
3.655440307441e-03 1.688865011584e-03 0.0 
0.0 0.0 -2.747970858071e-04 
-1.085049996288e-03 3.161557202625e-04 0.0 
3.161557202625e-04 6.749947888276e-03 0.0 
0.0 0.0 -1.019242131223e-03 
-7.105673598930e-04 -3.560858813606e-04 0.0 
-3.560858813606e-04 3.243394900527e-03 0.0 
0.0 0.0 -4.953283059016e-04 
-1.294058250345e-03 1.194991635526e-04 0.0 
1.194991635526e-04 8.278027413572e-03 0.0 
0.0 0.0 -1.241298427557e-03 
-2.801916649698e-04 -2.169380665087e-04 0.0 
-2.169380665087e-04 1.598671665653e-03 0.0 
0.0 0.0 -2.623907620756e-04 
-1.097220766083e-03 2.014729423047e-04 0.0 
2.014729423047e-04 7.397517373048e-03 0.0 
0.0 0.0 -1.221152601860e-03 
-9.286181991470e-04 2.455314232276e-04 0.0 
2.455314232276e-04 5.488935049062e-03 0.0 
0.0 0.0 -8.343732341398e-04 
-1.223283272536e-03 3.593359299496e-04 0.0 
3.593359299496e-04 7.932879470025e-03 0.0 
0.0 0.0 -1.286815605725e-03 
-1.916527307206e-04 7.519245772582e-04 0.0 
7.519245772582e-04 6.111595610340e-03 0.0 
0.0 0.0 -1.111121968474e-03 
-9.581999826764e-04 8.182036761545e-05 0.0 
8.182036761545e-05 5.388937206970e-03 0.0 
0.0 0.0 -8.465141837044e-04 
-1.209961591988e-03 -2.976225161965e-04 0.0 
-2.976225161965e-04 8.170684166123e-03 0.0 
0.0 0.0 -1.269142588751e-03 
-1.323046623582e-03 3.793136222843e-04 0.0 
3.793136222843e-04 8.658663539059e-03 0.0 
0.0 0.0 -1.272727265576e-03 
-1.289749640490e-03 9.124365830308e-05 0.0 
9.124365830308e-05 8.709454540694e-03 0.0 
0.0 0.0 -1.271339345674e-03 
-9.274524163852e-04 8.105024595322e-03 0.0 
8.105024595322e-03 1.652363106937e-03 0.0 
0.0 0.0 -3.044868356389e-04 
-1.267095409920e-03 4.070899744542e-04 0.0 
4.070899744542e-04 8.089876134210e-03 0.0 
0.0 0.0 -1.218309553141e-03 
-1.282164121305e-03 5.174305312528e-04 0.0 
5.174305312528e-04 8.083053308233e-03 0.0 
0.0 0.0 -1.286645293131e-03 
-1.059215435768e-03 -2.009543418023e-05 0.0 
-2.009543418023e-05 7.573607372665e-03 0.0 
0.0 0.0 -1.211735819529e-03 
-5.984417882245e-04 8.760462826316e-04 0.0 
8.760462826316e-04 6.581946155518e-03 0.0 
0.0 0.0 -1.143254064081e-03 
-1.342665167303e-03 -2.857461739196e-04 0.0 
-2.857461739196e-04 8.440143907241e-03 0.0 
0.0 0.0 -1.342665167303e-03 
-1.126760089934e-03 6.437426727215e-04 0.0 
6.437426727215e-04 6.937086787485e-03 0.0 
0.0 0.0 -1.079065255302e-03 
1.362098516651e-03 2.769341635911e-03 0.0 
2.769341635911e-03 -1.362098516651e-03 0.0 
0.0 0.0 0.0 
2.341115602177e-03 1.258279723470e-02 0.0 
1.258279723470e-02 -1.561262107678e-03 0.0 
0.0 0.0 -3.342229262139e-04 
-1.235056862706e-03 2.777301788060e-04 0.0 
2.777301788060e-04 7.736779237008e-03 0.0 
0.0 0.0 -1.176936364471e-03 
-9.923017078165e-04 3.078956919309e-04 0.0 
3.078956919309e-04 5.849121224287e-03 0.0 
0.0 0.0 -8.884613587993e-04 
-1.298948170332e-03 -3.124306146209e-04 0.0 
-3.124306146209e-04 7.977511740223e-03 0.0 
0.0 0.0 -1.221994126432e-03 
-8.164833201830e-04 3.577888558968e-04 0.0 
3.577888558968e-04 7.089814529841e-03 0.0 
0.0 0.0 -1.177009544428e-03 
-1.289141827740e-03 -3.383964038360e-04 0.0 
-3.383964038360e-04 8.125835853115e-03 0.0 
0.0 0.0 -1.292249833993e-03 
-1.132172011691e-03 2.813138638496e-04 0.0 
2.813138638496e-04 7.272270790879e-03 0.0 
0.0 0.0 -1.085521458831e-03 
-1.247617681667e-03 2.986308671608e-04 0.0 
2.986308671608e-04 7.907076372021e-03 0.0 
0.0 0.0 -1.288973456333e-03 
-1.183175849056e-03 -4.290305750124e-04 0.0 
-4.290305750124e-04 7.735436170610e-03 0.0 
0.0 0.0 -1.233322439334e-03 
-1.175389870133e-03 -8.154118169286e-05 0.0 
-8.154118169286e-05 7.695545006504e-03 0.0 
0.0 0.0 -1.235043566395e-03 
-7.287005066558e-04 -2.363504694994e-04 0.0 
-2.363504694994e-04 3.412626924282e-03 0.0 
0.0 0.0 -5.104964012366e-04 
-1.311532395302e-03 -3.318821641935e-04 0.0 
-3.318821641935e-04 8.754426494470e-03 0.0 
0.0 0.0 -1.325641941534e-03 
-8.790480836699e-04 9.973280973964e-05 0.0 
9.973280973964e-05 5.256747279211e-03 0.0 
0.0 0.0 -7.662153309039e-04 
-1.249481013832e-03 -1.180321759362e-04 0.0 
-1.180321759362e-04 8.200814515591e-03 0.0 
0.0 0.0 -1.217406395242e-03 
-1.652940304057e-04 -5.197313760388e-04 0.0 
-5.197313760388e-04 7.163944105236e-04 0.0 
0.0 0.0 -2.361858771934e-04 
-1.199456095747e-03 -9.281141696113e-05 0.0 
-9.281141696113e-05 7.932283218576e-03 0.0 
0.0 0.0 -1.163202487293e-03 
-1.073812189916e-03 1.019150907596e-06 0.0 
1.019150907596e-06 6.842466406292e-03 0.0 
0.0 0.0 -9.926133712568e-04 
-8.677292434787e-05 -7.776541442063e-05 0.0 
-7.776541442063e-05 9.098025117225e-04 0.0 
0.0 0.0 -1.628620303624e-04 
4.516633434924e-03 -3.829490143835e-03 0.0 
-3.829490143835e-03 -4.022408996395e-03 0.0 
0.0 0.0 -2.118104736554e-04 
-1.137863848184e-03 6.727746037847e-04 0.0 
6.727746037847e-04 7.103743294949e-03 0.0 
0.0 0.0 -1.107581195644e-03 
-1.316054950297e-03 1.463718814179e-04 0.0 
1.463718814179e-04 8.450854861123e-03 0.0 
0.0 0.0 -1.285368862661e-03 
-1.275071184009e-03 -1.337709164893e-04 0.0 
-1.337709164893e-04 8.307471815085e-03 0.0 
0.0 0.0 -1.223917301752e-03 
-1.160153297854e-03 5.261040585439e-04 0.0 
5.261040585439e-04 7.939180437513e-03 0.0 
0.0 0.0 -1.264779455601e-03 
-9.786681000752e-04 2.797069543092e-04 0.0 
2.797069543092e-04 5.828399650514e-03 0.0 
0.0 0.0 -8.807565902733e-04 
3.542527760763e-04 -3.655331515633e-05 0.0 
-3.655331515633e-05 3.990426725862e-04 0.0 
0.0 0.0 -1.975347684319e-04 
1.231388975731e-03 1.380068163545e-03 0.0 
1.380068163545e-03 -1.181846549856e-03 0.0 
0.0 0.0 -2.123246823212e-05 
-1.420251948107e-04 8.764175524857e-05 0.0 
8.764175524857e-05 4.773240057954e-04 0.0 
0.0 0.0 -1.256389127973e-04 
-3.632499277279e-04 -7.837444408696e-04 0.0 
-7.837444408696e-04 1.194209396961e-03 0.0 
0.0 0.0 -2.225718436208e-04 
7.715143732103e-04 2.004386274067e-02 0.0 
2.004386274067e-02 -7.715143732103e-04 0.0 
0.0 0.0 0.0 
-8.980038842560e-04 -6.868916122841e-05 0.0 
-6.868916122841e-05 4.504377363934e-03 0.0 
0.0 0.0 -6.753304527203e-04 
-1.294165048711e-03 6.161991819009e-05 0.0 
6.161991819009e-05 7.969168976077e-03 0.0 
0.0 0.0 -1.222305993939e-03 
-1.264474650052e-03 5.734696938906e-04 0.0 
5.734696938906e-04 8.077312517039e-03 0.0 
0.0 0.0 -1.222833113937e-03 
-1.006464770387e-03 3.394189907579e-05 0.0 
3.394189907579e-05 5.834781281692e-03 0.0 
0.0 0.0 -8.826313165011e-04 
-8.266334947460e-04 -5.354606523691e-04 0.0 
-5.354606523691e-04 3.869366937566e-03 0.0 
0.0 0.0 -5.988529843847e-04 
-1.198642937147e-03 -4.684662880526e-04 0.0 
-4.684662880526e-04 7.783754842457e-03 0.0 
0.0 0.0 -1.221067908166e-03 
-1.068035990990e-03 1.115403335333e-04 0.0 
1.115403335333e-04 7.531635864011e-03 0.0 
0.0 0.0 -1.208702654310e-03 
-1.208049507468e-03 4.869249044164e-04 0.0 
4.869249044164e-04 8.191633662499e-03 0.0 
0.0 0.0 -1.272252409145e-03 
-1.079490756695e-03 5.751989204843e-04 0.0 
5.751989204843e-04 7.606883513284e-03 0.0 
0.0 0.0 -1.237422270938e-03 
-1.191139084829e-03 6.619264216726e-04 0.0 
6.619264216726e-04 7.533865048847e-03 0.0 
0.0 0.0 -1.171232062679e-03 
-1.920899935495e-04 -3.005289282689e-04 0.0 
-3.005289282689e-04 6.978999469600e-04 0.0 
0.0 0.0 -2.167756943188e-04 
1.975741722040e-03 -2.355335150996e-03 0.0 
-2.355335150996e-03 -1.975741722040e-03 0.0 
0.0 0.0 0.0 
-1.308655472056e-03 -3.526594848147e-04 0.0 
-3.526594848147e-04 8.026041467974e-03 0.0 
0.0 0.0 -1.223662873675e-03 
-1.521155326843e-04 1.616990335056e-05 0.0 
1.616990335056e-05 7.009749630609e-04 0.0 
0.0 0.0 -1.761523314621e-04 
-1.768246005743e-04 2.416090922495e-04 0.0 
2.416090922495e-04 1.018026141244e-03 0.0 
0.0 0.0 -1.933333333332e-04 
1.324769910591e-03 1.595360536944e-02 0.0 
1.595360536944e-02 -1.083209642028e-03 0.0 
0.0 0.0 -1.035258293840e-04 
-1.677849962930e-04 -2.830770546558e-04 0.0 
-2.830770546558e-04 8.015651116380e-04 0.0 
0.0 0.0 -1.580296812506e-04 
-1.271854076500e-03 -2.557043152436e-04 0.0 
-2.557043152436e-04 7.945254530657e-03 0.0 
0.0 0.0 -1.288571152055e-03 
-1.300318517946e-03 4.180573304732e-04 0.0 
4.180573304732e-04 8.209779619567e-03 0.0 
0.0 0.0 -1.290113636706e-03 
-1.294468783320e-03 3.035835675296e-04 0.0 
3.035835675296e-04 8.293038568859e-03 0.0 
0.0 0.0 -1.236907757659e-03 
-1.272697522653e-03 4.000546130428e-04 0.0 
4.000546130428e-04 7.992915461605e-03 0.0 
0.0 0.0 -1.292605224168e-03 
-1.039048517881e-03 -2.511628389219e-04 0.0 
-2.511628389219e-04 7.217306455236e-03 0.0 
0.0 0.0 -1.176879138244e-03 
-9.963056410622e-04 2.982297539881e-04 0.0 
2.982297539881e-04 6.108837095234e-03 0.0 
0.0 0.0 -9.170130443517e-04 
-1.345069444888e-03 2.094806773474e-04 0.0 
2.094806773474e-04 8.819921791921e-03 0.0 
0.0 0.0 -1.345069444888e-03 
1.988811427050e-03 -3.471842782120e-03 0.0 
-3.471842782120e-03 -1.074132479036e-03 0.0 
0.0 0.0 -3.920052634348e-04 
-7.958568066072e-04 2.655126968941e-05 0.0 
2.655126968941e-05 4.862635053177e-03 0.0 
0.0 0.0 -7.083073883397e-04 
-3.709027017310e-05 -1.154290083415e-03 0.0 
-1.154290083415e-03 8.071251517729e-04 0.0 
0.0 0.0 -3.300149492571e-04 
-8.078687300304e-05 2.766710122456e-05 0.0 
2.766710122456e-05 2.705585081320e-04 0.0 
0.0 0.0 -8.133070076957e-05 
-1.328088305276e-03 -2.091716352919e-04 0.0 
-2.091716352919e-04 8.801339781229e-03 0.0 
0.0 0.0 -1.323850096553e-03 
-9.077000763770e-04 9.794404475146e-05 0.0 
9.794404475146e-05 5.306610706151e-03 0.0 
0.0 0.0 -7.731261162940e-04 
-1.693805322071e-04 -2.625883935893e-05 0.0 
-2.625883935893e-05 1.305243597625e-03 0.0 
0.0 0.0 -2.115341463249e-04 
-9.189085389785e-04 8.964891235688e-05 0.0 
8.964891235688e-05 4.273021875062e-03 0.0 
0.0 0.0 -6.570498647039e-04 
-1.269073279560e-03 5.430037278188e-04 0.0 
5.430037278188e-04 8.457292477967e-03 0.0 
0.0 0.0 -1.276804206569e-03 
-1.288400651325e-03 -4.306470642739e-06 0.0 
-4.306470642739e-06 8.274343384212e-03 0.0 
0.0 0.0 -1.228616961883e-03 
-1.323624610775e-03 3.216369829918e-04 0.0 
3.216369829918e-04 8.408100187569e-03 0.0 
0.0 0.0 -1.289666537713e-03 
-6.585033223124e-04 -1.956809026779e-04 0.0 
-1.956809026779e-04 3.104860358543e-03 0.0 
0.0 0.0 -4.695399720401e-04 
8.031661435690e-04 1.688967946692e-04 0.0 
1.688967946692e-04 -8.031661435690e-04 0.0 
0.0 0.0 0.0 
-1.295369683638e-03 -4.352781909349e-04 0.0 
-4.352781909349e-04 8.328377963407e-03 0.0 
0.0 0.0 -1.273144391159e-03 
-1.316384665971e-03 4.635940691717e-05 0.0 
4.635940691717e-05 9.091692367136e-03 0.0 
0.0 0.0 -1.325353038101e-03 
-1.373672636792e-03 -7.774901455504e-05 0.0 
-7.774901455504e-05 8.873813327291e-03 0.0 
0.0 0.0 -1.323783523096e-03 
-8.637809619907e-04 1.323503679534e-04 0.0 
1.323503679534e-04 5.089707097874e-03 0.0 
0.0 0.0 -7.673431308700e-04 
-1.131532193974e-03 -7.726473612601e-05 0.0 
-7.726473612601e-05 7.445464928452e-03 0.0 
0.0 0.0 -1.231867668451e-03 
-2.317572587520e-04 -1.314436244158e-04 0.0 
-1.314436244158e-04 1.130415722071e-03 0.0 
0.0 0.0 -2.324200178898e-04 
-1.299745087394e-03 4.291095854891e-04 0.0 
4.291095854891e-04 8.286657472724e-03 0.0 
0.0 0.0 -1.241575510934e-03 
-4.846130298420e-05 -4.886976193625e-05 0.0 
-4.886976193625e-05 2.622595636012e-04 0.0 
0.0 0.0 -9.162782597871e-05 
-1.263516092246e-03 -1.718330630488e-04 0.0 
-1.718330630488e-04 7.907025787409e-03 0.0 
0.0 0.0 -1.290713494763e-03 
-1.321680158597e-03 4.673078731777e-04 0.0 
4.673078731777e-04 8.597815189326e-03 0.0 
0.0 0.0 -1.268585396830e-03 
9.825298922590e-04 9.034044566522e-04 0.0 
9.034044566522e-04 -9.825298922590e-04 0.0 
0.0 0.0 0.0 
-6.622912550459e-04 7.030771438387e-04 0.0 
7.030771438387e-04 6.995766231703e-03 0.0 
0.0 0.0 -1.178018281593e-03 
-1.107869427890e-03 -1.505180591586e-04 0.0 
-1.505180591586e-04 7.012739571933e-03 0.0 
0.0 0.0 -1.053859681778e-03 
-1.308771083341e-03 9.446579517484e-05 0.0 
9.446579517484e-05 8.493525012630e-03 0.0 
0.0 0.0 -1.289687241943e-03 
-1.346242744377e-03 2.039443759450e-04 0.0 
2.039443759450e-04 8.307404063276e-03 0.0 
0.0 0.0 -1.346242744377e-03 
-1.050842893348e-03 -2.891538303944e-04 0.0 
-2.891538303944e-04 6.421171579649e-03 0.0 
0.0 0.0 -9.627310317561e-04 
-1.303758961951e-03 4.903154082554e-04 0.0 
4.903154082554e-04 8.278630388455e-03 0.0 
0.0 0.0 -1.292510612804e-03 
-1.300990074097e-03 1.669276888751e-04 0.0 
1.669276888751e-04 8.244189692926e-03 0.0 
0.0 0.0 -1.236507170568e-03 
-1.088170666265e-03 3.228048852164e-05 0.0 
3.228048852164e-05 6.587667922864e-03 0.0 
0.0 0.0 -1.009625451247e-03 
-1.257890102395e-03 4.520446479729e-04 0.0 
4.520446479729e-04 7.985706155656e-03 0.0 
0.0 0.0 -1.247605899893e-03 
-7.721939041237e-04 -2.584607340664e-04 0.0 
-2.584607340664e-04 3.598089332548e-03 0.0 
0.0 0.0 -5.668522599723e-04 
-8.446801208318e-04 -1.785300824749e-05 0.0 
-1.785300824749e-05 4.608085736335e-03 0.0 
0.0 0.0 -7.287847301676e-04 
-1.179784032877e-03 5.549241153248e-04 0.0 
5.549241153248e-04 7.775803262496e-03 0.0 
0.0 0.0 -1.239219007812e-03 
-1.299529222104e-03 1.321426560981e-04 0.0 
1.321426560981e-04 8.646134742124e-03 0.0 
0.0 0.0 -1.286506427510e-03 
6.445161660584e-04 1.139795642382e-05 0.0 
1.139795642382e-05 -1.932304210897e-04 0.0 
0.0 0.0 -1.934081764151e-04 
-8.370484008237e-04 5.623912198418e-05 0.0 
5.623912198418e-05 4.626828224470e-03 0.0 
0.0 0.0 -7.284590636140e-04 
-1.335071484274e-03 -1.600713729454e-04 0.0 
-1.600713729454e-04 8.440371416104e-03 0.0 
0.0 0.0 -1.288082484959e-03 
-3.767414468585e-04 -4.451842935600e-05 0.0 
-4.451842935600e-05 1.577633672495e-03 0.0 
0.0 0.0 -2.765646858065e-04 
-1.073869167213e-03 5.136671170445e-05 0.0 
5.136671170445e-05 7.652297145893e-03 0.0 
0.0 0.0 -1.213252366005e-03 
-1.271794335805e-03 2.301245021833e-04 0.0 
2.301245021833e-04 8.183403677429e-03 0.0 
0.0 0.0 -1.225943235494e-03 
-1.312602819485e-03 -3.967668182090e-05 0.0 
-3.967668182090e-05 8.691988746778e-03 0.0 
0.0 0.0 -1.269037835114e-03 
-3.083660169777e-04 2.694773361529e-05 0.0 
2.694773361529e-05 1.528069924280e-03 0.0 
0.0 0.0 -2.647987373252e-04 
3.679938255595e-03 1.194915776558e-02 0.0 
1.194915776558e-02 -3.169468136518e-03 0.0 
0.0 0.0 -2.187729081758e-04 
-1.068435724364e-03 3.124616463362e-04 0.0 
3.124616463362e-04 5.213213290896e-03 0.0 
0.0 0.0 -7.939471195916e-04 
-1.202568648909e-03 1.058847220047e-04 0.0 
1.058847220047e-04 7.572272609772e-03 0.0 
0.0 0.0 -1.120841203304e-03 
0.0 0.0 0.0 
0.0 0.0 0.0 
0.0 0.0 0.0 
-1.320199164535e-03 2.485994904543e-04 0.0 
2.485994904543e-04 8.472368730029e-03 0.0 
0.0 0.0 -1.292233508669e-03 
-1.037229848653e-03 5.491249721839e-05 0.0 
5.491249721839e-05 6.181123680978e-03 0.0 
0.0 0.0 -9.501928138396e-04 
-2.112219927373e-05 -1.374997492072e-03 0.0 
-1.374997492072e-03 9.175924767207e-04 0.0 
0.0 0.0 -3.842015474773e-04 
-1.012609583766e-03 8.895330680236e-05 0.0 
8.895330680236e-05 5.872726185200e-03 0.0 
0.0 0.0 -9.030544305944e-04 
-1.225691657466e-03 3.254133079920e-04 0.0 
3.254133079920e-04 8.211721301461e-03 0.0 
0.0 0.0 -1.271643562581e-03 
-1.073143154962e-03 -3.082428058209e-04 0.0 
-3.082428058209e-04 5.482950483311e-03 0.0 
0.0 0.0 -8.272804529250e-04 
-1.232089209416e-03 2.184587908122e-02 0.0 
2.184587908122e-02 1.855024140364e-03 0.0 
0.0 0.0 -2.669721132634e-04 
-7.676399437614e-04 -3.808740375144e-05 0.0 
-3.808740375144e-05 3.237219166554e-03 0.0 
0.0 0.0 -5.209635072927e-04 
-9.628338005869e-04 -8.201294567374e-05 0.0 
-8.201294567374e-05 4.764994978367e-03 0.0 
0.0 0.0 -7.319997505002e-04 
-1.071554526652e-03 3.282695898754e-04 0.0 
3.282695898754e-04 5.655927594763e-03 0.0 
0.0 0.0 -8.599999999992e-04 
-1.135384068353e-03 1.731479619930e-04 0.0 
1.731479619930e-04 7.715574497297e-03 0.0 
0.0 0.0 -1.232780192057e-03 
-9.798919804233e-04 -2.558628748534e-04 0.0 
-2.558628748534e-04 4.608642650891e-03 0.0 
0.0 0.0 -7.175509632692e-04 
-9.821029958470e-04 -3.508647879925e-05 0.0 
-3.508647879925e-05 4.890525845077e-03 0.0 
0.0 0.0 -7.596628988333e-04 
-1.837560013843e-04 -1.583099615282e-05 0.0 
-1.583099615282e-05 7.060885550868e-04 0.0 
0.0 0.0 -1.551230728613e-04 
-1.279400136320e-03 -1.566945304177e-04 0.0 
-1.566945304177e-04 7.936225660633e-03 0.0 
0.0 0.0 -1.240629869904e-03 
-6.160778233065e-04 1.186647605660e-03 0.0 
1.186647605660e-03 6.980278222593e-03 0.0 
0.0 0.0 -1.186362110037e-03 
3.307424815092e-03 7.954712571890e-03 0.0 
7.954712571890e-03 -2.916839551299e-03 0.0 
0.0 0.0 -1.673936844824e-04 
-1.279430862365e-03 -6.414688066309e-05 0.0 
-6.414688066309e-05 8.547621756056e-03 0.0 
0.0 0.0 -1.290349483557e-03 
-1.338884708819e-03 1.031550988355e-04 0.0 
1.031550988355e-04 8.369469127644e-03 0.0 
0.0 0.0 -1.290356026000e-03 
-8.661241169029e-04 -1.497599566473e-04 0.0 
-1.497599566473e-04 5.210623571048e-03 0.0 
0.0 0.0 -7.639788432047e-04 
-1.031081386504e-03 4.454962226943e-05 0.0 
4.454962226943e-05 6.379322053578e-03 0.0 
0.0 0.0 -9.358343396975e-04 
-9.489099175762e-04 2.306915430345e-05 0.0 
2.306915430345e-05 4.686801294291e-03 0.0 
0.0 0.0 -7.108516105536e-04 
-9.490845872610e-04 -2.424415655702e-04 0.0 
-2.424415655702e-04 4.770889395299e-03 0.0 
0.0 0.0 -7.343037059241e-04 
-1.020778085259e-03 -1.236146397605e-04 0.0 
-1.236146397605e-04 5.063951457963e-03 0.0 
0.0 0.0 -7.498489858827e-04 
-9.462457698088e-04 2.402579643697e-04 0.0 
2.402579643697e-04 7.107660573003e-03 0.0 
0.0 0.0 -1.180929064624e-03 
-9.345291821784e-05 -1.000980982166e-03 0.0 
-1.000980982166e-03 8.249248585122e-04 0.0 
0.0 0.0 -3.134879744119e-04 
-6.694537399556e-04 9.076367417342e-04 0.0 
9.076367417342e-04 7.427737033365e-03 0.0 
0.0 0.0 -1.217816617926e-03 
-9.353852917844e-04 8.308411466891e-05 0.0 
8.308411466891e-05 5.379160797006e-03 0.0 
0.0 0.0 -8.376728236383e-04 
-1.321070874734e-03 1.232042406106e-04 0.0 
1.232042406106e-04 8.662379723599e-03 0.0 
0.0 0.0 -1.272153791098e-03 
-1.041736228558e-03 -1.048021857426e-04 0.0 
-1.048021857426e-04 7.166745997700e-03 0.0 
0.0 0.0 -1.181257232468e-03 
-9.798440822242e-04 -3.118370163861e-05 0.0 
-3.118370163861e-05 6.079525789277e-03 0.0 
0.0 0.0 -8.902468719969e-04 
-1.234647512165e-03 5.766899331800e-04 0.0 
5.766899331800e-04 7.752454878246e-03 0.0 
0.0 0.0 -1.201032862555e-03 
-1.158629351689e-03 4.496790680983e-04 0.0 
4.496790680983e-04 7.611289473110e-03 0.0 
0.0 0.0 -1.236767197193e-03 
-1.208868880085e-03 3.342350738492e-04 0.0 
3.342350738492e-04 8.181025928136e-03 0.0 
0.0 0.0 -1.270271405117e-03 
2.716478906049e-03 1.526500330789e-02 0.0 
1.526500330789e-02 -2.678222219303e-03 0.0 
0.0 0.0 -1.639572289087e-05 
-1.241892221072e-03 3.317116238901e-04 0.0 
3.317116238901e-04 7.798927866879e-03 0.0 
0.0 0.0 -1.198686027802e-03 
-1.219656002063e-03 7.061908519051e-04 0.0 
7.061908519051e-04 8.046356193093e-03 0.0 
0.0 0.0 -1.227078865044e-03 
-6.925802389634e-05 -2.106877258132e-04 0.0 
-2.106877258132e-04 8.393317830722e-04 0.0 
0.0 0.0 -1.488313462956e-04 
-9.198582411310e-04 -2.516763361700e-04 0.0 
-2.516763361700e-04 4.361749592167e-03 0.0 
0.0 0.0 -6.841365946973e-04 
1.994534765454e-03 1.022338389857e-02 0.0 
1.022338389857e-02 -1.980327348249e-03 0.0 
0.0 0.0 -6.088893087977e-06 
-1.270183579808e-03 3.785933793144e-04 0.0 
3.785933793144e-04 8.183372897712e-03 0.0 
0.0 0.0 -1.230789928678e-03 

SCALARS element_materi_plasti_kappa_shear float
LOOKUP_TABLE default
3.306655022115e-03
2.456011948322e-03
5.503175940454e-03
5.633931869583e-03
3.565227349429e-03
6.443674392862e-03
3.536826958688e-03
2.888068667231e-03
3.582504689508e-03
5.588174946625e-03
3.844209359202e-03
2.509694276387e-03
5.512057153720e-03
3.809200862045e-03
5.604521952288e-03
5.734301458092e-03
3.547028291065e-03
2.684158994500e-03
1.240065727301e-03
1.171297693899e-03
5.622446392520e-03
3.107770638655e-03
3.570738064669e-03
4.978061567756e-03
4.048291547957e-03
4.106723662793e-03
3.284357619891e-03
5.494131578830e-03
4.059702375831e-03
5.136982028010e-03
7.422582556328e-03
4.065787809140e-04
5.695120532744e-03
4.786861567557e-03
5.372391993924e-03
5.735141668293e-03
5.753517229623e-03
5.201200685639e-03
3.236338684528e-03
3.281036968799e-03
4.272550617933e-03
5.321786045187e-03
3.199074738043e-03
3.149604634892e-03
5.511212370387e-03
6.319669183911e-03
7.523704939793e-03
5.403179619290e-03
6.372008069741e-03
3.669652725762e-03
3.950686863448e-03
1.545192749097e-03
6.569696852176e-03
3.720605877028e-03
5.581390730101e-03
2.049040073899e-03
1.507776831990e-03
4.806180650685e-03
9.040347839122e-04
5.734539432203e-03
1.966398600759e-03
5.088961444010e-03
2.389363153128e-03
7.278635761882e-03
5.502622384469e-03
3.381092787804e-03
1.609915946628e-03
5.645939813078e-03
1.388688876148e-03
5.453334766672e-03
4.240450452082e-03
5.844447616816e-03
5.127619557211e-03
3.940968838014e-04
2.067872878458e-03
5.628694369718e-03
5.723406412390e-03
8.557055909224e-03
8.084468878614e-04
7.142787050354e-03
1.215963319167e-03
3.393097464491e-03
3.344230353480e-03
2.844989786812e-03
3.733526205207e-03
3.714125906962e-03
4.361075697200e-03
4.690746124938e-03
4.783172209268e-03
3.514212606547e-03
2.589608648574e-04
3.431550400288e-03
4.721859888672e-03
4.746077057757e-03
5.997543046696e-03
5.411150761547e-03
3.393913313148e-03
5.491004293201e-03
3.985594967259e-03
2.258571385844e-03
3.410992711845e-03
5.611034212900e-03
5.692703900145e-03
5.044986608028e-03
5.063605194093e-03
7.103983218970e-03
5.221382607798e-03
5.045193140480e-03
6.935393882637e-03
5.486842463624e-03
4.573653062055e-03
3.479980613032e-04
5.116733069965e-03
3.940865757696e-03
2.487000496226e-03
2.126059688753e-03
2.373145013226e-03
5.451016480834e-03
3.919789090778e-03
2.437156693350e-03
1.213076248653e-03
3.513689619667e-03
4.941959880695e-03
4.361019720504e-03
1.577856954057e-02
4.803145761545e-03
2.565005698292e-03
4.350082573908e-03
5.737782286007e-03
1.311997292630e-02
4.027728111069e-03
5.636355074510e-03
2.835365156538e-03
4.626044660230e-03
5.353249069117e-03
5.532349028916e-03
4.348743351020e-03
2.978900291729e-03
5.411429688504e-03
2.744221608962e-03
5.616125922486e-03
5.854015290970e-03
3.766204035722e-03
4.391065799997e-03
2.718404295077e-03
4.082967207961e-03
3.087137023846e-03
5.033513788542e-03
3.492820352654e-03
5.653536583206e-03
2.621382727248e-04
3.747049311015e-03
8.605114628174e-04
4.653097525149e-03
5.290806449771e-03
4.440927630266e-03
4.518027699077e-03
3.310662126942e-03
5.661459191911e-03
3.408465456370e-03
5.656995528560e-03
4.941287181334e-03
1.029170670083e-03
5.207270841351e-03
3.386399557435e-03
5.629077659096e-03
3.402534046100e-03
4.838853198047e-03
3.830232403847e-03
3.978529564445e-03
2.746944146688e-03
6.270921287665e-03
4.565545625096e-03
3.526561441315e-03
4.959908147396e-03
4.307184721055e-03
4.905906627537e-03
2.846109516762e-03
5.344131269157e-03
6.014336544933e-03
2.223956915064e-03
2.739998364567e-03
4.906834890007e-03
2.767300140331e-03
1.901753547339e-03
3.276383508295e-03
5.150823339655e-03
5.640432630144e-03
4.649191975422e-03
5.084010659975e-03
7.153603849208e-03
7.252474144025e-03
4.756649167095e-03
0.0
2.645910748192e-03
4.848188064748e-03
6.693198157630e-04
5.577145383261e-03
4.311674069402e-03
2.424063329831e-03
5.069436127408e-03
3.768016172912e-03
3.975429040763e-03
5.123403257528e-03
1.968551576487e-03
3.168679698930e-03
3.489417411141e-03
4.497775965736e-03
3.554143506731e-03
3.272990497602e-03
6.462371484517e-03
4.777873359821e-03
1.535320158503e-03
2.054635726213e-03
2.292338041600e-03
3.059823040950e-03
4.848669964181e-03
6.861725725954e-03
4.641469495710e-03
3.403528574950e-03
6.306049391774e-03
4.256389388643e-03
4.246264766717e-04
4.599464078276e-03
4.771215520171e-04
5.410341703711e-04
6.236068959609e-03
1.719248331945e-03
4.782293510667e-03
1.815734887217e-03
5.890400281471e-03
2.248081554551e-03
1.146822852731e-03
5.020124054337e-03
3.377702223347e-03
5.506088258922e-03
2.008327076079e-04
5.767052908997e-03
6.469744668540e-03
2.481153461484e-03
4.947634530414e-03
5.606441244158e-03
4.559795208237e-03
7.691544711730e-03
4.894473341937e-03
4.213382192652e-03
3.236971907541e-03
4.423237357451e-03
5.173514376653e-03
7.276104282875e-03
6.048540993685e-03
3.825403090103e-03
5.999008670889e-03
3.128792099484e-03
7.924130975695e-03
3.812433277429e-03
1.356034459876e-03
3.547869395678e-03
7.678900575169e-03
6.884290436348e-03
7.145466223479e-03
4.770342255613e-03
3.657761913000e-03
4.136735983867e-03
4.951131887675e-03
4.665409177491e-03
3.411799966359e-03
5.452188912108e-03
7.417555161837e-03
3.583300261965e-03
5.211581522894e-03
7.342383956958e-03
7.297999148068e-03
3.414342947476e-03
8.091557786411e-03
6.143295268505e-03
4.542488046731e-03
0.0
3.716563633638e-03
7.762030656429e-03
7.281941100240e-03
5.891530455313e-03
3.926631031119e-03
7.929613934374e-04
2.439400741018e-03
6.636913271768e-03
3.653257839112e-03
3.792551444784e-03
3.411775020438e-03
6.658267070589e-03
5.244412577940e-03
2.380810277843e-03
4.441924025952e-03
2.403845489855e-03
8.059257773175e-03
7.285672044844e-03
3.514679606098e-03
5.351302864967e-03
9.373691798228e-03
5.958720739140e-03
5.939193914372e-03
3.244445123059e-03
7.868219948459e-03
9.230912301931e-03
3.688319290741e-03
7.793404998077e-03
6.104989591774e-03
3.253099720127e-03
5.778400585500e-03
7.321224214814e-03
6.436024389976e-03
7.634378530789e-03
5.660443835014e-03
8.233754846426e-03
3.342266076335e-03
4.746148291110e-03
5.434276475091e-03
7.434387608256e-03
4.625918447880e-03
3.486331641573e-03
5.903962199921e-03
7.877733578176e-03
6.623736962625e-03
1.021356875552e-02
4.262668196765e-03
4.653187854017e-03
5.187707767811e-03
4.157903845114e-03
5.833143474624e-03
4.683977256673e-03
5.914245466119e-03
4.107732014025e-03
4.587246752330e-03
5.868455939799e-03
3.216971996294e-03
3.590070658515e-03
3.756282744682e-03
2.945710028405e-03
5.788099092437e-03
3.944002213719e-03
3.448909530710e-03
7.879190584891e-03
1.455277505311e-03
3.108638757878e-03
4.974003267396e-03
3.540174196265e-03
3.260379140884e-03
7.687886572900e-03
4.717172209804e-03
5.769224109657e-03
3.325468032698e-03
6.012106623423e-03
3.118061036031e-03
5.704944762881e-03
2.889395553995e-03
6.669121758680e-03
2.475643465383e-03
2.512277514711e-03
4.476577078922e-03
4.954048188006e-03
3.495259464146e-03
2.613727009285e-03
3.062435080318e-03
5.651875251926e-03
5.274977967438e-03
4.935750800823e-03
4.617112825186e-03
3.065607714073e-03
2.469090313365e-03
7.094618536949e-03
7.488153400216e-03
3.315397022365e-03
5.492455619402e-03
2.997347446124e-03
5.010744987465e-03
6.673032467982e-03
3.059962798663e-03
3.419306053386e-03
2.657962730504e-03
5.922741708314e-03
5.955236189705e-03
5.576307705796e-03
3.343577244616e-03
4.936203495640e-03
5.093028384151e-03
7.980009526697e-03
4.914279896287e-03
2.556685105345e-03
3.397790353165e-03
4.097341444589e-03
5.360765443340e-03
4.855340331116e-03
3.816589750238e-03
3.860243568889e-03
5.946168590313e-03
9.358115372942e-04
5.889105861693e-03
3.489419170664e-03
5.938759793958e-03
1.201304678999e-02
3.654326841485e-03
1.535889856870e-03
6.635751166745e-03
5.542217875605e-03
5.862087275346e-03
3.443419406158e-03
9.148022967595e-04
3.000502477848e-03
6.482891124052e-03
3.927650911988e-03
5.971590059490e-03
3.223720713770e-03
3.674901719203e-03
2.887355925381e-03
4.891146742092e-03
3.418978839809e-03
5.899122174337e-03
5.774980459743e-03
5.817447372982e-03
5.770330115021e-03
4.031402203216e-03
4.901935106937e-03
5.053219238747e-03
2.608302338338e-03
2.534090737438e-03
2.864377718296e-03
5.021604322951e-03
5.804877108405e-03
5.054229152364e-03
6.556013558095e-03
5.068372728808e-03
5.829541943061e-03
3.413145621660e-03
2.587573265554e-03
9.134075499205e-03
5.632439227330e-03
2.639901149440e-03
5.186419802969e-03
2.763464966764e-03
2.143566517803e-03
5.246511047736e-03
5.527088581757e-03
5.758655944435e-03
5.581996474530e-03
3.601464432629e-03
2.874317802879e-04
5.722474487267e-03
5.230794359339e-03
3.224216262587e-03
5.944841644033e-03
5.699626342238e-03
7.229122861869e-04
2.999451465512e-03
3.779907730679e-03
3.423227498078e-03
3.515796245568e-03
7.276023483721e-03
5.673636790496e-03
8.334522153034e-03
1.959273923370e-03
5.578498981548e-03
1.007113625205e-03
2.903489307071e-03
6.180309488337e-03
3.105385424469e-03
5.637939698663e-03
5.643493109987e-03
3.759896198983e-03
5.273756630286e-03
1.526968322580e-03
4.846231344136e-03
4.781936084338e-03
3.544667014514e-03
3.591768567503e-03
5.600982036970e-03
3.550458207037e-03
5.978204257671e-03
6.132020168033e-03
3.966369650588e-03
2.218529095457e-03
5.919019986765e-03
6.963642846809e-03
5.563443599679e-03
5.770828452205e-03
5.803925315002e-03
3.535689664887e-03
2.718540240996e-03
4.409890770745e-03
3.607200195360e-03
5.538358032675e-03
8.079874960634e-03
5.730641166540e-03
4.110940244042e-03
4.134625190794e-03
5.683102620148e-03
2.109775271615e-03
5.520122581298e-03
2.838011056363e-03
5.751046272795e-03
5.068488904680e-03
1.458194484398e-03
4.323572627656e-03
5.116907936890e-03
5.706785168037e-03
4.029434435152e-03
5.979897395328e-03
9.949483467428e-03
4.952953356985e-03
1.912176692629e-03
3.006196028438e-03
3.869860093187e-03
5.656733513692e-03
6.814230386632e-03
4.667878486777e-03
3.833323984522e-03
2.139158319596e-03
4.525708720347e-03
3.853402172132e-03
5.579172664693e-03
2.774393020232e-03
3.942313972036e-03
3.663555928354e-03
4.797447677535e-03
5.724018645020e-03
3.637032700867e-03
3.277498606193e-03
4.764312453886e-03
5.483393748602e-03
3.881577858947e-03
2.732828783826e-03
6.575150942762e-03
2.627670573605e-03
6.370163454976e-03
6.708985087446e-03
5.656674172997e-03
5.232907453581e-03
1.823811427346e-03
5.507514049442e-03
5.342333532244e-03
6.230714353374e-03
1.949731643504e-03
5.694608369003e-03
5.185125812822e-03
1.766116652762e-03
5.538258443366e-03
3.827720443377e-03
2.679180912128e-03
3.704599732640e-03
7.429262043073e-03
3.255701293151e-03
5.198798606323e-03
4.329946724555e-03
2.998532943868e-03
5.401470363309e-03
4.047052255275e-03
2.859932710936e-03
5.585544483023e-03
2.211642543694e-03
3.881327088903e-03
2.869683630815e-03
5.584644738368e-03
2.077218534362e-03
3.040900024033e-03
5.675740545886e-03
3.726763647671e-03
4.021852142269e-03
2.125448120930e-03
5.567560434823e-03
3.763638072719e-03
3.188675817690e-03
3.577463415310e-03
3.136039882305e-03
1.545538772655e-04
3.881554513065e-03
2.640906468370e-03
4.896395125672e-04
3.049084665278e-03
4.039018151325e-03
5.107511769800e-03
5.156085310018e-03
5.181615713412e-03
3.333812579699e-03
3.138774507408e-03
5.602858950170e-03
3.388266387593e-03
8.142206579732e-04
1.262830355438e-03
3.403732711761e-04
2.039797041706e-03
5.050897180242e-03
5.135074580473e-03
4.569733804699e-03
2.205347307067e-03
3.963428270317e-03
4.776957379909e-03
3.712332043973e-03
2.667099209261e-03
2.160248377513e-03
5.721042981994e-03
5.580105102776e-03
2.939481999310e-03
3.271315706566e-03
3.310083848978e-03
4.870818036150e-03
1.230172725071e-03
4.584051485749e-03
6.428633528680e-04
2.999374668151e-03
3.265631012540e-03
2.192679874259e-04
2.777613716051e-03
5.213183738870e-03
7.605634088124e-04
3.125223871850e-03
3.264611202798e-03
5.396052735548e-03
2.191299816666e-03
1.929490898902e-03
7.930419815100e-03
5.021357309616e-03
5.413378247578e-03
4.938730896674e-03
4.591059198102e-03
7.396549693112e-04
3.052559415623e-03
3.136955965337e-03
3.283077438817e-03
4.658352453540e-04
2.193472717884e-04
5.176799582362e-04
1.646399827615e-03
4.476010659487e-04
3.103497725519e-03
1.362278494796e-03
1.933359932912e-03
4.174873570305e-03
3.277162825819e-03
5.055738530347e-03
3.910516641519e-03
3.910699350519e-03
2.335203039295e-03
6.321407009922e-04
5.850638891353e-03
6.009929428425e-03
3.804106063636e-03
3.142498704503e-03
2.378074668671e-03
6.000434500276e-03
1.932646254916e-03
3.261134435714e-03
3.129035808385e-03
2.954670140417e-03
5.838142907149e-03
5.995969196951e-03
4.354125543212e-04
4.744350178741e-04
9.186762200651e-04
3.162862848184e-03
5.377931686408e-03
0.0
4.886021985717e-03
2.283143893354e-03
5.189684873534e-03
1.094814422716e-03
4.917379596665e-03
4.853780924958e-03
5.195804270535e-03
4.290192669085e-03
3.148248508174e-03
2.197475915269e-04
4.109795966881e-03
5.851848957564e-03
6.003781657386e-03
3.276367122740e-03
5.314954664599e-03
5.863438389457e-03
6.151173144776e-03
6.020741917649e-04
4.453789533022e-04
2.347376138707e-04
2.636386499780e-03
5.872831094669e-03
5.638106297545e-03
4.772657275713e-04
3.087998710897e-03
5.740465009782e-03
5.879140074133e-03
5.731117611362e-03
4.595061384764e-03
5.043133831470e-03
5.707378045359e-03
5.713124045283e-03
4.886059613206e-03
8.172445213191e-04
3.253485872106e-03
3.293767224568e-03
4.729673312376e-04
5.690406926255e-03
5.768685902520e-03
5.617484584070e-03
7.180000920416e-04
7.888943205728e-04
5.588283914655e-03
5.603110956582e-03
4.452788727497e-03
3.251601896083e-03
4.737759423841e-03
3.834702661819e-03
3.246459497800e-03
8.359550676222e-04
9.697138446843e-04
1.416907893520e-03
1.795338856659e-03
3.250169139528e-03
2.937145446359e-03
3.637714261388e-04
4.118703550063e-03
9.623990211133e-04
5.832195033360e-03
5.846499430745e-03
5.850716816552e-03
1.037380994288e-03
2.016748291348e-03
5.852662976723e-03
4.973191529565e-03
5.880964851940e-03
5.257570989653e-03
5.538666694917e-03
2.787880833422e-03
6.016271676808e-03
6.012463975421e-03
5.083244388474e-03
5.379690173722e-03
4.387421699504e-03
0.0
2.857162677749e-03
4.252814149356e-04
5.079913712272e-03
2.910266083999e-03
4.760106554015e-03
1.643649883448e-03
5.383120855226e-04
5.098955867833e-03
3.125495581336e-03
2.489884669676e-03
4.818967528396e-03
5.278656552726e-03
2.495305030192e-03
4.255398696546e-03
3.844899893988e-03
4.331079183945e-03
4.483284984888e-03
8.269038227489e-03
2.890176896868e-03
5.420561428214e-03
4.036906121348e-03
4.963877593991e-03
4.634026856991e-03
1.657361628813e-03
5.268660436221e-03
4.977116357189e-03
3.619668627054e-03
4.170717328187e-03
4.186883659402e-03
5.342654512254e-03
5.152017188017e-03
3.775019514809e-03
5.233037882857e-03
4.914729909786e-03
4.640974992131e-03
5.247897151359e-03
5.303240859678e-03
4.541244193091e-03
4.128098936937e-03
1.538774070067e-03
1.637170348017e-03
8.927698521496e-04
6.525183474628e-04
5.158931490191e-03
5.044076979222e-03
5.868956833529e-04
5.121589647054e-03
3.733179451095e-03
4.678226682694e-03
4.762287906690e-03
2.074136809097e-03
4.809627862755e-03
3.622602601676e-03
5.537280315106e-03
5.345962366384e-03
1.472811966339e-03
5.235843009349e-03
4.707105507548e-03
1.674998648871e-03
1.997272543898e-03
3.477442011437e-03
4.193455430159e-03
2.343630985594e-03
4.867641149368e-03
4.387482060233e-03
3.338211884839e-03
4.524321097962e-03
4.677832988923e-03
4.679006337696e-03
1.339663578638e-03
3.198638979897e-03
5.123695282968e-03
4.840387351563e-03
2.897016443790e-03
3.936845676204e-03
5.082736818757e-03
4.511744960806e-03
1.978396276482e-03
7.677090780190e-04
4.938915685686e-03
4.910516809546e-03
4.354991661181e-03
3.826914815962e-03
3.891439679493e-03
4.711856603342e-03
3.483739004670e-03
4.620031677451e-03
1.591598461033e-03
5.218249190633e-03
3.412412426767e-03
1.736686848489e-03
3.262202328444e-03
2.478917580480e-03
2.035103586398e-03
3.755154455874e-03
5.292319117735e-04
6.018044968758e-04
4.252374733298e-03
1.464746990371e-03
4.246030270520e-03
4.094375942875e-03
2.616673579752e-03
1.812766898726e-03
5.102254688752e-03
7.024331594489e-03
2.625027282396e-03
4.837002714089e-03
1.192572476611e-03
4.082383260840e-03
3.767466409166e-03
1.326156531730e-03
4.910591653427e-03
4.645125771512e-03
1.410538395916e-03
5.226535373693e-03
5.199234746316e-03
1.660825990561e-03
2.329704292372e-03
1.741360747490e-03
4.534233564243e-03
3.626195608605e-03
5.169455195404e-03
5.078103462266e-03
4.392922361779e-03
4.325015664707e-03
1.344427675979e-03
4.473065100284e-03
4.621187335039e-03
3.681381110048e-03
4.381240135388e-03
4.808400950473e-03
7.939944487333e-03
4.947620929573e-03
3.085734269789e-03
3.550246213813e-03
2.335827574008e-03
2.490782004144e-03
4.488879741826e-03
3.165999505288e-03
1.852051741299e-03
9.795830009428e-04
4.513242120104e-03
1.766306002376e-03
5.166203144739e-03
4.649805208552e-03
4.614388070238e-03
5.225667178668e-03
2.979037457551e-03
1.585841628710e-03
1.011992460365e-03
4.379665078225e-03
4.223445145250e-03
6.765581779648e-04
2.432707948999e-03
1.398956561073e-03
4.216513153533e-03
2.555838114568e-03
4.011146820245e-03
2.390150431537e-03
5.006027676208e-03
2.059652164516e-03
4.350001019913e-03
1.794811250638e-03
4.222069039725e-03
3.406036415108e-03
4.462021920913e-03
6.737068186430e-03
1.350299010952e-03
3.939048831294e-03
4.888227451857e-03
2.830557802011e-03
4.239747352825e-03
1.991260803131e-03
4.297758287115e-03
1.272590086593e-03
4.947061823839e-03
5.164127682257e-03
5.450752826932e-03
5.406352818554e-03
3.435279919526e-03
1.276251192001e-03
3.890812531653e-03
5.018055530162e-03
2.209550982896e-03
4.531906710769e-03
4.676467859059e-03
1.879122688409e-03
4.059355262125e-03
3.877866350654e-03
1.909658390552e-03
2.315039142322e-03
3.973412586964e-03
4.303145841248e-03
2.635421671348e-03
4.660803274147e-03
4.459399445595e-03
4.056901073063e-03
3.999117941319e-03
3.350783493908e-03
4.741842824469e-03
3.716486713276e-03
3.922920566098e-03
5.252343855286e-03
5.366317572999e-03
4.138095280470e-03
4.783696522489e-03
2.607621039471e-03
2.469838949813e-03
1.432823964346e-03
4.007204605408e-03
2.590823974833e-03
4.347452842024e-03
4.183394403681e-03
7.310140034421e-03
2.085784252471e-03
7.915874633497e-03
2.212107321881e-03
2.350809507915e-03
1.463075537230e-03
4.569504511566e-03
2.669001313969e-03
4.972812165115e-03
2.750604982809e-03
3.790160523716e-03
3.207941504412e-03
6.314726152235e-03
1.541106990513e-03
4.841361927259e-03
5.091339779464e-03
4.638466099898e-03
2.472525954974e-03
3.495149155929e-03
4.324118500003e-03
2.732643322525e-03
4.307944291308e-03
2.150698556140e-03
2.106845042594e-03
2.726649439388e-03
1.894721435353e-03
1.784390543315e-03
3.334917325845e-03
3.967235808941e-03
5.742382519329e-03
1.115612024586e-03
3.317437628315e-03
2.556449603619e-03
2.577694805080e-03
4.159825931864e-03
2.931072335017e-03
2.192293877224e-03
2.827325159198e-03
4.815904702500e-03
2.276675714296e-03
8.000720813987e-04
1.154840506689e-03
1.907795704096e-03
2.221538328191e-03
2.903878836019e-03
2.913483858149e-03
1.764083930753e-03
1.225103944880e-03
3.978408581491e-03
1.973233867528e-03
4.352924711070e-03
5.895866611741e-03
3.992519858041e-03
5.014455028265e-03
5.563866436473e-03
8.090754192950e-03
5.306073949618e-03
1.977881610171e-03
2.972886214249e-03
6.749945848183e-03
5.619721205903e-03
1.686644144900e-03
2.487335316614e-03
2.744769011227e-03
2.804656212940e-03
2.029273826370e-03
3.023258905964e-03
2.803732886982e-03
4.186026924398e-03
2.359041018273e-03
5.430738372415e-03
4.482822863784e-03
4.946881857419e-03
4.670023540639e-03
2.097337949930e-03
5.002347225511e-03
2.827679967364e-03
5.491219234822e-03
3.947077556837e-03
1.774963125665e-03
4.099246498152e-03
5.100371074435e-03
3.286106991821e-03
5.624824515936e-03
4.202460859535e-03
3.198141691161e-03
1.589122566935e-03
5.594818322494e-03
1.323577671794e-03
4.960548202645e-03
5.240056690777e-03
5.254894655923e-03
4.022036132739e-03
4.908739948371e-03
3.576610564884e-03
6.574588007045e-03
5.295279977407e-03
4.266560699203e-03
4.614700973159e-03
4.924315240055e-03
1.755388368310e-03
4.742604083367e-03
5.582943940858e-03
5.004957839639e-03
2.836493463262e-03
4.042556476747e-03
3.862526569830e-03
2.990307102709e-03
4.091149418795e-03
4.218450148723e-03
1.096098833511e-03
7.511238443043e-03
5.800178909959e-03
4.156580646363e-03
4.583810566482e-03
5.469614393342e-03
5.117047102827e-03
5.259865256129e-03
2.804866215072e-03
4.812380906171e-03
4.181034339561e-03
5.346185944049e-03
4.575117160927e-03
3.073764877658e-03
6.943013251191e-03
4.723026116701e-03
5.199457669429e-03
4.754736712479e-03
4.593382364392e-03
4.706207203460e-03
5.028843623109e-03
4.529156841862e-03
3.673004527565e-03
2.793183285108e-03
5.235294979208e-03
4.482872570103e-03
1.720752477746e-03
5.046944222604e-03
5.099784245741e-03
5.981329292323e-03
6.190724164851e-03
6.133899431699e-03
5.615553342237e-03
3.162738673778e-03
3.106094428709e-03
4.275586722866e-03
3.420444478414e-03
1.004639642977e-02
3.608028323112e-03
5.154428476973e-03
5.289575565494e-03
6.671085972960e-03
3.385556211389e-03
4.320502265357e-03
7.229332606074e-03
5.304438784557e-03
5.891349067255e-03
3.317308554295e-03
4.304146306301e-03
3.834093291929e-03
4.432932293431e-03
4.823215265074e-03
5.431433810944e-03
4.778108728743e-03
6.061866495471e-03
4.886746565618e-03
3.284898898122e-03
4.448193879400e-03
5.103525867733e-03
4.887560636574e-03
5.679583619734e-03
6.881177767369e-03
3.471604947544e-03
3.246607314585e-03
5.048129172683e-03
1.854985291830e-03
3.567611787750e-03
6.258507523523e-03
5.379705512615e-03
2.307307049799e-03
3.763000896521e-03
4.556944250926e-03
3.383719843055e-03
6.548480182800e-03
5.578038279410e-03
1.530379692595e-03
3.885901197177e-03
2.267828611287e-03
6.058747920738e-03
5.978757202265e-03
4.108958837840e-03
4.874265144995e-03
8.368000326672e-03
4.410645559788e-03
4.581691094019e-03
5.032053835528e-03
1.857540691758e-03
2.167450437020e-03
5.325517624172e-03
3.161922337939e-03
5.148072931186e-03
4.251413629007e-03
4.663962013380e-03
4.919162648388e-03
4.429689118342e-03
5.301599282418e-03
4.867555126114e-03
4.994292368552e-03
7.965801694000e-03
4.731482311295e-03
4.686031286375e-03
7.595688682273e-03
4.837419904329e-03
5.079003029781e-03
6.662321623825e-03
2.094098399874e-03
5.151226031821e-03
1.248071604353e-03
5.756250746543e-03
5.219472064802e-03
5.269510986050e-03
5.404504160547e-03
5.373630209970e-03
5.035214563043e-03
8.108705589528e-03
5.441169609202e-03
5.926386890113e-03
5.141368132138e-03
7.011272013897e-03
7.337091875193e-03
7.515252401553e-03
5.885107512426e-03
6.962265365224e-03
6.830376350747e-03
5.800465258870e-03
6.346089934255e-03
7.400815697662e-03
5.179437752949e-03
5.268578940824e-03
4.434728242993e-03
4.978563336659e-03
3.701628579011e-03
4.975773677779e-03
6.388113818278e-03
4.888861475010e-03
4.848446586375e-03
4.829227704648e-03
5.493214699932e-03
8.129580978738e-03
6.015273253852e-03
3.957491419922e-03
6.302277523548e-03
6.108209831060e-03
4.186947636273e-03
3.534726222792e-03
5.046415826891e-03
4.704605430921e-03
7.941451234601e-03
4.158048487844e-03
5.130329801808e-03
5.071297943610e-03
5.882826351780e-03
4.232489050894e-03
4.835000880638e-03
6.319940812181e-03
5.078316873362e-03
4.979279553040e-03
5.322298740710e-03
5.737651181137e-03
5.682680898276e-03
5.657363129575e-03
5.432207149007e-03
6.148505328732e-03
8.390106844846e-03
5.626072155255e-03
4.416884575406e-03
6.088635573065e-03
5.948146949243e-03
4.200855765301e-03
5.106738436651e-03
4.301405107970e-03
5.977516680000e-03
4.094600791655e-03
3.873742424529e-03
4.049253002460e-03
5.041401909663e-03
4.646225374320e-03
4.523702894857e-03
5.390087395959e-03
3.985020216099e-03
8.125068036198e-03
5.510965742198e-03
5.359924628782e-03
6.593378344235e-03
6.059205446084e-03
8.237670238831e-03
4.648699280585e-03
2.766011387022e-03
6.830619392634e-03
2.703531881720e-03
5.232013390771e-03
5.174437782156e-03
7.400951416924e-03
3.831702405749e-03
5.341003982023e-03
2.920796651996e-03
4.471320323039e-03
5.165201483682e-03
4.541058644014e-03
4.477853504311e-03
7.495145507641e-03
2.979223572076e-03
5.297107160487e-03
4.233656404894e-03
5.760911098469e-03
5.888300659527e-03
9.606968968041e-04
4.396335016970e-03
7.573938465593e-03
4.247426129010e-03
3.657351708374e-03
7.980013800957e-03
4.954039962137e-03
6.452580081419e-03
8.187596701420e-03
4.348052502255e-03
5.420439990781e-03
5.645696271234e-03
5.286300677144e-03
5.472847950236e-03
6.156483766104e-03
7.060871459341e-03
4.511210016349e-03
5.453521427974e-03
5.267588892162e-03
5.212247969632e-03
8.135943450957e-03
4.962734147557e-03
5.046804183108e-03
3.535212461732e-03
6.026118232010e-03
4.393389450935e-03
4.800902351973e-03
4.606296382436e-03
3.122680214006e-03
3.120274423476e-03
4.382256899136e-03
5.501505567276e-03
3.813633009546e-03
4.221320453715e-03
6.885093222364e-03
4.822763598591e-03
7.587848359605e-03
5.983048558159e-03
3.591210545370e-03
6.679153487866e-03
3.557292247720e-03
6.792256805126e-03
3.230009085735e-03
4.832706531459e-03
3.683361306900e-03
4.361379102542e-03
4.324884584529e-03
4.497716242812e-03
9.296305416928e-04
3.000738260246e-03
2.877206011432e-03
4.129391706328e-03
4.309346871824e-03
4.928600513162e-03
1.390083491195e-03
6.694423148324e-03
4.436769484044e-03
3.118387867984e-03
7.812111168366e-03
7.981622982550e-03
4.375276169838e-03
8.354047461367e-03
3.441254145347e-03
5.064403492188e-03
5.368724401577e-03
5.376588438414e-03
5.149299469470e-03
3.407577951504e-03
4.596633708750e-03
5.291684185247e-04
4.902793842122e-03
4.547217737238e-03
5.097626183355e-04
5.132298664917e-03
5.171268392123e-03
4.127046447011e-03
3.654659147826e-03
4.369702748210e-03
3.929094972772e-03
5.264031271081e-03
4.176448935078e-03
5.448442276413e-03
5.068966339633e-03
1.321659192012e-02
4.295032821143e-03
6.072785579463e-03
4.043631383605e-03
5.511993612965e-03
6.408486145083e-03
4.830518942522e-03
6.051760783553e-03
3.151597474926e-03
5.914980137608e-03
4.666996016599e-03
5.688289877696e-03
3.276352252530e-03
3.497938959203e-03
5.375951367089e-03
3.629452345496e-03
4.045415936867e-03
7.240344444820e-03
4.360106061651e-03
7.140654198731e-03
7.348961545112e-03
5.508157708377e-03
7.981577343948e-03
4.229813709731e-03
7.583438658212e-03
4.036588971796e-03
5.094257808283e-03
5.115401707192e-03
7.061398889005e-03
4.194893651729e-03
4.753168581798e-03
4.818117472810e-03
8.682675475350e-03
4.137746118188e-03
5.209940225680e-03
2.346590375691e-03
3.683805328027e-03
1.286768963426e-02
4.902778118811e-03
7.412537048928e-03
3.562582783365e-03
5.733599987947e-03
4.208916939956e-03
4.023939684233e-03
5.034111654814e-03
6.574641215567e-03
7.167049991441e-03
4.964224152630e-03
4.057537342698e-03
4.612809734594e-03
5.133845130522e-03
5.597245436136e-03
7.611558870342e-03
6.412922725891e-03
3.772607831583e-03
3.271605333460e-03
5.171157076259e-03
7.643282545761e-03
5.066065955323e-03
4.914430261524e-03
5.597114711762e-03
5.394625854804e-03
6.807141349512e-03
4.991042589187e-03
5.557217293361e-03
6.256323389502e-03
4.742011237863e-03
2.599416272208e-03
3.955106039753e-03
5.073055741028e-03
3.845590045576e-03
6.367438676367e-03
6.130262660099e-03
4.981265731309e-03
3.723013565829e-03
3.865662068832e-03
1.773506866454e-02
6.544614031166e-03
1.179229766770e-02
9.684342886304e-04
3.597379235346e-03
5.232191673948e-03
4.138119897076e-03
5.356300870429e-03
5.849140828973e-03
1.714920929849e-02
5.882816548126e-03
4.707576622534e-03
3.550843563428e-03
2.957877931277e-03
3.922364605571e-03
3.798519726115e-03
5.161362089021e-03
5.852768834565e-03
4.965844843458e-03
8.274123273375e-03
3.317749060185e-03
3.622478808600e-03
2.112089838123e-03
3.317999481308e-03
4.153535609678e-03
4.505816054949e-03
6.237202834362e-04
3.421403973376e-04
1.573012222717e-03
3.691965033318e-03
6.511714802254e-03
4.171935067566e-03
6.889212264363e-03
3.753016074334e-03
4.366198405172e-03
3.768697917664e-03
7.419760966801e-03
4.121048902823e-03
3.672677354322e-03
5.313990647257e-03
3.830322098393e-03
3.828543141580e-03
4.421847157384e-03
5.156386940792e-03
3.907189118965e-03
4.304428646692e-03
4.049985857339e-03
4.871497758211e-03
3.904305982153e-03
2.204926341810e-03
6.784683755930e-03
4.965491702571e-03
1.401476559850e-03
2.157917389367e-03
7.205471893933e-03
5.258771990978e-03
3.969667780704e-03
1.889119106674e-03
3.396365532197e-03
3.971070620537e-03
3.915360081204e-03
3.537025974587e-03
7.279566800343e-03
5.205294236014e-03
3.259937535512e-03
5.028183905725e-03
6.613807804396e-03
4.049703598051e-03
4.107544981389e-03
6.509666201896e-03
1.026663475019e-03
1.331426430013e-02
4.189723483469e-03
4.948672996209e-03
2.346343365981e-03
4.464733964053e-03
2.191228217425e-03
4.314363055978e-03
5.445403603490e-03
0.0
5.877232482387e-03
5.753927133567e-03
3.517916756623e-03
2.567108847699e-03
6.100700976638e-03
7.669587444442e-03
8.753437067106e-04
1.715460388797e-02
5.430593790634e-03
4.272773126407e-03
3.716414848792e-03
5.755399577458e-03
1.584674166795e-03
5.735458500835e-03
4.260634587508e-03
2.681067374150e-03
5.976924919267e-03
2.313425682848e-03
5.727961756870e-03
2.269306335304e-03
4.472296584069e-03
5.084185534072e-03
2.998345589959e-03
4.416764738030e-03
0.0
5.087667900033e-03
4.734679441240e-03
2.334640526172e-03
2.293466231138e-03
6.540324703178e-03
4.903546555840e-03
3.791800592111e-03
4.529129245656e-03
2.108699433634e-03
4.208064409408e-03
7.250172517867e-03
4.573891517624e-03
5.307742241175e-03
4.350154283494e-03
4.592105580899e-03
5.660519349562e-03
7.592009126263e-03
8.628059057044e-03
2.455277837567e-03
3.497415706496e-03
4.507488684930e-03
4.045938014470e-03
7.550613995390e-03
4.422963748551e-03
5.246006028069e-03
7.617641836701e-03
4.313765276158e-03
6.546299595617e-03
4.184693822016e-03
2.263846250652e-03
9.285372436410e-03
4.516844520642e-03
2.346547704800e-03
3.448867497146e-04
5.409655559408e-03
5.162683398980e-03
2.729094268368e-04
4.563919847466e-03
1.849949503547e-03
1.815075747793e-03
4.944996787624e-03
6.862715236891e-03
5.109362532180e-03
4.068669718672e-03
3.276008673573e-03
5.353793394855e-03
1.533498694127e-03
5.018951704100e-03
7.299342590034e-03
1.109441694527e-03
4.399839461738e-03
6.137952436776e-03
7.682699673757e-04
5.377691329540e-03
4.404965734731e-03
4.489139406804e-03
1.520865044627e-03
3.643992042795e-03
4.612769071813e-03
5.306240785669e-03
2.204419621287e-03
1.846579794431e-03
7.050370922111e-03
4.124746711535e-03
7.891390788468e-04
5.769793252671e-03
5.548964266607e-03
3.671227968295e-03
5.630388145665e-03
5.535998868057e-03
3.965206249272e-03
2.469410781752e-03
5.368043001177e-03
0.0
1.709110066567e-03
3.659126116834e-03
2.387294836944e-03
2.808984423432e-03
3.432454581385e-03
4.226973052201e-03
3.747506275773e-03
5.400075020718e-03
1.979788942566e-03
5.521866479232e-03
5.804343183406e-03
5.787944820256e-03
2.516303072982e-03
3.390799711467e-03
0.0
7.251308642559e-03
6.174365850712e-03
4.276471459697e-03
7.031932071210e-03
2.106380670562e-03
3.059481606244e-03
7.287387520196e-03
5.154439084150e-03
2.367565598648e-03
5.388275058918e-03
4.954992804617e-03
6.024570796398e-03
5.886693922548e-03
3.753433328928e-03
2.527170991278e-03
3.988093602314e-03
2.498420104998e-03
5.703744763384e-03
9.775854016500e-03
8.232152830702e-03
4.987280141317e-03
3.538901703328e-03
5.427938698995e-03
4.594213998741e-03
5.028734212444e-03
4.878843592402e-03
3.720203756123e-03
2.190074141244e-03
2.006325653896e-03
4.404135688044e-03
5.213958220319e-03
3.239970947959e-03
3.529702774384e-03
3.752961490192e-03
3.830800216791e-03
5.338673951133e-03
1.891519218785e-03
5.771465514508e-03
4.089532321688e-03
5.391930956668e-03
5.395352371543e-03
4.403465603733e-03
5.428295798469e-03
2.711349306453e-03
2.579117857356e-03
5.122665484977e-03
4.689292105430e-03
1.840758435860e-03
5.616042079044e-03
8.237432765106e-04
3.385098086166e-03
5.098464473506e-03
5.994795909041e-04
4.388533964280e-04
5.989580935828e-03
3.133104392698e-03
5.665785838847e-03
4.960111850707e-03
3.124857482388e-03
0.0
5.632893496604e-03
9.982363891211e-04
5.455855807356e-03
5.714313673249e-03
5.360106047106e-03
5.939310907991e-03
3.782530279231e-03
2.880362090628e-03
5.541333041585e-03
5.671711904199e-03
4.776155304540e-03
5.663484683731e-03
4.409626511661e-03
5.589551347142e-03
6.698188898956e-03
7.914478455335e-04
5.397054391263e-03
5.743402050252e-03
5.733536642358e-03
3.426595864351e-03
3.717007925183e-03
6.892413974664e-03
5.655472529231e-03
2.339881504149e-03
1.149662191892e-02
5.279922058464e-03
3.249064134649e-03
5.466053350078e-03
5.951132079152e-03
5.885235530218e-03
6.846452954610e-04
4.927871904202e-04
3.189601210708e-03
3.264417416490e-03
5.744673122170e-03
5.821030348919e-03
4.049503436330e-04
0.0
5.287127657436e-03
5.389298602737e-03
1.173728759617e-03
5.308389383186e-03
3.861412420017e-03
3.447396140137e-03
4.313090326591e-03
1.487039342624e-03
6.275160457721e-03
9.352616087627e-04
3.085786119638e-03
5.355845819131e-03
5.346807489973e-03
3.320434685778e-03
3.970741636665e-03
5.885405202505e-03
4.970757498224e-03
4.685070856500e-03
3.121604600955e-03
6.394958659829e-03
5.392942080288e-03
1.774965986013e-03
1.195689113347e-03
5.873690133319e-03
5.018556706819e-03
1.234577720915e-03
4.510176921097e-03
5.486912845254e-03
5.408527291497e-03
5.724218198135e-03
4.198063581823e-03
6.936499697951e-03
3.741370250012e-03
5.269369653456e-03
3.631135606701e-03
6.314739170175e-03
5.513487264780e-03
5.223998920856e-03
1.020852490991e-03
8.247746946980e-04
4.132713215992e-03
4.515742145024e-03
2.251628283077e-03
5.512574297707e-03
1.101239483144e-03
4.944710226892e-03
3.686457503037e-03
5.316904859013e-03
5.547154821714e-03
3.633631005452e-03
5.441228742427e-03
5.760973095862e-03
5.768457653903e-03
8.364682725155e-03
5.403578302253e-03
5.433000637952e-03
5.028809833893e-03
5.168834810310e-03
5.655330995816e-03
4.686381379503e-03
3.087016411318e-03
1.291723755999e-02
5.170660034106e-03
3.932337476204e-03
5.342833454285e-03
5.186730258514e-03
5.447158665415e-03
4.847067005331e-03
5.305854444719e-03
5.181492536697e-03
5.139590615884e-03
2.342515450525e-03
5.825123485814e-03
3.511800923746e-03
5.448173838807e-03
7.428025292535e-04
5.262596336557e-03
4.547206860874e-03
6.035790654862e-04
5.891571692990e-03
4.796988799160e-03
5.631992981559e-03
5.519397513834e-03
5.310091205385e-03
3.912116890080e-03
5.542231581619e-04
1.839287112338e-03
3.636648382109e-04
1.164636641950e-03
2.006629144846e-02
3.057585890836e-03
5.327921971227e-03
5.411971840112e-03
3.914684461504e-03
2.701530490713e-03
5.213565150943e-03
5.007366373900e-03
5.467264405238e-03
5.410734678256e-03
5.074998992932e-03
6.015575377216e-04
3.078314706227e-03
5.376601054342e-03
4.998770260557e-04
7.354796995695e-04
1.602181750264e-02
6.246802752465e-04
5.332466837785e-03
5.518301525192e-03
5.527152150685e-03
5.370182133116e-03
4.813648012505e-03
4.090345476850e-03
5.872497858860e-03
4.319759721921e-03
3.242062731608e-03
1.296527781915e-03
2.048831776387e-04
5.850745223492e-03
3.550974671321e-03
8.641995463890e-04
2.926275799080e-03
5.682997761640e-03
5.503877635999e-03
5.618051296971e-03
2.129346423962e-03
8.207481550429e-04
5.566911874099e-03
6.011875443670e-03
5.902551827902e-03
3.412317331757e-03
4.981747800379e-03
7.975484814361e-04
5.534656444521e-03
1.991551371557e-04
5.305266967480e-03
5.730842396305e-03
1.334863289327e-03
5.580699027190e-03
4.675346069498e-03
5.654646432844e-03
5.577265656584e-03
4.298496663279e-03
5.550848395389e-03
5.494928221657e-03
4.409266495861e-03
5.352947712000e-03
2.479552746464e-03
3.115289873894e-03
5.217348424536e-03
5.739897385503e-03
4.843385748529e-04
3.124201721815e-03
5.632614020689e-03
1.101480850632e-03
5.107492455049e-03
5.450633370530e-03
5.763755232995e-03
1.048262864143e-03
1.249516400296e-02
3.563851573438e-03
5.043841388328e-03
0.0
5.651156742465e-03
4.142985444651e-03
1.530326117569e-03
3.945008028744e-03
5.471691496627e-03
3.728983518662e-03
2.192386251809e-02
2.244711810372e-03
3.243419354849e-03
3.838568504311e-03
5.141366330765e-03
3.163902532596e-03
3.328394715870e-03
5.059368158880e-04
5.311799105867e-03
5.871961487796e-03
8.610187093435e-03
5.677168446605e-03
5.592115835301e-03
3.482521557627e-03
4.251403145156e-03
3.187364706085e-03
3.251257493807e-03
3.439701907310e-03
4.883723560594e-03
1.169016289084e-03
6.092192701531e-03
3.618781519640e-03
5.751198579347e-03
4.781103524799e-03
4.050232424032e-03
5.211038119852e-03
5.105861927613e-03
5.449330151017e-03
1.551503532722e-02
5.217846714948e-03
5.461629661840e-03
5.880291415762e-04
2.994215514378e-03
1.043470855081e-02
5.459819003966e-03

SCALARS element_materi_plasti_phimob float
LOOKUP_TABLE default
2.495587047389e+01
2.495587047389e+01
2.371725245401e+01
1.823957877854e+01
6.615835241840e-02
2.495587047389e+01
-1.015545247061e+00
2.495587047389e+01
3.905239872469e-01
1.821683902956e+01
2.038598736199e+01
2.495587047389e+01
2.149205071781e+01
6.562375484244e+00
2.154924819796e+01
1.883601938287e+01
1.731535510278e+00
2.495587047389e+01
1.666072086010e+01
1.505017859245e+01
1.812803456199e+01
2.495587047389e+01
2.495587047389e+01
2.416180400115e+01
1.212685879397e+01
2.057300972247e+01
2.495587047389e+01
2.495175095938e+01
1.395954457513e+01
2.407003536078e+01
2.495587047389e+01
2.084714938094e+01
2.339858770808e+01
2.110202209031e+01
2.253033481843e+01
2.186442127278e+01
2.179188803514e+01
2.389888737985e+01
-1.259552095853e+00
-2.517868811943e+00
2.495587047389e+01
2.257905670402e+01
2.495587047389e+01
2.436567304401e+01
1.751664798952e+01
2.495587047389e+01
2.495587047389e+01
1.786798663128e+01
2.495587047389e+01
7.311389463576e+00
2.495587047389e+01
1.641958636135e+01
2.495587047389e+01
2.495587047389e+01
2.196265685363e+01
1.723307064779e+01
1.567984431437e+01
2.111666554945e+01
1.610862091807e+01
1.878323332596e+01
2.495587047389e+01
2.495587047389e+01
2.414792827184e+01
2.495587047389e+01
2.152788300334e+01
2.495587047389e+01
2.495587047389e+01
2.377751980920e+01
1.310475924516e+01
2.495587047389e+01
2.073800492285e+01
2.187021702671e+01
2.476276557223e+01
1.544894472632e+01
1.739666660472e+01
1.865861663529e+01
2.157842596293e+01
2.495587047389e+01
1.306936302033e+01
2.448928924181e+01
1.427421122788e+01
2.576256280269e+00
2.495587047389e+01
2.495587047389e+01
2.144658886953e+00
-3.113292529075e-01
2.081545331703e+01
2.102135183949e+01
2.190324986022e+01
2.402094039706e+00
3.470857319609e+00
1.261642395864e+01
1.392461971179e+01
1.333371217094e+01
2.022650506636e+01
2.311177419261e+01
4.851260662631e+00
2.316473702591e+01
5.399388047695e+00
2.464526029770e+01
3.553595797947e-01
2.157916693279e+01
2.495587047389e+01
2.495587047389e+01
2.481267671734e+01
2.495587047389e+01
2.134945058181e+01
1.523744257117e+01
2.495587047389e+01
2.163439404721e+01
2.197267113603e+01
7.175407839069e+00
2.495587047389e+01
2.495587047389e+01
1.841455244136e+01
2.363758154567e+01
2.495587047389e+01
2.231936079873e+01
3.151391886474e+00
2.495587047389e+01
1.134919923657e+01
1.353528071479e+01
1.555624858243e+01
2.495587047389e+01
2.495587047389e+01
2.495587047389e+01
1.843524327700e+01
2.495587047389e+01
1.943557800030e+01
2.495587047389e+01
2.058863580154e+01
1.830445753358e+01
2.244322736248e+01
2.495587047389e+01
2.295263235948e+01
2.148942863835e+01
2.084776202322e+01
2.280546928093e+01
2.372041645856e+01
2.240193946553e+01
1.888713626585e+01
2.495587047389e+01
9.590287984578e+00
1.043375719273e+01
2.366556208276e+01
2.495587047389e+01
2.253136084850e+01
2.495587047389e+01
-1.076468524595e+00
2.495026116075e+01
8.175661075139e+00
-2.291666031471e+00
1.458702459933e+01
2.495587047389e+01
2.276513262260e+01
2.495587047389e+01
2.092436110009e+01
2.495587047389e+01
2.495587047389e+01
-2.551699070250e+00
2.493768694313e+01
2.120038208015e+01
1.054902434299e+01
2.136087415076e+01
1.803259299953e+01
2.174217726680e+01
-2.929878979526e+00
2.495587047389e+01
2.495587047389e+01
2.040887139210e+01
2.495587047389e+01
2.495587047389e+01
1.208675100755e+01
-2.410949441945e+00
2.495587047389e+01
2.495587047389e+01
2.495587047389e+01
1.894612452579e+01
2.386433110804e+01
2.495587047389e+01
2.495587047389e+01
1.890657977781e+01
2.495587047389e+01
2.495587047389e+01
2.398022707981e+01
1.805644815141e+01
2.495587047389e+01
1.878815769006e+01
2.001252302675e+01
2.127677595676e+01
2.474314355474e+01
2.495587047389e+01
2.157321557191e+01
1.572168170548e+01
2.409892028793e+01
2.495587047389e+01
1.767196250245e+01
2.226558869736e+01
1.631401135339e+01
2.127328845455e+01
2.495587047389e+01
1.379119658135e+01
1.200971217267e+01
2.352833674029e+01
1.752166140324e+01
2.354893246202e+01
1.891664116606e+01
1.676550056728e+01
1.836710382469e+01
2.145475905680e+01
2.495587047389e+01
2.414610607458e+01
2.495587047389e+01
2.495587047389e+01
2.354902444281e+01
2.326614582967e+01
2.004929805657e+01
2.495587047389e+01
2.495587047389e+01
-1.610577043855e+00
2.495587047389e+01
2.495587047389e+01
1.641723225969e+01
1.752394216396e+01
1.319306480167e+01
1.218632390274e+01
2.495587047389e+01
1.618137600612e+01
1.782733113373e+01
1.591654862080e+01
2.495587047389e+01
2.495587047389e+01
1.178344973369e+01
2.495587047389e+01
2.005465136092e+01
2.160958119581e+01
2.495587047389e+01
2.495587047389e+01
2.495587047389e+01
2.431324699771e+01
2.495587047389e+01
2.187097799964e+01
1.908680303895e+01
2.495587047389e+01
2.495587047389e+01
2.069068928504e+01
2.264116836486e+01
1.765845242616e+01
2.431298102264e+01
2.495587047389e+01
2.495587047389e+01
1.842020200239e+01
2.009003192419e+01
2.404360771660e+01
2.495587047389e+01
-1.127063110713e+00
1.543082209867e+01
1.670272796490e+01
2.495587047389e+01
2.495587047389e+01
2.495587047389e+01
1.748954339089e+01
1.922003116802e+01
2.495587047389e+01
1.781121105588e+01
2.048296996838e+01
2.193834817608e+01
2.185523684079e+01
2.495587047389e+01
2.114290402192e+01
2.495587047389e+01
2.495587047389e+01
2.495587047389e+01
1.020269805374e+01
2.495587047389e+01
2.495587047389e+01
1.877219495599e+01
8.666655646853e+00
1.745543528490e+01
2.495587047389e+01
2.495587047389e+01
2.495587047389e+01
1.866979933864e+01
1.500697401524e+01
2.327391558781e+01
2.495587047389e+01
1.801988987622e+01
1.174812883046e+01
2.495587047389e+01
2.495587047389e+01
2.495587047389e+01
2.495587047389e+01
1.816303625127e+01
2.431528055874e+01
2.495587047389e+01
2.495587047389e+01
2.495587047389e+01
2.495587047389e+01
2.495587047389e+01
2.279219401380e+01
2.395152678431e+01
2.461061177409e+01
2.495587047389e+01
2.495587047389e+01
2.150744586217e+01
2.495587047389e+01
2.495587047389e+01
2.180271937094e+01
1.865133992569e+01
2.495587047389e+01
2.495587047389e+01
2.495587047389e+01
2.297685193985e+01
2.495587047389e+01
2.289365807334e+01
2.495587047389e+01
2.495587047389e+01
2.495587047389e+01
2.495587047389e+01
2.032685737773e+01
2.495587047389e+01
2.495587047389e+01
2.495587047389e+01
2.495587047389e+01
1.037096190701e+01
2.495587047389e+01
2.484434100795e+01
9.401923969895e+00
2.484300270215e+01
2.495587047389e+01
2.468957824062e+01
1.146285647437e+01
2.227085776273e+01
2.495587047389e+01
2.137823766338e+01
2.018785197222e+01
2.033191712341e+01
2.469152637609e+01
2.427122483338e+01
1.336040918603e+01
1.784234792457e+01
2.495587047389e+01
1.435859840659e+01
2.334518573341e+01
2.490959712904e+01
-2.493727783174e+00
2.495587047389e+01
2.495587047389e+01
1.864365640585e+01
2.495587047389e+01
2.001243934753e+01
2.495587047389e+01
2.461554790288e+01
2.368524362315e+01
2.495587047389e+01
2.495587047389e+01
2.108589787802e+01
2.495587047389e+01
2.495587047389e+01
2.151063633245e+01
2.282654717713e+01
2.495587047389e+01
2.078360928404e+01
2.325011061013e+01
2.402683470030e+01
2.119811248018e+01
1.795900892214e+01
2.441741094002e+01
2.426176947556e+01
2.495587047389e+01
2.495587047389e+01
2.346512110318e+01
2.495587047389e+01
1.974692785454e+01
1.951381196186e+01
2.495587047389e+01
2.495587047389e+01
2.099900853025e+01
2.495587047389e+01
2.425570679179e+01
2.353764268454e+01
2.224391170349e+01
2.454004578179e+01
1.757186013547e+01
2.495587047389e+01
2.495587047389e+01
2.495587047389e+01
2.394327835291e+01
8.399229277171e+00
9.543838455184e+00
2.387937110228e+01
2.289443204648e+01
1.743390587290e+01
2.086637490756e+01
2.495587047389e+01
1.169237553402e+01
2.495587047389e+01
2.495587047389e+01
2.495587047389e+01
2.495587047389e+01
-2.137566788057e+00
1.383898352433e+01
2.495587047389e+01
2.195106660084e+01
2.495587047389e+01
1.582759579527e+01
1.694719385743e+01
2.421052117536e+01
2.495587047389e+01
1.961841645542e+01
2.495587047389e+01
1.956663502222e+01
2.216960482369e+01
2.001107152109e+01
1.860068618444e+01
2.474066227964e+01
2.495587047389e+01
2.472888880599e+01
2.388367220927e+01
2.449612499271e+01
2.020853646185e+01
1.883089205943e+01
2.265906422375e+01
2.447858908485e+01
2.360866893141e+01
1.932896819496e+01
1.968691472257e+01
2.456308455079e+01
1.862170233873e+01
2.495587047389e+01
1.880229023499e+01
2.495587047389e+01
2.495587047389e+01
2.293176135107e+01
2.495587047389e+01
1.980221381653e+01
2.495587047389e+01
2.495587047389e+01
1.938893433591e+01
2.495587047389e+01
2.285716820470e+01
2.486334744185e+01
2.469215008948e+01
2.248285844024e+01
2.337042800194e+01
-5.603928412477e+00
2.426244680217e+01
2.287966409122e+01
2.495587047389e+01
2.495587047389e+01
2.351343258211e+01
-3.748332405776e+01
2.495587047389e+01
2.275255768050e+01
2.400869735658e+01
2.221225517752e+01
2.495587047389e+01
2.372617617303e+01
2.495587047389e+01
2.495587047389e+01
2.225178160018e+01
1.636707970224e+01
2.174314908612e+01
2.495587047389e+01
2.071597171633e+01
2.309884873663e+01
2.326532795450e+01
1.945532183684e+01
2.495587047389e+01
2.495587047389e+01
2.495587047389e+01
2.309191925479e+01
8.578766709485e+00
1.739439239292e+01
2.288212071110e+01
5.780159869538e+00
2.239175654736e+01
2.495587047389e+01
6.564183413167e+00
2.495587047389e+01
2.495587047389e+01
2.495587047389e+01
2.254942900746e+01
2.464620654425e+01
2.424584400396e+01
2.378086952349e+01
1.891153635321e+01
2.495587047389e+01
2.401214373641e+01
2.227814682237e+01
2.495587047389e+01
2.495587047389e+01
2.495587047389e+01
7.961231113807e+00
2.285020175948e+01
2.495587047389e+01
2.203729840294e+01
2.495587047389e+01
2.453155104964e+01
2.274325831260e+01
-4.701039935385e+01
2.495587047389e+01
1.792773239595e+01
2.399392908586e+01
2.088264819059e+01
2.495587047389e+01
2.495587047389e+01
2.380246586822e+01
2.486917648601e+01
2.495587047389e+01
2.495587047389e+01
2.348198159121e+01
2.495587047389e+01
2.495587047389e+01
6.546894703504e+00
1.919007098878e+01
2.495587047389e+01
2.150345162750e+01
2.271019576316e+01
1.911147701366e+01
2.458909475075e+01
2.495587047389e+01
2.495587047389e+01
2.495587047389e+01
2.459605017223e+01
2.495587047389e+01
2.495587047389e+01
2.495587047389e+01
2.495587047389e+01
2.023619324237e+01
2.495587047389e+01
1.892875269174e+01
2.495587047389e+01
2.495587047389e+01
2.300401143808e+01
1.884540546250e+01
1.768395489258e+01
2.214303694630e+01
2.396378213938e+01
2.495587047389e+01
2.495587047389e+01
2.286864011556e+01
1.962846536038e+01
2.495587047389e+01
2.187226127261e+01
2.392066292460e+01
2.305593539281e+01
1.626164870458e+01
2.495587047389e+01
2.358658349445e+01
2.495587047389e+01
1.704262203633e+01
2.176782516858e+01
2.495587047389e+01
4.559131244190e+00
1.975518714367e+01
2.495587047389e+01
2.329298792542e+01
2.151098440147e+01
8.423855372748e+01
2.483170536989e+01
2.495587047389e+01
1.990376466010e+01
2.495587047389e+01
2.480334414617e+01
7.034622247600e+00
2.291884279577e+01
2.180951837632e+01
2.322014495835e+01
1.997362245127e+01
2.382692590150e+01
1.982304002857e+01
-2.535071463749e+01
1.667790042901e+01
1.863232803810e+01
-3.975437124605e+01
1.962064915914e+01
2.481350212280e+01
1.603903274713e+01
2.495587047389e+01
2.495587047389e+01
1.934361288872e+01
1.379229750239e+01
2.080240004670e+01
2.437784501698e+01
-5.119128018472e+01
1.221094412499e+01
-7.279424055185e+00
1.731172924724e+01
2.495587047389e+01
1.594821017819e+01
2.332879706418e+01
1.772321388445e+01
2.109712550047e+01
2.495587047389e+01
2.495587047389e+01
1.864001257766e+01
1.762191043758e+01
2.272962939192e+01
2.175385435869e+01
1.914267285664e+01
1.990155738627e+01
2.380193833612e+01
2.495587047389e+01
1.290378651715e+01
2.495587047389e+01
1.760086898566e+01
1.946401799180e+01
2.029017970942e+01
1.123843287942e+01
1.886120984893e+01
1.878154728947e+01
-4.783326069446e+01
1.902450799831e+01
1.503153686520e+01
2.495587047389e+01
1.765417384359e+01
2.280096801430e+01
2.495587047389e+01
2.272762663513e+01
2.428388314431e+01
1.489087125265e+01
2.495587047389e+01
7.909840076148e+00
2.238492188446e+01
4.496434654588e+00
7.621249976121e-02
-3.854764710243e+01
1.121417848260e+01
1.338986411822e+01
1.567716592902e+01
1.576418476544e+01
1.939662512900e+01
2.495587047389e+01
1.697820426499e+01
8.836673762742e+00
4.157649768378e+00
2.468936712518e+01
2.417278566544e+01
4.435281039066e+00
1.799198632600e+01
1.795769568944e+01
2.064546223932e+01
1.961140080467e+01
3.446007087777e+00
7.266895975976e+00
1.806521961360e+01
1.940952576080e+01
1.665216817552e+01
8.253380532238e+00
1.046463382593e+01
2.241696250676e+01
2.347712209187e+01
1.942811354233e+01
1.616534098409e+01
-3.845766689240e+01
9.952270738495e+00
2.070644100261e+01
2.142072601049e+01
1.540006181500e+01
1.471297535374e+01
4.141023078711e+00
2.495587047389e+01
-1.926110046891e-01
2.495587047389e+01
2.495587047389e+01
2.152638785791e+01
8.542938049162e+00
2.211487160209e+01
1.205458419357e+01
2.097149715941e+01
1.966302093385e+01
1.927738490842e+01
1.926832582408e+00
2.495587047389e+01
2.031140218726e+01
2.495587047389e+01
1.763395595594e+01
1.544681107468e+01
1.100810016803e+01
1.860184573117e+01
2.164938471675e+01
1.828703573028e+01
-3.826707920431e+01
1.937181499812e+01
2.162849863544e+01
2.171121401253e+01
2.264592545154e+01
1.258926640649e+01
1.560458705065e+01
2.162163178730e+01
2.162935720276e+01
1.472016683959e+01
-5.417627438104e+01
6.800657862573e-01
8.771261756013e-01
-3.894464493488e+01
2.164660342401e+01
2.247663001438e+01
2.166027562519e+01
-4.635375052590e+01
-4.768562198286e+01
2.171200524560e+01
2.168331945320e+01
1.125177761996e+01
4.170584366245e-01
1.373006725284e+01
1.470268937354e+00
3.423139407438e-01
-4.912071256551e+01
-4.468778030985e+01
-5.137913544129e+01
-5.129626951152e+01
1.959690828421e+01
1.912806547046e+01
-3.665293248071e+01
2.056111703467e+01
-3.632827943446e+01
2.242703314465e+01
2.007274003884e+01
2.101815338457e+01
1.566274228163e+01
1.723515541225e+01
1.987816855973e+01
2.119482654317e+01
1.980364312180e+01
2.135217849646e+01
2.148575545401e+01
1.887643831213e+01
1.929586148716e+01
1.933470636069e+01
2.127037882175e+01
2.141799188210e+01
2.091265257818e+01
-4.156662360873e+01
1.911622460813e+01
1.633167731605e+01
2.232396129574e+01
1.950429328692e+01
2.158165412409e+01
1.523058187535e+01
1.175175536649e+01
2.148517348140e+01
1.957351259333e+01
1.833693155141e+01
2.134628334340e+01
1.699244291807e+01
1.831945280314e+01
2.452005131106e+01
2.241387305404e+01
2.103902350407e+01
2.100721113262e+01
2.495587047389e+01
2.312542317329e+01
2.495587047389e+01
2.131780244529e+01
2.127605144518e+01
2.105216632783e+01
1.595159829217e+01
1.685183857516e+01
1.528930026405e+01
-1.937924648522e+00
2.183789102733e+01
2.116115335177e+01
1.696027320751e+01
1.618206009202e+01
2.214253668468e+01
2.140311543907e+01
1.492608499538e+01
2.102115401211e+01
2.205248703055e+01
1.681850068415e+01
1.178905260726e+01
2.400639763734e+01
1.554967537634e+01
1.587910786872e+01
1.195180248573e+01
2.456108963976e+01
1.612814110667e+01
2.134383320622e+01
1.579114274098e+01
2.112977430504e+01
-1.138339219460e+00
2.146715151414e+01
2.119860267029e+01
2.143042857829e+01
2.114665767365e+01
-6.258086696901e-01
2.495587047389e+01
2.199086231355e+01
1.558999395962e+01
2.255380447512e+01
1.320291490695e+01
1.613680088902e+01
1.727574822738e+01
1.998972608789e+01
7.824763668132e+00
1.822611536108e+01
1.440489271638e+01
1.044081482717e+01
2.005419936263e+01
2.096545171227e+01
2.111203533199e+01
1.324686586195e+01
1.483356417318e+01
1.974484186573e+01
2.495587047389e+01
1.413705562197e+01
1.926541041338e+01
2.185596103235e+01
2.290537703839e+01
1.176034402281e+01
2.495587047389e+01
1.384238852952e+01
2.495587047389e+01
2.144805960246e+01
1.001191067062e+01
2.028168769135e+01
2.243903209741e+00
2.456444683899e+01
2.014109051315e+01
2.127656055504e+01
1.584172624050e+01
2.233603055184e+01
1.999851417487e+01
1.630137160275e+01
1.971843018949e+01
1.847176065709e+01
1.706778623792e+01
2.031955926089e+01
-3.466715990649e+01
-3.545063644649e+01
2.088432814170e+01
1.544489286808e+01
2.141876727702e+01
2.161657182506e+01
1.929440049411e+01
2.221278204912e+01
1.581451896646e+01
2.495587047389e+01
1.871818416631e+01
2.449448840796e+01
1.436869462688e+01
6.154117042633e+00
1.037093583280e+00
1.327685726712e+01
2.336947711280e+01
1.276558039067e+01
1.484381439954e+01
1.656574533851e+01
1.668875810831e+01
1.577584228869e+01
2.495587047389e+01
1.586662324663e+01
2.113359255970e+01
2.023209631322e+01
1.954710148508e+01
1.589185030076e+01
2.125887050640e+01
2.160488696916e+01
1.396720074636e+01
2.141290433283e+01
1.267439756239e+01
2.019348426722e+01
1.014099715339e+01
1.393388835972e+01
2.495587047389e+01
1.507128473393e+01
1.946966498155e+01
2.009663405447e+01
1.805114041652e+01
1.911619390787e+01
1.141046411300e+01
2.263292658140e+01
1.642652816667e+01
1.245533964076e+01
1.151369633407e+01
1.626194323156e+01
2.286771425520e+01
1.291410920748e+01
2.178658549175e+01
2.284716900270e+01
1.926391129761e+01
1.556576479648e+01
1.151676367238e+01
2.187308402059e+01
8.385793558340e+00
1.088124928477e+01
1.824567835469e+01
1.579905676005e+01
8.199273945399e+00
1.847821237728e+01
2.210841805390e+01
1.810962143685e+01
1.522356978002e+01
1.736349025209e+01
2.264665201883e+01
1.567479197638e+01
2.213889837138e+01
1.985477223494e+01
2.205028170625e+01
2.495587047389e+01
1.516078479998e+01
3.601082428358e+00
2.495587047389e+01
2.490196384061e+01
8.514387409422e+00
1.767466862355e+01
9.616746806361e+00
1.558042445698e+01
2.268798028704e+01
2.495587047389e+01
2.495587047389e+01
1.736915900420e+01
2.296180261028e+01
1.398872316043e+01
2.279535156809e+01
2.337588600080e+01
2.137932255903e+01
2.164807771639e+01
1.291000583482e+01
2.495587047389e+01
2.244330469495e+01
4.489927103331e+00
1.683008310193e+01
1.799009128003e+01
2.495587047389e+01
2.235884001415e+01
2.380312396699e+01
2.495587047389e+01
1.122341448964e+01
5.680996609617e+00
5.165242520814e+00
1.987563795747e+01
2.387270796158e+01
2.322317839169e+01
3.546302729465e+00
2.246350571304e+01
2.495587047389e+01
2.270166693311e+01
1.395459267312e+01
1.912339072448e+01
1.855364603109e+01
1.428941880996e+01
2.342339654005e+01
1.872826585008e+01
9.950303242752e+00
8.345447265421e+00
2.495587047389e+01
1.772218421229e+01
2.495587047389e+01
1.797096545035e+01
1.860342941999e+01
1.483797788109e+01
2.437935397671e+01
2.192896434627e+01
1.499563580939e+01
2.318936062718e+01
2.348767606182e+01
2.286321991248e+01
2.495587047389e+01
1.510187392289e+01
2.402020860567e+01
2.352918422394e+01
2.495587047389e+01
1.933582655921e+01
2.320883503963e+01
9.599123584787e+00
1.921246709179e+01
2.495587047389e+01
1.745291915044e+01
2.052254390568e+01
1.999349441008e+01
1.677183160987e+01
1.634606011228e+01
2.212373440806e+01
2.307421982384e+01
2.495587047389e+01
-4.710208654514e+01
2.495587047389e+01
2.416996091802e+01
2.063282951366e+01
7.470611607414e+00
2.244246291330e+01
1.771887825878e+01
2.111080921672e+01
1.420754988148e+01
1.780854472016e+01
1.186335703941e+01
1.290276553267e+01
2.041881247490e+01
1.849813452101e+01
2.495587047389e+01
2.222850820395e+01
1.580295077580e+01
1.431558972335e+01
9.053492183824e+00
1.690684954869e+01
2.484095540492e+01
2.495587047389e+01
1.770927285209e+01
1.611391687869e+01
2.495587047389e+01
2.495587047389e+01
2.495587047389e+01
1.931603620208e+01
2.070117923938e+01
2.495587047389e+01
2.495587047389e+01
1.689263157971e+01
1.875732854213e+01
2.299997957967e+01
2.423143476277e+01
1.721591608768e+01
2.353110853319e+01
2.495587047389e+01
2.495587047389e+01
1.840525290711e+01
2.495587047389e+01
1.154468131530e+01
2.495587047389e+01
2.461269646300e+01
2.265318985267e+01
2.452378868375e+01
2.442770252366e+01
2.495587047389e+01
2.263311416409e+01
1.917416890927e+01
1.885812986751e+01
1.778533977903e+01
2.495587047389e+01
2.488189758509e+01
2.024175657173e+01
2.495587047389e+01
1.616966913507e+01
1.897802191409e+01
1.366280557938e+01
2.495587047389e+01
1.674651435450e+01
2.495587047389e+01
5.021315915427e+00
1.510005302906e+01
2.495587047389e+01
2.495587047389e+01
1.764652417410e+01
2.327707261745e+01
1.301337146937e+01
2.495587047389e+01
2.175456319361e+01
1.439022236933e+01
2.495587047389e+01
2.405570202485e+01
2.134065249773e+01
6.082712629186e+00
2.097343404075e+00
2.332922458234e+01
2.371153274866e+01
2.430911580967e+01
1.329264023961e+01
2.495587047389e+01
2.495587047389e+01
2.495587047389e+01
2.495587047389e+01
1.809098188662e+01
2.106340851728e+01
1.663168477040e+01
2.336034935653e+01
1.632968226708e+01
2.301347639982e+01
1.744922594435e+01
1.381497139751e+01
2.166952415302e+01
2.495587047389e+01
1.413877615816e+01
1.676859638410e+01
1.386742167671e+01
1.272751805746e+01
2.373154498890e+01
2.495587047389e+01
2.428835619384e+01
2.276666952110e+01
2.341191941882e+01
2.495587047389e+01
1.615714139221e+01
1.617696006983e+01
2.495587047389e+01
2.495587047389e+01
2.495587047389e+01
2.495587047389e+01
2.495587047389e+01
2.495587047389e+01
2.096823590075e+01
2.191141125129e+01
1.155555065979e+01
-1.156344562356e+00
2.234115340939e+01
2.249763373893e+01
2.495587047389e+01
2.082119643270e+01
2.495587047389e+01
2.238024965312e+01
1.034814387680e+01
2.495587047389e+01
2.495587047389e+01
2.495587047389e+01
2.128695080101e+01
2.354701431712e+01
2.495587047389e+01
2.401749947352e+01
2.472899604594e+01
2.495587047389e+01
1.396023140146e+01
2.495587047389e+01
2.400092545978e+01
2.495587047389e+01
1.214930268451e+01
2.495587047389e+01
1.501818167508e+01
2.495587047389e+01
2.495587047389e+01
2.044124772980e+01
2.495587047389e+01
1.586593102387e+01
1.670300934766e+01
2.495587047389e+01
2.495587047389e+01
1.743923668289e+01
2.495587047389e+01
2.495587047389e+01
1.328750324526e+01
2.101413685549e+01
2.495587047389e+01
2.488432885812e+01
1.804838711294e+01
2.495587047389e+01
2.495587047389e+01
2.495587047389e+01
2.146824946974e+01
2.495587047389e+01
2.318234753645e+01
2.495587047389e+01
1.351344009546e+01
2.495587047389e+01
2.395461119103e+01
2.200547250145e+01
1.761024343198e+01
2.495587047389e+01
2.495587047389e+01
2.495587047389e+01
2.495587047389e+01
1.662891380040e+01
2.495587047389e+01
1.152767497816e+01
2.105814651960e+01
1.567022785986e+01
1.685321641859e+01
2.495587047389e+01
2.286685360495e+01
1.490368604260e+01
2.495587047389e+01
2.495587047389e+01
2.429721555817e+01
2.495587047389e+01
1.731131547386e+01
2.495587047389e+01
1.596008259807e+01
2.495587047389e+01
2.495587047389e+01
1.812038254447e+01
1.903962429879e+01
2.495587047389e+01
1.619024880218e+01
2.495587047389e+01
2.495587047389e+01
2.495587047389e+01
2.370260781338e+01
2.495587047389e+01
2.495587047389e+01
2.495587047389e+01
2.495587047389e+01
2.495587047389e+01
2.495587047389e+01
2.495587047389e+01
2.495587047389e+01
2.495587047389e+01
1.679620773693e+01
2.248139560993e+01
2.286116658266e+01
2.495587047389e+01
2.495587047389e+01
1.667306278071e+01
2.495587047389e+01
2.245550586190e+01
1.546218067473e+01
1.665835317468e+01
2.495587047389e+01
2.495587047389e+01
2.495587047389e+01
2.217984744836e+01
2.495587047389e+01
2.495587047389e+01
2.495587047389e+01
2.495587047389e+01
2.212865628592e+01
1.533137363415e+01
2.495587047389e+01
2.495587047389e+01
2.495587047389e+01
1.585205241644e+01
2.495587047389e+01
1.223893151082e+01
2.495587047389e+01
2.495587047389e+01
2.495587047389e+01
2.495587047389e+01
1.763927656456e+01
2.495587047389e+01
2.495587047389e+01
2.495587047389e+01
2.495587047389e+01
2.495587047389e+01
2.495587047389e+01
2.495587047389e+01
2.495587047389e+01
2.495587047389e+01
2.495587047389e+01
1.953061375512e+01
2.183633665077e+01
2.105868854966e+01
2.495587047389e+01
1.820503150734e+01
1.563329232241e+01
2.335331816397e+01
2.495587047389e+01
2.272920080530e+01
1.454639555521e+01
1.898585368561e+01
1.708499561658e+01
2.495587047389e+01
2.495587047389e+01
1.738964423642e+01
2.495587047389e+01
2.495587047389e+01
2.495587047389e+01
1.614433517128e+01
2.388322380071e+01
2.495587047389e+01
2.437677848794e+01
2.495587047389e+01
2.495587047389e+01
2.495587047389e+01
2.495587047389e+01
1.964688026031e+01
2.318520162056e+01
2.495587047389e+01
2.495587047389e+01
1.520076817821e+01
2.312250955466e+01
2.495587047389e+01
2.495587047389e+01
2.172845650395e+01
2.495587047389e+01
2.495587047389e+01
2.495587047389e+01
2.495587047389e+01
2.381782902074e+01
2.495587047389e+01
1.350474904999e+01
2.147948735261e+01
2.495587047389e+01
2.207815333960e+01
2.495587047389e+01
2.495587047389e+01
2.495587047389e+01
2.495587047389e+01
2.495587047389e+01
2.495587047389e+01
2.495587047389e+01
2.495587047389e+01
2.495587047389e+01
2.231732961786e+01
1.820643145472e+01
2.372968355480e+01
2.495587047389e+01
2.495587047389e+01
2.495587047389e+01
2.169563303595e+01
1.998012868221e+01
2.495587047389e+01
1.260234789468e+01
2.237703623316e+01
2.354469946835e+01
-2.199919517151e-01
-4.016568181142e-01
1.960798889582e+01
2.495587047389e+01
2.126354965141e+01
2.316735011244e+01
2.495587047389e+01
2.495587047389e+01
2.495587047389e+01
2.106890733510e+01
1.486711399830e+01
2.495587047389e+01
2.202405695364e+01
2.495587047389e+01
2.127996225186e+01
2.495587047389e+01
2.444909851197e+01
1.443084607482e+01
2.394717881013e+01
2.371618709187e+01
1.671755506903e+01
2.095293571964e+01
2.382878094637e+01
2.162198727888e+01
2.157306701613e+01
2.495587047389e+01
1.596004013912e+01
2.495587047389e+01
2.495587047389e+01
2.044353054840e+01
2.495587047389e+01
2.495587047389e+01
1.531041756903e+01
2.495587047389e+01
2.127904405998e+01
2.495587047389e+01
2.495587047389e+01
2.400355053663e+01
1.717106364506e+01
2.022612809892e+01
2.247686577496e+01
1.272650750069e+01
2.495587047389e+01
2.495587047389e+01
1.307975359857e+01
1.713496434077e+01
2.495587047389e+01
2.208507395423e+01
2.485454874736e+01
2.495587047389e+01
2.495587047389e+01
1.809292310894e+01
2.495587047389e+01
2.495587047389e+01
2.495587047389e+01
2.495587047389e+01
2.495587047389e+01
2.495587047389e+01
1.623420139767e+01
2.495587047389e+01
2.495587047389e+01
1.962941343660e+01
2.495587047389e+01
2.374209146875e+01
2.495587047389e+01
2.202910073245e+01
2.495587047389e+01
2.154061515684e+01
2.175501125749e+01
1.973274779806e+01
2.495587047389e+01
2.495587047389e+01
2.495587047389e+01
2.495587047389e+01
2.495587047389e+01
2.495587047389e+01
2.495587047389e+01
2.495587047389e+01
2.287621963622e+01
2.495587047389e+01
2.369428822009e+01
2.495587047389e+01
2.495587047389e+01
2.495587047389e+01
1.460367968448e+01
2.214105822884e+01
2.178948752242e+01
2.495587047389e+01
2.441108236872e+01
2.185569744492e+01
2.476702146627e+01
2.069020468472e+01
2.495587047389e+01
2.186802817932e+01
2.495587047389e+01
2.007667198082e+01
2.495587047389e+01
1.561146147717e+01
1.500606255969e+01
2.495587047389e+01
2.495587047389e+01
2.495587047389e+01
2.161349522565e+01
2.495587047389e+01
2.495587047389e+01
2.495587047389e+01
2.495587047389e+01
2.495587047389e+01
2.495587047389e+01
1.549515036805e+01
-3.697193225501e-01
2.495587047389e+01
2.495587047389e+01
2.452264681761e+01
2.121812014665e+01
2.495587047389e+01
2.183315856184e+01
2.495587047389e+01
2.495587047389e+01
2.495587047389e+01
2.495587047389e+01
2.495587047389e+01
2.041491048877e+01
2.495587047389e+01
2.495587047389e+01
2.420063577915e+01
2.495587047389e+01
2.495587047389e+01
2.495587047389e+01
2.174415597012e+01
2.389792189781e+01
2.495587047389e+01
2.495587047389e+01
2.495587047389e+01
1.339593246466e+01
2.108091295923e+01
2.495587047389e+01
1.664806073927e+01
2.495587047389e+01
2.291752100713e+01
2.495587047389e+01
2.495587047389e+01
2.495587047389e+01
2.028308153703e+01
2.451543458704e+01
2.495587047389e+01
2.495587047389e+01
2.495587047389e+01
2.495587047389e+01
2.394427622024e+01
2.495587047389e+01
2.054903346096e+01
2.041537499063e+01
1.746014857666e+01
1.564892692705e+01
1.738936879364e+01
2.091164298167e+01
1.757400966766e+01
2.495587047389e+01
1.457252085928e+01
2.034796387485e+01
2.495587047389e+01
2.495587047389e+01
2.495587047389e+01
2.092914075083e+01
1.892317154615e+01
2.047377052578e+01
2.495587047389e+01
2.469008986609e+01
3.930486736492e+00
2.495587047389e+01
2.041927474048e+01
2.059853840838e+01
2.495587047389e+01
2.495587047389e+01
2.053442179984e+01
9.615773007212e+00
5.416288374950e+00
2.495587047389e+01
2.081475282339e+01
2.495587047389e+01
2.495587047389e+01
2.495587047389e+01
1.372528246754e+01
2.495587047389e+01
2.495587047389e+01
2.495587047389e+01
2.049554011988e+01
1.685352609682e+01
1.852564827592e+01
2.064119538845e+01
2.495587047389e+01
2.082408451764e+01
2.495587047389e+01
1.631778528907e+01
2.495587047389e+01
2.495587047389e+01
2.495587047389e+01
2.074748833686e+01
2.068984525040e+01
2.495587047389e+01
1.097341836475e+01
2.495587047389e+01
2.078516322090e+01
2.495587047389e+01
2.204164590214e+01
2.495587047389e+01
2.455612713299e+01
2.414559128211e+01
2.346823219436e+01
7.982162285015e+00
1.963376011611e+01
2.162343153737e+01
-2.763696480915e+00
2.397611949036e+01
2.495587047389e+01
2.495587047389e+01
1.454945920281e+01
2.495587047389e+01
1.740464376557e+01
1.840560485990e+01
2.495587047389e+01
2.407597347155e+01
1.623402564156e+01
2.384404043107e+01
1.793379360174e+01
2.172471626004e+01
2.495587047389e+01
2.382485615153e+01
2.495587047389e+01
2.218479823564e+01
2.048406996732e+01
2.129883023279e+01
2.495587047389e+01
2.492046545407e+01
1.518849829804e+01
2.495587047389e+01
1.895171183424e+01
1.972508177621e+01
2.026019099917e+01
2.495587047389e+01
2.495587047389e+01
2.495587047389e+01
2.495587047389e+01
1.856665510906e+01
2.495587047389e+01
2.495587047389e+01
2.495587047389e+01
2.368459379882e+01
2.495587047389e+01
1.261191001896e+01
2.495587047389e+01
2.495587047389e+01
2.495587047389e+01
2.495587047389e+01
2.495587047389e+01
2.355694571124e+01
2.495587047389e+01
2.495587047389e+01
2.495587047389e+01
2.495587047389e+01
2.495587047389e+01
2.495587047389e+01
2.495587047389e+01
8.474490324991e+00
1.832885106879e+01
2.495587047389e+01
2.495587047389e+01
2.495587047389e+01
2.495587047389e+01
1.764638115442e+01
1.634446003374e+01
3.717742531240e-01
2.495587047389e+01
1.625430056614e+01
1.656249631435e+01
2.495587047389e+01
2.495587047389e+01
2.495587047389e+01
2.495587047389e+01
5.359647592402e-01
2.238775892334e+01
1.503832381751e+01
2.495587047389e+01
2.495587047389e+01
1.470983724584e+01
2.238095047373e+01
2.495587047389e+01
7.713241162315e+00
2.495587047389e+01
2.081398408912e+01
2.104206204650e+01
1.330268774343e+01
2.003612810345e+01
2.447094556594e+01
2.495587047389e+01
2.040655147436e+01
1.681135465121e+01
2.495587047389e+01
7.424556645331e+00
1.689147319682e+01
2.495587047389e+01
2.359648999247e+01
-1.754628785338e+00
1.889921572843e+01
2.439548995129e+01
2.495587047389e+01
2.495587047389e+01
2.399115199867e+01
1.552599781672e+01
1.631527489968e+01
2.017543168358e+01
1.954280416187e+01
2.495587047389e+01
2.495587047389e+01
2.495587047389e+01
4.024715243950e+00
2.495587047389e+01
1.712444592293e+01
2.495587047389e+01
2.205062983116e+01
2.224510217271e+01
2.495587047389e+01
5.340070420775e+00
1.461514530355e+01
2.495587047389e+01
2.495587047389e+01
2.495587047389e+01
2.495587047389e+01
2.336274774606e+01
2.495587047389e+01
2.495587047389e+01
1.672032954270e+01
2.367515662138e+01
1.750453690367e+01
1.524994876750e+01
1.924983200155e+01
2.161888146726e+01
-2.045441902127e+00
2.258386658420e+01
2.495587047389e+01
2.276392511407e+01
2.164361696966e+01
2.495587047389e+01
2.438779592119e+01
2.495587047389e+01
4.964477015393e-01
1.761777777677e+01
2.463598345173e+01
2.495587047389e+01
2.300087178471e+01
-8.139993359875e-01
1.839546995755e+01
1.925046752368e+01
1.109474666921e+01
2.495587047389e+01
2.495587047389e+01
-2.636706911571e+00
-1.775198665501e+00
7.888632374165e-01
2.495587047389e+01
1.744259477025e+01
1.864421371969e+01
6.474163886692e+00
2.342258280645e+01
2.362323578451e+01
2.271690462029e+01
1.842439549085e+01
1.888193257863e+01
1.848549711612e+01
2.330596540749e+01
2.495587047389e+01
1.668200010954e+01
2.307109562537e+01
1.522765176486e+01
-2.701322215637e+00
2.476427942872e+01
1.292701863397e+01
1.369474721657e+01
1.976158433941e+01
3.849576220543e+00
1.866137094312e+01
2.390558527775e+01
3.420093443611e+00
1.617291498188e+01
1.871625460076e+01
1.401074434871e+01
1.810339517834e+01
2.163555866351e+01
2.229168612514e+01
2.495587047389e+01
9.045370705770e+00
1.900675177193e+01
2.495587047389e+01
2.324391221218e+01
1.384816437034e+01
2.326743571646e+01
2.495587047389e+01
2.192608136877e+01
2.495587047389e+01
1.409599536479e+01
2.361220683860e+01
2.009871807833e+01
1.935577941438e+01
-1.920370497315e+00
1.332401717162e+01
2.495587047389e+01
2.440384397804e+01
1.802900076778e+01
2.495587047389e+01
2.495587047389e+01
1.341271020256e+00
1.979268555195e+01
1.921868821005e+01
1.961172957162e+01
-5.389421692218e+01
-3.174644576859e+01
-1.895661924549e+00
1.262797891747e+00
2.162435933112e+01
2.159191575233e+01
1.058787787509e+01
1.706010718384e+01
2.167062578304e+01
2.495587047389e+01
1.543109090549e+01
2.217731823253e+01
2.039108646217e+01
1.982937328906e+01
8.689146878426e+00
2.468744719429e+01
2.495587047389e+01
1.553182612525e+01
1.943257177986e+01
2.436367337113e+01
1.708315228656e+01
1.976288450602e+01
3.508503130477e+00
2.495587047389e+01
2.388335988184e+01
2.331364253950e+01
2.023499912283e+00
2.495587047389e+01
2.127921719381e+01
1.653717905683e+01
1.243419088965e+01
2.495587047389e+01
2.495587047389e+01
2.495587047389e+01
1.121085389934e+01
2.162527969302e+01
2.495587047389e+01
2.495587047389e+01
2.067352956543e+01
2.495587047389e+01
2.495587047389e+01
2.495587047389e+01
9.907822068506e+00
2.495587047389e+01
1.797834636288e+01
2.311828922816e+01
1.337492804368e+01
1.569144064840e+01
2.495587047389e+01
1.200412386382e+01
1.774918231712e+01
1.918526893936e+01
1.584978641067e+01
2.432373870716e+01
1.574408094479e+00
2.344756258998e+01
2.495587047389e+01
1.232251312774e+01
2.349646931424e+01
1.988371039887e+01
1.846764525270e+01
2.255181282851e+01
1.849414177524e+01
2.461198291421e+01
2.486347261376e+01
2.495587047389e+01
2.165325199473e+01
2.322076494108e+01
2.495587047389e+01
2.495587047389e+01
2.372345784312e+01
9.629741550366e+00
2.142495062828e+01
2.495587047389e+01
2.199331977788e+01
1.439402525021e+01
2.323974578106e+01
2.335566942641e+01
2.380379356694e+01
1.793948030949e+01
2.190910188956e+01
3.411747436952e+00
1.750940739959e+01
5.251218888623e+00
1.643715289016e+01
1.139850952971e+01
1.681327751594e+01
2.495587047389e+01
2.418428065601e+01
1.905245260980e+01
1.770642539110e+01
2.423479368005e+01
2.881729955078e+00
1.576993330453e+01
2.495587047389e+01
1.365739786398e+01
9.940681572761e+00
2.495587047389e+01
1.929077511067e+01
2.144548641826e+01
2.234246158153e+01
1.464606973002e+01
1.874168797422e+01
2.298270526724e+01
2.483629992832e+01
2.448397609802e+01
2.495587047389e+01
2.468245003093e+01
4.354344733624e+00
2.495587047389e+01
2.158408686585e+01
1.348342200254e+01
1.585709357499e+01
2.495587047389e+01
1.375811674470e+01
2.263258776302e+01
2.495587047389e+01
1.806630564130e+01
2.360867872253e+01
2.479802862095e+01
6.354004706685e+00
2.146292679939e+01
2.495587047389e+01
2.113010154681e+00
2.082792966070e+01
1.002793418008e+01
2.171411469849e+01
1.244803716073e+01
1.619633766919e+01
1.914104706283e+01
2.495587047389e+01
1.795495179095e+01
2.171502344270e+01
1.744982180603e+01
2.495587047389e+01
2.234926628629e+01
1.924418549749e+01
2.161544473043e+01
-2.871105329302e+00
2.366669598557e+01
1.374873026729e+01
1.923070853103e+01
1.084434287117e+01
2.274276663958e+01
2.115506269917e+01
2.495587047389e+01
2.495587047389e+01
1.331307445897e+01
1.897674571621e+01
2.242240536651e+01
9.635914033648e+00
2.474433260619e+01
1.979977264292e+01
1.154095132521e+01
2.480584955207e+01
1.833193292906e+01
1.268427908838e+00
2.477326981391e+01
1.876321968783e+01
-4.207469338349e+01
1.014615906874e+00
2.153232586632e+01
1.394670016784e+01
2.495587047389e+01
2.082275393341e+01
1.855489749663e+01
1.494739277413e+01
2.495587047389e+01
2.000355805421e+01
1.556449337656e+01
1.165960593736e+01
2.064679440389e+01
8.457506275771e+00
1.975083167409e+01
4.830603637223e+00
2.451452804000e+01
2.015861305062e+01
2.495587047389e+01
1.785603995960e+01
1.964192688375e+01
2.027629633542e+01
2.442817732918e+01
1.953643332511e+01
1.975506347777e+01
1.302131296134e+01
2.245525436942e+01
2.495587047389e+01
2.495587047389e+01
1.879428163469e+01
2.153759278128e+01
-2.553392333590e+00
8.382964524944e+00
1.950222184225e+01
1.963371262027e+01
1.980086494410e+01
2.495587047389e+01
1.742297466178e+01
2.495587047389e+01
-2.692176145020e+00
1.952031905024e+01
2.483585041343e+01
4.961080442894e+00
2.440790544439e+01
2.440466085080e+01
2.432083836754e+01
2.495587047389e+01
2.437218536656e+01
2.495587047389e+01
1.710640176071e+01
1.928771398929e+01
2.495587047389e+01
2.441053936441e+01


