# vtk DataFile Version 2.0
Calculation C:\Users\johan\Documents\GitHub\TOCHNOG\standsicherheit_phiC at time 7.000000000000e+00 
ASCII
DATASET UNSTRUCTURED_GRID
Field FieldData 1
Time 1 1 double
7.000000000000e+00

POINTS 1112 float
0.0 0.0 0.0 
5.000000000000e+01 -1.000000000000e+01 0.0 
0.0 -2.000000000000e+01 0.0 
5.000000000000e+01 -2.000000000000e+01 0.0 
0.0 -9.999999999991e-01 0.0 
0.0 -1.999999999998e+00 0.0 
0.0 -2.999999999997e+00 0.0 
0.0 -3.999999999994e+00 0.0 
0.0 -4.999999999991e+00 0.0 
0.0 -5.999999999988e+00 0.0 
0.0 -6.999999999985e+00 0.0 
0.0 -7.999999999982e+00 0.0 
0.0 -8.999999999983e+00 0.0 
0.0 -9.999999999985e+00 0.0 
0.0 -1.099999999999e+01 0.0 
0.0 -1.199999999999e+01 0.0 
0.0 -1.299999999999e+01 0.0 
0.0 -1.399999999999e+01 0.0 
0.0 -1.499999999999e+01 0.0 
0.0 -1.599999999999e+01 0.0 
0.0 -1.700000000000e+01 0.0 
0.0 -1.800000000000e+01 0.0 
0.0 -1.900000000000e+01 0.0 
4.900000000001e+01 -2.000000000000e+01 0.0 
4.800000000001e+01 -2.000000000000e+01 0.0 
4.700000000002e+01 -2.000000000000e+01 0.0 
4.600000000003e+01 -2.000000000000e+01 0.0 
4.500000000004e+01 -2.000000000000e+01 0.0 
4.400000000004e+01 -2.000000000000e+01 0.0 
4.300000000005e+01 -2.000000000000e+01 0.0 
4.200000000006e+01 -2.000000000000e+01 0.0 
4.100000000006e+01 -2.000000000000e+01 0.0 
4.000000000007e+01 -2.000000000000e+01 0.0 
3.900000000008e+01 -2.000000000000e+01 0.0 
3.800000000009e+01 -2.000000000000e+01 0.0 
3.700000000009e+01 -2.000000000000e+01 0.0 
3.600000000010e+01 -2.000000000000e+01 0.0 
3.500000000011e+01 -2.000000000000e+01 0.0 
3.400000000011e+01 -2.000000000000e+01 0.0 
3.300000000012e+01 -2.000000000000e+01 0.0 
3.200000000013e+01 -2.000000000000e+01 0.0 
3.100000000013e+01 -2.000000000000e+01 0.0 
3.000000000013e+01 -2.000000000000e+01 0.0 
2.900000000013e+01 -2.000000000000e+01 0.0 
2.800000000013e+01 -2.000000000000e+01 0.0 
2.700000000013e+01 -2.000000000000e+01 0.0 
2.600000000013e+01 -2.000000000000e+01 0.0 
2.500000000013e+01 -2.000000000000e+01 0.0 
2.400000000013e+01 -2.000000000000e+01 0.0 
2.300000000013e+01 -2.000000000000e+01 0.0 
2.200000000013e+01 -2.000000000000e+01 0.0 
2.100000000013e+01 -2.000000000000e+01 0.0 
2.000000000013e+01 -2.000000000000e+01 0.0 
1.900000000013e+01 -2.000000000000e+01 0.0 
1.800000000013e+01 -2.000000000000e+01 0.0 
1.700000000012e+01 -2.000000000000e+01 0.0 
1.600000000011e+01 -2.000000000000e+01 0.0 
1.500000000011e+01 -2.000000000000e+01 0.0 
1.400000000010e+01 -2.000000000000e+01 0.0 
1.300000000009e+01 -2.000000000000e+01 0.0 
1.200000000009e+01 -2.000000000000e+01 0.0 
1.100000000008e+01 -2.000000000000e+01 0.0 
1.000000000007e+01 -2.000000000000e+01 0.0 
9.000000000064e+00 -2.000000000000e+01 0.0 
8.000000000057e+00 -2.000000000000e+01 0.0 
7.000000000050e+00 -2.000000000000e+01 0.0 
6.000000000043e+00 -2.000000000000e+01 0.0 
5.000000000036e+00 -2.000000000000e+01 0.0 
4.000000000028e+00 -2.000000000000e+01 0.0 
3.000000000021e+00 -2.000000000000e+01 0.0 
2.000000000014e+00 -2.000000000000e+01 0.0 
1.000000000007e+00 -2.000000000000e+01 0.0 
5.000000000000e+01 -1.100000000000e+01 0.0 
5.000000000000e+01 -1.200000000000e+01 0.0 
5.000000000000e+01 -1.300000000000e+01 0.0 
5.000000000000e+01 -1.400000000000e+01 0.0 
5.000000000000e+01 -1.500000000000e+01 0.0 
5.000000000000e+01 -1.600000000000e+01 0.0 
5.000000000000e+01 -1.700000000000e+01 0.0 
5.000000000000e+01 -1.800000000000e+01 0.0 
5.000000000000e+01 -1.900000000000e+01 0.0 
2.000000000000e+01 0.0 0.0 
3.500000000000e+01 -1.000000000000e+01 0.0 
2.150000000000e+01 -1.000000000000e+00 0.0 
2.300000000000e+01 -2.000000000000e+00 0.0 
2.450000000000e+01 -3.000000000000e+00 0.0 
2.600000000000e+01 -4.000000000000e+00 0.0 
2.750000000000e+01 -5.000000000000e+00 0.0 
2.900000000000e+01 -6.000000000000e+00 0.0 
3.050000000000e+01 -7.000000000000e+00 0.0 
3.200000000000e+01 -8.000000000000e+00 0.0 
3.350000000000e+01 -9.000000000000e+00 0.0 
5.000000000000e+01 -6.000000000000e+00 0.0 
5.000000000000e+01 -7.000000000000e+00 0.0 
5.000000000000e+01 -8.000000000000e+00 0.0 
5.000000000000e+01 -9.000000000000e+00 0.0 
4.900000000000e+01 -1.000000000000e+01 0.0 
4.800000000000e+01 -1.000000000000e+01 0.0 
4.700000000000e+01 -1.000000000000e+01 0.0 
4.600000000000e+01 -1.000000000000e+01 0.0 
4.500000000000e+01 -1.000000000000e+01 0.0 
4.400000000000e+01 -1.000000000000e+01 0.0 
4.300000000000e+01 -1.000000000000e+01 0.0 
4.200000000000e+01 -1.000000000000e+01 0.0 
4.100000000000e+01 -1.000000000000e+01 0.0 
4.000000000000e+01 -1.000000000000e+01 0.0 
3.900000000000e+01 -1.000000000000e+01 0.0 
3.800000000000e+01 -1.000000000000e+01 0.0 
3.700000000000e+01 -1.000000000000e+01 0.0 
3.600000000000e+01 -1.000000000000e+01 0.0 
1.900000000000e+01 0.0 0.0 
1.800000000000e+01 0.0 0.0 
1.700000000000e+01 0.0 0.0 
1.600000000000e+01 0.0 0.0 
1.500000000000e+01 0.0 0.0 
1.400000000000e+01 0.0 0.0 
1.300000000000e+01 0.0 0.0 
1.200000000000e+01 0.0 0.0 
1.100000000000e+01 0.0 0.0 
1.000000000000e+01 0.0 0.0 
9.000000000000e+00 0.0 0.0 
8.000000000000e+00 0.0 0.0 
7.000000000000e+00 0.0 0.0 
6.000000000000e+00 0.0 0.0 
5.000000000000e+00 0.0 0.0 
4.000000000000e+00 0.0 0.0 
3.000000000000e+00 0.0 0.0 
2.000000000000e+00 0.0 0.0 
1.000000000000e+00 0.0 0.0 
4.900000000001e+01 -6.000000000000e+00 0.0 
4.800000000003e+01 -6.000000000000e+00 0.0 
4.700000000004e+01 -6.000000000000e+00 0.0 
4.600000000006e+01 -6.000000000000e+00 0.0 
4.500000000007e+01 -6.000000000000e+00 0.0 
4.400000000009e+01 -6.000000000000e+00 0.0 
4.300000000010e+01 -6.000000000000e+00 0.0 
4.200000000012e+01 -6.000000000000e+00 0.0 
4.100000000013e+01 -6.000000000000e+00 0.0 
4.000000000014e+01 -6.000000000000e+00 0.0 
3.900000000014e+01 -6.000000000000e+00 0.0 
3.800000000012e+01 -6.000000000000e+00 0.0 
3.700000000010e+01 -6.000000000000e+00 0.0 
3.600000000008e+01 -6.000000000000e+00 0.0 
3.500000000006e+01 -6.000000000000e+00 0.0 
3.400000000005e+01 -6.000000000000e+00 0.0 
3.300000000003e+01 -6.000000000000e+00 0.0 
3.200000000001e+01 -6.000000000000e+00 0.0 
3.100000000000e+01 -6.000000000000e+00 0.0 
3.000000000000e+01 -6.000000000000e+00 0.0 
3.147499999998e+01 -7.000000000000e+00 0.0 
3.244999999998e+01 -7.000000000000e+00 0.0 
3.342499999998e+01 -7.000000000000e+00 0.0 
3.439999999998e+01 -7.000000000000e+00 0.0 
3.537499999998e+01 -7.000000000000e+00 0.0 
3.634999999998e+01 -7.000000000000e+00 0.0 
3.732499999998e+01 -7.000000000000e+00 0.0 
3.829999999998e+01 -7.000000000000e+00 0.0 
3.927499999999e+01 -7.000000000000e+00 0.0 
4.024999999999e+01 -7.000000000000e+00 0.0 
4.122499999999e+01 -7.000000000000e+00 0.0 
4.219999999999e+01 -7.000000000000e+00 0.0 
4.317499999999e+01 -7.000000000000e+00 0.0 
4.414999999999e+01 -7.000000000000e+00 0.0 
4.512499999999e+01 -7.000000000000e+00 0.0 
4.609999999999e+01 -7.000000000000e+00 0.0 
4.707500000000e+01 -7.000000000000e+00 0.0 
4.805000000000e+01 -7.000000000000e+00 0.0 
4.902500000000e+01 -7.000000000000e+00 0.0 
4.900000000000e+01 -8.000000000000e+00 0.0 
4.800000000000e+01 -8.000000000000e+00 0.0 
4.700000000000e+01 -8.000000000000e+00 0.0 
4.600000000000e+01 -8.000000000000e+00 0.0 
4.500000000000e+01 -8.000000000000e+00 0.0 
4.400000000000e+01 -8.000000000000e+00 0.0 
4.300000000000e+01 -8.000000000000e+00 0.0 
4.200000000000e+01 -8.000000000000e+00 0.0 
4.100000000000e+01 -8.000000000000e+00 0.0 
4.000000000000e+01 -8.000000000000e+00 0.0 
3.900000000000e+01 -8.000000000000e+00 0.0 
3.800000000000e+01 -8.000000000000e+00 0.0 
3.700000000000e+01 -8.000000000000e+00 0.0 
3.600000000000e+01 -8.000000000000e+00 0.0 
3.500000000000e+01 -8.000000000000e+00 0.0 
3.400000000000e+01 -8.000000000000e+00 0.0 
3.300000000000e+01 -8.000000000000e+00 0.0 
3.447058823527e+01 -9.000000000000e+00 0.0 
3.544117647055e+01 -9.000000000000e+00 0.0 
3.641176470582e+01 -9.000000000000e+00 0.0 
3.738235294109e+01 -9.000000000000e+00 0.0 
3.835294117637e+01 -9.000000000000e+00 0.0 
3.932352941164e+01 -9.000000000000e+00 0.0 
4.029411764691e+01 -9.000000000000e+00 0.0 
4.126470588219e+01 -9.000000000000e+00 0.0 
4.223529411748e+01 -9.000000000000e+00 0.0 
4.320588235279e+01 -9.000000000000e+00 0.0 
4.417647058811e+01 -9.000000000000e+00 0.0 
4.514705882342e+01 -9.000000000000e+00 0.0 
4.611764705874e+01 -9.000000000000e+00 0.0 
4.708823529405e+01 -9.000000000000e+00 0.0 
4.805882352937e+01 -9.000000000000e+00 0.0 
4.902941176468e+01 -9.000000000000e+00 0.0 
2.075000000000e+01 -5.000000000006e-01 0.0 
2.225000000000e+01 -1.500000000000e+00 0.0 
2.375000000000e+01 -2.500000000000e+00 0.0 
2.525000000000e+01 -3.500000000000e+00 0.0 
2.675000000000e+01 -4.500000000000e+00 0.0 
2.825000000000e+01 -5.500000000000e+00 0.0 
2.975000000000e+01 -6.500000000000e+00 0.0 
3.125000000000e+01 -7.500000000000e+00 0.0 
3.275000000000e+01 -8.500000000000e+00 0.0 
3.425000000000e+01 -9.500000000000e+00 0.0 
2.226951693683e+01 -2.403913980114e+00 0.0 
1.650149491944e+01 -1.913490915758e+01 0.0 
1.050042386896e+01 -8.504605092970e-01 0.0 
1.553146524712e+01 -8.281255032105e-01 0.0 
1.150000000008e+01 -1.913397459621e+01 0.0 
2.530060260647e+01 -4.428336431260e+00 0.0 
8.651114563942e-01 -1.052096295641e+01 0.0 
2.050000000013e+01 -1.913397459622e+01 0.0 
2.819198729811e+01 -6.399519052838e+00 0.0 
2.445670302931e+01 -1.915649188023e+01 0.0 
3.117591465718e+01 -8.394293040695e+00 0.0 
7.465053044742e+00 -1.920411160581e+01 0.0 
6.398295709691e+00 -8.230098819370e-01 0.0 
2.849659607461e+01 -1.914296187762e+01 0.0 
3.418732642882e+01 -1.040265792588e+01 0.0 
8.386450935063e-01 -6.533605142809e+00 0.0 
9.178661865596e-01 -1.329769195597e+01 0.0 
3.149448624493e+01 -1.910466733764e+01 0.0 
3.552916747426e+01 -1.914628590759e+01 0.0 
4.449210346537e+01 -1.914359085008e+01 0.0 
4.140975975145e+01 -1.906941860733e+01 0.0 
3.847475958753e+01 -1.916622382724e+01 0.0 
3.653774794640e+01 -1.088712800241e+01 0.0 
4.047886341787e+01 -1.090139014048e+01 0.0 
4.348006339825e+01 -1.092792621489e+01 0.0 
4.919519968029e+01 -1.451526755068e+01 0.0 
4.500000000032e+00 -1.913397459621e+01 0.0 
1.856136921614e+01 -8.212235170404e-01 0.0 
3.499895312306e+00 -8.661165539723e-01 0.0 
9.076088696565e-01 -1.642306201891e+01 0.0 
4.655174095477e+01 -1.086183387525e+01 0.0 
9.430688970604e-01 -3.496112672958e+00 0.0 
3.353992337063e+01 -1.901202090820e+01 0.0 
2.249746016977e+01 -1.921262287282e+01 0.0 
2.650122741777e+01 -1.916123026018e+01 0.0 
1.863571384842e+01 -1.908325534840e+01 0.0 
1.450089971693e+01 -1.917691901860e+01 0.0 
1.350044695317e+01 -8.659695299584e-01 0.0 
3.849987469880e+01 -1.084154983397e+01 0.0 
9.454419857884e+00 -1.900818879936e+01 0.0 
4.917398660523e+01 -1.645692866081e+01 0.0 
8.500000000000e+00 -8.660254037844e-01 0.0 
8.660319230785e-01 -8.500111697188e+00 0.0 
4.649022621545e+01 -1.930506220113e+01 0.0 
2.667688107845e+01 -5.420288124331e+00 0.0 
2.379251615665e+01 -3.412225477429e+00 0.0 
2.966631491830e+01 -7.389030232731e+00 0.0 
3.267915035995e+01 -9.396934932445e+00 0.0 
2.074836922338e+01 -1.320054020319e+00 0.0 
4.915985743621e+01 -1.261973384855e+01 0.0 
2.527129768623e+00 -1.931592414663e+01 0.0 
1.538676247410e+00 -8.436956619311e-01 0.0 
4.908096641539e+01 -1.842484004551e+01 0.0 
3.478612492673e+01 -1.090889364140e+01 0.0 
3.409757055860e+01 -1.131991530427e+01 0.0 
3.501895309466e+01 -1.177687842717e+01 0.0 
3.407758073088e+01 -1.224293381580e+01 0.0 
3.484541875390e+01 -1.277051428430e+01 0.0 
3.400322025842e+01 -1.319022775640e+01 0.0 
3.321672625034e+01 -1.266779191233e+01 0.0 
3.315244139236e+01 -1.360984106532e+01 0.0 
3.236335186892e+01 -1.308463225210e+01 0.0 
3.478337442841e+01 -1.372341158982e+01 0.0 
3.230105923633e+01 -1.403023731610e+01 0.0 
3.150954055289e+01 -1.350301767700e+01 0.0 
3.144604792090e+01 -1.444931742516e+01 0.0 
3.065653897123e+01 -1.392357262981e+01 0.0 
3.071897610812e+01 -1.297447031198e+01 0.0 
2.986790411740e+01 -1.339226181535e+01 0.0 
2.993181466745e+01 -1.244703272398e+01 0.0 
2.908023061869e+01 -1.286254537734e+01 0.0 
2.901619051372e+01 -1.380881655279e+01 0.0 
2.822986160390e+01 -1.327695262116e+01 0.0 
2.829453476870e+01 -1.233265343811e+01 0.0 
2.744542905518e+01 -1.274510491105e+01 0.0 
2.751120089246e+01 -1.180368086886e+01 0.0 
2.666218649885e+01 -1.221619339205e+01 0.0 
2.672371209234e+01 -1.127125228527e+01 0.0 
2.587763216302e+01 -1.168539979114e+01 0.0 
2.581165585299e+01 -1.262994410089e+01 0.0 
2.502890882577e+01 -1.209827323619e+01 0.0 
2.509631327757e+01 -1.115492410304e+01 0.0 
2.424662989877e+01 -1.156630981079e+01 0.0 
2.431704046904e+01 -1.062389179334e+01 0.0 
2.346445438728e+01 -1.103427680694e+01 0.0 
2.339382552877e+01 -1.197964871788e+01 0.0 
2.260936050780e+01 -1.144513277642e+01 0.0 
2.268075012022e+01 -1.049911928216e+01 0.0 
2.182525737661e+01 -1.090920811464e+01 0.0 
2.189682319817e+01 -9.961716944568e+00 0.0 
2.104174127792e+01 -1.037266986667e+01 0.0 
2.111304367575e+01 -9.424179358711e+00 0.0 
2.025306185381e+01 -9.832727364719e+00 0.0 
2.018141124247e+01 -1.079140628871e+01 0.0 
1.938594498257e+01 -1.025147354112e+01 0.0 
1.946106490453e+01 -9.288010758448e+00 0.0 
1.858929958352e+01 -9.706319802516e+00 0.0 
1.851540991219e+01 -1.067205988724e+01 0.0 
1.771485303178e+01 -1.012504443115e+01 0.0 
1.764134552256e+01 -1.109360378538e+01 0.0 
1.683745148095e+01 -1.054496365337e+01 0.0 
1.691852964353e+01 -9.582555261178e+00 0.0 
1.603603813062e+01 -1.000160132379e+01 0.0 
1.595824239350e+01 -1.096750698862e+01 0.0 
1.515080624291e+01 -1.041639501931e+01 0.0 
1.523171602559e+01 -9.451711491453e+00 0.0 
1.434621060709e+01 -9.871956467464e+00 0.0 
1.426777178765e+01 -1.083749501371e+01 0.0 
1.345775282374e+01 -1.028803175500e+01 0.0 
1.354103873368e+01 -9.324918457162e+00 0.0 
1.265072018622e+01 -9.742612837270e+00 0.0 
1.257285762070e+01 -1.071557782384e+01 0.0 
1.175874815690e+01 -1.015972324288e+01 0.0 
1.184203019714e+01 -9.193604071377e+00 0.0 
1.094927709905e+01 -9.612103238656e+00 0.0 
1.086938022910e+01 -1.058685085646e+01 0.0 
1.005424098961e+01 -1.002939116380e+01 0.0 
9.977974613295e+00 -1.101324897989e+01 0.0 
1.012915646404e+01 -9.051815821181e+00 0.0 
9.237127782494e+00 -9.471239055559e+00 0.0 
9.308426593771e+00 -8.483376461131e+00 0.0 
8.418806073345e+00 -8.910712374517e+00 0.0 
2.253688464062e+01 -1.239459402279e+01 0.0 
8.495126726666e+00 -7.921646665254e+00 0.0 
9.389727383206e+00 -7.512103628377e+00 0.0 
7.601560812974e+00 -8.349460349344e+00 0.0 
7.525680547759e+00 -9.339736686940e+00 0.0 
7.677888324502e+00 -7.359727833346e+00 0.0 
6.782001206724e+00 -7.788454494773e+00 0.0 
6.858778622885e+00 -6.797338062822e+00 0.0 
2.196596590865e+01 -8.979025665442e+00 0.0 
2.816540108272e+01 -1.422634142353e+01 0.0 
5.961601194403e+00 -7.226824010712e+00 0.0 
6.038171749656e+00 -6.234825887079e+00 0.0 
6.936257279557e+00 -5.805287640737e+00 0.0 
6.115068918323e+00 -5.242109758768e+00 0.0 
3.564391741903e+01 -1.329240553876e+01 0.0 
3.558115605778e+01 -1.425902892003e+01 0.0 
3.645445282201e+01 -1.381970786460e+01 0.0 
3.639744204358e+01 -1.479198128612e+01 0.0 
3.727266909778e+01 -1.435399586226e+01 0.0 
5.216667013081e+00 -5.671788584287e+00 0.0 
3.220697293295e+01 -1.499594545107e+01 0.0 
3.551112158269e+01 -1.523479869250e+01 0.0 
2.836056961467e+01 -1.139032434851e+01 0.0 
2.516730388602e+01 -1.021382726837e+01 0.0 
1.844436907403e+01 -1.164097215196e+01 0.0 
5.885434318740e+00 -8.218694781467e+00 0.0 
5.064071066867e+00 -7.656614643901e+00 0.0 
4.988089103470e+00 -8.649722082718e+00 0.0 
1.079421050408e+01 -1.157014985435e+01 0.0 
9.902420005256e+00 -1.199903342656e+01 0.0 
1.071994252214e+01 -1.255727909771e+01 0.0 
9.826974788171e+00 -1.298659581767e+01 0.0 
1.064607883789e+01 -1.354595476388e+01 0.0 
9.751541265343e+00 -1.397556905071e+01 0.0 
8.932296185869e+00 -1.341553353988e+01 0.0 
8.856399248106e+00 -1.440570715508e+01 0.0 
8.036186803543e+00 -1.384470558472e+01 0.0 
1.057112875118e+01 -1.453516759081e+01 0.0 
1.146582585687e+01 -1.410539926903e+01 0.0 
7.959894480382e+00 -1.483563350928e+01 0.0 
7.138792279156e+00 -1.427465094140e+01 0.0 
7.062506792418e+00 -1.526615385482e+01 0.0 
6.240693558277e+00 -1.470508863040e+01 0.0 
6.316957575451e+00 -1.371212581281e+01 0.0 
5.418183007107e+00 -1.414253605022e+01 0.0 
5.494748364428e+00 -1.314886770603e+01 0.0 
1.756825565873e+01 -1.206433872514e+01 0.0 
1.837565773345e+01 -1.261356468266e+01 0.0 
1.749574831391e+01 -1.303769280014e+01 0.0 
1.830539187332e+01 -1.358828364284e+01 0.0 
1.742278925170e+01 -1.401367746928e+01 0.0 
1.823303007798e+01 -1.456432294258e+01 0.0 
1.734941694138e+01 -1.499213734361e+01 0.0 
1.653760041637e+01 -1.443920312098e+01 0.0 
3.056237977307e+01 -1.487132260174e+01 0.0 
1.866469084762e+01 -8.742953000418e+00 0.0 
1.953669694916e+01 -8.326038909849e+00 0.0 
1.874194303780e+01 -7.780688158966e+00 0.0 
1.961032016741e+01 -7.366854697285e+00 0.0 
1.881715755159e+01 -6.821102209649e+00 0.0 
1.968369797150e+01 -6.407747217358e+00 0.0 
1.889237123259e+01 -5.858375520026e+00 0.0 
1.802038875366e+01 -6.276202618170e+00 0.0 
1.809793837984e+01 -5.307629520489e+00 0.0 
1.721985207997e+01 -5.728242054488e+00 0.0 
1.729850893523e+01 -4.756990819347e+00 0.0 
1.641745664240e+01 -5.174636548624e+00 0.0 
2.495978509456e+01 -1.304406404294e+01 0.0 
1.911567814831e+01 -1.413854250293e+01 0.0 
1.904387332608e+01 -1.511463127723e+01 0.0 
1.992115934240e+01 -1.468788025898e+01 0.0 
7.013706899628e+00 -4.812582868662e+00 0.0 
5.342091874585e+00 -1.513658157269e+01 0.0 
1.139098043784e+01 -1.509488509480e+01 0.0 
1.228151810610e+01 -1.465617481983e+01 0.0 
1.646373110164e+01 -1.541993323337e+01 0.0 
5.293328636712e+00 -4.678385108584e+00 0.0 
1.975965862987e+01 -5.448124345648e+00 0.0 
2.054318374236e+01 -5.992561293251e+00 0.0 
3.721453439063e+01 -1.533216152738e+01 0.0 
3.809302733893e+01 -1.489235527381e+01 0.0 
1.220852788900e+01 -1.565304565230e+01 0.0 
4.394120899730e+00 -5.108397613210e+00 0.0 
8.779354620288e+00 -1.539524721159e+01 0.0 
1.817791047702e+01 -4.338570146253e+00 0.0 
4.518860013839e+00 -1.457343189307e+01 0.0 
4.442712140414e+00 -1.556841391069e+01 0.0 
8.115343466391e+00 -1.285760324283e+01 0.0 
1.985334703171e+01 -1.566478400426e+01 0.0 
2.071953850276e+01 -1.522074243119e+01 0.0 
1.634012953883e+01 -6.154777738301e+00 0.0 
1.553479994708e+01 -5.593730508879e+00 0.0 
1.561265946942e+01 -4.617761762647e+00 0.0 
1.470674212978e+01 -5.064576488228e+00 0.0 
1.464498299883e+01 -6.026514471420e+00 0.0 
1.383271561817e+01 -5.467796261169e+00 0.0 
1.389241253067e+01 -4.504338666645e+00 0.0 
1.301868735463e+01 -4.907185188626e+00 0.0 
1.294514184846e+01 -5.888160903592e+00 0.0 
1.212955968622e+01 -5.328262335277e+00 0.0 
1.220721122383e+01 -4.341264976687e+00 0.0 
1.131324345897e+01 -4.766773516508e+00 0.0 
5.266597955397e+00 -1.613148974258e+01 0.0 
1.737805990867e+01 -3.786677807525e+00 0.0 
3.078438094513e+01 -1.203225297748e+01 0.0 
1.131569882285e+01 -1.608511932110e+01 0.0 
1.728478341782e+01 -1.596017432313e+01 0.0 
3.803465906019e+01 -1.587509751228e+01 0.0 
3.891681276677e+01 -1.543395196905e+01 0.0 
3.897340985302e+01 -1.444710288980e+01 0.0 
3.980095968193e+01 -1.499059496613e+01 0.0 
3.974334598189e+01 -1.597921884150e+01 0.0 
4.062964983717e+01 -1.553518690417e+01 0.0 
4.068729602479e+01 -1.454434445295e+01 0.0 
4.151772679790e+01 -1.508974196007e+01 0.0 
4.157505195739e+01 -1.409694289912e+01 0.0 
4.240699932656e+01 -1.464347955968e+01 0.0 
4.234898051011e+01 -1.563721375790e+01 0.0 
4.323934606035e+01 -1.519082036405e+01 0.0 
4.329740528208e+01 -1.419587509788e+01 0.0 
4.413056841369e+01 -1.474359631875e+01 0.0 
4.418850110108e+01 -1.374786684042e+01 0.0 
4.502219770667e+01 -1.429605103525e+01 0.0 
4.496411937907e+01 -1.529215882720e+01 0.0 
4.490027319897e+00 -4.154167794594e+00 0.0 
1.565080385988e+01 -1.486411982419e+01 0.0 
1.557610691279e+01 -1.584855627870e+01 0.0 
4.195350646612e+00 -8.089117689096e+00 0.0 
4.124027797830e+00 -9.082831955007e+00 0.0 
4.917944318925e+00 -9.643530901533e+00 0.0 
4.020105689502e+00 -1.007439673661e+01 0.0 
4.587185899277e+01 -1.484039992728e+01 0.0 
4.580078661551e+01 -1.584043391042e+01 0.0 
2.061956522375e+01 -5.046701343981e+00 0.0 
2.139572955529e+01 -5.579553449826e+00 0.0 
3.715344357292e+01 -1.631485124583e+01 0.0 
3.618886196443e+00 -1.500471207167e+01 0.0 
3.695606940204e+00 -1.400939692294e+01 0.0 
2.438890661143e+01 -9.686110599723e+00 0.0 
2.523267572778e+01 -9.276766000622e+00 0.0 
2.446094171539e+01 -8.751904591412e+00 0.0 
2.529089822738e+01 -8.321495612547e+00 0.0 
2.606882688827e+01 -8.864724051119e+00 0.0 
2.452116646430e+01 -7.792756462004e+00 0.0 
1.235543269617e+01 -1.365845617339e+01 0.0 
4.318116874181e+01 -1.618567469992e+01 0.0 
7.835066111909e+00 -5.376366223896e+00 0.0 
7.905687335704e+00 -4.382539065697e+00 0.0 
3.542640009567e+00 -1.600035116542e+01 0.0 
1.572431503071e+01 -1.388358386695e+01 0.0 
2.574684696680e+01 -1.357896141127e+01 0.0 
2.488842657651e+01 -1.399674354505e+01 0.0 
2.568301775611e+01 -1.453552048595e+01 0.0 
2.481535572009e+01 -1.495542756508e+01 0.0 
2.561729699688e+01 -1.549784648532e+01 0.0 
2.474623061296e+01 -1.592058894178e+01 0.0 
2.394234041695e+01 -1.537572575827e+01 0.0 
2.065825452567e+01 -1.621899055217e+01 0.0 
2.387180528935e+01 -1.634552264687e+01 0.0 
4.585364400844e+01 -1.383912334080e+01 0.0 
1.998744432052e+01 -1.370317155541e+01 0.0 
1.205356951443e+01 -6.313580285498e+00 0.0 
5.396543905849e+00 -3.731818611283e+00 0.0 
1.139652573295e+01 -3.745819399350e+00 0.0 
3.574124306703e+00 -4.551456826011e+00 0.0 
3.494140761930e+00 -5.539787055649e+00 0.0 
1.213651452413e+01 -1.664505033022e+01 0.0 
2.555045568519e+01 -1.646529356744e+01 0.0 
2.641671114986e+01 -1.603899382371e+01 0.0 
2.612920721894e+01 -7.906435260873e+00 0.0 
2.690339829698e+01 -8.456969591431e+00 0.0 
1.978024383368e+01 -1.664410216353e+01 0.0 
3.732829979082e+01 -1.336926601859e+01 0.0 
4.074336584605e+01 -1.355133328401e+01 0.0 
4.163204691081e+01 -1.310280943992e+01 0.0 
3.773826114429e+00 -3.493444309145e+00 0.0 
1.228783001032e+01 -3.374822835872e+00 0.0 
4.057110462520e+01 -1.652588478000e+01 0.0 
2.132535497898e+01 -6.523623360525e+00 0.0 
2.216932532211e+01 -6.110044769206e+00 0.0 
1.825781152128e+01 -3.370146817147e+00 0.0 
1.745679445888e+01 -2.812942552063e+00 0.0 
4.666517057280e+01 -1.539981381543e+01 0.0 
4.660575894464e+01 -1.639014410186e+01 0.0 
4.838230979954e+00 -1.063643436446e+01 0.0 
3.938942630206e+00 -1.106778981745e+01 0.0 
1.302967218620e+01 -1.621373452436e+01 0.0 
1.049548003190e+01 -4.204825123240e+00 0.0 
4.573571907195e+01 -1.683820511148e+01 0.0 
1.483686335807e+01 -1.430849689310e+01 0.0 
1.490982658890e+01 -1.332679386284e+01 0.0 
3.190805600162e+00 -9.510968358545e+00 0.0 
2.146625721848e+01 -4.642437303115e+00 0.0 
2.069866208266e+01 -4.111852942193e+00 0.0 
1.286859345584e+01 -6.873252723348e+00 0.0 
1.041794493184e+01 -5.194814260291e+00 0.0 
2.671081808965e+00 -4.976806516331e+00 0.0 
1.295786792925e+01 -1.720506531799e+01 0.0 
3.968438206511e+01 -1.696869067241e+01 0.0 
2.308550456051e+01 -1.579963151273e+01 0.0 
2.315593682844e+01 -1.482967445235e+01 0.0 
2.299471449450e+01 -1.677069968132e+01 0.0 
1.057344714696e+01 -3.214252277840e+00 0.0 
1.124057603753e+01 -1.707713739755e+01 0.0 
2.718402535754e+00 -1.543629882103e+01 0.0 
2.638549692805e+01 -1.696744916809e+01 0.0 
2.723416349007e+01 -1.658104204545e+01 0.0 
2.210193351704e+01 -7.046769643417e+00 0.0 
2.295180925161e+01 -6.657397605239e+00 0.0 
2.301355235833e+01 -5.709111896800e+00 0.0 
2.379052718281e+01 -6.254965406962e+00 0.0 
3.243528601237e+01 -1.214181853533e+01 0.0 
2.287977995457e+01 -7.583722368300e+00 0.0 
2.999876029544e+01 -1.150837653096e+01 0.0 
3.084435366963e+01 -1.109693775882e+01 0.0 
3.006650579669e+01 -1.057778994262e+01 0.0 
2.683802665066e+01 -9.386863216633e+00 0.0 
2.768641973621e+01 -8.988883915666e+00 0.0 
2.040296980397e+01 -7.903629133404e+00 0.0 
1.925235024054e+01 -1.218872783130e+01 0.0 
5.735667000424e+00 -1.020577277283e+01 0.0 
6.396559909872e+00 -1.272326295703e+01 0.0 
1.161199420714e+01 -1.212812778229e+01 0.0 
4.229046132615e+01 -1.663084237572e+01 0.0 
4.312275399692e+01 -1.718087491556e+01 0.0 
4.335502068163e+01 -1.320039231514e+01 0.0 
4.424630298089e+01 -1.275160688731e+01 0.0 
7.090116643816e+00 -3.818998061530e+00 0.0 
7.989472176569e+00 -3.389238711200e+00 0.0 
9.085824861778e+00 -1.144036167408e+01 0.0 
1.041972423731e+01 -1.651614080893e+01 0.0 
3.797525112640e+01 -1.686052038746e+01 0.0 
3.709114253394e+01 -1.730125999865e+01 0.0 
3.626966748340e+01 -1.675477052919e+01 0.0 
1.385164591440e+01 -1.677597757552e+01 0.0 
1.787152588784e+01 -8.198993896093e+00 0.0 
1.668849729812e+01 -1.248560611628e+01 0.0 
1.659546177905e+01 -3.232482605530e+00 0.0 
2.332214717345e+01 -1.292598167641e+01 0.0 
7.168238450786e+00 -2.824711686516e+00 0.0 
2.894878403906e+01 -1.475427524446e+01 0.0 
2.646763248247e+00 -1.643270107952e+01 0.0 
3.467431944285e+00 -1.699648837348e+01 0.0 
2.059475877282e+01 -1.719473628526e+01 0.0 
3.333868355437e+01 -1.080596971682e+01 0.0 
2.246451062637e+01 -1.334557761546e+01 0.0 
2.167821896388e+01 -1.280847834858e+01 0.0 
3.089653185767e+01 -1.017198487212e+01 0.0 
3.012604365669e+01 -9.657298805968e+00 0.0 
2.929627299435e+01 -1.006100135274e+01 0.0 
2.936201435219e+01 -9.136748899251e+00 0.0 
1.198219052702e+01 -7.291887238230e+00 0.0 
1.116702076035e+01 -6.731976101053e+00 0.0 
2.551388807505e+01 -1.746927036981e+01 0.0 
2.378639090370e+01 -1.728678807149e+01 0.0 
2.718543627188e+01 -1.748668016909e+01 0.0 
2.804681050301e+01 -1.712626668293e+01 0.0 
1.970737034667e+01 -1.762317646822e+01 0.0 
1.889535776135e+01 -1.707158098231e+01 0.0 
2.593777711283e+00 -5.971157087874e+00 0.0 
2.773468281110e+01 -8.067164273938e+00 0.0 
4.051205884347e+01 -1.751819982458e+01 0.0 
3.166903145421e+01 -1.068032992414e+01 0.0 
1.033042452886e+01 -1.748285844336e+01 0.0 
9.519274604626e+00 -1.694349240233e+01 0.0 
1.668308673328e+01 -2.255861778986e+00 0.0 
1.570531902832e+01 -2.676795860126e+00 0.0 
4.655826903379e+01 -1.736656245706e+01 0.0 
2.384148070773e+01 -5.328744256413e+00 0.0 
2.460255123641e+01 -5.852182672816e+00 0.0 
2.306638135119e+01 -4.798935440613e+00 0.0 
8.467720450578e-01 -1.849576263072e+01 0.0 
4.849657322345e+01 -1.084860705506e+01 0.0 
2.565860899507e+00 -1.742859793981e+01 0.0 
2.764418872564e+01 -9.927142821799e+00 0.0 
4.565165880064e+01 -1.785336695404e+01 0.0 
2.162231831329e+01 -1.376528337468e+01 0.0 
2.360646352969e+01 -9.136041963102e+00 0.0 
1.392738739903e+01 -1.578285505772e+01 0.0 
4.756405947478e+01 -1.683706841809e+01 0.0 
4.740895034054e+01 -1.793766756892e+01 0.0 
4.080779328826e+01 -1.257387192544e+01 0.0 
4.168907939671e+01 -1.210739129181e+01 0.0 
3.991197722154e+01 -1.300815793917e+01 0.0 
1.905536506762e+01 -3.940076697685e+00 0.0 
1.923879596617e+01 -2.875000734166e+00 0.0 
4.401386745746e+01 -1.673483229438e+01 0.0 
4.247233362525e+00 -7.094581653070e+00 0.0 
3.286051630211e+00 -7.635300020553e+00 0.0 
9.609533347623e+00 -4.594311677967e+00 0.0 
9.523554636369e+00 -5.595597029530e+00 0.0 
5.660336628893e+00 -1.119290329628e+01 0.0 
6.558070063295e+00 -1.076385809362e+01 0.0 
2.809866407414e+01 -1.518037766799e+01 0.0 
2.888868674504e+01 -1.570360690070e+01 0.0 
2.654431550819e+01 -1.411217777162e+01 0.0 
1.402158265969e+01 -1.375404617952e+01 0.0 
1.409592494026e+01 -1.277071998942e+01 0.0 
1.499355196178e+01 -1.235270737023e+01 0.0 
4.221535326155e+01 -1.759335617494e+01 0.0 
4.305583287033e+01 -1.822663146802e+01 0.0 
1.280748808359e+01 -7.834332838285e+00 0.0 
1.368988389326e+01 -7.420529606172e+00 0.0 
1.110091796060e+01 -7.683966794328e+00 0.0 
3.963446145980e+01 -1.794331310122e+01 0.0 
3.423932362213e+00 -1.796415590455e+01 0.0 
4.280814572302e+00 -1.752272834860e+01 0.0 
8.050136380041e+00 -2.421582378631e+00 0.0 
8.888674091650e+00 -2.984264211327e+00 0.0 
2.152839430898e+01 -3.732609965436e+00 0.0 
2.077799585292e+01 -3.183896021866e+00 0.0 
3.618719395821e+01 -1.770276572576e+01 0.0 
3.538165138340e+01 -1.718709995539e+01 0.0 
3.702925326420e+01 -1.828844288807e+01 0.0 
1.756739438711e+00 -5.353284859169e+00 0.0 
2.233710191104e+01 -1.527265621324e+01 0.0 
1.389483555057e+01 -1.771797164730e+01 0.0 
1.475634224300e+01 -1.728357428390e+01 0.0 
1.298797563052e+01 -1.825968924755e+01 0.0 
2.145331271866e+01 -1.673705379077e+01 0.0 
2.133282821169e+01 -1.769400773673e+01 0.0 
2.292139194136e+01 -1.774915400288e+01 0.0 
1.750750053243e+01 -1.861475593469e+00 0.0 
4.830478841772e+01 -1.752611802221e+01 0.0 
4.341203507805e+01 -1.220326745522e+01 0.0 
1.685254151866e+01 -1.443085301632e+00 0.0 
4.431538535165e+01 -1.171841387375e+01 0.0 
4.511308610496e+01 -1.229557320599e+01 0.0 
4.510133242889e+01 -1.123680627466e+01 0.0 
1.846818030617e+00 -4.410877617069e+00 0.0 
3.995468694584e+01 -1.186571542989e+01 0.0 
3.901387459804e+01 -1.242507616755e+01 0.0 
8.966735877533e+00 -1.837818700423e+00 0.0 
4.049310011091e+01 -1.848269508791e+01 0.0 
7.278862053803e+00 -1.918523922691e+00 0.0 
6.429715522129e+00 -2.316676521184e+00 0.0 
9.443505505022e+00 -1.792198868094e+01 0.0 
8.620386951051e+00 -1.737590365556e+01 0.0 
8.571868171503e+00 -1.834436667826e+01 0.0 
7.758629848526e+00 -1.775677907213e+01 0.0 
7.806648388584e+00 -1.680761266021e+01 0.0 
6.908555145436e+00 -1.723746463044e+01 0.0 
4.251709122090e+01 -1.156937480156e+01 0.0 
6.931136405615e+00 -1.832465719263e+01 0.0 
6.015545461353e+00 -1.768865355295e+01 0.0 
5.960535926343e+00 -1.872011001764e+01 0.0 
3.023253444786e+01 -8.761960642196e+00 0.0 
2.454622702599e+01 -6.749421992767e+00 0.0 
2.537499741604e+01 -6.347634963783e+00 0.0 
2.544077378460e+01 -5.431358513649e+00 0.0 
2.801367161747e+01 -1.820907270221e+01 0.0 
2.884507806914e+01 -1.762032095326e+01 0.0 
1.821474531936e+00 -1.588901260460e+01 0.0 
1.821006262604e+00 -1.489370287756e+01 0.0 
4.599962488908e+01 -1.176478780598e+01 0.0 
4.705457470007e+01 -1.172182804229e+01 0.0 
4.667668314802e+01 -1.263464558483e+01 0.0 
4.759648056504e+01 -1.252380987933e+01 0.0 
4.728041618103e+01 -1.341928568376e+01 0.0 
4.825209352360e+01 -1.330491640804e+01 0.0 
4.778118233428e+01 -1.420151961695e+01 0.0 
2.388192727579e+01 -1.826934810142e+01 0.0 
2.381714684947e+01 -4.385917965223e+00 0.0 
3.172733219247e+01 -9.758744265248e+00 0.0 
1.882012070658e+01 -1.805540597212e+01 0.0 
1.805667505243e+01 -1.742221226236e+01 0.0 
2.852599958080e+01 -8.597196079481e+00 0.0 
2.856486123437e+01 -7.661382718527e+00 0.0 
1.111792842875e+01 -1.818223852980e+01 0.0 
2.203322722466e+01 -7.986646678802e+00 0.0 
3.955703676900e+01 -1.903246763601e+01 0.0 
1.944842206513e+01 -8.038750575182e-01 0.0 
1.909882767783e+01 -1.746322740933e+00 0.0 
2.281147422941e+01 -8.525912918334e+00 0.0 
2.850633001468e+01 -9.533271335986e+00 0.0 
2.532883344309e+01 -7.308951659710e+00 0.0 
2.620475466461e+01 -6.979208585400e+00 0.0 
1.396278270396e+01 -1.475095389807e+01 0.0 
9.791001166724e+00 -2.554159793552e+00 0.0 
2.229293380421e+01 -4.269762271052e+00 0.0 
4.677238984118e+01 -1.430071795514e+01 0.0 
2.228658385918e+01 -3.344747535984e+00 0.0 
8.940223674553e-01 -1.543595733415e+01 0.0 
2.118566862474e+01 -8.435876987696e+00 0.0 
2.678325936437e+01 -1.032621195706e+01 0.0 
2.223400220487e+01 -5.179046761770e+00 0.0 
2.375370625384e+01 -7.251580562134e+00 0.0 
3.156971327386e+01 -1.255534750737e+01 0.0 
3.328226391312e+01 -1.172914813316e+01 0.0 
3.250948774219e+01 -1.120157009348e+01 0.0 
2.032993445717e+01 -8.867880112202e+00 0.0 
2.697226974856e+01 -7.536633082045e+00 0.0 
2.707377810386e+01 -6.590835263295e+00 0.0 
2.914099246827e+01 -1.191678458549e+01 0.0 
3.544824072239e+01 -1.621126558525e+01 0.0 
3.456511855436e+01 -1.665054783843e+01 0.0 
3.448395810225e+01 -1.759117813016e+01 0.0 
3.368378673938e+01 -1.708037781328e+01 0.0 
3.375560452567e+01 -1.610973066913e+01 0.0 
3.288001547988e+01 -1.654324255651e+01 0.0 
3.282475929147e+01 -1.749725654692e+01 0.0 
3.199880906313e+01 -1.697294088625e+01 0.0 
3.197001272932e+01 -1.811667776864e+01 0.0 
3.111884713021e+01 -1.742166785755e+01 0.0 
3.120418962865e+01 -1.642155709385e+01 0.0 
3.034666704371e+01 -1.683123833816e+01 0.0 
3.026224379976e+01 -1.772592851714e+01 0.0 
3.046632362943e+01 -1.582232843075e+01 0.0 
1.961344017324e+01 -1.857459447985e+01 0.0 
2.274975894774e+01 -9.532738811922e+00 0.0 
1.833923246887e+01 -2.396746883672e+00 0.0 
1.988859500848e+01 -2.249244376594e+00 0.0 
2.758045562861e+01 -1.086434261689e+01 0.0 
3.247300178163e+01 -1.909930104252e+01 0.0 
3.461947482503e+01 -1.911879848019e+01 0.0 
2.047161538662e+01 -6.941478180358e+00 0.0 
2.750230940214e+01 -1.915490590764e+01 0.0 
3.165081350803e+01 -1.161860780120e+01 0.0 
1.897456727641e+01 -4.889634688522e+00 0.0 
2.549338539756e+01 -1.914858252089e+01 0.0 
3.462873135081e+01 -1.567482276144e+01 0.0 
3.384432415243e+01 -1.512280684518e+01 0.0 
3.471433767690e+01 -1.469086942990e+01 0.0 
3.651470373046e+01 -1.918207952149e+01 0.0 
3.901742690249e+01 -1.345028556517e+01 0.0 
2.153224102692e+01 -1.920169709333e+01 0.0 
1.918382939341e+01 -1.316226275662e+01 0.0 
2.005389162382e+01 -1.271962165174e+01 0.0 
2.011472087878e+01 -1.175029352900e+01 0.0 
3.210679478412e+01 -1.598038618242e+01 0.0 
1.752175226543e+01 -1.914713022656e+01 0.0 
1.696897240059e+01 -1.832772588765e+01 0.0 
1.599682523337e+01 -1.832599992024e+01 0.0 
1.644507199462e+01 -1.743697981535e+01 0.0 
1.549987712903e+01 -1.915192375101e+01 0.0 
3.050250861901e+01 -1.918943550234e+01 0.0 
2.949944061527e+01 -1.922950455235e+01 0.0 
1.375892575273e+01 -6.447160534926e+00 0.0 
1.457223670180e+01 -7.006709243857e+00 0.0 
1.450818793236e+01 -7.965943451779e+00 0.0 
1.538804712402e+01 -7.553409623699e+00 0.0 
1.545817644768e+01 -6.580929593419e+00 0.0 
1.626506893751e+01 -7.129032608911e+00 0.0 
1.619833811522e+01 -8.086588580887e+00 0.0 
1.714448609609e+01 -6.697429609777e+00 0.0 
2.887616543568e+01 -1.668015232137e+01 0.0 
1.349814589130e+01 -1.918225301544e+01 0.0 
1.153887772210e+01 -1.311384581217e+01 0.0 
1.242708159886e+01 -1.267046795531e+01 0.0 
1.249799674267e+01 -1.169005616014e+01 0.0 
6.631723893693e+00 -9.774184881867e+00 0.0 
7.451471631867e+00 -1.033148796006e+01 0.0 
7.377795355458e+00 -1.132196345268e+01 0.0 
5.810931797536e+00 -9.211654212252e+00 0.0 
2.402683899133e+01 -1.441378562320e+01 0.0 
1.249768692036e+01 -1.917388426624e+01 0.0 
1.580373499437e+01 -1.290751860664e+01 0.0 
8.344650507834e+00 -9.898403995170e+00 0.0 
3.750622115305e+01 -1.086526401533e+01 0.0 
3.699391251667e+01 -1.171695900794e+01 0.0 
3.606517829518e+01 -1.173717504500e+01 0.0 
3.650257641795e+01 -1.270047380221e+01 0.0 
3.808951488918e+01 -1.183518714175e+01 0.0 
4.760380962420e+00 -1.162484888315e+01 0.0 
3.861210370848e+00 -1.205657631736e+01 0.0 
3.038284309476e+00 -1.149851280664e+01 0.0 
2.961598794889e+00 -1.248856794980e+01 0.0 
2.138953225512e+00 -1.193212674534e+01 0.0 
2.227383593457e+00 -1.096258903918e+01 0.0 
2.043265419276e+00 -1.292158472959e+01 0.0 
1.252449446028e+00 -1.225502002753e+01 0.0 
3.949985210740e+01 -1.086594001795e+01 0.0 
1.453499444792e+01 -8.768805922472e-01 0.0 
1.403518950933e+01 -1.749965556633e+00 0.0 
1.300715031023e+01 -1.714737233040e+00 0.0 
1.350929389899e+01 -2.527443911291e+00 0.0 
1.449600910711e+01 -2.595486162864e+00 0.0 
1.395693872901e+01 -3.484211041558e+00 0.0 
1.495105865208e+01 -3.364609636216e+00 0.0 
1.508822528740e+01 -1.766586020494e+00 0.0 
1.250223858430e+01 -8.634590186802e-01 0.0 
1.200279523409e+01 -1.709044504992e+00 0.0 
1.150086239419e+01 -8.592789190668e-01 0.0 
1.101482754194e+01 -1.677730591922e+00 0.0 
1.148018564526e+01 -2.659323866909e+00 0.0 
8.800552119754e+00 -3.989875954728e+00 0.0 
3.452790439430e+00 -1.901136170646e+01 0.0 
8.658451825200e-01 -9.503462241795e+00 0.0 
1.694787786797e+00 -9.000589234502e+00 0.0 
1.703436717094e+00 -8.038819004041e+00 0.0 
2.594197971110e+00 -8.563955242845e+00 0.0 
1.630513735412e+00 -9.907244747511e+00 0.0 
8.566859292791e-01 -7.512203837972e+00 0.0 
1.685461277022e+00 -7.164280248030e+00 0.0 
2.506394468801e+00 -8.623386730818e-01 0.0 
2.007475081581e+00 -1.727729545205e+00 0.0 
9.211534699767e-01 -1.628791366312e+00 0.0 
1.500000000020e+00 -2.598063549486e+00 0.0 
2.482078929963e+00 -2.553580088725e+00 0.0 
2.999795253092e+00 -1.732169015019e+00 0.0 
3.999712607169e+00 -1.728832897453e+00 0.0 
4.499752199340e+00 -8.656478679175e-01 0.0 
4.964377774841e+00 -1.730129617941e+00 0.0 
4.425017908337e+00 -2.597541756243e+00 0.0 
5.446573195014e+00 -8.410144840023e-01 0.0 
4.915722346614e+01 -1.550640962770e+01 0.0 
4.826794919243e+01 -1.600000000000e+01 0.0 
1.053139533193e+01 -1.911782884365e+01 0.0 
4.156049861949e+01 -1.095160998589e+01 0.0 
9.494526624416e+00 -8.650570090219e-01 0.0 
4.555762166964e+01 -1.897098103585e+01 0.0 
4.250656411371e+01 -1.914387356218e+01 0.0 
4.350906466345e+01 -1.917234727395e+01 0.0 
8.759665722424e-01 -1.746422130609e+01 0.0 
1.698936011838e+00 -1.795012186674e+01 0.0 
4.742476811029e+01 -1.900090177972e+01 0.0 
7.749196752349e+00 -6.368049313489e+00 0.0 
3.361572113416e+01 -1.798765193915e+01 0.0 
4.484660149212e+01 -1.728661231383e+01 0.0 
1.984038172228e+01 -4.502575320116e+00 0.0 
1.035080352627e+01 -6.166639575753e+00 0.0 
2.753558010652e+00 -1.444909521181e+01 0.0 
7.217069543032e+00 -1.328635391078e+01 0.0 
4.364336727739e+00 -1.655585677381e+01 0.0 
4.595208426108e+00 -1.357919665443e+01 0.0 
6.164967006980e+00 -1.569873454630e+01 0.0 
1.487855768353e+01 -1.826523774028e+01 0.0 
2.791876456372e+00 -4.019632415181e+00 0.0 
4.246464893515e+01 -1.364898659620e+01 0.0 
4.503855590351e+01 -1.329552780944e+01 0.0 
4.407239109604e+01 -1.573900004093e+01 0.0 
5.141054449252e+00 -6.664290382472e+00 0.0 
3.141083947149e+00 -1.055790764912e+01 0.0 
6.196463198741e+00 -4.256497932609e+00 0.0 
2.599618716181e+01 -1.836893455464e+01 0.0 
2.923057372337e+01 -1.098461757645e+01 0.0 
1.168343877486e+01 -1.114079645041e+01 0.0 
6.706222096238e+00 -8.780364234441e+00 0.0 
8.567858614669e+00 -6.943121440850e+00 0.0 
1.123755132901e+01 -5.753525820030e+00 0.0 
2.353456234423e+01 -1.008536320953e+01 0.0 
9.162073319168e+00 -1.045593739109e+01 0.0 
9.676343469685e+00 -1.496493008366e+01 0.0 
4.490637882905e+01 -1.628778970202e+01 0.0 
7.398129387772e+00 -9.639977982323e-01 0.0 
1.049641705805e+01 -1.552503975272e+01 0.0 
9.010356286268e+00 -1.242805042052e+01 0.0 
3.985573925497e+01 -1.399863651620e+01 0.0 
1.816196318262e+01 -1.554066497931e+01 0.0 
1.306332244168e+01 -3.963646550326e+00 0.0 
4.145850903932e+01 -1.608094559275e+01 0.0 
3.794664933633e+01 -1.779020121986e+01 0.0 
3.819614412903e+01 -1.290749321016e+01 0.0 
6.270014188119e+00 -3.255093186826e+00 0.0 
4.251165370388e+01 -1.263870364997e+01 0.0 
1.207347709171e+01 -1.763942826023e+01 0.0 
3.633240829927e+01 -1.577330481104e+01 0.0 
4.319052668832e+00 -6.101812561904e+00 0.0 
1.676492415806e+01 -1.151547901392e+01 0.0 
2.594059220037e+01 -1.074225223009e+01 0.0 
3.340750911501e+01 -9.898764354137e+00 0.0 
4.397619591281e+01 -1.769773736461e+01 0.0 
2.175611595028e+01 -1.185718747128e+01 0.0 
1.641818733106e+01 -1.640685203215e+01 0.0 
1.661211421753e+01 -1.346121366338e+01 0.0 
3.428853504935e+00 -6.551993389271e+00 0.0 
8.700728832502e+00 -1.638460872825e+01 0.0 
1.931369795309e+01 -1.121629383702e+01 0.0 
4.139798872363e+01 -1.706922153459e+01 0.0 
2.647837478700e+01 -1.507353829290e+01 0.0 
1.779469616424e+01 -9.161615782908e+00 0.0 
3.885879219319e+01 -1.642026488918e+01 0.0 
1.338194936770e+01 -1.125916521471e+01 0.0 
1.897071181111e+01 -1.609204322578e+01 0.0 
2.844308548793e+01 -1.046221003096e+01 0.0 
2.659854702194e+01 -1.316109415760e+01 0.0 
2.979604503271e+01 -1.433296157755e+01 0.0 
2.417694041347e+01 -1.251231397779e+01 0.0 
1.807401327411e+00 -1.388891148480e+01 0.0 
9.599810618782e+00 -1.595439365034e+01 0.0 
1.652144692160e+01 -4.205392788472e+00 0.0 
2.367839450246e+01 -8.188385218643e+00 0.0 
3.814894930468e+01 -1.390748338767e+01 0.0 
2.466448215774e+01 -1.685878545680e+01 0.0 
4.134044524611e+01 -1.806610045954e+01 0.0 
2.600511411958e+01 -9.801774120648e+00 0.0 
7.882158050716e+00 -1.582364037353e+01 0.0 
3.881607873422e+01 -1.737970515013e+01 0.0 
8.270182347708e+00 -1.088622154920e+01 0.0 
8.672520392520e-01 -4.532984309881e+00 0.0 
1.993447205337e+01 -3.579061902667e+00 0.0 
1.794616079549e+01 -7.238038888498e+00 0.0 
2.097277068165e+01 -1.132450168636e+01 0.0 
8.194803300681e+00 -1.187214224265e+01 0.0 
3.522279404911e+01 -1.823342818178e+01 0.0 
6.984481050295e+00 -1.625271465557e+01 0.0 
1.309433007797e+01 -1.521718594215e+01 0.0 
2.150246167611e+01 -1.885399038185e+00 0.0 
3.250689370209e+01 -1.028789870535e+01 0.0 
6.085886272238e+00 -1.668342132851e+01 0.0 
1.588455661727e+01 -1.193498985921e+01 0.0 
1.809323400821e+01 -1.651110084195e+01 0.0 
1.348885082381e+00 -1.136065576512e+01 0.0 
2.497670221995e+01 -1.834631276173e+01 0.0 
2.937062818424e+01 -8.233711194470e+00 0.0 
5.185823744469e+00 -1.711566910207e+01 0.0 
1.477497877209e+01 -1.530177014512e+01 0.0 
2.125346158933e+01 -7.473003997367e+00 0.0 
4.751561118290e+01 -1.084897772632e+01 0.0 
5.056026576843e+00 -1.825750475525e+01 0.0 
1.473948554523e+01 -1.634577436309e+01 0.0 
2.410566630936e+01 -1.345970002612e+01 0.0 
1.507337507513e+01 -1.138527895328e+01 0.0 
3.189857338687e+01 -8.887781229006e+00 0.0 
7.298712468334e+00 -1.230231046246e+01 0.0 
2.738235495295e+01 -1.368931690364e+01 0.0 
3.750141041969e+01 -1.920449893070e+01 0.0 
1.557271965640e+01 -1.683317951731e+01 0.0 
3.393731848929e+01 -1.413034777044e+01 0.0 
6.482156824153e+00 -1.174575135362e+01 0.0 
2.077971718439e+01 -1.421279621836e+01 0.0 
3.455084320178e+00 -2.562590040585e+00 0.0 
3.099056096250e+01 -9.270280416035e+00 0.0 
5.580176125418e+00 -1.217387969259e+01 0.0 
1.707247630389e+01 -7.660651981710e+00 0.0 
1.418658814174e+01 -1.180390575393e+01 0.0 
2.049103025389e+01 -1.811296706038e+01 0.0 
4.680386172316e+00 -1.260396879301e+01 0.0 
1.699679896554e+01 -8.624561788199e+00 0.0 
3.779470168555e+00 -1.303424899720e+01 0.0 
3.036589870126e+01 -7.879832518349e+00 0.0 
3.306993001774e+01 -1.457671062095e+01 0.0 
2.840150110165e+00 -1.346530088269e+01 0.0 
2.732011135052e+01 -1.464591214560e+01 0.0 
5.423639259568e+00 -2.659711955016e+00 0.0 
2.324455961696e+01 -1.387269388211e+01 0.0 
1.752768355571e+00 -1.693128613594e+01 0.0 
1.020244783051e+01 -8.076834012808e+00 0.0 
1.330873875224e+01 -1.222417528206e+01 0.0 
3.297727364880e+01 -1.555480372087e+01 0.0 
2.890929955439e+01 -6.868664170731e+00 0.0 
1.323294664622e+01 -1.320754260334e+01 0.0 
2.726532861246e+01 -1.560593120806e+01 0.0 
2.240020643398e+01 -1.429299177247e+01 0.0 
2.090445823633e+01 -1.228128621332e+01 0.0 
1.315809881502e+01 -1.420739326938e+01 0.0 
2.781328038068e+01 -7.181956082300e+00 0.0 
8.614200829057e+00 -5.936933226306e+00 0.0 
8.714765730069e+00 -4.979270529687e+00 0.0 
1.611881701099e+01 -9.041973294003e+00 0.0 
2.806830314340e+01 -1.614622947108e+01 0.0 
2.084435391396e+00 -3.385085422913e+00 0.0 
3.133211811152e+01 -1.542347619750e+01 0.0 
9.693114650768e+00 -3.590281506442e+00 0.0 
1.531883592202e+01 -8.504584946143e+00 0.0 
2.151589117094e+01 -1.578915763018e+01 0.0 
4.918943882696e+01 -1.355538828056e+01 0.0 
1.443236615188e+01 -8.918701794549e+00 0.0 
8.276250966452e-01 -5.537685192197e+00 0.0 
1.362790867918e+01 -8.374718262212e+00 0.0 
2.083767477370e+01 -1.324843956035e+01 0.0 
1.273834678703e+01 -8.790890389337e+00 0.0 
1.192275845670e+01 -8.242261327467e+00 0.0 
4.477236023583e+01 -1.824312396664e+01 0.0 
1.102989384254e+01 -8.649855800911e+00 0.0 
4.849096516045e+01 -1.917293752213e+01 0.0 
1.588996752238e+00 -1.910230934687e+01 0.0 
4.904245197583e+01 -1.159839008158e+01 0.0 
2.753852929608e+01 -5.782128488093e+00 0.0 
1.756133602833e+01 -8.306130313187e-01 0.0 
2.615423700951e+01 -6.153865090092e+00 0.0 
1.028818761294e+01 -7.122020845892e+00 0.0 
2.970818901196e+01 -1.527821347593e+01 0.0 
4.801461623449e+01 -1.164472570985e+01 0.0 
9.455722100419e+00 -6.546069291118e+00 0.0 
3.089099236677e+01 -1.835339328261e+01 0.0 
2.350000000013e+01 -1.920825896750e+01 0.0 
4.830620531887e+01 -1.506626155470e+01 0.0 
1.725381944701e+01 -1.688794487850e+01 0.0 
2.156246225273e+01 -1.475893794002e+01 0.0 
4.919319648787e+01 -1.742767505896e+01 0.0 
4.437935623576e+01 -1.077662927266e+01 0.0 
1.001520521978e+01 -1.652692675208e+00 0.0 
9.067160240050e-01 -1.441937727541e+01 0.0 
2.603365149390e+01 -4.755996613848e+00 0.0 
2.458344439002e+01 -4.873645517696e+00 0.0 
2.304312390142e+01 -3.836552768096e+00 0.0 
2.546923202198e+00 -6.902480355749e+00 0.0 
1.251534969393e+01 -2.490989965776e+00 0.0 
2.454061833377e+01 -3.933354231935e+00 0.0 
1.788186558740e+01 -1.827424884923e+01 0.0 
4.090785243552e+01 -1.166553231904e+01 0.0 
2.230128851568e+01 -1.623015738726e+01 0.0 
2.302362347568e+01 -2.916239960270e+00 0.0 
3.878119254461e+01 -1.830091164002e+01 0.0 
2.210081359958e+01 -1.829238229150e+01 0.0 
8.443704882233e+00 -1.921993252862e+01 0.0 
2.218405824691e+01 -1.724557581508e+01 0.0 
2.151157503963e+01 -2.790636689331e+00 0.0 
3.741658958955e+01 -1.250400191722e+01 0.0 
2.697247663737e+01 -1.838290202309e+01 0.0 
4.743362342862e+01 -1.585850773010e+01 0.0 
6.671345075358e+00 -1.924977576322e+01 0.0 
3.900825404537e+01 -1.157220003875e+01 0.0 
4.649692961375e+01 -1.836335837481e+01 0.0 
1.578831424832e+01 -3.678284023361e+00 0.0 
4.814208768888e+01 -1.841249298770e+01 0.0 
2.964123298315e+01 -1.625739458193e+01 0.0 
4.580760351902e+01 -1.284294554687e+01 0.0 
3.561520879615e+01 -1.245548941949e+01 0.0 
2.555418095658e+00 -1.841101588290e+01 0.0 
3.288468366144e+01 -1.834258164109e+01 0.0 
2.065894391445e+01 -2.240688571739e+00 0.0 
4.739171429915e+01 -1.496536413446e+01 0.0 
3.478086729185e+00 -8.576434653209e+00 0.0 
1.606010630246e+01 -1.588421807951e+00 0.0 
1.018329200594e+01 -1.834320874317e+01 0.0 
2.957213339430e+01 -1.720496954591e+01 0.0 
4.142712790164e+00 -1.837794506222e+01 0.0 
6.698721532573e-01 -2.499999999997e+00 0.0 
8.037039123140e+00 -1.571229354954e+00 0.0 
1.203541361428e+01 -1.847784298001e+01 0.0 
2.899968332038e+01 -1.848264722179e+01 0.0 
1.469229460948e+01 -4.219485753730e+00 0.0 
4.049590781957e+01 -1.932812501995e+01 0.0 
1.996211678340e+01 -1.506329754720e+00 0.0 
4.250588298353e+01 -1.067383247529e+01 0.0 
5.831497011152e+00 -1.635396227234e+00 0.0 
5.317606125670e+00 -1.923927974868e+01 0.0 
4.208546426993e+01 -1.842830665025e+01 0.0 
2.327553405011e+00 -9.459409929662e+00 0.0 
3.568351902251e+01 -1.096637218582e+01 0.0 
1.682104374890e+00 -6.231413350963e+00 0.0 
2.451812238018e+01 -1.766524914339e+01 0.0 
1.058003429638e+01 -2.391839617098e+00 0.0 
4.399988753123e+01 -1.851998776342e+01 0.0 
1.400000000010e+01 -1.852293523028e+01 0.0 
3.604719565984e+01 -1.850662876800e+01 0.0 
1.951297136734e+01 -1.938092349694e+01 0.0 
1.821365318472e+01 -1.531276353287e+00 0.0 
2.298031859732e+01 -1.854635324722e+01 0.0 
1.552168066204e+01 -1.764280741977e+01 0.0 
4.572957713638e+01 -1.073347898229e+01 0.0 
3.429637429624e+01 -1.838861552790e+01 0.0 
2.427434426052e+00 -7.705577451869e+00 0.0 
4.662792031485e+00 -3.359424455416e+00 0.0 
4.926794919243e+01 -1.926794919243e+01 0.0 
7.320508075690e-01 -7.320508075688e-01 0.0 
4.926794919243e+01 -1.073205080757e+01 0.0 
7.320508075705e-01 -1.926794919243e+01 0.0 
2.917460242467e+00 -3.202866455310e+00 0.0 
4.838200575963e+01 -1.232674147454e+01 0.0 
2.998445708009e+01 -1.854403752148e+01 0.0 
5.949940090766e-01 -1.152762038165e+01 0.0 
4.844763495759e+01 -1.678092548787e+01 0.0 
1.301685480160e+01 -3.170056592566e+00 0.0 
1.650046335855e+01 -6.731535384067e-01 0.0 
4.854881540991e+01 -1.405224059779e+01 0.0 
2.119545114693e+01 -1.846813384545e+01 0.0 
3.797852849897e+01 -1.857978513215e+01 0.0 
4.649823708745e+01 -1.338351810816e+01 0.0 
2.012685900976e+01 -2.889659035009e+00 0.0 
2.953271913273e+01 -1.791558075192e+01 0.0 
2.408509097292e+00 -1.021949208421e+01 0.0 
2.642589566221e+01 -1.773216561448e+01 0.0 
1.730010270775e+01 -1.763165076721e+01 0.0 
2.017406551304e+01 -8.513536440582e-01 0.0 
5.254761581934e-01 -1.249999999999e+01 0.0 
6.640448215642e+00 -1.545337834885e+00 0.0 
7.843361506349e+00 -1.852719839527e+01 0.0 
1.588442191088e+00 -1.066158564320e+01 0.0 
3.031250000000e+01 -6.420918367347e+00 0.0 
4.951250000000e+01 -6.500000000000e+00 0.0 
3.180701530612e+01 -7.414795918363e+00 0.0 
4.951250000000e+01 -7.500000000000e+00 0.0 
3.331250000000e+01 -8.420918367347e+00 0.0 
4.951470588234e+01 -8.500000000000e+00 0.0 
3.480610198624e+01 -9.413633635267e+00 0.0 
4.951470588234e+01 -9.500000000000e+00 0.0 

CELLS 2085 8340 
3 255 725 1001 
3 725 255 1003 
3 735 228 746 
3 848 613 1037 
3 615 675 841 
3 705 618 744 
3 235 657 659 
3 255 682 1003 
3 657 235 675 
3 608 843 1037 
3 227 802 803 
3 682 255 1017 
3 847 999 1043 
3 664 795 885 
3 999 261 1043 
3 254 848 1037 
3 663 234 804 
3 618 705 743 
3 242 662 984 
3 662 242 922 
3 843 608 996 
3 973 219 979 
3 700 973 979 
3 650 649 859 
3 349 505 794 
3 802 227 911 
3 109 82 1064 
3 694 220 936 
3 347 349 794 
3 859 649 1069 
3 599 809 811 
3 252 665 842 
3 735 746 1044 
3 19 240 715 
3 250 669 671 
3 678 66 1035 
3 66 678 1061 
3 697 246 741 
3 661 100 1014 
3 100 661 1075 
3 937 679 963 
3 215 701 840 
3 1018 216 1022 
3 82 264 1064 
3 656 263 1013 
3 695 1018 1022 
3 809 599 812 
3 263 656 1039 
3 805 806 812 
3 795 664 1036 
3 257 700 937 
3 647 662 922 
3 425 1038 1056 
3 257 937 963 
3 747 229 927 
3 1020 592 1065 
3 647 922 991 
3 240 685 715 
3 508 836 954 
3 843 254 1037 
3 214 1048 1089 
3 1028 654 1030 
3 474 502 708 
3 1038 811 1056 
3 819 638 1043 
3 700 257 973 
3 1048 658 1089 
3 228 735 1008 
3 535 496 817 
3 224 683 749 
3 911 854 965 
3 33 32 703 
3 694 936 1066 
3 4 5 829 
3 826 1020 1065 
3 666 231 917 
3 747 927 1076 
3 714 1019 1026 
3 836 508 1078 
3 1019 256 1026 
3 496 509 817 
3 234 663 1024 
3 219 725 979 
3 725 219 1001 
3 675 615 887 
3 657 675 887 
3 686 911 1016 
3 18 19 715 
3 740 737 985 
3 615 841 1024 
3 842 665 1015 
3 266 793 1064 
3 839 1010 1034 
3 1034 1010 1046 
3 232 33 703 
3 741 246 1071 
3 663 804 1036 
3 840 701 1049 
3 260 692 989 
3 708 502 709 
3 841 675 1059 
3 261 819 1043 
3 422 988 1012 
3 653 1028 1030 
3 543 541 719 
3 806 809 812 
3 846 847 969 
3 612 839 1034 
3 214 805 812 
3 942 237 1061 
3 387 740 985 
3 4 829 1080 
3 610 706 742 
3 577 893 931 
3 621 823 1047 
3 681 708 709 
3 476 474 708 
3 250 671 1029 
3 692 260 1084 
3 680 476 708 
3 711 641 986 
3 264 266 1064 
3 839 612 1087 
3 476 680 719 
3 1031 930 1045 
3 696 946 955 
3 823 621 1077 
3 946 221 955 
3 231 666 1057 
3 643 1031 1045 
3 802 911 965 
3 613 848 1039 
3 550 607 707 
3 221 679 955 
3 669 250 1049 
3 847 604 999 
3 686 854 911 
3 707 607 907 
3 651 779 1069 
3 583 699 707 
3 633 844 845 
3 683 224 1055 
3 885 795 1032 
3 492 464 713 
3 699 550 707 
3 679 221 963 
3 607 745 907 
3 719 545 914 
3 235 659 1014 
3 706 341 742 
3 665 252 1053 
3 1000 1006 1084 
3 830 242 984 
3 258 696 931 
3 779 651 788 
3 680 543 719 
3 715 686 1016 
3 682 216 1018 
3 988 648 1012 
3 241 687 688 
3 702 341 706 
3 685 240 969 
3 535 711 986 
3 847 606 969 
3 722 595 750 
3 237 942 1051 
3 1000 605 1006 
3 541 545 719 
3 893 258 931 
3 227 803 1100 
3 216 682 1017 
3 341 702 716 
3 464 515 713 
3 687 241 1075 
3 545 706 914 
3 696 258 946 
3 589 778 983 
3 823 524 1047 
3 220 694 1009 
3 749 683 1033 
3 681 709 1003 
3 524 823 1063 
3 766 896 950 
3 699 583 937 
3 682 681 1003 
3 722 577 931 
3 706 610 914 
3 230 843 996 
3 353 762 972 
3 240 846 969 
3 695 256 1019 
3 551 716 940 
3 737 762 985 
3 81 110 704 
3 583 679 937 
3 939 611 943 
3 835 967 1060 
3 850 243 1076 
3 348 273 755 
3 970 329 997 
3 459 939 943 
3 793 266 1042 
3 794 505 1032 
3 649 651 1069 
3 980 871 1007 
3 717 288 745 
3 547 437 750 
3 354 348 755 
3 544 722 750 
3 595 722 931 
3 493 953 993 
3 778 627 983 
3 704 238 705 
3 709 725 1003 
3 709 502 724 
3 607 717 745 
3 762 732 972 
3 618 617 923 
3 611 710 929 
3 661 687 1075 
3 716 702 940 
3 407 929 978 
3 667 877 1101 
3 753 354 755 
3 877 223 1101 
3 835 836 967 
3 256 695 1022 
3 980 623 981 
3 727 354 753 
3 623 622 981 
3 603 712 718 
3 429 810 882 
3 641 818 986 
3 896 459 950 
3 595 547 750 
3 638 819 1051 
3 110 238 704 
3 512 542 718 
3 302 341 716 
3 700 699 937 
3 710 611 939 
3 678 942 1061 
3 964 353 972 
3 411 393 748 
3 459 943 950 
3 911 227 1016 
3 745 355 907 
3 754 755 951 
3 654 1028 1073 
3 302 716 723 
3 542 603 718 
3 272 544 720 
3 703 32 1057 
3 288 717 892 
3 761 304 900 
3 688 687 689 
3 817 509 1021 
3 544 721 722 
3 511 411 748 
3 617 751 852 
3 599 811 1038 
3 354 727 889 
3 437 720 750 
3 476 719 914 
3 727 566 889 
3 762 353 985 
3 355 726 868 
3 222 676 1035 
3 552 761 900 
3 280 546 726 
3 610 742 873 
3 552 760 761 
3 394 410 751 
3 792 233 793 
3 306 303 723 
3 423 774 775 
3 754 964 972 
3 110 111 238 
3 544 270 721 
3 393 391 748 
3 467 512 718 
3 396 394 751 
3 275 272 720 
3 665 711 1015 
3 503 593 724 
3 552 759 760 
3 720 544 750 
3 792 793 794 
3 513 618 743 
3 423 775 777 
3 424 427 774 
3 709 724 725 
3 754 951 964 
3 502 503 724 
3 389 306 723 
3 716 551 723 
3 513 617 618 
3 742 298 873 
3 642 712 714 
3 37 229 747 
3 39 243 746 
3 289 288 892 
3 410 393 411 
3 466 467 525 
3 281 280 726 
3 410 411 466 
3 423 424 774 
3 355 868 907 
3 844 633 1062 
3 748 551 940 
3 953 609 993 
3 642 525 712 
3 247 57 767 
3 466 411 467 
3 286 355 745 
3 513 417 617 
3 789 482 897 
3 303 302 723 
3 427 771 774 
3 546 437 547 
3 42 768 769 
3 391 389 551 
3 552 380 759 
3 526 525 642 
3 757 442 880 
3 929 710 978 
3 542 543 601 
3 616 757 880 
3 245 45 749 
3 519 611 929 
3 41 228 768 
3 885 505 915 
3 740 387 1005 
3 603 601 695 
3 548 547 580 
3 280 437 546 
3 280 278 437 
3 356 892 918 
3 220 47 752 
3 347 794 1042 
3 721 577 722 
3 551 389 723 
3 622 818 981 
3 580 595 696 
3 542 541 543 
3 241 688 941 
3 427 770 771 
3 391 551 748 
3 731 753 754 
3 512 541 542 
3 546 547 548 
3 380 382 759 
3 555 782 869 
3 50 244 758 
3 583 581 679 
3 395 397 777 
3 636 970 997 
3 602 681 682 
3 601 543 602 
3 737 734 762 
3 286 284 355 
3 593 699 700 
3 548 580 581 
3 54 246 763 
3 246 697 1023 
3 734 732 762 
3 754 753 755 
3 782 322 869 
3 474 475 502 
3 394 393 410 
3 392 391 393 
3 288 286 745 
3 569 789 897 
3 337 783 784 
3 730 728 731 
3 397 423 777 
3 471 356 472 
3 726 546 868 
3 473 472 474 
3 228 40 746 
3 243 38 747 
3 243 850 1044 
3 555 781 782 
3 566 468 889 
3 542 601 603 
3 390 389 391 
3 617 417 751 
3 503 550 593 
3 791 792 795 
3 757 885 915 
3 767 765 859 
3 738 737 740 
3 272 270 544 
3 279 278 280 
3 417 396 751 
3 814 816 817 
3 341 300 742 
3 294 292 356 
3 300 298 742 
3 211 930 1031 
3 688 689 690 
3 818 622 986 
3 467 511 512 
3 57 56 767 
3 401 403 493 
3 265 577 721 
3 242 830 1052 
3 892 717 918 
3 302 300 341 
3 278 275 720 
3 224 43 769 
3 580 547 595 
3 284 281 726 
3 337 784 790 
3 728 727 753 
3 555 780 781 
3 44 224 749 
3 41 40 228 
3 37 36 229 
3 39 38 243 
3 277 275 278 
3 731 728 753 
3 736 734 737 
3 474 472 475 
3 502 475 503 
3 786 783 870 
3 730 731 732 
3 46 245 752 
3 645 566 727 
3 759 493 760 
3 645 727 728 
3 486 484 787 
3 294 356 471 
3 593 550 699 
3 466 525 526 
3 232 703 1027 
3 473 474 476 
3 867 586 936 
3 783 337 870 
3 428 431 770 
3 247 767 859 
3 512 540 541 
3 42 41 768 
3 243 747 1076 
3 285 284 286 
3 814 815 816 
3 44 43 224 
3 212 763 764 
3 427 428 770 
3 382 401 759 
3 218 51 758 
3 118 213 815 
3 471 472 473 
3 283 281 284 
3 287 286 288 
3 355 284 726 
3 525 467 718 
3 46 45 245 
3 388 306 389 
3 514 513 743 
3 676 222 1102 
3 815 213 816 
3 582 581 583 
3 809 810 811 
3 696 595 931 
3 212 55 763 
3 48 47 220 
3 437 278 720 
3 806 808 809 
3 655 514 743 
3 809 808 810 
3 899 597 912 
3 791 233 792 
3 267 265 721 
3 50 49 244 
3 249 791 795 
3 229 36 756 
3 489 486 787 
3 616 664 757 
3 602 680 681 
3 401 493 759 
3 617 852 923 
3 52 51 218 
3 40 39 746 
3 38 37 747 
3 555 363 780 
3 358 360 786 
3 294 471 873 
3 363 365 780 
3 54 53 246 
3 467 411 511 
3 774 773 775 
3 771 772 773 
3 506 616 880 
3 58 247 779 
3 806 807 808 
3 56 55 212 
3 770 635 771 
3 43 42 769 
3 736 737 738 
3 117 118 815 
3 471 610 873 
3 565 468 566 
3 45 44 749 
3 277 278 279 
3 532 489 533 
3 526 642 643 
3 765 764 766 
3 527 634 635 
3 771 635 772 
3 805 248 806 
3 47 46 752 
3 751 410 852 
3 519 567 611 
3 616 663 664 
3 853 585 872 
3 771 773 774 
3 279 280 281 
3 51 50 758 
3 360 462 786 
3 371 407 477 
3 291 289 292 
3 630 523 631 
3 775 773 776 
3 780 477 781 
3 292 289 892 
3 628 485 902 
3 401 402 403 
3 293 292 294 
3 330 332 790 
3 512 511 540 
3 358 786 870 
3 533 489 787 
3 357 380 552 
3 56 212 767 
3 644 566 645 
3 528 853 872 
3 55 54 763 
3 212 764 765 
3 299 298 300 
3 806 248 807 
3 59 779 788 
3 729 728 730 
3 431 527 770 
3 58 57 247 
3 365 371 780 
3 503 549 550 
3 270 267 721 
3 357 552 900 
3 361 555 869 
3 523 482 789 
3 755 273 951 
3 582 707 907 
3 403 421 422 
3 690 689 691 
3 332 337 790 
3 382 384 401 
3 527 584 634 
3 554 376 855 
3 116 117 813 
3 541 540 545 
3 527 635 770 
3 783 625 784 
3 297 295 298 
3 371 477 780 
3 506 614 616 
3 431 494 527 
3 59 58 779 
3 283 284 285 
3 553 624 625 
3 285 286 287 
3 553 625 783 
3 813 117 815 
3 269 267 270 
3 822 821 823 
3 223 123 837 
3 462 517 553 
3 371 406 407 
3 851 521 876 
3 631 789 933 
3 631 523 789 
3 265 225 577 
3 249 107 791 
3 646 756 949 
3 287 288 289 
3 123 124 837 
3 641 561 818 
3 807 813 814 
3 623 980 1007 
3 539 589 983 
3 619 851 876 
3 416 899 912 
3 340 338 849 
3 378 376 554 
3 519 530 567 
3 436 417 513 
3 253 821 822 
3 226 825 826 
3 215 60 788 
3 60 59 788 
3 821 820 824 
3 553 517 624 
3 361 363 555 
3 567 649 650 
3 561 480 818 
3 414 499 519 
3 835 833 836 
3 462 553 786 
3 784 625 785 
3 239 832 833 
3 253 820 821 
3 565 566 644 
3 124 125 834 
3 108 233 791 
3 108 109 233 
3 482 386 897 
3 226 10 825 
3 527 494 584 
3 712 525 718 
3 672 670 673 
3 752 245 867 
3 556 450 883 
3 602 543 680 
3 665 641 711 
3 548 581 582 
3 104 234 841 
3 103 104 841 
3 124 834 837 
3 834 833 835 
3 828 830 831 
3 404 345 479 
3 239 827 832 
3 820 217 824 
3 214 114 805 
3 345 340 849 
3 693 691 713 
3 106 107 249 
3 589 684 778 
3 365 370 371 
3 690 691 692 
3 10 11 825 
3 828 831 832 
3 30 29 844 
3 231 30 844 
3 616 614 663 
3 234 105 804 
3 825 822 826 
3 28 230 845 
3 479 345 849 
3 107 108 791 
3 106 249 804 
3 580 696 955 
3 36 35 756 
3 844 29 845 
3 239 833 834 
3 125 239 834 
3 640 561 641 
3 784 785 921 
3 846 604 847 
3 113 114 214 
3 251 838 839 
3 115 248 805 
3 522 482 523 
3 115 116 248 
3 114 115 805 
3 629 523 630 
3 575 638 639 
3 692 691 693 
3 868 582 907 
3 827 828 832 
3 377 378 857 
3 25 24 848 
3 254 25 848 
3 105 106 804 
3 458 386 482 
3 29 28 845 
3 532 533 648 
3 828 829 830 
3 827 262 828 
3 828 262 829 
3 11 12 253 
3 261 69 819 
3 80 79 263 
3 127 262 827 
3 13 217 820 
3 70 69 261 
3 68 237 819 
3 61 215 840 
3 76 236 838 
3 78 77 251 
3 69 68 819 
3 68 67 237 
3 251 77 838 
3 127 128 262 
3 101 102 235 
3 104 105 234 
3 239 126 827 
3 65 64 222 
3 250 62 840 
3 63 62 250 
3 126 127 827 
3 125 126 239 
3 61 60 215 
3 62 61 840 
3 76 75 236 
3 98 99 241 
3 77 76 838 
3 74 73 260 
3 96 97 605 
3 122 123 223 
3 120 121 252 
3 119 120 842 
3 118 119 213 
3 13 14 217 
3 12 13 820 
3 120 252 842 
3 16 17 227 
3 213 119 842 
3 34 33 232 
3 28 27 230 
3 31 30 231 
3 6 7 242 
3 9 10 226 
3 27 26 843 
3 19 20 240 
3 26 25 254 
3 20 21 846 
3 21 22 604 
3 253 12 820 
3 230 27 843 
3 26 254 843 
3 240 20 846 
3 21 604 846 
3 469 470 854 
3 248 116 813 
3 360 461 462 
3 834 835 837 
3 672 673 674 
3 553 783 786 
3 435 419 856 
3 404 479 480 
3 967 668 1060 
3 575 639 856 
3 462 463 517 
3 253 822 825 
3 419 481 856 
3 612 613 656 
3 11 253 825 
3 407 406 414 
3 369 367 420 
3 469 418 470 
3 537 469 854 
3 388 389 390 
3 582 583 707 
3 298 295 873 
3 377 376 378 
3 481 574 575 
3 685 537 686 
3 528 622 623 
3 600 521 608 
3 516 465 521 
3 661 660 687 
3 375 373 376 
3 418 377 857 
3 612 600 613 
3 516 600 612 
3 420 367 879 
3 575 606 638 
3 478 450 556 
3 685 686 715 
3 676 674 677 
3 608 521 851 
3 455 453 456 
3 371 370 406 
3 415 497 498 
3 434 520 528 
3 640 641 665 
3 807 248 813 
3 516 521 600 
3 575 574 606 
3 814 813 815 
3 733 732 734 
3 659 559 660 
3 405 419 435 
3 481 537 574 
3 584 585 636 
3 574 537 685 
3 659 660 661 
3 401 384 402 
3 676 677 678 
3 647 529 662 
3 671 670 672 
3 464 456 465 
3 498 529 592 
3 528 623 853 
3 800 798 801 
3 452 454 558 
3 339 343 358 
3 515 465 516 
3 455 464 492 
3 624 517 796 
3 686 537 854 
3 481 469 537 
3 464 465 515 
3 457 409 495 
3 517 463 518 
3 490 576 652 
3 456 863 876 
3 462 461 463 
3 369 420 855 
3 669 597 670 
3 455 456 464 
3 598 514 655 
3 572 667 668 
3 398 396 417 
3 481 575 856 
3 454 453 455 
3 802 800 803 
3 558 559 657 
3 519 499 530 
3 796 518 797 
3 419 469 481 
3 498 497 529 
3 672 674 676 
3 517 518 796 
3 592 529 647 
3 518 463 865 
3 358 359 360 
3 344 340 345 
3 799 800 802 
3 122 223 877 
3 252 121 877 
3 470 418 857 
3 415 457 497 
3 375 376 377 
3 376 373 855 
3 332 336 337 
3 431 432 494 
3 478 556 557 
3 744 618 1094 
3 360 460 461 
3 567 530 649 
3 497 457 508 
3 558 454 559 
3 657 559 659 
3 560 480 561 
3 596 563 597 
3 449 447 450 
3 415 409 457 
3 632 556 901 
3 557 556 632 
3 352 409 415 
3 681 680 708 
3 346 345 404 
3 419 418 469 
3 797 798 799 
3 645 728 729 
3 478 557 619 
3 405 377 418 
3 375 377 405 
3 404 480 560 
3 405 418 419 
3 449 450 451 
3 799 798 800 
3 452 453 454 
3 451 450 478 
3 304 305 900 
3 863 619 876 
3 463 524 865 
3 797 518 798 
3 460 359 620 
3 334 331 335 
3 452 451 453 
3 326 328 361 
3 344 346 352 
3 572 561 640 
3 449 451 452 
3 344 345 346 
3 669 670 671 
3 456 453 863 
3 405 435 858 
3 212 765 767 
3 463 461 524 
3 352 346 409 
3 560 561 572 
3 374 373 375 
3 455 492 862 
3 572 640 667 
3 358 343 359 
3 662 529 860 
3 452 558 861 
3 360 359 460 
3 373 369 855 
3 460 620 621 
3 521 465 876 
3 343 340 344 
3 368 372 416 
3 528 520 622 
3 372 369 373 
3 801 798 865 
3 374 375 858 
3 775 776 957 
3 529 497 860 
3 660 559 862 
3 522 523 629 
3 472 356 918 
3 454 455 862 
3 434 528 872 
3 446 448 506 
3 497 508 860 
3 673 670 899 
3 458 482 522 
3 403 402 421 
3 557 632 633 
3 361 362 363 
3 495 409 866 
3 366 364 367 
3 596 597 669 
3 584 494 585 
3 375 405 858 
3 453 451 863 
3 428 430 431 
3 368 367 369 
3 614 507 615 
3 498 592 898 
3 339 340 343 
3 291 292 293 
3 372 373 374 
3 503 475 549 
3 293 294 295 
3 448 447 449 
3 559 454 862 
3 506 507 614 
3 798 518 865 
3 536 438 563 
3 363 364 365 
3 558 657 887 
3 735 734 736 
3 422 421 490 
3 368 369 372 
3 451 478 863 
3 332 334 336 
3 336 338 339 
3 404 560 866 
3 365 366 370 
3 339 358 870 
3 448 449 861 
3 506 448 507 
3 308 310 357 
3 849 338 871 
3 390 391 392 
3 339 338 340 
3 336 334 338 
3 346 404 866 
3 414 438 499 
3 327 325 329 
3 478 619 863 
3 323 325 326 
3 365 364 366 
3 361 328 362 
3 297 298 299 
3 409 346 866 
3 536 563 596 
3 536 596 701 
3 483 485 628 
3 332 331 334 
3 363 362 364 
3 449 452 861 
3 337 336 870 
3 471 473 610 
3 343 344 864 
3 494 432 872 
3 330 331 332 
3 344 352 864 
3 415 498 890 
3 362 328 562 
3 366 367 368 
3 501 538 539 
3 121 122 877 
3 319 317 320 
3 323 321 324 
3 330 329 331 
3 507 448 861 
3 326 327 328 
3 359 343 864 
3 327 329 330 
3 465 456 876 
3 620 359 864 
3 572 668 886 
3 866 560 886 
3 585 494 872 
3 334 335 871 
3 319 321 322 
3 326 325 327 
3 434 496 520 
3 495 866 886 
3 757 664 885 
3 864 352 890 
3 414 406 438 
3 487 500 501 
3 271 270 272 
3 510 444 531 
3 539 588 589 
3 305 308 900 
3 485 487 902 
3 432 433 434 
3 330 790 874 
3 301 300 302 
3 424 426 427 
3 496 433 509 
3 336 339 870 
3 323 324 325 
3 322 321 323 
3 620 864 890 
3 326 361 869 
3 319 320 321 
3 315 317 318 
3 338 334 871 
3 385 383 386 
3 446 447 448 
3 315 313 316 
3 499 438 536 
3 431 430 432 
3 649 530 651 
3 322 323 869 
3 589 683 684 
3 282 281 283 
3 432 434 872 
3 274 272 275 
3 564 468 565 
3 322 782 905 
3 545 702 706 
3 276 275 277 
3 356 292 892 
3 434 433 496 
3 666 637 703 
3 520 496 535 
3 697 591 698 
3 851 619 894 
3 408 386 458 
3 861 558 887 
3 445 444 510 
3 318 317 319 
3 357 379 380 
3 594 531 637 
3 368 416 875 
3 443 445 446 
3 522 629 710 
3 432 430 433 
3 443 441 444 
3 752 867 936 
3 536 701 888 
3 327 330 874 
3 507 861 887 
3 615 507 887 
3 323 326 869 
3 370 366 875 
3 406 370 878 
3 560 572 886 
3 392 393 394 
3 311 313 314 
3 315 316 317 
3 295 294 873 
3 594 637 666 
3 730 732 733 
3 619 557 894 
3 550 549 607 
3 440 412 468 
3 366 368 875 
3 632 901 917 
3 413 441 442 
3 328 327 874 
3 311 309 312 
3 443 444 445 
3 510 531 594 
3 450 447 883 
3 446 445 447 
3 597 563 912 
3 590 504 591 
3 563 438 878 
3 367 364 879 
3 679 581 955 
3 385 408 439 
3 350 348 354 
3 352 415 890 
3 314 313 315 
3 631 933 945 
3 380 381 382 
3 397 399 423 
3 311 312 313 
3 382 383 384 
3 548 582 868 
3 562 328 874 
3 442 757 915 
3 675 235 1059 
3 84 202 211 
3 364 362 879 
3 408 458 459 
3 729 730 850 
3 357 310 379 
3 362 562 879 
3 446 506 880 
3 85 203 256 
3 385 386 408 
3 381 379 569 
3 546 548 868 
3 370 875 878 
3 427 426 428 
3 438 406 878 
3 530 499 888 
3 384 383 385 
3 447 445 883 
3 491 489 532 
3 499 536 888 
3 86 204 216 
3 442 443 880 
3 652 576 653 
3 445 510 883 
3 382 381 383 
3 310 309 311 
3 952 624 956 
3 436 513 514 
3 556 883 901 
3 890 498 898 
3 87 205 255 
3 488 486 489 
3 557 633 894 
3 428 429 430 
3 290 289 291 
3 442 441 443 
3 921 785 926 
3 423 399 424 
3 545 540 702 
3 509 433 882 
3 428 426 429 
3 430 429 882 
3 380 379 381 
3 756 35 949 
3 88 206 219 
3 670 597 899 
3 307 306 388 
3 351 413 915 
3 398 417 436 
3 651 530 888 
3 433 430 882 
3 621 620 898 
3 402 384 881 
3 319 322 905 
3 490 504 576 
3 473 476 914 
3 350 354 889 
3 590 591 697 
3 443 446 880 
3 730 733 850 
3 441 440 904 
3 440 468 564 
3 410 466 852 
3 673 899 919 
3 413 440 441 
3 304 761 925 
3 89 207 257 
3 590 697 741 
3 395 394 396 
3 620 890 898 
3 490 421 504 
3 242 7 922 
3 296 295 297 
3 385 439 881 
3 564 565 884 
3 565 644 646 
3 384 385 881 
3 531 444 904 
3 305 303 306 
3 487 501 902 
3 90 208 221 
3 736 738 739 
3 91 209 258 
3 210 91 893 
3 308 357 900 
3 82 210 225 
3 578 333 579 
3 299 300 301 
3 311 314 891 
3 424 399 425 
3 308 309 310 
3 510 594 901 
3 733 734 735 
3 416 372 919 
3 576 504 590 
3 318 319 905 
3 440 564 904 
3 310 311 891 
3 674 673 928 
3 444 441 904 
3 468 412 889 
3 386 383 897 
3 305 307 308 
3 501 500 538 
3 279 281 282 
3 424 425 426 
3 395 396 397 
3 610 473 914 
3 287 289 290 
3 677 674 932 
3 413 412 440 
3 308 307 309 
3 483 628 908 
3 439 408 896 
3 883 510 901 
3 539 538 588 
3 505 351 915 
3 611 567 943 
3 379 310 891 
3 408 459 896 
3 293 295 296 
3 637 531 920 
3 589 588 683 
3 381 569 897 
3 397 396 398 
3 491 532 534 
3 296 333 571 
3 305 306 307 
3 383 381 897 
3 414 519 929 
3 397 398 399 
3 569 379 891 
3 274 275 276 
3 677 932 938 
3 276 277 387 
3 488 489 491 
3 271 272 274 
3 268 267 269 
3 282 283 342 
3 591 504 906 
3 899 416 919 
3 351 412 413 
3 565 646 884 
3 269 270 271 
3 388 390 568 
3 491 534 587 
3 901 594 917 
3 297 299 895 
3 296 297 333 
3 307 388 903 
3 412 350 889 
3 549 475 918 
3 578 579 609 
3 475 472 918 
3 421 402 906 
3 587 654 694 
3 312 309 903 
3 436 514 570 
3 644 645 927 
3 607 549 717 
3 945 318 958 
3 587 534 654 
3 351 350 412 
3 875 416 912 
3 301 302 303 
3 570 514 598 
3 938 639 942 
3 290 291 400 
3 403 422 953 
3 538 500 586 
3 598 655 658 
3 878 875 912 
3 511 748 940 
3 349 351 505 
3 420 926 947 
3 309 307 903 
3 674 928 932 
3 571 333 578 
3 388 568 903 
3 290 400 483 
3 570 598 599 
3 485 486 487 
3 402 881 906 
3 684 683 1055 
3 487 488 500 
3 395 777 924 
3 372 374 919 
3 594 666 917 
3 741 218 959 
3 504 421 906 
3 304 303 305 
3 483 484 485 
3 856 639 938 
3 800 801 935 
3 487 486 488 
3 413 442 915 
3 673 919 928 
3 563 878 912 
3 98 241 941 
3 605 97 941 
3 274 276 353 
3 485 484 486 
3 554 855 947 
3 282 342 573 
3 579 333 895 
3 766 950 1074 
3 301 303 304 
3 34 232 949 
3 266 265 267 
3 333 297 895 
3 420 879 926 
3 392 394 395 
3 562 874 921 
3 483 400 484 
3 285 287 908 
3 349 350 351 
3 573 342 626 
3 573 626 627 
3 831 830 984 
3 874 790 921 
3 717 549 918 
3 277 279 909 
3 387 277 909 
3 698 591 934 
3 7 8 922 
3 425 399 913 
3 291 293 910 
3 790 784 921 
3 91 258 893 
3 225 210 893 
3 349 348 350 
3 466 526 852 
3 926 785 947 
3 459 458 939 
3 399 398 913 
3 220 752 936 
3 904 564 920 
3 625 624 952 
3 919 374 928 
3 836 833 954 
3 522 710 939 
3 400 291 910 
3 832 831 954 
3 531 904 920 
3 398 436 913 
3 279 282 909 
3 287 290 908 
3 315 318 945 
3 781 477 974 
3 564 884 920 
3 477 407 978 
3 296 571 910 
3 293 296 910 
3 202 83 930 
3 436 570 913 
3 488 491 916 
3 268 269 273 
3 491 587 916 
3 540 511 940 
3 732 731 972 
3 586 500 916 
3 577 225 893 
3 500 488 916 
3 374 858 928 
3 787 484 944 
3 562 921 926 
3 879 562 926 
3 645 729 927 
3 782 781 971 
3 290 483 908 
3 761 760 977 
3 407 414 929 
3 895 299 925 
3 924 777 957 
3 789 569 933 
3 568 390 924 
3 282 573 909 
3 568 924 957 
3 342 283 948 
3 591 906 934 
3 906 881 934 
3 299 301 925 
3 347 348 349 
3 928 858 932 
3 858 435 932 
3 526 643 923 
3 342 948 966 
3 677 938 942 
3 593 700 979 
3 554 952 956 
3 211 202 930 
3 932 435 938 
3 392 395 924 
3 803 800 935 
3 953 422 1012 
3 347 273 348 
3 268 273 347 
3 400 910 944 
3 90 221 946 
3 258 209 946 
3 435 856 938 
3 974 477 978 
3 631 945 958 
3 458 522 939 
3 891 314 933 
3 390 392 924 
3 209 90 946 
3 266 267 268 
3 97 98 941 
3 881 439 934 
3 301 304 925 
3 590 741 959 
3 574 685 969 
3 569 891 933 
3 678 677 942 
3 957 776 961 
3 653 576 959 
3 910 571 944 
3 533 787 968 
3 567 650 943 
3 331 329 970 
3 908 628 948 
3 933 314 945 
3 285 908 948 
3 702 540 940 
3 648 533 976 
3 314 315 945 
3 855 420 947 
3 283 285 948 
3 1045 259 1058 
3 760 493 993 
3 714 211 1031 
3 495 886 967 
3 554 947 952 
3 501 539 975 
3 273 269 951 
3 89 257 963 
3 35 34 949 
3 83 201 259 
3 221 208 963 
3 630 631 958 
3 624 796 956 
3 581 580 955 
3 987 772 990 
3 971 781 974 
3 484 400 944 
3 493 403 953 
3 738 1040 1050 
3 852 526 923 
3 785 625 952 
3 956 796 960 
3 849 871 980 
3 264 225 265 
3 269 271 951 
3 18 715 1016 
3 833 832 954 
3 658 655 1002 
3 818 480 981 
3 796 797 960 
3 312 961 982 
3 773 772 987 
3 777 775 957 
3 378 554 956 
3 274 353 964 
3 960 797 962 
3 312 903 961 
3 948 628 966 
3 664 663 1036 
3 422 490 988 
3 797 799 962 
3 378 956 960 
3 88 219 973 
3 316 313 982 
3 962 799 965 
3 236 75 989 
3 74 260 989 
3 257 207 973 
3 857 378 960 
3 635 634 992 
3 714 712 1019 
3 576 590 959 
3 622 520 986 
3 992 634 994 
3 977 760 993 
3 208 89 963 
3 799 802 965 
3 9 226 991 
3 264 265 266 
3 857 960 962 
3 318 905 958 
3 947 785 952 
3 705 744 1058 
3 1013 251 1087 
3 320 317 990 
3 896 766 1011 
3 533 968 976 
3 470 857 962 
3 470 962 965 
3 961 776 982 
3 535 817 1067 
3 744 1045 1058 
3 854 470 965 
3 943 650 950 
3 584 636 995 
3 628 902 966 
3 725 724 979 
3 626 342 966 
3 701 215 1054 
3 111 112 1002 
3 24 23 998 
3 71 70 999 
3 73 72 1000 
3 324 321 994 
3 787 944 968 
3 903 568 961 
3 886 668 967 
3 83 259 930 
3 851 894 996 
3 271 274 964 
3 82 225 264 
3 48 220 1009 
3 922 8 991 
3 244 49 1009 
3 951 271 964 
3 329 325 997 
3 944 571 968 
3 324 994 995 
3 603 695 1019 
3 995 636 997 
3 353 276 985 
3 606 574 969 
3 320 990 992 
3 626 966 975 
3 1002 112 1089 
3 316 982 987 
3 731 754 972 
3 335 331 970 
3 636 585 1004 
3 571 578 968 
3 810 429 1056 
3 87 255 1001 
3 219 206 1001 
3 335 1004 1007 
3 630 958 971 
3 895 925 977 
3 966 902 975 
3 735 736 1008 
3 207 88 973 
3 838 236 1010 
3 683 588 1033 
3 568 957 961 
3 211 714 1026 
3 724 593 979 
3 905 782 971 
3 573 627 1005 
3 958 905 971 
3 618 923 1094 
3 629 630 974 
3 695 601 1018 
3 925 761 977 
3 630 971 974 
3 968 578 976 
3 492 713 1093 
3 871 335 1007 
3 642 714 1031 
3 629 974 978 
3 602 682 1018 
3 1002 655 1072 
3 263 79 1013 
3 78 251 1013 
3 816 213 1015 
3 710 629 978 
3 479 980 981 
3 479 849 980 
3 975 539 983 
3 578 609 976 
3 902 501 975 
3 316 987 990 
3 100 101 1014 
3 250 840 1049 
3 480 479 981 
3 439 896 1011 
3 579 895 977 
3 662 860 984 
3 387 909 1005 
3 313 312 982 
3 814 817 1021 
3 776 773 987 
3 17 18 1016 
3 276 387 985 
3 520 535 986 
3 803 935 1086 
3 627 626 983 
3 490 652 988 
3 970 636 1004 
3 991 226 1065 
3 579 977 993 
3 75 74 989 
3 808 807 1021 
3 867 245 1033 
3 746 243 1044 
3 260 1000 1084 
3 703 637 1027 
3 768 228 1008 
3 317 316 990 
3 320 992 994 
3 764 763 1023 
3 238 111 1002 
3 8 9 991 
3 803 1086 1100 
3 335 970 1004 
3 772 635 992 
3 86 216 1017 
3 255 205 1017 
3 663 614 1024 
3 982 776 987 
3 898 592 1020 
3 532 648 1025 
3 222 64 1029 
3 63 250 1029 
3 321 320 994 
3 249 795 1036 
3 658 1002 1089 
3 85 256 1022 
3 811 810 1056 
3 216 204 1022 
3 609 579 993 
3 634 584 995 
3 990 772 992 
3 812 599 1048 
3 656 1013 1087 
3 994 634 995 
3 608 851 996 
3 516 612 1034 
3 848 24 998 
3 70 261 999 
3 260 73 1000 
3 324 995 997 
3 206 87 1001 
3 325 324 997 
3 66 65 1035 
3 84 211 1026 
3 256 203 1026 
3 698 934 1011 
3 841 234 1024 
3 613 600 1037 
3 626 975 983 
3 652 653 1030 
3 738 740 1040 
3 689 687 1041 
3 1004 853 1007 
3 585 853 1004 
3 1010 236 1090 
3 1025 652 1030 
3 233 109 1064 
3 605 941 1006 
3 688 690 1006 
3 687 660 1041 
3 570 599 1038 
3 853 623 1007 
3 633 845 1068 
3 862 492 1041 
3 218 741 1071 
3 736 739 1008 
3 909 573 1005 
3 920 884 1027 
3 524 461 1047 
3 460 621 1047 
3 701 596 1049 
3 214 812 1048 
3 647 991 1065 
3 49 48 1009 
3 6 242 1052 
3 941 688 1006 
3 765 766 1074 
3 640 665 1053 
3 223 837 1060 
3 31 231 1057 
3 103 841 1059 
3 917 231 1062 
3 764 1023 1098 
3 235 102 1059 
3 238 1002 1072 
3 848 998 1039 
3 495 967 1078 
3 633 632 1062 
3 67 66 1061 
3 733 735 1044 
3 425 913 1038 
3 795 792 1032 
3 823 821 1063 
3 648 988 1025 
3 52 218 1071 
3 839 838 1010 
3 246 53 1071 
3 599 598 1048 
3 676 678 1035 
3 426 425 1056 
3 831 984 1083 
3 247 859 1069 
3 756 646 1070 
3 666 703 1057 
3 659 661 1014 
3 266 268 1042 
3 712 603 1019 
3 768 1008 1085 
3 826 822 1077 
3 643 1045 1094 
3 988 652 1025 
3 99 100 1075 
3 646 644 1070 
3 3 80 1079 
3 23 3 1079 
3 128 0 1080 
3 0 4 1080 
3 72 1 1081 
3 1 96 1081 
3 2 71 1082 
3 22 2 1082 
3 829 262 1080 
3 113 214 1089 
3 942 639 1051 
3 587 694 1066 
3 508 457 1078 
3 672 676 1102 
3 16 227 1100 
3 217 14 1086 
3 713 691 1093 
3 882 810 1088 
3 648 976 1012 
3 967 836 1078 
3 865 524 1096 
3 1008 739 1085 
3 79 78 1013 
3 935 217 1086 
3 690 692 1084 
3 586 867 1097 
3 1040 778 1050 
3 1005 627 1040 
3 101 235 1014 
3 609 953 1012 
3 927 729 1076 
3 592 647 1065 
3 213 842 1015 
3 538 586 1097 
3 934 439 1011 
3 810 808 1088 
3 693 1010 1090 
3 819 237 1051 
3 586 916 1066 
3 936 586 1066 
3 227 17 1016 
3 704 705 1058 
3 205 86 1017 
3 601 602 1018 
3 792 794 1032 
3 976 609 1012 
3 894 633 1068 
3 763 246 1023 
3 807 814 1021 
3 816 1015 1067 
3 204 85 1022 
3 713 515 1046 
3 621 898 1020 
3 884 646 1092 
3 984 860 1083 
3 697 698 1023 
3 614 615 1024 
3 758 244 1028 
3 534 532 1025 
3 794 793 1042 
3 788 651 1054 
3 646 949 1092 
3 998 263 1039 
3 203 84 1026 
3 637 920 1027 
3 245 749 1033 
3 1023 698 1098 
3 534 1025 1030 
3 64 63 1029 
3 740 1005 1040 
3 81 704 1099 
3 643 642 1031 
3 739 738 1050 
3 505 885 1032 
3 606 847 1043 
3 654 534 1030 
3 222 1029 1102 
3 515 516 1034 
3 218 758 1091 
3 888 701 1054 
3 651 888 1054 
3 1020 826 1077 
3 65 222 1035 
3 804 249 1036 
3 600 608 1037 
3 817 816 1067 
3 612 656 1087 
3 693 713 1046 
3 829 5 1052 
3 913 570 1038 
3 627 778 1040 
3 231 844 1062 
3 656 613 1039 
3 959 218 1091 
3 660 862 1041 
3 252 877 1053 
3 743 705 1072 
3 877 667 1053 
3 711 535 1067 
3 201 81 1099 
3 524 1063 1096 
3 638 606 1043 
3 850 733 1044 
3 268 347 1042 
3 461 460 1047 
3 596 669 1049 
3 650 859 1074 
3 1028 244 1073 
3 867 1033 1097 
3 778 684 1050 
3 1015 711 1067 
3 598 658 1048 
3 639 638 1051 
3 830 829 1052 
3 5 6 1052 
3 930 259 1045 
3 667 640 1053 
3 215 788 1054 
3 224 769 1055 
3 996 894 1068 
3 244 1009 1073 
3 950 650 1074 
3 1041 492 1093 
3 32 31 1057 
3 429 426 1056 
3 102 103 1059 
3 808 1021 1088 
3 837 835 1060 
3 237 67 1061 
3 793 233 1064 
3 954 831 1083 
3 821 824 1063 
3 1055 769 1085 
3 632 917 1062 
3 229 756 1070 
3 226 826 1065 
3 655 743 1072 
3 1029 671 1102 
3 998 23 1079 
3 71 999 1082 
3 1000 72 1081 
3 859 765 1074 
3 508 954 1083 
3 1027 884 1092 
3 223 1060 1101 
3 779 247 1069 
3 927 229 1070 
3 705 238 1072 
3 916 587 1066 
3 515 1034 1046 
3 845 230 1068 
3 53 52 1071 
3 236 989 1090 
3 769 768 1085 
3 644 927 1070 
3 1010 693 1046 
3 1055 1085 1095 
3 822 823 1077 
3 241 99 1075 
3 694 654 1073 
3 80 263 1079 
3 262 128 1080 
3 96 605 1081 
3 604 22 1082 
3 457 495 1078 
3 766 764 1098 
3 729 850 1076 
3 230 996 1068 
3 860 508 1083 
3 1045 744 1094 
3 14 15 1086 
3 251 839 1087 
3 112 113 1089 
3 949 232 1092 
3 692 693 1090 
3 509 882 1088 
3 691 689 1093 
3 1009 694 1073 
3 1086 15 1100 
3 259 201 1099 
3 621 1020 1077 
3 801 865 1096 
3 15 16 1100 
3 653 959 1091 
3 824 217 1103 
3 935 801 1103 
3 668 667 1101 
3 671 672 1102 
3 588 538 1097 
3 923 643 1094 
3 263 998 1079 
3 999 604 1082 
3 605 1000 1081 
3 989 692 1090 
3 1096 824 1103 
3 801 1096 1103 
3 217 935 1103 
3 698 1011 1098 
3 1021 509 1088 
3 1033 588 1097 
3 1006 690 1084 
3 232 1027 1092 
3 1011 766 1098 
3 689 1041 1093 
3 739 1050 1095 
3 1028 653 1091 
3 758 1028 1091 
3 1058 259 1099 
3 1050 684 1095 
3 684 1055 1095 
3 1060 668 1101 
3 1063 824 1096 
3 704 1058 1099 
3 1085 739 1095 
3 166 167 129 
3 130 166 129 
3 165 166 130 
3 131 165 130 
3 164 165 131 
3 132 164 131 
3 163 164 132 
3 133 163 132 
3 162 163 133 
3 162 133 134 
3 161 162 134 
3 135 161 134 
3 160 161 135 
3 136 160 135 
3 159 160 136 
3 137 159 136 
3 89 147 1104 
3 158 159 137 
3 158 137 138 
3 147 148 1104 
3 158 138 157 
3 157 138 139 
3 147 89 149 
3 156 157 139 
3 156 139 140 
3 155 156 140 
3 155 140 141 
3 154 155 141 
3 142 154 141 
3 207 89 1104 
3 153 154 142 
3 153 142 143 
3 152 153 143 
3 152 143 144 
3 151 144 145 
3 151 152 144 
3 145 146 150 
3 151 145 150 
3 146 147 149 
3 146 149 150 
3 148 207 1104 
3 93 92 1105 
3 129 167 1105 
3 92 129 1105 
3 167 93 1105 
3 148 88 207 
3 166 167 168 
3 169 166 168 
3 165 166 169 
3 170 165 169 
3 164 165 170 
3 171 164 170 
3 163 164 171 
3 172 163 171 
3 162 163 172 
3 173 162 172 
3 161 162 173 
3 174 161 173 
3 160 161 174 
3 160 174 175 
3 159 160 175 
3 150 90 1106 
3 176 159 175 
3 90 150 184 
3 159 176 158 
3 176 177 158 
3 158 177 157 
3 177 178 157 
3 178 156 157 
3 156 178 179 
3 149 150 1106 
3 156 179 155 
3 179 180 155 
3 180 154 155 
3 180 181 154 
3 181 153 154 
3 182 153 181 
3 153 182 152 
3 152 182 183 
3 151 183 184 
3 151 152 183 
3 90 208 1106 
3 150 151 184 
3 208 149 1106 
3 93 94 1107 
3 168 167 1107 
3 94 168 1107 
3 167 93 1107 
3 89 149 208 
3 199 200 168 
3 169 199 168 
3 198 199 169 
3 170 198 169 
3 197 198 170 
3 171 197 170 
3 196 197 171 
3 172 196 171 
3 195 196 172 
3 173 195 172 
3 194 195 173 
3 174 194 173 
3 193 194 174 
3 91 183 1108 
3 193 174 175 
3 192 193 175 
3 183 184 1108 
3 176 192 175 
3 192 176 191 
3 183 91 185 
3 176 177 191 
3 177 190 191 
3 177 178 190 
3 178 189 190 
3 178 179 189 
3 209 91 1108 
3 179 188 189 
3 179 180 188 
3 180 181 187 
3 180 187 188 
3 181 182 186 
3 181 186 187 
3 182 183 185 
3 182 185 186 
3 184 209 1108 
3 95 94 1109 
3 168 200 1109 
3 94 168 1109 
3 200 95 1109 
3 90 209 184 
3 199 200 96 
3 199 96 97 
3 198 199 97 
3 198 97 98 
3 197 198 98 
3 197 98 99 
3 196 197 99 
3 196 99 100 
3 195 196 100 
3 195 100 101 
3 194 195 101 
3 194 101 102 
3 186 82 1110 
3 193 194 102 
3 109 82 186 
3 193 102 103 
3 192 193 103 
3 104 192 103 
3 191 192 104 
3 105 191 104 
3 190 191 105 
3 190 105 106 
3 185 186 1110 
3 190 106 189 
3 106 107 189 
3 107 188 189 
3 107 108 188 
3 108 109 187 
3 188 108 187 
3 187 109 186 
3 82 210 1110 
3 210 185 1110 
3 95 1 1111 
3 96 200 1111 
3 1 96 1111 
3 200 95 1111 
3 210 91 185 

CELL_TYPES 2085
5
5
5
5
5
5
5
5
5
5
5
5
5
5
5
5
5
5
5
5
5
5
5
5
5
5
5
5
5
5
5
5
5
5
5
5
5
5
5
5
5
5
5
5
5
5
5
5
5
5
5
5
5
5
5
5
5
5
5
5
5
5
5
5
5
5
5
5
5
5
5
5
5
5
5
5
5
5
5
5
5
5
5
5
5
5
5
5
5
5
5
5
5
5
5
5
5
5
5
5
5
5
5
5
5
5
5
5
5
5
5
5
5
5
5
5
5
5
5
5
5
5
5
5
5
5
5
5
5
5
5
5
5
5
5
5
5
5
5
5
5
5
5
5
5
5
5
5
5
5
5
5
5
5
5
5
5
5
5
5
5
5
5
5
5
5
5
5
5
5
5
5
5
5
5
5
5
5
5
5
5
5
5
5
5
5
5
5
5
5
5
5
5
5
5
5
5
5
5
5
5
5
5
5
5
5
5
5
5
5
5
5
5
5
5
5
5
5
5
5
5
5
5
5
5
5
5
5
5
5
5
5
5
5
5
5
5
5
5
5
5
5
5
5
5
5
5
5
5
5
5
5
5
5
5
5
5
5
5
5
5
5
5
5
5
5
5
5
5
5
5
5
5
5
5
5
5
5
5
5
5
5
5
5
5
5
5
5
5
5
5
5
5
5
5
5
5
5
5
5
5
5
5
5
5
5
5
5
5
5
5
5
5
5
5
5
5
5
5
5
5
5
5
5
5
5
5
5
5
5
5
5
5
5
5
5
5
5
5
5
5
5
5
5
5
5
5
5
5
5
5
5
5
5
5
5
5
5
5
5
5
5
5
5
5
5
5
5
5
5
5
5
5
5
5
5
5
5
5
5
5
5
5
5
5
5
5
5
5
5
5
5
5
5
5
5
5
5
5
5
5
5
5
5
5
5
5
5
5
5
5
5
5
5
5
5
5
5
5
5
5
5
5
5
5
5
5
5
5
5
5
5
5
5
5
5
5
5
5
5
5
5
5
5
5
5
5
5
5
5
5
5
5
5
5
5
5
5
5
5
5
5
5
5
5
5
5
5
5
5
5
5
5
5
5
5
5
5
5
5
5
5
5
5
5
5
5
5
5
5
5
5
5
5
5
5
5
5
5
5
5
5
5
5
5
5
5
5
5
5
5
5
5
5
5
5
5
5
5
5
5
5
5
5
5
5
5
5
5
5
5
5
5
5
5
5
5
5
5
5
5
5
5
5
5
5
5
5
5
5
5
5
5
5
5
5
5
5
5
5
5
5
5
5
5
5
5
5
5
5
5
5
5
5
5
5
5
5
5
5
5
5
5
5
5
5
5
5
5
5
5
5
5
5
5
5
5
5
5
5
5
5
5
5
5
5
5
5
5
5
5
5
5
5
5
5
5
5
5
5
5
5
5
5
5
5
5
5
5
5
5
5
5
5
5
5
5
5
5
5
5
5
5
5
5
5
5
5
5
5
5
5
5
5
5
5
5
5
5
5
5
5
5
5
5
5
5
5
5
5
5
5
5
5
5
5
5
5
5
5
5
5
5
5
5
5
5
5
5
5
5
5
5
5
5
5
5
5
5
5
5
5
5
5
5
5
5
5
5
5
5
5
5
5
5
5
5
5
5
5
5
5
5
5
5
5
5
5
5
5
5
5
5
5
5
5
5
5
5
5
5
5
5
5
5
5
5
5
5
5
5
5
5
5
5
5
5
5
5
5
5
5
5
5
5
5
5
5
5
5
5
5
5
5
5
5
5
5
5
5
5
5
5
5
5
5
5
5
5
5
5
5
5
5
5
5
5
5
5
5
5
5
5
5
5
5
5
5
5
5
5
5
5
5
5
5
5
5
5
5
5
5
5
5
5
5
5
5
5
5
5
5
5
5
5
5
5
5
5
5
5
5
5
5
5
5
5
5
5
5
5
5
5
5
5
5
5
5
5
5
5
5
5
5
5
5
5
5
5
5
5
5
5
5
5
5
5
5
5
5
5
5
5
5
5
5
5
5
5
5
5
5
5
5
5
5
5
5
5
5
5
5
5
5
5
5
5
5
5
5
5
5
5
5
5
5
5
5
5
5
5
5
5
5
5
5
5
5
5
5
5
5
5
5
5
5
5
5
5
5
5
5
5
5
5
5
5
5
5
5
5
5
5
5
5
5
5
5
5
5
5
5
5
5
5
5
5
5
5
5
5
5
5
5
5
5
5
5
5
5
5
5
5
5
5
5
5
5
5
5
5
5
5
5
5
5
5
5
5
5
5
5
5
5
5
5
5
5
5
5
5
5
5
5
5
5
5
5
5
5
5
5
5
5
5
5
5
5
5
5
5
5
5
5
5
5
5
5
5
5
5
5
5
5
5
5
5
5
5
5
5
5
5
5
5
5
5
5
5
5
5
5
5
5
5
5
5
5
5
5
5
5
5
5
5
5
5
5
5
5
5
5
5
5
5
5
5
5
5
5
5
5
5
5
5
5
5
5
5
5
5
5
5
5
5
5
5
5
5
5
5
5
5
5
5
5
5
5
5
5
5
5
5
5
5
5
5
5
5
5
5
5
5
5
5
5
5
5
5
5
5
5
5
5
5
5
5
5
5
5
5
5
5
5
5
5
5
5
5
5
5
5
5
5
5
5
5
5
5
5
5
5
5
5
5
5
5
5
5
5
5
5
5
5
5
5
5
5
5
5
5
5
5
5
5
5
5
5
5
5
5
5
5
5
5
5
5
5
5
5
5
5
5
5
5
5
5
5
5
5
5
5
5
5
5
5
5
5
5
5
5
5
5
5
5
5
5
5
5
5
5
5
5
5
5
5
5
5
5
5
5
5
5
5
5
5
5
5
5
5
5
5
5
5
5
5
5
5
5
5
5
5
5
5
5
5
5
5
5
5
5
5
5
5
5
5
5
5
5
5
5
5
5
5
5
5
5
5
5
5
5
5
5
5
5
5
5
5
5
5
5
5
5
5
5
5
5
5
5
5
5
5
5
5
5
5
5
5
5
5
5
5
5
5
5
5
5
5
5
5
5
5
5
5
5
5
5
5
5
5
5
5
5
5
5
5
5
5
5
5
5
5
5
5
5
5
5
5
5
5
5
5
5
5
5
5
5
5
5
5
5
5
5
5
5
5
5
5
5
5
5
5
5
5
5
5
5
5
5
5
5
5
5
5
5
5
5
5
5
5
5
5
5
5
5
5
5
5
5
5
5
5
5
5
5
5
5
5
5
5
5
5
5
5
5
5
5
5
5
5
5
5
5
5
5
5
5
5
5
5
5
5
5
5
5
5
5
5
5
5
5
5
5
5
5
5
5
5
5
5
5
5
5
5
5
5
5
5
5
5
5
5
5
5
5
5
5
5
5
5
5
5
5
5
5
5
5
5
5
5
5
5
5
5
5
5
5
5
5
5
5
5
5
5
5
5
5
5
5
5
5
5
5
5
5
5
5
5
5
5
5
5
5
5
5
5
5
5
5
5
5
5
5
5
5
5
5
5
5
5
5
5
5
5
5
5
5
5
5
5
5
5
5
5
5
5
5
5
5
5
5
5
5
5
5
5
5
5
5
5
5
5
5
5
5
5
5
5
5
5
5
5
5
5
5
5
5
5
5
5
5
5
5
5
5
5
5
5
5
5
5
5
5
5
5
5
5
5
5
5
5
5
5
5
5
5
5
5
5
5
5
5
5
5
5
5
5
5
5
5
5
5
5
5
5
5
5
5
5
5
5
5
5
5
5
5
5
5
5
5
5
5
5
5
5
5
5
5
5
5
5
5
5
5
5
5
5
5
5
5
5
5
5
5
5
5
5
5
5
5
5
5
5
5
5
5
5
5
5
5
5
5
5
5
5
5
5
5
5
5
5
5
5
5
5
5
5
5
5
5
5
5
5
5
5
5
5
5
5
5
5
5
5
5
5
5
5
5
5
5
5
5
5
5
5
5
5
5
5
5
5
5
5
5
5
5
5
5
5
5
5
5
5
5
5
5
5
5
5
5
5
5
5
5
5
5
5
5
5
5
5
5
5
5
5
5
5
5
5
5
5
5
5
5
5
5
5
5
5
5
5
5
5
5
5
5
5
5
5
5
5
5
5
5
5
5
5
5
5
5
5
5
5
5
5
5
5
5
5
5
5
5
5
5
5
5
5
5
5
5
5
5
5
5
5
5
5
5
5
5
5
5
5
5
5
5
5
5
5
5
5
5
5
5
5
5
5
5
5
5
5
5
5
5
5
5
5
5
5
5
5
5
5
5
5
5
5
5
5
5
5
5
5
5
5
5
5
5
5
5
5
5
5
5
5
5
5
5
5
5
5
5
5
5
5
5
5
5
5
5
5
5
5
5
5
5
5
5
5
5
5
5
5
5
5
5
5
5
5
5
5
5
5
5
5
5
5
5
5
5
5
5
5
5
5
5
5
5
5
5
5
5
5
5
5
5
5
5
5
5
5
5
5
5
5
5
5
5
5
5
5
5
5
5
5
5
5
5
5
5
5
5
5
5
5
5
5
5
5
5
5
5
5
5
5
5
5
5
5
5
5
5
5
5
5
5
5
5
5
5
5
5
5
5
5
5
5
5
5
5
5
5
5
5
5
5
5
5
5
5
5
5
5
5
5
5
5
5
5
5
5
5
5
5
5
5
5
5
5
5
5
5
5
5
5
5
5
5
5
5
5
5
5
5
5
5
5
5
5
5
5
5
5
5
5

POINT_DATA 1112

VECTORS coord float
0.0 0.0 0.0 
5.000000000000e+01 -1.000000000000e+01 0.0 
0.0 -2.000000000000e+01 0.0 
5.000000000000e+01 -2.000000000000e+01 0.0 
0.0 -9.999999999991e-01 0.0 
0.0 -1.999999999998e+00 0.0 
0.0 -2.999999999997e+00 0.0 
0.0 -3.999999999994e+00 0.0 
0.0 -4.999999999991e+00 0.0 
0.0 -5.999999999988e+00 0.0 
0.0 -6.999999999985e+00 0.0 
0.0 -7.999999999982e+00 0.0 
0.0 -8.999999999983e+00 0.0 
0.0 -9.999999999985e+00 0.0 
0.0 -1.099999999999e+01 0.0 
0.0 -1.199999999999e+01 0.0 
0.0 -1.299999999999e+01 0.0 
0.0 -1.399999999999e+01 0.0 
0.0 -1.499999999999e+01 0.0 
0.0 -1.599999999999e+01 0.0 
0.0 -1.700000000000e+01 0.0 
0.0 -1.800000000000e+01 0.0 
0.0 -1.900000000000e+01 0.0 
4.900000000001e+01 -2.000000000000e+01 0.0 
4.800000000001e+01 -2.000000000000e+01 0.0 
4.700000000002e+01 -2.000000000000e+01 0.0 
4.600000000003e+01 -2.000000000000e+01 0.0 
4.500000000004e+01 -2.000000000000e+01 0.0 
4.400000000004e+01 -2.000000000000e+01 0.0 
4.300000000005e+01 -2.000000000000e+01 0.0 
4.200000000006e+01 -2.000000000000e+01 0.0 
4.100000000006e+01 -2.000000000000e+01 0.0 
4.000000000007e+01 -2.000000000000e+01 0.0 
3.900000000008e+01 -2.000000000000e+01 0.0 
3.800000000009e+01 -2.000000000000e+01 0.0 
3.700000000009e+01 -2.000000000000e+01 0.0 
3.600000000010e+01 -2.000000000000e+01 0.0 
3.500000000011e+01 -2.000000000000e+01 0.0 
3.400000000011e+01 -2.000000000000e+01 0.0 
3.300000000012e+01 -2.000000000000e+01 0.0 
3.200000000013e+01 -2.000000000000e+01 0.0 
3.100000000013e+01 -2.000000000000e+01 0.0 
3.000000000013e+01 -2.000000000000e+01 0.0 
2.900000000013e+01 -2.000000000000e+01 0.0 
2.800000000013e+01 -2.000000000000e+01 0.0 
2.700000000013e+01 -2.000000000000e+01 0.0 
2.600000000013e+01 -2.000000000000e+01 0.0 
2.500000000013e+01 -2.000000000000e+01 0.0 
2.400000000013e+01 -2.000000000000e+01 0.0 
2.300000000013e+01 -2.000000000000e+01 0.0 
2.200000000013e+01 -2.000000000000e+01 0.0 
2.100000000013e+01 -2.000000000000e+01 0.0 
2.000000000013e+01 -2.000000000000e+01 0.0 
1.900000000013e+01 -2.000000000000e+01 0.0 
1.800000000013e+01 -2.000000000000e+01 0.0 
1.700000000012e+01 -2.000000000000e+01 0.0 
1.600000000011e+01 -2.000000000000e+01 0.0 
1.500000000011e+01 -2.000000000000e+01 0.0 
1.400000000010e+01 -2.000000000000e+01 0.0 
1.300000000009e+01 -2.000000000000e+01 0.0 
1.200000000009e+01 -2.000000000000e+01 0.0 
1.100000000008e+01 -2.000000000000e+01 0.0 
1.000000000007e+01 -2.000000000000e+01 0.0 
9.000000000064e+00 -2.000000000000e+01 0.0 
8.000000000057e+00 -2.000000000000e+01 0.0 
7.000000000050e+00 -2.000000000000e+01 0.0 
6.000000000043e+00 -2.000000000000e+01 0.0 
5.000000000036e+00 -2.000000000000e+01 0.0 
4.000000000028e+00 -2.000000000000e+01 0.0 
3.000000000021e+00 -2.000000000000e+01 0.0 
2.000000000014e+00 -2.000000000000e+01 0.0 
1.000000000007e+00 -2.000000000000e+01 0.0 
5.000000000000e+01 -1.100000000000e+01 0.0 
5.000000000000e+01 -1.200000000000e+01 0.0 
5.000000000000e+01 -1.300000000000e+01 0.0 
5.000000000000e+01 -1.400000000000e+01 0.0 
5.000000000000e+01 -1.500000000000e+01 0.0 
5.000000000000e+01 -1.600000000000e+01 0.0 
5.000000000000e+01 -1.700000000000e+01 0.0 
5.000000000000e+01 -1.800000000000e+01 0.0 
5.000000000000e+01 -1.900000000000e+01 0.0 
2.000000000000e+01 0.0 0.0 
3.500000000000e+01 -1.000000000000e+01 0.0 
2.150000000000e+01 -1.000000000000e+00 0.0 
2.300000000000e+01 -2.000000000000e+00 0.0 
2.450000000000e+01 -3.000000000000e+00 0.0 
2.600000000000e+01 -4.000000000000e+00 0.0 
2.750000000000e+01 -5.000000000000e+00 0.0 
2.900000000000e+01 -6.000000000000e+00 0.0 
3.050000000000e+01 -7.000000000000e+00 0.0 
3.200000000000e+01 -8.000000000000e+00 0.0 
3.350000000000e+01 -9.000000000000e+00 0.0 
5.000000000000e+01 -6.000000000000e+00 0.0 
5.000000000000e+01 -7.000000000000e+00 0.0 
5.000000000000e+01 -8.000000000000e+00 0.0 
5.000000000000e+01 -9.000000000000e+00 0.0 
4.900000000000e+01 -1.000000000000e+01 0.0 
4.800000000000e+01 -1.000000000000e+01 0.0 
4.700000000000e+01 -1.000000000000e+01 0.0 
4.600000000000e+01 -1.000000000000e+01 0.0 
4.500000000000e+01 -1.000000000000e+01 0.0 
4.400000000000e+01 -1.000000000000e+01 0.0 
4.300000000000e+01 -1.000000000000e+01 0.0 
4.200000000000e+01 -1.000000000000e+01 0.0 
4.100000000000e+01 -1.000000000000e+01 0.0 
4.000000000000e+01 -1.000000000000e+01 0.0 
3.900000000000e+01 -1.000000000000e+01 0.0 
3.800000000000e+01 -1.000000000000e+01 0.0 
3.700000000000e+01 -1.000000000000e+01 0.0 
3.600000000000e+01 -1.000000000000e+01 0.0 
1.900000000000e+01 0.0 0.0 
1.800000000000e+01 0.0 0.0 
1.700000000000e+01 0.0 0.0 
1.600000000000e+01 0.0 0.0 
1.500000000000e+01 0.0 0.0 
1.400000000000e+01 0.0 0.0 
1.300000000000e+01 0.0 0.0 
1.200000000000e+01 0.0 0.0 
1.100000000000e+01 0.0 0.0 
1.000000000000e+01 0.0 0.0 
9.000000000000e+00 0.0 0.0 
8.000000000000e+00 0.0 0.0 
7.000000000000e+00 0.0 0.0 
6.000000000000e+00 0.0 0.0 
5.000000000000e+00 0.0 0.0 
4.000000000000e+00 0.0 0.0 
3.000000000000e+00 0.0 0.0 
2.000000000000e+00 0.0 0.0 
1.000000000000e+00 0.0 0.0 
4.900000000001e+01 -6.000000000000e+00 0.0 
4.800000000003e+01 -6.000000000000e+00 0.0 
4.700000000004e+01 -6.000000000000e+00 0.0 
4.600000000006e+01 -6.000000000000e+00 0.0 
4.500000000007e+01 -6.000000000000e+00 0.0 
4.400000000009e+01 -6.000000000000e+00 0.0 
4.300000000010e+01 -6.000000000000e+00 0.0 
4.200000000012e+01 -6.000000000000e+00 0.0 
4.100000000013e+01 -6.000000000000e+00 0.0 
4.000000000014e+01 -6.000000000000e+00 0.0 
3.900000000014e+01 -6.000000000000e+00 0.0 
3.800000000012e+01 -6.000000000000e+00 0.0 
3.700000000010e+01 -6.000000000000e+00 0.0 
3.600000000008e+01 -6.000000000000e+00 0.0 
3.500000000006e+01 -6.000000000000e+00 0.0 
3.400000000005e+01 -6.000000000000e+00 0.0 
3.300000000003e+01 -6.000000000000e+00 0.0 
3.200000000001e+01 -6.000000000000e+00 0.0 
3.100000000000e+01 -6.000000000000e+00 0.0 
3.000000000000e+01 -6.000000000000e+00 0.0 
3.147499999998e+01 -7.000000000000e+00 0.0 
3.244999999998e+01 -7.000000000000e+00 0.0 
3.342499999998e+01 -7.000000000000e+00 0.0 
3.439999999998e+01 -7.000000000000e+00 0.0 
3.537499999998e+01 -7.000000000000e+00 0.0 
3.634999999998e+01 -7.000000000000e+00 0.0 
3.732499999998e+01 -7.000000000000e+00 0.0 
3.829999999998e+01 -7.000000000000e+00 0.0 
3.927499999999e+01 -7.000000000000e+00 0.0 
4.024999999999e+01 -7.000000000000e+00 0.0 
4.122499999999e+01 -7.000000000000e+00 0.0 
4.219999999999e+01 -7.000000000000e+00 0.0 
4.317499999999e+01 -7.000000000000e+00 0.0 
4.414999999999e+01 -7.000000000000e+00 0.0 
4.512499999999e+01 -7.000000000000e+00 0.0 
4.609999999999e+01 -7.000000000000e+00 0.0 
4.707500000000e+01 -7.000000000000e+00 0.0 
4.805000000000e+01 -7.000000000000e+00 0.0 
4.902500000000e+01 -7.000000000000e+00 0.0 
4.900000000000e+01 -8.000000000000e+00 0.0 
4.800000000000e+01 -8.000000000000e+00 0.0 
4.700000000000e+01 -8.000000000000e+00 0.0 
4.600000000000e+01 -8.000000000000e+00 0.0 
4.500000000000e+01 -8.000000000000e+00 0.0 
4.400000000000e+01 -8.000000000000e+00 0.0 
4.300000000000e+01 -8.000000000000e+00 0.0 
4.200000000000e+01 -8.000000000000e+00 0.0 
4.100000000000e+01 -8.000000000000e+00 0.0 
4.000000000000e+01 -8.000000000000e+00 0.0 
3.900000000000e+01 -8.000000000000e+00 0.0 
3.800000000000e+01 -8.000000000000e+00 0.0 
3.700000000000e+01 -8.000000000000e+00 0.0 
3.600000000000e+01 -8.000000000000e+00 0.0 
3.500000000000e+01 -8.000000000000e+00 0.0 
3.400000000000e+01 -8.000000000000e+00 0.0 
3.300000000000e+01 -8.000000000000e+00 0.0 
3.447058823527e+01 -9.000000000000e+00 0.0 
3.544117647055e+01 -9.000000000000e+00 0.0 
3.641176470582e+01 -9.000000000000e+00 0.0 
3.738235294109e+01 -9.000000000000e+00 0.0 
3.835294117637e+01 -9.000000000000e+00 0.0 
3.932352941164e+01 -9.000000000000e+00 0.0 
4.029411764691e+01 -9.000000000000e+00 0.0 
4.126470588219e+01 -9.000000000000e+00 0.0 
4.223529411748e+01 -9.000000000000e+00 0.0 
4.320588235279e+01 -9.000000000000e+00 0.0 
4.417647058811e+01 -9.000000000000e+00 0.0 
4.514705882342e+01 -9.000000000000e+00 0.0 
4.611764705874e+01 -9.000000000000e+00 0.0 
4.708823529405e+01 -9.000000000000e+00 0.0 
4.805882352937e+01 -9.000000000000e+00 0.0 
4.902941176468e+01 -9.000000000000e+00 0.0 
2.075000000000e+01 -5.000000000006e-01 0.0 
2.225000000000e+01 -1.500000000000e+00 0.0 
2.375000000000e+01 -2.500000000000e+00 0.0 
2.525000000000e+01 -3.500000000000e+00 0.0 
2.675000000000e+01 -4.500000000000e+00 0.0 
2.825000000000e+01 -5.500000000000e+00 0.0 
2.975000000000e+01 -6.500000000000e+00 0.0 
3.125000000000e+01 -7.500000000000e+00 0.0 
3.275000000000e+01 -8.500000000000e+00 0.0 
3.425000000000e+01 -9.500000000000e+00 0.0 
2.226951693683e+01 -2.403913980114e+00 0.0 
1.650149491944e+01 -1.913490915758e+01 0.0 
1.050042386896e+01 -8.504605092970e-01 0.0 
1.553146524712e+01 -8.281255032105e-01 0.0 
1.150000000008e+01 -1.913397459621e+01 0.0 
2.530060260647e+01 -4.428336431260e+00 0.0 
8.651114563942e-01 -1.052096295641e+01 0.0 
2.050000000013e+01 -1.913397459622e+01 0.0 
2.819198729811e+01 -6.399519052838e+00 0.0 
2.445670302931e+01 -1.915649188023e+01 0.0 
3.117591465718e+01 -8.394293040695e+00 0.0 
7.465053044742e+00 -1.920411160581e+01 0.0 
6.398295709691e+00 -8.230098819370e-01 0.0 
2.849659607461e+01 -1.914296187762e+01 0.0 
3.418732642882e+01 -1.040265792588e+01 0.0 
8.386450935063e-01 -6.533605142809e+00 0.0 
9.178661865596e-01 -1.329769195597e+01 0.0 
3.149448624493e+01 -1.910466733764e+01 0.0 
3.552916747426e+01 -1.914628590759e+01 0.0 
4.449210346537e+01 -1.914359085008e+01 0.0 
4.140975975145e+01 -1.906941860733e+01 0.0 
3.847475958753e+01 -1.916622382724e+01 0.0 
3.653774794640e+01 -1.088712800241e+01 0.0 
4.047886341787e+01 -1.090139014048e+01 0.0 
4.348006339825e+01 -1.092792621489e+01 0.0 
4.919519968029e+01 -1.451526755068e+01 0.0 
4.500000000032e+00 -1.913397459621e+01 0.0 
1.856136921614e+01 -8.212235170404e-01 0.0 
3.499895312306e+00 -8.661165539723e-01 0.0 
9.076088696565e-01 -1.642306201891e+01 0.0 
4.655174095477e+01 -1.086183387525e+01 0.0 
9.430688970604e-01 -3.496112672958e+00 0.0 
3.353992337063e+01 -1.901202090820e+01 0.0 
2.249746016977e+01 -1.921262287282e+01 0.0 
2.650122741777e+01 -1.916123026018e+01 0.0 
1.863571384842e+01 -1.908325534840e+01 0.0 
1.450089971693e+01 -1.917691901860e+01 0.0 
1.350044695317e+01 -8.659695299584e-01 0.0 
3.849987469880e+01 -1.084154983397e+01 0.0 
9.454419857884e+00 -1.900818879936e+01 0.0 
4.917398660523e+01 -1.645692866081e+01 0.0 
8.500000000000e+00 -8.660254037844e-01 0.0 
8.660319230785e-01 -8.500111697188e+00 0.0 
4.649022621545e+01 -1.930506220113e+01 0.0 
2.667688107845e+01 -5.420288124331e+00 0.0 
2.379251615665e+01 -3.412225477429e+00 0.0 
2.966631491830e+01 -7.389030232731e+00 0.0 
3.267915035995e+01 -9.396934932445e+00 0.0 
2.074836922338e+01 -1.320054020319e+00 0.0 
4.915985743621e+01 -1.261973384855e+01 0.0 
2.527129768623e+00 -1.931592414663e+01 0.0 
1.538676247410e+00 -8.436956619311e-01 0.0 
4.908096641539e+01 -1.842484004551e+01 0.0 
3.478612492673e+01 -1.090889364140e+01 0.0 
3.409757055860e+01 -1.131991530427e+01 0.0 
3.501895309466e+01 -1.177687842717e+01 0.0 
3.407758073088e+01 -1.224293381580e+01 0.0 
3.484541875390e+01 -1.277051428430e+01 0.0 
3.400322025842e+01 -1.319022775640e+01 0.0 
3.321672625034e+01 -1.266779191233e+01 0.0 
3.315244139236e+01 -1.360984106532e+01 0.0 
3.236335186892e+01 -1.308463225210e+01 0.0 
3.478337442841e+01 -1.372341158982e+01 0.0 
3.230105923633e+01 -1.403023731610e+01 0.0 
3.150954055289e+01 -1.350301767700e+01 0.0 
3.144604792090e+01 -1.444931742516e+01 0.0 
3.065653897123e+01 -1.392357262981e+01 0.0 
3.071897610812e+01 -1.297447031198e+01 0.0 
2.986790411740e+01 -1.339226181535e+01 0.0 
2.993181466745e+01 -1.244703272398e+01 0.0 
2.908023061869e+01 -1.286254537734e+01 0.0 
2.901619051372e+01 -1.380881655279e+01 0.0 
2.822986160390e+01 -1.327695262116e+01 0.0 
2.829453476870e+01 -1.233265343811e+01 0.0 
2.744542905518e+01 -1.274510491105e+01 0.0 
2.751120089246e+01 -1.180368086886e+01 0.0 
2.666218649885e+01 -1.221619339205e+01 0.0 
2.672371209234e+01 -1.127125228527e+01 0.0 
2.587763216302e+01 -1.168539979114e+01 0.0 
2.581165585299e+01 -1.262994410089e+01 0.0 
2.502890882577e+01 -1.209827323619e+01 0.0 
2.509631327757e+01 -1.115492410304e+01 0.0 
2.424662989877e+01 -1.156630981079e+01 0.0 
2.431704046904e+01 -1.062389179334e+01 0.0 
2.346445438728e+01 -1.103427680694e+01 0.0 
2.339382552877e+01 -1.197964871788e+01 0.0 
2.260936050780e+01 -1.144513277642e+01 0.0 
2.268075012022e+01 -1.049911928216e+01 0.0 
2.182525737661e+01 -1.090920811464e+01 0.0 
2.189682319817e+01 -9.961716944568e+00 0.0 
2.104174127792e+01 -1.037266986667e+01 0.0 
2.111304367575e+01 -9.424179358711e+00 0.0 
2.025306185381e+01 -9.832727364719e+00 0.0 
2.018141124247e+01 -1.079140628871e+01 0.0 
1.938594498257e+01 -1.025147354112e+01 0.0 
1.946106490453e+01 -9.288010758448e+00 0.0 
1.858929958352e+01 -9.706319802516e+00 0.0 
1.851540991219e+01 -1.067205988724e+01 0.0 
1.771485303178e+01 -1.012504443115e+01 0.0 
1.764134552256e+01 -1.109360378538e+01 0.0 
1.683745148095e+01 -1.054496365337e+01 0.0 
1.691852964353e+01 -9.582555261178e+00 0.0 
1.603603813062e+01 -1.000160132379e+01 0.0 
1.595824239350e+01 -1.096750698862e+01 0.0 
1.515080624291e+01 -1.041639501931e+01 0.0 
1.523171602559e+01 -9.451711491453e+00 0.0 
1.434621060709e+01 -9.871956467464e+00 0.0 
1.426777178765e+01 -1.083749501371e+01 0.0 
1.345775282374e+01 -1.028803175500e+01 0.0 
1.354103873368e+01 -9.324918457162e+00 0.0 
1.265072018622e+01 -9.742612837270e+00 0.0 
1.257285762070e+01 -1.071557782384e+01 0.0 
1.175874815690e+01 -1.015972324288e+01 0.0 
1.184203019714e+01 -9.193604071377e+00 0.0 
1.094927709905e+01 -9.612103238656e+00 0.0 
1.086938022910e+01 -1.058685085646e+01 0.0 
1.005424098961e+01 -1.002939116380e+01 0.0 
9.977974613295e+00 -1.101324897989e+01 0.0 
1.012915646404e+01 -9.051815821181e+00 0.0 
9.237127782494e+00 -9.471239055559e+00 0.0 
9.308426593771e+00 -8.483376461131e+00 0.0 
8.418806073345e+00 -8.910712374517e+00 0.0 
2.253688464062e+01 -1.239459402279e+01 0.0 
8.495126726666e+00 -7.921646665254e+00 0.0 
9.389727383206e+00 -7.512103628377e+00 0.0 
7.601560812974e+00 -8.349460349344e+00 0.0 
7.525680547759e+00 -9.339736686940e+00 0.0 
7.677888324502e+00 -7.359727833346e+00 0.0 
6.782001206724e+00 -7.788454494773e+00 0.0 
6.858778622885e+00 -6.797338062822e+00 0.0 
2.196596590865e+01 -8.979025665442e+00 0.0 
2.816540108272e+01 -1.422634142353e+01 0.0 
5.961601194403e+00 -7.226824010712e+00 0.0 
6.038171749656e+00 -6.234825887079e+00 0.0 
6.936257279557e+00 -5.805287640737e+00 0.0 
6.115068918323e+00 -5.242109758768e+00 0.0 
3.564391741903e+01 -1.329240553876e+01 0.0 
3.558115605778e+01 -1.425902892003e+01 0.0 
3.645445282201e+01 -1.381970786460e+01 0.0 
3.639744204358e+01 -1.479198128612e+01 0.0 
3.727266909778e+01 -1.435399586226e+01 0.0 
5.216667013081e+00 -5.671788584287e+00 0.0 
3.220697293295e+01 -1.499594545107e+01 0.0 
3.551112158269e+01 -1.523479869250e+01 0.0 
2.836056961467e+01 -1.139032434851e+01 0.0 
2.516730388602e+01 -1.021382726837e+01 0.0 
1.844436907403e+01 -1.164097215196e+01 0.0 
5.885434318740e+00 -8.218694781467e+00 0.0 
5.064071066867e+00 -7.656614643901e+00 0.0 
4.988089103470e+00 -8.649722082718e+00 0.0 
1.079421050408e+01 -1.157014985435e+01 0.0 
9.902420005256e+00 -1.199903342656e+01 0.0 
1.071994252214e+01 -1.255727909771e+01 0.0 
9.826974788171e+00 -1.298659581767e+01 0.0 
1.064607883789e+01 -1.354595476388e+01 0.0 
9.751541265343e+00 -1.397556905071e+01 0.0 
8.932296185869e+00 -1.341553353988e+01 0.0 
8.856399248106e+00 -1.440570715508e+01 0.0 
8.036186803543e+00 -1.384470558472e+01 0.0 
1.057112875118e+01 -1.453516759081e+01 0.0 
1.146582585687e+01 -1.410539926903e+01 0.0 
7.959894480382e+00 -1.483563350928e+01 0.0 
7.138792279156e+00 -1.427465094140e+01 0.0 
7.062506792418e+00 -1.526615385482e+01 0.0 
6.240693558277e+00 -1.470508863040e+01 0.0 
6.316957575451e+00 -1.371212581281e+01 0.0 
5.418183007107e+00 -1.414253605022e+01 0.0 
5.494748364428e+00 -1.314886770603e+01 0.0 
1.756825565873e+01 -1.206433872514e+01 0.0 
1.837565773345e+01 -1.261356468266e+01 0.0 
1.749574831391e+01 -1.303769280014e+01 0.0 
1.830539187332e+01 -1.358828364284e+01 0.0 
1.742278925170e+01 -1.401367746928e+01 0.0 
1.823303007798e+01 -1.456432294258e+01 0.0 
1.734941694138e+01 -1.499213734361e+01 0.0 
1.653760041637e+01 -1.443920312098e+01 0.0 
3.056237977307e+01 -1.487132260174e+01 0.0 
1.866469084762e+01 -8.742953000418e+00 0.0 
1.953669694916e+01 -8.326038909849e+00 0.0 
1.874194303780e+01 -7.780688158966e+00 0.0 
1.961032016741e+01 -7.366854697285e+00 0.0 
1.881715755159e+01 -6.821102209649e+00 0.0 
1.968369797150e+01 -6.407747217358e+00 0.0 
1.889237123259e+01 -5.858375520026e+00 0.0 
1.802038875366e+01 -6.276202618170e+00 0.0 
1.809793837984e+01 -5.307629520489e+00 0.0 
1.721985207997e+01 -5.728242054488e+00 0.0 
1.729850893523e+01 -4.756990819347e+00 0.0 
1.641745664240e+01 -5.174636548624e+00 0.0 
2.495978509456e+01 -1.304406404294e+01 0.0 
1.911567814831e+01 -1.413854250293e+01 0.0 
1.904387332608e+01 -1.511463127723e+01 0.0 
1.992115934240e+01 -1.468788025898e+01 0.0 
7.013706899628e+00 -4.812582868662e+00 0.0 
5.342091874585e+00 -1.513658157269e+01 0.0 
1.139098043784e+01 -1.509488509480e+01 0.0 
1.228151810610e+01 -1.465617481983e+01 0.0 
1.646373110164e+01 -1.541993323337e+01 0.0 
5.293328636712e+00 -4.678385108584e+00 0.0 
1.975965862987e+01 -5.448124345648e+00 0.0 
2.054318374236e+01 -5.992561293251e+00 0.0 
3.721453439063e+01 -1.533216152738e+01 0.0 
3.809302733893e+01 -1.489235527381e+01 0.0 
1.220852788900e+01 -1.565304565230e+01 0.0 
4.394120899730e+00 -5.108397613210e+00 0.0 
8.779354620288e+00 -1.539524721159e+01 0.0 
1.817791047702e+01 -4.338570146253e+00 0.0 
4.518860013839e+00 -1.457343189307e+01 0.0 
4.442712140414e+00 -1.556841391069e+01 0.0 
8.115343466391e+00 -1.285760324283e+01 0.0 
1.985334703171e+01 -1.566478400426e+01 0.0 
2.071953850276e+01 -1.522074243119e+01 0.0 
1.634012953883e+01 -6.154777738301e+00 0.0 
1.553479994708e+01 -5.593730508879e+00 0.0 
1.561265946942e+01 -4.617761762647e+00 0.0 
1.470674212978e+01 -5.064576488228e+00 0.0 
1.464498299883e+01 -6.026514471420e+00 0.0 
1.383271561817e+01 -5.467796261169e+00 0.0 
1.389241253067e+01 -4.504338666645e+00 0.0 
1.301868735463e+01 -4.907185188626e+00 0.0 
1.294514184846e+01 -5.888160903592e+00 0.0 
1.212955968622e+01 -5.328262335277e+00 0.0 
1.220721122383e+01 -4.341264976687e+00 0.0 
1.131324345897e+01 -4.766773516508e+00 0.0 
5.266597955397e+00 -1.613148974258e+01 0.0 
1.737805990867e+01 -3.786677807525e+00 0.0 
3.078438094513e+01 -1.203225297748e+01 0.0 
1.131569882285e+01 -1.608511932110e+01 0.0 
1.728478341782e+01 -1.596017432313e+01 0.0 
3.803465906019e+01 -1.587509751228e+01 0.0 
3.891681276677e+01 -1.543395196905e+01 0.0 
3.897340985302e+01 -1.444710288980e+01 0.0 
3.980095968193e+01 -1.499059496613e+01 0.0 
3.974334598189e+01 -1.597921884150e+01 0.0 
4.062964983717e+01 -1.553518690417e+01 0.0 
4.068729602479e+01 -1.454434445295e+01 0.0 
4.151772679790e+01 -1.508974196007e+01 0.0 
4.157505195739e+01 -1.409694289912e+01 0.0 
4.240699932656e+01 -1.464347955968e+01 0.0 
4.234898051011e+01 -1.563721375790e+01 0.0 
4.323934606035e+01 -1.519082036405e+01 0.0 
4.329740528208e+01 -1.419587509788e+01 0.0 
4.413056841369e+01 -1.474359631875e+01 0.0 
4.418850110108e+01 -1.374786684042e+01 0.0 
4.502219770667e+01 -1.429605103525e+01 0.0 
4.496411937907e+01 -1.529215882720e+01 0.0 
4.490027319897e+00 -4.154167794594e+00 0.0 
1.565080385988e+01 -1.486411982419e+01 0.0 
1.557610691279e+01 -1.584855627870e+01 0.0 
4.195350646612e+00 -8.089117689096e+00 0.0 
4.124027797830e+00 -9.082831955007e+00 0.0 
4.917944318925e+00 -9.643530901533e+00 0.0 
4.020105689502e+00 -1.007439673661e+01 0.0 
4.587185899277e+01 -1.484039992728e+01 0.0 
4.580078661551e+01 -1.584043391042e+01 0.0 
2.061956522375e+01 -5.046701343981e+00 0.0 
2.139572955529e+01 -5.579553449826e+00 0.0 
3.715344357292e+01 -1.631485124583e+01 0.0 
3.618886196443e+00 -1.500471207167e+01 0.0 
3.695606940204e+00 -1.400939692294e+01 0.0 
2.438890661143e+01 -9.686110599723e+00 0.0 
2.523267572778e+01 -9.276766000622e+00 0.0 
2.446094171539e+01 -8.751904591412e+00 0.0 
2.529089822738e+01 -8.321495612547e+00 0.0 
2.606882688827e+01 -8.864724051119e+00 0.0 
2.452116646430e+01 -7.792756462004e+00 0.0 
1.235543269617e+01 -1.365845617339e+01 0.0 
4.318116874181e+01 -1.618567469992e+01 0.0 
7.835066111909e+00 -5.376366223896e+00 0.0 
7.905687335704e+00 -4.382539065697e+00 0.0 
3.542640009567e+00 -1.600035116542e+01 0.0 
1.572431503071e+01 -1.388358386695e+01 0.0 
2.574684696680e+01 -1.357896141127e+01 0.0 
2.488842657651e+01 -1.399674354505e+01 0.0 
2.568301775611e+01 -1.453552048595e+01 0.0 
2.481535572009e+01 -1.495542756508e+01 0.0 
2.561729699688e+01 -1.549784648532e+01 0.0 
2.474623061296e+01 -1.592058894178e+01 0.0 
2.394234041695e+01 -1.537572575827e+01 0.0 
2.065825452567e+01 -1.621899055217e+01 0.0 
2.387180528935e+01 -1.634552264687e+01 0.0 
4.585364400844e+01 -1.383912334080e+01 0.0 
1.998744432052e+01 -1.370317155541e+01 0.0 
1.205356951443e+01 -6.313580285498e+00 0.0 
5.396543905849e+00 -3.731818611283e+00 0.0 
1.139652573295e+01 -3.745819399350e+00 0.0 
3.574124306703e+00 -4.551456826011e+00 0.0 
3.494140761930e+00 -5.539787055649e+00 0.0 
1.213651452413e+01 -1.664505033022e+01 0.0 
2.555045568519e+01 -1.646529356744e+01 0.0 
2.641671114986e+01 -1.603899382371e+01 0.0 
2.612920721894e+01 -7.906435260873e+00 0.0 
2.690339829698e+01 -8.456969591431e+00 0.0 
1.978024383368e+01 -1.664410216353e+01 0.0 
3.732829979082e+01 -1.336926601859e+01 0.0 
4.074336584605e+01 -1.355133328401e+01 0.0 
4.163204691081e+01 -1.310280943992e+01 0.0 
3.773826114429e+00 -3.493444309145e+00 0.0 
1.228783001032e+01 -3.374822835872e+00 0.0 
4.057110462520e+01 -1.652588478000e+01 0.0 
2.132535497898e+01 -6.523623360525e+00 0.0 
2.216932532211e+01 -6.110044769206e+00 0.0 
1.825781152128e+01 -3.370146817147e+00 0.0 
1.745679445888e+01 -2.812942552063e+00 0.0 
4.666517057280e+01 -1.539981381543e+01 0.0 
4.660575894464e+01 -1.639014410186e+01 0.0 
4.838230979954e+00 -1.063643436446e+01 0.0 
3.938942630206e+00 -1.106778981745e+01 0.0 
1.302967218620e+01 -1.621373452436e+01 0.0 
1.049548003190e+01 -4.204825123240e+00 0.0 
4.573571907195e+01 -1.683820511148e+01 0.0 
1.483686335807e+01 -1.430849689310e+01 0.0 
1.490982658890e+01 -1.332679386284e+01 0.0 
3.190805600162e+00 -9.510968358545e+00 0.0 
2.146625721848e+01 -4.642437303115e+00 0.0 
2.069866208266e+01 -4.111852942193e+00 0.0 
1.286859345584e+01 -6.873252723348e+00 0.0 
1.041794493184e+01 -5.194814260291e+00 0.0 
2.671081808965e+00 -4.976806516331e+00 0.0 
1.295786792925e+01 -1.720506531799e+01 0.0 
3.968438206511e+01 -1.696869067241e+01 0.0 
2.308550456051e+01 -1.579963151273e+01 0.0 
2.315593682844e+01 -1.482967445235e+01 0.0 
2.299471449450e+01 -1.677069968132e+01 0.0 
1.057344714696e+01 -3.214252277840e+00 0.0 
1.124057603753e+01 -1.707713739755e+01 0.0 
2.718402535754e+00 -1.543629882103e+01 0.0 
2.638549692805e+01 -1.696744916809e+01 0.0 
2.723416349007e+01 -1.658104204545e+01 0.0 
2.210193351704e+01 -7.046769643417e+00 0.0 
2.295180925161e+01 -6.657397605239e+00 0.0 
2.301355235833e+01 -5.709111896800e+00 0.0 
2.379052718281e+01 -6.254965406962e+00 0.0 
3.243528601237e+01 -1.214181853533e+01 0.0 
2.287977995457e+01 -7.583722368300e+00 0.0 
2.999876029544e+01 -1.150837653096e+01 0.0 
3.084435366963e+01 -1.109693775882e+01 0.0 
3.006650579669e+01 -1.057778994262e+01 0.0 
2.683802665066e+01 -9.386863216633e+00 0.0 
2.768641973621e+01 -8.988883915666e+00 0.0 
2.040296980397e+01 -7.903629133404e+00 0.0 
1.925235024054e+01 -1.218872783130e+01 0.0 
5.735667000424e+00 -1.020577277283e+01 0.0 
6.396559909872e+00 -1.272326295703e+01 0.0 
1.161199420714e+01 -1.212812778229e+01 0.0 
4.229046132615e+01 -1.663084237572e+01 0.0 
4.312275399692e+01 -1.718087491556e+01 0.0 
4.335502068163e+01 -1.320039231514e+01 0.0 
4.424630298089e+01 -1.275160688731e+01 0.0 
7.090116643816e+00 -3.818998061530e+00 0.0 
7.989472176569e+00 -3.389238711200e+00 0.0 
9.085824861778e+00 -1.144036167408e+01 0.0 
1.041972423731e+01 -1.651614080893e+01 0.0 
3.797525112640e+01 -1.686052038746e+01 0.0 
3.709114253394e+01 -1.730125999865e+01 0.0 
3.626966748340e+01 -1.675477052919e+01 0.0 
1.385164591440e+01 -1.677597757552e+01 0.0 
1.787152588784e+01 -8.198993896093e+00 0.0 
1.668849729812e+01 -1.248560611628e+01 0.0 
1.659546177905e+01 -3.232482605530e+00 0.0 
2.332214717345e+01 -1.292598167641e+01 0.0 
7.168238450786e+00 -2.824711686516e+00 0.0 
2.894878403906e+01 -1.475427524446e+01 0.0 
2.646763248247e+00 -1.643270107952e+01 0.0 
3.467431944285e+00 -1.699648837348e+01 0.0 
2.059475877282e+01 -1.719473628526e+01 0.0 
3.333868355437e+01 -1.080596971682e+01 0.0 
2.246451062637e+01 -1.334557761546e+01 0.0 
2.167821896388e+01 -1.280847834858e+01 0.0 
3.089653185767e+01 -1.017198487212e+01 0.0 
3.012604365669e+01 -9.657298805968e+00 0.0 
2.929627299435e+01 -1.006100135274e+01 0.0 
2.936201435219e+01 -9.136748899251e+00 0.0 
1.198219052702e+01 -7.291887238230e+00 0.0 
1.116702076035e+01 -6.731976101053e+00 0.0 
2.551388807505e+01 -1.746927036981e+01 0.0 
2.378639090370e+01 -1.728678807149e+01 0.0 
2.718543627188e+01 -1.748668016909e+01 0.0 
2.804681050301e+01 -1.712626668293e+01 0.0 
1.970737034667e+01 -1.762317646822e+01 0.0 
1.889535776135e+01 -1.707158098231e+01 0.0 
2.593777711283e+00 -5.971157087874e+00 0.0 
2.773468281110e+01 -8.067164273938e+00 0.0 
4.051205884347e+01 -1.751819982458e+01 0.0 
3.166903145421e+01 -1.068032992414e+01 0.0 
1.033042452886e+01 -1.748285844336e+01 0.0 
9.519274604626e+00 -1.694349240233e+01 0.0 
1.668308673328e+01 -2.255861778986e+00 0.0 
1.570531902832e+01 -2.676795860126e+00 0.0 
4.655826903379e+01 -1.736656245706e+01 0.0 
2.384148070773e+01 -5.328744256413e+00 0.0 
2.460255123641e+01 -5.852182672816e+00 0.0 
2.306638135119e+01 -4.798935440613e+00 0.0 
8.467720450578e-01 -1.849576263072e+01 0.0 
4.849657322345e+01 -1.084860705506e+01 0.0 
2.565860899507e+00 -1.742859793981e+01 0.0 
2.764418872564e+01 -9.927142821799e+00 0.0 
4.565165880064e+01 -1.785336695404e+01 0.0 
2.162231831329e+01 -1.376528337468e+01 0.0 
2.360646352969e+01 -9.136041963102e+00 0.0 
1.392738739903e+01 -1.578285505772e+01 0.0 
4.756405947478e+01 -1.683706841809e+01 0.0 
4.740895034054e+01 -1.793766756892e+01 0.0 
4.080779328826e+01 -1.257387192544e+01 0.0 
4.168907939671e+01 -1.210739129181e+01 0.0 
3.991197722154e+01 -1.300815793917e+01 0.0 
1.905536506762e+01 -3.940076697685e+00 0.0 
1.923879596617e+01 -2.875000734166e+00 0.0 
4.401386745746e+01 -1.673483229438e+01 0.0 
4.247233362525e+00 -7.094581653070e+00 0.0 
3.286051630211e+00 -7.635300020553e+00 0.0 
9.609533347623e+00 -4.594311677967e+00 0.0 
9.523554636369e+00 -5.595597029530e+00 0.0 
5.660336628893e+00 -1.119290329628e+01 0.0 
6.558070063295e+00 -1.076385809362e+01 0.0 
2.809866407414e+01 -1.518037766799e+01 0.0 
2.888868674504e+01 -1.570360690070e+01 0.0 
2.654431550819e+01 -1.411217777162e+01 0.0 
1.402158265969e+01 -1.375404617952e+01 0.0 
1.409592494026e+01 -1.277071998942e+01 0.0 
1.499355196178e+01 -1.235270737023e+01 0.0 
4.221535326155e+01 -1.759335617494e+01 0.0 
4.305583287033e+01 -1.822663146802e+01 0.0 
1.280748808359e+01 -7.834332838285e+00 0.0 
1.368988389326e+01 -7.420529606172e+00 0.0 
1.110091796060e+01 -7.683966794328e+00 0.0 
3.963446145980e+01 -1.794331310122e+01 0.0 
3.423932362213e+00 -1.796415590455e+01 0.0 
4.280814572302e+00 -1.752272834860e+01 0.0 
8.050136380041e+00 -2.421582378631e+00 0.0 
8.888674091650e+00 -2.984264211327e+00 0.0 
2.152839430898e+01 -3.732609965436e+00 0.0 
2.077799585292e+01 -3.183896021866e+00 0.0 
3.618719395821e+01 -1.770276572576e+01 0.0 
3.538165138340e+01 -1.718709995539e+01 0.0 
3.702925326420e+01 -1.828844288807e+01 0.0 
1.756739438711e+00 -5.353284859169e+00 0.0 
2.233710191104e+01 -1.527265621324e+01 0.0 
1.389483555057e+01 -1.771797164730e+01 0.0 
1.475634224300e+01 -1.728357428390e+01 0.0 
1.298797563052e+01 -1.825968924755e+01 0.0 
2.145331271866e+01 -1.673705379077e+01 0.0 
2.133282821169e+01 -1.769400773673e+01 0.0 
2.292139194136e+01 -1.774915400288e+01 0.0 
1.750750053243e+01 -1.861475593469e+00 0.0 
4.830478841772e+01 -1.752611802221e+01 0.0 
4.341203507805e+01 -1.220326745522e+01 0.0 
1.685254151866e+01 -1.443085301632e+00 0.0 
4.431538535165e+01 -1.171841387375e+01 0.0 
4.511308610496e+01 -1.229557320599e+01 0.0 
4.510133242889e+01 -1.123680627466e+01 0.0 
1.846818030617e+00 -4.410877617069e+00 0.0 
3.995468694584e+01 -1.186571542989e+01 0.0 
3.901387459804e+01 -1.242507616755e+01 0.0 
8.966735877533e+00 -1.837818700423e+00 0.0 
4.049310011091e+01 -1.848269508791e+01 0.0 
7.278862053803e+00 -1.918523922691e+00 0.0 
6.429715522129e+00 -2.316676521184e+00 0.0 
9.443505505022e+00 -1.792198868094e+01 0.0 
8.620386951051e+00 -1.737590365556e+01 0.0 
8.571868171503e+00 -1.834436667826e+01 0.0 
7.758629848526e+00 -1.775677907213e+01 0.0 
7.806648388584e+00 -1.680761266021e+01 0.0 
6.908555145436e+00 -1.723746463044e+01 0.0 
4.251709122090e+01 -1.156937480156e+01 0.0 
6.931136405615e+00 -1.832465719263e+01 0.0 
6.015545461353e+00 -1.768865355295e+01 0.0 
5.960535926343e+00 -1.872011001764e+01 0.0 
3.023253444786e+01 -8.761960642196e+00 0.0 
2.454622702599e+01 -6.749421992767e+00 0.0 
2.537499741604e+01 -6.347634963783e+00 0.0 
2.544077378460e+01 -5.431358513649e+00 0.0 
2.801367161747e+01 -1.820907270221e+01 0.0 
2.884507806914e+01 -1.762032095326e+01 0.0 
1.821474531936e+00 -1.588901260460e+01 0.0 
1.821006262604e+00 -1.489370287756e+01 0.0 
4.599962488908e+01 -1.176478780598e+01 0.0 
4.705457470007e+01 -1.172182804229e+01 0.0 
4.667668314802e+01 -1.263464558483e+01 0.0 
4.759648056504e+01 -1.252380987933e+01 0.0 
4.728041618103e+01 -1.341928568376e+01 0.0 
4.825209352360e+01 -1.330491640804e+01 0.0 
4.778118233428e+01 -1.420151961695e+01 0.0 
2.388192727579e+01 -1.826934810142e+01 0.0 
2.381714684947e+01 -4.385917965223e+00 0.0 
3.172733219247e+01 -9.758744265248e+00 0.0 
1.882012070658e+01 -1.805540597212e+01 0.0 
1.805667505243e+01 -1.742221226236e+01 0.0 
2.852599958080e+01 -8.597196079481e+00 0.0 
2.856486123437e+01 -7.661382718527e+00 0.0 
1.111792842875e+01 -1.818223852980e+01 0.0 
2.203322722466e+01 -7.986646678802e+00 0.0 
3.955703676900e+01 -1.903246763601e+01 0.0 
1.944842206513e+01 -8.038750575182e-01 0.0 
1.909882767783e+01 -1.746322740933e+00 0.0 
2.281147422941e+01 -8.525912918334e+00 0.0 
2.850633001468e+01 -9.533271335986e+00 0.0 
2.532883344309e+01 -7.308951659710e+00 0.0 
2.620475466461e+01 -6.979208585400e+00 0.0 
1.396278270396e+01 -1.475095389807e+01 0.0 
9.791001166724e+00 -2.554159793552e+00 0.0 
2.229293380421e+01 -4.269762271052e+00 0.0 
4.677238984118e+01 -1.430071795514e+01 0.0 
2.228658385918e+01 -3.344747535984e+00 0.0 
8.940223674553e-01 -1.543595733415e+01 0.0 
2.118566862474e+01 -8.435876987696e+00 0.0 
2.678325936437e+01 -1.032621195706e+01 0.0 
2.223400220487e+01 -5.179046761770e+00 0.0 
2.375370625384e+01 -7.251580562134e+00 0.0 
3.156971327386e+01 -1.255534750737e+01 0.0 
3.328226391312e+01 -1.172914813316e+01 0.0 
3.250948774219e+01 -1.120157009348e+01 0.0 
2.032993445717e+01 -8.867880112202e+00 0.0 
2.697226974856e+01 -7.536633082045e+00 0.0 
2.707377810386e+01 -6.590835263295e+00 0.0 
2.914099246827e+01 -1.191678458549e+01 0.0 
3.544824072239e+01 -1.621126558525e+01 0.0 
3.456511855436e+01 -1.665054783843e+01 0.0 
3.448395810225e+01 -1.759117813016e+01 0.0 
3.368378673938e+01 -1.708037781328e+01 0.0 
3.375560452567e+01 -1.610973066913e+01 0.0 
3.288001547988e+01 -1.654324255651e+01 0.0 
3.282475929147e+01 -1.749725654692e+01 0.0 
3.199880906313e+01 -1.697294088625e+01 0.0 
3.197001272932e+01 -1.811667776864e+01 0.0 
3.111884713021e+01 -1.742166785755e+01 0.0 
3.120418962865e+01 -1.642155709385e+01 0.0 
3.034666704371e+01 -1.683123833816e+01 0.0 
3.026224379976e+01 -1.772592851714e+01 0.0 
3.046632362943e+01 -1.582232843075e+01 0.0 
1.961344017324e+01 -1.857459447985e+01 0.0 
2.274975894774e+01 -9.532738811922e+00 0.0 
1.833923246887e+01 -2.396746883672e+00 0.0 
1.988859500848e+01 -2.249244376594e+00 0.0 
2.758045562861e+01 -1.086434261689e+01 0.0 
3.247300178163e+01 -1.909930104252e+01 0.0 
3.461947482503e+01 -1.911879848019e+01 0.0 
2.047161538662e+01 -6.941478180358e+00 0.0 
2.750230940214e+01 -1.915490590764e+01 0.0 
3.165081350803e+01 -1.161860780120e+01 0.0 
1.897456727641e+01 -4.889634688522e+00 0.0 
2.549338539756e+01 -1.914858252089e+01 0.0 
3.462873135081e+01 -1.567482276144e+01 0.0 
3.384432415243e+01 -1.512280684518e+01 0.0 
3.471433767690e+01 -1.469086942990e+01 0.0 
3.651470373046e+01 -1.918207952149e+01 0.0 
3.901742690249e+01 -1.345028556517e+01 0.0 
2.153224102692e+01 -1.920169709333e+01 0.0 
1.918382939341e+01 -1.316226275662e+01 0.0 
2.005389162382e+01 -1.271962165174e+01 0.0 
2.011472087878e+01 -1.175029352900e+01 0.0 
3.210679478412e+01 -1.598038618242e+01 0.0 
1.752175226543e+01 -1.914713022656e+01 0.0 
1.696897240059e+01 -1.832772588765e+01 0.0 
1.599682523337e+01 -1.832599992024e+01 0.0 
1.644507199462e+01 -1.743697981535e+01 0.0 
1.549987712903e+01 -1.915192375101e+01 0.0 
3.050250861901e+01 -1.918943550234e+01 0.0 
2.949944061527e+01 -1.922950455235e+01 0.0 
1.375892575273e+01 -6.447160534926e+00 0.0 
1.457223670180e+01 -7.006709243857e+00 0.0 
1.450818793236e+01 -7.965943451779e+00 0.0 
1.538804712402e+01 -7.553409623699e+00 0.0 
1.545817644768e+01 -6.580929593419e+00 0.0 
1.626506893751e+01 -7.129032608911e+00 0.0 
1.619833811522e+01 -8.086588580887e+00 0.0 
1.714448609609e+01 -6.697429609777e+00 0.0 
2.887616543568e+01 -1.668015232137e+01 0.0 
1.349814589130e+01 -1.918225301544e+01 0.0 
1.153887772210e+01 -1.311384581217e+01 0.0 
1.242708159886e+01 -1.267046795531e+01 0.0 
1.249799674267e+01 -1.169005616014e+01 0.0 
6.631723893693e+00 -9.774184881867e+00 0.0 
7.451471631867e+00 -1.033148796006e+01 0.0 
7.377795355458e+00 -1.132196345268e+01 0.0 
5.810931797536e+00 -9.211654212252e+00 0.0 
2.402683899133e+01 -1.441378562320e+01 0.0 
1.249768692036e+01 -1.917388426624e+01 0.0 
1.580373499437e+01 -1.290751860664e+01 0.0 
8.344650507834e+00 -9.898403995170e+00 0.0 
3.750622115305e+01 -1.086526401533e+01 0.0 
3.699391251667e+01 -1.171695900794e+01 0.0 
3.606517829518e+01 -1.173717504500e+01 0.0 
3.650257641795e+01 -1.270047380221e+01 0.0 
3.808951488918e+01 -1.183518714175e+01 0.0 
4.760380962420e+00 -1.162484888315e+01 0.0 
3.861210370848e+00 -1.205657631736e+01 0.0 
3.038284309476e+00 -1.149851280664e+01 0.0 
2.961598794889e+00 -1.248856794980e+01 0.0 
2.138953225512e+00 -1.193212674534e+01 0.0 
2.227383593457e+00 -1.096258903918e+01 0.0 
2.043265419276e+00 -1.292158472959e+01 0.0 
1.252449446028e+00 -1.225502002753e+01 0.0 
3.949985210740e+01 -1.086594001795e+01 0.0 
1.453499444792e+01 -8.768805922472e-01 0.0 
1.403518950933e+01 -1.749965556633e+00 0.0 
1.300715031023e+01 -1.714737233040e+00 0.0 
1.350929389899e+01 -2.527443911291e+00 0.0 
1.449600910711e+01 -2.595486162864e+00 0.0 
1.395693872901e+01 -3.484211041558e+00 0.0 
1.495105865208e+01 -3.364609636216e+00 0.0 
1.508822528740e+01 -1.766586020494e+00 0.0 
1.250223858430e+01 -8.634590186802e-01 0.0 
1.200279523409e+01 -1.709044504992e+00 0.0 
1.150086239419e+01 -8.592789190668e-01 0.0 
1.101482754194e+01 -1.677730591922e+00 0.0 
1.148018564526e+01 -2.659323866909e+00 0.0 
8.800552119754e+00 -3.989875954728e+00 0.0 
3.452790439430e+00 -1.901136170646e+01 0.0 
8.658451825200e-01 -9.503462241795e+00 0.0 
1.694787786797e+00 -9.000589234502e+00 0.0 
1.703436717094e+00 -8.038819004041e+00 0.0 
2.594197971110e+00 -8.563955242845e+00 0.0 
1.630513735412e+00 -9.907244747511e+00 0.0 
8.566859292791e-01 -7.512203837972e+00 0.0 
1.685461277022e+00 -7.164280248030e+00 0.0 
2.506394468801e+00 -8.623386730818e-01 0.0 
2.007475081581e+00 -1.727729545205e+00 0.0 
9.211534699767e-01 -1.628791366312e+00 0.0 
1.500000000020e+00 -2.598063549486e+00 0.0 
2.482078929963e+00 -2.553580088725e+00 0.0 
2.999795253092e+00 -1.732169015019e+00 0.0 
3.999712607169e+00 -1.728832897453e+00 0.0 
4.499752199340e+00 -8.656478679175e-01 0.0 
4.964377774841e+00 -1.730129617941e+00 0.0 
4.425017908337e+00 -2.597541756243e+00 0.0 
5.446573195014e+00 -8.410144840023e-01 0.0 
4.915722346614e+01 -1.550640962770e+01 0.0 
4.826794919243e+01 -1.600000000000e+01 0.0 
1.053139533193e+01 -1.911782884365e+01 0.0 
4.156049861949e+01 -1.095160998589e+01 0.0 
9.494526624416e+00 -8.650570090219e-01 0.0 
4.555762166964e+01 -1.897098103585e+01 0.0 
4.250656411371e+01 -1.914387356218e+01 0.0 
4.350906466345e+01 -1.917234727395e+01 0.0 
8.759665722424e-01 -1.746422130609e+01 0.0 
1.698936011838e+00 -1.795012186674e+01 0.0 
4.742476811029e+01 -1.900090177972e+01 0.0 
7.749196752349e+00 -6.368049313489e+00 0.0 
3.361572113416e+01 -1.798765193915e+01 0.0 
4.484660149212e+01 -1.728661231383e+01 0.0 
1.984038172228e+01 -4.502575320116e+00 0.0 
1.035080352627e+01 -6.166639575753e+00 0.0 
2.753558010652e+00 -1.444909521181e+01 0.0 
7.217069543032e+00 -1.328635391078e+01 0.0 
4.364336727739e+00 -1.655585677381e+01 0.0 
4.595208426108e+00 -1.357919665443e+01 0.0 
6.164967006980e+00 -1.569873454630e+01 0.0 
1.487855768353e+01 -1.826523774028e+01 0.0 
2.791876456372e+00 -4.019632415181e+00 0.0 
4.246464893515e+01 -1.364898659620e+01 0.0 
4.503855590351e+01 -1.329552780944e+01 0.0 
4.407239109604e+01 -1.573900004093e+01 0.0 
5.141054449252e+00 -6.664290382472e+00 0.0 
3.141083947149e+00 -1.055790764912e+01 0.0 
6.196463198741e+00 -4.256497932609e+00 0.0 
2.599618716181e+01 -1.836893455464e+01 0.0 
2.923057372337e+01 -1.098461757645e+01 0.0 
1.168343877486e+01 -1.114079645041e+01 0.0 
6.706222096238e+00 -8.780364234441e+00 0.0 
8.567858614669e+00 -6.943121440850e+00 0.0 
1.123755132901e+01 -5.753525820030e+00 0.0 
2.353456234423e+01 -1.008536320953e+01 0.0 
9.162073319168e+00 -1.045593739109e+01 0.0 
9.676343469685e+00 -1.496493008366e+01 0.0 
4.490637882905e+01 -1.628778970202e+01 0.0 
7.398129387772e+00 -9.639977982323e-01 0.0 
1.049641705805e+01 -1.552503975272e+01 0.0 
9.010356286268e+00 -1.242805042052e+01 0.0 
3.985573925497e+01 -1.399863651620e+01 0.0 
1.816196318262e+01 -1.554066497931e+01 0.0 
1.306332244168e+01 -3.963646550326e+00 0.0 
4.145850903932e+01 -1.608094559275e+01 0.0 
3.794664933633e+01 -1.779020121986e+01 0.0 
3.819614412903e+01 -1.290749321016e+01 0.0 
6.270014188119e+00 -3.255093186826e+00 0.0 
4.251165370388e+01 -1.263870364997e+01 0.0 
1.207347709171e+01 -1.763942826023e+01 0.0 
3.633240829927e+01 -1.577330481104e+01 0.0 
4.319052668832e+00 -6.101812561904e+00 0.0 
1.676492415806e+01 -1.151547901392e+01 0.0 
2.594059220037e+01 -1.074225223009e+01 0.0 
3.340750911501e+01 -9.898764354137e+00 0.0 
4.397619591281e+01 -1.769773736461e+01 0.0 
2.175611595028e+01 -1.185718747128e+01 0.0 
1.641818733106e+01 -1.640685203215e+01 0.0 
1.661211421753e+01 -1.346121366338e+01 0.0 
3.428853504935e+00 -6.551993389271e+00 0.0 
8.700728832502e+00 -1.638460872825e+01 0.0 
1.931369795309e+01 -1.121629383702e+01 0.0 
4.139798872363e+01 -1.706922153459e+01 0.0 
2.647837478700e+01 -1.507353829290e+01 0.0 
1.779469616424e+01 -9.161615782908e+00 0.0 
3.885879219319e+01 -1.642026488918e+01 0.0 
1.338194936770e+01 -1.125916521471e+01 0.0 
1.897071181111e+01 -1.609204322578e+01 0.0 
2.844308548793e+01 -1.046221003096e+01 0.0 
2.659854702194e+01 -1.316109415760e+01 0.0 
2.979604503271e+01 -1.433296157755e+01 0.0 
2.417694041347e+01 -1.251231397779e+01 0.0 
1.807401327411e+00 -1.388891148480e+01 0.0 
9.599810618782e+00 -1.595439365034e+01 0.0 
1.652144692160e+01 -4.205392788472e+00 0.0 
2.367839450246e+01 -8.188385218643e+00 0.0 
3.814894930468e+01 -1.390748338767e+01 0.0 
2.466448215774e+01 -1.685878545680e+01 0.0 
4.134044524611e+01 -1.806610045954e+01 0.0 
2.600511411958e+01 -9.801774120648e+00 0.0 
7.882158050716e+00 -1.582364037353e+01 0.0 
3.881607873422e+01 -1.737970515013e+01 0.0 
8.270182347708e+00 -1.088622154920e+01 0.0 
8.672520392520e-01 -4.532984309881e+00 0.0 
1.993447205337e+01 -3.579061902667e+00 0.0 
1.794616079549e+01 -7.238038888498e+00 0.0 
2.097277068165e+01 -1.132450168636e+01 0.0 
8.194803300681e+00 -1.187214224265e+01 0.0 
3.522279404911e+01 -1.823342818178e+01 0.0 
6.984481050295e+00 -1.625271465557e+01 0.0 
1.309433007797e+01 -1.521718594215e+01 0.0 
2.150246167611e+01 -1.885399038185e+00 0.0 
3.250689370209e+01 -1.028789870535e+01 0.0 
6.085886272238e+00 -1.668342132851e+01 0.0 
1.588455661727e+01 -1.193498985921e+01 0.0 
1.809323400821e+01 -1.651110084195e+01 0.0 
1.348885082381e+00 -1.136065576512e+01 0.0 
2.497670221995e+01 -1.834631276173e+01 0.0 
2.937062818424e+01 -8.233711194470e+00 0.0 
5.185823744469e+00 -1.711566910207e+01 0.0 
1.477497877209e+01 -1.530177014512e+01 0.0 
2.125346158933e+01 -7.473003997367e+00 0.0 
4.751561118290e+01 -1.084897772632e+01 0.0 
5.056026576843e+00 -1.825750475525e+01 0.0 
1.473948554523e+01 -1.634577436309e+01 0.0 
2.410566630936e+01 -1.345970002612e+01 0.0 
1.507337507513e+01 -1.138527895328e+01 0.0 
3.189857338687e+01 -8.887781229006e+00 0.0 
7.298712468334e+00 -1.230231046246e+01 0.0 
2.738235495295e+01 -1.368931690364e+01 0.0 
3.750141041969e+01 -1.920449893070e+01 0.0 
1.557271965640e+01 -1.683317951731e+01 0.0 
3.393731848929e+01 -1.413034777044e+01 0.0 
6.482156824153e+00 -1.174575135362e+01 0.0 
2.077971718439e+01 -1.421279621836e+01 0.0 
3.455084320178e+00 -2.562590040585e+00 0.0 
3.099056096250e+01 -9.270280416035e+00 0.0 
5.580176125418e+00 -1.217387969259e+01 0.0 
1.707247630389e+01 -7.660651981710e+00 0.0 
1.418658814174e+01 -1.180390575393e+01 0.0 
2.049103025389e+01 -1.811296706038e+01 0.0 
4.680386172316e+00 -1.260396879301e+01 0.0 
1.699679896554e+01 -8.624561788199e+00 0.0 
3.779470168555e+00 -1.303424899720e+01 0.0 
3.036589870126e+01 -7.879832518349e+00 0.0 
3.306993001774e+01 -1.457671062095e+01 0.0 
2.840150110165e+00 -1.346530088269e+01 0.0 
2.732011135052e+01 -1.464591214560e+01 0.0 
5.423639259568e+00 -2.659711955016e+00 0.0 
2.324455961696e+01 -1.387269388211e+01 0.0 
1.752768355571e+00 -1.693128613594e+01 0.0 
1.020244783051e+01 -8.076834012808e+00 0.0 
1.330873875224e+01 -1.222417528206e+01 0.0 
3.297727364880e+01 -1.555480372087e+01 0.0 
2.890929955439e+01 -6.868664170731e+00 0.0 
1.323294664622e+01 -1.320754260334e+01 0.0 
2.726532861246e+01 -1.560593120806e+01 0.0 
2.240020643398e+01 -1.429299177247e+01 0.0 
2.090445823633e+01 -1.228128621332e+01 0.0 
1.315809881502e+01 -1.420739326938e+01 0.0 
2.781328038068e+01 -7.181956082300e+00 0.0 
8.614200829057e+00 -5.936933226306e+00 0.0 
8.714765730069e+00 -4.979270529687e+00 0.0 
1.611881701099e+01 -9.041973294003e+00 0.0 
2.806830314340e+01 -1.614622947108e+01 0.0 
2.084435391396e+00 -3.385085422913e+00 0.0 
3.133211811152e+01 -1.542347619750e+01 0.0 
9.693114650768e+00 -3.590281506442e+00 0.0 
1.531883592202e+01 -8.504584946143e+00 0.0 
2.151589117094e+01 -1.578915763018e+01 0.0 
4.918943882696e+01 -1.355538828056e+01 0.0 
1.443236615188e+01 -8.918701794549e+00 0.0 
8.276250966452e-01 -5.537685192197e+00 0.0 
1.362790867918e+01 -8.374718262212e+00 0.0 
2.083767477370e+01 -1.324843956035e+01 0.0 
1.273834678703e+01 -8.790890389337e+00 0.0 
1.192275845670e+01 -8.242261327467e+00 0.0 
4.477236023583e+01 -1.824312396664e+01 0.0 
1.102989384254e+01 -8.649855800911e+00 0.0 
4.849096516045e+01 -1.917293752213e+01 0.0 
1.588996752238e+00 -1.910230934687e+01 0.0 
4.904245197583e+01 -1.159839008158e+01 0.0 
2.753852929608e+01 -5.782128488093e+00 0.0 
1.756133602833e+01 -8.306130313187e-01 0.0 
2.615423700951e+01 -6.153865090092e+00 0.0 
1.028818761294e+01 -7.122020845892e+00 0.0 
2.970818901196e+01 -1.527821347593e+01 0.0 
4.801461623449e+01 -1.164472570985e+01 0.0 
9.455722100419e+00 -6.546069291118e+00 0.0 
3.089099236677e+01 -1.835339328261e+01 0.0 
2.350000000013e+01 -1.920825896750e+01 0.0 
4.830620531887e+01 -1.506626155470e+01 0.0 
1.725381944701e+01 -1.688794487850e+01 0.0 
2.156246225273e+01 -1.475893794002e+01 0.0 
4.919319648787e+01 -1.742767505896e+01 0.0 
4.437935623576e+01 -1.077662927266e+01 0.0 
1.001520521978e+01 -1.652692675208e+00 0.0 
9.067160240050e-01 -1.441937727541e+01 0.0 
2.603365149390e+01 -4.755996613848e+00 0.0 
2.458344439002e+01 -4.873645517696e+00 0.0 
2.304312390142e+01 -3.836552768096e+00 0.0 
2.546923202198e+00 -6.902480355749e+00 0.0 
1.251534969393e+01 -2.490989965776e+00 0.0 
2.454061833377e+01 -3.933354231935e+00 0.0 
1.788186558740e+01 -1.827424884923e+01 0.0 
4.090785243552e+01 -1.166553231904e+01 0.0 
2.230128851568e+01 -1.623015738726e+01 0.0 
2.302362347568e+01 -2.916239960270e+00 0.0 
3.878119254461e+01 -1.830091164002e+01 0.0 
2.210081359958e+01 -1.829238229150e+01 0.0 
8.443704882233e+00 -1.921993252862e+01 0.0 
2.218405824691e+01 -1.724557581508e+01 0.0 
2.151157503963e+01 -2.790636689331e+00 0.0 
3.741658958955e+01 -1.250400191722e+01 0.0 
2.697247663737e+01 -1.838290202309e+01 0.0 
4.743362342862e+01 -1.585850773010e+01 0.0 
6.671345075358e+00 -1.924977576322e+01 0.0 
3.900825404537e+01 -1.157220003875e+01 0.0 
4.649692961375e+01 -1.836335837481e+01 0.0 
1.578831424832e+01 -3.678284023361e+00 0.0 
4.814208768888e+01 -1.841249298770e+01 0.0 
2.964123298315e+01 -1.625739458193e+01 0.0 
4.580760351902e+01 -1.284294554687e+01 0.0 
3.561520879615e+01 -1.245548941949e+01 0.0 
2.555418095658e+00 -1.841101588290e+01 0.0 
3.288468366144e+01 -1.834258164109e+01 0.0 
2.065894391445e+01 -2.240688571739e+00 0.0 
4.739171429915e+01 -1.496536413446e+01 0.0 
3.478086729185e+00 -8.576434653209e+00 0.0 
1.606010630246e+01 -1.588421807951e+00 0.0 
1.018329200594e+01 -1.834320874317e+01 0.0 
2.957213339430e+01 -1.720496954591e+01 0.0 
4.142712790164e+00 -1.837794506222e+01 0.0 
6.698721532573e-01 -2.499999999997e+00 0.0 
8.037039123140e+00 -1.571229354954e+00 0.0 
1.203541361428e+01 -1.847784298001e+01 0.0 
2.899968332038e+01 -1.848264722179e+01 0.0 
1.469229460948e+01 -4.219485753730e+00 0.0 
4.049590781957e+01 -1.932812501995e+01 0.0 
1.996211678340e+01 -1.506329754720e+00 0.0 
4.250588298353e+01 -1.067383247529e+01 0.0 
5.831497011152e+00 -1.635396227234e+00 0.0 
5.317606125670e+00 -1.923927974868e+01 0.0 
4.208546426993e+01 -1.842830665025e+01 0.0 
2.327553405011e+00 -9.459409929662e+00 0.0 
3.568351902251e+01 -1.096637218582e+01 0.0 
1.682104374890e+00 -6.231413350963e+00 0.0 
2.451812238018e+01 -1.766524914339e+01 0.0 
1.058003429638e+01 -2.391839617098e+00 0.0 
4.399988753123e+01 -1.851998776342e+01 0.0 
1.400000000010e+01 -1.852293523028e+01 0.0 
3.604719565984e+01 -1.850662876800e+01 0.0 
1.951297136734e+01 -1.938092349694e+01 0.0 
1.821365318472e+01 -1.531276353287e+00 0.0 
2.298031859732e+01 -1.854635324722e+01 0.0 
1.552168066204e+01 -1.764280741977e+01 0.0 
4.572957713638e+01 -1.073347898229e+01 0.0 
3.429637429624e+01 -1.838861552790e+01 0.0 
2.427434426052e+00 -7.705577451869e+00 0.0 
4.662792031485e+00 -3.359424455416e+00 0.0 
4.926794919243e+01 -1.926794919243e+01 0.0 
7.320508075690e-01 -7.320508075688e-01 0.0 
4.926794919243e+01 -1.073205080757e+01 0.0 
7.320508075705e-01 -1.926794919243e+01 0.0 
2.917460242467e+00 -3.202866455310e+00 0.0 
4.838200575963e+01 -1.232674147454e+01 0.0 
2.998445708009e+01 -1.854403752148e+01 0.0 
5.949940090766e-01 -1.152762038165e+01 0.0 
4.844763495759e+01 -1.678092548787e+01 0.0 
1.301685480160e+01 -3.170056592566e+00 0.0 
1.650046335855e+01 -6.731535384067e-01 0.0 
4.854881540991e+01 -1.405224059779e+01 0.0 
2.119545114693e+01 -1.846813384545e+01 0.0 
3.797852849897e+01 -1.857978513215e+01 0.0 
4.649823708745e+01 -1.338351810816e+01 0.0 
2.012685900976e+01 -2.889659035009e+00 0.0 
2.953271913273e+01 -1.791558075192e+01 0.0 
2.408509097292e+00 -1.021949208421e+01 0.0 
2.642589566221e+01 -1.773216561448e+01 0.0 
1.730010270775e+01 -1.763165076721e+01 0.0 
2.017406551304e+01 -8.513536440582e-01 0.0 
5.254761581934e-01 -1.249999999999e+01 0.0 
6.640448215642e+00 -1.545337834885e+00 0.0 
7.843361506349e+00 -1.852719839527e+01 0.0 
1.588442191088e+00 -1.066158564320e+01 0.0 
3.031250000000e+01 -6.420918367347e+00 0.0 
4.951250000000e+01 -6.500000000000e+00 0.0 
3.180701530612e+01 -7.414795918363e+00 0.0 
4.951250000000e+01 -7.500000000000e+00 0.0 
3.331250000000e+01 -8.420918367347e+00 0.0 
4.951470588234e+01 -8.500000000000e+00 0.0 
3.480610198624e+01 -9.413633635267e+00 0.0 
4.951470588234e+01 -9.500000000000e+00 0.0 

SCALARS node_number int
LOOKUP_TABLE default
1
2
3
4
5
6
7
8
9
10
11
12
13
14
15
16
17
18
19
20
21
22
23
24
25
26
27
28
29
30
31
32
33
34
35
36
37
38
39
40
41
42
43
44
45
46
47
48
49
50
51
52
53
54
55
56
57
58
59
60
61
62
63
64
65
66
67
68
69
70
71
72
73
74
75
76
77
78
79
80
81
82
84
85
86
87
88
89
90
91
92
93
99
100
101
102
104
105
106
107
108
109
110
111
112
113
114
115
116
117
118
119
120
121
122
123
124
125
126
127
128
129
130
131
132
133
134
135
136
290
291
292
293
294
295
296
297
298
299
300
301
302
303
304
305
306
307
308
309
310
311
312
313
314
315
316
317
318
319
320
321
322
323
324
325
326
327
328
329
330
331
332
333
334
335
336
337
338
339
340
341
342
343
344
345
346
347
348
349
350
351
352
353
354
355
356
357
358
359
360
361
362
363
364
365
366
367
368
369
370
371
372
373
374
375
376
377
378
379
380
381
382
383
384
385
386
387
388
389
390
391
392
393
394
395
396
397
398
399
400
401
402
403
404
405
406
407
408
409
410
411
412
413
414
415
416
417
418
419
420
421
422
423
424
425
426
427
428
429
430
431
432
433
434
435
436
437
438
439
440
441
442
443
444
445
446
447
448
449
450
451
452
453
454
455
456
457
458
459
460
461
462
463
464
465
466
467
468
469
470
471
472
473
474
475
476
477
478
479
480
481
482
483
484
485
486
487
488
489
490
491
492
493
494
495
496
497
498
499
500
501
502
503
504
505
506
507
508
509
510
511
512
513
514
515
516
517
518
519
520
521
522
523
524
525
526
527
528
529
530
531
532
533
534
535
536
537
538
539
540
541
542
543
544
545
546
547
548
549
550
551
552
553
554
555
556
557
558
559
560
561
562
563
564
565
566
567
568
569
570
571
572
573
574
575
576
577
578
579
580
581
582
583
584
585
586
587
588
589
590
591
592
593
594
595
596
597
598
599
600
601
602
603
604
605
606
607
608
609
610
611
612
613
614
615
616
617
618
619
620
621
622
623
624
625
626
627
628
629
630
631
632
633
634
635
636
637
638
639
640
641
642
643
644
645
646
647
648
649
650
651
652
653
654
655
656
657
658
659
660
661
662
663
664
665
666
667
668
669
670
671
672
673
674
675
676
677
678
679
680
681
682
683
684
685
686
687
688
689
690
691
692
693
694
695
696
697
698
699
700
701
702
703
704
705
706
707
708
709
710
711
712
713
714
715
716
717
718
719
720
721
722
723
724
725
726
727
728
729
730
731
732
733
734
735
736
737
738
739
740
741
742
743
744
745
746
747
748
749
750
751
752
753
754
755
756
757
758
759
760
761
762
763
764
765
766
767
768
769
770
771
772
773
774
775
776
777
778
779
780
781
782
783
784
785
786
787
788
789
790
791
792
793
794
795
796
797
798
799
800
801
802
803
804
805
806
807
808
809
810
811
812
813
814
815
816
817
818
819
820
821
822
823
824
825
826
827
828
829
830
831
832
833
834
835
836
837
838
839
840
841
842
843
844
845
846
847
848
849
850
851
852
853
854
855
856
857
858
859
860
861
862
863
864
865
866
867
868
869
870
871
872
873
874
875
876
877
878
879
880
881
882
883
884
885
886
887
888
889
890
891
892
893
894
895
896
897
898
899
900
901
902
903
904
905
906
907
908
909
910
911
912
913
914
915
916
917
918
919
920
921
922
923
924
925
926
927
928
929
930
931
932
933
934
935
936
937
938
939
940
941
942
943
944
945
946
947
948
949
950
951
952
953
954
955
956
957
958
959
960
961
962
963
964
965
966
967
968
969
970
971
972
973
974
975
976
977
978
979
980
981
982
983
984
985
986
987
988
989
990
991
992
993
994
995
996
997
998
999
1000
1001
1002
1003
1004
1005
1006
1007
1008
1009
1010
1011
1012
1013
1014
1015
1016
1017
1018
1019
1020
1021
1022
1023
1024
1025
1026
1027
1028
1029
1030
1031
1032
1033
1034
1035
1036
1037
1038
1039
1040
1041
1042
1043
1044
1045
1046
1047
1048
1049
1050
1051
1052
1053
1054
1055
1056
1057
1058
1059
1060
1061
1062
1063
1064
1065
1066
1067
1068
1069
1070
1071
1072
1073
1074
1075
1076
1077
1078
1079
1080
1081
1082
1083
1084
1085
1086
1087
1088
1089
1090
1091
1092
1093
1094
1095
1096
1097
1098
1099
1100
1101
1102
1103
1104
1105
1106
1107
1108
1109
1110
1111
1112
1113
1114
1115
1116
1117
1118
1119
1120
1121
1122
1123
1124
1125
1126
1127
1128
1129
1130
1131
1132
1133
1134
1135
1136
1137
1138
1139
1140
1141
1142
1143
1144
1145
1146
1147
1148
1149
1150
1151
1152
1153
1154
1155
1156
1157
1158
1159
1160
1161
1162
1163
1164
1165
1166
1167
1168
1169
1170
1171
1172
1173
1174
1175
1176
1177
1178
1179
1180
1181
1182
1183
1184
1185
1186
1187
1188
1189
1190
1191
1192
1193
1194
1195
1196
1197
1198
1199
1200
1201
1202
1203
1204
1205
1206
1207
1208
1209
1210
1211
1212
1213
1214
1215
1216
1217
1218
1219
1220
1221
1222
1223
1224
1225
1226
1227
1228
1229
1230
1231
1232
1233
1234
1235
1236
1237
1238
1239
1240
1241
1242
1243
1244
1245
1246
1247
1248
1249
1250
1251
1252
1253
1254
1255
1256
1257
1258
1259
1260
1261
1262
1263
1264
1277
1278
1279
1280
1281
1282
1283
1284

VECTORS node_mesh_deformation float
0.0 7.526882424268e-02 0.0 
0.000000000000e+00 1.225983893870e-01 0.0 
0.0 0.000000000000e+00 0.0 
0.000000000000e+00 0.000000000000e+00 0.0 
0.0 7.545460263350e-02 0.0 
0.0 7.514965292366e-02 0.0 
0.0 7.437900035401e-02 0.0 
0.0 7.315441276305e-02 0.0 
0.0 7.147374015124e-02 0.0 
0.0 6.937923336858e-02 0.0 
0.0 6.689286459779e-02 0.0 
0.0 6.402730108420e-02 0.0 
0.0 6.079604829950e-02 0.0 
0.0 5.720293350520e-02 0.0 
0.0 5.324088921660e-02 0.0 
0.0 4.890648486661e-02 0.0 
0.0 4.419999254004e-02 0.0 
0.0 3.912929782431e-02 0.0 
0.0 3.365223217894e-02 0.0 
0.0 2.776685443238e-02 0.0 
0.0 2.146677192093e-02 0.0 
0.0 1.473789816004e-02 0.0 
0.0 7.575112682499e-03 0.0 
0.000000000000e+00 0.000000000000e+00 0.0 
0.000000000000e+00 0.000000000000e+00 0.0 
0.000000000000e+00 0.000000000000e+00 0.0 
0.000000000000e+00 0.000000000000e+00 0.0 
0.000000000000e+00 0.000000000000e+00 0.0 
0.000000000000e+00 0.000000000000e+00 0.0 
0.000000000000e+00 0.000000000000e+00 0.0 
0.000000000000e+00 0.000000000000e+00 0.0 
0.000000000000e+00 0.000000000000e+00 0.0 
0.000000000000e+00 0.000000000000e+00 0.0 
0.000000000000e+00 0.000000000000e+00 0.0 
0.000000000000e+00 0.000000000000e+00 0.0 
0.000000000000e+00 0.000000000000e+00 0.0 
0.000000000000e+00 0.000000000000e+00 0.0 
0.000000000000e+00 0.000000000000e+00 0.0 
0.000000000000e+00 0.000000000000e+00 0.0 
0.000000000000e+00 0.000000000000e+00 0.0 
0.000000000000e+00 0.000000000000e+00 0.0 
0.000000000000e+00 0.000000000000e+00 0.0 
0.000000000000e+00 0.000000000000e+00 0.0 
0.000000000000e+00 0.000000000000e+00 0.0 
0.000000000000e+00 0.000000000000e+00 0.0 
0.000000000000e+00 0.000000000000e+00 0.0 
0.000000000000e+00 0.000000000000e+00 0.0 
0.000000000000e+00 0.000000000000e+00 0.0 
0.000000000000e+00 0.000000000000e+00 0.0 
0.000000000000e+00 0.000000000000e+00 0.0 
0.000000000000e+00 0.000000000000e+00 0.0 
0.000000000000e+00 0.000000000000e+00 0.0 
0.000000000000e+00 0.000000000000e+00 0.0 
0.000000000000e+00 0.000000000000e+00 0.0 
0.000000000000e+00 0.000000000000e+00 0.0 
0.000000000000e+00 0.000000000000e+00 0.0 
0.000000000000e+00 0.000000000000e+00 0.0 
0.000000000000e+00 0.000000000000e+00 0.0 
0.000000000000e+00 0.000000000000e+00 0.0 
0.000000000000e+00 0.000000000000e+00 0.0 
0.000000000000e+00 0.000000000000e+00 0.0 
0.000000000000e+00 0.000000000000e+00 0.0 
0.000000000000e+00 0.000000000000e+00 0.0 
0.000000000000e+00 0.000000000000e+00 0.0 
0.000000000000e+00 0.000000000000e+00 0.0 
0.000000000000e+00 0.000000000000e+00 0.0 
0.000000000000e+00 0.000000000000e+00 0.0 
0.000000000000e+00 0.000000000000e+00 0.0 
0.000000000000e+00 0.000000000000e+00 0.0 
0.000000000000e+00 0.000000000000e+00 0.0 
0.000000000000e+00 0.000000000000e+00 0.0 
0.000000000000e+00 0.000000000000e+00 0.0 
0.000000000000e+00 1.120632748056e-01 0.0 
0.000000000000e+00 1.011133312346e-01 0.0 
0.000000000000e+00 8.975429687074e-02 0.0 
0.000000000000e+00 7.800727740752e-02 0.0 
0.000000000000e+00 6.587648348467e-02 0.0 
0.000000000000e+00 5.338144133769e-02 0.0 
0.000000000000e+00 4.053373234319e-02 0.0 
0.000000000000e+00 2.734592256788e-02 0.0 
0.000000000000e+00 1.383366810613e-02 0.0 
-1.390407010825e-02 4.724299920616e-02 0.0 
1.492963485292e-02 1.186328772599e-01 0.0 
-6.545180316717e-03 7.177938923837e-02 0.0 
-6.775906897722e-04 9.107859659072e-02 0.0 
4.203173770087e-03 1.070616473122e-01 0.0 
8.154242530608e-03 1.197120493357e-01 0.0 
1.172033480069e-02 1.291622753473e-01 0.0 
1.416626922359e-02 1.348867295081e-01 0.0 
1.601706195448e-02 1.352513137394e-01 0.0 
1.657052983712e-02 1.319057618557e-01 0.0 
1.609621404015e-02 1.261501077076e-01 0.0 
0.000000000000e+00 1.604448789013e-01 0.0 
0.000000000000e+00 1.516320170338e-01 0.0 
0.000000000000e+00 1.423719713102e-01 0.0 
0.000000000000e+00 1.327129736984e-01 0.0 
8.462724894400e-04 1.226041007157e-01 0.0 
1.685392248177e-03 1.226195419873e-01 0.0 
2.538140049772e-03 1.226388441412e-01 0.0 
3.402461880555e-03 1.226522285562e-01 0.0 
4.279125957453e-03 1.226672888423e-01 0.0 
5.172461059225e-03 1.226535656820e-01 0.0 
6.092131090675e-03 1.226226115249e-01 0.0 
7.030704104679e-03 1.225403998911e-01 0.0 
8.012640585278e-03 1.224139030804e-01 0.0 
9.034599216655e-03 1.221938628377e-01 0.0 
1.009678293178e-02 1.218627831176e-01 0.0 
1.121135809153e-02 1.213903968281e-01 0.0 
1.238151273220e-02 1.207299457760e-01 0.0 
1.361585277251e-02 1.198254451703e-01 0.0 
-1.119817545830e-02 3.331739808028e-02 0.0 
-7.149951001729e-03 2.592681379237e-02 0.0 
-2.771050223217e-03 2.299710853812e-02 0.0 
1.845490471236e-03 2.469910860665e-02 0.0 
5.071658139849e-03 3.320146045265e-02 0.0 
6.776444103728e-03 4.339211005486e-02 0.0 
7.432117523541e-03 5.018865154517e-02 0.0 
7.546130984947e-03 5.547662730533e-02 0.0 
7.089425705894e-03 5.972168422067e-02 0.0 
6.603817639791e-03 6.313567410574e-02 0.0 
6.109676064984e-03 6.592010485413e-02 0.0 
5.531556842131e-03 6.814674230110e-02 0.0 
4.968825810781e-03 6.999080167759e-02 0.0 
4.273864070965e-03 7.149617604955e-02 0.0 
3.578295953734e-03 7.270763050787e-02 0.0 
2.901468120452e-03 7.364699616922e-02 0.0 
2.220075592613e-03 7.437366273572e-02 0.0 
1.525472664412e-03 7.490095746853e-02 0.0 
7.736154443438e-04 7.519134150146e-02 0.0 
8.800240721598e-04 1.604835502050e-01 0.0 
1.686447943079e-03 1.604811288857e-01 0.0 
2.490858309123e-03 1.604982416754e-01 0.0 
3.291201407499e-03 1.605144762605e-01 0.0 
4.081145967959e-03 1.605232185400e-01 0.0 
4.855336559352e-03 1.605156935998e-01 0.0 
5.608742996081e-03 1.604799335560e-01 0.0 
6.336567893499e-03 1.604008058048e-01 0.0 
7.033929951653e-03 1.602596653623e-01 0.0 
7.695575936111e-03 1.600331631172e-01 0.0 
8.316464730804e-03 1.596925681330e-01 0.0 
8.892235021946e-03 1.592025489517e-01 0.0 
9.419648451683e-03 1.585201520714e-01 0.0 
9.897046194169e-03 1.575933012592e-01 0.0 
1.032500320173e-02 1.563553138223e-01 0.0 
1.071156265755e-02 1.547235312662e-01 0.0 
1.107541770254e-02 1.525899276078e-01 0.0 
1.145904462117e-02 1.498160217006e-01 0.0 
1.194456909785e-02 1.462393449849e-01 0.0 
1.251270142120e-02 1.415580540720e-01 0.0 
1.483184656879e-02 1.393517069181e-01 0.0 
1.388573318177e-02 1.424871391365e-01 0.0 
1.301506682825e-02 1.448916945545e-01 0.0 
1.223049881597e-02 1.467583410754e-01 0.0 
1.148777517017e-02 1.481771483665e-01 0.0 
1.076806202528e-02 1.492533952575e-01 0.0 
1.005305967097e-02 1.500530268505e-01 0.0 
9.334984000809e-03 1.506383987088e-01 0.0 
8.608908341863e-03 1.510552397161e-01 0.0 
7.872462612646e-03 1.513413137068e-01 0.0 
7.124476967022e-03 1.515276259032e-01 0.0 
6.364647560083e-03 1.516397983435e-01 0.0 
5.594330853363e-03 1.516989010556e-01 0.0 
4.814982141639e-03 1.517216508911e-01 0.0 
4.027993584018e-03 1.517210117765e-01 0.0 
3.234526991157e-03 1.517074507868e-01 0.0 
2.435512175275e-03 1.516883762047e-01 0.0 
1.630485641243e-03 1.516660677524e-01 0.0 
8.164806318618e-04 1.516188545511e-01 0.0 
8.373047959580e-04 1.424093180653e-01 0.0 
1.678010912670e-03 1.424160617411e-01 0.0 
2.516483051380e-03 1.424399592129e-01 0.0 
3.354848523465e-03 1.424614936205e-01 0.0 
4.193644329696e-03 1.424764021067e-01 0.0 
5.035129835498e-03 1.424758745708e-01 0.0 
5.879623827028e-03 1.424493634510e-01 0.0 
6.729846873490e-03 1.423822539920e-01 0.0 
7.585312713616e-03 1.422572144638e-01 0.0 
8.449385235956e-03 1.420476664240e-01 0.0 
9.326616304854e-03 1.417249111525e-01 0.0 
1.022144724619e-02 1.412546357684e-01 0.0 
1.114138271269e-02 1.405926935303e-01 0.0 
1.209744188935e-02 1.396870692572e-01 0.0 
1.309785646817e-02 1.384562657940e-01 0.0 
1.417387623886e-02 1.368375940290e-01 0.0 
1.530401214032e-02 1.346962268585e-01 0.0 
1.482772120021e-02 1.279576955998e-01 0.0 
1.365721423583e-02 1.293538628729e-01 0.0 
1.252101893221e-02 1.303876922243e-01 0.0 
1.145087366213e-02 1.311684072421e-01 0.0 
1.043138775932e-02 1.317384372209e-01 0.0 
9.452638593096e-03 1.321436576314e-01 0.0 
8.508268970537e-03 1.324235020235e-01 0.0 
7.592661229097e-03 1.326033341432e-01 0.0 
6.698564129245e-03 1.327077309876e-01 0.0 
5.826266778563e-03 1.327682784081e-01 0.0 
4.967990650279e-03 1.327892337155e-01 0.0 
4.124173311020e-03 1.327904038145e-01 0.0 
3.288088067933e-03 1.327744796337e-01 0.0 
2.460236835510e-03 1.327547608585e-01 0.0 
1.638174178275e-03 1.327295139560e-01 0.0 
8.163138629769e-04 1.326863953517e-01 0.0 
-9.805021359448e-03 6.090747456656e-02 0.0 
-3.506023226205e-03 8.183387456284e-02 0.0 
1.893571932506e-03 9.949162627984e-02 0.0 
6.273616749620e-03 1.137987791788e-01 0.0 
1.007185359236e-02 1.249200976869e-01 0.0 
1.323954888997e-02 1.325992559001e-01 0.0 
1.530321243516e-02 1.355925646286e-01 0.0 
1.647242788792e-02 1.339234178073e-01 0.0 
1.645765596614e-02 1.292743597941e-01 0.0 
1.559438627773e-02 1.225781673796e-01 0.0 
3.687440052644e-03 8.058116137833e-02 0.0 
2.533094378258e-03 6.622559884306e-03 0.0 
4.048281621873e-03 6.147881171498e-02 0.0 
-4.442630772061e-04 3.048902136414e-02 0.0 
1.000969376612e-03 6.349716922195e-03 0.0 
1.196236952790e-02 1.099699258673e-01 0.0 
-3.482851758008e-05 5.513195654339e-02 0.0 
3.863677260863e-03 7.394911552634e-03 0.0 
1.734799376407e-02 1.252341235903e-01 0.0 
4.513688152556e-03 8.310272763751e-03 0.0 
1.856229282774e-02 1.252805502820e-01 0.0 
2.704748978379e-04 5.931846825053e-03 0.0 
3.358210870829e-03 7.102739783329e-02 0.0 
4.475161994410e-03 9.699487587742e-03 0.0 
1.629626777967e-02 1.131945324090e-01 0.0 
-5.160526092685e-05 6.802695889853e-02 0.0 
1.995533705801e-05 4.270712286277e-02 0.0 
4.068976041829e-03 1.096334801278e-02 0.0 
2.811785234258e-03 1.120199427517e-02 0.0 
8.109847348479e-04 1.181481597100e-02 0.0 
1.492680084205e-03 1.273417170157e-02 0.0 
1.992973662965e-03 1.124630001433e-02 0.0 
1.323412955187e-02 1.109895247160e-01 0.0 
8.609202168074e-03 1.127786501753e-01 0.0 
5.637181062070e-03 1.128662725379e-01 0.0 
5.471696664543e-04 7.180471484685e-02 0.0 
5.384917067008e-05 6.527415312473e-03 0.0 
-3.968668203264e-03 3.255421531913e-02 0.0 
1.953239127012e-03 7.415576530645e-02 0.0 
2.644694831666e-05 2.513535718734e-02 0.0 
2.894361130409e-03 1.135902230059e-01 0.0 
1.518296308758e-04 7.375637722483e-02 0.0 
3.863490577054e-03 1.258326704325e-02 0.0 
3.962619229789e-03 7.212268469292e-03 0.0 
4.542163992411e-03 8.884422220980e-03 0.0 
3.461231577006e-03 7.376930926512e-03 0.0 
1.754890980418e-03 6.119619299888e-03 0.0 
2.217435911959e-03 4.670465489457e-02 0.0 
1.080568273433e-02 1.127543313125e-01 0.0 
6.564561280094e-04 7.278335961949e-03 0.0 
4.090986569949e-04 4.755124735212e-02 0.0 
3.958253694616e-03 6.711023704081e-02 0.0 
-6.484578989230e-05 6.238452436374e-02 0.0 
4.038270506115e-04 9.625485721909e-03 0.0 
1.524927785116e-02 1.185824069284e-01 0.0 
8.238100348333e-03 9.706904248765e-02 0.0 
1.851720043942e-02 1.273032108817e-01 0.0 
1.773901918191e-02 1.202889686605e-01 0.0 
-2.378453256068e-03 6.065496584707e-02 0.0 
6.632309899217e-04 9.412868930364e-02 0.0 
1.130872086197e-05 5.206133732763e-03 0.0 
9.028356977447e-04 7.521982812288e-02 0.0 
2.229070124855e-04 2.164439846641e-02 0.0 
1.560754106559e-02 1.087614787808e-01 0.0 
1.668527931388e-02 1.033397851920e-01 0.0 
1.535237426358e-02 9.971693694155e-02 0.0 
1.658241416160e-02 9.329542051347e-02 0.0 
1.526485968687e-02 8.845765618009e-02 0.0 
1.614671927391e-02 8.265731615832e-02 0.0 
1.760685277222e-02 8.724844705737e-02 0.0 
1.690103514426e-02 7.671748923342e-02 0.0 
1.846930353629e-02 8.115908937753e-02 0.0 
1.463199245154e-02 7.753415551007e-02 0.0 
1.746738054372e-02 7.068397738863e-02 0.0 
1.912480074824e-02 7.496535119442e-02 0.0 
1.781430560179e-02 6.462518439675e-02 0.0 
1.952917523936e-02 6.872874748625e-02 0.0 
2.067905035882e-02 7.871645695132e-02 0.0 
2.112357344338e-02 7.231806459431e-02 0.0 
2.209216921963e-02 8.185057685125e-02 0.0 
2.255153711818e-02 7.525887117395e-02 0.0 
2.126938551156e-02 6.600269447783e-02 0.0 
2.268504700418e-02 6.880143275966e-02 0.0 
2.377698735213e-02 7.751968992715e-02 0.0 
2.386691025394e-02 7.092135261641e-02 0.0 
2.475698085917e-02 7.904625283839e-02 0.0 
2.477554453506e-02 7.230830553577e-02 0.0 
2.546083994315e-02 7.981672004708e-02 0.0 
2.538572611734e-02 7.298771279193e-02 0.0 
2.442957116842e-02 6.588463774319e-02 0.0 
2.493713094393e-02 6.655349348075e-02 0.0 
2.566693428093e-02 7.295972752547e-02 0.0 
2.510146036477e-02 6.656011819406e-02 0.0 
2.559977134934e-02 7.224551000533e-02 0.0 
2.490576843356e-02 6.593144869762e-02 0.0 
2.418604006436e-02 6.064405658224e-02 0.0 
2.386449513517e-02 6.018348408127e-02 0.0 
2.434006733038e-02 6.471780188073e-02 0.0 
2.317015869030e-02 5.921632275195e-02 0.0 
2.340060813450e-02 6.297937624762e-02 0.0 
2.210337253485e-02 5.780864686490e-02 0.0 
2.209119926535e-02 6.078148718047e-02 0.0 
2.065879584043e-02 5.603220949896e-02 0.0 
2.054345231790e-02 5.330563677270e-02 0.0 
1.899564204024e-02 5.200778727880e-02 0.0 
1.884673870812e-02 5.399967223966e-02 0.0 
1.710745126780e-02 5.057562764311e-02 0.0 
1.719254494818e-02 4.867852179009e-02 0.0 
1.528408654573e-02 4.787337943980e-02 0.0 
1.532844721737e-02 4.595104424057e-02 0.0 
1.345675059805e-02 4.576222027075e-02 0.0 
1.313692459415e-02 4.715744239513e-02 0.0 
1.139691416283e-02 4.571360618757e-02 0.0 
1.169015756375e-02 4.410345352833e-02 0.0 
9.759499217065e-03 4.466989746478e-02 0.0 
9.211962392435e-03 4.594014918820e-02 0.0 
7.778916454818e-03 4.549656218418e-02 0.0 
8.267700844081e-03 4.386550203024e-02 0.0 
6.495263224597e-03 4.520621404069e-02 0.0 
5.831313103725e-03 4.666978084339e-02 0.0 
4.799734419914e-03 4.683098994959e-02 0.0 
5.378996763660e-03 4.491951761750e-02 0.0 
3.912034188609e-03 4.692550580598e-02 0.0 
3.248542321124e-03 4.877085231914e-02 0.0 
2.610062008351e-03 4.914146426513e-02 0.0 
3.160935362558e-03 4.685426823789e-02 0.0 
2.070886597235e-03 4.930804688464e-02 0.0 
2.516984663892e-03 4.660064018251e-02 0.0 
1.497345320232e-03 5.160694552877e-02 0.0 
1.166159555643e-03 5.189915880726e-02 0.0 
6.252958279998e-04 5.424723006252e-02 0.0 
4.696545269560e-04 5.458195272342e-02 0.0 
2.296245374611e-02 5.522890436890e-02 0.0 
2.364989706827e-05 5.694575157985e-02 0.0 
7.100522954495e-05 5.622053803121e-02 0.0 
-1.008459332308e-05 5.728822346707e-02 0.0 
3.390900419253e-04 5.460683987777e-02 0.0 
-3.310485627601e-04 5.965391292389e-02 0.0 
-2.892459798067e-04 5.995450104580e-02 0.0 
-4.679117892046e-04 6.229270371179e-02 0.0 
2.318019580911e-02 6.641397148321e-02 0.0 
2.109734598185e-02 5.983112963177e-02 0.0 
-3.969100547412e-04 6.251724737634e-02 0.0 
-4.338002770687e-04 6.478844136766e-02 0.0 
-5.093877368436e-04 6.433542304843e-02 0.0 
-3.086318617109e-04 6.674412140365e-02 0.0 
1.384938534896e-02 8.336802991697e-02 0.0 
1.306682006769e-02 7.205510438615e-02 0.0 
1.240930801112e-02 7.791312493366e-02 0.0 
1.147375387735e-02 6.630888824746e-02 0.0 
1.093979680343e-02 7.209204231902e-02 0.0 
-2.874153890584e-04 6.708040927396e-02 0.0 
1.599931499867e-02 5.973752829759e-02 0.0 
1.187541199500e-02 6.036344490227e-02 0.0 
2.436446974139e-02 8.604147489292e-02 0.0 
2.590244751602e-02 7.909651607484e-02 0.0 
1.693758517167e-02 4.616006204403e-02 0.0 
-2.543996749544e-04 5.992974497506e-02 0.0 
-3.365792094483e-04 6.242728791263e-02 0.0 
-2.201957817247e-04 5.960069594097e-02 0.0 
3.546182690052e-03 4.410301481830e-02 0.0 
2.811668598916e-03 4.346368106759e-02 0.0 
3.742852575011e-03 4.087704433826e-02 0.0 
2.941603776843e-03 3.987333270625e-02 0.0 
3.743880216799e-03 3.716271072614e-02 0.0 
2.903593664060e-03 3.580878306235e-02 0.0 
2.260446142408e-03 3.869331227483e-02 0.0 
2.194634287836e-03 3.428586615690e-02 0.0 
1.691386593373e-03 3.731961367466e-02 0.0 
3.553477291121e-03 3.294688822883e-02 0.0 
4.550291503328e-03 3.450031504875e-02 0.0 
1.608504918022e-03 3.258455244555e-02 0.0 
1.226082659643e-03 3.574195380474e-02 0.0 
1.135987482672e-03 3.069321040402e-02 0.0 
8.558128362530e-04 3.396052773948e-02 0.0 
8.736256671611e-04 3.887060960029e-02 0.0 
5.994024950722e-04 3.717777550543e-02 0.0 
5.689978488768e-04 4.195158259564e-02 0.0 
1.503750217742e-02 4.338981944795e-02 0.0 
1.633702088196e-02 4.302523949988e-02 0.0 
1.440670015525e-02 4.020513923978e-02 0.0 
1.537794522406e-02 3.928247507520e-02 0.0 
1.343143753119e-02 3.640641316919e-02 0.0 
1.405790746982e-02 3.494284800147e-02 0.0 
1.210965763233e-02 3.200145299206e-02 0.0 
1.153163662785e-02 3.380930280098e-02 0.0 
1.792369494933e-02 5.850783796748e-02 0.0 
1.668304123988e-02 5.183618544837e-02 0.0 
1.833928190924e-02 5.539421259824e-02 0.0 
1.592577691403e-02 5.244427946954e-02 0.0 
1.746995030844e-02 5.617709597248e-02 0.0 
1.483966474954e-02 5.236417694117e-02 0.0 
1.624249559726e-02 5.635712813823e-02 0.0 
1.343925401184e-02 5.157661448411e-02 0.0 
1.188905892097e-02 4.869982056079e-02 0.0 
1.028641734419e-02 4.696114133546e-02 0.0 
8.671562338268e-03 4.551338674710e-02 0.0 
6.872648343897e-03 4.297634055572e-02 0.0 
5.341867218750e-03 4.318548805813e-02 0.0 
2.373938971699e-02 5.983060464966e-02 0.0 
1.602507589767e-02 3.817304589612e-02 0.0 
1.434781944156e-02 3.325403452329e-02 0.0 
1.631073789618e-02 3.678812344591e-02 0.0 
-3.395576562246e-04 6.608484537914e-02 0.0 
5.701733578611e-04 3.197760998283e-02 0.0 
4.167849485214e-03 3.009573802206e-02 0.0 
5.310609507957e-03 3.191102666216e-02 0.0 
1.022743922009e-02 2.927754000754e-02 0.0 
-3.403091595722e-05 6.889604369018e-02 0.0 
1.465776254890e-02 5.596656658952e-02 0.0 
1.720266117832e-02 6.168758235632e-02 0.0 
9.890711285479e-03 6.019916181132e-02 0.0 
9.482678746217e-03 6.597612917868e-02 0.0 
4.698530306866e-03 2.724414778761e-02 0.0 
-8.802167525612e-05 6.912759845177e-02 0.0 
1.995226067255e-03 2.940482112692e-02 0.0 
8.401460595774e-03 4.433278732505e-02 0.0 
3.914528757862e-04 3.527919197384e-02 0.0 
3.581809615989e-04 2.980616907140e-02 0.0 
1.660243506015e-03 4.158509696210e-02 0.0 
1.426937681218e-02 3.126632698658e-02 0.0 
1.624848182801e-02 3.514265918121e-02 0.0 
7.142307017965e-03 4.529087945190e-02 0.0 
4.072920886284e-03 4.437336515436e-02 0.0 
2.145863402363e-03 4.209327285284e-02 0.0 
1.353598525341e-03 4.476242838714e-02 0.0 
3.108613774128e-03 4.609955400864e-02 0.0 
8.271436312732e-04 4.731538369029e-02 0.0 
-7.193010158790e-04 4.629370661024e-02 0.0 
-8.277046741831e-04 4.950635322956e-02 0.0 
5.188940614058e-04 4.977022354557e-02 0.0 
-7.460522227749e-04 5.231446379609e-02 0.0 
-1.655956329728e-03 5.247728195268e-02 0.0 
-1.343493313520e-03 5.535002041119e-02 0.0 
4.889278199620e-04 2.633276319378e-02 0.0 
4.846155919036e-03 3.956953168055e-02 0.0 
2.132766039002e-02 8.846667562902e-02 0.0 
3.591783350048e-03 2.514643885923e-02 0.0 
1.047213610480e-02 2.706723694246e-02 0.0 
8.342947751018e-03 5.381599284922e-02 0.0 
8.057417780002e-03 5.960400434307e-02 0.0 
8.968777170125e-03 7.171655503134e-02 0.0 
7.658061803824e-03 6.532953129868e-02 0.0 
6.685745121843e-03 5.299793236869e-02 0.0 
6.398884421664e-03 5.875484836002e-02 0.0 
7.169829955167e-03 7.098730162648e-02 0.0 
6.013359175739e-03 6.443745564163e-02 0.0 
6.612214753275e-03 7.654892423264e-02 0.0 
5.548794959267e-03 7.003082747589e-02 0.0 
4.919136841593e-03 5.771612460093e-02 0.0 
4.541590319725e-03 6.336772255941e-02 0.0 
5.022220187193e-03 7.553949233496e-02 0.0 
4.091122937950e-03 6.893622799117e-02 0.0 
4.445983562007e-03 8.095026325065e-02 0.0 
3.580211404369e-03 7.441511600270e-02 0.0 
3.224849579084e-03 6.220294199031e-02 0.0 
2.313311929765e-04 7.068238422582e-02 0.0 
9.722057641380e-03 3.141737932402e-02 0.0 
8.449192904836e-03 2.670408727350e-02 0.0 
-2.798860293920e-04 6.200947680748e-02 0.0 
-1.814296942344e-04 5.895424792941e-02 0.0 
-6.830893167376e-05 5.642755192747e-02 0.0 
-7.063175473032e-05 5.558098040104e-02 0.0 
2.764971123682e-03 6.781249551497e-02 0.0 
2.432974526968e-03 5.535926546571e-02 0.0 
1.528755396989e-02 6.196565432180e-02 0.0 
1.752384274980e-02 6.838037672724e-02 0.0 
8.487172010575e-03 4.797255253929e-02 0.0 
2.401599883211e-04 3.318615825601e-02 0.0 
2.422963192155e-04 3.849224889798e-02 0.0 
2.560313730451e-02 7.762127649677e-02 0.0 
2.559293783543e-02 8.493126576561e-02 0.0 
2.506076006180e-02 8.272054165312e-02 0.0 
2.464457581523e-02 9.059906923929e-02 0.0 
2.511648754212e-02 9.275092096886e-02 0.0 
2.385419568355e-02 8.762761599281e-02 0.0 
5.696878744894e-03 3.601637737806e-02 0.0 
3.903836287435e-03 5.085161109832e-02 0.0 
-6.129951365628e-04 6.353381724054e-02 0.0 
-3.849998889640e-04 6.508899977327e-02 0.0 
2.085542368770e-04 2.745689533237e-02 0.0 
1.068148124911e-02 3.551310230820e-02 0.0 
2.299695250041e-02 5.847895623213e-02 0.0 
2.207606469250e-02 5.273962275144e-02 0.0 
2.108252800900e-02 5.072037479093e-02 0.0 
1.993937895562e-02 4.527089216783e-02 0.0 
1.867454228585e-02 4.259640819005e-02 0.0 
1.730896488292e-02 3.741608637549e-02 0.0 
1.853498804218e-02 4.015896515934e-02 0.0 
1.378986391999e-02 2.888186872554e-02 0.0 
1.570767943430e-02 3.252003631982e-02 0.0 
3.069321597920e-03 7.991008569547e-02 0.0 
1.796246002357e-02 4.179493548395e-02 0.0 
3.436603102731e-04 5.191853865230e-02 0.0 
3.985189514832e-04 7.024682039194e-02 0.0 
-1.569333937756e-03 5.595805202941e-02 0.0 
1.043714711613e-04 7.087809765272e-02 0.0 
-1.197271641296e-04 6.906597490684e-02 0.0 
3.881678723500e-03 2.203266442299e-02 0.0 
1.574554676635e-02 3.409375894489e-02 0.0 
1.709940638330e-02 3.933255079646e-02 0.0 
2.371876203892e-02 9.903557616495e-02 0.0 
2.416421187082e-02 1.009865229340e-01 0.0 
1.180410728826e-02 2.517436617599e-02 0.0 
1.164538808168e-02 8.376585708380e-02 0.0 
7.714893842262e-03 8.290552661216e-02 0.0 
7.015732821841e-03 8.831911547425e-02 0.0 
4.937754476311e-04 7.229036719827e-02 0.0 
-1.827634293640e-03 5.253348717192e-02 0.0 
5.392794734227e-03 4.620595362866e-02 0.0 
1.938822257187e-02 6.707327073697e-02 0.0 
1.947137297631e-02 7.421981115244e-02 0.0 
5.989996259245e-03 4.113074091271e-02 0.0 
2.667713363781e-03 3.576622311062e-02 0.0 
2.049264553236e-03 6.090843703457e-02 0.0 
1.747022411024e-03 4.838621215009e-02 0.0 
8.768912440082e-05 5.291766556438e-02 0.0 
4.816455483514e-05 5.182442206129e-02 0.0 
5.097787985786e-03 2.433996812370e-02 0.0 
-1.260306620802e-03 5.859839590347e-02 0.0 
2.002352888496e-03 4.258726282326e-02 0.0 
8.968641407851e-03 3.345645697682e-02 0.0 
9.608318690132e-03 3.717866589437e-02 0.0 
-1.467429870625e-04 5.811854533598e-02 0.0 
1.506814276130e-02 6.945686988791e-02 0.0 
1.272647809983e-02 6.198828601282e-02 0.0 
1.837999415567e-03 4.967471970017e-02 0.0 
-1.045830486788e-03 5.760739112135e-02 0.0 
1.614612740708e-05 7.074603350619e-02 0.0 
3.998895800565e-03 1.883337158665e-02 0.0 
5.447430956011e-03 4.035716782136e-02 0.0 
1.691599082248e-02 3.540617265088e-02 0.0 
1.941647815684e-02 4.239300769919e-02 0.0 
1.392349161506e-02 2.794770269532e-02 0.0 
-7.936569655094e-04 5.944655248204e-02 0.0 
2.843885644976e-03 1.963280289162e-02 0.0 
1.363628319409e-04 3.091524362271e-02 0.0 
1.401976505494e-02 3.064711950214e-02 0.0 
1.523952736845e-02 3.550806211694e-02 0.0 
2.123801196151e-02 7.197069284905e-02 0.0 
2.119539539497e-02 7.946831060728e-02 0.0 
1.884500253998e-02 8.243686291874e-02 0.0 
2.045000431271e-02 8.779531911042e-02 0.0 
1.899161931011e-02 9.142874484672e-02 0.0 
2.279993148866e-02 7.630073762459e-02 0.0 
2.255381480032e-02 9.116680283840e-02 0.0 
2.148425994047e-02 9.797746457350e-02 0.0 
2.249305644107e-02 1.002736110912e-01 0.0 
2.522135979551e-02 9.412869269291e-02 0.0 
2.421522473218e-02 1.021659560855e-01 0.0 
1.974293763139e-02 5.992029362951e-02 0.0 
1.824749046220e-02 4.627747099888e-02 0.0 
1.498643842082e-04 5.375084027462e-02 0.0 
8.156121555336e-04 4.333468538843e-02 0.0 
4.672229460576e-03 4.172816483296e-02 0.0 
4.105409211391e-03 4.507073328047e-02 0.0 
3.105402046806e-03 3.800501418636e-02 0.0 
5.356191318718e-03 8.735304471967e-02 0.0 
4.680651259818e-03 9.259470701245e-02 0.0 
1.222246560237e-04 6.752644422603e-02 0.0 
2.197977289535e-04 6.633083073673e-02 0.0 
1.969831935005e-03 4.613096114101e-02 0.0 
2.652736441892e-03 2.294671779300e-02 0.0 
6.873787881617e-03 4.134221764721e-02 0.0 
6.718194610350e-03 3.544035754334e-02 0.0 
8.459258692483e-03 4.207129202092e-02 0.0 
5.307802995626e-03 2.134915791491e-02 0.0 
1.422620233210e-02 4.973662810647e-02 0.0 
1.315613921233e-02 4.103758752399e-02 0.0 
1.692744008690e-03 3.649022895862e-02 0.0 
2.303190556718e-02 5.498368726887e-02 0.0 
9.457032910554e-04 6.861685943087e-02 0.0 
1.950234322303e-02 5.654728559415e-02 0.0 
1.106712899137e-04 2.494404146950e-02 0.0 
1.559918614191e-04 2.129040660432e-02 0.0 
1.093777465357e-02 2.222507721048e-02 0.0 
1.771796732434e-02 1.074136346144e-01 0.0 
2.164706678905e-02 4.985592601162e-02 0.0 
2.148820825545e-02 5.034102124703e-02 0.0 
2.113189074693e-02 1.072116324500e-01 0.0 
2.189373783490e-02 1.091376184336e-01 0.0 
2.330486766768e-02 1.018073329914e-01 0.0 
2.243432960524e-02 1.103126291879e-01 0.0 
1.433258291391e-03 5.121287268958e-02 0.0 
2.348643504497e-04 5.368543295047e-02 0.0 
1.214418711077e-02 2.494378289321e-02 0.0 
1.246765918660e-02 2.469749756787e-02 0.0 
1.196920711818e-02 2.648696071923e-02 0.0 
1.312585854604e-02 3.106413559490e-02 0.0 
8.919784403112e-03 1.853307313506e-02 0.0 
9.811538662415e-03 2.168083922649e-02 0.0 
-1.247607102868e-04 6.873044169823e-02 0.0 
2.276964386575e-02 1.093983889071e-01 0.0 
4.146462675187e-03 3.333842933104e-02 0.0 
2.020356270144e-02 1.046426801857e-01 0.0 
2.003665534989e-03 1.728691163944e-02 0.0 
1.882654456733e-03 2.062654484430e-02 0.0 
6.046924598024e-05 3.240828592854e-02 0.0 
-8.479814216074e-04 3.584246077444e-02 0.0 
1.371687365385e-03 3.571028802276e-02 0.0 
1.748762478746e-02 9.137439559944e-02 0.0 
1.899920661343e-02 9.668628220406e-02 0.0 
1.581631573367e-02 8.516248483001e-02 0.0 
3.248952707535e-06 1.124215482413e-02 0.0 
1.250386692554e-03 1.137044725256e-01 0.0 
7.390193438317e-05 1.854600152176e-02 0.0 
2.496929334474e-02 9.470096609591e-02 0.0 
1.470505090644e-03 2.925491706407e-02 0.0 
2.006615884589e-02 4.523407645313e-02 0.0 
2.493487924614e-02 7.552978298557e-02 0.0 
6.491522233643e-03 2.660258280410e-02 0.0 
1.117781138028e-03 4.264850232050e-02 0.0 
8.245463469265e-04 2.816730650185e-02 0.0 
8.028581782384e-03 9.428473927227e-02 0.0 
7.245136035834e-03 9.972262888519e-02 0.0 
8.839775934568e-03 8.906827115498e-02 0.0 
9.514839933498e-03 4.800186741866e-02 0.0 
6.239196347206e-03 4.601577276179e-02 0.0 
2.982287913134e-03 4.385364563577e-02 0.0 
-3.143049794936e-04 6.474908316216e-02 0.0 
-2.512821706100e-04 6.403782183083e-02 0.0 
-9.673770289496e-04 6.069203589227e-02 0.0 
-8.302396472395e-04 5.939530072622e-02 0.0 
3.372626625175e-04 5.016149093582e-02 0.0 
4.846456075338e-04 5.099654527186e-02 0.0 
1.900903420978e-02 5.058538724452e-02 0.0 
1.722712511453e-02 4.685565737919e-02 0.0 
2.194051505364e-02 5.652319312107e-02 0.0 
8.020442910073e-03 3.546611724186e-02 0.0 
8.372624405721e-03 3.887459928263e-02 0.0 
9.966047737118e-03 4.028425460292e-02 0.0 
3.146036630916e-03 3.252153311964e-02 0.0 
2.099567824217e-03 2.417637941304e-02 0.0 
3.026026140905e-03 4.914766128479e-02 0.0 
3.766426378588e-03 4.800778784488e-02 0.0 
1.100751325597e-03 5.250546045950e-02 0.0 
3.964362666501e-03 2.763721963016e-02 0.0 
1.012279958217e-04 1.487347538112e-02 0.0 
2.018620016306e-04 1.777828284730e-02 0.0 
1.262835600793e-03 6.727151859447e-02 0.0 
2.835432970816e-04 6.472683466345e-02 0.0 
1.168323289625e-02 7.042224038859e-02 0.0 
9.013838686421e-03 6.204025157606e-02 0.0 
6.452123936121e-03 3.000501005547e-02 0.0 
8.248501132840e-03 3.624305603638e-02 0.0 
4.587972734264e-03 2.265993518797e-02 0.0 
-2.074434753241e-05 7.046102498397e-02 0.0 
1.773886915877e-02 3.770663045482e-02 0.0 
4.038745708886e-03 1.582180247369e-02 0.0 
5.436649780659e-03 1.856305917780e-02 0.0 
2.679425994534e-03 1.232906266143e-02 0.0 
1.301601493076e-02 2.633520647725e-02 0.0 
9.793754906251e-03 1.919642450736e-02 0.0 
1.038461114137e-02 2.003209860921e-02 0.0 
2.203031885415e-04 3.169544636396e-02 0.0 
6.225791039824e-04 3.362844328404e-02 0.0 
5.551943832415e-03 9.880325806923e-02 0.0 
-1.018648375677e-03 2.882337687518e-02 0.0 
4.793434127137e-03 1.042542443152e-01 0.0 
4.009592108794e-03 9.781179328415e-02 0.0 
4.142115329316e-03 1.095444727506e-01 0.0 
1.031627210279e-04 7.215123684249e-02 0.0 
9.118176559070e-03 1.020927860163e-01 0.0 
1.004828355198e-02 9.547100237839e-02 0.0 
1.919606595422e-03 6.560283831626e-02 0.0 
2.687546540557e-03 2.056803000196e-02 0.0 
2.000939146136e-03 6.918107881586e-02 0.0 
1.521326985658e-03 7.033595036010e-02 0.0 
1.333725048305e-03 1.458624965032e-02 0.0 
1.271806721579e-03 1.813782453872e-02 0.0 
8.113389180870e-04 1.188223408897e-02 0.0 
8.248865238443e-04 1.584143756926e-02 0.0 
1.147044256839e-03 2.175281428132e-02 0.0 
7.348533121529e-04 1.926967904132e-02 0.0 
6.496634508380e-03 1.058094654771e-01 0.0 
4.604926600180e-04 1.214699184975e-02 0.0 
4.300489259670e-04 1.648811656089e-02 0.0 
2.253533619516e-04 9.446339404452e-03 0.0 
2.065788579921e-02 1.178884731437e-01 0.0 
2.169321313452e-02 9.241812775314e-02 0.0 
2.021189866975e-02 1.014701410735e-01 0.0 
1.674375302519e-02 1.066051105803e-01 0.0 
8.873115833421e-03 1.968203564761e-02 0.0 
1.101499738149e-02 2.663810891165e-02 0.0 
6.961917432680e-05 2.835416479769e-02 0.0 
7.450438423606e-05 3.413919541856e-02 0.0 
3.310273559684e-03 1.037615841608e-01 0.0 
2.417765545580e-03 1.042259695964e-01 0.0 
2.640123442625e-03 9.397245607567e-02 0.0 
1.905813367571e-03 9.523562650577e-02 0.0 
2.047131579104e-03 8.489234392077e-02 0.0 
1.318160688925e-03 8.622888325364e-02 0.0 
1.560542279101e-03 7.560187660190e-02 0.0 
8.560400015138e-03 1.627957135109e-02 0.0 
1.356696880936e-02 9.421192746920e-02 0.0 
1.955537594515e-02 1.140083735705e-01 0.0 
6.924917162078e-03 1.500073142119e-02 0.0 
8.112197453670e-03 1.891526417184e-02 0.0 
2.279193835396e-02 1.103113576662e-01 0.0 
2.088239828285e-02 1.181450935759e-01 0.0 
1.836019283331e-03 1.282845354592e-02 0.0 
2.244261415819e-02 6.943366283369e-02 0.0 
2.014568087894e-03 1.312393090678e-02 0.0 
-4.849997454105e-03 4.155702594222e-02 0.0 
1.077857933961e-03 4.095781585522e-02 0.0 
2.383535476622e-02 7.287513312654e-02 0.0 
2.389572068815e-02 1.024825105760e-01 0.0 
2.283058206174e-02 9.621419059428e-02 0.0 
2.154384132524e-02 1.051073109801e-01 0.0 
7.401029765822e-03 3.141801818885e-02 0.0 
4.439963313505e-04 6.268732756514e-02 0.0 
1.391869761759e-02 7.815005040976e-02 0.0 
2.269756233638e-03 7.439811447235e-02 0.0 
9.533031574978e-03 7.939328862043e-02 0.0 
3.072543737204e-05 3.111346599407e-02 0.0 
2.163854802901e-02 6.337578076666e-02 0.0 
2.562509035587e-02 8.710146261838e-02 0.0 
1.708178224153e-02 7.625380689690e-02 0.0 
2.273349884900e-02 8.397955737332e-02 0.0 
1.996292235524e-02 8.512529236637e-02 0.0 
1.787181502890e-02 9.753217017387e-02 0.0 
1.904221865169e-02 1.014849908616e-01 0.0 
2.040327606044e-02 5.825370720451e-02 0.0 
2.236142838375e-02 1.076800150991e-01 0.0 
1.956439262394e-02 1.147511175741e-01 0.0 
2.334173407696e-02 8.431891848397e-02 0.0 
1.026676113337e-02 4.841788623984e-02 0.0 
1.016192783178e-02 4.246968975614e-02 0.0 
7.875378730446e-03 3.076193487900e-02 0.0 
9.840446781794e-03 3.665347946374e-02 0.0 
1.212174146334e-02 4.845197324820e-02 0.0 
1.190816070652e-02 4.253715963366e-02 0.0 
9.282443510493e-03 3.104081163807e-02 0.0 
1.144900317246e-02 3.672011420229e-02 0.0 
7.762768589473e-03 2.309570614218e-02 0.0 
1.062439355249e-02 3.076888847659e-02 0.0 
1.362609918582e-02 4.232481741790e-02 0.0 
1.301710375660e-02 3.678095812634e-02 0.0 
1.001031779597e-02 2.660923829086e-02 0.0 
1.581447461688e-02 4.807344870200e-02 0.0 
5.678116800460e-03 1.154359841611e-02 0.0 
2.436136450766e-02 6.893640466138e-02 0.0 
3.003423751679e-03 3.771063158243e-02 0.0 
3.997949907532e-03 5.075659327967e-02 0.0 
2.513569321794e-02 8.697699371100e-02 0.0 
3.819182062699e-03 1.126487555422e-02 0.0 
3.166012797251e-03 1.141314742904e-02 0.0 
1.867068547484e-02 6.103832187463e-02 0.0 
4.526682662917e-03 9.263992087149e-03 0.0 
2.028108733468e-02 9.504564684407e-02 0.0 
1.173018690915e-02 5.008805141401e-02 0.0 
4.607879472108e-03 8.701865630062e-03 0.0 
1.210283150026e-02 5.438714402482e-02 0.0 
1.394100855196e-02 6.024476994637e-02 0.0 
1.358716226387e-02 6.618763109779e-02 0.0 
2.450069075543e-03 1.084736717634e-02 0.0 
9.618589960709e-03 8.361724847427e-02 0.0 
3.802869973597e-03 7.058460871349e-03 0.0 
1.732218846694e-02 4.251771175758e-02 0.0 
1.921781681048e-02 4.623845457400e-02 0.0 
2.006550150947e-02 5.005527586863e-02 0.0 
1.399521351783e-02 4.837690270127e-02 0.0 
2.848430194323e-03 6.653505513533e-03 0.0 
4.952743680388e-03 1.244521332506e-02 0.0 
4.317844524998e-03 1.222199482637e-02 0.0 
6.666918928769e-03 1.812035200802e-02 0.0 
2.149268479895e-03 6.400478101320e-03 0.0 
3.909768155236e-03 9.701142899463e-03 0.0 
3.899078473946e-03 8.984020785778e-03 0.0 
2.376185802465e-03 4.792023355779e-02 0.0 
4.685459943474e-03 4.685615188547e-02 0.0 
6.005920063707e-03 4.698206895383e-02 0.0 
7.257296165079e-03 4.655847636201e-02 0.0 
5.805705050751e-03 4.585366203538e-02 0.0 
8.674110376269e-03 4.651598781685e-02 0.0 
9.906843583998e-03 4.695433893404e-02 0.0 
1.024092092562e-02 4.711867595739e-02 0.0 
1.432708989884e-02 3.670444279183e-02 0.0 
1.469755062875e-03 6.050795391552e-03 0.0 
4.721571752562e-03 3.838303951667e-02 0.0 
5.835581028082e-03 3.953483039513e-02 0.0 
5.726430176196e-03 4.249542219724e-02 0.0 
2.337700102588e-04 5.431673024496e-02 0.0 
6.686165714012e-04 5.158072965197e-02 0.0 
9.411080718822e-04 4.819554297703e-02 0.0 
-5.818433115845e-05 5.701120443334e-02 0.0 
2.087011092562e-02 4.737818144119e-02 0.0 
1.185440105383e-03 6.073368965200e-03 0.0 
1.133639410758e-02 3.899575477266e-02 0.0 
8.931201154372e-04 5.189016212251e-02 0.0 
1.200483477812e-02 1.119577069305e-01 0.0 
1.266823161916e-02 1.023086967805e-01 0.0 
1.389691077979e-02 1.013108826879e-01 0.0 
1.306464600179e-02 9.090469584779e-02 0.0 
1.128663313343e-02 1.016974368363e-01 0.0 
2.260428811471e-04 4.906112852410e-02 0.0 
1.458145196751e-04 4.771860290663e-02 0.0 
2.548157762750e-05 5.049174724555e-02 0.0 
9.056640747929e-05 4.614839120297e-02 0.0 
1.364087779354e-05 4.892004249550e-02 0.0 
-3.645212140313e-05 5.301855706923e-02 0.0 
5.252463553296e-05 4.437030192903e-02 0.0 
4.317415761124e-06 4.765743330730e-02 0.0 
9.674543329858e-03 1.128967848143e-01 0.0 
5.625745890416e-04 3.856791346391e-02 0.0 
-1.194922556438e-03 4.282670580053e-02 0.0 
-1.212298284408e-04 4.951808941300e-02 0.0 
-1.904119695183e-03 4.646121981508e-02 0.0 
-1.968134007596e-03 4.095504953522e-02 0.0 
-1.915844549785e-03 4.488426328862e-02 0.0 
-1.091486591356e-03 4.062082398730e-02 0.0 
-1.748573516194e-03 3.597888602350e-02 0.0 
3.212804135082e-03 5.274721212937e-02 0.0 
7.471394672738e-04 5.487564089546e-02 0.0 
3.778044570332e-03 5.762394141639e-02 0.0 
1.487688892627e-03 5.918265147533e-02 0.0 
-7.734827429609e-04 5.653549055147e-02 0.0 
-4.832553892289e-04 6.365264122975e-02 0.0 
3.245108121952e-05 7.461023494898e-03 0.0 
-5.026727338941e-05 5.896609460219e-02 0.0 
-1.096326410155e-04 6.052671998936e-02 0.0 
-1.349101479344e-04 6.362565302467e-02 0.0 
-1.832374669801e-04 6.162246216850e-02 0.0 
-8.021081589749e-05 5.731427767708e-02 0.0 
-6.834013865387e-05 6.539731129766e-02 0.0 
-1.260296923176e-04 6.615896212948e-02 0.0 
1.429925807566e-03 7.478458206391e-02 0.0 
8.195016351888e-04 7.486361421697e-02 0.0 
4.076528507020e-04 7.525318255698e-02 0.0 
4.046267985665e-04 7.453183763442e-02 0.0 
6.688649473769e-04 7.412174595696e-02 0.0 
1.205063974618e-03 7.431906184031e-02 0.0 
1.565218290737e-03 7.357993368323e-02 0.0 
2.459836836846e-03 7.331970753448e-02 0.0 
1.863266621421e-03 7.264592164369e-02 0.0 
1.061376432371e-03 7.262881522385e-02 0.0 
2.925362612496e-03 7.231062917247e-02 0.0 
4.989128194097e-04 5.959455020813e-02 0.0 
9.496401339817e-04 5.337875845025e-02 0.0 
7.766318125988e-04 6.465511347947e-03 0.0 
7.499114750459e-03 1.124430797812e-01 0.0 
4.036612756174e-03 6.461054623102e-02 0.0 
7.652153377862e-04 1.420011870322e-02 0.0 
1.165754149973e-03 1.175974817172e-02 0.0 
9.432786047086e-04 1.140367907156e-02 0.0 
1.429514954088e-05 1.838604233713e-02 0.0 
2.402688199665e-05 1.505799081971e-02 0.0 
4.130251001371e-04 1.381350631332e-02 0.0 
-5.590836960776e-04 6.174254466551e-02 0.0 
7.277635211359e-03 2.544289863616e-02 0.0 
2.165672209394e-03 3.670769006154e-02 0.0 
1.265739676409e-02 5.510184579272e-02 0.0 
-5.184774986180e-04 5.645363930249e-02 0.0 
1.400548901938e-04 3.642432295933e-02 0.0 
1.224795807492e-03 4.032900023389e-02 0.0 
2.893859270472e-04 2.394432949902e-02 0.0 
3.810856730437e-04 4.032558478084e-02 0.0 
7.666966696398e-04 2.860379255866e-02 0.0 
3.773457208343e-03 1.244921118526e-02 0.0 
2.466338965958e-04 7.227500123636e-02 0.0 
6.002766940895e-03 8.200274289361e-02 0.0 
3.866797112757e-03 8.631007478092e-02 0.0 
3.605711072332e-03 5.656808172646e-02 0.0 
-3.720972114349e-04 6.491994548104e-02 0.0 
-5.169086279500e-05 5.426382668254e-02 0.0 
3.109541748003e-05 6.835410522494e-02 0.0 
8.344850353581e-03 1.670245713740e-02 0.0 
2.357960593273e-02 9.320726822355e-02 0.0 
4.397251257222e-03 4.457881701857e-02 0.0 
-3.805020392456e-05 5.730310107127e-02 0.0 
-3.840993837585e-04 5.899457378673e-02 0.0 
-6.246139089416e-04 5.462323601648e-02 0.0 
2.516951719985e-02 7.088645518880e-02 0.0 
1.623620805105e-03 4.920725260388e-02 0.0 
2.704185693061e-03 3.125578300444e-02 0.0 
2.754136262517e-03 4.964362997355e-02 0.0 
3.483753111133e-03 6.936657428755e-02 0.0 
3.184195122914e-03 2.821368882101e-02 0.0 
2.186652413430e-03 4.262945672042e-02 0.0 
8.374900409144e-03 7.737929282945e-02 0.0 
1.237853718636e-02 3.002170868012e-02 0.0 
-1.843629640774e-03 4.910217358616e-02 0.0 
5.211006947420e-03 5.201047728507e-02 0.0 
5.168510970599e-03 2.934223757006e-02 0.0 
1.084614484949e-02 8.959074250874e-02 0.0 
6.582972064937e-04 6.964936494819e-02 0.0 
6.309267597480e-03 9.378155145807e-02 0.0 
2.881022871389e-03 1.622881444355e-02 0.0 
1.016159595312e-02 5.431900388667e-02 0.0 
-2.635541348877e-04 6.711633512915e-02 0.0 
1.347447594378e-02 4.371643106161e-02 0.0 
2.585024189445e-02 7.981340618783e-02 0.0 
1.712114311285e-02 1.169262259795e-01 0.0 
2.239923566037e-03 3.125239565345e-02 0.0 
2.253434291487e-02 5.502505495085e-02 0.0 
8.622259529677e-03 2.412663686611e-02 0.0 
1.250750183399e-02 3.772920335924e-02 0.0 
-2.335091670971e-04 6.680986265400e-02 0.0 
1.679497267487e-03 2.403137964313e-02 0.0 
1.879290561190e-02 4.943223695002e-02 0.0 
4.201988361515e-03 3.930783381013e-02 0.0 
1.977745810152e-02 4.809075530208e-02 0.0 
1.492216773316e-02 4.914827866566e-02 0.0 
6.852627739043e-03 4.719692038366e-02 0.0 
6.919955898013e-03 4.318264633485e-02 0.0 
1.228249558116e-02 2.775969788678e-02 0.0 
2.440691034401e-02 9.436457371072e-02 0.0 
2.360155251885e-02 6.455532522054e-02 0.0 
1.968052252925e-02 6.263196089666e-02 0.0 
2.413993038473e-02 6.053862974179e-02 0.0 
6.270057441959e-05 3.957176508660e-02 0.0 
2.356035077254e-03 2.619966644797e-02 0.0 
3.482037971246e-03 4.014761599903e-02 0.0 
2.413967880643e-02 7.987917964413e-02 0.0 
1.030589014216e-02 7.786195921355e-02 0.0 
1.426458350384e-02 2.941101357975e-02 0.0 
2.970669652946e-03 2.619893486261e-02 0.0 
2.578263845098e-02 8.639891400771e-02 0.0 
1.420008241142e-03 2.739717382053e-02 0.0 
5.388244790332e-03 3.486327367428e-02 0.0 
1.250107533547e-03 4.884023844374e-02 0.0 
3.771653004503e-05 7.223262206905e-02 0.0 
9.981650980659e-03 5.406887537398e-02 0.0 
1.320748472473e-02 4.960227047195e-02 0.0 
2.172783997501e-02 5.435424602129e-02 0.0 
1.511942834286e-03 4.541375538264e-02 0.0 
5.664493035930e-03 2.291779135157e-02 0.0 
9.654225535991e-04 2.521144717624e-02 0.0 
5.967238789228e-03 2.928435990387e-02 0.0 
9.449482135508e-04 7.097080450438e-02 0.0 
1.874644006600e-02 1.108801030041e-01 0.0 
6.195650148451e-04 2.284437463715e-02 0.0 
1.167851189915e-02 4.186491442896e-02 0.0 
1.034476238525e-02 2.455683211162e-02 0.0 
-2.155715911178e-05 5.159028671311e-02 0.0 
8.385635024883e-03 1.627087959082e-02 0.0 
2.101958445985e-02 1.182537064915e-01 0.0 
3.679447301819e-04 2.030441673686e-02 0.0 
8.039683326825e-03 2.908845134361e-02 0.0 
2.073885682194e-02 6.542442924551e-02 0.0 
2.074191849040e-03 1.137058930332e-01 0.0 
1.997700660201e-04 1.275108139362e-02 0.0 
6.783687601917e-03 2.384806310511e-02 0.0 
2.273288564916e-02 5.416659207832e-02 0.0 
1.001578809556e-02 4.277680094955e-02 0.0 
1.827832556774e-02 1.230775644875e-01 0.0 
1.129277188252e-03 4.447023361053e-02 0.0 
2.248698797782e-02 6.256643821903e-02 0.0 
2.128535320367e-03 1.065611058798e-02 0.0 
6.956559092124e-03 2.140586451968e-02 0.0 
1.528215620604e-02 7.188120997130e-02 0.0 
6.850871320312e-04 4.734330754135e-02 0.0 
1.827914957537e-02 4.089946051110e-02 0.0 
9.035562253001e-04 7.348916550602e-02 0.0 
2.018854738675e-02 1.162433113104e-01 0.0 
4.817312698275e-04 4.623245252946e-02 0.0 
1.152338468497e-02 4.788250610445e-02 0.0 
8.469150618399e-03 4.165574015915e-02 0.0 
7.814164070972e-03 1.543807159798e-02 0.0 
3.267671572376e-04 4.487390605834e-02 0.0 
1.249420857128e-02 4.787597717982e-02 0.0 
2.120696333687e-04 4.329050416304e-02 0.0 
1.872556756115e-02 1.266012104828e-01 0.0 
1.573212638735e-02 6.566891136176e-02 0.0 
1.267198355830e-04 4.150387971676e-02 0.0 
2.060102171785e-02 5.386287797907e-02 0.0 
1.135423008995e-03 7.147280751384e-02 0.0 
2.145018248115e-02 4.892799987233e-02 0.0 
4.942880259518e-05 2.185820888981e-02 0.0 
8.299534908591e-04 5.354381319650e-02 0.0 
7.082327228263e-03 4.063089228843e-02 0.0 
1.408007440520e-02 5.426983394201e-02 0.0 
1.804665186555e-02 1.269494303272e-01 0.0 
6.976245696872e-03 3.747646232832e-02 0.0 
1.820672437269e-02 4.488335470932e-02 0.0 
1.993909560093e-02 4.410149843615e-02 0.0 
2.096663959564e-02 5.039004135312e-02 0.0 
6.600689966730e-03 3.369454155247e-02 0.0 
2.054988481260e-02 1.164810925084e-01 0.0 
-6.819078493940e-04 6.088882272059e-02 0.0 
-7.549494083872e-04 6.233961126485e-02 0.0 
1.080740511989e-02 4.667237670919e-02 0.0 
1.636385148213e-02 4.104124659239e-02 0.0 
3.297647950378e-04 7.349197938272e-02 0.0 
1.601502971426e-02 5.371082725406e-02 0.0 
-6.336398353319e-04 6.181567492651e-02 0.0 
8.399193218041e-03 4.656975416077e-02 0.0 
1.572441327578e-02 3.288145846716e-02 0.0 
5.971586140134e-04 8.327873662221e-02 0.0 
7.038603590875e-03 4.652889143259e-02 0.0 
-2.057199161498e-05 7.032350492085e-02 0.0 
4.936124471449e-03 4.758162755409e-02 0.0 
1.981147182047e-02 4.588380977833e-02 0.0 
4.029715323437e-03 4.820671019838e-02 0.0 
2.417546868035e-03 5.016602838836e-02 0.0 
1.498446827668e-03 2.401943996509e-02 0.0 
1.917976814841e-03 5.099527603099e-02 0.0 
2.024086888284e-04 1.145578666189e-02 0.0 
4.093257851334e-06 6.834146630531e-03 0.0 
7.829238356578e-04 1.055695385365e-01 0.0 
1.570325562509e-02 1.241846430158e-01 0.0 
-2.598910848313e-03 2.708033871975e-02 0.0 
1.890046669237e-02 1.094321994195e-01 0.0 
1.443730272008e-04 5.510322231559e-02 0.0 
1.775433829412e-02 5.268185906031e-02 0.0 
1.626936250531e-03 1.050632657323e-01 0.0 
-4.480183680169e-04 5.793545406634e-02 0.0 
7.339814439298e-03 1.972776977516e-02 0.0 
4.133827783399e-03 7.520640029387e-03 0.0 
1.075624535389e-03 6.506961606840e-02 0.0 
8.607325154880e-03 2.180441614856e-02 0.0 
1.816070118587e-02 3.942294570149e-02 0.0 
3.077684604378e-04 3.493076959278e-02 0.0 
4.814005908351e-03 1.144863806674e-01 0.0 
2.019722864722e-03 6.271481022882e-02 0.0 
3.042888533822e-05 3.685024473521e-02 0.0 
1.270403030103e-02 1.159902833963e-01 0.0 
1.508781853798e-02 1.005106399214e-01 0.0 
1.153658903631e-02 8.719376388131e-02 0.0 
-1.839694293588e-04 6.648188813997e-02 0.0 
-1.209149806572e-03 5.188578886183e-02 0.0 
1.027842952146e-02 1.038162321141e-01 0.0 
5.659617750961e-03 1.309734636179e-02 0.0 
8.114605672382e-03 1.045209503959e-01 0.0 
1.516410147780e-02 3.103773960618e-02 0.0 
6.151801921323e-03 8.914231530942e-02 0.0 
3.718946836472e-03 2.279246097531e-02 0.0 
7.915682931614e-03 1.497389781674e-02 0.0 
3.830761691415e-04 5.776642459175e-03 0.0 
1.186524874873e-02 2.336714457874e-02 0.0 
6.915239757063e-03 7.059921003026e-02 0.0 
1.195339525700e-02 9.377127309264e-02 0.0 
8.231562413652e-03 1.716712231514e-02 0.0 
1.454181494232e-03 5.516778766394e-02 0.0 
1.722163475719e-04 5.613698287689e-03 0.0 
1.021570400243e-02 1.050128228173e-01 0.0 
9.122515316093e-04 2.244557435284e-02 0.0 
7.851673525821e-04 3.907126720307e-02 0.0 
4.601183054191e-04 2.179637017084e-02 0.0 
1.520748127080e-02 4.220776416433e-02 0.0 
3.324607586933e-03 9.157257377460e-02 0.0 
1.433486671665e-02 9.284712860741e-02 0.0 
3.574164576348e-05 1.180702258988e-02 0.0 
6.482960767251e-03 2.073959518464e-02 0.0 
4.110189609733e-03 5.990959472291e-02 0.0 
1.686734068606e-03 6.629710746314e-02 0.0 
-2.192953102504e-04 6.104790816027e-02 0.0 
-1.274862733361e-03 3.076086098311e-02 0.0 
1.333126964740e-03 1.178274110646e-02 0.0 
1.221548285129e-02 3.184148630342e-02 0.0 
1.150567993236e-04 1.195679489576e-02 0.0 
1.894997894027e-04 7.477368813515e-02 0.0 
2.524978357593e-03 6.789846211350e-02 0.0 
1.931518464149e-03 1.083924388380e-02 0.0 
7.417729167724e-03 1.727910054467e-02 0.0 
-2.496843675992e-04 4.331186977505e-02 0.0 
1.242799982194e-03 9.176211783409e-03 0.0 
-3.096873420390e-04 4.992887171461e-02 0.0 
6.569277479542e-03 1.155017193198e-01 0.0 
2.171484836162e-03 7.163871422533e-02 0.0 
9.347979800367e-05 5.727598820378e-03 0.0 
2.197497274395e-03 2.140958304309e-02 0.0 
-1.250769756211e-04 5.869725215574e-02 0.0 
1.438175554080e-02 1.092992764751e-01 0.0 
-8.952779743687e-05 6.854952668515e-02 0.0 
1.119219407421e-02 2.216591507094e-02 0.0 
2.932174664867e-04 6.022475285748e-02 0.0 
1.495016274312e-03 2.026564134489e-02 0.0 
2.797719832952e-03 1.062049447813e-02 0.0 
4.483496519427e-03 1.960626117302e-02 0.0 
2.563325793162e-03 5.150065644550e-03 0.0 
-4.383497444529e-04 3.328414025011e-02 0.0 
7.092564943786e-03 1.327081413433e-02 0.0 
5.445400001108e-03 1.654861278446e-02 0.0 
3.615421694434e-03 1.149569676841e-01 0.0 
5.646576241091e-03 2.065534426648e-02 0.0 
-1.855577819976e-04 6.431193901474e-02 0.0 
6.271970102523e-04 7.158237342034e-02 0.0 
8.719529900958e-05 1.015348861435e-02 0.0 
4.652062573782e-04 7.536160676012e-02 0.0 
6.081780569431e-04 1.149264717578e-01 0.0 
3.199104308682e-06 5.584385488852e-03 0.0 
5.140669332118e-04 7.323555108892e-02 0.0 
1.290583509089e-03 9.745215361357e-02 0.0 
6.872582292036e-03 1.706387504731e-02 0.0 
-1.241755874060e-05 5.097858071440e-02 0.0 
7.174786534776e-04 4.336675086935e-02 0.0 
-1.981434805179e-03 4.915589747084e-02 0.0 
-1.157280156661e-03 2.560178786650e-02 0.0 
1.031173569075e-03 7.738561700836e-02 0.0 
6.807273527041e-03 1.303961457917e-02 0.0 
3.471012968092e-03 1.899072038787e-02 0.0 
2.663613910137e-03 8.529691541737e-02 0.0 
7.248809260844e-03 5.467861835251e-02 0.0 
9.589564877025e-03 2.392983194619e-02 0.0 
-8.780615096615e-05 5.588149958718e-02 0.0 
1.104934579946e-02 2.330553909383e-02 0.0 
6.926567544213e-03 1.718313197889e-02 0.0 
-5.403681841511e-03 5.173436724470e-02 0.0 
4.440708183950e-06 4.658454672570e-02 0.0 
2.454642565411e-03 7.046856553309e-02 0.0 
5.721626458781e-04 1.067472756001e-02 0.0 
-5.192255352937e-05 5.440818622449e-02 0.0 
1.412418920489e-02 1.394595806793e-01 0.0 
4.112599689563e-04 1.560935976137e-01 0.0 
1.552431919201e-02 1.366897102937e-01 0.0 
4.155126779182e-04 1.470626884068e-01 0.0 
1.557876164405e-02 1.313693647959e-01 0.0 
3.980135814103e-04 1.376002223098e-01 0.0 
1.477137404208e-02 1.243191625219e-01 0.0 
4.143729631281e-04 1.277059883291e-01 0.0 

VECTORS node_bounda_dof_materi_velocity_x float
1.000000000000e+00 0.0 0.0 
1.000000000000e+00 0.0 0.0 
1.000000000000e+00 0.0 0.0 
1.000000000000e+00 0.0 0.0 
1.000000000000e+00 0.0 0.0 
1.000000000000e+00 0.0 0.0 
1.000000000000e+00 0.0 0.0 
1.000000000000e+00 0.0 0.0 
1.000000000000e+00 0.0 0.0 
1.000000000000e+00 0.0 0.0 
1.000000000000e+00 0.0 0.0 
1.000000000000e+00 0.0 0.0 
1.000000000000e+00 0.0 0.0 
1.000000000000e+00 0.0 0.0 
1.000000000000e+00 0.0 0.0 
1.000000000000e+00 0.0 0.0 
1.000000000000e+00 0.0 0.0 
1.000000000000e+00 0.0 0.0 
1.000000000000e+00 0.0 0.0 
1.000000000000e+00 0.0 0.0 
1.000000000000e+00 0.0 0.0 
1.000000000000e+00 0.0 0.0 
1.000000000000e+00 0.0 0.0 
1.000000000000e+00 0.0 0.0 
1.000000000000e+00 0.0 0.0 
1.000000000000e+00 0.0 0.0 
1.000000000000e+00 0.0 0.0 
1.000000000000e+00 0.0 0.0 
1.000000000000e+00 0.0 0.0 
1.000000000000e+00 0.0 0.0 
1.000000000000e+00 0.0 0.0 
1.000000000000e+00 0.0 0.0 
1.000000000000e+00 0.0 0.0 
1.000000000000e+00 0.0 0.0 
1.000000000000e+00 0.0 0.0 
1.000000000000e+00 0.0 0.0 
1.000000000000e+00 0.0 0.0 
1.000000000000e+00 0.0 0.0 
1.000000000000e+00 0.0 0.0 
1.000000000000e+00 0.0 0.0 
1.000000000000e+00 0.0 0.0 
1.000000000000e+00 0.0 0.0 
1.000000000000e+00 0.0 0.0 
1.000000000000e+00 0.0 0.0 
1.000000000000e+00 0.0 0.0 
1.000000000000e+00 0.0 0.0 
1.000000000000e+00 0.0 0.0 
1.000000000000e+00 0.0 0.0 
1.000000000000e+00 0.0 0.0 
1.000000000000e+00 0.0 0.0 
1.000000000000e+00 0.0 0.0 
1.000000000000e+00 0.0 0.0 
1.000000000000e+00 0.0 0.0 
1.000000000000e+00 0.0 0.0 
1.000000000000e+00 0.0 0.0 
1.000000000000e+00 0.0 0.0 
1.000000000000e+00 0.0 0.0 
1.000000000000e+00 0.0 0.0 
1.000000000000e+00 0.0 0.0 
1.000000000000e+00 0.0 0.0 
1.000000000000e+00 0.0 0.0 
1.000000000000e+00 0.0 0.0 
1.000000000000e+00 0.0 0.0 
1.000000000000e+00 0.0 0.0 
1.000000000000e+00 0.0 0.0 
1.000000000000e+00 0.0 0.0 
1.000000000000e+00 0.0 0.0 
1.000000000000e+00 0.0 0.0 
1.000000000000e+00 0.0 0.0 
1.000000000000e+00 0.0 0.0 
1.000000000000e+00 0.0 0.0 
1.000000000000e+00 0.0 0.0 
1.000000000000e+00 0.0 0.0 
1.000000000000e+00 0.0 0.0 
1.000000000000e+00 0.0 0.0 
1.000000000000e+00 0.0 0.0 
1.000000000000e+00 0.0 0.0 
1.000000000000e+00 0.0 0.0 
1.000000000000e+00 0.0 0.0 
1.000000000000e+00 0.0 0.0 
1.000000000000e+00 0.0 0.0 
0.0 0.0 0.0 
0.0 0.0 0.0 
0.0 0.0 0.0 
0.0 0.0 0.0 
0.0 0.0 0.0 
0.0 0.0 0.0 
0.0 0.0 0.0 
0.0 0.0 0.0 
0.0 0.0 0.0 
0.0 0.0 0.0 
0.0 0.0 0.0 
1.000000000000e+00 0.0 0.0 
1.000000000000e+00 0.0 0.0 
1.000000000000e+00 0.0 0.0 
1.000000000000e+00 0.0 0.0 
0.0 0.0 0.0 
0.0 0.0 0.0 
0.0 0.0 0.0 
0.0 0.0 0.0 
0.0 0.0 0.0 
0.0 0.0 0.0 
0.0 0.0 0.0 
0.0 0.0 0.0 
0.0 0.0 0.0 
0.0 0.0 0.0 
0.0 0.0 0.0 
0.0 0.0 0.0 
0.0 0.0 0.0 
0.0 0.0 0.0 
0.0 0.0 0.0 
0.0 0.0 0.0 
0.0 0.0 0.0 
0.0 0.0 0.0 
0.0 0.0 0.0 
0.0 0.0 0.0 
0.0 0.0 0.0 
0.0 0.0 0.0 
0.0 0.0 0.0 
0.0 0.0 0.0 
0.0 0.0 0.0 
0.0 0.0 0.0 
0.0 0.0 0.0 
0.0 0.0 0.0 
0.0 0.0 0.0 
0.0 0.0 0.0 
0.0 0.0 0.0 
0.0 0.0 0.0 
0.0 0.0 0.0 
0.0 0.0 0.0 
0.0 0.0 0.0 
0.0 0.0 0.0 
0.0 0.0 0.0 
0.0 0.0 0.0 
0.0 0.0 0.0 
0.0 0.0 0.0 
0.0 0.0 0.0 
0.0 0.0 0.0 
0.0 0.0 0.0 
0.0 0.0 0.0 
0.0 0.0 0.0 
0.0 0.0 0.0 
0.0 0.0 0.0 
0.0 0.0 0.0 
0.0 0.0 0.0 
0.0 0.0 0.0 
0.0 0.0 0.0 
0.0 0.0 0.0 
0.0 0.0 0.0 
0.0 0.0 0.0 
0.0 0.0 0.0 
0.0 0.0 0.0 
0.0 0.0 0.0 
0.0 0.0 0.0 
0.0 0.0 0.0 
0.0 0.0 0.0 
0.0 0.0 0.0 
0.0 0.0 0.0 
0.0 0.0 0.0 
0.0 0.0 0.0 
0.0 0.0 0.0 
0.0 0.0 0.0 
0.0 0.0 0.0 
0.0 0.0 0.0 
0.0 0.0 0.0 
0.0 0.0 0.0 
0.0 0.0 0.0 
0.0 0.0 0.0 
0.0 0.0 0.0 
0.0 0.0 0.0 
0.0 0.0 0.0 
0.0 0.0 0.0 
0.0 0.0 0.0 
0.0 0.0 0.0 
0.0 0.0 0.0 
0.0 0.0 0.0 
0.0 0.0 0.0 
0.0 0.0 0.0 
0.0 0.0 0.0 
0.0 0.0 0.0 
0.0 0.0 0.0 
0.0 0.0 0.0 
0.0 0.0 0.0 
0.0 0.0 0.0 
0.0 0.0 0.0 
0.0 0.0 0.0 
0.0 0.0 0.0 
0.0 0.0 0.0 
0.0 0.0 0.0 
0.0 0.0 0.0 
0.0 0.0 0.0 
0.0 0.0 0.0 
0.0 0.0 0.0 
0.0 0.0 0.0 
0.0 0.0 0.0 
0.0 0.0 0.0 
0.0 0.0 0.0 
0.0 0.0 0.0 
0.0 0.0 0.0 
0.0 0.0 0.0 
0.0 0.0 0.0 
0.0 0.0 0.0 
0.0 0.0 0.0 
0.0 0.0 0.0 
0.0 0.0 0.0 
0.0 0.0 0.0 
0.0 0.0 0.0 
0.0 0.0 0.0 
0.0 0.0 0.0 
0.0 0.0 0.0 
0.0 0.0 0.0 
0.0 0.0 0.0 
0.0 0.0 0.0 
0.0 0.0 0.0 
0.0 0.0 0.0 
0.0 0.0 0.0 
0.0 0.0 0.0 
0.0 0.0 0.0 
0.0 0.0 0.0 
0.0 0.0 0.0 
0.0 0.0 0.0 
0.0 0.0 0.0 
0.0 0.0 0.0 
0.0 0.0 0.0 
0.0 0.0 0.0 
0.0 0.0 0.0 
0.0 0.0 0.0 
0.0 0.0 0.0 
0.0 0.0 0.0 
0.0 0.0 0.0 
0.0 0.0 0.0 
0.0 0.0 0.0 
0.0 0.0 0.0 
0.0 0.0 0.0 
0.0 0.0 0.0 
0.0 0.0 0.0 
0.0 0.0 0.0 
0.0 0.0 0.0 
0.0 0.0 0.0 
0.0 0.0 0.0 
0.0 0.0 0.0 
0.0 0.0 0.0 
0.0 0.0 0.0 
0.0 0.0 0.0 
0.0 0.0 0.0 
0.0 0.0 0.0 
0.0 0.0 0.0 
0.0 0.0 0.0 
0.0 0.0 0.0 
0.0 0.0 0.0 
0.0 0.0 0.0 
0.0 0.0 0.0 
0.0 0.0 0.0 
0.0 0.0 0.0 
0.0 0.0 0.0 
0.0 0.0 0.0 
0.0 0.0 0.0 
0.0 0.0 0.0 
0.0 0.0 0.0 
0.0 0.0 0.0 
0.0 0.0 0.0 
0.0 0.0 0.0 
0.0 0.0 0.0 
0.0 0.0 0.0 
0.0 0.0 0.0 
0.0 0.0 0.0 
0.0 0.0 0.0 
0.0 0.0 0.0 
0.0 0.0 0.0 
0.0 0.0 0.0 
0.0 0.0 0.0 
0.0 0.0 0.0 
0.0 0.0 0.0 
0.0 0.0 0.0 
0.0 0.0 0.0 
0.0 0.0 0.0 
0.0 0.0 0.0 
0.0 0.0 0.0 
0.0 0.0 0.0 
0.0 0.0 0.0 
0.0 0.0 0.0 
0.0 0.0 0.0 
0.0 0.0 0.0 
0.0 0.0 0.0 
0.0 0.0 0.0 
0.0 0.0 0.0 
0.0 0.0 0.0 
0.0 0.0 0.0 
0.0 0.0 0.0 
0.0 0.0 0.0 
0.0 0.0 0.0 
0.0 0.0 0.0 
0.0 0.0 0.0 
0.0 0.0 0.0 
0.0 0.0 0.0 
0.0 0.0 0.0 
0.0 0.0 0.0 
0.0 0.0 0.0 
0.0 0.0 0.0 
0.0 0.0 0.0 
0.0 0.0 0.0 
0.0 0.0 0.0 
0.0 0.0 0.0 
0.0 0.0 0.0 
0.0 0.0 0.0 
0.0 0.0 0.0 
0.0 0.0 0.0 
0.0 0.0 0.0 
0.0 0.0 0.0 
0.0 0.0 0.0 
0.0 0.0 0.0 
0.0 0.0 0.0 
0.0 0.0 0.0 
0.0 0.0 0.0 
0.0 0.0 0.0 
0.0 0.0 0.0 
0.0 0.0 0.0 
0.0 0.0 0.0 
0.0 0.0 0.0 
0.0 0.0 0.0 
0.0 0.0 0.0 
0.0 0.0 0.0 
0.0 0.0 0.0 
0.0 0.0 0.0 
0.0 0.0 0.0 
0.0 0.0 0.0 
0.0 0.0 0.0 
0.0 0.0 0.0 
0.0 0.0 0.0 
0.0 0.0 0.0 
0.0 0.0 0.0 
0.0 0.0 0.0 
0.0 0.0 0.0 
0.0 0.0 0.0 
0.0 0.0 0.0 
0.0 0.0 0.0 
0.0 0.0 0.0 
0.0 0.0 0.0 
0.0 0.0 0.0 
0.0 0.0 0.0 
0.0 0.0 0.0 
0.0 0.0 0.0 
0.0 0.0 0.0 
0.0 0.0 0.0 
0.0 0.0 0.0 
0.0 0.0 0.0 
0.0 0.0 0.0 
0.0 0.0 0.0 
0.0 0.0 0.0 
0.0 0.0 0.0 
0.0 0.0 0.0 
0.0 0.0 0.0 
0.0 0.0 0.0 
0.0 0.0 0.0 
0.0 0.0 0.0 
0.0 0.0 0.0 
0.0 0.0 0.0 
0.0 0.0 0.0 
0.0 0.0 0.0 
0.0 0.0 0.0 
0.0 0.0 0.0 
0.0 0.0 0.0 
0.0 0.0 0.0 
0.0 0.0 0.0 
0.0 0.0 0.0 
0.0 0.0 0.0 
0.0 0.0 0.0 
0.0 0.0 0.0 
0.0 0.0 0.0 
0.0 0.0 0.0 
0.0 0.0 0.0 
0.0 0.0 0.0 
0.0 0.0 0.0 
0.0 0.0 0.0 
0.0 0.0 0.0 
0.0 0.0 0.0 
0.0 0.0 0.0 
0.0 0.0 0.0 
0.0 0.0 0.0 
0.0 0.0 0.0 
0.0 0.0 0.0 
0.0 0.0 0.0 
0.0 0.0 0.0 
0.0 0.0 0.0 
0.0 0.0 0.0 
0.0 0.0 0.0 
0.0 0.0 0.0 
0.0 0.0 0.0 
0.0 0.0 0.0 
0.0 0.0 0.0 
0.0 0.0 0.0 
0.0 0.0 0.0 
0.0 0.0 0.0 
0.0 0.0 0.0 
0.0 0.0 0.0 
0.0 0.0 0.0 
0.0 0.0 0.0 
0.0 0.0 0.0 
0.0 0.0 0.0 
0.0 0.0 0.0 
0.0 0.0 0.0 
0.0 0.0 0.0 
0.0 0.0 0.0 
0.0 0.0 0.0 
0.0 0.0 0.0 
0.0 0.0 0.0 
0.0 0.0 0.0 
0.0 0.0 0.0 
0.0 0.0 0.0 
0.0 0.0 0.0 
0.0 0.0 0.0 
0.0 0.0 0.0 
0.0 0.0 0.0 
0.0 0.0 0.0 
0.0 0.0 0.0 
0.0 0.0 0.0 
0.0 0.0 0.0 
0.0 0.0 0.0 
0.0 0.0 0.0 
0.0 0.0 0.0 
0.0 0.0 0.0 
0.0 0.0 0.0 
0.0 0.0 0.0 
0.0 0.0 0.0 
0.0 0.0 0.0 
0.0 0.0 0.0 
0.0 0.0 0.0 
0.0 0.0 0.0 
0.0 0.0 0.0 
0.0 0.0 0.0 
0.0 0.0 0.0 
0.0 0.0 0.0 
0.0 0.0 0.0 
0.0 0.0 0.0 
0.0 0.0 0.0 
0.0 0.0 0.0 
0.0 0.0 0.0 
0.0 0.0 0.0 
0.0 0.0 0.0 
0.0 0.0 0.0 
0.0 0.0 0.0 
0.0 0.0 0.0 
0.0 0.0 0.0 
0.0 0.0 0.0 
0.0 0.0 0.0 
0.0 0.0 0.0 
0.0 0.0 0.0 
0.0 0.0 0.0 
0.0 0.0 0.0 
0.0 0.0 0.0 
0.0 0.0 0.0 
0.0 0.0 0.0 
0.0 0.0 0.0 
0.0 0.0 0.0 
0.0 0.0 0.0 
0.0 0.0 0.0 
0.0 0.0 0.0 
0.0 0.0 0.0 
0.0 0.0 0.0 
0.0 0.0 0.0 
0.0 0.0 0.0 
0.0 0.0 0.0 
0.0 0.0 0.0 
0.0 0.0 0.0 
0.0 0.0 0.0 
0.0 0.0 0.0 
0.0 0.0 0.0 
0.0 0.0 0.0 
0.0 0.0 0.0 
0.0 0.0 0.0 
0.0 0.0 0.0 
0.0 0.0 0.0 
0.0 0.0 0.0 
0.0 0.0 0.0 
0.0 0.0 0.0 
0.0 0.0 0.0 
0.0 0.0 0.0 
0.0 0.0 0.0 
0.0 0.0 0.0 
0.0 0.0 0.0 
0.0 0.0 0.0 
0.0 0.0 0.0 
0.0 0.0 0.0 
0.0 0.0 0.0 
0.0 0.0 0.0 
0.0 0.0 0.0 
0.0 0.0 0.0 
0.0 0.0 0.0 
0.0 0.0 0.0 
0.0 0.0 0.0 
0.0 0.0 0.0 
0.0 0.0 0.0 
0.0 0.0 0.0 
0.0 0.0 0.0 
0.0 0.0 0.0 
0.0 0.0 0.0 
0.0 0.0 0.0 
0.0 0.0 0.0 
0.0 0.0 0.0 
0.0 0.0 0.0 
0.0 0.0 0.0 
0.0 0.0 0.0 
0.0 0.0 0.0 
0.0 0.0 0.0 
0.0 0.0 0.0 
0.0 0.0 0.0 
0.0 0.0 0.0 
0.0 0.0 0.0 
0.0 0.0 0.0 
0.0 0.0 0.0 
0.0 0.0 0.0 
0.0 0.0 0.0 
0.0 0.0 0.0 
0.0 0.0 0.0 
0.0 0.0 0.0 
0.0 0.0 0.0 
0.0 0.0 0.0 
0.0 0.0 0.0 
0.0 0.0 0.0 
0.0 0.0 0.0 
0.0 0.0 0.0 
0.0 0.0 0.0 
0.0 0.0 0.0 
0.0 0.0 0.0 
0.0 0.0 0.0 
0.0 0.0 0.0 
0.0 0.0 0.0 
0.0 0.0 0.0 
0.0 0.0 0.0 
0.0 0.0 0.0 
0.0 0.0 0.0 
0.0 0.0 0.0 
0.0 0.0 0.0 
0.0 0.0 0.0 
0.0 0.0 0.0 
0.0 0.0 0.0 
0.0 0.0 0.0 
0.0 0.0 0.0 
0.0 0.0 0.0 
0.0 0.0 0.0 
0.0 0.0 0.0 
0.0 0.0 0.0 
0.0 0.0 0.0 
0.0 0.0 0.0 
0.0 0.0 0.0 
0.0 0.0 0.0 
0.0 0.0 0.0 
0.0 0.0 0.0 
0.0 0.0 0.0 
0.0 0.0 0.0 
0.0 0.0 0.0 
0.0 0.0 0.0 
0.0 0.0 0.0 
0.0 0.0 0.0 
0.0 0.0 0.0 
0.0 0.0 0.0 
0.0 0.0 0.0 
0.0 0.0 0.0 
0.0 0.0 0.0 
0.0 0.0 0.0 
0.0 0.0 0.0 
0.0 0.0 0.0 
0.0 0.0 0.0 
0.0 0.0 0.0 
0.0 0.0 0.0 
0.0 0.0 0.0 
0.0 0.0 0.0 
0.0 0.0 0.0 
0.0 0.0 0.0 
0.0 0.0 0.0 
0.0 0.0 0.0 
0.0 0.0 0.0 
0.0 0.0 0.0 
0.0 0.0 0.0 
0.0 0.0 0.0 
0.0 0.0 0.0 
0.0 0.0 0.0 
0.0 0.0 0.0 
0.0 0.0 0.0 
0.0 0.0 0.0 
0.0 0.0 0.0 
0.0 0.0 0.0 
0.0 0.0 0.0 
0.0 0.0 0.0 
0.0 0.0 0.0 
0.0 0.0 0.0 
0.0 0.0 0.0 
0.0 0.0 0.0 
0.0 0.0 0.0 
0.0 0.0 0.0 
0.0 0.0 0.0 
0.0 0.0 0.0 
0.0 0.0 0.0 
0.0 0.0 0.0 
0.0 0.0 0.0 
0.0 0.0 0.0 
0.0 0.0 0.0 
0.0 0.0 0.0 
0.0 0.0 0.0 
0.0 0.0 0.0 
0.0 0.0 0.0 
0.0 0.0 0.0 
0.0 0.0 0.0 
0.0 0.0 0.0 
0.0 0.0 0.0 
0.0 0.0 0.0 
0.0 0.0 0.0 
0.0 0.0 0.0 
0.0 0.0 0.0 
0.0 0.0 0.0 
0.0 0.0 0.0 
0.0 0.0 0.0 
0.0 0.0 0.0 
0.0 0.0 0.0 
0.0 0.0 0.0 
0.0 0.0 0.0 
0.0 0.0 0.0 
0.0 0.0 0.0 
0.0 0.0 0.0 
0.0 0.0 0.0 
0.0 0.0 0.0 
0.0 0.0 0.0 
0.0 0.0 0.0 
0.0 0.0 0.0 
0.0 0.0 0.0 
0.0 0.0 0.0 
0.0 0.0 0.0 
0.0 0.0 0.0 
0.0 0.0 0.0 
0.0 0.0 0.0 
0.0 0.0 0.0 
0.0 0.0 0.0 
0.0 0.0 0.0 
0.0 0.0 0.0 
0.0 0.0 0.0 
0.0 0.0 0.0 
0.0 0.0 0.0 
0.0 0.0 0.0 
0.0 0.0 0.0 
0.0 0.0 0.0 
0.0 0.0 0.0 
0.0 0.0 0.0 
0.0 0.0 0.0 
0.0 0.0 0.0 
0.0 0.0 0.0 
0.0 0.0 0.0 
0.0 0.0 0.0 
0.0 0.0 0.0 
0.0 0.0 0.0 
0.0 0.0 0.0 
0.0 0.0 0.0 
0.0 0.0 0.0 
0.0 0.0 0.0 
0.0 0.0 0.0 
0.0 0.0 0.0 
0.0 0.0 0.0 
0.0 0.0 0.0 
0.0 0.0 0.0 
0.0 0.0 0.0 
0.0 0.0 0.0 
0.0 0.0 0.0 
0.0 0.0 0.0 
0.0 0.0 0.0 
0.0 0.0 0.0 
0.0 0.0 0.0 
0.0 0.0 0.0 
0.0 0.0 0.0 
0.0 0.0 0.0 
0.0 0.0 0.0 
0.0 0.0 0.0 
0.0 0.0 0.0 
0.0 0.0 0.0 
0.0 0.0 0.0 
0.0 0.0 0.0 
0.0 0.0 0.0 
0.0 0.0 0.0 
0.0 0.0 0.0 
0.0 0.0 0.0 
0.0 0.0 0.0 
0.0 0.0 0.0 
0.0 0.0 0.0 
0.0 0.0 0.0 
0.0 0.0 0.0 
0.0 0.0 0.0 
0.0 0.0 0.0 
0.0 0.0 0.0 
0.0 0.0 0.0 
0.0 0.0 0.0 
0.0 0.0 0.0 
0.0 0.0 0.0 
0.0 0.0 0.0 
0.0 0.0 0.0 
0.0 0.0 0.0 
0.0 0.0 0.0 
0.0 0.0 0.0 
0.0 0.0 0.0 
0.0 0.0 0.0 
0.0 0.0 0.0 
0.0 0.0 0.0 
0.0 0.0 0.0 
0.0 0.0 0.0 
0.0 0.0 0.0 
0.0 0.0 0.0 
0.0 0.0 0.0 
0.0 0.0 0.0 
0.0 0.0 0.0 
0.0 0.0 0.0 
0.0 0.0 0.0 
0.0 0.0 0.0 
0.0 0.0 0.0 
0.0 0.0 0.0 
0.0 0.0 0.0 
0.0 0.0 0.0 
0.0 0.0 0.0 
0.0 0.0 0.0 
0.0 0.0 0.0 
0.0 0.0 0.0 
0.0 0.0 0.0 
0.0 0.0 0.0 
0.0 0.0 0.0 
0.0 0.0 0.0 
0.0 0.0 0.0 
0.0 0.0 0.0 
0.0 0.0 0.0 
0.0 0.0 0.0 
0.0 0.0 0.0 
0.0 0.0 0.0 
0.0 0.0 0.0 
0.0 0.0 0.0 
0.0 0.0 0.0 
0.0 0.0 0.0 
0.0 0.0 0.0 
0.0 0.0 0.0 
0.0 0.0 0.0 
0.0 0.0 0.0 
0.0 0.0 0.0 
0.0 0.0 0.0 
0.0 0.0 0.0 
0.0 0.0 0.0 
0.0 0.0 0.0 
0.0 0.0 0.0 
0.0 0.0 0.0 
0.0 0.0 0.0 
0.0 0.0 0.0 
0.0 0.0 0.0 
0.0 0.0 0.0 
0.0 0.0 0.0 
0.0 0.0 0.0 
0.0 0.0 0.0 
0.0 0.0 0.0 
0.0 0.0 0.0 
0.0 0.0 0.0 
0.0 0.0 0.0 
0.0 0.0 0.0 
0.0 0.0 0.0 
0.0 0.0 0.0 
0.0 0.0 0.0 
0.0 0.0 0.0 
0.0 0.0 0.0 
0.0 0.0 0.0 
0.0 0.0 0.0 
0.0 0.0 0.0 
0.0 0.0 0.0 
0.0 0.0 0.0 
0.0 0.0 0.0 
0.0 0.0 0.0 
0.0 0.0 0.0 
0.0 0.0 0.0 
0.0 0.0 0.0 
0.0 0.0 0.0 
0.0 0.0 0.0 
0.0 0.0 0.0 
0.0 0.0 0.0 
0.0 0.0 0.0 
0.0 0.0 0.0 
0.0 0.0 0.0 
0.0 0.0 0.0 
0.0 0.0 0.0 
0.0 0.0 0.0 
0.0 0.0 0.0 
0.0 0.0 0.0 
0.0 0.0 0.0 
0.0 0.0 0.0 
0.0 0.0 0.0 
0.0 0.0 0.0 
0.0 0.0 0.0 
0.0 0.0 0.0 
0.0 0.0 0.0 
0.0 0.0 0.0 
0.0 0.0 0.0 
0.0 0.0 0.0 
0.0 0.0 0.0 
0.0 0.0 0.0 
0.0 0.0 0.0 
0.0 0.0 0.0 
0.0 0.0 0.0 
0.0 0.0 0.0 
0.0 0.0 0.0 
0.0 0.0 0.0 
0.0 0.0 0.0 
0.0 0.0 0.0 
0.0 0.0 0.0 
0.0 0.0 0.0 
0.0 0.0 0.0 
0.0 0.0 0.0 
0.0 0.0 0.0 
0.0 0.0 0.0 
0.0 0.0 0.0 
0.0 0.0 0.0 
0.0 0.0 0.0 
0.0 0.0 0.0 
0.0 0.0 0.0 
0.0 0.0 0.0 
0.0 0.0 0.0 
0.0 0.0 0.0 
0.0 0.0 0.0 
0.0 0.0 0.0 
0.0 0.0 0.0 
0.0 0.0 0.0 
0.0 0.0 0.0 
0.0 0.0 0.0 
0.0 0.0 0.0 
0.0 0.0 0.0 
0.0 0.0 0.0 
0.0 0.0 0.0 
0.0 0.0 0.0 
0.0 0.0 0.0 
0.0 0.0 0.0 
0.0 0.0 0.0 
0.0 0.0 0.0 
0.0 0.0 0.0 
0.0 0.0 0.0 
0.0 0.0 0.0 
0.0 0.0 0.0 
0.0 0.0 0.0 
0.0 0.0 0.0 
0.0 0.0 0.0 
0.0 0.0 0.0 
0.0 0.0 0.0 
0.0 0.0 0.0 
0.0 0.0 0.0 
0.0 0.0 0.0 
0.0 0.0 0.0 
0.0 0.0 0.0 
0.0 0.0 0.0 
0.0 0.0 0.0 
0.0 0.0 0.0 
0.0 0.0 0.0 
0.0 0.0 0.0 
0.0 0.0 0.0 
0.0 0.0 0.0 
0.0 0.0 0.0 
0.0 0.0 0.0 
0.0 0.0 0.0 
0.0 0.0 0.0 
0.0 0.0 0.0 
0.0 0.0 0.0 
0.0 0.0 0.0 
0.0 0.0 0.0 
0.0 0.0 0.0 
0.0 0.0 0.0 
0.0 0.0 0.0 
0.0 0.0 0.0 
0.0 0.0 0.0 
0.0 0.0 0.0 
0.0 0.0 0.0 
0.0 0.0 0.0 
0.0 0.0 0.0 
0.0 0.0 0.0 
0.0 0.0 0.0 
0.0 0.0 0.0 
0.0 0.0 0.0 
0.0 0.0 0.0 
0.0 0.0 0.0 
0.0 0.0 0.0 
0.0 0.0 0.0 
0.0 0.0 0.0 
0.0 0.0 0.0 
0.0 0.0 0.0 
0.0 0.0 0.0 
0.0 0.0 0.0 
0.0 0.0 0.0 
0.0 0.0 0.0 
0.0 0.0 0.0 
0.0 0.0 0.0 
0.0 0.0 0.0 
0.0 0.0 0.0 
0.0 0.0 0.0 
0.0 0.0 0.0 
0.0 0.0 0.0 
0.0 0.0 0.0 
0.0 0.0 0.0 
0.0 0.0 0.0 
0.0 0.0 0.0 
0.0 0.0 0.0 
0.0 0.0 0.0 
0.0 0.0 0.0 
0.0 0.0 0.0 
0.0 0.0 0.0 
0.0 0.0 0.0 
0.0 0.0 0.0 
0.0 0.0 0.0 
0.0 0.0 0.0 
0.0 0.0 0.0 
0.0 0.0 0.0 
0.0 0.0 0.0 
0.0 0.0 0.0 
0.0 0.0 0.0 
0.0 0.0 0.0 
0.0 0.0 0.0 
0.0 0.0 0.0 
0.0 0.0 0.0 
0.0 0.0 0.0 
0.0 0.0 0.0 
0.0 0.0 0.0 
0.0 0.0 0.0 
0.0 0.0 0.0 
0.0 0.0 0.0 
0.0 0.0 0.0 
0.0 0.0 0.0 
0.0 0.0 0.0 
0.0 0.0 0.0 
0.0 0.0 0.0 
0.0 0.0 0.0 
0.0 0.0 0.0 
0.0 0.0 0.0 
0.0 0.0 0.0 
0.0 0.0 0.0 
0.0 0.0 0.0 
0.0 0.0 0.0 
0.0 0.0 0.0 
0.0 0.0 0.0 
0.0 0.0 0.0 
0.0 0.0 0.0 
0.0 0.0 0.0 
0.0 0.0 0.0 
0.0 0.0 0.0 
0.0 0.0 0.0 
0.0 0.0 0.0 
0.0 0.0 0.0 
0.0 0.0 0.0 
0.0 0.0 0.0 
0.0 0.0 0.0 
0.0 0.0 0.0 
0.0 0.0 0.0 
0.0 0.0 0.0 
0.0 0.0 0.0 
0.0 0.0 0.0 
0.0 0.0 0.0 
0.0 0.0 0.0 
0.0 0.0 0.0 
0.0 0.0 0.0 
0.0 0.0 0.0 
0.0 0.0 0.0 
0.0 0.0 0.0 
0.0 0.0 0.0 
0.0 0.0 0.0 
0.0 0.0 0.0 
0.0 0.0 0.0 
0.0 0.0 0.0 
0.0 0.0 0.0 
0.0 0.0 0.0 
0.0 0.0 0.0 
0.0 0.0 0.0 
0.0 0.0 0.0 
0.0 0.0 0.0 
0.0 0.0 0.0 
0.0 0.0 0.0 
0.0 0.0 0.0 
0.0 0.0 0.0 
0.0 0.0 0.0 
0.0 0.0 0.0 
0.0 0.0 0.0 
0.0 0.0 0.0 
0.0 0.0 0.0 
0.0 0.0 0.0 
0.0 0.0 0.0 
0.0 0.0 0.0 
0.0 0.0 0.0 
0.0 0.0 0.0 
0.0 0.0 0.0 
0.0 0.0 0.0 
0.0 0.0 0.0 
0.0 0.0 0.0 
0.0 0.0 0.0 
0.0 0.0 0.0 
0.0 0.0 0.0 
0.0 0.0 0.0 
0.0 0.0 0.0 
0.0 0.0 0.0 
0.0 0.0 0.0 
0.0 0.0 0.0 
0.0 0.0 0.0 
0.0 0.0 0.0 
0.0 0.0 0.0 
0.0 0.0 0.0 
0.0 0.0 0.0 
0.0 0.0 0.0 
0.0 0.0 0.0 
0.0 0.0 0.0 
0.0 0.0 0.0 
0.0 0.0 0.0 
0.0 0.0 0.0 
0.0 0.0 0.0 
0.0 0.0 0.0 
0.0 0.0 0.0 
0.0 0.0 0.0 
0.0 0.0 0.0 
0.0 0.0 0.0 
0.0 0.0 0.0 
0.0 0.0 0.0 
0.0 0.0 0.0 
0.0 0.0 0.0 
0.0 0.0 0.0 
0.0 0.0 0.0 
0.0 0.0 0.0 
0.0 0.0 0.0 
0.0 0.0 0.0 
0.0 0.0 0.0 
0.0 0.0 0.0 
0.0 0.0 0.0 
0.0 0.0 0.0 
0.0 0.0 0.0 
0.0 0.0 0.0 
0.0 0.0 0.0 
0.0 0.0 0.0 
0.0 0.0 0.0 
0.0 0.0 0.0 
0.0 0.0 0.0 
0.0 0.0 0.0 
0.0 0.0 0.0 
0.0 0.0 0.0 
0.0 0.0 0.0 
0.0 0.0 0.0 
0.0 0.0 0.0 
0.0 0.0 0.0 
0.0 0.0 0.0 
0.0 0.0 0.0 
0.0 0.0 0.0 
0.0 0.0 0.0 
0.0 0.0 0.0 
0.0 0.0 0.0 
0.0 0.0 0.0 
0.0 0.0 0.0 
0.0 0.0 0.0 
0.0 0.0 0.0 
0.0 0.0 0.0 
0.0 0.0 0.0 
0.0 0.0 0.0 
0.0 0.0 0.0 
0.0 0.0 0.0 
0.0 0.0 0.0 
0.0 0.0 0.0 
0.0 0.0 0.0 
0.0 0.0 0.0 
0.0 0.0 0.0 
0.0 0.0 0.0 
0.0 0.0 0.0 
0.0 0.0 0.0 
0.0 0.0 0.0 
0.0 0.0 0.0 
0.0 0.0 0.0 
0.0 0.0 0.0 
0.0 0.0 0.0 
0.0 0.0 0.0 
0.0 0.0 0.0 
0.0 0.0 0.0 
0.0 0.0 0.0 
0.0 0.0 0.0 
0.0 0.0 0.0 
0.0 0.0 0.0 
0.0 0.0 0.0 
0.0 0.0 0.0 
0.0 0.0 0.0 
0.0 0.0 0.0 
0.0 0.0 0.0 
0.0 0.0 0.0 
0.0 0.0 0.0 
0.0 0.0 0.0 
0.0 0.0 0.0 
0.0 0.0 0.0 
0.0 0.0 0.0 
0.0 0.0 0.0 
0.0 0.0 0.0 
0.0 0.0 0.0 
0.0 0.0 0.0 
0.0 0.0 0.0 
0.0 0.0 0.0 
0.0 0.0 0.0 
0.0 0.0 0.0 
0.0 0.0 0.0 
0.0 0.0 0.0 
0.0 0.0 0.0 
0.0 0.0 0.0 
0.0 0.0 0.0 
0.0 0.0 0.0 
0.0 0.0 0.0 
0.0 0.0 0.0 
0.0 0.0 0.0 
0.0 0.0 0.0 
0.0 0.0 0.0 
0.0 0.0 0.0 
0.0 0.0 0.0 
0.0 0.0 0.0 
0.0 0.0 0.0 
0.0 0.0 0.0 
0.0 0.0 0.0 
0.0 0.0 0.0 
0.0 0.0 0.0 
0.0 0.0 0.0 
0.0 0.0 0.0 
0.0 0.0 0.0 

VECTORS node_bounda_dof_materi_velocity_y float
0.0 0.0 0.0 
0.0 0.0 0.0 
0.0 1.000000000000e+00 0.0 
0.0 1.000000000000e+00 0.0 
0.0 0.0 0.0 
0.0 0.0 0.0 
0.0 0.0 0.0 
0.0 0.0 0.0 
0.0 0.0 0.0 
0.0 0.0 0.0 
0.0 0.0 0.0 
0.0 0.0 0.0 
0.0 0.0 0.0 
0.0 0.0 0.0 
0.0 0.0 0.0 
0.0 0.0 0.0 
0.0 0.0 0.0 
0.0 0.0 0.0 
0.0 0.0 0.0 
0.0 0.0 0.0 
0.0 0.0 0.0 
0.0 0.0 0.0 
0.0 0.0 0.0 
0.0 1.000000000000e+00 0.0 
0.0 1.000000000000e+00 0.0 
0.0 1.000000000000e+00 0.0 
0.0 1.000000000000e+00 0.0 
0.0 1.000000000000e+00 0.0 
0.0 1.000000000000e+00 0.0 
0.0 1.000000000000e+00 0.0 
0.0 1.000000000000e+00 0.0 
0.0 1.000000000000e+00 0.0 
0.0 1.000000000000e+00 0.0 
0.0 1.000000000000e+00 0.0 
0.0 1.000000000000e+00 0.0 
0.0 1.000000000000e+00 0.0 
0.0 1.000000000000e+00 0.0 
0.0 1.000000000000e+00 0.0 
0.0 1.000000000000e+00 0.0 
0.0 1.000000000000e+00 0.0 
0.0 1.000000000000e+00 0.0 
0.0 1.000000000000e+00 0.0 
0.0 1.000000000000e+00 0.0 
0.0 1.000000000000e+00 0.0 
0.0 1.000000000000e+00 0.0 
0.0 1.000000000000e+00 0.0 
0.0 1.000000000000e+00 0.0 
0.0 1.000000000000e+00 0.0 
0.0 1.000000000000e+00 0.0 
0.0 1.000000000000e+00 0.0 
0.0 1.000000000000e+00 0.0 
0.0 1.000000000000e+00 0.0 
0.0 1.000000000000e+00 0.0 
0.0 1.000000000000e+00 0.0 
0.0 1.000000000000e+00 0.0 
0.0 1.000000000000e+00 0.0 
0.0 1.000000000000e+00 0.0 
0.0 1.000000000000e+00 0.0 
0.0 1.000000000000e+00 0.0 
0.0 1.000000000000e+00 0.0 
0.0 1.000000000000e+00 0.0 
0.0 1.000000000000e+00 0.0 
0.0 1.000000000000e+00 0.0 
0.0 1.000000000000e+00 0.0 
0.0 1.000000000000e+00 0.0 
0.0 1.000000000000e+00 0.0 
0.0 1.000000000000e+00 0.0 
0.0 1.000000000000e+00 0.0 
0.0 1.000000000000e+00 0.0 
0.0 1.000000000000e+00 0.0 
0.0 1.000000000000e+00 0.0 
0.0 1.000000000000e+00 0.0 
0.0 0.0 0.0 
0.0 0.0 0.0 
0.0 0.0 0.0 
0.0 0.0 0.0 
0.0 0.0 0.0 
0.0 0.0 0.0 
0.0 0.0 0.0 
0.0 0.0 0.0 
0.0 0.0 0.0 
0.0 0.0 0.0 
0.0 0.0 0.0 
0.0 0.0 0.0 
0.0 0.0 0.0 
0.0 0.0 0.0 
0.0 0.0 0.0 
0.0 0.0 0.0 
0.0 0.0 0.0 
0.0 0.0 0.0 
0.0 0.0 0.0 
0.0 0.0 0.0 
0.0 0.0 0.0 
0.0 0.0 0.0 
0.0 0.0 0.0 
0.0 0.0 0.0 
0.0 0.0 0.0 
0.0 0.0 0.0 
0.0 0.0 0.0 
0.0 0.0 0.0 
0.0 0.0 0.0 
0.0 0.0 0.0 
0.0 0.0 0.0 
0.0 0.0 0.0 
0.0 0.0 0.0 
0.0 0.0 0.0 
0.0 0.0 0.0 
0.0 0.0 0.0 
0.0 0.0 0.0 
0.0 0.0 0.0 
0.0 0.0 0.0 
0.0 0.0 0.0 
0.0 0.0 0.0 
0.0 0.0 0.0 
0.0 0.0 0.0 
0.0 0.0 0.0 
0.0 0.0 0.0 
0.0 0.0 0.0 
0.0 0.0 0.0 
0.0 0.0 0.0 
0.0 0.0 0.0 
0.0 0.0 0.0 
0.0 0.0 0.0 
0.0 0.0 0.0 
0.0 0.0 0.0 
0.0 0.0 0.0 
0.0 0.0 0.0 
0.0 0.0 0.0 
0.0 0.0 0.0 
0.0 0.0 0.0 
0.0 0.0 0.0 
0.0 0.0 0.0 
0.0 0.0 0.0 
0.0 0.0 0.0 
0.0 0.0 0.0 
0.0 0.0 0.0 
0.0 0.0 0.0 
0.0 0.0 0.0 
0.0 0.0 0.0 
0.0 0.0 0.0 
0.0 0.0 0.0 
0.0 0.0 0.0 
0.0 0.0 0.0 
0.0 0.0 0.0 
0.0 0.0 0.0 
0.0 0.0 0.0 
0.0 0.0 0.0 
0.0 0.0 0.0 
0.0 0.0 0.0 
0.0 0.0 0.0 
0.0 0.0 0.0 
0.0 0.0 0.0 
0.0 0.0 0.0 
0.0 0.0 0.0 
0.0 0.0 0.0 
0.0 0.0 0.0 
0.0 0.0 0.0 
0.0 0.0 0.0 
0.0 0.0 0.0 
0.0 0.0 0.0 
0.0 0.0 0.0 
0.0 0.0 0.0 
0.0 0.0 0.0 
0.0 0.0 0.0 
0.0 0.0 0.0 
0.0 0.0 0.0 
0.0 0.0 0.0 
0.0 0.0 0.0 
0.0 0.0 0.0 
0.0 0.0 0.0 
0.0 0.0 0.0 
0.0 0.0 0.0 
0.0 0.0 0.0 
0.0 0.0 0.0 
0.0 0.0 0.0 
0.0 0.0 0.0 
0.0 0.0 0.0 
0.0 0.0 0.0 
0.0 0.0 0.0 
0.0 0.0 0.0 
0.0 0.0 0.0 
0.0 0.0 0.0 
0.0 0.0 0.0 
0.0 0.0 0.0 
0.0 0.0 0.0 
0.0 0.0 0.0 
0.0 0.0 0.0 
0.0 0.0 0.0 
0.0 0.0 0.0 
0.0 0.0 0.0 
0.0 0.0 0.0 
0.0 0.0 0.0 
0.0 0.0 0.0 
0.0 0.0 0.0 
0.0 0.0 0.0 
0.0 0.0 0.0 
0.0 0.0 0.0 
0.0 0.0 0.0 
0.0 0.0 0.0 
0.0 0.0 0.0 
0.0 0.0 0.0 
0.0 0.0 0.0 
0.0 0.0 0.0 
0.0 0.0 0.0 
0.0 0.0 0.0 
0.0 0.0 0.0 
0.0 0.0 0.0 
0.0 0.0 0.0 
0.0 0.0 0.0 
0.0 0.0 0.0 
0.0 0.0 0.0 
0.0 0.0 0.0 
0.0 0.0 0.0 
0.0 0.0 0.0 
0.0 0.0 0.0 
0.0 0.0 0.0 
0.0 0.0 0.0 
0.0 0.0 0.0 
0.0 0.0 0.0 
0.0 0.0 0.0 
0.0 0.0 0.0 
0.0 0.0 0.0 
0.0 0.0 0.0 
0.0 0.0 0.0 
0.0 0.0 0.0 
0.0 0.0 0.0 
0.0 0.0 0.0 
0.0 0.0 0.0 
0.0 0.0 0.0 
0.0 0.0 0.0 
0.0 0.0 0.0 
0.0 0.0 0.0 
0.0 0.0 0.0 
0.0 0.0 0.0 
0.0 0.0 0.0 
0.0 0.0 0.0 
0.0 0.0 0.0 
0.0 0.0 0.0 
0.0 0.0 0.0 
0.0 0.0 0.0 
0.0 0.0 0.0 
0.0 0.0 0.0 
0.0 0.0 0.0 
0.0 0.0 0.0 
0.0 0.0 0.0 
0.0 0.0 0.0 
0.0 0.0 0.0 
0.0 0.0 0.0 
0.0 0.0 0.0 
0.0 0.0 0.0 
0.0 0.0 0.0 
0.0 0.0 0.0 
0.0 0.0 0.0 
0.0 0.0 0.0 
0.0 0.0 0.0 
0.0 0.0 0.0 
0.0 0.0 0.0 
0.0 0.0 0.0 
0.0 0.0 0.0 
0.0 0.0 0.0 
0.0 0.0 0.0 
0.0 0.0 0.0 
0.0 0.0 0.0 
0.0 0.0 0.0 
0.0 0.0 0.0 
0.0 0.0 0.0 
0.0 0.0 0.0 
0.0 0.0 0.0 
0.0 0.0 0.0 
0.0 0.0 0.0 
0.0 0.0 0.0 
0.0 0.0 0.0 
0.0 0.0 0.0 
0.0 0.0 0.0 
0.0 0.0 0.0 
0.0 0.0 0.0 
0.0 0.0 0.0 
0.0 0.0 0.0 
0.0 0.0 0.0 
0.0 0.0 0.0 
0.0 0.0 0.0 
0.0 0.0 0.0 
0.0 0.0 0.0 
0.0 0.0 0.0 
0.0 0.0 0.0 
0.0 0.0 0.0 
0.0 0.0 0.0 
0.0 0.0 0.0 
0.0 0.0 0.0 
0.0 0.0 0.0 
0.0 0.0 0.0 
0.0 0.0 0.0 
0.0 0.0 0.0 
0.0 0.0 0.0 
0.0 0.0 0.0 
0.0 0.0 0.0 
0.0 0.0 0.0 
0.0 0.0 0.0 
0.0 0.0 0.0 
0.0 0.0 0.0 
0.0 0.0 0.0 
0.0 0.0 0.0 
0.0 0.0 0.0 
0.0 0.0 0.0 
0.0 0.0 0.0 
0.0 0.0 0.0 
0.0 0.0 0.0 
0.0 0.0 0.0 
0.0 0.0 0.0 
0.0 0.0 0.0 
0.0 0.0 0.0 
0.0 0.0 0.0 
0.0 0.0 0.0 
0.0 0.0 0.0 
0.0 0.0 0.0 
0.0 0.0 0.0 
0.0 0.0 0.0 
0.0 0.0 0.0 
0.0 0.0 0.0 
0.0 0.0 0.0 
0.0 0.0 0.0 
0.0 0.0 0.0 
0.0 0.0 0.0 
0.0 0.0 0.0 
0.0 0.0 0.0 
0.0 0.0 0.0 
0.0 0.0 0.0 
0.0 0.0 0.0 
0.0 0.0 0.0 
0.0 0.0 0.0 
0.0 0.0 0.0 
0.0 0.0 0.0 
0.0 0.0 0.0 
0.0 0.0 0.0 
0.0 0.0 0.0 
0.0 0.0 0.0 
0.0 0.0 0.0 
0.0 0.0 0.0 
0.0 0.0 0.0 
0.0 0.0 0.0 
0.0 0.0 0.0 
0.0 0.0 0.0 
0.0 0.0 0.0 
0.0 0.0 0.0 
0.0 0.0 0.0 
0.0 0.0 0.0 
0.0 0.0 0.0 
0.0 0.0 0.0 
0.0 0.0 0.0 
0.0 0.0 0.0 
0.0 0.0 0.0 
0.0 0.0 0.0 
0.0 0.0 0.0 
0.0 0.0 0.0 
0.0 0.0 0.0 
0.0 0.0 0.0 
0.0 0.0 0.0 
0.0 0.0 0.0 
0.0 0.0 0.0 
0.0 0.0 0.0 
0.0 0.0 0.0 
0.0 0.0 0.0 
0.0 0.0 0.0 
0.0 0.0 0.0 
0.0 0.0 0.0 
0.0 0.0 0.0 
0.0 0.0 0.0 
0.0 0.0 0.0 
0.0 0.0 0.0 
0.0 0.0 0.0 
0.0 0.0 0.0 
0.0 0.0 0.0 
0.0 0.0 0.0 
0.0 0.0 0.0 
0.0 0.0 0.0 
0.0 0.0 0.0 
0.0 0.0 0.0 
0.0 0.0 0.0 
0.0 0.0 0.0 
0.0 0.0 0.0 
0.0 0.0 0.0 
0.0 0.0 0.0 
0.0 0.0 0.0 
0.0 0.0 0.0 
0.0 0.0 0.0 
0.0 0.0 0.0 
0.0 0.0 0.0 
0.0 0.0 0.0 
0.0 0.0 0.0 
0.0 0.0 0.0 
0.0 0.0 0.0 
0.0 0.0 0.0 
0.0 0.0 0.0 
0.0 0.0 0.0 
0.0 0.0 0.0 
0.0 0.0 0.0 
0.0 0.0 0.0 
0.0 0.0 0.0 
0.0 0.0 0.0 
0.0 0.0 0.0 
0.0 0.0 0.0 
0.0 0.0 0.0 
0.0 0.0 0.0 
0.0 0.0 0.0 
0.0 0.0 0.0 
0.0 0.0 0.0 
0.0 0.0 0.0 
0.0 0.0 0.0 
0.0 0.0 0.0 
0.0 0.0 0.0 
0.0 0.0 0.0 
0.0 0.0 0.0 
0.0 0.0 0.0 
0.0 0.0 0.0 
0.0 0.0 0.0 
0.0 0.0 0.0 
0.0 0.0 0.0 
0.0 0.0 0.0 
0.0 0.0 0.0 
0.0 0.0 0.0 
0.0 0.0 0.0 
0.0 0.0 0.0 
0.0 0.0 0.0 
0.0 0.0 0.0 
0.0 0.0 0.0 
0.0 0.0 0.0 
0.0 0.0 0.0 
0.0 0.0 0.0 
0.0 0.0 0.0 
0.0 0.0 0.0 
0.0 0.0 0.0 
0.0 0.0 0.0 
0.0 0.0 0.0 
0.0 0.0 0.0 
0.0 0.0 0.0 
0.0 0.0 0.0 
0.0 0.0 0.0 
0.0 0.0 0.0 
0.0 0.0 0.0 
0.0 0.0 0.0 
0.0 0.0 0.0 
0.0 0.0 0.0 
0.0 0.0 0.0 
0.0 0.0 0.0 
0.0 0.0 0.0 
0.0 0.0 0.0 
0.0 0.0 0.0 
0.0 0.0 0.0 
0.0 0.0 0.0 
0.0 0.0 0.0 
0.0 0.0 0.0 
0.0 0.0 0.0 
0.0 0.0 0.0 
0.0 0.0 0.0 
0.0 0.0 0.0 
0.0 0.0 0.0 
0.0 0.0 0.0 
0.0 0.0 0.0 
0.0 0.0 0.0 
0.0 0.0 0.0 
0.0 0.0 0.0 
0.0 0.0 0.0 
0.0 0.0 0.0 
0.0 0.0 0.0 
0.0 0.0 0.0 
0.0 0.0 0.0 
0.0 0.0 0.0 
0.0 0.0 0.0 
0.0 0.0 0.0 
0.0 0.0 0.0 
0.0 0.0 0.0 
0.0 0.0 0.0 
0.0 0.0 0.0 
0.0 0.0 0.0 
0.0 0.0 0.0 
0.0 0.0 0.0 
0.0 0.0 0.0 
0.0 0.0 0.0 
0.0 0.0 0.0 
0.0 0.0 0.0 
0.0 0.0 0.0 
0.0 0.0 0.0 
0.0 0.0 0.0 
0.0 0.0 0.0 
0.0 0.0 0.0 
0.0 0.0 0.0 
0.0 0.0 0.0 
0.0 0.0 0.0 
0.0 0.0 0.0 
0.0 0.0 0.0 
0.0 0.0 0.0 
0.0 0.0 0.0 
0.0 0.0 0.0 
0.0 0.0 0.0 
0.0 0.0 0.0 
0.0 0.0 0.0 
0.0 0.0 0.0 
0.0 0.0 0.0 
0.0 0.0 0.0 
0.0 0.0 0.0 
0.0 0.0 0.0 
0.0 0.0 0.0 
0.0 0.0 0.0 
0.0 0.0 0.0 
0.0 0.0 0.0 
0.0 0.0 0.0 
0.0 0.0 0.0 
0.0 0.0 0.0 
0.0 0.0 0.0 
0.0 0.0 0.0 
0.0 0.0 0.0 
0.0 0.0 0.0 
0.0 0.0 0.0 
0.0 0.0 0.0 
0.0 0.0 0.0 
0.0 0.0 0.0 
0.0 0.0 0.0 
0.0 0.0 0.0 
0.0 0.0 0.0 
0.0 0.0 0.0 
0.0 0.0 0.0 
0.0 0.0 0.0 
0.0 0.0 0.0 
0.0 0.0 0.0 
0.0 0.0 0.0 
0.0 0.0 0.0 
0.0 0.0 0.0 
0.0 0.0 0.0 
0.0 0.0 0.0 
0.0 0.0 0.0 
0.0 0.0 0.0 
0.0 0.0 0.0 
0.0 0.0 0.0 
0.0 0.0 0.0 
0.0 0.0 0.0 
0.0 0.0 0.0 
0.0 0.0 0.0 
0.0 0.0 0.0 
0.0 0.0 0.0 
0.0 0.0 0.0 
0.0 0.0 0.0 
0.0 0.0 0.0 
0.0 0.0 0.0 
0.0 0.0 0.0 
0.0 0.0 0.0 
0.0 0.0 0.0 
0.0 0.0 0.0 
0.0 0.0 0.0 
0.0 0.0 0.0 
0.0 0.0 0.0 
0.0 0.0 0.0 
0.0 0.0 0.0 
0.0 0.0 0.0 
0.0 0.0 0.0 
0.0 0.0 0.0 
0.0 0.0 0.0 
0.0 0.0 0.0 
0.0 0.0 0.0 
0.0 0.0 0.0 
0.0 0.0 0.0 
0.0 0.0 0.0 
0.0 0.0 0.0 
0.0 0.0 0.0 
0.0 0.0 0.0 
0.0 0.0 0.0 
0.0 0.0 0.0 
0.0 0.0 0.0 
0.0 0.0 0.0 
0.0 0.0 0.0 
0.0 0.0 0.0 
0.0 0.0 0.0 
0.0 0.0 0.0 
0.0 0.0 0.0 
0.0 0.0 0.0 
0.0 0.0 0.0 
0.0 0.0 0.0 
0.0 0.0 0.0 
0.0 0.0 0.0 
0.0 0.0 0.0 
0.0 0.0 0.0 
0.0 0.0 0.0 
0.0 0.0 0.0 
0.0 0.0 0.0 
0.0 0.0 0.0 
0.0 0.0 0.0 
0.0 0.0 0.0 
0.0 0.0 0.0 
0.0 0.0 0.0 
0.0 0.0 0.0 
0.0 0.0 0.0 
0.0 0.0 0.0 
0.0 0.0 0.0 
0.0 0.0 0.0 
0.0 0.0 0.0 
0.0 0.0 0.0 
0.0 0.0 0.0 
0.0 0.0 0.0 
0.0 0.0 0.0 
0.0 0.0 0.0 
0.0 0.0 0.0 
0.0 0.0 0.0 
0.0 0.0 0.0 
0.0 0.0 0.0 
0.0 0.0 0.0 
0.0 0.0 0.0 
0.0 0.0 0.0 
0.0 0.0 0.0 
0.0 0.0 0.0 
0.0 0.0 0.0 
0.0 0.0 0.0 
0.0 0.0 0.0 
0.0 0.0 0.0 
0.0 0.0 0.0 
0.0 0.0 0.0 
0.0 0.0 0.0 
0.0 0.0 0.0 
0.0 0.0 0.0 
0.0 0.0 0.0 
0.0 0.0 0.0 
0.0 0.0 0.0 
0.0 0.0 0.0 
0.0 0.0 0.0 
0.0 0.0 0.0 
0.0 0.0 0.0 
0.0 0.0 0.0 
0.0 0.0 0.0 
0.0 0.0 0.0 
0.0 0.0 0.0 
0.0 0.0 0.0 
0.0 0.0 0.0 
0.0 0.0 0.0 
0.0 0.0 0.0 
0.0 0.0 0.0 
0.0 0.0 0.0 
0.0 0.0 0.0 
0.0 0.0 0.0 
0.0 0.0 0.0 
0.0 0.0 0.0 
0.0 0.0 0.0 
0.0 0.0 0.0 
0.0 0.0 0.0 
0.0 0.0 0.0 
0.0 0.0 0.0 
0.0 0.0 0.0 
0.0 0.0 0.0 
0.0 0.0 0.0 
0.0 0.0 0.0 
0.0 0.0 0.0 
0.0 0.0 0.0 
0.0 0.0 0.0 
0.0 0.0 0.0 
0.0 0.0 0.0 
0.0 0.0 0.0 
0.0 0.0 0.0 
0.0 0.0 0.0 
0.0 0.0 0.0 
0.0 0.0 0.0 
0.0 0.0 0.0 
0.0 0.0 0.0 
0.0 0.0 0.0 
0.0 0.0 0.0 
0.0 0.0 0.0 
0.0 0.0 0.0 
0.0 0.0 0.0 
0.0 0.0 0.0 
0.0 0.0 0.0 
0.0 0.0 0.0 
0.0 0.0 0.0 
0.0 0.0 0.0 
0.0 0.0 0.0 
0.0 0.0 0.0 
0.0 0.0 0.0 
0.0 0.0 0.0 
0.0 0.0 0.0 
0.0 0.0 0.0 
0.0 0.0 0.0 
0.0 0.0 0.0 
0.0 0.0 0.0 
0.0 0.0 0.0 
0.0 0.0 0.0 
0.0 0.0 0.0 
0.0 0.0 0.0 
0.0 0.0 0.0 
0.0 0.0 0.0 
0.0 0.0 0.0 
0.0 0.0 0.0 
0.0 0.0 0.0 
0.0 0.0 0.0 
0.0 0.0 0.0 
0.0 0.0 0.0 
0.0 0.0 0.0 
0.0 0.0 0.0 
0.0 0.0 0.0 
0.0 0.0 0.0 
0.0 0.0 0.0 
0.0 0.0 0.0 
0.0 0.0 0.0 
0.0 0.0 0.0 
0.0 0.0 0.0 
0.0 0.0 0.0 
0.0 0.0 0.0 
0.0 0.0 0.0 
0.0 0.0 0.0 
0.0 0.0 0.0 
0.0 0.0 0.0 
0.0 0.0 0.0 
0.0 0.0 0.0 
0.0 0.0 0.0 
0.0 0.0 0.0 
0.0 0.0 0.0 
0.0 0.0 0.0 
0.0 0.0 0.0 
0.0 0.0 0.0 
0.0 0.0 0.0 
0.0 0.0 0.0 
0.0 0.0 0.0 
0.0 0.0 0.0 
0.0 0.0 0.0 
0.0 0.0 0.0 
0.0 0.0 0.0 
0.0 0.0 0.0 
0.0 0.0 0.0 
0.0 0.0 0.0 
0.0 0.0 0.0 
0.0 0.0 0.0 
0.0 0.0 0.0 
0.0 0.0 0.0 
0.0 0.0 0.0 
0.0 0.0 0.0 
0.0 0.0 0.0 
0.0 0.0 0.0 
0.0 0.0 0.0 
0.0 0.0 0.0 
0.0 0.0 0.0 
0.0 0.0 0.0 
0.0 0.0 0.0 
0.0 0.0 0.0 
0.0 0.0 0.0 
0.0 0.0 0.0 
0.0 0.0 0.0 
0.0 0.0 0.0 
0.0 0.0 0.0 
0.0 0.0 0.0 
0.0 0.0 0.0 
0.0 0.0 0.0 
0.0 0.0 0.0 
0.0 0.0 0.0 
0.0 0.0 0.0 
0.0 0.0 0.0 
0.0 0.0 0.0 
0.0 0.0 0.0 
0.0 0.0 0.0 
0.0 0.0 0.0 
0.0 0.0 0.0 
0.0 0.0 0.0 
0.0 0.0 0.0 
0.0 0.0 0.0 
0.0 0.0 0.0 
0.0 0.0 0.0 
0.0 0.0 0.0 
0.0 0.0 0.0 
0.0 0.0 0.0 
0.0 0.0 0.0 
0.0 0.0 0.0 
0.0 0.0 0.0 
0.0 0.0 0.0 
0.0 0.0 0.0 
0.0 0.0 0.0 
0.0 0.0 0.0 
0.0 0.0 0.0 
0.0 0.0 0.0 
0.0 0.0 0.0 
0.0 0.0 0.0 
0.0 0.0 0.0 
0.0 0.0 0.0 
0.0 0.0 0.0 
0.0 0.0 0.0 
0.0 0.0 0.0 
0.0 0.0 0.0 
0.0 0.0 0.0 
0.0 0.0 0.0 
0.0 0.0 0.0 
0.0 0.0 0.0 
0.0 0.0 0.0 
0.0 0.0 0.0 
0.0 0.0 0.0 
0.0 0.0 0.0 
0.0 0.0 0.0 
0.0 0.0 0.0 
0.0 0.0 0.0 
0.0 0.0 0.0 
0.0 0.0 0.0 
0.0 0.0 0.0 
0.0 0.0 0.0 
0.0 0.0 0.0 
0.0 0.0 0.0 
0.0 0.0 0.0 
0.0 0.0 0.0 
0.0 0.0 0.0 
0.0 0.0 0.0 
0.0 0.0 0.0 
0.0 0.0 0.0 
0.0 0.0 0.0 
0.0 0.0 0.0 
0.0 0.0 0.0 
0.0 0.0 0.0 
0.0 0.0 0.0 
0.0 0.0 0.0 
0.0 0.0 0.0 
0.0 0.0 0.0 
0.0 0.0 0.0 
0.0 0.0 0.0 
0.0 0.0 0.0 
0.0 0.0 0.0 
0.0 0.0 0.0 
0.0 0.0 0.0 
0.0 0.0 0.0 
0.0 0.0 0.0 
0.0 0.0 0.0 
0.0 0.0 0.0 
0.0 0.0 0.0 
0.0 0.0 0.0 
0.0 0.0 0.0 
0.0 0.0 0.0 
0.0 0.0 0.0 
0.0 0.0 0.0 
0.0 0.0 0.0 
0.0 0.0 0.0 
0.0 0.0 0.0 
0.0 0.0 0.0 
0.0 0.0 0.0 
0.0 0.0 0.0 
0.0 0.0 0.0 
0.0 0.0 0.0 
0.0 0.0 0.0 
0.0 0.0 0.0 
0.0 0.0 0.0 
0.0 0.0 0.0 
0.0 0.0 0.0 
0.0 0.0 0.0 
0.0 0.0 0.0 
0.0 0.0 0.0 
0.0 0.0 0.0 
0.0 0.0 0.0 
0.0 0.0 0.0 
0.0 0.0 0.0 
0.0 0.0 0.0 
0.0 0.0 0.0 
0.0 0.0 0.0 
0.0 0.0 0.0 
0.0 0.0 0.0 
0.0 0.0 0.0 
0.0 0.0 0.0 
0.0 0.0 0.0 
0.0 0.0 0.0 
0.0 0.0 0.0 
0.0 0.0 0.0 
0.0 0.0 0.0 
0.0 0.0 0.0 
0.0 0.0 0.0 
0.0 0.0 0.0 
0.0 0.0 0.0 
0.0 0.0 0.0 
0.0 0.0 0.0 
0.0 0.0 0.0 
0.0 0.0 0.0 
0.0 0.0 0.0 
0.0 0.0 0.0 
0.0 0.0 0.0 
0.0 0.0 0.0 
0.0 0.0 0.0 
0.0 0.0 0.0 
0.0 0.0 0.0 
0.0 0.0 0.0 
0.0 0.0 0.0 
0.0 0.0 0.0 
0.0 0.0 0.0 
0.0 0.0 0.0 
0.0 0.0 0.0 
0.0 0.0 0.0 
0.0 0.0 0.0 
0.0 0.0 0.0 
0.0 0.0 0.0 
0.0 0.0 0.0 
0.0 0.0 0.0 
0.0 0.0 0.0 
0.0 0.0 0.0 
0.0 0.0 0.0 
0.0 0.0 0.0 
0.0 0.0 0.0 
0.0 0.0 0.0 
0.0 0.0 0.0 
0.0 0.0 0.0 
0.0 0.0 0.0 
0.0 0.0 0.0 
0.0 0.0 0.0 
0.0 0.0 0.0 
0.0 0.0 0.0 
0.0 0.0 0.0 
0.0 0.0 0.0 
0.0 0.0 0.0 
0.0 0.0 0.0 
0.0 0.0 0.0 
0.0 0.0 0.0 
0.0 0.0 0.0 
0.0 0.0 0.0 
0.0 0.0 0.0 
0.0 0.0 0.0 
0.0 0.0 0.0 
0.0 0.0 0.0 
0.0 0.0 0.0 
0.0 0.0 0.0 
0.0 0.0 0.0 
0.0 0.0 0.0 
0.0 0.0 0.0 
0.0 0.0 0.0 
0.0 0.0 0.0 
0.0 0.0 0.0 
0.0 0.0 0.0 
0.0 0.0 0.0 
0.0 0.0 0.0 
0.0 0.0 0.0 
0.0 0.0 0.0 
0.0 0.0 0.0 
0.0 0.0 0.0 
0.0 0.0 0.0 
0.0 0.0 0.0 
0.0 0.0 0.0 
0.0 0.0 0.0 
0.0 0.0 0.0 
0.0 0.0 0.0 
0.0 0.0 0.0 
0.0 0.0 0.0 
0.0 0.0 0.0 
0.0 0.0 0.0 
0.0 0.0 0.0 
0.0 0.0 0.0 
0.0 0.0 0.0 
0.0 0.0 0.0 
0.0 0.0 0.0 
0.0 0.0 0.0 
0.0 0.0 0.0 
0.0 0.0 0.0 
0.0 0.0 0.0 
0.0 0.0 0.0 
0.0 0.0 0.0 
0.0 0.0 0.0 
0.0 0.0 0.0 
0.0 0.0 0.0 
0.0 0.0 0.0 
0.0 0.0 0.0 
0.0 0.0 0.0 
0.0 0.0 0.0 
0.0 0.0 0.0 
0.0 0.0 0.0 
0.0 0.0 0.0 
0.0 0.0 0.0 
0.0 0.0 0.0 
0.0 0.0 0.0 
0.0 0.0 0.0 
0.0 0.0 0.0 
0.0 0.0 0.0 
0.0 0.0 0.0 
0.0 0.0 0.0 
0.0 0.0 0.0 
0.0 0.0 0.0 
0.0 0.0 0.0 
0.0 0.0 0.0 
0.0 0.0 0.0 
0.0 0.0 0.0 
0.0 0.0 0.0 
0.0 0.0 0.0 
0.0 0.0 0.0 
0.0 0.0 0.0 
0.0 0.0 0.0 
0.0 0.0 0.0 
0.0 0.0 0.0 
0.0 0.0 0.0 
0.0 0.0 0.0 
0.0 0.0 0.0 
0.0 0.0 0.0 
0.0 0.0 0.0 
0.0 0.0 0.0 
0.0 0.0 0.0 
0.0 0.0 0.0 
0.0 0.0 0.0 
0.0 0.0 0.0 
0.0 0.0 0.0 
0.0 0.0 0.0 
0.0 0.0 0.0 
0.0 0.0 0.0 
0.0 0.0 0.0 
0.0 0.0 0.0 
0.0 0.0 0.0 
0.0 0.0 0.0 
0.0 0.0 0.0 
0.0 0.0 0.0 
0.0 0.0 0.0 
0.0 0.0 0.0 
0.0 0.0 0.0 
0.0 0.0 0.0 
0.0 0.0 0.0 
0.0 0.0 0.0 
0.0 0.0 0.0 
0.0 0.0 0.0 
0.0 0.0 0.0 
0.0 0.0 0.0 
0.0 0.0 0.0 
0.0 0.0 0.0 
0.0 0.0 0.0 
0.0 0.0 0.0 
0.0 0.0 0.0 
0.0 0.0 0.0 
0.0 0.0 0.0 
0.0 0.0 0.0 
0.0 0.0 0.0 
0.0 0.0 0.0 
0.0 0.0 0.0 
0.0 0.0 0.0 
0.0 0.0 0.0 
0.0 0.0 0.0 
0.0 0.0 0.0 
0.0 0.0 0.0 
0.0 0.0 0.0 
0.0 0.0 0.0 
0.0 0.0 0.0 
0.0 0.0 0.0 
0.0 0.0 0.0 
0.0 0.0 0.0 
0.0 0.0 0.0 
0.0 0.0 0.0 
0.0 0.0 0.0 
0.0 0.0 0.0 
0.0 0.0 0.0 
0.0 0.0 0.0 
0.0 0.0 0.0 
0.0 0.0 0.0 
0.0 0.0 0.0 
0.0 0.0 0.0 
0.0 0.0 0.0 
0.0 0.0 0.0 
0.0 0.0 0.0 
0.0 0.0 0.0 
0.0 0.0 0.0 
0.0 0.0 0.0 
0.0 0.0 0.0 
0.0 0.0 0.0 
0.0 0.0 0.0 
0.0 0.0 0.0 
0.0 0.0 0.0 
0.0 0.0 0.0 
0.0 0.0 0.0 
0.0 0.0 0.0 
0.0 0.0 0.0 
0.0 0.0 0.0 
0.0 0.0 0.0 
0.0 0.0 0.0 
0.0 0.0 0.0 
0.0 0.0 0.0 
0.0 0.0 0.0 
0.0 0.0 0.0 
0.0 0.0 0.0 
0.0 0.0 0.0 
0.0 0.0 0.0 
0.0 0.0 0.0 
0.0 0.0 0.0 
0.0 0.0 0.0 
0.0 0.0 0.0 
0.0 0.0 0.0 
0.0 0.0 0.0 
0.0 0.0 0.0 
0.0 0.0 0.0 
0.0 0.0 0.0 
0.0 0.0 0.0 
0.0 0.0 0.0 
0.0 0.0 0.0 
0.0 0.0 0.0 
0.0 0.0 0.0 
0.0 0.0 0.0 
0.0 0.0 0.0 
0.0 0.0 0.0 
0.0 0.0 0.0 
0.0 0.0 0.0 
0.0 0.0 0.0 
0.0 0.0 0.0 
0.0 0.0 0.0 
0.0 0.0 0.0 
0.0 0.0 0.0 
0.0 0.0 0.0 
0.0 0.0 0.0 
0.0 0.0 0.0 
0.0 0.0 0.0 
0.0 0.0 0.0 
0.0 0.0 0.0 
0.0 0.0 0.0 
0.0 0.0 0.0 
0.0 0.0 0.0 
0.0 0.0 0.0 
0.0 0.0 0.0 
0.0 0.0 0.0 
0.0 0.0 0.0 
0.0 0.0 0.0 
0.0 0.0 0.0 
0.0 0.0 0.0 
0.0 0.0 0.0 
0.0 0.0 0.0 
0.0 0.0 0.0 
0.0 0.0 0.0 
0.0 0.0 0.0 
0.0 0.0 0.0 
0.0 0.0 0.0 
0.0 0.0 0.0 

SCALARS node_boundary float
LOOKUP_TABLE default
1.000000000000e+00 
1.000000000000e+00 
1.000000000000e+00 
1.000000000000e+00 
1.000000000000e+00 
1.000000000000e+00 
1.000000000000e+00 
1.000000000000e+00 
1.000000000000e+00 
1.000000000000e+00 
1.000000000000e+00 
1.000000000000e+00 
1.000000000000e+00 
1.000000000000e+00 
1.000000000000e+00 
1.000000000000e+00 
1.000000000000e+00 
1.000000000000e+00 
1.000000000000e+00 
1.000000000000e+00 
1.000000000000e+00 
1.000000000000e+00 
1.000000000000e+00 
1.000000000000e+00 
1.000000000000e+00 
1.000000000000e+00 
1.000000000000e+00 
1.000000000000e+00 
1.000000000000e+00 
1.000000000000e+00 
1.000000000000e+00 
1.000000000000e+00 
1.000000000000e+00 
1.000000000000e+00 
1.000000000000e+00 
1.000000000000e+00 
1.000000000000e+00 
1.000000000000e+00 
1.000000000000e+00 
1.000000000000e+00 
1.000000000000e+00 
1.000000000000e+00 
1.000000000000e+00 
1.000000000000e+00 
1.000000000000e+00 
1.000000000000e+00 
1.000000000000e+00 
1.000000000000e+00 
1.000000000000e+00 
1.000000000000e+00 
1.000000000000e+00 
1.000000000000e+00 
1.000000000000e+00 
1.000000000000e+00 
1.000000000000e+00 
1.000000000000e+00 
1.000000000000e+00 
1.000000000000e+00 
1.000000000000e+00 
1.000000000000e+00 
1.000000000000e+00 
1.000000000000e+00 
1.000000000000e+00 
1.000000000000e+00 
1.000000000000e+00 
1.000000000000e+00 
1.000000000000e+00 
1.000000000000e+00 
1.000000000000e+00 
1.000000000000e+00 
1.000000000000e+00 
1.000000000000e+00 
1.000000000000e+00 
1.000000000000e+00 
1.000000000000e+00 
1.000000000000e+00 
1.000000000000e+00 
1.000000000000e+00 
1.000000000000e+00 
1.000000000000e+00 
1.000000000000e+00 
1.000000000000e+00 
0.0
1.000000000000e+00 
1.000000000000e+00 
1.000000000000e+00 
1.000000000000e+00 
1.000000000000e+00 
1.000000000000e+00 
0.0
0.0
0.0
1.000000000000e+00 
1.000000000000e+00 
1.000000000000e+00 
1.000000000000e+00 
0.0
0.0
0.0
0.0
0.0
0.0
0.0
0.0
0.0
0.0
0.0
0.0
0.0
0.0
1.000000000000e+00 
1.000000000000e+00 
1.000000000000e+00 
1.000000000000e+00 
1.000000000000e+00 
1.000000000000e+00 
1.000000000000e+00 
1.000000000000e+00 
1.000000000000e+00 
1.000000000000e+00 
1.000000000000e+00 
1.000000000000e+00 
1.000000000000e+00 
1.000000000000e+00 
1.000000000000e+00 
1.000000000000e+00 
1.000000000000e+00 
1.000000000000e+00 
1.000000000000e+00 
1.000000000000e+00 
1.000000000000e+00 
1.000000000000e+00 
1.000000000000e+00 
1.000000000000e+00 
1.000000000000e+00 
1.000000000000e+00 
1.000000000000e+00 
1.000000000000e+00 
1.000000000000e+00 
1.000000000000e+00 
1.000000000000e+00 
1.000000000000e+00 
1.000000000000e+00 
1.000000000000e+00 
1.000000000000e+00 
1.000000000000e+00 
1.000000000000e+00 
1.000000000000e+00 
1.000000000000e+00 
0.0
0.0
0.0
0.0
0.0
0.0
0.0
0.0
0.0
0.0
0.0
0.0
0.0
0.0
0.0
0.0
0.0
0.0
0.0
0.0
0.0
0.0
0.0
0.0
0.0
0.0
0.0
0.0
0.0
0.0
0.0
0.0
0.0
0.0
0.0
0.0
0.0
0.0
0.0
0.0
0.0
0.0
0.0
0.0
0.0
0.0
0.0
0.0
0.0
0.0
0.0
0.0
1.000000000000e+00 
1.000000000000e+00 
1.000000000000e+00 
1.000000000000e+00 
1.000000000000e+00 
1.000000000000e+00 
0.0
0.0
0.0
0.0
0.0
0.0
0.0
0.0
0.0
0.0
0.0
0.0
0.0
0.0
0.0
0.0
0.0
0.0
0.0
0.0
0.0
0.0
0.0
0.0
0.0
0.0
0.0
0.0
0.0
0.0
0.0
0.0
0.0
0.0
0.0
0.0
0.0
0.0
0.0
0.0
0.0
0.0
0.0
0.0
0.0
0.0
0.0
0.0
0.0
0.0
0.0
0.0
0.0
0.0
0.0
0.0
0.0
0.0
0.0
0.0
0.0
0.0
0.0
0.0
0.0
0.0
0.0
0.0
0.0
0.0
0.0
0.0
0.0
0.0
0.0
0.0
0.0
0.0
0.0
0.0
0.0
0.0
0.0
0.0
0.0
0.0
0.0
0.0
0.0
0.0
0.0
0.0
0.0
0.0
0.0
0.0
0.0
0.0
0.0
0.0
0.0
0.0
0.0
0.0
0.0
0.0
0.0
0.0
0.0
0.0
0.0
0.0
0.0
0.0
0.0
0.0
0.0
0.0
0.0
0.0
0.0
0.0
0.0
0.0
0.0
0.0
0.0
0.0
0.0
0.0
0.0
0.0
0.0
0.0
0.0
0.0
0.0
0.0
0.0
0.0
0.0
0.0
0.0
0.0
0.0
0.0
0.0
0.0
0.0
0.0
0.0
0.0
0.0
0.0
0.0
0.0
0.0
0.0
0.0
0.0
0.0
0.0
0.0
0.0
0.0
0.0
0.0
0.0
0.0
0.0
0.0
0.0
0.0
0.0
0.0
0.0
0.0
0.0
0.0
0.0
0.0
0.0
0.0
0.0
0.0
0.0
0.0
0.0
0.0
0.0
0.0
0.0
0.0
0.0
0.0
0.0
0.0
0.0
0.0
0.0
0.0
0.0
0.0
0.0
0.0
0.0
0.0
0.0
0.0
0.0
0.0
0.0
0.0
0.0
0.0
0.0
0.0
0.0
0.0
0.0
0.0
0.0
0.0
0.0
0.0
0.0
0.0
0.0
0.0
0.0
0.0
0.0
0.0
0.0
0.0
0.0
0.0
0.0
0.0
0.0
0.0
0.0
0.0
0.0
0.0
0.0
0.0
0.0
0.0
0.0
0.0
0.0
0.0
0.0
0.0
0.0
0.0
0.0
0.0
0.0
0.0
0.0
0.0
0.0
0.0
0.0
0.0
0.0
0.0
0.0
0.0
0.0
0.0
0.0
0.0
0.0
0.0
0.0
0.0
0.0
0.0
0.0
0.0
0.0
0.0
0.0
0.0
0.0
0.0
0.0
0.0
0.0
0.0
0.0
0.0
0.0
0.0
0.0
0.0
0.0
0.0
0.0
0.0
0.0
0.0
0.0
0.0
0.0
0.0
0.0
0.0
0.0
0.0
0.0
0.0
0.0
0.0
0.0
0.0
0.0
0.0
0.0
0.0
0.0
0.0
0.0
0.0
0.0
0.0
0.0
0.0
0.0
0.0
0.0
0.0
0.0
0.0
0.0
0.0
0.0
0.0
0.0
0.0
0.0
0.0
0.0
0.0
0.0
0.0
0.0
0.0
0.0
0.0
0.0
0.0
0.0
0.0
0.0
0.0
0.0
0.0
0.0
0.0
0.0
0.0
0.0
0.0
0.0
0.0
0.0
0.0
0.0
0.0
0.0
0.0
0.0
0.0
0.0
0.0
0.0
0.0
0.0
0.0
0.0
0.0
0.0
0.0
0.0
0.0
0.0
0.0
0.0
0.0
0.0
0.0
0.0
0.0
0.0
0.0
0.0
0.0
0.0
0.0
0.0
0.0
0.0
0.0
0.0
0.0
0.0
0.0
0.0
0.0
0.0
0.0
0.0
0.0
0.0
0.0
0.0
0.0
0.0
0.0
0.0
0.0
0.0
0.0
0.0
0.0
0.0
0.0
0.0
0.0
0.0
0.0
0.0
0.0
0.0
0.0
0.0
0.0
0.0
0.0
0.0
0.0
0.0
0.0
0.0
0.0
0.0
0.0
0.0
0.0
0.0
0.0
0.0
0.0
0.0
0.0
0.0
0.0
0.0
0.0
0.0
0.0
0.0
0.0
0.0
0.0
0.0
0.0
0.0
0.0
0.0
0.0
0.0
0.0
0.0
0.0
0.0
0.0
0.0
0.0
0.0
0.0
0.0
0.0
0.0
0.0
0.0
0.0
0.0
0.0
0.0
0.0
0.0
0.0
0.0
0.0
0.0
0.0
0.0
0.0
0.0
0.0
0.0
0.0
0.0
0.0
0.0
0.0
0.0
0.0
0.0
0.0
0.0
0.0
0.0
0.0
0.0
0.0
0.0
0.0
0.0
0.0
0.0
0.0
0.0
0.0
0.0
0.0
0.0
0.0
0.0
0.0
0.0
0.0
0.0
0.0
0.0
0.0
0.0
0.0
0.0
0.0
0.0
0.0
0.0
0.0
0.0
0.0
0.0
0.0
0.0
0.0
0.0
0.0
0.0
0.0
0.0
0.0
0.0
0.0
0.0
0.0
0.0
0.0
0.0
0.0
0.0
0.0
0.0
0.0
0.0
0.0
0.0
0.0
0.0
0.0
0.0
0.0
0.0
0.0
0.0
0.0
0.0
0.0
0.0
0.0
0.0
0.0
0.0
0.0
0.0
0.0
0.0
0.0
0.0
0.0
0.0
0.0
0.0
0.0
0.0
0.0
0.0
0.0
0.0
0.0
0.0
0.0
0.0
0.0
0.0
0.0
0.0
0.0
0.0
0.0
0.0
0.0
0.0
0.0
0.0
0.0
0.0
0.0
0.0
0.0
0.0
0.0
0.0
0.0
0.0
0.0
0.0
0.0
0.0
0.0
0.0
0.0
0.0
0.0
0.0
0.0
0.0
0.0
0.0
0.0
0.0
0.0
0.0
0.0
0.0
0.0
0.0
0.0
0.0
0.0
0.0
0.0
0.0
0.0
0.0
0.0
0.0
0.0
0.0
0.0
0.0
0.0
0.0
0.0
0.0
0.0
0.0
0.0
0.0
0.0
0.0
0.0
0.0
0.0
0.0
0.0
0.0
0.0
0.0
0.0
0.0
0.0
0.0
0.0
0.0
0.0
0.0
0.0
0.0
0.0
0.0
0.0
0.0
0.0
0.0
0.0
0.0
0.0
0.0
0.0
0.0
0.0
0.0
0.0
0.0
0.0
0.0
0.0
0.0
0.0
0.0
0.0
0.0
0.0
0.0
0.0
0.0
0.0
0.0
0.0
0.0
0.0
0.0
0.0
0.0
0.0
0.0
0.0
0.0
0.0
0.0
0.0
0.0
0.0
0.0
0.0
0.0
0.0
0.0
0.0
0.0
0.0
0.0
0.0
0.0
0.0
0.0
0.0
0.0
0.0
0.0
0.0
0.0
0.0
0.0
0.0
0.0
0.0
0.0
0.0
0.0
0.0
0.0
0.0
0.0
0.0
0.0
0.0
0.0
0.0
0.0
0.0
0.0
0.0
0.0
0.0
0.0
0.0
0.0
0.0
0.0
0.0
0.0
0.0
0.0
0.0
0.0
0.0
0.0
0.0
0.0
0.0
0.0
0.0
0.0
0.0
0.0
0.0
0.0
0.0
0.0
0.0
0.0
0.0
0.0
0.0
0.0
0.0
0.0
0.0
0.0
0.0
0.0
0.0
0.0
0.0
0.0
0.0
0.0
0.0
0.0
0.0
0.0
0.0
0.0
0.0
0.0
0.0
0.0
0.0
0.0
0.0
0.0
0.0
0.0
0.0
0.0
0.0
0.0
0.0
0.0
0.0
0.0
0.0
0.0
0.0
0.0
0.0
0.0
0.0
0.0
0.0
0.0
0.0
0.0
0.0
0.0
0.0
0.0
0.0
0.0
0.0
0.0
0.0
0.0
0.0
0.0
0.0
0.0
0.0
0.0
0.0
0.0
0.0
0.0
0.0
0.0
0.0
0.0
0.0
0.0
0.0
0.0
0.0
0.0
0.0
0.0
0.0
0.0
0.0
0.0
0.0
0.0
0.0
0.0
0.0

VECTORS node_force_edge float
0.0 0.0 0.0 
0.0 0.0 0.0 
0.0 0.0 0.0 
0.0 0.0 0.0 
0.0 0.0 0.0 
0.0 0.0 0.0 
0.0 0.0 0.0 
0.0 0.0 0.0 
0.0 0.0 0.0 
0.0 0.0 0.0 
0.0 0.0 0.0 
0.0 0.0 0.0 
0.0 0.0 0.0 
0.0 0.0 0.0 
0.0 0.0 0.0 
0.0 0.0 0.0 
0.0 0.0 0.0 
0.0 0.0 0.0 
0.0 0.0 0.0 
0.0 0.0 0.0 
0.0 0.0 0.0 
0.0 0.0 0.0 
0.0 0.0 0.0 
0.0 0.0 0.0 
0.0 0.0 0.0 
0.0 0.0 0.0 
0.0 0.0 0.0 
0.0 0.0 0.0 
0.0 0.0 0.0 
0.0 0.0 0.0 
0.0 0.0 0.0 
0.0 0.0 0.0 
0.0 0.0 0.0 
0.0 0.0 0.0 
0.0 0.0 0.0 
0.0 0.0 0.0 
0.0 0.0 0.0 
0.0 0.0 0.0 
0.0 0.0 0.0 
0.0 0.0 0.0 
0.0 0.0 0.0 
0.0 0.0 0.0 
0.0 0.0 0.0 
0.0 0.0 0.0 
0.0 0.0 0.0 
0.0 0.0 0.0 
0.0 0.0 0.0 
0.0 0.0 0.0 
0.0 0.0 0.0 
0.0 0.0 0.0 
0.0 0.0 0.0 
0.0 0.0 0.0 
0.0 0.0 0.0 
0.0 0.0 0.0 
0.0 0.0 0.0 
0.0 0.0 0.0 
0.0 0.0 0.0 
0.0 0.0 0.0 
0.0 0.0 0.0 
0.0 0.0 0.0 
0.0 0.0 0.0 
0.0 0.0 0.0 
0.0 0.0 0.0 
0.0 0.0 0.0 
0.0 0.0 0.0 
0.0 0.0 0.0 
0.0 0.0 0.0 
0.0 0.0 0.0 
0.0 0.0 0.0 
0.0 0.0 0.0 
0.0 0.0 0.0 
0.0 0.0 0.0 
0.0 0.0 0.0 
0.0 0.0 0.0 
0.0 0.0 0.0 
0.0 0.0 0.0 
0.0 0.0 0.0 
0.0 0.0 0.0 
0.0 0.0 0.0 
0.0 0.0 0.0 
0.0 0.0 0.0 
0.0 -1.000000000000e+02 0.0 
0.0 0.0 0.0 
0.0 0.0 0.0 
0.0 0.0 0.0 
0.0 0.0 0.0 
0.0 0.0 0.0 
0.0 0.0 0.0 
0.0 0.0 0.0 
0.0 0.0 0.0 
0.0 0.0 0.0 
0.0 0.0 0.0 
0.0 0.0 0.0 
0.0 0.0 0.0 
0.0 0.0 0.0 
0.0 0.0 0.0 
0.0 0.0 0.0 
0.0 0.0 0.0 
0.0 0.0 0.0 
0.0 0.0 0.0 
0.0 0.0 0.0 
0.0 0.0 0.0 
0.0 0.0 0.0 
0.0 0.0 0.0 
0.0 0.0 0.0 
0.0 0.0 0.0 
0.0 0.0 0.0 
0.0 0.0 0.0 
0.0 0.0 0.0 
0.0 0.0 0.0 
0.0 -1.000000000000e+02 0.0 
0.0 -1.000000000000e+02 0.0 
0.0 -1.000000000000e+02 0.0 
0.0 -1.000000000000e+02 0.0 
0.0 -1.000000000000e+02 0.0 
0.0 0.0 0.0 
0.0 0.0 0.0 
0.0 0.0 0.0 
0.0 0.0 0.0 
0.0 0.0 0.0 
0.0 0.0 0.0 
0.0 0.0 0.0 
0.0 0.0 0.0 
0.0 0.0 0.0 
0.0 0.0 0.0 
0.0 0.0 0.0 
0.0 0.0 0.0 
0.0 0.0 0.0 
0.0 0.0 0.0 
0.0 0.0 0.0 
0.0 0.0 0.0 
0.0 0.0 0.0 
0.0 0.0 0.0 
0.0 0.0 0.0 
0.0 0.0 0.0 
0.0 0.0 0.0 
0.0 0.0 0.0 
0.0 0.0 0.0 
0.0 0.0 0.0 
0.0 0.0 0.0 
0.0 0.0 0.0 
0.0 0.0 0.0 
0.0 0.0 0.0 
0.0 0.0 0.0 
0.0 0.0 0.0 
0.0 0.0 0.0 
0.0 0.0 0.0 
0.0 0.0 0.0 
0.0 0.0 0.0 
0.0 0.0 0.0 
0.0 0.0 0.0 
0.0 0.0 0.0 
0.0 0.0 0.0 
0.0 0.0 0.0 
0.0 0.0 0.0 
0.0 0.0 0.0 
0.0 0.0 0.0 
0.0 0.0 0.0 
0.0 0.0 0.0 
0.0 0.0 0.0 
0.0 0.0 0.0 
0.0 0.0 0.0 
0.0 0.0 0.0 
0.0 0.0 0.0 
0.0 0.0 0.0 
0.0 0.0 0.0 
0.0 0.0 0.0 
0.0 0.0 0.0 
0.0 0.0 0.0 
0.0 0.0 0.0 
0.0 0.0 0.0 
0.0 0.0 0.0 
0.0 0.0 0.0 
0.0 0.0 0.0 
0.0 0.0 0.0 
0.0 0.0 0.0 
0.0 0.0 0.0 
0.0 0.0 0.0 
0.0 0.0 0.0 
0.0 0.0 0.0 
0.0 0.0 0.0 
0.0 0.0 0.0 
0.0 0.0 0.0 
0.0 0.0 0.0 
0.0 0.0 0.0 
0.0 0.0 0.0 
0.0 0.0 0.0 
0.0 0.0 0.0 
0.0 0.0 0.0 
0.0 0.0 0.0 
0.0 0.0 0.0 
0.0 0.0 0.0 
0.0 0.0 0.0 
0.0 0.0 0.0 
0.0 0.0 0.0 
0.0 0.0 0.0 
0.0 0.0 0.0 
0.0 0.0 0.0 
0.0 0.0 0.0 
0.0 0.0 0.0 
0.0 0.0 0.0 
0.0 0.0 0.0 
0.0 0.0 0.0 
0.0 0.0 0.0 
0.0 0.0 0.0 
0.0 0.0 0.0 
0.0 0.0 0.0 
0.0 0.0 0.0 
0.0 0.0 0.0 
0.0 0.0 0.0 
0.0 0.0 0.0 
0.0 0.0 0.0 
0.0 0.0 0.0 
0.0 0.0 0.0 
0.0 0.0 0.0 
0.0 0.0 0.0 
0.0 0.0 0.0 
0.0 0.0 0.0 
0.0 0.0 0.0 
0.0 0.0 0.0 
0.0 0.0 0.0 
0.0 0.0 0.0 
0.0 0.0 0.0 
0.0 0.0 0.0 
0.0 0.0 0.0 
0.0 0.0 0.0 
0.0 0.0 0.0 
0.0 0.0 0.0 
0.0 0.0 0.0 
0.0 0.0 0.0 
0.0 0.0 0.0 
0.0 0.0 0.0 
0.0 0.0 0.0 
0.0 0.0 0.0 
0.0 0.0 0.0 
0.0 0.0 0.0 
0.0 0.0 0.0 
0.0 0.0 0.0 
0.0 0.0 0.0 
0.0 0.0 0.0 
0.0 0.0 0.0 
0.0 0.0 0.0 
0.0 0.0 0.0 
0.0 0.0 0.0 
0.0 0.0 0.0 
0.0 0.0 0.0 
0.0 0.0 0.0 
0.0 0.0 0.0 
0.0 0.0 0.0 
0.0 0.0 0.0 
0.0 0.0 0.0 
0.0 0.0 0.0 
0.0 0.0 0.0 
0.0 0.0 0.0 
0.0 0.0 0.0 
0.0 0.0 0.0 
0.0 0.0 0.0 
0.0 0.0 0.0 
0.0 0.0 0.0 
0.0 0.0 0.0 
0.0 0.0 0.0 
0.0 0.0 0.0 
0.0 0.0 0.0 
0.0 0.0 0.0 
0.0 0.0 0.0 
0.0 0.0 0.0 
0.0 0.0 0.0 
0.0 0.0 0.0 
0.0 0.0 0.0 
0.0 0.0 0.0 
0.0 0.0 0.0 
0.0 0.0 0.0 
0.0 0.0 0.0 
0.0 0.0 0.0 
0.0 0.0 0.0 
0.0 0.0 0.0 
0.0 0.0 0.0 
0.0 0.0 0.0 
0.0 0.0 0.0 
0.0 0.0 0.0 
0.0 0.0 0.0 
0.0 0.0 0.0 
0.0 0.0 0.0 
0.0 0.0 0.0 
0.0 0.0 0.0 
0.0 0.0 0.0 
0.0 0.0 0.0 
0.0 0.0 0.0 
0.0 0.0 0.0 
0.0 0.0 0.0 
0.0 0.0 0.0 
0.0 0.0 0.0 
0.0 0.0 0.0 
0.0 0.0 0.0 
0.0 0.0 0.0 
0.0 0.0 0.0 
0.0 0.0 0.0 
0.0 0.0 0.0 
0.0 0.0 0.0 
0.0 0.0 0.0 
0.0 0.0 0.0 
0.0 0.0 0.0 
0.0 0.0 0.0 
0.0 0.0 0.0 
0.0 0.0 0.0 
0.0 0.0 0.0 
0.0 0.0 0.0 
0.0 0.0 0.0 
0.0 0.0 0.0 
0.0 0.0 0.0 
0.0 0.0 0.0 
0.0 0.0 0.0 
0.0 0.0 0.0 
0.0 0.0 0.0 
0.0 0.0 0.0 
0.0 0.0 0.0 
0.0 0.0 0.0 
0.0 0.0 0.0 
0.0 0.0 0.0 
0.0 0.0 0.0 
0.0 0.0 0.0 
0.0 0.0 0.0 
0.0 0.0 0.0 
0.0 0.0 0.0 
0.0 0.0 0.0 
0.0 0.0 0.0 
0.0 0.0 0.0 
0.0 0.0 0.0 
0.0 0.0 0.0 
0.0 0.0 0.0 
0.0 0.0 0.0 
0.0 0.0 0.0 
0.0 0.0 0.0 
0.0 0.0 0.0 
0.0 0.0 0.0 
0.0 0.0 0.0 
0.0 0.0 0.0 
0.0 0.0 0.0 
0.0 0.0 0.0 
0.0 0.0 0.0 
0.0 0.0 0.0 
0.0 0.0 0.0 
0.0 0.0 0.0 
0.0 0.0 0.0 
0.0 0.0 0.0 
0.0 0.0 0.0 
0.0 0.0 0.0 
0.0 0.0 0.0 
0.0 0.0 0.0 
0.0 0.0 0.0 
0.0 0.0 0.0 
0.0 0.0 0.0 
0.0 0.0 0.0 
0.0 0.0 0.0 
0.0 0.0 0.0 
0.0 0.0 0.0 
0.0 0.0 0.0 
0.0 0.0 0.0 
0.0 0.0 0.0 
0.0 0.0 0.0 
0.0 0.0 0.0 
0.0 0.0 0.0 
0.0 0.0 0.0 
0.0 0.0 0.0 
0.0 0.0 0.0 
0.0 0.0 0.0 
0.0 0.0 0.0 
0.0 0.0 0.0 
0.0 0.0 0.0 
0.0 0.0 0.0 
0.0 0.0 0.0 
0.0 0.0 0.0 
0.0 0.0 0.0 
0.0 0.0 0.0 
0.0 0.0 0.0 
0.0 0.0 0.0 
0.0 0.0 0.0 
0.0 0.0 0.0 
0.0 0.0 0.0 
0.0 0.0 0.0 
0.0 0.0 0.0 
0.0 0.0 0.0 
0.0 0.0 0.0 
0.0 0.0 0.0 
0.0 0.0 0.0 
0.0 0.0 0.0 
0.0 0.0 0.0 
0.0 0.0 0.0 
0.0 0.0 0.0 
0.0 0.0 0.0 
0.0 0.0 0.0 
0.0 0.0 0.0 
0.0 0.0 0.0 
0.0 0.0 0.0 
0.0 0.0 0.0 
0.0 0.0 0.0 
0.0 0.0 0.0 
0.0 0.0 0.0 
0.0 0.0 0.0 
0.0 0.0 0.0 
0.0 0.0 0.0 
0.0 0.0 0.0 
0.0 0.0 0.0 
0.0 0.0 0.0 
0.0 0.0 0.0 
0.0 0.0 0.0 
0.0 0.0 0.0 
0.0 0.0 0.0 
0.0 0.0 0.0 
0.0 0.0 0.0 
0.0 0.0 0.0 
0.0 0.0 0.0 
0.0 0.0 0.0 
0.0 0.0 0.0 
0.0 0.0 0.0 
0.0 0.0 0.0 
0.0 0.0 0.0 
0.0 0.0 0.0 
0.0 0.0 0.0 
0.0 0.0 0.0 
0.0 0.0 0.0 
0.0 0.0 0.0 
0.0 0.0 0.0 
0.0 0.0 0.0 
0.0 0.0 0.0 
0.0 0.0 0.0 
0.0 0.0 0.0 
0.0 0.0 0.0 
0.0 0.0 0.0 
0.0 0.0 0.0 
0.0 0.0 0.0 
0.0 0.0 0.0 
0.0 0.0 0.0 
0.0 0.0 0.0 
0.0 0.0 0.0 
0.0 0.0 0.0 
0.0 0.0 0.0 
0.0 0.0 0.0 
0.0 0.0 0.0 
0.0 0.0 0.0 
0.0 0.0 0.0 
0.0 0.0 0.0 
0.0 0.0 0.0 
0.0 0.0 0.0 
0.0 0.0 0.0 
0.0 0.0 0.0 
0.0 0.0 0.0 
0.0 0.0 0.0 
0.0 0.0 0.0 
0.0 0.0 0.0 
0.0 0.0 0.0 
0.0 0.0 0.0 
0.0 0.0 0.0 
0.0 0.0 0.0 
0.0 0.0 0.0 
0.0 0.0 0.0 
0.0 0.0 0.0 
0.0 0.0 0.0 
0.0 0.0 0.0 
0.0 0.0 0.0 
0.0 0.0 0.0 
0.0 0.0 0.0 
0.0 0.0 0.0 
0.0 0.0 0.0 
0.0 0.0 0.0 
0.0 0.0 0.0 
0.0 0.0 0.0 
0.0 0.0 0.0 
0.0 0.0 0.0 
0.0 0.0 0.0 
0.0 0.0 0.0 
0.0 0.0 0.0 
0.0 0.0 0.0 
0.0 0.0 0.0 
0.0 0.0 0.0 
0.0 0.0 0.0 
0.0 0.0 0.0 
0.0 0.0 0.0 
0.0 0.0 0.0 
0.0 0.0 0.0 
0.0 0.0 0.0 
0.0 0.0 0.0 
0.0 0.0 0.0 
0.0 0.0 0.0 
0.0 0.0 0.0 
0.0 0.0 0.0 
0.0 0.0 0.0 
0.0 0.0 0.0 
0.0 0.0 0.0 
0.0 0.0 0.0 
0.0 0.0 0.0 
0.0 0.0 0.0 
0.0 0.0 0.0 
0.0 0.0 0.0 
0.0 0.0 0.0 
0.0 0.0 0.0 
0.0 0.0 0.0 
0.0 0.0 0.0 
0.0 0.0 0.0 
0.0 0.0 0.0 
0.0 0.0 0.0 
0.0 0.0 0.0 
0.0 0.0 0.0 
0.0 0.0 0.0 
0.0 0.0 0.0 
0.0 0.0 0.0 
0.0 0.0 0.0 
0.0 0.0 0.0 
0.0 0.0 0.0 
0.0 0.0 0.0 
0.0 0.0 0.0 
0.0 0.0 0.0 
0.0 0.0 0.0 
0.0 0.0 0.0 
0.0 0.0 0.0 
0.0 0.0 0.0 
0.0 0.0 0.0 
0.0 0.0 0.0 
0.0 0.0 0.0 
0.0 0.0 0.0 
0.0 0.0 0.0 
0.0 0.0 0.0 
0.0 0.0 0.0 
0.0 0.0 0.0 
0.0 0.0 0.0 
0.0 0.0 0.0 
0.0 0.0 0.0 
0.0 0.0 0.0 
0.0 0.0 0.0 
0.0 0.0 0.0 
0.0 0.0 0.0 
0.0 0.0 0.0 
0.0 0.0 0.0 
0.0 0.0 0.0 
0.0 0.0 0.0 
0.0 0.0 0.0 
0.0 0.0 0.0 
0.0 0.0 0.0 
0.0 0.0 0.0 
0.0 0.0 0.0 
0.0 0.0 0.0 
0.0 0.0 0.0 
0.0 0.0 0.0 
0.0 0.0 0.0 
0.0 0.0 0.0 
0.0 0.0 0.0 
0.0 0.0 0.0 
0.0 0.0 0.0 
0.0 0.0 0.0 
0.0 0.0 0.0 
0.0 0.0 0.0 
0.0 0.0 0.0 
0.0 0.0 0.0 
0.0 0.0 0.0 
0.0 0.0 0.0 
0.0 0.0 0.0 
0.0 0.0 0.0 
0.0 0.0 0.0 
0.0 0.0 0.0 
0.0 0.0 0.0 
0.0 0.0 0.0 
0.0 0.0 0.0 
0.0 0.0 0.0 
0.0 0.0 0.0 
0.0 0.0 0.0 
0.0 0.0 0.0 
0.0 0.0 0.0 
0.0 0.0 0.0 
0.0 0.0 0.0 
0.0 0.0 0.0 
0.0 0.0 0.0 
0.0 0.0 0.0 
0.0 0.0 0.0 
0.0 0.0 0.0 
0.0 0.0 0.0 
0.0 0.0 0.0 
0.0 0.0 0.0 
0.0 0.0 0.0 
0.0 0.0 0.0 
0.0 0.0 0.0 
0.0 0.0 0.0 
0.0 0.0 0.0 
0.0 0.0 0.0 
0.0 0.0 0.0 
0.0 0.0 0.0 
0.0 0.0 0.0 
0.0 0.0 0.0 
0.0 0.0 0.0 
0.0 0.0 0.0 
0.0 0.0 0.0 
0.0 0.0 0.0 
0.0 0.0 0.0 
0.0 0.0 0.0 
0.0 0.0 0.0 
0.0 0.0 0.0 
0.0 0.0 0.0 
0.0 0.0 0.0 
0.0 0.0 0.0 
0.0 0.0 0.0 
0.0 0.0 0.0 
0.0 0.0 0.0 
0.0 0.0 0.0 
0.0 0.0 0.0 
0.0 0.0 0.0 
0.0 0.0 0.0 
0.0 0.0 0.0 
0.0 0.0 0.0 
0.0 0.0 0.0 
0.0 0.0 0.0 
0.0 0.0 0.0 
0.0 0.0 0.0 
0.0 0.0 0.0 
0.0 0.0 0.0 
0.0 0.0 0.0 
0.0 0.0 0.0 
0.0 0.0 0.0 
0.0 0.0 0.0 
0.0 0.0 0.0 
0.0 0.0 0.0 
0.0 0.0 0.0 
0.0 0.0 0.0 
0.0 0.0 0.0 
0.0 0.0 0.0 
0.0 0.0 0.0 
0.0 0.0 0.0 
0.0 0.0 0.0 
0.0 0.0 0.0 
0.0 0.0 0.0 
0.0 0.0 0.0 
0.0 0.0 0.0 
0.0 0.0 0.0 
0.0 0.0 0.0 
0.0 0.0 0.0 
0.0 0.0 0.0 
0.0 0.0 0.0 
0.0 0.0 0.0 
0.0 0.0 0.0 
0.0 0.0 0.0 
0.0 0.0 0.0 
0.0 0.0 0.0 
0.0 0.0 0.0 
0.0 0.0 0.0 
0.0 0.0 0.0 
0.0 0.0 0.0 
0.0 0.0 0.0 
0.0 0.0 0.0 
0.0 0.0 0.0 
0.0 0.0 0.0 
0.0 0.0 0.0 
0.0 0.0 0.0 
0.0 0.0 0.0 
0.0 0.0 0.0 
0.0 0.0 0.0 
0.0 0.0 0.0 
0.0 0.0 0.0 
0.0 0.0 0.0 
0.0 0.0 0.0 
0.0 0.0 0.0 
0.0 0.0 0.0 
0.0 0.0 0.0 
0.0 0.0 0.0 
0.0 0.0 0.0 
0.0 0.0 0.0 
0.0 0.0 0.0 
0.0 0.0 0.0 
0.0 0.0 0.0 
0.0 0.0 0.0 
0.0 0.0 0.0 
0.0 0.0 0.0 
0.0 0.0 0.0 
0.0 0.0 0.0 
0.0 0.0 0.0 
0.0 0.0 0.0 
0.0 0.0 0.0 
0.0 0.0 0.0 
0.0 0.0 0.0 
0.0 0.0 0.0 
0.0 0.0 0.0 
0.0 0.0 0.0 
0.0 0.0 0.0 
0.0 0.0 0.0 
0.0 0.0 0.0 
0.0 0.0 0.0 
0.0 0.0 0.0 
0.0 0.0 0.0 
0.0 0.0 0.0 
0.0 0.0 0.0 
0.0 0.0 0.0 
0.0 0.0 0.0 
0.0 0.0 0.0 
0.0 0.0 0.0 
0.0 0.0 0.0 
0.0 0.0 0.0 
0.0 0.0 0.0 
0.0 0.0 0.0 
0.0 0.0 0.0 
0.0 0.0 0.0 
0.0 0.0 0.0 
0.0 0.0 0.0 
0.0 0.0 0.0 
0.0 0.0 0.0 
0.0 0.0 0.0 
0.0 0.0 0.0 
0.0 0.0 0.0 
0.0 0.0 0.0 
0.0 0.0 0.0 
0.0 0.0 0.0 
0.0 0.0 0.0 
0.0 0.0 0.0 
0.0 0.0 0.0 
0.0 0.0 0.0 
0.0 0.0 0.0 
0.0 0.0 0.0 
0.0 0.0 0.0 
0.0 0.0 0.0 
0.0 0.0 0.0 
0.0 0.0 0.0 
0.0 0.0 0.0 
0.0 0.0 0.0 
0.0 0.0 0.0 
0.0 0.0 0.0 
0.0 0.0 0.0 
0.0 0.0 0.0 
0.0 0.0 0.0 
0.0 0.0 0.0 
0.0 0.0 0.0 
0.0 0.0 0.0 
0.0 0.0 0.0 
0.0 0.0 0.0 
0.0 0.0 0.0 
0.0 0.0 0.0 
0.0 0.0 0.0 
0.0 0.0 0.0 
0.0 0.0 0.0 
0.0 0.0 0.0 
0.0 0.0 0.0 
0.0 0.0 0.0 
0.0 0.0 0.0 
0.0 0.0 0.0 
0.0 0.0 0.0 
0.0 0.0 0.0 
0.0 0.0 0.0 
0.0 0.0 0.0 
0.0 0.0 0.0 
0.0 0.0 0.0 
0.0 0.0 0.0 
0.0 0.0 0.0 
0.0 0.0 0.0 
0.0 0.0 0.0 
0.0 0.0 0.0 
0.0 0.0 0.0 
0.0 0.0 0.0 
0.0 0.0 0.0 
0.0 0.0 0.0 
0.0 0.0 0.0 
0.0 0.0 0.0 
0.0 0.0 0.0 
0.0 0.0 0.0 
0.0 0.0 0.0 
0.0 0.0 0.0 
0.0 0.0 0.0 
0.0 0.0 0.0 
0.0 0.0 0.0 
0.0 0.0 0.0 
0.0 0.0 0.0 
0.0 0.0 0.0 
0.0 0.0 0.0 
0.0 0.0 0.0 
0.0 0.0 0.0 
0.0 0.0 0.0 
0.0 0.0 0.0 
0.0 0.0 0.0 
0.0 0.0 0.0 
0.0 0.0 0.0 
0.0 0.0 0.0 
0.0 0.0 0.0 
0.0 0.0 0.0 
0.0 0.0 0.0 
0.0 0.0 0.0 
0.0 0.0 0.0 
0.0 0.0 0.0 
0.0 0.0 0.0 
0.0 0.0 0.0 
0.0 0.0 0.0 
0.0 0.0 0.0 
0.0 0.0 0.0 
0.0 0.0 0.0 
0.0 0.0 0.0 
0.0 0.0 0.0 
0.0 0.0 0.0 
0.0 0.0 0.0 
0.0 0.0 0.0 
0.0 0.0 0.0 
0.0 0.0 0.0 
0.0 0.0 0.0 
0.0 0.0 0.0 
0.0 0.0 0.0 
0.0 0.0 0.0 
0.0 0.0 0.0 
0.0 0.0 0.0 
0.0 0.0 0.0 
0.0 0.0 0.0 
0.0 0.0 0.0 
0.0 0.0 0.0 
0.0 0.0 0.0 
0.0 0.0 0.0 
0.0 0.0 0.0 
0.0 0.0 0.0 
0.0 0.0 0.0 
0.0 0.0 0.0 
0.0 0.0 0.0 
0.0 0.0 0.0 
0.0 0.0 0.0 
0.0 0.0 0.0 
0.0 0.0 0.0 
0.0 0.0 0.0 
0.0 0.0 0.0 
0.0 0.0 0.0 
0.0 0.0 0.0 
0.0 0.0 0.0 
0.0 0.0 0.0 
0.0 0.0 0.0 
0.0 0.0 0.0 
0.0 0.0 0.0 
0.0 0.0 0.0 
0.0 0.0 0.0 
0.0 0.0 0.0 
0.0 0.0 0.0 
0.0 0.0 0.0 
0.0 0.0 0.0 
0.0 0.0 0.0 
0.0 0.0 0.0 
0.0 0.0 0.0 
0.0 0.0 0.0 
0.0 0.0 0.0 
0.0 0.0 0.0 
0.0 0.0 0.0 
0.0 0.0 0.0 
0.0 0.0 0.0 
0.0 0.0 0.0 
0.0 0.0 0.0 
0.0 0.0 0.0 
0.0 0.0 0.0 
0.0 0.0 0.0 
0.0 0.0 0.0 
0.0 0.0 0.0 
0.0 0.0 0.0 
0.0 0.0 0.0 
0.0 0.0 0.0 
0.0 0.0 0.0 
0.0 0.0 0.0 
0.0 0.0 0.0 
0.0 0.0 0.0 
0.0 0.0 0.0 
0.0 0.0 0.0 
0.0 0.0 0.0 
0.0 0.0 0.0 
0.0 0.0 0.0 
0.0 0.0 0.0 
0.0 0.0 0.0 
0.0 0.0 0.0 
0.0 0.0 0.0 
0.0 0.0 0.0 
0.0 0.0 0.0 
0.0 0.0 0.0 
0.0 0.0 0.0 
0.0 0.0 0.0 
0.0 0.0 0.0 
0.0 0.0 0.0 
0.0 0.0 0.0 
0.0 0.0 0.0 
0.0 0.0 0.0 
0.0 0.0 0.0 
0.0 0.0 0.0 
0.0 0.0 0.0 
0.0 0.0 0.0 
0.0 0.0 0.0 
0.0 0.0 0.0 
0.0 0.0 0.0 
0.0 0.0 0.0 
0.0 0.0 0.0 
0.0 0.0 0.0 
0.0 0.0 0.0 
0.0 0.0 0.0 
0.0 0.0 0.0 
0.0 0.0 0.0 
0.0 0.0 0.0 
0.0 0.0 0.0 
0.0 0.0 0.0 
0.0 0.0 0.0 
0.0 0.0 0.0 
0.0 0.0 0.0 
0.0 0.0 0.0 
0.0 0.0 0.0 
0.0 0.0 0.0 
0.0 0.0 0.0 
0.0 0.0 0.0 
0.0 0.0 0.0 
0.0 0.0 0.0 
0.0 0.0 0.0 
0.0 0.0 0.0 
0.0 0.0 0.0 
0.0 0.0 0.0 
0.0 0.0 0.0 
0.0 0.0 0.0 
0.0 0.0 0.0 
0.0 0.0 0.0 
0.0 0.0 0.0 
0.0 0.0 0.0 
0.0 0.0 0.0 
0.0 0.0 0.0 
0.0 0.0 0.0 
0.0 0.0 0.0 
0.0 0.0 0.0 
0.0 0.0 0.0 
0.0 0.0 0.0 
0.0 0.0 0.0 
0.0 0.0 0.0 
0.0 0.0 0.0 
0.0 0.0 0.0 
0.0 0.0 0.0 
0.0 0.0 0.0 
0.0 0.0 0.0 
0.0 0.0 0.0 
0.0 0.0 0.0 
0.0 0.0 0.0 
0.0 0.0 0.0 
0.0 0.0 0.0 
0.0 0.0 0.0 
0.0 0.0 0.0 
0.0 0.0 0.0 
0.0 0.0 0.0 
0.0 0.0 0.0 
0.0 0.0 0.0 
0.0 0.0 0.0 
0.0 0.0 0.0 
0.0 0.0 0.0 
0.0 0.0 0.0 
0.0 0.0 0.0 
0.0 0.0 0.0 
0.0 0.0 0.0 
0.0 0.0 0.0 
0.0 0.0 0.0 
0.0 0.0 0.0 
0.0 0.0 0.0 
0.0 0.0 0.0 
0.0 0.0 0.0 
0.0 0.0 0.0 
0.0 0.0 0.0 
0.0 0.0 0.0 
0.0 0.0 0.0 
0.0 0.0 0.0 
0.0 0.0 0.0 
0.0 0.0 0.0 
0.0 0.0 0.0 
0.0 0.0 0.0 
0.0 0.0 0.0 
0.0 0.0 0.0 
0.0 0.0 0.0 
0.0 0.0 0.0 
0.0 0.0 0.0 
0.0 0.0 0.0 
0.0 0.0 0.0 
0.0 0.0 0.0 
0.0 0.0 0.0 
0.0 0.0 0.0 
0.0 0.0 0.0 
0.0 0.0 0.0 
0.0 0.0 0.0 
0.0 0.0 0.0 
0.0 0.0 0.0 
0.0 0.0 0.0 
0.0 0.0 0.0 
0.0 0.0 0.0 
0.0 0.0 0.0 
0.0 0.0 0.0 
0.0 0.0 0.0 
0.0 0.0 0.0 
0.0 0.0 0.0 
0.0 0.0 0.0 
0.0 0.0 0.0 
0.0 0.0 0.0 
0.0 0.0 0.0 
0.0 0.0 0.0 
0.0 0.0 0.0 
0.0 0.0 0.0 
0.0 0.0 0.0 
0.0 0.0 0.0 
0.0 0.0 0.0 
0.0 0.0 0.0 
0.0 0.0 0.0 
0.0 0.0 0.0 
0.0 0.0 0.0 
0.0 0.0 0.0 
0.0 0.0 0.0 
0.0 0.0 0.0 
0.0 0.0 0.0 
0.0 0.0 0.0 
0.0 0.0 0.0 
0.0 0.0 0.0 
0.0 0.0 0.0 
0.0 0.0 0.0 
0.0 0.0 0.0 
0.0 0.0 0.0 
0.0 0.0 0.0 
0.0 0.0 0.0 
0.0 0.0 0.0 
0.0 0.0 0.0 
0.0 0.0 0.0 
0.0 0.0 0.0 
0.0 0.0 0.0 
0.0 0.0 0.0 
0.0 0.0 0.0 
0.0 0.0 0.0 
0.0 0.0 0.0 
0.0 0.0 0.0 
0.0 0.0 0.0 
0.0 0.0 0.0 
0.0 0.0 0.0 
0.0 0.0 0.0 
0.0 0.0 0.0 
0.0 0.0 0.0 
0.0 0.0 0.0 
0.0 0.0 0.0 
0.0 0.0 0.0 
0.0 0.0 0.0 
0.0 0.0 0.0 
0.0 0.0 0.0 
0.0 0.0 0.0 
0.0 0.0 0.0 
0.0 0.0 0.0 
0.0 0.0 0.0 
0.0 0.0 0.0 
0.0 0.0 0.0 
0.0 0.0 0.0 
0.0 0.0 0.0 
0.0 0.0 0.0 
0.0 0.0 0.0 
0.0 0.0 0.0 
0.0 0.0 0.0 
0.0 0.0 0.0 
0.0 0.0 0.0 
0.0 0.0 0.0 
0.0 0.0 0.0 
0.0 0.0 0.0 
0.0 0.0 0.0 
0.0 0.0 0.0 
0.0 0.0 0.0 
0.0 0.0 0.0 
0.0 0.0 0.0 
0.0 0.0 0.0 
0.0 0.0 0.0 
0.0 0.0 0.0 
0.0 0.0 0.0 
0.0 0.0 0.0 
0.0 0.0 0.0 
0.0 0.0 0.0 
0.0 0.0 0.0 
0.0 0.0 0.0 
0.0 0.0 0.0 
0.0 0.0 0.0 
0.0 0.0 0.0 
0.0 0.0 0.0 
0.0 0.0 0.0 
0.0 0.0 0.0 
0.0 0.0 0.0 
0.0 0.0 0.0 
0.0 0.0 0.0 
0.0 0.0 0.0 
0.0 0.0 0.0 
0.0 0.0 0.0 
0.0 0.0 0.0 
0.0 0.0 0.0 
0.0 0.0 0.0 
0.0 0.0 0.0 
0.0 0.0 0.0 
0.0 0.0 0.0 
0.0 0.0 0.0 
0.0 0.0 0.0 
0.0 0.0 0.0 
0.0 0.0 0.0 
0.0 0.0 0.0 
0.0 0.0 0.0 
0.0 0.0 0.0 
0.0 0.0 0.0 
0.0 0.0 0.0 
0.0 0.0 0.0 
0.0 0.0 0.0 
0.0 0.0 0.0 
0.0 0.0 0.0 
0.0 0.0 0.0 
0.0 0.0 0.0 
0.0 0.0 0.0 
0.0 0.0 0.0 
0.0 0.0 0.0 
0.0 0.0 0.0 
0.0 0.0 0.0 
0.0 0.0 0.0 
0.0 0.0 0.0 
0.0 0.0 0.0 
0.0 0.0 0.0 
0.0 0.0 0.0 
0.0 0.0 0.0 
0.0 0.0 0.0 
0.0 0.0 0.0 
0.0 0.0 0.0 
0.0 0.0 0.0 
0.0 0.0 0.0 
0.0 0.0 0.0 
0.0 0.0 0.0 
0.0 0.0 0.0 
0.0 0.0 0.0 

VECTORS node_force_gravity float
0.0 -1.962000000000e+01 0.0 
0.0 -1.962000000000e+01 0.0 
0.0 -1.962000000000e+01 0.0 
0.0 -1.962000000000e+01 0.0 
0.0 -1.962000000000e+01 0.0 
0.0 -1.962000000000e+01 0.0 
0.0 -1.962000000000e+01 0.0 
0.0 -1.962000000000e+01 0.0 
0.0 -1.962000000000e+01 0.0 
0.0 -1.962000000000e+01 0.0 
0.0 -1.962000000000e+01 0.0 
0.0 -1.962000000000e+01 0.0 
0.0 -1.962000000000e+01 0.0 
0.0 -1.962000000000e+01 0.0 
0.0 -1.962000000000e+01 0.0 
0.0 -1.962000000000e+01 0.0 
0.0 -1.962000000000e+01 0.0 
0.0 -1.962000000000e+01 0.0 
0.0 -1.962000000000e+01 0.0 
0.0 -1.962000000000e+01 0.0 
0.0 -1.962000000000e+01 0.0 
0.0 -1.962000000000e+01 0.0 
0.0 -1.962000000000e+01 0.0 
0.0 -1.962000000000e+01 0.0 
0.0 -1.962000000000e+01 0.0 
0.0 -1.962000000000e+01 0.0 
0.0 -1.962000000000e+01 0.0 
0.0 -1.962000000000e+01 0.0 
0.0 -1.962000000000e+01 0.0 
0.0 -1.962000000000e+01 0.0 
0.0 -1.962000000000e+01 0.0 
0.0 -1.962000000000e+01 0.0 
0.0 -1.962000000000e+01 0.0 
0.0 -1.962000000000e+01 0.0 
0.0 -1.962000000000e+01 0.0 
0.0 -1.962000000000e+01 0.0 
0.0 -1.962000000000e+01 0.0 
0.0 -1.962000000000e+01 0.0 
0.0 -1.962000000000e+01 0.0 
0.0 -1.962000000000e+01 0.0 
0.0 -1.962000000000e+01 0.0 
0.0 -1.962000000000e+01 0.0 
0.0 -1.962000000000e+01 0.0 
0.0 -1.962000000000e+01 0.0 
0.0 -1.962000000000e+01 0.0 
0.0 -1.962000000000e+01 0.0 
0.0 -1.962000000000e+01 0.0 
0.0 -1.962000000000e+01 0.0 
0.0 -1.962000000000e+01 0.0 
0.0 -1.962000000000e+01 0.0 
0.0 -1.962000000000e+01 0.0 
0.0 -1.962000000000e+01 0.0 
0.0 -1.962000000000e+01 0.0 
0.0 -1.962000000000e+01 0.0 
0.0 -1.962000000000e+01 0.0 
0.0 -1.962000000000e+01 0.0 
0.0 -1.962000000000e+01 0.0 
0.0 -1.962000000000e+01 0.0 
0.0 -1.962000000000e+01 0.0 
0.0 -1.962000000000e+01 0.0 
0.0 -1.962000000000e+01 0.0 
0.0 -1.962000000000e+01 0.0 
0.0 -1.962000000000e+01 0.0 
0.0 -1.962000000000e+01 0.0 
0.0 -1.962000000000e+01 0.0 
0.0 -1.962000000000e+01 0.0 
0.0 -1.962000000000e+01 0.0 
0.0 -1.962000000000e+01 0.0 
0.0 -1.962000000000e+01 0.0 
0.0 -1.962000000000e+01 0.0 
0.0 -1.962000000000e+01 0.0 
0.0 -1.962000000000e+01 0.0 
0.0 -1.962000000000e+01 0.0 
0.0 -1.962000000000e+01 0.0 
0.0 -1.962000000000e+01 0.0 
0.0 -1.962000000000e+01 0.0 
0.0 -1.962000000000e+01 0.0 
0.0 -1.962000000000e+01 0.0 
0.0 -1.962000000000e+01 0.0 
0.0 -1.962000000000e+01 0.0 
0.0 -1.962000000000e+01 0.0 
0.0 -1.962000000000e+01 0.0 
0.0 -1.962000000000e+01 0.0 
0.0 -1.962000000000e+01 0.0 
0.0 -1.962000000000e+01 0.0 
0.0 -1.962000000000e+01 0.0 
0.0 -1.962000000000e+01 0.0 
0.0 -1.962000000000e+01 0.0 
0.0 -1.962000000000e+01 0.0 
0.0 -1.962000000000e+01 0.0 
0.0 -1.962000000000e+01 0.0 
0.0 -1.962000000000e+01 0.0 
0.0 -1.962000000000e+01 0.0 
0.0 -1.962000000000e+01 0.0 
0.0 -1.962000000000e+01 0.0 
0.0 -1.962000000000e+01 0.0 
0.0 -1.962000000000e+01 0.0 
0.0 -1.962000000000e+01 0.0 
0.0 -1.962000000000e+01 0.0 
0.0 -1.962000000000e+01 0.0 
0.0 -1.962000000000e+01 0.0 
0.0 -1.962000000000e+01 0.0 
0.0 -1.962000000000e+01 0.0 
0.0 -1.962000000000e+01 0.0 
0.0 -1.962000000000e+01 0.0 
0.0 -1.962000000000e+01 0.0 
0.0 -1.962000000000e+01 0.0 
0.0 -1.962000000000e+01 0.0 
0.0 -1.962000000000e+01 0.0 
0.0 -1.962000000000e+01 0.0 
0.0 -1.962000000000e+01 0.0 
0.0 -1.962000000000e+01 0.0 
0.0 -1.962000000000e+01 0.0 
0.0 -1.962000000000e+01 0.0 
0.0 -1.962000000000e+01 0.0 
0.0 -1.962000000000e+01 0.0 
0.0 -1.962000000000e+01 0.0 
0.0 -1.962000000000e+01 0.0 
0.0 -1.962000000000e+01 0.0 
0.0 -1.962000000000e+01 0.0 
0.0 -1.962000000000e+01 0.0 
0.0 -1.962000000000e+01 0.0 
0.0 -1.962000000000e+01 0.0 
0.0 -1.962000000000e+01 0.0 
0.0 -1.962000000000e+01 0.0 
0.0 -1.962000000000e+01 0.0 
0.0 -1.962000000000e+01 0.0 
0.0 -1.962000000000e+01 0.0 
0.0 -1.962000000000e+01 0.0 
0.0 -1.962000000000e+01 0.0 
0.0 -1.962000000000e+01 0.0 
0.0 -1.962000000000e+01 0.0 
0.0 -1.962000000000e+01 0.0 
0.0 -1.962000000000e+01 0.0 
0.0 -1.962000000000e+01 0.0 
0.0 -1.962000000000e+01 0.0 
0.0 -1.962000000000e+01 0.0 
0.0 -1.962000000000e+01 0.0 
0.0 -1.962000000000e+01 0.0 
0.0 -1.962000000000e+01 0.0 
0.0 -1.962000000000e+01 0.0 
0.0 -1.962000000000e+01 0.0 
0.0 -1.962000000000e+01 0.0 
0.0 -1.962000000000e+01 0.0 
0.0 -1.962000000000e+01 0.0 
0.0 -1.962000000000e+01 0.0 
0.0 -1.962000000000e+01 0.0 
0.0 -1.962000000000e+01 0.0 
0.0 -1.962000000000e+01 0.0 
0.0 -1.962000000000e+01 0.0 
0.0 -1.962000000000e+01 0.0 
0.0 -1.962000000000e+01 0.0 
0.0 -1.962000000000e+01 0.0 
0.0 -1.962000000000e+01 0.0 
0.0 -1.962000000000e+01 0.0 
0.0 -1.962000000000e+01 0.0 
0.0 -1.962000000000e+01 0.0 
0.0 -1.962000000000e+01 0.0 
0.0 -1.962000000000e+01 0.0 
0.0 -1.962000000000e+01 0.0 
0.0 -1.962000000000e+01 0.0 
0.0 -1.962000000000e+01 0.0 
0.0 -1.962000000000e+01 0.0 
0.0 -1.962000000000e+01 0.0 
0.0 -1.962000000000e+01 0.0 
0.0 -1.962000000000e+01 0.0 
0.0 -1.962000000000e+01 0.0 
0.0 -1.962000000000e+01 0.0 
0.0 -1.962000000000e+01 0.0 
0.0 -1.962000000000e+01 0.0 
0.0 -1.962000000000e+01 0.0 
0.0 -1.962000000000e+01 0.0 
0.0 -1.962000000000e+01 0.0 
0.0 -1.962000000000e+01 0.0 
0.0 -1.962000000000e+01 0.0 
0.0 -1.962000000000e+01 0.0 
0.0 -1.962000000000e+01 0.0 
0.0 -1.962000000000e+01 0.0 
0.0 -1.962000000000e+01 0.0 
0.0 -1.962000000000e+01 0.0 
0.0 -1.962000000000e+01 0.0 
0.0 -1.962000000000e+01 0.0 
0.0 -1.962000000000e+01 0.0 
0.0 -1.962000000000e+01 0.0 
0.0 -1.962000000000e+01 0.0 
0.0 -1.962000000000e+01 0.0 
0.0 -1.962000000000e+01 0.0 
0.0 -1.962000000000e+01 0.0 
0.0 -1.962000000000e+01 0.0 
0.0 -1.962000000000e+01 0.0 
0.0 -1.962000000000e+01 0.0 
0.0 -1.962000000000e+01 0.0 
0.0 -1.962000000000e+01 0.0 
0.0 -1.962000000000e+01 0.0 
0.0 -1.962000000000e+01 0.0 
0.0 -1.962000000000e+01 0.0 
0.0 -1.962000000000e+01 0.0 
0.0 -1.962000000000e+01 0.0 
0.0 -1.962000000000e+01 0.0 
0.0 -1.962000000000e+01 0.0 
0.0 -1.962000000000e+01 0.0 
0.0 -1.962000000000e+01 0.0 
0.0 -1.962000000000e+01 0.0 
0.0 -1.962000000000e+01 0.0 
0.0 -1.962000000000e+01 0.0 
0.0 -1.962000000000e+01 0.0 
0.0 -1.962000000000e+01 0.0 
0.0 -1.962000000000e+01 0.0 
0.0 -1.962000000000e+01 0.0 
0.0 -1.962000000000e+01 0.0 
0.0 -1.962000000000e+01 0.0 
0.0 -1.962000000000e+01 0.0 
0.0 -1.962000000000e+01 0.0 
0.0 -1.962000000000e+01 0.0 
0.0 -1.962000000000e+01 0.0 
0.0 -1.962000000000e+01 0.0 
0.0 -1.962000000000e+01 0.0 
0.0 -1.962000000000e+01 0.0 
0.0 -1.962000000000e+01 0.0 
0.0 -1.962000000000e+01 0.0 
0.0 -1.962000000000e+01 0.0 
0.0 -1.962000000000e+01 0.0 
0.0 -1.962000000000e+01 0.0 
0.0 -1.962000000000e+01 0.0 
0.0 -1.962000000000e+01 0.0 
0.0 -1.962000000000e+01 0.0 
0.0 -1.962000000000e+01 0.0 
0.0 -1.962000000000e+01 0.0 
0.0 -1.962000000000e+01 0.0 
0.0 -1.962000000000e+01 0.0 
0.0 -1.962000000000e+01 0.0 
0.0 -1.962000000000e+01 0.0 
0.0 -1.962000000000e+01 0.0 
0.0 -1.962000000000e+01 0.0 
0.0 -1.962000000000e+01 0.0 
0.0 -1.962000000000e+01 0.0 
0.0 -1.962000000000e+01 0.0 
0.0 -1.962000000000e+01 0.0 
0.0 -1.962000000000e+01 0.0 
0.0 -1.962000000000e+01 0.0 
0.0 -1.962000000000e+01 0.0 
0.0 -1.962000000000e+01 0.0 
0.0 -1.962000000000e+01 0.0 
0.0 -1.962000000000e+01 0.0 
0.0 -1.962000000000e+01 0.0 
0.0 -1.962000000000e+01 0.0 
0.0 -1.962000000000e+01 0.0 
0.0 -1.962000000000e+01 0.0 
0.0 -1.962000000000e+01 0.0 
0.0 -1.962000000000e+01 0.0 
0.0 -1.962000000000e+01 0.0 
0.0 -1.962000000000e+01 0.0 
0.0 -1.962000000000e+01 0.0 
0.0 -1.962000000000e+01 0.0 
0.0 -1.962000000000e+01 0.0 
0.0 -1.962000000000e+01 0.0 
0.0 -1.962000000000e+01 0.0 
0.0 -1.962000000000e+01 0.0 
0.0 -1.962000000000e+01 0.0 
0.0 -1.962000000000e+01 0.0 
0.0 -1.962000000000e+01 0.0 
0.0 -1.962000000000e+01 0.0 
0.0 -1.962000000000e+01 0.0 
0.0 -1.962000000000e+01 0.0 
0.0 -1.962000000000e+01 0.0 
0.0 -1.962000000000e+01 0.0 
0.0 -1.962000000000e+01 0.0 
0.0 -1.962000000000e+01 0.0 
0.0 -1.962000000000e+01 0.0 
0.0 -1.962000000000e+01 0.0 
0.0 -1.962000000000e+01 0.0 
0.0 -1.962000000000e+01 0.0 
0.0 -1.962000000000e+01 0.0 
0.0 -1.962000000000e+01 0.0 
0.0 -1.962000000000e+01 0.0 
0.0 -1.962000000000e+01 0.0 
0.0 -1.962000000000e+01 0.0 
0.0 -1.962000000000e+01 0.0 
0.0 -1.962000000000e+01 0.0 
0.0 -1.962000000000e+01 0.0 
0.0 -1.962000000000e+01 0.0 
0.0 -1.962000000000e+01 0.0 
0.0 -1.962000000000e+01 0.0 
0.0 -1.962000000000e+01 0.0 
0.0 -1.962000000000e+01 0.0 
0.0 -1.962000000000e+01 0.0 
0.0 -1.962000000000e+01 0.0 
0.0 -1.962000000000e+01 0.0 
0.0 -1.962000000000e+01 0.0 
0.0 -1.962000000000e+01 0.0 
0.0 -1.962000000000e+01 0.0 
0.0 -1.962000000000e+01 0.0 
0.0 -1.962000000000e+01 0.0 
0.0 -1.962000000000e+01 0.0 
0.0 -1.962000000000e+01 0.0 
0.0 -1.962000000000e+01 0.0 
0.0 -1.962000000000e+01 0.0 
0.0 -1.962000000000e+01 0.0 
0.0 -1.962000000000e+01 0.0 
0.0 -1.962000000000e+01 0.0 
0.0 -1.962000000000e+01 0.0 
0.0 -1.962000000000e+01 0.0 
0.0 -1.962000000000e+01 0.0 
0.0 -1.962000000000e+01 0.0 
0.0 -1.962000000000e+01 0.0 
0.0 -1.962000000000e+01 0.0 
0.0 -1.962000000000e+01 0.0 
0.0 -1.962000000000e+01 0.0 
0.0 -1.962000000000e+01 0.0 
0.0 -1.962000000000e+01 0.0 
0.0 -1.962000000000e+01 0.0 
0.0 -1.962000000000e+01 0.0 
0.0 -1.962000000000e+01 0.0 
0.0 -1.962000000000e+01 0.0 
0.0 -1.962000000000e+01 0.0 
0.0 -1.962000000000e+01 0.0 
0.0 -1.962000000000e+01 0.0 
0.0 -1.962000000000e+01 0.0 
0.0 -1.962000000000e+01 0.0 
0.0 -1.962000000000e+01 0.0 
0.0 -1.962000000000e+01 0.0 
0.0 -1.962000000000e+01 0.0 
0.0 -1.962000000000e+01 0.0 
0.0 -1.962000000000e+01 0.0 
0.0 -1.962000000000e+01 0.0 
0.0 -1.962000000000e+01 0.0 
0.0 -1.962000000000e+01 0.0 
0.0 -1.962000000000e+01 0.0 
0.0 -1.962000000000e+01 0.0 
0.0 -1.962000000000e+01 0.0 
0.0 -1.962000000000e+01 0.0 
0.0 -1.962000000000e+01 0.0 
0.0 -1.962000000000e+01 0.0 
0.0 -1.962000000000e+01 0.0 
0.0 -1.962000000000e+01 0.0 
0.0 -1.962000000000e+01 0.0 
0.0 -1.962000000000e+01 0.0 
0.0 -1.962000000000e+01 0.0 
0.0 -1.962000000000e+01 0.0 
0.0 -1.962000000000e+01 0.0 
0.0 -1.962000000000e+01 0.0 
0.0 -1.962000000000e+01 0.0 
0.0 -1.962000000000e+01 0.0 
0.0 -1.962000000000e+01 0.0 
0.0 -1.962000000000e+01 0.0 
0.0 -1.962000000000e+01 0.0 
0.0 -1.962000000000e+01 0.0 
0.0 -1.962000000000e+01 0.0 
0.0 -1.962000000000e+01 0.0 
0.0 -1.962000000000e+01 0.0 
0.0 -1.962000000000e+01 0.0 
0.0 -1.962000000000e+01 0.0 
0.0 -1.962000000000e+01 0.0 
0.0 -1.962000000000e+01 0.0 
0.0 -1.962000000000e+01 0.0 
0.0 -1.962000000000e+01 0.0 
0.0 -1.962000000000e+01 0.0 
0.0 -1.962000000000e+01 0.0 
0.0 -1.962000000000e+01 0.0 
0.0 -1.962000000000e+01 0.0 
0.0 -1.962000000000e+01 0.0 
0.0 -1.962000000000e+01 0.0 
0.0 -1.962000000000e+01 0.0 
0.0 -1.962000000000e+01 0.0 
0.0 -1.962000000000e+01 0.0 
0.0 -1.962000000000e+01 0.0 
0.0 -1.962000000000e+01 0.0 
0.0 -1.962000000000e+01 0.0 
0.0 -1.962000000000e+01 0.0 
0.0 -1.962000000000e+01 0.0 
0.0 -1.962000000000e+01 0.0 
0.0 -1.962000000000e+01 0.0 
0.0 -1.962000000000e+01 0.0 
0.0 -1.962000000000e+01 0.0 
0.0 -1.962000000000e+01 0.0 
0.0 -1.962000000000e+01 0.0 
0.0 -1.962000000000e+01 0.0 
0.0 -1.962000000000e+01 0.0 
0.0 -1.962000000000e+01 0.0 
0.0 -1.962000000000e+01 0.0 
0.0 -1.962000000000e+01 0.0 
0.0 -1.962000000000e+01 0.0 
0.0 -1.962000000000e+01 0.0 
0.0 -1.962000000000e+01 0.0 
0.0 -1.962000000000e+01 0.0 
0.0 -1.962000000000e+01 0.0 
0.0 -1.962000000000e+01 0.0 
0.0 -1.962000000000e+01 0.0 
0.0 -1.962000000000e+01 0.0 
0.0 -1.962000000000e+01 0.0 
0.0 -1.962000000000e+01 0.0 
0.0 -1.962000000000e+01 0.0 
0.0 -1.962000000000e+01 0.0 
0.0 -1.962000000000e+01 0.0 
0.0 -1.962000000000e+01 0.0 
0.0 -1.962000000000e+01 0.0 
0.0 -1.962000000000e+01 0.0 
0.0 -1.962000000000e+01 0.0 
0.0 -1.962000000000e+01 0.0 
0.0 -1.962000000000e+01 0.0 
0.0 -1.962000000000e+01 0.0 
0.0 -1.962000000000e+01 0.0 
0.0 -1.962000000000e+01 0.0 
0.0 -1.962000000000e+01 0.0 
0.0 -1.962000000000e+01 0.0 
0.0 -1.962000000000e+01 0.0 
0.0 -1.962000000000e+01 0.0 
0.0 -1.962000000000e+01 0.0 
0.0 -1.962000000000e+01 0.0 
0.0 -1.962000000000e+01 0.0 
0.0 -1.962000000000e+01 0.0 
0.0 -1.962000000000e+01 0.0 
0.0 -1.962000000000e+01 0.0 
0.0 -1.962000000000e+01 0.0 
0.0 -1.962000000000e+01 0.0 
0.0 -1.962000000000e+01 0.0 
0.0 -1.962000000000e+01 0.0 
0.0 -1.962000000000e+01 0.0 
0.0 -1.962000000000e+01 0.0 
0.0 -1.962000000000e+01 0.0 
0.0 -1.962000000000e+01 0.0 
0.0 -1.962000000000e+01 0.0 
0.0 -1.962000000000e+01 0.0 
0.0 -1.962000000000e+01 0.0 
0.0 -1.962000000000e+01 0.0 
0.0 -1.962000000000e+01 0.0 
0.0 -1.962000000000e+01 0.0 
0.0 -1.962000000000e+01 0.0 
0.0 -1.962000000000e+01 0.0 
0.0 -1.962000000000e+01 0.0 
0.0 -1.962000000000e+01 0.0 
0.0 -1.962000000000e+01 0.0 
0.0 -1.962000000000e+01 0.0 
0.0 -1.962000000000e+01 0.0 
0.0 -1.962000000000e+01 0.0 
0.0 -1.962000000000e+01 0.0 
0.0 -1.962000000000e+01 0.0 
0.0 -1.962000000000e+01 0.0 
0.0 -1.962000000000e+01 0.0 
0.0 -1.962000000000e+01 0.0 
0.0 -1.962000000000e+01 0.0 
0.0 -1.962000000000e+01 0.0 
0.0 -1.962000000000e+01 0.0 
0.0 -1.962000000000e+01 0.0 
0.0 -1.962000000000e+01 0.0 
0.0 -1.962000000000e+01 0.0 
0.0 -1.962000000000e+01 0.0 
0.0 -1.962000000000e+01 0.0 
0.0 -1.962000000000e+01 0.0 
0.0 -1.962000000000e+01 0.0 
0.0 -1.962000000000e+01 0.0 
0.0 -1.962000000000e+01 0.0 
0.0 -1.962000000000e+01 0.0 
0.0 -1.962000000000e+01 0.0 
0.0 -1.962000000000e+01 0.0 
0.0 -1.962000000000e+01 0.0 
0.0 -1.962000000000e+01 0.0 
0.0 -1.962000000000e+01 0.0 
0.0 -1.962000000000e+01 0.0 
0.0 -1.962000000000e+01 0.0 
0.0 -1.962000000000e+01 0.0 
0.0 -1.962000000000e+01 0.0 
0.0 -1.962000000000e+01 0.0 
0.0 -1.962000000000e+01 0.0 
0.0 -1.962000000000e+01 0.0 
0.0 -1.962000000000e+01 0.0 
0.0 -1.962000000000e+01 0.0 
0.0 -1.962000000000e+01 0.0 
0.0 -1.962000000000e+01 0.0 
0.0 -1.962000000000e+01 0.0 
0.0 -1.962000000000e+01 0.0 
0.0 -1.962000000000e+01 0.0 
0.0 -1.962000000000e+01 0.0 
0.0 -1.962000000000e+01 0.0 
0.0 -1.962000000000e+01 0.0 
0.0 -1.962000000000e+01 0.0 
0.0 -1.962000000000e+01 0.0 
0.0 -1.962000000000e+01 0.0 
0.0 -1.962000000000e+01 0.0 
0.0 -1.962000000000e+01 0.0 
0.0 -1.962000000000e+01 0.0 
0.0 -1.962000000000e+01 0.0 
0.0 -1.962000000000e+01 0.0 
0.0 -1.962000000000e+01 0.0 
0.0 -1.962000000000e+01 0.0 
0.0 -1.962000000000e+01 0.0 
0.0 -1.962000000000e+01 0.0 
0.0 -1.962000000000e+01 0.0 
0.0 -1.962000000000e+01 0.0 
0.0 -1.962000000000e+01 0.0 
0.0 -1.962000000000e+01 0.0 
0.0 -1.962000000000e+01 0.0 
0.0 -1.962000000000e+01 0.0 
0.0 -1.962000000000e+01 0.0 
0.0 -1.962000000000e+01 0.0 
0.0 -1.962000000000e+01 0.0 
0.0 -1.962000000000e+01 0.0 
0.0 -1.962000000000e+01 0.0 
0.0 -1.962000000000e+01 0.0 
0.0 -1.962000000000e+01 0.0 
0.0 -1.962000000000e+01 0.0 
0.0 -1.962000000000e+01 0.0 
0.0 -1.962000000000e+01 0.0 
0.0 -1.962000000000e+01 0.0 
0.0 -1.962000000000e+01 0.0 
0.0 -1.962000000000e+01 0.0 
0.0 -1.962000000000e+01 0.0 
0.0 -1.962000000000e+01 0.0 
0.0 -1.962000000000e+01 0.0 
0.0 -1.962000000000e+01 0.0 
0.0 -1.962000000000e+01 0.0 
0.0 -1.962000000000e+01 0.0 
0.0 -1.962000000000e+01 0.0 
0.0 -1.962000000000e+01 0.0 
0.0 -1.962000000000e+01 0.0 
0.0 -1.962000000000e+01 0.0 
0.0 -1.962000000000e+01 0.0 
0.0 -1.962000000000e+01 0.0 
0.0 -1.962000000000e+01 0.0 
0.0 -1.962000000000e+01 0.0 
0.0 -1.962000000000e+01 0.0 
0.0 -1.962000000000e+01 0.0 
0.0 -1.962000000000e+01 0.0 
0.0 -1.962000000000e+01 0.0 
0.0 -1.962000000000e+01 0.0 
0.0 -1.962000000000e+01 0.0 
0.0 -1.962000000000e+01 0.0 
0.0 -1.962000000000e+01 0.0 
0.0 -1.962000000000e+01 0.0 
0.0 -1.962000000000e+01 0.0 
0.0 -1.962000000000e+01 0.0 
0.0 -1.962000000000e+01 0.0 
0.0 -1.962000000000e+01 0.0 
0.0 -1.962000000000e+01 0.0 
0.0 -1.962000000000e+01 0.0 
0.0 -1.962000000000e+01 0.0 
0.0 -1.962000000000e+01 0.0 
0.0 -1.962000000000e+01 0.0 
0.0 -1.962000000000e+01 0.0 
0.0 -1.962000000000e+01 0.0 
0.0 -1.962000000000e+01 0.0 
0.0 -1.962000000000e+01 0.0 
0.0 -1.962000000000e+01 0.0 
0.0 -1.962000000000e+01 0.0 
0.0 -1.962000000000e+01 0.0 
0.0 -1.962000000000e+01 0.0 
0.0 -1.962000000000e+01 0.0 
0.0 -1.962000000000e+01 0.0 
0.0 -1.962000000000e+01 0.0 
0.0 -1.962000000000e+01 0.0 
0.0 -1.962000000000e+01 0.0 
0.0 -1.962000000000e+01 0.0 
0.0 -1.962000000000e+01 0.0 
0.0 -1.962000000000e+01 0.0 
0.0 -1.962000000000e+01 0.0 
0.0 -1.962000000000e+01 0.0 
0.0 -1.962000000000e+01 0.0 
0.0 -1.962000000000e+01 0.0 
0.0 -1.962000000000e+01 0.0 
0.0 -1.962000000000e+01 0.0 
0.0 -1.962000000000e+01 0.0 
0.0 -1.962000000000e+01 0.0 
0.0 -1.962000000000e+01 0.0 
0.0 -1.962000000000e+01 0.0 
0.0 -1.962000000000e+01 0.0 
0.0 -1.962000000000e+01 0.0 
0.0 -1.962000000000e+01 0.0 
0.0 -1.962000000000e+01 0.0 
0.0 -1.962000000000e+01 0.0 
0.0 -1.962000000000e+01 0.0 
0.0 -1.962000000000e+01 0.0 
0.0 -1.962000000000e+01 0.0 
0.0 -1.962000000000e+01 0.0 
0.0 -1.962000000000e+01 0.0 
0.0 -1.962000000000e+01 0.0 
0.0 -1.962000000000e+01 0.0 
0.0 -1.962000000000e+01 0.0 
0.0 -1.962000000000e+01 0.0 
0.0 -1.962000000000e+01 0.0 
0.0 -1.962000000000e+01 0.0 
0.0 -1.962000000000e+01 0.0 
0.0 -1.962000000000e+01 0.0 
0.0 -1.962000000000e+01 0.0 
0.0 -1.962000000000e+01 0.0 
0.0 -1.962000000000e+01 0.0 
0.0 -1.962000000000e+01 0.0 
0.0 -1.962000000000e+01 0.0 
0.0 -1.962000000000e+01 0.0 
0.0 -1.962000000000e+01 0.0 
0.0 -1.962000000000e+01 0.0 
0.0 -1.962000000000e+01 0.0 
0.0 -1.962000000000e+01 0.0 
0.0 -1.962000000000e+01 0.0 
0.0 -1.962000000000e+01 0.0 
0.0 -1.962000000000e+01 0.0 
0.0 -1.962000000000e+01 0.0 
0.0 -1.962000000000e+01 0.0 
0.0 -1.962000000000e+01 0.0 
0.0 -1.962000000000e+01 0.0 
0.0 -1.962000000000e+01 0.0 
0.0 -1.962000000000e+01 0.0 
0.0 -1.962000000000e+01 0.0 
0.0 -1.962000000000e+01 0.0 
0.0 -1.962000000000e+01 0.0 
0.0 -1.962000000000e+01 0.0 
0.0 -1.962000000000e+01 0.0 
0.0 -1.962000000000e+01 0.0 
0.0 -1.962000000000e+01 0.0 
0.0 -1.962000000000e+01 0.0 
0.0 -1.962000000000e+01 0.0 
0.0 -1.962000000000e+01 0.0 
0.0 -1.962000000000e+01 0.0 
0.0 -1.962000000000e+01 0.0 
0.0 -1.962000000000e+01 0.0 
0.0 -1.962000000000e+01 0.0 
0.0 -1.962000000000e+01 0.0 
0.0 -1.962000000000e+01 0.0 
0.0 -1.962000000000e+01 0.0 
0.0 -1.962000000000e+01 0.0 
0.0 -1.962000000000e+01 0.0 
0.0 -1.962000000000e+01 0.0 
0.0 -1.962000000000e+01 0.0 
0.0 -1.962000000000e+01 0.0 
0.0 -1.962000000000e+01 0.0 
0.0 -1.962000000000e+01 0.0 
0.0 -1.962000000000e+01 0.0 
0.0 -1.962000000000e+01 0.0 
0.0 -1.962000000000e+01 0.0 
0.0 -1.962000000000e+01 0.0 
0.0 -1.962000000000e+01 0.0 
0.0 -1.962000000000e+01 0.0 
0.0 -1.962000000000e+01 0.0 
0.0 -1.962000000000e+01 0.0 
0.0 -1.962000000000e+01 0.0 
0.0 -1.962000000000e+01 0.0 
0.0 -1.962000000000e+01 0.0 
0.0 -1.962000000000e+01 0.0 
0.0 -1.962000000000e+01 0.0 
0.0 -1.962000000000e+01 0.0 
0.0 -1.962000000000e+01 0.0 
0.0 -1.962000000000e+01 0.0 
0.0 -1.962000000000e+01 0.0 
0.0 -1.962000000000e+01 0.0 
0.0 -1.962000000000e+01 0.0 
0.0 -1.962000000000e+01 0.0 
0.0 -1.962000000000e+01 0.0 
0.0 -1.962000000000e+01 0.0 
0.0 -1.962000000000e+01 0.0 
0.0 -1.962000000000e+01 0.0 
0.0 -1.962000000000e+01 0.0 
0.0 -1.962000000000e+01 0.0 
0.0 -1.962000000000e+01 0.0 
0.0 -1.962000000000e+01 0.0 
0.0 -1.962000000000e+01 0.0 
0.0 -1.962000000000e+01 0.0 
0.0 -1.962000000000e+01 0.0 
0.0 -1.962000000000e+01 0.0 
0.0 -1.962000000000e+01 0.0 
0.0 -1.962000000000e+01 0.0 
0.0 -1.962000000000e+01 0.0 
0.0 -1.962000000000e+01 0.0 
0.0 -1.962000000000e+01 0.0 
0.0 -1.962000000000e+01 0.0 
0.0 -1.962000000000e+01 0.0 
0.0 -1.962000000000e+01 0.0 
0.0 -1.962000000000e+01 0.0 
0.0 -1.962000000000e+01 0.0 
0.0 -1.962000000000e+01 0.0 
0.0 -1.962000000000e+01 0.0 
0.0 -1.962000000000e+01 0.0 
0.0 -1.962000000000e+01 0.0 
0.0 -1.962000000000e+01 0.0 
0.0 -1.962000000000e+01 0.0 
0.0 -1.962000000000e+01 0.0 
0.0 -1.962000000000e+01 0.0 
0.0 -1.962000000000e+01 0.0 
0.0 -1.962000000000e+01 0.0 
0.0 -1.962000000000e+01 0.0 
0.0 -1.962000000000e+01 0.0 
0.0 -1.962000000000e+01 0.0 
0.0 -1.962000000000e+01 0.0 
0.0 -1.962000000000e+01 0.0 
0.0 -1.962000000000e+01 0.0 
0.0 -1.962000000000e+01 0.0 
0.0 -1.962000000000e+01 0.0 
0.0 -1.962000000000e+01 0.0 
0.0 -1.962000000000e+01 0.0 
0.0 -1.962000000000e+01 0.0 
0.0 -1.962000000000e+01 0.0 
0.0 -1.962000000000e+01 0.0 
0.0 -1.962000000000e+01 0.0 
0.0 -1.962000000000e+01 0.0 
0.0 -1.962000000000e+01 0.0 
0.0 -1.962000000000e+01 0.0 
0.0 -1.962000000000e+01 0.0 
0.0 -1.962000000000e+01 0.0 
0.0 -1.962000000000e+01 0.0 
0.0 -1.962000000000e+01 0.0 
0.0 -1.962000000000e+01 0.0 
0.0 -1.962000000000e+01 0.0 
0.0 -1.962000000000e+01 0.0 
0.0 -1.962000000000e+01 0.0 
0.0 -1.962000000000e+01 0.0 
0.0 -1.962000000000e+01 0.0 
0.0 -1.962000000000e+01 0.0 
0.0 -1.962000000000e+01 0.0 
0.0 -1.962000000000e+01 0.0 
0.0 -1.962000000000e+01 0.0 
0.0 -1.962000000000e+01 0.0 
0.0 -1.962000000000e+01 0.0 
0.0 -1.962000000000e+01 0.0 
0.0 -1.962000000000e+01 0.0 
0.0 -1.962000000000e+01 0.0 
0.0 -1.962000000000e+01 0.0 
0.0 -1.962000000000e+01 0.0 
0.0 -1.962000000000e+01 0.0 
0.0 -1.962000000000e+01 0.0 
0.0 -1.962000000000e+01 0.0 
0.0 -1.962000000000e+01 0.0 
0.0 -1.962000000000e+01 0.0 
0.0 -1.962000000000e+01 0.0 
0.0 -1.962000000000e+01 0.0 
0.0 -1.962000000000e+01 0.0 
0.0 -1.962000000000e+01 0.0 
0.0 -1.962000000000e+01 0.0 
0.0 -1.962000000000e+01 0.0 
0.0 -1.962000000000e+01 0.0 
0.0 -1.962000000000e+01 0.0 
0.0 -1.962000000000e+01 0.0 
0.0 -1.962000000000e+01 0.0 
0.0 -1.962000000000e+01 0.0 
0.0 -1.962000000000e+01 0.0 
0.0 -1.962000000000e+01 0.0 
0.0 -1.962000000000e+01 0.0 
0.0 -1.962000000000e+01 0.0 
0.0 -1.962000000000e+01 0.0 
0.0 -1.962000000000e+01 0.0 
0.0 -1.962000000000e+01 0.0 
0.0 -1.962000000000e+01 0.0 
0.0 -1.962000000000e+01 0.0 
0.0 -1.962000000000e+01 0.0 
0.0 -1.962000000000e+01 0.0 
0.0 -1.962000000000e+01 0.0 
0.0 -1.962000000000e+01 0.0 
0.0 -1.962000000000e+01 0.0 
0.0 -1.962000000000e+01 0.0 
0.0 -1.962000000000e+01 0.0 
0.0 -1.962000000000e+01 0.0 
0.0 -1.962000000000e+01 0.0 
0.0 -1.962000000000e+01 0.0 
0.0 -1.962000000000e+01 0.0 
0.0 -1.962000000000e+01 0.0 
0.0 -1.962000000000e+01 0.0 
0.0 -1.962000000000e+01 0.0 
0.0 -1.962000000000e+01 0.0 
0.0 -1.962000000000e+01 0.0 
0.0 -1.962000000000e+01 0.0 
0.0 -1.962000000000e+01 0.0 
0.0 -1.962000000000e+01 0.0 
0.0 -1.962000000000e+01 0.0 
0.0 -1.962000000000e+01 0.0 
0.0 -1.962000000000e+01 0.0 
0.0 -1.962000000000e+01 0.0 
0.0 -1.962000000000e+01 0.0 
0.0 -1.962000000000e+01 0.0 
0.0 -1.962000000000e+01 0.0 
0.0 -1.962000000000e+01 0.0 
0.0 -1.962000000000e+01 0.0 
0.0 -1.962000000000e+01 0.0 
0.0 -1.962000000000e+01 0.0 
0.0 -1.962000000000e+01 0.0 
0.0 -1.962000000000e+01 0.0 
0.0 -1.962000000000e+01 0.0 
0.0 -1.962000000000e+01 0.0 
0.0 -1.962000000000e+01 0.0 
0.0 -1.962000000000e+01 0.0 
0.0 -1.962000000000e+01 0.0 
0.0 -1.962000000000e+01 0.0 
0.0 -1.962000000000e+01 0.0 
0.0 -1.962000000000e+01 0.0 
0.0 -1.962000000000e+01 0.0 
0.0 -1.962000000000e+01 0.0 
0.0 -1.962000000000e+01 0.0 
0.0 -1.962000000000e+01 0.0 
0.0 -1.962000000000e+01 0.0 
0.0 -1.962000000000e+01 0.0 
0.0 -1.962000000000e+01 0.0 
0.0 -1.962000000000e+01 0.0 
0.0 -1.962000000000e+01 0.0 
0.0 -1.962000000000e+01 0.0 
0.0 -1.962000000000e+01 0.0 
0.0 -1.962000000000e+01 0.0 
0.0 -1.962000000000e+01 0.0 
0.0 -1.962000000000e+01 0.0 
0.0 -1.962000000000e+01 0.0 
0.0 -1.962000000000e+01 0.0 
0.0 -1.962000000000e+01 0.0 
0.0 -1.962000000000e+01 0.0 
0.0 -1.962000000000e+01 0.0 
0.0 -1.962000000000e+01 0.0 
0.0 -1.962000000000e+01 0.0 
0.0 -1.962000000000e+01 0.0 
0.0 -1.962000000000e+01 0.0 
0.0 -1.962000000000e+01 0.0 
0.0 -1.962000000000e+01 0.0 
0.0 -1.962000000000e+01 0.0 
0.0 -1.962000000000e+01 0.0 
0.0 -1.962000000000e+01 0.0 
0.0 -1.962000000000e+01 0.0 
0.0 -1.962000000000e+01 0.0 
0.0 -1.962000000000e+01 0.0 
0.0 -1.962000000000e+01 0.0 
0.0 -1.962000000000e+01 0.0 
0.0 -1.962000000000e+01 0.0 
0.0 -1.962000000000e+01 0.0 
0.0 -1.962000000000e+01 0.0 
0.0 -1.962000000000e+01 0.0 
0.0 -1.962000000000e+01 0.0 
0.0 -1.962000000000e+01 0.0 
0.0 -1.962000000000e+01 0.0 
0.0 -1.962000000000e+01 0.0 
0.0 -1.962000000000e+01 0.0 
0.0 -1.962000000000e+01 0.0 
0.0 -1.962000000000e+01 0.0 
0.0 -1.962000000000e+01 0.0 
0.0 -1.962000000000e+01 0.0 
0.0 -1.962000000000e+01 0.0 
0.0 -1.962000000000e+01 0.0 
0.0 -1.962000000000e+01 0.0 
0.0 -1.962000000000e+01 0.0 
0.0 -1.962000000000e+01 0.0 
0.0 -1.962000000000e+01 0.0 
0.0 -1.962000000000e+01 0.0 
0.0 -1.962000000000e+01 0.0 
0.0 -1.962000000000e+01 0.0 
0.0 -1.962000000000e+01 0.0 
0.0 -1.962000000000e+01 0.0 
0.0 -1.962000000000e+01 0.0 
0.0 -1.962000000000e+01 0.0 
0.0 -1.962000000000e+01 0.0 
0.0 -1.962000000000e+01 0.0 
0.0 -1.962000000000e+01 0.0 
0.0 -1.962000000000e+01 0.0 
0.0 -1.962000000000e+01 0.0 
0.0 -1.962000000000e+01 0.0 
0.0 -1.962000000000e+01 0.0 
0.0 -1.962000000000e+01 0.0 
0.0 -1.962000000000e+01 0.0 
0.0 -1.962000000000e+01 0.0 
0.0 -1.962000000000e+01 0.0 
0.0 -1.962000000000e+01 0.0 
0.0 -1.962000000000e+01 0.0 
0.0 -1.962000000000e+01 0.0 
0.0 -1.962000000000e+01 0.0 
0.0 -1.962000000000e+01 0.0 
0.0 -1.962000000000e+01 0.0 
0.0 -1.962000000000e+01 0.0 
0.0 -1.962000000000e+01 0.0 
0.0 -1.962000000000e+01 0.0 
0.0 -1.962000000000e+01 0.0 
0.0 -1.962000000000e+01 0.0 
0.0 -1.962000000000e+01 0.0 
0.0 -1.962000000000e+01 0.0 
0.0 -1.962000000000e+01 0.0 
0.0 -1.962000000000e+01 0.0 
0.0 -1.962000000000e+01 0.0 
0.0 -1.962000000000e+01 0.0 
0.0 -1.962000000000e+01 0.0 
0.0 -1.962000000000e+01 0.0 
0.0 -1.962000000000e+01 0.0 
0.0 -1.962000000000e+01 0.0 
0.0 -1.962000000000e+01 0.0 
0.0 -1.962000000000e+01 0.0 
0.0 -1.962000000000e+01 0.0 
0.0 -1.962000000000e+01 0.0 
0.0 -1.962000000000e+01 0.0 
0.0 -1.962000000000e+01 0.0 
0.0 -1.962000000000e+01 0.0 
0.0 -1.962000000000e+01 0.0 
0.0 -1.962000000000e+01 0.0 
0.0 -1.962000000000e+01 0.0 
0.0 -1.962000000000e+01 0.0 
0.0 -1.962000000000e+01 0.0 
0.0 -1.962000000000e+01 0.0 
0.0 -1.962000000000e+01 0.0 
0.0 -1.962000000000e+01 0.0 
0.0 -1.962000000000e+01 0.0 
0.0 -1.962000000000e+01 0.0 
0.0 -1.962000000000e+01 0.0 
0.0 -1.962000000000e+01 0.0 
0.0 -1.962000000000e+01 0.0 
0.0 -1.962000000000e+01 0.0 
0.0 -1.962000000000e+01 0.0 
0.0 -1.962000000000e+01 0.0 
0.0 -1.962000000000e+01 0.0 
0.0 -1.962000000000e+01 0.0 
0.0 -1.962000000000e+01 0.0 
0.0 -1.962000000000e+01 0.0 
0.0 -1.962000000000e+01 0.0 
0.0 -1.962000000000e+01 0.0 
0.0 -1.962000000000e+01 0.0 
0.0 -1.962000000000e+01 0.0 
0.0 -1.962000000000e+01 0.0 
0.0 -1.962000000000e+01 0.0 
0.0 -1.962000000000e+01 0.0 
0.0 -1.962000000000e+01 0.0 
0.0 -1.962000000000e+01 0.0 
0.0 -1.962000000000e+01 0.0 
0.0 -1.962000000000e+01 0.0 
0.0 -1.962000000000e+01 0.0 
0.0 -1.962000000000e+01 0.0 
0.0 -1.962000000000e+01 0.0 
0.0 -1.962000000000e+01 0.0 
0.0 -1.962000000000e+01 0.0 
0.0 -1.962000000000e+01 0.0 
0.0 -1.962000000000e+01 0.0 
0.0 -1.962000000000e+01 0.0 
0.0 -1.962000000000e+01 0.0 
0.0 -1.962000000000e+01 0.0 
0.0 -1.962000000000e+01 0.0 
0.0 -1.962000000000e+01 0.0 
0.0 -1.962000000000e+01 0.0 
0.0 -1.962000000000e+01 0.0 
0.0 -1.962000000000e+01 0.0 
0.0 -1.962000000000e+01 0.0 
0.0 -1.962000000000e+01 0.0 
0.0 -1.962000000000e+01 0.0 
0.0 -1.962000000000e+01 0.0 
0.0 -1.962000000000e+01 0.0 
0.0 -1.962000000000e+01 0.0 
0.0 -1.962000000000e+01 0.0 
0.0 -1.962000000000e+01 0.0 
0.0 -1.962000000000e+01 0.0 
0.0 -1.962000000000e+01 0.0 
0.0 -1.962000000000e+01 0.0 
0.0 -1.962000000000e+01 0.0 
0.0 -1.962000000000e+01 0.0 
0.0 -1.962000000000e+01 0.0 
0.0 -1.962000000000e+01 0.0 
0.0 -1.962000000000e+01 0.0 
0.0 -1.962000000000e+01 0.0 
0.0 -1.962000000000e+01 0.0 
0.0 -1.962000000000e+01 0.0 
0.0 -1.962000000000e+01 0.0 
0.0 -1.962000000000e+01 0.0 
0.0 -1.962000000000e+01 0.0 
0.0 -1.962000000000e+01 0.0 
0.0 -1.962000000000e+01 0.0 
0.0 -1.962000000000e+01 0.0 
0.0 -1.962000000000e+01 0.0 
0.0 -1.962000000000e+01 0.0 
0.0 -1.962000000000e+01 0.0 
0.0 -1.962000000000e+01 0.0 
0.0 -1.962000000000e+01 0.0 
0.0 -1.962000000000e+01 0.0 
0.0 -1.962000000000e+01 0.0 
0.0 -1.962000000000e+01 0.0 
0.0 -1.962000000000e+01 0.0 
0.0 -1.962000000000e+01 0.0 
0.0 -1.962000000000e+01 0.0 
0.0 -1.962000000000e+01 0.0 
0.0 -1.962000000000e+01 0.0 
0.0 -1.962000000000e+01 0.0 
0.0 -1.962000000000e+01 0.0 
0.0 -1.962000000000e+01 0.0 
0.0 -1.962000000000e+01 0.0 
0.0 -1.962000000000e+01 0.0 
0.0 -1.962000000000e+01 0.0 
0.0 -1.962000000000e+01 0.0 
0.0 -1.962000000000e+01 0.0 
0.0 -1.962000000000e+01 0.0 
0.0 -1.962000000000e+01 0.0 
0.0 -1.962000000000e+01 0.0 
0.0 -1.962000000000e+01 0.0 
0.0 -1.962000000000e+01 0.0 
0.0 -1.962000000000e+01 0.0 
0.0 -1.962000000000e+01 0.0 
0.0 -1.962000000000e+01 0.0 
0.0 -1.962000000000e+01 0.0 
0.0 -1.962000000000e+01 0.0 
0.0 -1.962000000000e+01 0.0 
0.0 -1.962000000000e+01 0.0 
0.0 -1.962000000000e+01 0.0 
0.0 -1.962000000000e+01 0.0 
0.0 -1.962000000000e+01 0.0 
0.0 -1.962000000000e+01 0.0 
0.0 -1.962000000000e+01 0.0 
0.0 -1.962000000000e+01 0.0 
0.0 -1.962000000000e+01 0.0 
0.0 -1.962000000000e+01 0.0 
0.0 -1.962000000000e+01 0.0 
0.0 -1.962000000000e+01 0.0 
0.0 -1.962000000000e+01 0.0 
0.0 -1.962000000000e+01 0.0 
0.0 -1.962000000000e+01 0.0 
0.0 -1.962000000000e+01 0.0 
0.0 -1.962000000000e+01 0.0 
0.0 -1.962000000000e+01 0.0 
0.0 -1.962000000000e+01 0.0 
0.0 -1.962000000000e+01 0.0 
0.0 -1.962000000000e+01 0.0 
0.0 -1.962000000000e+01 0.0 
0.0 -1.962000000000e+01 0.0 
0.0 -1.962000000000e+01 0.0 
0.0 -1.962000000000e+01 0.0 
0.0 -1.962000000000e+01 0.0 
0.0 -1.962000000000e+01 0.0 
0.0 -1.962000000000e+01 0.0 
0.0 -1.962000000000e+01 0.0 
0.0 -1.962000000000e+01 0.0 
0.0 -1.962000000000e+01 0.0 
0.0 -1.962000000000e+01 0.0 
0.0 -1.962000000000e+01 0.0 
0.0 -1.962000000000e+01 0.0 
0.0 -1.962000000000e+01 0.0 
0.0 -1.962000000000e+01 0.0 
0.0 -1.962000000000e+01 0.0 
0.0 -1.962000000000e+01 0.0 
0.0 -1.962000000000e+01 0.0 
0.0 -1.962000000000e+01 0.0 
0.0 -1.962000000000e+01 0.0 
0.0 -1.962000000000e+01 0.0 
0.0 -1.962000000000e+01 0.0 
0.0 -1.962000000000e+01 0.0 
0.0 -1.962000000000e+01 0.0 
0.0 -1.962000000000e+01 0.0 
0.0 -1.962000000000e+01 0.0 
0.0 -1.962000000000e+01 0.0 
0.0 -1.962000000000e+01 0.0 
0.0 -1.962000000000e+01 0.0 
0.0 -1.962000000000e+01 0.0 
0.0 -1.962000000000e+01 0.0 
0.0 -1.962000000000e+01 0.0 
0.0 -1.962000000000e+01 0.0 
0.0 -1.962000000000e+01 0.0 
0.0 -1.962000000000e+01 0.0 
0.0 -1.962000000000e+01 0.0 
0.0 -1.962000000000e+01 0.0 
0.0 -1.962000000000e+01 0.0 
0.0 -1.962000000000e+01 0.0 
0.0 -1.962000000000e+01 0.0 
0.0 -1.962000000000e+01 0.0 
0.0 -1.962000000000e+01 0.0 
0.0 -1.962000000000e+01 0.0 
0.0 -1.962000000000e+01 0.0 
0.0 -1.962000000000e+01 0.0 
0.0 -1.962000000000e+01 0.0 
0.0 -1.962000000000e+01 0.0 
0.0 -1.962000000000e+01 0.0 
0.0 -1.962000000000e+01 0.0 
0.0 -1.962000000000e+01 0.0 
0.0 -1.962000000000e+01 0.0 
0.0 -1.962000000000e+01 0.0 
0.0 -1.962000000000e+01 0.0 
0.0 -1.962000000000e+01 0.0 
0.0 -1.962000000000e+01 0.0 
0.0 -1.962000000000e+01 0.0 
0.0 -1.962000000000e+01 0.0 
0.0 -1.962000000000e+01 0.0 
0.0 -1.962000000000e+01 0.0 
0.0 -1.962000000000e+01 0.0 
0.0 -1.962000000000e+01 0.0 
0.0 -1.962000000000e+01 0.0 
0.0 -1.962000000000e+01 0.0 
0.0 -1.962000000000e+01 0.0 
0.0 -1.962000000000e+01 0.0 
0.0 -1.962000000000e+01 0.0 
0.0 -1.962000000000e+01 0.0 
0.0 -1.962000000000e+01 0.0 
0.0 -1.962000000000e+01 0.0 
0.0 -1.962000000000e+01 0.0 
0.0 -1.962000000000e+01 0.0 
0.0 -1.962000000000e+01 0.0 
0.0 -1.962000000000e+01 0.0 
0.0 -1.962000000000e+01 0.0 
0.0 -1.962000000000e+01 0.0 
0.0 -1.962000000000e+01 0.0 
0.0 -1.962000000000e+01 0.0 
0.0 -1.962000000000e+01 0.0 
0.0 -1.962000000000e+01 0.0 
0.0 -1.962000000000e+01 0.0 
0.0 -1.962000000000e+01 0.0 
0.0 -1.962000000000e+01 0.0 
0.0 -1.962000000000e+01 0.0 
0.0 -1.962000000000e+01 0.0 
0.0 -1.962000000000e+01 0.0 
0.0 -1.962000000000e+01 0.0 
0.0 -1.962000000000e+01 0.0 
0.0 -1.962000000000e+01 0.0 
0.0 -1.962000000000e+01 0.0 
0.0 -1.962000000000e+01 0.0 
0.0 -1.962000000000e+01 0.0 
0.0 -1.962000000000e+01 0.0 
0.0 -1.962000000000e+01 0.0 
0.0 -1.962000000000e+01 0.0 
0.0 -1.962000000000e+01 0.0 
0.0 -1.962000000000e+01 0.0 
0.0 -1.962000000000e+01 0.0 
0.0 -1.962000000000e+01 0.0 
0.0 -1.962000000000e+01 0.0 
0.0 -1.962000000000e+01 0.0 
0.0 -1.962000000000e+01 0.0 
0.0 -1.962000000000e+01 0.0 
0.0 -1.962000000000e+01 0.0 
0.0 -1.962000000000e+01 0.0 
0.0 -1.962000000000e+01 0.0 
0.0 -1.962000000000e+01 0.0 
0.0 -1.962000000000e+01 0.0 
0.0 -1.962000000000e+01 0.0 
0.0 -1.962000000000e+01 0.0 
0.0 -1.962000000000e+01 0.0 
0.0 -1.962000000000e+01 0.0 

VECTORS node_rhside_materi_fixed float
-1.194425499277e-01 0.0 0.0 
4.507372247792e+01 0.0 0.0 
-8.363478152931e+01 -1.996179193115e+02 0.0 
5.820555090334e+01 -1.396498423801e+02 0.0 
-3.070648085353e+00 0.0 0.0 
-1.167456729610e+01 0.0 0.0 
-2.054165467657e+01 0.0 0.0 
-3.077510839201e+01 0.0 0.0 
-3.976088032252e+01 0.0 0.0 
-4.869350919465e+01 0.0 0.0 
-5.737949037068e+01 0.0 0.0 
-6.585689460054e+01 0.0 0.0 
-7.416175789151e+01 0.0 0.0 
-8.233866876669e+01 0.0 0.0 
-9.098887672934e+01 0.0 0.0 
-9.952984357447e+01 0.0 0.0 
-1.075727882974e+02 0.0 0.0 
-1.164037400262e+02 0.0 0.0 
-1.251594278005e+02 0.0 0.0 
-1.340348520943e+02 0.0 0.0 
-1.430291347528e+02 0.0 0.0 
-1.520801621304e+02 0.0 0.0 
-1.616163214774e+02 0.0 0.0 
6.861581089731e-01 -2.781320436364e+02 0.0 
1.148372843710e+00 -2.794416180133e+02 0.0 
3.595747425798e+00 -2.786896432757e+02 0.0 
2.515632763946e+00 -2.789706359372e+02 0.0 
4.770515686170e+00 -2.799904119299e+02 0.0 
5.559788110574e+00 -2.796449149653e+02 0.0 
6.377521252237e+00 -2.807380776016e+02 0.0 
7.611537427321e+00 -2.818040031362e+02 0.0 
9.962910662122e+00 -2.819373790744e+02 0.0 
9.377870538224e+00 -2.831369408467e+02 0.0 
1.226846135686e+01 -2.854205613304e+02 0.0 
1.370008483241e+01 -2.861756858609e+02 0.0 
1.511366016026e+01 -2.889904295035e+02 0.0 
1.670172181358e+01 -2.909930963515e+02 0.0 
1.867918090645e+01 -2.937843280976e+02 0.0 
2.007994381668e+01 -2.975613618032e+02 0.0 
2.285772385735e+01 -3.012442334225e+02 0.0 
2.435992704077e+01 -3.056930754056e+02 0.0 
2.605955420017e+01 -3.104526739213e+02 0.0 
2.741065248269e+01 -3.153457006437e+02 0.0 
2.813960999011e+01 -3.209585025292e+02 0.0 
2.957097065765e+01 -3.273325237235e+02 0.0 
3.002521082306e+01 -3.333312210212e+02 0.0 
3.039573134277e+01 -3.396417687525e+02 0.0 
3.037103609766e+01 -3.462471230938e+02 0.0 
2.978582002008e+01 -3.524142015878e+02 0.0 
2.898678965688e+01 -3.584393277303e+02 0.0 
2.779293715694e+01 -3.643981668060e+02 0.0 
2.653528744791e+01 -3.700663381665e+02 0.0 
2.469652778553e+01 -3.749978306509e+02 0.0 
2.299386397875e+01 -3.794331989489e+02 0.0 
2.090511701581e+01 -3.839787471550e+02 0.0 
1.890509821056e+01 -3.872314745435e+02 0.0 
1.686908263233e+01 -3.903723324858e+02 0.0 
1.471805948512e+01 -3.928290326889e+02 0.0 
1.281713017009e+01 -3.948317384382e+02 0.0 
1.099614223136e+01 -3.963879730344e+02 0.0 
9.217935033670e+00 -3.975908483396e+02 0.0 
7.718283541156e+00 -3.983380651845e+02 0.0 
6.358104503912e+00 -3.992409922117e+02 0.0 
5.159201246111e+00 -3.993265857155e+02 0.0 
4.157972817145e+00 -3.993647747529e+02 0.0 
3.306293223663e+00 -3.991989660665e+02 0.0 
2.511537679230e+00 -3.998747408252e+02 0.0 
1.785693310863e+00 -3.989506915523e+02 0.0 
1.237134361542e+00 -3.995194772337e+02 0.0 
1.337976567707e+00 -3.987970106156e+02 0.0 
5.017992631339e-01 -3.989255463663e+02 0.0 
3.107788679316e-01 -3.987062233317e+02 0.0 
5.296440617422e+01 0.0 0.0 
6.145076960212e+01 0.0 0.0 
6.934987167308e+01 0.0 0.0 
7.691855741495e+01 0.0 0.0 
8.440714096188e+01 0.0 0.0 
9.205267927317e+01 0.0 0.0 
9.903139055186e+01 0.0 0.0 
1.054507310701e+02 0.0 0.0 
1.130941486776e+02 0.0 0.0 
0.0 0.0 0.0 
0.0 0.0 0.0 
0.0 0.0 0.0 
0.0 0.0 0.0 
0.0 0.0 0.0 
0.0 0.0 0.0 
0.0 0.0 0.0 
0.0 0.0 0.0 
0.0 0.0 0.0 
0.0 0.0 0.0 
0.0 0.0 0.0 
7.557829640856e+00 0.0 0.0 
2.043371474909e+01 0.0 0.0 
2.857558008508e+01 0.0 0.0 
3.691236689851e+01 0.0 0.0 
0.0 0.0 0.0 
0.0 0.0 0.0 
0.0 0.0 0.0 
0.0 0.0 0.0 
0.0 0.0 0.0 
0.0 0.0 0.0 
0.0 0.0 0.0 
0.0 0.0 0.0 
0.0 0.0 0.0 
0.0 0.0 0.0 
0.0 0.0 0.0 
0.0 0.0 0.0 
0.0 0.0 0.0 
0.0 0.0 0.0 
0.0 0.0 0.0 
0.0 0.0 0.0 
0.0 0.0 0.0 
0.0 0.0 0.0 
0.0 0.0 0.0 
0.0 0.0 0.0 
0.0 0.0 0.0 
0.0 0.0 0.0 
0.0 0.0 0.0 
0.0 0.0 0.0 
0.0 0.0 0.0 
0.0 0.0 0.0 
0.0 0.0 0.0 
0.0 0.0 0.0 
0.0 0.0 0.0 
0.0 0.0 0.0 
0.0 0.0 0.0 
0.0 0.0 0.0 
0.0 0.0 0.0 
0.0 0.0 0.0 
0.0 0.0 0.0 
0.0 0.0 0.0 
0.0 0.0 0.0 
0.0 0.0 0.0 
0.0 0.0 0.0 
0.0 0.0 0.0 
0.0 0.0 0.0 
0.0 0.0 0.0 
0.0 0.0 0.0 
0.0 0.0 0.0 
0.0 0.0 0.0 
0.0 0.0 0.0 
0.0 0.0 0.0 
0.0 0.0 0.0 
0.0 0.0 0.0 
0.0 0.0 0.0 
0.0 0.0 0.0 
0.0 0.0 0.0 
0.0 0.0 0.0 
0.0 0.0 0.0 
0.0 0.0 0.0 
0.0 0.0 0.0 
0.0 0.0 0.0 
0.0 0.0 0.0 
0.0 0.0 0.0 
0.0 0.0 0.0 
0.0 0.0 0.0 
0.0 0.0 0.0 
0.0 0.0 0.0 
0.0 0.0 0.0 
0.0 0.0 0.0 
0.0 0.0 0.0 
0.0 0.0 0.0 
0.0 0.0 0.0 
0.0 0.0 0.0 
0.0 0.0 0.0 
0.0 0.0 0.0 
0.0 0.0 0.0 
0.0 0.0 0.0 
0.0 0.0 0.0 
0.0 0.0 0.0 
0.0 0.0 0.0 
0.0 0.0 0.0 
0.0 0.0 0.0 
0.0 0.0 0.0 
0.0 0.0 0.0 
0.0 0.0 0.0 
0.0 0.0 0.0 
0.0 0.0 0.0 
0.0 0.0 0.0 
0.0 0.0 0.0 
0.0 0.0 0.0 
0.0 0.0 0.0 
0.0 0.0 0.0 
0.0 0.0 0.0 
0.0 0.0 0.0 
0.0 0.0 0.0 
0.0 0.0 0.0 
0.0 0.0 0.0 
0.0 0.0 0.0 
0.0 0.0 0.0 
0.0 0.0 0.0 
0.0 0.0 0.0 
0.0 0.0 0.0 
0.0 0.0 0.0 
0.0 0.0 0.0 
0.0 0.0 0.0 
0.0 0.0 0.0 
0.0 0.0 0.0 
0.0 0.0 0.0 
0.0 0.0 0.0 
0.0 0.0 0.0 
0.0 0.0 0.0 
0.0 0.0 0.0 
0.0 0.0 0.0 
0.0 0.0 0.0 
0.0 0.0 0.0 
0.0 0.0 0.0 
0.0 0.0 0.0 
0.0 0.0 0.0 
0.0 0.0 0.0 
0.0 0.0 0.0 
0.0 0.0 0.0 
0.0 0.0 0.0 
0.0 0.0 0.0 
0.0 0.0 0.0 
0.0 0.0 0.0 
0.0 0.0 0.0 
0.0 0.0 0.0 
0.0 0.0 0.0 
0.0 0.0 0.0 
0.0 0.0 0.0 
0.0 0.0 0.0 
0.0 0.0 0.0 
0.0 0.0 0.0 
0.0 0.0 0.0 
0.0 0.0 0.0 
0.0 0.0 0.0 
0.0 0.0 0.0 
0.0 0.0 0.0 
0.0 0.0 0.0 
0.0 0.0 0.0 
0.0 0.0 0.0 
0.0 0.0 0.0 
0.0 0.0 0.0 
0.0 0.0 0.0 
0.0 0.0 0.0 
0.0 0.0 0.0 
0.0 0.0 0.0 
0.0 0.0 0.0 
0.0 0.0 0.0 
0.0 0.0 0.0 
0.0 0.0 0.0 
0.0 0.0 0.0 
0.0 0.0 0.0 
0.0 0.0 0.0 
0.0 0.0 0.0 
0.0 0.0 0.0 
0.0 0.0 0.0 
0.0 0.0 0.0 
0.0 0.0 0.0 
0.0 0.0 0.0 
0.0 0.0 0.0 
0.0 0.0 0.0 
0.0 0.0 0.0 
0.0 0.0 0.0 
0.0 0.0 0.0 
0.0 0.0 0.0 
0.0 0.0 0.0 
0.0 0.0 0.0 
0.0 0.0 0.0 
0.0 0.0 0.0 
0.0 0.0 0.0 
0.0 0.0 0.0 
0.0 0.0 0.0 
0.0 0.0 0.0 
0.0 0.0 0.0 
0.0 0.0 0.0 
0.0 0.0 0.0 
0.0 0.0 0.0 
0.0 0.0 0.0 
0.0 0.0 0.0 
0.0 0.0 0.0 
0.0 0.0 0.0 
0.0 0.0 0.0 
0.0 0.0 0.0 
0.0 0.0 0.0 
0.0 0.0 0.0 
0.0 0.0 0.0 
0.0 0.0 0.0 
0.0 0.0 0.0 
0.0 0.0 0.0 
0.0 0.0 0.0 
0.0 0.0 0.0 
0.0 0.0 0.0 
0.0 0.0 0.0 
0.0 0.0 0.0 
0.0 0.0 0.0 
0.0 0.0 0.0 
0.0 0.0 0.0 
0.0 0.0 0.0 
0.0 0.0 0.0 
0.0 0.0 0.0 
0.0 0.0 0.0 
0.0 0.0 0.0 
0.0 0.0 0.0 
0.0 0.0 0.0 
0.0 0.0 0.0 
0.0 0.0 0.0 
0.0 0.0 0.0 
0.0 0.0 0.0 
0.0 0.0 0.0 
0.0 0.0 0.0 
0.0 0.0 0.0 
0.0 0.0 0.0 
0.0 0.0 0.0 
0.0 0.0 0.0 
0.0 0.0 0.0 
0.0 0.0 0.0 
0.0 0.0 0.0 
0.0 0.0 0.0 
0.0 0.0 0.0 
0.0 0.0 0.0 
0.0 0.0 0.0 
0.0 0.0 0.0 
0.0 0.0 0.0 
0.0 0.0 0.0 
0.0 0.0 0.0 
0.0 0.0 0.0 
0.0 0.0 0.0 
0.0 0.0 0.0 
0.0 0.0 0.0 
0.0 0.0 0.0 
0.0 0.0 0.0 
0.0 0.0 0.0 
0.0 0.0 0.0 
0.0 0.0 0.0 
0.0 0.0 0.0 
0.0 0.0 0.0 
0.0 0.0 0.0 
0.0 0.0 0.0 
0.0 0.0 0.0 
0.0 0.0 0.0 
0.0 0.0 0.0 
0.0 0.0 0.0 
0.0 0.0 0.0 
0.0 0.0 0.0 
0.0 0.0 0.0 
0.0 0.0 0.0 
0.0 0.0 0.0 
0.0 0.0 0.0 
0.0 0.0 0.0 
0.0 0.0 0.0 
0.0 0.0 0.0 
0.0 0.0 0.0 
0.0 0.0 0.0 
0.0 0.0 0.0 
0.0 0.0 0.0 
0.0 0.0 0.0 
0.0 0.0 0.0 
0.0 0.0 0.0 
0.0 0.0 0.0 
0.0 0.0 0.0 
0.0 0.0 0.0 
0.0 0.0 0.0 
0.0 0.0 0.0 
0.0 0.0 0.0 
0.0 0.0 0.0 
0.0 0.0 0.0 
0.0 0.0 0.0 
0.0 0.0 0.0 
0.0 0.0 0.0 
0.0 0.0 0.0 
0.0 0.0 0.0 
0.0 0.0 0.0 
0.0 0.0 0.0 
0.0 0.0 0.0 
0.0 0.0 0.0 
0.0 0.0 0.0 
0.0 0.0 0.0 
0.0 0.0 0.0 
0.0 0.0 0.0 
0.0 0.0 0.0 
0.0 0.0 0.0 
0.0 0.0 0.0 
0.0 0.0 0.0 
0.0 0.0 0.0 
0.0 0.0 0.0 
0.0 0.0 0.0 
0.0 0.0 0.0 
0.0 0.0 0.0 
0.0 0.0 0.0 
0.0 0.0 0.0 
0.0 0.0 0.0 
0.0 0.0 0.0 
0.0 0.0 0.0 
0.0 0.0 0.0 
0.0 0.0 0.0 
0.0 0.0 0.0 
0.0 0.0 0.0 
0.0 0.0 0.0 
0.0 0.0 0.0 
0.0 0.0 0.0 
0.0 0.0 0.0 
0.0 0.0 0.0 
0.0 0.0 0.0 
0.0 0.0 0.0 
0.0 0.0 0.0 
0.0 0.0 0.0 
0.0 0.0 0.0 
0.0 0.0 0.0 
0.0 0.0 0.0 
0.0 0.0 0.0 
0.0 0.0 0.0 
0.0 0.0 0.0 
0.0 0.0 0.0 
0.0 0.0 0.0 
0.0 0.0 0.0 
0.0 0.0 0.0 
0.0 0.0 0.0 
0.0 0.0 0.0 
0.0 0.0 0.0 
0.0 0.0 0.0 
0.0 0.0 0.0 
0.0 0.0 0.0 
0.0 0.0 0.0 
0.0 0.0 0.0 
0.0 0.0 0.0 
0.0 0.0 0.0 
0.0 0.0 0.0 
0.0 0.0 0.0 
0.0 0.0 0.0 
0.0 0.0 0.0 
0.0 0.0 0.0 
0.0 0.0 0.0 
0.0 0.0 0.0 
0.0 0.0 0.0 
0.0 0.0 0.0 
0.0 0.0 0.0 
0.0 0.0 0.0 
0.0 0.0 0.0 
0.0 0.0 0.0 
0.0 0.0 0.0 
0.0 0.0 0.0 
0.0 0.0 0.0 
0.0 0.0 0.0 
0.0 0.0 0.0 
0.0 0.0 0.0 
0.0 0.0 0.0 
0.0 0.0 0.0 
0.0 0.0 0.0 
0.0 0.0 0.0 
0.0 0.0 0.0 
0.0 0.0 0.0 
0.0 0.0 0.0 
0.0 0.0 0.0 
0.0 0.0 0.0 
0.0 0.0 0.0 
0.0 0.0 0.0 
0.0 0.0 0.0 
0.0 0.0 0.0 
0.0 0.0 0.0 
0.0 0.0 0.0 
0.0 0.0 0.0 
0.0 0.0 0.0 
0.0 0.0 0.0 
0.0 0.0 0.0 
0.0 0.0 0.0 
0.0 0.0 0.0 
0.0 0.0 0.0 
0.0 0.0 0.0 
0.0 0.0 0.0 
0.0 0.0 0.0 
0.0 0.0 0.0 
0.0 0.0 0.0 
0.0 0.0 0.0 
0.0 0.0 0.0 
0.0 0.0 0.0 
0.0 0.0 0.0 
0.0 0.0 0.0 
0.0 0.0 0.0 
0.0 0.0 0.0 
0.0 0.0 0.0 
0.0 0.0 0.0 
0.0 0.0 0.0 
0.0 0.0 0.0 
0.0 0.0 0.0 
0.0 0.0 0.0 
0.0 0.0 0.0 
0.0 0.0 0.0 
0.0 0.0 0.0 
0.0 0.0 0.0 
0.0 0.0 0.0 
0.0 0.0 0.0 
0.0 0.0 0.0 
0.0 0.0 0.0 
0.0 0.0 0.0 
0.0 0.0 0.0 
0.0 0.0 0.0 
0.0 0.0 0.0 
0.0 0.0 0.0 
0.0 0.0 0.0 
0.0 0.0 0.0 
0.0 0.0 0.0 
0.0 0.0 0.0 
0.0 0.0 0.0 
0.0 0.0 0.0 
0.0 0.0 0.0 
0.0 0.0 0.0 
0.0 0.0 0.0 
0.0 0.0 0.0 
0.0 0.0 0.0 
0.0 0.0 0.0 
0.0 0.0 0.0 
0.0 0.0 0.0 
0.0 0.0 0.0 
0.0 0.0 0.0 
0.0 0.0 0.0 
0.0 0.0 0.0 
0.0 0.0 0.0 
0.0 0.0 0.0 
0.0 0.0 0.0 
0.0 0.0 0.0 
0.0 0.0 0.0 
0.0 0.0 0.0 
0.0 0.0 0.0 
0.0 0.0 0.0 
0.0 0.0 0.0 
0.0 0.0 0.0 
0.0 0.0 0.0 
0.0 0.0 0.0 
0.0 0.0 0.0 
0.0 0.0 0.0 
0.0 0.0 0.0 
0.0 0.0 0.0 
0.0 0.0 0.0 
0.0 0.0 0.0 
0.0 0.0 0.0 
0.0 0.0 0.0 
0.0 0.0 0.0 
0.0 0.0 0.0 
0.0 0.0 0.0 
0.0 0.0 0.0 
0.0 0.0 0.0 
0.0 0.0 0.0 
0.0 0.0 0.0 
0.0 0.0 0.0 
0.0 0.0 0.0 
0.0 0.0 0.0 
0.0 0.0 0.0 
0.0 0.0 0.0 
0.0 0.0 0.0 
0.0 0.0 0.0 
0.0 0.0 0.0 
0.0 0.0 0.0 
0.0 0.0 0.0 
0.0 0.0 0.0 
0.0 0.0 0.0 
0.0 0.0 0.0 
0.0 0.0 0.0 
0.0 0.0 0.0 
0.0 0.0 0.0 
0.0 0.0 0.0 
0.0 0.0 0.0 
0.0 0.0 0.0 
0.0 0.0 0.0 
0.0 0.0 0.0 
0.0 0.0 0.0 
0.0 0.0 0.0 
0.0 0.0 0.0 
0.0 0.0 0.0 
0.0 0.0 0.0 
0.0 0.0 0.0 
0.0 0.0 0.0 
0.0 0.0 0.0 
0.0 0.0 0.0 
0.0 0.0 0.0 
0.0 0.0 0.0 
0.0 0.0 0.0 
0.0 0.0 0.0 
0.0 0.0 0.0 
0.0 0.0 0.0 
0.0 0.0 0.0 
0.0 0.0 0.0 
0.0 0.0 0.0 
0.0 0.0 0.0 
0.0 0.0 0.0 
0.0 0.0 0.0 
0.0 0.0 0.0 
0.0 0.0 0.0 
0.0 0.0 0.0 
0.0 0.0 0.0 
0.0 0.0 0.0 
0.0 0.0 0.0 
0.0 0.0 0.0 
0.0 0.0 0.0 
0.0 0.0 0.0 
0.0 0.0 0.0 
0.0 0.0 0.0 
0.0 0.0 0.0 
0.0 0.0 0.0 
0.0 0.0 0.0 
0.0 0.0 0.0 
0.0 0.0 0.0 
0.0 0.0 0.0 
0.0 0.0 0.0 
0.0 0.0 0.0 
0.0 0.0 0.0 
0.0 0.0 0.0 
0.0 0.0 0.0 
0.0 0.0 0.0 
0.0 0.0 0.0 
0.0 0.0 0.0 
0.0 0.0 0.0 
0.0 0.0 0.0 
0.0 0.0 0.0 
0.0 0.0 0.0 
0.0 0.0 0.0 
0.0 0.0 0.0 
0.0 0.0 0.0 
0.0 0.0 0.0 
0.0 0.0 0.0 
0.0 0.0 0.0 
0.0 0.0 0.0 
0.0 0.0 0.0 
0.0 0.0 0.0 
0.0 0.0 0.0 
0.0 0.0 0.0 
0.0 0.0 0.0 
0.0 0.0 0.0 
0.0 0.0 0.0 
0.0 0.0 0.0 
0.0 0.0 0.0 
0.0 0.0 0.0 
0.0 0.0 0.0 
0.0 0.0 0.0 
0.0 0.0 0.0 
0.0 0.0 0.0 
0.0 0.0 0.0 
0.0 0.0 0.0 
0.0 0.0 0.0 
0.0 0.0 0.0 
0.0 0.0 0.0 
0.0 0.0 0.0 
0.0 0.0 0.0 
0.0 0.0 0.0 
0.0 0.0 0.0 
0.0 0.0 0.0 
0.0 0.0 0.0 
0.0 0.0 0.0 
0.0 0.0 0.0 
0.0 0.0 0.0 
0.0 0.0 0.0 
0.0 0.0 0.0 
0.0 0.0 0.0 
0.0 0.0 0.0 
0.0 0.0 0.0 
0.0 0.0 0.0 
0.0 0.0 0.0 
0.0 0.0 0.0 
0.0 0.0 0.0 
0.0 0.0 0.0 
0.0 0.0 0.0 
0.0 0.0 0.0 
0.0 0.0 0.0 
0.0 0.0 0.0 
0.0 0.0 0.0 
0.0 0.0 0.0 
0.0 0.0 0.0 
0.0 0.0 0.0 
0.0 0.0 0.0 
0.0 0.0 0.0 
0.0 0.0 0.0 
0.0 0.0 0.0 
0.0 0.0 0.0 
0.0 0.0 0.0 
0.0 0.0 0.0 
0.0 0.0 0.0 
0.0 0.0 0.0 
0.0 0.0 0.0 
0.0 0.0 0.0 
0.0 0.0 0.0 
0.0 0.0 0.0 
0.0 0.0 0.0 
0.0 0.0 0.0 
0.0 0.0 0.0 
0.0 0.0 0.0 
0.0 0.0 0.0 
0.0 0.0 0.0 
0.0 0.0 0.0 
0.0 0.0 0.0 
0.0 0.0 0.0 
0.0 0.0 0.0 
0.0 0.0 0.0 
0.0 0.0 0.0 
0.0 0.0 0.0 
0.0 0.0 0.0 
0.0 0.0 0.0 
0.0 0.0 0.0 
0.0 0.0 0.0 
0.0 0.0 0.0 
0.0 0.0 0.0 
0.0 0.0 0.0 
0.0 0.0 0.0 
0.0 0.0 0.0 
0.0 0.0 0.0 
0.0 0.0 0.0 
0.0 0.0 0.0 
0.0 0.0 0.0 
0.0 0.0 0.0 
0.0 0.0 0.0 
0.0 0.0 0.0 
0.0 0.0 0.0 
0.0 0.0 0.0 
0.0 0.0 0.0 
0.0 0.0 0.0 
0.0 0.0 0.0 
0.0 0.0 0.0 
0.0 0.0 0.0 
0.0 0.0 0.0 
0.0 0.0 0.0 
0.0 0.0 0.0 
0.0 0.0 0.0 
0.0 0.0 0.0 
0.0 0.0 0.0 
0.0 0.0 0.0 
0.0 0.0 0.0 
0.0 0.0 0.0 
0.0 0.0 0.0 
0.0 0.0 0.0 
0.0 0.0 0.0 
0.0 0.0 0.0 
0.0 0.0 0.0 
0.0 0.0 0.0 
0.0 0.0 0.0 
0.0 0.0 0.0 
0.0 0.0 0.0 
0.0 0.0 0.0 
0.0 0.0 0.0 
0.0 0.0 0.0 
0.0 0.0 0.0 
0.0 0.0 0.0 
0.0 0.0 0.0 
0.0 0.0 0.0 
0.0 0.0 0.0 
0.0 0.0 0.0 
0.0 0.0 0.0 
0.0 0.0 0.0 
0.0 0.0 0.0 
0.0 0.0 0.0 
0.0 0.0 0.0 
0.0 0.0 0.0 
0.0 0.0 0.0 
0.0 0.0 0.0 
0.0 0.0 0.0 
0.0 0.0 0.0 
0.0 0.0 0.0 
0.0 0.0 0.0 
0.0 0.0 0.0 
0.0 0.0 0.0 
0.0 0.0 0.0 
0.0 0.0 0.0 
0.0 0.0 0.0 
0.0 0.0 0.0 
0.0 0.0 0.0 
0.0 0.0 0.0 
0.0 0.0 0.0 
0.0 0.0 0.0 
0.0 0.0 0.0 
0.0 0.0 0.0 
0.0 0.0 0.0 
0.0 0.0 0.0 
0.0 0.0 0.0 
0.0 0.0 0.0 
0.0 0.0 0.0 
0.0 0.0 0.0 
0.0 0.0 0.0 
0.0 0.0 0.0 
0.0 0.0 0.0 
0.0 0.0 0.0 
0.0 0.0 0.0 
0.0 0.0 0.0 
0.0 0.0 0.0 
0.0 0.0 0.0 
0.0 0.0 0.0 
0.0 0.0 0.0 
0.0 0.0 0.0 
0.0 0.0 0.0 
0.0 0.0 0.0 
0.0 0.0 0.0 
0.0 0.0 0.0 
0.0 0.0 0.0 
0.0 0.0 0.0 
0.0 0.0 0.0 
0.0 0.0 0.0 
0.0 0.0 0.0 
0.0 0.0 0.0 
0.0 0.0 0.0 
0.0 0.0 0.0 
0.0 0.0 0.0 
0.0 0.0 0.0 
0.0 0.0 0.0 
0.0 0.0 0.0 
0.0 0.0 0.0 
0.0 0.0 0.0 
0.0 0.0 0.0 
0.0 0.0 0.0 
0.0 0.0 0.0 
0.0 0.0 0.0 
0.0 0.0 0.0 
0.0 0.0 0.0 
0.0 0.0 0.0 
0.0 0.0 0.0 
0.0 0.0 0.0 
0.0 0.0 0.0 
0.0 0.0 0.0 
0.0 0.0 0.0 
0.0 0.0 0.0 
0.0 0.0 0.0 
0.0 0.0 0.0 
0.0 0.0 0.0 
0.0 0.0 0.0 
0.0 0.0 0.0 
0.0 0.0 0.0 
0.0 0.0 0.0 
0.0 0.0 0.0 
0.0 0.0 0.0 
0.0 0.0 0.0 
0.0 0.0 0.0 
0.0 0.0 0.0 
0.0 0.0 0.0 
0.0 0.0 0.0 
0.0 0.0 0.0 
0.0 0.0 0.0 
0.0 0.0 0.0 
0.0 0.0 0.0 
0.0 0.0 0.0 
0.0 0.0 0.0 
0.0 0.0 0.0 
0.0 0.0 0.0 
0.0 0.0 0.0 
0.0 0.0 0.0 
0.0 0.0 0.0 
0.0 0.0 0.0 
0.0 0.0 0.0 
0.0 0.0 0.0 
0.0 0.0 0.0 
0.0 0.0 0.0 
0.0 0.0 0.0 
0.0 0.0 0.0 
0.0 0.0 0.0 
0.0 0.0 0.0 
0.0 0.0 0.0 
0.0 0.0 0.0 
0.0 0.0 0.0 
0.0 0.0 0.0 
0.0 0.0 0.0 
0.0 0.0 0.0 
0.0 0.0 0.0 
0.0 0.0 0.0 
0.0 0.0 0.0 
0.0 0.0 0.0 
0.0 0.0 0.0 
0.0 0.0 0.0 
0.0 0.0 0.0 
0.0 0.0 0.0 
0.0 0.0 0.0 
0.0 0.0 0.0 
0.0 0.0 0.0 
0.0 0.0 0.0 
0.0 0.0 0.0 
0.0 0.0 0.0 
0.0 0.0 0.0 
0.0 0.0 0.0 
0.0 0.0 0.0 
0.0 0.0 0.0 
0.0 0.0 0.0 
0.0 0.0 0.0 
0.0 0.0 0.0 
0.0 0.0 0.0 
0.0 0.0 0.0 
0.0 0.0 0.0 
0.0 0.0 0.0 
0.0 0.0 0.0 
0.0 0.0 0.0 
0.0 0.0 0.0 
0.0 0.0 0.0 
0.0 0.0 0.0 
0.0 0.0 0.0 
0.0 0.0 0.0 
0.0 0.0 0.0 
0.0 0.0 0.0 
0.0 0.0 0.0 
0.0 0.0 0.0 
0.0 0.0 0.0 
0.0 0.0 0.0 
0.0 0.0 0.0 
0.0 0.0 0.0 
0.0 0.0 0.0 
0.0 0.0 0.0 
0.0 0.0 0.0 
0.0 0.0 0.0 
0.0 0.0 0.0 
0.0 0.0 0.0 
0.0 0.0 0.0 
0.0 0.0 0.0 
0.0 0.0 0.0 
0.0 0.0 0.0 
0.0 0.0 0.0 
0.0 0.0 0.0 
0.0 0.0 0.0 
0.0 0.0 0.0 
0.0 0.0 0.0 
0.0 0.0 0.0 
0.0 0.0 0.0 
0.0 0.0 0.0 
0.0 0.0 0.0 
0.0 0.0 0.0 
0.0 0.0 0.0 
0.0 0.0 0.0 
0.0 0.0 0.0 
0.0 0.0 0.0 
0.0 0.0 0.0 
0.0 0.0 0.0 
0.0 0.0 0.0 
0.0 0.0 0.0 
0.0 0.0 0.0 
0.0 0.0 0.0 
0.0 0.0 0.0 
0.0 0.0 0.0 
0.0 0.0 0.0 
0.0 0.0 0.0 
0.0 0.0 0.0 
0.0 0.0 0.0 
0.0 0.0 0.0 
0.0 0.0 0.0 
0.0 0.0 0.0 
0.0 0.0 0.0 
0.0 0.0 0.0 
0.0 0.0 0.0 
0.0 0.0 0.0 
0.0 0.0 0.0 
0.0 0.0 0.0 
0.0 0.0 0.0 
0.0 0.0 0.0 
0.0 0.0 0.0 
0.0 0.0 0.0 
0.0 0.0 0.0 
0.0 0.0 0.0 
0.0 0.0 0.0 
0.0 0.0 0.0 
0.0 0.0 0.0 
0.0 0.0 0.0 
0.0 0.0 0.0 
0.0 0.0 0.0 
0.0 0.0 0.0 
0.0 0.0 0.0 
0.0 0.0 0.0 
0.0 0.0 0.0 
0.0 0.0 0.0 
0.0 0.0 0.0 
0.0 0.0 0.0 
0.0 0.0 0.0 
0.0 0.0 0.0 
0.0 0.0 0.0 
0.0 0.0 0.0 
0.0 0.0 0.0 
0.0 0.0 0.0 
0.0 0.0 0.0 
0.0 0.0 0.0 
0.0 0.0 0.0 
0.0 0.0 0.0 
0.0 0.0 0.0 
0.0 0.0 0.0 
0.0 0.0 0.0 
0.0 0.0 0.0 
0.0 0.0 0.0 
0.0 0.0 0.0 
0.0 0.0 0.0 
0.0 0.0 0.0 
0.0 0.0 0.0 
0.0 0.0 0.0 
0.0 0.0 0.0 
0.0 0.0 0.0 
0.0 0.0 0.0 
0.0 0.0 0.0 
0.0 0.0 0.0 
0.0 0.0 0.0 
0.0 0.0 0.0 
0.0 0.0 0.0 
0.0 0.0 0.0 
0.0 0.0 0.0 
0.0 0.0 0.0 
0.0 0.0 0.0 
0.0 0.0 0.0 
0.0 0.0 0.0 
0.0 0.0 0.0 
0.0 0.0 0.0 
0.0 0.0 0.0 
0.0 0.0 0.0 
0.0 0.0 0.0 
0.0 0.0 0.0 
0.0 0.0 0.0 
0.0 0.0 0.0 
0.0 0.0 0.0 
0.0 0.0 0.0 
0.0 0.0 0.0 
0.0 0.0 0.0 
0.0 0.0 0.0 
0.0 0.0 0.0 
0.0 0.0 0.0 
0.0 0.0 0.0 
0.0 0.0 0.0 
0.0 0.0 0.0 
0.0 0.0 0.0 
0.0 0.0 0.0 
0.0 0.0 0.0 
0.0 0.0 0.0 
0.0 0.0 0.0 
0.0 0.0 0.0 
0.0 0.0 0.0 
0.0 0.0 0.0 
0.0 0.0 0.0 
0.0 0.0 0.0 
0.0 0.0 0.0 
0.0 0.0 0.0 
0.0 0.0 0.0 
0.0 0.0 0.0 
0.0 0.0 0.0 
0.0 0.0 0.0 
0.0 0.0 0.0 
0.0 0.0 0.0 
0.0 0.0 0.0 
0.0 0.0 0.0 
0.0 0.0 0.0 
0.0 0.0 0.0 
0.0 0.0 0.0 
0.0 0.0 0.0 
0.0 0.0 0.0 
0.0 0.0 0.0 
0.0 0.0 0.0 
0.0 0.0 0.0 
0.0 0.0 0.0 
0.0 0.0 0.0 
0.0 0.0 0.0 
0.0 0.0 0.0 
0.0 0.0 0.0 
0.0 0.0 0.0 
0.0 0.0 0.0 
0.0 0.0 0.0 
0.0 0.0 0.0 
0.0 0.0 0.0 
0.0 0.0 0.0 
0.0 0.0 0.0 
0.0 0.0 0.0 
0.0 0.0 0.0 
0.0 0.0 0.0 
0.0 0.0 0.0 
0.0 0.0 0.0 
0.0 0.0 0.0 
0.0 0.0 0.0 
0.0 0.0 0.0 
0.0 0.0 0.0 
0.0 0.0 0.0 
0.0 0.0 0.0 
0.0 0.0 0.0 
0.0 0.0 0.0 
0.0 0.0 0.0 
0.0 0.0 0.0 
0.0 0.0 0.0 
0.0 0.0 0.0 
0.0 0.0 0.0 
0.0 0.0 0.0 
0.0 0.0 0.0 
0.0 0.0 0.0 
0.0 0.0 0.0 
0.0 0.0 0.0 
0.0 0.0 0.0 
0.0 0.0 0.0 
0.0 0.0 0.0 
0.0 0.0 0.0 
0.0 0.0 0.0 
0.0 0.0 0.0 
0.0 0.0 0.0 
0.0 0.0 0.0 
0.0 0.0 0.0 
0.0 0.0 0.0 
0.0 0.0 0.0 
0.0 0.0 0.0 
0.0 0.0 0.0 
0.0 0.0 0.0 
0.0 0.0 0.0 
0.0 0.0 0.0 
0.0 0.0 0.0 
0.0 0.0 0.0 
0.0 0.0 0.0 
0.0 0.0 0.0 
0.0 0.0 0.0 
0.0 0.0 0.0 
0.0 0.0 0.0 
0.0 0.0 0.0 
0.0 0.0 0.0 
0.0 0.0 0.0 
0.0 0.0 0.0 
0.0 0.0 0.0 
0.0 0.0 0.0 
0.0 0.0 0.0 
0.0 0.0 0.0 
0.0 0.0 0.0 
0.0 0.0 0.0 
0.0 0.0 0.0 
0.0 0.0 0.0 
0.0 0.0 0.0 
0.0 0.0 0.0 
0.0 0.0 0.0 
0.0 0.0 0.0 
0.0 0.0 0.0 
0.0 0.0 0.0 
0.0 0.0 0.0 
0.0 0.0 0.0 
0.0 0.0 0.0 
0.0 0.0 0.0 

VECTORS node_materi_velocity float
0.0 -4.650102562127e-04 0.0 
0.0 9.913701993609e-03 0.0 
0.0 0.0 0.0 
0.0 0.0 0.0 
0.0 -4.565986098865e-04 0.0 
0.0 -4.468782651106e-04 0.0 
0.0 -4.349868963521e-04 0.0 
0.0 -4.203008303063e-04 0.0 
0.0 -4.018413410862e-04 0.0 
0.0 -3.797154486526e-04 0.0 
0.0 -3.539625659073e-04 0.0 
0.0 -3.246776650942e-04 0.0 
0.0 -2.923541899664e-04 0.0 
0.0 -2.575772608945e-04 0.0 
0.0 -2.211826136472e-04 0.0 
0.0 -1.843267851187e-04 0.0 
0.0 -1.479850764214e-04 0.0 
0.0 -1.127771657717e-04 0.0 
0.0 -8.045142248409e-05 0.0 
0.0 -5.210286366216e-05 0.0 
0.0 -2.875096054007e-05 0.0 
0.0 -1.181251811728e-05 0.0 
0.0 -2.518592661553e-06 0.0 
0.0 0.0 0.0 
0.0 0.0 0.0 
0.0 0.0 0.0 
0.0 0.0 0.0 
0.0 0.0 0.0 
0.0 0.0 0.0 
0.0 0.0 0.0 
0.0 0.0 0.0 
0.0 0.0 0.0 
0.0 0.0 0.0 
0.0 0.0 0.0 
0.0 0.0 0.0 
0.0 0.0 0.0 
0.0 0.0 0.0 
0.0 0.0 0.0 
0.0 0.0 0.0 
0.0 0.0 0.0 
0.0 0.0 0.0 
0.0 0.0 0.0 
0.0 0.0 0.0 
0.0 0.0 0.0 
0.0 0.0 0.0 
0.0 0.0 0.0 
0.0 0.0 0.0 
0.0 0.0 0.0 
0.0 0.0 0.0 
0.0 0.0 0.0 
0.0 0.0 0.0 
0.0 0.0 0.0 
0.0 0.0 0.0 
0.0 0.0 0.0 
0.0 0.0 0.0 
0.0 0.0 0.0 
0.0 0.0 0.0 
0.0 0.0 0.0 
0.0 0.0 0.0 
0.0 0.0 0.0 
0.0 0.0 0.0 
0.0 0.0 0.0 
0.0 0.0 0.0 
0.0 0.0 0.0 
0.0 0.0 0.0 
0.0 0.0 0.0 
0.0 0.0 0.0 
0.0 0.0 0.0 
0.0 0.0 0.0 
0.0 0.0 0.0 
0.0 0.0 0.0 
0.0 0.0 0.0 
0.0 8.898197708535e-03 0.0 
0.0 7.883968614881e-03 0.0 
0.0 6.872342388103e-03 0.0 
0.0 5.864300175791e-03 0.0 
0.0 4.862025017598e-03 0.0 
0.0 3.867040077916e-03 0.0 
0.0 2.881455012176e-03 0.0 
0.0 1.907337018429e-03 0.0 
0.0 9.467833102593e-04 0.0 
-5.070090480679e-04 6.094701429539e-04 0.0 
1.865203861038e-03 9.272035467717e-03 0.0 
-4.353974694256e-04 9.379477415667e-04 0.0 
-3.998102006056e-04 1.397905024794e-03 0.0 
-3.425399234852e-04 2.068256885137e-03 0.0 
-1.649433751027e-04 3.079318147485e-03 0.0 
5.390234214377e-04 4.662384131253e-03 0.0 
5.115353431214e-04 7.859053280315e-03 0.0 
1.236558623248e-03 9.515573783488e-03 0.0 
1.713041844605e-03 9.917197986547e-03 0.0 
1.883357238021e-03 9.760772600709e-03 0.0 
0.0 1.400853537424e-02 0.0 
0.0 1.296790698301e-02 0.0 
0.0 1.194804953355e-02 0.0 
0.0 1.093007025281e-02 0.0 
1.131340488470e-04 9.915142256720e-03 0.0 
2.270926765786e-04 9.919347079237e-03 0.0 
3.409073487485e-04 9.925120479646e-03 0.0 
4.545078108584e-04 9.932264253398e-03 0.0 
5.681602012937e-04 9.939882889220e-03 0.0 
6.820263275206e-04 9.946682820303e-03 0.0 
7.971144986661e-04 9.951020502988e-03 0.0 
9.129387523181e-04 9.949139524038e-03 0.0 
1.031344567611e-03 9.938320236116e-03 0.0 
1.152845614062e-03 9.913276241684e-03 0.0 
1.278238454956e-03 9.866859604414e-03 0.0 
1.409714704927e-03 9.791325551336e-03 0.0 
1.549373426102e-03 9.676525352396e-03 0.0 
1.699706708224e-03 9.508557284254e-03 0.0 
-4.560229772088e-04 4.113308357690e-04 0.0 
-3.854449273565e-04 2.276638274064e-04 0.0 
-3.085962683506e-04 7.079241393885e-05 0.0 
-2.309848884514e-04 -5.912726321874e-05 0.0 
-1.611745821781e-04 -1.648214606677e-04 0.0 
-9.940232634576e-05 -2.486539966677e-04 0.0 
-4.632733746131e-05 -3.135800176541e-04 0.0 
-2.586583075834e-06 -3.631820688036e-04 0.0 
3.212015733181e-05 -3.998354060927e-04 0.0 
5.801318011286e-05 -4.258620478174e-04 0.0 
7.557577918647e-05 -4.442760417088e-04 0.0 
8.605447328520e-05 -4.555774454194e-04 0.0 
8.938438577968e-05 -4.625728958712e-04 0.0 
8.741780030027e-05 -4.661817089618e-04 0.0 
8.043210154392e-05 -4.678192159454e-04 0.0 
6.925360715647e-05 -4.677989310544e-04 0.0 
5.468631558942e-05 -4.670203295710e-04 0.0 
3.769729157157e-05 -4.662436342496e-04 0.0 
1.927583990058e-05 -4.654504050267e-04 0.0 
1.720101900710e-04 1.400455933674e-02 0.0 
2.768585807403e-04 1.399376942511e-02 0.0 
3.921110462107e-04 1.399241746884e-02 0.0 
5.124497909819e-04 1.399582985262e-02 0.0 
6.306168234148e-04 1.399972674700e-02 0.0 
7.420589809641e-04 1.400152417171e-02 0.0 
8.433446767393e-04 1.399871794594e-02 0.0 
9.317290772464e-04 1.398835226807e-02 0.0 
1.004329843042e-03 1.396726590421e-02 0.0 
1.057468922001e-03 1.393100826411e-02 0.0 
1.087023405010e-03 1.387386773524e-02 0.0 
1.088820585941e-03 1.378827708520e-02 0.0 
1.058696767056e-03 1.366480360352e-02 0.0 
9.922479092232e-04 1.349316838126e-02 0.0 
8.828723289203e-04 1.325646988429e-02 0.0 
7.290518733241e-04 1.293529945058e-02 0.0 
5.300046659394e-04 1.249421343099e-02 0.0 
3.076549404343e-04 1.189921331522e-02 0.0 
9.499035066093e-05 1.108241157190e-02 0.0 
-1.089963040322e-04 9.996304461154e-03 0.0 
1.112558401105e-03 1.053876959320e-02 0.0 
1.090907794606e-03 1.124790229312e-02 0.0 
1.097850466075e-03 1.176074362435e-02 0.0 
1.119826738549e-03 1.213517189865e-02 0.0 
1.140012612631e-03 1.240616878215e-02 0.0 
1.149259846563e-03 1.260235514225e-02 0.0 
1.143278982654e-03 1.274252612152e-02 0.0 
1.120650016282e-03 1.284060678832e-02 0.0 
1.081706387130e-03 1.290647063516e-02 0.0 
1.027507500736e-03 1.294839239226e-02 0.0 
9.595122338496e-04 1.297295063522e-02 0.0 
8.794537208989e-04 1.298517323708e-02 0.0 
7.891724936882e-04 1.298889690211e-02 0.0 
6.905457562938e-04 1.298715767465e-02 0.0 
5.854837718297e-04 1.298278619602e-02 0.0 
4.759926849674e-04 1.297836597211e-02 0.0 
3.638675738376e-04 1.297634602306e-02 0.0 
2.490500996988e-04 1.297733621275e-02 0.0 
1.261533851272e-04 1.297368468697e-02 0.0 
1.203154192228e-04 1.195033241966e-02 0.0 
2.407123476934e-04 1.195627688580e-02 0.0 
3.573685577561e-04 1.195914443189e-02 0.0 
4.709998573101e-04 1.196360785143e-02 0.0 
5.817779870927e-04 1.196981436720e-02 0.0 
6.891464068548e-04 1.197592799950e-02 0.0 
7.921309684788e-04 1.197943794685e-02 0.0 
8.898325383912e-04 1.197728348133e-02 0.0 
9.812942906762e-04 1.196601610286e-02 0.0 
1.065892217894e-03 1.194088449865e-02 0.0 
1.143515729212e-03 1.189579350642e-02 0.0 
1.214594469803e-03 1.182297575865e-02 0.0 
1.280459658328e-03 1.171249754909e-02 0.0 
1.344121902470e-03 1.155162237892e-02 0.0 
1.410232026948e-03 1.132152184561e-02 0.0 
1.487374430042e-03 1.099941937392e-02 0.0 
1.579475633580e-03 1.054993559652e-02 0.0 
1.733999618973e-03 1.014315133099e-02 0.0 
1.607677944538e-03 1.041674714669e-02 0.0 
1.489911613097e-03 1.061198016316e-02 0.0 
1.381729943730e-03 1.074967315605e-02 0.0 
1.278668265055e-03 1.084320974014e-02 0.0 
1.177913800861e-03 1.090389467146e-02 0.0 
1.077583704715e-03 1.094040757760e-02 0.0 
9.763830045749e-04 1.095940140759e-02 0.0 
8.737930907498e-04 1.096655902378e-02 0.0 
7.697057936127e-04 1.096630711351e-02 0.0 
6.639265173437e-04 1.096121763845e-02 0.0 
5.566990913434e-04 1.095434605470e-02 0.0 
4.479777279054e-04 1.094734189383e-02 0.0 
3.375198801022e-04 1.094134078308e-02 0.0 
2.252364910090e-04 1.093644033068e-02 0.0 
1.125879693465e-04 1.093235072744e-02 0.0 
-4.570620681687e-04 7.670431425446e-04 0.0 
-4.168426056477e-04 1.147217247672e-03 0.0 
-3.771097098044e-04 1.700781589759e-03 0.0 
-2.801534677429e-04 2.519257878329e-03 0.0 
5.404186527247e-05 3.751921793549e-03 0.0 
5.744401325330e-04 6.283736431909e-03 0.0 
9.013217548403e-04 8.866981612941e-03 0.0 
1.530743180764e-03 9.802640342203e-03 0.0 
1.832998519908e-03 9.888036100020e-03 0.0 
1.894802068022e-03 9.547463800716e-03 0.0 
-2.601975491674e-04 1.141149615169e-03 0.0 
2.800354647187e-04 6.029623958502e-05 0.0 
7.589590124902e-05 -4.217803306655e-04 0.0 
-1.047874346131e-04 -1.338883742162e-04 0.0 
1.542053013516e-04 1.942179735873e-05 0.0 
1.106147735430e-04 2.549587877433e-03 0.0 
4.668441778754e-05 -2.390834343201e-04 0.0 
4.180466079107e-04 1.314019918591e-04 0.0 
1.216300033756e-03 5.840577612862e-03 0.0 
5.398485140800e-04 2.468875129384e-04 0.0 
2.090749443288e-03 8.817258747139e-03 0.0 
7.898021977602e-05 5.922981937052e-06 0.0 
9.646651077247e-05 -4.634066195297e-04 0.0 
6.108291811763e-04 4.276914057435e-04 0.0 
2.087288346188e-03 8.597875768307e-03 0.0 
3.427730793554e-05 -3.669068701994e-04 0.0 
4.781591934045e-05 -1.370568704468e-04 0.0 
5.942516441128e-04 5.898111725156e-04 0.0 
4.239136043374e-04 7.012043763952e-04 0.0 
1.131006098643e-04 8.041186784420e-04 0.0 
2.159073452068e-04 8.587026523890e-04 0.0 
2.961538365387e-04 7.412103971201e-04 0.0 
1.713425561022e-03 8.691596215950e-03 0.0 
1.118594502231e-03 9.004108014551e-03 0.0 
7.408094319879e-04 9.004143028218e-03 0.0 
7.257922121029e-05 5.347166245449e-03 0.0 
4.624511837971e-05 1.227495117074e-06 0.0 
-2.858012108360e-04 3.030284619446e-04 0.0 
6.432200902623e-05 -4.616867289748e-04 0.0 
3.256199163899e-05 -4.133523831136e-05 0.0 
3.853453034390e-04 9.052004349404e-03 0.0 
2.545397111231e-05 -4.289291229960e-04 0.0 
5.776613048993e-04 7.442813230457e-04 0.0 
4.469844609407e-04 1.682753474754e-04 0.0 
5.818994754981e-04 3.270682494672e-04 0.0 
3.701427421672e-04 9.761456391716e-05 0.0 
2.120160226758e-04 3.701390066635e-05 0.0 
-7.150404084091e-06 -3.003367707757e-04 0.0 
1.395771731294e-03 8.967790944753e-03 0.0 
1.328071441603e-04 1.231720380828e-05 0.0 
5.564296992313e-05 3.415063051942e-03 0.0 
9.787008226220e-05 -4.534863265796e-04 0.0 
4.246371249053e-05 -3.092741486029e-04 0.0 
5.631887435888e-05 6.543682686501e-04 0.0 
6.606764888716e-04 3.753571619243e-03 0.0 
-1.445055805786e-04 1.707891379006e-03 0.0 
1.795251961583e-03 7.905347218179e-03 0.0 
2.163565182981e-03 8.926326629040e-03 0.0 
-3.425390676714e-04 7.512456803992e-04 0.0 
8.752249478886e-05 7.257247237789e-03 0.0 
2.060377412551e-05 -2.099155976180e-07 0.0 
2.978398902155e-05 -4.590785126716e-04 0.0 
3.068083956874e-05 1.495808093684e-03 0.0 
2.037114664598e-03 8.273166824906e-03 0.0 
2.221675167921e-03 7.639345656161e-03 0.0 
2.063847475513e-03 7.459524282455e-03 0.0 
2.265549011658e-03 6.724504071093e-03 0.0 
2.107811213308e-03 6.425153329106e-03 0.0 
2.250949324592e-03 5.796586573272e-03 0.0 
2.428646313327e-03 6.028330740574e-03 0.0 
2.367812311311e-03 5.154547826029e-03 0.0 
2.555707494310e-03 5.331486454053e-03 0.0 
2.057360096094e-03 5.487127915435e-03 0.0 
2.446393103012e-03 4.513922815359e-03 0.0 
2.637854856385e-03 4.639786212814e-03 0.0 
2.480903125707e-03 3.889907883115e-03 0.0 
2.669037554231e-03 3.972255774915e-03 0.0 
2.798721324406e-03 4.675890037177e-03 0.0 
2.820964386001e-03 3.968854898166e-03 0.0 
2.919357390565e-03 4.610587558735e-03 0.0 
2.926244443902e-03 3.869284237932e-03 0.0 
2.788686967862e-03 3.317397129149e-03 0.0 
2.877615707425e-03 3.203217114447e-03 0.0 
2.975617546501e-03 3.675550448951e-03 0.0 
2.908234657321e-03 3.010565681766e-03 0.0 
2.959928838572e-03 3.395654658076e-03 0.0 
2.875981346708e-03 2.751277599911e-03 0.0 
2.874733961795e-03 3.046282456966e-03 0.0 
2.781717836725e-03 2.446233017367e-03 0.0 
2.757733440694e-03 2.211235372908e-03 0.0 
2.662051476179e-03 1.950554038201e-03 0.0 
2.632167107723e-03 2.118199044313e-03 0.0 
2.519167852137e-03 1.674524851150e-03 0.0 
2.438529526712e-03 1.787410052544e-03 0.0 
2.339875003687e-03 1.399125882959e-03 0.0 
2.390254589581e-03 1.313562044726e-03 0.0 
2.227181393265e-03 1.085534689246e-03 0.0 
2.136101332249e-03 1.136973473532e-03 0.0 
2.043986893707e-03 8.693367970114e-04 0.0 
1.920358789380e-03 8.967773950461e-04 0.0 
1.850825655600e-03 6.710287681702e-04 0.0 
1.703544624711e-03 6.829100620054e-04 0.0 
1.655189495931e-03 4.927476244481e-04 0.0 
1.768694515770e-03 4.904374172910e-04 0.0 
1.592822155341e-03 3.410254263819e-04 0.0 
1.464049895636e-03 3.359602003414e-04 0.0 
1.420046221228e-03 2.090876274776e-04 0.0 
1.517675150647e-03 2.223277044909e-04 0.0 
1.362032068640e-03 1.108313955313e-04 0.0 
1.431832332455e-03 1.312050186307e-04 0.0 
1.292496788910e-03 3.652921956980e-05 0.0 
1.213019015953e-03 1.349912488276e-05 0.0 
1.157568758250e-03 -4.679342068961e-05 0.0 
1.214056618054e-03 -1.775087008954e-05 0.0 
1.092057609290e-03 -8.973999279928e-05 0.0 
1.027725521130e-03 -1.201278394517e-04 0.0 
9.748382919734e-04 -1.527361708487e-04 0.0 
1.019988221721e-03 -1.179600822268e-04 0.0 
9.137612260104e-04 -1.729204711087e-04 0.0 
8.630691260251e-04 -2.076577460740e-04 0.0 
8.120696896308e-04 -2.207787193546e-04 0.0 
8.478589221107e-04 -1.824883913101e-04 0.0 
7.549455673313e-04 -2.251302998267e-04 0.0 
7.151372452380e-04 -2.623655920039e-04 0.0 
6.664972979807e-04 -2.618479306424e-04 0.0 
6.940386450681e-04 -2.222539237023e-04 0.0 
6.130210123846e-04 -2.555421045961e-04 0.0 
6.299556998037e-04 -2.143824782039e-04 0.0 
5.813669330309e-04 -2.940006707928e-04 0.0 
5.352943985635e-04 -2.845037663458e-04 0.0 
5.011581621967e-04 -3.216040708866e-04 0.0 
4.615850660959e-04 -3.095060563891e-04 0.0 
2.248715291506e-03 1.021331060316e-03 0.0 
4.275818573290e-04 -3.444542461273e-04 0.0 
4.581263017563e-04 -3.540714455533e-04 0.0 
3.927176101214e-04 -3.308440315833e-04 0.0 
4.177607989805e-04 -2.944993144264e-04 0.0 
3.598325408875e-04 -3.634826026353e-04 0.0 
3.288534595300e-04 -3.489472613239e-04 0.0 
2.981761596248e-04 -3.791707822362e-04 0.0 
1.725913846869e-03 9.183912468618e-04 0.0 
2.706664136888e-03 2.734266132413e-03 0.0 
2.702795581466e-04 -3.642963650609e-04 0.0 
2.427292250289e-04 -3.920141431619e-04 0.0 
2.631921811227e-04 -4.049113212565e-04 0.0 
2.124290138339e-04 -4.152382198108e-04 0.0 
1.926557130328e-03 6.083693378073e-03 0.0 
1.850797466561e-03 5.127330008414e-03 0.0 
1.738085851675e-03 5.694839565578e-03 0.0 
1.634828968283e-03 4.730060297627e-03 0.0 
1.540868648420e-03 5.263122585611e-03 0.0 
1.933980943730e-04 -4.025897788837e-04 0.0 
2.262926255060e-03 3.702621285844e-03 0.0 
1.707549355693e-03 4.185197042738e-03 0.0 
2.997737364138e-03 4.153158057840e-03 0.0 
2.520261265043e-03 2.266215950367e-03 0.0 
1.571343163815e-03 2.367349141046e-04 0.0 
2.934813428922e-04 -3.325422839515e-04 0.0 
2.379126093249e-04 -3.480590734842e-04 0.0 
2.544868619247e-04 -3.150978647785e-04 0.0 
7.045822155480e-04 -1.803699621438e-04 0.0 
6.305096052130e-04 -1.720631195971e-04 0.0 
6.958905255580e-04 -1.380555665546e-04 0.0 
6.134325898933e-04 -1.301809357702e-04 0.0 
6.667371190856e-04 -9.719451085413e-05 0.0 
5.780296232720e-04 -9.049485304838e-05 0.0 
5.331819467274e-04 -1.200271559166e-04 0.0 
4.935977909643e-04 -8.194298385229e-05 0.0 
4.560946271499e-04 -1.084897551321e-04 0.0 
6.166559020549e-04 -5.974717509365e-05 0.0 
7.145599653969e-04 -6.234801217591e-05 0.0 
4.142153231227e-04 -7.237555702338e-05 0.0 
3.829614135157e-04 -9.631759536834e-05 0.0 
3.405181202425e-04 -6.250209733777e-05 0.0 
3.144920915999e-04 -8.406273742839e-05 0.0 
3.460012941037e-04 -1.198208042909e-04 0.0 
2.822205319336e-04 -1.056307051498e-04 0.0 
3.047841898300e-04 -1.426392165539e-04 0.0 
1.459928440168e-03 1.519702318950e-04 0.0 
1.577557895566e-03 2.491852203967e-04 0.0 
1.443426886239e-03 1.704000269291e-04 0.0 
1.533311783021e-03 2.564154689508e-04 0.0 
1.380372538284e-03 1.836945369999e-04 0.0 
1.437561599417e-03 2.557870582768e-04 0.0 
1.269780223638e-03 1.893595587617e-04 0.0 
1.228743281385e-03 1.297165269040e-04 0.0 
2.468707852833e-03 3.285292208671e-03 0.0 
1.283149395319e-03 1.998804252929e-04 0.0 
1.294099482610e-03 3.353217149269e-04 0.0 
1.113171912373e-03 1.976079345769e-04 0.0 
1.090737363750e-03 3.416827034906e-04 0.0 
9.179858283065e-04 2.041292345624e-04 0.0 
8.632084644468e-04 3.580382423497e-04 0.0 
7.056955788473e-04 2.214372159268e-04 0.0 
7.664921748234e-04 8.673470306991e-05 0.0 
5.706045694985e-04 1.041662306416e-04 0.0 
6.337615718172e-04 -1.412512137274e-05 0.0 
4.551431887933e-04 2.268303867686e-06 0.0 
5.174482528192e-04 -1.009079303469e-04 0.0 
2.613926955372e-03 1.763393957125e-03 0.0 
1.607581606166e-03 3.442851798974e-04 0.0 
1.473722229373e-03 3.252672586348e-04 0.0 
1.659714627896e-03 4.299295788648e-04 0.0 
2.257951574674e-04 -4.257926689163e-04 0.0 
2.511719531370e-04 -7.205250105867e-05 0.0 
6.468015770231e-04 -2.846545082951e-05 0.0 
7.547734712310e-04 -2.662306041887e-05 0.0 
1.106593941329e-03 1.395610191749e-04 0.0 
1.682194470192e-04 -4.233537451946e-04 0.0 
6.226852739065e-04 3.864348873205e-04 0.0 
7.825472571860e-04 5.456470740757e-04 0.0 
1.415996471741e-03 4.291484610260e-03 0.0 
1.341466961631e-03 4.799779005167e-03 0.0 
6.658458601910e-04 2.403302826828e-06 0.0 
1.499442580129e-04 -4.114617076364e-04 0.0 
4.379819422855e-04 -4.847256745054e-05 0.0 
3.722388330524e-04 1.323454228008e-04 0.0 
2.226083114862e-04 -9.184306279813e-05 0.0 
1.933955270152e-04 -6.049707880398e-05 0.0 
4.840511378319e-04 -1.478654927160e-04 0.0 
1.482997633159e-03 3.883347665362e-04 0.0 
1.686705405149e-03 5.093023764096e-04 0.0 
6.776395703192e-04 -1.067545458418e-04 0.0 
5.618933868346e-04 -1.808106762128e-04 0.0 
4.161736569379e-04 -1.756165350706e-04 0.0 
4.645099328710e-04 -2.461166191112e-04 0.0 
5.907691799998e-04 -2.407667280841e-04 0.0 
4.913597586441e-04 -2.937920429717e-04 0.0 
3.765938681539e-04 -2.987035454333e-04 0.0 
4.043347934971e-04 -3.380665245146e-04 0.0 
5.064261674896e-04 -3.268932962781e-04 0.0 
4.212006245290e-04 -3.635785155245e-04 0.0 
3.289605457959e-04 -3.735310390918e-04 0.0 
3.470261552243e-04 -3.929246325432e-04 0.0 
2.120980105036e-04 -4.326405403975e-05 0.0 
2.769242405819e-04 2.793158726360e-05 0.0 
2.851032290595e-03 5.407732541424e-03 0.0 
5.559103011683e-04 -1.373261282879e-06 0.0 
1.114717688966e-03 1.855230015159e-04 0.0 
1.198445500656e-03 3.824500887039e-03 0.0 
1.143302430700e-03 4.312661470630e-03 0.0 
1.252021821211e-03 5.306030045487e-03 0.0 
1.072596589358e-03 4.798335468585e-03 0.0 
9.502900725956e-04 3.808082400196e-03 0.0 
8.980668554321e-04 4.279525441404e-03 0.0 
9.913688056110e-04 5.279913467524e-03 0.0 
8.336026786031e-04 4.747997817970e-03 0.0 
9.033462191783e-04 5.755010654905e-03 0.0 
7.604219851053e-04 5.212170368016e-03 0.0 
6.827861999290e-04 4.210276524809e-03 0.0 
6.235732535287e-04 4.667164594838e-03 0.0 
6.813538214959e-04 5.672775145047e-03 0.0 
5.564905642565e-04 5.121823416426e-03 0.0 
5.983464384066e-04 6.129420663642e-03 0.0 
4.833487484964e-04 5.574308149845e-03 0.0 
4.392358779623e-04 4.571749881304e-03 0.0 
1.314761132976e-04 -4.294251168985e-04 0.0 
1.080781486390e-03 9.047542502498e-05 0.0 
9.499043373319e-04 1.029934760313e-04 0.0 
2.033333083779e-04 -3.311788011143e-04 0.0 
2.142965391647e-04 -2.971342431635e-04 0.0 
2.660494311193e-04 -2.791126800212e-04 0.0 
2.190273638243e-04 -2.608633247777e-04 0.0 
3.736389210035e-04 5.025388839490e-03 0.0 
3.318713404844e-04 4.024897022912e-03 0.0 
5.168147769646e-04 5.845541962993e-04 0.0 
6.750231078186e-04 7.714951658381e-04 0.0 
1.232488412264e-03 3.336494994600e-03 0.0 
1.675798358720e-04 -7.875566122964e-05 0.0 
1.887048331246e-04 -1.119275394574e-04 0.0 
2.277614028560e-03 1.882067361953e-03 0.0 
2.319211519822e-03 2.387362236689e-03 0.0 
2.034697146576e-03 1.959247601529e-03 0.0 
2.016386901414e-03 2.481607201491e-03 0.0 
2.333493286622e-03 3.009168664555e-03 0.0 
1.700721860839e-03 2.016944180147e-03 0.0 
8.173201804667e-04 -6.212141962596e-05 0.0 
5.418326375241e-04 3.671055856237e-03 0.0 
2.777254426239e-04 -4.151003684453e-04 0.0 
2.325880933816e-04 -4.333034011285e-04 0.0 
1.414897624877e-04 -4.982875054076e-05 0.0 
1.171589763577e-03 6.942937968294e-05 0.0 
2.657291601150e-03 1.960099278105e-03 0.0 
2.490453171661e-03 1.558516298642e-03 0.0 
2.481829908424e-03 1.694507879801e-03 0.0 
2.292554412180e-03 1.338801400921e-03 0.0 
2.230981279165e-03 1.416480748431e-03 0.0 
2.019992647165e-03 1.107456364470e-03 0.0 
2.085877773790e-03 1.046423469533e-03 0.0 
1.458366809025e-03 4.392022507497e-04 0.0 
1.793622266513e-03 8.529164282490e-04 0.0 
4.120063067422e-04 6.034648185838e-03 0.0 
1.777388929821e-03 4.589461319909e-04 0.0 
5.096814665644e-04 -3.468337862451e-04 0.0 
1.449956013598e-04 -4.389813515225e-04 0.0 
2.630538374427e-04 -4.016999913940e-04 0.0 
1.123145832640e-04 -4.187194787337e-04 0.0 
1.269430336190e-04 -3.984545624704e-04 0.0 
5.517519415262e-04 2.290418436186e-05 0.0 
1.903191221549e-03 1.127729543361e-03 0.0 
2.116974407905e-03 1.448812306697e-03 0.0 
1.969295532031e-03 3.138821529993e-03 0.0 
2.315258601388e-03 3.783391507360e-03 0.0 
1.245832007722e-03 3.319355804109e-04 0.0 
1.608293887757e-03 6.259563370487e-03 0.0 
1.049338999025e-03 6.292529856006e-03 0.0 
9.436080059083e-04 6.770672953679e-03 0.0 
9.990976910141e-05 -4.365728779218e-04 0.0 
2.385873727799e-04 -3.764488041096e-04 0.0 
7.668582582486e-04 3.293230170093e-03 0.0 
9.680385686005e-04 7.360501015911e-04 0.0 
8.663275388900e-04 9.962119272509e-04 0.0 
1.794817277669e-04 1.689335834859e-04 0.0 
1.041998318066e-04 6.051133628285e-05 0.0 
2.778615594156e-04 4.464467545364e-03 0.0 
2.384155679071e-04 3.479657784924e-03 0.0 
2.711211594820e-04 -2.411624105931e-04 0.0 
2.197923509897e-04 -2.229433875108e-04 0.0 
6.708262988415e-04 3.168688945662e-05 0.0 
2.835821267938e-04 -4.159461672687e-04 0.0 
2.748741942641e-04 3.036608051351e-03 0.0 
1.038332936853e-03 3.971710351356e-05 0.0 
1.102478817747e-03 1.051136834571e-05 0.0 
1.681435626066e-04 -2.796267615542e-04 0.0 
3.847133701410e-04 8.177682635203e-04 0.0 
2.606740157527e-04 6.341209454365e-04 0.0 
6.026609527032e-04 -3.088147133649e-04 0.0 
3.544796640079e-04 -4.023598450084e-04 0.0 
8.969296239797e-05 -4.073104469989e-04 0.0 
5.297797246146e-04 4.313399674854e-05 0.0 
7.843665931260e-04 2.834389402969e-03 0.0 
1.869690952747e-03 8.127456294776e-04 0.0 
2.106464013176e-03 9.590577012195e-04 0.0 
1.558900835236e-03 6.487933512185e-04 0.0 
2.137845402590e-04 -4.233096033487e-04 0.0 
4.428025780659e-04 1.689260765204e-05 0.0 
1.175466709035e-04 -6.640363580073e-05 0.0 
1.753128144449e-03 1.121993283973e-03 0.0 
1.951295358317e-03 1.431931584967e-03 0.0 
1.182070763188e-03 9.637818521964e-04 0.0 
1.101971103314e-03 1.273161874809e-03 0.0 
7.383573605901e-04 1.311214080259e-03 0.0 
9.866742679756e-04 1.646760399418e-03 0.0 
2.586887802603e-03 6.185923374974e-03 0.0 
1.431732607093e-03 1.238482028788e-03 0.0 
2.940841900054e-03 5.277962883946e-03 0.0 
2.823145419521e-03 6.170067932868e-03 0.0 
2.877537642730e-03 5.976507453957e-03 0.0 
2.605758954891e-03 3.565488934084e-03 0.0 
2.597009548832e-03 4.467501236646e-03 0.0 
1.283440674664e-03 5.046297617837e-04 0.0 
1.707612723600e-03 3.532080302030e-04 0.0 
3.217127389168e-04 -2.594659303815e-04 0.0 
3.673469873761e-04 -1.583808830436e-04 0.0 
7.794125647117e-04 -1.423874650399e-04 0.0 
5.762718248926e-04 3.220088054465e-03 0.0 
4.350273445998e-04 2.687417295886e-03 0.0 
7.177341007009e-04 6.685062717300e-03 0.0 
6.233947181867e-04 7.142253141107e-03 0.0 
1.882731105925e-04 -4.417121063726e-04 0.0 
1.886707449320e-04 -4.461662415517e-04 0.0 
5.641929026381e-04 -2.029642928412e-04 0.0 
4.547640799563e-04 -2.520539031804e-06 0.0 
1.000784480338e-03 2.867237403280e-03 0.0 
9.880910163656e-04 2.402379670533e-03 0.0 
1.239421615494e-03 2.851195819894e-03 0.0 
6.579687796627e-04 5.786879446230e-05 0.0 
1.116177793188e-03 8.349600395369e-05 0.0 
1.343324727348e-03 8.873764600218e-05 0.0 
1.957948327025e-04 -6.176097002590e-05 0.0 
2.367623194562e-03 1.212180038654e-03 0.0 
1.530793613701e-04 -4.525824239894e-04 0.0 
2.579749897232e-03 2.778565382488e-03 0.0 
9.597637986847e-05 -3.989260003325e-05 0.0 
1.109982323144e-04 -2.639040734481e-05 0.0 
1.170551792188e-03 3.543093549846e-04 0.0 
2.323198021010e-03 7.853238453695e-03 0.0 
2.201329447443e-03 9.439180546259e-04 0.0 
2.097754440509e-03 7.871971807971e-04 0.0 
2.703923563865e-03 6.962346153321e-03 0.0 
2.717392114218e-03 6.705504915015e-03 0.0 
2.872152198929e-03 5.636436953162e-03 0.0 
2.662698189026e-03 6.272643498056e-03 0.0 
5.906713003831e-04 -3.236238903885e-04 0.0 
5.020044997739e-04 -3.563000304379e-04 0.0 
1.483472979866e-03 8.243308924469e-04 0.0 
1.437402692514e-03 6.503407992966e-04 0.0 
1.544981099090e-03 1.055540249386e-03 0.0 
1.733240862246e-03 1.351404615141e-03 0.0 
9.509280456832e-04 2.592935725568e-04 0.0 
1.039432491798e-03 2.476971315691e-04 0.0 
9.964232846752e-05 -3.852042789655e-04 0.0 
2.255454032904e-03 4.764934317144e-03 0.0 
5.962703109380e-04 2.322947302467e-03 0.0 
2.643200540340e-03 7.072158570414e-03 0.0 
3.473207712379e-04 1.311027844776e-05 0.0 
3.633815614961e-04 -2.957774109165e-06 0.0 
3.978808179904e-05 -3.271108182740e-05 0.0 
1.301020209531e-04 -1.516270231132e-04 0.0 
1.875066516788e-04 2.519428615879e-03 0.0 
5.849396312771e-04 1.684720513752e-03 0.0 
8.329926703029e-04 2.087926029857e-03 0.0 
3.883065807604e-04 1.354270725372e-03 0.0 
1.427328238489e-05 -5.436613767672e-06 0.0 
1.671598899027e-04 9.054595978226e-03 0.0 
7.135093052935e-05 -1.924403543333e-05 0.0 
2.816940976836e-03 4.140159138498e-03 0.0 
2.033684099639e-04 2.043915275488e-03 0.0 
2.030008965910e-03 7.327624821991e-04 0.0 
2.010046511330e-03 1.526982726465e-03 0.0 
7.996916844897e-04 4.555339048820e-05 0.0 
1.521717547887e-04 3.039083845456e-03 0.0 
1.126687544039e-04 1.965163405184e-03 0.0 
1.073119922898e-03 7.295802632920e-03 0.0 
9.591428647727e-04 7.790873458806e-03 0.0 
1.195361358466e-03 6.819973045251e-03 0.0 
2.725293288157e-04 2.913625044082e-04 0.0 
4.191682434530e-05 3.618987752961e-04 0.0 
4.134785726755e-04 3.132182400114e-03 0.0 
1.871720338438e-04 -3.618430285774e-04 0.0 
1.519563330699e-04 -3.425090908377e-04 0.0 
2.893892351622e-04 -4.214943997531e-04 0.0 
3.507880386310e-04 -4.040056754931e-04 0.0 
3.246592932426e-04 -2.203262596676e-04 0.0 
3.796321612030e-04 -2.380817442070e-04 0.0 
2.462533394929e-03 2.268106051400e-03 0.0 
2.297739402713e-03 2.253316872937e-03 0.0 
2.648141196595e-03 2.122763062209e-03 0.0 
9.832339517069e-04 -1.033323185445e-05 0.0 
1.025312797230e-03 -4.528505883181e-05 0.0 
1.132441599387e-03 -2.203629520704e-05 0.0 
4.454039613586e-04 2.275119784521e-03 0.0 
2.964319308621e-04 1.670885089460e-03 0.0 
6.877204914567e-04 -2.842738661698e-04 0.0 
7.053548732425e-04 -2.628813787027e-04 0.0 
5.678497582822e-04 -3.297188227101e-04 0.0 
5.778648365118e-04 1.896063483579e-03 0.0 
7.870250517235e-05 -1.002446523481e-05 0.0 
1.183886930360e-04 -1.478059077855e-05 0.0 
1.491511051696e-04 -4.536941230829e-04 0.0 
1.826570930772e-04 -4.451979105654e-04 0.0 
1.197974725456e-04 8.687263429179e-04 0.0 
2.488551064527e-05 6.903155092025e-04 0.0 
9.561551951955e-04 1.980245327922e-03 0.0 
1.216302877532e-03 2.382336875194e-03 0.0 
6.829325000818e-04 1.494768394646e-03 0.0 
6.215946438952e-05 -3.969168496065e-04 0.0 
1.901096891883e-03 7.488756700517e-04 0.0 
5.010619328337e-04 6.077911241819e-05 0.0 
6.395857763110e-04 8.037291687330e-05 0.0 
3.560292528685e-04 4.315310911348e-05 0.0 
1.404443592415e-03 4.761561524245e-04 0.0 
1.065306590962e-03 3.570262565651e-04 0.0 
1.172960138975e-03 4.734074404881e-04 0.0 
-5.749861243337e-05 9.344788870986e-05 0.0 
8.435136348182e-05 2.365376837341e-03 0.0 
7.360464672550e-04 7.702312969354e-03 0.0 
-9.023770154633e-05 9.955556042269e-06 0.0 
6.335387389151e-04 8.194941006619e-03 0.0 
5.314663094259e-04 7.603559869553e-03 0.0 
5.476903865305e-04 8.680764367882e-03 0.0 
5.728231491149e-05 -4.155594852809e-04 0.0 
1.205225874729e-03 7.996163640117e-03 0.0 
1.347535170999e-03 7.372702531975e-03 0.0 
1.298273200522e-04 -4.496377747036e-04 0.0 
3.899772228004e-04 1.400166446961e-03 0.0 
1.252362292465e-04 -4.581752687540e-04 0.0 
1.270334728171e-04 -4.567539664329e-04 0.0 
2.609381323749e-04 9.460719327635e-06 0.0 
2.817771648525e-04 -2.092651800449e-06 0.0 
1.865767940225e-04 8.214104347997e-06 0.0 
2.151722895681e-04 -5.485269922753e-07 0.0 
2.910013809504e-04 -1.690156724478e-05 0.0 
2.230177910442e-04 -1.289809319503e-05 0.0 
8.552583513184e-04 8.348734672990e-03 0.0 
1.450559669028e-04 1.864233333416e-06 0.0 
1.628065862154e-04 -8.657700140815e-06 0.0 
9.430476214157e-05 1.070232213215e-06 0.0 
2.434087188937e-03 7.523583604971e-03 0.0 
1.254852971422e-03 2.045648688060e-03 0.0 
1.118867395373e-03 2.593953687297e-03 0.0 
6.345923411600e-04 2.636776456790e-03 0.0 
1.183271213857e-03 8.423053967251e-04 0.0 
1.494763959535e-03 1.236363755338e-03 0.0 
7.274716506723e-05 -5.443942574575e-05 0.0 
8.375730485783e-05 -8.328387755911e-05 0.0 
4.386424494925e-04 8.138055175571e-03 0.0 
3.212943179977e-04 8.175069935210e-03 0.0 
3.505568947649e-04 7.251161096295e-03 0.0 
2.532213849692e-04 7.358642250776e-03 0.0 
2.734147115258e-04 6.453975533036e-03 0.0 
1.760372059649e-04 6.566312191687e-03 0.0 
2.086623231120e-04 5.663851997306e-03 0.0 
9.997461710680e-04 4.433215422680e-04 0.0 
1.962644932863e-04 1.694084060840e-03 0.0 
2.460178488368e-03 7.956822794466e-03 0.0 
7.396571709045e-04 1.849815577529e-04 0.0 
8.670077043059e-04 1.897648344407e-04 0.0 
2.516609300694e-03 5.576119310069e-03 0.0 
2.087761660647e-03 6.050026043681e-03 0.0 
2.917471618382e-04 2.425306348365e-05 0.0 
1.469844696104e-03 9.388295268500e-04 0.0 
2.968671921411e-04 8.742580067413e-04 0.0 
-3.431690761824e-04 4.797057733450e-04 0.0 
-1.618952337513e-04 3.763741186844e-04 0.0 
1.722569641251e-03 1.208156223101e-03 0.0 
2.785688403904e-03 5.128902432733e-03 0.0 
1.591542652784e-03 2.543148413200e-03 0.0 
1.518931184271e-03 3.256795281536e-03 0.0 
9.093575974545e-04 2.064780386412e-05 0.0 
1.672574077920e-04 -4.381847741769e-04 0.0 
2.379686313707e-04 1.086363563187e-03 0.0 
3.046319955014e-04 5.566832659894e-03 0.0 
-3.550755838911e-05 1.117641729656e-03 0.0 
3.815532758398e-05 -6.738061924569e-05 0.0 
1.494870120321e-03 6.951653426529e-04 0.0 
2.788120860029e-03 3.321020789336e-03 0.0 
5.427845266697e-04 1.037910325726e-03 0.0 
1.396807790823e-03 1.619051824327e-03 0.0 
2.720411260071e-03 5.421667197776e-03 0.0 
2.414563035203e-03 6.933543297751e-03 0.0 
2.535560587766e-03 7.078323946007e-03 0.0 
1.491046415526e-03 4.967929159543e-04 0.0 
1.903090208516e-03 3.964405950325e-03 0.0 
1.361599181978e-03 4.144661176472e-03 0.0 
2.990335558435e-03 4.435113042228e-03 0.0 
1.495822676206e-03 3.269825991761e-03 0.0 
1.487169043194e-03 2.769462793985e-03 0.0 
1.164533492622e-03 1.951412248163e-03 0.0 
1.441335255953e-03 2.296147903558e-03 0.0 
1.757227999417e-03 3.121219729206e-03 0.0 
1.723334017568e-03 2.616228982505e-03 0.0 
1.356015909559e-03 1.857445219939e-03 0.0 
1.647754253178e-03 2.141926388873e-03 0.0 
1.130019460746e-03 1.305959328063e-03 0.0 
1.515670200994e-03 1.690179702907e-03 0.0 
1.927397348607e-03 2.392710688304e-03 0.0 
1.818868312229e-03 1.947466018531e-03 0.0 
1.407914676340e-03 1.373735360267e-03 0.0 
2.193950695619e-03 2.624340546343e-03 0.0 
6.075915875585e-04 1.717349127304e-04 0.0 
1.970596777168e-03 1.177571986683e-03 0.0 
-4.348929120837e-06 2.133196054499e-04 0.0 
-1.168515515046e-04 5.218816512627e-04 0.0 
2.932788596924e-03 3.775378142425e-03 0.0 
5.650041151846e-04 6.374581524788e-04 0.0 
4.771294014644e-04 6.966151644454e-04 0.0 
1.041863154444e-03 5.194928462156e-04 0.0 
5.991655416660e-04 3.748481510901e-04 0.0 
2.719224918721e-03 6.243025374644e-03 0.0 
4.855345798145e-04 2.514801997309e-04 0.0 
5.705523566761e-04 2.893409131582e-04 0.0 
1.750582934707e-03 3.644974411739e-03 0.0 
1.998370904096e-03 3.994558690159e-03 0.0 
1.939695187100e-03 4.560874889652e-03 0.0 
3.693638719679e-04 6.920097059003e-04 0.0 
1.317579051552e-03 6.321829085200e-03 0.0 
4.189995401383e-04 1.442070833810e-04 0.0 
1.685312320369e-03 3.526175307762e-04 0.0 
1.833592822536e-03 4.773430942034e-04 0.0 
1.828919876757e-03 4.862772666905e-04 0.0 
1.997117934500e-03 2.909277776981e-03 0.0 
3.078314692628e-04 7.188804595543e-05 0.0 
5.401305997702e-04 1.116007384768e-04 0.0 
4.853104635972e-04 8.876867026833e-05 0.0 
7.343810411591e-04 1.277243629247e-04 0.0 
2.460785079859e-04 4.851814177505e-05 0.0 
5.607679975785e-04 4.927538549986e-04 0.0 
5.468599199807e-04 4.266627950716e-04 0.0 
6.030073280453e-04 -2.820405693033e-04 0.0 
7.116067650392e-04 -2.282414278876e-04 0.0 
8.183217275548e-04 -2.083467381778e-04 0.0 
8.309958854399e-04 -1.644349120784e-04 0.0 
7.029131140839e-04 -1.770344941998e-04 0.0 
8.276029973096e-04 -1.031214724476e-04 0.0 
9.606075637484e-04 -9.039073176009e-05 0.0 
8.060503545591e-04 -2.040051865228e-05 0.0 
1.928751330984e-03 1.734591050823e-03 0.0 
1.883033974794e-04 3.047560682318e-05 0.0 
7.587555529019e-04 -1.011478767899e-04 0.0 
8.525744618764e-04 -1.013373103078e-04 0.0 
8.620250878660e-04 -1.421468322908e-04 0.0 
3.709232920921e-04 -2.774468339537e-04 0.0 
4.335490879644e-04 -2.553225009792e-04 0.0 
4.387292898285e-04 -2.145468624260e-04 0.0 
3.110417364760e-04 -2.973386583948e-04 0.0 
2.305271431466e-03 1.228465952107e-03 0.0 
1.665244556542e-04 2.365105187671e-05 0.0 
1.223609419425e-03 4.286862515683e-05 0.0 
4.857134977608e-04 -2.711951517480e-04 0.0 
1.550811358235e-03 8.848908858178e-03 0.0 
1.683557637567e-03 7.905488826468e-03 0.0 
1.855236097289e-03 7.735119008279e-03 0.0 
1.786349448863e-03 6.827222761214e-03 0.0 
1.498724128176e-03 7.909886839196e-03 0.0 
2.695558236705e-04 -2.023540264881e-04 0.0 
2.150830567093e-04 -1.846517099391e-04 0.0 
1.681842768033e-04 -2.051352807498e-04 0.0 
1.617534279133e-04 -1.674861345706e-04 0.0 
1.171154125806e-04 -1.877936108737e-04 0.0 
1.219202797038e-04 -2.243604279322e-04 0.0 
1.090351095942e-04 -1.508996481926e-04 0.0 
6.780190902558e-05 -1.751245087216e-04 0.0 
1.252456110834e-03 9.005030530982e-03 0.0 
-5.009685788480e-05 -2.269678052958e-04 0.0 
5.777002342942e-05 -2.787495113408e-04 0.0 
8.056234860132e-05 -3.393065010346e-04 0.0 
1.495203911736e-04 -3.189742880058e-04 0.0 
1.431362993582e-04 -2.548304734404e-04 0.0 
2.543696281377e-04 -2.972248877009e-04 0.0 
2.357991424419e-04 -2.247051166366e-04 0.0 
2.720407019796e-05 -1.958330784171e-04 0.0 
2.787524240264e-05 -3.538878174857e-04 0.0 
9.996106738894e-05 -3.832494540481e-04 0.0 
5.550429543888e-05 -3.937839200605e-04 0.0 
1.110561296022e-04 -4.139616248003e-04 0.0 
1.759911105117e-04 -4.039983862603e-04 0.0 
2.341868053366e-04 -4.358847971011e-04 0.0 
4.043389678730e-05 2.602479843052e-08 0.0 
4.507439958472e-05 -2.754674071028e-04 0.0 
8.603430128510e-05 -2.938779069674e-04 0.0 
8.091584847085e-05 -3.253065883569e-04 0.0 
1.286337533025e-04 -3.107594621537e-04 0.0 
8.661570811736e-05 -2.621435504165e-04 0.0 
3.878094225195e-05 -3.398450053807e-04 0.0 
7.378378969681e-05 -3.513012508242e-04 0.0 
4.764910331706e-05 -4.600613147931e-04 0.0 
4.194835783944e-05 -4.517111355137e-04 0.0 
1.920936779329e-05 -4.512997732660e-04 0.0 
3.552229352162e-05 -4.418492309374e-04 0.0 
5.773790163394e-05 -4.438932770420e-04 0.0 
6.136742723964e-05 -4.536113172082e-04 0.0 
7.923152775702e-05 -4.562874205692e-04 0.0 
7.869657245448e-05 -4.633987100554e-04 0.0 
9.457243659284e-05 -4.586309122673e-04 0.0 
9.935384214833e-05 -4.493867817599e-04 0.0 
8.930633600099e-05 -4.642465974883e-04 0.0 
6.745466803837e-05 4.356874704829e-03 0.0 
1.285430878308e-04 3.866082277941e-03 0.0 
1.366297674522e-04 1.483165736858e-05 0.0 
9.785779303699e-04 8.973912227940e-03 0.0 
9.067818135152e-05 -4.411035813762e-04 0.0 
1.063521947746e-04 9.682684635917e-04 0.0 
1.673370837135e-04 7.960608028596e-04 0.0 
1.328313989671e-04 7.737731689643e-04 0.0 
2.370827408975e-05 -1.982446031660e-05 0.0 
3.836185419143e-05 -1.185135774795e-05 0.0 
5.765328585910e-05 9.430328052435e-04 0.0 
3.204843997990e-04 -3.917883345592e-04 0.0 
1.075839871791e-03 1.552796850596e-03 0.0 
2.997812192465e-04 2.593269770026e-03 0.0 
3.845939699933e-04 4.269091061049e-04 0.0 
4.221652335067e-04 -3.829222366760e-04 0.0 
1.337804023280e-04 -9.725142783835e-05 0.0 
4.134952454190e-04 -1.339489217174e-04 0.0 
1.581831817082e-04 -3.440185540745e-05 0.0 
2.450991154019e-04 -1.269964062790e-04 0.0 
2.730023609975e-04 -5.269041527197e-05 0.0 
4.440044786894e-04 7.034780604543e-05 0.0 
8.113910711723e-05 -4.250242901596e-04 0.0 
8.113582588746e-04 6.223092690184e-03 0.0 
5.172461603452e-04 6.587410080870e-03 0.0 
4.954392531556e-04 4.121965423598e-03 0.0 
2.171157587813e-04 -3.774040273756e-04 0.0 
1.721167013573e-04 -2.409044475850e-04 0.0 
1.815109689263e-04 -4.336030454093e-04 0.0 
1.044748676648e-03 5.843862707160e-04 0.0 
2.974340582929e-03 5.033711228219e-03 0.0 
7.774335996227e-04 -1.844696991238e-04 0.0 
3.535679867126e-04 -3.148006937523e-04 0.0 
3.857514532890e-04 -3.748416048129e-04 0.0 
4.270301065962e-04 -3.777403117017e-04 0.0 
2.213398782663e-03 1.469471511235e-03 0.0 
5.567013703963e-04 -2.445917420945e-04 0.0 
5.242416157141e-04 -5.482095178450e-05 0.0 
3.784177289762e-04 3.578385688466e-03 0.0 
1.018975954033e-04 -4.604433023270e-04 0.0 
5.458497198486e-04 -2.757000098905e-05 0.0 
5.567071000509e-04 -1.608674181621e-04 0.0 
1.153451549838e-03 5.805192179896e-03 0.0 
1.290598495103e-03 2.452643375426e-04 0.0 
3.036363879900e-04 -3.434276525446e-04 0.0 
7.319346579903e-04 3.753530479954e-03 0.0 
7.609751309520e-04 1.987617395458e-03 0.0 
1.475251570549e-03 6.816986103921e-03 0.0 
1.511870699623e-04 -4.476934858414e-04 0.0 
8.408462135066e-04 7.254845354958e-03 0.0 
4.130072000278e-04 3.309477248630e-05 0.0 
1.469483715148e-03 3.778094465459e-03 0.0 
1.693946792063e-04 -3.886905040145e-04 0.0 
1.337776246480e-03 6.293884661760e-05 0.0 
2.724178903358e-03 2.659523187739e-03 0.0 
2.146043100401e-03 8.794563065390e-03 0.0 
3.126164485243e-04 2.188204591284e-03 0.0 
2.103982301535e-03 8.344766638332e-04 0.0 
9.435182654096e-04 1.399199436759e-04 0.0 
1.307415448195e-03 1.118604241000e-04 0.0 
1.416811422596e-04 -3.736172731316e-04 0.0 
3.670237606912e-04 -2.132072184570e-05 0.0 
1.674837698380e-03 3.474367569050e-04 0.0 
5.968770162967e-04 2.776650305829e-03 0.0 
2.420487178680e-03 1.788729757753e-03 0.0 
1.255560944534e-03 9.445011891897e-05 0.0 
9.861572349179e-04 3.336810115805e-03 0.0 
9.425094014637e-04 -1.347526808809e-04 0.0 
1.284159540783e-03 2.938343736533e-04 0.0 
2.938941613060e-03 4.645088871839e-03 0.0 
2.799089075248e-03 2.441126517036e-03 0.0 
2.650869961362e-03 3.349653188097e-03 0.0 
2.522362895156e-03 1.543468519783e-03 0.0 
9.120821800999e-05 -1.163333671527e-04 0.0 
4.523652273762e-04 -2.500438250378e-05 0.0 
3.563579348206e-04 -8.376643155306e-05 0.0 
1.733677527150e-03 1.574551618888e-03 0.0 
1.432067719368e-03 5.794558163833e-03 0.0 
1.682213999928e-03 8.699135901619e-04 0.0 
4.252451256270e-04 1.809568753383e-03 0.0 
2.578255883251e-03 2.849134925120e-03 0.0 
3.587769442058e-04 -4.136839909589e-05 0.0 
7.850739994639e-04 2.407916076014e-03 0.0 
4.982842869170e-04 -2.305910039781e-04 0.0 
2.752573807798e-05 -4.114367537530e-04 0.0 
1.616089747736e-04 4.783991330479e-04 0.0 
9.507395264240e-04 8.031397669823e-05 0.0 
1.941486921281e-03 6.561162390470e-04 0.0 
4.980739737440e-04 -1.890292019713e-04 0.0 
8.451247599914e-04 1.457353435208e-03 0.0 
2.868445303211e-04 -3.427237387378e-05 0.0 
7.835025348487e-04 9.661884445542e-06 0.0 
-2.992408207788e-04 9.265065569309e-04 0.0 
2.414012993332e-03 7.944010163727e-03 0.0 
2.225363004337e-04 -2.737452542997e-05 0.0 
1.237476092177e-03 1.315625541186e-05 0.0 
1.094123666013e-03 2.227435772563e-04 0.0 
7.353721295601e-05 -2.084714571877e-04 0.0 
1.014228208714e-03 5.069901539118e-04 0.0 
2.332337712140e-03 6.872915276589e-03 0.0 
1.659892438595e-04 -2.082759410533e-05 0.0 
9.382638916126e-04 6.286328416605e-05 0.0 
1.245808425095e-03 7.108748981846e-04 0.0 
2.769778729688e-04 9.058958459590e-03 0.0 
1.038845714065e-04 -3.509585019701e-06 0.0 
7.965159389551e-04 7.779957360728e-05 0.0 
2.450886042742e-03 1.394976816746e-03 0.0 
1.128207279260e-03 -5.613832151869e-05 0.0 
2.153431906769e-03 8.929684143256e-03 0.0 
4.321266171702e-04 -1.738249472336e-04 0.0 
2.782368760774e-03 2.621633410758e-03 0.0 
3.182802499719e-04 6.918809092117e-04 0.0 
7.870203547269e-04 1.066610163375e-04 0.0 
2.162439014883e-03 4.906925523090e-03 0.0 
3.787434731601e-04 -1.980244865808e-04 0.0 
1.849800737114e-03 5.644004474393e-04 0.0 
7.876131043709e-05 -4.466615942308e-04 0.0 
2.471602468087e-03 7.823989306617e-03 0.0 
3.190819498644e-04 -1.809824980985e-04 0.0 
9.642680506415e-04 -1.671145123748e-05 0.0 
1.037828031615e-03 -8.136822153029e-05 0.0 
8.416500678172e-04 2.552567390555e-04 0.0 
2.609307687202e-04 -1.639641795299e-04 0.0 
1.102289774911e-03 -4.851887437880e-06 0.0 
2.046646752253e-04 -1.473628278194e-04 0.0 
1.984004057546e-03 8.448764717605e-03 0.0 
2.231262164297e-03 4.285869983315e-03 0.0 
1.487695971184e-04 -1.313795230255e-04 0.0 
2.581921387728e-03 2.225606066165e-03 0.0 
1.192492124944e-04 -4.519310252044e-04 0.0 
2.273308307562e-03 1.094364374779e-03 0.0 
5.598996442226e-05 -2.962503988462e-05 0.0 
5.369275494950e-04 -3.287826081866e-04 0.0 
9.460099656856e-04 -9.579317206813e-05 0.0 
2.018128583966e-03 3.439062466238e-03 0.0 
1.531623819212e-03 7.011670790767e-03 0.0 
9.217910826209e-04 -5.721635901690e-05 0.0 
2.307152174576e-03 1.829816352729e-03 0.0 
2.087948648745e-03 8.548760520919e-04 0.0 
1.972536594561e-03 6.346421274203e-04 0.0 
8.677852231371e-04 -2.124728647670e-05 0.0 
1.783126108654e-03 5.060140029686e-03 0.0 
3.355242262736e-04 -4.011943067349e-04 0.0 
2.865402772269e-04 -4.210020201041e-04 0.0 
1.071937162284e-03 -7.141477285874e-05 0.0 
2.140780733092e-03 1.812291112773e-03 0.0 
5.545416607905e-05 -4.323714989352e-04 0.0 
2.248364393100e-03 3.134832945508e-03 0.0 
2.275432295362e-04 -4.328773996705e-04 0.0 
9.405246636364e-04 -1.447664814428e-04 0.0 
1.673184075892e-03 5.744516328815e-04 0.0 
7.991969519617e-05 6.312379331546e-03 0.0 
9.072494358729e-04 -1.829014868245e-04 0.0 
3.008458936271e-05 -3.908643357196e-04 0.0 
7.934852967004e-04 -2.374574778743e-04 0.0 
1.941807849940e-03 6.042461129207e-04 0.0 
7.589308394317e-04 -2.544904250328e-04 0.0 
6.599739676012e-04 -2.952141742378e-04 0.0 
2.093206615534e-04 1.663507993337e-03 0.0 
6.241105616107e-04 -2.977710132607e-04 0.0 
2.881063678389e-05 7.801049134291e-04 0.0 
1.651466883567e-05 -4.284959561196e-07 0.0 
1.041106292250e-04 8.292052158628e-03 0.0 
8.627356799873e-04 4.828190412575e-03 0.0 
-2.224957362670e-04 1.295519657528e-04 0.0 
1.057536847724e-03 3.248898679761e-03 0.0 
4.840095509795e-04 -3.582514979583e-04 0.0 
2.409037529609e-03 2.743790839927e-03 0.0 
2.161388912401e-04 8.248403525767e-03 0.0 
4.065537928342e-04 -3.818465566262e-04 0.0 
1.051466994481e-03 1.045455054162e-03 0.0 
4.795247859092e-04 1.982921603268e-04 0.0 
1.445260036209e-04 4.795334577626e-03 0.0 
9.257421171863e-04 1.712833546695e-04 0.0 
1.889925939290e-03 6.617987588051e-04 0.0 
4.187999669591e-05 2.462940905213e-03 0.0 
6.352568204666e-04 9.153883323872e-03 0.0 
1.186818241890e-04 -4.352261734455e-04 0.0 
4.363071015550e-05 -9.873266367696e-05 0.0 
2.384401808254e-04 3.128077453318e-03 0.0 
3.656918110992e-04 2.085607034364e-03 0.0 
5.396838151738e-05 1.374736155119e-03 0.0 
1.088448112366e-04 -3.610567120681e-04 0.0 
1.570378540942e-04 -3.671878421059e-04 0.0 
-3.666002797720e-05 2.079167799895e-03 0.0 
6.085235228436e-04 1.394115678642e-04 0.0 
1.067900010024e-03 8.230464665935e-03 0.0 
1.654326549884e-03 6.339027994650e-04 0.0 
-2.091921419466e-04 1.394448688187e-03 0.0 
5.481370647287e-04 1.537844496095e-03 0.0 
8.797020882104e-04 3.205571671367e-04 0.0 
9.073118169954e-05 7.381423509815e-06 0.0 
1.308882983255e-03 4.862040411603e-04 0.0 
-1.156343969238e-04 9.001404545932e-04 0.0 
1.617419778751e-03 7.151258398768e-03 0.0 
1.063753476851e-03 6.640391050367e-04 0.0 
1.965777524909e-04 4.006800314853e-03 0.0 
6.390706695313e-05 3.975883315043e-06 0.0 
1.344148585758e-03 8.250185835668e-03 0.0 
1.256028005407e-04 1.552237077558e-03 0.0 
2.752239055455e-04 -1.548559828785e-04 0.0 
6.367716620435e-05 1.507533275229e-03 0.0 
2.079744368015e-03 2.144467788969e-03 0.0 
4.424791456851e-04 7.044182309393e-03 0.0 
1.957514708089e-03 6.912779324406e-03 0.0 
4.613085635335e-05 -5.324722494752e-06 0.0 
9.560762706470e-04 1.217984000379e-03 0.0 
-1.706951405383e-04 6.983197828842e-04 0.0 
2.270178391860e-04 4.898462213829e-03 0.0 
1.737282999006e-04 -3.126125376795e-04 0.0 
-3.268115341870e-05 -9.295024715487e-05 0.0 
2.363965624853e-04 1.677785371042e-05 0.0 
1.682809110158e-03 1.579663954372e-03 0.0 
7.814217100961e-05 -4.080960143745e-06 0.0 
1.570929213426e-05 -4.415824382520e-04 0.0 
1.191337882174e-04 -4.562202151027e-04 0.0 
2.792742454639e-04 3.023012890814e-05 0.0 
1.019302629149e-03 8.019577257015e-04 0.0 
3.505547549230e-04 -2.491934377236e-04 0.0 
1.819337433357e-04 6.132015281243e-04 0.0 
-2.571128299644e-04 5.647504063805e-04 0.0 
8.586784287821e-04 9.263736649599e-03 0.0 
1.046543556993e-04 -4.604633701537e-04 0.0 
4.982225957014e-05 2.407312684243e-06 0.0 
3.129598881924e-04 1.470532887492e-03 0.0 
1.216923226975e-04 -2.792919345867e-04 0.0 
1.873129253794e-03 8.445166841124e-03 0.0 
6.649417054554e-05 -3.762879136527e-04 0.0 
1.325252036999e-03 6.485662028955e-04 0.0 
1.588560388527e-04 -4.247153705104e-04 0.0 
2.099124225212e-04 1.395836756182e-03 0.0 
3.459457046516e-04 5.090290422365e-05 0.0 
6.706846776157e-04 1.263970741149e-03 0.0 
2.750747957611e-04 7.919094092788e-05 0.0 
-1.481179007949e-04 2.190681787010e-04 0.0 
8.080202840380e-04 3.223498519516e-04 0.0 
6.196432656987e-04 9.628348959398e-05 0.0 
4.797487892186e-04 9.188708241980e-03 0.0 
8.408291852055e-04 1.275211298327e-03 0.0 
1.122499263499e-04 -3.371114416065e-04 0.0 
1.188534481852e-04 -4.413882813604e-04 0.0 
1.214117482702e-05 6.910748228617e-04 0.0 
1.418017585896e-05 -4.591222895430e-04 0.0 
8.156229817568e-05 9.171022592196e-03 0.0 
6.399260512865e-06 -7.140521591106e-07 0.0 
7.467156450381e-05 -4.371746796699e-04 0.0 
1.714066459626e-04 7.555753393713e-03 0.0 
9.678360135230e-04 8.494628511235e-04 0.0 
3.239112017875e-05 -2.018523083175e-04 0.0 
9.665009839260e-05 3.095745087770e-03 0.0 
2.201576089601e-04 -3.461060554636e-04 0.0 
-1.799399863973e-04 -1.773565178322e-05 0.0 
1.376775073186e-04 5.812813799154e-03 0.0 
7.427063027156e-04 2.461482033918e-04 0.0 
5.153252191982e-04 1.262342941711e-03 0.0 
3.554216545632e-04 6.493677516818e-03 0.0 
-1.631396134938e-06 5.496780906324e-04 0.0 
1.328135018261e-03 1.167738085219e-03 0.0 
1.297681420410e-04 -2.522979356480e-04 0.0 
1.394469032419e-03 8.553716203395e-04 0.0 
7.495217740488e-04 1.501226487351e-04 0.0 
-3.757148528212e-04 6.307750893014e-04 0.0 
2.824882896969e-05 -1.659323583383e-04 0.0 
1.108344872546e-04 -4.608799869295e-04 0.0 
1.496488211480e-04 5.689768539884e-06 0.0 
8.616011249033e-05 -2.346527072103e-04 0.0 
5.795848184264e-04 9.913803460354e-03 0.0 
7.492767365458e-05 1.348282062197e-02 0.0 
1.385221702656e-03 1.036989216232e-02 0.0 
6.034509069062e-05 1.245872961233e-02 0.0 
1.711154148774e-03 1.026594851264e-02 0.0 
5.736378175623e-05 1.143958896909e-02 0.0 
1.780589917358e-03 9.817194674061e-03 0.0 
5.546631783786e-05 1.042241145658e-02 0.0 

VECTORS node_materi_displacement float
0.0 7.526882424268e-02 0.0 
0.0 1.225983893870e-01 0.0 
0.0 0.0 0.0 
0.0 0.0 0.0 
0.0 7.545460263350e-02 0.0 
0.0 7.514965292366e-02 0.0 
0.0 7.437900035401e-02 0.0 
0.0 7.315441276305e-02 0.0 
0.0 7.147374015124e-02 0.0 
0.0 6.937923336858e-02 0.0 
0.0 6.689286459779e-02 0.0 
0.0 6.402730108420e-02 0.0 
0.0 6.079604829950e-02 0.0 
0.0 5.720293350520e-02 0.0 
0.0 5.324088921660e-02 0.0 
0.0 4.890648486661e-02 0.0 
0.0 4.419999254004e-02 0.0 
0.0 3.912929782431e-02 0.0 
0.0 3.365223217894e-02 0.0 
0.0 2.776685443238e-02 0.0 
0.0 2.146677192093e-02 0.0 
0.0 1.473789816004e-02 0.0 
0.0 7.575112682500e-03 0.0 
0.0 0.0 0.0 
0.0 0.0 0.0 
0.0 0.0 0.0 
0.0 0.0 0.0 
0.0 0.0 0.0 
0.0 0.0 0.0 
0.0 0.0 0.0 
0.0 0.0 0.0 
0.0 0.0 0.0 
0.0 0.0 0.0 
0.0 0.0 0.0 
0.0 0.0 0.0 
0.0 0.0 0.0 
0.0 0.0 0.0 
0.0 0.0 0.0 
0.0 0.0 0.0 
0.0 0.0 0.0 
0.0 0.0 0.0 
0.0 0.0 0.0 
0.0 0.0 0.0 
0.0 0.0 0.0 
0.0 0.0 0.0 
0.0 0.0 0.0 
0.0 0.0 0.0 
0.0 0.0 0.0 
0.0 0.0 0.0 
0.0 0.0 0.0 
0.0 0.0 0.0 
0.0 0.0 0.0 
0.0 0.0 0.0 
0.0 0.0 0.0 
0.0 0.0 0.0 
0.0 0.0 0.0 
0.0 0.0 0.0 
0.0 0.0 0.0 
0.0 0.0 0.0 
0.0 0.0 0.0 
0.0 0.0 0.0 
0.0 0.0 0.0 
0.0 0.0 0.0 
0.0 0.0 0.0 
0.0 0.0 0.0 
0.0 0.0 0.0 
0.0 0.0 0.0 
0.0 0.0 0.0 
0.0 0.0 0.0 
0.0 0.0 0.0 
0.0 0.0 0.0 
0.0 0.0 0.0 
0.0 1.120632748056e-01 0.0 
0.0 1.011133312346e-01 0.0 
0.0 8.975429687074e-02 0.0 
0.0 7.800727740752e-02 0.0 
0.0 6.587648348467e-02 0.0 
0.0 5.338144133769e-02 0.0 
0.0 4.053373234319e-02 0.0 
0.0 2.734592256788e-02 0.0 
0.0 1.383366810613e-02 0.0 
-1.390407010825e-02 4.724299920616e-02 0.0 
1.492963485292e-02 1.186328772599e-01 0.0 
-6.545180316716e-03 7.177938923837e-02 0.0 
-6.775906897706e-04 9.107859659072e-02 0.0 
4.203173770085e-03 1.070616473122e-01 0.0 
8.154242530607e-03 1.197120493357e-01 0.0 
1.172033480069e-02 1.291622753473e-01 0.0 
1.416626922359e-02 1.348867295081e-01 0.0 
1.601706195448e-02 1.352513137394e-01 0.0 
1.657052983711e-02 1.319057618557e-01 0.0 
1.609621404015e-02 1.261501077076e-01 0.0 
0.0 1.604448789013e-01 0.0 
0.0 1.516320170338e-01 0.0 
0.0 1.423719713102e-01 0.0 
0.0 1.327129736984e-01 0.0 
8.462724894385e-04 1.226041007157e-01 0.0 
1.685392248175e-03 1.226195419873e-01 0.0 
2.538140049773e-03 1.226388441412e-01 0.0 
3.402461880556e-03 1.226522285562e-01 0.0 
4.279125957453e-03 1.226672888423e-01 0.0 
5.172461059226e-03 1.226535656820e-01 0.0 
6.092131090676e-03 1.226226115249e-01 0.0 
7.030704104680e-03 1.225403998911e-01 0.0 
8.012640585281e-03 1.224139030804e-01 0.0 
9.034599216655e-03 1.221938628377e-01 0.0 
1.009678293178e-02 1.218627831176e-01 0.0 
1.121135809153e-02 1.213903968281e-01 0.0 
1.238151273221e-02 1.207299457760e-01 0.0 
1.361585277251e-02 1.198254451703e-01 0.0 
-1.119817545830e-02 3.331739808028e-02 0.0 
-7.149951001728e-03 2.592681379237e-02 0.0 
-2.771050223215e-03 2.299710853812e-02 0.0 
1.845490471236e-03 2.469910860665e-02 0.0 
5.071658139850e-03 3.320146045265e-02 0.0 
6.776444103729e-03 4.339211005486e-02 0.0 
7.432117523541e-03 5.018865154517e-02 0.0 
7.546130984947e-03 5.547662730533e-02 0.0 
7.089425705895e-03 5.972168422067e-02 0.0 
6.603817639791e-03 6.313567410574e-02 0.0 
6.109676064984e-03 6.592010485413e-02 0.0 
5.531556842131e-03 6.814674230110e-02 0.0 
4.968825810781e-03 6.999080167759e-02 0.0 
4.273864070966e-03 7.149617604955e-02 0.0 
3.578295953733e-03 7.270763050787e-02 0.0 
2.901468120452e-03 7.364699616922e-02 0.0 
2.220075592613e-03 7.437366273572e-02 0.0 
1.525472664412e-03 7.490095746853e-02 0.0 
7.736154443439e-04 7.519134150146e-02 0.0 
8.800240721595e-04 1.604835502050e-01 0.0 
1.686447943081e-03 1.604811288857e-01 0.0 
2.490858309126e-03 1.604982416754e-01 0.0 
3.291201407496e-03 1.605144762605e-01 0.0 
4.081145967956e-03 1.605232185400e-01 0.0 
4.855336559355e-03 1.605156935998e-01 0.0 
5.608742996078e-03 1.604799335560e-01 0.0 
6.336567893498e-03 1.604008058048e-01 0.0 
7.033929951653e-03 1.602596653623e-01 0.0 
7.695575936110e-03 1.600331631172e-01 0.0 
8.316464730803e-03 1.596925681330e-01 0.0 
8.892235021944e-03 1.592025489517e-01 0.0 
9.419648451683e-03 1.585201520714e-01 0.0 
9.897046194167e-03 1.575933012592e-01 0.0 
1.032500320173e-02 1.563553138223e-01 0.0 
1.071156265756e-02 1.547235312662e-01 0.0 
1.107541770254e-02 1.525899276078e-01 0.0 
1.145904462117e-02 1.498160217006e-01 0.0 
1.194456909785e-02 1.462393449849e-01 0.0 
1.251270142120e-02 1.415580540720e-01 0.0 
1.483184656879e-02 1.393517069181e-01 0.0 
1.388573318178e-02 1.424871391365e-01 0.0 
1.301506682825e-02 1.448916945545e-01 0.0 
1.223049881597e-02 1.467583410754e-01 0.0 
1.148777517017e-02 1.481771483665e-01 0.0 
1.076806202528e-02 1.492533952575e-01 0.0 
1.005305967097e-02 1.500530268505e-01 0.0 
9.334984000812e-03 1.506383987088e-01 0.0 
8.608908341863e-03 1.510552397161e-01 0.0 
7.872462612644e-03 1.513413137068e-01 0.0 
7.124476967019e-03 1.515276259032e-01 0.0 
6.364647560087e-03 1.516397983435e-01 0.0 
5.594330853366e-03 1.516989010556e-01 0.0 
4.814982141641e-03 1.517216508911e-01 0.0 
4.027993584015e-03 1.517210117765e-01 0.0 
3.234526991155e-03 1.517074507868e-01 0.0 
2.435512175275e-03 1.516883762047e-01 0.0 
1.630485641242e-03 1.516660677524e-01 0.0 
8.164806318620e-04 1.516188545511e-01 0.0 
8.373047959572e-04 1.424093180653e-01 0.0 
1.678010912673e-03 1.424160617411e-01 0.0 
2.516483051381e-03 1.424399592129e-01 0.0 
3.354848523468e-03 1.424614936205e-01 0.0 
4.193644329694e-03 1.424764021067e-01 0.0 
5.035129835499e-03 1.424758745708e-01 0.0 
5.879623827027e-03 1.424493634510e-01 0.0 
6.729846873491e-03 1.423822539920e-01 0.0 
7.585312713617e-03 1.422572144638e-01 0.0 
8.449385235956e-03 1.420476664240e-01 0.0 
9.326616304855e-03 1.417249111525e-01 0.0 
1.022144724619e-02 1.412546357684e-01 0.0 
1.114138271269e-02 1.405926935303e-01 0.0 
1.209744188935e-02 1.396870692572e-01 0.0 
1.309785646817e-02 1.384562657940e-01 0.0 
1.417387623887e-02 1.368375940290e-01 0.0 
1.530401214032e-02 1.346962268585e-01 0.0 
1.482772120021e-02 1.279576955998e-01 0.0 
1.365721423583e-02 1.293538628729e-01 0.0 
1.252101893221e-02 1.303876922243e-01 0.0 
1.145087366214e-02 1.311684072421e-01 0.0 
1.043138775932e-02 1.317384372209e-01 0.0 
9.452638593097e-03 1.321436576314e-01 0.0 
8.508268970535e-03 1.324235020235e-01 0.0 
7.592661229098e-03 1.326033341432e-01 0.0 
6.698564129242e-03 1.327077309876e-01 0.0 
5.826266778559e-03 1.327682784081e-01 0.0 
4.967990650276e-03 1.327892337155e-01 0.0 
4.124173311021e-03 1.327904038145e-01 0.0 
3.288088067933e-03 1.327744796337e-01 0.0 
2.460236835512e-03 1.327547608585e-01 0.0 
1.638174178277e-03 1.327295139560e-01 0.0 
8.163138629765e-04 1.326863953517e-01 0.0 
-9.805021359449e-03 6.090747456656e-02 0.0 
-3.506023226203e-03 8.183387456284e-02 0.0 
1.893571932505e-03 9.949162627984e-02 0.0 
6.273616749620e-03 1.137987791788e-01 0.0 
1.007185359236e-02 1.249200976869e-01 0.0 
1.323954888997e-02 1.325992559001e-01 0.0 
1.530321243516e-02 1.355925646286e-01 0.0 
1.647242788792e-02 1.339234178073e-01 0.0 
1.645765596615e-02 1.292743597941e-01 0.0 
1.559438627773e-02 1.225781673796e-01 0.0 
3.687440052645e-03 8.058116137833e-02 0.0 
2.533094378256e-03 6.622559884306e-03 0.0 
4.048281621874e-03 6.147881171498e-02 0.0 
-4.442630772069e-04 3.048902136414e-02 0.0 
1.000969376612e-03 6.349716922195e-03 0.0 
1.196236952790e-02 1.099699258673e-01 0.0 
-3.482851758003e-05 5.513195654339e-02 0.0 
3.863677260862e-03 7.394911552636e-03 0.0 
1.734799376407e-02 1.252341235903e-01 0.0 
4.513688152557e-03 8.310272763751e-03 0.0 
1.856229282774e-02 1.252805502820e-01 0.0 
2.704748978377e-04 5.931846825053e-03 0.0 
3.358210870829e-03 7.102739783329e-02 0.0 
4.475161994411e-03 9.699487587744e-03 0.0 
1.629626777967e-02 1.131945324090e-01 0.0 
-5.160526092680e-05 6.802695889853e-02 0.0 
1.995533705798e-05 4.270712286277e-02 0.0 
4.068976041830e-03 1.096334801278e-02 0.0 
2.811785234256e-03 1.120199427516e-02 0.0 
8.109847348471e-04 1.181481597100e-02 0.0 
1.492680084202e-03 1.273417170157e-02 0.0 
1.992973662964e-03 1.124630001433e-02 0.0 
1.323412955187e-02 1.109895247160e-01 0.0 
8.609202168072e-03 1.127786501753e-01 0.0 
5.637181062067e-03 1.128662725379e-01 0.0 
5.471696664513e-04 7.180471484685e-02 0.0 
5.384917067052e-05 6.527415312472e-03 0.0 
-3.968668203265e-03 3.255421531913e-02 0.0 
1.953239127012e-03 7.415576530645e-02 0.0 
2.644694831671e-05 2.513535718734e-02 0.0 
2.894361130412e-03 1.135902230059e-01 0.0 
1.518296308758e-04 7.375637722483e-02 0.0 
3.863490577057e-03 1.258326704325e-02 0.0 
3.962619229789e-03 7.212268469294e-03 0.0 
4.542163992411e-03 8.884422220982e-03 0.0 
3.461231577005e-03 7.376930926511e-03 0.0 
1.754890980419e-03 6.119619299888e-03 0.0 
2.217435911959e-03 4.670465489457e-02 0.0 
1.080568273433e-02 1.127543313125e-01 0.0 
6.564561280094e-04 7.278335961949e-03 0.0 
4.090986569930e-04 4.755124735212e-02 0.0 
3.958253694617e-03 6.711023704081e-02 0.0 
-6.484578989227e-05 6.238452436374e-02 0.0 
4.038270506102e-04 9.625485721907e-03 0.0 
1.524927785116e-02 1.185824069284e-01 0.0 
8.238100348334e-03 9.706904248765e-02 0.0 
1.851720043941e-02 1.273032108817e-01 0.0 
1.773901918191e-02 1.202889686605e-01 0.0 
-2.378453256066e-03 6.065496584707e-02 0.0 
6.632309899248e-04 9.412868930364e-02 0.0 
1.130872086212e-05 5.206133732762e-03 0.0 
9.028356977447e-04 7.521982812288e-02 0.0 
2.229070124842e-04 2.164439846641e-02 0.0 
1.560754106559e-02 1.087614787808e-01 0.0 
1.668527931388e-02 1.033397851920e-01 0.0 
1.535237426358e-02 9.971693694155e-02 0.0 
1.658241416161e-02 9.329542051347e-02 0.0 
1.526485968688e-02 8.845765618009e-02 0.0 
1.614671927390e-02 8.265731615832e-02 0.0 
1.760685277222e-02 8.724844705737e-02 0.0 
1.690103514425e-02 7.671748923342e-02 0.0 
1.846930353629e-02 8.115908937753e-02 0.0 
1.463199245154e-02 7.753415551007e-02 0.0 
1.746738054372e-02 7.068397738863e-02 0.0 
1.912480074824e-02 7.496535119442e-02 0.0 
1.781430560179e-02 6.462518439675e-02 0.0 
1.952917523935e-02 6.872874748625e-02 0.0 
2.067905035881e-02 7.871645695133e-02 0.0 
2.112357344338e-02 7.231806459431e-02 0.0 
2.209216921963e-02 8.185057685125e-02 0.0 
2.255153711818e-02 7.525887117395e-02 0.0 
2.126938551156e-02 6.600269447783e-02 0.0 
2.268504700418e-02 6.880143275966e-02 0.0 
2.377698735213e-02 7.751968992715e-02 0.0 
2.386691025394e-02 7.092135261641e-02 0.0 
2.475698085918e-02 7.904625283839e-02 0.0 
2.477554453506e-02 7.230830553577e-02 0.0 
2.546083994315e-02 7.981672004708e-02 0.0 
2.538572611734e-02 7.298771279193e-02 0.0 
2.442957116842e-02 6.588463774319e-02 0.0 
2.493713094393e-02 6.655349348075e-02 0.0 
2.566693428093e-02 7.295972752547e-02 0.0 
2.510146036477e-02 6.656011819406e-02 0.0 
2.559977134934e-02 7.224551000533e-02 0.0 
2.490576843356e-02 6.593144869762e-02 0.0 
2.418604006436e-02 6.064405658224e-02 0.0 
2.386449513517e-02 6.018348408127e-02 0.0 
2.434006733038e-02 6.471780188073e-02 0.0 
2.317015869030e-02 5.921632275195e-02 0.0 
2.340060813450e-02 6.297937624762e-02 0.0 
2.210337253485e-02 5.780864686490e-02 0.0 
2.209119926535e-02 6.078148718047e-02 0.0 
2.065879584043e-02 5.603220949896e-02 0.0 
2.054345231790e-02 5.330563677270e-02 0.0 
1.899564204024e-02 5.200778727880e-02 0.0 
1.884673870812e-02 5.399967223966e-02 0.0 
1.710745126781e-02 5.057562764311e-02 0.0 
1.719254494818e-02 4.867852179009e-02 0.0 
1.528408654573e-02 4.787337943980e-02 0.0 
1.532844721737e-02 4.595104424057e-02 0.0 
1.345675059805e-02 4.576222027075e-02 0.0 
1.313692459415e-02 4.715744239513e-02 0.0 
1.139691416283e-02 4.571360618757e-02 0.0 
1.169015756375e-02 4.410345352833e-02 0.0 
9.759499217065e-03 4.466989746478e-02 0.0 
9.211962392435e-03 4.594014918820e-02 0.0 
7.778916454819e-03 4.549656218418e-02 0.0 
8.267700844081e-03 4.386550203024e-02 0.0 
6.495263224597e-03 4.520621404069e-02 0.0 
5.831313103726e-03 4.666978084339e-02 0.0 
4.799734419913e-03 4.683098994959e-02 0.0 
5.378996763660e-03 4.491951761750e-02 0.0 
3.912034188608e-03 4.692550580598e-02 0.0 
3.248542321125e-03 4.877085231914e-02 0.0 
2.610062008352e-03 4.914146426513e-02 0.0 
3.160935362559e-03 4.685426823789e-02 0.0 
2.070886597235e-03 4.930804688464e-02 0.0 
2.516984663892e-03 4.660064018251e-02 0.0 
1.497345320232e-03 5.160694552877e-02 0.0 
1.166159555643e-03 5.189915880726e-02 0.0 
6.252958279996e-04 5.424723006252e-02 0.0 
4.696545269552e-04 5.458195272342e-02 0.0 
2.296245374612e-02 5.522890436890e-02 0.0 
2.364989706861e-05 5.694575157985e-02 0.0 
7.100522954549e-05 5.622053803122e-02 0.0 
-1.008459332269e-05 5.728822346707e-02 0.0 
3.390900419254e-04 5.460683987777e-02 0.0 
-3.310485627602e-04 5.965391292389e-02 0.0 
-2.892459798067e-04 5.995450104580e-02 0.0 
-4.679117892042e-04 6.229270371179e-02 0.0 
2.318019580911e-02 6.641397148321e-02 0.0 
2.109734598185e-02 5.983112963177e-02 0.0 
-3.969100547410e-04 6.251724737634e-02 0.0 
-4.338002770685e-04 6.478844136766e-02 0.0 
-5.093877368433e-04 6.433542304843e-02 0.0 
-3.086318617108e-04 6.674412140365e-02 0.0 
1.384938534896e-02 8.336802991697e-02 0.0 
1.306682006768e-02 7.205510438615e-02 0.0 
1.240930801112e-02 7.791312493366e-02 0.0 
1.147375387735e-02 6.630888824746e-02 0.0 
1.093979680343e-02 7.209204231902e-02 0.0 
-2.874153890580e-04 6.708040927396e-02 0.0 
1.599931499867e-02 5.973752829759e-02 0.0 
1.187541199500e-02 6.036344490227e-02 0.0 
2.436446974139e-02 8.604147489292e-02 0.0 
2.590244751602e-02 7.909651607484e-02 0.0 
1.693758517167e-02 4.616006204403e-02 0.0 
-2.543996749547e-04 5.992974497506e-02 0.0 
-3.365792094480e-04 6.242728791263e-02 0.0 
-2.201957817246e-04 5.960069594097e-02 0.0 
3.546182690052e-03 4.410301481830e-02 0.0 
2.811668598916e-03 4.346368106759e-02 0.0 
3.742852575011e-03 4.087704433826e-02 0.0 
2.941603776843e-03 3.987333270625e-02 0.0 
3.743880216799e-03 3.716271072614e-02 0.0 
2.903593664060e-03 3.580878306234e-02 0.0 
2.260446142409e-03 3.869331227483e-02 0.0 
2.194634287836e-03 3.428586615690e-02 0.0 
1.691386593373e-03 3.731961367466e-02 0.0 
3.553477291121e-03 3.294688822883e-02 0.0 
4.550291503327e-03 3.450031504875e-02 0.0 
1.608504918022e-03 3.258455244555e-02 0.0 
1.226082659642e-03 3.574195380474e-02 0.0 
1.135987482672e-03 3.069321040402e-02 0.0 
8.558128362526e-04 3.396052773948e-02 0.0 
8.736256671613e-04 3.887060960029e-02 0.0 
5.994024950726e-04 3.717777550543e-02 0.0 
5.689978488766e-04 4.195158259564e-02 0.0 
1.503750217742e-02 4.338981944795e-02 0.0 
1.633702088196e-02 4.302523949988e-02 0.0 
1.440670015525e-02 4.020513923978e-02 0.0 
1.537794522406e-02 3.928247507520e-02 0.0 
1.343143753118e-02 3.640641316919e-02 0.0 
1.405790746982e-02 3.494284800147e-02 0.0 
1.210965763233e-02 3.200145299206e-02 0.0 
1.153163662785e-02 3.380930280098e-02 0.0 
1.792369494933e-02 5.850783796748e-02 0.0 
1.668304123988e-02 5.183618544837e-02 0.0 
1.833928190924e-02 5.539421259824e-02 0.0 
1.592577691404e-02 5.244427946954e-02 0.0 
1.746995030844e-02 5.617709597248e-02 0.0 
1.483966474954e-02 5.236417694117e-02 0.0 
1.624249559726e-02 5.635712813823e-02 0.0 
1.343925401184e-02 5.157661448411e-02 0.0 
1.188905892097e-02 4.869982056079e-02 0.0 
1.028641734419e-02 4.696114133546e-02 0.0 
8.671562338269e-03 4.551338674710e-02 0.0 
6.872648343898e-03 4.297634055572e-02 0.0 
5.341867218750e-03 4.318548805813e-02 0.0 
2.373938971699e-02 5.983060464966e-02 0.0 
1.602507589767e-02 3.817304589612e-02 0.0 
1.434781944156e-02 3.325403452329e-02 0.0 
1.631073789618e-02 3.678812344591e-02 0.0 
-3.395576562249e-04 6.608484537914e-02 0.0 
5.701733578607e-04 3.197760998283e-02 0.0 
4.167849485213e-03 3.009573802206e-02 0.0 
5.310609507956e-03 3.191102666216e-02 0.0 
1.022743922009e-02 2.927754000754e-02 0.0 
-3.403091595719e-05 6.889604369018e-02 0.0 
1.465776254890e-02 5.596656658952e-02 0.0 
1.720266117832e-02 6.168758235632e-02 0.0 
9.890711285479e-03 6.019916181132e-02 0.0 
9.482678746215e-03 6.597612917868e-02 0.0 
4.698530306867e-03 2.724414778761e-02 0.0 
-8.802167525651e-05 6.912759845177e-02 0.0 
1.995226067255e-03 2.940482112692e-02 0.0 
8.401460595773e-03 4.433278732505e-02 0.0 
3.914528757863e-04 3.527919197384e-02 0.0 
3.581809615991e-04 2.980616907140e-02 0.0 
1.660243506014e-03 4.158509696210e-02 0.0 
1.426937681218e-02 3.126632698658e-02 0.0 
1.624848182801e-02 3.514265918121e-02 0.0 
7.142307017964e-03 4.529087945190e-02 0.0 
4.072920886284e-03 4.437336515436e-02 0.0 
2.145863402363e-03 4.209327285284e-02 0.0 
1.353598525342e-03 4.476242838714e-02 0.0 
3.108613774128e-03 4.609955400864e-02 0.0 
8.271436312736e-04 4.731538369029e-02 0.0 
-7.193010158787e-04 4.629370661024e-02 0.0 
-8.277046741835e-04 4.950635322956e-02 0.0 
5.188940614056e-04 4.977022354557e-02 0.0 
-7.460522227756e-04 5.231446379609e-02 0.0 
-1.655956329728e-03 5.247728195268e-02 0.0 
-1.343493313521e-03 5.535002041119e-02 0.0 
4.889278199623e-04 2.633276319378e-02 0.0 
4.846155919038e-03 3.956953168055e-02 0.0 
2.132766039002e-02 8.846667562902e-02 0.0 
3.591783350048e-03 2.514643885924e-02 0.0 
1.047213610479e-02 2.706723694246e-02 0.0 
8.342947751019e-03 5.381599284922e-02 0.0 
8.057417780002e-03 5.960400434307e-02 0.0 
8.968777170128e-03 7.171655503134e-02 0.0 
7.658061803823e-03 6.532953129868e-02 0.0 
6.685745121844e-03 5.299793236869e-02 0.0 
6.398884421666e-03 5.875484836002e-02 0.0 
7.169829955167e-03 7.098730162648e-02 0.0 
6.013359175742e-03 6.443745564163e-02 0.0 
6.612214753273e-03 7.654892423264e-02 0.0 
5.548794959266e-03 7.003082747589e-02 0.0 
4.919136841592e-03 5.771612460093e-02 0.0 
4.541590319726e-03 6.336772255941e-02 0.0 
5.022220187194e-03 7.553949233496e-02 0.0 
4.091122937947e-03 6.893622799117e-02 0.0 
4.445983562011e-03 8.095026325065e-02 0.0 
3.580211404368e-03 7.441511600270e-02 0.0 
3.224849579087e-03 6.220294199031e-02 0.0 
2.313311929765e-04 7.068238422582e-02 0.0 
9.722057641379e-03 3.141737932402e-02 0.0 
8.449192904837e-03 2.670408727350e-02 0.0 
-2.798860293916e-04 6.200947680748e-02 0.0 
-1.814296942341e-04 5.895424792941e-02 0.0 
-6.830893167402e-05 5.642755192747e-02 0.0 
-7.063175473042e-05 5.558098040104e-02 0.0 
2.764971123682e-03 6.781249551497e-02 0.0 
2.432974526967e-03 5.535926546571e-02 0.0 
1.528755396989e-02 6.196565432180e-02 0.0 
1.752384274980e-02 6.838037672724e-02 0.0 
8.487172010572e-03 4.797255253929e-02 0.0 
2.401599883211e-04 3.318615825601e-02 0.0 
2.422963192155e-04 3.849224889798e-02 0.0 
2.560313730451e-02 7.762127649678e-02 0.0 
2.559293783543e-02 8.493126576561e-02 0.0 
2.506076006180e-02 8.272054165312e-02 0.0 
2.464457581523e-02 9.059906923929e-02 0.0 
2.511648754212e-02 9.275092096886e-02 0.0 
2.385419568355e-02 8.762761599281e-02 0.0 
5.696878744894e-03 3.601637737806e-02 0.0 
3.903836287438e-03 5.085161109832e-02 0.0 
-6.129951365629e-04 6.353381724054e-02 0.0 
-3.849998889643e-04 6.508899977327e-02 0.0 
2.085542368770e-04 2.745689533237e-02 0.0 
1.068148124911e-02 3.551310230820e-02 0.0 
2.299695250041e-02 5.847895623213e-02 0.0 
2.207606469250e-02 5.273962275144e-02 0.0 
2.108252800900e-02 5.072037479093e-02 0.0 
1.993937895562e-02 4.527089216783e-02 0.0 
1.867454228585e-02 4.259640819005e-02 0.0 
1.730896488292e-02 3.741608637549e-02 0.0 
1.853498804218e-02 4.015896515934e-02 0.0 
1.378986391999e-02 2.888186872554e-02 0.0 
1.570767943430e-02 3.252003631982e-02 0.0 
3.069321597917e-03 7.991008569547e-02 0.0 
1.796246002357e-02 4.179493548395e-02 0.0 
3.436603102727e-04 5.191853865230e-02 0.0 
3.985189514829e-04 7.024682039194e-02 0.0 
-1.569333937756e-03 5.595805202941e-02 0.0 
1.043714711612e-04 7.087809765272e-02 0.0 
-1.197271641297e-04 6.906597490684e-02 0.0 
3.881678723499e-03 2.203266442299e-02 0.0 
1.574554676635e-02 3.409375894489e-02 0.0 
1.709940638330e-02 3.933255079646e-02 0.0 
2.371876203893e-02 9.903557616495e-02 0.0 
2.416421187082e-02 1.009865229340e-01 0.0 
1.180410728826e-02 2.517436617598e-02 0.0 
1.164538808168e-02 8.376585708380e-02 0.0 
7.714893842262e-03 8.290552661216e-02 0.0 
7.015732821839e-03 8.831911547425e-02 0.0 
4.937754476309e-04 7.229036719827e-02 0.0 
-1.827634293640e-03 5.253348717192e-02 0.0 
5.392794734224e-03 4.620595362867e-02 0.0 
1.938822257186e-02 6.707327073697e-02 0.0 
1.947137297631e-02 7.421981115244e-02 0.0 
5.989996259245e-03 4.113074091271e-02 0.0 
2.667713363781e-03 3.576622311062e-02 0.0 
2.049264553237e-03 6.090843703457e-02 0.0 
1.747022411022e-03 4.838621215009e-02 0.0 
8.768912440061e-05 5.291766556438e-02 0.0 
4.816455483510e-05 5.182442206129e-02 0.0 
5.097787985786e-03 2.433996812370e-02 0.0 
-1.260306620802e-03 5.859839590347e-02 0.0 
2.002352888496e-03 4.258726282326e-02 0.0 
8.968641407850e-03 3.345645697682e-02 0.0 
9.608318690132e-03 3.717866589437e-02 0.0 
-1.467429870625e-04 5.811854533598e-02 0.0 
1.506814276131e-02 6.945686988791e-02 0.0 
1.272647809983e-02 6.198828601282e-02 0.0 
1.837999415568e-03 4.967471970017e-02 0.0 
-1.045830486788e-03 5.760739112134e-02 0.0 
1.614612740687e-05 7.074603350619e-02 0.0 
3.998895800565e-03 1.883337158665e-02 0.0 
5.447430956011e-03 4.035716782136e-02 0.0 
1.691599082248e-02 3.540617265088e-02 0.0 
1.941647815684e-02 4.239300769919e-02 0.0 
1.392349161506e-02 2.794770269532e-02 0.0 
-7.936569655092e-04 5.944655248204e-02 0.0 
2.843885644977e-03 1.963280289163e-02 0.0 
1.363628319410e-04 3.091524362271e-02 0.0 
1.401976505494e-02 3.064711950214e-02 0.0 
1.523952736845e-02 3.550806211693e-02 0.0 
2.123801196151e-02 7.197069284905e-02 0.0 
2.119539539497e-02 7.946831060728e-02 0.0 
1.884500253998e-02 8.243686291874e-02 0.0 
2.045000431272e-02 8.779531911042e-02 0.0 
1.899161931011e-02 9.142874484672e-02 0.0 
2.279993148865e-02 7.630073762459e-02 0.0 
2.255381480032e-02 9.116680283840e-02 0.0 
2.148425994047e-02 9.797746457350e-02 0.0 
2.249305644107e-02 1.002736110912e-01 0.0 
2.522135979551e-02 9.412869269291e-02 0.0 
2.421522473218e-02 1.021659560855e-01 0.0 
1.974293763139e-02 5.992029362951e-02 0.0 
1.824749046220e-02 4.627747099888e-02 0.0 
1.498643842082e-04 5.375084027462e-02 0.0 
8.156121555338e-04 4.333468538843e-02 0.0 
4.672229460576e-03 4.172816483296e-02 0.0 
4.105409211391e-03 4.507073328047e-02 0.0 
3.105402046804e-03 3.800501418636e-02 0.0 
5.356191318721e-03 8.735304471967e-02 0.0 
4.680651259817e-03 9.259470701245e-02 0.0 
1.222246560239e-04 6.752644422603e-02 0.0 
2.197977289534e-04 6.633083073673e-02 0.0 
1.969831935005e-03 4.613096114101e-02 0.0 
2.652736441893e-03 2.294671779300e-02 0.0 
6.873787881614e-03 4.134221764721e-02 0.0 
6.718194610350e-03 3.544035754334e-02 0.0 
8.459258692479e-03 4.207129202092e-02 0.0 
5.307802995626e-03 2.134915791491e-02 0.0 
1.422620233210e-02 4.973662810647e-02 0.0 
1.315613921233e-02 4.103758752399e-02 0.0 
1.692744008689e-03 3.649022895862e-02 0.0 
2.303190556718e-02 5.498368726887e-02 0.0 
9.457032910554e-04 6.861685943087e-02 0.0 
1.950234322303e-02 5.654728559415e-02 0.0 
1.106712899135e-04 2.494404146950e-02 0.0 
1.559918614192e-04 2.129040660432e-02 0.0 
1.093777465357e-02 2.222507721048e-02 0.0 
1.771796732434e-02 1.074136346144e-01 0.0 
2.164706678905e-02 4.985592601162e-02 0.0 
2.148820825545e-02 5.034102124703e-02 0.0 
2.113189074693e-02 1.072116324500e-01 0.0 
2.189373783490e-02 1.091376184336e-01 0.0 
2.330486766767e-02 1.018073329914e-01 0.0 
2.243432960524e-02 1.103126291879e-01 0.0 
1.433258291390e-03 5.121287268958e-02 0.0 
2.348643504501e-04 5.368543295047e-02 0.0 
1.214418711077e-02 2.494378289321e-02 0.0 
1.246765918660e-02 2.469749756787e-02 0.0 
1.196920711818e-02 2.648696071923e-02 0.0 
1.312585854604e-02 3.106413559490e-02 0.0 
8.919784403112e-03 1.853307313506e-02 0.0 
9.811538662415e-03 2.168083922649e-02 0.0 
-1.247607102867e-04 6.873044169823e-02 0.0 
2.276964386575e-02 1.093983889071e-01 0.0 
4.146462675191e-03 3.333842933103e-02 0.0 
2.020356270144e-02 1.046426801857e-01 0.0 
2.003665534989e-03 1.728691163944e-02 0.0 
1.882654456732e-03 2.062654484431e-02 0.0 
6.046924598031e-05 3.240828592854e-02 0.0 
-8.479814216068e-04 3.584246077444e-02 0.0 
1.371687365383e-03 3.571028802276e-02 0.0 
1.748762478746e-02 9.137439559944e-02 0.0 
1.899920661343e-02 9.668628220406e-02 0.0 
1.581631573367e-02 8.516248483001e-02 0.0 
3.248952707540e-06 1.124215482413e-02 0.0 
1.250386692557e-03 1.137044725256e-01 0.0 
7.390193438321e-05 1.854600152176e-02 0.0 
2.496929334474e-02 9.470096609591e-02 0.0 
1.470505090645e-03 2.925491706407e-02 0.0 
2.006615884589e-02 4.523407645313e-02 0.0 
2.493487924614e-02 7.552978298557e-02 0.0 
6.491522233644e-03 2.660258280410e-02 0.0 
1.117781138029e-03 4.264850232050e-02 0.0 
8.245463469285e-04 2.816730650185e-02 0.0 
8.028581782387e-03 9.428473927227e-02 0.0 
7.245136035836e-03 9.972262888519e-02 0.0 
8.839775934569e-03 8.906827115498e-02 0.0 
9.514839933498e-03 4.800186741866e-02 0.0 
6.239196347207e-03 4.601577276179e-02 0.0 
2.982287913136e-03 4.385364563577e-02 0.0 
-3.143049794933e-04 6.474908316216e-02 0.0 
-2.512821706100e-04 6.403782183083e-02 0.0 
-9.673770289491e-04 6.069203589227e-02 0.0 
-8.302396472389e-04 5.939530072622e-02 0.0 
3.372626625173e-04 5.016149093582e-02 0.0 
4.846456075336e-04 5.099654527186e-02 0.0 
1.900903420978e-02 5.058538724452e-02 0.0 
1.722712511453e-02 4.685565737919e-02 0.0 
2.194051505364e-02 5.652319312107e-02 0.0 
8.020442910073e-03 3.546611724186e-02 0.0 
8.372624405722e-03 3.887459928263e-02 0.0 
9.966047737117e-03 4.028425460292e-02 0.0 
3.146036630916e-03 3.252153311964e-02 0.0 
2.099567824216e-03 2.417637941304e-02 0.0 
3.026026140905e-03 4.914766128479e-02 0.0 
3.766426378588e-03 4.800778784488e-02 0.0 
1.100751325596e-03 5.250546045950e-02 0.0 
3.964362666502e-03 2.763721963016e-02 0.0 
1.012279958219e-04 1.487347538112e-02 0.0 
2.018620016309e-04 1.777828284730e-02 0.0 
1.262835600793e-03 6.727151859447e-02 0.0 
2.835432970808e-04 6.472683466345e-02 0.0 
1.168323289625e-02 7.042224038859e-02 0.0 
9.013838686421e-03 6.204025157606e-02 0.0 
6.452123936119e-03 3.000501005547e-02 0.0 
8.248501132841e-03 3.624305603638e-02 0.0 
4.587972734260e-03 2.265993518797e-02 0.0 
-2.074434753244e-05 7.046102498397e-02 0.0 
1.773886915877e-02 3.770663045482e-02 0.0 
4.038745708886e-03 1.582180247369e-02 0.0 
5.436649780659e-03 1.856305917780e-02 0.0 
2.679425994534e-03 1.232906266143e-02 0.0 
1.301601493076e-02 2.633520647725e-02 0.0 
9.793754906253e-03 1.919642450736e-02 0.0 
1.038461114136e-02 2.003209860921e-02 0.0 
2.203031885425e-04 3.169544636396e-02 0.0 
6.225791039844e-04 3.362844328404e-02 0.0 
5.551943832415e-03 9.880325806923e-02 0.0 
-1.018648375678e-03 2.882337687518e-02 0.0 
4.793434127140e-03 1.042542443152e-01 0.0 
4.009592108793e-03 9.781179328416e-02 0.0 
4.142115329316e-03 1.095444727506e-01 0.0 
1.031627210279e-04 7.215123684248e-02 0.0 
9.118176559070e-03 1.020927860163e-01 0.0 
1.004828355198e-02 9.547100237839e-02 0.0 
1.919606595421e-03 6.560283831626e-02 0.0 
2.687546540556e-03 2.056803000196e-02 0.0 
2.000939146136e-03 6.918107881586e-02 0.0 
1.521326985658e-03 7.033595036010e-02 0.0 
1.333725048305e-03 1.458624965032e-02 0.0 
1.271806721580e-03 1.813782453872e-02 0.0 
8.113389180877e-04 1.188223408897e-02 0.0 
8.248865238442e-04 1.584143756926e-02 0.0 
1.147044256839e-03 2.175281428132e-02 0.0 
7.348533121525e-04 1.926967904132e-02 0.0 
6.496634508380e-03 1.058094654771e-01 0.0 
4.604926600182e-04 1.214699184975e-02 0.0 
4.300489259667e-04 1.648811656089e-02 0.0 
2.253533619512e-04 9.446339404453e-03 0.0 
2.065788579921e-02 1.178884731437e-01 0.0 
2.169321313451e-02 9.241812775314e-02 0.0 
2.021189866975e-02 1.014701410735e-01 0.0 
1.674375302519e-02 1.066051105803e-01 0.0 
8.873115833420e-03 1.968203564761e-02 0.0 
1.101499738149e-02 2.663810891165e-02 0.0 
6.961917432679e-05 2.835416479769e-02 0.0 
7.450438423612e-05 3.413919541856e-02 0.0 
3.310273559686e-03 1.037615841608e-01 0.0 
2.417765545582e-03 1.042259695964e-01 0.0 
2.640123442626e-03 9.397245607567e-02 0.0 
1.905813367574e-03 9.523562650577e-02 0.0 
2.047131579102e-03 8.489234392077e-02 0.0 
1.318160688921e-03 8.622888325364e-02 0.0 
1.560542279102e-03 7.560187660190e-02 0.0 
8.560400015140e-03 1.627957135109e-02 0.0 
1.356696880936e-02 9.421192746920e-02 0.0 
1.955537594515e-02 1.140083735705e-01 0.0 
6.924917162078e-03 1.500073142119e-02 0.0 
8.112197453669e-03 1.891526417184e-02 0.0 
2.279193835396e-02 1.103113576662e-01 0.0 
2.088239828285e-02 1.181450935759e-01 0.0 
1.836019283331e-03 1.282845354592e-02 0.0 
2.244261415819e-02 6.943366283369e-02 0.0 
2.014568087893e-03 1.312393090678e-02 0.0 
-4.849997454106e-03 4.155702594222e-02 0.0 
1.077857933962e-03 4.095781585522e-02 0.0 
2.383535476622e-02 7.287513312653e-02 0.0 
2.389572068815e-02 1.024825105760e-01 0.0 
2.283058206174e-02 9.621419059427e-02 0.0 
2.154384132524e-02 1.051073109801e-01 0.0 
7.401029765822e-03 3.141801818885e-02 0.0 
4.439963313506e-04 6.268732756514e-02 0.0 
1.391869761760e-02 7.815005040976e-02 0.0 
2.269756233637e-03 7.439811447235e-02 0.0 
9.533031574978e-03 7.939328862043e-02 0.0 
3.072543737208e-05 3.111346599407e-02 0.0 
2.163854802901e-02 6.337578076666e-02 0.0 
2.562509035587e-02 8.710146261838e-02 0.0 
1.708178224153e-02 7.625380689690e-02 0.0 
2.273349884900e-02 8.397955737332e-02 0.0 
1.996292235524e-02 8.512529236637e-02 0.0 
1.787181502890e-02 9.753217017387e-02 0.0 
1.904221865169e-02 1.014849908616e-01 0.0 
2.040327606044e-02 5.825370720451e-02 0.0 
2.236142838375e-02 1.076800150991e-01 0.0 
1.956439262395e-02 1.147511175741e-01 0.0 
2.334173407696e-02 8.431891848398e-02 0.0 
1.026676113337e-02 4.841788623984e-02 0.0 
1.016192783178e-02 4.246968975614e-02 0.0 
7.875378730446e-03 3.076193487900e-02 0.0 
9.840446781794e-03 3.665347946374e-02 0.0 
1.212174146334e-02 4.845197324820e-02 0.0 
1.190816070652e-02 4.253715963367e-02 0.0 
9.282443510491e-03 3.104081163807e-02 0.0 
1.144900317245e-02 3.672011420229e-02 0.0 
7.762768589473e-03 2.309570614218e-02 0.0 
1.062439355249e-02 3.076888847659e-02 0.0 
1.362609918582e-02 4.232481741790e-02 0.0 
1.301710375660e-02 3.678095812634e-02 0.0 
1.001031779597e-02 2.660923829086e-02 0.0 
1.581447461688e-02 4.807344870200e-02 0.0 
5.678116800459e-03 1.154359841611e-02 0.0 
2.436136450766e-02 6.893640466138e-02 0.0 
3.003423751677e-03 3.771063158243e-02 0.0 
3.997949907532e-03 5.075659327967e-02 0.0 
2.513569321794e-02 8.697699371100e-02 0.0 
3.819182062701e-03 1.126487555422e-02 0.0 
3.166012797254e-03 1.141314742904e-02 0.0 
1.867068547484e-02 6.103832187463e-02 0.0 
4.526682662915e-03 9.263992087149e-03 0.0 
2.028108733468e-02 9.504564684407e-02 0.0 
1.173018690915e-02 5.008805141401e-02 0.0 
4.607879472109e-03 8.701865630060e-03 0.0 
1.210283150027e-02 5.438714402482e-02 0.0 
1.394100855196e-02 6.024476994637e-02 0.0 
1.358716226387e-02 6.618763109779e-02 0.0 
2.450069075545e-03 1.084736717633e-02 0.0 
9.618589960707e-03 8.361724847427e-02 0.0 
3.802869973599e-03 7.058460871350e-03 0.0 
1.732218846694e-02 4.251771175758e-02 0.0 
1.921781681048e-02 4.623845457400e-02 0.0 
2.006550150947e-02 5.005527586863e-02 0.0 
1.399521351783e-02 4.837690270127e-02 0.0 
2.848430194324e-03 6.653505513534e-03 0.0 
4.952743680387e-03 1.244521332506e-02 0.0 
4.317844524999e-03 1.222199482637e-02 0.0 
6.666918928770e-03 1.812035200802e-02 0.0 
2.149268479896e-03 6.400478101318e-03 0.0 
3.909768155237e-03 9.701142899461e-03 0.0 
3.899078473948e-03 8.984020785779e-03 0.0 
2.376185802464e-03 4.792023355779e-02 0.0 
4.685459943473e-03 4.685615188547e-02 0.0 
6.005920063706e-03 4.698206895383e-02 0.0 
7.257296165078e-03 4.655847636201e-02 0.0 
5.805705050751e-03 4.585366203538e-02 0.0 
8.674110376268e-03 4.651598781685e-02 0.0 
9.906843583998e-03 4.695433893404e-02 0.0 
1.024092092562e-02 4.711867595739e-02 0.0 
1.432708989884e-02 3.670444279183e-02 0.0 
1.469755062874e-03 6.050795391550e-03 0.0 
4.721571752562e-03 3.838303951667e-02 0.0 
5.835581028083e-03 3.953483039513e-02 0.0 
5.726430176195e-03 4.249542219724e-02 0.0 
2.337700102589e-04 5.431673024496e-02 0.0 
6.686165714016e-04 5.158072965197e-02 0.0 
9.411080718825e-04 4.819554297703e-02 0.0 
-5.818433115846e-05 5.701120443334e-02 0.0 
2.087011092563e-02 4.737818144119e-02 0.0 
1.185440105382e-03 6.073368965200e-03 0.0 
1.133639410758e-02 3.899575477266e-02 0.0 
8.931201154374e-04 5.189016212252e-02 0.0 
1.200483477812e-02 1.119577069305e-01 0.0 
1.266823161916e-02 1.023086967805e-01 0.0 
1.389691077979e-02 1.013108826879e-01 0.0 
1.306464600178e-02 9.090469584779e-02 0.0 
1.128663313343e-02 1.016974368363e-01 0.0 
2.260428811469e-04 4.906112852410e-02 0.0 
1.458145196749e-04 4.771860290663e-02 0.0 
2.548157762747e-05 5.049174724555e-02 0.0 
9.056640747920e-05 4.614839120297e-02 0.0 
1.364087779372e-05 4.892004249551e-02 0.0 
-3.645212140335e-05 5.301855706923e-02 0.0 
5.252463553275e-05 4.437030192903e-02 0.0 
4.317415761020e-06 4.765743330730e-02 0.0 
9.674543329860e-03 1.128967848143e-01 0.0 
5.625745890417e-04 3.856791346391e-02 0.0 
-1.194922556438e-03 4.282670580053e-02 0.0 
-1.212298284400e-04 4.951808941300e-02 0.0 
-1.904119695183e-03 4.646121981508e-02 0.0 
-1.968134007595e-03 4.095504953522e-02 0.0 
-1.915844549785e-03 4.488426328862e-02 0.0 
-1.091486591356e-03 4.062082398730e-02 0.0 
-1.748573516193e-03 3.597888602350e-02 0.0 
3.212804135081e-03 5.274721212937e-02 0.0 
7.471394672744e-04 5.487564089546e-02 0.0 
3.778044570332e-03 5.762394141639e-02 0.0 
1.487688892627e-03 5.918265147533e-02 0.0 
-7.734827429603e-04 5.653549055147e-02 0.0 
-4.832553892282e-04 6.365264122975e-02 0.0 
3.245108121939e-05 7.461023494899e-03 0.0 
-5.026727338941e-05 5.896609460219e-02 0.0 
-1.096326410156e-04 6.052671998936e-02 0.0 
-1.349101479345e-04 6.362565302467e-02 0.0 
-1.832374669802e-04 6.162246216850e-02 0.0 
-8.021081589757e-05 5.731427767708e-02 0.0 
-6.834013865391e-05 6.539731129766e-02 0.0 
-1.260296923176e-04 6.615896212948e-02 0.0 
1.429925807565e-03 7.478458206391e-02 0.0 
8.195016351889e-04 7.486361421697e-02 0.0 
4.076528507020e-04 7.525318255698e-02 0.0 
4.046267985664e-04 7.453183763442e-02 0.0 
6.688649473768e-04 7.412174595696e-02 0.0 
1.205063974618e-03 7.431906184031e-02 0.0 
1.565218290737e-03 7.357993368322e-02 0.0 
2.459836836846e-03 7.331970753448e-02 0.0 
1.863266621421e-03 7.264592164369e-02 0.0 
1.061376432372e-03 7.262881522385e-02 0.0 
2.925362612496e-03 7.231062917247e-02 0.0 
4.989128194101e-04 5.959455020813e-02 0.0 
9.496401339822e-04 5.337875845025e-02 0.0 
7.766318125991e-04 6.465511347949e-03 0.0 
7.499114750456e-03 1.124430797812e-01 0.0 
4.036612756175e-03 6.461054623102e-02 0.0 
7.652153377877e-04 1.420011870322e-02 0.0 
1.165754149972e-03 1.175974817172e-02 0.0 
9.432786047103e-04 1.140367907156e-02 0.0 
1.429514954093e-05 1.838604233714e-02 0.0 
2.402688199671e-05 1.505799081971e-02 0.0 
4.130251001352e-04 1.381350631332e-02 0.0 
-5.590836960773e-04 6.174254466551e-02 0.0 
7.277635211360e-03 2.544289863616e-02 0.0 
2.165672209395e-03 3.670769006154e-02 0.0 
1.265739676409e-02 5.510184579272e-02 0.0 
-5.184774986175e-04 5.645363930249e-02 0.0 
1.400548901936e-04 3.642432295933e-02 0.0 
1.224795807492e-03 4.032900023389e-02 0.0 
2.893859270472e-04 2.394432949902e-02 0.0 
3.810856730437e-04 4.032558478084e-02 0.0 
7.666966696396e-04 2.860379255866e-02 0.0 
3.773457208343e-03 1.244921118525e-02 0.0 
2.466338965960e-04 7.227500123636e-02 0.0 
6.002766940892e-03 8.200274289361e-02 0.0 
3.866797112754e-03 8.631007478092e-02 0.0 
3.605711072334e-03 5.656808172646e-02 0.0 
-3.720972114351e-04 6.491994548104e-02 0.0 
-5.169086279519e-05 5.426382668254e-02 0.0 
3.109541748009e-05 6.835410522494e-02 0.0 
8.344850353581e-03 1.670245713740e-02 0.0 
2.357960593274e-02 9.320726822355e-02 0.0 
4.397251257223e-03 4.457881701857e-02 0.0 
-3.805020392437e-05 5.730310107127e-02 0.0 
-3.840993837586e-04 5.899457378673e-02 0.0 
-6.246139089423e-04 5.462323601648e-02 0.0 
2.516951719985e-02 7.088645518880e-02 0.0 
1.623620805106e-03 4.920725260388e-02 0.0 
2.704185693061e-03 3.125578300444e-02 0.0 
2.754136262516e-03 4.964362997355e-02 0.0 
3.483753111133e-03 6.936657428755e-02 0.0 
3.184195122914e-03 2.821368882101e-02 0.0 
2.186652413429e-03 4.262945672042e-02 0.0 
8.374900409148e-03 7.737929282945e-02 0.0 
1.237853718637e-02 3.002170868012e-02 0.0 
-1.843629640774e-03 4.910217358616e-02 0.0 
5.211006947417e-03 5.201047728507e-02 0.0 
5.168510970598e-03 2.934223757006e-02 0.0 
1.084614484949e-02 8.959074250874e-02 0.0 
6.582972064933e-04 6.964936494819e-02 0.0 
6.309267597478e-03 9.378155145807e-02 0.0 
2.881022871389e-03 1.622881444355e-02 0.0 
1.016159595312e-02 5.431900388667e-02 0.0 
-2.635541348875e-04 6.711633512915e-02 0.0 
1.347447594378e-02 4.371643106161e-02 0.0 
2.585024189445e-02 7.981340618783e-02 0.0 
1.712114311285e-02 1.169262259795e-01 0.0 
2.239923566037e-03 3.125239565344e-02 0.0 
2.253434291487e-02 5.502505495085e-02 0.0 
8.622259529678e-03 2.412663686611e-02 0.0 
1.250750183399e-02 3.772920335924e-02 0.0 
-2.335091670971e-04 6.680986265400e-02 0.0 
1.679497267487e-03 2.403137964313e-02 0.0 
1.879290561190e-02 4.943223695002e-02 0.0 
4.201988361514e-03 3.930783381013e-02 0.0 
1.977745810152e-02 4.809075530208e-02 0.0 
1.492216773316e-02 4.914827866566e-02 0.0 
6.852627739043e-03 4.719692038366e-02 0.0 
6.919955898013e-03 4.318264633485e-02 0.0 
1.228249558116e-02 2.775969788678e-02 0.0 
2.440691034401e-02 9.436457371072e-02 0.0 
2.360155251886e-02 6.455532522055e-02 0.0 
1.968052252925e-02 6.263196089666e-02 0.0 
2.413993038473e-02 6.053862974179e-02 0.0 
6.270057441967e-05 3.957176508660e-02 0.0 
2.356035077254e-03 2.619966644797e-02 0.0 
3.482037971245e-03 4.014761599903e-02 0.0 
2.413967880643e-02 7.987917964413e-02 0.0 
1.030589014217e-02 7.786195921355e-02 0.0 
1.426458350384e-02 2.941101357975e-02 0.0 
2.970669652948e-03 2.619893486261e-02 0.0 
2.578263845098e-02 8.639891400771e-02 0.0 
1.420008241143e-03 2.739717382053e-02 0.0 
5.388244790335e-03 3.486327367428e-02 0.0 
1.250107533547e-03 4.884023844374e-02 0.0 
3.771653004504e-05 7.223262206905e-02 0.0 
9.981650980661e-03 5.406887537398e-02 0.0 
1.320748472473e-02 4.960227047195e-02 0.0 
2.172783997501e-02 5.435424602129e-02 0.0 
1.511942834285e-03 4.541375538264e-02 0.0 
5.664493035933e-03 2.291779135157e-02 0.0 
9.654225535994e-04 2.521144717624e-02 0.0 
5.967238789229e-03 2.928435990387e-02 0.0 
9.449482135510e-04 7.097080450438e-02 0.0 
1.874644006600e-02 1.108801030041e-01 0.0 
6.195650148453e-04 2.284437463715e-02 0.0 
1.167851189915e-02 4.186491442896e-02 0.0 
1.034476238525e-02 2.455683211162e-02 0.0 
-2.155715911186e-05 5.159028671311e-02 0.0 
8.385635024883e-03 1.627087959082e-02 0.0 
2.101958445986e-02 1.182537064915e-01 0.0 
3.679447301822e-04 2.030441673686e-02 0.0 
8.039683326825e-03 2.908845134361e-02 0.0 
2.073885682194e-02 6.542442924551e-02 0.0 
2.074191849041e-03 1.137058930332e-01 0.0 
1.997700660198e-04 1.275108139362e-02 0.0 
6.783687601918e-03 2.384806310511e-02 0.0 
2.273288564916e-02 5.416659207832e-02 0.0 
1.001578809556e-02 4.277680094955e-02 0.0 
1.827832556774e-02 1.230775644875e-01 0.0 
1.129277188252e-03 4.447023361052e-02 0.0 
2.248698797783e-02 6.256643821904e-02 0.0 
2.128535320370e-03 1.065611058799e-02 0.0 
6.956559092124e-03 2.140586451968e-02 0.0 
1.528215620604e-02 7.188120997130e-02 0.0 
6.850871320310e-04 4.734330754135e-02 0.0 
1.827914957537e-02 4.089946051110e-02 0.0 
9.035562253002e-04 7.348916550601e-02 0.0 
2.018854738675e-02 1.162433113104e-01 0.0 
4.817312698273e-04 4.623245252946e-02 0.0 
1.152338468497e-02 4.788250610445e-02 0.0 
8.469150618399e-03 4.165574015915e-02 0.0 
7.814164070971e-03 1.543807159798e-02 0.0 
3.267671572378e-04 4.487390605834e-02 0.0 
1.249420857128e-02 4.787597717982e-02 0.0 
2.120696333687e-04 4.329050416304e-02 0.0 
1.872556756115e-02 1.266012104828e-01 0.0 
1.573212638735e-02 6.566891136176e-02 0.0 
1.267198355831e-04 4.150387971676e-02 0.0 
2.060102171785e-02 5.386287797907e-02 0.0 
1.135423008996e-03 7.147280751384e-02 0.0 
2.145018248115e-02 4.892799987233e-02 0.0 
4.942880259521e-05 2.185820888981e-02 0.0 
8.299534908591e-04 5.354381319650e-02 0.0 
7.082327228262e-03 4.063089228843e-02 0.0 
1.408007440520e-02 5.426983394201e-02 0.0 
1.804665186555e-02 1.269494303272e-01 0.0 
6.976245696872e-03 3.747646232832e-02 0.0 
1.820672437268e-02 4.488335470932e-02 0.0 
1.993909560093e-02 4.410149843615e-02 0.0 
2.096663959564e-02 5.039004135312e-02 0.0 
6.600689966730e-03 3.369454155247e-02 0.0 
2.054988481260e-02 1.164810925084e-01 0.0 
-6.819078493937e-04 6.088882272059e-02 0.0 
-7.549494083865e-04 6.233961126485e-02 0.0 
1.080740511989e-02 4.667237670919e-02 0.0 
1.636385148213e-02 4.104124659239e-02 0.0 
3.297647950379e-04 7.349197938272e-02 0.0 
1.601502971427e-02 5.371082725406e-02 0.0 
-6.336398353315e-04 6.181567492651e-02 0.0 
8.399193218042e-03 4.656975416077e-02 0.0 
1.572441327578e-02 3.288145846716e-02 0.0 
5.971586140167e-04 8.327873662221e-02 0.0 
7.038603590875e-03 4.652889143259e-02 0.0 
-2.057199161503e-05 7.032350492085e-02 0.0 
4.936124471449e-03 4.758162755409e-02 0.0 
1.981147182047e-02 4.588380977833e-02 0.0 
4.029715323437e-03 4.820671019838e-02 0.0 
2.417546868035e-03 5.016602838836e-02 0.0 
1.498446827664e-03 2.401943996509e-02 0.0 
1.917976814842e-03 5.099527603099e-02 0.0 
2.024086888270e-04 1.145578666189e-02 0.0 
4.093257851444e-06 6.834146630532e-03 0.0 
7.829238356591e-04 1.055695385365e-01 0.0 
1.570325562509e-02 1.241846430158e-01 0.0 
-2.598910848314e-03 2.708033871975e-02 0.0 
1.890046669237e-02 1.094321994195e-01 0.0 
1.443730272005e-04 5.510322231559e-02 0.0 
1.775433829412e-02 5.268185906031e-02 0.0 
1.626936250532e-03 1.050632657323e-01 0.0 
-4.480183680169e-04 5.793545406634e-02 0.0 
7.339814439298e-03 1.972776977516e-02 0.0 
4.133827783398e-03 7.520640029387e-03 0.0 
1.075624535388e-03 6.506961606839e-02 0.0 
8.607325154881e-03 2.180441614855e-02 0.0 
1.816070118587e-02 3.942294570149e-02 0.0 
3.077684604400e-04 3.493076959278e-02 0.0 
4.814005908349e-03 1.144863806674e-01 0.0 
2.019722864722e-03 6.271481022882e-02 0.0 
3.042888533823e-05 3.685024473521e-02 0.0 
1.270403030103e-02 1.159902833963e-01 0.0 
1.508781853798e-02 1.005106399214e-01 0.0 
1.153658903631e-02 8.719376388131e-02 0.0 
-1.839694293589e-04 6.648188813997e-02 0.0 
-1.209149806572e-03 5.188578886183e-02 0.0 
1.027842952146e-02 1.038162321141e-01 0.0 
5.659617750963e-03 1.309734636179e-02 0.0 
8.114605672383e-03 1.045209503959e-01 0.0 
1.516410147780e-02 3.103773960618e-02 0.0 
6.151801921323e-03 8.914231530942e-02 0.0 
3.718946836471e-03 2.279246097531e-02 0.0 
7.915682931616e-03 1.497389781675e-02 0.0 
3.830761691412e-04 5.776642459173e-03 0.0 
1.186524874873e-02 2.336714457874e-02 0.0 
6.915239757063e-03 7.059921003026e-02 0.0 
1.195339525700e-02 9.377127309264e-02 0.0 
8.231562413652e-03 1.716712231514e-02 0.0 
1.454181494230e-03 5.516778766394e-02 0.0 
1.722163475717e-04 5.613698287689e-03 0.0 
1.021570400243e-02 1.050128228173e-01 0.0 
9.122515316093e-04 2.244557435284e-02 0.0 
7.851673525827e-04 3.907126720307e-02 0.0 
4.601183054187e-04 2.179637017084e-02 0.0 
1.520748127080e-02 4.220776416433e-02 0.0 
3.324607586934e-03 9.157257377460e-02 0.0 
1.433486671666e-02 9.284712860741e-02 0.0 
3.574164576369e-05 1.180702258988e-02 0.0 
6.482960767250e-03 2.073959518464e-02 0.0 
4.110189609733e-03 5.990959472291e-02 0.0 
1.686734068608e-03 6.629710746314e-02 0.0 
-2.192953102506e-04 6.104790816027e-02 0.0 
-1.274862733361e-03 3.076086098311e-02 0.0 
1.333126964741e-03 1.178274110646e-02 0.0 
1.221548285129e-02 3.184148630342e-02 0.0 
1.150567993239e-04 1.195679489576e-02 0.0 
1.894997894028e-04 7.477368813515e-02 0.0 
2.524978357593e-03 6.789846211350e-02 0.0 
1.931518464149e-03 1.083924388381e-02 0.0 
7.417729167725e-03 1.727910054467e-02 0.0 
-2.496843675997e-04 4.331186977505e-02 0.0 
1.242799982193e-03 9.176211783410e-03 0.0 
-3.096873420378e-04 4.992887171461e-02 0.0 
6.569277479545e-03 1.155017193198e-01 0.0 
2.171484836162e-03 7.163871422533e-02 0.0 
9.347979800340e-05 5.727598820378e-03 0.0 
2.197497274392e-03 2.140958304309e-02 0.0 
-1.250769756210e-04 5.869725215574e-02 0.0 
1.438175554081e-02 1.092992764751e-01 0.0 
-8.952779743693e-05 6.854952668515e-02 0.0 
1.119219407421e-02 2.216591507093e-02 0.0 
2.932174664862e-04 6.022475285748e-02 0.0 
1.495016274310e-03 2.026564134489e-02 0.0 
2.797719832951e-03 1.062049447813e-02 0.0 
4.483496519424e-03 1.960626117302e-02 0.0 
2.563325793163e-03 5.150065644551e-03 0.0 
-4.383497444533e-04 3.328414025011e-02 0.0 
7.092564943784e-03 1.327081413433e-02 0.0 
5.445400001109e-03 1.654861278446e-02 0.0 
3.615421694435e-03 1.149569676841e-01 0.0 
5.646576241089e-03 2.065534426648e-02 0.0 
-1.855577819974e-04 6.431193901474e-02 0.0 
6.271970102526e-04 7.158237342034e-02 0.0 
8.719529900879e-05 1.015348861435e-02 0.0 
4.652062573782e-04 7.536160676012e-02 0.0 
6.081780569414e-04 1.149264717578e-01 0.0 
3.199104308643e-06 5.584385488852e-03 0.0 
5.140669332116e-04 7.323555108892e-02 0.0 
1.290583509088e-03 9.745215361357e-02 0.0 
6.872582292037e-03 1.706387504730e-02 0.0 
-1.241755874057e-05 5.097858071440e-02 0.0 
7.174786534765e-04 4.336675086935e-02 0.0 
-1.981434805179e-03 4.915589747084e-02 0.0 
-1.157280156663e-03 2.560178786650e-02 0.0 
1.031173569073e-03 7.738561700836e-02 0.0 
6.807273527041e-03 1.303961457917e-02 0.0 
3.471012968094e-03 1.899072038787e-02 0.0 
2.663613910136e-03 8.529691541737e-02 0.0 
7.248809260844e-03 5.467861835251e-02 0.0 
9.589564877024e-03 2.392983194619e-02 0.0 
-8.780615096612e-05 5.588149958718e-02 0.0 
1.104934579946e-02 2.330553909383e-02 0.0 
6.926567544214e-03 1.718313197889e-02 0.0 
-5.403681841510e-03 5.173436724470e-02 0.0 
4.440708183929e-06 4.658454672570e-02 0.0 
2.454642565410e-03 7.046856553309e-02 0.0 
5.721626458779e-04 1.067472756001e-02 0.0 
-5.192255352944e-05 5.440818622449e-02 0.0 
1.412418920489e-02 1.394595806793e-01 0.0 
4.112599689536e-04 1.560935976137e-01 0.0 
1.552431919201e-02 1.366897102937e-01 0.0 
4.155126779207e-04 1.470626884068e-01 0.0 
1.557876164405e-02 1.313693647959e-01 0.0 
3.980135814077e-04 1.376002223098e-01 0.0 
1.477137404207e-02 1.243191625219e-01 0.0 
4.143729631268e-04 1.277059883291e-01 0.0 

TENSORS node_materi_stress float
-6.001897843228e-01 -1.564629844463e-01 0.0 
-1.564629844463e-01 -8.536849046670e+00 0.0 
0.0 0.0 -1.486341523368e+00 
-4.516593583389e+01 4.328730940194e-01 0.0 
4.328730940194e-01 -7.886362536238e+01 0.0 
0.0 0.0 -3.680886835888e+01 
-1.664116996706e+02 -2.586059493102e-01 0.0 
-2.586059493102e-01 -3.902413044238e+02 0.0 
0.0 0.0 -1.665959012283e+02 
-1.158442538615e+02 7.463025488626e-01 0.0 
7.463025488626e-01 -2.694914234832e+02 0.0 
0.0 0.0 -1.152007032034e+02 
-3.932697175203e+00 -3.421745326078e-01 0.0 
-3.421745326078e-01 -2.084278925062e+01 0.0 
0.0 0.0 -6.459046136404e+00 
-1.173937781873e+01 -6.430662594277e-01 0.0 
-6.430662594277e-01 -4.040664233513e+01 0.0 
0.0 0.0 -1.524380604616e+01 
-2.087783098387e+01 -6.118873681626e-01 0.0 
-6.118873681626e-01 -5.874557493262e+01 0.0 
0.0 0.0 -2.348702177495e+01 
-3.065684335551e+01 -6.264315431179e-01 0.0 
-6.264315431179e-01 -7.967910907333e+01 0.0 
0.0 0.0 -3.270078572865e+01 
-3.981933931727e+01 -5.643689129697e-01 0.0 
-5.643689129697e-01 -9.999857310693e+01 0.0 
0.0 0.0 -4.154537372726e+01 
-4.881356790367e+01 -5.709729405832e-01 0.0 
-5.709729405832e-01 -1.201537035072e+02 0.0 
0.0 0.0 -5.029018142325e+01 
-5.745698721057e+01 -6.218110600058e-01 0.0 
-6.218110600058e-01 -1.403829841085e+02 0.0 
0.0 0.0 -5.895199139571e+01 
-6.585489782801e+01 -5.957664131570e-01 0.0 
-5.957664131570e-01 -1.606672660446e+02 0.0 
0.0 0.0 -6.755664916179e+01 
-7.417418316191e+01 -5.850335002799e-01 0.0 
-5.850335002799e-01 -1.809539507527e+02 0.0 
0.0 0.0 -7.613844017440e+01 
-8.242365887695e+01 -6.317971654600e-01 0.0 
-6.317971654600e-01 -2.014239963642e+02 0.0 
0.0 0.0 -8.475429657233e+01 
-9.084035445026e+01 -7.442698878923e-01 0.0 
-7.442698878923e-01 -2.223557232636e+02 0.0 
0.0 0.0 -9.355882331417e+01 
-9.944330711779e+01 -6.917944035133e-01 0.0 
-6.917944035133e-01 -2.424953231247e+02 0.0 
0.0 0.0 -1.021815890727e+02 
-1.073563893558e+02 -8.386319236624e-01 0.0 
-8.386319236624e-01 -2.607185197879e+02 0.0 
0.0 0.0 -1.100224727431e+02 
-1.158976122704e+02 -3.814164058625e-01 0.0 
-3.814164058625e-01 -2.807474181873e+02 0.0 
0.0 0.0 -1.185935091373e+02 
-1.248974745975e+02 -3.140282739335e-01 0.0 
-3.140282739335e-01 -3.011239493003e+02 0.0 
0.0 0.0 -1.274064271693e+02 
-1.337848512424e+02 -2.707693758985e-01 0.0 
-2.707693758985e-01 -3.207669643714e+02 0.0 
0.0 0.0 -1.359655446842e+02 
-1.428211980132e+02 -2.083046828828e-01 0.0 
-2.083046828828e-01 -3.404568840358e+02 0.0 
0.0 0.0 -1.445834246147e+02 
-1.520263279943e+02 -2.246595809657e-01 0.0 
-2.246595809657e-01 -3.602115822676e+02 0.0 
0.0 0.0 -1.532713730786e+02 
-1.609587601125e+02 -2.923968031672e-01 0.0 
-2.923968031672e-01 -3.790258493411e+02 0.0 
0.0 0.0 -1.615953828361e+02 
-1.161873440624e+02 9.542735121118e-01 0.0 
9.542735121118e-01 -2.706812721955e+02 0.0 
0.0 0.0 -1.156605848774e+02 
-1.156588246555e+02 1.707960607050e+00 0.0 
1.707960607050e+00 -2.696849817610e+02 0.0 
0.0 0.0 -1.152031419250e+02 
-1.158391627800e+02 2.780358954001e+00 0.0 
2.780358954001e+00 -2.700493423258e+02 0.0 
0.0 0.0 -1.153665515317e+02 
-1.158521204887e+02 3.274203931014e+00 0.0 
3.274203931014e+00 -2.702225568759e+02 0.0 
0.0 0.0 -1.154224032094e+02 
-1.158603559706e+02 4.302528359739e+00 0.0 
4.302528359739e+00 -2.698445103559e+02 0.0 
0.0 0.0 -1.153114598980e+02 
-1.162889954018e+02 5.279567354235e+00 0.0 
5.279567354235e+00 -2.708206223116e+02 0.0 
0.0 0.0 -1.157328853140e+02 
-1.169016810477e+02 6.369424212988e+00 0.0 
6.369424212988e+00 -2.716334819173e+02 0.0 
0.0 0.0 -1.161605488895e+02 
-1.168871601434e+02 7.624805548127e+00 0.0 
7.624805548127e+00 -2.719595764569e+02 0.0 
0.0 0.0 -1.162540209801e+02 
-1.177161600192e+02 8.982323161640e+00 0.0 
8.982323161640e+00 -2.735889862077e+02 0.0 
0.0 0.0 -1.169915438681e+02 
-1.180274475792e+02 1.001950940213e+01 0.0 
1.001950940213e+01 -2.745752483570e+02 0.0 
0.0 0.0 -1.173808087809e+02 
-1.185985024891e+02 1.152491000743e+01 0.0 
1.152491000743e+01 -2.752261972970e+02 0.0 
0.0 0.0 -1.177474099358e+02 
-1.194613888745e+02 1.307895367163e+01 0.0 
1.307895367163e+01 -2.774054149753e+02 0.0 
0.0 0.0 -1.186600411549e+02 
-1.208652466444e+02 1.470334373720e+01 0.0 
1.470334373720e+01 -2.799946550780e+02 0.0 
0.0 0.0 -1.198579705167e+02 
-1.214404094458e+02 1.635955426963e+01 0.0 
1.635955426963e+01 -2.818830580432e+02 0.0 
0.0 0.0 -1.205970402467e+02 
-1.228142791027e+02 1.807139467793e+01 0.0 
1.807139467793e+01 -2.843973328374e+02 0.0 
0.0 0.0 -1.217634835820e+02 
-1.236426494695e+02 1.962912191690e+01 0.0 
1.962912191690e+01 -2.868752536631e+02 0.0 
0.0 0.0 -1.227553709398e+02 
-1.252964687712e+02 2.137241449001e+01 0.0 
2.137241449001e+01 -2.905378556560e+02 0.0 
0.0 0.0 -1.243502973282e+02 
-1.277348724415e+02 2.309241953114e+01 0.0 
2.309241953114e+01 -2.958545030676e+02 0.0 
0.0 0.0 -1.266768126527e+02 
-1.297019739980e+02 2.466769984356e+01 0.0 
2.466769984356e+01 -3.011329663428e+02 0.0 
0.0 0.0 -1.288504821022e+02 
-1.318706137697e+02 2.607056017108e+01 0.0 
2.607056017108e+01 -3.068109690670e+02 0.0 
0.0 0.0 -1.312044748510e+02 
-1.340108615151e+02 2.709930948618e+01 0.0 
2.709930948618e+01 -3.124818950989e+02 0.0 
0.0 0.0 -1.335478269842e+02 
-1.365852799733e+02 2.806308588311e+01 0.0 
2.806308588311e+01 -3.184755222031e+02 0.0 
0.0 0.0 -1.361182406529e+02 
-1.389345366294e+02 2.861911900777e+01 0.0 
2.861911900777e+01 -3.248260034914e+02 0.0 
0.0 0.0 -1.387281620363e+02 
-1.414630698612e+02 2.887003649237e+01 0.0 
2.887003649237e+01 -3.313142110794e+02 0.0 
0.0 0.0 -1.414331842822e+02 
-1.441417659645e+02 2.877888495205e+01 0.0 
2.877888495205e+01 -3.381057011457e+02 0.0 
0.0 0.0 -1.442742401331e+02 
-1.468519121476e+02 2.842281368428e+01 0.0 
2.842281368428e+01 -3.448385763245e+02 0.0 
0.0 0.0 -1.471071465416e+02 
-1.492571918373e+02 2.766523196144e+01 0.0 
2.766523196144e+01 -3.512502171964e+02 0.0 
0.0 0.0 -1.497522227101e+02 
-1.516931248181e+02 2.660464705415e+01 0.0 
2.660464705415e+01 -3.572990469725e+02 0.0 
0.0 0.0 -1.522976515372e+02 
-1.537522256775e+02 2.526061468675e+01 0.0 
2.526061468675e+01 -3.627065162915e+02 0.0 
0.0 0.0 -1.545376225907e+02 
-1.563197835877e+02 2.391564046283e+01 0.0 
2.391564046283e+01 -3.684111929953e+02 0.0 
0.0 0.0 -1.570192929749e+02 
-1.578608778746e+02 2.188691484952e+01 0.0 
2.188691484952e+01 -3.729683633902e+02 0.0 
0.0 0.0 -1.588487723794e+02 
-1.590919767661e+02 2.015472533576e+01 0.0 
2.015472533576e+01 -3.762003708002e+02 0.0 
0.0 0.0 -1.601877042699e+02 
-1.607369374964e+02 1.813115060639e+01 0.0 
1.813115060639e+01 -3.799770487468e+02 0.0 
0.0 0.0 -1.618141958730e+02 
-1.621227669779e+02 1.623324379512e+01 0.0 
1.623324379512e+01 -3.831563934055e+02 0.0 
0.0 0.0 -1.631837481150e+02 
-1.632852334134e+02 1.430049418650e+01 0.0 
1.430049418650e+01 -3.857981687925e+02 0.0 
0.0 0.0 -1.643250206617e+02 
-1.642944667729e+02 1.245499545639e+01 0.0 
1.245499545639e+01 -3.878475909413e+02 0.0 
0.0 0.0 -1.652426173143e+02 
-1.649808662711e+02 1.070425614872e+01 0.0 
1.070425614872e+01 -3.893652122207e+02 0.0 
0.0 0.0 -1.659038235475e+02 
-1.654608666979e+02 9.036665838984e+00 0.0 
9.036665838984e+00 -3.902563807373e+02 0.0 
0.0 0.0 -1.663151742306e+02 
-1.657235164361e+02 7.607442451984e+00 0.0 
7.607442451984e+00 -3.907075672127e+02 0.0 
0.0 0.0 -1.665293250946e+02 
-1.658140204308e+02 6.215598823447e+00 0.0 
6.215598823447e+00 -3.907832533103e+02 0.0 
0.0 0.0 -1.665791821223e+02 
-1.662339824366e+02 5.177265877294e+00 0.0 
5.177265877294e+00 -3.913140488419e+02 0.0 
0.0 0.0 -1.668644093836e+02 
-1.668579747228e+02 4.080343220232e+00 0.0 
4.080343220232e+00 -3.921935505123e+02 0.0 
0.0 0.0 -1.673154575705e+02 
-1.670883466511e+02 3.350658853651e+00 0.0 
3.350658853651e+00 -3.924082158329e+02 0.0 
0.0 0.0 -1.674489687452e+02 
-1.657273492487e+02 2.544908211432e+00 0.0 
2.544908211432e+00 -3.898169614116e+02 0.0 
0.0 0.0 -1.662632931981e+02 
-1.669115942737e+02 1.857536631217e+00 0.0 
1.857536631217e+00 -3.916303303384e+02 0.0 
0.0 0.0 -1.671625773836e+02 
-1.664019729523e+02 1.386064874274e+00 0.0 
1.386064874274e+00 -3.906392886551e+02 0.0 
0.0 0.0 -1.667123784822e+02 
-1.666624436217e+02 1.167209567780e+00 0.0 
1.167209567780e+00 -3.909788935221e+02 0.0 
0.0 0.0 -1.668924011431e+02 
-1.669487158428e+02 5.711100675849e-01 0.0 
5.711100675849e-01 -3.914872873390e+02 0.0 
0.0 0.0 -1.671308009546e+02 
-1.668554703624e+02 3.503444582724e-01 0.0 
3.503444582724e-01 -3.913047476326e+02 0.0 
0.0 0.0 -1.670480653985e+02 
-5.371122443807e+01 3.228160297791e-01 0.0 
3.228160297791e-01 -9.867842561786e+01 0.0 
0.0 0.0 -4.531689501678e+01 
-6.165283121931e+01 3.953405258280e-01 0.0 
3.953405258280e-01 -1.184509523546e+02 0.0 
0.0 0.0 -5.363113507217e+01 
-6.954950155574e+01 4.142560245818e-01 0.0 
4.142560245818e-01 -1.381144674789e+02 0.0 
0.0 0.0 -6.189919071039e+01 
-7.703668553524e+01 4.775725485617e-01 0.0 
4.775725485617e-01 -1.574549086912e+02 0.0 
0.0 0.0 -6.994747826794e+01 
-8.448196627191e+01 4.674911778668e-01 0.0 
4.674911778668e-01 -1.773237994252e+02 0.0 
0.0 0.0 -7.814172970913e+01 
-9.197906815799e+01 5.436933164616e-01 0.0 
5.436933164616e-01 -1.973888292827e+02 0.0 
0.0 0.0 -8.641036923220e+01 
-9.890848282404e+01 5.278348538994e-01 0.0 
5.278348538994e-01 -2.172882332152e+02 0.0 
0.0 0.0 -9.445901481176e+01 
-1.055431449925e+02 6.345298740902e-01 0.0 
6.345298740902e-01 -2.370828125052e+02 0.0 
0.0 0.0 -1.023877872493e+02 
-1.124957817888e+02 6.949276837471e-01 0.0 
6.949276837471e-01 -2.576263933733e+02 0.0 
0.0 0.0 -1.106366525486e+02 
-6.076780517330e+01 2.858221742581e+01 0.0 
2.858221742581e+01 -6.960671907676e+01 0.0 
0.0 0.0 -3.953574143092e+01 
-5.443193306982e+01 3.826720820087e+00 0.0 
3.826720820087e+00 -8.192559416671e+01 0.0 
0.0 0.0 -4.050725817096e+01 
-4.293644002729e+01 3.063013055611e+01 0.0 
3.063013055611e+01 -2.956537299281e+01 0.0 
0.0 0.0 -2.143087209511e+01 
-3.887878510004e+01 2.711006525190e+01 0.0 
2.711006525190e+01 -2.784994539619e+01 0.0 
0.0 0.0 -1.831063076773e+01 
-3.610588037762e+01 2.502057676392e+01 0.0 
2.502057676392e+01 -2.614878590514e+01 0.0 
0.0 0.0 -1.752916615793e+01 
-3.218330061084e+01 2.253325874981e+01 0.0 
2.253325874981e+01 -2.365567412874e+01 0.0 
0.0 0.0 -1.635169242187e+01 
-3.070545935651e+01 2.058889628597e+01 0.0 
2.058889628597e+01 -2.291489501466e+01 0.0 
0.0 0.0 -1.568610631135e+01 
-3.192977476185e+01 1.422151935845e+01 0.0 
1.422151935845e+01 -1.891165722669e+01 0.0 
0.0 0.0 -1.485242959656e+01 
-2.867941624221e+01 7.378997638199e+00 0.0 
7.378997638199e+00 -2.274129046322e+01 0.0 
0.0 0.0 -1.502621201163e+01 
-3.698069794856e+01 5.515702979027e+00 0.0 
5.515702979027e+00 -4.204787216597e+01 0.0 
0.0 0.0 -2.330857103436e+01 
-4.575117165817e+01 4.419053201902e+00 0.0 
4.419053201902e+00 -6.148926571048e+01 0.0 
0.0 0.0 -3.177213121060e+01 
-1.595841025757e+01 8.585164916401e-01 0.0 
8.585164916401e-01 -7.368803443643e+00 0.0 
0.0 0.0 -6.598164110364e+00 
-2.038797505406e+01 6.514795059161e-01 0.0 
6.514795059161e-01 -1.969238829555e+01 0.0 
0.0 0.0 -1.162410900488e+01 
-2.855655218645e+01 7.480451404096e-01 0.0 
7.480451404096e-01 -3.921868815062e+01 0.0 
0.0 0.0 -1.993257210112e+01 
-3.688022657786e+01 5.294230372366e-01 0.0 
5.294230372366e-01 -5.860211574880e+01 0.0 
0.0 0.0 -2.824470269800e+01 
-4.431881023099e+01 -2.434958921622e-01 0.0 
-2.434958921622e-01 -7.623985700245e+01 0.0 
0.0 0.0 -3.576760017003e+01 
-4.500360754135e+01 -5.427204208223e-02 0.0 
-5.427204208223e-02 -7.740917069263e+01 0.0 
0.0 0.0 -3.632383347019e+01 
-4.506805275751e+01 -6.139248986194e-02 0.0 
-6.139248986194e-02 -7.743656100257e+01 0.0 
0.0 0.0 -3.635138412803e+01 
-4.517764402718e+01 -2.099004317301e-02 0.0 
-2.099004317301e-02 -7.721418391131e+01 0.0 
0.0 0.0 -3.631754838155e+01 
-4.663309125747e+01 -2.079587888714e-02 0.0 
-2.079587888714e-02 -7.985886596585e+01 0.0 
0.0 0.0 -3.754758716699e+01 
-4.583699041862e+01 -5.862057814394e-02 0.0 
-5.862057814394e-02 -7.751870474877e+01 0.0 
0.0 0.0 -3.660670855022e+01 
-4.625319871019e+01 1.105824767286e-02 0.0 
1.105824767286e-02 -7.737353784835e+01 0.0 
0.0 0.0 -3.668802096756e+01 
-4.667186086990e+01 -1.210922596584e-02 0.0 
-1.210922596584e-02 -7.759257192867e+01 0.0 
0.0 0.0 -3.687932983957e+01 
-4.732491593183e+01 1.417155148543e-01 0.0 
1.417155148543e-01 -7.809777338965e+01 0.0 
0.0 0.0 -3.722680679644e+01 
-4.791886559424e+01 2.673816400281e-01 0.0 
2.673816400281e-01 -7.815194571168e+01 0.0 
0.0 0.0 -3.742124339178e+01 
-4.875003291154e+01 5.710968733266e-01 0.0 
5.710968733266e-01 -7.829322790967e+01 0.0 
0.0 0.0 -3.771297824636e+01 
-4.959613257569e+01 9.901442786748e-01 0.0 
9.901442786748e-01 -7.850937276177e+01 0.0 
0.0 0.0 -3.803165160124e+01 
-5.080350069332e+01 1.552320987615e+00 0.0 
1.552320987615e+00 -7.904872248762e+01 0.0 
0.0 0.0 -3.855566695428e+01 
-5.219825046127e+01 2.405365148717e+00 0.0 
2.405365148717e+00 -7.998015486745e+01 0.0 
0.0 0.0 -3.925352159862e+01 
-8.361691794648e+01 1.374345130762e+01 0.0 
1.374345130762e+01 -9.666945628010e+01 0.0 
0.0 0.0 -5.444704528454e+01 
-9.889064788342e+01 2.398567868362e+00 0.0 
2.398567868362e+00 -1.044961110218e+02 0.0 
0.0 0.0 -6.138310246009e+01 
-1.030134965451e+02 -2.737121639121e+00 0.0 
-2.737121639121e+00 -1.041221314565e+02 0.0 
0.0 0.0 -6.247485874929e+01 
-9.177579747214e+01 -1.039173509249e+01 0.0 
-1.039173509249e+01 -9.587838492786e+01 0.0 
0.0 0.0 -5.662987228480e+01 
-5.958084667467e+01 -1.953296446448e+01 0.0 
-1.953296446448e+01 -5.782345939342e+01 0.0 
0.0 0.0 -3.549850434495e+01 
-3.055653778681e+01 -1.265683455015e+01 0.0 
-1.265683455015e+01 -1.947346581443e+01 0.0 
0.0 0.0 -1.486005376577e+01 
-1.590312232391e+01 -3.141828182012e+00 0.0 
-3.141828182012e+00 -1.014616659762e+01 0.0 
0.0 0.0 -7.535261284562e+00 
-1.029537545800e+01 -9.178098013895e-01 0.0 
-9.178098013895e-01 -8.513283871495e+00 0.0 
0.0 0.0 -4.813706273138e+00 
-7.373597500478e+00 -5.692811455431e-01 0.0 
-5.692811455431e-01 -8.089554201979e+00 0.0 
0.0 0.0 -3.249308616782e+00 
-5.342634641837e+00 -4.256169962329e-01 0.0 
-4.256169962329e-01 -8.261831084357e+00 0.0 
0.0 0.0 -3.178691029617e+00 
-4.173411128603e+00 -1.630064343974e-01 0.0 
-1.630064343974e-01 -8.316391668166e+00 0.0 
0.0 0.0 -3.100479535467e+00 
-3.556038036552e+00 -2.659867087108e-01 0.0 
-2.659867087108e-01 -8.768883690234e+00 0.0 
0.0 0.0 -2.777135404976e+00 
-2.887282751493e+00 -2.665445859462e-01 0.0 
-2.665445859462e-01 -8.514048674026e+00 0.0 
0.0 0.0 -2.462254444105e+00 
-2.120350267304e+00 -3.018430081060e-01 0.0 
-3.018430081060e-01 -7.789044923945e+00 0.0 
0.0 0.0 -2.081506935755e+00 
-1.460315396896e+00 -2.901343700775e-01 0.0 
-2.901343700775e-01 -7.967292098953e+00 0.0 
0.0 0.0 -1.931891089670e+00 
-9.349214343406e-01 -2.664141608181e-01 0.0 
-2.664141608181e-01 -8.241215802906e+00 0.0 
0.0 0.0 -1.786170397419e+00 
-4.823058206171e-01 -1.740276065365e-01 0.0 
-1.740276065365e-01 -8.288325067935e+00 0.0 
0.0 0.0 -1.655810661674e+00 
-1.580811488560e-01 -1.645913891245e-01 0.0 
-1.645913891245e-01 -7.890052363906e+00 0.0 
0.0 0.0 -1.459734686350e+00 
-9.254619763926e-02 -2.835820595713e-02 0.0 
-2.835820595713e-02 -7.280582612052e+00 0.0 
0.0 0.0 -1.254356720447e+00 
-1.599433140953e+01 -1.894617535087e-01 0.0 
-1.894617535087e-01 -9.510009489051e+00 0.0 
0.0 0.0 -7.251302269573e+00 
-1.573233214263e+01 -2.710991109424e-02 0.0 
-2.710991109424e-02 -9.746771523740e+00 0.0 
0.0 0.0 -7.243731099910e+00 
-1.564485859689e+01 -4.789818537534e-02 0.0 
-4.789818537534e-02 -9.689435553026e+00 0.0 
0.0 0.0 -7.200288244974e+00 
-1.551588540456e+01 -1.117450109048e-01 0.0 
-1.117450109048e-01 -9.689265444253e+00 0.0 
0.0 0.0 -7.161545254642e+00 
-1.530486022833e+01 -1.667976663585e-01 0.0 
-1.667976663585e-01 -9.684988119259e+00 0.0 
0.0 0.0 -7.096954504277e+00 
-1.501682881914e+01 -2.185749438391e-01 0.0 
-2.185749438391e-01 -9.678297212922e+00 0.0 
0.0 0.0 -7.008537809620e+00 
-1.465755167049e+01 -2.662961049296e-01 0.0 
-2.662961049296e-01 -9.668707627739e+00 0.0 
0.0 0.0 -6.897877789469e+00 
-1.423578726360e+01 -3.153580532668e-01 0.0 
-3.153580532668e-01 -9.653357262791e+00 0.0 
0.0 0.0 -6.766743357918e+00 
-1.374979902612e+01 -3.695845218166e-01 0.0 
-3.695845218166e-01 -9.637964292534e+00 0.0 
0.0 0.0 -6.616328995595e+00 
-1.318883524730e+01 -4.244191339489e-01 0.0 
-4.244191339489e-01 -9.624299286593e+00 0.0 
0.0 0.0 -6.443940360168e+00 
-1.257238021218e+01 -4.713625652677e-01 0.0 
-4.713625652677e-01 -9.610785529433e+00 0.0 
0.0 0.0 -6.254949722484e+00 
-1.192642285990e+01 -5.061841498333e-01 0.0 
-5.061841498333e-01 -9.595375940010e+00 0.0 
0.0 0.0 -6.056539639973e+00 
-1.127731162727e+01 -5.301109563004e-01 0.0 
-5.301109563004e-01 -9.570782108631e+00 0.0 
0.0 0.0 -5.854428120770e+00 
-1.066718984092e+01 -5.410956532987e-01 0.0 
-5.410956532987e-01 -9.569746961054e+00 0.0 
0.0 0.0 -5.671081040593e+00 
-1.014413610982e+01 -4.782501100579e-01 0.0 
-4.782501100579e-01 -9.576264929942e+00 0.0 
0.0 0.0 -5.516120311929e+00 
-9.929312677380e+00 -3.171705493841e-01 0.0 
-3.171705493841e-01 -9.661143278745e+00 0.0 
0.0 0.0 -5.477136786838e+00 
-1.022958202058e+01 1.113402821122e-01 0.0 
1.113402821122e-01 -9.761431826379e+00 0.0 
0.0 0.0 -5.597304154088e+00 
-1.163581102299e+01 8.689831521434e-01 0.0 
8.689831521434e-01 -1.018774043777e+01 0.0 
0.0 0.0 -6.147065438230e+00 
-1.459921355520e+01 2.544021863080e+00 0.0 
2.544021863080e+00 -1.004401237973e+01 0.0 
0.0 0.0 -6.992967780481e+00 
-1.977771672332e+01 4.344759486726e+00 0.0 
4.344759486726e+00 -5.330727384745e+00 0.0 
0.0 0.0 -7.077724913414e+00 
-2.236233788408e+01 3.248325964067e+00 0.0 
3.248325964067e+00 -1.853359462499e+01 0.0 
0.0 0.0 -1.186877975272e+01 
-2.184404243259e+01 2.124880759814e+00 0.0 
2.124880759814e+00 -2.199526456627e+01 0.0 
0.0 0.0 -1.275179209966e+01 
-1.923208696651e+01 7.052761726769e-01 0.0 
7.052761726769e-01 -2.040601528398e+01 0.0 
0.0 0.0 -1.149143067514e+01 
-1.830259030942e+01 9.663050242887e-02 0.0 
9.663050242887e-02 -1.997572911371e+01 0.0 
0.0 0.0 -1.108349582694e+01 
-1.796383931315e+01 -2.429291469541e-01 0.0 
-2.429291469541e-01 -1.981333514728e+01 0.0 
0.0 0.0 -1.093315233813e+01 
-1.786461364891e+01 -3.913120333061e-01 0.0 
-3.913120333061e-01 -1.967884597220e+01 0.0 
0.0 0.0 -1.086303788633e+01 
-1.796024195833e+01 -4.634857516400e-01 0.0 
-4.634857516400e-01 -1.964123087263e+01 0.0 
0.0 0.0 -1.088044184929e+01 
-1.816146377533e+01 -4.931723978465e-01 0.0 
-4.931723978465e-01 -1.960614462401e+01 0.0 
0.0 0.0 -1.093028251980e+01 
-1.841850532637e+01 -4.906071719628e-01 0.0 
-4.906071719628e-01 -1.957843975018e+01 0.0 
0.0 0.0 -1.099908352296e+01 
-1.870457143879e+01 -4.604839630327e-01 0.0 
-4.604839630327e-01 -1.955703150393e+01 0.0 
0.0 0.0 -1.107848088282e+01 
-1.897990835204e+01 -4.094299992736e-01 0.0 
-4.094299992736e-01 -1.955307057178e+01 0.0 
0.0 0.0 -1.115989367715e+01 
-1.922275847630e+01 -3.606820013048e-01 0.0 
-3.606820013048e-01 -1.955812010062e+01 0.0 
0.0 0.0 -1.123426357308e+01 
-1.945194778441e+01 -3.145493032459e-01 0.0 
-3.145493032459e-01 -1.955663134723e+01 0.0 
0.0 0.0 -1.130257373949e+01 
-1.964649078068e+01 -2.597138230113e-01 0.0 
-2.597138230113e-01 -1.955200849364e+01 0.0 
0.0 0.0 -1.135954978230e+01 
-1.980405416660e+01 -1.993303666815e-01 0.0 
-1.993303666815e-01 -1.955199029773e+01 0.0 
0.0 0.0 -1.140681333930e+01 
-1.992279403524e+01 -1.348897234129e-01 0.0 
-1.348897234129e-01 -1.954723486436e+01 0.0 
0.0 0.0 -1.144100866988e+01 
-2.001326319917e+01 -5.563037037694e-02 0.0 
-5.563037037694e-02 -1.954399388078e+01 0.0 
0.0 0.0 -1.146717712398e+01 
-2.009214790200e+01 3.740551420747e-02 0.0 
3.740551420747e-02 -1.954888204897e+01 0.0 
0.0 0.0 -1.149230898529e+01 
-2.032630334749e+01 -4.051569964015e-01 0.0 
-4.051569964015e-01 -1.965252092822e+01 0.0 
0.0 0.0 -1.159364728271e+01 
-2.854252256109e+01 -3.704271019591e-01 0.0 
-3.704271019591e-01 -3.920198663572e+01 0.0 
0.0 0.0 -1.992335275905e+01 
-2.854401375912e+01 -1.597370533898e-01 0.0 
-1.597370533898e-01 -3.908855253280e+01 0.0 
0.0 0.0 -1.988976988757e+01 
-2.852757844352e+01 -1.749947122492e-01 0.0 
-1.749947122492e-01 -3.907802212102e+01 0.0 
0.0 0.0 -1.988168016936e+01 
-2.851012264819e+01 -2.490744513816e-01 0.0 
-2.490744513816e-01 -3.910362320417e+01 0.0 
0.0 0.0 -1.988412375571e+01 
-2.851824910496e+01 -3.330301354123e-01 0.0 
-3.330301354123e-01 -3.910811218133e+01 0.0 
0.0 0.0 -1.988790838589e+01 
-2.850940571855e+01 -4.184913765230e-01 0.0 
-4.184913765230e-01 -3.911986255249e+01 0.0 
0.0 0.0 -1.988878048131e+01 
-2.851731599881e+01 -4.936234715378e-01 0.0 
-4.936234715378e-01 -3.914469472751e+01 0.0 
0.0 0.0 -1.989860321790e+01 
-2.853150633484e+01 -5.393766610234e-01 0.0 
-5.393766610234e-01 -3.914401306785e+01 0.0 
0.0 0.0 -1.990265582081e+01 
-2.858715847247e+01 -6.040049049849e-01 0.0 
-6.040049049849e-01 -3.913747520886e+01 0.0 
0.0 0.0 -1.991739010440e+01 
-2.866197216593e+01 -6.370215832409e-01 0.0 
-6.370215832409e-01 -3.919865039436e+01 0.0 
0.0 0.0 -1.995818676809e+01 
-2.881728809529e+01 -5.964969475501e-01 0.0 
-5.964969475501e-01 -3.926896597693e+01 0.0 
0.0 0.0 -2.002587622167e+01 
-2.909281258470e+01 -4.938355650302e-01 0.0 
-4.938355650302e-01 -3.934617752413e+01 0.0 
0.0 0.0 -2.013169703265e+01 
-2.950131944735e+01 -2.925141991038e-01 0.0 
-2.925141991038e-01 -3.947431419227e+01 0.0 
0.0 0.0 -2.029269009189e+01 
-3.012410208154e+01 5.721644729880e-02 0.0 
5.721644729880e-02 -3.961487201679e+01 0.0 
0.0 0.0 -2.052169222950e+01 
-3.109505479708e+01 5.939141076072e-01 0.0 
5.939141076072e-01 -4.009164001564e+01 0.0 
0.0 0.0 -2.095600844382e+01 
-3.326474373952e+01 1.907305344400e+00 0.0 
1.907305344400e+00 -4.182683947501e+01 0.0 
0.0 0.0 -2.212747496436e+01 
-3.333592188288e+01 2.941990293307e+00 0.0 
2.941990293307e+00 -3.853851621464e+01 0.0 
0.0 0.0 -2.116233142925e+01 
-4.296970291021e+01 2.529192974579e+00 0.0 
2.529192974579e+00 -5.824503066769e+01 0.0 
0.0 0.0 -2.996442007337e+01 
-4.296305623890e+01 1.795501013373e+00 0.0 
1.795501013373e+00 -6.132249429175e+01 0.0 
0.0 0.0 -3.088566515919e+01 
-4.110878115726e+01 8.263718717698e-01 0.0 
8.263718717698e-01 -5.969775649419e+01 0.0 
0.0 0.0 -2.984196129544e+01 
-4.019571989501e+01 3.273886750976e-01 0.0 
3.273886750976e-01 -5.932282066342e+01 0.0 
0.0 0.0 -2.945556216753e+01 
-3.944530509491e+01 3.381539369464e-02 0.0 
3.381539369464e-02 -5.912071451160e+01 0.0 
0.0 0.0 -2.916980588196e+01 
-3.885447078330e+01 -1.866346352983e-01 0.0 
-1.866346352983e-01 -5.899024497809e+01 0.0 
0.0 0.0 -2.895341472842e+01 
-3.838488095595e+01 -3.103013513302e-01 0.0 
-3.103013513302e-01 -5.881424304503e+01 0.0 
0.0 0.0 -2.875973720029e+01 
-3.801729590028e+01 -3.098241867975e-01 0.0 
-3.098241867975e-01 -5.873220445010e+01 0.0 
0.0 0.0 -2.862485010512e+01 
-3.781731746104e+01 -3.310228087990e-01 0.0 
-3.310228087990e-01 -5.877536020868e+01 0.0 
0.0 0.0 -2.857780330092e+01 
-3.754253635430e+01 -3.015654796003e-01 0.0 
-3.015654796003e-01 -5.871497724922e+01 0.0 
0.0 0.0 -2.847725408106e+01 
-3.735905246571e+01 -2.725828575989e-01 0.0 
-2.725828575989e-01 -5.868035386872e+01 0.0 
0.0 0.0 -2.841182190033e+01 
-3.722692237270e+01 -1.923677340203e-01 0.0 
-1.923677340203e-01 -5.867208947752e+01 0.0 
0.0 0.0 -2.836970355507e+01 
-3.709315453559e+01 -1.698796677502e-01 0.0 
-1.698796677502e-01 -5.868124022043e+01 0.0 
0.0 0.0 -2.833231842681e+01 
-3.700496227789e+01 -1.005233440701e-01 0.0 
-1.005233440701e-01 -5.861220778644e+01 0.0 
0.0 0.0 -2.828515101930e+01 
-3.696861228195e+01 2.988295804662e-02 0.0 
2.988295804662e-02 -5.876690531363e+01 0.0 
0.0 0.0 -2.832065527867e+01 
-3.685964795679e+01 -5.068051551628e-01 0.0 
-5.068051551628e-01 -5.887123482178e+01 0.0 
0.0 0.0 -2.831926483357e+01 
-4.618028458883e+01 3.491002058240e+01 0.0 
3.491002058240e+01 -3.927969822635e+01 0.0 
0.0 0.0 -2.614378510418e+01 
-4.055850732490e+01 2.862860201447e+01 0.0 
2.862860201447e+01 -2.872382206724e+01 0.0 
0.0 0.0 -1.979384371856e+01 
-3.736747848766e+01 2.582671845353e+01 0.0 
2.582671845353e+01 -2.688273485448e+01 0.0 
0.0 0.0 -1.736402473933e+01 
-3.450343817924e+01 2.390260411280e+01 0.0 
2.390260411280e+01 -2.557608259916e+01 0.0 
0.0 0.0 -1.751702544946e+01 
-3.192723559630e+01 2.245512595614e+01 0.0 
2.245512595614e+01 -2.414872506485e+01 0.0 
0.0 0.0 -1.642278819834e+01 
-3.293080499022e+01 2.030179838155e+01 0.0 
2.030179838155e+01 -2.290987276370e+01 0.0 
0.0 0.0 -1.635220332617e+01 
-2.897954036805e+01 9.247759756731e+00 0.0 
9.247759756731e+00 -1.603228276147e+01 0.0 
0.0 0.0 -1.307614277935e+01 
-3.426091096786e+01 6.574492263445e+00 0.0 
6.574492263445e+00 -3.418733223186e+01 0.0 
0.0 0.0 -2.013447295992e+01 
-4.291896687608e+01 5.034884637216e+00 0.0 
5.034884637216e+00 -5.367442538750e+01 0.0 
0.0 0.0 -2.857801767908e+01 
-5.132008493694e+01 4.086841060833e+00 0.0 
4.086841060833e+00 -7.321231556849e+01 0.0 
0.0 0.0 -3.695972015163e+01 
-4.027999229113e+01 2.907461210831e+01 0.0 
2.907461210831e+01 -3.924892800141e+01 0.0 
0.0 0.0 -2.236276855018e+01 
-1.551448273619e+02 1.676981364664e+01 0.0 
1.676981364664e+01 -3.738190925774e+02 0.0 
0.0 0.0 -1.582891759818e+02 
-1.063674751332e+01 -1.809442842596e+00 0.0 
-1.809442842596e+00 -1.727830908467e+01 0.0 
0.0 0.0 -8.070471404831e+00 
-5.928247184282e+01 -1.941795108255e+01 0.0 
-1.941795108255e+01 -8.721238232664e+01 0.0 
0.0 0.0 -4.464304099440e+01 
-1.599158997901e+02 7.989596774317e+00 0.0 
7.989596774317e+00 -3.825758577594e+02 0.0 
0.0 0.0 -1.623475272648e+02 
-3.474020554351e+01 2.469967199339e+01 0.0 
2.469967199339e+01 -3.525977343501e+01 0.0 
0.0 0.0 -2.058727355872e+01 
-8.693266638469e+01 -5.298105253364e-01 0.0 
-5.298105253364e-01 -2.127205493930e+02 0.0 
0.0 0.0 -8.949596473330e+01 
-1.485324953146e+02 2.379263926489e+01 0.0 
2.379263926489e+01 -3.566175326214e+02 0.0 
0.0 0.0 -1.511450083808e+02 
-3.620995211612e+01 2.089326179650e+01 0.0 
2.089326179650e+01 -3.373430887375e+01 0.0 
0.0 0.0 -2.058327829696e+01 
-1.413210943296e+02 2.799688434395e+01 0.0 
2.799688434395e+01 -3.334399813412e+02 0.0 
0.0 0.0 -1.420283227013e+02 
-4.508805762129e+01 9.859728680002e+00 0.0 
9.859728680002e+00 -5.474594845814e+01 0.0 
0.0 0.0 -2.955020182383e+01 
-1.625102351698e+02 3.469581673730e+00 0.0 
3.469581673730e+00 -3.847226805776e+02 0.0 
0.0 0.0 -1.637698747242e+02 
-4.556321140829e+00 -5.018231031989e-01 0.0 
-5.018231031989e-01 -1.616044576068e+01 0.0 
0.0 0.0 -5.641519996686e+00 
-1.329999605115e+02 2.706430985461e+01 0.0 
2.706430985461e+01 -3.071695775301e+02 0.0 
0.0 0.0 -1.316508614125e+02 
-6.002793001786e+01 5.826502545294e+00 0.0 
5.826502545294e+00 -9.173389656547e+01 0.0 
0.0 0.0 -4.512854797500e+01 
-5.360599101693e+01 -6.535842691224e-01 0.0 
-6.535842691224e-01 -1.312488490387e+02 0.0 
0.0 0.0 -5.505645201668e+01 
-1.101223201798e+02 -3.533259055019e-01 0.0 
-3.533259055019e-01 -2.677435262843e+02 0.0 
0.0 0.0 -1.129597539392e+02 
-1.273771725931e+02 2.340854677942e+01 0.0 
2.340854677942e+01 -2.896312077570e+02 0.0 
0.0 0.0 -1.247025141050e+02 
-1.210398115225e+02 1.663331638636e+01 0.0 
1.663331638636e+01 -2.747691532264e+02 0.0 
0.0 0.0 -1.183426894247e+02 
-1.142077684848e+02 4.768309567695e+00 0.0 
4.768309567695e+00 -2.624616290564e+02 0.0 
0.0 0.0 -1.126008192624e+02 
-1.151958611174e+02 7.915471264567e+00 0.0 
7.915471264567e+00 -2.626105049062e+02 0.0 
0.0 0.0 -1.129419098071e+02 
-1.179357203042e+02 1.212815384286e+01 0.0 
1.212815384286e+01 -2.686346648988e+02 0.0 
0.0 0.0 -1.155711155609e+02 
-6.047860448167e+01 3.196074989607e+00 0.0 
3.196074989607e+00 -9.817886051284e+01 0.0 
0.0 0.0 -4.719723949836e+01 
-5.598143999167e+01 9.063878430272e-01 0.0 
9.063878430272e-01 -9.616636845664e+01 0.0 
0.0 0.0 -4.524434253449e+01 
-5.468529726708e+01 5.063651983877e-01 0.0 
5.063651983877e-01 -9.713794903548e+01 0.0 
0.0 0.0 -4.514697389077e+01 
-8.090579330755e+01 4.619124163815e-01 0.0 
4.619124163815e-01 -1.674916002931e+02 0.0 
0.0 0.0 -7.411921808019e+01 
-1.624088001803e+02 1.655087222206e+00 0.0 
1.655087222206e+00 -3.830991169465e+02 0.0 
0.0 0.0 -1.632523751381e+02 
-6.879563419318e+01 1.069917250825e+01 0.0 
1.069917250825e+01 -1.067796250979e+02 0.0 
0.0 0.0 -5.349210642447e+01 
-3.222178158915e+00 -3.463737700211e-01 0.0 
-3.463737700211e-01 -1.721500746283e+01 0.0 
0.0 0.0 -5.388725139859e+00 
-1.379339447236e+02 8.610871108861e-02 0.0 
8.610871108861e-02 -3.299761841486e+02 0.0 
0.0 0.0 -1.399730386617e+02 
-5.239649383348e+01 5.780543282253e-02 0.0 
5.780543282253e-02 -9.474651092226e+01 0.0 
0.0 0.0 -4.374290142672e+01 
-2.571929396880e+01 -4.297994138851e-01 0.0 
-4.297994138851e-01 -6.913157872577e+01 0.0 
0.0 0.0 -2.805526180837e+01 
-1.228518378079e+02 1.976387997712e+01 0.0 
1.976387997712e+01 -2.775811053483e+02 0.0 
0.0 0.0 -1.197298829469e+02 
-1.457469630073e+02 2.656640592236e+01 0.0 
2.656640592236e+01 -3.468716286394e+02 0.0 
0.0 0.0 -1.473855774940e+02 
-1.370846106659e+02 2.818007081227e+01 0.0 
2.818007081227e+01 -3.200127969306e+02 0.0 
0.0 0.0 -1.367292222790e+02 
-1.510264402444e+02 2.063604917384e+01 0.0 
2.063604917384e+01 -3.647029137925e+02 0.0 
0.0 0.0 -1.543188062111e+02 
-1.579046297892e+02 1.305781754154e+01 0.0 
1.305781754154e+01 -3.793330497855e+02 0.0 
0.0 0.0 -1.607713038724e+02 
-3.002601126491e+01 -1.195726700876e+01 0.0 
-1.195726700876e+01 -2.435703715968e+01 0.0 
0.0 0.0 -1.594787819291e+01 
-5.761254529094e+01 1.664405421124e+00 0.0 
1.664405421124e+00 -9.616462106725e+01 0.0 
0.0 0.0 -4.573314990746e+01 
-1.593969231820e+02 5.311631844177e+00 0.0 
5.311631844177e+00 -3.806387293165e+02 0.0 
0.0 0.0 -1.616106957495e+02 
-9.519063025539e+01 6.279578472817e-01 0.0 
6.279578472817e-01 -2.068587644613e+02 0.0 
0.0 0.0 -9.021481841500e+01 
-6.892597811357e+00 -7.383911923520e-01 0.0 
-7.383911923520e-01 -1.723042592607e+01 0.0 
0.0 0.0 -6.949632531035e+00 
-7.004245741645e+01 -6.424050386580e-01 0.0 
-6.424050386580e-01 -1.709832393077e+02 0.0 
0.0 0.0 -7.190770901725e+01 
-1.146669345732e+02 2.939800142639e+00 0.0 
2.939800142639e+00 -2.648214855843e+02 0.0 
0.0 0.0 -1.134465260473e+02 
-3.415821471547e+01 2.378485286617e+01 0.0 
2.378485286617e+01 -3.655752202278e+01 0.0 
0.0 0.0 -2.081472102148e+01 
-3.744875977517e+01 2.665034285665e+01 0.0 
2.665034285665e+01 -3.672705168259e+01 0.0 
0.0 0.0 -2.077244865550e+01 
-3.877321302823e+01 1.452168453447e+01 0.0 
1.452168453447e+01 -3.959010680150e+01 0.0 
0.0 0.0 -2.310899594892e+01 
-5.247257675643e+01 7.383831318728e+00 0.0 
7.383831318728e+00 -7.262496839243e+01 0.0 
0.0 0.0 -3.712926354466e+01 
-4.478861940889e+01 3.408467147525e+01 0.0 
3.408467147525e+01 -4.537495081027e+01 0.0 
0.0 0.0 -2.726376847544e+01 
-6.639010026596e+01 1.928851555063e-01 0.0 
1.928851555063e-01 -1.298369454368e+02 0.0 
0.0 0.0 -5.846811371082e+01 
-1.640252576816e+02 8.384638634604e-01 0.0 
8.384638634604e-01 -3.858794958677e+02 0.0 
0.0 0.0 -1.645714260648e+02 
-2.508321678581e+00 -2.314610461826e-01 0.0 
-2.314610461826e-01 -1.640994933794e+01 0.0 
0.0 0.0 -4.870548396643e+00 
-1.085833272160e+02 7.214770658238e-01 0.0 
7.214770658238e-01 -2.461624075339e+02 0.0 
0.0 0.0 -1.060237204250e+02 
-6.375705122140e+01 5.526727228261e+00 0.0 
5.526727228261e+00 -1.006231856078e+02 0.0 
0.0 0.0 -4.891407104875e+01 
-6.860830925100e+01 7.602456273415e+00 0.0 
7.602456273415e+00 -1.107825102734e+02 0.0 
0.0 0.0 -5.341724585731e+01 
-7.143922941414e+01 6.722255089497e+00 0.0 
6.722255089497e+00 -1.190770498521e+02 0.0 
0.0 0.0 -5.675488377987e+01 
-7.696118434210e+01 9.380988997413e+00 0.0 
9.380988997413e+00 -1.314853415436e+02 0.0 
0.0 0.0 -6.213395776570e+01 
-8.018356803976e+01 8.712821467034e+00 0.0 
8.712821467034e+00 -1.405346690522e+02 0.0 
0.0 0.0 -6.581547112758e+01 
-8.485028291201e+01 1.096880573484e+01 0.0 
1.096880573484e+01 -1.520498035482e+02 0.0 
0.0 0.0 -7.067002593806e+01 
-8.184817120688e+01 1.182794910161e+01 0.0 
1.182794910161e+01 -1.434759136163e+02 0.0 
0.0 0.0 -6.719722544695e+01 
-8.943021589208e+01 1.330509805194e+01 0.0 
1.330509805194e+01 -1.643059592602e+02 0.0 
0.0 0.0 -7.572085254569e+01 
-8.629862653636e+01 1.430987074551e+01 0.0 
1.430987074551e+01 -1.561549268854e+02 0.0 
0.0 0.0 -7.233606602653e+01 
-8.810503354827e+01 1.036184468105e+01 0.0 
1.036184468105e+01 -1.612748603702e+02 0.0 
0.0 0.0 -7.441396817554e+01 
-9.366377152150e+01 1.560131637803e+01 0.0 
1.560131637803e+01 -1.771865823277e+02 0.0 
0.0 0.0 -8.085510615477e+01 
-9.044159935041e+01 1.669681055063e+01 0.0 
1.669681055063e+01 -1.695791234114e+02 0.0 
0.0 0.0 -7.760621682854e+01 
-9.762283841454e+01 1.775305811256e+01 0.0 
1.775305811256e+01 -1.906654127367e+02 0.0 
0.0 0.0 -8.608647534537e+01 
-9.429051867275e+01 1.887640227596e+01 0.0 
1.887640227596e+01 -1.836613356236e+02 0.0 
0.0 0.0 -8.298555628890e+01 
-8.704165652059e+01 1.804584036273e+01 0.0 
1.804584036273e+01 -1.626318100431e+02 0.0 
0.0 0.0 -7.450203996911e+01 
-9.070464177089e+01 2.016466194775e+01 0.0 
2.016466194775e+01 -1.773407081591e+02 0.0 
0.0 0.0 -8.001360497898e+01 
-8.339957339216e+01 1.960799553893e+01 0.0 
1.960799553893e+01 -1.563021939692e+02 0.0 
0.0 0.0 -7.151053020840e+01 
-8.685663572974e+01 2.159431512880e+01 0.0 
2.159431512880e+01 -1.717277406343e+02 0.0 
0.0 0.0 -7.717531290922e+01 
-9.414174204920e+01 2.186556059650e+01 0.0 
2.186556059650e+01 -1.924682737538e+02 0.0 
0.0 0.0 -8.558300474091e+01 
-9.010718978449e+01 2.306003006872e+01 0.0 
2.306003006872e+01 -1.874523915398e+02 0.0 
0.0 0.0 -8.286787439729e+01 
-8.268318366851e+01 2.307045032641e+01 0.0 
2.307045032641e+01 -1.668606756701e+02 0.0 
0.0 0.0 -7.446315780160e+01 
-8.574702132484e+01 2.420467605952e+01 0.0 
2.420467605952e+01 -1.830920889813e+02 0.0 
0.0 0.0 -8.025173309185e+01 
-7.826635850612e+01 2.446071625651e+01 0.0 
2.446071625651e+01 -1.628121431024e+02 0.0 
0.0 0.0 -7.192355048256e+01 
-8.118794759055e+01 2.517722430740e+01 0.0 
2.517722430740e+01 -1.794532377565e+02 0.0 
0.0 0.0 -7.779235560413e+01 
-7.366957150445e+01 2.563156762635e+01 0.0 
2.563156762635e+01 -1.595168538885e+02 0.0 
0.0 0.0 -6.955592761789e+01 
-7.647779044333e+01 2.589336110921e+01 0.0 
2.589336110921e+01 -1.764256860021e+02 0.0 
0.0 0.0 -7.547104293363e+01 
-8.410810327836e+01 2.534647907043e+01 0.0 
2.534647907043e+01 -1.958253450371e+02 0.0 
0.0 0.0 -8.358003449464e+01 
-7.928852669489e+01 2.563406041044e+01 0.0 
2.563406041044e+01 -1.928678824066e+02 0.0 
0.0 0.0 -8.124692273044e+01 
-7.168559315853e+01 2.628708961715e+01 0.0 
2.628708961715e+01 -1.739110744161e+02 0.0 
0.0 0.0 -7.327900027239e+01 
-7.442144261422e+01 2.558220868719e+01 0.0 
2.558220868719e+01 -1.902973969174e+02 0.0 
0.0 0.0 -7.901565185947e+01 
-6.692319186710e+01 2.628845459971e+01 0.0 
2.628845459971e+01 -1.718154366102e+02 0.0 
0.0 0.0 -7.122158854320e+01 
-6.958592597155e+01 2.513279094644e+01 0.0 
2.513279094644e+01 -1.879938647591e+02 0.0 
0.0 0.0 -7.687393721919e+01 
-7.730843778204e+01 2.446980001038e+01 0.0 
2.446980001038e+01 -2.060258782903e+02 0.0 
0.0 0.0 -8.460029482172e+01 
-7.244635200549e+01 2.359906106852e+01 0.0 
2.359906106852e+01 -2.034109361817e+02 0.0 
0.0 0.0 -8.235718645615e+01 
-6.482864370553e+01 2.425724254074e+01 0.0 
2.425724254074e+01 -1.858179531463e+02 0.0 
0.0 0.0 -7.479397905555e+01 
-6.767547473418e+01 2.229492065149e+01 0.0 
2.229492065149e+01 -2.008350874366e+02 0.0 
0.0 0.0 -8.015316865124e+01 
-6.021014006538e+01 2.293894246461e+01 0.0 
2.293894246461e+01 -1.837006879291e+02 0.0 
0.0 0.0 -7.277324839834e+01 
-6.306286242575e+01 2.052348554113e+01 0.0 
2.052348554113e+01 -1.982255418610e+02 0.0 
0.0 0.0 -7.798652128602e+01 
-5.575817630913e+01 2.113130396420e+01 0.0 
2.113130396420e+01 -1.815743644217e+02 0.0 
0.0 0.0 -7.079976221925e+01 
-5.862463904770e+01 1.823069693286e+01 0.0 
1.823069693286e+01 -1.953982173526e+02 0.0 
0.0 0.0 -7.580685692010e+01 
-6.631736403117e+01 1.792189168931e+01 0.0 
1.792189168931e+01 -2.116583775648e+02 0.0 
0.0 0.0 -8.299272247879e+01 
-6.199971410493e+01 1.525514564641e+01 0.0 
1.525514564641e+01 -2.080392264341e+02 0.0 
0.0 0.0 -8.061168216170e+01 
-5.444834826240e+01 1.538573468386e+01 0.0 
1.538573468386e+01 -1.922578980092e+02 0.0 
0.0 0.0 -7.361187388149e+01 
-5.797822696155e+01 1.205750869842e+01 0.0 
1.205750869842e+01 -2.038393449246e+02 0.0 
0.0 0.0 -7.814527156584e+01 
-6.587195323545e+01 1.237261294439e+01 0.0 
1.237261294439e+01 -2.195631220624e+02 0.0 
0.0 0.0 -8.523052258936e+01 
-6.204968395944e+01 9.002251187575e+00 0.0 
9.002251187575e+00 -2.142323262942e+02 0.0 
0.0 0.0 -8.248460307610e+01 
-7.020716320219e+01 9.746827387841e+00 0.0 
9.746827387841e+00 -2.300801436917e+02 0.0 
0.0 0.0 -8.968619206815e+01 
-6.658780759915e+01 6.360952446824e+00 0.0 
6.360952446824e+00 -2.236531994864e+02 0.0 
0.0 0.0 -8.667230212567e+01 
-5.871919857778e+01 5.256458327721e+00 0.0 
5.256458327721e+00 -2.080487323851e+02 0.0 
0.0 0.0 -7.963037928887e+01 
-6.346238328749e+01 2.750857032200e+00 0.0 
2.750857032200e+00 -2.162813124027e+02 0.0 
0.0 0.0 -8.352310870705e+01 
-7.148117370712e+01 4.205576183166e+00 0.0 
4.205576183166e+00 -2.323125874064e+02 0.0 
0.0 0.0 -9.073812833405e+01 
-6.848675048697e+01 8.598763566000e-01 0.0 
8.598763566000e-01 -2.238928349045e+02 0.0 
0.0 0.0 -8.731387561745e+01 
-6.087304955345e+01 -9.338945286929e-01 0.0 
-9.338945286929e-01 -2.077925266366e+02 0.0 
0.0 0.0 -8.019967285702e+01 
-6.598457118086e+01 -2.395565153285e+00 0.0 
-2.395565153285e+00 -2.144693248043e+02 0.0 
0.0 0.0 -8.373616879556e+01 
-7.369116308787e+01 -4.527274638767e-01 0.0 
-4.527274638767e-01 -2.311848774062e+02 0.0 
0.0 0.0 -9.106281214821e+01 
-7.117413629121e+01 -3.251355802201e+00 0.0 
-3.251355802201e+00 -2.210424427729e+02 0.0 
0.0 0.0 -8.726497371923e+01 
-6.389977248707e+01 -5.365788556886e+00 0.0 
-5.365788556886e+00 -2.039754199273e+02 0.0 
0.0 0.0 -7.996255772430e+01 
-6.896663742101e+01 -5.686129558967e+00 0.0 
-5.686129558967e+00 -2.100190897245e+02 0.0 
0.0 0.0 -8.329571814365e+01 
-7.639783370516e+01 -3.620739463090e+00 0.0 
-3.620739463090e+00 -2.277546110164e+02 0.0 
0.0 0.0 -9.084573341647e+01 
-7.396746177460e+01 -5.588215662386e+00 0.0 
-5.588215662386e+00 -2.163095633479e+02 0.0 
0.0 0.0 -8.668310753674e+01 
-6.693322261759e+01 -7.610506256508e+00 0.0 
-7.610506256508e+00 -1.981351377630e+02 0.0 
0.0 0.0 -7.912050811418e+01 
-7.164032986788e+01 -7.071622592318e+00 0.0 
-7.071622592318e+00 -2.042414850420e+02 0.0 
0.0 0.0 -8.236454447297e+01 
-7.891143885096e+01 -5.219680420866e+00 0.0 
-5.219680420866e+00 -2.229477207856e+02 0.0 
0.0 0.0 -9.015774789097e+01 
-7.625448740181e+01 -6.352063723761e+00 0.0 
-6.352063723761e+00 -2.107395941644e+02 0.0 
0.0 0.0 -8.569822446986e+01 
-8.377282763260e+01 -4.679229165520e+00 0.0 
-4.679229165520e+00 -2.298389334017e+02 0.0 
0.0 0.0 -9.368352831029e+01 
-6.921055512139e+01 -8.000093561575e+00 0.0 
-8.000093561575e+00 -1.915292645787e+02 0.0 
0.0 0.0 -7.782194591004e+01 
-7.347792004943e+01 -6.994906476928e+00 0.0 
-6.994906476928e+00 -1.981378285292e+02 0.0 
0.0 0.0 -8.108472457359e+01 
-6.655319699236e+01 -8.355278661022e+00 0.0 
-8.355278661022e+00 -1.784101756641e+02 0.0 
0.0 0.0 -7.308901179693e+01 
-7.049971371133e+01 -7.156313198244e+00 0.0 
-7.156313198244e+00 -1.853330710580e+02 0.0 
0.0 0.0 -7.634983543079e+01 
-8.043120182877e+01 2.305275493455e+01 0.0 
2.305275493455e+01 -2.210449986626e+02 0.0 
0.0 0.0 -9.004286014740e+01 
-6.356976704900e+01 -8.152168474837e+00 0.0 
-8.152168474837e+00 -1.652121019037e+02 0.0 
0.0 0.0 -6.823456068580e+01 
-6.006731888044e+01 -9.510265163454e+00 0.0 
-9.510265163454e+00 -1.585861739930e+02 0.0 
0.0 0.0 -6.519604786203e+01 
-6.721628740802e+01 -6.882194915490e+00 0.0 
-6.882194915490e+00 -1.725087435966e+02 0.0 
0.0 0.0 -7.151750930139e+01 
-7.449841077191e+01 -6.022665362606e+00 0.0 
-6.022665362606e+00 -1.927273810995e+02 0.0 
0.0 0.0 -7.976773756144e+01 
-6.013889761772e+01 -7.495430004265e+00 0.0 
-7.495430004265e+00 -1.520980209685e+02 0.0 
0.0 0.0 -6.327107557587e+01 
-6.355927463357e+01 -6.274917160277e+00 0.0 
-6.274917160277e+00 -1.597728340673e+02 0.0 
0.0 0.0 -6.659963261026e+01 
-5.622181195614e+01 -6.545896582225e+00 0.0 
-6.545896582225e+00 -1.392087577159e+02 0.0 
0.0 0.0 -5.822917090161e+01 
-5.317674635004e+01 2.373081514888e+01 0.0 
2.373081514888e+01 -1.662522487702e+02 0.0 
0.0 0.0 -6.542869853607e+01 
-9.747509768924e+01 2.314052123682e+01 0.0 
2.314052123682e+01 -2.078465462887e+02 0.0 
0.0 0.0 -9.119649319338e+01 
-5.950010034605e+01 -5.442582012032e+00 0.0 
-5.442582012032e+00 -1.472298126180e+02 0.0 
0.0 0.0 -6.161897388920e+01 
-5.181290450092e+01 -5.400686941086e+00 0.0 
-5.400686941086e+00 -1.266203752532e+02 0.0 
0.0 0.0 -5.312998392625e+01 
-4.883171404831e+01 -6.432043515691e+00 0.0 
-6.432043515691e+00 -1.184733955016e+02 0.0 
0.0 0.0 -4.979153286497e+01 
-4.398583568127e+01 -5.032018913571e+00 0.0 
-5.032018913571e+00 -1.059695120645e+02 0.0 
0.0 0.0 -4.458660432373e+01 
-8.354214882915e+01 8.395964598319e+00 0.0 
8.395964598319e+00 -1.501676239673e+02 0.0 
0.0 0.0 -6.971293183894e+01 
-9.091313707216e+01 9.821418540968e+00 0.0 
9.821418540968e+00 -1.706630702513e+02 0.0 
0.0 0.0 -7.807286219704e+01 
-8.611759953772e+01 7.896520724068e+00 0.0 
7.896520724068e+00 -1.591522818198e+02 0.0 
0.0 0.0 -7.318096440726e+01 
-9.363012390480e+01 9.450723728436e+00 0.0 
9.450723728436e+00 -1.801659234131e+02 0.0 
0.0 0.0 -8.173881419538e+01 
-8.913985218631e+01 7.661202449310e+00 0.0 
7.661202449310e+00 -1.693482946924e+02 0.0 
0.0 0.0 -7.714644406361e+01 
-4.700364344741e+01 -4.206665167299e+00 0.0 
-4.206665167299e+00 -1.143344425581e+02 0.0 
0.0 0.0 -4.800142580166e+01 
-1.007702058860e+02 1.681908782789e+01 0.0 
1.681908782789e+01 -1.984022341592e+02 0.0 
0.0 0.0 -8.935173201355e+01 
-9.802561312222e+01 1.135376831149e+01 0.0 
1.135376831149e+01 -1.914237042686e+02 0.0 
0.0 0.0 -8.643479521723e+01 
-7.522309116272e+01 2.308503584194e+01 0.0 
2.308503584194e+01 -1.460434094904e+02 0.0 
0.0 0.0 -6.597995019593e+01 
-6.433682099197e+01 2.695156566473e+01 0.0 
2.695156566473e+01 -1.549041887524e+02 0.0 
0.0 0.0 -6.537230292332e+01 
-7.424876088879e+01 1.281410111708e+01 0.0 
1.281410111708e+01 -2.357312399032e+02 0.0 
0.0 0.0 -9.259400023760e+01 
-6.710875296728e+01 -5.153389280022e+00 0.0 
-5.153389280022e+00 -1.676886554697e+02 0.0 
0.0 0.0 -7.003922253110e+01 
-6.295118521325e+01 -4.446029323049e+00 0.0 
-4.446029323049e+00 -1.554425871688e+02 0.0 
0.0 0.0 -6.511813171462e+01 
-7.071862969803e+01 -4.122309202458e+00 0.0 
-4.122309202458e+00 -1.758404822744e+02 0.0 
0.0 0.0 -7.356773359172e+01 
-8.670354989737e+01 -3.398388893175e+00 0.0 
-3.398388893175e+00 -2.416652393730e+02 0.0 
0.0 0.0 -9.811063678110e+01 
-9.174261654648e+01 -3.024927809554e+00 0.0 
-3.024927809554e+00 -2.488375284316e+02 0.0 
0.0 0.0 -1.017740434934e+02 
-9.497283567011e+01 -1.649241443876e+00 0.0 
-1.649241443876e+00 -2.603397663884e+02 0.0 
0.0 0.0 -1.061937806176e+02 
-1.001434156368e+02 -1.428427938938e+00 0.0 
-1.428427938938e+00 -2.677304622034e+02 0.0 
0.0 0.0 -1.099621633521e+02 
-1.036906724968e+02 1.554836921083e-03 0.0 
1.554836921083e-03 -2.789621623535e+02 0.0 
0.0 0.0 -1.143958504551e+02 
-1.089551661454e+02 7.379794632022e-02 0.0 
7.379794632022e-02 -2.865347270481e+02 0.0 
0.0 0.0 -1.182469679581e+02 
-1.052120819884e+02 -1.135231370042e+00 0.0 
-1.135231370042e+00 -2.751973663703e+02 0.0 
0.0 0.0 -1.137228345076e+02 
-1.141101650870e+02 2.087020655937e-01 0.0 
2.087020655937e-01 -2.941420435524e+02 0.0 
0.0 0.0 -1.220756625918e+02 
-1.101750613987e+02 -8.153225764975e-01 0.0 
-8.153225764975e-01 -2.827533042775e+02 0.0 
0.0 0.0 -1.174785097028e+02 
-1.128294254385e+02 1.525864445259e+00 0.0 
1.525864445259e+00 -2.975312184492e+02 0.0 
0.0 0.0 -1.227081931663e+02 
-1.073701022989e+02 1.681834772221e+00 0.0 
1.681834772221e+00 -2.897375238702e+02 0.0 
0.0 0.0 -1.187322878507e+02 
-1.191471163622e+02 3.629355632378e-01 0.0 
3.629355632378e-01 -3.017959109647e+02 0.0 
0.0 0.0 -1.258829081981e+02 
-1.150274373143e+02 -5.070663933980e-01 0.0 
-5.070663933980e-01 -2.903941188050e+02 0.0 
0.0 0.0 -1.212264668358e+02 
-1.240639218437e+02 5.037954494731e-01 0.0 
5.037954494731e-01 -3.095091774555e+02 0.0 
0.0 0.0 -1.296719297898e+02 
-1.197660958470e+02 -2.311442389841e-01 0.0 
-2.311442389841e-01 -2.981208183685e+02 0.0 
0.0 0.0 -1.249660742647e+02 
-1.109348579589e+02 -1.161176734144e+00 0.0 
-1.161176734144e+00 -2.787955491118e+02 0.0 
0.0 0.0 -1.165191221212e+02 
-1.154813248493e+02 -7.763171573891e-01 0.0 
-7.763171573891e-01 -2.865717109530e+02 0.0 
0.0 0.0 -1.202159107407e+02 
-1.068542014784e+02 -1.586773270632e+00 0.0 
-1.586773270632e+00 -2.671492907297e+02 0.0 
0.0 0.0 -1.118010476624e+02 
-7.881006746569e+01 1.055038669362e+01 0.0 
1.055038669362e+01 -2.463754888398e+02 0.0 
0.0 0.0 -9.715566689164e+01 
-8.305180944904e+01 1.335414246365e+01 0.0 
1.335414246365e+01 -2.522975506390e+02 0.0 
0.0 0.0 -1.002048080264e+02 
-8.782232064225e+01 1.139458095860e+01 0.0 
1.139458095860e+01 -2.630580050818e+02 0.0 
0.0 0.0 -1.048640977172e+02 
-9.225605039699e+01 1.397496368954e+01 0.0 
1.397496368954e+01 -2.692209025321e+02 0.0 
0.0 0.0 -1.080430858787e+02 
-9.724221597865e+01 1.228172472589e+01 0.0 
1.228172472589e+01 -2.800764488085e+02 0.0 
0.0 0.0 -1.127955994362e+02 
-1.018463912845e+02 1.467898257868e+01 0.0 
1.467898257868e+01 -2.864296699326e+02 0.0 
0.0 0.0 -1.160828183651e+02 
-1.070573554433e+02 1.321480974394e+01 0.0 
1.321480974394e+01 -2.973354566308e+02 0.0 
0.0 0.0 -1.209178436222e+02 
-1.025040133416e+02 1.079527899689e+01 0.0 
1.079527899689e+01 -2.903045640003e+02 0.0 
0.0 0.0 -1.174425732026e+02 
-1.013285675568e+02 1.971136476903e+01 0.0 
1.971136476903e+01 -2.046364978416e+02 0.0 
0.0 0.0 -9.138951961953e+01 
-5.060463131341e+01 1.190438894027e+01 0.0 
1.190438894027e+01 -1.885924857785e+02 0.0 
0.0 0.0 -7.135913512759e+01 
-4.750354791574e+01 1.574467523197e+01 0.0 
1.574467523197e+01 -1.768559251809e+02 0.0 
0.0 0.0 -6.690784192898e+01 
-4.384564901657e+01 1.198290153162e+01 0.0 
1.198290153162e+01 -1.739002261669e+02 0.0 
0.0 0.0 -6.492376255504e+01 
-4.133109151809e+01 1.642043618875e+01 0.0 
1.642043618875e+01 -1.618920387515e+02 0.0 
0.0 0.0 -6.056693908088e+01 
-3.784126957763e+01 1.242016857264e+01 0.0 
1.242016857264e+01 -1.598315726490e+02 0.0 
0.0 0.0 -5.890185266800e+01 
-3.614705665303e+01 1.754313984280e+01 0.0 
1.754313984280e+01 -1.473323421791e+02 0.0 
0.0 0.0 -5.464381964963e+01 
-3.294550629205e+01 1.335311530854e+01 0.0 
1.335311530854e+01 -1.464118161006e+02 0.0 
0.0 0.0 -5.335223970793e+01 
-3.485687513765e+01 7.328106541467e+00 0.0 
7.328106541467e+00 -1.569323763387e+02 0.0 
0.0 0.0 -5.711273983490e+01 
-3.069900684199e+01 7.660282457956e+00 0.0 
7.660282457956e+00 -1.447617269152e+02 0.0 
0.0 0.0 -5.234153428966e+01 
-3.299423916327e+01 1.086041904510e+00 0.0 
1.086041904510e+00 -1.522972475082e+02 0.0 
0.0 0.0 -5.506281968228e+01 
-2.943837840259e+01 5.159773327153e-01 0.0 
5.159773327153e-01 -1.410420636221e+02 0.0 
0.0 0.0 -5.130534997079e+01 
-3.234502475741e+01 -5.836689120998e+00 0.0 
-5.836689120998e+00 -1.449502659696e+02 0.0 
0.0 0.0 -5.290420109022e+01 
-8.710341139001e+01 2.508057764591e+01 0.0 
2.508057764591e+01 -2.118082640070e+02 0.0 
0.0 0.0 -8.927350261911e+01 
-9.692916964883e+01 1.629367189180e+01 0.0 
1.629367189180e+01 -2.748577739441e+02 0.0 
0.0 0.0 -1.111360830779e+02 
-1.066657819700e+02 1.686329416990e+01 0.0 
1.686329416990e+01 -2.923184613317e+02 0.0 
0.0 0.0 -1.192952729905e+02 
-1.017401376563e+02 1.833281327537e+01 0.0 
1.833281327537e+01 -2.800248237523e+02 0.0 
0.0 0.0 -1.141294884226e+02 
-4.117659677247e+01 -5.858343866570e+00 0.0 
-5.858343866570e+00 -9.767679356871e+01 0.0 
0.0 0.0 -4.125601710235e+01 
-1.243935144886e+02 -7.469105891818e-03 0.0 
-7.469105891818e-03 -3.059485985829e+02 0.0 
0.0 0.0 -1.287026339214e+02 
-1.168750257993e+02 3.192692842067e+00 0.0 
3.192692842067e+00 -3.081129011337e+02 0.0 
0.0 0.0 -1.270963780799e+02 
-1.112357881251e+02 3.560048657323e+00 0.0 
3.560048657323e+00 -2.999813506287e+02 0.0 
0.0 0.0 -1.229651416262e+02 
-1.125348825336e+02 1.190760435722e+01 0.0 
1.190760435722e+01 -3.076857060272e+02 0.0 
0.0 0.0 -1.256661765682e+02 
-3.880007279783e+01 -3.730233201921e+00 0.0 
-3.730233201921e+00 -9.402970076870e+01 0.0 
0.0 0.0 -3.944893206996e+01 
-3.260041919392e+01 1.926862259025e+01 0.0 
1.926862259025e+01 -1.332060880085e+02 0.0 
0.0 0.0 -4.930741311018e+01 
-3.546868645101e+01 2.220422048630e+01 0.0 
2.220422048630e+01 -1.324056634442e+02 0.0 
0.0 0.0 -4.996230496858e+01 
-9.630178805544e+01 9.134118424473e+00 0.0 
9.134118424473e+00 -1.899089385695e+02 0.0 
0.0 0.0 -8.546321798750e+01 
-9.194726721181e+01 7.458630314686e+00 0.0 
7.458630314686e+00 -1.793170483752e+02 0.0 
0.0 0.0 -8.097929467611e+01 
-1.211598931461e+02 5.021853337718e+00 0.0 
5.021853337718e+00 -3.182657789026e+02 0.0 
0.0 0.0 -1.314277016146e+02 
-4.192915469994e+01 -3.126981375232e+00 0.0 
-3.126981375232e+00 -1.024972613159e+02 0.0 
0.0 0.0 -4.292792480476e+01 
-1.233629794499e+02 1.438384512098e+00 0.0 
1.438384512098e+00 -3.129796171144e+02 0.0 
0.0 0.0 -1.305027789693e+02 
-2.822105528343e+01 8.695265857688e+00 0.0 
8.695265857688e+00 -1.340444548826e+02 0.0 
0.0 0.0 -4.935267648234e+01 
-1.199415276905e+02 -4.635203281335e-01 0.0 
-4.635203281335e-01 -2.944706783220e+02 0.0 
0.0 0.0 -1.239236618037e+02 
-1.288859869767e+02 1.549966873808e-01 0.0 
1.549966873808e-01 -3.138699469739e+02 0.0 
0.0 0.0 -1.324267801852e+02 
-1.015502216254e+02 -2.075496208854e+00 0.0 
-2.075496208854e+00 -2.636146590671e+02 0.0 
0.0 0.0 -1.091494642078e+02 
-1.116202653363e+02 1.883334431059e+01 0.0 
1.883334431059e+01 -2.978380698103e+02 0.0 
0.0 0.0 -1.224375005440e+02 
-1.066485964600e+02 2.008297743123e+01 0.0 
2.008297743123e+01 -2.848777172802e+02 0.0 
0.0 0.0 -1.170578941220e+02 
-3.671333218199e+01 -4.028735364405e+00 0.0 
-4.028735364405e+00 -1.576755535139e+02 0.0 
0.0 0.0 -5.789150403878e+01 
-3.646003851909e+01 -1.009048324719e+01 0.0 
-1.009048324719e+01 -1.475767033297e+02 0.0 
0.0 0.0 -5.474192388906e+01 
-3.338698843088e+01 -1.278772135311e+01 0.0 
-1.278772135311e+01 -1.341075315486e+02 0.0 
0.0 0.0 -5.018170029437e+01 
-3.794655638503e+01 -1.529864114451e+01 0.0 
-1.529864114451e+01 -1.348081650101e+02 0.0 
0.0 0.0 -5.125106906507e+01 
-4.120309353401e+01 -1.220149345092e+01 0.0 
-1.220149345092e+01 -1.501040576669e+02 0.0 
0.0 0.0 -5.698528157904e+01 
-4.180684570995e+01 -1.577926996023e+01 0.0 
-1.577926996023e+01 -1.358523382325e+02 0.0 
0.0 0.0 -5.279937543005e+01 
-4.001202053932e+01 -1.881199132144e+01 0.0 
-1.881199132144e+01 -1.185564855770e+02 0.0 
0.0 0.0 -4.658296181368e+01 
-4.260746295641e+01 -1.753147454191e+01 0.0 
-1.753147454191e+01 -1.195502880847e+02 0.0 
0.0 0.0 -4.790232420200e+01 
-4.571768129291e+01 -1.508581558258e+01 0.0 
-1.508581558258e+01 -1.384350322691e+02 0.0 
0.0 0.0 -5.484581406860e+01 
-4.528361139186e+01 -1.568246894977e+01 0.0 
-1.568246894977e+01 -1.226173829788e+02 0.0 
0.0 0.0 -4.991791810991e+01 
-4.296168010426e+01 -1.680872250664e+01 0.0 
-1.680872250664e+01 -1.019203067736e+02 0.0 
0.0 0.0 -4.234094023561e+01 
-4.402342940417e+01 -1.445304259609e+01 0.0 
-1.445304259609e+01 -1.062636730888e+02 0.0 
0.0 0.0 -4.451203330202e+01 
-1.334849030356e+02 6.690145108578e-01 0.0 
6.690145108578e-01 -3.251444758127e+02 0.0 
0.0 0.0 -1.371888136545e+02 
-2.715414894013e+01 2.466311478095e-01 0.0 
2.466311478095e-01 -1.312555535839e+02 0.0 
0.0 0.0 -4.873233585005e+01 
-7.957826183078e+01 1.715398938586e+01 0.0 
1.715398938586e+01 -1.413974527936e+02 0.0 
0.0 0.0 -6.589271438732e+01 
-1.267874825097e+02 4.542021328117e+00 0.0 
4.542021328117e+00 -3.264418521883e+02 0.0 
0.0 0.0 -1.355688004094e+02 
-1.172219966165e+02 1.419940444690e+01 0.0 
1.419940444690e+01 -3.146048614455e+02 0.0 
0.0 0.0 -1.291480574186e+02 
-9.893428897349e+01 8.838778978110e+00 0.0 
8.838778978110e+00 -1.998663516378e+02 0.0 
0.0 0.0 -8.924019218339e+01 
-9.472908009645e+01 7.261352123703e+00 0.0 
7.261352123703e+00 -1.895153631787e+02 0.0 
0.0 0.0 -8.487333298255e+01 
-8.744264612316e+01 5.905303946515e+00 0.0 
5.905303946515e+00 -1.690451151753e+02 0.0 
0.0 0.0 -7.654632838955e+01 
-9.043420569040e+01 5.816581942542e+00 0.0 
5.816581942542e+00 -1.795276348461e+02 0.0 
0.0 0.0 -8.058855216094e+01 
-9.748745906167e+01 7.061456546661e+00 0.0 
7.061456546661e+00 -1.999592134180e+02 0.0 
0.0 0.0 -8.883400174390e+01 
-9.339493694728e+01 5.695182715964e+00 0.0 
5.695182715964e+00 -1.900907787255e+02 0.0 
0.0 0.0 -8.464571470184e+01 
-8.609424386614e+01 4.564993740134e+00 0.0 
4.564993740134e+00 -1.697846825825e+02 0.0 
0.0 0.0 -7.636367793460e+01 
-8.927391851677e+01 4.499215861099e+00 0.0 
4.499215861099e+00 -1.804122705248e+02 0.0 
0.0 0.0 -8.050585671248e+01 
-8.178238487391e+01 3.490167229253e+00 0.0 
3.490167229253e+00 -1.602141539518e+02 0.0 
0.0 0.0 -7.219896164772e+01 
-8.514536237447e+01 3.469419252633e+00 0.0 
3.469419252633e+00 -1.709279616682e+02 0.0 
0.0 0.0 -7.642199721279e+01 
-9.244646232134e+01 4.382681218183e+00 0.0 
4.382681218183e+00 -1.911198690456e+02 0.0 
0.0 0.0 -8.466989941009e+01 
-8.850153032925e+01 3.413850629105e+00 0.0 
3.413850629105e+00 -1.817442955840e+02 0.0 
0.0 0.0 -8.067374777399e+01 
-8.101640385065e+01 2.597115714873e+00 0.0 
2.597115714873e+00 -1.616587068862e+02 0.0 
0.0 0.0 -7.240253322106e+01 
-8.455279309971e+01 2.590580414610e+00 0.0 
2.590580414610e+00 -1.724862519349e+02 0.0 
0.0 0.0 -7.671171351039e+01 
-7.691418127306e+01 1.899484717437e+00 0.0 
1.899484717437e+00 -1.524665217915e+02 0.0 
0.0 0.0 -6.841421091936e+01 
-8.063912554374e+01 1.922634246423e+00 0.0 
1.922634246423e+00 -1.632349978851e+02 0.0 
0.0 0.0 -7.276223702864e+01 
-8.810072991518e+01 2.465617692543e+00 0.0 
2.465617692543e+00 -1.833847684233e+02 0.0 
0.0 0.0 -8.104564950155e+01 
-3.364597510234e+01 -2.667842314715e+00 0.0 
-2.667842314715e+00 -8.293159698503e+01 0.0 
0.0 0.0 -3.457327162621e+01 
-1.079985199089e+02 9.523496547792e+00 0.0 
9.523496547792e+00 -3.000316843456e+02 0.0 
0.0 0.0 -1.220090612764e+02 
-1.182946723959e+02 1.075994129182e+01 0.0 
1.075994129182e+01 -3.176834164940e+02 0.0 
0.0 0.0 -1.303934266670e+02 
-6.664002975431e+01 -3.429236120035e+00 0.0 
-3.429236120035e+00 -1.644112342691e+02 0.0 
0.0 0.0 -6.891537920703e+01 
-7.427829071548e+01 -3.153276549705e+00 0.0 
-3.153276549705e+00 -1.838583909056e+02 0.0 
0.0 0.0 -7.704100448634e+01 
-7.851239249502e+01 -3.739463901330e+00 0.0 
-3.739463901330e+00 -1.960310174782e+02 0.0 
0.0 0.0 -8.196302299198e+01 
-8.248436247374e+01 -2.851100335080e+00 0.0 
-2.851100335080e+00 -2.043765915213e+02 0.0 
0.0 0.0 -8.565828619850e+01 
-8.430508659621e+01 1.806301491532e+00 0.0 
1.806301491532e+00 -1.740386116832e+02 0.0 
0.0 0.0 -7.710310948382e+01 
-9.157274622181e+01 2.240135077658e+00 0.0 
2.240135077658e+00 -1.943223319464e+02 0.0 
0.0 0.0 -8.536852345045e+01 
-3.349868236534e+01 2.435709819445e+01 0.0 
2.435709819445e+01 -1.171097599887e+02 0.0 
0.0 0.0 -4.463356736989e+01 
-3.563492364719e+01 2.587103209466e+01 0.0 
2.587103209466e+01 -1.153147823353e+02 0.0 
0.0 0.0 -4.481698334449e+01 
-1.030207823419e+02 1.055082121008e+01 0.0 
1.055082121008e+01 -2.105889246153e+02 0.0 
0.0 0.0 -9.368291208715e+01 
-1.243068782139e+02 -2.050300607249e-01 0.0 
-2.050300607249e-01 -3.025481770709e+02 0.0 
0.0 0.0 -1.276565165854e+02 
-1.155147413252e+02 -7.406030948704e-01 0.0 
-7.406030948704e-01 -2.830207174548e+02 0.0 
0.0 0.0 -1.191606376340e+02 
-5.981406947139e+01 2.697880213192e+01 0.0 
2.697880213192e+01 -1.532916647649e+02 0.0 
0.0 0.0 -6.353172027089e+01 
-5.731668140899e+01 2.749207340386e+01 0.0 
2.749207340386e+01 -1.357737808802e+02 0.0 
0.0 0.0 -5.752713868676e+01 
-5.320739950460e+01 2.756576289622e+01 0.0 
2.756576289622e+01 -1.345793540811e+02 0.0 
0.0 0.0 -5.593602607571e+01 
-5.068568559475e+01 2.777992747762e+01 0.0 
2.777992747762e+01 -1.161265068699e+02 0.0 
0.0 0.0 -4.964365773939e+01 
-5.460896665338e+01 2.733075399573e+01 0.0 
2.733075399573e+01 -1.174856190458e+02 0.0 
0.0 0.0 -5.122837570975e+01 
-4.719085684935e+01 2.796059184305e+01 0.0 
2.796059184305e+01 -1.151998364293e+02 0.0 
0.0 0.0 -4.831720798361e+01 
-1.017501323729e+02 1.941663266934e+00 0.0 
1.941663266934e+00 -2.817029604494e+02 0.0 
0.0 0.0 -1.146359278467e+02 
-9.562912967616e+01 4.218348401313e+00 0.0 
4.218348401313e+00 -2.019698096103e+02 0.0 
0.0 0.0 -8.887968178594e+01 
-4.612177489096e+01 -7.558951142768e+00 0.0 
-7.558951142768e+00 -1.105763096583e+02 0.0 
0.0 0.0 -4.660942536478e+01 
-3.879625968593e+01 -6.735955082047e+00 0.0 
-6.735955082047e+00 -8.964619647245e+01 0.0 
0.0 0.0 -3.813273684751e+01 
-1.332329964253e+02 2.592721738205e-01 0.0 
2.592721738205e-01 -3.219598777539e+02 0.0 
0.0 0.0 -1.361578622538e+02 
-9.819180081928e+01 8.249529902078e+00 0.0 
8.249529902078e+00 -2.826403258378e+02 0.0 
0.0 0.0 -1.138496379971e+02 
-9.188340912395e+01 2.492507796827e+01 0.0 
2.492507796827e+01 -2.151675309337e+02 0.0 
0.0 0.0 -9.171528201730e+01 
-9.511635943555e+01 2.468922354938e+01 0.0 
2.468922354938e+01 -2.307943586316e+02 0.0 
0.0 0.0 -9.737321542016e+01 
-9.981692848004e+01 2.469263708586e+01 0.0 
2.469263708586e+01 -2.345643714343e+02 0.0 
0.0 0.0 -9.991438997430e+01 
-1.033327327950e+02 2.451672567886e+01 0.0 
2.451672567886e+01 -2.498911884269e+02 0.0 
0.0 0.0 -1.055671763666e+02 
-1.078756501535e+02 2.470478666708e+01 0.0 
2.470478666708e+01 -2.539923077089e+02 0.0 
0.0 0.0 -1.081603873587e+02 
-1.116866063839e+02 2.463458315989e+01 0.0 
2.463458315989e+01 -2.689685868297e+02 0.0 
0.0 0.0 -1.137965579641e+02 
-1.071043885308e+02 2.410584742151e+01 0.0 
2.410584742151e+01 -2.648351681066e+02 0.0 
0.0 0.0 -1.111818669912e+02 
-1.165995578103e+02 2.059767025239e+01 0.0 
2.059767025239e+01 -3.030384480285e+02 0.0 
0.0 0.0 -1.254914017516e+02 
-1.158073982392e+02 2.440252181309e+01 0.0 
2.440252181309e+01 -2.836120317561e+02 0.0 
0.0 0.0 -1.194258289986e+02 
-7.674143994351e+01 1.289948334845e+00 0.0 
1.289948334845e+00 -1.537454706951e+02 0.0 
0.0 0.0 -6.874607319158e+01 
-9.222050747715e+01 1.798644309160e+01 0.0 
1.798644309160e+01 -2.624073754028e+02 0.0 
0.0 0.0 -1.059883648640e+02 
-4.959374098239e+01 -1.381778006176e+01 0.0 
-1.381778006176e+01 -1.424459416410e+02 0.0 
0.0 0.0 -5.721190478700e+01 
-3.021684068184e+01 -2.932053523082e+00 0.0 
-2.932053523082e+00 -7.407393799242e+01 0.0 
0.0 0.0 -3.088723360228e+01 
-4.034064928500e+01 -1.377812514865e+01 0.0 
-1.377812514865e+01 -8.382721338652e+01 0.0 
0.0 0.0 -3.597770040525e+01 
-3.653089687922e+01 -2.228494574667e+00 0.0 
-2.228494574667e+00 -9.067776730389e+01 0.0 
0.0 0.0 -3.776259925493e+01 
-4.524890987379e+01 -2.558524908786e+00 0.0 
-2.558524908786e+00 -1.109904068418e+02 0.0 
0.0 0.0 -4.647179501467e+01 
-1.314884409220e+02 6.330145599602e+00 0.0 
6.330145599602e+00 -3.364923236399e+02 0.0 
0.0 0.0 -1.399942293685e+02 
-1.159978769542e+02 2.502868822810e+01 0.0 
2.502868822810e+01 -2.733147172200e+02 0.0 
0.0 0.0 -1.163937782522e+02 
-1.120464470198e+02 2.472722632721e+01 0.0 
2.472722632721e+01 -2.582426626850e+02 0.0 
0.0 0.0 -1.106867329114e+02 
-4.795750499708e+01 2.725951469768e+01 0.0 
2.725951469768e+01 -9.729904876184e+01 0.0 
0.0 0.0 -4.317696612768e+01 
-5.167667268290e+01 2.634197888285e+01 0.0 
2.634197888285e+01 -9.867191215031e+01 0.0 
0.0 0.0 -4.470457544996e+01 
-1.219124148818e+02 1.954710135207e+01 0.0 
1.954710135207e+01 -3.157391049205e+02 0.0 
0.0 0.0 -1.308954559407e+02 
-8.150275987826e+01 6.145368129000e+00 0.0 
6.145368129000e+00 -1.488270391845e+02 0.0 
0.0 0.0 -6.869893971883e+01 
-7.842337383871e+01 3.446418424848e+00 0.0 
3.446418424848e+00 -1.496451679317e+02 0.0 
0.0 0.0 -6.802056253114e+01 
-7.386009733833e+01 2.494839814193e+00 0.0 
2.494839814193e+00 -1.401014090494e+02 0.0 
0.0 0.0 -6.378845191630e+01 
-2.690189616551e+01 -1.678058396923e+00 0.0 
-1.678058396923e+00 -6.901912162433e+01 0.0 
0.0 0.0 -2.837630533695e+01 
-4.044344417776e+01 -1.658184806235e+01 0.0 
-1.658184806235e+01 -7.985612411159e+01 0.0 
0.0 0.0 -3.415879482196e+01 
-1.002751150408e+02 6.802842010172e+00 0.0 
6.802842010172e+00 -2.105316847588e+02 0.0 
0.0 0.0 -9.284203993988e+01 
-3.866436888723e+01 2.424334050788e+01 0.0 
2.424334050788e+01 -1.318555922421e+02 0.0 
0.0 0.0 -5.075598833880e+01 
-3.815515445260e+01 2.681204507132e+01 0.0 
2.681204507132e+01 -1.143020136773e+02 0.0 
0.0 0.0 -4.533715043898e+01 
-2.759949278217e+01 1.108875693820e+01 0.0 
1.108875693820e+01 -1.244116860539e+02 0.0 
0.0 0.0 -4.695333889990e+01 
-2.789081544663e+01 5.317367948353e-01 0.0 
5.317367948353e-01 -1.241749699310e+02 0.0 
0.0 0.0 -4.748453602836e+01 
-8.795779287714e+01 1.512837406276e+00 0.0 
1.512837406276e+00 -1.846825629448e+02 0.0 
0.0 0.0 -8.139210674658e+01 
-9.509890737405e+01 1.911919404062e+00 0.0 
1.911919404062e+00 -2.048590314494e+02 0.0 
0.0 0.0 -8.958738164705e+01 
-8.657337725147e+01 -3.146227116852e+00 0.0 
-3.146227116852e+00 -2.161802064462e+02 0.0 
0.0 0.0 -9.042607510929e+01 
-9.055382197377e+01 -2.317142468723e+00 0.0 
-2.317142468723e+00 -2.243881804316e+02 0.0 
0.0 0.0 -9.408260072160e+01 
-1.257277999774e+02 6.981729995385e+00 0.0 
6.981729995385e+00 -3.279824117132e+02 0.0 
0.0 0.0 -1.357130635072e+02 
-4.101393221590e+01 -1.182760694447e+01 0.0 
-1.182760694447e+01 -9.050965151040e+01 0.0 
0.0 0.0 -3.886938303742e+01 
-9.869553994376e+01 2.728839225816e+00 0.0 
2.728839225816e+00 -2.146060253484e+02 0.0 
0.0 0.0 -9.359046958765e+01 
-1.037050359100e+02 7.090545671616e+00 0.0 
7.090545671616e+00 -2.917627483074e+02 0.0 
0.0 0.0 -1.182403352652e+02 
-9.419109572393e+01 5.641809990995e+00 0.0 
5.641809990995e+00 -2.743165656002e+02 0.0 
0.0 0.0 -1.101522983972e+02 
-7.822805045065e+01 -2.441087761020e+00 0.0 
-2.441087761020e+00 -1.922327934478e+02 0.0 
0.0 0.0 -8.073825316954e+01 
-3.533864909578e+01 2.776474443425e+01 0.0 
2.776474443425e+01 -9.842007777001e+01 0.0 
0.0 0.0 -3.919358131322e+01 
-3.447113350933e+01 2.704355611778e+01 0.0 
2.704355611778e+01 -1.014668174739e+02 0.0 
0.0 0.0 -4.011661938125e+01 
-5.047131394032e+01 -1.258430423254e+01 0.0 
-1.258430423254e+01 -1.569402883860e+02 0.0 
0.0 0.0 -6.182348069788e+01 
-4.599147854547e+01 -1.244043747427e+01 0.0 
-1.244043747427e+01 -1.121499399795e+02 0.0 
0.0 0.0 -4.704242555750e+01 
-4.000774895029e+01 -1.728592868056e+00 0.0 
-1.728592868056e+00 -9.926127502020e+01 0.0 
0.0 0.0 -4.138070719115e+01 
-1.363944790146e+02 8.227669597809e+00 0.0 
8.227669597809e+00 -3.460412260025e+02 0.0 
0.0 0.0 -1.443307115051e+02 
-1.040932879697e+02 8.210904747276e+00 0.0 
8.210904747276e+00 -2.204156390401e+02 0.0 
0.0 0.0 -9.695267810292e+01 
-1.112703000068e+02 2.357401119965e+01 0.0 
2.357401119965e+01 -2.793364684804e+02 0.0 
0.0 0.0 -1.167820305462e+02 
-1.022740570997e+02 2.341381190664e+01 0.0 
2.341381190664e+01 -2.607370864914e+02 0.0 
0.0 0.0 -1.085033430773e+02 
-1.205739530801e+02 2.400357668156e+01 0.0 
2.400357668156e+01 -2.980514781848e+02 0.0 
0.0 0.0 -1.251876293795e+02 
-3.549874071407e+01 -9.972365861151e+00 0.0 
-9.972365861151e+00 -6.862573407034e+01 0.0 
0.0 0.0 -3.023831902969e+01 
-1.372334898783e+02 5.733427694132e+00 0.0 
5.733427694132e+00 -3.449893593416e+02 0.0 
0.0 0.0 -1.442668547660e+02 
-1.285383511159e+02 -2.332832722526e-02 0.0 
-2.332832722526e-02 -3.108041109464e+02 0.0 
0.0 0.0 -1.314027386187e+02 
-1.195316553728e+02 2.520978835829e+01 0.0 
2.520978835829e+01 -2.769975623824e+02 0.0 
0.0 0.0 -1.185587653266e+02 
-1.158852426906e+02 2.463757078266e+01 0.0 
2.463757078266e+01 -2.629111513877e+02 0.0 
0.0 0.0 -1.132389182235e+02 
-4.187807932895e+01 2.564758159362e+01 0.0 
2.564758159362e+01 -1.316159196772e+02 0.0 
0.0 0.0 -5.164819970185e+01 
-4.091387624149e+01 2.741671541467e+01 0.0 
2.741671541467e+01 -1.140383484698e+02 0.0 
0.0 0.0 -4.608566741338e+01 
-3.783711776589e+01 2.813134905923e+01 0.0 
2.813134905923e+01 -9.563443336444e+01 0.0 
0.0 0.0 -3.964146533910e+01 
-3.976162049473e+01 2.812135510287e+01 0.0 
2.812135510287e+01 -9.543932230260e+01 0.0 
0.0 0.0 -4.016028283920e+01 
-7.855116654658e+01 1.292589506658e+01 0.0 
1.292589506658e+01 -1.350788834631e+02 0.0 
0.0 0.0 -6.368901500290e+01 
-4.532531272916e+01 2.663342165911e+01 0.0 
2.663342165911e+01 -1.320004769907e+02 0.0 
0.0 0.0 -5.279773691596e+01 
-7.585385396189e+01 1.897575904945e+01 0.0 
1.897575904945e+01 -1.349167461509e+02 0.0 
0.0 0.0 -6.283118003382e+01 
-7.176791888159e+01 1.610297653046e+01 0.0 
1.610297653046e+01 -1.198683544931e+02 0.0 
0.0 0.0 -5.709088201240e+01 
-6.808767555966e+01 1.813770551198e+01 0.0 
1.813770551198e+01 -1.133488279211e+02 0.0 
0.0 0.0 -5.403095104422e+01 
-5.885313182982e+01 2.638194223926e+01 0.0 
2.638194223926e+01 -1.190745548352e+02 0.0 
0.0 0.0 -5.297830599952e+01 
-5.578478130062e+01 2.486743066419e+01 0.0 
2.486743066419e+01 -1.005137840665e+02 0.0 
0.0 0.0 -4.648956961012e+01 
-4.506946101523e+01 1.954879261363e+01 0.0 
1.954879261363e+01 -1.634233347243e+02 0.0 
0.0 0.0 -6.214783872185e+01 
-7.860055685637e+01 1.551607724726e+01 0.0 
1.551607724726e+01 -2.407134115080e+02 0.0 
0.0 0.0 -9.539419050930e+01 
-8.251211417013e+01 -4.028201341723e+00 0.0 
-4.028201341723e+00 -2.082030503431e+02 0.0 
0.0 0.0 -8.681454935398e+01 
-1.024230432344e+02 -2.132029849901e+00 0.0 
-2.132029849901e+00 -2.594289917008e+02 0.0 
0.0 0.0 -1.081556104805e+02 
-8.970259024039e+01 -1.747049748334e+00 0.0 
-1.747049748334e+00 -2.529783820784e+02 0.0 
0.0 0.0 -1.024042916956e+02 
-9.931525010217e+01 5.279479464802e+00 0.0 
5.279479464802e+00 -2.113234666547e+02 0.0 
0.0 0.0 -9.279161502707e+01 
-1.023765525308e+02 4.995070726774e+00 0.0 
4.995070726774e+00 -2.223163505922e+02 0.0 
0.0 0.0 -9.700787093692e+01 
-7.320716648529e+01 1.815840088056e+00 0.0 
1.815840088056e+00 -1.416765115594e+02 0.0 
0.0 0.0 -6.406510341341e+01 
-6.909656647652e+01 1.259808068968e+00 0.0 
1.259808068968e+00 -1.324764674770e+02 0.0 
0.0 0.0 -6.007191018605e+01 
-3.308712857247e+01 -4.815009877885e+00 0.0 
-4.815009877885e+00 -7.693767239612e+01 0.0 
0.0 0.0 -3.260744029058e+01 
-3.081413210953e+01 -5.344484206166e+00 0.0 
-5.344484206166e+00 -6.875555852139e+01 0.0 
0.0 0.0 -2.946881222337e+01 
-8.855988293224e+01 -4.047455932823e+00 0.0 
-4.047455932823e+00 -2.369883047246e+02 0.0 
0.0 0.0 -9.726445629705e+01 
-1.322720524633e+02 4.117239637825e+00 0.0 
4.117239637825e+00 -3.344466053947e+02 0.0 
0.0 0.0 -1.396155973574e+02 
-1.053071745922e+02 1.011375666312e+01 0.0 
1.011375666312e+01 -2.202783613558e+02 0.0 
0.0 0.0 -9.727566078441e+01 
-1.091281128426e+02 1.190516581745e+01 0.0 
1.190516581745e+01 -2.311543060551e+02 0.0 
0.0 0.0 -1.016847256693e+02 
-1.069615280908e+02 1.239020609158e+01 0.0 
1.239020609158e+01 -2.215689792474e+02 0.0 
0.0 0.0 -9.815915220146e+01 
-1.304348489456e+02 9.035778641415e+00 0.0 
9.035778641415e+00 -3.369984175441e+02 0.0 
0.0 0.0 -1.398299799469e+02 
-4.723134039182e+01 7.782776921626e+00 0.0 
7.782776921626e+00 -1.841572373275e+02 0.0 
0.0 0.0 -6.901657331580e+01 
-8.369793628150e+01 8.586752912766e+00 0.0 
8.586752912766e+00 -2.562613857647e+02 0.0 
0.0 0.0 -1.015877966138e+02 
-2.853278760549e+01 -1.015552908598e+01 0.0 
-1.015552908598e+01 -1.248439256026e+02 0.0 
0.0 0.0 -4.726706468548e+01 
-8.534337438506e+01 2.392691548026e+01 0.0 
2.392691548026e+01 -2.241150214469e+02 0.0 
0.0 0.0 -9.243751874959e+01 
-2.434154909857e+01 -3.458242525474e+00 0.0 
-3.458242525474e+00 -5.660320575306e+01 0.0 
0.0 0.0 -2.388342645549e+01 
-1.013098703978e+02 2.222059678447e+01 0.0 
2.222059678447e+01 -2.129918854491e+02 0.0 
0.0 0.0 -9.389052675408e+01 
-1.375758189416e+02 2.880821960930e-01 0.0 
2.880821960930e-01 -3.302535263421e+02 0.0 
0.0 0.0 -1.399488035851e+02 
-1.423159846523e+02 6.297069650194e-01 0.0 
6.297069650194e-01 -3.411426678147e+02 0.0 
0.0 0.0 -1.446375957401e+02 
-1.267889422994e+02 2.136570311131e+01 0.0 
2.136570311131e+01 -3.210194536393e+02 0.0 
0.0 0.0 -1.339425187816e+02 
-6.540578626514e+01 8.423262835738e+00 0.0 
8.423262835738e+00 -1.023157223223e+02 0.0 
0.0 0.0 -4.991645257622e+01 
-8.874383633435e+01 2.267091471791e+01 0.0 
2.267091471791e+01 -2.387819986091e+02 0.0 
0.0 0.0 -9.785775048305e+01 
-8.387739396012e+01 2.141385789406e+01 0.0 
2.141385789406e+01 -2.353315403740e+02 0.0 
0.0 0.0 -9.536268030024e+01 
-6.363616456659e+01 1.471898550979e+01 0.0 
1.471898550979e+01 -9.833592308586e+01 0.0 
0.0 0.0 -4.819162629573e+01 
-5.996958571831e+01 1.693948509452e+01 0.0 
1.693948509452e+01 -9.152986711567e+01 0.0 
0.0 0.0 -4.504983585019e+01 
-6.415715659654e+01 2.038903745842e+01 0.0 
2.038903745842e+01 -1.078043024465e+02 0.0 
0.0 0.0 -5.118843771292e+01 
-5.622586148892e+01 1.955440972148e+01 0.0 
1.955440972148e+01 -8.607050853512e+01 0.0 
0.0 0.0 -4.228891100721e+01 
-5.474812375025e+01 -1.176453170338e+01 0.0 
-1.176453170338e+01 -1.615368869817e+02 0.0 
0.0 0.0 -6.448550321959e+01 
-5.321694363073e+01 -1.234577338368e+01 0.0 
-1.234577338368e+01 -1.473486718268e+02 0.0 
0.0 0.0 -5.976968463727e+01 
-1.248318206969e+02 2.586549251290e+01 0.0 
2.586549251290e+01 -2.939055449352e+02 0.0 
0.0 0.0 -1.252212096896e+02 
-1.246358477646e+02 2.501857337009e+01 0.0 
2.501857337009e+01 -3.021776652889e+02 0.0 
0.0 0.0 -1.276440539161e+02 
-1.231030695648e+02 2.554266280887e+01 0.0 
2.554266280887e+01 -2.821868831723e+02 0.0 
0.0 0.0 -1.211869858211e+02 
-1.196749022396e+02 2.458372975842e+01 0.0 
2.458372975842e+01 -2.685137474198e+02 0.0 
0.0 0.0 -1.160565948978e+02 
-1.325747639938e+02 2.048202103184e+01 0.0 
2.048202103184e+01 -3.335848623832e+02 0.0 
0.0 0.0 -1.394478879131e+02 
-1.273646400716e+02 1.848020405474e+01 0.0 
1.848020405474e+01 -3.276011421438e+02 0.0 
0.0 0.0 -1.360897346646e+02 
-4.836997437224e+01 -1.894989219726e+00 0.0 
-1.894989219726e+00 -1.189681835455e+02 0.0 
0.0 0.0 -4.980144737534e+01 
-4.845223028849e+01 2.439440383183e+01 0.0 
2.439440383183e+01 -7.954035544666e+01 0.0 
0.0 0.0 -3.799777572055e+01 
-1.068226709303e+02 7.841955085762e+00 0.0 
7.841955085762e+00 -2.309521192935e+02 0.0 
0.0 0.0 -1.009324370671e+02 
-6.708993587286e+01 1.285504048372e+01 0.0 
1.285504048372e+01 -1.058090816718e+02 0.0 
0.0 0.0 -5.146970526339e+01 
-1.425659424282e+02 5.137321862951e+00 0.0 
5.137321862951e+00 -3.526045982872e+02 0.0 
0.0 0.0 -1.481511622146e+02 
-1.376580128855e+02 3.748905847234e+00 0.0 
3.748905847234e+00 -3.424015182777e+02 0.0 
0.0 0.0 -1.436178593490e+02 
-3.377534163831e+01 -1.072520559245e+01 0.0 
-1.072520559245e+01 -1.197181834275e+02 0.0 
0.0 0.0 -4.790269802281e+01 
-3.365575103986e+01 -2.113568362842e+01 0.0 
-2.113568362842e+01 -1.100651428280e+02 0.0 
0.0 0.0 -4.389633300346e+01 
-1.021288223373e+02 2.322426187148e+00 0.0 
2.322426187148e+00 -2.254623479091e+02 0.0 
0.0 0.0 -9.787735107391e+01 
-3.735371850959e+01 2.815705814446e+01 0.0 
2.815705814446e+01 -7.614683928167e+01 0.0 
0.0 0.0 -3.365016733738e+01 
-3.823548906514e+01 2.770392348073e+01 0.0 
2.770392348073e+01 -7.563368165624e+01 0.0 
0.0 0.0 -3.376075121641e+01 
-3.679144904573e+01 2.855166298645e+01 0.0 
2.855166298645e+01 -7.680695473912e+01 0.0 
0.0 0.0 -3.337874692272e+01 
-1.563709816601e+02 2.054275544153e-01 0.0 
2.054275544153e-01 -3.693036276741e+02 0.0 
0.0 0.0 -1.573023828003e+02 
-5.197796354078e+01 5.891728851534e-02 0.0 
5.891728851534e-02 -9.428515220491e+01 0.0 
0.0 0.0 -4.347893472371e+01 
-1.467724043925e+02 5.318355504293e-01 0.0 
5.318355504293e-01 -3.495841984233e+02 0.0 
0.0 0.0 -1.485069808447e+02 
-6.331700793617e+01 2.489266312110e+01 0.0 
2.489266312110e+01 -1.215109639768e+02 0.0 
0.0 0.0 -5.504839157389e+01 
-1.057068918446e+02 3.166365439410e+00 0.0 
3.166365439410e+00 -2.353397242608e+02 0.0 
0.0 0.0 -1.019139848316e+02 
-9.258050287963e+01 2.125524044928e+01 0.0 
2.125524044928e+01 -2.529303979320e+02 0.0 
0.0 0.0 -1.032532702435e+02 
-5.531816587085e+01 2.659789601432e+01 0.0 
2.659789601432e+01 -1.516522290285e+02 0.0 
0.0 0.0 -6.169111846982e+01 
-1.198538324713e+02 7.726953376415e+00 0.0 
7.726953376415e+00 -3.191222387072e+02 0.0 
0.0 0.0 -1.312928213536e+02 
-9.827435056580e+01 1.578165616589e+00 0.0 
1.578165616589e+00 -2.145782910829e+02 0.0 
0.0 0.0 -9.345579249460e+01 
-1.055935105028e+02 1.780697842646e+00 0.0 
1.780697842646e+00 -2.368070203390e+02 0.0 
0.0 0.0 -1.023201592525e+02 
-7.033891553198e+01 2.350073313363e+00 0.0 
2.350073313363e+00 -1.295566834644e+02 0.0 
0.0 0.0 -5.956867969891e+01 
-6.539064790494e+01 1.665265996938e+00 0.0 
1.665265996938e+00 -1.195912527820e+02 0.0 
0.0 0.0 -5.509457020608e+01 
-7.476671654824e+01 3.336557219348e+00 0.0 
3.336557219348e+00 -1.385815493226e+02 0.0 
0.0 0.0 -6.360447976125e+01 
-2.904412602288e+01 1.776627537919e+01 0.0 
1.776627537919e+01 -1.222702728820e+02 0.0 
0.0 0.0 -4.593475628830e+01 
-3.116869698089e+01 2.305883466738e+01 0.0 
2.305883466738e+01 -1.086902751220e+02 0.0 
0.0 0.0 -4.296060285698e+01 
-9.876208354232e+01 3.940921280088e+00 0.0 
3.940921280088e+00 -2.127864129135e+02 0.0 
0.0 0.0 -9.306454893674e+01 
-5.842362081975e+01 -3.578292035991e+00 0.0 
-3.578292035991e+00 -1.434235166960e+02 0.0 
0.0 0.0 -6.015414125474e+01 
-6.260847852803e+01 -2.780703631518e+00 0.0 
-2.780703631518e+00 -1.539695348248e+02 0.0 
0.0 0.0 -6.457340400586e+01 
-4.224073805963e+01 -1.020717178713e+01 0.0 
-1.020717178713e+01 -9.685178977334e+01 0.0 
0.0 0.0 -4.131967974797e+01 
-4.810263280197e+01 -1.064201573796e+01 0.0 
-1.064201573796e+01 -1.180208341718e+02 0.0 
0.0 0.0 -4.943704009213e+01 
-9.047289729881e+01 -3.247291805878e+00 0.0 
-3.247291805878e+00 -2.281160681946e+02 0.0 
0.0 0.0 -9.517668964803e+01 
-8.626230833269e+01 -4.087076726486e+00 0.0 
-4.087076726486e+00 -2.203501093920e+02 0.0 
0.0 0.0 -9.158372531740e+01 
-1.048232111536e+02 2.336765733915e+01 0.0 
2.336765733915e+01 -2.281218144528e+02 0.0 
0.0 0.0 -9.948350768192e+01 
-1.084494776759e+02 2.272026896443e+01 0.0 
2.272026896443e+01 -2.334299638783e+02 0.0 
0.0 0.0 -1.021638324663e+02 
-9.647113021022e+01 2.455033749258e+01 0.0 
2.455033749258e+01 -2.189502291356e+02 0.0 
0.0 0.0 -9.422640780376e+01 
-9.973676590412e+01 4.675915557328e+00 0.0 
4.675915557328e+00 -2.829016594634e+02 0.0 
0.0 0.0 -1.143915276102e+02 
-9.054769636737e+01 3.062742491386e+00 0.0 
3.062742491386e+00 -2.653464053432e+02 0.0 
0.0 0.0 -1.063682305132e+02 
-8.516964859403e+01 4.142473420507e+00 0.0 
4.142473420507e+00 -2.572014367582e+02 0.0 
0.0 0.0 -1.023113256057e+02 
-1.055635155659e+02 6.113029790368e+00 0.0 
6.113029790368e+00 -2.312615484565e+02 0.0 
0.0 0.0 -1.006475192067e+02 
-1.093465817990e+02 5.683074508159e+00 0.0 
5.683074508159e+00 -2.445941396678e+02 0.0 
0.0 0.0 -1.057822164400e+02 
-5.597745954704e+01 -1.014544396140e+01 0.0 
-1.014544396140e+01 -1.749130824758e+02 0.0 
0.0 0.0 -6.886716260686e+01 
-5.123603079648e+01 -1.013379886129e+01 0.0 
-1.013379886129e+01 -1.702419521927e+02 0.0 
0.0 0.0 -6.604339489675e+01 
-5.878715589679e+01 -1.070334283581e+01 0.0 
-1.070334283581e+01 -1.666245130407e+02 0.0 
0.0 0.0 -6.722350068126e+01 
-1.103375908365e+02 9.287862057068e+00 0.0 
9.287862057068e+00 -2.409863381284e+02 0.0 
0.0 0.0 -1.049971786895e+02 
-1.513968623958e+02 8.432001158351e-01 0.0 
8.432001158351e-01 -3.600674308885e+02 0.0 
0.0 0.0 -1.530392879853e+02 
-1.470268983453e+02 1.121581171535e+00 0.0 
1.121581171535e+00 -3.519118490756e+02 0.0 
0.0 0.0 -1.492816242263e+02 
-2.184002196765e+01 -3.505170975572e+00 0.0 
-3.505170975572e+00 -4.850073415863e+01 0.0 
0.0 0.0 -2.070013187198e+01 
-2.879526998619e+01 -5.703927489737e+00 0.0 
-5.703927489737e+00 -6.051436084445e+01 0.0 
0.0 0.0 -2.629735225986e+01 
-3.694839512802e+01 2.941012348886e+01 0.0 
2.941012348886e+01 -8.045232557148e+01 0.0 
0.0 0.0 -3.383016057598e+01 
-3.623270418966e+01 3.005493765217e+01 0.0 
3.005493765217e+01 -8.466349352151e+01 0.0 
0.0 0.0 -3.576358788608e+01 
-1.125623059149e+02 1.373010105889e+01 0.0 
1.373010105889e+01 -2.418649059713e+02 0.0 
0.0 0.0 -1.059281635658e+02 
-1.108933515601e+02 1.434798169869e+01 0.0 
1.434798169869e+01 -2.332628817405e+02 0.0 
0.0 0.0 -1.028468699902e+02 
-1.152327045705e+02 1.326387110785e+01 0.0 
1.326387110785e+01 -2.532844062378e+02 0.0 
0.0 0.0 -1.101551332425e+02 
-4.271876948138e+01 -1.217039441328e+00 0.0 
-1.217039441328e+00 -1.060146068417e+02 0.0 
0.0 0.0 -4.422001289692e+01 
-1.064873813679e+02 2.250646219789e+01 0.0 
2.250646219789e+01 -2.750346285344e+02 0.0 
0.0 0.0 -1.140566029707e+02 
-1.410733606572e+02 1.026518742715e+01 0.0 
1.026518742715e+01 -3.540866090034e+02 0.0 
0.0 0.0 -1.481479908982e+02 
-1.348062604714e+02 1.117815243185e+01 0.0 
1.117815243185e+01 -3.447780489492e+02 0.0 
0.0 0.0 -1.434752928262e+02 
-1.484400698951e+02 9.482481322429e+00 0.0 
9.482481322429e+00 -3.653773007692e+02 0.0 
0.0 0.0 -1.537452111993e+02 
-1.213300490901e+02 2.220778856609e+01 0.0 
2.220778856609e+01 -3.077836501935e+02 0.0 
0.0 0.0 -1.283341097851e+02 
-1.312551291724e+02 2.295243692491e+01 0.0 
2.295243692491e+01 -3.256221825793e+02 0.0 
0.0 0.0 -1.366631935255e+02 
-1.300274498750e+02 2.473351375266e+01 0.0 
2.473351375266e+01 -3.163551225412e+02 0.0 
0.0 0.0 -1.335147717248e+02 
-4.011085382119e+01 1.002463219710e+00 0.0 
1.002463219710e+00 -1.215696298783e+02 0.0 
0.0 0.0 -5.034140471962e+01 
-1.030832067644e+02 1.226076854026e+00 0.0 
1.226076854026e+00 -2.296180229963e+02 0.0 
0.0 0.0 -9.941036892822e+01 
-6.472731525725e+01 1.130682149359e+00 0.0 
1.130682149359e+00 -1.208241323467e+02 0.0 
0.0 0.0 -5.526543428119e+01 
-5.052219409880e+01 -7.110596430721e+00 0.0 
-7.110596430721e+00 -1.168655413391e+02 0.0 
0.0 0.0 -5.165861916527e+01 
-6.059463306043e+01 7.023857053283e-01 0.0 
7.023857053283e-01 -1.118666291272e+02 0.0 
0.0 0.0 -5.133837865628e+01 
-6.485937514865e+01 8.270776077235e-01 0.0 
8.270776077235e-01 -1.232188083611e+02 0.0 
0.0 0.0 -5.602345505292e+01 
-5.595897503827e+01 3.979363969339e-01 0.0 
3.979363969339e-01 -1.017531617979e+02 0.0 
0.0 0.0 -4.691364105085e+01 
-3.399686484079e+01 -1.067689695561e+00 0.0 
-1.067689695561e+00 -8.631498091555e+01 0.0 
0.0 0.0 -3.569355372690e+01 
-6.512490898121e+01 2.144889568976e+00 0.0 
2.144889568976e+00 -1.154802758820e+02 0.0 
0.0 0.0 -5.378155545896e+01 
-7.132137212677e+01 3.389193491519e+00 0.0 
3.389193491519e+00 -1.280683994372e+02 0.0 
0.0 0.0 -5.941693146919e+01 
-1.807173211312e+01 -3.123200154521e+00 0.0 
-3.123200154521e+00 -3.692596260396e+01 0.0 
0.0 0.0 -1.613531417613e+01 
-1.124893207891e+02 8.638445734062e+00 0.0 
8.638445734062e+00 -2.510665319825e+02 0.0 
0.0 0.0 -1.086667558315e+02 
-1.525079860101e+01 -1.976032815889e+00 0.0 
-1.976032815889e+00 -3.774204605806e+01 0.0 
0.0 0.0 -1.549785339772e+01 
-1.808002883510e+01 -2.085726174294e+00 0.0 
-2.085726174294e+00 -4.562795193389e+01 0.0 
0.0 0.0 -1.871239423070e+01 
-1.479064525177e+02 4.562633829565e+00 0.0 
4.562633829565e+00 -3.607746863163e+02 0.0 
0.0 0.0 -1.522043416502e+02 
-1.427819637415e+02 3.375025959033e+00 0.0 
3.375025959033e+00 -3.501769257197e+02 0.0 
0.0 0.0 -1.474876668383e+02 
-1.526248864848e+02 4.063523464486e+00 0.0 
4.063523464486e+00 -3.681005637376e+02 0.0 
0.0 0.0 -1.558176350667e+02 
-1.474370242165e+02 2.970745873459e+00 0.0 
2.970745873459e+00 -3.573656895193e+02 0.0 
0.0 0.0 -1.510408141207e+02 
-1.379469000111e+02 2.325332867819e+00 0.0 
2.325332867819e+00 -3.393237994986e+02 0.0 
0.0 0.0 -1.427812098529e+02 
-1.429684101851e+02 2.108892911523e+00 0.0 
2.108892911523e+00 -3.474437860212e+02 0.0 
0.0 0.0 -1.467236588619e+02 
-6.054160600225e+01 1.038377850595e+00 0.0 
1.038377850595e+00 -1.096942594145e+02 0.0 
0.0 0.0 -5.067075962503e+01 
-1.537777010174e+02 2.727449251552e+00 0.0 
2.727449251552e+00 -3.681357839523e+02 0.0 
0.0 0.0 -1.561740454909e+02 
-1.480072733579e+02 1.881250120131e+00 0.0 
1.881250120131e+00 -3.558232022522e+02 0.0 
0.0 0.0 -1.507491426830e+02 
-1.584712889735e+02 2.281274181127e+00 0.0 
2.281274181127e+00 -3.766246454099e+02 0.0 
0.0 0.0 -1.601287803150e+02 
-5.148860593708e+01 1.505917036260e+01 0.0 
1.505917036260e+01 -6.961982761140e+01 0.0 
0.0 0.0 -3.593253006454e+01 
-4.193458717934e+01 2.812927593033e+01 0.0 
2.812927593033e+01 -9.532643279925e+01 0.0 
0.0 0.0 -4.077830599358e+01 
-3.975082224760e+01 2.720313188966e+01 0.0 
2.720313188966e+01 -7.560359213671e+01 0.0 
0.0 0.0 -3.420632431529e+01 
-3.604245370094e+01 2.590982177512e+01 0.0 
2.590982177512e+01 -5.402262470920e+01 0.0 
0.0 0.0 -2.661952352304e+01 
-1.273574607237e+02 2.585428625876e+01 0.0 
2.585428625876e+01 -2.907172787905e+02 0.0 
0.0 0.0 -1.250224218543e+02 
-1.221076452294e+02 2.427305844012e+01 0.0 
2.427305844012e+01 -2.730106474508e+02 0.0 
0.0 0.0 -1.181354878041e+02 
-1.330111129627e+02 6.454400829847e-02 0.0 
6.454400829847e-02 -3.197598123146e+02 0.0 
0.0 0.0 -1.354312775832e+02 
-1.240607206449e+02 -1.814651954038e-01 0.0 
-1.814651954038e-01 -3.000614989615e+02 0.0 
0.0 0.0 -1.268366658819e+02 
-6.020505376633e+01 4.267671987569e-01 0.0 
4.267671987569e-01 -1.129583812964e+02 0.0 
0.0 0.0 -5.154903051883e+01 
-5.947837823564e+01 3.411808622513e-01 0.0 
3.411808622513e-01 -1.119016286478e+02 0.0 
0.0 0.0 -5.101400206502e+01 
-6.683688262703e+01 4.777311294328e-01 0.0 
4.777311294328e-01 -1.298127535676e+02 0.0 
0.0 0.0 -5.859489085838e+01 
-6.559155295164e+01 4.396770026191e-01 0.0 
4.396770026191e-01 -1.273761228562e+02 0.0 
0.0 0.0 -5.749030274235e+01 
-7.281079301570e+01 5.840670886286e-01 0.0 
5.840670886286e-01 -1.454402683826e+02 0.0 
0.0 0.0 -6.507531841950e+01 
-7.162001626113e+01 4.996523830249e-01 0.0 
4.996523830249e-01 -1.426867041517e+02 0.0 
0.0 0.0 -6.389201612386e+01 
-7.885950795160e+01 8.784840292810e-01 0.0 
8.784840292810e-01 -1.611675299022e+02 0.0 
0.0 0.0 -7.160811135614e+01 
-1.339630125847e+02 2.614693203855e+01 0.0 
2.614693203855e+01 -3.206317278727e+02 0.0 
0.0 0.0 -1.359784221372e+02 
-3.669548268789e+01 2.768871543169e+01 0.0 
2.768871543169e+01 -5.663026307339e+01 0.0 
0.0 0.0 -2.726303408190e+01 
-5.845060472994e+01 1.096710138287e+01 0.0 
1.096710138287e+01 -8.468523748506e+01 0.0 
0.0 0.0 -4.254075266450e+01 
-1.383122621811e+02 1.950605991807e+01 0.0 
1.950605991807e+01 -3.452539742313e+02 0.0 
0.0 0.0 -1.446698709237e+02 
-1.322646635786e+02 1.732928774780e+01 0.0 
1.732928774780e+01 -3.375671422288e+02 0.0 
0.0 0.0 -1.405495417422e+02 
-5.214532652233e+01 2.218624438660e+01 0.0 
2.218624438660e+01 -8.166441982578e+01 0.0 
0.0 0.0 -3.974292390443e+01 
-4.441672315495e+01 2.065905215748e+01 0.0 
2.065905215748e+01 -5.967685130624e+01 0.0 
0.0 0.0 -3.082807233836e+01 
-1.492257859940e+02 6.695393865580e+00 0.0 
6.695393865580e+00 -3.652550987086e+02 0.0 
0.0 0.0 -1.539442654108e+02 
-4.692509080975e+01 2.464651001949e+01 0.0 
2.464651001949e+01 -1.487910494278e+02 0.0 
0.0 0.0 -5.831484207126e+01 
-1.163965936336e+02 1.035477260630e+01 0.0 
1.035477260630e+01 -2.640776567618e+02 0.0 
0.0 0.0 -1.137422751186e+02 
-5.740974707090e+01 2.479097665762e+01 0.0 
2.479097665762e+01 -8.672989281636e+01 0.0 
0.0 0.0 -4.404187582560e+01 
-4.102188942493e+01 2.378808134213e+01 0.0 
2.378808134213e+01 -1.023477228321e+02 0.0 
0.0 0.0 -4.438684417151e+01 
-5.092388551689e+01 2.581868124194e+01 0.0 
2.581868124194e+01 -1.498749404823e+02 0.0 
0.0 0.0 -5.983964779977e+01 
-6.007472652315e+01 2.275790204444e+01 0.0 
2.275790204444e+01 -1.035327562632e+02 0.0 
0.0 0.0 -4.868224483591e+01 
-4.464785277405e+01 2.775968172685e+01 0.0 
2.775968172685e+01 -9.578278412567e+01 0.0 
0.0 0.0 -4.172919106991e+01 
-4.236750571320e+01 2.690031369215e+01 0.0 
2.690031369215e+01 -7.719675225829e+01 0.0 
0.0 0.0 -3.546927739145e+01 
-1.094703636455e+02 6.235187677828e+00 0.0 
6.235187677828e+00 -3.008484739633e+02 0.0 
0.0 0.0 -1.226956512826e+02 
-2.777927863645e+01 -6.365658258686e+00 0.0 
-6.365658258686e+00 -5.328214125959e+01 0.0 
0.0 0.0 -2.359984915817e+01 
-3.699590381931e+01 2.895829047314e+01 0.0 
2.895829047314e+01 -7.829519008530e+01 0.0 
0.0 0.0 -3.325303137569e+01 
-8.009759470498e+01 1.044097125983e+00 0.0 
1.044097125983e+00 -1.634648776650e+02 0.0 
0.0 0.0 -7.266874171101e+01 
-3.863952309838e+01 2.936525770697e+01 0.0 
2.936525770697e+01 -5.920962081289e+01 0.0 
0.0 0.0 -2.747760001637e+01 
-1.289106622306e+02 -3.833638755430e-02 0.0 
-3.833638755430e-02 -3.102233379705e+02 0.0 
0.0 0.0 -1.313402000603e+02 
-4.903678261263e+01 2.195956875670e+01 0.0 
2.195956875670e+01 -1.648246819000e+02 0.0 
0.0 0.0 -6.375843935380e+01 
-6.622584834720e+01 2.607747763514e+01 0.0 
2.607747763514e+01 -1.393688133171e+02 0.0 
0.0 0.0 -6.127839849928e+01 
-3.629392518168e+01 2.807040317080e+01 0.0 
2.807040317080e+01 -9.658504663779e+01 0.0 
0.0 0.0 -3.928129156352e+01 
-4.395997217171e+01 2.786208547885e+01 0.0 
2.786208547885e+01 -1.145690771805e+02 0.0 
0.0 0.0 -4.715871480565e+01 
-8.300139519165e+01 1.558815708291e+01 0.0 
1.558815708291e+01 -1.484756464725e+02 0.0 
0.0 0.0 -6.904311249926e+01 
-7.371500608849e+01 1.025350988813e+01 0.0 
1.025350988813e+01 -1.226424877569e+02 0.0 
0.0 0.0 -5.850724815360e+01 
-7.048917330785e+01 1.135139521040e+01 0.0 
1.135139521040e+01 -1.141711913090e+02 0.0 
0.0 0.0 -5.499810938505e+01 
-5.149796826330e+01 1.877006229464e+01 0.0 
1.877006229464e+01 -1.793087852063e+02 0.0 
0.0 0.0 -6.884202604087e+01 
-4.499778001302e+01 2.577745606528e+01 0.0 
2.577745606528e+01 -7.789559133052e+01 0.0 
0.0 0.0 -3.646801140306e+01 
-3.862895997381e+01 2.439324934644e+01 0.0 
2.439324934644e+01 -5.472181660204e+01 0.0 
0.0 0.0 -2.760523297276e+01 
-7.943058275010e+01 2.132610795405e+01 0.0 
2.132610795405e+01 -1.506974362855e+02 0.0 
0.0 0.0 -6.863840571069e+01 
-1.046780442944e+02 1.282955558523e+01 0.0 
1.282955558523e+01 -2.122873939658e+02 0.0 
0.0 0.0 -9.468963147808e+01 
-1.085652952830e+02 1.479923996690e+01 0.0 
1.479923996690e+01 -2.240677898134e+02 0.0 
0.0 0.0 -9.938992552893e+01 
-1.143293135756e+02 1.625450659563e+01 0.0 
1.625450659563e+01 -2.444314729978e+02 0.0 
0.0 0.0 -1.072282359720e+02 
-1.124432932723e+02 1.681339217556e+01 0.0 
1.681339217556e+01 -2.363378569449e+02 0.0 
0.0 0.0 -1.042343450651e+02 
-1.063006522931e+02 1.540142414972e+01 0.0 
1.540142414972e+01 -2.154594050348e+02 0.0 
0.0 0.0 -9.612801719838e+01 
-1.102260495626e+02 1.745476962496e+01 0.0 
1.745476962496e+01 -2.280627067661e+02 0.0 
0.0 0.0 -1.010866268986e+02 
-1.159931306661e+02 1.872706305241e+01 0.0 
1.872706305241e+01 -2.488198360719e+02 0.0 
0.0 0.0 -1.090438900214e+02 
-1.142912283834e+02 1.943172489440e+01 0.0 
1.943172489440e+01 -2.417957075000e+02 0.0 
0.0 0.0 -1.064260807650e+02 
-1.209968943078e+02 2.110485305211e+01 0.0 
2.110485305211e+01 -2.660197091658e+02 0.0 
0.0 0.0 -1.157049810421e+02 
-1.179191771060e+02 2.140080915308e+01 0.0 
2.140080915308e+01 -2.552795904095e+02 0.0 
0.0 0.0 -1.115596302546e+02 
-1.113540719512e+02 1.999327773371e+01 0.0 
1.999327773371e+01 -2.335935278109e+02 0.0 
0.0 0.0 -1.030842799287e+02 
-1.148037381302e+02 2.167346029527e+01 0.0 
2.167346029527e+01 -2.468720996114e+02 0.0 
0.0 0.0 -1.081027513225e+02 
-1.210633750509e+02 2.301884253804e+01 0.0 
2.301884253804e+01 -2.669670575557e+02 0.0 
0.0 0.0 -1.160091297820e+02 
-1.082487359622e+02 2.065233972439e+01 0.0 
2.065233972439e+01 -2.258347402952e+02 0.0 
0.0 0.0 -9.982504287723e+01 
-1.436389136511e+02 2.154924122711e+01 0.0 
2.154924122711e+01 -3.510828378961e+02 0.0 
0.0 0.0 -1.480165254642e+02 
-5.757321791233e+01 2.499147597831e+01 0.0 
2.499147597831e+01 -1.679584925212e+02 0.0 
0.0 0.0 -6.725951313006e+01 
-3.253381216964e+01 1.269516059636e+01 0.0 
1.269516059636e+01 -1.181470199913e+02 0.0 
0.0 0.0 -4.713794262171e+01 
-3.705855944170e+01 3.135627839260e+01 0.0 
3.135627839260e+01 -9.065463496330e+01 0.0 
0.0 0.0 -3.907001739919e+01 
-7.078178869257e+01 2.471941924021e+01 0.0 
2.471941924021e+01 -1.422920936544e+02 0.0 
0.0 0.0 -6.352216470408e+01 
-1.252564570378e+02 2.180695572579e+01 0.0 
2.180695572579e+01 -2.845389379259e+02 0.0 
0.0 0.0 -1.225386184891e+02 
-1.223531862859e+02 1.822694841514e+01 0.0 
1.822694841514e+01 -2.770504545693e+02 0.0 
0.0 0.0 -1.194210922566e+02 
-3.963798054176e+01 2.066521912194e+01 0.0 
2.066521912194e+01 -1.478424515614e+02 0.0 
0.0 0.0 -5.584412963095e+01 
-1.350225363034e+02 2.779362294846e+01 0.0 
2.779362294846e+01 -3.131826126074e+02 0.0 
0.0 0.0 -1.340615446732e+02 
-7.526806271155e+01 1.433908231354e+01 0.0 
1.433908231354e+01 -1.272227819209e+02 0.0 
0.0 0.0 -6.034725338974e+01 
-3.014680074560e+01 1.496388949928e+01 0.0 
1.496388949928e+01 -1.339132570983e+02 0.0 
0.0 0.0 -4.925073504349e+01 
-1.392655481196e+02 2.830197952364e+01 0.0 
2.830197952364e+01 -3.266800104488e+02 0.0 
0.0 0.0 -1.393836675705e+02 
-1.022637186494e+02 1.334064624072e+01 0.0 
1.334064624072e+01 -2.031746052339e+02 0.0 
0.0 0.0 -9.123149716499e+01 
-9.960189793513e+01 1.395328859657e+01 0.0 
1.395328859657e+01 -1.941491461812e+02 0.0 
0.0 0.0 -8.772531323491e+01 
-9.536513287417e+01 1.184811893727e+01 0.0 
1.184811893727e+01 -1.821093671290e+02 0.0 
0.0 0.0 -8.284235000096e+01 
-1.202518065636e+02 1.516893806234e+01 0.0 
1.516893806234e+01 -2.728060865189e+02 0.0 
0.0 0.0 -1.175173679247e+02 
-7.953199485923e+01 4.559124119673e+00 0.0 
4.559124119673e+00 -1.485362856686e+02 0.0 
0.0 0.0 -6.802048415835e+01 
-1.475373322868e+02 2.554231215084e+01 0.0 
2.554231215084e+01 -3.521298853849e+02 0.0 
0.0 0.0 -1.495001653015e+02 
-8.756562135971e+01 1.584696998264e+01 0.0 
1.584696998264e+01 -2.576286271817e+02 0.0 
0.0 0.0 -1.031582745624e+02 
-8.314612903281e+01 1.781195339344e+01 0.0 
1.781195339344e+01 -2.451205132475e+02 0.0 
0.0 0.0 -9.807999268408e+01 
-7.449264382079e+01 1.778794285118e+01 0.0 
1.778794285118e+01 -2.281934672674e+02 0.0 
0.0 0.0 -9.040583332645e+01 
-1.075990711075e+02 1.807678819927e+01 0.0 
1.807678819927e+01 -2.199100247683e+02 0.0 
0.0 0.0 -9.785272876275e+01 
-1.536154816573e+02 1.862247917312e+01 0.0 
1.862247917312e+01 -3.703801344234e+02 0.0 
0.0 0.0 -1.567986848242e+02 
-1.443291721522e+02 1.651370901636e+01 0.0 
1.651370901636e+01 -3.578734466734e+02 0.0 
0.0 0.0 -1.502607856477e+02 
-1.456815274643e+02 1.481474856607e+01 0.0 
1.481474856607e+01 -3.607250482843e+02 0.0 
0.0 0.0 -1.515219727246e+02 
-1.345686012250e+02 1.445321209536e+01 0.0 
1.445321209536e+01 -3.436388822590e+02 0.0 
0.0 0.0 -1.430622450452e+02 
-1.564057607527e+02 1.481081457775e+01 0.0 
1.481081457775e+01 -3.766492465458e+02 0.0 
0.0 0.0 -1.595165021896e+02 
-1.294034395606e+02 2.489879512832e+01 0.0 
2.489879512832e+01 -2.962107063549e+02 0.0 
0.0 0.0 -1.272842437747e+02 
-1.313631736150e+02 2.618212823221e+01 0.0 
2.618212823221e+01 -3.022510188512e+02 0.0 
0.0 0.0 -1.296842577398e+02 
-4.593734933693e+01 -1.285798444164e+01 0.0 
-1.285798444164e+01 -1.530995700984e+02 0.0 
0.0 0.0 -5.931107583059e+01 
-4.635410816288e+01 -9.338906073216e+00 0.0 
-9.338906073216e+00 -1.660435827738e+02 0.0 
0.0 0.0 -6.331930728101e+01 
-5.229219876665e+01 -6.765826374630e+00 0.0 
-6.765826374630e+00 -1.820611127379e+02 0.0 
0.0 0.0 -6.990599345136e+01 
-4.732264438472e+01 -5.006734227107e+00 0.0 
-5.006734227107e+00 -1.769511361697e+02 0.0 
0.0 0.0 -6.688213416634e+01 
-4.140688920530e+01 -7.427384460440e+00 0.0 
-7.427384460440e+00 -1.620049173820e+02 0.0 
0.0 0.0 -6.062354197618e+01 
-4.251448648154e+01 -2.145317647072e+00 0.0 
-2.145317647072e+00 -1.714149283271e+02 0.0 
0.0 0.0 -6.377882444259e+01 
-4.897136542749e+01 -3.757778059226e-01 0.0 
-3.757778059226e-01 -1.858248720961e+02 0.0 
0.0 0.0 -7.003887125709e+01 
-3.815859321550e+01 1.980694788998e+00 0.0 
1.980694788998e+00 -1.649546768011e+02 0.0 
0.0 0.0 -6.053398100497e+01 
-1.155427031469e+02 2.341692541707e+01 0.0 
2.341692541707e+01 -2.536667767519e+02 0.0 
0.0 0.0 -1.103628439696e+02 
-1.588205802396e+02 1.119160994158e+01 0.0 
1.119160994158e+01 -3.810994775540e+02 0.0 
0.0 0.0 -1.615760173381e+02 
-9.830174889191e+01 2.818497785350e-02 0.0 
2.818497785350e-02 -2.713458657422e+02 0.0 
0.0 0.0 -1.104942843902e+02 
-9.278810181862e+01 2.018117392066e-01 0.0 
2.018117392066e-01 -2.635699307354e+02 0.0 
0.0 0.0 -1.065074097662e+02 
-8.434474961364e+01 -1.657601032601e+00 0.0 
-1.657601032601e+00 -2.456120220916e+02 0.0 
0.0 0.0 -9.858703151156e+01 
-7.850955583399e+01 -4.970219395988e+00 0.0 
-4.970219395988e+00 -2.004025825589e+02 0.0 
0.0 0.0 -8.327364151787e+01 
-8.203152097846e+01 -4.998595835434e+00 0.0 
-4.998595835434e+00 -2.127196692567e+02 0.0 
0.0 0.0 -8.802535707054e+01 
-8.983644564577e+01 -3.884662966636e+00 0.0 
-3.884662966636e+00 -2.324357899403e+02 0.0 
0.0 0.0 -9.628167067581e+01 
-7.473293084346e+01 -4.661358733758e+00 0.0 
-4.661358733758e+00 -1.880812008522e+02 0.0 
0.0 0.0 -7.844423950869e+01 
-9.854284550548e+01 2.414889409489e+01 0.0 
2.414889409489e+01 -2.460006634124e+02 0.0 
0.0 0.0 -1.029630526754e+02 
-1.595786872160e+02 9.642268592969e+00 0.0 
9.642268592969e+00 -3.821903759311e+02 0.0 
0.0 0.0 -1.621307189441e+02 
-8.884687816622e+01 6.950549506174e+00 0.0 
6.950549506174e+00 -2.655272998936e+02 0.0 
0.0 0.0 -1.059122534179e+02 
-7.775993497625e+01 -5.979494040684e+00 0.0 
-5.979494040684e+00 -2.052565202456e+02 0.0 
0.0 0.0 -8.450493656654e+01 
-5.901201143811e+01 2.407282069314e+00 0.0 
2.407282069314e+00 -9.711655683210e+01 0.0 
0.0 0.0 -4.643857048106e+01 
-6.774598763191e+01 4.006112003251e+00 0.0 
4.006112003251e+00 -1.152903483856e+02 0.0 
0.0 0.0 -5.451090080525e+01 
-6.954346545638e+01 5.316949440057e+00 0.0 
5.316949440057e+00 -1.167420356768e+02 0.0 
0.0 0.0 -5.548565033994e+01 
-7.708260390074e+01 6.220491931405e+00 0.0 
6.220491931405e+00 -1.356648481484e+02 0.0 
0.0 0.0 -6.342423561475e+01 
-6.721247182578e+01 3.386394868083e+00 0.0 
3.386394868083e+00 -1.162520976743e+02 0.0 
0.0 0.0 -5.463937085004e+01 
-9.461670869521e+01 -2.480565337819e+00 0.0 
-2.480565337819e+00 -2.360541043892e+02 0.0 
0.0 0.0 -9.880124392532e+01 
-9.870329131510e+01 -1.806232823836e+00 0.0 
-1.806232823836e+00 -2.441216974128e+02 0.0 
0.0 0.0 -1.024474966184e+02 
-9.453690453727e+01 -1.661503030201e+00 0.0 
-1.661503030201e+00 -2.327176147083e+02 0.0 
0.0 0.0 -9.777635577368e+01 
-1.027592673744e+02 -1.221829902600e+00 0.0 
-1.221829902600e+00 -2.522901719035e+02 0.0 
0.0 0.0 -1.061148317834e+02 
-9.829412093413e+01 -1.015285114960e+00 0.0 
-1.015285114960e+00 -2.406028909055e+02 0.0 
0.0 0.0 -1.012691035519e+02 
-9.075023623858e+01 -1.313042477302e+00 0.0 
-1.313042477302e+00 -2.223657715840e+02 0.0 
0.0 0.0 -9.353480234677e+01 
-1.066436334051e+02 -7.000828677217e-01 0.0 
-7.000828677217e-01 -2.601841132081e+02 0.0 
0.0 0.0 -1.096483239840e+02 
-1.014185950176e+02 -6.107095993102e-01 0.0 
-6.107095993102e-01 -2.473503474140e+02 0.0 
0.0 0.0 -1.042306827295e+02 
-5.679473979030e+01 1.336418146079e+00 0.0 
1.336418146079e+00 -9.596160656509e+01 0.0 
0.0 0.0 -4.542690390662e+01 
-4.323847131524e+01 -2.157558400289e+01 0.0 
-2.157558400289e+01 -4.791703924722e+01 0.0 
0.0 0.0 -2.769537109654e+01 
-4.015657673207e+01 -2.362337471866e+01 0.0 
-2.362337471866e+01 -5.723700925364e+01 0.0 
0.0 0.0 -2.890431846111e+01 
-3.405722164510e+01 -1.545304502916e+01 0.0 
-1.545304502916e+01 -4.287141705273e+01 0.0 
0.0 0.0 -2.208755870080e+01 
-3.993594131078e+01 -2.192747521727e+01 0.0 
-2.192747521727e+01 -7.024612560934e+01 0.0 
0.0 0.0 -3.192417754015e+01 
-3.823895170507e+01 -2.496897217209e+01 0.0 
-2.496897217209e+01 -8.783247594299e+01 0.0 
0.0 0.0 -3.756823310600e+01 
-3.959711553214e+01 -2.180354737713e+01 0.0 
-2.180354737713e+01 -9.824939453082e+01 0.0 
0.0 0.0 -4.026991586295e+01 
-3.569212821617e+01 -2.182703513792e+01 0.0 
-2.182703513792e+01 -1.093043622302e+02 0.0 
0.0 0.0 -4.330334461665e+01 
-4.130993035618e+01 -2.691335026774e+01 0.0 
-2.691335026774e+01 -8.425787437202e+01 0.0 
0.0 0.0 -3.825372685093e+01 
-2.045132431570e+01 -5.719951477834e+00 0.0 
-5.719951477834e+00 -1.964994980560e+01 0.0 
0.0 0.0 -1.173390713297e+01 
-2.773777563560e+01 -9.648869154645e+00 0.0 
-9.648869154645e+00 -3.779157652449e+01 0.0 
0.0 0.0 -1.861389379871e+01 
-1.434613785550e+01 -3.043669973271e+00 0.0 
-3.043669973271e+00 -1.769429893267e+01 0.0 
0.0 0.0 -9.094949476818e+00 
-2.240076335645e+01 -5.989966827601e+00 0.0 
-5.989966827601e+00 -3.500699502087e+01 0.0 
0.0 0.0 -1.652483068129e+01 
-3.407305339998e+01 -1.142201171993e+01 0.0 
-1.142201171993e+01 -5.822595534052e+01 0.0 
0.0 0.0 -2.605083591792e+01 
-3.697744096278e+01 -7.657736532705e+00 0.0 
-7.657736532705e+00 -8.216794925183e+01 0.0 
0.0 0.0 -3.532968602252e+01 
-1.612449060998e+02 1.044725530471e+00 0.0 
1.044725530471e+00 -3.804354218590e+02 0.0 
0.0 0.0 -1.621040983876e+02 
-7.819427981414e+01 -6.550467528603e-01 0.0 
-6.550467528603e-01 -1.911040143718e+02 0.0 
0.0 0.0 -8.038948825580e+01 
-7.410293242642e+01 -1.384309004632e+00 0.0 
-1.384309004632e+00 -1.814821359640e+02 0.0 
0.0 0.0 -7.627552051713e+01 
-6.628821074612e+01 -1.425484989947e+00 0.0 
-1.425484989947e+00 -1.619090921741e+02 0.0 
0.0 0.0 -6.805919087607e+01 
-7.046540133337e+01 -2.049102801842e+00 0.0 
-2.049102801842e+00 -1.727823347626e+02 0.0 
0.0 0.0 -7.257432082880e+01 
-8.127753282914e+01 -1.259834742794e+00 0.0 
-1.259834742794e+00 -1.992353868671e+02 0.0 
0.0 0.0 -8.375387590886e+01 
-6.184456639305e+01 -7.279085323654e-01 0.0 
-7.279085323654e-01 -1.510214360307e+02 0.0 
0.0 0.0 -6.345980072712e+01 
-5.888138045987e+01 -1.422055852317e+00 0.0 
-1.422055852317e+00 -1.439002844661e+02 0.0 
0.0 0.0 -6.043449947778e+01 
-2.877705822363e+00 -2.096584013782e-01 0.0 
-2.096584013782e-01 -1.718397958668e+01 0.0 
0.0 0.0 -5.257598912350e+00 
-9.123699552777e+00 -3.190377853104e-01 0.0 
-3.190377853104e-01 -3.378156803275e+01 0.0 
0.0 0.0 -1.238925642053e+01 
-8.365910351844e+00 -2.195550691876e-01 0.0 
-2.195550691876e-01 -3.213131024312e+01 0.0 
0.0 0.0 -1.157327410313e+01 
-1.695141924592e+01 -5.090673881534e-01 0.0 
-5.090673881534e-01 -5.061584788063e+01 0.0 
0.0 0.0 -1.987018013796e+01 
-1.724128232524e+01 -7.366220267682e-01 0.0 
-7.366220267682e-01 -5.029232242937e+01 0.0 
0.0 0.0 -1.986008142638e+01 
-9.664168560348e+00 -5.682917984595e-01 0.0 
-5.682917984595e-01 -3.410304709774e+01 0.0 
0.0 0.0 -1.267478070809e+01 
-1.009080011491e+01 -7.806415306939e-01 0.0 
-7.806415306939e-01 -3.410507669094e+01 0.0 
0.0 0.0 -1.283615099141e+01 
-3.561154506017e+00 -4.021850274292e-01 0.0 
-4.021850274292e-01 -1.703531150206e+01 0.0 
0.0 0.0 -5.501098868242e+00 
-1.060753666550e+01 -9.100393461206e-01 0.0 
-9.100393461206e-01 -3.393307118646e+01 0.0 
0.0 0.0 -1.302142375527e+01 
-1.872019708505e+01 -1.490945659586e+00 0.0 
-1.490945659586e+00 -5.114133525494e+01 0.0 
0.0 0.0 -2.055845970200e+01 
-3.903563254321e+00 -4.460083337658e-01 0.0 
-4.460083337658e-01 -1.645837300299e+01 0.0 
0.0 0.0 -5.521468735287e+00 
-8.836022670648e+01 5.400317718945e-01 0.0 
5.400317718945e-01 -1.875379193079e+02 0.0 
0.0 0.0 -8.236944380432e+01 
-9.223091682902e+01 1.027128030236e+00 0.0 
1.027128030236e+00 -1.984336158598e+02 0.0 
0.0 0.0 -8.679935980666e+01 
-1.601454966571e+02 6.767276043050e+00 0.0 
6.767276043050e+00 -3.826001566622e+02 0.0 
0.0 0.0 -1.624236959958e+02 
-5.600731269003e+01 8.749884207369e-01 0.0 
8.749884207369e-01 -9.766389285531e+01 0.0 
0.0 0.0 -4.570136166360e+01 
-8.646140518129e+00 -1.256838832291e+00 0.0 
-1.256838832291e+00 -1.746253358924e+01 0.0 
0.0 0.0 -7.682710401792e+00 
-1.129492634112e+02 3.638982444092e+00 0.0 
3.638982444092e+00 -2.588505969218e+02 0.0 
0.0 0.0 -1.111399580999e+02 
-1.152054515155e+02 6.770438653777e+00 0.0 
6.770438653777e+00 -2.635632993433e+02 0.0 
0.0 0.0 -1.132306252576e+02 
-1.148505421767e+02 5.648659240321e+00 0.0 
5.648659240321e+00 -2.633264709787e+02 0.0 
0.0 0.0 -1.130531039466e+02 
-1.471771316041e+02 1.324452266722e-01 0.0 
1.324452266722e-01 -3.498687398617e+02 0.0 
0.0 0.0 -1.487137614397e+02 
-1.517073557472e+02 3.872723266963e-01 0.0 
3.872723266963e-01 -3.596216238435e+02 0.0 
0.0 0.0 -1.529986938772e+02 
-1.126502824246e+02 2.014641825870e+00 0.0 
2.014641825870e+00 -2.590049691242e+02 0.0 
0.0 0.0 -1.110965754646e+02 
-5.313316602566e+01 -7.752735102569e+00 0.0 
-7.752735102569e+00 -1.313802509440e+02 0.0 
0.0 0.0 -5.495402509090e+01 
-1.183370495650e+02 1.825175429917e+01 0.0 
1.825175429917e+01 -2.567147390762e+02 0.0 
0.0 0.0 -1.121155365924e+02 
-1.019613018486e+02 3.578518433347e+00 0.0 
3.578518433347e+00 -2.237119614298e+02 0.0 
0.0 0.0 -9.730197898354e+01 
-3.142802972346e+01 2.186633135652e+01 0.0 
2.186633135652e+01 -1.196543821255e+02 0.0 
0.0 0.0 -4.519533870209e+01 
-5.112981959664e+01 -1.192676275139e+01 0.0 
-1.192676275139e+01 -1.328044594614e+02 0.0 
0.0 0.0 -5.478028371742e+01 
-1.197672965018e+02 -4.073875417611e-01 0.0 
-4.073875417611e-01 -2.912916786982e+02 0.0 
0.0 0.0 -1.229176925600e+02 
-1.063019931459e+02 -1.600350860497e+00 0.0 
-1.600350860497e+00 -2.711665908205e+02 0.0 
0.0 0.0 -1.128405751899e+02 
-1.378979115836e+02 6.720576050442e-01 0.0 
6.720576050442e-01 -3.330212274963e+02 0.0 
0.0 0.0 -1.408757417240e+02 
-1.112154940652e+02 -1.120109488797e+00 0.0 
-1.120109488797e+00 -2.750303739023e+02 0.0 
0.0 0.0 -1.154737603903e+02 
-1.288541112187e+02 6.117982677751e-01 0.0 
6.117982677751e-01 -3.172971389918e+02 0.0 
0.0 0.0 -1.334453750631e+02 
-1.461738479719e+02 1.259827919420e+01 0.0 
1.259827919420e+01 -3.622121382661e+02 0.0 
0.0 0.0 -1.521157958714e+02 
-3.138043263467e+01 -1.449922801629e+00 0.0 
-1.449922801629e+00 -7.972681980273e+01 0.0 
0.0 0.0 -3.293217573122e+01 
-7.745135733301e+01 2.556697396497e+00 0.0 
2.556697396497e+00 -1.507881967935e+02 0.0 
0.0 0.0 -6.807186623797e+01 
-7.292105831994e+01 1.305557832784e+00 0.0 
1.305557832784e+00 -1.432575258110e+02 0.0 
0.0 0.0 -6.445357523929e+01 
-9.185827165867e+01 3.274937130924e+00 0.0 
3.274937130924e+00 -1.926235809632e+02 0.0 
0.0 0.0 -8.494455578656e+01 
-5.497969020335e+01 -4.450890696144e+00 0.0 
-4.450890696144e+00 -1.348891906513e+02 0.0 
0.0 0.0 -5.656066425639e+01 
-8.667232343342e+01 -2.003791654965e+00 0.0 
-2.003791654965e+00 -2.135173231774e+02 0.0 
0.0 0.0 -8.965689398324e+01 
-3.572454719460e+01 -4.271684457321e+00 0.0 
-4.271684457321e+00 -8.545380858430e+01 0.0 
0.0 0.0 -3.595350673367e+01 
-1.317346414176e+02 2.688082510393e+01 0.0 
2.688082510393e+01 -3.079301694023e+02 0.0 
0.0 0.0 -1.314994432460e+02 
-7.189192811364e+01 2.096401233196e+01 0.0 
2.096401233196e+01 -1.293756201294e+02 0.0 
0.0 0.0 -5.998026447293e+01 
-8.157857536930e+01 -3.628980970320e+00 0.0 
-3.628980970320e+00 -2.346228905580e+02 0.0 
0.0 0.0 -9.446043977819e+01 
-7.095881739108e+01 -5.721287787818e+00 0.0 
-5.721287787818e+00 -1.801784677240e+02 0.0 
0.0 0.0 -7.494118553451e+01 
-5.689240866257e+01 -8.839937502606e+00 0.0 
-8.839937502606e+00 -1.448350967303e+02 0.0 
0.0 0.0 -6.011825161785e+01 
-4.819872608236e+01 -1.373675889569e+01 0.0 
-1.373675889569e+01 -1.273158733126e+02 0.0 
0.0 0.0 -5.225437981849e+01 
-6.221769846758e+01 2.586052503762e+01 0.0 
2.586052503762e+01 -1.699083462918e+02 0.0 
0.0 0.0 -6.923781342781e+01 
-8.082031772434e+01 -5.538150778820e+00 0.0 
-5.538150778820e+00 -2.176598796709e+02 0.0 
0.0 0.0 -8.914405921858e+01 
-1.181551700670e+02 1.457995696835e+00 0.0 
1.457995696835e+00 -3.052564199842e+02 0.0 
0.0 0.0 -1.266234770154e+02 
-9.519773693360e+01 3.054830404787e+00 0.0 
3.054830404787e+00 -2.035578622197e+02 0.0 
0.0 0.0 -8.922667974599e+01 
-6.509751666744e+00 -7.992389604295e-01 0.0 
-7.992389604295e-01 -1.911616732176e+01 0.0 
0.0 0.0 -7.155573505694e+00 
-1.223689899178e+02 2.906799717115e+00 0.0 
2.906799717115e+00 -3.160416627418e+02 0.0 
0.0 0.0 -1.311231957979e+02 
-9.669203474744e+01 -2.564722814035e+00 0.0 
-2.564722814035e+00 -2.561562269960e+02 0.0 
0.0 0.0 -1.054544785230e+02 
-8.288403040717e+01 4.563609563303e+00 0.0 
4.563609563303e+00 -1.592084032591e+02 0.0 
0.0 0.0 -7.222773009987e+01 
-1.118196699507e+02 1.547516422927e+01 0.0 
1.547516422927e+01 -3.038302370036e+02 0.0 
0.0 0.0 -1.242949720863e+02 
-4.220789635165e+01 -1.934160133910e+01 0.0 
-1.934160133910e+01 -1.000845234334e+02 0.0 
0.0 0.0 -4.105264458767e+01 
-9.637498686974e+01 5.497653264342e+00 0.0 
5.497653264342e+00 -2.007216324867e+02 0.0 
0.0 0.0 -8.872898580692e+01 
-1.108520853693e+02 1.123461717045e+01 0.0 
1.123461717045e+01 -2.399672355025e+02 0.0 
0.0 0.0 -1.048457962615e+02 
-7.624276890623e+01 4.708481242589e+00 0.0 
4.708481242589e+00 -1.380628302433e+02 0.0 
0.0 0.0 -6.389167974487e+01 
-2.701484265037e+01 -3.241939582288e+00 0.0 
-3.241939582288e+00 -6.513428825921e+01 0.0 
0.0 0.0 -2.724473927287e+01 
-6.922510639231e+01 1.704595907028e+00 0.0 
1.704595907028e+00 -1.305132135438e+02 0.0 
0.0 0.0 -5.952149598084e+01 
-1.423224197700e+02 7.427701167173e+00 0.0 
7.427701167173e+00 -3.545755465573e+02 0.0 
0.0 0.0 -1.486693898982e+02 
-1.005469149541e+02 1.093060331071e+01 0.0 
1.093060331071e+01 -2.008700247854e+02 0.0 
0.0 0.0 -9.002508192186e+01 
-5.026189263130e+01 -3.429777259741e+00 0.0 
-3.429777259741e+00 -1.228194566462e+02 0.0 
0.0 0.0 -5.152440478325e+01 
-7.493017762121e+01 7.477990490434e+00 0.0 
7.477990490434e+00 -2.397521660908e+02 0.0 
0.0 0.0 -9.400470311361e+01 
-6.899275906552e+01 2.649204994298e+01 0.0 
2.649204994298e+01 -1.569128074958e+02 0.0 
0.0 0.0 -6.737166996839e+01 
-5.629721281777e+01 6.524963734905e+00 0.0 
6.524963734905e+00 -8.193993648835e+01 0.0 
0.0 0.0 -4.107114479183e+01 
-1.050708661249e+02 4.461117258378e+00 0.0 
4.461117258378e+00 -2.325564293955e+02 0.0 
0.0 0.0 -1.008881886561e+02 
-7.557777326491e+01 2.178367677338e+01 0.0 
2.178367677338e+01 -2.179847494811e+02 0.0 
0.0 0.0 -8.766875682379e+01 
-1.229859984399e+02 1.306746498534e+01 0.0 
1.306746498534e+01 -3.251814691725e+02 0.0 
0.0 0.0 -1.340502402837e+02 
-9.288843626808e+01 9.687852133409e+00 0.0 
9.687852133409e+00 -2.731324751029e+02 0.0 
0.0 0.0 -1.094062734113e+02 
-5.371953205744e+01 -2.723476910055e+00 0.0 
-2.723476910055e+00 -1.315258844508e+02 0.0 
0.0 0.0 -5.517362495246e+01 
-1.329519476119e+02 2.517822935575e+00 0.0 
2.517822935575e+00 -3.317029401112e+02 0.0 
0.0 0.0 -1.389964663169e+02 
-7.006242703321e+01 1.530770992495e+01 0.0 
1.530770992495e+01 -2.241841643036e+02 0.0 
0.0 0.0 -8.787397740104e+01 
-1.031003256256e+02 6.472177213179e+00 0.0 
6.472177213179e+00 -2.211308131427e+02 0.0 
0.0 0.0 -9.686934163051e+01 
-1.042552434069e+02 2.450992684153e+01 0.0 
2.450992684153e+01 -2.386843721990e+02 0.0 
0.0 0.0 -1.024818846818e+02 
-5.438177085926e+01 8.340113889418e+00 0.0 
8.340113889418e+00 -1.989023301165e+02 0.0 
0.0 0.0 -7.558523029273e+01 
-1.014509034434e+02 8.535517429198e+00 0.0 
8.535517429198e+00 -2.099412589922e+02 0.0 
0.0 0.0 -9.301764873069e+01 
-7.898403102462e+01 -1.261505052089e+00 0.0 
-1.261505052089e+00 -2.383407617825e+02 0.0 
0.0 0.0 -9.479743784215e+01 
-1.167995858515e+02 1.757802131254e+01 0.0 
1.757802131254e+01 -3.099522626804e+02 0.0 
0.0 0.0 -1.276255545596e+02 
-6.768661596077e+01 2.299603998825e+01 0.0 
2.299603998825e+01 -1.249139077839e+02 0.0 
0.0 0.0 -5.738015712339e+01 
-8.877565491178e+01 2.479123614188e+01 0.0 
2.479123614188e+01 -1.992277955349e+02 0.0 
0.0 0.0 -8.600103513401e+01 
-9.785932268383e+01 2.073223755625e+01 0.0 
2.073223755625e+01 -1.981600518273e+02 0.0 
0.0 0.0 -8.840581235333e+01 
-8.221631568321e+01 2.494693567626e+01 0.0 
2.494693567626e+01 -2.087844072182e+02 0.0 
0.0 0.0 -8.690021687043e+01 
-1.152735557048e+02 -4.971288374071e-01 0.0 
-4.971288374071e-01 -2.801721562920e+02 0.0 
0.0 0.0 -1.182337135990e+02 
-1.277289132361e+02 2.698791379898e+00 0.0 
2.698791379898e+00 -3.238996075666e+02 0.0 
0.0 0.0 -1.350885562408e+02 
-2.971848365325e+01 -7.720432648243e+00 0.0 
-7.720432648243e+00 -1.340218509090e+02 0.0 
0.0 0.0 -4.987120620619e+01 
-4.920215871225e+01 2.730429479418e+01 0.0 
2.730429479418e+01 -1.333023153949e+02 0.0 
0.0 0.0 -5.435134223216e+01 
-8.439307141028e+01 6.015376616440e+00 0.0 
6.015376616440e+00 -1.587552859601e+02 0.0 
0.0 0.0 -7.254450721111e+01 
-1.199255563968e+02 2.508988219699e+01 0.0 
2.508988219699e+01 -2.875856439757e+02 0.0 
0.0 0.0 -1.218533601118e+02 
-1.094245247161e+02 7.284017849492e+00 0.0 
7.284017849492e+00 -2.414184447051e+02 0.0 
0.0 0.0 -1.048528908264e+02 
-6.167422371913e+01 2.703271838133e+01 0.0 
2.703271838133e+01 -1.372947540812e+02 0.0 
0.0 0.0 -5.929069334011e+01 
-1.284320174812e+02 1.425783603611e+00 0.0 
1.425783603611e+00 -3.206894321566e+02 0.0 
0.0 0.0 -1.343364348914e+02 
-1.074863936849e+02 9.672034733896e+00 0.0 
9.672034733896e+00 -2.300294673892e+02 0.0 
0.0 0.0 -1.008547583222e+02 
-8.535398347248e+01 -4.703295639146e+00 0.0 
-4.703295639146e+00 -2.249297955233e+02 0.0 
0.0 0.0 -9.268513369872e+01 
-3.608840524749e+01 -5.185268169837e-01 0.0 
-5.185268169837e-01 -9.140596964821e+01 0.0 
0.0 0.0 -3.784831246871e+01 
-3.300245494402e+01 2.574695557682e+01 0.0 
2.574695557682e+01 -1.057187163644e+02 0.0 
0.0 0.0 -4.160855298398e+01 
-4.066823842914e+01 7.408281269269e+00 0.0 
7.408281269269e+00 -1.701143336516e+02 0.0 
0.0 0.0 -6.283477162423e+01 
-7.085457322992e+01 2.009050154667e+01 0.0 
2.009050154667e+01 -2.149046760913e+02 0.0 
0.0 0.0 -8.532777479637e+01 
-9.328163077498e+01 -3.383384314885e+00 0.0 
-3.383384314885e+00 -2.443667779167e+02 0.0 
0.0 0.0 -1.008945226075e+02 
-1.169951208620e+02 1.596863026712e+01 0.0 
1.596863026712e+01 -2.562424239457e+02 0.0 
0.0 0.0 -1.115712634423e+02 
-1.333670363893e+02 1.393921313515e+00 0.0 
1.393921313515e+00 -3.284397110734e+02 0.0 
0.0 0.0 -1.381420242388e+02 
-1.153941052151e+02 5.592741956064e+00 0.0 
5.592741956064e+00 -3.097842291243e+02 0.0 
0.0 0.0 -1.271535003018e+02 
-4.214753004806e+01 3.099005959613e+01 0.0 
3.099005959613e+01 -4.135835201093e+01 0.0 
0.0 0.0 -2.434919829339e+01 
-6.194867830026e+01 9.534731363032e+00 0.0 
9.534731363032e+00 -9.325989082189e+01 0.0 
0.0 0.0 -4.616257073664e+01 
-1.381705811801e+02 1.336677278074e+00 0.0 
1.336677278074e+00 -3.363184057385e+02 0.0 
0.0 0.0 -1.419466960756e+02 
-7.994562328924e+01 5.608919312587e+00 0.0 
5.608919312587e+00 -2.487416922907e+02 0.0 
0.0 0.0 -9.820619467398e+01 
-1.220671582902e+02 1.635256890528e+01 0.0 
1.635256890528e+01 -3.210895446664e+02 0.0 
0.0 0.0 -1.325470108870e+02 
-9.357978529913e+01 -8.018657962405e-01 0.0 
-8.018657962405e-01 -2.284758034334e+02 0.0 
0.0 0.0 -9.621667661975e+01 
-1.331091600038e+02 2.681774235338e+01 0.0 
2.681774235338e+01 -3.142808891042e+02 0.0 
0.0 0.0 -1.338170147324e+02 
-4.784979739247e+01 1.785444580382e+01 0.0 
1.785444580382e+01 -6.363428365486e+01 0.0 
0.0 0.0 -3.304522431420e+01 
-1.428767334946e+02 1.224089220023e+00 0.0 
1.224089220023e+00 -3.445698468896e+02 0.0 
0.0 0.0 -1.458339741153e+02 
-1.137867099056e+02 8.508462887982e+00 0.0 
8.508462887982e+00 -3.096467576178e+02 0.0 
0.0 0.0 -1.266300402570e+02 
-4.322641964463e+01 2.296524792870e+01 0.0 
2.296524792870e+01 -1.482573279024e+02 0.0 
0.0 0.0 -5.704512426410e+01 
-5.236637334484e+01 7.714952517296e-02 0.0 
7.714952517296e-02 -9.488226657591e+01 0.0 
0.0 0.0 -4.377459197623e+01 
-1.536838208097e+02 1.607738415031e+00 0.0 
1.607738415031e+00 -3.661948028802e+02 0.0 
0.0 0.0 -1.555635871070e+02 
-1.243975566955e+02 9.875276515826e+00 0.0 
9.875276515826e+00 -3.276229612521e+02 0.0 
0.0 0.0 -1.352061553843e+02 
-9.026028672159e+01 2.445393044377e+01 0.0 
2.445393044377e+01 -2.273267443469e+02 0.0 
0.0 0.0 -9.487610932054e+01 
-7.660657511997e+01 2.551598883040e+00 0.0 
2.551598883040e+00 -2.404014694007e+02 0.0 
0.0 0.0 -9.470241335620e+01 
-4.872458301402e+01 8.443588727967e+00 0.0 
8.443588727967e+00 -6.335379232868e+01 0.0 
0.0 0.0 -3.322351260281e+01 
-9.791572627699e+01 -2.736205369735e+00 0.0 
-2.736205369735e+00 -2.518765055497e+02 0.0 
0.0 0.0 -1.045376695480e+02 
-9.325725025082e+01 2.403368993690e+01 0.0 
2.403368993690e+01 -2.032150973828e+02 0.0 
0.0 0.0 -8.854170429008e+01 
-1.191330068948e+02 1.356983300511e+01 0.0 
1.356983300511e+01 -2.709169374819e+02 0.0 
0.0 0.0 -1.166149833130e+02 
-1.288759147335e+02 1.203249289847e+01 0.0 
1.203249289847e+01 -3.349497302799e+02 0.0 
0.0 0.0 -1.387476935040e+02 
-9.246672682844e+01 1.249410077198e+01 0.0 
1.249410077198e+01 -1.728938507713e+02 0.0 
0.0 0.0 -7.920817327991e+01 
-9.422821229807e+01 -3.120774199271e+00 0.0 
-3.120774199271e+00 -2.400085053669e+02 0.0 
0.0 0.0 -9.987101529948e+01 
-9.695302538071e+01 1.979447746536e+01 0.0 
1.979447746536e+01 -2.667404679674e+02 0.0 
0.0 0.0 -1.087080480044e+02 
-1.780116702893e+01 -1.034636541703e+00 0.0 
-1.034636541703e+00 -5.045212154493e+01 0.0 
0.0 0.0 -2.007598657216e+01 
-5.498160104799e+01 1.273940811155e+01 0.0 
1.273940811155e+01 -7.670075958250e+01 0.0 
0.0 0.0 -3.910470818915e+01 
-9.854648917145e+01 -2.419611142204e+00 0.0 
-2.419611142204e+00 -2.477315293966e+02 0.0 
0.0 0.0 -1.034834055704e+02 
-4.448310802488e+01 3.048413985942e+00 0.0 
3.048413985942e+00 -1.785972257823e+02 0.0 
0.0 0.0 -6.652410014217e+01 
-8.188456466479e+01 1.366721604881e+00 0.0 
1.366721604881e+00 -2.481440289613e+02 0.0 
0.0 0.0 -9.860857808783e+01 
-1.370699809464e+02 2.236386952128e+01 0.0 
2.236386952128e+01 -3.385705705420e+02 0.0 
0.0 0.0 -1.422921654465e+02 
-1.028069475657e+02 -1.799910264150e+00 0.0 
-1.799910264150e+00 -2.556283007565e+02 0.0 
0.0 0.0 -1.071305744966e+02 
-5.134811399224e+01 4.151007865439e+00 0.0 
4.151007865439e+00 -1.930157416904e+02 0.0 
0.0 0.0 -7.290915670479e+01 
-1.069964817524e+02 -1.266908764480e+00 0.0 
-1.266908764480e+00 -2.636313242344e+02 0.0 
0.0 0.0 -1.107883417960e+02 
-4.151929773272e+01 1.189129225013e+01 0.0 
1.189129225013e+01 -4.614277375592e+01 0.0 
0.0 0.0 -2.589862144659e+01 
-9.674346724301e+01 1.470990341634e+01 0.0 
1.470990341634e+01 -1.854222884948e+02 0.0 
0.0 0.0 -8.424972672135e+01 
-1.111432933208e+02 -8.029967770242e-01 0.0 
-8.029967770242e-01 -2.716910447672e+02 0.0 
0.0 0.0 -1.144503014264e+02 
-1.008050115140e+02 2.400544737394e+01 0.0 
2.400544737394e+01 -2.232655198424e+02 0.0 
0.0 0.0 -9.682115940692e+01 
-2.031849782392e+01 -1.906562674673e+00 0.0 
-1.906562674673e+00 -5.280256558132e+01 0.0 
0.0 0.0 -2.153631902157e+01 
-9.365683733699e+01 2.357178450911e+01 0.0 
2.357178450911e+01 -2.423071372111e+02 0.0 
0.0 0.0 -1.003891923644e+02 
-1.422336819753e+02 2.276342494452e-01 0.0 
2.276342494452e-01 -3.395453190743e+02 0.0 
0.0 0.0 -1.441337003149e+02 
-6.267028733913e+01 -9.545154338393e+00 0.0 
-9.545154338393e+00 -1.721851694525e+02 0.0 
0.0 0.0 -7.005663703749e+01 
-8.726833016012e+01 6.030577752196e-01 0.0 
6.030577752196e-01 -2.557785627541e+02 0.0 
0.0 0.0 -1.025140678743e+02 
-1.036773960847e+02 1.607607374433e+01 0.0 
1.607607374433e+01 -2.068109564725e+02 0.0 
0.0 0.0 -9.274650576717e+01 
-3.636485866668e+01 1.725560009947e+01 0.0 
1.725560009947e+01 -3.464932298905e+01 0.0 
0.0 0.0 -2.090425449672e+01 
-9.608820372102e+01 2.361085491984e+00 0.0 
2.361085491984e+00 -2.734910105744e+02 0.0 
0.0 0.0 -1.104737642886e+02 
-1.083818250566e+02 2.419276612767e+01 0.0 
2.419276612767e+01 -2.432460875694e+02 0.0 
0.0 0.0 -1.050883737878e+02 
-9.740609754569e+01 2.248571348140e+01 0.0 
2.248571348140e+01 -2.567421828517e+02 0.0 
0.0 0.0 -1.058444841192e+02 
-7.911182204275e+01 1.981617005926e+01 0.0 
1.981617005926e+01 -2.318534440826e+02 0.0 
0.0 0.0 -9.288957983759e+01 
-1.054599510208e+02 4.025998312620e+00 0.0 
4.025998312620e+00 -2.915281791404e+02 0.0 
0.0 0.0 -1.186964390484e+02 
-4.176130094067e+01 2.295343023026e+01 0.0 
2.295343023026e+01 -5.826158804428e+01 0.0 
0.0 0.0 -2.960686669549e+01 
-5.038757483934e+01 -9.115075313652e+00 0.0 
-9.115075313652e+00 -1.241794444038e+02 0.0 
0.0 0.0 -5.197010577295e+01 
-4.389467735584e+01 -8.759480768941e+00 0.0 
-8.759480768941e+00 -1.033879315502e+02 0.0 
0.0 0.0 -4.378478267182e+01 
-5.595563730479e+01 1.237168312050e+00 0.0 
1.237168312050e+00 -2.007805831444e+02 0.0 
0.0 0.0 -7.662086613474e+01 
-1.121997616094e+02 2.379847484089e+01 0.0 
2.379847484089e+01 -2.482757225510e+02 0.0 
0.0 0.0 -1.077426452481e+02 
-2.505493143557e+01 -7.797933745237e-01 0.0 
-7.797933745237e-01 -6.705399838885e+01 0.0 
0.0 0.0 -2.723267894733e+01 
-1.046370443198e+02 1.885552850028e+01 0.0 
1.885552850028e+01 -2.120139499805e+02 0.0 
0.0 0.0 -9.459529829010e+01 
-3.561410438014e+01 -8.623205762057e+00 0.0 
-8.623205762057e+00 -7.501175961871e+01 0.0 
0.0 0.0 -3.266767553572e+01 
-5.382284628908e+01 -2.860503558211e+00 0.0 
-2.860503558211e+00 -1.921890597759e+02 0.0 
0.0 0.0 -7.340357181949e+01 
-1.114818129588e+02 2.160340324255e+01 0.0 
2.160340324255e+01 -2.894926794595e+02 0.0 
0.0 0.0 -1.198923477255e+02 
-7.394430721992e+01 4.349556082650e-01 0.0 
4.349556082650e-01 -1.489734350188e+02 0.0 
0.0 0.0 -6.647532267162e+01 
-5.884012713333e+01 -4.478597410044e+00 0.0 
-4.478597410044e+00 -1.981306347692e+02 0.0 
0.0 0.0 -7.669122857077e+01 
-4.499657873585e+01 -6.087621576283e-01 0.0 
-6.087621576283e-01 -1.113997718829e+02 0.0 
0.0 0.0 -4.651890518562e+01 
-5.724655685558e+01 -7.638381126482e+00 0.0 
-7.638381126482e+00 -1.871429569509e+02 0.0 
0.0 0.0 -7.291685414194e+01 
-8.780118830419e+01 1.969683945745e+01 0.0 
1.969683945745e+01 -2.490980924858e+02 0.0 
0.0 0.0 -1.006697842370e+02 
-6.214289742044e+01 -7.851514688697e+00 0.0 
-7.851514688697e+00 -1.924902112099e+02 0.0 
0.0 0.0 -7.598993258909e+01 
-6.052998496447e+01 -9.674343023494e+00 0.0 
-9.674343023494e+00 -1.799888906533e+02 0.0 
0.0 0.0 -7.175566268534e+01 
-1.084443867021e+02 4.113843373881e+00 0.0 
4.113843373881e+00 -2.438489618677e+02 0.0 
0.0 0.0 -1.052880045709e+02 
-6.492776602629e+01 -8.920633404891e+00 0.0 
-8.920633404891e+00 -1.855114196514e+02 0.0 
0.0 0.0 -7.473175570332e+01 
-1.139884824990e+02 1.239195367685e+00 0.0 
1.239195367685e+00 -2.624162593035e+02 0.0 
0.0 0.0 -1.125214225408e+02 
-1.619734157554e+02 4.902166283523e-01 0.0 
4.902166283523e-01 -3.813161448889e+02 0.0 
0.0 0.0 -1.625868681933e+02 
-5.835031543760e+01 2.331249200359e-01 0.0 
2.331249200359e-01 -1.098689812265e+02 0.0 
0.0 0.0 -5.006578899924e+01 
-3.308149064095e+01 2.202791400140e+01 0.0 
2.202791400140e+01 -3.051979874459e+01 0.0 
0.0 0.0 -1.868038681566e+01 
-7.157076900103e+01 1.297253322430e+00 0.0 
1.297253322430e+00 -1.114873560350e+02 0.0 
0.0 0.0 -5.579718607398e+01 
-3.839541569742e+01 2.597857675756e+01 0.0 
2.597857675756e+01 -5.992330270571e+01 0.0 
0.0 0.0 -2.909561552094e+01 
-5.667063626081e+01 -1.090345991687e+01 0.0 
-1.090345991687e+01 -1.527141810214e+02 0.0 
0.0 0.0 -6.241544518465e+01 
-1.048709001616e+02 2.137502731454e+01 0.0 
2.137502731454e+01 -2.188952905863e+02 0.0 
0.0 0.0 -9.672985722437e+01 
-5.880756595257e+01 1.655423451307e-01 0.0 
1.655423451307e-01 -1.106105517941e+02 0.0 
0.0 0.0 -5.042543532400e+01 
-5.398523519884e+01 -1.034518244995e+01 0.0 
-1.034518244995e+01 -1.385275873695e+02 0.0 
0.0 0.0 -5.735384677050e+01 
-1.240292115225e+02 2.298047314466e+01 0.0 
2.298047314466e+01 -2.765708386369e+02 0.0 
0.0 0.0 -1.197800150478e+02 
-1.437289697904e+02 2.756682281911e+01 0.0 
2.756682281911e+01 -3.404370593254e+02 0.0 
0.0 0.0 -1.448498087347e+02 
-8.487042761716e+01 8.035365847609e-01 0.0 
8.035365847609e-01 -1.777715262792e+02 0.0 
0.0 0.0 -7.839258616891e+01 
-1.274414507778e+02 1.519154442011e+01 0.0 
1.519154442011e+01 -3.311477263623e+02 0.0 
0.0 0.0 -1.371767531420e+02 
-1.018127875351e+02 2.130807543578e+01 0.0 
2.130807543578e+01 -2.710937575870e+02 0.0 
0.0 0.0 -1.114719635366e+02 
-1.014147699351e+02 6.583063189588e-01 0.0 
6.583063189588e-01 -2.252364958994e+02 0.0 
0.0 0.0 -9.759537975034e+01 
-5.274048411838e+01 5.047452098301e-01 0.0 
5.047452098301e-01 -9.351296948108e+01 0.0 
0.0 0.0 -4.347603607984e+01 
-1.935848185211e+01 -4.022888561862e+00 0.0 
-4.022888561862e+00 -3.418101895276e+01 0.0 
0.0 0.0 -1.562246636759e+01 
-1.198980517846e+02 -1.923686905504e-01 0.0 
-1.923686905504e-01 -2.900920257209e+02 0.0 
0.0 0.0 -1.225970232517e+02 
-3.310237248179e+01 2.368593860307e+01 0.0 
2.368593860307e+01 -3.128617993329e+01 0.0 
0.0 0.0 -1.891656572453e+01 
-3.629754187709e+01 2.693988114812e+01 0.0 
2.693988114812e+01 -5.599035438700e+01 0.0 
0.0 0.0 -2.728636887923e+01 
-3.773214755329e+01 2.842025858875e+01 0.0 
2.842025858875e+01 -5.758923180037e+01 0.0 
0.0 0.0 -2.705455673806e+01 
-5.636151862897e+01 -2.026579168372e+00 0.0 
-2.026579168372e+00 -1.383788800965e+02 0.0 
0.0 0.0 -5.802211961764e+01 
-3.707903524686e+01 -1.604660583963e+01 0.0 
-1.604660583963e+01 -5.974942809778e+01 0.0 
0.0 0.0 -2.729303813425e+01 
-3.594796030236e+01 2.570308528019e+01 0.0 
2.570308528019e+01 -3.613461639554e+01 0.0 
0.0 0.0 -2.094282996263e+01 
-1.425119021490e+02 1.816733360770e+01 0.0 
1.816733360770e+01 -3.535182805558e+02 0.0 
0.0 0.0 -1.484090548115e+02 
-6.274129007557e+01 1.731486551835e+00 0.0 
1.731486551835e+00 -1.116366652426e+02 0.0 
0.0 0.0 -5.191338659545e+01 
-1.159713746418e+02 2.291032747931e+01 0.0 
2.291032747931e+01 -2.934908635220e+02 0.0 
0.0 0.0 -1.224386714491e+02 
-3.879619383001e+01 2.758561117542e+01 0.0 
2.758561117542e+01 -3.780561029039e+01 0.0 
0.0 0.0 -2.100474868914e+01 
-1.131091514584e+02 1.084701839284e+01 0.0 
1.084701839284e+01 -2.499969260954e+02 0.0 
0.0 0.0 -1.085318232662e+02 
-1.368583898340e+02 2.469427055156e+01 0.0 
2.469427055156e+01 -3.325966653020e+02 0.0 
0.0 0.0 -1.404365165408e+02 
-1.619062154893e+02 4.411054168810e+00 0.0 
4.411054168810e+00 -3.844214754017e+02 0.0 
0.0 0.0 -1.634983072673e+02 
-1.258344497639e+02 2.353579276368e+01 0.0 
2.353579276368e+01 -3.123249192066e+02 0.0 
0.0 0.0 -1.310478106911e+02 
-3.945802290878e+01 3.106042949344e+01 0.0 
3.106042949344e+01 -6.175988070060e+01 0.0 
0.0 0.0 -2.908032887973e+01 
-7.414227935390e+01 5.006830494088e+00 0.0 
5.006830494088e+00 -1.305862271296e+02 0.0 
0.0 0.0 -6.101855194505e+01 
-1.300136307006e+02 2.670541924935e+01 0.0 
2.670541924935e+01 -3.010421849785e+02 0.0 
0.0 0.0 -1.289167447037e+02 
-9.099534684917e+01 1.311464216776e+00 0.0 
1.311464216776e+00 -1.936362157744e+02 0.0 
0.0 0.0 -8.498946878706e+01 
-1.631134316552e+02 2.724054662760e+00 0.0 
2.724054662760e+00 -3.853660379685e+02 0.0 
0.0 0.0 -1.641438408871e+02 
-6.367835556827e+01 2.281599977684e+00 0.0 
2.281599977684e+00 -1.098973514943e+02 0.0 
0.0 0.0 -5.167271211878e+01 
-1.086936280854e+02 2.604419916459e+00 0.0 
2.604419916459e+00 -2.460789314857e+02 0.0 
0.0 0.0 -1.060317678713e+02 
-3.185233261620e+01 -1.641023876739e+01 0.0 
-1.641023876739e+01 -1.231973142404e+02 0.0 
0.0 0.0 -4.708490196680e+01 
-1.084787378920e+02 1.282076023584e+00 0.0 
1.282076023584e+00 -2.461008519995e+02 0.0 
0.0 0.0 -1.059738769675e+02 
-1.118261645777e+02 2.219040301825e+01 0.0 
2.219040301825e+01 -2.397246632429e+02 0.0 
0.0 0.0 -1.050652483462e+02 
-6.925095180862e+01 7.762132343926e-01 0.0 
7.762132343926e-01 -1.347327956428e+02 0.0 
0.0 0.0 -6.079512423543e+01 
-7.644448258590e+01 6.944975741194e+00 0.0 
6.944975741194e+00 -1.320712445112e+02 0.0 
0.0 0.0 -6.215471812913e+01 
-1.559673780223e+02 6.790686166416e-01 0.0 
6.790686166416e-01 -3.688492503292e+02 0.0 
0.0 0.0 -1.570449885054e+02 
-1.207295321336e+02 2.006241283814e+01 0.0 
2.006241283814e+01 -2.666976843709e+02 0.0 
0.0 0.0 -1.158281649514e+02 
-3.963689787799e+01 3.323460463247e+01 0.0 
3.323460463247e+01 -6.946662307546e+01 0.0 
0.0 0.0 -3.258535928213e+01 
-8.489707850975e+01 9.588776740281e-01 0.0 
9.588776740281e-01 -1.767248762976e+02 0.0 
0.0 0.0 -7.808658644220e+01 
-7.040275405336e+01 -2.728606943074e+00 0.0 
-2.728606943074e+00 -1.734117874357e+02 0.0 
0.0 0.0 -7.274436244671e+01 
-4.283732034677e+01 -1.883578253443e+01 0.0 
-1.883578253443e+01 -1.073575865930e+02 0.0 
0.0 0.0 -4.634465704386e+01 
-1.517440534586e+02 5.610758232229e+00 0.0 
5.610758232229e+00 -3.683707850241e+02 0.0 
0.0 0.0 -1.556344515448e+02 
-1.180667982009e+02 2.306892846484e+01 0.0 
2.306892846484e+01 -2.592791979349e+02 0.0 
0.0 0.0 -1.128037988407e+02 
-1.549591413824e+02 1.146110033481e+00 0.0 
1.146110033481e+00 -3.680319354577e+02 0.0 
0.0 0.0 -1.564973230520e+02 
-1.650759012603e+01 -2.846288101581e-01 0.0 
-2.846288101581e-01 -4.991425863197e+01 0.0 
0.0 0.0 -1.952655462740e+01 
-1.335911624533e+01 -1.921057958438e+00 0.0 
-1.921057958438e+00 -3.143318431458e+01 0.0 
0.0 0.0 -1.309104979009e+01 
-1.517362188505e+02 8.248081274017e+00 0.0 
8.248081274017e+00 -3.701388691994e+02 0.0 
0.0 0.0 -1.561625264150e+02 
-1.275531439538e+02 2.531336524792e+01 0.0 
2.531336524792e+01 -2.893395122864e+02 0.0 
0.0 0.0 -1.246677968720e+02 
-3.643401954157e+01 -1.854770932364e+01 0.0 
-1.854770932364e+01 -1.198518709800e+02 0.0 
0.0 0.0 -4.621254862350e+01 
-1.174022010452e+02 9.337598714159e+00 0.0 
9.337598714159e+00 -2.691420511882e+02 0.0 
0.0 0.0 -1.155632756700e+02 
-4.302586994436e+01 3.391774440437e+01 0.0 
3.391774440437e+01 -7.616855158491e+01 0.0 
0.0 0.0 -3.669457844035e+01 
-5.281435256985e+01 3.836517434011e-01 0.0 
3.836517434011e-01 -9.151447423354e+01 0.0 
0.0 0.0 -4.289864804102e+01 
-1.076979515544e+01 -1.025593213183e+00 0.0 
-1.025593213183e+00 -3.228380315490e+01 0.0 
0.0 0.0 -1.259296928754e+01 
-1.631005486741e+02 2.212598398784e+00 0.0 
2.212598398784e+00 -3.846965705458e+02 0.0 
0.0 0.0 -1.639391357660e+02 
-1.108478749104e+02 6.636817789151e+00 0.0 
6.636817789151e+00 -2.486805317946e+02 0.0 
0.0 0.0 -1.074585220115e+02 
-7.772160113767e+01 -1.897545656709e+00 0.0 
-1.897545656709e+00 -1.905138708944e+02 0.0 
0.0 0.0 -8.007064160963e+01 
-6.229165600616e+01 4.268196312258e+00 0.0 
4.268196312258e+00 -9.983360448806e+01 0.0 
0.0 0.0 -4.823757814827e+01 
-5.091463380481e+01 -1.333379672597e+00 0.0 
-1.333379672597e+00 -1.251327747273e+02 0.0 
0.0 0.0 -5.241422255963e+01 
-1.272798483763e+02 2.565543764974e+01 0.0 
2.565543764974e+01 -3.041517376109e+02 0.0 
0.0 0.0 -1.290294757962e+02 
-2.850477633773e+01 -7.545946377828e+00 0.0 
-7.545946377828e+00 -4.921961845146e+01 0.0 
0.0 0.0 -2.228564164290e+01 
-1.105359975997e+02 4.982093141704e+00 0.0 
4.982093141704e+00 -2.497638765559e+02 0.0 
0.0 0.0 -1.076899622467e+02 
-1.502950874986e+02 1.141348252975e+01 0.0 
1.141348252975e+01 -3.686079909716e+02 0.0 
0.0 0.0 -1.552709235411e+02 
-1.173732203021e+02 1.494031541068e+01 0.0 
1.494031541068e+01 -2.597974391411e+02 0.0 
0.0 0.0 -1.127511978330e+02 
-1.531107813633e+02 2.276965515351e+01 0.0 
2.276965515351e+01 -3.659684777255e+02 0.0 
0.0 0.0 -1.553237777266e+02 
-4.841927258584e+01 1.095028930317e+01 0.0 
1.095028930317e+01 -1.160597192145e+02 0.0 
0.0 0.0 -5.081127648869e+01 
-1.381226356581e+02 2.605697528299e+01 0.0 
2.605697528299e+01 -3.317806882502e+02 0.0 
0.0 0.0 -1.405709971725e+02 
-1.379719289140e+02 1.294875022720e+01 0.0 
1.294875022720e+01 -3.495678592211e+02 0.0 
0.0 0.0 -1.458619364405e+02 
-5.211025757709e+01 -1.900408730684e-02 0.0 
-1.900408730684e-02 -9.329022686582e+01 0.0 
0.0 0.0 -4.322014533287e+01 
-1.188971427566e+02 1.743694806339e+01 0.0 
1.743694806339e+01 -2.621009548405e+02 0.0 
0.0 0.0 -1.138994292791e+02 
-6.315776781627e+01 -2.065807755387e+00 0.0 
-2.065807755387e+00 -1.545731182897e+02 0.0 
0.0 0.0 -6.491926583180e+01 
-2.619323303116e+01 -1.983040373794e+00 0.0 
-1.983040373794e+00 -6.621905101439e+01 0.0 
0.0 0.0 -2.732368521367e+01 
-1.145471528877e+02 7.055361269329e-01 0.0 
7.055361269329e-01 -2.644311911109e+02 0.0 
0.0 0.0 -1.132935031996e+02 
-2.015333000602e+00 -7.390938158725e-02 0.0 
-7.390938158725e-02 -1.417117870630e+01 0.0 
0.0 0.0 -3.797882762555e+00 
-5.098771341233e+01 1.078289066914e-01 0.0 
1.078289066914e-01 -9.221994067041e+01 0.0 
0.0 0.0 -4.256229622482e+01 
-1.640079275677e+02 4.795593720367e-02 0.0 
4.795593720367e-02 -3.854242604789e+02 0.0 
0.0 0.0 -1.644296564140e+02 
-2.380862770840e+01 -1.179840690080e+00 0.0 
-1.179840690080e+00 -6.319568792675e+01 0.0 
0.0 0.0 -2.570129469055e+01 
-6.433725454212e+01 3.649037199430e-01 0.0 
3.649037199430e-01 -1.242675004614e+02 0.0 
0.0 0.0 -5.618142650107e+01 
-1.264240092190e+02 2.443092201337e+01 0.0 
2.443092201337e+01 -2.847898798473e+02 0.0 
0.0 0.0 -1.229641667199e+02 
-9.568540769487e+01 -3.891060858492e-01 0.0 
-3.891060858492e-01 -2.335217885319e+02 0.0 
0.0 0.0 -9.836215886804e+01 
-9.755172934053e+01 1.220382001923e+00 0.0 
1.220382001923e+00 -2.137277784972e+02 0.0 
0.0 0.0 -9.298385235133e+01 
-4.094636024649e+01 -1.972098745519e+01 0.0 
-1.972098745519e+01 -8.029511393360e+01 0.0 
0.0 0.0 -3.455994489856e+01 
-7.345478874772e+01 -7.286234765278e+00 0.0 
-7.286234765278e+00 -1.084379028579e+02 0.0 
0.0 0.0 -5.531333039940e+01 
-7.802304991404e+01 6.814113010750e-01 0.0 
6.814113010750e-01 -1.593662202788e+02 0.0 
0.0 0.0 -7.081678105786e+01 
-1.400636088959e+02 2.373512570272e+01 0.0 
2.373512570272e+01 -3.413558990757e+02 0.0 
0.0 0.0 -1.440258523915e+02 
-1.154849550134e+02 1.226438169849e+01 0.0 
1.226438169849e+01 -2.569151622750e+02 0.0 
0.0 0.0 -1.113200351865e+02 
-7.330883618129e+01 7.590342487439e-01 0.0 
7.590342487439e-01 -1.456058647496e+02 0.0 
0.0 0.0 -6.527441027926e+01 
-3.478893850774e+01 2.956747649894e+01 0.0 
2.956747649894e+01 -9.067741541675e+01 0.0 
0.0 0.0 -3.782917287290e+01 
-1.232969773507e+02 2.402828676221e+01 0.0 
2.402828676221e+01 -2.753271710433e+02 0.0 
0.0 0.0 -1.191872445182e+02 
-8.414431328794e+01 -1.622249879299e+00 0.0 
-1.622249879299e+00 -2.059266343623e+02 0.0 
0.0 0.0 -8.662128429506e+01 
-1.259095349018e+02 2.618289298143e+01 0.0 
2.618289298143e+01 -2.924295787622e+02 0.0 
0.0 0.0 -1.251017340992e+02 
-1.359793441521e+02 1.633777970435e+01 0.0 
1.633777970435e+01 -3.446843797232e+02 0.0 
0.0 0.0 -1.437991171626e+02 
-4.974213405040e+01 3.380734667656e+01 0.0 
3.380734667656e+01 -5.946209316689e+01 0.0 
0.0 0.0 -3.349943406468e+01 
-1.029814354492e+02 -3.146490868734e-01 0.0 
-3.146490868734e-01 -2.509337935764e+02 0.0 
0.0 0.0 -1.057745687077e+02 
-1.052509309115e+01 -1.062953332826e+00 0.0 
-1.062953332826e+00 -3.020658286006e+01 0.0 
0.0 0.0 -1.184378386077e+01 
-1.554913720127e+02 3.615097353574e+00 0.0 
3.615097353574e+00 -3.724782124985e+02 0.0 
0.0 0.0 -1.579908753533e+02 
-8.762809155793e+01 -1.020789939523e+00 0.0 
-1.020789939523e+00 -2.144093292483e+02 0.0 
0.0 0.0 -9.021122624188e+01 
-1.909632455726e+01 4.304930115860e+00 0.0 
4.304930115860e+00 -7.769718444730e+00 0.0 
0.0 0.0 -7.618706661342e+00 
-1.675980120361e+01 8.213139123588e-02 0.0 
8.213139123588e-02 -1.044753582585e+01 0.0 
0.0 0.0 -7.762201108839e+00 
-2.968996248740e+01 4.539644907083e+00 0.0 
4.539644907083e+00 -2.967353293217e+01 0.0 
0.0 0.0 -1.740904862587e+01 
-2.417718932098e+01 -3.695429280516e-02 0.0 
-3.695429280516e-02 -2.891411729761e+01 0.0 
0.0 0.0 -1.552739198558e+01 
-3.958365358328e+01 3.759720676190e+00 0.0 
3.759720676190e+00 -4.960610148645e+01 0.0 
0.0 0.0 -2.635692652092e+01 
-3.297160119998e+01 -8.207706017352e-02 0.0 
-8.207706017352e-02 -4.953751141414e+01 0.0 
0.0 0.0 -2.435273378424e+01 
-4.862121271078e+01 3.242262025410e+00 0.0 
3.242262025410e+00 -6.940395108786e+01 0.0 
0.0 0.0 -3.500754913959e+01 
-4.065179402067e+01 -1.719767740772e-01 0.0 
-1.719767740772e-01 -6.789483549762e+01 0.0 
0.0 0.0 -3.216398885549e+01 

TENSORS node_materi_strain_total float
7.045495049609e-04 4.035056448383e-07 0.0 
4.035056448383e-07 -1.950022039464e-04 0.0 
0.0 0.0 0.0 
-8.442977734588e-04 -1.841446410324e-05 0.0 
-1.841446410324e-05 1.033627478359e-02 0.0 
0.0 0.0 0.0 
2.185028877499e-06 1.441745439043e-05 0.0 
1.441745439043e-05 7.601762562392e-03 0.0 
0.0 0.0 0.0 
-5.955549676834e-05 2.071392886356e-05 0.0 
2.071392886356e-05 1.385179574518e-02 0.0 
0.0 0.0 0.0 
5.487229038161e-04 -7.426870607863e-06 0.0 
-7.426870607863e-06 6.884915637525e-05 0.0 
0.0 0.0 0.0 
3.706684441906e-04 3.098709844848e-06 0.0 
3.098709844848e-06 5.538950606840e-04 0.0 
0.0 0.0 0.0 
2.184243878664e-04 -8.319238544330e-06 0.0 
-8.319238544330e-06 9.923714026461e-04 0.0 
0.0 0.0 0.0 
1.036106506542e-04 -1.609853774183e-05 0.0 
-1.609853774183e-05 1.462002592254e-03 0.0 
0.0 0.0 0.0 
1.038233082092e-05 -2.549375777314e-05 0.0 
-2.549375777314e-05 1.893778806000e-03 0.0 
0.0 0.0 0.0 
-4.279803515668e-05 -2.918034374108e-05 0.0 
-2.918034374108e-05 2.295070493537e-03 0.0 
0.0 0.0 0.0 
-7.054338650470e-05 -3.129418338365e-05 0.0 
-3.129418338365e-05 2.678831744743e-03 0.0 
0.0 0.0 0.0 
-7.733054171207e-05 -3.403270205054e-05 0.0 
-3.403270205054e-05 3.048396150756e-03 0.0 
0.0 0.0 0.0 
-6.647660545892e-05 -3.367571767081e-05 0.0 
-3.367571767081e-05 3.410468876244e-03 0.0 
0.0 0.0 0.0 
-4.922982053964e-05 -2.866188855387e-05 0.0 
-2.866188855387e-05 3.774480326437e-03 0.0 
0.0 0.0 0.0 
-3.131163455583e-05 -1.600103774196e-05 0.0 
-1.600103774196e-05 4.151155295316e-03 0.0 
0.0 0.0 0.0 
-6.650841724576e-06 -4.540776572703e-06 0.0 
-4.540776572703e-06 4.522568843561e-03 0.0 
0.0 0.0 0.0 
1.618479301254e-05 1.309254159494e-06 0.0 
1.309254159494e-06 4.869585191431e-03 0.0 
0.0 0.0 0.0 
2.813577906539e-05 -1.162773699967e-05 0.0 
-1.162773699967e-05 5.256744350675e-03 0.0 
0.0 0.0 0.0 
3.398177826271e-05 -6.351484903870e-06 0.0 
-6.351484903870e-06 5.668915994874e-03 0.0 
0.0 0.0 0.0 
3.162250452101e-05 -7.754069325138e-07 0.0 
-7.754069325138e-07 6.080202433932e-03 0.0 
0.0 0.0 0.0 
2.253543609543e-05 2.845818916540e-06 0.0 
2.845818916540e-06 6.504631501331e-03 0.0 
0.0 0.0 0.0 
1.003259917357e-05 8.720375206720e-06 0.0 
8.720375206720e-06 6.939719777381e-03 0.0 
0.0 0.0 0.0 
4.124669906365e-06 1.374168523625e-05 0.0 
1.374168523625e-05 7.356711068049e-03 0.0 
0.0 0.0 0.0 
-4.266300532444e-05 9.148393559132e-05 0.0 
9.148393559132e-05 1.386134309051e-02 0.0 
0.0 0.0 0.0 
-4.807857777056e-05 1.683390047811e-04 0.0 
1.683390047811e-04 1.383851017497e-02 0.0 
0.0 0.0 0.0 
-4.824359519695e-05 2.413249651500e-04 0.0 
2.413249651500e-04 1.383731292787e-02 0.0 
0.0 0.0 0.0 
-4.772122634326e-05 3.419856513222e-04 0.0 
3.419856513222e-04 1.382319244327e-02 0.0 
0.0 0.0 0.0 
-5.971589025167e-05 4.224586281283e-04 0.0 
4.224586281283e-04 1.379774318816e-02 0.0 
0.0 0.0 0.0 
-5.501726554769e-05 5.238971401332e-04 0.0 
5.238971401332e-04 1.378709568652e-02 0.0 
0.0 0.0 0.0 
-6.209848790080e-05 6.318654661841e-04 0.0 
6.318654661841e-04 1.375693706322e-02 0.0 
0.0 0.0 0.0 
-6.589874873564e-05 7.477757765131e-04 0.0 
7.477757765131e-04 1.371034922909e-02 0.0 
0.0 0.0 0.0 
-6.879404966150e-05 8.618214540281e-04 0.0 
8.618214540281e-04 1.367200965911e-02 0.0 
0.0 0.0 0.0 
-6.478186369789e-05 1.000519544168e-03 0.0 
1.000519544168e-03 1.360733173031e-02 0.0 
0.0 0.0 0.0 
-8.518736914620e-05 1.127460133156e-03 0.0 
1.127460133156e-03 1.352693168061e-02 0.0 
0.0 0.0 0.0 
-7.953667819760e-05 1.278310448459e-03 0.0 
1.278310448459e-03 1.344267357500e-02 0.0 
0.0 0.0 0.0 
-8.710894300967e-05 1.436767594923e-03 0.0 
1.436767594923e-03 1.332812800367e-02 0.0 
0.0 0.0 0.0 
-8.415397045451e-05 1.593757493324e-03 0.0 
1.593757493324e-03 1.319026182976e-02 0.0 
0.0 0.0 0.0 
-9.484785989781e-05 1.752955816778e-03 0.0 
1.752955816778e-03 1.303158611537e-02 0.0 
0.0 0.0 0.0 
-9.060551873622e-05 1.911932573002e-03 0.0 
1.911932573002e-03 1.283679467690e-02 0.0 
0.0 0.0 0.0 
-9.713285511592e-05 2.070557687059e-03 0.0 
2.070557687059e-03 1.262289784940e-02 0.0 
0.0 0.0 0.0 
-9.311232635915e-05 2.235347101887e-03 0.0 
2.235347101887e-03 1.237748749658e-02 0.0 
0.0 0.0 0.0 
-7.971624204361e-05 2.380354475176e-03 0.0 
2.380354475176e-03 1.210911936501e-02 0.0 
0.0 0.0 0.0 
-6.221590907725e-05 2.511011278250e-03 0.0 
2.511011278250e-03 1.181542034352e-02 0.0 
0.0 0.0 0.0 
-4.348234462404e-05 2.617410585403e-03 0.0 
2.617410585403e-03 1.148594312242e-02 0.0 
0.0 0.0 0.0 
-3.844854126308e-05 2.695123760574e-03 0.0 
2.695123760574e-03 1.114024847128e-02 0.0 
0.0 0.0 0.0 
-1.649657839120e-05 2.744768097605e-03 0.0 
2.744768097605e-03 1.077715874554e-02 0.0 
0.0 0.0 0.0 
9.111135726621e-07 2.758773026257e-03 0.0 
2.758773026257e-03 1.040619331280e-02 0.0 
0.0 0.0 0.0 
1.659588596451e-05 2.741224830381e-03 0.0 
2.741224830381e-03 1.003948280740e-02 0.0 
0.0 0.0 0.0 
3.691641313079e-05 2.694083588841e-03 0.0 
2.694083588841e-03 9.679970823659e-03 0.0 
0.0 0.0 0.0 
4.948528819367e-05 2.608046746166e-03 0.0 
2.608046746166e-03 9.329663721000e-03 0.0 
0.0 0.0 0.0 
7.363110141038e-05 2.491777730037e-03 0.0 
2.491777730037e-03 8.998853254555e-03 0.0 
0.0 0.0 0.0 
8.099860118116e-05 2.345043778825e-03 0.0 
2.345043778825e-03 8.686743926874e-03 0.0 
0.0 0.0 0.0 
7.840031695242e-05 2.181467593445e-03 0.0 
2.181467593445e-03 8.434554989436e-03 0.0 
0.0 0.0 0.0 
9.923953682896e-05 2.005321084655e-03 0.0 
2.005321084655e-03 8.166962277295e-03 0.0 
0.0 0.0 0.0 
1.158108687003e-04 1.807636616575e-03 0.0 
1.807636616575e-03 7.919765445029e-03 0.0 
0.0 0.0 0.0 
1.155136983618e-04 1.586440015212e-03 0.0 
1.586440015212e-03 7.727597339735e-03 0.0 
0.0 0.0 0.0 
1.122606693375e-04 1.381316179960e-03 0.0 
1.381316179960e-03 7.601349332680e-03 0.0 
0.0 0.0 0.0 
1.121104542020e-04 1.182687669608e-03 0.0 
1.182687669608e-03 7.491299693475e-03 0.0 
0.0 0.0 0.0 
9.129937796715e-05 9.873361981403e-04 0.0 
9.873361981403e-04 7.417206930461e-03 0.0 
0.0 0.0 0.0 
9.923399446684e-05 8.145638339873e-04 0.0 
8.145638339873e-04 7.375525615879e-03 0.0 
0.0 0.0 0.0 
7.886601588540e-05 6.499816723802e-04 0.0 
6.499816723802e-04 7.341799389075e-03 0.0 
0.0 0.0 0.0 
8.282802608865e-05 5.085310777350e-04 0.0 
5.085310777350e-04 7.330535171286e-03 0.0 
0.0 0.0 0.0 
6.319484703710e-05 3.833833237536e-04 0.0 
3.833833237536e-04 7.333829807551e-03 0.0 
0.0 0.0 0.0 
4.860524890697e-05 2.818206302296e-04 0.0 
2.818206302296e-04 7.369443645260e-03 0.0 
0.0 0.0 0.0 
4.062522887834e-05 2.023595613572e-04 0.0 
2.023595613572e-04 7.428549149946e-03 0.0 
0.0 0.0 0.0 
3.595709689782e-05 1.362117138214e-04 0.0 
1.362117138214e-04 7.468609049564e-03 0.0 
0.0 0.0 0.0 
2.979467392805e-05 8.087690531808e-05 0.0 
8.087690531808e-05 7.442789615370e-03 0.0 
0.0 0.0 0.0 
2.033913328892e-05 4.573306235334e-05 0.0 
4.573306235334e-05 7.532979348771e-03 0.0 
0.0 0.0 0.0 
8.652985763395e-06 2.229069398833e-05 0.0 
2.229069398833e-05 7.542022413251e-03 0.0 
0.0 0.0 0.0 
4.725592148332e-06 3.377225170449e-06 0.0 
3.377225170449e-06 7.576460483083e-03 0.0 
0.0 0.0 0.0 
3.248521803778e-06 4.670370080602e-06 0.0 
4.670370080602e-06 7.611855714811e-03 0.0 
0.0 0.0 0.0 
6.186523330657e-08 -2.800781891974e-07 0.0 
-2.800781891974e-07 7.621449225018e-03 0.0 
0.0 0.0 0.0 
-8.247830551726e-04 -1.076561050792e-05 0.0 
-1.076561050792e-05 1.075853371346e-02 0.0 
0.0 0.0 0.0 
-8.048233837435e-04 -9.257254454090e-06 0.0 
-9.257254454090e-06 1.117203460338e-02 0.0 
0.0 0.0 0.0 
-7.648700476766e-04 -6.082894620717e-06 0.0 
-6.082894620717e-06 1.156783644277e-02 0.0 
0.0 0.0 0.0 
-7.090333989199e-04 -3.048853518723e-06 0.0 
-3.048853518723e-06 1.194391467558e-02 0.0 
0.0 0.0 0.0 
-6.359175205005e-04 1.963723125187e-06 0.0 
1.963723125187e-06 1.231436926052e-02 0.0 
0.0 0.0 0.0 
-5.431679415539e-04 5.144168516040e-06 0.0 
5.144168516040e-06 1.267128410296e-02 0.0 
0.0 0.0 0.0 
-4.363332286354e-04 8.929638331735e-06 0.0 
8.929638331735e-06 1.301245222657e-02 0.0 
0.0 0.0 0.0 
-3.071225194461e-04 1.283682794746e-05 0.0 
1.283682794746e-05 1.333964220427e-02 0.0 
0.0 0.0 0.0 
-1.754393075321e-04 1.356951803327e-05 0.0 
1.356951803327e-05 1.366101490966e-02 0.0 
0.0 0.0 0.0 
-1.840112191006e-03 2.477125510237e-03 0.0 
2.477125510237e-03 -2.239218460854e-03 0.0 
0.0 0.0 0.0 
-1.359253368208e-03 4.025920931450e-04 0.0 
4.025920931450e-04 1.034263356704e-02 0.0 
0.0 0.0 0.0 
-1.739441050926e-03 2.855856897844e-03 0.0 
2.855856897844e-03 7.280887152056e-04 0.0 
0.0 0.0 0.0 
-1.650824214664e-03 2.720084083281e-03 0.0 
2.720084083281e-03 2.189856510635e-03 0.0 
0.0 0.0 0.0 
-1.698816906336e-03 2.580325867085e-03 0.0 
2.580325867085e-03 3.733543793118e-03 0.0 
0.0 0.0 0.0 
-1.616505262215e-03 2.300294704080e-03 0.0 
2.300294704080e-03 5.171319406819e-03 0.0 
0.0 0.0 0.0 
-1.512001756246e-03 2.063462403783e-03 0.0 
2.063462403783e-03 6.584288273216e-03 0.0 
0.0 0.0 0.0 
-1.644588823364e-03 1.428233792519e-03 0.0 
1.428233792519e-03 8.256857739049e-03 0.0 
0.0 0.0 0.0 
-1.334023401795e-03 7.763211078129e-04 0.0 
7.763211078129e-04 8.951734796871e-03 0.0 
0.0 0.0 0.0 
-1.330069331314e-03 5.857649062659e-04 0.0 
5.857649062659e-04 9.405470474313e-03 0.0 
0.0 0.0 0.0 
-1.351852105430e-03 4.688013075681e-04 0.0 
4.688013075681e-04 9.865403252162e-03 0.0 
0.0 0.0 0.0 
-8.618171324482e-04 -2.907381261012e-05 0.0 
-2.907381261012e-05 8.776564481902e-03 0.0 
0.0 0.0 0.0 
-8.426939890944e-04 -2.739174088079e-05 0.0 
-2.739174088079e-05 9.033681501223e-03 0.0 
0.0 0.0 0.0 
-8.367731220616e-04 -3.586123782523e-05 0.0 
-3.586123782523e-05 9.460952691078e-03 0.0 
0.0 0.0 0.0 
-8.390274826391e-04 -2.507666618152e-05 0.0 
-2.507666618152e-05 9.890512471142e-03 0.0 
0.0 0.0 0.0 
-8.409822924274e-04 6.411234897503e-06 0.0 
6.411234897503e-06 1.027896379701e-02 0.0 
0.0 0.0 0.0 
-8.450849797272e-04 -2.289322324908e-06 0.0 
-2.289322324908e-06 1.030819151247e-02 0.0 
0.0 0.0 0.0 
-8.563970520326e-04 -2.466789832679e-06 0.0 
-2.466789832679e-06 1.031423711944e-02 0.0 
0.0 0.0 0.0 
-8.692580925824e-04 -3.989794832612e-06 0.0 
-3.989794832612e-06 1.031275858499e-02 0.0 
0.0 0.0 0.0 
-8.838275153683e-04 3.823550044340e-06 0.0 
3.823550044340e-06 1.037480336439e-02 0.0 
0.0 0.0 0.0 
-9.046494500968e-04 1.836776925376e-06 0.0 
1.836776925376e-06 1.033136900606e-02 0.0 
0.0 0.0 0.0 
-9.289064779327e-04 4.343272990463e-06 0.0 
4.343272990463e-06 1.033233767829e-02 0.0 
0.0 0.0 0.0 
-9.554758176781e-04 1.431784544730e-05 0.0 
1.431784544730e-05 1.034228196865e-02 0.0 
0.0 0.0 0.0 
-9.967573865840e-04 2.725752690813e-05 0.0 
2.725752690813e-05 1.036004775781e-02 0.0 
0.0 0.0 0.0 
-1.038895290163e-03 4.850128949688e-05 0.0 
4.850128949688e-05 1.036258811350e-02 0.0 
0.0 0.0 0.0 
-1.082863554033e-03 7.890607226892e-05 0.0 
7.890607226892e-05 1.036234523089e-02 0.0 
0.0 0.0 0.0 
-1.136854196508e-03 1.218479860298e-04 0.0 
1.218479860298e-04 1.036058771722e-02 0.0 
0.0 0.0 0.0 
-1.195671474157e-03 1.871433718538e-04 0.0 
1.871433718538e-04 1.035383303908e-02 0.0 
0.0 0.0 0.0 
-1.262766917051e-03 2.768171611847e-04 0.0 
2.768171611847e-04 1.034734446756e-02 0.0 
0.0 0.0 0.0 
-2.528055630701e-03 1.191099113327e-03 0.0 
1.191099113327e-03 -3.346293671922e-03 0.0 
0.0 0.0 0.0 
-3.250653936688e-03 2.078758819247e-04 0.0 
2.078758819247e-04 -3.418329258627e-03 0.0 
0.0 0.0 0.0 
-3.513348608967e-03 -2.372172087239e-04 0.0 
-2.372172087239e-04 -3.319815998973e-03 0.0 
0.0 0.0 0.0 
-3.045980182902e-03 -9.006170413487e-04 0.0 
-9.006170413487e-04 -3.112402539569e-03 0.0 
0.0 0.0 0.0 
-2.075523051201e-03 -1.707218241862e-03 0.0 
-1.707218241862e-03 -1.588697614024e-03 0.0 
0.0 0.0 0.0 
-1.298398873660e-03 -1.167613990126e-03 0.0 
-1.167613990126e-03 2.905379904365e-05 0.0 
0.0 0.0 0.0 
-5.843753714381e-04 -3.480047749835e-04 0.0 
-3.480047749835e-04 2.354752756601e-04 0.0 
0.0 0.0 0.0 
-6.738180710449e-05 -1.046494430835e-04 0.0 
-1.046494430835e-04 1.270835847307e-04 0.0 
0.0 0.0 0.0 
2.349811843422e-04 -6.411270875492e-05 0.0 
-6.411270875492e-05 3.418962198502e-05 0.0 
0.0 0.0 0.0 
3.160057929077e-04 -5.961620180014e-05 0.0 
-5.961620180014e-05 -7.776138298906e-06 0.0 
0.0 0.0 0.0 
3.828916978384e-04 -4.250937825501e-05 0.0 
-4.250937825501e-05 -2.989760297767e-05 0.0 
0.0 0.0 0.0 
4.656039073552e-04 -3.862957895159e-05 0.0 
-3.862957895159e-05 -6.295612607043e-05 0.0 
0.0 0.0 0.0 
5.405623303130e-04 -1.726616551409e-05 0.0 
-1.726616551409e-05 -1.046201041356e-04 0.0 
0.0 0.0 0.0 
6.067841212329e-04 -2.473679507893e-05 0.0 
-2.473679507893e-05 -1.374465210393e-04 0.0 
0.0 0.0 0.0 
6.124817295922e-04 -2.403995698070e-05 0.0 
-2.403995698070e-05 -1.426760994907e-04 0.0 
0.0 0.0 0.0 
6.215048078817e-04 -1.623581571104e-05 0.0 
-1.623581571104e-05 -1.455599235870e-04 0.0 
0.0 0.0 0.0 
6.350216019958e-04 -8.970454971890e-06 0.0 
-8.970454971890e-06 -1.521664271682e-04 0.0 
0.0 0.0 0.0 
6.665082157567e-04 1.865206859221e-06 0.0 
1.865206859221e-06 -1.748334738741e-04 0.0 
0.0 0.0 0.0 
6.991183754922e-04 1.853069882695e-05 0.0 
1.853069882695e-05 -1.945102182967e-04 0.0 
0.0 0.0 0.0 
-8.488274104822e-04 1.695333368802e-05 0.0 
1.695333368802e-05 8.821437442544e-03 0.0 
0.0 0.0 0.0 
-8.121674923408e-04 -2.039429951725e-06 0.0 
-2.039429951725e-06 8.812560440252e-03 0.0 
0.0 0.0 0.0 
-8.080852798998e-04 -1.456202166228e-05 0.0 
-1.456202166228e-05 8.807460740590e-03 0.0 
0.0 0.0 0.0 
-8.013665163215e-04 -2.209048735907e-05 0.0 
-2.209048735907e-05 8.804050198954e-03 0.0 
0.0 0.0 0.0 
-7.904343010971e-04 -2.849688056758e-05 0.0 
-2.849688056758e-05 8.799470084683e-03 0.0 
0.0 0.0 0.0 
-7.756430133896e-04 -3.435589832716e-05 0.0 
-3.435589832716e-05 8.793334880382e-03 0.0 
0.0 0.0 0.0 
-7.570999171043e-04 -3.990374973048e-05 0.0 
-3.990374973048e-05 8.785254733025e-03 0.0 
0.0 0.0 0.0 
-7.348330559444e-04 -4.495389714517e-05 0.0 
-4.495389714517e-05 8.774882087622e-03 0.0 
0.0 0.0 0.0 
-7.087242691245e-04 -4.902976974507e-05 0.0 
-4.902976974507e-05 8.762435203937e-03 0.0 
0.0 0.0 0.0 
-6.792879107340e-04 -5.178311102737e-05 0.0 
-5.178311102737e-05 8.748222908327e-03 0.0 
0.0 0.0 0.0 
-6.471173564527e-04 -5.295981222272e-05 0.0 
-5.295981222272e-05 8.732348997406e-03 0.0 
0.0 0.0 0.0 
-6.132238625621e-04 -5.186642235615e-05 0.0 
-5.186642235615e-05 8.714774954975e-03 0.0 
0.0 0.0 0.0 
-5.793823067377e-04 -4.754805040551e-05 0.0 
-4.754805040551e-05 8.695625692593e-03 0.0 
0.0 0.0 0.0 
-5.478406927065e-04 -3.700901148213e-05 0.0 
-3.700901148213e-05 8.677655189893e-03 0.0 
0.0 0.0 0.0 
-5.254281017383e-04 -2.004895632106e-05 0.0 
-2.004895632106e-05 8.661391508442e-03 0.0 
0.0 0.0 0.0 
-5.183665472012e-04 1.187296526025e-05 0.0 
1.187296526025e-05 8.651303904261e-03 0.0 
0.0 0.0 0.0 
-5.468243651386e-04 6.015695002718e-05 0.0 
6.015695002718e-05 8.642842474907e-03 0.0 
0.0 0.0 0.0 
-6.131746999775e-04 1.643053316953e-04 0.0 
1.643053316953e-04 8.646568285127e-03 0.0 
0.0 0.0 0.0 
-8.112323732244e-04 3.203441459120e-04 0.0 
3.203441459120e-04 8.665605476462e-03 0.0 
0.0 0.0 0.0 
-1.210754388909e-03 5.104382906748e-04 0.0 
5.104382906748e-04 8.730705733515e-03 0.0 
0.0 0.0 0.0 
-1.024403895408e-03 3.868315548394e-04 0.0 
3.868315548394e-04 8.910444979443e-03 0.0 
0.0 0.0 0.0 
-9.324628600161e-04 2.568028704574e-04 0.0 
2.568028704574e-04 8.965250290745e-03 0.0 
0.0 0.0 0.0 
-8.148905819454e-04 1.202148009130e-04 0.0 
1.202148009130e-04 8.945006540498e-03 0.0 
0.0 0.0 0.0 
-7.659141986343e-04 4.734587108132e-05 0.0 
4.734587108132e-05 8.946027803158e-03 0.0 
0.0 0.0 0.0 
-7.380403210399e-04 4.618343506776e-06 0.0 
4.618343506776e-06 8.951170341414e-03 0.0 
0.0 0.0 0.0 
-7.294105118906e-04 -2.288026661454e-05 0.0 
-2.288026661454e-05 8.957891972239e-03 0.0 
0.0 0.0 0.0 
-7.311660209838e-04 -3.831160375651e-05 0.0 
-3.831160375651e-05 8.968246337327e-03 0.0 
0.0 0.0 0.0 
-7.388271555315e-04 -4.639516660634e-05 0.0 
-4.639516660634e-05 8.978234414344e-03 0.0 
0.0 0.0 0.0 
-7.496939561255e-04 -4.986592896369e-05 0.0 
-4.986592896369e-05 8.987619429176e-03 0.0 
0.0 0.0 0.0 
-7.617843237295e-04 -5.027892792918e-05 0.0 
-5.027892792918e-05 8.996280472693e-03 0.0 
0.0 0.0 0.0 
-7.742969753750e-04 -4.850125034961e-05 0.0 
-4.850125034961e-05 9.004512719251e-03 0.0 
0.0 0.0 0.0 
-7.861348671111e-04 -4.461569204400e-05 0.0 
-4.461569204400e-05 9.011679564828e-03 0.0 
0.0 0.0 0.0 
-7.961168811013e-04 -3.962006584931e-05 0.0 
-3.962006584931e-05 9.017096300148e-03 0.0 
0.0 0.0 0.0 
-8.047792706807e-04 -3.404857297413e-05 0.0 
-3.404857297413e-05 9.021250683675e-03 0.0 
0.0 0.0 0.0 
-8.117832749567e-04 -2.794305154318e-05 0.0 
-2.794305154318e-05 9.024564380408e-03 0.0 
0.0 0.0 0.0 
-8.175561835356e-04 -2.115254099657e-05 0.0 
-2.115254099657e-05 9.027462954132e-03 0.0 
0.0 0.0 0.0 
-8.222039558919e-04 -1.384636318370e-05 0.0 
-1.384636318370e-05 9.030356820117e-03 0.0 
0.0 0.0 0.0 
-8.280367221845e-04 -7.135285614877e-06 0.0 
-7.135285614877e-06 9.034137446456e-03 0.0 
0.0 0.0 0.0 
-8.402217948088e-04 1.564996313165e-05 0.0 
1.564996313165e-05 9.034995391674e-03 0.0 
0.0 0.0 0.0 
-8.397519374324e-04 1.796844234716e-06 0.0 
1.796844234716e-06 9.465841789514e-03 0.0 
0.0 0.0 0.0 
-8.384997329517e-04 -1.477753677820e-05 0.0 
-1.477753677820e-05 9.467660175635e-03 0.0 
0.0 0.0 0.0 
-8.376858717059e-04 -2.278689821381e-05 0.0 
-2.278689821381e-05 9.466530032682e-03 0.0 
0.0 0.0 0.0 
-8.382592677106e-04 -2.998025977773e-05 0.0 
-2.998025977773e-05 9.465883675430e-03 0.0 
0.0 0.0 0.0 
-8.395196561849e-04 -3.677603472322e-05 0.0 
-3.677603472322e-05 9.465596237628e-03 0.0 
0.0 0.0 0.0 
-8.425959170799e-04 -4.362142753369e-05 0.0 
-4.362142753369e-05 9.466099961681e-03 0.0 
0.0 0.0 0.0 
-8.463721828079e-04 -4.920046138621e-05 0.0 
-4.920046138621e-05 9.466455859840e-03 0.0 
0.0 0.0 0.0 
-8.519801561308e-04 -5.449780430017e-05 0.0 
-5.449780430017e-05 9.466343073365e-03 0.0 
0.0 0.0 0.0 
-8.582658200439e-04 -5.631797819366e-05 0.0 
-5.631797819366e-05 9.464442462628e-03 0.0 
0.0 0.0 0.0 
-8.684871698989e-04 -5.391961055552e-05 0.0 
-5.391961055552e-05 9.463927061123e-03 0.0 
0.0 0.0 0.0 
-8.828708726468e-04 -4.701482971082e-05 0.0 
-4.701482971082e-05 9.463531440388e-03 0.0 
0.0 0.0 0.0 
-9.027333495898e-04 -3.236762081901e-05 0.0 
-3.236762081901e-05 9.462428843520e-03 0.0 
0.0 0.0 0.0 
-9.313164914977e-04 -6.999485864783e-06 0.0 
-6.999485864783e-06 9.461642122954e-03 0.0 
0.0 0.0 0.0 
-9.702900505703e-04 3.479873057165e-05 0.0 
3.479873057165e-05 9.457387773089e-03 0.0 
0.0 0.0 0.0 
-1.020102235548e-03 1.056640296870e-04 0.0 
1.056640296870e-04 9.455308708533e-03 0.0 
0.0 0.0 0.0 
-1.110392644386e-03 2.262665544541e-04 0.0 
2.262665544541e-04 9.468043965175e-03 0.0 
0.0 0.0 0.0 
-1.169668141760e-03 3.379986804537e-04 0.0 
3.379986804537e-04 9.393517026233e-03 0.0 
0.0 0.0 0.0 
-1.239168928671e-03 2.935919569745e-04 0.0 
2.935919569745e-04 9.850561224534e-03 0.0 
0.0 0.0 0.0 
-1.195178302288e-03 2.079942217034e-04 0.0 
2.079942217034e-04 9.934028195043e-03 0.0 
0.0 0.0 0.0 
-1.122799662497e-03 1.155683712763e-04 0.0 
1.155683712763e-04 9.931076435780e-03 0.0 
0.0 0.0 0.0 
-1.065999461096e-03 6.093731412723e-05 0.0 
6.093731412723e-05 9.931717434703e-03 0.0 
0.0 0.0 0.0 
-1.021163565824e-03 2.331975013471e-05 0.0 
2.331975013471e-05 9.931643481682e-03 0.0 
0.0 0.0 0.0 
-9.837008359232e-04 -1.882816253128e-08 0.0 
-1.882816253128e-08 9.929227742025e-03 0.0 
0.0 0.0 0.0 
-9.531186304402e-04 -1.454318780087e-05 0.0 
-1.454318780087e-05 9.924638768984e-03 0.0 
0.0 0.0 0.0 
-9.277485141074e-04 -2.373459891856e-05 0.0 
-2.373459891856e-05 9.921348519386e-03 0.0 
0.0 0.0 0.0 
-9.047731951052e-04 -2.535227115147e-05 0.0 
-2.535227115147e-05 9.917817779158e-03 0.0 
0.0 0.0 0.0 
-8.883657036640e-04 -2.678816992642e-05 0.0 
-2.678816992642e-05 9.912482999657e-03 0.0 
0.0 0.0 0.0 
-8.736941204049e-04 -2.426264197323e-05 0.0 
-2.426264197323e-05 9.908567067064e-03 0.0 
0.0 0.0 0.0 
-8.628462209087e-04 -2.278157266695e-05 0.0 
-2.278157266695e-05 9.904585652783e-03 0.0 
0.0 0.0 0.0 
-8.552341481156e-04 -1.851624473658e-05 0.0 
-1.851624473658e-05 9.903114396294e-03 0.0 
0.0 0.0 0.0 
-8.485070834561e-04 -1.544099072058e-05 0.0 
-1.544099072058e-05 9.899724071341e-03 0.0 
0.0 0.0 0.0 
-8.445505859591e-04 -1.557358372093e-05 0.0 
-1.557358372093e-05 9.899794746725e-03 0.0 
0.0 0.0 0.0 
-8.445105937154e-04 1.173134390168e-05 0.0 
1.173134390168e-05 9.899735005239e-03 0.0 
0.0 0.0 0.0 
-1.729181527746e-03 3.181920970079e-03 0.0 
3.181920970079e-03 -4.132943877609e-04 0.0 
0.0 0.0 0.0 
-1.659325206336e-03 2.782718222700e-03 0.0 
2.782718222700e-03 1.436452781335e-03 0.0 
0.0 0.0 0.0 
-1.667671098961e-03 2.653682541387e-03 0.0 
2.653682541387e-03 2.968087466856e-03 0.0 
0.0 0.0 0.0 
-1.701315410981e-03 2.471451439959e-03 0.0 
2.471451439959e-03 4.481143220951e-03 0.0 
0.0 0.0 0.0 
-1.562319212117e-03 2.247362447749e-03 0.0 
2.247362447749e-03 5.858012188520e-03 0.0 
0.0 0.0 0.0 
-1.615184389358e-03 2.002103781831e-03 0.0 
2.002103781831e-03 7.365146295396e-03 0.0 
0.0 0.0 0.0 
-1.519789358831e-03 9.706716818141e-04 0.0 
9.706716818141e-04 8.798600891535e-03 0.0 
0.0 0.0 0.0 
-1.355064553806e-03 7.079235144652e-04 0.0 
7.079235144652e-04 9.235627483981e-03 0.0 
0.0 0.0 0.0 
-1.368309741598e-03 5.464900378569e-04 0.0 
5.464900378569e-04 9.686765721397e-03 0.0 
0.0 0.0 0.0 
-1.363549979692e-03 4.483827003528e-04 0.0 
4.483827003528e-04 1.013801751415e-02 0.0 
0.0 0.0 0.0 
-1.358018164500e-03 2.936259334422e-03 0.0 
2.936259334422e-03 1.553470560513e-03 0.0 
0.0 0.0 0.0 
3.376273446009e-04 1.441766794470e-03 0.0 
1.441766794470e-03 7.364887150050e-03 0.0 
0.0 0.0 0.0 
-8.581400365019e-05 -2.149948673870e-04 0.0 
-2.149948673870e-04 2.609434012555e-04 0.0 
0.0 0.0 0.0 
-1.247612377946e-03 -1.700928666108e-03 0.0 
-1.700928666108e-03 -2.962374185423e-03 0.0 
0.0 0.0 0.0 
2.352004569300e-04 5.632870080573e-04 0.0 
5.632870080573e-04 7.078813169542e-03 0.0 
0.0 0.0 0.0 
-1.470009810204e-03 2.544678471099e-03 0.0 
2.544678471099e-03 4.740673692012e-03 0.0 
0.0 0.0 0.0 
-3.398635257712e-05 -7.949615043613e-05 0.0 
-7.949615043613e-05 3.968253385265e-03 0.0 
0.0 0.0 0.0 
2.824887624253e-04 2.209292528911e-03 0.0 
2.209292528911e-03 8.224490944014e-03 0.0 
0.0 0.0 0.0 
-1.539321571825e-03 2.031955394702e-03 0.0 
2.031955394702e-03 7.571805956417e-03 0.0 
0.0 0.0 0.0 
8.817890196148e-05 2.665281948086e-03 0.0 
2.665281948086e-03 9.636557283442e-03 0.0 
0.0 0.0 0.0 
-1.512298106798e-03 9.993933957885e-04 0.0 
9.993933957885e-04 9.413036454527e-03 0.0 
0.0 0.0 0.0 
1.092425303984e-04 1.553038472131e-04 0.0 
1.553038472131e-04 7.246891844553e-03 0.0 
0.0 0.0 0.0 
4.069645391250e-04 -5.684566549914e-05 0.0 
-5.684566549914e-05 6.910760495608e-05 0.0 
0.0 0.0 0.0 
-1.215788181897e-04 2.606196021984e-03 0.0 
2.606196021984e-03 1.117940298760e-02 0.0 
0.0 0.0 0.0 
-1.445614027536e-03 6.083833255439e-04 0.0 
6.083833255439e-04 1.042765097565e-02 0.0 
0.0 0.0 0.0 
-6.081086097470e-05 -7.476531090229e-05 0.0 
-7.476531090229e-05 2.503967202326e-03 0.0 
0.0 0.0 0.0 
2.708946777275e-05 -5.308040396774e-05 0.0 
-5.308040396774e-05 4.990622636705e-03 0.0 
0.0 0.0 0.0 
-2.452872084771e-04 2.258204476824e-03 0.0 
2.258204476824e-03 1.213771968141e-02 0.0 
0.0 0.0 0.0 
-2.576561703542e-04 1.630263198380e-03 0.0 
1.630263198380e-03 1.303115277241e-02 0.0 
0.0 0.0 0.0 
-1.642613299815e-04 4.633693570089e-04 0.0 
4.633693570089e-04 1.367364007122e-02 0.0 
0.0 0.0 0.0 
-2.189763002024e-04 7.870448385299e-04 0.0 
7.870448385299e-04 1.355669265559e-02 0.0 
0.0 0.0 0.0 
-2.333016101803e-04 1.177366215316e-03 0.0 
1.177366215316e-03 1.339201792035e-02 0.0 
0.0 0.0 0.0 
-1.289622910628e-03 3.456221355353e-04 0.0 
3.456221355353e-04 1.071648163683e-02 0.0 
0.0 0.0 0.0 
-1.052621431738e-03 1.103353666052e-04 0.0 
1.103353666052e-04 1.075432477197e-02 0.0 
0.0 0.0 0.0 
-9.338199281426e-04 5.049104972912e-05 0.0 
5.049104972912e-05 1.076231799770e-02 0.0 
0.0 0.0 0.0 
-6.744439613753e-04 2.734476227667e-05 0.0 
2.734476227667e-05 1.213482461644e-02 0.0 
0.0 0.0 0.0 
4.342283058819e-05 2.865049817103e-05 0.0 
2.865049817103e-05 7.342189848493e-03 0.0 
0.0 0.0 0.0 
-1.326305739955e-03 9.272616173815e-04 0.0 
9.272616173815e-04 -3.907993466188e-03 0.0 
0.0 0.0 0.0 
5.183216258324e-04 -2.738459873696e-05 0.0 
-2.738459873696e-05 3.530565868822e-05 0.0 
0.0 0.0 0.0 
3.299271340359e-05 -1.608170328372e-05 0.0 
-1.608170328372e-05 6.269789867273e-03 0.0 
0.0 0.0 0.0 
-8.590131315845e-04 1.909889446255e-05 0.0 
1.909889446255e-05 1.069022006795e-02 0.0 
0.0 0.0 0.0 
1.541465591366e-04 -4.701278825327e-05 0.0 
-4.701278825327e-05 1.230456682802e-03 0.0 
0.0 0.0 0.0 
-3.015959890458e-04 1.921254514972e-03 0.0 
1.921254514972e-03 1.262505958593e-02 0.0 
0.0 0.0 0.0 
1.805311107294e-04 2.508240790386e-03 0.0 
2.508240790386e-03 8.934695447388e-03 0.0 
0.0 0.0 0.0 
-2.419389011874e-05 2.701178924390e-03 0.0 
2.701178924390e-03 1.042591597774e-02 0.0 
0.0 0.0 0.0 
3.499039806589e-04 1.870180544023e-03 0.0 
1.870180544023e-03 7.712803183557e-03 0.0 
0.0 0.0 0.0 
2.921456695365e-04 1.051824881611e-03 0.0 
1.051824881611e-03 7.178349343131e-03 0.0 
0.0 0.0 0.0 
-1.110494095536e-03 -1.194753634294e-03 0.0 
-1.194753634294e-03 2.696235430194e-04 0.0 
0.0 0.0 0.0 
-1.158954871668e-03 1.920448425102e-04 0.0 
1.920448425102e-04 1.073813949684e-02 0.0 
0.0 0.0 0.0 
1.934693610596e-04 3.094185993644e-04 0.0 
3.094185993644e-04 7.042754046065e-03 0.0 
0.0 0.0 0.0 
-4.993268191551e-04 4.602524552425e-05 0.0 
4.602524552425e-05 1.283661379396e-02 0.0 
0.0 0.0 0.0 
1.991822879842e-04 -9.180724512916e-05 0.0 
-9.180724512916e-05 1.683580080479e-04 0.0 
0.0 0.0 0.0 
-7.205932207379e-05 -8.653464726157e-05 0.0 
-8.653464726157e-05 3.227712473572e-03 0.0 
0.0 0.0 0.0 
-1.295522770573e-04 2.866392811881e-04 0.0 
2.866392811881e-04 1.374645788225e-02 0.0 
0.0 0.0 0.0 
-1.369658939105e-03 2.367457853740e-03 0.0 
2.367457853740e-03 6.096195409221e-03 0.0 
0.0 0.0 0.0 
-1.460484692822e-03 2.779169906171e-03 0.0 
2.779169906171e-03 3.209856515082e-03 0.0 
0.0 0.0 0.0 
-1.532932010321e-03 1.439193037755e-03 0.0 
1.439193037755e-03 8.728531470568e-03 0.0 
0.0 0.0 0.0 
-1.487256280987e-03 7.516306299825e-04 0.0 
7.516306299825e-04 9.938534813381e-03 0.0 
0.0 0.0 0.0 
-1.400506217616e-03 3.166203516485e-03 0.0 
3.166203516485e-03 -2.164316713420e-04 0.0 
0.0 0.0 0.0 
-7.828509199130e-04 1.533082891404e-05 0.0 
1.533082891404e-05 1.140350030604e-02 0.0 
0.0 0.0 0.0 
1.035309737896e-05 9.923224065654e-07 0.0 
9.923224065654e-07 7.476988136235e-03 0.0 
0.0 0.0 0.0 
5.673871079293e-04 -2.790131188303e-06 0.0 
-2.790131188303e-06 -5.647171920290e-06 0.0 
0.0 0.0 0.0 
-2.434956703760e-04 7.179734790405e-05 0.0 
7.179734790405e-05 1.348183789451e-02 0.0 
0.0 0.0 0.0 
-1.428509247561e-03 5.740692259790e-04 0.0 
5.740692259790e-04 1.064656772139e-02 0.0 
0.0 0.0 0.0 
-1.459836853194e-03 7.697980354358e-04 0.0 
7.697980354358e-04 1.070881211979e-02 0.0 
0.0 0.0 0.0 
-1.407988128166e-03 6.918397793377e-04 0.0 
6.918397793377e-04 1.095073793973e-02 0.0 
0.0 0.0 0.0 
-1.426945446381e-03 9.304329223744e-04 0.0 
9.304329223744e-04 1.097811768376e-02 0.0 
0.0 0.0 0.0 
-1.379994014752e-03 8.686089660612e-04 0.0 
8.686089660612e-04 1.124930058211e-02 0.0 
0.0 0.0 0.0 
-1.361300550755e-03 1.080150387499e-03 0.0 
1.080150387499e-03 1.123947143028e-02 0.0 
0.0 0.0 0.0 
-1.402797286225e-03 1.164163131628e-03 0.0 
1.164163131628e-03 1.094220086891e-02 0.0 
0.0 0.0 0.0 
-1.308586054051e-03 1.301780470030e-03 0.0 
1.301780470030e-03 1.118008709479e-02 0.0 
0.0 0.0 0.0 
-1.332016557760e-03 1.401236434321e-03 0.0 
1.401236434321e-03 1.084134121732e-02 0.0 
0.0 0.0 0.0 
-1.305726476388e-03 1.019238676081e-03 0.0 
1.019238676081e-03 1.151811800855e-02 0.0 
0.0 0.0 0.0 
-1.217690469975e-03 1.519251377571e-03 0.0 
1.519251377571e-03 1.106672419322e-02 0.0 
0.0 0.0 0.0 
-1.218901983135e-03 1.628118219074e-03 0.0 
1.628118219074e-03 1.068265507665e-02 0.0 
0.0 0.0 0.0 
-1.091229794334e-03 1.724889467287e-03 0.0 
1.724889467287e-03 1.090268452989e-02 0.0 
0.0 0.0 0.0 
-1.067946437929e-03 1.835521906765e-03 0.0 
1.835521906765e-03 1.047322113114e-02 0.0 
0.0 0.0 0.0 
-1.189718120669e-03 1.761129133609e-03 0.0 
1.761129133609e-03 1.025776421771e-02 0.0 
0.0 0.0 0.0 
-1.008210520333e-03 1.964242721667e-03 0.0 
1.964242721667e-03 9.997557157984e-03 0.0 
0.0 0.0 0.0 
-1.126320113080e-03 1.915757244322e-03 0.0 
1.915757244322e-03 9.785774991046e-03 0.0 
0.0 0.0 0.0 
-9.100781352431e-04 2.107242481853e-03 0.0 
2.107242481853e-03 9.469620913100e-03 0.0 
0.0 0.0 0.0 
-7.985077168319e-04 2.127982278166e-03 0.0 
2.127982278166e-03 9.703213708739e-03 0.0 
0.0 0.0 0.0 
-6.690342960486e-04 2.248787281588e-03 0.0 
2.248787281588e-03 9.125693960664e-03 0.0 
0.0 0.0 0.0 
-7.696882481592e-04 2.256945731405e-03 0.0 
2.256945731405e-03 8.881917770339e-03 0.0 
0.0 0.0 0.0 
-4.987542984801e-04 2.369458481996e-03 0.0 
2.369458481996e-03 8.493455879145e-03 0.0 
0.0 0.0 0.0 
-5.894516432264e-04 2.403313404952e-03 0.0 
2.403313404952e-03 8.234403028191e-03 0.0 
0.0 0.0 0.0 
-2.932835002658e-04 2.477767926144e-03 0.0 
2.477767926144e-03 7.809022076131e-03 0.0 
0.0 0.0 0.0 
-3.752083835069e-04 2.533264997212e-03 0.0 
2.533264997212e-03 7.528108854678e-03 0.0 
0.0 0.0 0.0 
-5.840826499248e-05 2.565891529538e-03 0.0 
2.565891529538e-03 7.076603194836e-03 0.0 
0.0 0.0 0.0 
-1.127707562239e-06 2.496570014193e-03 0.0 
2.496570014193e-03 7.400512382340e-03 0.0 
0.0 0.0 0.0 
2.480674440487e-04 2.543890331490e-03 0.0 
2.543890331490e-03 6.652713647668e-03 0.0 
0.0 0.0 0.0 
2.003534445976e-04 2.628655504310e-03 0.0 
2.628655504310e-03 6.303102396564e-03 0.0 
0.0 0.0 0.0 
5.163250263936e-04 2.561623282481e-03 0.0 
2.561623282481e-03 5.872399692568e-03 0.0 
0.0 0.0 0.0 
4.745324476577e-04 2.658081901390e-03 0.0 
2.658081901390e-03 5.495429135265e-03 0.0 
0.0 0.0 0.0 
7.968249360764e-04 2.543342762938e-03 0.0 
2.543342762938e-03 5.064255940574e-03 0.0 
0.0 0.0 0.0 
8.039832000680e-04 2.446860353387e-03 0.0 
2.446860353387e-03 5.490738273065e-03 0.0 
0.0 0.0 0.0 
1.082119012640e-03 2.379995001181e-03 0.0 
2.379995001181e-03 4.696503138673e-03 0.0 
0.0 0.0 0.0 
1.083269839420e-03 2.482419153982e-03 0.0 
2.482419153982e-03 4.232250815597e-03 0.0 
0.0 0.0 0.0 
1.361639992432e-03 2.267698749468e-03 0.0 
2.267698749468e-03 3.890938597318e-03 0.0 
0.0 0.0 0.0 
1.369960464460e-03 2.374553856092e-03 0.0 
2.374553856092e-03 3.385789648667e-03 0.0 
0.0 0.0 0.0 
1.637123211020e-03 2.104545971179e-03 0.0 
2.104545971179e-03 3.082517815404e-03 0.0 
0.0 0.0 0.0 
1.656402559621e-03 2.213939608239e-03 0.0 
2.213939608239e-03 2.529343258375e-03 0.0 
0.0 0.0 0.0 
1.902165067793e-03 1.879561463956e-03 0.0 
1.879561463956e-03 2.275505233075e-03 0.0 
0.0 0.0 0.0 
1.834084639847e-03 1.804031890113e-03 0.0 
1.804031890113e-03 2.877811669727e-03 0.0 
0.0 0.0 0.0 
2.062657170890e-03 1.526486926450e-03 0.0 
1.526486926450e-03 2.137539359773e-03 0.0 
0.0 0.0 0.0 
2.145395672668e-03 1.583187256739e-03 0.0 
1.583187256739e-03 1.485140931824e-03 0.0 
0.0 0.0 0.0 
2.254618592477e-03 1.180074487856e-03 0.0 
1.180074487856e-03 1.436535336737e-03 0.0 
0.0 0.0 0.0 
2.140495223515e-03 1.180353759124e-03 0.0 
1.180353759124e-03 2.113911935957e-03 0.0 
0.0 0.0 0.0 
2.272226485662e-03 8.069270839291e-04 0.0 
8.069270839291e-04 1.511800699682e-03 0.0 
0.0 0.0 0.0 
2.141479400417e-03 8.631827363397e-04 0.0 
8.631827363397e-04 2.193358066363e-03 0.0 
0.0 0.0 0.0 
2.212788359759e-03 4.840524265714e-04 0.0 
4.840524265714e-04 1.690202884339e-03 0.0 
0.0 0.0 0.0 
2.335206234616e-03 3.805096609911e-04 0.0 
3.805096609911e-04 9.989848131670e-04 0.0 
0.0 0.0 0.0 
2.210202579017e-03 7.167113928156e-05 0.0 
7.167113928156e-05 1.284164857488e-03 0.0 
0.0 0.0 0.0 
2.094888556413e-03 2.217995605394e-04 0.0 
2.217995605394e-04 1.945378361232e-03 0.0 
0.0 0.0 0.0 
2.038424268332e-03 -1.595910180072e-04 0.0 
-1.595910180072e-04 1.628489795244e-03 0.0 
0.0 0.0 0.0 
2.121269205308e-03 -3.564269923360e-04 0.0 
-3.564269923360e-04 9.918309013492e-04 0.0 
0.0 0.0 0.0 
1.903834845844e-03 -5.330995694695e-04 0.0 
-5.330995694695e-04 1.419883638534e-03 0.0 
0.0 0.0 0.0 
1.841277192499e-03 -3.160953932704e-04 0.0 
-3.160953932704e-04 2.008479377916e-03 0.0 
0.0 0.0 0.0 
1.678951788304e-03 -6.319652722150e-04 0.0 
-6.319652722150e-04 1.856726634044e-03 0.0 
0.0 0.0 0.0 
1.693806678628e-03 -8.745954068004e-04 0.0 
-8.745954068004e-04 1.318855535240e-03 0.0 
0.0 0.0 0.0 
1.457834195135e-03 -9.048487099797e-04 0.0 
-9.048487099797e-04 1.793822182628e-03 0.0 
0.0 0.0 0.0 
1.460416576297e-03 -6.685789639898e-04 0.0 
-6.685789639898e-04 2.288709826232e-03 0.0 
0.0 0.0 0.0 
1.242006682189e-03 -8.824003724338e-04 0.0 
-8.824003724338e-04 2.240472532060e-03 0.0 
0.0 0.0 0.0 
1.191189311395e-03 -1.115146867396e-03 0.0 
-1.115146867396e-03 1.804206880255e-03 0.0 
0.0 0.0 0.0 
9.941786807132e-04 -1.035122258837e-03 0.0 
-1.035122258837e-03 2.245771975008e-03 0.0 
0.0 0.0 0.0 
1.049239550653e-03 -8.248918604432e-04 0.0 
-8.248918604432e-04 2.657947699236e-03 0.0 
0.0 0.0 0.0 
8.253347893461e-04 -9.335811455499e-04 0.0 
-9.335811455499e-04 2.647733621471e-03 0.0 
0.0 0.0 0.0 
8.778266593929e-04 -7.462281992997e-04 0.0 
-7.462281992997e-04 3.046091309738e-03 0.0 
0.0 0.0 0.0 
7.346068495808e-04 -1.119105483549e-03 0.0 
-1.119105483549e-03 2.281826593228e-03 0.0 
0.0 0.0 0.0 
6.008465177696e-04 -9.828542929930e-04 0.0 
-9.828542929930e-04 2.655276531861e-03 0.0 
0.0 0.0 0.0 
4.841474172958e-04 -1.132060753096e-03 0.0 
-1.132060753096e-03 2.328204182722e-03 0.0 
0.0 0.0 0.0 
3.911384332176e-04 -9.738987700025e-04 0.0 
-9.738987700025e-04 2.663971869985e-03 0.0 
0.0 0.0 0.0 
1.052742137275e-03 2.293842019565e-03 0.0 
2.293842019565e-03 5.170150542141e-03 0.0 
0.0 0.0 0.0 
2.649589419414e-04 -1.077817040030e-03 0.0 
-1.077817040030e-03 2.362729532000e-03 0.0 
0.0 0.0 0.0 
3.323735092670e-04 -1.257263707183e-03 0.0 
-1.257263707183e-03 2.040257793953e-03 0.0 
0.0 0.0 0.0 
2.119489379340e-04 -9.138723571655e-04 0.0 
-9.138723571655e-04 2.656010366490e-03 0.0 
0.0 0.0 0.0 
3.132671498607e-04 -8.255786486852e-04 0.0 
-8.255786486852e-04 2.971561653855e-03 0.0 
0.0 0.0 0.0 
9.217498582340e-05 -9.710367832548e-04 0.0 
-9.710367832548e-04 2.364501572469e-03 0.0 
0.0 0.0 0.0 
7.287481885291e-05 -8.154170870534e-04 0.0 
-8.154170870534e-04 2.618511918900e-03 0.0 
0.0 0.0 0.0 
-2.641074617293e-05 -8.302545825494e-04 0.0 
-8.302545825494e-04 2.323678823935e-03 0.0 
0.0 0.0 0.0 
1.334779324892e-03 2.505590974180e-03 0.0 
2.505590974180e-03 2.886561878216e-03 0.0 
0.0 0.0 0.0 
-5.729964331500e-04 2.248886787826e-03 0.0 
2.248886787826e-03 9.389565729368e-03 0.0 
0.0 0.0 0.0 
-2.138779345906e-05 -6.914953118292e-04 0.0 
-6.914953118292e-04 2.544014037442e-03 0.0 
0.0 0.0 0.0 
-8.903864836723e-05 -6.729867012232e-04 0.0 
-6.729867012232e-04 2.233257082604e-03 0.0 
0.0 0.0 0.0 
-1.200887825164e-04 -8.001705379691e-04 0.0 
-8.001705379691e-04 2.035584977730e-03 0.0 
0.0 0.0 0.0 
-1.348118459273e-04 -6.137787991229e-04 0.0 
-6.137787991229e-04 1.915719955731e-03 0.0 
0.0 0.0 0.0 
-1.318193690889e-03 8.259723085061e-04 0.0 
8.259723085061e-04 1.149638295590e-02 0.0 
0.0 0.0 0.0 
-1.228242448562e-03 9.714372896057e-04 0.0 
9.714372896057e-04 1.178224747383e-02 0.0 
0.0 0.0 0.0 
-1.239975932224e-03 7.820064283605e-04 0.0 
7.820064283605e-04 1.173465963274e-02 0.0 
0.0 0.0 0.0 
-1.142114023476e-03 9.326962111559e-04 0.0 
9.326962111559e-04 1.203344591955e-02 0.0 
0.0 0.0 0.0 
-1.153975888840e-03 7.572123840428e-04 0.0 
7.572123840428e-04 1.197305848985e-02 0.0 
0.0 0.0 0.0 
-1.003067252350e-04 -5.178425692065e-04 0.0 
-5.178425692065e-04 2.093162365826e-03 0.0 
0.0 0.0 0.0 
-1.080089413855e-03 1.634675315353e-03 0.0 
1.634675315353e-03 1.129373634208e-02 0.0 
0.0 0.0 0.0 
-1.108733066587e-03 1.117847760142e-03 0.0 
1.117847760142e-03 1.205493107183e-02 0.0 
0.0 0.0 0.0 
-8.768661207973e-04 2.264155455440e-03 0.0 
2.264155455440e-03 8.663654149760e-03 0.0 
0.0 0.0 0.0 
1.287514275538e-04 2.714801366714e-03 0.0 
2.714801366714e-03 5.974615308256e-03 0.0 
0.0 0.0 0.0 
2.010372541711e-03 1.198107478294e-03 0.0 
1.198107478294e-03 2.772026156283e-03 0.0 
0.0 0.0 0.0 
5.309475437761e-05 -6.747899793517e-04 0.0 
-6.747899793517e-04 2.858253215645e-03 0.0 
0.0 0.0 0.0 
-2.287787369915e-05 -5.663708214110e-04 0.0 
-5.663708214110e-04 2.757293868323e-03 0.0 
0.0 0.0 0.0 
3.279211814243e-05 -5.479249529915e-04 0.0 
-5.479249529915e-04 3.085630214700e-03 0.0 
0.0 0.0 0.0 
1.067404499805e-03 -6.204979680475e-04 0.0 
-6.204979680475e-04 3.098992727230e-03 0.0 
0.0 0.0 0.0 
8.951363426899e-04 -5.622495755306e-04 0.0 
-5.622495755306e-04 3.472421969351e-03 0.0 
0.0 0.0 0.0 
1.050808861783e-03 -4.259017013991e-04 0.0 
-4.259017013991e-04 3.563912921152e-03 0.0 
0.0 0.0 0.0 
8.795098211732e-04 -3.862146387724e-04 0.0 
-3.862146387724e-04 3.922882612339e-03 0.0 
0.0 0.0 0.0 
1.001980091316e-03 -2.446030262873e-04 0.0 
-2.446030262873e-04 4.049008865059e-03 0.0 
0.0 0.0 0.0 
8.335351423940e-04 -2.221255267731e-04 0.0 
-2.221255267731e-04 4.394485841727e-03 0.0 
0.0 0.0 0.0 
7.232924801855e-04 -3.374328325540e-04 0.0 
-3.374328325540e-04 4.265715225800e-03 0.0 
0.0 0.0 0.0 
6.789045657500e-04 -1.922637358236e-04 0.0 
-1.922637358236e-04 4.727423455121e-03 0.0 
0.0 0.0 0.0 
5.825972491922e-04 -2.849575268394e-04 0.0 
-2.849575268394e-04 4.591979639323e-03 0.0 
0.0 0.0 0.0 
9.235149795856e-04 -7.921517927794e-05 0.0 
-7.921517927794e-05 4.551754782566e-03 0.0 
0.0 0.0 0.0 
1.098784745604e-03 -7.440617467193e-05 0.0 
-7.440617467193e-05 4.211243328730e-03 0.0 
0.0 0.0 0.0 
5.396303427071e-04 -1.593316189490e-04 0.0 
-1.593316189490e-04 5.046062579139e-03 0.0 
0.0 0.0 0.0 
4.576255343955e-04 -2.324737671007e-04 0.0 
-2.324737671007e-04 4.902047116072e-03 0.0 
0.0 0.0 0.0 
4.166997554518e-04 -1.258946501782e-04 0.0 
-1.258946501782e-04 5.350579976300e-03 0.0 
0.0 0.0 0.0 
3.487750367137e-04 -1.831262308061e-04 0.0 
-1.831262308061e-04 5.196147143211e-03 0.0 
0.0 0.0 0.0 
3.687348128531e-04 -2.815041768151e-04 0.0 
-2.815041768151e-04 4.767877784390e-03 0.0 
0.0 0.0 0.0 
2.763236152916e-04 -2.190278347663e-04 0.0 
-2.190278347663e-04 5.047356478116e-03 0.0 
0.0 0.0 0.0 
2.794486301873e-04 -3.062134075721e-04 0.0 
-3.062134075721e-04 4.638714156879e-03 0.0 
0.0 0.0 0.0 
1.998064086183e-03 9.276308342495e-04 0.0 
9.276308342495e-04 2.853063973345e-03 0.0 
0.0 0.0 0.0 
1.865702463467e-03 1.230382046292e-03 0.0 
1.230382046292e-03 3.414749000407e-03 0.0 
0.0 0.0 0.0 
1.841889232561e-03 9.986582912820e-04 0.0 
9.986582912820e-04 3.495181143261e-03 0.0 
0.0 0.0 0.0 
1.706409717338e-03 1.273749466583e-03 0.0 
1.273749466583e-03 4.042940493274e-03 0.0 
0.0 0.0 0.0 
1.670623712162e-03 1.074846416480e-03 0.0 
1.074846416480e-03 4.124662432298e-03 0.0 
0.0 0.0 0.0 
1.530299639609e-03 1.327268191819e-03 0.0 
1.327268191819e-03 4.661551349615e-03 0.0 
0.0 0.0 0.0 
1.480678826579e-03 1.156367685035e-03 0.0 
1.156367685035e-03 4.745092051092e-03 0.0 
0.0 0.0 0.0 
1.591553424830e-03 9.014588521308e-04 0.0 
9.014588521308e-04 4.265479964682e-03 0.0 
0.0 0.0 0.0 
-9.355899004491e-04 1.912685028457e-03 0.0 
1.912685028457e-03 1.069340762554e-02 0.0 
0.0 0.0 0.0 
2.351524144074e-03 1.202995566777e-03 0.0 
1.202995566777e-03 7.358034233154e-04 0.0 
0.0 0.0 0.0 
2.199194205589e-03 1.672098686815e-03 0.0 
1.672098686815e-03 8.193413914367e-04 0.0 
0.0 0.0 0.0 
2.426634499379e-03 1.258491825935e-03 0.0 
1.258491825935e-03 6.812172859749e-06 0.0 
0.0 0.0 0.0 
2.213190690302e-03 1.805324236672e-03 0.0 
1.805324236672e-03 1.435999198713e-04 0.0 
0.0 0.0 0.0 
2.471957069873e-03 1.361699728598e-03 0.0 
1.361699728598e-03 -7.537343098091e-04 0.0 
0.0 0.0 0.0 
2.169829515826e-03 1.998520102132e-03 0.0 
1.998520102132e-03 -5.327444833849e-04 0.0 
0.0 0.0 0.0 
2.473985716776e-03 1.531467673537e-03 0.0 
1.531467673537e-03 -1.547808423025e-03 0.0 
0.0 0.0 0.0 
2.668409362964e-03 7.661442413953e-04 0.0 
7.661442413953e-04 -1.579490745489e-03 0.0 
0.0 0.0 0.0 
2.715319376099e-03 8.575987958299e-04 0.0 
8.575987958299e-04 -2.500674578000e-03 0.0 
0.0 0.0 0.0 
2.735381575733e-03 6.219191319511e-06 0.0 
6.219191319511e-06 -2.236542936382e-03 0.0 
0.0 0.0 0.0 
2.780559648108e-03 -3.578845476370e-05 0.0 
-3.578845476370e-05 -3.194841349911e-03 0.0 
0.0 0.0 0.0 
2.595236524371e-03 -8.634665263862e-04 0.0 
-8.634665263862e-04 -2.619536517790e-03 0.0 
0.0 0.0 0.0 
2.764120025291e-04 2.469675195705e-03 0.0 
2.469675195705e-03 7.019001285660e-03 0.0 
0.0 0.0 0.0 
1.535266831059e-03 1.516531784145e-03 0.0 
1.516531784145e-03 4.636210587899e-03 0.0 
0.0 0.0 0.0 
1.358967466697e-03 1.555654453119e-03 0.0 
1.555654453119e-03 5.240782580677e-03 0.0 
0.0 0.0 0.0 
1.340662129180e-03 1.726849581756e-03 0.0 
1.726849581756e-03 5.257975463799e-03 0.0 
0.0 0.0 0.0 
-1.859868829065e-04 -7.170796213596e-04 0.0 
-7.170796213596e-04 1.739417540155e-03 0.0 
0.0 0.0 0.0 
2.563417563692e-04 -1.388177011437e-04 0.0 
-1.388177011437e-04 5.474364450432e-03 0.0 
0.0 0.0 0.0 
9.860884940145e-04 8.641334579559e-05 0.0 
8.641334579559e-05 4.745095239871e-03 0.0 
0.0 0.0 0.0 
1.162389272360e-03 1.178221590884e-04 0.0 
1.178221590884e-04 4.415075737531e-03 0.0 
0.0 0.0 0.0 
1.391921309518e-03 1.006838458483e-03 0.0 
1.006838458483e-03 4.886917261941e-03 0.0 
0.0 0.0 0.0 
-9.865912347038e-05 -4.467984414640e-04 0.0 
-4.467984414640e-04 1.744439914873e-03 0.0 
0.0 0.0 0.0 
2.037777887195e-03 2.256219181113e-03 0.0 
2.256219181113e-03 -1.189750044790e-03 0.0 
0.0 0.0 0.0 
1.687399856054e-03 2.563284606848e-03 0.0 
2.563284606848e-03 -5.942506328621e-05 0.0 
0.0 0.0 0.0 
-1.043160225960e-03 8.989534798512e-04 0.0 
8.989534798512e-04 1.226890325732e-02 0.0 
0.0 0.0 0.0 
-1.057079032625e-03 7.364284386386e-04 0.0 
7.364284386386e-04 1.219533978213e-02 0.0 
0.0 0.0 0.0 
1.015205679041e-03 2.704577959059e-04 0.0 
2.704577959059e-04 4.979295113054e-03 0.0 
0.0 0.0 0.0 
-6.989454942117e-05 -3.761384990633e-04 0.0 
-3.761384990633e-04 1.914018511032e-03 0.0 
0.0 0.0 0.0 
6.079888229608e-04 -6.244963986870e-05 0.0 
-6.244963986870e-05 5.208060632378e-03 0.0 
0.0 0.0 0.0 
2.631821587521e-03 9.599573739398e-04 0.0 
9.599573739398e-04 -3.318804763621e-03 0.0 
0.0 0.0 0.0 
1.992312192553e-04 -1.630890669693e-04 0.0 
-1.630890669693e-04 5.310660418198e-03 0.0 
0.0 0.0 0.0 
1.800601394874e-04 -9.990167452888e-05 0.0 
-9.990167452888e-05 5.735476644596e-03 0.0 
0.0 0.0 0.0 
6.006328533501e-04 -4.213888909588e-04 0.0 
-4.213888909588e-04 4.157993692108e-03 0.0 
0.0 0.0 0.0 
1.167509946792e-03 1.758909723419e-03 0.0 
1.758909723419e-03 5.848041556219e-03 0.0 
0.0 0.0 0.0 
1.131260826750e-03 1.903887654322e-03 0.0 
1.903887654322e-03 5.897280731104e-03 0.0 
0.0 0.0 0.0 
2.538018920830e-03 -6.552033352349e-04 0.0 
-6.552033352349e-04 -1.706751099751e-03 0.0 
0.0 0.0 0.0 
2.216047164365e-03 -1.421922207660e-03 0.0 
-1.421922207660e-03 -1.806630614140e-03 0.0 
0.0 0.0 0.0 
2.133591565470e-03 -1.685861462407e-03 0.0 
-1.685861462407e-03 -2.522249825426e-03 0.0 
0.0 0.0 0.0 
1.646563036371e-03 -2.053385202243e-03 0.0 
-2.053385202243e-03 -1.526585318110e-03 0.0 
0.0 0.0 0.0 
1.822258675252e-03 -1.688814976928e-03 0.0 
-1.688814976928e-03 -9.637696157612e-04 0.0 
0.0 0.0 0.0 
1.261184995753e-03 -2.112921144173e-03 0.0 
-2.112921144173e-03 -6.616345320943e-04 0.0 
0.0 0.0 0.0 
9.595042941153e-04 -2.387411763107e-03 0.0 
-2.387411763107e-03 -1.014213585496e-03 0.0 
0.0 0.0 0.0 
6.260180636955e-04 -2.298691109377e-03 0.0 
-2.298691109377e-03 -1.720094062584e-04 0.0 
0.0 0.0 0.0 
9.438233523267e-04 -2.027708948392e-03 0.0 
-2.027708948392e-03 1.072230030395e-04 0.0 
0.0 0.0 0.0 
4.011400527679e-04 -2.075313217706e-03 0.0 
-2.075313217706e-03 5.058615146821e-04 0.0 
0.0 0.0 0.0 
1.467336726130e-05 -2.155969621573e-03 0.0 
-2.155969621573e-03 3.838126649607e-04 0.0 
0.0 0.0 0.0 
-6.729587192221e-05 -1.882261455611e-03 0.0 
-1.882261455611e-03 8.963650885681e-04 0.0 
0.0 0.0 0.0 
2.209916831285e-04 -6.921432131267e-05 0.0 
-6.921432131267e-05 5.915037031946e-03 0.0 
0.0 0.0 0.0 
2.583190566245e-03 -2.055191176678e-05 0.0 
-2.055191176678e-05 -3.839220793184e-03 0.0 
0.0 0.0 0.0 
-1.303590237412e-03 1.679680443771e-03 0.0 
1.679680443771e-03 1.005757148335e-02 0.0 
0.0 0.0 0.0 
8.456968451730e-04 2.275640584617e-04 0.0 
2.275640584617e-04 5.291509171063e-03 0.0 
0.0 0.0 0.0 
1.267347838235e-03 1.246009980381e-03 0.0 
1.246009980381e-03 5.359988375146e-03 0.0 
0.0 0.0 0.0 
-9.336890795806e-04 8.693698284529e-04 0.0 
8.693698284529e-04 1.249269160654e-02 0.0 
0.0 0.0 0.0 
-9.522194617885e-04 7.170748037067e-04 0.0 
7.170748037067e-04 1.240772293043e-02 0.0 
0.0 0.0 0.0 
-1.053287772995e-03 5.900302168546e-04 0.0 
5.900302168546e-04 1.208904292564e-02 0.0 
0.0 0.0 0.0 
-9.564016684267e-04 5.792778761050e-04 0.0 
5.792778761050e-04 1.229588065117e-02 0.0 
0.0 0.0 0.0 
-8.398488165430e-04 6.959007396825e-04 0.0 
6.959007396825e-04 1.261069606325e-02 0.0 
0.0 0.0 0.0 
-8.534808231572e-04 5.653016853764e-04 0.0 
5.653016853764e-04 1.249509138481e-02 0.0 
0.0 0.0 0.0 
-9.503951817851e-04 4.575682676422e-04 0.0 
4.575682676422e-04 1.216242593534e-02 0.0 
0.0 0.0 0.0 
-8.573913257391e-04 4.496474471068e-04 0.0 
4.496474471068e-04 1.236013309914e-02 0.0 
0.0 0.0 0.0 
-9.367580861749e-04 3.521869552450e-04 0.0 
3.521869552450e-04 1.201130440629e-02 0.0 
0.0 0.0 0.0 
-8.544920681681e-04 3.497608304433e-04 0.0 
3.497608304433e-04 1.220955163528e-02 0.0 
0.0 0.0 0.0 
-7.607234350041e-04 4.369141935465e-04 0.0 
4.369141935465e-04 1.255321561131e-02 0.0 
0.0 0.0 0.0 
-7.683851478180e-04 3.412129421462e-04 0.0 
3.412129421462e-04 1.240331679589e-02 0.0 
0.0 0.0 0.0 
-8.479907836990e-04 2.651016609925e-04 0.0 
2.651016609925e-04 1.204666734823e-02 0.0 
0.0 0.0 0.0 
-7.724914107287e-04 2.589934802652e-04 0.0 
2.589934802652e-04 1.224284439777e-02 0.0 
0.0 0.0 0.0 
-8.402342651918e-04 1.943607032396e-04 0.0 
1.943607032396e-04 1.187447419221e-02 0.0 
0.0 0.0 0.0 
-7.746000613761e-04 1.897734028911e-04 0.0 
1.897734028911e-04 1.207234385652e-02 0.0 
0.0 0.0 0.0 
-6.941306791282e-04 2.466755078269e-04 0.0 
2.466755078269e-04 1.243558933681e-02 0.0 
0.0 0.0 0.0 
-2.338041813791e-05 -3.115817212206e-04 0.0 
-3.115817212206e-04 1.541227427329e-03 0.0 
0.0 0.0 0.0 
1.476496900553e-03 7.562829164694e-04 0.0 
7.562829164694e-04 4.455754910727e-03 0.0 
0.0 0.0 0.0 
1.267360808782e-03 8.803511739789e-04 0.0 
8.803511739789e-04 5.078938352849e-03 0.0 
0.0 0.0 0.0 
-2.849413012127e-05 -4.559989558092e-04 0.0 
-4.559989558092e-04 2.969360461746e-03 0.0 
0.0 0.0 0.0 
1.533869505934e-05 -4.341750632612e-04 0.0 
-4.341750632612e-04 3.300316746173e-03 0.0 
0.0 0.0 0.0 
8.812876865139e-05 -5.054469843342e-04 0.0 
-5.054469843342e-04 3.423545041814e-03 0.0 
0.0 0.0 0.0 
5.600240511383e-05 -3.933222831437e-04 0.0 
-3.933222831437e-04 3.653743850799e-03 0.0 
0.0 0.0 0.0 
-7.078290470869e-04 1.783358656507e-04 0.0 
1.783358656507e-04 1.226661689908e-02 0.0 
0.0 0.0 0.0 
-6.153961954183e-04 2.268654332866e-04 0.0 
2.268654332866e-04 1.262570553518e-02 0.0 
0.0 0.0 0.0 
1.408408017536e-03 2.835865365213e-03 0.0 
2.835865365213e-03 -5.235715131370e-04 0.0 
0.0 0.0 0.0 
1.067767198523e-03 2.975513593994e-03 0.0 
2.975513593994e-03 6.335703556644e-04 0.0 
0.0 0.0 0.0 
-8.973248797169e-04 1.035084566345e-03 0.0 
1.035084566345e-03 1.254663997165e-02 0.0 
0.0 0.0 0.0 
1.364969338931e-04 -1.145695123752e-04 0.0 
-1.145695123752e-04 5.559120309304e-03 0.0 
0.0 0.0 0.0 
1.426509013606e-04 -1.683955651075e-04 0.0 
-1.683955651075e-04 5.149125441723e-03 0.0 
0.0 0.0 0.0 
3.991317037816e-04 2.753966280674e-03 0.0 
2.753966280674e-03 5.143285309856e-03 0.0 
0.0 0.0 0.0 
2.619349454861e-05 2.788732542425e-03 0.0 
2.788732542425e-03 5.671406907338e-03 0.0 
0.0 0.0 0.0 
2.792281029113e-04 2.838625493457e-03 0.0 
2.838625493457e-03 4.821230573099e-03 0.0 
0.0 0.0 0.0 
-1.213274367191e-04 2.836821222458e-03 0.0 
2.836821222458e-03 5.396221445737e-03 0.0 
0.0 0.0 0.0 
-3.473527822609e-04 2.752242272665e-03 0.0 
2.752242272665e-03 6.234494367476e-03 0.0 
0.0 0.0 0.0 
9.494573610497e-05 2.901619520873e-03 0.0 
2.901619520873e-03 4.532837514529e-03 0.0 
0.0 0.0 0.0 
1.282047335753e-03 -5.419979969550e-05 0.0 
-5.419979969550e-05 3.862384858952e-03 0.0 
0.0 0.0 0.0 
-6.614505563952e-04 4.176404571870e-04 0.0 
4.176404571870e-04 1.274111458797e-02 0.0 
0.0 0.0 0.0 
-1.653373517180e-04 -9.407847861581e-04 0.0 
-9.407847861581e-04 1.833884285277e-03 0.0 
0.0 0.0 0.0 
-2.579299979183e-04 -8.278784009673e-04 0.0 
-8.278784009673e-04 1.566247645322e-03 0.0 
0.0 0.0 0.0 
1.189148343438e-04 -6.712304277166e-05 0.0 
-6.712304277166e-05 5.982735371908e-03 0.0 
0.0 0.0 0.0 
1.659314543030e-03 6.305063102104e-04 0.0 
6.305063102104e-04 3.837965280146e-03 0.0 
0.0 0.0 0.0 
4.038446030243e-05 2.439389385206e-03 0.0 
2.439389385206e-03 7.742918639034e-03 0.0 
0.0 0.0 0.0 
2.882564841729e-04 2.412474428607e-03 0.0 
2.412474428607e-03 7.400140446320e-03 0.0 
0.0 0.0 0.0 
6.817364392268e-05 2.401343308751e-03 0.0 
2.401343308751e-03 8.101057277682e-03 0.0 
0.0 0.0 0.0 
2.853064466023e-04 2.378787091091e-03 0.0 
2.378787091091e-03 7.793234477714e-03 0.0 
0.0 0.0 0.0 
8.368061734691e-05 2.388075598729e-03 0.0 
2.388075598729e-03 8.473634945272e-03 0.0 
0.0 0.0 0.0 
2.662974373111e-04 2.373873667450e-03 0.0 
2.373873667450e-03 8.198931018843e-03 0.0 
0.0 0.0 0.0 
4.715589228945e-04 2.329640381346e-03 0.0 
2.329640381346e-03 7.525316588665e-03 0.0 
0.0 0.0 0.0 
9.683868043897e-04 1.939586148224e-03 0.0 
1.939586148224e-03 6.470572030929e-03 0.0 
0.0 0.0 0.0 
4.155333894096e-04 2.339437905237e-03 0.0 
2.339437905237e-03 7.969081134106e-03 0.0 
0.0 0.0 0.0 
-7.775125934384e-04 1.360981797142e-04 0.0 
1.360981797142e-04 1.189016194857e-02 0.0 
0.0 0.0 0.0 
1.494336453255e-03 1.716270877585e-03 0.0 
1.716270877585e-03 4.666692692993e-03 0.0 
0.0 0.0 0.0 
7.118307219253e-04 -1.851011641872e-03 0.0 
-1.851011641872e-03 7.410655108671e-04 0.0 
0.0 0.0 0.0 
-5.338900486174e-05 -3.510795265903e-04 0.0 
-3.510795265903e-04 1.376457308588e-03 0.0 
0.0 0.0 0.0 
-3.977967015155e-04 -1.744057610932e-03 0.0 
-1.744057610932e-03 8.265921379258e-04 0.0 
0.0 0.0 0.0 
-1.196220282666e-05 -2.558174435250e-04 0.0 
-2.558174435250e-04 1.696661647041e-03 0.0 
0.0 0.0 0.0 
-5.756351766513e-05 -3.042756689123e-04 0.0 
-3.042756689123e-04 2.087099573845e-03 0.0 
0.0 0.0 0.0 
8.400847157450e-04 4.042561926500e-04 0.0 
4.042561926500e-04 5.552574390137e-03 0.0 
0.0 0.0 0.0 
8.576049825744e-05 2.407008245215e-03 0.0 
2.407008245215e-03 8.861608758881e-03 0.0 
0.0 0.0 0.0 
-8.742199272577e-05 2.385493736738e-03 0.0 
2.385493736738e-03 9.121317486944e-03 0.0 
0.0 0.0 0.0 
-5.069146275174e-04 2.759647221062e-03 0.0 
2.759647221062e-03 6.009847369228e-03 0.0 
0.0 0.0 0.0 
-7.086942028980e-04 2.625590860761e-03 0.0 
2.625590860761e-03 6.826890976891e-03 0.0 
0.0 0.0 0.0 
9.738540252082e-04 1.812237214300e-03 0.0 
1.812237214300e-03 6.434950102270e-03 0.0 
0.0 0.0 0.0 
-1.223210103988e-03 6.171548710379e-04 0.0 
6.171548710379e-04 1.165413043576e-02 0.0 
0.0 0.0 0.0 
-1.014815788441e-03 3.500198655703e-04 0.0 
3.500198655703e-04 1.180923623820e-02 0.0 
0.0 0.0 0.0 
-9.836773966219e-04 2.575535364902e-04 0.0 
2.575535364902e-04 1.164023291045e-02 0.0 
0.0 0.0 0.0 
8.322596265878e-05 -1.978806565732e-04 0.0 
-1.978806565732e-04 1.244098795251e-03 0.0 
0.0 0.0 0.0 
-3.568539210940e-04 -2.025584306513e-03 0.0 
-2.025584306513e-03 3.976885387688e-04 0.0 
0.0 0.0 0.0 
-7.237308513228e-04 6.702206888607e-04 0.0 
6.702206888607e-04 1.280645789222e-02 0.0 
0.0 0.0 0.0 
1.359913172341e-03 2.734678602487e-03 0.0 
2.734678602487e-03 1.011856286922e-03 0.0 
0.0 0.0 0.0 
7.789554870914e-04 3.006070838418e-03 0.0 
3.006070838418e-03 1.697839533982e-03 0.0 
0.0 0.0 0.0 
2.214919307678e-03 1.083297168562e-03 0.0 
1.083297168562e-03 -3.755345446763e-03 0.0 
0.0 0.0 0.0 
1.966660310885e-03 3.627535031229e-05 0.0 
3.627535031229e-05 -4.199946460802e-03 0.0 
0.0 0.0 0.0 
-6.386946315384e-04 1.625907624711e-04 0.0 
1.625907624711e-04 1.245601317797e-02 0.0 
0.0 0.0 0.0 
-5.373009765371e-04 1.986114925640e-04 0.0 
1.986114925640e-04 1.280571371960e-02 0.0 
0.0 0.0 0.0 
1.362035794748e-04 -4.481626666313e-04 0.0 
-4.481626666313e-04 3.773432458096e-03 0.0 
0.0 0.0 0.0 
9.207169676266e-05 -3.438680387251e-04 0.0 
-3.438680387251e-04 4.011156799144e-03 0.0 
0.0 0.0 0.0 
1.007505475613e-03 4.693563713547e-04 0.0 
4.693563713547e-04 5.261681201399e-03 0.0 
0.0 0.0 0.0 
-3.700583654756e-04 -1.519178550762e-03 0.0 
-1.519178550762e-03 1.157934273378e-03 0.0 
0.0 0.0 0.0 
-5.006189430553e-04 2.725973674380e-04 0.0 
2.725973674380e-04 1.296460712486e-02 0.0 
0.0 0.0 0.0 
1.518396011505e-03 4.985267884593e-04 0.0 
4.985267884593e-04 4.081880014321e-03 0.0 
0.0 0.0 0.0 
1.678600143322e-03 3.487839208670e-04 0.0 
3.487839208670e-04 3.473423413776e-03 0.0 
0.0 0.0 0.0 
-7.004752736263e-06 -3.169266899745e-04 0.0 
-3.169266899745e-04 3.514165901430e-03 0.0 
0.0 0.0 0.0 
6.350280639416e-04 3.167670981189e-03 0.0 
3.167670981189e-03 3.971443401153e-04 0.0 
0.0 0.0 0.0 
9.584488720256e-04 3.020419404784e-03 0.0 
3.020419404784e-03 -7.860988681201e-04 0.0 
0.0 0.0 0.0 
1.174509265553e-03 -1.719464820686e-03 0.0 
-1.719464820686e-03 4.689443915759e-04 0.0 
0.0 0.0 0.0 
-8.538283377363e-05 -1.611894227157e-03 0.0 
-1.611894227157e-03 1.284330270446e-03 0.0 
0.0 0.0 0.0 
-1.147480783463e-05 -2.024115494083e-04 0.0 
-2.024115494083e-04 1.870160023057e-03 0.0 
0.0 0.0 0.0 
7.993641110567e-04 5.981244566698e-04 0.0 
5.981244566698e-04 5.857026706230e-03 0.0 
0.0 0.0 0.0 
-6.891543221950e-04 8.062622122489e-04 0.0 
8.062622122489e-04 1.290246848906e-02 0.0 
0.0 0.0 0.0 
6.154658802813e-04 2.258300630113e-03 0.0 
2.258300630113e-03 7.308607977956e-03 0.0 
0.0 0.0 0.0 
6.942806945494e-04 2.268022505741e-03 0.0 
2.268022505741e-03 6.833821118482e-03 0.0 
0.0 0.0 0.0 
5.226919134709e-04 2.283824904294e-03 0.0 
2.283824904294e-03 7.784599118091e-03 0.0 
0.0 0.0 0.0 
-5.595397119694e-04 -1.262178841640e-03 0.0 
-1.262178841640e-03 1.024303381884e-03 0.0 
0.0 0.0 0.0 
6.731381746978e-04 3.455395627497e-04 0.0 
3.455395627497e-04 5.860573747667e-03 0.0 
0.0 0.0 0.0 
8.748839877145e-05 -7.410555756111e-05 0.0 
-7.410555756111e-05 5.794027353779e-03 0.0 
0.0 0.0 0.0 
-6.566050743042e-05 2.430562809702e-03 0.0 
2.430562809702e-03 9.479998087939e-03 0.0 
0.0 0.0 0.0 
-2.218931975755e-04 2.376233540908e-03 0.0 
2.376233540908e-03 9.728683482706e-03 0.0 
0.0 0.0 0.0 
1.062599147033e-03 2.824458298953e-03 0.0 
2.824458298953e-03 2.019240198148e-03 0.0 
0.0 0.0 0.0 
5.310547738841e-04 2.987096529789e-03 0.0 
2.987096529789e-03 2.690923976498e-03 0.0 
0.0 0.0 0.0 
1.605874567271e-04 3.106288598762e-03 0.0 
3.106288598762e-03 2.487761783069e-03 0.0 
0.0 0.0 0.0 
-3.332687852150e-06 3.025464374092e-03 0.0 
3.025464374092e-03 3.419178810608e-03 0.0 
0.0 0.0 0.0 
-1.425121453725e-03 1.272341208471e-03 0.0 
1.272341208471e-03 1.062081632135e-02 0.0 
0.0 0.0 0.0 
7.884579206171e-04 2.860491776229e-03 0.0 
2.860491776229e-03 2.986326142524e-03 0.0 
0.0 0.0 0.0 
-1.240445704564e-03 1.857627046455e-03 0.0 
1.857627046455e-03 9.598243239672e-03 0.0 
0.0 0.0 0.0 
-1.403011030781e-03 1.581592577827e-03 0.0 
1.581592577827e-03 9.874611892314e-03 0.0 
0.0 0.0 0.0 
-1.346314111056e-03 1.780014671288e-03 0.0 
1.780014671288e-03 9.431247298129e-03 0.0 
0.0 0.0 0.0 
-5.817158249440e-04 2.622826452200e-03 0.0 
2.622826452200e-03 7.036528798807e-03 0.0 
0.0 0.0 0.0 
-9.179678442821e-04 2.452612143826e-03 0.0 
2.452612143826e-03 7.600362370930e-03 0.0 
0.0 0.0 0.0 
1.925456837524e-03 2.128613506570e-03 0.0 
2.128613506570e-03 1.064687418113e-03 0.0 
0.0 0.0 0.0 
1.834192531562e-03 1.486038955010e-03 0.0 
1.486038955010e-03 3.406534064358e-03 0.0 
0.0 0.0 0.0 
1.873140847117e-04 -5.626656615595e-04 0.0 
-5.626656615595e-04 3.522988443352e-03 0.0 
0.0 0.0 0.0 
3.690706281323e-04 -3.864413095084e-04 0.0 
-3.864413095084e-04 4.359612284693e-03 0.0 
0.0 0.0 0.0 
1.235520957858e-03 -4.493474489951e-04 0.0 
-4.493474489951e-04 3.189008645083e-03 0.0 
0.0 0.0 0.0 
-6.376134963493e-04 5.223391665933e-04 0.0 
5.223391665933e-04 1.287562538947e-02 0.0 
0.0 0.0 0.0 
-5.274945308130e-04 4.908466365945e-04 0.0 
4.908466365945e-04 1.306040512222e-02 0.0 
0.0 0.0 0.0 
-9.016333374317e-04 1.920237782054e-04 0.0 
1.920237782054e-04 1.167106007242e-02 0.0 
0.0 0.0 0.0 
-8.825227546489e-04 1.315231347948e-04 0.0 
1.315231347948e-04 1.148657636543e-02 0.0 
0.0 0.0 0.0 
-1.994720595181e-04 -5.802845760239e-04 0.0 
-5.802845760239e-04 1.415141220481e-03 0.0 
0.0 0.0 0.0 
-2.879075623946e-04 -6.454259952168e-04 0.0 
-6.454259952168e-04 1.265992338593e-03 0.0 
0.0 0.0 0.0 
7.261154872627e-04 -6.568709993037e-04 0.0 
-6.568709993037e-04 3.407778203473e-03 0.0 
0.0 0.0 0.0 
6.816093776050e-04 1.935943114666e-04 0.0 
1.935943114666e-04 5.601766762004e-03 0.0 
0.0 0.0 0.0 
-7.737170673418e-04 9.945770935698e-04 0.0 
9.945770935698e-04 1.276742432326e-02 0.0 
0.0 0.0 0.0 
-7.156088694611e-04 1.165352745120e-03 0.0 
1.165352745120e-03 1.280326349122e-02 0.0 
0.0 0.0 0.0 
-8.424770284121e-04 1.211888582884e-03 0.0 
1.211888582884e-03 1.256816035549e-02 0.0 
0.0 0.0 0.0 
9.650134878033e-04 6.816828471774e-04 0.0 
6.816828471774e-04 5.581197187485e-03 0.0 
0.0 0.0 0.0 
2.496380229556e-03 7.343898271281e-04 0.0 
7.343898271281e-04 6.150724920280e-05 0.0 
0.0 0.0 0.0 
1.931355020953e-03 6.935726164648e-04 0.0 
6.935726164648e-04 3.006081193746e-03 0.0 
0.0 0.0 0.0 
2.136786310970e-03 -1.030256170101e-03 0.0 
-1.030256170101e-03 -3.860741102748e-03 0.0 
0.0 0.0 0.0 
7.871264811904e-04 2.365736157345e-03 0.0 
2.365736157345e-03 5.928543482532e-03 0.0 
0.0 0.0 0.0 
-1.349583605161e-04 -4.111131425851e-04 0.0 
-4.111131425851e-04 1.047247288231e-03 0.0 
0.0 0.0 0.0 
-6.877436557834e-04 2.157121842690e-03 0.0 
2.157121842690e-03 9.952016277255e-03 0.0 
0.0 0.0 0.0 
7.289812733265e-05 -4.080075389369e-05 0.0 
-4.080075389369e-05 6.217738696524e-03 0.0 
0.0 0.0 0.0 
9.256955041984e-05 -2.915660316394e-05 0.0 
-2.915660316394e-05 6.415332529772e-03 0.0 
0.0 0.0 0.0 
7.812338919195e-04 1.994208261048e-03 0.0 
1.994208261048e-03 7.031426753229e-03 0.0 
0.0 0.0 0.0 
-1.491652047060e-03 8.544606782332e-04 0.0 
8.544606782332e-04 1.044705934057e-02 0.0 
0.0 0.0 0.0 
1.000344035360e-03 2.228374805358e-03 0.0 
2.228374805358e-03 5.652890175731e-03 0.0 
0.0 0.0 0.0 
1.253456078467e-03 2.111877292652e-03 0.0 
2.111877292652e-03 4.922094050061e-03 0.0 
0.0 0.0 0.0 
-1.481394567703e-03 1.454516970856e-03 0.0 
1.454516970856e-03 9.700804104667e-03 0.0 
0.0 0.0 0.0 
-1.435555944738e-03 1.668324707891e-03 0.0 
1.668324707891e-03 9.288100054135e-03 0.0 
0.0 0.0 0.0 
-1.247608079527e-03 2.001166379087e-03 0.0 
2.001166379087e-03 8.917521977331e-03 0.0 
0.0 0.0 0.0 
-1.350136474095e-03 1.920881781574e-03 0.0 
1.920881781574e-03 8.778789677329e-03 0.0 
0.0 0.0 0.0 
9.384375604635e-04 -1.603929027060e-03 0.0 
-1.603929027060e-03 1.045788420678e-03 0.0 
0.0 0.0 0.0 
5.466847326640e-04 -1.648554303916e-03 0.0 
-1.648554303916e-03 1.254597339337e-03 0.0 
0.0 0.0 0.0 
7.176768383285e-05 2.480814806416e-03 0.0 
2.480814806416e-03 9.296429480995e-03 0.0 
0.0 0.0 0.0 
3.449068341841e-04 2.399197011354e-03 0.0 
2.399197011354e-03 8.414424512025e-03 0.0 
0.0 0.0 0.0 
-1.606244180204e-04 2.454248423565e-03 0.0 
2.454248423565e-03 1.005838174702e-02 0.0 
0.0 0.0 0.0 
-3.086853446983e-04 2.369883121770e-03 0.0 
2.369883121770e-03 1.030629735473e-02 0.0 
0.0 0.0 0.0 
7.594982168588e-04 1.884312101231e-03 0.0 
1.884312101231e-03 7.015786605714e-03 0.0 
0.0 0.0 0.0 
9.449882689256e-04 1.683637163477e-03 0.0 
1.683637163477e-03 6.444259545160e-03 0.0 
0.0 0.0 0.0 
-5.605996353462e-05 -2.322413160247e-04 0.0 
-2.322413160247e-04 2.252861115609e-03 0.0 
0.0 0.0 0.0 
-1.046147027949e-03 2.406579398476e-03 0.0 
2.406579398476e-03 7.434542054593e-03 0.0 
0.0 0.0 0.0 
-5.614628249048e-04 7.685286163223e-04 0.0 
7.685286163223e-04 1.309682880907e-02 0.0 
0.0 0.0 0.0 
-1.496453689483e-03 1.274542809474e-03 0.0 
1.274542809474e-03 1.006551512205e-02 0.0 
0.0 0.0 0.0 
5.119509716386e-04 2.895448000729e-04 0.0 
2.895448000729e-04 6.149624468792e-03 0.0 
0.0 0.0 0.0 
5.304373247392e-04 1.646932783535e-04 0.0 
1.646932783535e-04 5.915297223056e-03 0.0 
0.0 0.0 0.0 
1.333151785953e-03 -9.576804653095e-04 0.0 
-9.576804653095e-04 -4.251525209324e-03 0.0 
0.0 0.0 0.0 
1.284540198121e-03 -2.057759983361e-03 0.0 
-2.057759983361e-03 -3.291974842789e-03 0.0 
0.0 0.0 0.0 
-4.154391669900e-04 2.323361110437e-04 0.0 
2.323361110437e-04 1.314391319449e-02 0.0 
0.0 0.0 0.0 
-4.398414414310e-04 3.042618640330e-03 0.0 
3.042618640330e-03 3.298449292738e-03 0.0 
0.0 0.0 0.0 
-5.209351886634e-04 2.922399206651e-03 0.0 
2.922399206651e-03 4.147346532450e-03 0.0 
0.0 0.0 0.0 
-3.140162615435e-04 3.147816508257e-03 0.0 
3.147816508257e-03 2.386461552655e-03 0.0 
0.0 0.0 0.0 
8.504517530206e-06 -1.462386931600e-06 0.0 
-1.462386931600e-06 7.135699351494e-03 0.0 
0.0 0.0 0.0 
-8.352324732350e-04 5.392524902234e-06 0.0 
5.392524902234e-06 1.066827950423e-02 0.0 
0.0 0.0 0.0 
5.431378823610e-05 -1.571595982019e-05 0.0 
-1.571595982019e-05 6.649124537179e-03 0.0 
0.0 0.0 0.0 
-8.025520244063e-04 2.454902696778e-03 0.0 
2.454902696778e-03 7.790940184453e-03 0.0 
0.0 0.0 0.0 
-3.645729505011e-04 3.169081804140e-04 0.0 
3.169081804140e-04 1.329437181400e-02 0.0 
0.0 0.0 0.0 
1.164916485124e-03 2.068344288502e-03 0.0 
2.068344288502e-03 5.449745761280e-03 0.0 
0.0 0.0 0.0 
6.767890075914e-04 2.762804317604e-03 0.0 
2.762804317604e-03 4.271252115457e-03 0.0 
0.0 0.0 0.0 
1.172172125391e-03 5.472284593444e-04 0.0 
5.472284593444e-04 4.975810398185e-03 0.0 
0.0 0.0 0.0 
-4.690135790133e-04 1.482871236621e-04 0.0 
1.482871236621e-04 1.296715195818e-02 0.0 
0.0 0.0 0.0 
-3.297495194806e-04 1.844112115851e-04 0.0 
1.844112115851e-04 1.332864378410e-02 0.0 
0.0 0.0 0.0 
-1.043015283177e-03 2.496195571755e-04 0.0 
2.496195571755e-04 1.143152404004e-02 0.0 
0.0 0.0 0.0 
-1.007645387834e-03 1.658303053488e-04 0.0 
1.658303053488e-04 1.123855996304e-02 0.0 
0.0 0.0 0.0 
-1.086215774794e-03 3.437805566417e-04 0.0 
3.437805566417e-04 1.159067944391e-02 0.0 
0.0 0.0 0.0 
2.136249935892e-03 1.924211774907e-03 0.0 
1.924211774907e-03 -2.902262700810e-03 0.0 
0.0 0.0 0.0 
1.431146164030e-03 2.217949841253e-03 0.0 
2.217949841253e-03 -3.068169111713e-03 0.0 
0.0 0.0 0.0 
-5.617803366390e-04 3.901181499610e-04 0.0 
3.901181499610e-04 1.292530181752e-02 0.0 
0.0 0.0 0.0 
-6.353560204270e-05 -4.502314107336e-04 0.0 
-4.502314107336e-04 2.626395385222e-03 0.0 
0.0 0.0 0.0 
-6.321822657697e-05 -3.414622405081e-04 0.0 
-3.414622405081e-04 2.856453509923e-03 0.0 
0.0 0.0 0.0 
-3.016309338780e-04 -1.300280161699e-03 0.0 
-1.300280161699e-03 1.418895016708e-03 0.0 
0.0 0.0 0.0 
-7.131934904464e-05 -1.366814732632e-03 0.0 
-1.366814732632e-03 1.593822896226e-03 0.0 
0.0 0.0 0.0 
2.350898993905e-04 -4.830046136599e-04 0.0 
-4.830046136599e-04 3.878575202436e-03 0.0 
0.0 0.0 0.0 
3.082756764953e-04 -5.952502406641e-04 0.0 
-5.952502406641e-04 3.604954600560e-03 0.0 
0.0 0.0 0.0 
-4.816672365002e-04 2.264084770053e-03 0.0 
2.264084770053e-03 9.671607462608e-03 0.0 
0.0 0.0 0.0 
-5.792525738647e-04 2.200714506366e-03 0.0 
2.200714506366e-03 1.022323824793e-02 0.0 
0.0 0.0 0.0 
-1.688047624400e-04 2.391299330565e-03 0.0 
2.391299330565e-03 8.430842856529e-03 0.0 
0.0 0.0 0.0 
1.514995933514e-03 2.382994559014e-04 0.0 
2.382994559014e-04 3.765493278760e-03 0.0 
0.0 0.0 0.0 
1.646649938413e-03 6.671632951907e-05 0.0 
6.671632951907e-05 3.177072550702e-03 0.0 
0.0 0.0 0.0 
1.817581738096e-03 1.909776486767e-04 0.0 
1.909776486767e-04 2.865201187225e-03 0.0 
0.0 0.0 0.0 
-4.859824477583e-04 5.996743894307e-04 0.0 
5.996743894307e-04 1.317060501665e-02 0.0 
0.0 0.0 0.0 
-3.535810520701e-04 5.618973005357e-04 0.0 
5.618973005357e-04 1.338044648612e-02 0.0 
0.0 0.0 0.0 
1.327978889769e-03 -1.428044462936e-03 0.0 
-1.428044462936e-03 8.764839669781e-04 0.0 
0.0 0.0 0.0 
1.601017373403e-03 -1.434275137558e-03 0.0 
-1.434275137558e-03 2.853292939051e-04 0.0 
0.0 0.0 0.0 
7.507493738477e-04 -1.455452549333e-03 0.0 
-1.455452549333e-03 1.534276817976e-03 0.0 
0.0 0.0 0.0 
-5.074872903758e-04 9.108586897875e-04 0.0 
9.108586897875e-04 1.317576921207e-02 0.0 
0.0 0.0 0.0 
6.358265549833e-05 -1.145788340578e-06 0.0 
-1.145788340578e-06 6.851882618263e-03 0.0 
0.0 0.0 0.0 
1.039293666519e-04 -9.645415950307e-06 0.0 
-9.645415950307e-06 6.614364408689e-03 0.0 
0.0 0.0 0.0 
-1.938257088471e-04 -4.285110367205e-04 0.0 
-4.285110367205e-04 9.013809417156e-04 0.0 
0.0 0.0 0.0 
-3.823785387353e-04 -7.099379693786e-04 0.0 
-7.099379693786e-04 1.111912472783e-03 0.0 
0.0 0.0 0.0 
9.141870461860e-05 3.222794352225e-03 0.0 
3.222794352225e-03 3.490965317042e-04 0.0 
0.0 0.0 0.0 
3.894370219888e-04 3.121479045048e-03 0.0 
3.121479045048e-03 -8.119892692136e-04 0.0 
0.0 0.0 0.0 
-6.362924474106e-04 1.341981662128e-03 0.0 
1.341981662128e-03 1.279726466547e-02 0.0 
0.0 0.0 0.0 
-7.685428976400e-04 1.400982758594e-03 0.0 
1.400982758594e-03 1.255506020468e-02 0.0 
0.0 0.0 0.0 
-4.849057005262e-04 1.297508804090e-03 0.0 
1.297508804090e-03 1.304733763048e-02 0.0 
0.0 0.0 0.0 
-1.203985767893e-05 -1.353067825823e-04 0.0 
-1.353067825823e-04 2.008740012463e-03 0.0 
0.0 0.0 0.0 
8.330842519464e-04 2.166382357090e-03 0.0 
2.166382357090e-03 6.651905031979e-03 0.0 
0.0 0.0 0.0 
7.257066847987e-04 8.047842419216e-04 0.0 
8.047842419216e-04 6.182646580995e-03 0.0 
0.0 0.0 0.0 
8.967554008690e-04 9.078012505964e-04 0.0 
9.078012505964e-04 5.940750754116e-03 0.0 
0.0 0.0 0.0 
5.352567401810e-04 7.157293608464e-04 0.0 
7.157293608464e-04 6.535570681588e-03 0.0 
0.0 0.0 0.0 
7.694207565195e-04 2.093950561676e-03 0.0 
2.093950561676e-03 7.080570527951e-03 0.0 
0.0 0.0 0.0 
5.843498112869e-04 2.148249499670e-03 0.0 
2.148249499670e-03 7.606304928117e-03 0.0 
0.0 0.0 0.0 
3.926274916095e-04 2.348714533290e-03 0.0 
2.348714533290e-03 8.277957940462e-03 0.0 
0.0 0.0 0.0 
8.966446149652e-04 8.544854575039e-05 0.0 
8.544854575039e-05 -4.549780914835e-03 0.0 
0.0 0.0 0.0 
-3.619010286957e-04 1.129299198270e-04 0.0 
1.129299198270e-04 1.321897299516e-02 0.0 
0.0 0.0 0.0 
-9.295952874203e-04 1.187788657630e-04 0.0 
1.187788657630e-04 1.125691199705e-02 0.0 
0.0 0.0 0.0 
9.849017242727e-05 -6.162516906625e-04 0.0 
-6.162516906625e-04 -4.401274525691e-03 0.0 
0.0 0.0 0.0 
-9.004305724958e-04 7.550578114972e-05 0.0 
7.550578114972e-05 1.106549870972e-02 0.0 
0.0 0.0 0.0 
-8.670990310978e-04 8.613359425190e-05 0.0 
8.613359425190e-05 1.129342059346e-02 0.0 
0.0 0.0 0.0 
-8.837232394890e-04 4.154399901068e-05 0.0 
4.154399901068e-05 1.084708902152e-02 0.0 
0.0 0.0 0.0 
5.825347200106e-05 -1.174710980374e-04 0.0 
-1.174710980374e-04 1.603420505305e-03 0.0 
0.0 0.0 0.0 
-1.099942321242e-03 2.208730405892e-04 0.0 
2.208730405892e-04 1.114915505778e-02 0.0 
0.0 0.0 0.0 
-1.154463573158e-03 3.413218980430e-04 0.0 
3.413218980430e-04 1.137312718225e-02 0.0 
0.0 0.0 0.0 
-2.099981185489e-04 -3.746915615483e-04 0.0 
-3.746915615483e-04 6.599984469298e-04 0.0 
0.0 0.0 0.0 
-3.603993014710e-04 8.530899913343e-04 0.0 
8.530899913343e-04 1.336092223097e-02 0.0 
0.0 0.0 0.0 
1.280898613657e-06 -2.390506986642e-04 0.0 
-2.390506986642e-04 6.448440081226e-04 0.0 
0.0 0.0 0.0 
3.780343493496e-05 -2.517040095494e-04 0.0 
-2.517040095494e-04 7.905459293813e-04 0.0 
0.0 0.0 0.0 
3.926517371344e-04 2.476878311441e-04 0.0 
2.476878311441e-04 6.449855283509e-03 0.0 
0.0 0.0 0.0 
4.023886180355e-04 1.351157135240e-04 0.0 
1.351157135240e-04 6.212011107331e-03 0.0 
0.0 0.0 0.0 
2.692299457806e-04 1.952681639876e-04 0.0 
1.952681639876e-04 6.719449504609e-03 0.0 
0.0 0.0 0.0 
2.832155184456e-04 1.147355570009e-04 0.0 
1.147355570009e-04 6.481236799709e-03 0.0 
0.0 0.0 0.0 
3.879742487789e-04 4.268016961355e-05 0.0 
4.268016961355e-05 5.998853746131e-03 0.0 
0.0 0.0 0.0 
2.795482166120e-04 4.200534188546e-05 0.0 
4.200534188546e-05 6.294073433320e-03 0.0 
0.0 0.0 0.0 
-9.732457277007e-04 1.042064463442e-04 0.0 
1.042064463442e-04 1.103291028147e-02 0.0 
0.0 0.0 0.0 
1.821265599858e-04 1.021814090914e-04 0.0 
1.021814090914e-04 6.829850861562e-03 0.0 
0.0 0.0 0.0 
1.862190697188e-04 3.569172302138e-05 0.0 
3.569172302138e-05 6.582651913553e-03 0.0 
0.0 0.0 0.0 
1.062593926310e-04 6.892986923914e-05 0.0 
6.892986923914e-05 7.111557584769e-03 0.0 
0.0 0.0 0.0 
-1.504235567049e-03 1.490753200390e-03 0.0 
1.490753200390e-03 9.169883328603e-03 0.0 
0.0 0.0 0.0 
-1.686173827195e-04 2.949166459122e-03 0.0 
2.949166459122e-03 4.296716101969e-03 0.0 
0.0 0.0 0.0 
-6.200436825443e-04 2.801966904448e-03 0.0 
2.801966904448e-03 5.000121609675e-03 0.0 
0.0 0.0 0.0 
-1.009888902574e-03 2.680486221993e-03 0.0 
2.680486221993e-03 4.944997307836e-03 0.0 
0.0 0.0 0.0 
-2.006018245361e-04 2.489952617769e-03 0.0 
2.489952617769e-03 1.066963514751e-02 0.0 
0.0 0.0 0.0 
-3.580011749802e-04 2.352447087157e-03 0.0 
2.352447087157e-03 1.081158163887e-02 0.0 
0.0 0.0 0.0 
5.359820362542e-05 -4.069057590375e-05 0.0 
-4.069057590375e-05 6.026784803616e-03 0.0 
0.0 0.0 0.0 
5.858630910053e-05 -6.373620835257e-05 0.0 
-6.373620835257e-05 5.610949414373e-03 0.0 
0.0 0.0 0.0 
-8.579288263411e-04 5.005318385993e-05 0.0 
5.005318385993e-05 1.107486813782e-02 0.0 
0.0 0.0 0.0 
-8.361737211839e-04 3.195244701034e-05 0.0 
3.195244701034e-05 1.104639005105e-02 0.0 
0.0 0.0 0.0 
-8.169229059607e-04 6.806433323017e-05 0.0 
6.806433323017e-05 1.141466619835e-02 0.0 
0.0 0.0 0.0 
-8.030795751466e-04 4.195013639756e-05 0.0 
4.195013639756e-05 1.136168926444e-02 0.0 
0.0 0.0 0.0 
-7.703725451849e-04 7.709849757450e-05 0.0 
7.709849757450e-05 1.172170364945e-02 0.0 
0.0 0.0 0.0 
-7.603018010183e-04 4.329347185452e-05 0.0 
4.329347185452e-05 1.166185742060e-02 0.0 
0.0 0.0 0.0 
-7.135778633320e-04 7.277304130308e-05 0.0 
7.277304130308e-05 1.201950984924e-02 0.0 
0.0 0.0 0.0 
2.293946761373e-04 2.499914147576e-03 0.0 
2.499914147576e-03 8.947913545451e-03 0.0 
0.0 0.0 0.0 
-9.352499272993e-04 2.974843192607e-03 0.0 
2.974843192607e-03 3.227818892910e-03 0.0 
0.0 0.0 0.0 
-1.529902375066e-03 1.098108338482e-03 0.0 
1.098108338482e-03 9.870480097171e-03 0.0 
0.0 0.0 0.0 
6.934079567686e-04 1.763440586475e-03 0.0 
1.763440586475e-03 7.037987562245e-03 0.0 
0.0 0.0 0.0 
8.809585763930e-04 1.549690698885e-03 0.0 
1.549690698885e-03 6.468781873149e-03 0.0 
0.0 0.0 0.0 
-1.215310819987e-03 2.179056509023e-03 0.0 
2.179056509023e-03 8.162992068231e-03 0.0 
0.0 0.0 0.0 
-1.340653015425e-03 2.034294430733e-03 0.0 
2.034294430733e-03 8.081846958903e-03 0.0 
0.0 0.0 0.0 
4.446794068822e-04 4.438572921771e-04 0.0 
4.438572921771e-04 6.516506466489e-03 0.0 
0.0 0.0 0.0 
1.239551608792e-03 2.658965201690e-03 0.0 
2.658965201690e-03 2.419480447331e-03 0.0 
0.0 0.0 0.0 
-2.564020058937e-04 1.016241638046e-03 0.0 
1.016241638046e-03 1.344472533212e-02 0.0 
0.0 0.0 0.0 
-1.156057014503e-03 2.150730459712e-03 0.0 
2.150730459712e-03 -2.991210485532e-03 0.0 
0.0 0.0 0.0 
3.730937812256e-04 2.105593741700e-03 0.0 
2.105593741700e-03 -3.488731295957e-03 0.0 
0.0 0.0 0.0 
9.541494868915e-04 2.730357613370e-03 0.0 
2.730357613370e-03 3.352370157148e-03 0.0 
0.0 0.0 0.0 
-1.105561385432e-03 2.235324641641e-03 0.0 
2.235324641641e-03 8.307170187703e-03 0.0 
0.0 0.0 0.0 
-3.302225336703e-04 2.852942773925e-03 0.0 
2.852942773925e-03 5.160920928875e-03 0.0 
0.0 0.0 0.0 
-7.267281888290e-04 2.718795120593e-03 0.0 
2.718795120593e-03 5.839921890136e-03 0.0 
0.0 0.0 0.0 
1.360063052624e-03 4.006569784420e-04 0.0 
4.006569784420e-04 4.364184820735e-03 0.0 
0.0 0.0 0.0 
-4.619319742341e-04 -7.937630997822e-04 0.0 
-7.937630997822e-04 9.610673778793e-04 0.0 
0.0 0.0 0.0 
-1.490862084235e-04 3.219284823602e-03 0.0 
3.219284823602e-03 1.407410554821e-03 0.0 
0.0 0.0 0.0 
-7.263665808009e-04 1.219007925554e-04 0.0 
1.219007925554e-04 1.206653005116e-02 0.0 
0.0 0.0 0.0 
-7.173714454190e-04 3.141700460161e-03 0.0 
3.141700460161e-03 1.429973205026e-03 0.0 
0.0 0.0 0.0 
3.936481679948e-05 -2.591985204055e-05 0.0 
-2.591985204055e-05 5.849451809191e-03 0.0 
0.0 0.0 0.0 
1.628892689060e-03 2.355759505165e-03 0.0 
2.355759505165e-03 1.982508994031e-03 0.0 
0.0 0.0 0.0 
-4.722789242996e-04 2.585715907948e-03 0.0 
2.585715907948e-03 7.271276718194e-03 0.0 
0.0 0.0 0.0 
3.701037205040e-04 3.175480698520e-03 0.0 
3.175480698520e-03 1.486934406255e-03 0.0 
0.0 0.0 0.0 
3.078376231800e-04 2.956379698481e-03 0.0 
2.956379698481e-03 3.638548611609e-03 0.0 
0.0 0.0 0.0 
-1.331566748362e-03 1.526702760492e-03 0.0 
1.526702760492e-03 1.046917832482e-02 0.0 
0.0 0.0 0.0 
-1.466025215902e-03 1.016470739957e-03 0.0 
1.016470739957e-03 1.070094440251e-02 0.0 
0.0 0.0 0.0 
-1.489132531024e-03 1.129496658561e-03 0.0 
1.129496658561e-03 1.039517213637e-02 0.0 
0.0 0.0 0.0 
1.935763925731e-03 1.985212465102e-03 0.0 
1.985212465102e-03 1.668377075122e-03 0.0 
0.0 0.0 0.0 
-8.764738894823e-04 2.572821752570e-03 0.0 
2.572821752570e-03 6.667830918557e-03 0.0 
0.0 0.0 0.0 
-1.126619569444e-03 2.427203527105e-03 0.0 
2.427203527105e-03 6.550938879958e-03 0.0 
0.0 0.0 0.0 
-1.022431318368e-03 2.086593117404e-03 0.0 
2.086593117404e-03 9.257470467294e-03 0.0 
0.0 0.0 0.0 
-9.548235290232e-04 1.258780939942e-03 0.0 
1.258780939942e-03 1.231299385354e-02 0.0 
0.0 0.0 0.0 
-8.770006328465e-04 1.448712089125e-03 0.0 
1.448712089125e-03 1.227977236632e-02 0.0 
0.0 0.0 0.0 
-6.764133706990e-04 1.582916314818e-03 0.0 
1.582916314818e-03 1.249566971726e-02 0.0 
0.0 0.0 0.0 
-7.832426302401e-04 1.638275003728e-03 0.0 
1.638275003728e-03 1.220739860001e-02 0.0 
0.0 0.0 0.0 
-9.687347128730e-04 1.503279495217e-03 0.0 
1.503279495217e-03 1.197960083824e-02 0.0 
0.0 0.0 0.0 
-8.649354628849e-04 1.693858140557e-03 0.0 
1.693858140557e-03 1.188473547179e-02 0.0 
0.0 0.0 0.0 
-6.604228923367e-04 1.823690066292e-03 0.0 
1.823690066292e-03 1.211092578008e-02 0.0 
0.0 0.0 0.0 
-7.353515238386e-04 1.884754032806e-03 0.0 
1.884754032806e-03 1.175852967843e-02 0.0 
0.0 0.0 0.0 
-5.000943943160e-04 2.037626480861e-03 0.0 
2.037626480861e-03 1.202988985547e-02 0.0 
0.0 0.0 0.0 
-5.955155071532e-04 2.063281346431e-03 0.0 
2.063281346431e-03 1.158727828347e-02 0.0 
0.0 0.0 0.0 
-7.760179075342e-04 1.940057273198e-03 0.0 
1.940057273198e-03 1.135391583030e-02 0.0 
0.0 0.0 0.0 
-6.325133317127e-04 2.098083034080e-03 0.0 
2.098083034080e-03 1.116494001161e-02 0.0 
0.0 0.0 0.0 
-4.763811568343e-04 2.220608928435e-03 0.0 
2.220608928435e-03 1.137606761433e-02 0.0 
0.0 0.0 0.0 
-7.902791719682e-04 2.001380777403e-03 0.0 
2.001380777403e-03 1.092369418596e-02 0.0 
0.0 0.0 0.0 
4.828422971049e-04 1.973644296532e-03 0.0 
1.973644296532e-03 7.601985707182e-03 0.0 
0.0 0.0 0.0 
1.046304709771e-03 2.599531973726e-03 0.0 
2.599531973726e-03 3.779701051853e-03 0.0 
0.0 0.0 0.0 
1.384926521143e-03 1.127690774033e-03 0.0 
1.127690774033e-03 -4.085940426595e-03 0.0 
0.0 0.0 0.0 
4.657340904763e-04 2.912939633705e-03 0.0 
2.912939633705e-03 -2.379549990060e-03 0.0 
0.0 0.0 0.0 
-6.905059721311e-04 2.435256041294e-03 0.0 
2.435256041294e-03 8.000407982251e-03 0.0 
0.0 0.0 0.0 
-2.620345813715e-04 2.113712431266e-03 0.0 
2.113712431266e-03 1.239168448335e-02 0.0 
0.0 0.0 0.0 
-2.817341237797e-04 1.772874908647e-03 0.0 
1.772874908647e-03 1.286792821154e-02 0.0 
0.0 0.0 0.0 
1.851884713775e-03 2.318464571158e-03 0.0 
2.318464571158e-03 4.815169691359e-04 0.0 
0.0 0.0 0.0 
-8.069252124219e-05 2.667245367553e-03 0.0 
2.667245367553e-03 1.080882387134e-02 0.0 
0.0 0.0 0.0 
-1.427854214838e-03 1.410374785978e-03 0.0 
1.410374785978e-03 1.026569930225e-02 0.0 
0.0 0.0 0.0 
2.387044702799e-03 1.748202105988e-03 0.0 
1.748202105988e-03 -2.335200361636e-03 0.0 
0.0 0.0 0.0 
2.793134765570e-05 2.697211798346e-03 0.0 
2.697211798346e-03 1.003569954556e-02 0.0 
0.0 0.0 0.0 
-1.051501356060e-03 1.309554129982e-03 0.0 
1.309554129982e-03 1.203793234527e-02 0.0 
0.0 0.0 0.0 
-1.129765620278e-03 1.364417305787e-03 0.0 
1.364417305787e-03 1.173824072394e-02 0.0 
0.0 0.0 0.0 
-1.193531755769e-03 1.165999618376e-03 0.0 
1.165999618376e-03 1.178219171047e-02 0.0 
0.0 0.0 0.0 
-2.556027969260e-04 1.473562576351e-03 0.0 
1.473562576351e-03 1.318083297065e-02 0.0 
0.0 0.0 0.0 
-1.120512611684e-03 4.620293271306e-04 0.0 
4.620293271306e-04 1.174439606805e-02 0.0 
0.0 0.0 0.0 
2.149121273179e-04 2.383585576873e-03 0.0 
2.383585576873e-03 8.616727206361e-03 0.0 
0.0 0.0 0.0 
1.693218435863e-03 1.493534769028e-03 0.0 
1.493534769028e-03 4.025844127467e-03 0.0 
0.0 0.0 0.0 
1.626849314529e-03 1.725015721937e-03 0.0 
1.725015721937e-03 4.073427141078e-03 0.0 
0.0 0.0 0.0 
1.741056018342e-03 1.753898125415e-03 0.0 
1.753898125415e-03 3.477435937818e-03 0.0 
0.0 0.0 0.0 
-9.186214824248e-04 1.753955015177e-03 0.0 
1.753955015177e-03 1.152107249383e-02 0.0 
0.0 0.0 0.0 
3.351733992993e-04 1.649644916916e-03 0.0 
1.649644916916e-03 7.522460786091e-03 0.0 
0.0 0.0 0.0 
6.233102607808e-04 1.440684416393e-03 0.0 
1.440684416393e-03 6.876657397001e-03 0.0 
0.0 0.0 0.0 
6.154187667285e-04 1.254780685352e-03 0.0 
1.254780685352e-03 6.743207350208e-03 0.0 
0.0 0.0 0.0 
8.830588394284e-04 1.242273614093e-03 0.0 
1.242273614093e-03 6.218083220434e-03 0.0 
0.0 0.0 0.0 
3.279503350803e-04 1.243829245007e-03 0.0 
1.243829245007e-03 7.244760881427e-03 0.0 
0.0 0.0 0.0 
-1.960222476834e-04 2.401892952570e-03 0.0 
2.401892952570e-03 1.186025350541e-02 0.0 
0.0 0.0 0.0 
-1.556351146741e-04 2.520729441731e-03 0.0 
2.520729441731e-03 1.154767091929e-02 0.0 
0.0 0.0 0.0 
1.469736764156e-03 -1.763170995271e-03 0.0 
-1.763170995271e-03 -2.053773231847e-04 0.0 
0.0 0.0 0.0 
1.910153495649e-03 -1.339746529958e-03 0.0 
-1.339746529958e-03 -3.611262736467e-04 0.0 
0.0 0.0 0.0 
1.946009810573e-03 -1.035957587876e-03 0.0 
-1.035957587876e-03 2.371050943328e-04 0.0 
0.0 0.0 0.0 
2.224695019932e-03 -8.154320158162e-04 0.0 
-8.154320158162e-04 -3.345715559522e-04 0.0 
0.0 0.0 0.0 
2.236767450587e-03 -1.097686259031e-03 0.0 
-1.097686259031e-03 -1.048381096052e-03 0.0 
0.0 0.0 0.0 
2.474522090181e-03 -4.478286268632e-04 0.0 
-4.478286268632e-04 -8.768793920871e-04 0.0 
0.0 0.0 0.0 
2.399696759170e-03 -2.587233476896e-04 0.0 
-2.587233476896e-04 -1.146223513535e-04 0.0 
0.0 0.0 0.0 
2.645726227984e-03 8.275647104352e-05 0.0 
8.275647104352e-05 -1.323473262665e-03 0.0 
0.0 0.0 0.0 
-4.703762577760e-04 2.262169774940e-03 0.0 
2.262169774940e-03 1.051658439677e-02 0.0 
0.0 0.0 0.0 
2.796290201939e-04 8.746913271527e-04 0.0 
8.746913271527e-04 7.130209475770e-03 0.0 
0.0 0.0 0.0 
1.182709479916e-03 -2.536455874850e-04 0.0 
-2.536455874850e-04 3.691893252462e-03 0.0 
0.0 0.0 0.0 
1.371424656614e-03 -2.429666252920e-04 0.0 
-2.429666252920e-04 3.323602368612e-03 0.0 
0.0 0.0 0.0 
1.431262249379e-03 -4.476016712521e-04 0.0 
-4.476016712521e-04 2.799349255981e-03 0.0 
0.0 0.0 0.0 
2.460837725734e-04 -6.884417696674e-04 0.0 
-6.884417696674e-04 3.256890601007e-03 0.0 
0.0 0.0 0.0 
3.919841793455e-04 -7.169138221209e-04 0.0 
-7.169138221209e-04 3.312241460605e-03 0.0 
0.0 0.0 0.0 
4.455858152652e-04 -5.970607071269e-04 0.0 
-5.970607071269e-04 3.676623133812e-03 0.0 
0.0 0.0 0.0 
1.246565638019e-04 -6.290525931545e-04 0.0 
-6.290525931545e-04 3.183650982125e-03 0.0 
0.0 0.0 0.0 
5.098249209156e-04 2.352103434388e-03 0.0 
2.352103434388e-03 7.092618658378e-03 0.0 
0.0 0.0 0.0 
2.555402175784e-04 7.093691252077e-04 0.0 
7.093691252077e-04 7.097162821665e-03 0.0 
0.0 0.0 0.0 
1.821253396491e-03 5.004639431953e-04 0.0 
5.004639431953e-04 3.216961640720e-03 0.0 
0.0 0.0 0.0 
4.883479272721e-04 -8.469869649778e-04 0.0 
-8.469869649778e-04 2.996792779046e-03 0.0 
0.0 0.0 0.0 
-1.228854714517e-03 2.571454509960e-04 0.0 
2.571454509960e-04 1.073825245006e-02 0.0 
0.0 0.0 0.0 
-1.280376472006e-03 4.227409700668e-04 0.0 
4.227409700668e-04 1.106028799760e-02 0.0 
0.0 0.0 0.0 
-1.357505743518e-03 5.328995008286e-04 0.0 
5.328995008286e-04 1.102764698102e-02 0.0 
0.0 0.0 0.0 
-1.303250192333e-03 6.173857201736e-04 0.0 
6.173857201736e-04 1.137613764910e-02 0.0 
0.0 0.0 0.0 
-1.216143236886e-03 3.368498217749e-04 0.0 
3.368498217749e-04 1.112219775544e-02 0.0 
0.0 0.0 0.0 
1.720974617321e-04 -3.799597793882e-04 0.0 
-3.799597793882e-04 4.135749521476e-03 0.0 
0.0 0.0 0.0 
1.203833463876e-04 -2.862092959167e-04 0.0 
-2.862092959167e-04 4.376398442726e-03 0.0 
0.0 0.0 0.0 
5.781356827106e-05 -2.466439785914e-04 0.0 
-2.466439785914e-04 4.233310421698e-03 0.0 
0.0 0.0 0.0 
8.013344710770e-05 -2.024515918090e-04 0.0 
-2.024515918090e-04 4.601433035427e-03 0.0 
0.0 0.0 0.0 
3.393967438159e-05 -1.642235467519e-04 0.0 
-1.642235467519e-04 4.431457660134e-03 0.0 
0.0 0.0 0.0 
1.309730175497e-05 -1.968725856176e-04 0.0 
-1.968725856176e-04 4.092984351145e-03 0.0 
0.0 0.0 0.0 
4.969007424682e-05 -1.278729306548e-04 0.0 
-1.278729306548e-04 4.806809188409e-03 0.0 
0.0 0.0 0.0 
1.518622670730e-05 -9.025641522149e-05 0.0 
-9.025641522149e-05 4.592903137180e-03 0.0 
0.0 0.0 0.0 
-1.109219731957e-03 1.418766748062e-04 0.0 
1.418766748062e-04 1.074555112887e-02 0.0 
0.0 0.0 0.0 
-1.282920420280e-03 -1.943293633456e-03 0.0 
-1.943293633456e-03 -9.106508666147e-04 0.0 
0.0 0.0 0.0 
-7.496268188676e-04 -2.327916264335e-03 0.0 
-2.327916264335e-03 -5.878499657013e-04 0.0 
0.0 0.0 0.0 
-8.737249690105e-04 -1.650122093611e-03 0.0 
-1.650122093611e-03 2.923882541906e-04 0.0 
0.0 0.0 0.0 
-3.799308508639e-04 -2.372495163825e-03 0.0 
-2.372495163825e-03 -3.832470207183e-04 0.0 
0.0 0.0 0.0 
3.506622222506e-04 -2.560790729797e-03 0.0 
-2.560790729797e-03 -1.693076154561e-03 0.0 
0.0 0.0 0.0 
5.021066790868e-04 -2.500452946131e-03 0.0 
-2.500452946131e-03 -1.134207204641e-03 0.0 
0.0 0.0 0.0 
1.227007697065e-03 -2.385048747398e-03 0.0 
-2.385048747398e-03 -2.368961829141e-03 0.0 
0.0 0.0 0.0 
-5.981610351946e-05 -2.485976722153e-03 0.0 
-2.485976722153e-03 -2.355670000947e-03 0.0 
0.0 0.0 0.0 
-6.712082156679e-04 -6.139146097315e-04 0.0 
-6.139146097315e-04 3.555326690201e-04 0.0 
0.0 0.0 0.0 
-7.222149751717e-04 -1.088181938531e-03 0.0 
-1.088181938531e-03 5.707080811528e-04 0.0 
0.0 0.0 0.0 
-2.948786485070e-04 -3.430402901919e-04 0.0 
-3.430402901919e-04 3.173858992907e-04 0.0 
0.0 0.0 0.0 
-5.178610083854e-04 -7.077557598011e-04 0.0 
-7.077557598011e-04 6.399673086008e-04 0.0 
0.0 0.0 0.0 
-6.324824996168e-04 -1.381676196905e-03 0.0 
-1.381676196905e-03 7.717493256368e-04 0.0 
0.0 0.0 0.0 
-3.573638460903e-04 -9.560065119632e-04 0.0 
-9.560065119632e-04 1.403710461560e-03 0.0 
0.0 0.0 0.0 
2.641387730422e-05 1.352638805663e-05 0.0 
1.352638805663e-05 7.323511975226e-03 0.0 
0.0 0.0 0.0 
-5.635873714493e-05 -8.353805927208e-05 0.0 
-8.353805927208e-05 3.584456645123e-03 0.0 
0.0 0.0 0.0 
-6.006464060547e-05 -1.676518213123e-04 0.0 
-1.676518213123e-04 3.396595456055e-03 0.0 
0.0 0.0 0.0 
-7.174205043285e-05 -1.684833995648e-04 0.0 
-1.684833995648e-04 3.053740794901e-03 0.0 
0.0 0.0 0.0 
-5.399476293739e-05 -2.674046952126e-04 0.0 
-2.674046952126e-04 3.209566462970e-03 0.0 
0.0 0.0 0.0 
-3.877163230576e-05 -1.550986413066e-04 0.0 
-1.550986413066e-04 3.716031574357e-03 0.0 
0.0 0.0 0.0 
-7.636183983841e-05 -8.140576568356e-05 0.0 
-8.140576568356e-05 2.870052686134e-03 0.0 
0.0 0.0 0.0 
-7.206744458321e-05 -1.607956535636e-04 0.0 
-1.607956535636e-04 2.726183358684e-03 0.0 
0.0 0.0 0.0 
5.414035459314e-04 -2.051004355168e-05 0.0 
-2.051004355168e-05 2.463924723090e-05 0.0 
0.0 0.0 0.0 
3.993307765073e-04 -3.979102811704e-05 0.0 
-3.979102811704e-05 4.001310161258e-04 0.0 
0.0 0.0 0.0 
4.361556254941e-04 -6.574257698817e-06 0.0 
-6.574257698817e-06 3.517695465448e-04 0.0 
0.0 0.0 0.0 
2.666618862285e-04 -5.097092648914e-05 0.0 
-5.097092648914e-05 8.064419101339e-04 0.0 
0.0 0.0 0.0 
2.564817576477e-04 -8.423176942210e-05 0.0 
-8.423176942210e-05 7.992586277990e-04 0.0 
0.0 0.0 0.0 
3.786736645620e-04 -5.762962033810e-05 0.0 
-5.762962033810e-05 4.105716933765e-04 0.0 
0.0 0.0 0.0 
3.382678352985e-04 -7.463873724120e-05 0.0 
-7.463873724120e-05 4.279425275175e-04 0.0 
0.0 0.0 0.0 
4.886326619724e-04 -3.719101654771e-05 0.0 
-3.719101654771e-05 4.741936293643e-05 0.0 
0.0 0.0 0.0 
2.848742808461e-04 -9.947651545535e-05 0.0 
-9.947651545535e-05 4.529700815049e-04 0.0 
0.0 0.0 0.0 
1.629245640195e-04 -1.584623460889e-04 0.0 
-1.584623460889e-04 8.514575905008e-04 0.0 
0.0 0.0 0.0 
4.549369217451e-04 -4.842179140882e-05 0.0 
-4.842179140882e-05 5.288096509659e-05 0.0 
0.0 0.0 0.0 
-5.931797286858e-04 3.837668044889e-05 0.0 
3.837668044889e-05 1.249888641683e-02 0.0 
0.0 0.0 0.0 
-5.427489964162e-04 9.029957102680e-05 0.0 
9.029957102680e-05 1.269274126286e-02 0.0 
0.0 0.0 0.0 
2.106847716812e-04 4.336190643670e-04 0.0 
4.336190643670e-04 7.079037680812e-03 0.0 
0.0 0.0 0.0 
-1.005691639372e-03 8.400560958288e-05 0.0 
8.400560958288e-05 1.078108918750e-02 0.0 
0.0 0.0 0.0 
4.514183455279e-05 -1.465729575216e-04 0.0 
-1.465729575216e-04 2.213668711421e-04 0.0 
0.0 0.0 0.0 
-1.830208209209e-04 3.609746153142e-04 0.0 
3.609746153142e-04 1.364381496531e-02 0.0 
0.0 0.0 0.0 
-1.898704331367e-04 6.629430828949e-04 0.0 
6.629430828949e-04 1.362270999611e-02 0.0 
0.0 0.0 0.0 
-1.683411568109e-04 5.646877078688e-04 0.0 
5.646877078688e-04 1.365775872671e-02 0.0 
0.0 0.0 0.0 
2.093294155192e-05 -6.113017982506e-06 0.0 
-6.113017982506e-06 6.704529926278e-03 0.0 
0.0 0.0 0.0 
2.632331656016e-05 -6.711718983178e-06 0.0 
-6.711718983178e-06 6.903199008918e-03 0.0 
0.0 0.0 0.0 
-1.618886861857e-04 2.037889690712e-04 0.0 
2.037889690712e-04 1.367185961929e-02 0.0 
0.0 0.0 0.0 
-3.909682820310e-05 -9.842038679784e-04 0.0 
-9.842038679784e-04 2.094567274471e-03 0.0 
0.0 0.0 0.0 
-5.831902434074e-04 1.779291248402e-03 0.0 
1.779291248402e-03 1.241585378309e-02 0.0 
0.0 0.0 0.0 
-4.620965896084e-04 3.574167871939e-04 0.0 
3.574167871939e-04 1.310648164602e-02 0.0 
0.0 0.0 0.0 
1.788314035095e-03 2.507816789374e-03 0.0 
2.507816789374e-03 -1.740985765666e-03 0.0 
0.0 0.0 0.0 
1.964466612362e-04 -1.562769013905e-03 0.0 
-1.562769013905e-03 1.453882586461e-03 0.0 
0.0 0.0 0.0 
9.365716891766e-05 -1.116753217103e-04 0.0 
-1.116753217103e-04 5.383718696953e-03 0.0 
0.0 0.0 0.0 
4.769184191062e-04 -3.495799631161e-04 0.0 
-3.495799631161e-04 4.472133329828e-03 0.0 
0.0 0.0 0.0 
1.481064415729e-04 -4.713094625786e-05 0.0 
-4.713094625786e-05 6.170624014463e-03 0.0 
0.0 0.0 0.0 
2.042432161706e-04 -2.334672699642e-04 0.0 
-2.334672699642e-04 4.901557816975e-03 0.0 
0.0 0.0 0.0 
3.102161785972e-04 -9.530203822821e-05 0.0 
-9.530203822821e-05 5.640833424235e-03 0.0 
0.0 0.0 0.0 
6.129099207478e-04 1.043755138030e-03 0.0 
1.043755138030e-03 6.597471138965e-03 0.0 
0.0 0.0 0.0 
6.725507861673e-05 -1.694504618354e-04 0.0 
-1.694504618354e-04 1.464255226009e-03 0.0 
0.0 0.0 0.0 
-9.189310891001e-04 2.642930361228e-04 0.0 
2.642930361228e-04 1.184465222156e-02 0.0 
0.0 0.0 0.0 
-8.324599262854e-04 1.378986099502e-04 0.0 
1.378986099502e-04 1.169433358961e-02 0.0 
0.0 0.0 0.0 
-6.797416923860e-04 3.257752204349e-04 0.0 
3.257752204349e-04 1.259362978439e-02 0.0 
0.0 0.0 0.0 
-7.174766619574e-05 -5.580202094028e-04 0.0 
-5.580202094028e-04 2.428876285120e-03 0.0 
0.0 0.0 0.0 
3.115290655057e-05 -2.901215973354e-04 0.0 
-2.901215973354e-04 3.884910090033e-03 0.0 
0.0 0.0 0.0 
-1.396330765328e-04 -5.134469224916e-04 0.0 
-5.134469224916e-04 1.580091073483e-03 0.0 
0.0 0.0 0.0 
5.357264335833e-06 2.575809735193e-03 0.0 
2.575809735193e-03 9.887426265189e-03 0.0 
0.0 0.0 0.0 
-1.137518926809e-03 2.053716411165e-03 0.0 
2.053716411165e-03 9.075885657879e-03 0.0 
0.0 0.0 0.0 
1.255950822124e-03 -6.597740848642e-04 0.0 
-6.597740848642e-04 2.704222111829e-03 0.0 
0.0 0.0 0.0 
1.659547367271e-04 -7.648455393417e-04 0.0 
-7.648455393417e-04 2.928531603398e-03 0.0 
0.0 0.0 0.0 
1.138649226084e-04 -1.144928660637e-03 0.0 
-1.144928660637e-03 2.092956130412e-03 0.0 
0.0 0.0 0.0 
2.725032517462e-04 -1.811384964282e-03 0.0 
-1.811384964282e-03 1.036838319886e-03 0.0 
0.0 0.0 0.0 
7.585532584600e-04 2.651002408913e-03 0.0 
2.651002408913e-03 4.655312871451e-03 0.0 
0.0 0.0 0.0 
6.805703801247e-04 -8.217320660272e-04 0.0 
-8.217320660272e-04 3.016878512072e-03 0.0 
0.0 0.0 0.0 
7.592434123688e-04 -7.311174945763e-05 0.0 
-7.311174945763e-05 4.884538283248e-03 0.0 
0.0 0.0 0.0 
-5.902565357385e-04 3.034643441075e-04 0.0 
3.034643441075e-04 1.278081484709e-02 0.0 
0.0 0.0 0.0 
2.753376506460e-04 -8.501228560449e-05 0.0 
-8.501228560449e-05 1.676317721983e-04 0.0 
0.0 0.0 0.0 
8.170297541980e-04 6.817186803481e-05 0.0 
6.817186803481e-05 5.069814655486e-03 0.0 
0.0 0.0 0.0 
7.397200108429e-04 -4.937481755230e-04 0.0 
-4.937481755230e-04 3.824930541560e-03 0.0 
0.0 0.0 0.0 
-1.038695460152e-03 4.619941262515e-04 0.0 
4.619941262515e-04 1.195861456624e-02 0.0 
0.0 0.0 0.0 
1.334025958116e-03 1.391637736443e-03 0.0 
1.391637736443e-03 5.274046602602e-03 0.0 
0.0 0.0 0.0 
1.949027761114e-04 -2.395240526222e-03 0.0 
-2.395240526222e-03 -2.715080508351e-04 0.0 
0.0 0.0 0.0 
-7.469521777761e-04 5.461516799420e-04 0.0 
5.461516799420e-04 1.268783769889e-02 0.0 
0.0 0.0 0.0 
-5.832518701691e-04 1.105993835348e-03 0.0 
1.105993835348e-03 1.301009098233e-02 0.0 
0.0 0.0 0.0 
-1.193526266103e-03 4.648081970050e-04 0.0 
4.648081970050e-04 1.152677725825e-02 0.0 
0.0 0.0 0.0 
-7.905646689155e-05 -3.821333838368e-04 0.0 
-3.821333838368e-04 1.202163191205e-03 0.0 
0.0 0.0 0.0 
-9.588681098510e-04 1.804512929155e-04 0.0 
1.804512929155e-04 1.145532351206e-02 0.0 
0.0 0.0 0.0 
6.228429779943e-04 5.142506349991e-04 0.0 
5.142506349991e-04 6.141479024853e-03 0.0 
0.0 0.0 0.0 
-1.009656297206e-03 1.074312456638e-03 0.0 
1.074312456638e-03 1.230958038552e-02 0.0 
0.0 0.0 0.0 
-8.079299235906e-05 -4.261687239594e-04 0.0 
-4.261687239594e-04 2.274667332095e-03 0.0 
0.0 0.0 0.0 
2.078166683186e-03 5.888475781540e-04 0.0 
5.888475781540e-04 2.358319760100e-03 0.0 
0.0 0.0 0.0 
-1.331668597586e-04 2.640121046675e-03 0.0 
2.640121046675e-03 6.772572902997e-03 0.0 
0.0 0.0 0.0 
-1.463036404392e-03 6.653708056974e-04 0.0 
6.653708056974e-04 1.018658888497e-02 0.0 
0.0 0.0 0.0 
-4.196031598735e-04 4.472779449919e-04 0.0 
4.472779449919e-04 1.322966273345e-02 0.0 
0.0 0.0 0.0 
1.319896736688e-03 2.179582013731e-03 0.0 
2.179582013731e-03 4.403328020264e-03 0.0 
0.0 0.0 0.0 
1.165083665804e-03 1.118466206486e-03 0.0 
1.118466206486e-03 5.517795094570e-03 0.0 
0.0 0.0 0.0 
1.770111464638e-03 7.975672257789e-04 0.0 
7.975672257789e-04 3.640059004988e-03 0.0 
0.0 0.0 0.0 
-7.256132865609e-05 -3.372683619256e-04 0.0 
-3.372683619256e-04 2.459511322134e-03 0.0 
0.0 0.0 0.0 
5.126961941440e-04 4.744271219004e-05 0.0 
4.744271219004e-05 5.706000479802e-03 0.0 
0.0 0.0 0.0 
1.958312105191e-03 1.495716668091e-03 0.0 
1.495716668091e-03 2.777091695449e-03 0.0 
0.0 0.0 0.0 
-6.072832417327e-04 6.391133035034e-04 0.0 
6.391133035034e-04 1.299506444237e-02 0.0 
0.0 0.0 0.0 
-1.225255477403e-04 2.375341710151e-03 0.0 
2.375341710151e-03 8.767600777242e-03 0.0 
0.0 0.0 0.0 
2.390186500567e-03 7.625559455465e-04 0.0 
7.625559455465e-04 8.046134421194e-04 0.0 
0.0 0.0 0.0 
-8.139136080969e-04 8.396397984499e-04 0.0 
8.396397984499e-04 1.270266162186e-02 0.0 
0.0 0.0 0.0 
1.634753540511e-03 -4.081806820768e-04 0.0 
-4.081806820768e-04 2.402335126766e-03 0.0 
0.0 0.0 0.0 
1.161313182112e-03 1.611582525020e-03 0.0 
1.611582525020e-03 5.843283701445e-03 0.0 
0.0 0.0 0.0 
-9.897491986546e-04 2.258263527503e-03 0.0 
2.258263527503e-03 8.475660813463e-03 0.0 
0.0 0.0 0.0 
-2.247829561557e-04 2.427998024542e-03 0.0 
2.427998024542e-03 8.110114368463e-03 0.0 
0.0 0.0 0.0 
-8.872036098020e-04 2.014423034589e-03 0.0 
2.014423034589e-03 1.022281866907e-02 0.0 
0.0 0.0 0.0 
5.329598626371e-04 2.474234446069e-03 0.0 
2.474234446069e-03 6.267059756689e-03 0.0 
0.0 0.0 0.0 
5.641265538795e-05 -8.959312371330e-05 0.0 
-8.959312371330e-05 5.205110185038e-03 0.0 
0.0 0.0 0.0 
6.572970199675e-04 5.764030959898e-05 0.0 
5.764030959898e-05 5.392263877442e-03 0.0 
0.0 0.0 0.0 
2.519748685444e-03 -9.753059045882e-04 0.0 
-9.753059045882e-04 -3.421219870537e-03 0.0 
0.0 0.0 0.0 
5.321225481384e-04 2.867134664794e-03 0.0 
2.867134664794e-03 3.928342148385e-03 0.0 
0.0 0.0 0.0 
-1.140813535159e-03 6.005093946408e-04 0.0 
6.005093946408e-04 1.187442285014e-02 0.0 
0.0 0.0 0.0 
2.320532154661e-04 2.402807383782e-03 0.0 
2.402807383782e-03 8.604828054471e-03 0.0 
0.0 0.0 0.0 
-4.395411872116e-04 7.231555281946e-04 0.0 
7.231555281946e-04 1.327984231222e-02 0.0 
0.0 0.0 0.0 
-2.271124829344e-04 2.708124720700e-03 0.0 
2.708124720700e-03 6.491059577247e-03 0.0 
0.0 0.0 0.0 
4.736407077531e-04 -4.924010723227e-05 0.0 
-4.924010723227e-05 5.516959571117e-03 0.0 
0.0 0.0 0.0 
-6.424284179810e-04 9.529126926668e-04 0.0 
9.529126926668e-04 1.297083762031e-02 0.0 
0.0 0.0 0.0 
5.550011832301e-04 -7.077461942981e-04 0.0 
-7.077461942981e-04 3.358572322548e-03 0.0 
0.0 0.0 0.0 
4.252824994022e-05 -5.777201600766e-05 0.0 
-5.777201600766e-05 1.714876232009e-03 0.0 
0.0 0.0 0.0 
1.305716162955e-03 2.730192888410e-03 0.0 
2.730192888410e-03 -1.974327184635e-03 0.0 
0.0 0.0 0.0 
2.589511238372e-03 7.310153459357e-04 0.0 
7.310153459357e-04 -7.280290272610e-04 0.0 
0.0 0.0 0.0 
1.582982359307e-03 2.019703381926e-03 0.0 
2.019703381926e-03 3.637147190660e-03 0.0 
0.0 0.0 0.0 
5.920459784980e-04 -5.640854063895e-04 0.0 
-5.640854063895e-04 3.746213823658e-03 0.0 
0.0 0.0 0.0 
-5.213459377790e-04 1.560900768181e-03 0.0 
1.560900768181e-03 1.277724888233e-02 0.0 
0.0 0.0 0.0 
3.564499735963e-04 -3.419564875785e-05 0.0 
-3.419564875785e-05 5.813627374706e-03 0.0 
0.0 0.0 0.0 
1.187977564205e-03 3.269207521769e-04 0.0 
3.269207521769e-04 4.668903303426e-03 0.0 
0.0 0.0 0.0 
-1.339513935337e-03 3.007724313721e-03 0.0 
3.007724313721e-03 6.971806499651e-04 0.0 
0.0 0.0 0.0 
-1.513745432969e-03 9.619562270148e-04 0.0 
9.619562270148e-04 1.016818594810e-02 0.0 
0.0 0.0 0.0 
2.559911484353e-04 -2.165205951638e-05 0.0 
-2.165205951638e-05 6.098982157093e-03 0.0 
0.0 0.0 0.0 
1.965725073915e-03 3.647469249796e-04 0.0 
3.647469249796e-04 2.588290922669e-03 0.0 
0.0 0.0 0.0 
1.115883799824e-03 1.469037938801e-03 0.0 
1.469037938801e-03 5.879364729452e-03 0.0 
0.0 0.0 0.0 
-1.949653174830e-06 -1.177385696132e-04 0.0 
-1.177385696132e-04 4.242588904097e-03 0.0 
0.0 0.0 0.0 
1.012885780427e-04 2.555076712437e-03 0.0 
2.555076712437e-03 9.461101617552e-03 0.0 
0.0 0.0 0.0 
-1.439236947598e-03 1.762015494129e-03 0.0 
1.762015494129e-03 8.689311508572e-03 0.0 
0.0 0.0 0.0 
1.718217580602e-04 -1.379874676763e-05 0.0 
-1.379874676763e-05 6.376526951673e-03 0.0 
0.0 0.0 0.0 
1.334863345787e-03 6.433037759627e-04 0.0 
6.433037759627e-04 4.700539743956e-03 0.0 
0.0 0.0 0.0 
1.539100824921e-03 2.528588407983e-03 0.0 
2.528588407983e-03 1.468366043567e-03 0.0 
0.0 0.0 0.0 
-8.437577908575e-04 1.154941545088e-05 0.0 
1.154941545088e-05 1.068582996359e-02 0.0 
0.0 0.0 0.0 
1.047823259003e-04 2.743278802286e-05 0.0 
2.743278802286e-05 6.906179256813e-03 0.0 
0.0 0.0 0.0 
1.117254324688e-03 7.753516287878e-04 0.0 
7.753516287878e-04 5.325081919669e-03 0.0 
0.0 0.0 0.0 
5.299363710473e-04 2.402551232337e-03 0.0 
2.402551232337e-03 6.674351780083e-03 0.0 
0.0 0.0 0.0 
1.937151562752e-03 2.243157349034e-05 0.0 
2.243157349034e-05 2.252313415842e-03 0.0 
0.0 0.0 0.0 
-1.498203160151e-03 8.550173563341e-04 0.0 
8.550173563341e-04 9.687483146625e-03 0.0 
0.0 0.0 0.0 
4.733919329011e-04 -4.729229907692e-04 0.0 
-4.729229907692e-04 4.063320867053e-03 0.0 
0.0 0.0 0.0 
-4.177167242329e-04 2.342589447209e-03 0.0 
2.342589447209e-03 8.773970105204e-03 0.0 
0.0 0.0 0.0 
-2.362600890328e-04 1.328739531524e-03 0.0 
1.328739531524e-03 1.330018850480e-02 0.0 
0.0 0.0 0.0 
1.023381816965e-03 9.948770457305e-04 0.0 
9.948770457305e-04 5.700590409668e-03 0.0 
0.0 0.0 0.0 
-1.262348056959e-03 1.223815091441e-03 0.0 
1.223815091441e-03 1.149120487107e-02 0.0 
0.0 0.0 0.0 
3.494091507928e-04 -4.926780488590e-04 0.0 
-4.926780488590e-04 3.972353493941e-03 0.0 
0.0 0.0 0.0 
1.277721482778e-03 1.898243009296e-03 0.0 
1.898243009296e-03 5.321850467052e-03 0.0 
0.0 0.0 0.0 
2.264962988401e-04 -1.143748476359e-04 0.0 
-1.143748476359e-04 8.120590355537e-04 0.0 
0.0 0.0 0.0 
-1.527453719336e-03 1.269250911370e-03 0.0 
1.269250911370e-03 9.552870960466e-03 0.0 
0.0 0.0 0.0 
2.658254980819e-04 -3.956896627662e-04 0.0 
-3.956896627662e-04 4.249906118975e-03 0.0 
0.0 0.0 0.0 
2.549414881772e-03 1.773848443989e-04 0.0 
1.773848443989e-04 -4.921049681798e-04 0.0 
0.0 0.0 0.0 
1.755138698250e-03 -1.170272247631e-04 0.0 
-1.170272247631e-04 2.593384365361e-03 0.0 
0.0 0.0 0.0 
5.728106261611e-04 2.082596181715e-03 0.0 
2.082596181715e-03 7.587039901753e-03 0.0 
0.0 0.0 0.0 
1.953033544602e-04 -3.068904768892e-04 0.0 
-3.068904768892e-04 4.510722248337e-03 0.0 
0.0 0.0 0.0 
2.446878277957e-03 2.778761991643e-04 0.0 
2.778761991643e-04 2.754655026131e-04 0.0 
0.0 0.0 0.0 
1.374924432824e-04 -2.268143948500e-04 0.0 
-2.268143948500e-04 4.755194841471e-03 0.0 
0.0 0.0 0.0 
-1.515147272786e-03 1.190174666218e-03 0.0 
1.190174666218e-03 9.119510716691e-03 0.0 
0.0 0.0 0.0 
-1.187197738286e-03 1.433062931225e-03 0.0 
1.433062931225e-03 1.141684782630e-02 0.0 
0.0 0.0 0.0 
9.164269350807e-05 -1.553110017208e-04 0.0 
-1.553110017208e-04 4.985634710854e-03 0.0 
0.0 0.0 0.0 
-3.440239277943e-04 2.329719243365e-03 0.0 
2.329719243365e-03 9.073367326048e-03 0.0 
0.0 0.0 0.0 
8.166687727177e-05 -2.278256705039e-04 0.0 
-2.278256705039e-04 9.196460700216e-04 0.0 
0.0 0.0 0.0 
7.497127507399e-04 2.304786880619e-03 0.0 
2.304786880619e-03 6.376072181973e-03 0.0 
0.0 0.0 0.0 
4.178637123897e-05 -1.971857950291e-05 0.0 
-1.971857950291e-05 6.457689564736e-03 0.0 
0.0 0.0 0.0 
6.016460239756e-04 -1.294888431437e-03 0.0 
-1.294888431437e-03 1.955649712046e-03 0.0 
0.0 0.0 0.0 
1.563691481427e-03 -2.016689235761e-04 0.0 
-2.016689235761e-04 2.953558543136e-03 0.0 
0.0 0.0 0.0 
-1.037312390927e-03 1.563731972908e-03 0.0 
1.563731972908e-03 1.165165470624e-02 0.0 
0.0 0.0 0.0 
-1.514745057981e-03 1.693960169785e-03 0.0 
1.693960169785e-03 8.240540589535e-03 0.0 
0.0 0.0 0.0 
1.466135238588e-03 -1.100071741313e-05 0.0 
-1.100071741313e-05 3.513098436961e-03 0.0 
0.0 0.0 0.0 
-2.781971683198e-04 2.338950828907e-03 0.0 
2.338950828907e-03 9.392455315782e-03 0.0 
0.0 0.0 0.0 
9.277548551986e-04 2.185948831059e-03 0.0 
2.185948831059e-03 6.145118256024e-03 0.0 
0.0 0.0 0.0 
1.503154478907e-03 1.957578687278e-03 0.0 
1.957578687278e-03 4.195791431490e-03 0.0 
0.0 0.0 0.0 
1.342483326448e-03 1.659769189050e-04 0.0 
1.659769189050e-04 4.084680239148e-03 0.0 
0.0 0.0 0.0 
-1.219192959613e-03 2.269480701937e-03 0.0 
2.269480701937e-03 7.366402669291e-03 0.0 
0.0 0.0 0.0 
-5.642636207951e-05 -1.159099181454e-03 0.0 
-1.159099181454e-03 1.853991192346e-03 0.0 
0.0 0.0 0.0 
-2.235056589094e-04 -1.103441526618e-03 0.0 
-1.103441526618e-03 1.631754300623e-03 0.0 
0.0 0.0 0.0 
2.311652781980e-03 -8.750388335126e-05 0.0 
-8.750388335126e-05 5.996135491257e-04 0.0 
0.0 0.0 0.0 
-3.971907548696e-04 2.299063502786e-03 0.0 
2.299063502786e-03 9.981547250575e-03 0.0 
0.0 0.0 0.0 
1.499101759356e-04 -1.012211577714e-04 0.0 
-1.012211577714e-04 1.188412292300e-03 0.0 
0.0 0.0 0.0 
-9.456098201812e-04 1.827880586568e-03 0.0 
1.827880586568e-03 1.112533943187e-02 0.0 
0.0 0.0 0.0 
-4.561243034051e-04 -1.097710344275e-03 0.0 
-1.097710344275e-03 1.226184066633e-03 0.0 
0.0 0.0 0.0 
2.184663767467e-03 -5.717550961252e-04 0.0 
-5.717550961252e-04 3.405785810642e-04 0.0 
0.0 0.0 0.0 
9.227271250513e-04 2.057906755317e-03 0.0 
2.057906755317e-03 6.542214774715e-03 0.0 
0.0 0.0 0.0 
-7.387744494022e-04 1.736691548359e-05 0.0 
1.736691548359e-05 1.178098292479e-02 0.0 
0.0 0.0 0.0 
1.941060606715e-03 -7.705989858061e-04 0.0 
-7.705989858061e-04 8.292582640520e-04 0.0 
0.0 0.0 0.0 
-2.300712969041e-05 -6.628612221136e-05 0.0 
-6.628612221136e-05 2.119884904798e-03 0.0 
0.0 0.0 0.0 
1.671993748651e-03 -1.139748924277e-03 0.0 
-1.139748924277e-03 7.933739667295e-04 0.0 
0.0 0.0 0.0 
1.400982164697e-03 1.916089491035e-03 0.0 
1.916089491035e-03 4.755574534345e-03 0.0 
0.0 0.0 0.0 
1.418278481844e-03 -1.157374205686e-03 0.0 
-1.157374205686e-03 1.320114466074e-03 0.0 
0.0 0.0 0.0 
1.093913506647e-03 -1.356732232532e-03 0.0 
-1.356732232532e-03 1.402612138421e-03 0.0 
0.0 0.0 0.0 
-3.171208865269e-04 4.054327174570e-04 0.0 
4.054327174570e-04 1.340875844824e-02 0.0 
0.0 0.0 0.0 
8.970555915139e-04 -1.247495297344e-03 0.0 
-1.247495297344e-03 1.868281147862e-03 0.0 
0.0 0.0 0.0 
-1.347318698908e-04 1.162096050734e-04 0.0 
1.162096050734e-04 1.372916405304e-02 0.0 
0.0 0.0 0.0 
8.681401684291e-06 -1.953786583994e-06 0.0 
-1.953786583994e-06 7.392260893596e-03 0.0 
0.0 0.0 0.0 
-8.183466769581e-04 4.628157904083e-06 0.0 
4.628157904083e-06 1.099468690491e-02 0.0 
0.0 0.0 0.0 
-1.447912302569e-03 2.175070052961e-03 0.0 
2.175070052961e-03 6.921679776593e-03 0.0 
0.0 0.0 0.0 
-1.367043853678e-03 1.124286212773e-04 0.0 
1.124286212773e-04 -4.064032641857e-03 0.0 
0.0 0.0 0.0 
-9.703800334853e-04 2.619156204966e-03 0.0 
2.619156204966e-03 5.668812173992e-03 0.0 
0.0 0.0 0.0 
4.236561046926e-04 -1.448212624918e-03 0.0 
-1.448212624918e-03 1.677559818533e-03 0.0 
0.0 0.0 0.0 
-7.608814503496e-04 2.073879525140e-03 0.0 
2.073879525140e-03 1.045993907365e-02 0.0 
0.0 0.0 0.0 
-8.236047015767e-04 2.279913510944e-05 0.0 
2.279913510944e-05 1.101451712116e-02 0.0 
0.0 0.0 0.0 
1.439037251701e-04 -1.342197845902e-03 0.0 
-1.342197845902e-03 1.796718652028e-03 0.0 
0.0 0.0 0.0 
-3.940870000636e-04 2.221545368295e-03 0.0 
2.221545368295e-03 1.176403492794e-02 0.0 
0.0 0.0 0.0 
1.267211138185e-04 2.601483446118e-03 0.0 
2.601483446118e-03 9.286981020208e-03 0.0 
0.0 0.0 0.0 
-6.408641079510e-04 7.432831304910e-05 0.0 
7.432831304910e-05 1.232746306731e-02 0.0 
0.0 0.0 0.0 
1.022911725738e-03 1.342389391834e-03 0.0 
1.342389391834e-03 5.967416077823e-03 0.0 
0.0 0.0 0.0 
1.055604023648e-03 2.050634790976e-03 0.0 
2.050634790976e-03 5.991666229970e-03 0.0 
0.0 0.0 0.0 
-3.871542955043e-04 5.490342923001e-05 0.0 
5.490342923001e-05 1.314976401078e-02 0.0 
0.0 0.0 0.0 
-9.053324326565e-04 2.483793945199e-05 0.0 
2.483793945199e-05 1.067653245938e-02 0.0 
0.0 0.0 0.0 
-3.488121841062e-04 -4.849449674095e-04 0.0 
-4.849449674095e-04 6.230086473123e-04 0.0 
0.0 0.0 0.0 
3.806914280957e-05 -3.753492173029e-05 0.0 
-3.753492173029e-05 5.435672701909e-03 0.0 
0.0 0.0 0.0 
-1.456600640808e-03 2.389844552055e-03 0.0 
2.389844552055e-03 5.418407168420e-03 0.0 
0.0 0.0 0.0 
-9.781078014659e-04 2.840480286836e-03 0.0 
2.840480286836e-03 4.044364661120e-03 0.0 
0.0 0.0 0.0 
-8.514103066226e-04 3.065945147688e-03 0.0 
3.065945147688e-03 2.353084708140e-03 0.0 
0.0 0.0 0.0 
-7.244463117967e-05 -2.476590076396e-04 0.0 
-2.476590076396e-04 2.608097386362e-03 0.0 
0.0 0.0 0.0 
-6.512935479895e-04 -1.844951644954e-03 0.0 
-1.844951644954e-03 4.079987046335e-04 0.0 
0.0 0.0 0.0 
-1.482147230079e-03 2.676051871802e-03 0.0 
2.676051871802e-03 3.989389855160e-03 0.0 
0.0 0.0 0.0 
6.191842585422e-04 1.610262929229e-03 0.0 
1.610262929229e-03 7.006500235007e-03 0.0 
0.0 0.0 0.0 
-1.047367602836e-03 1.582680868678e-04 0.0 
1.582680868678e-04 1.107451724777e-02 0.0 
0.0 0.0 0.0 
7.168737851131e-04 2.177658459204e-03 0.0 
2.177658459204e-03 7.165090195332e-03 0.0 
0.0 0.0 0.0 
-1.406006011561e-03 2.857745241238e-03 0.0 
2.857745241238e-03 2.391681444014e-03 0.0 
0.0 0.0 0.0 
-4.461644835155e-04 1.057148007402e-03 0.0 
1.057148007402e-03 1.320719249600e-02 0.0 
0.0 0.0 0.0 
3.880679541436e-04 2.326949550810e-03 0.0 
2.326949550810e-03 8.269151136334e-03 0.0 
0.0 0.0 0.0 
1.292631793759e-04 2.163785138098e-04 0.0 
2.163785138098e-04 7.197630982646e-03 0.0 
0.0 0.0 0.0 
5.779944866677e-04 2.224591284144e-03 0.0 
2.224591284144e-03 7.680725862391e-03 0.0 
0.0 0.0 0.0 
-5.661912941051e-04 3.213295970550e-03 0.0 
3.213295970550e-03 4.366238814063e-04 0.0 
0.0 0.0 0.0 
-1.253649516799e-03 4.860068560374e-04 0.0 
4.860068560374e-04 1.135419294629e-02 0.0 
0.0 0.0 0.0 
-9.096062251714e-05 2.557817727083e-03 0.0 
2.557817727083e-03 1.029301192264e-02 0.0 
0.0 0.0 0.0 
-5.862499158418e-04 1.298394107884e-04 0.0 
1.298394107884e-04 1.261177531320e-02 0.0 
0.0 0.0 0.0 
8.069025145567e-05 1.209345849814e-04 0.0 
1.209345849814e-04 7.298514795066e-03 0.0 
0.0 0.0 0.0 
-1.153043311122e-03 2.416963493357e-04 0.0 
2.416963493357e-04 1.102734593828e-02 0.0 
0.0 0.0 0.0 
-2.650214395744e-04 2.653650672998e-04 0.0 
2.653650672998e-04 1.346734827107e-02 0.0 
0.0 0.0 0.0 
1.947989260836e-03 -1.816542911509e-03 0.0 
-1.816542911509e-03 -3.106758710843e-03 0.0 
0.0 0.0 0.0 
-2.481188978006e-04 1.376754808934e-04 0.0 
1.376754808934e-04 1.347976730494e-02 0.0 
0.0 0.0 0.0 
-6.310653389728e-04 2.146270470077e-03 0.0 
2.146270470077e-03 1.071744514203e-02 0.0 
0.0 0.0 0.0 
-8.273476810211e-04 9.730316241686e-05 0.0 
9.730316241686e-05 1.151897002032e-02 0.0 
0.0 0.0 0.0 
-1.362819293976e-03 7.058029846257e-04 0.0 
7.058029846257e-04 1.123175565716e-02 0.0 
0.0 0.0 0.0 
3.013983918417e-05 4.339152222972e-07 0.0 
4.339152222972e-07 7.086549222103e-03 0.0 
0.0 0.0 0.0 
-4.742067621819e-04 1.932365267947e-03 0.0 
1.932365267947e-03 1.232803109896e-02 0.0 
0.0 0.0 0.0 
-2.922685470188e-04 3.217282437197e-03 0.0 
3.217282437197e-03 -8.684593092241e-04 0.0 
0.0 0.0 0.0 
-6.619790754692e-04 1.173785959279e-04 0.0 
1.173785959279e-04 1.231032803180e-02 0.0 
0.0 0.0 0.0 
-3.137177933268e-05 -3.673705501644e-04 0.0 
-3.673705501644e-04 3.172637828540e-03 0.0 
0.0 0.0 0.0 
3.709099396614e-04 -1.672518086419e-03 0.0 
-1.672518086419e-03 -3.876264338338e-03 0.0 
0.0 0.0 0.0 
3.508268463650e-04 3.549871827745e-04 0.0 
3.549871827745e-04 6.643862533384e-03 0.0 
0.0 0.0 0.0 
-4.954729261225e-04 2.227585624462e-03 0.0 
2.227585624462e-03 1.097330090753e-02 0.0 
0.0 0.0 0.0 
6.381110869915e-05 1.940682928223e-05 0.0 
1.940682928223e-05 7.004228366839e-03 0.0 
0.0 0.0 0.0 
2.865014247730e-04 -1.316718889154e-05 0.0 
-1.316718889154e-05 7.850026278512e-04 0.0 
0.0 0.0 0.0 
-5.815294584588e-06 -2.139027398998e-04 0.0 
-2.139027398998e-04 5.006248747103e-04 0.0 
0.0 0.0 0.0 
4.280347641771e-04 5.905239807382e-04 0.0 
5.905239807382e-04 6.673065925015e-03 0.0 
0.0 0.0 0.0 
-2.641759236140e-04 2.442409663499e-03 0.0 
2.442409663499e-03 1.115912014101e-02 0.0 
0.0 0.0 0.0 
1.428608408892e-03 -2.277394077632e-03 0.0 
-2.277394077632e-03 -1.947389887007e-03 0.0 
0.0 0.0 0.0 
-1.790087410532e-04 9.171480644130e-04 0.0 
9.171480644130e-04 1.357630630920e-02 0.0 
0.0 0.0 0.0 
-4.518311897966e-04 3.021036224138e-03 0.0 
3.021036224138e-03 -2.025499259319e-03 0.0 
0.0 0.0 0.0 
-9.619690833243e-04 5.029660773373e-05 0.0 
5.029660773373e-05 1.064788239747e-02 0.0 
0.0 0.0 0.0 
2.330214926511e-04 -1.284260230414e-04 0.0 
-1.284260230414e-04 4.472767000698e-04 0.0 
0.0 0.0 0.0 
5.678167960159e-05 4.253066411876e-05 0.0 
4.253066411876e-05 7.346131692105e-03 0.0 
0.0 0.0 0.0 
-3.395746004800e-04 6.695246932547e-04 0.0 
6.695246932547e-04 1.340750971036e-02 0.0 
0.0 0.0 0.0 
-3.836712009375e-05 -2.263138635764e-04 0.0 
-2.263138635764e-04 3.537364248209e-03 0.0 
0.0 0.0 0.0 
-1.352679328206e-03 4.605498012986e-04 0.0 
4.605498012986e-04 1.069204422631e-02 0.0 
0.0 0.0 0.0 
-5.500293098643e-05 -1.491384846534e-04 0.0 
-1.491384846534e-04 2.380122840709e-03 0.0 
0.0 0.0 0.0 
2.033169498578e-04 2.472814214613e-03 0.0 
2.472814214613e-03 8.925339068204e-03 0.0 
0.0 0.0 0.0 
-5.800182657375e-04 -9.239881890456e-04 0.0 
-9.239881890456e-04 8.717749989192e-04 0.0 
0.0 0.0 0.0 
-2.902006152275e-04 4.860755498029e-04 0.0 
4.860755498029e-04 1.347677478962e-02 0.0 
0.0 0.0 0.0 
5.009683999266e-04 8.995398403091e-04 0.0 
8.995398403091e-04 6.726367470976e-03 0.0 
0.0 0.0 0.0 
-4.481720490715e-04 1.463321022373e-03 0.0 
1.463321022373e-03 1.297183156134e-02 0.0 
0.0 0.0 0.0 
2.341477172958e-04 2.083534966689e-03 0.0 
2.083534966689e-03 8.140529826251e-03 0.0 
0.0 0.0 0.0 
2.237766312698e-04 9.546657097519e-04 0.0 
9.546657097519e-04 -4.325827017276e-03 0.0 
0.0 0.0 0.0 
2.634635134269e-04 2.458571909370e-03 0.0 
2.458571909370e-03 8.748504469784e-03 0.0 
0.0 0.0 0.0 
8.128865059996e-04 1.097001117977e-03 0.0 
1.097001117977e-03 6.234670353824e-03 0.0 
0.0 0.0 0.0 
-8.747988935204e-04 2.713581126442e-05 0.0 
2.713581126442e-05 1.066364191931e-02 0.0 
0.0 0.0 0.0 
-4.753505936164e-04 1.717633805504e-03 0.0 
1.717633805504e-03 1.264668137481e-02 0.0 
0.0 0.0 0.0 
-7.217172234153e-05 -2.414174513625e-04 0.0 
-2.414174513625e-04 2.902393053463e-03 0.0 
0.0 0.0 0.0 
4.686510118526e-05 -2.526378959256e-04 0.0 
-2.526378959256e-04 1.201438819857e-03 0.0 
0.0 0.0 0.0 
-1.087892424525e-04 5.499573242093e-05 0.0 
5.499573242093e-05 1.376613847952e-02 0.0 
0.0 0.0 0.0 
6.234252056779e-04 6.077138335527e-06 0.0 
6.077138335527e-06 -7.528043135854e-05 0.0 
0.0 0.0 0.0 
-8.346763516561e-04 -8.852401428220e-07 0.0 
-8.852401428220e-07 1.062250827803e-02 0.0 
0.0 0.0 0.0 
1.956831726035e-06 5.421640356750e-06 0.0 
5.421640356750e-06 7.495832453004e-03 0.0 
0.0 0.0 0.0 
1.544992499783e-04 -1.332006554808e-04 0.0 
-1.332006554808e-04 1.103901045595e-03 0.0 
0.0 0.0 0.0 
-8.000657744153e-04 2.331663909724e-05 0.0 
2.331663909724e-05 1.129373637982e-02 0.0 
0.0 0.0 0.0 
-3.159215925361e-04 2.352168216766e-03 0.0 
2.352168216766e-03 1.150308665211e-02 0.0 
0.0 0.0 0.0 
-1.148321908887e-05 -5.049225194572e-05 0.0 
-5.049225194572e-05 4.351825417511e-03 0.0 
0.0 0.0 0.0 
-4.561464508340e-04 8.820223873237e-05 0.0 
8.820223873237e-05 1.295721835356e-02 0.0 
0.0 0.0 0.0 
-2.350232963033e-04 -2.300332891892e-03 0.0 
-2.300332891892e-03 -9.680648194725e-05 0.0 
0.0 0.0 0.0 
-1.572259723521e-03 -6.314736796574e-04 0.0 
-6.314736796574e-04 -3.958009751064e-03 0.0 
0.0 0.0 0.0 
-7.100234672364e-04 4.629097176767e-05 0.0 
4.629097176767e-05 1.198438630873e-02 0.0 
0.0 0.0 0.0 
4.199781216164e-04 2.235223930534e-03 0.0 
2.235223930534e-03 8.044226073294e-03 0.0 
0.0 0.0 0.0 
-4.085860176779e-04 1.192885690775e-03 0.0 
1.192885690775e-03 1.320267617219e-02 0.0 
0.0 0.0 0.0 
-7.885352660897e-04 1.003951303216e-04 0.0 
1.003951303216e-04 1.172887686515e-02 0.0 
0.0 0.0 0.0 
7.054121953365e-04 2.935278452378e-03 0.0 
2.935278452378e-03 -1.786987614377e-03 0.0 
0.0 0.0 0.0 
-3.856167660350e-04 2.323667522457e-03 0.0 
2.323667522457e-03 1.117473675511e-02 0.0 
0.0 0.0 0.0 
-1.131710482453e-05 -2.239825873771e-04 0.0 
-2.239825873771e-04 3.795584924544e-03 0.0 
0.0 0.0 0.0 
-6.172707282268e-05 2.505266316871e-03 0.0 
2.505266316871e-03 9.828695226132e-03 0.0 
0.0 0.0 0.0 
8.108662555844e-04 1.434641059898e-03 0.0 
1.434641059898e-03 6.497634455005e-03 0.0 
0.0 0.0 0.0 
-1.406776305509e-03 3.015339855930e-03 0.0 
3.015339855930e-03 -1.499974792275e-03 0.0 
0.0 0.0 0.0 
6.113923995410e-06 -3.602208372485e-05 0.0 
-3.602208372485e-05 4.675904020898e-03 0.0 
0.0 0.0 0.0 
1.846532959022e-04 -1.477226789562e-04 0.0 
-1.477226789562e-04 4.260164372309e-04 0.0 
0.0 0.0 0.0 
1.942015336311e-04 1.530129430025e-04 0.0 
1.530129430025e-04 6.890119958400e-03 0.0 
0.0 0.0 0.0 
-1.783820777190e-05 -1.518621018933e-04 0.0 
-1.518621018933e-04 3.975870728641e-03 0.0 
0.0 0.0 0.0 
-1.129900030422e-03 4.875385269349e-04 0.0 
4.875385269349e-04 8.851548476712e-03 0.0 
0.0 0.0 0.0 
-8.587587659253e-04 3.716041275831e-06 0.0 
3.716041275831e-06 8.839067005447e-03 0.0 
0.0 0.0 0.0 
-1.192433196558e-03 4.798330232680e-04 0.0 
4.798330232680e-04 9.196176134074e-03 0.0 
0.0 0.0 0.0 
-8.374536497276e-04 -6.411284580887e-06 0.0 
-6.411284580887e-06 9.234416995751e-03 0.0 
0.0 0.0 0.0 
-1.271239617148e-03 3.901195445985e-04 0.0 
3.901195445985e-04 9.649841472154e-03 0.0 
0.0 0.0 0.0 
-8.390240341987e-04 -4.012428209397e-06 0.0 
-4.012428209397e-06 9.691455636532e-03 0.0 
0.0 0.0 0.0 
-1.301450793329e-03 3.335171725170e-04 0.0 
3.335171725170e-04 1.009386131865e-02 0.0 
0.0 0.0 0.0 
-8.437557503592e-04 3.623547113094e-06 0.0 
3.623547113094e-06 1.009758822912e-02 0.0 
0.0 0.0 0.0 

TENSORS node_materi_strain_plasti float
5.167194390135e-04 2.792726192703e-05 0.0 
2.792726192703e-05 -5.091425601016e-05 0.0 
0.0 0.0 -1.110302485635e-04 
-8.159302679306e-04 -1.118602645032e-04 0.0 
-1.118602645032e-04 4.584923598267e-03 0.0 
0.0 0.0 -6.959116756397e-04 
-1.346400199288e-03 7.365993999463e-05 0.0 
7.365993999463e-05 8.674335535019e-03 0.0 
0.0 0.0 -1.332621093165e-03 
-1.336402199564e-03 -8.793125074240e-05 0.0 
-8.793125074240e-05 8.913629531779e-03 0.0 
0.0 0.0 -1.332621093165e-03 
1.928535311059e-04 4.445651110295e-05 0.0 
4.445651110295e-05 2.423589004168e-04 0.0 
0.0 0.0 -1.369191294062e-04 
-9.495668909469e-05 1.176622379905e-04 0.0 
1.176622379905e-04 8.146285890130e-04 0.0 
0.0 0.0 -1.619080202416e-04 
-2.343145573296e-04 8.942200005953e-05 0.0 
8.942200005953e-05 1.222252270070e-03 0.0 
0.0 0.0 -2.266090766362e-04 
-3.672954214302e-04 7.638439199011e-05 0.0 
7.638439199011e-05 1.767422352355e-03 0.0 
0.0 0.0 -2.937643997455e-04 
-5.002542736311e-04 4.683642936848e-05 0.0 
4.683642936848e-05 2.251732040701e-03 0.0 
0.0 0.0 -3.610469555860e-04 
-5.984940266315e-04 4.060795555227e-05 0.0 
4.060795555227e-05 2.708456263927e-03 0.0 
0.0 0.0 -4.277228197774e-04 
-6.941224007828e-04 4.519221696703e-05 0.0 
4.519221696703e-05 3.166683324582e-03 0.0 
0.0 0.0 -4.940119848999e-04 
-7.849981096782e-04 3.520077417946e-05 0.0 
3.520077417946e-05 3.622095280725e-03 0.0 
0.0 0.0 -5.601824523721e-04 
-8.634318271181e-04 3.405437137357e-05 0.0 
3.405437137357e-05 4.067071864957e-03 0.0 
0.0 0.0 -6.267196139102e-04 
-9.449136089268e-04 5.218773157199e-05 0.0 
5.218773157199e-05 4.520788341368e-03 0.0 
0.0 0.0 -6.936951881209e-04 
-1.027632022584e-03 9.700470508409e-05 0.0 
9.700470508409e-05 5.010143413423e-03 0.0 
0.0 0.0 -7.607197531558e-04 
-1.071044468659e-03 1.108294767969e-04 0.0 
1.108294767969e-04 5.450697122990e-03 0.0 
0.0 0.0 -8.270758575053e-04 
-1.105211944346e-03 1.479813750871e-04 0.0 
1.479813750871e-04 5.811869455564e-03 0.0 
0.0 0.0 -8.903361771248e-04 
-1.161317049125e-03 4.285670301682e-05 0.0 
4.285670301682e-05 6.275431738875e-03 0.0 
0.0 0.0 -9.558084330571e-04 
-1.207984253662e-03 4.172859767407e-05 0.0 
4.172859767407e-05 6.727772586467e-03 0.0 
0.0 0.0 -1.024523475697e-03 
-1.248615658251e-03 4.538254462405e-05 0.0 
4.538254462405e-05 7.165565903975e-03 0.0 
0.0 0.0 -1.091244731156e-03 
-1.288520992697e-03 4.179778286610e-05 0.0 
4.179778286610e-05 7.610376257827e-03 0.0 
0.0 0.0 -1.158330123333e-03 
-1.323945144233e-03 5.638174444750e-05 0.0 
5.638174444750e-05 8.056170868355e-03 0.0 
0.0 0.0 -1.226073836101e-03 
-1.340882067222e-03 7.816548302147e-05 0.0 
7.816548302147e-05 8.489692749980e-03 0.0 
0.0 0.0 -1.289832767750e-03 
-1.333912568024e-03 1.756046241659e-05 0.0 
1.756046241659e-05 8.926507635803e-03 0.0 
0.0 0.0 -1.336902025401e-03 
-1.341531841891e-03 4.063150434003e-05 0.0 
4.063150434003e-05 8.912362216672e-03 0.0 
0.0 0.0 -1.332945767435e-03 
-1.342187123766e-03 7.210449397355e-07 0.0 
7.210449397355e-07 8.901177082135e-03 0.0 
0.0 0.0 -1.334903170087e-03 
-1.344938961940e-03 1.164426212685e-04 0.0 
1.164426212685e-04 8.903433830404e-03 0.0 
0.0 0.0 -1.334459899807e-03 
-1.344212628933e-03 9.914567390186e-05 0.0 
9.914567390186e-05 8.888325984844e-03 0.0 
0.0 0.0 -1.332067731643e-03 
-1.341871993109e-03 1.326692721992e-04 0.0 
1.326692721992e-04 8.883986467254e-03 0.0 
0.0 0.0 -1.335050935171e-03 
-1.332922157688e-03 1.596974021170e-04 0.0 
1.596974021170e-04 8.887152863323e-03 0.0 
0.0 0.0 -1.335055123498e-03 
-1.344556942280e-03 1.739185913509e-04 0.0 
1.739185913509e-04 8.882073809328e-03 0.0 
0.0 0.0 -1.333530254363e-03 
-1.342253888820e-03 1.667068933720e-04 0.0 
1.667068933720e-04 8.882815983630e-03 0.0 
0.0 0.0 -1.336259905589e-03 
-1.344452318304e-03 2.643241252995e-04 0.0 
2.643241252995e-04 8.877541720491e-03 0.0 
0.0 0.0 -1.335712483792e-03 
-1.344739962132e-03 2.572691983564e-04 0.0 
2.572691983564e-04 8.855364652133e-03 0.0 
0.0 0.0 -1.333313947604e-03 
-1.345949101879e-03 2.896022605016e-04 0.0 
2.896022605016e-04 8.845196808155e-03 0.0 
0.0 0.0 -1.335862559377e-03 
-1.335909137164e-03 3.249556087329e-04 0.0 
3.249556087329e-04 8.847942912603e-03 0.0 
0.0 0.0 -1.336097458551e-03 
-1.346297016590e-03 3.518589132456e-04 0.0 
3.518589132456e-04 8.821759431274e-03 0.0 
0.0 0.0 -1.335235043394e-03 
-1.338076461259e-03 3.735365560477e-04 0.0 
3.735365560477e-04 8.793020733369e-03 0.0 
0.0 0.0 -1.334297546486e-03 
-1.346016481544e-03 4.214840137430e-04 0.0 
4.214840137430e-04 8.754866417549e-03 0.0 
0.0 0.0 -1.332308435384e-03 
-1.347150914510e-03 4.365635291823e-04 0.0 
4.365635291823e-04 8.724212055446e-03 0.0 
0.0 0.0 -1.332019584455e-03 
-1.334805935481e-03 4.680081517091e-04 0.0 
4.680081517091e-04 8.718730927757e-03 0.0 
0.0 0.0 -1.333392124151e-03 
-1.340647727227e-03 4.849743108024e-04 0.0 
4.849743108024e-04 8.700750373122e-03 0.0 
0.0 0.0 -1.334727449481e-03 
-1.341060759155e-03 5.031254601797e-04 0.0 
5.031254601797e-04 8.669240053120e-03 0.0 
0.0 0.0 -1.336576889699e-03 
-1.339241076831e-03 5.376075265351e-04 0.0 
5.376075265351e-04 8.637791543921e-03 0.0 
0.0 0.0 -1.335888391555e-03 
-1.332755026613e-03 5.259793014087e-04 0.0 
5.259793014087e-04 8.604247702023e-03 0.0 
0.0 0.0 -1.334783226448e-03 
-1.333664649469e-03 5.288889005307e-04 0.0 
5.288889005307e-04 8.561550836847e-03 0.0 
0.0 0.0 -1.335053869153e-03 
-1.331458992258e-03 5.134063938371e-04 0.0 
5.134063938371e-04 8.519772984337e-03 0.0 
0.0 0.0 -1.334960189349e-03 
-1.329775199773e-03 4.941096024064e-04 0.0 
4.941096024064e-04 8.496416219376e-03 0.0 
0.0 0.0 -1.334889991128e-03 
-1.320977987653e-03 4.615461390730e-04 0.0 
4.615461390730e-04 8.462524191980e-03 0.0 
0.0 0.0 -1.335774086633e-03 
-1.330023044346e-03 4.207866190154e-04 0.0 
4.207866190154e-04 8.427010713301e-03 0.0 
0.0 0.0 -1.336605656894e-03 
-1.315269658186e-03 3.720833040210e-04 0.0 
3.720833040210e-04 8.401189310414e-03 0.0 
0.0 0.0 -1.336508443943e-03 
-1.322412415585e-03 3.115810119469e-04 0.0 
3.115810119469e-04 8.379908734224e-03 0.0 
0.0 0.0 -1.335343284290e-03 
-1.320222320207e-03 2.175575066663e-04 0.0 
2.175575066663e-04 8.369874127435e-03 0.0 
0.0 0.0 -1.337998490269e-03 
-1.323625080933e-03 2.169102620600e-04 0.0 
2.169102620600e-04 8.349200848827e-03 0.0 
0.0 0.0 -1.337247094005e-03 
-1.312935671626e-03 1.217875082846e-04 0.0 
1.217875082846e-04 8.314561017664e-03 0.0 
0.0 0.0 -1.333783489999e-03 
-1.312397425891e-03 3.014725865093e-05 0.0 
3.014725865093e-05 8.298029012834e-03 0.0 
0.0 0.0 -1.334548731617e-03 
-1.314310776006e-03 -5.112989789945e-05 0.0 
-5.112989789945e-05 8.327635469408e-03 0.0 
0.0 0.0 -1.334619746794e-03 
-1.313246555764e-03 -1.133769864441e-04 0.0 
-1.133769864441e-04 8.338916253329e-03 0.0 
0.0 0.0 -1.335242115105e-03 
-1.326565106495e-03 -1.841934828275e-04 0.0 
-1.841934828275e-04 8.356624519228e-03 0.0 
0.0 0.0 -1.335691437541e-03 
-1.316402114403e-03 -2.262767311367e-04 0.0 
-2.262767311367e-04 8.389795272091e-03 0.0 
0.0 0.0 -1.335646478247e-03 
-1.330105212687e-03 -2.663920673302e-04 0.0 
-2.663920673302e-04 8.407666559300e-03 0.0 
0.0 0.0 -1.334931242407e-03 
-1.321109516020e-03 -3.015612028738e-04 0.0 
-3.015612028738e-04 8.428571737695e-03 0.0 
0.0 0.0 -1.334100791702e-03 
-1.335356464641e-03 -3.106038152236e-04 0.0 
-3.106038152236e-04 8.460193799364e-03 0.0 
0.0 0.0 -1.332237298415e-03 
-1.339781698762e-03 -3.337514916052e-04 0.0 
-3.337514916052e-04 8.495913159923e-03 0.0 
0.0 0.0 -1.333749945600e-03 
-1.335675790289e-03 -3.025403687924e-04 0.0 
-3.025403687924e-04 8.551515458499e-03 0.0 
0.0 0.0 -1.336652505695e-03 
-1.332391445612e-03 -3.083574403233e-04 0.0 
-3.083574403233e-04 8.592419009515e-03 0.0 
0.0 0.0 -1.337094627689e-03 
-1.345644529791e-03 -2.793636126787e-04 0.0 
-2.793636126787e-04 8.558237333725e-03 0.0 
0.0 0.0 -1.328990728106e-03 
-1.337312800610e-03 -2.305068913709e-04 0.0 
-2.305068913709e-04 8.630917037025e-03 0.0 
0.0 0.0 -1.335900064369e-03 
-1.350772327614e-03 -1.956698568975e-04 0.0 
-1.956698568975e-04 8.640358950647e-03 0.0 
0.0 0.0 -1.332523500780e-03 
-1.350423109387e-03 -1.955618747409e-04 0.0 
-1.955618747409e-04 8.650889793805e-03 0.0 
0.0 0.0 -1.335219049675e-03 
-1.349098610006e-03 -8.965167155351e-05 0.0 
-8.965167155351e-05 8.690821291703e-03 0.0 
0.0 0.0 -1.336566422126e-03 
-1.352485386629e-03 -6.128652914560e-05 0.0 
-6.128652914560e-05 8.701715469751e-03 0.0 
0.0 0.0 -1.335855682064e-03 
-8.621699259071e-04 -7.748599951090e-05 0.0 
-7.748599951090e-05 5.021330477437e-03 0.0 
0.0 0.0 -7.648954205800e-04 
-9.395078499560e-04 -8.704020005170e-05 0.0 
-8.704020005170e-05 5.517844915676e-03 0.0 
0.0 0.0 -8.298981322982e-04 
-9.977708429922e-04 -8.397016683561e-05 0.0 
-8.397016683561e-05 5.976838802593e-03 0.0 
0.0 0.0 -8.959277352460e-04 
-1.055682188809e-03 -8.887694878813e-05 0.0 
-8.887694878813e-05 6.419904102828e-03 0.0 
0.0 0.0 -9.610467530554e-04 
-1.113418161777e-03 -7.710435791321e-05 0.0 
-7.710435791321e-05 6.878985961880e-03 0.0 
0.0 0.0 -1.026987810050e-03 
-1.153337564853e-03 -8.395183782127e-05 0.0 
-8.395183782127e-05 7.337021217867e-03 0.0 
0.0 0.0 -1.092790196867e-03 
-1.209003093049e-03 -7.363209801243e-05 0.0 
-7.363209801243e-05 7.788251864833e-03 0.0 
0.0 0.0 -1.158290425478e-03 
-1.258139886954e-03 -8.431152228072e-05 0.0 
-8.431152228072e-05 8.217133852926e-03 0.0 
0.0 0.0 -1.224481705251e-03 
-1.303096836171e-03 -9.331509578295e-05 0.0 
-9.331509578295e-05 8.703843568816e-03 0.0 
0.0 0.0 -1.288782062784e-03 
0.0 0.0 0.0 
0.0 0.0 0.0 
0.0 0.0 0.0 
-8.469977810266e-04 1.418859108081e-04 0.0 
1.418859108081e-04 4.555195363259e-03 0.0 
0.0 0.0 -6.945495707198e-04 
1.853815197246e-05 4.024911659637e-04 0.0 
4.024911659637e-04 2.284141119962e-04 0.0 
0.0 0.0 -1.058366845580e-04 
-1.350079007602e-04 7.410901895652e-04 0.0 
7.410901895652e-04 7.622548468714e-04 0.0 
0.0 0.0 -2.667570615628e-04 
-3.852517699685e-04 8.237517617570e-04 0.0 
8.237517617570e-04 1.325012057104e-03 0.0 
0.0 0.0 -2.964167626729e-04 
-5.553115605805e-04 6.948245581935e-04 0.0 
6.948245581935e-04 1.798691708354e-03 0.0 
0.0 0.0 -3.108790080757e-04 
-5.881380717754e-04 5.581827846643e-04 0.0 
5.581827846643e-04 2.268059848630e-03 0.0 
0.0 0.0 -3.778135794433e-04 
-6.080876115230e-04 3.914042295737e-04 0.0 
3.914042295737e-04 2.745828965549e-03 0.0 
0.0 0.0 -4.435353691508e-04 
-6.421093914524e-04 2.736159583380e-04 0.0 
2.736159583380e-04 3.087949941038e-03 0.0 
0.0 0.0 -4.913636896408e-04 
-7.032270316906e-04 2.154746295006e-04 0.0 
2.154746295006e-04 3.563154777891e-03 0.0 
0.0 0.0 -5.580753662734e-04 
-7.652026803153e-04 1.716333934732e-04 0.0 
1.716333934732e-04 4.039411117358e-03 0.0 
0.0 0.0 -6.248674136757e-04 
-4.994846885793e-04 -2.069571504379e-04 0.0 
-2.069571504379e-04 2.905575446341e-03 0.0 
0.0 0.0 -4.488888888889e-04 
-5.764922648323e-04 -1.677065961204e-04 0.0 
-1.677065961204e-04 3.172932373080e-03 0.0 
0.0 0.0 -4.933333333333e-04 
-6.493615146667e-04 -2.013836333214e-04 0.0 
-2.013836333214e-04 3.639082748701e-03 0.0 
0.0 0.0 -5.600000000000e-04 
-7.172820797178e-04 -1.419199921507e-04 0.0 
-1.419199921507e-04 4.094821602212e-03 0.0 
0.0 0.0 -6.266666666667e-04 
-7.873736608755e-04 5.502842443645e-05 0.0 
5.502842443645e-05 4.508278690252e-03 0.0 
0.0 0.0 -6.874962403976e-04 
-7.839311141629e-04 4.828509311105e-06 0.0 
4.828509311105e-06 4.540282316640e-03 0.0 
0.0 0.0 -6.910932206029e-04 
-7.921436345257e-04 5.707785244044e-06 0.0 
5.707785244044e-06 4.544942356556e-03 0.0 
0.0 0.0 -6.911911970487e-04 
-7.917187874242e-04 -4.341315515235e-06 0.0 
-4.341315515235e-06 4.539101219755e-03 0.0 
0.0 0.0 -6.903356507966e-04 
-7.944928086677e-04 1.125171909579e-05 0.0 
1.125171909579e-05 4.615388457654e-03 0.0 
0.0 0.0 -6.980756478071e-04 
-7.958365436316e-04 1.383445406237e-05 0.0 
1.383445406237e-05 4.547714033445e-03 0.0 
0.0 0.0 -6.911448554634e-04 
-7.903078046097e-04 6.769783050965e-06 0.0 
6.769783050965e-06 4.539714906749e-03 0.0 
0.0 0.0 -6.903833977050e-04 
-7.973486280958e-04 3.073462339535e-05 0.0 
3.073462339535e-05 4.549605953727e-03 0.0 
0.0 0.0 -6.905588330458e-04 
-8.138323735647e-04 2.995103124151e-05 0.0 
2.995103124151e-05 4.557442627231e-03 0.0 
0.0 0.0 -6.922444453805e-04 
-8.207112189752e-04 5.065642805556e-05 0.0 
5.065642805556e-05 4.556711038870e-03 0.0 
0.0 0.0 -6.916098530255e-04 
-8.174854078797e-04 5.882201982790e-05 0.0 
5.882201982790e-05 4.549634587438e-03 0.0 
0.0 0.0 -6.911665914957e-04 
-8.257607627907e-04 7.207096375596e-05 0.0 
7.207096375596e-05 4.539061374169e-03 0.0 
0.0 0.0 -6.911615840689e-04 
-8.256917502379e-04 1.052177725209e-04 0.0 
1.052177725209e-04 4.528909050130e-03 0.0 
0.0 0.0 -6.914992001314e-04 
-8.331385651634e-04 1.367043632585e-04 0.0 
1.367043632585e-04 4.532178590594e-03 0.0 
0.0 0.0 -6.922481495424e-04 
0.0 0.0 0.0 
0.0 0.0 0.0 
0.0 0.0 0.0 
0.0 0.0 0.0 
0.0 0.0 0.0 
0.0 0.0 0.0 
0.0 0.0 0.0 
0.0 0.0 0.0 
0.0 0.0 0.0 
0.0 0.0 0.0 
0.0 0.0 0.0 
0.0 0.0 0.0 
4.834769447440e-06 -2.872264321309e-05 0.0 
-2.872264321309e-05 1.098176460521e-05 0.0 
0.0 0.0 -6.778514593994e-06 
2.621325204595e-05 -1.413766582246e-04 0.0 
-1.413766582246e-04 5.747299694100e-05 0.0 
0.0 0.0 -3.574982278410e-05 
9.658306216209e-05 -1.514259984182e-04 0.0 
-1.514259984182e-04 8.442241842910e-05 0.0 
0.0 0.0 -4.425618980996e-05 
3.269147103475e-04 -5.021185392625e-05 0.0 
-5.021185392625e-05 3.514559889707e-05 0.0 
0.0 0.0 -8.078147856959e-05 
4.744476216527e-04 -2.955001894905e-05 0.0 
-2.955001894905e-05 6.422490925947e-06 0.0 
0.0 0.0 -1.179719326098e-04 
4.179559190719e-04 -4.545879091992e-05 0.0 
-4.545879091992e-05 1.677504639263e-05 0.0 
0.0 0.0 -8.559165356152e-05 
4.071360169644e-04 -5.676430788113e-05 0.0 
-5.676430788113e-05 2.001137970326e-05 0.0 
0.0 0.0 -6.874308561246e-05 
4.446412730432e-04 -3.115479505997e-05 0.0 
-3.115479505997e-05 1.541228328890e-05 0.0 
0.0 0.0 -8.846752904866e-05 
4.870475968622e-04 1.166873053583e-05 0.0 
1.166873053583e-05 -1.464623307350e-05 0.0 
0.0 0.0 -9.035052009108e-05 
5.260775556971e-04 2.845864580513e-06 0.0 
2.845864580513e-06 -4.734498310635e-05 0.0 
0.0 0.0 -8.407298760335e-05 
4.865685389177e-04 2.210043518699e-06 0.0 
2.210043518699e-06 -3.334183635663e-05 0.0 
0.0 0.0 -8.504329730078e-05 
4.576294102847e-04 1.370682311972e-05 0.0 
1.370682311972e-05 -9.748142346333e-06 0.0 
0.0 0.0 -9.010048746351e-05 
4.426858646735e-04 1.222387518921e-05 0.0 
1.222387518921e-05 -8.681697480963e-07 0.0 
0.0 0.0 -9.063198443064e-05 
4.647766352677e-04 3.225958783335e-05 0.0 
3.225958783335e-05 -3.503045802417e-05 0.0 
0.0 0.0 -8.892160723951e-05 
5.112449432108e-04 4.197682001980e-05 0.0 
4.197682001980e-05 -6.289759249197e-05 0.0 
0.0 0.0 -8.718318697143e-05 
-5.455426627975e-04 6.674670465089e-05 0.0 
6.674670465089e-05 3.001636512677e-03 0.0 
0.0 0.0 -4.544444444444e-04 
-5.327850316016e-04 6.201913528862e-07 0.0 
6.201913528862e-07 2.988009128835e-03 0.0 
0.0 0.0 -4.562962962963e-04 
-5.325188123636e-04 -2.082169119283e-05 0.0 
-2.082169119283e-05 2.981705359140e-03 0.0 
0.0 0.0 -4.562962962963e-04 
-5.336199996254e-04 -2.481183949465e-05 0.0 
-2.481183949465e-05 2.981637800572e-03 0.0 
0.0 0.0 -4.562962962963e-04 
-5.353787679755e-04 -2.808216563301e-05 0.0 
-2.808216563301e-05 2.982284849834e-03 0.0 
0.0 0.0 -4.562962962963e-04 
-5.378874221938e-04 -3.082547305555e-05 0.0 
-3.082547305555e-05 2.983232547186e-03 0.0 
0.0 0.0 -4.562962962963e-04 
-5.408911437120e-04 -3.364950793984e-05 0.0 
-3.364950793984e-05 2.983911837527e-03 0.0 
0.0 0.0 -4.562962962963e-04 
-5.438122137481e-04 -3.524573172410e-05 0.0 
-3.524573172410e-05 2.983573811229e-03 0.0 
0.0 0.0 -4.562962962963e-04 
-5.467864961089e-04 -3.399822237525e-05 0.0 
-3.399822237525e-05 2.982828781524e-03 0.0 
0.0 0.0 -4.562962962963e-04 
-5.510266501455e-04 -3.000023883693e-05 0.0 
-3.000023883693e-05 2.982372533802e-03 0.0 
0.0 0.0 -4.562962962963e-04 
-5.559030103087e-04 -2.421677979903e-05 0.0 
-2.421677979903e-05 2.981706619193e-03 0.0 
0.0 0.0 -4.562962962963e-04 
-5.607969464646e-04 -1.599425874120e-05 0.0 
-1.599425874120e-05 2.979992619496e-03 0.0 
0.0 0.0 -4.562962962963e-04 
-5.656953658041e-04 -3.210201718950e-06 0.0 
-3.210201718950e-06 2.976228223393e-03 0.0 
0.0 0.0 -4.562962962963e-04 
-5.711408929742e-04 1.977189027418e-05 0.0 
1.977189027418e-05 2.974058088185e-03 0.0 
0.0 0.0 -4.562962962963e-04 
-5.806296955506e-04 4.279877310126e-05 0.0 
4.279877310126e-05 2.971789227188e-03 0.0 
0.0 0.0 -4.562962962963e-04 
-5.888075996505e-04 7.872215908041e-05 0.0 
7.872215908041e-05 2.972436318744e-03 0.0 
0.0 0.0 -4.562962962963e-04 
-6.016565796722e-04 1.010149178216e-04 0.0 
1.010149178216e-04 2.962252058358e-03 0.0 
0.0 0.0 -4.562962962963e-04 
-5.937797122610e-04 1.779869170191e-04 0.0 
1.779869170191e-04 2.955278636939e-03 0.0 
0.0 0.0 -4.562962962963e-04 
-6.055901657191e-04 1.997245022236e-04 0.0 
1.997245022236e-04 2.926775373477e-03 0.0 
0.0 0.0 -4.535657596372e-04 
-5.540522217224e-04 2.677849369837e-04 0.0 
2.677849369837e-04 2.757973435425e-03 0.0 
0.0 0.0 -4.439637896721e-04 
-6.002569752709e-04 2.106199425740e-04 0.0 
2.106199425740e-04 3.040601950913e-03 0.0 
0.0 0.0 -4.852947845805e-04 
-6.404347893740e-04 1.452930758805e-04 0.0 
1.452930758805e-04 3.169480489552e-03 0.0 
0.0 0.0 -4.959669582118e-04 
-6.373670366941e-04 1.181817318953e-04 0.0 
1.181817318953e-04 3.157603873263e-03 0.0 
0.0 0.0 -4.933333333333e-04 
-6.335926768194e-04 7.794245507497e-05 0.0 
7.794245507497e-05 3.156688021345e-03 0.0 
0.0 0.0 -4.933333333333e-04 
-6.220474498716e-04 5.134440581893e-05 0.0 
5.134440581893e-05 3.160786184874e-03 0.0 
0.0 0.0 -4.933333333333e-04 
-6.159406124673e-04 2.206688587732e-05 0.0 
2.206688587732e-05 3.161928673014e-03 0.0 
0.0 0.0 -4.933333333333e-04 
-6.109166782003e-04 3.714322771242e-06 0.0 
3.714322771242e-06 3.167514719351e-03 0.0 
0.0 0.0 -4.933333333333e-04 
-6.054581133856e-04 -7.307117585949e-06 0.0 
-7.307117585949e-06 3.170142463375e-03 0.0 
0.0 0.0 -4.933333333333e-04 
-6.000107331639e-04 -1.469328145384e-05 0.0 
-1.469328145384e-05 3.171163635534e-03 0.0 
0.0 0.0 -4.933333333333e-04 
-5.941898088781e-04 -2.074063559937e-05 0.0 
-2.074063559937e-05 3.171088193189e-03 0.0 
0.0 0.0 -4.933333333333e-04 
-5.898957035509e-04 -2.603463415847e-05 0.0 
-2.603463415847e-05 3.171921383452e-03 0.0 
0.0 0.0 -4.933333333333e-04 
-5.871319754984e-04 -2.671317052851e-05 0.0 
-2.671317052851e-05 3.173080463882e-03 0.0 
0.0 0.0 -4.933333333333e-04 
-5.831711305422e-04 -2.471825246934e-05 0.0 
-2.471825246934e-05 3.172447959486e-03 0.0 
0.0 0.0 -4.933333333333e-04 
-5.799110508209e-04 -2.308008329295e-05 0.0 
-2.308008329295e-05 3.171263771991e-03 0.0 
0.0 0.0 -4.933333333333e-04 
-5.773557365906e-04 -2.133550619489e-05 0.0 
-2.133550619489e-05 3.170479716806e-03 0.0 
0.0 0.0 -4.933333333333e-04 
-5.758014518713e-04 -1.892419660156e-05 0.0 
-1.892419660156e-05 3.170002557654e-03 0.0 
0.0 0.0 -4.933333333333e-04 
-5.748764960425e-04 -1.805012883539e-05 0.0 
-1.805012883539e-05 3.170347605706e-03 0.0 
0.0 0.0 -4.933333333333e-04 
-5.760506827362e-04 -2.075419369238e-05 0.0 
-2.075419369238e-05 3.172373778641e-03 0.0 
0.0 0.0 -4.933333333333e-04 
-5.767249358615e-04 1.015271389729e-04 0.0 
1.015271389729e-04 3.173431107618e-03 0.0 
0.0 0.0 -4.933333333333e-04 
-6.527572212549e-04 6.780105280902e-05 0.0 
6.780105280902e-05 3.643323392159e-03 0.0 
0.0 0.0 -5.600000000000e-04 
-6.484652640847e-04 -1.867317635502e-06 0.0 
-1.867317635502e-06 3.638221338221e-03 0.0 
0.0 0.0 -5.600000000000e-04 
-6.483746879456e-04 -1.524137963776e-05 0.0 
-1.524137963776e-05 3.636879668493e-03 0.0 
0.0 0.0 -5.600000000000e-04 
-6.506726970290e-04 -1.678761464932e-05 0.0 
-1.678761464932e-05 3.638240294297e-03 0.0 
0.0 0.0 -5.600000000000e-04 
-6.515567938656e-04 -1.582684597498e-05 0.0 
-1.582684597498e-05 3.638013899900e-03 0.0 
0.0 0.0 -5.600000000000e-04 
-6.554750631859e-04 -1.470434980338e-05 0.0 
-1.470434980338e-05 3.639460407849e-03 0.0 
0.0 0.0 -5.600000000000e-04 
-6.594170751284e-04 -1.283952103919e-05 0.0 
-1.283952103919e-05 3.641117124007e-03 0.0 
0.0 0.0 -5.600000000000e-04 
-6.641464449147e-04 -1.550365402295e-05 0.0 
-1.550365402295e-05 3.640594034775e-03 0.0 
0.0 0.0 -5.600000000000e-04 
-6.668858948113e-04 -7.941772856611e-06 0.0 
-7.941772856611e-06 3.636849838348e-03 0.0 
0.0 0.0 -5.600000000000e-04 
-6.741591020856e-04 2.577853317367e-06 0.0 
2.577853317367e-06 3.638100575400e-03 0.0 
0.0 0.0 -5.600000000000e-04 
-6.809485102659e-04 9.363144820372e-06 0.0 
9.363144820372e-06 3.637932552511e-03 0.0 
0.0 0.0 -5.600000000000e-04 
-6.861033350786e-04 2.086292296722e-05 0.0 
2.086292296722e-05 3.634350486115e-03 0.0 
0.0 0.0 -5.600000000000e-04 
-6.932352806905e-04 3.670348944842e-05 0.0 
3.670348944842e-05 3.630716211654e-03 0.0 
0.0 0.0 -5.600000000000e-04 
-6.980811967268e-04 5.967994361152e-05 0.0 
5.967994361152e-05 3.618796687988e-03 0.0 
0.0 0.0 -5.600000000000e-04 
-7.013848849314e-04 1.083829473888e-04 0.0 
1.083829473888e-04 3.620396778090e-03 0.0 
0.0 0.0 -5.600000000000e-04 
-7.078351814424e-04 1.219335158790e-04 0.0 
1.219335158790e-04 3.644573923445e-03 0.0 
0.0 0.0 -5.626724975705e-04 
-6.666304385001e-04 1.660523767343e-04 0.0 
1.660523767343e-04 3.518024469538e-03 0.0 
0.0 0.0 -5.520068027211e-04 
-7.306639245541e-04 1.487904650220e-04 0.0 
1.487904650220e-04 3.987541024977e-03 0.0 
0.0 0.0 -6.186195084094e-04 
-7.777639873500e-04 1.047682677556e-04 0.0 
1.047682677556e-04 4.108452618951e-03 0.0 
0.0 0.0 -6.292929119699e-04 
-7.730086078056e-04 8.789895144587e-05 0.0 
8.789895144587e-05 4.091912019672e-03 0.0 
0.0 0.0 -6.266666666667e-04 
-7.618524580481e-04 6.512725790421e-05 0.0 
6.512725790421e-05 4.093546504346e-03 0.0 
0.0 0.0 -6.266666666667e-04 
-7.572869673676e-04 4.077816536235e-05 0.0 
4.077816536235e-05 4.100722229585e-03 0.0 
0.0 0.0 -6.266666666667e-04 
-7.522759778333e-04 3.231234712664e-05 0.0 
3.231234712664e-05 4.105753030330e-03 0.0 
0.0 0.0 -6.266666666667e-04 
-7.456061716167e-04 2.469919196216e-05 0.0 
2.469919196216e-05 4.102695942195e-03 0.0 
0.0 0.0 -6.266666666667e-04 
-7.404032118594e-04 6.233661207773e-06 0.0 
6.233661207773e-06 4.103985895951e-03 0.0 
0.0 0.0 -6.266666666667e-04 
-7.306819678944e-04 6.672744555550e-06 0.0 
6.672744555550e-06 4.108272711165e-03 0.0 
0.0 0.0 -6.266666666667e-04 
-7.293745733164e-04 -1.304990055444e-06 0.0 
-1.304990055444e-06 4.106419007565e-03 0.0 
0.0 0.0 -6.266666666667e-04 
-7.249341380716e-04 -1.277588629320e-06 0.0 
-1.277588629320e-06 4.105173170991e-03 0.0 
0.0 0.0 -6.266666666667e-04 
-7.218872567136e-04 -1.221940477039e-05 0.0 
-1.221940477039e-05 4.104125766063e-03 0.0 
0.0 0.0 -6.266666666667e-04 
-7.226283520212e-04 -7.586680396462e-06 0.0 
-7.586680396462e-06 4.106687618408e-03 0.0 
0.0 0.0 -6.266666666667e-04 
-7.194567743785e-04 -1.345793513568e-05 0.0 
-1.345793513568e-05 4.101402324494e-03 0.0 
0.0 0.0 -6.266666666667e-04 
-7.217276456755e-04 -3.632688016994e-05 0.0 
-3.632688016994e-05 4.111803083088e-03 0.0 
0.0 0.0 -6.266666666667e-04 
-7.310107230365e-04 1.113089146982e-04 0.0 
1.113089146982e-04 4.120905737550e-03 0.0 
0.0 0.0 -6.266666666667e-04 
-9.653076055207e-06 3.127717058752e-04 0.0 
3.127717058752e-04 4.924547344955e-05 0.0 
0.0 0.0 -1.696817031186e-05 
-4.487896732987e-05 6.031454295583e-04 0.0 
6.031454295583e-04 4.769141611533e-04 0.0 
0.0 0.0 -1.851579402100e-04 
-2.477886944410e-04 8.307338841621e-04 0.0 
8.307338841621e-04 1.056772820351e-03 0.0 
0.0 0.0 -3.137502536684e-04 
-5.164548883485e-04 7.997848336998e-04 0.0 
7.997848336998e-04 1.596714724844e-03 0.0 
0.0 0.0 -2.872952472806e-04 
-5.626935448601e-04 6.025030630991e-04 0.0 
6.025030630991e-04 2.056956549032e-03 0.0 
0.0 0.0 -3.440931072323e-04 
-5.892114679697e-04 4.852291775261e-04 0.0 
4.852291775261e-04 2.528395193714e-03 0.0 
0.0 0.0 -4.108392228286e-04 
-6.083486063763e-04 3.383983391281e-04 0.0 
3.383983391281e-04 2.889264754972e-03 0.0 
0.0 0.0 -4.668537052321e-04 
-6.625430485052e-04 2.762683699332e-04 0.0 
2.762683699332e-04 3.355431578782e-03 0.0 
0.0 0.0 -5.317697887215e-04 
-7.239877336263e-04 2.202667385963e-04 0.0 
2.202667385963e-04 3.828610808697e-03 0.0 
0.0 0.0 -5.985602557689e-04 
-7.842817421153e-04 1.883796168278e-04 0.0 
1.883796168278e-04 4.312421836845e-03 0.0 
0.0 0.0 -6.652967104836e-04 
-6.528049956139e-05 8.329192367362e-04 0.0 
8.329192367362e-04 6.721534156509e-04 0.0 
0.0 0.0 -2.600883926098e-04 
-1.238271811776e-03 -2.323410981101e-05 0.0 
-2.323410981101e-05 8.143368057859e-03 0.0 
0.0 0.0 -1.303388942653e-03 
5.998510431380e-05 -1.163529753908e-04 0.0 
-1.163529753908e-04 2.499013313257e-04 0.0 
0.0 0.0 -7.661148810519e-05 
1.270751205327e-05 -3.607914457565e-05 0.0 
-3.607914457565e-05 6.964316184804e-06 0.0 
0.0 0.0 -8.430783530604e-06 
-1.278901467981e-03 -2.582894247670e-04 0.0 
-2.582894247670e-04 8.264882866352e-03 0.0 
0.0 0.0 -1.303360877099e-03 
-5.655990039998e-04 8.080804633426e-04 0.0 
8.080804633426e-04 1.859508276799e-03 0.0 
0.0 0.0 -3.221766324775e-04 
-9.861956324832e-04 -6.715847648061e-05 0.0 
-6.715847648061e-05 4.773589466734e-03 0.0 
0.0 0.0 -7.300567563597e-04 
-1.244927303710e-03 2.945275852412e-04 0.0 
2.945275852412e-04 8.164800639293e-03 0.0 
0.0 0.0 -1.300998267065e-03 
-6.348034790759e-04 4.424120780115e-04 0.0 
4.424120780115e-04 2.761117670990e-03 0.0 
0.0 0.0 -4.497936382440e-04 
-1.277128875373e-03 4.777706098865e-04 0.0 
4.777706098865e-04 8.316029240451e-03 0.0 
0.0 0.0 -1.304014651794e-03 
-7.514819667783e-04 2.897671537100e-04 0.0 
2.897671537100e-04 3.742162088854e-03 0.0 
0.0 0.0 -5.857980290939e-04 
-1.307584739855e-03 -2.907864623538e-04 0.0 
-2.907864623538e-04 8.435582561033e-03 0.0 
0.0 0.0 -1.307658508868e-03 
2.194594038095e-04 -2.670865977714e-05 0.0 
-2.670865977714e-05 1.694259524564e-04 0.0 
0.0 0.0 -9.345456780789e-05 
-1.309138496400e-03 5.212450025025e-04 0.0 
5.212450025025e-04 8.474949316046e-03 0.0 
0.0 0.0 -1.304481600125e-03 
-8.746417822978e-04 2.068395432367e-04 0.0 
2.068395432367e-04 4.729142408164e-03 0.0 
0.0 0.0 -7.203075318094e-04 
-6.505648739721e-04 -3.624268182337e-05 0.0 
-3.624268182337e-05 2.957311441966e-03 0.0 
0.0 0.0 -4.640473930190e-04 
-1.131372666701e-03 -4.491765098181e-05 0.0 
-4.491765098181e-05 5.976165985442e-03 0.0 
0.0 0.0 -9.125512086551e-04 
-1.314763544022e-03 4.589275118802e-04 0.0 
4.589275118802e-04 8.560285468091e-03 0.0 
0.0 0.0 -1.301280071178e-03 
-1.328200349095e-03 3.774182231254e-04 0.0 
3.774182231254e-04 8.674652987533e-03 0.0 
0.0 0.0 -1.304294760550e-03 
-1.328231009146e-03 1.002317222840e-04 0.0 
1.002317222840e-04 8.762903021805e-03 0.0 
0.0 0.0 -1.303238611779e-03 
-1.321361255880e-03 2.020746578681e-04 0.0 
2.020746578681e-04 8.706453928135e-03 0.0 
0.0 0.0 -1.297727402575e-03 
-1.333675382953e-03 2.525190978684e-04 0.0 
2.525190978684e-04 8.729905622316e-03 0.0 
0.0 0.0 -1.305306183856e-03 
-8.907724214169e-04 1.372579395388e-04 0.0 
1.372579395388e-04 4.950739460616e-03 0.0 
0.0 0.0 -7.522011426764e-04 
-8.750579348879e-04 6.356350708577e-05 0.0 
6.356350708577e-05 4.972444393085e-03 0.0 
0.0 0.0 -7.529849494387e-04 
-8.651922808025e-04 1.321213173771e-05 0.0 
1.321213173771e-05 5.002490543075e-03 0.0 
0.0 0.0 -7.580270452736e-04 
-1.081282276580e-03 -2.537529428612e-05 0.0 
-2.537529428612e-05 6.643650052824e-03 0.0 
0.0 0.0 -9.950081682429e-04 
-1.332561184719e-03 -2.295807888403e-04 0.0 
-2.295807888403e-04 8.502002206283e-03 0.0 
0.0 0.0 -1.302874185639e-03 
0.0 0.0 0.0 
0.0 0.0 0.0 
0.0 0.0 0.0 
2.233748649996e-04 5.268922663070e-06 0.0 
5.268922663070e-06 2.031789523429e-04 0.0 
0.0 0.0 -1.071793558177e-04 
-1.266615157062e-03 -4.708891648946e-05 0.0 
-4.708891648946e-05 7.362986267811e-03 0.0 
0.0 0.0 -1.122886395833e-03 
-8.590690058330e-04 2.817818056919e-05 0.0 
2.817818056919e-05 4.956725197885e-03 0.0 
0.0 0.0 -7.500338828344e-04 
-3.077541790528e-04 -1.952701143312e-05 0.0 
-1.952701143312e-05 1.504768126338e-03 0.0 
0.0 0.0 -2.594501920933e-04 
-1.324226706230e-03 4.167698339106e-04 0.0 
4.167698339106e-04 8.547363588762e-03 0.0 
0.0 0.0 -1.293200138473e-03 
-1.268789998251e-03 4.116378875631e-04 0.0 
4.116378875631e-04 8.267843264786e-03 0.0 
0.0 0.0 -1.307307853467e-03 
-1.298127013523e-03 5.178122413189e-04 0.0 
5.178122413189e-04 8.390890810400e-03 0.0 
0.0 0.0 -1.304733450272e-03 
-1.233362636415e-03 1.634458979136e-04 0.0 
1.634458979136e-04 8.121763907804e-03 0.0 
0.0 0.0 -1.297928233296e-03 
-1.261877986510e-03 -1.597052773119e-04 0.0 
-1.597052773119e-04 8.188934025231e-03 0.0 
0.0 0.0 -1.305578568836e-03 
2.734204477331e-05 -3.169143204034e-04 0.0 
-3.169143204034e-04 1.647533136443e-04 0.0 
0.0 0.0 -8.226872593096e-05 
-8.795053511419e-04 9.559274535899e-05 0.0 
9.559274535899e-05 4.954160552764e-03 0.0 
0.0 0.0 -7.500980793755e-04 
-1.291571793349e-03 -3.018456542619e-04 0.0 
-3.018456542619e-04 8.267318175430e-03 0.0 
0.0 0.0 -1.293180865222e-03 
-1.191688283040e-03 -1.679553581366e-05 0.0 
-1.679553581366e-05 7.562043590583e-03 0.0 
0.0 0.0 -1.123598490052e-03 
1.170418686809e-04 -5.562668358397e-05 0.0 
-5.562668358397e-05 2.275676700802e-04 0.0 
0.0 0.0 -7.719741026454e-05 
-8.274582342161e-04 -6.171908782243e-05 0.0 
-6.171908782243e-05 3.848512271059e-03 0.0 
0.0 0.0 -5.937437734062e-04 
-1.335764842081e-03 6.371320431880e-05 0.0 
6.371320431880e-05 8.844549453637e-03 0.0 
0.0 0.0 -1.311981303940e-03 
-6.029700723185e-04 6.122078773443e-04 0.0 
6.122078773443e-04 2.350776615634e-03 0.0 
0.0 0.0 -3.897472533596e-04 
-3.421036135192e-04 9.389470505226e-04 0.0 
9.389470505226e-04 1.298921873387e-03 0.0 
0.0 0.0 -3.268992177355e-04 
-6.932234286341e-04 3.612940895342e-04 0.0 
3.612940895342e-04 3.253564498504e-03 0.0 
0.0 0.0 -5.178568985205e-04 
-8.102727904185e-04 2.233971647189e-04 0.0 
2.233971647189e-04 4.222711404521e-03 0.0 
0.0 0.0 -6.527703211191e-04 
4.415377896809e-05 4.243973105943e-04 0.0 
4.243973105943e-04 1.288871955435e-04 0.0 
0.0 0.0 -7.416041764780e-05 
-9.647575502476e-04 -2.771769126341e-06 0.0 
-2.771769126341e-06 5.776762544034e-03 0.0 
0.0 0.0 -8.684787984471e-04 
-1.350888138525e-03 -1.433490915200e-04 0.0 
-1.433490915200e-04 8.608994521473e-03 0.0 
0.0 0.0 -1.313906642692e-03 
2.535763956766e-04 3.453965229505e-05 0.0 
3.453965229505e-05 1.648612099088e-04 0.0 
0.0 0.0 -1.090843966873e-04 
-1.275593957644e-03 1.853867106533e-05 0.0 
1.853867106533e-05 8.418825182379e-03 0.0 
0.0 0.0 -1.253930875827e-03 
-8.953448143456e-04 1.901723990594e-04 0.0 
1.901723990594e-04 4.929510438704e-03 0.0 
0.0 0.0 -7.532271817479e-04 
-9.242130448013e-04 2.218369834796e-04 0.0 
2.218369834796e-04 5.094044769017e-03 0.0 
0.0 0.0 -7.809350190597e-04 
-9.469027331401e-04 2.184886764960e-04 0.0 
2.184886764960e-04 5.336848493436e-03 0.0 
0.0 0.0 -8.115578932774e-04 
-9.847582339447e-04 2.348277518639e-04 0.0 
2.348277518639e-04 5.535490339246e-03 0.0 
0.0 0.0 -8.428390908522e-04 
-1.013224796440e-03 2.269955445031e-04 0.0 
2.269955445031e-04 5.773109205172e-03 0.0 
0.0 0.0 -8.784658474099e-04 
-1.038385862696e-03 2.590411142921e-04 0.0 
2.590411142921e-04 5.954479327597e-03 0.0 
0.0 0.0 -9.060409163497e-04 
-1.004174411440e-03 2.781484189758e-04 0.0 
2.781484189758e-04 5.703926568537e-03 0.0 
0.0 0.0 -8.711257577415e-04 
-1.054585459025e-03 2.973439443916e-04 0.0 
2.973439443916e-04 6.126110480118e-03 0.0 
0.0 0.0 -9.341442283280e-04 
-1.020905393351e-03 3.220952727550e-04 0.0 
3.220952727550e-04 5.866625374892e-03 0.0 
0.0 0.0 -8.989774131092e-04 
-1.060675836449e-03 2.424242741137e-04 0.0 
2.424242741137e-04 6.211611638975e-03 0.0 
0.0 0.0 -9.415083590319e-04 
-1.069903741450e-03 3.342745829502e-04 0.0 
3.342745829502e-04 6.289952349254e-03 0.0 
0.0 0.0 -9.622976032585e-04 
-1.033366094007e-03 3.621226093725e-04 0.0 
3.621226093725e-04 6.024211968433e-03 0.0 
0.0 0.0 -9.268639294333e-04 
-1.081748877589e-03 3.725821950627e-04 0.0 
3.725821950627e-04 6.448138080981e-03 0.0 
0.0 0.0 -9.903372159162e-04 
-1.042953915019e-03 3.991340856965e-04 0.0 
3.991340856965e-04 6.178329635147e-03 0.0 
0.0 0.0 -9.547708836903e-04 
-9.946320659626e-04 3.943126043460e-04 0.0 
3.943126043460e-04 5.758814307551e-03 0.0 
0.0 0.0 -8.916807130883e-04 
-1.001107217771e-03 4.332773723891e-04 0.0 
4.332773723891e-04 5.906894361937e-03 0.0 
0.0 0.0 -9.194532194038e-04 
-9.524385169357e-04 4.327952618966e-04 0.0 
4.327952618966e-04 5.490022466699e-03 0.0 
0.0 0.0 -8.565021464485e-04 
-9.551941416785e-04 4.714703413802e-04 0.0 
4.714703413802e-04 5.632535536945e-03 0.0 
0.0 0.0 -8.841639842141e-04 
-1.003948910985e-03 4.659340529388e-04 0.0 
4.659340529388e-04 6.052492370979e-03 0.0 
0.0 0.0 -9.471984275390e-04 
-9.534464918986e-04 5.005026845975e-04 0.0 
5.005026845975e-04 5.770878701320e-03 0.0 
0.0 0.0 -9.118195294070e-04 
-9.061256584098e-04 5.150134062317e-04 0.0 
5.150134062317e-04 5.352614190247e-03 0.0 
0.0 0.0 -8.488396520500e-04 
-8.989049191365e-04 5.434397803423e-04 0.0 
5.434397803423e-04 5.483228311018e-03 0.0 
0.0 0.0 -8.764089341820e-04 
-8.533039374695e-04 5.667693254413e-04 0.0 
5.667693254413e-04 5.068208533921e-03 0.0 
0.0 0.0 -8.135623229517e-04 
-8.400733524865e-04 5.914836390070e-04 0.0 
5.914836390070e-04 5.191255654721e-03 0.0 
0.0 0.0 -8.410744910442e-04 
-7.968543408339e-04 6.237249391908e-04 0.0 
6.237249391908e-04 4.777124479860e-03 0.0 
0.0 0.0 -7.781617608290e-04 
-7.768533972697e-04 6.436004668132e-04 0.0 
6.436004668132e-04 4.892920097115e-03 0.0 
0.0 0.0 -8.056965831182e-04 
-8.240566969273e-04 5.997503228454e-04 0.0 
5.997503228454e-04 5.313376653990e-03 0.0 
0.0 0.0 -8.686949506212e-04 
-7.549029941076e-04 6.445435251704e-04 0.0 
6.445435251704e-04 5.007797875212e-03 0.0 
0.0 0.0 -8.332427817419e-04 
-7.080731455591e-04 7.008821416478e-04 0.0 
7.008821416478e-04 4.586577191639e-03 0.0 
0.0 0.0 -7.703313069557e-04 
-6.796342790660e-04 6.889970591832e-04 0.0 
6.889970591832e-04 4.694361205396e-03 0.0 
0.0 0.0 -7.977945042040e-04 
-6.329025767040e-04 7.594983388287e-04 0.0 
7.594983388287e-04 4.271526927018e-03 0.0 
0.0 0.0 -7.349073124327e-04 
-5.970419350956e-04 7.303350951608e-04 0.0 
7.303350951608e-04 4.369967111415e-03 0.0 
0.0 0.0 -7.622392297106e-04 
-6.532929672579e-04 6.522887049741e-04 0.0 
6.522887049741e-04 4.806542372592e-03 0.0 
0.0 0.0 -8.253152238873e-04 
-5.665194748989e-04 6.694860838181e-04 0.0 
6.694860838181e-04 4.478701756150e-03 0.0 
0.0 0.0 -7.896995018144e-04 
-5.068058502527e-04 7.602496009026e-04 0.0 
7.602496009026e-04 4.031209139410e-03 0.0 
0.0 0.0 -7.264132926703e-04 
-4.737449794266e-04 6.709445860115e-04 0.0 
6.709445860115e-04 4.140917238724e-03 0.0 
0.0 0.0 -7.539848323805e-04 
-4.092281239023e-04 7.730243516518e-04 0.0 
7.730243516518e-04 3.680765614921e-03 0.0 
0.0 0.0 -6.903858661722e-04 
-3.744957372966e-04 6.516877818939e-04 0.0 
6.516877818939e-04 3.794607072583e-03 0.0 
0.0 0.0 -7.182351804274e-04 
-3.014418119782e-04 7.651198626849e-04 0.0 
7.651198626849e-04 3.317111817818e-03 0.0 
0.0 0.0 -6.542402593883e-04 
-2.691367924077e-04 5.991354595496e-04 0.0 
5.991354595496e-04 3.436288112929e-03 0.0 
0.0 0.0 -6.821763112594e-04 
-3.572033048063e-04 5.016025540799e-04 0.0 
5.016025540799e-04 3.930238801817e-03 0.0 
0.0 0.0 -7.460902125261e-04 
-2.604633093040e-04 4.087486075233e-04 0.0 
4.087486075233e-04 3.586761049540e-03 0.0 
0.0 0.0 -7.100832486075e-04 
-1.613056217724e-04 4.995138349428e-04 0.0 
4.995138349428e-04 3.072389318551e-03 0.0 
0.0 0.0 -6.458624074531e-04 
-1.669705829229e-04 2.701808013183e-04 0.0 
2.701808013183e-04 3.243787358763e-03 0.0 
0.0 0.0 -6.737786430284e-04 
-2.753947664968e-04 2.161212745525e-04 0.0 
2.161212745525e-04 3.768674846201e-03 0.0 
0.0 0.0 -7.381473126730e-04 
-2.005498486414e-04 5.346396201185e-05 0.0 
5.346396201185e-05 3.452103226554e-03 0.0 
0.0 0.0 -7.017500108595e-04 
-3.129525029213e-04 3.691539212023e-05 0.0 
3.691539212023e-05 3.980008917697e-03 0.0 
0.0 0.0 -7.662494016216e-04 
-2.576506604218e-04 -1.344602376400e-04 0.0 
-1.344602376400e-04 3.691587731914e-03 0.0 
0.0 0.0 -7.297828278826e-04 
-1.426325829897e-04 -1.501001214894e-04 0.0 
-1.501001214894e-04 3.157731231159e-03 0.0 
0.0 0.0 -6.655364893108e-04 
-2.218003623758e-04 -3.334729403515e-04 0.0 
-3.334729403515e-04 3.428848173996e-03 0.0 
0.0 0.0 -6.934067383651e-04 
-3.318343911700e-04 -2.853674173367e-04 0.0 
-2.853674173367e-04 3.952815162001e-03 0.0 
0.0 0.0 -7.577868799165e-04 
-3.144801710965e-04 -4.682272711583e-04 0.0 
-4.682272711583e-04 3.714915939774e-03 0.0 
0.0 0.0 -7.212202614536e-04 
-2.108184981842e-04 -5.509789330318e-04 0.0 
-5.509789330318e-04 3.196953321697e-03 0.0 
0.0 0.0 -6.571136838490e-04 
-3.194748950850e-04 -6.509678457029e-04 0.0 
-6.509678457029e-04 3.509025892108e-03 0.0 
0.0 0.0 -6.848379476561e-04 
-4.134303053585e-04 -5.537180261355e-04 0.0 
-5.537180261355e-04 4.010754256809e-03 0.0 
0.0 0.0 -7.491645792950e-04 
-4.282972412297e-04 -7.003622053819e-04 0.0 
-7.003622053819e-04 3.819503617895e-03 0.0 
0.0 0.0 -7.127097857715e-04 
-3.469063150971e-04 -8.191207970740e-04 0.0 
-8.191207970740e-04 3.332834435183e-03 0.0 
0.0 0.0 -6.486049398320e-04 
-4.603200915782e-04 -8.241016297384e-04 0.0 
-8.241016297384e-04 3.654972315785e-03 0.0 
0.0 0.0 -6.763006240845e-04 
-5.326763552168e-04 -7.095630877107e-04 0.0 
-7.095630877107e-04 4.127629826769e-03 0.0 
0.0 0.0 -7.409416231994e-04 
-5.642434690968e-04 -7.961766967206e-04 0.0 
-7.961766967206e-04 3.962246775740e-03 0.0 
0.0 0.0 -7.042275185679e-04 
-5.048810542407e-04 -9.111393169982e-04 0.0 
-9.111393169982e-04 3.507729400124e-03 0.0 
0.0 0.0 -6.398389559308e-04 
-6.027165900428e-04 -8.444966016725e-04 0.0 
-8.444966016725e-04 3.810620087909e-03 0.0 
0.0 0.0 -6.674633383154e-04 
-6.579291994771e-04 -7.450391146030e-04 0.0 
-7.450391146030e-04 4.258237816838e-03 0.0 
0.0 0.0 -7.324886333286e-04 
-6.885251553241e-04 -7.661379123145e-04 0.0 
-7.661379123145e-04 4.095680745521e-03 0.0 
0.0 0.0 -6.954027321055e-04 
-7.420005201256e-04 -6.813900099092e-04 0.0 
-6.813900099092e-04 4.540296059999e-03 0.0 
0.0 0.0 -7.608997874520e-04 
-6.419229239274e-04 -8.515280830913e-04 0.0 
-8.515280830913e-04 3.660198205629e-03 0.0 
0.0 0.0 -6.302092384919e-04 
-7.165087956100e-04 -7.532581299851e-04 0.0 
-7.532581299851e-04 3.933160643348e-03 0.0 
0.0 0.0 -6.580989212857e-04 
-6.748415764425e-04 -8.158732049488e-04 0.0 
-8.158732049488e-04 3.506981101763e-03 0.0 
0.0 0.0 -5.925517106747e-04 
-7.365832294088e-04 -7.073699189760e-04 0.0 
-7.073699189760e-04 3.765896700508e-03 0.0 
0.0 0.0 -6.207111136070e-04 
-6.332000182986e-04 5.918731838089e-04 0.0 
5.918731838089e-04 4.929291128701e-03 0.0 
0.0 0.0 -8.529317679587e-04 
-6.943116331248e-04 -7.425915444218e-04 0.0 
-7.425915444218e-04 3.344277999279e-03 0.0 
0.0 0.0 -5.549884598765e-04 
-6.397413698948e-04 -8.660814527003e-04 0.0 
-8.660814527003e-04 3.093984914707e-03 0.0 
0.0 0.0 -5.276250340903e-04 
-7.441497249529e-04 -6.348309289793e-04 0.0 
-6.348309289793e-04 3.588685288948e-03 0.0 
0.0 0.0 -5.833260987948e-04 
-7.927694967591e-04 -6.072286345187e-04 0.0 
-6.072286345187e-04 4.017000879105e-03 0.0 
0.0 0.0 -6.493616581942e-04 
-6.966675025981e-04 -6.428656991036e-04 0.0 
-6.428656991036e-04 3.166084591150e-03 0.0 
0.0 0.0 -5.173870653820e-04 
-7.365323002863e-04 -5.431818663254e-04 0.0 
-5.431818663254e-04 3.397457388952e-03 0.0 
0.0 0.0 -5.459094278256e-04 
-6.801980278813e-04 -5.258870908465e-04 0.0 
-5.258870908465e-04 2.971149924429e-03 0.0 
0.0 0.0 -4.798161731008e-04 
-3.522724475006e-04 8.978406558880e-04 0.0 
8.978406558880e-04 3.218246737404e-03 0.0 
0.0 0.0 -6.252159162693e-04 
-1.003922379852e-03 4.867498946042e-04 0.0 
4.867498946042e-04 6.194900288835e-03 0.0 
0.0 0.0 -9.750716696758e-04 
-7.134730581966e-04 -4.396097415729e-04 0.0 
-4.396097415729e-04 3.191992919970e-03 0.0 
0.0 0.0 -5.084495576641e-04 
-6.454975030147e-04 -4.098543326581e-04 0.0 
-4.098543326581e-04 2.756723401947e-03 0.0 
0.0 0.0 -4.423119711188e-04 
-6.169555617155e-04 -4.854535332185e-04 0.0 
-4.854535332185e-04 2.543124995000e-03 0.0 
0.0 0.0 -4.136824817550e-04 
-5.630688119643e-04 -3.553409865602e-04 0.0 
-3.553409865602e-04 2.315573721592e-03 0.0 
0.0 0.0 -3.761903503575e-04 
-1.032297422083e-03 1.966440866369e-04 0.0 
1.966440866369e-04 6.038887422175e-03 0.0 
0.0 0.0 -9.126358703463e-04 
-1.092679819842e-03 2.404953654437e-04 0.0 
2.404953654437e-04 6.471742125457e-03 0.0 
0.0 0.0 -9.772611937912e-04 
-1.065662184042e-03 1.952825978825e-04 0.0 
1.952825978825e-04 6.276115658093e-03 0.0 
0.0 0.0 -9.468612964576e-04 
-1.124488971150e-03 2.272669760496e-04 0.0 
2.272669760496e-04 6.729090336894e-03 0.0 
0.0 0.0 -1.012955122490e-03 
-1.098065280761e-03 1.864830102051e-04 0.0 
1.864830102051e-04 6.541298868571e-03 0.0 
0.0 0.0 -9.835180958883e-04 
-5.915603593799e-04 -3.065298427479e-04 0.0 
-3.065298427479e-04 2.521782196510e-03 0.0 
0.0 0.0 -4.047791634435e-04 
-1.117175513921e-03 3.540420738705e-04 0.0 
3.540420738705e-04 6.717826161917e-03 0.0 
0.0 0.0 -1.026687169009e-03 
-1.146459728684e-03 2.677090129604e-04 0.0 
2.677090129604e-04 6.908937528882e-03 0.0 
0.0 0.0 -1.042264213861e-03 
-8.619810308033e-04 5.269046982762e-04 0.0 
5.269046982762e-04 4.942534175484e-03 0.0 
0.0 0.0 -7.861871271282e-04 
-6.685992335526e-04 7.579980182072e-04 0.0 
7.579980182072e-04 4.174187567995e-03 0.0 
0.0 0.0 -7.076088937226e-04 
-3.823000922578e-04 1.751040962943e-04 0.0 
1.751040962943e-04 4.285393794973e-03 0.0 
0.0 0.0 -8.027518904046e-04 
-7.754697783619e-04 -4.563258168331e-04 0.0 
-4.563258168331e-04 3.623603682734e-03 0.0 
0.0 0.0 -5.745905038755e-04 
-7.478137892348e-04 -3.620965601600e-04 0.0 
-3.620965601600e-04 3.412205611854e-03 0.0 
0.0 0.0 -5.371338854166e-04 
-8.174754817651e-04 -3.813163108904e-04 0.0 
-3.813163108904e-04 3.849101426160e-03 0.0 
0.0 0.0 -6.033452624549e-04 
-7.192525572030e-04 -6.519418612780e-04 0.0 
-6.519418612780e-04 4.714458239345e-03 0.0 
0.0 0.0 -7.980428604176e-04 
-8.008672232585e-04 -6.001783307384e-04 0.0 
-6.001783307384e-04 4.992005436326e-03 0.0 
0.0 0.0 -8.266132305475e-04 
-7.854918836627e-04 -5.659348858598e-04 0.0 
-5.659348858598e-04 5.176434454621e-03 0.0 
0.0 0.0 -8.638188500004e-04 
-8.639017049063e-04 -5.248351014622e-04 0.0 
-5.248351014622e-04 5.448454375514e-03 0.0 
0.0 0.0 -8.924533907576e-04 
-8.555184497349e-04 -4.894755576408e-04 0.0 
-4.894755576408e-04 5.642058910946e-03 0.0 
0.0 0.0 -9.297164513315e-04 
-9.301291339826e-04 -4.570426975750e-04 0.0 
-4.570426975750e-04 5.908844626244e-03 0.0 
0.0 0.0 -9.583747859490e-04 
-9.353789003032e-04 -4.780922276340e-04 0.0 
-4.780922276340e-04 5.711821717037e-03 0.0 
0.0 0.0 -9.210728288235e-04 
-9.984662583326e-04 -4.207024963502e-04 0.0 
-4.207024963502e-04 6.168121907027e-03 0.0 
0.0 0.0 -9.870277070005e-04 
-1.000069004232e-03 -4.285924737525e-04 0.0 
-4.285924737525e-04 5.966651563586e-03 0.0 
0.0 0.0 -9.497007337289e-04 
-9.283284515458e-04 -4.229135290675e-04 0.0 
-4.229135290675e-04 6.110180447664e-03 0.0 
0.0 0.0 -9.956835613869e-04 
-8.527578693464e-04 -4.403303765288e-04 0.0 
-4.403303765288e-04 5.842885643991e-03 0.0 
0.0 0.0 -9.668198671257e-04 
-1.059819806392e-03 -3.815720688592e-04 0.0 
-3.815720688592e-04 6.418981492352e-03 0.0 
0.0 0.0 -1.015681523326e-03 
-1.057949721367e-03 -3.770560260125e-04 0.0 
-3.770560260125e-04 6.213345858748e-03 0.0 
0.0 0.0 -9.783260305704e-04 
-1.113690001508e-03 -3.391138449317e-04 0.0 
-3.391138449317e-04 6.662067817752e-03 0.0 
0.0 0.0 -1.044362401637e-03 
-1.108897527401e-03 -3.261874601882e-04 0.0 
-3.261874601882e-04 6.451449547970e-03 0.0 
0.0 0.0 -1.007007767922e-03 
-1.056102434059e-03 -3.617377197121e-04 0.0 
-3.617377197121e-04 6.006353850389e-03 0.0 
0.0 0.0 -9.408676861799e-04 
-1.103510128039e-03 -3.034940289184e-04 0.0 
-3.034940289184e-04 6.238484304806e-03 0.0 
0.0 0.0 -9.695029660748e-04 
-1.052845247082e-03 -3.373861149014e-04 0.0 
-3.373861149014e-04 5.798954310895e-03 0.0 
0.0 0.0 -9.035672079865e-04 
-4.228503435162e-04 2.652797493901e-05 0.0 
2.652797493901e-05 4.498640496550e-03 0.0 
0.0 0.0 -8.309624794500e-04 
-4.884683166150e-04 1.460460655517e-04 0.0 
1.460460655517e-04 4.796700712876e-03 0.0 
0.0 0.0 -8.675775700443e-04 
-5.309148746778e-04 2.225588307319e-05 0.0 
2.225588307319e-05 5.010085131158e-03 0.0 
0.0 0.0 -8.958500940740e-04 
-5.943549435448e-04 1.251718936452e-04 0.0 
1.251718936452e-04 5.302582402065e-03 0.0 
0.0 0.0 -9.325549191312e-04 
-6.382538609797e-04 2.086054713912e-05 0.0 
2.086054713912e-05 5.516155282354e-03 0.0 
0.0 0.0 -9.609176734917e-04 
-7.011603817707e-04 1.101794033340e-04 0.0 
1.101794033340e-04 5.804703043974e-03 0.0 
0.0 0.0 -9.976363410588e-04 
-7.465959866999e-04 2.216834778625e-05 0.0 
2.216834778625e-05 6.016830116331e-03 0.0 
0.0 0.0 -1.026032504441e-03 
-6.923978724816e-04 -6.826398853254e-05 0.0 
-6.826398853254e-05 5.743653636097e-03 0.0 
0.0 0.0 -9.892761093609e-04 
-1.092308246197e-03 4.087334969491e-04 0.0 
4.087334969491e-04 6.601377400440e-03 0.0 
0.0 0.0 -1.018102500310e-03 
-5.675897396992e-05 3.425637172408e-04 0.0 
3.425637172408e-04 2.708861454988e-03 0.0 
0.0 0.0 -6.095594541484e-04 
-6.420114659775e-05 6.151203334216e-04 0.0 
6.151203334216e-04 2.551183745386e-03 0.0 
0.0 0.0 -5.816898710390e-04 
5.441246620249e-05 4.399473863901e-04 0.0 
4.399473863901e-04 2.161774981432e-03 0.0 
0.0 0.0 -5.454521931755e-04 
2.844502818309e-05 7.644395339616e-04 0.0 
7.644395339616e-04 2.024830997844e-03 0.0 
0.0 0.0 -5.176388733440e-04 
1.652901373793e-04 5.705702379394e-04 0.0 
5.705702379394e-04 1.600345183292e-03 0.0 
0.0 0.0 -4.814163979944e-04 
1.130601457631e-04 9.562292981796e-04 0.0 
9.562292981796e-04 1.494895390825e-03 0.0 
0.0 0.0 -4.537165770244e-04 
2.845119300012e-04 7.483953602617e-04 0.0 
7.483953602617e-04 1.019187802654e-03 0.0 
0.0 0.0 -4.208902240644e-04 
2.929325993539e-04 2.620833489363e-04 0.0 
2.620833489363e-04 1.186149753907e-03 0.0 
0.0 0.0 -4.466351565148e-04 
4.659960569609e-04 3.874152989476e-04 0.0 
3.874152989476e-04 5.352766773023e-04 0.0 
0.0 0.0 -3.736376070058e-04 
4.059265982279e-04 -1.758088808093e-04 0.0 
-1.758088808093e-04 8.092916298160e-04 0.0 
0.0 0.0 -4.168446658567e-04 
5.790431118009e-04 -1.610129805314e-04 0.0 
-1.610129805314e-04 1.533127793959e-04 0.0 
0.0 0.0 -3.063790003961e-04 
4.494391646470e-04 -7.152402717994e-04 0.0 
-7.152402717994e-04 5.082279969168e-04 0.0 
0.0 0.0 -3.640020775467e-04 
-8.080190775198e-04 5.920502661192e-04 0.0 
5.920502661192e-04 5.436356176569e-03 0.0 
0.0 0.0 -8.963565068603e-04 
-6.651558879210e-04 2.088271070434e-04 0.0 
2.088271070434e-04 5.603894024499e-03 0.0 
0.0 0.0 -9.691568884624e-04 
-7.699005087498e-04 1.883379167874e-04 0.0 
1.883379167874e-04 6.102423018858e-03 0.0 
0.0 0.0 -1.034312087004e-03 
-7.384024095732e-04 2.760115291154e-04 0.0 
2.760115291154e-04 5.907746579569e-03 0.0 
0.0 0.0 -1.005320805676e-03 
-5.404221803057e-04 -4.187129725138e-04 0.0 
-4.187129725138e-04 2.110154003912e-03 0.0 
0.0 0.0 -3.475522021424e-04 
-1.152888887005e-03 -2.763407572661e-04 0.0 
-2.763407572661e-04 6.681517292358e-03 0.0 
0.0 0.0 -1.035773625862e-03 
-9.326850124499e-04 -3.805734010338e-04 0.0 
-3.805734010338e-04 6.318938914437e-03 0.0 
0.0 0.0 -1.032922975483e-03 
-8.578946226242e-04 -3.814307824260e-04 0.0 
-3.814307824260e-04 6.050788235921e-03 0.0 
0.0 0.0 -1.003739924893e-03 
-8.007230077279e-04 -5.030783828559e-05 0.0 
-5.030783828559e-05 6.244226135644e-03 0.0 
0.0 0.0 -1.054598834243e-03 
-4.941523760955e-04 -2.470231279283e-04 0.0 
-2.470231279283e-04 2.071816915527e-03 0.0 
0.0 0.0 -3.392587823741e-04 
1.975953042673e-04 1.172543779916e-03 0.0 
1.172543779916e-03 9.666654142640e-04 0.0 
0.0 0.0 -3.922431101850e-04 
5.175793587872e-06 1.277837662737e-03 0.0 
1.277837662737e-03 1.466786264722e-03 0.0 
0.0 0.0 -4.261104576107e-04 
-1.152692083578e-03 2.146597661269e-04 0.0 
2.146597661269e-04 6.983288018661e-03 0.0 
0.0 0.0 -1.048874596840e-03 
-1.125979627456e-03 1.800276227316e-04 0.0 
1.800276227316e-04 6.792196765101e-03 0.0 
0.0 0.0 -1.019458214591e-03 
-9.448287362971e-04 -3.295389867260e-04 0.0 
-3.295389867260e-04 6.536387605041e-03 0.0 
0.0 0.0 -1.070157681403e-03 
-5.240293716215e-04 -2.102668930863e-04 0.0 
-2.102668930863e-04 2.277314558376e-03 0.0 
0.0 0.0 -3.675747464493e-04 
-1.063791247498e-03 -3.742192618344e-04 0.0 
-3.742192618344e-04 6.627422368744e-03 0.0 
0.0 0.0 -1.052997445444e-03 
5.558984473440e-04 4.127353325470e-04 0.0 
4.127353325470e-04 1.463881506699e-05 0.0 
0.0 0.0 -2.445159696047e-04 
-1.144117684349e-03 -2.458346103954e-04 0.0 
-2.458346103954e-04 6.462839923362e-03 0.0 
0.0 0.0 -9.982306137915e-04 
-1.191309827109e-03 -2.266694415371e-04 0.0 
-2.266694415371e-04 6.904200660223e-03 0.0 
0.0 0.0 -1.064501221861e-03 
-9.418341400068e-04 -4.830251057162e-04 0.0 
-4.830251057162e-04 5.517520339527e-03 0.0 
0.0 0.0 -8.838659695519e-04 
-8.408929706273e-04 2.533730996691e-04 0.0 
2.533730996691e-04 6.403362100756e-03 0.0 
0.0 0.0 -1.070909199420e-03 
-8.123210735737e-04 3.267258872306e-04 0.0 
3.267258872306e-04 6.208133296915e-03 0.0 
0.0 0.0 -1.041442769611e-03 
2.640974401389e-04 -6.120925406395e-04 0.0 
-6.120925406395e-04 1.170954425306e-03 0.0 
0.0 0.0 -4.384799197683e-04 
2.270076462303e-04 -1.094827319140e-03 0.0 
-1.094827319140e-03 9.810701092341e-04 0.0 
0.0 0.0 -4.046094527367e-04 
3.640551099348e-04 -1.155184556941e-03 0.0 
-1.155184556941e-03 4.131638396833e-04 0.0 
0.0 0.0 -3.139947606995e-04 
1.171979887630e-04 -1.455005939438e-03 0.0 
-1.455005939438e-03 9.453620887615e-04 0.0 
0.0 0.0 -3.763072820036e-04 
2.556371078841e-05 -1.262704422364e-03 0.0 
-1.262704422364e-03 1.454464914390e-03 0.0 
0.0 0.0 -4.289053338950e-04 
-8.947678599683e-05 -1.490768828574e-03 0.0 
-1.490768828574e-03 1.396555812330e-03 0.0 
0.0 0.0 -3.979758726750e-04 
2.329510608105e-05 -1.514078363831e-03 0.0 
-1.514078363831e-03 9.452166061342e-04 0.0 
0.0 0.0 -3.667276109228e-04 
-2.100553572376e-04 -1.558593298157e-03 0.0 
-1.558593298157e-03 1.402552177449e-03 0.0 
0.0 0.0 -3.771854463149e-04 
-2.665534885264e-04 -1.440543195804e-03 0.0 
-1.440543195804e-03 1.828480576306e-03 0.0 
0.0 0.0 -4.192720002935e-04 
-3.858828221178e-04 -1.432331817451e-03 0.0 
-1.432331817451e-03 1.803183213938e-03 0.0 
0.0 0.0 -3.853829593207e-04 
-2.961455271275e-04 -1.398427341996e-03 0.0 
-1.398427341996e-03 1.416563920223e-03 0.0 
0.0 0.0 -3.646163496721e-04 
-4.654616132702e-04 -1.259328861233e-03 0.0 
-1.259328861233e-03 1.764244007017e-03 0.0 
0.0 0.0 -3.558200702016e-04 
-1.201889062818e-03 -2.543911578407e-04 0.0 
-2.543911578407e-04 7.124942193322e-03 0.0 
0.0 0.0 -1.101875158976e-03 
5.412904168970e-04 -8.385322248721e-05 0.0 
-8.385322248721e-05 -1.404456435363e-04 0.0 
0.0 0.0 -1.717906171546e-04 
-9.463800631761e-04 3.860027273263e-04 0.0 
3.860027273263e-04 5.343793686453e-03 0.0 
0.0 0.0 -8.288706041983e-04 
-1.014362980206e-03 -3.321555799501e-04 0.0 
-3.321555799501e-04 6.794335154877e-03 0.0 
0.0 0.0 -1.099012274073e-03 
-8.569045148225e-04 3.078985663283e-05 0.0 
3.078985663283e-05 6.510332221214e-03 0.0 
0.0 0.0 -1.090660416876e-03 
-1.178566600954e-03 2.066846340334e-04 0.0 
2.066846340334e-04 7.236502688045e-03 0.0 
0.0 0.0 -1.085032576515e-03 
-1.153658343620e-03 1.755152393049e-04 0.0 
1.755152393049e-04 7.044914703598e-03 0.0 
0.0 0.0 -1.055603631703e-03 
-1.098678134952e-03 1.564744163133e-04 0.0 
1.564744163133e-04 6.595940529562e-03 0.0 
0.0 0.0 -9.897378988699e-04 
-1.129113373444e-03 1.503482155027e-04 0.0 
1.503482155027e-04 6.853244331223e-03 0.0 
0.0 0.0 -1.026001677571e-03 
-1.181824965340e-03 1.678156779438e-04 0.0 
1.678156779438e-04 7.301020112961e-03 0.0 
0.0 0.0 -1.091942449670e-03 
-1.157557793781e-03 1.434383666525e-04 0.0 
1.434383666525e-04 7.107529686986e-03 0.0 
0.0 0.0 -1.062342898562e-03 
-1.103342207633e-03 1.238709536611e-04 0.0 
1.238709536611e-04 6.657901312686e-03 0.0 
0.0 0.0 -9.962627399151e-04 
-1.130139591936e-03 1.194308116232e-04 0.0 
1.194308116232e-04 6.908298246914e-03 0.0 
0.0 0.0 -1.032646955902e-03 
-1.072650473166e-03 9.941159075290e-05 0.0 
9.941159075290e-05 6.455574140328e-03 0.0 
0.0 0.0 -9.664557332607e-04 
-1.101356119743e-03 9.815565709695e-05 0.0 
9.815565709695e-05 6.706288769856e-03 0.0 
0.0 0.0 -1.002889032254e-03 
-1.155889062888e-03 1.141636426079e-04 0.0 
1.141636426079e-04 7.157664523701e-03 0.0 
0.0 0.0 -1.069134413525e-03 
-1.129364737971e-03 9.069177524751e-05 0.0 
9.069177524751e-05 6.958007176896e-03 0.0 
0.0 0.0 -1.039387411609e-03 
-1.074512864600e-03 8.003659807365e-05 0.0 
8.003659807365e-05 6.506063569350e-03 0.0 
0.0 0.0 -9.730575354659e-04 
-1.102505706781e-03 6.895302199807e-05 0.0 
6.895302199807e-05 6.755927681467e-03 0.0 
0.0 0.0 -1.009574527126e-03 
-1.046730538131e-03 5.947738879001e-05 0.0 
5.947738879001e-05 6.301429284161e-03 0.0 
0.0 0.0 -9.431603702596e-04 
-1.071542509842e-03 4.629020306893e-05 0.0 
4.629020306893e-05 6.545497453892e-03 0.0 
0.0 0.0 -9.796061197752e-04 
-1.128792209327e-03 6.597728227981e-05 0.0 
6.597728227981e-05 7.006220652052e-03 0.0 
0.0 0.0 -1.046101832713e-03 
-4.073418969283e-04 -1.607374412238e-04 0.0 
-1.607374412238e-04 1.828608037656e-03 0.0 
0.0 0.0 -3.035957800550e-04 
-7.554826328512e-04 -1.381735686785e-04 0.0 
-1.381735686785e-04 5.982792301535e-03 0.0 
0.0 0.0 -1.017732614895e-03 
-8.650297313857e-04 -1.043541426240e-04 0.0 
-1.043541426240e-04 6.483758424389e-03 0.0 
0.0 0.0 -1.083831836677e-03 
-7.928232165852e-04 -3.175969841458e-04 0.0 
-3.175969841458e-04 3.652484692606e-03 0.0 
0.0 0.0 -5.671321338944e-04 
-8.566347672055e-04 -3.217821912401e-04 0.0 
-3.217821912401e-04 4.048954472777e-03 0.0 
0.0 0.0 -6.325382687906e-04 
-8.804918361104e-04 -3.627202257711e-04 0.0 
-3.627202257711e-04 4.282181100263e-03 0.0 
0.0 0.0 -6.695659616924e-04 
-9.177573047803e-04 -2.924538415403e-04 0.0 
-2.924538415403e-04 4.507721826303e-03 0.0 
0.0 0.0 -6.986863204145e-04 
-1.099135465243e-03 4.357947276918e-05 0.0 
4.357947276918e-05 6.797671672464e-03 0.0 
0.0 0.0 -1.015477767897e-03 
-1.160436245727e-03 6.544078644588e-05 0.0 
6.544078644588e-05 7.256684604588e-03 0.0 
0.0 0.0 -1.082739357160e-03 
7.036319334209e-05 1.449833710054e-03 0.0 
1.449833710054e-03 1.011168072104e-03 0.0 
0.0 0.0 -3.730214571323e-04 
-1.313033917885e-04 1.466714958247e-03 0.0 
1.466714958247e-03 1.502828426790e-03 0.0 
0.0 0.0 -4.032920832132e-04 
-1.202425520628e-03 2.413601229435e-04 0.0 
2.413601229435e-04 7.423802842249e-03 0.0 
0.0 0.0 -1.114382729655e-03 
-1.180850422310e-03 -1.936004808914e-04 0.0 
-1.936004808914e-04 6.684429122052e-03 0.0 
0.0 0.0 -1.027045364000e-03 
-1.134320678585e-03 -2.084199271041e-04 0.0 
-2.084199271041e-04 6.243084428302e-03 0.0 
0.0 0.0 -9.609938998495e-04 
-5.952582294012e-04 8.316068584819e-04 0.0 
8.316068584819e-04 3.858437738170e-03 0.0 
0.0 0.0 -6.721935305596e-04 
-6.370100935664e-04 8.121723615139e-04 0.0 
8.121723615139e-04 3.769953827514e-03 0.0 
0.0 0.0 -6.449639573754e-04 
-5.665659749616e-04 8.991854182347e-04 0.0 
8.991854182347e-04 3.453268816289e-03 0.0 
0.0 0.0 -6.093131083769e-04 
-6.122481697245e-04 8.584550154617e-04 0.0 
8.584550154617e-04 3.367517643807e-03 0.0 
0.0 0.0 -5.812298138028e-04 
-6.717347223774e-04 7.671538527367e-04 0.0 
7.671538527367e-04 3.680324616707e-03 0.0 
0.0 0.0 -6.173664885638e-04 
-5.474862438506e-04 9.567364556164e-04 0.0 
9.567364556164e-04 3.048590303343e-03 0.0 
0.0 0.0 -5.448148816535e-04 
-7.720267330795e-04 -4.449545656596e-04 0.0 
-4.449545656596e-04 5.565922562376e-03 0.0 
0.0 0.0 -9.373051277721e-04 
-1.182206612194e-03 1.041005248131e-04 0.0 
1.041005248131e-04 7.409010778114e-03 0.0 
0.0 0.0 -1.105708206284e-03 
-5.928875136439e-04 -5.713513742364e-04 0.0 
-5.713513742364e-04 2.330327898660e-03 0.0 
0.0 0.0 -3.852871208612e-04 
-5.197872744909e-04 -4.881912543796e-04 0.0 
-4.881912543796e-04 1.906337896852e-03 0.0 
0.0 0.0 -3.193625892355e-04 
-1.227873719132e-03 -1.791865956722e-04 0.0 
-1.791865956722e-04 7.126040838435e-03 0.0 
0.0 0.0 -1.093300181677e-03 
-6.499802166189e-04 -1.689058959396e-04 0.0 
-1.689058959396e-04 5.481207367019e-03 0.0 
0.0 0.0 -9.522822042369e-04 
-8.770180670307e-04 5.584319225786e-04 0.0 
5.584319225786e-04 5.741150606381e-03 0.0 
0.0 0.0 -9.319735432435e-04 
-8.671724403427e-04 5.454834419887e-04 0.0 
5.454834419887e-04 5.872286509418e-03 0.0 
0.0 0.0 -9.598347391831e-04 
-9.359860302395e-04 5.226295226197e-04 0.0 
5.226295226197e-04 6.177406845640e-03 0.0 
0.0 0.0 -9.957130113267e-04 
-9.320971335610e-04 5.080083978468e-04 0.0 
5.080083978468e-04 6.315456934145e-03 0.0 
0.0 0.0 -1.023751803962e-03 
-1.000869956237e-03 4.939881751637e-04 0.0 
4.939881751637e-04 6.620841154437e-03 0.0 
0.0 0.0 -1.059873349132e-03 
-1.004419613008e-03 4.777529205192e-04 0.0 
4.777529205192e-04 6.763876066662e-03 0.0 
0.0 0.0 -1.087854580038e-03 
-9.336137141730e-04 4.809338762962e-04 0.0 
4.809338762962e-04 6.463526298401e-03 0.0 
0.0 0.0 -1.051791170495e-03 
-9.097029887622e-04 3.089094526998e-04 0.0 
3.089094526998e-04 6.700162919637e-03 0.0 
0.0 0.0 -1.107463318235e-03 
-1.013980886497e-03 4.491053628713e-04 0.0 
4.491053628713e-04 6.922381498406e-03 0.0 
0.0 0.0 -1.115916943430e-03 
-1.033295848304e-03 4.860531472176e-05 0.0 
4.860531472176e-05 6.321432505072e-03 0.0 
0.0 0.0 -9.487150400336e-04 
-6.387227248277e-04 3.148916192941e-04 0.0 
3.148916192941e-04 5.411845409225e-03 0.0 
0.0 0.0 -9.398448712237e-04 
-3.958753706079e-04 -1.306941406373e-03 0.0 
-1.306941406373e-03 2.210168825673e-03 0.0 
0.0 0.0 -4.474652294669e-04 
-3.867396229061e-04 -1.939364425131e-04 0.0 
-1.939364425131e-04 1.612473113241e-03 0.0 
0.0 0.0 -2.752498982733e-04 
-3.548792531294e-04 -1.099906862766e-03 0.0 
-1.099906862766e-03 1.383653509656e-03 0.0 
0.0 0.0 -3.352047878591e-04 
-4.486846026636e-04 -1.253624941077e-04 0.0 
-1.253624941077e-04 2.009661496099e-03 0.0 
0.0 0.0 -3.299748606085e-04 
-5.597023421830e-04 -1.650736869684e-04 0.0 
-1.650736869684e-04 2.479203026553e-03 0.0 
0.0 0.0 -3.961554456411e-04 
-1.033444219732e-03 -2.887128519644e-04 0.0 
-2.887128519644e-04 7.020027445513e-03 0.0 
0.0 0.0 -1.136360603439e-03 
-1.072616243485e-03 4.757105308921e-04 0.0 
4.757105308921e-04 7.071175993343e-03 0.0 
0.0 0.0 -1.124065295910e-03 
-1.065195527322e-03 4.849349100928e-04 0.0 
4.849349100928e-04 6.917548798149e-03 0.0 
0.0 0.0 -1.095615423988e-03 
-6.465811726499e-04 7.943118945265e-04 0.0 
7.943118945265e-04 3.291375737462e-03 0.0 
0.0 0.0 -5.539799138139e-04 
-6.949762395585e-04 6.852387151617e-04 0.0 
6.852387151617e-04 3.583300335040e-03 0.0 
0.0 0.0 -5.905304635153e-04 
-9.409548518096e-04 2.363101942403e-04 0.0 
2.363101942403e-04 6.893498553700e-03 0.0 
0.0 0.0 -1.136278651916e-03 
-1.031330535355e-03 1.691125997159e-04 0.0 
1.691125997159e-04 6.096244556870e-03 0.0 
0.0 0.0 -9.177848451843e-04 
-1.043451867895e-03 1.026605375003e-04 0.0 
1.026605375003e-04 6.207052540714e-03 0.0 
0.0 0.0 -9.302130594432e-04 
-1.010991519056e-03 8.266817185374e-05 0.0 
8.266817185374e-05 5.998028369178e-03 0.0 
0.0 0.0 -9.001900590098e-04 
-3.040782914078e-04 -1.048978576797e-04 0.0 
-1.048978576797e-04 1.479833111238e-03 0.0 
0.0 0.0 -2.595221258752e-04 
-1.668157979825e-04 -1.176981615551e-03 0.0 
-1.176981615551e-03 1.066881825257e-03 0.0 
0.0 0.0 -3.546314877250e-04 
-1.207894844135e-03 1.612820959581e-04 0.0 
1.612820959581e-04 7.555800088084e-03 0.0 
0.0 0.0 -1.128363834889e-03 
-1.496144498695e-04 1.267178183608e-03 0.0 
1.267178183608e-03 1.924933515505e-03 0.0 
0.0 0.0 -4.615872697407e-04 
-2.777481430259e-04 1.364720531140e-03 0.0 
1.364720531140e-03 1.941765323137e-03 0.0 
0.0 0.0 -4.342639779644e-04 
4.034334735409e-04 2.445431345025e-04 0.0 
2.445431345025e-04 -9.041096436294e-05 0.0 
0.0 0.0 -1.341525039334e-04 
2.051377463425e-04 -1.961701048020e-05 0.0 
-1.961701048020e-05 -5.720414671563e-05 0.0 
0.0 0.0 -6.340011412580e-05 
-1.121483383227e-03 6.295637452115e-05 0.0 
6.295637452115e-05 7.029111019756e-03 0.0 
0.0 0.0 -1.051814883004e-03 
-1.177494848702e-03 6.582362175726e-05 0.0 
6.582362175726e-05 7.492557943411e-03 0.0 
0.0 0.0 -1.117859435171e-03 
-9.333898311745e-04 -3.509792996749e-04 0.0 
-3.509792996749e-04 4.719089492349e-03 0.0 
0.0 0.0 -7.356929296387e-04 
-9.785857666390e-04 -2.860980495383e-04 0.0 
-2.860980495383e-04 4.943354100410e-03 0.0 
0.0 0.0 -7.648299719236e-04 
-9.654424262213e-04 -2.714537898239e-04 0.0 
-2.714537898239e-04 6.765873836397e-03 0.0 
0.0 0.0 -1.107558395918e-03 
-5.027897087658e-04 -9.882385644824e-04 0.0 
-9.882385644824e-04 1.682465534830e-03 0.0 
0.0 0.0 -3.185922720913e-04 
-1.207361177183e-03 7.219593573452e-05 0.0 
7.219593573452e-05 7.710745314262e-03 0.0 
0.0 0.0 -1.149181664990e-03 
-7.221207359935e-04 -2.319743394949e-04 0.0 
-2.319743394949e-04 5.736084564024e-03 0.0 
0.0 0.0 -9.807908033776e-04 
-6.199444920269e-04 -2.803458900383e-04 0.0 
-2.803458900383e-04 5.234294253432e-03 0.0 
0.0 0.0 -9.152404036621e-04 
-8.850179884087e-04 -2.107315013722e-04 0.0 
-2.107315013722e-04 4.277220058387e-03 0.0 
0.0 0.0 -6.604623333687e-04 
-7.131176054971e-05 1.522786260440e-03 0.0 
1.522786260440e-03 1.128166094303e-03 0.0 
0.0 0.0 -3.722456989795e-04 
1.506124378874e-04 1.353289082485e-03 0.0 
1.353289082485e-03 6.471948717885e-04 0.0 
0.0 0.0 -3.185609919049e-04 
-2.939037762269e-04 -1.257650241065e-03 0.0 
-1.257650241065e-03 2.275247472139e-03 0.0 
0.0 0.0 -4.845585894574e-04 
-5.488065046231e-04 -1.067445958774e-03 0.0 
-1.067445958774e-03 2.060865836395e-03 0.0 
0.0 0.0 -3.723415964733e-04 
-4.888098213751e-04 -1.052003350203e-04 0.0 
-1.052003350203e-04 2.216308377581e-03 0.0 
0.0 0.0 -3.583452993329e-04 
-1.062272686561e-03 -2.298804836140e-04 0.0 
-2.298804836140e-04 7.251651551201e-03 0.0 
0.0 0.0 -1.173829981771e-03 
-1.227876715994e-03 1.893009349700e-04 0.0 
1.893009349700e-04 7.743204952100e-03 0.0 
0.0 0.0 -1.157575248917e-03 
-9.423902529627e-04 4.304393189543e-04 0.0 
4.304393189543e-04 6.620906454591e-03 0.0 
0.0 0.0 -1.080172819833e-03 
-8.612685947681e-04 4.776509476654e-04 0.0 
4.776509476654e-04 6.154589150170e-03 0.0 
0.0 0.0 -1.015677837919e-03 
-1.022115058251e-03 4.070298504517e-04 0.0 
4.070298504517e-04 7.083428986968e-03 0.0 
0.0 0.0 -1.144955025780e-03 
-3.834899570330e-04 -7.958142673473e-04 0.0 
-7.958142673473e-04 1.299084562353e-03 0.0 
0.0 0.0 -2.798534577099e-04 
-1.102214544351e-03 -3.027150081502e-04 0.0 
-3.027150081502e-04 7.282068807861e-03 0.0 
0.0 0.0 -1.165794428787e-03 
-1.216895343866e-03 -1.441675384032e-04 0.0 
-1.441675384032e-04 6.902897395280e-03 0.0 
0.0 0.0 -1.056136825731e-03 
-1.138941837453e-03 4.914289706325e-04 0.0 
4.914289706325e-04 7.351648623001e-03 0.0 
0.0 0.0 -1.157598467365e-03 
-1.123764904198e-03 4.819548128218e-04 0.0 
4.819548128218e-04 7.209866110785e-03 0.0 
0.0 0.0 -1.131219827106e-03 
-2.809946016527e-04 1.203335788346e-03 0.0 
1.203335788346e-03 2.340542833527e-03 0.0 
0.0 0.0 -4.968499830348e-04 
-3.877477755505e-04 1.221962387701e-03 0.0 
1.221962387701e-03 2.338693931197e-03 0.0 
0.0 0.0 -4.705806478706e-04 
-4.036150361409e-04 1.336476693924e-03 0.0 
1.336476693924e-03 1.977592500610e-03 0.0 
0.0 0.0 -4.078257031896e-04 
-4.816859073884e-04 1.176560530353e-03 0.0 
1.176560530353e-03 2.343460801890e-03 0.0 
0.0 0.0 -4.438024830152e-04 
-9.732353814622e-04 3.041939387352e-04 0.0 
3.041939387352e-04 5.448266059909e-03 0.0 
0.0 0.0 -8.361670615232e-04 
-3.925437291381e-04 1.104523798212e-03 0.0 
1.104523798212e-03 2.729748532404e-03 0.0 
0.0 0.0 -5.333915535664e-04 
-9.057439282626e-04 4.261225243385e-04 0.0 
4.261225243385e-04 5.077306138642e-03 0.0 
0.0 0.0 -7.939299641313e-04 
-8.975208378586e-04 3.720025570421e-04 0.0 
3.720025570421e-04 4.930717473606e-03 0.0 
0.0 0.0 -7.665196690739e-04 
-8.600171473097e-04 4.161603871668e-04 0.0 
4.161603871668e-04 4.671461707836e-03 0.0 
0.0 0.0 -7.319524942586e-04 
-7.253516315596e-04 6.727829162625e-04 0.0 
6.727829162625e-04 3.972513731187e-03 0.0 
0.0 0.0 -6.527873785750e-04 
-7.385699352999e-04 5.948696391935e-04 0.0 
5.948696391935e-04 3.862508165088e-03 0.0 
0.0 0.0 -6.261871041946e-04 
-1.081656769382e-04 8.687696267767e-04 0.0 
8.687696267767e-04 2.439613486548e-03 0.0 
0.0 0.0 -5.534964465553e-04 
-4.602867709727e-04 2.826245204948e-04 0.0 
2.826245204948e-04 4.601098480980e-03 0.0 
0.0 0.0 -8.390310526140e-04 
-8.925257354332e-04 -4.271097572203e-04 0.0 
-4.271097572203e-04 4.492522403458e-03 0.0 
0.0 0.0 -7.069621042110e-04 
-1.002856146604e-03 -4.033307783673e-04 0.0 
-4.033307783673e-04 5.565178736137e-03 0.0 
0.0 0.0 -8.751042800696e-04 
-7.003078251289e-04 -5.958729416123e-04 0.0 
-5.958729416123e-04 4.895224615458e-03 0.0 
0.0 0.0 -8.350146568664e-04 
-1.207341521713e-03 1.295685592876e-04 0.0 
1.295685592876e-04 7.603516284320e-03 0.0 
0.0 0.0 -1.135109731873e-03 
-1.234147304705e-03 1.158810138817e-04 0.0 
1.158810138817e-04 7.860000857238e-03 0.0 
0.0 0.0 -1.171938512032e-03 
-1.015895156183e-03 6.930194114772e-05 0.0 
6.930194114772e-05 6.052013455342e-03 0.0 
0.0 0.0 -9.065739516476e-04 
-9.767996699331e-04 4.467953763507e-05 0.0 
4.467953763507e-05 5.838511550894e-03 0.0 
0.0 0.0 -8.764137937918e-04 
-4.392150575772e-04 -3.259674398810e-04 0.0 
-3.259674398810e-04 1.665337581441e-03 0.0 
0.0 0.0 -2.813159824896e-04 
-4.247097810398e-04 -3.644747280315e-04 0.0 
-3.644747280315e-04 1.471773465299e-03 0.0 
0.0 0.0 -2.533966087790e-04 
-8.177306416292e-04 -6.121829702514e-04 0.0 
-6.121829702514e-04 4.811548278672e-03 0.0 
0.0 0.0 -7.894497706086e-04 
-1.082360538362e-03 -3.264662476232e-04 0.0 
-3.264662476232e-04 7.048376439915e-03 0.0 
0.0 0.0 -1.127529358476e-03 
-1.227748397910e-03 2.361030321983e-04 0.0 
2.361030321983e-04 7.672982991330e-03 0.0 
0.0 0.0 -1.150095860580e-03 
-1.249888144017e-03 2.671434152154e-04 0.0 
2.671434152154e-04 7.859407510661e-03 0.0 
0.0 0.0 -1.179372829571e-03 
-1.222973776595e-03 2.761414432265e-04 0.0 
2.761414432265e-04 7.603174812567e-03 0.0 
0.0 0.0 -1.143369325255e-03 
-9.935045909858e-04 -2.028359368237e-04 0.0 
-2.028359368237e-04 6.995967624477e-03 0.0 
0.0 0.0 -1.144273392007e-03 
3.495269992969e-05 1.197649878409e-04 0.0 
1.197649878409e-04 2.359795329880e-03 0.0 
0.0 0.0 -5.733740095480e-04 
-4.781962153862e-04 -1.012252719499e-04 0.0 
-1.012252719499e-04 4.730438814657e-03 0.0 
0.0 0.0 -8.590966742019e-04 
3.810975112987e-04 -3.002206319640e-04 0.0 
-3.002206319640e-04 -7.297745490904e-05 0.0 
0.0 0.0 -1.320514527384e-04 
-7.161621287090e-04 5.841402981115e-04 0.0 
5.841402981115e-04 5.248781673340e-03 0.0 
0.0 0.0 -8.884627649733e-04 
-3.115080858313e-04 -2.227975807547e-04 0.0 
-2.227975807547e-04 1.202076532669e-03 0.0 
0.0 0.0 -2.162536877156e-04 
-1.055053453560e-03 4.626735760724e-04 0.0 
4.626735760724e-04 6.476326574185e-03 0.0 
0.0 0.0 -1.010319580236e-03 
-1.255576380871e-03 -1.315357551102e-04 0.0 
-1.315357551102e-04 7.338059588025e-03 0.0 
0.0 0.0 -1.122815839103e-03 
-1.267850494462e-03 -1.674624135979e-04 0.0 
-1.674624135979e-04 7.563446267715e-03 0.0 
0.0 0.0 -1.159213750608e-03 
-1.010702044889e-03 2.850279828007e-04 0.0 
2.850279828007e-04 7.183997457293e-03 0.0 
0.0 0.0 -1.171959308352e-03 
-8.963384137737e-04 2.488891316052e-04 0.0 
2.488891316052e-04 4.875662042004e-03 0.0 
0.0 0.0 -7.470952864203e-04 
-7.058007902936e-04 5.271243929450e-04 0.0 
5.271243929450e-04 5.385179954600e-03 0.0 
0.0 0.0 -9.162722660995e-04 
-6.228080214073e-04 5.120192170004e-04 0.0 
5.120192170004e-04 5.067178617559e-03 0.0 
0.0 0.0 -8.808726170640e-04 
-8.477370711112e-04 3.577431200157e-04 0.0 
3.577431200157e-04 4.525141676784e-03 0.0 
0.0 0.0 -7.048691535495e-04 
-8.132640120407e-04 4.004719993994e-04 0.0 
4.004719993994e-04 4.272493314920e-03 0.0 
0.0 0.0 -6.707530558731e-04 
-8.209482996094e-04 4.682329320479e-04 0.0 
4.682329320479e-04 4.408754927634e-03 0.0 
0.0 0.0 -6.972958566626e-04 
-7.782280701881e-04 4.523325447572e-04 0.0 
4.523325447572e-04 4.016412533301e-03 0.0 
0.0 0.0 -6.359606378414e-04 
-4.177281549139e-04 -1.168672558867e-03 0.0 
-1.168672558867e-03 2.631942087578e-03 0.0 
0.0 0.0 -5.122594947013e-04 
-4.962383683680e-04 -1.157174554661e-03 0.0 
-1.157174554661e-03 2.541178569243e-03 0.0 
0.0 0.0 -4.750188804659e-04 
-1.154021499096e-03 4.782775772644e-04 0.0 
4.782775772644e-04 7.573815285751e-03 0.0 
0.0 0.0 -1.192042136895e-03 
-1.094464537807e-03 4.618413052259e-04 0.0 
4.618413052259e-04 7.386095086857e-03 0.0 
0.0 0.0 -1.178660172201e-03 
-1.187593002781e-03 4.811019602591e-04 0.0 
4.811019602591e-04 7.655964388501e-03 0.0 
0.0 0.0 -1.193029175878e-03 
-1.163263876641e-03 4.785864187479e-04 0.0 
4.785864187479e-04 7.511604884733e-03 0.0 
0.0 0.0 -1.168165168231e-03 
-1.037083014282e-03 2.184072236099e-04 0.0 
2.184072236099e-04 7.374910845912e-03 0.0 
0.0 0.0 -1.200910491468e-03 
-9.753553652922e-04 1.640389574658e-04 0.0 
1.640389574658e-04 7.090218753853e-03 0.0 
0.0 0.0 -1.164168769488e-03 
-6.028560444752e-04 -1.360178339637e-04 0.0 
-1.360178339637e-04 2.675687027615e-03 0.0 
0.0 0.0 -4.227350873389e-04 
-7.047203305141e-04 5.847954661015e-04 0.0 
5.847954661015e-04 3.476801185836e-03 0.0 
0.0 0.0 -5.646260317871e-04 
-1.245127779796e-03 1.777850177793e-04 0.0 
1.777850177793e-04 7.993741479566e-03 0.0 
0.0 0.0 -1.194151889699e-03 
-8.817872830960e-04 3.208786017712e-04 0.0 
3.208786017712e-04 4.774377627364e-03 0.0 
0.0 0.0 -7.390869131010e-04 
-1.164936831278e-03 -3.113795227657e-04 0.0 
-3.113795227657e-04 7.515893028419e-03 0.0 
0.0 0.0 -1.192835421428e-03 
-1.142129895980e-03 -3.204237901470e-04 0.0 
-3.204237901470e-04 7.305220282504e-03 0.0 
0.0 0.0 -1.156047193884e-03 
8.143997684988e-05 -5.632529459351e-05 0.0 
-5.632529459351e-05 -1.764449114255e-05 0.0 
0.0 0.0 -2.734092244600e-05 
2.721987346519e-04 -4.520014711284e-04 0.0 
-4.520014711284e-04 1.905810524669e-05 0.0 
0.0 0.0 -1.248243599565e-04 
-1.231567197499e-03 6.211834964842e-05 0.0 
6.211834964842e-05 7.963702026826e-03 0.0 
0.0 0.0 -1.184588873336e-03 
-5.000595373901e-04 1.204680535621e-03 0.0 
1.204680535621e-03 1.991465428866e-03 0.0 
0.0 0.0 -3.811925308841e-04 
-5.489936022904e-04 1.042785009975e-03 0.0 
1.042785009975e-03 2.300834123338e-03 0.0 
0.0 0.0 -4.158690271831e-04 
-3.842703009259e-04 1.346678098862e-03 0.0 
1.346678098862e-03 1.633275420512e-03 0.0 
0.0 0.0 -3.660215567096e-04 
-1.330527207980e-03 -3.853221662851e-05 0.0 
-3.853221662851e-05 8.239463133450e-03 0.0 
0.0 0.0 -1.258310293365e-03 
-8.465756460554e-04 5.727197951410e-07 0.0 
5.727197951410e-07 4.947192301730e-03 0.0 
0.0 0.0 -7.479256703001e-04 
-1.285435156603e-03 -1.236167483815e-04 0.0 
-1.236167483815e-04 7.770617594905e-03 0.0 
0.0 0.0 -1.189418985649e-03 
-7.744068399611e-04 5.950771192320e-04 0.0 
5.950771192320e-04 4.259141188703e-03 0.0 
0.0 0.0 -6.884682336192e-04 
-1.252365039908e-03 8.497968466370e-05 0.0 
8.497968466370e-05 8.173452803744e-03 0.0 
0.0 0.0 -1.216510697198e-03 
-7.049683277386e-04 4.524468991294e-04 0.0 
4.524468991294e-04 5.539667182357e-03 0.0 
0.0 0.0 -9.449116413281e-04 
-5.109301527551e-04 9.153066593930e-04 0.0 
9.153066593930e-04 3.518995939107e-03 0.0 
0.0 0.0 -6.353966017694e-04 
-8.973844045661e-04 -2.448816665564e-04 0.0 
-2.448816665564e-04 6.506541659943e-03 0.0 
0.0 0.0 -1.078177493492e-03 
-1.200545941931e-03 2.302554044874e-05 0.0 
2.302554044874e-05 7.723131628604e-03 0.0 
0.0 0.0 -1.149140729088e-03 
-1.267685038875e-03 6.016813044477e-05 0.0 
6.016813044477e-05 8.228074956414e-03 0.0 
0.0 0.0 -1.221625961084e-03 
-9.734656256454e-04 9.189307336811e-05 0.0 
9.189307336811e-05 5.749626761027e-03 0.0 
0.0 0.0 -8.638707813346e-04 
-9.480895872449e-04 4.301450456172e-05 0.0 
4.301450456172e-05 5.516146053233e-03 0.0 
0.0 0.0 -8.327709333130e-04 
-1.011335939965e-03 1.092245285963e-04 0.0 
1.092245285963e-04 5.940162525294e-03 0.0 
0.0 0.0 -8.925140200429e-04 
4.463857562194e-04 7.689358174209e-04 0.0 
7.689358174209e-04 8.096987600889e-05 0.0 
0.0 0.0 -2.260095566693e-04 
2.840813490605e-04 4.390350068277e-04 0.0 
4.390350068277e-04 7.817808705327e-06 0.0 
0.0 0.0 -1.250996390425e-04 
-1.210084270230e-03 9.714327804011e-05 0.0 
9.714327804011e-05 7.658599637129e-03 0.0 
0.0 0.0 -1.142090266074e-03 
-7.141279186037e-04 -2.802255352289e-04 0.0 
-2.802255352289e-04 3.181146952729e-03 0.0 
0.0 0.0 -5.006138788623e-04 
-7.694336124780e-04 -2.009358515531e-04 0.0 
-2.009358515531e-04 3.447879024720e-03 0.0 
0.0 0.0 -5.359218444892e-04 
-5.552155606093e-04 -8.313172136283e-04 0.0 
-8.313172136283e-04 1.917610481523e-03 0.0 
0.0 0.0 -3.334096804080e-04 
-5.855222745600e-04 -8.890134040167e-04 0.0 
-8.890134040167e-04 2.304658271308e-03 0.0 
0.0 0.0 -3.985542937016e-04 
-9.453814008689e-04 -4.031453143009e-04 0.0 
-4.031453143009e-04 4.927324523234e-03 0.0 
0.0 0.0 -7.728092966600e-04 
-8.970888917955e-04 -4.820738487373e-04 0.0 
-4.820738487373e-04 4.692923205728e-03 0.0 
0.0 0.0 -7.441750962829e-04 
-1.057585005233e-03 4.777756013197e-04 0.0 
4.777756013197e-04 6.625238408207e-03 0.0 
0.0 0.0 -1.038692069610e-03 
-1.108626014693e-03 4.632490588969e-04 0.0 
4.632490588969e-04 6.908491944325e-03 0.0 
0.0 0.0 -1.074129358999e-03 
-9.418242035971e-04 5.272068290834e-04 0.0 
5.272068290834e-04 6.041038675917e-03 0.0 
0.0 0.0 -9.675620497173e-04 
-6.990392591995e-04 -3.338931181341e-04 0.0 
-3.338931181341e-04 5.500989544803e-03 0.0 
0.0 0.0 -9.439558448496e-04 
-6.028432506679e-04 -3.974427061355e-04 0.0 
-3.974427061355e-04 5.004524485729e-03 0.0 
0.0 0.0 -8.783802297791e-04 
-5.183067816985e-04 -3.360734288677e-04 0.0 
-3.360734288677e-04 4.731806317453e-03 0.0 
0.0 0.0 -8.502765121185e-04 
-1.259796436841e-03 1.397569485309e-04 0.0 
1.397569485309e-04 8.039016122005e-03 0.0 
0.0 0.0 -1.199867006878e-03 
-1.287397602500e-03 1.387283529904e-04 0.0 
1.387283529904e-04 8.359284824254e-03 0.0 
0.0 0.0 -1.242728214876e-03 
-3.379919536494e-04 -1.097545305898e-03 0.0 
-1.097545305898e-03 2.729711593676e-03 0.0 
0.0 0.0 -5.488632449009e-04 
-2.035001513821e-04 -1.112025139158e-03 0.0 
-1.112025139158e-03 2.365560687545e-03 0.0 
0.0 0.0 -5.212126360957e-04 
-5.194133645792e-04 -1.055659007126e-03 0.0 
-1.055659007126e-03 2.949517889644e-03 0.0 
0.0 0.0 -5.390128571062e-04 
-1.267707936259e-03 2.118212896833e-04 0.0 
2.118212896833e-04 8.185373915988e-03 0.0 
0.0 0.0 -1.223056365294e-03 
-1.302765377273e-03 -1.484462634259e-04 0.0 
-1.484462634259e-04 8.004925592989e-03 0.0 
0.0 0.0 -1.224004481682e-03 
-1.287300987604e-03 -2.136982349667e-04 0.0 
-2.136982349667e-04 7.780826338296e-03 0.0 
0.0 0.0 -1.195820777905e-03 
-2.832529258607e-04 -2.494591043419e-04 0.0 
-2.494591043419e-04 1.024201089409e-03 0.0 
0.0 0.0 -1.882176919714e-04 
-3.969707252897e-04 -4.311951738694e-04 0.0 
-4.311951738694e-04 1.271754487823e-03 0.0 
0.0 0.0 -2.310783895037e-04 
2.054226679739e-05 1.347833966380e-03 0.0 
1.347833966380e-03 8.186709947017e-04 0.0 
0.0 0.0 -3.411234323309e-04 
1.823631015032e-04 1.033435563719e-03 0.0 
1.033435563719e-03 3.956751210192e-04 0.0 
0.0 0.0 -2.477306667953e-04 
-1.268592166038e-03 3.040791407146e-04 0.0 
3.040791407146e-04 8.023493563003e-03 0.0 
0.0 0.0 -1.207258722210e-03 
-1.243812686443e-03 3.149820227485e-04 0.0 
3.149820227485e-04 7.787606541598e-03 0.0 
0.0 0.0 -1.172631524865e-03 
-1.292321070540e-03 2.959466161544e-04 0.0 
2.959466161544e-04 8.333939565192e-03 0.0 
0.0 0.0 -1.247471551777e-03 
-5.223015362984e-04 -5.966006200107e-05 0.0 
-5.966006200107e-05 2.388783331191e-03 0.0 
0.0 0.0 -3.801539159394e-04 
-8.682373190693e-04 4.316445998786e-04 0.0 
4.316445998786e-04 6.315487464641e-03 0.0 
0.0 0.0 -1.045322365442e-03 
-1.095327153402e-03 -1.697306701960e-04 0.0 
-1.697306701960e-04 7.466737774382e-03 0.0 
0.0 0.0 -1.207899217314e-03 
-1.032573115176e-03 -1.219439203281e-04 0.0 
-1.219439203281e-04 7.241482983967e-03 0.0 
0.0 0.0 -1.178012378629e-03 
-1.169146255923e-03 -2.121713741949e-04 0.0 
-2.121713741949e-04 7.798947947966e-03 0.0 
0.0 0.0 -1.244624083072e-03 
-9.796999613362e-04 3.385511052295e-04 0.0 
3.385511052295e-04 6.990100956638e-03 0.0 
0.0 0.0 -1.142102124289e-03 
-1.089777783011e-03 3.180765990224e-04 0.0 
3.180765990224e-04 7.453415741070e-03 0.0 
0.0 0.0 -1.205428683694e-03 
-1.118930099946e-03 4.102866827850e-04 0.0 
4.102866827850e-04 7.540265907261e-03 0.0 
0.0 0.0 -1.209323031234e-03 
7.629343076431e-06 -2.863199915615e-06 0.0 
-2.863199915615e-06 -2.105112574009e-06 0.0 
0.0 0.0 -2.367527358181e-06 
-1.243581183883e-03 1.333985162286e-05 0.0 
1.333985162286e-05 8.050404267198e-03 0.0 
0.0 0.0 -1.199992767657e-03 
-9.467227888159e-04 4.157282563709e-05 0.0 
4.157282563709e-05 5.565131892238e-03 0.0 
0.0 0.0 -8.371571859873e-04 
0.0 0.0 0.0 
0.0 0.0 0.0 
0.0 0.0 0.0 
-9.052370495583e-04 2.926470670919e-05 0.0 
2.926470670919e-05 5.359734394624e-03 0.0 
0.0 0.0 -8.070151920887e-04 
-9.464808288455e-04 2.890706983172e-05 0.0 
2.890706983172e-05 5.631422995547e-03 0.0 
0.0 0.0 -8.451615393777e-04 
-8.746039380960e-04 1.411235588614e-05 0.0 
1.411235588614e-05 5.099179134377e-03 0.0 
0.0 0.0 -7.748096441827e-04 
-4.043228169997e-04 -4.987598217760e-05 0.0 
-4.987598217760e-05 1.919858664121e-03 0.0 
0.0 0.0 -3.155299188714e-04 
-9.342623020306e-04 6.996522255594e-05 0.0 
6.996522255594e-05 5.399295489727e-03 0.0 
0.0 0.0 -8.174106193842e-04 
-9.784066260017e-04 9.518359088927e-05 0.0 
9.518359088927e-05 5.690330335138e-03 0.0 
0.0 0.0 -8.556612431672e-04 
-1.892819975809e-04 -2.080284296464e-04 0.0 
-2.080284296464e-04 7.178215811464e-04 0.0 
0.0 0.0 -1.471067669042e-04 
-1.288411893385e-03 2.088493887645e-04 0.0 
2.088493887645e-04 8.418681062039e-03 0.0 
0.0 0.0 -1.259301554906e-03 
-1.756794603790e-04 -1.355890425743e-04 0.0 
-1.355890425743e-04 7.416554994657e-04 0.0 
0.0 0.0 -1.555489432776e-04 
-1.976593762146e-04 -1.418821488879e-04 0.0 
-1.418821488879e-04 9.406849208869e-04 0.0 
0.0 0.0 -1.806578101979e-04 
-1.201046689643e-03 -2.954808681697e-04 0.0 
-2.954808681697e-04 7.775612660441e-03 0.0 
0.0 0.0 -1.221214701962e-03 
-1.189783866574e-03 -3.147730725178e-04 0.0 
-3.147730725178e-04 7.544251850061e-03 0.0 
0.0 0.0 -1.184344882880e-03 
-1.255201532556e-03 -3.138077392023e-04 0.0 
-3.138077392023e-04 7.995797572139e-03 0.0 
0.0 0.0 -1.247726601234e-03 
-1.240131757912e-03 -2.854581707310e-04 0.0 
-2.854581707310e-04 7.755129215709e-03 0.0 
0.0 0.0 -1.211018817991e-03 
-1.178065560448e-03 -3.176973578615e-04 0.0 
-3.176973578615e-04 7.320283461016e-03 0.0 
0.0 0.0 -1.147066289601e-03 
-1.222397278732e-03 -2.815307542264e-04 0.0 
-2.815307542264e-04 7.565615913449e-03 0.0 
0.0 0.0 -1.176490610025e-03 
-9.163713044728e-04 2.842739858528e-05 0.0 
2.842739858528e-05 5.314561917383e-03 0.0 
0.0 0.0 -7.985989294648e-04 
-1.274574997316e-03 -2.683950520862e-04 0.0 
-2.683950520862e-04 8.060277687178e-03 0.0 
0.0 0.0 -1.249018369598e-03 
-1.258852476870e-03 -2.546999081133e-04 0.0 
-2.546999081133e-04 7.798203538470e-03 0.0 
0.0 0.0 -1.207442871744e-03 
-1.315317272271e-03 -2.575611195837e-04 0.0 
-2.575611195837e-04 8.330215412111e-03 0.0 
0.0 0.0 -1.277927415301e-03 
-7.668426714387e-04 3.712502045957e-04 0.0 
3.712502045957e-04 3.884910929190e-03 0.0 
0.0 0.0 -6.108003466767e-04 
-5.473421814769e-04 1.022591756988e-03 0.0 
1.022591756988e-03 2.665785403795e-03 0.0 
0.0 0.0 -4.789358348571e-04 
-5.922456647504e-04 8.887242813561e-04 0.0 
8.887242813561e-04 2.596399578783e-03 0.0 
0.0 0.0 -4.527251363391e-04 
-5.808013297698e-04 8.699366696317e-04 0.0 
8.699366696317e-04 2.240670147384e-03 0.0 
0.0 0.0 -3.875663759467e-04 
-1.238412356123e-03 4.984956173527e-04 0.0 
4.984956173527e-04 8.013994811476e-03 0.0 
0.0 0.0 -1.240180566941e-03 
-1.214337546906e-03 4.975640446935e-04 0.0 
4.975640446935e-04 7.772501925276e-03 0.0 
0.0 0.0 -1.200590015451e-03 
-1.243705293709e-03 -9.256877991256e-05 0.0 
-9.256877991256e-05 7.122808590461e-03 0.0 
0.0 0.0 -1.087555896896e-03 
-1.202734584511e-03 -9.601844950182e-05 0.0 
-9.601844950182e-05 6.680089324953e-03 0.0 
0.0 0.0 -1.020738973070e-03 
-9.185583597048e-04 2.613338660199e-05 0.0 
2.613338660199e-05 5.392223531156e-03 0.0 
0.0 0.0 -8.108182148135e-04 
-9.103297472006e-04 4.766877897124e-06 0.0 
4.766877897124e-06 5.361690236980e-03 0.0 
0.0 0.0 -8.077352941366e-04 
-9.704696328324e-04 5.332193735867e-05 0.0 
5.332193735867e-05 5.783610110985e-03 0.0 
0.0 0.0 -8.678526801547e-04 
-9.618865758326e-04 7.689592341134e-06 0.0 
7.689592341134e-06 5.712312077429e-03 0.0 
0.0 0.0 -8.609153521579e-04 
-1.020016484653e-03 5.295869978670e-05 0.0 
5.295869978670e-05 6.152608316973e-03 0.0 
0.0 0.0 -9.200517378055e-04 
-1.001436562516e-03 -1.946934861060e-08 0.0 
-1.946934861060e-08 6.084870222159e-03 0.0 
0.0 0.0 -9.108947733944e-04 
-1.057814937538e-03 -6.724482469216e-06 0.0 
-6.724482469216e-06 6.510312548520e-03 0.0 
0.0 0.0 -9.726914458129e-04 
-1.190361938599e-03 4.676934084708e-04 0.0 
4.676934084708e-04 7.866637693242e-03 0.0 
0.0 0.0 -1.245087786853e-03 
-4.581667400111e-04 1.150309043721e-03 0.0 
1.150309043721e-03 1.644170079222e-03 0.0 
0.0 0.0 -3.403956918982e-04 
-8.293555136529e-04 2.952524372658e-04 0.0 
2.952524372658e-04 4.373371002006e-03 0.0 
0.0 0.0 -6.783069842581e-04 
-1.085846180975e-03 1.458307871503e-04 0.0 
1.458307871503e-04 7.572950528203e-03 0.0 
0.0 0.0 -1.228261380050e-03 
-1.024461005777e-03 9.563818815218e-05 0.0 
9.563818815218e-05 7.266751936821e-03 0.0 
0.0 0.0 -1.187396807988e-03 
-7.405303751490e-04 5.124973243675e-04 0.0 
5.124973243675e-04 3.741532766096e-03 0.0 
0.0 0.0 -6.000944487132e-04 
-7.031319460548e-04 4.876864875037e-04 0.0 
4.876864875037e-04 3.366473116495e-03 0.0 
0.0 0.0 -5.401620014017e-04 
-1.203049851257e-03 -2.728203523462e-04 0.0 
-2.728203523462e-04 7.833657430654e-03 0.0 
0.0 0.0 -1.238794375355e-03 
-3.075916606640e-04 1.045868666668e-03 0.0 
1.045868666668e-03 2.766977509803e-03 0.0 
0.0 0.0 -5.600314934590e-04 
-1.321820784768e-03 2.376560243328e-04 0.0 
2.376560243328e-04 8.684022372100e-03 0.0 
0.0 0.0 -1.295459716840e-03 
1.477011241759e-06 4.358298770145e-06 0.0 
4.358298770145e-06 8.908916257887e-07 0.0 
0.0 0.0 -1.014815514663e-06 
5.703109316316e-05 8.792005076422e-05 0.0 
8.792005076422e-05 -2.011421539749e-08 0.0 
0.0 0.0 -2.443327669190e-05 
-4.154706477079e-04 9.854771448034e-04 0.0 
9.854771448034e-04 3.145205208474e-03 0.0 
0.0 0.0 -5.969207367497e-04 
-7.802351733359e-04 5.259462622456e-04 0.0 
5.259462622456e-04 4.139237033551e-03 0.0 
0.0 0.0 -6.620222007989e-04 
-5.930037626935e-04 8.942073818617e-04 0.0 
8.942073818617e-04 2.971985586365e-03 0.0 
0.0 0.0 -5.157319100482e-04 
-6.206001126179e-04 7.748692012147e-04 0.0 
7.748692012147e-04 2.918912415158e-03 0.0 
0.0 0.0 -4.917183783407e-04 
-7.966812031951e-04 -2.794519072728e-04 0.0 
-2.794519072728e-04 6.003025537970e-03 0.0 
0.0 0.0 -1.010552660601e-03 
-3.204615651146e-04 -4.841454347256e-04 0.0 
-4.841454347256e-04 1.065843889916e-03 0.0 
0.0 0.0 -2.207468123314e-04 
-1.976838392314e-04 1.419132631860e-03 0.0 
1.419132631860e-03 1.245736136353e-03 0.0 
0.0 0.0 -3.729799092550e-04 
-1.062224956052e-03 6.282474994029e-05 0.0 
6.282474994029e-05 6.566502947635e-03 0.0 
0.0 0.0 -9.796923013958e-04 
-9.725104983260e-05 1.193422917781e-03 0.0 
1.193422917781e-03 9.454912755048e-04 0.0 
0.0 0.0 -3.472462715210e-04 
-1.226995326804e-03 -4.519473023836e-05 0.0 
-4.519473023836e-05 6.918120984331e-03 0.0 
0.0 0.0 -1.055800198362e-03 
-2.361841982036e-04 9.051937591691e-04 0.0 
9.051937591691e-04 2.839450438954e-03 0.0 
0.0 0.0 -5.891999696964e-04 
-7.588500349801e-04 6.513356924725e-04 0.0 
6.513356924725e-04 4.370877970735e-03 0.0 
0.0 0.0 -7.153500975001e-04 
-2.731612567135e-04 1.485424847436e-03 0.0 
1.485424847436e-03 1.576968026293e-03 0.0 
0.0 0.0 -3.843598907912e-04 
-4.773970402082e-04 1.083331247294e-03 0.0 
1.083331247294e-03 2.715302459171e-03 0.0 
0.0 0.0 -5.080103017801e-04 
-9.857070044825e-04 3.514582932795e-04 0.0 
3.514582932795e-04 5.605984683384e-03 0.0 
0.0 0.0 -8.638580894607e-04 
-9.566672598969e-04 2.556664326387e-04 0.0 
2.556664326387e-04 5.284930257865e-03 0.0 
0.0 0.0 -8.086477316853e-04 
-9.204142732436e-04 2.914181473186e-04 0.0 
2.914181473186e-04 5.036403952363e-03 0.0 
0.0 0.0 -7.738406155293e-04 
-1.852699916538e-04 7.169474657993e-04 0.0 
7.169474657993e-04 2.938478129515e-03 0.0 
0.0 0.0 -6.178822433291e-04 
-6.660603751627e-04 6.775511204911e-04 0.0 
6.775511204911e-04 3.201224465995e-03 0.0 
0.0 0.0 -5.288330985435e-04 
-6.329538447596e-04 6.262438341605e-04 0.0 
6.262438341605e-04 2.783574178796e-03 0.0 
0.0 0.0 -4.617239487405e-04 
-9.084122990405e-04 4.766608561051e-04 0.0 
4.766608561051e-04 5.217677913222e-03 0.0 
0.0 0.0 -8.213029907542e-04 
-1.196636206004e-03 2.937722451120e-04 0.0 
2.937722451120e-04 7.346814907567e-03 0.0 
0.0 0.0 -1.107475121065e-03 
-1.218143538823e-03 3.322225839887e-04 0.0 
3.322225839887e-04 7.523071285648e-03 0.0 
0.0 0.0 -1.136341617999e-03 
-1.260255205402e-03 3.483848197279e-04 0.0 
3.483848197279e-04 7.943523748013e-03 0.0 
0.0 0.0 -1.199268560344e-03 
-1.236398534658e-03 3.622286970254e-04 0.0 
3.622286970254e-04 7.698663143048e-03 0.0 
0.0 0.0 -1.164598082371e-03 
-1.187519623503e-03 3.369788044843e-04 0.0 
3.369788044843e-04 7.262535120341e-03 0.0 
0.0 0.0 -1.100413285504e-03 
-1.201927894883e-03 3.622228794556e-04 0.0 
3.622228794556e-04 7.428935513365e-03 0.0 
0.0 0.0 -1.129075729544e-03 
-1.251749756802e-03 4.013558701664e-04 0.0 
4.013558701664e-04 7.861186353057e-03 0.0 
0.0 0.0 -1.193594387005e-03 
-1.212961772203e-03 4.013424172495e-04 0.0 
4.013424172495e-04 7.607641408015e-03 0.0 
0.0 0.0 -1.159256375294e-03 
-1.275748773412e-03 4.170784326894e-04 0.0 
4.170784326894e-04 8.123816889762e-03 0.0 
0.0 0.0 -1.234286862126e-03 
-1.231663961214e-03 4.170891063283e-04 0.0 
4.170891063283e-04 7.767346293695e-03 0.0 
0.0 0.0 -1.187309181180e-03 
-1.180167111311e-03 4.146130725523e-04 0.0 
4.146130725523e-04 7.319280806481e-03 0.0 
0.0 0.0 -1.120864512401e-03 
-1.199520853126e-03 4.394329503130e-04 0.0 
4.394329503130e-04 7.469647570104e-03 0.0 
0.0 0.0 -1.147759711419e-03 
-1.246114513889e-03 4.512851502766e-04 0.0 
4.512851502766e-04 7.897003429628e-03 0.0 
0.0 0.0 -1.207767947030e-03 
-1.142819753357e-03 4.230226692438e-04 0.0 
4.230226692438e-04 7.034885546341e-03 0.0 
0.0 0.0 -1.082593982084e-03 
-1.161095070267e-03 2.120867803638e-04 0.0 
2.120867803638e-04 7.844111974654e-03 0.0 
0.0 0.0 -1.264544343569e-03 
-4.552882566461e-04 8.672081112126e-04 0.0 
8.672081112126e-04 3.584015933420e-03 0.0 
0.0 0.0 -6.621140475474e-04 
8.972285469528e-05 5.488704469766e-05 0.0 
5.488704469766e-05 -2.086067995893e-05 0.0 
0.0 0.0 -2.951236060129e-05 
1.917573457574e-04 3.907910126935e-04 0.0 
3.907910126935e-04 4.076022718459e-05 0.0 
0.0 0.0 -9.965038840371e-05 
-8.122559684108e-04 5.858127476170e-04 0.0 
5.858127476170e-04 4.660958103986e-03 0.0 
0.0 0.0 -7.509174086159e-04 
-1.326294875917e-03 4.475525367279e-04 0.0 
4.475525367279e-04 8.581090605175e-03 0.0 
0.0 0.0 -1.299806302097e-03 
-1.329372981724e-03 3.864120920022e-04 0.0 
3.864120920022e-04 8.651254845127e-03 0.0 
0.0 0.0 -1.301753673823e-03 
-4.221749795590e-05 1.054957827846e-03 0.0 
1.054957827846e-03 1.947401467081e-03 0.0 
0.0 0.0 -4.895692906686e-04 
-1.300820539860e-03 5.169294240401e-04 0.0 
5.169294240401e-04 8.431520987084e-03 0.0 
0.0 0.0 -1.303413959896e-03 
-9.359328158380e-04 3.353086376080e-04 0.0 
3.353086376080e-04 5.191229383814e-03 0.0 
0.0 0.0 -8.012154088905e-04 
4.071496828873e-04 9.026633654341e-04 0.0 
9.026633654341e-04 4.347728874957e-04 0.0 
0.0 0.0 -3.242207140944e-04 
-1.286592464162e-03 4.887471459282e-04 0.0 
4.887471459282e-04 8.354700830031e-03 0.0 
0.0 0.0 -1.304286792737e-03 
-1.166816141077e-03 3.067295782393e-04 0.0 
3.067295782393e-04 7.086165986606e-03 0.0 
0.0 0.0 -1.071440646998e-03 
-1.135318690764e-03 3.102645881689e-04 0.0 
3.102645881689e-04 6.820307156207e-03 0.0 
0.0 0.0 -1.034857077839e-03 
-1.114281868751e-03 2.783252876259e-04 0.0 
2.783252876259e-04 6.647188393663e-03 0.0 
0.0 0.0 -1.006057961993e-03 
-1.324485485700e-03 3.178425552296e-04 0.0 
3.178425552296e-04 8.703712057523e-03 0.0 
0.0 0.0 -1.305867370806e-03 
-1.046143216171e-03 1.338104735178e-04 0.0 
1.338104735178e-04 6.142970752386e-03 0.0 
0.0 0.0 -9.232948652302e-04 
-1.261216399776e-03 3.398370476000e-04 0.0 
3.398370476000e-04 8.240407625413e-03 0.0 
0.0 0.0 -1.306016332489e-03 
-5.621352130883e-04 2.402614077322e-04 0.0 
2.402614077322e-04 5.104076155106e-03 0.0 
0.0 0.0 -9.039903713831e-04 
-5.421821752565e-04 3.626261890118e-04 0.0 
3.626261890118e-04 4.916919296443e-03 0.0 
0.0 0.0 -8.747633066757e-04 
-4.482553543368e-04 4.245528232913e-04 0.0 
4.245528232913e-04 4.423341595392e-03 0.0 
0.0 0.0 -8.101682821885e-04 
-1.166183845535e-03 3.746000758126e-04 0.0 
3.746000758126e-04 7.154603019155e-03 0.0 
0.0 0.0 -1.092245366321e-03 
-1.243382207926e-03 7.139344382452e-05 0.0 
7.139344382452e-05 8.142027759390e-03 0.0 
0.0 0.0 -1.302677999426e-03 
-1.139163622892e-03 1.899260328228e-05 0.0 
1.899260328228e-05 7.738811355617e-03 0.0 
0.0 0.0 -1.248400714067e-03 
-1.139179700515e-03 -5.832838074802e-05 0.0 
-5.832838074802e-05 7.742835606473e-03 0.0 
0.0 0.0 -1.248426544684e-03 
-1.042171814045e-03 -2.067620167567e-05 0.0 
-2.067620167567e-05 7.300450465494e-03 0.0 
0.0 0.0 -1.189114855724e-03 
-1.245046049368e-03 -7.954937012982e-05 0.0 
-7.954937012982e-05 8.162015620032e-03 0.0 
0.0 0.0 -1.303398793257e-03 
-1.319024606982e-03 4.879947495646e-04 0.0 
4.879947495646e-04 8.553889678550e-03 0.0 
0.0 0.0 -1.306665994082e-03 
-1.318629781647e-03 5.032233232110e-04 0.0 
5.032233232110e-04 8.531113616169e-03 0.0 
0.0 0.0 -1.308500709484e-03 
-1.457969009565e-04 -1.297624687323e-03 0.0 
-1.297624687323e-03 1.878942347425e-03 0.0 
0.0 0.0 -4.564773689951e-04 
-5.360535394487e-05 -1.060749340558e-03 0.0 
-1.060749340558e-03 1.980128638088e-03 0.0 
0.0 0.0 -4.934415926888e-04 
-1.381226460422e-04 -8.991719374826e-04 0.0 
-8.991719374826e-04 2.497431923997e-03 0.0 
0.0 0.0 -5.576035839405e-04 
-3.423707423506e-07 -7.630300989339e-04 0.0 
-7.630300989339e-04 2.133066083266e-03 0.0 
0.0 0.0 -5.298816096007e-04 
1.060874476646e-04 -9.079592115861e-04 0.0 
-9.079592115861e-04 1.571356760192e-03 0.0 
0.0 0.0 -4.652367627802e-04 
1.299766153745e-04 -5.238021949006e-04 0.0 
-5.238021949006e-04 1.775343023360e-03 0.0 
0.0 0.0 -5.016361848483e-04 
8.113068861589e-06 -4.523118756860e-04 0.0 
-4.523118756860e-04 2.346566463626e-03 0.0 
0.0 0.0 -5.657331850765e-04 
2.333464364560e-04 -1.778074880060e-04 0.0 
-1.778074880060e-04 1.448473809503e-03 0.0 
0.0 0.0 -4.731795164401e-04 
-1.159968055748e-03 4.654058109210e-04 0.0 
4.654058109210e-04 7.343744264572e-03 0.0 
0.0 0.0 -1.138512926666e-03 
-1.264954689887e-03 -1.904964022353e-04 0.0 
-1.904964022353e-04 8.221334432808e-03 0.0 
0.0 0.0 -1.305779161548e-03 
-7.747711705181e-04 -5.121765711313e-04 0.0 
-5.121765711313e-04 5.367910934867e-03 0.0 
0.0 0.0 -9.007942405787e-04 
-6.889420890608e-04 -5.209139520464e-04 0.0 
-5.209139520464e-04 5.083313389568e-03 0.0 
0.0 0.0 -8.713600568839e-04 
-6.090575816933e-04 -6.078858301865e-04 0.0 
-6.078858301865e-04 4.604339507385e-03 0.0 
0.0 0.0 -8.059887332522e-04 
-8.449920134059e-04 -5.153788440303e-04 0.0 
-5.153788440303e-04 4.260095117302e-03 0.0 
0.0 0.0 -6.781883600425e-04 
-8.428803748540e-04 -5.674043660998e-04 0.0 
-5.674043660998e-04 4.450165882994e-03 0.0 
0.0 0.0 -7.153987595530e-04 
-8.942422948913e-04 -5.207798333702e-04 0.0 
-5.207798333702e-04 4.885926297656e-03 0.0 
0.0 0.0 -7.812419408864e-04 
-8.377845004557e-04 -4.501363391243e-04 0.0 
-4.501363391243e-04 4.061067246097e-03 0.0 
0.0 0.0 -6.407943132712e-04 
-8.608991234260e-04 5.183985589951e-04 0.0 
5.183985589951e-04 6.008926334250e-03 0.0 
0.0 0.0 -9.876394229526e-04 
-1.270638922106e-03 -2.525883056993e-04 0.0 
-2.525883056993e-04 8.245623635122e-03 0.0 
0.0 0.0 -1.305003056577e-03 
-5.449120924268e-04 -2.038340280130e-04 0.0 
-2.038340280130e-04 4.976604129178e-03 0.0 
0.0 0.0 -8.871663004355e-04 
-7.828155216857e-04 -6.575282962370e-04 0.0 
-6.575282962370e-04 4.196243675374e-03 0.0 
0.0 0.0 -6.865966444657e-04 
-8.908351355140e-04 9.702867664421e-05 0.0 
9.702867664421e-05 4.953510345307e-03 0.0 
0.0 0.0 -7.516786372745e-04 
-9.428178873818e-04 1.510891929034e-04 0.0 
1.510891929034e-04 5.341754956276e-03 0.0 
0.0 0.0 -8.094822736869e-04 
-9.489012184647e-04 1.441944320473e-04 0.0 
1.441944320473e-04 5.346848053026e-03 0.0 
0.0 0.0 -8.097394517040e-04 
-9.928370876702e-04 1.565528389037e-04 0.0 
1.565528389037e-04 5.757287346966e-03 0.0 
0.0 0.0 -8.733121467894e-04 
-9.420662265250e-04 8.672453308222e-05 0.0 
8.672453308222e-05 5.390349708032e-03 0.0 
0.0 0.0 -8.155917408702e-04 
-9.920889169566e-04 -3.299549002211e-04 0.0 
-3.299549002211e-04 5.156290872581e-03 0.0 
0.0 0.0 -8.015266587451e-04 
-1.034393455446e-03 -2.593382357018e-04 0.0 
-2.593382357018e-04 5.377589720533e-03 0.0 
0.0 0.0 -8.302790088839e-04 
-1.016724768056e-03 -2.052940986145e-04 0.0 
-2.052940986145e-04 5.161883654298e-03 0.0 
0.0 0.0 -7.937858958383e-04 
-1.069749204098e-03 -1.931193338339e-04 0.0 
-1.931193338339e-04 5.589690211797e-03 0.0 
0.0 0.0 -8.590670690980e-04 
-1.045250008444e-03 -1.524643402440e-04 0.0 
-1.524643402440e-04 5.354709247412e-03 0.0 
0.0 0.0 -8.213578559547e-04 
-9.891061891856e-04 -1.661511418362e-04 0.0 
-1.661511418362e-04 4.952759689804e-03 0.0 
0.0 0.0 -7.608744282309e-04 
-1.097326614700e-03 -1.343981642378e-04 0.0 
-1.343981642378e-04 5.787368511626e-03 0.0 
0.0 0.0 -8.866101721103e-04 
-1.072266853954e-03 -7.465649989587e-05 0.0 
-7.465649989587e-05 5.530930704335e-03 0.0 
0.0 0.0 -8.437388122980e-04 
-8.749604405334e-04 5.210753762548e-05 0.0 
5.210753762548e-05 4.958547900325e-03 0.0 
0.0 0.0 -7.509531518293e-04 
2.931250951271e-05 -1.468193730782e-04 0.0 
-1.468193730782e-04 5.197092075325e-05 0.0 
0.0 0.0 -3.483575582827e-05 
8.911840808785e-05 -5.611142441010e-04 0.0 
-5.611142441010e-04 2.292660682549e-04 0.0 
0.0 0.0 -1.364504898612e-04 
-1.613477578931e-05 -6.217163821683e-04 0.0 
-6.217163821683e-04 4.356228314527e-04 0.0 
0.0 0.0 -1.797805952843e-04 
7.026081585524e-05 -9.442279566568e-04 0.0 
-9.442279566568e-04 4.994486354165e-04 0.0 
0.0 0.0 -2.441611934022e-04 
2.189035585349e-04 -7.936262830972e-04 0.0 
-7.936262830972e-04 2.241675290565e-04 0.0 
0.0 0.0 -1.898876089678e-04 
1.395294056137e-04 -1.221624346892e-03 0.0 
-1.221624346892e-03 5.704290544817e-04 0.0 
0.0 0.0 -3.042679114694e-04 
3.315217795862e-04 -9.867447375553e-04 0.0 
-9.867447375553e-04 2.187882668786e-04 0.0 
0.0 0.0 -2.358471627707e-04 
1.282773509924e-04 -3.069727312294e-04 0.0 
-3.069727312294e-04 5.087018620754e-05 0.0 
0.0 0.0 -7.677751594282e-05 
7.207324065744e-06 -2.363709633052e-04 0.0 
-2.363709633052e-04 2.192194981731e-04 0.0 
0.0 0.0 -7.709394943614e-05 
-1.151589919320e-04 -5.038932235898e-04 0.0 
-5.038932235898e-04 5.668379900610e-04 0.0 
0.0 0.0 -1.836804426236e-04 
6.886756343239e-05 -1.585111183501e-04 0.0 
-1.585111183501e-04 2.318919381609e-04 0.0 
0.0 0.0 -9.135678087991e-05 
-1.673787199121e-04 -3.772506028182e-04 0.0 
-3.772506028182e-04 6.235391984471e-04 0.0 
0.0 0.0 -1.587652100407e-04 
-2.237013217840e-04 -7.835370290226e-04 0.0 
-7.835370290226e-04 9.699234306887e-04 0.0 
0.0 0.0 -2.864776706126e-04 
-5.080022175142e-04 -5.846720249242e-04 0.0 
-5.846720249242e-04 1.713553650264e-03 0.0 
0.0 0.0 -2.934437995798e-04 
-1.342924257900e-03 -1.540329825018e-04 0.0 
-1.540329825018e-04 8.463979425849e-03 0.0 
0.0 0.0 -1.294874803588e-03 
-9.061604714287e-04 -5.353468138170e-05 0.0 
-5.353468138170e-05 4.292677537748e-03 0.0 
0.0 0.0 -6.595503360071e-04 
-8.748353904416e-04 -9.535674848835e-05 0.0 
-9.535674848835e-05 4.090451847143e-03 0.0 
0.0 0.0 -6.264797819744e-04 
-7.893986596546e-04 -8.988273420556e-05 0.0 
-8.988273420556e-05 3.635662269298e-03 0.0 
0.0 0.0 -5.641716646261e-04 
-8.342340843015e-04 -1.796315714393e-04 0.0 
-1.796315714393e-04 3.876399492582e-03 0.0 
0.0 0.0 -5.974662984275e-04 
-9.399601535283e-04 -9.182592719562e-05 0.0 
-9.182592719562e-05 4.459086163681e-03 0.0 
0.0 0.0 -6.865721209800e-04 
-7.450408717977e-04 -3.664071909045e-05 0.0 
-3.664071909045e-05 3.403705623677e-03 0.0 
0.0 0.0 -5.286920563404e-04 
-7.105002771536e-04 -7.510162605901e-05 0.0 
-7.510162605901e-05 3.252942810076e-03 0.0 
0.0 0.0 -5.038291843518e-04 
2.269617952537e-04 -4.679297531140e-06 0.0 
-4.679297531140e-06 2.031304943507e-04 0.0 
0.0 0.0 -1.081843495454e-04 
-2.992668304113e-05 -2.428217344695e-05 0.0 
-2.428217344695e-05 6.247499294921e-04 0.0 
0.0 0.0 -1.462425310096e-04 
1.120520427135e-05 2.490769659488e-05 0.0 
2.490769659488e-05 5.748679317617e-04 0.0 
0.0 0.0 -1.469788961115e-04 
-1.839676854865e-04 -1.370350569834e-05 0.0 
-1.370350569834e-05 1.050348992839e-03 0.0 
0.0 0.0 -1.976702944042e-04 
-1.665493073749e-04 -4.078238753771e-05 0.0 
-4.078238753771e-05 1.038427513794e-03 0.0 
0.0 0.0 -1.960684762570e-04 
-2.740272711721e-05 -1.675532894322e-05 0.0 
-1.675532894322e-05 6.301608269895e-04 0.0 
0.0 0.0 -1.451566722079e-04 
-4.295295916181e-05 -1.396627582879e-05 0.0 
-1.396627582879e-05 6.314478061460e-04 0.0 
0.0 0.0 -1.432903851643e-04 
2.178107760258e-04 -4.669961674357e-06 0.0 
-4.669961674357e-06 1.968060237393e-04 0.0 
0.0 0.0 -1.026933745538e-04 
-6.199861096773e-05 -4.121287758313e-05 0.0 
-4.121287758313e-05 6.332661626784e-04 0.0 
0.0 0.0 -1.376693440338e-04 
-1.958490001476e-04 -5.849411118292e-05 0.0 
-5.849411118292e-05 1.056235548644e-03 0.0 
0.0 0.0 -1.994574706984e-04 
2.194500295117e-04 -1.953547163157e-05 0.0 
-1.953547163157e-05 1.758186835889e-04 0.0 
0.0 0.0 -9.526841721624e-05 
-1.134405852345e-03 -1.685214623059e-05 0.0 
-1.685214623059e-05 7.114171974622e-03 0.0 
0.0 0.0 -1.060427308513e-03 
-1.169096287658e-03 2.563616812788e-06 0.0 
2.563616812788e-06 7.355225522955e-03 0.0 
0.0 0.0 -1.097082233180e-03 
-1.287656187300e-03 -3.057563853945e-04 0.0 
-3.057563853945e-04 8.295106043806e-03 0.0 
0.0 0.0 -1.300897016293e-03 
-8.709102074234e-04 1.634655957137e-05 0.0 
1.634655957137e-05 5.013561359335e-03 0.0 
0.0 0.0 -7.584009903415e-04 
6.085248323127e-05 -7.529385077948e-05 0.0 
-7.529385077948e-05 2.498450074273e-04 0.0 
0.0 0.0 -6.778662807072e-05 
-1.318321890589e-03 9.119227365237e-05 0.0 
9.119227365237e-05 8.702564910127e-03 0.0 
0.0 0.0 -1.292107529982e-03 
-1.321891599576e-03 1.523434658018e-04 0.0 
1.523434658018e-04 8.753789560532e-03 0.0 
0.0 0.0 -1.303172775453e-03 
-1.317386328466e-03 1.502744807486e-04 0.0 
1.502744807486e-04 8.760593080467e-03 0.0 
0.0 0.0 -1.304823151597e-03 
-1.303300137320e-03 -3.518320858820e-05 0.0 
-3.518320858820e-05 7.809809152570e-03 0.0 
0.0 0.0 -1.191058493115e-03 
-1.309915312802e-03 -8.055064126037e-05 0.0 
-8.055064126037e-05 8.016669059363e-03 0.0 
0.0 0.0 -1.224322658093e-03 
-1.321803447330e-03 5.837335499168e-05 0.0 
5.837335499168e-05 8.713282635678e-03 0.0 
0.0 0.0 -1.294569364341e-03 
-6.481855202900e-04 -6.246003181782e-04 0.0 
-6.246003181782e-04 2.746907491681e-03 0.0 
0.0 0.0 -4.512809064328e-04 
-1.269733092336e-03 3.949450849478e-04 0.0 
3.949450849478e-04 8.134082373248e-03 0.0 
0.0 0.0 -1.225740639889e-03 
-1.236917440076e-03 9.455704594097e-05 0.0 
9.455704594097e-05 7.907876475173e-03 0.0 
0.0 0.0 -1.178628832109e-03 
2.863499120991e-04 1.225469476951e-03 0.0 
1.225469476951e-03 5.011020420815e-04 0.0 
0.0 0.0 -3.087973448475e-04 
-5.572892816396e-04 -1.058232484237e-03 0.0 
-1.058232484237e-03 2.439571083886e-03 0.0 
0.0 0.0 -4.373623857420e-04 
-1.169344627949e-03 -1.527368028486e-04 0.0 
-1.527368028486e-04 6.463252890075e-03 0.0 
0.0 0.0 -9.899674718230e-04 
-1.002156622739e-03 -4.217657770794e-04 0.0 
-4.217657770794e-04 5.766816978775e-03 0.0 
0.0 0.0 -9.123979313600e-04 
-1.240362622181e-03 -2.107518773901e-04 0.0 
-2.107518773901e-04 7.344433125846e-03 0.0 
0.0 0.0 -1.130390451587e-03 
-1.097029052933e-03 -2.727822285369e-04 0.0 
-2.727822285369e-04 6.025349028311e-03 0.0 
0.0 0.0 -9.322225209316e-04 
-1.160816713283e-03 -2.966491095374e-04 0.0 
-2.966491095374e-04 6.897592609693e-03 0.0 
0.0 0.0 -1.073123358692e-03 
-1.146188823319e-03 -9.619145093431e-05 0.0 
-9.619145093431e-05 7.734668514319e-03 0.0 
0.0 0.0 -1.244129926109e-03 
-3.611510593238e-04 -8.758097138839e-05 0.0 
-8.758097138839e-05 1.751553404855e-03 0.0 
0.0 0.0 -2.939217362394e-04 
-1.042524547902e-03 8.542519018607e-05 0.0 
8.542519018607e-05 6.249309917826e-03 0.0 
0.0 0.0 -9.364826870394e-04 
-1.011646579925e-03 4.950052888461e-05 0.0 
4.950052888461e-05 6.088183350352e-03 0.0 
0.0 0.0 -9.130351872960e-04 
-1.156492778501e-03 8.389467150956e-05 0.0 
8.389467150956e-05 7.209321502601e-03 0.0 
0.0 0.0 -1.075939795031e-03 
-6.797233321873e-04 -3.445526981405e-04 0.0 
-3.445526981405e-04 2.970604433142e-03 0.0 
0.0 0.0 -4.709579147287e-04 
-9.579355913964e-04 -2.329193078104e-04 0.0 
-2.329193078104e-04 4.740187249377e-03 0.0 
0.0 0.0 -7.304257169629e-04 
-4.699094320929e-04 -2.864685390476e-04 0.0 
-2.864685390476e-04 1.870719163436e-03 0.0 
0.0 0.0 -3.104331955072e-04 
-1.225720132749e-03 4.922764523725e-04 0.0 
4.922764523725e-04 8.004298524687e-03 0.0 
0.0 0.0 -1.251461238623e-03 
-8.642142966185e-04 4.736706847914e-04 0.0 
4.736706847914e-04 4.810262753378e-03 0.0 
0.0 0.0 -7.590395520047e-04 
-6.299061308779e-04 -6.905248015396e-04 0.0 
-6.905248015396e-04 4.426299320179e-03 0.0 
0.0 0.0 -7.694287042311e-04 
-7.912081179997e-04 -5.380011954616e-04 0.0 
-5.380011954616e-04 3.827422774339e-03 0.0 
0.0 0.0 -6.120242822960e-04 
-6.551443874445e-04 -7.576014874881e-04 0.0 
-7.576014874881e-04 2.929641818478e-03 0.0 
0.0 0.0 -4.894362539292e-04 
-4.890802463817e-04 -1.241731719978e-03 0.0 
-1.241731719978e-03 2.147525315431e-03 0.0 
0.0 0.0 -4.100935076628e-04 
-5.488809187293e-04 8.195138113053e-04 0.0 
8.195138113053e-04 3.940420057434e-03 0.0 
0.0 0.0 -6.990242139688e-04 
-7.645737241242e-04 -6.835179970588e-04 0.0 
-6.835179970588e-04 4.369038504805e-03 0.0 
0.0 0.0 -7.237531747479e-04 
-9.990166317683e-04 -3.989427530334e-04 0.0 
-3.989427530334e-04 6.371965153356e-03 0.0 
0.0 0.0 -1.024340108609e-03 
-1.185317591363e-03 7.742475138516e-05 0.0 
7.742475138516e-05 7.460446495103e-03 0.0 
0.0 0.0 -1.112552678551e-03 
1.197712392318e-04 -3.148981806786e-05 0.0 
-3.148981806786e-05 2.711258731277e-04 0.0 
0.0 0.0 -9.959518537181e-05 
-1.003340353985e-03 -3.675015482303e-04 0.0 
-3.675015482303e-04 6.579336743889e-03 0.0 
0.0 0.0 -1.061672265243e-03 
-8.749171253014e-04 -5.429443966133e-04 0.0 
-5.429443966133e-04 5.259260617559e-03 0.0 
0.0 0.0 -8.552253422611e-04 
-1.075058534600e-03 1.329625948637e-04 0.0 
1.329625948637e-04 6.404878824914e-03 0.0 
0.0 0.0 -9.599091010803e-04 
-8.098069298724e-04 1.009136731454e-04 0.0 
1.009136731454e-04 6.303475721426e-03 0.0 
0.0 0.0 -1.062640036239e-03 
-7.822393088759e-05 -1.437936820334e-03 0.0 
-1.437936820334e-03 1.036179245632e-03 0.0 
0.0 0.0 -3.732485265440e-04 
-1.183046367818e-03 1.393767940647e-04 0.0 
1.393767940647e-04 7.358067127657e-03 0.0 
0.0 0.0 -1.098747615487e-03 
-1.275160361241e-03 2.646540278175e-04 0.0 
2.646540278175e-04 8.092932724066e-03 0.0 
0.0 0.0 -1.212453547082e-03 
-1.010608018996e-03 1.134796452945e-04 0.0 
1.134796452945e-04 5.876477578498e-03 0.0 
0.0 0.0 -8.875094802107e-04 
-3.432304284614e-04 -2.023305734104e-04 0.0 
-2.023305734104e-04 1.413096543350e-03 0.0 
0.0 0.0 -2.442495876194e-04 
-9.871354508553e-04 6.543929527951e-05 0.0 
6.543929527951e-05 5.785148960874e-03 0.0 
0.0 0.0 -8.692469099983e-04 
-1.129933755956e-03 -2.589669323117e-04 0.0 
-2.589669323117e-04 7.495462082173e-03 0.0 
0.0 0.0 -1.202705989510e-03 
-1.175984421816e-03 2.539870060864e-04 0.0 
2.539870060864e-04 7.167724276723e-03 0.0 
0.0 0.0 -1.078220320736e-03 
-6.238127593336e-04 -2.578427228971e-04 0.0 
-2.578427228971e-04 2.729809833616e-03 0.0 
0.0 0.0 -4.336020471383e-04 
-3.693103125981e-04 -1.184898620339e-04 0.0 
-1.184898620339e-04 4.215512874596e-03 0.0 
0.0 0.0 -7.943514531093e-04 
-7.354883692347e-04 6.882867699015e-04 0.0 
6.882867699015e-04 4.480048918178e-03 0.0 
0.0 0.0 -7.428158978947e-04 
-8.300346150545e-04 1.997478973446e-04 0.0 
1.997478973446e-04 4.462946677923e-03 0.0 
0.0 0.0 -6.865907729104e-04 
-1.263662037140e-03 1.212955651983e-04 0.0 
1.212955651983e-04 8.095770653682e-03 0.0 
0.0 0.0 -1.206557591227e-03 
-5.452830500886e-04 5.833267200760e-04 0.0 
5.833267200760e-04 4.601923753795e-03 0.0 
0.0 0.0 -8.172945450070e-04 
-9.138715469007e-04 -2.809485115349e-05 0.0 
-2.809485115349e-05 6.748408724194e-03 0.0 
0.0 0.0 -1.120054252910e-03 
-5.855153319979e-04 -8.409325156636e-05 0.0 
-8.409325156636e-05 5.239197065772e-03 0.0 
0.0 0.0 -9.240809108919e-04 
-6.615538158736e-04 -2.024673927750e-04 0.0 
-2.024673927750e-04 2.941778370234e-03 0.0 
0.0 0.0 -4.629711029823e-04 
-1.130081472427e-03 -3.415372177863e-04 0.0 
-3.415372177863e-04 7.089023572073e-03 0.0 
0.0 0.0 -1.118919378802e-03 
-3.597542210602e-04 3.380969491909e-04 0.0 
3.380969491909e-04 4.095727105777e-03 0.0 
0.0 0.0 -7.743986277066e-04 
-1.231879397795e-03 1.563825567224e-04 0.0 
1.563825567224e-04 7.806451874477e-03 0.0 
0.0 0.0 -1.164614768973e-03 
-1.000367767849e-03 5.022961011040e-04 0.0 
5.022961011040e-04 6.477016694026e-03 0.0 
0.0 0.0 -1.031533309622e-03 
-8.496720980242e-05 7.949215026050e-05 0.0 
7.949215026050e-05 2.913474260951e-03 0.0 
0.0 0.0 -6.375205594687e-04 
-1.204201749293e-03 1.997899091721e-04 0.0 
1.997899091721e-04 7.486324816343e-03 0.0 
0.0 0.0 -1.121170216299e-03 
-5.130508831761e-04 -5.977004884583e-04 0.0 
-5.977004884583e-04 4.307094875234e-03 0.0 
0.0 0.0 -7.773091661689e-04 
-8.763670238880e-04 1.763080225343e-04 0.0 
1.763080225343e-04 6.599584220336e-03 0.0 
0.0 0.0 -1.099429584637e-03 
-8.205770634544e-04 5.305467903750e-04 0.0 
5.305467903750e-04 4.538492374159e-03 0.0 
0.0 0.0 -7.240542973723e-04 
-8.884268788469e-04 5.588484511591e-04 0.0 
5.588484511591e-04 5.612213355160e-03 0.0 
0.0 0.0 -9.041109700986e-04 
-1.050324174142e-03 4.352582260935e-04 0.0 
4.352582260935e-04 6.327572321714e-03 0.0 
0.0 0.0 -9.824247929831e-04 
-7.337998657639e-04 6.243333749199e-04 0.0 
6.243333749199e-04 5.125520163039e-03 0.0 
0.0 0.0 -8.608216255090e-04 
-1.153567602020e-03 -9.301724894271e-05 0.0 
-9.301724894271e-05 6.238376526397e-03 0.0 
0.0 0.0 -9.534332399069e-04 
-1.070854558502e-03 -3.525098866510e-04 0.0 
-3.525098866510e-04 6.838133072795e-03 0.0 
0.0 0.0 -1.090315851396e-03 
5.426530316348e-04 -6.124034834809e-04 0.0 
-6.124034834809e-04 -4.758177895349e-06 0.0 
0.0 0.0 -2.305263658883e-04 
-4.860442792995e-04 1.001524898596e-03 0.0 
1.001524898596e-03 3.110766909182e-03 0.0 
0.0 0.0 -5.719042557127e-04 
-1.067589445178e-03 1.583535090986e-04 0.0 
1.583535090986e-04 6.341569706464e-03 0.0 
0.0 0.0 -9.536514739466e-04 
-1.085608803619e-03 4.567018534179e-04 0.0 
4.567018534179e-04 7.206759563006e-03 0.0 
0.0 0.0 -1.150585697120e-03 
-1.272662540904e-03 1.837479624771e-04 0.0 
1.837479624771e-04 8.251575577157e-03 0.0 
0.0 0.0 -1.229329624135e-03 
-7.006581247961e-04 7.305782553014e-04 0.0 
7.305782553014e-04 4.076422328874e-03 0.0 
0.0 0.0 -6.801182747099e-04 
-1.119652443645e-03 -3.456160390905e-04 0.0 
-3.456160390905e-04 6.872141672148e-03 0.0 
0.0 0.0 -1.081576975854e-03 
-1.253042370701e-03 2.293393647918e-04 0.0 
2.293393647918e-04 7.917666161319e-03 0.0 
0.0 0.0 -1.185355684152e-03 
-8.328019205503e-04 -6.002544778108e-04 0.0 
-6.002544778108e-04 4.632328502255e-03 0.0 
0.0 0.0 -7.524367508395e-04 
-4.433075112401e-04 -2.566605040482e-05 0.0 
-2.566605040482e-05 2.036859959460e-03 0.0 
0.0 0.0 -3.333104686742e-04 
3.205177984844e-04 9.975801435051e-04 0.0 
9.975801435051e-04 2.379341149770e-04 0.0 
0.0 0.0 -2.393365343406e-04 
1.591584715393e-04 1.779286051982e-04 0.0 
1.779286051982e-04 1.786654556165e-03 0.0 
0.0 0.0 -5.092532232582e-04 
-4.531066397313e-04 5.570531624296e-04 0.0 
5.570531624296e-04 4.269383883647e-03 0.0 
0.0 0.0 -7.817448632792e-04 
-8.859078879477e-04 -5.417175315324e-04 0.0 
-5.417175315324e-04 5.072763910333e-03 0.0 
0.0 0.0 -8.181699076277e-04 
-1.293553667002e-03 3.539056233938e-04 0.0 
3.539056233938e-04 8.270227580961e-03 0.0 
0.0 0.0 -1.242275372262e-03 
-1.167568761218e-03 -3.100043251916e-04 0.0 
-3.100043251916e-04 7.110149870389e-03 0.0 
0.0 0.0 -1.110186454522e-03 
-8.720271584818e-04 -3.155671013640e-04 0.0 
-3.155671013640e-04 6.271566388977e-03 0.0 
0.0 0.0 -1.040857148505e-03 
3.090009603171e-05 6.438382974465e-04 0.0 
6.438382974465e-04 3.706853633849e-04 0.0 
0.0 0.0 -1.721080540357e-04 
-8.582532174726e-04 2.712256844373e-04 0.0 
2.712256844373e-04 4.619700861909e-03 0.0 
0.0 0.0 -7.126371066839e-04 
-1.210346144101e-03 -2.749948472322e-04 0.0 
-2.749948472322e-04 7.344160972203e-03 0.0 
0.0 0.0 -1.139074001596e-03 
-4.392212359222e-04 -2.427188308892e-04 0.0 
-2.427188308892e-04 4.468278991880e-03 0.0 
0.0 0.0 -8.223634564932e-04 
-9.190954487653e-04 1.036306006856e-04 0.0 
1.036306006856e-04 6.792229327511e-03 0.0 
0.0 0.0 -1.126725356868e-03 
-1.012271879397e-03 -9.648706787801e-05 0.0 
-9.648706787801e-05 5.106630196528e-03 0.0 
0.0 0.0 -7.817916451012e-04 
-1.209813015887e-03 4.617447502893e-04 0.0 
4.617447502893e-04 7.951412152162e-03 0.0 
0.0 0.0 -1.249754184115e-03 
-7.319316117329e-04 4.292603822642e-04 0.0 
4.292603822642e-04 3.626422685243e-03 0.0 
0.0 0.0 -5.757576642514e-04 
-1.253262516526e-03 -2.397729583392e-04 0.0 
-2.397729583392e-04 7.583908034255e-03 0.0 
0.0 0.0 -1.168790087466e-03 
-8.256776309677e-04 -1.881926819914e-04 0.0 
-1.881926819914e-04 6.244322400387e-03 0.0 
0.0 0.0 -1.047452346298e-03 
-1.833871752581e-04 1.076533841658e-03 0.0 
1.076533841658e-03 2.371953294675e-03 0.0 
0.0 0.0 -5.248669331578e-04 
-8.489436119586e-04 9.726246538456e-06 0.0 
9.726246538456e-06 4.964532206226e-03 0.0 
0.0 0.0 -7.498068730476e-04 
-1.301937909208e-03 -2.238090825597e-04 0.0 
-2.238090825597e-04 8.094251106337e-03 0.0 
0.0 0.0 -1.243807156011e-03 
-9.340333835081e-04 -1.610113385009e-04 0.0 
-1.610113385009e-04 6.744276922541e-03 0.0 
0.0 0.0 -1.114542488500e-03 
-7.941362751269e-04 5.664211877541e-04 0.0 
5.664211877541e-04 5.563587855978e-03 0.0 
0.0 0.0 -9.240346875991e-04 
-4.168495056098e-04 -3.974139927462e-04 0.0 
-3.974139927462e-04 4.226500375937e-03 0.0 
0.0 0.0 -7.856950878877e-04 
-7.739148085239e-04 2.464793331539e-04 0.0 
2.464793331539e-04 3.977512213385e-03 0.0 
0.0 0.0 -6.191377506773e-04 
-9.472802509339e-04 -4.715703841177e-04 0.0 
-4.715703841177e-04 5.324567248990e-03 0.0 
0.0 0.0 -8.467704336814e-04 
-9.485585464614e-04 5.193393053567e-04 0.0 
5.193393053567e-04 5.905682896343e-03 0.0 
0.0 0.0 -9.395224721591e-04 
-1.324920476103e-03 3.053746754946e-04 0.0 
3.053746754946e-04 8.723243834592e-03 0.0 
0.0 0.0 -1.306889097489e-03 
-9.807951782906e-04 -9.587801094059e-05 0.0 
-9.587801094059e-05 6.970713904845e-03 0.0 
0.0 0.0 -1.148622835147e-03 
-1.082939420670e-03 2.819860490732e-04 0.0 
2.819860490732e-04 6.381972856138e-03 0.0 
0.0 0.0 -9.696660045843e-04 
-9.493777168521e-04 -4.444219031776e-04 0.0 
-4.444219031776e-04 5.127854127799e-03 0.0 
0.0 0.0 -8.097439408559e-04 
-7.160311725792e-04 3.654432579295e-04 0.0 
3.654432579295e-04 5.714883805619e-03 0.0 
0.0 0.0 -9.749840279683e-04 
-1.676636515260e-04 -4.941269470984e-05 0.0 
-4.941269470984e-05 1.033199140519e-03 0.0 
0.0 0.0 -1.970089232863e-04 
-7.962185908535e-04 3.303377500728e-04 0.0 
3.303377500728e-04 4.131190544581e-03 0.0 
0.0 0.0 -6.447622526173e-04 
-1.000272012546e-03 -3.719800608836e-04 0.0 
-3.719800608836e-04 5.362836932527e-03 0.0 
0.0 0.0 -8.382314227178e-04 
1.017392588855e-04 -1.736220687656e-04 0.0 
-1.736220687656e-04 2.043177635858e-03 0.0 
0.0 0.0 -5.374563060555e-04 
-5.079147546005e-04 -4.709528610388e-04 0.0 
-4.709528610388e-04 4.508844721117e-03 0.0 
0.0 0.0 -8.136389561866e-04 
-1.114056657132e-03 2.887883130746e-04 0.0 
2.887883130746e-04 7.664610237433e-03 0.0 
0.0 0.0 -1.234277959947e-03 
-1.046296347188e-03 -3.017965079923e-04 0.0 
-3.017965079923e-04 5.590796710732e-03 0.0 
0.0 0.0 -8.668853676281e-04 
-2.327182499333e-05 -1.637556316808e-04 0.0 
-1.637556316808e-04 2.609999917965e-03 0.0 
0.0 0.0 -6.015264011954e-04 
-1.086733608739e-03 -2.340312705235e-04 0.0 
-2.340312705235e-04 5.809878777498e-03 0.0 
0.0 0.0 -8.955981815692e-04 
-7.133441625448e-04 3.191920090799e-04 0.0 
3.191920090799e-04 3.492826899708e-03 0.0 
0.0 0.0 -5.519888345566e-04 
-1.102733663682e-03 3.164092702850e-04 0.0 
3.164092702850e-04 6.555228391521e-03 0.0 
0.0 0.0 -9.983267706061e-04 
-1.119318067822e-03 -1.714358954242e-04 0.0 
-1.714358954242e-04 6.018884976543e-03 0.0 
0.0 0.0 -9.243533921793e-04 
-1.001908002250e-03 4.984942752457e-04 0.0 
4.984942752457e-04 6.334427631463e-03 0.0 
0.0 0.0 -1.003151257071e-03 
-2.279098310875e-04 -1.251804773978e-04 0.0 
-1.251804773978e-04 1.119603241316e-03 0.0 
0.0 0.0 -2.040322045631e-04 
-7.855046317287e-04 5.237977796601e-04 0.0 
5.237977796601e-04 5.697841480735e-03 0.0 
0.0 0.0 -9.517466134248e-04 
-1.278300960589e-03 -7.889376224299e-05 0.0 
-7.889376224299e-05 7.564162797006e-03 0.0 
0.0 0.0 -1.155419075730e-03 
-6.039386638838e-04 -9.352834442183e-04 0.0 
-9.352834442183e-04 3.237374525321e-03 0.0 
0.0 0.0 -5.654343806685e-04 
-5.996382576729e-04 -5.078678615237e-04 0.0 
-5.078678615237e-04 4.794693511813e-03 0.0 
0.0 0.0 -8.420324705410e-04 
-1.153622144798e-03 3.409444967982e-04 0.0 
3.409444967982e-04 6.992756961225e-03 0.0 
0.0 0.0 -1.063653581392e-03 
-6.588103306477e-04 3.969496556601e-04 0.0 
3.969496556601e-04 3.002666315313e-03 0.0 
0.0 0.0 -4.839843007303e-04 
-6.880791710433e-04 -4.312562534369e-04 0.0 
-4.312562534369e-04 5.283404868934e-03 0.0 
0.0 0.0 -9.074658271045e-04 
-1.060052777402e-03 4.844888623504e-04 0.0 
4.844888623504e-04 6.770757776904e-03 0.0 
0.0 0.0 -1.067288052377e-03 
-7.837482685475e-04 4.743739920089e-04 0.0 
4.743739920089e-04 5.847117456295e-03 0.0 
0.0 0.0 -9.801762873724e-04 
-5.364910550697e-04 4.803545642860e-04 0.0 
4.803545642860e-04 4.747968314780e-03 0.0 
0.0 0.0 -8.455731917576e-04 
-7.785051872343e-04 -3.658858697108e-04 0.0 
-3.658858697108e-04 5.776530662371e-03 0.0 
0.0 0.0 -9.738262179588e-04 
-6.715128569437e-04 5.603668306290e-04 0.0 
5.603668306290e-04 3.116619739403e-03 0.0 
0.0 0.0 -5.057041985798e-04 
-6.174255134183e-04 -7.382519752092e-04 0.0 
-7.382519752092e-04 2.524949954393e-03 0.0 
0.0 0.0 -4.238464704258e-04 
-5.725994882734e-04 -6.885730532868e-04 0.0 
-6.885730532868e-04 2.123374709043e-03 0.0 
0.0 0.0 -3.586180353125e-04 
-1.087968519769e-04 -3.894502741245e-04 0.0 
-3.894502741245e-04 2.894305128247e-03 0.0 
0.0 0.0 -6.294631353604e-04 
-1.113989301634e-03 4.730580331504e-04 0.0 
4.730580331504e-04 7.064599777148e-03 0.0 
0.0 0.0 -1.103081964739e-03 
-2.909493422495e-04 -6.727813062534e-05 0.0 
-6.727813062534e-05 1.456560370235e-03 0.0 
0.0 0.0 -2.521214004998e-04 
-1.130223577437e-03 3.874695664211e-04 0.0 
3.874695664211e-04 6.879711460710e-03 0.0 
0.0 0.0 -1.054898413167e-03 
-4.747914815808e-04 -7.007316897934e-04 0.0 
-7.007316897934e-04 1.510403036883e-03 0.0 
0.0 0.0 -2.740243446916e-04 
-1.059034309075e-04 -6.476895754937e-04 0.0 
-6.476895754937e-04 2.671993736935e-03 0.0 
0.0 0.0 -5.935709857392e-04 
-8.832674525435e-04 3.712236152595e-04 0.0 
3.712236152595e-04 6.508434955568e-03 0.0 
0.0 0.0 -1.077081564483e-03 
-1.023005590377e-03 -4.065847446542e-05 0.0 
-4.065847446542e-05 6.235882102629e-03 0.0 
0.0 0.0 -9.315431351609e-04 
-2.271455064543e-04 -7.649077538712e-04 0.0 
-7.649077538712e-04 3.005124294304e-03 0.0 
0.0 0.0 -6.211106552582e-04 
-5.539372237771e-04 -2.705347043382e-05 0.0 
-2.705347043382e-05 2.503628127068e-03 0.0 
0.0 0.0 -3.989951351066e-04 
-2.711318037513e-04 -9.555117866304e-04 0.0 
-9.555117866304e-04 2.849172517321e-03 0.0 
0.0 0.0 -5.850331209179e-04 
-6.241921201683e-04 4.180601427792e-04 0.0 
4.180601427792e-04 5.227484326245e-03 0.0 
0.0 0.0 -9.098959706900e-04 
-3.942802621189e-04 -9.538191986641e-04 0.0 
-9.538191986641e-04 3.188718869022e-03 0.0 
0.0 0.0 -6.124823626799e-04 
-4.550624226044e-04 -1.036578340992e-03 0.0 
-1.036578340992e-03 3.064317854104e-03 0.0 
0.0 0.0 -5.760838601101e-04 
-1.286542940212e-03 9.779925010804e-05 0.0 
9.779925010804e-05 8.362389009926e-03 0.0 
0.0 0.0 -1.242975171717e-03 
-5.556616817437e-04 -9.487474711726e-04 0.0 
-9.487474711726e-04 3.373317672553e-03 0.0 
0.0 0.0 -6.030381679152e-04 
-1.312957018488e-03 1.762534641485e-05 0.0 
1.762534641485e-05 8.791531742823e-03 0.0 
0.0 0.0 -1.305370344976e-03 
-1.342889913941e-03 -8.887845541572e-05 0.0 
-8.887845541572e-05 8.517788746463e-03 0.0 
0.0 0.0 -1.298405437673e-03 
-9.001399359898e-04 -3.115200366471e-05 0.0 
-3.115200366471e-05 5.327299192951e-03 0.0 
0.0 0.0 -7.997855503562e-04 
-6.119585369169e-04 5.319683456807e-04 0.0 
5.319683456807e-04 2.524442221547e-03 0.0 
0.0 0.0 -4.121418992062e-04 
0.0 0.0 0.0 
0.0 0.0 0.0 
0.0 0.0 0.0 
-6.013216908629e-04 7.353591052882e-04 0.0 
7.353591052882e-04 2.570270979253e-03 0.0 
0.0 0.0 -4.369243393394e-04 
-5.755877201232e-04 -1.006492197580e-03 0.0 
-1.006492197580e-03 2.831071537896e-03 0.0 
0.0 0.0 -5.013603847490e-04 
-1.101076468124e-03 4.427543157598e-04 0.0 
4.427543157598e-04 6.753747619027e-03 0.0 
0.0 0.0 -1.045752072333e-03 
-9.001350944238e-04 1.690426372956e-05 0.0 
1.690426372956e-05 5.335483219367e-03 0.0 
0.0 0.0 -8.029817139903e-04 
-6.111138971153e-04 -8.912307338130e-04 0.0 
-8.912307338130e-04 2.695444832232e-03 0.0 
0.0 0.0 -4.630712860745e-04 
-1.275916597091e-03 4.598087248478e-04 0.0 
4.598087248478e-04 8.197933557976e-03 0.0 
0.0 0.0 -1.250093291501e-03 
-1.277155987315e-03 4.247176035906e-04 0.0 
4.247176035906e-04 8.290214574666e-03 0.0 
0.0 0.0 -1.306737725957e-03 
-1.108220863065e-03 9.376951406301e-06 0.0 
9.376951406301e-06 6.884195681395e-03 0.0 
0.0 0.0 -1.028769680629e-03 
-9.736500693663e-04 5.157775084853e-05 0.0 
5.157775084853e-05 6.985202160712e-03 0.0 
0.0 0.0 -1.152835590205e-03 
-7.921204258207e-04 4.078698397503e-04 0.0 
4.078698397503e-04 6.023879636983e-03 0.0 
0.0 0.0 -1.010595862668e-03 
-1.241857793517e-03 -4.299570159508e-06 0.0 
-4.299570159508e-06 7.958618347353e-03 0.0 
0.0 0.0 -1.185717314024e-03 
-8.475222208266e-04 -3.781329079989e-05 0.0 
-3.781329079989e-05 4.928212699674e-03 0.0 
0.0 0.0 -7.451086181774e-04 
-1.664286133127e-04 -2.725892507630e-04 0.0 
-2.725892507630e-04 6.325537652716e-04 0.0 
0.0 0.0 -1.414044378648e-04 
-1.183800202695e-03 -4.172593709851e-05 0.0 
-4.172593709851e-05 6.467154125527e-03 0.0 
0.0 0.0 -9.879584850274e-04 
-5.708971627680e-04 6.741264129118e-04 0.0 
6.741264129118e-04 2.024843560255e-03 0.0 
0.0 0.0 -3.437331075899e-04 
-5.495900722021e-04 1.011381174664e-03 0.0 
1.011381174664e-03 1.944401710747e-03 0.0 
0.0 0.0 -3.524505972177e-04 
-2.853835512823e-04 1.205712139992e-03 0.0 
1.205712139992e-03 1.304597058130e-03 0.0 
0.0 0.0 -3.593644486456e-04 
-7.020460695734e-04 -1.440442927613e-04 0.0 
-1.440442927613e-04 3.119459023260e-03 0.0 
0.0 0.0 -4.856826860430e-04 
-8.782495870591e-05 -9.084916110393e-04 0.0 
-9.084916110393e-04 7.572036747300e-04 0.0 
0.0 0.0 -2.846511604759e-04 
-4.893890858810e-04 8.969022950391e-04 0.0 
8.969022950391e-04 1.589417859757e-03 0.0 
0.0 0.0 -3.076864852448e-04 
-1.137014357475e-03 7.152136645660e-05 0.0 
7.152136645660e-05 7.697731072351e-03 0.0 
0.0 0.0 -1.245112051941e-03 
-9.139609418570e-04 1.641183808410e-05 0.0 
1.641183808410e-05 5.327038428336e-03 0.0 
0.0 0.0 -8.050116406322e-04 
-9.540345071131e-04 3.841934886618e-04 0.0 
3.841934886618e-04 6.790550876670e-03 0.0 
0.0 0.0 -1.110409235593e-03 
-1.902162665021e-04 9.339845454039e-04 0.0 
9.339845454039e-04 9.942126500714e-04 0.0 
0.0 0.0 -3.261355004832e-04 
-1.296828862309e-03 2.341461600450e-04 0.0 
2.341461600450e-04 8.351041898143e-03 0.0 
0.0 0.0 -1.247366155457e-03 
-1.168645139073e-03 3.735588726833e-04 0.0 
3.735588726833e-04 7.817174461527e-03 0.0 
0.0 0.0 -1.246608778627e-03 
-1.314967464086e-03 -3.318256949741e-04 0.0 
-3.318256949741e-04 8.403481236488e-03 0.0 
0.0 0.0 -1.306249356034e-03 
-1.050201848033e-03 3.696451559178e-04 0.0 
3.696451559178e-04 7.268871172990e-03 0.0 
0.0 0.0 -1.176371721005e-03 
6.114555871551e-05 1.042784162236e-03 0.0 
1.042784162236e-03 5.736687994652e-04 0.0 
0.0 0.0 -2.720632963632e-04 
-9.766098877979e-04 1.041630930997e-04 0.0 
1.041630930997e-04 5.685157012225e-03 0.0 
0.0 0.0 -8.603500797662e-04 
-1.246724541881e-03 4.866961176123e-04 0.0 
4.866961176123e-04 8.045633532487e-03 0.0 
0.0 0.0 -1.250827372426e-03 
-1.145993633532e-03 3.235835733547e-05 0.0 
3.235835733547e-05 7.250949289083e-03 0.0 
0.0 0.0 -1.080253149739e-03 
-1.318596932855e-03 -2.303003049155e-04 0.0 
-2.303003049155e-04 8.477981163117e-03 0.0 
0.0 0.0 -1.309985050881e-03 
-9.104561560587e-04 8.791536920609e-05 0.0 
8.791536920609e-05 5.249520802984e-03 0.0 
0.0 0.0 -7.979019438933e-04 
-1.287101829326e-03 7.929734908006e-05 0.0 
7.929734908006e-05 8.412586601378e-03 0.0 
0.0 0.0 -1.252774941638e-03 
4.187865149814e-04 -7.886444366699e-04 0.0 
-7.886444366699e-04 6.898920111237e-05 0.0 
0.0 0.0 -2.090467354688e-04 
-1.285197150188e-03 5.312445103222e-05 0.0 
5.312445103222e-05 8.412445019205e-03 0.0 
0.0 0.0 -1.254166199180e-03 
-1.155435508235e-03 4.462044169920e-04 0.0 
4.462044169920e-04 7.190167035892e-03 0.0 
0.0 0.0 -1.110316242656e-03 
-9.785241987209e-04 6.006269753900e-05 0.0 
6.006269753900e-05 5.897359505691e-03 0.0 
0.0 0.0 -8.840149073763e-04 
-9.814056690218e-04 2.078101741112e-04 0.0 
2.078101741112e-04 5.639397818750e-03 0.0 
0.0 0.0 -8.570326279659e-04 
-1.319590243869e-03 -1.168373964399e-04 0.0 
-1.168373964399e-04 8.200864803592e-03 0.0 
0.0 0.0 -1.256337174517e-03 
-1.298927049123e-03 3.872456439500e-04 0.0 
3.872456439500e-04 8.256979916972e-03 0.0 
0.0 0.0 -1.249505442739e-03 
1.588810044440e-04 6.739000714330e-04 0.0 
6.739000714330e-04 2.144145137498e-04 0.0 
0.0 0.0 -1.599837935116e-04 
-1.096094038579e-03 6.855172835755e-05 0.0 
6.855172835755e-05 6.864639960432e-03 0.0 
0.0 0.0 -1.024357608964e-03 
-8.327401503038e-04 -2.617825635292e-04 0.0 
-2.617825635292e-04 3.865808984588e-03 0.0 
0.0 0.0 -5.984289768806e-04 
4.595402762325e-05 -8.016720020432e-05 0.0 
-8.016720020432e-05 3.015012832341e-06 0.0 
0.0 0.0 -2.098673162382e-05 
-1.235862100260e-03 -2.625570613708e-04 0.0 
-2.625570613708e-04 7.934382526740e-03 0.0 
0.0 0.0 -1.249521112489e-03 
-1.211535382329e-03 4.565569816846e-04 0.0 
4.565569816846e-04 7.603855218494e-03 0.0 
0.0 0.0 -1.172189067419e-03 
-1.321360973485e-03 -1.598454139055e-04 0.0 
-1.598454139055e-04 8.157812717265e-03 0.0 
0.0 0.0 -1.251863004148e-03 
-1.704574328015e-04 2.300128264431e-05 0.0 
2.300128264431e-05 1.030856563870e-03 0.0 
0.0 0.0 -1.953152674555e-04 
-1.117901966883e-04 -9.482210033707e-05 0.0 
-9.482210033707e-05 5.817955991869e-04 0.0 
0.0 0.0 -1.292073282250e-04 
-1.214101423412e-03 -2.486194593532e-04 0.0 
-2.486194593532e-04 7.945028851660e-03 0.0 
0.0 0.0 -1.258522865334e-03 
-1.271219324857e-03 4.971693506933e-04 0.0 
4.971693506933e-04 8.177840067003e-03 0.0 
0.0 0.0 -1.257106814994e-03 
2.594232538172e-04 -1.339851872499e-03 0.0 
-1.339851872499e-03 5.141638941498e-04 0.0 
0.0 0.0 -3.217126346404e-04 
-1.334345376368e-03 2.157790183719e-04 0.0 
2.157790183719e-04 8.827191171129e-03 0.0 
0.0 0.0 -1.314710167832e-03 
5.758992691219e-05 1.629967515181e-04 0.0 
1.629967515181e-04 3.408863824387e-05 0.0 
0.0 0.0 -3.929081363831e-05 
-8.415723991859e-04 3.409357994461e-05 0.0 
3.409357994461e-05 4.862419417103e-03 0.0 
0.0 0.0 -7.389643750272e-04 
-5.632071603276e-05 -7.908255579780e-05 0.0 
-7.908255579780e-05 5.951715054384e-04 0.0 
0.0 0.0 -1.313337839019e-04 
-1.324427323831e-03 -2.984557275517e-04 0.0 
-2.984557275517e-04 8.505668996389e-03 0.0 
0.0 0.0 -1.308531455474e-03 
-1.300676432775e-03 1.886676363898e-04 0.0 
1.886676363898e-04 8.425576722081e-03 0.0 
0.0 0.0 -1.254845750201e-03 
-8.984019564796e-04 -1.237198133233e-04 0.0 
-1.237198133233e-04 4.265458849472e-03 0.0 
0.0 0.0 -6.564513288157e-04 
-8.888014077326e-04 1.812789084724e-04 0.0 
1.812789084724e-04 4.952376261473e-03 0.0 
0.0 0.0 -7.541421605440e-04 
-6.276097559503e-04 -6.715782605664e-05 0.0 
-6.715782605664e-05 2.832069501594e-03 0.0 
0.0 0.0 -4.426424662127e-04 
-1.151816338705e-03 4.986859032723e-04 0.0 
4.986859032723e-04 7.600283655027e-03 0.0 
0.0 0.0 -1.203498912175e-03 
-2.674740073154e-04 -5.400123392678e-04 0.0 
-5.400123392678e-04 9.299090651865e-04 0.0 
0.0 0.0 -2.264474151299e-04 
-1.303841109802e-03 1.085882883771e-04 0.0 
1.085882883771e-04 8.492357544012e-03 0.0 
0.0 0.0 -1.260296891839e-03 
-1.191687690371e-03 -1.792572912051e-04 0.0 
-1.792572912051e-04 7.902409115589e-03 0.0 
0.0 0.0 -1.261416966621e-03 
-1.308215205254e-03 3.369873735607e-04 0.0 
3.369873735607e-04 8.413847692259e-03 0.0 
0.0 0.0 -1.260618436842e-03 
-1.275370929010e-03 2.203297067690e-04 0.0 
2.203297067690e-04 8.294911698725e-03 0.0 
0.0 0.0 -1.317725628150e-03 
1.222313271004e-05 1.128127362180e-05 0.0 
1.128127362180e-05 -2.314647535048e-06 0.0 
0.0 0.0 -4.246493646427e-06 
-1.211818034300e-03 4.006014363556e-04 0.0 
4.006014363556e-04 7.983414665776e-03 0.0 
0.0 0.0 -1.263090216482e-03 
-1.073154055867e-03 -5.044780342709e-05 0.0 
-5.044780342709e-05 7.404491594172e-03 0.0 
0.0 0.0 -1.202239909569e-03 
-8.482969471247e-04 5.756566432870e-05 0.0 
5.756566432870e-05 4.934073378721e-03 0.0 
0.0 0.0 -7.439744481034e-04 
-1.294789794099e-03 4.128632800208e-04 0.0 
4.128632800208e-04 8.301439097425e-03 0.0 
0.0 0.0 -1.252574368527e-03 
-7.632240259174e-04 -1.247615584578e-04 0.0 
-1.247615584578e-04 3.481612275262e-03 0.0 
0.0 0.0 -5.383891422301e-04 
-3.003096040968e-04 -1.615487937268e-04 0.0 
-1.615487937268e-04 1.430206630076e-03 0.0 
0.0 0.0 -2.492021827984e-04 
-1.313629829914e-03 -1.230146382652e-05 0.0 
-1.230146382652e-05 8.822541585775e-03 0.0 
0.0 0.0 -1.313490227100e-03 
3.512651625883e-04 2.496523614618e-05 0.0 
2.496523614618e-05 9.331964126241e-05 0.0 
0.0 0.0 -1.176723970536e-04 
-8.447146323437e-04 -2.046082411215e-05 0.0 
-2.046082411215e-05 4.909462012842e-03 0.0 
0.0 0.0 -7.402411036050e-04 
-1.348085845692e-03 2.530918264864e-06 0.0 
2.530918264864e-06 8.606464988216e-03 0.0 
0.0 0.0 -1.313492844077e-03 
-2.497229854947e-04 -6.189559134780e-05 0.0 
-6.189559134780e-05 1.337406434444e-03 0.0 
0.0 0.0 -2.401910970207e-04 
-9.421911629794e-04 -1.661669992897e-05 0.0 
-1.661669992897e-05 5.655702660019e-03 0.0 
0.0 0.0 -8.489638187885e-04 
-1.276280445523e-03 4.696432845470e-04 0.0 
4.696432845470e-04 8.231682282445e-03 0.0 
0.0 0.0 -1.260211869575e-03 
-1.042131282941e-03 -3.353944901092e-05 0.0 
-3.353944901092e-05 5.231045184564e-03 0.0 
0.0 0.0 -7.986629621775e-04 
-1.208709146256e-03 -3.512840286861e-05 0.0 
-3.512840286861e-05 7.690123470060e-03 0.0 
0.0 0.0 -1.148445367820e-03 
-1.362273016930e-05 -1.182361291552e-03 0.0 
-1.182361291552e-03 7.884965128820e-04 0.0 
0.0 0.0 -3.320887640197e-04 
0.0 0.0 0.0 
0.0 0.0 0.0 
0.0 0.0 0.0 
-1.052359765526e-03 -2.552934865100e-05 0.0 
-2.552934865100e-05 6.469023319650e-03 0.0 
0.0 0.0 -9.668795991591e-04 
-1.182130655930e-03 3.563594059290e-04 0.0 
3.563594059290e-04 7.870829341615e-03 0.0 
0.0 0.0 -1.258714341260e-03 
-1.311624000118e-03 2.599452204782e-04 0.0 
2.599452204782e-04 8.471619375797e-03 0.0 
0.0 0.0 -1.263997700767e-03 
-1.012178473530e-03 6.922432419418e-05 0.0 
6.922432419418e-05 6.158161253950e-03 0.0 
0.0 0.0 -9.199601189493e-04 
2.647470927745e-04 7.455276449397e-04 0.0 
7.455276449397e-04 1.486685304712e-04 0.0 
0.0 0.0 -1.771781242482e-04 
-1.250478637346e-03 4.824320061321e-04 0.0 
4.824320061321e-04 7.958988352162e-03 0.0 
0.0 0.0 -1.221038716794e-03 
-9.320485300336e-04 -1.667751956757e-04 0.0 
-1.667751956757e-04 4.597200132756e-03 0.0 
0.0 0.0 -7.060606045914e-04 
-1.200656783891e-03 4.721645169611e-04 0.0 
4.721645169611e-04 7.751960834764e-03 0.0 
0.0 0.0 -1.208939113964e-03 
-1.070653970758e-03 3.740030437558e-05 0.0 
3.740030437558e-05 7.401065294209e-03 0.0 
0.0 0.0 -1.203806565432e-03 
-5.496961826919e-06 1.707396212563e-04 0.0 
1.707396212563e-04 2.048004590185e-05 0.0 
0.0 0.0 -6.421321746397e-06 
-1.092227246100e-03 -1.750499239164e-05 0.0 
-1.750499239164e-05 5.615262148534e-03 0.0 
0.0 0.0 -8.562696210230e-04 
-5.708960077967e-05 -1.112001135559e-04 0.0 
-1.112001135559e-04 5.586929987395e-04 0.0 
0.0 0.0 -1.274563633148e-04 
-1.286136249812e-03 -3.205909886145e-04 0.0 
-3.205909886145e-04 8.133690929480e-03 0.0 
0.0 0.0 -1.263714160583e-03 
-9.761535132734e-04 -1.267872809360e-04 0.0 
-1.267872809360e-04 4.804162128704e-03 0.0 
0.0 0.0 -7.344436328926e-04 
-5.906006368893e-04 2.288891671207e-04 0.0 
2.288891671207e-04 2.870943367702e-03 0.0 
0.0 0.0 -4.554274907802e-04 
-5.389667577120e-04 -6.804025262558e-06 0.0 
-6.804025262558e-06 2.978462680921e-03 0.0 
0.0 0.0 -4.600000000000e-04 
-6.473050156334e-04 1.727942626416e-04 0.0 
1.727942626416e-04 3.336717154907e-03 0.0 
0.0 0.0 -5.192176870747e-04 
-6.144712139930e-04 -6.417158408879e-06 0.0 
-6.417158408879e-06 3.367933189460e-03 0.0 
0.0 0.0 -5.266666666667e-04 
-7.109436799071e-04 1.285541719908e-04 0.0 
1.285541719908e-04 3.807150921548e-03 0.0 
0.0 0.0 -5.860204081633e-04 
-6.853888581673e-04 6.201834011282e-06 0.0 
6.201834011282e-06 3.914136364457e-03 0.0 
0.0 0.0 -5.933333333333e-04 
-7.741251423872e-04 1.050422606297e-04 0.0 
1.050422606297e-04 4.286196800977e-03 0.0 
0.0 0.0 -6.525251918948e-04 
-7.681459693767e-04 3.705640173290e-05 0.0 
3.705640173290e-05 4.300928271438e-03 0.0 
0.0 0.0 -6.600000000000e-04 

SCALARS node_materi_plasti_kappa_shear float
LOOKUP_TABLE default
4.018595016637e-04
3.089753889168e-03
5.782851735544e-03
5.918183804685e-03
3.534406101045e-04
5.777185496190e-04
8.655346567894e-04
1.225178696612e-03
1.561289241519e-03
1.871659154863e-03
2.181083715770e-03
2.488964856422e-03
2.787137593187e-03
3.091771098928e-03
3.420472284368e-03
3.710467865470e-03
3.939561491463e-03
4.240577622205e-03
4.533842638206e-03
4.816933074020e-03
5.104668969230e-03
5.391975952764e-03
5.664103688175e-03
5.924781152092e-03
5.917884078783e-03
5.912198488963e-03
5.915363934694e-03
5.905144694759e-03
5.903457440159e-03
5.903348825921e-03
5.903761712110e-03
5.904265203747e-03
5.905318048855e-03
5.891395232290e-03
5.888128140164e-03
5.888680312796e-03
5.877931512601e-03
5.860031142375e-03
5.843163873243e-03
5.826784160533e-03
5.822850206754e-03
5.815960623432e-03
5.800025919692e-03
5.784362356774e-03
5.761776212317e-03
5.737855144386e-03
5.711749137531e-03
5.696108572039e-03
5.671644922162e-03
5.650827538949e-03
5.628366488181e-03
5.614080868870e-03
5.604140386821e-03
5.593036124330e-03
5.565915778014e-03
5.555192109801e-03
5.573004876633e-03
5.580306717995e-03
5.596307166112e-03
5.614091302201e-03
5.629810666475e-03
5.640837494200e-03
5.663093814390e-03
5.686920133380e-03
5.716693701825e-03
5.739758391817e-03
5.726679333637e-03
5.759394314008e-03
5.766547388258e-03
5.773558049937e-03
5.793695355299e-03
5.800384027879e-03
3.373278433029e-03
3.702017582457e-03
4.003145076898e-03
4.293988028575e-03
4.595203178701e-03
4.888984289506e-03
5.184208240141e-03
5.464856448975e-03
5.776378587400e-03
0.0
3.081614032412e-03
4.378618974845e-04
9.313671065223e-04
1.273596264124e-03
1.475817609515e-03
1.691520661011e-03
1.935698700641e-03
2.132793436960e-03
2.435412037652e-03
2.742854806992e-03
1.969345810397e-03
2.157438038011e-03
2.464376355407e-03
2.763613688910e-03
3.033283060944e-03
3.047551184854e-03
3.052691208087e-03
3.048980415926e-03
3.100970999415e-03
3.055386088565e-03
3.048944342912e-03
3.057111577284e-03
3.066860764030e-03
3.068512091509e-03
3.063486917503e-03
3.060147944086e-03
3.055345893607e-03
3.060924048497e-03
0.0
0.0
0.0
0.0
3.010556392940e-05
1.524327839584e-04
1.995857095858e-04
2.767971837970e-04
3.769179784358e-04
3.253807271213e-04
3.117581124918e-04
3.606568275965e-04
3.857262083461e-04
3.906419353076e-04
3.716692121618e-04
3.690405021818e-04
3.649158742688e-04
3.750961897123e-04
3.938961504005e-04
2.030203468157e-03
2.011210816707e-03
2.007409288066e-03
2.007744152791e-03
2.008685552658e-03
2.010022246641e-03
2.011357743839e-03
2.012064377242e-03
2.012504716775e-03
2.013452413470e-03
2.014458472588e-03
2.014864282342e-03
2.014117126399e-03
2.014622317017e-03
2.016555511142e-03
2.020527254933e-03
2.019639266117e-03
2.018702044377e-03
2.008002678480e-03
1.900775311080e-03
2.080506824934e-03
2.164948252942e-03
2.154100839180e-03
2.150515564044e-03
2.148527180390e-03
2.146829621685e-03
2.148399684790e-03
2.148269732465e-03
2.147251103362e-03
2.145502430008e-03
2.144742881416e-03
2.144585681651e-03
2.143007155335e-03
2.141326361852e-03
2.140089070988e-03
2.139324946174e-03
2.139237355337e-03
2.141352669433e-03
2.151708895370e-03
2.461087216651e-03
2.449937346399e-03
2.449035342414e-03
2.450513446923e-03
2.450644149295e-03
2.452642955489e-03
2.454778138053e-03
2.455902509536e-03
2.454538383279e-03
2.457438007012e-03
2.459393424546e-03
2.458960398410e-03
2.459214310986e-03
2.454295807747e-03
2.458028484257e-03
2.475695803071e-03
2.389521690566e-03
2.696529334491e-03
2.782001887569e-03
2.769038020761e-03
2.765913210012e-03
2.768177298346e-03
2.769449690573e-03
2.765618434112e-03
2.764713207464e-03
2.764281696244e-03
2.762786239059e-03
2.760748228383e-03
2.759266427299e-03
2.760944420823e-03
2.756978941966e-03
2.764313748951e-03
2.781014989081e-03
3.172609557026e-04
6.987967846243e-04
1.138663496479e-03
1.416159959173e-03
1.577549707535e-03
1.821953157934e-03
2.011163452325e-03
2.301780023271e-03
2.604607703320e-03
2.917242865590e-03
9.738600395069e-04
5.435588587201e-03
2.909988311951e-04
3.769847250245e-05
5.523350165746e-03
1.570944169196e-03
3.259014405966e-03
5.458606763578e-03
1.964336709912e-03
5.566973844380e-03
2.569306611317e-03
5.632953359091e-03
2.974125210141e-04
5.671758588449e-03
3.203440197606e-03
2.038890301765e-03
4.045860618713e-03
5.716180375961e-03
5.780776132195e-03
5.820339983969e-03
5.787783236705e-03
5.807930197893e-03
3.336276229903e-03
3.342041558882e-03
3.361792062102e-03
4.441169448529e-03
5.674307051814e-03
0.0
3.209899088955e-04
4.945795996265e-03
3.327462179656e-03
1.042267579418e-03
5.707024864185e-03
5.532622783008e-03
5.619797893241e-03
5.423578043402e-03
5.471772884167e-03
3.436383270429e-04
3.333005330644e-03
5.529223749367e-03
5.037839075619e-03
2.638587871684e-04
2.642361659730e-03
5.873210275008e-03
1.763677943653e-03
1.340334044123e-03
2.263467496582e-03
2.874799860949e-03
4.431796713097e-04
3.869122312403e-03
5.743109238437e-03
3.285007242827e-04
5.592525333234e-03
3.331816214928e-03
3.445762685372e-03
3.598635432457e-03
3.735913935781e-03
3.890935618439e-03
4.012600674009e-03
3.849474617287e-03
4.126514031565e-03
3.959165169884e-03
4.176038116471e-03
4.235988580971e-03
4.064707878218e-03
4.341402437136e-03
4.167240197337e-03
3.894151677151e-03
3.992834958239e-03
3.721936449487e-03
3.816849981585e-03
4.088667098279e-03
3.907021233887e-03
3.638494610824e-03
3.722863223661e-03
3.459179651477e-03
3.537390187834e-03
3.278134638251e-03
3.349761859775e-03
3.611638012721e-03
3.416809574398e-03
3.159803868816e-03
3.218051688491e-03
2.967054440755e-03
3.013255720382e-03
3.274741419647e-03
3.060407839341e-03
2.799033525006e-03
2.837141687482e-03
2.575225456547e-03
2.604333461748e-03
2.339006943104e-03
2.356936139518e-03
2.652093179226e-03
2.407825459181e-03
2.096105658174e-03
2.161022888783e-03
2.499076110119e-03
2.280206439540e-03
2.629068977315e-03
2.442266900798e-03
2.092139772061e-03
2.292183785287e-03
2.630236405014e-03
2.506325631077e-03
2.190661895186e-03
2.422274426006e-03
2.721982461051e-03
2.641933182030e-03
2.372758104436e-03
2.584384885052e-03
2.850333968712e-03
2.779077813445e-03
2.534557373612e-03
2.709557774217e-03
2.962454448322e-03
2.875190167875e-03
3.136631662821e-03
2.629761375739e-03
2.778979644167e-03
2.533618166994e-03
2.669371918058e-03
3.335780224915e-03
2.417052975495e-03
2.301133563289e-03
2.544153619348e-03
2.809569658580e-03
2.280488059570e-03
2.403129281843e-03
2.126768242516e-03
2.337020972949e-03
4.180692697777e-03
2.249003779132e-03
1.959755581014e-03
1.842529391951e-03
1.658290441270e-03
4.057689887828e-03
4.345234894460e-03
4.214494829484e-03
4.512207963410e-03
4.386116896851e-03
1.781237856866e-03
4.515858041588e-03
4.632785065629e-03
3.375865563346e-03
2.914340702826e-03
2.837997481989e-03
2.532048550751e-03
2.378710134929e-03
2.668313152737e-03
3.233044162886e-03
3.411145406702e-03
3.516648249659e-03
3.695606962541e-03
3.809881520442e-03
3.987932871345e-03
3.868387923180e-03
4.160380401702e-03
4.035401995459e-03
4.109927676280e-03
3.929071965477e-03
4.326541573449e-03
4.196853341751e-03
4.486612097014e-03
4.352559495553e-03
4.065464170358e-03
4.216259007439e-03
3.932665926102e-03
2.974206145827e-03
3.176937453123e-03
3.316135238148e-03
3.514584502752e-03
3.655690360847e-03
3.851432524779e-03
3.992906615051e-03
3.810423676568e-03
4.443438443787e-03
1.828572061533e-03
1.806415762240e-03
1.513365747016e-03
1.563989916259e-03
1.243214007741e-03
1.411260727777e-03
1.087408529277e-03
9.280634857496e-04
7.696745497683e-04
7.727047061156e-04
6.380213861808e-04
9.424950275726e-04
3.683920707972e-03
3.721810168106e-03
4.055539867157e-03
3.931687734683e-03
1.545289606018e-03
4.502587431745e-03
4.237803823005e-03
4.054767645798e-03
4.147689587509e-03
1.469037962723e-03
1.381279309045e-03
1.636872751770e-03
4.676612476866e-03
4.548915297300e-03
4.373011447568e-03
1.596671411329e-03
4.457517107573e-03
6.726180917699e-04
4.361759767158e-03
4.647438517847e-03
3.749070434487e-03
4.262666346844e-03
4.139562493484e-03
1.058263721451e-03
1.328795762681e-03
1.257951778391e-03
1.615059101371e-03
1.617776829754e-03
1.784704992927e-03
1.664404533731e-03
1.851897133188e-03
1.923512677117e-03
1.920863832566e-03
1.732826179112e-03
1.789080397445e-03
4.789640175199e-03
4.933105548269e-04
3.623293427982e-03
4.549397453839e-03
4.326717748868e-03
4.840106465985e-03
4.712783082347e-03
4.418649943636e-03
4.585859736983e-03
4.878747721020e-03
4.750919794657e-03
4.456475978691e-03
4.618929314417e-03
4.321775629010e-03
4.485087669046e-03
4.780485262660e-03
4.648645754832e-03
4.352908180169e-03
4.515438133183e-03
4.218119818909e-03
4.376442562231e-03
4.677698654010e-03
1.280455175298e-03
3.975684030661e-03
4.313430537097e-03
2.531248625096e-03
2.795187276442e-03
2.950421176089e-03
3.091354176801e-03
4.540325048563e-03
4.842133621751e-03
1.627886023255e-03
1.806948227217e-03
4.964897247722e-03
4.505647349825e-03
4.219641279943e-03
2.730984817609e-03
2.680252985846e-03
2.508656173216e-03
2.453261305901e-03
2.619408054872e-03
2.295804407583e-03
3.740263927180e-03
4.943332949813e-03
1.736869985241e-03
1.441819622179e-03
4.792252417499e-03
3.639826983595e-03
3.882064491805e-03
3.960472891563e-03
4.161603615821e-03
4.245857029619e-03
4.449138486875e-03
4.538270851724e-03
4.336412104350e-03
4.467009293726e-03
4.637465802825e-03
4.227760771006e-03
3.603493058884e-03
2.015316274690e-03
1.151528373984e-03
1.494680084950e-03
1.401763515938e-03
1.725734234278e-03
4.692766413527e-03
4.744201478353e-03
4.646812231519e-03
2.391216520205e-03
2.541437442855e-03
4.590954612420e-03
4.090617543142e-03
4.159541705089e-03
4.020881279016e-03
1.028169191453e-03
1.414727337198e-03
5.043491496533e-03
1.828932906125e-03
1.917980713017e-03
4.157180774186e-04
1.730461438410e-04
4.691724722002e-03
4.992960999119e-03
3.232526540781e-03
3.376337074583e-03
4.517813292037e-03
1.573664134280e-03
5.136914764881e-03
3.818178697522e-03
3.485662865048e-03
2.929371560799e-03
1.726704283358e-03
1.445214139705e-03
2.001081890038e-03
1.816948000307e-03
1.537558582793e-03
4.841861112859e-03
5.166500773962e-03
4.432736485775e-03
4.128543821065e-03
4.737743923515e-03
1.242267063270e-03
4.872712079514e-03
4.648563616368e-03
4.934717953700e-03
4.841015803806e-03
1.998284811115e-03
2.023831337705e-03
1.929656289699e-03
2.012827717834e-03
3.685637869250e-03
2.160195855781e-03
3.453630867072e-03
3.353268669804e-03
3.189580292168e-03
2.780580474833e-03
2.697012491619e-03
1.850761695031e-03
3.058179809856e-03
3.092459470665e-03
3.782098167745e-03
3.330348654579e-03
5.071602464651e-03
5.237586080772e-03
4.054791370477e-03
3.911736450825e-03
1.227723328770e-03
1.121568548935e-03
3.305144710569e-03
4.722576138819e-03
5.125546474561e-03
5.249094215458e-03
5.084093944170e-03
4.665047890294e-03
1.576387794071e-03
3.131769936580e-03
4.332121020711e-04
3.548502236301e-03
8.886689387002e-04
4.364114879908e-03
4.929747689709e-03
5.074378233997e-03
4.790835636385e-03
3.303647652991e-03
3.622953727387e-03
3.407028331038e-03
3.087385769992e-03
2.928470296600e-03
3.025957624230e-03
2.770242371404e-03
2.146257545189e-03
2.105072283453e-03
5.074226657025e-03
4.945890381019e-03
5.132442016699e-03
5.036778597884e-03
4.913108523956e-03
4.718978319234e-03
1.854189815065e-03
2.451969709865e-03
5.326205974980e-03
3.245806195750e-03
5.032929921038e-03
4.895632072523e-03
8.703516401931e-05
5.025155932237e-04
5.299729360747e-03
1.862195518962e-03
1.925793576571e-03
1.786850721610e-03
5.508894573325e-03
3.317615670200e-03
5.206554443836e-03
2.947814730022e-03
5.436495255461e-03
3.710224019945e-03
2.542778381884e-03
4.340023150483e-03
5.139724345049e-03
5.473155703650e-03
3.856151046115e-03
3.706636097451e-03
3.986363479487e-03
8.597848081307e-04
4.948557720353e-04
5.105588847389e-03
2.215579397184e-03
2.383580716268e-03
1.610091948116e-03
1.853488942060e-03
3.371371645262e-03
3.226095624709e-03
4.460118615317e-03
4.646317835839e-03
4.077799721507e-03
3.673670130341e-03
3.349970931866e-03
3.156166832522e-03
5.356340387661e-03
5.560199060828e-03
2.148566688317e-03
1.947252295954e-03
2.277219304698e-03
5.452662980312e-03
5.357012637058e-03
5.217066698957e-03
7.819578528788e-04
1.028971749725e-03
1.479365826605e-03
1.088843442230e-03
5.358763484459e-03
5.206986646545e-03
5.554350471510e-03
1.646365469631e-03
4.227084436487e-03
4.981659535795e-03
4.824566320775e-03
5.205837116450e-03
4.665431215243e-03
4.979351549170e-03
5.045785100976e-03
6.553725280397e-06
5.354913579491e-03
3.735880701652e-03
0.0
3.596581939605e-03
3.776236102998e-03
3.431628553560e-03
1.322961065373e-03
3.627378963851e-03
3.821605526455e-03
5.613183195734e-04
5.602994573649e-03
5.605292770001e-04
6.792338181858e-04
5.201033617940e-03
5.054577875215e-03
5.350694268135e-03
5.195925285154e-03
4.911596497334e-03
5.072562886383e-03
3.571136890228e-03
5.391533904623e-03
5.225263310295e-03
5.570873285067e-03
2.672019548462e-03
2.112700823482e-03
2.016942320669e-03
1.807045388934e-03
5.367508392991e-03
5.211741918196e-03
4.791087967570e-03
4.504528282397e-03
3.617380192862e-03
3.592243224651e-03
3.871542763848e-03
3.825760515629e-03
4.113486033420e-03
4.067343757730e-03
4.345783660312e-03
5.267440361509e-03
1.658829135304e-03
2.980180790998e-03
5.045745089381e-03
4.837810433997e-03
2.604840179930e-03
2.359528337880e-03
5.236949940379e-03
2.139698474170e-03
5.776025953178e-03
4.548865527347e-06
9.778909536361e-05
2.339238525722e-03
2.860933532174e-03
2.233233218599e-03
2.157897013088e-03
4.004695448910e-03
9.235095768594e-04
1.682665914814e-03
4.384602592843e-03
1.382892764948e-03
4.658101181556e-03
2.105930324669e-03
3.025966663440e-03
1.860371278765e-03
2.156903041045e-03
3.791766830717e-03
3.575521711054e-03
3.414449332742e-03
2.082739350568e-03
2.302944948856e-03
2.030320299130e-03
3.548903922870e-03
4.919586046203e-03
5.037796762255e-03
5.310613898604e-03
5.154282845663e-03
4.869442501820e-03
4.979196796726e-03
5.263482143390e-03
5.097588445123e-03
5.433286767238e-03
5.203085790594e-03
4.911819673152e-03
5.013424306316e-03
5.289013913456e-03
4.727439554445e-03
5.236156713520e-03
2.555895745055e-03
9.111497954273e-05
4.210174297477e-04
3.201712461661e-03
5.730004135783e-03
5.767445976811e-03
1.691075707631e-03
5.643473628579e-03
3.519780408461e-03
1.047073323882e-03
5.592957634279e-03
4.751520745493e-03
4.579435651060e-03
4.463201836768e-03
5.793236110746e-03
4.123046406902e-03
5.509305537426e-03
3.389446893060e-03
3.279327038173e-03
2.961278145953e-03
4.801619878836e-03
5.436694213567e-03
5.157649565966e-03
5.160321964187e-03
4.861485784401e-03
5.448713258893e-03
5.717599457513e-03
5.706213826985e-03
1.828494135708e-03
1.709398695910e-03
1.898258451700e-03
1.622333472901e-03
1.412743391040e-03
1.316736111381e-03
1.628168335130e-03
1.039665837843e-03
4.929832743955e-03
5.492129088288e-03
3.625564248662e-03
3.432597322909e-03
3.134856267973e-03
2.952066020253e-03
3.078747520708e-03
3.351373813983e-03
2.815770384213e-03
4.041389319165e-03
5.510043080626e-03
3.303884447530e-03
2.928688293770e-03
3.336341398281e-03
3.593836274312e-03
3.598511107039e-03
3.869249033601e-03
3.623805167776e-03
3.516608453604e-03
3.658527646077e-03
3.515347475486e-03
3.794985028764e-03
3.639781273070e-03
3.373627075467e-03
3.921733030934e-03
3.752559113767e-03
3.333440693931e-03
1.541531548536e-04
5.940250931269e-04
7.027142990941e-04
1.021409890230e-03
8.359819815989e-04
1.303920167999e-03
1.039423496534e-03
3.284076278483e-04
3.019271284436e-04
6.566057884129e-04
3.288717913001e-04
5.940028616348e-04
1.062033452019e-03
1.367334253023e-03
5.652286702244e-03
2.938936405259e-03
2.805289880450e-03
2.499233211098e-03
2.662705054473e-03
3.052456379495e-03
2.341669267002e-03
2.236323217213e-03
3.229285700949e-04
4.419598349488e-04
4.410447408450e-04
7.207625795544e-04
7.074768685298e-04
4.420400412776e-04
4.449633113940e-04
3.145644272533e-04
4.504548672275e-04
7.268015370500e-04
3.062409538729e-04
4.745527215494e-03
4.902505264739e-03
5.544916367284e-03
3.368924595429e-03
2.544811655954e-04
5.780998861492e-03
5.813842834379e-03
5.817013326087e-03
5.233971751005e-03
5.365637462079e-03
5.788240472877e-03
2.014050555547e-03
5.434538857935e-03
5.267458791713e-03
1.311421764019e-03
2.008026884127e-03
4.362324178154e-03
3.910057017267e-03
4.933262515921e-03
4.079022426720e-03
4.641099795521e-03
5.158355521769e-03
1.213464950072e-03
4.185417172818e-03
4.076798602367e-03
4.811798339392e-03
2.086149546152e-03
3.238993663622e-03
1.348867022610e-03
5.359250132040e-03
3.285416912687e-03
3.046769336548e-03
2.677719312106e-03
2.168475210699e-03
1.957305737071e-03
2.768223087164e-03
3.036664388310e-03
4.286179880856e-03
4.975421168353e-03
3.166773246265e-04
4.414552831620e-03
3.582806630633e-03
4.292263749295e-03
4.187531334711e-03
1.624964030413e-03
4.913094015127e-03
5.399859365631e-03
3.948537402346e-03
1.019982226970e-03
3.882948642930e-03
5.011342776407e-03
4.799927772923e-03
1.909455734444e-03
2.789026983488e-03
3.096861197051e-03
3.026441214717e-03
5.391810110936e-03
3.115333052868e-03
4.488935570888e-03
3.471918703045e-03
2.042934957486e-03
4.758450757248e-03
2.730164700611e-03
5.205251802628e-03
4.359423513210e-03
1.928746000249e-03
5.001431347950e-03
2.931441338209e-03
4.390043822392e-03
3.117148399214e-03
3.803735016467e-03
4.266483966727e-03
3.482072113493e-03
4.216350577803e-03
4.589726999369e-03
7.822158450212e-04
2.336975079915e-03
4.252864040516e-03
4.830810690924e-03
5.492998307562e-03
2.853919931406e-03
4.620197000946e-03
5.283300374483e-03
3.195345026289e-03
1.407849422888e-03
1.052568637253e-03
1.231938885888e-03
2.888387059379e-03
3.468984859371e-03
5.520066455693e-03
4.776767016044e-03
4.191097730844e-03
7.054263323161e-04
3.137270481220e-03
4.930209733183e-03
2.967745864271e-03
4.518076980286e-03
3.471719766141e-03
5.320909655121e-03
2.513659337608e-03
5.087932046227e-03
4.157539429139e-03
1.929448282595e-03
3.328255837959e-03
5.415880323612e-03
4.493880815661e-03
3.756679585458e-03
2.829619919497e-03
2.715238429679e-03
3.628276273171e-03
3.993174405771e-03
5.804322562982e-03
4.644362204700e-03
4.291233033703e-03
3.502523749532e-03
3.813462889229e-03
7.047390220056e-04
2.825859966298e-03
3.651715310585e-03
1.384942781952e-03
3.032571676708e-03
5.114951343620e-03
3.797843583975e-03
1.739058177563e-03
3.939088055833e-03
2.408697712716e-03
4.407302233334e-03
4.073717321279e-03
4.269608694399e-03
7.894202949830e-04
3.833002126981e-03
5.075427847675e-03
2.404246341971e-03
3.233663163957e-03
4.694223929722e-03
2.107126776239e-03
3.545482769992e-03
4.553232214609e-03
3.920507140127e-03
3.187539066147e-03
3.865534957540e-03
2.217505343363e-03
1.917452006600e-03
1.657786857477e-03
1.956380160446e-03
4.746672213180e-03
1.005389459169e-03
4.623386601130e-03
1.307883538802e-03
1.891532021104e-03
4.345633367675e-03
4.169109331877e-03
2.143128441899e-03
1.729669733719e-03
2.136474112095e-03
3.495395175694e-03
2.347008504077e-03
2.321698774103e-03
5.562109209316e-03
2.479278600157e-03
5.832033053261e-03
5.683459550606e-03
3.569571471478e-03
1.841669118824e-03
0.0
1.939425135395e-03
2.198379986357e-03
4.544915456455e-03
3.572687871250e-03
2.077081277084e-03
5.482725273702e-03
5.548817509373e-03
4.594253848124e-03
4.650854355195e-03
4.026711817750e-03
5.298348689818e-03
3.310673635212e-03
5.319704039765e-04
4.366888493405e-03
1.596020396402e-03
1.727925572495e-03
1.537504339033e-03
2.155926239816e-03
1.066640011348e-03
1.470469770676e-03
5.133441966827e-03
3.576035110635e-03
4.538549050418e-03
1.190734353883e-03
5.563426082931e-03
5.226029974004e-03
5.618784336637e-03
4.858869215134e-03
1.131768423013e-03
3.817527287724e-03
5.388671225134e-03
4.831755994392e-03
5.661150035348e-03
3.527768805689e-03
5.594510040717e-03
8.645247776374e-04
5.592056671628e-03
4.830647828208e-03
3.948871847594e-03
3.795468355754e-03
5.483498521481e-03
5.518494078473e-03
7.078378622743e-04
4.578727725803e-03
2.665021533502e-03
8.704557035290e-05
5.306855478618e-03
5.101857700586e-03
5.457161495010e-03
7.154962728763e-04
4.367291898862e-04
5.308036467257e-03
5.475077044311e-03
1.415797628064e-03
5.866481278788e-03
1.720779943565e-04
3.266292359391e-03
4.330017662913e-04
5.682371966829e-03
5.607182569852e-03
2.919687531898e-03
3.339776257796e-03
1.951427265437e-03
5.094079203513e-03
8.720869757284e-04
5.646101319162e-03
5.274827266557e-03
5.610655463052e-03
5.543108792546e-03
1.443335536966e-05
5.340000167234e-03
4.934198621273e-03
3.315096198721e-03
5.545224744200e-03
2.394333441960e-03
1.003430899199e-03
5.853061777030e-03
3.539454610573e-04
3.294611847679e-03
5.738597030996e-03
9.205396441291e-04
3.785517905279e-03
5.505285211453e-03
3.560630679607e-03
5.121626185149e-03
1.319457347623e-03
0.0
4.321439572445e-03
5.262500811899e-03
5.642111831980e-03
4.116674015646e-03
7.838175614556e-04
5.331973850864e-03
3.136604846599e-03
5.194131730829e-03
4.931303994474e-03
1.729497776411e-04
3.813324024854e-03
4.130724803800e-04
5.442551602023e-03
3.274124271133e-03
1.975955906095e-03
2.024811344556e-03
2.272195221506e-03
2.288799502470e-03
2.577527492663e-03
2.642045162662e-03
2.890176481776e-03
2.907269203429e-03

SCALARS node_materi_plasti_phimob float
LOOKUP_TABLE default
1.955700969590e+01
5.894785340555e+00
2.058850348513e+01
1.911086180440e+01
-2.781173563289e+01
-2.417520064022e+00
5.510503274111e+00
1.004882161573e+01
1.271942696571e+01
1.446307743405e+01
1.583603735373e+01
1.695547560330e+01
1.784369923223e+01
1.859854574706e+01
1.923252634569e+01
1.961785644278e+01
1.987588439577e+01
2.015672213124e+01
2.034191641240e+01
2.045790270959e+01
2.053764007377e+01
2.058568828573e+01
2.060002273174e+01
1.914304357829e+01
1.913645253361e+01
1.914764477944e+01
1.916088354012e+01
1.915527929633e+01
1.918554308042e+01
1.920331799350e+01
1.924611437706e+01
1.929699855673e+01
1.935326078838e+01
1.939270965782e+01
1.948539907686e+01
1.957193290666e+01
1.968655710176e+01
1.978174607515e+01
1.990845482295e+01
2.004399830495e+01
2.019415126253e+01
2.041651955995e+01
2.061854660643e+01
2.078991779035e+01
2.089962113711e+01
2.104127630993e+01
2.113403511500e+01
2.119592551211e+01
2.122790972270e+01
2.126072637013e+01
2.124475060634e+01
2.123210771746e+01
2.116595942123e+01
2.115408123444e+01
2.111902466370e+01
2.105449748054e+01
2.100215954620e+01
2.095337316597e+01
2.089597311440e+01
2.085969226173e+01
2.081751052051e+01
2.078612573704e+01
2.075848401363e+01
2.072088298176e+01
2.067927711455e+01
2.065434079158e+01
2.066972392608e+01
2.061687090490e+01
2.062072995164e+01
2.060528091189e+01
2.059772016025e+01
2.059836906292e+01
9.413716376735e+00
1.183818267343e+01
1.357478924780e+01
1.488752938111e+01
1.596662189949e+01
1.683791315748e+01
1.758424100904e+01
1.822279008799e+01
1.877907358022e+01
1.622286853907e+01
5.459145460629e+00
3.067084282692e+01
2.492632122132e+01
2.183479188578e+01
1.810104026049e+01
1.375753520727e+01
1.103159468881e+00
-1.355265524106e+01
-6.818252725740e+00
2.338106574129e-01
-3.823061549865e+01
-2.859918201556e+01
-1.071345044512e+01
-7.740241061958e-02
5.232180611239e+00
5.444160164149e+00
5.444720623988e+00
5.373928679670e+00
5.851161900998e+00
5.340835993062e+00
5.236530075249e+00
5.222682692588e+00
5.240885814595e+00
5.166929895181e+00
5.078260985502e+00
5.009790576754e+00
4.987837520583e+00
5.077885842582e+00
9.119081552947e+00
7.239385094981e+00
7.721846474448e+00
8.986360406885e+00
8.651197599767e+00
-6.410514065335e+00
-3.642614534858e+01
-2.407345323884e+00
-8.886446415028e+00
-5.983783104955e+01
-5.973328869442e+01
-5.809612220844e+01
-7.801411180854e+00
4.110653032328e+01
8.999999999681e+01
8.999999999681e+01
8.963075898928e+01
8.927026433977e+01
8.915190836102e+01
-3.867944920091e+01
-3.956872157680e+01
-3.976871246027e+01
-4.007329326906e+01
-4.057531699969e+01
-4.126796739740e+01
-4.214401515287e+01
-4.318705998722e+01
-4.440642928299e+01
-4.583338518644e+01
-4.741610432083e+01
-4.905413982363e+01
-5.056453942939e+01
-5.160034626240e+01
-5.214448527483e+01
-5.182208644924e+01
-5.095968947901e+01
-4.728380497961e+01
-4.029249926305e+01
-2.669377181246e+01
-2.590833160772e+01
-2.720083825996e+01
-3.154264487768e+01
-3.282411581987e+01
-3.317101655904e+01
-3.313675363082e+01
-3.278023287758e+01
-3.229174925054e+01
-3.176788463304e+01
-3.126310767570e+01
-3.080169406669e+01
-3.039216540526e+01
-3.004289152752e+01
-2.975480670003e+01
-2.952832845703e+01
-2.936781072890e+01
-2.927462847721e+01
-2.926871329945e+01
-2.938942993406e+01
-1.137777539254e+01
-1.155919499384e+01
-1.153822211994e+01
-1.150258697033e+01
-1.148777200458e+01
-1.146243335802e+01
-1.143192411190e+01
-1.142131331359e+01
-1.142142930232e+01
-1.137914496441e+01
-1.135481959698e+01
-1.136022059170e+01
-1.137154672987e+01
-1.140581259713e+01
-1.125006401630e+01
-9.928865708001e+00
-1.081181941397e+01
-1.150378271785e+00
-1.647456365866e-01
-6.369568614872e-01
-6.391462144600e-01
-5.876436843808e-01
-5.315918965394e-01
-5.169638560773e-01
-4.836364754567e-01
-4.257991343838e-01
-4.022710772829e-01
-3.837388534243e-01
-3.651993355742e-01
-3.382206974185e-01
-3.467858937157e-01
-2.021681287449e-01
1.001534884149e-01
3.286161923949e+01
2.735435199217e+01
2.297372178498e+01
1.983882970490e+01
1.749939798784e+01
1.317398243764e+01
-8.201273524149e+00
-8.935004131387e+00
-2.246532675824e+00
3.516364345499e+00
2.396893953318e+01
2.144266742154e+01
-3.900734779973e+01
1.191868191842e+01
2.109873157927e+01
1.841145088307e+01
1.896510318042e+01
2.155756458774e+01
1.134954954004e+01
2.126106442631e+01
4.461305525491e-01
2.079581937135e+01
-1.436664824151e+01
2.051339825167e+01
7.366812169146e+00
1.525126006260e+01
2.002952765032e+01
1.975985399487e+01
1.925530393644e+01
1.891478368488e+01
1.889228615080e+01
1.907042439948e+01
8.397614852827e+00
8.543231787226e+00
8.905446276112e+00
1.545527156441e+01
2.068072990497e+01
1.080361644521e+01
3.639190996307e+01
2.051062126541e+01
8.754761677348e+00
8.064192152253e+00
1.934786866797e+01
2.144740333804e+01
2.094087161720e+01
2.159537691215e+01
2.128968590390e+01
-7.811407614058e+00
8.323646441114e+00
2.099947049517e+01
1.721893919860e+01
-3.898108308588e+01
1.745198061464e+01
1.898126776313e+01
1.625713002874e+01
2.112969245073e+01
1.662345213346e-01
3.904114418076e+00
2.972763396115e+01
1.288733360225e+01
2.063420450539e+01
3.520235743803e+01
1.848128047249e+01
8.682565982697e+00
1.008794329180e+01
1.096100876193e+01
1.227078255817e+01
1.297180579107e+01
1.389593729737e+01
1.335698523940e+01
1.477166436593e+01
1.439017985598e+01
1.444663034169e+01
1.560709088821e+01
1.535404525508e+01
1.638764471765e+01
1.623784066975e+01
1.518512235997e+01
1.617004546449e+01
1.511458556975e+01
1.619374892381e+01
1.702975234704e+01
1.710878548571e+01
1.631632891873e+01
1.746488343756e+01
1.677957383254e+01
1.832602210573e+01
1.784625615778e+01
1.947536796080e+01
1.972102835779e+01
2.079102664644e+01
2.073349280306e+01
2.193605948845e+01
2.204011027612e+01
2.311110171504e+01
2.287017423441e+01
2.391934492950e+01
2.428303801693e+01
2.495731777559e+01
2.542516987911e+01
2.595545297890e+01
2.651840024330e+01
2.688620756348e+01
2.622990556455e+01
2.698659825839e+01
2.771424913123e+01
2.761094069354e+01
2.686517466195e+01
2.728794216007e+01
2.656666293409e+01
2.680415919304e+01
2.749912994479e+01
2.682230120041e+01
2.621776775511e+01
2.608148246023e+01
2.657282023898e+01
2.569507182865e+01
2.533212211725e+01
2.485974778008e+01
2.503785725598e+01
2.416012359397e+01
2.409925842626e+01
2.339947949393e+01
2.322878859945e+01
2.251814746297e+01
2.275811119108e+01
2.194684111300e+01
2.222209945331e+01
2.147022126770e+01
2.101956752726e+01
2.028504441849e+01
1.999919947176e+01
2.356630839307e+01
1.900952819196e+01
1.921176433227e+01
1.892664762305e+01
1.981461924242e+01
1.769518466360e+01
1.783433042250e+01
1.638522474041e+01
2.586459101904e+01
1.777149072361e+01
1.675381994205e+01
1.510519887517e+01
1.440298058095e+01
1.286188634482e+01
1.368169390927e+01
1.500852274717e+01
1.431192646448e+01
1.554635069138e+01
1.497024908703e+01
1.383763444504e+01
1.660853661713e+01
1.610541913905e+01
1.534552393208e+01
2.067147644963e+01
2.615663937283e+01
1.798820691977e+01
1.708911958258e+01
1.816851579138e+01
2.284596142334e+01
2.234513428339e+01
2.281535367656e+01
2.234996443660e+01
2.269324032920e+01
2.226428842361e+01
2.194961480801e+01
2.189162828281e+01
2.160981193231e+01
2.250104328704e+01
2.294518775559e+01
2.157225208778e+01
2.132507860570e+01
2.130241234447e+01
2.109063558305e+01
2.103360494733e+01
2.084461527355e+01
2.071017956410e+01
2.588565258386e+01
2.549163499388e+01
2.524415033785e+01
2.486651753035e+01
2.463337745194e+01
2.427338738010e+01
2.404476325866e+01
2.431857740591e+01
1.710826252001e+01
2.838997704348e+01
2.844055820079e+01
2.917976041341e+01
2.910719363909e+01
2.993017263562e+01
2.960541059195e+01
3.043258285958e+01
3.047070504346e+01
3.065801501598e+01
3.034422442101e+01
3.027521776292e+01
2.950241692092e+01
2.085345965435e+01
2.440725502356e+01
2.384753266668e+01
2.389586860883e+01
1.168285982094e+01
2.090250616808e+01
2.265551230129e+01
2.309961729016e+01
2.374368122993e+01
1.134600300251e+01
2.956253512740e+01
2.862839514465e+01
1.606124495082e+01
1.556004203871e+01
2.272274839638e+01
1.258083110875e+01
2.176585755120e+01
3.021441679328e+01
2.069802757001e+01
2.076009659420e+01
2.156650945700e+01
2.338368863150e+01
2.335469023247e+01
2.934389453579e+01
2.809459625384e+01
2.759628993282e+01
2.563404371953e+01
2.634022671894e+01
2.386941596947e+01
2.199244857128e+01
2.037366339777e+01
2.227133423905e+01
1.914357759775e+01
1.551533881227e+01
1.522606618386e+01
2.090512055628e+01
2.970807630334e+01
1.385990867762e+01
2.232340306861e+01
2.346642689670e+01
1.655037200085e+01
1.611285931916e+01
1.504729903048e+01
1.566990378716e+01
1.663273614272e+01
1.623608045478e+01
1.520905501713e+01
1.582033396063e+01
1.471282951664e+01
1.538082414699e+01
1.637273749345e+01
1.598147680667e+01
1.491516476719e+01
1.556197922564e+01
1.440197622238e+01
1.509522055046e+01
1.613788861468e+01
9.784977589512e+00
2.394764927686e+01
2.338969136907e+01
1.746360326173e+01
1.834463219069e+01
1.899432552889e+01
1.905169642053e+01
1.571133200899e+01
1.666030288758e+01
2.788632344574e+01
2.695765183959e+01
1.698412680524e+01
2.059639607987e+01
2.047479918004e+01
2.211198784874e+01
2.055693138042e+01
2.207783510697e+01
2.027807461586e+01
1.863673073130e+01
2.180026776185e+01
2.343729112271e+01
1.687751849396e+01
1.360783970671e+01
1.029194257329e+01
2.066819153429e+01
2.450342033292e+01
1.995550445974e+01
2.092172156506e+01
2.018126177053e+01
2.099360214179e+01
2.039811252495e+01
2.106731357872e+01
2.162428493758e+01
2.290886692599e+01
2.157507808533e+01
1.454831313452e+01
2.443411122371e+01
2.101457664924e+01
7.845798142969e+00
1.062928990732e+01
1.119921378057e+01
1.356573846584e+01
2.231486318418e+01
2.060410261600e+01
1.991284802306e+01
1.812228204730e+01
1.619611012443e+01
2.287825258175e+01
1.364119866896e+01
1.396798516197e+01
1.335285433703e+01
7.214848093786e+00
1.089789216373e+01
1.711004794832e+01
2.742295926489e+01
2.575593384485e+01
2.903406125794e+01
2.770887468233e+01
1.624568233008e+01
1.709726899118e+01
1.958181174226e+01
1.959646775244e+01
2.270340050822e+01
1.122049737467e+01
1.744376605708e+01
2.406471299878e+01
2.457501061468e+01
1.844943498282e+01
2.526468720302e+01
2.586744134768e+01
2.325574143859e+01
1.523457044252e+01
1.239883130034e+01
2.223749672906e+01
1.745460757483e+01
2.207243129566e+01
2.225862243365e+01
2.188628620640e+01
6.177926407609e+00
2.195508857175e+01
2.054374364880e+01
2.023984403225e+01
1.955262081953e+01
2.617834128541e+01
2.448286629385e+01
2.354901331643e+01
2.240859111904e+01
1.285201427195e+01
2.488470070581e+01
1.377776488910e+01
1.212932412315e+01
1.203154139958e+01
1.680516678441e+01
1.405489632176e+01
2.812643851899e+01
2.562022485663e+01
1.963033931236e+01
2.089127893541e+01
2.334752617620e+01
1.721305831940e+01
1.764859081332e+01
1.360137228766e+01
1.292196054278e+01
7.830647930518e+00
5.658708883870e+00
2.178109452578e+01
2.196304628182e+01
1.739591664824e+01
1.778234852425e+01
1.740850221943e+01
2.261085406240e+01
2.884666359326e+01
2.550961454696e+01
2.834487808307e+01
2.264446510782e+01
1.962888192740e+00
1.772770402621e+01
2.060010760009e+01
2.068508439497e+01
2.247712227728e+01
9.119834867364e+00
2.323645035852e+01
2.404225531428e+01
9.775106951439e+00
9.629630269849e+00
1.216945610836e+01
9.909178300574e+00
2.215938611472e+01
2.015717008914e+01
2.080802925437e+01
2.151986642965e+01
2.003942662626e+01
1.935771354104e+01
2.237573494932e+01
2.276031249445e+01
1.437017782774e+01
1.301323524862e+01
1.785504748392e+01
1.019346276803e+01
2.161964165176e+01
2.163941476633e+01
2.415132132221e+01
2.519575272873e+01
1.783070536280e+01
2.099808994360e+01
1.998088953012e+01
2.178611869463e+01
2.058874149444e+01
8.731828794162e+00
2.061284788554e+01
1.503537835541e+01
1.812522865919e+01
2.362257846574e+01
2.353088495822e+01
2.311555330965e+01
1.746628777210e+01
1.820613323496e+01
1.240877302910e+01
1.155156308126e+01
1.308090652441e+01
2.918860263319e+01
2.748043308434e+01
1.733421279137e+01
1.622826105978e+01
1.683097811618e+01
1.191697608228e+01
1.535532817257e+01
2.012376262985e+01
2.026025088479e+01
1.834631890529e+01
1.832151775008e+01
1.917774301500e+01
2.407151896163e+01
2.451433682904e+01
2.507936774560e+01
1.793953739382e+01
1.837464365939e+01
2.382313415440e+01
2.500512088262e+01
2.132830625842e+01
1.816932042182e+01
2.067931497312e+01
2.076056047757e+01
-1.924042392484e+00
3.023020622432e+00
2.304332915794e+01
2.465074290764e+01
1.815657116600e+01
1.783703145118e+01
1.852830391044e+01
1.321398656204e+01
2.262992428372e+01
2.209625754159e+01
2.249556182752e+01
2.169633077831e+01
2.246748036993e+01
2.211010975907e+01
2.168358297603e+01
1.999282673670e+01
1.799339320771e+01
1.180750032000e+01
1.547955273546e+01
1.091874354547e+01
1.215358253167e+01
9.692274181193e+00
1.086175323152e+01
1.092599784134e+01
1.211597646723e+01
-1.074290870725e+01
1.852196577446e+01
-8.305587779457e+00
-2.423041809096e+00
2.134561872467e+01
2.136562369494e+01
2.112491659471e+01
2.113975851312e+01
2.131761806415e+01
2.110033684465e+01
1.055391315083e+01
2.092862019691e+01
2.091355107290e+01
2.081859956939e+01
6.027154235361e+00
2.125833264594e+01
1.866603096138e+01
1.720328831432e+01
2.001644617632e+01
1.932446589940e+01
2.051203991515e+01
2.040637426820e+01
1.112726950923e+01
1.106432995859e+01
1.283056380800e+01
1.264640915665e+01
1.406470245378e+01
1.388009358238e+01
1.506717187068e+01
2.140788796288e+01
1.952817896348e+01
7.035770614221e+00
2.222075307580e+01
2.260162717813e+01
1.084168141900e+01
8.137045625417e+00
2.150294358326e+01
2.617402098342e+01
1.892168374006e+01
1.488970896953e+01
2.135942154338e+01
2.488357661381e+01
1.262652928456e+01
1.973179575115e+01
1.740023732391e+01
2.361258710101e+01
3.487327647264e-01
2.227847158343e+01
1.515911903240e+01
2.092055103103e+01
2.041760743866e+01
2.703503243350e+01
1.733362552268e+01
2.458534975882e+01
2.321894163777e+01
1.407552007164e+01
1.154511601425e+01
1.083789160053e+01
2.753508123528e+01
1.530523797248e+01
1.402712785024e+01
1.516557224924e+01
1.703297618582e+01
1.750969909695e+01
1.823545812098e+01
1.796924042051e+01
1.719530806836e+01
1.770634783430e+01
1.841334437422e+01
1.820803303285e+01
1.894113470490e+01
1.867640569626e+01
1.801655942021e+01
1.850189932482e+01
1.904337345795e+01
1.785468244921e+01
2.184581216943e+01
2.462755400859e+01
2.503739493122e+01
2.603378542851e+01
1.597941297333e+01
1.956712437090e+01
1.931621761585e+01
2.854672604132e+01
2.071388155438e+01
1.242380922674e+01
3.008951134354e+01
2.110421761628e+01
1.665389061539e+01
1.627752054460e+01
1.564779241985e+01
1.918007881469e+01
1.375804704807e+01
2.148261039724e+01
2.499606728946e+01
2.499717031319e+01
2.559768443460e+01
1.746543616356e+01
2.150596214568e+01
2.202511572890e+01
2.195106879932e+01
2.255409835642e+01
2.138358252803e+01
2.005499174549e+01
2.031700898551e+01
2.466113459500e+01
2.638604593969e+01
2.625394620072e+01
2.749114793452e+01
2.789342701045e+01
2.872252161121e+01
2.807397420531e+01
2.981438064881e+01
1.882975108500e+01
2.122738284573e+01
2.318063402732e+01
2.372202769295e+01
2.394750423833e+01
1.970045809567e+01
2.044119584275e+01
2.086268069368e+01
1.894168608697e+01
2.168569232489e+01
2.115370372067e+01
2.506247923652e+01
2.068572312342e+01
8.341868440223e+00
1.064513559217e+01
1.073553002525e+01
1.255402945101e+01
1.082935875585e+01
2.004217310999e+01
2.000089151892e+01
1.963107306404e+01
1.998458892597e+01
1.966712172851e+01
1.926308471703e+01
1.997946229714e+01
1.971761711621e+01
8.391792281020e+00
1.025925974803e+01
1.249325922652e+01
1.588076288821e+00
1.260707579130e+01
1.995970517479e+01
1.903452904846e+01
2.368730414469e+01
1.975055801945e+01
-2.487760643677e+01
-6.009038313103e+00
-9.854101964722e+00
-1.089446165212e+01
3.740203125226e+00
8.844192016168e+00
2.066203001202e+01
1.826045776641e+01
1.796609756603e+01
1.705536916608e+01
1.764498403977e+01
1.861275746920e+01
1.646997695496e+01
1.608316400910e+01
3.618621407434e+01
-8.591218099982e+00
-1.033754009780e+01
2.499157852967e+00
2.129726544927e+00
-8.678320456308e+00
-9.130923823497e+00
3.618398633343e+01
-1.001121125684e+01
1.570131584614e+00
1.077633573167e+01
1.642846205921e+01
1.689284923812e+01
2.104512929500e+01
8.840928159859e+00
-3.911597971004e+01
1.881603042956e+01
1.892259143584e+01
1.892120431868e+01
2.056638205463e+01
2.059188160808e+01
1.883567579604e+01
1.598299922810e+01
1.861590251379e+01
1.774936215292e+01
2.861089599084e+01
1.786737169516e+01
2.041826285254e+01
2.127237639642e+01
2.078184917753e+01
2.057530627756e+01
2.107993756625e+01
2.191394655969e+01
9.670941941983e+00
1.417624151885e+01
1.381134967427e+01
1.652077177930e+01
1.571379039702e+01
1.916388831705e+01
9.818265350943e+00
2.080349234362e+01
1.386352230488e+01
2.342888398367e+01
1.890968290127e+01
1.760458341778e+01
1.832762962365e+01
2.334866077368e+01
2.149568839983e+01
2.210897207507e+01
1.700921886431e+01
-3.448625263775e+01
2.225379713244e+01
2.192127633010e+01
1.452741211881e+01
2.370152564922e+01
1.665870145286e+01
1.674818917791e+01
1.811929106768e+01
1.289859115716e+01
5.238022920953e+00
1.265306813490e+01
2.185610454455e+01
1.655056925138e+01
1.463905316427e+01
2.614026650417e+01
1.922286382165e+01
5.675431169814e+00
1.803013118196e+01
2.448769776671e+01
2.317339519290e+01
2.490493220135e+01
1.532491042102e+01
2.158607085445e+01
2.628594597063e+01
1.754288927317e+01
1.955926176023e+01
2.804759370171e+01
1.701467833939e+01
2.461199685744e+01
2.330479409254e+01
1.412183740408e+01
1.876971036903e+01
1.702999381712e+01
2.183623559912e+01
2.023045380097e+01
2.189849536138e+01
2.908922630241e+01
2.353249748728e+01
1.437421297946e+01
2.114988228797e+01
1.822593263134e+01
1.896614791702e+01
2.146954995328e+01
1.778861508617e+01
2.114061670497e+01
1.164769000671e+01
2.689742007609e+01
2.967529345445e+01
2.538681230534e+01
2.142049713222e+01
1.861525166360e+01
2.121916190645e+01
2.315421017201e+01
2.616990490419e+01
8.024927433096e+00
2.101750631036e+01
2.563235622572e+01
2.314184148096e+01
1.932460355573e+01
2.108331734107e+01
6.361027233333e+00
2.087456811706e+01
2.354643578448e+01
2.739146611356e+01
8.797166423644e+00
2.078706521926e+01
2.300134370555e+01
2.175259606820e+01
2.558145990359e+01
2.011149222610e+00
2.112653438277e+01
1.805877662168e+01
1.912736983636e+01
2.281897513639e+01
1.518878685974e+01
2.064270694191e+01
2.383184249097e+01
1.775388607964e+00
6.280094810480e+00
2.047909554544e+01
2.899503544282e+01
2.493526662854e+01
2.206127833878e+01
2.036412348109e+01
2.822807872109e+01
2.028753465198e+01
-5.691104853497e-01
1.592112912606e+01
2.023321042683e+01
1.859091526319e+01
1.500219379937e+00
2.244194958766e+01
2.056445594822e+01
2.071702399485e+01
2.431070495094e+01
1.689014984679e+01
3.760134708791e+00
2.396308107489e+01
1.908993215709e+01
2.292885090096e+01
2.484065839987e+01
2.357895154071e+01
1.126668116478e+01
1.560904391143e+01
1.276243555590e+01
2.744146658846e+01
1.885476022489e+01
7.449327304962e+00
1.725978151210e+01
7.336226591456e+00
2.704622848101e+01
2.282888550426e+01
1.433681601936e+01
2.601236790677e+01
1.374139674606e+01
2.510743977182e+01
2.432162532724e+01
2.409453553735e+01
2.284863359886e+01
1.838801759690e+01
2.206977973050e+01
1.890634584812e+01
2.061295230339e+01
1.087025031525e+01
1.462645583321e+01
1.025231864491e+01
1.644926997381e+01
1.957976091912e+01
1.775346905741e+01
1.094613843662e+01
1.764228750347e+01
1.928919852653e+01
2.136180046057e+01
1.596407511338e+01
2.289082044089e+01
2.322270163399e+01
1.786650300012e+01
8.475620558967e+00
-1.262703511473e+01
2.027132017863e+01
1.795054021452e+01
1.862390341198e+01
2.009060117387e+01
1.584656935055e+01
6.357143203692e+00
1.993265920770e+01
2.206900313115e+01
1.062818758852e+01
2.233782201187e+01
2.212673999816e+01
1.846404705364e+01
2.176102686284e+01
2.087553217696e+01
2.206137353650e+01
2.272627578908e+01
1.220175793461e+01
2.051417868768e+01
1.665501308645e+01
2.074518884909e+01
1.022221769082e+01
1.847533650467e+01
2.714110100726e+01
1.848982808362e+01
1.837904891507e+01
1.318952538554e+01
1.223926933719e+01
2.061889535793e+01
1.896165103592e+01
2.561335157314e+01
1.588469108616e+01
1.780493273237e+01
1.888060710966e+01
2.130723080095e+01
1.890416573140e+01
2.071938218365e+01
2.527896582243e+00
-1.441495280224e+01
2.148470259885e+01
1.980513587730e+01
2.424584303086e+01
1.907679725396e+01
2.521622092489e+01
8.019485408078e+00
-1.238573080396e+01
2.069527231866e+01
1.849252964403e+01
1.833009259737e+01
8.556918138461e+00
1.486819285806e+01
2.122721469909e+01
-8.999740413107e-01
1.855206612646e+01
2.167600758430e+01
1.873508373295e+01
2.144616861697e+01
1.676063492922e+01
2.155755205105e+01
2.236022986239e+01
8.513981096399e+00
1.880316193231e+01
1.674858081297e+01
6.315953254315e+00
1.896284798283e+01
1.661977009622e+01
8.452290677160e+00
2.060240564240e+01
6.203149169513e+00
1.237717950004e+01
1.957725362445e+01
1.943223234197e+01
1.747587501929e+01
1.260803375007e+01
1.040692888487e+01
1.498326101120e+01
2.182767495283e+01
1.866803093735e+01
1.404102943995e+01
2.594466632675e+01
1.931123508907e+01
1.878321946416e+01
2.049157102918e+01
2.244958141232e+01
2.498212949111e+01
1.977136955372e+01
-1.440888433394e+01
2.098855223845e+01
1.901764084691e+01
-2.813134045641e+01
-3.700244249624e+01
-1.372008806265e+01
-1.959722508620e+01
-4.120605169424e+00
-3.753713474602e+00
2.630165319111e+00
3.281735171278e+00

SCALARS node_materi_stress_average_a_sig float
LOOKUP_TABLE default
-3.541126784787e+00
-5.361280985172e+01
-2.410829684409e+02
-1.668454601827e+02
-1.041151085408e+01
-2.246327540001e+01
-3.437014256381e+01
-4.767891271917e+01
-6.045442871715e+01
-7.308581761137e+01
-8.559732090491e+01
-9.802627101148e+01
-1.104221913630e+02
-1.228673172711e+02
-1.355849670094e+02
-1.480400731051e+02
-1.593657939622e+02
-1.717461798650e+02
-1.844759503557e+02
-1.968391200993e+02
-2.092871688879e+02
-2.218364277801e+02
-2.338599974299e+02
-1.675097337117e+02
-1.668489827805e+02
-1.670850188792e+02
-1.671656935247e+02
-1.670054420748e+02
-1.676141676758e+02
-1.682319039515e+02
-1.683669191934e+02
-1.694322300317e+02
-1.699945015724e+02
-1.705240365740e+02
-1.718422816683e+02
-1.735726240797e+02
-1.746401692453e+02
-1.763250318407e+02
-1.777577580241e+02
-1.800615405851e+02
-1.834220627206e+02
-1.865618074810e+02
-1.899620192293e+02
-1.933468611994e+02
-1.970596809431e+02
-2.008295673857e+02
-2.047368217409e+02
-2.088405690811e+02
-2.129325450046e+02
-2.167532105812e+02
-2.204299411093e+02
-2.236654548532e+02
-2.272500898526e+02
-2.298926712147e+02
-2.318266839454e+02
-2.341760607054e+02
-2.361543028328e+02
-2.378028076225e+02
-2.391282250095e+02
-2.400833006798e+02
-2.406774738886e+02
-2.409868029145e+02
-2.410588186212e+02
-2.414708135540e+02
-2.421223276018e+02
-2.423151770764e+02
-2.406025346195e+02
-2.419015006652e+02
-2.412512133632e+02
-2.415112460956e+02
-2.418556013788e+02
-2.417360944645e+02
-6.590218169091e+01
-7.791163954869e+01
-8.985438658168e+01
-1.014796908315e+02
-1.133158318021e+02
-1.252594222243e+02
-1.368852436170e+02
-1.483379149157e+02
-1.602529425702e+02
-5.663675522700e+01
-5.895492846916e+01
-3.131089503840e+01
-2.834645375465e+01
-2.659461081356e+01
-2.406355572049e+01
-2.310215356084e+01
-2.189795386170e+01
-2.214897290569e+01
-3.411238038296e+01
-4.633752285975e+01
-9.975125937192e+00
-1.723482411816e+01
-2.923593747940e+01
-4.124234834155e+01
-5.210875580116e+01
-5.291220390139e+01
-5.295199929604e+01
-5.290312544001e+01
-5.467984813010e+01
-5.332080123920e+01
-5.343825250870e+01
-5.371458754605e+01
-5.421649870597e+01
-5.449735156590e+01
-5.491874635586e+01
-5.537905231290e+01
-5.613596337841e+01
-5.714397564244e+01
-7.824447317037e+01
-8.825662045510e+01
-8.987016225028e+01
-8.142801822827e+01
-5.096760347101e+01
-2.163001912233e+01
-1.119485006870e+01
-7.874121867545e+00
-6.237486773080e+00
-5.594385585270e+00
-5.196760777412e+00
-5.034019043921e+00
-4.621195289874e+00
-3.996967375668e+00
-3.786499528506e+00
-3.654102544889e+00
-3.475480516742e+00
-3.169289399704e+00
-2.875828510046e+00
-1.091854772272e+01
-1.090761158876e+01
-1.084486079830e+01
-1.078889870115e+01
-1.069560095062e+01
-1.056788794723e+01
-1.040804569590e+01
-1.021862929477e+01
-1.000136410475e+01
-9.752358298020e+00
-9.479371821366e+00
-9.192779479961e+00
-8.900840618890e+00
-8.636005947523e+00
-8.412173783898e+00
-8.355864247654e+00
-8.529439333683e+00
-9.323538966332e+00
-1.054539790514e+01
-1.072872300716e+01
-1.758823742060e+01
-1.886369969951e+01
-1.704317764188e+01
-1.645393841669e+01
-1.623677559952e+01
-1.613549916915e+01
-1.616063822675e+01
-1.623263030638e+01
-1.633200953317e+01
-1.644669460851e+01
-1.656429086699e+01
-1.667171405000e+01
-1.677038429038e+01
-1.685268301887e+01
-1.692095260121e+01
-1.697034585649e+01
-1.700814473464e+01
-1.704444631209e+01
-1.719082385280e+01
-2.922262065195e+01
-2.917411205983e+01
-2.916242691130e+01
-2.916595653602e+01
-2.917142322406e+01
-2.917268291745e+01
-2.918687131474e+01
-2.919272507450e+01
-2.921400792858e+01
-2.927293644279e+01
-2.937071009796e+01
-2.952356238049e+01
-2.975610791050e+01
-3.008688877594e+01
-3.071423441885e+01
-3.240635272630e+01
-3.101225650892e+01
-4.372638455042e+01
-4.505707189661e+01
-4.354949964896e+01
-4.299136757532e+01
-4.257860849616e+01
-4.226604349660e+01
-4.198628706709e+01
-4.179145015183e+01
-4.172349365688e+01
-4.157825589486e+01
-4.148374274492e+01
-4.142290513510e+01
-4.136890439428e+01
-4.130077369454e+01
-4.135205762475e+01
-4.135004920405e+01
-3.720125597312e+01
-2.969205770357e+01
-2.720474602715e+01
-2.586551540929e+01
-2.416624961983e+01
-2.406429369336e+01
-1.936265530296e+01
-2.952757205321e+01
-4.172380331422e+01
-5.383070688569e+01
-3.396389628091e+01
-2.290843653071e+02
-1.199517600094e+01
-6.371263172129e+01
-2.349464282714e+02
-3.019575084575e+01
-1.297163935037e+02
-2.187650121056e+02
-3.017584642894e+01
-2.055964661240e+02
-4.312806930109e+01
-2.370009301572e+02
-8.786095632732e+00
-1.906067998180e+02
-6.563012485278e+01
-7.997043069076e+01
-1.636085334678e+02
-1.805702981517e+02
-1.713838847245e+02
-1.630900722679e+02
-1.635827586102e+02
-1.673805002546e+02
-6.861823483096e+01
-6.579738366093e+01
-6.565674006444e+01
-1.075055372269e+02
-2.362534307550e+02
-7.635578857187e+01
-8.608636920536e+00
-2.026277225113e+02
-6.362863539415e+01
-4.096871150098e+01
-1.733876087010e+02
-2.133347230469e+02
-1.979422099585e+02
-2.233493867493e+02
-2.326696611490e+02
-2.344364220584e+01
-6.650343875522e+01
-2.338821160827e+02
-1.307547377106e+02
-1.035755208949e+01
-1.043111352471e+02
-1.643116487349e+02
-3.051015258658e+01
-3.164942003775e+01
-3.382410525955e+01
-5.407560289784e+01
-3.914244623153e+01
-8.489838647118e+01
-2.381587265380e+02
-7.929606471056e+00
-1.535898183916e+02
-7.109810262597e+01
-7.760268846056e+01
-8.242372101536e+01
-9.019349455045e+01
-9.551123607318e+01
-1.025233707994e+02
-9.750710342337e+01
-1.098190092327e+02
-1.049298731494e+02
-1.079312873647e+02
-1.172351533347e+02
-1.125423131968e+02
-1.247915754989e+02
-1.203124701951e+02
-1.080585021776e+02
-1.160196516363e+02
-1.037374325232e+02
-1.119198964244e+02
-1.240643401813e+02
-1.201424852405e+02
-1.080023390467e+02
-1.163636144660e+02
-1.043340173637e+02
-1.128111803171e+02
-1.009141176703e+02
-1.094581731263e+02
-1.211711609367e+02
-1.178011106106e+02
-1.062918892823e+02
-1.145781637970e+02
-1.033200723402e+02
-1.114845759833e+02
-1.226448702980e+02
-1.194048248811e+02
-1.084801919691e+02
-1.162212436073e+02
-1.055613587976e+02
-1.130916418576e+02
-1.027107676500e+02
-1.099432377735e+02
-1.203228213583e+02
-1.168835409002e+02
-1.067727067177e+02
-1.133209478173e+02
-1.235551992957e+02
-1.195888711099e+02
-1.299911663207e+02
-1.256377697371e+02
-1.154661034173e+02
-1.210889347991e+02
-1.315106298158e+02
-1.265644870030e+02
-1.162884163490e+02
-1.213966882602e+02
-1.319796175474e+02
-1.264938509278e+02
-1.159459167129e+02
-1.207604817630e+02
-1.316660593794e+02
-1.256533775531e+02
-1.147296228316e+02
-1.194154531276e+02
-1.306723025092e+02
-1.242307686787e+02
-1.357650964482e+02
-1.128539218701e+02
-1.175668243841e+02
-1.060174614845e+02
-1.107275400667e+02
-1.305063535462e+02
-9.900547654616e+01
-9.461651357849e+01
-1.037475134353e+02
-1.156645098110e+02
-9.183599805403e+01
-9.664391377038e+01
-8.455324685788e+01
-9.495256455211e+01
-1.321727123904e+02
-8.944962895107e+01
-7.718775456014e+01
-7.236554747163e+01
-6.484731735649e+01
-1.011409015451e+02
-1.132163565068e+02
-1.061502819216e+02
-1.185116205044e+02
-1.118781969808e+02
-6.977983726906e+01
-1.295080573529e+02
-1.252947042027e+02
-9.574881694968e+01
-9.487110422257e+01
-1.341913336765e+02
-1.016122103227e+02
-9.450396803223e+01
-1.067089485214e+02
-1.421598086838e+02
-1.474513961572e+02
-1.538354608920e+02
-1.592786803974e+02
-1.656828951018e+02
-1.712456203839e+02
-1.647107609554e+02
-1.767759570771e+02
-1.701356251263e+02
-1.776896123513e+02
-1.719466380066e+02
-1.822753118417e+02
-1.755493409850e+02
-1.877483430297e+02
-1.809509961601e+02
-1.687498430640e+02
-1.740896488477e+02
-1.619348466235e+02
-1.407804077324e+02
-1.451847227048e+02
-1.519148078138e+02
-1.565066796026e+02
-1.633714214078e+02
-1.681196265274e+02
-1.751035518988e+02
-1.700837168481e+02
-1.324515283393e+02
-1.035187507398e+02
-9.708910500852e+01
-9.422321257951e+01
-8.793002311683e+01
-8.552489829822e+01
-7.937440616057e+01
-7.756985403352e+01
-8.296733043709e+01
-7.593408934896e+01
-8.011810211793e+01
-7.392859733183e+01
-7.673316393906e+01
-1.293950593387e+02
-1.609743422236e+02
-1.727598387641e+02
-1.652981499437e+02
-6.003646914784e+01
-1.863482489976e+02
-1.840281016710e+02
-1.780607601267e+02
-1.819622550430e+02
-5.742623521216e+01
-7.170464010419e+01
-7.261221828795e+01
-1.238913148708e+02
-1.174145367544e+02
-1.902844578878e+02
-6.245144694021e+01
-1.889484585112e+02
-7.053939554944e+01
-1.794452892721e+02
-1.917275713786e+02
-1.581047816334e+02
-1.772986118969e+02
-1.695280692874e+02
-8.409346324488e+01
-7.959288857929e+01
-7.255874009128e+01
-7.466859682008e+01
-8.276414425998e+01
-7.681951979083e+01
-6.838382264334e+01
-7.002002508103e+01
-7.966617587686e+01
-7.260630416019e+01
-6.240764237115e+01
-6.493304526499e+01
-1.986060641676e+02
-6.904734612470e+01
-9.562280967057e+01
-1.962660450358e+02
-1.869916384936e+02
-1.293469442649e+02
-1.230392587526e+02
-1.110113632293e+02
-1.168501308991e+02
-1.287602247412e+02
-1.227104767915e+02
-1.107475347944e+02
-1.167306819180e+02
-1.047318334911e+02
-1.108317737518e+02
-1.227454102590e+02
-1.169731912291e+02
-1.050258813193e+02
-1.112502528483e+02
-9.926497132796e+01
-1.055454534858e+02
-1.175103826134e+02
-5.038361457119e+01
-1.766797551770e+02
-1.887905051857e+02
-9.998888107682e+01
-1.117258953692e+02
-1.188354776551e+02
-1.241730800645e+02
-1.118156025877e+02
-1.237545338729e+02
-6.508066990796e+01
-6.525556310900e+01
-1.357642063481e+02
-1.848371906234e+02
-1.725653654714e+02
-9.221248483573e+01
-8.353920032532e+01
-8.124092655380e+01
-7.215195006801e+01
-7.444098713631e+01
-7.023596708743e+01
-1.660296735563e+02
-1.288262070241e+02
-6.776916997135e+01
-5.552506433530e+01
-1.971169121443e+02
-1.648939215514e+02
-1.329220740250e+02
-1.410946444958e+02
-1.447652299629e+02
-1.529303658628e+02
-1.566761150737e+02
-1.648172503925e+02
-1.610404745429e+02
-1.817098025301e+02
-1.729484196646e+02
-9.974432794339e+01
-1.535387492480e+02
-8.308386247012e+01
-4.505933742551e+01
-5.338185435892e+01
-5.499042114601e+01
-6.757037057675e+01
-2.026583313101e+02
-1.685687908088e+02
-1.603252808721e+02
-6.281117329553e+01
-6.501772009439e+01
-1.895156585810e+02
-9.967624626053e+01
-9.869636810053e+01
-9.258331943466e+01
-4.143244104227e+01
-5.148612103710e+01
-1.345496132465e+02
-7.375864982272e+01
-6.593143952297e+01
-6.632150591198e+01
-6.651677380201e+01
-1.180108208562e+02
-1.298484401568e+02
-1.310598862690e+02
-1.363415343756e+02
-1.964744250659e+02
-5.679765558791e+01
-1.356306782933e+02
-1.712360398275e+02
-1.595533199071e+02
-1.170663656893e+02
-5.765076939300e+01
-5.868485678815e+01
-8.974502767472e+01
-6.839461469416e+01
-6.021657705388e+01
-2.089221388407e+02
-1.404872017042e+02
-1.691295996778e+02
-1.571714955561e+02
-1.812710202148e+02
-4.478759793803e+01
-2.088299013286e+02
-1.902484002270e+02
-1.716959943606e+02
-1.640117707673e+02
-7.504739956934e+01
-6.701263070821e+01
-5.770433882314e+01
-5.845374187884e+01
-9.243968833752e+01
-7.670784221194e+01
-9.120059338219e+01
-8.290905179569e+01
-7.848915150832e+01
-7.696866422153e+01
-6.759604499240e+01
-9.021354482044e+01
-1.382360529579e+02
-1.258432379557e+02
-1.566692151386e+02
-1.483617546715e+02
-1.344767772613e+02
-1.405669246867e+02
-9.298292715270e+01
-8.721498137985e+01
-4.754408041972e+01
-4.301283428477e+01
-1.409375479846e+02
-2.021114184051e+02
-1.409537322441e+02
-1.473223815223e+02
-1.422298865132e+02
-2.024210821455e+02
-1.001350503450e+02
-1.471823728867e+02
-6.688125929787e+01
-1.339653048605e+02
-3.494272710237e+01
-1.360640942003e+02
-2.025927162896e+02
-2.093654160690e+02
-1.939169715735e+02
-7.254598705454e+01
-1.417945284755e+02
-1.381905382115e+02
-7.005457131606e+01
-6.551642956139e+01
-7.438329891867e+01
-6.152842701042e+01
-9.359017131719e+01
-8.677843336494e+01
-1.813195251073e+02
-1.848191889899e+02
-1.754923128527e+02
-1.680817481858e+02
-2.018691714301e+02
-1.970185056266e+02
-7.237986843104e+01
-5.533012048524e+01
-1.462357424303e+02
-7.478957426934e+01
-2.144405676433e+02
-2.078924635041e+02
-6.713207436288e+01
-6.253907562377e+01
-1.418228404401e+02
-4.905024170954e+01
-4.920997397926e+01
-4.899238356919e+01
-2.276589973782e+02
-6.324735015647e+01
-2.149545278868e+02
-7.995878782896e+01
-1.476535336457e+02
-1.495880570184e+02
-8.955383778973e+01
-1.900896308440e+02
-1.354361447144e+02
-1.482402300314e+02
-8.648809289842e+01
-8.002549029767e+01
-9.231758187736e+01
-6.574971839771e+01
-6.093985831996e+01
-1.348710151309e+02
-8.733375959017e+01
-9.371713911958e+01
-6.013740252698e+01
-7.185350235529e+01
-1.379218850472e+02
-1.327320476807e+02
-1.441428444294e+02
-1.480144246735e+02
-1.365492557165e+02
-1.656766509926e+02
-1.540874440746e+02
-1.482274703193e+02
-1.458241944097e+02
-1.532409793023e+02
-9.991923487657e+01
-9.584045929530e+01
-9.754505653960e+01
-1.521070358848e+02
-2.215011937565e+02
-2.160734572157e+02
-3.034696266609e+01
-3.853566103017e+01
-5.041029375849e+01
-5.221992853242e+01
-1.534517918173e+02
-1.490010344303e+02
-1.595574146836e+02
-6.431779640666e+01
-1.651928709577e+02
-2.144359868529e+02
-2.076865340823e+02
-2.225208606212e+02
-1.858159363562e+02
-1.978468350924e+02
-1.932991147137e+02
-7.067396280636e+01
-1.440371995630e+02
-8.027229396172e+01
-7.301545153439e+01
-7.459988028130e+01
-8.136721285421e+01
-6.820859262901e+01
-5.200179982775e+01
-7.812891344071e+01
-8.626890101106e+01
-2.371100296440e+01
-1.574075362010e+02
-2.283023268560e+01
-2.747345833323e+01
-2.202951601614e+02
-2.134821854332e+02
-2.255143617630e+02
-2.186145092855e+02
-2.066839697875e+02
-2.123786183561e+02
-7.363554168059e+01
-2.260291768202e+02
-2.181932060977e+02
-2.317415715661e+02
-5.234698787101e+01
-5.934644199072e+01
-4.985357956653e+01
-3.889486731106e+01
-1.810323871228e+02
-1.710845934948e+02
-1.960674009535e+02
-1.836529618295e+02
-7.490415519387e+01
-7.413133631615e+01
-8.508150901766e+01
-8.348599285007e+01
-9.444212660594e+01
-9.273291217892e+01
-1.038783830700e+02
-1.968577208649e+02
-4.019625994773e+01
-6.189219829317e+01
-2.094120357787e+02
-2.034604491832e+02
-5.785089008418e+01
-4.497388226652e+01
-2.228083833711e+02
-8.467699410293e+01
-1.647388418380e+02
-6.272717190429e+01
-6.258548547617e+01
-8.687949126633e+01
-7.076324254075e+01
-6.071994265654e+01
-5.167784512098e+01
-1.776714962971e+02
-3.488708968474e+01
-4.951470842676e+01
-1.054104046937e+02
-4.177558130921e+01
-1.901580667538e+02
-9.253996795549e+01
-8.895768672118e+01
-5.738675446099e+01
-6.856258805261e+01
-1.001733847211e+02
-8.495491399965e+01
-7.988615800062e+01
-9.988292650348e+01
-5.312046091553e+01
-4.031866984954e+01
-9.958880824878e+01
-1.372183565794e+02
-1.440076702085e+02
-1.553296741818e+02
-1.510051650941e+02
-1.392960248421e+02
-1.464584610758e+02
-1.579522855865e+02
-1.541710055495e+02
-1.675738615053e+02
-1.615861325900e+02
-1.493439598969e+02
-1.565928630214e+02
-1.680131874629e+02
-1.446361730449e+02
-2.142460923371e+02
-9.759707452119e+01
-6.593959159421e+01
-5.559440393473e+01
-9.219868235033e+01
-1.774446711509e+02
-1.729415777039e+02
-8.110818724470e+01
-1.940888978613e+02
-8.761269934074e+01
-7.110359762912e+01
-2.017764087130e+02
-1.322232736828e+02
-1.271587857838e+02
-1.201056166681e+02
-1.701917536691e+02
-9.869625489539e+01
-2.163891276578e+02
-1.494508410346e+02
-1.421155449881e+02
-1.310306481382e+02
-1.417872748795e+02
-2.269314336350e+02
-2.174878014911e+02
-2.193095161577e+02
-2.070899095098e+02
-2.308571698294e+02
-1.842994632301e+02
-1.877661500687e+02
-8.611599842196e+01
-9.190566607258e+01
-1.014197683186e+02
-9.705197157360e+01
-8.801178285448e+01
-9.256941308375e+01
-1.016117029269e+02
-8.788241700718e+01
-1.598574412894e+02
-2.338320250439e+02
-1.600472996748e+02
-1.542884807734e+02
-1.428479344056e+02
-1.207285933036e+02
-1.275921824352e+02
-1.395179687539e+02
-1.137527904014e+02
-1.491688538644e+02
-2.346332606971e+02
-1.534288104926e+02
-1.225071305961e+02
-6.752237958375e+01
-7.918241227425e+01
-8.059038382436e+01
-9.205722922131e+01
-7.936798011672e+01
-1.431573523366e+02
-1.484241617821e+02
-1.416769583398e+02
-1.537214236871e+02
-1.467220384638e+02
-1.355502700564e+02
-1.588253568657e+02
-1.509998750537e+02
-6.606108342067e+01
-3.961696055300e+01
-4.209930148227e+01
-3.300539913288e+01
-4.736874815342e+01
-5.454655358469e+01
-5.937214197530e+01
-6.276661168768e+01
-5.460717719304e+01
-1.727839375142e+01
-2.804774865293e+01
-1.371179542166e+01
-2.464419635287e+01
-3.944994821947e+01
-5.149169207905e+01
-2.345948087821e+02
-1.165625941473e+02
-1.106201963025e+02
-9.875216459876e+01
-1.052740189749e+02
-1.214222652017e+02
-9.210860105028e+01
-8.773872146790e+01
-8.439761440464e+00
-1.843150800202e+01
-1.735683156603e+01
-2.914581575484e+01
-2.913122872700e+01
-1.881399878873e+01
-1.901067593242e+01
-8.699188292108e+00
-1.918734386908e+01
-3.013999734733e+01
-8.627801664199e+00
-1.194225299396e+02
-1.258212974985e+02
-2.350564497717e+02
-6.645752240298e+01
-1.126379483639e+01
-1.609799394776e+02
-1.639997920388e+02
-1.637433723673e+02
-2.152532109685e+02
-2.214425578226e+02
-1.609172756712e+02
-7.982248068685e+01
-1.623891084112e+02
-1.409917474207e+02
-6.542591685035e+01
-7.957152092516e+01
-1.779922225867e+02
-1.634363863854e+02
-2.039316269346e+02
-1.672398761193e+02
-1.931988750912e+02
-2.201672607031e+02
-4.801314272287e+01
-9.877047345484e+01
-9.354405312342e+01
-1.231421361361e+02
-8.214318170367e+01
-1.299488468647e+02
-5.237728750419e+01
-1.903880846886e+02
-8.708260423867e+01
-1.368873019018e+02
-1.086928235498e+02
-8.728191900356e+01
-7.592299307115e+01
-1.004546193957e+02
-1.292080855380e+02
-1.833450223555e+02
-1.293274262998e+02
-1.092716416473e+01
-1.898446161525e+02
-1.527675800888e+02
-1.047733879220e+02
-1.799816263469e+02
-6.111502145756e+01
-1.286085350544e+02
-1.518883723778e+02
-9.273242629815e+01
-3.979795672748e+01
-8.641993863900e+01
-2.151891187418e+02
-1.304806738871e+02
-7.486858468692e+01
-1.362290156085e+02
-9.775907884322e+01
-5.976943136598e+01
-1.461718280588e+02
-1.270770931899e+02
-1.940725692987e+02
-1.584757282607e+02
-8.013968048688e+01
-2.012171180133e+02
-1.273735229126e+02
-1.403668267996e+02
-1.484738334292e+02
-1.096231104228e+02
-1.348032703888e+02
-1.373740768831e+02
-1.847924676972e+02
-8.332689362268e+01
-1.246681618602e+02
-1.281417289548e+02
-1.259669799240e+02
-1.712264751986e+02
-1.955723590145e+02
-7.120384692283e+01
-7.895193877978e+01
-1.052309548605e+02
-1.764548534948e+02
-1.518986200825e+02
-8.608655704683e+01
-1.944859615097e+02
-1.461235397988e+02
-1.343229708982e+02
-5.511422912147e+01
-6.010990809747e+01
-9.120578123500e+01
-1.236956747059e+02
-1.461809770997e+02
-1.616029360833e+02
-1.999829239005e+02
-1.841106115471e+02
-3.595169345079e+01
-6.712371328626e+01
-2.054785609981e+02
-1.422978367513e+02
-1.919012379479e+02
-1.394240884508e+02
-1.937356879468e+02
-4.817643512051e+01
-2.110935181665e+02
-1.833545025935e+02
-8.284295727037e+01
-6.367441063233e+01
-2.251474035989e+02
-1.957422244439e+02
-1.374877134630e+02
-1.372368192923e+02
-4.843396264850e+01
-1.514433004582e+02
-1.283380173079e+02
-1.688883092299e+02
-2.008577795058e+02
-1.148562502932e+02
-1.447025776548e+02
-1.574671804508e+02
-2.944309171534e+01
-5.692902293988e+01
-1.499204747128e+02
-9.653481131646e+01
-1.428790572380e+02
-2.059775723116e+02
-1.551886076063e+02
-1.057576707958e+02
-1.604720492610e+02
-3.785356431174e+01
-1.221384941531e+02
-1.657615465048e+02
-1.402972302544e+02
-3.155246080894e+01
-1.454510556375e+02
-2.086375671215e+02
-1.016373646097e+02
-1.485203202628e+02
-1.344116194415e+02
-3.063947871748e+01
-1.600176595280e+02
-1.522387621379e+02
-1.533309215056e+02
-1.346182819876e+02
-1.718948564032e+02
-4.320991856015e+01
-7.551237500537e+01
-6.368913052596e+01
-1.111190288613e+02
-1.560727098028e+02
-3.978053625725e+01
-1.370820975301e+02
-4.776451317819e+01
-1.064718259615e+02
-1.736222800479e+02
-9.646435497012e+01
-1.112206634911e+02
-6.763841860145e+01
-1.057687893161e+02
-1.458563550090e+02
-1.102076804065e+02
-1.040915127677e+02
-1.525271177136e+02
-1.083903137937e+02
-1.629753881144e+02
-2.352921429458e+02
-7.276169522112e+01
-2.742722540040e+01
-7.961843703666e+01
-4.247144464136e+01
-9.060008748894e+01
-1.401653493241e+02
-7.328118435688e+01
-8.328888977961e+01
-1.734600217358e+02
-2.096719459502e+02
-1.136781800218e+02
-1.985886434273e+02
-1.614595028862e+02
-1.414155485283e+02
-6.324316322643e+01
-2.305398905749e+01
-1.775290335857e+02
-2.776837271320e+01
-3.985808838111e+01
-4.079197869724e+01
-8.425417278103e+01
-4.137383382630e+01
-3.100846888684e+01
-2.148130791721e+02
-7.543044730453e+01
-1.773003032043e+02
-3.253551760318e+01
-1.572126336067e+02
-2.032971905589e+02
-2.366086660527e+02
-1.897357265538e+02
-4.343274416304e+01
-8.858235280951e+01
-1.866575201276e+02
-1.232070104702e+02
-2.375411035036e+02
-7.508280639379e+01
-1.536014424808e+02
-6.737818294112e+01
-1.535178222863e+02
-1.522053587223e+02
-8.825962389561e+01
-9.022348174207e+01
-2.272872056190e+02
-1.677517938186e+02
-4.722962674520e+01
-1.132361804165e+02
-1.055196346452e+02
-6.551318799453e+01
-2.252497633425e+02
-1.633832649922e+02
-2.264961332974e+02
-2.864946779513e+01
-1.929445011667e+01
-2.260125381549e+02
-1.805201510374e+02
-6.749947971501e+01
-1.673691759678e+02
-5.196299998987e+01
-6.240915828147e+01
-1.854885586596e+01
-2.372454183286e+02
-1.556623095722e+02
-1.161020378806e+02
-7.012094621416e+01
-7.615387703057e+01
-1.868203539278e+02
-3.333667881069e+01
-1.559966121341e+02
-2.247246673371e+02
-1.633072857587e+02
-2.248010122718e+02
-7.176342276301e+01
-2.034914403603e+02
-2.111339081919e+02
-6.287354325860e+01
-1.649658422921e+02
-9.421671731260e+01
-3.991198975307e+01
-1.640906157327e+02
-6.661464823153e+00
-6.192331676919e+01
-2.379539481535e+02
-3.756853677523e+01
-8.159539383488e+01
-1.780593519287e+02
-1.425231183649e+02
-1.347544533964e+02
-5.193380635955e+01
-7.906867400169e+01
-1.027353504169e+02
-2.084817867877e+02
-1.612400508250e+02
-9.472970373671e+01
-5.443184226579e+01
-1.726037976374e+02
-1.255640773151e+02
-1.811469492544e+02
-2.081542803459e+02
-4.756788709399e+01
-1.532299325778e+02
-1.752515327066e+01
-2.286534866215e+02
-1.307495490161e+02
-1.149491655444e+01
-1.165651271277e+01
-2.559084801515e+01
-2.287289953472e+01
-3.851556053021e+01
-3.562061546612e+01
-5.101090431275e+01
-4.690353945792e+01

SCALARS node_materi_stress_size_dev_sd_sig float
LOOKUP_TABLE default
6.154466277438e+00
3.149127772181e+01
1.826813195402e+02
1.257203710086e+02
1.290901777199e+01
2.213400556793e+01
2.992315667412e+01
3.922872076969e+01
4.845343801230e+01
5.766126115506e+01
6.711254842221e+01
7.673329943482e+01
8.639853763296e+01
9.623015128603e+01
1.062946335580e+02
1.157039223079e+02
1.241512108509e+02
1.335134068946e+02
1.428757436925e+02
1.517883072669e+02
1.606545385631e+02
1.694768452669e+02
1.777921833987e+02
1.263665681387e+02
1.259714337131e+02
1.261667560285e+02
1.263036372276e+02
1.260991082102e+02
1.266225126502e+02
1.269615818143e+02
1.273327676219e+02
1.281973930262e+02
1.288669434155e+02
1.292664804608e+02
1.306055198212e+02
1.319899881030e+02
1.333685924954e+02
1.348077744824e+02
1.364952023620e+02
1.386417401432e+02
1.415226479699e+02
1.445931499580e+02
1.477839155764e+02
1.508594935796e+02
1.539087145185e+02
1.571648926802e+02
1.603112962281e+02
1.634645795407e+02
1.664768659473e+02
1.693074712746e+02
1.718008306899e+02
1.739975025156e+02
1.761642583922e+02
1.779453359554e+02
1.791051880884e+02
1.804021886181e+02
1.814993696899e+02
1.823828096024e+02
1.829942021571e+02
1.834590466410e+02
1.836422109449e+02
1.836859600464e+02
1.835855919950e+02
1.836662724218e+02
1.838898065843e+02
1.838869198132e+02
1.827854328931e+02
1.833985169893e+02
1.829729108000e+02
1.830672489480e+02
1.832624649945e+02
1.831841615552e+02
4.058157281986e+01
4.997639659842e+01
5.935621245019e+01
6.874170570031e+01
7.852430371995e+01
8.843117918812e+01
9.852622598348e+01
1.087164599765e+02
1.192689289450e+02
4.595232871932e+01
3.029377978847e+01
4.595894681810e+01
4.100982251935e+01
3.774789820072e+01
3.377965304418e+01
3.099432822535e+01
2.374232583512e+01
1.423483281614e+01
1.577236604451e+01
2.193458035710e+01
7.447857444362e+00
6.950608439998e+00
1.370359900778e+01
2.213343625593e+01
3.016861357492e+01
3.062396451847e+01
3.061434854795e+01
3.042684463728e+01
3.149997565055e+01
3.034656036220e+01
3.008476996138e+01
3.005302534724e+01
3.010812168511e+01
2.990907484591e+01
2.968350001234e+01
2.951858681561e+01
2.945022769932e+01
2.962416560944e+01
3.622741568394e+01
3.332410266277e+01
3.378390424870e+01
3.386464220586e+01
3.351950399734e+01
2.122632352119e+01
7.510148025921e+00
4.161957507008e+00
3.781305605901e+00
3.657393042769e+00
3.902163328066e+00
4.622625163538e+00
4.792064040618e+00
4.663984455753e+00
5.147629308533e+00
5.662744694188e+00
5.957712399285e+00
5.859158306690e+00
5.457041164391e+00
6.424020603692e+00
6.168546685452e+00
6.136976774653e+00
6.061044754385e+00
5.939066303119e+00
5.774856705634e+00
5.573870089037e+00
5.345232318734e+00
5.090625885978e+00
4.809538999465e+00
4.519428467842e+00
4.240676262030e+00
3.992380294264e+00
3.791296480747e+00
3.633094238079e+00
3.559179599074e+00
3.609778481587e+00
4.206387257423e+00
6.499897156111e+00
1.273209727775e+01
8.803475145169e+00
8.066894837379e+00
6.922190721201e+00
6.684373721743e+00
6.634830526040e+00
6.606832951153e+00
6.607814360724e+00
6.610773591647e+00
6.619234432593e+00
6.634305762389e+00
6.656634794854e+00
6.683204190742e+00
6.711839552840e+00
6.738036444185e+00
6.761644103825e+00
6.779916474800e+00
6.794834760049e+00
6.810999235204e+00
6.895496653102e+00
1.366751969712e+01
1.359938216187e+01
1.359836634772e+01
1.361851066828e+01
1.362240396392e+01
1.363552103304e+01
1.365158613287e+01
1.365110193543e+01
1.363909417530e+01
1.365537364166e+01
1.364988215154e+01
1.361485201863e+01
1.357335096500e+01
1.350123630945e+01
1.356499915228e+01
1.422720496488e+01
1.328064922264e+01
2.033590304501e+01
2.182258655527e+01
2.135382154439e+01
2.140010281863e+01
2.152340902689e+01
2.164794431962e+01
2.170908619931e+01
2.178955564835e+01
2.188727238621e+01
2.194931395259e+01
2.199454981213e+01
2.203634983386e+01
2.209093254034e+01
2.208090554202e+01
2.218807666717e+01
2.230405104578e+01
5.142596244337e+01
4.308347193901e+01
3.916967436524e+01
3.587567048136e+01
3.359553197429e+01
3.104432449163e+01
1.772394483082e+01
1.479175682007e+01
1.917700681711e+01
2.645722417028e+01
4.350950392982e+01
1.788563912212e+02
7.190848079629e+00
4.110507917571e+01
1.811692479305e+02
3.686145442359e+01
1.016778318511e+02
1.721643636107e+02
3.184567830610e+01
1.615049464461e+02
2.275090448399e+01
1.809901728293e+02
9.091976729324e+00
1.478045516618e+02
3.465548157064e+01
6.281815458723e+01
1.275555576481e+02
1.376260150900e+02
1.288011734288e+02
1.218967765900e+02
1.218096520134e+02
1.252021912578e+02
3.767456707973e+01
3.798287199553e+01
3.914846606524e+01
7.362708177758e+01
1.798647207386e+02
4.164682832167e+01
1.066261381437e+01
1.559760872812e+02
3.859964092814e+01
3.453720404763e+01
1.306542089638e+02
1.678125385923e+02
1.547260102181e+02
1.755800167990e+02
1.805833504439e+02
1.965453686929e+01
3.736012730669e+01
1.799031199062e+02
9.327862748435e+01
8.482137805167e+00
8.167202177020e+01
1.231721173946e+02
3.571160706771e+01
3.997755294806e+01
2.437852851310e+01
2.725562328075e+01
5.035231900575e+01
5.532327238795e+01
1.809245525911e+02
1.052480539846e+01
1.133968396497e+02
3.845571798233e+01
4.338582429307e+01
4.704670235573e+01
5.332404875163e+01
5.740829117902e+01
6.340718061584e+01
5.963910740076e+01
7.000904352283e+01
6.665606157644e+01
6.765178088862e+01
7.720164413507e+01
7.429493298035e+01
8.488774722999e+01
8.243880360387e+01
7.209226447753e+01
8.068943100788e+01
7.059888717836e+01
7.965525871588e+01
8.950686378621e+01
8.880128966522e+01
7.933934367174e+01
8.868971614222e+01
7.966370359985e+01
8.908027839969e+01
8.046015529053e+01
8.982433267485e+01
9.820844279592e+01
9.883652212398e+01
9.078448618253e+01
9.959696570892e+01
9.180863895739e+01
1.003512771167e+02
1.079477491908e+02
1.083904229632e+02
1.009860165643e+02
1.086794702223e+02
1.014393323320e+02
1.087449130262e+02
1.016631152948e+02
1.084719375190e+02
1.153026362858e+02
1.144669389936e+02
1.077897904062e+02
1.130685287706e+02
1.196654589128e+02
1.175029762448e+02
1.241226113881e+02
1.212153191460e+02
1.145915102770e+02
1.175105693618e+02
1.243476613127e+02
1.199496563267e+02
1.129070715298e+02
1.147292926137e+02
1.221221617697e+02
1.164463588246e+02
1.086755725208e+02
1.100816699488e+02
1.182374942441e+02
1.116741517382e+02
1.030767891250e+02
1.046456096410e+02
1.135335152633e+02
1.065408599664e+02
1.156189066021e+02
9.721005783940e+01
9.931927926746e+01
8.956582718888e+01
9.202453738532e+01
1.157796199562e+02
8.196811400397e+01
7.957523734029e+01
8.483006323548e+01
9.483911163338e+01
7.459581301853e+01
7.785410667289e+01
6.759104652115e+01
9.395118836847e+01
9.838938758182e+01
7.119910566384e+01
6.102932222187e+01
5.720230300074e+01
5.086624850111e+01
6.198417000771e+01
7.228792591994e+01
6.649967167707e+01
7.714410918548e+01
7.171838789049e+01
5.489589353647e+01
8.803729664317e+01
8.297322829785e+01
7.002053017056e+01
8.282069036315e+01
1.263416206681e+02
8.128070849208e+01
7.491431862778e+01
8.489286778865e+01
1.222299268374e+02
1.244481292192e+02
1.307025073644e+02
1.330224348801e+02
1.389445537113e+02
1.413525622544e+02
1.354611712591e+02
1.438541242723e+02
1.380293887781e+02
1.469573658538e+02
1.445069062552e+02
1.464606066912e+02
1.407256646988e+02
1.491803730267e+02
1.435506098824e+02
1.348457444463e+02
1.378068754876e+02
1.289278488740e+02
1.308295974122e+02
1.330921326903e+02
1.376012335767e+02
1.398998160857e+02
1.444047455034e+02
1.467248531876e+02
1.511829248329e+02
1.484056417983e+02
9.296490129152e+01
1.065603784552e+02
1.011344219838e+02
1.001596876728e+02
9.449783066349e+01
9.387501283311e+01
8.782943830860e+01
8.759938568909e+01
9.252732607464e+01
8.635638303718e+01
8.978092025041e+01
8.364174032290e+01
8.520465515270e+01
1.069968684291e+02
1.417252260985e+02
1.486266791247e+02
1.431511320813e+02
4.683838781677e+01
1.465116029469e+02
1.522109745811e+02
1.496365007016e+02
1.551753096199e+02
4.514155873230e+01
8.096767007512e+01
8.033661325426e+01
8.223801734953e+01
7.693693495692e+01
1.570731669010e+02
4.924993065401e+01
1.520040089119e+02
8.014877943720e+01
1.409064178359e+02
1.496143593721e+02
1.293676581184e+02
1.502083132710e+02
1.442883939962e+02
9.153253471526e+01
8.546021280510e+01
7.842489019999e+01
7.734179571031e+01
8.499580884423e+01
7.606378281106e+01
6.712164202667e+01
6.563987665169e+01
7.534913927871e+01
6.522484243753e+01
5.391785359110e+01
5.459149605860e+01
1.550022873066e+02
7.770278207336e+01
6.184773833921e+01
1.596822683933e+02
1.578038771536e+02
8.753694082087e+01
8.235673035295e+01
7.197905700181e+01
7.751669464847e+01
8.798359779980e+01
8.314627045367e+01
7.291843059748e+01
7.849804094283e+01
6.846689244075e+01
7.402330709237e+01
8.415018227086e+01
7.966736961354e+01
6.972449211878e+01
7.529232932067e+01
6.549006252838e+01
7.092630704273e+01
8.090857605838e+01
4.004649102569e+01
1.519970040893e+02
1.588232239913e+02
7.906622107166e+01
8.847795187599e+01
9.472406061205e+01
9.833717159417e+01
7.641998415767e+01
8.659678855386e+01
7.286335580303e+01
7.169144898628e+01
9.308246484975e+01
1.441856740766e+02
1.353082423156e+02
8.401560166964e+01
7.486205617558e+01
7.609827229452e+01
6.666808922740e+01
6.541341551891e+01
6.780005933006e+01
1.419895275221e+02
8.990743211108e+01
5.350767420210e+01
4.286424851195e+01
1.529152083917e+02
1.451034699906e+02
1.067192856516e+02
1.152853862920e+02
1.153918806302e+02
1.237204013634e+02
1.242028805209e+02
1.322391872525e+02
1.316453732309e+02
1.515553391065e+02
1.398826837887e+02
6.640388547288e+01
1.360895582326e+02
7.547625432396e+01
3.577973110776e+01
4.218496125595e+01
4.383002321694e+01
5.330843411072e+01
1.642669229016e+02
1.330808494388e+02
1.249220410758e+02
5.728620593403e+01
5.577644428651e+01
1.571720823320e+02
6.149146828465e+01
6.302011700902e+01
5.873772836172e+01
3.388592804505e+01
4.215387752934e+01
9.370216330757e+01
7.944472812067e+01
7.052042768603e+01
7.412766207038e+01
7.196682431813e+01
8.181572746676e+01
9.199120902909e+01
1.043811404955e+02
1.079133090064e+02
1.615204868720e+02
4.457389506508e+01
9.686889161351e+01
1.483112279128e+02
1.412336499506e+02
9.214150080564e+01
6.357984803779e+01
6.499298308686e+01
8.458114366782e+01
5.640810181309e+01
4.789207901829e+01
1.684320251116e+02
9.870747038902e+01
1.390862627716e+02
1.311661641452e+02
1.470357080339e+02
3.263613459465e+01
1.670316601924e+02
1.476638836239e+02
1.338064664261e+02
1.260521817954e+02
7.850681951300e+01
6.952591945962e+01
6.117525269858e+01
6.027935326793e+01
5.631829846712e+01
7.766923490883e+01
6.059378598886e+01
5.172334575148e+01
5.078921178689e+01
6.378581016544e+01
5.390125243891e+01
9.460262197470e+01
1.279645415536e+02
1.010762896583e+02
1.259558644321e+02
1.284668403541e+02
9.452589708765e+01
1.004428483666e+02
6.004149359081e+01
5.582830490802e+01
3.663957647933e+01
3.243553209587e+01
1.179375699396e+02
1.622645054337e+02
9.836373279951e+01
1.041770382997e+02
9.893337545270e+01
1.654509402785e+02
1.046328498990e+02
1.347398782031e+02
7.362922068460e+01
1.155881270367e+02
2.697755222353e+01
9.945783414385e+01
1.563614567137e+02
1.614043187687e+02
1.586541357421e+02
3.989007582755e+01
1.232044094513e+02
1.230350518051e+02
4.186067649913e+01
4.123396874767e+01
5.090152008455e+01
4.201594723225e+01
8.514312036953e+01
7.635074413013e+01
1.426588273077e+02
1.480401993309e+02
1.355812964192e+02
1.278481338030e+02
1.639700617558e+02
1.621691615606e+02
5.713066762762e+01
4.608714465129e+01
1.044300565443e+02
4.354095420470e+01
1.694176216853e+02
1.648784315767e+02
6.691636174394e+01
6.583281552697e+01
1.025337780696e+02
5.190218099774e+01
5.091507520330e+01
5.288377577788e+01
1.734800279355e+02
3.848560018901e+01
1.648932756632e+02
6.215584748619e+01
1.075199834862e+02
1.303072661557e+02
8.496775093447e+01
1.586157548551e+02
9.701448068241e+01
1.085256361506e+02
5.339850109425e+01
4.905838532932e+01
5.740291820857e+01
7.460420494779e+01
6.747664552780e+01
9.567395930348e+01
6.889264820407e+01
7.391158145903e+01
4.723045873485e+01
5.851947632988e+01
1.106103008306e+02
1.075311779846e+02
1.080974196959e+02
1.095257842609e+02
1.067372388717e+02
1.440960211435e+02
1.367908627333e+02
1.341425613279e+02
1.050530055558e+02
1.122009219440e+02
9.340796569587e+01
9.283528420034e+01
8.615489549714e+01
1.097090894826e+02
1.697164513627e+02
1.663825737199e+02
2.279388626269e+01
2.815642453135e+01
5.557479585028e+01
5.818578824255e+01
1.101106507297e+02
1.053289630571e+02
1.163695614735e+02
5.110797625206e+01
1.383457473162e+02
1.717242491405e+02
1.687560470541e+02
1.755159562656e+02
1.527255217937e+02
1.598688882795e+02
1.547376673781e+02
6.276858562130e+01
1.048611816025e+02
5.013978335267e+01
5.464441836080e+01
4.611986197365e+01
5.165015901633e+01
4.158224286056e+01
4.206912042943e+01
4.654270459932e+01
5.210209421652e+01
1.683259792892e+01
1.153887461021e+02
1.847655802627e+01
2.243387855877e+01
1.721993527383e+02
1.675172571834e+02
1.747408331157e+02
1.700058214807e+02
1.625191873607e+02
1.654685622091e+02
4.473499690559e+01
1.740953212414e+02
1.685937747663e+02
1.774779977693e+02
3.196997749986e+01
5.937188248398e+01
4.989976171205e+01
4.159696024052e+01
1.392328180760e+02
1.294976156613e+02
1.515013395080e+02
1.425845015107e+02
4.701078404062e+01
4.664705901732e+01
5.509762269551e+01
5.406215892048e+01
6.270420041237e+01
6.142826952443e+01
7.036266312340e+01
1.560428218921e+02
4.453010392945e+01
3.385853327096e+01
1.687030844571e+02
1.661680947421e+02
4.372636474077e+01
3.563964836349e+01
1.747495026822e+02
8.628836691280e+01
1.225571930184e+02
4.671970627976e+01
5.923647835096e+01
8.558968362822e+01
5.207206616637e+01
5.821995731755e+01
4.947593821935e+01
1.514069383738e+02
2.444062006531e+01
5.409846493260e+01
7.131098761057e+01
4.735873292183e+01
1.470593699663e+02
9.439506721025e+01
7.200160301425e+01
6.233070199876e+01
6.879391800507e+01
6.389883289852e+01
4.956245256555e+01
4.626975405821e+01
1.015762727865e+02
4.781258818851e+01
3.952212621322e+01
6.989977892140e+01
9.397935810326e+01
1.004717016826e+02
1.116347904969e+02
1.073386052452e+02
9.605956333254e+01
1.031502877391e+02
1.145029228917e+02
1.109200014702e+02
1.242666858016e+02
1.187598721797e+02
1.071477558312e+02
1.148365804670e+02
1.255400714143e+02
1.038187293317e+02
1.703665569890e+02
9.339247086959e+01
6.721159042917e+01
6.174370470332e+01
7.079883635685e+01
1.347536749901e+02
1.301027641828e+02
8.755349934584e+01
1.510642315165e+02
5.362808780492e+01
8.091907139029e+01
1.581245574093e+02
8.926330608377e+01
8.480258095521e+01
7.826789569799e+01
1.275087600933e+02
6.191826601252e+01
1.701325240489e+02
1.348238423119e+02
1.290777933586e+02
1.221489122079e+02
9.927629230103e+01
1.776652878002e+02
1.735661005212e+02
1.745094210653e+02
1.685891295747e+02
1.797958655336e+02
1.415215001323e+02
1.450261866941e+02
8.455934081909e+01
9.253640020582e+01
1.000060765118e+02
9.908196783594e+01
9.223582756991e+01
9.777634540655e+01
1.042112715168e+02
9.575163255874e+01
1.196261150100e+02
1.810686453702e+02
1.365847237532e+02
1.341933087748e+02
1.262838198507e+02
9.789111943214e+01
1.045847430317e+02
1.140242689807e+02
9.130943180577e+01
1.234532555189e+02
1.812425350311e+02
1.381714181084e+02
1.018108464370e+02
3.747477435799e+01
4.555607757205e+01
4.599743344042e+01
5.498273542299e+01
4.628859434553e+01
1.138673411880e+02
1.172627902593e+02
1.115498537642e+02
1.207572475270e+02
1.150082977496e+02
1.063612806594e+02
1.241607447855e+02
1.180246590216e+02
3.753994938364e+01
3.398738871745e+01
3.902767760388e+01
2.636734877151e+01
4.217563416306e+01
5.393563771057e+01
5.672897703991e+01
6.504189089895e+01
5.265047768065e+01
1.057680425098e+01
1.924154968290e+01
7.490383490139e+00
1.581467963454e+01
2.866897897100e+01
3.911762437798e+01
1.786246865428e+02
9.131211659027e+01
8.682346705373e+01
7.738752128967e+01
8.274467031803e+01
9.533395701243e+01
7.216957378826e+01
6.882174302232e+01
1.084490135194e+01
1.894655682349e+01
1.823918392481e+01
2.638600577972e+01
2.600388640968e+01
1.886293458562e+01
1.862118899277e+01
1.031705495353e+01
1.818583184355e+01
2.584027347975e+01
9.679019949255e+00
8.353494724797e+01
8.902631103520e+01
1.809638232098e+02
3.892806003341e+01
7.826872279808e+00
1.199838304195e+02
1.223232015141e+02
1.222318305028e+02
1.648733654291e+02
1.692374520205e+02
1.201712027752e+02
6.410283205789e+01
1.184550276787e+02
1.014909697545e+02
7.390623763520e+01
6.739270658915e+01
1.387820037312e+02
1.320423954447e+02
1.581187038866e+02
1.320596941730e+02
1.520258435293e+02
1.749291499795e+02
3.891072444029e+01
6.415470475163e+01
6.120786017631e+01
8.536308876140e+01
6.491596710599e+01
1.024110323281e+02
4.095857855914e+01
1.488939142272e+02
6.027414272438e+01
1.201568897569e+02
8.796983505951e+01
7.162432841672e+01
6.593529754843e+01
9.272488763596e+01
1.087729947751e+02
1.494446082061e+02
9.111381434705e+01
1.010325530778e+01
1.547377099523e+02
1.268280894779e+02
6.740317332831e+01
1.535073142881e+02
5.501632043679e+01
8.882638842630e+01
1.091205764022e+02
5.659401537010e+01
3.136783884757e+01
5.449051898883e+01
1.710945583380e+02
8.789938419853e+01
5.893430999897e+01
1.279426569741e+02
8.157031816500e+01
3.063272471263e+01
1.060282959965e+02
1.158380595822e+02
1.618241065022e+02
1.415746545978e+02
6.306111942202e+01
1.599086352286e+02
1.211846857459e+02
9.943552167901e+01
1.158013703971e+02
1.109958420348e+02
9.300454830357e+01
1.241757701685e+02
1.554800176425e+02
6.086843909147e+01
9.783541535095e+01
9.087455135390e+01
1.074418822429e+02
1.334489328728e+02
1.573005823378e+02
7.900271331364e+01
7.704058171633e+01
6.663216023780e+01
1.406625091497e+02
1.101692436707e+02
7.346969102954e+01
1.546365765116e+02
1.037756851714e+02
1.112902056091e+02
4.447158668773e+01
6.695587346890e+01
9.846462474618e+01
1.157178300314e+02
1.204680449869e+02
1.181509729716e+02
1.573753651113e+02
1.543453479830e+02
4.607608739191e+01
3.648386581211e+01
1.602788207833e+02
1.312443741975e+02
1.600754652157e+02
1.090874625585e+02
1.524314646723e+02
3.325007945711e+01
1.634969874920e+02
1.554086997803e+02
8.699909971549e+01
3.870163648394e+01
1.727671544950e+02
1.623029518737e+02
1.153829256981e+02
1.270478986148e+02
2.442605063634e+01
1.231549500970e+02
9.785816456296e+01
1.264365945106e+02
1.652551502143e+02
7.384202281340e+01
1.168769817443e+02
1.369806920763e+02
2.582241950505e+01
3.220256598919e+01
1.198932826953e+02
1.017980752489e+02
1.294783903833e+02
1.654849712058e+02
1.230773097245e+02
1.081103945899e+02
1.263849407031e+02
2.253608032441e+01
8.073454794934e+01
1.297626512604e+02
1.071730570702e+02
2.617941817450e+01
1.233108720214e+02
1.603345500869e+02
8.760700985552e+01
1.318083437801e+02
9.186467481810e+01
2.718721918217e+01
1.393876742125e+02
1.166169078639e+02
1.307197432117e+02
1.227285199862e+02
1.469292942071e+02
3.830684254765e+01
6.099300667926e+01
5.017424886582e+01
1.107943071049e+02
1.178760412145e+02
3.345668920399e+01
9.583138321643e+01
3.559043037928e+01
1.059680783375e+02
1.452849159429e+02
6.452965573436e+01
1.073753288336e+02
5.361421437615e+01
1.008568370432e+02
1.297960549697e+02
1.018566888840e+02
9.429110085732e+01
1.120194073286e+02
9.554429318681e+01
1.218067224625e+02
1.788440172380e+02
4.582413551439e+01
3.299242187280e+01
4.063509183851e+01
4.301008099510e+01
7.772717165918e+01
1.012152525669e+02
4.610214068094e+01
6.925813987501e+01
1.304338643539e+02
1.648325207436e+02
7.863973619434e+01
1.639110118406e+02
1.377832453666e+02
1.026990137849e+02
3.765390139446e+01
1.500207859091e+01
1.378744248675e+02
3.523107127452e+01
4.338767130967e+01
4.577826162086e+01
6.636127452851e+01
3.270112666154e+01
3.838346306052e+01
1.718609657890e+02
4.506609772670e+01
1.460172888216e+02
4.149530652183e+01
1.147134646922e+02
1.621836821162e+02
1.811439264433e+02
1.538298471720e+02
4.987158236726e+01
5.275169192158e+01
1.450956158662e+02
8.638220072503e+01
1.810902777443e+02
4.359538920654e+01
1.133368330027e+02
7.299500384149e+01
1.134189168009e+02
1.117905450476e+02
5.724149772944e+01
5.315465109826e+01
1.733817223479e+02
1.245088205858e+02
5.454966541718e+01
7.791823952649e+01
8.325652390300e+01
5.781137131930e+01
1.754878032380e+02
1.219518160365e+02
1.733562374926e+02
2.613438528933e+01
1.511423696596e+01
1.769306551710e+02
1.380151281860e+02
6.962042921837e+01
1.253501077730e+02
5.656617796037e+01
3.633364969937e+01
1.693336441411e+01
1.806181226587e+02
1.143346975131e+02
9.119014032960e+01
3.820283555300e+01
6.002565131089e+01
1.482157682419e+02
2.261908683167e+01
1.150745075092e+02
1.769930249169e+02
1.200942635792e+02
1.758742250075e+02
5.644396630250e+01
1.613943178835e+02
1.706235756588e+02
3.777935590585e+01
1.215459913787e+02
7.398938619398e+01
3.235113703762e+01
1.228988526474e+02
9.284038503282e+00
3.758118161070e+01
1.806137676180e+02
3.145952091935e+01
5.258220327155e+01
1.352288191939e+02
1.114675839146e+02
9.679147963940e+01
4.477469702721e+01
3.955454582002e+01
6.955197287001e+01
1.661862107562e+02
1.184909018530e+02
6.257798258876e+01
6.102216978353e+01
1.303506779701e+02
9.846594307053e+01
1.412343778478e+02
1.688938204028e+02
5.128346943400e+01
1.196794279978e+02
1.563192876438e+01
1.762316352890e+02
1.024883337720e+02
1.112422376268e+01
6.533324768690e+00
1.190082554277e+01
9.599827930711e+00
1.732755901937e+01
1.810182035859e+01
2.492281481906e+01
2.640136993457e+01

SCALARS node_materi_strain_total_average_a_ept float
LOOKUP_TABLE default
1.698491003382e-04
3.163992336709e-03
2.534649197090e-03
4.597413416136e-03
2.058573533971e-04
3.081878349582e-04
4.035985968375e-04
5.218710809694e-04
6.347203789403e-04
7.507574861268e-04
8.694294527461e-04
9.903552030147e-04
1.114664090262e-03
1.241750168632e-03
1.373281220254e-03
1.505306000612e-03
1.628589994815e-03
1.761626709914e-03
1.900965924379e-03
2.037274979484e-03
2.175722312475e-03
2.316584125518e-03
2.453611912652e-03
4.606226695062e-03
4.596810532398e-03
4.596356444223e-03
4.591823738977e-03
4.579342432636e-03
4.577359473658e-03
4.564946191773e-03
4.548150160118e-03
4.534405203150e-03
4.514183288871e-03
4.480581437156e-03
4.454378965601e-03
4.413673020220e-03
4.368702619768e-03
4.312246085156e-03
4.248729719388e-03
4.175254998096e-03
4.094791723407e-03
4.009801040989e-03
3.917734811482e-03
3.814153592600e-03
3.700599976672e-03
3.586887389049e-03
3.469034808791e-03
3.352026231121e-03
3.238962412263e-03
3.126383003065e-03
3.024161451988e-03
2.922580842685e-03
2.837651768796e-03
2.755400604708e-03
2.678525437910e-03
2.614370346032e-03
2.571203334006e-03
2.534470049226e-03
2.502835436143e-03
2.491586536782e-03
2.473555134987e-03
2.471121065792e-03
2.465674884863e-03
2.472682964722e-03
2.489724792941e-03
2.501522048820e-03
2.490861429766e-03
2.517772827353e-03
2.516891799672e-03
2.527062025077e-03
2.538368078872e-03
2.540503696751e-03
3.311250219430e-03
3.455737073211e-03
3.600988798363e-03
3.744960425555e-03
3.892817246674e-03
4.042705387135e-03
4.192039665977e-03
4.344173228275e-03
4.495191867375e-03
-1.359776883953e-03
2.994460066276e-03
-3.371174452400e-04
1.796774319904e-04
6.782422955941e-04
1.184938048201e-03
1.690762172324e-03
2.204089638562e-03
2.539237131692e-03
2.691800381000e-03
2.837850382244e-03
2.638249116484e-03
2.730329170709e-03
2.874726523005e-03
3.017161662834e-03
3.145993834861e-03
3.154368844247e-03
3.152613355804e-03
3.147833497471e-03
3.163658616339e-03
3.142239851987e-03
3.134477066784e-03
3.128935383656e-03
3.121096790410e-03
3.107897607779e-03
3.093160558953e-03
3.074577840238e-03
3.052720521641e-03
3.028192516835e-03
-1.958116434208e-03
-2.222994398439e-03
-2.277721535980e-03
-2.052794240824e-03
-1.221406888408e-03
-4.231150248722e-04
-1.163000319260e-04
1.990059254206e-05
8.972360210908e-05
1.027432182029e-04
1.176646982869e-04
1.342159270949e-04
1.453140753925e-04
1.564458667312e-04
1.566018767005e-04
1.586482947649e-04
1.609517249425e-04
1.638915806275e-04
1.682027190652e-04
2.657536677354e-03
2.666797649304e-03
2.666458486897e-03
2.667561227544e-03
2.669678594529e-03
2.672563955664e-03
2.676051605307e-03
2.680016343893e-03
2.684570311604e-03
2.689644999198e-03
2.695077213651e-03
2.700517030804e-03
2.705414461952e-03
2.709938165729e-03
2.711987802235e-03
2.710979119020e-03
2.698672703256e-03
2.677797861716e-03
2.618124367746e-03
2.506650448202e-03
2.628680361345e-03
2.677595810243e-03
2.710038652851e-03
2.726704534841e-03
2.737710006791e-03
2.742827153449e-03
2.745693438781e-03
2.746469086271e-03
2.745975157683e-03
2.744832049654e-03
2.743405247958e-03
2.741848232572e-03
2.740326473016e-03
2.738823804331e-03
2.737593701817e-03
2.736635590199e-03
2.736050954742e-03
2.735366908090e-03
2.731591198955e-03
2.875363284027e-03
2.876386814228e-03
2.876281386992e-03
2.875874802573e-03
2.875358860481e-03
2.874501348200e-03
2.873361225678e-03
2.871454305745e-03
2.868725547528e-03
2.865146630408e-03
2.860220189247e-03
2.853231831310e-03
2.843441877152e-03
2.829032574173e-03
2.811735490995e-03
2.785883773596e-03
2.741282961491e-03
2.870464098621e-03
2.912949964252e-03
2.936092257761e-03
2.955239324535e-03
2.970159971953e-03
2.981842302034e-03
2.990506712848e-03
2.997866668426e-03
3.004348194684e-03
3.008039098664e-03
3.011624315553e-03
3.013913143958e-03
3.015960082726e-03
3.017072329295e-03
3.018414720255e-03
3.018408137174e-03
-7.141586385024e-04
-7.429080833368e-05
4.334721226314e-04
9.266092699900e-04
1.431897658801e-03
1.916653968679e-03
2.426270510901e-03
2.626854310058e-03
2.772818659933e-03
2.924822511487e-03
6.515079867103e-05
2.567504831550e-03
5.837646586844e-05
-1.403328854456e-03
2.438004542157e-03
1.090221293936e-03
1.311422344229e-03
2.835659902146e-03
2.010828128197e-03
3.241578728468e-03
2.633579449243e-03
2.452044791650e-03
1.586907146937e-04
3.685941389803e-03
2.994012316039e-03
8.143854471170e-04
1.672570701493e-03
3.964144157645e-03
4.257832200685e-03
4.503126247080e-03
4.445905451796e-03
4.386238770057e-03
3.142286242067e-03
3.233901113412e-03
3.276166023185e-03
3.820126885022e-03
2.461870893027e-03
-1.744766402048e-03
1.845424281735e-04
2.100927526892e-03
3.277068978789e-03
4.615344139796e-04
4.107821198962e-03
3.038408852706e-03
3.467240695873e-03
2.687569054739e-03
2.490165004222e-03
-2.802901841722e-04
3.193061541723e-03
2.412074469042e-03
4.112428991602e-03
1.225134320107e-04
1.051884383833e-03
4.538968535063e-03
1.575512156705e-03
5.831239407532e-04
2.398533153416e-03
2.817092844132e-03
-5.389792963195e-04
3.540216462044e-03
2.495780411205e-03
1.872466453363e-04
4.412780741379e-03
3.072686157944e-03
3.082991755533e-03
3.180916603854e-03
3.183724079127e-03
3.289768855787e-03
3.292723626509e-03
3.179801194228e-03
3.290500346911e-03
3.169774886519e-03
3.404130510721e-03
3.283011241080e-03
3.154584364506e-03
3.270484911853e-03
3.135091564403e-03
3.022682032346e-03
2.996448879217e-03
2.886484959322e-03
2.853180925952e-03
2.968235330636e-03
2.818886554872e-03
2.704076507393e-03
2.664900526888e-03
2.548317128322e-03
2.505246191955e-03
2.384300157057e-03
2.339398309948e-03
2.466461558259e-03
2.300260363905e-03
2.167818613721e-03
2.129574906321e-03
1.989987194308e-03
1.953693625550e-03
2.098240491044e-03
1.926207383771e-03
1.771840218339e-03
1.750859529917e-03
1.585250037709e-03
1.573213675475e-03
1.395248605999e-03
1.392556766956e-03
1.570632103192e-03
1.400065510221e-03
1.210178868164e-03
1.230384643071e-03
1.418135719824e-03
1.261342395115e-03
1.444945822260e-03
1.300997081366e-03
1.111397015928e-03
1.164789145502e-03
1.346755639215e-03
1.222304687859e-03
1.037700035552e-03
1.107906161459e-03
1.283252190138e-03
1.178559474116e-03
1.004220737956e-03
1.083885459254e-03
1.249708800843e-03
1.160826404750e-03
9.984653972168e-04
1.079983551907e-03
1.235729083296e-03
1.157689470272e-03
1.307972656377e-03
1.005477814270e-03
1.085374349877e-03
9.374505333393e-04
1.018370101068e-03
2.074297559805e-03
8.758961579805e-04
7.908771010732e-04
9.559864348079e-04
1.094942934572e-03
8.188921860976e-04
8.971289125842e-04
7.657560259207e-04
1.407113734369e-03
2.938856432073e-03
8.408754146609e-04
7.147394780789e-04
6.384987317378e-04
5.936360366013e-04
3.392729755003e-03
3.518001675090e-03
3.498227900173e-03
3.630443965358e-03
3.606360867002e-03
6.642852135305e-04
3.404548976077e-03
3.648732668413e-03
2.595596009654e-03
2.034455578603e-03
1.594132899331e-03
9.704493233408e-04
9.114719982078e-04
1.039474110947e-03
1.388799075678e-03
1.455852770680e-03
1.538240594312e-03
1.600797477837e-03
1.683662985458e-03
1.742673661374e-03
1.663002568662e-03
1.802109340290e-03
1.724858962838e-03
1.825089920717e-03
1.770009358112e-03
1.861897640615e-03
1.786557550156e-03
1.922426577251e-03
1.848307393308e-03
1.712204199081e-03
1.774560031136e-03
1.639387595689e-03
1.617042686509e-03
1.760150487958e-03
1.779023458607e-03
1.916450070204e-03
1.931762048153e-03
2.063950329741e-03
2.075256959223e-03
1.952344463171e-03
3.252605908363e-03
1.029109189130e-03
1.006178532342e-03
8.111488907463e-04
7.855968700579e-04
5.727409200212e-04
5.456950108137e-04
3.087257645834e-04
3.629728724917e-04
7.154826603286e-05
1.662795464503e-04
-1.380939006012e-04
-8.099997806148e-06
2.431804429396e-03
2.057159139653e-03
2.199916682458e-03
2.199545864326e-03
5.178102190827e-04
1.910235402267e-03
1.910394577962e-03
1.859155003297e-03
2.092946190486e-03
5.485935971341e-04
2.826759474683e-04
5.426582642560e-04
3.741914343786e-03
3.712753583167e-03
1.998166930698e-03
6.147079872035e-04
1.938683151779e-03
-2.289943920335e-04
1.836630545818e-03
1.971845594694e-03
1.586208848486e-03
2.338517167670e-03
2.342847185951e-03
2.770892736930e-04
1.364721834083e-04
-1.295527533186e-04
3.999257275360e-05
2.861630198304e-04
1.998501545529e-04
-1.823643046035e-05
1.513362191457e-04
3.503487851221e-04
3.023338558167e-04
1.328286774073e-04
2.763564055486e-04
2.045342905025e-03
-4.186767423130e-04
2.917993748646e-03
2.045735338745e-03
2.209112071127e-03
3.853000842320e-03
3.818501156215e-03
3.678585050881e-03
3.779826327582e-03
3.923615748903e-03
3.880536853883e-03
3.737343584520e-03
3.834247257800e-03
3.691515440038e-03
3.785019855703e-03
3.930830725434e-03
3.878310549356e-03
3.732892188176e-03
3.823450995680e-03
3.678079975673e-03
3.765914598382e-03
3.913819552562e-03
5.059490030638e-04
1.977417270427e-03
2.115433053877e-03
9.802887772082e-04
1.105218480411e-03
1.170557936822e-03
1.236582085304e-03
3.852929283997e-03
4.003436446586e-03
2.949455014662e-04
5.671125180626e-04
3.883105030646e-03
1.898539081066e-03
1.763925447695e-03
1.847472337879e-03
1.899200133962e-03
1.700152892003e-03
1.758298003006e-03
1.962380528405e-03
1.542594416878e-03
1.714810731568e-03
4.026554677193e-03
5.561823111865e-04
4.361058824678e-04
2.033883402084e-03
1.832426607725e-03
2.594434366446e-03
2.562798976831e-03
2.723076973868e-03
2.692846974772e-03
2.852438520873e-03
2.821742818718e-03
2.665625170520e-03
2.479652945106e-03
2.794871507839e-03
3.704216451711e-03
2.053676382083e-03
4.842987442642e-04
4.410227679088e-04
1.429318121368e-04
5.615664814049e-04
6.765120187265e-04
2.130886368627e-03
2.982456419046e-03
3.011298498073e-03
1.834310913904e-03
2.039398924664e-03
2.469601375826e-03
3.476973443924e-03
3.598140149919e-03
3.552185171276e-03
4.424415859701e-04
1.361153922492e-05
4.027575680298e-03
7.905898197542e-04
8.255983403577e-04
-5.134753796951e-04
-7.444287166390e-04
3.939106182143e-03
4.089470914356e-03
1.303212012524e-03
1.367742831969e-03
2.089728892337e-03
2.626253026342e-04
4.154662727268e-03
1.866758675275e-03
1.717341185700e-03
1.169053716231e-03
3.440574680190e-04
5.745000130184e-05
5.478178857095e-04
3.996491455573e-04
6.195617384075e-04
2.218796939096e-03
4.071104722287e-03
2.641357952746e-03
2.509367271010e-03
2.769097010521e-03
1.549212233048e-04
2.177903974122e-03
1.960505250850e-03
3.138112526836e-03
3.168930095043e-03
1.027279781727e-03
1.073992916794e-03
8.827830799319e-04
1.138615374252e-03
3.065231622542e-03
1.258261354380e-03
2.785932511703e-03
2.823866953844e-03
2.694977729025e-03
2.151604324621e-03
2.227464842216e-03
9.967147518790e-04
1.746908865307e-03
1.236767509355e-03
1.576227637608e-03
1.474843200980e-03
4.079337297708e-03
4.177636863803e-03
3.589808911663e-03
3.534684536928e-03
4.052230536544e-04
3.260282587329e-04
1.377964563578e-03
2.094458713203e-03
3.997902418640e-03
4.029218207253e-03
3.908561109027e-03
2.182070225096e-03
8.526291595864e-04
1.645812071566e-03
-5.746515972595e-04
2.238556654574e-03
3.040963092385e-04
3.088090873824e-03
2.096878941286e-03
2.169300693397e-03
2.604220215049e-03
2.985135764502e-03
2.217744737030e-03
2.058516709509e-03
2.739803178988e-03
2.617514703133e-03
2.556637965935e-03
2.476217734411e-03
6.614086603805e-04
6.004273573338e-04
3.122732388276e-03
2.919777115403e-03
3.299252443001e-03
3.332537336679e-03
2.591761607524e-03
2.463082604695e-03
7.322670506913e-04
2.129465008881e-03
4.178455328056e-03
2.856353810856e-03
2.220525146810e-03
2.148578182598e-03
-9.727911411240e-04
-6.691448815558e-04
4.242824675832e-03
9.528692837689e-04
1.208803781262e-03
6.908150970373e-04
2.381401289675e-03
3.277682343664e-03
2.234479441805e-03
2.329462720016e-03
4.309932954498e-03
2.204887415468e-03
1.649347041016e-03
2.049327507859e-03
4.166046126390e-03
4.332964754873e-03
3.462836252287e-03
3.410304858401e-03
3.501487889706e-03
-2.553375883062e-04
-5.456743158941e-04
4.121173826959e-03
8.542865943931e-04
9.310784277822e-04
3.724213609432e-04
5.075011823938e-04
1.371221700609e-03
1.304410092352e-03
3.063313408703e-03
3.214661891357e-03
2.754012698030e-03
1.760163070758e-03
1.607907496372e-03
1.560927641774e-03
4.228207522963e-03
4.342288478015e-03
7.348209522491e-04
6.287822224361e-04
7.616753972746e-04
4.222760640564e-03
2.305155091254e-03
2.239431258447e-03
2.358517442895e-04
2.431779780159e-04
1.468384121076e-04
-1.408507490749e-04
4.053657406021e-03
3.928839102346e-03
4.187477309983e-03
6.655667182615e-04
2.494996427975e-03
2.302784421931e-03
2.279168718328e-03
2.356942473923e-03
2.616663761490e-03
2.730218246468e-03
2.890195144024e-03
-1.217712099956e-03
4.285690655488e-03
3.442438903209e-03
-1.434261451088e-03
3.388356045742e-03
3.475440520788e-03
3.321121927345e-03
5.538913257686e-04
3.349737578846e-03
3.406221203031e-03
1.500001094603e-04
4.333507643167e-03
2.153749689121e-04
2.761164547721e-04
2.280835673548e-03
2.204799908456e-03
2.329559816796e-03
2.254817439385e-03
2.128942664970e-03
2.191207216644e-03
3.353221517923e-03
2.337325807182e-03
2.256290327757e-03
2.405938992467e-03
2.555215920518e-03
1.376032906417e-03
1.460025975710e-03
1.311702801754e-03
3.489677774323e-03
3.484526821297e-03
2.026794335747e-03
1.889845241158e-03
3.405646437159e-03
3.403405443290e-03
3.532581097464e-03
3.519536563098e-03
3.650443701420e-03
3.633851873193e-03
3.768643995304e-03
3.059102740529e-03
7.641896552035e-04
2.780192574035e-03
2.577131839671e-03
2.449913483181e-03
2.315893749415e-03
2.247064647826e-03
2.320395291124e-03
1.219677352041e-03
4.396107775409e-03
-1.382422500012e-03
-1.038545838244e-03
1.435506548013e-03
2.400536267424e-03
1.610232798401e-03
1.704397900436e-03
1.908082624453e-03
1.663784678817e-04
4.194414487993e-04
3.780054490120e-03
2.375339198690e-04
1.962938875330e-03
1.203800561031e-03
2.266332597965e-03
6.190127089196e-04
1.315462078263e-03
3.045870525484e-03
3.078306395536e-03
2.968679868447e-03
1.201380333618e-03
1.930452343025e-03
1.808106436838e-03
2.745013049642e-03
3.786056774837e-03
3.800923911158e-03
3.939752115519e-03
3.808051989922e-03
3.670288708457e-03
3.673266669637e-03
3.816834295915e-03
3.674392718197e-03
3.843265153717e-03
3.663920925437e-03
3.525965974256e-03
3.510808893298e-03
3.633228819164e-03
3.377805004663e-03
2.694942668096e-03
1.608668587208e-03
-9.003379684839e-04
-6.379386331946e-04
2.436634003373e-03
4.043216633992e-03
4.195398029253e-03
7.778005609705e-04
3.576043783365e-03
2.945948362469e-03
1.728144705434e-05
3.354543631071e-03
3.662143663069e-03
3.536158367887e-03
3.529553318234e-03
4.308410057907e-03
3.541294485457e-03
2.943879777893e-03
1.906354187777e-03
1.900092151869e-03
1.739497318720e-03
3.534150337134e-03
2.619211395130e-03
2.499989219261e-03
2.452875372312e-03
2.367047353287e-03
2.524237072169e-03
3.888077085910e-03
3.797345268206e-03
4.214531469904e-04
5.163424073342e-04
7.277049683018e-04
6.300411546599e-04
3.961287848450e-04
5.325475660311e-04
7.616914692721e-04
4.407509884396e-04
3.348736046331e-03
2.469946165321e-03
1.624867577460e-03
1.565009008409e-03
1.410203835120e-03
1.167658124527e-03
1.234741879984e-03
1.374069649692e-03
1.102769181975e-03
2.534147859764e-03
2.450901013081e-03
1.679405012404e-03
1.161713568773e-03
3.169799245181e-03
3.259970508530e-03
3.223380412502e-03
3.357629152255e-03
3.302018172852e-03
1.435948994403e-03
1.498927263038e-03
1.430374663323e-03
1.560522160845e-03
1.488465778172e-03
1.368693884300e-03
1.618833087552e-03
1.536029787963e-03
3.212110465637e-03
-7.311904289648e-04
-4.458255948563e-04
-1.937789049400e-04
-2.543926238607e-04
-4.474713107700e-04
-2.107001751847e-04
-3.806513773589e-04
-8.051620348221e-04
-1.052251822159e-04
-5.050229800629e-05
7.502416927923e-06
4.070210007182e-05
4.642227533999e-05
3.487822051565e-04
2.449975284177e-03
1.176032635993e-03
1.112176938483e-03
9.939995814894e-04
1.051857233344e-03
1.225753314017e-03
9.312302820986e-04
8.847053047002e-04
1.886809310541e-04
2.664872642110e-04
2.626417240130e-04
3.577012654541e-04
3.519134618156e-04
2.630817859795e-04
2.554034542720e-04
1.786840083030e-04
2.459481207837e-04
3.381273848401e-04
1.692726289472e-04
3.968568896047e-03
4.049997422149e-03
2.429907484164e-03
3.258465849377e-03
8.883623523164e-05
4.486931381463e-03
4.477613187659e-03
4.496472523300e-03
2.241820955943e-03
2.309840775159e-03
4.503323644368e-03
6.851568154226e-04
3.944221179895e-03
4.214795018803e-03
1.577608980951e-05
5.501097492325e-04
1.825791955290e-03
1.649683916311e-03
2.106243485345e-03
1.701933677715e-03
1.983683200944e-03
2.403460353237e-03
5.105034348753e-04
3.641907044153e-03
3.620624554442e-03
3.971296030667e-03
7.857095396414e-04
1.305354332194e-03
4.801526656499e-04
3.297594509842e-03
2.646122243690e-03
1.320057644651e-03
1.031495446708e-03
7.356070176734e-04
4.364471905441e-04
1.804622043304e-03
1.232482964065e-03
1.881260565206e-03
4.063519437117e-03
1.476564742814e-04
1.962281469895e-03
1.521550184134e-03
3.639973035363e-03
2.202690853573e-03
-2.553509157454e-05
3.980295173705e-03
4.142279704055e-03
3.444416997381e-03
3.743689081046e-04
3.498818467402e-03
2.254774000949e-03
3.766641362771e-03
7.312914465788e-04
1.478828814429e-03
2.213135347746e-03
2.907850826860e-03
4.270019857859e-03
1.907741585651e-03
2.227626253458e-03
1.803390156542e-03
7.956499978259e-04
2.072898891315e-03
1.578467933547e-03
4.129260400211e-03
2.881691743167e-03
1.064933314229e-03
3.962916004589e-03
1.345696222426e-03
2.334865627852e-03
2.495303871603e-03
2.628443804103e-03
3.111871686422e-03
2.266673206442e-03
1.753840946809e-03
2.016520299136e-03
-3.004903950308e-04
1.486821565508e-03
3.577869771659e-03
2.945627089979e-03
4.280100375004e-03
2.087982364771e-03
1.996866759623e-03
4.109469734109e-03
1.304524501926e-03
5.858014939831e-04
-2.228703405600e-04
6.204940703703e-04
1.740043183322e-03
1.446086600719e-03
4.085300981518e-03
2.056692449434e-03
1.952293622544e-03
-2.141110951240e-04
2.884813505042e-03
2.118324435176e-03
1.518005332195e-03
2.331749509759e-03
1.413546416974e-03
3.187463398532e-03
2.416691520325e-03
2.182782903244e-03
2.011801029914e-03
1.002488956163e-03
3.280690724243e-03
2.336987194238e-03
2.147445414786e-03
2.401429383710e-03
1.396488326198e-03
2.729759995491e-03
1.512237599985e-03
2.785417793657e-03
4.354642805257e-03
2.241324075544e-03
3.409618938037e-03
1.440587548245e-03
2.199857316610e-03
3.461851114646e-04
2.675139080377e-03
1.505243872352e-03
6.857699711975e-04
1.449507687870e-03
2.719950175971e-03
1.568675200932e-03
9.074479268567e-04
1.630895761585e-03
2.534787814635e-03
3.409883362673e-03
1.692425801454e-03
2.909781132751e-03
3.337709824311e-04
2.375261644237e-03
2.166491978658e-03
8.524319120072e-04
1.505750008188e-03
3.538114105106e-03
2.241931843851e-03
1.659744558516e-03
3.038086049154e-03
2.357624370407e-03
1.899648636799e-03
1.809054521865e-03
2.049069903226e-03
5.991882767553e-04
4.694162139044e-04
9.704221103685e-04
3.194785498568e-03
4.461074894119e-04
3.393243203898e-03
2.566865877425e-04
8.417474495103e-04
2.488313966589e-03
3.680736158463e-03
9.234396235891e-04
6.989592583693e-04
8.217892384601e-04
2.052185566347e-03
9.127976493059e-04
8.321752150226e-04
4.363879187236e-03
9.217789131254e-04
4.531477394384e-03
2.466980765093e-03
3.392113409316e-03
1.824589158008e-03
-1.810358831845e-03
1.566144046836e-03
7.004053077419e-04
3.233019207767e-03
3.396970806527e-03
6.468741257329e-04
3.789982642624e-03
3.137900711342e-03
3.895532986454e-03
2.330109267854e-03
2.349090084539e-03
4.254203238424e-03
3.257066675575e-03
9.139882106870e-05
1.824580614906e-03
1.320602175871e-03
1.022085619885e-03
5.005581338392e-04
8.452175850609e-04
-8.109828111867e-05
8.357475416937e-04
2.541894831183e-03
3.342383214977e-03
2.627321326815e-03
3.285584774845e-04
4.253676004162e-03
2.885739696826e-03
2.442298054007e-03
2.752906783020e-03
-4.318913756628e-05
3.366847809831e-03
3.400683766706e-03
4.008508465787e-03
2.459735015507e-03
3.291434209052e-03
4.400775610498e-03
-3.862564833354e-04
4.410549469048e-03
3.362126601019e-03
3.563874113100e-03
3.289645454395e-03
2.372229687096e-03
3.951274778926e-03
-3.869092854143e-04
3.882782985443e-03
1.047088683069e-03
-1.168451466226e-03
2.331563126583e-03
3.492609327134e-03
2.356013158513e-03
3.571680175414e-04
1.649365267086e-04
2.367033563064e-03
3.631648072467e-03
-1.729271593716e-04
4.465765856050e-03
-8.257768163718e-04
3.228637771380e-03
2.267660642403e-04
2.467637790569e-03
4.355978369961e-03
1.166332376038e-03
3.113121632701e-03
7.750399699074e-04
3.042885339354e-03
9.725224439390e-05
4.395524724798e-03
2.409111956968e-03
4.174553170755e-03
2.791559181182e-03
-1.367350128669e-03
3.003989327737e-03
2.349185619941e-03
3.262947675264e-03
4.057110260397e-03
9.434071103739e-04
4.161013070142e-04
4.552449745690e-03
1.827149247731e-04
3.262610642124e-03
2.499263094910e-03
4.194667651911e-04
3.497890201803e-03
3.729055019859e-03
1.446780732807e-03
4.167023967576e-03
-1.106099260835e-04
-1.843423158195e-03
3.758120947164e-03
2.821401398304e-03
4.264696718172e-03
3.646780533019e-03
-3.605251396801e-04
3.596373329692e-03
1.261422606573e-03
3.255656051103e-03
2.436166903530e-03
-9.689170325947e-04
1.560672648298e-03
2.035565777110e-04
2.361440497344e-03
1.319344173623e-03
2.573882815430e-03
2.660102746507e-03
2.667914312505e-03
2.798987782008e-03
2.792867285002e-03
2.950810534111e-03
2.930803508442e-03
3.084610826254e-03

SCALARS node_materi_strain_total_size_dev_sd_ept float
LOOKUP_TABLE default
6.692309313392e-04
8.804518771448e-03
6.205954793454e-03
1.133437338367e-02
4.228659344012e-04
3.990924866814e-04
7.375453554575e-04
1.153974348530e-03
1.542464243959e-03
1.892081609792e-03
2.217059272537e-03
2.521627504178e-03
2.812571261402e-03
3.102408398922e-03
3.402334322345e-03
3.695385764614e-03
3.969409175028e-03
4.280705222707e-03
4.614848823522e-03
4.951605274736e-03
5.301834802061e-03
5.662179553820e-03
6.005077698562e-03
1.133593480605e-02
1.132127864868e-02
1.132300994872e-02
1.131646142843e-02
1.130606449269e-02
1.130395114738e-02
1.129333787314e-02
1.127117324042e-02
1.125751133858e-02
1.122640636751e-02
1.119377685317e-02
1.115596155537e-02
1.110556877002e-02
1.103691656141e-02
1.096314471733e-02
1.086035757142e-02
1.075282010830e-02
1.062555702968e-02
1.047538964265e-02
1.030400144765e-02
1.009886892613e-02
9.876774670902e-03
9.623806064014e-03
9.349219742872e-03
9.061560463989e-03
8.760521571893e-03
8.445476751227e-03
8.121947825789e-03
7.800006738946e-03
7.517224455819e-03
7.209372313335e-03
6.909971170139e-03
6.652660444114e-03
6.463429674635e-03
6.297541171585e-03
6.179029381770e-03
6.091899832122e-03
6.033056062170e-03
5.995122694993e-03
5.987016023626e-03
6.010609346318e-03
6.055633990985e-03
6.086516542966e-03
6.065963661447e-03
6.142705799960e-03
6.154586721500e-03
6.184227612118e-03
6.213731897113e-03
6.222861990326e-03
9.139661509133e-03
9.467624469426e-03
9.772337447193e-03
1.005413641058e-02
1.032405011329e-02
1.057478721365e-02
1.080716750257e-02
1.101930963520e-02
1.122649659522e-02
3.889143126120e-03
9.068705880242e-03
4.418898174107e-03
4.713974440579e-03
5.362970581915e-03
5.977132304636e-03
6.751201773705e-03
7.770845658522e-03
7.985946881994e-03
8.317501574791e-03
8.685220227413e-03
7.542640667964e-03
7.743057735704e-03
8.088277282040e-03
8.439056122445e-03
8.756289084842e-03
8.781962363050e-03
8.792041999636e-03
8.796707561209e-03
8.853898443254e-03
8.828055791178e-03
8.839981189138e-03
8.860329026241e-03
8.893922939408e-03
8.915725318943e-03
8.936460024357e-03
8.961295803995e-03
8.985779120853e-03
9.016957554601e-03
2.987226288124e-03
2.740992231766e-03
2.813057862362e-03
2.818754045284e-03
2.861020785385e-03
1.968819353170e-03
7.736799950466e-04
2.034833078203e-04
2.011342630380e-04
2.745174053719e-04
3.310272945662e-04
4.119383641230e-04
4.903067392606e-04
5.611384912264e-04
5.683957548707e-04
5.766066915176e-04
5.906366238198e-04
6.278738349777e-04
6.651398630875e-04
7.573066603570e-03
7.548868574843e-03
7.542863384322e-03
7.537029618514e-03
7.528315409554e-03
7.516576798444e-03
7.501555108396e-03
7.482988317973e-03
7.461006323255e-03
7.436103040941e-03
7.408641292863e-03
7.379048012584e-03
7.348218113559e-03
7.319376596876e-03
7.296022749108e-03
7.284629139802e-03
7.290848892395e-03
7.326753349299e-03
7.442602459204e-03
7.704696871665e-03
7.746923844333e-03
7.737476153144e-03
7.659840949196e-03
7.636607127291e-03
7.627780044733e-03
7.629391385507e-03
7.638748869802e-03
7.650463153438e-03
7.663105020385e-03
7.675683988935e-03
7.688086419663e-03
7.699296236475e-03
7.708229351649e-03
7.715535282101e-03
7.721402601937e-03
7.726374136736e-03
7.730835828449e-03
7.736581265243e-03
7.742921464157e-03
8.093467026709e-03
8.094399572511e-03
8.093142968793e-03
8.092926686212e-03
8.093327165680e-03
8.095217601737e-03
8.097305699383e-03
8.099858758058e-03
8.101226819097e-03
8.105479898817e-03
8.111703304268e-03
8.119839086785e-03
8.132320390244e-03
8.147133990485e-03
8.169959100571e-03
8.227744299537e-03
8.203101552161e-03
8.603650162696e-03
8.645464595034e-03
8.605333062354e-03
8.578022754137e-03
8.556626328169e-03
8.537158798201e-03
8.519267669722e-03
8.504903687046e-03
8.491447773246e-03
8.479566639679e-03
8.469626735343e-03
8.461403030018e-03
8.456697951034e-03
8.450846199474e-03
8.449094893667e-03
8.449015535435e-03
4.677612151907e-03
4.504135963165e-03
5.011091490169e-03
5.710993689086e-03
6.380237562087e-03
7.338279932225e-03
7.996823031385e-03
8.211835097814e-03
8.557887265589e-03
8.909377171567e-03
4.635513779048e-03
6.223881004322e-03
3.970864547991e-04
3.195390194201e-03
5.741768125619e-03
5.832661959133e-03
3.255970451780e-03
7.304868027811e-03
7.471890825741e-03
8.692236165845e-03
8.490150353836e-03
5.877077753972e-03
3.182933045951e-04
9.890392115128e-03
9.201827866380e-03
2.072452278132e-03
4.064505498256e-03
1.050904672602e-02
1.099115282054e-02
1.125123988334e-02
1.121483480373e-02
1.115597079534e-02
9.333977006829e-03
9.241943071233e-03
9.192650085778e-03
1.019461771465e-02
5.977361803824e-03
3.101370450075e-03
4.113829194903e-04
5.105896720606e-03
9.099554655136e-03
9.503489720110e-04
1.078160203790e-02
8.046622451441e-03
9.339580844606e-03
6.703419575596e-03
5.934977194787e-03
1.981181143272e-03
9.281037262262e-03
5.689902016177e-03
1.069093078180e-02
1.996159316482e-04
2.668129415424e-03
1.128448076648e-02
6.542366680917e-03
5.183016933146e-03
8.088313267715e-03
8.849195805982e-03
4.602874504477e-03
9.646437014101e-03
6.100713168358e-03
4.656089259131e-04
1.110907967652e-02
9.366160002549e-03
9.459410351161e-03
9.617883615025e-03
9.689084321829e-03
9.873822601495e-03
9.898798932149e-03
9.699316716729e-03
9.879971259729e-03
9.648495017181e-03
1.008391518437e-02
9.810041565595e-03
9.542126171007e-03
9.691314931172e-03
9.385134759015e-03
9.242861439901e-03
9.041461102190e-03
8.909256677730e-03
8.658000924929e-03
8.798597903619e-03
8.366697162020e-03
8.229969749272e-03
7.893739998405e-03
7.760342554020e-03
7.383544768049e-03
7.252131109840e-03
6.843315689601e-03
6.998786366887e-03
6.433451573354e-03
6.284153739291e-03
5.854078024759e-03
5.716255252617e-03
5.269539513318e-03
5.437003538023e-03
4.840046595281e-03
4.689560421325e-03
4.252276401325e-03
4.132592673371e-03
3.689893246945e-03
3.619965181938e-03
3.169229489462e-03
3.279340327399e-03
2.757426969789e-03
2.725386446109e-03
2.321756071445e-03
2.409042695492e-03
1.994458142484e-03
2.150190041489e-03
1.773147315223e-03
1.742160738366e-03
1.572942168510e-03
1.682317706909e-03
1.541429481719e-03
1.583391262018e-03
1.589553013072e-03
1.638265899035e-03
1.702370643986e-03
1.764317819149e-03
1.859074466757e-03
1.892006513329e-03
2.019159422673e-03
2.042155739838e-03
2.162347284140e-03
2.223826357310e-03
2.326818348451e-03
2.455725463600e-03
2.284341718453e-03
2.410270251023e-03
2.362544397074e-03
2.456717329729e-03
5.045197117814e-03
2.382119011965e-03
2.357559820501e-03
2.455179952461e-03
2.587426344897e-03
2.339537464059e-03
2.403581619787e-03
2.240464075656e-03
4.090224981387e-03
8.526231388043e-03
2.303819004182e-03
2.090126721847e-03
2.053175931483e-03
1.839672465207e-03
1.003678587062e-02
1.025125887413e-02
1.018577683793e-02
1.040709947243e-02
1.033513497896e-02
1.898390751942e-03
9.964263108137e-03
1.044557653423e-02
8.115986775325e-03
6.167322711618e-03
2.640619382736e-03
2.501559086377e-03
2.398416368676e-03
2.623187635514e-03
2.393084856104e-03
2.670713520000e-03
2.658929618117e-03
2.961960721377e-03
3.002321606332e-03
3.315755068743e-03
3.263505416322e-03
3.624993848073e-03
3.558466358120e-03
3.404561932360e-03
3.090982281606e-03
3.924886382631e-03
3.843463480072e-03
4.212703628325e-03
4.115815706817e-03
3.772556623056e-03
4.025036475616e-03
3.704121866435e-03
2.451275363523e-03
2.979034601489e-03
2.847579768136e-03
3.388765962422e-03
3.304436347402e-03
3.849089085381e-03
3.802973371769e-03
3.304189923225e-03
9.529044420011e-03
2.405882785142e-03
2.839439696433e-03
2.661262328725e-03
3.096084275489e-03
3.066438158908e-03
3.476606517152e-03
3.594602609222e-03
3.223958067685e-03
3.883545620354e-03
3.521585916191e-03
4.228933087509e-03
3.884350169584e-03
6.618183696401e-03
3.969322232443e-03
4.431006201668e-03
4.570962026831e-03
1.812233041689e-03
4.373319113018e-03
3.543220506209e-03
3.240746014751e-03
3.834785698196e-03
1.596620533936e-03
3.938194611650e-03
3.886936015484e-03
1.054630912896e-02
1.046779655253e-02
3.740628821945e-03
1.678604992537e-03
4.028134653338e-03
4.430199877250e-03
4.263375183839e-03
4.613409751554e-03
3.233671756678e-03
5.034303200934e-03
5.180776840396e-03
3.159554839405e-03
3.487496346862e-03
4.067906481630e-03
3.670097536329e-03
3.115766804919e-03
3.292020522071e-03
3.653457244650e-03
3.304654222593e-03
2.959269105344e-03
2.959128560239e-03
3.064475014608e-03
2.768518898667e-03
4.742973630588e-03
4.570280507676e-03
9.107836289961e-03
4.032833251476e-03
4.335919653177e-03
1.067304456085e-02
1.058979931491e-02
1.036121042034e-02
1.048395200555e-02
1.070136791622e-02
1.059807394757e-02
1.036066512668e-02
1.047893218155e-02
1.022326571225e-02
1.034740775179e-02
1.059195070690e-02
1.046621505925e-02
1.020678147526e-02
1.033256040990e-02
1.005981442202e-02
1.019152496181e-02
1.045435061091e-02
1.342438744822e-03
3.383368947832e-03
3.940391297121e-03
2.520096288333e-03
2.757683484997e-03
2.851098558586e-03
3.012470659173e-03
1.031985112626e-02
1.057391027210e-02
4.252179025623e-03
4.275985343458e-03
1.072989527442e-02
4.487243078507e-03
4.154065150173e-03
5.616216549247e-03
6.074431442332e-03
5.546734389538e-03
5.996182113027e-03
6.525828454191e-03
5.500511767899e-03
2.783129510289e-03
1.069966995660e-02
2.057329275921e-03
1.822048254495e-03
4.837998469825e-03
2.864440057087e-03
7.187655532597e-03
6.839694465132e-03
7.410751069773e-03
7.097808461347e-03
7.668512581711e-03
7.394405922718e-03
6.811059648914e-03
5.646594378792e-03
7.154784504695e-03
1.004260244468e-02
4.153248551421e-03
2.684163453235e-03
1.249197954988e-03
2.619863005952e-03
1.436529926089e-03
1.780859348924e-03
4.271023375986e-03
7.964778915266e-03
8.208744124712e-03
6.443015119014e-03
6.958354597032e-03
5.534310169882e-03
1.009003104319e-02
1.009421130209e-02
9.936863318240e-03
1.022623200749e-03
2.913919806455e-03
1.080571349112e-02
3.994377837685e-03
4.417863357596e-03
4.534818803240e-03
4.455043491553e-03
1.044334209396e-02
1.068562455731e-02
3.092565089637e-03
3.274474791103e-03
4.005002699724e-03
2.426241077214e-03
1.080262045735e-02
3.001660367454e-03
2.505571163456e-03
2.906929020233e-03
4.502681038572e-03
4.446632537594e-03
2.571417136270e-03
2.524686545363e-03
1.558204354579e-03
4.570565717726e-03
1.088701351709e-02
6.562322515206e-03
6.211297499949e-03
6.949907041948e-03
2.115767285806e-03
4.561626647529e-03
4.696663491006e-03
8.493921090999e-03
8.709944703490e-03
4.242129894323e-03
4.680619619317e-03
4.814030207582e-03
5.109631032870e-03
9.480689853159e-03
4.599453360789e-03
8.791033809629e-03
8.975332663571e-03
8.678086013879e-03
7.051337782646e-03
7.466859240588e-03
3.304937724424e-03
3.198482198641e-03
2.913921381083e-03
3.462315045761e-03
2.361064809175e-03
1.080791275803e-02
1.090762778887e-02
9.921700866549e-03
9.760783542040e-03
1.491059014639e-03
1.483203802580e-03
2.703108578826e-03
4.331173952921e-03
1.084594200122e-02
1.088337944004e-02
1.075988941906e-02
4.327366945817e-03
2.265706242493e-03
2.366991800627e-03
4.539092395904e-03
5.650416211819e-03
1.084225519860e-03
8.956174008596e-03
5.047594888166e-03
5.200881108919e-03
6.136703754570e-03
9.278640751670e-03
5.303959739514e-03
4.691027632272e-03
8.832429167595e-03
8.563999561226e-03
8.335398300219e-03
8.238605921537e-03
2.409798928402e-03
2.495356133384e-03
8.335662133068e-03
7.540457411890e-03
8.977099429867e-03
9.177708239363e-03
6.061986368948e-03
5.467213582586e-03
1.891494880481e-03
7.371989168182e-03
1.098385046513e-02
9.073401555371e-03
4.843082851261e-03
4.634348727084e-03
4.341439418492e-03
4.428614858717e-03
1.091046837735e-02
5.183088364622e-03
5.492637911996e-03
4.917278312160e-03
5.822805640882e-03
9.070846398512e-03
5.406996019395e-03
7.557562008947e-03
1.101578552523e-02
5.002826193942e-03
5.080037047523e-03
3.759303776002e-03
1.078624869009e-02
1.102296439974e-02
9.793800992214e-03
9.616914316402e-03
9.948810607198e-03
4.494027439890e-03
4.517428766504e-03
1.080422081533e-02
2.262297368293e-03
2.407445743079e-03
2.251579062850e-03
2.347136670577e-03
3.150309971847e-03
2.948715007550e-03
8.710481433862e-03
9.139708379823e-03
7.732429985024e-03
2.700593169164e-03
2.249010582164e-03
2.067955713734e-03
1.099031471883e-02
1.110073948897e-02
2.233940141699e-03
2.360690264854e-03
2.326771581138e-03
1.104638594757e-02
5.568762951500e-03
5.358698240091e-03
1.024900623879e-03
1.487676022449e-03
4.564903951197e-03
4.498748028531e-03
1.088486405352e-02
1.076282352508e-02
1.101046376455e-02
1.656158228340e-03
5.971036210969e-03
4.913112659839e-03
4.707554126388e-03
5.230601062187e-03
6.241390669494e-03
6.713048202350e-03
7.392697749630e-03
4.131659784075e-03
1.094514927040e-02
9.594752479277e-03
3.737530244268e-03
9.424678725483e-03
9.595414893690e-03
9.238734017369e-03
1.296750901020e-03
9.588997646844e-03
9.803406584939e-03
8.324569621432e-04
1.112482764384e-02
6.252653651650e-04
7.241414870127e-04
5.125511972388e-03
4.919764547276e-03
5.386947085347e-03
5.182698614140e-03
4.747970394469e-03
5.029201655145e-03
9.431953713180e-03
5.505600709186e-03
5.300565387364e-03
5.764496308207e-03
8.438411574989e-03
5.495904567155e-03
5.890049218623e-03
5.889074122666e-03
9.473517321700e-03
9.573959236700e-03
4.899452361664e-03
4.558482772611e-03
9.412676230423e-03
9.379469906957e-03
9.671289744939e-03
9.621591683118e-03
9.900832339190e-03
9.847136013454e-03
1.011831851269e-02
8.033840395070e-03
5.219284796385e-03
8.887645932743e-03
6.025670366668e-03
5.423843769405e-03
7.843334932187e-03
7.761598407686e-03
5.186898107070e-03
4.131310589174e-03
1.117651934457e-02
3.715079421034e-03
4.235771790447e-03
4.569075963417e-03
7.933282542417e-03
5.936679855212e-03
6.379780462510e-03
3.208519094563e-03
1.521218586223e-03
4.711987620039e-03
1.016326914171e-02
4.704332219485e-03
4.760209307317e-03
3.651771025684e-03
7.145458394976e-03
4.622312821994e-03
5.061900868886e-03
9.391827599881e-03
9.502523652971e-03
9.294593286371e-03
3.175351474426e-03
6.876558763825e-03
6.794038499035e-03
8.535137784516e-03
1.061545509205e-02
1.060275460330e-02
1.072593141200e-02
1.055926889984e-02
1.041901742290e-02
1.035638437445e-02
1.049083888141e-02
1.026668749149e-02
1.043839674297e-02
1.014203958399e-02
9.987189032263e-03
9.842892164277e-03
9.995149145521e-03
9.681631366754e-03
6.635187943199e-03
4.597018890706e-03
4.327179015230e-03
4.650667040144e-03
7.650667588789e-03
1.065435425977e-02
1.091535741905e-02
3.549221095138e-03
9.628152109539e-03
9.239362999352e-03
4.154836748137e-03
9.028126028191e-03
1.045052370280e-02
1.026024789224e-02
1.027572040762e-02
1.106595103195e-02
1.009906083833e-02
7.723849489458e-03
3.554313288814e-03
3.789426776035e-03
3.492649605070e-03
1.011241995816e-02
6.446829390681e-03
5.751368317448e-03
5.563159352986e-03
5.071695948750e-03
6.047562785393e-03
1.033880008355e-02
1.014009795456e-02
2.808377049578e-03
2.563027827920e-03
2.097838338310e-03
2.280396727086e-03
2.835719971110e-03
2.538199612103e-03
2.040842149112e-03
2.860482776735e-03
9.349466618774e-03
5.843487589970e-03
2.690160912794e-03
2.386931977712e-03
2.078349784303e-03
2.743268354204e-03
2.752955396724e-03
2.960551495283e-03
2.700793875631e-03
6.508780676119e-03
5.781062419993e-03
2.388625307977e-03
2.570075728200e-03
9.317162410964e-03
9.614807913106e-03
9.635831032486e-03
9.902337025056e-03
9.628045016882e-03
3.352153332569e-03
3.548357110281e-03
3.450798604245e-03
3.735758610972e-03
3.611968510841e-03
3.348169831595e-03
3.908800961162e-03
3.746080586620e-03
9.261994090271e-03
2.902418261910e-03
3.339103896880e-03
2.486371104302e-03
3.369650651603e-03
3.937521741019e-03
3.729595592072e-03
4.249677244010e-03
3.996005748096e-03
1.139073846020e-03
1.791069680563e-03
6.502858210237e-04
1.294065156125e-03
2.192538318294e-03
1.887077581955e-03
5.968898942964e-03
2.952338849109e-03
2.808179141729e-03
2.534392939561e-03
2.669837436751e-03
3.057955447303e-03
2.377965061613e-03
2.267348556717e-03
4.333182832444e-04
3.311950558341e-04
3.272888016379e-04
5.854934677341e-04
5.892859868146e-04
3.331202899449e-04
3.361681782788e-04
3.846984446052e-04
3.530651080599e-04
6.773143192802e-04
3.584601376315e-04
1.045601989968e-02
1.059288100122e-02
5.728862225655e-03
9.241461710822e-03
2.652031495833e-04
1.122720486624e-02
1.124038281853e-02
1.124925158126e-02
5.465706803594e-03
5.625730739050e-03
1.123339849495e-02
2.217596796441e-03
1.068431788036e-02
1.090666753704e-02
4.336662537882e-03
2.475681247449e-03
4.360916490391e-03
3.508200240616e-03
4.979376872603e-03
3.935259016477e-03
4.486468948883e-03
5.362020940653e-03
1.193378506371e-03
1.007419780724e-02
9.907658310345e-03
1.058112670813e-02
2.162254009634e-03
3.185904611875e-03
1.533558259083e-03
8.854853458959e-03
8.431800708809e-03
2.129125836631e-03
2.565514988283e-03
2.322025152097e-03
2.672089865826e-03
5.151017992942e-03
2.521542465524e-03
3.718659908215e-03
1.069323344468e-02
2.301262851769e-04
3.850741145043e-03
2.952881469911e-03
1.023552718006e-02
4.348903656451e-03
3.403542558572e-03
1.070548818760e-02
1.098060341695e-02
9.956463572654e-03
1.150235572074e-03
9.771581149063e-03
4.835554573477e-03
1.059673101234e-02
1.984821655051e-03
2.003279263464e-03
6.718039239154e-03
9.023619892057e-03
1.099549676974e-02
4.440061563296e-03
4.406638150427e-03
2.810498700617e-03
2.093510025988e-03
4.464870775736e-03
2.923504444494e-03
1.090435922318e-02
7.953482914484e-03
2.030056291743e-03
1.078498715090e-02
1.828704779016e-03
4.932769677579e-03
8.020992069906e-03
7.542458536003e-03
9.184645661766e-03
6.032440146650e-03
4.229011005141e-03
4.161265619558e-03
4.436827540359e-03
5.052131600638e-03
1.022844759986e-02
7.720992444581e-03
1.107409312171e-02
6.616215115473e-03
4.324765547244e-03
1.094569337948e-02
2.735779812390e-03
1.385566376527e-03
4.512400179499e-03
2.673821780913e-03
3.848353608863e-03
2.957620965285e-03
1.087812762728e-02
4.608438675486e-03
3.462564359016e-03
4.498404034008e-03
9.086677247467e-03
4.878745454109e-03
1.978985861354e-03
4.880277028933e-03
3.468854095093e-03
8.491158251713e-03
8.140254355621e-03
5.137740348119e-03
3.544373482137e-03
3.781203054513e-03
9.089024211317e-03
5.596719480256e-03
4.119772996816e-03
6.250737543268e-03
1.725091103568e-03
8.671752007844e-03
3.212693733417e-03
8.053373979234e-03
1.111724735239e-02
4.522499441624e-03
1.008762880235e-02
3.187673901557e-03
4.758487258108e-03
6.143055167886e-04
8.680054545104e-03
3.412950115107e-03
2.322449772323e-03
1.878916562192e-03
6.661179574003e-03
3.631927377228e-03
1.935753004524e-03
3.841120765646e-03
8.307751238851e-03
1.004884460261e-02
4.039836579315e-03
8.240088099077e-03
7.886813292398e-04
5.908878673043e-03
5.255779274218e-03
2.315187970836e-03
2.109059165794e-03
1.020650946670e-02
7.801358133983e-03
2.495475745945e-03
8.458551410100e-03
5.612911367558e-03
4.086853670970e-03
2.953630989791e-03
7.311316069418e-03
2.247311577758e-03
2.118180477879e-03
1.701009004990e-03
8.929751891587e-03
9.264192390987e-04
9.839072718583e-03
1.980870700550e-03
1.848496962503e-03
5.791963461902e-03
9.934510233332e-03
1.756362413071e-03
1.742870305853e-03
1.999261841292e-03
4.391655867284e-03
1.983342510470e-03
2.183544253492e-03
1.109476432711e-02
2.204233000720e-03
1.126642114823e-02
6.032215333877e-03
9.329178640979e-03
7.034243644461e-03
2.928865531499e-03
6.280016385257e-03
2.390947148811e-03
9.339913221341e-03
9.347765494312e-03
2.365704526800e-03
1.026286727489e-02
8.382138410246e-03
1.033743537496e-02
4.896140725379e-03
5.373071512848e-03
1.089850793362e-02
9.109542031788e-03
9.772879431162e-04
4.423066974593e-03
6.137716620603e-03
5.506020328703e-03
4.930544707749e-03
2.187901248041e-03
2.716359434882e-03
5.508091975349e-03
5.939414120374e-03
9.501443683669e-03
6.374038452810e-03
4.868937948100e-03
1.107171357770e-02
7.374033149037e-03
5.832819275491e-03
6.818339452888e-03
4.599582489664e-03
9.846560179937e-03
9.183968699909e-03
1.054655686463e-02
5.929012602333e-03
9.515675704476e-03
1.111215843721e-02
4.427040313085e-03
1.111056968846e-02
9.516466878631e-03
9.761481150066e-03
9.825508924708e-03
5.773878038091e-03
1.062240917834e-02
4.592641794363e-03
1.033353457827e-02
2.654685120921e-03
4.081886379609e-03
5.311069647329e-03
9.694748161778e-03
5.693122703158e-03
5.620960448122e-04
5.104465433080e-04
5.348075922851e-03
9.846820705291e-03
4.014546739085e-03
1.123393360456e-02
4.529282101758e-03
9.112383770928e-03
3.647922773005e-04
5.975348016253e-03
1.112876954087e-02
2.921619440639e-03
9.354099873386e-03
1.977481673651e-03
8.009693001553e-03
1.665997355101e-03
1.114532642808e-02
5.449942318715e-03
1.097593761571e-02
7.185184683381e-03
3.869972800387e-03
7.850034363259e-03
5.038124905891e-03
9.085126427156e-03
1.080206502329e-02
2.423965354173e-03
1.026587792343e-03
1.128494823811e-02
5.424442482285e-04
9.033298605149e-03
6.119527655655e-03
8.660804031099e-04
9.564725108443e-03
1.008804468642e-02
3.558664327717e-03
1.077129843971e-02
3.257447866744e-03
2.956473071654e-03
1.008779039574e-02
7.141252637256e-03
1.107974001907e-02
9.915214267983e-03
4.531303913470e-03
9.849903551129e-03
3.119834678001e-03
8.795560797774e-03
5.402630839808e-03
4.426860309132e-03
3.815706176884e-03
3.673213623602e-04
5.552394936491e-03
3.260672216443e-03
7.760628447627e-03
7.591979972104e-03
8.068378495149e-03
7.903978129050e-03
8.464015247219e-03
8.276862778815e-03
8.833654412593e-03
8.609806398694e-03


CELL_DATA 2085

SCALARS element_number int
LOOKUP_TABLE default
407
408
409
410
411
412
413
414
415
416
417
418
419
420
421
422
423
424
425
426
427
428
429
430
431
432
433
434
435
436
437
438
439
440
441
442
443
444
445
446
447
448
449
450
451
452
453
454
455
456
457
458
459
460
461
462
463
464
465
466
467
468
469
470
471
472
473
474
475
476
477
478
479
480
481
482
483
484
485
486
487
488
489
490
491
492
493
494
495
496
497
498
499
500
501
502
503
504
505
506
507
508
509
510
511
512
513
514
515
516
517
518
519
520
521
522
523
524
525
526
527
528
529
530
531
532
533
534
535
536
537
538
539
540
541
542
543
544
545
546
547
548
549
550
551
552
553
554
555
556
557
558
559
560
561
562
563
564
565
566
567
568
569
570
571
572
573
574
575
576
577
578
579
580
581
582
583
584
585
586
587
588
589
590
591
592
593
594
595
596
597
598
599
600
601
602
603
604
605
606
607
608
609
610
611
612
613
614
615
616
617
618
619
620
621
622
623
624
625
626
627
628
629
630
631
632
633
634
635
636
637
638
639
640
641
642
643
644
645
646
647
648
649
650
651
652
653
654
655
656
657
658
659
660
661
662
663
664
665
666
667
668
669
670
671
672
673
674
675
676
677
678
679
680
681
682
683
684
685
686
687
688
689
690
691
692
693
694
695
696
697
698
699
700
701
702
703
704
705
706
707
708
709
710
711
712
713
714
715
716
717
718
719
720
721
722
723
724
725
726
727
728
729
730
731
732
733
734
735
736
737
738
739
740
741
742
743
744
745
746
747
748
749
750
751
752
753
754
755
756
757
758
759
760
761
762
763
764
765
766
767
768
769
770
771
772
773
774
775
776
777
778
779
780
781
782
783
784
785
786
787
788
789
790
791
792
793
794
795
796
797
798
799
800
801
802
803
804
805
806
807
808
809
810
811
812
813
814
815
816
817
818
819
820
821
822
823
824
825
826
827
828
829
830
831
832
833
834
835
836
837
838
839
840
841
842
843
844
845
846
847
848
849
850
851
852
853
854
855
856
857
858
859
860
861
862
863
864
865
866
867
868
869
870
871
872
873
874
875
876
877
878
879
880
881
882
883
884
885
886
887
888
889
890
891
892
893
894
895
896
897
898
899
900
901
902
903
904
905
906
907
908
909
910
911
912
913
914
915
916
917
918
919
920
921
922
923
924
925
926
927
928
929
930
931
932
933
934
935
936
937
938
939
940
941
942
943
944
945
946
947
948
949
950
951
952
953
954
955
956
957
958
959
960
961
962
963
964
965
966
967
968
969
970
971
972
973
974
975
976
977
978
979
980
981
982
983
984
985
986
987
988
989
990
991
992
993
994
995
996
997
998
999
1000
1001
1002
1003
1004
1005
1006
1007
1008
1009
1010
1011
1012
1013
1014
1015
1016
1017
1018
1019
1020
1021
1022
1023
1024
1025
1026
1027
1028
1029
1030
1031
1032
1033
1034
1035
1036
1037
1038
1039
1040
1041
1042
1043
1044
1045
1046
1047
1048
1049
1050
1051
1052
1053
1054
1055
1056
1057
1058
1059
1060
1061
1062
1063
1064
1065
1066
1067
1068
1069
1070
1071
1072
1073
1074
1075
1076
1077
1078
1079
1080
1081
1082
1083
1084
1085
1086
1087
1088
1089
1090
1091
1092
1093
1094
1095
1096
1097
1098
1099
1100
1101
1102
1103
1104
1105
1106
1107
1108
1109
1110
1111
1112
1113
1114
1115
1116
1117
1118
1119
1120
1121
1122
1123
1124
1125
1126
1127
1128
1129
1130
1131
1132
1133
1134
1135
1136
1137
1138
1139
1140
1141
1142
1143
1144
1145
1146
1147
1148
1149
1150
1151
1152
1153
1154
1155
1156
1157
1158
1159
1160
1161
1162
1163
1164
1165
1166
1167
1168
1169
1170
1171
1172
1173
1174
1175
1176
1177
1178
1179
1180
1181
1182
1183
1184
1185
1186
1187
1188
1189
1190
1191
1192
1193
1194
1195
1196
1197
1198
1199
1200
1201
1202
1203
1204
1205
1206
1207
1208
1209
1210
1211
1212
1213
1214
1215
1216
1217
1218
1219
1220
1221
1222
1223
1224
1225
1226
1227
1228
1229
1230
1231
1232
1233
1234
1235
1236
1237
1238
1239
1240
1241
1242
1243
1244
1245
1246
1247
1248
1249
1250
1251
1252
1253
1254
1255
1256
1257
1258
1259
1260
1261
1262
1263
1264
1265
1266
1267
1268
1269
1270
1271
1272
1273
1274
1275
1276
1277
1278
1279
1280
1281
1282
1283
1284
1285
1286
1287
1288
1289
1290
1291
1292
1293
1294
1295
1296
1297
1298
1299
1300
1301
1302
1303
1304
1305
1306
1307
1308
1309
1310
1311
1312
1313
1314
1315
1316
1317
1318
1319
1320
1321
1322
1323
1324
1325
1326
1327
1328
1329
1330
1331
1332
1333
1334
1335
1336
1337
1338
1339
1340
1341
1342
1343
1344
1345
1346
1347
1348
1349
1350
1351
1352
1353
1354
1355
1356
1357
1358
1359
1360
1361
1362
1363
1364
1365
1366
1367
1368
1369
1370
1371
1372
1373
1374
1375
1376
1377
1378
1379
1380
1381
1382
1383
1384
1385
1386
1387
1388
1389
1390
1391
1392
1393
1394
1395
1396
1397
1398
1399
1400
1401
1402
1403
1404
1405
1406
1407
1408
1409
1410
1411
1412
1413
1414
1415
1416
1417
1418
1419
1420
1421
1422
1423
1424
1425
1426
1427
1428
1429
1430
1431
1432
1433
1434
1435
1436
1437
1438
1439
1440
1441
1442
1443
1444
1445
1446
1447
1448
1449
1450
1451
1452
1453
1454
1455
1456
1457
1458
1459
1460
1461
1462
1463
1464
1465
1466
1467
1468
1469
1470
1471
1472
1473
1474
1475
1476
1477
1478
1479
1480
1481
1482
1483
1484
1485
1486
1487
1488
1489
1490
1491
1492
1493
1494
1495
1496
1497
1498
1499
1500
1501
1502
1503
1504
1505
1506
1507
1508
1509
1510
1511
1512
1513
1514
1515
1516
1517
1518
1519
1520
1521
1522
1523
1524
1525
1526
1527
1528
1529
1530
1531
1532
1533
1534
1535
1536
1537
1538
1539
1540
1541
1542
1543
1544
1545
1546
1547
1548
1549
1550
1551
1552
1553
1554
1555
1556
1557
1558
1559
1560
1561
1562
1563
1564
1565
1566
1567
1568
1569
1570
1571
1572
1573
1574
1575
1576
1577
1578
1579
1580
1581
1582
1583
1584
1585
1586
1587
1588
1589
1590
1591
1592
1593
1594
1595
1596
1597
1598
1599
1600
1601
1602
1603
1604
1605
1606
1607
1608
1609
1610
1611
1612
1613
1614
1615
1616
1617
1618
1619
1620
1621
1622
1623
1624
1625
1626
1627
1628
1629
1630
1631
1632
1633
1634
1635
1636
1637
1638
1639
1640
1641
1642
1643
1644
1645
1646
1647
1648
1649
1650
1651
1652
1653
1654
1655
1656
1657
1658
1659
1660
1661
1662
1663
1664
1665
1666
1667
1668
1669
1670
1671
1672
1673
1674
1675
1676
1677
1678
1679
1680
1681
1682
1683
1684
1685
1686
1687
1688
1689
1690
1691
1692
1693
1694
1695
1696
1697
1698
1699
1700
1701
1702
1703
1704
1705
1706
1707
1708
1709
1710
1711
1712
1713
1714
1715
1716
1717
1718
1719
1720
1721
1722
1723
1724
1725
1726
1727
1728
1729
1730
1731
1732
1733
1734
1735
1736
1737
1738
1739
1740
1741
1742
1743
1744
1745
1746
1747
1748
1749
1750
1751
1752
1753
1754
1755
1756
1757
1758
1759
1760
1761
1762
1763
1764
1765
1766
1767
1768
1769
1770
1771
1772
1773
1774
1775
1776
1777
1778
1779
1780
1781
1782
1783
1784
1785
1786
1787
1788
1789
1790
1791
1792
1793
1794
1795
1796
1797
1798
1799
1800
1801
1802
1803
1804
1805
1806
1807
1808
1809
1810
1811
1812
1813
1814
1815
1816
1817
1818
1819
1820
1821
1822
1823
1824
1825
1826
1827
1828
1829
1830
1831
1832
1833
1834
1835
1836
1837
1838
1839
1840
1841
1842
1843
1844
1845
1846
1847
1848
1849
1850
1851
1852
1853
1854
1855
1856
1857
1858
1859
1860
1861
1862
1863
1864
1865
1866
1867
1868
1869
1870
1871
1872
1873
1874
1875
1876
1877
1878
1879
1880
1881
1882
1883
1884
1885
1886
1887
1888
1889
1890
1891
1892
1893
1894
1895
1896
1897
1898
1899
1900
1901
1902
1903
1904
1905
1906
1907
1908
1909
1910
1911
1912
1913
1914
1915
1916
1917
1918
1919
1920
1921
1922
1923
1924
1925
1926
1927
1928
1929
1930
1931
1932
1933
1934
1935
1936
1937
1938
1939
1940
1941
1942
1943
1944
1945
1946
1947
1948
1949
1950
1951
1952
1953
1954
1955
1956
1957
1958
1959
1960
1961
1962
1963
1964
1965
1966
1967
1968
1969
1970
1971
1972
1973
1974
1975
1976
1977
1978
1979
1980
1981
1982
1983
1984
1985
1986
1987
1988
1989
1990
1991
1992
1993
1994
1995
1996
1997
1998
1999
2000
2001
2002
2003
2004
2005
2006
2007
2008
2009
2010
2011
2012
2013
2014
2015
2016
2017
2018
2019
2020
2021
2022
2023
2024
2025
2026
2027
2028
2029
2030
2031
2032
2033
2034
2035
2036
2037
2038
2039
2040
2041
2042
2043
2044
2045
2046
2047
2048
2049
2050
2051
2052
2053
2054
2055
2056
2057
2058
2059
2060
2061
2062
2063
2064
2065
2066
2067
2068
2069
2070
2071
2072
2073
2074
2075
2076
2077
2078
2079
2080
2081
2082
2083
2084
2085
2086
2087
2088
2089
2090
2091
2092
2093
2094
2095
2096
2097
2098
2099
2100
2101
2102
2103
2104
2105
2106
2107
2108
2109
2110
2111
2112
2113
2114
2115
2116
2117
2118
2119
2120
2121
2122
2123
2124
2125
2126
2127
2128
2129
2130
2131
2132
2133
2134
2135
2136
2137
2138
2139
2140
2141
2142
2143
2144
2145
2146
2147
2148
2149
2150
2151
2152
2153
2154
2155
2156
2157
2158
2159
2160
2161
2162
2163
2164
2165
2166
2167
2168
2169
2170
2171
2172
2173
2174
2175
2176
2177
2178
2179
2180
2181
2182
2183
2184
2185
2186
2187
2188
2189
2190
2191
2192
2193
2194
2195
2196
2197
2198
2199
2200
2201
2202
2203
2204
2205
2206
2207
2208
2209
2210
2211
2212
2213
2214
2215
2216
2217
2218
2219
2220
2221
2222
2223
2224
2225
2226
2227
2228
2229
2230
2231
2232
2233
2234
2235
2236
2237
2238
2239
2240
2241
2242
2243
2244
2245
2246
2247
2248
2249
2250
2251
2252
2253
2254
2255
2256
2257
2258
2259
2260
2261
2262
2263
2264
2265
2266
2267
2268
2269
2270
2271
2272
2273
2274
2275
2276
2277
2278
2279
2280
2281
2282
2283
2284
2285
2286
2287
2288
2289
2290
2291
2292
2293
2294
2295
2296
2297
2298
2299
2300
2301
2302
2303
2304
2305
2306
2307
2308
2309
2310
2311
2312
2313
2314
2315
2316
2317
2318
2319
2320
2321
2322
2323
2324
2325
2665
2666
2667
2668
2669
2670
2671
2672
2673
2674
2675
2676
2677
2678
2679
2680
2681
2682
2683
2684
2685
2686
2687
2688
2689
2690
2691
2692
2693
2694
2695
2696
2697
2698
2699
2700
2701
2702
2703
2704
2705
2706
2707
2708
2709
2710
2711
2712
2713
2714
2715
2716
2717
2718
2719
2720
2721
2722
2723
2724
2725
2726
2727
2728
2729
2730
2731
2732
2733
2734
2735
2736
2737
2738
2739
2740
2741
2742
2743
2744
2745
2746
2747
2748
2749
2750
2751
2752
2753
2754
2755
2756
2757
2758
2759
2760
2761
2762
2763
2764
2765
2766
2767
2768
2769
2770
2771
2772
2773
2774
2775
2776
2777
2778
2779
2780
2781
2782
2783
2784
2785
2786
2787
2788
2789
2790
2791
2792
2793
2794
2795
2796
2797
2798
2799
2800
2801
2802
2803
2804
2805
2806
2807
2808
2809
2810
2811
2812
2813
2814
2815
2816
2817
2818
2819
2820
2821
2822
2823
2824
2825
2826
2827
2828
2829
2830

SCALARS element_group int
LOOKUP_TABLE default
0
0
0
0
0
0
0
0
0
0
0
0
0
0
0
0
0
0
0
0
0
0
0
0
0
0
0
0
0
0
0
0
0
0
0
0
0
0
0
0
0
0
0
0
0
0
0
0
0
0
0
0
0
0
0
0
0
0
0
0
0
0
0
0
0
0
0
0
0
0
0
0
0
0
0
0
0
0
0
0
0
0
0
0
0
0
0
0
0
0
0
0
0
0
0
0
0
0
0
0
0
0
0
0
0
0
0
0
0
0
0
0
0
0
0
0
0
0
0
0
0
0
0
0
0
0
0
0
0
0
0
0
0
0
0
0
0
0
0
0
0
0
0
0
0
0
0
0
0
0
0
0
0
0
0
0
0
0
0
0
0
0
0
0
0
0
0
0
0
0
0
0
0
0
0
0
0
0
0
0
0
0
0
0
0
0
0
0
0
0
0
0
0
0
0
0
0
0
0
0
0
0
0
0
0
0
0
0
0
0
0
0
0
0
0
0
0
0
0
0
0
0
0
0
0
0
0
0
0
0
0
0
0
0
0
0
0
0
0
0
0
0
0
0
0
0
0
0
0
0
0
0
0
0
0
0
0
0
0
0
0
0
0
0
0
0
0
0
0
0
0
0
0
0
0
0
0
0
0
0
0
0
0
0
0
0
0
0
0
0
0
0
0
0
0
0
0
0
0
0
0
0
0
0
0
0
0
0
0
0
0
0
0
0
0
0
0
0
0
0
0
0
0
0
0
0
0
0
0
0
0
0
0
0
0
0
0
0
0
0
0
0
0
0
0
0
0
0
0
0
0
0
0
0
0
0
0
0
0
0
0
0
0
0
0
0
0
0
0
0
0
0
0
0
0
0
0
0
0
0
0
0
0
0
0
0
0
0
0
0
0
0
0
0
0
0
0
0
0
0
0
0
0
0
0
0
0
0
0
0
0
0
0
0
0
0
0
0
0
0
0
0
0
0
0
0
0
0
0
0
0
0
0
0
0
0
0
0
0
0
0
0
0
0
0
0
0
0
0
0
0
0
0
0
0
0
0
0
0
0
0
0
0
0
0
0
0
0
0
0
0
0
0
0
0
0
0
0
0
0
0
0
0
0
0
0
0
0
0
0
0
0
0
0
0
0
0
0
0
0
0
0
0
0
0
0
0
0
0
0
0
0
0
0
0
0
0
0
0
0
0
0
0
0
0
0
0
0
0
0
0
0
0
0
0
0
0
0
0
0
0
0
0
0
0
0
0
0
0
0
0
0
0
0
0
0
0
0
0
0
0
0
0
0
0
0
0
0
0
0
0
0
0
0
0
0
0
0
0
0
0
0
0
0
0
0
0
0
0
0
0
0
0
0
0
0
0
0
0
0
0
0
0
0
0
0
0
0
0
0
0
0
0
0
0
0
0
0
0
0
0
0
0
0
0
0
0
0
0
0
0
0
0
0
0
0
0
0
0
0
0
0
0
0
0
0
0
0
0
0
0
0
0
0
0
0
0
0
0
0
0
0
0
0
0
0
0
0
0
0
0
0
0
0
0
0
0
0
0
0
0
0
0
0
0
0
0
0
0
0
0
0
0
0
0
0
0
0
0
0
0
0
0
0
0
0
0
0
0
0
0
0
0
0
0
0
0
0
0
0
0
0
0
0
0
0
0
0
0
0
0
0
0
0
0
0
0
0
0
0
0
0
0
0
0
0
0
0
0
0
0
0
0
0
0
0
0
0
0
0
0
0
0
0
0
0
0
0
0
0
0
0
0
0
0
0
0
0
0
0
0
0
0
0
0
0
0
0
0
0
0
0
0
0
0
0
0
0
0
0
0
0
0
0
0
0
0
0
0
0
0
0
0
0
0
0
0
0
0
0
0
0
0
0
0
0
0
0
0
0
0
0
0
0
0
0
0
0
0
0
0
0
0
0
0
0
0
0
0
0
0
0
0
0
0
0
0
0
0
0
0
0
0
0
0
0
0
0
0
0
0
0
0
0
0
0
0
0
0
0
0
0
0
0
0
0
0
0
0
0
0
0
0
0
0
0
0
0
0
0
0
0
0
0
0
0
0
0
0
0
0
0
0
0
0
0
0
0
0
0
0
0
0
0
0
0
0
0
0
0
0
0
0
0
0
0
0
0
0
0
0
0
0
0
0
0
0
0
0
0
0
0
0
0
0
0
0
0
0
0
0
0
0
0
0
0
0
0
0
0
0
0
0
0
0
0
0
0
0
0
0
0
0
0
0
0
0
0
0
0
0
0
0
0
0
0
0
0
0
0
0
0
0
0
0
0
0
0
0
0
0
0
0
0
0
0
0
0
0
0
0
0
0
0
0
0
0
0
0
0
0
0
0
0
0
0
0
0
0
0
0
0
0
0
0
0
0
0
0
0
0
0
0
0
0
0
0
0
0
0
0
0
0
0
0
0
0
0
0
0
0
0
0
0
0
0
0
0
0
0
0
0
0
0
0
0
0
0
0
0
0
0
0
0
0
0
0
0
0
0
0
0
0
0
0
0
0
0
0
0
0
0
0
0
0
0
0
0
0
0
0
0
0
0
0
0
0
0
0
0
0
0
0
0
0
0
0
0
0
0
0
0
0
0
0
0
0
0
0
0
0
0
0
0
0
0
0
0
0
0
0
0
0
0
0
0
0
0
0
0
0
0
0
0
0
0
0
0
0
0
0
0
0
0
0
0
0
0
0
0
0
0
0
0
0
0
0
0
0
0
0
0
0
0
0
0
0
0
0
0
0
0
0
0
0
0
0
0
0
0
0
0
0
0
0
0
0
0
0
0
0
0
0
0
0
0
0
0
0
0
0
0
0
0
0
0
0
0
0
0
0
0
0
0
0
0
0
0
0
0
0
0
0
0
0
0
0
0
0
0
0
0
0
0
0
0
0
0
0
0
0
0
0
0
0
0
0
0
0
0
0
0
0
0
0
0
0
0
0
0
0
0
0
0
0
0
0
0
0
0
0
0
0
0
0
0
0
0
0
0
0
0
0
0
0
0
0
0
0
0
0
0
0
0
0
0
0
0
0
0
0
0
0
0
0
0
0
0
0
0
0
0
0
0
0
0
0
0
0
0
0
0
0
0
0
0
0
0
0
0
0
0
0
0
0
0
0
0
0
0
0
0
0
0
0
0
0
0
0
0
0
0
0
0
0
0
0
0
0
0
0
0
0
0
0
0
0
0
0
0
0
0
0
0
0
0
0
0
0
0
0
0
0
0
0
0
0
0
0
0
0
0
0
0
0
0
0
0
0
0
0
0
0
0
0
0
0
0
0
0
0
0
0
0
0
0
0
0
0
0
0
0
0
0
0
0
0
0
0
0
0
0
0
0
0
0
0
0
0
0
0
0
0
0
0
0
0
0
0
0
0
0
0
0
0
0
0
0
0
0
0
0
0
0
0
0
0
0
0
0
0
0
0
0
0
0
0
0
0
0
0
0
0
0
0
0
0
0
0
0
0
0
0
0
0
0
0
0
0
0
0
0
0
0
0
0
0
0
0
0
0
0
0
0
0
0
0
0
0
0
0
0
0
0
0
0
0
0
0
0
0
0
0
0
0
0
0
0
0
0
0
0
0
0
0
0
0
0
0
0
0
0
0
0
0
0
0
0
0
0
0
0
0
0
0
0
0
0
0
0
0
0
0
0
0
0
0
0
0
0
0
0
0
0
0
0
0
0
0
0
0
0
0
0
0
0
0
0
0
0
0
0
0
0
0
0
0
0
0
0
0
0
0
0
0
0
0
0
0
0
0
0
0
0
0
0
0
0
0
0
0
0
0
0
0
0
0
0
0
0
0
0
0
0
0
0
0
0
0
0
0
0
0
0
0
0
0
0
0
0
0
0
0
0
0
0
0
0
0
0
0
0
0
0
0
0
0
0
0
0
0
0
0
0
0
0
0
0
0
0
0
0
0
0
0
0
0
0
0
0
0
0
0
0
0
0
0
0
0
0
0
0
0
0
0
0
0
0
0
0
0
0
0
0
0
0
0
0
0
0
0
0
0
0
0
0
0
0
0
0
0
0
0
0
0
0
0
0
0
0
0
0
0
0
0
0
0
0
0
0
0
0
0
0
0
0
0
0
0
0
0
0
0
0
0
0
0
0
0
0
0
0
0
0
0
0
0
0
0
0
0
0
0
0
0
0
0
0
0
0
0
0
0
0
0
0
0
0
0
0
0
0
0
0
0
0
0
0
0
0
0
0
0
0
0
0
0
0
0
0
0
0
0
0
0
0
0
0
0
0
0
0
0
0
0
0
0
0
0
0
0
0
0
0
0
0
0
0
0
0
0
0
0
0
0
0
0
0
0
0
0
0
0
0
0
0
0
0
0
0
0
0
0
0
0
0
0
0
0
0
0
0
0
0
0
0
0
0
0
0
0
0
0
0
0
0
0
0
0
0
0
0
0
0
0
0
0
0
0
0
0
0
0
0
0
0
0
0
0
0
0
0
0
0
0
0
0
0
0
0
0
0
0
0
0
0
0
0
0
0
0
0
0
0
0
0
0
0
0
0
0
0
0
0
0
0
0
0
0
0
0
0
0
0
0
0
0
0
0
0
0
0
0
0
0
0
0
0
0
0
0
0
0
0
0
0
0
0
0
0
0
0
0
0
0
0
0
0
0
0
0
0
0
0
0
0
0
0
0
0
0
0
0
0
0
0
0
0
0
0
0
0
0
0
0
0
0
0
0
0
0
0
0
0
0


VECTORS element_materi_velocity float
9.616704502791e-04 4.242141069430e-03 0.0 
1.026604172858e-03 3.715710491825e-03 0.0 
7.630917400145e-04 8.444095510191e-04 0.0 
9.864161360121e-05 1.486811095995e-03 0.0 
9.309930488203e-04 8.371173453245e-03 0.0 
-7.894332030351e-05 4.200515150811e-04 0.0 
7.034648793860e-04 8.300465668064e-03 0.0 
7.842685592517e-04 3.213082251931e-03 0.0 
7.773714168538e-04 8.351730223521e-03 0.0 
1.451078017597e-04 1.521473605546e-03 0.0 
7.488431265341e-05 -1.543603424537e-04 0.0 
5.112363369523e-04 3.172808509784e-03 0.0 
3.366912646015e-05 -5.868192066275e-06 0.0 
1.440503623242e-03 7.366525158364e-03 0.0 
2.774976643818e-05 -1.987711349496e-06 0.0 
7.985832025288e-05 1.049879383817e-03 0.0 
1.192092162598e-03 8.668434061883e-03 0.0 
-4.144244617560e-05 3.171974998101e-04 0.0 
4.606348403428e-05 -4.256200357374e-04 0.0 
3.675400803393e-05 -4.186417873433e-04 0.0 
1.730137554307e-04 1.558563910806e-03 0.0 
1.510349987207e-03 5.970796144438e-03 0.0 
1.800837196171e-03 6.040612288045e-03 0.0 
5.282173959447e-04 7.049994511231e-05 0.0 
1.710909729431e-03 6.260541899093e-03 0.0 
8.268641564821e-05 -1.347632952640e-04 0.0 
1.812679941019e-03 9.075253197699e-03 0.0 
8.512742979541e-04 3.990664030394e-04 0.0 
1.816997476955e-03 6.201918568288e-03 0.0 
4.303373720582e-04 6.067660756242e-05 0.0 
1.696791542511e-04 -2.103875377301e-04 0.0 
1.061251945553e-04 -4.480758942198e-04 0.0 
8.836999488592e-04 1.053800493640e-03 0.0 
2.357243974099e-05 -5.360624040640e-05 0.0 
1.934406901859e-04 9.997342494636e-06 0.0 
5.273727636490e-05 1.682038509419e-06 0.0 
4.804234057057e-05 1.159181632486e-06 0.0 
5.724638335434e-04 1.514436781335e-04 0.0 
5.837024694303e-04 9.258176860325e-03 0.0 
5.318664590143e-04 9.269785166361e-03 0.0 
2.250142986208e-03 7.615087866388e-03 0.0 
1.941940768807e-04 1.950217273699e-05 0.0 
1.465488522217e-04 2.238120903898e-03 0.0 
1.925149259810e-03 8.663456377916e-03 0.0 
5.230406658215e-05 2.108041945413e-03 0.0 
1.750987588028e-04 1.952952965033e-03 0.0 
1.001474635031e-04 -2.007635249902e-04 0.0 
5.956978975164e-05 1.789572735418e-03 0.0 
1.162574524753e-05 -2.338501316846e-04 0.0 
1.396802628311e-03 7.844258402280e-03 0.0 
2.071783778123e-03 6.942762846150e-03 0.0 
4.898917245966e-05 -4.079710295468e-04 0.0 
3.473174391355e-04 -1.932219852242e-04 0.0 
2.037197910423e-03 7.742342404125e-03 0.0 
5.820559219310e-04 9.517243253494e-04 0.0 
9.166043674989e-05 -3.741829682288e-04 0.0 
3.992326394340e-05 -3.997393130264e-04 0.0 
4.782149476340e-05 -5.438509443427e-05 0.0 
9.267497389561e-05 -4.442070846375e-04 0.0 
9.609128989138e-05 1.058291269933e-03 0.0 
-1.058028581431e-04 -8.152475771809e-05 0.0 
1.120515070147e-03 4.267228829284e-04 0.0 
1.859075028743e-03 2.721192381561e-03 0.0 
2.871926009702e-04 -2.095848457462e-04 0.0 
5.508908610433e-05 -5.107720977042e-06 0.0 
1.804879147147e-03 6.989014684209e-03 0.0 
-1.009529471208e-04 -3.357678096527e-05 0.0 
9.252460331134e-04 9.804085182468e-04 0.0 
2.176098294045e-04 -4.096693270010e-04 0.0 
7.977553122332e-04 5.482816511862e-04 0.0 
1.245860724855e-04 -1.149881060055e-04 0.0 
9.895573071370e-05 2.914193355804e-04 0.0 
1.113075472260e-03 5.329592996917e-04 0.0 
6.403122597764e-06 -4.515922160877e-04 0.0 
8.304092382632e-05 -3.628819588483e-04 0.0 
3.437098978781e-04 1.356145950911e-03 0.0 
7.210277822204e-04 1.143059965993e-03 0.0 
-6.357710627276e-05 1.295608857654e-03 0.0 
1.060390198116e-04 -4.424493136807e-04 0.0 
-9.990978033592e-05 1.492358740771e-03 0.0 
2.258774402448e-04 -3.940490605880e-04 0.0 
1.130573462328e-03 8.410245440201e-03 0.0 
1.453675108130e-03 5.015126273007e-03 0.0 
1.146878298574e-03 4.937809733970e-03 0.0 
8.850824765325e-04 7.798151162251e-03 0.0 
8.107170106933e-04 7.768630999101e-03 0.0 
7.286541100778e-05 -9.944996946294e-05 0.0 
1.271844252799e-05 -6.664496846398e-05 0.0 
2.123237479109e-03 2.717294726718e-03 0.0 
1.001873601722e-03 8.331750117560e-03 0.0 
1.130624418642e-04 -4.419891765084e-04 0.0 
1.930737608865e-03 7.879936710620e-03 0.0 
1.565489479809e-04 4.222739056807e-03 0.0 
1.893738650993e-04 4.566865702103e-03 0.0 
1.976736762266e-04 5.384894679538e-04 0.0 
4.176030418289e-04 1.161801391918e-04 0.0 
1.267276857107e-03 8.417126668922e-03 0.0 
2.215911639252e-04 1.862085818755e-05 0.0 
1.144931319833e-04 6.711979587008e-03 0.0 
1.693256456362e-03 2.979588408243e-03 0.0 
8.975049034901e-04 8.862127850176e-03 0.0 
3.572284242205e-05 -1.836204431313e-06 0.0 
1.749938473444e-03 5.818509226987e-04 0.0 
1.084630554142e-03 3.879291549540e-04 0.0 
1.161817720704e-03 1.512991366185e-03 0.0 
7.603679766187e-05 -2.431376877328e-04 0.0 
3.935336423448e-05 -2.043361931639e-05 0.0 
1.590975317034e-04 3.637322146083e-03 0.0 
-4.256007409999e-05 -1.855630859764e-04 0.0 
6.665064978544e-05 4.174092720507e-08 0.0 
2.303674313851e-03 3.014821900174e-03 0.0 
1.112984788408e-05 -4.556735575651e-04 0.0 
1.901070976583e-03 1.304236978750e-03 0.0 
2.294418038248e-03 8.197270560937e-03 0.0 
1.514394620910e-04 -3.219603635570e-04 0.0 
1.409780410809e-03 2.797965794011e-03 0.0 
1.769550471679e-03 2.347233264946e-03 0.0 
1.367050399608e-04 9.304243888696e-06 0.0 
1.449887822388e-04 7.126437607730e-03 0.0 
1.515705828348e-03 2.201913760469e-03 0.0 
1.924859101351e-04 -4.387533614709e-04 0.0 
1.991363797968e-03 8.059285982829e-03 0.0 
1.257883136707e-04 3.333637070389e-03 0.0 
1.450794207695e-03 1.893881564178e-03 0.0 
-1.951901194136e-04 8.416555981361e-04 0.0 
2.361737621075e-03 8.236832081446e-03 0.0 
1.309466709075e-04 -3.301266648660e-04 0.0 
2.238594606048e-03 8.523644065671e-03 0.0 
2.626061037810e-04 9.573568758246e-04 0.0 
-8.714800893894e-05 7.629252488933e-04 0.0 
1.163376415742e-04 -1.328708461236e-04 0.0 
7.799973548910e-05 1.471909828552e-03 0.0 
2.733212976524e-03 4.578854269292e-03 0.0 
2.332146366771e-03 8.054943886242e-03 0.0 
2.100472796735e-04 1.285192561544e-05 0.0 
2.304993513733e-05 -5.905489157248e-06 0.0 
1.029153083986e-04 -9.895622418340e-05 0.0 
2.847190331267e-03 4.638050147690e-03 0.0 
2.967594516665e-04 4.151054005344e-05 0.0 
2.654998631208e-03 5.659221746953e-03 0.0 
1.988668045143e-04 1.080239687095e-03 0.0 
9.378010080610e-04 6.906515093900e-04 0.0 
1.530465159159e-03 7.292710447295e-03 0.0 
3.634257410824e-04 5.542289895074e-03 0.0 
2.633102417810e-03 5.057507659816e-03 0.0 
2.169613563257e-03 8.263202356571e-03 0.0 
2.896223728940e-03 4.186875384254e-03 0.0 
1.520739308355e-03 1.477361824001e-03 0.0 
6.698683304565e-04 8.784322452903e-03 0.0 
1.806360088429e-03 1.101373152215e-03 0.0 
1.156103968439e-04 -4.531147721286e-04 0.0 
1.638853888092e-04 8.032069692703e-03 0.0 
3.881014357099e-05 -4.343832842895e-04 0.0 
2.345918888227e-03 8.275719862411e-03 0.0 
2.369523686674e-04 3.242658927113e-05 0.0 
1.212778343407e-03 1.770486970602e-03 0.0 
5.518111419910e-05 -8.313238682725e-05 0.0 
3.702996419341e-04 2.423990456196e-03 0.0 
1.821402302355e-03 6.617086872461e-04 0.0 
3.817606903097e-04 8.455043153395e-03 0.0 
1.639442728075e-03 1.021792332271e-03 0.0 
5.376637370949e-05 -4.179990131391e-05 0.0 
2.028617258624e-04 -4.314572590654e-04 0.0 
5.523424971435e-05 -2.024014435530e-05 0.0 
2.632662015609e-03 6.797835963688e-03 0.0 
7.609062026526e-05 -2.121016682124e-06 0.0 
1.624698034559e-04 8.531683887541e-03 0.0 
1.310170500410e-03 1.376898575975e-03 0.0 
2.241207092238e-03 8.554966619386e-03 0.0 
4.795555244524e-05 -1.593712458356e-04 0.0 
3.278824318428e-04 2.771480595847e-03 0.0 
1.563542887765e-03 8.507953721216e-04 0.0 
3.187108253068e-04 5.018896348250e-03 0.0 
4.345788473834e-04 8.792922588985e-03 0.0 
1.629326591831e-03 1.340396623593e-03 0.0 
2.259058526039e-03 8.604277855587e-03 0.0 
1.934257642107e-03 1.632762259579e-03 0.0 
1.568352052699e-04 -3.009995871292e-04 0.0 
6.730398236857e-04 2.961670718444e-04 0.0 
9.487300774582e-04 6.270642176173e-04 0.0 
1.231778475789e-03 3.033215882865e-03 0.0 
1.394898795355e-04 -2.898927194316e-04 0.0 
8.216398870985e-04 1.247684409794e-04 0.0 
2.503881733954e-03 6.240559361571e-03 0.0 
9.369988614189e-04 2.826542941283e-03 0.0 
2.424257200703e-03 7.625190854476e-03 0.0 
1.822097893244e-03 1.436563522818e-03 0.0 
1.429244887308e-04 1.145298378457e-03 0.0 
2.092724257842e-03 3.350320509688e-03 0.0 
3.742007671700e-05 -3.026157950420e-05 0.0 
3.524243140836e-05 1.592237198322e-03 0.0 
1.341373073360e-03 6.368900008737e-04 0.0 
2.057626558736e-03 2.812273803598e-03 0.0 
-4.354003671531e-04 5.001689173560e-04 0.0 
2.476374363368e-03 6.889714126539e-03 0.0 
8.448238383525e-04 6.207208275384e-05 0.0 
1.061586682622e-04 -4.570084358751e-04 0.0 
8.314434539652e-04 1.190763157323e-03 0.0 
1.949284249919e-03 5.058444271167e-03 0.0 
5.808016813789e-04 -3.068514307467e-04 0.0 
8.948947226332e-04 8.121877793487e-05 0.0 
1.958866093630e-03 7.369140871713e-03 0.0 
1.670687705124e-03 6.746014843489e-03 0.0 
4.010122967846e-04 5.161170858511e-05 0.0 
3.759431574656e-04 -3.859608227247e-04 0.0 
2.865214472916e-03 3.380893796242e-03 0.0 
2.797800876279e-03 5.940275282979e-03 0.0 
1.832680669785e-03 4.624467313601e-03 0.0 
2.613891103030e-03 6.502424231875e-03 0.0 
2.530924707146e-03 7.364830893383e-03 0.0 
1.856332505625e-03 5.425308974503e-04 0.0 
2.122423822263e-03 1.933399678845e-03 0.0 
-2.636218402566e-04 3.863694513247e-04 0.0 
1.312689071324e-03 3.550118379256e-03 0.0 
1.797105641606e-03 3.453340920618e-03 0.0 
2.845950144596e-03 3.745519356753e-03 0.0 
1.912860178678e-03 2.988189741908e-03 0.0 
1.586850426449e-04 3.772201375841e-04 0.0 
8.308506055976e-04 2.528769293262e-05 0.0 
4.886938750805e-04 8.669175928478e-03 0.0 
1.403507747173e-03 7.816232558958e-04 0.0 
8.020204097389e-04 -1.273615415001e-05 0.0 
1.126561039681e-04 -4.598328526702e-04 0.0 
1.799275825834e-03 4.130348781376e-03 0.0 
1.030661978101e-04 -4.615766362621e-04 0.0 
1.043918304118e-04 -4.533162397439e-04 0.0 
5.032961576836e-06 1.827047746580e-03 0.0 
3.242841807105e-04 -4.087340007774e-04 0.0 
1.651318322202e-03 3.699999148746e-03 0.0 
3.089058503400e-04 -4.155006984501e-04 0.0 
3.896865796003e-04 1.159514871428e-03 0.0 
3.115332947605e-04 -3.131186952263e-04 0.0 
2.147957093167e-04 -4.379867024457e-04 0.0 
8.934809858228e-04 1.165248120149e-04 0.0 
2.728523626194e-03 6.495083959309e-03 0.0 
6.575952432308e-05 -4.693133526707e-06 0.0 
-3.616644214091e-04 3.980216903529e-04 0.0 
7.158231420500e-04 1.115112111079e-03 0.0 
1.641442863967e-03 7.654888838400e-04 0.0 
2.312236224494e-03 6.166353543446e-03 0.0 
8.824377245189e-04 4.302149283946e-05 0.0 
8.267053103939e-05 -1.068004074798e-08 0.0 
2.170772334441e-03 3.809184578466e-03 0.0 
8.958729586924e-04 4.743927208804e-04 0.0 
8.444802103380e-04 9.581802199202e-05 0.0 
6.088494916865e-05 -1.173743004255e-04 0.0 
2.956489191374e-03 4.191208357368e-03 0.0 
2.033501702026e-03 4.487453034300e-03 0.0 
9.535608370744e-04 3.721048198588e-04 0.0 
1.563153720186e-03 6.249561068709e-04 0.0 
5.564828226734e-04 1.234465043786e-03 0.0 
2.621002185661e-03 5.646359008934e-03 0.0 
1.596003118256e-04 4.958198449552e-04 0.0 
2.795677908394e-03 3.008942144680e-03 0.0 
1.757484030303e-03 4.413838136288e-04 0.0 
3.701645540850e-04 7.854762069025e-03 0.0 
1.905387791286e-04 -3.825450108253e-04 0.0 
2.512337141857e-03 6.732596872910e-03 0.0 
9.308163267437e-04 6.003966739608e-04 0.0 
3.808859595412e-04 3.232506034147e-04 0.0 
2.137083563135e-04 -1.770627075428e-04 0.0 
1.557618582349e-03 3.744372499986e-03 0.0 
2.763556156463e-03 5.690808371282e-03 0.0 
1.610402392937e-03 1.736849207788e-03 0.0 
1.401576002283e-03 3.299705425705e-03 0.0 
2.169469527553e-03 3.248910669444e-03 0.0 
2.987471168501e-03 4.540660776096e-03 0.0 
9.598108454398e-05 3.921032861837e-06 0.0 
1.737123432912e-03 3.956406845995e-04 0.0 
2.950178283018e-03 4.774554494970e-03 0.0 
2.064680690387e-03 1.391342074794e-03 0.0 
1.790041807631e-03 4.389427970323e-04 0.0 
6.046384775228e-04 2.864507676594e-04 0.0 
1.750739765293e-03 8.110734683566e-03 0.0 
1.536761935698e-03 4.418335802479e-04 0.0 
7.360518939042e-04 -1.289701708297e-04 0.0 
2.082587217453e-03 3.906497046571e-03 0.0 
-3.757563718005e-04 3.140077083733e-04 0.0 
2.476699050378e-03 6.382599137766e-03 0.0 
9.986029942139e-04 4.064045973520e-04 0.0 
6.947117244594e-04 9.352058062718e-04 0.0 
5.872782427201e-04 1.923612154331e-04 0.0 
2.637991203589e-03 5.130979954881e-03 0.0 
1.385888506777e-04 -4.410162407753e-04 0.0 
2.157934280936e-03 4.170910591610e-03 0.0 
1.742172622168e-03 3.943895517275e-04 0.0 
2.675507993798e-03 5.950205315798e-03 0.0 
1.775047727906e-03 7.489276865320e-03 0.0 
7.234987433045e-05 2.480506547440e-04 0.0 
7.704309740626e-04 -7.675884564722e-05 0.0 
6.185252269728e-04 -1.995372994989e-04 0.0 
1.594540191588e-03 3.788620802778e-03 0.0 
2.130690694425e-03 4.395784732188e-03 0.0 
2.062548113978e-03 3.628872995893e-03 0.0 
1.416398597924e-03 3.893582770742e-04 0.0 
1.423119070170e-03 5.655293401303e-04 0.0 
1.646426269760e-04 2.740649543967e-04 0.0 
2.106698964026e-03 1.261338990483e-03 0.0 
1.074195151757e-04 1.024243878587e-03 0.0 
3.003476686006e-04 4.659398469469e-04 0.0 
3.808884733613e-04 4.605798251748e-04 0.0 
2.793543567293e-03 2.717346220691e-03 0.0 
7.561469985131e-04 4.300400679153e-04 0.0 
5.255170849747e-04 7.246058752192e-04 0.0 
2.945312464301e-03 4.304994946298e-03 0.0 
6.406824360190e-04 5.055453858985e-04 0.0 
6.474820237459e-04 -1.548665720848e-04 0.0 
2.970339853376e-03 4.610652719300e-03 0.0 
2.589096342560e-04 1.312492926604e-03 0.0 
1.190370751401e-03 5.783325020613e-04 0.0 
1.940539184321e-03 6.338030141864e-04 0.0 
2.474931580191e-04 9.242860565417e-04 0.0 
1.526981768872e-04 2.851068081380e-05 0.0 
6.581283806564e-04 6.338988120710e-04 0.0 
2.963484933211e-03 3.774730286114e-03 0.0 
2.747499632117e-04 1.975471702316e-04 0.0 
1.234204877066e-03 7.471947631326e-05 0.0 
1.616593512056e-03 5.574835341359e-04 0.0 
6.684296863743e-04 -2.153475500572e-04 0.0 
2.871673203390e-03 5.618587786079e-03 0.0 
3.692093058531e-04 3.064722166901e-04 0.0 
1.222759173675e-03 3.938780600671e-04 0.0 
1.656827646512e-03 3.183369271253e-04 0.0 
2.550616194798e-04 7.735385172915e-04 0.0 
1.241017474200e-03 5.811017103528e-03 0.0 
8.535484518134e-04 3.020800610988e-06 0.0 
7.699904199476e-04 1.547564997810e-03 0.0 
1.222130653285e-03 6.315664770116e-03 0.0 
3.936883390547e-04 2.339721335191e-04 0.0 
7.513401727266e-04 2.896738813012e-05 0.0 
3.850065472304e-04 3.608550091714e-04 0.0 
1.505204392558e-03 6.290369212747e-03 0.0 
2.357232026020e-03 2.884474531647e-03 0.0 
3.898369017746e-04 1.577691766654e-03 0.0 
2.801535542039e-03 6.369640513382e-03 0.0 
2.903743860405e-03 5.098760994702e-03 0.0 
2.856370335189e-03 4.898070045779e-03 0.0 
2.607565350551e-03 2.591624687742e-03 0.0 
3.701336235853e-04 1.787428086989e-04 0.0 
1.890140429093e-03 6.607898487897e-03 0.0 
2.424440547993e-03 7.288368565817e-03 0.0 
1.356195524266e-03 4.455814642217e-04 0.0 
2.700387725752e-04 -4.261270723194e-04 0.0 
2.602434197525e-03 7.330442506067e-03 0.0 
9.423342439599e-04 1.410378784829e-03 0.0 
3.278724981352e-04 8.762010914735e-03 0.0 
6.351277576948e-04 -2.503495750917e-04 0.0 
1.138680397620e-03 4.552684371633e-04 0.0 
1.835393946073e-03 3.586917610368e-03 0.0 
9.022186675980e-04 1.193529294106e-03 0.0 
2.880508320769e-03 5.808179423590e-03 0.0 
1.598727332986e-03 2.860727400412e-04 0.0 
8.062904174001e-04 -1.563346654848e-04 0.0 
2.886613336930e-04 1.041608102855e-04 0.0 
2.604725830727e-03 6.833910672680e-03 0.0 
7.354347003999e-04 1.740302101496e-05 0.0 
5.762959564626e-04 -3.187574813858e-04 0.0 
8.621508022787e-04 2.439552057981e-03 0.0 
8.015355231852e-04 1.806468981009e-03 0.0 
1.857423178762e-03 2.481304951386e-03 0.0 
2.977761249737e-03 3.741454388289e-03 0.0 
2.286608331415e-03 5.463693223632e-03 0.0 
2.766284440271e-03 6.548119507431e-03 0.0 
2.259914038100e-04 5.650086995753e-05 0.0 
5.727744786384e-04 1.406692298448e-04 0.0 
1.789402068415e-03 2.555811049453e-03 0.0 
1.896216341968e-03 4.066802663850e-03 0.0 
8.291058698665e-04 -1.697016409082e-04 0.0 
2.106391906689e-03 2.876532465346e-03 0.0 
7.305297724002e-04 3.219701151990e-04 0.0 
9.573105521679e-04 3.012833934676e-04 0.0 
2.922483799097e-03 3.405771752489e-03 0.0 
1.291449864989e-03 8.115556508634e-05 0.0 
4.074110596790e-04 -2.757562164531e-04 0.0 
1.561910766188e-03 2.728943475583e-03 0.0 
7.058171655651e-04 -4.709339528895e-05 0.0 
2.372362271141e-03 2.178548516336e-03 0.0 
2.968506013806e-03 4.915595718131e-03 0.0 
2.123431855937e-03 2.276072346570e-03 0.0 
3.864185864325e-04 4.090897749981e-04 0.0 
3.515969021212e-04 4.802988291637e-04 0.0 
8.698591491124e-04 1.171687391340e-03 0.0 
8.313373714847e-04 -1.286238692128e-04 0.0 
1.313797914302e-03 3.321928426651e-03 0.0 
5.705345242092e-04 1.450068439794e-03 0.0 
1.166002919578e-03 2.915374509982e-04 0.0 
3.767675805609e-04 2.250627089799e-04 0.0 
2.389240727708e-03 4.338609020383e-03 0.0 
1.577697707993e-03 8.221428174614e-03 0.0 
1.408299447156e-03 6.311124450985e-03 0.0 
3.917978167575e-04 6.921153936294e-05 0.0 
1.980072118818e-03 2.321505751059e-03 0.0 
2.523747203413e-03 5.848580189867e-03 0.0 
2.846347700324e-03 4.418444164693e-03 0.0 
4.761259941218e-04 1.626639510577e-04 0.0 
1.290027691676e-04 -4.004031550363e-04 0.0 
1.872289804472e-03 9.975802095303e-04 0.0 
2.530319299826e-03 2.057275015741e-03 0.0 
2.009018966266e-03 1.070440951754e-03 0.0 
-2.250242556233e-04 9.892655422311e-04 0.0 
3.083575325773e-04 7.594957760760e-03 0.0 
2.503730900117e-04 -4.300855321749e-04 0.0 
8.364630717697e-04 8.345857315600e-04 0.0 
8.202616932864e-05 1.617271392502e-05 0.0 
1.681561721294e-03 4.110536302510e-04 0.0 
2.319812074712e-03 7.475375802536e-03 0.0 
2.556185225606e-05 -4.374535973951e-04 0.0 
2.696851882213e-03 2.943226300732e-03 0.0 
1.783272420320e-03 8.326929013044e-04 0.0 
2.718995813621e-03 4.912447815922e-03 0.0 
3.858963670523e-04 2.847847336050e-04 0.0 
2.723423174576e-03 6.734857552201e-03 0.0 
2.964065849613e-03 3.993315909704e-03 0.0 
4.456744615686e-04 -2.736723223845e-04 0.0 
1.577858218036e-03 3.228087732495e-03 0.0 
7.969141931633e-04 -1.149575507125e-04 0.0 
4.033315742808e-04 2.675131856112e-04 0.0 
1.980838813709e-04 1.966037241719e-04 0.0 
1.413045347791e-04 2.337347921317e-04 0.0 
1.925537682998e-04 2.480937743486e-04 0.0 
2.701871245008e-03 4.429310674969e-03 0.0 
1.664993325773e-03 3.178552311643e-03 0.0 
1.696940600926e-03 2.074938926695e-03 0.0 
2.223030569286e-03 2.626046034245e-03 0.0 
2.206015806680e-03 3.310460567303e-03 0.0 
3.451776717602e-04 -2.965287287003e-04 0.0 
1.640632424313e-03 2.677865538423e-03 0.0 
3.841506107247e-04 2.054697208751e-04 0.0 
1.317182389744e-03 2.834452895616e-03 0.0 
1.765431357575e-03 4.296355856568e-04 0.0 
1.399764865644e-03 2.807208553647e-03 0.0 
2.362759671769e-03 1.375261217223e-03 0.0 
2.412134940105e-03 1.978564454955e-03 0.0 
2.456357627477e-03 4.936184954620e-03 0.0 
3.874007209528e-04 6.788144684187e-04 0.0 
3.803860311362e-04 1.051104299986e-03 0.0 
1.917268636276e-03 2.152599661056e-03 0.0 
1.180816621743e-03 6.385691056916e-04 0.0 
3.807506925951e-04 -2.955822807108e-04 0.0 
5.335977513930e-04 -3.009086361844e-04 0.0 
3.006996697837e-04 5.195994949561e-05 0.0 
1.050123135131e-03 1.077718551419e-03 0.0 
1.869226658595e-04 1.642512849995e-04 0.0 
6.318732971897e-04 9.053692619395e-04 0.0 
2.947927014131e-03 3.360590262931e-03 0.0 
8.884049747666e-05 -3.969983329697e-04 0.0 
2.036097270588e-04 1.425638019145e-04 0.0 
3.759991779172e-04 8.126167467240e-05 0.0 
5.617120888964e-04 -2.721997801197e-04 0.0 
1.608735236519e-03 3.177727265415e-04 0.0 
2.790153826830e-04 9.186969174671e-05 0.0 
5.450678467324e-05 -4.051332189396e-04 0.0 
2.210507564986e-03 2.076225733391e-03 0.0 
2.926492565943e-03 3.582683933777e-03 0.0 
2.903548049025e-03 3.064404904984e-03 0.0 
2.987896823024e-03 4.087940516340e-03 0.0 
5.341736682098e-04 8.757245850282e-04 0.0 
1.939664918327e-04 1.090227498224e-04 0.0 
1.347099591188e-03 2.903874468537e-04 0.0 
9.311087681755e-05 1.475881750729e-04 0.0 
1.245616692756e-04 4.492327936784e-06 0.0 
8.081877543002e-05 -4.098419585088e-04 0.0 
2.750747500724e-03 6.204861788744e-03 0.0 
2.111016899793e-04 -2.589201592593e-04 0.0 
2.505797340680e-03 7.657663842869e-03 0.0 
1.959556446605e-04 4.406142851348e-05 0.0 
1.799495046933e-04 8.229583764615e-05 0.0 
2.790054958358e-03 5.168429925459e-03 0.0 
1.168089046538e-04 -2.841847575957e-04 0.0 
1.411743008413e-05 1.224262768142e-04 0.0 
1.823421062232e-04 -2.903432163824e-04 0.0 
3.942568498545e-04 -1.642762615288e-05 0.0 
1.649264852275e-03 8.481997966865e-03 0.0 
2.300595738261e-03 7.099131008335e-03 0.0 
1.489948203136e-04 5.609178249181e-05 0.0 
1.481769072568e-03 8.575528880709e-03 0.0 
2.644258254351e-04 4.644046940985e-04 0.0 
2.227901205812e-03 1.204563607520e-03 0.0 
1.286825193672e-03 6.838168220809e-03 0.0 
1.068904345699e-03 2.242509468404e-03 0.0 
1.690094285452e-03 3.852829475548e-04 0.0 
2.729107578609e-04 3.988902478537e-04 0.0 
1.393488693036e-04 4.380066395304e-05 0.0 
1.883347050615e-04 2.124860508263e-04 0.0 
1.590431338215e-04 2.322050548151e-04 0.0 
7.446862143905e-04 -1.271969694615e-04 0.0 
2.863366470976e-04 -3.149929357083e-04 0.0 
2.309847445978e-03 1.712982975244e-03 0.0 
7.071277325151e-04 -1.121326513996e-04 0.0 
1.233809140557e-04 3.253818797239e-05 0.0 
8.085363112017e-04 6.843974471683e-04 0.0 
7.871706656111e-04 -1.481969595753e-04 0.0 
7.869747926780e-04 -2.003410260479e-04 0.0 
1.132717302443e-03 6.305898360385e-03 0.0 
1.334398067184e-04 2.249650249651e-05 0.0 
9.595092106813e-05 -3.123434334604e-04 0.0 
9.334515490625e-05 2.009874652834e-05 0.0 
6.733229887757e-04 -2.577211252979e-04 0.0 
1.822866399936e-04 1.422209316905e-04 0.0 
1.753978620610e-03 2.010118803247e-03 0.0 
2.834595656495e-05 -3.856004649856e-04 0.0 
2.167019774184e-03 1.626173866551e-03 0.0 
1.153333681375e-03 2.863356828343e-03 0.0 
1.997218472220e-04 1.249493836967e-04 0.0 
2.762907754880e-03 4.205666903420e-03 0.0 
2.020677579904e-03 9.394089334099e-04 0.0 
1.351189996479e-04 7.310542658523e-04 0.0 
5.866073681755e-04 1.093645905566e-04 0.0 
6.652454391342e-04 -2.853233194124e-04 0.0 
7.450944552788e-04 -2.331565149227e-04 0.0 
1.742538201768e-07 -2.686846958041e-04 0.0 
1.901841188920e-04 9.644697105272e-05 0.0 
4.976046079048e-04 3.549413977188e-04 0.0 
7.094955876647e-04 4.503635813571e-05 0.0 
1.249374134731e-03 7.396279739114e-03 0.0 
4.503999466256e-04 -3.723208596052e-04 0.0 
7.485052548543e-04 -1.899036113886e-04 0.0 
2.888855406823e-03 4.149575564945e-03 0.0 
1.396665133794e-04 4.806902779367e-05 0.0 
2.771926765067e-04 -2.971830677315e-04 0.0 
7.622178723649e-04 -5.036416407358e-05 0.0 
2.691978806876e-03 2.171662033293e-03 0.0 
1.086744404788e-03 -1.893666189772e-05 0.0 
8.730688154993e-04 -1.193157054287e-04 0.0 
8.095500650817e-04 -8.820220224122e-05 0.0 
2.712687949269e-03 2.407985083140e-03 0.0 
2.516819427900e-03 1.868666899921e-03 0.0 
1.580339487812e-03 3.664940057990e-04 0.0 
2.529954828858e-03 1.860044649335e-03 0.0 
4.941976541401e-04 -2.884016581610e-04 0.0 
1.005478956893e-03 8.986812936795e-04 0.0 
3.193636886936e-04 -3.148938786996e-04 0.0 
2.165871072811e-03 1.077982374287e-03 0.0 
1.618837927660e-03 2.797093882348e-04 0.0 
1.753713242349e-04 3.627146045336e-05 0.0 
1.137293229407e-03 2.404592674337e-03 0.0 
4.012250013703e-04 -3.876741311287e-04 0.0 
1.026104897543e-04 2.396268198514e-05 0.0 
4.351588426953e-04 8.688854944337e-05 0.0 
2.033482338445e-03 9.676958885297e-04 0.0 
4.372732264888e-05 -3.061309277170e-04 0.0 
1.182759510445e-04 1.804221956663e-05 0.0 
1.364345930590e-03 2.339007648569e-03 0.0 
5.706981494127e-04 -3.059161929821e-04 0.0 
7.067200755858e-05 1.233796688878e-05 0.0 
7.133508791281e-04 -8.689679993999e-05 0.0 
2.506009035037e-03 3.938793892697e-03 0.0 
2.369586120063e-03 6.562126036473e-03 0.0 
1.651264528598e-03 3.124599004042e-04 0.0 
7.538094599608e-04 -1.690757087692e-04 0.0 
1.165892666916e-03 4.093645772849e-05 0.0 
2.053164766026e-03 4.984976109392e-03 0.0 
2.865594071964e-03 5.136809419245e-03 0.0 
1.609805888735e-03 4.425222406036e-04 0.0 
2.923976637533e-04 7.021259626702e-03 0.0 
4.550197876124e-04 -2.917335075211e-04 0.0 
1.526151662868e-03 2.854959023750e-04 0.0 
6.270175815143e-04 -3.055708233077e-04 0.0 
3.756145089663e-04 -1.373835363506e-04 0.0 
-7.012892711499e-06 -3.435499679811e-04 0.0 
1.238591491198e-03 1.158475251931e-03 0.0 
6.370077179970e-04 -2.845788871236e-04 0.0 
3.947015137532e-04 -2.569503597133e-04 0.0 
2.234385909733e-03 1.207211348579e-03 0.0 
7.635452329218e-04 -7.520576953061e-05 0.0 
1.105940093463e-03 6.802768511393e-03 0.0 
5.395895289191e-04 -3.275139319627e-04 0.0 
6.276779915981e-05 1.015853560773e-05 0.0 
2.920489303749e-03 3.296444415055e-03 0.0 
3.420013977875e-04 -2.392913114187e-04 0.0 
2.914714947534e-03 3.052499313251e-03 0.0 
3.574227307373e-04 -2.583315028474e-04 0.0 
2.693098492190e-05 -3.702846021166e-04 0.0 
2.315048216526e-03 6.183140461646e-03 0.0 
9.852796768615e-05 -3.099813191593e-04 0.0 
9.106354902458e-05 -4.646116419933e-04 0.0 
2.862944431727e-04 -2.599136736653e-04 0.0 
7.053783378837e-04 -3.914550780810e-05 0.0 
3.176910474956e-04 3.069421169947e-03 0.0 
1.197842370330e-03 1.132952845388e-05 0.0 
1.152843278853e-03 1.044789943183e-05 0.0 
2.210720511707e-03 8.030153292721e-03 0.0 
1.452099264819e-03 9.202675118089e-03 0.0 
4.568588740072e-04 9.595530032528e-04 0.0 
2.844144381743e-03 2.747931024748e-03 0.0 
8.571874594839e-05 -4.660825074652e-04 0.0 
2.018382144486e-04 -4.424163164061e-04 0.0 
6.946621946430e-05 -3.588145908561e-04 0.0 
3.642886859129e-04 -3.956821796181e-04 0.0 
1.941772317885e-03 1.531875770960e-03 0.0 
3.638925069661e-04 3.101279286202e-03 0.0 
4.191236434510e-04 -3.159922393334e-05 0.0 
3.261643667704e-04 -3.781472398102e-04 0.0 
3.393774904366e-04 -1.402803012961e-04 0.0 
6.195249343729e-04 4.422989355582e-05 0.0 
2.762149338004e-04 1.097368645167e-04 0.0 
6.980462074883e-05 -3.094862146424e-04 0.0 
4.894734662810e-05 -3.526843754681e-04 0.0 
1.069099190019e-04 1.435761641181e-05 0.0 
5.550815188473e-05 7.883683958905e-06 0.0 
7.257480299572e-05 -2.771629548289e-04 0.0 
3.058310638805e-04 -2.403182002141e-04 0.0 
7.266284352725e-04 -1.536043312461e-04 0.0 
5.995388296025e-04 6.634027458459e-05 0.0 
2.184818812167e-04 -4.384514799271e-04 0.0 
6.294747001862e-04 1.899812554844e-05 0.0 
9.105260216606e-05 -4.547683715321e-04 0.0 
2.996013021707e-04 -2.786390895992e-04 0.0 
4.173035129986e-04 -2.359837025374e-04 0.0 
6.830698800763e-05 -4.571951555841e-04 0.0 
5.785747112012e-05 -2.928731542244e-04 0.0 
1.061222609018e-03 2.411273606117e-03 0.0 
7.612742705162e-05 -4.663389523517e-04 0.0 
1.604536781786e-03 9.072343475508e-03 0.0 
1.654168565116e-03 9.292226284200e-03 0.0 
1.235916164386e-03 1.036687768956e-04 0.0 
2.435275006250e-05 -3.535714804958e-04 0.0 
5.676712398836e-04 -3.264241299995e-04 0.0 
3.884888427271e-04 9.806807174778e-04 0.0 
2.626502784570e-04 -6.514248679167e-06 0.0 
7.324001696072e-04 4.002651444471e-04 0.0 
6.636642276040e-04 3.727965019743e-03 0.0 
1.024839969900e-03 1.926778372445e-03 0.0 
1.599139403071e-04 -4.443401531486e-04 0.0 
2.822360651959e-03 6.106149774045e-03 0.0 
1.042839000071e-03 9.305446826202e-03 0.0 
9.742870834330e-04 9.620457329365e-03 0.0 
8.281166999980e-05 -4.651548411630e-04 0.0 
8.416684560144e-05 -4.594390142973e-04 0.0 
4.506951766500e-05 -4.458178811644e-04 0.0 
2.555709270713e-04 -4.152681195394e-04 0.0 
5.777951319431e-05 -4.584531203254e-04 0.0 
5.945817516321e-05 -2.588981306131e-04 0.0 
-1.053529582253e-04 -1.752258800599e-04 0.0 
2.939509135155e-04 -3.919568126840e-04 0.0 
2.622363433798e-04 5.894886730079e-03 0.0 
1.361241630393e-03 9.541992033501e-03 0.0 
1.718918717588e-03 1.440786473767e-03 0.0 
6.659843288458e-04 -7.309656604123e-05 0.0 
2.342244341533e-04 6.792976658500e-03 0.0 
1.292698075065e-05 -3.394950787941e-04 0.0 
5.368456223767e-05 -4.497385765880e-04 0.0 
5.577902790452e-05 2.653536009532e-04 0.0 
1.277481429734e-04 5.515878184162e-04 0.0 
1.157902385364e-03 7.370646439430e-03 0.0 
1.174632075709e-03 9.307471595739e-03 0.0 
6.449352680654e-05 -3.388176148539e-04 0.0 
8.197733627715e-05 5.259639491354e-04 0.0 
2.871340078485e-04 -4.039333414203e-04 0.0 
1.503299829755e-03 9.438919920637e-03 0.0 
1.308822099028e-03 9.279893693383e-03 0.0 
2.545234840107e-03 7.581052751468e-03 0.0 
1.231212906560e-04 2.306699019668e-04 0.0 
1.000561608936e-04 5.232779906080e-04 0.0 
7.408336974591e-05 -4.604576198665e-04 0.0 
7.075739621239e-05 -4.642947900282e-04 0.0 
1.734929810596e-04 -4.483527584000e-04 0.0 
4.568542215700e-04 -2.334867891278e-04 0.0 
2.544780355536e-05 -1.237081061074e-05 0.0 
-1.656489684142e-04 -1.192790327009e-04 0.0 
8.388024193075e-05 3.879340011571e-03 0.0 
-5.221652943822e-05 -2.586528575798e-04 0.0 
1.104133839392e-03 3.988595051407e-05 0.0 
-5.096002263039e-05 -2.875235950325e-04 0.0 
-1.035579221362e-04 -2.134810875438e-04 0.0 
1.037008522228e-03 -1.503564078018e-05 0.0 
1.026964768409e-04 -1.706515445272e-05 0.0 
2.193714135343e-04 6.228046574010e-03 0.0 
2.928478131639e-03 5.105079017740e-03 0.0 
5.032162946538e-05 -4.551279225050e-04 0.0 
2.773679457218e-04 -1.250887759942e-04 0.0 
1.921776195303e-05 3.143442684145e-04 0.0 
3.799072007266e-05 5.324670246312e-04 0.0 
1.227846726617e-03 9.595055459027e-03 0.0 
1.160371510450e-03 9.654044387063e-05 0.0 
4.427713298905e-05 2.579243896548e-04 0.0 
1.959083952602e-03 8.402263335829e-04 0.0 
3.222667305145e-05 -4.482867132390e-04 0.0 
3.979381672602e-05 -4.569503209928e-04 0.0 
3.031390488476e-05 -4.540298071504e-04 0.0 
1.415457083018e-05 -3.087686678878e-04 0.0 
2.034589030427e-05 -6.129693306250e-08 0.0 
1.022694652291e-05 1.449976140791e-03 0.0 
3.837679463673e-05 -4.617944872381e-04 0.0 
3.058627245742e-05 -2.573760341058e-04 0.0 
6.867924708503e-06 -6.997186587268e-08 0.0 
2.889300505567e-05 4.178399718348e-07 0.0 
9.694502293462e-05 1.141781824244e-05 0.0 
4.667796308289e-05 4.855355322626e-03 0.0 
1.854765664104e-05 3.387852714011e-03 0.0 
1.347796559577e-05 8.674932810175e-09 0.0 
1.541503945990e-05 4.091650390247e-07 0.0 
4.103254598716e-05 3.879659278229e-03 0.0 
2.891904016457e-05 -4.635908506493e-04 0.0 
7.399834193916e-04 9.633948783836e-03 0.0 
1.100928227968e-03 9.618568164117e-03 0.0 
5.555247597757e-05 -4.629227911129e-04 0.0 
2.632673992534e-05 1.974327312351e-06 0.0 
8.981230387086e-05 9.049620392285e-06 0.0 
4.426904805345e-05 4.105734602758e-06 0.0 
4.667757015935e-05 -4.644417595379e-04 0.0 
6.275397725737e-05 -4.655019965334e-04 0.0 
5.140176711720e-05 6.473932452910e-06 0.0 
4.554325581742e-05 4.943885789526e-06 0.0 
2.419307373676e-05 5.357830479613e-03 0.0 
3.935868210153e-04 9.636463027483e-03 0.0 
2.248488934612e-05 4.361979933448e-03 0.0 
2.917416492962e-05 7.337852746924e-03 0.0 
1.691288717761e-04 9.629695104728e-03 0.0 
9.108956561747e-05 -4.640537414542e-04 0.0 
8.650011157796e-05 -4.511132712359e-04 0.0 
7.475571355028e-05 -4.370805569674e-04 0.0 
5.534307956456e-05 -4.158259281918e-04 0.0 
1.556147259585e-05 -2.392811029539e-04 0.0 
1.502479986157e-05 -2.751329526546e-04 0.0 
8.804134760006e-05 -4.462886498882e-04 0.0 
1.593863978015e-05 -1.326063708799e-04 0.0 
7.486242090447e-05 -4.295819866197e-04 0.0 
9.871794551291e-05 2.470701323734e-04 0.0 
3.770020328810e-05 2.680395594807e-04 0.0 
7.196911506892e-05 2.862342174630e-04 0.0 
8.484657037436e-06 -4.280722832182e-04 0.0 
1.142576931185e-05 -3.668616282531e-04 0.0 
3.545073159153e-05 3.227561545306e-04 0.0 
1.085399721300e-05 -4.072968750453e-05 0.0 
1.877295811963e-05 2.181227562167e-04 0.0 
7.902758029917e-06 -2.012931299132e-05 0.0 
4.757760794963e-06 -6.589241515501e-06 0.0 
2.917937069175e-05 -2.923652485574e-04 0.0 
7.315093487963e-05 5.907957140113e-04 0.0 
5.422368971116e-05 5.408789107473e-04 0.0 
1.875675524291e-05 -2.997021972268e-05 0.0 
1.266051882488e-05 -1.235786406719e-05 0.0 
1.633550237749e-04 -9.597820950847e-05 0.0 
-8.534166380919e-06 -3.226015353052e-04 0.0 
2.449442774029e-04 -2.971149293210e-04 0.0 
8.752511501610e-05 -4.620920732703e-04 0.0 
2.430638205209e-04 -1.011606247736e-05 0.0 
3.345592558283e-04 -2.780838075767e-04 0.0 
1.878922397423e-04 -4.605432941706e-05 0.0 
2.453695644910e-04 -4.247321461634e-04 0.0 
1.169790136703e-04 -4.563827872637e-04 0.0 
1.291900356862e-04 -2.519095117694e-05 0.0 
2.520659848085e-04 -2.603794717973e-04 0.0 
5.405350107111e-05 -3.248085807802e-04 0.0 
1.643561570704e-04 -4.824256158406e-05 0.0 
1.163972908914e-04 2.456541362660e-03 0.0 
2.708155158083e-05 -3.245989396926e-04 0.0 
6.891403028151e-04 -1.756173614052e-05 0.0 
4.911092372364e-04 -1.254608012549e-04 0.0 
1.929643268276e-04 -9.417542116173e-05 0.0 
1.396356363678e-04 -8.080357495624e-05 0.0 
1.230140263434e-03 2.442700249323e-04 0.0 
2.773512930620e-03 5.679327627984e-03 0.0 
2.229791706199e-03 1.335190289242e-03 0.0 
3.110020052891e-04 -1.226969086648e-04 0.0 
1.161547915569e-04 -3.870391930627e-05 0.0 
9.135038027620e-05 -6.804231303520e-05 0.0 
3.315523126003e-04 -4.092866400849e-04 0.0 
2.219164186356e-04 2.533317314239e-03 0.0 
2.817203675518e-04 3.513720953062e-03 0.0 
5.059330484830e-04 8.140793137669e-03 0.0 
3.478182664064e-04 -1.000670456959e-04 0.0 
2.499759862739e-04 -1.081567247423e-04 0.0 
1.507823869571e-04 2.507891955507e-03 0.0 
1.926979914582e-04 3.012723415420e-03 0.0 
5.246467282034e-04 -1.429200222649e-04 0.0 
8.701722267204e-05 -1.855296933765e-05 0.0 
6.002968874486e-04 3.700473478504e-03 0.0 
6.488659916968e-05 -6.836797418352e-05 0.0 
1.769601147208e-04 -6.563853334142e-06 0.0 
2.593412744915e-04 2.557931032288e-03 0.0 
4.930250635717e-04 5.089293815858e-03 0.0 
6.593391481583e-04 -5.018687936635e-05 0.0 
1.297339582987e-04 -4.095452496135e-04 0.0 
3.283626486753e-04 -4.037435482734e-04 0.0 
1.538785060997e-04 -4.495099361173e-04 0.0 
3.376239563996e-05 -3.311770297654e-04 0.0 
2.335988046166e-04 3.011898150718e-03 0.0 
9.277518090408e-05 -2.850901427046e-05 0.0 
6.111353507682e-05 -3.769737305314e-04 0.0 
1.575701393435e-03 2.205200197106e-03 0.0 
5.961332555092e-04 7.646918005760e-03 0.0 
2.188884968852e-04 -5.860454463413e-05 0.0 
1.183376044199e-04 -5.204166212491e-05 0.0 
5.535085194797e-04 -3.365475811788e-04 0.0 
9.542340527974e-05 -5.357855385991e-05 0.0 
5.708984782905e-04 8.159755081352e-03 0.0 
1.506288478319e-03 3.084464989363e-04 0.0 
1.340557717532e-04 -1.907744864728e-06 0.0 
6.971158056632e-05 -4.065955939621e-04 0.0 
2.278420828144e-04 1.857641851758e-06 0.0 
3.815820464834e-04 4.540678581235e-03 0.0 
1.054261081615e-04 -3.969897628116e-04 0.0 
3.758109787152e-04 -3.964292523925e-04 0.0 
1.357399896959e-04 -2.057631065186e-04 0.0 
6.658114535344e-04 6.162419508663e-03 0.0 
2.975381201896e-04 -3.485953034454e-04 0.0 
2.827161559357e-04 3.989674117733e-03 0.0 
4.229979920807e-04 5.544781725058e-03 0.0 
2.884454254651e-04 -2.212808989162e-04 0.0 
1.116947926965e-04 -8.231298039940e-05 0.0 
1.422054230877e-04 -6.499601585704e-05 0.0 
3.277906069678e-04 4.504917802589e-03 0.0 
1.482303872255e-04 -4.305867378719e-04 0.0 
2.366469580986e-04 -2.416563742938e-04 0.0 
1.344454064543e-03 4.232225860529e-04 0.0 
4.376976200314e-04 4.090700331123e-03 0.0 
2.331244447027e-04 -2.790367493208e-04 0.0 
4.512136701336e-04 -1.301013898552e-04 0.0 
3.020322862412e-04 1.470097806007e-06 0.0 
4.320745158207e-04 5.057148956880e-03 0.0 
2.882976705742e-05 4.041604772177e-05 0.0 
1.351163544779e-04 -4.558372197254e-04 0.0 
4.659955304481e-04 7.959331910335e-05 0.0 
1.368903921701e-04 -3.687367109767e-05 0.0 
5.460619170531e-04 5.608517409971e-03 0.0 
9.798414373345e-05 -1.712725892627e-04 0.0 
6.923917620475e-04 7.176542942587e-03 0.0 
5.841193216608e-04 3.257502352234e-05 0.0 
2.348104104565e-04 -2.033163746460e-04 0.0 
1.674883751249e-04 -6.302716352479e-05 0.0 
1.096501930937e-04 -4.081614960677e-04 0.0 
1.944153491717e-04 -3.860795617962e-06 0.0 
2.534897780474e-04 -2.221532748640e-04 0.0 
8.383158508500e-05 -3.964771918570e-04 0.0 
2.036454720571e-04 -2.415703866245e-04 0.0 
2.619602713806e-04 -3.318997407381e-04 0.0 
2.680325219254e-04 -3.920320822182e-04 0.0 
1.293013166960e-04 -1.687264645456e-04 0.0 
9.591616398514e-05 -4.621409392426e-04 0.0 
9.527405031689e-05 -4.565023581087e-04 0.0 
2.188040866709e-04 -1.102556695115e-04 0.0 
1.312449848582e-04 -4.198687677562e-04 0.0 
3.142379725457e-04 -1.031714156230e-04 0.0 
3.808193176795e-04 -1.166957737922e-04 0.0 
4.240211583992e-04 -3.116164674663e-04 0.0 
4.791027528610e-04 -3.457685326826e-04 0.0 
5.177106023388e-04 3.192853735529e-03 0.0 
-2.552204109807e-05 4.778195057304e-04 0.0 
2.240389031558e-04 -3.144703030188e-04 0.0 
5.629368123703e-04 5.392730120967e-05 0.0 
1.145668218877e-04 -4.282391578513e-04 0.0 
6.464917524314e-04 6.652245507350e-03 0.0 
6.643266414522e-04 7.679835705694e-03 0.0 
2.031773163021e-04 -4.403939163509e-04 0.0 
3.884888042301e-04 2.543988435597e-06 0.0 
7.589369545458e-04 4.723481570265e-03 0.0 
1.498799394432e-04 -4.214135232432e-04 0.0 
5.395176008493e-04 2.757286048272e-03 0.0 
4.855677102837e-04 2.727541711624e-03 0.0 
1.705205998017e-04 -4.124684105716e-04 0.0 
1.321754339860e-03 2.394250262852e-03 0.0 
2.338054508080e-04 -4.153140699945e-04 0.0 
1.945278914578e-04 -7.703193427725e-05 0.0 
1.816735871420e-04 -1.857577084199e-04 0.0 
1.289335137783e-03 2.367737305781e-03 0.0 
4.634461849331e-04 3.163551850746e-03 0.0 
2.520002655189e-04 -8.984208966886e-05 0.0 
2.826281922235e-04 -8.724864787895e-05 0.0 
2.155521204805e-04 -4.336027254725e-04 0.0 
2.223919305461e-04 -7.479754755359e-05 0.0 
6.889271461877e-04 4.696537162555e-03 0.0 
1.490177057657e-04 -1.868050087314e-04 0.0 
6.120636080530e-04 5.641339741705e-03 0.0 
6.160640303273e-04 4.182832325295e-03 0.0 
1.678784789830e-03 3.929665335260e-04 0.0 
4.291118516024e-04 3.610844504059e-03 0.0 
1.864292092627e-04 -2.604648446390e-04 0.0 
2.010198948341e-04 -2.042434593999e-04 0.0 
2.094726505156e-04 -3.470269677253e-04 0.0 
4.622887737607e-04 -3.400432541891e-04 0.0 
6.204725464270e-04 5.153921052104e-03 0.0 
6.761921868066e-04 -2.056687880167e-04 0.0 
2.161854444119e-04 -4.032807139521e-04 0.0 
1.636337371572e-04 -4.508142628747e-04 0.0 
6.884496867100e-04 5.184036702634e-03 0.0 
2.394501399952e-04 -4.040545614097e-04 0.0 
2.430973637500e-04 5.194057291728e-06 0.0 
4.970552317914e-04 4.605179573776e-03 0.0 
2.454241082127e-04 -5.600232345680e-05 0.0 
3.371414787673e-04 6.586101720947e-05 0.0 
2.004891551985e-04 -2.792081098318e-04 0.0 
1.913488517420e-04 -4.137272479630e-04 0.0 
1.766744056315e-04 -4.468202573046e-04 0.0 
3.459905417860e-04 -8.096081004483e-05 0.0 
4.708670718613e-04 6.065455472184e-03 0.0 
1.424888985954e-04 -4.548172719421e-04 0.0 
2.672245034546e-04 -3.482992408322e-04 0.0 
7.603812814223e-05 -4.159647408131e-04 0.0 
7.368153936905e-04 6.193643517511e-03 0.0 
2.319109265425e-04 -3.314452464590e-04 0.0 
4.175170953615e-04 -1.129187574059e-04 0.0 
1.808205584306e-04 -3.451769735098e-04 0.0 
3.283877545749e-04 3.546630254243e-03 0.0 
2.703949809334e-04 -3.784937634863e-04 0.0 
4.485983521242e-04 -6.759703610874e-05 0.0 
3.091503419879e-04 -4.132668040101e-04 0.0 
4.177571212628e-04 -9.239430250793e-05 0.0 
1.540737526215e-04 -2.234667187557e-04 0.0 
3.093375242800e-04 -6.641841667938e-05 0.0 
9.174928705665e-04 -7.007455181504e-05 0.0 
9.438221759308e-05 -4.170180719641e-04 0.0 
5.573690626526e-04 7.111074363844e-03 0.0 
1.041348568769e-03 1.329841333494e-05 0.0 
2.472576222705e-03 2.500904370725e-03 0.0 
5.329804490827e-04 6.097046298119e-03 0.0 
3.761786419428e-04 -3.910082630844e-04 0.0 
9.813513412713e-04 5.775817992812e-03 0.0 
9.778781982756e-05 -4.267722156050e-04 0.0 
3.132674354980e-04 -1.343831363031e-05 0.0 
1.096901395606e-03 6.654063607383e-05 0.0 
1.538811496810e-03 3.811772013453e-04 0.0 
3.922877456068e-04 2.211140723289e-03 0.0 
6.769941154396e-04 -1.634962160985e-04 0.0 
1.649086724351e-04 -4.319793807088e-04 0.0 
5.748813866309e-04 -1.135676482451e-04 0.0 
3.238801550363e-04 6.537741222077e-06 0.0 
5.341190889071e-04 -3.422525690238e-04 0.0 
2.795554685781e-04 -6.960188458634e-05 0.0 
5.585010236469e-04 4.636984478287e-03 0.0 
4.673735732103e-04 -3.195839545881e-04 0.0 
4.942914549472e-04 -1.034866316337e-04 0.0 
9.919569311931e-04 7.285783015135e-03 0.0 
1.227555014487e-04 -3.857587048559e-04 0.0 
2.991030591004e-04 -3.641381362070e-04 0.0 
2.604462145346e-03 1.914425977888e-03 0.0 
3.792316189603e-04 -7.706508324316e-05 0.0 
2.418170280967e-03 3.452683035333e-03 0.0 
2.432524127512e-03 1.620353595551e-03 0.0 
8.324569609622e-04 5.238392946964e-03 0.0 
5.796624389795e-04 6.619694628540e-03 0.0 
1.022022309277e-03 6.786335147535e-03 0.0 
1.866977763834e-04 -2.229943719485e-04 0.0 
4.844923197302e-04 4.332935779120e-06 0.0 
6.586867448456e-04 -1.218103377263e-04 0.0 
7.648755938208e-04 7.214073680538e-03 0.0 
1.431147971639e-03 1.712688473281e-03 0.0 
1.542689949111e-03 4.456131312318e-04 0.0 
4.546359137457e-04 -8.760276533591e-05 0.0 
5.536150480695e-04 4.153395291558e-03 0.0 
4.272948445154e-04 -3.282681113666e-04 0.0 
3.604678701796e-04 -3.477579651808e-04 0.0 
1.985264123287e-04 -4.337026068994e-04 0.0 
6.204742148042e-04 -8.247884633205e-05 0.0 
3.253009297116e-04 -3.320967463426e-04 0.0 
8.250421543861e-04 5.730091237702e-03 0.0 
9.654310747038e-04 6.272737821530e-03 0.0 
1.506950215639e-03 1.967558790754e-04 0.0 
3.553561313251e-04 -3.767041806691e-04 0.0 
1.040631701477e-03 2.478066242100e-04 0.0 
3.289540533474e-04 -3.638668820651e-04 0.0 
3.933773361126e-04 -3.462602934487e-04 0.0 
2.065783800759e-04 -4.248779780455e-04 0.0 
5.911693676285e-04 7.978075301936e-06 0.0 
6.202950811321e-04 -2.704635686771e-04 0.0 
4.835834877850e-04 3.641734559983e-03 0.0 
7.051605034600e-04 -2.364107180571e-04 0.0 
6.193997774170e-04 -1.059567665576e-04 0.0 
6.550158401882e-04 -1.889385199816e-04 0.0 
2.135756539740e-03 1.030614986596e-03 0.0 
1.873864765931e-04 -4.240650034716e-04 0.0 
4.149624764201e-04 9.160782356000e-06 0.0 
3.606235037140e-04 1.808531652782e-05 0.0 
2.595754235390e-03 1.925790073372e-03 0.0 
4.634416952072e-04 -3.251881244677e-04 0.0 
6.466109068881e-04 -1.467665406406e-04 0.0 
7.510446884919e-04 5.702679401082e-03 0.0 
3.880154652715e-04 -3.133813465873e-04 0.0 
2.107452562155e-03 1.789432563316e-03 0.0 
2.433748473189e-04 -3.779048451994e-04 0.0 
4.526373992299e-04 -3.627175378238e-04 0.0 
4.993458756187e-04 -3.052046312072e-04 0.0 
2.177476927277e-04 -3.906693164737e-04 0.0 
1.487606569461e-04 -3.995355913737e-04 0.0 
6.082194025516e-04 -1.964699635474e-04 0.0 
5.349364536546e-04 -9.748833093909e-05 0.0 
1.940465970223e-03 1.334245725212e-03 0.0 
9.244548482272e-05 -4.595312145392e-04 0.0 
9.172228813363e-04 -1.777714626771e-04 0.0 
7.607175007334e-04 -2.360915370617e-04 0.0 
5.392731645970e-04 -3.000361693417e-04 0.0 
8.861041613204e-04 6.249592099590e-03 0.0 
6.456717857521e-04 -2.307261688341e-04 0.0 
2.417693087509e-04 -3.632531553069e-04 0.0 
5.765607813263e-04 -2.780155139116e-04 0.0 
3.831749824743e-04 4.058344197560e-03 0.0 
2.140668006500e-04 -3.624353764791e-04 0.0 
1.437666347165e-04 -4.523432920879e-04 0.0 
1.736570498270e-04 -4.410028792078e-04 0.0 
4.795720243115e-04 -3.602913761283e-04 0.0 
4.238198707915e-04 -3.577890988312e-04 0.0 
8.578966125840e-04 -1.920625272578e-04 0.0 
6.578523184778e-04 -2.465479863136e-04 0.0 
2.978873731536e-04 -4.035235970686e-04 0.0 
1.592312134161e-04 -4.400926275911e-04 0.0 
1.380121931034e-03 6.837172573699e-03 0.0 
1.933028441202e-04 -3.895614367579e-04 0.0 
6.228525794608e-04 -9.145136428520e-06 0.0 
2.083715636206e-03 1.331007532830e-03 0.0 
2.450722039649e-03 5.504788340219e-03 0.0 
8.338383079901e-04 3.311900657753e-03 0.0 
1.743172439884e-03 1.279625483165e-03 0.0 
1.595111668122e-03 3.035966292593e-04 0.0 
2.377766122089e-03 1.633239461995e-03 0.0 
3.657291085164e-04 -3.766780623865e-04 0.0 
5.259030889069e-04 -2.667635533961e-04 0.0 
1.824909689897e-03 7.502387417406e-04 0.0 
5.390574999018e-04 -2.225646744694e-04 0.0 
2.768672520062e-04 -3.838932781985e-04 0.0 
3.583796854546e-04 -3.315306622198e-04 0.0 
7.121933701833e-04 -2.497812741576e-04 0.0 
8.049580596909e-04 -2.094658034971e-04 0.0 
1.912274906105e-04 -3.759791866558e-04 0.0 
7.253514867462e-04 -1.956978616566e-04 0.0 
8.629666805554e-04 -2.004523121791e-04 0.0 
1.028961374328e-03 -1.201454152916e-04 0.0 
3.910552838352e-04 -3.609261511919e-04 0.0 
1.292965347769e-03 1.675902075552e-04 0.0 
9.094392344641e-04 5.260973980133e-03 0.0 
1.092450629557e-03 -8.555375098021e-05 0.0 
5.168216069201e-04 1.280784357701e-05 0.0 
4.439871951719e-04 -3.428461121057e-04 0.0 
4.622903034389e-04 4.902207276007e-05 0.0 
7.934126963549e-04 -1.973627967535e-04 0.0 
1.470425345213e-03 1.143357922401e-03 0.0 
2.864182373063e-03 3.463299493843e-03 0.0 
3.984189621165e-04 -3.780811532565e-04 0.0 
2.546651817902e-03 4.828398494075e-03 0.0 
1.073787969656e-03 2.868704022804e-03 0.0 
8.841311371468e-04 -1.531293014939e-04 0.0 
1.541382314816e-03 1.128489259580e-03 0.0 
2.595931845441e-03 4.167316623614e-03 0.0 
2.625535758708e-03 2.347979394140e-03 0.0 
3.130135128210e-04 -3.893852210097e-04 0.0 
4.215697504844e-04 1.390162645760e-03 0.0 
2.534735014985e-04 -4.136519206705e-04 0.0 
8.820324556697e-04 2.074811745876e-04 0.0 
3.419587468154e-04 2.637885587141e-03 0.0 
1.138706236368e-03 1.199176570346e-04 0.0 
7.899795243607e-04 6.721000254148e-03 0.0 
8.717383954254e-04 3.793612670564e-03 0.0 
9.695292465682e-04 -1.478722413947e-04 0.0 
1.536276499850e-03 2.126301221321e-04 0.0 
6.528339135253e-04 2.351133396338e-03 0.0 
4.852737829880e-04 -6.174550102911e-05 0.0 
9.873440834671e-04 4.785924792504e-03 0.0 
9.769748286713e-04 1.667722517441e-05 0.0 
3.848319879407e-04 -3.583920263770e-04 0.0 
1.055396364218e-03 4.306359779803e-03 0.0 
8.765097473460e-04 4.602391125953e-04 0.0 
3.825189799773e-04 2.474681454066e-05 0.0 
5.683389271148e-04 -2.615458710121e-04 0.0 
8.652708260965e-04 6.749536999607e-03 0.0 
9.145323613959e-04 7.272130589148e-03 0.0 
7.421392706740e-04 -2.106179742176e-04 0.0 
5.729757136803e-04 -6.835432664217e-05 0.0 
6.031023996422e-04 -3.859420897073e-05 0.0 
1.641798473083e-04 -4.473293387345e-04 0.0 
8.289632905335e-04 2.612015642797e-04 0.0 
1.221374055071e-03 -9.338357069783e-06 0.0 
1.031540474131e-03 -1.208680010332e-04 0.0 
2.330601104354e-03 1.552002482246e-03 0.0 
5.213707900834e-04 1.873059077669e-03 0.0 
1.506895061027e-03 2.256607368667e-03 0.0 
3.870407885998e-04 2.669268095762e-03 0.0 
2.673236493520e-03 4.057716436409e-03 0.0 
1.282310128220e-03 3.817493497300e-03 0.0 
5.319563433168e-04 -7.575292956172e-05 0.0 
4.891753677608e-04 2.287112947911e-03 0.0 
1.245597071181e-03 4.806156840428e-03 0.0 
5.998926941948e-04 -2.381721082982e-04 0.0 
1.289182624501e-03 5.361991332795e-05 0.0 
9.736511724620e-04 4.295314436728e-03 0.0 
7.158317207709e-04 2.816855625176e-03 0.0 
7.494411788408e-04 4.237268274245e-03 0.0 
9.076794465487e-04 4.769145575633e-03 0.0 
4.235036229429e-04 -1.016089854825e-05 0.0 
1.078730848401e-03 2.796420948456e-04 0.0 
5.188413669911e-04 -1.048793376791e-05 0.0 
5.677738788905e-04 -1.370251699496e-04 0.0 
2.541027257081e-03 7.351025942201e-03 0.0 
1.163697284644e-03 1.714811931508e-04 0.0 
1.731058596846e-03 4.680862449593e-03 0.0 
1.709123438641e-04 -4.009139968449e-04 0.0 
1.154560995198e-03 -5.142809452614e-05 0.0 
1.166041656942e-03 -2.167278710462e-05 0.0 
1.518098854942e-03 2.253335720922e-04 0.0 
6.096164649852e-04 -7.392919918716e-05 0.0 
1.221028187705e-03 1.078307920982e-06 0.0 
1.450415306908e-03 2.319656880758e-04 0.0 
2.908010141529e-03 5.548885211780e-03 0.0 
5.836166576127e-04 -2.206461710465e-04 0.0 
1.333889530710e-03 5.807472431507e-03 0.0 
8.182487373628e-04 8.872204783602e-03 0.0 
-3.589501184736e-04 1.228757295878e-03 0.0 
6.002164317190e-04 -1.543704911764e-04 0.0 
1.045759921684e-03 1.110099734104e-04 0.0 
1.227236206789e-03 1.933452334106e-03 0.0 
1.487701312146e-03 1.733033882101e-04 0.0 
5.838032026340e-04 -1.786316102001e-04 0.0 
1.064719784825e-03 5.792545167809e-03 0.0 
-2.880517379561e-04 1.825643284634e-03 0.0 
1.201705815451e-03 1.528790349469e-04 0.0 
1.415560017918e-03 1.370359682754e-04 0.0 
2.930906708571e-03 5.429393855374e-03 0.0 
5.622490792058e-04 -4.737937595573e-05 0.0 
5.155462905049e-04 -2.602251300557e-04 0.0 
5.828538660133e-04 -1.913623770048e-05 0.0 
4.981796220562e-04 3.304431786556e-05 0.0 
1.362571453780e-03 2.096137180128e-04 0.0 
8.212013973418e-04 4.260351246443e-03 0.0 
1.916396997683e-03 9.040285090864e-04 0.0 
4.691872398733e-04 2.429718816673e-05 0.0 
-1.114940231009e-04 2.716054634416e-03 0.0 
1.159356653469e-03 5.303185897989e-03 0.0 
1.213433991855e-03 3.958305879914e-04 0.0 
7.989532572237e-04 3.775428697150e-03 0.0 
1.452370402515e-03 2.035033442933e-04 0.0 
1.362120396668e-03 9.285521124392e-05 0.0 
3.408282387557e-04 -1.997777481156e-04 0.0 
1.868686000518e-04 8.579216901078e-05 0.0 
6.350278330599e-04 3.250089613416e-03 0.0 
1.460062850283e-04 -3.869207798722e-04 0.0 
4.179139251939e-04 4.055959181348e-03 0.0 
2.132808277711e-03 1.164227078308e-03 0.0 
3.480252413287e-04 2.182168992210e-03 0.0 
4.240961400984e-04 -3.101873709732e-04 0.0 
2.733834251199e-03 2.202674142825e-03 0.0 
1.155973613757e-03 4.805675661567e-03 0.0 
4.783625168298e-04 -2.113890227918e-04 0.0 
5.856604033243e-04 -1.294910508005e-04 0.0 
1.361216022128e-03 1.047031135945e-03 0.0 
2.903947688553e-04 -3.644691652487e-04 0.0 
4.441545198896e-04 -2.795374025054e-04 0.0 
3.615216832137e-04 -3.267325741642e-04 0.0 
1.493637740658e-03 1.905184930736e-04 0.0 
2.292147073133e-04 4.612968717040e-04 0.0 
7.674251698036e-04 6.661122441696e-03 0.0 
3.373941623466e-04 -8.790382585104e-06 0.0 
1.389081837394e-03 2.483094177039e-04 0.0 
1.438134443140e-03 5.285819918204e-03 0.0 
3.681020874759e-04 5.418177131068e-05 0.0 
4.329387258370e-04 3.979395944944e-05 0.0 
3.456439090944e-04 -3.516750720503e-04 0.0 
1.602698363911e-04 -3.593231308489e-04 0.0 
1.400627441298e-03 2.754395514847e-04 0.0 
9.013765165283e-04 -1.633871810999e-04 0.0 
1.291583536312e-03 3.751490620484e-04 0.0 
1.823032178188e-03 1.850247800188e-03 0.0 
1.603954013042e-03 4.231117268608e-03 0.0 
9.100059027954e-04 2.306574206263e-04 0.0 
1.072472314936e-03 5.294480372002e-03 0.0 
1.291063679101e-03 1.902129991364e-03 0.0 
1.109301722091e-03 3.824657491158e-03 0.0 
1.143906131086e-03 3.342744428306e-03 0.0 
5.080313402881e-04 4.659660632416e-04 0.0 
3.389340286158e-04 -2.653022939546e-05 0.0 
1.227738297662e-03 4.312313787612e-03 0.0 
1.846367104603e-03 5.442769743428e-04 0.0 
1.311044113224e-03 8.762634204870e-03 0.0 
7.660589347154e-04 2.053366810134e-04 0.0 
6.809307743897e-04 1.374460498794e-04 0.0 
1.660826184365e-04 -3.747169352412e-04 0.0 
1.395732149969e-03 3.864908658989e-04 0.0 
1.765990306343e-05 -4.202222356851e-04 0.0 
2.319103662178e-03 1.266074205643e-03 0.0 
1.225032135902e-03 2.067156326068e-04 0.0 
9.166168758852e-04 2.419078156424e-03 0.0 
8.757262372143e-04 1.959131131034e-03 0.0 
1.332646772720e-03 2.301369848604e-04 0.0 
9.069379668798e-04 3.326427306323e-03 0.0 
1.570687182303e-03 3.899110837238e-04 0.0 
2.256147621916e-03 1.551340937627e-03 0.0 
1.778178156219e-03 9.512365691963e-03 0.0 
1.580817729854e-03 1.670460360568e-03 0.0 
1.959973646970e-03 9.525045109923e-03 0.0 
1.974734135481e-03 9.367599822272e-03 0.0 
1.587952004280e-03 2.688331251668e-04 0.0 
1.949098091749e-03 9.139125012247e-03 0.0 
2.182599726486e-03 9.174820985795e-04 0.0 
1.938390446229e-03 8.123809867426e-04 0.0 
1.281443217815e-03 2.723906536595e-05 0.0 
4.985050988639e-04 -1.524450472101e-04 0.0 
1.437179850580e-03 1.547880395509e-04 0.0 
6.533351951611e-04 2.797609259463e-03 0.0 
1.377929874495e-03 1.768443645625e-03 0.0 
4.036580698713e-04 -5.407217452327e-05 0.0 
1.122437281864e-03 3.151795026508e-04 0.0 
9.587529497316e-04 -1.418777447388e-04 0.0 
1.061795738637e-03 3.342849468708e-03 0.0 
1.354035122615e-03 7.689102827268e-05 0.0 
2.669545674385e-04 -2.135734477120e-05 0.0 
1.026583246071e-03 3.819184662210e-03 0.0 
1.372656199718e-03 3.802024690106e-03 0.0 
1.305510422621e-03 1.417571626679e-04 0.0 
1.510181175739e-03 2.574802527834e-04 0.0 
1.924431257968e-03 1.232845044677e-03 0.0 
2.845298599255e-03 3.718512088416e-03 0.0 
4.808589922145e-04 -2.008479434649e-04 0.0 
6.569527720463e-04 5.892527077958e-05 0.0 
1.926140395018e-03 1.686927315628e-03 0.0 
2.805144208042e-03 2.469581996729e-03 0.0 
2.027868925644e-04 -1.631010625527e-05 0.0 
1.318636311343e-03 4.305254834156e-03 0.0 
1.433251146838e-03 1.807489091666e-04 0.0 
2.701507290998e-03 2.174662952450e-03 0.0 
1.054943298568e-03 1.550013214556e-04 0.0 
6.985566441785e-04 3.274470318625e-03 0.0 
1.749801533952e-03 1.203155039442e-03 0.0 
1.527076751848e-03 5.772414706644e-03 0.0 
7.513921343692e-04 6.040725285259e-05 0.0 
1.409845673034e-03 1.153713657144e-04 0.0 
1.000005514690e-03 1.274914796273e-04 0.0 
2.416432481802e-03 1.462404259611e-03 0.0 
7.157684763672e-04 2.379456320854e-03 0.0 
1.487164391731e-03 1.083083420417e-03 0.0 
1.364722353927e-03 1.236660323438e-04 0.0 
5.531697767030e-04 3.076980437884e-05 0.0 
1.740738018165e-03 7.714851363150e-04 0.0 
2.335531025216e-03 1.182357714565e-03 0.0 
1.492306090735e-03 2.953577514003e-04 0.0 
1.377071624239e-03 1.553183293430e-04 0.0 
7.067248979604e-04 1.458402557633e-05 0.0 
5.354510044766e-04 -3.758824928399e-05 0.0 
1.380343137999e-03 1.012155748383e-04 0.0 
2.521717028368e-03 4.347872303762e-03 0.0 
1.837773768362e-04 -1.895327322537e-05 0.0 
2.539549510924e-03 3.715818622234e-03 0.0 
1.966497562489e-03 1.002265420751e-03 0.0 
2.456637636211e-03 4.999985698480e-03 0.0 
2.208103183186e-03 6.315414657824e-03 0.0 
2.790988937392e-03 3.084960125337e-03 0.0 
1.189808013434e-03 2.911556952111e-04 0.0 
3.879275490608e-04 -3.705389613071e-05 0.0 
1.432777360597e-03 4.784795400346e-03 0.0 
8.106662157998e-04 1.961588486879e-03 0.0 
2.349135983077e-03 5.659821713292e-03 0.0 
1.170833033627e-03 1.603281212745e-04 0.0 
1.596641931421e-03 7.173501929214e-04 0.0 
5.394641509539e-04 2.303055453893e-03 0.0 
2.125050196169e-03 9.297827166968e-04 0.0 
2.288717091451e-03 1.140142598096e-03 0.0 
1.319585520360e-03 1.678060572298e-04 0.0 
1.506769718391e-03 4.266546457782e-03 0.0 
2.505836041588e-03 3.141264174587e-03 0.0 
2.109697617954e-03 8.212925725407e-04 0.0 
2.410320229898e-03 2.748555275455e-03 0.0 
1.413626467772e-03 3.358121329414e-04 0.0 
1.203369667519e-03 5.223565940176e-04 0.0 
1.276870676376e-03 7.292687977768e-05 0.0 
1.923063016970e-04 8.893984506849e-06 0.0 
1.005860944240e-03 1.939978546108e-03 0.0 
2.736940263919e-03 3.675556287306e-03 0.0 
1.062007844199e-03 -8.515554175859e-05 0.0 
1.389754555575e-03 5.908471970011e-04 0.0 
1.530564696148e-03 4.761555831166e-03 0.0 
4.715295951253e-04 -4.276596724627e-05 0.0 
1.736519925414e-03 6.155621515413e-04 0.0 
1.132609154360e-04 -1.132023852348e-05 0.0 
1.294208361007e-04 -1.303925663453e-05 0.0 
2.677903957415e-03 1.975061122745e-03 0.0 
1.732073590053e-03 5.012108009046e-04 0.0 
1.713264115288e-03 1.024684573260e-03 0.0 
-3.598274406022e-05 2.356412097491e-05 0.0 
5.074855209796e-04 -3.579844509244e-05 0.0 
1.085236716047e-03 6.554726153304e-04 0.0 
1.629082795951e-03 5.739175173892e-03 0.0 
4.714172429154e-04 -1.702398806403e-04 0.0 
1.345879744801e-03 1.381230473093e-04 0.0 
2.441328739330e-04 -2.484833083293e-05 0.0 
2.272555977837e-03 1.059143051198e-03 0.0 
1.218296044347e-03 1.259421827219e-04 0.0 
2.676317332405e-03 1.978242869379e-03 0.0 
1.218949784849e-04 -8.203302498884e-05 0.0 
2.335121866590e-03 1.483263343051e-03 0.0 
1.349493421753e-03 2.881219899436e-04 0.0 
1.232445934180e-03 9.602089592548e-04 0.0 
2.051388382626e-03 1.217222218754e-03 0.0 
8.410940186022e-04 4.888272037195e-05 0.0 
3.711701291903e-04 -5.874868448568e-05 0.0 
4.704975531218e-04 1.844227500937e-03 0.0 
6.224294210955e-04 1.861312145483e-04 0.0 
1.337663060555e-03 3.380349068668e-04 0.0 
1.672235389014e-03 4.414034893737e-04 0.0 
2.543191560412e-03 1.737707818849e-03 0.0 
1.475203728679e-04 -2.333668009711e-05 0.0 
1.041909684135e-04 -2.068751653312e-04 0.0 
2.181176112836e-03 1.287579504608e-03 0.0 
1.341852167404e-03 5.300122404829e-03 0.0 
3.122076184924e-04 -3.084744673815e-05 0.0 
4.843263423937e-04 -1.836497417488e-05 0.0 
3.344101750521e-04 9.345361096213e-03 0.0 
2.237434798167e-04 9.344300505685e-03 0.0 
2.396740827926e-03 4.035483994773e-03 0.0 
2.421612497422e-03 1.530608526455e-03 0.0 
4.043229499885e-04 -1.553849173315e-04 0.0 
2.691700333994e-03 2.943409548017e-03 0.0 
2.150150677850e-03 8.810016349819e-04 0.0 
7.136815538615e-04 1.102229562854e-04 0.0 
1.758236555767e-03 5.514046033031e-04 0.0 
2.048113621702e-04 4.776971021106e-04 0.0 
2.183690551697e-03 7.274458003236e-03 0.0 
2.193292995435e-03 9.804474711315e-04 0.0 
5.129440705423e-04 -1.659207042831e-04 0.0 
7.967245273257e-04 1.707670511864e-04 0.0 
5.397261866505e-04 -2.260490129713e-04 0.0 
2.587223909394e-03 1.760669844624e-03 0.0 
2.861101693092e-03 2.734323266238e-03 0.0 
1.637927822793e-03 5.229340816272e-03 0.0 
2.582982476350e-03 2.593645855433e-03 0.0 
2.446674231625e-03 2.433329435608e-03 0.0 
4.957145374487e-05 -4.393713356382e-04 0.0 
5.135663850247e-04 -2.487926326069e-04 0.0 
2.657378566057e-03 3.245214882847e-03 0.0 
2.713623967198e-03 3.763587953726e-03 0.0 
2.596205122809e-03 3.535733723894e-03 0.0 
1.000187954039e-03 2.200685144220e-04 0.0 
9.175246025995e-06 -4.111929750485e-04 0.0 
4.299932815259e-04 -1.200969656569e-04 0.0 
2.567860741157e-03 1.722849136378e-03 0.0 
4.725156242141e-04 -2.523695522351e-04 0.0 
2.064321840468e-03 9.160554098380e-03 0.0 
2.042711171537e-03 8.979967544804e-03 0.0 
1.741237428840e-03 5.184076623873e-03 0.0 
3.873609209035e-04 5.485280826136e-04 0.0 
4.563099602476e-04 -1.924670038769e-04 0.0 
9.896499051113e-04 8.544406174077e-05 0.0 
4.429831254777e-04 -6.080201934410e-05 0.0 
7.082096931568e-04 3.477395266695e-04 0.0 
9.240052382399e-04 2.870654531700e-03 0.0 
3.610116425353e-04 -2.188108301518e-04 0.0 
3.287131982565e-04 -4.604762343581e-05 0.0 
8.578222678081e-05 -4.507785988533e-04 0.0 
9.619848086399e-04 4.107606384791e-05 0.0 
2.599447108902e-03 1.752472171703e-03 0.0 
6.595554643689e-05 -4.480553961603e-04 0.0 
8.518659425026e-04 2.859705198263e-03 0.0 
3.628084547319e-04 -1.785551347392e-05 0.0 
2.753507105075e-03 3.545301738471e-03 0.0 
2.810934620883e-03 2.467879829952e-03 0.0 
1.080084370090e-03 -8.794613218159e-05 0.0 
8.638952416547e-04 -7.355836298354e-05 0.0 
8.489445369179e-04 2.420923624917e-03 0.0 
8.132929582783e-04 -3.666392217384e-05 0.0 
2.426746893100e-03 1.356403534387e-03 0.0 
2.477261778958e-03 1.510518471886e-03 0.0 
-3.838269652840e-04 1.003890515390e-03 0.0 
2.763590027017e-04 -3.919860477179e-05 0.0 
1.831942971202e-03 9.434287942937e-04 0.0 
2.138706877998e-03 5.902955939271e-03 0.0 
1.637746319652e-03 7.910569392358e-04 0.0 
1.131972585628e-03 8.035689506573e-04 0.0 
1.832896866984e-03 3.058837059317e-03 0.0 
1.689626067114e-03 9.406580086565e-04 0.0 
2.185509822533e-03 8.415225762464e-03 0.0 
1.868465956214e-03 1.035033165998e-03 0.0 
3.001216705204e-04 -4.982162882784e-05 0.0 
2.415536881956e-03 1.393986355832e-03 0.0 
5.201837210997e-04 -2.075281662635e-04 0.0 
5.396579921443e-04 -1.842869709915e-04 0.0 
1.075320376715e-03 1.930367519522e-03 0.0 
8.868698384760e-04 -1.130924382222e-04 0.0 
2.738038039031e-03 2.204153722683e-03 0.0 
1.878349764618e-03 5.327541627714e-04 0.0 
7.347072887569e-04 -4.852624382167e-06 0.0 
2.029818705508e-03 7.866432332972e-04 0.0 
9.070193105415e-04 1.440066893616e-05 0.0 
1.268136746317e-03 4.825417552362e-05 0.0 
1.060029743995e-03 1.204726384096e-04 0.0 
2.673102275485e-03 3.148538566578e-03 0.0 
1.010395123418e-03 4.903284313815e-05 0.0 
2.788882868362e-03 2.853038885873e-03 0.0 
1.139238566198e-03 2.547583608262e-04 0.0 
1.222960567300e-03 2.539474294841e-04 0.0 
1.945433156863e-03 7.321606014095e-04 0.0 
1.838480149521e-03 5.635287650688e-03 0.0 
2.607943972508e-04 -3.811243819191e-05 0.0 
2.358788906449e-04 -4.110966491390e-05 0.0 
1.490561670572e-04 6.009451958956e-04 0.0 
2.690318095130e-03 2.527168536445e-03 0.0 
1.442268004938e-04 -1.099829308861e-05 0.0 
2.042113934068e-03 5.291700130170e-03 0.0 
3.550574701336e-04 -1.791292892410e-04 0.0 
-3.254269918646e-04 1.071624473257e-03 0.0 
2.002078515989e-04 -3.048872452502e-05 0.0 
8.784058431847e-04 1.237259714435e-04 0.0 
8.615151152073e-05 -1.904631922610e-04 0.0 
1.808810693851e-03 5.785005275513e-04 0.0 
1.944904897661e-03 5.566050433974e-03 0.0 
2.030576146577e-03 5.998658207538e-03 0.0 
2.529058631090e-03 1.567279764551e-03 0.0 
1.985741064887e-03 9.221380292314e-03 0.0 
2.049998536553e-03 9.248015624105e-03 0.0 
1.787568120238e-04 -3.283116785084e-05 0.0 
8.689654954082e-04 -4.686168837319e-05 0.0 
1.099492303421e-03 -5.318094608534e-05 0.0 
1.019126104952e-03 6.435193756820e-05 0.0 
1.263102985571e-03 1.944807731331e-05 0.0 
9.939657557013e-04 1.606837152792e-04 0.0 
1.899824090427e-03 9.578306076608e-03 0.0 
2.145735900160e-03 6.869727227551e-03 0.0 
2.816592994320e-04 9.634475339491e-03 0.0 
1.166479950027e-03 2.178436387716e-04 0.0 
1.853669030884e-03 6.058608081694e-04 0.0 
8.000565670196e-04 2.287617414476e-04 0.0 
7.490450311932e-05 -4.131902188787e-05 0.0 
1.306192355335e-03 5.494424934388e-05 0.0 
1.203319732545e-04 -3.699017649100e-06 0.0 
1.009055129767e-03 -3.731802347848e-05 0.0 
1.025836150322e-03 3.221974502017e-04 0.0 
2.446957377487e-03 1.383541791727e-03 0.0 
2.228347917401e-03 1.093962676035e-03 0.0 
6.980234983096e-04 7.201376164762e-05 0.0 
5.398175482408e-04 -3.147957832887e-04 0.0 
2.743199677539e-03 2.395174330001e-03 0.0 
1.193246663164e-03 -2.024431206546e-05 0.0 
2.829897497781e-03 2.691108536520e-03 0.0 
1.299241294795e-03 8.711620924103e-04 0.0 
2.031836517935e-03 8.542698077877e-04 0.0 
1.144773835535e-03 -5.454306146917e-05 0.0 
4.432243334737e-04 -1.518797872223e-04 0.0 
2.856073041840e-03 2.945138735657e-03 0.0 
-2.567823460581e-04 6.714386232213e-04 0.0 
1.850929867432e-03 5.135117797050e-04 0.0 
-1.371131681601e-04 1.052977266473e-03 0.0 
1.384772946055e-04 -4.462019541894e-04 0.0 
3.927390259022e-04 -1.767434389527e-04 0.0 
2.125140646933e-03 1.570186748131e-03 0.0 
2.156916145190e-03 5.396880003932e-03 0.0 
1.671938214126e-03 8.623228573091e-03 0.0 
1.060934166573e-04 2.306269697372e-04 0.0 
-4.116662017552e-04 8.187455215035e-04 0.0 
1.868498893866e-03 9.022887935649e-03 0.0 
1.065194142744e-03 -4.956319185638e-05 0.0 
3.044323555925e-04 -2.012209280847e-04 0.0 
2.630972715390e-03 7.163946791651e-03 0.0 
8.886986090214e-04 -1.786715688150e-04 0.0 
9.067918367276e-04 -8.478228046426e-05 0.0 
2.518422056592e-03 1.572295690837e-03 0.0 
1.762301431611e-03 4.844253860983e-04 0.0 
1.860473930134e-03 1.890532587291e-03 0.0 
2.689589868399e-04 5.131430615298e-04 0.0 
3.990349747305e-04 -2.168843644046e-04 0.0 
2.831895140851e-04 -1.824335680388e-04 0.0 
3.472533597872e-04 -3.892747487023e-04 0.0 
2.115359392903e-03 8.170129416458e-03 0.0 
2.260400216928e-03 5.286019974130e-03 0.0 
2.726201257983e-05 -8.218823513558e-05 0.0 
7.312008847792e-05 -4.521867773361e-04 0.0 
-1.234106834156e-04 7.765180350165e-05 0.0 
2.511050586484e-04 -4.300634061112e-04 0.0 
2.485232163667e-04 -1.836566386524e-04 0.0 
1.129081984383e-03 -2.092251180462e-05 0.0 
8.632807588770e-04 -1.725160438997e-04 0.0 
8.659738008367e-04 -4.674448077911e-05 0.0 
3.304043756902e-04 -1.606675325653e-04 0.0 
2.313527174123e-03 4.167471361506e-03 0.0 
2.268928335516e-04 -1.653262390961e-04 0.0 
1.190289911800e-03 3.436578545462e-05 0.0 
2.670810448366e-03 2.323334179711e-03 0.0 
1.298969877162e-03 7.873017335920e-03 0.0 
1.606085430022e-03 5.076520866803e-04 0.0 
1.938337199493e-04 -1.665002241097e-04 0.0 
2.949323028049e-04 -1.625286313941e-04 0.0 
1.086486398697e-03 6.903767227981e-03 0.0 
1.085743813888e-03 -7.944534433336e-05 0.0 
1.717292334190e-04 -1.487428284718e-04 0.0 
5.083297213549e-05 5.841281917596e-03 0.0 
5.581406332834e-05 6.813989652480e-03 0.0 
1.409399178545e-03 7.927999873962e-03 0.0 
2.702713579840e-04 -1.445332674543e-04 0.0 
7.288535537999e-04 -2.615375742489e-04 0.0 
8.547648483300e-05 1.192913815987e-03 0.0 
9.877099685628e-04 2.896198888656e-04 0.0 
2.668381971641e-04 -4.234393222308e-04 0.0 
7.467122091963e-04 -2.587405896923e-04 0.0 
1.915979089012e-03 5.720771115148e-04 0.0 
1.583768620519e-03 9.255659614432e-03 0.0 
1.398527115420e-04 -1.499217685962e-04 0.0 
2.145396576608e-05 -3.791622181905e-04 0.0 
2.107545769344e-03 7.790678921174e-03 0.0 
2.368981864491e-04 -1.461078045428e-04 0.0 
1.000108551600e-03 -1.113603282127e-04 0.0 
4.165331267196e-04 -1.954654320801e-04 0.0 
-1.786198717401e-04 4.876687254425e-04 0.0 
6.472435500388e-05 2.991249681641e-03 0.0 
9.150522846238e-04 -1.810984679157e-04 0.0 
8.678804745850e-04 1.463092204234e-04 0.0 
2.155906989828e-03 9.694327093634e-04 0.0 
2.128228745839e-04 -1.287622578519e-04 0.0 
1.807130351561e-04 -1.302232967674e-04 0.0 
1.044944833648e-03 -5.555246401890e-05 0.0 
1.828772298745e-04 -4.173411200398e-04 0.0 
-1.815531740024e-04 5.949839468424e-04 0.0 
1.570849441903e-04 -1.135194967738e-04 0.0 
7.410406899976e-04 8.827783560602e-05 0.0 
6.061650087555e-04 -3.161856291121e-04 0.0 
2.550183254334e-03 2.045699628709e-03 0.0 
1.682605166383e-03 4.389735718828e-03 0.0 
2.583706306515e-03 2.409326083326e-03 0.0 
2.417422362179e-04 2.463499658351e-05 0.0 
-3.055123106580e-04 1.426694023660e-04 0.0 
9.603545594629e-06 2.600349711430e-04 0.0 
5.504889611889e-06 -1.428319853732e-07 0.0 
3.470354307501e-05 8.358072827348e-03 0.0 
7.620459247668e-04 -2.458782454638e-04 0.0 
2.343155260590e-03 1.239269047877e-03 0.0 
1.158009504211e-03 5.769807847826e-05 0.0 
1.324899184246e-04 -4.521261591596e-04 0.0 
-3.590591192919e-04 8.718999929656e-04 0.0 
2.739061097747e-04 2.148327451549e-03 0.0 
2.348489192873e-03 4.651446874901e-03 0.0 
1.996535623941e-03 8.714359353644e-03 0.0 
3.397910999964e-04 1.483932244218e-04 0.0 
1.920344248023e-05 -4.013808101863e-04 0.0 
3.088364156166e-04 1.221891692674e-04 0.0 
2.253837830163e-03 4.782447777478e-03 0.0 
6.239915975408e-04 -2.845398715653e-04 0.0 
2.363939181622e-03 1.233840410060e-03 0.0 
7.113473507570e-04 -2.706900637582e-04 0.0 
2.128464851880e-04 1.474363647110e-03 0.0 
6.173114291647e-04 -3.075680034029e-04 0.0 
2.330731257956e-03 3.575787371489e-03 0.0 
7.443909160670e-05 -2.958722511707e-05 0.0 
8.546012861994e-04 -2.093389035909e-04 0.0 
2.450535652411e-03 2.107842823431e-03 0.0 
-2.370106636716e-04 6.086957596948e-05 0.0 
1.013395782350e-03 -1.121030312511e-04 0.0 
1.924575829160e-03 3.518280295201e-03 0.0 
4.987373378160e-04 -3.348193748755e-04 0.0 
5.179546030118e-04 -3.480901170354e-04 0.0 
2.280753649856e-03 1.083487489353e-03 0.0 
3.271727504049e-04 -2.817072902859e-04 0.0 
6.874785300989e-04 4.414715387690e-03 0.0 
8.844919487589e-04 5.650834819115e-03 0.0 
4.495632151900e-04 -3.647231667126e-04 0.0 
1.003050264844e-03 -7.414881747675e-05 0.0 
2.006001939126e-03 7.084116767668e-04 0.0 
2.436520246995e-03 1.948050725549e-03 0.0 
1.232385552074e-03 1.347198028377e-03 0.0 
9.814936390579e-04 7.912568561341e-03 0.0 
9.485329762319e-05 4.833125175968e-03 0.0 
1.264001929933e-03 8.539615837161e-04 0.0 
1.060911872913e-03 2.064422175945e-05 0.0 
-1.682990831677e-04 1.217746677671e-03 0.0 
1.980556783358e-03 4.596493432385e-03 0.0 
9.168481516718e-04 -1.242308950799e-04 0.0 
2.428842276518e-03 2.591891031784e-03 0.0 
9.754491329214e-04 -1.039713581598e-04 0.0 
6.729813432798e-05 4.633253329921e-04 0.0 
9.767792771860e-04 -3.761154990106e-05 0.0 
3.822986452209e-04 1.821470536319e-03 0.0 
1.914314464200e-03 5.923452110526e-04 0.0 
9.643712818455e-04 -6.609819663895e-05 0.0 
2.187528801250e-03 9.643861604989e-04 0.0 
3.573533189356e-04 6.031719454184e-03 0.0 
4.168105159598e-04 -3.702532023308e-04 0.0 
-1.044816092242e-05 9.621695090556e-04 0.0 
9.242700858216e-04 -2.959895911602e-05 0.0 
6.110922741874e-04 2.270103173670e-03 0.0 
-1.427040831651e-04 1.473560110546e-04 0.0 
2.418694542155e-05 1.955362005775e-03 0.0 
3.250765553968e-05 2.919819656444e-03 0.0 
1.018779516801e-04 -4.236560429704e-04 0.0 
9.201255907662e-04 -3.644238155677e-06 0.0 
2.999299820415e-04 -4.124322317614e-04 0.0 
3.112446895655e-04 -4.026943365798e-04 0.0 
2.133076088662e-03 1.691346350156e-03 0.0 
2.106429020699e-03 8.438521963056e-04 0.0 
2.281537920387e-03 1.689119472393e-03 0.0 
9.584998735466e-04 -1.492652692397e-04 0.0 
6.284811164270e-04 9.680149677798e-03 0.0 
1.686111580326e-04 1.464223829576e-05 0.0 
2.656179377441e-04 -4.231352632260e-04 0.0 
9.946593571873e-04 1.655754332871e-04 0.0 
2.058091112202e-03 7.521053240169e-04 0.0 
6.462519603592e-05 -4.243184247919e-04 0.0 
2.509538447935e-03 3.126245412232e-03 0.0 
1.147508312163e-03 -3.490302288853e-05 0.0 
1.443300106650e-04 -3.848118941381e-04 0.0 
9.107093709415e-04 -1.331973750938e-04 0.0 
1.454357005183e-05 -9.732041731092e-05 0.0 
2.399325123880e-03 3.436677679098e-03 0.0 
2.416366321963e-04 -4.240443900960e-04 0.0 
5.791008072012e-05 -1.951494247423e-04 0.0 
2.300351176911e-03 2.111238012370e-03 0.0 
1.511998159111e-03 4.966033453519e-04 0.0 
5.295956195855e-04 -3.389176429517e-04 0.0 
4.361868928126e-05 -3.780197065239e-04 0.0 
2.004032961670e-03 6.753618070461e-04 0.0 
2.663989839872e-05 6.349673965147e-03 0.0 
1.290401979564e-04 -3.418228770488e-04 0.0 
8.968005429990e-04 5.251645417400e-04 0.0 
6.995805635770e-04 8.665744919679e-04 0.0 
1.210132566588e-04 7.701684263377e-03 0.0 
4.742896977938e-04 1.436055328805e-03 0.0 
7.354955453909e-04 7.093400272254e-04 0.0 
9.699377496589e-04 -1.519218323750e-04 0.0 
8.051617540524e-04 -2.332018829937e-04 0.0 
4.854951972922e-04 1.076334507655e-04 0.0 
-2.979139581532e-04 2.200814183679e-04 0.0 
1.002819645424e-05 -3.908070418195e-04 0.0 
4.281395272468e-05 -1.809697251258e-04 0.0 
4.930211340769e-04 -3.470351838994e-04 0.0 
7.723872991659e-04 -2.362285315849e-04 0.0 
6.137052642190e-05 2.918994492745e-03 0.0 
3.177195116565e-04 3.544523622037e-03 0.0 
1.115415269217e-03 7.840810312991e-03 0.0 
9.910231298895e-04 -1.021906620205e-04 0.0 
1.167227606546e-04 -3.732927547218e-04 0.0 
1.808371464838e-03 7.318413663314e-04 0.0 
5.657046715852e-05 4.434801815622e-06 0.0 
7.451277528663e-05 6.566209106030e-06 0.0 
8.113565516959e-04 -2.276422968205e-04 0.0 
1.412881481743e-03 8.375954539872e-03 0.0 
-1.642244747369e-04 4.059062333729e-05 0.0 
-1.745685106803e-04 1.951772021346e-03 0.0 
2.802411751676e-04 -2.570411473537e-04 0.0 
-6.873290739239e-05 2.382671185219e-03 0.0 
2.023190418786e-03 7.080685919723e-04 0.0 
6.461219198137e-04 -3.010373102654e-04 0.0 
8.396854867094e-04 -2.095685676255e-04 0.0 
4.154164591078e-05 -1.468034495617e-04 0.0 
7.429381952344e-05 2.641354276774e-03 0.0 
7.022084328299e-04 -2.779928218135e-04 0.0 
2.374900969213e-04 2.100231012950e-03 0.0 
1.957216917289e-04 3.508513981744e-03 0.0 
2.882130754766e-05 5.743792395575e-04 0.0 
1.237281432039e-05 -2.128038512459e-07 0.0 
6.387770800464e-05 7.811089337100e-03 0.0 
6.664072581500e-04 -2.851169265008e-04 0.0 
6.587330779860e-04 5.258103658579e-03 0.0 
6.685817016098e-04 -2.739948453023e-04 0.0 
2.130235565104e-05 1.325294438348e-06 0.0 
-2.897332972399e-04 1.311167776050e-03 0.0 
-2.436024774432e-04 1.601040552317e-03 0.0 
9.622911625018e-04 1.945972554555e-04 0.0 
1.055024147542e-03 8.736161636142e-03 0.0 
1.419260688744e-04 2.012276366207e-03 0.0 
2.303488767533e-03 1.970071172301e-03 0.0 
1.259544388877e-03 4.397954833833e-04 0.0 
2.030854458621e-03 2.238758117948e-03 0.0 
4.105594966475e-04 7.477799527086e-03 0.0 
4.375761924401e-04 -3.743400970868e-04 0.0 
4.693930947534e-04 -3.658245883574e-04 0.0 
1.182609107166e-04 5.318438207410e-03 0.0 
1.455884375185e-03 5.320876643499e-04 0.0 
1.762087174347e-03 8.881773447109e-03 0.0 
2.200922180372e-04 8.787319321195e-03 0.0 
2.635515314023e-04 7.927371903918e-03 0.0 
4.708626348678e-04 7.595265784839e-03 0.0 
2.003735864004e-04 -1.227479920059e-04 0.0 
3.931690216573e-04 -3.895914895984e-04 0.0 
2.130585841168e-04 1.280165004869e-03 0.0 
4.572438709242e-04 6.555413525367e-03 0.0 
4.335709970768e-04 1.274426151725e-04 0.0 
1.325017290605e-03 1.369790039112e-03 0.0 
2.546552462734e-03 2.957336470170e-03 0.0 
6.980620650482e-04 1.977792655856e-03 0.0 
1.853894672239e-04 -2.964578474657e-04 0.0 
1.763393137828e-04 -3.287668098772e-04 0.0 
2.918214985204e-04 1.804706521394e-05 0.0 
-3.675483927796e-05 -1.408905665960e-04 0.0 
5.291274143259e-05 -3.880230329929e-04 0.0 
1.598415953031e-04 6.609738677561e-05 0.0 
1.372108774886e-05 -4.351661525334e-04 0.0 
2.714703607355e-04 8.494143973523e-03 0.0 
6.131115901516e-04 1.042588409290e-04 0.0 
1.327040711464e-04 -4.531840376297e-04 0.0 
9.680906749091e-05 -4.627055290572e-04 0.0 
1.326136961808e-04 4.906347268378e-04 0.0 
9.167317038233e-04 9.395596133859e-03 0.0 
3.180374530087e-04 1.379601431088e-03 0.0 
6.327252988875e-04 1.337116516920e-04 0.0 
7.988674531454e-04 9.406300060268e-03 0.0 
-2.188049492993e-04 2.172162021328e-04 0.0 
5.004702961578e-05 1.076890331301e-03 0.0 
1.276994206798e-04 -4.441002193624e-04 0.0 
3.515985934710e-04 1.805512587158e-03 0.0 
1.660741985671e-05 8.024375614142e-07 0.0 
1.147370546984e-03 1.460462849460e-03 0.0 
3.492518324347e-04 -1.380796498340e-04 0.0 
1.599900514832e-03 7.655544688144e-03 0.0 
1.121201257617e-04 -2.946431012359e-04 0.0 
1.742869172553e-03 6.524100341327e-04 0.0 
2.310404678906e-04 7.019764426233e-05 0.0 
1.135079198300e-04 4.339430520132e-03 0.0 
2.150725126427e-04 5.893516828168e-05 0.0 
4.573631644447e-05 -9.242945069850e-05 0.0 
1.010892653325e-04 2.303449620558e-06 0.0 
4.104127815773e-04 -2.236421973018e-04 0.0 
6.262121073894e-05 -4.378131518824e-04 0.0 
3.339887353389e-04 5.275487031181e-05 0.0 
5.743270165551e-04 1.150249613899e-03 0.0 
2.895927194258e-04 9.625419939421e-04 0.0 
6.054953153041e-04 8.676529566125e-03 0.0 
2.043057798970e-03 6.932485645322e-03 0.0 
2.267478645495e-04 1.271790147892e-03 0.0 
8.600236685276e-04 7.958905867613e-04 0.0 
8.898318817253e-05 -3.379064269292e-04 0.0 
-4.914700867600e-05 6.461044609064e-04 0.0 
1.577318072731e-03 5.615035282570e-04 0.0 
5.008056004569e-04 9.686951794866e-03 0.0 
7.699241242977e-04 1.579661487906e-03 0.0 
4.047058275675e-06 5.459527110403e-04 0.0 
4.047058275675e-06 2.303582742872e-04 0.0 
1.115200525318e-05 -4.631943169275e-04 0.0 
4.726725286321e-06 -4.602437185474e-04 0.0 
2.718743272523e-05 9.327640764780e-03 0.0 
6.489878234089e-05 9.666622280842e-03 0.0 
2.133086837622e-06 -2.380173863702e-07 0.0 
2.133086837622e-06 -1.077548273555e-06 0.0 
2.105784422460e-05 -4.565001918269e-04 0.0 
-1.719041031540e-04 -7.025042973938e-05 0.0 
1.001384784840e-04 -7.457045314000e-06 0.0 
1.254133633527e-03 5.807428481534e-04 0.0 
1.167464435281e-04 -4.357954253936e-04 0.0 
1.699590258730e-04 2.335158293675e-06 0.0 
2.535491610338e-05 -1.503247684021e-04 0.0 
2.635851265543e-05 -2.207061187616e-04 0.0 
3.111561205302e-04 6.171495236583e-03 0.0 
2.593878750293e-04 -3.289195319030e-04 0.0 
1.959657159973e-03 7.551834936495e-04 0.0 
1.124855009426e-04 -4.475686961082e-04 0.0 
1.566761353350e-04 -2.576097149291e-04 0.0 
1.142405894781e-03 1.089551088517e-03 0.0 
1.395999889864e-05 2.417244311940e-03 0.0 
5.087091697410e-05 -2.164690666085e-04 0.0 
2.002217456322e-04 7.160235945392e-03 0.0 
1.307563562978e-03 7.546962611675e-04 0.0 
1.897101603052e-03 1.819574264721e-03 0.0 
2.262173766779e-03 2.380525167277e-03 0.0 
6.860308599917e-04 9.368236390798e-03 0.0 
1.923245214105e-03 6.529872294812e-04 0.0 
9.501624792730e-04 1.561325660566e-03 0.0 
7.609865446753e-05 -3.861363474082e-04 0.0 
9.508530226318e-05 -4.327033618290e-04 0.0 
1.543690052245e-03 9.338985989198e-04 0.0 
1.044861157388e-03 1.931833111473e-04 0.0 
2.080158760905e-04 -3.207684103901e-04 0.0 
1.636219446838e-04 5.424000124695e-03 0.0 
5.494039539220e-05 -9.424800760802e-07 0.0 
1.496979672264e-03 7.809368951681e-04 0.0 
1.274317741860e-03 6.599624164180e-04 0.0 
3.048220983198e-05 -1.161888999651e-04 0.0 
-2.540590466327e-04 4.736100994700e-04 0.0 
4.251289033174e-05 3.319772464784e-03 0.0 
5.945413708931e-04 1.952751192657e-03 0.0 
1.695775621727e-03 7.294656662150e-03 0.0 
2.002627851315e-03 7.498124310320e-04 0.0 
2.729869339692e-04 1.751642145642e-03 0.0 
4.288325780912e-04 1.029713925789e-04 0.0 
1.125204233615e-04 -3.632479323962e-04 0.0 
1.295313308813e-04 -4.246343895854e-04 0.0 
-2.197844730685e-04 2.222227521120e-03 0.0 
2.698371313677e-04 4.976587473029e-03 0.0 
1.341607621887e-04 -3.590610253458e-04 0.0 
6.530776167440e-04 1.581576243939e-03 0.0 
7.042161256670e-05 -4.315234895883e-04 0.0 
7.383961326847e-04 1.713859866859e-04 0.0 
1.033387599232e-03 7.772380252554e-03 0.0 
5.818953630965e-04 2.110131993311e-04 0.0 
1.694306112623e-03 6.984805933870e-04 0.0 
1.866366751414e-03 7.158373697966e-03 0.0 
2.672759846622e-04 3.234476329944e-05 0.0 
5.055126564173e-04 1.149664081856e-03 0.0 
4.105621418566e-05 1.261148760781e-03 0.0 
-3.287040174522e-04 1.497711767580e-03 0.0 
6.370253002348e-04 1.947274685230e-03 0.0 
7.482728313385e-04 4.553185018647e-04 0.0 
7.416843337328e-04 1.597663503467e-04 0.0 
1.507370122792e-03 5.896333972813e-04 0.0 
3.024372723318e-05 2.460474503272e-06 0.0 
2.227577531081e-03 2.504199725080e-03 0.0 
-4.086309923572e-04 5.733170018668e-04 0.0 
9.682862089038e-06 8.197274355712e-04 0.0 
1.636530699576e-03 1.633621777723e-03 0.0 
1.566988412353e-03 6.742602624392e-03 0.0 
5.194788035805e-05 -1.214003855868e-05 0.0 
1.346914652489e-03 5.361349442890e-04 0.0 
1.064534075412e-04 6.331391328917e-06 0.0 
2.376182932712e-04 3.983641881714e-03 0.0 
5.265841502549e-04 1.739190928773e-04 0.0 
3.280095357766e-04 2.919265495936e-05 0.0 
3.494368994534e-04 3.549267016931e-05 0.0 
9.829284242778e-05 -3.498231348329e-04 0.0 
4.762909557638e-05 3.299621750698e-06 0.0 
1.330792142629e-03 8.741002437134e-03 0.0 
1.721592873945e-04 2.038526989642e-03 0.0 
1.486344263222e-04 -4.142251271903e-04 0.0 
1.110577388877e-04 2.833401923522e-03 0.0 
2.467707192665e-04 5.376382290343e-03 0.0 
1.163955330918e-05 -4.465868255429e-04 0.0 
2.757922243562e-04 -1.001277948192e-04 0.0 
2.102078367237e-03 2.044125237576e-03 0.0 
2.320681057042e-04 1.041765447580e-03 0.0 
8.689909469668e-05 1.946024505918e-03 0.0 
6.674676594812e-04 2.109356447688e-04 0.0 
4.970638718187e-04 7.078384086606e-03 0.0 
1.063004886276e-04 -4.567166146698e-04 0.0 
-1.047873545557e-04 2.695873009451e-04 0.0 
1.154225376224e-04 -4.582795953946e-04 0.0 
1.799659956346e-04 -4.287365826786e-04 0.0 
-4.465953230193e-04 6.690961249333e-04 0.0 
1.398680091150e-04 -2.704055439296e-04 0.0 
6.539476401835e-05 -1.153107438763e-05 0.0 
1.129310683999e-03 1.542742023638e-03 0.0 
1.997294350575e-03 6.473875343861e-03 0.0 
1.971193824811e-04 -3.136418606524e-04 0.0 
2.815518220327e-04 1.311628382861e-05 0.0 
5.677445068997e-04 8.233473750423e-05 0.0 
7.115689443964e-04 2.703941221879e-04 0.0 
1.167657061973e-03 7.012656653641e-04 0.0 
1.702108133559e-03 1.516872920178e-03 0.0 
1.482650902779e-04 -4.327087727109e-04 0.0 
-2.771025772200e-05 -3.856859098000e-05 0.0 
9.174445640597e-05 -9.628672052368e-06 0.0 
2.348031781639e-05 -4.449104808185e-04 0.0 
5.236430711420e-06 -4.411491999049e-04 0.0 
-2.708250096629e-04 7.920240067381e-04 0.0 
1.311737075445e-04 -4.560298689799e-04 0.0 
2.000013341565e-04 2.443432604786e-05 0.0 
7.256639101021e-04 5.521039755055e-04 0.0 
2.439498441996e-04 1.749183113601e-03 0.0 
5.781765102960e-04 2.296391199179e-04 0.0 
6.820831322455e-04 9.443914093492e-05 0.0 
4.033023689969e-04 6.524169337350e-03 0.0 
6.064458111191e-05 2.044005093748e-04 0.0 
3.972195186493e-04 -2.646712007560e-04 0.0 
8.562438932554e-04 9.721298892208e-03 0.0 
1.755719514093e-04 -3.440893951918e-04 0.0 
9.617770943104e-05 -4.611136266364e-04 0.0 
3.202245931662e-05 1.211602600439e-06 0.0 
1.813930304035e-03 8.290627355118e-03 0.0 
7.039025885828e-05 -4.425765169809e-04 0.0 
9.811411069997e-05 -2.784377973235e-04 0.0 
8.446661875510e-04 6.926944572989e-04 0.0 
3.945363250593e-04 1.851740475132e-03 0.0 
4.879873846403e-04 8.857282744815e-04 0.0 
5.818508939263e-05 -3.648320115587e-04 0.0 
-6.998848078304e-05 1.752785576203e-04 0.0 
1.423189322900e-04 7.095098799232e-06 0.0 
1.365060387030e-05 4.903932454302e-04 0.0 
7.637976449511e-06 -3.808493717434e-07 0.0 
6.189097580024e-05 8.787090819787e-03 0.0 
5.163194026617e-04 8.513332196924e-05 0.0 
8.444754801410e-05 -4.401363839408e-04 0.0 
6.081458049596e-04 1.595934944421e-03 0.0 
1.039851179088e-04 -4.615833255376e-04 0.0 
2.487550416023e-04 3.946413723773e-05 0.0 
6.465743473148e-04 1.140842850917e-03 0.0 
-1.986047817941e-04 2.994902531100e-04 0.0 
1.481622909814e-03 7.229401974513e-04 0.0 
2.338190503641e-04 4.456576691349e-03 0.0 
1.519481437842e-04 9.912428678628e-04 0.0 
9.169159858702e-05 2.639698030929e-05 0.0 
9.672547457503e-05 5.824119792050e-03 0.0 
6.918213103607e-04 5.896265003979e-04 0.0 
8.239882109342e-04 1.567189834760e-03 0.0 
1.934020553063e-04 5.119216262921e-03 0.0 
1.105091220311e-03 9.397195540148e-04 0.0 
1.072665093744e-04 -3.243924973724e-04 0.0 
4.398673011720e-04 9.390992281594e-03 0.0 
9.935755313602e-04 4.130262782359e-04 0.0 
1.427400479859e-05 1.044555408935e-03 0.0 
2.108000159370e-05 -4.612170690804e-04 0.0 
1.206187456418e-04 9.380253609047e-03 0.0 
6.890847632585e-06 -2.889752862778e-06 0.0 
1.317750542809e-04 -4.365982499271e-04 0.0 
6.746778049927e-04 1.298159167122e-04 0.0 
1.027067516540e-03 1.593140132362e-03 0.0 
1.774445646463e-04 1.287821142654e-03 0.0 
8.524014690748e-05 -4.329239492504e-04 0.0 
-9.639269605928e-05 5.899598415931e-04 0.0 
1.079704005958e-05 -2.024539023612e-04 0.0 
9.361205204883e-05 3.458963472551e-03 0.0 
-2.398403810664e-04 -2.023500354369e-06 0.0 
3.765864352363e-04 8.984780826810e-04 0.0 
1.741256787985e-04 6.014325996049e-03 0.0 
2.541271232433e-04 -3.553275040393e-04 0.0 
3.264644202847e-04 6.732938048717e-03 0.0 
7.624304136717e-04 3.213211848488e-04 0.0 
2.021331638281e-05 -1.840371505915e-04 0.0 
-3.917719962204e-04 7.163546374151e-04 0.0 
1.243503568855e-04 -3.468924148374e-04 0.0 
1.412683743674e-04 -2.391876037217e-04 0.0 
9.416276323230e-06 -1.660814066261e-04 0.0 
8.832209871649e-04 2.861437330041e-04 0.0 
7.315341279841e-05 -2.452932306490e-04 0.0 
9.387253505006e-05 -2.224948641101e-04 0.0 
1.210347297727e-04 -4.586030740388e-04 0.0 
1.837993015796e-04 4.451781965202e-06 0.0 
1.564192758653e-03 1.010968384566e-03 0.0 
6.162102976130e-05 5.727975776276e-04 0.0 
2.387755039322e-05 9.889959433249e-04 0.0 
1.239573724447e-05 -2.193053960967e-06 0.0 
1.176109391011e-04 8.839223576350e-03 0.0 
1.312114694932e-04 6.230501774129e-03 0.0 
1.008479875496e-04 -2.496980644249e-04 0.0 
1.126161780784e-04 -2.371036902635e-04 0.0 
6.879391441129e-05 -2.274025329061e-04 0.0 
8.474238651803e-04 1.703902792818e-04 0.0 
2.052609452781e-04 -3.632475672264e-04 0.0 
1.334401202787e-03 8.583169915875e-04 0.0 
2.135889740573e-04 7.720933056752e-03 0.0 
4.532053734885e-04 1.180465944975e-03 0.0 
8.032149774647e-04 1.497101221098e-04 0.0 
3.828192316711e-04 6.929673640835e-03 0.0 
1.472952934920e-03 1.373712466620e-03 0.0 
8.959049939626e-04 3.079105423645e-04 0.0 
6.804693103548e-04 2.369708179698e-04 0.0 
-3.251222501523e-04 6.489237253604e-04 0.0 
1.501902695984e-03 1.327921931643e-03 0.0 
1.280733868982e-03 1.068686522086e-03 0.0 
1.141741052570e-04 -4.593657745054e-04 0.0 
1.126920576186e-04 -2.645778068837e-04 0.0 
-3.253322529893e-04 5.584104230089e-04 0.0 
1.234628569375e-03 1.130312098870e-03 0.0 
1.824045582990e-04 1.331852674549e-02 0.0 
2.326396235034e-04 1.365855499153e-02 0.0 
2.965920847589e-04 1.331581722031e-02 0.0 
3.442790669295e-04 1.365417763900e-02 0.0 
4.106571016719e-04 1.331570982134e-02 0.0 
4.601845073867e-04 1.365553776452e-02 0.0 
5.246420825930e-04 1.331899400692e-02 0.0 
5.761834620755e-04 1.365944759855e-02 0.0 
6.355487838461e-04 1.332322353923e-02 0.0 
6.877405202243e-04 1.366280286445e-02 0.0 
7.405924103154e-04 1.332585958282e-02 0.0 
7.915253837972e-04 1.366304633992e-02 0.0 
8.373236304422e-04 1.332426269504e-02 0.0 
8.848424916282e-04 1.365741448369e-02 0.0 
9.235650106650e-04 1.331549204679e-02 0.0 
9.651903847126e-04 1.364285626916e-02 0.0 
6.370445974451e-04 1.017059627192e-02 0.0 
9.971165258757e-04 1.329620297723e-02 0.0 
1.029768755259e-03 1.361555552019e-02 0.0 
1.885262883517e-04 1.033083983114e-02 0.0 
1.055560936622e-03 1.326195709718e-02 0.0 
1.075399571380e-03 1.357044887817e-02 0.0 
8.147024583378e-04 1.037891831620e-02 0.0 
1.096459936141e-03 1.320698171957e-02 0.0 
1.098831335744e-03 1.350091720292e-02 0.0 
1.117583194959e-03 1.312380333168e-02 0.0 
1.096932111884e-03 1.339853560341e-02 0.0 
1.117078532091e-03 1.300322828909e-02 0.0 
1.066734840947e-03 1.325344237567e-02 0.0 
9.058217321716e-04 9.432119618928e-03 0.0 
1.093840122806e-03 1.283389743522e-02 0.0 
1.005044283592e-03 1.305193568257e-02 0.0 
1.047570560034e-03 1.259927018836e-02 0.0 
9.105836469312e-04 1.277564707784e-02 0.0 
7.856356684461e-04 1.239675216864e-02 0.0 
9.822430259827e-04 1.227707165786e-02 0.0 
6.428558003267e-04 1.188044301311e-02 0.0 
9.062543088735e-04 1.183428644949e-02 0.0 
5.050678973999e-04 1.117346482677e-02 0.0 
8.370403787151e-04 1.122862840051e-02 0.0 
4.573034230781e-04 9.592363178150e-03 0.0 
2.497589121819e-05 1.348642099308e-02 0.0 
1.243637496176e-04 1.348702154856e-02 0.0 
8.231262124187e-05 1.383197177765e-02 0.0 
6.702701959394e-05 1.314147076399e-02 0.0 
4.346202646431e-04 8.907446451470e-03 0.0 
1.651729680163e-04 1.263378443979e-02 0.0 
2.033592888717e-04 1.229464850607e-02 0.0 
2.845433404099e-04 1.263665304054e-02 0.0 
3.206494930957e-04 1.229725578025e-02 0.0 
3.990762721870e-04 1.263795214235e-02 0.0 
4.347870333445e-04 1.230037275181e-02 0.0 
5.108254380357e-04 1.264158667319e-02 0.0 
5.460872054108e-04 1.230540280488e-02 0.0 
6.192691717387e-04 1.264658607929e-02 0.0 
6.538233834138e-04 1.231096668045e-02 0.0 
7.229548856123e-04 1.265066085875e-02 0.0 
7.568166230073e-04 1.231475428282e-02 0.0 
8.202523943553e-04 1.265116936201e-02 0.0 
8.538057425896e-04 1.231396488842e-02 0.0 
9.095994977132e-04 1.264513578454e-02 0.0 
1.396390447289e-03 1.051166414733e-02 0.0 
9.435463543057e-04 1.230541673981e-02 0.0 
1.461141757597e-03 1.057167862540e-02 0.0 
9.894380084205e-04 1.262911971012e-02 0.0 
1.024898003102e-03 1.228509766459e-02 0.0 
1.058368701920e-03 1.259858250869e-02 0.0 
1.097038111412e-03 1.224771621341e-02 0.0 
1.115290710875e-03 1.254762364330e-02 0.0 
1.159586738432e-03 1.218645868446e-02 0.0 
1.196229299456e-03 1.071885468288e-02 0.0 
1.159507822913e-03 1.246870288950e-02 0.0 
1.212777703595e-03 1.209266647642e-02 0.0 
1.190999495848e-03 1.235245960428e-02 0.0 
1.257947135787e-03 1.195549169008e-02 0.0 
1.211131453888e-03 1.218671543444e-02 0.0 
1.298122180683e-03 1.175977100223e-02 0.0 
1.223357126043e-03 1.195428750880e-02 0.0 
1.339144398513e-03 1.148537103939e-02 0.0 
1.388233509899e-03 1.110336619826e-02 0.0 
1.235017211555e-03 1.163177829897e-02 0.0 
1.543002242675e-03 1.002991016369e-02 0.0 
1.256077964754e-03 1.118619383800e-02 0.0 
1.342841094841e-03 1.023710069924e-02 0.0 
2.011503023021e-05 1.245822870963e-02 0.0 
1.022712983469e-04 1.246091557299e-02 0.0 
6.022016997113e-05 1.211903718851e-02 0.0 
6.216615860595e-05 1.280010709410e-02 0.0 
1.293286735039e-03 9.952327906295e-03 0.0 
1.527132931928e-04 1.127304115926e-02 0.0 
1.954214193084e-04 1.161434987871e-02 0.0 
2.678229062682e-04 1.127801933319e-02 0.0 
3.118669285172e-04 1.161892070026e-02 0.0 
3.809553885879e-04 1.128260903627e-02 0.0 
4.254487143238e-04 1.162336472571e-02 0.0 
4.918922255196e-04 1.128843193332e-02 0.0 
5.364923119154e-04 1.162925609111e-02 0.0 
6.008011985933e-04 1.129512602012e-02 0.0 
6.449503037637e-04 1.163565333505e-02 0.0 
7.075929059371e-04 1.130115091715e-02 0.0 
7.503277229821e-04 1.164055768662e-02 0.0 
8.118766176138e-04 1.130410136138e-02 0.0 
1.693961938945e-03 1.034204682909e-02 0.0 
8.519188658733e-04 1.164109348399e-02 0.0 
9.133362112386e-04 1.130108130423e-02 0.0 
1.592668070799e-03 1.060510116103e-02 0.0 
9.491699445474e-04 1.163423366393e-02 0.0 
1.011753666655e-03 1.128860836268e-02 0.0 
1.701577095678e-03 1.030111443520e-02 0.0 
1.041590071095e-03 1.161576939304e-02 0.0 
1.107129907823e-03 1.126172891590e-02 0.0 
1.129107249322e-03 1.158019089218e-02 0.0 
1.200032598376e-03 1.121429930601e-02 0.0 
1.212259488023e-03 1.152065966840e-02 0.0 
1.809169968901e-03 9.971585737790e-03 0.0 
1.291664226196e-03 1.113861955161e-02 0.0 
1.292261357287e-03 1.142838215459e-02 0.0 
1.371497724631e-03 1.129203336372e-02 0.0 
1.384033738385e-03 1.102471695610e-02 0.0 
1.454010624652e-03 1.109663045707e-02 0.0 
1.480570486701e-03 1.086011656292e-02 0.0 
1.543868691987e-03 1.082136418350e-02 0.0 
1.583969863486e-03 1.062714010776e-02 0.0 
1.707876100754e-03 1.023464006973e-02 0.0 
1.912126058541e-05 1.143923625182e-02 0.0 
9.675572344184e-05 1.144075737206e-02 0.0 
5.922640032634e-05 1.177932364077e-02 0.0 
5.665058370091e-05 1.110066998312e-02 0.0 
1.708505332698e-03 1.011838989436e-02 0.0 
1.503195030675e-04 1.059464443828e-02 0.0 
1.884877388116e-04 1.025697655554e-02 0.0 
2.632830158966e-04 1.059904273100e-02 0.0 
3.018399684764e-04 1.026193611399e-02 0.0 
3.754683189187e-04 1.060460105219e-02 0.0 
4.144642958375e-04 1.026824220896e-02 0.0 
4.863948767024e-04 1.061131740064e-02 0.0 
5.264557011652e-04 1.027549773244e-02 0.0 
5.962619366603e-04 1.061848219412e-02 0.0 
6.380376820527e-04 1.028259444932e-02 0.0 
7.052195461590e-04 1.062473585742e-02 0.0 
7.496155399331e-04 1.028800347893e-02 0.0 
1.751157240978e-03 9.835325762824e-03 0.0 
8.135377943428e-04 1.062796221343e-02 0.0 
1.724196171266e-03 9.732446632889e-03 0.0 
8.612821139113e-04 1.028890635027e-02 0.0 
9.210382825476e-04 1.062503331847e-02 0.0 
9.735554415014e-04 1.028228705592e-02 0.0 
1.028437092300e-03 1.061270974044e-02 0.0 
1.087257962129e-03 1.026400135180e-02 0.0 
1.136114373212e-03 1.058585949692e-02 0.0 
1.202999289960e-03 1.022801017252e-02 0.0 
1.707422493623e-03 1.012569771725e-02 0.0 
1.244940173624e-03 1.053798800534e-02 0.0 
1.322207141646e-03 1.016713163196e-02 0.0 
1.356704304571e-03 1.046140281584e-02 0.0 
1.446939358253e-03 1.007250801993e-02 0.0 
1.579663915808e-03 9.932354266602e-03 0.0 
1.473671660976e-03 1.034605955720e-02 0.0 
1.599098755286e-03 1.017909486470e-02 0.0 
1.846865282139e-03 9.545564647498e-03 0.0 
1.803130534784e-03 9.835936601921e-03 0.0 
1.848877261262e-05 1.042206123433e-02 0.0 
9.372944534379e-05 1.042330148025e-02 0.0 
5.620012222828e-05 1.008375190230e-02 0.0 
5.601809572812e-05 1.076161081228e-02 0.0 
1.837386308338e-03 9.817129244137e-03 0.0 

VECTORS element_materi_displacement float
0.0 0.0 0.0 
0.0 0.0 0.0 
0.0 0.0 0.0 
0.0 0.0 0.0 
0.0 0.0 0.0 
0.0 0.0 0.0 
0.0 0.0 0.0 
0.0 0.0 0.0 
0.0 0.0 0.0 
0.0 0.0 0.0 
0.0 0.0 0.0 
0.0 0.0 0.0 
0.0 0.0 0.0 
0.0 0.0 0.0 
0.0 0.0 0.0 
0.0 0.0 0.0 
0.0 0.0 0.0 
0.0 0.0 0.0 
0.0 0.0 0.0 
0.0 0.0 0.0 
0.0 0.0 0.0 
0.0 0.0 0.0 
0.0 0.0 0.0 
0.0 0.0 0.0 
0.0 0.0 0.0 
0.0 0.0 0.0 
0.0 0.0 0.0 
0.0 0.0 0.0 
0.0 0.0 0.0 
0.0 0.0 0.0 
0.0 0.0 0.0 
0.0 0.0 0.0 
0.0 0.0 0.0 
0.0 0.0 0.0 
0.0 0.0 0.0 
0.0 0.0 0.0 
0.0 0.0 0.0 
0.0 0.0 0.0 
0.0 0.0 0.0 
0.0 0.0 0.0 
0.0 0.0 0.0 
0.0 0.0 0.0 
0.0 0.0 0.0 
0.0 0.0 0.0 
0.0 0.0 0.0 
0.0 0.0 0.0 
0.0 0.0 0.0 
0.0 0.0 0.0 
0.0 0.0 0.0 
0.0 0.0 0.0 
0.0 0.0 0.0 
0.0 0.0 0.0 
0.0 0.0 0.0 
0.0 0.0 0.0 
0.0 0.0 0.0 
0.0 0.0 0.0 
0.0 0.0 0.0 
0.0 0.0 0.0 
0.0 0.0 0.0 
0.0 0.0 0.0 
0.0 0.0 0.0 
0.0 0.0 0.0 
0.0 0.0 0.0 
0.0 0.0 0.0 
0.0 0.0 0.0 
0.0 0.0 0.0 
0.0 0.0 0.0 
0.0 0.0 0.0 
0.0 0.0 0.0 
0.0 0.0 0.0 
0.0 0.0 0.0 
0.0 0.0 0.0 
0.0 0.0 0.0 
0.0 0.0 0.0 
0.0 0.0 0.0 
0.0 0.0 0.0 
0.0 0.0 0.0 
0.0 0.0 0.0 
0.0 0.0 0.0 
0.0 0.0 0.0 
0.0 0.0 0.0 
0.0 0.0 0.0 
0.0 0.0 0.0 
0.0 0.0 0.0 
0.0 0.0 0.0 
0.0 0.0 0.0 
0.0 0.0 0.0 
0.0 0.0 0.0 
0.0 0.0 0.0 
0.0 0.0 0.0 
0.0 0.0 0.0 
0.0 0.0 0.0 
0.0 0.0 0.0 
0.0 0.0 0.0 
0.0 0.0 0.0 
0.0 0.0 0.0 
0.0 0.0 0.0 
0.0 0.0 0.0 
0.0 0.0 0.0 
0.0 0.0 0.0 
0.0 0.0 0.0 
0.0 0.0 0.0 
0.0 0.0 0.0 
0.0 0.0 0.0 
0.0 0.0 0.0 
0.0 0.0 0.0 
0.0 0.0 0.0 
0.0 0.0 0.0 
0.0 0.0 0.0 
0.0 0.0 0.0 
0.0 0.0 0.0 
0.0 0.0 0.0 
0.0 0.0 0.0 
0.0 0.0 0.0 
0.0 0.0 0.0 
0.0 0.0 0.0 
0.0 0.0 0.0 
0.0 0.0 0.0 
0.0 0.0 0.0 
0.0 0.0 0.0 
0.0 0.0 0.0 
0.0 0.0 0.0 
0.0 0.0 0.0 
0.0 0.0 0.0 
0.0 0.0 0.0 
0.0 0.0 0.0 
0.0 0.0 0.0 
0.0 0.0 0.0 
0.0 0.0 0.0 
0.0 0.0 0.0 
0.0 0.0 0.0 
0.0 0.0 0.0 
0.0 0.0 0.0 
0.0 0.0 0.0 
0.0 0.0 0.0 
0.0 0.0 0.0 
0.0 0.0 0.0 
0.0 0.0 0.0 
0.0 0.0 0.0 
0.0 0.0 0.0 
0.0 0.0 0.0 
0.0 0.0 0.0 
0.0 0.0 0.0 
0.0 0.0 0.0 
0.0 0.0 0.0 
0.0 0.0 0.0 
0.0 0.0 0.0 
0.0 0.0 0.0 
0.0 0.0 0.0 
0.0 0.0 0.0 
0.0 0.0 0.0 
0.0 0.0 0.0 
0.0 0.0 0.0 
0.0 0.0 0.0 
0.0 0.0 0.0 
0.0 0.0 0.0 
0.0 0.0 0.0 
0.0 0.0 0.0 
0.0 0.0 0.0 
0.0 0.0 0.0 
0.0 0.0 0.0 
0.0 0.0 0.0 
0.0 0.0 0.0 
0.0 0.0 0.0 
0.0 0.0 0.0 
0.0 0.0 0.0 
0.0 0.0 0.0 
0.0 0.0 0.0 
0.0 0.0 0.0 
0.0 0.0 0.0 
0.0 0.0 0.0 
0.0 0.0 0.0 
0.0 0.0 0.0 
0.0 0.0 0.0 
0.0 0.0 0.0 
0.0 0.0 0.0 
0.0 0.0 0.0 
0.0 0.0 0.0 
0.0 0.0 0.0 
0.0 0.0 0.0 
0.0 0.0 0.0 
0.0 0.0 0.0 
0.0 0.0 0.0 
0.0 0.0 0.0 
0.0 0.0 0.0 
0.0 0.0 0.0 
0.0 0.0 0.0 
0.0 0.0 0.0 
0.0 0.0 0.0 
0.0 0.0 0.0 
0.0 0.0 0.0 
0.0 0.0 0.0 
0.0 0.0 0.0 
0.0 0.0 0.0 
0.0 0.0 0.0 
0.0 0.0 0.0 
0.0 0.0 0.0 
0.0 0.0 0.0 
0.0 0.0 0.0 
0.0 0.0 0.0 
0.0 0.0 0.0 
0.0 0.0 0.0 
0.0 0.0 0.0 
0.0 0.0 0.0 
0.0 0.0 0.0 
0.0 0.0 0.0 
0.0 0.0 0.0 
0.0 0.0 0.0 
0.0 0.0 0.0 
0.0 0.0 0.0 
0.0 0.0 0.0 
0.0 0.0 0.0 
0.0 0.0 0.0 
0.0 0.0 0.0 
0.0 0.0 0.0 
0.0 0.0 0.0 
0.0 0.0 0.0 
0.0 0.0 0.0 
0.0 0.0 0.0 
0.0 0.0 0.0 
0.0 0.0 0.0 
0.0 0.0 0.0 
0.0 0.0 0.0 
0.0 0.0 0.0 
0.0 0.0 0.0 
0.0 0.0 0.0 
0.0 0.0 0.0 
0.0 0.0 0.0 
0.0 0.0 0.0 
0.0 0.0 0.0 
0.0 0.0 0.0 
0.0 0.0 0.0 
0.0 0.0 0.0 
0.0 0.0 0.0 
0.0 0.0 0.0 
0.0 0.0 0.0 
0.0 0.0 0.0 
0.0 0.0 0.0 
0.0 0.0 0.0 
0.0 0.0 0.0 
0.0 0.0 0.0 
0.0 0.0 0.0 
0.0 0.0 0.0 
0.0 0.0 0.0 
0.0 0.0 0.0 
0.0 0.0 0.0 
0.0 0.0 0.0 
0.0 0.0 0.0 
0.0 0.0 0.0 
0.0 0.0 0.0 
0.0 0.0 0.0 
0.0 0.0 0.0 
0.0 0.0 0.0 
0.0 0.0 0.0 
0.0 0.0 0.0 
0.0 0.0 0.0 
0.0 0.0 0.0 
0.0 0.0 0.0 
0.0 0.0 0.0 
0.0 0.0 0.0 
0.0 0.0 0.0 
0.0 0.0 0.0 
0.0 0.0 0.0 
0.0 0.0 0.0 
0.0 0.0 0.0 
0.0 0.0 0.0 
0.0 0.0 0.0 
0.0 0.0 0.0 
0.0 0.0 0.0 
0.0 0.0 0.0 
0.0 0.0 0.0 
0.0 0.0 0.0 
0.0 0.0 0.0 
0.0 0.0 0.0 
0.0 0.0 0.0 
0.0 0.0 0.0 
0.0 0.0 0.0 
0.0 0.0 0.0 
0.0 0.0 0.0 
0.0 0.0 0.0 
0.0 0.0 0.0 
0.0 0.0 0.0 
0.0 0.0 0.0 
0.0 0.0 0.0 
0.0 0.0 0.0 
0.0 0.0 0.0 
0.0 0.0 0.0 
0.0 0.0 0.0 
0.0 0.0 0.0 
0.0 0.0 0.0 
0.0 0.0 0.0 
0.0 0.0 0.0 
0.0 0.0 0.0 
0.0 0.0 0.0 
0.0 0.0 0.0 
0.0 0.0 0.0 
0.0 0.0 0.0 
0.0 0.0 0.0 
0.0 0.0 0.0 
0.0 0.0 0.0 
0.0 0.0 0.0 
0.0 0.0 0.0 
0.0 0.0 0.0 
0.0 0.0 0.0 
0.0 0.0 0.0 
0.0 0.0 0.0 
0.0 0.0 0.0 
0.0 0.0 0.0 
0.0 0.0 0.0 
0.0 0.0 0.0 
0.0 0.0 0.0 
0.0 0.0 0.0 
0.0 0.0 0.0 
0.0 0.0 0.0 
0.0 0.0 0.0 
0.0 0.0 0.0 
0.0 0.0 0.0 
0.0 0.0 0.0 
0.0 0.0 0.0 
0.0 0.0 0.0 
0.0 0.0 0.0 
0.0 0.0 0.0 
0.0 0.0 0.0 
0.0 0.0 0.0 
0.0 0.0 0.0 
0.0 0.0 0.0 
0.0 0.0 0.0 
0.0 0.0 0.0 
0.0 0.0 0.0 
0.0 0.0 0.0 
0.0 0.0 0.0 
0.0 0.0 0.0 
0.0 0.0 0.0 
0.0 0.0 0.0 
0.0 0.0 0.0 
0.0 0.0 0.0 
0.0 0.0 0.0 
0.0 0.0 0.0 
0.0 0.0 0.0 
0.0 0.0 0.0 
0.0 0.0 0.0 
0.0 0.0 0.0 
0.0 0.0 0.0 
0.0 0.0 0.0 
0.0 0.0 0.0 
0.0 0.0 0.0 
0.0 0.0 0.0 
0.0 0.0 0.0 
0.0 0.0 0.0 
0.0 0.0 0.0 
0.0 0.0 0.0 
0.0 0.0 0.0 
0.0 0.0 0.0 
0.0 0.0 0.0 
0.0 0.0 0.0 
0.0 0.0 0.0 
0.0 0.0 0.0 
0.0 0.0 0.0 
0.0 0.0 0.0 
0.0 0.0 0.0 
0.0 0.0 0.0 
0.0 0.0 0.0 
0.0 0.0 0.0 
0.0 0.0 0.0 
0.0 0.0 0.0 
0.0 0.0 0.0 
0.0 0.0 0.0 
0.0 0.0 0.0 
0.0 0.0 0.0 
0.0 0.0 0.0 
0.0 0.0 0.0 
0.0 0.0 0.0 
0.0 0.0 0.0 
0.0 0.0 0.0 
0.0 0.0 0.0 
0.0 0.0 0.0 
0.0 0.0 0.0 
0.0 0.0 0.0 
0.0 0.0 0.0 
0.0 0.0 0.0 
0.0 0.0 0.0 
0.0 0.0 0.0 
0.0 0.0 0.0 
0.0 0.0 0.0 
0.0 0.0 0.0 
0.0 0.0 0.0 
0.0 0.0 0.0 
0.0 0.0 0.0 
0.0 0.0 0.0 
0.0 0.0 0.0 
0.0 0.0 0.0 
0.0 0.0 0.0 
0.0 0.0 0.0 
0.0 0.0 0.0 
0.0 0.0 0.0 
0.0 0.0 0.0 
0.0 0.0 0.0 
0.0 0.0 0.0 
0.0 0.0 0.0 
0.0 0.0 0.0 
0.0 0.0 0.0 
0.0 0.0 0.0 
0.0 0.0 0.0 
0.0 0.0 0.0 
0.0 0.0 0.0 
0.0 0.0 0.0 
0.0 0.0 0.0 
0.0 0.0 0.0 
0.0 0.0 0.0 
0.0 0.0 0.0 
0.0 0.0 0.0 
0.0 0.0 0.0 
0.0 0.0 0.0 
0.0 0.0 0.0 
0.0 0.0 0.0 
0.0 0.0 0.0 
0.0 0.0 0.0 
0.0 0.0 0.0 
0.0 0.0 0.0 
0.0 0.0 0.0 
0.0 0.0 0.0 
0.0 0.0 0.0 
0.0 0.0 0.0 
0.0 0.0 0.0 
0.0 0.0 0.0 
0.0 0.0 0.0 
0.0 0.0 0.0 
0.0 0.0 0.0 
0.0 0.0 0.0 
0.0 0.0 0.0 
0.0 0.0 0.0 
0.0 0.0 0.0 
0.0 0.0 0.0 
0.0 0.0 0.0 
0.0 0.0 0.0 
0.0 0.0 0.0 
0.0 0.0 0.0 
0.0 0.0 0.0 
0.0 0.0 0.0 
0.0 0.0 0.0 
0.0 0.0 0.0 
0.0 0.0 0.0 
0.0 0.0 0.0 
0.0 0.0 0.0 
0.0 0.0 0.0 
0.0 0.0 0.0 
0.0 0.0 0.0 
0.0 0.0 0.0 
0.0 0.0 0.0 
0.0 0.0 0.0 
0.0 0.0 0.0 
0.0 0.0 0.0 
0.0 0.0 0.0 
0.0 0.0 0.0 
0.0 0.0 0.0 
0.0 0.0 0.0 
0.0 0.0 0.0 
0.0 0.0 0.0 
0.0 0.0 0.0 
0.0 0.0 0.0 
0.0 0.0 0.0 
0.0 0.0 0.0 
0.0 0.0 0.0 
0.0 0.0 0.0 
0.0 0.0 0.0 
0.0 0.0 0.0 
0.0 0.0 0.0 
0.0 0.0 0.0 
0.0 0.0 0.0 
0.0 0.0 0.0 
0.0 0.0 0.0 
0.0 0.0 0.0 
0.0 0.0 0.0 
0.0 0.0 0.0 
0.0 0.0 0.0 
0.0 0.0 0.0 
0.0 0.0 0.0 
0.0 0.0 0.0 
0.0 0.0 0.0 
0.0 0.0 0.0 
0.0 0.0 0.0 
0.0 0.0 0.0 
0.0 0.0 0.0 
0.0 0.0 0.0 
0.0 0.0 0.0 
0.0 0.0 0.0 
0.0 0.0 0.0 
0.0 0.0 0.0 
0.0 0.0 0.0 
0.0 0.0 0.0 
0.0 0.0 0.0 
0.0 0.0 0.0 
0.0 0.0 0.0 
0.0 0.0 0.0 
0.0 0.0 0.0 
0.0 0.0 0.0 
0.0 0.0 0.0 
0.0 0.0 0.0 
0.0 0.0 0.0 
0.0 0.0 0.0 
0.0 0.0 0.0 
0.0 0.0 0.0 
0.0 0.0 0.0 
0.0 0.0 0.0 
0.0 0.0 0.0 
0.0 0.0 0.0 
0.0 0.0 0.0 
0.0 0.0 0.0 
0.0 0.0 0.0 
0.0 0.0 0.0 
0.0 0.0 0.0 
0.0 0.0 0.0 
0.0 0.0 0.0 
0.0 0.0 0.0 
0.0 0.0 0.0 
0.0 0.0 0.0 
0.0 0.0 0.0 
0.0 0.0 0.0 
0.0 0.0 0.0 
0.0 0.0 0.0 
0.0 0.0 0.0 
0.0 0.0 0.0 
0.0 0.0 0.0 
0.0 0.0 0.0 
0.0 0.0 0.0 
0.0 0.0 0.0 
0.0 0.0 0.0 
0.0 0.0 0.0 
0.0 0.0 0.0 
0.0 0.0 0.0 
0.0 0.0 0.0 
0.0 0.0 0.0 
0.0 0.0 0.0 
0.0 0.0 0.0 
0.0 0.0 0.0 
0.0 0.0 0.0 
0.0 0.0 0.0 
0.0 0.0 0.0 
0.0 0.0 0.0 
0.0 0.0 0.0 
0.0 0.0 0.0 
0.0 0.0 0.0 
0.0 0.0 0.0 
0.0 0.0 0.0 
0.0 0.0 0.0 
0.0 0.0 0.0 
0.0 0.0 0.0 
0.0 0.0 0.0 
0.0 0.0 0.0 
0.0 0.0 0.0 
0.0 0.0 0.0 
0.0 0.0 0.0 
0.0 0.0 0.0 
0.0 0.0 0.0 
0.0 0.0 0.0 
0.0 0.0 0.0 
0.0 0.0 0.0 
0.0 0.0 0.0 
0.0 0.0 0.0 
0.0 0.0 0.0 
0.0 0.0 0.0 
0.0 0.0 0.0 
0.0 0.0 0.0 
0.0 0.0 0.0 
0.0 0.0 0.0 
0.0 0.0 0.0 
0.0 0.0 0.0 
0.0 0.0 0.0 
0.0 0.0 0.0 
0.0 0.0 0.0 
0.0 0.0 0.0 
0.0 0.0 0.0 
0.0 0.0 0.0 
0.0 0.0 0.0 
0.0 0.0 0.0 
0.0 0.0 0.0 
0.0 0.0 0.0 
0.0 0.0 0.0 
0.0 0.0 0.0 
0.0 0.0 0.0 
0.0 0.0 0.0 
0.0 0.0 0.0 
0.0 0.0 0.0 
0.0 0.0 0.0 
0.0 0.0 0.0 
0.0 0.0 0.0 
0.0 0.0 0.0 
0.0 0.0 0.0 
0.0 0.0 0.0 
0.0 0.0 0.0 
0.0 0.0 0.0 
0.0 0.0 0.0 
0.0 0.0 0.0 
0.0 0.0 0.0 
0.0 0.0 0.0 
0.0 0.0 0.0 
0.0 0.0 0.0 
0.0 0.0 0.0 
0.0 0.0 0.0 
0.0 0.0 0.0 
0.0 0.0 0.0 
0.0 0.0 0.0 
0.0 0.0 0.0 
0.0 0.0 0.0 
0.0 0.0 0.0 
0.0 0.0 0.0 
0.0 0.0 0.0 
0.0 0.0 0.0 
0.0 0.0 0.0 
0.0 0.0 0.0 
0.0 0.0 0.0 
0.0 0.0 0.0 
0.0 0.0 0.0 
0.0 0.0 0.0 
0.0 0.0 0.0 
0.0 0.0 0.0 
0.0 0.0 0.0 
0.0 0.0 0.0 
0.0 0.0 0.0 
0.0 0.0 0.0 
0.0 0.0 0.0 
0.0 0.0 0.0 
0.0 0.0 0.0 
0.0 0.0 0.0 
0.0 0.0 0.0 
0.0 0.0 0.0 
0.0 0.0 0.0 
0.0 0.0 0.0 
0.0 0.0 0.0 
0.0 0.0 0.0 
0.0 0.0 0.0 
0.0 0.0 0.0 
0.0 0.0 0.0 
0.0 0.0 0.0 
0.0 0.0 0.0 
0.0 0.0 0.0 
0.0 0.0 0.0 
0.0 0.0 0.0 
0.0 0.0 0.0 
0.0 0.0 0.0 
0.0 0.0 0.0 
0.0 0.0 0.0 
0.0 0.0 0.0 
0.0 0.0 0.0 
0.0 0.0 0.0 
0.0 0.0 0.0 
0.0 0.0 0.0 
0.0 0.0 0.0 
0.0 0.0 0.0 
0.0 0.0 0.0 
0.0 0.0 0.0 
0.0 0.0 0.0 
0.0 0.0 0.0 
0.0 0.0 0.0 
0.0 0.0 0.0 
0.0 0.0 0.0 
0.0 0.0 0.0 
0.0 0.0 0.0 
0.0 0.0 0.0 
0.0 0.0 0.0 
0.0 0.0 0.0 
0.0 0.0 0.0 
0.0 0.0 0.0 
0.0 0.0 0.0 
0.0 0.0 0.0 
0.0 0.0 0.0 
0.0 0.0 0.0 
0.0 0.0 0.0 
0.0 0.0 0.0 
0.0 0.0 0.0 
0.0 0.0 0.0 
0.0 0.0 0.0 
0.0 0.0 0.0 
0.0 0.0 0.0 
0.0 0.0 0.0 
0.0 0.0 0.0 
0.0 0.0 0.0 
0.0 0.0 0.0 
0.0 0.0 0.0 
0.0 0.0 0.0 
0.0 0.0 0.0 
0.0 0.0 0.0 
0.0 0.0 0.0 
0.0 0.0 0.0 
0.0 0.0 0.0 
0.0 0.0 0.0 
0.0 0.0 0.0 
0.0 0.0 0.0 
0.0 0.0 0.0 
0.0 0.0 0.0 
0.0 0.0 0.0 
0.0 0.0 0.0 
0.0 0.0 0.0 
0.0 0.0 0.0 
0.0 0.0 0.0 
0.0 0.0 0.0 
0.0 0.0 0.0 
0.0 0.0 0.0 
0.0 0.0 0.0 
0.0 0.0 0.0 
0.0 0.0 0.0 
0.0 0.0 0.0 
0.0 0.0 0.0 
0.0 0.0 0.0 
0.0 0.0 0.0 
0.0 0.0 0.0 
0.0 0.0 0.0 
0.0 0.0 0.0 
0.0 0.0 0.0 
0.0 0.0 0.0 
0.0 0.0 0.0 
0.0 0.0 0.0 
0.0 0.0 0.0 
0.0 0.0 0.0 
0.0 0.0 0.0 
0.0 0.0 0.0 
0.0 0.0 0.0 
0.0 0.0 0.0 
0.0 0.0 0.0 
0.0 0.0 0.0 
0.0 0.0 0.0 
0.0 0.0 0.0 
0.0 0.0 0.0 
0.0 0.0 0.0 
0.0 0.0 0.0 
0.0 0.0 0.0 
0.0 0.0 0.0 
0.0 0.0 0.0 
0.0 0.0 0.0 
0.0 0.0 0.0 
0.0 0.0 0.0 
0.0 0.0 0.0 
0.0 0.0 0.0 
0.0 0.0 0.0 
0.0 0.0 0.0 
0.0 0.0 0.0 
0.0 0.0 0.0 
0.0 0.0 0.0 
0.0 0.0 0.0 
0.0 0.0 0.0 
0.0 0.0 0.0 
0.0 0.0 0.0 
0.0 0.0 0.0 
0.0 0.0 0.0 
0.0 0.0 0.0 
0.0 0.0 0.0 
0.0 0.0 0.0 
0.0 0.0 0.0 
0.0 0.0 0.0 
0.0 0.0 0.0 
0.0 0.0 0.0 
0.0 0.0 0.0 
0.0 0.0 0.0 
0.0 0.0 0.0 
0.0 0.0 0.0 
0.0 0.0 0.0 
0.0 0.0 0.0 
0.0 0.0 0.0 
0.0 0.0 0.0 
0.0 0.0 0.0 
0.0 0.0 0.0 
0.0 0.0 0.0 
0.0 0.0 0.0 
0.0 0.0 0.0 
0.0 0.0 0.0 
0.0 0.0 0.0 
0.0 0.0 0.0 
0.0 0.0 0.0 
0.0 0.0 0.0 
0.0 0.0 0.0 
0.0 0.0 0.0 
0.0 0.0 0.0 
0.0 0.0 0.0 
0.0 0.0 0.0 
0.0 0.0 0.0 
0.0 0.0 0.0 
0.0 0.0 0.0 
0.0 0.0 0.0 
0.0 0.0 0.0 
0.0 0.0 0.0 
0.0 0.0 0.0 
0.0 0.0 0.0 
0.0 0.0 0.0 
0.0 0.0 0.0 
0.0 0.0 0.0 
0.0 0.0 0.0 
0.0 0.0 0.0 
0.0 0.0 0.0 
0.0 0.0 0.0 
0.0 0.0 0.0 
0.0 0.0 0.0 
0.0 0.0 0.0 
0.0 0.0 0.0 
0.0 0.0 0.0 
0.0 0.0 0.0 
0.0 0.0 0.0 
0.0 0.0 0.0 
0.0 0.0 0.0 
0.0 0.0 0.0 
0.0 0.0 0.0 
0.0 0.0 0.0 
0.0 0.0 0.0 
0.0 0.0 0.0 
0.0 0.0 0.0 
0.0 0.0 0.0 
0.0 0.0 0.0 
0.0 0.0 0.0 
0.0 0.0 0.0 
0.0 0.0 0.0 
0.0 0.0 0.0 
0.0 0.0 0.0 
0.0 0.0 0.0 
0.0 0.0 0.0 
0.0 0.0 0.0 
0.0 0.0 0.0 
0.0 0.0 0.0 
0.0 0.0 0.0 
0.0 0.0 0.0 
0.0 0.0 0.0 
0.0 0.0 0.0 
0.0 0.0 0.0 
0.0 0.0 0.0 
0.0 0.0 0.0 
0.0 0.0 0.0 
0.0 0.0 0.0 
0.0 0.0 0.0 
0.0 0.0 0.0 
0.0 0.0 0.0 
0.0 0.0 0.0 
0.0 0.0 0.0 
0.0 0.0 0.0 
0.0 0.0 0.0 
0.0 0.0 0.0 
0.0 0.0 0.0 
0.0 0.0 0.0 
0.0 0.0 0.0 
0.0 0.0 0.0 
0.0 0.0 0.0 
0.0 0.0 0.0 
0.0 0.0 0.0 
0.0 0.0 0.0 
0.0 0.0 0.0 
0.0 0.0 0.0 
0.0 0.0 0.0 
0.0 0.0 0.0 
0.0 0.0 0.0 
0.0 0.0 0.0 
0.0 0.0 0.0 
0.0 0.0 0.0 
0.0 0.0 0.0 
0.0 0.0 0.0 
0.0 0.0 0.0 
0.0 0.0 0.0 
0.0 0.0 0.0 
0.0 0.0 0.0 
0.0 0.0 0.0 
0.0 0.0 0.0 
0.0 0.0 0.0 
0.0 0.0 0.0 
0.0 0.0 0.0 
0.0 0.0 0.0 
0.0 0.0 0.0 
0.0 0.0 0.0 
0.0 0.0 0.0 
0.0 0.0 0.0 
0.0 0.0 0.0 
0.0 0.0 0.0 
0.0 0.0 0.0 
0.0 0.0 0.0 
0.0 0.0 0.0 
0.0 0.0 0.0 
0.0 0.0 0.0 
0.0 0.0 0.0 
0.0 0.0 0.0 
0.0 0.0 0.0 
0.0 0.0 0.0 
0.0 0.0 0.0 
0.0 0.0 0.0 
0.0 0.0 0.0 
0.0 0.0 0.0 
0.0 0.0 0.0 
0.0 0.0 0.0 
0.0 0.0 0.0 
0.0 0.0 0.0 
0.0 0.0 0.0 
0.0 0.0 0.0 
0.0 0.0 0.0 
0.0 0.0 0.0 
0.0 0.0 0.0 
0.0 0.0 0.0 
0.0 0.0 0.0 
0.0 0.0 0.0 
0.0 0.0 0.0 
0.0 0.0 0.0 
0.0 0.0 0.0 
0.0 0.0 0.0 
0.0 0.0 0.0 
0.0 0.0 0.0 
0.0 0.0 0.0 
0.0 0.0 0.0 
0.0 0.0 0.0 
0.0 0.0 0.0 
0.0 0.0 0.0 
0.0 0.0 0.0 
0.0 0.0 0.0 
0.0 0.0 0.0 
0.0 0.0 0.0 
0.0 0.0 0.0 
0.0 0.0 0.0 
0.0 0.0 0.0 
0.0 0.0 0.0 
0.0 0.0 0.0 
0.0 0.0 0.0 
0.0 0.0 0.0 
0.0 0.0 0.0 
0.0 0.0 0.0 
0.0 0.0 0.0 
0.0 0.0 0.0 
0.0 0.0 0.0 
0.0 0.0 0.0 
0.0 0.0 0.0 
0.0 0.0 0.0 
0.0 0.0 0.0 
0.0 0.0 0.0 
0.0 0.0 0.0 
0.0 0.0 0.0 
0.0 0.0 0.0 
0.0 0.0 0.0 
0.0 0.0 0.0 
0.0 0.0 0.0 
0.0 0.0 0.0 
0.0 0.0 0.0 
0.0 0.0 0.0 
0.0 0.0 0.0 
0.0 0.0 0.0 
0.0 0.0 0.0 
0.0 0.0 0.0 
0.0 0.0 0.0 
0.0 0.0 0.0 
0.0 0.0 0.0 
0.0 0.0 0.0 
0.0 0.0 0.0 
0.0 0.0 0.0 
0.0 0.0 0.0 
0.0 0.0 0.0 
0.0 0.0 0.0 
0.0 0.0 0.0 
0.0 0.0 0.0 
0.0 0.0 0.0 
0.0 0.0 0.0 
0.0 0.0 0.0 
0.0 0.0 0.0 
0.0 0.0 0.0 
0.0 0.0 0.0 
0.0 0.0 0.0 
0.0 0.0 0.0 
0.0 0.0 0.0 
0.0 0.0 0.0 
0.0 0.0 0.0 
0.0 0.0 0.0 
0.0 0.0 0.0 
0.0 0.0 0.0 
0.0 0.0 0.0 
0.0 0.0 0.0 
0.0 0.0 0.0 
0.0 0.0 0.0 
0.0 0.0 0.0 
0.0 0.0 0.0 
0.0 0.0 0.0 
0.0 0.0 0.0 
0.0 0.0 0.0 
0.0 0.0 0.0 
0.0 0.0 0.0 
0.0 0.0 0.0 
0.0 0.0 0.0 
0.0 0.0 0.0 
0.0 0.0 0.0 
0.0 0.0 0.0 
0.0 0.0 0.0 
0.0 0.0 0.0 
0.0 0.0 0.0 
0.0 0.0 0.0 
0.0 0.0 0.0 
0.0 0.0 0.0 
0.0 0.0 0.0 
0.0 0.0 0.0 
0.0 0.0 0.0 
0.0 0.0 0.0 
0.0 0.0 0.0 
0.0 0.0 0.0 
0.0 0.0 0.0 
0.0 0.0 0.0 
0.0 0.0 0.0 
0.0 0.0 0.0 
0.0 0.0 0.0 
0.0 0.0 0.0 
0.0 0.0 0.0 
0.0 0.0 0.0 
0.0 0.0 0.0 
0.0 0.0 0.0 
0.0 0.0 0.0 
0.0 0.0 0.0 
0.0 0.0 0.0 
0.0 0.0 0.0 
0.0 0.0 0.0 
0.0 0.0 0.0 
0.0 0.0 0.0 
0.0 0.0 0.0 
0.0 0.0 0.0 
0.0 0.0 0.0 
0.0 0.0 0.0 
0.0 0.0 0.0 
0.0 0.0 0.0 
0.0 0.0 0.0 
0.0 0.0 0.0 
0.0 0.0 0.0 
0.0 0.0 0.0 
0.0 0.0 0.0 
0.0 0.0 0.0 
0.0 0.0 0.0 
0.0 0.0 0.0 
0.0 0.0 0.0 
0.0 0.0 0.0 
0.0 0.0 0.0 
0.0 0.0 0.0 
0.0 0.0 0.0 
0.0 0.0 0.0 
0.0 0.0 0.0 
0.0 0.0 0.0 
0.0 0.0 0.0 
0.0 0.0 0.0 
0.0 0.0 0.0 
0.0 0.0 0.0 
0.0 0.0 0.0 
0.0 0.0 0.0 
0.0 0.0 0.0 
0.0 0.0 0.0 
0.0 0.0 0.0 
0.0 0.0 0.0 
0.0 0.0 0.0 
0.0 0.0 0.0 
0.0 0.0 0.0 
0.0 0.0 0.0 
0.0 0.0 0.0 
0.0 0.0 0.0 
0.0 0.0 0.0 
0.0 0.0 0.0 
0.0 0.0 0.0 
0.0 0.0 0.0 
0.0 0.0 0.0 
0.0 0.0 0.0 
0.0 0.0 0.0 
0.0 0.0 0.0 
0.0 0.0 0.0 
0.0 0.0 0.0 
0.0 0.0 0.0 
0.0 0.0 0.0 
0.0 0.0 0.0 
0.0 0.0 0.0 
0.0 0.0 0.0 
0.0 0.0 0.0 
0.0 0.0 0.0 
0.0 0.0 0.0 
0.0 0.0 0.0 
0.0 0.0 0.0 
0.0 0.0 0.0 
0.0 0.0 0.0 
0.0 0.0 0.0 
0.0 0.0 0.0 
0.0 0.0 0.0 
0.0 0.0 0.0 
0.0 0.0 0.0 
0.0 0.0 0.0 
0.0 0.0 0.0 
0.0 0.0 0.0 
0.0 0.0 0.0 
0.0 0.0 0.0 
0.0 0.0 0.0 
0.0 0.0 0.0 
0.0 0.0 0.0 
0.0 0.0 0.0 
0.0 0.0 0.0 
0.0 0.0 0.0 
0.0 0.0 0.0 
0.0 0.0 0.0 
0.0 0.0 0.0 
0.0 0.0 0.0 
0.0 0.0 0.0 
0.0 0.0 0.0 
0.0 0.0 0.0 
0.0 0.0 0.0 
0.0 0.0 0.0 
0.0 0.0 0.0 
0.0 0.0 0.0 
0.0 0.0 0.0 
0.0 0.0 0.0 
0.0 0.0 0.0 
0.0 0.0 0.0 
0.0 0.0 0.0 
0.0 0.0 0.0 
0.0 0.0 0.0 
0.0 0.0 0.0 
0.0 0.0 0.0 
0.0 0.0 0.0 
0.0 0.0 0.0 
0.0 0.0 0.0 
0.0 0.0 0.0 
0.0 0.0 0.0 
0.0 0.0 0.0 
0.0 0.0 0.0 
0.0 0.0 0.0 
0.0 0.0 0.0 
0.0 0.0 0.0 
0.0 0.0 0.0 
0.0 0.0 0.0 
0.0 0.0 0.0 
0.0 0.0 0.0 
0.0 0.0 0.0 
0.0 0.0 0.0 
0.0 0.0 0.0 
0.0 0.0 0.0 
0.0 0.0 0.0 
0.0 0.0 0.0 
0.0 0.0 0.0 
0.0 0.0 0.0 
0.0 0.0 0.0 
0.0 0.0 0.0 
0.0 0.0 0.0 
0.0 0.0 0.0 
0.0 0.0 0.0 
0.0 0.0 0.0 
0.0 0.0 0.0 
0.0 0.0 0.0 
0.0 0.0 0.0 
0.0 0.0 0.0 
0.0 0.0 0.0 
0.0 0.0 0.0 
0.0 0.0 0.0 
0.0 0.0 0.0 
0.0 0.0 0.0 
0.0 0.0 0.0 
0.0 0.0 0.0 
0.0 0.0 0.0 
0.0 0.0 0.0 
0.0 0.0 0.0 
0.0 0.0 0.0 
0.0 0.0 0.0 
0.0 0.0 0.0 
0.0 0.0 0.0 
0.0 0.0 0.0 
0.0 0.0 0.0 
0.0 0.0 0.0 
0.0 0.0 0.0 
0.0 0.0 0.0 
0.0 0.0 0.0 
0.0 0.0 0.0 
0.0 0.0 0.0 
0.0 0.0 0.0 
0.0 0.0 0.0 
0.0 0.0 0.0 
0.0 0.0 0.0 
0.0 0.0 0.0 
0.0 0.0 0.0 
0.0 0.0 0.0 
0.0 0.0 0.0 
0.0 0.0 0.0 
0.0 0.0 0.0 
0.0 0.0 0.0 
0.0 0.0 0.0 
0.0 0.0 0.0 
0.0 0.0 0.0 
0.0 0.0 0.0 
0.0 0.0 0.0 
0.0 0.0 0.0 
0.0 0.0 0.0 
0.0 0.0 0.0 
0.0 0.0 0.0 
0.0 0.0 0.0 
0.0 0.0 0.0 
0.0 0.0 0.0 
0.0 0.0 0.0 
0.0 0.0 0.0 
0.0 0.0 0.0 
0.0 0.0 0.0 
0.0 0.0 0.0 
0.0 0.0 0.0 
0.0 0.0 0.0 
0.0 0.0 0.0 
0.0 0.0 0.0 
0.0 0.0 0.0 
0.0 0.0 0.0 
0.0 0.0 0.0 
0.0 0.0 0.0 
0.0 0.0 0.0 
0.0 0.0 0.0 
0.0 0.0 0.0 
0.0 0.0 0.0 
0.0 0.0 0.0 
0.0 0.0 0.0 
0.0 0.0 0.0 
0.0 0.0 0.0 
0.0 0.0 0.0 
0.0 0.0 0.0 
0.0 0.0 0.0 
0.0 0.0 0.0 
0.0 0.0 0.0 
0.0 0.0 0.0 
0.0 0.0 0.0 
0.0 0.0 0.0 
0.0 0.0 0.0 
0.0 0.0 0.0 
0.0 0.0 0.0 
0.0 0.0 0.0 
0.0 0.0 0.0 
0.0 0.0 0.0 
0.0 0.0 0.0 
0.0 0.0 0.0 
0.0 0.0 0.0 
0.0 0.0 0.0 
0.0 0.0 0.0 
0.0 0.0 0.0 
0.0 0.0 0.0 
0.0 0.0 0.0 
0.0 0.0 0.0 
0.0 0.0 0.0 
0.0 0.0 0.0 
0.0 0.0 0.0 
0.0 0.0 0.0 
0.0 0.0 0.0 
0.0 0.0 0.0 
0.0 0.0 0.0 
0.0 0.0 0.0 
0.0 0.0 0.0 
0.0 0.0 0.0 
0.0 0.0 0.0 
0.0 0.0 0.0 
0.0 0.0 0.0 
0.0 0.0 0.0 
0.0 0.0 0.0 
0.0 0.0 0.0 
0.0 0.0 0.0 
0.0 0.0 0.0 
0.0 0.0 0.0 
0.0 0.0 0.0 
0.0 0.0 0.0 
0.0 0.0 0.0 
0.0 0.0 0.0 
0.0 0.0 0.0 
0.0 0.0 0.0 
0.0 0.0 0.0 
0.0 0.0 0.0 
0.0 0.0 0.0 
0.0 0.0 0.0 
0.0 0.0 0.0 
0.0 0.0 0.0 
0.0 0.0 0.0 
0.0 0.0 0.0 
0.0 0.0 0.0 
0.0 0.0 0.0 
0.0 0.0 0.0 
0.0 0.0 0.0 
0.0 0.0 0.0 
0.0 0.0 0.0 
0.0 0.0 0.0 
0.0 0.0 0.0 
0.0 0.0 0.0 
0.0 0.0 0.0 
0.0 0.0 0.0 
0.0 0.0 0.0 
0.0 0.0 0.0 
0.0 0.0 0.0 
0.0 0.0 0.0 
0.0 0.0 0.0 
0.0 0.0 0.0 
0.0 0.0 0.0 
0.0 0.0 0.0 
0.0 0.0 0.0 
0.0 0.0 0.0 
0.0 0.0 0.0 
0.0 0.0 0.0 
0.0 0.0 0.0 
0.0 0.0 0.0 
0.0 0.0 0.0 
0.0 0.0 0.0 
0.0 0.0 0.0 
0.0 0.0 0.0 
0.0 0.0 0.0 
0.0 0.0 0.0 
0.0 0.0 0.0 
0.0 0.0 0.0 
0.0 0.0 0.0 
0.0 0.0 0.0 
0.0 0.0 0.0 
0.0 0.0 0.0 
0.0 0.0 0.0 
0.0 0.0 0.0 
0.0 0.0 0.0 
0.0 0.0 0.0 
0.0 0.0 0.0 
0.0 0.0 0.0 
0.0 0.0 0.0 
0.0 0.0 0.0 
0.0 0.0 0.0 
0.0 0.0 0.0 
0.0 0.0 0.0 
0.0 0.0 0.0 
0.0 0.0 0.0 
0.0 0.0 0.0 
0.0 0.0 0.0 
0.0 0.0 0.0 
0.0 0.0 0.0 
0.0 0.0 0.0 
0.0 0.0 0.0 
0.0 0.0 0.0 
0.0 0.0 0.0 
0.0 0.0 0.0 
0.0 0.0 0.0 
0.0 0.0 0.0 
0.0 0.0 0.0 
0.0 0.0 0.0 
0.0 0.0 0.0 
0.0 0.0 0.0 
0.0 0.0 0.0 
0.0 0.0 0.0 
0.0 0.0 0.0 
0.0 0.0 0.0 
0.0 0.0 0.0 
0.0 0.0 0.0 
0.0 0.0 0.0 
0.0 0.0 0.0 
0.0 0.0 0.0 
0.0 0.0 0.0 
0.0 0.0 0.0 
0.0 0.0 0.0 
0.0 0.0 0.0 
0.0 0.0 0.0 
0.0 0.0 0.0 
0.0 0.0 0.0 
0.0 0.0 0.0 
0.0 0.0 0.0 
0.0 0.0 0.0 
0.0 0.0 0.0 
0.0 0.0 0.0 
0.0 0.0 0.0 
0.0 0.0 0.0 
0.0 0.0 0.0 
0.0 0.0 0.0 
0.0 0.0 0.0 
0.0 0.0 0.0 
0.0 0.0 0.0 
0.0 0.0 0.0 
0.0 0.0 0.0 
0.0 0.0 0.0 
0.0 0.0 0.0 
0.0 0.0 0.0 
0.0 0.0 0.0 
0.0 0.0 0.0 
0.0 0.0 0.0 
0.0 0.0 0.0 
0.0 0.0 0.0 
0.0 0.0 0.0 
0.0 0.0 0.0 
0.0 0.0 0.0 
0.0 0.0 0.0 
0.0 0.0 0.0 
0.0 0.0 0.0 
0.0 0.0 0.0 
0.0 0.0 0.0 
0.0 0.0 0.0 
0.0 0.0 0.0 
0.0 0.0 0.0 
0.0 0.0 0.0 
0.0 0.0 0.0 
0.0 0.0 0.0 
0.0 0.0 0.0 
0.0 0.0 0.0 
0.0 0.0 0.0 
0.0 0.0 0.0 
0.0 0.0 0.0 
0.0 0.0 0.0 
0.0 0.0 0.0 
0.0 0.0 0.0 
0.0 0.0 0.0 
0.0 0.0 0.0 
0.0 0.0 0.0 
0.0 0.0 0.0 
0.0 0.0 0.0 
0.0 0.0 0.0 
0.0 0.0 0.0 
0.0 0.0 0.0 
0.0 0.0 0.0 
0.0 0.0 0.0 
0.0 0.0 0.0 
0.0 0.0 0.0 
0.0 0.0 0.0 
0.0 0.0 0.0 
0.0 0.0 0.0 
0.0 0.0 0.0 
0.0 0.0 0.0 
0.0 0.0 0.0 
0.0 0.0 0.0 
0.0 0.0 0.0 
0.0 0.0 0.0 
0.0 0.0 0.0 
0.0 0.0 0.0 
0.0 0.0 0.0 
0.0 0.0 0.0 
0.0 0.0 0.0 
0.0 0.0 0.0 
0.0 0.0 0.0 
0.0 0.0 0.0 
0.0 0.0 0.0 
0.0 0.0 0.0 
0.0 0.0 0.0 
0.0 0.0 0.0 
0.0 0.0 0.0 
0.0 0.0 0.0 
0.0 0.0 0.0 
0.0 0.0 0.0 
0.0 0.0 0.0 
0.0 0.0 0.0 
0.0 0.0 0.0 
0.0 0.0 0.0 
0.0 0.0 0.0 
0.0 0.0 0.0 
0.0 0.0 0.0 
0.0 0.0 0.0 
0.0 0.0 0.0 
0.0 0.0 0.0 
0.0 0.0 0.0 
0.0 0.0 0.0 
0.0 0.0 0.0 
0.0 0.0 0.0 
0.0 0.0 0.0 
0.0 0.0 0.0 
0.0 0.0 0.0 
0.0 0.0 0.0 
0.0 0.0 0.0 
0.0 0.0 0.0 
0.0 0.0 0.0 
0.0 0.0 0.0 
0.0 0.0 0.0 
0.0 0.0 0.0 
0.0 0.0 0.0 
0.0 0.0 0.0 
0.0 0.0 0.0 
0.0 0.0 0.0 
0.0 0.0 0.0 
0.0 0.0 0.0 
0.0 0.0 0.0 
0.0 0.0 0.0 
0.0 0.0 0.0 
0.0 0.0 0.0 
0.0 0.0 0.0 
0.0 0.0 0.0 
0.0 0.0 0.0 
0.0 0.0 0.0 
0.0 0.0 0.0 
0.0 0.0 0.0 
0.0 0.0 0.0 
0.0 0.0 0.0 
0.0 0.0 0.0 
0.0 0.0 0.0 
0.0 0.0 0.0 
0.0 0.0 0.0 
0.0 0.0 0.0 
0.0 0.0 0.0 
0.0 0.0 0.0 
0.0 0.0 0.0 
0.0 0.0 0.0 
0.0 0.0 0.0 
0.0 0.0 0.0 
0.0 0.0 0.0 
0.0 0.0 0.0 
0.0 0.0 0.0 
0.0 0.0 0.0 
0.0 0.0 0.0 
0.0 0.0 0.0 
0.0 0.0 0.0 
0.0 0.0 0.0 
0.0 0.0 0.0 
0.0 0.0 0.0 
0.0 0.0 0.0 
0.0 0.0 0.0 
0.0 0.0 0.0 
0.0 0.0 0.0 
0.0 0.0 0.0 
0.0 0.0 0.0 
0.0 0.0 0.0 
0.0 0.0 0.0 
0.0 0.0 0.0 
0.0 0.0 0.0 
0.0 0.0 0.0 
0.0 0.0 0.0 
0.0 0.0 0.0 
0.0 0.0 0.0 
0.0 0.0 0.0 
0.0 0.0 0.0 
0.0 0.0 0.0 
0.0 0.0 0.0 
0.0 0.0 0.0 
0.0 0.0 0.0 
0.0 0.0 0.0 
0.0 0.0 0.0 
0.0 0.0 0.0 
0.0 0.0 0.0 
0.0 0.0 0.0 
0.0 0.0 0.0 
0.0 0.0 0.0 
0.0 0.0 0.0 
0.0 0.0 0.0 
0.0 0.0 0.0 
0.0 0.0 0.0 
0.0 0.0 0.0 
0.0 0.0 0.0 
0.0 0.0 0.0 
0.0 0.0 0.0 
0.0 0.0 0.0 
0.0 0.0 0.0 
0.0 0.0 0.0 
0.0 0.0 0.0 
0.0 0.0 0.0 
0.0 0.0 0.0 
0.0 0.0 0.0 
0.0 0.0 0.0 
0.0 0.0 0.0 
0.0 0.0 0.0 
0.0 0.0 0.0 
0.0 0.0 0.0 
0.0 0.0 0.0 
0.0 0.0 0.0 
0.0 0.0 0.0 
0.0 0.0 0.0 
0.0 0.0 0.0 
0.0 0.0 0.0 
0.0 0.0 0.0 
0.0 0.0 0.0 
0.0 0.0 0.0 
0.0 0.0 0.0 
0.0 0.0 0.0 
0.0 0.0 0.0 
0.0 0.0 0.0 
0.0 0.0 0.0 
0.0 0.0 0.0 
0.0 0.0 0.0 
0.0 0.0 0.0 
0.0 0.0 0.0 
0.0 0.0 0.0 
0.0 0.0 0.0 
0.0 0.0 0.0 
0.0 0.0 0.0 
0.0 0.0 0.0 
0.0 0.0 0.0 
0.0 0.0 0.0 
0.0 0.0 0.0 
0.0 0.0 0.0 
0.0 0.0 0.0 
0.0 0.0 0.0 
0.0 0.0 0.0 
0.0 0.0 0.0 
0.0 0.0 0.0 
0.0 0.0 0.0 
0.0 0.0 0.0 
0.0 0.0 0.0 
0.0 0.0 0.0 
0.0 0.0 0.0 
0.0 0.0 0.0 
0.0 0.0 0.0 
0.0 0.0 0.0 
0.0 0.0 0.0 
0.0 0.0 0.0 
0.0 0.0 0.0 
0.0 0.0 0.0 
0.0 0.0 0.0 
0.0 0.0 0.0 
0.0 0.0 0.0 
0.0 0.0 0.0 
0.0 0.0 0.0 
0.0 0.0 0.0 
0.0 0.0 0.0 
0.0 0.0 0.0 
0.0 0.0 0.0 
0.0 0.0 0.0 
0.0 0.0 0.0 
0.0 0.0 0.0 
0.0 0.0 0.0 
0.0 0.0 0.0 
0.0 0.0 0.0 
0.0 0.0 0.0 
0.0 0.0 0.0 
0.0 0.0 0.0 
0.0 0.0 0.0 
0.0 0.0 0.0 
0.0 0.0 0.0 
0.0 0.0 0.0 
0.0 0.0 0.0 
0.0 0.0 0.0 
0.0 0.0 0.0 
0.0 0.0 0.0 
0.0 0.0 0.0 
0.0 0.0 0.0 
0.0 0.0 0.0 
0.0 0.0 0.0 
0.0 0.0 0.0 
0.0 0.0 0.0 
0.0 0.0 0.0 
0.0 0.0 0.0 
0.0 0.0 0.0 
0.0 0.0 0.0 
0.0 0.0 0.0 
0.0 0.0 0.0 
0.0 0.0 0.0 
0.0 0.0 0.0 
0.0 0.0 0.0 
0.0 0.0 0.0 
0.0 0.0 0.0 
0.0 0.0 0.0 
0.0 0.0 0.0 
0.0 0.0 0.0 
0.0 0.0 0.0 
0.0 0.0 0.0 
0.0 0.0 0.0 
0.0 0.0 0.0 
0.0 0.0 0.0 
0.0 0.0 0.0 
0.0 0.0 0.0 
0.0 0.0 0.0 
0.0 0.0 0.0 
0.0 0.0 0.0 
0.0 0.0 0.0 
0.0 0.0 0.0 
0.0 0.0 0.0 
0.0 0.0 0.0 
0.0 0.0 0.0 
0.0 0.0 0.0 
0.0 0.0 0.0 
0.0 0.0 0.0 
0.0 0.0 0.0 
0.0 0.0 0.0 
0.0 0.0 0.0 
0.0 0.0 0.0 
0.0 0.0 0.0 
0.0 0.0 0.0 
0.0 0.0 0.0 
0.0 0.0 0.0 
0.0 0.0 0.0 
0.0 0.0 0.0 
0.0 0.0 0.0 
0.0 0.0 0.0 
0.0 0.0 0.0 
0.0 0.0 0.0 
0.0 0.0 0.0 
0.0 0.0 0.0 
0.0 0.0 0.0 
0.0 0.0 0.0 
0.0 0.0 0.0 
0.0 0.0 0.0 
0.0 0.0 0.0 
0.0 0.0 0.0 
0.0 0.0 0.0 
0.0 0.0 0.0 
0.0 0.0 0.0 
0.0 0.0 0.0 
0.0 0.0 0.0 
0.0 0.0 0.0 
0.0 0.0 0.0 
0.0 0.0 0.0 
0.0 0.0 0.0 
0.0 0.0 0.0 
0.0 0.0 0.0 
0.0 0.0 0.0 
0.0 0.0 0.0 
0.0 0.0 0.0 
0.0 0.0 0.0 
0.0 0.0 0.0 
0.0 0.0 0.0 
0.0 0.0 0.0 
0.0 0.0 0.0 
0.0 0.0 0.0 
0.0 0.0 0.0 
0.0 0.0 0.0 
0.0 0.0 0.0 
0.0 0.0 0.0 
0.0 0.0 0.0 
0.0 0.0 0.0 
0.0 0.0 0.0 
0.0 0.0 0.0 
0.0 0.0 0.0 
0.0 0.0 0.0 
0.0 0.0 0.0 
0.0 0.0 0.0 
0.0 0.0 0.0 
0.0 0.0 0.0 
0.0 0.0 0.0 
0.0 0.0 0.0 
0.0 0.0 0.0 
0.0 0.0 0.0 
0.0 0.0 0.0 
0.0 0.0 0.0 
0.0 0.0 0.0 
0.0 0.0 0.0 
0.0 0.0 0.0 
0.0 0.0 0.0 
0.0 0.0 0.0 
0.0 0.0 0.0 
0.0 0.0 0.0 
0.0 0.0 0.0 
0.0 0.0 0.0 
0.0 0.0 0.0 
0.0 0.0 0.0 
0.0 0.0 0.0 
0.0 0.0 0.0 
0.0 0.0 0.0 
0.0 0.0 0.0 
0.0 0.0 0.0 
0.0 0.0 0.0 
0.0 0.0 0.0 
0.0 0.0 0.0 
0.0 0.0 0.0 
0.0 0.0 0.0 
0.0 0.0 0.0 
0.0 0.0 0.0 
0.0 0.0 0.0 
0.0 0.0 0.0 
0.0 0.0 0.0 
0.0 0.0 0.0 
0.0 0.0 0.0 
0.0 0.0 0.0 
0.0 0.0 0.0 
0.0 0.0 0.0 
0.0 0.0 0.0 
0.0 0.0 0.0 
0.0 0.0 0.0 
0.0 0.0 0.0 
0.0 0.0 0.0 
0.0 0.0 0.0 
0.0 0.0 0.0 
0.0 0.0 0.0 
0.0 0.0 0.0 
0.0 0.0 0.0 
0.0 0.0 0.0 
0.0 0.0 0.0 
0.0 0.0 0.0 
0.0 0.0 0.0 
0.0 0.0 0.0 
0.0 0.0 0.0 
0.0 0.0 0.0 
0.0 0.0 0.0 
0.0 0.0 0.0 
0.0 0.0 0.0 
0.0 0.0 0.0 
0.0 0.0 0.0 
0.0 0.0 0.0 
0.0 0.0 0.0 
0.0 0.0 0.0 
0.0 0.0 0.0 
0.0 0.0 0.0 
0.0 0.0 0.0 
0.0 0.0 0.0 
0.0 0.0 0.0 
0.0 0.0 0.0 
0.0 0.0 0.0 
0.0 0.0 0.0 
0.0 0.0 0.0 
0.0 0.0 0.0 
0.0 0.0 0.0 
0.0 0.0 0.0 
0.0 0.0 0.0 
0.0 0.0 0.0 
0.0 0.0 0.0 
0.0 0.0 0.0 
0.0 0.0 0.0 
0.0 0.0 0.0 
0.0 0.0 0.0 
0.0 0.0 0.0 
0.0 0.0 0.0 
0.0 0.0 0.0 
0.0 0.0 0.0 
0.0 0.0 0.0 
0.0 0.0 0.0 
0.0 0.0 0.0 
0.0 0.0 0.0 
0.0 0.0 0.0 
0.0 0.0 0.0 
0.0 0.0 0.0 
0.0 0.0 0.0 
0.0 0.0 0.0 
0.0 0.0 0.0 
0.0 0.0 0.0 
0.0 0.0 0.0 
0.0 0.0 0.0 
0.0 0.0 0.0 
0.0 0.0 0.0 
0.0 0.0 0.0 
0.0 0.0 0.0 
0.0 0.0 0.0 
0.0 0.0 0.0 
0.0 0.0 0.0 
0.0 0.0 0.0 
0.0 0.0 0.0 
0.0 0.0 0.0 
0.0 0.0 0.0 
0.0 0.0 0.0 
0.0 0.0 0.0 
0.0 0.0 0.0 
0.0 0.0 0.0 
0.0 0.0 0.0 
0.0 0.0 0.0 
0.0 0.0 0.0 
0.0 0.0 0.0 
0.0 0.0 0.0 
0.0 0.0 0.0 
0.0 0.0 0.0 
0.0 0.0 0.0 
0.0 0.0 0.0 
0.0 0.0 0.0 
0.0 0.0 0.0 
0.0 0.0 0.0 
0.0 0.0 0.0 
0.0 0.0 0.0 
0.0 0.0 0.0 
0.0 0.0 0.0 
0.0 0.0 0.0 
0.0 0.0 0.0 
0.0 0.0 0.0 
0.0 0.0 0.0 
0.0 0.0 0.0 
0.0 0.0 0.0 
0.0 0.0 0.0 
0.0 0.0 0.0 
0.0 0.0 0.0 
0.0 0.0 0.0 
0.0 0.0 0.0 
0.0 0.0 0.0 
0.0 0.0 0.0 
0.0 0.0 0.0 
0.0 0.0 0.0 
0.0 0.0 0.0 
0.0 0.0 0.0 
0.0 0.0 0.0 
0.0 0.0 0.0 
0.0 0.0 0.0 
0.0 0.0 0.0 
0.0 0.0 0.0 
0.0 0.0 0.0 
0.0 0.0 0.0 
0.0 0.0 0.0 
0.0 0.0 0.0 
0.0 0.0 0.0 
0.0 0.0 0.0 
0.0 0.0 0.0 
0.0 0.0 0.0 
0.0 0.0 0.0 
0.0 0.0 0.0 
0.0 0.0 0.0 
0.0 0.0 0.0 
0.0 0.0 0.0 
0.0 0.0 0.0 
0.0 0.0 0.0 
0.0 0.0 0.0 
0.0 0.0 0.0 
0.0 0.0 0.0 
0.0 0.0 0.0 
0.0 0.0 0.0 
0.0 0.0 0.0 
0.0 0.0 0.0 
0.0 0.0 0.0 
0.0 0.0 0.0 
0.0 0.0 0.0 
0.0 0.0 0.0 
0.0 0.0 0.0 
0.0 0.0 0.0 
0.0 0.0 0.0 
0.0 0.0 0.0 
0.0 0.0 0.0 
0.0 0.0 0.0 
0.0 0.0 0.0 
0.0 0.0 0.0 
0.0 0.0 0.0 
0.0 0.0 0.0 
0.0 0.0 0.0 
0.0 0.0 0.0 
0.0 0.0 0.0 
0.0 0.0 0.0 
0.0 0.0 0.0 
0.0 0.0 0.0 
0.0 0.0 0.0 
0.0 0.0 0.0 
0.0 0.0 0.0 
0.0 0.0 0.0 
0.0 0.0 0.0 
0.0 0.0 0.0 
0.0 0.0 0.0 
0.0 0.0 0.0 
0.0 0.0 0.0 
0.0 0.0 0.0 
0.0 0.0 0.0 
0.0 0.0 0.0 
0.0 0.0 0.0 
0.0 0.0 0.0 
0.0 0.0 0.0 
0.0 0.0 0.0 
0.0 0.0 0.0 
0.0 0.0 0.0 
0.0 0.0 0.0 
0.0 0.0 0.0 
0.0 0.0 0.0 
0.0 0.0 0.0 
0.0 0.0 0.0 
0.0 0.0 0.0 
0.0 0.0 0.0 
0.0 0.0 0.0 
0.0 0.0 0.0 
0.0 0.0 0.0 
0.0 0.0 0.0 
0.0 0.0 0.0 
0.0 0.0 0.0 
0.0 0.0 0.0 
0.0 0.0 0.0 
0.0 0.0 0.0 
0.0 0.0 0.0 
0.0 0.0 0.0 
0.0 0.0 0.0 
0.0 0.0 0.0 
0.0 0.0 0.0 
0.0 0.0 0.0 
0.0 0.0 0.0 
0.0 0.0 0.0 
0.0 0.0 0.0 
0.0 0.0 0.0 
0.0 0.0 0.0 
0.0 0.0 0.0 
0.0 0.0 0.0 
0.0 0.0 0.0 
0.0 0.0 0.0 
0.0 0.0 0.0 
0.0 0.0 0.0 
0.0 0.0 0.0 
0.0 0.0 0.0 
0.0 0.0 0.0 
0.0 0.0 0.0 
0.0 0.0 0.0 
0.0 0.0 0.0 
0.0 0.0 0.0 
0.0 0.0 0.0 
0.0 0.0 0.0 
0.0 0.0 0.0 
0.0 0.0 0.0 
0.0 0.0 0.0 
0.0 0.0 0.0 
0.0 0.0 0.0 
0.0 0.0 0.0 
0.0 0.0 0.0 
0.0 0.0 0.0 
0.0 0.0 0.0 
0.0 0.0 0.0 
0.0 0.0 0.0 
0.0 0.0 0.0 
0.0 0.0 0.0 
0.0 0.0 0.0 
0.0 0.0 0.0 
0.0 0.0 0.0 
0.0 0.0 0.0 
0.0 0.0 0.0 
0.0 0.0 0.0 
0.0 0.0 0.0 
0.0 0.0 0.0 
0.0 0.0 0.0 
0.0 0.0 0.0 
0.0 0.0 0.0 
0.0 0.0 0.0 
0.0 0.0 0.0 
0.0 0.0 0.0 
0.0 0.0 0.0 
0.0 0.0 0.0 
0.0 0.0 0.0 
0.0 0.0 0.0 
0.0 0.0 0.0 
0.0 0.0 0.0 
0.0 0.0 0.0 
0.0 0.0 0.0 
0.0 0.0 0.0 
0.0 0.0 0.0 
0.0 0.0 0.0 
0.0 0.0 0.0 
0.0 0.0 0.0 
0.0 0.0 0.0 
0.0 0.0 0.0 
0.0 0.0 0.0 
0.0 0.0 0.0 
0.0 0.0 0.0 
0.0 0.0 0.0 
0.0 0.0 0.0 
0.0 0.0 0.0 
0.0 0.0 0.0 
0.0 0.0 0.0 
0.0 0.0 0.0 
0.0 0.0 0.0 
0.0 0.0 0.0 
0.0 0.0 0.0 
0.0 0.0 0.0 
0.0 0.0 0.0 
0.0 0.0 0.0 
0.0 0.0 0.0 
0.0 0.0 0.0 
0.0 0.0 0.0 
0.0 0.0 0.0 
0.0 0.0 0.0 
0.0 0.0 0.0 
0.0 0.0 0.0 
0.0 0.0 0.0 
0.0 0.0 0.0 
0.0 0.0 0.0 
0.0 0.0 0.0 
0.0 0.0 0.0 
0.0 0.0 0.0 
0.0 0.0 0.0 
0.0 0.0 0.0 
0.0 0.0 0.0 
0.0 0.0 0.0 
0.0 0.0 0.0 
0.0 0.0 0.0 
0.0 0.0 0.0 
0.0 0.0 0.0 
0.0 0.0 0.0 
0.0 0.0 0.0 
0.0 0.0 0.0 
0.0 0.0 0.0 
0.0 0.0 0.0 
0.0 0.0 0.0 
0.0 0.0 0.0 
0.0 0.0 0.0 
0.0 0.0 0.0 
0.0 0.0 0.0 
0.0 0.0 0.0 
0.0 0.0 0.0 
0.0 0.0 0.0 
0.0 0.0 0.0 
0.0 0.0 0.0 
0.0 0.0 0.0 
0.0 0.0 0.0 
0.0 0.0 0.0 
0.0 0.0 0.0 
0.0 0.0 0.0 
0.0 0.0 0.0 
0.0 0.0 0.0 
0.0 0.0 0.0 
0.0 0.0 0.0 
0.0 0.0 0.0 
0.0 0.0 0.0 
0.0 0.0 0.0 
0.0 0.0 0.0 
0.0 0.0 0.0 
0.0 0.0 0.0 
0.0 0.0 0.0 
0.0 0.0 0.0 
0.0 0.0 0.0 
0.0 0.0 0.0 
0.0 0.0 0.0 
0.0 0.0 0.0 
0.0 0.0 0.0 
0.0 0.0 0.0 
0.0 0.0 0.0 
0.0 0.0 0.0 
0.0 0.0 0.0 
0.0 0.0 0.0 
0.0 0.0 0.0 
0.0 0.0 0.0 
0.0 0.0 0.0 
0.0 0.0 0.0 
0.0 0.0 0.0 
0.0 0.0 0.0 
0.0 0.0 0.0 
0.0 0.0 0.0 
0.0 0.0 0.0 
0.0 0.0 0.0 
0.0 0.0 0.0 
0.0 0.0 0.0 
0.0 0.0 0.0 
0.0 0.0 0.0 
0.0 0.0 0.0 
0.0 0.0 0.0 
0.0 0.0 0.0 
0.0 0.0 0.0 
0.0 0.0 0.0 

TENSORS element_materi_stress float
-3.480197755279e+01 2.463052350606e+01 0.0 
2.463052350606e+01 -4.537629111800e+01 0.0 
0.0 0.0 -2.365348060124e+01 
-3.694038738468e+01 2.445056246116e+01 0.0 
2.445056246116e+01 -4.626503446413e+01 0.0 
0.0 0.0 -2.456162655464e+01 
-1.222963482430e+02 2.142144243022e+01 0.0 
2.142144243022e+01 -2.762048290892e+02 0.0 
0.0 0.0 -1.191503531997e+02 
-1.094198242055e+02 2.753644431503e+00 0.0 
2.753644431503e+00 -2.476221619990e+02 0.0 
0.0 0.0 -1.067125958613e+02 
-6.029446547906e+01 1.163962157952e-01 0.0 
1.163962157952e-01 -1.089213954447e+02 0.0 
0.0 0.0 -5.036475827713e+01 
-3.746558096093e+01 3.181993518987e+01 0.0 
3.181993518987e+01 -1.041634278995e+02 0.0 
0.0 0.0 -4.317146047903e+01 
-5.948420881110e+01 -3.804006799905e-01 0.0 
-3.804006799905e-01 -1.090513081620e+02 0.0 
0.0 0.0 -5.016065509192e+01 
-3.799030821766e+01 2.702139801955e+01 0.0 
2.702139801955e+01 -5.284713991459e+01 0.0 
0.0 0.0 -2.685123443967e+01 
-6.055143676256e+01 2.020472117001e+00 0.0 
2.020472117001e+00 -1.098725581558e+02 0.0 
0.0 0.0 -5.072719847550e+01 
-1.087597710044e+02 2.387906136163e+00 0.0 
2.387906136163e+00 -2.459597438212e+02 0.0 
0.0 0.0 -1.060158544477e+02 
-1.053895319756e+02 -1.184849844245e+00 0.0 
-1.184849844245e+00 -2.568558336076e+02 0.0 
0.0 0.0 -1.082736096750e+02 
-3.167591438777e+01 2.309941283145e+01 0.0 
2.309941283145e+01 -3.834551148320e+01 0.0 
0.0 0.0 -2.060642776129e+01 
-1.564332291831e+02 -4.342172113856e-01 0.0 
-4.342172113856e-01 -3.697666217479e+02 0.0 
0.0 0.0 -1.574599552793e+02 
-7.098207225808e+01 2.837822273147e+00 0.0 
2.837822273147e+00 -1.273158744015e+02 0.0 
0.0 0.0 -5.908938399786e+01 
-1.605229963005e+02 1.462891474411e+00 0.0 
1.462891474411e+00 -3.780010417034e+02 0.0 
0.0 0.0 -1.611572114012e+02 
-1.112093729287e+02 1.845334203698e+00 0.0 
1.845334203698e+00 -2.557872526798e+02 0.0 
0.0 0.0 -1.096989876826e+02 
-6.011986723257e+01 1.514073492403e+00 0.0 
1.514073492403e+00 -1.052323799091e+02 0.0 
0.0 0.0 -4.920567414252e+01 
-2.910114252924e+01 1.681899421158e+01 0.0 
1.681899421158e+01 -1.081105146951e+02 0.0 
0.0 0.0 -4.350285395356e+01 
-2.903746240144e+01 -1.942977554187e-01 0.0 
-1.942977554187e-01 -7.723413030408e+01 0.0 
0.0 0.0 -3.148147781166e+01 
-3.128645046276e+01 -1.223825655368e+00 0.0 
-1.223825655368e+00 -8.011331724925e+01 0.0 
0.0 0.0 -3.301993031360e+01 
-1.102157403539e+02 4.483787317787e+00 0.0 
4.483787317787e+00 -2.470806795862e+02 0.0 
0.0 0.0 -1.067889259820e+02 
-3.616840099063e+01 1.936233841187e+01 0.0 
1.936233841187e+01 -4.222645718801e+01 0.0 
0.0 0.0 -2.311845745359e+01 
-4.240041184224e+01 2.267255464161e+01 0.0 
2.267255464161e+01 -5.177004198170e+01 0.0 
0.0 0.0 -2.785113614718e+01 
-1.411451288118e+02 1.221061998815e+01 0.0 
1.221061998815e+01 -3.537177372680e+02 0.0 
0.0 0.0 -1.480588598240e+02 
-8.053193791426e+01 5.590533760950e+00 0.0 
5.590533760950e+00 -1.471838960521e+02 0.0 
0.0 0.0 -6.791475018992e+01 
-1.113809840719e+02 1.500910577239e-01 0.0 
1.500910577239e-01 -2.708357389682e+02 0.0 
0.0 0.0 -1.142650169120e+02 
-5.755884509414e+01 4.028178092498e+00 0.0 
4.028178092498e+00 -9.066072374085e+01 0.0 
0.0 0.0 -4.406587065050e+01 
-1.365788611649e+02 2.789107441437e+01 0.0 
2.789107441437e+01 -3.250413396304e+02 0.0 
0.0 0.0 -1.380860602386e+02 
-8.339849464592e+01 8.624270280874e+00 0.0 
8.624270280874e+00 -1.487810756722e+02 0.0 
0.0 0.0 -6.925387109545e+01 
-1.453621386294e+02 1.050912408211e+01 0.0 
1.050912408211e+01 -3.617222093851e+02 0.0 
0.0 0.0 -1.517253044043e+02 
-3.661036902414e+01 -2.250448979219e+01 0.0 
-2.250448979219e+01 -9.896211789935e+01 0.0 
0.0 0.0 -3.975865941142e+01 
-1.033217957104e+01 -1.763405422081e+00 0.0 
-1.763405422081e+00 -2.633670121990e+01 0.0 
0.0 0.0 -1.060066423728e+01 
-1.244989455603e+02 2.151838416488e+01 0.0 
2.151838416488e+01 -2.764583536440e+02 0.0 
0.0 0.0 -1.198871897613e+02 
-1.334573823764e+02 8.332116771331e-01 0.0 
8.332116771331e-01 -3.199375899692e+02 0.0 
0.0 0.0 -1.356184917037e+02 
-1.539508340288e+02 5.691119394255e+00 0.0 
5.691119394255e+00 -3.706819736968e+02 0.0 
0.0 0.0 -1.569898423177e+02 
-1.636434338128e+02 1.063440784437e+00 0.0 
1.063440784437e+00 -3.872150929967e+02 0.0 
0.0 0.0 -1.648575580429e+02 
-1.640086337254e+02 3.926613148673e+00 0.0 
3.926613148673e+00 -3.871189839176e+02 0.0 
0.0 0.0 -1.649382852929e+02 
-1.438671124654e+02 1.945815703958e+01 0.0 
1.945815703958e+01 -3.545317914093e+02 0.0 
0.0 0.0 -1.491196711624e+02 
-5.152402484570e+01 1.459829411797e+00 0.0 
1.459829411797e+00 -9.036485634583e+01 0.0 
0.0 0.0 -4.216666435746e+01 
-5.114848784060e+01 -1.271119439568e+00 0.0 
-1.271119439568e+00 -9.084710183981e+01 0.0 
0.0 0.0 -4.219867690412e+01 
-4.898064585612e+01 1.705412815254e+01 0.0 
1.705412815254e+01 -5.994603059507e+01 0.0 
0.0 0.0 -3.227800293536e+01 
-1.568482069691e+02 7.104550655997e+00 0.0 
7.104550655997e+00 -3.753015071600e+02 0.0 
0.0 0.0 -1.592449142387e+02 
-3.460455738438e+01 2.558661742520e+01 0.0 
2.558661742520e+01 -4.582952884242e+01 0.0 
0.0 0.0 -2.373022586804e+01 
-5.927457824019e+01 3.771494920078e+00 0.0 
3.771494920078e+00 -9.116440816107e+01 0.0 
0.0 0.0 -4.473169592038e+01 
-1.057298666480e+02 1.123336563604e+00 0.0 
1.123336563604e+00 -2.361221674349e+02 0.0 
0.0 0.0 -1.021556102249e+02 
-3.668500734401e+01 2.717391089432e+01 0.0 
2.717391089432e+01 -4.651088573076e+01 0.0 
0.0 0.0 -2.455876792243e+01 
-3.333441694413e+01 -2.606207274822e+01 0.0 
-2.606207274822e+01 -9.738282603350e+01 0.0 
0.0 0.0 -4.029708862788e+01 
-1.049817755283e+02 8.700908370757e-01 0.0 
8.700908370757e-01 -2.373896000596e+02 0.0 
0.0 0.0 -1.023114126764e+02 
-3.446769229826e+01 -2.436739627820e+01 0.0 
-2.436739627820e+01 -5.666228274906e+01 0.0 
0.0 0.0 -2.878892780718e+01 
-6.853692659954e+01 3.844789558022e+00 0.0 
3.844789558022e+00 -1.187636186720e+02 0.0 
0.0 0.0 -5.579016358147e+01 
-4.603974735071e+01 1.992480633127e+01 0.0 
1.992480633127e+01 -5.589229148233e+01 0.0 
0.0 0.0 -3.017961164991e+01 
-3.867325785608e+01 -4.830400918572e-01 0.0 
-4.830400918572e-01 -9.723975695336e+01 0.0 
0.0 0.0 -4.037390444283e+01 
-3.593150603913e+01 -1.818922292023e+01 0.0 
-1.818922292023e+01 -1.291364454680e+02 0.0 
0.0 0.0 -4.966898209770e+01 
-4.069306746877e+01 1.317625062353e+01 0.0 
1.317625062353e+01 -4.704156418277e+01 0.0 
0.0 0.0 -2.592038949546e+01 
-1.179516516104e+02 1.638240951592e+01 0.0 
1.638240951592e+01 -2.655488519037e+02 0.0 
0.0 0.0 -1.146501510542e+02 
-5.257498123337e+01 -1.060104453117e+00 0.0 
-1.060104453117e+00 -1.291562131332e+02 0.0 
0.0 0.0 -5.411935830997e+01 
-4.044588628019e+01 -1.440506841357e+00 0.0 
-1.440506841357e+00 -1.005492489195e+02 0.0 
0.0 0.0 -4.189854055990e+01 
-1.331243637326e+02 -7.632224634420e-01 0.0 
-7.632224634420e-01 -3.198577051789e+02 0.0 
0.0 0.0 -1.354946206735e+02 
-2.185492033684e+01 -1.655235864671e+00 0.0 
-1.655235864671e+00 -5.931964696370e+01 0.0 
0.0 0.0 -2.395237019016e+01 
-1.118843742127e+02 3.719736310131e+00 0.0 
3.719736310131e+00 -2.561146338272e+02 0.0 
0.0 0.0 -1.099997024120e+02 
-5.694043680268e+01 -2.287324174098e+01 0.0 
-2.287324174098e+01 -9.791160400359e+01 0.0 
0.0 0.0 -4.748551252507e+01 
-1.301156447258e+02 2.324802217513e+01 0.0 
2.324802217513e+01 -3.215849207393e+02 0.0 
0.0 0.0 -1.351101696395e+02 
-4.736502027944e+01 2.665574866387e+01 0.0 
2.665574866387e+01 -1.057225072379e+02 0.0 
0.0 0.0 -4.552625825519e+01 
-3.132128542004e+01 -1.768316890984e+01 0.0 
-1.768316890984e+01 -1.132307125435e+02 0.0 
0.0 0.0 -4.309972390287e+01 
-1.562093159329e+02 1.726766808206e+00 0.0 
1.726766808206e+00 -3.697800468000e+02 0.0 
0.0 0.0 -1.573968088199e+02 
-3.777274590423e+01 1.599352683063e+01 0.0 
1.599352683063e+01 -4.154121292686e+01 0.0 
0.0 0.0 -2.339418764933e+01 
-4.804491177065e+01 -9.100778061841e+00 0.0 
-9.100778061841e+00 -1.206336927995e+02 0.0 
0.0 0.0 -5.183846825371e+01 
-1.267514387650e+02 2.343063534182e+01 0.0 
2.343063534182e+01 -2.802463154262e+02 0.0 
0.0 0.0 -1.216993262573e+02 
-3.593251889041e+01 -1.084094857376e+01 0.0 
-1.084094857376e+01 -7.123212471368e+01 0.0 
0.0 0.0 -3.077780968964e+01 
-1.301010266145e+02 2.583293734374e+01 0.0 
2.583293734374e+01 -3.004930100036e+02 0.0 
0.0 0.0 -1.287782109854e+02 
-1.159223607113e+02 2.069278249148e-01 0.0 
2.069278249148e-01 -2.818324961038e+02 0.0 
0.0 0.0 -1.189264570445e+02 
-1.167249591041e+02 1.062308121224e+01 0.0 
1.062308121224e+01 -2.736915712429e+02 0.0 
0.0 0.0 -1.167249591041e+02 
-1.309206612690e+02 2.536767846061e+01 0.0 
2.536767846061e+01 -3.105166755384e+02 0.0 
0.0 0.0 -1.320312010422e+02 
-6.769705942570e+00 -1.151775601136e+00 0.0 
-1.151775601136e+00 -2.998661841448e+01 0.0 
0.0 0.0 -1.062689730711e+01 
-5.483658969903e+01 -2.238903261370e+00 0.0 
-2.238903261370e+00 -1.345463554815e+02 0.0 
0.0 0.0 -5.641488355416e+01 
-1.130564379951e+02 8.525328046802e+00 0.0 
8.525328046802e+00 -2.518921939933e+02 0.0 
0.0 0.0 -1.090845895965e+02 
-1.221563799972e+02 1.786117322130e+01 0.0 
1.786117322130e+01 -2.689554224221e+02 0.0 
0.0 0.0 -1.169335407258e+02 
-3.884780659304e+01 2.839306207927e+01 0.0 
2.839306207927e+01 -4.780042733753e+01 0.0 
0.0 0.0 -2.396167501648e+01 
-2.314382444189e+01 -1.621725853851e+00 0.0 
-1.621725853851e+00 -5.924341169203e+01 0.0 
0.0 0.0 -2.431617084018e+01 
-3.757020044286e+01 2.770164031135e+01 0.0 
2.770164031135e+01 -4.750379267190e+01 0.0 
0.0 0.0 -2.356348247952e+01 
-3.903174806776e+01 -1.467421559109e+01 0.0 
-1.467421559109e+01 -7.115645608999e+01 0.0 
0.0 0.0 -3.115719870964e+01 
-6.006287385145e+01 1.195919382472e+00 0.0 
1.195919382472e+00 -1.046579441144e+02 0.0 
0.0 0.0 -4.901624538974e+01 
-4.114202949995e+01 2.450501128398e+01 0.0 
2.450501128398e+01 -5.120613949017e+01 0.0 
0.0 0.0 -2.730445069704e+01 
-3.409791417362e+01 2.091250760944e+01 0.0 
2.091250760944e+01 -3.818429684963e+01 0.0 
0.0 0.0 -2.128466330698e+01 
-6.554524847423e+01 2.393803240698e+00 0.0 
2.393803240698e+00 -1.203352325971e+02 0.0 
0.0 0.0 -5.536414432141e+01 
-6.411652750790e+01 2.827834567219e-01 0.0 
2.827834567219e-01 -1.196922834412e+02 0.0 
0.0 0.0 -5.474264328473e+01 
-1.197824484172e+02 5.582609538175e-01 0.0 
5.582609538175e-01 -2.900222664730e+02 0.0 
0.0 0.0 -1.225414144671e+02 
-1.294838512989e+02 -8.507676515420e-01 0.0 
-8.507676515420e-01 -3.114158646368e+02 0.0 
0.0 0.0 -1.318699147807e+02 
-1.094391502859e+02 2.099903662475e+01 0.0 
2.099903662475e+01 -2.239186196057e+02 0.0 
0.0 0.0 -9.960733096749e+01 
-6.142883385951e+01 2.473497801017e+00 0.0 
2.473497801017e+00 -1.086428138528e+02 0.0 
0.0 0.0 -5.062149431368e+01 
-1.646802448802e+01 -2.418019605250e+00 0.0 
-2.418019605250e+00 -2.615843026742e+01 0.0 
0.0 0.0 -1.274160076964e+01 
-6.680116455638e+01 5.004598898873e+00 0.0 
5.004598898873e+00 -1.090488972907e+02 0.0 
0.0 0.0 -5.235501855412e+01 
-8.835697614333e+01 1.292170956276e+00 0.0 
1.292170956276e+00 -1.884533050082e+02 0.0 
0.0 0.0 -8.264308434545e+01 
-8.802186541063e+01 6.872203512381e-01 0.0 
6.872203512381e-01 -1.850357269960e+02 0.0 
0.0 0.0 -8.151727772200e+01 
-1.215656338535e+02 1.178934577077e+01 0.0 
1.178934577077e+01 -2.764755534587e+02 0.0 
0.0 0.0 -1.190123561937e+02 
-1.500786863088e+02 2.258086300304e+01 0.0 
2.258086300304e+01 -3.599106144804e+02 0.0 
0.0 0.0 -1.525967902368e+02 
-6.133364627384e+01 2.187107152968e+00 0.0 
2.187107152968e+00 -1.045675659666e+02 0.0 
0.0 0.0 -4.937036367213e+01 
-1.535466772684e+02 6.601240700599e+00 0.0 
6.601240700599e+00 -3.740762306229e+02 0.0 
0.0 0.0 -1.578868723674e+02 
-7.027836771294e+01 8.320823008648e-01 0.0 
8.320823008648e-01 -1.394430235980e+02 0.0 
0.0 0.0 -6.251641739327e+01 
-4.516609611681e+01 2.852971697578e+01 0.0 
2.852971697578e+01 -8.767126785463e+01 0.0 
0.0 0.0 -3.945120919143e+01 
-5.700070824382e+01 1.526201855390e+00 0.0 
1.526201855390e+00 -9.991260152695e+01 0.0 
0.0 0.0 -4.667399293123e+01 
-1.600595246691e+02 2.039483734967e-02 0.0 
2.039483734967e-02 -3.776738872806e+02 0.0 
0.0 0.0 -1.609200235849e+02 
-1.068908612595e+02 2.200819606262e+01 0.0 
2.200819606262e+01 -2.807507919744e+02 0.0 
0.0 0.0 -1.158924959702e+02 
-1.317587622469e+02 2.478717786791e+01 0.0 
2.478717786791e+01 -3.226312660719e+02 0.0 
0.0 0.0 -1.359170084957e+02 
-4.131265217534e+01 2.862828261419e+01 0.0 
2.862828261419e+01 -1.051734129441e+02 0.0 
0.0 0.0 -4.354581953583e+01 
-4.703963572769e+01 -2.902386096448e+01 0.0 
-2.902386096448e+01 -7.761844162582e+01 0.0 
0.0 0.0 -3.645128475847e+01 
-1.470514440870e+02 1.143850166940e+00 0.0 
1.143850166940e+00 -3.495802522057e+02 0.0 
0.0 0.0 -1.485895088878e+02 
-9.491721779779e+01 1.071962699349e+00 0.0 
1.071962699349e+00 -2.043925366828e+02 0.0 
0.0 0.0 -8.939292634418e+01 
-5.322598604928e+01 -3.391500092289e+01 0.0 
-3.391500092289e+01 -7.552951782153e+01 0.0 
0.0 0.0 -3.902507801547e+01 
-1.596439932163e+02 2.182456796078e+00 0.0 
2.182456796078e+00 -3.762655128702e+02 0.0 
0.0 0.0 -1.603728518260e+02 
-1.037748468088e+02 1.869418215703e+01 0.0 
1.869418215703e+01 -2.141407511168e+02 0.0 
0.0 0.0 -9.497467937770e+01 
-4.397197721979e+00 6.920894323366e-01 0.0 
6.920894323366e-01 -2.184075557439e+01 0.0 
0.0 0.0 -6.841101008470e+00 
-5.491564217877e+01 2.507195933506e+01 0.0 
2.507195933506e+01 -1.591467345502e+02 0.0 
0.0 0.0 -6.381871301869e+01 
-6.271734816640e+01 9.352178930284e+00 0.0 
9.352178930284e+00 -9.300565274518e+01 0.0 
0.0 0.0 -4.631690027347e+01 
-6.659342662622e+01 -2.190662878318e+00 0.0 
-2.190662878318e+00 -1.641867761655e+02 0.0 
0.0 0.0 -6.883406083753e+01 
-4.167869207605e+01 2.624014784446e+01 0.0 
2.624014784446e+01 -8.483715009804e+01 0.0 
0.0 0.0 -3.755475265223e+01 
-4.741643693160e+01 2.885296462659e+01 0.0 
2.885296462659e+01 -1.059798234317e+02 0.0 
0.0 0.0 -4.561887810899e+01 
-1.578306867427e+02 3.922436364660e+00 0.0 
3.922436364660e+00 -3.769646139748e+02 0.0 
0.0 0.0 -1.600385902152e+02 
-6.792760292388e+01 -4.260534131091e-01 0.0 
-4.260534131091e-01 -1.328085882348e+02 0.0 
0.0 0.0 -5.982085734761e+01 
-4.423860803661e+01 2.731642559348e+01 0.0 
2.731642559348e+01 -1.051282393698e+02 0.0 
0.0 0.0 -4.441005422193e+01 
-2.908332117983e+01 -5.696318093266e+00 0.0 
-5.696318093266e+00 -6.326991133207e+01 0.0 
0.0 0.0 -2.730596975357e+01 
-6.690076804100e+01 5.220029524366e+00 0.0 
5.220029524366e+00 -1.097237518765e+02 0.0 
0.0 0.0 -5.258735597524e+01 
-9.472349713075e+01 1.451311052074e+00 0.0 
1.451311052074e+00 -2.057776650831e+02 0.0 
0.0 0.0 -8.975034866417e+01 
-4.427126648197e+01 2.883658185589e+01 0.0 
2.883658185589e+01 -1.052465710327e+02 0.0 
0.0 0.0 -4.445535125439e+01 
-4.127649744942e+01 3.101944605306e+01 0.0 
3.101944605306e+01 -5.183810258218e+01 0.0 
0.0 0.0 -2.677835504891e+01 
-5.608297722742e+01 1.226412351127e+01 0.0 
1.226412351127e+01 -7.604225551348e+01 0.0 
0.0 0.0 -3.923756982227e+01 
-6.643021906937e+01 -2.650831822540e+00 0.0 
-2.650831822540e+00 -1.629286276415e+02 0.0 
0.0 0.0 -6.840765401325e+01 
-4.786477449023e+01 8.716582981614e+00 0.0 
8.716582981614e+00 -6.280759273700e+01 0.0 
0.0 0.0 -3.280171016817e+01 
-1.140870720900e+02 8.147986448577e+00 0.0 
8.147986448577e+00 -2.603434081664e+02 0.0 
0.0 0.0 -1.119291440769e+02 
-3.996431389163e+01 3.413299043639e+01 0.0 
3.413299043639e+01 -7.632352799688e+01 0.0 
0.0 0.0 -3.435476452289e+01 
-1.104047113422e+02 -1.391978465463e+00 0.0 
-1.391978465463e+00 -2.693635708091e+02 0.0 
0.0 0.0 -1.135304846454e+02 
-1.088151784804e+02 9.259985778792e-01 0.0 
9.259985778792e-01 -2.474408303021e+02 0.0 
0.0 0.0 -1.064768026347e+02 
-6.007336758194e+01 2.309181902484e+01 0.0 
2.309181902484e+01 -1.108988952387e+02 0.0 
0.0 0.0 -5.089167884619e+01 
-5.283530308122e+01 1.421033864303e+01 0.0 
1.421033864303e+01 -6.813884874937e+01 0.0 
0.0 0.0 -3.589224554918e+01 
-1.525659224181e+02 4.190258465539e+00 0.0 
4.190258465539e+00 -3.701316445836e+02 0.0 
0.0 0.0 -1.564092701005e+02 
-1.568611130025e+02 1.462435088346e+00 0.0 
1.462435088346e+00 -3.704659033889e+02 0.0 
0.0 0.0 -1.577981049174e+02 
-1.192804470676e+02 -1.109140847401e+00 0.0 
-1.109140847401e+00 -2.898717081543e+02 0.0 
0.0 0.0 -1.223456465666e+02 
-6.362536853746e+01 2.497740142696e+01 0.0 
2.497740142696e+01 -1.144149982162e+02 0.0 
0.0 0.0 -5.301211002611e+01 
-1.516746086576e+02 1.060025855246e+01 0.0 
1.060025855246e+01 -3.729460068003e+02 0.0 
0.0 0.0 -1.569861846374e+02 
-5.622543397457e+01 2.025167437606e+01 0.0 
2.025167437606e+01 -9.231613278491e+01 0.0 
0.0 0.0 -4.416247002784e+01 
-1.114988353296e+02 5.909881310248e+00 0.0 
5.909881310248e+00 -2.539598086484e+02 0.0 
0.0 0.0 -1.092375931934e+02 
-1.306406412917e+02 2.672603290006e+01 0.0 
2.672603290006e+01 -2.991009305362e+02 0.0 
0.0 0.0 -1.285224715483e+02 
-7.272428295021e+01 5.346542346548e+00 0.0 
5.346542346548e+00 -1.273326224998e+02 0.0 
0.0 0.0 -5.961707163502e+01 
-8.031311530077e+01 7.180028124644e-01 0.0 
7.180028124644e-01 -1.638734849460e+02 0.0 
0.0 0.0 -7.285598007403e+01 
-5.596532876803e+01 2.496728962513e+01 0.0 
2.496728962513e+01 -9.248791590678e+01 0.0 
0.0 0.0 -4.413597340244e+01 
-4.439681105651e+01 1.035404254321e+01 0.0 
1.035404254321e+01 -5.514512963987e+01 0.0 
0.0 0.0 -2.946258220891e+01 
-6.755250254324e+01 2.313879223172e+01 0.0 
2.313879223172e+01 -1.317213592393e+02 0.0 
0.0 0.0 -5.938215853475e+01 
-4.561840856805e+01 2.820821910342e+01 0.0 
2.820821910342e+01 -1.240319473901e+02 0.0 
0.0 0.0 -5.049510678744e+01 
-5.694323513421e+01 1.316631457427e+00 0.0 
1.316631457427e+00 -1.025782629985e+02 0.0 
0.0 0.0 -4.745644943982e+01 
-5.315219863425e+01 2.562220840550e+01 0.0 
2.562220840550e+01 -1.584929132807e+02 0.0 
0.0 0.0 -6.309353357448e+01 
-1.184252774587e+01 -9.265643610459e-01 0.0 
-9.265643610459e-01 -2.518141396502e+01 0.0 
0.0 0.0 -1.108262438671e+01 
-6.165400749029e+01 2.603146642160e-01 0.0 
2.603146642160e-01 -1.174906721063e+02 0.0 
0.0 0.0 -5.334340387896e+01 
-2.172070527216e+01 -6.149880351031e-01 0.0 
-6.149880351031e-01 -6.012601643513e+01 0.0 
0.0 0.0 -2.415401651219e+01 
-5.943471077674e+01 1.066594286745e+01 0.0 
1.066594286745e+01 -8.475559876540e+01 0.0 
0.0 0.0 -4.285709286264e+01 
-1.561629252117e+02 9.882851024065e+00 0.0 
9.882851024065e+00 -3.748845971539e+02 0.0 
0.0 0.0 -1.589142567097e+02 
-4.175679385203e+01 2.768636411493e+01 0.0 
2.768636411493e+01 -1.052637771068e+02 0.0 
0.0 0.0 -4.370617128764e+01 
-1.242104969426e+02 -9.998597670748e-01 0.0 
-9.998597670748e-01 -3.001067643825e+02 0.0 
0.0 0.0 -1.268951783975e+02 
-3.641672141849e+01 2.644183772745e+01 0.0 
2.644183772745e+01 -4.572428360637e+01 0.0 
0.0 0.0 -2.424230150746e+01 
-1.064596749371e+02 2.089400947603e+01 0.0 
2.089400947603e+01 -2.804226864548e+02 0.0 
0.0 0.0 -1.156647084176e+02 
-5.611362765942e+01 2.148882686860e-01 0.0 
2.148882686860e-01 -1.039584804587e+02 0.0 
0.0 0.0 -4.762163243543e+01 
-5.075964406109e+01 2.430504177519e+01 0.0 
2.430504177519e+01 -1.579180039659e+02 0.0 
0.0 0.0 -6.220329440811e+01 
-1.377112776207e+02 1.069459437744e+00 0.0 
1.069459437744e+00 -3.296847589715e+02 0.0 
0.0 0.0 -1.398188109777e+02 
-3.490809568712e+01 -9.151322139242e+00 0.0 
-9.151322139242e+00 -6.412668555564e+01 0.0 
0.0 0.0 -2.874660454273e+01 
-1.466972025163e+02 -5.361163859240e-01 0.0 
-5.361163859240e-01 -3.491753257484e+02 0.0 
0.0 0.0 -1.483617584794e+02 
-7.011511868104e+01 1.161802890983e+01 0.0 
1.161802890983e+01 -1.157510657712e+02 0.0 
0.0 0.0 -5.535985533566e+01 
-1.575059126835e+02 1.486303329903e+00 0.0 
1.486303329903e+00 -3.746732191210e+02 0.0 
0.0 0.0 -1.592537395413e+02 
-5.539662280598e+01 -3.617165777342e-03 0.0 
-3.617165777342e-03 -1.029130193478e+02 0.0 
0.0 0.0 -4.709289264615e+01 
-4.369307648728e+01 2.673715252991e+01 0.0 
2.673715252991e+01 -1.232972498476e+02 0.0 
0.0 0.0 -4.969709790047e+01 
-5.561131287037e+01 6.436098191176e+00 0.0 
6.436098191176e+00 -8.086098997998e+01 0.0 
0.0 0.0 -4.054169085510e+01 
-1.057959229277e+02 1.485388078792e-01 0.0 
1.485388078792e-01 -2.582731930447e+02 0.0 
0.0 0.0 -1.088207347917e+02 
-3.509667991780e+01 2.549282664101e+01 0.0 
2.549282664101e+01 -4.556189587394e+01 0.0 
0.0 0.0 -2.379757273752e+01 
-4.884303523711e+01 2.403365711759e+01 0.0 
2.403365711759e+01 -1.570511441988e+02 0.0 
0.0 0.0 -6.136825383077e+01 
-8.460385071489e+01 2.391895043370e+00 0.0 
2.391895043370e+00 -1.748811987884e+02 0.0 
0.0 0.0 -7.744551485098e+01 
-5.580694368130e+01 -3.722860779762e-01 0.0 
-3.722860779762e-01 -1.027169733192e+02 0.0 
0.0 0.0 -4.715717510015e+01 
-4.882809562617e+01 2.594846620010e+01 0.0 
2.594846620010e+01 -1.410843856166e+02 0.0 
0.0 0.0 -5.657374437282e+01 
-5.163379639527e+01 7.395895897961e+00 0.0 
7.395895897961e+00 -7.149744762639e+01 0.0 
0.0 0.0 -3.653937320650e+01 
-1.154279156860e+02 2.293447017791e+01 0.0 
2.293447017791e+01 -2.580399267294e+02 0.0 
0.0 0.0 -1.116403527246e+02 
-7.437404067556e+01 -2.248962598506e+00 0.0 
-2.248962598506e+00 -1.823429487248e+02 0.0 
0.0 0.0 -7.661509682011e+01 
-1.390131945502e+02 2.594813687465e+01 0.0 
2.594813687465e+01 -3.294530684230e+02 0.0 
0.0 0.0 -1.401398788919e+02 
-1.325622886231e+02 2.788183886605e+01 0.0 
2.788183886605e+01 -3.044946535642e+02 0.0 
0.0 0.0 -1.307170826562e+02 
-4.024063095724e+01 2.791549224824e+01 0.0 
2.791549224824e+01 -6.784328168654e+01 0.0 
0.0 0.0 -3.202517379313e+01 
-7.450408959654e+01 -2.367906080985e+00 0.0 
-2.367906080985e+00 -1.826058882756e+02 0.0 
0.0 0.0 -7.673299336165e+01 
-1.292993596607e+02 1.408476460646e+01 0.0 
1.408476460646e+01 -3.345663732261e+02 0.0 
0.0 0.0 -1.387597198660e+02 
-5.258407534929e+01 2.176058854610e+01 0.0 
2.176058854610e+01 -7.497149787356e+01 0.0 
0.0 0.0 -3.786667196685e+01 
-3.674925222155e+01 2.485790035333e+01 0.0 
2.485790035333e+01 -6.449886593798e+01 0.0 
0.0 0.0 -2.997443544786e+01 
-6.492423555841e+01 8.545433464719e+00 0.0 
8.545433464719e+00 -1.029543215431e+02 0.0 
0.0 0.0 -4.996356713045e+01 
-5.114517737478e+01 2.758859826719e+01 0.0 
2.758859826719e+01 -1.423193370662e+02 0.0 
0.0 0.0 -5.763935433231e+01 
-1.099974385272e+02 3.668693401037e+00 0.0 
3.668693401037e+00 -2.524143752501e+02 0.0 
0.0 0.0 -1.083235441332e+02 
-1.028366265287e+02 1.595902064558e+01 0.0 
1.595902064558e+01 -2.079853847411e+02 0.0 
0.0 0.0 -9.284660338093e+01 
-1.423171821840e+02 -8.101782983856e-01 0.0 
-8.101782983856e-01 -3.395807103103e+02 0.0 
0.0 0.0 -1.441693677483e+02 
-3.818296521526e+01 2.812876552615e+01 0.0 
2.812876552615e+01 -4.701020199880e+01 0.0 
0.0 0.0 -2.444395809851e+01 
-4.476253460000e+01 2.188518911672e+01 0.0 
2.188518911672e+01 -1.560028761287e+02 0.0 
0.0 0.0 -5.982962321861e+01 
-1.068317954673e+02 1.798133284858e+01 0.0 
1.798133284858e+01 -2.217234396826e+02 0.0 
0.0 0.0 -9.816657054498e+01 
-7.879521386576e+01 2.607238215108e+01 0.0 
2.607238215108e+01 -7.888943335969e+01 0.0 
0.0 0.0 -4.757335252014e+01 
-5.144776201684e+01 1.630711200616e+01 0.0 
1.630711200616e+01 -7.433595866583e+01 0.0 
0.0 0.0 -3.733511620480e+01 
-1.203333866088e+02 9.692971953046e+00 0.0 
9.692971953046e+00 -3.194443395662e+02 0.0 
0.0 0.0 -1.315333178525e+02 
-1.410916672516e+01 -1.025186368845e+00 0.0 
-1.025186368845e+00 -4.240908646228e+01 0.0 
0.0 0.0 -1.655547595623e+01 
-1.200832977637e+02 1.778234750377e+01 0.0 
1.778234750377e+01 -2.662184113203e+02 0.0 
0.0 0.0 -1.154905127252e+02 
-9.025122320777e+01 9.679187684979e+00 0.0 
9.679187684979e+00 -1.706623137986e+02 0.0 
0.0 0.0 -7.787406110190e+01 
-6.388019311988e+01 -9.437448208997e+00 0.0 
-9.437448208997e+00 -1.808695599744e+02 0.0 
0.0 0.0 -7.302492592829e+01 
-1.178395854012e+02 8.742646298178e+00 0.0 
8.742646298178e+00 -3.182855662214e+02 0.0 
0.0 0.0 -1.304375454868e+02 
-7.423664150273e+01 6.841276002458e+00 0.0 
6.841276002458e+00 -1.259798597363e+02 0.0 
0.0 0.0 -5.966495037171e+01 
-7.942452765391e+01 6.619465230758e+00 0.0 
6.619465230758e+00 -1.402150111797e+02 0.0 
0.0 0.0 -6.549186165008e+01 
-1.473150987668e+02 1.112605861219e+01 0.0 
1.112605861219e+01 -3.622997999877e+02 0.0 
0.0 0.0 -1.524844696264e+02 
-5.281586696648e+01 -1.018230884606e+01 0.0 
-1.018230884606e+01 -1.338425775393e+02 0.0 
0.0 0.0 -5.559753335174e+01 
-7.068397604639e+01 2.449753838801e+01 0.0 
2.449753838801e+01 -1.494812334181e+02 0.0 
0.0 0.0 -6.564956283933e+01 
-7.493571616966e+01 1.466825128077e+01 0.0 
1.466825128077e+01 -1.298014840817e+02 0.0 
0.0 0.0 -6.102116007540e+01 
-9.612988610608e+01 1.194222253695e+01 0.0 
1.194222253695e+01 -1.819283951305e+02 0.0 
0.0 0.0 -8.301748437099e+01 
-7.594856074187e+01 1.405007165989e+01 0.0 
1.405007165989e+01 -1.254501264381e+02 0.0 
0.0 0.0 -6.001960615400e+01 
-6.769898730054e+01 1.246817226641e+01 0.0 
1.246817226641e+01 -1.041116619189e+02 0.0 
0.0 0.0 -5.114319476584e+01 
-9.212873632203e+01 1.992285110180e+01 0.0 
1.992285110180e+01 -2.578344939573e+02 0.0 
0.0 0.0 -1.045889690838e+02 
-1.125242067705e+02 2.424689263460e+01 0.0 
2.424689263460e+01 -2.436840080027e+02 0.0 
0.0 0.0 -1.064624644319e+02 
-5.621990958134e+01 2.449727461136e+01 0.0 
2.449727461136e+01 -9.370699556580e+01 0.0 
0.0 0.0 -4.610187864931e+01 
-4.005649970598e+01 2.564753070551e+01 0.0 
2.564753070551e+01 -6.816219152531e+01 0.0 
0.0 0.0 -3.206560736939e+01 
-4.463398832292e+01 2.567312067777e+01 0.0 
2.567312067777e+01 -8.677922677561e+01 0.0 
0.0 0.0 -3.902396452956e+01 
-6.639856170585e+01 2.653267901686e+01 0.0 
2.653267901686e+01 -1.318919076366e+02 0.0 
0.0 0.0 -5.908714080272e+01 
-1.085503803885e+02 1.820170938434e+01 0.0 
1.820170938434e+01 -2.185143086096e+02 0.0 
0.0 0.0 -9.771940669942e+01 
-3.158450875744e+01 2.419480559817e+01 0.0 
2.419480559817e+01 -1.209683284821e+02 0.0 
0.0 0.0 -4.637451891407e+01 
-1.158807533455e+02 7.437277426911e+00 0.0 
7.437277426911e+00 -3.106743109266e+02 0.0 
0.0 0.0 -1.275665192816e+02 
-5.592365843808e+01 1.235706041655e+00 0.0 
1.235706041655e+00 -1.015208370424e+02 0.0 
0.0 0.0 -4.683334864415e+01 
-4.705593529608e+01 2.298137932063e+01 0.0 
2.298137932063e+01 -1.571974439201e+02 0.0 
0.0 0.0 -6.087601376484e+01 
-1.117621753518e+02 5.244329329809e+00 0.0 
5.244329329809e+00 -3.014272179150e+02 0.0 
0.0 0.0 -1.235568179800e+02 
-9.475006486336e+00 -9.981821554863e-02 0.0 
-9.981821554863e-02 -2.840767344803e+01 0.0 
0.0 0.0 -1.096480398031e+01 
-9.737987052463e+01 1.124335049336e+01 0.0 
1.124335049336e+01 -1.916159713646e+02 0.0 
0.0 0.0 -8.629875256676e+01 
-7.472156742195e+00 -1.252082953087e+00 0.0 
-1.252082953087e+00 -2.395121154482e+01 0.0 
0.0 0.0 -8.788251938150e+00 
-1.576362243765e+01 -1.230002168441e+00 0.0 
-1.230002168441e+00 -4.307285720156e+01 0.0 
0.0 0.0 -1.725094389176e+01 
-3.556075148262e+01 2.636116742711e+01 0.0 
2.636116742711e+01 -4.625783164515e+01 0.0 
0.0 0.0 -2.358565319899e+01 
-4.664962093178e+01 -1.010523989410e+01 0.0 
-1.010523989410e+01 -1.130862824572e+02 0.0 
0.0 0.0 -4.752077101669e+01 
-1.029667123815e+02 1.335017692567e+01 0.0 
1.335017692567e+01 -2.026759886394e+02 0.0 
0.0 0.0 -9.129281030625e+01 
-4.548872425033e+01 -9.348634063578e+00 0.0 
-9.348634063578e+00 -1.079896860206e+02 0.0 
0.0 0.0 -4.564352308129e+01 
-3.729957549063e+01 2.885812144710e+01 0.0 
2.885812144710e+01 -8.774609759077e+01 0.0 
0.0 0.0 -3.642687273213e+01 
-4.377415581720e+01 -2.201798195635e+01 0.0 
-2.201798195635e+01 -1.107473175105e+02 0.0 
0.0 0.0 -4.462947559756e+01 
-3.492335389915e+01 -8.223664045021e+00 0.0 
-8.223664045021e+00 -7.168097508492e+01 0.0 
0.0 0.0 -3.149771244404e+01 
-1.226003974158e+02 1.096570872906e+01 0.0 
1.096570872906e+01 -3.261024356822e+02 0.0 
0.0 0.0 -1.342108499294e+02 
-7.236142502196e+01 1.574080442809e+01 0.0 
1.574080442809e+01 -1.169418263645e+02 0.0 
0.0 0.0 -5.639097541595e+01 
-1.558275759786e+02 7.764662288841e-02 0.0 
7.764662288841e-02 -3.697465662803e+02 0.0 
0.0 0.0 -1.572722426776e+02 
-6.145674719641e+01 1.083405128059e+01 0.0 
1.083405128059e+01 -1.096684968789e+02 0.0 
0.0 0.0 -5.187927274744e+01 
-3.791974567888e+01 2.761739875371e+01 0.0 
2.761739875371e+01 -1.060420516117e+02 0.0 
0.0 0.0 -4.278853918717e+01 
-5.314312973626e+01 2.184948263756e+01 0.0 
2.184948263756e+01 -1.737917845555e+02 0.0 
0.0 0.0 -6.768047428754e+01 
-4.735348631307e+01 1.890378916329e+01 0.0 
1.890378916329e+01 -6.961835912964e+01 0.0 
0.0 0.0 -3.469155363281e+01 
-1.131988193153e+02 6.557316123391e+00 0.0 
6.557316123391e+00 -3.094412054332e+02 0.0 
0.0 0.0 -1.263920074246e+02 
-1.582828610027e+02 1.119269727421e+00 0.0 
1.119269727421e+00 -3.765982621800e+02 0.0 
0.0 0.0 -1.600643369548e+02 
-1.017239238886e+02 1.689004884124e+01 0.0 
1.689004884124e+01 -1.970616997866e+02 0.0 
0.0 0.0 -8.923568710256e+01 
-3.563932227701e+01 2.024426702692e+01 0.0 
2.024426702692e+01 -1.393294306114e+02 0.0 
0.0 0.0 -5.209062586652e+01 
-1.246777926334e+02 1.177336195664e+01 0.0 
1.177336195664e+01 -3.270006663235e+02 0.0 
0.0 0.0 -1.351035376871e+02 
-1.148703826185e+02 -1.396933548034e+00 0.0 
-1.396933548034e+00 -2.791071572434e+02 0.0 
0.0 0.0 -1.177932619586e+02 
-7.111248785173e+01 2.493458562987e+01 0.0 
2.493458562987e+01 -1.356813830864e+02 0.0 
0.0 0.0 -6.163816128143e+01 
-9.452936585646e+01 1.167827525794e+01 0.0 
1.167827525794e+01 -1.822437293473e+02 0.0 
0.0 0.0 -8.263192856112e+01 
-1.355475347389e+02 2.559855482114e+01 0.0 
2.559855482114e+01 -3.251227373368e+02 0.0 
0.0 0.0 -1.378010816227e+02 
-5.137118524981e+01 2.116865015142e+01 0.0 
2.116865015142e+01 -1.728969325460e+02 0.0 
0.0 0.0 -6.688043533874e+01 
-3.597927870746e+01 2.876797457696e+01 0.0 
2.876797457696e+01 -8.593080346830e+01 0.0 
0.0 0.0 -3.617302465273e+01 
-8.370655931607e+01 1.543039728978e+01 0.0 
1.543039728978e+01 -1.464053998177e+02 0.0 
0.0 0.0 -6.863358774012e+01 
-1.202617252773e+02 9.972361292517e+00 0.0 
9.972361292517e+00 -2.754776376641e+02 0.0 
0.0 0.0 -1.183218088824e+02 
-6.909395929165e+01 2.723146856644e+01 0.0 
2.723146856644e+01 -1.492979865675e+02 0.0 
0.0 0.0 -6.511758375776e+01 
-6.993906381567e+01 1.760549452100e+01 0.0 
1.760549452100e+01 -2.197778606626e+02 0.0 
0.0 0.0 -8.651507734348e+01 
-6.358581244252e+01 7.104756054917e-01 0.0 
7.104756054917e-01 -1.213137985261e+02 0.0 
0.0 0.0 -5.506988329058e+01 
-3.851820227237e+01 -1.491298105807e+01 0.0 
-1.491298105807e+01 -6.887883968918e+01 0.0 
0.0 0.0 -2.969115121463e+01 
-7.302111105536e+01 1.024970190114e+01 0.0 
1.024970190114e+01 -1.233512367232e+02 0.0 
0.0 0.0 -5.851170433356e+01 
-3.887530507131e+01 2.245864282897e+01 0.0 
2.245864282897e+01 -1.411795566654e+02 0.0 
0.0 0.0 -5.361645852101e+01 
-3.143694317538e+01 2.019637726758e+01 0.0 
2.019637726758e+01 -1.312407408293e+02 0.0 
0.0 0.0 -4.962145599120e+01 
-3.525866153618e+01 -2.327515965850e+01 0.0 
-2.327515965850e+01 -1.226033632620e+02 0.0 
0.0 0.0 -4.800070267349e+01 
-9.995385638936e+01 1.085619278216e+01 0.0 
1.085619278216e+01 -2.009352982334e+02 0.0 
0.0 0.0 -8.986674638683e+01 
-8.024111350055e+01 1.687776000062e+01 0.0 
1.687776000062e+01 -1.386393729917e+02 0.0 
0.0 0.0 -6.526414594768e+01 
-4.710763546561e+01 2.707591265477e+01 0.0 
2.707591265477e+01 -1.244015047615e+02 0.0 
0.0 0.0 -5.105274206813e+01 
-1.053649001051e+02 1.283872965414e+01 0.0 
1.283872965414e+01 -2.120495353891e+02 0.0 
0.0 0.0 -9.482433064826e+01 
-1.056056937975e+02 1.894874604168e+01 0.0 
1.894874604168e+01 -2.100217444531e+02 0.0 
0.0 0.0 -9.428823147519e+01 
-7.568399036923e+01 2.309810245252e+01 0.0 
2.309810245252e+01 -1.404541128648e+02 0.0 
0.0 0.0 -6.444143097022e+01 
-1.595663460396e+02 2.762270186450e+00 0.0 
2.762270186450e+00 -3.773933441512e+02 0.0 
0.0 0.0 -1.606879070573e+02 
-7.435574073940e+01 1.562143642526e+01 0.0 
1.562143642526e+01 -2.326252685068e+02 0.0 
0.0 0.0 -9.169430277385e+01 
-7.999649113302e+01 2.122562548019e+01 0.0 
2.122562548019e+01 -1.460523898052e+02 0.0 
0.0 0.0 -6.741466428147e+01 
-5.762526723307e+01 2.670854547254e+01 0.0 
2.670854547254e+01 -1.605262378192e+02 0.0 
0.0 0.0 -6.504545151568e+01 
-7.853179024849e+01 1.771528241606e+01 0.0 
1.771528241606e+01 -2.365757036845e+02 0.0 
0.0 0.0 -9.413224817991e+01 
-3.231350256075e+01 1.632457778783e+01 0.0 
1.632457778783e+01 -1.415006849385e+02 0.0 
0.0 0.0 -5.174425624979e+01 
-6.429050700890e+01 3.548734827219e+00 0.0 
3.548734827219e+00 -1.065288361993e+02 0.0 
0.0 0.0 -5.084580296245e+01 
-5.424901130019e+01 1.792933675921e+01 0.0 
1.792933675921e+01 -1.870429390920e+02 0.0 
0.0 0.0 -7.198758511767e+01 
-4.171768090341e+01 -4.864961613787e+00 0.0 
-4.864961613787e+00 -1.653460822743e+02 0.0 
0.0 0.0 -6.171912895332e+01 
-9.882879306375e+01 1.389096600361e+01 0.0 
1.389096600361e+01 -1.950273491025e+02 0.0 
0.0 0.0 -8.775684264987e+01 
-1.105987927773e+02 4.323920491178e+00 0.0 
4.323920491178e+00 -1.014504386017e+02 0.0 
0.0 0.0 -6.388851058604e+01 
-7.931150756821e+01 1.286030737189e+01 0.0 
1.286030737189e+01 -1.338975409305e+02 0.0 
0.0 0.0 -6.356271454962e+01 
-3.976009185102e+01 1.827886476476e+01 0.0 
1.827886476476e+01 -1.556198479552e+02 0.0 
0.0 0.0 -5.821398194187e+01 
-3.522362053919e+01 2.727958998221e+01 0.0 
2.727958998221e+01 -1.048300237285e+02 0.0 
0.0 0.0 -4.161609328032e+01 
-3.003258902455e+01 1.166660483242e+01 0.0 
1.166660483242e+01 -1.389728515307e+02 0.0 
0.0 0.0 -4.997189010738e+01 
-8.582125041640e+01 1.443182531385e+01 0.0 
1.443182531385e+01 -1.582065120750e+02 0.0 
0.0 0.0 -7.280832874741e+01 
-1.989808798266e+01 -3.748423729248e+00 0.0 
-3.748423729248e+00 -4.258888504785e+01 0.0 
0.0 0.0 -1.834609190915e+01 
-4.810801205311e+01 2.446596072120e+01 0.0 
2.446596072120e+01 -8.797166850441e+01 0.0 
0.0 0.0 -4.042390416726e+01 
-8.300877668840e+01 1.572640700664e+01 0.0 
1.572640700664e+01 -2.492676033312e+02 0.0 
0.0 0.0 -9.928291400588e+01 
-7.800644215424e+01 1.307957760205e+01 0.0 
1.307957760205e+01 -1.367528158784e+02 0.0 
0.0 0.0 -6.402777740978e+01 
-7.242133635398e+01 5.487663604497e+00 0.0 
5.487663604497e+00 -1.252362328430e+02 0.0 
0.0 0.0 -5.889727075908e+01 
-3.093744879487e+01 2.058728438711e+01 0.0 
2.058728438711e+01 -1.246646570722e+02 0.0 
0.0 0.0 -4.802826731137e+01 
-3.756871883502e+01 -1.333907091138e+00 0.0 
-1.333907091138e+00 -1.643673703338e+02 0.0 
0.0 0.0 -6.018082675066e+01 
-4.181246466214e+01 -1.036787229921e+01 0.0 
-1.036787229921e+01 -1.559600068601e+02 0.0 
0.0 0.0 -5.893174145667e+01 
-4.242912710019e+01 2.739587370111e+01 0.0 
2.739587370111e+01 -6.788739560959e+01 0.0 
0.0 0.0 -3.269495681293e+01 
-9.756757533273e+01 1.474775531538e+01 0.0 
1.474775531538e+01 -1.843488168823e+02 0.0 
0.0 0.0 -8.417491766450e+01 
-4.826758576703e+01 2.795499187379e+01 0.0 
2.795499187379e+01 -8.878710445232e+01 0.0 
0.0 0.0 -4.071640706581e+01 
-5.143165951129e+01 1.636659770074e+01 0.0 
1.636659770074e+01 -1.851120549658e+02 0.0 
0.0 0.0 -7.056311434313e+01 
-4.904487555654e+01 1.983905419625e+01 0.0 
1.983905419625e+01 -1.720079100511e+02 0.0 
0.0 0.0 -6.591583568229e+01 
-2.633955124400e+01 1.491890120099e+01 0.0 
1.491890120099e+01 -1.121713492779e+02 0.0 
0.0 0.0 -4.263232202609e+01 
-6.211306153843e+01 2.438764101616e+01 0.0 
2.438764101616e+01 -1.774033701755e+02 0.0 
0.0 0.0 -7.145492951419e+01 
-3.709581018457e+01 2.895917842897e+01 0.0 
2.895917842897e+01 -6.866573089384e+01 0.0 
0.0 0.0 -3.005787692367e+01 
-1.265627057870e+02 1.867114448881e+01 0.0 
1.867114448881e+01 -2.861383582963e+02 0.0 
0.0 0.0 -1.234103192250e+02 
-1.285835841997e+02 2.219976414702e+01 0.0 
2.219976414702e+01 -2.918999820358e+02 0.0 
0.0 0.0 -1.257450698707e+02 
-7.361272359763e+01 2.509572141516e+01 0.0 
2.509572141516e+01 -1.668557331399e+02 0.0 
0.0 0.0 -7.174053702127e+01 
-3.563473852860e+01 1.993183729804e+01 0.0 
1.993183729804e+01 -1.415171215087e+02 0.0 
0.0 0.0 -5.274555801120e+01 
-3.267559959025e+01 2.600034893790e+01 0.0 
2.600034893790e+01 -1.060726904621e+02 0.0 
0.0 0.0 -4.122448701572e+01 
-8.311105947434e+01 1.975153751531e+01 0.0 
1.975153751531e+01 -1.607876878289e+02 0.0 
0.0 0.0 -7.276962419098e+01 
-3.183355099197e+01 2.193725728037e+01 0.0 
2.193725728037e+01 -1.236981051163e+02 0.0 
0.0 0.0 -4.625949683248e+01 
-3.578668956867e+01 -7.145278435117e+00 0.0 
-7.145278435117e+00 -1.541237447873e+02 0.0 
0.0 0.0 -5.657313030679e+01 
-7.168561086364e+01 2.124377342256e+01 0.0 
2.124377342256e+01 -1.349825694179e+02 0.0 
0.0 0.0 -6.160045408446e+01 
-1.138743030899e+02 6.655506324883e+00 0.0 
6.655506324883e+00 -2.556635969915e+02 0.0 
0.0 0.0 -1.104613700244e+02 
-4.335238548090e+01 2.096423085189e+01 0.0 
2.096423085189e+01 -1.564504910326e+02 0.0 
0.0 0.0 -5.954086295406e+01 
-9.244993415723e+01 1.948305738901e+01 0.0 
1.948305738901e+01 -2.578955660085e+02 0.0 
0.0 0.0 -1.047036500497e+02 
-3.788521355144e+01 2.959538093375e+01 0.0 
2.959538093375e+01 -8.999689424005e+01 0.0 
0.0 0.0 -3.652768180643e+01 
-1.596414958960e+02 1.466176712448e+01 0.0 
1.466176712448e+01 -3.842280295746e+02 0.0 
0.0 0.0 -1.627608576412e+02 
-3.574031462106e+01 2.432142285243e+01 0.0 
2.432142285243e+01 -1.259032033861e+02 0.0 
0.0 0.0 -4.809305540215e+01 
-7.507109938527e+01 2.305394963902e+01 0.0 
2.305394963902e+01 -1.524148019347e+02 0.0 
0.0 0.0 -6.784577039599e+01 
-2.940882392830e+01 1.554702736519e+01 0.0 
1.554702736519e+01 -1.339176141446e+02 0.0 
0.0 0.0 -5.008310743299e+01 
-9.240661883923e+01 7.554162527057e+00 0.0 
7.554162527057e+00 -2.737051213052e+02 0.0 
0.0 0.0 -1.094335220433e+02 
-5.568164973932e+01 1.894269448034e+01 0.0 
1.894269448034e+01 -1.878807910536e+02 0.0 
0.0 0.0 -7.266873223787e+01 
-4.039574794688e+01 -9.806539662499e+00 0.0 
-9.806539662499e+00 -1.570928212801e+02 0.0 
0.0 0.0 -5.884657076811e+01 
-7.647576037151e+01 1.871478931472e+01 0.0 
1.871478931472e+01 -1.311989633025e+02 0.0 
0.0 0.0 -6.190241710220e+01 
-1.341815739520e+02 2.698183292739e+01 0.0 
2.698183292739e+01 -3.077622833676e+02 0.0 
0.0 0.0 -1.321831571959e+02 
-4.511292630142e+01 1.713060569840e+01 0.0 
1.713060569840e+01 -1.701231955706e+02 0.0 
0.0 0.0 -6.417083656162e+01 
-8.309389371864e+01 1.560620435091e+01 0.0 
1.560620435091e+01 -2.492795134308e+02 0.0 
0.0 0.0 -9.931202214483e+01 
-3.378105242738e+01 2.714070623298e+01 0.0 
2.714070623298e+01 -8.844281396719e+01 0.0 
0.0 0.0 -3.564934737573e+01 
-8.226476965345e+01 4.076152006508e+00 0.0 
4.076152006508e+00 -1.580279359700e+02 0.0 
0.0 0.0 -7.168781168703e+01 
-1.088869105780e+02 4.412694647456e+00 0.0 
4.412694647456e+00 -3.000540296479e+02 0.0 
0.0 0.0 -1.222822820678e+02 
-3.806047223432e+01 2.874931903031e+01 0.0 
2.874931903031e+01 -8.584207983856e+01 0.0 
0.0 0.0 -3.677076562186e+01 
-8.017116745949e+01 4.987844031443e+00 0.0 
4.987844031443e+00 -1.497727958438e+02 0.0 
0.0 0.0 -6.858318899100e+01 
-1.396566453078e+02 2.963747790612e+01 0.0 
2.963747790612e+01 -3.251350931198e+02 0.0 
0.0 0.0 -1.390375215283e+02 
-1.193421368482e+02 5.875804020266e+00 0.0 
5.875804020266e+00 -3.184259814111e+02 0.0 
0.0 0.0 -1.309304354778e+02 
-1.326411833066e+02 2.553118130787e+01 0.0 
2.553118130787e+01 -3.023145087578e+02 0.0 
0.0 0.0 -1.300867076193e+02 
-8.185459418504e+01 6.530361114627e+00 0.0 
6.530361114627e+00 -1.491890767075e+02 0.0 
0.0 0.0 -6.891310126777e+01 
-1.056219600734e+02 2.157820555356e+01 0.0 
2.157820555356e+01 -2.157528617015e+02 0.0 
0.0 0.0 -9.601244653247e+01 
-3.676630285064e+01 2.869519754264e+01 0.0 
2.869519754264e+01 -6.656431575588e+01 0.0 
0.0 0.0 -3.059918558196e+01 
-6.880412668793e+01 1.771262437365e+01 0.0 
1.771262437365e+01 -1.097984885673e+02 0.0 
0.0 0.0 -5.318078457656e+01 
-7.924229024411e+01 1.742324392275e+01 0.0 
1.742324392275e+01 -1.449557821533e+02 0.0 
0.0 0.0 -6.685942171923e+01 
-8.400600072981e+01 1.945243940956e+01 0.0 
1.945243940956e+01 -1.525639120577e+02 0.0 
0.0 0.0 -7.057097383626e+01 
-6.438514077158e+01 2.794832381031e+01 0.0 
2.794832381031e+01 -1.469427986209e+02 0.0 
0.0 0.0 -6.299838181773e+01 
-1.436247224832e+02 2.988491156055e+01 0.0 
2.988491156055e+01 -3.377824274798e+02 0.0 
0.0 0.0 -1.440221449889e+02 
-7.885052199087e+01 6.584870208932e+00 0.0 
6.584870208932e+00 -1.403115810962e+02 0.0 
0.0 0.0 -6.534863092611e+01 
-7.122702650989e+01 1.117696306043e+01 0.0 
1.117696306043e+01 -1.134087354593e+02 0.0 
0.0 0.0 -5.499072859077e+01 
-4.720942822264e+01 1.837404047989e+01 0.0 
1.837404047989e+01 -1.709120835291e+02 0.0 
0.0 0.0 -6.503645352553e+01 
-4.106072890025e+01 -9.614665317608e+00 0.0 
-9.614665317608e+00 -9.258860682025e+01 0.0 
0.0 0.0 -3.969480071615e+01 
-6.439792429860e+01 1.428583864136e+01 0.0 
1.428583864136e+01 -9.600929015973e+01 0.0 
0.0 0.0 -4.772216433750e+01 
-3.960396140470e+01 2.752068173847e+01 0.0 
2.752068173847e+01 -1.050641237720e+02 0.0 
0.0 0.0 -4.300042555300e+01 
-5.620612622974e+01 3.588728065028e-01 0.0 
3.588728065028e-01 -1.036860514743e+02 0.0 
0.0 0.0 -4.756765331123e+01 
-4.690972310404e+01 -1.168718523268e+01 0.0 
-1.168718523268e+01 -1.594554391363e+02 0.0 
0.0 0.0 -6.150954867211e+01 
-4.093461592988e+01 1.909963533866e+01 0.0 
1.909963533866e+01 -1.550434520334e+02 0.0 
0.0 0.0 -5.839342038898e+01 
-1.015578331231e+02 1.325964433856e+01 0.0 
1.325964433856e+01 -2.038075558558e+02 0.0 
0.0 0.0 -9.120961669366e+01 
-3.820572479703e+01 2.802888194439e+01 0.0 
2.802888194439e+01 -1.045644393604e+02 0.0 
0.0 0.0 -4.243104924723e+01 
-7.136980023253e+01 1.650455358705e+01 0.0 
1.650455358705e+01 -1.232998388051e+02 0.0 
0.0 0.0 -5.800089171128e+01 
-8.730679892662e+01 1.367247853224e+01 0.0 
1.367247853224e+01 -2.607184892503e+02 0.0 
0.0 0.0 -1.040075864531e+02 
-8.362652844258e+01 -3.053277359443e+00 0.0 
-3.053277359443e+00 -2.429683419311e+02 0.0 
0.0 0.0 -9.757846111210e+01 
-1.496083221309e+02 2.749341964852e+01 0.0 
2.749341964852e+01 -3.564646854961e+02 0.0 
0.0 0.0 -1.514219022881e+02 
-5.691821068057e+01 1.897374217685e+01 0.0 
1.897374217685e+01 -8.155461904815e+01 0.0 
0.0 0.0 -4.114184891862e+01 
-3.434648704066e+01 3.702846958566e+00 0.0 
3.702846958566e+00 -1.590188060370e+02 0.0 
0.0 0.0 -5.760958792330e+01 
-6.388053713401e+01 -9.340890508980e+00 0.0 
-9.340890508980e+00 -1.771188766703e+02 0.0 
0.0 0.0 -7.189982414129e+01 
-3.820448170805e+01 2.784493797641e+01 0.0 
2.784493797641e+01 -6.573041145668e+01 0.0 
0.0 0.0 -3.078046794942e+01 
-3.812686511921e+01 2.756751201716e+01 0.0 
2.756751201716e+01 -8.568437450900e+01 0.0 
0.0 0.0 -3.674337188846e+01 
-1.121972071374e+02 2.008912950955e+01 0.0 
2.008912950955e+01 -2.315959852520e+02 0.0 
0.0 0.0 -1.027379577168e+02 
-7.859916890720e+01 2.476017948947e+01 0.0 
2.476017948947e+01 -1.565743082176e+02 0.0 
0.0 0.0 -7.015204313745e+01 
-4.862495104314e+01 2.445374835178e+01 0.0 
2.445374835178e+01 -7.082046535225e+01 0.0 
0.0 0.0 -3.543362491862e+01 
-6.320060304924e+01 1.524886896570e+01 0.0 
1.524886896570e+01 -1.014207524256e+02 0.0 
0.0 0.0 -4.898640664246e+01 
-1.553220589603e+02 2.073643955938e+01 0.0 
2.073643955938e+01 -3.747087459451e+02 0.0 
0.0 0.0 -1.586092414716e+02 
-1.438355911815e+02 2.064852159957e+01 0.0 
2.064852159957e+01 -3.551378394691e+02 0.0 
0.0 0.0 -1.492920291952e+02 
-1.095727233255e+02 1.728079076590e+01 0.0 
1.728079076590e+01 -2.296192858716e+02 0.0 
0.0 0.0 -1.013576027591e+02 
-1.005301120101e+02 1.399964488867e+01 0.0 
1.399964488867e+01 -1.936339308222e+02 0.0 
0.0 0.0 -8.784921284971e+01 
-8.230459087677e+01 -2.428775619102e+00 0.0 
-2.428775619102e+00 -2.376526436560e+02 0.0 
0.0 0.0 -9.558717035984e+01 
-5.094823836841e+01 2.868368234933e+01 0.0 
2.868368234933e+01 -1.075652359888e+02 0.0 
0.0 0.0 -4.715404230718e+01 
-3.228173017307e+01 1.662948839030e+01 0.0 
1.662948839030e+01 -1.393484369300e+02 0.0 
0.0 0.0 -5.108905013093e+01 
-3.739071268662e+01 1.550161353465e+01 0.0 
1.550161353465e+01 -1.540071446505e+02 0.0 
0.0 0.0 -5.701935720115e+01 
-7.387210462295e+01 2.615897053581e+01 0.0 
2.615897053581e+01 -1.525618766112e+02 0.0 
0.0 0.0 -6.753019437023e+01 
-8.912000608009e+01 9.073607715725e+00 0.0 
9.073607715725e+00 -2.651354654229e+02 0.0 
0.0 0.0 -1.058766414509e+02 
-7.938682472197e+01 -4.607259992390e+00 0.0 
-4.607259992390e+00 -2.034346101871e+02 0.0 
0.0 0.0 -8.444643047273e+01 
-1.080573861905e+02 1.480841613258e+01 0.0 
1.480841613258e+01 -2.251669464843e+02 0.0 
0.0 0.0 -9.956729980245e+01 
-3.644875892950e+01 -7.909675385132e-01 0.0 
-7.909675385132e-01 -1.589083580312e+02 0.0 
0.0 0.0 -5.820713508822e+01 
-5.982679826896e+01 2.814284038530e+01 0.0 
2.814284038530e+01 -1.451772116849e+02 0.0 
0.0 0.0 -6.110120298617e+01 
-7.550678510036e+01 1.924535215492e+01 0.0 
1.924535215492e+01 -1.393174502079e+02 0.0 
0.0 0.0 -6.404727059249e+01 
-5.328738798704e+01 2.862927240556e+01 0.0 
2.862927240556e+01 -1.259915883716e+02 0.0 
0.0 0.0 -5.338369290758e+01 
-1.314098872542e+02 2.402421304646e+01 0.0 
2.402421304646e+01 -2.973758057052e+02 0.0 
0.0 0.0 -1.282357078878e+02 
-1.268187663797e+02 2.013130108610e+01 0.0 
2.013130108610e+01 -2.883710029220e+02 0.0 
0.0 0.0 -1.241569307905e+02 
-1.227833992577e+02 2.044650919820e+01 0.0 
2.044650919820e+01 -2.679280645389e+02 0.0 
0.0 0.0 -1.168134391390e+02 
-9.033494900088e+01 -4.341269313259e-01 0.0 
-4.341269313259e-01 -2.554914632722e+02 0.0 
0.0 0.0 -1.033479236819e+02 
-1.023752295020e+02 1.048926644855e+01 0.0 
1.048926644855e+01 -2.103483689840e+02 0.0 
0.0 0.0 -9.341707954579e+01 
-3.725352377293e+01 2.810383831153e+01 0.0 
2.810383831153e+01 -8.636310213578e+01 0.0 
0.0 0.0 -3.668498777261e+01 
-4.351078292635e+01 1.489655149123e+01 0.0 
1.489655149123e+01 -1.689531123732e+02 0.0 
0.0 0.0 -6.333916858987e+01 
-2.750320329111e+01 1.232398889703e+01 0.0 
1.232398889703e+01 -1.257526433976e+02 0.0 
0.0 0.0 -4.591422180703e+01 
-5.193955603707e+01 2.669639677447e+01 0.0 
2.669639677447e+01 -9.028232846746e+01 0.0 
0.0 0.0 -4.226656535136e+01 
-6.370047493350e+01 2.962779262350e+00 0.0 
2.962779262350e+00 -1.060275932977e+02 0.0 
0.0 0.0 -5.051842046936e+01 
-7.899775842363e+01 4.037429009185e+00 0.0 
4.037429009185e+00 -1.476334406808e+02 0.0 
0.0 0.0 -6.758935973133e+01 
-1.486653484749e+02 1.454093935355e+01 0.0 
1.454093935355e+01 -3.679494708924e+02 0.0 
0.0 0.0 -1.545844458102e+02 
-1.102373333551e+02 1.962473400814e+01 0.0 
1.962473400814e+01 -2.352466983078e+02 0.0 
0.0 0.0 -1.032452094989e+02 
-8.131281844372e+01 1.188531457474e+01 0.0 
1.188531457474e+01 -1.446161809906e+02 0.0 
0.0 0.0 -6.737869983029e+01 
-8.667623129464e+01 1.818024065806e+01 0.0 
1.818024065806e+01 -1.662479046589e+02 0.0 
0.0 0.0 -7.547724078607e+01 
-2.982694742735e+01 1.122302414952e+01 0.0 
1.122302414952e+01 -1.408979277005e+02 0.0 
0.0 0.0 -5.234617565537e+01 
-2.958025080345e+01 -9.727237207658e+00 0.0 
-9.727237207658e+00 -4.722530411268e+01 0.0 
0.0 0.0 -2.135598754708e+01 
-5.750285937530e+01 2.333266043513e+01 0.0 
2.333266043513e+01 -1.755302207829e+02 0.0 
0.0 0.0 -6.950992404746e+01 
-6.693099228020e+01 2.752052627533e+01 0.0 
2.752052627533e+01 -1.641791188502e+02 0.0 
0.0 0.0 -6.893303333911e+01 
-6.013027851418e+01 2.482584120548e+01 0.0 
2.482584120548e+01 -1.766514785186e+02 0.0 
0.0 0.0 -7.063452710985e+01 
-4.011683792869e+01 3.132452090883e+01 0.0 
3.132452090883e+01 -5.158130851645e+01 0.0 
0.0 0.0 -2.661723030221e+01 
-6.254689764639e+01 1.011224122872e-01 0.0 
1.011224122872e-01 -1.202475351239e+02 0.0 
0.0 0.0 -5.443832983110e+01 
-3.818818604353e+01 -8.175808386689e+00 0.0 
-8.175808386689e+00 -8.575380299034e+01 0.0 
0.0 0.0 -3.678259671016e+01 
-3.830460004436e+01 2.560680320105e+01 0.0 
2.560680320105e+01 -1.244422852381e+02 0.0 
0.0 0.0 -4.842406558472e+01 
-1.646329475008e+02 1.505239502820e+01 0.0 
1.505239502820e+01 -3.854768775019e+02 0.0 
0.0 0.0 -1.646329475008e+02 
-9.701245168747e+01 1.839251614989e+01 0.0 
1.839251614989e+01 -2.714199726285e+02 0.0 
0.0 0.0 -1.101297272948e+02 
-6.780377363691e+01 7.554274619742e+00 0.0 
7.554274619742e+00 -1.113184984515e+02 0.0 
0.0 0.0 -5.333668162654e+01 
-2.061430426465e+01 -1.014788606996e+00 0.0 
-1.014788606996e+00 -5.921955435294e+01 0.0 
0.0 0.0 -2.355015758528e+01 
-6.617758751862e+01 2.564803321148e+01 0.0 
2.564803321148e+01 -1.472522851025e+02 0.0 
0.0 0.0 -6.362896178635e+01 
-5.565961105620e+01 2.324184052230e+01 0.0 
2.324184052230e+01 -1.747294258374e+02 0.0 
0.0 0.0 -6.871671106808e+01 
-8.766431579359e+01 1.792192990444e+01 0.0 
1.792192990444e+01 -1.596245758978e+02 0.0 
0.0 0.0 -7.378666750742e+01 
-1.356692540808e+02 2.794130115104e+01 0.0 
2.794130115104e+01 -3.132645808791e+02 0.0 
0.0 0.0 -1.342801504880e+02 
-6.666068480596e+01 1.327683619845e+01 0.0 
1.327683619845e+01 -1.081695258375e+02 0.0 
0.0 0.0 -5.204906319303e+01 
-8.309898082435e+01 2.321640570314e+01 0.0 
2.321640570314e+01 -1.614196955855e+02 0.0 
0.0 0.0 -7.295560292295e+01 
-7.694799236534e+01 -6.456237765844e+00 0.0 
-6.456237765844e+00 -2.020043281518e+02 0.0 
0.0 0.0 -8.328569615514e+01 
-1.041138941417e+02 1.284988522333e+01 0.0 
1.284988522333e+01 -2.128040010869e+02 0.0 
0.0 0.0 -9.467536856859e+01 
-9.215382623366e+01 -1.253372571484e+00 0.0 
-1.253372571484e+00 -2.614035892787e+02 0.0 
0.0 0.0 -1.056672246537e+02 
-1.382121278567e+02 2.915595536783e+01 0.0 
2.915595536783e+01 -3.191579051286e+02 0.0 
0.0 0.0 -1.368110098956e+02 
-1.270653180519e+02 2.349129593978e+01 0.0 
2.349129593978e+01 -2.978190754544e+02 0.0 
0.0 0.0 -1.270653180519e+02 
-1.203473595877e+02 1.694270459621e+01 0.0 
1.694270459621e+01 -2.821438390379e+02 0.0 
0.0 0.0 -1.203473595877e+02 
-1.225764100953e+02 2.015572971581e+01 0.0 
2.015572971581e+01 -2.873449568891e+02 0.0 
0.0 0.0 -1.225764100953e+02 
-9.004298839507e+01 1.679126736592e+01 0.0 
1.679126736592e+01 -1.724838014155e+02 0.0 
0.0 0.0 -7.835803694317e+01 
-1.070338897152e+02 1.534117557476e+01 0.0 
1.534117557476e+01 -2.145101836347e+02 0.0 
0.0 0.0 -9.606322200497e+01 
-1.133737315966e+02 1.929647178089e+01 0.0 
1.929647178089e+01 -2.436469083554e+02 0.0 
0.0 0.0 -1.067061919856e+02 
-5.446011404180e+01 2.674091311340e+01 0.0 
2.674091311340e+01 -1.261612616666e+02 0.0 
0.0 0.0 -5.378641271252e+01 
-5.136410112785e+01 2.605982764553e+01 0.0 
2.605982764553e+01 -1.072689502618e+02 0.0 
0.0 0.0 -4.718991541689e+01 
-7.562412871716e+01 -4.366510235664e+00 0.0 
-4.366510235664e+00 -1.909095904533e+02 0.0 
0.0 0.0 -7.956011575115e+01 
-1.110301520908e+02 1.748461126116e+01 0.0 
1.748461126116e+01 -2.269947476389e+02 0.0 
0.0 0.0 -1.010074699189e+02 
-1.415697701669e+02 2.996868951025e+01 0.0 
2.996868951025e+01 -3.313639412654e+02 0.0 
0.0 0.0 -1.414801134297e+02 
-1.063968088497e+02 1.234779725150e+01 0.0 
1.234779725150e+01 -2.217859792868e+02 0.0 
0.0 0.0 -9.805483644094e+01 
-8.757315623616e+01 1.798501495491e+01 0.0 
1.798501495491e+01 -2.538335030849e+02 0.0 
0.0 0.0 -1.020219977963e+02 
-1.092720938994e+02 1.473455167457e+01 0.0 
1.473455167457e+01 -2.234735611593e+02 0.0 
0.0 0.0 -9.942369651758e+01 
-9.868515061687e+01 2.543974287391e+01 0.0 
2.543974287391e+01 -2.403164136225e+02 0.0 
0.0 0.0 -1.013004692718e+02 
-6.431931060174e+01 2.599634576711e+01 0.0 
2.599634576711e+01 -1.628977981151e+02 0.0 
0.0 0.0 -6.776513261505e+01 
-5.211868368587e+01 2.278037625724e+01 0.0 
2.278037625724e+01 -8.977214790753e+01 0.0 
0.0 0.0 -4.216724947802e+01 
-3.634869833168e+01 2.795269623609e+01 0.0 
2.795269623609e+01 -1.110467645232e+02 0.0 
0.0 0.0 -4.307675215268e+01 
-1.133969911976e+02 1.052428898038e+01 0.0 
1.052428898038e+01 -2.579211960561e+02 0.0 
0.0 0.0 -1.109954561761e+02 
-5.063691596020e+01 2.711698370698e+01 0.0 
2.711698370698e+01 -1.253386245228e+02 0.0 
0.0 0.0 -5.239266214489e+01 
-1.292495635160e+02 2.558420471427e+01 0.0 
2.558420471427e+01 -3.029313504825e+02 0.0 
0.0 0.0 -1.292542741996e+02 
-7.370151636585e+01 -6.379055617469e+00 0.0 
-6.379055617469e+00 -1.896623758569e+02 0.0 
0.0 0.0 -7.860916766682e+01 
-4.701722754951e+01 -1.477638947451e+01 0.0 
-1.477638947451e+01 -1.459022402026e+02 0.0 
0.0 0.0 -5.747584032562e+01 
-1.541065397023e+02 1.293715659849e+01 0.0 
1.293715659849e+01 -3.715858044118e+02 0.0 
0.0 0.0 -1.573077032342e+02 
-4.087702333407e+01 2.639593990586e+01 0.0 
2.639593990586e+01 -1.235387298291e+02 0.0 
0.0 0.0 -4.892472594897e+01 
-1.293994206355e+02 2.498062228303e+01 0.0 
2.498062228303e+01 -3.032653148162e+02 0.0 
0.0 0.0 -1.293994206355e+02 
-1.190968420079e+02 1.771532722994e+01 0.0 
1.771532722994e+01 -2.683792906935e+02 0.0 
0.0 0.0 -1.158428398104e+02 
-8.250527802235e+01 2.290002945855e+01 0.0 
2.290002945855e+01 -1.728376019614e+02 0.0 
0.0 0.0 -7.620286399512e+01 
-2.164469051819e+01 -5.674334691950e+00 0.0 
-5.674334691950e+00 -2.507304201266e+01 0.0 
0.0 0.0 -1.395373736155e+01 
-1.343324837429e+02 2.710740200468e+01 0.0 
2.710740200468e+01 -3.147757954002e+02 0.0 
0.0 0.0 -1.343324837429e+02 
-1.517943824600e+02 1.678942115653e+01 0.0 
1.678942115653e+01 -3.661411291046e+02 0.0 
0.0 0.0 -1.549806534694e+02 
-4.002109273780e+01 -1.383119382086e+01 0.0 
-1.383119382086e+01 -1.431403657598e+02 0.0 
0.0 0.0 -5.454843754930e+01 
-9.234561512150e+01 1.614725456405e+01 0.0 
1.614725456405e+01 -2.664160618571e+02 0.0 
0.0 0.0 -1.072285030936e+02 
-1.510573350863e+02 2.603118151629e+01 0.0 
2.603118151629e+01 -3.616544176667e+02 0.0 
0.0 0.0 -1.534135258259e+02 
-8.793225470107e+00 -7.853968855202e-01 0.0 
-7.853968855202e-01 -9.488208231364e+00 0.0 
0.0 0.0 -6.054343253229e+00 
-5.732893674956e+01 2.664113137995e+01 0.0 
2.664113137995e+01 -1.443264670596e+02 0.0 
0.0 0.0 -6.009662114273e+01 
-8.663277934453e+01 2.152880608787e+01 0.0 
2.152880608787e+01 -1.769068141982e+02 0.0 
0.0 0.0 -7.866187806281e+01 
-7.814842312851e+01 2.412796418867e+01 0.0 
2.412796418867e+01 -1.695423413716e+02 0.0 
0.0 0.0 -7.390722935003e+01 
-7.918618959929e+01 2.141962441822e+01 0.0 
2.141962441822e+01 -1.561532814208e+02 0.0 
0.0 0.0 -7.020184130603e+01 
-3.677651987219e+01 2.768613196329e+01 0.0 
2.768613196329e+01 -1.078339278196e+02 0.0 
0.0 0.0 -4.257556360590e+01 
-1.399357362602e+02 2.829397884037e+01 0.0 
2.829397884037e+01 -3.278500512738e+02 0.0 
0.0 0.0 -1.399357362602e+02 
-5.037689303124e+01 1.465494142979e+01 0.0 
1.465494142979e+01 -1.842798312753e+02 0.0 
0.0 0.0 -6.999701729198e+01 
-2.612857979369e+01 4.481639250363e+00 0.0 
4.481639250363e+00 -1.184725827200e+02 0.0 
0.0 0.0 -4.545000371118e+01 
-1.570717121338e+02 3.077394257943e+00 0.0 
3.077394257943e+00 -3.765664416156e+02 0.0 
0.0 0.0 -1.596914461248e+02 
-1.402920905084e+01 -3.542732058356e+00 0.0 
-3.542732058356e+00 -2.646770116763e+01 0.0 
0.0 0.0 -1.174907306554e+01 
-5.960308707380e+01 1.760588189648e+01 0.0 
1.760588189648e+01 -9.592482583648e+01 0.0 
0.0 0.0 -4.625837387308e+01 
-3.467005156241e+01 -2.294785964170e+01 0.0 
-2.294785964170e+01 -9.828763108217e+01 0.0 
0.0 0.0 -4.066220866118e+01 
-6.130547512908e+01 9.740562458158e+00 0.0 
9.740562458158e+00 -9.387111997875e+01 0.0 
0.0 0.0 -4.615297853235e+01 
-1.569807773393e+02 1.864678982663e+01 0.0 
1.864678982663e+01 -3.783943975574e+02 0.0 
0.0 0.0 -1.602125524690e+02 
-1.459168722536e+02 2.810430216912e+01 0.0 
2.810430216912e+01 -3.418060352584e+02 0.0 
0.0 0.0 -1.459168722536e+02 
-8.256868996905e+01 1.578745238672e+01 0.0 
1.578745238672e+01 -1.512252021747e+02 0.0 
0.0 0.0 -6.973816764313e+01 
-3.391985710741e+01 -2.371091882454e+01 0.0 
-2.371091882454e+01 -6.696504508278e+01 0.0 
0.0 0.0 -3.036868266394e+01 
-2.963076997402e+01 9.632824234020e+00 0.0 
9.632824234020e+00 -1.240463942733e+02 0.0 
0.0 0.0 -4.844586524090e+01 
-4.385937986462e+01 -2.556463106142e+01 0.0 
-2.556463106142e+01 -8.777879393435e+01 0.0 
0.0 0.0 -3.787147451312e+01 
-1.335820143389e+02 3.898409067050e+00 0.0 
3.898409067050e+00 -3.337834452199e+02 0.0 
0.0 0.0 -1.398096378677e+02 
-6.382402213844e+01 3.348619372145e+00 0.0 
3.348619372145e+00 -1.068221633256e+02 0.0 
0.0 0.0 -5.079385563920e+01 
-7.432443577585e+01 1.031546584531e+01 0.0 
1.031546584531e+01 -1.218305798004e+02 0.0 
0.0 0.0 -5.844650467288e+01 
-1.514989629080e+02 2.671237610312e+01 0.0 
2.671237610312e+01 -3.548309134520e+02 0.0 
0.0 0.0 -1.514989629080e+02 
-6.229277775864e+01 2.837759724102e+00 0.0 
2.837759724102e+00 -1.061703395931e+02 0.0 
0.0 0.0 -5.013893520554e+01 
-1.244093896861e+02 1.668702170435e+01 0.0 
1.668702170435e+01 -2.831882172764e+02 0.0 
0.0 0.0 -1.218792820887e+02 
-1.031511121255e+02 2.329170928537e+01 0.0 
2.329170928537e+01 -2.554027375940e+02 0.0 
0.0 0.0 -1.071661549158e+02 
-7.416290412722e+01 2.762020674278e+00 0.0 
2.762020674278e+00 -1.376393774044e+02 0.0 
0.0 0.0 -6.314068445950e+01 
-3.960961331890e+01 2.739722625854e+01 0.0 
2.739722625854e+01 -8.535412687907e+01 0.0 
0.0 0.0 -3.708912205939e+01 
-9.206548746691e+01 1.594446048707e+01 0.0 
1.594446048707e+01 -2.662565921358e+02 0.0 
0.0 0.0 -1.070966238808e+02 
-2.799172574103e+01 1.941655194617e+01 0.0 
1.941655194617e+01 -1.095709611603e+02 0.0 
0.0 0.0 -4.098291155839e+01 
-1.562272525307e+02 2.414251713314e+01 0.0 
2.414251713314e+01 -3.658635892384e+02 0.0 
0.0 0.0 -1.562272525307e+02 
-1.247294120185e+02 2.176174960720e+01 0.0 
2.176174960720e+01 -2.923686280431e+02 0.0 
0.0 0.0 -1.247294120185e+02 
-1.215327719335e+02 1.860033494878e+01 0.0 
1.860033494878e+01 -2.849098011782e+02 0.0 
0.0 0.0 -1.215327719335e+02 
-9.568910263612e+01 -4.359959864273e-01 0.0 
-4.359959864273e-01 -2.630764285022e+02 0.0 
0.0 0.0 -1.072296593415e+02 
-7.157454807248e+01 -3.867991527349e+00 0.0 
-3.867991527349e+00 -1.783811544843e+02 0.0 
0.0 0.0 -7.458671076703e+01 
-6.222581978834e+01 2.731411216707e+01 0.0 
2.731411216707e+01 -1.622999090720e+02 0.0 
0.0 0.0 -6.695771865809e+01 
-9.759160264478e+01 -1.321503030566e+00 0.0 
-1.321503030566e+00 -2.688864182683e+02 0.0 
0.0 0.0 -1.095434062739e+02 
-1.600535759539e+02 2.089456282527e+01 0.0 
2.089456282527e+01 -3.747916772258e+02 0.0 
0.0 0.0 -1.600535759539e+02 
-3.508888721611e+01 2.433189563107e+01 0.0 
2.433189563107e+01 -1.228065633776e+02 0.0 
0.0 0.0 -4.696863517810e+01 
-4.175958162799e+01 -4.942523643253e+00 0.0 
-4.942523643253e+00 -1.689057348797e+02 0.0 
0.0 0.0 -6.279959495230e+01 
-4.646052228902e+01 -7.250670715283e+00 0.0 
-7.250670715283e+00 -1.732221598656e+02 0.0 
0.0 0.0 -6.550480464640e+01 
-7.781427162039e+01 2.940484090040e+00 0.0 
2.940484090040e+00 -1.484363173148e+02 0.0 
0.0 0.0 -6.747517668056e+01 
-1.609748948545e+02 1.272868971751e+01 0.0 
1.272868971751e+01 -3.864229267410e+02 0.0 
0.0 0.0 -1.638193464786e+02 
-4.558607653457e+01 -2.324743650496e+01 0.0 
-2.324743650496e+01 -6.213153104358e+01 0.0 
0.0 0.0 -3.084389966972e+01 
-1.633297397657e+02 1.691348836990e+01 0.0 
1.691348836990e+01 -3.824360594533e+02 0.0 
0.0 0.0 -1.633297397657e+02 
-4.531225365165e+01 -1.106484842736e+01 0.0 
-1.106484842736e+01 -1.605747858377e+02 0.0 
0.0 0.0 -6.136611184680e+01 
-1.320308467217e+02 2.624922530283e+01 0.0 
2.624922530283e+01 -3.094053090173e+02 0.0 
0.0 0.0 -1.320308467217e+02 
-1.160452138651e+02 2.196896163036e+01 0.0 
2.196896163036e+01 -2.454295156621e+02 0.0 
0.0 0.0 -1.080424188582e+02 
-7.403931183326e+00 -5.241659967881e-01 0.0 
-5.241659967881e-01 -7.110385994601e+00 0.0 
0.0 0.0 -1.693374596996e+00 
-5.970603032779e+01 2.577576574684e+01 0.0 
2.577576574684e+01 -1.612058756605e+02 0.0 
0.0 0.0 -6.587357179648e+01 
-1.077132861917e+02 1.239147184503e+01 0.0 
1.239147184503e+01 -2.217750550775e+02 0.0 
0.0 0.0 -9.844650238074e+01 
-1.372112283203e+02 2.792590027682e+01 0.0 
2.792590027682e+01 -3.214928660806e+02 0.0 
0.0 0.0 -1.372112283203e+02 
-9.129171294138e+01 2.014171245167e+01 0.0 
2.014171245167e+01 -1.736454640540e+02 0.0 
0.0 0.0 -7.908115309862e+01 
-1.068651788501e+02 2.267173679825e+01 0.0 
2.267173679825e+01 -2.699951098544e+02 0.0 
0.0 0.0 -1.126580866114e+02 
-3.762267496205e+01 3.053517197234e+01 0.0 
3.053517197234e+01 -9.420378214249e+01 0.0 
0.0 0.0 -3.893760399928e+01 
-1.421541909488e+02 1.475519726924e+01 0.0 
1.475519726924e+01 -3.530819762997e+02 0.0 
0.0 0.0 -1.481708501746e+02 
-5.023720996036e+01 -1.135148982328e+01 0.0 
-1.135148982328e+01 -1.648510438027e+02 0.0 
0.0 0.0 -6.412647612891e+01 
-5.207723146294e+01 -8.787061292703e+00 0.0 
-8.787061292703e+00 -1.753151763131e+02 0.0 
0.0 0.0 -6.781772233280e+01 
-4.909784643175e+01 -2.529041270534e+01 0.0 
-2.529041270534e+01 -4.870895362514e+01 0.0 
0.0 0.0 -2.844943965676e+01 
-1.428837031567e+02 2.834744112649e+01 0.0 
2.834744112649e+01 -3.347286406990e+02 0.0 
0.0 0.0 -1.428837031567e+02 
-2.976761899445e+01 1.804876406128e+01 0.0 
1.804876406128e+01 -1.251146941929e+02 0.0 
0.0 0.0 -4.590641045020e+01 
-1.261947736304e+02 8.865083931254e+00 0.0 
8.865083931254e+00 -3.289039728194e+02 0.0 
0.0 0.0 -1.361296239349e+02 
-7.141035597797e+01 3.941965575578e+00 0.0 
3.941965575578e+00 -1.282155105571e+02 0.0 
0.0 0.0 -5.948775996051e+01 
-5.247602040476e+01 -1.234837160857e+01 0.0 
-1.234837160857e+01 -1.383780295253e+02 0.0 
0.0 0.0 -5.685621497902e+01 
-4.696917052272e+01 -7.437131108771e+00 0.0 
-7.437131108771e+00 -1.706011142102e+02 0.0 
0.0 0.0 -6.487108541987e+01 
-8.736536747707e+01 2.161488624772e+01 0.0 
2.161488624772e+01 -1.672054873109e+02 0.0 
0.0 0.0 -7.597125643639e+01 
-1.539720894155e+02 2.560814541081e+01 0.0 
2.560814541081e+01 -3.606015419694e+02 0.0 
0.0 0.0 -1.539720894155e+02 
-7.398066718776e+01 -4.993742731908e+00 0.0 
-4.993742731908e+00 -1.855594000695e+02 0.0 
0.0 0.0 -7.746202017717e+01 
-1.079292477415e+02 3.188958315954e+00 0.0 
3.188958315954e+00 -2.916295122553e+02 0.0 
0.0 0.0 -1.194676279990e+02 
-7.641698372345e+01 2.507644879926e+01 0.0 
2.507644879926e+01 -1.836305250611e+02 0.0 
0.0 0.0 -7.761425263536e+01 
-9.095283795645e+01 4.911018017302e+00 0.0 
4.911018017302e+00 -2.663836389574e+02 0.0 
0.0 0.0 -1.068009430742e+02 
-4.760849074867e+01 -2.609468397904e+00 0.0 
-2.609468397904e+00 -1.793799530325e+02 0.0 
0.0 0.0 -6.769653313434e+01 
-9.887180887004e+01 1.436624730999e+00 0.0 
1.436624730999e+00 -2.734667181936e+02 0.0 
0.0 0.0 -1.113015581191e+02 
-7.174999793611e+01 2.729338168099e+01 0.0 
2.729338168099e+01 -1.664841713966e+02 0.0 
0.0 0.0 -7.107025079982e+01 
-1.000199406364e+02 2.560015621493e+01 0.0 
2.560015621493e+01 -2.288528670384e+02 0.0 
0.0 0.0 -9.826184230243e+01 
-1.015466955268e+02 1.630232107205e+01 0.0 
1.630232107205e+01 -2.835259787109e+02 0.0 
0.0 0.0 -1.151218022713e+02 
-7.164415860136e+01 2.526527955181e+01 0.0 
2.526527955181e+01 -1.813805997076e+02 0.0 
0.0 0.0 -7.550742749269e+01 
-7.260118127688e+01 -7.463541502035e+00 0.0 
-7.463541502035e+00 -1.945048517299e+02 0.0 
0.0 0.0 -7.973180990203e+01 
-3.840021232204e+01 2.594365664071e+01 0.0 
2.594365664071e+01 -1.223945522962e+02 0.0 
0.0 0.0 -4.783842938546e+01 
-7.016322523207e+01 -5.999974459117e+00 0.0 
-5.999974459117e+00 -1.773246570608e+02 0.0 
0.0 0.0 -7.384636468785e+01 
-1.023816937869e+02 2.485686569283e+01 0.0 
2.485686569283e+01 -2.554719704895e+02 0.0 
0.0 0.0 -1.069560992829e+02 
-7.836461923278e+01 1.326792270571e+01 0.0 
1.326792270571e+01 -2.440361717559e+02 0.0 
0.0 0.0 -9.632023729659e+01 
-1.584056136672e+02 1.673384798725e+01 0.0 
1.673384798725e+01 -3.815562432613e+02 0.0 
0.0 0.0 -1.615885570786e+02 
-1.115996424627e+02 1.420705639036e+01 0.0 
1.420705639036e+01 -2.326870798226e+02 0.0 
0.0 0.0 -1.028860166856e+02 
-4.719150379240e+01 -1.332588560490e+01 0.0 
-1.332588560490e+01 -1.218706972401e+02 0.0 
0.0 0.0 -5.031866030976e+01 
-1.619002953842e+02 1.883317362263e+01 0.0 
1.883317362263e+01 -3.791006892297e+02 0.0 
0.0 0.0 -1.619002953842e+02 
-1.473758316640e+02 1.659655316499e+01 0.0 
1.659655316499e+01 -3.652876724552e+02 0.0 
0.0 0.0 -1.533990512358e+02 
-6.481784804611e+01 2.257361290332e+01 0.0 
2.257361290332e+01 -1.927930440975e+02 0.0 
0.0 0.0 -7.688326764308e+01 
-3.082835229273e+01 -1.610022303445e+01 0.0 
-1.610022303445e+01 -3.133580139548e+01 0.0 
0.0 0.0 -1.852367621056e+01 
-1.617506816243e+02 1.089996623335e+01 0.0 
1.089996623335e+01 -3.879811632207e+02 0.0 
0.0 0.0 -1.645195534535e+02 
-1.129949257210e+02 1.662478996968e+01 0.0 
1.662478996968e+01 -2.351462308652e+02 0.0 
0.0 0.0 -1.040423469759e+02 
-4.482586030313e+01 -1.389825259539e+01 0.0 
-1.389825259539e+01 -1.464748714311e+02 0.0 
0.0 0.0 -5.699021952027e+01 
-1.655812568432e+02 1.318732040681e+01 0.0 
1.318732040681e+01 -3.876895993009e+02 0.0 
0.0 0.0 -1.655812568432e+02 
-1.043628067880e+02 1.325078269139e+00 0.0 
1.325078269139e+00 -2.813998415501e+02 0.0 
0.0 0.0 -1.153287945014e+02 
-5.561729405864e+01 2.486373223611e+01 0.0 
2.486373223611e+01 -1.087251998337e+02 0.0 
0.0 0.0 -4.890274816770e+01 
-7.660218198472e+01 9.364346530267e+00 0.0 
9.364346530267e+00 -1.320483351761e+02 0.0 
0.0 0.0 -6.219515514825e+01 
-7.424852051050e+01 1.515921057899e+01 0.0 
1.515921057899e+01 -2.324962083387e+02 0.0 
0.0 0.0 -9.162341865477e+01 
-8.746814064500e+01 -2.298557310034e+00 0.0 
-2.298557310034e+00 -2.447546762919e+02 0.0 
0.0 0.0 -9.926684508106e+01 
-9.454138088482e+01 7.638247690216e+00 0.0 
7.638247690216e+00 -2.746280525221e+02 0.0 
0.0 0.0 -1.103508300221e+02 
-9.337033953992e+01 1.254603276172e+01 0.0 
1.254603276172e+01 -1.725718623111e+02 0.0 
0.0 0.0 -7.938266055530e+01 
-6.398226043844e+01 2.083176848642e+01 0.0 
2.083176848642e+01 -1.137585784308e+02 0.0 
0.0 0.0 -5.292225166077e+01 
-1.064601757869e+02 1.818727977832e+01 0.0 
1.818727977832e+01 -2.888978298711e+02 0.0 
0.0 0.0 -1.182074016974e+02 
-6.978176486836e+01 6.629848388404e-01 0.0 
6.629848388404e-01 -1.371449726272e+02 0.0 
0.0 0.0 -6.167802124865e+01 
-7.542772257354e+01 -5.719982270388e+00 0.0 
-5.719982270388e+00 -1.960781109613e+02 0.0 
0.0 0.0 -8.105175006044e+01 
-9.664035417131e+01 1.418133371633e+01 0.0 
1.418133371633e+01 -2.777212739888e+02 0.0 
0.0 0.0 -1.119084884480e+02 
-5.589405609353e+01 -1.136868154966e+01 0.0 
-1.136868154966e+01 -1.672535784762e+02 0.0 
0.0 0.0 -6.654429037093e+01 
-1.055334836331e+02 -2.455696475081e+00 0.0 
-2.455696475081e+00 -2.684443030929e+02 0.0 
0.0 0.0 -1.117933360178e+02 
-9.586448273395e+00 -1.265826059372e+00 0.0 
-1.265826059372e+00 -8.875487831926e+00 0.0 
0.0 0.0 -5.138580831597e+00 
-4.179081925050e+01 2.718935375520e+01 0.0 
2.718935375520e+01 -1.225921350654e+02 0.0 
0.0 0.0 -4.891488629478e+01 
-5.153793867543e+01 -1.189003709906e+01 0.0 
-1.189003709906e+01 -1.630497182227e+02 0.0 
0.0 0.0 -6.397629706944e+01 
-8.125207891637e+01 -5.486742855660e+00 0.0 
-5.486742855660e+00 -2.097564779379e+02 0.0 
0.0 0.0 -8.690256705628e+01 
-6.956280414103e+01 2.365197538674e+01 0.0 
2.365197538674e+01 -1.950660467484e+02 0.0 
0.0 0.0 -7.898865526682e+01 
-1.011413461789e+02 4.182784554597e-01 0.0 
4.182784554597e-01 -2.798421986606e+02 0.0 
0.0 0.0 -1.138950634518e+02 
-7.572768928260e+01 3.846347660957e+00 0.0 
3.846347660957e+00 -1.403625097320e+02 0.0 
0.0 0.0 -6.442705970439e+01 
-5.090633592790e+01 -1.377924774206e+01 0.0 
-1.377924774206e+01 -1.490772294448e+02 0.0 
0.0 0.0 -5.959506961182e+01 
-1.663272486209e+02 1.144897624486e+01 0.0 
1.144897624486e+01 -3.894302467821e+02 0.0 
0.0 0.0 -1.663272486209e+02 
-8.607670531334e+01 2.459765680123e+01 0.0 
2.459765680123e+01 -1.772723526374e+02 0.0 
0.0 0.0 -7.860471738521e+01 
-8.550326841307e+01 -4.609056094440e+00 0.0 
-4.609056094440e+00 -2.175609019779e+02 0.0 
0.0 0.0 -9.051925111729e+01 
-8.140207697045e+01 2.576320422757e+01 0.0 
2.576320422757e+01 -1.729419285180e+02 0.0 
0.0 0.0 -7.590320164652e+01 
-8.335555510587e+01 -3.612694855545e+00 0.0 
-3.612694855545e+00 -2.110478715065e+02 0.0 
0.0 0.0 -8.792102798372e+01 
-1.389574691729e+01 -9.634373480087e-01 0.0 
-9.634373480087e-01 -9.553977787958e+00 0.0 
0.0 0.0 -7.609163390822e+00 
-8.254966145069e+01 1.174075595751e+01 0.0 
1.174075595751e+01 -1.427277881799e+02 0.0 
0.0 0.0 -6.718323488918e+01 
-7.003468170184e+01 -2.505840285071e+00 0.0 
-2.505840285071e+00 -1.714832827038e+02 0.0 
0.0 0.0 -7.205538932170e+01 
-7.592891817544e-01 -2.565158633229e-01 0.0 
-2.565158633229e-01 -9.036832156030e+00 0.0 
0.0 0.0 -2.538300072380e+00 
-8.174278575186e+01 -4.508136572991e+00 0.0 
-4.508136572991e+00 -2.055081541435e+02 0.0 
0.0 0.0 -8.577528196860e+01 
-1.106213026454e+02 1.971714669240e+00 0.0 
1.971714669240e+00 -2.982928873969e+02 0.0 
0.0 0.0 -1.222742570127e+02 
-9.800853228460e+01 2.446139843447e+00 0.0 
2.446139843447e+00 -2.132110352688e+02 0.0 
0.0 0.0 -9.296587026602e+01 
-8.551253813557e+01 6.168968431939e+00 0.0 
6.168968431939e+00 -2.576827708353e+02 0.0 
0.0 0.0 -1.025585926913e+02 
-8.829555628452e+01 4.876231632677e+00 0.0 
4.876231632677e+00 -2.652523107460e+02 0.0 
0.0 0.0 -1.056643601092e+02 
-6.625452552957e+01 8.336452472483e+00 0.0 
8.336452472483e+00 -1.023827908326e+02 0.0 
0.0 0.0 -5.019119490865e+01 
-5.415976518148e+01 1.436806611539e+00 0.0 
1.436806611539e+00 -8.739588907299e+01 0.0 
0.0 0.0 -4.206669627634e+01 
-1.161033198958e+02 1.369011946692e+01 0.0 
1.369011946692e+01 -2.619413567578e+02 0.0 
0.0 0.0 -1.130134029961e+02 
-7.660624233959e+01 2.667774266402e+01 0.0 
2.667774266402e+01 -1.693619522228e+02 0.0 
0.0 0.0 -7.339045836873e+01 
-2.423556318148e+00 -2.805809000328e-01 0.0 
-2.805809000328e-01 -7.084597795161e+00 0.0 
0.0 0.0 -1.728413333833e+00 
-3.174483245162e+01 -5.443887151417e+00 0.0 
-5.443887151417e+00 -7.114350919887e+01 0.0 
0.0 0.0 -3.046650249515e+01 
-2.641182900663e+01 -9.523018109770e+00 0.0 
-9.523018109770e+00 -2.765173899763e+01 0.0 
0.0 0.0 -1.614066476002e+01 
-5.201751282665e+01 -9.657263154092e+00 0.0 
-9.657263154092e+00 -1.289490231423e+02 0.0 
0.0 0.0 -5.388996079070e+01 
-1.163327694241e+02 2.525495504326e+01 0.0 
2.525495504326e+01 -2.585727936609e+02 0.0 
0.0 0.0 -1.120716689255e+02 
-9.938979213276e+01 4.228316465896e+00 0.0 
4.228316465896e+00 -2.141041684351e+02 0.0 
0.0 0.0 -9.364818817036e+01 
-1.270632670839e+02 1.348134037936e+00 0.0 
1.348134037936e+00 -3.217975163645e+02 0.0 
0.0 0.0 -1.342582350345e+02 
-5.716193233508e+01 -6.564966876381e+00 0.0 
-6.564966876381e+00 -1.421954483610e+02 0.0 
0.0 0.0 -5.940721420881e+01 
-1.076248003576e+02 -8.322437511775e-01 0.0 
-8.322437511775e-01 -2.697039168278e+02 0.0 
0.0 0.0 -1.127986151556e+02 
-1.300471778643e+02 7.135436953836e+00 0.0 
7.135436953836e+00 -3.365459823980e+02 0.0 
0.0 0.0 -1.395779480787e+02 
-2.619062134088e+01 4.115189450991e+00 0.0 
4.115189450991e+00 -1.268801048115e+02 0.0 
0.0 0.0 -4.708689457493e+01 
-7.023222123179e+01 -1.167121851265e-01 0.0 
-1.167121851265e-01 -1.716293166169e+02 0.0 
0.0 0.0 -7.215846135460e+01 
-5.779830727622e+01 -1.755320186992e+00 0.0 
-1.755320186992e+00 -1.408673515636e+02 0.0 
0.0 0.0 -5.919969765195e+01 
-1.624720748382e+02 9.094203878414e+00 0.0 
9.094203878414e+00 -3.889779166159e+02 0.0 
0.0 0.0 -1.650349974362e+02 
-1.668646685682e+02 9.763825967943e+00 0.0 
9.763825967943e+00 -3.906842266592e+02 0.0 
0.0 0.0 -1.668646685682e+02 
-7.796529657319e+01 -3.104122950096e-01 0.0 
-3.104122950096e-01 -1.908597597907e+02 0.0 
0.0 0.0 -8.024751690916e+01 
-8.741605989867e+01 -2.699387078848e+00 0.0 
-2.699387078848e+00 -2.187889713858e+02 0.0 
0.0 0.0 -9.146150938533e+01 
-8.894299448411e+01 -3.006968331291e+00 0.0 
-3.006968331291e+00 -2.501757931942e+02 0.0 
0.0 0.0 -1.013356363035e+02 
-1.348056851903e+02 9.284103953119e+00 0.0 
9.284103953119e+00 -3.454998527745e+02 0.0 
0.0 0.0 -1.436916613894e+02 
-3.597132131277e+01 -7.421277204221e+00 0.0 
-7.421277204221e+00 -7.907715823053e+01 0.0 
0.0 0.0 -3.411454386299e+01 
-1.251627355424e+02 5.176002497270e+00 0.0 
5.176002497270e+00 -3.268896153208e+02 0.0 
0.0 0.0 -1.352157052589e+02 
-1.390426560023e+01 -1.265015361594e+00 0.0 
-1.265015361594e+00 -4.290484740182e+01 0.0 
0.0 0.0 -1.664273390061e+01 
-7.931778467462e+01 -3.370880629315e+00 0.0 
-3.370880629315e+00 -1.987078336334e+02 0.0 
0.0 0.0 -8.300768549240e+01 
-8.711177945407e+01 -3.583493445005e+00 0.0 
-3.583493445005e+00 -2.233389162102e+02 0.0 
0.0 0.0 -9.273520869928e+01 
-6.024793946483e+00 -5.105521991842e-01 0.0 
-5.105521991842e-01 -2.568785155148e+01 0.0 
0.0 0.0 -9.259615129654e+00 
-7.428807198749e+01 -1.752947847710e+00 0.0 
-1.752947847710e+00 -1.810017759627e+02 0.0 
0.0 0.0 -7.618695438506e+01 
-1.083193014335e+02 1.206691495990e+01 0.0 
1.206691495990e+01 -2.307678569246e+02 0.0 
0.0 0.0 -1.013261475074e+02 
-1.678418790607e+00 -2.718568681528e-01 0.0 
-2.718568681528e-01 -7.591745157671e+00 0.0 
0.0 0.0 -1.601685831812e+00 
-5.570642714318e+01 2.001684007798e+00 0.0 
2.001684007798e+00 -8.806566037193e+01 0.0 
0.0 0.0 -4.273162625453e+01 
-5.583609049423e+01 2.692535292743e+00 0.0 
2.692535292743e+00 -8.925265732106e+01 0.0 
0.0 0.0 -4.312662434459e+01 
-9.847896321974e+01 1.032800215713e+01 0.0 
1.032800215713e+01 -2.821749144135e+02 0.0 
0.0 0.0 -1.137961632900e+02 
-5.757802870588e+01 4.445593401197e-01 0.0 
4.445593401197e-01 -1.406571175385e+02 0.0 
0.0 0.0 -5.907054387332e+01 
-4.942648268154e+01 -1.321811658575e+01 0.0 
-1.321811658575e+01 -1.509352889382e+02 0.0 
0.0 0.0 -5.970853148592e+01 
-3.456481080171e+01 2.821320230152e+01 0.0 
2.821320230152e+01 -8.712737560785e+01 0.0 
0.0 0.0 -3.610765592287e+01 
-1.420747913597e+02 2.071988414815e+00 0.0 
2.071988414815e+00 -3.480755826952e+02 0.0 
0.0 0.0 -1.466451122165e+02 
-1.347856746566e+02 2.672480509147e+01 0.0 
2.672480509147e+01 -3.152581446859e+02 0.0 
0.0 0.0 -1.346131458027e+02 
-9.701118665518e+01 5.762146770991e+00 0.0 
5.762146770991e+00 -2.018089325201e+02 0.0 
0.0 0.0 -8.924603575260e+01 
-3.970897818276e+01 2.857597110217e+01 0.0 
2.857597110217e+01 -8.560816564522e+01 0.0 
0.0 0.0 -3.719514314840e+01 
-2.692475752291e+01 -6.241046537060e+00 0.0 
-6.241046537060e+00 -4.949233564605e+01 0.0 
0.0 0.0 -2.204806206127e+01 
-6.483780656972e+01 2.001325891574e+01 0.0 
2.001325891574e+01 -1.029988577552e+02 0.0 
0.0 0.0 -4.995099929748e+01 
-5.218184443927e+01 4.614805766572e-01 0.0 
4.614805766572e-01 -8.765408570952e+01 0.0 
0.0 0.0 -4.155077904464e+01 
-5.103736135242e+01 5.139248867232e-01 0.0 
5.139248867232e-01 -8.744064831740e+01 0.0 
0.0 0.0 -4.114340290094e+01 
-2.789710819320e-01 -3.179653420469e-01 0.0 
-3.179653420469e-01 -9.225533344027e+00 0.0 
0.0 0.0 -2.465574103364e+00 
-6.461501300077e+00 -6.037917802294e-01 0.0 
-6.037917802294e-01 -2.554426314696e+01 0.0 
0.0 0.0 -9.488459373522e+00 
-1.353423946873e+01 -2.788004982281e-01 0.0 
-2.788004982281e-01 -4.216700159034e+01 0.0 
0.0 0.0 -1.631037231772e+01 
-4.535811552900e+01 -7.471047424721e+00 0.0 
-7.471047424721e+00 -1.078482252034e+02 0.0 
0.0 0.0 -4.556190221973e+01 
-6.119578122199e+00 -3.858192257385e-01 0.0 
-3.858192257385e-01 -2.571175173525e+01 0.0 
0.0 0.0 -8.556443265193e+00 
-8.199445732889e+01 -1.632052593377e+00 0.0 
-1.632052593377e+00 -2.012360329739e+02 0.0 
0.0 0.0 -8.456914709084e+01 
-4.801937798663e+01 -1.261621738453e+01 0.0 
-1.261621738453e+01 -6.031939788846e+01 0.0 
0.0 0.0 -3.306996812768e+01 
-5.233624088009e+01 -7.762280225047e+00 0.0 
-7.762280225047e+00 -1.284511573338e+02 0.0 
0.0 0.0 -5.383621946416e+01 
-7.603705380036e+01 5.856551662990e-01 0.0 
5.856551662990e-01 -1.541328913640e+02 0.0 
0.0 0.0 -6.865098354931e+01 
-5.326173416897e+01 1.206850394153e+00 0.0 
1.206850394153e+00 -8.777554057954e+01 0.0 
0.0 0.0 -4.191118242456e+01 
-1.198997881452e+02 2.495516430574e+01 0.0 
2.495516430574e+01 -2.638705575507e+02 0.0 
0.0 0.0 -1.147311037088e+02 
-1.066999718614e+02 2.483962475313e-01 0.0 
2.483962475313e-01 -2.875525355587e+02 0.0 
0.0 0.0 -1.178757522260e+02 
-6.885066653060e+01 1.942026325185e-01 0.0 
1.942026325185e-01 -1.363465545588e+02 0.0 
0.0 0.0 -6.115916632682e+01 
-6.161288282846e+01 -1.148874565880e+00 0.0 
-1.148874565880e+00 -1.504281295276e+02 0.0 
0.0 0.0 -6.321230370682e+01 
-1.283436911733e+01 -5.847203178498e-01 0.0 
-5.847203178498e-01 -4.267198076633e+01 0.0 
0.0 0.0 -1.625190496510e+01 
-1.156572682666e+02 7.004681774832e+00 0.0 
7.004681774832e+00 -2.712002926220e+02 0.0 
0.0 0.0 -1.156572682666e+02 
-1.191002918333e+02 7.700744812489e+00 0.0 
7.700744812489e+00 -2.729026226448e+02 0.0 
0.0 0.0 -1.172008743434e+02 
-6.931391082175e+01 1.540681283792e+00 0.0 
1.540681283792e+00 -1.270627850833e+02 0.0 
0.0 0.0 -5.851300877152e+01 
-5.253280154635e+01 6.717912618289e-01 0.0 
6.717912618289e-01 -8.728092621113e+01 0.0 
0.0 0.0 -4.154411832725e+01 
-6.255308781400e+01 -5.639635064914e-01 0.0 
-5.639635064914e-01 -1.526242770113e+02 0.0 
0.0 0.0 -6.415320944758e+01 
-1.182329028841e+02 5.452477650200e+00 0.0 
5.452477650200e+00 -2.716490058516e+02 0.0 
0.0 0.0 -1.165645726207e+02 
-4.974550857212e+01 -6.536131533026e+00 0.0 
-6.536131533026e+00 -1.212143559945e+02 0.0 
0.0 0.0 -5.088795936998e+01 
-5.438860147339e+01 1.856043437952e+00 0.0 
1.856043437952e+00 -8.821769533126e+01 0.0 
0.0 0.0 -4.238188904140e+01 
-5.370085865472e+01 9.580127154189e-01 0.0 
9.580127154189e-01 -8.731667006302e+01 0.0 
0.0 0.0 -4.190525861532e+01 
-5.784874455254e+01 1.145024492101e+01 0.0 
1.145024492101e+01 -8.593571286659e+01 0.0 
0.0 0.0 -4.273533722574e+01 
-1.195644790637e+02 1.544893650832e+01 0.0 
1.544893650832e+01 -2.803171178154e+02 0.0 
0.0 0.0 -1.195644790637e+02 
-1.194967947669e+02 6.423418634863e+00 0.0 
6.423418634863e+00 -2.727478662073e+02 0.0 
0.0 0.0 -1.172733982922e+02 
-6.348977624044e+00 -4.994805409052e-01 0.0 
-4.994805409052e-01 -2.551206046323e+01 0.0 
0.0 0.0 -8.590087604414e+00 
-6.638899227867e-02 -2.705637486190e-01 0.0 
-2.705637486190e-01 -9.278529104856e+00 0.0 
0.0 0.0 -2.296565423003e+00 
-2.833830600574e+01 -5.745150408522e+00 0.0 
-5.745150408522e+00 -5.889978738135e+01 0.0 
0.0 0.0 -2.575885822070e+01 
-8.459001311253e+01 -5.326846899995e+00 0.0 
-5.326846899995e+00 -2.218981847318e+02 0.0 
0.0 0.0 -9.154645935330e+01 
-1.517352009536e+02 -7.378397774612e-01 0.0 
-7.378397774612e-01 -3.597055523284e+02 0.0 
0.0 0.0 -1.530322259846e+02 
-8.677951983834e+01 -2.256966418035e+01 0.0 
-2.256966418035e+01 -7.748203497170e+01 0.0 
0.0 0.0 -4.955450827742e+01 
-9.186040332379e+01 1.388930316063e+00 0.0 
1.388930316063e+00 -1.971412928295e+02 0.0 
0.0 0.0 -8.630050884597e+01 
-3.067628292651e+01 -9.851464897802e+00 0.0 
-9.851464897802e+00 -1.061313807906e+01 0.0 
0.0 0.0 -1.296777634241e+01 
-9.764664978348e+01 6.210109009877e+00 0.0 
6.210109009877e+00 -2.825264446033e+02 0.0 
0.0 0.0 -1.136519283160e+02 
-1.704968823488e+01 -4.706026924098e+00 0.0 
-4.706026924098e+00 -1.213831404413e+01 0.0 
0.0 0.0 -7.741348325134e+00 
-4.394364219903e+01 -2.341301182856e+01 0.0 
-2.341301182856e+01 -3.566894532010e+01 0.0 
0.0 0.0 -2.387103662976e+01 
-9.358433075191e+01 3.693998740890e+00 0.0 
3.693998740890e+00 -2.734649779646e+02 0.0 
0.0 0.0 -1.097147926149e+02 
-1.465833085190e+02 2.451163047660e-02 0.0 
2.451163047660e-02 -3.504117072740e+02 0.0 
0.0 0.0 -1.486985047379e+02 
-7.612555642691e+01 1.060224303827e+00 0.0 
1.060224303827e+00 -1.530819436237e+02 0.0 
0.0 0.0 -6.836225001518e+01 
-6.816146553011e+01 2.284991873200e+01 0.0 
2.284991873200e+01 -1.189245583127e+02 0.0 
0.0 0.0 -5.572580715284e+01 
-5.548999133928e+00 -2.807395024661e-01 0.0 
-2.807395024661e-01 -2.568120283897e+01 0.0 
0.0 0.0 -9.083890867658e+00 
-1.119440258020e+02 -3.421203156894e-01 0.0 
-3.421203156894e-01 -2.773710835635e+02 0.0 
0.0 0.0 -1.163945328097e+02 
-1.145661176957e+02 2.218367710183e+00 0.0 
2.218367710183e+00 -2.686542746233e+02 0.0 
0.0 0.0 -1.145661176957e+02 
-1.174064637494e+02 3.082916190153e+00 0.0 
3.082916190153e+00 -2.705556362658e+02 0.0 
0.0 0.0 -1.159886300046e+02 
-5.235420248375e+01 7.903517254553e-01 0.0 
7.903517254553e-01 -8.748942380092e+01 0.0 
0.0 0.0 -4.155308788540e+01 
-1.020323740906e+02 8.700372110133e+00 0.0 
8.700372110133e+00 -2.909378167930e+02 0.0 
0.0 0.0 -1.174910572651e+02 
-1.155509801097e+02 5.680172229269e+00 0.0 
5.680172229269e+00 -2.709522869227e+02 0.0 
0.0 0.0 -1.155509801097e+02 
-1.066292196318e+02 2.415156749680e+01 0.0 
2.415156749680e+01 -2.702027152851e+02 0.0 
0.0 0.0 -1.126495804751e+02 
-1.205440349077e+01 -5.134287410465e-01 0.0 
-5.134287410465e-01 -4.155600064707e+01 0.0 
0.0 0.0 -1.568312124135e+01 
-5.780350412944e+00 -2.840920362672e-01 0.0 
-2.840920362672e-01 -2.547184271472e+01 0.0 
0.0 0.0 -8.366884531764e+00 
-4.989835692959e+00 2.755438399545e-02 0.0 
2.755438399545e-02 -2.514137963907e+01 0.0 
0.0 0.0 -8.639364599608e+00 
-7.003439053264e+01 -1.101772436799e+00 0.0 
-1.101772436799e+00 -1.707621222435e+02 0.0 
0.0 0.0 -7.183895383285e+01 
-1.658084036442e+02 1.475195831643e+00 0.0 
1.475195831643e+00 -3.905191837178e+02 0.0 
0.0 0.0 -1.664982762086e+02 
-1.094177603636e+02 1.074246053327e+00 0.0 
1.074246053327e+00 -2.481727600805e+02 0.0 
0.0 0.0 -1.068771561332e+02 
5.696536766116e-01 -4.203868987089e-02 0.0 
-4.203868987089e-02 -9.227478173510e+00 0.0 
0.0 0.0 -2.031202761907e+00 
-8.242969404221e+01 4.184602829757e-01 0.0 
4.184602829757e-01 -2.014267874891e+02 0.0 
0.0 0.0 -8.475694445939e+01 
-1.674529846983e+02 8.150077484154e-01 0.0 
8.150077484154e-01 -3.920569642959e+02 0.0 
0.0 0.0 -1.674529846983e+02 
-1.653124489396e+02 1.208811927639e+00 0.0 
1.208811927639e+00 -3.901664361587e+02 0.0 
0.0 0.0 -1.662436655295e+02 
-1.629055905545e+02 7.658304751393e+00 0.0 
7.658304751393e+00 -3.895044645458e+02 0.0 
0.0 0.0 -1.653230165301e+02 
-8.447499707563e+01 -5.556959018304e-01 0.0 
-5.556959018304e-01 -1.773082531793e+02 0.0 
0.0 0.0 -7.813497507647e+01 
-9.563293364879e+01 9.505886482522e-01 0.0 
9.505886482522e-01 -2.075457222342e+02 0.0 
0.0 0.0 -9.055359676489e+01 
-1.667259425225e+02 1.211425123280e+00 0.0 
1.211425123280e+00 -3.903605325526e+02 0.0 
0.0 0.0 -1.667259425225e+02 
-1.671675273947e+02 1.737957571902e+00 0.0 
1.737957571902e+00 -3.913908972542e+02 0.0 
0.0 0.0 -1.671675273947e+02 
-9.190405400317e+01 -3.004824838383e-01 0.0 
-3.004824838383e-01 -1.972451265356e+02 0.0 
0.0 0.0 -8.634475416163e+01 
-3.703099298106e-01 -3.414795635727e-01 0.0 
-3.414795635727e-01 -6.677555636585e+00 0.0 
0.0 0.0 -1.010208729009e+00 
-4.988147043162e+01 1.674370471860e-01 0.0 
1.674370471860e-01 -8.649458423656e+01 0.0 
0.0 0.0 -4.051281640046e+01 
-5.165747835679e+01 4.346625373374e-01 0.0 
4.346625373374e-01 -8.754465342930e+01 0.0 
0.0 0.0 -4.136063953583e+01 
2.866262516536e-01 -1.550050399969e-01 0.0 
-1.550050399969e-01 -9.246478775992e+00 0.0 
0.0 0.0 -2.169379479444e+00 
-1.676947630880e+02 3.630130080051e+00 0.0 
3.630130080051e+00 -3.926211138721e+02 0.0 
0.0 0.0 -1.676947630880e+02 
-1.631339865022e+02 6.145410317523e+00 0.0 
6.145410317523e+00 -3.896309187534e+02 0.0 
0.0 0.0 -1.654294715767e+02 
-1.670889727237e+02 5.589331218853e+00 0.0 
5.589331218853e+00 -3.912076030220e+02 0.0 
0.0 0.0 -1.670889727237e+02 
-6.735871933689e-01 -1.102559139298e-01 0.0 
-1.102559139298e-01 -7.765123281624e+00 0.0 
0.0 0.0 -1.337792568134e+00 
-1.059956520136e+00 -2.568218656827e-01 0.0 
-2.568218656827e-01 -7.853373146191e+00 0.0 
0.0 0.0 -1.460259937443e+00 
-1.670458566872e+02 8.251967670594e+00 0.0 
8.251967670594e+00 -3.911069989368e+02 0.0 
0.0 0.0 -1.670458566872e+02 
-1.672191020666e+02 6.912054933965e+00 0.0 
6.912054933965e+00 -3.915112381555e+02 0.0 
0.0 0.0 -1.672191020666e+02 
-8.057068491810e+01 9.771956504599e-01 0.0 
9.771956504599e-01 -1.672875060181e+02 0.0 
0.0 0.0 -7.395745728085e+01 
-4.888650936501e+01 -8.697363885600e-02 0.0 
-8.697363885600e-02 -8.612727468903e+01 0.0 
0.0 0.0 -4.010413521621e+01 
-8.840021682200e+01 9.809737849710e-01 0.0 
9.809737849710e-01 -1.873756390783e+02 0.0 
0.0 0.0 -8.233275677009e+01 
-6.516697034166e+01 9.098691845061e-01 0.0 
9.098691845061e-01 -1.275716007267e+02 0.0 
0.0 0.0 -5.742157132051e+01 
-4.887755023680e+01 -5.401439108214e-02 0.0 
-5.401439108214e-02 -8.625862499314e+01 0.0 
0.0 0.0 -4.014085256898e+01 
-3.178205302010e+00 -3.684322609625e-01 0.0 
-3.684322609625e-01 -7.245704820644e+00 0.0 
0.0 0.0 -1.977807401053e+00 
-4.216222228956e+00 6.969709387448e-02 0.0 
6.969709387448e-02 -7.892160938463e+00 0.0 
0.0 0.0 -2.317985537826e+00 
-4.742516398350e+00 -1.353009313703e-01 0.0 
-1.353009313703e-01 -7.731273153576e+00 0.0 
0.0 0.0 -2.540254896353e+00 
-5.923635848000e+00 -3.982805543210e-01 0.0 
-3.982805543210e-01 -7.670068379973e+00 0.0 
0.0 0.0 -2.000208000121e+00 
-8.652809264859e+01 -1.199669202678e+00 0.0 
-1.199669202678e+00 -2.116999520689e+02 0.0 
0.0 0.0 -8.906841341524e+01 
-7.831318994005e+01 -1.114182576677e+00 0.0 
-1.114182576677e+00 -1.911452495345e+02 0.0 
0.0 0.0 -8.043753184236e+01 
-3.561494758503e+00 -4.234154656964e-01 0.0 
-4.234154656964e-01 -9.325740912459e+00 0.0 
0.0 0.0 -4.443198172224e+00 
-1.117398352402e+02 -1.031744471316e+00 0.0 
-1.031744471316e+00 -2.712520314618e+02 0.0 
0.0 0.0 -1.144975600106e+02 
-5.361751679161e+00 -7.432695030072e-01 0.0 
-7.432695030072e-01 -9.384151719522e+00 0.0 
0.0 0.0 -4.995610192378e+00 
-1.175049145098e+02 1.216230303929e+01 0.0 
1.216230303929e+01 -2.755114671895e+02 0.0 
0.0 0.0 -1.175049145098e+02 
-1.150831032117e+02 4.706052183235e+00 0.0 
4.706052183235e+00 -2.698605741605e+02 0.0 
0.0 0.0 -1.150831032117e+02 
-1.159039203302e+02 8.168990057060e+00 0.0 
8.168990057060e+00 -2.717758141039e+02 0.0 
0.0 0.0 -1.159039203302e+02 
-2.591912544391e+01 -1.267427762205e+00 0.0 
-1.267427762205e+00 -6.912945142319e+01 0.0 
0.0 0.0 -2.811457306013e+01 
-5.318005009738e+01 -1.161117954257e+00 0.0 
-1.161117954257e+00 -1.300637052592e+02 0.0 
0.0 0.0 -5.457312660698e+01 
-1.147218994909e+02 3.771597783832e+00 0.0 
3.771597783832e+00 -2.690177654788e+02 0.0 
0.0 0.0 -1.147218994909e+02 
-1.384133200520e+02 -7.947521532867e-01 0.0 
-7.947521532867e-01 -3.309474385082e+02 0.0 
0.0 0.0 -1.404082275681e+02 
-1.155449068949e+02 3.039792961668e+00 0.0 
3.039792961668e+00 -2.709381160882e+02 0.0 
0.0 0.0 -1.155449068949e+02 
-1.474701316118e+02 -8.122959621304e-01 0.0 
-8.122959621304e-01 -3.505743116454e+02 0.0 
0.0 0.0 -1.490133329771e+02 
-1.567001639588e+02 -8.906839450685e-01 0.0 
-8.906839450685e-01 -3.701377244304e+02 0.0 
0.0 0.0 -1.576513665168e+02 
-7.417496901303e+01 4.608545126365e-01 0.0 
4.608545126365e-01 -1.809544804802e+02 0.0 
0.0 0.0 -7.613883484798e+01 
-1.177760652092e+02 4.429935112150e+00 0.0 
4.429935112150e+00 -2.706551914285e+02 0.0 
0.0 0.0 -1.161293769913e+02 
-1.172895550803e+02 3.011221047544e+00 0.0 
3.011221047544e+00 -2.707117890606e+02 0.0 
0.0 0.0 -1.160004032423e+02 
-1.425801423760e+02 9.821340667687e-01 0.0 
9.821340667687e-01 -3.398489019537e+02 0.0 
0.0 0.0 -1.443287132989e+02 
-1.519086884122e+02 1.029001164302e+00 0.0 
1.029001164302e+00 -3.599227107270e+02 0.0 
0.0 0.0 -1.531494197418e+02 
-1.204378787187e+02 3.644780713411e-01 0.0 
3.644780713411e-01 -2.931427305464e+02 0.0 
0.0 0.0 -1.236741827795e+02 
-2.107323046345e+01 -3.453631562565e+00 0.0 
-3.453631562565e+00 -9.424697916801e+00 0.0 
0.0 0.0 -9.725854696955e+00 
-7.494107107161e+01 -2.898030745676e+00 0.0 
-2.898030745676e+00 -1.863906177837e+02 0.0 
0.0 0.0 -7.799950665660e+01 
-6.532669247161e+00 -4.494518846220e-01 0.0 
-4.494518846220e-01 -2.505973779564e+01 0.0 
0.0 0.0 -8.564220873335e+00 
-1.433266915844e+02 3.338421079632e+00 0.0 
3.338421079632e+00 -3.487927485274e+02 0.0 
0.0 0.0 -1.472358320335e+02 
-7.773723117668e+01 -5.369052819198e+00 0.0 
-5.369052819198e+00 -1.976045694118e+02 0.0 
0.0 0.0 -8.220254017654e+01 
-1.328361105036e+02 -3.354263966891e-01 0.0 
-3.354263966891e-01 -3.230736024438e+02 0.0 
0.0 0.0 -1.363729138842e+02 
-4.199429847332e+01 -5.932216526213e+00 0.0 
-5.932216526213e+00 -1.000204291371e+02 0.0 
0.0 0.0 -4.220441828314e+01 
-1.639467084311e+01 -2.249920648628e+00 0.0 
-2.249920648628e+00 -4.157633921455e+01 0.0 
0.0 0.0 -1.699130301730e+01 
-1.428504029127e+02 1.640474642337e+00 0.0 
1.640474642337e+00 -3.427918390072e+02 0.0 
0.0 0.0 -1.452926725760e+02 
-8.336777794179e+01 -2.441407182841e+00 0.0 
-2.441407182841e+00 -2.066713856917e+02 0.0 
0.0 0.0 -8.661174909005e+01 
-6.560767161081e+01 -1.807200038157e+00 0.0 
-1.807200038157e+00 -1.607401941803e+02 0.0 
0.0 0.0 -6.750435973733e+01 
-1.338883962958e+02 1.197980373653e+00 0.0 
1.197980373653e+00 -3.238678391975e+02 0.0 
0.0 0.0 -1.369268706480e+02 
-1.016011483410e+02 7.978346499228e-01 0.0 
7.978346499228e-01 -2.255199847058e+02 0.0 
0.0 0.0 -9.773633991404e+01 
-6.591742012294e+01 4.633477632075e-01 0.0 
4.633477632075e-01 -1.608115463627e+02 0.0 
0.0 0.0 -6.761868994570e+01 
-1.174340856847e+02 4.782022752024e+00 0.0 
4.782022752024e+00 -3.098518159502e+02 0.0 
0.0 0.0 -1.277857704905e+02 
-1.044593204215e+02 -2.161111211940e+00 0.0 
-2.161111211940e+00 -2.724711543177e+02 0.0 
0.0 0.0 -1.126791424218e+02 
-1.192499023989e+02 -1.337632511593e+00 0.0 
-1.337632511593e+00 -2.922635551650e+02 0.0 
0.0 0.0 -1.230540372692e+02 
-1.236838541603e+02 -1.024843913415e+00 0.0 
-1.024843913415e+00 -3.007331080157e+02 0.0 
0.0 0.0 -1.269250886528e+02 
-4.737959750150e+01 1.304531459179e+01 0.0 
1.304531459179e+01 -1.817552733710e+02 0.0 
0.0 0.0 -6.834046126175e+01 
-6.057659983848e+01 2.242745932722e+01 0.0 
2.242745932722e+01 -9.732001700180e+01 0.0 
0.0 0.0 -4.696898505208e+01 
-6.476691371866e+01 2.593615770775e+01 0.0 
2.593615770775e+01 -1.786562787039e+02 0.0 
0.0 0.0 -7.262695772677e+01 
-1.101938309362e+02 -2.017210924634e+00 0.0 
-2.017210924634e+00 -2.762597889018e+02 0.0 
0.0 0.0 -1.155360859514e+02 
-1.381599184903e+02 1.281569905281e+00 0.0 
1.281569905281e+00 -3.320053820309e+02 0.0 
0.0 0.0 -1.406495901564e+02 
-1.280825505254e+02 -8.958721296188e-01 0.0 
-8.958721296188e-01 -3.094700007008e+02 0.0 
0.0 0.0 -1.308657653679e+02 
-4.485295055822e+01 -1.185929929042e+01 0.0 
-1.185929929042e+01 -1.071031359901e+02 0.0 
0.0 0.0 -4.518682596450e+01 
-1.018595279553e+02 1.949469801891e+00 0.0 
1.949469801891e+00 -2.245224105792e+02 0.0 
0.0 0.0 -9.751458156033e+01 
-9.454368516318e+01 1.559320222937e+00 0.0 
1.559320222937e+00 -2.040161535628e+02 0.0 
0.0 0.0 -8.916795161779e+01 
-6.020208189567e+01 -3.745334609434e-01 0.0 
-3.745334609434e-01 -1.128419274504e+02 0.0 
0.0 0.0 -5.151320280381e+01 
-1.143022853109e+02 -1.476842874305e+00 0.0 
-1.476842874305e+00 -2.878763703399e+02 0.0 
0.0 0.0 -1.202535966952e+02 
-1.147734925226e+02 -1.638436033356e+00 0.0 
-1.638436033356e+00 -2.842228459911e+02 0.0 
0.0 0.0 -1.192989015541e+02 
-1.025339750965e+02 2.650096799565e+00 0.0 
2.650096799565e+00 -2.266567511505e+02 0.0 
0.0 0.0 -9.835721787409e+01 
-9.830244549807e+01 1.345149263997e+00 0.0 
1.345149263997e+00 -2.149935771082e+02 0.0 
0.0 0.0 -9.358880678188e+01 
-1.023313832553e+02 -1.172252218250e+00 0.0 
-1.172252218250e+00 -2.664734029616e+02 0.0 
0.0 0.0 -1.102414358651e+02 
-1.471761915416e+02 1.537676267402e+00 0.0 
1.537676267402e+00 -3.508593362303e+02 0.0 
0.0 0.0 -1.490106583316e+02 
-9.498074787990e+01 3.906997145047e+00 0.0 
3.906997145047e+00 -2.006318718121e+02 0.0 
0.0 0.0 -8.828378590760e+01 
-1.286158978749e+02 7.537949153387e-01 0.0 
7.537949153387e-01 -3.096963605290e+02 0.0 
0.0 0.0 -1.310936775212e+02 
-1.484809324243e+02 3.240326760832e+00 0.0 
3.240326760832e+00 -3.575229467113e+02 0.0 
0.0 0.0 -1.514011637407e+02 
-1.027564462637e+02 3.912139927427e+00 0.0 
3.912139927427e+00 -2.253674761536e+02 0.0 
0.0 0.0 -9.803717672520e+01 
-8.512552623612e+01 3.083238577257e+00 0.0 
3.083238577257e+00 -1.737374144494e+02 0.0 
0.0 0.0 -7.725888220567e+01 
-1.134659385783e+02 2.938582676001e+00 0.0 
2.938582676001e+00 -2.997081677996e+02 0.0 
0.0 0.0 -1.235522319134e+02 
-4.119497184097e+01 -3.518282351473e+00 0.0 
-3.518282351473e+00 -1.006696047539e+02 0.0 
0.0 0.0 -4.215937297846e+01 
-4.311811268691e+01 -1.364688830888e+01 0.0 
-1.364688830888e+01 -1.010375027730e+02 0.0 
0.0 0.0 -4.284668463796e+01 
-2.175704885793e+01 -2.873498703136e+00 0.0 
-2.873498703136e+00 -4.859964642345e+01 0.0 
0.0 0.0 -2.070700858441e+01 
-3.143066724016e+01 -1.234184292828e+01 0.0 
-1.234184292828e+01 -3.392131789750e+01 0.0 
0.0 0.0 -1.827917392566e+01 
-9.918855931292e+01 3.069942840176e+00 0.0 
3.069942840176e+00 -2.156115520298e+02 0.0 
0.0 0.0 -9.404003340282e+01 
-1.417874695638e+02 -3.580055654989e-01 0.0 
-3.580055654989e-01 -3.394828934103e+02 0.0 
0.0 0.0 -1.439811088922e+02 
-2.031002399327e+01 -6.771952859002e+00 0.0 
-6.771952859002e+00 -2.847247840180e+01 0.0 
0.0 0.0 -1.351000519277e+01 
-1.148273371788e+02 1.935214539959e+01 0.0 
1.935214539959e+01 -2.392281253030e+02 0.0 
0.0 0.0 -1.058166387445e+02 
-6.449793543010e+01 3.000847606056e-02 0.0 
3.000847606056e-02 -1.218804387318e+02 0.0 
0.0 0.0 -5.551351224858e+01 
-1.295992996735e+02 1.128916633871e+00 0.0 
1.128916633871e+00 -3.160499273166e+02 0.0 
0.0 0.0 -1.332947680970e+02 
-1.325805768877e+02 -6.670586483216e-01 0.0 
-6.670586483216e-01 -3.200691033966e+02 0.0 
0.0 0.0 -1.353949040853e+02 
-5.365923443754e+01 -1.213321360231e+01 0.0 
-1.213321360231e+01 -1.560240695064e+02 0.0 
0.0 0.0 -6.250499118317e+01 
-1.333019632642e+02 9.731969088008e-01 0.0 
9.731969088008e-01 -3.207129120045e+02 0.0 
0.0 0.0 -1.358044625806e+02 
-6.104454083631e+01 1.727274590482e+00 0.0 
1.727274590482e+00 -1.131362279300e+02 0.0 
0.0 0.0 -5.185423062990e+01 
-1.019644139190e+02 1.679414536143e+01 0.0 
1.679414536143e+01 -2.838067643437e+02 0.0 
0.0 0.0 -1.153313534788e+02 
-1.527488188791e+02 1.321843355843e+00 0.0 
1.321843355843e+00 -3.653499186986e+02 0.0 
0.0 0.0 -1.550296212733e+02 
-3.899015850176e+01 -2.038562308399e+00 0.0 
-2.038562308399e+00 -9.694672236917e+01 0.0 
0.0 0.0 -4.038106426128e+01 
-1.480742782620e+02 4.291637861396e+00 0.0 
4.291637861396e+00 -3.596276409628e+02 0.0 
0.0 0.0 -1.519105757674e+02 
-8.869084305391e+01 2.843360732392e+00 0.0 
2.843360732392e+00 -1.847128083275e+02 0.0 
0.0 0.0 -8.162109541443e+01 
-4.454378457036e+01 -3.007629152864e+00 0.0 
-3.007629152864e+00 -1.091923642032e+02 0.0 
0.0 0.0 -4.572084463205e+01 
-4.964299956490e+01 -1.132283784909e+01 0.0 
-1.132283784909e+01 -1.233079668884e+02 0.0 
0.0 0.0 -5.148528993599e+01 
-9.384816186725e+01 -2.217282480273e+00 0.0 
-2.217282480273e+00 -2.306317602997e+02 0.0 
0.0 0.0 -9.694397665008e+01 
-7.631890901780e+01 1.302112751150e+00 0.0 
1.302112751150e+00 -1.511572030244e+02 0.0 
0.0 0.0 -6.784283361266e+01 
-6.276211012999e+01 -6.452909732465e+00 0.0 
-6.452909732465e+00 -1.569474496565e+02 0.0 
0.0 0.0 -6.551286793595e+01 
-9.219645348652e+01 2.685203986815e+00 0.0 
2.685203986815e+00 -1.955805550523e+02 0.0 
0.0 0.0 -8.593310256165e+01 
-8.106547437397e+01 2.509666537945e+00 0.0 
2.509666537945e+00 -1.641025837186e+02 0.0 
0.0 0.0 -7.315041742777e+01 
-8.974667404864e+01 -3.771979853044e+00 0.0 
-3.771979853044e+00 -2.255921089604e+02 0.0 
0.0 0.0 -9.420163490271e+01 
-1.243924830417e+02 6.040257025157e-01 0.0 
6.040257025157e-01 -3.012018935295e+02 0.0 
0.0 0.0 -1.272783129714e+02 
-1.291886788162e+02 8.705821166876e-01 0.0 
8.705821166876e-01 -3.126376480312e+02 0.0 
0.0 0.0 -1.321478980542e+02 
-8.726784560954e+01 1.049306384394e+00 0.0 
1.049306384394e+00 -1.837437466818e+02 0.0 
0.0 0.0 -8.090347768741e+01 
-3.415831431418e+01 -2.284685139905e+00 0.0 
-2.284685139905e+00 -8.417017906573e+01 0.0 
0.0 0.0 -3.509854801397e+01 
-8.583657311545e+01 -3.602869318618e+00 0.0 
-3.602869318618e+00 -2.138249556493e+02 0.0 
0.0 0.0 -8.949845862942e+01 
-1.212511564922e+02 2.043970760701e+01 0.0 
2.043970760701e+01 -3.119197259652e+02 0.0 
0.0 0.0 -1.295512647372e+02 
-9.246561333488e+01 3.644246514585e+00 0.0 
3.644246514585e+00 -1.939256755162e+02 0.0 
0.0 0.0 -8.551738665532e+01 
-7.772426834252e+01 -4.224585545251e+00 0.0 
-4.224585545251e+00 -1.933487135477e+02 0.0 
0.0 0.0 -8.092189456706e+01 
-1.070770247070e+02 -7.163248461621e-01 0.0 
-7.163248461621e-01 -2.739111879611e+02 0.0 
0.0 0.0 -1.138964638004e+02 
-1.434152516658e+02 4.840059379195e+00 0.0 
4.840059379195e+00 -3.520547461390e+02 0.0 
0.0 0.0 -1.482409993414e+02 
-8.388939052421e+01 1.325577438624e+00 0.0 
1.325577438624e+00 -1.729178476368e+02 0.0 
0.0 0.0 -7.664217144830e+01 
-3.181600029701e+01 -8.185705920803e+00 0.0 
-8.185705920803e+00 -1.212666436212e+02 0.0 
0.0 0.0 -4.803614806442e+01 
-1.852743173567e+01 -1.538410505217e+00 0.0 
-1.538410505217e+00 -4.676120240550e+01 0.0 
0.0 0.0 -1.918659024235e+01 
-2.886248785778e+01 4.634006853670e+00 0.0 
4.634006853670e+00 -1.387774590151e+02 0.0 
0.0 0.0 -4.959232382728e+01 
-1.373386168866e+02 -3.479850898806e-01 0.0 
-3.479850898806e-01 -3.313048489352e+02 0.0 
0.0 0.0 -1.401930397465e+02 
-8.004574309225e+01 1.367781499083e+00 0.0 
1.367781499083e+00 -1.620114365551e+02 0.0 
0.0 0.0 -7.221715389421e+01 
-1.031225287429e+02 1.341580914611e-01 0.0 
1.341580914611e-01 -2.511805895325e+02 0.0 
0.0 0.0 -1.058909354826e+02 
-6.858130280135e+01 6.386255166965e-01 0.0 
6.386255166965e-01 -1.313645626722e+02 0.0 
0.0 0.0 -5.958375964206e+01 
-1.319444583427e+02 8.090603031031e+00 0.0 
8.090603031031e+00 -3.375490748536e+02 0.0 
0.0 0.0 -1.404480599589e+02 
-9.391937788429e+01 -3.040237495603e+00 0.0 
-3.040237495603e+00 -2.337372587780e+02 0.0 
0.0 0.0 -9.789699099868e+01 
-1.282417911752e+02 -7.794556144967e-01 0.0 
-7.794556144967e-01 -3.118744449319e+02 0.0 
0.0 0.0 -1.316348708321e+02 
-4.076237622207e+01 -1.296005107080e+00 0.0 
-1.296005107080e+00 -1.010018133176e+02 0.0 
0.0 0.0 -4.212925686189e+01 
-1.475000379992e+02 1.596552192948e+00 0.0 
1.596552192948e+00 -3.572004743749e+02 0.0 
0.0 0.0 -1.510101537122e+02 
-9.133039275244e+01 -1.853582694769e+00 0.0 
-1.853582694769e+00 -2.266956628463e+02 0.0 
0.0 0.0 -9.500781667963e+01 
-4.420677987008e+01 -7.043085219342e-01 0.0 
-7.043085219342e-01 -1.095625515280e+02 0.0 
0.0 0.0 -4.573079941944e+01 
-8.706018798422e+01 -1.533454892628e+00 0.0 
-1.533454892628e+00 -2.148271384508e+02 0.0 
0.0 0.0 -9.016619793050e+01 
-6.632630013104e+01 -5.394969727586e+00 0.0 
-5.394969727586e+00 -1.650695298498e+02 0.0 
0.0 0.0 -6.901874899424e+01 
-5.267583034674e+01 -5.365244734811e+00 0.0 
-5.365244734811e+00 -1.291312802643e+02 0.0 
0.0 0.0 -5.414213318331e+01 
-1.020521949384e+02 -1.830476602213e+00 0.0 
-1.830476602213e+00 -2.501850534375e+02 0.0 
0.0 0.0 -1.052711745128e+02 
-2.043035526620e+00 -1.690557167089e-02 0.0 
-1.690557167089e-02 -9.596814572435e+00 0.0 
0.0 0.0 -3.160435931341e+00 
-3.011284454853e+00 -4.533612948016e-01 0.0 
-4.533612948016e-01 -9.714863503241e+00 0.0 
0.0 0.0 -3.764900677184e+00 
-1.162000080993e+02 5.432021998044e-02 0.0 
5.432021998044e-02 -2.851996624864e+02 0.0 
0.0 0.0 -1.200199011757e+02 
-3.742114527970e+01 -1.823671883121e+00 0.0 
-1.823671883121e+00 -9.270422460917e+01 0.0 
0.0 0.0 -3.863761096666e+01 
-1.162373950650e+02 1.040588575122e-01 0.0 
1.040588575122e-01 -2.890441556597e+02 0.0 
0.0 0.0 -1.211844652174e+02 
-1.117173524508e+02 -2.891252371755e-01 0.0 
-2.891252371755e-01 -2.814447598489e+02 0.0 
0.0 0.0 -1.175486336899e+02 
-6.965484558353e+01 -7.467713019990e+00 0.0 
-7.467713019990e+00 -1.819074372788e+02 0.0 
0.0 0.0 -7.506868485869e+01 
-4.455496661740e+01 -1.536513046069e+01 0.0 
-1.536513046069e+01 -1.313086602141e+02 0.0 
0.0 0.0 -5.235908804946e+01 
-1.000281657125e+02 5.554029243338e+00 0.0 
5.554029243338e+00 -2.126866412651e+02 0.0 
0.0 0.0 -9.341444209329e+01 
-3.063727400041e+01 2.727964162667e+01 0.0 
2.727964162667e+01 -9.584434360489e+01 0.0 
0.0 0.0 -3.926798290807e+01 
-6.998041160407e+01 -4.403355991887e+00 0.0 
-4.403355991887e+00 -1.735852152189e+02 0.0 
0.0 0.0 -7.266968804688e+01 
-1.366838309107e+02 1.010253333154e+01 0.0 
1.010253333154e+01 -3.461942375358e+02 0.0 
0.0 0.0 -1.444634205339e+02 
-3.238084380182e+01 -3.074128815206e+00 0.0 
-3.074128815206e+00 -7.987598808878e+01 0.0 
0.0 0.0 -3.327704956718e+01 
-7.375199404313e+01 2.429540332130e+00 0.0 
2.429540332130e+00 -1.429758783090e+02 0.0 
0.0 0.0 -6.461836170563e+01 
-6.568682177766e+01 1.910339149811e+00 0.0 
1.910339149811e+00 -1.227455167617e+02 0.0 
0.0 0.0 -5.612970156181e+01 
-3.385582789241e+01 -4.781280786157e+00 0.0 
-4.781280786157e+00 -7.882102754519e+01 0.0 
0.0 0.0 -3.340305663128e+01 
-1.381790301628e+02 5.245619421253e+00 0.0 
5.245619421253e+00 -3.441295944454e+02 0.0 
0.0 0.0 -1.442925873825e+02 
-8.989421201215e+01 4.874904681344e+00 0.0 
4.874904681344e+00 -1.815811015379e+02 0.0 
0.0 0.0 -8.104259406502e+01 
-3.813208596257e+01 -4.015042779451e+00 0.0 
-4.015042779451e+00 -9.237101129368e+01 0.0 
0.0 0.0 -3.875092917688e+01 
-1.036589183807e+02 6.574913197249e+00 0.0 
6.574913197249e+00 -2.219177119041e+02 0.0 
0.0 0.0 -9.727298908544e+01 
-1.014772009147e+02 4.895928500306e+00 0.0 
4.895928500306e+00 -2.206182507158e+02 0.0 
0.0 0.0 -9.622863548917e+01 
-4.259985567452e+01 -2.788947828138e+00 0.0 
-2.788947828138e+00 -1.041510799369e+02 0.0 
0.0 0.0 -4.362528068344e+01 
-4.202226320379e+01 2.896308665694e+01 0.0 
2.896308665694e+01 -8.535771676194e+01 0.0 
0.0 0.0 -3.781399398972e+01 
-4.479381876696e+01 -4.975327782006e+00 0.0 
-4.975327782006e+00 -1.081669729787e+02 0.0 
0.0 0.0 -4.548823752371e+01 
-1.250391640138e+02 6.766914871268e-01 0.0 
6.766914871268e-01 -3.046375757356e+02 0.0 
0.0 0.0 -1.285030219248e+02 
-9.803038299949e+01 -2.397333029356e+00 0.0 
-2.397333029356e+00 -2.420046087339e+02 0.0 
0.0 0.0 -1.016104975200e+02 
-1.099195820305e+02 1.443662122646e+01 0.0 
1.443662122646e+01 -2.333058156500e+02 0.0 
0.0 0.0 -1.025676193041e+02 
-9.819108732333e+01 3.668977037746e+00 0.0 
3.668977037746e+00 -2.115878976508e+02 0.0 
0.0 0.0 -9.253369549223e+01 
-1.206754389102e+02 4.226612282209e-01 0.0 
4.226612282209e-01 -2.967841383357e+02 0.0 
0.0 0.0 -1.248378731738e+02 
-1.190637658596e+02 -1.186855756388e+00 0.0 
-1.186855756388e+00 -2.957482532664e+02 0.0 
0.0 0.0 -1.240436057378e+02 
-3.806870307116e+01 -6.688817456930e+00 0.0 
-6.688817456930e+00 -8.731288235642e+01 0.0 
0.0 0.0 -3.721447562827e+01 
-1.237111601983e+02 -9.587263591802e-01 0.0 
-9.587263591802e-01 -3.037162922180e+02 0.0 
0.0 0.0 -1.278282357249e+02 
-8.787712927283e+01 2.986126159760e+00 0.0 
2.986126159760e+00 -1.804067243096e+02 0.0 
0.0 0.0 -8.008515607474e+01 
-9.913440643944e+01 -5.074705152267e-01 0.0 
-5.074705152267e-01 -2.428916497941e+02 0.0 
0.0 0.0 -1.022078168701e+02 
-8.159061979697e+01 3.129671397706e+00 0.0 
3.129671397706e+00 -1.629625591545e+02 0.0 
0.0 0.0 -7.296595368543e+01 
-9.308821285624e+01 4.750299508322e+00 0.0 
4.750299508322e+00 -1.923846747685e+02 0.0 
0.0 0.0 -8.524186628742e+01 
-6.619719602023e+01 1.566184472271e+01 0.0 
1.566184472271e+01 -2.163980224548e+02 0.0 
0.0 0.0 -8.437856554251e+01 
-9.458483383166e+01 2.706660465388e+00 0.0 
2.706660465388e+00 -2.022255660444e+02 0.0 
0.0 0.0 -8.864311996281e+01 
-8.203169606073e+01 -3.374765700321e+00 0.0 
-3.374765700321e+00 -2.030608619747e+02 0.0 
0.0 0.0 -8.512776741064e+01 
-9.519693542502e+01 -1.105365253799e+00 0.0 
-1.105365253799e+00 -2.347140684582e+02 0.0 
0.0 0.0 -9.857330116497e+01 
-6.227362707348e+01 -4.854844955861e+00 0.0 
-4.854844955861e+00 -1.533810476951e+02 0.0 
0.0 0.0 -6.429640243056e+01 
-6.468456366894e+01 -8.136519287007e+00 0.0 
-8.136519287007e+00 -1.692452619779e+02 0.0 
0.0 0.0 -6.977894769405e+01 
-8.394225097238e+01 2.093862681465e+00 0.0 
2.093862681465e+00 -1.711436293973e+02 0.0 
0.0 0.0 -7.612576411092e+01 
-8.462558311264e+01 -3.829231079164e+00 0.0 
-3.829231079164e+00 -2.332570803089e+02 0.0 
0.0 0.0 -9.496479902648e+01 
-4.779999877653e+01 -4.049419068738e+00 0.0 
-4.049419068738e+00 -1.164492429179e+02 0.0 
0.0 0.0 -4.887477250832e+01 
-2.488748041704e+01 -3.183826148150e+00 0.0 
-3.183826148150e+00 -5.790872451348e+01 0.0 
0.0 0.0 -2.443886147916e+01 
-8.576307246191e+01 3.919570962723e+00 0.0 
3.919570962723e+00 -1.722237509772e+02 0.0 
0.0 0.0 -7.699604703172e+01 
-4.808077019495e+01 -6.482229394536e+00 0.0 
-6.482229394536e+00 -1.160283812349e+02 0.0 
0.0 0.0 -4.883274542894e+01 
-1.474426750207e+02 3.072623157636e+00 0.0 
3.072623157636e+00 -3.591835725739e+02 0.0 
0.0 0.0 -1.515878742784e+02 
-8.751184500714e+01 2.029686472009e+00 0.0 
2.029686472009e+00 -1.820416610526e+02 0.0 
0.0 0.0 -8.046605181791e+01 
-1.282034709738e+02 -4.266466006280e-01 0.0 
-4.266466006280e-01 -3.151202103488e+02 0.0 
0.0 0.0 -1.325971043968e+02 
-1.529826192752e+02 1.493878137453e+01 0.0 
1.493878137453e+01 -3.690990536327e+02 0.0 
0.0 0.0 -1.562245018724e+02 
-7.888567139771e+01 -1.929519370818e+00 0.0 
-1.929519370818e+00 -1.945264938135e+02 0.0 
0.0 0.0 -8.162364956337e+01 
-4.325650927597e+01 -5.212328395321e+00 0.0 
-5.212328395321e+00 -1.038936096781e+02 0.0 
0.0 0.0 -4.374503568623e+01 
-3.008702457763e+01 -5.491483538527e+00 0.0 
-5.491483538527e+00 -6.668314425894e+01 0.0 
0.0 0.0 -2.863105065097e+01 
-1.204948634602e+02 7.562382605806e-01 0.0 
7.562382605806e-01 -3.005736596445e+02 0.0 
0.0 0.0 -1.259205569314e+02 
-7.626038259728e+01 7.384295544856e-01 0.0 
7.384295544856e-01 -1.530245333516e+02 0.0 
0.0 0.0 -6.838547478467e+01 
-2.123041407574e+01 -3.908033925171e+00 0.0 
-3.908033925171e+00 -4.705472058041e+01 0.0 
0.0 0.0 -2.008554039684e+01 
-6.383092076002e+01 -4.228950975047e+00 0.0 
-4.228950975047e+00 -1.578895332960e+02 0.0 
0.0 0.0 -6.611613621680e+01 
-3.571150867453e+01 -5.490827396839e-01 0.0 
-5.490827396839e-01 -8.981132467568e+01 0.0 
0.0 0.0 -3.725685000506e+01 
-7.807848349354e+01 3.079951235309e+00 0.0 
3.079951235309e+00 -1.522008982485e+02 0.0 
0.0 0.0 -6.868381452260e+01 
-6.750878012123e+01 -3.175764490341e+00 0.0 
-3.175764490341e+00 -1.660569762401e+02 0.0 
0.0 0.0 -6.966972690839e+01 
-1.094399109815e+02 -1.803293137463e+00 0.0 
-1.803293137463e+00 -2.801368314609e+02 0.0 
0.0 0.0 -1.164730227327e+02 
-6.246161695824e+01 -2.388960789891e+00 0.0 
-2.388960789891e+00 -1.538291676993e+02 0.0 
0.0 0.0 -6.448723539726e+01 
-9.581648868284e+01 3.436022719019e+00 0.0 
3.436022719019e+00 -2.049075244963e+02 0.0 
0.0 0.0 -8.981720395375e+01 
-5.545212337960e+01 -6.654035194982e+00 0.0 
-6.654035194982e+00 -1.365600170042e+02 0.0 
0.0 0.0 -5.720364211515e+01 
-1.198521444443e+02 1.500682220946e+00 0.0 
1.500682220946e+00 -3.042505872525e+02 0.0 
0.0 0.0 -1.268308195090e+02 
-4.381425508470e+01 -1.118270887204e+01 0.0 
-1.118270887204e+01 -1.018852148425e+02 0.0 
0.0 0.0 -4.330984097817e+01 
-1.157632788044e+02 4.980695580277e-01 0.0 
4.980695580277e-01 -2.929541772188e+02 0.0 
0.0 0.0 -1.222152368070e+02 
-9.103207581121e+01 -9.742217456317e-01 0.0 
-9.742217456317e-01 -2.235336025572e+02 0.0 
0.0 0.0 -9.396970351053e+01 
-1.233903140702e+02 -5.593001400575e-01 0.0 
-5.593001400575e-01 -3.072097012886e+02 0.0 
0.0 0.0 -1.287800046076e+02 
-4.395528584821e+01 1.113714444746e-01 0.0 
1.113714444746e-01 -1.783716849632e+02 0.0 
0.0 0.0 -6.629809124343e+01 
-3.583188586296e+01 -2.775969378373e+00 0.0 
-2.775969378373e+00 -8.905287402759e+01 0.0 
0.0 0.0 -3.706542796716e+01 
-6.973175955733e+01 1.893644485698e+00 0.0 
1.893644485698e+00 -1.338165262801e+02 0.0 
0.0 0.0 -6.066448575124e+01 
-1.001258186824e+02 6.521254855006e+00 0.0 
6.521254855006e+00 -2.836439688080e+02 0.0 
0.0 0.0 -1.147309362471e+02 
-6.162153875178e+01 2.636598677687e+01 0.0 
2.636598677687e+01 -1.455843350964e+02 0.0 
0.0 0.0 -6.176176215447e+01 
-7.744823643863e+01 2.511111871143e+00 0.0 
2.511111871143e+00 -1.536161715988e+02 0.0 
0.0 0.0 -6.891932241123e+01 
-4.732904958566e+01 -1.330500492028e+01 0.0 
-1.330500492028e+01 -1.176951221430e+02 0.0 
0.0 0.0 -4.910725151860e+01 
-8.118776498450e+01 3.007224844219e+00 0.0 
3.007224844219e+00 -1.590263447250e+02 0.0 
0.0 0.0 -7.166423291286e+01 
-3.159415826780e+01 -8.829099127470e-01 0.0 
-8.829099127470e-01 -8.076209902632e+01 0.0 
0.0 0.0 -3.330687718824e+01 
-1.386054740833e+02 3.641157097724e+00 0.0 
3.641157097724e+00 -3.415348620128e+02 0.0 
0.0 0.0 -1.436421008288e+02 
-1.040448180978e+02 9.066285918055e+00 0.0 
9.066285918055e+00 -2.918696053895e+02 0.0 
0.0 0.0 -1.183743270462e+02 
-1.067879262772e+02 1.891005115879e+01 0.0 
1.891005115879e+01 -2.891806464849e+02 0.0 
0.0 0.0 -1.183905718286e+02 
-1.066221158244e+02 6.322152750016e+00 0.0 
6.322152750016e+00 -2.334010384286e+02 0.0 
0.0 0.0 -1.016069462759e+02 
-9.253274773009e+01 -2.022227006987e+00 0.0 
-2.022227006987e+00 -2.519098266233e+02 0.0 
0.0 0.0 -1.029327723060e+02 
-3.516213548104e+01 -4.576845150084e+00 0.0 
-4.576845150084e+00 -8.387281977662e+01 0.0 
0.0 0.0 -3.531048657730e+01 
-1.059612294116e+02 -6.627630964349e-02 0.0 
-6.627630964349e-02 -2.779328493437e+02 0.0 
0.0 0.0 -1.147682236266e+02 
-1.420273221596e+02 3.553469352435e+00 0.0 
3.553469352435e+00 -3.511813509173e+02 0.0 
0.0 0.0 -1.475626019231e+02 
-5.452022089942e+01 -1.242242325065e+01 0.0 
-1.242242325065e+01 -1.532623846344e+02 0.0 
0.0 0.0 -6.193478166015e+01 
-1.251079513163e+02 9.758362187542e-01 0.0 
9.758362187542e-01 -3.082727700117e+02 0.0 
0.0 0.0 -1.296142163984e+02 
-8.910077349338e+01 3.839241860139e+00 0.0 
3.839241860139e+00 -1.830208110007e+02 0.0 
0.0 0.0 -8.123647534822e+01 
-4.031170358488e+01 -1.648395248054e+01 0.0 
-1.648395248054e+01 -1.275422823975e+02 0.0 
0.0 0.0 -4.995619579470e+01 
-1.109207584512e+02 2.129867773598e-01 0.0 
2.129867773598e-01 -2.854111034431e+02 0.0 
0.0 0.0 -1.184995585683e+02 
-7.076998800897e+01 2.982302028846e+00 0.0 
2.982302028846e+00 -1.306789293076e+02 0.0 
0.0 0.0 -6.003467519498e+01 
-4.942724155843e+01 -1.558123687470e+00 0.0 
-1.558123687470e+00 -1.213456689841e+02 0.0 
0.0 0.0 -5.083187316276e+01 
-6.039807220131e+01 -5.343376412561e+00 0.0 
-5.343376412561e+00 -1.499372749002e+02 0.0 
0.0 0.0 -6.270060413045e+01 
-7.443428113251e+01 2.683153042205e+01 0.0 
2.683153042205e+01 -1.831481613340e+02 0.0 
0.0 0.0 -7.687473273996e+01 
-1.184469328783e+02 -7.274449300519e-01 0.0 
-7.274449300519e-01 -2.993789143169e+02 0.0 
0.0 0.0 -1.249477541586e+02 
-5.476348705372e+01 2.801096404600e+01 0.0 
2.801096404600e+01 -1.089962213822e+02 0.0 
0.0 0.0 -4.872791253077e+01 
-6.954977173178e+01 2.659353572159e+01 0.0 
2.659353572159e+01 -1.807767875969e+02 0.0 
0.0 0.0 -7.469796779859e+01 
-8.454390717098e+01 3.014700911746e+00 0.0 
3.014700911746e+00 -1.696669296270e+02 0.0 
0.0 0.0 -7.586325103940e+01 
-7.232958524956e+01 6.566904534115e-01 0.0 
6.566904534115e-01 -1.420758821070e+02 0.0 
0.0 0.0 -6.392164020698e+01 
-7.334093693527e+01 1.903493138361e+00 0.0 
1.903493138361e+00 -1.389815297838e+02 0.0 
0.0 0.0 -6.329674001572e+01 
-8.997946468123e+01 -2.767345156922e+00 0.0 
-2.767345156922e+00 -2.225299984068e+02 0.0 
0.0 0.0 -9.335283892640e+01 
-1.328370955272e+02 5.684164469079e+00 0.0 
5.684164469079e+00 -3.361453906276e+02 0.0 
0.0 0.0 -1.402947458464e+02 
-1.008841769383e+02 -2.963848280185e-01 0.0 
-2.963848280185e-01 -2.705018260823e+02 0.0 
0.0 0.0 -1.110158009062e+02 
-6.994359388292e+01 2.312273335912e+00 0.0 
2.312273335912e+00 -1.322185648875e+02 0.0 
0.0 0.0 -6.024864763112e+01 
-1.193747442579e+02 2.174903091868e+01 0.0 
2.174903091868e+01 -2.540835764156e+02 0.0 
0.0 0.0 -1.116374962021e+02 
-1.117741950348e+02 2.080335840673e+01 0.0 
2.080335840673e+01 -2.942292028020e+02 0.0 
0.0 0.0 -1.214010193510e+02 
-1.133900750265e+02 -9.222625988067e-01 0.0 
-9.222625988067e-01 -2.916353712633e+02 0.0 
0.0 0.0 -1.211076338869e+02 
-9.123774291878e+01 2.894002602222e+00 0.0 
2.894002602222e+00 -1.912861830509e+02 0.0 
0.0 0.0 -8.435717779089e+01 
-6.819157484223e+01 -6.742245845708e+00 0.0 
-6.742245845708e+00 -1.759635978820e+02 0.0 
0.0 0.0 -7.284655181726e+01 
-6.449632186593e+01 -6.191297861966e+00 0.0 
-6.191297861966e+00 -1.628781526039e+02 0.0 
0.0 0.0 -6.781234234094e+01 
-3.635226379985e+01 -4.113395087353e+00 0.0 
-4.113395087353e+00 -8.715289102031e+01 0.0 
0.0 0.0 -3.665154644605e+01 
-1.096498690242e+02 1.313747007325e+00 0.0 
1.313747007325e+00 -2.890341131668e+02 0.0 
0.0 0.0 -1.192051946573e+02 
-6.799541347810e+01 -4.975539258567e+00 0.0 
-4.975539258567e+00 -1.705196084710e+02 0.0 
0.0 0.0 -7.115450658472e+01 
-8.238876596762e+01 3.963687539340e+00 0.0 
3.963687539340e+00 -1.614250630418e+02 0.0 
0.0 0.0 -7.274414870284e+01 
-7.898554439381e+01 3.973399804866e+00 0.0 
3.973399804866e+00 -1.507366800487e+02 0.0 
0.0 0.0 -6.851666733277e+01 
-7.024009789118e+01 1.216978869550e+01 0.0 
1.216978869550e+01 -2.277609632207e+02 0.0 
0.0 0.0 -8.900031833357e+01 
-5.599444874231e+01 -8.803598812898e+00 0.0 
-8.803598812898e+00 -1.412390931286e+02 0.0 
0.0 0.0 -5.877006256126e+01 
-4.127741941327e+01 1.361534630480e+01 0.0 
1.361534630480e+01 -1.676054799261e+02 0.0 
0.0 0.0 -6.226486980182e+01 
-5.930667259401e+01 -7.585476049567e+00 0.0 
-7.585476049567e+00 -1.489773684319e+02 0.0 
0.0 0.0 -6.208521230778e+01 
-6.268636160315e+01 -8.285265609184e+00 0.0 
-8.285265609184e+00 -1.616486993133e+02 0.0 
0.0 0.0 -6.690051827493e+01 
-4.049238099450e+01 -5.969258922197e+00 0.0 
-5.969258922197e+00 -9.555936071623e+01 0.0 
0.0 0.0 -4.041552251322e+01 
-1.273339408761e+02 6.209115114596e+00 0.0 
6.209115114596e+00 -3.280255341373e+02 0.0 
0.0 0.0 -1.362078425040e+02 
-7.071256767238e+01 -7.809877894871e+00 0.0 
-7.809877894871e+00 -2.001855313527e+02 0.0 
0.0 0.0 -8.086942970752e+01 
-9.624882136619e+01 4.535784871203e+00 0.0 
4.535784871203e+00 -2.032415891145e+02 0.0 
0.0 0.0 -8.944712314421e+01 
-7.311618503314e+01 -6.617185646551e+00 0.0 
-6.617185646551e+00 -2.126375219342e+02 0.0 
0.0 0.0 -8.532611209019e+01 
-1.029556077241e+02 -1.260004643884e+00 0.0 
-1.260004643884e+00 -2.763982394947e+02 0.0 
0.0 0.0 -1.134061541656e+02 
-8.589220362012e+01 -4.448404730109e+00 0.0 
-4.448404730109e+00 -2.384845968507e+02 0.0 
0.0 0.0 -9.691304014126e+01 
-6.758095627475e+01 2.416822702498e+01 0.0 
2.416822702498e+01 -1.943375006338e+02 0.0 
0.0 0.0 -7.817553707258e+01 
-3.949153607872e+01 -3.503549918628e+00 0.0 
-3.503549918628e+00 -9.571950486109e+01 0.0 
0.0 0.0 -4.016331228194e+01 
-1.364354828357e+02 4.073406811384e+00 0.0 
4.073406811384e+00 -3.430840364228e+02 0.0 
0.0 0.0 -1.434558557776e+02 
-1.433655683861e+02 6.871238496444e+00 0.0 
6.871238496444e+00 -3.551631387590e+02 0.0 
0.0 0.0 -1.491586121435e+02 
-9.635673894433e+01 2.379099167528e+01 0.0 
2.379099167528e+01 -2.248779054692e+02 0.0 
0.0 0.0 -9.597039332405e+01 
-6.562694335573e+01 -8.644426735477e+00 0.0 
-8.644426735477e+00 -1.744565217193e+02 0.0 
0.0 0.0 -7.162503952251e+01 
-9.419638958731e+01 -2.812369479966e+00 0.0 
-2.812369479966e+00 -2.574883056603e+02 0.0 
0.0 0.0 -1.051054085743e+02 
-8.040508736132e+01 2.057525260884e+00 0.0 
2.057525260884e+00 -1.602642005155e+02 0.0 
0.0 0.0 -7.180078636304e+01 
-7.187156302124e+01 -5.505743509556e+00 0.0 
-5.505743509556e+00 -1.832774241614e+02 0.0 
0.0 0.0 -7.614469615480e+01 
-5.547752109193e+01 2.800261734525e+01 0.0 
2.800261734525e+01 -1.438427269974e+02 0.0 
0.0 0.0 -5.939607442681e+01 
-5.580219085080e+01 -4.305898893475e+00 0.0 
-4.305898893475e+00 -1.372275172827e+02 0.0 
0.0 0.0 -5.750891244006e+01 
-4.962650297085e+01 -1.425534991538e+01 0.0 
-1.425534991538e+01 -1.337026535249e+02 0.0 
0.0 0.0 -5.459874694873e+01 
-7.149601463610e+01 -6.899969815868e+00 0.0 
-6.899969815868e+00 -1.890879067766e+02 0.0 
0.0 0.0 -7.777517642380e+01 
-5.106651345689e+01 -5.547294359976e+00 0.0 
-5.547294359976e+00 -1.243258128155e+02 0.0 
0.0 0.0 -5.221769788172e+01 
-4.593288286556e+01 -2.148486765957e+00 0.0 
-2.148486765957e+00 -1.127182376685e+02 0.0 
0.0 0.0 -4.719533616021e+01 
-8.940342510058e+01 -3.250768558213e+00 0.0 
-3.250768558213e+00 -2.402354501856e+02 0.0 
0.0 0.0 -9.849166258585e+01 
-1.082238189080e+02 -1.112584920508e+00 0.0 
-1.112584920508e+00 -2.839772061873e+02 0.0 
0.0 0.0 -1.172603075286e+02 
-1.157198673803e+02 2.397682350457e+01 0.0 
2.397682350457e+01 -2.676437204807e+02 0.0 
0.0 0.0 -1.146090763583e+02 
-3.440607425848e+00 -4.142959252052e-01 0.0 
-4.142959252052e-01 -8.699626628999e+00 0.0 
0.0 0.0 -2.248519999920e+00 
-6.522345092871e+01 -4.184795046302e+00 0.0 
-4.184795046302e+00 -2.116226002069e+02 0.0 
0.0 0.0 -8.265381534070e+01 
-6.809086914735e+01 -6.889874027754e+00 0.0 
-6.889874027754e+00 -2.061822584845e+02 0.0 
0.0 0.0 -8.188193828956e+01 
-6.823626381825e+01 -8.494820311580e+00 0.0 
-8.494820311580e+00 -1.873751474954e+02 0.0 
0.0 0.0 -7.628342339409e+01 
-7.688756187610e+01 2.003665861384e+00 0.0 
2.003665861384e+00 -1.495200770337e+02 0.0 
0.0 0.0 -6.752229167295e+01 
-7.805765003626e+01 -6.135026206622e+00 0.0 
-6.135026206622e+00 -2.193776253612e+02 0.0 
0.0 0.0 -8.883058261923e+01 
-5.875518475456e+01 -5.670320863660e+00 0.0 
-5.670320863660e+00 -1.448170835681e+02 0.0 
0.0 0.0 -6.067168049681e+01 
-7.447615730436e+01 -6.557461988632e+00 0.0 
-6.557461988632e+00 -2.020553234444e+02 0.0 
0.0 0.0 -8.255944422462e+01 
-9.092116133484e+01 1.867596420389e+00 0.0 
1.867596420389e+00 -1.929732035574e+02 0.0 
0.0 0.0 -8.476830946768e+01 
-5.901229843914e+01 -3.351324925801e+00 0.0 
-3.351324925801e+00 -1.454413523639e+02 0.0 
0.0 0.0 -6.093609524092e+01 
-2.366247386312e+01 -3.807374455490e+00 0.0 
-3.807374455490e+00 -5.495729775016e+01 0.0 
0.0 0.0 -2.318593148398e+01 
-3.250448217154e+01 -4.994755818051e+00 0.0 
-4.994755818051e+00 -7.540194418602e+01 0.0 
0.0 0.0 -3.197192790727e+01 
-4.852793679723e+01 -1.386641241604e+01 0.0 
-1.386641241604e+01 -1.363894330892e+02 0.0 
0.0 0.0 -5.507521096594e+01 
-5.904151025812e+01 -9.562578556055e+00 0.0 
-9.562578556055e+00 -1.543091665572e+02 0.0 
0.0 0.0 -6.360520304460e+01 
-7.039646807119e+01 -4.780510989109e+00 0.0 
-4.780510989109e+00 -2.179756227859e+02 0.0 
0.0 0.0 -8.611162725712e+01 
-7.718867085781e+01 -5.683371252665e+00 0.0 
-5.683371252665e+00 -2.145797949542e+02 0.0 
0.0 0.0 -8.713053974361e+01 
-4.199300184138e+01 -1.293189536831e+01 0.0 
-1.293189536831e+01 -9.519231477937e+01 0.0 
0.0 0.0 -4.037992591522e+01 
-3.034448464194e+01 -2.472301847611e+00 0.0 
-2.472301847611e+00 -7.501633094551e+01 0.0 
0.0 0.0 -3.120824467623e+01 
-7.657490481167e+01 5.119462772191e+00 0.0 
5.119462772191e+00 -1.386497298501e+02 0.0 
0.0 0.0 -6.416739039852e+01 
-5.100499692423e+01 -3.174544708367e+00 0.0 
-3.174544708367e+00 -1.248175003669e+02 0.0 
0.0 0.0 -5.234674918733e+01 
-1.205359416066e+02 3.377633350479e+00 0.0 
3.377633350479e+00 -3.167038731621e+02 0.0 
0.0 0.0 -1.307719444306e+02 
-1.119194666312e+02 2.385179304918e+01 0.0 
2.385179304918e+01 -2.634926926105e+02 0.0 
0.0 0.0 -1.122236477725e+02 
-8.702221963313e+01 1.418786816585e+01 0.0 
1.418786816585e+01 -1.546812704695e+02 0.0 
0.0 0.0 -7.211104703079e+01 
-9.961460691053e+01 6.612906721901e+00 0.0 
6.612906721901e+00 -2.094873772444e+02 0.0 
0.0 0.0 -9.233059524649e+01 
-1.191800013891e+02 2.390324071117e+01 0.0 
2.390324071117e+01 -2.721662803647e+02 0.0 
0.0 0.0 -1.170038845261e+02 
-6.580389177854e+01 1.483553129259e+01 0.0 
1.483553129259e+01 -2.160540552481e+02 0.0 
0.0 0.0 -8.415738410799e+01 
-1.040876497008e+02 2.367801729868e+01 0.0 
2.367801729868e+01 -2.441896556599e+02 0.0 
0.0 0.0 -1.040831916082e+02 
-4.568917979152e+01 -1.587157867225e+01 0.0 
-1.587157867225e+01 -1.132661569565e+02 0.0 
0.0 0.0 -4.697231981673e+01 
-7.868538181490e+01 -5.531679554765e+00 0.0 
-5.531679554765e+00 -2.087665717733e+02 0.0 
0.0 0.0 -8.583558607645e+01 
-6.021863714459e+01 2.104794559151e+01 0.0 
2.104794559151e+01 -1.904982461828e+02 0.0 
0.0 0.0 -7.481506499821e+01 
-3.533410625517e+01 -1.256324978515e+01 0.0 
-1.256324978515e+01 -1.411038290961e+02 0.0 
0.0 0.0 -5.249019791798e+01 
-4.254018312293e+01 -1.586630475142e+01 0.0 
-1.586630475142e+01 -9.114705329007e+01 0.0 
0.0 0.0 -3.834876745295e+01 
-6.639705753206e+01 -7.100903646538e+00 0.0 
-7.100903646538e+00 -1.693771503404e+02 0.0 
0.0 0.0 -7.033226236174e+01 
-7.251612191662e+01 -6.300780493201e+00 0.0 
-6.300780493201e+00 -2.081974192012e+02 0.0 
0.0 0.0 -8.381406233534e+01 
-7.476903209135e+01 -4.513123174936e+00 0.0 
-4.513123174936e+00 -2.198879619669e+02 0.0 
0.0 0.0 -8.799709821746e+01 
-5.423695679449e+01 -4.655960425588e+00 0.0 
-4.655960425588e+00 -1.327058775104e+02 0.0 
0.0 0.0 -5.568285029147e+01 
-8.075962979225e+01 -4.784944901466e+00 0.0 
-4.784944901466e+00 -2.314094629687e+02 0.0 
0.0 0.0 -9.325072782828e+01 
-6.965773496634e+01 -4.406649635561e+00 0.0 
-4.406649635561e+00 -2.134408607788e+02 0.0 
0.0 0.0 -8.452957872354e+01 
-6.780853464643e+01 -1.178384200450e+00 0.0 
-1.178384200450e+00 -2.221376192701e+02 0.0 
0.0 0.0 -8.658384617494e+01 
-6.118764856584e+01 -7.541974815593e+00 0.0 
-7.541974815593e+00 -1.556493639725e+02 0.0 
0.0 0.0 -6.465110376149e+01 
-1.027363225683e+02 1.291154266015e+01 0.0 
1.291154266015e+01 -2.891109129712e+02 0.0 
0.0 0.0 -1.171541706619e+02 
-8.670076485045e+01 4.978324413963e+00 0.0 
4.978324413963e+00 -1.709098292346e+02 0.0 
0.0 0.0 -7.688317822551e+01 
-6.285012277324e+01 4.449538435268e-01 0.0 
4.449538435268e-01 -2.152794462456e+02 0.0 
0.0 0.0 -8.303887070565e+01 
-1.308764689645e+02 4.620846953311e+00 0.0 
4.620846953311e+00 -3.350836930844e+02 0.0 
0.0 0.0 -1.393880486147e+02 
-4.668999377464e+01 -1.621192074226e+01 0.0 
-1.621192074226e+01 -1.303049099244e+02 0.0 
0.0 0.0 -5.269847110972e+01 
-1.411282816341e+02 8.358684595781e+00 0.0 
8.358684595781e+00 -3.550858170696e+02 0.0 
0.0 0.0 -1.484642296111e+02 
-7.559164818553e+01 -4.940007193147e+00 0.0 
-4.940007193147e+00 -2.245273793139e+02 0.0 
0.0 0.0 -8.963570824983e+01 
-1.226880737723e+02 2.401946839712e+01 0.0 
2.401946839712e+01 -2.787187679419e+02 0.0 
0.0 0.0 -1.200220525143e+02 
-9.052661490838e+01 2.329336648224e+01 0.0 
2.329336648224e+01 -1.823526541513e+02 0.0 
0.0 0.0 -8.146378071789e+01 
-4.404134294322e+01 -1.531952890894e+01 0.0 
-1.531952890894e+01 -1.158593043531e+02 0.0 
0.0 0.0 -4.757019418889e+01 
-9.109920314203e+01 1.658976932508e+01 0.0 
1.658976932508e+01 -1.672993536901e+02 0.0 
0.0 0.0 -7.711956704963e+01 
-1.047899832435e+02 1.010360643072e+01 0.0 
1.010360643072e+01 -2.201181816355e+02 0.0 
0.0 0.0 -9.707244946368e+01 
-7.828655341841e+01 -2.824309113300e+00 0.0 
-2.824309113300e+00 -2.358629981524e+02 0.0 
0.0 0.0 -9.384486547124e+01 
-4.674255522625e+01 2.637581346861e+01 0.0 
2.637581346861e+01 -1.402882684144e+02 0.0 
0.0 0.0 -5.570924709219e+01 
-9.490221548725e+01 1.881087076724e+01 0.0 
1.881087076724e+01 -1.806139305288e+02 0.0 
0.0 0.0 -8.225484380482e+01 
-6.893714527755e+01 2.573537097348e+01 0.0 
2.573537097348e+01 -1.646438701471e+02 0.0 
0.0 0.0 -6.967430462740e+01 
-4.196988957634e+01 -1.564335939785e+01 0.0 
-1.564335939785e+01 -9.453163752773e+01 0.0 
0.0 0.0 -4.019582373469e+01 
-1.124278131364e+02 8.751360278575e+00 0.0 
8.751360278575e+00 -2.512656303674e+02 0.0 
0.0 0.0 -1.087080330511e+02 
-4.057655421118e+01 -1.271202720944e+01 0.0 
-1.271202720944e+01 -7.970369391828e+01 0.0 
0.0 0.0 -3.500667692935e+01 
-1.331477237374e+02 1.958086931219e+01 0.0 
1.958086931219e+01 -3.368960026445e+02 0.0 
0.0 0.0 -1.406131179146e+02 
-1.012926442773e+02 3.366702040905e+00 0.0 
3.366702040905e+00 -2.223444857221e+02 0.0 
0.0 0.0 -9.669113899982e+01 
-1.082814496834e+02 1.157482197676e+01 0.0 
1.157482197676e+01 -2.994763861355e+02 0.0 
0.0 0.0 -1.219273507457e+02 
-7.256871567299e+01 1.132537357137e+00 0.0 
1.132537357137e+00 -1.401419622150e+02 0.0 
0.0 0.0 -6.341320336639e+01 
-9.814959147298e+01 7.278389536345e+00 0.0 
7.278389536345e+00 -2.009732102635e+02 0.0 
0.0 0.0 -8.933684052095e+01 
-7.175110202425e+01 -1.652891945203e+00 0.0 
-1.652891945203e+00 -2.236955399222e+02 0.0 
0.0 0.0 -8.823399258393e+01 
-7.889289804810e+01 1.285946246828e+01 0.0 
1.285946246828e+01 -2.441777953853e+02 0.0 
0.0 0.0 -9.652120803003e+01 
-1.062266557413e+02 7.701910157032e+00 0.0 
7.701910157032e+00 -2.300363390572e+02 0.0 
0.0 0.0 -1.004788984395e+02 
-1.174608078468e+02 1.835830336507e-01 0.0 
1.835830336507e-01 -3.029438356369e+02 0.0 
0.0 0.0 -1.257213930451e+02 
-9.107064825647e+01 6.143902212503e+00 0.0 
6.143902212503e+00 -1.805972826729e+02 0.0 
0.0 0.0 -8.110037927882e+01 
-1.031207356337e+02 5.153388545465e+00 0.0 
5.153388545465e+00 -2.912061838098e+02 0.0 
0.0 0.0 -1.178980758331e+02 
-4.109968225349e+01 -1.707130499911e+01 0.0 
-1.707130499911e+01 -1.112626128997e+02 0.0 
0.0 0.0 -4.530868854596e+01 
-9.541689118579e+01 7.500507767452e+00 0.0 
7.500507767452e+00 -1.904555502286e+02 0.0 
0.0 0.0 -8.536173242430e+01 
-1.358224895462e+02 2.824205225486e+01 0.0 
2.824205225486e+01 -3.186762044897e+02 0.0 
0.0 0.0 -1.359496082108e+02 
-1.421186389627e+02 5.611376214351e+00 0.0 
5.611376214351e+00 -3.542397289861e+02 0.0 
0.0 0.0 -1.485075103846e+02 
-7.537252144608e+01 -7.021965688687e+00 0.0 
-7.021965688687e+00 -2.070371699557e+02 0.0 
0.0 0.0 -8.432290742054e+01 
-7.437952962650e+01 3.102817124929e+00 0.0 
3.102817124929e+00 -1.411769797068e+02 0.0 
0.0 0.0 -6.426695279999e+01 
-6.879702318934e+01 1.003360926769e+00 0.0 
1.003360926769e+00 -1.295142584154e+02 0.0 
0.0 0.0 -5.909338448142e+01 
-7.972091427365e+01 -4.268323438728e+00 0.0 
-4.268323438728e+00 -2.264248391865e+02 0.0 
0.0 0.0 -9.144372603804e+01 
-1.121270859594e+02 1.780986637115e-01 0.0 
1.780986637115e-01 -2.952317965650e+02 0.0 
0.0 0.0 -1.218076647573e+02 
-1.162279538577e+02 1.681280620147e+00 0.0 
1.681280620147e+00 -3.061635886337e+02 0.0 
0.0 0.0 -1.263174627474e+02 
-2.765446992222e+01 -2.820326580289e+00 0.0 
-2.820326580289e+00 -6.625414500987e+01 0.0 
0.0 0.0 -2.777258447963e+01 
-3.617574440185e+01 1.467276804212e+01 0.0 
1.467276804212e+01 -1.541720714185e+02 0.0 
0.0 0.0 -5.670434474611e+01 
-6.609485539009e+01 3.969295711620e+00 0.0 
3.969295711620e+00 -2.239631642322e+02 0.0 
0.0 0.0 -8.661740588667e+01 
-6.641621698320e+01 -5.149531564377e-01 0.0 
-5.149531564377e-01 -2.165565105747e+02 0.0 
0.0 0.0 -8.449181826737e+01 
-6.686909819917e+01 2.504092811538e+01 0.0 
2.504092811538e+01 -1.793584063197e+02 0.0 
0.0 0.0 -7.346825135567e+01 
-1.110271138898e+02 9.215067140175e+00 0.0 
9.215067140175e+00 -2.415021149175e+02 0.0 
0.0 0.0 -1.053587686422e+02 
-1.118487599778e+02 1.703810912277e+01 0.0 
1.703810912277e+01 -2.375762716554e+02 0.0 
0.0 0.0 -1.044275094900e+02 
-1.028653223226e+02 5.139086799390e+00 0.0 
5.139086799390e+00 -2.232147705141e+02 0.0 
0.0 0.0 -9.742402785103e+01 
-5.899445767219e+01 2.680497006734e+01 0.0 
2.680497006734e+01 -1.109162170446e+02 0.0 
0.0 0.0 -5.057320241503e+01 
-9.829351918606e+01 8.685325183207e+00 0.0 
8.685325183207e+00 -1.993473983691e+02 0.0 
0.0 0.0 -8.889227526654e+01 
-1.148133858453e+02 1.389807880921e+00 0.0 
1.389807880921e+00 -2.966341575310e+02 0.0 
0.0 0.0 -1.230342630129e+02 
-1.053321910152e+02 5.906957434591e+00 0.0 
5.906957434591e+00 -2.308181147886e+02 0.0 
0.0 0.0 -1.004450917411e+02 
-9.261035657929e+01 7.695224068955e+00 0.0 
7.695224068955e+00 -1.800179244633e+02 0.0 
0.0 0.0 -8.138848431279e+01 
-8.171935709395e+01 -4.904679311088e+00 0.0 
-4.904679311088e+00 -2.212021199182e+02 0.0 
0.0 0.0 -9.047644310365e+01 
-6.165596805097e+01 6.466022384582e+00 0.0 
6.466022384582e+00 -2.157188802788e+02 0.0 
0.0 0.0 -8.281245449894e+01 
-9.274926935691e+01 5.400634634030e+00 0.0 
5.400634634030e+00 -1.889695416871e+02 0.0 
0.0 0.0 -8.411564331321e+01 
-1.048122294656e+02 8.361881270306e+00 0.0 
8.361881270306e+00 -2.214670368115e+02 0.0 
0.0 0.0 -9.748377988313e+01 
-9.182728525171e+01 4.015613043636e+00 0.0 
4.015613043636e+00 -1.899059093254e+02 0.0 
0.0 0.0 -8.411995837315e+01 
-8.864932065009e+01 4.119596930058e+00 0.0 
4.119596930058e+00 -1.792292907030e+02 0.0 
0.0 0.0 -7.996358340593e+01 
-1.316651469285e+02 2.623188020038e+00 0.0 
2.623188020038e+00 -3.326748230102e+02 0.0 
0.0 0.0 -1.389019909816e+02 
-1.277108844774e+02 2.056158528590e+01 0.0 
2.056158528590e+01 -3.251286197913e+02 0.0 
0.0 0.0 -1.354518512806e+02 
-1.261765156603e+02 2.955445096725e+00 0.0 
2.955445096725e+00 -3.247355482587e+02 0.0 
0.0 0.0 -1.348736191757e+02 
-9.937598148276e+01 -2.512150337272e+00 0.0 
-2.512150337272e+00 -2.649184819682e+02 0.0 
0.0 0.0 -1.088883390353e+02 
-5.435290293124e+01 1.345565865379e+01 0.0 
1.345565865379e+01 -7.859837897010e+01 0.0 
0.0 0.0 -3.948538457040e+01 
-1.127462294962e+02 1.398513514218e+01 0.0 
1.398513514218e+01 -3.064450620640e+02 0.0 
0.0 0.0 -1.253573874681e+02 
-9.304992366695e+01 9.309974102886e+00 0.0 
9.309974102886e+00 -1.800804094177e+02 0.0 
0.0 0.0 -8.153909992539e+01 
-4.629398657631e+01 -4.467456643254e+00 0.0 
-4.467456643254e+00 -1.123694096334e+02 0.0 
0.0 0.0 -4.719901886290e+01 
-6.881684294984e+01 2.982393961151e+00 0.0 
2.982393961151e+00 -2.248875376067e+02 0.0 
0.0 0.0 -8.771131416696e+01 
-7.938221991056e+01 3.485824078413e+00 0.0 
3.485824078413e+00 -2.483004482061e+02 0.0 
0.0 0.0 -9.790480043498e+01 
-8.794410491900e+01 1.361631277714e+01 0.0 
1.361631277714e+01 -2.609773166644e+02 0.0 
0.0 0.0 -1.042764264750e+02 
-3.231926757153e+01 -2.689999591807e+00 0.0 
-2.689999591807e+00 -1.511992416004e+02 0.0 
0.0 0.0 -5.450458273178e+01 
-6.362145791074e+01 5.118884074907e+00 0.0 
5.118884074907e+00 -2.162245652043e+02 0.0 
0.0 0.0 -8.355380693451e+01 
-9.739311361883e+01 1.443290709699e+01 0.0 
1.443290709699e+01 -2.780939145978e+02 0.0 
0.0 0.0 -1.122461084650e+02 
-6.778172012872e+01 1.860593739267e+01 0.0 
1.860593739267e+01 -1.178989773422e+02 0.0 
0.0 0.0 -5.530420924128e+01 
-8.293874683206e+01 -5.507265107925e+00 0.0 
-5.507265107925e+00 -2.264767277856e+02 0.0 
0.0 0.0 -9.242464238529e+01 
-8.502046467989e+01 6.371836224435e+00 0.0 
6.371836224435e+00 -1.594944342624e+02 0.0 
0.0 0.0 -7.295446968270e+01 
-5.574124954592e+01 -1.093897820369e-01 0.0 
-1.093897820369e-01 -9.943148532124e+01 0.0 
0.0 0.0 -4.615182046015e+01 
-3.832050404776e+01 2.749274469580e+01 0.0 
2.749274469580e+01 -2.813346558847e+01 0.0 
0.0 0.0 -1.864500279480e+01 
-9.748710867679e+01 -1.623382034844e+00 0.0 
-1.623382034844e+00 -2.591430706711e+02 0.0 
0.0 0.0 -1.065890538044e+02 
-1.121105899228e+02 9.829350527907e+00 0.0 
9.829350527907e+00 -3.084161717545e+02 0.0 
0.0 0.0 -1.257580285032e+02 
-1.141922265173e+02 1.620607363547e+01 0.0 
1.620607363547e+01 -2.458046639876e+02 0.0 
0.0 0.0 -1.075990671515e+02 
-7.391628031521e+01 1.046548024488e+01 0.0 
1.046548024488e+01 -2.381627301083e+02 0.0 
0.0 0.0 -9.322370312706e+01 
-9.094382456402e+01 -3.992415047208e+00 0.0 
-3.992415047208e+00 -2.457639205984e+02 0.0 
0.0 0.0 -1.006123235487e+02 
-8.348403581567e+01 5.007561010647e+00 0.0 
5.007561010647e+00 -1.603276259860e+02 0.0 
0.0 0.0 -7.274349854051e+01 
-3.571037778530e+01 2.493379372863e+01 0.0 
2.493379372863e+01 -2.619146030832e+01 0.0 
0.0 0.0 -1.698426597942e+01 
-1.066689726459e+02 1.111844297378e+01 0.0 
1.111844297378e+01 -2.986943573451e+02 0.0 
0.0 0.0 -1.212089989973e+02 
-8.387592983289e+01 1.081635527917e+01 0.0 
1.081635527917e+01 -2.550299845130e+02 0.0 
0.0 0.0 -1.012717743038e+02 
-7.253199668981e+01 2.074098983706e+01 0.0 
2.074098983706e+01 -1.246760526311e+02 0.0 
0.0 0.0 -5.876241479627e+01 
-1.188057333498e+02 2.795081456838e+00 0.0 
2.795081456838e+00 -3.074971089711e+02 0.0 
0.0 0.0 -1.274908526963e+02 
-4.274542649805e+01 -1.495291990510e+01 0.0 
-1.495291990510e+01 -1.438718838689e+02 0.0 
0.0 0.0 -5.558519311008e+01 
-1.229649324235e+02 4.404922984511e+00 0.0 
4.404922984511e+00 -3.179570738594e+02 0.0 
0.0 0.0 -1.318766018849e+02 
-1.358453572121e+02 6.344772781177e+00 0.0 
6.344772781177e+00 -3.451858562737e+02 0.0 
0.0 0.0 -1.439093640457e+02 
-1.014947325852e+02 1.256009716625e+01 0.0 
1.256009716625e+01 -2.885090368853e+02 0.0 
0.0 0.0 -1.166011308412e+02 
-9.402802116522e+01 5.992155185845e+00 0.0 
5.992155185845e+00 -1.911805627211e+02 0.0 
0.0 0.0 -8.516257516588e+01 
-1.114471310521e+02 2.499516013915e+01 0.0 
2.499516013915e+01 -2.744404511640e+02 0.0 
0.0 0.0 -1.153662746648e+02 
-1.377676845939e+02 7.539533220226e+00 0.0 
7.539533220226e+00 -3.462201681696e+02 0.0 
0.0 0.0 -1.447963558290e+02 
-3.293639996599e+01 2.277833477210e+01 0.0 
2.277833477210e+01 -2.498908802616e+01 0.0 
0.0 0.0 -1.697764639765e+01 
-8.809700925435e+01 6.236263211762e+00 0.0 
6.236263211762e+00 -1.700680222662e+02 0.0 
0.0 0.0 -7.704950945617e+01 
-1.269363176303e+02 2.319094189942e+01 0.0 
2.319094189942e+01 -3.174764941797e+02 0.0 
0.0 0.0 -1.329238435430e+02 
-9.572277078201e+01 5.236417797002e+00 0.0 
5.236417797002e+00 -1.995947843054e+02 0.0 
0.0 0.0 -8.819526652623e+01 
-9.190631562465e+01 1.179949545050e+01 0.0 
1.179949545050e+01 -2.713983588344e+02 0.0 
0.0 0.0 -1.085914023377e+02 
-6.666804207587e+01 8.798375929992e+00 0.0 
8.798375929992e+00 -2.223887914794e+02 0.0 
0.0 0.0 -8.631705006657e+01 
-9.348518679123e+01 -3.733810919049e+00 0.0 
-3.733810919049e+00 -2.373296254707e+02 0.0 
0.0 0.0 -9.884444367859e+01 
-2.659193159126e+01 6.882499974531e+00 0.0 
6.882499974531e+00 -1.303638082971e+02 0.0 
0.0 0.0 -4.843943834285e+01 
-9.873528107003e+01 4.982861931878e+00 0.0 
4.982861931878e+00 -2.102773917111e+02 0.0 
0.0 0.0 -9.230380183434e+01 
-4.963220218533e+01 -3.822622387870e+00 0.0 
-3.822622387870e+00 -1.210147521235e+02 0.0 
0.0 0.0 -5.079408629265e+01 
-3.019913100433e+01 2.045746034879e+01 0.0 
2.045746034879e+01 -2.342197239861e+01 0.0 
0.0 0.0 -1.568633102088e+01 
-1.072813766748e+02 2.540047379575e+01 0.0 
2.540047379575e+01 -2.595661772747e+02 0.0 
0.0 0.0 -1.096542661849e+02 
-1.050754230874e+02 4.390250029845e+00 0.0 
4.390250029845e+00 -2.323895049789e+02 0.0 
0.0 0.0 -1.008394784199e+02 
-4.429354227164e+01 -1.828266546870e+01 0.0 
-1.828266546870e+01 -1.287689709794e+02 0.0 
0.0 0.0 -5.092847545918e+01 
-7.937237733104e+01 2.666631257765e+01 0.0 
2.666631257765e+01 -1.859538868468e+02 0.0 
0.0 0.0 -7.919787925335e+01 
-8.979848744918e+01 5.484830800086e+00 0.0 
5.484830800086e+00 -1.784576900479e+02 0.0 
0.0 0.0 -8.007685324913e+01 
-9.065778375539e+01 -3.267941908859e+00 0.0 
-3.267941908859e+00 -2.354422673701e+02 0.0 
0.0 0.0 -9.743001533763e+01 
-3.643887728380e+01 -7.347297916070e+00 0.0 
-7.347297916070e+00 -1.521085240560e+02 0.0 
0.0 0.0 -5.616422040194e+01 
-4.527892121671e+01 2.534152489744e+01 0.0 
2.534152489744e+01 -1.407088756101e+02 0.0 
0.0 0.0 -5.539633904804e+01 
-4.115824552080e+01 -1.744238670818e+01 0.0 
-1.744238670818e+01 -9.028406672845e+01 0.0 
0.0 0.0 -3.798141143883e+01 
-3.645208161784e+01 -1.634849861165e+01 0.0 
-1.634849861165e+01 -1.258882861868e+02 0.0 
0.0 0.0 -4.830211034140e+01 
-3.793695549330e+01 -1.818160304986e+01 0.0 
-1.818160304986e+01 -1.083926390681e+02 0.0 
0.0 0.0 -4.328348387795e+01 
-8.270854184909e+01 1.110247394763e+01 0.0 
1.110247394763e+01 -2.545960173470e+02 0.0 
0.0 0.0 -1.007913677588e+02 
-1.244001148526e+02 1.506096880338e+01 0.0 
1.506096880338e+01 -2.815275067128e+02 0.0 
0.0 0.0 -1.213782864696e+02 
-3.465887171654e+01 1.812745708380e+01 0.0 
1.812745708380e+01 -2.279235936750e+01 0.0 
0.0 0.0 -1.683536932521e+01 
-1.370793120572e+02 2.332689843435e+00 0.0 
2.332689843435e+00 -3.405851499345e+02 0.0 
0.0 0.0 -1.428993385975e+02 
-5.427484752118e+01 1.281149963883e+01 0.0 
1.281149963883e+01 -1.965572061104e+02 0.0 
0.0 0.0 -7.484961608948e+01 
-8.977734484195e+01 7.927971754637e+00 0.0 
7.927971754637e+00 -1.698287154855e+02 0.0 
0.0 0.0 -7.748181809823e+01 
-2.753424785515e+01 4.328358429727e+00 0.0 
4.328358429727e+00 -1.380409802260e+02 0.0 
0.0 0.0 -5.109333559641e+01 
-1.427177681237e+02 9.333986893486e+00 0.0 
9.333986893486e+00 -3.556863878844e+02 0.0 
0.0 0.0 -1.491212468024e+02 
-4.531290036050e+01 -1.895740051100e+01 0.0 
-1.895740051100e+01 -1.110303132391e+02 0.0 
0.0 0.0 -4.523863042450e+01 
-5.808689521131e+01 -3.909068491396e+00 0.0 
-3.909068491396e+00 -1.418926923329e+02 0.0 
0.0 0.0 -5.959387626325e+01 
-1.063557074537e+02 1.479189319381e+01 0.0 
1.479189319381e+01 -2.949836917046e+02 0.0 
0.0 0.0 -1.200018197475e+02 
-7.703870958771e+01 -2.237710688948e+00 0.0 
-2.237710688948e+00 -2.306210602235e+02 0.0 
0.0 0.0 -9.189793094335e+01 
-1.220703429451e+02 2.153024118704e+01 0.0 
2.153024118704e+01 -3.124710960425e+02 0.0 
0.0 0.0 -1.299624316963e+02 
-4.947427822013e+01 2.856468262058e+01 0.0 
2.856468262058e+01 -1.251042554576e+02 0.0 
0.0 0.0 -5.197356010330e+01 
-9.867342966480e+01 1.142069302790e+01 0.0 
1.142069302790e+01 -1.913061628258e+02 0.0 
0.0 0.0 -8.659387774718e+01 
-1.323794152875e+02 1.844231488881e+01 0.0 
1.844231488881e+01 -3.363210087446e+02 0.0 
0.0 0.0 -1.402101272096e+02 
-8.547292863969e+01 4.133353029417e+00 0.0 
4.133353029417e+00 -1.686177221736e+02 0.0 
0.0 0.0 -7.582719524397e+01 
-1.165363091365e+02 1.871835293169e+01 0.0 
1.871835293169e+01 -2.473382810376e+02 0.0 
0.0 0.0 -1.087623770522e+02 
-9.961565770192e+01 8.996075539271e+00 0.0 
8.996075539271e+00 -2.004837259101e+02 0.0 
0.0 0.0 -8.962981508360e+01 
-1.037144646048e+02 1.062301500811e+01 0.0 
1.062301500811e+01 -2.109304475449e+02 0.0 
0.0 0.0 -9.399347364492e+01 
-3.377137391471e+01 2.273981072368e+01 0.0 
2.273981072368e+01 -1.280574853643e+02 0.0 
0.0 0.0 -4.809970698651e+01 
-1.322810615851e+02 1.225365094260e+00 0.0 
1.225365094260e+00 -3.295576079371e+02 0.0 
0.0 0.0 -1.381516008567e+02 
-9.411502874170e+01 7.025547069417e+00 0.0 
7.025547069417e+00 -1.887431720250e+02 0.0 
0.0 0.0 -8.445746023000e+01 
-7.076873239248e+01 1.803777271324e+01 0.0 
1.803777271324e+01 -2.202162279692e+02 0.0 
0.0 0.0 -8.689548810849e+01 
-2.957934182743e+01 8.366246229842e+00 0.0 
8.366246229842e+00 -2.476052392303e+01 0.0 
0.0 0.0 -1.590195972514e+01 
-1.388155013194e+02 2.166223036777e+01 0.0 
2.166223036777e+01 -3.431171106232e+02 0.0 
0.0 0.0 -1.441797835828e+02 
-3.264676265144e+01 9.931578755893e+00 0.0 
9.931578755893e+00 -1.519778064912e+02 0.0 
0.0 0.0 -5.498737074279e+01 
-5.447033044185e+01 -2.309592627409e+00 0.0 
-2.309592627409e+00 -1.332909625746e+02 0.0 
0.0 0.0 -5.592838790495e+01 
-1.163816491230e+02 1.865013006047e+01 0.0 
1.865013006047e+01 -3.066356155611e+02 0.0 
0.0 0.0 -1.265051794052e+02 
-3.092761004191e+01 5.616929350277e-01 0.0 
5.616929350277e-01 -8.033497930706e+01 0.0 
0.0 0.0 -3.297877680469e+01 
-7.238572307693e+01 2.526490898097e+01 0.0 
2.526490898097e+01 -1.967320218328e+02 0.0 
0.0 0.0 -8.033532347291e+01 
-1.114678494054e+02 1.340012158404e+01 0.0 
1.340012158404e+01 -3.057900324435e+02 0.0 
0.0 0.0 -1.247773645547e+02 
-1.095356039478e+02 1.171277720018e+01 0.0 
1.171277720018e+01 -2.309381489165e+02 0.0 
0.0 0.0 -1.017421258593e+02 
-1.133772001459e+02 1.360535745600e+01 0.0 
1.360535745600e+01 -2.423461072460e+02 0.0 
0.0 0.0 -1.063169922176e+02 
-1.072300259590e+02 1.531351893726e+01 0.0 
1.531351893726e+01 -2.954633380755e+02 0.0 
0.0 0.0 -1.204080092103e+02 
-1.021763365230e+02 8.710373123204e+00 0.0 
8.710373123204e+00 -2.109354846870e+02 0.0 
0.0 0.0 -9.353354636300e+01 
-5.851512656464e+01 1.589268015444e+01 0.0 
1.589268015444e+01 -2.005578599055e+02 0.0 
0.0 0.0 -7.732189594103e+01 
-1.081272771810e+02 2.565441715378e+01 0.0 
2.565441715378e+01 -2.486938620268e+02 0.0 
0.0 0.0 -1.066463417624e+02 
-3.671045883552e+01 5.247306652821e+00 0.0 
5.247306652821e+00 -4.187036182523e+01 0.0 
0.0 0.0 -2.317424619822e+01 
-1.166489753665e+02 2.099054321892e+01 0.0 
2.099054321892e+01 -2.562252124308e+02 0.0 
0.0 0.0 -1.114622563392e+02 
-4.522152687844e+01 3.997381731149e+00 0.0 
3.997381731149e+00 -6.121362738040e+01 0.0 
0.0 0.0 -3.153054627765e+01 
-4.965619222551e+01 3.594033721462e+00 0.0 
3.594033721462e+00 -7.067772427975e+01 0.0 
0.0 0.0 -3.570017495158e+01 
-6.983014933495e+01 1.296274200913e+01 0.0 
1.296274200913e+01 -2.277535706104e+02 0.0 
0.0 0.0 -8.887511598361e+01 
-5.346024921510e+01 3.173716567642e+00 0.0 
3.173716567642e+00 -8.070637760949e+01 0.0 
0.0 0.0 -3.984998804738e+01 
-8.383217488217e+01 2.322541675454e+01 0.0 
2.322541675454e+01 -2.297701440131e+02 0.0 
0.0 0.0 -9.368069566859e+01 
-6.293160625591e+01 2.261175412993e+01 0.0 
2.261175412993e+01 -1.920017121553e+02 0.0 
0.0 0.0 -7.607999552335e+01 
-7.169584272182e+01 6.470363430352e+00 0.0 
6.470363430352e+00 -2.321224336362e+02 0.0 
0.0 0.0 -9.074548290740e+01 
-3.162077158986e+01 -9.373906363507e+00 0.0 
-9.373906363507e+00 -1.400193835646e+02 0.0 
0.0 0.0 -5.073251125770e+01 
-6.555348556428e+01 9.904702636484e+00 0.0 
9.904702636484e+00 -2.221568663609e+02 0.0 
0.0 0.0 -8.591310557756e+01 
-1.024261153191e+02 6.330731878782e+00 0.0 
6.330731878782e+00 -2.201054855913e+02 0.0 
0.0 0.0 -9.635948027311e+01 
-1.164016268044e+02 1.882278099180e+01 0.0 
1.882278099180e+01 -2.526003638023e+02 0.0 
0.0 0.0 -1.103005971820e+02 
-1.226768539513e+02 2.177762971158e-01 0.0 
2.177762971158e-01 -3.106815001570e+02 0.0 
0.0 0.0 -1.296075062325e+02 
-1.267301215904e+02 1.941359787828e+01 0.0 
1.941359787828e+01 -3.244680267851e+02 0.0 
0.0 0.0 -1.349594445127e+02 
-7.297735216908e+01 -2.245576508081e+00 0.0 
-2.245576508081e+00 -2.288989727201e+02 0.0 
0.0 0.0 -9.016289746676e+01 
-1.008993479362e+02 8.401961612695e+00 0.0 
8.401961612695e+00 -2.093491657913e+02 0.0 
0.0 0.0 -9.267455411827e+01 
-6.979067944544e+01 7.342773149490e+00 0.0 
7.342773149490e+00 -2.315013620877e+02 0.0 
0.0 0.0 -8.998761245993e+01 
-1.373872105887e+02 1.084465573070e+00 0.0 
1.084465573070e+00 -3.373932760625e+02 0.0 
0.0 0.0 -1.420341459954e+02 
-9.681805892081e+01 6.865927497034e+00 0.0 
6.865927497034e+00 -1.989341163974e+02 0.0 
0.0 0.0 -8.832565259545e+01 
-1.012382113233e+02 1.101224234487e+01 0.0 
1.101224234487e+01 -2.010140960808e+02 0.0 
0.0 0.0 -9.027569222123e+01 
-9.682599784154e+01 1.013849210338e+01 0.0 
1.013849210338e+01 -2.814329963433e+02 0.0 
0.0 0.0 -1.130776982555e+02 
-6.178980643479e+01 1.280358964325e+01 0.0 
1.280358964325e+01 -2.119154149149e+02 0.0 
0.0 0.0 -8.171156640490e+01 
-1.159944669705e+02 2.585934821274e+01 0.0 
2.585934821274e+01 -2.679420675233e+02 0.0 
0.0 0.0 -1.147809603481e+02 
-9.040501234976e+01 2.016088873654e+01 0.0 
2.016088873654e+01 -1.816941047312e+02 0.0 
0.0 0.0 -8.122973512428e+01 
-3.776732175491e+01 -1.374529468408e+01 0.0 
-1.374529468408e+01 -1.421447316142e+02 0.0 
0.0 0.0 -5.355974199330e+01 
-3.241394072823e+01 4.856963432917e+00 0.0 
4.856963432917e+00 -1.505131228475e+02 0.0 
0.0 0.0 -5.433390542468e+01 
-5.303935701875e+01 2.643988991903e+01 0.0 
2.643988991903e+01 -1.428724620777e+02 0.0 
0.0 0.0 -5.837354572893e+01 
-8.110841773213e+01 2.455055951821e+01 0.0 
2.455055951821e+01 -1.862678473453e+02 0.0 
0.0 0.0 -7.981287952323e+01 
-1.423443854084e+02 9.022166801564e-01 0.0 
9.022166801564e-01 -3.454628675430e+02 0.0 
0.0 0.0 -1.459421758854e+02 
-9.696771567019e+01 9.300749455960e+00 0.0 
9.300749455960e+00 -1.903442001865e+02 0.0 
0.0 0.0 -8.579357475700e+01 
-6.201428840896e+01 1.155932338940e+01 0.0 
1.155932338940e+01 -2.117378620195e+02 0.0 
0.0 0.0 -8.172564512854e+01 
-9.202816847469e+01 2.577667847811e+01 0.0 
2.577667847811e+01 -2.089759988732e+02 0.0 
0.0 0.0 -8.990125020437e+01 
-1.169186592968e+02 1.215490253554e+01 0.0 
1.215490253554e+01 -3.161657471341e+02 0.0 
0.0 0.0 -1.295253219293e+02 
-1.009253762943e+02 6.996724856698e+00 0.0 
6.996724856698e+00 -2.115622143369e+02 0.0 
0.0 0.0 -9.334627718935e+01 
-1.197715618770e+02 2.594900062975e+01 0.0 
2.594900062975e+01 -2.727332848576e+02 0.0 
0.0 0.0 -1.173514540204e+02 
-8.384347720837e+01 5.657144228415e+00 0.0 
5.657144228415e+00 -1.581813645823e+02 0.0 
0.0 0.0 -7.220745253719e+01 
-1.241731250795e+02 7.933266803620e+00 0.0 
7.933266803620e+00 -3.278436220869e+02 0.0 
0.0 0.0 -1.352050241499e+02 
-7.507439392119e+01 9.799843670699e+00 0.0 
9.799843670699e+00 -2.385101488929e+02 0.0 
0.0 0.0 -9.367536284424e+01 
-1.184833941564e+02 1.278297298715e+01 0.0 
1.278297298715e+01 -3.169165117302e+02 0.0 
0.0 0.0 -1.302199717660e+02 
-7.438124496176e+01 2.430923976618e+01 0.0 
2.430923976618e+01 -1.973736473527e+02 0.0 
0.0 0.0 -8.112646769434e+01 
-1.083872422316e+02 9.722352843904e+00 0.0 
9.722352843904e+00 -2.312536850597e+02 0.0 
0.0 0.0 -1.014922781874e+02 
-1.245208650209e+02 2.643507991531e+01 0.0 
2.643507991531e+01 -2.797141582713e+02 0.0 
0.0 0.0 -1.208705069877e+02 
-8.740221799450e+01 9.185034419127e+00 0.0 
9.185034419127e+00 -2.644328799131e+02 0.0 
0.0 0.0 -1.051505293723e+02 
-3.041131336257e+01 3.649516723321e+00 0.0 
3.649516723321e+00 -1.474311939064e+02 0.0 
0.0 0.0 -5.281753998048e+01 
-1.156365383458e+02 2.294283067928e+01 0.0 
2.294283067928e+01 -2.884241117273e+02 0.0 
0.0 0.0 -1.208181950219e+02 
-8.038971853517e+01 2.469717836758e+01 0.0 
2.469717836758e+01 -2.148388264008e+02 0.0 
0.0 0.0 -8.816856348079e+01 
-5.784255164588e+01 1.465935242015e+01 0.0 
1.465935242015e+01 -1.999974967063e+02 0.0 
0.0 0.0 -7.695201450565e+01 
-9.309681363338e+01 1.184781387803e+01 0.0 
1.184781387803e+01 -2.719134732192e+02 0.0 
0.0 0.0 -1.091030860558e+02 
-1.216755176363e+02 6.747449538650e+00 0.0 
6.747449538650e+00 -3.195798434763e+02 0.0 
0.0 0.0 -1.319766083338e+02 
-3.202566734711e+01 -2.212108557427e+00 0.0 
-2.212108557427e+00 -1.467127626268e+02 0.0 
0.0 0.0 -5.290416694524e+01 
-7.839236082767e+01 8.258704551025e+00 0.0 
8.258704551025e+00 -2.477762567921e+02 0.0 
0.0 0.0 -9.745058528593e+01 
-9.311962286810e+01 1.563520062723e+01 0.0 
1.563520062723e+01 -1.792465668612e+02 0.0 
0.0 0.0 -8.130985691878e+01 
-1.434780039871e+02 2.408923324854e+00 0.0 
2.408923324854e+00 -3.462460291747e+02 0.0 
0.0 0.0 -1.465172099486e+02 
-9.710911240807e+01 1.777214053485e+01 0.0 
1.777214053485e+01 -1.933119616989e+02 0.0 
0.0 0.0 -8.672632223209e+01 
-1.114998386952e+02 2.341913881770e+01 0.0 
2.341913881770e+01 -2.741345622631e+02 0.0 
0.0 0.0 -1.152903202875e+02 
-8.882970826680e+01 1.333404980375e+01 0.0 
1.333404980375e+01 -1.657208442697e+02 0.0 
0.0 0.0 -7.596516576095e+01 
-7.913050709417e+01 8.476395277108e+00 0.0 
8.476395277108e+00 -1.405456133131e+02 0.0 
0.0 0.0 -6.550283612217e+01 
-9.389741488819e+01 2.166629713908e+01 0.0 
2.166629713908e+01 -1.973714070960e+02 0.0 
0.0 0.0 -8.698064659526e+01 
-1.216107826303e+02 1.750205245844e+01 0.0 
1.750205245844e+01 -3.186374720783e+02 0.0 
0.0 0.0 -1.316744764126e+02 
-1.291005565230e+02 2.661182473048e+00 0.0 
2.661182473048e+00 -3.229590591985e+02 0.0 
0.0 0.0 -1.352178847164e+02 
-9.134836831491e+01 7.234772171804e+00 0.0 
7.234772171804e+00 -1.787635940489e+02 0.0 
0.0 0.0 -8.063358870914e+01 
-1.110333020931e+02 1.155086701286e+01 0.0 
1.155086701286e+01 -2.409804865308e+02 0.0 
0.0 0.0 -1.052041365872e+02 
-8.429063816082e+01 1.092910200942e+01 0.0 
1.092910200942e+01 -1.528843659511e+02 0.0 
0.0 0.0 -7.075250123357e+01 
-4.699619462829e+01 1.071977698633e+01 0.0 
1.071977698633e+01 -1.810580804362e+02 0.0 
0.0 0.0 -6.801628251934e+01 
-1.205344002985e+02 2.543509202309e+01 0.0 
2.543509202309e+01 -2.933458595433e+02 0.0 
0.0 0.0 -1.237640779525e+02 
-1.075240716744e+02 8.040873979874e+00 0.0 
8.040873979874e+00 -2.321039605245e+02 0.0 
0.0 0.0 -1.014884096597e+02 
-7.237853545721e+01 2.189816256772e+01 0.0 
2.189816256772e+01 -2.097836981627e+02 0.0 
0.0 0.0 -8.424867008597e+01 
-7.724856518370e+01 2.297365413321e+01 0.0 
2.297365413321e+01 -2.125665709606e+02 0.0 
0.0 0.0 -8.654454084328e+01 
-5.426028472989e+01 1.106529872299e+01 0.0 
1.106529872299e+01 -1.961595693291e+02 0.0 
0.0 0.0 -7.472595621770e+01 
-9.567586273995e+01 8.966495606623e+00 0.0 
8.966495606623e+00 -1.895666871996e+02 0.0 
0.0 0.0 -8.517276498185e+01 
-5.874254667368e+01 2.605684045808e+01 0.0 
2.605684045808e+01 -1.275202235733e+02 0.0 
0.0 0.0 -5.547883107409e+01 
-8.862377892441e+01 2.097910515165e+01 0.0 
2.097910515165e+01 -2.442498503540e+02 0.0 
0.0 0.0 -9.946208878353e+01 
-5.737531265481e+01 2.843229636208e+01 0.0 
2.843229636208e+01 -1.274018214021e+02 0.0 
0.0 0.0 -5.503314021708e+01 
-1.113469372712e+02 1.682424521692e+01 0.0 
1.682424521692e+01 -3.009913248782e+02 0.0 
0.0 0.0 -1.233014786448e+02 
-1.297932634833e+02 2.596666426483e+01 0.0 
2.596666426483e+01 -3.115823344588e+02 0.0 
0.0 0.0 -1.320126793826e+02 
-5.871873662794e+01 7.839094409102e+00 0.0 
7.839094409102e+00 -2.067230371596e+02 0.0 
0.0 0.0 -7.923253213625e+01 
-2.729862880359e+01 -6.227374812535e+00 0.0 
-6.227374812535e+00 -1.265029652615e+02 0.0 
0.0 0.0 -4.733432069445e+01 
-1.124520289480e+02 1.392820126902e+01 0.0 
1.392820126902e+01 -2.429443768069e+02 0.0 
0.0 0.0 -1.062189217265e+02 
-6.325778957637e+01 2.481031695887e+01 0.0 
2.481031695887e+01 -1.292224064855e+02 0.0 
0.0 0.0 -5.734405881856e+01 
-7.596545011684e+01 5.615354106013e-01 0.0 
5.615354106013e-01 -2.390278600318e+02 0.0 
0.0 0.0 -9.409799304459e+01 
-1.248844275965e+02 2.355184768994e+01 0.0 
2.355184768994e+01 -3.072436975586e+02 0.0 
0.0 0.0 -1.292384375465e+02 
-9.428705109822e+01 9.605125784375e+00 0.0 
9.605125784375e+00 -1.804176555325e+02 0.0 
0.0 0.0 -8.201141198922e+01 
-1.240242468500e+02 2.718949009892e+00 0.0 
2.718949009892e+00 -3.152452040771e+02 0.0 
0.0 0.0 -1.313808352781e+02 
-5.847484492859e+01 2.053721040204e+01 0.0 
2.053721040204e+01 -1.896490063550e+02 0.0 
0.0 0.0 -7.403715538509e+01 
-2.587898222019e+01 -3.393461956563e+00 0.0 
-3.393461956563e+00 -1.243974254132e+02 0.0 
0.0 0.0 -4.720144011635e+01 
-1.481429171733e+02 2.297731454826e+00 0.0 
2.297731454826e+00 -3.552996948857e+02 0.0 
0.0 0.0 -1.506327836177e+02 
-8.402040803177e+01 2.446491279901e+01 0.0 
2.446491279901e+01 -2.025196076146e+02 0.0 
0.0 0.0 -8.556200469392e+01 
-1.017912600322e+02 2.028364970441e+01 0.0 
2.028364970441e+01 -2.758676762975e+02 0.0 
0.0 0.0 -1.128976808989e+02 
-1.199532582539e+02 2.449943453622e+01 0.0 
2.449943453622e+01 -2.830098273766e+02 0.0 
0.0 0.0 -1.204889256892e+02 
-4.060558083963e+01 -7.867667667601e-01 0.0 
-7.867667667601e-01 -1.239861020667e+02 0.0 
0.0 0.0 -5.123097909660e+01 
-1.216997605504e+02 1.482454135997e+00 0.0 
1.482454135997e+00 -3.139864171242e+02 0.0 
0.0 0.0 -1.303058533024e+02 
-3.926616264043e+01 2.294567392043e+01 0.0 
2.294567392043e+01 -1.394319310704e+02 0.0 
0.0 0.0 -5.320942811325e+01 
-8.703902149928e+01 8.095434499413e+00 0.0 
8.095434499413e+00 -1.599366492651e+02 0.0 
0.0 0.0 -7.369270122931e+01 
-9.871828235937e+01 -1.983512555781e+00 0.0 
-1.983512555781e+00 -2.547666261689e+02 0.0 
0.0 0.0 -1.056454725585e+02 
-5.768758302861e+01 9.445988375894e+00 0.0 
9.445988375894e+00 -2.066685204672e+02 0.0 
0.0 0.0 -7.890683104876e+01 
-1.387712031058e+02 2.491375182500e+00 0.0 
2.491375182500e+00 -3.382904029081e+02 0.0 
0.0 0.0 -1.427184818042e+02 
-8.526283589951e+01 2.243809385529e+01 0.0 
2.243809385529e+01 -2.302048810157e+02 0.0 
0.0 0.0 -9.424031507458e+01 
-5.033997046836e+01 9.129502271870e+00 0.0 
9.129502271870e+00 -1.917449541493e+02 0.0 
0.0 0.0 -7.222547738529e+01 
-8.721382433073e+01 2.613653393272e+01 0.0 
2.613653393272e+01 -2.053711044866e+02 0.0 
0.0 0.0 -8.737547864519e+01 
-3.210476408341e+01 -1.905639419952e+01 0.0 
-1.905639419952e+01 -1.214128847116e+02 0.0 
0.0 0.0 -4.716364127166e+01 
-1.035055177406e+02 2.562374036287e+01 0.0 
2.562374036287e+01 -2.443228104513e+02 0.0 
0.0 0.0 -1.039484984576e+02 
-1.119930113722e+02 1.755710901642e+01 0.0 
1.755710901642e+01 -3.014223618680e+02 0.0 
0.0 0.0 -1.236246119721e+02 
-1.256481575456e+02 2.529112704769e+01 0.0 
2.529112704769e+01 -2.821343837873e+02 0.0 
0.0 0.0 -1.219347623998e+02 
-1.119168642424e+02 2.576613734873e+01 0.0 
2.576613734873e+01 -2.638702559200e+02 0.0 
0.0 0.0 -1.123361360487e+02 
-3.781101919259e+01 5.347241014141e+00 0.0 
5.347241014141e+00 -1.633863278839e+02 0.0 
0.0 0.0 -5.995920412295e+01 
-1.247534130685e+02 1.610792832195e+00 0.0 
1.610792832195e+00 -3.118749155796e+02 0.0 
0.0 0.0 -1.305884985945e+02 
-1.089198394917e+02 7.401266088400e+00 0.0 
7.401266088400e+00 -2.404977788589e+02 0.0 
0.0 0.0 -1.044252855052e+02 
-1.435961900057e+02 2.355210886809e+01 0.0 
2.355210886809e+01 -3.480350712932e+02 0.0 
0.0 0.0 -1.470893783896e+02 
-1.169707085246e+02 1.962500124232e+01 0.0 
1.962500124232e+01 -3.070937992645e+02 0.0 
0.0 0.0 -1.268193523367e+02 
-6.184971218551e+01 1.767787564529e+01 0.0 
1.767787564529e+01 -2.033125093749e+02 0.0 
0.0 0.0 -7.914866646813e+01 
-9.525560967075e+01 2.577284399737e+01 0.0 
2.577284399737e+01 -2.247885679529e+02 0.0 
0.0 0.0 -9.561325328709e+01 
-1.418936742285e+02 1.930066492513e-01 0.0 
1.930066492513e-01 -3.420292616229e+02 0.0 
0.0 0.0 -1.447768807554e+02 
-9.457418213994e+01 -2.405775195186e-01 0.0 
-2.405775195186e-01 -2.314549294182e+02 0.0 
0.0 0.0 -9.740873346743e+01 
-1.076971254250e+02 2.365461478924e+01 0.0 
2.365461478924e+01 -2.593845695848e+02 0.0 
0.0 0.0 -1.097245085029e+02 
-8.686478912280e+01 5.567517367341e+00 0.0 
5.567517367341e+00 -1.682046840421e+02 0.0 
0.0 0.0 -7.612084194947e+01 
-1.340061708652e+02 2.590599947415e+00 0.0 
2.590599947415e+00 -3.305887197569e+02 0.0 
0.0 0.0 -1.389784671866e+02 
-1.283390436651e+02 4.121614008472e+00 0.0 
4.121614008472e+00 -3.259102396037e+02 0.0 
0.0 0.0 -1.358747849806e+02 
-4.878761890026e+01 8.275139189757e-02 0.0 
8.275139189757e-02 -8.639489592274e+01 0.0 
0.0 0.0 -4.015475444690e+01 
-4.866565151950e+01 -1.205342958711e-01 0.0 
-1.205342958711e-01 -8.636757054606e+01 0.0 
0.0 0.0 -4.010996661967e+01 
-9.843530016435e+01 1.779026341640e+01 0.0 
1.779026341640e+01 -1.885408723067e+02 0.0 
0.0 0.0 -8.569285174131e+01 
-9.967611418738e+01 2.369007296602e+01 0.0 
2.369007296602e+01 -2.403544220340e+02 0.0 
0.0 0.0 -1.016091608664e+02 
-1.032482496427e+02 -1.391201284101e+00 0.0 
-1.391201284101e+00 -2.622346977450e+02 0.0 
0.0 0.0 -1.092448842163e+02 
-9.787279054294e+01 2.345577420531e+01 0.0 
2.345577420531e+01 -2.029960855181e+02 0.0 
0.0 0.0 -8.986066281831e+01 
-8.033238857279e+01 2.134474817915e+01 0.0 
2.134474817915e+01 -2.269097908334e+02 0.0 
0.0 0.0 -9.177265382185e+01 
-1.334231717711e+02 1.222195233554e+01 0.0 
1.222195233554e+01 -3.426200493413e+02 0.0 
0.0 0.0 -1.424129663337e+02 
-6.297748956796e+01 1.840438415583e+01 0.0 
1.840438415583e+01 -2.039461983347e+02 0.0 
0.0 0.0 -7.967710637081e+01 
-1.222481060969e+02 1.347443207572e+01 0.0 
1.347443207572e+01 -2.785654370305e+02 0.0 
0.0 0.0 -1.198440629382e+02 
-7.165819526097e+01 7.045306688838e+00 0.0 
7.045306688838e+00 -1.204865373981e+02 0.0 
0.0 0.0 -5.724341979773e+01 
-7.552152789929e+01 2.363743831752e+01 0.0 
2.363743831752e+01 -2.119797787518e+02 0.0 
0.0 0.0 -8.585039199532e+01 
-9.591938154910e+01 -3.473312237994e+00 0.0 
-3.473312237994e+00 -2.532378181790e+02 0.0 
0.0 0.0 -1.043471599184e+02 
-3.422270894062e+01 1.089367404266e+01 0.0 
1.089367404266e+01 -1.524990452947e+02 0.0 
0.0 0.0 -5.561652627058e+01 
-8.620900463269e+01 -4.088785913097e+00 0.0 
-4.088785913097e+00 -2.281769280568e+02 0.0 
0.0 0.0 -9.391577980684e+01 
-9.176186117678e+01 2.398309846217e+01 0.0 
2.398309846217e+01 -2.213959780743e+02 0.0 
0.0 0.0 -9.354735177531e+01 
-8.561318527457e+01 2.377364091486e+01 0.0 
2.377364091486e+01 -1.893613638983e+02 0.0 
0.0 0.0 -8.209236475187e+01 
-8.854385015509e+01 7.446766257218e+00 0.0 
7.446766257218e+00 -1.689617892400e+02 0.0 
0.0 0.0 -7.685169181854e+01 
-1.010828937091e+02 2.191812830107e+01 0.0 
2.191812830107e+01 -2.176659348546e+02 0.0 
0.0 0.0 -9.522464856911e+01 
-1.051537651690e+02 2.373954330267e+01 0.0 
2.373954330267e+01 -2.234409464897e+02 0.0 
0.0 0.0 -9.817841349762e+01 
-2.083904402210e+01 -2.564271980316e-01 0.0 
-2.564271980316e-01 -5.927168605104e+01 0.0 
0.0 0.0 -2.363321902194e+01 
-7.999689452636e+01 -6.174529097360e+00 0.0 
-6.174529097360e+00 -2.142997605360e+02 0.0 
0.0 0.0 -8.788899651872e+01 
-6.174321594432e+01 2.774482966918e+01 0.0 
2.774482966918e+01 -1.290670606922e+02 0.0 
0.0 0.0 -5.684308299097e+01 
-9.386159311125e+01 1.888909944985e+01 0.0 
1.888909944985e+01 -1.871227982761e+02 0.0 
0.0 0.0 -8.389531741621e+01 
-9.853548969346e+01 2.085332308624e+01 0.0 
2.085332308624e+01 -1.947900577682e+02 0.0 
0.0 0.0 -8.759766423849e+01 
-1.269290857428e+02 1.634894326106e+01 0.0 
1.634894326106e+01 -3.294397653057e+02 0.0 
0.0 0.0 -1.365106553146e+02 
-3.512379458071e+01 -1.173559802176e+00 0.0 
-1.173559802176e+00 -8.957289648975e+01 0.0 
0.0 0.0 -3.700900732114e+01 
-3.275411786830e+01 -9.802575283930e+00 0.0 
-9.802575283930e+00 -1.398109394959e+02 0.0 
0.0 0.0 -5.178617050898e+01 
-7.922863455635e+01 2.456247889469e+01 0.0 
2.456247889469e+01 -1.998192133582e+02 0.0 
0.0 0.0 -8.331435437436e+01 
-8.290043730048e+01 -4.530994053712e+00 0.0 
-4.530994053712e+00 -2.158854983211e+02 0.0 
0.0 0.0 -8.923578068647e+01 
-5.330235271435e+01 7.545813163938e+00 0.0 
7.545813163938e+00 -7.337592105796e+01 0.0 
0.0 0.0 -3.760348213169e+01 
-5.698826274031e+01 6.647383935797e+00 0.0 
6.647383935797e+00 -8.289499596545e+01 0.0 
0.0 0.0 -4.156497761173e+01 
-9.155062610379e+01 9.955287591619e+00 0.0 
9.955287591619e+00 -1.706628362633e+02 0.0 
0.0 0.0 -7.826403871011e+01 
-3.062255674237e+01 2.319105313625e+01 0.0 
2.319105313625e+01 -1.078803110799e+02 0.0 
0.0 0.0 -4.104790582981e+01 
-9.253004052189e+01 -4.130038216180e+00 0.0 
-4.130038216180e+00 -2.414771540609e+02 0.0 
0.0 0.0 -9.980215837485e+01 
-1.140562748459e+02 1.046560725198e+01 0.0 
1.046560725198e+01 -3.093791472525e+02 0.0 
0.0 0.0 -1.266306266295e+02 
-2.891144688384e+01 -3.594247013247e+00 0.0 
-3.594247013247e+00 -1.398507444735e+02 0.0 
0.0 0.0 -5.133355469570e+01 
-1.369069287079e+02 2.664397759821e+01 0.0 
2.664397759821e+01 -3.222707040730e+02 0.0 
0.0 0.0 -1.373532898343e+02 
-1.058533626325e+02 1.008276243568e+01 0.0 
1.008276243568e+01 -2.206311497869e+02 0.0 
0.0 0.0 -9.754535372584e+01 
-9.129366226621e+01 -2.734144949717e+00 0.0 
-2.734144949717e+00 -2.308670794085e+02 0.0 
0.0 0.0 -9.624822250241e+01 
-1.277740488941e+02 2.489849776344e-01 0.0 
2.489849776344e-01 -3.184747903106e+02 0.0 
0.0 0.0 -1.334746517614e+02 
-1.458120630486e+01 -9.051237602242e-01 0.0 
-9.051237602242e-01 -4.248629190622e+01 0.0 
0.0 0.0 -1.672024946332e+01 
-1.098265804493e+02 8.087694199382e+00 0.0 
8.087694199382e+00 -3.012193084851e+02 0.0 
0.0 0.0 -1.229137666803e+02 
-8.225847539420e+01 2.620267897000e+01 0.0 
2.620267897000e+01 -2.021359002247e+02 0.0 
0.0 0.0 -8.491831268568e+01 
-1.423321512836e+01 -7.480340034922e-01 0.0 
-7.480340034922e-01 -4.237035001848e+01 0.0 
0.0 0.0 -1.658106954405e+01 
-1.033426569460e+02 8.156004367307e+00 0.0 
8.156004367307e+00 -2.193139113807e+02 0.0 
0.0 0.0 -9.639697049799e+01 
-2.888510710907e+01 -3.709662439753e+00 0.0 
-3.709662439753e+00 -1.354392414849e+02 0.0 
0.0 0.0 -5.009117877963e+01 
-9.462793345126e+01 2.200114414267e+01 0.0 
2.200114414267e+01 -1.881284899232e+02 0.0 
0.0 0.0 -8.442692701234e+01 
-8.424934009806e+01 2.617023433106e+01 0.0 
2.617023433106e+01 -1.892439931832e+02 0.0 
0.0 0.0 -8.164799998438e+01 
-7.413116312364e+01 1.425751549560e+00 0.0 
1.425751549560e+00 -2.328667135230e+02 0.0 
0.0 0.0 -9.169936299400e+01 
-9.547053610449e+01 7.300074096585e-01 0.0 
7.300074096585e-01 -2.718769232932e+02 0.0 
0.0 0.0 -1.098042378193e+02 
-1.070502851886e+02 9.758417291353e+00 0.0 
9.758417291353e+00 -2.297030744596e+02 0.0 
0.0 0.0 -1.006260078945e+02 
-1.048507797963e+02 2.334370103623e+00 0.0 
2.334370103623e+00 -2.901426788861e+02 0.0 
0.0 0.0 -1.180980376047e+02 
-8.215481023314e+01 2.364263104754e+01 0.0 
2.364263104754e+01 -2.153582310404e+02 0.0 
0.0 0.0 -8.885391238207e+01 
-7.729056470154e+01 2.593118776681e+01 0.0 
2.593118776681e+01 -1.992859721548e+02 0.0 
0.0 0.0 -8.257296105690e+01 
-4.016437296339e+01 2.929057352956e+01 0.0 
2.929057352956e+01 -2.874351711026e+01 0.0 
0.0 0.0 -2.014084661070e+01 
-2.642435694081e+01 -3.909223716104e+00 0.0 
-3.909223716104e+00 -1.303062214226e+02 0.0 
0.0 0.0 -4.834884711203e+01 
-1.159060336502e+02 2.564407021843e+01 0.0 
2.564407021843e+01 -2.786614085571e+02 0.0 
0.0 0.0 -1.179702326622e+02 
-8.563952701006e+01 1.114607511021e+01 0.0 
1.114607511021e+01 -1.517263661172e+02 0.0 
0.0 0.0 -7.080976793817e+01 
-1.198204473936e+02 2.397883900091e+01 0.0 
2.397883900091e+01 -2.926657972817e+02 0.0 
0.0 0.0 -1.233458734026e+02 
-4.205104602910e+01 2.417337082505e+01 0.0 
2.417337082505e+01 -1.408786648051e+02 0.0 
0.0 0.0 -5.447891325028e+01 
-1.055269444143e+02 1.537125181598e+01 0.0 
1.537125181598e+01 -2.164435015180e+02 0.0 
0.0 0.0 -9.619113377968e+01 
-1.203848060111e+02 2.627235223226e+01 0.0 
2.627235223226e+01 -2.833789125110e+02 0.0 
0.0 0.0 -1.207291155566e+02 
-5.950780818966e+01 5.574274466770e+00 0.0 
5.574274466770e+00 -9.082433490177e+01 0.0 
0.0 0.0 -4.469964292743e+01 
-1.158183996158e+02 2.392306398949e+01 0.0 
2.392306398949e+01 -2.781945473783e+02 0.0 
0.0 0.0 -1.178038840982e+02 
-1.295239586910e+02 1.693501696537e+00 0.0 
1.693501696537e+00 -3.195430835929e+02 0.0 
0.0 0.0 -1.343201126852e+02 
-9.496102670343e+01 2.352036586294e+01 0.0 
2.352036586294e+01 -2.367352496729e+02 0.0 
0.0 0.0 -9.910888291290e+01 
-8.776976750745e+01 -4.830675961855e+00 0.0 
-4.830675961855e+00 -2.338761341238e+02 0.0 
0.0 0.0 -9.609377048937e+01 
-9.409452895666e+01 -2.614825008640e+00 0.0 
-2.614825008640e+00 -2.474006675974e+02 0.0 
0.0 0.0 -1.020485589662e+02 
-1.157199531706e+02 1.643366238025e+01 0.0 
1.643366238025e+01 -2.453804777173e+02 0.0 
0.0 0.0 -1.079301292664e+02 
-8.662917329215e+01 -9.878797195663e-01 0.0 
-9.878797195663e-01 -2.538044391363e+02 0.0 
0.0 0.0 -1.017300837285e+02 
-8.868425214643e+01 2.409032126394e+01 0.0 
2.409032126394e+01 -2.055956307461e+02 0.0 
0.0 0.0 -8.788396486776e+01 
-7.899291650020e+01 1.781993297710e+01 0.0 
1.781993297710e+01 -2.367906395889e+02 0.0 
0.0 0.0 -9.433506682672e+01 
-1.148171375309e+02 3.838896773290e+00 0.0 
3.838896773290e+00 -3.085439913690e+02 0.0 
0.0 0.0 -1.266083386700e+02 
-7.074129591877e+01 2.212212669325e+01 0.0 
2.212212669325e+01 -2.091359280251e+02 0.0 
0.0 0.0 -8.356316718316e+01 
-4.029941436923e+01 4.191371971757e+00 0.0 
4.191371971757e+00 -1.719284540413e+02 0.0 
0.0 0.0 -6.326836052316e+01 
-8.320516877309e+01 6.392079039430e+00 0.0 
6.392079039430e+00 -2.567600785300e+02 0.0 
0.0 0.0 -1.015895741909e+02 
-4.362919987894e+01 9.019145348571e+00 0.0 
9.019145348571e+00 -1.775228657686e+02 0.0 
0.0 0.0 -6.594561969427e+01 
-9.752068615466e+01 2.061589287318e+01 0.0 
2.061589287318e+01 -2.022669011032e+02 0.0 
0.0 0.0 -8.953627617736e+01 
-4.428876511067e+01 6.054319769546e+00 0.0 
6.054319769546e+00 -1.771426596115e+02 0.0 
0.0 0.0 -6.602942741666e+01 
-9.361835693008e+01 2.451033783655e+01 0.0 
2.451033783655e+01 -1.978056736669e+02 0.0 
0.0 0.0 -8.702720917911e+01 
-1.224099485539e+02 1.844545912202e+01 0.0 
1.844545912202e+01 -3.191839842983e+02 0.0 
0.0 0.0 -1.320781798557e+02 
-1.164661267570e+02 1.551426081910e+01 0.0 
1.551426081910e+01 -3.123846336950e+02 0.0 
0.0 0.0 -1.282552281356e+02 
-6.760260645233e+01 2.039564058973e+01 0.0 
2.039564058973e+01 -2.069586415454e+02 0.0 
0.0 0.0 -8.196837439931e+01 
-8.564166690798e+01 7.666831954333e+00 0.0 
7.666831954333e+00 -1.593874444262e+02 0.0 
0.0 0.0 -7.310873340026e+01 
-1.327396261907e+02 2.546005039335e-01 0.0 
2.546005039335e-01 -3.263479938092e+02 0.0 
0.0 0.0 -1.373262860000e+02 
-1.341593460700e+02 1.732797928111e+00 0.0 
1.732797928111e+00 -3.272890748997e+02 0.0 
0.0 0.0 -1.380345262909e+02 
-3.347385881966e+01 2.583627812487e+01 0.0 
2.583627812487e+01 -9.116513300406e+01 0.0 
0.0 0.0 -3.647446553355e+01 
-9.719923101976e+01 2.272727903365e+01 0.0 
2.272727903365e+01 -2.130028688760e+02 0.0 
0.0 0.0 -9.266062996874e+01 
-1.476346145861e+02 5.304283907252e-01 0.0 
5.304283907252e-01 -3.545100557868e+02 0.0 
0.0 0.0 -1.502434011119e+02 
-4.430899647632e+01 2.200588762628e+01 0.0 
2.200588762628e+01 -6.841873696464e+01 0.0 
0.0 0.0 -3.341832003229e+01 
-9.933107121252e+01 -1.794345188960e+00 0.0 
-1.794345188960e+00 -2.503721275024e+02 0.0 
0.0 0.0 -1.045109596145e+02 
-4.319064496354e+01 2.910248781805e+01 0.0 
2.910248781805e+01 -2.929448350300e+01 0.0 
0.0 0.0 -2.059568175017e+01 
-1.375309223186e+02 2.301500488882e-01 0.0 
2.301500488882e-01 -3.342740660962e+02 0.0 
0.0 0.0 -1.411414965244e+02 
-3.770033227235e+01 9.236335044622e+00 0.0 
9.236335044622e+00 -1.641991494780e+02 0.0 
0.0 0.0 -6.016984452512e+01 
-9.703325147688e+01 -1.430061663992e+00 0.0 
-1.430061663992e+00 -2.372733629507e+02 0.0 
0.0 0.0 -9.989198432829e+01 
-1.015618293001e+02 1.946183239576e+01 0.0 
1.946183239576e+01 -2.756296144333e+02 0.0 
0.0 0.0 -1.127574331200e+02 
-8.885549644038e+01 1.037500737504e+01 0.0 
1.037500737504e+01 -1.612570224716e+02 0.0 
0.0 0.0 -7.463375567359e+01 
-8.312351845114e+01 8.185068074675e+00 0.0 
8.185068074675e+00 -1.501049549145e+02 0.0 
0.0 0.0 -6.956854200970e+01 
-8.700750514849e+01 2.396702457767e+01 0.0 
2.396702457767e+01 -2.182514732088e+02 0.0 
0.0 0.0 -9.117769350718e+01 
-4.613668165102e+01 9.580576782715e+00 0.0 
9.580576782715e+00 -5.478164037075e+01 0.0 
0.0 0.0 -2.987549660653e+01 
-4.963176090344e+01 8.261856060698e+00 0.0 
8.261856060698e+00 -6.404622554446e+01 0.0 
0.0 0.0 -3.370339593437e+01 
-1.385802686743e+02 1.684295451594e+00 0.0 
1.684295451594e+00 -3.350599737711e+02 0.0 
0.0 0.0 -1.416920727336e+02 
-1.022370755463e+02 3.541740585910e+00 0.0 
3.541740585910e+00 -2.832597314076e+02 0.0 
0.0 0.0 -1.152490420862e+02 
-8.231697101816e+01 3.226599932711e+00 0.0 
3.226599932711e+00 -2.494805513994e+02 0.0 
0.0 0.0 -9.913925672527e+01 
-1.074656128131e+02 7.504541501912e+00 0.0 
7.504541501912e+00 -3.001109787486e+02 0.0 
0.0 0.0 -1.218729774685e+02 
-7.443585463039e+01 5.201521668920e+00 0.0 
5.201521668920e+00 -2.401691457192e+02 0.0 
0.0 0.0 -9.398150010488e+01 
-4.028069975105e+01 1.060127446697e+01 0.0 
1.060127446697e+01 -1.665065451263e+02 0.0 
0.0 0.0 -6.163617346321e+01 
-4.099750741673e+01 4.442497133540e+00 0.0 
4.442497133540e+00 -5.094759218001e+01 0.0 
0.0 0.0 -2.718352987902e+01 
-7.750212448620e+01 9.343663685444e+00 0.0 
9.343663685444e+00 -1.312731953937e+02 0.0 
0.0 0.0 -6.223259596397e+01 
-4.892067209192e+01 -1.303693894726e-02 0.0 
-1.303693894726e-02 -8.660175748964e+01 0.0 
0.0 0.0 -4.025672887447e+01 
-1.174052987570e+02 1.627408182499e+01 0.0 
1.627408182499e+01 -3.129373642348e+02 0.0 
0.0 0.0 -1.287027988975e+02 
-6.617199020515e+01 2.014397837776e+01 0.0 
2.014397837776e+01 -2.062994465926e+02 0.0 
0.0 0.0 -8.134143103933e+01 
-1.372593460137e+02 2.043399506248e+01 0.0 
2.043399506248e+01 -3.421147120112e+02 0.0 
0.0 0.0 -1.434122174075e+02 
-1.372306247587e+02 -7.500926190321e-01 0.0 
-7.500926190321e-01 -3.291371365026e+02 0.0 
0.0 0.0 -1.395103283784e+02 
-8.019193418074e+01 7.794736472116e+00 0.0 
7.794736472116e+00 -2.484336494169e+02 0.0 
0.0 0.0 -9.818767507928e+01 
-1.533568848624e+02 2.883762208376e+00 0.0 
2.883762208376e+00 -3.658473955986e+02 0.0 
0.0 0.0 -1.553612841383e+02 
-4.901420020590e+01 2.303545516788e+00 0.0 
2.303545516788e+00 -1.861785319753e+02 0.0 
0.0 0.0 -7.015781965435e+01 
-1.311923998642e+02 2.124132738835e+01 0.0 
2.124132738835e+01 -3.294216825193e+02 0.0 
0.0 0.0 -1.377842247151e+02 
-8.535790406556e+01 2.537561280085e+01 0.0 
2.537561280085e+01 -2.178556533224e+02 0.0 
0.0 0.0 -9.056406721639e+01 
-9.835132708950e+01 2.277368155884e+01 0.0 
2.277368155884e+01 -2.515115211722e+02 0.0 
0.0 0.0 -1.045588544785e+02 
-1.307045009982e+02 1.089424687512e+01 0.0 
1.089424687512e+01 -3.370028376498e+02 0.0 
0.0 0.0 -1.399122015944e+02 
-6.767108567150e+01 -8.148541337830e+00 0.0 
-8.148541337830e+00 -1.827541985587e+02 0.0 
0.0 0.0 -7.472758526906e+01 
-9.308536843103e+01 2.350673297376e+01 0.0 
2.350673297376e+01 -2.090559471249e+02 0.0 
0.0 0.0 -9.024239466677e+01 
-7.694602410511e+01 4.610386184702e+00 0.0 
4.610386184702e+00 -2.411040610368e+02 0.0 
0.0 0.0 -9.501502554257e+01 
-8.899361504591e+01 2.542980888955e+01 0.0 
2.542980888955e+01 -1.931338393837e+02 0.0 
0.0 0.0 -8.423823632888e+01 
-4.287045382127e+01 2.484164353746e+01 0.0 
2.484164353746e+01 -1.395825604574e+02 0.0 
0.0 0.0 -5.433590428359e+01 
-1.019353543196e+02 2.188867261998e+01 0.0 
2.188867261998e+01 -2.657333822734e+02 0.0 
0.0 0.0 -1.099006209779e+02 
-7.089762244548e+01 1.999496142250e+00 0.0 
1.999496142250e+00 -2.316291822071e+02 0.0 
0.0 0.0 -9.035804139578e+01 
-1.007959374601e+02 -2.946464182997e+00 0.0 
-2.946464182997e+00 -2.608277648144e+02 0.0 
0.0 0.0 -1.080871106823e+02 
-8.989126732240e+01 2.276371606535e+01 0.0 
2.276371606535e+01 -1.930054474892e+02 0.0 
0.0 0.0 -8.446901444348e+01 
-4.434725694613e+01 3.605469276253e+01 0.0 
3.605469276253e+01 -5.646885278927e+01 0.0 
0.0 0.0 -2.997190333765e+01 
-8.770089652317e+01 1.775275406717e+01 0.0 
1.775275406717e+01 -2.538428520897e+02 0.0 
0.0 0.0 -1.020631245839e+02 
-4.008486854028e+01 2.965531619723e+01 0.0 
2.965531619723e+01 -4.941161292274e+01 0.0 
0.0 0.0 -2.492317005361e+01 
-2.637350988373e+01 -3.768838380782e+00 0.0 
-3.768838380782e+00 -6.398095908441e+01 0.0 
0.0 0.0 -2.670634069044e+01 
-9.713029648770e+01 -3.462686808124e+00 0.0 
-3.462686808124e+00 -2.490239825510e+02 0.0 
0.0 0.0 -1.034462837116e+02 
-1.123603371298e+02 2.549974449847e+01 0.0 
2.549974449847e+01 -2.533669763961e+02 0.0 
0.0 0.0 -1.093181940578e+02 
-8.739009664035e+01 1.023969707967e+01 0.0 
1.023969707967e+01 -1.613266426082e+02 0.0 
0.0 0.0 -7.421502177456e+01 
-4.033038172634e+01 1.361151564377e+01 0.0 
1.361151564377e+01 -3.782596003570e+01 0.0 
0.0 0.0 -2.304690252861e+01 
-1.186311460168e+02 1.360012589988e+01 0.0 
1.360012589988e+01 -2.781393407059e+02 0.0 
0.0 0.0 -1.186311460168e+02 
-4.200730168154e+01 3.144877556977e+01 0.0 
3.144877556977e+01 -2.893182777326e+01 0.0 
0.0 0.0 -2.160251907048e+01 
-4.258431661325e+01 1.104952447662e+01 0.0 
1.104952447662e+01 -4.573211742664e+01 0.0 
0.0 0.0 -2.609493021197e+01 
-8.455776825894e+01 2.186198429997e+00 0.0 
2.186198429997e+00 -2.561089004051e+02 0.0 
0.0 0.0 -1.018000005992e+02 
-9.539253237502e+01 -1.935371940169e+00 0.0 
-1.935371940169e+00 -2.385577219645e+02 0.0 
0.0 0.0 -9.978507630185e+01 
-6.090490400528e+01 1.633949995855e+01 0.0 
1.633949995855e+01 -8.868176865845e+01 0.0 
0.0 0.0 -4.447600179912e+01 
-5.309371989719e+01 -5.015805618162e+00 0.0 
-5.015805618162e+00 -1.893837827108e+02 0.0 
0.0 0.0 -7.234325078239e+01 
-9.326831741051e+01 1.719617516958e+00 0.0 
1.719617516958e+00 -2.653764512385e+02 0.0 
0.0 0.0 -1.071934305947e+02 
-9.035839425811e+01 2.572921713386e+01 0.0 
2.572921713386e+01 -2.211755204332e+02 0.0 
0.0 0.0 -9.306017440740e+01 
-9.684231662714e+01 1.792106178874e+01 0.0 
1.792106178874e+01 -2.712568385207e+02 0.0 
0.0 0.0 -1.100297465444e+02 
-1.137686716603e+02 2.127161182082e+01 0.0 
2.127161182082e+01 -2.489433972007e+02 0.0 
0.0 0.0 -1.084136206583e+02 
-3.497795977281e+01 2.760543100417e+01 0.0 
2.760543100417e+01 -1.160621001264e+02 0.0 
0.0 0.0 -4.551364139644e+01 
-8.905750584056e+01 -4.496328158551e+00 0.0 
-4.496328158551e+00 -2.295294093109e+02 0.0 
0.0 0.0 -9.517607454543e+01 
-9.785776099001e+01 -3.046587608766e+00 0.0 
-3.046587608766e+00 -2.453213773180e+02 0.0 
0.0 0.0 -1.025537414924e+02 
-5.412090573632e+01 -7.856350042496e+00 0.0 
-7.856350042496e+00 -1.347059740485e+02 0.0 
0.0 0.0 -5.624806393546e+01 
-6.295574990937e+01 4.948314146333e+00 0.0 
4.948314146333e+00 -1.000437672399e+02 0.0 
0.0 0.0 -4.849985514477e+01 
-9.010126711597e+01 1.328080897510e+01 0.0 
1.328080897510e+01 -1.630880451198e+02 0.0 
0.0 0.0 -7.555679367072e+01 
-1.245719811583e+02 7.968249642612e-01 0.0 
7.968249642612e-01 -3.003257431263e+02 0.0 
0.0 0.0 -1.270693172854e+02 
-1.322405591379e+01 -8.998855420259e-01 0.0 
-8.998855420259e-01 -4.249514567590e+01 0.0 
0.0 0.0 -1.631576047691e+01 
-5.036736969207e+01 -7.304608286111e+00 0.0 
-7.304608286111e+00 -1.183127060012e+02 0.0 
0.0 0.0 -5.198241401678e+01 
-3.997622316939e+01 -7.067117091274e+00 0.0 
-7.067117091274e+00 -9.276364318608e+01 0.0 
0.0 0.0 -3.942195990664e+01 
-9.945351412083e+01 -1.235632434565e+00 0.0 
-1.235632434565e+00 -2.464204964680e+02 0.0 
0.0 0.0 -1.033622031767e+02 
-5.607064702071e+01 3.737027962443e+00 0.0 
3.737027962443e+00 -2.009088761508e+02 0.0 
0.0 0.0 -7.669385695146e+01 
-5.281904252780e+01 -4.872386488920e+00 0.0 
-4.872386488920e+00 -1.855509108911e+02 0.0 
0.0 0.0 -7.111098602567e+01 
-4.247716092597e+01 7.675834191746e-01 0.0 
7.675834191746e-01 -1.721187444791e+02 0.0 
0.0 0.0 -6.397877162152e+01 
-1.016703580727e+02 -2.856005591960e+00 0.0 
-2.856005591960e+00 -2.567949224855e+02 0.0 
0.0 0.0 -1.071395841675e+02 
-9.600304899716e+01 1.463189098028e+01 0.0 
1.463189098028e+01 -1.866346354465e+02 0.0 
0.0 0.0 -8.439130533308e+01 
-1.021483156125e+02 -2.442888061512e+00 0.0 
-2.442888061512e+00 -2.534283184052e+02 0.0 
0.0 0.0 -1.062729902053e+02 
-5.401395972542e+01 5.649174197124e+00 0.0 
5.649174197124e+00 -2.004863152179e+02 0.0 
0.0 0.0 -7.595008248300e+01 
-9.675566275572e+01 2.526426482252e+01 0.0 
2.526426482252e+01 -2.132868077559e+02 0.0 
0.0 0.0 -9.261274115349e+01 
-6.626106898614e+01 1.829100095899e+00 0.0 
1.829100095899e+00 -1.178262857382e+02 0.0 
0.0 0.0 -5.482620641730e+01 
-1.114132573463e+02 1.975354823955e+01 0.0 
1.975354823955e+01 -2.938911883027e+02 0.0 
0.0 0.0 -1.211913336947e+02 
-1.034712218484e+02 -6.159406681797e-01 0.0 
-6.159406681797e-01 -2.544254336333e+02 0.0 
0.0 0.0 -1.069689966445e+02 
-1.035420255872e+02 -1.151545604322e+00 0.0 
-1.151545604322e+00 -2.580134016383e+02 0.0 
0.0 0.0 -1.080666281676e+02 
-3.660218190283e+01 1.916494600752e+01 0.0 
1.916494600752e+01 -2.428090723729e+01 0.0 
0.0 0.0 -1.786492674204e+01 
-6.115659857016e+01 1.261067663826e+00 0.0 
1.261067663826e+00 -2.091024408278e+02 0.0 
0.0 0.0 -8.067771181940e+01 
-1.063555486612e+02 -1.902317157032e+00 0.0 
-1.902317157032e+00 -2.615503929280e+02 0.0 
0.0 0.0 -1.099717824768e+02 
-7.723097154540e+01 -4.312923094720e-01 0.0 
-4.312923094720e-01 -1.578286794725e+02 0.0 
0.0 0.0 -7.011789530536e+01 
-7.017313418335e+01 -5.539154154578e-01 0.0 
-5.539154154578e-01 -1.395232611268e+02 0.0 
0.0 0.0 -6.250891859306e+01 
-3.822399389190e+01 1.605776154780e+01 0.0 
1.605776154780e+01 -3.047908825828e+01 0.0 
0.0 0.0 -2.021092464505e+01 
-1.061501681145e+02 -2.321513436008e+00 0.0 
-2.321513436008e+00 -2.647526309611e+02 0.0 
0.0 0.0 -1.108708397227e+02 
-5.688736656969e+01 -9.205632496140e+00 0.0 
-9.205632496140e+00 -1.799392603269e+02 0.0 
0.0 0.0 -7.064798806898e+01 
-3.834189961583e+01 2.941323757528e+01 0.0 
2.941323757528e+01 -6.898355931000e+01 0.0 
0.0 0.0 -2.996981403697e+01 
-1.325533152744e+02 2.237840270778e+01 0.0 
2.237840270778e+01 -3.303596963441e+02 0.0 
0.0 0.0 -1.384739034855e+02 
-4.003958352074e+01 -1.106191479246e+01 0.0 
-1.106191479246e+01 -8.579029197621e+01 0.0 
0.0 0.0 -3.730049103757e+01 
-5.636387790018e+01 -8.987054107312e+00 0.0 
-8.987054107312e+00 -1.827477744905e+02 0.0 
0.0 0.0 -7.133349571722e+01 
-8.306923800044e+01 1.987232893874e+01 0.0 
1.987232893874e+01 -2.404127777055e+02 0.0 
0.0 0.0 -9.664460471179e+01 
-3.213056367531e+01 6.102292061128e+00 0.0 
6.102292061128e+00 -3.116584065545e+01 0.0 
0.0 0.0 -1.858892129923e+01 
-1.075118493596e+02 -7.744144359309e-02 0.0 
-7.744144359309e-02 -2.626838928940e+02 0.0 
0.0 0.0 -1.106587226761e+02 
-4.899986250581e+01 6.158246230688e-01 0.0 
6.158246230688e-01 -1.206002014017e+02 0.0 
0.0 0.0 -5.048001917224e+01 
-6.865317539330e+01 7.414923867789e+00 0.0 
7.414923867789e+00 -1.086328879177e+02 0.0 
0.0 0.0 -5.278581899331e+01 
-1.076899009688e+02 -6.012944397290e-01 0.0 
-6.012944397290e-01 -2.658335797485e+02 0.0 
0.0 0.0 -1.116570442152e+02 
-7.951337644698e+01 3.732009103124e-01 0.0 
3.732009103124e-01 -2.404825589698e+02 0.0 
0.0 0.0 -9.559878062502e+01 
-9.507155119017e+01 -2.503329171227e+00 0.0 
-2.503329171227e+00 -2.429288079577e+02 0.0 
0.0 0.0 -1.010001077444e+02 
-3.880554242127e+01 2.905608449099e+01 0.0 
2.905608449099e+01 -8.176082098830e+01 0.0 
0.0 0.0 -3.736429908078e+01 
-9.838416819403e+01 1.389484138498e+00 0.0 
1.389484138498e+00 -2.163533973301e+02 0.0 
0.0 0.0 -9.402126965724e+01 
-6.452282779261e+01 -3.820262528699e+00 0.0 
-3.820262528699e+00 -2.072133819269e+02 0.0 
0.0 0.0 -8.112086291585e+01 
-1.275256447958e+02 1.335764528019e+01 0.0 
1.335764528019e+01 -3.338614310101e+02 0.0 
0.0 0.0 -1.380161227418e+02 
-9.748156892004e+01 2.414034727312e+01 0.0 
2.414034727312e+01 -2.515078198740e+02 0.0 
0.0 0.0 -1.042968166382e+02 
-1.105353688838e+02 -1.871612927980e+00 0.0 
-1.871612927980e+00 -2.728024406633e+02 0.0 
0.0 0.0 -1.146013428641e+02 
-1.117785345393e+02 -1.673993324491e-01 0.0 
-1.673993324491e-01 -2.737477800284e+02 0.0 
0.0 0.0 -1.152578943703e+02 
-5.085596473676e+01 1.442382362839e+00 0.0 
1.442382362839e+00 -1.930458627990e+02 0.0 
0.0 0.0 -7.277054826072e+01 
-3.581382929432e+01 -1.070675181623e+01 0.0 
-1.070675181623e+01 -5.942796019606e+01 0.0 
0.0 0.0 -2.703431519342e+01 
-3.705029334728e+01 3.425374239654e+01 0.0 
3.425374239654e+01 -8.496699383595e+01 0.0 
0.0 0.0 -3.800656566629e+01 
-1.148867553112e+02 -1.485772088522e+00 0.0 
-1.485772088522e+00 -2.809681358396e+02 0.0 
0.0 0.0 -1.183564673452e+02 
-1.286569494517e+02 1.021516520836e+01 0.0 
1.021516520836e+01 -3.361607356647e+02 0.0 
0.0 0.0 -1.390453055349e+02 
-5.999977119670e+01 -1.046421078196e+01 0.0 
-1.046421078196e+01 -1.719849349062e+02 0.0 
0.0 0.0 -6.919541183088e+01 
-1.005809020192e+02 2.336320079087e+01 0.0 
2.336320079087e+01 -2.286518485523e+02 0.0 
0.0 0.0 -9.836982517146e+01 
-4.093478439944e+01 2.321073615781e+01 0.0 
2.321073615781e+01 -6.597136715748e+01 0.0 
0.0 0.0 -3.167184546708e+01 
-1.011798990453e+02 2.456531090525e+01 0.0 
2.456531090525e+01 -2.182373077206e+02 0.0 
0.0 0.0 -9.542516202978e+01 
-1.529742514711e+02 7.291104022245e+00 0.0 
7.291104022245e+00 -3.739588560300e+02 0.0 
0.0 0.0 -1.576799322503e+02 
-1.165965268934e+02 -1.366387351355e+00 0.0 
-1.366387351355e+00 -1.027163986710e+02 0.0 
0.0 0.0 -6.607074867976e+01 
-1.151596662272e+02 1.419070812513e+00 0.0 
1.419070812513e+00 -2.700392211968e+02 0.0 
0.0 0.0 -1.151596662272e+02 
-1.671107837345e+02 4.794930288560e-01 0.0 
4.794930288560e-01 -3.912584953804e+02 0.0 
0.0 0.0 -1.671107837345e+02 
-5.737575260972e+01 7.782180107191e-01 0.0 
7.782180107191e-01 -1.077048018325e+02 0.0 
0.0 0.0 -4.912416633268e+01 
-6.781651925568e+01 -6.712161418418e+00 0.0 
-6.712161418418e+00 -2.023282179211e+02 0.0 
0.0 0.0 -8.064342115304e+01 
-9.372676271074e+01 2.501099929544e+01 0.0 
2.501099929544e+01 -2.365660879232e+02 0.0 
0.0 0.0 -9.868785519017e+01 
-5.127009057531e+01 6.911625359527e+00 0.0 
6.911625359527e+00 -1.916315843759e+02 0.0 
0.0 0.0 -7.247050248536e+01 
-2.154963541966e+01 -1.588040411504e+00 0.0 
-1.588040411504e+00 -5.519505257928e+01 0.0 
0.0 0.0 -2.262340639968e+01 
-4.663764543694e+01 3.115104256898e+01 0.0 
3.115104256898e+01 -3.102077409492e+01 0.0 
0.0 0.0 -2.254925060414e+01 
-1.057555650355e+02 4.574434275928e+00 0.0 
4.574434275928e+00 -2.340558445157e+02 0.0 
0.0 0.0 -1.015434228654e+02 
-9.449574569058e+01 1.562672411545e+01 0.0 
1.562672411545e+01 -1.756772213923e+02 0.0 
0.0 0.0 -8.065189012486e+01 
-6.100098452312e+01 6.278873682741e+00 0.0 
6.278873682741e+00 -9.355111284366e+01 0.0 
0.0 0.0 -4.596562921003e+01 
-1.458859868181e+02 2.950890344680e+01 0.0 
2.950890344680e+01 -3.442863131827e+02 0.0 
0.0 0.0 -1.466516900002e+02 
-4.007343226326e+01 6.480785538281e-01 0.0 
6.480785538281e-01 -1.006256189704e+02 0.0 
0.0 0.0 -4.180971537009e+01 
-1.475197352327e+02 2.862808434427e+01 0.0 
2.862808434427e+01 -3.504963576046e+02 0.0 
0.0 0.0 -1.490048278512e+02 
-9.184171648520e+01 1.247203524206e+01 0.0 
1.247203524206e+01 -1.737840083589e+02 0.0 
0.0 0.0 -7.928771745323e+01 
-7.028706314198e+01 -7.552411627539e+00 0.0 
-7.552411627539e+00 -1.959358266469e+02 0.0 
0.0 0.0 -7.946686693667e+01 
-9.015012744321e+01 2.312036299185e+01 0.0 
2.312036299185e+01 -2.333764815207e+02 0.0 
0.0 0.0 -9.665798268916e+01 
-6.120045965516e+01 -8.895100122280e+00 0.0 
-8.895100122280e+00 -1.880301328010e+02 0.0 
0.0 0.0 -7.436917773684e+01 
-3.666190018107e+01 2.817422388824e+01 0.0 
2.817422388824e+01 -6.698592661475e+01 0.0 
0.0 0.0 -2.996012396486e+01 
-5.954343703115e+01 -1.032792860644e+01 0.0 
-1.032792860644e+01 -1.750714564467e+02 0.0 
0.0 0.0 -6.998446804336e+01 
-1.000166419395e+02 1.669455704217e+01 0.0 
1.669455704217e+01 -2.001690682212e+02 0.0 
0.0 0.0 -8.965571304821e+01 
-1.423943606851e+02 1.248883195329e+00 0.0 
1.248883195329e+00 -3.401137307075e+02 0.0 
0.0 0.0 -1.443524274178e+02 
-5.801136308885e+01 -6.247512988590e+00 0.0 
-6.247512988590e+00 -1.946663069341e+02 0.0 
0.0 0.0 -7.540330100689e+01 
-1.045559501659e+02 2.287009064502e+01 0.0 
2.287009064502e+01 -2.330129433051e+02 0.0 
0.0 0.0 -1.008706680413e+02 
-7.442663000546e+01 -2.959595249426e+00 0.0 
-2.959595249426e+00 -1.125834251685e+02 0.0 
0.0 0.0 -5.660427207543e+01 
-5.534099893689e+01 -1.171742301753e+00 0.0 
-1.171742301753e+00 -1.994693431217e+02 0.0 
0.0 0.0 -7.604310261758e+01 
-1.045977082246e+02 1.614344577524e+01 0.0 
1.614344577524e+01 -2.058334950774e+02 0.0 
0.0 0.0 -9.272936099059e+01 
-6.160431080361e+01 -9.807394478373e+00 0.0 
-9.807394478373e+00 -1.675420174567e+02 0.0 
0.0 0.0 -6.834389847811e+01 
-5.799604071935e+01 -1.100556790526e+01 0.0 
-1.100556790526e+01 -1.580897729256e+02 0.0 
0.0 0.0 -6.442574409348e+01 
-8.874485013377e+01 2.428761381845e+01 0.0 
2.428761381845e+01 -2.330560553814e+02 0.0 
0.0 0.0 -9.614027165456e+01 
-3.537065006794e+01 -1.850748254331e+01 0.0 
-1.850748254331e+01 -1.074658222093e+02 0.0 
0.0 0.0 -4.194198627850e+01 
-3.237401822422e+01 2.181860083064e+01 0.0 
2.181860083064e+01 -2.310114683171e+01 0.0 
0.0 0.0 -1.624254951678e+01 
-3.459031441312e+01 2.328731038237e+01 0.0 
2.328731038237e+01 -2.371569310992e+01 0.0 
0.0 0.0 -1.709180225691e+01 
-5.553777440183e+01 -1.087387883046e+01 0.0 
-1.087387883046e+01 -1.477877965653e+02 0.0 
0.0 0.0 -6.059767129013e+01 
-8.775233027328e+01 2.270192405306e+00 0.0 
2.270192405306e+00 -2.574775687339e+02 0.0 
0.0 0.0 -1.031689697021e+02 
-7.547519518228e+01 1.991575285163e+01 0.0 
1.991575285163e+01 -2.236427092234e+02 0.0 
0.0 0.0 -8.933537132170e+01 
-1.045584240782e+02 2.524253804635e+01 0.0 
2.524253804635e+01 -2.334013428443e+02 0.0 
0.0 0.0 -1.009879300768e+02 
-1.189240157249e+02 2.083698045318e+01 0.0 
2.083698045318e+01 -2.643694102512e+02 0.0 
0.0 0.0 -1.145880277928e+02 
-2.702141746827e+01 1.028247315742e+01 0.0 
1.028247315742e+01 -1.759823034217e+01 0.0 
0.0 0.0 -1.298589434313e+01 
-8.484635886935e+01 1.422213090309e+00 0.0 
1.422213090309e+00 -1.776836271955e+02 0.0 
0.0 0.0 -7.835899581945e+01 
-1.253411721981e+02 2.479351934136e+01 0.0 
2.479351934136e+01 -2.903650474289e+02 0.0 
0.0 0.0 -1.243118658881e+02 
-4.686382168933e+01 4.862291793913e+00 0.0 
4.862291793913e+00 -1.858432796236e+02 0.0 
0.0 0.0 -6.941213039388e+01 
-3.863857199822e+01 2.897216182349e+01 0.0 
2.897216182349e+01 -4.918434004505e+01 0.0 
0.0 0.0 -2.436801578950e+01 
-4.561318243544e+01 2.596405326001e+01 0.0 
2.596405326001e+01 -6.997678548370e+01 0.0 
0.0 0.0 -3.427699037574e+01 
-8.488670265103e+01 -2.172374528714e-01 0.0 
-2.172374528714e-01 -2.478922464014e+02 0.0 
0.0 0.0 -9.943368471574e+01 
-1.043947118560e+02 2.111529723402e+01 0.0 
2.111529723402e+01 -2.226426587970e+02 0.0 
0.0 0.0 -9.771121119589e+01 
-8.120149187454e+01 -4.173974596440e-01 0.0 
-4.173974596440e-01 -2.462867342280e+02 0.0 
0.0 0.0 -9.784646783075e+01 
-3.211537257936e+01 2.579228045726e+01 0.0 
2.579228045726e+01 -9.490930482248e+01 0.0 
0.0 0.0 -3.774681440665e+01 
-9.656694550445e+01 4.063995993685e+00 0.0 
4.063995993685e+00 -2.748094092118e+02 0.0 
0.0 0.0 -1.110129064149e+02 
-3.631596905376e+01 2.759902731165e+01 0.0 
2.759902731165e+01 -6.645241669500e+01 0.0 
0.0 0.0 -3.043051572463e+01 
-7.436761922847e+01 1.992773805441e+01 0.0 
1.992773805441e+01 -2.231751031923e+02 0.0 
0.0 0.0 -8.886281672623e+01 
-8.987196545922e+01 1.251051361136e+00 0.0 
1.251051361136e+00 -2.638339367864e+02 0.0 
0.0 0.0 -1.057117706737e+02 
-9.348638772465e+01 2.209770211695e+01 0.0 
2.209770211695e+01 -2.478248573949e+02 0.0 
0.0 0.0 -1.019933735359e+02 
-7.652839191094e+01 1.743146893425e+00 0.0 
1.743146893425e+00 -1.530659955759e+02 0.0 
0.0 0.0 -6.847831624607e+01 
-5.819407170637e+01 -9.092813942538e+00 0.0 
-9.092813942538e+00 -1.492644051355e+02 0.0 
0.0 0.0 -6.183754305255e+01 
-3.882818165832e+01 3.079859013757e+01 0.0 
3.079859013757e+01 -7.121205436816e+01 0.0 
0.0 0.0 -3.158504827799e+01 
-9.911438230113e+01 2.860100084558e+00 0.0 
2.860100084558e+00 -2.817896115092e+02 0.0 
0.0 0.0 -1.138711981431e+02 
-3.616381803523e+01 2.661043887665e+01 0.0 
2.661043887665e+01 -6.545026469168e+01 0.0 
0.0 0.0 -3.008422481807e+01 
-4.766969937876e+01 9.799606819671e+00 0.0 
9.799606819671e+00 -1.201803011366e+02 0.0 
0.0 0.0 -5.176278848063e+01 
-1.046293057196e+02 -1.184872117446e-01 0.0 
-1.184872117446e-01 -2.352604293360e+02 0.0 
0.0 0.0 -1.015669205167e+02 
-9.851014592905e+01 -3.149148672427e-01 0.0 
-3.149148672427e-01 -2.165037293123e+02 0.0 
0.0 0.0 -9.410416257242e+01 
-1.830178681813e+01 -3.329355988028e+00 0.0 
-3.329355988028e+00 -2.482082074696e+01 0.0 
0.0 0.0 -1.284865977484e+01 
-1.059083825511e+02 5.762755124364e+00 0.0 
5.762755124364e+00 -2.924958054769e+02 0.0 
0.0 0.0 -1.191212564084e+02 
-4.728158268674e+01 -7.896206819598e+00 0.0 
-7.896206819598e+00 -1.140173324378e+02 0.0 
0.0 0.0 -4.798967453737e+01 
-4.943995988803e+01 -8.993083125565e+00 0.0 
-8.993083125565e+00 -1.204754767977e+02 0.0 
0.0 0.0 -5.057463100572e+01 
-1.119469189433e+02 2.324166030872e+01 0.0 
2.324166030872e+01 -2.529838525662e+02 0.0 
0.0 0.0 -1.090792314529e+02 
-9.251299044159e+01 2.299755661056e+01 0.0 
2.299755661056e+01 -2.475862034957e+02 0.0 
0.0 0.0 -1.016297581812e+02 
-1.081572668261e+02 2.352123154454e+01 0.0 
2.352123154454e+01 -2.483166570724e+02 0.0 
0.0 0.0 -1.065421771695e+02 
-5.928906534720e+01 -2.600589178700e+00 0.0 
-2.600589178700e+00 -2.007571221248e+02 0.0 
0.0 0.0 -7.761385624161e+01 
-4.953540916922e+01 2.887895863609e-02 0.0 
2.887895863609e-02 -8.644149645462e+01 0.0 
0.0 0.0 -4.039307168715e+01 
-1.572194165816e+02 6.182094898820e+00 0.0 
6.182094898820e+00 -3.755765807357e+02 0.0 
0.0 0.0 -1.594387991952e+02 
-4.291118419654e+01 -8.525021427488e+00 0.0 
-8.525021427488e+00 -9.988203837933e+01 0.0 
0.0 0.0 -4.243796677276e+01 
-1.230885353141e+02 1.505879577364e+01 0.0 
1.505879577364e+01 -3.234763162522e+02 0.0 
0.0 0.0 -1.335694554699e+02 
-7.901769655912e+01 2.178383203101e+01 0.0 
2.178383203101e+01 -2.264565918901e+02 0.0 
0.0 0.0 -9.124228653476e+01 
-3.028235114820e+01 -1.917329622640e+00 0.0 
-1.917329622640e+00 -7.654463394174e+01 0.0 
0.0 0.0 -3.164809552698e+01 
-1.007758587369e+02 1.955502099504e+01 0.0 
1.955502099504e+01 -2.077132779610e+02 0.0 
0.0 0.0 -9.214674100939e+01 
-5.823442213089e+01 2.728546938168e+00 0.0 
2.728546938168e+00 -2.082307202994e+02 0.0 
0.0 0.0 -7.953954272909e+01 
-3.221624793831e+01 -1.164581601465e+01 0.0 
-1.164581601465e+01 -4.648499317791e+01 0.0 
0.0 0.0 -2.246083675572e+01 
-4.831905859213e+01 -2.928225008509e+00 0.0 
-2.928225008509e+00 -1.840469441394e+02 0.0 
0.0 0.0 -6.930980081946e+01 
-1.206365913351e+02 -8.881421345197e-01 0.0 
-8.881421345197e-01 -2.916302401376e+02 0.0 
0.0 0.0 -1.232800494418e+02 
-1.021541376200e+02 1.981531628748e+01 0.0 
1.981531628748e+01 -2.021100768034e+02 0.0 
0.0 0.0 -9.087926432703e+01 
-3.654208595046e+01 -9.430207115658e+00 0.0 
-9.430207115658e+00 -7.944889077306e+01 0.0 
0.0 0.0 -3.437267872626e+01 
-9.807849541025e+01 -5.564015762005e-02 0.0 
-5.564015762005e-02 -2.381368985230e+02 0.0 
0.0 0.0 -1.004646181800e+02 
-1.082547056359e+02 2.233153915793e+01 0.0 
2.233153915793e+01 -2.379790011148e+02 0.0 
0.0 0.0 -1.034701120252e+02 
-1.167067459203e+02 2.240903601355e+01 0.0 
2.240903601355e+01 -2.990838594975e+02 0.0 
0.0 0.0 -1.243371816253e+02 
-5.764391486202e+01 -1.094824560989e+01 0.0 
-1.094824560989e+01 -1.614579677893e+02 0.0 
0.0 0.0 -6.533056479539e+01 
-4.911740392588e+01 -1.698617233321e+00 0.0 
-1.698617233321e+00 -1.207237387599e+02 0.0 
0.0 0.0 -5.055234280574e+01 
-8.374826678601e+01 1.957743550264e+01 0.0 
1.957743550264e+01 -2.406428428952e+02 0.0 
0.0 0.0 -9.691733290435e+01 
-7.330840014222e+01 8.868143046970e-01 0.0 
8.868143046970e-01 -1.472485405831e+02 0.0 
0.0 0.0 -6.576708221761e+01 
-3.382279324273e+01 -1.695489355263e+01 0.0 
-1.695489355263e+01 -5.034621053795e+01 0.0 
0.0 0.0 -2.447580646371e+01 
-1.341679365062e+02 2.812784559523e+01 0.0 
2.812784559523e+01 -3.121474034915e+02 0.0 
0.0 0.0 -1.334946019993e+02 
-1.200205649511e+02 1.991618095899e+01 0.0 
1.991618095899e+01 -2.729260290383e+02 0.0 
0.0 0.0 -1.174839781968e+02 
-6.237875572738e+01 8.973938939747e-01 0.0 
8.973938939747e-01 -1.195987444297e+02 0.0 
0.0 0.0 -5.419325004713e+01 
-1.149813847350e+02 1.103330430778e+01 0.0 
1.103330430778e+01 -2.528139429523e+02 0.0 
0.0 0.0 -1.099385983062e+02 
-1.240988599381e+02 2.255251261041e+01 0.0 
2.255251261041e+01 -2.838267121095e+02 0.0 
0.0 0.0 -1.219776716143e+02 
-6.018529470999e+01 -3.022104042619e+00 0.0 
-3.022104042619e+00 -2.055902969252e+02 0.0 
0.0 0.0 -7.933267749055e+01 
-6.291405715179e+01 -6.721053034139e+00 0.0 
-6.721053034139e+00 -1.966097533071e+02 0.0 
0.0 0.0 -7.745714313767e+01 
-1.461937954412e+02 1.865016617100e+01 0.0 
1.865016617100e+01 -3.618701735263e+02 0.0 
0.0 0.0 -1.520191906902e+02 
-6.947662397962e+01 4.238170465262e+00 0.0 
4.238170465262e+00 -1.093214957927e+02 0.0 
0.0 0.0 -5.419004811447e+01 
-4.426079110782e+01 -1.167625490561e+00 0.0 
-1.167625490561e+00 -1.097972038607e+02 0.0 
0.0 0.0 -4.581739849055e+01 
-9.909183957244e+01 -1.276402829345e+00 0.0 
-1.276402829345e+00 -2.423822068257e+02 0.0 
0.0 0.0 -1.020422139194e+02 
-6.134168244376e+01 -9.588405886288e+00 0.0 
-9.588405886288e+00 -1.633683962655e+02 0.0 
0.0 0.0 -6.701302361278e+01 
-5.136418445883e+01 -8.503724029219e+00 0.0 
-8.503724029219e+00 -1.777217286530e+02 0.0 
0.0 0.0 -6.832577393356e+01 
-3.315669231884e+01 2.292953602324e+01 0.0 
2.292953602324e+01 -2.349928951338e+01 0.0 
0.0 0.0 -1.659679454966e+01 
-3.512576623686e+01 2.501601206556e+01 0.0 
2.501601206556e+01 -2.654555794926e+01 0.0 
0.0 0.0 -1.810139725584e+01 
-6.737263972476e+01 2.805379999721e+00 0.0 
2.805379999721e+00 -1.207994598052e+02 0.0 
0.0 0.0 -5.605162985898e+01 
-5.407519243330e+01 -5.742727532236e-01 0.0 
-5.742727532236e-01 -1.939262556675e+02 0.0 
0.0 0.0 -7.400043443023e+01 
-5.255262095318e+01 -3.013677175974e+00 0.0 
-3.013677175974e+00 -1.288655615299e+02 0.0 
0.0 0.0 -5.402545474494e+01 
-1.108197672700e+02 2.205568494637e+01 0.0 
2.205568494637e+01 -2.838331592993e+02 0.0 
0.0 0.0 -1.179958779708e+02 
-1.652548297710e+02 4.129205417201e+00 0.0 
4.129205417201e+00 -3.915027646099e+02 0.0 
0.0 0.0 -1.666272783143e+02 
-1.639886432769e+02 5.460772249588e+00 0.0 
5.460772249588e+00 -3.902777704489e+02 0.0 
0.0 0.0 -1.658799241177e+02 
-6.306920099413e+01 -6.814458108023e+00 0.0 
-6.814458108023e+00 -2.002996164097e+02 0.0 
0.0 0.0 -7.861064522116e+01 
-6.153307343125e+01 1.649830553131e+00 0.0 
1.649830553131e+00 -1.044466136551e+02 0.0 
0.0 0.0 -4.939390612590e+01 
-7.276888132946e+01 -1.782524423133e-01 0.0 
-1.782524423133e-01 -1.093455753642e+02 0.0 
0.0 0.0 -5.561662096520e+01 
-3.826353103141e+01 2.616733836818e+01 0.0 
2.616733836818e+01 -2.647029238358e+01 0.0 
0.0 0.0 -1.820890283559e+01 
-4.060027353810e+01 -2.272449768739e+01 0.0 
-2.272449768739e+01 -1.134379863641e+02 0.0 
0.0 0.0 -4.499542843428e+01 
-3.623018225557e+01 2.496887937135e+01 0.0 
2.496887937135e+01 -2.595455474781e+01 0.0 
0.0 0.0 -1.817910029198e+01 
-8.771005803625e+01 2.157260974535e+01 0.0 
2.157260974535e+01 -2.439600222584e+02 0.0 
0.0 0.0 -9.910102408838e+01 
-5.498897719278e+01 -1.098054444996e+01 0.0 
-1.098054444996e+01 -1.697610654289e+02 0.0 
0.0 0.0 -6.702501278650e+01 
-5.793849196415e+01 -6.165310103492e+00 0.0 
-6.165310103492e+00 -1.911729179936e+02 0.0 
0.0 0.0 -7.433342298733e+01 
-3.959288057940e+01 -2.829834720667e+01 0.0 
-2.829834720667e+01 -9.940898800961e+01 0.0 
0.0 0.0 -4.182235596008e+01 
-9.865276422559e+01 9.225885099490e-01 0.0 
9.225885099490e-01 -2.193640038839e+02 0.0 
0.0 0.0 -9.500503043284e+01 
-6.149326956569e+01 -8.979261342011e+00 0.0 
-8.979261342011e+00 -1.849257723296e+02 0.0 
0.0 0.0 -7.352571256860e+01 
-1.045648310979e+02 2.943378046477e+00 0.0 
2.943378046477e+00 -2.331887584836e+02 0.0 
0.0 0.0 -1.009260768745e+02 
-9.469602937771e+01 2.046419874082e+00 0.0 
2.046419874082e+00 -2.039270151868e+02 0.0 
0.0 0.0 -8.918691336936e+01 
-1.172506900436e+02 1.486443298455e+00 0.0 
1.486443298455e+00 -2.703614494630e+02 0.0 
0.0 0.0 -1.158836418520e+02 
-1.662823790957e+02 4.188294254833e-01 0.0 
4.188294254833e-01 -3.911464023408e+02 0.0 
0.0 0.0 -1.668286344309e+02 
-6.241577070656e+01 -5.020656177411e-01 0.0 
-5.020656177411e-01 -1.200764545045e+02 0.0 
0.0 0.0 -5.434766756332e+01 
-6.595399514536e+01 -8.399012838311e+00 0.0 
-8.399012838311e+00 -1.901599820075e+02 0.0 
0.0 0.0 -7.643419314585e+01 
-2.954322884098e+01 1.949062767847e+01 0.0 
1.949062767847e+01 -2.222156581367e+01 0.0 
0.0 0.0 -1.512943839640e+01 
-6.602137058537e+01 -8.466108639082e+00 0.0 
-8.466108639082e+00 -1.939128161628e+02 0.0 
0.0 0.0 -7.758025602446e+01 
-1.677418618669e+02 3.077082736289e+00 0.0 
3.077082736289e+00 -3.927310110227e+02 0.0 
0.0 0.0 -1.677418618669e+02 
-4.132852626826e+01 2.790044120645e+01 0.0 
2.790044120645e+01 -2.788835743276e+01 0.0 
0.0 0.0 -1.902751061080e+01 
-3.940473269358e+01 2.660935177848e+01 0.0 
2.660935177848e+01 -2.692873108779e+01 0.0 
0.0 0.0 -1.784842934096e+01 
-1.274870825010e+02 1.720927858354e+01 0.0 
1.720927858354e+01 -3.297768739202e+02 0.0 
0.0 0.0 -1.367791869264e+02 
-5.933377452359e+01 1.160399807465e+00 0.0 
1.160399807465e+00 -1.046282213664e+02 0.0 
0.0 0.0 -4.878859876699e+01 
-1.048033917687e+02 1.598387010541e+00 0.0 
1.598387010541e+00 -2.350705196458e+02 0.0 
0.0 0.0 -1.015621734244e+02 
-1.087120531962e+02 2.478133172293e+01 0.0 
2.478133172293e+01 -2.383947532322e+02 0.0 
0.0 0.0 -1.037320419285e+02 
-1.256241080170e+02 2.181810379268e+01 0.0 
2.181810379268e+01 -3.164339912979e+02 0.0 
0.0 0.0 -1.322174297945e+02 
-1.129644326174e+02 2.267508932398e+01 0.0 
2.267508932398e+01 -2.374238539690e+02 0.0 
0.0 0.0 -1.047164859759e+02 
-6.446628253261e+01 -1.023703215781e-01 0.0 
-1.023703215781e-01 -1.235446023821e+02 0.0 
0.0 0.0 -5.600326547442e+01 
-5.538219661176e+01 -1.070600975004e+01 0.0 
-1.070600975004e+01 -1.436328113026e+02 0.0 
0.0 0.0 -5.930450237430e+01 
-5.212220852611e+01 -1.229865151926e+01 0.0 
-1.229865151926e+01 -1.419483412800e+02 0.0 
0.0 0.0 -5.782116494183e+01 
-8.089703344438e+01 -1.719837369471e-01 0.0 
-1.719837369471e-01 -1.669677647385e+02 0.0 
0.0 0.0 -7.395943945488e+01 
-1.213437962446e+02 2.389685018735e+01 0.0 
2.389685018735e+01 -3.031274004032e+02 0.0 
0.0 0.0 -1.269413589943e+02 
-5.713295502786e+01 2.738458970250e+00 0.0 
2.738458970250e+00 -8.925235501676e+01 0.0 
0.0 0.0 -4.351559301339e+01 
-5.584444798733e+01 8.000678435119e-02 0.0 
8.000678435119e-02 -1.031175950100e+02 0.0 
0.0 0.0 -4.728861289919e+01 
-6.264408209548e+01 5.868886774354e-01 0.0 
5.868886774354e-01 -1.190781772909e+02 0.0 
0.0 0.0 -5.411667781592e+01 
-6.533696971472e+01 1.675490335964e+00 0.0 
1.675490335964e+00 -1.248120498963e+02 0.0 
0.0 0.0 -5.664470588330e+01 
-2.726666958433e+01 -1.400699367936e+01 0.0 
-1.400699367936e+01 -1.154894055914e+02 0.0 
0.0 0.0 -4.407251698595e+01 
-4.996398867992e+01 -1.155882017649e+01 0.0 
-1.155882017649e+01 -1.276889105320e+02 0.0 
0.0 0.0 -5.289586976359e+01 
-1.130866448952e+02 5.261536244771e+00 0.0 
5.261536244771e+00 -2.552947844896e+02 0.0 
0.0 0.0 -1.101144288155e+02 
-7.341342261907e+01 2.022889412882e+00 0.0 
2.022889412882e+00 -1.441863616507e+02 0.0 
0.0 0.0 -6.487993528095e+01 
-1.482166457934e+02 2.160809302173e+01 0.0 
2.160809302173e+01 -3.587877275595e+02 0.0 
0.0 0.0 -1.517013120059e+02 
-1.231483818251e+02 2.356286691642e+01 0.0 
2.356286691642e+01 -2.679229193416e+02 0.0 
0.0 0.0 -1.169213903500e+02 
-1.018343749554e+02 2.247894479055e+01 0.0 
2.247894479055e+01 -2.089387859319e+02 0.0 
0.0 0.0 -9.283194826620e+01 
-1.113094798258e+02 1.100949385020e+01 0.0 
1.100949385020e+01 -2.402286672322e+02 0.0 
0.0 0.0 -1.050614441174e+02 
-7.343056019619e+01 -3.450918746319e+00 0.0 
-3.450918746319e+00 -1.809142135264e+02 0.0 
0.0 0.0 -7.590343211679e+01 
-6.690798108803e+01 -3.739241593947e+00 0.0 
-3.739241593947e+00 -1.652299072179e+02 0.0 
0.0 0.0 -6.924136649178e+01 
-1.473515412117e+02 5.051923867859e+00 0.0 
5.051923867859e+00 -3.606546391909e+02 0.0 
0.0 0.0 -1.520018541208e+02 
-4.019897053830e+01 -1.981342348600e+01 0.0 
-1.981342348600e+01 -9.894518999261e+01 0.0 
0.0 0.0 -4.313762593649e+01 
-4.708209633213e+01 -6.097265574272e-01 0.0 
-6.097265574272e-01 -1.161026193852e+02 0.0 
0.0 0.0 -4.855541471519e+01 
-1.487528773711e+02 2.765523543693e+01 0.0 
2.765523543693e+01 -3.484233805325e+02 0.0 
0.0 0.0 -1.487528773711e+02 
-2.052939989477e+01 7.450389828675e-01 0.0 
7.450389828675e-01 -5.776360200875e+01 0.0 
0.0 0.0 -2.308790057106e+01 
-5.577372334029e+01 7.483740310459e-02 0.0 
7.483740310459e-02 -1.031257290127e+02 0.0 
0.0 0.0 -4.726983570590e+01 
-1.389913441162e+02 1.484073343334e+01 0.0 
1.484073343334e+01 -3.526013934760e+02 0.0 
0.0 0.0 -1.470778212777e+02 
-1.927949862338e+01 -3.891442723824e+00 0.0 
-3.891442723824e+00 -4.012432565807e+01 0.0 
0.0 0.0 -1.742114728443e+01 
-6.552899014205e+00 -4.847474995781e-01 0.0 
-4.847474995781e-01 -2.373590181658e+01 0.0 
0.0 0.0 -8.205595492659e+00 
-1.201489013713e+02 9.314893726213e+00 0.0 
9.314893726213e+00 -2.744346083552e+02 0.0 
0.0 0.0 -1.179750529180e+02 
-5.077420093251e+01 -1.269821978904e-01 0.0 
-1.269821978904e-01 -8.644748376948e+01 0.0 
0.0 0.0 -4.076650541060e+01 
-1.124691883957e+02 6.621956695479e+00 0.0 
6.621956695479e+00 -2.520192781341e+02 0.0 
0.0 0.0 -1.089465399589e+02 
-1.411143630826e+02 1.618433774955e+01 0.0 
1.618433774955e+01 -3.509108271501e+02 0.0 
0.0 0.0 -1.472075570698e+02 
-5.040678511460e+01 4.218812460173e-01 0.0 
4.218812460173e-01 -8.616523294688e+01 0.0 
0.0 0.0 -4.057160541845e+01 
-6.968965172850e+01 6.851839301282e+00 0.0 
6.851839301282e+00 -1.079515901106e+02 0.0 
0.0 0.0 -5.435341018562e+01 
-1.098843298689e+02 1.789788369219e+00 0.0 
1.789788369219e+00 -2.526131785364e+02 0.0 
0.0 0.0 -1.083492525216e+02 
-2.496553606932e+01 -1.215379795777e+00 0.0 
-1.215379795777e+00 -6.356270816285e+01 0.0 
0.0 0.0 -2.615847326965e+01 
-1.070452475359e+02 5.770502008238e+00 0.0 
5.770502008238e+00 -2.396348329708e+02 0.0 
0.0 0.0 -1.036040241520e+02 
-1.675154675898e+02 2.112496176329e+00 0.0 
2.112496176329e+00 -3.922027577094e+02 0.0 
0.0 0.0 -1.675154675898e+02 
-1.187311407993e+02 1.995471706418e+01 0.0 
1.995471706418e+01 -2.581751155324e+02 0.0 
0.0 0.0 -1.126718768995e+02 
-2.911254911687e+01 -1.096716128461e+01 0.0 
-1.096716128461e+01 -1.277693073618e+02 0.0 
0.0 0.0 -4.818586420836e+01 
-7.071769484927e+01 4.225240359279e+00 0.0 
4.225240359279e+00 -1.237080216012e+02 0.0 
0.0 0.0 -5.792771493513e+01 
-7.473204478018e+01 -1.167005703096e+00 0.0 
-1.167005703096e+00 -1.837485026081e+02 0.0 
0.0 0.0 -7.714416421648e+01 
-1.113021680537e+02 2.306353776701e+01 0.0 
2.306353776701e+01 -2.841471207101e+02 0.0 
0.0 0.0 -1.182347866291e+02 
-1.537295170446e+02 2.489313801950e+01 0.0 
2.489313801950e+01 -3.670306336426e+02 0.0 
0.0 0.0 -1.558280452062e+02 
-8.867533014495e+01 3.042518256930e-01 0.0 
3.042518256930e-01 -1.884735770294e+02 0.0 
0.0 0.0 -8.274467215231e+01 
-1.545264764820e+02 2.205491548746e+01 0.0 
2.205491548746e+01 -3.717740568402e+02 0.0 
0.0 0.0 -1.574901599967e+02 
-3.142249552742e+01 -1.474632811450e+01 0.0 
-1.474632811450e+01 -1.151964142884e+02 0.0 
0.0 0.0 -4.615936609377e+01 
-1.587871015584e+02 3.372715862010e+00 0.0 
3.372715862010e+00 -3.776182190679e+02 0.0 
0.0 0.0 -1.605215961879e+02 
-3.313566421621e+01 -1.464816758232e+01 0.0 
-1.464816758232e+01 -1.257643817869e+02 0.0 
0.0 0.0 -4.715693170020e+01 
-2.126684219777e+01 -1.325418214263e+00 0.0 
-1.325418214263e+00 -5.774715778343e+01 0.0 
0.0 0.0 -2.330419999436e+01 
-1.510904689704e+02 1.324305352474e+01 0.0 
1.324305352474e+01 -3.711400140587e+02 0.0 
0.0 0.0 -1.562691449087e+02 
-1.202726765477e+02 1.501188276247e+01 0.0 
1.501188276247e+01 -2.649475278336e+02 0.0 
0.0 0.0 -1.151660613144e+02 
-1.154176481315e+02 9.789666401840e+00 0.0 
9.789666401840e+00 -2.608980655913e+02 0.0 
0.0 0.0 -1.124947141168e+02 
-5.591105637323e+01 -3.895387618199e-01 0.0 
-3.895387618199e-01 -1.018080201790e+02 0.0 
0.0 0.0 -4.691572296567e+01 
-7.432253665840e+01 6.185986958711e+00 0.0 
6.185986958711e+00 -1.283942193515e+02 0.0 
0.0 0.0 -6.041502680298e+01 
-3.678811327165e+01 2.871062215223e+01 0.0 
2.871062215223e+01 -6.725148286926e+01 0.0 
0.0 0.0 -3.042828683204e+01 
-1.291809230195e+02 2.501667934186e+01 0.0 
2.501667934186e+01 -2.886227338603e+02 0.0 
0.0 0.0 -1.249410970640e+02 
-6.271229523435e+01 -2.346683680456e+00 0.0 
-2.346683680456e+00 -1.527971653135e+02 0.0 
0.0 0.0 -6.425283816434e+01 
-3.198663548648e+01 2.875708582157e+01 0.0 
2.875708582157e+01 -7.445936957726e+01 0.0 
0.0 0.0 -3.203232209322e+01 
-1.161181702359e+02 2.149209189653e+01 0.0 
2.149209189653e+01 -2.986604298174e+02 0.0 
0.0 0.0 -1.240335800160e+02 
-4.909406076033e+01 1.630991926736e-01 0.0 
1.630991926736e-01 -8.577083245810e+01 0.0 
0.0 0.0 -4.005946796553e+01 
-1.134824727190e+02 1.334495231946e+01 0.0 
1.334495231946e+01 -2.502105316797e+02 0.0 
0.0 0.0 -1.087079013196e+02 
-1.163336766835e+02 8.490544396169e-01 0.0 
8.490544396169e-01 -2.684882412075e+02 0.0 
0.0 0.0 -1.150465753673e+02 
-1.153548310396e+02 6.435506581084e-01 0.0 
6.435506581084e-01 -2.704946057590e+02 0.0 
0.0 0.0 -1.153548310396e+02 
-5.691917075835e-01 2.539114601309e-01 0.0 
2.539114601309e-01 -6.372704330358e+00 0.0 
0.0 0.0 -1.063542953109e+00 
-6.311878610621e-01 -5.668374290234e-01 0.0 
-5.668374290234e-01 -1.070099376298e+01 0.0 
0.0 0.0 -1.909140093627e+00 
-4.939540628921e+01 6.556018131495e-01 0.0 
6.556018131495e-01 -8.820860716035e+01 0.0 
0.0 0.0 -4.088120403487e+01 
-4.809713766208e+01 -1.027483446328e-01 0.0 
-1.027483446328e-01 -8.571512499857e+01 0.0 
0.0 0.0 -3.974367879819e+01 
-1.672601124888e+02 1.842015576958e-01 0.0 
1.842015576958e-01 -3.916069291406e+02 0.0 
0.0 0.0 -1.672601124888e+02 
-1.655632868524e+02 -7.014134563161e-01 0.0 
-7.014134563161e-01 -3.888756797069e+02 0.0 
0.0 0.0 -1.659316899678e+02 
-5.140950756861e+00 -7.512038569508e-01 0.0 
-7.512038569508e-01 -2.314995199456e+01 0.0 
0.0 0.0 -7.486311278346e+00 
-7.053053984170e+01 -4.720158780520e+00 0.0 
-4.720158780520e+00 -1.130865492819e+02 0.0 
0.0 0.0 -5.558555308430e+01 
-1.512195621436e+02 7.542169978882e-01 0.0 
7.542169978882e-01 -3.601694797190e+02 0.0 
0.0 0.0 -1.530167125588e+02 
-1.286784730841e+02 2.501107536927e+01 0.0 
2.501107536927e+01 -3.113797539784e+02 0.0 
0.0 0.0 -1.316174681188e+02 
-2.948639755493e+01 -1.535254446279e+00 0.0 
-1.535254446279e+00 -7.462754793343e+01 0.0 
0.0 0.0 -3.083418364651e+01 
-1.522889580873e+02 3.721042144834e+00 0.0 
3.721042144834e+00 -3.652991430463e+02 0.0 
0.0 0.0 -1.548764303401e+02 
-1.063631741889e+02 6.597927123140e-02 0.0 
6.597927123140e-02 -2.585207467022e+02 0.0 
0.0 0.0 -1.090651762673e+02 
-9.131928990554e+01 5.308820654083e-01 0.0 
5.308820654083e-01 -2.233740696575e+02 0.0 
0.0 0.0 -9.400800786892e+01 
-7.650739786417e+01 5.502953108685e-01 0.0 
5.502953108685e-01 -1.541178504981e+02 0.0 
0.0 0.0 -6.878757450869e+01 
-4.089197403440e+01 -1.992276565056e+01 0.0 
-1.992276565056e+01 -8.955006773876e+01 0.0 
0.0 0.0 -3.704028244672e+01 
-1.017781039954e+02 2.298530088117e+01 0.0 
2.298530088117e+01 -2.658687071839e+02 0.0 
0.0 0.0 -1.098940433538e+02 
-2.307334338883e+01 -2.268570948734e+00 0.0 
-2.268570948734e+00 -5.982095636428e+01 0.0 
0.0 0.0 -2.446828992593e+01 
-8.313984752905e+01 -1.203913148017e+00 0.0 
-1.203913148017e+00 -2.038285952256e+02 0.0 
0.0 0.0 -8.569053282640e+01 
-1.220716498625e+02 2.248316420430e+01 0.0 
2.248316420430e+01 -2.744369408328e+02 0.0 
0.0 0.0 -1.185525772086e+02 
-1.025823688943e+02 9.478307806888e-01 0.0 
9.478307806888e-01 -2.278152480989e+02 0.0 
0.0 0.0 -9.871928509796e+01 
-9.125905856588e+01 -1.008222953902e+00 0.0 
-1.008222953902e+00 -2.221343680109e+02 0.0 
0.0 0.0 -9.361802797303e+01 
-6.819339457298e+01 1.098039747179e+00 0.0 
1.098039747179e+00 -1.335013795396e+02 0.0 
0.0 0.0 -6.010843223377e+01 
-1.281784109756e+02 2.683865787741e+01 0.0 
2.683865787741e+01 -3.005675621159e+02 0.0 
0.0 0.0 -1.282237919275e+02 
-1.163997139316e+02 2.396458482842e+01 0.0 
2.396458482842e+01 -2.506219023515e+02 0.0 
0.0 0.0 -1.097064848849e+02 
-1.091438027154e+02 2.317990463519e+01 0.0 
2.317990463519e+01 -2.297985020557e+02 0.0 
0.0 0.0 -1.012826914313e+02 
-4.978869506954e+01 1.079249831098e-01 0.0 
1.079249831098e-01 -8.637221142738e+01 0.0 
0.0 0.0 -4.044827194908e+01 
-9.694407584556e+01 2.169441241246e+01 0.0 
2.169441241246e+01 -2.619586185870e+02 0.0 
0.0 0.0 -1.072708083298e+02 
-1.143357393991e+02 1.594492264049e+01 0.0 
1.594492264049e+01 -2.519534952948e+02 0.0 
0.0 0.0 -1.094867704082e+02 
-4.691443804803e+01 -2.026092326995e+00 0.0 
-2.026092326995e+00 -1.156867418948e+02 0.0 
0.0 0.0 -4.838035398286e+01 
-1.141087621370e+01 -2.057622066340e+00 0.0 
-2.057622066340e+00 -2.583890426257e+01 0.0 
0.0 0.0 -1.077493414288e+01 
-1.233606733253e+02 2.613328568380e+01 0.0 
2.613328568380e+01 -2.854374524353e+02 0.0 
0.0 0.0 -1.222394377282e+02 
-1.217054074296e+02 1.432338982099e+01 0.0 
1.432338982099e+01 -3.228146465445e+02 0.0 
0.0 0.0 -1.329560161922e+02 
-3.801332384030e+01 -2.093961309918e+01 0.0 
-2.093961309918e+01 -8.047814287655e+01 0.0 
0.0 0.0 -3.474855510928e+01 
-8.183897647277e+01 1.308931426659e+00 0.0 
1.308931426659e+00 -1.683641259935e+02 0.0 
0.0 0.0 -7.466093073987e+01 
-1.587711310115e+02 1.592837562293e+00 0.0 
1.592837562293e+00 -3.748013002234e+02 0.0 
0.0 0.0 -1.596717293705e+02 
-1.235195769780e+02 2.455304586836e+01 0.0 
2.455304586836e+01 -2.957646492137e+02 0.0 
0.0 0.0 -1.253852678575e+02 
-1.291764558186e+02 2.717746667794e+01 0.0 
2.717746667794e+01 -3.062490604113e+02 0.0 
0.0 0.0 -1.302276548690e+02 
-1.153164102358e+02 7.756373882477e-01 0.0 
7.756373882477e-01 -2.793599829625e+02 0.0 
0.0 0.0 -1.180029179595e+02 
-4.139974140540e+01 2.908370973445e+01 0.0 
2.908370973445e+01 -9.815122802132e+01 0.0 
0.0 0.0 -4.321746667907e+01 
-3.045680954770e+01 2.189190545409e+01 0.0 
2.189190545409e+01 -2.247864484668e+01 0.0 
0.0 0.0 -1.548063631831e+01 
-3.759917802667e+01 2.822745465346e+01 0.0 
2.822745465346e+01 -6.597474675579e+01 0.0 
0.0 0.0 -3.067217743474e+01 
-7.152189050739e+01 4.463634594018e+00 0.0 
4.463634594018e+00 -1.234192430469e+02 0.0 
0.0 0.0 -5.808234006629e+01 
-9.724217987275e+01 2.080470138662e+01 0.0 
2.080470138662e+01 -2.619321268885e+02 0.0 
0.0 0.0 -1.073522920284e+02 
-1.082235028308e+02 5.471692889114e+00 0.0 
5.471692889114e+00 -2.418154111667e+02 0.0 
0.0 0.0 -1.046116741992e+02 
-1.495015803588e+02 1.807888470256e+01 0.0 
1.807888470256e+01 -3.620656711774e+02 0.0 
0.0 0.0 -1.530701754609e+02 
-3.626361155374e+01 -1.455085604484e+01 0.0 
-1.455085604484e+01 -5.184190244426e+01 0.0 
0.0 0.0 -2.426213117513e+01 
-2.343006641488e+01 -6.220009241584e+00 0.0 
-6.220009241584e+00 -4.327909268117e+01 0.0 
0.0 0.0 -1.936297402345e+01 
-3.434373231615e+01 2.396059819495e+01 0.0 
2.396059819495e+01 -2.578460502351e+01 0.0 
0.0 0.0 -1.739432965877e+01 
-8.369861508633e+01 1.796076033604e-01 0.0 
1.796076033604e-01 -1.738811663737e+02 0.0 
0.0 0.0 -7.687393443802e+01 
-5.814790199454e+01 -1.727777090210e+00 0.0 
-1.727777090210e+00 -1.427456691595e+02 0.0 
0.0 0.0 -5.986807134621e+01 
-1.140177028534e+02 1.251671110390e+01 0.0 
1.251671110390e+01 -2.492763937751e+02 0.0 
0.0 0.0 -1.085882289885e+02 
-2.718318357178e+01 -3.702994216853e-01 0.0 
-3.702994216853e-01 -7.140036581768e+01 0.0 
0.0 0.0 -2.917506481684e+01 
-1.378282290953e+02 1.724426630050e+01 0.0 
1.724426630050e+01 -3.455200924971e+02 0.0 
0.0 0.0 -1.446044964777e+02 
-6.550832841854e+01 1.022235768500e+00 0.0 
1.022235768500e+00 -1.194548870743e+02 0.0 
0.0 0.0 -5.508896464784e+01 
-1.435457487624e+02 2.472212873059e+01 0.0 
2.472212873059e+01 -3.421060344491e+02 0.0 
0.0 0.0 -1.452955349634e+02 
-1.162239648912e+02 2.462708713803e+01 0.0 
2.462708713803e+01 -2.891232635525e+02 0.0 
0.0 0.0 -1.212041685331e+02 
-7.342951823887e+01 6.173005839808e+00 0.0 
6.173005839808e+00 -1.245068971489e+02 0.0 
0.0 0.0 -5.898092461633e+01 
-1.529723548329e+02 9.675314786782e+00 0.0 
9.675314786782e+00 -3.740089486692e+02 0.0 
0.0 0.0 -1.576943910506e+02 
-1.183422577389e+02 1.312720763331e+01 0.0 
1.312720763331e+01 -2.632884398416e+02 0.0 
0.0 0.0 -1.140892092741e+02 
-1.123248604575e+02 8.662767472789e-01 0.0 
8.662767472789e-01 -2.545287768687e+02 0.0 
0.0 0.0 -1.096560911979e+02 
-3.698732498410e+01 2.593700985347e+01 0.0 
2.593700985347e+01 -2.752801316733e+01 0.0 
0.0 0.0 -1.725937889760e+01 
-1.089753352850e+02 9.303177614935e+00 0.0 
9.303177614935e+00 -2.390463164162e+02 0.0 
0.0 0.0 -1.040064955104e+02 
-1.323919010978e+02 2.632762793020e+01 0.0 
2.632762793020e+01 -3.083221477474e+02 0.0 
0.0 0.0 -1.318142146536e+02 
-1.365978537347e+02 1.819782512303e+01 0.0 
1.819782512303e+01 -3.456050795150e+02 0.0 
0.0 0.0 -1.442608799749e+02 
-1.200203811556e+02 2.232671294057e+01 0.0 
2.232671294057e+01 -3.020538073491e+02 0.0 
0.0 0.0 -1.262222565514e+02 
-1.676243313092e+02 4.481694163443e+00 0.0 
4.481694163443e+00 -3.924567730549e+02 0.0 
0.0 0.0 -1.676243313092e+02 
-1.074546926323e+02 2.034279067889e+01 0.0 
2.034279067889e+01 -2.285256570707e+02 0.0 
0.0 0.0 -1.003941049109e+02 
-5.562473262100e+01 2.069721016367e+01 0.0 
2.069721016367e+01 -7.273978505403e+01 0.0 
0.0 0.0 -3.906109820304e+01 
-3.647743798433e+01 2.943171322756e+01 0.0 
2.943171322756e+01 -7.019267781717e+01 0.0 
0.0 0.0 -3.022340507279e+01 
-1.191578019170e+02 2.350982176942e+01 0.0 
2.350982176942e+01 -2.579639200977e+02 0.0 
0.0 0.0 -1.127365166044e+02 
-7.632300080871e+01 4.379269939835e+00 0.0 
4.379269939835e+00 -1.382562373203e+02 0.0 
0.0 0.0 -6.397377143872e+01 
-1.514659447405e+02 1.425522079662e+00 0.0 
1.425522079662e+00 -3.590360876417e+02 0.0 
0.0 0.0 -1.527506097147e+02 
-1.261440061933e+02 2.513788961843e+01 0.0 
2.513788961843e+01 -3.081181293779e+02 0.0 
0.0 0.0 -1.298786406714e+02 
-1.596453449877e+02 3.873726356125e+00 0.0 
3.873726356125e+00 -3.783798966131e+02 0.0 
0.0 0.0 -1.610075724802e+02 
-9.166627140587e+01 7.654802363668e-01 0.0 
7.654802363668e-01 -1.950253357568e+02 0.0 
0.0 0.0 -8.560748214879e+01 
-1.456421678643e+02 2.372187598181e+01 0.0 
2.372187598181e+01 -3.478940877064e+02 0.0 
0.0 0.0 -1.476608766712e+02 
-1.483756176893e+02 8.336323101564e+00 0.0 
8.336323101564e+00 -3.633915902109e+02 0.0 
0.0 0.0 -1.531301623701e+02 
-1.471094520385e+02 7.400214792233e+00 0.0 
7.400214792233e+00 -3.627295478191e+02 0.0 
0.0 0.0 -1.525516999573e+02 
-6.042570914522e+01 -1.260630275238e+00 0.0 
-1.260630275238e+00 -1.479855777174e+02 0.0 
0.0 0.0 -6.212338605880e+01 
-1.658284149985e+02 3.344763744612e+00 0.0 
3.344763744612e+00 -3.918725226040e+02 0.0 
0.0 0.0 -1.669102812807e+02 
-6.072706255059e+01 1.897172528400e+00 0.0 
1.897172528400e+00 -1.038826734397e+02 0.0 
0.0 0.0 -4.898292079710e+01 
-1.060850343924e+02 3.321511406715e+00 0.0 
3.321511406715e+00 -2.359192769409e+02 0.0 
0.0 0.0 -1.022012934000e+02 
-2.741857653322e+01 -7.446131778027e+00 0.0 
-7.446131778027e+00 -4.317600940413e+01 0.0 
0.0 0.0 -1.987855231528e+01 
-1.011461407188e+02 1.684384977136e+00 0.0 
1.684384977136e+00 -2.207805076629e+02 0.0 
0.0 0.0 -9.617799451451e+01 
-8.299473825739e+01 1.140077052096e+00 0.0 
1.140077052096e+00 -1.703015561091e+02 0.0 
0.0 0.0 -7.558888830994e+01 
-1.226345990068e+01 5.358501480038e-01 0.0 
5.358501480038e-01 -4.188963722499e+01 0.0 
0.0 0.0 -1.584592913770e+01 
-3.222332400064e+01 -1.433972615181e+01 0.0 
-1.433972615181e+01 -1.309546512155e+02 0.0 
0.0 0.0 -4.948162193246e+01 
-1.112256739088e+02 2.170843682219e+01 0.0 
2.170843682219e+01 -2.430346668099e+02 0.0 
0.0 0.0 -1.058781022156e+02 
-1.116052158064e+02 6.928399065348e+00 0.0 
6.928399065348e+00 -2.549056089456e+02 0.0 
0.0 0.0 -1.095532474256e+02 
-1.063875451248e+02 1.958225586467e+00 0.0 
1.958225586467e+00 -2.385318742307e+02 0.0 
0.0 0.0 -1.030758258066e+02 
-1.412583588773e+02 2.259956031367e+01 0.0 
2.259956031367e+01 -3.470572012432e+02 0.0 
0.0 0.0 -1.460946680361e+02 
-6.834296345775e+01 1.058121907982e-02 0.0 
1.058121907982e-02 -1.328256798778e+02 0.0 
0.0 0.0 -5.995059300067e+01 
-8.391878108912e+00 -9.332977043619e-01 0.0 
-9.332977043619e-01 -2.493167501732e+01 0.0 
0.0 0.0 -9.488422174982e+00 
-3.882922918035e+01 2.179079225682e+01 0.0 
2.179079225682e+01 -1.119623390165e+02 0.0 
0.0 0.0 -4.681043209488e+01 
-1.173429292244e+01 -2.424911058331e+00 0.0 
-2.424911058331e+00 -2.851130653747e+01 0.0 
0.0 0.0 -1.167367983797e+01 
-2.921936025092e+01 -6.992938312576e+00 0.0 
-6.992938312576e+00 -5.781504926534e+01 0.0 
0.0 0.0 -2.549182909673e+01 
-4.788346903314e+01 3.897705996267e+01 0.0 
3.897705996267e+01 -5.719093881657e+01 0.0 
0.0 0.0 -3.197277356960e+01 
-8.123044769879e+01 -2.511628682173e+00 0.0 
-2.511628682173e+00 -1.983505525940e+02 0.0 
0.0 0.0 -8.347430008784e+01 
-1.511132573080e+02 -1.269462883936e-01 0.0 
-1.269462883936e-01 -3.588378168014e+02 0.0 
0.0 0.0 -1.525853222328e+02 
-1.176136100998e+02 1.847627280442e+01 0.0 
1.847627280442e+01 -2.580008591009e+02 0.0 
0.0 0.0 -1.122843407602e+02 
-8.138319453860e+01 8.939739696060e+00 0.0 
8.939739696060e+00 -1.411636652231e+02 0.0 
0.0 0.0 -6.636405792851e+01 
-7.070776168079e+01 -2.013248898281e+00 0.0 
-2.013248898281e+00 -1.743850915437e+02 0.0 
0.0 0.0 -7.312785596733e+01 
-1.480367098134e+02 6.028273228328e+00 0.0 
6.028273228328e+00 -3.614148299874e+02 0.0 
0.0 0.0 -1.524354619402e+02 
-1.389274809078e+02 1.153077401159e+01 0.0 
1.153077401159e+01 -3.530390088969e+02 0.0 
0.0 0.0 -1.471899469414e+02 
-1.401837962692e+02 2.612764083531e+01 0.0 
2.612764083531e+01 -3.393385519291e+02 0.0 
0.0 0.0 -1.434567044595e+02 
-1.282037733047e+02 2.576738509030e+01 0.0 
2.576738509030e+01 -2.980003511486e+02 0.0 
0.0 0.0 -1.274612373360e+02 
-1.177789204390e+02 2.269200373359e+01 0.0 
2.269200373359e+01 -2.627495990669e+02 0.0 
0.0 0.0 -1.137585558518e+02 
-2.664204919529e+01 -6.363900740722e+00 0.0 
-6.363900740722e+00 -4.239998071058e+01 0.0 
0.0 0.0 -1.966053758560e+01 
-4.082422686220e+01 -1.818257659658e+01 0.0 
-1.818257659658e+01 -1.120496304640e+02 0.0 
0.0 0.0 -4.762461349405e+01 
-1.514715250947e+02 1.819545654431e+00 0.0 
1.819545654431e+00 -3.607691119451e+02 0.0 
0.0 0.0 -1.532721911119e+02 
-1.294581895708e+01 -3.759712495150e-01 0.0 
-3.759712495150e-01 -4.135482820725e+01 0.0 
0.0 0.0 -1.589019414930e+01 
-1.618496761294e+01 -1.313273325150e+00 0.0 
-1.313273325150e+00 -4.934367136592e+01 0.0 
0.0 0.0 -1.925859169366e+01 
-4.149918154637e+01 3.405228669829e+01 0.0 
3.405228669829e+01 -5.567192625879e+01 0.0 
0.0 0.0 -2.941382544420e+01 
-1.554738382605e+01 -1.429073944627e+00 0.0 
-1.429073944627e+00 -3.841720039504e+01 0.0 
0.0 0.0 -1.578937526633e+01 
-1.572494182205e+02 8.537449667259e+00 0.0 
8.537449667259e+00 -3.766054032676e+02 0.0 
0.0 0.0 -1.597564464464e+02 
-1.290442294824e+02 2.562223036032e+01 0.0 
2.562223036032e+01 -2.962252432329e+02 0.0 
0.0 0.0 -1.271808418146e+02 
-1.072127391958e+02 3.824537515088e+00 0.0 
3.824537515088e+00 -2.415185594755e+02 0.0 
0.0 0.0 -1.042193896014e+02 
-1.421252127408e+02 2.571478587235e+01 0.0 
2.571478587235e+01 -3.379932289054e+02 0.0 
0.0 0.0 -1.436355324939e+02 
-1.345978174685e+02 1.293400455477e+01 0.0 
1.293400455477e+01 -3.432481214414e+02 0.0 
0.0 0.0 -1.429537816730e+02 
-7.286785285904e+01 7.554797870363e-03 0.0 
7.554797870363e-03 -1.442198649276e+02 0.0 
0.0 0.0 -6.472631533600e+01 
-1.170956583561e+02 9.463085701646e+00 0.0 
9.463085701646e+00 -2.745565361641e+02 0.0 
0.0 0.0 -1.170956583561e+02 
-4.224473796798e+01 -1.953371629877e+01 0.0 
-1.953371629877e+01 -1.300758775080e+02 0.0 
0.0 0.0 -5.041223932747e+01 
-5.014881901238e+01 2.065475955253e-01 0.0 
2.065475955253e-01 -8.561556760312e+01 0.0 
0.0 0.0 -4.032931598465e+01 
-4.441421727504e+01 -2.114735826086e+01 0.0 
-2.114735826086e+01 -7.377703018083e+01 0.0 
0.0 0.0 -3.323664682112e+01 
-6.873994682723e+00 -8.867885129919e-01 0.0 
-8.867885129919e-01 -2.460763511050e+01 0.0 
0.0 0.0 -9.626708536151e+00 
-1.660517878366e+02 1.722156145420e+00 0.0 
1.722156145420e+00 -3.912973360516e+02 0.0 
0.0 0.0 -1.668047371665e+02 
-6.608162507742e+01 4.846417467486e+00 0.0 
4.846417467486e+00 -1.091514908425e+02 0.0 
0.0 0.0 -5.216993477597e+01 
-2.073998401716e+01 -1.226331928745e+00 0.0 
-1.226331928745e+00 -5.752575836661e+01 0.0 
0.0 0.0 -2.307972271513e+01 
-7.736527828400e+01 -2.452935711780e+00 0.0 
-2.452935711780e+00 -1.901701781019e+02 0.0 
0.0 0.0 -7.986063691577e+01 
-1.303344609409e+02 2.596823735232e+01 0.0 
2.596823735232e+01 -2.953760113919e+02 0.0 
0.0 0.0 -1.273131416998e+02 
-1.092454197243e+02 7.207724851809e+00 0.0 
7.207724851809e+00 -2.411793419311e+02 0.0 
0.0 0.0 -1.047274284966e+02 
-1.167608593354e+02 1.511469912860e+01 0.0 
1.511469912860e+01 -2.649147927174e+02 0.0 
0.0 0.0 -1.141026956158e+02 
-5.496229359041e+01 -3.668342033523e-01 0.0 
-3.668342033523e-01 -1.345809797091e+02 0.0 
0.0 0.0 -5.646298198986e+01 
-4.057570274565e+01 2.859429238243e+00 0.0 
2.859429238243e+00 -1.216256321707e+02 0.0 
0.0 0.0 -5.059023341837e+01 
-1.570934568482e+02 4.598490461842e+00 0.0 
4.598490461842e+00 -3.769470337086e+02 0.0 
0.0 0.0 -1.598121471670e+02 
-1.180475349203e+02 8.001990657139e-01 0.0 
8.001990657139e-01 -2.715099896307e+02 0.0 
0.0 0.0 -1.164672573653e+02 
-1.661955148638e+02 3.873387882653e-01 0.0 
3.873387882653e-01 -3.910488183769e+02 0.0 
0.0 0.0 -1.667732999722e+02 
-5.436251441529e+01 -4.653717345312e-01 0.0 
-4.653717345312e-01 -1.001218678607e+02 0.0 
0.0 0.0 -4.594531468280e+01 
-1.439198303064e+02 1.321628680077e+01 0.0 
1.321628680077e+01 -3.563307229498e+02 0.0 
0.0 0.0 -1.496751659769e+02 
-2.217362047258e+01 -7.732081510624e-01 0.0 
-7.732081510624e-01 -5.851553633868e+01 0.0 
0.0 0.0 -2.380674704338e+01 
-1.121661383074e+02 1.085943656420e+01 0.0 
1.085943656420e+01 -2.486766421005e+02 0.0 
0.0 0.0 -1.078528341224e+02 
-7.332341078191e+00 -6.322544705716e-01 0.0 
-6.322544705716e-01 -2.339620965358e+01 0.0 
0.0 0.0 -9.178729144536e+00 
-1.560331224689e+02 1.158891787724e+01 0.0 
1.158891787724e+01 -3.749319246259e+02 0.0 
0.0 0.0 -1.588895141284e+02 
-1.202069031283e+02 1.600191888427e+01 0.0 
1.600191888427e+01 -2.666808601270e+02 0.0 
0.0 0.0 -1.156663289766e+02 
-4.533207989597e+01 1.344977889981e+01 0.0 
1.344977889981e+01 -1.185787336380e+02 0.0 
0.0 0.0 -5.053951826395e+01 
-1.241040747319e+02 2.616792187250e+01 0.0 
2.616792187250e+01 -2.968485489126e+02 0.0 
0.0 0.0 -1.258857870933e+02 
-8.831372095969e+01 2.005531183347e+00 0.0 
2.005531183347e+00 -1.849833750157e+02 0.0 
0.0 0.0 -8.158912879261e+01 
-1.112370950746e+02 5.164469372577e+00 0.0 
5.164469372577e+00 -2.553550737523e+02 0.0 
0.0 0.0 -1.095776506481e+02 
-1.590025811877e+02 2.271126623584e+01 0.0 
2.271126623584e+01 -3.723393561047e+02 0.0 
0.0 0.0 -1.590025811877e+02 
-7.741471399244e+01 1.531037705770e+00 0.0 
1.531037705770e+00 -1.578737711547e+02 0.0 
0.0 0.0 -7.018654554414e+01 
-1.269186765120e+02 2.432994229938e+01 0.0 
2.432994229938e+01 -2.914726852182e+02 0.0 
0.0 0.0 -1.251174085191e+02 
-1.161431897802e+02 1.522812395862e+01 0.0 
1.522812395862e+01 -2.522334833478e+02 0.0 
0.0 0.0 -1.101130019384e+02 
-8.145645283470e+01 7.819521800989e-01 0.0 
7.819521800989e-01 -1.694225569933e+02 0.0 
0.0 0.0 -7.486370294841e+01 
-1.245005139451e+02 2.389418753526e+01 0.0 
2.389418753526e+01 -2.807919262270e+02 0.0 
0.0 0.0 -1.211877320516e+02 
-6.658930688391e+01 -1.212510244379e+00 0.0 
-1.212510244379e+00 -1.621803172190e+02 0.0 
0.0 0.0 -6.823088723086e+01 
-4.857813716516e+01 1.495798466811e-01 0.0 
1.495798466811e-01 -8.559538966956e+01 0.0 
0.0 0.0 -3.985205805042e+01 
-1.336798225121e+02 2.489810394648e+01 0.0 
2.489810394648e+01 -3.244789157756e+02 0.0 
0.0 0.0 -1.370476214863e+02 
-1.117359083191e+02 1.614825582978e-01 0.0 
1.614825582978e-01 -2.562181788319e+02 0.0 
0.0 0.0 -1.099862261453e+02 
6.618630444763e-01 2.493485570373e-03 0.0 
2.493485570373e-03 -8.791487869214e+00 0.0 
0.0 0.0 -1.689318479224e+00 
-4.821472438710e+01 -2.153395899194e-01 0.0 
-2.153395899194e-01 -8.587679482826e+01 0.0 
0.0 0.0 -3.982745576461e+01 
-1.606128295262e+02 7.149069918830e-01 0.0 
7.149069918830e-01 -3.780641438859e+02 0.0 
0.0 0.0 -1.612030920236e+02 
-3.029706370084e+01 -3.274270824331e+00 0.0 
-3.274270824331e+00 -7.384063091938e+01 0.0 
0.0 0.0 -3.084130838607e+01 
-1.373424693167e+02 1.610657858687e+01 0.0 
1.610657858687e+01 -3.499489015042e+02 0.0 
0.0 0.0 -1.457874112463e+02 
-1.188134546148e+02 1.788096972143e+01 0.0 
1.788096972143e+01 -2.549981544719e+02 0.0 
0.0 0.0 -1.117434827260e+02 
-1.129200060022e+02 5.188229686970e+00 0.0 
5.188229686970e+00 -2.548355538954e+02 0.0 
0.0 0.0 -1.099266679693e+02 
-2.767950828273e+01 -2.203945734645e+00 0.0 
-2.203945734645e+00 -7.078962132736e+01 0.0 
0.0 0.0 -2.914073888303e+01 
-4.133410647864e+01 3.437198825892e+01 0.0 
3.437198825892e+01 -8.653758848790e+01 0.0 
0.0 0.0 -3.753977886177e+01 
-9.467368079665e+01 -1.564022526407e+00 0.0 
-1.564022526407e+00 -2.319931480645e+02 0.0 
0.0 0.0 -9.760004865835e+01 
-9.485207643350e+01 6.541413319584e-01 0.0 
6.541413319584e-01 -2.063633185261e+02 0.0 
0.0 0.0 -8.996461848787e+01 
-1.180173327364e+02 -3.885382316584e+00 0.0 
-3.885382316584e+00 -9.706657052994e+01 0.0 
0.0 0.0 -6.474955549269e+01 
-1.150730967675e+02 1.246614415148e+01 0.0 
1.246614415148e+01 -2.620395438427e+02 0.0 
0.0 0.0 -1.127337921830e+02 
-7.470426991744e+01 3.940640467060e-01 0.0 
3.940640467060e-01 -1.517021053296e+02 0.0 
0.0 0.0 -6.752191257410e+01 
-4.417314688372e+01 -1.952747015863e+01 0.0 
-1.952747015863e+01 -9.050273631531e+01 0.0 
0.0 0.0 -3.814258374047e+01 
-6.956231860380e+01 4.510402794182e-01 0.0 
4.510402794182e-01 -1.378173976239e+02 0.0 
0.0 0.0 -6.181391486832e+01 
-1.390768120296e+02 2.794579093964e+01 0.0 
2.794579093964e+01 -3.319700073040e+02 0.0 
0.0 0.0 -1.409140458001e+02 
-9.969008191845e+01 1.038769886770e+00 0.0 
1.038769886770e+00 -2.431100401099e+02 0.0 
0.0 0.0 -1.024400366085e+02 
-4.865008305181e+01 3.430422621476e+01 0.0 
3.430422621476e+01 -3.171632808922e+01 0.0 
0.0 0.0 -2.485606267247e+01 
-5.963130874852e+01 -2.858382754322e+00 0.0 
-2.858382754322e+00 -1.469739035573e+02 0.0 
0.0 0.0 -6.158156369175e+01 
-8.679066853409e+01 -2.169049286268e+00 0.0 
-2.169049286268e+00 -2.133237424491e+02 0.0 
0.0 0.0 -8.963432329496e+01 
-1.039661586383e+02 -1.550130570903e+00 0.0 
-1.550130570903e+00 -2.523827811996e+02 0.0 
0.0 0.0 -1.065046819514e+02 
-1.365602756430e+02 2.397782278730e+01 0.0 
2.397782278730e+01 -3.344350598410e+02 0.0 
0.0 0.0 -1.408986006452e+02 
-8.467796295098e+01 -1.666011613772e-01 0.0 
-1.666011613772e-01 -2.078287015319e+02 0.0 
0.0 0.0 -8.735199934486e+01 
-9.021361495108e+01 -1.425222368007e+00 0.0 
-1.425222368007e+00 -2.205113276788e+02 0.0 
0.0 0.0 -9.281748278895e+01 
-1.499026255980e+01 -2.455949246439e+00 0.0 
-2.455949246439e+00 -3.730017298192e+01 0.0 
0.0 0.0 -1.528713066252e+01 
-1.513573880063e+02 2.804833547127e+00 0.0 
2.804833547127e+00 -3.651985475089e+02 0.0 
0.0 0.0 -1.545667806546e+02 
-1.223901044298e+02 2.484083758269e+01 0.0 
2.484083758269e+01 -2.852190216207e+02 0.0 
0.0 0.0 -1.218827378151e+02 
-3.787130399379e+01 3.163638633029e+01 0.0 
3.163638633029e+01 -1.016364705912e+02 0.0 
0.0 0.0 -4.255896609478e+01 
-1.112638134761e+02 1.073393912928e+00 0.0 
1.073393912928e+00 -2.554449401256e+02 0.0 
0.0 0.0 -1.096126260805e+02 
-1.604078941074e+02 -3.452541955097e-01 0.0 
-3.452541955097e-01 -3.775257312840e+02 0.0 
0.0 0.0 -1.609800876174e+02 
-5.486878430797e+01 6.670023893908e-01 0.0 
6.670023893908e-01 -1.011773085042e+02 0.0 
0.0 0.0 -4.641382784364e+01 
-7.526025574319e+01 3.450070631881e-01 0.0 
3.450070631881e-01 -1.519233341778e+02 0.0 
0.0 0.0 -6.775507697631e+01 
-8.488605650894e+01 -2.008754589708e+00 0.0 
-2.008754589708e+00 -2.076234159114e+02 0.0 
0.0 0.0 -8.735284172611e+01 
-8.804271412791e+01 -8.519014641167e-01 0.0 
-8.519014641167e-01 -2.147392671009e+02 0.0 
0.0 0.0 -9.043459436865e+01 
-9.032010925076e+01 -6.514701144046e-01 0.0 
-6.514701144046e-01 -2.213439340187e+02 0.0 
0.0 0.0 -9.309921298084e+01 
-1.315980066603e+02 1.539454390646e+01 0.0 
1.539454390646e+01 -3.381650394906e+02 0.0 
0.0 0.0 -1.405289138453e+02 
-3.723913919898e+01 -1.706773010673e+01 0.0 
-1.706773010673e+01 -6.716759255654e+01 0.0 
0.0 0.0 -2.963165637522e+01 
-1.274147124737e+02 2.733429867293e+01 0.0 
2.733429867293e+01 -2.929235064904e+02 0.0 
0.0 0.0 -1.257014656892e+02 
-6.153251199607e+01 -5.176292545700e-03 0.0 
-5.176292545700e-03 -1.179381179968e+02 0.0 
0.0 0.0 -5.344118899787e+01 
-1.178255793997e+02 1.235240903956e+01 0.0 
1.235240903956e+01 -2.612947918152e+02 0.0 
0.0 0.0 -1.133361113645e+02 
-1.332440279659e+02 1.580561315586e+01 0.0 
1.580561315586e+01 -3.387920509559e+02 0.0 
0.0 0.0 -1.412108236765e+02 
-7.107821966851e+01 1.043133962137e+00 0.0 
1.043133962137e+00 -1.388082151222e+02 0.0 
0.0 0.0 -6.256593043722e+01 
-1.198156103005e+02 2.267333777209e+01 0.0 
2.267333777209e+01 -2.672143710773e+02 0.0 
0.0 0.0 -1.157089944133e+02 
-1.354589116329e+02 2.269924781380e+01 0.0 
2.269924781380e+01 -3.333346015660e+02 0.0 
0.0 0.0 -1.402380539597e+02 
-1.413983304617e+02 2.567712161702e+01 0.0 
2.567712161702e+01 -3.440585450217e+02 0.0 
0.0 0.0 -1.452370626450e+02 
-4.559024779053e+01 3.749700503715e+01 0.0 
3.749700503715e+01 -6.843999585619e+01 0.0 
0.0 0.0 -3.518904972369e+01 
-1.214800709569e+02 2.430221086474e+01 0.0 
2.430221086474e+01 -2.681819978154e+02 0.0 
0.0 0.0 -1.164986206317e+02 
-1.251508605171e+02 2.437837629185e+01 0.0 
2.437837629185e+01 -2.824085785429e+02 0.0 
0.0 0.0 -1.218678317180e+02 
-1.335569858923e+01 -8.746617784853e-01 0.0 
-8.746617784853e-01 -3.797764667193e+01 0.0 
0.0 0.0 -1.500000357835e+01 
-8.077614532882e+01 -9.882521055114e-01 0.0 
-9.882521055114e-01 -1.976942328925e+02 0.0 
0.0 0.0 -8.314111346641e+01 
-5.096213775553e+01 3.756123200456e+01 0.0 
3.756123200456e+01 -6.722341801843e+01 0.0 
0.0 0.0 -3.641818615463e+01 
-1.255378310339e+02 2.489332134709e+01 0.0 
2.489332134709e+01 -2.780389815538e+02 0.0 
0.0 0.0 -1.206730437763e+02 
-1.672713939535e+01 4.386236519061e-01 0.0 
4.386236519061e-01 -1.146043902503e+01 0.0 
0.0 0.0 -8.056273526112e+00 
-1.568370971428e+01 -1.282122036126e-01 0.0 
-1.282122036126e-01 -9.757864001600e+00 0.0 
0.0 0.0 -7.232472114765e+00 
-1.589058514699e+01 6.364140054012e-02 0.0 
6.364140054012e-02 -9.818665199178e+00 0.0 
0.0 0.0 -7.312775103850e+00 
-1.562270156661e+01 -1.675893021025e-02 0.0 
-1.675893021025e-02 -9.663785370443e+00 0.0 
0.0 0.0 -7.185946081116e+00 
-1.575490552724e+01 -4.289976774085e-02 0.0 
-4.289976774085e-02 -9.725450829272e+00 0.0 
0.0 0.0 -7.244106906954e+00 
-1.555696869681e+01 -8.403585817492e-02 0.0 
-8.403585817492e-02 -9.679070459363e+00 0.0 
0.0 0.0 -7.170811746851e+00 
-1.562781434007e+01 -1.024274715893e-01 0.0 
-1.024274715893e-01 -9.714129420850e+00 0.0 
0.0 0.0 -7.202583128276e+00 
-1.536287317679e+01 -1.487717029501e-01 0.0 
-1.487717029501e-01 -9.674596452545e+00 0.0 
0.0 0.0 -7.111240888800e+00 
-1.548779478433e+01 -1.406569920300e-01 0.0 
-1.406569920300e-01 -9.723612505689e+00 0.0 
0.0 0.0 -7.163422187005e+00 
-1.506391272387e+01 -2.109643040954e-01 0.0 
-2.109643040954e-01 -9.656755399544e+00 0.0 
0.0 0.0 -7.016200437025e+00 
-1.531696544608e+01 -1.714396070400e-01 0.0 
-1.714396070400e-01 -9.743409315421e+00 0.0 
0.0 0.0 -7.118112428452e+00 
-1.466960828747e+01 -2.733209203818e-01 0.0 
-2.733209203818e-01 -9.634726923801e+00 0.0 
0.0 0.0 -6.891300563382e+00 
-1.511320829633e+01 -1.924730601535e-01 0.0 
-1.924730601535e-01 -9.772642170581e+00 0.0 
0.0 0.0 -7.065755140073e+00 
-1.418983842767e+01 -3.330943342534e-01 0.0 
-3.330943342534e-01 -9.598753788835e+00 0.0 
0.0 0.0 -6.736577664953e+00 
-1.489300035736e+01 -2.145593250268e-01 0.0 
-2.145593250268e-01 -9.807832337145e+00 0.0 
0.0 0.0 -7.010249808351e+00 
-1.362452300577e+01 -3.984205005201e-01 0.0 
-3.984205005201e-01 -9.553485662393e+00 0.0 
0.0 0.0 -6.553402600450e+00 
-1.754925839122e+01 4.760768467016e+00 0.0 
4.760768467016e+00 -1.302568444525e+01 0.0 
0.0 0.0 -8.772482850942e+00 
-1.466182710243e+01 -2.415405262129e-01 0.0 
-2.415405262129e-01 -9.851137613429e+00 0.0 
0.0 0.0 -6.953889414756e+00 
-1.296304697016e+01 -4.687925387168e-01 0.0 
-4.687925387168e-01 -9.509269601780e+00 0.0 
0.0 0.0 -6.341694971581e+00 
-9.220178776846e+00 9.900755761574e-01 0.0 
9.900755761574e-01 -5.672467248094e+00 0.0 
0.0 0.0 -4.067793807482e+00 
-1.440089163800e+01 -2.680822786013e-01 0.0 
-2.680822786013e-01 -9.902799974201e+00 0.0 
0.0 0.0 -6.891107483659e+00 
-1.220256713375e+01 -5.363825845287e-01 0.0 
-5.363825845287e-01 -9.460828283797e+00 0.0 
0.0 0.0 -6.099018625264e+00 
-2.243873124962e+01 2.954254445373e+00 0.0 
2.954254445373e+00 -1.111315658224e+01 0.0 
0.0 0.0 -9.665566349560e+00 
-1.415601476697e+01 -2.841770233506e-01 0.0 
-2.841770233506e-01 -9.968585925092e+00 0.0 
0.0 0.0 -6.837380207618e+00 
-1.135855873582e+01 -5.935280879239e-01 0.0 
-5.935280879239e-01 -9.402942379410e+00 0.0 
0.0 0.0 -5.828450334570e+00 
-1.396586330489e+01 -2.886301811689e-01 0.0 
-2.886301811689e-01 -1.004929072865e+01 0.0 
0.0 0.0 -6.804546210062e+00 
-1.045484653899e+01 -6.363941804070e-01 0.0 
-6.363941804070e-01 -9.333894711973e+00 0.0 
0.0 0.0 -5.536622375287e+00 
-1.386298727454e+01 -2.836813726887e-01 0.0 
-2.836813726887e-01 -1.014367979046e+01 0.0 
0.0 0.0 -6.802000119500e+00 
-9.514101068285e+00 -6.702573158056e-01 0.0 
-6.702573158056e-01 -9.234771823457e+00 0.0 
0.0 0.0 -5.224661867523e+00 
-2.893951762759e+01 8.735874721305e+00 0.0 
8.735874721305e+00 -1.303613913922e+01 0.0 
0.0 0.0 -1.219269703004e+01 
-1.393986656267e+01 -2.890763410590e-01 0.0 
-2.890763410590e-01 -1.026212738340e+01 0.0 
0.0 0.0 -6.860598183819e+00 
-8.547601891816e+00 -6.639533030316e-01 0.0 
-6.639533030316e-01 -9.212341676307e+00 0.0 
0.0 0.0 -4.927983070437e+00 
-1.417346171699e+01 -1.964652971781e-01 0.0 
-1.964652971781e-01 -1.040317700845e+01 0.0 
0.0 0.0 -6.972991617633e+00 
-7.711344720657e+00 -5.743317299640e-01 0.0 
-5.743317299640e-01 -9.113276105067e+00 0.0 
0.0 0.0 -4.647386247717e+00 
-7.162171034582e+00 -2.966832221275e-01 0.0 
-2.966832221275e-01 -9.285849169410e+00 0.0 
0.0 0.0 -4.534406061198e+00 
-1.491442227690e+01 -8.049669606079e-02 0.0 
-8.049669606079e-02 -1.058430456176e+01 0.0 
0.0 0.0 -7.249618051598e+00 
-7.482664339240e+00 2.359053511297e-01 0.0 
2.359053511297e-01 -9.235733049974e+00 0.0 
0.0 0.0 -4.615519216764e+00 
-1.604391068792e+01 3.947987173344e-01 0.0 
3.947987173344e-01 -1.076271325975e+01 0.0 
0.0 0.0 -7.641987184302e+00 
-9.188685803116e+00 1.470988963773e+00 0.0 
1.470988963773e+00 -1.036474124335e+01 0.0 
0.0 0.0 -5.466028113940e+00 
-1.823608292662e+01 9.000551415275e-01 0.0 
9.000551415275e-01 -1.096274702000e+01 0.0 
0.0 0.0 -8.359648983986e+00 
-2.067634343336e+01 2.733001698960e+00 0.0 
2.733001698960e+00 6.554170536428e-01 0.0 
0.0 0.0 -5.441852956902e+00 
-1.696073515652e+01 1.489137122847e+00 0.0 
1.489137122847e+00 -9.450281522525e+00 0.0 
0.0 0.0 -7.523305003712e+00 
-1.661039116985e+01 -1.296154322761e+00 0.0 
-1.296154322761e+00 -1.153440956482e+01 0.0 
0.0 0.0 -8.043440220400e+00 
-1.495608535862e+01 2.278958604329e-01 0.0 
2.278958604329e-01 -5.287325364761e+00 0.0 
0.0 0.0 -5.673023217015e+00 
-1.851199312945e+01 -9.235309557545e-02 0.0 
-9.235309557545e-02 -1.551812685131e+01 0.0 
0.0 0.0 -9.809035994227e+00 
-2.943662795974e+01 9.311201185061e+00 0.0 
9.311201185061e+00 -1.097513195978e+01 0.0 
0.0 0.0 -1.172352797586e+01 
-2.367573977752e+01 1.978609333753e-01 0.0 
1.978609333753e-01 -2.767383991675e+01 0.0 
0.0 0.0 -1.500487390828e+01 
-2.434294402799e+01 -2.857316191466e-01 0.0 
-2.857316191466e-01 -2.929872247866e+01 0.0 
0.0 0.0 -1.569249995199e+01 
-2.423276934990e+01 -6.174907781747e-02 0.0 
-6.174907781747e-02 -2.928376167264e+01 0.0 
0.0 0.0 -1.565495930676e+01 
-2.442256972221e+01 -1.308602252300e-01 0.0 
-1.308602252300e-01 -2.944418388928e+01 0.0 
0.0 0.0 -1.576002608345e+01 
-2.415604788206e+01 -1.451556218032e-01 0.0 
-1.451556218032e-01 -2.932811632384e+01 0.0 
0.0 0.0 -1.564524926177e+01 
-2.440024664665e+01 -2.230519109657e-01 0.0 
-2.230519109657e-01 -2.949225691541e+01 0.0 
0.0 0.0 -1.576775106862e+01 
-2.404078111860e+01 -2.117677102035e-01 0.0 
-2.117677102035e-01 -2.934438523742e+01 0.0 
0.0 0.0 -1.561554990680e+01 
-2.441729930372e+01 -3.128663048724e-01 0.0 
-3.128663048724e-01 -2.953168151673e+01 0.0 
0.0 0.0 -1.578469424613e+01 
-2.388776227611e+01 -2.794920184439e-01 0.0 
-2.794920184439e-01 -2.932353665318e+01 0.0 
0.0 0.0 -1.556338967879e+01 
-2.442469296735e+01 -4.134026631856e-01 0.0 
-4.134026631856e-01 -2.956600867871e+01 0.0 
0.0 0.0 -1.579721049382e+01 
-2.369781648632e+01 -3.423273532731e-01 0.0 
-3.423273532731e-01 -2.929872840931e+01 0.0 
0.0 0.0 -1.549896346869e+01 
-2.444001948114e+01 -5.149161532861e-01 0.0 
-5.149161532861e-01 -2.960896479729e+01 0.0 
0.0 0.0 -1.581469528353e+01 
-2.347406870908e+01 -3.928187253407e-01 0.0 
-3.928187253407e-01 -2.928131646701e+01 0.0 
0.0 0.0 -1.542661555283e+01 
-2.444096115666e+01 -5.954732032461e-01 0.0 
-5.954732032461e-01 -2.963790521189e+01 0.0 
0.0 0.0 -1.582365991056e+01 
-2.322547391070e+01 -4.356733598080e-01 0.0 
-4.356733598080e-01 -2.925027062827e+01 0.0 
0.0 0.0 -1.534272336169e+01 
-2.932963498245e+01 5.041287984886e+00 0.0 
5.041287984886e+00 -3.367248239064e+01 0.0 
0.0 0.0 -1.850063521193e+01 
-2.452686359277e+01 -6.777935902872e-01 0.0 
-6.777935902872e-01 -2.967071114749e+01 0.0 
0.0 0.0 -1.585927242208e+01 
-3.193838738794e+01 2.835852822157e+00 0.0 
2.835852822157e+00 -3.121326208852e+01 0.0 
0.0 0.0 -1.854549484294e+01 
-2.294776214323e+01 -4.885926937864e-01 0.0 
-4.885926937864e-01 -2.918498604197e+01 0.0 
0.0 0.0 -1.523982445556e+01 
-2.459128009305e+01 -7.786107731210e-01 0.0 
-7.786107731210e-01 -2.971382803951e+01 0.0 
0.0 0.0 -1.589153243977e+01 
-2.266262068591e+01 -5.172849677576e-01 0.0 
-5.172849677576e-01 -2.918016775267e+01 0.0 
0.0 0.0 -1.515283653157e+01 
-2.469434800760e+01 -8.317077842392e-01 0.0 
-8.317077842392e-01 -2.976632906918e+01 0.0 
0.0 0.0 -1.593820312304e+01 
-2.239458972598e+01 -5.060083932994e-01 0.0 
-5.060083932994e-01 -2.919192749612e+01 0.0 
0.0 0.0 -1.507595516663e+01 
-2.492125613650e+01 -8.340763578342e-01 0.0 
-8.340763578342e-01 -2.982601157328e+01 0.0 
0.0 0.0 -1.602418031293e+01 
-2.507820748199e+01 3.191493152293e+00 0.0 
3.191493152293e+00 -2.692770431587e+01 0.0 
0.0 0.0 -1.520177353936e+01 
-2.217249998184e+01 -4.526143435022e-01 0.0 
-4.526143435022e-01 -2.919810964151e+01 0.0 
0.0 0.0 -1.501118288700e+01 
-2.526026313389e+01 -7.835426842262e-01 0.0 
-7.835426842262e-01 -2.988738734305e+01 0.0 
0.0 0.0 -1.614429514308e+01 
-2.204499151583e+01 -3.360517478471e-01 0.0 
-3.360517478471e-01 -2.923502302015e+01 0.0 
0.0 0.0 -1.498400436080e+01 
-2.574056917733e+01 -6.302725357688e-01 0.0 
-6.302725357688e-01 -2.992964705733e+01 0.0 
0.0 0.0 -1.630106487040e+01 
-2.208516629482e+01 -1.385328866675e-01 0.0 
-1.385328866675e-01 -2.926782675842e+01 0.0 
0.0 0.0 -1.500589791597e+01 
-2.662698252930e+01 -4.360217882139e-01 0.0 
-4.360217882139e-01 -3.011287232727e+01 0.0 
0.0 0.0 -1.662195645697e+01 
-2.240995688331e+01 2.664747344257e-01 0.0 
2.664747344257e-01 -2.962166572986e+01 0.0 
0.0 0.0 -1.520948678395e+01 
-2.739360922391e+01 1.879640408271e-01 0.0 
1.879640408271e-01 -3.018488894707e+01 0.0 
0.0 0.0 -1.687354945129e+01 
-2.925986154293e+01 9.626281250241e-01 0.0 
9.626281250241e-01 -3.066395254372e+01 0.0 
0.0 0.0 -1.757714422599e+01 
-2.321274703475e+01 9.766379625234e-01 0.0 
9.766379625234e-01 -2.994706233007e+01 0.0 
0.0 0.0 -1.554794280945e+01 
-3.490780683998e+01 6.074666308673e+00 0.0 
6.074666308673e+00 -3.452245489536e+01 0.0 
0.0 0.0 -2.042907852060e+01 
-2.479940922195e+01 2.274772149368e+00 0.0 
2.274772149368e+00 -3.119220983916e+01 0.0 
0.0 0.0 -1.639748571833e+01 
-2.944420064518e+01 3.851132182480e+00 0.0 
3.851132182480e+00 -2.357149012682e+01 0.0 
0.0 0.0 -1.550470723160e+01 
-2.397802936989e+01 1.420259474191e+00 0.0 
1.420259474191e+00 -2.990833595149e+01 0.0 
0.0 0.0 -1.576590959641e+01 
-2.433141405237e+01 -1.467793667556e+00 0.0 
-1.467793667556e+00 -2.783550135452e+01 0.0 
0.0 0.0 -1.525007462207e+01 
-2.629817130125e+01 1.108424999427e-01 0.0 
1.108424999427e-01 -3.401982302757e+01 0.0 
0.0 0.0 -1.769539829864e+01 
-2.210114256040e+01 -2.111254777982e-01 0.0 
-2.111254777982e-01 -2.389280885687e+01 0.0 
0.0 0.0 -1.339818542518e+01 
-2.978811919795e+01 7.122031898955e+00 0.0 
7.122031898955e+00 -2.826172846167e+01 0.0 
0.0 0.0 -1.701495429789e+01 
-3.336758064553e+01 2.339026741838e-01 0.0 
2.339026741838e-01 -5.076228023517e+01 0.0 
0.0 0.0 -2.483895826421e+01 
-3.274733993501e+01 -2.991147817801e-01 0.0 
-2.991147817801e-01 -4.890897959504e+01 0.0 
0.0 0.0 -2.409689585902e+01 
-3.284971639090e+01 -4.867505827711e-02 0.0 
-4.867505827711e-02 -4.891041239015e+01 0.0 
0.0 0.0 -2.412803863432e+01 
-3.266874312867e+01 -1.322915580878e-01 0.0 
-1.322915580878e-01 -4.868525517102e+01 0.0 
0.0 0.0 -2.400619948991e+01 
-3.287127388961e+01 -1.869854114618e-01 0.0 
-1.869854114618e-01 -4.878459710553e+01 0.0 
0.0 0.0 -2.409676129854e+01 
-3.264658939192e+01 -2.316235459465e-01 0.0 
-2.316235459465e-01 -4.873372332106e+01 0.0 
0.0 0.0 -2.401409381389e+01 
-3.293572090742e+01 -2.132741636253e-01 0.0 
-2.132741636253e-01 -4.884814587777e+01 0.0 
0.0 0.0 -2.413516003556e+01 
-3.262009852082e+01 -3.018630726761e-01 0.0 
-3.018630726761e-01 -4.867154635663e+01 0.0 
0.0 0.0 -2.398749346324e+01 
-3.314525232590e+01 -2.861721504727e-01 0.0 
-2.861721504727e-01 -4.888059991093e+01 0.0 
0.0 0.0 -2.420775567105e+01 
-3.261438923584e+01 -4.043846028231e-01 0.0 
-4.043846028231e-01 -4.867529997183e+01 0.0 
0.0 0.0 -2.398690676230e+01 
-3.327572632161e+01 -3.470895098902e-01 0.0 
-3.470895098902e-01 -4.891241120543e+01 0.0 
0.0 0.0 -2.425644125811e+01 
-3.260378981902e+01 -4.888279766800e-01 0.0 
-4.888279766800e-01 -4.865776225235e+01 0.0 
0.0 0.0 -2.397846562141e+01 
-3.353076681848e+01 -4.067815872737e-01 0.0 
-4.067815872737e-01 -4.897321377033e+01 0.0 
0.0 0.0 -2.435119417664e+01 
-3.943095461061e+01 4.158839705924e+00 0.0 
4.158839705924e+00 -5.332318941469e+01 0.0 
0.0 0.0 -2.742624320759e+01 
-3.261429000850e+01 -5.629231834005e-01 0.0 
-5.629231834005e-01 -4.870900586620e+01 0.0 
0.0 0.0 -2.399698876241e+01 
-3.374910206753e+01 -3.739317384296e-01 0.0 
-3.739317384296e-01 -4.901267915215e+01 0.0 
0.0 0.0 -2.442853436590e+01 
-3.608506219086e+01 2.760203269322e+00 0.0 
2.760203269322e+00 -4.658942072222e+01 0.0 
0.0 0.0 -2.440234487392e+01 
-3.263234727288e+01 -5.904648909688e-01 0.0 
-5.904648909688e-01 -4.858350640108e+01 0.0 
0.0 0.0 -2.396475610219e+01 
-3.411762201722e+01 -4.476815356149e-01 0.0 
-4.476815356149e-01 -4.902113513086e+01 0.0 
0.0 0.0 -2.454162714443e+01 
-4.114130472593e+01 2.520347743673e+00 0.0 
2.520347743673e+00 -5.104367229815e+01 0.0 
0.0 0.0 -2.725549310722e+01 
-3.270707571565e+01 -6.408859461312e-01 0.0 
-6.408859461312e-01 -4.865068449225e+01 0.0 
0.0 0.0 -2.400732806237e+01 
-3.447654454213e+01 -4.447830479688e-01 0.0 
-4.447830479688e-01 -4.910812674148e+01 0.0 
0.0 0.0 -2.467540138508e+01 
-3.283996395126e+01 -6.088569802274e-01 0.0 
-6.088569802274e-01 -4.877276627106e+01 0.0 
0.0 0.0 -2.408381906669e+01 
-3.498479573289e+01 -3.192954643550e-01 0.0 
-3.192954643550e-01 -4.921987248959e+01 0.0 
0.0 0.0 -2.486140046675e+01 
-3.306877501753e+01 -4.790367053453e-01 0.0 
-4.790367053453e-01 -4.883688896234e+01 0.0 
0.0 0.0 -2.417169919396e+01 
-4.373019510431e+01 4.689087503941e+00 0.0 
4.689087503941e+00 -5.426685512593e+01 0.0 
0.0 0.0 -2.899911506907e+01 
-3.568474668514e+01 -1.565298463447e-01 0.0 
-1.565298463447e-01 -4.933344696954e+01 0.0 
0.0 0.0 -2.510545809641e+01 
-3.344933455332e+01 -2.572134529289e-01 0.0 
-2.572134529289e-01 -4.899522065506e+01 0.0 
0.0 0.0 -2.433336656252e+01 
-3.405079167756e+01 1.451092352016e-01 0.0 
1.451092352016e-01 -4.932016622455e+01 0.0 
0.0 0.0 -2.461128737063e+01 
-3.646196662619e+01 1.068859909467e-01 0.0 
1.068859909467e-01 -4.947844085345e+01 0.0 
0.0 0.0 -2.538212224389e+01 
-3.492064517849e+01 7.538515273683e-01 0.0 
7.538515273683e-01 -4.946475184205e+01 0.0 
0.0 0.0 -2.491561910616e+01 
-3.732045763173e+01 6.491651318731e-01 0.0 
6.491651318731e-01 -4.959396789109e+01 0.0 
0.0 0.0 -2.567432765685e+01 
-3.632966684767e+01 1.784516563504e+00 0.0 
1.784516563504e+00 -5.103569006919e+01 0.0 
0.0 0.0 -2.580960707506e+01 
-3.888946811983e+01 1.006699567732e+00 0.0 
1.006699567732e+00 -5.012997117839e+01 0.0 
0.0 0.0 -2.630583178946e+01 
-3.908840242732e+01 3.430752225572e+00 0.0 
3.430752225572e+00 -4.424494068296e+01 0.0 
0.0 0.0 -2.460000293308e+01 
-3.318396403650e+01 1.390541042497e+00 0.0 
1.390541042497e+00 -4.850173420974e+01 0.0 
0.0 0.0 -2.410570947387e+01 
-3.281094671092e+01 -1.523920399700e+00 0.0 
-1.523920399700e+00 -5.067188706441e+01 0.0 
0.0 0.0 -2.464485013260e+01 
-3.076604403815e+01 7.053754500780e-02 0.0 
7.053754500780e-02 -4.444485941368e+01 0.0 
0.0 0.0 -2.216327103555e+01 
-3.512545001437e+01 -2.654664284986e-01 0.0 
-2.654664284986e-01 -5.453156496873e+01 0.0 
0.0 0.0 -2.649710449493e+01 
-3.884440852626e+01 5.387733168397e+00 0.0 
5.387733168397e+00 -4.732731141126e+01 0.0 
0.0 0.0 -2.545151598126e+01 
-4.041793367153e+01 3.811992269083e-01 0.0 
3.811992269083e-01 -6.721310396249e+01 0.0 
0.0 0.0 -3.188931129021e+01 
-4.122864183728e+01 -3.304351515271e-02 0.0 
-3.304351515271e-02 -6.841117206093e+01 0.0 
0.0 0.0 -3.249194416946e+01 
-4.120046121142e+01 -5.497079760248e-02 0.0 
-5.497079760248e-02 -6.839548363802e+01 0.0 
0.0 0.0 -3.247878345483e+01 
-4.112866835120e+01 -5.003231383768e-02 0.0 
-5.003231383768e-02 -6.842041542796e+01 0.0 
0.0 0.0 -3.246472513375e+01 
-4.131091069552e+01 -1.301849251535e-01 0.0 
-1.301849251535e-01 -6.847708298598e+01 0.0 
0.0 0.0 -3.253639810445e+01 
-4.137393714117e+01 -1.708785142748e-01 0.0 
-1.708785142748e-01 -6.859793950009e+01 0.0 
0.0 0.0 -3.259156299238e+01 
-4.142049518788e+01 -8.633144603908e-02 0.0 
-8.633144603908e-02 -6.864595253218e+01 0.0 
0.0 0.0 -3.261993431602e+01 
-4.171272454354e+01 -9.443569922287e-02 0.0 
-9.443569922287e-02 -6.854771461891e+01 0.0 
0.0 0.0 -3.267813174873e+01 
-4.152724275066e+01 -1.721298720855e-01 0.0 
-1.721298720855e-01 -6.843857756871e+01 0.0 
0.0 0.0 -3.258974609581e+01 
-4.188968889222e+01 -2.596937044410e-01 0.0 
-2.596937044410e-01 -6.860148247495e+01 0.0 
0.0 0.0 -3.274735141015e+01 
-4.170201526806e+01 -1.660273058809e-01 0.0 
-1.660273058809e-01 -6.857375208047e+01 0.0 
0.0 0.0 -3.268273020456e+01 
-4.222466368107e+01 -2.302434474735e-01 0.0 
-2.302434474735e-01 -6.862870181860e+01 0.0 
0.0 0.0 -3.285600964990e+01 
-4.863000733784e+01 3.756719152507e+00 0.0 
3.756719152507e+00 -7.285600235002e+01 0.0 
0.0 0.0 -3.604580290636e+01 
-4.191825621755e+01 -1.704230504035e-01 0.0 
-1.704230504035e-01 -6.854402236816e+01 0.0 
0.0 0.0 -3.273868357571e+01 
-4.892612599279e+01 2.001459505350e+00 0.0 
2.001459505350e+00 -7.051771250438e+01 0.0 
0.0 0.0 -3.543315154915e+01 
-4.293919780394e+01 -3.288499048143e-01 0.0 
-3.288499048143e-01 -6.879311811676e+01 0.0 
0.0 0.0 -3.311969477621e+01 
-4.215229185024e+01 -1.432273884725e-01 0.0 
-1.432273884725e-01 -6.862012197847e+01 0.0 
0.0 0.0 -3.283172414861e+01 
-4.297929426788e+01 -1.940683468663e-01 0.0 
-1.940683468663e-01 -6.863849178681e+01 0.0 
0.0 0.0 -3.308533581641e+01 
-4.247311792595e+01 -1.095712204328e-01 0.0 
-1.095712204328e-01 -6.851729225123e+01 0.0 
0.0 0.0 -3.289712305315e+01 
-4.362039924865e+01 -2.561353442930e-01 0.0 
-2.561353442930e-01 -6.879146884365e+01 0.0 
0.0 0.0 -3.332356042769e+01 
-4.291452628608e+01 3.724898645936e-02 0.0 
3.724898645936e-02 -6.879675081070e+01 0.0 
0.0 0.0 -3.311338312903e+01 
-4.443378564381e+01 -7.362932661958e-02 0.0 
-7.362932661958e-02 -6.900845117439e+01 0.0 
0.0 0.0 -3.363267104546e+01 
-4.581471341267e+01 2.534285652265e+00 0.0 
2.534285652265e+00 -6.628887686168e+01 0.0 
0.0 0.0 -3.323107708230e+01 
-4.347720854363e+01 2.895080209219e-01 0.0 
2.895080209219e-01 -6.903550238132e+01 0.0 
0.0 0.0 -3.335381327749e+01 
-4.527240797438e+01 2.554877106300e-01 0.0 
2.554877106300e-01 -6.913377945882e+01 0.0 
0.0 0.0 -3.392185622996e+01 
-4.418389661591e+01 6.127586466610e-01 0.0 
6.127586466610e-01 -6.916479680799e+01 0.0 
0.0 0.0 -3.360460802717e+01 
-4.631039004000e+01 5.729188711143e-01 0.0 
5.729188711143e-01 -6.936853532000e+01 0.0 
0.0 0.0 -3.430367760800e+01 
-4.749551015964e+01 1.105232474946e+00 0.0 
1.105232474946e+00 -6.979130320700e+01 0.0 
0.0 0.0 -3.478604400999e+01 
-4.508398484947e+01 1.085511841137e+00 0.0 
1.085511841137e+00 -6.959648337445e+01 0.0 
0.0 0.0 -3.400414046718e+01 
-4.623997599896e+01 1.866326556514e+00 0.0 
1.866326556514e+00 -7.040617741462e+01 0.0 
0.0 0.0 -3.459384602407e+01 
-5.217274108556e+01 3.776603819796e+00 0.0 
3.776603819796e+00 -7.402282195752e+01 0.0 
0.0 0.0 -3.745866891292e+01 
-4.786738900707e+01 2.901439477071e+00 0.0 
2.901439477071e+00 -6.444810318223e+01 0.0 
0.0 0.0 -3.329464765679e+01 
-4.051533588911e+01 1.272018427793e+00 0.0 
1.272018427793e+00 -6.851195068146e+01 0.0 
0.0 0.0 -3.230818597117e+01 
-4.073982032693e+01 -1.587145111024e+00 0.0 
-1.587145111024e+00 -6.718535956461e+01 0.0 
0.0 0.0 -3.197755396746e+01 
-4.265586349518e+01 -9.337952023232e-02 0.0 
-9.337952023232e-02 -7.301881860913e+01 0.0 
0.0 0.0 -3.430240463129e+01 
-3.869615637146e+01 -2.794008928458e-01 0.0 
-2.794008928458e-01 -6.286321313528e+01 0.0 
0.0 0.0 -3.006781085202e+01 
-4.777567534808e+01 4.427868843229e+00 0.0 
4.427868843229e+00 -6.652387041650e+01 0.0 
0.0 0.0 -3.388986372937e+01 

TENSORS element_materi_strain_total float
-1.190747282511e-03 2.546899907736e-03 0.0 
2.546899907736e-03 6.387076022463e-03 0.0 
0.0 0.0 0.0 
-1.227575666381e-03 2.323419155974e-03 0.0 
2.323419155974e-03 6.239759029899e-03 0.0 
0.0 0.0 0.0 
-2.765118174812e-04 2.056612065519e-03 0.0 
2.056612065519e-03 1.216363701112e-02 0.0 
0.0 0.0 0.0 
-2.749130059985e-04 1.777858825296e-04 0.0 
1.777858825296e-04 1.349972270742e-02 0.0 
0.0 0.0 0.0 
-9.761928937547e-04 1.487528106413e-04 0.0 
1.487528106413e-04 1.102666503686e-02 0.0 
0.0 0.0 0.0 
8.527342940747e-04 2.952723954835e-03 0.0 
2.952723954835e-03 -3.194995443592e-03 0.0 
0.0 0.0 0.0 
-9.013401968754e-04 1.170426061506e-04 0.0 
1.170426061506e-04 1.102050727359e-02 0.0 
0.0 0.0 0.0 
-1.171919594406e-03 2.748514405168e-03 0.0 
2.748514405168e-03 5.605781550057e-03 0.0 
0.0 0.0 0.0 
-9.715405115184e-04 5.052192595570e-05 0.0 
5.052192595570e-05 1.102780360891e-02 0.0 
0.0 0.0 0.0 
-2.661781374120e-04 3.607827221500e-04 0.0 
3.607827221500e-04 1.346475006506e-02 0.0 
0.0 0.0 0.0 
3.803099917210e-05 -7.454944015905e-05 0.0 
-7.454944015905e-05 4.786831851670e-03 0.0 
0.0 0.0 0.0 
-1.164603507957e-03 2.340834595980e-03 0.0 
2.340834595980e-03 5.433110616829e-03 0.0 
0.0 0.0 0.0 
2.186499260115e-05 2.909911491273e-05 0.0 
2.909911491273e-05 7.133490614032e-03 0.0 
0.0 0.0 0.0 
-1.150548201113e-03 3.986266954445e-04 0.0 
3.986266954445e-04 1.134014141988e-02 0.0 
0.0 0.0 0.0 
1.374154178690e-05 -2.364860116089e-05 0.0 
-2.364860116089e-05 7.296848449689e-03 0.0 
0.0 0.0 0.0 
-1.662607975377e-04 2.958885536722e-04 0.0 
2.958885536722e-04 1.361335532805e-02 0.0 
0.0 0.0 0.0 
-1.085918704504e-03 1.688174083725e-04 0.0 
1.688174083725e-04 1.093160975210e-02 0.0 
0.0 0.0 0.0 
1.248148323441e-03 1.457646165004e-03 0.0 
1.457646165004e-03 -3.571888049511e-03 0.0 
0.0 0.0 0.0 
1.375064286095e-04 -8.900585617724e-05 0.0 
-8.900585617724e-05 1.392059016034e-03 0.0 
0.0 0.0 0.0 
5.358099042141e-05 -8.129125982626e-05 0.0 
-8.129125982626e-05 1.489218716512e-03 0.0 
0.0 0.0 0.0 
-3.235715958888e-04 3.204418489392e-04 0.0 
3.204418489392e-04 1.347194503394e-02 0.0 
0.0 0.0 0.0 
-1.293097170119e-03 1.953674473931e-03 0.0 
1.953674473931e-03 7.617951380878e-03 0.0 
0.0 0.0 0.0 
-1.440277015469e-03 2.164664730518e-03 0.0 
2.164664730518e-03 7.942997397100e-03 0.0 
0.0 0.0 0.0 
7.229473627091e-04 9.116875940079e-04 0.0 
9.116875940079e-04 6.232918015052e-03 0.0 
0.0 0.0 0.0 
-1.202678865791e-03 6.838713391454e-04 0.0 
6.838713391454e-04 1.157614541733e-02 0.0 
0.0 0.0 0.0 
3.533527430055e-05 -1.075391012154e-04 0.0 
-1.075391012154e-04 5.008393150211e-03 0.0 
0.0 0.0 0.0 
-1.313782080409e-03 4.151344268713e-04 0.0 
4.151344268713e-04 1.050189956428e-02 0.0 
0.0 0.0 0.0 
1.687320390562e-04 2.662087128610e-03 0.0 
2.662087128610e-03 9.406397313749e-03 0.0 
0.0 0.0 0.0 
-1.357799829144e-03 7.214840603176e-04 0.0 
7.214840603176e-04 1.157319773376e-02 0.0 
0.0 0.0 0.0 
6.340991551512e-04 9.019463510541e-04 0.0 
9.019463510541e-04 6.484973570402e-03 0.0 
0.0 0.0 0.0 
8.848370932868e-04 -2.494349069532e-03 0.0 
-2.494349069532e-03 -2.152368356542e-03 0.0 
0.0 0.0 0.0 
7.671173721313e-05 -1.895598090445e-04 0.0 
-1.895598090445e-04 3.438243270661e-04 0.0 
0.0 0.0 0.0 
-4.670414460710e-04 2.114765707229e-03 0.0 
2.114765707229e-03 1.227309639300e-02 0.0 
0.0 0.0 0.0 
3.136072819609e-05 -3.606664827586e-05 0.0 
-3.606664827586e-05 6.055147043800e-03 0.0 
0.0 0.0 0.0 
2.957300237574e-04 2.346240497598e-04 0.0 
2.346240497598e-04 6.726382495841e-03 0.0 
0.0 0.0 0.0 
5.777369653348e-05 1.440784690751e-04 0.0 
1.440784690751e-04 7.383988111726e-03 0.0 
0.0 0.0 0.0 
6.140499917873e-05 3.210931070877e-06 0.0 
3.210931070877e-06 7.375297651883e-03 0.0 
0.0 0.0 0.0 
5.671733860482e-04 1.856163841285e-03 0.0 
1.856163841285e-03 7.337532635404e-03 0.0 
0.0 0.0 0.0 
-9.074049300100e-04 -2.512687633257e-05 0.0 
-2.512687633257e-05 1.060314144470e-02 0.0 
0.0 0.0 0.0 
-8.700017585910e-04 7.357382998148e-05 0.0 
7.357382998148e-05 1.061906361048e-02 0.0 
0.0 0.0 0.0 
-1.612750286791e-03 1.602792765769e-03 0.0 
1.602792765769e-03 9.098006271693e-03 0.0 
0.0 0.0 0.0 
2.478932422361e-04 4.853975384444e-04 0.0 
4.853975384444e-04 6.804827048071e-03 0.0 
0.0 0.0 0.0 
-1.149636747389e-03 2.768592149131e-03 0.0 
2.768592149131e-03 4.003032411275e-03 0.0 
0.0 0.0 0.0 
-1.392720523302e-03 4.287870359004e-04 0.0 
4.287870359004e-04 1.056070391125e-02 0.0 
0.0 0.0 0.0 
-3.683779160356e-04 5.795753148433e-05 0.0 
5.795753148433e-05 1.332534371162e-02 0.0 
0.0 0.0 0.0 
-1.308686703469e-03 2.797492558249e-03 0.0 
2.797492558249e-03 4.005994911989e-03 0.0 
0.0 0.0 0.0 
9.008109649671e-04 -2.398882157761e-03 0.0 
-2.398882157761e-03 -2.846095737810e-03 0.0 
0.0 0.0 0.0 
-2.496408209943e-04 1.213803643987e-04 0.0 
1.213803643987e-04 1.334632928744e-02 0.0 
0.0 0.0 0.0 
-4.895715520823e-04 -2.113884179315e-03 0.0 
-2.113884179315e-03 -1.144864010766e-03 0.0 
0.0 0.0 0.0 
-1.219541099669e-03 2.968187071228e-04 0.0 
2.968187071228e-04 1.119048656503e-02 0.0 
0.0 0.0 0.0 
-1.548877294965e-03 1.891007354459e-03 0.0 
1.891007354459e-03 8.542343747421e-03 0.0 
0.0 0.0 0.0 
5.103002445739e-05 -9.187315391613e-05 0.0 
-9.187315391613e-05 1.823168894511e-03 0.0 
0.0 0.0 0.0 
1.828153350350e-03 -2.151439797092e-03 0.0 
-2.151439797092e-03 -2.746882836703e-03 0.0 
0.0 0.0 0.0 
-1.429486763121e-03 1.383272628846e-03 0.0 
1.383272628846e-03 8.883186109403e-03 0.0 
0.0 0.0 0.0 
-2.979880807343e-04 1.591149858630e-03 0.0 
1.591149858630e-03 1.288698480179e-02 0.0 
0.0 0.0 0.0 
-5.762276463162e-05 -2.157328135485e-04 0.0 
-2.157328135485e-04 2.439415339952e-03 0.0 
0.0 0.0 0.0 
-1.179214680591e-05 -8.622118718227e-05 0.0 
-8.622118718227e-05 1.909292571718e-03 0.0 
0.0 0.0 0.0 
4.435163710714e-05 -5.943292912356e-06 0.0 
-5.943292912356e-06 6.055973818024e-03 0.0 
0.0 0.0 0.0 
1.808067834350e-04 -1.744911286634e-04 0.0 
-1.744911286634e-04 9.964102248710e-04 0.0 
0.0 0.0 0.0 
-1.936061231281e-04 2.564419100212e-04 0.0 
2.564419100212e-04 1.361391830545e-02 0.0 
0.0 0.0 0.0 
-8.194267707259e-04 -1.982347617552e-03 0.0 
-1.982347617552e-03 -3.477681016041e-03 0.0 
0.0 0.0 0.0 
5.394354488164e-04 2.316951041762e-03 0.0 
2.316951041762e-03 7.946079536434e-03 0.0 
0.0 0.0 0.0 
-2.214798234343e-04 2.836556807951e-03 0.0 
2.836556807951e-03 5.266204587475e-03 0.0 
0.0 0.0 0.0 
1.681798803673e-03 -2.107624411045e-03 0.0 
-2.107624411045e-03 -2.324109643620e-03 0.0 
0.0 0.0 0.0 
4.102740488943e-05 -2.140992028709e-05 0.0 
-2.140992028709e-05 7.075293363670e-03 0.0 
0.0 0.0 0.0 
-1.414814991925e-03 1.638031609027e-03 0.0 
1.638031609027e-03 8.395837343811e-03 0.0 
0.0 0.0 0.0 
3.287748951988e-04 -7.887340986929e-04 0.0 
-7.887340986929e-04 -4.892017495662e-03 0.0 
0.0 0.0 0.0 
-4.787681723658e-04 2.223458961656e-03 0.0 
2.223458961656e-03 1.204988181123e-02 0.0 
0.0 0.0 0.0 
-4.471102890882e-04 -1.471837569802e-03 0.0 
-1.471837569802e-03 8.171839236040e-04 0.0 
0.0 0.0 0.0 
-1.077186748313e-04 2.480633463995e-03 0.0 
2.480633463995e-03 1.084832637013e-02 0.0 
0.0 0.0 0.0 
7.007911735890e-05 -1.379850050674e-04 0.0 
-1.379850050674e-04 5.185784848597e-03 0.0 
0.0 0.0 0.0 
0.0 1.041085633342e-03 0.0 
1.041085633342e-03 1.356433272435e-02 0.0 
0.0 0.0 0.0 
1.365303026830e-04 2.421592656645e-03 0.0 
2.421592656645e-03 9.080103374660e-03 0.0 
0.0 0.0 0.0 
4.425460729278e-04 -5.249034027169e-06 0.0 
-5.249034027169e-06 3.049497098422e-04 0.0 
0.0 0.0 0.0 
-7.906228778698e-05 -1.823176454299e-04 0.0 
-1.823176454299e-04 2.561147921461e-03 0.0 
0.0 0.0 0.0 
-3.773010035315e-04 7.464072081534e-04 0.0 
7.464072081534e-04 1.342339548297e-02 0.0 
0.0 0.0 0.0 
-5.117960952055e-04 1.735184778066e-03 0.0 
1.735184778066e-03 1.278996645345e-02 0.0 
0.0 0.0 0.0 
-1.171414203804e-03 2.987235191500e-03 0.0 
2.987235191500e-03 2.368366405268e-03 0.0 
0.0 0.0 0.0 
6.128838731057e-05 -1.846969831809e-04 0.0 
-1.846969831809e-04 1.074390438331e-03 0.0 
0.0 0.0 0.0 
-1.075620626667e-03 2.981505132521e-03 0.0 
2.981505132521e-03 2.368080569418e-03 0.0 
0.0 0.0 0.0 
-6.143849614469e-04 -1.709079328851e-03 0.0 
-1.709079328851e-03 8.547108138290e-04 0.0 
0.0 0.0 0.0 
-1.063434630603e-03 1.494185415557e-04 0.0 
1.494185415557e-04 1.094605567689e-02 0.0 
0.0 0.0 0.0 
-1.397698580470e-03 2.359372269693e-03 0.0 
2.359372269693e-03 7.249732710701e-03 0.0 
0.0 0.0 0.0 
-1.292289675529e-03 2.075946036720e-03 0.0 
2.075946036720e-03 6.961911349922e-03 0.0 
0.0 0.0 0.0 
-1.021200553763e-03 1.115171619101e-04 0.0 
1.115171619101e-04 1.124787971163e-02 0.0 
0.0 0.0 0.0 
-9.281351430163e-04 1.589310721736e-04 0.0 
1.589310721736e-04 1.124739510756e-02 0.0 
0.0 0.0 0.0 
4.241074118028e-05 -8.628674240844e-05 0.0 
-8.628674240844e-05 5.404478847880e-03 0.0 
0.0 0.0 0.0 
3.436763831699e-05 1.510443641542e-05 0.0 
1.510443641542e-05 5.885377746554e-03 0.0 
0.0 0.0 0.0 
-9.256577490019e-04 1.923415535152e-03 0.0 
1.923415535152e-03 1.123683327113e-02 0.0 
0.0 0.0 0.0 
-1.055052970059e-03 9.540865820277e-05 0.0 
9.540865820277e-05 1.101577197136e-02 0.0 
0.0 0.0 0.0 
-3.193696637250e-04 -2.488000892481e-04 0.0 
-2.488000892481e-04 5.247073229515e-04 0.0 
0.0 0.0 0.0 
-1.388929024759e-03 5.253356268412e-04 0.0 
5.253356268412e-04 1.091303548803e-02 0.0 
0.0 0.0 0.0 
-5.778328310270e-04 6.889780586765e-05 0.0 
6.889780586765e-05 1.252133671548e-02 0.0 
0.0 0.0 0.0 
-6.428514362331e-04 1.314697677346e-04 0.0 
1.314697677346e-04 1.246237613948e-02 0.0 
0.0 0.0 0.0 
-2.555621074386e-04 1.146145679315e-03 0.0 
1.146145679315e-03 1.352807013059e-02 0.0 
0.0 0.0 0.0 
2.755680879243e-04 1.987244806621e-03 0.0 
1.987244806621e-03 7.911007170181e-03 0.0 
0.0 0.0 0.0 
-1.149202094033e-03 1.717253611872e-04 0.0 
1.717253611872e-04 1.094735323944e-02 0.0 
0.0 0.0 0.0 
3.845676032150e-04 4.162017470396e-04 0.0 
4.162017470396e-04 6.837870807763e-03 0.0 
0.0 0.0 0.0 
-7.567190451468e-04 -1.210536820536e-06 0.0 
-1.210536820536e-06 1.159455828709e-02 0.0 
0.0 0.0 0.0 
-6.045417005283e-04 2.817329315950e-03 0.0 
2.817329315950e-03 5.902080392803e-03 0.0 
0.0 0.0 0.0 
-1.003697705858e-03 6.184484866874e-05 0.0 
6.184484866874e-05 1.082346588077e-02 0.0 
0.0 0.0 0.0 
1.410160325155e-05 3.142501084114e-05 0.0 
3.142501084114e-05 7.293404786691e-03 0.0 
0.0 0.0 0.0 
9.976708022355e-04 1.979772132881e-03 0.0 
1.979772132881e-03 6.275476085922e-03 0.0 
0.0 0.0 0.0 
4.654111624067e-04 2.220623074368e-03 0.0 
2.220623074368e-03 7.961868130824e-03 0.0 
0.0 0.0 0.0 
2.144586834190e-04 2.969009140738e-03 0.0 
2.969009140738e-03 3.524390199389e-03 0.0 
0.0 0.0 0.0 
-5.157696675598e-04 -2.945368088151e-03 0.0 
-2.945368088151e-03 -1.342112404682e-03 0.0 
0.0 0.0 0.0 
2.574268751432e-05 -3.824009699314e-05 0.0 
-3.824009699314e-05 6.679785480279e-03 0.0 
0.0 0.0 0.0 
-5.590676213175e-04 1.476006599068e-04 0.0 
1.476006599068e-04 1.279702980286e-02 0.0 
0.0 0.0 0.0 
-1.103915589426e-03 -3.047537513711e-03 0.0 
-3.047537513711e-03 -2.068443129180e-03 0.0 
0.0 0.0 0.0 
6.463349409080e-05 3.330875957858e-05 0.0 
3.330875957858e-05 7.138177636132e-03 0.0 
0.0 0.0 0.0 
-8.286441326663e-04 1.914677979978e-03 0.0 
1.914677979978e-03 1.081763828873e-02 0.0 
0.0 0.0 0.0 
5.681390729426e-04 1.248597968932e-05 0.0 
1.248597968932e-05 8.737615010812e-05 0.0 
0.0 0.0 0.0 
9.379834662324e-04 2.738358808807e-03 0.0 
2.738358808807e-03 3.540771264882e-03 0.0 
0.0 0.0 0.0 
-1.571928406436e-03 8.590531801151e-04 0.0 
8.590531801151e-04 1.031439138894e-02 0.0 
0.0 0.0 0.0 
-4.139366118194e-05 -3.246789000313e-04 0.0 
-3.246789000313e-04 3.053083858385e-03 0.0 
0.0 0.0 0.0 
-4.517001268237e-04 2.770650075283e-03 0.0 
2.770650075283e-03 5.071575312796e-03 0.0 
0.0 0.0 0.0 
-1.986814333582e-04 2.846593092199e-03 0.0 
2.846593092199e-03 5.265420562760e-03 0.0 
0.0 0.0 0.0 
1.733253854717e-04 2.447075879115e-04 0.0 
2.447075879115e-04 6.969553512720e-03 0.0 
0.0 0.0 0.0 
-7.782082885162e-04 6.098903927811e-05 0.0 
6.098903927811e-05 1.146746660152e-02 0.0 
0.0 0.0 0.0 
-2.706380854678e-05 2.962699358959e-03 0.0 
2.962699358959e-03 4.399479029913e-03 0.0 
0.0 0.0 0.0 
-3.329309967105e-04 -8.576232726638e-04 0.0 
-8.576232726638e-04 1.104541617104e-03 0.0 
0.0 0.0 0.0 
-1.370658758029e-03 6.075795616957e-04 0.0 
6.075795616957e-04 1.076588230880e-02 0.0 
0.0 0.0 0.0 
-4.651379858728e-04 9.427202445698e-05 0.0 
9.427202445698e-05 1.282029912185e-02 0.0 
0.0 0.0 0.0 
-2.579438979078e-07 2.893416388042e-03 0.0 
2.893416388042e-03 4.402791874195e-03 0.0 
0.0 0.0 0.0 
-9.703864349201e-04 3.140303409462e-03 0.0 
3.140303409462e-03 5.402184704624e-04 0.0 
0.0 0.0 0.0 
-1.620278386918e-03 1.138046959573e-03 0.0 
1.138046959573e-03 9.739677142890e-03 0.0 
0.0 0.0 0.0 
-7.513084127286e-05 -2.919970166173e-04 0.0 
-2.919970166173e-04 3.023112740776e-03 0.0 
0.0 0.0 0.0 
-1.451035135327e-03 9.712707155610e-04 0.0 
9.712707155610e-04 9.577746713055e-03 0.0 
0.0 0.0 0.0 
-2.101435495427e-04 8.934516096703e-04 0.0 
8.934516096703e-04 1.347484727632e-02 0.0 
0.0 0.0 0.0 
-6.904822151510e-05 3.427286179767e-03 0.0 
3.427286179767e-03 -7.364541477031e-04 0.0 
0.0 0.0 0.0 
7.367238671629e-05 -1.052918663374e-04 0.0 
-1.052918663374e-04 5.005017985267e-03 0.0 
0.0 0.0 0.0 
-2.488019278811e-04 2.187143723438e-04 0.0 
2.187143723438e-04 1.350093471729e-02 0.0 
0.0 0.0 0.0 
-8.965070914497e-04 2.370430811871e-03 0.0 
2.370430811871e-03 7.708471564428e-03 0.0 
0.0 0.0 0.0 
-1.632452634826e-03 1.323403015909e-03 0.0 
1.323403015909e-03 9.436850961461e-03 0.0 
0.0 0.0 0.0 
3.562506650969e-04 3.342452678494e-04 0.0 
3.342452678494e-04 6.728378412564e-03 0.0 
0.0 0.0 0.0 
1.417069490883e-05 -4.122281141503e-05 0.0 
-4.122281141503e-05 7.146980602228e-03 0.0 
0.0 0.0 0.0 
7.540557632568e-05 -6.860659798701e-05 0.0 
-6.860659798701e-05 5.404951579244e-03 0.0 
0.0 0.0 0.0 
-1.025740767287e-03 2.357276554513e-03 0.0 
2.357276554513e-03 8.385247391310e-03 0.0 
0.0 0.0 0.0 
5.348983738693e-04 8.513295266210e-04 0.0 
8.513295266210e-04 6.858137923779e-03 0.0 
0.0 0.0 0.0 
-1.172862537967e-03 2.086222194268e-03 0.0 
2.086222194268e-03 8.251546083152e-03 0.0 
0.0 0.0 0.0 
-1.897770077055e-04 5.802620407865e-04 0.0 
5.802620407865e-04 1.351966374882e-02 0.0 
0.0 0.0 0.0 
-1.977935846261e-04 2.612169704714e-03 0.0 
2.612169704714e-03 1.100845045101e-02 0.0 
0.0 0.0 0.0 
-1.273277645114e-03 3.956735435567e-04 0.0 
3.956735435567e-04 1.134076766916e-02 0.0 
0.0 0.0 0.0 
-7.241818453178e-04 1.811450941054e-04 0.0 
1.811450941054e-04 1.208346699567e-02 0.0 
0.0 0.0 0.0 
-1.156461815063e-03 2.351259600300e-03 0.0 
2.351259600300e-03 8.240400483352e-03 0.0 
0.0 0.0 0.0 
-1.453275701711e-03 1.132565731735e-03 0.0 
1.132565731735e-03 9.236543434364e-03 0.0 
0.0 0.0 0.0 
-7.870194255130e-04 2.376311620730e-03 0.0 
2.376311620730e-03 7.909912297578e-03 0.0 
0.0 0.0 0.0 
5.100477286757e-04 2.902762611004e-03 0.0 
2.902762611004e-03 3.786295803498e-03 0.0 
0.0 0.0 0.0 
-9.296570875394e-04 2.917919967943e-05 0.0 
2.917919967943e-05 1.086643381193e-02 0.0 
0.0 0.0 0.0 
1.090678499798e-03 2.572159069758e-03 0.0 
2.572159069758e-03 3.560572592265e-03 0.0 
0.0 0.0 0.0 
-5.752498514999e-05 -1.387854086605e-04 0.0 
-1.387854086605e-04 4.235611291772e-04 0.0 
0.0 0.0 0.0 
-8.233922253630e-04 1.967513922598e-05 0.0 
1.967513922598e-05 1.115419407267e-02 0.0 
0.0 0.0 0.0 
1.367643597308e-04 -6.961548072781e-05 0.0 
-6.961548072781e-05 1.071812200252e-03 0.0 
0.0 0.0 0.0 
-1.595768795379e-03 9.835451417869e-04 0.0 
9.835451417869e-04 1.002105169277e-02 0.0 
0.0 0.0 0.0 
2.965242836450e-04 7.548514837966e-04 0.0 
7.548514837966e-04 6.824329575730e-03 0.0 
0.0 0.0 0.0 
1.424931453065e-04 3.061183454433e-03 0.0 
3.061183454433e-03 3.517677491072e-03 0.0 
0.0 0.0 0.0 
4.774669827889e-05 -1.909641723920e-05 0.0 
-1.909641723920e-05 5.643679735528e-03 0.0 
0.0 0.0 0.0 
-1.286481938163e-03 2.636654786949e-03 0.0 
2.636654786949e-03 4.782920333818e-03 0.0 
0.0 0.0 0.0 
9.939323021309e-04 2.128529939856e-03 0.0 
2.128529939856e-03 6.262034531988e-03 0.0 
0.0 0.0 0.0 
-8.483868936390e-04 2.749841214922e-05 0.0 
2.749841214922e-05 1.088690419483e-02 0.0 
0.0 0.0 0.0 
1.217398672293e-03 2.705929089094e-03 0.0 
2.705929089094e-03 2.620108921944e-03 0.0 
0.0 0.0 0.0 
3.736012979361e-05 -5.394070279099e-05 0.0 
-5.394070279099e-05 6.240712791724e-03 0.0 
0.0 0.0 0.0 
-6.523530670181e-04 -1.038544366143e-03 0.0 
-1.038544366143e-03 1.141577226346e-03 0.0 
0.0 0.0 0.0 
4.392854296809e-05 1.553485342394e-05 0.0 
1.553485342394e-05 6.674052082915e-03 0.0 
0.0 0.0 0.0 
-1.415993345532e-03 1.250236079348e-03 0.0 
1.250236079348e-03 1.017872821626e-02 0.0 
0.0 0.0 0.0 
7.726245859430e-05 2.232827146833e-05 0.0 
2.232827146833e-05 7.147026944057e-03 0.0 
0.0 0.0 0.0 
-8.222733626643e-04 1.407383534347e-05 0.0 
1.407383534347e-05 1.085214823475e-02 0.0 
0.0 0.0 0.0 
6.000330164648e-04 2.968077576927e-03 0.0 
2.968077576927e-03 2.819604470215e-03 0.0 
0.0 0.0 0.0 
-1.436062784121e-03 7.467065302129e-04 0.0 
7.467065302129e-04 1.010666152641e-02 0.0 
0.0 0.0 0.0 
5.476728121012e-06 -7.794442381167e-05 0.0 
-7.794442381167e-05 4.792362817352e-03 0.0 
0.0 0.0 0.0 
-1.193564829741e-03 2.712785008848e-03 0.0 
2.712785008848e-03 4.802383908116e-03 0.0 
0.0 0.0 0.0 
1.392656690738e-03 2.451617069448e-03 0.0 
2.451617069448e-03 2.653777259960e-03 0.0 
0.0 0.0 0.0 
-7.117503614938e-04 1.125366071210e-04 0.0 
1.125366071210e-04 1.227781828437e-02 0.0 
0.0 0.0 0.0 
-8.662466148818e-04 5.140369699954e-05 0.0 
5.140369699954e-05 1.086434751517e-02 0.0 
0.0 0.0 0.0 
8.015320462800e-04 2.850078202630e-03 0.0 
2.850078202630e-03 3.138661547274e-03 0.0 
0.0 0.0 0.0 
-1.460065002122e-03 8.372188069098e-04 0.0 
8.372188069098e-04 9.851776374216e-03 0.0 
0.0 0.0 0.0 
-3.327443041314e-04 2.325919620028e-03 0.0 
2.325919620028e-03 1.015093916132e-02 0.0 
0.0 0.0 0.0 
-4.170962801864e-05 -3.339843550228e-04 0.0 
-3.339843550228e-04 3.319985207153e-03 0.0 
0.0 0.0 0.0 
1.451406669291e-04 2.491672269536e-03 0.0 
2.491672269536e-03 9.195478437671e-03 0.0 
0.0 0.0 0.0 
-1.660161069824e-04 2.659397189242e-03 0.0 
2.659397189242e-03 1.067207041529e-02 0.0 
0.0 0.0 0.0 
-8.732578432478e-04 2.762418747635e-03 0.0 
2.762418747635e-03 5.777577774984e-03 0.0 
0.0 0.0 0.0 
-2.847100935033e-05 -2.617197498308e-04 0.0 
-2.617197498308e-04 3.405782766356e-03 0.0 
0.0 0.0 0.0 
9.998497800807e-04 1.099305773193e-03 0.0 
1.099305773193e-03 5.837781613530e-03 0.0 
0.0 0.0 0.0 
-1.430046383610e-03 2.044569162914e-03 0.0 
2.044569162914e-03 8.739919429827e-03 0.0 
0.0 0.0 0.0 
-7.552363894017e-04 2.626859950555e-03 0.0 
2.626859950555e-03 4.959200508290e-03 0.0 
0.0 0.0 0.0 
-1.440633650949e-03 9.566007868137e-04 0.0 
9.566007868137e-04 1.028917568479e-02 0.0 
0.0 0.0 0.0 
6.983844763235e-04 2.795889152230e-03 0.0 
2.795889152230e-03 4.097477941450e-03 0.0 
0.0 0.0 0.0 
-1.754785402323e-04 4.316696713238e-04 0.0 
4.316696713238e-04 1.353957152149e-02 0.0 
0.0 0.0 0.0 
-9.448227726851e-04 1.659328685895e-03 0.0 
1.659328685895e-03 1.141941856954e-02 0.0 
0.0 0.0 0.0 
3.359676363446e-05 1.544272853159e-05 0.0 
1.544272853159e-05 6.481884806975e-03 0.0 
0.0 0.0 0.0 
-1.284275081329e-03 2.924135798881e-03 0.0 
2.924135798881e-03 3.221512126747e-03 0.0 
0.0 0.0 0.0 
1.704869527093e-03 2.269714357005e-03 0.0 
2.269714357005e-03 1.733795766577e-03 0.0 
0.0 0.0 0.0 
-8.118102515096e-04 1.851140990718e-03 0.0 
1.851140990718e-03 1.125349040739e-02 0.0 
0.0 0.0 0.0 
-2.705894649953e-03 2.259606453094e-03 0.0 
2.259606453094e-03 -2.481829767256e-03 0.0 
0.0 0.0 0.0 
-1.371806965724e-03 1.691685975357e-03 0.0 
1.691685975357e-03 8.746646245052e-03 0.0 
0.0 0.0 0.0 
1.166202035155e-03 6.244470530776e-04 0.0 
6.244470530776e-04 5.016602414723e-03 0.0 
0.0 0.0 0.0 
2.560873238255e-04 -1.616915653102e-04 0.0 
-1.616915653102e-04 6.528723761567e-04 0.0 
0.0 0.0 0.0 
-4.148504470571e-04 1.854990168858e-03 0.0 
1.854990168858e-03 1.252808191838e-02 0.0 
0.0 0.0 0.0 
-1.180282195039e-03 1.062222103874e-03 0.0 
1.062222103874e-03 1.165966278391e-02 0.0 
0.0 0.0 0.0 
7.992683307760e-04 -1.182268919776e-03 0.0 
-1.182268919776e-03 2.108342042625e-03 0.0 
0.0 0.0 0.0 
1.302063479763e-03 7.991252514785e-04 0.0 
7.991252514785e-04 5.004568243180e-03 0.0 
0.0 0.0 0.0 
-1.401332243345e-03 6.853565097194e-04 0.0 
6.853565097194e-04 1.109211388746e-02 0.0 
0.0 0.0 0.0 
-1.321290964177e-03 5.780085916131e-04 0.0 
5.780085916131e-04 1.149554603325e-02 0.0 
0.0 0.0 0.0 
5.361365704284e-04 8.019970390839e-04 0.0 
8.019970390839e-04 6.460529855287e-03 0.0 
0.0 0.0 0.0 
6.163837999540e-05 -1.188195145329e-03 0.0 
-1.188195145329e-03 1.978286276940e-03 0.0 
0.0 0.0 0.0 
-4.763166136408e-04 2.522575692635e-03 0.0 
2.522575692635e-03 7.403339319189e-03 0.0 
0.0 0.0 0.0 
-1.328511643585e-03 1.538842833651e-03 0.0 
1.538842833651e-03 9.987394123550e-03 0.0 
0.0 0.0 0.0 
-1.253394113882e-03 1.070137503040e-03 0.0 
1.070137503040e-03 1.192246236871e-02 0.0 
0.0 0.0 0.0 
-1.527450136494e-03 1.285462963965e-03 0.0 
1.285462963965e-03 1.050617688499e-02 0.0 
0.0 0.0 0.0 
-1.585363641161e-03 1.148275254155e-03 0.0 
1.148275254155e-03 1.029026523235e-02 0.0 
0.0 0.0 0.0 
1.368890675273e-03 1.809702992766e-03 0.0 
1.809702992766e-03 5.041600726990e-03 0.0 
0.0 0.0 0.0 
-5.537900086287e-04 2.233039958864e-03 0.0 
2.233039958864e-03 1.037592977972e-02 0.0 
0.0 0.0 0.0 
-8.768960141093e-04 2.123097132984e-03 0.0 
2.123097132984e-03 -3.151810641621e-03 0.0 
0.0 0.0 0.0 
-8.239106739901e-04 2.634568765497e-03 0.0 
2.634568765497e-03 5.761742006732e-03 0.0 
0.0 0.0 0.0 
-6.026560800372e-04 2.679165646921e-03 0.0 
2.679165646921e-03 5.924582137450e-03 0.0 
0.0 0.0 0.0 
-7.015452904376e-04 2.519993510560e-03 0.0 
2.519993510560e-03 7.889975208083e-03 0.0 
0.0 0.0 0.0 
-1.026158993636e-03 1.656809864007e-03 0.0 
1.656809864007e-03 1.176999980047e-02 0.0 
0.0 0.0 0.0 
1.930531818154e-03 2.421326306478e-03 0.0 
2.421326306478e-03 -3.285696630484e-03 0.0 
0.0 0.0 0.0 
1.199889956631e-03 3.954556236502e-04 0.0 
3.954556236502e-04 4.668258278685e-03 0.0 
0.0 0.0 0.0 
-8.889264366240e-04 -2.240916032631e-06 0.0 
-2.240916032631e-06 1.083780892570e-02 0.0 
0.0 0.0 0.0 
1.499907302377e-03 2.606551701848e-03 0.0 
2.606551701848e-03 1.687380403096e-03 0.0 
0.0 0.0 0.0 
1.188998542804e-03 1.720726051952e-04 0.0 
1.720726051952e-04 4.380553151492e-03 0.0 
0.0 0.0 0.0 
1.839659306384e-04 -1.215449365425e-04 0.0 
-1.215449365425e-04 4.159374210964e-04 0.0 
0.0 0.0 0.0 
-1.055804960565e-03 1.214316584863e-03 0.0 
1.214316584863e-03 1.192087500606e-02 0.0 
0.0 0.0 0.0 
3.169383316270e-04 -1.359258733445e-04 0.0 
-1.359258733445e-04 2.275457429701e-04 0.0 
0.0 0.0 0.0 
1.267938602152e-04 -1.338289125495e-04 0.0 
-1.338289125495e-04 7.119623731862e-04 0.0 
0.0 0.0 0.0 
-1.104512551086e-03 2.880388207606e-03 0.0 
2.880388207606e-03 3.219183804161e-03 0.0 
0.0 0.0 0.0 
-1.400074266302e-04 -1.181670616767e-03 0.0 
-1.181670616767e-03 1.756637395314e-03 0.0 
0.0 0.0 0.0 
-1.115062410335e-03 1.206949377264e-03 0.0 
1.206949377264e-03 1.218871536706e-02 0.0 
0.0 0.0 0.0 
-1.853324205034e-04 -1.305791507930e-03 0.0 
-1.305791507930e-03 1.508928726155e-03 0.0 
0.0 0.0 0.0 
7.033001345369e-05 3.282255700377e-03 0.0 
3.282255700377e-03 1.434221308017e-03 0.0 
0.0 0.0 0.0 
5.677484365765e-04 -2.663698812863e-03 0.0 
-2.663698812863e-03 -1.121123354194e-03 0.0 
0.0 0.0 0.0 
-5.306806423405e-04 -9.154249729014e-04 0.0 
-9.154249729014e-04 1.299531629854e-03 0.0 
0.0 0.0 0.0 
1.207832384990e-03 1.008689952928e-03 0.0 
1.008689952928e-03 5.379225250937e-03 0.0 
0.0 0.0 0.0 
-1.526196919866e-03 1.445484835817e-03 0.0 
1.445484835817e-03 1.017118772005e-02 0.0 
0.0 0.0 0.0 
5.796772556632e-05 4.229523266986e-05 0.0 
4.229523266986e-05 7.078791572597e-03 0.0 
0.0 0.0 0.0 
-8.300477855776e-04 9.389511109845e-04 0.0 
9.389511109845e-04 -4.538926503185e-03 0.0 
0.0 0.0 0.0 
4.932826777739e-04 3.195687746676e-03 0.0 
3.195687746676e-03 1.560045325181e-03 0.0 
0.0 0.0 0.0 
1.576279705615e-03 2.434305866140e-03 0.0 
2.434305866140e-03 2.225063700166e-03 0.0 
0.0 0.0 0.0 
-1.242453991377e-03 1.958765077432e-03 0.0 
1.958765077432e-03 8.125767248038e-03 0.0 
0.0 0.0 0.0 
1.352606885735e-03 5.623995753604e-04 0.0 
5.623995753604e-04 4.656625888185e-03 0.0 
0.0 0.0 0.0 
9.685250487168e-05 7.002427606633e-05 0.0 
7.002427606633e-05 7.155455101679e-03 0.0 
0.0 0.0 0.0 
-1.184704512720e-03 1.535604776196e-03 0.0 
1.535604776196e-03 1.153408671478e-02 0.0 
0.0 0.0 0.0 
1.934960422186e-03 2.200202729107e-03 0.0 
2.200202729107e-03 2.246416242340e-04 0.0 
0.0 0.0 0.0 
1.092033309101e-03 8.641958052618e-04 0.0 
8.641958052618e-04 5.380220785860e-03 0.0 
0.0 0.0 0.0 
4.157283644601e-05 -3.184942926414e-05 0.0 
-3.184942926414e-05 5.222034699031e-03 0.0 
0.0 0.0 0.0 
-9.036060916552e-04 2.349559076140e-03 0.0 
2.349559076140e-03 8.561175243211e-03 0.0 
0.0 0.0 0.0 
-1.130191508332e-03 1.258103050082e-03 0.0 
1.258103050082e-03 1.162562999435e-02 0.0 
0.0 0.0 0.0 
2.621708242583e-04 2.336386538334e-03 0.0 
2.336386538334e-03 8.520021780762e-03 0.0 
0.0 0.0 0.0 
1.739263381144e-03 2.127067130585e-03 0.0 
2.127067130585e-03 2.269338188588e-03 0.0 
0.0 0.0 0.0 
-7.588538309955e-07 3.130896685516e-03 0.0 
3.130896685516e-03 2.438018671334e-03 0.0 
0.0 0.0 0.0 
-1.439287397636e-03 1.410452358928e-03 0.0 
1.410452358928e-03 1.072798005278e-02 0.0 
0.0 0.0 0.0 
-1.943455910937e-04 1.035598566346e-03 0.0 
1.035598566346e-03 1.360004452293e-02 0.0 
0.0 0.0 0.0 
-3.643328344551e-04 2.597640242391e-03 0.0 
2.597640242391e-03 7.393435031070e-03 0.0 
0.0 0.0 0.0 
1.835878438615e-03 1.636857453903e-03 0.0 
1.636857453903e-03 3.187821825148e-03 0.0 
0.0 0.0 0.0 
-8.504366039571e-04 4.547459618553e-05 0.0 
4.547459618553e-05 1.124007226737e-02 0.0 
0.0 0.0 0.0 
-5.580215270887e-04 -1.860099524692e-03 0.0 
-1.860099524692e-03 4.419564492879e-04 0.0 
0.0 0.0 0.0 
-1.402255008374e-03 1.119668107400e-03 0.0 
1.119668107400e-03 1.053156529614e-02 0.0 
0.0 0.0 0.0 
1.658890519397e-03 2.659948673127e-03 0.0 
2.659948673127e-03 1.568629144331e-04 0.0 
0.0 0.0 0.0 
2.197473488447e-03 2.260410073731e-03 0.0 
2.260410073731e-03 -2.796109079069e-03 0.0 
0.0 0.0 0.0 
1.682736565036e-03 -2.323947441646e-03 0.0 
-2.323947441646e-03 -3.485604021938e-03 0.0 
0.0 0.0 0.0 
-9.657764975076e-04 1.172194564153e-03 0.0 
1.172194564153e-03 1.219257245880e-02 0.0 
0.0 0.0 0.0 
-1.429134536232e-03 1.555005883985e-03 0.0 
1.555005883985e-03 1.036116234110e-02 0.0 
0.0 0.0 0.0 
3.802511091118e-04 2.943829019742e-03 0.0 
2.943829019742e-03 3.780531831286e-03 0.0 
0.0 0.0 0.0 
-1.010080676673e-03 1.154035402166e-03 0.0 
1.154035402166e-03 1.244646201732e-02 0.0 
0.0 0.0 0.0 
-1.065824583631e-03 1.729434705130e-03 0.0 
1.729434705130e-03 1.140640340664e-02 0.0 
0.0 0.0 0.0 
-1.069044449694e-03 2.162867684690e-03 0.0 
2.162867684690e-03 9.153839908727e-03 0.0 
0.0 0.0 0.0 
1.076076263589e-04 1.379189329375e-04 0.0 
1.379189329375e-04 7.063674468286e-03 0.0 
0.0 0.0 0.0 
1.883410191891e-03 1.631959034159e-03 0.0 
1.631959034159e-03 3.066173446597e-03 0.0 
0.0 0.0 0.0 
-1.193257387957e-03 1.974600418433e-03 0.0 
1.974600418433e-03 9.684553891613e-03 0.0 
0.0 0.0 0.0 
8.123832667479e-04 2.660025243763e-03 0.0 
2.660025243763e-03 4.464889466286e-03 0.0 
0.0 0.0 0.0 
1.718374249403e-03 1.611946686038e-03 0.0 
1.611946686038e-03 3.783394185440e-03 0.0 
0.0 0.0 0.0 
2.333129743661e-03 2.034210742882e-03 0.0 
2.034210742882e-03 -2.048282013567e-03 0.0 
0.0 0.0 0.0 
-1.321986642007e-03 3.959499223016e-04 0.0 
3.959499223016e-04 1.092087873056e-02 0.0 
0.0 0.0 0.0 
1.996417936512e-03 1.755211792865e-03 0.0 
1.755211792865e-03 1.988974660161e-03 0.0 
0.0 0.0 0.0 
2.363189447755e-03 -8.930182402474e-04 0.0 
-8.930182402474e-04 -1.255041293766e-03 0.0 
0.0 0.0 0.0 
-1.051572159986e-03 1.463422796468e-03 0.0 
1.463422796468e-03 1.154656780923e-02 0.0 
0.0 0.0 0.0 
-4.048224456573e-03 3.747397759021e-04 0.0 
3.747397759021e-04 -3.018124745325e-03 0.0 
0.0 0.0 0.0 
-1.511057504678e-03 1.160834411082e-03 0.0 
1.160834411082e-03 1.082091121019e-02 0.0 
0.0 0.0 0.0 
2.105731004882e-03 2.164244033151e-03 0.0 
2.164244033151e-03 -2.536860070887e-04 0.0 
0.0 0.0 0.0 
7.229560734028e-04 3.009159110288e-03 0.0 
3.009159110288e-03 1.584853356860e-03 0.0 
0.0 0.0 0.0 
2.593080069280e-03 1.248352908488e-03 0.0 
1.248352908488e-03 -1.916796005129e-03 0.0 
0.0 0.0 0.0 
-1.239677817917e-03 1.514045427435e-03 0.0 
1.514045427435e-03 1.058985113560e-02 0.0 
0.0 0.0 0.0 
-2.229352433455e-04 -5.416314990557e-04 0.0 
-5.416314990557e-04 7.484301073981e-04 0.0 
0.0 0.0 0.0 
-7.866776437123e-04 2.526369895478e-03 0.0 
2.526369895478e-03 6.752583948746e-03 0.0 
0.0 0.0 0.0 
1.758140638093e-03 1.612103937839e-03 0.0 
1.612103937839e-03 3.693222172713e-03 0.0 
0.0 0.0 0.0 
-1.339838707316e-03 1.387216119101e-03 0.0 
1.387216119101e-03 1.038954652752e-02 0.0 
0.0 0.0 0.0 
-1.328635518532e-03 5.458560532938e-04 0.0 
5.458560532938e-04 1.117999414558e-02 0.0 
0.0 0.0 0.0 
1.882143246020e-03 1.912621929153e-03 0.0 
1.912621929153e-03 -4.103346649265e-03 0.0 
0.0 0.0 0.0 
2.653634911582e-03 -2.115332544102e-04 0.0 
-2.115332544102e-04 -1.361774129642e-03 0.0 
0.0 0.0 0.0 
2.013432692084e-03 -1.584823951656e-03 0.0 
-1.584823951656e-03 -1.401840304993e-03 0.0 
0.0 0.0 0.0 
-1.004302708347e-03 2.648638172274e-03 0.0 
2.648638172274e-03 6.601973716049e-03 0.0 
0.0 0.0 0.0 
-1.275682371078e-03 1.328217031880e-03 0.0 
1.328217031880e-03 1.161376789394e-02 0.0 
0.0 0.0 0.0 
-7.762597228306e-04 2.701207350832e-03 0.0 
2.701207350832e-03 6.726358420539e-03 0.0 
0.0 0.0 0.0 
2.127401905244e-03 1.833048279202e-03 0.0 
1.833048279202e-03 1.106808402184e-03 0.0 
0.0 0.0 0.0 
1.860379527396e-03 2.245300905964e-03 0.0 
2.245300905964e-03 1.325698645800e-03 0.0 
0.0 0.0 0.0 
1.978347321434e-03 1.534212344116e-03 0.0 
1.534212344116e-03 -2.981551489279e-03 0.0 
0.0 0.0 0.0 
9.952265438642e-04 2.621752356307e-03 0.0 
2.621752356307e-03 3.987426527146e-03 0.0 
0.0 0.0 0.0 
-4.091120495042e-04 3.180825755322e-03 0.0 
3.180825755322e-03 1.420256776544e-03 0.0 
0.0 0.0 0.0 
-2.845435796934e-04 1.815653699290e-03 0.0 
1.815653699290e-03 1.302147433863e-02 0.0 
0.0 0.0 0.0 
-2.913985653478e-04 2.136302616745e-03 0.0 
2.136302616745e-03 1.262550841518e-02 0.0 
0.0 0.0 0.0 
-1.574479610080e-04 2.592426420510e-03 0.0 
2.592426420510e-03 6.924606219619e-03 0.0 
0.0 0.0 0.0 
1.991007679933e-03 2.421946559098e-03 0.0 
2.421946559098e-03 -9.336175566695e-04 0.0 
0.0 0.0 0.0 
1.029022618115e-03 2.955279307084e-03 0.0 
2.955279307084e-03 5.008520211576e-04 0.0 
0.0 0.0 0.0 
-9.777497143425e-04 2.031951461373e-03 0.0 
2.031951461373e-03 9.376262391148e-03 0.0 
0.0 0.0 0.0 
1.743299005464e-03 2.470809000822e-03 0.0 
2.470809000822e-03 -2.799362616817e-04 0.0 
0.0 0.0 0.0 
2.455724074732e-03 -9.280298500590e-04 0.0 
-9.280298500590e-04 -1.506461715471e-03 0.0 
0.0 0.0 0.0 
-9.634047098597e-04 2.180675723695e-03 0.0 
2.180675723695e-03 8.591677748224e-03 0.0 
0.0 0.0 0.0 
-3.569305338991e-04 6.375226130985e-04 0.0 
6.375226130985e-04 1.351102555577e-02 0.0 
0.0 0.0 0.0 
1.800291078908e-03 2.430488153013e-03 0.0 
2.430488153013e-03 7.265239981213e-04 0.0 
0.0 0.0 0.0 
1.319017534226e-03 1.994022714466e-03 0.0 
1.994022714466e-03 5.019625731170e-03 0.0 
0.0 0.0 0.0 
2.958599091945e-04 3.307873754297e-03 0.0 
3.307873754297e-03 3.537568306504e-04 0.0 
0.0 0.0 0.0 
3.363313626061e-04 1.214869575057e-03 0.0 
1.214869575057e-03 7.491829247120e-03 0.0 
0.0 0.0 0.0 
1.412863485722e-03 2.941468484431e-03 0.0 
2.941468484431e-03 -3.537962318647e-04 0.0 
0.0 0.0 0.0 
-6.828287689318e-04 2.367019248458e-03 0.0 
2.367019248458e-03 8.127311058336e-03 0.0 
0.0 0.0 0.0 
2.493161367640e-03 1.604280925992e-03 0.0 
1.604280925992e-03 -3.793599927479e-03 0.0 
0.0 0.0 0.0 
1.807550981154e-03 6.773661637894e-04 0.0 
6.773661637894e-04 3.500449873942e-03 0.0 
0.0 0.0 0.0 
1.861905191430e-03 2.094886503118e-03 0.0 
2.094886503118e-03 1.935702488228e-03 0.0 
0.0 0.0 0.0 
2.112975834031e-03 -1.277123004607e-03 0.0 
-1.277123004607e-03 -7.133493124042e-04 0.0 
0.0 0.0 0.0 
-1.389679635980e-03 1.731596398749e-03 0.0 
1.731596398749e-03 9.962926764627e-03 0.0 
0.0 0.0 0.0 
-1.866477272318e-04 2.591036396278e-03 0.0 
2.591036396278e-03 1.181782536020e-02 0.0 
0.0 0.0 0.0 
2.142465775360e-03 1.971845742256e-03 0.0 
1.971845742256e-03 4.313066129396e-04 0.0 
0.0 0.0 0.0 
1.779283119372e-03 1.364160571792e-03 0.0 
1.364160571792e-03 3.728019706294e-03 0.0 
0.0 0.0 0.0 
4.574160096431e-04 3.119983681761e-03 0.0 
3.119983681761e-03 3.786673726915e-04 0.0 
0.0 0.0 0.0 
-1.027477649022e-03 5.275435680562e-04 0.0 
5.275435680562e-04 1.192288956787e-02 0.0 
0.0 0.0 0.0 
1.360317424458e-03 3.287645506912e-04 0.0 
3.287645506912e-04 4.360079642947e-03 0.0 
0.0 0.0 0.0 
-1.745083779340e-04 3.032449775074e-03 0.0 
3.032449775074e-03 3.355106308576e-03 0.0 
0.0 0.0 0.0 
-1.134427052512e-03 4.010564498268e-04 0.0 
4.010564498268e-04 1.178610696103e-02 0.0 
0.0 0.0 0.0 
-4.948973517360e-05 2.848457432976e-03 0.0 
2.848457432976e-03 1.077718622290e-02 0.0 
0.0 0.0 0.0 
1.170218774774e-03 4.700116600722e-04 0.0 
4.700116600722e-04 4.952206332313e-03 0.0 
0.0 0.0 0.0 
-2.391487261308e-04 2.456980698858e-03 0.0 
2.456980698858e-03 1.211397984610e-02 0.0 
0.0 0.0 0.0 
-1.239547991202e-03 5.409728895793e-04 0.0 
5.409728895793e-04 1.170609444987e-02 0.0 
0.0 0.0 0.0 
-9.015944479071e-04 1.991766508306e-03 0.0 
1.991766508306e-03 1.080280990431e-02 0.0 
0.0 0.0 0.0 
-6.984952508625e-04 3.037974463925e-03 0.0 
3.037974463925e-03 3.274210705257e-03 0.0 
0.0 0.0 0.0 
-1.494882789168e-03 1.639932201164e-03 0.0 
1.639932201164e-03 9.781636449821e-03 0.0 
0.0 0.0 0.0 
-1.176819998043e-03 1.806361227569e-03 0.0 
1.806361227569e-03 9.708468158216e-03 0.0 
0.0 0.0 0.0 
-1.274667301392e-03 1.798949007044e-03 0.0 
1.798949007044e-03 1.015233893990e-02 0.0 
0.0 0.0 0.0 
-1.114086209087e-04 2.696018101063e-03 0.0 
2.696018101063e-03 6.627967653000e-03 0.0 
0.0 0.0 0.0 
4.978765789354e-05 2.842124578270e-03 0.0 
2.842124578270e-03 1.004596681375e-02 0.0 
0.0 0.0 0.0 
-1.283453400485e-03 7.414924451272e-04 0.0 
7.414924451272e-04 1.135870543291e-02 0.0 
0.0 0.0 0.0 
-1.563099403634e-03 1.016736759685e-03 0.0 
1.016736759685e-03 1.057512150367e-02 0.0 
0.0 0.0 0.0 
2.029215612663e-03 1.855760178878e-03 0.0 
1.855760178878e-03 1.383740065771e-03 0.0 
0.0 0.0 0.0 
-3.693332671362e-04 -1.099577263152e-03 0.0 
-1.099577263152e-03 1.544370858551e-03 0.0 
0.0 0.0 0.0 
-1.598028534793e-03 1.312698058120e-03 0.0 
1.312698058120e-03 9.958400965014e-03 0.0 
0.0 0.0 0.0 
3.102284769920e-04 3.099589881720e-03 0.0 
3.099589881720e-03 2.564115314018e-03 0.0 
0.0 0.0 0.0 
-8.516624555470e-04 1.559445336945e-05 0.0 
1.559445336945e-05 1.087410364771e-02 0.0 
0.0 0.0 0.0 
1.648409863426e-03 -1.740535493827e-03 0.0 
-1.740535493827e-03 -6.420050692518e-04 0.0 
0.0 0.0 0.0 
2.015519503723e-03 1.998571702304e-03 0.0 
1.998571702304e-03 7.870594194701e-04 0.0 
0.0 0.0 0.0 
-9.839046742968e-04 1.408601398618e-03 0.0 
1.408601398618e-03 1.186945288300e-02 0.0 
0.0 0.0 0.0 
4.490403742159e-04 3.000934413340e-03 0.0 
3.000934413340e-03 2.576373804540e-03 0.0 
0.0 0.0 0.0 
-1.278370820306e-03 1.720693037183e-03 0.0 
1.720693037183e-03 9.537587860503e-03 0.0 
0.0 0.0 0.0 
1.798999779009e-03 1.370469920240e-03 0.0 
1.370469920240e-03 3.703832260109e-03 0.0 
0.0 0.0 0.0 
1.376802334817e-03 -4.802726055700e-04 0.0 
-4.802726055700e-04 2.929373585934e-03 0.0 
0.0 0.0 0.0 
2.208933042311e-04 2.577145347354e-03 0.0 
2.577145347354e-03 8.994861549117e-03 0.0 
0.0 0.0 0.0 
-1.524459223669e-03 1.769148943561e-03 0.0 
1.769148943561e-03 9.210347955106e-03 0.0 
0.0 0.0 0.0 
2.763705468436e-03 4.343036679129e-04 0.0 
4.343036679129e-04 -1.866497508329e-03 0.0 
0.0 0.0 0.0 
6.936639094972e-04 -1.398777901832e-03 0.0 
-1.398777901832e-03 1.703263113263e-03 0.0 
0.0 0.0 0.0 
-8.200562290233e-04 2.815338982205e-03 0.0 
2.815338982205e-03 4.932474008681e-03 0.0 
0.0 0.0 0.0 
-2.058038724873e-04 3.049388110297e-03 0.0 
3.049388110297e-03 3.353337387252e-03 0.0 
0.0 0.0 0.0 
-8.923694458414e-04 1.840714551019e-03 0.0 
1.840714551019e-03 1.163336127645e-02 0.0 
0.0 0.0 0.0 
-7.925534879096e-04 2.324554350315e-03 0.0 
2.324554350315e-03 8.765109699566e-03 0.0 
0.0 0.0 0.0 
-1.302356989157e-03 2.295674525399e-03 0.0 
2.295674525399e-03 8.097888778537e-03 0.0 
0.0 0.0 0.0 
-1.364744137101e-03 1.603603398281e-03 0.0 
1.603603398281e-03 9.385802936382e-03 0.0 
0.0 0.0 0.0 
3.474326061008e-04 1.865216736530e-03 0.0 
1.865216736530e-03 7.911105193110e-03 0.0 
0.0 0.0 0.0 
5.871400164787e-04 1.788077120617e-03 0.0 
1.788077120617e-03 7.361320878053e-03 0.0 
0.0 0.0 0.0 
-7.707428472448e-04 1.786301294292e-03 0.0 
1.786301294292e-03 1.164376150248e-02 0.0 
0.0 0.0 0.0 
-1.207831836900e-03 1.264904070451e-03 0.0 
1.264904070451e-03 1.191322329378e-02 0.0 
0.0 0.0 0.0 
1.322843304593e-03 -6.475565699146e-04 0.0 
-6.475565699146e-04 2.551879000580e-03 0.0 
0.0 0.0 0.0 
-3.945318869698e-04 2.801222173200e-03 0.0 
2.801222173200e-03 6.114868737669e-03 0.0 
0.0 0.0 0.0 
2.271169536939e-03 1.813710999204e-03 0.0 
1.813710999204e-03 -8.390810546262e-04 0.0 
0.0 0.0 0.0 
2.313810586873e-03 1.616358281908e-03 0.0 
1.616358281908e-03 -1.710704742851e-04 0.0 
0.0 0.0 0.0 
-5.917196426082e-04 2.476077099239e-03 0.0 
2.476077099239e-03 8.110734767108e-03 0.0 
0.0 0.0 0.0 
1.807186918223e-03 6.204141540987e-04 0.0 
6.204141540987e-04 3.334929213192e-03 0.0 
0.0 0.0 0.0 
2.898292167060e-04 -7.780072418122e-04 0.0 
-7.780072418122e-04 3.141224929314e-03 0.0 
0.0 0.0 0.0 
-8.107325157937e-04 1.553270435591e-03 0.0 
1.553270435591e-03 1.210376919660e-02 0.0 
0.0 0.0 0.0 
2.622305553113e-03 -3.628954301673e-04 0.0 
-3.628954301673e-04 -1.741658845224e-03 0.0 
0.0 0.0 0.0 
1.533420788622e-04 2.749689735547e-03 0.0 
2.749689735547e-03 5.819207123382e-03 0.0 
0.0 0.0 0.0 
-1.089940011288e-03 1.984227476938e-03 0.0 
1.984227476938e-03 9.188367533701e-03 0.0 
0.0 0.0 0.0 
1.382574868725e-05 2.815793496543e-03 0.0 
2.815793496543e-03 5.529395616953e-03 0.0 
0.0 0.0 0.0 
-2.793369790774e-04 2.313593647826e-03 0.0 
2.313593647826e-03 1.238064762083e-02 0.0 
0.0 0.0 0.0 
-2.718165562087e-04 1.984130415907e-03 0.0 
1.984130415907e-03 1.282221245709e-02 0.0 
0.0 0.0 0.0 
-5.509272436189e-04 1.862517423002e-03 0.0 
1.862517423002e-03 1.252771301380e-02 0.0 
0.0 0.0 0.0 
1.291058606897e-03 -4.275344399329e-04 0.0 
-4.275344399329e-04 3.066784437302e-03 0.0 
0.0 0.0 0.0 
-8.591322750325e-04 1.135166224366e-03 0.0 
1.135166224366e-03 1.244825761695e-02 0.0 
0.0 0.0 0.0 
-1.137595568541e-04 3.178173090247e-03 0.0 
3.178173090247e-03 2.432911274763e-03 0.0 
0.0 0.0 0.0 
2.294060455860e-03 1.487839346003e-03 0.0 
1.487839346003e-03 5.047143589860e-04 0.0 
0.0 0.0 0.0 
2.422007079838e-03 1.424169548918e-03 0.0 
1.424169548918e-03 -2.655423528000e-03 0.0 
0.0 0.0 0.0 
-9.658917393331e-04 2.541991120518e-03 0.0 
2.541991120518e-03 7.500992010666e-03 0.0 
0.0 0.0 0.0 
-1.263104960813e-03 3.024907727037e-04 0.0 
3.024907727037e-04 1.095376852990e-02 0.0 
0.0 0.0 0.0 
-1.103206833125e-03 5.281045215101e-04 0.0 
5.281045215101e-04 1.170700541690e-02 0.0 
0.0 0.0 0.0 
6.095514675295e-04 1.216492927996e-03 0.0 
1.216492927996e-03 6.943732095061e-03 0.0 
0.0 0.0 0.0 
-6.513681080238e-04 2.017339789576e-03 0.0 
2.017339789576e-03 1.105225161117e-02 0.0 
0.0 0.0 0.0 
-1.330839967850e-03 1.270413290353e-03 0.0 
1.270413290353e-03 1.074871795649e-02 0.0 
0.0 0.0 0.0 
-1.060546589894e-03 1.875971202512e-03 0.0 
1.875971202512e-03 9.905320279551e-03 0.0 
0.0 0.0 0.0 
2.679893195357e-03 1.446511517293e-03 0.0 
1.446511517293e-03 -3.129796556468e-03 0.0 
0.0 0.0 0.0 
-6.868772579411e-04 -1.180627921983e-03 0.0 
-1.180627921983e-03 6.396572778766e-04 0.0 
0.0 0.0 0.0 
1.284680027803e-03 2.551679956042e-03 0.0 
2.551679956042e-03 3.113874075408e-03 0.0 
0.0 0.0 0.0 
2.441699021223e-04 2.664962155231e-03 0.0 
2.664962155231e-03 6.136320828731e-03 0.0 
0.0 0.0 0.0 
1.156876454180e-03 2.453216407682e-03 0.0 
2.453216407682e-03 4.010672385129e-03 0.0 
0.0 0.0 0.0 
-8.889809530318e-04 3.144953952549e-03 0.0 
3.144953952549e-03 5.403038573446e-04 0.0 
0.0 0.0 0.0 
-8.093607025640e-04 5.613103748997e-05 0.0 
5.613103748997e-05 1.122420939246e-02 0.0 
0.0 0.0 0.0 
-3.295814512919e-04 -1.149170321627e-03 0.0 
-1.149170321627e-03 1.340410637484e-03 0.0 
0.0 0.0 0.0 
1.106695174405e-03 3.013638975382e-03 0.0 
3.013638975382e-03 7.818861154714e-04 0.0 
0.0 0.0 0.0 
0.0 1.267143421629e-03 0.0 
1.267143421629e-03 7.547055007068e-03 0.0 
0.0 0.0 0.0 
1.432834951229e-03 1.626239104210e-03 0.0 
1.626239104210e-03 4.972041872928e-03 0.0 
0.0 0.0 0.0 
-1.415085309171e-03 8.629265410020e-04 0.0 
8.629265410020e-04 1.059336875980e-02 0.0 
0.0 0.0 0.0 
2.724434740540e-04 -3.193696461671e-05 0.0 
-3.193696461671e-05 9.728976345447e-04 0.0 
0.0 0.0 0.0 
-2.398229322678e-04 2.659109487930e-03 0.0 
2.659109487930e-03 6.633636325206e-03 0.0 
0.0 0.0 0.0 
1.446982353106e-03 2.317854794599e-03 0.0 
2.317854794599e-03 3.145974719555e-03 0.0 
0.0 0.0 0.0 
-1.318733721837e-03 1.646169461873e-03 0.0 
1.646169461873e-03 1.057339131918e-02 0.0 
0.0 0.0 0.0 
-1.304470338721e-04 2.711160489624e-03 0.0 
2.711160489624e-03 1.148032069672e-02 0.0 
0.0 0.0 0.0 
-1.400424375780e-03 1.413006160401e-03 0.0 
1.413006160401e-03 9.806938435335e-03 0.0 
0.0 0.0 0.0 
-9.548371301945e-04 2.165655013647e-03 0.0 
2.165655013647e-03 9.358987838078e-03 0.0 
0.0 0.0 0.0 
4.279911681830e-04 -7.700060154176e-04 0.0 
-7.700060154176e-04 3.139253965651e-03 0.0 
0.0 0.0 0.0 
-8.999395853649e-04 1.364971894177e-03 0.0 
1.364971894177e-03 1.216947835636e-02 0.0 
0.0 0.0 0.0 
1.328402146352e-03 -2.805667904331e-04 0.0 
-2.805667904331e-04 3.424193087374e-03 0.0 
0.0 0.0 0.0 
-1.153456237892e-04 2.796328872147e-03 0.0 
2.796328872147e-03 1.114121007958e-02 0.0 
0.0 0.0 0.0 
0.0 2.272326372592e-03 0.0 
2.272326372592e-03 1.224499951104e-02 0.0 
0.0 0.0 0.0 
0.0 1.646795607130e-03 0.0 
1.646795607130e-03 1.312148220902e-02 0.0 
0.0 0.0 0.0 
0.0 1.955249159186e-03 0.0 
1.955249159186e-03 1.273636977516e-02 0.0 
0.0 0.0 0.0 
-1.107299831736e-03 1.739302861766e-03 0.0 
1.739302861766e-03 1.037897427136e-02 0.0 
0.0 0.0 0.0 
-1.046464668897e-03 1.397581454521e-03 0.0 
1.397581454521e-03 1.216584916534e-02 0.0 
0.0 0.0 0.0 
-6.204178017915e-04 1.982408771642e-03 0.0 
1.982408771642e-03 1.147695317794e-02 0.0 
0.0 0.0 0.0 
-8.308881901919e-05 2.819761295520e-03 0.0 
2.819761295520e-03 5.529271965432e-03 0.0 
0.0 0.0 0.0 
-4.420185513043e-04 2.722402031518e-03 0.0 
2.722402031518e-03 6.124989939433e-03 0.0 
0.0 0.0 0.0 
1.600263756887e-04 -7.245317066360e-04 0.0 
-7.245317066360e-04 3.092161307063e-03 0.0 
0.0 0.0 0.0 
-9.546905117135e-04 1.592997967692e-03 0.0 
1.592997967692e-03 1.209867844106e-02 0.0 
0.0 0.0 0.0 
2.733340717986e-06 2.862679704126e-03 0.0 
2.862679704126e-03 1.040592838843e-02 0.0 
0.0 0.0 0.0 
-7.960302102319e-04 1.314247224598e-03 0.0 
1.314247224598e-03 1.244180441170e-02 0.0 
0.0 0.0 0.0 
1.583823622037e-03 1.608865486800e-03 0.0 
1.608865486800e-03 4.379452237688e-03 0.0 
0.0 0.0 0.0 
-9.420517940275e-04 1.340287177296e-03 0.0 
1.340287177296e-03 1.243893050998e-02 0.0 
0.0 0.0 0.0 
3.331680769589e-04 2.374541827098e-03 0.0 
2.374541827098e-03 7.596573380487e-03 0.0 
0.0 0.0 0.0 
3.678434213459e-04 2.735701895847e-03 0.0 
2.735701895847e-03 5.311249495514e-03 0.0 
0.0 0.0 0.0 
-9.876832027473e-04 2.337848493822e-03 0.0 
2.337848493822e-03 7.522430386478e-03 0.0 
0.0 0.0 0.0 
1.093057434473e-03 3.188004195724e-03 0.0 
3.188004195724e-03 -7.548779599452e-04 0.0 
0.0 0.0 0.0 
-2.369278191797e-04 1.084135364736e-03 0.0 
1.084135364736e-03 1.331156664729e-02 0.0 
0.0 0.0 0.0 
1.559915937797e-04 2.901000469335e-03 0.0 
2.901000469335e-03 4.672167204133e-03 0.0 
0.0 0.0 0.0 
5.434866106491e-05 2.443167092578e-03 0.0 
2.443167092578e-03 9.500400078029e-03 0.0 
0.0 0.0 0.0 
2.602144820161e-04 -7.358934268812e-04 0.0 
-7.358934268812e-04 3.093301709937e-03 0.0 
0.0 0.0 0.0 
1.136967775452e-03 -2.116077990252e-03 0.0 
-2.116077990252e-03 -4.243496293033e-04 0.0 
0.0 0.0 0.0 
3.429366205274e-04 1.090306090428e-03 0.0 
1.090306090428e-03 6.897799087137e-03 0.0 
0.0 0.0 0.0 
8.416601078129e-04 3.019324401839e-03 0.0 
3.019324401839e-03 1.826558640029e-03 0.0 
0.0 0.0 0.0 
0.0 2.411756354079e-03 0.0 
2.411756354079e-03 1.196837873789e-02 0.0 
0.0 0.0 0.0 
-3.242604308364e-04 1.714712556072e-03 0.0 
1.714712556072e-03 1.273512941983e-02 0.0 
0.0 0.0 0.0 
-5.850072792579e-04 2.345372423354e-03 0.0 
2.345372423354e-03 8.371629783834e-03 0.0 
0.0 0.0 0.0 
-6.486631433856e-04 -5.772833160766e-04 0.0 
-5.772833160766e-04 6.717483729470e-04 0.0 
0.0 0.0 0.0 
0.0 2.610830182192e-03 0.0 
2.610830182192e-03 1.131745173806e-02 0.0 
0.0 0.0 0.0 
3.426050914450e-04 1.457580360473e-03 0.0 
1.457580360473e-03 7.146403070352e-03 0.0 
0.0 0.0 0.0 
1.636019654981e-03 -1.765954728451e-03 0.0 
-1.765954728451e-03 -4.799424899277e-04 0.0 
0.0 0.0 0.0 
1.623922274499e-03 1.396693123132e-03 0.0 
1.396693123132e-03 4.340062429838e-03 0.0 
0.0 0.0 0.0 
2.429958035435e-04 2.422589726597e-03 0.0 
2.422589726597e-03 8.679490570912e-03 0.0 
0.0 0.0 0.0 
-2.373697921294e-04 -6.806773007841e-05 0.0 
-6.806773007841e-05 1.963230923112e-04 0.0 
0.0 0.0 0.0 
2.800474854849e-04 2.823510255723e-03 0.0 
2.823510255723e-03 4.976529858549e-03 0.0 
0.0 0.0 0.0 
-7.454006323142e-04 2.204344227038e-03 0.0 
2.204344227038e-03 9.013266058468e-03 0.0 
0.0 0.0 0.0 
-3.864576570320e-04 2.479516725385e-03 0.0 
2.479516725385e-03 7.671880341201e-03 0.0 
0.0 0.0 0.0 
-8.497592167335e-04 2.200256649340e-03 0.0 
2.200256649340e-03 8.782811240496e-03 0.0 
0.0 0.0 0.0 
7.516878158709e-04 3.248203492273e-03 0.0 
3.248203492273e-03 4.583317405309e-04 0.0 
0.0 0.0 0.0 
0.0 2.707634632458e-03 0.0 
2.707634632458e-03 1.059220641751e-02 0.0 
0.0 0.0 0.0 
2.235591666531e-03 1.408095381986e-03 0.0 
1.408095381986e-03 1.172960837498e-03 0.0 
0.0 0.0 0.0 
1.902582430387e-03 3.959157585315e-04 0.0 
3.959157585315e-04 -3.849757043310e-03 0.0 
0.0 0.0 0.0 
1.969328564286e-04 1.419026820921e-04 0.0 
1.419026820921e-04 7.035588915278e-03 0.0 
0.0 0.0 0.0 
-2.441738460354e-04 -4.532066292376e-04 0.0 
-4.532066292376e-04 3.817385571874e-04 0.0 
0.0 0.0 0.0 
-1.286913266276e-03 1.831394651742e-03 0.0 
1.831394651742e-03 8.881335942504e-03 0.0 
0.0 0.0 0.0 
9.021468675299e-04 -2.329264401620e-03 0.0 
-2.329264401620e-03 -1.963083900132e-03 0.0 
0.0 0.0 0.0 
-1.452715319765e-03 1.077556469005e-03 0.0 
1.077556469005e-03 9.987570163307e-03 0.0 
0.0 0.0 0.0 
3.465410950854e-04 1.625348179223e-03 0.0 
1.625348179223e-03 7.726142673962e-03 0.0 
0.0 0.0 0.0 
0.0 2.675545170686e-03 0.0 
2.675545170686e-03 9.852036475998e-03 0.0 
0.0 0.0 0.0 
-1.222728309237e-03 1.647327311629e-03 0.0 
1.647327311629e-03 1.017313857271e-02 0.0 
0.0 0.0 0.0 
-1.886050847166e-06 -2.363079512371e-03 0.0 
-2.363079512371e-03 -8.600463695708e-04 0.0 
0.0 0.0 0.0 
1.634706751000e-03 8.354050778832e-04 0.0 
8.354050778832e-04 -4.509187612033e-03 0.0 
0.0 0.0 0.0 
-6.616587387320e-05 -2.833801149346e-03 0.0 
-2.833801149346e-03 -9.947501586278e-04 0.0 
0.0 0.0 0.0 
5.446867792731e-04 6.911216955032e-05 0.0 
6.911216955032e-05 5.658648464170e-03 0.0 
0.0 0.0 0.0 
-1.268959630394e-03 3.692815011690e-04 0.0 
3.692815011690e-04 1.087553542156e-02 0.0 
0.0 0.0 0.0 
-1.527871197456e-03 9.119464258007e-04 0.0 
9.119464258007e-04 1.084571376204e-02 0.0 
0.0 0.0 0.0 
0.0 2.516341339499e-03 0.0 
2.516341339499e-03 9.159865355933e-03 0.0 
0.0 0.0 0.0 
-1.207157323742e-03 2.779952450333e-04 0.0 
2.779952450333e-04 1.090407222005e-02 0.0 
0.0 0.0 0.0 
-2.524619113635e-04 1.636734036032e-03 0.0 
1.636734036032e-03 1.318717393969e-02 0.0 
0.0 0.0 0.0 
4.594107484128e-04 2.364289930503e-03 0.0 
2.364289930503e-03 7.299175112654e-03 0.0 
0.0 0.0 0.0 
-1.075930150205e-03 3.968682990210e-04 0.0 
3.968682990210e-04 1.156358681452e-02 0.0 
0.0 0.0 0.0 
-3.421431974391e-04 2.952705677804e-03 0.0 
2.952705677804e-03 4.199136365796e-03 0.0 
0.0 0.0 0.0 
1.615141182166e-03 1.608915574364e-03 0.0 
1.608915574364e-03 4.310475958163e-03 0.0 
0.0 0.0 0.0 
1.795978539835e-03 2.300871450206e-03 0.0 
2.300871450206e-03 -1.901195550550e-03 0.0 
0.0 0.0 0.0 
0.0 2.230695106621e-03 0.0 
2.230695106621e-03 8.538908351095e-03 0.0 
0.0 0.0 0.0 
0.0 2.120121285244e-03 0.0 
2.120121285244e-03 1.250681535786e-02 0.0 
0.0 0.0 0.0 
0.0 1.796418143914e-03 0.0 
1.796418143914e-03 1.295180179845e-02 0.0 
0.0 0.0 0.0 
1.105368498364e-03 -4.178210007973e-04 0.0 
-4.178210007973e-04 3.445782130440e-03 0.0 
0.0 0.0 0.0 
5.892446294831e-05 -6.431155740900e-04 0.0 
-6.431155740900e-04 3.020583052042e-03 0.0 
0.0 0.0 0.0 
5.246594296504e-04 2.680413302300e-03 0.0 
2.680413302300e-03 5.318802543483e-03 0.0 
0.0 0.0 0.0 
1.136690672702e-03 -2.771724667364e-04 0.0 
-2.771724667364e-04 3.791870564243e-03 0.0 
0.0 0.0 0.0 
0.0 1.887783894332e-03 0.0 
1.887783894332e-03 8.046876426983e-03 0.0 
0.0 0.0 0.0 
1.383378023625e-03 2.685332194502e-03 0.0 
2.685332194502e-03 8.292951318316e-04 0.0 
0.0 0.0 0.0 
2.422287754973e-03 -6.770840728552e-04 0.0 
-6.770840728552e-04 -7.473444504102e-04 0.0 
0.0 0.0 0.0 
2.134496004198e-03 -9.762772402970e-04 0.0 
-9.762772402970e-04 -1.023262027253e-04 0.0 
0.0 0.0 0.0 
-1.008949432494e-03 4.068124503318e-04 0.0 
4.068124503318e-04 1.178504881033e-02 0.0 
0.0 0.0 0.0 
2.738981339014e-04 9.972973272585e-04 0.0 
9.972973272585e-04 7.417256892879e-03 0.0 
0.0 0.0 0.0 
-9.901986170611e-04 -2.468016675507e-03 0.0 
-2.468016675507e-03 -2.658992081053e-04 0.0 
0.0 0.0 0.0 
0.0 1.464062647550e-03 0.0 
1.464062647550e-03 7.655334630249e-03 0.0 
0.0 0.0 0.0 
1.770320390343e-03 -1.430154936177e-03 0.0 
-1.430154936177e-03 2.718728702389e-06 0.0 
0.0 0.0 0.0 
0.0 2.530241084394e-03 0.0 
2.530241084394e-03 1.166005693248e-02 0.0 
0.0 0.0 0.0 
-7.544840890370e-04 2.025324001081e-03 0.0 
2.025324001081e-03 1.147060523774e-02 0.0 
0.0 0.0 0.0 
4.567052790523e-04 -6.258752550096e-05 0.0 
-6.258752550096e-05 -3.310515969046e-05 0.0 
0.0 0.0 0.0 
6.459139462702e-04 2.753282758643e-03 0.0 
2.753282758643e-03 4.451717846053e-03 0.0 
0.0 0.0 0.0 
-8.890472770758e-04 1.107080058759e-03 0.0 
1.107080058759e-03 1.268183848156e-02 0.0 
0.0 0.0 0.0 
0.0 2.678212227382e-03 0.0 
2.678212227382e-03 1.096208359620e-02 0.0 
0.0 0.0 0.0 
-1.154332969918e-03 1.859054956833e-03 0.0 
1.859054956833e-03 1.036342192354e-02 0.0 
0.0 0.0 0.0 
6.369982842995e-04 2.294402933113e-03 0.0 
2.294402933113e-03 7.053865965238e-03 0.0 
0.0 0.0 0.0 
5.945725860741e-04 3.249836695810e-03 0.0 
3.249836695810e-03 -8.460685716666e-04 0.0 
0.0 0.0 0.0 
6.571924691772e-04 1.276068718217e-03 0.0 
1.276068718217e-03 6.513070062933e-03 0.0 
0.0 0.0 0.0 
1.462373385626e-03 -1.462843700870e-03 0.0 
-1.462843700870e-03 6.499120959107e-04 0.0 
0.0 0.0 0.0 
1.741723981949e-03 -1.388350070077e-03 0.0 
-1.388350070077e-03 -4.554628693176e-05 0.0 
0.0 0.0 0.0 
-1.568896657892e-03 -2.478929319947e-03 0.0 
-2.478929319947e-03 -3.732132928179e-04 0.0 
0.0 0.0 0.0 
0.0 2.706004742188e-03 0.0 
2.706004742188e-03 1.022044513245e-02 0.0 
0.0 0.0 0.0 
2.096684640212e-03 2.075557844613e-03 0.0 
2.075557844613e-03 -1.464794987583e-03 0.0 
0.0 0.0 0.0 
1.017700207114e-03 5.475222103057e-04 0.0 
5.475222103057e-04 5.291274031101e-03 0.0 
0.0 0.0 0.0 
-1.159273835221e-03 2.765408205357e-04 0.0 
2.765408205357e-04 1.139064038168e-02 0.0 
0.0 0.0 0.0 
2.995976686784e-04 -1.748972776176e-03 0.0 
-1.748972776176e-03 1.145727474320e-03 0.0 
0.0 0.0 0.0 
2.052994899947e-03 -1.226038434762e-03 0.0 
-1.226038434762e-03 -6.662494992692e-04 0.0 
0.0 0.0 0.0 
-1.074879686851e-03 2.006710149004e-03 0.0 
2.006710149004e-03 9.887706285846e-03 0.0 
0.0 0.0 0.0 
0.0 2.381846503257e-03 0.0 
2.381846503257e-03 8.841832858614e-03 0.0 
0.0 0.0 0.0 
8.826575169163e-05 -5.405675909718e-04 0.0 
-5.405675909718e-04 3.257993394016e-03 0.0 
0.0 0.0 0.0 
1.136669028709e-03 -3.708202437789e-05 0.0 
-3.708202437789e-05 4.142675405120e-03 0.0 
0.0 0.0 0.0 
1.576907521286e-04 2.596951356176e-03 0.0 
2.596951356176e-03 6.474303427053e-03 0.0 
0.0 0.0 0.0 
1.671015252027e-03 1.564559307097e-04 0.0 
1.564559307097e-04 3.180531214136e-03 0.0 
0.0 0.0 0.0 
2.316540325484e-03 -6.348524196838e-04 0.0 
-6.348524196838e-04 -4.702628852047e-04 0.0 
0.0 0.0 0.0 
1.228624421898e-03 -2.238617640674e-04 0.0 
-2.238617640674e-04 3.597418101737e-03 0.0 
0.0 0.0 0.0 
-2.441454183277e-05 2.614507413606e-03 0.0 
2.614507413606e-03 6.921065344144e-03 0.0 
0.0 0.0 0.0 
-1.135849102789e-04 2.384226333932e-03 0.0 
2.384226333932e-03 8.599149329857e-03 0.0 
0.0 0.0 0.0 
1.453628225572e-03 1.623463495184e-03 0.0 
1.623463495184e-03 4.919197384992e-03 0.0 
0.0 0.0 0.0 
4.248751023759e-04 2.640487711702e-03 0.0 
2.640487711702e-03 5.675348184744e-03 0.0 
0.0 0.0 0.0 
5.301954725265e-04 -9.055689871700e-04 0.0 
-9.055689871700e-04 2.826136155451e-03 0.0 
0.0 0.0 0.0 
1.060098514938e-03 2.797680382981e-03 0.0 
2.797680382981e-03 1.857319961809e-03 0.0 
0.0 0.0 0.0 
1.220954685959e-04 -6.687629944190e-04 0.0 
-6.687629944190e-04 3.024076115345e-03 0.0 
0.0 0.0 0.0 
5.322064194992e-04 2.307386994422e-03 0.0 
2.307386994422e-03 7.308610322930e-03 0.0 
0.0 0.0 0.0 
1.946591665142e-03 1.351924063424e-03 0.0 
1.351924063424e-03 3.066049274742e-03 0.0 
0.0 0.0 0.0 
3.367820080125e-04 1.412742470702e-03 0.0 
1.412742470702e-03 7.601658360724e-03 0.0 
0.0 0.0 0.0 
-8.285331711758e-04 1.286014852901e-03 0.0 
1.286014852901e-03 1.269491529209e-02 0.0 
0.0 0.0 0.0 
1.375383931401e-04 -1.628224384923e-03 0.0 
-1.628224384923e-03 1.374035664096e-03 0.0 
0.0 0.0 0.0 
0.0 1.669909218863e-03 0.0 
1.669909218863e-03 7.801314714993e-03 0.0 
0.0 0.0 0.0 
6.577353212565e-04 1.429446124641e-03 0.0 
1.429446124641e-03 7.073292673559e-03 0.0 
0.0 0.0 0.0 
1.297929969272e-03 2.421099180136e-03 0.0 
2.421099180136e-03 3.616823061493e-03 0.0 
0.0 0.0 0.0 
-9.314383677635e-04 -1.598219810717e-03 0.0 
-1.598219810717e-03 4.590354917342e-04 0.0 
0.0 0.0 0.0 
2.977019834005e-04 8.275520190454e-04 0.0 
8.275520190454e-04 7.375510918990e-03 0.0 
0.0 0.0 0.0 
-8.568360420657e-04 1.528528291982e-03 0.0 
1.528528291982e-03 1.239906214642e-02 0.0 
0.0 0.0 0.0 
1.293425705256e-03 -1.767238846493e-03 0.0 
-1.767238846493e-03 2.597373777091e-04 0.0 
0.0 0.0 0.0 
0.0 1.066050012137e-03 0.0 
1.066050012137e-03 7.435014826236e-03 0.0 
0.0 0.0 0.0 
1.048882108194e-03 -2.262188179929e-04 0.0 
-2.262188179929e-04 3.956165612862e-03 0.0 
0.0 0.0 0.0 
-6.748937296990e-04 2.564836534866e-03 0.0 
2.564836534866e-03 6.937652670746e-03 0.0 
0.0 0.0 0.0 
-1.376782872098e-03 1.026712194774e-03 0.0 
1.026712194774e-03 1.083898588323e-02 0.0 
0.0 0.0 0.0 
1.919355325473e-03 1.344139436808e-03 0.0 
1.344139436808e-03 3.102345600361e-03 0.0 
0.0 0.0 0.0 
1.131078841679e-03 -6.252215667242e-04 0.0 
-6.252215667242e-04 2.951637619809e-03 0.0 
0.0 0.0 0.0 
1.682676209357e-03 4.537553250048e-04 0.0 
4.537553250048e-04 3.537665925802e-03 0.0 
0.0 0.0 0.0 
-1.333685919895e-03 1.126314397948e-03 0.0 
1.126314397948e-03 1.165129681601e-02 0.0 
0.0 0.0 0.0 
-1.067065633499e-03 2.144488927293e-03 0.0 
2.144488927293e-03 8.414413195645e-03 0.0 
0.0 0.0 0.0 
1.258397712379e-03 1.819012354017e-03 0.0 
1.819012354017e-03 5.538797716621e-03 0.0 
0.0 0.0 0.0 
-8.139403513188e-04 5.505700284114e-05 0.0 
5.505700284114e-05 1.155743238689e-02 0.0 
0.0 0.0 0.0 
3.653156346410e-04 -9.216048286812e-04 0.0 
-9.216048286812e-04 2.829473507623e-03 0.0 
0.0 0.0 0.0 
1.634772451127e-03 1.401157831835e-03 0.0 
1.401157831835e-03 4.329683774033e-03 0.0 
0.0 0.0 0.0 
1.072628012647e-03 -1.680174666101e-03 0.0 
-1.680174666101e-03 6.791233634174e-04 0.0 
0.0 0.0 0.0 
4.344333880562e-04 -3.145909656099e-04 0.0 
-3.145909656099e-04 4.557463440069e-03 0.0 
0.0 0.0 0.0 
-1.140134614056e-04 -1.678629002556e-04 0.0 
-1.678629002556e-04 8.522664628519e-05 0.0 
0.0 0.0 0.0 
7.709079844000e-04 2.865643764168e-03 0.0 
2.865643764168e-03 2.834501430798e-03 0.0 
0.0 0.0 0.0 
1.333277195476e-03 -1.759063976425e-03 0.0 
-1.759063976425e-03 5.157714296300e-05 0.0 
0.0 0.0 0.0 
3.408800464293e-04 -6.424038557973e-04 0.0 
-6.424038557973e-04 3.429694421189e-03 0.0 
0.0 0.0 0.0 
1.012913573872e-03 2.505788760900e-03 0.0 
2.505788760900e-03 4.447055738068e-03 0.0 
0.0 0.0 0.0 
1.248289031988e-03 -9.623268488298e-05 0.0 
-9.623268488298e-05 3.935930018118e-03 0.0 
0.0 0.0 0.0 
-1.096143441933e-03 2.892322793556e-04 0.0 
2.892322793556e-04 1.162938522692e-02 0.0 
0.0 0.0 0.0 
8.676610143674e-04 -1.978448279213e-03 0.0 
-1.978448279213e-03 2.951331404071e-04 0.0 
0.0 0.0 0.0 
0.0 8.986612550253e-04 0.0 
8.986612550253e-04 7.399349072269e-03 0.0 
0.0 0.0 0.0 
-6.905717425453e-04 2.301491724736e-03 0.0 
2.301491724736e-03 8.999702001594e-03 0.0 
0.0 0.0 0.0 
2.645498696472e-04 -5.241032868284e-04 0.0 
-5.241032868284e-04 3.700107952073e-03 0.0 
0.0 0.0 0.0 
-4.981430236186e-04 2.427340582958e-03 0.0 
2.427340582958e-03 8.359752519104e-03 0.0 
0.0 0.0 0.0 
2.237550573441e-04 -6.455347248428e-04 0.0 
-6.455347248428e-04 3.430809153592e-03 0.0 
0.0 0.0 0.0 
-5.448372389601e-04 -8.349790349409e-05 0.0 
-8.349790349409e-05 3.291292675973e-04 0.0 
0.0 0.0 0.0 
-1.474127239414e-03 1.058710445567e-03 0.0 
1.058710445567e-03 1.110896760100e-02 0.0 
0.0 0.0 0.0 
-6.938048738525e-05 -1.865577445300e-04 0.0 
-1.865577445300e-04 3.225238284171e-03 0.0 
0.0 0.0 0.0 
4.298225066512e-04 -1.309565130659e-05 0.0 
-1.309565130659e-05 -8.217964813484e-05 0.0 
0.0 0.0 0.0 
1.504735673012e-04 -4.839669777756e-04 0.0 
-4.839669777756e-04 3.599097762913e-03 0.0 
0.0 0.0 0.0 
1.135116578951e-03 7.008864291093e-05 0.0 
7.008864291093e-05 4.463517483561e-03 0.0 
0.0 0.0 0.0 
-4.957800187400e-04 3.512608279288e-04 0.0 
3.512608279288e-04 1.294617967085e-02 0.0 
0.0 0.0 0.0 
1.828256848857e-03 3.033040945384e-04 0.0 
3.033040945384e-04 2.916401608581e-03 0.0 
0.0 0.0 0.0 
1.834890327050e-03 3.847340822256e-04 0.0 
3.847340822256e-04 3.140078275607e-03 0.0 
0.0 0.0 0.0 
-1.545585883908e-03 7.582002926552e-04 0.0 
7.582002926552e-04 1.056862608404e-02 0.0 
0.0 0.0 0.0 
-1.201286163140e-03 1.587599344215e-04 0.0 
1.587599344215e-04 1.058820922568e-02 0.0 
0.0 0.0 0.0 
-2.680013924417e-04 1.325906177853e-03 0.0 
1.325906177853e-03 1.315799968635e-02 0.0 
0.0 0.0 0.0 
-2.749755922973e-04 2.531353803114e-03 0.0 
2.531353803114e-03 7.664657449883e-03 0.0 
0.0 0.0 0.0 
6.955681172320e-04 -3.287418320862e-05 0.0 
-3.287418320862e-05 -1.712238676184e-04 0.0 
0.0 0.0 0.0 
-2.837229210353e-04 -7.852810588436e-04 0.0 
-7.852810588436e-04 1.274826150111e-03 0.0 
0.0 0.0 0.0 
-8.452465535999e-04 -9.577858565251e-04 0.0 
-9.577858565251e-04 6.314846950268e-04 0.0 
0.0 0.0 0.0 
-1.250568049038e-05 -1.340623290510e-03 0.0 
-1.340623290510e-03 1.698634417017e-03 0.0 
0.0 0.0 0.0 
-3.786962393125e-04 2.327143031946e-03 0.0 
2.327143031946e-03 1.015090760172e-02 0.0 
0.0 0.0 0.0 
-5.677462929390e-04 3.117132704135e-04 0.0 
3.117132704135e-04 1.295117110543e-02 0.0 
0.0 0.0 0.0 
6.234835157506e-04 3.748822658313e-05 0.0 
3.748822658313e-05 5.446686413510e-03 0.0 
0.0 0.0 0.0 
8.774900427166e-06 -9.612616103449e-04 0.0 
-9.612616103449e-04 2.227820342437e-03 0.0 
0.0 0.0 0.0 
3.130458759995e-04 -3.521325845418e-04 0.0 
-3.521325845418e-04 4.564294154443e-03 0.0 
0.0 0.0 0.0 
9.658795458705e-04 5.959546867066e-04 0.0 
5.959546867066e-04 5.543643038480e-03 0.0 
0.0 0.0 0.0 
2.579937986001e-03 3.864581032469e-04 0.0 
3.864581032469e-04 -3.593234484378e-03 0.0 
0.0 0.0 0.0 
-6.953505516938e-05 -1.599673515174e-04 0.0 
-1.599673515174e-04 3.224760056758e-03 0.0 
0.0 0.0 0.0 
-7.619749709942e-05 -9.588541646593e-05 0.0 
-9.588541646593e-05 2.683331519316e-03 0.0 
0.0 0.0 0.0 
2.365980476562e-04 6.545568502160e-04 0.0 
6.545568502160e-04 7.341659762285e-03 0.0 
0.0 0.0 0.0 
0.0 7.174782278912e-04 0.0 
7.174782278912e-04 7.351716856376e-03 0.0 
0.0 0.0 0.0 
-5.426324394098e-05 -1.536852307476e-04 0.0 
-1.536852307476e-04 3.562940616837e-03 0.0 
0.0 0.0 0.0 
1.664786900903e-04 -5.250512870996e-04 0.0 
-5.250512870996e-04 3.700823767252e-03 0.0 
0.0 0.0 0.0 
1.180415319038e-03 -4.646682905130e-04 0.0 
-4.646682905130e-04 3.316281009642e-03 0.0 
0.0 0.0 0.0 
9.220115736819e-04 8.038433238708e-04 0.0 
8.038433238708e-04 5.877722613899e-03 0.0 
0.0 0.0 0.0 
-3.914609431446e-04 -7.972894988814e-04 0.0 
-7.972894988814e-04 1.438853523244e-03 0.0 
0.0 0.0 0.0 
9.989578431975e-04 3.994720118463e-04 0.0 
3.994720118463e-04 5.250000226345e-03 0.0 
0.0 0.0 0.0 
3.099491894092e-04 -1.178268679465e-04 0.0 
-1.178268679465e-04 6.212470277307e-04 0.0 
0.0 0.0 0.0 
1.168298666308e-04 -5.930580307752e-04 0.0 
-5.930580307752e-04 3.352939939337e-03 0.0 
0.0 0.0 0.0 
3.517267593158e-04 -6.693918415199e-04 0.0 
-6.693918415199e-04 3.494913789993e-03 0.0 
0.0 0.0 0.0 
3.579915067287e-04 -4.140797436544e-05 0.0 
-4.140797436544e-05 2.387504505492e-04 0.0 
0.0 0.0 0.0 
-6.280843167905e-05 -9.935678332603e-05 0.0 
-9.935678332603e-05 3.407048689690e-03 0.0 
0.0 0.0 0.0 
-6.720385602839e-04 1.274787734510e-03 0.0 
1.274787734510e-03 1.269568431335e-02 0.0 
0.0 0.0 0.0 
6.768278332816e-04 -1.922398316641e-05 0.0 
-1.922398316641e-05 -1.642254613858e-04 0.0 
0.0 0.0 0.0 
-1.262465568330e-03 2.287516733359e-04 0.0 
2.287516733359e-04 1.058331140927e-02 0.0 
0.0 0.0 0.0 
-1.234340040299e-03 2.932875599226e-04 0.0 
2.932875599226e-04 1.050842017411e-02 0.0 
0.0 0.0 0.0 
1.641581915957e-03 7.421151366643e-04 0.0 
7.421151366643e-04 3.961532656385e-03 0.0 
0.0 0.0 0.0 
-7.032338439594e-05 -6.243269893522e-05 0.0 
-6.243269893522e-05 2.684562949833e-03 0.0 
0.0 0.0 0.0 
1.017690279943e-03 -1.669019455013e-03 0.0 
-1.669019455013e-03 8.781832290479e-04 0.0 
0.0 0.0 0.0 
1.831245963535e-04 3.186681455993e-03 0.0 
3.186681455993e-03 1.446136035607e-03 0.0 
0.0 0.0 0.0 
3.770339834892e-04 1.152465754976e-04 0.0 
1.152465754976e-04 6.232511820618e-03 0.0 
0.0 0.0 0.0 
-5.012750868172e-06 2.551905546883e-03 0.0 
2.551905546883e-03 1.006353782254e-02 0.0 
0.0 0.0 0.0 
-7.581087075996e-04 4.656404456423e-04 0.0 
4.656404456423e-04 1.272249017549e-02 0.0 
0.0 0.0 0.0 
-3.068641824091e-04 2.941165882289e-03 0.0 
2.941165882289e-03 4.200446163338e-03 0.0 
0.0 0.0 0.0 
-5.192631154565e-04 -6.250500583089e-04 0.0 
-6.250500583089e-04 9.488010518666e-04 0.0 
0.0 0.0 0.0 
-1.428821093857e-03 1.862601072079e-03 0.0 
1.862601072079e-03 9.352566790252e-03 0.0 
0.0 0.0 0.0 
-1.029400664963e-03 5.725745331471e-05 0.0 
5.725745331471e-05 1.058456934909e-02 0.0 
0.0 0.0 0.0 
-9.819364806011e-04 4.388742367911e-05 0.0 
4.388742367911e-05 1.055235310253e-02 0.0 
0.0 0.0 0.0 
4.650492382630e-04 -2.002170456706e-05 0.0 
-2.002170456706e-05 -9.257896946779e-05 0.0 
0.0 0.0 0.0 
3.101172581079e-04 -5.555478590043e-05 0.0 
-5.555478590043e-05 2.592143989681e-04 0.0 
0.0 0.0 0.0 
2.541815966706e-04 -5.908085859619e-05 0.0 
-5.908085859619e-05 6.416320578047e-04 0.0 
0.0 0.0 0.0 
-2.045270904860e-04 -8.064038703356e-04 0.0 
-8.064038703356e-04 1.902700105054e-03 0.0 
0.0 0.0 0.0 
5.288604200850e-04 -3.687847671458e-05 0.0 
-3.687847671458e-05 1.765438114345e-04 0.0 
0.0 0.0 0.0 
-4.715309797720e-05 -9.272893565124e-05 0.0 
-9.272893565124e-05 3.768314823758e-03 0.0 
0.0 0.0 0.0 
-1.295615521109e-03 -1.093405506659e-03 0.0 
-1.093405506659e-03 -1.869059929469e-03 0.0 
0.0 0.0 0.0 
-8.545320370312e-05 -8.543729824291e-04 0.0 
-8.543729824291e-04 2.189796466042e-03 0.0 
0.0 0.0 0.0 
-7.189431288819e-04 9.283761898835e-05 0.0 
9.283761898835e-05 1.189212318420e-02 0.0 
0.0 0.0 0.0 
-1.114575159746e-03 1.461969502379e-04 0.0 
1.461969502379e-04 1.054269053562e-02 0.0 
0.0 0.0 0.0 
-4.546650050926e-04 2.299139578079e-03 0.0 
2.299139578079e-03 1.067188298454e-02 0.0 
0.0 0.0 0.0 
1.060266755053e-03 -1.052464169922e-04 0.0 
-1.052464169922e-04 4.286240694176e-03 0.0 
0.0 0.0 0.0 
-7.633569210884e-04 6.413390495056e-05 0.0 
6.413390495056e-05 1.154472326366e-02 0.0 
0.0 0.0 0.0 
-7.977268718706e-05 -1.622570741677e-05 0.0 
-1.622570741677e-05 2.865563513603e-03 0.0 
0.0 0.0 0.0 
3.903659902178e-04 -6.970639730417e-05 0.0 
-6.970639730417e-05 5.844427518784e-04 0.0 
0.0 0.0 0.0 
0.0 6.808305984227e-04 0.0 
6.808305984227e-04 1.373599465247e-02 0.0 
0.0 0.0 0.0 
-1.976962462069e-04 7.604819390932e-04 0.0 
7.604819390932e-04 1.371094995482e-02 0.0 
0.0 0.0 0.0 
-1.042570736401e-03 2.921730407791e-04 0.0 
2.921730407791e-04 1.138930846898e-02 0.0 
0.0 0.0 0.0 
-1.092100164107e-03 7.718161154691e-05 0.0 
7.718161154691e-05 1.058472359959e-02 0.0 
0.0 0.0 0.0 
-7.323911199530e-05 -1.429326657912e-04 0.0 
-1.429326657912e-04 2.890683873511e-03 0.0 
0.0 0.0 0.0 
-1.650517966431e-04 5.283600097953e-04 0.0 
5.283600097953e-04 1.378718795654e-02 0.0 
0.0 0.0 0.0 
-9.317930877550e-05 -9.378637421338e-04 0.0 
-9.378637421338e-04 1.964705027081e-03 0.0 
0.0 0.0 0.0 
-1.170154640682e-03 2.055935793126e-04 0.0 
2.055935793126e-04 1.052461789390e-02 0.0 
0.0 0.0 0.0 
-1.135255342569e-03 1.164691552794e-04 0.0 
1.164691552794e-04 1.058532830256e-02 0.0 
0.0 0.0 0.0 
-1.452558211421e-03 1.239584595495e-03 0.0 
1.239584595495e-03 9.664404244825e-03 0.0 
0.0 0.0 0.0 
0.0 1.497742836809e-03 0.0 
1.497742836809e-03 1.326212934056e-02 0.0 
0.0 0.0 0.0 
-1.862954637024e-04 6.449141129296e-04 0.0 
6.449141129296e-04 1.375647845814e-02 0.0 
0.0 0.0 0.0 
5.063218878694e-04 -4.657884678930e-05 0.0 
-4.657884678930e-05 1.829718537094e-04 0.0 
0.0 0.0 0.0 
5.062940625244e-04 -1.683127168468e-05 0.0 
-1.683127168468e-05 -1.046249563065e-04 0.0 
0.0 0.0 0.0 
-4.266093349818e-04 -5.907609404290e-04 0.0 
-5.907609404290e-04 1.115454299800e-03 0.0 
0.0 0.0 0.0 
4.987092457562e-04 -6.471399657220e-04 0.0 
-6.471399657220e-04 3.490790121776e-03 0.0 
0.0 0.0 0.0 
1.784939417249e-05 2.722868657882e-05 0.0 
2.722868657882e-05 6.924197184125e-03 0.0 
0.0 0.0 0.0 
-3.226167668614e-03 -1.956037562297e-03 0.0 
-1.956037562297e-03 -2.181149390355e-03 0.0 
0.0 0.0 0.0 
-5.538730898730e-04 2.113760724922e-05 0.0 
2.113760724922e-05 1.266948993290e-02 0.0 
0.0 0.0 0.0 
-1.534737237289e-03 -8.537936244761e-04 0.0 
-8.537936244761e-04 7.075586847940e-04 0.0 
0.0 0.0 0.0 
1.677784395473e-03 5.237424151284e-04 0.0 
5.237424151284e-04 3.752892021140e-03 0.0 
0.0 0.0 0.0 
-6.556734198123e-04 -5.768366892725e-04 0.0 
-5.768366892725e-04 9.548623458633e-05 0.0 
0.0 0.0 0.0 
-1.704785963879e-03 -2.072211656628e-03 0.0 
-2.072211656628e-03 -7.158835222494e-04 0.0 
0.0 0.0 0.0 
1.676344010585e-03 2.509823074986e-04 0.0 
2.509823074986e-04 3.445823916590e-03 0.0 
0.0 0.0 0.0 
9.038052343469e-05 1.285610228405e-05 0.0 
1.285610228405e-05 6.632544355216e-03 0.0 
0.0 0.0 0.0 
-7.657376569735e-04 5.548792526424e-05 0.0 
5.548792526424e-05 1.186348003455e-02 0.0 
0.0 0.0 0.0 
-1.191658564114e-03 2.141269262645e-03 0.0 
2.141269262645e-03 8.991539004808e-03 0.0 
0.0 0.0 0.0 
3.906943227456e-04 -3.381680925745e-05 0.0 
-3.381680925745e-05 2.244733705612e-04 0.0 
0.0 0.0 0.0 
2.320911741709e-04 -2.789782652918e-04 0.0 
-2.789782652918e-04 4.843482471990e-03 0.0 
0.0 0.0 0.0 
0.0 2.066989469871e-04 0.0 
2.066989469871e-04 1.382597429661e-02 0.0 
0.0 0.0 0.0 
-1.447307855909e-04 2.267268869023e-04 0.0 
2.267268869023e-04 1.383510511866e-02 0.0 
0.0 0.0 0.0 
-1.062183715125e-03 1.027784884537e-04 0.0 
1.027784884537e-04 1.054517519668e-02 0.0 
0.0 0.0 0.0 
1.630302393111e-03 7.889869304569e-04 0.0 
7.889869304569e-04 4.122916408847e-03 0.0 
0.0 0.0 0.0 
0.0 5.698516872001e-04 0.0 
5.698516872001e-04 1.377833807905e-02 0.0 
0.0 0.0 0.0 
6.808845605777e-04 2.214757484360e-03 0.0 
2.214757484360e-03 7.065201280627e-03 0.0 
0.0 0.0 0.0 
4.012297664291e-04 -3.241265309040e-05 0.0 
-3.241265309040e-05 5.605387016492e-04 0.0 
0.0 0.0 0.0 
5.521297556081e-04 -2.975370207457e-05 0.0 
-2.975370207457e-05 1.661303411609e-04 0.0 
0.0 0.0 0.0 
4.073832273728e-04 -1.397574837946e-05 0.0 
-1.397574837946e-05 2.235688737002e-04 0.0 
0.0 0.0 0.0 
-7.487690483943e-05 -1.546675445209e-05 0.0 
-1.546675445209e-05 3.231252784696e-03 0.0 
0.0 0.0 0.0 
1.417677644500e-05 -1.454602570645e-05 0.0 
-1.454602570645e-05 7.572151144234e-03 0.0 
0.0 0.0 0.0 
-2.425450127350e-04 -2.123028996065e-05 0.0 
-2.123028996065e-05 1.351225446175e-02 0.0 
0.0 0.0 0.0 
5.530644990013e-04 -8.352100629887e-06 0.0 
-8.352100629887e-06 -1.306421113352e-04 0.0 
0.0 0.0 0.0 
-4.937473773503e-05 -6.989700734726e-05 0.0 
-6.989700734726e-05 3.768281896421e-03 0.0 
0.0 0.0 0.0 
0.0 8.265692178990e-06 0.0 
8.265692178990e-06 7.610462651317e-03 0.0 
0.0 0.0 0.0 
2.595895729018e-05 1.937023974414e-05 0.0 
1.937023974414e-05 7.542089610572e-03 0.0 
0.0 0.0 0.0 
2.484840782659e-04 5.075012461585e-04 0.0 
5.075012461585e-04 7.330494478043e-03 0.0 
0.0 0.0 0.0 
-6.358829652020e-04 6.283701021899e-05 0.0 
6.283701021899e-05 1.231727171173e-02 0.0 
0.0 0.0 0.0 
-4.952687929578e-04 -2.438972540577e-05 0.0 
-2.438972540577e-05 1.284770899450e-02 0.0 
0.0 0.0 0.0 
0.0 1.641200903881e-05 0.0 
1.641200903881e-05 7.546767653699e-03 0.0 
0.0 0.0 0.0 
0.0 3.108983318204e-05 0.0 
3.108983318204e-05 7.537209975483e-03 0.0 
0.0 0.0 0.0 
-5.422479516608e-04 6.692097145863e-05 0.0 
6.692097145863e-05 1.267110116740e-02 0.0 
0.0 0.0 0.0 
7.518572200684e-04 1.824806325546e-05 0.0 
1.824806325546e-05 -2.191662360397e-04 0.0 
0.0 0.0 0.0 
-9.196700314499e-04 2.272448024237e-05 0.0 
2.272448024237e-05 1.053014645778e-02 0.0 
0.0 0.0 0.0 
-1.021958631374e-03 7.452963189377e-05 0.0 
7.452963189377e-05 1.056211007588e-02 0.0 
0.0 0.0 0.0 
5.290693499478e-04 -9.958830585710e-06 0.0 
-9.958830585710e-06 -1.139778541887e-04 0.0 
0.0 0.0 0.0 
0.0 1.699201168225e-04 0.0 
1.699201168225e-04 7.453113864127e-03 0.0 
0.0 0.0 0.0 
1.895845411113e-04 3.790298739572e-04 0.0 
3.790298739572e-04 7.333971051718e-03 0.0 
0.0 0.0 0.0 
0.0 3.309380492904e-04 0.0 
3.309380492904e-04 7.338428883683e-03 0.0 
0.0 0.0 0.0 
6.946029282004e-04 -4.300342047909e-06 0.0 
-4.300342047909e-06 -1.746920742474e-04 0.0 
0.0 0.0 0.0 
6.813925278391e-04 -1.265219228205e-05 0.0 
-1.265219228205e-05 -1.678293530687e-04 0.0 
0.0 0.0 0.0 
0.0 5.779099390333e-04 0.0 
5.779099390333e-04 7.332021548562e-03 0.0 
0.0 0.0 0.0 
0.0 4.401820480133e-04 0.0 
4.401820480133e-04 7.329089487253e-03 0.0 
0.0 0.0 0.0 
-6.798825162563e-04 -2.984710033869e-05 0.0 
-2.984710033869e-05 1.213079392285e-02 0.0 
0.0 0.0 0.0 
-8.643218307824e-04 1.141975056421e-05 0.0 
1.141975056421e-05 1.050622524877e-02 0.0 
0.0 0.0 0.0 
-5.919870800432e-04 -2.709874050474e-05 0.0 
-2.709874050474e-05 1.249504214698e-02 0.0 
0.0 0.0 0.0 
-7.894267217393e-04 -3.269454108680e-05 0.0 
-3.269454108680e-05 1.135903436385e-02 0.0 
0.0 0.0 0.0 
-8.391197587364e-04 3.074202680150e-06 0.0 
3.074202680150e-06 1.049649739128e-02 0.0 
0.0 0.0 0.0 
6.949617398153e-04 -2.824055072158e-05 0.0 
-2.824055072158e-05 -1.589360473646e-04 0.0 
0.0 0.0 0.0 
5.781192228522e-04 -3.808308328361e-05 0.0 
-3.808308328361e-05 -8.869654730825e-05 0.0 
0.0 0.0 0.0 
4.941415748072e-04 -5.274904445439e-05 0.0 
-5.274904445439e-05 -7.793303228176e-05 0.0 
0.0 0.0 0.0 
4.856080661038e-04 -6.168287068540e-05 0.0 
-6.168287068540e-05 -6.064906666570e-05 0.0 
0.0 0.0 0.0 
-4.025899474869e-05 -3.987148535653e-06 0.0 
-3.987148535653e-06 3.962044288598e-03 0.0 
0.0 0.0 0.0 
-5.805572913520e-05 -1.210150977870e-05 0.0 
-1.210150977870e-05 3.593114794291e-03 0.0 
0.0 0.0 0.0 
7.641429585581e-05 -3.669600702702e-05 0.0 
-3.669600702702e-05 7.693677065701e-05 0.0 
0.0 0.0 0.0 
2.174100903840e-05 9.061969518980e-06 0.0 
9.061969518980e-06 5.070694715721e-03 0.0 
0.0 0.0 0.0 
-3.173226218789e-05 -6.441669026063e-05 0.0 
-6.441669026063e-05 1.152536840507e-04 0.0 
0.0 0.0 0.0 
0.0 1.195149086809e-03 0.0 
1.195149086809e-03 1.348839218691e-02 0.0 
0.0 0.0 0.0 
0.0 4.734797234043e-04 0.0 
4.734797234043e-04 1.379576102397e-02 0.0 
0.0 0.0 0.0 
0.0 8.020147920235e-04 0.0 
8.020147920235e-04 1.368410307998e-02 0.0 
0.0 0.0 0.0 
1.609952691144e-04 -8.000320124664e-06 0.0 
-8.000320124664e-06 1.224587590967e-03 0.0 
0.0 0.0 0.0 
-6.153408793108e-05 -1.522414379897e-05 0.0 
-1.522414379897e-05 2.486368770793e-03 0.0 
0.0 0.0 0.0 
0.0 3.718178986218e-04 0.0 
3.718178986218e-04 1.379966667076e-02 0.0 
0.0 0.0 0.0 
2.913914704994e-05 1.863599106291e-05 0.0 
1.863599106291e-05 6.300082511441e-03 0.0 
0.0 0.0 0.0 
0.0 2.905490615605e-04 0.0 
2.905490615605e-04 1.385085936833e-02 0.0 
0.0 0.0 0.0 
1.631928659607e-05 2.451976100429e-05 0.0 
2.451976100429e-05 6.728873760880e-03 0.0 
0.0 0.0 0.0 
3.836868170737e-06 3.265225631488e-05 0.0 
3.265225631488e-05 7.162785477528e-03 0.0 
0.0 0.0 0.0 
-6.649718240215e-05 -7.345888878163e-05 0.0 
-7.345888878163e-05 3.407039049743e-03 0.0 
0.0 0.0 0.0 
-1.791476707550e-04 4.220782623589e-04 0.0 
4.220782623589e-04 1.379780186974e-02 0.0 
0.0 0.0 0.0 
-1.431636790298e-04 3.635899937842e-04 0.0 
3.635899937842e-04 1.381905129073e-02 0.0 
0.0 0.0 0.0 
2.214787464028e-05 -3.461829531758e-05 0.0 
-3.461829531758e-05 6.484938231672e-03 0.0 
0.0 0.0 0.0 
9.941642753919e-06 -3.101089169901e-05 0.0 
-3.101089169901e-05 6.927500093735e-03 0.0 
0.0 0.0 0.0 
1.115421226543e-04 -1.552561007730e-04 0.0 
-1.552561007730e-04 5.354503458405e-03 0.0 
0.0 0.0 0.0 
-9.834392330963e-04 -2.993147354223e-04 0.0 
-2.993147354223e-04 5.257129461089e-04 0.0 
0.0 0.0 0.0 
3.290665590749e-05 -5.193541075161e-04 0.0 
-5.193541075161e-04 3.255274610811e-03 0.0 
0.0 0.0 0.0 
4.671856917884e-04 -6.493550717838e-05 0.0 
-6.493550717838e-05 2.037593121011e-04 0.0 
0.0 0.0 0.0 
3.038686513313e-04 5.135045098278e-05 0.0 
5.135045098278e-05 6.239164116144e-03 0.0 
0.0 0.0 0.0 
2.017974572563e-04 -6.042796620351e-04 0.0 
-6.042796620351e-04 3.354152084944e-03 0.0 
0.0 0.0 0.0 
1.956948314095e-04 -4.821061433479e-05 0.0 
-4.821061433479e-05 5.948333690113e-03 0.0 
0.0 0.0 0.0 
-1.672806589043e-04 -8.479800686840e-04 0.0 
-8.479800686840e-04 1.702503379023e-03 0.0 
0.0 0.0 0.0 
4.477907867817e-05 -1.888827186199e-04 0.0 
-1.888827186199e-04 7.080277459388e-04 0.0 
0.0 0.0 0.0 
1.088755956122e-04 -5.033369879679e-05 0.0 
-5.033369879679e-05 6.393020434414e-03 0.0 
0.0 0.0 0.0 
8.110937078487e-05 -4.736625557755e-04 0.0 
-4.736625557755e-04 3.597890299644e-03 0.0 
0.0 0.0 0.0 
-8.129632524301e-05 -1.005524612095e-04 0.0 
-1.005524612095e-04 3.047802106574e-03 0.0 
0.0 0.0 0.0 
1.380634218571e-04 -9.473431649971e-05 0.0 
-9.473431649971e-05 5.956082131752e-03 0.0 
0.0 0.0 0.0 
-3.719302339829e-04 1.869656142705e-04 0.0 
1.869656142705e-04 1.314979390881e-02 0.0 
0.0 0.0 0.0 
-7.734203310972e-05 -7.040564428278e-05 0.0 
-7.040564428278e-05 3.048372153970e-03 0.0 
0.0 0.0 0.0 
1.017446205405e-03 1.308064488526e-04 0.0 
1.308064488526e-04 4.701875145378e-03 0.0 
0.0 0.0 0.0 
6.761102566997e-04 -3.218966164812e-04 0.0 
-3.218966164812e-04 4.365965438177e-03 0.0 
0.0 0.0 0.0 
1.734879422570e-04 -1.245368185642e-04 0.0 
-1.245368185642e-04 5.349399601430e-03 0.0 
0.0 0.0 0.0 
1.154461659272e-04 -7.788783316847e-05 0.0 
-7.788783316847e-05 5.586023593213e-03 0.0 
0.0 0.0 0.0 
2.366429817873e-03 1.476003192565e-03 0.0 
1.476003192565e-03 3.165180712410e-04 0.0 
0.0 0.0 0.0 
-1.314730467324e-03 2.102269761600e-03 0.0 
2.102269761600e-03 8.842942408332e-03 0.0 
0.0 0.0 0.0 
8.678448248745e-04 2.541260112662e-03 0.0 
2.541260112662e-03 4.862057578433e-03 0.0 
0.0 0.0 0.0 
3.320121155408e-04 -2.446740841376e-04 0.0 
-2.446740841376e-04 4.837602725274e-03 0.0 
0.0 0.0 0.0 
8.696302959099e-05 -7.163962122778e-05 0.0 
-7.163962122778e-05 6.204706624937e-03 0.0 
0.0 0.0 0.0 
7.191916792304e-05 -3.666763743843e-05 0.0 
-3.666763743843e-05 5.812255028586e-03 0.0 
0.0 0.0 0.0 
-1.868646833365e-04 -1.401746528647e-03 0.0 
-1.401746528647e-03 1.525419020833e-03 0.0 
0.0 0.0 0.0 
-4.084688503683e-04 3.146824853183e-04 0.0 
3.146824853183e-04 1.312728999997e-02 0.0 
0.0 0.0 0.0 
-5.336528176170e-04 2.709707702097e-04 0.0 
2.709707702097e-04 1.279560516881e-02 0.0 
0.0 0.0 0.0 
-8.580556669275e-04 9.587192155688e-05 0.0 
9.587192155688e-05 1.108230111446e-02 0.0 
0.0 0.0 0.0 
4.191118559458e-04 -2.077154136410e-04 0.0 
-2.077154136410e-04 4.975692330563e-03 0.0 
0.0 0.0 0.0 
2.452486257782e-04 -1.811521610764e-04 0.0 
-1.811521610764e-04 5.101227554569e-03 0.0 
0.0 0.0 0.0 
-4.241773237521e-04 1.477308729722e-04 0.0 
1.477308729722e-04 1.316189044989e-02 0.0 
0.0 0.0 0.0 
-4.667613579364e-04 2.363503653234e-04 0.0 
2.363503653234e-04 1.297887198064e-02 0.0 
0.0 0.0 0.0 
6.486319667307e-04 -4.508120780531e-04 0.0 
-4.508120780531e-04 4.047349690448e-03 0.0 
0.0 0.0 0.0 
6.533525060837e-05 -4.178830645455e-05 0.0 
-4.178830645455e-05 6.637507828934e-03 0.0 
0.0 0.0 0.0 
-6.548847030712e-04 4.955375994042e-04 0.0 
4.955375994042e-04 1.271861058632e-02 0.0 
0.0 0.0 0.0 
4.434394610331e-05 -6.548542927934e-05 0.0 
-6.548542927934e-05 5.812227918532e-03 0.0 
0.0 0.0 0.0 
2.115998739398e-04 3.175440153427e-05 0.0 
3.175440153427e-05 6.547435812797e-03 0.0 
0.0 0.0 0.0 
-4.674269675826e-04 2.757539519718e-04 0.0 
2.757539519718e-04 1.313414119292e-02 0.0 
0.0 0.0 0.0 
-7.747502335558e-04 1.963577657980e-04 0.0 
1.963577657980e-04 1.226042887128e-02 0.0 
0.0 0.0 0.0 
9.634849707303e-04 -5.174574669662e-05 0.0 
-5.174574669662e-05 4.482930758545e-03 0.0 
0.0 0.0 0.0 
-7.642142211683e-05 -3.050841888677e-04 0.0 
-3.050841888677e-04 1.901749670543e-03 0.0 
0.0 0.0 0.0 
-2.377999221548e-04 -1.657335519234e-03 0.0 
-1.657335519234e-03 1.245119300465e-03 0.0 
0.0 0.0 0.0 
-2.010642218873e-04 -4.854875131249e-04 0.0 
-4.854875131249e-04 9.283200879608e-04 0.0 
0.0 0.0 0.0 
-9.887796573622e-04 -1.361427625928e-03 0.0 
-1.361427625928e-03 2.031611937108e-04 0.0 
0.0 0.0 0.0 
-5.040568965130e-04 1.939616072226e-04 0.0 
1.939616072226e-04 1.298308351598e-02 0.0 
0.0 0.0 0.0 
7.632832411808e-05 -2.897709954138e-06 0.0 
-2.897709954138e-06 6.427366535254e-03 0.0 
0.0 0.0 0.0 
-5.509331495834e-04 -8.135986367636e-04 0.0 
-8.135986367636e-04 3.584812653918e-04 0.0 
0.0 0.0 0.0 
-8.448892042654e-04 1.773697944196e-03 0.0 
1.773697944196e-03 1.200728421740e-02 0.0 
0.0 0.0 0.0 
-8.619479022955e-04 1.257056397231e-04 0.0 
1.257056397231e-04 1.127929771642e-02 0.0 
0.0 0.0 0.0 
2.039301928953e-04 -1.276831071679e-04 0.0 
-1.276831071679e-04 5.698136046765e-03 0.0 
0.0 0.0 0.0 
1.002959503154e-04 -3.587831621458e-05 0.0 
-3.587831621458e-05 5.999257096691e-03 0.0 
0.0 0.0 0.0 
8.068920326201e-04 -1.524045093279e-03 0.0 
-1.524045093279e-03 1.384080896340e-03 0.0 
0.0 0.0 0.0 
6.371135644812e-05 -7.728061677677e-05 0.0 
-7.728061677677e-05 6.005399695744e-03 0.0 
0.0 0.0 0.0 
-8.992875391683e-04 2.809288737330e-05 0.0 
2.809288737330e-05 1.108080132673e-02 0.0 
0.0 0.0 0.0 
1.451301901763e-03 1.442721576142e-03 0.0 
1.442721576142e-03 4.945802107443e-03 0.0 
0.0 0.0 0.0 
1.649908754877e-04 9.529383691749e-05 0.0 
9.529383691749e-05 6.826973331197e-03 0.0 
0.0 0.0 0.0 
-1.435480115619e-05 -1.556975675765e-04 0.0 
-1.556975675765e-04 1.835967386779e-03 0.0 
0.0 0.0 0.0 
3.154573354274e-04 1.326384947442e-04 0.0 
1.326384947442e-04 6.469035423632e-03 0.0 
0.0 0.0 0.0 
-6.964740803378e-04 1.815411908544e-04 0.0 
1.815411908544e-04 1.245411464484e-02 0.0 
0.0 0.0 0.0 
-6.471278153097e-05 -2.374613620101e-04 0.0 
-2.374613620101e-04 2.075373433094e-03 0.0 
0.0 0.0 0.0 
2.181401576040e-06 -1.577336300643e-03 0.0 
-1.577336300643e-03 1.367650236908e-03 0.0 
0.0 0.0 0.0 
3.982892972010e-05 -1.796104956421e-04 0.0 
-1.796104956421e-04 4.255007746942e-03 0.0 
0.0 0.0 0.0 
-8.397659614472e-04 2.464769379071e-04 0.0 
2.464769379071e-04 1.186085819930e-02 0.0 
0.0 0.0 0.0 
3.123223824963e-05 -7.085796592637e-04 0.0 
-7.085796592637e-04 2.706317062333e-03 0.0 
0.0 0.0 0.0 
-6.183949146088e-04 1.578716543848e-04 0.0 
1.578716543848e-04 1.264608620829e-02 0.0 
0.0 0.0 0.0 
-7.737683745402e-04 1.296371241322e-04 0.0 
1.296371241322e-04 1.208160936449e-02 0.0 
0.0 0.0 0.0 
1.982615845306e-04 -4.155677004973e-04 0.0 
-4.155677004973e-04 3.954948160086e-03 0.0 
0.0 0.0 0.0 
6.969172479199e-05 -1.062744257630e-04 0.0 
-1.062744257630e-04 5.588103376465e-03 0.0 
0.0 0.0 0.0 
1.038660272230e-04 -1.106445160054e-04 0.0 
-1.106445160054e-04 5.773125331976e-03 0.0 
0.0 0.0 0.0 
-6.361889694760e-04 2.259402355111e-04 0.0 
2.259402355111e-04 1.244749927155e-02 0.0 
0.0 0.0 0.0 
-2.999778012847e-05 -3.732002507072e-04 0.0 
-3.732002507072e-04 1.558601797293e-03 0.0 
0.0 0.0 0.0 
1.054444838087e-04 -3.753954990865e-04 0.0 
-3.753954990865e-04 3.832410029478e-03 0.0 
0.0 0.0 0.0 
8.934215934830e-04 2.028305379888e-03 0.0 
2.028305379888e-03 6.744707417756e-03 0.0 
0.0 0.0 0.0 
-6.838864610835e-04 2.551891859223e-04 0.0 
2.551891859223e-04 1.261454559729e-02 0.0 
0.0 0.0 0.0 
5.918739959232e-05 -4.220726431906e-04 0.0 
-4.220726431906e-04 3.478074244163e-03 0.0 
0.0 0.0 0.0 
5.197117037137e-04 -3.819270202115e-04 0.0 
-3.819270202115e-04 4.376598961396e-03 0.0 
0.0 0.0 0.0 
4.255446264554e-04 1.596930117020e-04 0.0 
1.596930117020e-04 6.189195539663e-03 0.0 
0.0 0.0 0.0 
-7.046106513559e-04 2.392149421799e-04 0.0 
2.392149421799e-04 1.225519283355e-02 0.0 
0.0 0.0 0.0 
1.461662201247e-03 -7.185777571512e-04 0.0 
-7.185777571512e-04 -4.343064821470e-03 0.0 
0.0 0.0 0.0 
1.995168601554e-05 -2.951186680957e-04 0.0 
-2.951186680957e-04 8.365406467312e-04 0.0 
0.0 0.0 0.0 
2.772847951232e-03 3.873918531874e-04 0.0 
3.873918531874e-04 -2.955620887743e-03 0.0 
0.0 0.0 0.0 
1.275345791547e-04 -2.113638483445e-05 0.0 
-2.113638483445e-05 6.196849399877e-03 0.0 
0.0 0.0 0.0 
-7.745103450942e-04 2.463574734896e-04 0.0 
2.463574734896e-04 1.206025127969e-02 0.0 
0.0 0.0 0.0 
2.573729685285e-05 -1.507481580083e-04 0.0 
-1.507481580083e-04 4.623330805187e-03 0.0 
0.0 0.0 0.0 
-8.821920801181e-04 1.743006659860e-04 0.0 
1.743006659860e-04 1.147740605658e-02 0.0 
0.0 0.0 0.0 
8.562254094395e-04 4.718746210359e-04 0.0 
4.718746210359e-04 5.562193111236e-03 0.0 
0.0 0.0 0.0 
1.420021381793e-04 -3.151056992092e-04 0.0 
-3.151056992092e-04 4.193283915119e-03 0.0 
0.0 0.0 0.0 
1.567659979218e-04 -6.870510184799e-05 0.0 
-6.870510184799e-05 5.766391646213e-03 0.0 
0.0 0.0 0.0 
-9.463796904030e-06 -2.591482471006e-04 0.0 
-2.591482471006e-04 1.893876138997e-03 0.0 
0.0 0.0 0.0 
2.634205861265e-04 1.134372813657e-04 0.0 
1.134372813657e-04 6.550806604673e-03 0.0 
0.0 0.0 0.0 
1.154537803330e-04 -4.153319795532e-04 0.0 
-4.153319795532e-04 3.955424729201e-03 0.0 
0.0 0.0 0.0 
-1.859652309477e-05 -1.985305510446e-04 0.0 
-1.985305510446e-04 2.069041485794e-03 0.0 
0.0 0.0 0.0 
4.631284067891e-05 -3.661835230721e-04 0.0 
-3.661835230721e-04 3.831299464722e-03 0.0 
0.0 0.0 0.0 
1.886778543736e-05 -5.786247862203e-04 0.0 
-5.786247862203e-04 2.925673348685e-03 0.0 
0.0 0.0 0.0 
-6.665888591539e-05 -7.918207665051e-04 0.0 
-7.918207665051e-04 2.179911234024e-03 0.0 
0.0 0.0 0.0 
6.281934073238e-05 -1.442069959880e-04 0.0 
-1.442069959880e-04 4.621718846562e-03 0.0 
0.0 0.0 0.0 
3.639942197731e-04 1.200059914076e-05 0.0 
1.200059914076e-05 -4.087126540353e-05 0.0 
0.0 0.0 0.0 
2.559614678630e-04 -4.224710860970e-05 0.0 
-4.224710860970e-05 1.388116873557e-05 0.0 
0.0 0.0 0.0 
1.653367400833e-04 -2.136303100666e-04 0.0 
-2.136303100666e-04 5.106686849970e-03 0.0 
0.0 0.0 0.0 
-6.851035447619e-06 -3.135230524121e-04 0.0 
-3.135230524121e-04 1.726090096265e-03 0.0 
0.0 0.0 0.0 
3.078395990024e-04 -2.543736349683e-04 0.0 
-2.543736349683e-04 4.983515841168e-03 0.0 
0.0 0.0 0.0 
4.059660425741e-04 -3.155383779923e-04 0.0 
-3.155383779923e-04 4.688698214820e-03 0.0 
0.0 0.0 0.0 
3.276249787325e-04 -8.785136222493e-04 0.0 
-8.785136222493e-04 2.813403313251e-03 0.0 
0.0 0.0 0.0 
7.519262358526e-04 -1.932319174712e-03 0.0 
-1.932319174712e-03 6.101092868986e-04 0.0 
0.0 0.0 0.0 
-6.462395757358e-04 4.400062634487e-04 0.0 
4.400062634487e-04 1.290621933734e-02 0.0 
0.0 0.0 0.0 
1.059590660921e-03 2.515683015134e-03 0.0 
2.515683015134e-03 -2.510387088964e-03 0.0 
0.0 0.0 0.0 
4.977407736195e-06 -4.609980899770e-04 0.0 
-4.609980899770e-04 3.133593120201e-03 0.0 
0.0 0.0 0.0 
8.000852171623e-04 6.908596238531e-04 0.0 
6.908596238531e-04 5.867618505528e-03 0.0 
0.0 0.0 0.0 
-2.290773380020e-05 -2.455015658142e-04 0.0 
-2.455015658142e-04 1.497796988012e-03 0.0 
0.0 0.0 0.0 
-9.029252067831e-04 1.417644282825e-04 0.0 
1.417644282825e-04 1.168841368142e-02 0.0 
0.0 0.0 0.0 
-9.316876034833e-04 7.392120645428e-05 0.0 
7.392120645428e-05 1.128653442259e-02 0.0 
0.0 0.0 0.0 
-1.901244826134e-04 -6.914191254506e-04 0.0 
-6.914191254506e-04 1.419560708826e-03 0.0 
0.0 0.0 0.0 
5.611680337156e-04 2.041962455915e-04 0.0 
2.041962455915e-04 5.874171444403e-03 0.0 
0.0 0.0 0.0 
-8.657477046048e-04 3.786549295614e-04 0.0 
3.786549295614e-04 1.238808091775e-02 0.0 
0.0 0.0 0.0 
-1.050503144198e-04 -3.719025023462e-04 0.0 
-3.719025023462e-04 1.738817107498e-03 0.0 
0.0 0.0 0.0 
-6.216354737564e-04 5.501994608536e-04 0.0 
5.501994608536e-04 1.303363924938e-02 0.0 
0.0 0.0 0.0 
-5.161822722983e-04 5.788211182840e-04 0.0 
5.788211182840e-04 1.302853024427e-02 0.0 
0.0 0.0 0.0 
-6.430686980774e-05 -4.574316048386e-04 0.0 
-4.574316048386e-04 1.918358105059e-03 0.0 
0.0 0.0 0.0 
-4.778683093305e-04 2.883827993207e-03 0.0 
2.883827993207e-03 5.060765687501e-03 0.0 
0.0 0.0 0.0 
-1.206857212070e-04 -7.282585205062e-04 0.0 
-7.282585205062e-04 1.889996157964e-03 0.0 
0.0 0.0 0.0 
1.578733473750e-04 -1.503867038922e-04 0.0 
-1.503867038922e-04 5.525278224589e-03 0.0 
0.0 0.0 0.0 
9.657277151676e-05 -2.241797357480e-04 0.0 
-2.241797357480e-04 4.416040798285e-03 0.0 
0.0 0.0 0.0 
-7.059791909303e-04 1.507633281184e-03 0.0 
1.507633281184e-03 1.240154482321e-02 0.0 
0.0 0.0 0.0 
-5.560752405979e-04 4.699899556584e-04 0.0 
4.699899556584e-04 1.290238882220e-02 0.0 
0.0 0.0 0.0 
2.254076145725e-04 -1.991382047856e-04 0.0 
-1.991382047856e-04 5.262732150488e-03 0.0 
0.0 0.0 0.0 
3.153425626847e-04 -1.558506583380e-04 0.0 
-1.558506583380e-04 5.255578125206e-03 0.0 
0.0 0.0 0.0 
-2.856078191674e-04 -6.995761391805e-04 0.0 
-6.995761391805e-04 1.595936717344e-03 0.0 
0.0 0.0 0.0 
2.280330454656e-04 -1.096902034307e-04 0.0 
-1.096902034307e-04 5.518638128141e-03 0.0 
0.0 0.0 0.0 
-7.640769364292e-04 4.083857726700e-04 0.0 
4.083857726700e-04 1.238426269651e-02 0.0 
0.0 0.0 0.0 
4.660247672805e-05 -2.255805468280e-04 0.0 
-2.255805468280e-04 4.416557592021e-03 0.0 
0.0 0.0 0.0 
-8.507205541319e-04 2.060025545101e-04 0.0 
2.060025545101e-04 1.206520504607e-02 0.0 
0.0 0.0 0.0 
-7.679485761234e-04 3.635705414420e-04 0.0 
3.635705414420e-04 1.257844013946e-02 0.0 
0.0 0.0 0.0 
1.987404375463e-03 1.669121145167e-03 0.0 
1.669121145167e-03 2.424080067084e-03 0.0 
0.0 0.0 0.0 
-5.864600511983e-04 3.777540316208e-04 0.0 
3.777540316208e-04 1.276206479139e-02 0.0 
0.0 0.0 0.0 
2.915372385259e-05 -3.165607176986e-04 0.0 
-3.165607176986e-04 3.707584036811e-03 0.0 
0.0 0.0 0.0 
7.524254227764e-05 -3.152877937542e-04 0.0 
-3.152877937542e-04 4.193725128306e-03 0.0 
0.0 0.0 0.0 
-4.931125008822e-05 -4.731351475769e-04 0.0 
-4.731351475769e-04 2.802351280614e-03 0.0 
0.0 0.0 0.0 
3.267102957061e-04 -1.204069610646e-03 0.0 
-1.204069610646e-03 2.183187904695e-03 0.0 
0.0 0.0 0.0 
-7.704189323984e-04 3.202733658961e-04 0.0 
3.202733658961e-04 1.222704151445e-02 0.0 
0.0 0.0 0.0 
9.443421004560e-04 -7.789267306173e-04 0.0 
-7.789267306173e-04 2.881605112172e-03 0.0 
0.0 0.0 0.0 
-8.714796561970e-05 -6.171685549847e-04 0.0 
-6.171685549847e-04 2.075932713781e-03 0.0 
0.0 0.0 0.0 
-1.370509093722e-04 -4.707531395584e-04 0.0 
-4.707531395584e-04 1.099269224668e-03 0.0 
0.0 0.0 0.0 
-8.594371478439e-04 2.856144410002e-04 0.0 
2.856144410002e-04 1.223138962701e-02 0.0 
0.0 0.0 0.0 
-1.500284850116e-04 -6.823033459050e-04 0.0 
-6.823033459050e-04 2.086400876213e-03 0.0 
0.0 0.0 0.0 
3.780952984413e-04 2.140037980758e-04 0.0 
2.140037980758e-04 6.460725610858e-03 0.0 
0.0 0.0 0.0 
-6.917243654768e-04 3.118357754241e-04 0.0 
3.118357754241e-04 1.241966935698e-02 0.0 
0.0 0.0 0.0 
2.800932022153e-04 -7.626801942935e-05 0.0 
-7.626801942935e-05 5.689894730598e-03 0.0 
0.0 0.0 0.0 
3.421005518061e-04 1.261420984229e-03 0.0 
1.261420984229e-03 6.986491491454e-03 0.0 
0.0 0.0 0.0 
1.480661196562e-05 -4.060587600390e-04 0.0 
-4.060587600390e-04 3.475205029976e-03 0.0 
0.0 0.0 0.0 
-1.511868101082e-04 -5.147788633373e-04 0.0 
-5.147788633373e-04 1.927726556484e-03 0.0 
0.0 0.0 0.0 
-2.984767832204e-04 -5.370522081375e-04 0.0 
-5.370522081375e-04 1.247990124910e-03 0.0 
0.0 0.0 0.0 
3.828489350373e-04 -2.065060696820e-04 0.0 
-2.065060696820e-04 5.128512428342e-03 0.0 
0.0 0.0 0.0 
-7.788703907363e-04 1.876176709183e-04 0.0 
1.876176709183e-04 1.188749464379e-02 0.0 
0.0 0.0 0.0 
-1.829057257983e-04 -3.651464712860e-04 0.0 
-3.651464712860e-04 8.566611311180e-04 0.0 
0.0 0.0 0.0 
1.643413974017e-06 -6.683211857841e-04 0.0 
-6.683211857841e-04 2.700308556794e-03 0.0 
0.0 0.0 0.0 
5.499624175420e-05 -1.628573280315e-04 0.0 
-1.628573280315e-04 1.667994698193e-03 0.0 
0.0 0.0 0.0 
-9.221021853979e-04 2.099075459722e-04 0.0 
2.099075459722e-04 1.186536704515e-02 0.0 
0.0 0.0 0.0 
-7.189354866433e-06 -5.448895691740e-04 0.0 
-5.448895691740e-04 2.920663762442e-03 0.0 
0.0 0.0 0.0 
5.396057104838e-04 -2.640298482331e-04 0.0 
-2.640298482331e-04 4.679700470080e-03 0.0 
0.0 0.0 0.0 
-4.749287536476e-05 -4.331363138352e-04 0.0 
-4.331363138352e-04 2.798173032941e-03 0.0 
0.0 0.0 0.0 
-5.943281075108e-04 2.289545619766e-04 0.0 
2.289545619766e-04 1.280134320062e-02 0.0 
0.0 0.0 0.0 
-6.369031478537e-05 -7.151065046321e-04 0.0 
-7.151065046321e-04 2.397418987495e-03 0.0 
0.0 0.0 0.0 
5.787651111673e-04 -1.647296571827e-04 0.0 
-1.647296571827e-04 4.970472904408e-03 0.0 
0.0 0.0 0.0 
-2.437911590231e-04 -1.550379017614e-03 0.0 
-1.550379017614e-03 1.228402567109e-03 0.0 
0.0 0.0 0.0 
4.967566044201e-04 -2.531327177090e-04 0.0 
-2.531327177090e-04 4.820884093108e-03 0.0 
0.0 0.0 0.0 
2.066029408532e-05 -2.593015619005e-04 0.0 
-2.593015619005e-04 4.057733736596e-03 0.0 
0.0 0.0 0.0 
3.822633472303e-04 -1.100355944964e-04 0.0 
-1.100355944964e-04 5.412376612594e-03 0.0 
0.0 0.0 0.0 
2.563642196929e-03 -6.799944449816e-05 0.0 
-6.799944449816e-05 -5.504694225289e-04 0.0 
0.0 0.0 0.0 
-1.671718607599e-05 -2.007742406867e-04 0.0 
-2.007742406867e-04 1.678706995486e-03 0.0 
0.0 0.0 0.0 
-8.839905844932e-04 8.733948390333e-05 0.0 
8.733948390333e-05 1.150477551513e-02 0.0 
0.0 0.0 0.0 
1.528890665443e-03 3.230334646351e-04 0.0 
3.230334646351e-04 3.783549129381e-03 0.0 
0.0 0.0 0.0 
2.013605198048e-05 2.761411698042e-03 0.0 
2.761411698042e-03 5.818219903965e-03 0.0 
0.0 0.0 0.0 
-8.410903729740e-04 1.394554408289e-04 0.0 
1.394554408289e-04 1.188908614633e-02 0.0 
0.0 0.0 0.0 
1.643896715642e-05 -1.856343611883e-03 0.0 
-1.856343611883e-03 9.653548332620e-04 0.0 
0.0 0.0 0.0 
-9.312462031819e-04 4.119662725409e-04 0.0 
4.119662725409e-04 1.198954514876e-02 0.0 
0.0 0.0 0.0 
6.058795738473e-05 -2.108733662685e-04 0.0 
-2.108733662685e-04 1.481749992945e-03 0.0 
0.0 0.0 0.0 
4.169401178247e-04 5.130933331543e-05 0.0 
5.130933331543e-05 5.967586153717e-03 0.0 
0.0 0.0 0.0 
1.515991363132e-03 5.970718902184e-04 0.0 
5.970718902184e-04 4.152334794757e-03 0.0 
0.0 0.0 0.0 
1.263673947103e-03 1.662739855067e-03 0.0 
1.662739855067e-03 5.560467775887e-03 0.0 
0.0 0.0 0.0 
-4.964435376679e-04 5.132587654689e-04 0.0 
5.132587654689e-04 1.322146289136e-02 0.0 
0.0 0.0 0.0 
9.539738660427e-04 -5.789310793246e-04 0.0 
-5.789310793246e-04 3.334756208584e-03 0.0 
0.0 0.0 0.0 
-1.489413437894e-04 -4.307285430306e-04 0.0 
-4.307285430306e-04 1.572562020149e-03 0.0 
0.0 0.0 0.0 
7.711154567591e-04 -3.482905270116e-04 0.0 
-3.482905270116e-04 4.161444959420e-03 0.0 
0.0 0.0 0.0 
4.966396537076e-04 2.553436570487e-04 0.0 
2.553436570487e-04 6.173955982773e-03 0.0 
0.0 0.0 0.0 
6.714641383467e-04 -1.789690416962e-03 0.0 
-1.789690416962e-03 8.976350643091e-04 0.0 
0.0 0.0 0.0 
2.852439203818e-04 -1.642760137106e-04 0.0 
-1.642760137106e-04 5.421207521394e-03 0.0 
0.0 0.0 0.0 
-7.728240337149e-04 2.731339464734e-04 0.0 
2.731339464734e-04 1.242447031814e-02 0.0 
0.0 0.0 0.0 
1.034146699536e-03 -2.092884148897e-03 0.0 
-2.092884148897e-03 -6.390056692951e-05 0.0 
0.0 0.0 0.0 
6.261889746535e-04 -3.015965238980e-04 0.0 
-3.015965238980e-04 4.498835538854e-03 0.0 
0.0 0.0 0.0 
-1.042584971433e-03 2.000294579243e-04 0.0 
2.000294579243e-04 1.144970841272e-02 0.0 
0.0 0.0 0.0 
-4.980485310602e-05 -3.008830270339e-04 0.0 
-3.008830270339e-04 2.275177001200e-03 0.0 
0.0 0.0 0.0 
7.431940508340e-06 -8.068005789786e-04 0.0 
-8.068005789786e-04 2.470149884136e-03 0.0 
0.0 0.0 0.0 
3.013737208706e-04 2.573999774595e-03 0.0 
2.573999774595e-03 6.476849749768e-03 0.0 
0.0 0.0 0.0 
5.014640579122e-04 -1.479201753471e-04 0.0 
-1.479201753471e-04 5.118795159521e-03 0.0 
0.0 0.0 0.0 
-6.064238305087e-04 2.696738231355e-03 0.0 
2.696738231355e-03 6.918768871214e-03 0.0 
0.0 0.0 0.0 
5.803552910988e-04 2.577645663452e-03 0.0 
2.577645663452e-03 5.683870491817e-03 0.0 
0.0 0.0 0.0 
-8.497338201331e-04 4.125680193799e-04 0.0 
4.125680193799e-04 1.218933329794e-02 0.0 
0.0 0.0 0.0 
-8.323931507204e-04 1.861073844193e-04 0.0 
1.861073844193e-04 1.168303080045e-02 0.0 
0.0 0.0 0.0 
-9.813579306579e-04 3.045768833616e-04 0.0 
3.045768833616e-04 1.162686371931e-02 0.0 
0.0 0.0 0.0 
6.797439529849e-05 -2.759037376756e-04 0.0 
-2.759037376756e-04 4.060797528040e-03 0.0 
0.0 0.0 0.0 
7.113038529307e-04 2.365719532902e-04 0.0 
2.365719532902e-04 5.575182490296e-03 0.0 
0.0 0.0 0.0 
9.312359091163e-04 -3.891119859464e-04 0.0 
-3.891119859464e-04 3.809743259495e-03 0.0 
0.0 0.0 0.0 
-9.626761895104e-04 1.379557178575e-04 0.0 
1.379557178575e-04 1.148182551305e-02 0.0 
0.0 0.0 0.0 
-7.156112965604e-04 1.969253091103e-03 0.0 
1.969253091103e-03 1.189462577025e-02 0.0 
0.0 0.0 0.0 
1.055462766905e-03 1.849539940741e-03 0.0 
1.849539940741e-03 6.191910931513e-03 0.0 
0.0 0.0 0.0 
6.372102451826e-04 -1.871624345034e-04 0.0 
-1.871624345034e-04 4.809893334320e-03 0.0 
0.0 0.0 0.0 
-6.756052603982e-04 3.962995853954e-04 0.0 
3.962995853954e-04 1.257429647975e-02 0.0 
0.0 0.0 0.0 
2.633777718863e-04 -1.028674983031e-03 0.0 
-1.028674983031e-03 2.512320826500e-03 0.0 
0.0 0.0 0.0 
1.126889727521e-04 -9.345188806270e-04 0.0 
-9.345188806270e-04 2.508690546765e-03 0.0 
0.0 0.0 0.0 
-1.304695366257e-04 -6.128445039711e-04 0.0 
-6.128445039711e-04 1.581679354353e-03 0.0 
0.0 0.0 0.0 
8.788936354889e-04 -2.137427560672e-04 0.0 
-2.137427560672e-04 4.303722874370e-03 0.0 
0.0 0.0 0.0 
8.580515706047e-05 -7.813356763334e-04 0.0 
-7.813356763334e-04 2.772561158670e-03 0.0 
0.0 0.0 0.0 
-9.424568790229e-04 2.910066993794e-04 0.0 
2.910066993794e-04 1.203410061508e-02 0.0 
0.0 0.0 0.0 
-1.021147883578e-03 2.920291349691e-04 0.0 
2.920291349691e-04 1.183279132902e-02 0.0 
0.0 0.0 0.0 
2.079296250042e-03 1.023000056262e-03 0.0 
1.023000056262e-03 2.457367381744e-03 0.0 
0.0 0.0 0.0 
4.970533267801e-05 -1.010223035096e-03 0.0 
-1.010223035096e-03 2.234650026688e-03 0.0 
0.0 0.0 0.0 
2.407556815116e-03 1.593086314413e-03 0.0 
1.593086314413e-03 -4.367243907939e-04 0.0 
0.0 0.0 0.0 
4.113108643078e-05 -8.521650524064e-04 0.0 
-8.521650524064e-04 2.476976029476e-03 0.0 
0.0 0.0 0.0 
2.004149672312e-04 -9.629772253047e-04 0.0 
-9.629772253047e-04 2.512558183051e-03 0.0 
0.0 0.0 0.0 
-2.073504710488e-04 -6.074146254805e-04 0.0 
-6.074146254805e-04 1.763689527190e-03 0.0 
0.0 0.0 0.0 
8.717287946312e-04 2.801394253277e-04 0.0 
2.801394253277e-04 5.267996311127e-03 0.0 
0.0 0.0 0.0 
9.083950293880e-04 -9.931697748281e-04 0.0 
-9.931697748281e-04 2.453558521737e-03 0.0 
0.0 0.0 0.0 
-6.679499824445e-04 3.404387977732e-04 0.0 
3.404387977732e-04 1.276673216277e-02 0.0 
0.0 0.0 0.0 
1.161677033873e-03 -8.750330386591e-04 0.0 
-8.750330386591e-04 2.435768820457e-03 0.0 
0.0 0.0 0.0 
9.559114673410e-04 -2.561257139885e-04 0.0 
-2.561257139885e-04 4.146310185205e-03 0.0 
0.0 0.0 0.0 
1.004427249586e-03 -6.102670053671e-04 0.0 
-6.102670053671e-04 3.246930746167e-03 0.0 
0.0 0.0 0.0 
1.168827670454e-03 2.351398106205e-03 0.0 
2.351398106205e-03 4.469469603311e-03 0.0 
0.0 0.0 0.0 
-9.247162256876e-05 -5.327488845240e-04 0.0 
-5.327488845240e-04 1.750573902755e-03 0.0 
0.0 0.0 0.0 
6.506580945289e-04 2.887724185443e-04 0.0 
2.887724185443e-04 5.857782525184e-03 0.0 
0.0 0.0 0.0 
5.435032496255e-04 3.378695128583e-04 0.0 
3.378695128583e-04 6.176746625823e-03 0.0 
0.0 0.0 0.0 
1.287255710070e-05 2.422208304543e-03 0.0 
2.422208304543e-03 7.921159411435e-03 0.0 
0.0 0.0 0.0 
4.066351631726e-04 -1.032631047580e-03 0.0 
-1.032631047580e-03 2.512078357441e-03 0.0 
0.0 0.0 0.0 
9.971689054380e-04 -4.277053850771e-04 0.0 
-4.277053850771e-04 3.685044354509e-03 0.0 
0.0 0.0 0.0 
-8.454999209746e-04 3.223351206691e-04 0.0 
3.223351206691e-04 1.203014265737e-02 0.0 
0.0 0.0 0.0 
2.086274188855e-04 -8.694467570697e-04 0.0 
-8.694467570697e-04 2.812712497355e-03 0.0 
0.0 0.0 0.0 
4.229838610761e-04 2.781199735984e-03 0.0 
2.781199735984e-03 4.982204992154e-03 0.0 
0.0 0.0 0.0 
-5.293279818464e-05 -6.616962168250e-04 0.0 
-6.616962168250e-04 2.389109605439e-03 0.0 
0.0 0.0 0.0 
4.060491643931e-04 -2.011615801869e-03 0.0 
-2.011615801869e-03 6.243976279283e-04 0.0 
0.0 0.0 0.0 
4.536815783467e-04 -1.076399151304e-03 0.0 
-1.076399151304e-03 2.490419059644e-03 0.0 
0.0 0.0 0.0 
-1.137734406867e-04 -5.698248184872e-04 0.0 
-5.698248184872e-04 2.270769078672e-03 0.0 
0.0 0.0 0.0 
-5.132607514968e-05 -3.776528716531e-04 0.0 
-3.776528716531e-04 2.095315960646e-03 0.0 
0.0 0.0 0.0 
7.852221929545e-04 -6.970485323072e-04 0.0 
-6.970485323072e-04 3.261521020186e-03 0.0 
0.0 0.0 0.0 
7.891353011500e-04 -2.241743823412e-04 0.0 
-2.241743823412e-04 4.486009354992e-03 0.0 
0.0 0.0 0.0 
-7.410932337071e-05 2.405355031565e-03 0.0 
2.405355031565e-03 9.304575180404e-03 0.0 
0.0 0.0 0.0 
5.627310313505e-04 -3.555854496144e-05 0.0 
-3.555854496144e-05 -1.140529996386e-04 0.0 
0.0 0.0 0.0 
1.842262160950e-03 -6.248948453408e-04 0.0 
-6.248948453408e-04 1.554305979167e-03 0.0 
0.0 0.0 0.0 
1.371650658483e-03 -9.230638546399e-04 0.0 
-9.230638546399e-04 1.999808954396e-03 0.0 
0.0 0.0 0.0 
6.507911916569e-04 -1.045217181872e-03 0.0 
-1.045217181872e-03 2.484891168686e-03 0.0 
0.0 0.0 0.0 
-9.159152225798e-04 3.161193103614e-04 0.0 
3.161193103614e-04 1.182968320058e-02 0.0 
0.0 0.0 0.0 
9.754584713160e-04 -8.002787651155e-04 0.0 
-8.002787651155e-04 2.834889339209e-03 0.0 
0.0 0.0 0.0 
-5.201124051635e-05 -5.884677254916e-04 0.0 
-5.884677254916e-04 2.600780128454e-03 0.0 
0.0 0.0 0.0 
6.713215806986e-04 -1.062508807661e-03 0.0 
-1.062508807661e-03 2.465578248295e-03 0.0 
0.0 0.0 0.0 
-6.133382829596e-04 2.959141867829e-04 0.0 
2.959141867829e-04 1.260958471695e-02 0.0 
0.0 0.0 0.0 
-4.926659613524e-05 -5.447865142190e-04 0.0 
-5.447865142190e-04 2.593986132947e-03 0.0 
0.0 0.0 0.0 
-1.313982558565e-04 -3.456053992242e-04 0.0 
-3.456053992242e-04 1.009589634510e-03 0.0 
0.0 0.0 0.0 
-2.122835606171e-04 -4.878125101946e-04 0.0 
-4.878125101946e-04 1.412247450004e-03 0.0 
0.0 0.0 0.0 
5.561934986489e-04 -1.724976723466e-03 0.0 
-1.724976723466e-03 1.140934716612e-03 0.0 
0.0 0.0 0.0 
2.522807982308e-04 -1.133474477870e-03 0.0 
-1.133474477870e-03 2.229917613916e-03 0.0 
0.0 0.0 0.0 
1.611427061044e-03 -6.873403331109e-04 0.0 
-6.873403331109e-04 2.016631198588e-03 0.0 
0.0 0.0 0.0 
9.002953920163e-04 -9.849460514814e-04 0.0 
-9.849460514814e-04 2.455543343918e-03 0.0 
0.0 0.0 0.0 
-2.402639739942e-04 -1.787750226954e-03 0.0 
-1.787750226954e-03 8.707709498865e-04 0.0 
0.0 0.0 0.0 
-4.628192454725e-05 -4.091324677488e-04 0.0 
-4.091324677488e-04 1.399794186446e-03 0.0 
0.0 0.0 0.0 
-1.220470031648e-03 3.919869578547e-04 0.0 
3.919869578547e-04 1.156355472260e-02 0.0 
0.0 0.0 0.0 
-7.001368560200e-05 -5.166147993290e-04 0.0 
-5.166147993290e-04 2.262407614782e-03 0.0 
0.0 0.0 0.0 
9.946605444482e-04 2.171088159568e-04 0.0 
2.171088159568e-04 5.003576580355e-03 0.0 
0.0 0.0 0.0 
7.554394248532e-05 2.402744853727e-03 0.0 
2.402744853727e-03 8.665549553401e-03 0.0 
0.0 0.0 0.0 
-1.424076649060e-03 1.289700986312e-03 0.0 
1.289700986312e-03 1.106051944967e-02 0.0 
0.0 0.0 0.0 
-7.076351302567e-04 7.583112213437e-04 0.0 
7.583112213437e-04 1.276197800983e-02 0.0 
0.0 0.0 0.0 
-1.720058926516e-04 2.396325362323e-03 0.0 
2.396325362323e-03 9.897967903540e-03 0.0 
0.0 0.0 0.0 
2.043666309281e-03 1.343457969257e-03 0.0 
1.343457969257e-03 2.472536779567e-03 0.0 
0.0 0.0 0.0 
4.949910884067e-05 2.398537591609e-03 0.0 
2.398537591609e-03 8.285058452557e-03 0.0 
0.0 0.0 0.0 
9.274881770294e-05 -2.174624351871e-03 0.0 
-2.174624351871e-03 4.340347194032e-04 0.0 
0.0 0.0 0.0 
5.482932015879e-04 -9.269421452251e-04 0.0 
-9.269421452251e-04 2.836446167921e-03 0.0 
0.0 0.0 0.0 
1.580354016079e-03 2.289640643973e-03 0.0 
2.289640643973e-03 2.780144381451e-03 0.0 
0.0 0.0 0.0 
2.034617304837e-03 -1.629842509448e-03 0.0 
-1.629842509448e-03 -1.306274145878e-03 0.0 
0.0 0.0 0.0 
-2.236245712482e-04 -2.082232595183e-03 0.0 
-2.082232595183e-03 3.922864811405e-04 0.0 
0.0 0.0 0.0 
1.589595181162e-04 -8.091026747111e-04 0.0 
-8.091026747111e-04 2.776376832017e-03 0.0 
0.0 0.0 0.0 
1.080790491653e-03 -1.072817288945e-03 0.0 
-1.072817288945e-03 2.027788594759e-03 0.0 
0.0 0.0 0.0 
1.323131079495e-03 -8.828674211209e-04 0.0 
-8.828674211209e-04 2.049772025099e-03 0.0 
0.0 0.0 0.0 
-9.248823604946e-05 -4.667311820648e-04 0.0 
-4.667311820648e-04 2.456205150427e-03 0.0 
0.0 0.0 0.0 
1.190189622026e-03 -6.649731357390e-04 0.0 
-6.649731357390e-04 2.862745667005e-03 0.0 
0.0 0.0 0.0 
1.544756879896e-03 -8.773839983284e-04 0.0 
-8.773839983284e-04 1.600199097748e-03 0.0 
0.0 0.0 0.0 
2.008625831337e-03 -2.798974962762e-04 0.0 
-2.798974962762e-04 1.680370290769e-03 0.0 
0.0 0.0 0.0 
1.403346554212e-04 -1.105074895749e-03 0.0 
-1.105074895749e-03 2.226314306399e-03 0.0 
0.0 0.0 0.0 
1.552794068698e-03 1.016515062194e-03 0.0 
1.016515062194e-03 4.442047879553e-03 0.0 
0.0 0.0 0.0 
-9.600485085535e-04 3.894322948396e-04 0.0 
3.894322948396e-04 1.219237284636e-02 0.0 
0.0 0.0 0.0 
2.202200117635e-03 -8.363142454410e-05 0.0 
-8.363142454410e-05 1.267688026712e-03 0.0 
0.0 0.0 0.0 
8.248625591771e-04 3.447533763503e-04 0.0 
3.447533763503e-04 5.558146715003e-03 0.0 
0.0 0.0 0.0 
5.788126834960e-04 -2.279285250785e-03 0.0 
-2.279285250785e-03 -3.339159054494e-05 0.0 
0.0 0.0 0.0 
7.389602296590e-04 7.183715196599e-04 0.0 
7.183715196599e-04 6.172116925802e-03 0.0 
0.0 0.0 0.0 
1.391316145401e-03 -6.954271901903e-04 0.0 
-6.954271901903e-04 2.452562884991e-03 0.0 
0.0 0.0 0.0 
-2.095592315654e-04 2.438641601002e-03 0.0 
2.438641601002e-03 1.048279950390e-02 0.0 
0.0 0.0 0.0 
-8.451803298003e-04 2.167674711226e-03 0.0 
2.167674711226e-03 9.583906756640e-03 0.0 
0.0 0.0 0.0 
2.192018184601e-04 -1.898176487374e-03 0.0 
-1.898176487374e-03 9.705796030983e-04 0.0 
0.0 0.0 0.0 
-1.329864987362e-03 1.516999692590e-03 0.0 
1.516999692590e-03 1.095338468429e-02 0.0 
0.0 0.0 0.0 
-7.413624214303e-04 1.096620779226e-03 0.0 
1.096620779226e-03 1.268257055421e-02 0.0 
0.0 0.0 0.0 
1.583300175010e-03 -4.651221099172e-04 0.0 
-4.651221099172e-04 2.522312129399e-03 0.0 
0.0 0.0 0.0 
9.789197604222e-04 2.719731357700e-03 0.0 
2.719731357700e-03 3.156628675073e-03 0.0 
0.0 0.0 0.0 
-1.196416437368e-03 1.727508927278e-03 0.0 
1.727508927278e-03 1.079343415736e-02 0.0 
0.0 0.0 0.0 
9.842573192098e-05 2.681024614552e-03 0.0 
2.681024614552e-03 6.134726844944e-03 0.0 
0.0 0.0 0.0 
-2.541009387037e-04 -1.919338536349e-03 0.0 
-1.919338536349e-03 8.923311252933e-04 0.0 
0.0 0.0 0.0 
-3.469629180766e-04 9.733299582226e-04 0.0 
9.733299582226e-04 1.331591004061e-02 0.0 
0.0 0.0 0.0 
-6.072954746116e-04 -1.494107408453e-03 0.0 
-1.494107408453e-03 1.132269533802e-03 0.0 
0.0 0.0 0.0 
8.259476315351e-04 1.672449592766e-03 0.0 
1.672449592766e-03 6.753687729978e-03 0.0 
0.0 0.0 0.0 
-4.579233464188e-04 4.383478220691e-04 0.0 
4.383478220691e-04 1.308326455136e-02 0.0 
0.0 0.0 0.0 
1.455928116994e-03 8.607068078099e-04 0.0 
8.607068078099e-04 4.583050501489e-03 0.0 
0.0 0.0 0.0 
-9.001384013337e-04 2.417373732268e-04 0.0 
2.417373732268e-04 1.165248993903e-02 0.0 
0.0 0.0 0.0 
-8.578331576129e-04 6.101364585527e-04 0.0 
6.101364585527e-04 1.265761899475e-02 0.0 
0.0 0.0 0.0 
1.748401801151e-03 -5.654688316237e-04 0.0 
-5.654688316237e-04 1.728486410354e-03 0.0 
0.0 0.0 0.0 
1.936483403493e-03 1.070910815816e-03 0.0 
1.070910815816e-03 3.105805556186e-03 0.0 
0.0 0.0 0.0 
-5.430895532362e-04 8.641332411213e-04 0.0 
8.641332411213e-04 1.304199841599e-02 0.0 
0.0 0.0 0.0 
7.206193183864e-04 -8.458685039218e-05 0.0 
-8.458685039218e-05 4.957133297965e-03 0.0 
0.0 0.0 0.0 
-9.710269841665e-04 5.036288704374e-04 0.0 
5.036288704374e-04 1.233546071956e-02 0.0 
0.0 0.0 0.0 
1.524437496013e-03 4.082675248711e-04 0.0 
4.082675248711e-04 4.043838964574e-03 0.0 
0.0 0.0 0.0 
3.581015967027e-04 -2.155858239623e-03 0.0 
-2.155858239623e-03 4.294394413089e-04 0.0 
0.0 0.0 0.0 
-9.733083794963e-04 6.338913546660e-04 0.0 
6.338913546660e-04 1.246023778253e-02 0.0 
0.0 0.0 0.0 
6.541602969312e-05 2.696405901147e-03 0.0 
2.696405901147e-03 9.847866908334e-03 0.0 
0.0 0.0 0.0 
6.142634626300e-04 4.544001073517e-04 0.0 
4.544001073517e-04 6.150009188101e-03 0.0 
0.0 0.0 0.0 
7.507960818010e-04 -8.804894847257e-04 0.0 
-8.804894847257e-04 2.828188391168e-03 0.0 
0.0 0.0 0.0 
-9.874739252919e-04 2.046521671278e-04 0.0 
2.046521671278e-04 1.165612987215e-02 0.0 
0.0 0.0 0.0 
-9.535844461910e-04 2.279142651972e-04 0.0 
2.279142651972e-04 1.144622092891e-02 0.0 
0.0 0.0 0.0 
1.123474684230e-03 -8.451934410471e-04 0.0 
-8.451934410471e-04 2.477133912657e-03 0.0 
0.0 0.0 0.0 
8.846465496650e-04 -9.908721460563e-05 0.0 
-9.908721460563e-05 4.627231376191e-03 0.0 
0.0 0.0 0.0 
9.548585397994e-04 4.912088142512e-05 0.0 
4.912088142512e-05 4.796929708586e-03 0.0 
0.0 0.0 0.0 
-7.987017486477e-05 -4.530029692088e-04 0.0 
-4.530029692088e-04 1.233432967452e-03 0.0 
0.0 0.0 0.0 
2.402297864144e-03 1.774658010326e-03 0.0 
1.774658010326e-03 -1.223653431874e-03 0.0 
0.0 0.0 0.0 
2.241986493586e-03 3.225272083887e-04 0.0 
3.225272083887e-04 1.576037952975e-03 0.0 
0.0 0.0 0.0 
1.965953826091e-03 -4.307874656168e-04 0.0 
-4.307874656168e-04 1.327583129836e-03 0.0 
0.0 0.0 0.0 
7.052915393528e-04 2.649280679805e-03 0.0 
2.649280679805e-03 4.846983267304e-03 0.0 
0.0 0.0 0.0 
-5.302733845074e-04 8.032239534610e-04 0.0 
8.032239534610e-04 1.323886036183e-02 0.0 
0.0 0.0 0.0 
-7.059264849860e-04 1.749371545497e-03 0.0 
1.749371545497e-03 1.200963599522e-02 0.0 
0.0 0.0 0.0 
-5.345271062356e-04 4.024650222312e-04 0.0 
4.024650222312e-04 1.308618947195e-02 0.0 
0.0 0.0 0.0 
-8.263694874008e-04 2.549306301582e-03 0.0 
2.549306301582e-03 7.692227109910e-03 0.0 
0.0 0.0 0.0 
-9.044720695311e-04 9.600939771619e-04 0.0 
9.600939771619e-04 1.241489757175e-02 0.0 
0.0 0.0 0.0 
7.215084439602e-04 -1.913325666244e-04 0.0 
-1.913325666244e-04 4.642196300185e-03 0.0 
0.0 0.0 0.0 
-4.820020874776e-04 6.940493223271e-04 0.0 
6.940493223271e-04 1.314271956016e-02 0.0 
0.0 0.0 0.0 
-1.082175399981e-03 6.538738572300e-04 0.0 
6.538738572300e-04 1.225548722465e-02 0.0 
0.0 0.0 0.0 
7.457421808565e-04 -8.800939894871e-04 0.0 
-8.800939894871e-04 2.848643884500e-03 0.0 
0.0 0.0 0.0 
2.335894812902e-03 6.275780854733e-04 0.0 
6.275780854733e-04 1.299404115158e-03 0.0 
0.0 0.0 0.0 
-8.409409169281e-04 6.431025287275e-04 0.0 
6.431025287275e-04 1.245871464724e-02 0.0 
0.0 0.0 0.0 
-7.099159949684e-04 7.112045929710e-04 0.0 
7.112045929710e-04 1.295978721589e-02 0.0 
0.0 0.0 0.0 
-7.535739821964e-04 5.096958725590e-04 0.0 
5.096958725590e-04 1.252740915230e-02 0.0 
0.0 0.0 0.0 
-8.491599133438e-04 5.200762630595e-04 0.0 
5.200762630595e-04 1.233313444035e-02 0.0 
0.0 0.0 0.0 
6.533245087086e-04 1.620115184193e-04 0.0 
1.620115184193e-04 5.642799811828e-03 0.0 
0.0 0.0 0.0 
8.595197492771e-04 1.789056532414e-03 0.0 
1.789056532414e-03 6.731424179347e-03 0.0 
0.0 0.0 0.0 
8.206611950976e-04 1.837097475207e-04 0.0 
1.837097475207e-04 5.322411166794e-03 0.0 
0.0 0.0 0.0 
8.285729251201e-04 -3.778268675390e-04 0.0 
-3.778268675390e-04 4.034686372911e-03 0.0 
0.0 0.0 0.0 
-1.430668589571e-03 1.424922770009e-03 0.0 
1.424922770009e-03 9.290905103945e-03 0.0 
0.0 0.0 0.0 
1.351688528341e-03 1.117648978671e-03 0.0 
1.117648978671e-03 5.054808101213e-03 0.0 
0.0 0.0 0.0 
-1.102742314163e-03 1.024314470905e-03 0.0 
1.024314470905e-03 1.192826405905e-02 0.0 
0.0 0.0 0.0 
-1.154115795854e-04 -4.312367742622e-04 0.0 
-4.312367742622e-04 2.103780126181e-03 0.0 
0.0 0.0 0.0 
2.070080904042e-03 -2.839716662541e-05 0.0 
-2.839716662541e-05 1.633681229966e-03 0.0 
0.0 0.0 0.0 
1.974210326481e-03 2.387163214191e-04 0.0 
2.387163214191e-04 2.527874518067e-03 0.0 
0.0 0.0 0.0 
1.781393600846e-03 1.129207594566e-03 0.0 
1.129207594566e-03 3.738708149956e-03 0.0 
0.0 0.0 0.0 
2.733535805236e-03 -3.533394249184e-04 0.0 
-3.533394249184e-04 -2.254232244360e-03 0.0 
0.0 0.0 0.0 
2.218238501827e-03 2.339982965429e-04 0.0 
2.339982965429e-04 1.366553463187e-03 0.0 
0.0 0.0 0.0 
1.611142729808e-03 1.195004453371e-03 0.0 
1.195004453371e-03 4.360381334328e-03 0.0 
0.0 0.0 0.0 
-1.196459452093e-03 1.924974599164e-03 0.0 
1.924974599164e-03 9.022334522446e-03 0.0 
0.0 0.0 0.0 
8.117677611881e-04 -7.107541729040e-04 0.0 
-7.107541729040e-04 3.202957756193e-03 0.0 
0.0 0.0 0.0 
-1.161563953590e-03 5.266161665148e-04 0.0 
5.266161665148e-04 1.192323292540e-02 0.0 
0.0 0.0 0.0 
-9.387075582946e-04 9.367085871572e-05 0.0 
9.367085871572e-05 1.082425234308e-02 0.0 
0.0 0.0 0.0 
-1.556581417777e-03 2.725995405899e-03 0.0 
2.725995405899e-03 1.676147961236e-03 0.0 
0.0 0.0 0.0 
7.930542632648e-04 -5.182273530717e-04 0.0 
-5.182273530717e-04 3.700066542492e-03 0.0 
0.0 0.0 0.0 
1.431458396706e-03 8.969969175771e-04 0.0 
8.969969175771e-04 4.741550512205e-03 0.0 
0.0 0.0 0.0 
-6.227735504087e-04 1.686223362600e-03 0.0 
1.686223362600e-03 1.231874746483e-02 0.0 
0.0 0.0 0.0 
2.100350615694e-03 1.049905528205e-03 0.0 
1.049905528205e-03 2.490996670726e-03 0.0 
0.0 0.0 0.0 
8.369715788530e-04 -5.413180980357e-04 0.0 
-5.413180980357e-04 3.606212944169e-03 0.0 
0.0 0.0 0.0 
-1.050049838801e-03 3.955021728630e-04 0.0 
3.955021728630e-04 1.199178319485e-02 0.0 
0.0 0.0 0.0 
-1.607133568685e-03 2.607180204460e-03 0.0 
2.607180204460e-03 3.226354590948e-03 0.0 
0.0 0.0 0.0 
1.538817942973e-03 1.044676120759e-03 0.0 
1.044676120759e-03 4.554866841390e-03 0.0 
0.0 0.0 0.0 
1.895798251587e-03 8.274041196355e-04 0.0 
8.274041196355e-04 3.186347857089e-03 0.0 
0.0 0.0 0.0 
-1.314606373808e-03 1.928283719859e-03 0.0 
1.928283719859e-03 9.507555229371e-03 0.0 
0.0 0.0 0.0 
7.989394267778e-04 -5.458982273118e-05 0.0 
-5.458982273118e-05 4.813473283525e-03 0.0 
0.0 0.0 0.0 
1.488096702155e-03 -2.134610173579e-03 0.0 
-2.134610173579e-03 -1.239206372112e-03 0.0 
0.0 0.0 0.0 
8.509641247529e-04 1.031010323247e-04 0.0 
1.031010323247e-04 5.021741762802e-03 0.0 
0.0 0.0 0.0 
7.944958587300e-04 5.184277132364e-04 0.0 
5.184277132364e-04 5.831535035516e-03 0.0 
0.0 0.0 0.0 
1.609245651991e-03 1.211323607982e-03 0.0 
1.211323607982e-03 4.412514013041e-03 0.0 
0.0 0.0 0.0 
-8.660840256028e-04 4.874573032416e-04 0.0 
4.874573032416e-04 1.253046794013e-02 0.0 
0.0 0.0 0.0 
4.638699982640e-04 2.296592503550e-03 0.0 
2.296592503550e-03 7.752348679148e-03 0.0 
0.0 0.0 0.0 
6.942378292945e-04 4.108700081033e-04 0.0 
4.108700081033e-04 5.845574941594e-03 0.0 
0.0 0.0 0.0 
-1.637262527361e-03 2.408917085995e-03 0.0 
2.408917085995e-03 4.725928973707e-03 0.0 
0.0 0.0 0.0 
-1.070429145420e-03 5.162463843183e-04 0.0 
5.162463843183e-04 1.213359960118e-02 0.0 
0.0 0.0 0.0 
6.706324726091e-04 2.075794241328e-03 0.0 
2.075794241328e-03 7.350513334120e-03 0.0 
0.0 0.0 0.0 
-7.358399412889e-04 6.274086882400e-04 0.0 
6.274086882400e-04 1.265515156679e-02 0.0 
0.0 0.0 0.0 
1.788227468740e-03 1.149963876354e-03 0.0 
1.149963876354e-03 3.784975011383e-03 0.0 
0.0 0.0 0.0 
2.183912347312e-03 6.498044328494e-04 0.0 
6.498044328494e-04 1.870049551891e-03 0.0 
0.0 0.0 0.0 
3.072751884601e-04 -4.344601515244e-04 0.0 
-4.344601515244e-04 4.062150226692e-03 0.0 
0.0 0.0 0.0 
2.453343494586e-03 6.662939503302e-04 0.0 
6.662939503302e-04 -4.210583086870e-03 0.0 
0.0 0.0 0.0 
-6.286302456345e-04 6.038301119267e-04 0.0 
6.038301119267e-04 1.284426274403e-02 0.0 
0.0 0.0 0.0 
-9.365217718327e-05 -3.454243168085e-04 0.0 
-3.454243168085e-04 2.281105238588e-03 0.0 
0.0 0.0 0.0 
-1.474505360372e-03 2.111565064434e-03 0.0 
2.111565064434e-03 6.113420558426e-03 0.0 
0.0 0.0 0.0 
3.071800811993e-04 2.354986599200e-03 0.0 
2.354986599200e-03 7.994620110030e-03 0.0 
0.0 0.0 0.0 
-4.154994523426e-04 5.405386944760e-04 0.0 
5.405386944760e-04 1.321763996620e-02 0.0 
0.0 0.0 0.0 
8.895426998543e-04 -2.470997436680e-03 0.0 
-2.470997436680e-03 -8.570849526007e-04 0.0 
0.0 0.0 0.0 
3.737912932311e-05 2.535229004689e-03 0.0 
2.535229004689e-03 7.236463044751e-03 0.0 
0.0 0.0 0.0 
-9.418649418853e-04 6.539943863680e-04 0.0 
6.539943863680e-04 1.225501189432e-02 0.0 
0.0 0.0 0.0 
4.943954551613e-04 -6.578656566878e-04 0.0 
-6.578656566878e-04 3.552814785517e-03 0.0 
0.0 0.0 0.0 
2.399723732559e-03 -1.182403811607e-03 0.0 
-1.182403811607e-03 -2.121338370041e-03 0.0 
0.0 0.0 0.0 
1.069306987460e-03 2.856657144946e-03 0.0 
2.856657144946e-03 2.182264928286e-03 0.0 
0.0 0.0 0.0 
-1.462428873696e-04 -2.142521130235e-03 0.0 
-2.142521130235e-03 4.018063267957e-04 0.0 
0.0 0.0 0.0 
1.382336442540e-03 -2.097002387183e-03 0.0 
-2.097002387183e-03 -9.053231816928e-04 0.0 
0.0 0.0 0.0 
6.343465160996e-04 -2.331878704103e-03 0.0 
-2.331878704103e-03 -2.600966646062e-04 0.0 
0.0 0.0 0.0 
1.951463212941e-03 1.095619311917e-03 0.0 
1.095619311917e-03 3.146079055156e-03 0.0 
0.0 0.0 0.0 
-2.613268290290e-04 1.474701708339e-03 0.0 
1.474701708339e-03 1.332678482222e-02 0.0 
0.0 0.0 0.0 
-1.734708168322e-03 1.851142742830e-03 0.0 
1.851142742830e-03 7.661735392075e-03 0.0 
0.0 0.0 0.0 
5.012603465748e-04 1.378030678089e-04 0.0 
1.378030678089e-04 5.953012095500e-03 0.0 
0.0 0.0 0.0 
2.292617295365e-03 1.404314623018e-03 0.0 
1.404314623018e-03 1.040176780643e-03 0.0 
0.0 0.0 0.0 
-1.183564714120e-03 6.755357458515e-04 0.0 
6.755357458515e-04 1.204296369207e-02 0.0 
0.0 0.0 0.0 
2.843081945055e-03 5.109322950010e-04 0.0 
5.109322950010e-04 -3.785153197659e-03 0.0 
0.0 0.0 0.0 
6.405384054791e-04 5.932585755269e-04 0.0 
5.932585755269e-04 6.165053620818e-03 0.0 
0.0 0.0 0.0 
2.611581864838e-04 -2.461242876177e-03 0.0 
-2.461242876177e-03 -2.470221041776e-04 0.0 
0.0 0.0 0.0 
-8.078845403392e-05 -3.642469070671e-04 0.0 
-3.642469070671e-04 2.658466812455e-03 0.0 
0.0 0.0 0.0 
1.453141164003e-03 1.444677853666e-03 0.0 
1.444677853666e-03 4.947573945843e-03 0.0 
0.0 0.0 0.0 
1.530481692236e-03 -6.331601596851e-04 0.0 
-6.331601596851e-04 2.139101718735e-03 0.0 
0.0 0.0 0.0 
8.739516886935e-04 1.907733337439e-03 0.0 
1.907733337439e-03 6.760482094426e-03 0.0 
0.0 0.0 0.0 
2.594348995413e-04 2.862178796959e-03 0.0 
2.862178796959e-03 4.676634584888e-03 0.0 
0.0 0.0 0.0 
-1.159618103071e-03 1.019174060630e-03 0.0 
1.019174060630e-03 1.217669717128e-02 0.0 
0.0 0.0 0.0 
8.507084601006e-04 1.784274365474e-03 0.0 
1.784274365474e-03 6.736439541364e-03 0.0 
0.0 0.0 0.0 
-9.408396426637e-04 5.248037321126e-04 0.0 
5.248037321126e-04 1.213225926218e-02 0.0 
0.0 0.0 0.0 
-7.484966764731e-04 1.719258419005e-03 0.0 
1.719258419005e-03 1.231449835589e-02 0.0 
0.0 0.0 0.0 
-9.628478203405e-04 7.784855675737e-04 0.0 
7.784855675737e-04 1.256285535268e-02 0.0 
0.0 0.0 0.0 
-9.358207959761e-04 9.356451852607e-04 0.0 
9.356451852607e-04 1.263876507669e-02 0.0 
0.0 0.0 0.0 
1.791376716961e-03 2.721079940059e-03 0.0 
2.721079940059e-03 -1.572788394612e-03 0.0 
0.0 0.0 0.0 
4.817758827342e-04 3.438585237253e-05 0.0 
3.438585237253e-05 5.749472978527e-03 0.0 
0.0 0.0 0.0 
-9.312975400578e-04 7.999571769826e-04 0.0 
7.999571769826e-04 1.235082046515e-02 0.0 
0.0 0.0 0.0 
1.750413151012e-03 1.911872380769e-03 0.0 
1.911872380769e-03 3.149980798590e-03 0.0 
0.0 0.0 0.0 
-1.372197741036e-03 9.674255701195e-04 0.0 
9.674255701195e-04 8.813771963964e-03 0.0 
0.0 0.0 0.0 
6.182699041954e-04 1.884439048177e-03 0.0 
1.884439048177e-03 7.304642444592e-03 0.0 
0.0 0.0 0.0 
2.673192973536e-03 1.228279955649e-03 0.0 
1.228279955649e-03 -2.141396916168e-03 0.0 
0.0 0.0 0.0 
-6.186620058457e-05 -4.193523996389e-04 0.0 
-4.193523996389e-04 2.449189901948e-03 0.0 
0.0 0.0 0.0 
1.081925793945e-03 1.846357508374e-03 0.0 
1.846357508374e-03 6.126847071050e-03 0.0 
0.0 0.0 0.0 
1.063469839626e-04 -2.529471618015e-05 0.0 
-2.529471618015e-05 1.480747573978e-03 0.0 
0.0 0.0 0.0 
8.836516953650e-04 2.440131798980e-03 0.0 
2.440131798980e-03 5.280263622647e-03 0.0 
0.0 0.0 0.0 
1.409332828504e-03 1.279318512684e-03 0.0 
1.279318512684e-03 5.032962548352e-03 0.0 
0.0 0.0 0.0 
-7.499151746291e-04 1.050976332734e-03 0.0 
1.050976332734e-03 1.290010836634e-02 0.0 
0.0 0.0 0.0 
-6.831429709451e-04 1.235377292158e-03 0.0 
1.235377292158e-03 1.292942725664e-02 0.0 
0.0 0.0 0.0 
1.422193938965e-03 1.268723827919e-03 0.0 
1.268723827919e-03 4.973352923002e-03 0.0 
0.0 0.0 0.0 
-8.375526259944e-04 7.477163953853e-04 0.0 
7.477163953853e-04 1.276370208190e-02 0.0 
0.0 0.0 0.0 
2.070626479833e-03 1.734644466076e-03 0.0 
1.734644466076e-03 1.772289308528e-03 0.0 
0.0 0.0 0.0 
-8.880521313226e-05 2.376132235327e-03 0.0 
2.376132235327e-03 8.945579796949e-03 0.0 
0.0 0.0 0.0 
-1.352431987388e-03 6.657540694739e-04 0.0 
6.657540694739e-04 9.369851930864e-03 0.0 
0.0 0.0 0.0 
-4.933646902312e-04 2.126698337427e-03 0.0 
2.126698337427e-03 1.128914347228e-02 0.0 
0.0 0.0 0.0 
-1.362570320800e-03 5.331186332221e-04 0.0 
5.331186332221e-04 9.829317516491e-03 0.0 
0.0 0.0 0.0 
-1.337587695977e-03 4.715453755633e-04 0.0 
4.715453755633e-04 1.006260581135e-02 0.0 
0.0 0.0 0.0 
2.080157990423e-03 1.348764969250e-03 0.0 
1.348764969250e-03 2.409592453938e-03 0.0 
0.0 0.0 0.0 
-1.342571378492e-03 4.558758618818e-04 0.0 
4.558758618818e-04 1.028473915212e-02 0.0 
0.0 0.0 0.0 
1.090186498891e-03 2.191194438299e-03 0.0 
2.191194438299e-03 5.415350278123e-03 0.0 
0.0 0.0 0.0 
1.452939966317e-03 2.213832154123e-03 0.0 
2.213832154123e-03 3.647249268968e-03 0.0 
0.0 0.0 0.0 
2.093255164231e-03 3.657210128691e-04 0.0 
3.657210128691e-04 2.040224858826e-03 0.0 
0.0 0.0 0.0 
2.468669580723e-03 -1.208646086873e-03 0.0 
-1.208646086873e-03 -2.316622456268e-03 0.0 
0.0 0.0 0.0 
2.236631770538e-03 1.014947805417e-03 0.0 
1.014947805417e-03 1.814321765997e-03 0.0 
0.0 0.0 0.0 
-5.916847194757e-04 7.313855140144e-04 0.0 
7.313855140144e-04 1.295696695145e-02 0.0 
0.0 0.0 0.0 
-5.680785473280e-04 1.956148544586e-03 0.0 
1.956148544586e-03 1.189519212605e-02 0.0 
0.0 0.0 0.0 
5.715023924422e-04 -6.696775510199e-05 0.0 
-6.696775510199e-05 5.272357841057e-03 0.0 
0.0 0.0 0.0 
8.834825490909e-04 1.899365224247e-03 0.0 
1.899365224247e-03 6.714870651880e-03 0.0 
0.0 0.0 0.0 
1.796381134545e-03 -4.035434652012e-04 0.0 
-4.035434652012e-04 2.101635399675e-03 0.0 
0.0 0.0 0.0 
-7.905884390841e-04 9.336987234670e-04 0.0 
9.336987234670e-04 1.263847192265e-02 0.0 
0.0 0.0 0.0 
2.203442838695e-03 7.046855233052e-04 0.0 
7.046855233052e-04 1.988947363997e-03 0.0 
0.0 0.0 0.0 
3.601885930997e-04 3.930878520138e-05 0.0 
3.930878520138e-05 6.043633316889e-03 0.0 
0.0 0.0 0.0 
-8.218226889696e-04 7.822464794199e-04 0.0 
7.822464794199e-04 1.256192486327e-02 0.0 
0.0 0.0 0.0 
-1.054114439256e-03 9.759011732983e-04 0.0 
9.759011732983e-04 1.241351052877e-02 0.0 
0.0 0.0 0.0 
1.729896111246e-03 9.557530549017e-04 0.0 
9.557530549017e-04 3.928465500427e-03 0.0 
0.0 0.0 0.0 
2.194958709792e-03 1.364815492720e-03 0.0 
1.364815492720e-03 1.735968961593e-03 0.0 
0.0 0.0 0.0 
-7.061191614444e-05 2.393813750381e-03 0.0 
2.393813750381e-03 9.305347252019e-03 0.0 
0.0 0.0 0.0 
-8.624213179563e-04 2.067119328830e-03 0.0 
2.067119328830e-03 9.597596148422e-03 0.0 
0.0 0.0 0.0 
1.924115601253e-03 -1.997787036317e-03 0.0 
-1.997787036317e-03 -2.187246692189e-03 0.0 
0.0 0.0 0.0 
2.736608042938e-03 3.674640385374e-04 0.0 
3.674640385374e-04 -2.003959528681e-03 0.0 
0.0 0.0 0.0 
5.430850288983e-04 2.848070206197e-03 0.0 
2.848070206197e-03 4.090451181915e-03 0.0 
0.0 0.0 0.0 
-8.868137626850e-05 2.524881179135e-03 0.0 
2.524881179135e-03 7.238523683563e-03 0.0 
0.0 0.0 0.0 
2.550873340521e-04 4.390724106462e-05 0.0 
4.390724106462e-05 6.328972300615e-03 0.0 
0.0 0.0 0.0 
-1.077107812494e-03 8.083383402717e-04 0.0 
8.083383402717e-04 1.235033925032e-02 0.0 
0.0 0.0 0.0 
2.208260311017e-03 9.871362618352e-04 0.0 
9.871362618352e-04 1.793684272905e-03 0.0 
0.0 0.0 0.0 
-1.512211876743e-04 2.416053718014e-03 0.0 
2.416053718014e-03 8.269789040241e-03 0.0 
0.0 0.0 0.0 
1.327893115060e-03 1.142708149410e-03 0.0 
1.142708149410e-03 5.185939032005e-03 0.0 
0.0 0.0 0.0 
-7.394761643340e-04 5.828776580422e-04 0.0 
5.828776580422e-04 1.284724461459e-02 0.0 
0.0 0.0 0.0 
-2.120846414022e-04 2.422395905555e-03 0.0 
2.422395905555e-03 9.895278513335e-03 0.0 
0.0 0.0 0.0 
-1.120782170845e-03 6.699201057487e-04 0.0 
6.699201057487e-04 1.182320427617e-02 0.0 
0.0 0.0 0.0 
1.126414892939e-03 6.835346336002e-04 0.0 
6.835346336002e-04 5.269895444100e-03 0.0 
0.0 0.0 0.0 
2.045242580219e-03 7.367530719990e-04 0.0 
7.367530719990e-04 2.538465663820e-03 0.0 
0.0 0.0 0.0 
1.245741757035e-03 9.782937766711e-04 0.0 
9.782937766711e-04 5.201288583341e-03 0.0 
0.0 0.0 0.0 
7.308926918952e-04 2.545949561831e-03 0.0 
2.545949561831e-03 5.265304945172e-03 0.0 
0.0 0.0 0.0 
-6.683360593657e-04 8.544889170293e-04 0.0 
8.544889170293e-04 1.304331497795e-02 0.0 
0.0 0.0 0.0 
-3.044413954364e-04 2.432129537243e-03 0.0 
2.432129537243e-03 1.048328697339e-02 0.0 
0.0 0.0 0.0 
1.902016618760e-03 8.692364011446e-04 0.0 
8.692364011446e-04 3.295385930925e-03 0.0 
0.0 0.0 0.0 
2.836294024249e-03 4.675925018250e-04 0.0 
4.675925018250e-04 -2.856477573809e-03 0.0 
0.0 0.0 0.0 
5.660049739293e-04 2.294628186691e-03 0.0 
2.294628186691e-03 7.534785583904e-03 0.0 
0.0 0.0 0.0 
8.691880607694e-04 2.353476873439e-03 0.0 
2.353476873439e-03 5.712240633993e-03 0.0 
0.0 0.0 0.0 
2.149718752524e-03 1.363808997289e-03 0.0 
1.363808997289e-03 1.829635601929e-03 0.0 
0.0 0.0 0.0 
1.732436242492e-03 9.205184440750e-04 0.0 
9.205184440750e-04 3.819590855055e-03 0.0 
0.0 0.0 0.0 
1.036051073285e-03 3.313030381616e-04 0.0 
3.313030381616e-04 4.970770468919e-03 0.0 
0.0 0.0 0.0 
2.719840560424e-03 -5.158102052727e-04 0.0 
-5.158102052727e-04 -2.696431917885e-03 0.0 
0.0 0.0 0.0 
2.059046453161e-03 7.851921579257e-04 0.0 
7.851921579257e-04 2.650689037094e-03 0.0 
0.0 0.0 0.0 
-1.121419102591e-03 1.624682943501e-03 0.0 
1.624682943501e-03 1.080689489212e-02 0.0 
0.0 0.0 0.0 
1.955916363054e-04 -2.364779722778e-05 0.0 
-2.364779722778e-05 6.338717904138e-03 0.0 
0.0 0.0 0.0 
-9.792343155297e-04 1.826017280184e-03 0.0 
1.826017280184e-03 1.059952785399e-02 0.0 
0.0 0.0 0.0 
4.296880056922e-04 2.360183327284e-03 0.0 
2.360183327284e-03 7.743279341989e-03 0.0 
0.0 0.0 0.0 
-1.228352526736e-03 1.405806850311e-03 0.0 
1.405806850311e-03 1.096759402506e-02 0.0 
0.0 0.0 0.0 
-1.328265068985e-03 9.536847013561e-04 0.0 
9.536847013561e-04 1.112455738842e-02 0.0 
0.0 0.0 0.0 
-6.398078479740e-04 2.211531913750e-03 0.0 
2.211531913750e-03 9.264687186857e-03 0.0 
0.0 0.0 0.0 
1.073028761622e-03 1.713358711654e-03 0.0 
1.713358711654e-03 6.129939963676e-03 0.0 
0.0 0.0 0.0 
5.080305227063e-04 -4.544237649006e-05 0.0 
-4.544237649006e-05 5.460596773390e-03 0.0 
0.0 0.0 0.0 
-1.032113181027e-03 8.189585728553e-04 0.0 
8.189585728553e-04 1.212839172015e-02 0.0 
0.0 0.0 0.0 
-5.581468124023e-04 1.227274273332e-03 0.0 
1.227274273332e-03 1.292995197522e-02 0.0 
0.0 0.0 0.0 
-1.299899484252e-03 1.178607461679e-03 0.0 
1.178607461679e-03 1.107510311287e-02 0.0 
0.0 0.0 0.0 
2.424330860043e-03 9.690553392374e-04 0.0 
9.690553392374e-04 3.975420911184e-04 0.0 
0.0 0.0 0.0 
3.823993178083e-04 2.323199564575e-03 0.0 
2.323199564575e-03 8.198238638126e-03 0.0 
0.0 0.0 0.0 
-5.802707597182e-04 6.723377538562e-04 0.0 
6.723377538562e-04 1.314555353458e-02 0.0 
0.0 0.0 0.0 
1.280121357680e-03 2.315311276459e-03 0.0 
2.315311276459e-03 4.125636316412e-03 0.0 
0.0 0.0 0.0 
1.004966199597e-03 2.405635675104e-03 0.0 
2.405635675104e-03 4.917709888518e-03 0.0 
0.0 0.0 0.0 
2.323510523712e-03 9.668850727358e-04 0.0 
9.668850727358e-04 1.108452399026e-03 0.0 
0.0 0.0 0.0 
-1.009215791695e-03 9.894033152141e-04 0.0 
9.894033152141e-04 1.217998252000e-02 0.0 
0.0 0.0 0.0 
-3.309520270596e-04 2.711101131225e-03 0.0 
2.711101131225e-03 6.363249715356e-03 0.0 
0.0 0.0 0.0 
1.170545129794e-03 2.165304100768e-03 0.0 
2.165304100768e-03 5.167322616691e-03 0.0 
0.0 0.0 0.0 
-2.271015787040e-04 2.762228773173e-03 0.0 
2.762228773173e-03 6.355816975749e-03 0.0 
0.0 0.0 0.0 
1.274383851796e-03 1.658256710644e-03 0.0 
1.658256710644e-03 5.524089188999e-03 0.0 
0.0 0.0 0.0 
2.685828634288e-04 2.388278876389e-03 0.0 
2.388278876389e-03 8.642581658000e-03 0.0 
0.0 0.0 0.0 
2.310013709757e-03 5.686094384638e-04 0.0 
5.686094384638e-04 1.182050487816e-03 0.0 
0.0 0.0 0.0 
2.312718772056e-03 -6.593686760028e-04 0.0 
-6.593686760028e-04 -3.995282095369e-03 0.0 
0.0 0.0 0.0 
-5.916175736683e-04 1.465882586965e-03 0.0 
1.465882586965e-03 1.267873140440e-02 0.0 
0.0 0.0 0.0 
-5.781300843494e-04 2.556097381412e-03 0.0 
2.556097381412e-03 7.159807535411e-03 0.0 
0.0 0.0 0.0 
1.918579602025e-03 -8.861630240460e-05 0.0 
-8.861630240460e-05 2.270404160908e-03 0.0 
0.0 0.0 0.0 
4.946822429370e-04 2.346802968650e-03 0.0 
2.346802968650e-03 8.006436475362e-03 0.0 
0.0 0.0 0.0 
-1.181938061757e-03 8.410255003056e-04 0.0 
8.410255003056e-04 1.212629795290e-02 0.0 
0.0 0.0 0.0 
6.455320773120e-04 -5.045942662835e-05 0.0 
-5.045942662835e-05 5.141116563935e-03 0.0 
0.0 0.0 0.0 
1.733630710351e-03 2.019882711022e-03 0.0 
2.019882711022e-03 2.819836072259e-03 0.0 
0.0 0.0 0.0 
2.034948216035e-03 -3.020162517172e-04 0.0 
-3.020162517172e-04 -4.291804105762e-03 0.0 
0.0 0.0 0.0 
1.235875626806e-04 -3.038270465989e-05 0.0 
-3.038270465989e-05 6.637133921386e-03 0.0 
0.0 0.0 0.0 
2.017315658731e-04 2.518691616025e-03 0.0 
2.518691616025e-03 6.831536754601e-03 0.0 
0.0 0.0 0.0 
1.218125243283e-03 1.812898566633e-03 0.0 
1.812898566633e-03 5.610883248111e-03 0.0 
0.0 0.0 0.0 
8.847430184278e-05 2.453972314911e-03 0.0 
2.453972314911e-03 9.065506154006e-03 0.0 
0.0 0.0 0.0 
9.208678489376e-04 -6.818645311921e-05 0.0 
-6.818645311921e-05 -4.699099662674e-03 0.0 
0.0 0.0 0.0 
7.842146581116e-04 4.138538423594e-05 0.0 
4.138538423594e-05 5.126078877688e-03 0.0 
0.0 0.0 0.0 
1.595915753556e-03 2.457332136244e-03 0.0 
2.457332136244e-03 1.247699865646e-03 0.0 
0.0 0.0 0.0 
-1.280853737497e-03 6.966717260564e-04 0.0 
6.966717260564e-04 1.182069256686e-02 0.0 
0.0 0.0 0.0 
5.193850031444e-04 -5.186004863931e-04 0.0 
-5.186004863931e-04 3.953265251007e-03 0.0 
0.0 0.0 0.0 
2.358645962449e-03 9.934864795353e-04 0.0 
9.934864795353e-04 1.111294004323e-03 0.0 
0.0 0.0 0.0 
2.831242611225e-04 -2.772610883595e-05 0.0 
-2.772610883595e-05 6.054428448800e-03 0.0 
0.0 0.0 0.0 
9.742718695651e-04 2.324053114487e-03 0.0 
2.324053114487e-03 5.395799387643e-03 0.0 
0.0 0.0 0.0 
2.466664700918e-03 9.936197911189e-04 0.0 
9.936197911189e-04 3.791703603651e-04 0.0 
0.0 0.0 0.0 
7.896375502159e-05 2.465590292870e-03 0.0 
2.465590292870e-03 7.569495208747e-03 0.0 
0.0 0.0 0.0 
1.714870158984e-03 -1.803463921576e-03 0.0 
-1.803463921576e-03 -4.019799870959e-03 0.0 
0.0 0.0 0.0 
1.101737973439e-04 2.382441106359e-03 0.0 
2.382441106359e-03 8.286974040002e-03 0.0 
0.0 0.0 0.0 
1.257675709943e-03 1.502067228010e-03 0.0 
1.502067228010e-03 5.547565080900e-03 0.0 
0.0 0.0 0.0 
-3.352822365517e-04 2.357897554114e-03 0.0 
2.357897554114e-03 1.096155824878e-02 0.0 
0.0 0.0 0.0 
1.018020857368e-04 2.380324170412e-03 0.0 
2.380324170412e-03 8.668522318795e-03 0.0 
0.0 0.0 0.0 
2.638774648915e-03 3.844808046110e-04 0.0 
3.844808046110e-04 -1.119100489862e-03 0.0 
0.0 0.0 0.0 
4.520836451185e-04 -1.360769738497e-04 0.0 
-1.360769738497e-04 5.283972142418e-03 0.0 
0.0 0.0 0.0 
-4.135425375228e-04 8.288866425101e-04 0.0 
8.288866425101e-04 1.323780637469e-02 0.0 
0.0 0.0 0.0 
3.968901559219e-04 2.082620260176e-03 0.0 
2.082620260176e-03 7.880239720961e-03 0.0 
0.0 0.0 0.0 
1.071215608620e-03 1.717551971671e-03 0.0 
1.717551971671e-03 6.146136653240e-03 0.0 
0.0 0.0 0.0 
1.929568398449e-03 1.683073488192e-03 0.0 
1.683073488192e-03 2.590725439940e-03 0.0 
0.0 0.0 0.0 
1.020453176381e-04 2.412457067616e-03 0.0 
2.412457067616e-03 7.922063719057e-03 0.0 
0.0 0.0 0.0 
1.485718325358e-04 -1.284666706197e-06 0.0 
-1.284666706197e-06 6.384250118699e-03 0.0 
0.0 0.0 0.0 
6.734702406863e-06 -1.772179575477e-04 0.0 
-1.772179575477e-04 4.254846618254e-03 0.0 
0.0 0.0 0.0 
2.538699828070e-04 2.388273634940e-03 0.0 
2.388273634940e-03 7.990125509925e-03 0.0 
0.0 0.0 0.0 
-1.036215548072e-03 6.619069386404e-04 0.0 
6.619069386404e-04 1.204403634041e-02 0.0 
0.0 0.0 0.0 
3.880382641945e-04 -3.551997968837e-05 0.0 
-3.551997968837e-05 5.760754090892e-03 0.0 
0.0 0.0 0.0 
6.925405806488e-04 8.630398543353e-05 0.0 
8.630398543353e-05 5.338253133519e-03 0.0 
0.0 0.0 0.0 
-8.513054140484e-04 4.639971104271e-06 0.0 
4.639971104271e-06 1.050975658288e-02 0.0 
0.0 0.0 0.0 
-8.398011108635e-04 7.887211528338e-06 0.0 
7.887211528338e-06 1.050236348358e-02 0.0 
0.0 0.0 0.0 
-1.208586706239e-03 1.622513344325e-03 0.0 
1.622513344325e-03 1.117857905854e-02 0.0 
0.0 0.0 0.0 
2.480359928916e-04 2.408189448447e-03 0.0 
2.408189448447e-03 7.591938713186e-03 0.0 
0.0 0.0 0.0 
4.088037322740e-04 -4.321676159051e-04 0.0 
-4.321676159051e-04 4.269228430395e-03 0.0 
0.0 0.0 0.0 
-7.409126933283e-04 2.176430747183e-03 0.0 
2.176430747183e-03 9.827547019664e-03 0.0 
0.0 0.0 0.0 
1.235606615958e-03 2.226987626625e-03 0.0 
2.226987626625e-03 4.640919401490e-03 0.0 
0.0 0.0 0.0 
9.197385017452e-04 1.089280676466e-03 0.0 
1.089280676466e-03 5.976034725280e-03 0.0 
0.0 0.0 0.0 
1.820841690184e-03 1.989669822462e-03 0.0 
1.989669822462e-03 2.545503429334e-03 0.0 
0.0 0.0 0.0 
-2.386100345928e-04 1.301924018945e-03 0.0 
1.301924018945e-03 1.344415868986e-02 0.0 
0.0 0.0 0.0 
-1.376579008741e-03 7.953643748746e-04 0.0 
7.953643748746e-04 1.085069244096e-02 0.0 
0.0 0.0 0.0 
1.142233578869e-03 2.261704389439e-03 0.0 
2.261704389439e-03 4.938883663081e-03 0.0 
0.0 0.0 0.0 
6.869682522770e-04 -4.658711938693e-04 0.0 
-4.658711938693e-04 3.943672349414e-03 0.0 
0.0 0.0 0.0 
2.571044113094e-03 1.089593424676e-03 0.0 
1.089593424676e-03 -1.117641116788e-03 0.0 
0.0 0.0 0.0 
6.112996083034e-04 -7.688468029046e-04 0.0 
-7.688468029046e-04 3.213159530727e-03 0.0 
0.0 0.0 0.0 
2.314802338830e-04 2.453960395221e-03 0.0 
2.453960395221e-03 7.205057575870e-03 0.0 
0.0 0.0 0.0 
-3.071179472103e-04 2.434553806803e-03 0.0 
2.434553806803e-03 7.962209739516e-03 0.0 
0.0 0.0 0.0 
-1.124603467795e-03 8.411626534390e-04 0.0 
8.411626534390e-04 1.189680073093e-02 0.0 
0.0 0.0 0.0 
-5.356446442101e-04 2.230123762099e-03 0.0 
2.230123762099e-03 9.534922425596e-03 0.0 
0.0 0.0 0.0 
-6.413329842881e-04 2.197713397302e-03 0.0 
2.197713397302e-03 1.008493411767e-02 0.0 
0.0 0.0 0.0 
2.561361383833e-04 -8.828037862101e-05 0.0 
-8.828037862101e-05 9.782648813776e-04 0.0 
0.0 0.0 0.0 
6.155234470115e-04 -7.632658009165e-04 0.0 
-7.632658009165e-04 3.171875341921e-03 0.0 
0.0 0.0 0.0 
-4.735257906466e-04 2.658879132763e-03 0.0 
2.658879132763e-03 7.147466890204e-03 0.0 
0.0 0.0 0.0 
-9.398669496375e-04 1.937363880030e-03 0.0 
1.937363880030e-03 1.012338050645e-02 0.0 
0.0 0.0 0.0 
-1.030528123384e-03 1.923883534499e-03 0.0 
1.923883534499e-03 1.058058807413e-02 0.0 
0.0 0.0 0.0 
1.018856815032e-03 1.565205867085e-03 0.0 
1.565205867085e-03 6.163035363096e-03 0.0 
0.0 0.0 0.0 
4.348969888568e-05 -1.500057692067e-05 0.0 
-1.500057692067e-05 1.680672611817e-03 0.0 
0.0 0.0 0.0 
2.460772600665e-03 -1.469191408389e-03 0.0 
-1.469191408389e-03 -3.053210546986e-03 0.0 
0.0 0.0 0.0 
4.581614337114e-04 2.548271317469e-03 0.0 
2.548271317469e-03 6.062123534988e-03 0.0 
0.0 0.0 0.0 
4.427686396828e-04 -7.945340124562e-04 0.0 
-7.945340124562e-04 3.177571535708e-03 0.0 
0.0 0.0 0.0 
-1.525830642466e-03 6.541260466677e-04 0.0 
6.541260466677e-04 1.002702098527e-02 0.0 
0.0 0.0 0.0 
-1.493229269087e-03 5.875471924968e-04 0.0 
5.875471924968e-04 1.026718097570e-02 0.0 
0.0 0.0 0.0 
-1.274566402376e-03 8.810972664424e-04 0.0 
8.810972664424e-04 1.189263308314e-02 0.0 
0.0 0.0 0.0 
1.380828844479e-03 2.738551263157e-03 0.0 
2.738551263157e-03 -6.808822518762e-04 0.0 
0.0 0.0 0.0 
5.400953781283e-04 -5.189167117165e-04 0.0 
-5.189167117165e-04 3.864712586450e-03 0.0 
0.0 0.0 0.0 
1.325035525100e-03 7.348053399570e-04 0.0 
7.348053399570e-04 4.766776741572e-03 0.0 
0.0 0.0 0.0 
2.788876866620e-03 -4.514082212573e-04 0.0 
-4.514082212573e-04 -3.275383571198e-03 0.0 
0.0 0.0 0.0 
5.466380849772e-05 2.524150317462e-03 0.0 
2.524150317462e-03 9.630452207847e-03 0.0 
0.0 0.0 0.0 
-8.022735048444e-04 8.939727192108e-04 0.0 
8.939727192108e-04 1.284498527791e-02 0.0 
0.0 0.0 0.0 
2.717759064454e-04 -5.528284895245e-04 0.0 
-5.528284895245e-04 3.788680548337e-03 0.0 
0.0 0.0 0.0 
4.404135393226e-04 -4.581941063599e-05 0.0 
-4.581941063599e-05 5.574603600417e-03 0.0 
0.0 0.0 0.0 
1.869098987954e-04 -9.564518729425e-05 0.0 
-9.564518729425e-05 6.724580893023e-04 0.0 
0.0 0.0 0.0 
1.363006540691e-03 4.799158231059e-04 0.0 
4.799158231059e-04 4.390764670583e-03 0.0 
0.0 0.0 0.0 
3.320680623853e-04 2.490198919987e-03 0.0 
2.490198919987e-03 6.835005374843e-03 0.0 
0.0 0.0 0.0 
2.458124767142e-04 -7.314930323571e-05 0.0 
-7.314930323571e-05 6.462064309907e-04 0.0 
0.0 0.0 0.0 
-6.683965693485e-04 9.017189056428e-04 0.0 
9.017189056428e-04 1.284403023278e-02 0.0 
0.0 0.0 0.0 
2.722416541068e-03 -6.134289520656e-04 0.0 
-6.134289520656e-04 -3.599980951175e-03 0.0 
0.0 0.0 0.0 
-9.572156077406e-04 2.039236812791e-03 0.0 
2.039236812791e-03 1.010791780409e-02 0.0 
0.0 0.0 0.0 
-2.043254051682e-04 2.468961459471e-03 0.0 
2.468961459471e-03 7.957108723520e-03 0.0 
0.0 0.0 0.0 
1.887477538436e-03 -2.185065956487e-04 0.0 
-2.185065956487e-04 1.955624253750e-03 0.0 
0.0 0.0 0.0 
1.439446150098e-03 -6.824498368968e-05 0.0 
-6.824498368968e-05 3.573738701733e-03 0.0 
0.0 0.0 0.0 
-6.223420680865e-04 1.056548821520e-03 0.0 
1.056548821520e-03 1.289964474179e-02 0.0 
0.0 0.0 0.0 
1.323715665012e-03 1.071302466587e-04 0.0 
1.071302466587e-04 4.120281293436e-03 0.0 
0.0 0.0 0.0 
7.329086343715e-04 2.452582545129e-03 0.0 
2.452582545129e-03 5.698009299142e-03 0.0 
0.0 0.0 0.0 
6.022919184101e-04 2.483385665838e-03 0.0 
2.483385665838e-03 6.070901248920e-03 0.0 
0.0 0.0 0.0 
-1.590477023202e-03 2.788402373190e-03 0.0 
2.788402373190e-03 9.522810443778e-04 0.0 
0.0 0.0 0.0 
2.587644658704e-03 -4.141981911104e-04 0.0 
-4.141981911104e-04 -3.851090943653e-03 0.0 
0.0 0.0 0.0 
2.655908676128e-04 2.369398940985e-03 0.0 
2.369398940985e-03 8.400222563542e-03 0.0 
0.0 0.0 0.0 
-1.424290858443e-03 9.852711957571e-04 0.0 
9.852711957571e-04 1.138443799789e-02 0.0 
0.0 0.0 0.0 
3.856471731511e-04 2.392624908338e-03 0.0 
2.392624908338e-03 8.185611997929e-03 0.0 
0.0 0.0 0.0 
1.354501048126e-03 2.794139252685e-03 0.0 
2.794139252685e-03 1.198073732339e-03 0.0 
0.0 0.0 0.0 
-8.872047354638e-04 1.603970227662e-03 0.0 
1.603970227662e-03 1.177905287412e-02 0.0 
0.0 0.0 0.0 
7.970097480570e-05 2.421119049979e-03 0.0 
2.421119049979e-03 9.067911006288e-03 0.0 
0.0 0.0 0.0 
-1.413579628262e-03 6.732465091283e-04 0.0 
6.732465091283e-04 1.034167262216e-02 0.0 
0.0 0.0 0.0 
2.396536008185e-04 2.390075331880e-03 0.0 
2.390075331880e-03 8.396816268775e-03 0.0 
0.0 0.0 0.0 
3.411250080898e-04 -1.090096770578e-04 0.0 
-1.090096770578e-04 5.585219914509e-03 0.0 
0.0 0.0 0.0 
4.735801620992e-04 2.403905031673e-03 0.0 
2.403905031673e-03 6.875948558342e-03 0.0 
0.0 0.0 0.0 
6.673107034652e-04 -6.148249271013e-04 0.0 
-6.148249271013e-04 3.545222619637e-03 0.0 
0.0 0.0 0.0 
6.441210788120e-04 -6.084334625692e-04 0.0 
-6.084334625692e-04 3.617595349925e-03 0.0 
0.0 0.0 0.0 
-7.470454458064e-04 1.491831428621e-03 0.0 
1.491831428621e-03 1.267443478669e-02 0.0 
0.0 0.0 0.0 
1.526335601792e-03 -2.589921152726e-04 0.0 
-2.589921152726e-04 3.041171481266e-03 0.0 
0.0 0.0 0.0 
-3.183391415451e-05 2.466066532970e-03 0.0 
2.466066532970e-03 7.569946878857e-03 0.0 
0.0 0.0 0.0 
1.659048350972e-03 1.858724318927e-03 0.0 
1.858724318927e-03 3.752655228475e-03 0.0 
0.0 0.0 0.0 
1.172389613280e-03 2.639170352906e-04 0.0 
2.639170352906e-04 4.681551946199e-03 0.0 
0.0 0.0 0.0 
1.415449893042e-03 2.123898334579e-03 0.0 
2.123898334579e-03 4.152838051577e-03 0.0 
0.0 0.0 0.0 
2.668098881495e-03 4.546673677992e-04 0.0 
4.546673677992e-04 -9.754244319600e-04 0.0 
0.0 0.0 0.0 
1.966959094307e-03 5.632098395147e-04 0.0 
5.632098395147e-04 2.872244947194e-03 0.0 
0.0 0.0 0.0 
2.557526938239e-03 1.021207980109e-03 0.0 
1.021207980109e-03 -3.962095613839e-04 0.0 
0.0 0.0 0.0 
-7.455085041920e-04 2.105900155218e-03 0.0 
2.105900155218e-03 9.837627336761e-03 0.0 
0.0 0.0 0.0 
2.535633921573e-03 4.292335828264e-04 0.0 
4.292335828264e-04 -3.041232352458e-04 0.0 
0.0 0.0 0.0 
-5.998160826183e-04 2.283467185531e-03 0.0 
2.283467185531e-03 9.254734466914e-03 0.0 
0.0 0.0 0.0 
1.041868195986e-03 1.577477911467e-03 0.0 
1.577477911467e-03 6.151030493495e-03 0.0 
0.0 0.0 0.0 
1.249706964705e-03 1.500782616676e-03 0.0 
1.500782616676e-03 5.560940828357e-03 0.0 
0.0 0.0 0.0 
1.554571097829e-03 2.180653445307e-03 0.0 
2.180653445307e-03 3.333615282146e-03 0.0 
0.0 0.0 0.0 
-1.199353290739e-03 8.677515247619e-04 0.0 
8.677515247619e-04 1.164848826445e-02 0.0 
0.0 0.0 0.0 
3.258101757486e-04 -2.640750153039e-05 0.0 
-2.640750153039e-05 5.863124876729e-03 0.0 
0.0 0.0 0.0 
2.467614179171e-04 -8.581542314468e-05 0.0 
-8.581542314468e-05 5.873176889586e-03 0.0 
0.0 0.0 0.0 
7.572763768491e-04 2.875710427771e-03 0.0 
2.875710427771e-03 -7.832874676170e-04 0.0 
0.0 0.0 0.0 
-4.044997425753e-04 2.313615660430e-03 0.0 
2.313615660430e-03 8.927389923085e-03 0.0 
0.0 0.0 0.0 
1.637090625060e-04 4.983145178743e-05 0.0 
4.983145178743e-05 6.618378931198e-03 0.0 
0.0 0.0 0.0 
-1.095137809655e-03 2.257623287564e-03 0.0 
2.257623287564e-03 7.386247238510e-03 0.0 
0.0 0.0 0.0 
3.013598437362e-04 -4.529132267773e-04 0.0 
-4.529132267773e-04 4.166159978189e-03 0.0 
0.0 0.0 0.0 
-1.830917178029e-03 2.833756889011e-03 0.0 
2.833756889011e-03 1.680929338391e-03 0.0 
0.0 0.0 0.0 
2.295720654657e-04 -1.022276742409e-05 0.0 
-1.022276742409e-05 6.135472522691e-03 0.0 
0.0 0.0 0.0 
2.627130930865e-03 1.092743556986e-03 0.0 
1.092743556986e-03 -1.228348913105e-03 0.0 
0.0 0.0 0.0 
2.191529984930e-05 -1.079771264972e-04 0.0 
-1.079771264972e-04 4.417284351841e-03 0.0 
0.0 0.0 0.0 
1.204192534395e-03 1.978755393843e-03 0.0 
1.978755393843e-03 5.591128194727e-03 0.0 
0.0 0.0 0.0 
-1.359116375171e-03 9.231008686110e-04 0.0 
9.231008686110e-04 1.164197428374e-02 0.0 
0.0 0.0 0.0 
-1.283947289701e-03 9.102565623556e-04 0.0 
9.102565623556e-04 1.139361160668e-02 0.0 
0.0 0.0 0.0 
4.729992764454e-04 2.467817148540e-03 0.0 
2.467817148540e-03 6.463652068921e-03 0.0 
0.0 0.0 0.0 
-1.583072563021e-03 8.642733596834e-04 0.0 
8.642733596834e-04 9.547520930565e-03 0.0 
0.0 0.0 0.0 
-1.543240141030e-03 7.550686210957e-04 0.0 
7.550686210957e-04 9.795380785124e-03 0.0 
0.0 0.0 0.0 
1.698983888678e-04 -6.708599637525e-05 0.0 
-6.708599637525e-05 6.145208311924e-03 0.0 
0.0 0.0 0.0 
1.315539716811e-03 -6.907587813820e-06 0.0 
-6.907587813820e-06 3.804265633566e-03 0.0 
0.0 0.0 0.0 
1.789523406080e-03 -2.319561467237e-05 0.0 
-2.319561467237e-05 2.572352896586e-03 0.0 
0.0 0.0 0.0 
1.500265608278e-03 6.591296127969e-04 0.0 
6.591296127969e-04 4.367900505493e-03 0.0 
0.0 0.0 0.0 
2.110890273133e-03 4.447546763554e-04 0.0 
4.447546763554e-04 2.234701459882e-03 0.0 
0.0 0.0 0.0 
2.509902109145e-03 1.003758783282e-03 0.0 
1.003758783282e-03 -3.449675320092e-04 0.0 
0.0 0.0 0.0 
-1.331527732490e-03 5.642256751819e-04 0.0 
5.642256751819e-04 9.612796933902e-03 0.0 
0.0 0.0 0.0 
-1.478047291591e-03 8.361793918739e-04 0.0 
8.361793918739e-04 1.109978902692e-02 0.0 
0.0 0.0 0.0 
-8.527478015985e-04 4.637812678540e-06 0.0 
4.637812678540e-06 1.051028598856e-02 0.0 
0.0 0.0 0.0 
1.212105142575e-03 1.354256379702e-03 0.0 
1.354256379702e-03 5.581884289156e-03 0.0 
0.0 0.0 0.0 
1.680401785362e-03 1.933597050185e-03 0.0 
1.933597050185e-03 3.368758458267e-03 0.0 
0.0 0.0 0.0 
6.769013113288e-04 1.972572901042e-03 0.0 
1.972572901042e-03 7.286668674588e-03 0.0 
0.0 0.0 0.0 
5.990298437730e-05 -4.825776224605e-06 0.0 
-4.825776224605e-06 6.234139569085e-03 0.0 
0.0 0.0 0.0 
1.957122789677e-03 4.959790264696e-04 0.0 
4.959790264696e-04 2.696890176982e-03 0.0 
0.0 0.0 0.0 
1.263356360217e-04 1.701120405224e-05 0.0 
1.701120405224e-05 6.835433201372e-03 0.0 
0.0 0.0 0.0 
2.433137689743e-03 -4.879409221543e-05 0.0 
-4.879409221543e-05 -7.963659051624e-05 0.0 
0.0 0.0 0.0 
6.978077204802e-04 2.077886847355e-03 0.0 
2.077886847355e-03 7.297312878676e-03 0.0 
0.0 0.0 0.0 
5.993298504987e-04 2.403151079452e-03 0.0 
2.403151079452e-03 6.472667013322e-03 0.0 
0.0 0.0 0.0 
6.845564026108e-04 2.319428235255e-03 0.0 
2.319428235255e-03 6.590102632960e-03 0.0 
0.0 0.0 0.0 
9.579894900524e-04 7.683826047283e-04 0.0 
7.683826047283e-04 5.637029491803e-03 0.0 
0.0 0.0 0.0 
5.593109385342e-04 -1.238272198525e-03 0.0 
-1.238272198525e-03 2.118117763056e-03 0.0 
0.0 0.0 0.0 
-2.359426255181e-04 2.398574203118e-03 0.0 
2.398574203118e-03 8.272057891335e-03 0.0 
0.0 0.0 0.0 
1.956911111038e-03 1.425175915803e-04 0.0 
1.425175915803e-04 2.281632825309e-03 0.0 
0.0 0.0 0.0 
-4.182566572086e-04 2.383778426878e-03 0.0 
2.383778426878e-03 8.629573937310e-03 0.0 
0.0 0.0 0.0 
1.279120239464e-03 2.613304847102e-03 0.0 
2.613304847102e-03 2.216722495625e-03 0.0 
0.0 0.0 0.0 
8.638703008426e-04 2.230621335596e-03 0.0 
2.230621335596e-03 6.381326052826e-03 0.0 
0.0 0.0 0.0 
2.096207392450e-03 8.367404066835e-05 0.0 
8.367404066835e-05 1.905991840430e-03 0.0 
0.0 0.0 0.0 
5.529899375352e-04 -3.892259507446e-04 0.0 
-3.892259507446e-04 4.261110462207e-03 0.0 
0.0 0.0 0.0 
-4.934291410397e-04 2.324213927246e-03 0.0 
2.324213927246e-03 8.637867293514e-03 0.0 
0.0 0.0 0.0 
-9.840316196674e-04 3.407311967663e-03 0.0 
3.407311967663e-03 -5.276271213317e-04 0.0 
0.0 0.0 0.0 
1.548015593316e-03 1.827157991945e-03 0.0 
1.827157991945e-03 4.350120577932e-03 0.0 
0.0 0.0 0.0 
-1.078507927468e-03 3.088986055363e-03 0.0 
3.088986055363e-03 1.487708326327e-03 0.0 
0.0 0.0 0.0 
-7.881759106831e-05 -3.185420017642e-04 0.0 
-3.185420017642e-04 1.177053496945e-03 0.0 
0.0 0.0 0.0 
4.274559128852e-04 -4.268163582126e-04 0.0 
-4.268163582126e-04 4.160622691293e-03 0.0 
0.0 0.0 0.0 
-2.521184470534e-04 2.356306836962e-03 0.0 
2.356306836962e-03 9.561485277620e-03 0.0 
0.0 0.0 0.0 
-1.253036220078e-03 1.108266927942e-03 0.0 
1.108266927942e-03 1.137772456307e-02 0.0 
0.0 0.0 0.0 
-1.682013423260e-03 1.251280067540e-03 0.0 
1.251280067540e-03 9.019971202635e-03 0.0 
0.0 0.0 0.0 
0.0 1.337858239622e-03 0.0 
1.337858239622e-03 1.339546984824e-02 0.0 
0.0 0.0 0.0 
-1.688768903581e-03 2.814432341138e-03 0.0 
2.814432341138e-03 2.787208410413e-04 0.0 
0.0 0.0 0.0 
-1.601520618513e-03 1.039093482369e-03 0.0 
1.039093482369e-03 9.309704756856e-03 0.0 
0.0 0.0 0.0 
1.807594268082e-03 8.585107783978e-05 0.0 
8.585107783978e-05 2.853968610371e-03 0.0 
0.0 0.0 0.0 
2.021981571692e-04 -4.460167664850e-04 0.0 
-4.460167664850e-04 4.064740560176e-03 0.0 
0.0 0.0 0.0 
-1.577729357952e-03 1.518277411676e-03 0.0 
1.518277411676e-03 9.607641596623e-03 0.0 
0.0 0.0 0.0 
2.119996180828e-03 -7.177521639893e-04 0.0 
-7.177521639893e-04 4.902036615626e-04 0.0 
0.0 0.0 0.0 
1.414681012647e-03 -1.985996583561e-04 0.0 
-1.985996583561e-04 3.238308402259e-03 0.0 
0.0 0.0 0.0 
3.412291215665e-04 2.421792801586e-03 0.0 
2.421792801586e-03 7.209260730978e-03 0.0 
0.0 0.0 0.0 
1.417312695512e-03 1.816744115426e-03 0.0 
1.816744115426e-03 4.946464784255e-03 0.0 
0.0 0.0 0.0 
-5.064330539367e-04 2.166581444105e-03 0.0 
2.166581444105e-03 1.085676017908e-02 0.0 
0.0 0.0 0.0 
1.467541980635e-03 2.950430164479e-03 0.0 
2.950430164479e-03 -2.030144330307e-03 0.0 
0.0 0.0 0.0 
3.969664197903e-04 -5.372392454719e-04 0.0 
-5.372392454719e-04 3.785521738174e-03 0.0 
0.0 0.0 0.0 
2.303915273658e-04 -3.388422162317e-04 0.0 
-3.388422162317e-04 4.321941213065e-03 0.0 
0.0 0.0 0.0 
5.651374703541e-06 -1.133354617558e-03 0.0 
-1.133354617558e-03 1.973353437676e-03 0.0 
0.0 0.0 0.0 
-1.393450768888e-03 6.318011430843e-04 0.0 
6.318011430843e-04 1.059190630492e-02 0.0 
0.0 0.0 0.0 
-1.388184433357e-03 1.196361592691e-03 0.0 
1.196361592691e-03 1.136603791844e-02 0.0 
0.0 0.0 0.0 
3.401825279448e-05 -4.403176095197e-05 0.0 
-4.403176095197e-05 5.644304592709e-03 0.0 
0.0 0.0 0.0 
3.583172708805e-04 -9.081876115125e-05 0.0 
-9.081876115125e-05 5.930133448453e-04 0.0 
0.0 0.0 0.0 
1.399705081413e-04 -6.330660514629e-04 0.0 
-6.330660514629e-04 -4.554019504348e-03 0.0 
0.0 0.0 0.0 
-2.394038515935e-04 -9.892959563742e-04 0.0 
-9.892959563742e-04 1.524269970113e-03 0.0 
0.0 0.0 0.0 
1.442775828147e-04 -3.488943143530e-04 0.0 
-3.488943143530e-04 4.324158551211e-03 0.0 
0.0 0.0 0.0 
2.330718395838e-03 9.697721854063e-05 0.0 
9.697721854063e-05 6.638240445460e-04 0.0 
0.0 0.0 0.0 
2.055239118996e-03 -9.213701854483e-04 0.0 
-9.213701854483e-04 2.399272123133e-05 0.0 
0.0 0.0 0.0 
2.527837904360e-03 -2.024843294846e-04 0.0 
-2.024843294846e-04 -8.763841709706e-04 0.0 
0.0 0.0 0.0 
3.293250158429e-04 -3.400271060037e-04 0.0 
-3.400271060037e-04 4.439905013768e-03 0.0 
0.0 0.0 0.0 
-1.100224155030e-03 1.530927053615e-03 0.0 
1.530927053615e-03 1.119539647721e-02 0.0 
0.0 0.0 0.0 
1.663197109525e-04 -2.520844003461e-04 0.0 
-2.520844003461e-04 4.564547698486e-03 0.0 
0.0 0.0 0.0 
2.456297846534e-03 5.591986039147e-04 0.0 
5.591986039147e-04 5.874576029654e-04 0.0 
0.0 0.0 0.0 
-3.543560964376e-04 2.351887280053e-03 0.0 
2.351887280053e-03 8.922197119064e-03 0.0 
0.0 0.0 0.0 
-1.101018121092e-03 2.870899082791e-04 0.0 
2.870899082791e-04 1.119035318979e-02 0.0 
0.0 0.0 0.0 
1.053715901304e-03 1.983347537818e-03 0.0 
1.983347537818e-03 6.175488209728e-03 0.0 
0.0 0.0 0.0 
9.788533258481e-05 -2.617038320898e-04 0.0 
-2.617038320898e-04 4.566634564947e-03 0.0 
0.0 0.0 0.0 
2.244032559169e-04 -3.618785095751e-04 0.0 
-3.618785095751e-04 4.444539721961e-03 0.0 
0.0 0.0 0.0 
-1.823111190072e-03 1.777914671602e-03 0.0 
1.777914671602e-03 8.319537655567e-03 0.0 
0.0 0.0 0.0 
2.168635316175e-03 -2.111664010843e-04 0.0 
-2.111664010843e-04 9.664093067581e-04 0.0 
0.0 0.0 0.0 
1.143756133775e-04 -1.741364179795e-04 0.0 
-1.741364179795e-04 4.792083919190e-03 0.0 
0.0 0.0 0.0 
-7.104952295942e-04 5.067772991686e-05 0.0 
5.067772991686e-05 1.195393064068e-02 0.0 
0.0 0.0 0.0 
-7.684609703812e-04 4.442304735899e-05 0.0 
4.442304735899e-05 1.159745550123e-02 0.0 
0.0 0.0 0.0 
-1.750201847617e-03 1.504140996537e-03 0.0 
1.504140996537e-03 8.716078456174e-03 0.0 
0.0 0.0 0.0 
2.458143436526e-04 -2.595898958827e-04 0.0 
-2.595898958827e-04 4.702460853835e-03 0.0 
0.0 0.0 0.0 
1.458370294935e-03 -1.434489686744e-03 0.0 
-1.434489686744e-03 5.471902971077e-04 0.0 
0.0 0.0 0.0 
-4.357380067689e-04 3.245195653751e-03 0.0 
3.245195653751e-03 1.421141790845e-03 0.0 
0.0 0.0 0.0 
6.681073271599e-04 1.976164536029e-03 0.0 
1.976164536029e-03 7.320674142514e-03 0.0 
0.0 0.0 0.0 
-4.948826219771e-04 -1.295016331226e-03 0.0 
-1.295016331226e-03 1.365838290115e-03 0.0 
0.0 0.0 0.0 
1.562673176799e-03 -1.182908786720e-03 0.0 
-1.182908786720e-03 1.070682139935e-03 0.0 
0.0 0.0 0.0 
1.493693433354e-03 1.831295910074e-03 0.0 
1.831295910074e-03 4.481718444217e-03 0.0 
0.0 0.0 0.0 
-1.311836843319e-03 7.320433210500e-04 0.0 
7.320433210500e-04 9.169652525198e-03 0.0 
0.0 0.0 0.0 
6.254514770676e-05 -1.849020222205e-04 0.0 
-1.849020222205e-04 4.795562491556e-03 0.0 
0.0 0.0 0.0 
-4.200336239590e-05 -5.778739304600e-05 0.0 
-5.778739304600e-05 2.304335927152e-03 0.0 
0.0 0.0 0.0 
-1.500448951003e-03 6.585494351979e-04 0.0 
6.585494351979e-04 1.080256536701e-02 0.0 
0.0 0.0 0.0 
1.606137060586e-04 -2.800535249466e-04 0.0 
-2.800535249466e-04 4.706685451464e-03 0.0 
0.0 0.0 0.0 
1.688197247502e-03 -3.405396684678e-04 0.0 
-3.405396684678e-04 2.314355752040e-03 0.0 
0.0 0.0 0.0 
3.916216334394e-04 -5.518108216434e-04 0.0 
-5.518108216434e-04 3.870985780963e-03 0.0 
0.0 0.0 0.0 
4.769965187723e-06 2.602714744460e-03 0.0 
2.602714744460e-03 -2.203173137804e-03 0.0 
0.0 0.0 0.0 
-4.669994894047e-04 2.865597654017e-05 0.0 
2.865597654017e-05 1.300004930635e-02 0.0 
0.0 0.0 0.0 
1.781817224765e-03 -8.086330174924e-04 0.0 
-8.086330174924e-04 1.144375508072e-03 0.0 
0.0 0.0 0.0 
1.091336962373e-03 1.256637719192e-03 0.0 
1.256637719192e-03 5.845931516274e-03 0.0 
0.0 0.0 0.0 
7.671681994665e-04 2.241538051702e-03 0.0 
2.241538051702e-03 6.603820456308e-03 0.0 
0.0 0.0 0.0 
1.763547072799e-04 -1.873994625209e-04 0.0 
-1.873994625209e-04 4.948803720022e-03 0.0 
0.0 0.0 0.0 
1.094055894411e-04 -2.055087312175e-04 0.0 
-2.055087312175e-04 4.952413694718e-03 0.0 
0.0 0.0 0.0 
2.466990779062e-03 6.665319526972e-05 0.0 
6.665319526972e-05 1.884841183206e-04 0.0 
0.0 0.0 0.0 
-7.904316158690e-04 -1.240174030162e-03 0.0 
-1.240174030162e-03 9.767430726817e-04 0.0 
0.0 0.0 0.0 
2.103291903135e-04 3.043991959352e-03 0.0 
3.043991959352e-03 -2.292527440946e-03 0.0 
0.0 0.0 0.0 
1.197783064479e-04 -1.240419675027e-04 0.0 
-1.240419675027e-04 5.182945325796e-03 0.0 
0.0 0.0 0.0 
1.058822741119e-03 9.124244245805e-04 0.0 
9.124244245805e-04 5.642175138348e-03 0.0 
0.0 0.0 0.0 
8.620657779799e-04 -1.551193191909e-03 0.0 
-1.551193191909e-03 1.227378427950e-03 0.0 
0.0 0.0 0.0 
-1.705963118316e-04 2.374846143731e-03 0.0 
2.374846143731e-03 8.600704347243e-03 0.0 
0.0 0.0 0.0 
-9.498123988779e-04 2.401580381841e-03 0.0 
2.401580381841e-03 6.654377323940e-03 0.0 
0.0 0.0 0.0 
-5.172975881940e-04 2.278151457967e-03 0.0 
2.278151457967e-03 9.528113354093e-03 0.0 
0.0 0.0 0.0 
4.442345182849e-04 5.422963276177e-04 0.0 
5.422963276177e-04 6.818868445373e-03 0.0 
0.0 0.0 0.0 
-4.378900778513e-03 -1.184202371174e-04 0.0 
-1.184202371174e-04 -2.936001456862e-03 0.0 
0.0 0.0 0.0 
0.0 1.223660208520e-04 0.0 
1.223660208520e-04 1.385117444976e-02 0.0 
0.0 0.0 0.0 
0.0 2.279882182784e-06 0.0 
2.279882182784e-06 7.613030843870e-03 0.0 
0.0 0.0 0.0 
-8.176340151078e-04 -3.059969640287e-05 0.0 
-3.059969640287e-05 1.094994357104e-02 0.0 
0.0 0.0 0.0 
1.288351128443e-03 -1.130875277791e-03 0.0 
-1.130875277791e-03 1.568333883957e-03 0.0 
0.0 0.0 0.0 
5.760277159128e-04 2.343068587374e-03 0.0 
2.343068587374e-03 6.885301942894e-03 0.0 
0.0 0.0 0.0 
2.425986260032e-03 4.935362875106e-04 0.0 
4.935362875106e-04 4.592557982204e-04 0.0 
0.0 0.0 0.0 
7.431270560465e-05 -2.787049548804e-04 0.0 
-2.787049548804e-04 9.808614118763e-04 0.0 
0.0 0.0 0.0 
-1.939077225994e-03 2.964735979205e-03 0.0 
2.964735979205e-03 9.532642601977e-04 0.0 
0.0 0.0 0.0 
-4.305762648125e-04 3.664850106221e-04 0.0 
3.664850106221e-04 1.326497423891e-02 0.0 
0.0 0.0 0.0 
-1.317695341889e-03 1.414578381084e-03 0.0 
1.414578381084e-03 1.129849602207e-02 0.0 
0.0 0.0 0.0 
-1.485267236581e-03 5.436289540168e-04 0.0 
5.436289540168e-04 1.051178071499e-02 0.0 
0.0 0.0 0.0 
1.107492393924e-04 2.796112223950e-03 0.0 
2.796112223950e-03 9.689012451644e-03 0.0 
0.0 0.0 0.0 
1.251394872015e-05 -4.695120202047e-05 0.0 
-4.695120202047e-05 1.906157023517e-03 0.0 
0.0 0.0 0.0 
1.484558645810e-04 2.697205527111e-03 0.0 
2.697205527111e-03 9.330262263733e-03 0.0 
0.0 0.0 0.0 
-1.193307889012e-03 1.325627548106e-03 0.0 
1.325627548106e-03 1.131277204060e-02 0.0 
0.0 0.0 0.0 
8.185540264312e-04 -1.193196018630e-03 0.0 
-1.193196018630e-03 2.060471814970e-03 0.0 
0.0 0.0 0.0 
7.164520997609e-04 2.375572745396e-03 0.0 
2.375572745396e-03 6.139280366043e-03 0.0 
0.0 0.0 0.0 
1.314099621835e-03 -1.162192702756e-03 0.0 
-1.162192702756e-03 1.580189334967e-03 0.0 
0.0 0.0 0.0 
-5.424322078976e-04 3.144722487602e-03 0.0 
3.144722487602e-03 2.370456769298e-03 0.0 
0.0 0.0 0.0 
9.786033144252e-04 -1.308796863576e-03 0.0 
-1.308796863576e-03 1.688489402861e-03 0.0 
0.0 0.0 0.0 
-9.763737528243e-04 1.730243326955e-03 0.0 
1.730243326955e-03 1.102853382579e-02 0.0 
0.0 0.0 0.0 
5.018711914606e-05 -5.228248296427e-05 0.0 
-5.228248296427e-05 6.435562657436e-03 0.0 
0.0 0.0 0.0 
1.861400189535e-03 -8.667907108791e-04 0.0 
-8.667907108791e-04 1.016437551364e-03 0.0 
0.0 0.0 0.0 
-3.201588668267e-04 2.320116674166e-03 0.0 
2.320116674166e-03 9.232054337227e-03 0.0 
0.0 0.0 0.0 
-1.544604353936e-03 -2.564982549502e-04 0.0 
-2.564982549502e-04 -4.417105147923e-03 0.0 
0.0 0.0 0.0 
2.292240512159e-03 -2.638060526856e-04 0.0 
-2.638060526856e-04 6.149549686576e-04 0.0 
0.0 0.0 0.0 
-1.129411171073e-03 1.463255487221e-03 0.0 
1.463255487221e-03 1.186080246933e-02 0.0 
0.0 0.0 0.0 
5.077553363582e-04 -1.195775328651e-03 0.0 
-1.195775328651e-03 2.180530842809e-03 0.0 
0.0 0.0 0.0 
5.227568818171e-04 -1.589006019128e-03 0.0 
-1.589006019128e-03 1.394472133883e-03 0.0 
0.0 0.0 0.0 
8.306083721765e-04 2.285580586166e-03 0.0 
2.285580586166e-03 6.153264195048e-03 0.0 
0.0 0.0 0.0 
1.027966976093e-03 -2.274172737576e-03 0.0 
-2.274172737576e-03 -1.172242101457e-03 0.0 
0.0 0.0 0.0 
-1.645679555053e-03 2.097335717689e-03 0.0 
2.097335717689e-03 6.825708016468e-03 0.0 
0.0 0.0 0.0 
-1.695024646440e-03 2.173682173436e-03 0.0 
2.173682173436e-03 7.619967249359e-03 0.0 
0.0 0.0 0.0 
3.245523287443e-04 -1.317673020151e-03 0.0 
-1.317673020151e-03 1.917027704479e-03 0.0 
0.0 0.0 0.0 
1.604010145203e-03 -1.350763385889e-04 0.0 
-1.350763385889e-04 2.897193912919e-03 0.0 
0.0 0.0 0.0 
1.497846500436e-03 2.096170202027e-03 0.0 
2.096170202027e-03 3.893100410721e-03 0.0 
0.0 0.0 0.0 
-2.972349609007e-04 2.339698243841e-03 0.0 
2.339698243841e-03 9.229744875574e-03 0.0 
0.0 0.0 0.0 
-4.030145849835e-04 2.087494874792e-03 0.0 
2.087494874792e-03 1.171539641334e-02 0.0 
0.0 0.0 0.0 
-1.366968132682e-03 1.125334537092e-03 0.0 
1.125334537092e-03 8.450841303679e-03 0.0 
0.0 0.0 0.0 
-6.398119691555e-04 6.208515363202e-06 0.0 
6.208515363202e-06 1.232161699060e-02 0.0 
0.0 0.0 0.0 
-8.340154175923e-05 2.448799274073e-03 0.0 
2.448799274073e-03 1.023095407005e-02 0.0 
0.0 0.0 0.0 
2.568138696533e-03 4.996859819658e-04 0.0 
4.996859819658e-04 -1.665919578574e-04 0.0 
0.0 0.0 0.0 
-9.651073564596e-04 3.066065267852e-03 0.0 
3.066065267852e-03 1.486839433903e-03 0.0 
0.0 0.0 0.0 
-1.139134783089e-03 2.479969068076e-03 0.0 
2.479969068076e-03 7.347109964619e-03 0.0 
0.0 0.0 0.0 
1.487233473167e-03 -4.061321869050e-04 0.0 
-4.061321869050e-04 2.684574901406e-03 0.0 
0.0 0.0 0.0 
-6.211505665776e-04 2.153803055644e-03 0.0 
2.153803055644e-03 1.009041271136e-02 0.0 
0.0 0.0 0.0 
1.722927520608e-03 -2.005865022847e-04 0.0 
-2.005865022847e-04 2.652030859340e-03 0.0 
0.0 0.0 0.0 
1.066527484167e-03 2.731435174054e-03 0.0 
2.731435174054e-03 -1.829318430893e-03 0.0 
0.0 0.0 0.0 
1.493974819441e-03 5.271173970476e-05 0.0 
5.271173970476e-05 3.476845948567e-03 0.0 
0.0 0.0 0.0 
-6.730977691526e-04 3.064345639376e-03 0.0 
3.064345639376e-03 3.275555040008e-03 0.0 
0.0 0.0 0.0 
1.599211728162e-03 1.872028878691e-03 0.0 
1.872028878691e-03 3.924590142659e-03 0.0 
0.0 0.0 0.0 
1.626961135143e-03 -1.062674004956e-05 0.0 
-1.062674004956e-05 3.208071701627e-03 0.0 
0.0 0.0 0.0 
9.234637145121e-04 2.263533077823e-03 0.0 
2.263533077823e-03 5.884663498582e-03 0.0 
0.0 0.0 0.0 
-7.701976586225e-04 8.231839949637e-05 0.0 
8.231839949637e-05 1.187235855562e-02 0.0 
0.0 0.0 0.0 
1.735789946213e-04 -1.299249792217e-03 0.0 
-1.299249792217e-03 1.915215120853e-03 0.0 
0.0 0.0 0.0 
-2.443491285099e-04 3.281894837178e-03 0.0 
3.281894837178e-03 3.955264972686e-04 0.0 
0.0 0.0 0.0 
1.506208597387e-03 1.656629257256e-04 0.0 
1.656629257256e-04 3.777360234013e-03 0.0 
0.0 0.0 0.0 
-6.773598293262e-04 2.882415824247e-03 0.0 
2.882415824247e-03 4.099110229063e-03 0.0 
0.0 0.0 0.0 
3.547343888293e-04 8.492992577048e-04 0.0 
8.492992577048e-04 -4.709434547629e-03 0.0 
0.0 0.0 0.0 
-2.973561094621e-04 8.275416693320e-05 0.0 
8.275416693320e-05 1.331886237575e-02 0.0 
0.0 0.0 0.0 
-4.322644568073e-04 7.419203353116e-05 0.0 
7.419203353116e-05 1.300183790989e-02 0.0 
0.0 0.0 0.0 
-4.619015130057e-04 -3.553791789649e-04 0.0 
-3.553791789649e-04 5.875819862404e-04 0.0 
0.0 0.0 0.0 
1.360120012215e-03 2.291387729731e-04 0.0 
2.291387729731e-04 4.065541479435e-03 0.0 
0.0 0.0 0.0 
-1.332547555067e-04 -1.102604198255e-03 0.0 
-1.102604198255e-03 1.739957280224e-03 0.0 
0.0 0.0 0.0 
-1.200800645487e-04 -1.008147220308e-03 0.0 
-1.008147220308e-03 1.977078346903e-03 0.0 
0.0 0.0 0.0 
-2.423446416624e-04 2.349875077095e-03 0.0 
2.349875077095e-03 9.561886419619e-03 0.0 
0.0 0.0 0.0 
1.012988627221e-03 2.140583514604e-03 0.0 
2.140583514604e-03 5.900941078301e-03 0.0 
0.0 0.0 0.0 
-1.144309991391e-04 2.378609712467e-03 0.0 
2.378609712467e-03 8.945367861272e-03 0.0 
0.0 0.0 0.0 
2.022637229017e-03 -6.602548496177e-04 0.0 
-6.602548496177e-04 6.901694631254e-04 0.0 
0.0 0.0 0.0 
-8.933351017728e-04 1.945633423714e-05 0.0 
1.945633423714e-05 1.052289846482e-02 0.0 
0.0 0.0 0.0 
1.935791652588e-04 3.734019325890e-04 0.0 
3.734019325890e-04 6.837973212022e-03 0.0 
0.0 0.0 0.0 
-2.737022320866e-04 -9.417096172327e-04 0.0 
-9.417096172327e-04 1.716361573380e-03 0.0 
0.0 0.0 0.0 
1.117847995282e-03 1.225161867522e-03 0.0 
1.225161867522e-03 5.656604571333e-03 0.0 
0.0 0.0 0.0 
1.348122474145e-03 2.053420253258e-03 0.0 
2.053420253258e-03 4.668590278301e-03 0.0 
0.0 0.0 0.0 
6.676194791999e-05 -1.241014226970e-04 0.0 
-1.241014226970e-04 1.412114319800e-03 0.0 
0.0 0.0 0.0 
-8.081899317537e-04 2.001393886301e-03 0.0 
2.001393886301e-03 1.035074424050e-02 0.0 
0.0 0.0 0.0 
2.360074140839e-03 1.966963230116e-04 0.0 
1.966963230116e-04 8.946191653290e-04 0.0 
0.0 0.0 0.0 
-7.479749271166e-04 -1.304717894064e-03 0.0 
-1.304717894064e-03 7.946236691159e-04 0.0 
0.0 0.0 0.0 
2.366612015994e-03 -4.569697418506e-04 0.0 
-4.569697418506e-04 -4.523901933517e-05 0.0 
0.0 0.0 0.0 
3.355944367667e-05 9.872869824942e-06 0.0 
9.872869824942e-06 5.477065645358e-03 0.0 
0.0 0.0 0.0 
-1.065348451454e-03 1.818370981477e-03 0.0 
1.818370981477e-03 1.100913739156e-02 0.0 
0.0 0.0 0.0 
-3.963170410928e-04 -1.330482801089e-03 0.0 
-1.330482801089e-03 1.105204998893e-03 0.0 
0.0 0.0 0.0 
-5.855781172404e-06 -9.738223447106e-05 0.0 
-9.738223447106e-05 4.415322422605e-03 0.0 
0.0 0.0 0.0 
-4.326742411462e-04 2.269304899872e-03 0.0 
2.269304899872e-03 9.825427417691e-03 0.0 
0.0 0.0 0.0 
8.518430820070e-04 2.022233185084e-03 0.0 
2.022233185084e-03 6.823996461103e-03 0.0 
0.0 0.0 0.0 
6.405143267465e-04 -1.360896226273e-03 0.0 
-1.360896226273e-03 1.807976933559e-03 0.0 
0.0 0.0 0.0 
-5.590314503912e-05 -8.762946420483e-05 0.0 
-8.762946420483e-05 2.303677215424e-03 0.0 
0.0 0.0 0.0 
1.421004386374e-03 2.033832560696e-03 0.0 
2.033832560696e-03 4.454094084569e-03 0.0 
0.0 0.0 0.0 
-7.367224509092e-04 -2.997719013434e-05 0.0 
-2.997719013434e-05 1.174701946322e-02 0.0 
0.0 0.0 0.0 
-6.330917988728e-04 -1.820204587215e-03 0.0 
-1.820204587215e-03 3.982941462184e-04 0.0 
0.0 0.0 0.0 
-4.780920871206e-05 2.695953210319e-03 0.0 
2.695953210319e-03 1.026457047109e-02 0.0 
0.0 0.0 0.0 
-2.579186802517e-04 1.940879265034e-03 0.0 
1.940879265034e-03 1.240040210208e-02 0.0 
0.0 0.0 0.0 
-7.968810793110e-04 -1.504450937293e-05 0.0 
-1.504450937293e-05 1.119536120734e-02 0.0 
0.0 0.0 0.0 
-4.768431898222e-04 9.601556883694e-04 0.0 
9.601556883694e-04 1.331843940967e-02 0.0 
0.0 0.0 0.0 
-1.979575558075e-04 2.226255114490e-03 0.0 
2.226255114490e-03 1.187317228815e-02 0.0 
0.0 0.0 0.0 
2.075948230772e-03 -4.889157604671e-04 0.0 
-4.889157604671e-04 1.084180513006e-03 0.0 
0.0 0.0 0.0 
1.524915253173e-03 -1.142308493875e-03 0.0 
-1.142308493875e-03 1.069627139110e-03 0.0 
0.0 0.0 0.0 
6.001664455915e-04 1.630935028856e-03 0.0 
1.630935028856e-03 7.263080829458e-03 0.0 
0.0 0.0 0.0 
-1.324836574980e-03 3.673081069894e-04 0.0 
3.673081069894e-04 -4.300861573694e-03 0.0 
0.0 0.0 0.0 
-2.485665514307e-05 -1.452949437826e-05 0.0 
-1.452949437826e-05 2.094506782666e-03 0.0 
0.0 0.0 0.0 
5.812817420958e-06 -3.293710838167e-05 0.0 
-3.293710838167e-05 4.522286574426e-03 0.0 
0.0 0.0 0.0 
4.093633019413e-04 -1.393340013561e-03 0.0 
-1.393340013561e-03 1.815667576963e-03 0.0 
0.0 0.0 0.0 
1.840038992089e-03 -1.130748455053e-03 0.0 
-1.130748455053e-03 5.061237856787e-04 0.0 
0.0 0.0 0.0 
-1.712382590364e-03 2.265080876635e-03 0.0 
2.265080876635e-03 5.395925310022e-03 0.0 
0.0 0.0 0.0 
-1.712581607057e-03 2.403636129202e-03 0.0 
2.403636129202e-03 6.068512070407e-03 0.0 
0.0 0.0 0.0 
-1.098178126838e-03 2.003462034153e-04 0.0 
2.003462034153e-04 1.124876469556e-02 0.0 
0.0 0.0 0.0 
2.251257547807e-03 -4.103775831596e-04 0.0 
-4.103775831596e-04 2.693896911432e-04 0.0 
0.0 0.0 0.0 
-8.309857684885e-05 -2.659198991733e-04 0.0 
-2.659198991733e-04 2.444529605947e-03 0.0 
0.0 0.0 0.0 
7.735633311083e-04 2.221767253418e-03 0.0 
2.221767253418e-03 6.898185338322e-03 0.0 
0.0 0.0 0.0 
1.218756866350e-04 1.916181600439e-04 0.0 
1.916181600439e-04 7.427222287521e-03 0.0 
0.0 0.0 0.0 
1.458157467209e-04 2.689834341932e-04 0.0 
2.689834341932e-04 7.364590753908e-03 0.0 
0.0 0.0 0.0 
1.607688363450e-03 -9.275613748874e-04 0.0 
-9.275613748874e-04 1.528187935979e-03 0.0 
0.0 0.0 0.0 
-1.164796869411e-03 2.385597460914e-04 0.0 
2.385597460914e-04 1.092942001429e-02 0.0 
0.0 0.0 0.0 
-1.486529231569e-03 -1.544854500048e-05 0.0 
-1.544854500048e-05 -3.805196618406e-03 0.0 
0.0 0.0 0.0 
-1.863363672947e-03 2.604401081945e-03 0.0 
2.604401081945e-03 3.990627314390e-03 0.0 
0.0 0.0 0.0 
9.835191557983e-04 -2.670058413145e-03 0.0 
-2.670058413145e-03 -1.919643223476e-03 0.0 
0.0 0.0 0.0 
-1.840730228209e-03 2.476040919033e-03 0.0 
2.476040919033e-03 4.733851215130e-03 0.0 
0.0 0.0 0.0 
1.255271365641e-03 2.000524776266e-03 0.0 
2.000524776266e-03 5.186287641191e-03 0.0 
0.0 0.0 0.0 
1.199885121244e-03 -1.409451339097e-03 0.0 
-1.409451339097e-03 1.208329543004e-03 0.0 
0.0 0.0 0.0 
1.784564585375e-03 -1.081247412391e-03 0.0 
-1.081247412391e-03 5.501828871814e-04 0.0 
0.0 0.0 0.0 
5.948657551418e-04 -2.693025025191e-03 0.0 
-2.693025025191e-03 -3.104309911969e-03 0.0 
0.0 0.0 0.0 
-3.764613651747e-04 1.088742600213e-04 0.0 
1.088742600213e-04 1.306468098574e-02 0.0 
0.0 0.0 0.0 
1.211943347363e-03 -1.398398598087e-03 0.0 
-1.398398598087e-03 1.103666362494e-03 0.0 
0.0 0.0 0.0 
-3.531266471577e-04 4.009398401578e-04 0.0 
4.009398401578e-04 1.325915911664e-02 0.0 
0.0 0.0 0.0 
-5.291942507405e-04 1.255160058337e-04 0.0 
1.255160058337e-04 1.279061154208e-02 0.0 
0.0 0.0 0.0 
-1.442357333117e-04 1.759520465041e-04 0.0 
1.759520465041e-04 1.383838177853e-02 0.0 
0.0 0.0 0.0 
9.745565411334e-06 3.465535880033e-06 0.0 
3.465535880033e-06 7.612073649246e-03 0.0 
0.0 0.0 0.0 
-8.074094143834e-04 3.552247412740e-05 0.0 
3.552247412740e-05 1.120712587524e-02 0.0 
0.0 0.0 0.0 
9.968838570360e-04 -1.310360699768e-03 0.0 
-1.310360699768e-03 1.607619759248e-03 0.0 
0.0 0.0 0.0 
-1.415820353312e-03 1.981486429225e-03 0.0 
1.981486429225e-03 6.813736244755e-03 0.0 
0.0 0.0 0.0 
1.095360110918e-03 -1.091571380479e-03 0.0 
-1.091571380479e-03 2.041500754207e-03 0.0 
0.0 0.0 0.0 
0.0 1.147765822054e-04 0.0 
1.147765822054e-04 7.482693856634e-03 0.0 
0.0 0.0 0.0 
-1.828014154235e-03 2.757798435857e-03 0.0 
2.757798435857e-03 2.448894445877e-03 0.0 
0.0 0.0 0.0 
-1.828002656219e-03 2.677409011612e-03 0.0 
2.677409011612e-03 3.233380684827e-03 0.0 
0.0 0.0 0.0 
9.875462609967e-04 1.459538863578e-03 0.0 
1.459538863578e-03 6.171565693791e-03 0.0 
0.0 0.0 0.0 
-1.022915794877e-03 1.348075529479e-04 0.0 
1.348075529479e-04 1.091688017830e-02 0.0 
0.0 0.0 0.0 
-3.205050687732e-04 2.724431014784e-04 0.0 
2.724431014784e-04 1.330339774499e-02 0.0 
0.0 0.0 0.0 
-4.428950943363e-04 2.289098428909e-03 0.0 
2.289098428909e-03 9.824193123378e-03 0.0 
0.0 0.0 0.0 
7.065330411717e-04 2.158433201163e-03 0.0 
2.158433201163e-03 7.329135061365e-03 0.0 
0.0 0.0 0.0 
-7.747981570536e-04 2.076171656206e-03 0.0 
2.076171656206e-03 1.104003286586e-02 0.0 
0.0 0.0 0.0 
-8.193873574056e-04 9.334345934771e-05 0.0 
9.334345934771e-05 1.129577944416e-02 0.0 
0.0 0.0 0.0 
2.215456130334e-04 -1.513725675909e-03 0.0 
-1.513725675909e-03 1.565480811754e-03 0.0 
0.0 0.0 0.0 
4.232041758727e-04 -1.514634794487e-03 0.0 
-1.514634794487e-03 1.564733750560e-03 0.0 
0.0 0.0 0.0 
-6.660379609321e-04 8.607939919680e-05 0.0 
8.607939919680e-05 1.213215462813e-02 0.0 
0.0 0.0 0.0 
6.349964549697e-04 2.140877101272e-03 0.0 
2.140877101272e-03 7.426399455068e-03 0.0 
0.0 0.0 0.0 
-1.309731796531e-03 3.174672869252e-04 0.0 
3.174672869252e-04 1.056543594364e-02 0.0 
0.0 0.0 0.0 
-8.398064887135e-04 1.493620790550e-05 0.0 
1.493620790550e-05 1.085752980087e-02 0.0 
0.0 0.0 0.0 
-8.299721970220e-04 2.541534674866e-05 0.0 
2.541534674866e-05 1.119211052603e-02 0.0 
0.0 0.0 0.0 
-8.740622109530e-04 3.902111681326e-05 0.0 
3.902111681326e-05 1.131686350305e-02 0.0 
0.0 0.0 0.0 
1.936465400349e-03 -1.412637164564e-03 0.0 
-1.412637164564e-03 -3.336302552586e-03 0.0 
0.0 0.0 0.0 
9.461271511668e-05 -1.393720151294e-03 0.0 
-1.393720151294e-03 1.705667581128e-03 0.0 
0.0 0.0 0.0 
-3.060203144470e-04 5.699181532904e-04 0.0 
5.699181532904e-04 1.353644772023e-02 0.0 
0.0 0.0 0.0 
-8.331647760398e-04 8.610116348989e-05 0.0 
8.610116348989e-05 1.170513004698e-02 0.0 
0.0 0.0 0.0 
3.622509372108e-04 2.058824921888e-03 0.0 
2.058824921888e-03 7.891823597366e-03 0.0 
0.0 0.0 0.0 
-5.862005803159e-04 2.188509002539e-03 0.0 
2.188509002539e-03 1.167694562925e-02 0.0 
0.0 0.0 0.0 
-8.419125421045e-04 2.078759938694e-03 0.0 
2.078759938694e-03 1.033665405248e-02 0.0 
0.0 0.0 0.0 
-6.138036689940e-04 1.000926412076e-03 0.0 
1.000926412076e-03 1.309695842508e-02 0.0 
0.0 0.0 0.0 
-1.806899318391e-06 -3.543548814754e-04 0.0 
-3.543548814754e-04 3.328738502882e-03 0.0 
0.0 0.0 0.0 
-5.390970261721e-05 -3.816227169234e-04 0.0 
-3.816227169234e-04 3.030366605273e-03 0.0 
0.0 0.0 0.0 
4.160866429062e-04 3.628697639655e-04 0.0 
3.628697639655e-04 6.394596575216e-03 0.0 
0.0 0.0 0.0 
2.546834678430e-04 -1.717163368787e-03 0.0 
-1.717163368787e-03 -3.628194811274e-03 0.0 
0.0 0.0 0.0 
-1.600141747859e-05 -1.045979924363e-04 0.0 
-1.045979924363e-04 2.201339908312e-03 0.0 
0.0 0.0 0.0 
0.0 2.610593371888e-03 0.0 
2.610593371888e-03 9.498863543335e-03 0.0 
0.0 0.0 0.0 
2.113884080637e-04 -2.394492012003e-05 0.0 
-2.394492012003e-05 9.818740473264e-04 0.0 
0.0 0.0 0.0 
-8.272234743744e-04 2.160083611921e-05 0.0 
2.160083611921e-05 1.086094027792e-02 0.0 
0.0 0.0 0.0 
8.268015580206e-04 1.238476202359e-03 0.0 
1.238476202359e-03 6.507860429128e-03 0.0 
0.0 0.0 0.0 
-2.265413374913e-04 -3.935265533957e-04 0.0 
-3.935265533957e-04 7.023451020884e-04 0.0 
0.0 0.0 0.0 
4.328836148055e-04 -9.658224834523e-05 0.0 
-9.658224834523e-05 1.907439628128e-04 0.0 
0.0 0.0 0.0 
-2.063821489845e-04 8.585751372444e-04 0.0 
8.585751372444e-04 1.367430795370e-02 0.0 
0.0 0.0 0.0 
-9.706449654913e-04 4.608051962565e-05 0.0 
4.608051962565e-05 1.054791879360e-02 0.0 
0.0 0.0 0.0 
-3.327878058449e-04 7.747359904851e-04 0.0 
7.747359904851e-04 1.342709723468e-02 0.0 
0.0 0.0 0.0 
6.256462647800e-04 1.431348770915e-03 0.0 
1.431348770915e-03 6.652167771184e-03 0.0 
0.0 0.0 0.0 
-9.582221729736e-04 1.871038520166e-05 0.0 
1.871038520166e-05 1.053631162021e-02 0.0 
0.0 0.0 0.0 
-1.329140933716e-03 5.938260727778e-04 0.0 
5.938260727778e-04 -3.725609644137e-03 0.0 
0.0 0.0 0.0 
-1.542785529799e-04 1.247560945595e-04 0.0 
1.247560945595e-04 1.358954338848e-02 0.0 
0.0 0.0 0.0 
3.671349869583e-05 -2.688445435044e-04 0.0 
-2.688445435044e-04 1.174467696464e-03 0.0 
0.0 0.0 0.0 
-3.482883861754e-04 6.392014178152e-04 0.0 
6.392014178152e-04 1.329479646846e-02 0.0 
0.0 0.0 0.0 
0.0 6.144163892087e-05 0.0 
6.144163892087e-05 7.529178841239e-03 0.0 
0.0 0.0 0.0 
-5.916348954221e-04 1.855652121141e-03 0.0 
1.855652121141e-03 1.221739946329e-02 0.0 
0.0 0.0 0.0 
2.324710785920e-03 -1.313755839073e-03 0.0 
-1.313755839073e-03 -3.077486162049e-03 0.0 
0.0 0.0 0.0 
-1.234576558340e-03 4.477840424722e-04 0.0 
4.477840424722e-04 1.119672786979e-02 0.0 
0.0 0.0 0.0 
-5.880636593691e-05 -2.385805122436e-04 0.0 
-2.385805122436e-04 3.394692010756e-03 0.0 
0.0 0.0 0.0 
7.801027677539e-04 2.095497474943e-03 0.0 
2.095497474943e-03 6.907621921257e-03 0.0 
0.0 0.0 0.0 
2.352009508573e-04 2.243425745302e-03 0.0 
2.243425745302e-03 8.445807958804e-03 0.0 
0.0 0.0 0.0 
-5.952753161802e-04 1.002547189081e-04 0.0 
1.002547189081e-04 1.251879655136e-02 0.0 
0.0 0.0 0.0 
2.977186104869e-04 2.057897431223e-03 0.0 
2.057897431223e-03 8.135061746495e-03 0.0 
0.0 0.0 0.0 
1.277195449084e-03 -1.278015103256e-03 0.0 
-1.278015103256e-03 -4.099343447717e-03 0.0 
0.0 0.0 0.0 
1.301986436926e-04 8.396049825274e-05 0.0 
8.396049825274e-05 7.092198110754e-03 0.0 
0.0 0.0 0.0 
1.795127473911e-03 -1.974348606697e-03 0.0 
-1.974348606697e-03 -1.752050258360e-03 0.0 
0.0 0.0 0.0 
1.474633759588e-04 -9.576215860488e-05 0.0 
-9.576215860488e-05 1.010273755031e-03 0.0 
0.0 0.0 0.0 
5.249565538370e-04 1.023969933617e-03 0.0 
1.023969933617e-03 6.921523534440e-03 0.0 
0.0 0.0 0.0 
-4.874943866332e-04 1.435531616431e-03 0.0 
1.435531616431e-03 1.310452673499e-02 0.0 
0.0 0.0 0.0 
-2.841724156450e-04 8.732405759883e-04 0.0 
8.732405759883e-04 1.347471384941e-02 0.0 
0.0 0.0 0.0 
-8.786631056129e-04 7.909314751760e-05 0.0 
7.909314751760e-05 1.085941770708e-02 0.0 
0.0 0.0 0.0 
-1.339921619697e-03 7.345135551613e-04 0.0 
7.345135551613e-04 1.113108705891e-02 0.0 
0.0 0.0 0.0 
-5.989817132697e-04 3.112876621874e-03 0.0 
3.112876621874e-03 2.368950587265e-03 0.0 
0.0 0.0 0.0 
-3.850212350586e-04 2.371576448308e-03 0.0 
2.371576448308e-03 1.177850981303e-02 0.0 
0.0 0.0 0.0 
-7.392997538835e-05 -1.865755861282e-04 0.0 
-1.865755861282e-04 2.888890075199e-03 0.0 
0.0 0.0 0.0 
3.832557116192e-04 2.878305770483e-03 0.0 
2.878305770483e-03 -8.822450150726e-04 0.0 
0.0 0.0 0.0 
8.590978948766e-04 2.138060261321e-03 0.0 
2.138060261321e-03 6.808671438293e-03 0.0 
0.0 0.0 0.0 
-8.766640768969e-04 8.905362785107e-06 0.0 
8.905362785107e-06 1.049700632687e-02 0.0 
0.0 0.0 0.0 
-4.553232252391e-04 1.386592918715e-03 0.0 
1.386592918715e-03 1.289331470097e-02 0.0 
0.0 0.0 0.0 
-1.191109935367e-04 -1.812763904108e-05 0.0 
-1.812763904108e-05 1.383366810613e-02 0.0 
0.0 0.0 0.0 
0.0 5.955549676820e-05 0.0 
5.955549676820e-05 1.386992338422e-02 0.0 
0.0 0.0 0.0 
7.736154443438e-04 3.032456877541e-05 0.0 
3.032456877541e-05 -2.042260170683e-04 0.0 
0.0 0.0 0.0 
6.354835655780e-04 -2.951755748574e-05 0.0 
-2.951755748574e-05 -1.857783908246e-04 0.0 
0.0 0.0 0.0 
-8.307866758063e-04 -2.754010210490e-05 0.0 
-2.754010210490e-05 1.053511458138e-02 0.0 
0.0 0.0 0.0 
-8.462724894385e-04 4.887242450845e-06 0.0 
4.887242450845e-06 1.048574570590e-02 0.0 
0.0 0.0 0.0 
0.0 2.185028877481e-06 0.0 
2.185028877481e-06 7.628412442295e-03 0.0 
0.0 0.0 0.0 
4.370057754999e-06 2.664987990338e-05 0.0 
2.664987990338e-05 7.575112682488e-03 0.0 
0.0 0.0 0.0 
5.680054834605e-04 1.007323624867e-05 0.0 
1.007323624867e-05 8.636450277422e-05 0.0 
0.0 0.0 0.0 
-1.295232185642e-03 -4.090804276451e-04 0.0 
-4.090804276451e-04 -4.549716836218e-03 0.0 
0.0 0.0 0.0 
8.109556253677e-05 2.990825786700e-05 0.0 
2.990825786700e-05 6.811649061868e-03 0.0 
0.0 0.0 0.0 
3.302871429360e-04 2.515795166731e-03 0.0 
2.515795166731e-03 8.666795653372e-03 0.0 
0.0 0.0 0.0 
7.753324330140e-05 -2.593336032571e-04 0.0 
-2.593336032571e-04 1.349793920675e-03 0.0 
0.0 0.0 0.0 
2.001354578662e-04 1.110022305399e-04 0.0 
1.110022305399e-04 6.692278787946e-03 0.0 
0.0 0.0 0.0 
1.836254285004e-05 -3.492435249993e-05 0.0 
-3.492435249993e-05 4.831568532002e-03 0.0 
0.0 0.0 0.0 
-3.280585216003e-05 -6.469816890307e-05 0.0 
-6.469816890307e-05 4.157017247375e-03 0.0 
0.0 0.0 0.0 
-7.791737359338e-04 1.115077224519e-04 0.0 
1.115077224519e-04 1.189060998600e-02 0.0 
0.0 0.0 0.0 
1.197586242330e-05 -2.392222140835e-03 0.0 
-2.392222140835e-03 -2.023230370717e-04 0.0 
0.0 0.0 0.0 
9.061522492650e-04 2.107120654367e-03 0.0 
2.107120654367e-03 6.397061066856e-03 0.0 
0.0 0.0 0.0 
1.117992649513e-04 -2.442849968988e-04 0.0 
-2.442849968988e-04 1.032277389584e-03 0.0 
0.0 0.0 0.0 
7.200156199261e-06 -2.937892993525e-04 0.0 
-2.937892993525e-04 3.705470615353e-03 0.0 
0.0 0.0 0.0 
-3.135598718501e-04 2.231977807982e-03 0.0 
2.231977807982e-03 1.149030361262e-02 0.0 
0.0 0.0 0.0 
-3.814664361411e-04 -2.301339313018e-05 0.0 
-2.301339313018e-05 1.318780977531e-02 0.0 
0.0 0.0 0.0 
-7.647146298861e-06 -6.452352474097e-05 0.0 
-6.452352474097e-05 4.155112056547e-03 0.0 
0.0 0.0 0.0 
-8.028868175630e-04 9.870081041198e-06 0.0 
9.870081041198e-06 1.148148020289e-02 0.0 
0.0 0.0 0.0 
1.994799236704e-05 2.616178059270e-03 0.0 
2.616178059270e-03 9.695784667333e-03 0.0 
0.0 0.0 0.0 
-6.189807431419e-04 2.199530798441e-03 0.0 
2.199530798441e-03 1.085255317153e-02 0.0 
0.0 0.0 0.0 
-7.328287765976e-04 2.132640566699e-03 0.0 
2.132640566699e-03 1.058641435870e-02 0.0 
0.0 0.0 0.0 
-9.176019383472e-04 2.158789215836e-05 0.0 
2.158789215836e-05 1.053077086839e-02 0.0 
0.0 0.0 0.0 
1.138790213978e-03 1.977334272645e-03 0.0 
1.977334272645e-03 5.721400117058e-03 0.0 
0.0 0.0 0.0 
-4.672639976421e-04 1.618535230907e-03 0.0 
1.618535230907e-03 1.259569165935e-02 0.0 
0.0 0.0 0.0 
-6.252428199549e-05 -1.749202433381e-04 0.0 
-1.749202433381e-04 2.213629827666e-03 0.0 
0.0 0.0 0.0 
-2.531467464650e-05 -2.872161050951e-04 0.0 
-2.872161050951e-04 3.454121544091e-04 0.0 
0.0 0.0 0.0 
-8.202318207751e-05 2.433064461929e-03 0.0 
2.433064461929e-03 9.652490797685e-03 0.0 
0.0 0.0 0.0 
1.185219419647e-03 1.356965994295e-03 0.0 
1.356965994295e-03 5.647731708819e-03 0.0 
0.0 0.0 0.0 
8.755532906024e-05 -2.339952967528e-03 0.0 
-2.339952967528e-03 -5.662846575284e-04 0.0 
0.0 0.0 0.0 
-7.143223702983e-04 4.347855107061e-05 0.0 
4.347855107061e-05 1.215530355639e-02 0.0 
0.0 0.0 0.0 
3.166467368709e-05 2.113817009598e-05 0.0 
2.113817009598e-05 7.156085695122e-03 0.0 
0.0 0.0 0.0 
2.138844115656e-04 2.415145488068e-03 0.0 
2.415145488068e-03 8.791523840932e-03 0.0 
0.0 0.0 0.0 
1.280406272615e-04 2.583057178181e-03 0.0 
2.583057178181e-03 9.301389822695e-03 0.0 
0.0 0.0 0.0 
2.910688448110e-05 -5.381805034294e-05 0.0 
-5.381805034294e-05 5.222472690947e-03 0.0 
0.0 0.0 0.0 
1.575361903852e-04 2.520588176985e-03 0.0 
2.520588176985e-03 -3.589040245412e-03 0.0 
0.0 0.0 0.0 
-1.499870668922e-03 2.226886149610e-03 0.0 
2.226886149610e-03 5.392103936727e-03 0.0 
0.0 0.0 0.0 
-7.733838212954e-04 2.893380763063e-03 0.0 
2.893380763063e-03 4.099575040570e-03 0.0 
0.0 0.0 0.0 
-1.264995521947e-03 4.750835284607e-04 0.0 
4.750835284607e-04 1.123482328818e-02 0.0 
0.0 0.0 0.0 
1.092886039885e-03 2.132296352263e-03 0.0 
2.132296352263e-03 5.702897383268e-03 0.0 
0.0 0.0 0.0 
-3.621081322532e-04 4.525794188140e-04 0.0 
4.525794188140e-04 1.336208905196e-02 0.0 
0.0 0.0 0.0 
3.742951575734e-04 1.648879977552e-03 0.0 
1.648879977552e-03 7.286718234672e-03 0.0 
0.0 0.0 0.0 
-8.535948194035e-04 -1.695078005773e-03 0.0 
-1.695078005773e-03 3.282532065587e-04 0.0 
0.0 0.0 0.0 
-4.829733711772e-04 -7.748404037632e-04 0.0 
-7.748404037632e-04 6.817075842911e-04 0.0 
0.0 0.0 0.0 
-1.625953477375e-03 2.529396314849e-03 0.0 
2.529396314849e-03 3.983649474017e-03 0.0 
0.0 0.0 0.0 
-6.572801879186e-04 1.736438524225e-04 0.0 
1.736438524225e-04 1.226537762430e-02 0.0 
0.0 0.0 0.0 
-6.615771017993e-05 -3.277836218318e-04 0.0 
-3.277836218318e-04 2.648599372665e-03 0.0 
0.0 0.0 0.0 
-5.233142244059e-04 1.144531210781e-03 0.0 
1.144531210781e-03 1.311656445120e-02 0.0 
0.0 0.0 0.0 
1.548288050111e-04 -1.405616498004e-04 0.0 
-1.405616498004e-04 1.265949581306e-03 0.0 
0.0 0.0 0.0 
7.112083422538e-04 1.595239550529e-03 0.0 
1.595239550529e-03 6.734302144080e-03 0.0 
0.0 0.0 0.0 
-9.972564918013e-04 2.113594782171e-04 0.0 
2.113594782171e-04 1.124511371673e-02 0.0 
0.0 0.0 0.0 
2.151804706163e-04 2.322252454960e-03 0.0 
2.322252454960e-03 8.544721328090e-03 0.0 
0.0 0.0 0.0 
5.714741335090e-04 2.227655419547e-03 0.0 
2.227655419547e-03 7.547261020500e-03 0.0 
0.0 0.0 0.0 
-1.363897246259e-03 5.759040232578e-04 0.0 
5.759040232578e-04 1.121455149268e-02 0.0 
0.0 0.0 0.0 
4.684241356316e-04 6.897160234229e-04 0.0 
6.897160234229e-04 6.844752081693e-03 0.0 
0.0 0.0 0.0 
-4.189168916161e-04 1.327348139362e-03 0.0 
1.327348139362e-03 1.319957860794e-02 0.0 
0.0 0.0 0.0 
-2.497036306521e-04 1.206991472490e-04 0.0 
1.206991472490e-04 1.360590595532e-02 0.0 
0.0 0.0 0.0 
-1.567877071979e-03 2.676458408088e-03 0.0 
2.676458408088e-03 2.444527124792e-03 0.0 
0.0 0.0 0.0 
-4.794186372467e-04 1.009820380521e-03 0.0 
1.009820380521e-03 1.309609206635e-02 0.0 
0.0 0.0 0.0 
-4.558498667662e-05 2.540443019577e-03 0.0 
2.540443019577e-03 1.045206654394e-02 0.0 
0.0 0.0 0.0 
8.166493245758e-04 1.567097126906e-03 0.0 
1.567097126906e-03 6.741411552596e-03 0.0 
0.0 0.0 0.0 
6.820081284609e-04 2.242093244723e-03 0.0 
2.242093244723e-03 7.402401998555e-03 0.0 
0.0 0.0 0.0 
0.0 2.455404072052e-04 0.0 
2.455404072052e-04 7.405311298190e-03 0.0 
0.0 0.0 0.0 
-6.596124371568e-04 2.084913195198e-03 0.0 
2.084913195198e-03 1.059259917454e-02 0.0 
0.0 0.0 0.0 
-1.435514982890e-03 1.793758214185e-03 0.0 
1.793758214185e-03 -2.440642346631e-03 0.0 
0.0 0.0 0.0 
-1.458750991860e-04 3.196351388981e-03 0.0 
3.196351388981e-03 3.924402847377e-04 0.0 
0.0 0.0 0.0 
-6.146318919940e-04 2.176382976086e-03 0.0 
2.176382976086e-03 1.128084670352e-02 0.0 
0.0 0.0 0.0 
-1.174106894416e-03 5.334845740844e-04 0.0 
5.334845740844e-04 1.150309987107e-02 0.0 
0.0 0.0 0.0 
3.438358719610e-05 -3.267006040639e-05 0.0 
-3.267006040639e-05 6.860688089926e-03 0.0 
0.0 0.0 0.0 
4.395826841810e-04 2.268570041578e-03 0.0 
2.268570041578e-03 8.018470992099e-03 0.0 
0.0 0.0 0.0 
1.211677222746e-04 1.665247489462e-04 0.0 
1.665247489462e-04 7.031732104175e-03 0.0 
0.0 0.0 0.0 
-5.717456218068e-04 2.069985524099e-04 0.0 
2.069985524099e-04 1.264002390182e-02 0.0 
0.0 0.0 0.0 
2.163105379311e-04 2.205211352004e-03 0.0 
2.205211352004e-03 8.252493137637e-03 0.0 
0.0 0.0 0.0 
4.622071292775e-04 5.079660479627e-04 0.0 
5.079660479627e-04 6.432626575078e-03 0.0 
0.0 0.0 0.0 
5.313151825548e-04 6.005813578138e-04 0.0 
6.005813578138e-04 6.424074788011e-03 0.0 
0.0 0.0 0.0 
-7.107210624246e-05 -2.274298586036e-04 0.0 
-2.274298586036e-04 2.771519931179e-03 0.0 
0.0 0.0 0.0 
1.078712906935e-04 1.239384424363e-04 0.0 
1.239384424363e-04 7.470019427930e-03 0.0 
0.0 0.0 0.0 
-1.130658371402e-03 2.142880239978e-04 0.0 
2.142880239978e-04 1.087911668284e-02 0.0 
0.0 0.0 0.0 
-3.686655045969e-04 2.288482339472e-04 0.0 
2.288482339472e-04 1.330894547544e-02 0.0 
0.0 0.0 0.0 
-5.825769187671e-04 -9.051971087817e-04 0.0 
-9.051971087817e-04 8.773700730624e-04 0.0 
0.0 0.0 0.0 
-4.668262794912e-04 9.957432287123e-05 0.0 
9.957432287123e-05 1.307156690115e-02 0.0 
0.0 0.0 0.0 
-7.230391474378e-04 9.931625330216e-05 0.0 
9.931625330216e-05 1.218395572796e-02 0.0 
0.0 0.0 0.0 
3.865697732228e-04 7.557638950012e-06 0.0 
7.557638950012e-06 5.860829025646e-04 0.0 
0.0 0.0 0.0 
2.234070659689e-03 -1.589852815634e-03 0.0 
-1.589852815634e-03 -3.670167048159e-03 0.0 
0.0 0.0 0.0 
-4.937388659501e-04 2.217785159815e-03 0.0 
2.217785159815e-03 1.037631110246e-02 0.0 
0.0 0.0 0.0 
-2.085233473065e-04 6.736471930391e-04 0.0 
6.736471930391e-04 1.350214760665e-02 0.0 
0.0 0.0 0.0 
-3.381695564957e-04 1.028274259158e-04 0.0 
1.028274259158e-04 1.335612317619e-02 0.0 
0.0 0.0 0.0 
5.237729515122e-04 2.221680589790e-03 0.0 
2.221680589790e-03 7.882673271319e-03 0.0 
0.0 0.0 0.0 
-8.252502827489e-04 1.407705161415e-04 0.0 
1.407705161415e-04 1.149648438499e-02 0.0 
0.0 0.0 0.0 
2.654119892709e-04 -1.054720541496e-04 0.0 
-1.054720541496e-04 2.406411999600e-04 0.0 
0.0 0.0 0.0 
7.740523843749e-04 1.916738512979e-03 0.0 
1.916738512979e-03 -3.997583864595e-03 0.0 
0.0 0.0 0.0 
-2.163941600064e-05 -1.663380807644e-04 0.0 
-1.663380807644e-04 4.303411376678e-04 0.0 
0.0 0.0 0.0 
-4.637307841368e-04 -9.979268741914e-04 0.0 
-9.979268741914e-04 9.728415359771e-04 0.0 
0.0 0.0 0.0 
-1.378926940173e-03 3.378011863431e-03 0.0 
3.378011863431e-03 -1.795183268676e-03 0.0 
0.0 0.0 0.0 
-2.820622448396e-05 -2.520190664026e-04 0.0 
-2.520190664026e-04 3.656395151482e-03 0.0 
0.0 0.0 0.0 
5.571990537989e-05 1.980794743427e-05 0.0 
1.980794743427e-05 6.859570028611e-03 0.0 
0.0 0.0 0.0 
-5.035115455457e-04 1.888011823328e-03 0.0 
1.888011823328e-03 1.222154452263e-02 0.0 
0.0 0.0 0.0 
-1.425491960094e-03 7.917483898631e-04 0.0 
7.917483898631e-04 1.136232041384e-02 0.0 
0.0 0.0 0.0 
-1.803900552722e-05 -4.422118973689e-04 0.0 
-4.422118973689e-04 3.131014969004e-03 0.0 
0.0 0.0 0.0 
4.036501553479e-04 2.882172024288e-04 0.0 
2.882172024288e-04 6.420493659355e-03 0.0 
0.0 0.0 0.0 
8.567470528991e-04 1.055103914438e-03 0.0 
1.055103914438e-03 6.266554321545e-03 0.0 
0.0 0.0 0.0 
3.478549448321e-04 2.507857991269e-03 0.0 
2.507857991269e-03 8.680073943172e-03 0.0 
0.0 0.0 0.0 
-5.474713752984e-05 2.451248600961e-03 0.0 
2.451248600961e-03 9.952397643806e-03 0.0 
0.0 0.0 0.0 
-3.683386197112e-04 2.297603534414e-03 0.0 
2.297603534414e-03 1.067189018104e-02 0.0 
0.0 0.0 0.0 
-5.803786387374e-04 -7.018025283303e-04 0.0 
-7.018025283303e-04 8.502127285837e-04 0.0 
0.0 0.0 0.0 
5.893668414274e-04 -1.575823305037e-03 0.0 
-1.575823305037e-03 -4.056039347366e-03 0.0 
0.0 0.0 0.0 
7.106512311128e-05 -1.863578569001e-05 0.0 
-1.863578569001e-05 6.827588560550e-03 0.0 
0.0 0.0 0.0 
2.792159821032e-04 -2.449922328269e-05 0.0 
-2.449922328269e-05 6.135059851751e-04 0.0 
0.0 0.0 0.0 
2.828894864211e-04 6.987524611701e-06 0.0 
6.987524611701e-06 7.706525696454e-04 0.0 
0.0 0.0 0.0 
-8.172447968462e-04 3.174193278910e-03 0.0 
3.174193278910e-03 -4.839130709827e-04 0.0 
0.0 0.0 0.0 
1.121727644815e-05 -2.653916025289e-04 0.0 
-2.653916025289e-04 7.062358046579e-04 0.0 
0.0 0.0 0.0 
2.339928551369e-04 6.120601468740e-04 0.0 
6.120601468740e-04 6.845007734918e-03 0.0 
0.0 0.0 0.0 
-1.781679920195e-04 2.426053419233e-03 0.0 
2.426053419233e-03 1.128065859010e-02 0.0 
0.0 0.0 0.0 
-3.169846571782e-04 4.832517017391e-04 0.0 
4.832517017391e-04 1.336381912033e-02 0.0 
0.0 0.0 0.0 
1.508020801160e-04 2.428642082125e-03 0.0 
2.428642082125e-03 8.898388244282e-03 0.0 
0.0 0.0 0.0 
8.620141847520e-04 9.953656419526e-04 0.0 
9.953656419526e-04 5.988104944052e-03 0.0 
0.0 0.0 0.0 
-7.848925153735e-04 1.497696261428e-04 0.0 
1.497696261428e-04 1.171091208488e-02 0.0 
0.0 0.0 0.0 
0.0 9.248744328163e-04 0.0 
9.248744328163e-04 1.365761794365e-02 0.0 
0.0 0.0 0.0 
1.255084693528e-03 -2.486720500235e-03 0.0 
-2.486720500235e-03 -1.769411258427e-03 0.0 
0.0 0.0 0.0 
-9.385730140042e-04 3.117642645690e-05 0.0 
3.117642645690e-05 1.050746334967e-02 0.0 
0.0 0.0 0.0 
-6.757980935893e-04 -2.409916090983e-03 0.0 
-2.409916090983e-03 -1.079587669583e-05 0.0 
0.0 0.0 0.0 
2.391123617302e-04 -6.302145384701e-05 0.0 
-6.302145384701e-05 2.687650008866e-04 0.0 
0.0 0.0 0.0 
6.101739986675e-05 4.466771495712e-05 0.0 
4.466771495712e-05 7.532549229590e-03 0.0 
0.0 0.0 0.0 
-1.340253786209e-03 4.689948695578e-04 0.0 
4.689948695578e-04 1.084530814184e-02 0.0 
0.0 0.0 0.0 
2.449309679418e-04 -1.194115201707e-04 0.0 
-1.194115201707e-04 9.347318897113e-04 0.0 
0.0 0.0 0.0 
-4.559425952122e-05 -1.677633055091e-04 0.0 
-1.677633055091e-04 3.564893078119e-03 0.0 
0.0 0.0 0.0 
-2.711896930498e-04 2.512132557448e-03 0.0 
2.512132557448e-03 1.143750894913e-02 0.0 
0.0 0.0 0.0 
-4.513429291744e-04 6.225162518354e-04 0.0 
6.225162518354e-04 1.330248168625e-02 0.0 
0.0 0.0 0.0 
-2.643322620888e-04 1.470759082641e-03 0.0 
1.470759082641e-03 1.304638330008e-02 0.0 
0.0 0.0 0.0 
-5.890368898676e-05 -1.296327489628e-04 0.0 
-1.296327489628e-04 2.561526831435e-03 0.0 
0.0 0.0 0.0 
8.679259916362e-04 2.478172006477e-04 0.0 
2.478172006477e-04 -4.483879340854e-03 0.0 
0.0 0.0 0.0 
2.133945351532e-04 1.808967445589e-04 0.0 
1.808967445589e-04 6.987375939362e-03 0.0 
0.0 0.0 0.0 
-1.279890159733e-04 9.253028915379e-05 0.0 
9.253028915379e-05 1.386293143756e-02 0.0 
0.0 0.0 0.0 
1.855956999197e-07 -5.305145627856e-06 0.0 
-5.305145627856e-06 7.622904388890e-03 0.0 
0.0 0.0 0.0 
-8.259284746036e-04 2.584296698400e-05 0.0 
2.584296698400e-05 1.079054298797e-02 0.0 
0.0 0.0 0.0 
5.991312325810e-04 1.106779154670e-03 0.0 
1.106779154670e-03 6.434797349114e-03 0.0 
0.0 0.0 0.0 
1.422003952736e-04 -1.327331853000e-04 0.0 
-1.327331853000e-04 1.029534233602e-03 0.0 
0.0 0.0 0.0 
-4.319892724967e-04 1.155705961642e-03 0.0 
1.155705961642e-03 1.311731793436e-02 0.0 
0.0 0.0 0.0 
2.031868220778e-04 -7.923026841766e-05 0.0 
-7.923026841766e-05 2.783428848565e-04 0.0 
0.0 0.0 0.0 
2.747513463470e-04 9.184563511694e-04 0.0 
9.184563511694e-04 6.906672470972e-03 0.0 
0.0 0.0 0.0 
-4.466111882451e-04 1.620486906559e-03 0.0 
1.620486906559e-03 1.292341804525e-02 0.0 
0.0 0.0 0.0 
4.513113252245e-04 1.165647504651e-03 0.0 
1.165647504651e-03 -4.712627689165e-03 0.0 
0.0 0.0 0.0 
2.078422648431e-04 2.428480583440e-03 0.0 
2.428480583440e-03 8.786882649363e-03 0.0 
0.0 0.0 0.0 
-6.368077339260e-04 9.855367297743e-05 0.0 
9.855367297743e-05 1.245927377749e-02 0.0 
0.0 0.0 0.0 
-1.629023583672e-04 4.948202432107e-04 0.0 
4.948202432107e-04 1.356843639747e-02 0.0 
0.0 0.0 0.0 
0.0 2.070281928412e-03 0.0 
2.070281928412e-03 8.318948658407e-03 0.0 
0.0 0.0 0.0 
-7.145531271116e-04 -1.188698069714e-05 0.0 
-1.188698069714e-05 1.195317980465e-02 0.0 
0.0 0.0 0.0 
-1.673582418715e-04 2.353752703408e-03 0.0 
2.353752703408e-03 1.160965498712e-02 0.0 
0.0 0.0 0.0 
-5.870991831514e-04 1.403234587518e-03 0.0 
1.403234587518e-03 1.289151502539e-02 0.0 
0.0 0.0 0.0 
-6.499168718306e-04 8.390943320273e-05 0.0 
8.390943320273e-05 1.218065688976e-02 0.0 
0.0 0.0 0.0 
-2.973919665999e-04 2.296851910376e-03 0.0 
2.296851910376e-03 1.127315859229e-02 0.0 
0.0 0.0 0.0 
-6.307134741579e-05 -2.343145882128e-04 0.0 
-2.343145882128e-04 3.045070373193e-03 0.0 
0.0 0.0 0.0 
-8.721555806086e-04 4.037082588614e-06 0.0 
4.037082588614e-06 1.049998321836e-02 0.0 
0.0 0.0 0.0 
3.513108860353e-04 2.435297733024e-03 0.0 
2.435297733024e-03 8.534157200118e-03 0.0 
0.0 0.0 0.0 
-1.646619163247e-04 8.006648310154e-05 0.0 
8.006648310154e-05 1.363712216109e-02 0.0 
0.0 0.0 0.0 
5.718824620644e-04 7.019464449966e-06 0.0 
7.019464449966e-06 -1.601384017822e-04 0.0 
0.0 0.0 0.0 
-8.354859511590e-04 9.456796532412e-06 0.0 
9.456796532412e-06 1.048764572955e-02 0.0 
0.0 0.0 0.0 
4.167083793361e-06 -1.807708050952e-05 0.0 
-1.807708050952e-05 7.332235044131e-03 0.0 
0.0 0.0 0.0 
-5.300888833282e-05 -3.060293527866e-04 0.0 
-3.060293527866e-04 1.376264654233e-03 0.0 
0.0 0.0 0.0 
8.565159724350e-04 1.418727495254e-03 0.0 
1.418727495254e-03 6.611929974522e-03 0.0 
0.0 0.0 0.0 
-6.585819973408e-04 1.664746293616e-03 0.0 
1.664746293616e-03 1.258453742303e-02 0.0 
0.0 0.0 0.0 
-3.029876138917e-04 4.298082319603e-04 0.0 
4.298082319603e-04 1.355308165811e-02 0.0 
0.0 0.0 0.0 
8.307270570640e-05 -1.775347635282e-04 0.0 
-1.775347635282e-04 1.279015768324e-03 0.0 
0.0 0.0 0.0 
2.012463418848e-04 3.449584494746e-03 0.0 
3.449584494746e-03 -1.696666838995e-03 0.0 
0.0 0.0 0.0 
-2.087005675877e-05 2.068220421286e-05 0.0 
2.068220421286e-05 4.334404349976e-03 0.0 
0.0 0.0 0.0 
-5.053071342269e-04 1.096346097721e-04 0.0 
1.096346097721e-04 1.282949545272e-02 0.0 
0.0 0.0 0.0 
-4.616540694451e-03 -3.367331341039e-04 0.0 
-3.367331341039e-04 -2.606341392133e-03 0.0 
0.0 0.0 0.0 
-2.307053865169e-04 1.204698905022e-03 0.0 
1.204698905022e-03 1.327713937422e-02 0.0 
0.0 0.0 0.0 
-7.095080045699e-04 6.160846599038e-05 0.0 
6.160846599038e-05 1.184153970259e-02 0.0 
0.0 0.0 0.0 
-1.595694575448e-04 -2.379879493117e-03 0.0 
-2.379879493117e-03 -2.002894717561e-04 0.0 
0.0 0.0 0.0 
-7.810834769130e-04 8.356681095076e-05 0.0 
8.356681095076e-05 1.158185304137e-02 0.0 
0.0 0.0 0.0 
2.051788318929e-04 2.584675202098e-03 0.0 
2.584675202098e-03 9.109881180585e-03 0.0 
0.0 0.0 0.0 
-7.533295564133e-06 -6.409467939039e-05 0.0 
-6.409467939039e-05 4.526809854137e-03 0.0 
0.0 0.0 0.0 
-2.119848739485e-03 3.353318705668e-03 0.0 
3.353318705668e-03 2.765792643522e-04 0.0 
0.0 0.0 0.0 
-7.765434138818e-05 -2.667702072503e-04 0.0 
-2.667702072503e-04 2.783372146969e-03 0.0 
0.0 0.0 0.0 
1.561602918887e-05 -2.289907443134e-04 0.0 
-2.289907443134e-04 3.946575158675e-03 0.0 
0.0 0.0 0.0 
8.450827149176e-06 2.979014545943e-05 0.0 
2.979014545943e-05 4.706492326570e-03 0.0 
0.0 0.0 0.0 
4.733842905635e-04 2.164651955896e-03 0.0 
2.164651955896e-03 7.854670722457e-03 0.0 
0.0 0.0 0.0 
-3.059119635063e-05 -1.423702047460e-04 0.0 
-1.423702047460e-04 3.866375280450e-03 0.0 
0.0 0.0 0.0 
3.228448935522e-06 -1.410625112935e-04 0.0 
-1.410625112935e-04 4.112339871627e-03 0.0 
0.0 0.0 0.0 
-2.904359621247e-06 -2.207644327678e-04 0.0 
-2.207644327678e-04 6.233479074642e-04 0.0 
0.0 0.0 0.0 
2.393770964328e-04 1.647383088755e-04 0.0 
1.647383088755e-04 6.703624045240e-03 0.0 
0.0 0.0 0.0 
-4.360828343042e-05 2.474775393870e-03 0.0 
2.474775393870e-03 9.656790630187e-03 0.0 
0.0 0.0 0.0 
8.164407780913e-04 3.101383807474e-03 0.0 
3.101383807474e-03 -2.016320697960e-03 0.0 
0.0 0.0 0.0 
-1.321842864278e-04 6.095403212220e-05 0.0 
6.095403212220e-05 1.362704730861e-02 0.0 
0.0 0.0 0.0 
1.061421381898e-06 2.165551914026e-05 0.0 
2.165551914026e-05 7.320497707215e-03 0.0 
0.0 0.0 0.0 
-8.349081672734e-04 -1.707310457646e-05 0.0 
-1.707310457646e-05 1.081349238533e-02 0.0 
0.0 0.0 0.0 
-7.456958732700e-04 5.217542327768e-05 0.0 
5.217542327768e-05 1.183975385188e-02 0.0 
0.0 0.0 0.0 
-2.427025486818e-05 -1.625574872896e-04 0.0 
-1.625574872896e-04 3.868607412648e-03 0.0 
0.0 0.0 0.0 
-7.484593806839e-06 -1.950522430086e-04 0.0 
-1.950522430086e-04 3.931402974773e-03 0.0 
0.0 0.0 0.0 
-3.007344276940e-05 -1.182680631286e-04 0.0 
-1.182680631286e-04 4.100628103706e-03 0.0 
0.0 0.0 0.0 
9.255430839643e-04 1.438613192447e-03 0.0 
1.438613192447e-03 6.248688755353e-03 0.0 
0.0 0.0 0.0 
-4.392801218658e-04 -1.979693766999e-03 0.0 
-1.979693766999e-03 4.956606333157e-04 0.0 
0.0 0.0 0.0 
-1.482047534427e-04 2.551065068325e-03 0.0 
2.551065068325e-03 1.018601239165e-02 0.0 
0.0 0.0 0.0 
-7.989604613233e-04 4.109344531383e-05 0.0 
4.109344531383e-05 1.117017981470e-02 0.0 
0.0 0.0 0.0 
-4.380043133539e-04 1.132144237067e-03 0.0 
1.132144237067e-03 1.330278049324e-02 0.0 
0.0 0.0 0.0 
8.299766321671e-04 1.317418713970e-03 0.0 
1.317418713970e-03 6.233974221371e-03 0.0 
0.0 0.0 0.0 
-8.273289436058e-04 7.481309256594e-05 0.0 
7.481309256594e-05 1.158865065787e-02 0.0 
0.0 0.0 0.0 
-3.895213598277e-04 2.253367573504e-03 0.0 
2.253367573504e-03 1.108978230980e-02 0.0 
0.0 0.0 0.0 
4.923301804898e-04 2.192107677912e-03 0.0 
2.192107677912e-03 7.844329441261e-03 0.0 
0.0 0.0 0.0 
3.940926475856e-04 2.392468077067e-03 0.0 
2.392468077067e-03 8.386963793797e-03 0.0 
0.0 0.0 0.0 
-8.540660201261e-04 3.283228826328e-03 0.0 
3.283228826328e-03 -1.795614201329e-03 0.0 
0.0 0.0 0.0 
-4.749318881238e-04 2.272047420223e-03 0.0 
2.272047420223e-03 1.108797290019e-02 0.0 
0.0 0.0 0.0 
-3.052300688368e-04 2.449352835112e-03 0.0 
2.449352835112e-03 1.099338601478e-02 0.0 
0.0 0.0 0.0 
2.220797547892e-04 -1.811478837086e-04 0.0 
-1.811478837086e-04 5.849082297673e-04 0.0 
0.0 0.0 0.0 
-3.075774117633e-05 -2.114866838960e-04 0.0 
-2.114866838960e-04 3.665058234331e-03 0.0 
0.0 0.0 0.0 
-1.245524844873e-03 3.268381670039e-03 0.0 
3.268381670039e-03 -1.745013409089e-03 0.0 
0.0 0.0 0.0 
-4.610085467869e-04 2.346717873072e-03 0.0 
2.346717873072e-03 1.142938395849e-02 0.0 
0.0 0.0 0.0 
-8.348769326963e-04 -2.876139599327e-06 0.0 
-2.876139599327e-06 8.863485058946e-03 0.0 
0.0 0.0 0.0 
-8.064238709333e-04 9.031213798407e-06 0.0 
9.031213798407e-06 8.815182199248e-03 0.0 
0.0 0.0 0.0 
-8.256682400326e-04 -4.100787029456e-06 0.0 
-4.100787029456e-06 8.813917110089e-03 0.0 
0.0 0.0 0.0 
-8.044103660565e-04 -1.104871662413e-05 0.0 
-1.104871662413e-05 8.808582011417e-03 0.0 
0.0 0.0 0.0 
-8.195023752607e-04 -1.284010906489e-05 0.0 
-1.284010906489e-05 8.808398195103e-03 0.0 
0.0 0.0 0.0 
-8.003430983821e-04 -1.979723929781e-05 0.0 
-1.979723929781e-05 8.805402015250e-03 0.0 
0.0 0.0 0.0 
-8.138118901118e-04 -1.930774001218e-05 0.0 
-1.930774001218e-05 8.805634603024e-03 0.0 
0.0 0.0 0.0 
-7.899445604708e-04 -2.716648276723e-05 0.0 
-2.716648276723e-05 8.801113978587e-03 0.0 
0.0 0.0 0.0 
-8.071677514099e-04 -2.419954356373e-05 0.0 
-2.419954356373e-05 8.802124825745e-03 0.0 
0.0 0.0 0.0 
-7.741905914107e-04 -3.412461537177e-05 0.0 
-3.412461537177e-05 8.795171449717e-03 0.0 
0.0 0.0 0.0 
-7.993320120243e-04 -2.810610969795e-05 0.0 
-2.810610969795e-05 8.797542683381e-03 0.0 
0.0 0.0 0.0 
-7.534064367338e-04 -4.083696991176e-05 0.0 
-4.083696991176e-05 8.787290508047e-03 0.0 
0.0 0.0 0.0 
-7.900684171487e-04 -3.161583192780e-05 0.0 
-3.161583192780e-05 8.791640679488e-03 0.0 
0.0 0.0 0.0 
-7.278248974304e-04 -4.725844735188e-05 0.0 
-4.725844735188e-05 8.776833011539e-03 0.0 
0.0 0.0 0.0 
-7.793122122375e-04 -3.444672611162e-05 0.0 
-3.444672611162e-05 8.784017192622e-03 0.0 
0.0 0.0 0.0 
-6.973620581653e-04 -5.315651797202e-05 0.0 
-5.315651797202e-05 8.763796058704e-03 0.0 
0.0 0.0 0.0 
-9.756671690593e-04 4.660726427402e-04 0.0 
4.660726427402e-04 8.729628966691e-03 0.0 
0.0 0.0 0.0 
-7.671647647417e-04 -3.603482755674e-05 0.0 
-3.603482755674e-05 8.775034581402e-03 0.0 
0.0 0.0 0.0 
-6.616459844665e-04 -5.789796370644e-05 0.0 
-5.789796370644e-05 8.748474971706e-03 0.0 
0.0 0.0 0.0 
-5.681323233548e-04 2.154956964153e-04 0.0 
2.154956964153e-04 8.460967919639e-03 0.0 
0.0 0.0 0.0 
-7.553289530442e-04 -3.615484672402e-05 0.0 
-3.615484672402e-05 8.765201715719e-03 0.0 
0.0 0.0 0.0 
-6.208887946914e-04 -6.129652265165e-05 0.0 
-6.129652265165e-05 8.730992037557e-03 0.0 
0.0 0.0 0.0 
-1.215605523806e-03 3.704206853207e-04 0.0 
3.704206853207e-04 8.885265512800e-03 0.0 
0.0 0.0 0.0 
-7.446929835370e-04 -3.485247159211e-05 0.0 
-3.485247159211e-05 8.754898957402e-03 0.0 
0.0 0.0 0.0 
-5.757702911299e-04 -6.273044242439e-05 0.0 
-6.273044242439e-05 8.711155997259e-03 0.0 
0.0 0.0 0.0 
-7.364878668275e-04 -3.165697286635e-05 0.0 
-3.165697286635e-05 8.744264660784e-03 0.0 
0.0 0.0 0.0 
-5.274134297288e-04 -6.121185177771e-05 0.0 
-6.121185177771e-05 8.688904206881e-03 0.0 
0.0 0.0 0.0 
-7.333357480094e-04 -2.580518506635e-05 0.0 
-2.580518506635e-05 8.733669085087e-03 0.0 
0.0 0.0 0.0 
-4.773977424749e-04 -5.562711437248e-05 0.0 
-5.562711437248e-05 8.664303785813e-03 0.0 
0.0 0.0 0.0 
-1.565237588280e-03 9.113098115270e-04 0.0 
9.113098115270e-04 9.079764344487e-03 0.0 
0.0 0.0 0.0 
-7.381673280928e-04 -1.276571535875e-05 0.0 
-1.276571535875e-05 8.726251039333e-03 0.0 
0.0 0.0 0.0 
-4.279570075516e-04 -4.263420471517e-05 0.0 
-4.263420471517e-05 8.642410744533e-03 0.0 
0.0 0.0 0.0 
-7.617678418412e-04 3.376028069769e-06 0.0 
3.376028069769e-06 8.723860567665e-03 0.0 
0.0 0.0 0.0 
-3.865594558220e-04 -2.088869231777e-05 0.0 
-2.088869231777e-05 8.617903213128e-03 0.0 
0.0 0.0 0.0 
-3.638550449795e-04 1.965806929570e-05 0.0 
1.965806929570e-05 8.605014608061e-03 0.0 
0.0 0.0 0.0 
-8.046851408021e-04 3.684951880281e-05 0.0 
3.684951880281e-05 8.730993891592e-03 0.0 
0.0 0.0 0.0 
-3.836269186174e-04 8.729261657791e-05 0.0 
8.729261657791e-05 8.577140222265e-03 0.0 
0.0 0.0 0.0 
-8.929911318188e-04 7.352016420792e-05 0.0 
7.352016420792e-05 8.746372594395e-03 0.0 
0.0 0.0 0.0 
-4.855244766774e-04 2.293875591719e-04 0.0 
2.293875591719e-04 8.586559506720e-03 0.0 
0.0 0.0 0.0 
-9.703727046376e-04 1.762358193361e-04 0.0 
1.762358193361e-04 8.776005126395e-03 0.0 
0.0 0.0 0.0 
-1.410563040992e-03 3.572759570569e-04 0.0 
3.572759570569e-04 9.135832676030e-03 0.0 
0.0 0.0 0.0 
-8.436101927242e-04 -5.656373959617e-05 0.0 
-5.656373959617e-05 8.812861867449e-03 0.0 
0.0 0.0 0.0 
-8.739847661270e-04 6.324214617708e-05 0.0 
6.324214617708e-05 8.866815415629e-03 0.0 
0.0 0.0 0.0 
-8.800240721722e-04 -1.583885624075e-06 0.0 
-1.583885624075e-06 8.740267096354e-03 0.0 
0.0 0.0 0.0 
-8.374160326778e-04 9.769644146490e-06 0.0 
9.769644146490e-06 8.936323642354e-03 0.0 
0.0 0.0 0.0 
-1.653567802379e-03 9.585432185522e-04 0.0 
9.585432185522e-04 8.595316604877e-03 0.0 
0.0 0.0 0.0 
-8.348769326963e-04 -2.418801848539e-05 0.0 
-2.418801848539e-05 9.210747080764e-03 0.0 
0.0 0.0 0.0 
-8.407061167156e-04 -6.116820696614e-06 0.0 
-6.116820696614e-06 9.250343195140e-03 0.0 
0.0 0.0 0.0 
-8.256682400326e-04 -1.456116167688e-05 0.0 
-1.456116167688e-05 9.251150034546e-03 0.0 
0.0 0.0 0.0 
-8.384721387085e-04 -2.099146878677e-05 0.0 
-2.099146878677e-05 9.250209302198e-03 0.0 
0.0 0.0 0.0 
-8.195023752607e-04 -1.953593592005e-05 0.0 
-1.953593592005e-05 9.249884267348e-03 0.0 
0.0 0.0 0.0 
-8.383654720864e-04 -2.900969632885e-05 0.0 
-2.900969632885e-05 9.248110607041e-03 0.0 
0.0 0.0 0.0 
-8.138118901118e-04 -2.642452535560e-05 0.0 
-2.642452535560e-05 9.247348037027e-03 0.0 
0.0 0.0 0.0 
-8.387958062260e-04 -3.785487807892e-05 0.0 
-3.785487807892e-05 9.246473230536e-03 0.0 
0.0 0.0 0.0 
-8.071677514099e-04 -3.270513948141e-05 0.0 
-3.270513948141e-05 9.244691607531e-03 0.0 
0.0 0.0 0.0 
-8.414855058051e-04 -4.669866600853e-05 0.0 
-4.669866600853e-05 9.245697189985e-03 0.0 
0.0 0.0 0.0 
-7.993320120243e-04 -3.845736372137e-05 0.0 
-3.845736372137e-05 9.242276345689e-03 0.0 
0.0 0.0 0.0 
-8.444939915282e-04 -5.549770267597e-05 0.0 
-5.549770267597e-05 9.244898158715e-03 0.0 
0.0 0.0 0.0 
-7.900684171487e-04 -4.320641716100e-05 0.0 
-4.320641716100e-05 9.238929425569e-03 0.0 
0.0 0.0 0.0 
-8.502230464638e-04 -6.402262258655e-05 0.0 
-6.402262258655e-05 9.244122459651e-03 0.0 
0.0 0.0 0.0 
-7.793122122375e-04 -4.714410712516e-05 0.0 
-4.714410712516e-05 9.234534620098e-03 0.0 
0.0 0.0 0.0 
-1.150367731785e-03 4.595363812711e-04 0.0 
4.595363812711e-04 9.192585508518e-03 0.0 
0.0 0.0 0.0 
-8.554658401265e-04 -7.165820216725e-05 0.0 
-7.165820216725e-05 9.242277545534e-03 0.0 
0.0 0.0 0.0 
-1.266517696797e-03 3.378006554943e-04 0.0 
3.378006554943e-04 9.325668029624e-03 0.0 
0.0 0.0 0.0 
-7.671647647417e-04 -4.856712116487e-05 0.0 
-4.856712116487e-05 9.227416317143e-03 0.0 
0.0 0.0 0.0 
-8.640725223386e-04 -7.567822650591e-05 0.0 
-7.567822650591e-05 9.241260272780e-03 0.0 
0.0 0.0 0.0 
-7.553289530442e-04 -4.734058191712e-05 0.0 
-4.734058191712e-05 9.220294977407e-03 0.0 
0.0 0.0 0.0 
-8.772310688995e-04 -7.685707374741e-05 0.0 
-7.685707374741e-05 9.241570863901e-03 0.0 
0.0 0.0 0.0 
-7.446929835370e-04 -4.269407714986e-05 0.0 
-4.269407714986e-05 9.212758023069e-03 0.0 
0.0 0.0 0.0 
-8.948309413304e-04 -7.386928947758e-05 0.0 
-7.386928947758e-05 9.242680325131e-03 0.0 
0.0 0.0 0.0 
-9.703727046376e-04 3.848411542953e-04 0.0 
3.848411542953e-04 8.991652399132e-03 0.0 
0.0 0.0 0.0 
-7.364878668275e-04 -3.256774612775e-05 0.0 
-3.256774612775e-05 9.203648522419e-03 0.0 
0.0 0.0 0.0 
-9.199354665003e-04 -6.370088847242e-05 0.0 
-6.370088847242e-05 9.245202092858e-03 0.0 
0.0 0.0 0.0 
-7.333357480094e-04 -1.492697822850e-05 0.0 
-1.492697822850e-05 9.193789455937e-03 0.0 
0.0 0.0 0.0 
-9.560591766640e-04 -4.456743961158e-05 0.0 
-4.456743961158e-05 9.249357504750e-03 0.0 
0.0 0.0 0.0 
-7.381673280928e-04 1.641083295043e-05 0.0 
1.641083295043e-05 9.179980962512e-03 0.0 
0.0 0.0 0.0 
-1.000414578820e-03 -2.061183849047e-06 0.0 
-2.061183849047e-06 9.259331273833e-03 0.0 
0.0 0.0 0.0 
-7.617678418412e-04 6.538430394342e-05 0.0 
6.538430394342e-05 9.175187460608e-03 0.0 
0.0 0.0 0.0 
-1.076019770697e-03 5.285112514541e-05 0.0 
5.285112514541e-05 9.273278340445e-03 0.0 
0.0 0.0 0.0 
-1.130135901451e-03 1.663648083078e-04 0.0 
1.663648083078e-04 9.285386648544e-03 0.0 
0.0 0.0 0.0 
-8.046851408021e-04 1.465029428443e-04 0.0 
1.465029428443e-04 9.154943345512e-03 0.0 
0.0 0.0 0.0 
-1.360049910924e-03 6.505461029856e-04 0.0 
6.505461029856e-04 9.341368359356e-03 0.0 
0.0 0.0 0.0 
-8.929911318188e-04 2.783933020194e-04 0.0 
2.783933020194e-04 9.147328154884e-03 0.0 
0.0 0.0 0.0 
-1.288942438884e-03 4.244084545199e-04 0.0 
4.244084545199e-04 9.259098269290e-03 0.0 
0.0 0.0 0.0 
-8.523336982978e-04 -6.225049720765e-05 0.0 
-6.225049720765e-05 9.260045723667e-03 0.0 
0.0 0.0 0.0 
-8.227600719777e-04 4.847451741691e-05 0.0 
4.847451741691e-05 9.207106380931e-03 0.0 
0.0 0.0 0.0 
-8.373047959571e-04 -1.134678766697e-05 0.0 
-1.134678766697e-05 9.345021106984e-03 0.0 
0.0 0.0 0.0 
-8.374160326778e-04 -5.223708658406e-07 0.0 
-5.223708658406e-07 9.125494771420e-03 0.0 
0.0 0.0 0.0 
-1.215605523806e-03 7.356956563927e-04 0.0 
7.356956563927e-04 8.964089062323e-03 0.0 
0.0 0.0 0.0 
-8.467651733215e-04 -2.416957684487e-05 0.0 
-2.416957684487e-05 9.721616089159e-03 0.0 
0.0 0.0 0.0 
-8.407061167156e-04 -8.180121174112e-06 0.0 
-8.180121174112e-06 9.686151098237e-03 0.0 
0.0 0.0 0.0 
-8.469736468297e-04 -1.799860247824e-05 0.0 
-1.799860247824e-05 9.685017669745e-03 0.0 
0.0 0.0 0.0 
-8.384721387085e-04 -2.081704585660e-05 0.0 
-2.081704585660e-05 9.683089753946e-03 0.0 
0.0 0.0 0.0 
-8.529376333850e-04 -1.966465041331e-05 0.0 
-1.966465041331e-05 9.683405738481e-03 0.0 
0.0 0.0 0.0 
-8.383654720864e-04 -2.670259197727e-05 0.0 
-2.670259197727e-05 9.684480527080e-03 0.0 
0.0 0.0 0.0 
-8.614211595273e-04 -2.549497095718e-05 0.0 
-2.549497095718e-05 9.685083783063e-03 0.0 
0.0 0.0 0.0 
-8.387958062260e-04 -3.439489596855e-05 0.0 
-3.439489596855e-05 9.683805867832e-03 0.0 
0.0 0.0 0.0 
-8.693875616375e-04 -2.858726835404e-05 0.0 
-2.858726835404e-05 9.686175580005e-03 0.0 
0.0 0.0 0.0 
-8.414855058051e-04 -4.041536044788e-05 0.0 
-4.041536044788e-05 9.686733949876e-03 0.0 
0.0 0.0 0.0 
-8.842844957884e-04 -3.366035153355e-05 0.0 
-3.366035153355e-05 9.690450911184e-03 0.0 
0.0 0.0 0.0 
-8.444939915282e-04 -4.699912081481e-05 0.0 
-4.699912081481e-05 9.686543214634e-03 0.0 
0.0 0.0 0.0 
-8.987306037146e-04 -3.464676598733e-05 0.0 
-3.464676598733e-05 9.693928435125e-03 0.0 
0.0 0.0 0.0 
-1.248820008671e-03 3.673746479289e-04 0.0 
3.673746479289e-04 9.671147775085e-03 0.0 
0.0 0.0 0.0 
-8.502230464638e-04 -5.083013909157e-05 0.0 
-5.083013909157e-05 9.690313465349e-03 0.0 
0.0 0.0 0.0 
-9.211909513670e-04 -3.895384126717e-05 0.0 
-3.895384126717e-05 9.699831330331e-03 0.0 
0.0 0.0 0.0 
-1.130135901451e-03 3.247943325950e-04 0.0 
3.247943325950e-04 9.493620648027e-03 0.0 
0.0 0.0 0.0 
-8.554658401265e-04 -5.437791356329e-05 0.0 
-5.437791356329e-05 9.686979019228e-03 0.0 
0.0 0.0 0.0 
-9.433534305913e-04 -3.588906981867e-05 0.0 
-3.588906981867e-05 9.702925444127e-03 0.0 
0.0 0.0 0.0 
-1.306932016932e-03 2.967457450672e-04 0.0 
2.967457450672e-04 9.756304680012e-03 0.0 
0.0 0.0 0.0 
-8.640725223386e-04 -5.173733594199e-05 0.0 
-5.173733594199e-05 9.685796176953e-03 0.0 
0.0 0.0 0.0 
-9.729868838732e-04 -2.836591108493e-05 0.0 
-2.836591108493e-05 9.708965731483e-03 0.0 
0.0 0.0 0.0 
-8.772310688995e-04 -4.353853413580e-05 0.0 
-4.353853413580e-05 9.685674344214e-03 0.0 
0.0 0.0 0.0 
-1.008408231884e-03 -1.738609666451e-05 0.0 
-1.738609666451e-05 9.716326991211e-03 0.0 
0.0 0.0 0.0 
-8.948309413304e-04 -2.774390708977e-05 0.0 
-2.774390708977e-05 9.682178094804e-03 0.0 
0.0 0.0 0.0 
-1.374292036229e-03 5.058883133357e-04 0.0 
5.058883133357e-04 9.774000416546e-03 0.0 
0.0 0.0 0.0 
-1.050379415050e-03 3.320477507996e-06 0.0 
3.320477507996e-06 9.723482176142e-03 0.0 
0.0 0.0 0.0 
-9.199354665003e-04 3.556287454772e-07 0.0 
3.556287454772e-07 9.677381849764e-03 0.0 
0.0 0.0 0.0 
-9.560591766640e-04 4.418790227143e-05 0.0 
4.418790227143e-05 9.672281145343e-03 0.0 
0.0 0.0 0.0 
-1.102573914648e-03 3.665486010689e-05 0.0 
3.665486010689e-05 9.731840689072e-03 0.0 
0.0 0.0 0.0 
-1.000414578820e-03 1.150431613157e-04 0.0 
1.150431613157e-04 9.645404448914e-03 0.0 
0.0 0.0 0.0 
-1.170625464361e-03 7.977911035301e-05 0.0 
7.977911035301e-05 9.737971303184e-03 0.0 
0.0 0.0 0.0 
-1.076019770697e-03 2.292322792904e-04 0.0 
2.292322792904e-04 9.641626318599e-03 0.0 
0.0 0.0 0.0 
-1.205976872412e-03 1.735344922763e-04 0.0 
1.735344922763e-04 9.737024408796e-03 0.0 
0.0 0.0 0.0 
-1.331710522242e-03 3.624208845345e-04 0.0 
3.624208845345e-04 9.660597048959e-03 0.0 
0.0 0.0 0.0 
-8.201491980344e-04 -5.949979962505e-05 0.0 
-5.949979962505e-05 9.658997611778e-03 0.0 
0.0 0.0 0.0 
-8.575914961184e-04 5.024942813001e-05 0.0 
5.024942813001e-05 9.726003043015e-03 0.0 
0.0 0.0 0.0 
-8.373047959571e-04 -1.034786680123e-05 0.0 
-1.034786680123e-05 9.579746321882e-03 0.0 
0.0 0.0 0.0 
-8.410506466849e-04 3.548525458688e-06 0.0 
3.548525458688e-06 9.801075569453e-03 0.0 
0.0 0.0 0.0 
-1.266517696797e-03 5.582180997714e-04 0.0 
5.582180997714e-04 9.448501627361e-03 0.0 
0.0 0.0 0.0 
-8.467651733215e-04 -2.473949854500e-05 0.0 
-2.473949854500e-05 1.008360126038e-02 0.0 
0.0 0.0 0.0 
-8.391197587364e-04 -6.649677847983e-06 0.0 
-6.649677847983e-06 1.011088027881e-02 0.0 
0.0 0.0 0.0 
-8.469736468297e-04 -1.170402543539e-05 0.0 
-1.170402543539e-05 1.011150208402e-02 0.0 
0.0 0.0 0.0 
-8.527478015985e-04 -1.098145755311e-05 0.0 
-1.098145755311e-05 1.011761984858e-02 0.0 
0.0 0.0 0.0 
-8.529376333850e-04 -1.148016258682e-05 0.0 
-1.148016258682e-05 1.011770933328e-02 0.0 
0.0 0.0 0.0 
-8.643218307824e-04 -1.303665320317e-05 0.0 
-1.303665320317e-05 1.012382571459e-02 0.0 
0.0 0.0 0.0 
-8.614211595273e-04 -1.471843928173e-05 0.0 
-1.471843928173e-05 1.012418128127e-02 0.0 
0.0 0.0 0.0 
-8.766640768969e-04 -2.054587244871e-05 0.0 
-2.054587244871e-05 1.012532972011e-02 0.0 
0.0 0.0 0.0 
-8.693875616375e-04 -1.294798899149e-05 0.0 
-1.294798899149e-05 1.012293768442e-02 0.0 
0.0 0.0 0.0 
-8.933351017728e-04 -1.654993892058e-05 0.0 
-1.654993892058e-05 1.013324629931e-02 0.0 
0.0 0.0 0.0 
-8.842844957884e-04 -1.341494359185e-05 0.0 
-1.341494359185e-05 1.013185797759e-02 0.0 
0.0 0.0 0.0 
-9.196700314499e-04 -2.278316257317e-05 0.0 
-2.278316257317e-05 1.013929396846e-02 0.0 
0.0 0.0 0.0 
-1.298846783240e-03 3.133077542139e-04 0.0 
3.133077542139e-04 1.013597878104e-02 0.0 
0.0 0.0 0.0 
-8.987306037146e-04 -9.224675057773e-06 0.0 
-9.224675057773e-06 1.013282349095e-02 0.0 
0.0 0.0 0.0 
-1.313782080409e-03 2.498785172976e-04 0.0 
2.498785172976e-04 1.019485271141e-02 0.0 
0.0 0.0 0.0 
-9.385730140042e-04 -1.454381632720e-05 0.0 
-1.454381632720e-05 1.014798718264e-02 0.0 
0.0 0.0 0.0 
-9.211909513670e-04 -3.914389177800e-06 0.0 
-3.914389177800e-06 1.014202277056e-02 0.0 
0.0 0.0 0.0 
-9.819364806011e-04 -1.677909157285e-05 0.0 
-1.677909157285e-05 1.015594661287e-02 0.0 
0.0 0.0 0.0 
-9.433534305913e-04 7.506711888415e-06 0.0 
7.506711888415e-06 1.014038593920e-02 0.0 
0.0 0.0 0.0 
-1.021958631374e-03 -2.856967754379e-06 0.0 
-2.856967754379e-06 1.016492146731e-02 0.0 
0.0 0.0 0.0 
-9.729868838732e-04 2.408344590632e-05 0.0 
2.408344590632e-05 1.014483785483e-02 0.0 
0.0 0.0 0.0 
-1.062183715125e-03 1.529152693492e-05 0.0 
1.529152693492e-05 1.017376048673e-02 0.0 
0.0 0.0 0.0 
-1.205976872412e-03 2.982435548715e-04 0.0 
2.982435548715e-04 9.963312928209e-03 0.0 
0.0 0.0 0.0 
-1.008408231884e-03 4.980260006882e-05 0.0 
4.980260006882e-05 1.014580104368e-02 0.0 
0.0 0.0 0.0 
-1.114575159746e-03 4.289771263877e-05 0.0 
4.289771263877e-05 1.018131582007e-02 0.0 
0.0 0.0 0.0 
-1.050379415050e-03 8.902771434697e-05 0.0 
8.902771434697e-05 1.014075676418e-02 0.0 
0.0 0.0 0.0 
-1.170154640682e-03 8.861202522100e-05 0.0 
8.861202522100e-05 1.018593606387e-02 0.0 
0.0 0.0 0.0 
-1.234340040299e-03 1.589622144955e-04 0.0 
1.589622144955e-04 1.018980562814e-02 0.0 
0.0 0.0 0.0 
-1.102573914648e-03 1.476531788350e-04 0.0 
1.476531788350e-04 1.013090706519e-02 0.0 
0.0 0.0 0.0 
-1.170625464361e-03 2.261729615960e-04 0.0 
2.261729615960e-04 1.012365278375e-02 0.0 
0.0 0.0 0.0 
-1.367803495024e-03 4.115321018329e-04 0.0 
4.115321018329e-04 1.020848013417e-02 0.0 
0.0 0.0 0.0 
-1.333176022639e-03 3.109852791499e-04 0.0 
3.109852791499e-04 1.006767343120e-02 0.0 
0.0 0.0 0.0 
-8.538594391519e-04 -5.183123446054e-05 0.0 
-5.183123446054e-05 1.011458431138e-02 0.0 
0.0 0.0 0.0 
-8.338404261614e-04 5.802334131044e-05 0.0 
5.802334131044e-05 1.007872167746e-02 0.0 
0.0 0.0 0.0 
-8.462724894385e-04 8.262377016508e-07 0.0 
8.262377016508e-07 1.020965453568e-02 0.0 
0.0 0.0 0.0 
-8.410506466849e-04 7.475843900821e-06 0.0 
7.475843900821e-06 9.987392391962e-03 0.0 
0.0 0.0 0.0 
-1.306932016932e-03 4.528103911919e-04 0.0 
4.528103911919e-04 9.937425580381e-03 0.0 
0.0 0.0 0.0 

TENSORS element_materi_strain_plasti float
-6.466164772809e-04 8.245090744215e-04 0.0 
8.245090744215e-04 2.707374572581e-03 0.0 
0.0 0.0 -4.220722639049e-04 
-5.850828050599e-04 4.087408186800e-04 0.0 
4.087408186800e-04 2.442724633431e-03 0.0 
0.0 0.0 -4.303330772826e-04 
-1.282095494807e-03 4.001741098009e-04 0.0 
4.001741098009e-04 8.226379453025e-03 0.0 
0.0 0.0 -1.278236581085e-03 
-1.295884943363e-03 -1.217266030679e-04 0.0 
-1.217266030679e-04 8.480174258718e-03 0.0 
0.0 0.0 -1.255598393855e-03 
-9.118044046819e-04 2.773302772114e-04 0.0 
2.773302772114e-04 5.301634366726e-03 0.0 
0.0 0.0 -7.961861350945e-04 
2.510626383067e-04 3.899924767601e-04 0.0 
3.899924767601e-04 -1.017744063527e-06 0.0 
0.0 0.0 -1.071620975328e-04 
-8.944012644099e-04 3.000213301662e-04 0.0 
3.000213301662e-04 5.255597081572e-03 0.0 
0.0 0.0 -8.011023898636e-04 
-6.111001276048e-04 8.133198202813e-04 0.0 
8.133198202813e-04 2.541489709150e-03 0.0 
0.0 0.0 -4.045669272905e-04 
-9.178969371214e-04 -2.491713150355e-04 0.0 
-2.491713150355e-04 5.331335701126e-03 0.0 
0.0 0.0 -7.977904104816e-04 
-1.281432177268e-03 3.076617140319e-04 0.0 
3.076617140319e-04 8.397045163972e-03 0.0 
0.0 0.0 -1.253060141438e-03 
-1.093573439511e-03 5.627509268443e-05 0.0 
5.627509268443e-05 5.667510059544e-03 0.0 
0.0 0.0 -8.816510380685e-04 
-5.787511837025e-04 6.777709678412e-04 0.0 
6.777709678412e-04 2.088119972159e-03 0.0 
0.0 0.0 -3.735031833740e-04 
-1.326305648993e-03 1.334625464656e-04 0.0 
1.334625464656e-04 8.251440389062e-03 0.0 
0.0 0.0 -1.259187713256e-03 
-9.724653634380e-04 3.053641968768e-04 0.0 
3.053641968768e-04 5.663135226582e-03 0.0 
0.0 0.0 -8.526168115438e-04 
-1.330762641967e-03 -3.008650578863e-04 0.0 
-3.008650578863e-04 8.383102825445e-03 0.0 
0.0 0.0 -1.289538875031e-03 
-1.321345684109e-03 2.719191787034e-04 0.0 
2.719191787034e-04 8.617215783831e-03 0.0 
0.0 0.0 -1.285984941237e-03 
-9.140896497734e-04 7.519541139523e-05 0.0 
7.519541139523e-05 5.296976735505e-03 0.0 
0.0 0.0 -7.740676797406e-04 
0.0 0.0 0.0 
0.0 0.0 0.0 
0.0 0.0 0.0 
-3.519099227855e-04 -1.443334347486e-04 0.0 
-1.443334347486e-04 1.817532010240e-03 0.0 
0.0 0.0 -2.776016825098e-04 
-3.997644766498e-04 4.954726061119e-05 0.0 
4.954726061119e-05 1.673764597630e-03 0.0 
0.0 0.0 -3.031105466646e-04 
-1.276969282696e-03 -1.363061038713e-04 0.0 
-1.363061038713e-04 8.471794626493e-03 0.0 
0.0 0.0 -1.250388265701e-03 
-6.432162703731e-04 5.512102898043e-04 0.0 
5.512102898043e-04 2.885045796034e-03 0.0 
0.0 0.0 -4.811142067971e-04 
-6.884954101540e-04 3.994199898237e-04 0.0 
3.994199898237e-04 3.234457200495e-03 0.0 
0.0 0.0 -5.091556215902e-04 
-1.086615628820e-03 -2.931322765965e-04 0.0 
-2.931322765965e-04 7.458132473520e-03 0.0 
0.0 0.0 -1.210372970477e-03 
-1.022288100468e-03 3.987168263927e-04 0.0 
3.987168263927e-04 6.009421001038e-03 0.0 
0.0 0.0 -9.130988374533e-04 
-1.132573975630e-03 -2.410939857696e-04 0.0 
-2.410939857696e-04 6.073086075411e-03 0.0 
0.0 0.0 -9.179597371190e-04 
-8.591992327558e-04 1.320513177097e-04 0.0 
1.320513177097e-04 4.879471040969e-03 0.0 
0.0 0.0 -7.148082707961e-04 
-1.227939719405e-03 4.897213587292e-04 0.0 
4.897213587292e-04 8.231185118654e-03 0.0 
0.0 0.0 -1.266047838742e-03 
-1.043323281561e-03 -5.190539471628e-05 0.0 
-5.190539471628e-05 6.052750555350e-03 0.0 
0.0 0.0 -9.113908267906e-04 
-1.155289536852e-03 -1.768880545786e-05 0.0 
-1.768880545786e-05 7.700571454284e-03 0.0 
0.0 0.0 -1.237914324842e-03 
3.591818895870e-04 -1.087919908418e-03 0.0 
-1.087919908418e-03 2.306926407283e-04 0.0 
0.0 0.0 -2.528033701351e-04 
-5.253251415500e-05 -7.346267826167e-05 0.0 
-7.346267826167e-05 5.706227414438e-04 0.0 
0.0 0.0 -1.059755802940e-04 
-1.328657286874e-03 4.996781592111e-04 0.0 
4.996781592111e-04 8.531045122136e-03 0.0 
0.0 0.0 -1.261301343383e-03 
-1.246135843572e-03 -2.165566539215e-04 0.0 
-2.165566539215e-04 7.113329539199e-03 0.0 
0.0 0.0 -1.090200430068e-03 
-1.222640564805e-03 -5.172125954847e-04 0.0 
-5.172125954847e-04 8.023175699372e-03 0.0 
0.0 0.0 -1.254989870190e-03 
-1.362336754091e-03 1.038272021812e-04 0.0 
1.038272021812e-04 8.593232231463e-03 0.0 
0.0 0.0 -1.314886350686e-03 
-1.333817909252e-03 -6.741910836282e-04 0.0 
-6.741910836282e-04 8.572481383167e-03 0.0 
0.0 0.0 -1.314653105918e-03 
-1.152787385481e-03 3.395804623759e-04 0.0 
3.395804623759e-04 7.780236807800e-03 0.0 
0.0 0.0 -1.264739017786e-03 
-8.345100331917e-04 -3.032908507100e-04 0.0 
-3.032908507100e-04 4.793915913410e-03 0.0 
0.0 0.0 -7.380763454961e-04 
-8.314689275844e-04 3.674750294880e-04 0.0 
3.674750294880e-04 4.862282802739e-03 0.0 
0.0 0.0 -7.371174501546e-04 
-7.446435526587e-04 2.495366517639e-04 0.0 
2.495366517639e-04 3.730189536197e-03 0.0 
0.0 0.0 -5.794556523337e-04 
-1.240577876015e-03 -2.606603701506e-04 0.0 
-2.606603701506e-04 7.945807599574e-03 0.0 
0.0 0.0 -1.280756488215e-03 
-5.279799311040e-04 1.102170611227e-03 0.0 
1.102170611227e-03 1.773978523889e-03 0.0 
0.0 0.0 -3.207852484642e-04 
-8.673432961900e-04 2.038482856540e-04 0.0 
2.038482856540e-04 4.641456270313e-03 0.0 
0.0 0.0 -7.350059072715e-04 
-1.271467539957e-03 -7.879660805606e-05 0.0 
-7.879660805606e-05 8.302426141521e-03 0.0 
0.0 0.0 -1.212858513926e-03 
-5.775885694842e-04 8.848405614820e-04 0.0 
8.848405614820e-04 1.777381832978e-03 0.0 
0.0 0.0 -3.198426158856e-04 
2.130878448261e-04 -2.803383724960e-04 0.0 
-2.803383724960e-04 -1.640750498909e-05 0.0 
0.0 0.0 -8.429157421588e-05 
-1.252952730617e-03 9.194498370430e-05 0.0 
9.194498370430e-05 8.113365198973e-03 0.0 
0.0 0.0 -1.234743356787e-03 
1.618564024128e-06 -4.086337075162e-06 0.0 
-4.086337075162e-06 6.435399236609e-07 0.0 
0.0 0.0 -9.694731204809e-07 
-9.377652680597e-04 -7.279277581159e-05 0.0 
-7.279277581159e-05 5.473641853479e-03 0.0 
0.0 0.0 -8.229436299569e-04 
-7.184238485782e-04 3.283816114982e-04 0.0 
3.283816114982e-04 3.500159598670e-03 0.0 
0.0 0.0 -5.440916476828e-04 
-4.407403860860e-04 -1.000193585770e-04 0.0 
-1.000193585770e-04 2.276874889741e-03 0.0 
0.0 0.0 -3.443810396916e-04 
3.693556118723e-04 -1.150080954677e-03 0.0 
-1.150080954677e-03 2.564828416198e-04 0.0 
0.0 0.0 -2.682164800680e-04 
-6.981340931129e-04 4.826618162809e-04 0.0 
4.826618162809e-04 3.375109354798e-03 0.0 
0.0 0.0 -5.489460876789e-04 
-1.294047200749e-03 3.426820678350e-04 0.0 
3.426820678350e-04 8.360890520438e-03 0.0 
0.0 0.0 -1.282189168212e-03 
-6.426921289281e-04 -2.477141885566e-04 0.0 
-2.477141885566e-04 2.972149177427e-03 0.0 
0.0 0.0 -4.512233509908e-04 
-5.071100590753e-04 7.724547813732e-05 0.0 
7.724547813732e-05 2.167123717160e-03 0.0 
0.0 0.0 -3.694212080277e-04 
-1.248804674603e-03 1.204053078386e-04 0.0 
1.204053078386e-04 7.152497866114e-03 0.0 
0.0 0.0 -1.087734043504e-03 
-2.199405617637e-04 -6.207470745057e-05 0.0 
-6.207470745057e-05 1.342683867831e-03 0.0 
0.0 0.0 -2.189683579105e-04 
-1.315587936217e-03 -1.318704737137e-04 0.0 
-1.318704737137e-04 8.629398526663e-03 0.0 
0.0 0.0 -1.285320035817e-03 
0.0 0.0 0.0 
0.0 0.0 0.0 
0.0 0.0 0.0 
-1.104248090582e-03 6.042449065024e-04 0.0 
6.042449065024e-04 7.502345308807e-03 0.0 
0.0 0.0 -1.210824713543e-03 
-6.118289487359e-04 1.052783847498e-03 0.0 
1.052783847498e-03 3.133960488999e-03 0.0 
0.0 0.0 -5.497085007362e-04 
3.930006713422e-04 -1.150166211052e-03 0.0 
-1.150166211052e-03 2.323329664583e-04 0.0 
0.0 0.0 -2.680001304859e-04 
-1.319367167403e-03 -3.421260873299e-04 0.0 
-3.421260873299e-04 8.223808012733e-03 0.0 
0.0 0.0 -1.257478522087e-03 
-6.824305458781e-04 5.038519007458e-04 0.0 
5.038519007458e-04 3.122644429912e-03 0.0 
0.0 0.0 -5.137572693775e-04 
0.0 0.0 0.0 
0.0 0.0 0.0 
0.0 0.0 0.0 
-1.302579274791e-03 3.856077973971e-04 0.0 
3.856077973971e-04 8.474035595977e-03 0.0 
0.0 0.0 -1.261660853087e-03 
-3.055720632183e-04 -1.064577386819e-03 0.0 
-1.064577386819e-03 1.239084830307e-03 0.0 
0.0 0.0 -3.052032381971e-04 
-1.275451108923e-03 4.835577884085e-04 0.0 
4.835577884085e-04 8.123671911160e-03 0.0 
0.0 0.0 -1.282376455277e-03 
-1.145904955508e-03 -3.118374997867e-04 0.0 
-3.118374997867e-04 6.272168097955e-03 0.0 
0.0 0.0 -9.556290573178e-04 
-1.338499280800e-03 2.408371898962e-04 0.0 
2.408371898962e-04 8.775782511843e-03 0.0 
0.0 0.0 -1.338499280800e-03 
-1.192625588921e-03 4.461210467852e-04 0.0 
4.461210467852e-04 7.634783606740e-03 0.0 
0.0 0.0 -1.232909111256e-03 
-2.127254236185e-05 1.891430361426e-04 0.0 
1.891430361426e-04 5.160571140730e-04 0.0 
0.0 0.0 -1.295286970291e-04 
-6.935849542252e-04 2.344127444435e-05 0.0 
2.344127444435e-05 2.990888035910e-03 0.0 
0.0 0.0 -4.777371989943e-04 
-1.295701123542e-03 1.509088819434e-05 0.0 
1.509088819434e-05 8.469943460322e-03 0.0 
0.0 0.0 -1.262626981217e-03 
-1.324502073679e-03 3.744328644392e-04 0.0 
3.744328644392e-04 8.596934185840e-03 0.0 
0.0 0.0 -1.265352048664e-03 
-2.411922616665e-04 1.053006289260e-03 0.0 
1.053006289260e-03 1.157414957781e-03 0.0 
0.0 0.0 -3.599094611647e-04 
-2.769907565586e-04 -8.829481836090e-05 0.0 
-8.829481836090e-05 1.134623594574e-03 0.0 
0.0 0.0 -2.366757893512e-04 
-2.181753936334e-04 1.161392611074e-03 0.0 
1.161392611074e-03 1.149876313961e-03 0.0 
0.0 0.0 -3.564703237892e-04 
-2.758740996359e-04 -8.746279552454e-04 0.0 
-8.746279552454e-04 1.152039496951e-03 0.0 
0.0 0.0 -3.439500825601e-04 
-8.978965614641e-04 9.154439014956e-05 0.0 
9.154439014956e-05 5.029293334098e-03 0.0 
0.0 0.0 -7.918363975426e-04 
-6.733819819602e-04 4.712092501630e-04 0.0 
4.712092501630e-04 3.018715837704e-03 0.0 
0.0 0.0 -4.749402310763e-04 
-6.256408849580e-04 5.270574211380e-04 0.0 
5.270574211380e-04 2.559551606748e-03 0.0 
0.0 0.0 -4.438329512050e-04 
-9.725152992593e-04 -1.918915712341e-04 0.0 
-1.918915712341e-04 5.553894553160e-03 0.0 
0.0 0.0 -8.336771054075e-04 
-9.515395304919e-04 2.688463451821e-04 0.0 
2.688463451821e-04 5.521722972354e-03 0.0 
0.0 0.0 -8.358076868167e-04 
-1.183410575090e-03 -2.693387168119e-04 0.0 
-2.693387168119e-04 6.452199734420e-03 0.0 
0.0 0.0 -9.867109252839e-04 
-1.231001359755e-03 1.776752657648e-04 0.0 
1.776752657648e-04 6.972617785685e-03 0.0 
0.0 0.0 -1.058576829647e-03 
-1.159508113008e-03 2.069980553471e-04 0.0 
2.069980553471e-04 7.153965750682e-03 0.0 
0.0 0.0 -1.085941371602e-03 
-9.167398449037e-04 -2.379223024375e-04 0.0 
-2.379223024375e-04 5.214431434648e-03 0.0 
0.0 0.0 -7.983229688164e-04 
-9.629239381275e-05 -7.847678025284e-05 0.0 
-7.847678025284e-05 3.293444492904e-04 0.0 
0.0 0.0 -9.987945234756e-05 
-9.298280525188e-04 1.832074445445e-04 0.0 
1.832074445445e-04 5.072594773826e-03 0.0 
0.0 0.0 -7.928983479555e-04 
-1.152068192651e-03 -8.618068735251e-05 0.0 
-8.618068735251e-05 7.066072062095e-03 0.0 
0.0 0.0 -1.069439317440e-03 
-1.125567912536e-03 1.438213412546e-04 0.0 
1.438213412546e-04 7.130378012797e-03 0.0 
0.0 0.0 -1.046447409317e-03 
-1.354248964991e-03 2.488047583645e-04 0.0 
2.488047583645e-04 9.041954327214e-03 0.0 
0.0 0.0 -1.319970921405e-03 
-1.236862548615e-03 6.047335938228e-05 0.0 
6.047335938228e-05 8.106142459015e-03 0.0 
0.0 0.0 -1.294194962782e-03 
-9.013588349204e-04 -3.564785080674e-05 0.0 
-3.564785080674e-05 5.032133509131e-03 0.0 
0.0 0.0 -7.889745663688e-04 
-1.254766552398e-03 -3.118115606911e-04 0.0 
-3.118115606911e-04 8.236373731402e-03 0.0 
0.0 0.0 -1.263183913703e-03 
-9.880175404899e-04 -1.466486724576e-04 0.0 
-1.466486724576e-04 5.952185502159e-03 0.0 
0.0 0.0 -9.040008563810e-04 
-6.291314004619e-04 6.895076894316e-04 0.0 
6.895076894316e-04 3.149500208419e-03 0.0 
0.0 0.0 -5.198799001330e-04 
-8.730449846052e-04 -1.408519575968e-04 0.0 
-1.408519575968e-04 5.083535477325e-03 0.0 
0.0 0.0 -7.643292725053e-04 
-1.347992785810e-03 5.931491654167e-05 0.0 
5.931491654167e-05 8.400156878011e-03 0.0 
0.0 0.0 -1.287517816355e-03 
-8.262228282774e-04 1.447902815746e-04 0.0 
1.447902815746e-04 6.297334361413e-03 0.0 
0.0 0.0 -1.043751955586e-03 
-1.104569420112e-03 1.448019849648e-04 0.0 
1.448019849648e-04 7.556047747294e-03 0.0 
0.0 0.0 -1.209599240962e-03 
-4.538367894760e-04 9.757826283503e-04 0.0 
9.757826283503e-04 2.565554738313e-03 0.0 
0.0 0.0 -4.747543016519e-04 
2.029884590449e-04 -8.599336091252e-04 0.0 
-8.599336091252e-04 2.611091082078e-04 0.0 
0.0 0.0 -1.988989573940e-04 
-1.297459135418e-03 -2.747475562559e-04 0.0 
-2.747475562559e-04 7.787009671767e-03 0.0 
0.0 0.0 -1.189902873528e-03 
-1.189086276409e-03 1.093944519264e-04 0.0 
1.093944519264e-04 7.587261230545e-03 0.0 
0.0 0.0 -1.108790581071e-03 
7.624507231963e-05 -2.164748674539e-04 0.0 
-2.164748674539e-04 4.178589710884e-05 0.0 
0.0 0.0 -5.058470118363e-05 
-1.283662232086e-03 -3.116749921630e-04 0.0 
-3.116749921630e-04 8.203749873262e-03 0.0 
0.0 0.0 -1.285127980003e-03 
-1.117454671525e-03 5.890310527375e-04 0.0 
5.890310527375e-04 6.771147145683e-03 0.0 
0.0 0.0 -1.051491716222e-03 
2.129630744421e-04 -9.499020889305e-05 0.0 
-9.499020889305e-05 2.730652041404e-04 0.0 
0.0 0.0 -1.433710470045e-04 
-4.646091997464e-04 1.130911332871e-03 0.0 
1.130911332871e-03 3.315295093012e-03 0.0 
0.0 0.0 -6.309931931857e-04 
-8.659480951891e-04 9.706201231431e-05 0.0 
9.706201231431e-05 4.691930850523e-03 0.0 
0.0 0.0 -7.153918394734e-04 
-8.128195131981e-04 -2.696429011542e-04 0.0 
-2.696429011542e-04 3.582326768313e-03 0.0 
0.0 0.0 -5.772375537024e-04 
-5.795319369569e-04 9.930078575254e-04 0.0 
9.930078575254e-04 2.722691248666e-03 0.0 
0.0 0.0 -4.852398935310e-04 
-5.900753072712e-04 6.920056491215e-04 0.0 
6.920056491215e-04 3.182816884513e-03 0.0 
0.0 0.0 -5.471823052058e-04 
-1.301859315623e-03 -1.904737940513e-04 0.0 
-1.904737940513e-04 8.142812636608e-03 0.0 
0.0 0.0 -1.283833066805e-03 
-9.523212659311e-04 1.958273368285e-04 0.0 
1.958273368285e-04 5.865970295395e-03 0.0 
0.0 0.0 -8.766975940251e-04 
-5.541698138184e-04 1.190551615049e-03 0.0 
1.190551615049e-03 2.836925707114e-03 0.0 
0.0 0.0 -5.122473358773e-04 
-4.084206622420e-04 -7.278847424947e-04 0.0 
-7.278847424947e-04 1.354708172608e-03 0.0 
0.0 0.0 -2.295267891405e-04 
-9.046551402062e-04 3.103540058347e-04 0.0 
3.103540058347e-04 5.221480629983e-03 0.0 
0.0 0.0 -7.744920945421e-04 
-1.163420538902e-03 -6.301653344554e-05 0.0 
-6.301653344554e-05 7.412623996309e-03 0.0 
0.0 0.0 -1.129288753466e-03 
-5.271843801054e-04 7.884919210617e-04 0.0 
7.884919210617e-04 2.864417005275e-03 0.0 
0.0 0.0 -5.109724225979e-04 
5.534592465795e-05 9.039028363928e-04 0.0 
9.039028363928e-04 4.831251439840e-04 0.0 
0.0 0.0 -2.307733151323e-04 
-8.073832098114e-04 1.503125105248e-04 0.0 
1.503125105248e-04 4.217521397372e-03 0.0 
0.0 0.0 -6.470401313397e-04 
-8.043937078593e-04 -1.245165173277e-04 0.0 
-1.245165173277e-04 3.751204721582e-03 0.0 
0.0 0.0 -5.578851714504e-04 
-7.622885537649e-04 4.316670476422e-04 0.0 
4.316670476422e-04 3.890857300125e-03 0.0 
0.0 0.0 -6.167189930163e-04 
-1.313795093192e-03 3.745855682538e-04 0.0 
3.745855682538e-04 8.614675897131e-03 0.0 
0.0 0.0 -1.290671971449e-03 
1.991130479106e-04 9.381873505590e-04 0.0 
9.381873505590e-04 3.095528624407e-04 0.0 
0.0 0.0 -2.179996758648e-04 
-1.118912346163e-03 3.069253467211e-05 0.0 
3.069253467211e-05 5.953637467028e-03 0.0 
0.0 0.0 -9.216843799351e-04 
-1.302832962065e-03 2.769223245220e-04 0.0 
2.769223245220e-04 8.470819943817e-03 0.0 
0.0 0.0 -1.256690274141e-03 
-7.596340248727e-04 7.382796594352e-04 0.0 
7.382796594352e-04 4.031537584483e-03 0.0 
0.0 0.0 -6.588732905211e-04 
-7.779772953584e-04 1.836806670251e-04 0.0 
1.836806670251e-04 3.983301519145e-03 0.0 
0.0 0.0 -6.139229799761e-04 
-1.231803605678e-03 -5.782093166128e-05 0.0 
-5.782093166128e-05 8.028152931577e-03 0.0 
0.0 0.0 -1.254964138299e-03 
-1.328106245368e-03 -3.359343714767e-04 0.0 
-3.359343714767e-04 8.269862829300e-03 0.0 
0.0 0.0 -1.261070974318e-03 
-1.177616370787e-03 5.503788424212e-05 0.0 
5.503788424212e-05 6.447345049328e-03 0.0 
0.0 0.0 -9.873713238705e-04 
-7.975389004980e-04 3.851368616877e-04 0.0 
3.851368616877e-04 4.370903509068e-03 0.0 
0.0 0.0 -6.916138708610e-04 
-1.195768822005e-03 -1.347190958518e-04 0.0 
-1.347190958518e-04 8.136693957771e-03 0.0 
0.0 0.0 -1.270330610962e-03 
-7.600104695776e-04 6.621541633523e-04 0.0 
6.621541633523e-04 3.915062890853e-03 0.0 
0.0 0.0 -6.326048069937e-04 
-1.276977184880e-03 1.361446544635e-04 0.0 
1.361446544635e-04 8.444479482518e-03 0.0 
0.0 0.0 -1.283174495648e-03 
-1.281656246909e-03 5.918270400850e-04 0.0 
5.918270400850e-04 8.394460336114e-03 0.0 
0.0 0.0 -1.267437373369e-03 
-9.916900482218e-04 -1.353869196216e-04 0.0 
-1.353869196216e-04 5.594925371490e-03 0.0 
0.0 0.0 -8.543707170918e-04 
-1.059679930627e-03 2.378363673836e-04 0.0 
2.378363673836e-04 6.573353481791e-03 0.0 
0.0 0.0 -9.817831382938e-04 
-7.605699351815e-04 3.748556655775e-04 0.0 
3.748556655775e-04 3.967103975153e-03 0.0 
0.0 0.0 -6.293189184696e-04 
-7.420000060583e-04 4.704307559795e-04 0.0 
4.704307559795e-04 3.646692949105e-03 0.0 
0.0 0.0 -5.830241378053e-04 
-8.001161774359e-04 7.418992546282e-04 0.0 
7.418992546282e-04 4.429271101410e-03 0.0 
0.0 0.0 -7.211932326589e-04 
-4.509036314279e-04 9.161005774141e-04 0.0 
9.161005774141e-04 2.969896787124e-03 0.0 
0.0 0.0 -5.383041810906e-04 
-8.768683131663e-04 -1.698577199285e-04 0.0 
-1.698577199285e-04 5.218733852389e-03 0.0 
0.0 0.0 -7.693993191400e-04 
-3.984078038155e-04 7.031353492297e-04 0.0 
7.031353492297e-04 3.390130310364e-03 0.0 
0.0 0.0 -6.275039421266e-04 
-8.830553488541e-05 -1.169663280731e-04 0.0 
-1.169663280731e-04 3.137961635653e-04 0.0 
0.0 0.0 -9.663884086279e-05 
-9.202478516251e-04 -5.770930012148e-06 0.0 
-5.770930012148e-06 5.620779502953e-03 0.0 
0.0 0.0 -8.171079392438e-04 
-3.114395398576e-04 -3.263303537109e-05 0.0 
-3.263303537109e-05 1.213615237241e-03 0.0 
0.0 0.0 -2.373169254524e-04 
-8.400103073364e-04 1.183268532165e-04 0.0 
1.183268532165e-04 4.465364634510e-03 0.0 
0.0 0.0 -6.809683978454e-04 
-1.226720591274e-03 -2.033245432446e-04 0.0 
-2.033245432446e-04 7.901279716244e-03 0.0 
0.0 0.0 -1.284796145094e-03 
-5.032521871548e-04 1.323397128945e-03 0.0 
1.323397128945e-03 2.524146629484e-03 0.0 
0.0 0.0 -4.767992880414e-04 
-1.206015416419e-03 1.351161918146e-04 0.0 
1.351161918146e-04 6.706761080456e-03 0.0 
0.0 0.0 -1.021089721936e-03 
-5.854397783758e-04 6.900577011398e-04 0.0 
6.900577011398e-04 2.034319527358e-03 0.0 
0.0 0.0 -3.540742325023e-04 
-8.487428613626e-04 6.354315705334e-04 0.0 
6.354315705334e-04 6.259047629254e-03 0.0 
0.0 0.0 -1.044905595188e-03 
-9.023795236384e-04 1.774952439286e-05 0.0 
1.774952439286e-05 5.056579998417e-03 0.0 
0.0 0.0 -7.899655494116e-04 
-3.675306969511e-04 1.198984270489e-03 0.0 
1.198984270489e-03 2.958001668599e-03 0.0 
0.0 0.0 -5.931463391684e-04 
-1.266256333575e-03 -2.932543747909e-04 0.0 
-2.932543747909e-04 7.348938270472e-03 0.0 
0.0 0.0 -1.120963572432e-03 
-3.905834582402e-04 -4.908595614848e-04 0.0 
-4.908595614848e-04 1.232002034576e-03 0.0 
0.0 0.0 -2.722262904030e-04 
-1.289444217002e-03 1.239965470747e-04 0.0 
1.239965470747e-04 7.777003841897e-03 0.0 
0.0 0.0 -1.189111243166e-03 
-9.083262515729e-04 4.866804809917e-04 0.0 
4.866804809917e-04 4.963586243701e-03 0.0 
0.0 0.0 -7.711223959738e-04 
-1.340203078278e-03 -2.129693675799e-04 0.0 
-2.129693675799e-04 8.439560912258e-03 0.0 
0.0 0.0 -1.265987209193e-03 
-8.868772565118e-04 2.877464608834e-05 0.0 
2.877464608834e-05 5.056912107765e-03 0.0 
0.0 0.0 -7.842605076999e-04 
-4.245977401382e-04 1.301715382003e-03 0.0 
1.301715382003e-03 2.484999694538e-03 0.0 
0.0 0.0 -5.042822341261e-04 
-8.141088315077e-04 3.778227072886e-04 0.0 
3.778227072886e-04 4.370548075301e-03 0.0 
0.0 0.0 -6.840799553763e-04 
-1.128956121950e-03 -1.816355743224e-04 0.0 
-1.816355743224e-04 5.879621026637e-03 0.0 
0.0 0.0 -8.722824885218e-04 
-5.657686865338e-04 1.006813399921e-03 0.0 
1.006813399921e-03 2.114854539436e-03 0.0 
0.0 0.0 -3.514598124168e-04 
-2.840077947560e-04 7.374002385130e-04 0.0 
7.374002385130e-04 3.016923521918e-03 0.0 
0.0 0.0 -5.911455407098e-04 
-1.107826402130e-03 -1.895219266089e-04 0.0 
-1.895219266089e-04 6.838398808500e-03 0.0 
0.0 0.0 -1.016465148841e-03 
-8.846022414820e-04 1.673369808483e-04 0.0 
1.673369808483e-04 5.274165376609e-03 0.0 
0.0 0.0 -7.680022369673e-04 
-4.363801896578e-04 1.202422263910e-03 0.0 
1.202422263910e-03 2.876866297868e-03 0.0 
0.0 0.0 -5.666226778950e-04 
-8.017363352442e-04 3.924823248397e-04 0.0 
3.924823248397e-04 4.130177357856e-03 0.0 
0.0 0.0 -6.498546761489e-04 
-1.141214369151e-03 6.765310758862e-04 0.0 
6.765310758862e-04 7.271411604946e-03 0.0 
0.0 0.0 -1.136725521675e-03 
-8.548535662047e-04 -2.781485263044e-04 0.0 
-2.781485263044e-04 4.164865359686e-03 0.0 
0.0 0.0 -6.189190723244e-04 
-1.237707508229e-03 4.856674807990e-04 0.0 
4.856674807990e-04 7.956457412847e-03 0.0 
0.0 0.0 -1.285202198870e-03 
-1.271584492805e-03 4.859423083683e-04 0.0 
4.859423083683e-04 8.362652585957e-03 0.0 
0.0 0.0 -1.265486236287e-03 
-6.208228587870e-04 6.861521722427e-04 0.0 
6.861521722427e-04 2.794482215749e-03 0.0 
0.0 0.0 -4.595713030950e-04 
-8.601834141272e-04 -1.130024456241e-04 0.0 
-1.130024456241e-04 3.988529893684e-03 0.0 
0.0 0.0 -6.385407451345e-04 
-9.728705791535e-04 -2.427476520657e-04 0.0 
-2.427476520657e-04 7.014843591236e-03 0.0 
0.0 0.0 -1.152822474774e-03 
-7.582637832037e-04 3.173029778375e-04 0.0 
3.173029778375e-04 3.850177976745e-03 0.0 
0.0 0.0 -6.037256927378e-04 
-5.932602371824e-04 9.450171731982e-04 0.0 
9.450171731982e-04 2.345539596427e-03 0.0 
0.0 0.0 -4.251746348339e-04 
-8.883854653183e-04 4.319931064094e-04 0.0 
4.319931064094e-04 4.807571306798e-03 0.0 
0.0 0.0 -7.443430781256e-04 
-4.655628622191e-04 8.097546048135e-04 0.0 
8.097546048135e-04 3.367415080588e-03 0.0 
0.0 0.0 -6.011186688906e-04 
-1.309467600587e-03 2.274324864678e-04 0.0 
2.274324864678e-04 8.467271508597e-03 0.0 
0.0 0.0 -1.279059907835e-03 
-1.139712663312e-03 5.524271265546e-04 0.0 
5.524271265546e-04 6.895093066062e-03 0.0 
0.0 0.0 -1.060691896764e-03 
-1.282894195515e-03 1.713163621167e-04 0.0 
1.713163621167e-04 7.580646218946e-03 0.0 
0.0 0.0 -1.155968210243e-03 
-4.263760736077e-04 9.726189065638e-04 0.0 
9.726189065638e-04 1.483303861492e-03 0.0 
0.0 0.0 -3.328149423972e-04 
-1.567783780417e-04 7.459959337790e-04 0.0 
7.459959337790e-04 2.633807870816e-03 0.0 
0.0 0.0 -5.558335581882e-04 
-1.150277857659e-03 5.855176210150e-04 0.0 
5.855176210150e-04 7.056066340815e-03 0.0 
0.0 0.0 -1.089453766084e-03 
0.0 0.0 0.0 
0.0 0.0 0.0 
0.0 0.0 0.0 
-7.560981228119e-04 5.568058696449e-04 0.0 
5.568058696449e-04 3.796632807166e-03 0.0 
0.0 0.0 -6.073871274648e-04 
-8.851342185419e-04 -4.312210323728e-04 0.0 
-4.312210323728e-04 6.519433320506e-03 0.0 
0.0 0.0 -1.080675545910e-03 
-1.164869828715e-04 -1.456841600207e-04 0.0 
-1.456841600207e-04 9.923335266216e-04 0.0 
0.0 0.0 -1.605608400042e-04 
-1.274326596506e-03 6.277067703956e-04 0.0 
6.277067703956e-04 8.332587857653e-03 0.0 
0.0 0.0 -1.257517519450e-03 
-1.082557255636e-03 4.467183423513e-04 0.0 
4.467183423513e-04 6.398503814141e-03 0.0 
0.0 0.0 -9.749624431058e-04 
-5.927975267284e-04 -7.287134833264e-04 0.0 
-7.287134833264e-04 3.408230795765e-03 0.0 
0.0 0.0 -5.995223474422e-04 
-8.718953006962e-04 8.285847793953e-05 0.0 
8.285847793953e-05 6.481498684251e-03 0.0 
0.0 0.0 -1.082135573043e-03 
-9.644421873602e-04 1.848918456793e-04 0.0 
1.848918456793e-04 5.622214910538e-03 0.0 
0.0 0.0 -8.259898420369e-04 
-9.976541713563e-04 8.643209894894e-06 0.0 
8.643209894894e-06 5.944166007327e-03 0.0 
0.0 0.0 -8.838609275114e-04 
-1.149666595734e-03 -3.245227479459e-04 0.0 
-3.245227479459e-04 7.662117469895e-03 0.0 
0.0 0.0 -1.237791025003e-03 
-6.377976835771e-04 -6.114567573414e-04 0.0 
-6.114567573414e-04 2.689173763955e-03 0.0 
0.0 0.0 -4.583583101839e-04 
-7.880409547895e-04 7.989113980148e-04 0.0 
7.989113980148e-04 4.542855302031e-03 0.0 
0.0 0.0 -7.480401524272e-04 
-9.214234162491e-04 5.351887786335e-04 0.0 
5.351887786335e-04 5.111262659093e-03 0.0 
0.0 0.0 -7.988399675000e-04 
-1.125534786672e-03 7.028976634264e-05 0.0 
7.028976634264e-05 6.721724443554e-03 0.0 
0.0 0.0 -1.008548823165e-03 
-9.505406595461e-04 1.355801735478e-04 0.0 
1.355801735478e-04 5.273089753614e-03 0.0 
0.0 0.0 -8.035999206669e-04 
-8.920793708860e-04 1.354006487991e-04 0.0 
1.354006487991e-04 4.845817227354e-03 0.0 
0.0 0.0 -7.415510827328e-04 
-6.524274381720e-04 1.661117945530e-04 0.0 
1.661117945530e-04 5.489508378744e-03 0.0 
0.0 0.0 -9.414312740916e-04 
-1.133549865804e-03 2.632851943964e-04 0.0 
2.632851943964e-04 7.143578184647e-03 0.0 
0.0 0.0 -1.105110859848e-03 
0.0 0.0 0.0 
0.0 0.0 0.0 
0.0 0.0 0.0 
-5.963424256803e-04 8.235655420392e-04 0.0 
8.235655420392e-04 2.727118741511e-03 0.0 
0.0 0.0 -4.649757541953e-04 
-6.413935052421e-04 9.083237096948e-04 0.0 
9.083237096948e-04 3.060885376631e-03 0.0 
0.0 0.0 -5.249394872960e-04 
-7.860598654059e-04 4.409893248632e-04 0.0 
4.409893248632e-04 4.491993588337e-03 0.0 
0.0 0.0 -7.181710532390e-04 
-1.182550884137e-03 1.586567680609e-04 0.0 
1.586567680609e-04 7.254490089636e-03 0.0 
0.0 0.0 -1.095076276885e-03 
4.583279132942e-04 6.488863092727e-04 0.0 
6.488863092727e-04 -1.405418918228e-05 0.0 
0.0 0.0 -1.904030246194e-04 
-8.562318666799e-04 -4.982168400307e-04 0.0 
-4.982168400307e-04 6.277290697447e-03 0.0 
0.0 0.0 -1.043355442177e-03 
-8.774345447710e-04 -2.186708792855e-04 0.0 
-2.186708792855e-04 5.055368522856e-03 0.0 
0.0 0.0 -7.763349569542e-04 
-2.555112241128e-04 1.229664321452e-03 0.0 
1.229664321452e-03 2.574406854457e-03 0.0 
0.0 0.0 -5.576783925304e-04 
-8.394427967850e-04 -5.648718734432e-04 0.0 
-5.648718734432e-04 6.055308780542e-03 0.0 
0.0 0.0 -1.006238978475e-03 
-7.021339785738e-05 -2.257880490566e-04 0.0 
-2.257880490566e-04 5.234298020475e-04 0.0 
0.0 0.0 -1.250635456846e-04 
-1.135452312747e-03 4.797857508760e-04 0.0 
4.797857508760e-04 6.834881249119e-03 0.0 
0.0 0.0 -1.040010908530e-03 
8.624072222387e-05 -5.482403482058e-05 0.0 
-5.482403482058e-05 4.623552898900e-04 0.0 
0.0 0.0 -1.166360257537e-04 
-1.840491842350e-04 -5.445744923588e-05 0.0 
-5.445744923588e-05 7.493422687288e-04 0.0 
0.0 0.0 -1.819418517600e-04 
-3.913654307844e-04 1.191507394513e-03 0.0 
1.191507394513e-03 1.470311877001e-03 0.0 
0.0 0.0 -3.246947309473e-04 
-6.091026736672e-04 -6.117663185554e-04 0.0 
-6.117663185554e-04 2.275310364661e-03 0.0 
0.0 0.0 -3.935955730116e-04 
-1.177121720242e-03 9.986808741325e-05 0.0 
9.986808741325e-05 7.155425965963e-03 0.0 
0.0 0.0 -1.073797489760e-03 
-5.625078577902e-04 -9.911531115061e-04 0.0 
-9.911531115061e-04 2.166295973773e-03 0.0 
0.0 0.0 -3.637595386041e-04 
-2.431075708166e-04 1.562437016590e-03 0.0 
1.562437016590e-03 1.376800568989e-03 0.0 
0.0 0.0 -3.890718233399e-04 
1.128852675938e-04 -1.510947419960e-03 0.0 
-1.510947419960e-03 7.754974600039e-04 0.0 
0.0 0.0 -3.807354546848e-04 
-5.007957256990e-04 -4.054148446658e-04 0.0 
-4.054148446658e-04 1.463133010542e-03 0.0 
0.0 0.0 -2.670040094673e-04 
-9.159310068134e-04 1.166570594862e-04 0.0 
1.166570594862e-04 6.711157580750e-03 0.0 
0.0 0.0 -1.117524173959e-03 
-9.108885203266e-04 1.625635707661e-04 0.0 
1.625635707661e-04 5.002433540525e-03 0.0 
0.0 0.0 -7.687972329812e-04 
-1.323980336649e-03 7.113171737239e-05 0.0 
7.113171737239e-05 8.245489008711e-03 0.0 
0.0 0.0 -1.256743614961e-03 
0.0 0.0 0.0 
0.0 0.0 0.0 
0.0 0.0 0.0 
-3.330839468946e-04 1.604359709376e-03 0.0 
1.604359709376e-03 1.727019779997e-03 0.0 
0.0 0.0 -4.044045206172e-04 
-3.067142002033e-04 1.081368075103e-03 0.0 
1.081368075103e-03 3.044773964149e-03 0.0 
0.0 0.0 -6.230907113744e-04 
-7.160262700323e-04 6.408733665596e-04 0.0 
6.408733665596e-04 3.506266837881e-03 0.0 
0.0 0.0 -5.709397776106e-04 
-8.360378415299e-04 -1.180231066695e-05 0.0 
-1.180231066695e-05 6.234265106431e-03 0.0 
0.0 0.0 -1.045235091131e-03 
-1.333473067012e-03 -5.395820062031e-05 0.0 
-5.395820062031e-05 8.405361436706e-03 0.0 
0.0 0.0 -1.275930989368e-03 
-1.131889764436e-03 1.436010865761e-04 0.0 
1.436010865761e-04 6.812686989612e-03 0.0 
0.0 0.0 -1.029499106509e-03 
5.269662907404e-05 8.913991735483e-04 0.0 
8.913991735483e-04 1.741226620489e-03 0.0 
0.0 0.0 -4.564841486881e-04 
-9.276981546427e-04 -3.123244619600e-04 0.0 
-3.123244619600e-04 6.731635440410e-03 0.0 
0.0 0.0 -1.116166892424e-03 
-1.162987388940e-03 1.784362897977e-04 0.0 
1.784362897977e-04 6.231822734238e-03 0.0 
0.0 0.0 -9.512440159151e-04 
-8.362061665926e-04 3.771233097708e-04 0.0 
3.771233097708e-04 4.773003845214e-03 0.0 
0.0 0.0 -7.537083776970e-04 
-1.102280810414e-03 4.919717221224e-04 0.0 
4.919717221224e-04 6.560511914991e-03 0.0 
0.0 0.0 -1.003200534345e-03 
-1.172867451038e-03 2.356902410022e-04 0.0 
2.356902410022e-04 7.744999640819e-03 0.0 
0.0 0.0 -1.239730878702e-03 
-2.254924367537e-04 5.849015682570e-04 0.0 
5.849015682570e-04 3.115409937203e-03 0.0 
0.0 0.0 -6.206208101913e-04 
-3.928189268474e-04 1.275344444358e-03 0.0 
1.275344444358e-03 1.843263560049e-03 0.0 
0.0 0.0 -3.752687577596e-04 
-9.992253787165e-04 1.463025209614e-04 0.0 
1.463025209614e-04 5.687199852232e-03 0.0 
0.0 0.0 -8.662621843288e-04 
-1.349788229223e-03 3.426545086550e-04 0.0 
3.426545086550e-04 9.036920857709e-03 0.0 
0.0 0.0 -1.323568725688e-03 
-7.650406542386e-04 4.751592665984e-04 0.0 
4.751592665984e-04 4.601158149833e-03 0.0 
0.0 0.0 -7.453270327204e-04 
-3.775537039009e-04 2.220958575008e-04 0.0 
2.220958575008e-04 4.208109464666e-03 0.0 
0.0 0.0 -7.768443034385e-04 
-9.417507759690e-04 -3.219991258082e-05 0.0 
-3.219991258082e-05 5.716819141930e-03 0.0 
0.0 0.0 -8.293613651800e-04 
-1.509886751970e-04 -1.135282332652e-03 0.0 
-1.135282332652e-03 1.017427284165e-03 0.0 
0.0 0.0 -3.579782397794e-04 
-9.508294649731e-04 4.627212186017e-04 0.0 
4.627212186017e-04 5.212868888400e-03 0.0 
0.0 0.0 -8.060563724883e-04 
-7.773528700207e-05 1.427065922566e-03 0.0 
1.427065922566e-03 1.665502982993e-03 0.0 
0.0 0.0 -4.590591740919e-04 
3.797527258111e-04 1.020114754415e-03 0.0 
1.020114754415e-03 1.842831286956e-04 0.0 
0.0 0.0 -2.417296519314e-04 
4.052395816326e-04 -6.135338758200e-04 0.0 
-6.135338758200e-04 -1.137161459368e-06 0.0 
0.0 0.0 -1.731867515028e-04 
-1.167546277040e-03 4.626490460642e-04 0.0 
4.626490460642e-04 7.101376568989e-03 0.0 
0.0 0.0 -1.075985979751e-03 
-9.623797546726e-04 1.845333678616e-04 0.0 
1.845333678616e-04 5.429528329259e-03 0.0 
0.0 0.0 -8.312490730234e-04 
-5.046075129470e-04 1.194499845990e-03 0.0 
1.194499845990e-03 2.882799900291e-03 0.0 
0.0 0.0 -5.429493831729e-04 
-1.206327788760e-03 8.269099761282e-05 0.0 
8.269099761282e-05 7.415962584707e-03 0.0 
0.0 0.0 -1.109763131677e-03 
-1.142751356386e-03 1.744200963682e-04 0.0 
1.744200963682e-04 6.974478761757e-03 0.0 
0.0 0.0 -1.057773507355e-03 
-8.833943353455e-04 3.220642776102e-04 0.0 
3.220642776102e-04 5.046401869676e-03 0.0 
0.0 0.0 -7.887050335656e-04 
-1.278006429871e-03 -2.029556331096e-04 0.0 
-2.029556331096e-04 8.153709597250e-03 0.0 
0.0 0.0 -1.288412101370e-03 
-4.271610777015e-04 5.562024212731e-04 0.0 
5.562024212731e-04 4.316314637617e-03 0.0 
0.0 0.0 -8.078958932737e-04 
-9.266589239438e-04 2.700924202998e-04 0.0 
2.700924202998e-04 5.312918686649e-03 0.0 
0.0 0.0 -8.238265297874e-04 
-4.963470151794e-04 6.905692722870e-04 0.0 
6.905692722870e-04 3.767490595173e-03 0.0 
0.0 0.0 -6.656476441012e-04 
-4.749686160319e-04 1.532444199585e-04 0.0 
1.532444199585e-04 4.696915836540e-03 0.0 
0.0 0.0 -8.413031780454e-04 
2.625503227397e-04 1.238828002540e-03 0.0 
1.238828002540e-03 6.651443892644e-04 0.0 
0.0 0.0 -3.865807678710e-04 
-9.465847814334e-04 1.767858078852e-04 0.0 
1.767858078852e-04 5.036126749418e-03 0.0 
0.0 0.0 -7.898058234521e-04 
-1.895610884557e-04 4.026718807994e-04 0.0 
4.026718807994e-04 3.226201886936e-03 0.0 
0.0 0.0 -6.486359607860e-04 
1.616252847495e-04 -9.427764674384e-04 0.0 
-9.427764674384e-04 1.519153345857e-03 0.0 
0.0 0.0 -4.681053320140e-04 
-1.124321372716e-03 5.190781523116e-04 0.0 
5.190781523116e-04 6.737556221388e-03 0.0 
0.0 0.0 -1.032318248600e-03 
0.0 0.0 0.0 
0.0 0.0 0.0 
0.0 0.0 0.0 
-9.848011893069e-04 9.254887770331e-05 0.0 
9.254887770331e-05 5.522315715833e-03 0.0 
0.0 0.0 -8.386390795737e-04 
1.936986156422e-05 1.160151507078e-03 0.0 
1.160151507078e-03 1.716486351178e-03 0.0 
0.0 0.0 -4.870240021111e-04 
-2.325836748457e-04 1.289855956993e-03 0.0 
1.289855956993e-03 1.788704446122e-03 0.0 
0.0 0.0 -4.015254440178e-04 
4.595658441768e-04 4.744943126908e-04 0.0 
4.744943126908e-04 7.528832652437e-04 0.0 
0.0 0.0 -4.054414645912e-04 
-1.008402327414e-03 5.265744671369e-04 0.0 
5.265744671369e-04 5.786538932645e-03 0.0 
0.0 0.0 -8.965110541436e-04 
-2.494216096235e-04 -4.335362183750e-04 0.0 
-4.335362183750e-04 9.422411490062e-04 0.0 
0.0 0.0 -1.609926926485e-04 
-6.820720035477e-04 8.119732659470e-04 0.0 
8.119732659470e-04 3.361151585438e-03 0.0 
0.0 0.0 -5.613503766092e-04 
-5.249648680804e-04 4.982973278599e-04 0.0 
4.982973278599e-04 4.821038106347e-03 0.0 
0.0 0.0 -8.726802719924e-04 
-9.620382926610e-04 5.073054538474e-04 0.0 
5.073054538474e-04 5.367475776694e-03 0.0 
0.0 0.0 -8.336838631977e-04 
-9.866522304222e-04 1.405170818081e-04 0.0 
1.405170818081e-04 5.654603971252e-03 0.0 
0.0 0.0 -8.301023967811e-04 
2.987392461190e-04 2.567812312072e-04 0.0 
2.567812312072e-04 -6.027321301994e-05 0.0 
0.0 0.0 -1.021997284710e-04 
2.232246709604e-04 -1.918559463565e-04 0.0 
-1.918559463565e-04 1.424673883171e-03 0.0 
0.0 0.0 -4.706942212664e-04 
9.862482380878e-05 -1.372550038116e-03 0.0 
-1.372550038116e-03 1.318021718147e-03 0.0 
0.0 0.0 -4.311372127493e-04 
-6.563785485795e-04 5.486582363547e-04 0.0 
5.486582363547e-04 3.058796699974e-03 0.0 
0.0 0.0 -4.957039317942e-04 
-1.115649045089e-03 1.001564757614e-04 0.0 
1.001564757614e-04 6.632881085886e-03 0.0 
0.0 0.0 -1.000663671924e-03 
-6.796028561542e-04 5.568827768722e-04 0.0 
5.568827768722e-04 3.430251503350e-03 0.0 
0.0 0.0 -5.577786207633e-04 
-1.458115086374e-04 8.292196236090e-04 0.0 
8.292196236090e-04 2.768893991105e-03 0.0 
0.0 0.0 -6.151539951222e-04 
-1.886011553539e-04 1.051832417911e-03 0.0 
1.051832417911e-03 2.651380485181e-03 0.0 
0.0 0.0 -5.868308051845e-04 
4.119056616429e-04 4.824818133927e-04 0.0 
4.824818133927e-04 -5.163543584123e-05 0.0 
0.0 0.0 -1.544015253436e-04 
-5.103402652263e-04 1.016313603146e-03 0.0 
1.016313603146e-03 3.773155867782e-03 0.0 
0.0 0.0 -6.959382511914e-04 
-1.626884107157e-04 1.342060582958e-03 0.0 
1.342060582958e-03 1.124683386977e-03 0.0 
0.0 0.0 -3.635305771564e-04 
-1.332783064049e-03 3.949756871870e-04 0.0 
3.949756871870e-04 8.970989248616e-03 0.0 
0.0 0.0 -1.321446319728e-03 
-1.363423366848e-03 4.246461146743e-04 0.0 
4.246461146743e-04 8.919856195938e-03 0.0 
0.0 0.0 -1.318029376683e-03 
-7.707229978672e-04 8.349277957258e-04 0.0 
8.349277957258e-04 4.657152987880e-03 0.0 
0.0 0.0 -7.755312068111e-04 
8.477148352467e-05 1.389041319869e-03 0.0 
1.389041319869e-03 1.180405502280e-03 0.0 
0.0 0.0 -4.232985079168e-04 
-7.785189424599e-05 1.403831464932e-03 0.0 
1.403831464932e-03 1.344103223027e-03 0.0 
0.0 0.0 -3.659709354871e-04 
-9.354111606034e-04 6.403030867596e-04 0.0 
6.403030867596e-04 5.396292848320e-03 0.0 
0.0 0.0 -8.539191708180e-04 
9.999732188838e-05 1.139160073047e-03 0.0 
1.139160073047e-03 1.275333839354e-03 0.0 
0.0 0.0 -3.930530440640e-04 
2.202450365264e-04 -6.175447713642e-04 0.0 
-6.175447713642e-04 1.218766433543e-03 0.0 
0.0 0.0 -4.339875075689e-04 
-8.457389435740e-04 6.790973874792e-04 0.0 
6.790973874792e-04 4.708791579724e-03 0.0 
0.0 0.0 -7.563811545761e-04 
-1.327783261122e-03 1.214241298840e-04 0.0 
1.214241298840e-04 8.708921592335e-03 0.0 
0.0 0.0 -1.266640259566e-03 
-1.253349979010e-04 1.227176291700e-03 0.0 
1.227176291700e-03 2.155279357023e-03 0.0 
0.0 0.0 -5.226246958029e-04 
-6.857827131982e-04 6.109821481705e-04 0.0 
6.109821481705e-04 5.443563599872e-03 0.0 
0.0 0.0 -9.428115367421e-04 
1.005352414743e-05 1.485881480078e-03 0.0 
1.485881480078e-03 9.313511271754e-04 0.0 
0.0 0.0 -4.034591362812e-04 
-1.256876494634e-03 -1.116338181287e-04 0.0 
-1.116338181287e-04 8.512233064138e-03 0.0 
0.0 0.0 -1.322863172658e-03 
-5.368107279651e-05 1.667223674443e-03 0.0 
1.667223674443e-03 1.192784921883e-03 0.0 
0.0 0.0 -3.959736908235e-04 
-8.401524306230e-04 7.380205594863e-04 0.0 
7.380205594863e-04 4.834030021030e-03 0.0 
0.0 0.0 -7.835188407615e-04 
5.148731166168e-04 5.137437753511e-04 0.0 
5.137437753511e-04 -7.966675073375e-05 0.0 
0.0 0.0 -1.865170139499e-04 
-5.892765440231e-04 4.534415622219e-05 0.0 
4.534415622219e-05 5.187712345136e-03 0.0 
0.0 0.0 -9.211625808215e-04 
-2.619705547916e-04 9.063726296434e-04 0.0 
9.063726296434e-04 3.144147236726e-03 0.0 
0.0 0.0 -6.516619296807e-04 
5.136778266446e-05 -8.544458010471e-04 0.0 
-8.544458010471e-04 1.672478035934e-03 0.0 
0.0 0.0 -4.625367401933e-04 
-9.230469363571e-04 2.192959829449e-04 0.0 
2.192959829449e-04 5.165828729947e-03 0.0 
0.0 0.0 -7.963903837170e-04 
-1.338316942917e-03 5.052217518095e-04 0.0 
5.052217518095e-04 8.833234944730e-03 0.0 
0.0 0.0 -1.324865334549e-03 
-6.025361920258e-05 9.743864967892e-04 0.0 
9.743864967892e-04 2.246037318888e-03 0.0 
0.0 0.0 -5.510338386786e-04 
-4.966114613551e-04 2.324572275960e-05 0.0 
2.324572275960e-05 4.887340644677e-03 0.0 
0.0 0.0 -8.703234504572e-04 
-4.984372673971e-05 1.535578283139e-03 0.0 
1.535578283139e-03 1.001433575544e-03 0.0 
0.0 0.0 -3.453408408593e-04 
-1.068497402403e-03 3.485541216510e-04 0.0 
3.485541216510e-04 6.344714792472e-03 0.0 
0.0 0.0 -9.576894438039e-04 
-8.089599515326e-04 -1.073379708431e-04 0.0 
-1.073379708431e-04 5.996798576901e-03 0.0 
0.0 0.0 -1.008345180213e-03 
-4.736853950805e-04 1.081684251561e-03 0.0 
1.081684251561e-03 2.201297944192e-03 0.0 
0.0 0.0 -4.109515902261e-04 
-1.055848474588e-03 -6.244673246336e-05 0.0 
-6.244673246336e-05 6.209225770776e-03 0.0 
0.0 0.0 -9.257128893455e-04 
-1.318413144677e-03 5.597520288916e-04 0.0 
5.597520288916e-04 8.736177841961e-03 0.0 
0.0 0.0 -1.322580803729e-03 
-9.099621181087e-04 -7.844937670166e-05 0.0 
-7.844937670166e-05 6.486423483438e-03 0.0 
0.0 0.0 -1.075861678316e-03 
-1.339852007458e-03 4.885566376854e-04 0.0 
4.885566376854e-04 8.877779505668e-03 0.0 
0.0 0.0 -1.322091174222e-03 
-1.037601774292e-03 -4.998348071014e-05 0.0 
-4.998348071014e-05 6.134914618430e-03 0.0 
0.0 0.0 -9.196498359204e-04 
-1.117033596766e-03 2.433107206605e-04 0.0 
2.433107206605e-04 6.851288038562e-03 0.0 
0.0 0.0 -1.048263655743e-03 
-5.132028134043e-04 1.102114687126e-03 0.0 
1.102114687126e-03 1.849180492075e-03 0.0 
0.0 0.0 -3.491910591611e-04 
-8.752311967057e-04 2.096761775609e-04 0.0 
2.096761775609e-04 4.753971328354e-03 0.0 
0.0 0.0 -7.343713905235e-04 
-9.300305532746e-04 5.926935085268e-04 0.0 
5.926935085268e-04 5.253991145748e-03 0.0 
0.0 0.0 -8.263924940540e-04 
-9.692706598054e-04 2.261418497641e-04 0.0 
2.261418497641e-04 5.579447270465e-03 0.0 
0.0 0.0 -8.589723558544e-04 
-7.013973697775e-04 5.476600750058e-04 0.0 
5.476600750058e-04 4.307373761106e-03 0.0 
0.0 0.0 -7.101745248689e-04 
-1.306990612628e-03 5.041978193774e-04 0.0 
5.041978193774e-04 8.672501482610e-03 0.0 
0.0 0.0 -1.322334986692e-03 
-9.943643695485e-04 3.416073873728e-04 0.0 
3.416073873728e-04 5.867113055505e-03 0.0 
0.0 0.0 -8.810748613436e-04 
-9.323244271653e-04 9.613325556177e-05 0.0 
9.613325556177e-05 5.115490294310e-03 0.0 
0.0 0.0 -7.763708431881e-04 
-1.001832059306e-04 5.266866745758e-04 0.0 
5.266866745758e-04 2.724835239940e-03 0.0 
0.0 0.0 -5.843899590101e-04 
-5.790296725673e-04 -5.326125379185e-04 0.0 
-5.326125379185e-04 1.882091514832e-03 0.0 
0.0 0.0 -3.280768480529e-04 
-8.597084284199e-04 1.491840850699e-04 0.0 
1.491840850699e-04 4.593177939361e-03 0.0 
0.0 0.0 -7.069124235890e-04 
-4.246089693938e-04 1.428928262105e-03 0.0 
1.428928262105e-03 2.122954743528e-03 0.0 
0.0 0.0 -4.404772202000e-04 
-8.726090169173e-04 -3.101571305491e-05 0.0 
-3.101571305491e-05 5.309765821533e-03 0.0 
0.0 0.0 -7.696142143080e-04 
-7.647244692159e-05 -1.455292213990e-03 0.0 
-1.455292213990e-03 1.759408115361e-03 0.0 
0.0 0.0 -4.595640944490e-04 
-1.784270519959e-05 6.865399459054e-04 0.0 
6.865399459054e-04 2.226340647437e-03 0.0 
0.0 0.0 -5.202658224677e-04 
-1.156111700983e-03 5.188644452185e-04 0.0 
5.188644452185e-04 7.007873302369e-03 0.0 
0.0 0.0 -1.069052450572e-03 
-3.544111730508e-04 1.143529289652e-03 0.0 
1.143529289652e-03 2.186339618849e-03 0.0 
0.0 0.0 -4.372567615832e-04 
-8.838010647401e-04 5.805967859428e-04 0.0 
5.805967859428e-04 4.846530847442e-03 0.0 
0.0 0.0 -7.640689829422e-04 
-5.498264973309e-04 3.710435615581e-04 0.0 
3.710435615581e-04 5.012164832543e-03 0.0 
0.0 0.0 -9.014246907137e-04 
-6.358980608267e-04 -4.313104688366e-04 0.0 
-4.313104688366e-04 4.627036023584e-03 0.0 
0.0 0.0 -8.035328976187e-04 
-1.261046308643e-03 3.887646222973e-04 0.0 
3.887646222973e-04 8.565225437675e-03 0.0 
0.0 0.0 -1.324762665914e-03 
-7.961969453534e-04 2.495159098011e-04 0.0 
2.495159098011e-04 4.113140991581e-03 0.0 
0.0 0.0 -6.390224077203e-04 
3.053061856643e-04 2.267805296744e-04 0.0 
2.267805296744e-04 1.077273840324e-03 0.0 
0.0 0.0 -4.422638729430e-04 
-5.704666668683e-04 -1.178468115440e-03 0.0 
-1.178468115440e-03 3.201154498828e-03 0.0 
0.0 0.0 -5.691257024010e-04 
-5.951122843918e-04 8.042220484985e-04 0.0 
8.042220484985e-04 2.449547643677e-03 0.0 
0.0 0.0 -4.184705811166e-04 
-5.000320666269e-04 1.320407470952e-03 0.0 
1.320407470952e-03 2.143724443106e-03 0.0 
0.0 0.0 -4.141309408042e-04 
-1.196454144110e-03 1.993133203818e-04 0.0 
1.993133203818e-04 7.413315256709e-03 0.0 
0.0 0.0 -1.123886314723e-03 
-8.766172246535e-04 3.573442557890e-04 0.0 
3.573442557890e-04 5.175634424808e-03 0.0 
0.0 0.0 -8.161479701220e-04 
-7.263474599636e-04 3.526993364896e-04 0.0 
3.526993364896e-04 3.570072660402e-03 0.0 
0.0 0.0 -5.672387349321e-04 
-8.352265289735e-04 5.640695091739e-04 0.0 
5.640695091739e-04 4.443467777814e-03 0.0 
0.0 0.0 -7.023794137935e-04 
-1.258131779879e-03 1.361172827669e-04 0.0 
1.361172827669e-04 8.496942290822e-03 0.0 
0.0 0.0 -1.320675234999e-03 
-1.143815948478e-03 -2.922836025440e-06 0.0 
-2.922836025440e-06 7.935052382313e-03 0.0 
0.0 0.0 -1.258064670439e-03 
-1.185356167607e-03 5.772655224951e-04 0.0 
5.772655224951e-04 7.334174599953e-03 0.0 
0.0 0.0 -1.126590436115e-03 
-1.146342777142e-03 1.032030268662e-04 0.0 
1.032030268662e-04 6.902588040038e-03 0.0 
0.0 0.0 -1.037522200811e-03 
-6.004564824823e-04 -8.741253658515e-04 0.0 
-8.741253658515e-04 4.400886106663e-03 0.0 
0.0 0.0 -7.721428985420e-04 
-6.499827822082e-04 6.306060725170e-04 0.0 
6.306060725170e-04 3.517235102446e-03 0.0 
0.0 0.0 -5.842812205453e-04 
2.208852054121e-04 7.449773440899e-04 0.0 
7.449773440899e-04 1.272300042131e-03 0.0 
0.0 0.0 -4.203166018452e-04 
1.283124150736e-04 5.457702178093e-04 0.0 
5.457702178093e-04 1.800318710438e-03 0.0 
0.0 0.0 -4.843489805398e-04 
-8.229602156181e-04 4.179326389388e-04 0.0 
4.179326389388e-04 4.894594765891e-03 0.0 
0.0 0.0 -7.808727949117e-04 
-5.351512224978e-04 -3.319303625282e-04 0.0 
-3.319303625282e-04 5.022677570586e-03 0.0 
0.0 0.0 -8.900964085843e-04 
-8.296790490015e-04 -7.574227516101e-04 0.0 
-7.574227516101e-04 4.266073095582e-03 0.0 
0.0 0.0 -6.810091006415e-04 
-1.209161835961e-03 5.397487415350e-04 0.0 
5.397487415350e-04 7.456423275886e-03 0.0 
0.0 0.0 -1.134236807130e-03 
2.970140770782e-04 -5.886898203256e-04 0.0 
-5.886898203256e-04 1.178529551260e-03 0.0 
0.0 0.0 -4.395655422792e-04 
-6.321441937111e-04 6.212871376415e-04 0.0 
6.212871376415e-04 4.001931118120e-03 0.0 
0.0 0.0 -6.750378637491e-04 
-8.881105026694e-04 6.325939136900e-04 0.0 
6.325939136900e-04 4.979851951469e-03 0.0 
0.0 0.0 -7.913284153978e-04 
-6.067465934174e-04 6.691797761234e-04 0.0 
6.691797761234e-04 3.597583737962e-03 0.0 
0.0 0.0 -6.122259156574e-04 
-1.324329620218e-03 4.629903675986e-04 0.0 
4.629903675986e-04 8.904888157841e-03 0.0 
0.0 0.0 -1.320088186226e-03 
-1.359586791555e-03 4.788353102242e-04 0.0 
4.788353102242e-04 8.942288232093e-03 0.0 
0.0 0.0 -1.318462653075e-03 
-1.290025244180e-03 1.809732516489e-04 0.0 
1.809732516489e-04 8.380056929833e-03 0.0 
0.0 0.0 -1.256494544188e-03 
-6.742581298534e-04 -7.798202117693e-04 0.0 
-7.798202117693e-04 4.873866166937e-03 0.0 
0.0 0.0 -8.375255977276e-04 
-1.194824314076e-03 4.521929309845e-04 0.0 
4.521929309845e-04 7.360058874814e-03 0.0 
0.0 0.0 -1.112065035246e-03 
-4.430818055786e-04 1.485014206495e-03 0.0 
1.485014206495e-03 1.784679357047e-03 0.0 
0.0 0.0 -3.785953687517e-04 
2.729854799726e-05 3.936097668604e-04 0.0 
3.936097668604e-04 2.328364048534e-03 0.0 
0.0 0.0 -5.483018170244e-04 
5.295881833206e-04 7.121810223511e-04 0.0 
7.121810223511e-04 1.629388308909e-04 0.0 
0.0 0.0 -2.967972918049e-04 
-7.211884972610e-04 4.566068001278e-04 0.0 
4.566068001278e-04 3.698308171073e-03 0.0 
0.0 0.0 -5.936226173563e-04 
-9.121582442551e-04 9.143313993339e-05 0.0 
9.143313993339e-05 5.030258123682e-03 0.0 
0.0 0.0 -7.914980036671e-04 
-1.035929216748e-03 3.563880147614e-04 0.0 
3.563880147614e-04 6.090521981813e-03 0.0 
0.0 0.0 -9.214502702889e-04 
-1.168840555119e-03 -8.744363195648e-05 0.0 
-8.744363195648e-05 8.066384051930e-03 0.0 
0.0 0.0 -1.265403586923e-03 
-1.162609015209e-03 6.330590177409e-04 0.0 
6.330590177409e-04 7.197897661744e-03 0.0 
0.0 0.0 -1.117224974728e-03 
-9.919773035698e-04 4.807053877499e-04 0.0 
4.807053877499e-04 5.626646372679e-03 0.0 
0.0 0.0 -8.687609488834e-04 
-9.791621869581e-04 6.007006909595e-04 0.0 
6.007006909595e-04 5.670050972566e-03 0.0 
0.0 0.0 -8.891947744737e-04 
4.804557488344e-04 9.476988486698e-04 0.0 
9.476988486698e-04 9.767658471986e-05 0.0 
0.0 0.0 -2.477710000947e-04 
-2.208441256582e-04 -6.752013946383e-04 0.0 
-6.752013946383e-04 8.882775518556e-04 0.0 
0.0 0.0 -2.467363499356e-04 
-4.153429420500e-04 1.059032103328e-03 0.0 
1.059032103328e-03 3.417216683434e-03 0.0 
0.0 0.0 -6.594106982652e-04 
-6.669546155335e-04 5.596997560711e-04 0.0 
5.596997560711e-04 4.411048143991e-03 0.0 
0.0 0.0 -7.376142925499e-04 
-4.466823138591e-04 6.032870064143e-04 0.0 
6.032870064143e-04 3.840807050757e-03 0.0 
0.0 0.0 -6.931905564144e-04 
6.417191678250e-05 8.603242808997e-04 0.0 
8.603242808997e-04 4.417253736716e-04 0.0 
0.0 0.0 -2.168131244803e-04 
-9.528466809374e-04 9.473419018348e-05 0.0 
9.473419018348e-05 5.427141204722e-03 0.0 
0.0 0.0 -8.462285223656e-04 
-5.049741343807e-04 -8.812005228938e-04 0.0 
-8.812005228938e-04 1.770302560701e-03 0.0 
0.0 0.0 -2.972104253142e-04 
-2.017300964170e-04 1.588765395916e-03 0.0 
1.588765395916e-03 1.677129549565e-03 0.0 
0.0 0.0 -4.314049239902e-04 
-1.341153861134e-03 -7.479496163088e-05 0.0 
-7.479496163088e-05 8.257374884626e-03 0.0 
0.0 0.0 -1.341153861134e-03 
-6.757643640114e-04 6.444207577368e-05 0.0 
6.444207577368e-05 5.692433792017e-03 0.0 
0.0 0.0 -9.717687626070e-04 
-9.402714050330e-04 4.164454812488e-04 0.0 
4.164454812488e-04 5.059115903313e-03 0.0 
0.0 0.0 -7.790007367612e-04 
-1.996455075654e-04 1.120227626459e-04 0.0 
1.120227626459e-04 1.363834974093e-03 0.0 
0.0 0.0 -2.176483604987e-04 
-7.316139978666e-04 8.725598858698e-04 0.0 
8.725598858698e-04 4.250250205740e-03 0.0 
0.0 0.0 -7.126719623954e-04 
-3.416312472277e-04 6.071238986655e-04 0.0 
6.071238986655e-04 3.482434275960e-03 0.0 
0.0 0.0 -6.569982659716e-04 
-1.010067214733e-03 1.858710736428e-04 0.0 
1.858710736428e-04 5.842461225268e-03 0.0 
0.0 0.0 -8.940630110299e-04 
-1.333890643160e-03 5.791621130684e-04 0.0 
5.791621130684e-04 8.805315107962e-03 0.0 
0.0 0.0 -1.323832587333e-03 
-8.707338927728e-04 5.246940464045e-04 0.0 
5.246940464045e-04 4.704277736275e-03 0.0 
0.0 0.0 -7.366500567795e-04 
-9.271217876491e-04 3.071330387493e-04 0.0 
3.071330387493e-04 5.453258810761e-03 0.0 
0.0 0.0 -8.513774089097e-04 
-8.050460189817e-04 -4.209308180889e-04 0.0 
-4.209308180889e-04 4.202095383354e-03 0.0 
0.0 0.0 -6.837695253815e-04 
-1.187192617587e-03 5.026303496447e-04 0.0 
5.026303496447e-04 7.280339694805e-03 0.0 
0.0 0.0 -1.105258581891e-03 
-7.119244178252e-04 -3.438823351423e-04 0.0 
-3.438823351423e-04 5.099696206057e-03 0.0 
0.0 0.0 -8.691653677727e-04 
-1.316090240167e-03 5.389588138701e-04 0.0 
5.389588138701e-04 8.780826577697e-03 0.0 
0.0 0.0 -1.322174839672e-03 
-1.340103718614e-03 4.728281156223e-04 0.0 
4.728281156223e-04 8.628873091994e-03 0.0 
0.0 0.0 -1.340103718614e-03 
-1.341028575724e-03 3.568557509173e-04 0.0 
3.568557509173e-04 8.716110367900e-03 0.0 
0.0 0.0 -1.341028575724e-03 
-1.338044909071e-03 4.168385009661e-04 0.0 
4.168385009661e-04 8.630348436964e-03 0.0 
0.0 0.0 -1.338044909071e-03 
-1.019072052988e-03 5.681193801066e-04 0.0 
5.681193801066e-04 5.940654999783e-03 0.0 
0.0 0.0 -9.244680137507e-04 
-1.198675717763e-03 1.360258094172e-04 0.0 
1.360258094172e-04 7.335887667339e-03 0.0 
0.0 0.0 -1.103002250422e-03 
-1.198479165231e-03 6.200957679300e-04 0.0 
6.200957679300e-04 7.509008113829e-03 0.0 
0.0 0.0 -1.155914796392e-03 
-6.394343852437e-04 1.004430984718e-03 0.0 
1.004430984718e-03 3.542163334784e-03 0.0 
0.0 0.0 -6.147330147620e-04 
-6.675475430971e-04 9.277672711453e-04 0.0 
9.277672711453e-04 3.456421744926e-03 0.0 
0.0 0.0 -5.872917534094e-04 
-8.247859078912e-04 -6.922016390902e-04 0.0 
-6.922016390902e-04 4.077408079033e-03 0.0 
0.0 0.0 -6.436934073013e-04 
-1.217910302125e-03 1.553299834490e-04 0.0 
1.553299834490e-04 7.518311075799e-03 0.0 
0.0 0.0 -1.131852245309e-03 
-1.311936692750e-03 5.307865598084e-04 0.0 
5.307865598084e-04 8.695029491200e-03 0.0 
0.0 0.0 -1.322440284024e-03 
-1.214240069695e-03 4.882095922708e-04 0.0 
4.882095922708e-04 7.535305569948e-03 0.0 
0.0 0.0 -1.141180801552e-03 
-5.747438901480e-04 1.003283814169e-04 0.0 
1.003283814169e-04 5.194431951746e-03 0.0 
0.0 0.0 -9.063345769726e-04 
-1.227388762698e-03 1.265853976664e-04 0.0 
1.265853976664e-04 7.592479060989e-03 0.0 
0.0 0.0 -1.138864741757e-03 
-8.838474672112e-04 3.395282227197e-04 0.0 
3.395282227197e-04 6.126324240512e-03 0.0 
0.0 0.0 -9.903545940741e-04 
-6.357684789507e-04 9.653705253964e-04 0.0 
9.653705253964e-04 4.033111277517e-03 0.0 
0.0 0.0 -7.049739924763e-04 
-7.219643329354e-04 7.270984363887e-04 0.0 
7.270984363887e-04 3.640512255542e-03 0.0 
0.0 0.0 -5.967387615352e-04 
1.271449544166e-04 1.530874377193e-03 0.0 
1.530874377193e-03 7.660888374693e-04 0.0 
0.0 0.0 -3.828144822368e-04 
-1.311008186282e-03 3.440606395408e-04 0.0 
3.440606395408e-04 8.440809804770e-03 0.0 
0.0 0.0 -1.282213402295e-03 
-5.754210014705e-04 1.101723762793e-03 0.0 
1.101723762793e-03 3.231346314138e-03 0.0 
0.0 0.0 -5.792479259103e-04 
-1.176826657867e-03 4.517387013495e-04 0.0 
4.517387013495e-04 7.668341186852e-03 0.0 
0.0 0.0 -1.230767059693e-03 
-8.116549819174e-04 -3.660838800677e-04 0.0 
-3.660838800677e-04 4.013024169842e-03 0.0 
0.0 0.0 -6.465396845166e-04 
-1.917368362491e-04 -1.670915138255e-03 0.0 
-1.670915138255e-03 1.673857297907e-03 0.0 
0.0 0.0 -4.222915044375e-04 
-1.218810452461e-03 -6.182829621563e-05 0.0 
-6.182829621563e-05 7.834853919449e-03 0.0 
0.0 0.0 -1.284312900220e-03 
-3.227899414303e-04 1.463352553329e-03 0.0 
1.463352553329e-03 2.102017459643e-03 0.0 
0.0 0.0 -4.669824892858e-04 
-1.341987455608e-03 4.935381790995e-04 0.0 
4.935381790995e-04 8.595598521703e-03 0.0 
0.0 0.0 -1.341987455608e-03 
-1.324901016307e-03 3.587683922887e-04 0.0 
3.587683922887e-04 8.344464300183e-03 0.0 
0.0 0.0 -1.282654109251e-03 
-8.850522684098e-04 7.214064072268e-04 0.0 
7.214064072268e-04 5.245748206413e-03 0.0 
0.0 0.0 -8.462542048450e-04 
-8.057611890132e-05 -1.710152855484e-04 0.0 
-1.710152855484e-04 3.103213667799e-04 0.0 
0.0 0.0 -9.846224909082e-05 
-1.340954708392e-03 5.230440169069e-04 0.0 
5.230440169069e-04 8.529172830874e-03 0.0 
0.0 0.0 -1.340954708391e-03 
-1.218199846518e-03 4.994387147234e-06 0.0 
4.994387147234e-06 7.808383985296e-03 0.0 
0.0 0.0 -1.284661450484e-03 
-4.838292351495e-05 -1.134502527952e-03 0.0 
-1.134502527952e-03 1.589566893982e-03 0.0 
0.0 0.0 -4.253660281670e-04 
-6.012411031331e-04 -5.471211505197e-06 0.0 
-5.471211505197e-06 5.388600975266e-03 0.0 
0.0 0.0 -9.353130867196e-04 
-1.284222320321e-03 3.331079903689e-04 0.0 
3.331079903689e-04 8.551492227036e-03 0.0 
0.0 0.0 -1.323014926434e-03 
0.0 0.0 0.0 
0.0 0.0 0.0 
0.0 0.0 0.0 
-6.023691884067e-04 1.029224405588e-03 0.0 
1.029224405588e-03 3.627406800571e-03 0.0 
0.0 0.0 -6.425506931502e-04 
-9.361925531562e-04 6.770287321789e-04 0.0 
6.770287321789e-04 5.532046743254e-03 0.0 
0.0 0.0 -8.816033652580e-04 
-8.298014528126e-04 7.768529914015e-04 0.0 
7.768529914015e-04 4.954128457589e-03 0.0 
0.0 0.0 -8.109139232486e-04 
-8.897770840316e-04 6.877783995216e-04 0.0 
6.877783995216e-04 5.117343312454e-03 0.0 
0.0 0.0 -8.186613860469e-04 
-1.469792992645e-04 1.697477444243e-03 0.0 
1.697477444243e-03 1.268784698810e-03 0.0 
0.0 0.0 -3.960833248805e-04 
-1.341360672448e-03 5.109795992512e-04 0.0 
5.109795992512e-04 8.445730971081e-03 0.0 
0.0 0.0 -1.341360672448e-03 
-7.719693981544e-05 2.760009161414e-04 0.0 
2.760009161414e-04 2.850848330235e-03 0.0 
0.0 0.0 -6.123778370825e-04 
1.753729935007e-04 1.501404700023e-05 0.0 
1.501404700023e-05 -5.243892185943e-05 0.0 
0.0 0.0 -5.268603070342e-05 
-1.302465582654e-03 -2.496096405259e-04 0.0 
-2.496096405259e-04 8.365120953103e-03 0.0 
0.0 0.0 -1.272354826527e-03 
-1.485058388714e-04 -2.923397016935e-04 0.0 
-2.923397016935e-04 5.768067641682e-04 0.0 
0.0 0.0 -1.019437782286e-04 
-7.982614346128e-04 6.111031080938e-04 0.0 
6.111031080938e-04 4.181968739078e-03 0.0 
0.0 0.0 -6.678899790658e-04 
2.246133581427e-04 -6.808997986787e-04 0.0 
-6.808997986787e-04 1.445508393424e-04 0.0 
0.0 0.0 -1.582132274936e-04 
-8.489872345980e-04 4.667487785959e-04 0.0 
4.667487785959e-04 4.536973076965e-03 0.0 
0.0 0.0 -7.094882865497e-04 
-1.255369180247e-03 1.858612183136e-05 0.0 
1.858612183136e-05 8.476379217670e-03 0.0 
0.0 0.0 -1.321823097425e-03 
-1.341255375116e-03 4.796779653900e-04 0.0 
4.796779653900e-04 8.398188684786e-03 0.0 
0.0 0.0 -1.341255375116e-03 
-9.721290586981e-04 5.581628762271e-04 0.0 
5.581628762271e-04 5.522703984207e-03 0.0 
0.0 0.0 -8.613793510407e-04 
1.600321873614e-04 -6.162664284866e-04 0.0 
-6.162664284866e-04 1.802849776087e-04 0.0 
0.0 0.0 -1.458502135586e-04 
3.109225001715e-06 1.120621869491e-06 0.0 
1.120621869491e-06 -8.787071989571e-07 0.0 
0.0 0.0 -9.559362011820e-07 
1.535176122475e-04 -1.236399581379e-03 0.0 
-1.236399581379e-03 5.447751134409e-04 0.0 
0.0 0.0 -2.992683110093e-04 
-1.116873810569e-03 -5.374998991881e-04 0.0 
-5.374998991881e-04 7.110713391746e-03 0.0 
0.0 0.0 -1.121833217354e-03 
-9.101085565852e-04 1.581356444995e-04 0.0 
1.581356444995e-04 5.291968435283e-03 0.0 
0.0 0.0 -7.704300227928e-04 
-9.627171074924e-04 3.587877174801e-05 0.0 
3.587877174801e-05 5.332601127641e-03 0.0 
0.0 0.0 -8.109332722942e-04 
-1.342502730507e-03 4.025374877915e-04 0.0 
4.025374877915e-04 8.333596175980e-03 0.0 
0.0 0.0 -1.342502730507e-03 
-9.258687689408e-04 6.411213788910e-05 0.0 
6.411213788910e-05 5.298171403091e-03 0.0 
0.0 0.0 -7.720444664677e-04 
-1.356038484680e-03 3.810509766439e-04 0.0 
3.810509766439e-04 8.994012411350e-03 0.0 
0.0 0.0 -1.322852565091e-03 
-9.095582700075e-04 6.913502515422e-04 0.0 
6.913502515422e-04 6.199031272495e-03 0.0 
0.0 0.0 -1.020998643257e-03 
-1.011415993933e-03 3.149863478337e-04 0.0 
3.149863478337e-04 5.896378527379e-03 0.0 
0.0 0.0 -8.907448815977e-04 
-5.714615022677e-04 1.156558804127e-03 0.0 
1.156558804127e-03 2.460117787699e-03 0.0 
0.0 0.0 -4.477608806526e-04 
-6.254234584821e-04 4.541246643039e-04 0.0 
4.541246643039e-04 5.320880420055e-03 0.0 
0.0 0.0 -9.378661514434e-04 
3.838669366307e-04 1.236207229742e-03 0.0 
1.236207229742e-03 2.839536722242e-04 0.0 
0.0 0.0 -2.862088323664e-04 
-1.340754991027e-03 2.766872434976e-04 0.0 
2.766872434976e-04 8.283487658048e-03 0.0 
0.0 0.0 -1.340754991027e-03 
-1.339984467612e-03 4.682059719065e-04 0.0 
4.682059719065e-04 8.622431533437e-03 0.0 
0.0 0.0 -1.339984467612e-03 
-1.340417744004e-03 3.687782300389e-04 0.0 
3.687782300389e-04 8.691962583590e-03 0.0 
0.0 0.0 -1.340417744004e-03 
-7.614631425941e-04 -7.600693639472e-04 0.0 
-7.600693639472e-04 5.166067953467e-03 0.0 
0.0 0.0 -8.666500598261e-04 
-8.083534389449e-04 -6.157792834396e-04 0.0 
-6.157792834396e-04 3.875634950425e-03 0.0 
0.0 0.0 -6.062238016986e-04 
-5.875577080076e-04 6.263804956418e-04 0.0 
6.263804956418e-04 4.098789747432e-03 0.0 
0.0 0.0 -7.021192356133e-04 
-7.972896345738e-04 -3.252844081748e-04 0.0 
-3.252844081748e-04 5.374062371917e-03 0.0 
0.0 0.0 -8.981573260837e-04 
-1.339627896631e-03 1.538435656171e-04 0.0 
1.538435656171e-04 8.249387984378e-03 0.0 
0.0 0.0 -1.339627896631e-03 
-7.499431316128e-05 1.153135812952e-03 0.0 
1.153135812952e-03 1.745463721331e-03 0.0 
0.0 0.0 -4.287941800800e-04 
9.963389295363e-05 -4.974640475465e-04 0.0 
-4.974640475465e-04 1.806583108532e-03 0.0 
0.0 0.0 -4.991860405784e-04 
-4.325429609303e-05 -6.957715566116e-04 0.0 
-6.957715566116e-04 2.198402972482e-03 0.0 
0.0 0.0 -5.272458293186e-04 
-1.040852931917e-03 3.039409917234e-04 0.0 
3.039409917234e-04 6.156930146379e-03 0.0 
0.0 0.0 -9.279583942086e-04 
-1.296158163173e-03 -2.117115631842e-04 0.0 
-2.117115631842e-04 8.526713660580e-03 0.0 
0.0 0.0 -1.323537156312e-03 
5.620572206728e-05 -9.064776901539e-04 0.0 
-9.064776901539e-04 4.833799193028e-04 0.0 
0.0 0.0 -2.312509891586e-04 
-1.340775759057e-03 -3.546022348328e-06 0.0 
-3.546022348328e-06 8.220355043040e-03 0.0 
0.0 0.0 -1.340775759057e-03 
-1.115561951243e-04 -9.424028116119e-04 0.0 
-9.424028116119e-04 2.079879554815e-03 0.0 
0.0 0.0 -4.905422085546e-04 
-1.342877878941e-03 5.106164496302e-04 0.0 
5.106164496302e-04 8.578886692927e-03 0.0 
0.0 0.0 -1.342877878941e-03 
-1.213674372651e-03 2.426946528992e-04 0.0 
2.426946528992e-04 7.585431715108e-03 0.0 
0.0 0.0 -1.152765850879e-03 
7.551303923517e-04 -3.431961155864e-05 0.0 
-3.431961155864e-05 -8.356761588733e-06 0.0 
0.0 0.0 -1.964897908492e-04 
-5.576622204016e-04 1.038766121166e-03 0.0 
1.038766121166e-03 3.693734829533e-03 0.0 
0.0 0.0 -6.690559060524e-04 
-1.231945608432e-03 6.630499771306e-05 0.0 
6.630499771306e-05 7.672705385687e-03 0.0 
0.0 0.0 -1.146019594970e-03 
-1.341220131281e-03 5.159350734491e-04 0.0 
5.159350734491e-04 8.502743697499e-03 0.0 
0.0 0.0 -1.341220131281e-03 
-1.018091222593e-03 2.268797553762e-04 0.0 
2.268797553762e-04 5.997567393014e-03 0.0 
0.0 0.0 -9.220067723808e-04 
-9.140544266385e-04 6.590381545290e-04 0.0 
6.590381545290e-04 6.350398110146e-03 0.0 
0.0 0.0 -1.049000704964e-03 
1.948485511646e-04 1.206910249746e-03 0.0 
1.206910249746e-03 4.719329916516e-04 0.0 
0.0 0.0 -2.857635183498e-04 
-1.092933677572e-03 -5.430090234950e-06 0.0 
-5.430090234950e-06 7.417148133219e-03 0.0 
0.0 0.0 -1.228682347183e-03 
-2.597655749325e-04 -9.580958323714e-04 0.0 
-9.580958323714e-04 2.468405464320e-03 0.0 
0.0 0.0 -5.184025592846e-04 
-1.467448334793e-04 -1.253609516085e-03 0.0 
-1.253609516085e-03 2.277465230796e-03 0.0 
0.0 0.0 -5.242929400402e-04 
8.350711239017e-05 -5.741871043008e-04 0.0 
-5.741871043008e-04 2.364507936714e-04 0.0 
0.0 0.0 -1.371248168835e-04 
-1.341079611575e-03 4.984530224516e-04 0.0 
4.984530224516e-04 8.418558490732e-03 0.0 
0.0 0.0 -1.341079611575e-03 
3.309852724411e-04 1.022663251937e-03 0.0 
1.022663251937e-03 7.457111261596e-04 0.0 
0.0 0.0 -3.670041082731e-04 
-9.538216450079e-04 -4.415701274725e-04 0.0 
-4.415701274725e-04 6.798030040948e-03 0.0 
0.0 0.0 -1.110501492391e-03 
-9.815143922996e-04 -1.301923920288e-04 0.0 
-1.301923920288e-04 5.716261133104e-03 0.0 
0.0 0.0 -8.555322119248e-04 
-5.211778943541e-04 -1.357561140200e-03 0.0 
-1.357561140200e-03 2.381396269316e-03 0.0 
0.0 0.0 -4.411586999297e-04 
5.027865284570e-06 -1.162974144005e-03 0.0 
-1.162974144005e-03 1.893137919142e-03 0.0 
0.0 0.0 -4.964677435772e-04 
-9.740976170288e-04 2.668400150695e-04 0.0 
2.668400150695e-04 5.727433876448e-03 0.0 
0.0 0.0 -8.867075537039e-04 
-1.342259935407e-03 3.249478019742e-04 0.0 
3.249478019742e-04 8.304746317588e-03 0.0 
0.0 0.0 -1.342259935407e-03 
-8.513383339797e-04 -2.155531084130e-04 0.0 
-2.155531084130e-04 4.042684079104e-03 0.0 
0.0 0.0 -6.378868265889e-04 
-8.326579327741e-04 -6.269168235212e-04 0.0 
-6.269168235212e-04 5.839362625743e-03 0.0 
0.0 0.0 -9.693340058278e-04 
-7.491524898005e-04 8.473182538136e-04 0.0 
8.473182538136e-04 4.765927930056e-03 0.0 
0.0 0.0 -8.030799362305e-04 
-5.836032186753e-04 -5.383312615796e-04 0.0 
-5.383312615796e-04 5.022073810354e-03 0.0 
0.0 0.0 -8.811160271665e-04 
4.293152286993e-05 -8.173969837308e-04 0.0 
-8.173969837308e-04 2.098601697323e-03 0.0 
0.0 0.0 -5.326451291888e-04 
-7.517931783722e-04 -6.967384815080e-04 0.0 
-6.967384815080e-04 5.353981326588e-03 0.0 
0.0 0.0 -9.031726653527e-04 
-7.384492594484e-04 4.981620025079e-04 0.0 
4.981620025079e-04 4.715692557205e-03 0.0 
0.0 0.0 -7.729461360948e-04 
-9.594660891244e-04 3.310922572756e-04 0.0 
3.310922572756e-04 6.288208991268e-03 0.0 
0.0 0.0 -9.982497011217e-04 
-7.260155598219e-04 4.211913378779e-04 0.0 
4.211913378779e-04 5.817009197579e-03 0.0 
0.0 0.0 -1.003134534203e-03 
-6.776109950317e-04 9.016603010913e-04 0.0 
9.016603010913e-04 4.450317334473e-03 0.0 
0.0 0.0 -7.676694601592e-04 
-7.429113511031e-04 -5.174574473206e-04 0.0 
-5.174574473206e-04 3.948133648233e-03 0.0 
0.0 0.0 -6.551190094499e-04 
-2.218900255169e-04 1.098460281572e-03 0.0 
1.098460281572e-03 2.169381084645e-03 0.0 
0.0 0.0 -4.640097282922e-04 
-8.062369115313e-04 -2.975304159245e-04 0.0 
-2.975304159245e-04 3.811084005570e-03 0.0 
0.0 0.0 -6.091269606258e-04 
-8.824461864644e-04 3.062506020875e-04 0.0 
3.062506020875e-04 6.271794679198e-03 0.0 
0.0 0.0 -1.018204129641e-03 
-4.460788929649e-04 4.040748578588e-04 0.0 
4.040748578588e-04 4.503525698480e-03 0.0 
0.0 0.0 -8.365169925761e-04 
-1.261002707828e-03 -7.504870971913e-05 0.0 
-7.504870971913e-05 8.505176480558e-03 0.0 
0.0 0.0 -1.321929620191e-03 
-1.247677519614e-03 1.094732648068e-04 0.0 
1.094732648068e-04 7.850453942976e-03 0.0 
0.0 0.0 -1.174325249119e-03 
-5.404813862772e-04 -9.466285983316e-04 0.0 
-9.466285983316e-04 2.223885193950e-03 0.0 
0.0 0.0 -4.069995479128e-04 
-1.341047338368e-03 7.540167646977e-05 0.0 
7.540167646977e-05 8.197352777791e-03 0.0 
0.0 0.0 -1.341047338368e-03 
-1.130691151971e-03 -1.784363264906e-05 0.0 
-1.784363264906e-05 8.053842301100e-03 0.0 
0.0 0.0 -1.266414110344e-03 
-4.715184922734e-04 9.294387903624e-04 0.0 
9.294387903624e-04 3.876101003561e-03 0.0 
0.0 0.0 -7.237787631415e-04 
3.035840363915e-05 -4.057342954642e-04 0.0 
-4.057342954642e-04 2.137280708151e-04 0.0 
0.0 0.0 -1.046084890518e-04 
-1.265736625837e-03 -2.342234423567e-04 0.0 
-2.342234423567e-04 8.560274388960e-03 0.0 
0.0 0.0 -1.323469717371e-03 
-1.248103745975e-03 1.754263225543e-04 0.0 
1.754263225543e-04 7.767855351365e-03 0.0 
0.0 0.0 -1.167157861819e-03 
-2.143426304924e-04 -1.125447243117e-03 0.0 
-1.125447243117e-03 2.012406359622e-03 0.0 
0.0 0.0 -4.535238702637e-04 
-1.341709311524e-03 -1.537021795728e-04 0.0 
-1.537021795728e-04 8.247140811223e-03 0.0 
0.0 0.0 -1.341709311524e-03 
-8.340634901946e-04 -6.821178693031e-04 0.0 
-6.821178693031e-04 5.639816405277e-03 0.0 
0.0 0.0 -9.325599965574e-04 
-7.159156796781e-04 8.199594821406e-04 0.0 
8.199594821406e-04 3.747642167749e-03 0.0 
0.0 0.0 -6.229492605273e-04 
-9.690599654105e-04 4.302709909689e-04 0.0 
4.302709909689e-04 5.467189617691e-03 0.0 
0.0 0.0 -8.408860858065e-04 
-3.919357097026e-04 6.068237325883e-05 0.0 
6.068237325883e-05 4.381455962217e-03 0.0 
0.0 0.0 -8.054665293395e-04 
-6.923438558252e-04 -8.520265330426e-04 0.0 
-8.520265330426e-04 4.695093275442e-03 0.0 
0.0 0.0 -8.008683130455e-04 
-6.056515233478e-04 -4.164522829612e-04 0.0 
-4.164522829612e-04 5.267235237804e-03 0.0 
0.0 0.0 -9.181754741429e-04 
-1.093523269899e-03 7.798311719690e-05 0.0 
7.798311719690e-05 6.464920900132e-03 0.0 
0.0 0.0 -9.721028620036e-04 
-8.031200443167e-04 6.781379836070e-04 0.0 
6.781379836070e-04 4.309322447368e-03 0.0 
0.0 0.0 -6.945885048819e-04 
-7.991042375162e-04 4.855628797920e-04 0.0 
4.855628797920e-04 6.126908297853e-03 0.0 
0.0 0.0 -1.039409037654e-03 
-9.955657075652e-04 -4.803366383392e-06 0.0 
-4.803366383392e-06 6.069270927012e-03 0.0 
0.0 0.0 -8.839498032872e-04 
-7.742968154824e-04 -8.517460638285e-04 0.0 
-8.517460638285e-04 4.014337168077e-03 0.0 
0.0 0.0 -6.521967345917e-04 
-6.549358325978e-04 3.442178195061e-04 0.0 
3.442178195061e-04 5.516212137862e-03 0.0 
0.0 0.0 -9.664699797409e-04 
-3.659361313913e-04 -1.389777863593e-03 0.0 
-1.389777863593e-03 2.536314572587e-03 0.0 
0.0 0.0 -5.155438399970e-04 
-1.017459211522e-03 -2.035278755390e-04 0.0 
-2.035278755390e-04 5.749338419273e-03 0.0 
0.0 0.0 -9.093720595694e-04 
2.256137386907e-04 -1.163159502201e-04 0.0 
-1.163159502201e-04 1.137935582799e-04 0.0 
0.0 0.0 -4.585464485956e-05 
-3.462420398140e-04 1.018466210769e-03 0.0 
1.018466210769e-03 2.570297332312e-03 0.0 
0.0 0.0 -4.997308803768e-04 
-2.322903734365e-04 -1.457188189013e-03 0.0 
-1.457188189013e-03 2.158535862862e-03 0.0 
0.0 0.0 -4.875765080988e-04 
-8.614851687078e-04 -3.337722832802e-04 0.0 
-3.337722832802e-04 4.446512628758e-03 0.0 
0.0 0.0 -7.126562430121e-04 
-5.635163873739e-04 9.119017880977e-04 0.0 
9.119017880977e-04 4.220442908307e-03 0.0 
0.0 0.0 -7.595228636782e-04 
-7.920931595490e-04 -2.649669687123e-04 0.0 
-2.649669687123e-04 5.573841345894e-03 0.0 
0.0 0.0 -9.350600278798e-04 
-1.013052504013e-03 -8.823570252137e-05 0.0 
-8.823570252137e-05 6.008966805305e-03 0.0 
0.0 0.0 -8.962969588583e-04 
-3.359179918489e-04 -1.568493616469e-03 0.0 
-1.568493616469e-03 2.089144442065e-03 0.0 
0.0 0.0 -4.505554202764e-04 
-1.341827844788e-03 -1.871667057256e-04 0.0 
-1.871667057256e-04 8.296019085882e-03 0.0 
0.0 0.0 -1.341827844788e-03 
-9.219930325587e-04 3.393896039245e-04 0.0 
3.393896039245e-04 5.591653643792e-03 0.0 
0.0 0.0 -8.789935771182e-04 
-9.115582794458e-04 -2.493035172872e-04 0.0 
-2.493035172872e-04 4.677595953812e-03 0.0 
0.0 0.0 -7.413896480605e-04 
-8.652400327000e-04 3.890590998056e-04 0.0 
3.890590998056e-04 5.305115327796e-03 0.0 
0.0 0.0 -8.436662038215e-04 
-8.817818309206e-04 -6.648690080579e-04 0.0 
-6.648690080579e-04 4.510392914982e-03 0.0 
0.0 0.0 -7.098625721847e-04 
0.0 0.0 0.0 
0.0 0.0 0.0 
0.0 0.0 0.0 
-1.015724792628e-03 8.235652516452e-05 0.0 
8.235652516452e-05 5.775865579893e-03 0.0 
0.0 0.0 -8.733545218784e-04 
-8.401387806922e-04 6.123016035239e-05 0.0 
6.123016035239e-05 3.850164849745e-03 0.0 
0.0 0.0 -5.956302995864e-04 
2.119608216236e-04 1.827144702945e-05 0.0 
1.827144702945e-05 -6.337242555222e-05 0.0 
0.0 0.0 -6.368074117344e-05 
-9.031369501237e-04 -1.865236162329e-04 0.0 
-1.865236162329e-04 4.464828183770e-03 0.0 
0.0 0.0 -7.041275119738e-04 
-8.760607814048e-04 -2.015865901798e-04 0.0 
-2.015865901798e-04 6.047567037496e-03 0.0 
0.0 0.0 -1.001254648526e-03 
-1.205696135514e-03 2.785240829935e-04 0.0 
2.785240829935e-04 7.656838420364e-03 0.0 
0.0 0.0 -1.146946825052e-03 
-5.022948978825e-04 -4.626796724593e-04 0.0 
-4.626796724593e-04 4.761985454285e-03 0.0 
0.0 0.0 -8.532270185794e-04 
-5.545620008577e-04 -7.574531854601e-05 0.0 
-7.574531854601e-05 4.939516714005e-03 0.0 
0.0 0.0 -8.841559964380e-04 
-9.029537400273e-04 7.141549008008e-05 0.0 
7.141549008008e-05 4.945239925053e-03 0.0 
0.0 0.0 -7.495231765994e-04 
-8.844827213453e-04 6.847338950965e-05 0.0 
6.847338950965e-05 4.625730514937e-03 0.0 
0.0 0.0 -7.312625299844e-04 
-1.286320179804e-03 2.788583147739e-04 0.0 
2.788583147739e-04 8.406193484283e-03 0.0 
0.0 0.0 -1.286111585339e-03 
-8.045597696771e-04 4.385655444655e-04 0.0 
4.385655444655e-04 5.012857215938e-03 0.0 
0.0 0.0 -8.082854548548e-04 
6.621891051064e-04 -1.711434374491e-05 0.0 
-1.711434374491e-05 -4.360569155907e-05 0.0 
0.0 0.0 -9.362473743294e-05 
-4.298982998579e-04 -6.269550114416e-04 0.0 
-6.269550114416e-04 1.549337747066e-03 0.0 
0.0 0.0 -2.569639750501e-04 
-5.557804512661e-05 -2.649152406900e-04 0.0 
-2.649152406900e-04 2.900758507811e-04 0.0 
0.0 0.0 -1.004990595662e-04 
-6.031978273067e-04 -1.007320967644e-03 0.0 
-1.007320967644e-03 2.552633295107e-03 0.0 
0.0 0.0 -4.284133232656e-04 
-1.143923933864e-03 2.767605230601e-04 0.0 
2.767605230601e-04 7.311015416728e-03 0.0 
0.0 0.0 -1.134523071099e-03 
-1.214790267536e-03 -1.094816465951e-04 0.0 
-1.094816465951e-04 7.712260942966e-03 0.0 
0.0 0.0 -1.144649651339e-03 
-1.087508141976e-03 -1.587001134092e-04 0.0 
-1.587001134092e-04 6.822768700719e-03 0.0 
0.0 0.0 -1.087427768671e-03 
-6.685965332887e-04 -7.845956287838e-04 0.0 
-7.845956287838e-04 2.990542570396e-03 0.0 
0.0 0.0 -4.827803379924e-04 
-1.041668217069e-03 -5.600095855462e-04 0.0 
-5.600095855462e-04 5.820984951314e-03 0.0 
0.0 0.0 -9.063168105749e-04 
-1.002226704218e-03 -4.489969858519e-05 0.0 
-4.489969858519e-05 6.971386371707e-03 0.0 
0.0 0.0 -1.142106164841e-03 
5.911862038656e-04 5.961670165533e-05 0.0 
5.961670165533e-05 -1.764561884350e-04 0.0 
0.0 0.0 -1.777414351845e-04 
-8.306874199400e-04 -2.997045909462e-04 0.0 
-2.997045909462e-04 3.873272421704e-03 0.0 
0.0 0.0 -5.942115541274e-04 
-6.956533125248e-04 1.124846661467e-04 0.0 
1.124846661467e-04 3.135833764917e-03 0.0 
0.0 0.0 -4.980019828625e-04 
-1.307918774452e-03 -2.672149718263e-04 0.0 
-2.672149718263e-04 8.583156667318e-03 0.0 
0.0 0.0 -1.322396863610e-03 
-1.341641872583e-03 -2.574400453278e-04 0.0 
-2.574400453278e-04 8.313092341430e-03 0.0 
0.0 0.0 -1.341641872583e-03 
-9.100844780323e-04 -2.535656636935e-04 0.0 
-2.535656636935e-04 4.283598396940e-03 0.0 
0.0 0.0 -6.580288049735e-04 
-9.226849417219e-04 -5.822088138657e-04 0.0 
-5.822088138657e-04 4.742725005737e-03 0.0 
0.0 0.0 -7.385580096348e-04 
-7.259593438489e-04 -4.081287369355e-04 0.0 
-4.081287369355e-04 4.909588067259e-03 0.0 
0.0 0.0 -8.323457052078e-04 
-1.025384663725e-03 -1.558037465640e-06 0.0 
-1.558037465640e-06 7.232536331843e-03 0.0 
0.0 0.0 -1.177278300149e-03 
-5.185769804222e-04 -3.082242823645e-04 0.0 
-3.082242823645e-04 1.649765607481e-03 0.0 
0.0 0.0 -2.880367495917e-04 
-9.770068768367e-04 -9.822974250100e-05 0.0 
-9.822974250100e-05 6.742502940673e-03 0.0 
0.0 0.0 -1.104707344597e-03 
-8.864038043829e-05 -1.638440655004e-05 0.0 
-1.638440655004e-05 9.863844244365e-04 0.0 
0.0 0.0 -1.612556504808e-04 
-8.754272683905e-04 -6.018300858025e-04 0.0 
-6.018300858025e-04 4.312432546832e-03 0.0 
0.0 0.0 -6.724657308136e-04 
-8.826884309659e-04 -7.176448192389e-04 0.0 
-7.176448192389e-04 4.701849927849e-03 0.0 
0.0 0.0 -7.470513223636e-04 
-3.546308527174e-05 5.679765794383e-06 0.0 
5.679765794383e-06 2.993710717870e-04 0.0 
0.0 0.0 -1.131034227923e-04 
-8.541374211011e-04 1.051307269510e-04 0.0 
1.051307269510e-04 4.063038016891e-03 0.0 
0.0 0.0 -6.267591816330e-04 
-1.242827358992e-03 4.579768759709e-04 0.0 
4.579768759709e-04 7.784562517271e-03 0.0 
0.0 0.0 -1.176862138969e-03 
5.856171802454e-04 8.673890813667e-06 0.0 
8.673890813667e-06 6.976119991762e-06 0.0 
0.0 0.0 -9.786084279852e-05 
-8.702582028195e-04 1.105447853201e-04 0.0 
1.105447853201e-04 4.607072405037e-03 0.0 
0.0 0.0 -7.322753781719e-04 
-8.459002629386e-04 1.198690024363e-04 0.0 
1.198690024363e-04 4.870014320209e-03 0.0 
0.0 0.0 -7.130472889423e-04 
-6.411087712709e-04 -3.059567672411e-04 0.0 
-3.059567672411e-04 5.528224217795e-03 0.0 
0.0 0.0 -9.552000144736e-04 
-6.940260095912e-04 -2.019223501579e-04 0.0 
-2.019223501579e-04 3.181147651246e-03 0.0 
0.0 0.0 -4.943513106837e-04 
-3.551699552598e-04 -1.046898701828e-03 0.0 
-1.046898701828e-03 2.386678131376e-03 0.0 
0.0 0.0 -4.817493388239e-04 
-2.903941216122e-04 1.483074513055e-03 0.0 
1.483074513055e-03 1.457235103792e-03 0.0 
0.0 0.0 -3.398054741319e-04 
-1.199955943827e-03 -1.286515075727e-04 0.0 
-1.286515075727e-04 7.503949585872e-03 0.0 
0.0 0.0 -1.180895453064e-03 
-1.276254635442e-03 4.715115445783e-04 0.0 
4.715115445783e-04 8.059382999082e-03 0.0 
0.0 0.0 -1.286194385238e-03 
-1.186217889961e-03 -6.749121568718e-05 0.0 
-6.749121568718e-05 7.409362913807e-03 0.0 
0.0 0.0 -1.101088927253e-03 
-5.347000365982e-04 9.291634402025e-04 0.0 
9.291634402025e-04 2.503086312716e-03 0.0 
0.0 0.0 -4.457015571677e-04 
-3.190037393042e-04 -1.683187168607e-04 0.0 
-1.683187168607e-04 9.740026393817e-04 0.0 
0.0 0.0 -2.223875638571e-04 
-8.385442436261e-04 2.562372654306e-04 0.0 
2.562372654306e-04 4.497930936177e-03 0.0 
0.0 0.0 -6.999131133628e-04 
-8.425527780140e-04 3.452494000883e-05 0.0 
3.452494000883e-05 4.643700331840e-03 0.0 
0.0 0.0 -7.345111139194e-04 
-8.389403033821e-04 -1.305466340479e-06 0.0 
-1.305466340479e-06 4.908724598573e-03 0.0 
0.0 0.0 -7.144802219087e-04 
2.118993314013e-04 1.507058348733e-05 0.0 
1.507058348733e-05 -6.339593750257e-05 0.0 
0.0 0.0 -6.364431167088e-05 
-5.587289192583e-05 -6.452329894431e-06 0.0 
-6.452329894431e-06 2.977317204857e-04 0.0 
0.0 0.0 -1.036537836685e-04 
-1.659582098733e-04 -6.983629749951e-05 0.0 
-6.983629749951e-05 7.156238265913e-04 0.0 
0.0 0.0 -1.795416262981e-04 
-6.042827533109e-04 -3.178261870528e-04 0.0 
-3.178261870528e-04 2.298196668838e-03 0.0 
0.0 0.0 -3.820941496288e-04 
1.745656339544e-04 -6.881620967810e-06 0.0 
-6.881620967810e-06 5.205015129475e-04 0.0 
0.0 0.0 -1.430998070712e-04 
-9.621077650285e-04 9.743124488288e-05 0.0 
9.743124488288e-05 4.540703172736e-03 0.0 
0.0 0.0 -6.918148876825e-04 
0.0 0.0 0.0 
0.0 0.0 0.0 
0.0 0.0 0.0 
-6.636885702572e-04 -3.632840591834e-04 0.0 
-3.632840591834e-04 2.727769964994e-03 0.0 
0.0 0.0 -4.482372226011e-04 
-1.037073112810e-03 8.416167581821e-05 0.0 
8.416167581821e-05 6.231636848545e-03 0.0 
0.0 0.0 -9.582560723523e-04 
-8.428951159850e-04 8.320649882269e-05 0.0 
8.320649882269e-05 4.895786071823e-03 0.0 
0.0 0.0 -7.120344407548e-04 
-1.176195464104e-03 2.727173431630e-04 0.0 
2.727173431630e-04 7.571205441829e-03 0.0 
0.0 0.0 -1.169483110168e-03 
-8.724458015180e-04 -2.535481835564e-04 0.0 
-2.535481835564e-04 5.840199633402e-03 0.0 
0.0 0.0 -9.641449249716e-04 
-9.956049472303e-04 9.460602026458e-05 0.0 
9.460602026458e-05 5.823804297189e-03 0.0 
0.0 0.0 -8.988447104697e-04 
-7.453270263773e-04 1.666868432523e-04 0.0 
1.666868432523e-04 3.393805001824e-03 0.0 
0.0 0.0 -5.269378630653e-04 
-6.611997545445e-05 -3.806127284770e-05 0.0 
-3.806127284770e-05 9.766559638682e-04 0.0 
0.0 0.0 -1.602995255322e-04 
-1.340974968048e-03 1.475163558745e-04 0.0 
1.475163558745e-04 8.789407210591e-03 0.0 
0.0 0.0 -1.340974968048e-03 
-1.353375445294e-03 1.861681106883e-04 0.0 
1.861681106883e-04 9.067632799309e-03 0.0 
0.0 0.0 -1.320295381545e-03 
-9.653313430370e-04 3.172946590342e-04 0.0 
3.172946590342e-04 5.653212768820e-03 0.0 
0.0 0.0 -8.588387843224e-04 
-8.723549553050e-04 3.791940437681e-05 0.0 
3.791940437681e-05 4.638744233564e-03 0.0 
0.0 0.0 -7.326073368542e-04 
-7.433675000171e-04 -1.881116571238e-04 0.0 
-1.881116571238e-04 3.464526545461e-03 0.0 
0.0 0.0 -5.314511797787e-04 
-1.343039576571e-03 1.116238935560e-04 0.0 
1.116238935560e-04 9.058435864628e-03 0.0 
0.0 0.0 -1.322576402756e-03 
-6.088517818817e-04 -7.427980185432e-04 0.0 
-7.427980185432e-04 2.573085079122e-03 0.0 
0.0 0.0 -4.166600706249e-04 
-8.421343191380e-04 8.947296271354e-05 0.0 
8.947296271354e-05 4.867861189812e-03 0.0 
0.0 0.0 -7.125614225629e-04 
-8.442475580862e-04 6.688277321944e-05 0.0 
6.688277321944e-05 4.629764896323e-03 0.0 
0.0 0.0 -7.312775522649e-04 
-8.183075665077e-04 4.944600713478e-04 0.0 
4.944600713478e-04 4.297011605974e-03 0.0 
0.0 0.0 -6.755779900756e-04 
-1.341823989366e-03 3.176700121755e-04 0.0 
3.176700121755e-04 8.755155514573e-03 0.0 
0.0 0.0 -1.341823989366e-03 
-1.316183787817e-03 1.764356624828e-04 0.0 
1.764356624828e-04 9.061441417317e-03 0.0 
0.0 0.0 -1.322582685247e-03 
1.706419388007e-04 -6.581066488368e-06 0.0 
-6.581066488368e-06 5.083643028934e-04 0.0 
0.0 0.0 -1.414504174366e-04 
2.407344509661e-04 1.323517305793e-05 0.0 
1.323517305793e-05 -7.208659109850e-05 0.0 
0.0 0.0 -7.227765422896e-05 
-4.260081866660e-04 -1.856958100474e-04 0.0 
-1.856958100474e-04 1.223914747001e-03 0.0 
0.0 0.0 -2.229509930541e-04 
-8.539532720431e-04 -3.709598021116e-04 0.0 
-3.709598021116e-04 4.637819177533e-03 0.0 
0.0 0.0 -7.497705102653e-04 
-1.319228459702e-03 1.823496012509e-04 0.0 
1.823496012509e-04 8.037185883931e-03 0.0 
0.0 0.0 -1.224669017856e-03 
0.0 0.0 0.0 
0.0 0.0 0.0 
0.0 0.0 0.0 
-1.164534197096e-03 -1.984727069524e-04 0.0 
-1.984727069524e-04 7.327097077271e-03 0.0 
0.0 0.0 -1.092518628634e-03 
0.0 0.0 0.0 
0.0 0.0 0.0 
0.0 0.0 0.0 
-6.586480689669e-04 -2.893406478862e-05 0.0 
-2.893406478862e-05 5.445033550024e-03 0.0 
0.0 0.0 -9.493083249531e-04 
6.413544779552e-05 -3.379620450346e-04 0.0 
-3.379620450346e-04 1.394736970074e-04 0.0 
0.0 0.0 -8.691392457031e-05 
1.450430834232e-05 -8.616792963926e-05 0.0 
-8.616792963926e-05 3.294529381564e-05 0.0 
0.0 0.0 -2.033554378198e-05 
-6.338862404721e-04 -1.383285000905e-04 0.0 
-1.383285000905e-04 5.212576859225e-03 0.0 
0.0 0.0 -9.122568895951e-04 
-1.285900318349e-03 2.146352195215e-05 0.0 
2.146352195215e-05 7.759528202279e-03 0.0 
0.0 0.0 -1.192963836147e-03 
-1.029044917040e-03 -7.279636213487e-05 0.0 
-7.279636213487e-05 6.446740060124e-03 0.0 
0.0 0.0 -9.361271490834e-04 
-8.407421483093e-04 3.218859450769e-04 0.0 
3.218859450769e-04 4.639661762171e-03 0.0 
0.0 0.0 -7.268406435589e-04 
-3.072399208747e-05 -1.897210475410e-05 0.0 
-1.897210475410e-05 2.991997316549e-04 0.0 
0.0 0.0 -1.150610312432e-04 
-1.088521664505e-03 -4.986556758640e-04 0.0 
-4.986556758640e-04 6.052818965112e-03 0.0 
0.0 0.0 -9.349022313484e-04 
-1.337797817327e-03 2.888082420915e-05 0.0 
2.888082420915e-05 8.797778454419e-03 0.0 
0.0 0.0 -1.337797817327e-03 
-1.344206616167e-03 -8.091836582187e-05 0.0 
-8.091836582187e-05 9.064612422815e-03 0.0 
0.0 0.0 -1.322354755130e-03 
-8.386635614455e-04 6.856267782852e-05 0.0 
6.856267782852e-05 4.896920748213e-03 0.0 
0.0 0.0 -7.125764448434e-04 
-6.958258556128e-04 6.990936182405e-05 0.0 
6.990936182405e-05 5.692375670829e-03 0.0 
0.0 0.0 -9.863757069361e-04 
-1.341607717199e-03 1.551401879936e-04 0.0 
1.551401879936e-04 8.810609962061e-03 0.0 
0.0 0.0 -1.341607717199e-03 
-8.875903164710e-04 2.432432692731e-04 0.0 
2.432432692731e-04 6.412529175352e-03 0.0 
0.0 0.0 -1.046710270629e-03 
-7.224987108801e-05 2.416900893393e-05 0.0 
2.416900893393e-05 9.236508622773e-04 0.0 
0.0 0.0 -1.589907658001e-04 
1.844060408699e-04 -1.026478452949e-05 0.0 
-1.026478452949e-05 5.130263938471e-04 0.0 
0.0 0.0 -1.435574244405e-04 
-2.891409061342e-05 -3.272758998480e-05 0.0 
-3.272758998480e-05 3.203427987140e-04 0.0 
0.0 0.0 -1.200048127433e-04 
-8.246082063499e-04 1.600403801409e-04 0.0 
1.600403801409e-04 3.844559296729e-03 0.0 
0.0 0.0 -5.933358154923e-04 
-1.368440753648e-03 -2.847926622310e-04 0.0 
-2.847926622310e-04 8.814363085181e-03 0.0 
0.0 0.0 -1.322828574513e-03 
-1.280689091558e-03 -2.286632291646e-04 0.0 
-2.286632291646e-04 8.487923234130e-03 0.0 
0.0 0.0 -1.258329778789e-03 
2.520020944074e-04 -9.417495015486e-06 0.0 
-9.417495015486e-06 -7.547411903337e-05 0.0 
0.0 0.0 -7.565484658888e-05 
-9.449458894061e-04 -2.123271304103e-04 0.0 
-2.123271304103e-04 4.512069341782e-03 0.0 
0.0 0.0 -6.938761155152e-04 
-1.344798314370e-03 -1.247366253674e-04 0.0 
-1.247366253674e-04 8.595631148609e-03 0.0 
0.0 0.0 -1.344798314369e-03 
-1.373531731671e-03 -1.707869213026e-04 0.0 
-1.707869213026e-04 8.832402882049e-03 0.0 
0.0 0.0 -1.318785251170e-03 
-1.282177360506e-03 -3.124369979244e-04 0.0 
-3.124369979244e-04 8.610103347005e-03 0.0 
0.0 0.0 -1.321151187552e-03 
-1.113562773683e-03 2.219946434219e-04 0.0 
2.219946434219e-04 6.878878469590e-03 0.0 
0.0 0.0 -1.027148381742e-03 
-1.180769122149e-03 -2.135481498419e-04 0.0 
-2.135481498419e-04 7.573759840694e-03 0.0 
0.0 0.0 -1.125709525796e-03 
-1.338030260144e-03 -1.771563366243e-04 0.0 
-1.771563366243e-04 8.542675147626e-03 0.0 
0.0 0.0 -1.338030260144e-03 
-1.340754991027e-03 -2.390663127656e-04 0.0 
-2.390663127656e-04 8.545998822267e-03 0.0 
0.0 0.0 -1.340754991027e-03 
-1.152960594027e-03 1.859255734492e-04 0.0 
1.859255734492e-04 7.333872638941e-03 0.0 
0.0 0.0 -1.092518628634e-03 
6.040404689232e-04 9.568591753019e-05 0.0 
9.568591753019e-05 -6.408932826674e-05 0.0 
0.0 0.0 -9.235885521468e-05 
-8.216739313019e-04 1.642653897250e-05 0.0 
1.642653897250e-05 4.866544847831e-03 0.0 
0.0 0.0 -7.139539158865e-04 
-8.429301589013e-04 7.371775731573e-05 0.0 
7.371775731573e-05 4.924292125164e-03 0.0 
0.0 0.0 -7.133642253441e-04 
2.432336519054e-04 6.949879094711e-06 0.0 
6.949879094711e-06 -7.294262653964e-05 0.0 
0.0 0.0 -7.298186801390e-05 
-1.342313591240e-03 -2.893823135638e-04 0.0 
-2.893823135638e-04 8.501007321383e-03 0.0 
0.0 0.0 -1.342313591240e-03 
-1.327713446301e-03 -3.071447071229e-04 0.0 
-3.071447071229e-04 8.654446540322e-03 0.0 
0.0 0.0 -1.318355947622e-03 
-1.337959751097e-03 -3.069413126871e-04 0.0 
-3.069413126871e-04 8.377273660842e-03 0.0 
0.0 0.0 -1.337959751097e-03 
5.382873424725e-04 1.051034098534e-05 0.0 
1.051034098534e-05 3.447207322761e-05 0.0 
0.0 0.0 -9.875111991497e-05 
5.465365996427e-04 1.921140548757e-05 0.0 
1.921140548757e-05 3.586604406774e-05 0.0 
0.0 0.0 -1.001629653630e-04 
-1.340754991027e-03 -2.745211848364e-04 0.0 
-2.745211848364e-04 8.326750669152e-03 0.0 
0.0 0.0 -1.340754991027e-03 
-1.340396196526e-03 -3.177254258607e-04 0.0 
-3.177254258607e-04 8.348861196928e-03 0.0 
0.0 0.0 -1.340396196526e-03 
-1.100408733265e-03 -2.290747800904e-04 0.0 
-2.290747800904e-04 6.654648242085e-03 0.0 
0.0 0.0 -9.936726122374e-04 
-8.156679351147e-04 3.791493186346e-05 0.0 
3.791493186346e-05 4.866771241895e-03 0.0 
0.0 0.0 -7.124851972278e-04 
-1.126282978383e-03 -2.242329370711e-04 0.0 
-2.242329370711e-04 7.103431173965e-03 0.0 
0.0 0.0 -1.060142436171e-03 
-9.808195587630e-04 -2.230997408213e-04 0.0 
-2.230997408213e-04 5.708119715060e-03 0.0 
0.0 0.0 -8.626607521899e-04 
-7.941305620824e-04 1.551089981454e-05 0.0 
1.551089981454e-05 4.869359917574e-03 0.0 
0.0 0.0 -7.121912678902e-04 
7.040827403612e-04 7.380490456996e-06 0.0 
7.380490456996e-06 -3.505683220774e-05 0.0 
0.0 0.0 -9.491348420367e-05 
6.357527662839e-04 -8.824699617213e-05 0.0 
-8.824699617213e-05 3.733323429846e-05 0.0 
0.0 0.0 -1.068803031330e-04 
5.856552846093e-04 -8.204592747125e-05 0.0 
-8.204592747125e-05 2.270090481132e-05 0.0 
0.0 0.0 -9.934895370439e-05 
6.682124726064e-04 -5.433044528850e-05 0.0 
-5.433044528850e-05 2.762423436657e-05 0.0 
0.0 0.0 -1.574260069802e-04 
-9.875526380001e-04 1.999683647263e-04 0.0 
1.999683647263e-04 4.756922496595e-03 0.0 
0.0 0.0 -7.271325101417e-04 
-9.022422993743e-04 1.689219604000e-04 0.0 
1.689219604000e-04 4.293373185727e-03 0.0 
0.0 0.0 -6.600769387058e-04 
0.0 0.0 0.0 
0.0 0.0 0.0 
0.0 0.0 0.0 
-1.139432736752e-03 1.969596473993e-04 0.0 
1.969596473993e-04 6.092355855196e-03 0.0 
0.0 0.0 -9.221709323543e-04 
0.0 0.0 0.0 
0.0 0.0 0.0 
0.0 0.0 0.0 
-1.341471640605e-03 2.821656468085e-04 0.0 
2.821656468085e-04 8.748357117342e-03 0.0 
0.0 0.0 -1.341471640605e-03 
-1.340968685557e-03 1.312437350478e-04 0.0 
1.312437350478e-04 8.782913575074e-03 0.0 
0.0 0.0 -1.340968685557e-03 
-1.339320413496e-03 1.880713074898e-04 0.0 
1.880713074898e-04 8.789181418084e-03 0.0 
0.0 0.0 -1.339320413496e-03 
-2.891904725790e-04 2.036868385329e-04 0.0 
2.036868385329e-04 1.487086439737e-03 0.0 
0.0 0.0 -2.599136149544e-04 
-6.430141663801e-04 1.708121578067e-04 0.0 
1.708121578067e-04 2.925097320677e-03 0.0 
0.0 0.0 -4.607467809507e-04 
-1.337132911908e-03 8.989218137943e-05 0.0 
8.989218137943e-05 8.798780956337e-03 0.0 
0.0 0.0 -1.337132911908e-03 
-1.268709771428e-03 1.750290220288e-04 0.0 
1.750290220288e-04 7.410750387042e-03 0.0 
0.0 0.0 -1.124956933753e-03 
-1.344556937803e-03 5.420067643192e-05 0.0 
5.420067643192e-05 8.841140369170e-03 0.0 
0.0 0.0 -1.344556937803e-03 
-1.309963082983e-03 1.898374887779e-04 0.0 
1.898374887779e-04 7.848623061347e-03 0.0 
0.0 0.0 -1.192538251246e-03 
-1.338506523092e-03 2.196897297750e-04 0.0 
2.196897297750e-04 8.286254789378e-03 0.0 
0.0 0.0 -1.259905836238e-03 
-8.634449756302e-04 -2.267992264203e-04 0.0 
-2.267992264203e-04 4.063283112415e-03 0.0 
0.0 0.0 -6.267460875326e-04 
-1.354536289335e-03 7.630110527830e-05 0.0 
7.630110527830e-05 9.083283423121e-03 0.0 
0.0 0.0 -1.318101597465e-03 
-1.353127036110e-03 2.052350059942e-04 0.0 
2.052350059942e-04 9.070380165704e-03 0.0 
0.0 0.0 -1.321689849711e-03 
-1.286890123680e-03 -2.394731622084e-04 0.0 
-2.394731622084e-04 7.571755325092e-03 0.0 
0.0 0.0 -1.157495185000e-03 
-1.323365826624e-03 -2.403819852103e-04 0.0 
-2.403819852103e-04 8.033634754339e-03 0.0 
0.0 0.0 -1.225777420818e-03 
-1.161453211646e-03 -3.736884005785e-04 0.0 
-3.736884005785e-04 6.493225178424e-03 0.0 
0.0 0.0 -9.925156490314e-04 
0.0 0.0 0.0 
0.0 0.0 0.0 
0.0 0.0 0.0 
-8.671818712195e-04 -5.363828857818e-04 0.0 
-5.363828857818e-04 4.105500038503e-03 0.0 
0.0 0.0 -6.350241097613e-04 
1.538446466672e-04 -5.196602102228e-05 0.0 
-5.196602102228e-05 5.032465276658e-04 0.0 
0.0 0.0 -1.372732375194e-04 
-1.212742551210e-03 -4.759587518373e-04 0.0 
-4.759587518373e-04 7.564630454968e-03 0.0 
0.0 0.0 -1.177819030284e-03 
-8.605651419967e-04 -2.779235020759e-04 0.0 
-2.779235020759e-04 4.247159815615e-03 0.0 
0.0 0.0 -6.753691525988e-04 
-1.209845026625e-03 -3.828065324347e-05 0.0 
-3.828065324347e-05 7.089490121300e-03 0.0 
0.0 0.0 -1.099016898379e-03 
-5.359685570494e-04 -6.677092728244e-04 0.0 
-6.677092728244e-04 2.153205781578e-03 0.0 
0.0 0.0 -3.504775146279e-04 
-1.805242587165e-04 1.222080852242e-05 0.0 
1.222080852242e-05 7.550645308543e-04 0.0 
0.0 0.0 -1.735952156319e-04 
-1.264456075116e-03 -3.850163355986e-04 0.0 
-3.850163355986e-04 7.592925326403e-03 0.0 
0.0 0.0 -1.161668299909e-03 
-9.012428398998e-04 -5.241478665253e-04 0.0 
-5.241478665253e-04 4.532812848754e-03 0.0 
0.0 0.0 -7.012080445024e-04 
-8.068122859681e-04 1.121430841948e-04 0.0 
1.121430841948e-04 3.618999234990e-03 0.0 
0.0 0.0 -5.611363230934e-04 
-1.221373729773e-03 -3.971185644326e-04 0.0 
-3.971185644326e-04 7.158861497178e-03 0.0 
0.0 0.0 -1.096102707776e-03 
-1.225888037185e-03 2.356398892211e-04 0.0 
2.356398892211e-04 7.926332987898e-03 0.0 
0.0 0.0 -1.188907866872e-03 
-7.850590963075e-04 -2.211249008548e-04 0.0 
-2.211249008548e-04 3.627921543623e-03 0.0 
0.0 0.0 -5.602736785587e-04 
-9.153466014746e-04 -5.672710459790e-04 0.0 
-5.672710459790e-04 6.328544019957e-03 0.0 
0.0 0.0 -1.035646790376e-03 
-9.544485914901e-04 -2.692006228927e-04 0.0 
-2.692006228927e-04 5.706833288183e-03 0.0 
0.0 0.0 -9.181742748318e-04 
-1.151482432891e-03 -1.721733511891e-05 0.0 
-1.721733511891e-05 6.426989542900e-03 0.0 
0.0 0.0 -9.952786863929e-04 
-1.189685403522e-03 2.186394532171e-05 0.0 
2.186394532171e-05 6.656907816596e-03 0.0 
0.0 0.0 -1.024224580100e-03 
-2.906015399770e-05 6.908185225539e-04 0.0 
6.908185225539e-04 2.388123543614e-03 0.0 
0.0 0.0 -5.788817793163e-04 
-8.005376655691e-04 3.171132398136e-04 0.0 
3.171132398136e-04 4.241491794382e-03 0.0 
0.0 0.0 -6.651338130661e-04 
-5.426647513542e-04 5.869195559815e-04 0.0 
5.869195559815e-04 4.187651392435e-03 0.0 
0.0 0.0 -7.293057621918e-04 
-1.068839531754e-03 -1.396982746719e-04 0.0 
-1.396982746719e-04 5.983670003937e-03 0.0 
0.0 0.0 -9.378562126457e-04 
-1.253909417431e-03 -3.654180260376e-04 0.0 
-3.654180260376e-04 7.384129283890e-03 0.0 
0.0 0.0 -1.125100902632e-03 
-1.223048658493e-03 8.194922759041e-05 0.0 
8.194922759041e-05 6.885373196445e-03 0.0 
0.0 0.0 -1.053755873404e-03 
-5.843499511654e-04 -7.478811802874e-04 0.0 
-7.478811802874e-04 2.078474299742e-03 0.0 
0.0 0.0 -3.685493992842e-04 
-1.215420929976e-03 2.914568716421e-04 0.0 
2.914568716421e-04 7.912104441246e-03 0.0 
0.0 0.0 -1.183514100502e-03 
-1.184839979766e-03 2.716593684437e-04 0.0 
2.716593684437e-04 7.456605698874e-03 0.0 
0.0 0.0 -1.117084069417e-03 
-9.160676408920e-04 2.566629763440e-04 0.0 
2.566629763440e-04 5.389449650205e-03 0.0 
0.0 0.0 -8.110481619253e-04 
-1.072043250355e-03 -1.594447290691e-04 0.0 
-1.594447290691e-04 6.194419037886e-03 0.0 
0.0 0.0 -9.753747863247e-04 
-1.113512703567e-03 -7.830874303778e-05 0.0 
-7.830874303778e-05 6.209473753146e-03 0.0 
0.0 0.0 -9.665592132828e-04 
-1.247553885459e-03 -1.638883659802e-04 0.0 
-1.638883659802e-04 8.032779373469e-03 0.0 
0.0 0.0 -1.185362187646e-03 
-1.209218779800e-03 2.395415248872e-04 0.0 
2.395415248872e-04 7.733666527183e-03 0.0 
0.0 0.0 -1.150972777267e-03 
-9.235989750770e-04 -6.984337716094e-04 0.0 
-6.984337716094e-04 5.520417486699e-03 0.0 
0.0 0.0 -8.866930489607e-04 
-1.284523920474e-03 -3.501071659254e-04 0.0 
-3.501071659254e-04 7.805517890163e-03 0.0 
0.0 0.0 -1.190872049285e-03 
-1.177897572884e-03 3.138623603337e-04 0.0 
3.138623603337e-04 7.354283994280e-03 0.0 
0.0 0.0 -1.103416240745e-03 
-1.224145241381e-03 -2.616286438841e-04 0.0 
-2.616286438841e-04 6.885317791912e-03 0.0 
0.0 0.0 -1.053748284807e-03 
-1.251504070725e-03 -4.981478354757e-04 0.0 
-4.981478354757e-04 7.817749108824e-03 0.0 
0.0 0.0 -1.210017230578e-03 
-1.240161038229e-03 -1.265963501437e-04 0.0 
-1.265963501437e-04 7.971776447579e-03 0.0 
0.0 0.0 -1.181737430652e-03 
-1.104792332721e-03 -1.417124884619e-04 0.0 
-1.417124884619e-04 6.803117520475e-03 0.0 
0.0 0.0 -1.011817915138e-03 
-9.092260506378e-04 -6.128458239001e-04 0.0 
-6.128458239001e-04 6.116526816133e-03 0.0 
0.0 0.0 -9.985655989920e-04 
-5.244393316962e-04 -3.327701467075e-07 0.0 
-3.327701467075e-07 2.217192403788e-03 0.0 
0.0 0.0 -3.644364776638e-04 
-5.557520001356e-04 -9.492103982614e-04 0.0 
-9.492103982614e-04 1.854328414375e-03 0.0 
0.0 0.0 -3.414758422231e-04 
-2.976977379688e-04 -4.729019177062e-04 0.0 
-4.729019177062e-04 1.065430610337e-03 0.0 
0.0 0.0 -1.876370064529e-04 
-1.394869518500e-05 -5.836024776206e-04 0.0 
-5.836024776206e-04 3.988673203720e-04 0.0 
0.0 0.0 -1.649651250801e-04 
-1.208849354757e-03 -1.442002111852e-04 0.0 
-1.442002111852e-04 7.751975943977e-03 0.0 
0.0 0.0 -1.150998037120e-03 
-1.270626804187e-03 5.625887811154e-05 0.0 
5.625887811154e-05 7.521765115722e-03 0.0 
0.0 0.0 -1.156839719840e-03 
-1.128430539847e-04 -4.533921113002e-04 0.0 
-4.533921113002e-04 5.125802596057e-04 0.0 
0.0 0.0 -1.512448671109e-04 
-1.224260673069e-03 1.930240191298e-04 0.0 
1.930240191298e-04 7.672098389018e-03 0.0 
0.0 0.0 -1.160298666437e-03 
-9.269777591648e-04 2.462098102623e-04 0.0 
2.462098102623e-04 5.566246555216e-03 0.0 
0.0 0.0 -8.436798659344e-04 
-1.183821186611e-03 -4.510450975400e-04 0.0 
-4.510450975400e-04 6.938898886609e-03 0.0 
0.0 0.0 -1.067477449466e-03 
-1.234042430495e-03 4.386686661325e-05 0.0 
4.386686661325e-05 7.085000705368e-03 0.0 
0.0 0.0 -1.090430023688e-03 
-4.688031105262e-04 -9.449998288247e-04 0.0 
-9.449998288247e-04 2.708853865005e-03 0.0 
0.0 0.0 -5.090628918580e-04 
-1.241127751091e-03 -3.232486977457e-04 0.0 
-3.232486977457e-04 7.146083644213e-03 0.0 
0.0 0.0 -1.087955833448e-03 
-9.128116180444e-04 -2.432084876036e-04 0.0 
-2.432084876036e-04 5.398327604704e-03 0.0 
0.0 0.0 -8.100176300978e-04 
-7.075550094797e-04 -2.554204369628e-05 0.0 
-2.554204369628e-05 5.888227624213e-03 0.0 
0.0 0.0 -1.000388816061e-03 
-1.275643571196e-03 -3.853184117788e-05 0.0 
-3.853184117788e-05 7.999890426169e-03 0.0 
0.0 0.0 -1.242964905849e-03 
-4.891437223720e-04 4.195566496952e-05 0.0 
4.195566496952e-05 2.125578513997e-03 0.0 
0.0 0.0 -3.542437553904e-04 
-1.232067324065e-03 -4.786069064869e-04 0.0 
-4.786069064869e-04 7.807210147599e-03 0.0 
0.0 0.0 -1.215045542354e-03 
-1.132051344136e-03 -1.297668119058e-04 0.0 
-1.297668119058e-04 7.059354268222e-03 0.0 
0.0 0.0 -1.048288725887e-03 
-5.597857793192e-04 4.639966247623e-05 0.0 
4.639966247623e-05 2.420049368412e-03 0.0 
0.0 0.0 -3.930611257745e-04 
-5.609737831535e-04 -1.192047374110e-03 0.0 
-1.192047374110e-03 2.290088636828e-03 0.0 
0.0 0.0 -4.034900192350e-04 
-1.019435653485e-03 2.510797196313e-05 0.0 
2.510797196313e-05 5.114500101547e-03 0.0 
0.0 0.0 -7.909606353592e-04 
-1.046153520856e-03 2.672543322815e-04 0.0 
2.672543322815e-04 6.254372891690e-03 0.0 
0.0 0.0 -9.409807611877e-04 
-7.501439557546e-04 -2.986549649001e-04 0.0 
-2.986549649001e-04 3.375633566619e-03 0.0 
0.0 0.0 -5.429771841545e-04 
-1.160690986180e-03 -1.496920489451e-04 0.0 
-1.496920489451e-04 7.303854633305e-03 0.0 
0.0 0.0 -1.085119818393e-03 
-1.069476201499e-03 -1.757346183128e-04 0.0 
-1.757346183128e-04 6.567285104211e-03 0.0 
0.0 0.0 -9.816794289629e-04 
-9.579280571301e-04 -1.773255598002e-04 0.0 
-1.773255598002e-04 4.907486764764e-03 0.0 
0.0 0.0 -7.700930343086e-04 
-1.202171244896e-03 -3.172466399621e-04 0.0 
-3.172466399621e-04 6.703539097156e-03 0.0 
0.0 0.0 -1.021757709120e-03 
-1.211296574698e-03 -3.721899322367e-04 0.0 
-3.721899322367e-04 6.940479911899e-03 0.0 
0.0 0.0 -1.058696934625e-03 
-1.135291475184e-03 2.700006977273e-04 0.0 
2.700006977273e-04 6.997454425646e-03 0.0 
0.0 0.0 -1.050681058959e-03 
-4.173596233207e-04 -3.503884104976e-04 0.0 
-3.503884104976e-04 1.875894239502e-03 0.0 
0.0 0.0 -3.058749225436e-04 
-9.447771700352e-04 -1.262936496125e-04 0.0 
-1.262936496125e-04 4.694024374325e-03 0.0 
0.0 0.0 -7.328582426338e-04 
-9.670495794898e-04 5.137281078932e-04 0.0 
5.137281078932e-04 6.920842306521e-03 0.0 
0.0 0.0 -1.141128458404e-03 
-1.159905672637e-03 -1.212910240168e-04 0.0 
-1.212910240168e-04 7.261813298966e-03 0.0 
0.0 0.0 -1.078198857115e-03 
-8.846237530489e-04 -1.118837918711e-04 0.0 
-1.118837918711e-04 4.234828904613e-03 0.0 
0.0 0.0 -6.666835465145e-04 
-9.866099674588e-04 -6.396910670883e-04 0.0 
-6.396910670883e-04 5.776957758952e-03 0.0 
0.0 0.0 -9.153036164073e-04 
-1.180273166295e-03 -5.195576023231e-04 0.0 
-5.195576023231e-04 7.573511676705e-03 0.0 
0.0 0.0 -1.187586327529e-03 
-1.090487437882e-03 2.486631283317e-04 0.0 
2.486631283317e-04 6.750183946417e-03 0.0 
0.0 0.0 -1.013969106439e-03 
4.266683345687e-05 -1.829982136319e-05 0.0 
-1.829982136319e-05 -1.175196824510e-05 0.0 
0.0 0.0 -1.324922794790e-05 
-2.207289874608e-04 -3.235795152871e-04 0.0 
-3.235795152871e-04 1.003256593638e-03 0.0 
0.0 0.0 -1.835536028976e-04 
6.095472518787e-04 -2.844414826135e-05 0.0 
-2.844414826135e-05 2.461208838896e-04 0.0 
0.0 0.0 -3.667149153293e-04 
-1.247686431213e-03 1.804464591039e-05 0.0 
1.804464591039e-05 7.316811787833e-03 0.0 
0.0 0.0 -1.127837695838e-03 
-1.073532930030e-03 2.556328204713e-04 0.0 
2.556328204713e-04 6.504084694261e-03 0.0 
0.0 0.0 -9.775003154318e-04 
-1.065496431756e-03 -3.247503852032e-04 0.0 
-3.247503852032e-04 5.643495466523e-03 0.0 
0.0 0.0 -8.513051444990e-04 
-9.769664875946e-04 2.379062424114e-04 0.0 
2.379062424114e-04 5.801214914582e-03 0.0 
0.0 0.0 -8.745614812816e-04 
-1.019950067796e-03 -4.586219499737e-04 0.0 
-4.586219499737e-04 7.042194348422e-03 0.0 
0.0 0.0 -1.139196670502e-03 
-1.001595776578e-03 -1.032368991806e-04 0.0 
-1.032368991806e-04 5.128573561517e-03 0.0 
0.0 0.0 -7.988714448434e-04 
-1.198933731184e-03 -2.304563849884e-06 0.0 
-2.304563849884e-06 6.870961844438e-03 0.0 
0.0 0.0 -1.061632825506e-03 
-4.894390167554e-04 -2.936556089740e-04 0.0 
-2.936556089740e-04 2.281659796893e-03 0.0 
0.0 0.0 -3.615122310665e-04 
-1.252320573339e-03 -4.986115071304e-05 0.0 
-4.986115071304e-05 7.805865228042e-03 0.0 
0.0 0.0 -1.211531131004e-03 
-9.705690281363e-04 -5.093762920131e-04 0.0 
-5.093762920131e-04 4.972659776742e-03 0.0 
0.0 0.0 -7.673127347790e-04 
-5.395948498915e-04 -2.749809582872e-04 0.0 
-2.749809582872e-04 2.502960479934e-03 0.0 
0.0 0.0 -3.889166325194e-04 
-9.539878925134e-04 -4.665681980887e-04 0.0 
-4.665681980887e-04 4.746329446601e-03 0.0 
0.0 0.0 -7.311132045151e-04 
-7.861451495527e-04 -2.221214863257e-04 0.0 
-2.221214863257e-04 3.593397886981e-03 0.0 
0.0 0.0 -5.716673668464e-04 
-6.390151670991e-04 -6.536657789763e-04 0.0 
-6.536657789763e-04 2.791763486177e-03 0.0 
0.0 0.0 -4.452767020142e-04 
-1.072653987371e-03 2.886861907429e-05 0.0 
2.886861907429e-05 5.536656976787e-03 0.0 
0.0 0.0 -8.564950983273e-04 
2.053402963574e-04 2.693149737115e-05 0.0 
2.693149737115e-05 -6.111100134196e-05 0.0 
0.0 0.0 -6.181255500660e-05 
1.464512989776e-04 -5.911592787119e-06 0.0 
-5.911592787119e-06 -4.332551876097e-05 0.0 
0.0 0.0 -4.419676295000e-05 
-1.129321225881e-03 -4.366761249298e-04 0.0 
-4.366761249298e-04 6.278524906094e-03 0.0 
0.0 0.0 -9.636005660098e-04 
-4.459230001805e-04 -3.109429784165e-04 0.0 
-3.109429784165e-04 2.087500805873e-03 0.0 
0.0 0.0 -3.336449385292e-04 
-1.093345380725e-03 -5.267841385720e-04 0.0 
-5.267841385720e-04 6.263877748210e-03 0.0 
0.0 0.0 -9.724388998541e-04 
-1.043259012928e-03 -5.809617148742e-04 0.0 
-5.809617148742e-04 6.025832941714e-03 0.0 
0.0 0.0 -9.438473481109e-04 
-7.593501897991e-04 -4.626236543671e-04 0.0 
-4.626236543671e-04 3.770567817408e-03 0.0 
0.0 0.0 -6.177757646845e-04 
-3.406532554668e-04 -1.201349069570e-03 0.0 
-1.201349069570e-03 1.971960000255e-03 0.0 
0.0 0.0 -4.162223005415e-04 
-1.210770017431e-03 -8.268587528123e-05 0.0 
-8.268587528123e-05 7.661732423863e-03 0.0 
0.0 0.0 -1.137719822027e-03 
2.217423052273e-04 3.028948149786e-04 0.0 
3.028948149786e-04 -1.208394326889e-05 0.0 
0.0 0.0 -8.985358369644e-05 
-8.285748112363e-04 -1.587478080269e-04 0.0 
-1.587478080269e-04 3.819529826762e-03 0.0 
0.0 0.0 -6.004815939294e-04 
-1.049679539983e-03 -3.693865297615e-04 0.0 
-3.693865297615e-04 7.240151455212e-03 0.0 
0.0 0.0 -1.175533656463e-03 
-3.983359874590e-04 4.184586300730e-05 0.0 
4.184586300730e-05 1.714439103962e-03 0.0 
0.0 0.0 -2.977570873278e-04 
-1.020229649597e-03 -1.375914676709e-04 0.0 
-1.375914676709e-04 6.101662351483e-03 0.0 
0.0 0.0 -9.088859120638e-04 
-9.450324784717e-04 -1.832830397253e-04 0.0 
-1.832830397253e-04 5.623770961517e-03 0.0 
0.0 0.0 -8.416286270284e-04 
-4.351237697251e-04 -5.540829146340e-04 0.0 
-5.540829146340e-04 1.723099038299e-03 0.0 
0.0 0.0 -2.842394630762e-04 
-1.127395628762e-03 -5.008482085009e-04 0.0 
-5.008482085009e-04 7.317936875090e-03 0.0 
0.0 0.0 -1.158722036769e-03 
-1.133506044246e-03 -8.767361897690e-05 0.0 
-8.767361897690e-05 6.959505034578e-03 0.0 
0.0 0.0 -1.034898561726e-03 
-4.951489600236e-04 -4.786425625421e-05 0.0 
-4.786425625421e-05 2.022039619189e-03 0.0 
0.0 0.0 -3.364655670308e-04 
-1.234708714507e-03 -3.925269914934e-05 0.0 
-3.925269914934e-05 7.851562311589e-03 0.0 
0.0 0.0 -1.166520446339e-03 
-1.230308234664e-03 3.090146298482e-04 0.0 
3.090146298482e-04 7.789607374426e-03 0.0 
0.0 0.0 -1.169001632583e-03 
-5.233675107163e-04 -4.314455861334e-04 0.0 
-4.314455861334e-04 2.327927411805e-03 0.0 
0.0 0.0 -3.701904734684e-04 
-5.932851689167e-04 7.473876325445e-04 0.0 
7.473876325445e-04 2.806018980480e-03 0.0 
0.0 0.0 -4.801335248058e-04 
-5.599793527513e-04 -5.941268921314e-04 0.0 
-5.941268921314e-04 2.361270480637e-03 0.0 
0.0 0.0 -3.791106726259e-04 
-1.172251179922e-03 -4.180665988864e-04 0.0 
-4.180665988864e-04 6.718010438057e-03 0.0 
0.0 0.0 -1.029923508343e-03 
-1.041340644124e-03 -3.282174640750e-05 0.0 
-3.282174640750e-05 5.343281569417e-03 0.0 
0.0 0.0 -8.276368238623e-04 
-1.238338552957e-03 5.129188831147e-04 0.0 
5.129188831147e-04 7.705442663502e-03 0.0 
0.0 0.0 -1.169529464977e-03 
-1.205798657677e-03 3.040238914407e-04 0.0 
3.040238914407e-04 7.606656415098e-03 0.0 
0.0 0.0 -1.140030709108e-03 
-1.136504455291e-03 -4.715376891294e-04 0.0 
-4.715376891294e-04 6.495059726217e-03 0.0 
0.0 0.0 -1.001167767022e-03 
-1.120337032388e-03 -1.059796522353e-04 0.0 
-1.059796522353e-04 6.426005632212e-03 0.0 
0.0 0.0 -1.004093472296e-03 
-5.274441073591e-04 -2.397572524931e-04 0.0 
-2.397572524931e-04 1.862294635062e-03 0.0 
0.0 0.0 -3.158693332420e-04 
-1.161634108540e-03 -5.320117127017e-05 0.0 
-5.320117127017e-05 6.648981173758e-03 0.0 
0.0 0.0 -1.032853941699e-03 
-1.125917341076e-03 2.991763443149e-04 0.0 
2.991763443149e-04 6.905438798140e-03 0.0 
0.0 0.0 -1.037144748481e-03 
-1.044631038411e-03 -3.631995376833e-04 0.0 
-3.631995376833e-04 5.407625222663e-03 0.0 
0.0 0.0 -8.248712778174e-04 
-1.078523674622e-03 -1.304712665821e-04 0.0 
-1.304712665821e-04 6.557738951195e-03 0.0 
0.0 0.0 -9.752741834902e-04 
-1.159347625089e-03 -9.624416522510e-05 0.0 
-9.624416522510e-05 7.210996352120e-03 0.0 
0.0 0.0 -1.071415751597e-03 
-3.318515090644e-04 6.235225383972e-04 0.0 
6.235225383972e-04 3.802912303128e-03 0.0 
0.0 0.0 -7.435371925968e-04 
-1.181769783394e-03 2.863535825742e-04 0.0 
2.863535825742e-04 7.408927706841e-03 0.0 
0.0 0.0 -1.110258267496e-03 
-9.356896319010e-04 -4.816204734149e-05 0.0 
-4.816204734149e-05 4.523878489702e-03 0.0 
0.0 0.0 -6.965171720950e-04 
-1.013439798328e-03 -4.389789435164e-04 0.0 
-4.389789435164e-04 5.194362623047e-03 0.0 
0.0 0.0 -7.960639764766e-04 
-7.588476473929e-04 -1.047638361378e-04 0.0 
-1.047638361378e-04 3.390478407872e-03 0.0 
0.0 0.0 -5.342291996904e-04 
-6.729613587978e-04 -9.978092115441e-04 0.0 
-9.978092115441e-04 3.336051263368e-03 0.0 
0.0 0.0 -5.581583723280e-04 
-1.100329888420e-03 2.776105336716e-04 0.0 
2.776105336716e-04 6.705832396394e-03 0.0 
0.0 0.0 -1.007339817349e-03 
-7.155066052029e-04 -8.941200741794e-04 0.0 
-8.941200741794e-04 4.520636252880e-03 0.0 
0.0 0.0 -7.637833264599e-04 
-5.880444497108e-04 -5.324378047215e-04 0.0 
-5.324378047215e-04 2.570561499900e-03 0.0 
0.0 0.0 -4.077494273363e-04 
-3.167379964521e-04 -3.896430801043e-04 0.0 
-3.896430801043e-04 1.286713823890e-03 0.0 
0.0 0.0 -2.185673950299e-04 
-1.104743277708e-03 -1.081634182050e-04 0.0 
-1.081634182050e-04 6.759513962222e-03 0.0 
0.0 0.0 -1.005115000480e-03 
-6.259157449930e-04 -2.410202634238e-04 0.0 
-2.410202634238e-04 2.506664290233e-03 0.0 
0.0 0.0 -4.107160730352e-04 
-1.199872170886e-03 -1.045804178386e-04 0.0 
-1.045804178386e-04 7.736983325214e-03 0.0 
0.0 0.0 -1.218716866995e-03 
-1.124972404341e-03 2.718592290333e-04 0.0 
2.718592290333e-04 6.955187210285e-03 0.0 
0.0 0.0 -1.043883448597e-03 
-1.171061824699e-03 -7.858396141652e-05 0.0 
-7.858396141652e-05 6.870002089505e-03 0.0 
0.0 0.0 -1.070373463590e-03 
-1.223592225032e-03 -6.654680312814e-05 0.0 
-6.654680312814e-05 7.796071319491e-03 0.0 
0.0 0.0 -1.284729618418e-03 
-8.862225412837e-04 -4.776674958030e-04 0.0 
-4.776674958030e-04 4.314456893826e-03 0.0 
0.0 0.0 -6.637377122259e-04 
-5.666876201447e-04 -1.260874714856e-04 0.0 
-1.260874714856e-04 2.263003673050e-03 0.0 
0.0 0.0 -3.731618544809e-04 
-4.219134531154e-04 -1.222472695970e-04 0.0 
-1.222472695970e-04 1.397809828057e-03 0.0 
0.0 0.0 -2.496210768721e-04 
-1.097286575279e-03 -5.440934378647e-04 0.0 
-5.440934378647e-04 6.473058930747e-03 0.0 
0.0 0.0 -1.009908742814e-03 
-1.043727317765e-03 2.472408857258e-04 0.0 
2.472408857258e-04 6.306661261885e-03 0.0 
0.0 0.0 -9.473489374553e-04 
-2.695681844680e-04 -5.290039554231e-05 0.0 
-5.290039554231e-05 9.382689285882e-04 0.0 
0.0 0.0 -1.858848441742e-04 
-7.364560019705e-04 -6.036242025600e-04 0.0 
-6.036242025600e-04 3.440005901319e-03 0.0 
0.0 0.0 -5.400474096907e-04 
-4.035403746382e-04 -2.305403145177e-04 0.0 
-2.305403145177e-04 2.024884021199e-03 0.0 
0.0 0.0 -3.246070344129e-04 
-1.046680963677e-03 -1.140431221757e-04 0.0 
-1.140431221757e-04 6.307213054075e-03 0.0 
0.0 0.0 -9.387834224272e-04 
-7.632592856577e-04 -5.393132933556e-04 0.0 
-5.393132933556e-04 3.657861775186e-03 0.0 
0.0 0.0 -5.687878759048e-04 
-1.016724206552e-03 -2.154888859726e-04 0.0 
-2.154888859726e-04 5.955453979487e-03 0.0 
0.0 0.0 -9.467935652645e-04 
-7.568020148065e-04 -4.521860907560e-04 0.0 
-4.521860907560e-04 3.415229586271e-03 0.0 
0.0 0.0 -5.337555413937e-04 
-1.189199624854e-03 -1.376681473433e-04 0.0 
-1.376681473433e-04 7.515170933533e-03 0.0 
0.0 0.0 -1.114809527198e-03 
-6.923550043241e-04 -2.768469088006e-04 0.0 
-2.768469088006e-04 2.945508556802e-03 0.0 
0.0 0.0 -4.768663991247e-04 
-1.044644236131e-03 -5.895775659962e-04 0.0 
-5.895775659962e-04 6.433247658548e-03 0.0 
0.0 0.0 -1.018590841688e-03 
-5.377186267121e-04 -1.162421830740e-03 0.0 
-1.162421830740e-03 1.924594638442e-03 0.0 
0.0 0.0 -3.376433569222e-04 
-1.043635089924e-03 -5.925974921427e-04 0.0 
-5.925974921427e-04 6.227817584456e-03 0.0 
0.0 0.0 -9.812220007866e-04 
-9.943565397434e-04 -3.497380212248e-04 0.0 
-3.497380212248e-04 4.987357588882e-03 0.0 
0.0 0.0 -7.604224332210e-04 
-1.126398211161e-03 -1.231258313828e-04 0.0 
-1.231258313828e-04 6.641179692916e-03 0.0 
0.0 0.0 -1.041555045145e-03 
9.223743664251e-05 -1.553032727052e-04 0.0 
-1.553032727052e-04 2.018845935385e-03 0.0 
0.0 0.0 -5.350282927002e-04 
-4.513551852745e-04 7.961954421125e-05 0.0 
7.961954421125e-05 1.942718085049e-03 0.0 
0.0 0.0 -3.277310168338e-04 
-9.768870302484e-04 -1.535527430477e-04 0.0 
-1.535527430477e-04 5.889109902335e-03 0.0 
0.0 0.0 -8.787268422831e-04 
-6.833158998415e-04 -4.842839122641e-04 0.0 
-4.842839122641e-04 5.519329349180e-03 0.0 
0.0 0.0 -9.464297096767e-04 
-6.696248071327e-04 9.527190214271e-04 0.0 
9.527190214271e-04 3.942995259938e-03 0.0 
0.0 0.0 -6.776081642141e-04 
-1.047238839157e-03 -1.563485093405e-04 0.0 
-1.563485093405e-04 6.341652196106e-03 0.0 
0.0 0.0 -9.453210152248e-04 
-5.135632802951e-04 -1.406486370917e-03 0.0 
-1.406486370917e-03 1.993823835031e-03 0.0 
0.0 0.0 -3.758914132629e-04 
-1.070153882220e-03 3.026802387506e-04 0.0 
3.026802387506e-04 6.407668419037e-03 0.0 
0.0 0.0 -9.642804585795e-04 
-3.826150946160e-04 -2.687090143275e-04 0.0 
-2.687090143275e-04 1.814458781029e-03 0.0 
0.0 0.0 -2.947674122297e-04 
-1.169970312209e-03 -5.285152303079e-04 0.0 
-5.285152303079e-04 7.359319887074e-03 0.0 
0.0 0.0 -1.150402778756e-03 
-7.093705364921e-04 -3.773457786927e-04 0.0 
-3.773457786927e-04 5.766663180528e-03 0.0 
0.0 0.0 -9.834711240942e-04 
-7.789396793629e-04 4.773750927831e-05 0.0 
4.773750927831e-05 6.190226744614e-03 0.0 
0.0 0.0 -1.037051012011e-03 
-1.266259122541e-03 -6.932227906498e-05 0.0 
-6.932227906498e-05 8.127793637496e-03 0.0 
0.0 0.0 -1.204463612412e-03 
-7.768385389529e-04 -8.073428107716e-04 0.0 
-8.073428107716e-04 4.980090398291e-03 0.0 
0.0 0.0 -8.294769417472e-04 
-4.699473644088e-04 -6.813726004672e-05 0.0 
-6.813726004672e-05 1.813879272209e-03 0.0 
0.0 0.0 -3.081489256106e-04 
-9.161062287207e-04 -6.850931603516e-04 0.0 
-6.850931603516e-04 5.713761905663e-03 0.0 
0.0 0.0 -9.239488535170e-04 
-1.173047693050e-03 -1.052473736579e-04 0.0 
-1.052473736579e-04 7.508097487322e-03 0.0 
0.0 0.0 -1.189963100592e-03 
-4.497409859123e-04 -1.426160803811e-03 0.0 
-1.426160803811e-03 2.458822638814e-03 0.0 
0.0 0.0 -4.786098583285e-04 
-1.143974714499e-03 -4.976969720053e-04 0.0 
-4.976969720053e-04 6.710156245847e-03 0.0 
0.0 0.0 -1.038675661098e-03 
-1.132883010551e-03 -1.192006961438e-04 0.0 
-1.192006961438e-04 7.009605316192e-03 0.0 
0.0 0.0 -1.041631482750e-03 
-1.897791220570e-04 -1.328549867833e-03 0.0 
-1.328549867833e-03 1.573915984256e-03 0.0 
0.0 0.0 -3.880698300753e-04 
-9.832169528241e-04 -6.401107558717e-04 0.0 
-6.401107558717e-04 5.975097252107e-03 0.0 
0.0 0.0 -9.525765839929e-04 
-9.785039199354e-04 -1.168734358181e-04 0.0 
-1.168734358181e-04 5.790498942477e-03 0.0 
0.0 0.0 -8.663127257150e-04 
-5.996048706546e-04 -3.316912815730e-04 0.0 
-3.316912815730e-04 2.740125406625e-03 0.0 
0.0 0.0 -4.280652785065e-04 
-7.035123059792e-04 -6.874159131133e-04 0.0 
-6.874159131133e-04 3.217847307373e-03 0.0 
0.0 0.0 -5.113914792957e-04 
-7.105655773308e-04 4.972009427012e-04 0.0 
4.972009427012e-04 4.827811336805e-03 0.0 
0.0 0.0 -8.004334922225e-04 
-1.074750193164e-03 -1.697498961518e-04 0.0 
-1.697498961518e-04 6.403492678198e-03 0.0 
0.0 0.0 -1.012809740122e-03 
-7.035308576129e-04 5.382426947374e-04 0.0 
5.382426947374e-04 3.806026837703e-03 0.0 
0.0 0.0 -6.201901524263e-04 
-6.308101104936e-04 5.457451351616e-04 0.0 
5.457451351616e-04 4.514197146446e-03 0.0 
0.0 0.0 -7.649884091348e-04 
-1.098080609149e-03 3.025878807238e-04 0.0 
3.025878807238e-04 6.656267622990e-03 0.0 
0.0 0.0 -1.000670320419e-03 
-1.014704614523e-03 2.583884235807e-04 0.0 
2.583884235807e-04 6.049064620228e-03 0.0 
0.0 0.0 -9.110000341593e-04 
-1.009261189838e-03 2.792149560740e-04 0.0 
2.792149560740e-04 5.955274274962e-03 0.0 
0.0 0.0 -8.984003255416e-04 
-9.871449342436e-04 -7.213431481816e-05 0.0 
-7.213431481816e-05 4.924174820230e-03 0.0 
0.0 0.0 -7.627602282935e-04 
-1.065656897570e-03 -5.121112680600e-04 0.0 
-5.121112680600e-04 7.066736918301e-03 0.0 
0.0 0.0 -1.130631056169e-03 
-8.421677165309e-04 -7.268506017030e-04 0.0 
-7.268506017030e-04 5.443918430101e-03 0.0 
0.0 0.0 -8.953295484280e-04 
-9.945000348060e-04 -1.248826091764e-04 0.0 
-1.248826091764e-04 5.857149722276e-03 0.0 
0.0 0.0 -8.720525204519e-04 
-1.238633943108e-03 1.686741563001e-04 0.0 
1.686741563001e-04 7.876441362665e-03 0.0 
0.0 0.0 -1.193584144721e-03 
-8.522957180035e-04 9.316442431589e-05 0.0 
9.316442431589e-05 6.488948212224e-03 0.0 
0.0 0.0 -1.073433710836e-03 
-1.015779217143e-03 -2.144660185469e-04 0.0 
-2.144660185469e-04 6.157749518334e-03 0.0 
0.0 0.0 -9.841343610905e-04 
-1.152967284980e-03 2.909720530725e-04 0.0 
2.909720530725e-04 7.156656236309e-03 0.0 
0.0 0.0 -1.073677668998e-03 
-7.263162190416e-04 -8.886940194724e-04 0.0 
-8.886940194724e-04 3.588121008828e-03 0.0 
0.0 0.0 -5.862626530915e-04 
-7.235359723586e-04 -7.958794651799e-04 0.0 
-7.958794651799e-04 3.410683047674e-03 0.0 
0.0 0.0 -5.488365039436e-04 
-4.694757851361e-04 -5.127005261343e-04 0.0 
-5.127005261343e-04 1.922171349029e-03 0.0 
0.0 0.0 -3.130684191733e-04 
-9.104943950573e-04 -6.552016600707e-04 0.0 
-6.552016600707e-04 5.911258485735e-03 0.0 
0.0 0.0 -9.612598090090e-04 
-7.654832124176e-04 -7.002445478485e-04 0.0 
-7.002445478485e-04 3.645865785489e-03 0.0 
0.0 0.0 -5.775003002374e-04 
-1.075243583964e-03 -1.050257747268e-04 0.0 
-1.050257747268e-04 6.505297040680e-03 0.0 
0.0 0.0 -9.686535345556e-04 
-1.046091552134e-03 -1.046643629052e-04 0.0 
-1.046643629052e-04 6.253743570569e-03 0.0 
0.0 0.0 -9.322463471790e-04 
-3.156258732897e-04 -6.342992802895e-05 0.0 
-6.342992802895e-05 4.063447682096e-03 0.0 
0.0 0.0 -7.690363516573e-04 
-6.768678335791e-04 -4.944889426237e-04 0.0 
-4.944889426237e-04 2.924353115240e-03 0.0 
0.0 0.0 -4.860199686152e-04 
7.378566886558e-05 8.261792693270e-04 0.0 
8.261792693270e-04 1.831438910589e-03 0.0 
0.0 0.0 -5.148587792422e-04 
-7.140205863396e-04 -3.895142562213e-04 0.0 
-3.895142562213e-04 3.153467660833e-03 0.0 
0.0 0.0 -5.143448975765e-04 
-7.166082742774e-04 -4.898417450174e-04 0.0 
-4.898417450174e-04 3.345585253682e-03 0.0 
0.0 0.0 -5.517963299543e-04 
-5.453825262275e-04 -1.801577044467e-04 0.0 
-1.801577044467e-04 2.063785108327e-03 0.0 
0.0 0.0 -3.446931235564e-04 
-9.991919087570e-04 -5.159677692080e-04 0.0 
-5.159677692080e-04 6.812973713771e-03 0.0 
0.0 0.0 -1.101849228969e-03 
-6.361621297383e-04 -6.326273812119e-04 0.0 
-6.326273812119e-04 3.840813039186e-03 0.0 
0.0 0.0 -6.642957827475e-04 
-1.186458515100e-03 -1.053251154620e-04 0.0 
-1.053251154620e-04 7.463739247015e-03 0.0 
0.0 0.0 -1.107989045227e-03 
-5.978205852498e-04 -6.030872319160e-04 0.0 
-6.030872319160e-04 3.997835835114e-03 0.0 
0.0 0.0 -7.013039408444e-04 
-8.766496605348e-04 -2.938506230370e-04 0.0 
-2.938506230370e-04 5.643098139245e-03 0.0 
0.0 0.0 -9.268471029391e-04 
-7.458770769302e-04 -4.494771908485e-04 0.0 
-4.494771908485e-04 4.730820068739e-03 0.0 
0.0 0.0 -7.951651613512e-04 
-5.061128914291e-04 5.136368614140e-04 0.0 
5.136368614140e-04 4.289096613619e-03 0.0 
0.0 0.0 -7.567435594048e-04 
-4.924031779586e-04 -4.582157831525e-04 0.0 
-4.582157831525e-04 2.128157277405e-03 0.0 
0.0 0.0 -3.417109511102e-04 
-1.119466152649e-03 -1.285123435513e-04 0.0 
-1.285123435513e-04 7.241871223374e-03 0.0 
0.0 0.0 -1.161691925552e-03 
-1.157276862038e-03 -5.152756470004e-04 0.0 
-5.152756470004e-04 7.595110461611e-03 0.0 
0.0 0.0 -1.198716319349e-03 
-9.186810373389e-04 7.206447187045e-04 0.0 
7.206447187045e-04 5.929294122594e-03 0.0 
0.0 0.0 -9.650368815299e-04 
-7.024384046348e-04 -5.668947943432e-04 0.0 
-5.668947943432e-04 3.521466880882e-03 0.0 
0.0 0.0 -5.892385666867e-04 
-8.092329254756e-04 -3.679333936268e-04 0.0 
-3.679333936268e-04 5.184879506691e-03 0.0 
0.0 0.0 -8.609535187098e-04 
-1.070645862318e-03 2.880325294516e-04 0.0 
2.880325294516e-04 6.451710160525e-03 0.0 
0.0 0.0 -9.708520278613e-04 
-7.765899253724e-04 -7.845646391497e-04 0.0 
-7.845646391497e-04 3.835907640370e-03 0.0 
0.0 0.0 -6.148791393494e-04 
-5.560475869297e-04 7.086124654578e-04 0.0 
7.086124654578e-04 3.695652655845e-03 0.0 
0.0 0.0 -6.394234923164e-04 
-6.747584532598e-04 -5.770366254477e-04 0.0 
-5.770366254477e-04 3.009985049056e-03 0.0 
0.0 0.0 -4.739097840058e-04 
-4.381090568186e-04 -1.552304285074e-03 0.0 
-1.552304285074e-03 2.041510460725e-03 0.0 
0.0 0.0 -4.132304097957e-04 
-7.141863963918e-04 -9.568035345241e-04 0.0 
-9.568035345241e-04 3.752753679619e-03 0.0 
0.0 0.0 -6.236739531379e-04 
-6.528961987011e-04 -1.781186145787e-04 0.0 
-1.781186145787e-04 2.715857529516e-03 0.0 
0.0 0.0 -4.393534411964e-04 
-5.596275213697e-04 -3.829013705402e-04 0.0 
-3.829013705402e-04 2.536190508459e-03 0.0 
0.0 0.0 -3.988888273503e-04 
-7.947060353366e-04 -8.306305145241e-04 0.0 
-8.306305145241e-04 4.800715564885e-03 0.0 
0.0 0.0 -7.922809795675e-04 
-9.495117069836e-04 -2.555007117944e-04 0.0 
-2.555007117944e-04 5.904688651206e-03 0.0 
0.0 0.0 -9.554846610150e-04 
-1.106451546740e-03 6.547273223382e-04 0.0 
6.547273223382e-04 7.113693437201e-03 0.0 
0.0 0.0 -1.128610778606e-03 
5.517197538679e-04 6.942037793557e-07 0.0 
6.942037793557e-07 5.222913432921e-05 0.0 
0.0 0.0 -1.143255210630e-04 
-3.502562365249e-04 -5.244252159893e-04 0.0 
-5.244252159893e-04 3.531851922803e-03 0.0 
0.0 0.0 -6.818868151027e-04 
-4.968184483203e-04 -6.518828778024e-04 0.0 
-6.518828778024e-04 3.693766435261e-03 0.0 
0.0 0.0 -6.732431144785e-04 
-6.734388902022e-04 -6.179988430692e-04 0.0 
-6.179988430692e-04 3.684173063462e-03 0.0 
0.0 0.0 -6.268095852860e-04 
-1.038674892423e-03 2.849365380829e-04 0.0 
2.849365380829e-04 6.200994707550e-03 0.0 
0.0 0.0 -9.344164207832e-04 
-6.877399303223e-04 -5.371529877498e-04 0.0 
-5.371529877498e-04 4.282013621242e-03 0.0 
0.0 0.0 -7.295442444478e-04 
-7.236126278911e-04 -1.940798346154e-04 0.0 
-1.940798346154e-04 3.162977138653e-03 0.0 
0.0 0.0 -5.055050897130e-04 
-6.903954199582e-04 -9.883908706268e-04 0.0 
-9.883908706268e-04 3.912237901394e-03 0.0 
0.0 0.0 -6.611654675676e-04 
-1.160544064243e-03 2.681116606983e-04 0.0 
2.681116606983e-04 7.207667667947e-03 0.0 
0.0 0.0 -1.080452943103e-03 
-7.185620229440e-04 -5.086767079658e-04 0.0 
-5.086767079658e-04 3.228512561114e-03 0.0 
0.0 0.0 -5.025663706543e-04 
-3.033530584322e-04 -3.126589283008e-05 0.0 
-3.126589283008e-05 1.124202721504e-03 0.0 
0.0 0.0 -2.132551421006e-04 
-4.445863950683e-04 -1.098673452603e-04 0.0 
-1.098673452603e-04 1.624443337862e-03 0.0 
0.0 0.0 -2.784575373548e-04 
-4.556609783406e-04 -1.046441961485e-03 0.0 
-1.046441961485e-03 2.312897280805e-03 0.0 
0.0 0.0 -4.444240490352e-04 
-6.671697262521e-04 -6.094353393578e-04 0.0 
-6.094353393578e-04 3.102567689836e-03 0.0 
0.0 0.0 -5.239304829885e-04 
-4.604694554278e-04 -5.460587614430e-04 0.0 
-5.460587614430e-04 3.852686059404e-03 0.0 
0.0 0.0 -7.099160536912e-04 
-6.597409171735e-04 -9.847744191674e-04 0.0 
-9.847744191674e-04 4.070104714955e-03 0.0 
0.0 0.0 -6.984076724203e-04 
-4.347846215514e-04 -1.333971923402e-03 0.0 
-1.333971923402e-03 1.612936656771e-03 0.0 
0.0 0.0 -3.343205611582e-04 
-3.976613437580e-04 -3.897326152451e-04 0.0 
-3.897326152451e-04 1.671878635782e-03 0.0 
0.0 0.0 -2.765202162382e-04 
-1.033660003461e-03 -1.033996314703e-04 0.0 
-1.033996314703e-04 5.926247048388e-03 0.0 
0.0 0.0 -8.885078876198e-04 
-6.226964712633e-04 -4.829751825411e-04 0.0 
-4.829751825411e-04 2.780306463648e-03 0.0 
0.0 0.0 -4.363975895258e-04 
-9.598608129299e-04 -1.512388155027e-04 0.0 
-1.512388155027e-04 6.520728160314e-03 0.0 
0.0 0.0 -1.067401112627e-03 
-1.044199175907e-03 6.711789122637e-04 0.0 
6.711789122637e-04 6.814869566682e-03 0.0 
0.0 0.0 -1.093380752811e-03 
-1.033158695296e-03 1.201714905428e-04 0.0 
1.201714905428e-04 5.943900742884e-03 0.0 
0.0 0.0 -9.013836717722e-04 
-1.202438437016e-03 3.703852775580e-04 0.0 
3.703852775580e-04 7.497052002657e-03 0.0 
0.0 0.0 -1.126084317643e-03 
-1.147719962247e-03 6.494223347106e-04 0.0 
6.494223347106e-04 7.391690108111e-03 0.0 
0.0 0.0 -1.164310864388e-03 
-2.878547429469e-04 1.154238477974e-04 0.0 
1.154238477974e-04 3.877857573592e-03 0.0 
0.0 0.0 -7.408850503417e-04 
-9.791568623396e-04 6.928855181129e-04 0.0 
6.928855181129e-04 6.367692588182e-03 0.0 
0.0 0.0 -1.029042339204e-03 
-3.868820834042e-04 -1.598175067219e-03 0.0 
-1.598175067219e-03 1.640588266591e-03 0.0 
0.0 0.0 -3.684254322556e-04 
-7.608485108981e-04 -8.950598342909e-04 0.0 
-8.950598342909e-04 4.184728790858e-03 0.0 
0.0 0.0 -6.894573431515e-04 
-3.726378683448e-04 9.309707187506e-04 0.0 
9.309707187506e-04 3.521132831243e-03 0.0 
0.0 0.0 -6.879681371099e-04 
1.475700378225e-04 -1.082055056136e-03 0.0 
-1.082055056136e-03 1.153328364632e-03 0.0 
0.0 0.0 -4.001859895708e-04 
-2.322378270667e-04 -1.414305700121e-03 0.0 
-1.414305700121e-03 1.285051000812e-03 0.0 
0.0 0.0 -3.718692805502e-04 
-7.624977688682e-04 -3.873820506890e-04 0.0 
-3.873820506890e-04 3.581246965727e-03 0.0 
0.0 0.0 -5.804062017457e-04 
-5.687072458126e-04 -1.053499292402e-03 0.0 
-1.053499292402e-03 3.769545573336e-03 0.0 
0.0 0.0 -6.703429011759e-04 
-5.303660715231e-04 -9.834601585863e-04 0.0 
-9.834601585863e-04 3.928073668805e-03 0.0 
0.0 0.0 -7.070647534220e-04 
-6.858142190642e-04 -1.264292236945e-04 0.0 
-1.264292236945e-04 2.925987856864e-03 0.0 
0.0 0.0 -4.680152132766e-04 
-6.589899224581e-04 -5.005558218906e-04 0.0 
-5.005558218906e-04 4.450521373462e-03 0.0 
0.0 0.0 -7.666177146937e-04 
-4.231487579380e-04 -9.909487264928e-04 0.0 
-9.909487264928e-04 3.613001704936e-03 0.0 
0.0 0.0 -6.790125122095e-04 
-3.369199789232e-04 -3.555417311412e-04 0.0 
-3.555417311412e-04 3.718100603305e-03 0.0 
0.0 0.0 -7.183521444552e-04 
-6.803758157452e-04 -9.028741567956e-04 0.0 
-9.028741567956e-04 3.171875899076e-03 0.0 
0.0 0.0 -5.205443542100e-04 
-6.888642757158e-04 -2.049706033719e-04 0.0 
-2.049706033719e-04 5.802071078045e-03 0.0 
0.0 0.0 -9.921115096417e-04 
-1.107658319106e-03 -8.404497540785e-05 0.0 
-8.404497540785e-05 6.709473481144e-03 0.0 
0.0 0.0 -9.984673180475e-04 
-2.379293217191e-04 -2.443881819662e-04 0.0 
-2.443881819662e-04 3.409073247204e-03 0.0 
0.0 0.0 -6.904379518788e-04 
-1.046303389369e-03 -1.114400525399e-04 0.0 
-1.114400525399e-04 6.996162598283e-03 0.0 
0.0 0.0 -1.133495712197e-03 
-3.268910950442e-04 -1.748504239578e-03 0.0 
-1.748504239578e-03 1.649599373731e-03 0.0 
0.0 0.0 -3.849690761666e-04 
-1.105326955299e-03 -1.209562394880e-05 0.0 
-1.209562394880e-05 7.506917461540e-03 0.0 
0.0 0.0 -1.208505026952e-03 
-5.639712272191e-04 -5.345864669017e-04 0.0 
-5.345864669017e-04 4.155944038547e-03 0.0 
0.0 0.0 -7.381355003807e-04 
-1.181963174499e-03 7.139086798359e-04 0.0 
7.139086798359e-04 7.734753846791e-03 0.0 
0.0 0.0 -1.203459118631e-03 
-9.741416899861e-04 2.978325655321e-04 0.0 
2.978325655321e-04 5.872577927131e-03 0.0 
0.0 0.0 -9.144069900286e-04 
-4.654888822043e-04 -1.140967963864e-03 0.0 
-1.140967963864e-03 1.931638852762e-03 0.0 
0.0 0.0 -3.788569260404e-04 
-1.047582909248e-03 1.584393688340e-04 0.0 
1.584393688340e-04 6.105623494628e-03 0.0 
0.0 0.0 -9.292863832265e-04 
-1.220879085669e-03 4.419497771274e-04 0.0 
4.419497771274e-04 7.616026390278e-03 0.0 
0.0 0.0 -1.148369591821e-03 
-5.398601850951e-04 -4.406973068625e-04 0.0 
-4.406973068625e-04 4.330390544396e-03 0.0 
0.0 0.0 -7.747733155264e-04 
-3.603331338578e-04 8.676550475076e-04 0.0 
8.676550475076e-04 2.963522800416e-03 0.0 
0.0 0.0 -5.621395992319e-04 
-1.057553285601e-03 1.944669215669e-04 0.0 
1.944669215669e-04 6.263161490160e-03 0.0 
0.0 0.0 -9.572423940436e-04 
-7.057059362099e-04 9.012515937016e-04 0.0 
9.012515937016e-04 4.348665847300e-03 0.0 
0.0 0.0 -7.402445244775e-04 
-4.362988120307e-04 -1.127161443736e-03 0.0 
-1.127161443736e-03 1.552148016574e-03 0.0 
0.0 0.0 -3.359502462693e-04 
-1.283659217910e-03 4.297574681589e-04 0.0 
4.297574681589e-04 8.390487106861e-03 0.0 
0.0 0.0 -1.259077240559e-03 
-4.445080952730e-04 -7.847967672699e-04 0.0 
-7.847967672699e-04 1.460661056520e-03 0.0 
0.0 0.0 -3.199353184197e-04 
-1.015479846412e-03 -4.911816191571e-05 0.0 
-4.911816191571e-05 7.389564650234e-03 0.0 
0.0 0.0 -1.194426649262e-03 
-1.235108043989e-03 2.931339570481e-04 0.0 
2.931339570481e-04 7.856142431297e-03 0.0 
0.0 0.0 -1.175981821618e-03 
-7.472334457018e-04 -2.848888603521e-04 0.0 
-2.848888603521e-04 6.030064979728e-03 0.0 
0.0 0.0 -1.020516803968e-03 
-1.010840280569e-03 2.871682712165e-04 0.0 
2.871682712165e-04 5.990467797945e-03 0.0 
0.0 0.0 -9.041796124736e-04 
-1.188290086785e-03 -4.131460252783e-05 0.0 
-4.131460252783e-05 7.360236208895e-03 0.0 
0.0 0.0 -1.094228678348e-03 
-3.956150081579e-04 -8.444363927456e-04 0.0 
-8.444363927456e-04 3.798159061747e-03 0.0 
0.0 0.0 -7.154996274706e-04 
-4.250562518241e-04 -8.715186287138e-05 0.0 
-8.715186287138e-05 4.576837397274e-03 0.0 
0.0 0.0 -8.337527902170e-04 
-1.236732889268e-03 3.932687216903e-04 0.0 
3.932687216903e-04 7.932024372295e-03 0.0 
0.0 0.0 -1.191782302182e-03 
-1.016762164362e-03 -2.009947599505e-04 0.0 
-2.009947599505e-04 6.362580938042e-03 0.0 
0.0 0.0 -1.021464098896e-03 
-1.135162035509e-03 -5.768530929233e-05 0.0 
-5.768530929233e-05 6.910041935378e-03 0.0 
0.0 0.0 -1.028225029406e-03 
-7.343430317228e-04 -7.671896480506e-05 0.0 
-7.671896480506e-05 5.717453709460e-03 0.0 
0.0 0.0 -9.780777104595e-04 
-3.572725597686e-04 -1.352690279400e-03 0.0 
-1.352690279400e-03 1.583802329561e-03 0.0 
0.0 0.0 -3.505936111242e-04 
-1.159722748538e-03 -3.230530369319e-05 0.0 
-3.230530369319e-05 7.104974861712e-03 0.0 
0.0 0.0 -1.057861461704e-03 
-1.213686028729e-03 4.975227447854e-04 0.0 
4.975227447854e-04 8.277647080915e-03 0.0 
0.0 0.0 -1.268085107495e-03 
-1.141634375887e-03 -6.383832911746e-05 0.0 
-6.383832911746e-05 7.496062386317e-03 0.0 
0.0 0.0 -1.202195648613e-03 
-7.172722051064e-04 -5.438382500790e-04 0.0 
-5.438382500790e-04 4.116936776522e-03 0.0 
0.0 0.0 -6.923681691211e-04 
-1.013061704463e-03 -1.285173007321e-04 0.0 
-1.285173007321e-04 6.040176746182e-03 0.0 
0.0 0.0 -9.020111041354e-04 
-9.803558555424e-04 2.819126364211e-04 0.0 
2.819126364211e-04 5.747481973327e-03 0.0 
0.0 0.0 -8.677534307045e-04 
-6.277772364563e-04 -9.505441527148e-04 0.0 
-9.505441527148e-04 4.228315103377e-03 0.0 
0.0 0.0 -7.352749011056e-04 
-9.471295400473e-04 -2.290448642546e-04 0.0 
-2.290448642546e-04 6.104893151692e-03 0.0 
0.0 0.0 -9.927925938929e-04 
-9.496787292750e-04 -1.931802113086e-04 0.0 
-1.931802113086e-04 6.308676304585e-03 0.0 
0.0 0.0 -1.030113165296e-03 
-3.367468350593e-04 -4.171493311675e-04 0.0 
-4.171493311675e-04 1.462207300335e-03 0.0 
0.0 0.0 -2.466400652194e-04 
1.723252799300e-04 1.006036226683e-03 0.0 
1.006036226683e-03 1.258635118435e-03 0.0 
0.0 0.0 -4.508272210452e-04 
-2.636139264689e-04 -4.295683990350e-05 0.0 
-4.295683990350e-05 3.648292398008e-03 0.0 
0.0 0.0 -7.269793770173e-04 
-2.881552402748e-04 -7.723163841178e-04 0.0 
-7.723163841178e-04 3.494059092135e-03 0.0 
0.0 0.0 -6.875569550716e-04 
-5.987135522068e-04 9.581338196100e-04 0.0 
9.581338196100e-04 4.121697912248e-03 0.0 
0.0 0.0 -7.320784846625e-04 
-1.264443641134e-03 9.169602624827e-06 0.0 
9.169602624827e-06 8.228641212544e-03 0.0 
0.0 0.0 -1.225426844749e-03 
-1.225437596415e-03 5.454708430458e-04 0.0 
5.454708430458e-04 7.618255897701e-03 0.0 
0.0 0.0 -1.162686153705e-03 
-1.236580353686e-03 -8.584500076515e-05 0.0 
-8.584500076515e-05 7.903871079557e-03 0.0 
0.0 0.0 -1.173632101657e-03 
-7.521471418708e-04 4.524177914914e-04 0.0 
4.524177914914e-04 4.089944836528e-03 0.0 
0.0 0.0 -6.556197767577e-04 
-1.172411158405e-03 4.147315892345e-04 0.0 
4.147315892345e-04 7.176351707369e-03 0.0 
0.0 0.0 -1.082713561900e-03 
-9.808832725520e-04 -6.235651659416e-04 0.0 
-6.235651659416e-04 6.175367423925e-03 0.0 
0.0 0.0 -9.899156953211e-04 
-1.256868554146e-03 3.642260226585e-04 0.0 
3.642260226585e-04 8.010570571666e-03 0.0 
0.0 0.0 -1.198415070424e-03 
-1.131244473165e-03 -2.609112415896e-05 0.0 
-2.609112415896e-05 6.847199996424e-03 0.0 
0.0 0.0 -1.021631336281e-03 
-7.398403296460e-04 -9.100435650523e-04 0.0 
-9.100435650523e-04 4.351978419830e-03 0.0 
0.0 0.0 -7.266350563285e-04 
-1.966131980491e-04 1.343789576191e-04 0.0 
1.343789576191e-04 3.379385752975e-03 0.0 
0.0 0.0 -6.989458521267e-04 
-1.152804453403e-03 3.500950542230e-04 0.0 
3.500950542230e-04 7.051163395974e-03 0.0 
0.0 0.0 -1.060111126929e-03 
-1.235067592862e-03 -2.698356757779e-05 0.0 
-2.698356757779e-05 7.807694952398e-03 0.0 
0.0 0.0 -1.160283895044e-03 
-1.152447904070e-03 3.233521508878e-04 0.0 
3.233521508878e-04 7.106400049278e-03 0.0 
0.0 0.0 -1.066842251349e-03 
-1.126824314787e-03 3.260890582423e-04 0.0 
3.260890582423e-04 6.856832929645e-03 0.0 
0.0 0.0 -1.030428295937e-03 
-1.098624795041e-03 -1.306628866347e-04 0.0 
-1.306628866347e-04 7.036525786255e-03 0.0 
0.0 0.0 -1.124756152480e-03 
-9.788942539780e-04 1.410494860673e-05 0.0 
1.410494860673e-05 7.171321125896e-03 0.0 
0.0 0.0 -1.167530213646e-03 
-1.029227773633e-03 -1.448576550575e-04 0.0 
-1.448576550575e-04 6.777818390463e-03 0.0 
0.0 0.0 -1.096139997395e-03 
-8.853909467236e-04 -3.202143432842e-04 0.0 
-3.202143432842e-04 5.450131718365e-03 0.0 
0.0 0.0 -8.895595506238e-04 
-7.841401063913e-04 5.175313733597e-04 0.0 
5.175313733597e-04 4.039507771945e-03 0.0 
0.0 0.0 -6.419897747600e-04 
-7.984394936658e-04 -1.887921339689e-04 0.0 
-1.887921339689e-04 6.295485930606e-03 0.0 
0.0 0.0 -1.057160997780e-03 
-1.115933343197e-03 4.349000973092e-04 0.0 
4.349000973092e-04 6.664037002129e-03 0.0 
0.0 0.0 -1.010795753303e-03 
-5.956699057430e-04 -8.811439702695e-05 0.0 
-8.811439702695e-05 2.473036601140e-03 0.0 
0.0 0.0 -4.018221946533e-04 
-2.915622310354e-04 -5.737426198503e-04 0.0 
-5.737426198503e-04 3.731241780433e-03 0.0 
0.0 0.0 -7.241222962603e-04 
-4.504794563629e-04 -1.267768640868e-04 0.0 
-1.267768640868e-04 4.437238068048e-03 0.0 
0.0 0.0 -8.193994707270e-04 
-5.327307368017e-04 -1.017456922387e-04 0.0 
-1.017456922387e-04 5.084928060617e-03 0.0 
0.0 0.0 -8.986564694586e-04 
3.950181268846e-04 -2.404122539236e-04 0.0 
-2.404122539236e-04 7.824137722745e-04 0.0 
0.0 0.0 -4.157903644632e-04 
-2.054344188629e-04 -4.192766465647e-04 0.0 
-4.192766465647e-04 3.464515105753e-03 0.0 
0.0 0.0 -6.962026719631e-04 
-6.398120247413e-04 -1.116949900707e-04 0.0 
-1.116949900707e-04 5.588791715487e-03 0.0 
0.0 0.0 -9.636952012155e-04 
-8.444842612221e-04 6.249200502653e-04 0.0 
6.249200502653e-04 4.582153886631e-03 0.0 
0.0 0.0 -7.294090860402e-04 
-7.683331433156e-04 -4.669157271009e-04 0.0 
-4.669157271009e-04 4.555612432421e-03 0.0 
0.0 0.0 -7.579899565570e-04 
-1.071508205892e-03 -5.121927920590e-05 0.0 
-5.121927920590e-05 6.390736393491e-03 0.0 
0.0 0.0 -9.556638187253e-04 
-8.714266706773e-04 2.063026129845e-04 0.0 
2.063026129845e-04 5.095248433608e-03 0.0 
0.0 0.0 -7.638029664831e-04 
-6.864860403863e-05 6.865817311915e-04 0.0 
6.865817311915e-04 5.756289586921e-04 0.0 
0.0 0.0 -2.172772948515e-04 
-8.538627514522e-04 -7.550684867704e-04 0.0 
-7.550684867704e-04 5.254936553017e-03 0.0 
0.0 0.0 -8.580817703278e-04 
-8.031553766191e-04 9.023974365030e-05 0.0 
9.023974365030e-05 6.192888911591e-03 0.0 
0.0 0.0 -1.051835763028e-03 
-1.248237691654e-03 5.633939617195e-04 0.0 
5.633939617195e-04 7.887034516043e-03 0.0 
0.0 0.0 -1.196871286280e-03 
-3.729352427207e-04 2.857944806302e-04 0.0 
2.857944806302e-04 4.199383336330e-03 0.0 
0.0 0.0 -7.999758813884e-04 
-8.246860114036e-04 -3.906175878888e-04 0.0 
-3.906175878888e-04 5.000590526334e-03 0.0 
0.0 0.0 -8.237210115815e-04 
-1.081299147246e-03 -7.697289611938e-05 0.0 
-7.697289611938e-05 6.459732028031e-03 0.0 
0.0 0.0 -9.620958722924e-04 
-2.880056971411e-04 8.925028292911e-04 0.0 
8.925028292911e-04 1.145866698786e-03 0.0 
0.0 0.0 -3.038018182983e-04 
-7.446793118804e-04 1.621554593950e-04 0.0 
1.621554593950e-04 5.956534969945e-03 0.0 
0.0 0.0 -1.023361637732e-03 
-4.737891057000e-04 -2.200266757859e-04 0.0 
-2.200266757859e-04 4.791461031182e-03 0.0 
0.0 0.0 -8.619475031456e-04 
-8.828155885906e-04 2.614625346270e-04 0.0 
2.614625346270e-04 4.904715470600e-03 0.0 
0.0 0.0 -7.615729788896e-04 
-9.809961927394e-04 -5.936604313144e-04 0.0 
-5.936604313144e-04 6.379528294436e-03 0.0 
0.0 0.0 -1.027225276160e-03 
-1.932500912873e-05 -1.677380896941e-03 0.0 
-1.677380896941e-03 1.233986358287e-03 0.0 
0.0 0.0 -3.946419382404e-04 
-9.859370989770e-04 -5.573179193325e-04 0.0 
-5.573179193325e-04 6.591591148133e-03 0.0 
0.0 0.0 -1.064556537081e-03 
-1.075263487039e-03 -6.290518893134e-05 0.0 
-6.290518893134e-05 7.229861812646e-03 0.0 
0.0 0.0 -1.170878753521e-03 
-6.948674803166e-04 2.455637071473e-04 0.0 
2.455637071473e-04 5.729378568502e-03 0.0 
0.0 0.0 -9.948919501216e-04 
-1.162320360260e-03 -6.372562573002e-05 0.0 
-6.372562573002e-05 7.161310363851e-03 0.0 
0.0 0.0 -1.064574987933e-03 
-9.584753352366e-04 2.606905829813e-04 0.0 
2.606905829813e-04 6.727836890182e-03 0.0 
0.0 0.0 -1.082686220397e-03 
-1.082949588594e-03 -4.851124086325e-04 0.0 
-4.851124086325e-04 7.296469259281e-03 0.0 
0.0 0.0 -1.168035910845e-03 
-5.459113610208e-04 8.695894781593e-04 0.0 
8.695894781593e-04 1.682549247342e-03 0.0 
0.0 0.0 -2.917408095836e-04 
-1.104897704515e-03 -4.845952140229e-05 0.0 
-4.845952140229e-05 6.655011128943e-03 0.0 
0.0 0.0 -9.919185416031e-04 
-1.022193057884e-03 1.318252200891e-04 0.0 
1.318252200891e-04 7.257050403107e-03 0.0 
0.0 0.0 -1.173906618061e-03 
-1.179945511942e-03 3.471716249997e-04 0.0 
3.471716249997e-04 7.305593288174e-03 0.0 
0.0 0.0 -1.096489272820e-03 
-5.875834666640e-04 2.546818746217e-04 0.0 
2.546818746217e-04 5.224796690614e-03 0.0 
0.0 0.0 -9.297700869391e-04 
-2.515263867691e-04 -2.254429621664e-04 0.0 
-2.254429621664e-04 3.754254559254e-03 0.0 
0.0 0.0 -7.325247082200e-04 
-9.641389493889e-04 -2.217264104135e-04 0.0 
-2.217264104135e-04 5.113633075458e-03 0.0 
0.0 0.0 -8.069452076110e-04 
4.285236195004e-04 1.396212384085e-04 0.0 
1.396212384085e-04 -1.219952762883e-04 0.0 
0.0 0.0 -1.313692899480e-04 
-1.204146700831e-03 3.439641556613e-04 0.0 
3.439641556613e-04 7.554548687955e-03 0.0 
0.0 0.0 -1.132911322290e-03 
-6.253175333027e-04 -2.826075305287e-05 0.0 
-2.826075305287e-05 2.680000675139e-03 0.0 
0.0 0.0 -4.309687334850e-04 
-5.749579867921e-04 6.771703350766e-04 0.0 
6.771703350766e-04 2.115308728038e-03 0.0 
0.0 0.0 -3.582286249851e-04 
-9.529535044554e-04 3.072244071368e-04 0.0 
3.072244071368e-04 6.570888144221e-03 0.0 
0.0 0.0 -1.054483161448e-03 
-1.255167442230e-03 3.201007171124e-04 0.0 
3.201007171124e-04 8.070344212991e-03 0.0 
0.0 0.0 -1.206783194404e-03 
-8.215496895040e-05 -1.772999525451e-03 0.0 
-1.772999525451e-03 1.193950944070e-03 0.0 
0.0 0.0 -3.966701258844e-04 
-7.833558623484e-04 4.482971625863e-04 0.0 
4.482971625863e-04 5.133302818514e-03 0.0 
0.0 0.0 -8.358581584049e-04 
-1.123137751770e-03 3.572847673877e-04 0.0 
3.572847673877e-04 6.794615582447e-03 0.0 
0.0 0.0 -1.023814440555e-03 
-8.765385540671e-04 -7.492880491734e-04 0.0 
-7.492880491734e-04 4.884441485584e-03 0.0 
0.0 0.0 -7.840072721007e-04 
2.874574446344e-04 -1.091275984428e-03 0.0 
-1.091275984428e-03 9.021895657290e-04 0.0 
0.0 0.0 -4.027365510179e-04 
-3.368056399330e-04 1.320783307670e-03 0.0 
1.320783307670e-03 2.512908282168e-03 0.0 
0.0 0.0 -5.292697486782e-04 
-2.272190685037e-04 -1.261695231052e-03 0.0 
-1.261695231052e-03 1.204255834380e-03 0.0 
0.0 0.0 -3.563018015714e-04 
-5.481856080813e-06 -1.360265015014e-03 0.0 
-1.360265015014e-03 1.114057395476e-03 0.0 
0.0 0.0 -3.608158092454e-04 
-1.672715856143e-04 -1.512279546231e-03 0.0 
-1.512279546231e-03 1.180506359655e-03 0.0 
0.0 0.0 -3.382523083772e-04 
-4.805060594133e-04 2.668098062439e-04 0.0 
2.668098062439e-04 4.715407643663e-03 0.0 
0.0 0.0 -8.647910268431e-04 
-1.323581223665e-03 3.388354907586e-04 0.0 
3.388354907586e-04 9.015003947055e-03 0.0 
0.0 0.0 -1.324146187826e-03 
-6.144383844702e-04 5.601929244688e-04 0.0 
5.601929244688e-04 2.582601934857e-03 0.0 
0.0 0.0 -4.244337567297e-04 
-1.156564282164e-03 -1.287267705775e-04 0.0 
-1.287267705775e-04 7.284536477905e-03 0.0 
0.0 0.0 -1.153422328581e-03 
-1.335800596959e-04 5.879693086389e-04 0.0 
5.879693086389e-04 2.932124141139e-03 0.0 
0.0 0.0 -6.430507458085e-04 
-1.103593163525e-03 -2.311027910085e-05 0.0 
-2.311027910085e-05 6.594057391582e-03 0.0 
0.0 0.0 -9.856407671940e-04 
6.097401795475e-04 2.716157955159e-04 0.0 
2.716157955159e-04 -1.627804699296e-04 0.0 
0.0 0.0 -1.915541612648e-04 
-1.121189365028e-03 -4.313739104837e-04 0.0 
-4.313739104837e-04 7.519397857683e-03 0.0 
0.0 0.0 -1.206759618350e-03 
-1.369628119913e-04 -1.636536330447e-03 0.0 
-1.636536330447e-03 1.233538073419e-03 0.0 
0.0 0.0 -4.045577262616e-04 
-7.109907021558e-04 -5.092194229215e-05 0.0 
-5.092194229215e-05 3.143336407810e-03 0.0 
0.0 0.0 -4.995972236199e-04 
-7.610689947692e-04 3.254275537369e-04 0.0 
3.254275537369e-04 6.017676875730e-03 0.0 
0.0 0.0 -1.031547093314e-03 
-5.009347095537e-04 -8.784504666191e-04 0.0 
-8.784504666191e-04 4.097798542798e-03 0.0 
0.0 0.0 -7.436172176343e-04 
-9.490922030985e-04 8.355820245775e-05 0.0 
8.355820245775e-05 6.977686204134e-03 0.0 
0.0 0.0 -1.139062866688e-03 
-5.334594474911e-04 7.731459396832e-04 0.0 
7.731459396832e-04 3.293236008727e-03 0.0 
0.0 0.0 -5.762899171568e-04 
-1.157169932203e-03 5.876132975745e-05 0.0 
5.876132975745e-05 6.976179943537e-03 0.0 
0.0 0.0 -1.044446328659e-03 
-1.026845760321e-03 3.718808168871e-04 0.0 
3.718808168871e-04 7.294887320679e-03 0.0 
0.0 0.0 -1.198892520503e-03 
-1.098955546930e-03 3.331596057930e-04 0.0 
3.331596057930e-04 6.603659082882e-03 0.0 
0.0 0.0 -9.940794652285e-04 
-1.269540035819e-03 1.940023298487e-04 0.0 
1.940023298487e-04 7.944098741491e-03 0.0 
0.0 0.0 -1.194784139986e-03 
-1.184726223875e-03 -2.348624992813e-06 0.0 
-2.348624992813e-06 7.294407597930e-03 0.0 
0.0 0.0 -1.087318097122e-03 
-1.210012004909e-03 2.996776911562e-05 0.0 
2.996776911562e-05 7.486490191622e-03 0.0 
0.0 0.0 -1.116677092124e-03 
1.863822195981e-04 1.500592688013e-03 0.0 
1.500592688013e-03 6.610975863953e-04 0.0 
0.0 0.0 -3.632056311400e-04 
-1.142912226621e-03 -1.436249115933e-04 0.0 
-1.436249115933e-04 7.061947710655e-03 0.0 
0.0 0.0 -1.115908039155e-03 
-1.147672819159e-03 3.821528619329e-04 0.0 
3.821528619329e-04 6.988478452450e-03 0.0 
0.0 0.0 -1.053364550114e-03 
-4.264879333549e-04 6.971974912426e-04 0.0 
6.971974912426e-04 4.141626674137e-03 0.0 
0.0 0.0 -7.792489223127e-04 
-6.776919640089e-04 4.847017937331e-04 0.0 
4.847017937331e-04 3.056038122043e-03 0.0 
0.0 0.0 -4.908673385051e-04 
-1.078927379078e-03 1.409149927546e-05 0.0 
1.409149927546e-05 7.640444635147e-03 0.0 
0.0 0.0 -1.232292820449e-03 
3.227356576489e-04 7.350862602758e-04 0.0 
7.350862602758e-04 8.113095771019e-04 0.0 
0.0 0.0 -4.142712813041e-04 
-6.537509052586e-04 -4.383754105270e-04 0.0 
-4.383754105270e-04 2.983336896445e-03 0.0 
0.0 0.0 -4.655197245388e-04 
-9.005107576278e-04 4.600258062660e-04 0.0 
4.600258062660e-04 6.613923225017e-03 0.0 
0.0 0.0 -1.105063927110e-03 
-3.654007350969e-04 -1.479495410984e-04 0.0 
-1.479495410984e-04 1.815899396191e-03 0.0 
0.0 0.0 -2.939799329518e-04 
-5.977371900919e-04 5.010127079244e-04 0.0 
5.010127079244e-04 4.620714897895e-03 0.0 
0.0 0.0 -7.924235178053e-04 
-8.040024099011e-04 2.359492841355e-04 0.0 
2.359492841355e-04 6.229578808837e-03 0.0 
0.0 0.0 -1.059843925468e-03 
-1.255635553756e-03 7.173795077006e-05 0.0 
7.173795077006e-05 7.907591642771e-03 0.0 
0.0 0.0 -1.181155146799e-03 
-1.282202030770e-03 1.124926252761e-04 0.0 
1.124926252761e-04 8.112071435222e-03 0.0 
0.0 0.0 -1.210943746944e-03 
-7.487229487199e-04 -1.168956266195e-04 0.0 
-1.168956266195e-04 6.087931342050e-03 0.0 
0.0 0.0 -1.028825005900e-03 
-1.212248021085e-03 -1.436521725135e-05 0.0 
-1.436521725135e-05 7.552882477900e-03 0.0 
0.0 0.0 -1.123737208958e-03 
-2.386760142168e-04 7.145577053840e-04 0.0 
7.145577053840e-04 3.288051445445e-03 0.0 
0.0 0.0 -6.793824814286e-04 
-1.022910334669e-03 3.054988306638e-04 0.0 
3.054988306638e-04 6.728691543712e-03 0.0 
0.0 0.0 -1.062452857821e-03 
-7.369445152822e-04 4.219749857923e-04 0.0 
4.219749857923e-04 3.529735228100e-03 0.0 
0.0 0.0 -5.576509564599e-04 
-1.225600923705e-03 6.150358502408e-04 0.0 
6.150358502408e-04 7.637406645108e-03 0.0 
0.0 0.0 -1.181751882508e-03 
-8.003950005641e-04 3.733577663785e-04 0.0 
3.733577663785e-04 4.007249233080e-03 0.0 
0.0 0.0 -6.243763318321e-04 
-7.858165178840e-04 3.201249060732e-04 0.0 
3.201249060732e-04 4.232155620723e-03 0.0 
0.0 0.0 -6.577503189808e-04 
-3.421685830446e-04 4.506546569180e-04 0.0 
4.506546569180e-04 3.987712693438e-03 0.0 
0.0 0.0 -7.717627972493e-04 
-8.541855867529e-04 3.616408520390e-04 0.0 
3.616408520390e-04 4.495910448337e-03 0.0 
0.0 0.0 -6.911701761307e-04 
-6.466553023066e-04 3.566499724765e-04 0.0 
3.566499724765e-04 5.190189138744e-03 0.0 
0.0 0.0 -8.833033330409e-04 
-4.075558796588e-04 5.082935923898e-04 0.0 
5.082935923898e-04 3.946901844573e-03 0.0 
0.0 0.0 -7.209687761305e-04 
-3.183347553168e-04 -3.900876355230e-04 0.0 
-3.900876355230e-04 3.990865140146e-03 0.0 
0.0 0.0 -7.606211034647e-04 
4.197691498195e-04 -7.924817374046e-04 0.0 
-7.924817374046e-04 5.841418248199e-04 0.0 
0.0 0.0 -3.925496596906e-04 
-2.632176995851e-04 3.130804871778e-04 0.0 
3.130804871778e-04 3.673894068274e-03 0.0 
0.0 0.0 -7.353490689725e-04 
-1.228427596361e-03 3.654441690398e-04 0.0 
3.654441690398e-04 7.753036613507e-03 0.0 
0.0 0.0 -1.162517914204e-03 
-1.234586540092e-03 6.496817172604e-04 0.0 
6.496817172604e-04 7.840810725913e-03 0.0 
0.0 0.0 -1.195263893373e-03 
-1.079254607357e-03 -1.716834017040e-04 0.0 
-1.716834017040e-04 6.610697418479e-03 0.0 
0.0 0.0 -1.050100468764e-03 
-9.999924356562e-04 4.337068162590e-04 0.0 
4.337068162590e-04 7.101876474641e-03 0.0 
0.0 0.0 -1.170266998156e-03 
-4.393592797757e-04 -4.178536690016e-04 0.0 
-4.178536690016e-04 4.023524415681e-03 0.0 
0.0 0.0 -7.463264885205e-04 
-1.196792592392e-03 4.110574340668e-04 0.0 
4.110574340668e-04 7.430663622206e-03 0.0 
0.0 0.0 -1.119019617531e-03 
-3.103812770642e-04 1.366237006987e-04 0.0 
1.366237006987e-04 3.912213435347e-03 0.0 
0.0 0.0 -7.634232545038e-04 
-1.186941185396e-03 -1.093564622626e-04 0.0 
-1.093564622626e-04 7.299889317220e-03 0.0 
0.0 0.0 -1.144395376583e-03 
-1.175446045210e-03 3.743988593539e-04 0.0 
3.743988593539e-04 7.239811730626e-03 0.0 
0.0 0.0 -1.089631904438e-03 
-1.184480952279e-03 4.301367348574e-05 0.0 
4.301367348574e-05 7.231184503722e-03 0.0 
0.0 0.0 -1.080451501872e-03 
-6.366755747078e-04 1.541674785508e-04 0.0 
1.541674785508e-04 5.452650900242e-03 0.0 
0.0 0.0 -9.580909834143e-04 
-2.389238927474e-04 5.103421139426e-04 0.0 
5.103421139426e-04 3.464348160629e-03 0.0 
0.0 0.0 -7.073300717972e-04 
-1.091479932409e-03 3.053404772209e-04 0.0 
3.053404772209e-04 7.161436277653e-03 0.0 
0.0 0.0 -1.126038590206e-03 
-9.842000416471e-04 6.396846099915e-04 0.0 
6.396846099915e-04 5.813603015757e-03 0.0 
0.0 0.0 -9.169694165663e-04 
1.883793847700e-04 -1.613056327393e-03 0.0 
-1.613056327393e-03 7.099727485344e-04 0.0 
0.0 0.0 -3.670597958229e-04 
4.158840995285e-04 -1.069455846307e-04 0.0 
-1.069455846307e-04 9.093131002263e-04 0.0 
0.0 0.0 -4.209936697170e-04 
-5.253520320544e-04 1.113226159763e-03 0.0 
1.113226159763e-03 3.274387380493e-03 0.0 
0.0 0.0 -6.061407060701e-04 
-8.148800044768e-04 7.943320417803e-04 0.0 
7.943320417803e-04 5.072587073095e-03 0.0 
0.0 0.0 -8.384786063130e-04 
-1.230266496445e-03 -6.856974243120e-05 0.0 
-6.856974243120e-05 7.537797729461e-03 0.0 
0.0 0.0 -1.173545322487e-03 
-1.159784806983e-03 4.546774843698e-06 0.0 
4.546774843698e-06 7.042624556690e-03 0.0 
0.0 0.0 -1.051102540299e-03 
-2.045778073669e-04 -2.934353049160e-05 0.0 
-2.934353049160e-05 3.544788899175e-03 0.0 
0.0 0.0 -7.045205360201e-04 
-9.013823451461e-04 3.641498331546e-04 0.0 
3.641498331546e-04 5.853350218943e-03 0.0 
0.0 0.0 -9.344940742331e-04 
-8.532834150583e-04 1.785665259931e-04 0.0 
1.785665259931e-04 6.467721788847e-03 0.0 
0.0 0.0 -1.088599101970e-03 
-1.213199839846e-03 -4.701032574329e-05 0.0 
-4.701032574329e-05 7.611187462875e-03 0.0 
0.0 0.0 -1.130578931274e-03 
-1.163123546776e-03 3.469650352866e-04 0.0 
3.469650352866e-04 7.457428311297e-03 0.0 
0.0 0.0 -1.160781586281e-03 
-1.064121038643e-03 3.592685452389e-04 0.0 
3.592685452389e-04 6.295822569873e-03 0.0 
0.0 0.0 -9.517943393003e-04 
-9.431187375283e-04 -8.030312093776e-06 0.0 
-8.030312093776e-06 6.723807310886e-03 0.0 
0.0 0.0 -1.113435711030e-03 
-3.640285380992e-04 -2.251334255899e-04 0.0 
-2.251334255899e-04 4.276860424883e-03 0.0 
0.0 0.0 -7.971871449874e-04 
-8.575470034421e-04 -2.591277644309e-04 0.0 
-2.591277644309e-04 6.522660233149e-03 0.0 
0.0 0.0 -1.086118700983e-03 
-6.488096190532e-04 8.782975641900e-04 0.0 
8.782975641900e-04 4.555098411154e-03 0.0 
0.0 0.0 -7.951163407912e-04 
-1.259477151619e-03 2.377000778179e-05 0.0 
2.377000778179e-05 7.994105241717e-03 0.0 
0.0 0.0 -1.188704642750e-03 
-1.188566355983e-03 2.821785558319e-04 0.0 
2.821785558319e-04 7.789552889991e-03 0.0 
0.0 0.0 -1.200489323427e-03 
-5.291595357548e-04 1.464001696405e-04 0.0 
1.464001696405e-04 4.944674619640e-03 0.0 
0.0 0.0 -8.929891684399e-04 
5.077877396978e-04 3.026021049410e-04 0.0 
3.026021049410e-04 3.943566526323e-04 0.0 
0.0 0.0 -3.866333109986e-04 
-9.967575789130e-04 6.124990556396e-04 0.0 
6.124990556396e-04 6.815699392306e-03 0.0 
0.0 0.0 -1.113685640909e-03 
-6.605390437865e-04 4.261094964972e-04 0.0 
4.261094964972e-04 5.059149157301e-03 0.0 
0.0 0.0 -8.555605426019e-04 
-1.830081198130e-04 1.866635750844e-04 0.0 
1.866635750844e-04 3.368216116446e-03 0.0 
0.0 0.0 -6.765734244908e-04 
-5.817203437329e-04 -2.125841840423e-04 0.0 
-2.125841840423e-04 5.299242741235e-03 0.0 
0.0 0.0 -9.269463096178e-04 
-9.296871453603e-04 -5.069518437094e-04 0.0 
-5.069518437094e-04 6.554705833196e-03 0.0 
0.0 0.0 -1.072977024862e-03 
5.145493605139e-04 -6.481882605914e-04 0.0 
-6.481882605914e-04 5.138628621790e-04 0.0 
0.0 0.0 -3.958212347391e-04 
-4.207868633399e-04 1.388755270071e-04 0.0 
1.388755270071e-04 4.431893145968e-03 0.0 
0.0 0.0 -8.281205301186e-04 
-1.057518774056e-03 5.392644449481e-04 0.0 
5.392644449481e-04 6.206831668111e-03 0.0 
0.0 0.0 -9.596127204057e-04 
-1.238644968873e-03 -4.648423040969e-04 0.0 
-4.648423040969e-04 7.603472997752e-03 0.0 
0.0 0.0 -1.170838755190e-03 
-1.067041670428e-03 5.715302009941e-04 0.0 
5.715302009941e-04 6.356528225694e-03 0.0 
0.0 0.0 -9.876491701491e-04 
-9.841945622355e-04 6.610492595006e-04 0.0 
6.610492595006e-04 6.661208694162e-03 0.0 
0.0 0.0 -1.085374163265e-03 
-1.045085745863e-03 5.003784013052e-04 0.0 
5.003784013052e-04 6.049842854282e-03 0.0 
0.0 0.0 -9.316602363005e-04 
-1.022837492668e-03 4.381275546802e-04 0.0 
4.381275546802e-04 5.716010034056e-03 0.0 
0.0 0.0 -8.756372412555e-04 
-9.850681647526e-04 6.675723233926e-04 0.0 
6.675723233926e-04 5.952563133260e-03 0.0 
0.0 0.0 -9.447135688329e-04 
-9.326630633240e-04 3.930283305116e-04 0.0 
3.930283305116e-04 6.810995827980e-03 0.0 
0.0 0.0 -1.133505030480e-03 
-1.106660061021e-03 -5.521563816417e-04 0.0 
-5.521563816417e-04 6.894855264338e-03 0.0 
0.0 0.0 -1.084522140297e-03 
-1.120799229937e-03 3.838899692646e-04 0.0 
3.838899692646e-04 6.737454909863e-03 0.0 
0.0 0.0 -1.017300281410e-03 
-1.265839226480e-03 4.523982644349e-04 0.0 
4.523982644349e-04 8.063487692737e-03 0.0 
0.0 0.0 -1.212886757924e-03 
-1.030324522425e-03 4.628372417255e-04 0.0 
4.628372417255e-04 5.887641382241e-03 0.0 
0.0 0.0 -9.037302385344e-04 
2.653135269755e-05 8.001600084414e-05 0.0 
8.001600084414e-05 2.476344782206e-03 0.0 
0.0 0.0 -5.760585567884e-04 
-1.044239643313e-03 2.376498451471e-04 0.0 
2.376498451471e-04 7.187723140536e-03 0.0 
0.0 0.0 -1.146733564437e-03 
-1.253924981079e-03 -4.907598213233e-05 0.0 
-4.907598213233e-05 8.057805599269e-03 0.0 
0.0 0.0 -1.196744929305e-03 
-5.355464959753e-04 8.349410411799e-04 0.0 
8.349410411799e-04 4.335085481445e-03 0.0 
0.0 0.0 -7.869228524964e-04 
-6.233378135021e-04 8.291713004523e-04 0.0 
8.291713004523e-04 4.669146782253e-03 0.0 
0.0 0.0 -8.226527892688e-04 
-9.042297380501e-05 1.578503348626e-05 0.0 
1.578503348626e-05 3.015977975308e-03 0.0 
0.0 0.0 -6.402419685743e-04 
-1.145557266538e-03 4.246140586136e-04 0.0 
4.246140586136e-04 6.921583184568e-03 0.0 
0.0 0.0 -1.046609947212e-03 
-6.981713726155e-04 9.056832497172e-04 0.0 
9.056832497172e-04 3.852457966674e-03 0.0 
0.0 0.0 -6.500746975200e-04 
-6.825381544126e-04 6.942299752500e-04 0.0 
6.942299752500e-04 5.269578602974e-03 0.0 
0.0 0.0 -9.137630964162e-04 
-6.717413934869e-04 5.961928435860e-04 0.0 
5.961928435860e-04 3.907642713709e-03 0.0 
0.0 0.0 -6.476280927198e-04 
-8.299310340804e-04 4.003109170218e-04 0.0 
4.003109170218e-04 6.314977660297e-03 0.0 
0.0 0.0 -1.068254633495e-03 
-1.134995185088e-03 2.756692802088e-04 0.0 
2.756692802088e-04 7.594750376581e-03 0.0 
0.0 0.0 -1.211228670573e-03 
-1.360533559688e-04 -2.215574873168e-04 0.0 
-2.215574873168e-04 3.223027219763e-03 0.0 
0.0 0.0 -6.682047883386e-04 
4.373904628404e-04 -2.393257178328e-04 0.0 
-2.393257178328e-04 -1.132865459339e-04 0.0 
0.0 0.0 -1.389016786742e-04 
-1.258599255868e-03 5.175436206336e-04 0.0 
5.175436206336e-04 7.974357198458e-03 0.0 
0.0 0.0 -1.207184308065e-03 
-7.509449296831e-04 8.117398232865e-04 0.0 
8.117398232865e-04 4.141196512392e-03 0.0 
0.0 0.0 -6.853381776776e-04 
-4.357225566231e-04 -2.745654093134e-04 0.0 
-2.745654093134e-04 4.218247831069e-03 0.0 
0.0 0.0 -7.828151049093e-04 
-1.060590658414e-03 6.112856710438e-04 0.0 
6.112856710438e-04 7.289270463529e-03 0.0 
0.0 0.0 -1.177925372349e-03 
-1.133119087327e-03 1.716253131945e-05 0.0 
1.716253131945e-05 6.790529249754e-03 0.0 
0.0 0.0 -1.015069748350e-03 
-1.047918274143e-03 -5.722033483047e-04 0.0 
-5.722033483047e-04 6.640384232333e-03 0.0 
0.0 0.0 -1.055879354346e-03 
-3.002045645479e-04 4.799822856897e-04 0.0 
4.799822856897e-04 3.594772661625e-03 0.0 
0.0 0.0 -6.851017020021e-04 
1.437633437549e-04 -1.583243096343e-05 0.0 
-1.583243096343e-05 -4.287346076812e-05 0.0 
0.0 0.0 -4.323852128003e-05 
-1.294332022630e-03 -4.590388614896e-04 0.0 
-4.590388614896e-04 7.891763322768e-03 0.0 
0.0 0.0 -1.202131160132e-03 
-7.979241755136e-04 7.967983468878e-04 0.0 
7.967983468878e-04 5.189819245057e-03 0.0 
0.0 0.0 -8.660506973337e-04 
-7.515738742409e-04 1.099645178349e-04 0.0 
1.099645178349e-04 5.981619188890e-03 0.0 
0.0 0.0 -1.007142642412e-03 
-1.115772722662e-03 6.613759768766e-04 0.0 
6.613759768766e-04 7.287802445254e-03 0.0 
0.0 0.0 -1.157822513452e-03 
0.0 0.0 0.0 
0.0 0.0 0.0 
0.0 0.0 0.0 
-1.020410346766e-03 -1.741879484343e-04 0.0 
-1.741879484343e-04 6.569036879710e-03 0.0 
0.0 0.0 -1.058763633038e-03 
-1.044584882710e-04 9.374141262810e-04 0.0 
9.374141262810e-04 2.179572843365e-03 0.0 
0.0 0.0 -4.919579008500e-04 
-1.074016419554e-03 -9.865194451984e-06 0.0 
-9.865194451984e-06 6.344021920267e-03 0.0 
0.0 0.0 -9.498437721210e-04 
-9.305727240655e-04 -6.933921297842e-04 0.0 
-6.933921297842e-04 5.329347824549e-03 0.0 
0.0 0.0 -8.496012432876e-04 
-1.513106441093e-04 3.496683072490e-04 0.0 
3.496683072490e-04 3.137268859880e-03 0.0 
0.0 0.0 -6.709551114794e-04 
-1.200608795278e-03 -4.872905826385e-04 0.0 
-4.872905826385e-04 7.367763642178e-03 0.0 
0.0 0.0 -1.141635569211e-03 
-6.896908437113e-04 7.588366273899e-04 0.0 
7.588366273899e-04 5.123258515759e-03 0.0 
0.0 0.0 -8.859145181037e-04 
-3.682506920307e-05 4.047925217802e-04 0.0 
4.047925217802e-04 2.589749957424e-03 0.0 
0.0 0.0 -6.067458373204e-04 
-8.340011645670e-04 4.008480374015e-04 0.0 
4.008480374015e-04 5.557081142302e-03 0.0 
0.0 0.0 -8.989548790023e-04 
3.022096838876e-04 -3.038195152345e-04 0.0 
-3.038195152345e-04 -5.124151784210e-05 0.0 
0.0 0.0 -1.075577854481e-04 
-9.546355211556e-04 3.234338831530e-04 0.0 
3.234338831530e-04 6.429567223705e-03 0.0 
0.0 0.0 -1.026417656363e-03 
-8.158927749848e-04 -3.909777349408e-05 0.0 
-3.909777349408e-05 6.386420010715e-03 0.0 
0.0 0.0 -1.065496432940e-03 
-1.247055565640e-03 3.319997532961e-04 0.0 
3.319997532961e-04 7.921779384989e-03 0.0 
0.0 0.0 -1.233600908384e-03 
-1.025284337354e-03 2.945178670449e-04 0.0 
2.945178670449e-04 6.877652576001e-03 0.0 
0.0 0.0 -1.090749533212e-03 
2.434503745851e-04 -1.578934998957e-04 0.0 
-1.578934998957e-04 1.529841444305e-03 0.0 
0.0 0.0 -4.758149136988e-04 
-1.100855494631e-03 -5.513580386133e-04 0.0 
-5.513580386133e-04 6.680884096093e-03 0.0 
0.0 0.0 -1.047231727503e-03 
-1.252169978070e-03 3.748871630309e-04 0.0 
3.748871630309e-04 8.183246127380e-03 0.0 
0.0 0.0 -1.228155452712e-03 
-1.172998084832e-03 8.287498321717e-05 0.0 
8.287498321717e-05 7.902166307926e-03 0.0 
0.0 0.0 -1.267145247477e-03 
-8.845763971731e-04 3.343706134047e-05 0.0 
3.343706134047e-05 6.685188464531e-03 0.0 
0.0 0.0 -1.102242875413e-03 
-2.824655770355e-04 3.019818645340e-04 0.0 
3.019818645340e-04 3.719180698001e-03 0.0 
0.0 0.0 -7.127912709901e-04 
-8.914221389397e-04 3.576211756874e-04 0.0 
3.576211756874e-04 5.989320852496e-03 0.0 
0.0 0.0 -9.624716764950e-04 
-1.265622827008e-03 -3.602381928261e-05 0.0 
-3.602381928261e-05 7.525688479598e-03 0.0 
0.0 0.0 -1.164316760544e-03 
-1.026823558190e-03 -3.127358117122e-04 0.0 
-3.127358117122e-04 5.188290229651e-03 0.0 
0.0 0.0 -7.878971455476e-04 
-9.790335059978e-04 6.764140397440e-04 0.0 
6.764140397440e-04 6.506573428341e-03 0.0 
0.0 0.0 -1.057196955382e-03 
-1.092783271967e-03 3.587775336083e-04 0.0 
3.587775336083e-04 6.543365283594e-03 0.0 
0.0 0.0 -9.877098122506e-04 
-1.155871143424e-03 -5.200772835953e-04 0.0 
-5.200772835953e-04 7.131963810306e-03 0.0 
0.0 0.0 -1.112977059762e-03 
-1.053791982519e-03 -5.418051239347e-04 0.0 
-5.418051239347e-04 6.849369446006e-03 0.0 
0.0 0.0 -1.093234982489e-03 
-8.344751970142e-04 -5.063632387036e-06 0.0 
-5.063632387036e-06 4.624983012521e-03 0.0 
0.0 0.0 -7.313513689239e-04 
-8.293658591313e-04 3.666703434100e-05 0.0 
3.666703434100e-05 4.623218336322e-03 0.0 
0.0 0.0 -7.310574395863e-04 
-1.097030069405e-03 1.613810298079e-04 0.0 
1.613810298079e-04 6.539696336596e-03 0.0 
0.0 0.0 -9.927888931629e-04 
-9.125545325387e-04 7.100995827850e-04 0.0 
7.100995827850e-04 6.060357295598e-03 0.0 
0.0 0.0 -9.930598132463e-04 
-9.889474269995e-04 -6.231936758992e-04 0.0 
-6.231936758992e-04 5.582412655685e-03 0.0 
0.0 0.0 -8.780428295617e-04 
-1.024071250989e-03 2.871939654452e-04 0.0 
2.871939654452e-04 6.293682207182e-03 0.0 
0.0 0.0 -9.775429604617e-04 
-6.061110354643e-04 7.542189021973e-04 0.0 
7.542189021973e-04 4.796279324774e-03 0.0 
0.0 0.0 -8.502279965035e-04 
-1.039665177067e-03 6.008961477257e-05 0.0 
6.008961477257e-05 7.149947818513e-03 0.0 
0.0 0.0 -1.180288150054e-03 
-3.419429553988e-04 7.892463912468e-04 0.0 
7.892463912468e-04 3.645374748844e-03 0.0 
0.0 0.0 -7.154845226688e-04 
-1.354053466570e-03 2.682798114320e-04 0.0 
2.682798114320e-04 9.013564030942e-03 0.0 
0.0 0.0 -1.323793839065e-03 
-9.392924140876e-04 3.695422570173e-04 0.0 
3.695422570173e-04 5.310514062737e-03 0.0 
0.0 0.0 -8.119939454945e-04 
-5.728660710208e-04 4.262528038404e-04 0.0 
4.262528038404e-04 4.737723853376e-03 0.0 
0.0 0.0 -8.199314282332e-04 
-8.958346709753e-04 -3.297015998196e-04 0.0 
-3.297015998196e-04 5.260659561238e-03 0.0 
0.0 0.0 -8.523954645778e-04 
2.690092700999e-04 2.909500152897e-04 0.0 
2.909500152897e-04 1.354854423747e-03 0.0 
0.0 0.0 -4.479040077299e-04 
-8.117880315537e-04 -8.289707142058e-04 0.0 
-8.289707142058e-04 4.623452632362e-03 0.0 
0.0 0.0 -7.551671247638e-04 
-8.525904846397e-04 7.508503903319e-04 0.0 
7.508503903319e-04 5.621343722007e-03 0.0 
0.0 0.0 -9.293281999836e-04 
-8.758111121474e-04 7.483431883641e-04 0.0 
7.483431883641e-04 5.371889788881e-03 0.0 
0.0 0.0 -8.738309435711e-04 
-1.092742745582e-03 3.915524889603e-04 0.0 
3.915524889603e-04 6.485907170089e-03 0.0 
0.0 0.0 -9.814596669550e-04 
-1.035952161766e-03 6.611052853446e-04 0.0 
6.611052853446e-04 6.380857888035e-03 0.0 
0.0 0.0 -1.008022096355e-03 
-1.077652724168e-03 2.805726221407e-04 0.0 
2.805726221407e-04 6.715783923999e-03 0.0 
0.0 0.0 -1.040850218070e-03 
-2.023974518503e-04 -1.321133762499e-04 0.0 
-1.321133762499e-04 1.384394093772e-03 0.0 
0.0 0.0 -2.163717569139e-04 
-7.893601242255e-04 -4.562798916239e-04 0.0 
-4.562798916239e-04 4.381521976835e-03 0.0 
0.0 0.0 -7.209013985657e-04 
-7.313998078972e-04 5.086544562021e-04 0.0 
5.086544562021e-04 4.197814066076e-03 0.0 
0.0 0.0 -6.825522065409e-04 
-1.028318523239e-03 6.006171887521e-04 0.0 
6.006171887521e-04 6.085692307244e-03 0.0 
0.0 0.0 -9.521954671713e-04 
-1.067646735267e-03 2.331910673829e-04 0.0 
2.331910673829e-04 6.426373394987e-03 0.0 
0.0 0.0 -9.850634846466e-04 
-9.716546386639e-04 2.965949022534e-04 0.0 
2.965949022534e-04 6.988702290933e-03 0.0 
0.0 0.0 -1.160108757481e-03 
-4.472950566148e-04 1.734158785359e-04 0.0 
1.734158785359e-04 1.999281221139e-03 0.0 
0.0 0.0 -3.273996513303e-04 
5.013762340144e-04 -1.239269767564e-03 0.0 
-1.239269767564e-03 2.218446430556e-04 0.0 
0.0 0.0 -3.099518044586e-04 
-7.265319955109e-04 8.390462931927e-04 0.0 
8.390462931927e-04 4.877510016991e-03 0.0 
0.0 0.0 -8.305977116616e-04 
-8.244303094237e-04 -8.036957222691e-04 0.0 
-8.036957222691e-04 4.446645084886e-03 0.0 
0.0 0.0 -7.181358556540e-04 
-8.207218427826e-04 3.111449193761e-07 0.0 
3.111449193761e-07 4.297525914166e-03 0.0 
0.0 0.0 -6.554599841463e-04 
-8.454650530547e-04 2.288116945552e-05 0.0 
2.288116945552e-05 4.550895634799e-03 0.0 
0.0 0.0 -6.889204951115e-04 
-1.102411452052e-03 3.661135033764e-05 0.0 
3.661135033764e-05 6.536305471285e-03 0.0 
0.0 0.0 -9.793492904611e-04 
1.401876311920e-04 1.457319982698e-03 0.0 
1.457319982698e-03 8.276000244946e-04 0.0 
0.0 0.0 -3.371109590423e-04 
-9.056307504124e-04 -3.219601326285e-04 0.0 
-3.219601326285e-04 5.073216074597e-03 0.0 
0.0 0.0 -8.154759146177e-04 
-8.139515461008e-04 -3.444279104295e-04 0.0 
-3.444279104295e-04 6.262709696181e-03 0.0 
0.0 0.0 -1.049209916622e-03 
5.784646720155e-04 -2.798136268851e-04 0.0 
-2.798136268851e-04 4.491531344292e-05 0.0 
0.0 0.0 -2.671628509107e-04 
-1.269607203850e-03 4.300111845681e-04 0.0 
4.300111845681e-04 8.005085435650e-03 0.0 
0.0 0.0 -1.285586381397e-03 
-1.234701409080e-03 4.026661623699e-05 0.0 
4.026661623699e-05 7.724712803764e-03 0.0 
0.0 0.0 -1.152455342817e-03 
-9.332307083252e-04 -6.317385210980e-04 0.0 
-6.317385210980e-04 4.943755293323e-03 0.0 
0.0 0.0 -7.756113943005e-04 
-1.132361128818e-03 -1.347962173953e-04 0.0 
-1.347962173953e-04 6.852501733015e-03 0.0 
0.0 0.0 -1.078722419643e-03 
-1.782286125890e-04 -3.440225614963e-05 0.0 
-3.440225614963e-05 7.356149739106e-04 0.0 
0.0 0.0 -1.797547709840e-04 
-7.836878423569e-04 -4.420353483476e-04 0.0 
-4.420353483476e-04 6.015976224596e-03 0.0 
0.0 0.0 -1.012471576362e-03 
-7.618878641414e-04 4.386001518409e-04 0.0 
4.386001518409e-04 5.252415903850e-03 0.0 
0.0 0.0 -8.634366945984e-04 
-1.365202202974e-04 -1.663937919944e-05 0.0 
-1.663937919944e-05 7.240163383166e-04 0.0 
0.0 0.0 -1.788519809851e-04 
-1.221296204116e-03 3.897303876191e-04 0.0 
3.897303876191e-04 7.675470665632e-03 0.0 
0.0 0.0 -1.154859126927e-03 
6.541694671517e-04 -5.838497479074e-04 0.0 
-5.838497479074e-04 -1.165985658389e-04 0.0 
0.0 0.0 -2.303875291341e-04 
-1.022773715161e-03 2.649419741859e-04 0.0 
2.649419741859e-04 6.147018606592e-03 0.0 
0.0 0.0 -9.496453321265e-04 
-8.501477431051e-04 4.017489682252e-04 0.0 
4.017489682252e-04 5.430956065029e-03 0.0 
0.0 0.0 -8.712718144564e-04 
-3.870813166907e-04 -6.841434598879e-04 0.0 
-6.841434598879e-04 4.009053170529e-03 0.0 
0.0 0.0 -7.519815330289e-04 
-7.080628147866e-04 -2.630245850535e-04 0.0 
-2.630245850535e-04 5.293137348391e-03 0.0 
0.0 0.0 -9.052548162676e-04 
-1.248469741651e-03 4.216386458729e-04 0.0 
4.216386458729e-04 7.872413297340e-03 0.0 
0.0 0.0 -1.182898372388e-03 
-7.959805508824e-04 -1.903636579771e-04 0.0 
-1.903636579771e-04 5.775075989453e-03 0.0 
0.0 0.0 -9.716005391689e-04 
-7.058567601375e-04 8.071090420181e-04 0.0 
8.071090420181e-04 4.993912000440e-03 0.0 
0.0 0.0 -8.581765416018e-04 
-6.834773769761e-04 4.720321187624e-04 0.0 
4.720321187624e-04 4.941232986507e-03 0.0 
0.0 0.0 -8.279616112546e-04 
1.200725464498e-05 4.997720012563e-04 0.0 
4.997720012563e-04 2.980647594779e-04 0.0 
0.0 0.0 -1.328880060527e-04 
5.267325684764e-04 -1.507976047628e-04 0.0 
-1.507976047628e-04 -1.515568147922e-04 0.0 
0.0 0.0 -1.607896087218e-04 
-1.031637425544e-03 2.938257107745e-04 0.0 
2.938257107745e-04 7.016823171402e-03 0.0 
0.0 0.0 -1.118331045454e-03 
-1.047581819557e-03 3.855603907834e-05 0.0 
3.855603907834e-05 6.024362043911e-03 0.0 
0.0 0.0 -9.085367473448e-04 
-1.068580773740e-03 6.289177231850e-04 0.0 
6.289177231850e-04 7.124997701846e-03 0.0 
0.0 0.0 -1.148691026115e-03 
-2.168784888490e-04 1.398227562360e-03 0.0 
1.398227562360e-03 2.112550911132e-03 0.0 
0.0 0.0 -4.942977111402e-04 
-1.176051745943e-03 5.435901405529e-04 0.0 
5.435901405529e-04 7.176283028080e-03 0.0 
0.0 0.0 -1.097950598811e-03 
-1.105546950119e-03 2.883637130323e-04 0.0 
2.883637130323e-04 7.335184708628e-03 0.0 
0.0 0.0 -1.155407764312e-03 
-8.481473499091e-04 3.802854440166e-04 0.0 
3.802854440166e-04 4.634623972028e-03 0.0 
0.0 0.0 -7.179420443741e-04 
-1.053414342459e-03 6.334862389143e-04 0.0 
6.334862389143e-04 6.950110385841e-03 0.0 
0.0 0.0 -1.120992621467e-03 
-1.150488405997e-03 -5.115596481821e-04 0.0 
-5.115596481821e-04 6.921289775542e-03 0.0 
0.0 0.0 -1.075946734593e-03 
-8.430169137080e-04 7.309466471044e-04 0.0 
7.309466471044e-04 5.750606817071e-03 0.0 
0.0 0.0 -9.571162043194e-04 
-8.407412319889e-04 -3.923326874810e-04 0.0 
-3.923326874810e-04 4.820090656330e-03 0.0 
0.0 0.0 -7.866383436874e-04 
-8.661293961769e-04 -7.636305903076e-04 0.0 
-7.636305903076e-04 5.068827859701e-03 0.0 
0.0 0.0 -8.209012074946e-04 
-1.276631957823e-03 1.351613779989e-04 0.0 
1.351613779989e-04 8.067600813718e-03 0.0 
0.0 0.0 -1.204704583718e-03 
-6.220699559740e-04 -3.467517458204e-04 0.0 
-3.467517458204e-04 4.812375804049e-03 0.0 
0.0 0.0 -8.396599866114e-04 
-8.640312315529e-04 7.564773801915e-04 0.0 
7.564773801915e-04 5.496513579944e-03 0.0 
0.0 0.0 -9.015555482168e-04 
-5.139647083066e-04 6.286602551559e-04 0.0 
6.286602551559e-04 4.638431100819e-03 0.0 
0.0 0.0 -8.433600309793e-04 
-8.878790724241e-04 -1.375747034556e-04 0.0 
-1.375747034556e-04 6.258870962336e-03 0.0 
0.0 0.0 -1.038364586984e-03 
-4.800211114771e-04 4.132947089942e-04 0.0 
4.132947089942e-04 4.403087062058e-03 0.0 
0.0 0.0 -7.842421616061e-04 
1.708764263770e-04 1.828302604937e-04 0.0 
1.828302604937e-04 1.696323968062e-03 0.0 
0.0 0.0 -5.065804551108e-04 
-4.825363659521e-04 1.845931219475e-05 0.0 
1.845931219475e-05 4.680497453253e-03 0.0 
0.0 0.0 -8.561803240471e-04 
8.082119994225e-05 4.790974331332e-04 0.0 
4.790974331332e-04 2.023860804843e-03 0.0 
0.0 0.0 -5.426160209679e-04 
-1.033438603377e-03 6.383788790857e-04 0.0 
6.383788790857e-04 6.235509335954e-03 0.0 
0.0 0.0 -9.799122972177e-04 
1.114946380246e-04 -1.909482610686e-04 0.0 
-1.909482610686e-04 2.113077183239e-03 0.0 
0.0 0.0 -5.399485503623e-04 
-9.706412986079e-04 3.184758127264e-04 0.0 
3.184758127264e-04 6.013389094156e-03 0.0 
0.0 0.0 -9.420580210740e-04 
-9.265946290547e-04 -4.225709154864e-05 0.0 
-4.225709154864e-05 6.885841307398e-03 0.0 
0.0 0.0 -1.130549445556e-03 
-8.685442447111e-04 3.124266913747e-04 0.0 
3.124266913747e-04 6.514082051094e-03 0.0 
0.0 0.0 -1.096529089934e-03 
-4.417150057457e-04 8.260625217284e-04 0.0 
8.260625217284e-04 3.995231427087e-03 0.0 
0.0 0.0 -7.512528815036e-04 
-1.059191105034e-03 4.065855107728e-04 0.0 
4.065855107728e-04 6.228287830528e-03 0.0 
0.0 0.0 -9.460253849645e-04 
-1.179141908394e-03 -9.694575707592e-05 0.0 
-9.694575707592e-05 7.087490944073e-03 0.0 
0.0 0.0 -1.107441567342e-03 
-1.193835214950e-03 -4.719824871619e-04 0.0 
-4.719824871619e-04 7.155436910273e-03 0.0 
0.0 0.0 -1.104747680386e-03 
1.944125303692e-04 1.273132647232e-03 0.0 
1.273132647232e-03 5.121470870520e-04 0.0 
0.0 0.0 -3.028112646091e-04 
-9.836336619932e-04 6.878362883605e-04 0.0 
6.878362883605e-04 6.089006481299e-03 0.0 
0.0 0.0 -9.724793438395e-04 
-1.268204156625e-03 7.721982515826e-06 0.0 
7.721982515826e-06 7.786698253164e-03 0.0 
0.0 0.0 -1.205818386895e-03 
-6.870681417228e-04 7.008927199053e-04 0.0 
7.008927199053e-04 3.265237971609e-03 0.0 
0.0 0.0 -5.357889572170e-04 
-9.885170178391e-04 -5.948066208015e-04 0.0 
-5.948066208015e-04 5.380783060798e-03 0.0 
0.0 0.0 -8.409532000723e-04 
-7.799555259594e-05 6.230825562270e-04 0.0 
6.230825562270e-04 5.570487652900e-04 0.0 
0.0 0.0 -2.053085197260e-04 
-1.219579480668e-03 -6.033820998881e-05 0.0 
-6.033820998881e-05 7.313003609483e-03 0.0 
0.0 0.0 -1.136235114959e-03 
2.012100085966e-04 5.845223729044e-04 0.0 
5.845223729044e-04 1.434306137738e-03 0.0 
0.0 0.0 -4.785631936960e-04 
-1.042459381450e-03 3.192310209748e-05 0.0 
3.192310209748e-05 5.237687487302e-03 0.0 
0.0 0.0 -8.166178341775e-04 
-7.748148319910e-04 5.841265057534e-04 0.0 
5.841265057534e-04 5.931280080680e-03 0.0 
0.0 0.0 -1.008721701990e-03 
-1.070450976463e-03 4.786712554870e-05 0.0 
4.786712554870e-05 6.281594191104e-03 0.0 
0.0 0.0 -9.438854677472e-04 
-1.019990029507e-03 4.017679917675e-04 0.0 
4.017679917675e-04 5.968797618871e-03 0.0 
0.0 0.0 -9.108073647307e-04 
-7.821076712380e-04 7.813500369489e-04 0.0 
7.813500369489e-04 5.311710917371e-03 0.0 
0.0 0.0 -8.936906232635e-04 
-7.622603984916e-04 6.791341036292e-05 0.0 
6.791341036292e-05 3.813852506224e-03 0.0 
0.0 0.0 -5.884905393267e-04 
-7.846644250761e-04 7.808219167046e-05 0.0 
7.808219167046e-05 4.065403212213e-03 0.0 
0.0 0.0 -6.218825813656e-04 
-1.233191643352e-03 -4.261165376934e-04 0.0 
-4.261165376934e-04 7.382821542764e-03 0.0 
0.0 0.0 -1.133400347077e-03 
-7.515727621129e-04 -6.277168771854e-04 0.0 
-6.277168771854e-04 5.560136738189e-03 0.0 
0.0 0.0 -9.394087121358e-04 
-4.848945124793e-04 -6.056685510147e-04 0.0 
-6.056685510147e-04 4.517787566476e-03 0.0 
0.0 0.0 -8.164864906097e-04 
-7.633590365807e-04 1.747203192895e-05 0.0 
1.747203192895e-05 5.952051370355e-03 0.0 
0.0 0.0 -1.014986374720e-03 
-3.745762426959e-04 -1.208773656876e-05 0.0 
-1.208773656876e-05 4.169816033916e-03 0.0 
0.0 0.0 -7.915105747055e-04 
1.470981817100e-04 1.699633256222e-04 0.0 
1.699633256222e-04 1.922517798804e-03 0.0 
0.0 0.0 -5.119962057136e-04 
-7.251559287553e-04 3.584185138835e-04 0.0 
3.584185138835e-04 3.747261506519e-03 0.0 
0.0 0.0 -5.908395828668e-04 
-9.989176313813e-04 5.279041160422e-05 0.0 
5.279041160422e-05 5.610761613461e-03 0.0 
0.0 0.0 -8.442294783838e-04 
-8.140722277822e-04 1.153536144127e-05 0.0 
1.153536144127e-05 4.902728731460e-03 0.0 
0.0 0.0 -7.121995050294e-04 
-8.606102061483e-04 -1.123280902614e-04 0.0 
-1.123280902614e-04 6.585165240131e-03 0.0 
0.0 0.0 -1.093598669875e-03 
-3.829181500835e-04 3.755711815579e-04 0.0 
3.755711815579e-04 4.064228922124e-03 0.0 
0.0 0.0 -7.486350631497e-04 
-1.089919498544e-03 4.032533245885e-04 0.0 
4.032533245885e-04 7.584210826506e-03 0.0 
0.0 0.0 -1.233571955743e-03 
-1.258849103109e-03 1.203645015164e-04 0.0 
1.203645015164e-04 7.318640773608e-03 0.0 
0.0 0.0 -1.121177773779e-03 
-4.277541990728e-04 -3.591296022275e-04 0.0 
-3.591296022275e-04 4.511429067315e-03 0.0 
0.0 0.0 -8.252461108756e-04 
-1.288851597356e-03 -4.658297080141e-04 0.0 
-4.658297080141e-04 8.043612715449e-03 0.0 
0.0 0.0 -1.241472629463e-03 
3.242839641495e-05 -4.968694073408e-04 0.0 
-4.968694073408e-04 2.366486634827e-03 0.0 
0.0 0.0 -5.682622744621e-04 
-1.077966235092e-03 4.739436140623e-04 0.0 
4.739436140623e-04 7.389804662751e-03 0.0 
0.0 0.0 -1.204482468497e-03 
-7.429375265798e-04 4.078626067565e-04 0.0 
4.078626067565e-04 5.376339153074e-03 0.0 
0.0 0.0 -8.910665706739e-04 
-8.382327257171e-04 6.914183336446e-04 0.0 
6.914183336446e-04 5.885419181804e-03 0.0 
0.0 0.0 -9.848034212814e-04 
-9.867962554531e-04 -3.515709155634e-04 0.0 
-3.515709155634e-04 7.009894236266e-03 0.0 
0.0 0.0 -1.146785027167e-03 
-6.480751664788e-04 -1.064130565160e-03 0.0 
-1.064130565160e-03 3.485571623010e-03 0.0 
0.0 0.0 -5.958228065582e-04 
-9.264979844569e-04 7.226480241173e-04 0.0 
7.226480241173e-04 5.798649245259e-03 0.0 
0.0 0.0 -9.369464185080e-04 
-3.976862535672e-04 -5.140984221878e-04 0.0 
-5.140984221878e-04 4.248707874465e-03 0.0 
0.0 0.0 -7.886172400246e-04 
-9.126908566727e-04 3.597233129020e-04 0.0 
3.597233129020e-04 5.721921232905e-03 0.0 
0.0 0.0 -9.065670216064e-04 
-2.413614743732e-04 9.207248143764e-04 0.0 
9.207248143764e-04 2.576101931259e-03 0.0 
0.0 0.0 -5.268093404353e-04 
-8.396821970539e-04 6.672060837292e-04 0.0 
6.672060837292e-04 6.048287273264e-03 0.0 
0.0 0.0 -1.013229387512e-03 
-3.452329379355e-04 -1.792312499866e-04 0.0 
-1.792312499866e-04 3.927967745038e-03 0.0 
0.0 0.0 -7.548706880268e-04 
-9.599399109740e-04 -2.677314431030e-04 0.0 
-2.677314431030e-04 5.510906117541e-03 0.0 
0.0 0.0 -8.810281692460e-04 
-9.326422123301e-04 7.027170698306e-04 0.0 
7.027170698306e-04 5.663041666324e-03 0.0 
0.0 0.0 -9.091416541300e-04 
1.310354464969e-04 5.651438564875e-04 0.0 
5.651438564875e-04 1.741573510573e-04 0.0 
0.0 0.0 -1.307969132375e-04 
-6.049604556670e-04 5.771719455814e-04 0.0 
5.771719455814e-04 5.135535656328e-03 0.0 
0.0 0.0 -9.082496170556e-04 
-8.264119998562e-05 1.037717303205e-03 0.0 
1.037717303205e-03 8.249845298322e-04 0.0 
0.0 0.0 -3.181471413628e-04 
-3.486990110529e-04 1.618131580726e-05 0.0 
1.618131580726e-05 1.379681923450e-03 0.0 
0.0 0.0 -2.410360834028e-04 
-9.637368636999e-04 -2.534336696837e-04 0.0 
-2.534336696837e-04 5.310722216845e-03 0.0 
0.0 0.0 -8.438072171805e-04 
-1.086820871417e-03 2.926579608564e-04 0.0 
2.926579608564e-04 7.015412211803e-03 0.0 
0.0 0.0 -1.098354823938e-03 
-1.049951667635e-03 4.416530287396e-04 0.0 
4.416530287396e-04 6.131491265693e-03 0.0 
0.0 0.0 -9.387552692590e-04 
-7.056421761476e-04 1.432307568262e-04 0.0 
1.432307568262e-04 3.346065552913e-03 0.0 
0.0 0.0 -5.215302833573e-04 
-1.342322198460e-03 3.183613232645e-04 0.0 
3.183613232645e-04 8.773669276182e-03 0.0 
0.0 0.0 -1.342322198460e-03 
3.836307119602e-05 1.777435835148e-04 0.0 
1.777435835148e-04 5.796280456300e-05 0.0 
0.0 0.0 -4.128251818244e-05 
-7.274210317143e-04 1.629360554579e-04 0.0 
1.629360554579e-04 3.588533030425e-03 0.0 
0.0 0.0 -5.549805679787e-04 
-5.340066039334e-04 -2.072389055199e-04 0.0 
-2.072389055199e-04 4.712236291548e-03 0.0 
0.0 0.0 -8.472740691906e-04 
-9.827474692013e-04 -5.565690633406e-04 0.0 
-5.565690633406e-04 5.178751046310e-03 0.0 
0.0 0.0 -8.042584860449e-04 
-8.272148132873e-04 2.043748305373e-04 0.0 
2.043748305373e-04 4.358943672927e-03 0.0 
0.0 0.0 -6.733236465360e-04 
-1.391682779442e-04 -5.660980208305e-04 0.0 
-5.660980208305e-04 2.708178146588e-03 0.0 
0.0 0.0 -5.908717820549e-04 
-6.655440375533e-04 -6.952663529849e-04 0.0 
-6.952663529849e-04 5.066823485387e-03 0.0 
0.0 0.0 -8.733819075714e-04 
-8.196031050189e-04 3.838546333042e-04 0.0 
3.838546333042e-04 5.685766128825e-03 0.0 
0.0 0.0 -9.266779469803e-04 
-6.990167424859e-04 5.271708541357e-04 0.0 
5.271708541357e-04 5.638282256463e-03 0.0 
0.0 0.0 -9.734188451722e-04 
-1.186630910785e-03 6.460835059358e-04 0.0 
6.460835059358e-04 7.362442267771e-03 0.0 
0.0 0.0 -1.144302277022e-03 
2.969246869216e-04 1.115918954902e-03 0.0 
1.115918954902e-03 3.039667145196e-04 0.0 
0.0 0.0 -2.575248863319e-04 
-9.117889324076e-04 -2.951149434616e-04 0.0 
-2.951149434616e-04 4.877432515646e-03 0.0 
0.0 0.0 -7.784793977761e-04 
-1.012208946591e-03 -1.496092469439e-04 0.0 
-1.496092469439e-04 5.343186025449e-03 0.0 
0.0 0.0 -8.356154970834e-04 
-6.331046465697e-04 -9.049418944168e-04 0.0 
-9.049418944168e-04 2.758073297942e-03 0.0 
0.0 0.0 -4.544023106810e-04 
-8.924169308789e-04 4.058945008041e-04 0.0 
4.058945008041e-04 4.880366770900e-03 0.0 
0.0 0.0 -7.518103749233e-04 
-1.063894881261e-03 9.071629636426e-05 0.0 
9.071629636426e-05 6.191505659791e-03 0.0 
0.0 0.0 -9.362314798257e-04 
-1.205869425098e-03 -2.261798490425e-04 0.0 
-2.261798490425e-04 6.678201842620e-03 0.0 
0.0 0.0 -1.023451880212e-03 
-7.015472354662e-05 -2.565736168466e-05 0.0 
-2.565736168466e-05 9.612203433626e-04 0.0 
0.0 0.0 -1.605242656235e-04 
0.0 0.0 0.0 
0.0 0.0 0.0 
0.0 0.0 0.0 
-5.147384921578e-04 -7.536249502610e-04 0.0 
-7.536249502610e-04 1.966691460963e-03 0.0 
0.0 0.0 -3.233707900025e-04 
-1.027484224102e-03 -4.836123400480e-04 0.0 
-4.836123400480e-04 5.407088060702e-03 0.0 
0.0 0.0 -8.330087554115e-04 
-8.882847245791e-05 -4.537970764089e-04 0.0 
-4.537970764089e-04 2.924964268328e-03 0.0 
0.0 0.0 -6.322020076307e-04 
-9.059460685547e-05 -9.981933794838e-04 0.0 
-9.981933794838e-04 2.441338825064e-03 0.0 
0.0 0.0 -5.605319560360e-04 
1.602068840710e-04 -5.380164516261e-04 0.0 
-5.380164516261e-04 1.784200169895e-03 0.0 
0.0 0.0 -5.041580933422e-04 
-1.016808142495e-03 -1.850132427343e-04 0.0 
-1.850132427343e-04 5.546831112907e-03 0.0 
0.0 0.0 -8.721335634590e-04 
-1.089492890547e-03 5.256596706488e-04 0.0 
5.256596706488e-04 6.464473810732e-03 0.0 
0.0 0.0 -9.956198530692e-04 
-1.055480845035e-03 -8.073487003007e-05 0.0 
-8.073487003007e-05 5.564073531230e-03 0.0 
0.0 0.0 -8.643287579461e-04 
-7.969352206199e-05 1.392070136612e-04 0.0 
1.392070136612e-04 2.839214225501e-03 0.0 
0.0 0.0 -6.348607296063e-04 
-9.652452647080e-04 3.246353242036e-04 0.0 
3.246353242036e-04 6.148089658116e-03 0.0 
0.0 0.0 -9.699423737970e-04 
-9.336187348190e-04 2.571357999357e-04 0.0 
2.571357999357e-04 5.466318221896e-03 0.0 
0.0 0.0 -8.236220363599e-04 
-8.699149514131e-04 5.427467141130e-04 0.0 
5.427467141130e-04 6.422709640429e-03 0.0 
0.0 0.0 -1.076197569190e-03 
-1.067019444508e-03 -4.166446150284e-04 0.0 
-4.166446150284e-04 5.628158977285e-03 0.0 
0.0 0.0 -8.617642947636e-04 
-1.037211549759e-03 -5.241557810677e-04 0.0 
-5.241557810677e-04 5.613837274242e-03 0.0 
0.0 0.0 -8.694825820363e-04 
-6.540642588821e-04 2.339053685670e-04 0.0 
2.339053685670e-04 2.854376740045e-03 0.0 
0.0 0.0 -4.548485160793e-04 
-1.830897456311e-04 -6.409178638984e-04 0.0 
-6.409178638984e-04 3.204685697947e-03 0.0 
0.0 0.0 -6.598952468721e-04 
-1.092100602406e-03 -1.853786207342e-05 0.0 
-1.853786207342e-05 5.772593500168e-03 0.0 
0.0 0.0 -8.930692851043e-04 
-1.055598751707e-03 1.761127934755e-04 0.0 
1.761127934755e-04 6.440216787672e-03 0.0 
0.0 0.0 -9.615701295831e-04 
-1.001453888758e-03 1.848581000640e-04 0.0 
1.848581000640e-04 6.057549413992e-03 0.0 
0.0 0.0 -8.972249362023e-04 
-6.770179440789e-04 2.249366581215e-04 0.0 
2.249366581215e-04 3.121369932688e-03 0.0 
0.0 0.0 -4.879487645214e-04 
-1.064022376908e-03 -1.167841295241e-04 0.0 
-1.167841295241e-04 5.775583557860e-03 0.0 
0.0 0.0 -9.007118478549e-04 
-2.859853618183e-04 -1.273336407491e-03 0.0 
-1.273336407491e-03 2.641008784054e-03 0.0 
0.0 0.0 -5.517684601482e-04 
-1.131468898778e-04 1.392096794452e-03 0.0 
1.392096794452e-03 1.091258670637e-03 0.0 
0.0 0.0 -4.029896332773e-04 
-1.047918758114e-03 7.340593604257e-05 0.0 
7.340593604257e-05 7.456724692606e-03 0.0 
0.0 0.0 -1.202908440308e-03 
-5.627131210403e-04 -6.726340984242e-04 0.0 
-6.726340984242e-04 1.683903901649e-03 0.0 
0.0 0.0 -3.052185142706e-04 
-3.169146226738e-04 -8.080615281722e-04 0.0 
-8.080615281722e-04 2.922160059008e-03 0.0 
0.0 0.0 -5.822209219963e-04 
-5.594905133051e-04 2.180548040984e-04 0.0 
2.180548040984e-04 5.015163126877e-03 0.0 
0.0 0.0 -8.766521650092e-04 
-6.622241155769e-04 4.063560181711e-04 0.0 
4.063560181711e-04 3.270370974807e-03 0.0 
0.0 0.0 -5.239962781855e-04 
-1.100749507766e-03 -3.563808608849e-04 0.0 
-3.563808608849e-04 5.849825024464e-03 0.0 
0.0 0.0 -8.905656347129e-04 
-5.985345031535e-04 -2.223177207573e-04 0.0 
-2.223177207573e-04 2.732572505037e-03 0.0 
0.0 0.0 -4.282508963332e-04 
-9.076266712889e-04 3.184539997902e-05 0.0 
3.184539997902e-05 5.036430824459e-03 0.0 
0.0 0.0 -7.823486082854e-04 
-1.081370140730e-03 -4.558826803401e-04 0.0 
-4.558826803401e-04 5.841011814907e-03 0.0 
0.0 0.0 -8.981647654366e-04 
-4.858836919803e-04 -7.457674947231e-04 0.0 
-7.457674947231e-04 4.297440458521e-03 0.0 
0.0 0.0 -7.800125773855e-04 
-9.348538294518e-04 -6.697112536075e-04 0.0 
-6.697112536075e-04 5.140798604724e-03 0.0 
0.0 0.0 -8.126672281948e-04 
8.703935028516e-05 1.690415104804e-04 0.0 
1.690415104804e-04 1.245018223099e-05 0.0 
0.0 0.0 -4.263837107835e-05 
-1.241448931941e-03 -1.835319642593e-04 0.0 
-1.835319642593e-04 7.812891284508e-03 0.0 
0.0 0.0 -1.152567315725e-03 
-3.081364130084e-04 -9.550871966768e-04 0.0 
-9.550871966768e-04 3.298658843063e-03 0.0 
0.0 0.0 -6.514572604261e-04 
-9.718772757445e-04 1.979502564842e-04 0.0 
1.979502564842e-04 7.009305473662e-03 0.0 
0.0 0.0 -1.154039482800e-03 
-8.056057162638e-04 2.987492427290e-04 0.0 
2.987492427290e-04 5.959106481257e-03 0.0 
0.0 0.0 -9.821191134873e-04 
-1.105426206004e-03 -5.038601752530e-05 0.0 
-5.038601752530e-05 5.994681172748e-03 0.0 
0.0 0.0 -9.293965016571e-04 
-1.119004413752e-03 -3.820015781438e-04 0.0 
-3.820015781438e-04 6.058753668650e-03 0.0 
0.0 0.0 -9.268654845074e-04 
-3.123142997184e-05 -1.167065523526e-04 0.0 
-1.167065523526e-04 2.573595127563e-03 0.0 
0.0 0.0 -5.989583036242e-04 
-3.157644098559e-04 -6.245110788433e-04 0.0 
-6.245110788433e-04 1.110181514534e-03 0.0 
0.0 0.0 -2.862240160649e-04 
8.762727446402e-05 1.506685699699e-04 0.0 
1.506685699699e-04 5.297682451362e-06 0.0 
0.0 0.0 -3.982498153517e-05 
-1.139236581336e-03 9.449893671701e-06 0.0 
9.449893671701e-06 6.206332100994e-03 0.0 
0.0 0.0 -9.583065114985e-04 
-9.895576341864e-04 5.422021304530e-05 0.0 
5.422021304530e-05 6.999392542925e-03 0.0 
0.0 0.0 -1.148056181429e-03 
-4.775145294270e-04 -1.288589848279e-03 0.0 
-1.288589848279e-03 2.885723426917e-03 0.0 
0.0 0.0 -5.426247857783e-04 
-9.796725008080e-04 7.000708170444e-04 0.0 
7.000708170444e-04 6.228639819323e-03 0.0 
0.0 0.0 -1.000702849114e-03 
-6.472337897981e-04 7.799664963271e-04 0.0 
7.799664963271e-04 2.970737159620e-03 0.0 
0.0 0.0 -5.002094317253e-04 
-1.024167741003e-03 2.983156923563e-04 0.0 
2.983156923563e-04 6.439902929080e-03 0.0 
0.0 0.0 -1.005614027492e-03 
-1.230125729383e-03 -1.791987086205e-04 0.0 
-1.791987086205e-04 8.178224384408e-03 0.0 
0.0 0.0 -1.266534580134e-03 
0.0 0.0 0.0 
0.0 0.0 0.0 
0.0 0.0 0.0 
-1.341620833825e-03 -1.240232465015e-06 0.0 
-1.240232465015e-06 8.838044206910e-03 0.0 
0.0 0.0 -1.341620833825e-03 
-1.340051318819e-03 -7.855236063614e-05 0.0 
-7.855236063614e-05 8.625114056382e-03 0.0 
0.0 0.0 -1.340051318819e-03 
-8.980163173550e-04 -1.960905146637e-04 0.0 
-1.960905146637e-04 5.236321733421e-03 0.0 
0.0 0.0 -7.955197795907e-04 
-4.661383092836e-04 -1.098309243055e-03 0.0 
-1.098309243055e-03 3.461471777819e-03 0.0 
0.0 0.0 -6.428246066218e-04 
-8.082931774475e-04 3.508972968720e-04 0.0 
3.508972968720e-04 5.820381814417e-03 0.0 
0.0 0.0 -9.543595451431e-04 
-1.549769366622e-05 -2.109424872969e-04 0.0 
-2.109424872969e-04 2.675607327827e-03 0.0 
0.0 0.0 -6.041149214933e-04 
-2.283359273976e-04 -2.821495717667e-04 0.0 
-2.821495717667e-04 1.216165341166e-03 0.0 
0.0 0.0 -2.095884814006e-04 
5.244130076390e-06 5.299579131201e-04 0.0 
5.299579131201e-04 3.292147719476e-04 0.0 
0.0 0.0 -1.433395294388e-04 
-1.275023357737e-03 -5.993191991654e-05 0.0 
-5.993191991654e-05 8.163058981243e-03 0.0 
0.0 0.0 -1.209499414335e-03 
-1.082712059579e-03 1.205245821570e-04 0.0 
1.205245821570e-04 6.373245931173e-03 0.0 
0.0 0.0 -9.648175333861e-04 
-9.046820331639e-04 -1.080196974861e-06 0.0 
-1.080196974861e-06 4.867817697865e-03 0.0 
0.0 0.0 -7.224789237173e-04 
-1.279272833011e-03 4.773478504551e-04 0.0 
4.773478504551e-04 8.632757308161e-03 0.0 
0.0 0.0 -1.323661129950e-03 
-4.995343539176e-04 -2.062360200378e-04 0.0 
-2.062360200378e-04 2.288215934898e-03 0.0 
0.0 0.0 -3.615704333793e-04 
-1.305160647697e-03 4.322097678811e-04 0.0 
4.322097678811e-04 8.590809380930e-03 0.0 
0.0 0.0 -1.324908485340e-03 
-1.072336849723e-03 4.894356542548e-04 0.0 
4.894356542548e-04 6.310526310337e-03 0.0 
0.0 0.0 -9.670422101491e-04 
-6.106684104583e-04 -1.077307355153e-03 0.0 
-1.077307355153e-03 3.630162810958e-03 0.0 
0.0 0.0 -6.336394413500e-04 
-7.688592567693e-04 7.436159055388e-04 0.0 
7.436159055388e-04 5.436722305107e-03 0.0 
0.0 0.0 -9.212972352143e-04 
-4.366727405360e-04 -7.825680509829e-04 0.0 
-7.825680509829e-04 3.244703639757e-03 0.0 
0.0 0.0 -6.094834619596e-04 
-3.265911223950e-04 1.405912834574e-03 0.0 
1.405912834574e-03 1.452640584362e-03 0.0 
0.0 0.0 -3.649795199019e-04 
-4.990879049153e-04 -8.274194353689e-04 0.0 
-8.274194353689e-04 3.123468955199e-03 0.0 
0.0 0.0 -5.728018649490e-04 
-1.102176339442e-03 5.667634332671e-04 0.0 
5.667634332671e-04 6.620528006741e-03 0.0 
0.0 0.0 -1.023749757194e-03 
-1.274902778913e-03 -3.210380531188e-04 0.0 
-3.210380531188e-04 7.572738005346e-03 0.0 
0.0 0.0 -1.155390781228e-03 
-2.640863970045e-04 -6.506791704026e-04 0.0 
-6.506791704026e-04 3.044637194059e-03 0.0 
0.0 0.0 -6.181853003094e-04 
-1.037039327620e-03 6.760843031957e-04 0.0 
6.760843031957e-04 6.523249431128e-03 0.0 
0.0 0.0 -1.036271578259e-03 
0.0 0.0 0.0 
0.0 0.0 0.0 
0.0 0.0 0.0 
-1.285700230911e-04 -3.245101064007e-04 0.0 
-3.245101064007e-04 2.885767451406e-03 0.0 
0.0 0.0 -6.266282162577e-04 
-1.167206438241e-03 1.283137067331e-04 0.0 
1.283137067331e-04 7.080432372571e-03 0.0 
0.0 0.0 -1.066385360782e-03 
-6.379492421497e-04 -6.916022810517e-04 0.0 
-6.916022810517e-04 3.261870100237e-03 0.0 
0.0 0.0 -5.616069800515e-04 
-5.397721604140e-04 -1.270380268010e-03 0.0 
-1.270380268010e-03 2.784654802048e-03 0.0 
0.0 0.0 -5.052880831394e-04 
-7.290893412698e-04 3.613081104682e-04 0.0 
3.613081104682e-04 5.503308908361e-03 0.0 
0.0 0.0 -9.187611816440e-04 
1.265644672670e-04 -1.340381834312e-03 0.0 
-1.340381834312e-03 6.478378418571e-04 0.0 
0.0 0.0 -3.318867039103e-04 
-6.343393029067e-04 4.127806247347e-04 0.0 
4.127806247347e-04 2.352701282119e-03 0.0 
0.0 0.0 -3.867203691650e-04 
-5.980790938116e-04 3.108972139281e-04 0.0 
3.108972139281e-04 2.666414110552e-03 0.0 
0.0 0.0 -4.195921675762e-04 
-6.113097074720e-04 -7.505403763561e-04 0.0 
-7.505403763561e-04 2.857444945758e-03 0.0 
0.0 0.0 -4.973376392308e-04 
-5.765164058635e-04 -6.636526940974e-04 0.0 
-6.636526940974e-04 4.795423287764e-03 0.0 
0.0 0.0 -8.444178005646e-04 
-5.181015510014e-04 7.402765764373e-04 0.0 
7.402765764373e-04 4.473477357902e-03 0.0 
0.0 0.0 -8.147327860212e-04 
-1.021689517365e-03 3.040232263138e-04 0.0 
3.040232263138e-04 6.577677469830e-03 0.0 
0.0 0.0 -1.033897369924e-03 
-1.251489828841e-03 5.632464710330e-04 0.0 
5.632464710330e-04 7.903464121438e-03 0.0 
0.0 0.0 -1.224260864640e-03 
-6.076375545199e-04 4.683737268985e-04 0.0 
4.683737268985e-04 2.798103792701e-03 0.0 
0.0 0.0 -4.570814260163e-04 
-1.106194698900e-03 -2.340999049272e-04 0.0 
-2.340999049272e-04 6.875726326228e-03 0.0 
0.0 0.0 -1.028620860735e-03 
-1.222609548103e-03 6.000551956434e-04 0.0 
6.000551956434e-04 7.771092725331e-03 0.0 
0.0 0.0 -1.228414553209e-03 
4.319177178305e-05 1.565747196534e-04 0.0 
1.565747196534e-04 2.280131923741e-03 0.0 
0.0 0.0 -5.707601703556e-04 
-5.280303941059e-05 1.110289152965e-03 0.0 
1.110289152965e-03 8.099165551708e-04 0.0 
0.0 0.0 -3.244772210401e-04 
-6.896815476543e-04 4.595022377507e-04 0.0 
4.595022377507e-04 3.325524470954e-03 0.0 
0.0 0.0 -5.330167430730e-04 
-5.818026759286e-04 -7.746098819789e-04 0.0 
-7.746098819789e-04 4.581482398683e-03 0.0 
0.0 0.0 -8.082977034869e-04 
-1.084938189841e-03 6.476212573913e-04 0.0 
6.476212573913e-04 6.662130643566e-03 0.0 
0.0 0.0 -1.043024347135e-03 
-5.304647567233e-04 -3.288241115645e-04 0.0 
-3.288241115645e-04 4.511932891327e-03 0.0 
0.0 0.0 -8.108276944599e-04 
3.467916788336e-04 9.922084021829e-04 0.0 
9.922084021829e-04 1.937891863132e-04 0.0 
0.0 0.0 -2.316775136343e-04 
-6.676153210682e-04 -5.990024928293e-04 0.0 
-5.990024928293e-04 5.284713461811e-03 0.0 
0.0 0.0 -9.096068616062e-04 
-5.138764303910e-04 1.344859878066e-03 0.0 
1.344859878066e-03 1.832201827426e-03 0.0 
0.0 0.0 -3.508512830963e-04 
-4.693960867252e-04 2.899164946168e-04 0.0 
2.899164946168e-04 4.538651858574e-03 0.0 
0.0 0.0 -8.123573650817e-04 
-6.214317139948e-04 -2.381023826960e-04 0.0 
-2.381023826960e-04 5.000123203670e-03 0.0 
0.0 0.0 -8.756097305517e-04 
-7.629475729046e-04 6.967977887081e-04 0.0 
6.967977887081e-04 5.582110193462e-03 0.0 
0.0 0.0 -9.491391837787e-04 
-1.021932421091e-03 -1.375086625343e-04 0.0 
-1.375086625343e-04 6.258245616270e-03 0.0 
0.0 0.0 -9.494079867578e-04 
-6.355506189440e-04 -1.022411834394e-03 0.0 
-1.022411834394e-03 2.931807144820e-03 0.0 
0.0 0.0 -4.933620968966e-04 
6.896550266056e-05 1.225367383845e-03 0.0 
1.225367383845e-03 6.646895526308e-04 0.0 
0.0 0.0 -3.144235951249e-04 
-7.142483767440e-04 -1.644248298722e-04 0.0 
-1.644248298722e-04 5.495494976155e-03 0.0 
0.0 0.0 -9.415329344942e-04 
-5.361770105980e-04 1.152355576541e-03 0.0 
1.152355576541e-03 2.110820043480e-03 0.0 
0.0 0.0 -3.857152600925e-04 
0.0 0.0 0.0 
0.0 0.0 0.0 
0.0 0.0 0.0 
-1.255338616422e-03 1.860461172355e-04 0.0 
1.860461172355e-04 8.124850663151e-03 0.0 
0.0 0.0 -1.223389224544e-03 
-1.207848204117e-03 2.029693107177e-04 0.0 
2.029693107177e-04 7.752368092309e-03 0.0 
0.0 0.0 -1.157435638217e-03 
-8.808053059829e-05 -1.336699866714e-04 0.0 
-1.336699866714e-04 3.185750404010e-04 0.0 
0.0 0.0 -9.878336134402e-05 
-7.608266853487e-04 -5.406000089435e-04 0.0 
-5.406000089435e-04 5.776368912984e-03 0.0 
0.0 0.0 -9.758309632658e-04 
-5.833464932258e-04 -8.365325477788e-04 0.0 
-8.365325477788e-04 2.366888082298e-03 0.0 
0.0 0.0 -3.887237773309e-04 
-6.380037561636e-04 -4.574933655184e-04 0.0 
-4.574933655184e-04 2.507620922393e-03 0.0 
0.0 0.0 -4.195855280820e-04 
-1.094549564148e-03 6.711957006790e-04 0.0 
6.711957006790e-04 6.969957179569e-03 0.0 
0.0 0.0 -1.100737838324e-03 
-7.238835271569e-04 2.949238833770e-04 0.0 
2.949238833770e-04 5.642634368299e-03 0.0 
0.0 0.0 -9.467522836136e-04 
-1.039311302789e-03 6.802059572137e-04 0.0 
6.802059572137e-04 6.671189751840e-03 0.0 
0.0 0.0 -1.064854740548e-03 
-1.894001647684e-04 -8.697409082608e-04 0.0 
-8.697409082608e-04 2.974808611893e-03 0.0 
0.0 0.0 -6.238888496032e-04 
-8.115909482746e-04 3.390698231069e-05 0.0 
3.390698231069e-05 4.912143948728e-03 0.0 
0.0 0.0 -7.105917616147e-04 
-1.280305692054e-03 -3.247592506175e-04 0.0 
-3.247592506175e-04 7.975043847607e-03 0.0 
0.0 0.0 -1.281538364137e-03 
-5.868717402319e-04 -4.057488537009e-04 0.0 
-4.057488537009e-04 2.082970857728e-03 0.0 
0.0 0.0 -3.541816848729e-04 
-9.117200011925e-04 -1.598675323878e-04 0.0 
-1.598675323878e-04 6.764763677517e-03 0.0 
0.0 0.0 -1.121221582973e-03 
-5.590520355925e-04 3.309762878068e-04 0.0 
3.309762878068e-04 4.865889443216e-03 0.0 
0.0 0.0 -8.477100451819e-04 
-3.408380194667e-04 8.413428919704e-05 0.0 
8.413428919704e-05 1.600517951916e-03 0.0 
0.0 0.0 -2.892354545592e-04 
-1.075499676593e-03 6.132508001275e-04 0.0 
6.132508001275e-04 6.500844839128e-03 0.0 
0.0 0.0 -1.015166614560e-03 
-1.491725305372e-04 -7.955548992598e-05 0.0 
-7.955548992598e-05 3.115280814632e-03 0.0 
0.0 0.0 -6.628028861993e-04 
-1.315718485168e-04 -5.908276789213e-04 0.0 
-5.908276789213e-04 6.660589264853e-04 0.0 
0.0 0.0 -2.290658905579e-04 
-1.579860261374e-05 -4.063804822263e-04 0.0 
-4.063804822263e-04 2.360331977056e-03 0.0 
0.0 0.0 -5.632129589051e-04 
-1.187081976134e-03 1.736903763000e-04 0.0 
1.736903763000e-04 6.532498131095e-03 0.0 
0.0 0.0 -9.915417172310e-04 
-1.109173126604e-03 2.020871397918e-04 0.0 
2.020871397918e-04 6.702082758585e-03 0.0 
0.0 0.0 -1.020980360542e-03 
-4.812617878824e-04 -1.026396368797e-03 0.0 
-1.026396368797e-03 1.558368541222e-03 0.0 
0.0 0.0 -2.729600395538e-04 
-1.020281891755e-03 -1.851201749546e-04 0.0 
-1.851201749546e-04 5.386783464776e-03 0.0 
0.0 0.0 -8.076288038732e-04 
-1.089791995769e-03 6.678096790371e-04 0.0 
6.678096790371e-04 6.824575659747e-03 0.0 
0.0 0.0 -1.071782534217e-03 
-9.193547229402e-04 1.602334611530e-04 0.0 
1.602334611530e-04 6.776867929495e-03 0.0 
0.0 0.0 -1.109893377180e-03 
-5.608358153244e-04 -8.240965468318e-04 0.0 
-8.240965468318e-04 2.993251789866e-03 0.0 
0.0 0.0 -5.351738145117e-04 
-6.136579298705e-04 1.191680586993e-04 0.0 
1.191680586993e-04 2.664357051373e-03 0.0 
0.0 0.0 -4.333934152438e-04 
-5.989414354875e-04 6.742429676008e-04 0.0 
6.742429676008e-04 4.956197001293e-03 0.0 
0.0 0.0 -8.786267582723e-04 
-1.011039081455e-03 -2.136688597495e-04 0.0 
-2.136688597495e-04 6.164847278727e-03 0.0 
0.0 0.0 -9.278975173457e-04 
-2.430528072629e-05 -7.015609586409e-04 0.0 
-7.015609586409e-04 4.939718425864e-04 0.0 
0.0 0.0 -2.012856693686e-04 
-1.258632814515e-03 5.164131841311e-04 0.0 
5.164131841311e-04 8.325970250847e-03 0.0 
0.0 0.0 -1.269179263065e-03 
-1.319279019144e-03 4.296204971761e-04 0.0 
4.296204971761e-04 8.281943168671e-03 0.0 
0.0 0.0 -1.281197857596e-03 
-9.262453737932e-04 -1.856372937015e-04 0.0 
-1.856372937015e-04 5.467657039050e-03 0.0 
0.0 0.0 -8.387747867703e-04 
-1.294839307706e-03 7.871963389556e-06 0.0 
7.871963389556e-06 8.477109428305e-03 0.0 
0.0 0.0 -1.255037608383e-03 
-1.299621148244e-03 5.434080431767e-04 0.0 
5.434080431767e-04 8.249757004039e-03 0.0 
0.0 0.0 -1.285499913836e-03 
-2.377664936208e-04 -4.540001535470e-04 0.0 
-4.540001535470e-04 3.213325829595e-03 0.0 
0.0 0.0 -6.542748834104e-04 
-3.508305791302e-04 -1.119634461832e-03 0.0 
-1.119634461832e-03 3.128022697751e-03 0.0 
0.0 0.0 -6.153450468602e-04 
-1.170236808513e-03 2.917458807147e-05 0.0 
2.917458807147e-05 8.079333353292e-03 0.0 
0.0 0.0 -1.265535665854e-03 
0.0 0.0 0.0 
0.0 0.0 0.0 
0.0 0.0 0.0 
-5.539334103609e-04 1.733294296074e-04 0.0 
1.733294296074e-04 2.467698966066e-03 0.0 
0.0 0.0 -3.941707820484e-04 
-1.082833857300e-03 1.553689403231e-04 0.0 
1.553689403231e-04 5.370486721227e-03 0.0 
0.0 0.0 -8.329475646481e-04 
-6.135075657535e-04 -1.124689673499e-03 0.0 
-1.124689673499e-03 3.074168344220e-03 0.0 
0.0 0.0 -5.313546330462e-04 
-1.846585695015e-04 -7.875180783751e-04 0.0 
-7.875180783751e-04 2.568069228426e-03 0.0 
0.0 0.0 -5.546931404481e-04 
-5.968432958156e-04 5.557088425757e-04 0.0 
5.557088425757e-04 1.865682370622e-03 0.0 
0.0 0.0 -3.196518454468e-04 
-5.899426228830e-04 4.711635003752e-04 0.0 
4.711635003752e-04 2.207717411959e-03 0.0 
0.0 0.0 -3.528063275151e-04 
-9.460265979009e-04 -8.557345978762e-05 0.0 
-8.557345978762e-05 5.600872725538e-03 0.0 
0.0 0.0 -8.290026594306e-04 
-7.188891017228e-05 -7.212145557604e-04 0.0 
-7.212145557604e-04 2.661537409605e-03 0.0 
0.0 0.0 -5.962921515785e-04 
-6.690915239770e-04 -9.469087844433e-06 0.0 
-9.469087844433e-06 2.860475934858e-03 0.0 
0.0 0.0 -4.583473518421e-04 
-9.261983765854e-04 6.205491161324e-04 0.0 
6.205491161324e-04 6.527766796007e-03 0.0 
0.0 0.0 -1.077832113627e-03 
-1.322048612324e-03 -3.324926188937e-04 0.0 
-3.324926188937e-04 8.713395146875e-03 0.0 
0.0 0.0 -1.324978758543e-03 
-1.338720177887e-03 -4.085669882089e-04 0.0 
-4.085669882089e-04 8.670321911685e-03 0.0 
0.0 0.0 -1.320624918399e-03 
-3.849795069765e-04 -6.739500110508e-04 0.0 
-6.739500110508e-04 3.380834248484e-03 0.0 
0.0 0.0 -6.457427040837e-04 
-9.004898588244e-04 1.911488629734e-04 0.0 
1.911488629734e-04 5.018763151201e-03 0.0 
0.0 0.0 -7.877541558771e-04 
0.0 0.0 0.0 
0.0 0.0 0.0 
0.0 0.0 0.0 
-4.359472798887e-04 6.731301800727e-04 0.0 
6.731301800727e-04 1.407239997486e-03 0.0 
0.0 0.0 -3.106513839132e-04 
2.755733972267e-04 -1.401203893809e-03 0.0 
-1.401203893809e-03 4.875020493235e-04 0.0 
0.0 0.0 -3.270323342358e-04 
-5.716509711487e-04 6.241427470327e-04 0.0 
6.241427470327e-04 1.685665452150e-03 0.0 
0.0 0.0 -2.953478464511e-04 
-6.435501651802e-04 2.617971966709e-04 0.0 
2.617971966709e-04 5.324938194352e-03 0.0 
0.0 0.0 -9.116044729693e-04 
-3.892042169670e-04 -9.156083068677e-04 0.0 
-9.156083068677e-04 2.815259890772e-03 0.0 
0.0 0.0 -5.459662534218e-04 
-2.243152923797e-04 -1.093841073510e-03 0.0 
-1.093841073510e-03 2.791137140625e-03 0.0 
0.0 0.0 -5.879858557453e-04 
2.757241657395e-04 -4.810032012259e-04 0.0 
-4.810032012259e-04 1.809007699405e-05 0.0 
0.0 0.0 -1.259203897429e-04 
-1.236651515782e-03 5.783317831820e-05 0.0 
5.783317831820e-05 7.720546241133e-03 0.0 
0.0 0.0 -1.176327079312e-03 
-4.101458141136e-04 -1.240391896891e-03 0.0 
-1.240391896891e-03 2.995120791313e-03 0.0 
0.0 0.0 -5.792774345575e-04 
-1.250725797448e-03 2.916941522596e-04 0.0 
2.916941522596e-04 8.087181627586e-03 0.0 
0.0 0.0 -1.212957849656e-03 
-1.169197980018e-03 -1.036807665068e-04 0.0 
-1.036807665068e-04 7.436974066249e-03 0.0 
0.0 0.0 -1.117460450001e-03 
-1.345176874521e-03 9.425392127595e-05 0.0 
9.425392127595e-05 9.101263988686e-03 0.0 
0.0 0.0 -1.319418651152e-03 
-1.362446196829e-03 -6.566602865704e-05 0.0 
-6.566602865704e-05 8.851718670119e-03 0.0 
0.0 0.0 -1.324849633189e-03 
-9.396876737499e-04 1.580696553299e-04 0.0 
1.580696553299e-04 5.609093298548e-03 0.0 
0.0 0.0 -8.315138651140e-04 
-5.177493296675e-04 -1.164892507562e-03 0.0 
-1.164892507562e-03 3.321630420665e-03 0.0 
0.0 0.0 -6.063493599946e-04 
-5.551169256275e-04 5.845973941815e-04 0.0 
5.845973941815e-04 2.336169535734e-03 0.0 
0.0 0.0 -3.884917441798e-04 
-5.432002518243e-04 -7.156839301842e-04 0.0 
-7.156839301842e-04 3.555258553905e-03 0.0 
0.0 0.0 -6.367902913543e-04 
-1.343328350294e-03 -3.038078432126e-04 0.0 
-3.038078432126e-04 8.521823212692e-03 0.0 
0.0 0.0 -1.343328350294e-03 
-1.737665181201e-04 6.795203959292e-04 0.0 
6.795203959292e-04 8.236163112488e-04 0.0 
0.0 0.0 -2.785070541980e-04 
-2.927518060600e-04 7.425303816206e-04 0.0 
7.425303816206e-04 1.136932491594e-03 0.0 
0.0 0.0 -3.329621070679e-04 
-9.737974110450e-04 -6.386389399083e-05 0.0 
-6.386389399083e-05 7.060307194164e-03 0.0 
0.0 0.0 -1.156027955174e-03 
-8.805235058694e-04 6.847913926848e-05 0.0 
6.847913926848e-05 5.301659598337e-03 0.0 
0.0 0.0 -7.715229432315e-04 
-1.258879221168e-03 2.678324544629e-04 0.0 
2.678324544629e-04 8.150871359494e-03 0.0 
0.0 0.0 -1.219279742240e-03 
-1.080906081071e-03 2.827660258438e-04 0.0 
2.827660258438e-04 6.867060617251e-03 0.0 
0.0 0.0 -1.069611963270e-03 
-1.039924564934e-03 5.350617449269e-04 0.0 
5.350617449269e-04 7.190727662860e-03 0.0 
0.0 0.0 -1.175036385391e-03 
-1.173553033698e-03 2.219944962555e-04 0.0 
2.219944962555e-04 7.297927893888e-03 0.0 
0.0 0.0 -1.113576918908e-03 
-9.402009665324e-04 2.044311077690e-04 0.0 
2.044311077690e-04 5.536177417769e-03 0.0 
0.0 0.0 -8.542750875040e-04 
-5.858259911149e-04 -1.171742995146e-03 0.0 
-1.171742995146e-03 2.676462786012e-03 0.0 
0.0 0.0 -4.674384380614e-04 
-5.422750806607e-04 -8.975033256362e-04 0.0 
-8.975033256362e-04 2.600446559473e-03 0.0 
0.0 0.0 -4.715697005044e-04 
-1.061085808578e-03 2.019693127978e-04 0.0 
2.019693127978e-04 6.591258911724e-03 0.0 
0.0 0.0 -9.963059934037e-04 
-9.926320276344e-04 1.396335034036e-04 0.0 
1.396335034036e-04 7.047433757094e-03 0.0 
0.0 0.0 -1.142506377625e-03 
-8.640826483478e-04 1.602683523403e-04 0.0 
1.602683523403e-04 4.592644147598e-03 0.0 
0.0 0.0 -7.345222264051e-04 
-8.659076808803e-04 1.600457319012e-05 0.0 
1.600457319012e-05 5.296211653200e-03 0.0 
0.0 0.0 -7.676068998053e-04 
-9.151607957151e-04 -5.089667725815e-05 0.0 
-5.089667725815e-05 5.629549572959e-03 0.0 
0.0 0.0 -8.242303029217e-04 
-9.674728246486e-04 -2.123760912739e-04 0.0 
-2.123760912739e-04 5.717004610309e-03 0.0 
0.0 0.0 -8.467401457521e-04 
3.499479768906e-04 -3.973954247046e-04 0.0 
-3.973954247046e-04 -4.658979670494e-05 0.0 
0.0 0.0 -1.300106486510e-04 
-5.930015542773e-04 -7.839114719970e-04 0.0 
-7.839114719970e-04 2.465147057737e-03 0.0 
0.0 0.0 -4.335179088089e-04 
-1.317738620986e-03 2.278366908206e-04 0.0 
2.278366908206e-04 8.695066743648e-03 0.0 
0.0 0.0 -1.269310366786e-03 
-1.008653577782e-03 -1.784318379198e-04 0.0 
-1.784318379198e-04 6.114212471042e-03 0.0 
0.0 0.0 -9.150577043801e-04 
-1.235075525051e-03 3.722470533434e-04 0.0 
3.722470533434e-04 8.051470811527e-03 0.0 
0.0 0.0 -1.295322057178e-03 
-1.262105533747e-03 2.927877395666e-04 0.0 
2.927877395666e-04 8.092325804024e-03 0.0 
0.0 0.0 -1.215577547940e-03 
-1.074267791218e-03 2.611694470269e-04 0.0 
2.611694470269e-04 6.569995446378e-03 0.0 
0.0 0.0 -1.012565562176e-03 
-1.287214307820e-03 9.354055678567e-05 0.0 
9.354055678567e-05 8.149418825250e-03 0.0 
0.0 0.0 -1.214907066889e-03 
-8.465721316982e-04 -1.105505135888e-04 0.0 
-1.105505135888e-04 3.950044235392e-03 0.0 
0.0 0.0 -6.304496659280e-04 
-8.228220456719e-04 -1.151102242294e-04 0.0 
-1.151102242294e-04 3.762441621980e-03 0.0 
0.0 0.0 -5.666856080635e-04 
-1.213791714024e-03 -1.499272758312e-04 0.0 
-1.499272758312e-04 7.648587280659e-03 0.0 
0.0 0.0 -1.226851238141e-03 
0.0 0.0 0.0 
0.0 0.0 0.0 
0.0 0.0 0.0 
-5.508530862849e-04 -1.035100482519e-04 0.0 
-1.035100482519e-04 2.701800587875e-03 0.0 
0.0 0.0 -4.071640756073e-04 
-1.342405754833e-03 4.276126013738e-04 0.0 
4.276126013738e-04 8.356626582993e-03 0.0 
0.0 0.0 -1.342405754833e-03 
-2.369285988354e-04 -1.770299306038e-04 0.0 
-1.770299306038e-04 1.161644229230e-03 0.0 
0.0 0.0 -2.265802816212e-04 
-8.772316900263e-04 3.022985570029e-05 0.0 
3.022985570029e-05 5.030285682320e-03 0.0 
0.0 0.0 -7.870118106326e-04 
-1.087488399424e-03 -9.544139039346e-05 0.0 
-9.544139039346e-05 7.678102904648e-03 0.0 
0.0 0.0 -1.213461936786e-03 
-2.217204533164e-04 -1.125363679953e-04 0.0 
-1.125363679953e-04 8.293133150009e-04 0.0 
0.0 0.0 -1.562362318669e-04 
1.575931452750e-04 -1.091415967636e-04 0.0 
-1.091415967636e-04 4.514811203493e-04 0.0 
0.0 0.0 -1.320567747312e-04 
-1.342371808075e-03 1.025686952786e-04 0.0 
1.025686952786e-04 9.039344740884e-03 0.0 
0.0 0.0 -1.324389858384e-03 
-8.327656305072e-04 1.141712868856e-04 0.0 
1.141712868856e-04 4.641243707897e-03 0.0 
0.0 0.0 -7.294542769151e-04 
-1.288909957265e-03 4.016661537540e-04 0.0 
4.016661537540e-04 8.513544320093e-03 0.0 
0.0 0.0 -1.261418349269e-03 
-1.134288891980e-03 5.741233190870e-05 0.0 
5.741233190870e-05 7.407101021319e-03 0.0 
0.0 0.0 -1.231858344535e-03 
-8.347679035328e-04 -3.570531223968e-05 0.0 
-3.570531223968e-05 4.629434413509e-03 0.0 
0.0 0.0 -7.289279708929e-04 
0.0 0.0 0.0 
0.0 0.0 0.0 
0.0 0.0 0.0 
-1.305379233758e-03 -6.071779487898e-05 0.0 
-6.071779487898e-05 8.461113597457e-03 0.0 
0.0 0.0 -1.284140717546e-03 
-3.100289480378e-04 -3.270232557407e-04 0.0 
-3.270232557407e-04 1.355870936008e-03 0.0 
0.0 0.0 -2.433545560381e-04 
-1.282233343865e-03 2.781824875359e-04 0.0 
2.781824875359e-04 8.180219452641e-03 0.0 
0.0 0.0 -1.232184317627e-03 
-1.343095105526e-03 -2.432827260553e-04 0.0 
-2.432827260553e-04 8.545412507579e-03 0.0 
0.0 0.0 -1.343095105526e-03 
-1.292199045367e-03 2.524866178233e-04 0.0 
2.524866178233e-04 8.014541847179e-03 0.0 
0.0 0.0 -1.225700354592e-03 
4.686342162084e-04 -7.265370554805e-04 0.0 
-7.265370554805e-04 5.162950173447e-06 0.0 
0.0 0.0 -2.030559284494e-04 
-9.540260339352e-04 1.631930893359e-04 0.0 
1.631930893359e-04 5.653552826698e-03 0.0 
0.0 0.0 -8.279144014868e-04 
-8.950557039055e-04 -2.748800359507e-04 0.0 
-2.748800359507e-04 4.199615522516e-03 0.0 
0.0 0.0 -6.271989868224e-04 
-8.983235361331e-04 1.933150702715e-04 0.0 
1.933150702715e-04 6.546966492063e-03 0.0 
0.0 0.0 -1.077599360682e-03 
-1.273669225217e-03 1.720409005563e-04 0.0 
1.720409005563e-04 8.518730660981e-03 0.0 
0.0 0.0 -1.326997735404e-03 
-1.142899871982e-03 1.477724546960e-04 0.0 
1.477724546960e-04 7.166026161736e-03 0.0 
0.0 0.0 -1.061614915164e-03 
-1.285004601792e-03 2.929428446180e-04 0.0 
2.929428446180e-04 8.490810498827e-03 0.0 
0.0 0.0 -1.325870641008e-03 
0.0 0.0 0.0 
0.0 0.0 0.0 
0.0 0.0 0.0 
-1.297780734717e-03 -4.166830862430e-04 0.0 
-4.166830862430e-04 8.366714279713e-03 0.0 
0.0 0.0 -1.277656510522e-03 
2.368160629241e-04 -1.409681499125e-03 0.0 
-1.409681499125e-03 7.013780298968e-04 0.0 
0.0 0.0 -3.431348957073e-04 
-2.589194545670e-04 3.821483992917e-05 0.0 
3.821483992917e-05 1.124631262589e-03 0.0 
0.0 0.0 -2.298118214877e-04 
-1.194197405020e-03 -2.475227437211e-04 0.0 
-2.475227437211e-04 8.105636908586e-03 0.0 
0.0 0.0 -1.270335377537e-03 
-1.315524425911e-03 2.690035540339e-04 0.0 
2.690035540339e-04 8.643806800304e-03 0.0 
0.0 0.0 -1.270603359501e-03 
-1.320702306464e-03 4.960564232440e-05 0.0 
4.960564232440e-05 8.625092567998e-03 0.0 
0.0 0.0 -1.289850838753e-03 
-8.753308640926e-04 2.257063470840e-04 0.0 
2.257063470840e-04 5.095730312348e-03 0.0 
0.0 0.0 -7.762633204682e-04 
-9.835570351374e-04 3.967893708127e-04 0.0 
3.967893708127e-04 5.483942639045e-03 0.0 
0.0 0.0 -8.489529362435e-04 
-3.868195665134e-04 1.249245404028e-03 0.0 
1.249245404028e-03 1.493087960549e-03 0.0 
0.0 0.0 -3.390228113434e-04 
-1.290611125717e-03 4.069284773612e-04 0.0 
4.069284773612e-04 8.488337706707e-03 0.0 
0.0 0.0 -1.273041473476e-03 
-7.431920671866e-04 3.360733235591e-05 0.0 
3.360733235591e-05 3.408921231342e-03 0.0 
0.0 0.0 -5.357483711987e-04 
2.011032744506e-04 7.720499985605e-04 0.0 
7.720499985605e-04 2.146802318038e-04 0.0 
0.0 0.0 -1.781929312519e-04 
-9.370458151346e-04 5.508245939114e-04 0.0 
5.508245939114e-04 6.747683680752e-03 0.0 
0.0 0.0 -1.110141529071e-03 
-8.032989009541e-04 -1.045980115988e-05 0.0 
-1.045980115988e-05 4.870464455063e-03 0.0 
0.0 0.0 -7.096328662732e-04 
-1.279256756890e-03 4.600607687250e-04 0.0 
4.600607687250e-04 8.175326591168e-03 0.0 
0.0 0.0 -1.237729719596e-03 
-1.329072194852e-03 -1.834247142824e-04 0.0 
-1.834247142824e-04 8.977472730193e-03 0.0 
0.0 0.0 -1.321509982054e-03 
-1.343732204276e-03 7.562212797617e-06 0.0 
7.562212797617e-06 8.849786333364e-03 0.0 
0.0 0.0 -1.343732204276e-03 
6.465688167897e-04 1.663781779480e-05 0.0 
1.663781779480e-05 -3.978289505741e-05 0.0 
0.0 0.0 -8.420285294201e-05 
3.868700612373e-04 3.921670605925e-05 0.0 
3.921670605925e-05 -6.204561696291e-05 0.0 
0.0 0.0 -1.378576441850e-04 
-8.247124983758e-04 -1.687178518224e-04 0.0 
-1.687178518224e-04 4.737962601015e-03 0.0 
0.0 0.0 -7.318233512793e-04 
-8.319071836255e-04 2.758419797137e-05 0.0 
2.758419797137e-05 4.882188569804e-03 0.0 
0.0 0.0 -7.096011290571e-04 
-1.343732204276e-03 -2.755821224564e-05 0.0 
-2.755821224564e-05 8.606219025581e-03 0.0 
0.0 0.0 -1.343732204276e-03 
-1.349068194299e-03 1.748780922349e-04 0.0 
1.748780922349e-04 8.742452044457e-03 0.0 
0.0 0.0 -1.321509982054e-03 
2.267983165528e-04 1.503551410355e-04 0.0 
1.503551410355e-04 3.801820683437e-04 0.0 
0.0 0.0 -1.379425883790e-04 
0.0 0.0 0.0 
0.0 0.0 0.0 
0.0 0.0 0.0 
-1.304839210467e-03 -7.091443056662e-05 0.0 
-7.091443056662e-05 7.889011230752e-03 0.0 
0.0 0.0 -1.230181737024e-03 
-1.133789878205e-03 6.963372694564e-04 0.0 
6.963372694564e-04 7.661762773916e-03 0.0 
0.0 0.0 -1.209364118140e-03 
-3.105423637276e-04 -2.525564358258e-04 0.0 
-2.525564358258e-04 1.694140784916e-03 0.0 
0.0 0.0 -2.712674790923e-04 
-1.264304018708e-03 -4.229761773583e-04 0.0 
-4.229761773583e-04 7.912894217144e-03 0.0 
0.0 0.0 -1.240191881334e-03 
-1.104648569634e-03 -8.128511201330e-05 0.0 
-8.128511201330e-05 5.687324916732e-03 0.0 
0.0 0.0 -8.888375990210e-04 
-1.026907705388e-03 -2.214158958103e-04 0.0 
-2.214158958103e-04 5.060294452777e-03 0.0 
0.0 0.0 -7.610796297342e-04 
-1.050200639505e-03 1.276309243533e-04 0.0 
1.276309243533e-04 6.471471583772e-03 0.0 
0.0 0.0 -9.400782610458e-04 
-2.965318753647e-05 -1.331164902240e-03 0.0 
-1.331164902240e-03 9.056852696167e-04 0.0 
0.0 0.0 -3.754423208915e-04 
-8.088866268099e-04 2.301224893319e-04 0.0 
2.301224893319e-04 6.098327421906e-03 0.0 
0.0 0.0 -1.011657465016e-03 
-2.272445053013e-04 -9.535102935050e-05 0.0 
-9.535102935050e-05 1.388764162386e-03 0.0 
0.0 0.0 -2.181484037039e-04 
-9.136007493904e-04 -3.789003197154e-04 0.0 
-3.789003197154e-04 4.494388172482e-03 0.0 
0.0 0.0 -6.997415131527e-04 
-1.249092671204e-03 5.668738205519e-04 0.0 
5.668738205519e-04 7.979681115669e-03 0.0 
0.0 0.0 -1.240519096027e-03 
-1.238391952882e-03 -2.103174549131e-04 0.0 
-2.103174549131e-04 8.038627661496e-03 0.0 
0.0 0.0 -1.191726112421e-03 
-9.811853638777e-04 4.571159586099e-05 0.0 
4.571159586099e-05 4.872542694396e-03 0.0 
0.0 0.0 -7.690942022927e-04 
-9.767560317632e-04 -1.705867274286e-04 0.0 
-1.705867274286e-04 5.944945665690e-03 0.0 
0.0 0.0 -8.745659502648e-04 
-1.201104368766e-03 5.803220864547e-04 0.0 
5.803220864547e-04 7.939240582663e-03 0.0 
0.0 0.0 -1.217119345310e-03 
-1.179845702415e-03 2.452002266232e-04 0.0 
2.452002266232e-04 7.438662012216e-03 0.0 
0.0 0.0 -1.140944809982e-03 
-1.127959464392e-03 2.474309966313e-04 0.0 
2.474309966313e-04 7.001139959042e-03 0.0 
0.0 0.0 -1.076426999079e-03 
-8.393109454079e-04 2.446878724435e-05 0.0 
2.446878724435e-05 4.620539471492e-03 0.0 
0.0 0.0 -7.312123441678e-04 
-7.325714353874e-04 1.943037271299e-04 0.0 
1.943037271299e-04 5.805049329063e-03 0.0 
0.0 0.0 -9.763781674015e-04 
-1.278424948200e-03 4.732838707970e-04 0.0 
4.732838707970e-04 8.049805466019e-03 0.0 
0.0 0.0 -1.231404929774e-03 
-6.063671140810e-04 1.348850002822e-06 0.0 
1.348850002822e-06 2.558361798436e-03 0.0 
0.0 0.0 -4.167967844001e-04 
-7.171547725390e-05 -2.177777186911e-04 0.0 
-2.177777186911e-04 5.764019490181e-04 0.0 
0.0 0.0 -1.015157820784e-04 
-1.170824655935e-03 3.363594053323e-04 0.0 
3.363594053323e-04 7.539332247117e-03 0.0 
0.0 0.0 -1.185975225609e-03 
-9.133715629689e-04 2.312110862865e-04 0.0 
2.312110862865e-04 6.719277881344e-03 0.0 
0.0 0.0 -1.123538223191e-03 
1.132049243546e-04 -1.050372997865e-03 0.0 
-1.050372997865e-03 4.871548077874e-04 0.0 
0.0 0.0 -2.572970280609e-04 
-1.081558890546e-03 -1.399243451463e-04 0.0 
-1.399243451463e-04 6.772240372319e-03 0.0 
0.0 0.0 -9.893338170986e-04 
-1.329126769976e-03 -2.338155039388e-04 0.0 
-2.338155039388e-04 8.188960966632e-03 0.0 
0.0 0.0 -1.282739585886e-03 
-1.129882241773e-03 5.744296922873e-04 0.0 
5.744296922873e-04 7.355375345581e-03 0.0 
0.0 0.0 -1.182073443778e-03 
-1.178192896547e-03 4.553534655183e-04 0.0 
4.553534655183e-04 7.891430484162e-03 0.0 
0.0 0.0 -1.215129606110e-03 
-1.157436434489e-03 -2.420799146488e-04 0.0 
-2.420799146488e-04 6.201441230335e-03 0.0 
0.0 0.0 -9.537126495859e-04 
0.0 0.0 0.0 
0.0 0.0 0.0 
0.0 0.0 0.0 
-5.231800249051e-04 6.591753538455e-04 0.0 
6.591753538455e-04 1.847843507099e-03 0.0 
0.0 0.0 -3.212443691966e-04 
-5.564787132596e-04 8.940027195274e-04 0.0 
8.940027195274e-04 2.137708509351e-03 0.0 
0.0 0.0 -3.834349432650e-04 
-9.473774776597e-04 1.764703939582e-04 0.0 
1.764703939582e-04 5.384019631323e-03 0.0 
0.0 0.0 -8.471429939415e-04 
-7.614839710960e-04 6.584444641784e-04 0.0 
6.584444641784e-04 5.752238999582e-03 0.0 
0.0 0.0 -9.781602908260e-04 
-1.285624241878e-03 -4.326792981855e-05 0.0 
-4.326792981855e-05 8.288168648148e-03 0.0 
0.0 0.0 -1.236541257690e-03 
-1.217308294029e-03 1.640866066604e-04 0.0 
1.640866066604e-04 7.793774931469e-03 0.0 
0.0 0.0 -1.282325209426e-03 
-8.954075940437e-05 -8.680076304404e-04 0.0 
-8.680076304404e-04 7.337139848585e-04 0.0 
0.0 0.0 -2.760742394804e-04 
-3.009716750380e-04 -4.715458723185e-04 0.0 
-4.715458723185e-04 9.308600569539e-04 0.0 
0.0 0.0 -1.704796444516e-04 
-4.318023328758e-04 9.056222759074e-04 0.0 
9.056222759074e-04 1.421929475039e-03 0.0 
0.0 0.0 -2.747970858071e-04 
-1.085049996288e-03 3.161557202625e-04 0.0 
3.161557202625e-04 6.749947888276e-03 0.0 
0.0 0.0 -1.019242131223e-03 
-7.105673598930e-04 -3.560858813606e-04 0.0 
-3.560858813606e-04 3.243394900527e-03 0.0 
0.0 0.0 -4.953283059016e-04 
-1.294058250345e-03 1.194991635526e-04 0.0 
1.194991635526e-04 8.278027413572e-03 0.0 
0.0 0.0 -1.241298427557e-03 
-2.801916649698e-04 -2.169380665087e-04 0.0 
-2.169380665087e-04 1.598671665654e-03 0.0 
0.0 0.0 -2.623907620757e-04 
-1.097220766083e-03 2.014729423047e-04 0.0 
2.014729423047e-04 7.397517373048e-03 0.0 
0.0 0.0 -1.221152601860e-03 
-9.286181991470e-04 2.455314232276e-04 0.0 
2.455314232276e-04 5.488935049062e-03 0.0 
0.0 0.0 -8.343732341398e-04 
-1.223283272536e-03 3.593359299497e-04 0.0 
3.593359299497e-04 7.932879470025e-03 0.0 
0.0 0.0 -1.286815605725e-03 
-9.712654839318e-04 1.866157351704e-04 0.0 
1.866157351704e-04 6.891208363551e-03 0.0 
0.0 0.0 -1.111121968474e-03 
-9.581999826764e-04 8.182036761545e-05 0.0 
8.182036761545e-05 5.388937206970e-03 0.0 
0.0 0.0 -8.465141837044e-04 
-1.209961591988e-03 -2.976225161964e-04 0.0 
-2.976225161964e-04 8.170684166123e-03 0.0 
0.0 0.0 -1.269142588751e-03 
-1.323046623582e-03 3.793136222843e-04 0.0 
3.793136222843e-04 8.658663539059e-03 0.0 
0.0 0.0 -1.272727265576e-03 
-1.289749640490e-03 9.124365830308e-05 0.0 
9.124365830308e-05 8.709454540694e-03 0.0 
0.0 0.0 -1.271339345674e-03 
-1.626085801218e-04 8.571684415748e-04 0.0 
8.571684415748e-04 8.875192706734e-04 0.0 
0.0 0.0 -3.044868356389e-04 
-1.267095409920e-03 4.070899744542e-04 0.0 
4.070899744542e-04 8.089876134210e-03 0.0 
0.0 0.0 -1.218309553141e-03 
-1.282164121305e-03 5.174305312528e-04 0.0 
5.174305312528e-04 8.083053308233e-03 0.0 
0.0 0.0 -1.286645293131e-03 
-1.059215435768e-03 -2.009543418023e-05 0.0 
-2.009543418023e-05 7.573607372665e-03 0.0 
0.0 0.0 -1.211735819529e-03 
-9.987418032593e-04 6.142229130813e-04 0.0 
6.142229130813e-04 6.982246170552e-03 0.0 
0.0 0.0 -1.143254064081e-03 
-1.342665167303e-03 -2.857461739196e-04 0.0 
-2.857461739196e-04 8.440143907241e-03 0.0 
0.0 0.0 -1.342665167303e-03 
-1.126760089934e-03 6.437426727216e-04 0.0 
6.437426727216e-04 6.937086787485e-03 0.0 
0.0 0.0 -1.079065255302e-03 
0.0 0.0 0.0 
0.0 0.0 0.0 
0.0 0.0 0.0 
6.191816026709e-05 1.291205818517e-03 0.0 
1.291205818517e-03 7.179353342320e-04 0.0 
0.0 0.0 -3.342229262139e-04 
-1.235056862706e-03 2.777301788060e-04 0.0 
2.777301788060e-04 7.736779237008e-03 0.0 
0.0 0.0 -1.176936364471e-03 
-9.923017078165e-04 3.078956919309e-04 0.0 
3.078956919309e-04 5.849121224287e-03 0.0 
0.0 0.0 -8.884613587993e-04 
-1.298948170332e-03 -3.124306146209e-04 0.0 
-3.124306146209e-04 7.977511740223e-03 0.0 
0.0 0.0 -1.221994126432e-03 
-1.061095181676e-03 1.799058826279e-04 0.0 
1.799058826279e-04 7.334426391334e-03 0.0 
0.0 0.0 -1.177009544428e-03 
-1.289141827740e-03 -3.383964038360e-04 0.0 
-3.383964038360e-04 8.125835853115e-03 0.0 
0.0 0.0 -1.292249833993e-03 
-1.132172011691e-03 2.813138638496e-04 0.0 
2.813138638496e-04 7.272270790879e-03 0.0 
0.0 0.0 -1.085521458831e-03 
-1.247617681667e-03 2.986308671608e-04 0.0 
2.986308671608e-04 7.907076372021e-03 0.0 
0.0 0.0 -1.288973456333e-03 
-1.183175849056e-03 -4.290305750124e-04 0.0 
-4.290305750124e-04 7.735436170610e-03 0.0 
0.0 0.0 -1.233322439334e-03 
-1.175389870133e-03 -8.154118169286e-05 0.0 
-8.154118169286e-05 7.695545006504e-03 0.0 
0.0 0.0 -1.235043566395e-03 
-7.287005066558e-04 -2.363504694994e-04 0.0 
-2.363504694994e-04 3.412626924282e-03 0.0 
0.0 0.0 -5.104964012366e-04 
-1.311532395302e-03 -3.318821641935e-04 0.0 
-3.318821641935e-04 8.754426494470e-03 0.0 
0.0 0.0 -1.325641941534e-03 
-8.790480836699e-04 9.973280973964e-05 0.0 
9.973280973964e-05 5.256747279211e-03 0.0 
0.0 0.0 -7.662153309038e-04 
-1.249481013832e-03 -1.180321759362e-04 0.0 
-1.180321759362e-04 8.200814515591e-03 0.0 
0.0 0.0 -1.217406395242e-03 
-1.652940304057e-04 -5.197313760388e-04 0.0 
-5.197313760388e-04 7.163944105236e-04 0.0 
0.0 0.0 -2.361858771934e-04 
-1.199456095747e-03 -9.281141696113e-05 0.0 
-9.281141696113e-05 7.932283218576e-03 0.0 
0.0 0.0 -1.163202487293e-03 
-1.073812189916e-03 1.019150907596e-06 0.0 
1.019150907596e-06 6.842466406292e-03 0.0 
0.0 0.0 -9.926133712568e-04 
-8.677292434787e-05 -7.776541442063e-05 0.0 
-7.776541442063e-05 9.098025117225e-04 0.0 
0.0 0.0 -1.628620303624e-04 
5.265410319422e-04 -6.941530982861e-04 0.0 
-6.941530982861e-04 -3.231659341297e-05 0.0 
0.0 0.0 -2.118104736554e-04 
-1.137863848184e-03 6.727746037847e-04 0.0 
6.727746037847e-04 7.103743294949e-03 0.0 
0.0 0.0 -1.107581195644e-03 
-1.316054950297e-03 1.463718814179e-04 0.0 
1.463718814179e-04 8.450854861123e-03 0.0 
0.0 0.0 -1.285368862661e-03 
-1.275071184009e-03 -1.337709164893e-04 0.0 
-1.337709164893e-04 8.307471815085e-03 0.0 
0.0 0.0 -1.223917301752e-03 
-1.160153297854e-03 5.261040585439e-04 0.0 
5.261040585439e-04 7.939180437512e-03 0.0 
0.0 0.0 -1.264779455601e-03 
-9.786681000752e-04 2.797069543092e-04 0.0 
2.797069543092e-04 5.828399650514e-03 0.0 
0.0 0.0 -8.807565902733e-04 
6.088519586403e-05 -4.917250620978e-05 0.0 
-4.917250620978e-05 4.869793999348e-04 0.0 
0.0 0.0 -1.094929743475e-04 
6.111566355022e-05 5.640636810902e-05 0.0 
5.640636810902e-05 -1.157323767526e-05 0.0 
0.0 0.0 -2.123246823213e-05 
-1.420251948107e-04 8.764175524857e-05 0.0 
8.764175524857e-05 4.773240057954e-04 0.0 
0.0 0.0 -1.256389127973e-04 
-3.632499277279e-04 -7.837444408696e-04 0.0 
-7.837444408696e-04 1.194209396961e-03 0.0 
0.0 0.0 -2.225718436208e-04 
0.0 0.0 0.0 
0.0 0.0 0.0 
0.0 0.0 0.0 
-8.980038842560e-04 -6.868916122841e-05 0.0 
-6.868916122841e-05 4.504377363934e-03 0.0 
0.0 0.0 -6.753304527203e-04 
-1.294165048711e-03 6.161991819009e-05 0.0 
6.161991819009e-05 7.969168976077e-03 0.0 
0.0 0.0 -1.222305993939e-03 
-1.264474650052e-03 5.734696938905e-04 0.0 
5.734696938905e-04 8.077312517039e-03 0.0 
0.0 0.0 -1.222833113937e-03 
-1.006464770387e-03 3.394189907578e-05 0.0 
3.394189907578e-05 5.834781281692e-03 0.0 
0.0 0.0 -8.826313165011e-04 
-8.266334947460e-04 -5.354606523691e-04 0.0 
-5.354606523691e-04 3.869366937566e-03 0.0 
0.0 0.0 -5.988529843847e-04 
-1.198642937147e-03 -4.684662880526e-04 0.0 
-4.684662880526e-04 7.783754842457e-03 0.0 
0.0 0.0 -1.221067908166e-03 
-1.068035990990e-03 1.115403335333e-04 0.0 
1.115403335333e-04 7.531635864011e-03 0.0 
0.0 0.0 -1.208702654310e-03 
-1.208049507468e-03 4.869249044164e-04 0.0 
4.869249044164e-04 8.191633662499e-03 0.0 
0.0 0.0 -1.272252409145e-03 
-1.227816291176e-03 4.361504529360e-04 0.0 
4.361504529360e-04 7.755209047765e-03 0.0 
0.0 0.0 -1.237422270938e-03 
-1.191139084829e-03 6.619264216725e-04 0.0 
6.619264216725e-04 7.533865048847e-03 0.0 
0.0 0.0 -1.171232062679e-03 
-1.920899935495e-04 -3.005289282688e-04 0.0 
-3.005289282688e-04 6.978999469600e-04 0.0 
0.0 0.0 -2.167756943188e-04 
0.0 0.0 0.0 
0.0 0.0 0.0 
0.0 0.0 0.0 
-1.308655472056e-03 -3.526594848147e-04 0.0 
-3.526594848147e-04 8.026041467974e-03 0.0 
0.0 0.0 -1.223662873675e-03 
-1.521155326843e-04 1.616990335056e-05 0.0 
1.616990335056e-05 7.009749630609e-04 0.0 
0.0 0.0 -1.761523314621e-04 
-1.768246005743e-04 2.416090922495e-04 0.0 
2.416090922495e-04 1.018026141244e-03 0.0 
0.0 0.0 -1.933333333332e-04 
1.266269026244e-04 4.459901967828e-04 0.0 
4.459901967828e-04 1.149333659383e-04 0.0 
0.0 0.0 -1.035258293840e-04 
-1.677849962930e-04 -2.830770546558e-04 0.0 
-2.830770546558e-04 8.015651116380e-04 0.0 
0.0 0.0 -1.580296812506e-04 
-1.271854076500e-03 -2.557043152436e-04 0.0 
-2.557043152436e-04 7.945254530657e-03 0.0 
0.0 0.0 -1.288571152055e-03 
-1.306788030849e-03 4.109202426763e-04 0.0 
4.109202426763e-04 8.216249132470e-03 0.0 
0.0 0.0 -1.290113636706e-03 
-1.294468783320e-03 3.035835675296e-04 0.0 
3.035835675296e-04 8.293038568859e-03 0.0 
0.0 0.0 -1.236907757659e-03 
-1.272697522653e-03 4.000546130428e-04 0.0 
4.000546130428e-04 7.992915461605e-03 0.0 
0.0 0.0 -1.292605224168e-03 
-1.039048517881e-03 -2.511628389219e-04 0.0 
-2.511628389219e-04 7.217306455236e-03 0.0 
0.0 0.0 -1.176879138244e-03 
-9.963056410622e-04 2.982297539881e-04 0.0 
2.982297539881e-04 6.108837095234e-03 0.0 
0.0 0.0 -9.170130443517e-04 
-1.345069444888e-03 2.094806773474e-04 0.0 
2.094806773474e-04 8.819921791921e-03 0.0 
0.0 0.0 -1.345069444888e-03 
1.552293122710e-04 -1.587596842018e-03 0.0 
-1.587596842018e-03 7.594496357434e-04 0.0 
0.0 0.0 -3.920052634347e-04 
-7.958568066072e-04 2.655126968941e-05 0.0 
2.655126968941e-05 4.862635053177e-03 0.0 
0.0 0.0 -7.083073883397e-04 
-3.709027017310e-05 -1.154290083415e-03 0.0 
-1.154290083415e-03 8.071251517729e-04 0.0 
0.0 0.0 -3.300149492570e-04 
-8.078687300304e-05 2.766710122456e-05 0.0 
2.766710122456e-05 2.705585081320e-04 0.0 
0.0 0.0 -8.133070076957e-05 
-1.328088305276e-03 -2.091716352919e-04 0.0 
-2.091716352919e-04 8.801339781229e-03 0.0 
0.0 0.0 -1.323850096553e-03 
-9.077000763770e-04 9.794404475146e-05 0.0 
9.794404475146e-05 5.306610706151e-03 0.0 
0.0 0.0 -7.731261162940e-04 
-1.693805322071e-04 -2.625883935893e-05 0.0 
-2.625883935893e-05 1.305243597625e-03 0.0 
0.0 0.0 -2.115341463249e-04 
-9.189085389785e-04 8.964891235688e-05 0.0 
8.964891235688e-05 4.273021875062e-03 0.0 
0.0 0.0 -6.570498647039e-04 
-1.286146232063e-03 5.231039738263e-04 0.0 
5.231039738263e-04 8.474365430469e-03 0.0 
0.0 0.0 -1.276804206569e-03 
-1.288400651325e-03 -4.306470642738e-06 0.0 
-4.306470642738e-06 8.274343384212e-03 0.0 
0.0 0.0 -1.228616961883e-03 
-1.323624610775e-03 3.216369829918e-04 0.0 
3.216369829918e-04 8.408100187569e-03 0.0 
0.0 0.0 -1.289666537713e-03 
-6.585033223124e-04 -1.956809026779e-04 0.0 
-1.956809026779e-04 3.104860358543e-03 0.0 
0.0 0.0 -4.695399720401e-04 
0.0 0.0 0.0 
0.0 0.0 0.0 
0.0 0.0 0.0 
-1.295369683638e-03 -4.352781909349e-04 0.0 
-4.352781909349e-04 8.328377963407e-03 0.0 
0.0 0.0 -1.273144391159e-03 
-1.316384665971e-03 4.635940691717e-05 0.0 
4.635940691717e-05 9.091692367136e-03 0.0 
0.0 0.0 -1.325353038101e-03 
-1.373672636792e-03 -7.774901455504e-05 0.0 
-7.774901455504e-05 8.873813327291e-03 0.0 
0.0 0.0 -1.323783523096e-03 
-8.637809619907e-04 1.323503679534e-04 0.0 
1.323503679534e-04 5.089707097874e-03 0.0 
0.0 0.0 -7.673431308700e-04 
-1.131532193974e-03 -7.726473612601e-05 0.0 
-7.726473612601e-05 7.445464928452e-03 0.0 
0.0 0.0 -1.231867668451e-03 
-2.317572587520e-04 -1.314436244158e-04 0.0 
-1.314436244158e-04 1.130415722071e-03 0.0 
0.0 0.0 -2.324200178898e-04 
-1.299745087394e-03 4.291095854891e-04 0.0 
4.291095854891e-04 8.286657472724e-03 0.0 
0.0 0.0 -1.241575510934e-03 
-4.846130298420e-05 -4.886976193625e-05 0.0 
-4.886976193625e-05 2.622595636012e-04 0.0 
0.0 0.0 -9.162782597871e-05 
-1.263516092246e-03 -1.718330630488e-04 0.0 
-1.718330630488e-04 7.907025787409e-03 0.0 
0.0 0.0 -1.290713494763e-03 
-1.321680158597e-03 4.673078731777e-04 0.0 
4.673078731777e-04 8.597815189326e-03 0.0 
0.0 0.0 -1.268585396830e-03 
0.0 0.0 0.0 
0.0 0.0 0.0 
0.0 0.0 0.0 
-1.124591088079e-03 3.211880423142e-04 0.0 
3.211880423142e-04 7.458066064736e-03 0.0 
0.0 0.0 -1.178018281593e-03 
-1.107869427890e-03 -1.505180591586e-04 0.0 
-1.505180591586e-04 7.012739571933e-03 0.0 
0.0 0.0 -1.053859681778e-03 
-1.308771083341e-03 9.446579517484e-05 0.0 
9.446579517484e-05 8.493525012630e-03 0.0 
0.0 0.0 -1.289687241943e-03 
-1.346242744377e-03 2.039443759450e-04 0.0 
2.039443759450e-04 8.307404063276e-03 0.0 
0.0 0.0 -1.346242744377e-03 
-1.050842893348e-03 -2.891538303944e-04 0.0 
-2.891538303944e-04 6.421171579649e-03 0.0 
0.0 0.0 -9.627310317561e-04 
-1.303758961951e-03 4.903154082554e-04 0.0 
4.903154082554e-04 8.278630388455e-03 0.0 
0.0 0.0 -1.292510612804e-03 
-1.300990074097e-03 1.669276888751e-04 0.0 
1.669276888751e-04 8.244189692926e-03 0.0 
0.0 0.0 -1.236507170568e-03 
-1.088170666265e-03 3.228048852164e-05 0.0 
3.228048852164e-05 6.587667922864e-03 0.0 
0.0 0.0 -1.009625451247e-03 
-1.257890102395e-03 4.520446479729e-04 0.0 
4.520446479729e-04 7.985706155656e-03 0.0 
0.0 0.0 -1.247605899893e-03 
-7.721939041237e-04 -2.584607340664e-04 0.0 
-2.584607340664e-04 3.598089332548e-03 0.0 
0.0 0.0 -5.668522599723e-04 
-8.446801208318e-04 -1.785300824749e-05 0.0 
-1.785300824749e-05 4.608085736335e-03 0.0 
0.0 0.0 -7.287847301676e-04 
-1.179784032877e-03 5.549241153248e-04 0.0 
5.549241153248e-04 7.775803262496e-03 0.0 
0.0 0.0 -1.239219007812e-03 
-1.299529222104e-03 1.321426560981e-04 0.0 
1.321426560981e-04 8.646134742124e-03 0.0 
0.0 0.0 -1.286506427510e-03 
2.831255439194e-04 1.360672473440e-05 0.0 
1.360672473440e-05 -8.482055415176e-05 0.0 
0.0 0.0 -8.498785275758e-05 
-8.370484008237e-04 5.623912198418e-05 0.0 
5.623912198418e-05 4.626828224470e-03 0.0 
0.0 0.0 -7.284590636140e-04 
-1.335071484274e-03 -1.600713729454e-04 0.0 
-1.600713729454e-04 8.440371416104e-03 0.0 
0.0 0.0 -1.288082484959e-03 
-3.767414468585e-04 -4.451842935601e-05 0.0 
-4.451842935601e-05 1.577633672495e-03 0.0 
0.0 0.0 -2.765646858065e-04 
-1.088631360797e-03 4.564803545026e-05 0.0 
4.564803545026e-05 7.667059339477e-03 0.0 
0.0 0.0 -1.213252366005e-03 
-1.271794335805e-03 2.301245021833e-04 0.0 
2.301245021833e-04 8.183403677429e-03 0.0 
0.0 0.0 -1.225943235494e-03 
-1.312602819485e-03 -3.967668182090e-05 0.0 
-3.967668182090e-05 8.691988746778e-03 0.0 
0.0 0.0 -1.269037835114e-03 
-3.083660169777e-04 2.694773361529e-05 0.0 
2.694773361529e-05 1.528069924280e-03 0.0 
0.0 0.0 -2.647987373252e-04 
3.113151605038e-04 9.413576912784e-04 0.0 
9.413576912784e-04 1.991549585730e-04 0.0 
0.0 0.0 -2.187729081758e-04 
-1.068435724364e-03 3.124616463362e-04 0.0 
3.124616463362e-04 5.213213290896e-03 0.0 
0.0 0.0 -7.939471195916e-04 
-1.202568648909e-03 1.058847220047e-04 0.0 
1.058847220047e-04 7.572272609772e-03 0.0 
0.0 0.0 -1.120841203304e-03 
0.0 0.0 0.0 
0.0 0.0 0.0 
0.0 0.0 0.0 
-1.320199164535e-03 2.485994904543e-04 0.0 
2.485994904543e-04 8.472368730029e-03 0.0 
0.0 0.0 -1.292233508669e-03 
-1.037229848653e-03 5.491249721839e-05 0.0 
5.491249721839e-05 6.181123680978e-03 0.0 
0.0 0.0 -9.501928138396e-04 
-2.112219927373e-05 -1.374997492072e-03 0.0 
-1.374997492072e-03 9.175924767207e-04 0.0 
0.0 0.0 -3.842015474773e-04 
-1.012609583766e-03 8.895330680236e-05 0.0 
8.895330680236e-05 5.872726185200e-03 0.0 
0.0 0.0 -9.030544305944e-04 
-1.225691657466e-03 3.254133079920e-04 0.0 
3.254133079920e-04 8.211721301461e-03 0.0 
0.0 0.0 -1.271643562581e-03 
-1.073143154962e-03 -3.082428058209e-04 0.0 
-3.082428058209e-04 5.482950483311e-03 0.0 
0.0 0.0 -8.272804529250e-04 
-6.732229936165e-05 7.605715341109e-04 0.0 
7.605715341109e-04 8.977361578565e-05 0.0 
0.0 0.0 -9.621992753142e-06 
-7.676399437614e-04 -3.808740375144e-05 0.0 
-3.808740375144e-05 3.237219166554e-03 0.0 
0.0 0.0 -5.209635072927e-04 
-9.628338005869e-04 -8.201294567373e-05 0.0 
-8.201294567373e-05 4.764994978367e-03 0.0 
0.0 0.0 -7.319997505002e-04 
-1.071554526652e-03 3.282695898754e-04 0.0 
3.282695898754e-04 5.655927594763e-03 0.0 
0.0 0.0 -8.599999999992e-04 
-1.135384068353e-03 1.731479619930e-04 0.0 
1.731479619930e-04 7.715574497297e-03 0.0 
0.0 0.0 -1.232780192057e-03 
-9.798919804233e-04 -2.558628748534e-04 0.0 
-2.558628748534e-04 4.608642650891e-03 0.0 
0.0 0.0 -7.175509632692e-04 
-9.821029958470e-04 -3.508647879924e-05 0.0 
-3.508647879924e-05 4.890525845077e-03 0.0 
0.0 0.0 -7.596628988333e-04 
-1.837560013843e-04 -1.583099615282e-05 0.0 
-1.583099615282e-05 7.060885550868e-04 0.0 
0.0 0.0 -1.551230728613e-04 
-1.279400136320e-03 -1.566945304177e-04 0.0 
-1.566945304177e-04 7.936225660633e-03 0.0 
0.0 0.0 -1.240629869904e-03 
-1.185998620198e-03 6.438056067403e-04 0.0 
6.438056067403e-04 7.550199019485e-03 0.0 
0.0 0.0 -1.186362110037e-03 
2.427830448571e-04 7.191273176983e-04 0.0 
7.191273176983e-04 1.478022189351e-04 0.0 
0.0 0.0 -1.673936844824e-04 
-1.279430862365e-03 -6.414688066309e-05 0.0 
-6.414688066309e-05 8.547621756056e-03 0.0 
0.0 0.0 -1.290349483557e-03 
-1.338884708819e-03 1.031550988355e-04 0.0 
1.031550988355e-04 8.369469127644e-03 0.0 
0.0 0.0 -1.290356026000e-03 
-8.661241169029e-04 -1.497599566473e-04 0.0 
-1.497599566473e-04 5.210623571048e-03 0.0 
0.0 0.0 -7.639788432047e-04 
-1.031081386504e-03 4.454962226943e-05 0.0 
4.454962226943e-05 6.379322053578e-03 0.0 
0.0 0.0 -9.358343396975e-04 
-9.489099175762e-04 2.306915430345e-05 0.0 
2.306915430345e-05 4.686801294291e-03 0.0 
0.0 0.0 -7.108516105536e-04 
-9.490845872611e-04 -2.424415655702e-04 0.0 
-2.424415655702e-04 4.770889395299e-03 0.0 
0.0 0.0 -7.343037059241e-04 
-1.020778085259e-03 -1.236146397605e-04 0.0 
-1.236146397605e-04 5.063951457963e-03 0.0 
0.0 0.0 -7.498489858827e-04 
-1.029397936689e-03 2.088387744417e-04 0.0 
2.088387744417e-04 7.190812739883e-03 0.0 
0.0 0.0 -1.180929064624e-03 
-9.345291821784e-05 -1.000980982166e-03 0.0 
-1.000980982166e-03 8.249248585122e-04 0.0 
0.0 0.0 -3.134879744119e-04 
-1.217539983379e-03 3.641850333419e-04 0.0 
3.641850333419e-04 7.975823276789e-03 0.0 
0.0 0.0 -1.217816617926e-03 
-9.353852917844e-04 8.308411466891e-05 0.0 
8.308411466891e-05 5.379160797006e-03 0.0 
0.0 0.0 -8.376728236383e-04 
-1.321070874734e-03 1.232042406106e-04 0.0 
1.232042406106e-04 8.662379723599e-03 0.0 
0.0 0.0 -1.272153791098e-03 
-1.041736228558e-03 -1.048021857426e-04 0.0 
-1.048021857426e-04 7.166745997700e-03 0.0 
0.0 0.0 -1.181257232468e-03 
-9.798440822242e-04 -3.118370163861e-05 0.0 
-3.118370163861e-05 6.079525789277e-03 0.0 
0.0 0.0 -8.902468719969e-04 
-1.234647512165e-03 5.766899331800e-04 0.0 
5.766899331800e-04 7.752454878246e-03 0.0 
0.0 0.0 -1.201032862555e-03 
-1.158629351689e-03 4.496790680983e-04 0.0 
4.496790680983e-04 7.611289473110e-03 0.0 
0.0 0.0 -1.236767197193e-03 
-1.208868880085e-03 3.342350738492e-04 0.0 
3.342350738492e-04 8.181025928136e-03 0.0 
0.0 0.0 -1.270271405117e-03 
3.097542277649e-05 6.697677954973e-05 0.0 
6.697677954973e-05 7.281263968877e-06 0.0 
0.0 0.0 -1.639572289087e-05 
-1.241892221072e-03 3.317116238901e-04 0.0 
3.317116238901e-04 7.798927866879e-03 0.0 
0.0 0.0 -1.198686027802e-03 
-1.247779771289e-03 6.731204463031e-04 0.0 
6.731204463031e-04 8.074479962319e-03 0.0 
0.0 0.0 -1.227078865044e-03 
-6.925802389634e-05 -2.106877258132e-04 0.0 
-2.106877258132e-04 8.393317830722e-04 0.0 
0.0 0.0 -1.488313462956e-04 
-9.198582411310e-04 -2.516763361700e-04 0.0 
-2.516763361700e-04 4.361749592167e-03 0.0 
0.0 0.0 -6.841365946973e-04 
8.862067450559e-06 2.614979262087e-05 0.0 
2.614979262087e-05 5.345349754711e-06 0.0 
0.0 0.0 -6.088893087973e-06 
-1.270183579808e-03 3.785933793144e-04 0.0 
3.785933793144e-04 8.183372897712e-03 0.0 
0.0 0.0 -1.230789928678e-03 
-5.545130018070e-04 -8.178037886237e-05 0.0 
-8.178037886237e-05 2.909623846630e-03 0.0 
0.0 0.0 -4.711111111111e-04 
-5.228721678640e-04 4.028587622300e-05 0.0 
4.028587622300e-05 3.096271718330e-03 0.0 
0.0 0.0 -4.488888888889e-04 
-5.533691474050e-04 -1.923275015253e-05 0.0 
-1.923275015253e-05 2.782205362795e-03 0.0 
0.0 0.0 -4.711111111111e-04 
-5.221137795359e-04 -1.919255201181e-05 0.0 
-1.919255201181e-05 3.085550305381e-03 0.0 
0.0 0.0 -4.488888888889e-04 
-5.530109392803e-04 -1.824425838804e-05 0.0 
-1.824425838804e-05 2.774559112815e-03 0.0 
0.0 0.0 -4.711111111111e-04 
-5.224317182748e-04 -2.502826317864e-05 0.0 
-2.502826317864e-05 3.085006659223e-03 0.0 
0.0 0.0 -4.488888888889e-04 
-5.547362962008e-04 -2.086138494889e-05 0.0 
-2.086138494889e-05 2.774413059491e-03 0.0 
0.0 0.0 -4.711111111111e-04 
-5.236919844007e-04 -2.854587035644e-05 0.0 
-2.854587035644e-05 3.085493683001e-03 0.0 
0.0 0.0 -4.488888888889e-04 
-5.568332374197e-04 -2.401854184227e-05 0.0 
-2.401854184227e-05 2.775119097809e-03 0.0 
0.0 0.0 -4.711111111111e-04 
-5.256110821061e-04 -3.168208470033e-05 0.0 
-3.168208470033e-05 3.086241768691e-03 0.0 
0.0 0.0 -4.488888888889e-04 
-5.598758616072e-04 -2.649602084230e-05 0.0 
-2.649602084230e-05 2.776179524696e-03 0.0 
0.0 0.0 -4.711111111111e-04 
-5.281753228681e-04 -3.429831362401e-05 0.0 
-3.429831362401e-05 3.087276348172e-03 0.0 
0.0 0.0 -4.488888888889e-04 
-5.637335880510e-04 -2.986966676234e-05 0.0 
-2.986966676234e-05 2.777348666577e-03 0.0 
0.0 0.0 -4.711111111111e-04 
-5.307645202168e-04 -3.678054343318e-05 0.0 
-3.678054343318e-05 3.087110497831e-03 0.0 
0.0 0.0 -4.488888888889e-04 
-5.672516091013e-04 -3.170316921858e-05 0.0 
-3.170316921858e-05 2.777585456228e-03 0.0 
0.0 0.0 -4.711111111111e-04 
-5.334205119262e-04 -3.725348252055e-05 0.0 
-3.725348252055e-05 3.086025479628e-03 0.0 
0.0 0.0 -4.488888888889e-04 
-6.732559192872e-04 1.069454178643e-04 0.0 
1.069454178643e-04 3.029509612801e-03 0.0 
0.0 0.0 -4.582426303855e-04 
-5.702546095882e-04 -3.020263056991e-05 0.0 
-3.020263056991e-05 2.777240536398e-03 0.0 
0.0 0.0 -4.711111111111e-04 
-5.366843668123e-04 -3.453855403530e-05 0.0 
-3.453855403530e-05 3.085220328545e-03 0.0 
0.0 0.0 -4.488888888889e-04 
-5.576127008399e-04 2.593782929634e-04 0.0 
2.593782929634e-04 2.842420570206e-03 0.0 
0.0 0.0 -4.360204081633e-04 
-5.755921041128e-04 -2.584209849049e-05 0.0 
-2.584209849049e-05 2.777326176010e-03 0.0 
0.0 0.0 -4.711111111111e-04 
-5.408034795114e-04 -2.962006398500e-05 0.0 
-2.962006398500e-05 3.084571096852e-03 0.0 
0.0 0.0 -4.488888888889e-04 
-5.797090102450e-04 2.287706001101e-04 0.0 
2.287706001101e-04 2.761834444076e-03 0.0 
0.0 0.0 -4.711111111111e-04 
-5.815224328378e-04 -2.044759247011e-05 0.0 
-2.044759247011e-05 2.777381230694e-03 0.0 
0.0 0.0 -4.711111111111e-04 
-5.453831185768e-04 -2.258268294197e-05 0.0 
-2.258268294197e-05 3.083167530034e-03 0.0 
0.0 0.0 -4.488888888889e-04 
-5.869514963865e-04 -1.328471433010e-05 0.0 
-1.328471433010e-05 2.776586963506e-03 0.0 
0.0 0.0 -4.711111111111e-04 
-5.500562244305e-04 -1.211537895153e-05 0.0 
-1.211537895153e-05 3.080223364949e-03 0.0 
0.0 0.0 -4.488888888889e-04 
-5.924946390174e-04 -2.438932199996e-06 0.0 
-2.438932199996e-06 2.774392434348e-03 0.0 
0.0 0.0 -4.711111111111e-04 
-5.545352339644e-04 4.923705994678e-06 0.0 
4.923705994678e-06 3.074068870883e-03 0.0 
0.0 0.0 -4.488888888889e-04 
-5.832002113226e-04 3.084013380276e-04 0.0 
3.084013380276e-04 2.928576946329e-03 0.0 
0.0 0.0 -4.693537414966e-04 
-5.957418463706e-04 2.457513506605e-05 0.0 
2.457513506605e-05 2.772161347741e-03 0.0 
0.0 0.0 -4.711111111111e-04 
-5.631455985877e-04 2.981682976181e-05 0.0 
2.981682976181e-05 3.075944045931e-03 0.0 
0.0 0.0 -4.488888888889e-04 
-6.088382110079e-04 4.080604098374e-05 0.0 
4.080604098374e-05 2.772254412647e-03 0.0 
0.0 0.0 -4.711111111111e-04 
-5.699052770561e-04 5.777344855823e-05 0.0 
5.777344855823e-05 3.067169222988e-03 0.0 
0.0 0.0 -4.488888888889e-04 
-5.850043028418e-04 9.074123042683e-05 0.0 
9.074123042683e-05 3.079028566329e-03 0.0 
0.0 0.0 -4.488888888889e-04 
-6.115132190535e-04 8.765179825616e-05 0.0 
8.765179825616e-05 2.771111166917e-03 0.0 
0.0 0.0 -4.711111111111e-04 
-5.840298968917e-04 1.336949722933e-04 0.0 
1.336949722933e-04 3.039780976699e-03 0.0 
0.0 0.0 -4.488888888889e-04 
-6.359355392830e-04 7.860855074454e-05 0.0 
7.860855074454e-05 2.767946632045e-03 0.0 
0.0 0.0 -4.711111111111e-04 
-6.117830325044e-04 2.038036979565e-04 0.0 
2.038036979565e-04 3.073336866825e-03 0.0 
0.0 0.0 -4.488888888889e-04 
-5.855262073870e-04 1.964620808073e-04 0.0 
1.964620808073e-04 2.752718067293e-03 0.0 
0.0 0.0 -4.711111111111e-04 
-5.483337161075e-04 2.408316196273e-04 0.0 
2.408316196273e-04 2.683266341474e-03 0.0 
0.0 0.0 -4.580931830754e-04 
-4.856995794812e-04 -3.712445804859e-04 0.0 
-3.712445804859e-04 2.886533165746e-03 0.0 
0.0 0.0 -4.600000000000e-04 
-5.915156838414e-04 3.511510416328e-04 0.0 
3.511510416328e-04 3.076032758812e-03 0.0 
0.0 0.0 -4.600000000000e-04 
-5.132697976774e-04 -4.266972038985e-05 0.0 
-4.266972038985e-05 2.924617726937e-03 0.0 
0.0 0.0 -4.377777777778e-04 
-5.653819698478e-04 3.554715819272e-05 0.0 
3.554715819272e-05 3.026667072190e-03 0.0 
0.0 0.0 -4.822222222222e-04 
-5.562102482200e-04 3.031448983604e-04 0.0 
3.031448983604e-04 2.748233394595e-03 0.0 
0.0 0.0 -4.377777777778e-04 
-5.989574462514e-04 -8.267193208917e-05 0.0 
-8.267193208917e-05 3.437613023720e-03 0.0 
0.0 0.0 -5.155555555556e-04 
-6.287787412402e-04 3.729317259218e-05 0.0 
3.729317259218e-05 3.247326925229e-03 0.0 
0.0 0.0 -5.377777777778e-04 
-5.978135918495e-04 -1.841914986540e-05 0.0 
-1.841914986540e-05 3.561201795145e-03 0.0 
0.0 0.0 -5.155555555556e-04 
-6.254961344599e-04 -1.930049853369e-05 0.0 
-1.930049853369e-05 3.253947423147e-03 0.0 
0.0 0.0 -5.377777777778e-04 
-5.974553837247e-04 -1.391156406088e-05 0.0 
-1.391156406088e-05 3.564621634950e-03 0.0 
0.0 0.0 -5.155555555556e-04 
-6.279936331018e-04 -1.935706142364e-05 0.0 
-1.935706142364e-05 3.255345558208e-03 0.0 
0.0 0.0 -5.377777777778e-04 
-5.991807406452e-04 -1.614264760927e-05 0.0 
-1.614264760927e-05 3.566069321236e-03 0.0 
0.0 0.0 -5.155555555556e-04 
-6.284144790130e-04 -2.147959664663e-05 0.0 
-2.147959664663e-05 3.255656571766e-03 0.0 
0.0 0.0 -5.377777777778e-04 
-6.012776818642e-04 -1.696499576587e-05 0.0 
-1.696499576587e-05 3.566126567533e-03 0.0 
0.0 0.0 -5.155555555556e-04 
-6.315481358764e-04 -2.174087039821e-05 0.0 
-2.174087039821e-05 3.256770810453e-03 0.0 
0.0 0.0 -5.377777777778e-04 
-6.043203060517e-04 -1.757798620874e-05 0.0 
-1.757798620874e-05 3.567144862765e-03 0.0 
0.0 0.0 -5.155555555556e-04 
-6.347436721796e-04 -2.174327211569e-05 0.0 
-2.174327211569e-05 3.258179294352e-03 0.0 
0.0 0.0 -5.377777777778e-04 
-6.081780324954e-04 -1.832425526294e-05 0.0 
-1.832425526294e-05 3.568559060354e-03 0.0 
0.0 0.0 -5.155555555556e-04 
-6.411680495803e-04 -2.482988994377e-05 0.0 
-2.482988994377e-05 3.259134830210e-03 0.0 
0.0 0.0 -5.377777777778e-04 
-6.116960535458e-04 -1.877149855028e-05 0.0 
-1.877149855028e-05 3.568744272090e-03 0.0 
0.0 0.0 -5.155555555556e-04 
-7.366276609701e-04 4.524951182865e-05 0.0 
4.524951182865e-05 3.507320200516e-03 0.0 
0.0 0.0 -5.247732426303e-04 
-6.420523831112e-04 -2.583218201805e-05 0.0 
-2.583218201805e-05 3.257046679515e-03 0.0 
0.0 0.0 -5.377777777778e-04 
-6.435781206746e-04 1.840534884814e-04 0.0 
1.840534884814e-04 3.241318968686e-03 0.0 
0.0 0.0 -5.377777777778e-04 
-6.146990540326e-04 -1.244484207344e-05 0.0 
-1.244484207344e-05 3.564885876854e-03 0.0 
0.0 0.0 -5.155555555556e-04 
-6.478721701654e-04 -1.639725233752e-05 0.0 
-1.639725233752e-05 3.256970335869e-03 0.0 
0.0 0.0 -5.377777777778e-04 
-6.200365485572e-04 -5.018436089581e-06 0.0 
-5.018436089581e-06 3.564885905457e-03 0.0 
0.0 0.0 -5.155555555556e-04 
-6.561429566816e-04 -9.551464893356e-06 0.0 
-9.551464893356e-06 3.257786223678e-03 0.0 
0.0 0.0 -5.377777777778e-04 
-6.259668772823e-04 2.319967205521e-06 0.0 
2.319967205521e-06 3.565031180513e-03 0.0 
0.0 0.0 -5.155555555556e-04 
-6.615288143992e-04 -3.165343597243e-06 0.0 
-3.165343597243e-06 3.256616812139e-03 0.0 
0.0 0.0 -5.377777777778e-04 
-6.169661166839e-04 2.164901621932e-04 0.0 
2.164901621932e-04 3.318852114050e-03 0.0 
0.0 0.0 -5.025510204081e-04 
-6.313959408309e-04 1.331766061821e-05 0.0 
1.331766061821e-05 3.562071063365e-03 0.0 
0.0 0.0 -5.155555555556e-04 
-6.676626850749e-04 8.412288321031e-06 0.0 
8.412288321031e-06 3.254047861299e-03 0.0 
0.0 0.0 -5.377777777778e-04 
-6.369390834618e-04 2.839501316983e-05 0.0 
2.839501316983e-05 3.557766628637e-03 0.0 
0.0 0.0 -5.155555555556e-04 
-6.757465811746e-04 2.011236031009e-05 0.0 
2.011236031009e-05 3.248279072062e-03 0.0 
0.0 0.0 -5.377777777778e-04 
-6.401862908150e-04 5.683403292324e-05 0.0 
5.683403292324e-05 3.544903684413e-03 0.0 
0.0 0.0 -5.155555555556e-04 
-6.710900969960e-04 7.145474225899e-05 0.0 
7.145474225899e-05 3.246321760371e-03 0.0 
0.0 0.0 -5.377777777778e-04 
-6.532826554523e-04 8.457965391973e-05 0.0 
8.457965391973e-05 3.553131858142e-03 0.0 
0.0 0.0 -5.155555555556e-04 
-7.020590348485e-04 7.312181654746e-05 0.0 
7.312181654746e-05 3.244705541191e-03 0.0 
0.0 0.0 -5.377777777778e-04 
-6.554115117610e-04 1.658740749447e-04 0.0 
1.658740749447e-04 3.237354480524e-03 0.0 
0.0 0.0 -5.377777777778e-04 
-6.559576634980e-04 1.237219721845e-04 0.0 
1.237219721845e-04 3.531755926188e-03 0.0 
0.0 0.0 -5.155555555556e-04 
-6.411111436525e-04 2.481500458011e-04 0.0 
2.481500458011e-04 3.407080026122e-03 0.0 
0.0 0.0 -5.358843537414e-04 
-6.803799837275e-04 1.624927648151e-04 0.0 
1.624927648151e-04 3.558426467577e-03 0.0 
0.0 0.0 -5.155555555556e-04 
-5.945151412269e-04 1.812873307433e-04 0.0 
1.812873307433e-04 3.113616278940e-03 0.0 
0.0 0.0 -5.136621315192e-04 
-6.672833179301e-04 -3.706793032750e-04 0.0 
-3.706793032750e-04 3.459056007774e-03 0.0 
0.0 0.0 -5.266666666667e-04 
-5.623773213514e-04 3.513666038768e-04 0.0 
3.513666038768e-04 3.271176697744e-03 0.0 
0.0 0.0 -5.266666666667e-04 
-6.406200246206e-04 -4.190627532401e-05 0.0 
-4.190627532401e-05 3.422026805713e-03 0.0 
0.0 0.0 -5.488888888889e-04 
-5.876041920701e-04 3.555034108668e-05 0.0 
3.555034108668e-05 3.319473246611e-03 0.0 
0.0 0.0 -5.044444444444e-04 
-6.130423435783e-04 2.369057836334e-04 0.0 
2.369057836334e-04 3.223253934296e-03 0.0 
0.0 0.0 -5.044444444444e-04 
-7.120623447180e-04 -8.888228388160e-05 0.0 
-8.888228388160e-05 3.852748437753e-03 0.0 
0.0 0.0 -6.044444444444e-04 
-6.732231856846e-04 3.548631982699e-05 0.0 
3.548631982699e-05 4.032087244247e-03 0.0 
0.0 0.0 -5.822222222222e-04 
-6.955393523700e-04 -2.756019485512e-05 0.0 
-2.756019485512e-05 3.717267839696e-03 0.0 
0.0 0.0 -6.044444444444e-04 
-6.699405789043e-04 -1.870355497797e-05 0.0 
-1.870355497797e-05 4.017496801865e-03 0.0 
0.0 0.0 -5.822222222222e-04 
-6.969243199369e-04 -6.918496173234e-06 0.0 
-6.918496173234e-06 3.707462619531e-03 0.0 
0.0 0.0 -6.044444444444e-04 
-6.724380775462e-04 -1.325710265715e-05 0.0 
-1.325710265715e-05 4.022403973257e-03 0.0 
0.0 0.0 -5.822222222222e-04 
-7.031503284102e-04 -1.402242021930e-05 0.0 
-1.402242021930e-05 3.711320333832e-03 0.0 
0.0 0.0 -6.044444444444e-04 
-6.728589234574e-04 -1.646685933992e-05 0.0 
-1.646685933992e-05 4.018646007482e-03 0.0 
0.0 0.0 -5.822222222222e-04 
-6.992489626615e-04 -7.571363959488e-06 0.0 
-7.571363959488e-06 3.708933191906e-03 0.0 
0.0 0.0 -6.044444444444e-04 
-6.759925803209e-04 -1.073738973976e-05 0.0 
-1.073738973976e-05 4.021950250257e-03 0.0 
0.0 0.0 -5.822222222222e-04 
-7.070575680629e-04 -7.158521352799e-06 0.0 
-7.158521352799e-06 3.711746084396e-03 0.0 
0.0 0.0 -6.044444444444e-04 
-6.791881166240e-04 -9.268059005098e-06 0.0 
-9.268059005098e-06 4.020971144871e-03 0.0 
0.0 0.0 -5.822222222222e-04 
-7.076120858666e-04 1.215276486099e-06 0.0 
1.215276486099e-06 3.712281244356e-03 0.0 
0.0 0.0 -6.044444444444e-04 
-7.999876507941e-04 1.388374683100e-05 0.0 
1.388374683100e-05 3.980152954303e-03 0.0 
0.0 0.0 -5.915759637188e-04 
-6.856124940247e-04 -4.086926393719e-06 0.0 
-4.086926393719e-06 4.027577169899e-03 0.0 
0.0 0.0 -5.822222222222e-04 
-7.178528616705e-04 -1.309284787321e-05 0.0 
-1.309284787321e-05 3.714901656250e-03 0.0 
0.0 0.0 -6.044444444444e-04 
-6.869874754798e-04 1.711534318409e-04 0.0 
1.711534318409e-04 3.792214840593e-03 0.0 
0.0 0.0 -5.693537414966e-04 
-6.864968275557e-04 -6.408579358671e-06 0.0 
-6.408579358671e-06 4.016159600688e-03 0.0 
0.0 0.0 -5.822222222222e-04 
-7.178783193932e-04 5.819993202574e-06 0.0 
5.819993202574e-06 3.708927247396e-03 0.0 
0.0 0.0 -6.044444444444e-04 
-7.079394544223e-04 1.566312145644e-04 0.0 
1.566312145644e-04 3.702391321003e-03 0.0 
0.0 0.0 -6.044444444444e-04 
-6.923166146099e-04 7.612225445440e-06 0.0 
7.612225445440e-06 4.017109289765e-03 0.0 
0.0 0.0 -5.822222222222e-04 
-7.279989213735e-04 2.036390614473e-05 0.0 
2.036390614473e-05 3.710913040149e-03 0.0 
0.0 0.0 -6.044444444444e-04 
-7.005874011261e-04 1.845814163449e-05 0.0 
1.845814163449e-05 4.020938657480e-03 0.0 
0.0 0.0 -5.822222222222e-04 
-7.354917532623e-04 2.057235382585e-05 0.0 
2.057235382585e-05 3.711839010969e-03 0.0 
0.0 0.0 -6.044444444444e-04 
-7.059732588437e-04 2.754521474697e-05 0.0 
2.754521474697e-05 4.015383430286e-03 0.0 
0.0 0.0 -5.822222222222e-04 
-7.002855080047e-04 1.990014593216e-04 0.0 
1.990014593216e-04 3.872918840521e-03 0.0 
0.0 0.0 -6.026870748299e-04 
-7.379521818036e-04 3.377279504907e-05 0.0 
3.377279504907e-05 3.707685656258e-03 0.0 
0.0 0.0 -6.044444444444e-04 
-7.121071295194e-04 4.529492266530e-05 0.0 
4.529492266530e-05 4.010298093341e-03 0.0 
0.0 0.0 -5.822222222222e-04 
-7.201910256190e-04 6.322353710792e-05 0.0 
6.322353710792e-05 4.009272868238e-03 0.0 
0.0 0.0 -5.822222222222e-04 
-7.467651792935e-04 5.478281511635e-05 0.0 
5.478281511635e-05 3.704632746345e-03 0.0 
0.0 0.0 -6.044444444444e-04 
-7.155345414404e-04 9.941872455418e-05 0.0 
9.941872455418e-05 3.968551508246e-03 0.0 
0.0 0.0 -5.822222222222e-04 
-7.657386443158e-04 4.703626451468e-05 0.0 
4.703626451468e-05 3.695451234596e-03 0.0 
0.0 0.0 -6.044444444444e-04 
-7.465034792929e-04 1.491483542401e-04 0.0 
1.491483542401e-04 4.023442400313e-03 0.0 
0.0 0.0 -5.822222222222e-04 
-7.198395015582e-04 1.725743928124e-04 0.0 
1.725743928124e-04 3.686227600280e-03 0.0 
0.0 0.0 -6.044444444444e-04 
-6.565140853496e-04 1.301780499699e-04 0.0 
1.301780499699e-04 3.583317050774e-03 0.0 
0.0 0.0 -5.804648526077e-04 
-6.267004692735e-04 -3.600267132829e-04 0.0 
-3.600267132829e-04 3.813319755553e-03 0.0 
0.0 0.0 -5.933333333333e-04 
-7.431964593305e-04 3.646450588748e-04 0.0 
3.646450588748e-04 4.021679577105e-03 0.0 
0.0 0.0 -5.933333333333e-04 
-6.628422468428e-04 -3.292224140382e-05 0.0 
-3.292224140382e-05 3.861928425764e-03 0.0 
0.0 0.0 -5.711111111111e-04 
-7.088162572225e-04 5.311123185713e-05 0.0 
5.311123185713e-05 3.959617699405e-03 0.0 
0.0 0.0 -6.155555555556e-04 
-6.769114540080e-04 1.825624503540e-04 0.0 
1.825624503540e-04 3.695515009073e-03 0.0 
0.0 0.0 -5.711111111111e-04 
-7.565067891625e-04 -1.155535297541e-04 0.0 
-1.155535297541e-04 4.407218847534e-03 0.0 
0.0 0.0 -6.488888888889e-04 
-7.530504053033e-04 -7.571813069496e-06 0.0 
-7.571813069496e-06 4.174991140514e-03 0.0 
0.0 0.0 -6.711111111111e-04 
-7.399837968145e-04 -1.387977928634e-05 0.0 
-1.387977928634e-05 4.486504988785e-03 0.0 
0.0 0.0 -6.488888888889e-04 
-7.729838338639e-04 -1.329064737435e-05 0.0 
-1.329064737435e-05 4.184890785187e-03 0.0 
0.0 0.0 -6.711111111111e-04 
-7.413687643813e-04 -3.949381470416e-07 0.0 
-3.949381470416e-07 4.494790911899e-03 0.0 
0.0 0.0 -6.488888888889e-04 
-7.742938489980e-04 3.545636067961e-06 0.0 
3.545636067961e-06 4.195489456373e-03 0.0 
0.0 0.0 -6.711111111111e-04 
-7.475947728547e-04 -1.447276125001e-05 0.0 
-1.447276125001e-05 4.508658415556e-03 0.0 
0.0 0.0 -6.488888888889e-04 
-7.647771457920e-04 -2.472289036545e-05 0.0 
-2.472289036545e-05 4.185138013304e-03 0.0 
0.0 0.0 -6.711111111111e-04 
-7.436934071060e-04 3.939866511849e-06 0.0 
3.939866511849e-06 4.492058634297e-03 0.0 
0.0 0.0 -6.488888888889e-04 
-7.721102977711e-04 1.191369759528e-05 0.0 
1.191369759528e-05 4.191715436034e-03 0.0 
0.0 0.0 -6.711111111111e-04 
-7.515020125074e-04 1.948179168996e-06 0.0 
1.948179168996e-06 4.504635429055e-03 0.0 
0.0 0.0 -6.488888888889e-04 
-7.788311265265e-04 -5.657460917598e-06 0.0 
-5.657460917598e-06 4.190705067530e-03 0.0 
0.0 0.0 -6.711111111111e-04 
-8.662964799625e-04 -2.454914467333e-05 0.0 
-2.454914467333e-05 4.459732268515e-03 0.0 
0.0 0.0 -6.580807474504e-04 
-7.520565303110e-04 1.109064528774e-05 0.0 
1.109064528774e-05 4.498175075181e-03 0.0 
0.0 0.0 -6.488888888889e-04 
-8.155020730708e-04 1.528373870012e-04 0.0 
1.528373870012e-04 4.186625771973e-03 0.0 
0.0 0.0 -6.711111111111e-04 
-7.586605293786e-04 2.791301751342e-05 0.0 
2.791301751342e-05 4.190794983268e-03 0.0 
0.0 0.0 -6.711111111111e-04 
-7.622973061150e-04 1.699730231297e-05 0.0 
1.699730231297e-05 4.505906138033e-03 0.0 
0.0 0.0 -6.488888888889e-04 
-7.955711925846e-04 8.033031112465e-08 0.0 
8.033031112465e-08 4.188331241414e-03 0.0 
0.0 0.0 -6.711111111111e-04 
-7.623227638377e-04 3.400576865185e-05 0.0 
3.400576865185e-05 4.489689491926e-03 0.0 
0.0 0.0 -6.488888888889e-04 
-8.006770446683e-04 3.868285750203e-05 0.0 
3.868285750203e-05 4.189917974469e-03 0.0 
0.0 0.0 -6.711111111111e-04 
-7.724433658179e-04 4.171040082635e-05 0.0 
4.171040082635e-05 4.499618609463e-03 0.0 
0.0 0.0 -6.488888888889e-04 
-7.971982277132e-04 4.334547048389e-05 0.0 
4.334547048389e-05 4.190772542348e-03 0.0 
0.0 0.0 -6.711111111111e-04 
-7.512535823419e-04 1.572109300169e-04 0.0 
1.572109300169e-04 4.272969555894e-03 0.0 
0.0 0.0 -6.358585252281e-04 
-7.799361977067e-04 4.942380984451e-05 0.0 
4.942380984451e-05 4.500436321571e-03 0.0 
0.0 0.0 -6.488888888889e-04 
-8.019717863413e-04 4.151088876834e-05 0.0 
4.151088876834e-05 4.184126944351e-03 0.0 
0.0 0.0 -6.711111111111e-04 
-7.823966262481e-04 7.184392993936e-05 0.0 
7.184392993936e-05 4.484862014071e-03 0.0 
0.0 0.0 -6.488888888889e-04 
-8.006840076862e-04 7.791811278218e-05 0.0 
7.791811278218e-05 4.176001510023e-03 0.0 
0.0 0.0 -6.711111111111e-04 
-8.039640851074e-04 1.263508000003e-04 0.0 
1.263508000003e-04 4.174705869658e-03 0.0 
0.0 0.0 -6.711111111111e-04 
-7.912096237380e-04 1.071509718730e-04 0.0 
1.071509718730e-04 4.477799006040e-03 0.0 
0.0 0.0 -6.488888888889e-04 
-8.101830887602e-04 1.288493200629e-04 0.0 
1.288493200629e-04 4.489610393156e-03 0.0 
0.0 0.0 -6.488888888889e-04 
-7.617757652904e-04 1.684528749010e-04 0.0 
1.684528749010e-04 4.355354044839e-03 0.0 
0.0 0.0 -6.691918585615e-04 
-7.171747419539e-04 1.190543822742e-04 0.0 
1.190543822742e-04 4.056731334660e-03 0.0 
0.0 0.0 -6.469696363393e-04 
-8.025731129306e-04 -3.241456630719e-04 0.0 
-3.241456630719e-04 4.358910586267e-03 0.0 
0.0 0.0 -6.600000000000e-04 
-7.344440083408e-04 3.911518351984e-04 0.0 
3.911518351984e-04 4.236731495882e-03 0.0 
0.0 0.0 -6.600000000000e-04 
-8.045282767906e-04 1.783825891024e-05 0.0 
1.783825891024e-05 4.360632635982e-03 0.0 
0.0 0.0 -6.822222222222e-04 
-7.310384794447e-04 6.338117589491e-05 0.0 
6.338117589491e-05 4.247438367621e-03 0.0 
0.0 0.0 -6.377777777778e-04 
-7.412727877556e-04 1.381235162240e-04 0.0 
1.381235162240e-04 4.183483937710e-03 0.0 
0.0 0.0 -6.377777777778e-04 

SCALARS element_materi_plasti_kappa_shear float
LOOKUP_TABLE default
2.048251484052e-03
1.753493670412e-03
5.503175940454e-03
5.633931869583e-03
3.565227349428e-03
4.312193749308e-04
3.536826958687e-03
1.942063469917e-03
3.582504689508e-03
5.588174946625e-03
3.844209359202e-03
1.631469581520e-03
5.512057153720e-03
3.809200862045e-03
5.604521952288e-03
5.734301458091e-03
3.547028291065e-03
0.0
1.240065727301e-03
1.171297693899e-03
5.622446392520e-03
2.066758337528e-03
2.250687853245e-03
4.978061567755e-03
4.048291547957e-03
4.106723662793e-03
3.275000549148e-03
5.494131578830e-03
4.059702375831e-03
5.136982028010e-03
1.134770329222e-03
3.832632936293e-04
5.695120532744e-03
4.786861567557e-03
5.372391993924e-03
5.735141668293e-03
5.753517229623e-03
5.201200685639e-03
3.236338684528e-03
3.281036968799e-03
2.549446708275e-03
5.321786045187e-03
1.684174276636e-03
3.149604634892e-03
5.511212370387e-03
1.565690788834e-03
3.220151479938e-04
5.403179619290e-03
4.290285994591e-06
3.669652725762e-03
2.409350294786e-03
1.545192749097e-03
1.201581906209e-03
2.359715905779e-03
5.581390730101e-03
2.049040073899e-03
1.507776831990e-03
4.806180650684e-03
9.040347839122e-04
5.734539432203e-03
0.0
5.036447355686e-03
2.389363153128e-03
1.200719454992e-03
5.502622384469e-03
2.208078500699e-03
0.0
5.645939813078e-03
1.388688876148e-03
5.450080675048e-03
4.240450452081e-03
5.844447616816e-03
5.127619557211e-03
3.940968838014e-04
2.067872878458e-03
5.628694369718e-03
5.723406412390e-03
1.349407449673e-03
8.084468878613e-04
1.429030436915e-03
1.215963319167e-03
3.393097464491e-03
2.129508046084e-03
1.864830702236e-03
3.733526205207e-03
3.714125906962e-03
4.361075697200e-03
4.690746124938e-03
4.783172209268e-03
3.514212606547e-03
2.589608648574e-04
3.431550400288e-03
4.721859888672e-03
4.746077057757e-03
5.997543046696e-03
5.411150761547e-03
3.393913313148e-03
5.491004293201e-03
3.985594967259e-03
2.258571385844e-03
3.410992711845e-03
5.611034212900e-03
4.179507938013e-03
5.032886742806e-03
2.003062331599e-03
8.956760759699e-04
5.221382607798e-03
5.045193140480e-03
2.261908350145e-04
5.486842463624e-03
4.573653062054e-03
3.479980613032e-04
2.502076270832e-03
3.167763418157e-03
2.487000496226e-03
2.126059688753e-03
2.273861626040e-03
5.451016480833e-03
3.919789090778e-03
2.281181173819e-03
1.213076248653e-03
3.513689619667e-03
4.941959880695e-03
2.106608397091e-03
9.726897685994e-04
2.859921274722e-03
2.565005698292e-03
2.680460766149e-03
5.737782286007e-03
9.785758943601e-04
4.027728111069e-03
5.636355074510e-03
2.835365156538e-03
2.709046400113e-03
5.353249069116e-03
5.532349028915e-03
4.348743351020e-03
2.978900291729e-03
5.411429688504e-03
2.744221608962e-03
5.616125922486e-03
5.613692443859e-03
3.766204035722e-03
4.391065799997e-03
2.718404295077e-03
2.533253388883e-03
3.087137023846e-03
2.200470782986e-03
3.492820352654e-03
2.363376362537e-03
2.621382727248e-04
3.747049311015e-03
8.605114628174e-04
3.020514546332e-03
5.290806449770e-03
2.186313469297e-03
4.518027699077e-03
1.606142966517e-03
4.209701847449e-03
3.408465456370e-03
2.321856290079e-03
4.941287181334e-03
1.029170670083e-03
5.207270841350e-03
3.386399557435e-03
5.629077659096e-03
3.402534046100e-03
2.143777464895e-03
2.980585492464e-03
3.978529564445e-03
1.797981043136e-03
2.131947395522e-03
4.565545625096e-03
3.526561441315e-03
2.292273163024e-03
2.831954602171e-03
4.902639283245e-03
2.846109516762e-03
5.344131269157e-03
5.581762834167e-03
2.045482988632e-03
2.739998364567e-03
4.670836610536e-03
2.636378907130e-03
1.901753547338e-03
3.276383508295e-03
2.394214224877e-03
5.640432630144e-03
4.649191975422e-03
5.084010659974e-03
1.450852845402e-03
1.891185196908e-03
4.756649167095e-03
0.0
2.645910748192e-03
4.353987082835e-03
6.693198157630e-04
5.577145383260e-03
4.311674069402e-03
2.424063329831e-03
4.308254875087e-03
3.768016172911e-03
3.975429040763e-03
5.123403257528e-03
1.968551576487e-03
3.168679698929e-03
3.489417411141e-03
4.497775965736e-03
3.554143506731e-03
3.272990497602e-03
3.636148199777e-03
4.777873359821e-03
0.0
2.054332000673e-03
2.292338041600e-03
3.059823040950e-03
4.848669964181e-03
7.411939793981e-04
4.203239612195e-03
3.403528574950e-03
2.120618832016e-03
4.069098148087e-03
4.246264766717e-04
4.599464078276e-03
3.476148306084e-04
5.410341703710e-04
1.592193211171e-03
1.719248331945e-03
4.782293510667e-03
1.815734887217e-03
1.844404593867e-03
1.618505664870e-03
1.146822852731e-03
4.464359441945e-03
3.377702223347e-03
5.506088258921e-03
0.0
2.009805297429e-03
2.302243100894e-03
2.481153461484e-03
4.143768537590e-03
5.606441244158e-03
4.559795208237e-03
1.455328493326e-03
4.488396010045e-03
4.213382192652e-03
3.236971907541e-03
4.423237357451e-03
5.173514376653e-03
2.134179776736e-03
1.811135889082e-03
3.825403090103e-03
5.999008670889e-03
3.128792099484e-03
2.778892560238e-03
3.812433277429e-03
1.356034459876e-03
3.547869395678e-03
1.821956586395e-03
1.071898620409e-03
6.878759182499e-04
4.770342255613e-03
3.657761913000e-03
2.301185800403e-03
4.951131887675e-03
4.665409177491e-03
3.411799966359e-03
5.452188912108e-03
2.908585602061e-03
3.583300261965e-03
2.605219249823e-03
3.100950466365e-03
1.347698524684e-03
3.414342947476e-03
2.155049212513e-03
1.385737165103e-03
4.542488046730e-03
0.0
3.716563633638e-03
1.636449720064e-03
1.774524551335e-03
8.033729531877e-04
3.926631031118e-03
7.929613934373e-04
2.439400741018e-03
3.230296274809e-03
3.653257839111e-03
3.792551444783e-03
3.394897168044e-04
9.779464977480e-04
1.639638944485e-03
2.170597973029e-03
4.441924025952e-03
2.403845489855e-03
2.012179680430e-03
2.055407645936e-03
5.690441180567e-04
2.724975474439e-03
1.566269675286e-03
5.958720739140e-03
5.939193914372e-03
3.244445123059e-03
1.612814842720e-03
1.675996184199e-03
3.688319290740e-03
1.425607672630e-03
1.036406456605e-03
3.253099720127e-03
5.778400585500e-03
1.895871873376e-03
3.666527252036e-03
1.635469508028e-03
5.660443835014e-03
1.865154342382e-03
3.342266076335e-03
6.537557986608e-04
3.435463054255e-03
2.276354288028e-03
1.404210939028e-03
3.486331641573e-03
5.890375541845e-03
1.783256592408e-03
3.221814678744e-03
1.690872941280e-03
4.262668196764e-03
3.989554513863e-03
1.870987437432e-03
4.157903845114e-03
5.833143474624e-03
4.319705339619e-03
5.914245466119e-03
4.107732014025e-03
4.587246752330e-03
1.718940221779e-03
3.216971996294e-03
3.590070658515e-03
3.756282744682e-03
2.945710028404e-03
5.788099092437e-03
3.944002213719e-03
3.448909530710e-03
1.863265499764e-03
1.455277505311e-03
3.108638757878e-03
2.053960887931e-03
3.540174196265e-03
1.877423184664e-03
1.615583361797e-03
4.717172209803e-03
1.879339039984e-03
3.325468032698e-03
3.338062058546e-03
3.118061036031e-03
5.704944762881e-03
2.801276760200e-03
7.929235320681e-04
2.475643465383e-03
1.888885188254e-03
2.000012791094e-03
4.954048188006e-03
3.495259464146e-03
2.461309541375e-03
3.062435080318e-03
5.651875251926e-03
5.274977967438e-03
4.935750800823e-03
4.617112825186e-03
3.065607714073e-03
2.469090313365e-03
1.133689513580e-03
1.302424423879e-03
3.315397022365e-03
3.332601828915e-03
2.997347446124e-03
5.010744987465e-03
1.001431061527e-03
2.758819764694e-03
3.419306053386e-03
2.519448693487e-03
5.922741708314e-03
5.955236189705e-03
5.576307705796e-03
3.343577244616e-03
4.936203495640e-03
1.952709186338e-03
1.572206337786e-03
8.348386301078e-04
2.556685105345e-03
3.397790353165e-03
4.097341444589e-03
5.360765443340e-03
4.855340331116e-03
3.816589750238e-03
3.860243568889e-03
1.042497557085e-03
9.358115372942e-04
2.519797185523e-03
3.004979550758e-03
2.619929927174e-03
9.216036177596e-04
3.654326841485e-03
1.535889856870e-03
1.965274985910e-03
5.542217875605e-03
3.765591558978e-03
3.443419406157e-03
9.148022967595e-04
3.000502477848e-03
2.382905503139e-03
3.927650911988e-03
5.879566310260e-03
3.223720713770e-03
3.674901719203e-03
2.887355925381e-03
4.891146742092e-03
3.418978839809e-03
5.856068981647e-03
5.774980459743e-03
5.817447372982e-03
5.770330115021e-03
4.031402203216e-03
4.901935106937e-03
5.053219238746e-03
2.608302338338e-03
2.534090737438e-03
2.864377718296e-03
5.021604322951e-03
5.804877108405e-03
5.054229152364e-03
3.432032663523e-03
5.068372728808e-03
4.092526629085e-03
2.882253780089e-03
2.587573265554e-03
1.635529725768e-03
5.632439227330e-03
2.459501711046e-03
5.142282866551e-03
2.763464966764e-03
2.028101785968e-03
5.246511047736e-03
2.055425638514e-03
5.758655944435e-03
5.581996474530e-03
3.601464432629e-03
2.874317802878e-04
5.722474487266e-03
5.230794359339e-03
1.560316552400e-03
3.558601806016e-03
5.699626342238e-03
0.0
2.660857434825e-03
3.779907730678e-03
3.423227498078e-03
3.515796245568e-03
1.920364726314e-03
5.673636790495e-03
1.884624729070e-03
1.324523675438e-04
5.578498981548e-03
5.002872014388e-04
2.903489307071e-03
7.102088304152e-04
3.105385424469e-03
5.637939698663e-03
5.643493109987e-03
3.759896198982e-03
6.466604743843e-04
2.581016059903e-06
1.306561031608e-03
4.781936084338e-03
3.544667014514e-03
3.591768567502e-03
5.600982036969e-03
3.550458207037e-03
5.978204257671e-03
4.194064998041e-03
3.966369650588e-03
2.069110227023e-03
3.555873876722e-03
1.287977702152e-03
5.563443599679e-03
5.770828452205e-03
5.803925315002e-03
3.535689664887e-03
2.718540240995e-03
2.810036151372e-03
3.607200195359e-03
5.538358032675e-03
1.640374573165e-03
1.295740147429e-03
1.612091026105e-03
4.134625190794e-03
5.683102620147e-03
9.751937677048e-04
5.520122581297e-03
1.677390207142e-03
5.751046272795e-03
5.068488904679e-03
5.986160827208e-04
2.695519082935e-03
5.116907936890e-03
5.706785168037e-03
4.029434435152e-03
4.284615340903e-03
1.266337359964e-03
4.952953356985e-03
1.912176692629e-03
1.970550124934e-03
6.041211163241e-04
5.656733513692e-03
1.182133657821e-03
4.542952953280e-03
3.833323984522e-03
2.139158319596e-03
1.714726693588e-03
3.853402172132e-03
5.579172664692e-03
2.774393020232e-03
3.942313972036e-03
3.310099650091e-03
3.368941039505e-03
1.606723124076e-03
3.637032700867e-03
3.197994162511e-03
4.208731222359e-03
3.883013032915e-03
3.120071939876e-03
2.732828783826e-03
1.823514764933e-03
2.627670573605e-03
4.181475254094e-03
3.004073412555e-03
5.656674172997e-03
5.232907453581e-03
1.823811427345e-03
5.507514049442e-03
5.342333532244e-03
2.747952667688e-03
4.382088383837e-04
5.694608369003e-03
5.185125812822e-03
1.765229900576e-03
5.538258443366e-03
3.827720443377e-03
2.679180912128e-03
3.704599732640e-03
2.883358424601e-03
3.255701293151e-03
3.509234741566e-03
4.329946724555e-03
2.998532943868e-03
4.098742247155e-03
4.047052255275e-03
2.859932710936e-03
3.672333583242e-03
2.211642543694e-03
3.881327088903e-03
2.317754686702e-04
2.007422663305e-03
2.062503183499e-03
3.040900024033e-03
2.964066277893e-03
3.726763647670e-03
4.021852142269e-03
2.125448120930e-03
5.567560434823e-03
3.763638072718e-03
3.188675817690e-03
3.577463415310e-03
3.136039882304e-03
0.0
3.881554513065e-03
2.640906468370e-03
1.601175916693e-04
3.049084665278e-03
4.039018151325e-03
5.107511769800e-03
3.179382722343e-03
3.272183804054e-03
3.333812579699e-03
3.138774507408e-03
5.602858950170e-03
3.388266387592e-03
4.889835681516e-04
1.262830355438e-03
3.403732711760e-04
2.039797041705e-03
4.886593675055e-03
5.135074580473e-03
4.569733804699e-03
2.205347307067e-03
3.963428270317e-03
4.644691033612e-03
4.480010223363e-04
2.667099209261e-03
2.160248377513e-03
5.721042981994e-03
5.580105102775e-03
2.939481999310e-03
3.271315706566e-03
3.310083848978e-03
4.812160421875e-03
1.230172725071e-03
4.495251994924e-03
6.428633528680e-04
2.999374668151e-03
3.265631012540e-03
2.192679874259e-04
2.777613716051e-03
5.213183738870e-03
4.661553375830e-04
3.125223871850e-03
3.264611202798e-03
3.668691180679e-03
2.191299816666e-03
1.929490898902e-03
1.801992614561e-03
5.021357309615e-03
5.413378247578e-03
4.938730896674e-03
1.962629389648e-03
7.396549693111e-04
3.052559415623e-03
3.136955965337e-03
3.283077438816e-03
1.598687307509e-04
2.193472717883e-04
5.176799582362e-04
1.646399827615e-03
4.476010659487e-04
3.103497725519e-03
0.0
1.933359932912e-03
4.174873570305e-03
3.277162825819e-03
5.055738530347e-03
3.910516641519e-03
3.910699350519e-03
2.335203039295e-03
6.321407009922e-04
5.850638891353e-03
6.009929428425e-03
3.804106063636e-03
3.142498704503e-03
2.378074668671e-03
6.000434500276e-03
1.932646254916e-03
3.261134435714e-03
3.129035808385e-03
2.954670140417e-03
5.838142907149e-03
5.995969196951e-03
4.354125543212e-04
1.813212541407e-04
9.186762200650e-04
3.162862848184e-03
5.377931686408e-03
0.0
4.886021985717e-03
0.0
3.610910406558e-03
3.669816600871e-04
9.031669178811e-05
3.461382625694e-03
5.195804270535e-03
4.290192669085e-03
3.148248508174e-03
2.197475915269e-04
4.109795966881e-03
5.851848957564e-03
6.003781657386e-03
3.276367122740e-03
3.775548124396e-03
5.863438389457e-03
4.268339267121e-03
6.020741917649e-04
4.453789533022e-04
2.347376138707e-04
2.636386499780e-03
5.872831094669e-03
5.638106297545e-03
1.897411018069e-04
3.087998710897e-03
5.740465009782e-03
5.879140074132e-03
5.731117611362e-03
4.595061384764e-03
5.043133831470e-03
5.707378045359e-03
5.713124045283e-03
4.886059613206e-03
4.831364360602e-04
3.253485872106e-03
3.293767224568e-03
1.826916767147e-04
5.690406926254e-03
5.768685902519e-03
5.617484584069e-03
4.524110312699e-04
4.596449148217e-04
5.588283914655e-03
5.603110956582e-03
4.452788727497e-03
3.251601896083e-03
4.737759423841e-03
3.834702661819e-03
3.246459497800e-03
5.228246461019e-04
4.912700086981e-04
4.440043287774e-04
5.321378525866e-04
3.250169139528e-03
2.937145446359e-03
0.0
4.118703550062e-03
0.0
5.832195033359e-03
5.846499430745e-03
5.850716816551e-03
1.037380994288e-03
2.016748291347e-03
5.852662976723e-03
4.973191529565e-03
5.880964851940e-03
5.257570989653e-03
5.538666694917e-03
2.787880833422e-03
6.016271676808e-03
6.012463975420e-03
5.083244388473e-03
5.379690173722e-03
4.387421699504e-03
0.0
2.857162677749e-03
4.252814149356e-04
5.079913712272e-03
2.910266083999e-03
4.760106554014e-03
1.643649883448e-03
5.383120855226e-04
5.098955867833e-03
3.125495581336e-03
2.489884669676e-03
4.818967528395e-03
5.278656552725e-03
2.495305030192e-03
4.255398696545e-03
3.844899893988e-03
4.331079183945e-03
4.483284984887e-03
1.722961733981e-03
2.890176896868e-03
2.847631786202e-03
4.036906121347e-03
4.963877593991e-03
4.634026856991e-03
1.657361628813e-03
5.268660436221e-03
4.977116357189e-03
3.619668627054e-03
4.170717328187e-03
4.186883659402e-03
5.342654512254e-03
5.152017188017e-03
3.775019514809e-03
5.233037882857e-03
4.914729909785e-03
4.640974992131e-03
5.247897151359e-03
5.303240859678e-03
4.541244193091e-03
4.128098936937e-03
1.538774070067e-03
1.637170348017e-03
8.927698521496e-04
6.525183474627e-04
5.158931490191e-03
5.044076979222e-03
5.868956833529e-04
5.121589647054e-03
3.733179451095e-03
4.678226682694e-03
4.762287906690e-03
2.074136809097e-03
4.809627862755e-03
3.622602601676e-03
3.895447150765e-03
5.345962366384e-03
1.472811966339e-03
5.235843009349e-03
4.707105507548e-03
1.674998648871e-03
1.997272543898e-03
3.477442011437e-03
4.193455430159e-03
2.343630985594e-03
4.867641149368e-03
4.387482060233e-03
3.338211884839e-03
4.524321097962e-03
4.677832988922e-03
4.679006337696e-03
1.339663578638e-03
3.198638979897e-03
4.633717260275e-03
4.840387351562e-03
2.897016443790e-03
3.936845676204e-03
5.082736818756e-03
4.511744960806e-03
3.674133562234e-05
7.677090780190e-04
5.119753373391e-04
4.910516809545e-03
4.354991661180e-03
3.826914815962e-03
3.891439679493e-03
4.711856603341e-03
3.483739004670e-03
4.620031677450e-03
1.591598461033e-03
5.218249190632e-03
3.412412426767e-03
1.736686848489e-03
3.262202328444e-03
2.478917580480e-03
2.035103586398e-03
3.755154455874e-03
1.564516804578e-04
1.127981756129e-04
4.252374733298e-03
1.464746990371e-03
4.246030270520e-03
4.094375942875e-03
2.616673579752e-03
1.812766898726e-03
5.102254688752e-03
3.465488540583e-04
2.625027282395e-03
4.837002714089e-03
1.192572476611e-03
4.082383260840e-03
3.767466409166e-03
1.326156531730e-03
4.910591653427e-03
4.645125771511e-03
1.410538395916e-03
5.226535373693e-03
5.199234746316e-03
1.660825990561e-03
2.070362284012e-03
1.741360747490e-03
4.534233564243e-03
3.626195608604e-03
5.169455195403e-03
5.078103462266e-03
4.392922361779e-03
4.325015664707e-03
1.344427675979e-03
4.473065100284e-03
4.621187335039e-03
3.681381110048e-03
4.381240135388e-03
4.808400950473e-03
2.590644772933e-03
4.947620929573e-03
3.085734269789e-03
3.550246213813e-03
2.335827574008e-03
2.490782004144e-03
4.488879741826e-03
3.165999505287e-03
1.852051741299e-03
9.795830009428e-04
4.513242120104e-03
1.766306002376e-03
5.166203144739e-03
4.649805208552e-03
4.614388070238e-03
5.225667178668e-03
2.979037457551e-03
1.585841628710e-03
1.011992460365e-03
4.379665078225e-03
4.223445145250e-03
6.765581779648e-04
2.432707948999e-03
1.398956561073e-03
4.216513153533e-03
2.555838114567e-03
4.011146820245e-03
2.390150431536e-03
5.006027676208e-03
2.059652164516e-03
4.350001019912e-03
1.794811250637e-03
4.222069039724e-03
3.406036415107e-03
4.462021920913e-03
1.339917336666e-03
1.350299010952e-03
3.939048831294e-03
3.691324572910e-03
2.830557802011e-03
4.239747352825e-03
1.991260803131e-03
4.297758287115e-03
1.272590086592e-03
4.947061823839e-03
3.839114394118e-03
4.100469873386e-03
5.406352818554e-03
3.435279919526e-03
1.276251192001e-03
3.890812531652e-03
5.018055530162e-03
2.209550982896e-03
4.531906710769e-03
4.676467859059e-03
1.712191406574e-03
4.059355262125e-03
3.877866350654e-03
1.909658390552e-03
2.315039142321e-03
3.261954618660e-03
4.303145841247e-03
2.635421671348e-03
3.059028444222e-03
4.459399445595e-03
4.056901073063e-03
3.999117941319e-03
3.350783493908e-03
4.741842824469e-03
3.716486713275e-03
3.922920566098e-03
5.252343855285e-03
4.304735037625e-03
4.138095280470e-03
4.783696522489e-03
2.607621039471e-03
2.469838949813e-03
1.432823964346e-03
4.007204605408e-03
2.590823974833e-03
4.347452842024e-03
4.183394403681e-03
2.669547662572e-03
2.085784252471e-03
1.474019061621e-03
2.212107321881e-03
2.350809507915e-03
1.463075537230e-03
4.569504511566e-03
2.669001313969e-03
4.972812165115e-03
2.750604982809e-03
3.790160523716e-03
3.207941504412e-03
2.889645016640e-03
1.541106990513e-03
4.841361927258e-03
5.091339779464e-03
4.032052527629e-03
2.472525954974e-03
3.495149155929e-03
4.324118500003e-03
2.732643322525e-03
2.578422691737e-03
2.150698556139e-03
2.106845042594e-03
2.726649439388e-03
1.894721435353e-03
1.784390543315e-03
3.334917325845e-03
3.967235808941e-03
4.797201624805e-03
4.779022984785e-04
2.400918837851e-03
2.556449603619e-03
2.577694805080e-03
4.159825931864e-03
2.931072335017e-03
2.192293877224e-03
2.827325159198e-03
4.815904702500e-03
2.276675714296e-03
8.000720813987e-04
1.154840506689e-03
1.907795704096e-03
2.221538328191e-03
2.622719745119e-03
2.913483858148e-03
1.764083930753e-03
1.225103944880e-03
3.978408581491e-03
1.973233867528e-03
4.352924711069e-03
4.600918209764e-03
3.992519858041e-03
5.014455028265e-03
4.977573847805e-03
2.548565445421e-03
4.312209701199e-03
1.977881610171e-03
2.972886214248e-03
2.522487306746e-03
1.343329153242e-03
1.686644144900e-03
2.487335316614e-03
2.744769011227e-03
2.804656212940e-03
2.029273826370e-03
3.023258905964e-03
2.603498899914e-03
2.484258941744e-03
2.359041018273e-03
3.843548607210e-03
4.482822863784e-03
2.260889845850e-03
4.670023540639e-03
2.097337949930e-03
5.002347225511e-03
2.827679967364e-03
5.203491602561e-03
3.947077556837e-03
1.774963125665e-03
4.099246498151e-03
5.100371074435e-03
2.915547663855e-03
2.161634842982e-03
4.202460859535e-03
3.063723291001e-03
1.589122566935e-03
5.594818322494e-03
1.323577671794e-03
4.905374215111e-03
5.240056690777e-03
4.004250475148e-03
4.022036132739e-03
4.908739948371e-03
2.656489500895e-03
3.014023661640e-03
5.295279977407e-03
4.266560699203e-03
4.614700973159e-03
3.798037729663e-03
1.755388368310e-03
4.742604083367e-03
5.518069405150e-03
5.004957839638e-03
2.836493463262e-03
4.042556476747e-03
3.862526569830e-03
2.990307102709e-03
4.091149418794e-03
4.218450148723e-03
1.096098833511e-03
1.326857373094e-03
2.403878583947e-03
2.433427464003e-03
2.925956778214e-03
5.469614393342e-03
5.117047102826e-03
5.259865256129e-03
2.804866215072e-03
4.812380906171e-03
4.181034339560e-03
5.346185944049e-03
4.575117160927e-03
3.073764877658e-03
2.227900412936e-03
4.723026116701e-03
5.199457669429e-03
4.754736712479e-03
4.593382364392e-03
4.706207203460e-03
4.760938801400e-03
4.529156841862e-03
3.673004527565e-03
2.793183285108e-03
4.176641122849e-03
4.482872570103e-03
1.720752477746e-03
2.523073950019e-03
2.936964334964e-03
3.355527503238e-03
6.764221038374e-04
2.312131514981e-03
3.694823953479e-03
3.162738673778e-03
3.106094428709e-03
4.275586722866e-03
3.420444478414e-03
8.056313501550e-04
3.608028323112e-03
4.113825723424e-03
5.289575565494e-03
2.786040332148e-03
3.385556211389e-03
4.320502265356e-03
1.220460717409e-03
3.955179298540e-03
3.165570628649e-03
3.317308554295e-03
4.304146306300e-03
1.881742204703e-03
4.432932293431e-03
4.823215265074e-03
3.806542070162e-03
4.778108728743e-03
4.481570645652e-03
4.886746565618e-03
1.498086320626e-03
4.448193879400e-03
4.826216477314e-03
4.887560636574e-03
3.468158111994e-03
2.473653699252e-03
3.471604947544e-03
3.515654411098e-04
5.048129172683e-03
1.854985291829e-03
1.640845901064e-03
4.384273219759e-03
5.379705512614e-03
1.962931709496e-03
3.460402464098e-03
4.556944250926e-03
3.383719843055e-03
1.271639043889e-03
2.155596217495e-03
1.530379692595e-03
1.562946298421e-03
1.725992673060e-03
3.128123404018e-03
5.978757202265e-03
1.878932715142e-03
4.874265144995e-03
2.021312508689e-03
4.410645559788e-03
5.446402050903e-04
5.032053835528e-03
1.857540691758e-03
2.167450437020e-03
4.007316872521e-03
2.865792508923e-03
4.633094935503e-03
2.352487737097e-03
4.663962013380e-03
4.869204411424e-03
4.429689118342e-03
5.301599282418e-03
4.867555126114e-03
4.994292368552e-03
1.585731642834e-03
4.731482311295e-03
4.686031286375e-03
2.832067385881e-03
2.158927091379e-03
5.079003029780e-03
9.596911832810e-04
2.094098399874e-03
4.422688948064e-03
1.248071604353e-03
3.111224166074e-03
4.143397073039e-03
5.269510986050e-03
5.404504160547e-03
4.032131518506e-03
5.035214563043e-03
2.288963266599e-03
4.497236254835e-03
2.449891336582e-03
5.141368132138e-03
2.751749660152e-03
2.878729614698e-03
2.670941398415e-03
3.064327322831e-03
3.458691017845e-03
2.658280149013e-03
2.653753714281e-03
9.811593336372e-04
2.441082358799e-03
5.179437752949e-03
5.268578940823e-03
4.434728242993e-03
4.747389467129e-03
2.702179599475e-03
4.975773677779e-03
2.582283479392e-03
4.888861475010e-03
4.848446586374e-03
4.829227704648e-03
3.615324373437e-03
2.341624150185e-03
4.784583869030e-03
3.957491419921e-03
1.700601644229e-03
7.020950745825e-04
2.481218771102e-03
3.497363371298e-03
5.046415826891e-03
4.704605430921e-03
2.322695645322e-03
3.926363227239e-03
4.300034730448e-03
5.071297943610e-03
4.988482903574e-03
4.232489050894e-03
4.476485377380e-03
2.821806331728e-03
4.336206174646e-03
3.171626869689e-03
5.322298740710e-03
5.194634648291e-03
3.273686732189e-03
5.984151931342e-04
4.585743008913e-03
3.386888275758e-03
2.214504551746e-03
3.505745048799e-03
4.392421827443e-03
8.649412715447e-04
2.929672516780e-03
4.200855765301e-03
5.106738436651e-03
4.301405107970e-03
4.492473167653e-03
4.094600791655e-03
3.873742424529e-03
4.049253002460e-03
4.546913092459e-03
4.646225374320e-03
4.523702894857e-03
5.390087395959e-03
3.985020216099e-03
1.618655921059e-03
4.788488793259e-03
5.359924628782e-03
3.005660619524e-03
3.223226449347e-03
1.971525089256e-03
4.648699280585e-03
2.766011387022e-03
3.573201295524e-03
2.703531881720e-03
4.214659544868e-03
5.069771484117e-03
2.121431133427e-03
4.058193802695e-04
5.341003982022e-03
2.920796651996e-03
2.806031036896e-03
4.893352200413e-03
4.541058644014e-03
4.477853504311e-03
2.415871683082e-03
1.091173224408e-04
5.297107160487e-03
3.566992170965e-03
3.964772993216e-03
4.908749566295e-03
0.0
4.396335016970e-03
1.721264210827e-03
4.247426129010e-03
3.657351708374e-03
2.094475387503e-03
4.954039962137e-03
3.497476297263e-03
1.752352387144e-03
3.730384878291e-03
3.763523260525e-04
4.296335070821e-03
4.232332728487e-03
5.300157964833e-03
4.591233936654e-03
1.028298279476e-03
4.511210016349e-03
5.453521427974e-03
5.267588892161e-03
4.434702429965e-03
2.462650568201e-03
4.009248660887e-03
5.046804183108e-03
3.535212461732e-03
4.396897747975e-03
4.393389450935e-03
4.800902351973e-03
4.606296382436e-03
3.122680214006e-03
3.120274423476e-03
4.382256899136e-03
4.111044512030e-03
3.813633009546e-03
4.221320453715e-03
3.279774802709e-03
4.769766446077e-03
2.542727818688e-03
5.983048558159e-03
3.591210545370e-03
3.168624506568e-03
3.557292247720e-03
9.531416278352e-04
3.230009085735e-03
3.834311612934e-03
3.683361306900e-03
4.361379102542e-03
4.324884584529e-03
4.497716242812e-03
9.296305416927e-04
3.000738260246e-03
2.877206011432e-03
4.129391706328e-03
4.309346871824e-03
4.660717579237e-03
1.390083491195e-03
1.337430359801e-03
3.372007376568e-03
3.118387867984e-03
2.908488767762e-03
3.071482520293e-03
4.375276169837e-03
1.579296571718e-03
3.441254145347e-03
4.169540997438e-03
5.233780527266e-04
5.376588438414e-03
5.149299469470e-03
3.407577951504e-03
4.596633708749e-03
5.291684185247e-04
4.017860612446e-03
3.529401166009e-03
5.097626183355e-04
5.132298664917e-03
7.847782572497e-04
4.127046447011e-03
3.654659147826e-03
2.736631618381e-03
3.532903553380e-03
5.264031271081e-03
3.850209962935e-03
3.431861875086e-03
3.323620881928e-03
5.457679815637e-04
4.250590229059e-04
4.681238603658e-03
4.043631383605e-03
4.795280597812e-03
2.001212315519e-03
4.830518942522e-03
4.896214853729e-03
3.151597474926e-03
4.683508434643e-03
4.666996016599e-03
3.909137558089e-03
3.276352252530e-03
3.497938959203e-03
5.375951367089e-03
3.220959364287e-03
3.760026043850e-03
3.137860209432e-03
4.172566943858e-03
2.940253828481e-03
1.143043258969e-03
3.094440534048e-03
1.421741084883e-03
4.229813709731e-03
1.395709131982e-03
4.036588971796e-03
4.570721815773e-03
4.340933322801e-03
2.781057843546e-03
4.194893651729e-03
4.753168581798e-03
4.818117472809e-03
1.337755850323e-03
4.137746118188e-03
5.209940225679e-03
2.346590375691e-03
3.683805328026e-03
7.449910221542e-04
4.902778118811e-03
1.132231217255e-03
3.562582783365e-03
3.984078078079e-03
4.208916939956e-03
4.023939684233e-03
3.635866043279e-03
2.594201963328e-03
2.755506096816e-03
4.964224152630e-03
3.752359726194e-03
3.049378824758e-03
3.951824469440e-03
2.751998479851e-03
1.270610342763e-03
2.569385874887e-03
3.772607831583e-03
3.271605333460e-03
4.369076492911e-03
2.705575969413e-03
5.066065955323e-03
4.914430261524e-03
2.994647378897e-03
5.394625854804e-03
1.628019428153e-03
4.948546199405e-03
3.599675338089e-03
3.985333370223e-03
4.676994841526e-03
2.599416272208e-03
3.952410327413e-03
2.849041735521e-03
3.845590045576e-03
1.946537266926e-03
4.082691990806e-03
2.599671966463e-03
3.723013565829e-03
3.865662068831e-03
5.887470109934e-04
3.453775351858e-03
1.200495782290e-03
9.684342886303e-04
3.597379235346e-03
4.690298881192e-03
4.138119897075e-03
2.292437587727e-03
5.849140828973e-03
1.853697180041e-04
2.448985812848e-03
3.130150269506e-03
3.550843563428e-03
2.957877931277e-03
1.876075245636e-03
3.442132234492e-03
3.806568376354e-03
3.777536702449e-03
4.965844843458e-03
1.161492389179e-03
3.317749060185e-03
3.622478808600e-03
2.112089838123e-03
3.317999481308e-03
4.153535609678e-03
4.505816054949e-03
6.237202834362e-04
0.0
1.573012222717e-03
3.691965033318e-03
1.969230988537e-03
1.898292932230e-03
1.294352397267e-03
3.753016074333e-03
4.366198405172e-03
3.768697917664e-03
1.871438903480e-03
4.121048902823e-03
3.672677354322e-03
4.305538666813e-03
3.830322098392e-03
3.828543141580e-03
1.984443132618e-03
2.202423137923e-03
3.907189118964e-03
4.304428646692e-03
4.049985857339e-03
2.152295599124e-03
3.904305982153e-03
2.181745308855e-03
1.601820863611e-03
4.956049478681e-03
1.401476559850e-03
2.111889315513e-03
3.321047263052e-03
2.268346872781e-03
3.969667780703e-03
1.889119106674e-03
3.396365532197e-03
3.971070620537e-03
2.946304068913e-03
3.537025974587e-03
1.811375157662e-04
5.205294236013e-03
2.387586220924e-03
4.665614783562e-03
3.968807703245e-03
4.049703598051e-03
4.107544981389e-03
1.695791505847e-03
1.026663475019e-03
1.642477002779e-04
4.189723483469e-03
4.659166707092e-03
2.346343365980e-03
4.226192121581e-03
2.191228217425e-03
4.314363055978e-03
5.445403603490e-03
0.0
5.877232482387e-03
5.753927133567e-03
3.517916756623e-03
2.567108847699e-03
3.885798105456e-03
1.761253100682e-03
8.753437067106e-04
5.824479928858e-04
5.430593790634e-03
4.272773126407e-03
3.281421806576e-03
5.755399577457e-03
1.584674166795e-03
5.735458500835e-03
4.260634587508e-03
2.681067374150e-03
3.703032091483e-03
2.313425682848e-03
1.747876205062e-03
2.269306335304e-03
4.472296584069e-03
5.084185534072e-03
2.122483088170e-03
4.416764738030e-03
0.0
1.927997949303e-03
4.734679441239e-03
2.334640526172e-03
2.293466231138e-03
3.672079540127e-03
1.427206149762e-03
1.708336649171e-03
1.861547325864e-03
2.108699433633e-03
3.250126257064e-03
3.062054677212e-03
4.401537229797e-03
5.307742241174e-03
1.980497234217e-03
4.592105580898e-03
5.228738582180e-03
1.508615138678e-03
1.258398003978e-03
2.320259230208e-03
3.145384584978e-03
4.507488684930e-03
3.013439603112e-03
1.036494360999e-03
3.559288459622e-03
1.877421539577e-03
3.009312651742e-03
3.329936939808e-03
3.782961951353e-03
4.184693822016e-03
2.263846250652e-03
1.320964814853e-03
3.656275706454e-03
1.881021925859e-03
0.0
5.409655559408e-03
5.162683398980e-03
2.729094268368e-04
3.875711687704e-03
1.849949503547e-03
1.815075747793e-03
4.705943890402e-03
3.753312262213e-03
4.510634549489e-03
2.148267383418e-03
3.276008673573e-03
5.353793394855e-03
1.533498694127e-03
4.496561684191e-03
3.235629882712e-03
1.109441694527e-03
4.399839461738e-03
2.050705679004e-03
7.682699673756e-04
1.606426913977e-03
4.404965734730e-03
4.489139406804e-03
1.520865044627e-03
3.643992042794e-03
4.612769071813e-03
4.502280914076e-03
2.204419621287e-03
1.846579794431e-03
3.359329712729e-03
4.124746711535e-03
7.891390788467e-04
5.560751100390e-03
5.548964266607e-03
3.671227968295e-03
5.630388145665e-03
5.535998868057e-03
2.170965590618e-03
2.370185578734e-03
5.368043001177e-03
0.0
1.709110066567e-03
3.659126116834e-03
2.387294836944e-03
1.879148258664e-03
1.458848135816e-03
1.621284849436e-03
3.747506275773e-03
1.892131702059e-03
1.979788942566e-03
4.392042265884e-03
5.804343183406e-03
5.787944820255e-03
2.351876001022e-03
3.390799711467e-03
0.0
1.230366790518e-03
1.463542949792e-03
1.380432272447e-03
3.535543274713e-03
2.106380670562e-03
2.153393122630e-03
5.222734221172e-04
5.154439084150e-03
2.367565598648e-03
5.388275058918e-03
4.954992804617e-03
6.024570796398e-03
5.886693922548e-03
3.753433328928e-03
2.527170991278e-03
1.725379432797e-03
2.498420104998e-03
5.703744763384e-03
9.120404607056e-04
1.119100263323e-03
4.692417281221e-03
3.538901703328e-03
5.427938698995e-03
4.594213998741e-03
4.821231617115e-03
4.878843592402e-03
3.720203756123e-03
2.190074141244e-03
2.006325653896e-03
4.404135688044e-03
4.687878422867e-03
3.117837671459e-03
3.529702774384e-03
3.752961490192e-03
3.830800216791e-03
4.743220089301e-04
1.891519218785e-03
5.771465514508e-03
4.089532321688e-03
5.391930956668e-03
5.395352371543e-03
4.403465603732e-03
5.428295798469e-03
2.711349306453e-03
2.579117857356e-03
5.122665484976e-03
0.0
1.840758435860e-03
5.616042079043e-03
8.237432765106e-04
3.385098086166e-03
5.098464473505e-03
5.994795909040e-04
3.983112400915e-04
5.989580935828e-03
3.133104392698e-03
5.665785838847e-03
4.960111850706e-03
3.124857482388e-03
0.0
5.632893496604e-03
9.982363891210e-04
5.455855807356e-03
5.714313673249e-03
5.360106047106e-03
8.140468256158e-04
3.782530279231e-03
2.880362090628e-03
4.355508239889e-03
5.671711904199e-03
4.776155304540e-03
5.663484683731e-03
0.0
5.589551347142e-03
1.512890600852e-03
7.914478455334e-04
5.397054391262e-03
5.743402050252e-03
5.733536642357e-03
3.426595864351e-03
3.717007925183e-03
1.646038233533e-03
5.655472529231e-03
2.339881504149e-03
8.036133470504e-04
4.521262599813e-03
3.249064134649e-03
5.466053350078e-03
5.951132079152e-03
5.885235530218e-03
4.854921181183e-04
3.182268852090e-04
3.189601210708e-03
3.264417416490e-03
5.744673122169e-03
5.821030348919e-03
4.049503436329e-04
0.0
5.287127657436e-03
5.147388720085e-03
1.173728759617e-03
5.308389383186e-03
3.861412420017e-03
3.447396140137e-03
4.313090326591e-03
1.487039342624e-03
4.054223007771e-03
9.352616087626e-04
3.085786119638e-03
5.355845819130e-03
5.346807489972e-03
3.320434685778e-03
3.970741636665e-03
5.313594699531e-03
4.970757498224e-03
4.685070856500e-03
3.121604600955e-03
3.851714109814e-03
5.392942080288e-03
1.774965986013e-03
4.406585063081e-04
5.044417363226e-03
4.474595389771e-03
1.114377206921e-03
4.510176921097e-03
5.486912845254e-03
4.947561165270e-03
5.266766084571e-03
4.198063581823e-03
0.0
1.470518372103e-03
1.753101937549e-03
3.631135606701e-03
3.881045925371e-03
5.513487264780e-03
5.223998920856e-03
1.020852490991e-03
8.247746946980e-04
1.369961284446e-03
4.515742145024e-03
2.251628283076e-03
5.512574297706e-03
1.101239483144e-03
4.944710226892e-03
3.686457503037e-03
5.316904859013e-03
4.584108386174e-03
3.633631005452e-03
5.441228742427e-03
5.760973095862e-03
5.768457653903e-03
1.076429508706e-03
5.403578302253e-03
5.433000637951e-03
5.028809833893e-03
4.690494387880e-03
5.655330995816e-03
4.686381379503e-03
0.0
1.396280660218e-03
5.170660034106e-03
3.932337476204e-03
5.342833454285e-03
4.884276764452e-03
5.447158665414e-03
4.847067005331e-03
5.305854444718e-03
5.181492536697e-03
5.139590615884e-03
2.342515450525e-03
5.825123485814e-03
3.511800923746e-03
5.448173838807e-03
7.428025292534e-04
5.262596336557e-03
4.547206860874e-03
6.035790654862e-04
8.086025518277e-04
4.796988799160e-03
5.631992981559e-03
5.519397513834e-03
5.310091205385e-03
3.912116890080e-03
3.336829723450e-04
7.216677684815e-05
3.636648382109e-04
1.164636641950e-03
0.0
3.057585890836e-03
5.327921971227e-03
5.411971840112e-03
3.914684461503e-03
2.701530490713e-03
5.213565150943e-03
5.007366373899e-03
5.467264405238e-03
5.207424473042e-03
5.074998992932e-03
6.015575377216e-04
0.0
5.376601054342e-03
4.998770260557e-04
7.354796995695e-04
4.650576109338e-04
6.246802752465e-04
5.332466837785e-03
5.508668632613e-03
5.527152150685e-03
5.370182133116e-03
4.813648012505e-03
4.090345476850e-03
5.872497858860e-03
1.688844706779e-03
3.242062731608e-03
1.296527781915e-03
2.048831776387e-04
5.850745223492e-03
3.550974671321e-03
8.641995463890e-04
2.926275799080e-03
5.656777809006e-03
5.503877635999e-03
5.618051296971e-03
2.129346423962e-03
0.0
5.566911874099e-03
6.011875443670e-03
5.902551827901e-03
3.412317331757e-03
4.981747800379e-03
7.975484814361e-04
5.534656444521e-03
1.991551371557e-04
5.305266967479e-03
5.730842396305e-03
0.0
4.981060490428e-03
4.675346069498e-03
5.654646432844e-03
5.577265656584e-03
4.298496663279e-03
5.550848395389e-03
5.494928221657e-03
4.409266495861e-03
5.352947711999e-03
2.479552746464e-03
3.115289873894e-03
5.217348424536e-03
5.739897385503e-03
2.130598970231e-04
3.124201721815e-03
5.632614020689e-03
1.101480850632e-03
5.091661295346e-03
5.450633370530e-03
5.763755232995e-03
1.048262864143e-03
9.819337037052e-04
3.563851573438e-03
5.043841388328e-03
0.0
5.651156742465e-03
4.142985444651e-03
1.530326117569e-03
3.945008028744e-03
5.471691496627e-03
3.728983518662e-03
7.664131491038e-04
2.244711810372e-03
3.243419354848e-03
3.838568504311e-03
5.141366330764e-03
3.163902532595e-03
3.328394715870e-03
5.059368158880e-04
5.311799105867e-03
5.084872395273e-03
7.504975414657e-04
5.677168446605e-03
5.592115835300e-03
3.482521557627e-03
4.251403145156e-03
3.187364706085e-03
3.251257493807e-03
3.439701907309e-03
4.794833467625e-03
1.169016289084e-03
5.320349723071e-03
3.618781519640e-03
5.751198579347e-03
4.781103524799e-03
4.050232424032e-03
5.211038119852e-03
5.105861927613e-03
5.449330151016e-03
7.104254593756e-05
5.217846714948e-03
5.418217703554e-03
5.880291415762e-04
2.994215514378e-03
2.729319316384e-05
5.459819003965e-03
1.978075538529e-03
2.068879625806e-03
1.902590828716e-03
2.062161995598e-03
1.898060516849e-03
2.062005351751e-03
1.898519902904e-03
2.062707203719e-03
1.899593226571e-03
2.063756227685e-03
1.901151117505e-03
2.065159394734e-03
1.903035017397e-03
2.065878819387e-03
1.904260045321e-03
2.066054267018e-03
2.081255348113e-03
1.904941591621e-03
2.066518291686e-03
1.946229207625e-03
1.906538266237e-03
2.067300682488e-03
1.912400718489e-03
1.908299225307e-03
2.067775509969e-03
1.909424505434e-03
2.067392831623e-03
1.909798919589e-03
2.065159627985e-03
2.019164063614e-03
1.909657238486e-03
2.069050084578e-03
1.913990891757e-03
2.066625557090e-03
2.079233419176e-03
1.915722788534e-03
2.058653760931e-03
1.921030618245e-03
2.092125439694e-03
1.905326932506e-03
1.857175005029e-03
1.974792546786e-03
2.109959634287e-03
1.963899074007e-03
2.050594123143e-03
1.898921720586e-03
2.308296873625e-03
2.212383277902e-03
2.377889872021e-03
2.214994051217e-03
2.379726867620e-03
2.216547427580e-03
2.381089610341e-03
2.216872246426e-03
2.381752235969e-03
2.218454871060e-03
2.383250492322e-03
2.220224400099e-03
2.385222509952e-03
2.222734674364e-03
2.386383023483e-03
2.391862537500e-03
2.221806440899e-03
2.220677278307e-03
2.385011920154e-03
2.223422370937e-03
2.386582139412e-03
2.226346237541e-03
2.388440069183e-03
2.227280475162e-03
2.250484607725e-03
2.388398609737e-03
2.227668810492e-03
2.387714431866e-03
2.226868736979e-03
2.381778775207e-03
2.225381309291e-03
2.391304783019e-03
2.233950156438e-03
2.220516966315e-03
2.381499207426e-03
2.320752866227e-03
2.406602035383e-03
2.125680874572e-03
2.371949036351e-03
2.230910756870e-03
2.319921770893e-03
2.232416445766e-03
2.197022376616e-03
2.606499819159e-03
2.690961257714e-03
2.522000530317e-03
2.681395089224e-03
2.516611695707e-03
2.684936923134e-03
2.520724084807e-03
2.682910389250e-03
2.518155025397e-03
2.685720127669e-03
2.522107693972e-03
2.686100147812e-03
2.522572435250e-03
2.701698277203e-03
2.691814660839e-03
2.527183984821e-03
2.558519512118e-03
2.685492272813e-03
2.523715955889e-03
2.521830125806e-03
2.687781338981e-03
2.527976907291e-03
2.692519047907e-03
2.530769531241e-03
2.691005186238e-03
2.620190236794e-03
2.529256469091e-03
2.690152839742e-03
2.692355677766e-03
2.530525369073e-03
2.668560171641e-03
2.530830175599e-03
2.711856376190e-03
2.517118108963e-03
2.429701944538e-03
2.579121291386e-03
2.733210654048e-03
2.586513323000e-03
2.669335382215e-03
2.501112406734e-03
2.952964194819e-03
2.821859864007e-03
2.991596827692e-03
2.833511162691e-03
2.996758346163e-03
2.839990296122e-03
3.006645179008e-03
2.831291115803e-03
2.995872769527e-03
2.837184649027e-03
3.005449104704e-03
2.838583631022e-03
3.016774272030e-03
3.001904421592e-03
2.851312415787e-03
2.832771918756e-03
3.009442756207e-03
2.842210225621e-03
3.000234049433e-03
2.844919680408e-03
3.009082672670e-03
2.844437144164e-03
2.872310885887e-03
3.011912840164e-03
2.842005763748e-03
3.004113999591e-03
2.837696132236e-03
2.839675268707e-03
3.003734450339e-03
3.017107183080e-03
2.932857225621e-03
2.738763543566e-03
2.957508157439e-03
2.875589959643e-03
2.947488772035e-03
2.848489924599e-03
2.817296966531e-03

SCALARS element_materi_plasti_phimob float
LOOKUP_TABLE default
1.553937609489e+01
1.442536832344e+01
1.930449355593e+01
1.851144528902e+01
1.051198707819e+01
2.759270101963e+01
1.064468049332e+01
1.758929136641e+01
1.066850098473e+01
1.847156743206e+01
1.989571319161e+01
1.459642864528e+01
2.061359376307e+01
1.207777991383e+01
2.059312214153e+01
1.878655496213e+01
9.885606420652e+00
2.535720575711e+01
1.011536104030e+01
9.999768858673e+00
1.843989841543e+01
6.896017233096e+00
1.026625023610e+01
2.209942881263e+01
1.356823226876e+01
2.008845150028e+01
7.361918166778e+00
2.142440169283e+01
1.358737912571e+01
2.195081019429e+01
2.115218575559e+01
-1.905005955953e+01
1.918449905096e+01
2.044539937989e+01
2.112095854938e+01
2.079128694349e+01
2.074260910073e+01
2.196315543916e+01
8.041693739909e+00
8.206213123856e+00
5.616831322849e+00
2.102382651128e+01
1.715493486028e+01
7.209499121416e+00
1.816659711995e+01
1.881514461820e+01
2.507871771178e+01
1.828825063169e+01
1.570731085456e+01
1.115720759577e+01
6.496832631652e+00
1.244036866238e+01
2.630906123984e+01
1.034741755354e+00
1.899414068291e+01
1.520414865024e+01
1.266023020314e+01
2.050024238332e+01
5.476899785063e+00
1.876503877388e+01
1.194933901225e+01
2.200118012252e+01
1.935571133246e+01
2.545597860566e+01
2.065375112479e+01
1.723360040102e+00
1.581546972759e+01
1.925778255447e+01
7.534093409381e+00
2.037686847684e+01
2.026503149051e+01
1.946719735004e+01
2.106002234151e+01
-9.765404383349e+00
1.560385690035e+01
1.852997290468e+01
1.891463565148e+01
1.972781038420e+01
4.409150440988e+00
1.918168878221e+01
8.532513673504e+00
9.780133068441e+00
1.301910833148e+01
9.937717062202e+00
1.171656914110e+01
1.176989925677e+01
2.028941988841e+01
2.041937465349e+01
1.769338047188e+01
1.035072987698e+01
-2.085067290800e+01
9.853544384544e+00
1.651413746603e+01
1.628037300157e+01
1.914779190113e+01
2.147685147330e+01
9.614526804900e+00
2.145672092436e+01
1.368669189483e+01
1.877168455337e+01
9.295671993512e+00
2.063902158353e+01
2.304424490812e+01
2.188440435925e+01
2.342845325932e+01
1.724613035456e+01
2.056522626218e+01
1.708914239829e+01
1.957415498574e+01
2.060331601104e+01
1.745157669006e+01
-2.278382191033e+01
2.437332035421e+01
7.948023634194e+00
1.741403461245e+01
1.816526757960e+01
2.067069358407e+01
2.095466565503e+01
1.313514481324e+01
2.112061950141e+01
4.372122572529e+00
9.972457619750e+00
1.719838846824e+01
2.204667017039e+01
2.217924510240e+01
6.068990214957e+00
1.724424855133e+01
2.324025334005e+00
1.885858338056e+01
2.562720070418e+01
2.014953473004e+01
1.853845182154e+01
1.346681399978e+01
5.546205806320e+00
2.128866371443e+01
2.060088029774e+01
2.037976086733e+01
1.384083669350e+01
2.175220871351e+01
1.100445461787e+01
1.870451668790e+01
2.022818654878e+01
1.197180528718e+01
1.520095004561e+01
1.268456255449e+01
1.248881206909e+00
1.482555257839e+01
2.407639744951e+01
9.821566482481e+00
2.516308576398e+01
-2.205602075606e+01
1.174570504197e+01
6.024918086715e+00
6.995247164646e+00
2.115308629251e+01
2.262841089913e+01
2.038284385531e+01
1.781867227848e+01
2.302154477904e+01
1.018775429518e+01
2.574621578231e+01
2.052677927826e+01
4.876317038466e+00
2.059123037025e+01
1.119060434042e+01
2.081910994697e+01
1.009154623749e+01
2.423302535470e+01
5.605133414163e+00
1.995991777183e+01
1.681348392999e+01
2.639486242986e+01
1.577843202455e+01
9.997036147854e+00
2.442754753597e+01
3.880890326435e+00
1.901739227404e+01
1.804902827381e+01
2.120076578343e+01
2.044092039650e+01
1.821481132482e+01
1.805418538355e+01
2.276967606113e+01
9.489621472525e+00
1.612253542942e+01
9.380946818330e+00
2.416553717046e+01
1.871404561212e+01
1.703487427286e+01
2.055275079395e+01
1.968653163228e+01
2.757972367715e+01
1.762945987259e+01
1.052181437678e+01
7.526301415358e+00
2.308784688037e+01
-1.636092728421e+00
1.892351749910e+01
1.508248103621e+01
2.173518259606e+01
2.346912189859e+01
1.170023754475e+01
1.293229348203e+01
2.167903774714e+01
1.709586682817e+01
1.692287403160e+01
1.283457735675e+01
1.559064283228e+01
1.214852027555e+01
9.869298856993e+00
2.412675337425e+01
1.861070203266e+01
1.248023340057e+01
1.589434342498e+01
1.666589358851e+01
1.625128531764e+01
1.733370292834e+01
2.969954350820e+01
2.316213564376e+01
9.760104969783e+00
2.696182709741e+01
2.313900220763e+01
-1.530874404440e+01
1.618378559824e+01
-2.111150779271e+01
-2.485912434805e+00
1.798458153529e+01
1.465727721930e+01
1.658014209409e+01
1.359582205608e+01
2.310026307635e+01
1.962419928341e+01
6.643868162079e+00
2.324913835630e+01
1.170294216142e+01
2.070934887015e+01
1.077678320813e+01
2.484026559602e+01
2.656430739718e+01
8.001834802258e+00
2.359781803376e+01
2.084005933020e+01
1.646326276629e+01
2.910332579780e+01
2.294166167033e+01
2.021052432924e+01
1.509039549928e+01
1.573928565332e+01
2.144760327396e+01
2.704419198352e+01
2.354062108792e+01
1.382199836488e+01
1.915975942242e+01
1.826866042506e+01
2.598910975828e+01
1.208070594440e+01
8.584304485527e+00
1.176047807225e+01
2.828188668476e+01
3.015870627103e+01
2.726062394841e+01
1.661360075229e+01
1.352165492100e+01
2.290069269356e+01
1.697852821852e+01
1.708650549199e+01
1.485016577434e+01
2.070372663567e+01
2.595385779890e+01
1.472841042387e+01
2.393970247828e+01
2.533802720893e+01
3.045649922230e+01
9.639868791713e+00
2.736378257774e+01
2.810591544070e+01
1.641300331434e+01
6.058647073923e+00
1.267065221893e+01
2.919444547585e+01
2.604137989796e+01
3.040577817349e+01
1.465446975344e+01
-4.709694632868e+00
1.449929482157e+01
2.531681494192e+01
1.314455630528e+01
1.172363788252e+01
2.932912929356e+01
2.995625951518e+01
2.682352460380e+01
1.668942347217e+01
1.579266586401e+01
1.713543899817e+01
2.802666708313e+01
2.766528201590e+01
2.765926091525e+01
2.409903362047e+01
2.103558703433e+01
1.937497613560e+01
1.958968565735e+01
1.879982076081e+01
2.941518813331e+01
2.712017132935e+01
1.554201859256e+01
2.907655818855e+01
2.933641146969e+01
1.448980077944e+01
1.863435904139e+01
2.811648361505e+01
2.401259672449e+01
2.369450740532e+01
2.141338655442e+01
2.803205496437e+01
1.589589537903e+01
3.063392439979e+01
2.500218873343e+01
2.706069077096e+01
2.768966213217e+01
1.334137929826e+01
2.034435604096e+01
2.868172748637e+01
2.528535308840e+01
2.395141505452e+01
1.448492038448e+01
2.362539230852e+01
2.229384614132e+01
1.386734036352e+01
2.101975045937e+01
2.311217460463e+01
2.003392673379e+01
1.368701973253e+01
1.754515612362e+01
2.075130680208e+01
1.150200096247e+01
1.429179970418e+01
1.474958432775e+01
1.976640385758e+01
2.134279916120e+01
1.300266077343e+01
1.067750123961e+01
2.804987298041e+01
1.102223310809e+01
9.325967908600e+00
2.365549778392e+01
1.012420137249e+01
2.517910429098e+01
2.866554133907e+01
1.676081109302e+01
2.467713949580e+01
1.267399632950e+01
2.524318413900e+01
2.384280752718e+01
2.158114435397e+01
9.126631130315e+00
3.084257241523e+01
2.110573003113e+01
1.894674910372e+01
2.123786565662e+01
1.786857800084e+01
1.608045466030e+01
1.175666180884e+01
1.045835122988e+01
2.163112137445e+01
2.207182970296e+01
1.783949641474e+01
1.618470410269e+01
2.356710297845e+01
1.925729002839e+01
3.013633296468e+01
2.961625938255e+01
1.689047503406e+01
2.500825163736e+01
1.988079439046e+01
1.761898707314e+01
2.955932793031e+01
2.124278435914e+01
1.430034031205e+01
2.110578750272e+01
1.969933661742e+01
1.948139401313e+01
1.890284546107e+01
2.345289332327e+01
1.702921354459e+01
2.228670979360e+01
2.889592392512e+01
2.936321828295e+01
1.497634865778e+01
9.597805334618e+00
1.372982752890e+01
2.198301554956e+01
1.817240748401e+01
1.356588039480e+01
1.554084621856e+01
3.085635151114e+01
1.408090651183e-01
2.535988552720e+01
2.125578287156e+01
2.483029630738e+01
2.319333673033e+01
1.205071061552e+01
9.646137879982e+00
2.682434014198e+01
2.074241981811e+01
2.417381433000e+01
1.032572020458e+01
6.359693098906e+00
1.843096386815e+01
2.595918921370e+01
1.488998462744e+01
2.062021388025e+01
1.072104863050e+01
1.590606689255e+01
2.048397825655e+01
1.712028035608e+01
2.364244633054e+01
2.075184389266e+01
2.052981698023e+01
1.991530070167e+01
2.018900906754e+01
1.564331462278e+01
1.709362044820e+01
1.836494298774e+01
1.981455649841e+01
1.754767378293e+01
1.911247235552e+01
1.760237399688e+01
2.120523470075e+01
1.747211362541e+01
2.473639351816e+01
1.743319206851e+01
2.118722974750e+01
2.157478066262e+01
1.211295325801e+01
2.683246053430e+01
1.882589144064e+01
2.146440874914e+01
2.073405133115e+01
1.961276317119e+01
2.307321561984e+01
2.131243282484e+01
2.559348564541e+01
2.068581496583e+01
1.907719782379e+01
1.675761700649e+01
-1.781459306894e+01
2.092407067827e+01
2.140567288379e+01
2.581433967931e+01
2.467639959909e+01
2.163714261607e+01
-5.518907214567e+01
2.156425482300e+01
1.659095241248e+01
1.756500294460e+01
1.566643150009e+01
2.586660760474e+01
2.108112963001e+01
2.812475107831e+01
2.719930493003e+01
2.103935743345e+01
-1.895227177892e+01
1.053695655590e+01
2.242176930437e+01
8.350914710253e+00
2.154755363957e+01
2.112923636090e+01
1.442045645780e+01
1.674869184770e+01
2.693637096043e+01
1.711073607474e+01
2.165564438791e+01
9.744196479591e+00
1.142069292960e+01
2.109598617870e+01
9.805958007702e+00
1.934223769523e+01
2.148147376983e+01
1.305908834485e+01
2.024002437477e+01
2.471825845020e+01
2.761696242189e+01
2.100205924996e+01
2.035330018996e+01
2.005496138817e+01
2.292691991130e+01
1.833002966672e+01
2.260964570300e+01
2.308901595931e+01
2.089305652753e+01
2.786135709912e+01
2.871648440289e+01
2.735449477845e+01
1.391825394200e+01
2.131000165224e+01
1.062750991850e+01
2.078304271292e+01
2.604965522068e+01
2.082546881251e+01
1.837058770419e+01
8.999999999681e+01
2.297271205188e+01
1.737591480650e+01
2.102294884040e+01
1.586654790547e+01
2.205501665726e+01
2.518864581542e+01
2.195497060897e+01
2.460830571281e+01
2.535479520245e+01
1.257997591839e+01
2.111574101424e+01
2.929651460030e+01
2.272549061929e+01
1.218502424637e+01
1.862473469247e+01
2.668856401345e+01
1.583485415159e+01
2.105712128637e+01
1.879623648863e+01
2.301219092221e+01
2.030188091799e+01
2.454062426200e+01
2.763850599856e+01
2.326326694355e+01
1.990989984492e+01
1.960982688845e+01
2.414309470773e+01
2.154216146861e+01
2.078039466044e+01
2.655899229193e+01
1.871709735285e+01
2.183747162488e+01
2.589405383878e+01
2.148101610758e+01
1.776251058667e+01
1.744091810476e+01
2.083289608913e+01
2.206949487170e+01
2.490791873085e+01
2.049936465432e+00
2.125850361138e+01
1.787157768330e+01
2.405841331339e+01
2.070431312537e+01
2.278533302391e+01
1.547230972115e+01
1.241565142056e+01
2.593324226287e+01
2.298612186068e+01
2.456068873379e+01
1.510585529634e+01
1.299140323023e+01
2.364195300654e+01
1.346511899460e+01
2.003283149808e+01
2.463006676804e+01
2.266075965500e+01
2.116194105073e+01
-5.320785662709e+01
2.530959622393e+01
2.379207944581e+01
2.027254121361e+01
2.377099611782e+01
2.337682199532e+01
1.324168387385e+01
2.174867839736e+01
2.067360456560e+01
1.689645104048e+01
2.011153173778e+01
1.748799797077e+01
1.978809371331e+01
-4.401417934137e+01
1.323121836076e+01
1.758674470156e+01
-5.668040902377e+01
1.948413059363e+01
2.305065784918e+01
1.741921064362e+01
2.507336587821e+01
2.511554887095e+01
9.092103054073e+00
6.921912887018e+00
1.889211287844e+01
1.863070375057e+01
8.999999999681e+01
6.512855579581e+00
-9.955826214937e+00
1.620767729583e+01
1.908630806920e+01
1.738136732439e+01
2.182908538882e+01
1.670600818971e+01
2.080851522060e+01
2.259801323658e+01
2.927738312924e+01
1.751465487320e+01
1.585759957156e+01
2.118262310122e+01
2.064696860821e+01
1.830101772413e+01
1.970399917134e+01
2.323396810419e+01
2.249859810712e+01
8.299757341822e+00
2.268112879427e+01
-8.932439394418e-01
1.915819692814e+01
2.041688051553e+01
-1.660028019962e+01
1.784078979591e+01
1.783273253487e+01
8.999999999681e+01
6.875641773282e+00
7.181892534096e+00
2.444857861117e+01
1.587590128584e+01
2.266621210717e+01
2.412296128990e+01
2.130565611545e+01
2.085067639162e+01
1.678807461284e+01
2.120747297394e+01
-7.380588081939e-01
1.150710855584e+01
7.269753284513e+00
7.396464982762e+00
8.999999999681e+01
-1.730606823163e+01
-1.391825429513e+00
1.322396784660e+01
-1.667105385023e+01
1.871385842541e+01
2.928424772814e+00
1.565860161340e+01
1.468180349925e+01
7.146690361347e+00
1.905659945526e+01
2.286815268766e+01
1.347211252618e+01
1.645808308505e+01
-1.438790114701e-01
1.929945535690e+01
1.909412839831e+01
1.221404837587e+01
7.125507515985e+00
1.655794345021e+01
1.907365620351e+01
1.479231326494e+01
7.105696159125e+00
6.958993398496e+00
7.592613360434e+00
1.980213290839e+01
1.904971526172e+01
-1.726948313961e+01
8.999999999681e+01
2.823496499508e+00
2.097459859443e+01
2.059359276761e+01
9.691633141296e+00
1.684592688861e+01
-2.567842928535e+00
2.455885302904e+01
-2.999723415266e+01
1.333353488519e+01
2.459280214870e+01
2.071133187732e+01
1.456676072908e+01
1.349303564366e+01
-1.613400623961e+01
2.065982812379e+01
1.916620381896e+01
1.906391522831e+01
7.206971640653e+00
2.440778425774e+01
1.926078336189e+01
2.226753941393e+01
-5.122965253698e-01
-1.678072546088e+01
-1.658457593305e+01
1.743027030286e+01
2.070213763614e+01
1.853372779875e+01
8.781079302568e+01
1.860625325920e+01
2.056307245054e+01
2.075132164253e+01
2.112969450295e+01
1.598264942276e+01
1.723927367898e+01
2.055063264901e+01
2.056023556337e+01
1.684685869879e+01
8.999999999681e+01
7.341022692557e+00
7.324238147511e+00
8.889227697423e+01
2.057985036869e+01
2.108274780618e+01
2.058696137867e+01
8.999999999681e+01
8.999999999681e+01
2.062293985212e+01
2.060574285605e+01
1.548960918104e+01
7.407146682524e+00
1.642760709467e+01
1.277392494542e+01
7.441514159502e+00
8.999999999681e+01
-6.106914139686e+01
-6.165656899798e+01
-6.147026709622e+01
1.894439096692e+01
1.824499301506e+01
-5.647415568842e+01
2.005635741179e+01
-5.638665705445e+01
1.956313972229e+01
1.922218967585e+01
1.934475937598e+01
8.222110167339e+00
1.517412769031e+01
1.919182076904e+01
2.050893409539e+01
1.921281529105e+01
2.057436446425e+01
2.059996401481e+01
1.785583437877e+01
1.905182744411e+01
1.907801456026e+01
2.052962166166e+01
2.058273637813e+01
2.046461997507e+01
-2.607334526599e+01
1.855499546849e+01
-1.832053061858e+01
2.115426023135e+01
1.953608372994e+01
2.084098394381e+01
1.215370397232e+01
-4.288935369217e+00
2.073134729861e+01
1.913161121867e+01
1.709226091512e+01
2.071727714729e+01
1.787780494507e+01
1.697807342199e+01
2.271301672151e+01
2.183940489592e+01
2.062523281798e+01
2.054841780771e+01
2.886440665141e+01
1.177110461147e+01
2.365455243933e+01
2.093698961485e+01
2.064761292094e+01
2.050889598435e+01
1.430502744225e+01
1.780390158974e+01
1.709622963555e+01
1.119218567009e+01
2.123018763897e+01
2.076045662667e+01
1.788008536616e+01
1.750232789785e+01
2.168624809253e+01
2.064967210900e+01
1.684815989398e+01
2.042646034303e+01
2.097511298800e+01
1.779802767482e+01
1.564022616388e+01
2.257797005528e+01
1.245462900387e+01
1.401939774767e+01
-1.476160270914e+00
-2.859935720983e+00
1.748050475214e+01
2.063698896455e+01
-1.315449545024e+01
1.805117077576e+01
1.204804028726e+01
2.082348561254e+01
2.062086987831e+01
2.163705887071e+01
2.054442485205e+01
1.114590940651e+01
2.410189628629e+01
2.087166381969e+01
1.222286342496e+01
2.121984932071e+01
1.620897544658e+01
1.344682476370e+01
1.620240234581e+01
1.955086539721e+01
1.434704671862e+01
1.761034318302e+01
1.671460195709e+01
1.516177044378e+01
2.000235348970e+01
2.045086467078e+01
2.058898869958e+01
1.624790575440e+01
1.006610981984e+01
1.947534477851e+01
2.272395380932e+01
1.658196494233e+01
1.884078247575e+01
2.138248232094e+01
2.141867250335e+01
1.566995833899e+01
2.457016728771e+01
-1.395637356459e+00
3.022231199639e+01
2.073355319941e+01
1.505523393579e+01
1.976738120585e+01
1.287247114942e+01
2.234496034302e+01
1.994112480631e+01
2.070084736021e+01
1.264033510286e+01
2.110567489099e+01
1.969343120172e+01
1.362191957847e+01
1.923993234609e+01
1.780827729401e+01
1.540066264905e+01
1.991340393663e+01
-5.521739942248e+01
-5.503239111158e+01
2.055118010112e+01
1.152956289500e+01
2.093137181487e+01
2.113262434392e+01
1.974985972325e+01
2.137576903891e+01
1.725849331933e+01
2.750500623283e+01
1.804659662279e+01
2.223357213245e+01
9.378251461090e+00
1.373232170334e+01
1.204472642624e+01
8.310369467751e+00
2.170151801080e+01
1.588260714602e+01
1.122499140195e+01
1.755921057304e+01
1.762522770538e+01
1.281533392786e+01
2.030679795598e+01
1.320544910202e+01
2.065026981869e+01
1.991933440493e+01
1.792053695244e+01
1.731151428159e+01
2.077331037290e+01
2.100573508824e+01
9.860742599129e+00
2.082771568268e+01
1.594138773902e+01
1.974066879000e+01
1.501173940855e+01
1.643122362946e+01
2.661749970046e+01
1.697866574366e+01
1.900763278477e+01
1.971508251083e+01
1.696602446987e+01
1.935115501046e+01
1.551639569521e+01
2.239120231140e+01
1.410587281675e+01
2.639227666497e+00
1.546242589922e+01
1.413688900966e+01
2.128095461394e+01
1.609682431109e+01
2.100544016331e+01
2.136922431366e+01
1.861487491940e+01
1.266245430105e+01
5.366546748060e+00
2.117699372039e+01
1.454524354057e+01
-2.058966971024e+00
1.726078732787e+01
1.134733006989e+01
1.429570697308e+01
1.747495920764e+01
2.150686906717e+01
1.687450344291e+01
1.706472204662e+01
1.613944971465e+01
2.166084927808e+01
1.309437874917e+01
2.142023437579e+01
1.934659641006e+01
2.122017514700e+01
2.912485985845e+01
1.111371486214e+01
1.306757900221e+01
2.408154664361e+01
2.002767277348e+01
1.449889087976e+01
1.634529826547e+01
1.467106344480e+01
1.007878935845e+01
2.139162790671e+01
2.404242863236e+01
2.364182160671e+01
1.799195904054e+01
2.248123604994e+01
9.667381205363e+00
2.205767594118e+01
2.157685780024e+01
2.079688759709e+01
2.097935008881e+01
1.605145583933e+01
2.302075841297e+01
2.171194690265e+01
1.256163893643e+01
1.456658418263e+01
1.699685718548e+01
2.122979754191e+01
2.148356248794e+01
1.754559476501e+01
2.244197260180e+01
1.533919803929e+01
1.376662468823e+01
1.329934427751e+01
1.951389087121e+01
2.201710355279e+01
2.246182985871e+01
1.284472360953e+01
1.854866156079e+01
2.314024506072e+01
2.179793403137e+01
1.648597203777e+01
1.919651006413e+01
1.810073696333e+01
1.023238992512e+01
2.235837155287e+01
1.820270669413e+01
1.480165214994e+01
1.406554364286e+01
2.640386346294e+01
1.721982906850e+01
2.958926422556e+01
1.740976909015e+01
1.869972115367e+01
1.142090548041e+01
2.237412843723e+01
2.226683966957e+01
1.692974780162e+01
2.320072796325e+01
2.259673889272e+01
2.269928793459e+01
2.443543088575e+01
1.163974735902e+01
2.191573026559e+01
2.170501763716e+01
1.980111680379e+01
1.997077122518e+01
2.269915217589e+01
1.485767390847e+01
1.912748841499e+01
2.270774949281e+01
1.594681982565e+01
1.925496121406e+01
2.026482965948e+01
1.490149923523e+01
1.377887090611e+01
2.193611877740e+01
2.216772591489e+01
2.000056538838e+01
-5.818683411689e+01
2.559079956721e+01
2.395527914403e+01
2.118466064380e+01
1.411934593534e+01
2.256784780309e+01
1.656866241564e+01
2.126525644947e+01
1.662938248524e+01
1.645600678044e+01
1.633157563787e+00
7.620837337467e+00
2.024495154086e+01
1.880396818209e+01
2.473034451426e+01
2.216511050215e+01
1.257735150285e+01
8.328330798277e+00
1.298572864123e+01
1.485904787165e+01
2.268166015777e+01
2.038759479855e+01
1.420198378168e+01
1.710333624597e+01
1.971866552447e+01
2.662948161922e+01
2.010494419521e+01
1.679933794984e+01
2.089547587575e+01
2.601105243050e+01
2.775466557219e+01
1.241874079247e+01
1.868556941892e+01
2.276024225255e+01
2.358730834727e+01
1.555070625349e+01
2.328395227924e+01
2.434939616070e+01
2.606467667538e+01
1.803504351621e+01
2.422726906181e+01
1.528017388765e+01
2.686152596671e+01
2.227932031555e+01
2.035117065181e+01
2.211609825588e+01
2.395349296915e+01
1.965358236232e+01
1.677209973957e+01
1.805491392427e+01
1.512436566321e+01
1.743528136097e+01
2.452161122630e+01
2.542575307592e+01
1.598236008973e+01
2.016143417338e+01
1.356009771307e+01
1.854511613614e+01
9.152942352627e+00
2.248419723846e+01
1.772744429850e+01
2.389428504152e+01
1.351596357198e+01
1.666676025063e+01
2.498428176140e+01
2.572865334137e+01
1.785393632425e+01
2.202747768273e+01
1.572504706152e+01
2.409454846188e+01
1.902531280764e+01
1.614620747248e+01
2.106843928452e+01
2.182951748402e+01
2.172678787462e+01
1.346710657427e+01
1.260414665575e+01
2.293982628733e+01
2.242138235284e+01
2.259182392288e+01
5.593001505578e+00
3.016691179753e+01
2.691906365469e+01
2.579424745622e+01
2.281631834913e+01
1.815584374268e+01
1.808994033139e+01
1.767653729848e+01
1.561638973938e+01
1.657610365887e+01
2.198383588713e+01
1.793768615973e+01
1.558328448137e+01
2.168920437914e+01
2.747950590585e+01
1.621682309420e+01
1.747644377043e+01
1.634497193936e+01
1.579101295720e+01
2.190681418618e+01
2.259083008907e+01
2.227026084718e+01
2.223468710088e+01
7.098074530414e+00
2.366070740728e+01
1.560274091668e+01
1.368159851773e+01
2.610726001614e+01
2.568521498836e+01
2.509693180544e+01
3.050404618495e+01
2.679812635496e+01
2.449670606989e+01
1.271712805308e+01
2.204893551422e+01
1.442137702543e+01
9.360850450677e+00
2.578627646002e+01
2.204970265019e+01
2.382107849337e+01
1.831843627115e+01
2.638753864701e+01
2.220530811236e+01
1.461202179081e+01
2.170738358943e+01
2.416430269113e+01
2.540919021665e+01
1.333066326672e+01
2.218855915073e+01
2.478006403517e+01
2.231794510113e+01
2.222579903964e+01
2.444364729619e+01
1.628403979428e+01
2.168886126888e+01
2.198384217540e+01
1.776666886206e+01
1.510692527123e+01
2.225883031204e+01
1.673279957084e+01
2.505581680065e+01
2.670748212825e+01
2.051611514557e+01
3.010536487976e+01
1.719918381184e+01
1.450718683587e+01
1.322604866925e+01
2.118337816764e+01
1.802781323457e+01
2.177132077777e+01
2.005819991070e+01
1.564940886271e+01
2.101184469118e+01
2.860140667394e+01
2.583588459481e+01
1.368807169154e+01
2.475679729177e+01
2.047294581735e+01
2.570163375027e+01
1.924248413794e+01
8.483821827999e+00
2.157698170950e+01
2.808960918995e+01
1.498438146692e+01
3.093331144014e+01
2.190653736677e+01
1.760047191910e+01
1.606541681121e+01
2.404656565109e+01
2.423569052213e+01
2.267659304369e+01
2.259852187251e+01
1.606160264074e+01
2.252309999991e+01
1.517501096080e+01
1.831412716717e+01
1.655564768918e+01
1.696656150176e+01
2.899411765525e+01
2.151571050595e+01
1.611680699069e+01
2.581951389057e+01
-1.058897118282e+01
2.206501633319e+01
3.106792109807e+01
1.545690860077e+01
2.314798182591e+01
1.030527829732e+01
2.335340064879e+01
2.385121088645e+01
1.774631831217e+01
1.813026562386e+01
2.392144220909e+01
1.703748937449e+01
2.731943716375e+01
1.989556833315e+01
-6.588902247954e+00
1.879387708351e+01
3.836179360643e-01
3.009521174783e+00
2.659248468404e+01
5.387642729702e+00
2.362306745318e+01
2.548267706502e+01
2.617622719949e+01
2.923558213806e+01
2.711888947628e+01
1.754088251372e+01
1.857534845722e+01
2.168512329712e+01
2.266002466484e+01
2.526797415475e+01
1.702861507872e+01
2.674454991497e+01
2.124722317876e+01
1.662580041855e+01
1.652168595874e+01
2.476924477206e+01
2.732511969589e+01
2.016412778888e+01
1.651650175409e+01
2.681598706538e+01
3.042223318818e+01
2.302628820167e+01
1.915170257982e+01
2.103925498323e+01
1.605849708592e+01
2.712120903336e+01
1.930134310172e+01
2.357749261881e+01
1.714006533831e+01
1.985480203442e+01
1.438479396533e+01
2.300785407609e+01
2.603765397507e+01
2.334422112745e+01
2.262937013336e+01
1.780176298518e+01
1.961373356095e+01
2.539374874308e+01
3.097349412860e+01
2.193651077607e+01
2.305845420609e+01
2.736124769448e+01
2.480758071102e+01
2.275863545152e+01
2.976367267880e+01
2.604924557276e+01
1.582977677392e+01
2.091230456945e+01
1.662234105652e+01
2.149950813697e+01
1.497238117790e+01
1.310307855287e+01
1.735321299176e+01
2.306963550139e+01
2.154737522780e+01
1.557940404970e+01
1.817357850715e+01
1.405652525968e+01
2.867962923246e+01
2.158320510950e+01
1.788030724240e+01
2.447808386679e+01
2.346178015783e+01
2.787865570813e+01
1.609878439344e+01
1.806873698730e+01
2.368342874900e+01
1.958653232575e+01
2.360567992351e+01
2.141179558556e+01
2.741076357724e+01
2.860951761296e+01
1.823209634226e+01
1.621139180377e+01
2.558038582467e+01
2.180168433549e+01
1.553299455825e+01
2.184523443264e+01
2.647096966394e+01
2.883252242311e+01
2.084821415693e+01
2.044560343298e+01
2.360936751344e+01
2.066230949673e+01
1.956882839505e+01
2.218734294437e+01
2.791867333541e+01
1.433546672582e+01
2.125398320998e+01
2.788980283941e+01
2.108049479558e+01
2.317533163434e+01
2.870281040064e+01
2.020432371318e+01
2.731461011930e+01
2.048917499232e+01
2.354613782473e+01
1.950893150775e+01
2.062593207859e+01
2.980253743076e+01
2.138580905640e+01
1.822287131006e+01
2.171828772779e+01
2.312445036562e+01
2.666680367655e+01
2.034761232183e+01
2.083201400944e+01
1.945599150544e+01
2.088546075188e+01
1.503787815766e+01
2.129123044669e+01
2.196685082838e+01
7.490059100901e+00
7.502811897694e+00
1.619362383966e+01
2.073489542157e+01
2.100450914152e+01
1.749041183443e+01
2.406283900695e+01
2.259767552239e+01
2.643556152794e+01
1.922187583464e+01
1.123242863503e+01
2.401637790002e+01
2.179110576839e+01
3.036205390143e+01
2.131045039147e+01
2.059185574749e+01
1.814115994903e+01
1.500445375617e+01
1.799496314273e+01
1.809792729902e+01
6.169727782549e+00
2.130327636380e+01
1.791657768983e+01
1.652805799132e+01
1.678442235267e+01
2.288792054600e+01
1.161907638252e+01
2.855496720427e+01
2.150663730120e+01
2.061838208589e+01
4.231305836152e+00
5.963888706196e+00
1.497752788301e+01
2.726257800262e+01
2.128029476453e+01
2.351292666837e+01
3.035482664550e+01
2.104241514533e+01
1.738584072671e+01
2.025577715215e+01
2.139205118574e+01
-2.025998463135e+00
2.360350865798e+01
2.120404077386e+01
-1.830234469372e+00
1.745467674866e+01
2.940368968812e+01
1.673346476590e+01
1.897956543962e+01
2.539543436242e+01
2.392780731402e+01
1.781288290913e+01
2.355491522446e+01
2.245162237652e+01
2.226641788385e+01
2.904796712432e+01
2.991919106985e+01
2.119842847632e+01
1.382533220331e+01
2.154395474426e+01
2.709250603615e+01
1.732140255866e+01
2.077347767231e+01
7.294714253399e+00
2.101117386093e+01
2.115588246934e+01
2.147977757949e+01
2.162514810301e+01
2.156060625623e+01
1.820173913180e+01
2.425222530366e+01
1.948677507043e+01
2.523643160833e+01
2.312792081599e+01
2.495828375263e+01
2.993248214989e+01
2.561483156537e+01
2.952970416630e+01
1.731282299647e+01
2.894049047311e+01
1.757421475982e+01
2.300619159189e+01
2.347666934809e+01
2.548151235250e+01
1.439849902743e+01
2.114808936256e+01
2.097068816649e+01
2.363305168522e+01
1.806563912640e+01
2.086475051504e+01
1.057733423355e+01
2.059308165112e+01
2.722881239219e+01
2.095420598488e+01
3.032691222706e+01
1.957441953594e+01
2.357724660373e+01
1.439924478742e+01
1.373182679748e+01
2.148597568607e+01
6.915009536376e-01
2.328491830996e+00
2.083591946662e+01
2.348874433670e+01
2.497517140192e+01
2.400739256778e+01
2.625150281617e+01
2.951963427958e+01
-3.227003324371e+00
1.222162545020e+01
7.520375297173e+00
2.336712797588e+01
2.585094483351e+01
2.219853233764e+01
2.056543664991e+01
2.558241954655e+01
2.081821956199e+01
2.809979388776e+01
2.232642556248e+01
2.210271957325e+01
2.216713827391e+01
2.260159620289e+01
2.061010542384e+01
1.866912596494e+01
2.558680255963e+01
1.804029268845e+01
2.667958292021e+01
2.269745733104e+01
2.626575028452e+01
2.144583245425e+01
1.746578197015e+01
2.746898819252e+01
2.468428718111e+01
2.096805255951e+01
5.390423014509e+00
2.099880210625e+01
1.942890440517e+01
1.453504192939e+01
-2.264074474613e-01
1.967118167366e+01
3.359666030054e+01
-5.449277376242e-01
2.508628107217e+01
2.015279908257e+01
9.050659616749e+00
2.695644368779e+01
2.379352694265e+01
2.118895857249e+01
2.416516048856e+01
1.865869545292e+01
2.833649699397e+01
2.071668097632e+01
2.037207925564e+01
1.640317100213e+01
8.688366026678e+00
1.462442747821e+01
2.033132401692e+01
-6.904689675523e-01
1.384693962852e+01
1.094030002545e+01
2.009125082399e+01
2.743597625977e+01
2.646588275822e+01
2.879310445150e+01
2.078082444224e+01
1.608317431363e+01
2.027517468164e+01
2.825566423397e+01
1.853760522034e+01
1.123103006131e+01
2.311508430227e+01
2.006338188585e+01
2.045967369550e+01
1.015200372904e+01
2.663308787298e+01
2.020845532000e+01
1.492929559698e+01
1.370675943265e+01
2.557851331185e+00
2.061524628760e+01
2.419362761288e+01
2.090976483668e+01
2.221690627128e+01
9.838257258105e+00
2.483542985576e+01
2.467106742068e+01
-1.054378201213e+01
2.006228921842e+01
1.453731773345e+01
9.768348900808e+00
2.037131614215e+01
2.469997992486e+01
2.077578462007e+01
2.159315145494e+01
1.757999710836e+01
2.521241498468e+01
2.302284343959e+01
2.252711130090e+01
2.049381038405e+01
2.031306949819e+01
2.834969065797e+01
4.181078833714e+00
2.789600043924e+01
2.040088230385e+01
2.289998150502e+01
2.177693262707e+01
1.914744011077e+01
1.268455824252e+01
1.815050248650e+01
2.155154108209e+01
6.550878983453e+00
1.918303440459e+01
2.055641931498e+01
1.069774151392e+01
2.348740095915e+01
2.196106295371e+01
2.814786545087e+01
2.862387306098e+00
2.936790105591e+01
1.807160761652e+01
1.543922356092e+01
7.774158244830e+00
2.142676841415e+01
1.286141763624e+01
2.155846853863e+01
1.533544493720e+01
2.175928282349e+01
2.229708204421e+01
2.381238551062e+01
2.023006554980e+01
2.246105920197e+01
1.678977901833e+01
2.058531233477e+01
2.586475218340e+01
1.864684102555e+01
9.026146414860e+00
2.746726222954e+01
1.677465324024e+01
2.032874454819e+01
2.011562675498e+01
2.278158081251e+01
2.186730687761e+01
1.661706052403e+01
1.960862905641e+01
1.906814503810e+01
2.437144130219e+01
2.496145266026e+01
1.899746360956e+01
1.900211039904e+01
-9.034674316778e+00
1.598257391368e+01
2.029290038111e+01
2.907948183620e+01
2.053175843322e+01
1.415681871196e+01
2.404838507113e+01
1.798699545767e+01
2.489834024546e+01
2.522018486380e+01
2.399456134864e+01
1.970144364325e+01
2.524916634257e+01
2.450031084054e+01
2.291772214070e+01
1.452843538516e+01
1.806962190956e+01
2.235033293827e+01
2.407353566675e+01
1.853585744692e+01
1.600341023886e+01
1.819842806309e+01
1.757723494601e+01
-2.176805467126e+01
2.359211950018e+01
1.417219889320e+01
1.511807222994e+01
1.922647949552e+01
2.323757136141e+01
1.960032742421e+01
2.615678738143e+01
7.382412820496e+00
2.097204316921e+01
1.218678203328e+01
2.307699955415e+01
2.444914941360e+01
9.044827332902e+00
1.733809136945e+01
2.761474333697e+01
4.160171990665e-01
2.808295565557e+01
2.027505056678e+01
1.690798752778e+01
8.640656637575e+00
1.941568502917e+01
1.854810249539e+01
2.264934351404e+01
2.087343006466e+01
1.454295444912e+01
2.447668295381e+01
1.424368336533e+01
5.352914693597e+00
2.081748126095e+01
1.927143115379e+01
1.197859896639e+01
1.848662275740e+01
1.973376752737e+01
2.652401052701e+01
2.435876820149e+01
2.209204791175e+01
9.108629227566e+00
1.367778687838e+01
1.969258596286e+01
1.964895130520e+01
2.603226210109e+01
1.907064320305e+01
2.180633657790e+01
1.157161591187e+01
2.714803917351e+01
1.521172586419e+01
2.246830734634e+01
2.087254660160e+01
2.099025319327e+01
2.485101243839e+01
9.549176086687e+00
8.383170075188e+00
2.389147397980e+01
2.214596310940e+01
2.184430216456e+01
2.395836430913e+01
2.341846583125e+01
2.535979867629e+01
2.320742866598e+01
1.774054636119e+01
2.322221625869e+01
1.809851535964e+01
1.708016604125e+01
1.906011937727e+01
2.067366871523e+01
1.204288156096e+01
2.240074216357e+01
1.142949642852e+01
2.295668156679e+01
2.057702219664e+01
2.610540062381e+01
2.432649518537e+01
2.284811648624e+01
9.874152286258e+00
1.817795108743e+01
1.863957698254e+01
2.233428748247e+01
1.821760713924e+01
1.229354560638e+01
1.824865127307e+01
1.952376107872e+01
1.542708408188e+01
2.217040454893e+01
6.992674615535e+00
1.006700747469e+01
1.186406412502e+01
1.237955393096e+01
2.751825904294e+01
1.716376267612e+01
1.865596281497e+01
1.390153304188e+01
2.165302970552e+01
1.897825444229e+01
1.748310342692e+01
1.810388656205e+01
1.814206494841e+01
1.755105711788e+01
2.143112103005e+01
1.768960554407e+01
1.416867357606e+01
2.112772439306e+01
5.422215516515e+00
1.007854339892e+01
2.247690657726e+01
-6.319694015174e+00
-2.091562637311e+01
1.911341070151e+01
7.187737616800e+00
1.855177442573e+01
2.201898171903e+01
7.176611254089e+00
8.847055945900e+00
1.872304007505e+01
5.719771752380e+00
1.829015713881e+01
2.056797746344e+01
1.871504735590e+01
2.842751497650e+01
1.164577906519e+01
1.815386177533e+01
2.247503296932e+01
2.153177473026e+01
1.648515633672e+01
2.160514289230e+01
2.483844385709e+01
2.084775866026e+01
2.623462697284e+01
4.852622056268e+00
2.178108902740e+01
1.878842835314e+01
1.881940717263e+01
9.807538177012e+00
1.197841879842e+01
2.080774585802e+01
1.948587626538e+01
1.656782607610e+01
2.453779155776e+01
2.266806255275e+01
7.284178775357e+00
1.850816572068e+01
1.903452087913e+01
1.918720272968e+01
8.999999999681e+01
-5.088598060500e+01
7.843978751278e+00
7.429952773917e+00
2.055894214039e+01
2.061806482986e+01
-2.068707208982e+01
9.678934054330e+00
2.071578701267e+01
2.153321792891e+01
8.608177691753e+00
2.095704695030e+01
1.985697093235e+01
1.924699184337e+01
1.463146377735e+01
1.507384419774e+01
2.284966386266e+01
4.939894119014e+00
1.876352754951e+01
1.927739997061e+01
1.793621440213e+01
1.909888673124e+01
1.319648433696e+01
2.083778283380e+01
1.866464489611e+01
1.811950118034e+01
7.324891574934e+00
2.349993024136e+01
1.859840216084e+01
1.416986392722e+01
-2.027776405183e+01
2.035109109580e+01
2.326502293765e+01
1.499788449195e+01
1.546534300768e+01
2.062799657800e+01
2.112691809976e+01
2.117057425105e+01
2.013875841515e+01
2.257119461973e+01
1.746580871637e+01
1.971736762474e+01
1.151952599939e+01
2.334357940906e+01
1.831773765759e+01
2.152648097539e+01
4.313858591313e+00
-3.765264668965e+00
1.990551808809e+01
1.576689463293e+01
1.614164023143e+01
1.840834921678e+01
8.488507531042e+00
2.221721974109e+01
1.156430679908e+01
2.133367638356e+01
2.201835231151e+01
1.154447662523e+01
2.159927628475e+01
1.879722707301e+01
1.864833698923e+01
2.288728658014e+01
1.817264058528e+01
2.067095726049e+01
2.248745873668e+01
2.222677234240e+01
2.058543437335e+01
1.804796678645e+01
8.154459194740e+00
2.203948669981e+01
1.879822108504e+01
1.293938583927e+01
2.058676618765e+01
2.175119236342e+01
2.077328537926e+01
1.670978366322e+01
2.136557190202e+01
2.152286041386e+01
2.166807078761e+01
1.639209841104e+01
2.080614980941e+01
9.559147905436e+00
1.813946148348e+01
-3.207394789728e+00
1.763609928782e+01
1.552585386193e+01
-3.743399471957e-01
2.787516823023e+01
1.856587803539e+01
1.875337386882e+01
1.825106090057e+01
2.199508618252e+01
1.308822689300e+01
-2.020473000281e+01
2.237111473654e+01
-1.634216197334e+01
2.682470173891e+00
2.999233204569e+01
1.851473102031e+01
2.062711734702e+01
1.873443215791e+01
1.297055294412e+01
1.786847870931e+01
2.138760516671e+01
2.241804863429e+01
2.179503917195e+01
2.051252295966e+01
1.906328981652e+01
-4.390759755466e+00
1.978335585096e+01
2.072466851047e+01
-1.655269895489e+00
2.887184138479e+00
2.600216701999e+01
-7.152157263798e+00
2.108176442594e+01
2.017920603321e+01
1.835964698607e+01
2.132010540146e+01
2.245571770320e+01
1.395194635011e+01
1.943282559269e+01
2.346212137980e+01
7.076555725312e+00
1.080471772133e+01
-1.942541958816e+01
2.072239968790e+01
9.951414922742e+00
5.121948341098e+00
1.839951652604e+01
1.988660020655e+01
1.823298374542e+01
1.901307691501e+01
1.551965964535e+01
1.903124390964e+01
2.107700785927e+01
1.905889360061e+01
2.067974573340e+01
9.699428865007e+00
2.185280087480e+01
4.600185421685e+00
1.847073089876e+01
-2.227494683378e+01
2.121689223913e+01
1.889209148821e+01
1.755034981515e+01
2.124534087420e+01
1.625647594832e+01
1.878259158208e+01
2.096404428349e+01
1.492041719010e+01
2.004620893959e+01
1.847365618769e+01
1.559385798606e+01
1.947929502454e+01
1.701278498033e+01
7.322372465143e+00
2.168804217522e+01
1.876897206278e+01
8.745572508946e+01
7.452242974555e+00
2.058203935054e+01
7.902772267442e+00
2.260952637817e+01
1.850205652634e+01
1.864439159161e+01
7.952482497473e+00
2.558206799590e+01
1.950619622677e+01
1.722434387085e+01
7.588514025030e+00
1.893933742051e+01
1.456941214008e+01
1.349267580803e+01
1.357095519625e+01
2.153697023268e+01
1.963304825840e+01
3.499586537224e+01
1.652594604604e+01
1.911174994065e+01
1.971432484316e+01
2.191243195094e+01
1.890442570907e+01
1.916172320487e+01
-7.575859067714e+00
2.109606356996e+01
2.040616838926e+01
2.687828098344e+01
1.876465064196e+01
2.057323615783e+01
9.835850021042e+00
1.453404863628e+01
1.882955814890e+01
1.895158184397e+01
1.924091532773e+01
2.268485032032e+01
8.671046531321e+00
2.035028986735e+01
1.182996434164e+01
1.872451007770e+01
2.244708990740e+01
1.352234649089e+01
1.912434682624e+01
2.194427888722e+01
2.192100584144e+01
2.693422182571e+01
1.911579631158e+01
1.954859594298e+01
-5.773363931072e+00
1.852816828162e+01
2.483376901719e+01
1.928814134000e+01
-3.747612116337e+01
-3.968144785417e+01
-3.920656425835e+01
-3.981815261789e+01
-3.951286330244e+01
-3.997512146047e+01
-3.980998985165e+01
-4.043476849506e+01
-4.014289942877e+01
-4.114828307526e+01
-4.055363926366e+01
-4.210197985329e+01
-4.104978276499e+01
-4.328028284032e+01
-4.159055180512e+01
-4.469034531623e+01
-2.933192879469e+01
-4.216238796433e+01
-4.636655456842e+01
-5.624009941923e+01
-4.281385459885e+01
-4.831974639206e+01
-2.475382650980e+01
-4.343499862958e+01
-5.049356794084e+01
-4.392745953763e+01
-5.274139199241e+01
-4.420466824487e+01
-5.474755805089e+01
-8.300630958329e+00
-4.402149455083e+01
-5.603198618547e+01
-4.347972948713e+01
-5.692174015188e+01
-5.686389055285e+01
-4.168062864299e+01
-5.707873848296e+01
-3.893643940121e+01
-5.084414232849e+01
-3.392853412738e+01
-1.865270265341e+01
-3.598482609872e+01
-3.708382288753e+01
-4.047640489858e+01
-3.446471610015e+01
-5.188513364736e+00
-2.103452493777e+01
-1.909837885063e+01
-1.911524273240e+01
-1.895616696707e+01
-1.903878098509e+01
-1.888325024116e+01
-1.898685853260e+01
-1.882545574489e+01
-1.896999868923e+01
-1.876516583462e+01
-1.894885390861e+01
-1.869080318421e+01
-1.891229019038e+01
-1.863214112006e+01
-1.888794371067e+01
-1.135298920867e+01
-1.858218310995e+01
-1.439276253696e+01
-1.889675249385e+01
-1.850451510919e+01
-1.883458131959e+01
-1.843971003011e+01
-1.876441682803e+01
-1.841119387467e+01
-1.871799003354e+01
-1.871885869248e+01
-1.842528048658e+01
-1.866373831150e+01
-1.853183110128e+01
-1.865123152557e+01
-1.856257299420e+01
-1.827908461106e+01
-1.870082627507e+01
-1.789381088895e+01
-1.788268575109e+01
-8.726916143524e+00
-1.599841402902e+01
-1.608245686488e+01
-1.784093567387e+01
-2.017114432609e+01
-1.427057015536e+01
-2.610625018948e+01
-1.112303978221e+01
-3.056186879540e+00
-4.012452827794e+00
-4.037823254905e+00
-4.135105330241e+00
-4.116996773991e+00
-4.099032422087e+00
-4.091632567930e+00
-4.129292313325e+00
-4.114637096593e+00
-4.122082348838e+00
-4.121058431134e+00
-4.126636440698e+00
-4.135931639715e+00
-2.053003085730e+00
-4.093742096350e+00
-4.159567036967e+00
-5.595811666666e+00
-4.172302807522e+00
-4.228732529461e+00
-4.021362001111e+00
-4.144089763946e+00
-4.251726650188e+00
-4.100246913408e+00
-4.296137162269e+00
-4.117212773415e+00
-1.974185135395e+00
-4.378120939435e+00
-4.110656783603e+00
-4.044844104998e+00
-4.452929591241e+00
-4.110749187924e+00
-4.533646668807e+00
-3.354560287392e+00
-4.492590742161e+00
-6.859420789904e+00
-4.254724593914e+00
-2.891373805837e+00
-6.487571357334e+00
-1.381184141323e+00
-4.130696572336e+00
3.107934909100e+00
3.392977869246e+00
3.392541411422e+00
3.414740349859e+00
3.401928235561e+00
3.434074077909e+00
3.442335266026e+00
3.353464811062e+00
3.348565887315e+00
3.341604148992e+00
3.365174719712e+00
3.289910001681e+00
3.901684486889e+00
3.314915326456e+00
2.865602208058e+00
3.220165451401e+00
3.299365188872e+00
3.155807190380e+00
3.203611141957e+00
3.095440140449e+00
3.223714524724e+00
3.025707401763e+00
1.942623204373e+00
3.209137420141e+00
2.922065690609e+00
3.134405658083e+00
2.827972704339e+00
2.791370287559e+00
3.144451665097e+00
3.273857243466e+00
3.713513266732e+00
9.628403184523e-01
3.592152163308e+00
3.087583918638e+00
4.713057673717e+00
1.734146929450e+00
2.060779877127e+00


